>compound Cyclamate
#instrument LTQ Orbitrap XL Thermo Scientific
>formula C6H13NO3S
#smiles C1(CCCCC1)NS(O)(=O)=O
#inchi InChI=1S/C6H13NO3S/c8-11(9,10)7-6-4-2-1-3-5-6/h6-7H,1-5H2,(H,8,9,10)
>charge 1
>ionization [M+H]+
>parentmass 180.0689

>collision 60
55.0543 8323.2
83.0854 14939.6

>collision 15
55.0541 5814.0
83.0855 19980.6
107.0701 3014.7

>collision 30
55.0541 9097.1
83.0856 42871.6
89.0595 2684.6

>collision 35
55.0542 5878.3
83.0854 82769.1
107.07 3874.3

>collision 45
55.0541 8274.7
83.0855 30072.5

>collision 30
55.0542 5458.1
83.0855 21407.4

>collision 45
55.0542 3847.1
83.0855 10661.0

>collision 15
55.054 1655.0
83.0855 13374.4
107.0702 3516.8

>collision 35
83.0855 21198.8
89.0596 1419.6
107.0702 4837.4

