>compound Furosemide
#instrument LTQ Orbitrap XL Thermo Scientific
>formula C12H11ClN2O5S
#smiles NS(=O)(=O)c2cc(c(NCc1ccco1)cc2Cl)C(=O)O
#inchi InChI=1S/C12H11ClN2O5S/c13-9-5-10(15-6-7-2-1-3-20-7)8(12(16)17)4-11(9)21(14,18)19/h1-5,15H,6H2,(H,16,17)(H2,14,18,19)
>charge 1
>ionization [M+H]+
>parentmass 331.015

>collision 60
81.0334 15675.7
98.9841 41521.6

>collision 45
81.0335 49484.7
98.9841 50761.4

>collision 15
81.0334 30871.4
98.9841 21778.6
174.9917 3562.4
176.9888 8934.3
252.9966 11353.6
254.9935 5603.7

>collision 75
81.0334 25342.1
98.9841 40918.4

>collision 15
81.0335 71051.9
98.984 19373.0
174.9924 4271.9
176.9892 11515.9
252.997 9433.9
254.9935 3892.6

>collision 30
81.0334 27028.8
98.9841 47304.3
195.9502 1846.0
262.9888 1939.5

>collision 30
81.0335 60515.8
98.9841 45569.2

>collision 90
81.0333 13750.8
98.984 32820.8
195.9484 2956.4

>collision 35
174.9916 7399.2
176.9887 16506.3
252.9968 53495.4
254.9935 27987.4
262.9892 7417.8

>collision 90
81.0335 6333.5
98.9841 30185.0

>collision 35
98.984 7668.4
174.992 5652.5
176.9891 10315.7
195.9487 3293.8
252.9969 50853.4
254.9939 23950.0

>collision 75
81.0334 10162.8
98.9841 38625.3

>collision 45
81.0334 22938.5
98.9841 43012.8

>collision 60
81.0334 42383.0
98.9841 44966.7

