>compound Neohesperidin dihydrochalcone
#instrument LTQ Orbitrap XL Thermo Scientific
>formula C28H36O15
#smiles O([C@H]1[C@H](O[C@H]2[C@@H]([C@@H]([C@@H](O)[C@@H](O2)C)O)O)[C@H]([C@H](O)[C@H](O1)CO)O)c1cc(c(C(CCc2cc(c(OC)cc2)O)=O)c(c1)O)O
#inchi InChI=1S/C28H36O15/c1-11-21(34)23(36)25(38)27(40-11)43-26-24(37)22(35)19(10-29)42-28(26)41-13-8-16(32)20(17(33)9-13)14(30)5-3-12-4-6-18(39-2)15(31)7-12/h4,6-9,11,19,21-29,31-38H,3,5,10H2,1-2H3/t11-,19+,21-,22+,23+,24-,25+,26+,27-,28+/m0/s1
>charge 1
>ionization [M+H]+
>parentmass 613.2127

>collision 75
137.0597 30769.9

>collision 75
137.0597 12180.2
195.9638 2044.2

>collision 60
122.0356 2507.5
137.0596 42945.2

>collision 90
122.0362 4635.0
137.0595 17775.7
195.9644 2821.2

>collision 30
137.0596 30279.8
179.0703 18911.0

>collision 60
137.0595 15423.5

>collision 45
137.0597 15480.3

>collision 35
179.0698 2313.5
433.1484 10074.14655
451.1587 35215.8758
475.1589 20609.964
491.1558 10569.17663
541.169 15714.57946
559.18 29587.66857
577.1907 92934.12193
595.2012 84787.11144

>collision 45
137.0597 50758.7
179.0708 5319.7

