>compound Cymoxanil
#instrument LTQ Orbitrap XL Thermo Scientific
>formula C7H10N4O3
#smiles CCNC(=O)NC(=O)/C(=N/OC)/C#N
#inchi InChI=1S/C7H10N4O3/c1-3-9-7(13)10-6(12)5(4-8)11-14-2/h3H2,1-2H3,(H2,9,10,12,13)/b11-5+
>charge 1
>ionization [M+H]+
>parentmass 199.0826

>collision 90
53.0134 209151.4
58.0288 10227.9
83.0241 741803.2
85.0397 13048.9
111.0189 181903.5
129.0295 10963.6

>collision 60
53.0134 233829.2
58.0287 38933.0
71.024 5652.3
83.024 1810338.5
85.0397 15839.9
110.0349 37468.3
111.0189 1396462.0
113.022 2916.1
128.0455 658024.7
129.0295 86301.7

>collision 90
53.0134 73298.3
58.0286 3381.1
83.024 267902.1
85.0397 3825.4
91.0544 1635.2
93.0695 2293.4
111.0188 59788.0
129.0296 4443.9

>collision 15
53.0136 2858.9
58.0287 34914.8
71.024 3243.7
83.0241 20027.8
110.0348 9890.5
111.0189 311963.5
128.0453 1966281.8
129.0292 4994.7

>collision 30
53.0134 22118.2
57.0448 7672.1
58.0288 141308.6
71.024 19013.4
83.0241 455366.3
85.0396 8644.8
110.035 49541.9
111.019 1356453.2
128.0454 7109386.6
129.0295 24444.9

>collision 60
53.0134 89769.5
58.0287 13274.3
71.024 3729.7
83.024 713179.0
85.0396 6174.6
110.0348 13175.7
111.0189 523344.1
128.0454 253614.0
129.0294 26511.4

>collision 30
53.0134 8881.1
58.0287 61377.9
71.024 4940.8
83.024 187509.9
85.0396 4022.3
110.0348 19411.2
111.0189 544234.4
128.0454 2801227.5
129.0294 12281.9

>collision 45
53.0134 47355.9
58.0287 32661.3
71.024 3689.3
83.024 611286.1
85.0397 2788.5
110.0348 20391.5
111.0189 661380.9
128.0454 1110922.7
129.0294 31969.0

>collision 15
53.0134 5339.1
58.0288 84080.4
71.0238 8502.4
83.0239 42269.6
110.035 22878.0
111.0189 702132.7
128.0454 4641206.2
129.0294 5682.5

>collision 45
53.0134 113463.9
58.0288 92953.1
71.0239 17190.5
83.0241 1592500.9
85.0396 7545.1
110.035 54841.6
111.0189 1689489.3
128.0454 2882295.0
129.0295 66789.1

>collision 35
58.0288 25680.4
83.0243 21146.4
111.0189 215833.5
128.0455 15461134.4

>collision 75
53.0134 286691.4
58.0288 21016.9
83.0241 1397757.6
85.0396 12994.9
110.035 17689.4
111.019 655181.3
128.0455 88519.4
129.0295 43515.8

>collision 35
58.0287 5465.5
111.019 32621.5
128.0454 2490490.6
167.0675 14759.8

>collision 75
53.0134 107170.2
58.0287 7034.6
81.0698 1987.5
83.024 504886.1
85.0396 5417.6
91.054 2456.0
110.0349 7300.0
111.0189 226516.0
128.0454 32327.3
129.0294 14980.9

