>compound Bisphenol A
#instrument LTQ Orbitrap XL Thermo Scientific
>formula C15H16O2
#smiles CC(C)(C1=CC=C(O)C=C1)C2=CC=C(O)C=C2
#inchi InChI=1S/C15H16O2/c1-15(2,11-3-7-13(16)8-4-11)12-5-9-14(17)10-6-12/h3-10,16-17H,1-2H3
>charge 1
>ionization [M+H]+
>parentmass 229.1223

>collision 45
81.0698 3448.7
95.0854 4718.9
109.1015 2949.9
219.0899 1993.4
229.1218 2112.5

>collision 30
81.0696 2563.2
95.0855 3839.8
201.079 6334.5
229.1215 33647.2

>collision 35
95.0852 2362.6
109.1011 2405.3
147.1165 2509.1
159.1167 4906.8
169.0859 3373.8

>collision 30
95.0856 2412.7
147.117 1850.0
219.09 3142.9
229.1216 26252.4

>collision 15
109.1014 2198.3
201.0793 1732.8
229.1217 63708.5

>collision 75
81.07 3331.8
95.0855 3471.4

>collision 35
95.0853 3169.6
159.1163 4593.7
169.0863 2483.1
201.0794 5285.2

