>compound Erythromycin
#instrument LTQ Orbitrap XL Thermo Scientific
>formula C37H67NO13
#smiles CC[C@@H]1[C@@]([C@@H]([C@H](C(=O)[C@@H](C[C@@]([C@@H]([C@H]([C@@H]([C@H](C(=O)O1)C)O[C@H]2C[C@@]([C@H]([C@@H](O2)C)O)(C)OC)C)O[C@H]3[C@@H]([C@H](C[C@H](O3)C)N(C)C)O)(C)O)C)C)O)(C)O
#inchi InChI=1S/C37H67NO13/c1-14-25-37(10,45)30(41)20(4)27(39)18(2)16-35(8,44)32(51-34-28(40)24(38(11)12)15-19(3)47-34)21(5)29(22(6)33(43)49-25)50-26-17-36(9,46-13)31(42)23(7)48-26/h18-26,28-32,34,40-42,44-45H,14-17H2,1-13H3/t18-,19-,20+,21+,22-,23+,24+,25-,26+,28-,29+,30-,31+,32-,34+,35-,36-,37-/m1/s1
>charge 1
>ionization [M+H]+
>parentmass 734.4685

>collision 90
83.0491 13995.5

>collision 45
83.0491 21545.5
116.0702 2250.2
116.1068 6113.0
158.1174 11265.3

>collision 15
158.1176 3791.8
734.4682 16517.2

>collision 90
83.0491 12266.8

>collision 35
522.3419 21540.5
576.3738 105176.5
716.4577 15693.7

>collision 30
83.0491 24582.4
116.1071 8317.3
158.1175 35432.9
576.3762 1947.2

>collision 75
83.0491 16211.8

>collision 60
83.0492 17334.7

>collision 15
158.1178 9045.5
734.4677 15819.9

>collision 75
72.0806 3044.6
83.0491 16014.7

>collision 35
522.3428 9365.4
576.3749 70368.0
716.4581 6092.4

>collision 30
83.0491 26217.7
116.0703 3833.8
116.1068 9807.5
158.1176 37962.4

>collision 60
72.0807 2167.0
83.0491 16070.3
116.0704 2867.5
116.1074 2363.0

>collision 45
83.0491 22446.1
116.0705 3103.2
116.1074 6666.9
158.1173 8940.0

