>compound 2',3'-di-O-acetyl-5'-deoxy-5-fluorocytidine
#instrument LTQ Orbitrap XL Thermo Scientific
>formula C13H16FN3O6
#smiles FC=1\C(=N/C(=O)N(C=1)[C@@H]2O[C@@H]([C@@H](OC(=O)C)[C@H]2OC(=O)C)C)\N
#inchi InChI=1S/C13H16FN3O6/c1-5-9(22-6(2)18)10(23-7(3)19)12(21-5)17-4-8(14)11(15)16-13(17)20/h4-5,9-10,12H,1-3H3,(H2,15,16,20)/t5-,9-,10-,12-/m1/s1
>charge 1
>ionization [M+H]+
>parentmass 330.1096

>collision 90
71.0489 2850.5

>collision 90
71.0492 2023.0
99.044 4740.4

>collision 75
71.0491 5306.2
99.044 32145.2

>collision 15
99.0441 112432.4
130.0416 6784.3
141.0545 17949.4
201.076 48401.0

>collision 75
99.044 11664.1

>collision 30
71.0493 3570.2
99.044 141642.1
141.0544 4216.2
201.0758 8936.1

>collision 30
71.0493 2804.0
99.044 52317.5
130.0418 2053.4
201.0764 2627.9

>collision 60
71.0492 2447.6
99.044 25637.1

>collision 45
71.0493 2270.0
99.044 38456.4

>collision 15
99.044 53627.2
130.0411 3896.5
141.0545 8884.0
201.0755 17433.1

>collision 35
99.044 51375.4
130.041 28735.3
141.0545 22640.4
201.0758 211258.1

>collision 35
99.044 6172.7
130.0411 4945.8
141.0547 1909.7
201.0755 30975.4

>collision 60
71.0493 4954.2
99.044 69214.3

>collision 45
71.0491 3823.3
99.044 98834.2

