>compound Prosulfocarb
#instrument LTQ Orbitrap XL Thermo Scientific
>formula C14H21NOS
#smiles C(N(CCC)C(SCc1ccccc1)=O)CC
#inchi InChI=1S/C14H21NOS/c1-3-10-15(11-4-2)14(16)17-12-13-8-6-5-7-9-13/h5-9H,3-4,10-12H2,1-2H3
>charge 1
>ionization [M+H]+
>parentmass 252.1417

>collision 35
86.0601 707197.1
91.0542 848061.0
128.107 3178287.6
192.1746 151369.0

>collision 15
86.0601 93882.9
91.0541 385636.0
128.1071 381115.5
192.1748 9649.4
252.1419 6287340.4

>collision 30
65.0384 14150.8
86.0601 282110.9
91.0544 3806931.7
128.107 324286.7
192.1746 18346.3
252.1415 1748004.7

>collision 45
65.0387 13308.0
86.0601 31847.4
90.0466 7321.1
91.0543 4043786.1
100.112 5038.9
128.107 32934.3
252.1406 21727.6

>collision 35
86.0601 412997.8
90.0465 3594.7
91.0543 492959.7
100.1121 13761.0
128.1071 1800913.4
192.1747 81909.5

>collision 60
65.0385 22494.2
91.0543 5400561.5

>collision 75
65.0386 47235.9
91.0543 5148959.2

>collision 60
65.0385 14788.2
91.0543 3826202.5

>collision 90
65.0386 90387.4
91.0543 3284465.7

>collision 45
65.0386 26500.2
86.0601 45616.3
89.0386 8221.2
91.0543 5249460.0
128.107 54354.0

>collision 15
86.0601 103907.8
91.054 473326.2
128.107 417493.2
192.1749 8328.9
252.1418 7677826.9

>collision 75
65.0386 30462.5
89.0384 4779.9
91.0543 3799183.9

>collision 90
65.0386 160915.0
91.0544 4845975.9

>collision 30
65.0385 14439.9
86.0601 235752.1
91.0543 3220843.4
100.1121 8093.6
128.107 257600.9
192.1744 14516.0
252.1418 1621621.6

