>compound 5-Chloro-2-methyl-4-isothiazolin-3-one (CMI)
#instrument LTQ Orbitrap XL Thermo Scientific
>formula C4H4ClNOS
#smiles c1(n(sc(c1)Cl)C)=O
#inchi InChI=1S/C4H4ClNOS/c1-6-4(7)2-3(5)8-6/h2H,1H3
>charge 1
>ionization [M+H]+
>parentmass 149.9775

>collision 30
149.9777 169681964.1

>collision 90
57.9873 190804.3
58.0288 1899808.5
58.995 722209.2
59.9903 399964.2
60.0027 169804.1
60.984 105429.3
61.9793 87074.1
62.006 311212.6
62.9998 228425.5
63.9949 170358.6
66.0107 154196.0
67.0179 1498033.2
68.9796 217061.6
69.9748 169751.2
69.9873 148190.6
70.0289 79408.8
70.9952 2024455.3
71.9904 98446.5
72.003 386506.7
72.9841 469611.0
74.006 971909.5
74.9997 555214.9
75.9951 98992.6
78.0106 1122112.3
78.9404 931362.2
79.9482 280620.8
80.9562 203204.4
82.9825 574044.6
83.9665 1188069.0
84.9743 698245.9
86.006 1160201.4
86.9634 3373085.7
87.0138 936291.5
87.995 636124.9
88.979 129847.0
90.0008 201990.6
90.9406 439496.0
92.9561 1276994.8
94.9719 1005895.7
95.9904 5383863.7
102.0011 83274.7
102.9406 732934.0
102.9946 2501458.1
104.9562 2095660.2
106.0055 693519.7
106.9592 1585214.9
106.9718 891244.9
114.0009 414743.7
115.0088 8364646.5
115.9901 103625.2
116.9978 575590.9
117.9514 295251.9
118.9355 6923250.4
119.9668 207436.8
120.951 1934129.9
121.9828 137923.5
131.967 268975.7
132.9507 560074.7
134.9541 13818262.3
147.962 328387.4
149.9776 32476608.7

>collision 75
58.0288 1036900.9
58.995 465351.8
59.9903 294781.4
60.0029 90976.2
60.984 77500.7
62.0059 205015.6
62.9996 167960.6
63.9949 119558.8
66.0106 101331.1
67.0179 493616.4
68.9794 110941.1
70.9951 1423122.6
72.0029 228050.4
72.984 229955.1
74.0059 475779.7
74.9997 229570.7
75.9948 73849.9
78.0105 856200.9
78.9404 528449.3
79.9483 78139.7
80.9561 110829.6
82.0289 65372.3
82.9824 155526.7
83.9664 344145.9
84.9743 415678.0
86.006 879963.5
86.9633 483003.5
86.99 113746.7
87.0138 531981.4
87.9948 197125.3
88.979 74466.4
90.0009 153708.7
90.9404 147805.9
92.9561 725348.3
94.9718 946655.9
95.9903 3834041.0
102.0008 75802.4
102.9404 457941.5
102.9946 1441347.7
104.9561 1826840.2
106.0055 560028.0
106.9592 486015.4
106.9717 891036.2
114.001 251041.7
115.0087 7804662.6
115.9899 128291.7
116.9977 476408.8
117.9514 123358.4
118.9354 5138777.8
119.9669 114800.2
120.9511 1587614.1
121.9827 191925.0
122.967 66397.8
131.9671 174068.4
132.9511 621103.9
134.9541 7617967.3
147.9621 230621.3
149.9776 57993583.6

>collision 15
149.9775 31612876.7

>collision 60
58.0288 489763.6
58.995 530156.5
59.9903 286049.5
62.9997 131902.2
67.0179 219100.2
70.9951 1152123.0
72.984 169223.2
74.006 218837.9
78.0106 710802.8
78.9405 439912.6
83.9665 211928.4
84.9743 316056.6
86.006 797278.6
87.0138 387933.7
92.9562 474706.1
94.9718 969376.0
95.9904 2577436.9
102.9405 427860.4
102.9946 812413.4
104.9561 1611278.4
106.0054 640453.8
106.9718 1258768.0
114.0009 275616.8
115.0088 6408925.5
115.9898 127499.1
116.9977 405507.4
118.9355 3572941.8
120.9511 1635068.8
121.9826 261691.4
131.9675 147761.7
132.951 783847.3
134.9541 3435343.0
147.9621 221617.8
149.9776 121741852.3

>collision 30
149.9777 163127976.0

>collision 45
70.9951 222530.6
86.0059 199144.9
94.9718 285365.6
95.9903 498770.9
102.9946 155777.1
104.9561 419482.5
106.0054 174612.6
106.9718 407899.2
115.0088 1322903.4
116.9977 143151.0
118.9354 626078.6
120.9511 478182.0
132.9511 332118.8
134.9541 373053.2
149.9777 141178550.1

>collision 60
58.0288 499188.1
58.995 353387.0
59.9903 178567.2
66.0106 125445.0
67.0179 159827.2
70.9951 849293.2
72.984 119725.9
74.0061 127861.0
78.0106 561205.4
78.9405 378087.1
83.9664 128672.4
84.9744 138342.4
86.006 604664.9
87.0138 301282.2
92.9561 441610.0
94.9718 759427.7
95.9903 2291449.0
102.9406 230650.3
102.9946 715040.1
104.9561 1275951.7
106.0056 474666.6
106.9718 1088151.0
114.001 243921.9
115.0088 5228136.3
116.9978 428576.8
118.9354 2896276.4
120.9511 1158268.3
121.9828 255193.0
131.9671 162855.9
132.951 606849.1
134.9542 2677306.6
147.9622 112436.3
149.9777 109389118.8

>collision 75
58.0288 1206316.5
58.9951 727331.5
59.9904 366381.5
60.003 109292.9
60.9841 71520.6
62.006 246678.8
62.9997 177174.3
63.9949 173603.3
66.0106 127982.9
67.0179 671403.3
68.9795 183978.1
69.9746 102017.4
69.9872 72854.0
70.9951 1912908.9
72.003 185444.5
72.9841 355102.5
74.006 595262.2
74.9998 308545.6
75.9946 81511.5
78.0106 1152999.0
78.9405 781255.5
79.9484 107259.6
80.9562 105158.1
82.0287 90666.3
82.9825 204814.2
83.9665 604418.3
84.9743 554788.6
86.006 1269994.5
86.9633 675030.3
86.9901 134316.3
87.0139 690623.6
87.9949 352531.4
88.9788 155185.1
90.001 241769.9
90.9404 242575.8
92.9561 1153446.6
94.9718 1186100.7
95.9904 4657759.1
102.9405 641269.2
102.9946 1942668.2
104.9561 2347828.2
106.0054 900825.7
106.9592 632977.5
106.9718 1265058.1
114.0009 366383.3
115.0087 9380284.9
115.9899 128340.9
116.9977 677182.9
117.9515 160969.4
118.9354 6318326.3
119.9673 97394.5
120.9511 2054795.8
121.9828 313942.5
122.9663 84627.9
131.9672 271067.0
132.9511 709311.3
134.9541 9241509.1
147.9621 262543.5
149.9776 68937906.9

>collision 35
70.9952 98582.8
78.0106 61366.8
94.9716 58681.0
95.9906 67573.8
104.9561 281361.6
106.0052 142491.7
106.9717 445922.7
114.0005 62801.3
115.0087 383701.8
116.9975 90874.1
118.9355 78147.8
120.9511 571651.8
132.951 378369.8
149.977 521549.6

>collision 90
57.9872 125032.3
58.0288 1400598.0
58.995 439822.4
59.9903 267523.7
60.0029 159701.5
60.984 77524.9
61.9793 59738.6
62.0059 239878.7
62.9997 141739.2
63.9949 108768.7
66.0105 95238.1
67.0179 1107563.9
68.9795 130286.9
69.9747 102262.2
69.9872 100959.1
70.0289 35058.0
70.9951 1427106.2
71.9903 80969.1
72.0029 240984.5
72.984 346835.4
74.006 650922.1
74.9997 440610.3
75.9948 41186.4
78.0106 786448.1
78.9404 610290.0
79.9483 254389.6
80.9561 166377.9
82.0289 45645.0
82.9825 495030.5
83.9665 852965.3
84.9744 529766.7
86.006 886707.0
86.9633 2183542.5
86.99 168862.1
87.0138 606307.9
87.9949 393311.3
88.9789 124942.7
90.0008 160170.1
90.9405 235465.6
92.9561 975023.1
94.9718 671022.5
95.9904 4013447.4
102.0008 62457.7
102.9405 556863.0
102.9946 1800018.8
104.9561 1540309.9
106.0056 480695.9
106.9592 1171416.0
106.9717 679963.4
114.001 285998.8
115.0087 6654112.0
115.9899 94989.3
116.9977 444506.4
117.9515 222018.2
118.9354 5342522.4
119.967 81275.5
120.9511 1342333.3
121.9828 82592.3
122.967 34171.6
131.9672 172345.9
132.9511 395063.1
134.9541 10755978.8
147.9621 174753.7
149.9776 25017690.1

>collision 15
134.9537 52310.3
149.9775 27222066.4

>collision 35
70.9951 41202.4
78.0104 38086.0
86.006 57038.3
104.9561 140383.2
106.0054 63871.7
106.9717 277436.2
115.0086 180807.4
116.9976 57409.0
118.9352 67598.8
120.951 302720.1
121.9824 32042.7
132.9508 277586.9

>collision 45
58.0287 165318.0
70.9951 298462.0
78.0107 231925.2
78.9403 199949.3
86.006 294545.7
94.9719 277119.0
95.9904 587357.5
102.9947 196033.1
104.9562 461508.8
106.0055 252408.7
106.9718 563296.0
115.0088 1895322.1
116.9977 168403.3
118.9355 769588.2
120.9513 625297.4
132.9511 367231.1
134.954 591516.7
149.9777 164740821.1

