>compound Paracetamol
#instrument LTQ Orbitrap XL Thermo Scientific
>formula C8H9N1O2
#smiles CC(=O)NC1=CC=C(O)C=C1
#inchi InChI=1S/C8H9NO2/c1-6(10)9-7-2-4-8(11)5-3-7/h2-5,11H,1H3,(H,9,10)
>charge 1
>ionization [M+H]+
>parentmass 152.0706

>collision 15
110.06 30527.5
152.0707 2358669.2

>collision 45
65.0385 6108.9
82.0653 2884.4
92.0494 11457.3
93.0335 11871.9
110.0601 907131.5
111.044 4798.3
134.06 28399.2
152.0706 1458423.7

>collision 60
65.0386 50622.0
82.0651 15302.1
92.0495 51781.6
93.0335 49177.0
110.0601 1653331.7
111.0441 17334.8
134.0599 45159.3
152.0706 638387.2

>collision 45
65.0386 5631.3
82.0651 3208.6
92.0496 13174.6
93.0335 15292.9
110.0601 1078005.6
111.044 5848.8
134.0602 34452.8
152.0707 1774802.5

>collision 30
110.0601 244175.6
134.0603 5773.9
152.0707 2674732.7

>collision 90
65.0386 259595.3
67.0542 5689.6
81.0573 2336.8
82.0651 47951.3
92.0495 112282.7
93.0335 108033.7
93.0572 11016.8
109.0522 21784.4
110.06 629105.0
111.044 40963.8
121.0396 28468.2
134.0599 7830.6
152.0707 12656.1

>collision 75
65.0386 137706.7
67.0543 3563.1
82.0651 31023.8
92.0494 89593.4
93.0335 91523.3
93.057 4754.3
109.0522 8958.6
110.0601 1119999.7
111.044 31603.0
121.0396 14984.2
134.0599 20442.8
152.0705 88150.0

>collision 90
65.0386 354293.7
67.0543 8451.9
81.0572 5263.2
82.0652 63068.9
92.0495 149405.0
93.0335 153943.3
93.0573 14346.0
109.0522 24493.9
110.0601 864617.9
111.0441 50957.0
121.0396 37468.7
134.0601 10995.6

>collision 15
110.06 40567.7
152.0708 2906494.2

>collision 30
65.0384 2378.2
92.0497 2803.8
93.0338 2580.5
110.0601 214602.1
134.0601 3523.4
152.0706 2238597.9

>collision 60
65.0386 46762.3
82.0651 12368.2
92.0494 38074.4
93.0335 39608.8
109.052 4205.9
110.0601 1381177.2
111.044 13330.1
121.0396 2461.0
134.06 33371.7
152.0706 503238.3

>collision 35
65.0389 3034.6
92.0495 2039.5
93.0335 1674.7
110.06 754172.2
111.044 8413.2
134.06 28302.5
152.0706 1020837.6

>collision 35
110.0601 900803.6
111.0439 12381.6
134.0601 30186.6
152.0707 2196460.7

>collision 75
65.0386 179358.1
82.0651 46130.9
92.0494 105217.7
93.0335 111872.8
93.0572 7591.3
109.0524 12177.3
110.0601 1420655.6
111.0439 36586.1
121.0395 17127.0
134.0601 26133.4
152.0705 109454.8

