>compound Harmane
#instrument LTQ Orbitrap XL, Thermo Scientfic; HP-1100 HPLC, Agilent
>formula C12H10N2
#smiles CC1=NC=CC2=C1NC3=CC=CC=C23
#inchi InChI=1S/C12H10N2/c1-8-12-10(6-7-13-8)9-4-2-3-5-11(9)14-12/h2-7,14H,1H3
>charge 1
>ionization [M+H]+
>parentmass 183.091614

>ms1peaks
183.091614 53255632.0
184.094513 7133088.5
185.098297 407417.3125
186.101578 11597.279297

>collision 55
50.587929 2752.28418
51.393368 3156.584473
52.131611 3546.70874
53.73494 3135.010986
54.591331 2766.508057
59.615238 2949.011963
62.474159 3334.714355
87.493347 3050.016113
95.052132 3074.608398
98.128342 2536.078613
109.814026 3643.598877
115.053604 14546.804688
142.064529 11413.463867
156.081543 3586.125244
166.063995 6314.17627
167.059814 7046.412109
168.067596 37977.84375
183.090973 148475.6875
184.094574 31623.203125
188.435486 3188.296143
188.451523 3434.280273

>collision 45
51.173717 3487.538086
55.217129 2625.464844
57.684269 3398.844727
64.670891 2712.765381
66.567444 3166.07959
73.135948 2861.461914
74.854294 2763.23584
77.387741 3648.582275
90.823959 3938.998535
94.096977 3078.173584
115.053574 6912.777344
125.963394 2885.395264
142.06459 8318.579102
144.333618 2944.337891
156.081558 3555.415771
157.883377 2800.650146
168.067596 20791.580078
175.290497 3808.477051
180.119446 3142.200684
182.817825 4212.993652
183.090866 1665254.125
184.094177 115805.265625
188.448761 2910.066162

>collision 35
53.529202 2630.931152
55.634018 2621.828125
57.726364 2569.855957
74.30751 2681.762207
76.826187 2526.259766
77.589462 3028.6604
80.689316 2529.723145
86.524086 2890.639404
104.733704 2521.854736
125.973526 2388.719727
168.066986 10798.133789
183.090851 2389710.0
184.094193 127946.625

