>compound o-Anisic acid
#instrument LTQ Orbitrap XL, Thermo Scientfic; HP-1100 HPLC, Agilent
>formula C8H8O3
#smiles COC1=CC=CC=C1C(=O)O
#inchi InChI=1S/C8H8O3/c1-11-7-5-3-2-4-6(7)8(9)10/h2-5H,1H3,(H,9,10)
>charge 1
>ionization [M+H]+
>parentmass 153.05462

>ms1peaks
153.054565 1834821.375
154.057816 161790.203125

>collision 45
52.207535 1279.23877
55.828953 1211.000488
65.572945 1323.255493
66.540886 1462.94397
68.82766 1118.085815
72.728783 1055.188232
73.00882 1376.774536
79.780846 1232.389648
85.225288 1047.482422
99.074181 1505.069336
102.711372 1378.817505
135.043793 247916.125
142.563187 1160.283813
144.630005 1179.244751
194.426056 1280.475586

>collision 35
55.616112 1123.847534
55.855667 1192.848267
57.309444 1225.027466
62.395477 1192.734985
66.046692 1039.080322
78.383308 1232.16626
82.105209 1163.708496
109.157387 1297.888062
110.151253 1066.69458
112.216522 1349.635498
126.804863 1224.378052
135.043762 246082.09375
147.676239 1351.677734
159.006409 1151.974854
161.645493 1187.983643
175.0336 1241.914795

>collision 70
55.235878 1086.660522
57.383461 1097.232178
65.237396 1219.452148
69.257614 1178.464111
71.704895 1290.019531
73.180328 1190.229858
82.10141 1351.564697
84.462929 1168.058105
94.153595 1145.388184
97.499214 1323.092529
105.459297 1237.204834
107.667282 1184.932495
119.5886 1338.037842
128.678009 1140.84668
135.043777 211188.90625
153.571075 1095.965088
156.664383 1013.467896
172.884293 1219.324829
185.492874 1184.058105

>collision 55
62.255871 1170.908691
63.57415 1038.084351
67.483078 1038.859375
67.990082 1156.995728
73.701683 1231.280884
77.111847 1078.429077
78.358887 1205.296875
82.120293 1329.740967
83.994507 1388.869751
130.571716 1355.27771
134.868637 1758.399536
135.043808 258466.65625
156.922623 1513.608154
160.406815 1118.310669
169.060547 1079.578247
188.433472 1184.594604
192.659882 1070.73584

