>compound Nicotinamide_dinucleotide
#instrument LTQ Orbitrap XL, Thermo Scientfic; HP-1100 HPLC, Agilent
>formula C21H27N7O14P2
#smiles NC(=O)c(c5)c[n+1](cc5)C([H])(O1)C([H])(O)C([H])(O)C([H])(COP([O-1])(=O)OP(O)(=O)OCC([H])(O2)C([H])(O)C([H])(O)C([H])2n(c3)c(n4)c(c(N)nc4)n3)1
#inchi InChI=1S/C21H27N7O14P2/c22-17-12-19(25-7-24-17)28(8-26-12)21-16(32)14(30)11(41-21)6-39-44(36,37)42-43(34,35)38-5-10-13(29)15(31)20(40-10)27-3-1-2-9(4-27)18(23)33/h1-4,7-8,10-11,13-16,20-21,29-32H,5-6H2,(H5-,22,23,24,25,33,34,35,36,37)
>charge 1
>ionization [M+H]+
>parentmass 664.1164

>ms1peaks
664.116821 1523794.75
665.119263 393441.84375
666.122498 86110.132812
667.124573 13188.183594

>collision 55
210.155838 1230.971558
223.182205 1219.480835
232.082397 7315.890625
243.033752 1238.389404
243.26326 1140.022827
244.359329 1462.723145
323.463593 1101.922485
393.351349 1329.62561
428.034729 10476.420898
444.090088 3525.746094
524.055359 105198.84375
542.065979 55429.894531
646.729187 1258.792236

>collision 70
208.947876 1172.138916
220.577713 1672.10791
265.644653 1669.843384
354.877655 1281.822266
360.126404 1416.972412
420.987183 1318.663696
428.038086 2735.596191
431.578094 1323.002075
524.054016 18010.429688
542.065186 10979.027344
609.448792 1209.261108
642.92981 1311.731445

>collision 35
232.08226 10961.417969
244.857544 1357.306763
256.31311 1243.835327
330.05777 1901.317627
342.792419 1313.870117
348.067291 1851.706055
410.026398 3146.990967
428.035309 15644.035156
444.090576 5871.438477
504.010651 1287.871704
515.667053 1280.725586
522.715271 1385.649902
524.05542 232563.59375
542.065918 134283.015625
543.748413 1248.897095

>collision 45
183.514603 1233.44458
191.593216 1263.709106
200.750931 1262.697876
232.082443 9870.412109
298.97818 1269.074219
304.309143 1392.973877
325.859222 1194.619263
370.986206 1680.297485
374.861694 1425.212158
410.024323 2903.164551
411.973877 1300.482178
428.035492 13536.274414
444.088501 4929.246582
469.963074 1265.283691
494.224213 1491.614258
524.055481 178596.28125
542.065796 89901.34375
592.2005 1244.929199
614.489807 1278.106201

