>compound Chelidonine
#instrument LTQ Orbitrap XL, Thermo Scientfic; HP-1100 HPLC, Agilent
>formula C20H19NO5
#smiles CN1CC2=C(C=CC3=C2OCO3)C4C1C5=CC6=C(C=C5CC4O)OCO6
#inchi InChI=1S/C20H19NO5/c1-21-7-13-11(2-3-15-20(13)26-9-23-15)18-14(22)4-10-5-16-17(25-8-24-16)6-12(10)19(18)21/h2-3,5-6,14,18-19,22H,4,7-9H2,1H3
>charge 1
>ionization [M+H]+
>parentmass 354.1336

>ms1peaks
354.134705 111403632.0
355.137421 25158826.0
356.139862 3678364.25

>collision 45
99.381905 14945.600586
117.604271 15582.6875
117.745262 15452.914062
120.960564 19017.753906
134.811676 15455.71875
135.043762 289319.5625
143.048691 41416.179688
149.02327 53296.6875
150.130493 14179.916016
151.038895 23412.3125
154.42627 14977.632812
161.059433 140460.296875
163.038956 105247.46875
173.05928 184460.765625
176.070953 55492.8125
181.128632 16967.166016
188.454117 17486.871094
242.012497 16419.9375
247.07547 404792.3125
265.085968 83115.078125
267.065277 25043.974609
274.558197 40552.96875
274.740021 16000.258789
274.870697 62435.691406
275.070221 10553674.0
275.265961 34988.183594
275.58078 23097.886719
276.07312 275440.125
277.089508 15938.228516
278.322021 21861.173828
279.066132 46338.242188
293.080994 339320.1875
295.096619 2606483.5
296.099091 44535.433594
302.441864 24544.033203
304.289703 17394.996094
304.481537 51728.125
304.692505 31146.109375
304.847809 79893.0625
305.080658 12296324.0
305.307495 37513.226562
305.470673 19424.203125
305.68103 44684.632812
306.084381 247210.5625
307.096283 92225.703125
322.00296 21654.107422
322.132996 19328.585938
323.090973 22080202.0
323.339386 75778.289062
323.514313 37334.835938
323.746948 66438.789062
324.094788 464599.0
329.494965 15130.567383
336.12207 1769652.0
337.125977 51037.75
338.139465 50472.628906
339.158691 17019.753906
354.133026 1293757.25
354.383392 30273.107422
354.842072 37017.933594
355.136353 6154083.0
355.422699 21227.328125
355.888214 26202.855469

>collision 35
97.122063 12263.924805
100.991241 14292.567383
110.130775 14409.132812
119.882935 15182.294922
123.09565 13442.433594
123.35273 14380.697266
131.528809 12785.733398
135.043915 221480.078125
140.471741 13793.851562
143.048584 25393.037109
149.022644 45562.828125
161.059799 130821.078125
163.039093 98632.671875
170.337509 15445.883789
173.059601 161833.6875
176.070419 38333.316406
188.07193 20834.064453
188.454529 15425.666016
189.658966 12847.643555
228.244888 16269.84082
245.759796 14128.977539
247.075241 406999.21875
265.085846 83295.398438
267.06778 24391.828125
274.558594 39461.164062
274.870728 63387.605469
275.070374 8851581.0
275.270172 39959.148438
275.581696 30721.853516
276.073364 247559.125
279.066559 27312.625
293.080994 277424.59375
295.096741 2105452.25
296.099274 47948.324219
304.48291 59673.140625
304.848267 67528.414062
305.08075 10540546.0
305.314117 39675.496094
305.67868 33861.203125
306.084137 294427.875
307.096039 84992.203125
322.033752 17748.523438
322.441071 90682.1875
322.667816 27406.382812
322.837219 126044.953125
323.091156 18707118.0
323.74231 65139.027344
324.094208 562659.375
328.515259 15313.255859
336.122192 1455075.875
337.126617 58400.410156
338.136688 34164.839844
346.606018 14669.226562
354.133209 1408544.875
354.388855 36835.667969
354.662537 13491.262695
354.843292 47078.886719
355.136444 6980167.5
355.43161 29498.412109

