>compound IAA-Val
#instrument LTQ Orbitrap XL, Thermo Scientfic; HP-1100 HPLC, Agilent
>formula C15H18N2O3
#smiles CC(C)[C@@H](C(=O)O)NC(=O)CC1=CNC2=CC=CC=C21
#inchi InChI=1S/C15H18N2O3/c1-9(2)14(15(19)20)17-13(18)7-10-8-16-12-6-4-3-5-11(10)12/h3-6,8-9,14,16H,7H2,1-2H3,(H,17,18)(H,19,20)/t14-/m0/s1
>charge 1
>ionization [M+H]+
>parentmass 275.13902

>ms1peaks
275.139984 55957692.0
276.142578 9644622.0
277.14505 971482.5625
278.147736 82301.851562

>collision 45
76.725883 1263.77417
77.593704 1208.727661
86.748314 1084.775391
89.446472 1091.2323
89.802605 1028.178345
94.147614 1181.742188
101.956619 1329.959839
107.601151 1254.268799
109.814529 1439.504272
109.935776 1045.890259
118.08638 70826.914062
121.531143 1222.128296
129.238892 1157.490356
130.06543 53336.324219
138.199158 1366.058716
153.016617 1286.008789
154.809235 996.674683
158.060242 4002.329346
165.172653 1228.762207
166.336548 1144.509521
217.067108 2464.976074
222.683548 1361.661133
229.134308 1043401.0625
229.527161 2920.754395
234.123245 1050.820068
247.076065 18701.396484
256.949615 2001.617676
257.129303 293395.59375
257.306641 1343.310669
280.02887 1375.557739

>collision 70
80.788139 1122.977539
86.405128 1331.938965
102.158928 1220.891846
103.424904 1105.779785
109.875748 1263.329712
113.947708 1086.290405
118.086395 37376.035156
125.553528 1197.529541
130.065399 33486.757812
130.685287 1118.122803
136.001526 1505.555664
156.195862 1083.814697
158.05986 2164.455322
165.542526 1120.478882
173.240051 1034.670166
179.748077 1130.416138
191.610641 1158.719604
198.442795 1264.083984
200.368088 1153.572266
217.06369 1556.935181
228.745117 3021.076416
229.134354 631830.75
229.28624 2354.842041
229.524338 2597.165771
243.631332 1127.587891
245.061142 1344.06897
247.076248 19024.966797
257.129303 157745.90625
257.184967 1293.452026

>collision 55
84.315231 1282.697144
118.086403 51268.601562
118.87175 1294.187378
130.065414 38119.515625
131.62944 1072.779907
155.044952 1122.202271
155.983887 1371.930908
158.061707 2699.3479
161.270813 1194.620483
170.73584 1182.73999
189.028824 1188.824219
217.065994 2185.672119
220.915817 1166.633179
224.981079 1304.932251
227.242935 1308.123901
228.480011 1517.362671
229.134369 778422.25
229.52565 2339.386963
247.076477 18116.75
252.055099 1089.207275
257.129364 221711.265625
259.762238 1188.515991

>collision 35
75.291275 1220.926758
79.15773 1117.677856
79.724922 1042.192871
86.006294 1392.291992
97.56205 1001.742432
99.479889 1166.004028
118.086494 71392.242188
130.065506 56811.304688
131.274826 1393.766479
145.256042 1162.654053
152.467102 1058.320679
158.060211 3691.184082
163.417389 1084.485718
188.443695 1253.847168
189.310669 1129.578003
202.412201 1293.15271
217.065735 3366.818848
220.540649 1653.670898
229.134521 1098624.75
229.528458 3887.981934
237.514236 1246.463989
247.076279 21265.484375
256.666229 1589.439819
257.129486 315636.0
265.3237 1001.363892
297.376526 1315.684448

