>compound Biochanin_A
#instrument LTQ Orbitrap XL, Thermo Scientfic; HP-1100 HPLC, Agilent
>formula C16H12O5
#smiles COC1=CC=C(C=C1)C2=COC3=CC(=CC(=C3C2=O)O)O
#inchi InChI=1S/C16H12O5/c1-20-11-4-2-9(3-5-11)12-8-21-14-7-10(17)6-13(18)15(14)16(12)19/h2-8,17-18H,1H3
>charge 1
>ionization [M+H]+
>parentmass 285.07576

>ms1peaks
285.07605 47291112.0
286.078949 8235760.5
287.080902 1141941.375
288.083801 104949.976562

>collision 45
79.054626 10785.223633
80.396629 9940.148438
80.646858 10144.511719
81.370216 9379.896484
95.048729 21004.316406
103.053696 26585.417969
107.049088 55967.945312
118.040993 54886.371094
121.028206 74997.273438
122.274773 9056.75
123.043831 1667538.75
124.015152 234261.15625
131.048798 44862.308594
133.064133 22904.677734
135.04454 17949.570312
139.038696 135195.5625
147.044159 43697.789062
149.023209 988869.875
152.010178 2363842.0
153.017914 562082.5
159.04425 22723.869141
161.098709 12658.741211
163.038757 103228.820312
165.015991 13294.999023
167.032944 66092.046875
169.064178 12409.983398
170.021103 25407.345703
173.059692 44166.238281
179.033585 629840.625
183.079788 18548.671875
187.075714 32466.273438
192.041901 45091.953125
197.060013 69306.648438
199.074921 36706.308594
201.054688 120468.445312
211.075516 43889.5
214.061249 12823.404297
215.069824 101497.203125
217.085159 13919.807617
225.053864 29183.832031
229.085831 2430174.5
239.070312 55370.355469
242.057465 158513.671875
243.06572 36877.085938
252.041718 737368.5625
252.604919 15106.930664
253.049515 2531446.5
255.065262 206497.796875
257.080627 405307.53125
261.7612 9612.703125
261.869904 10352.557617
267.065063 51780.988281
269.044586 1201419.875
269.563995 20308.5625
269.860046 28376.929688
270.052307 4822964.0
270.247955 16175.787109
271.055664 20538.634766
284.293365 11512.691406
284.543274 41571.929688
284.728546 27955.917969
284.866699 60273.679688
285.075531 10352085.0
285.285645 42537.191406
285.606903 34579.8125
285.869934 15230.591797
286.078552 2308825.0

>collision 55
76.268471 11657.47168
79.834549 10168.960938
91.583199 9515.370117
95.049026 30213.839844
96.019882 11611.605469
100.228333 12493.514648
103.053787 38698.210938
107.049034 56693.828125
110.143875 13374.960938
112.504944 10484.873047
118.0411 70980.335938
119.658684 11351.460938
121.028343 80541.125
122.714119 9149.020508
123.043884 1936060.75
124.015198 266452.84375
131.048874 50949.34375
133.064285 17016.806641
135.043915 11486.025391
139.038956 135084.6875
147.044128 56536.148438
149.0233 1176984.875
150.90477 12028.325195
151.039719 19515.632812
151.805481 13907.546875
152.010239 2710113.5
153.017944 672401.375
159.043427 27242.630859
163.038742 126714.3125
165.018616 12005.058594
167.033615 66566.226562
167.242722 10545.28125
168.579346 11035.444336
170.021667 33011.894531
173.059296 41160.039062
179.033752 772731.6875
183.080185 25991.140625
185.059738 28437.732422
187.075455 41215.65625
191.034103 19940.466797
192.041611 57103.828125
197.059631 90631.8125
199.075104 34926.175781
201.054291 137805.640625
211.075851 55666.335938
214.061523 14670.90332
214.840103 14240.304688
215.070175 132755.234375
217.083847 19189.724609
219.513931 9855.322266
220.565308 16064.642578
225.054321 44619.101562
226.062103 20401.396484
228.937332 17079.900391
229.085968 2841883.25
239.070389 65166.378906
242.057526 192808.53125
243.066559 44751.578125
252.041946 838476.125
252.608414 16143.299805
252.873901 14544.827148
253.049622 2979569.5
255.065231 224378.953125
257.080719 464663.21875
267.065338 66673.179688
269.044617 1389849.625
269.564758 24450.421875
269.861603 31033.962891
270.052338 5622788.5
270.541473 22514.787109
271.05481 19872.275391
284.48175 9618.850586
284.869781 15116.870117
285.075684 3397930.75
286.078949 1781978.375

>collision 35
75.167694 10917.850586
81.20742 10912.416016
95.048599 17286.970703
100.137169 17993.441406
103.053665 29178.978516
107.048592 44081.238281
114.107971 10555.34668
118.041237 31295.367188
121.028091 64907.738281
123.043961 1245072.125
124.015373 153015.8125
124.488213 11623.816406
128.527054 11734.598633
131.049301 29338.308594
133.064774 16517.490234
139.038925 93598.453125
147.044022 25234.044922
149.023346 721053.0
152.010361 1698689.75
153.018127 405318.3125
158.902298 12126.260742
163.038956 80687.476562
167.033646 58773.582031
170.020554 14277.094727
173.060394 24818.369141
179.033966 473880.375
180.145142 16234.424805
180.583603 12982.05957
183.080063 18308.955078
187.074707 23908.802734
188.450394 17689.53125
192.042145 39287.488281
195.838531 15948.993164
197.060074 45590.824219
199.075195 22117.685547
201.054886 87874.734375
211.077209 21403.179688
215.070801 83623.648438
225.053085 21646.171875
229.086136 1825192.0
239.070541 27868.894531
242.057587 115275.015625
243.065231 22437.226562
252.041962 495957.28125
252.607941 12964.732422
253.049896 1871781.5
253.224182 15963.878906
255.065689 142555.703125
257.081177 341626.21875
259.827179 11823.111328
267.066376 33602.515625
269.045013 908070.125
269.567535 18940.228516
269.858002 20629.138672
270.052826 3515625.75
271.057159 18462.460938
284.293427 16520.925781
285.075836 19802512.0
285.603699 60269.503906
286.078857 1856633.0

>collision 70
78.525024 11701.007812
81.552086 9455.40625
83.340561 13042.617188
88.703217 11399.775391
89.16925 10424.075195
91.083954 9559.882812
95.04837 20462.941406
100.768967 10409.78418
103.053955 35577.6875
107.04882 78077.375
111.639328 12676.075195
111.947456 11762.311523
118.041054 61744.007812
121.028275 95481.335938
123.043846 1905549.375
124.015175 272372.09375
129.467697 11684.206055
131.048553 45010.382812
133.064484 18441.367188
135.043747 12713.649414
139.038971 149574.40625
140.703461 11257.834961
147.043716 47825.289062
149.023239 1131342.25
151.039001 17664.164062
152.010193 2694612.0
153.018021 633337.75
159.043228 18891.632812
162.49646 10479.772461
163.039108 118381.601562
165.018906 11046.336914
167.033829 65057.96875
168.582947 9801.787109
169.064331 14443.875977
170.021317 30619.347656
173.058975 42806.523438
179.033722 754515.1875
183.079834 32248.898438
185.059921 17683.664062
187.075043 29799.314453
191.034531 17074.132812
192.041519 52018.429688
197.059525 80534.242188
199.074875 27168.822266
201.05452 152775.1875
209.3564 11574.548828
211.075348 40372.625
213.055191 21669.570312
214.061539 18986.027344
215.070374 122608.320312
225.054214 44133.472656
226.05896 17741.640625
229.085876 2812747.25
230.089478 27492.019531
238.224167 10876.286133
239.070389 50502.367188
242.057831 183865.4375
243.065475 38439.347656
252.041718 793633.5625
252.873764 24569.091797
253.049515 2847337.0
253.490326 16423.169922
254.053329 33039.429688
255.065079 239459.203125
257.080658 497732.25
267.064667 58121.277344
269.044525 1375736.5
269.565582 27170.863281
269.858154 26180.634766
270.052185 5523520.5
270.540833 24203.816406
271.055115 81737.25
276.059723 11660.397461
284.14975 10699.244141
286.07901 225828.796875

