>compound Trehalose
#instrument LTQ Orbitrap XL, Thermo Scientfic; HP-1100 HPLC, Agilent
>formula C12H22O11
#smiles C([C@@H]1[C@H]([C@@H]([C@H]([C@H](O1)O[C@@H]2[C@@H]([C@H]([C@@H]([C@H](O2)CO)O)O)O)O)O)O)O
#inchi InChI=1S/C12H22O11/c13-1-3-5(15)7(17)9(19)11(21-3)23-12-10(20)8(18)6(16)4(2-14)22-12/h3-20H,1-2H2/t3-,4-,5-,6-,7+,8+,9-,10-,11-,12-/m1/s1
>charge 1
>ionization [M+Na]+
>parentmass 365.10544

>collision 20
109.709358 1411.409546
131.085861 1348.742676
185.041977 7481.663086
203.052689 333646.875
365.105255 6556.304688

