>compound Amentoflavone
#instrument LTQ Orbitrap XL, Thermo Scientfic; HP-1100 HPLC, Agilent
>formula C30H18O10
#smiles C1=CC(=CC=C1C2=CC(=O)C3=C(O2)C(=C(C=C3O)O)C4=C(C=CC(=C4)C5=CC(=O)C6=C(C=C(C=C6O5)O)O)O)O
#inchi InChI=1S/C30H18O10/c31-15-4-1-13(2-5-15)24-12-23(38)29-21(36)10-20(35)27(30(29)40-24)17-7-14(3-6-18(17)33)25-11-22(37)28-19(34)8-16(32)9-26(28)39-25/h1-12,31-36H
>charge 1
>ionization [M+H]+
>parentmass 539.09728

>ms1peaks
539.098755 6841581.0
540.101746 2205976.5
541.10437 486679.28125
542.105835 80490.0625

>collision 45
168.699615 1240.009399
177.538437 1418.283691
188.459549 1199.930298
206.47728 1300.030884
242.053284 1399.452515
251.02887 1225.276978
269.044708 3274.260742
270.05246 13346.055664
283.061676 1598.611694
285.834015 1376.230103
288.8349 1207.528442
307.059631 1832.353271
311.05542 3494.039551
325.045197 4461.899414
335.055237 29646.759766
337.034027 5850.161621
345.076385 3312.772705
347.055267 34112.066406
359.055115 29623.212891
361.036896 4922.457031
375.049683 19061.003906
376.059357 2306.118164
376.255646 1911.409912
376.754059 2070.944336
377.065765 397960.5
377.172363 1902.625732
377.395142 1601.133789
378.068176 12827.338867
379.042572 1967.266113
384.152466 1524.675659
387.086182 70335.84375
388.091858 2861.416016
389.071167 1262.775024
389.465027 1097.528687
401.065155 17544.478516
401.561188 1519.209839
402.14856 8762.348633
402.346741 1369.834229
402.454193 3953.853027
402.695923 7244.789551
403.044739 1404678.25
403.386078 5432.834961
403.638733 2576.728027
403.748535 1587.225708
403.942871 6505.179199
404.046844 50198.429688
404.854095 1381.295654
407.089752 1549.615723
413.064056 6085.353027
418.067749 1873.601807
419.075256 18335.673828
421.05423 32949.625
439.114197 4784.687988
445.055359 12748.71875
453.096893 4595.87207
455.077484 2745.886963
471.104858 1905.090454
479.077576 1554.769287
495.107117 22617.082031
497.085846 98396.53125
498.091125 2862.014648
511.101288 4852.726074
521.086914 15897.130859
564.862488 1435.13147

>collision 55
161.319077 1169.720581
188.433548 1206.139893
242.058929 1181.984619
251.035355 1543.25415
258.412628 1312.262939
269.045776 3537.860107
270.052826 12985.381836
307.056213 2206.424072
311.055206 3428.958252
325.045044 4560.437012
335.055176 31735.160156
337.034363 4900.016113
339.441986 1307.826172
345.0755 3500.744629
347.05545 34000.316406
359.055542 25428.294922
361.036682 4085.446289
365.289612 1116.117676
375.050629 14999.336914
376.056824 2793.694336
377.06601 360959.28125
378.068726 6990.8125
379.045258 2613.72168
383.331543 1241.801147
384.151367 1784.33606
387.086517 66623.03125
401.065338 18748.376953
401.561066 1239.338867
402.144897 6106.509766
402.456512 3239.095215
402.694244 6919.70459
403.045074 1304579.375
403.391846 4689.48877
403.636322 2227.823486
404.046753 28061.580078
413.063354 5637.306641
418.067627 2196.200684
419.075928 18793.367188
421.054688 31874.896484
439.114197 4851.410645
445.055695 11632.882812
453.096252 3730.083008
455.079773 2653.94458
463.538147 1249.715332
469.271667 1236.924072
471.104492 2446.979736
495.108154 21526.736328
497.086334 94061.234375
498.082916 1709.122314
511.103638 4510.094238
516.585632 1195.289673
521.086548 14070.810547
521.197449 1240.654419
537.898926 1454.437378
546.337769 1208.015381
587.481445 1231.349121

>collision 70
156.291931 1066.168335
177.519135 1013.155884
181.19397 1267.931641
188.470673 1082.979492
251.038879 1396.8302
269.041901 2497.726318
270.05249 8710.787109
295.697113 1234.369019
302.422089 1473.899658
307.061859 1817.140747
311.054321 2574.48877
319.059113 1662.3927
325.045959 5364.636719
335.054779 21378.005859
337.035309 3644.43457
347.055237 23254.091797
359.054718 19223.068359
361.0336 2606.551758
375.050171 12382.976562
376.426056 1203.556396
376.748077 1735.677124
377.065674 261795.453125
378.065369 1216.4104
387.086243 50523.816406
401.065735 13631.748047
402.144928 4401.022461
402.691223 5733.164062
403.044678 932715.75
403.397797 3137.591553
404.044434 6611.291016
413.064514 4655.230957
418.070435 2225.747803
419.075378 14866.270508
421.054352 21233.308594
439.114929 4081.481934
445.054352 8774.106445
453.094482 2451.484375
455.075775 2453.189941
471.103333 2684.123535
479.072876 1712.994263
488.499176 1132.608276
495.106964 14304.223633
497.085907 67381.671875
511.099426 3855.607178
521.087097 11527.208984

>collision 35
145.509674 1186.254028
155.457855 1256.213745
174.784332 1262.540894
188.436462 1288.071167
210.290054 1135.263428
222.965759 1095.884155
229.641159 1006.909729
242.058441 1343.609253
251.033401 1388.337524
261.098724 1084.786743
269.046722 3429.972412
270.051727 15327.817383
307.060516 2870.35083
311.055511 4353.009277
325.044128 2667.682129
335.055267 32926.515625
336.064789 1265.648193
337.033966 6919.256836
345.075684 2965.385986
347.055511 40339.273438
348.062531 1768.443359
359.05542 33414.800781
360.062439 2160.651611
361.036163 4389.89502
367.867615 1255.462769
375.050293 20289.904297
376.057129 4147.793945
376.253113 2148.214355
376.754364 1489.9552
377.065857 436878.09375
377.174133 1766.115601
377.375275 1849.07251
377.88147 1689.006836
378.06897 29990.931641
379.047241 1616.560059
381.866272 1020.563477
387.086426 75421.148438
388.090149 4562.777832
389.069 1338.548096
401.066071 22807.089844
401.551941 1591.816162
401.867157 1439.576782
402.144531 8580.6875
402.320007 4104.50293
402.462891 2732.517822
402.701721 8756.994141
403.0448 1569056.0
403.394867 5544.069824
403.625519 1685.839233
403.766083 2189.428711
404.047424 114555.734375
404.151215 2509.060303
413.063263 6730.477051
418.063812 2942.391113
419.07547 22050.609375
421.054932 33062.824219
422.061523 1707.998779
427.077667 2078.258545
439.117096 2721.509766
445.054657 16029.139648
453.094391 4517.833008
471.106415 3339.453369
479.071533 2313.628418
495.1073 24235.621094
496.108154 2088.856201
497.08609 109009.070312
498.088531 8884.144531
502.498505 1149.562012
511.100342 4851.580078
521.085632 15488.802734
522.093201 2190.1521
527.873352 1256.722656

