>compound Trans-Zeatin-riboside-O-glucoside
#instrument LTQ Orbitrap XL, Thermo Scientfic; HP-1100 HPLC, Agilent
>formula C21H31N5O10
#smiles C/C(=C\CNC1=NC=NC2=C1N=CN2[C@H]3[C@@H]([C@@H]([C@H](O3)CO)O)O)/CO[C@H]4[C@@H]([C@H]([C@@H]([C@H](O4)CO)O)O)O
#inchi InChI=1S/C21H31N5O10/c1-9(6-34-21-17(33)15(31)13(29)11(5-28)36-21)2-3-22-18-12-19(24-7-23-18)26(8-25-12)20-16(32)14(30)10(4-27)35-20/h2,7-8,10-11,13-17,20-21,27-33H,3-6H2,1H3,(H,22,23,24)/b9-2+/t10-,11-,13-,14-,15+,16-,17-,20-,21-/m1/s1
>charge 1
>ionization [M+H]+
>parentmass 514.21438

>collision 12
185.08165 4112.62793
188.063156 4804.282715
202.108093 36764.964844
220.118622 144457.9375
291.600128 11765.842773
299.117218 5983.640137
299.133026 32894.011719
299.149658 6707.263672
352.160339 53144.414062
382.11676 4217.266113
382.170685 1369037.125
382.189026 6412.714355
382.278015 5435.019043
513.410889 7856.643555
514.212219 832481.6875
514.357666 4376.544922
514.414124 24757.730469

>collision 20
188.079132 1497.838989
202.107941 919.398682
220.119064 20405.550781
274.551819 712.907898
291.565613 842.197632
291.579712 2819.674316
299.107513 6899.414062
299.122559 1677.98999
299.130646 844.870544
299.137024 640.737427
352.161316 3512.865723
382.171356 211984.875
397.27002 833.890869
455.313416 848.333923
495.343079 2928.203125
496.346924 869.192078
513.411621 4611.387207
536.799011 779.995239

>collision 23
152.594955 139.302704
153.745499 155.497726
153.90657 139.605087
154.058395 162.577087
156.014481 143.463821
167.220444 127.168121
172.098495 140.980331
188.352615 155.036072
195.271027 131.911362
197.96489 150.227402
201.951599 159.682709
206.01857 140.685867
207.14006 244.20546
215.170105 135.63884
225.150375 1236.080933
227.175568 164.304459
238.23233 174.152634
239.490692 123.782898
242.702209 156.730438
243.333389 139.630966
248.393692 121.713867
252.89386 127.810287
253.194061 129.932831
254.247437 746.438171
254.855576 152.342651
263.483063 128.795654
270.60022 150.391388
271.240601 161.187241
280.52533 138.80629
291.523224 218.29628
291.540314 337.649353
291.547821 207.649857
291.564453 621.158203
291.585327 264.292358
293.777588 150.789963
296.873383 148.071655
299.079498 1477.333618
299.092499 698.07843
299.098846 637.707031
299.113068 1263.328613
299.117737 1289.326172
299.129242 194.796097
301.554047 141.54451
342.20047 158.129623
343.539673 201.363358
349.182648 1962.698608
350.186157 2924.570068
351.186859 337.060394
357.192688 387.910706
362.890656 157.177017
372.921173 146.519897
375.198669 782.408997
387.20285 10035.158203
401.498871 172.746994
406.342712 164.84494
413.218109 173.624527
428.337891 139.240662
431.237885 151.276611
456.458038 172.053528
458.434784 223.793503
459.292725 201.147232
459.378784 172.95813
466.422852 134.015671
471.412659 178.163452
482.318939 135.704697
486.294983 140.492661
486.398865 224.670151
486.845673 284.57135
487.264374 299.776764
487.301819 628.199219
487.33725 135.186523
487.410675 277.209717
487.927277 163.00473
501.282684 160.124588
502.320526 153.958633
516.389404 157.19397
518.37323 5900.293457
518.49292 326.505035
536.783875 188.544678

