>compound Bicuculline
#instrument LTQ Orbitrap XL, Thermo Scientfic; HP-1100 HPLC, Agilent
>formula C20H17NO6
#smiles CN1CCC2=CC3=C(C=C2[C@H]1[C@H]4C5=C(C6=C(C=C5)OCO6)C(=O)O4)OCO3
#inchi InChI=1S/C20H17NO6/c1-21-5-4-10-6-14-15(25-8-24-14)7-12(10)17(21)18-11-2-3-13-19(26-9-23-13)16(11)20(22)27-18/h2-3,6-7,17-18H,4-5,8-9H2,1H3/t17-,18+/m0/s1
>charge 1
>ionization [M+H]+
>parentmass 368.11287

>ms1peaks
368.113617 74298448.0
369.116425 16563870.0
370.11853 2646426.25
371.12146 296325.0625

>collision 35
100.395729 4537.852051
109.074585 4636.14209
110.392441 4386.552246
116.849091 4726.126465
119.048866 9624.818359
124.552116 5201.571289
138.561569 5279.810547
139.621063 4162.469727
149.05957 177876.6875
159.043427 6609.368652
174.054291 10644.889648
175.038864 13759.100586
175.829681 4984.365723
176.070419 151992.171875
179.034622 12310.52832
188.071243 25785.259766
189.078568 52822.253906
189.793411 14517.527344
190.086197 2420622.25
190.377548 7693.886719
191.09436 55927.109375
193.049637 12310.116211
193.203415 5552.389648
203.973846 5172.888672
211.363861 7269.553711
223.075516 10368.418945
232.059509 11730.938477
235.0755 21044.888672
246.563126 4541.33252
249.055893 11602.507812
251.07077 34444.683594
261.054474 46705.839844
263.070465 49155.742188
265.087128 27223.947266
267.06308 7353.821777
277.049896 147195.140625
279.065063 45302.550781
281.081055 62019.558594
289.049835 284616.4375
291.065582 102046.054688
292.074371 35895.460938
293.080994 82949.75
295.060638 69763.328125
297.077667 8305.229492
297.397095 6610.505371
302.461243 7126.484375
303.066284 47796.570312
305.080261 13488.21875
305.607513 5194.052734
306.057037 7746.63916
306.458191 36957.070312
306.825348 51496.210938
307.060211 7290191.5
307.296295 30372.474609
307.507599 9119.175781
307.664001 28094.429688
308.062958 117144.445312
309.075256 70117.242188
318.422241 9554.611328
318.809998 11817.422852
319.059692 1896174.375
319.30896 8624.420898
319.700378 8855.138672
320.065491 27861.388672
321.074432 37455.007812
322.107391 8466.224609
325.070007 333207.96875
326.073761 6757.734863
332.091522 70097.484375
333.075531 37933.457031
335.078461 278163.8125
337.070404 362786.59375
338.098358 10204.898438
339.087616 17157.648438
350.102203 350741.3125
353.088043 10007.03125
366.082947 5503.070312
367.321625 6211.849121
368.112732 1299435.75
368.216553 6204.939941
368.807709 10005.435547
369.115814 1837789.875
369.42627 8296.647461
369.912415 5625.576172

