>compound 3,4,5-Trimethoxycinnamic_acid
#instrument LTQ Orbitrap XL, Thermo Scientfic; HP-1100 HPLC, Agilent
>formula C12H14O5
#smiles COC1=CC(=CC(=C1OC)OC)/C=C/C(=O)O
#inchi InChI=1S/C12H14O5/c1-15-9-6-8(4-5-11(13)14)7-10(16-2)12(9)17-3/h4-7H,1-3H3,(H,13,14)/b5-4+
>charge 1
>ionization [M+H]+
>parentmass 239.09141

>ms1peaks
239.092178 7609947.0
240.095398 983427.0
241.097351 112775.164062

>collision 70
74.732635 1027.335938
83.685776 1017.405823
90.146294 1037.488037
90.965775 1076.574097
112.409271 1426.390381
114.161613 1173.40625
124.124084 1026.106323
125.292038 1266.786377
135.079498 1754.06665
151.074432 1913.542358
163.075134 18485.357422
165.091125 1741.580322
167.069489 3174.974609
170.099274 1402.720703
175.039993 2004.887329
179.07019 15081.402344
180.07843 3611.987549
184.922592 1336.885742
185.037338 1170.845215
193.086517 4767.940918
195.101822 21492.546875
197.08078 25207.652344
206.057419 9027.699219
207.065109 34922.847656
207.373795 1151.555786
208.072937 25885.099609
208.85347 1200.664062
209.08075 4377.313477
212.776245 1190.767212
220.721634 2690.637207
220.836685 2102.348633
220.936829 3819.278076
221.080826 554422.75
221.228668 1833.463989
221.439789 2043.860474
224.067474 71308.070312

>collision 45
71.092239 1306.395264
78.880768 1238.299438
85.443031 1136.276123
87.3573 1135.28894
96.808075 1135.919067
101.156326 1087.349731
101.895836 1161.987061
102.329689 1247.065918
134.025421 1090.648193
134.343399 1030.388306
135.079636 2718.845459
135.297211 1338.387573
136.214264 1173.226562
137.18251 1191.549316
141.795975 1228.392334
161.060135 1448.247925
163.075195 25147.916016
165.090179 2277.143555
167.069839 4743.924316
175.038116 2641.450684
179.069855 17670.027344
180.077408 5237.172852
182.118759 1329.437866
191.100677 1068.957397
193.085876 4293.930176
195.101486 26807.855469
197.080765 27225.4375
206.057098 10444.729492
207.065125 43504.03125
208.073059 24722.287109
209.080765 5879.083496
213.556503 1122.745483
220.721039 1931.084229
221.080856 603651.5625
224.06749 75074.71875

>collision 55
68.691849 1108.955444
69.434067 1223.237549
76.467094 1180.890991
80.442368 1189.487549
83.343582 1268.155884
100.123192 1301.046021
104.008743 1307.8479
110.841225 1325.599731
122.260521 1164.294556
129.343613 1038.534668
132.557724 1138.471802
135.081177 2575.059326
138.017853 1340.809082
140.679398 1372.985596
143.619949 1400.711304
147.04451 1581.378418
151.076904 1340.445312
152.639618 1176.397705
163.075272 24526.146484
165.091171 2277.17334
167.07016 3509.669434
169.085632 2040.216064
175.038452 2592.445801
176.358505 1558.154053
179.069946 14791.026367
180.078033 4876.792969
189.051254 1237.119751
193.086578 5495.069824
195.101578 25149.632812
197.080734 24873.777344
206.057526 9563.046875
207.065033 39275.511719
208.072906 26360.496094
209.080765 5430.191406
220.718719 1882.493774
221.080887 607769.625
221.465149 1358.926636
224.067551 76839.71875
227.815247 1178.053345
237.43219 1207.199341
238.139465 1427.845093

>collision 35
72.259766 1314.115967
78.502174 1063.273804
79.4254 1124.650024
87.255707 1161.264282
89.26683 1109.014893
95.863777 1110.810913
98.353012 1057.940308
98.570229 1311.450073
103.103905 1226.236694
122.945625 1187.09729
123.260773 1277.427734
135.081055 1928.336914
145.201721 1243.156738
151.074524 1600.996704
151.765289 1343.268433
163.075165 24756.271484
165.091125 3063.266113
167.069244 3993.974365
168.32869 1124.641968
175.039474 2798.276367
179.070023 17834.138672
179.481827 1244.630859
180.07753 4261.716797
193.085968 6270.750488
195.10144 24516.113281
196.872681 1334.643188
197.080841 26970.476562
203.373642 1120.932007
206.057434 10112.050781
207.065262 40277.007812
208.073013 28958.398438
209.08078 6080.348145
220.605743 2062.3125
220.719208 2644.519775
221.080856 590906.3125
224.06752 77291.992188

