>compound (-)-Epicatechin
#instrument LTQ Orbitrap XL, Thermo Scientfic; HP-1100 HPLC, Agilent
>formula C15H14O6
#smiles C1[C@H]([C@H](OC2=CC(=CC(=C21)O)O)C3=CC(=C(C=C3)O)O)O
#inchi InChI=1S/C15H14O6/c16-8-4-11(18)9-6-13(20)15(21-14(9)5-8)7-1-2-10(17)12(19)3-7/h1-5,13,15-20H,6H2/t13-,15-/m1/s1
>charge 1
>ionization [M+H]+
>parentmass 291.08632

>ms1peaks
291.087646 10167438.0
292.090637 1726578.25
293.093597 218609.703125
294.096313 21605.152344

>collision 55
84.717804 1095.234497
89.713921 1253.015991
90.496994 1296.930054
91.757294 1138.842285
94.104973 1210.095947
116.288925 1088.17688
123.044113 26906.195312
139.038986 28472.966797
141.30159 1058.466064
147.044403 5427.864258
151.039047 7121.380859
165.054596 13266.708984
171.944092 1449.478149
173.911179 1214.755981
177.702072 1203.498291
205.064651 1778.129639
220.540085 1451.68457
233.060211 20033.345703
235.075897 5375.09375
238.535934 1223.853638
249.077606 1904.788086
254.230469 1219.280762
259.203888 1090.263062
261.055176 18761.853516
263.071411 20819.330078
273.07547 12523.448242

>collision 45
92.773895 1197.568359
109.756317 1361.064575
110.956528 1147.920654
123.044182 83557.875
134.013962 1068.172607
139.039154 87712.570312
147.044373 12125.5625
151.039215 22689.347656
160.447876 1108.356689
165.054886 37749.644531
169.04982 2036.579468
179.598923 1118.854858
188.463257 1229.606689
195.504578 1174.405884
196.128952 1165.778809
205.06543 2705.519531
214.451965 1227.245605
233.060425 32758.623047
235.076782 6878.732422
249.075821 5291.473145
252.652252 1198.134399
258.599823 1019.703369
261.05542 33504.609375
263.07196 30802.679688
273.076233 31073.296875

>collision 70
100.408119 1239.128906
113.015289 1180.515747
113.380035 1218.682251
114.678474 1282.884277
116.178246 1216.605591
116.590652 1270.864502
123.044128 79147.367188
130.747604 1103.866699
139.039139 91982.367188
140.780228 1167.970825
141.226562 1240.08728
147.044235 14092.703125
151.039001 20838.103516
165.054901 41874.371094
166.884872 1255.903442
169.049637 2116.013672
202.344345 954.838501
205.065842 2795.653076
207.064194 1259.046265
233.060272 26161.941406
235.076141 4670.375488
245.561874 1159.288452
249.076492 5692.62793
261.055298 29416.970703
263.071838 27638.662109
273.076508 30008.777344
297.301361 1066.807007

>collision 35
94.530678 1225.214844
108.531212 1212.315796
109.815521 1323.998169
113.453415 1118.60083
118.686882 1125.965088
123.044113 106004.375
139.039093 108181.445312
147.04422 12964.376953
148.509491 1032.008911
151.039139 26808.951172
152.226196 1137.035156
165.05484 48261.421875
167.568771 1229.608276
168.712692 1231.33667
169.0495 1798.845337
205.065735 4051.69458
220.537109 1422.953491
233.060287 36837.96875
235.076401 7681.323242
245.059525 2759.679932
248.079147 1093.727905
249.075974 5584.125488
261.055145 38516.601562
263.071442 36057.75
273.076141 40147.691406
280.238495 1197.479736
290.568237 1506.453003

