>compound Rutin
#instrument LTQ Orbitrap XL, Thermo Scientfic; HP-1100 HPLC, Agilent
>formula C27H30O16
#smiles C[C@H]1[C@@H]([C@H]([C@H]([C@@H](O1)OC[C@@H]2[C@H]([C@@H]([C@H]([C@@H](O2)OC3=C(OC4=CC(=CC(=C4C3=O)O)O)C5=CC(=C(C=C5)O)O)O)O)O)O)O)O
#inchi InChI=1S/C27H30O16/c1-8-17(32)20(35)22(37)26(40-8)39-7-15-18(33)21(36)23(38)27(42-15)43-25-19(34)16-13(31)5-10(28)6-14(16)41-24(25)9-2-3-11(29)12(30)4-9/h2-6,8,15,17-18,20-23,26-33,35-38H,7H2,1H3/t8-,15+,17-,18+,20+,21-,22+,23+,26+,27-/m0/s1
>charge 1
>ionization [M+H]+
>parentmass 611.16067

>ms1peaks
611.162354 15299377.0
612.164612 4604112.0
613.166931 1190386.625
614.170715 182819.40625

>collision 35
173.093246 1115.80835
213.70845 1293.151978
225.641235 1275.262085
236.028748 1363.296875
290.858765 1398.80896
303.048889 17414.390625
307.087067 1245.303955
347.611908 1153.179688
388.244354 1469.993774
447.093811 1347.644165
465.101898 7819.563477
585.296143 1118.591064

>collision 70
169.129745 1009.122009
209.9944 1135.532349
213.120483 1264.885254
216.199219 1244.134766
261.89621 1213.451538
264.847626 1069.06189
302.441406 1170.825073
312.782623 1238.038452
312.97818 1394.597778
339.116547 1370.277344
357.11441 1079.987915
358.806427 1286.163208
574.822754 1240.571899
589.273071 1174.250732

>collision 55
176.201797 1215.317383
176.739243 1276.816284
181.144241 1079.157104
194.453171 1250.045654
256.985474 1274.304565
272.602203 1149.390015
282.444824 1187.159668
303.049438 5126.933105
326.258179 1230.135254
354.753571 1618.520996
417.681488 1316.367676
484.208466 1194.405151
503.070648 1308.918945
541.313965 1311.949219

>collision 45
220.970596 1107.821899
224.639053 1462.236084
303.049408 7230.808105
343.09613 1184.604614
358.529541 1371.460693
417.564514 1365.586304
447.079468 1196.090698
465.102356 2663.445801

