>compound Xanthohumol
#instrument LTQ Orbitrap XL, Thermo Scientfic; HP-1100 HPLC, Agilent
>formula C21H22O5
#smiles CC(=CCC1=C(C=C(C(=C1O)C(=O)/C=C/C2=CC=C(C=C2)O)OC)O)C
#inchi InChI=1S/C21H22O5/c1-13(2)4-10-16-18(24)12-19(26-3)20(21(16)25)17(23)11-7-14-5-8-15(22)9-6-14/h4-9,11-12,22,24-25H,10H2,1-3H3/b11-7+
>charge 1
>ionization [M+H]+
>parentmass 355.154

>ms1peaks
355.154663 7278358.5
356.157867 1696822.875
357.160187 242359.421875
358.16156 28402.226562

>collision 70
102.827988 1021.004761
104.606964 998.664612
105.644608 1177.512085
122.052383 1371.916504
122.437096 1229.966187
123.350975 1762.40686
127.86235 1113.005737
147.0439 1885.37915
178.774139 2029.97168
179.033676 515918.6875
179.137558 1596.003174
179.296524 1283.054077
180.036758 5990.868164
208.766281 1338.239136
234.642334 1141.185181
235.096527 139326.765625
236.09877 1750.896851
254.087692 1269.900879
257.080994 6760.060547
266.998993 3455.351318
273.478333 1225.57666
280.577271 1206.706787
298.154572 1634.830078
299.091248 1966567.625
299.651093 7260.937988
300.094269 29402.404297
302.433929 1466.545288
313.141632 2193.021729

>collision 45
104.210976 1112.998047
112.977188 1335.245972
113.705765 1190.814697
122.794769 1115.299194
123.350853 1829.441895
147.044205 2494.409668
149.991898 1192.69873
159.858566 1097.001465
178.314789 1193.119141
179.033768 432203.5
180.036987 7911.810547
193.048904 1680.299194
204.610825 1067.945068
220.616592 1649.376587
235.096695 154114.203125
236.09964 2554.555176
257.081665 6203.212402
260.202057 1141.772461
267.001068 2374.375
298.160187 2560.185059
298.527679 6637.492676
298.71933 4638.262695
299.0914 2036618.875
299.463562 3190.232666
299.65686 4362.106445
299.906006 1110.869507
300.094147 45102.589844
302.427368 1509.767578
313.143036 2646.121094
336.733215 1382.710205
356.157379 30630.193359
360.073395 1174.250244

>collision 55
95.106125 1076.502808
118.95874 1143.372559
120.067192 1296.970337
123.4935 1128.785156
127.378456 1069.40979
128.032394 1248.204834
139.172211 1286.564209
147.043594 3271.918213
163.379791 1260.718872
163.760895 1013.368469
167.143692 1208.479858
167.402588 1069.207642
175.085724 1258.599731
179.033661 514309.03125
179.293228 2128.955811
180.036774 12317.729492
224.808563 1126.807617
235.096481 156068.859375
236.099258 2949.69458
257.080475 6934.930176
266.997772 3064.977539
286.881958 1129.31897
298.159912 2361.549316
298.530701 10718.271484
299.091217 2135484.75
299.652924 7777.04834
300.094055 56107.421875
313.144775 3236.720459

>collision 35
102.592468 1157.764038
118.9104 1193.046387
147.044022 3669.100098
148.098907 1186.560669
178.774826 1931.752808
179.033676 387363.0
220.612366 1437.692627
235.096512 154397.515625
246.242004 1142.064575
257.081177 4649.904785
267.000824 2091.54834
268.019806 1325.570435
288.696045 1112.158569
298.152283 1781.121216
298.530273 8553.362305
299.091248 1966292.875
299.54895 2024.807983
299.651306 5465.243164
299.777313 1800.234375
300.09375 6008.587891
302.426392 1965.046265
313.144135 2033.546387
355.153412 31576.470703
356.156982 109110.59375
391.700897 1572.272705

