>compound 4-Methylumbelliferylglucuronide
#instrument LTQ Orbitrap XL, Thermo Scientfic; HP-1100 HPLC, Agilent
>formula C16H16O9
#smiles CC1=CC(=O)OC2=C1C=CC(=C2)O[C@H]3[C@@H]([C@H]([C@@H]([C@H](O3)C(=O)O)O)O)O
#inchi InChI=1S/C16H16O9/c1-6-4-10(17)24-9-5-7(2-3-8(6)9)23-16-13(20)11(18)12(19)14(25-16)15(21)22/h2-5,11-14,16,18-20H,1H3,(H,21,22)/t11-,12-,13+,14-,16+/m0/s1
>charge 1
>ionization [M+H]+
>parentmass 353.08672

>ms1peaks
353.087616 18875118.0
354.090485 3401768.5
355.092377 617946.375
356.095215 74075.570312

>collision 45
103.060547 1141.407593
105.069031 2801.792236
106.198227 1007.85321
121.064888 1989.20166
123.210594 1130.342285
123.845131 1115.483032
125.488976 1096.690552
138.083588 1326.658691
150.255402 1107.375732
177.054214 1182448.0
177.323959 4230.537109
184.728302 1320.252441
209.773285 1194.785645
215.625061 1439.64856
235.973862 1233.387939
302.434021 1576.687866
304.068512 19739.882812
306.31958 1563.447754
313.430939 1355.340576
335.110901 9357.436523
340.692871 1448.292847
361.120575 1190.795044
367.613342 1159.154175

>collision 35
100.681831 1103.707153
101.956604 1258.026489
105.069016 2264.350098
111.07888 1207.313721
118.935005 1087.751099
121.06382 1905.50293
148.514084 1236.976807
168.973404 1221.049805
177.054108 942829.0
190.249969 1019.824341
219.254578 1188.749023
281.129639 1329.793457
304.068115 13790.054688
322.704956 1225.645386
335.109528 5907.481934
350.879272 1196.224487
353.545074 1141.643799
356.204773 1285.976807
371.753052 1213.239624
379.673462 1156.692261
392.143951 1342.036255

>collision 55
105.069496 3626.220459
121.064407 1958.855347
126.50441 1105.85144
175.280899 1075.349731
177.054276 1231518.375
188.455322 1159.460205
263.810181 1213.550903
303.065338 1830.018921
303.488281 1178.903076
304.068115 23093.917969
321.312836 1192.097046
335.110779 9893.78418
394.292389 1174.395874

>collision 70
105.069542 3510.165771
120.002678 1125.764038
121.06485 2851.887207
132.361069 1260.740601
134.615936 1093.616577
139.776443 1139.763428
140.512466 1442.778442
149.058395 1276.5
150.256165 1106.242188
158.481964 1466.568359
177.054367 1337847.625
216.393707 1115.97168
220.618271 1358.96228
235.060623 1268.697144
295.101685 1160.041626
303.063232 1461.139893
304.067932 20565.710938
335.109619 6711.130371

