>compound Trans-Zeatin-o-glucoside
#instrument LTQ Orbitrap XL, Thermo Scientfic; HP-1100 HPLC, Agilent
>formula C16H23N5O6
#smiles C/C(=C\CNC1=NC=NC2=C1NC=N2)/CO[C@@H]3[C@@H]([C@H]([C@@H]([C@H](O3)CO)O)O)O
#inchi InChI=1S/C16H23N5O6/c1-8(2-3-17-14-10-15(19-6-18-10)21-7-20-14)5-26-16-13(25)12(24)11(23)9(4-22)27-16/h2,6-7,9,11-13,16,22-25H,3-5H2,1H3,(H2,17,18,19,20,21)/b8-2+/t9-,11-,12+,13-,16+/m1/s1
>charge 1
>ionization [M+H]+
>parentmass 382.17212

>collision 28
119.034775 17316.537109
136.061401 822757.3125
148.061325 206041.4375
185.081741 395214.28125
202.108185 1952444.5
220.07103 19660.667969
220.108917 21859.039062
220.118423 5436961.0
220.125931 26042.128906
220.166077 21606.923828
280.103577 23365.478516
298.113953 60331.28125
299.082886 26204.697266
364.160797 238716.84375
380.125885 31813.646484
382.142761 20592.458984
382.17099 1286455.375
383.174408 504466.40625

>collision 19
136.061447 154909.109375
185.081802 13678.579102
202.108475 62018.023438
219.976822 2065.052246
220.071671 3092.808105
220.094711 2996.904297
220.104645 2381.308594
220.108734 4088.014404
220.118713 682177.6875
220.125992 5399.966797
220.130432 3478.833008
220.166031 2955.268555
291.564026 2815.955322
298.114197 6787.520508
299.118927 7757.297363
325.125427 3675.600342
364.160675 5562.170898
380.125732 4716.243164
381.138123 6714.778809
382.1409 8413.116211
382.171356 74944.648438
382.299103 17501.986328
382.336182 2345.993408

