>compound Tetrahydropapaveroline
#instrument LTQ Orbitrap XL, Thermo Scientfic; HP-1100 HPLC, Agilent
>formula C16H17NO4
#smiles Oc(c3)c(O)cc(c3)CC(N2)c(c1)c(CC2)cc(O)c(O)1
#inchi InChI=1S/C16H17NO4/c18-13-2-1-9(6-14(13)19)5-12-11-8-16(21)15(20)7-10(11)3-4-17-12/h1-2,6-8,12,17-21H,3-5H2
>charge 1
>ionization [M+H]+
>parentmass 288.12303

>ms1peaks
288.122955 3268205.0
289.12619 591707.5625
290.128601 70007.5625
291.130798 6947.727539

>collision 35
83.487206 1011.594604
84.751984 1272.936646
91.320641 1645.050171
96.332932 1050.720093
120.110329 1295.246582
123.043739 19432.363281
123.378693 1200.948853
130.142654 1034.186401
130.398163 1356.804321
131.240677 1283.427124
132.452393 1110.699097
137.059357 8758.010742
137.949112 1187.493164
143.048721 5247.01123
146.245728 1191.380615
152.070557 4177.519531
161.059616 47103.871094
163.830139 2630.181152
164.07019 538411.5625
165.090515 4508.77832
169.156036 1241.421265
172.097351 1212.628052
188.452423 1351.22876
190.086197 7767.427734
190.549515 1414.733276
192.101776 4243.366211
192.984482 1451.348633
212.300064 1217.903442
217.122955 1447.927002
218.117813 2264.205322
220.511642 1204.910156
243.100708 1838.253906
244.168381 2418.256104
246.150375 4332.120117
253.085098 3846.633789
270.152588 1361.774048
270.8974 1622.32605
271.096283 278606.25
272.164246 12620.291016
273.172699 8549.929688
286.18103 1627.22522
286.931122 1315.751465

>collision 70
91.417702 1374.00415
92.620056 1241.42334
123.0438 15138.925781
130.734207 1112.599976
137.059479 7121.775879
138.086761 1075.91626
143.049225 4150.777344
152.070084 3819.553711
156.985153 1163.673218
161.059616 40208.300781
163.83313 2553.665771
164.07019 413300.96875
164.30661 1314.13916
165.090836 1575.843262
190.085739 3470.947754
243.103394 1375.519043
246.148819 1713.661133
253.086578 3224.667725
267.584656 1038.508057
269.947754 3229.567139
270.591522 1300.017944
270.902283 1315.364502
271.096283 212242.171875
272.163666 4249.392578
273.172546 4660.369141

>collision 55
79.992775 1131.772217
81.456436 1647.616577
95.20787 1196.343994
123.043671 16702.25
137.059341 5730.031738
143.048553 4982.502441
152.070236 2620.847412
161.059509 40335.0625
163.830902 1709.106445
164.07016 451568.46875
164.30629 1398.549194
165.090881 3412.261719
190.085663 4433.583008
191.565979 1248.821411
192.102585 3375.358887
220.51123 1453.325317
235.073761 2861.904297
243.098602 1915.244385
246.147781 2088.094482
253.085968 3132.908203
256.170654 1300.004761
269.946808 2485.821045
270.590912 1348.84375
270.904724 1413.970825
271.096161 234395.9375
272.164276 5116.007324
273.172699 4604.471191

>collision 45
75.315567 1233.084229
75.913406 1251.908325
76.649178 1310.493042
78.893364 1164.83374
85.794884 1315.37207
94.178711 1231.833984
94.703331 1460.734131
100.903687 1371.585327
106.167229 1169.487549
123.04364 16836.816406
123.932335 1025.556641
133.986603 1114.301514
137.05954 8398.298828
143.04866 4415.106445
152.070679 3730.919922
161.059586 47148.890625
163.831818 1481.058472
164.07016 517100.3125
164.294708 1896.118652
165.089523 3811.108398
190.086014 5214.086426
192.100616 3649.803711
195.213043 1252.202026
203.556381 1076.313354
243.101105 2281.287842
244.177383 1322.948975
246.147385 2001.053223
253.085419 3751.543457
256.166138 1607.549194
269.94635 3119.051758
270.903412 1646.941406
271.096191 266058.96875
272.164703 7804.157715
273.173004 7606.527344

