>compound S,R-Noscapine
#instrument LTQ Orbitrap XL, Thermo Scientfic; HP-1100 HPLC, Agilent
>formula C22H23NO7
#smiles CN1CCC2=CC3=C(C(=C2[C@@H]1[C@@H]4C5=C(C(=C(C=C5)OC)OC)C(=O)O4)OC)OCO3
#inchi InChI=1S/C22H23NO7/c1-23-8-7-11-9-14-20(29-10-28-14)21(27-4)15(11)17(23)18-12-5-6-13(25-2)19(26-3)16(12)22(24)30-18/h5-6,9,17-18H,7-8,10H2,1-4H3/t17-,18+/m1/s1
>charge 1
>ionization [M+H]+
>parentmass 414.15473

>ms1peaks
414.155518 191562608.0
415.158295 46705832.0
416.1604 8250232.5
417.16275 1029673.5

>collision 45
127.028114 1184.942505
129.002625 975.36615
144.01239 1195.549194
164.769562 1044.829468
179.07016 15226.042969
188.047363 1764.508789
205.0737 109803.273438
206.081985 7489.328613
216.476517 1255.23938
218.084152 2580.404297
218.687363 1186.712524
220.096893 1881139.75
220.822586 1460.359985
221.09935 4798.805664
236.093063 1858.767334
248.092087 14186.337891
284.901703 1301.141357
286.882843 3576.107178
296.454041 1289.594727
324.099426 16224.992188
334.087555 3101.93457
335.090973 6099.083008
337.109009 1775.875854
339.12265 3513.355469
350.078156 8943.536133
352.099274 13749.894531
353.102264 103924.007812
355.116638 5327.864746
358.095398 1346.834961
360.125122 1130.888428
360.226471 1175.014404
365.10199 101467.765625
366.096741 3152.429199
368.146606 2045.181396
371.114136 3179.860107
378.13382 13364.202148
381.120728 29890.046875
382.251617 1196.182495
383.112946 12655.547852
386.510101 1354.968262
396.143616 91269.742188

>collision 35
136.514389 1180.689087
142.951904 1298.004639
177.871384 1031.96875
179.070496 13734.081055
188.458847 1273.95105
204.064316 2315.292969
205.073639 101387.507812
206.081406 6193.524414
218.0811 2718.8479
219.499939 1785.239258
220.096863 1835554.0
220.454666 5584.072754
220.696991 1393.34082
221.101074 2343.955078
248.091766 12098.705078
302.440643 1163.898071
317.595215 1244.183105
324.098816 15451.082031
334.082733 2339.070557
335.093018 4659.358398
339.121979 2874.732666
350.079712 6266.941895
351.091278 1596.619263
352.097839 13027.689453
353.102142 94034.523438
355.118347 5101.663086
365.101929 96169.929688
366.097748 2654.494873
367.114441 1263.058594
371.113739 4317.57373
378.13382 12262.013672
381.120941 26412.886719
383.112213 11668.546875
396.143524 85383.25
414.154633 185368.359375
414.857117 1062.496582
415.158569 41858.921875
443.913513 1055.560181

>collision 55
122.390572 1483.793335
122.626381 1013.622986
128.408371 1278.301758
148.635559 1125.574097
152.013367 1285.112915
156.667648 1126.928589
171.283707 1324.513916
179.070023 14776.448242
188.04425 1408.65918
188.443008 1164.210571
204.066864 1393.806763
205.073639 102768.445312
206.081543 6695.963379
218.08165 1784.498169
219.090485 1278.226807
219.49884 1985.27063
220.096786 1812702.875
220.455673 5447.681152
221.099609 4603.587891
236.092621 2430.737549
237.032944 1245.273438
248.091873 11193.492188
278.467285 1033.945068
286.884186 2894.675049
302.473602 1119.424805
308.102081 1570.746704
324.098816 16258.362305
334.08548 2764.661377
335.092865 5896.079102
337.108673 1690.289551
338.112305 1222.446411
339.122437 3404.763916
350.079468 9175.157227
351.082703 1423.873535
352.098724 12173.735352
353.101898 105879.554688
355.118011 5760.498047
365.101807 102460.359375
366.095825 2709.07666
368.143463 1847.877441
370.168213 1726.586182
371.113647 3652.241455
378.133575 12433.137695
381.120544 26416.863281
383.112274 10285.307617
396.143646 84439.125

>collision 70
119.695801 1138.217041
129.432587 1314.281372
133.01947 1106.896118
179.070236 11937.442383
191.065384 1219.455322
204.064926 1718.471069
205.073669 93337.460938
206.082169 5265.548828
218.08165 1901.1427
220.096893 1523674.375
220.457047 5753.609375
220.699081 1308.130371
221.102051 1733.133789
236.093216 1482.892822
248.092194 13007.216797
257.091888 1421.634033
261.195129 1126.906616
288.909729 1055.617188
308.105591 1711.406372
324.098846 14871.423828
334.080261 1619.542847
335.092712 4600.045898
339.121735 2858.077393
350.079681 8524.22168
352.097595 11256.793945
353.102203 91418.601562
355.117554 5430.035645
365.102051 87118.976562
366.096893 1794.961304
367.126831 1443.220093
368.148865 1344.758423
371.110992 2637.609375
378.132751 11167.915039
381.120636 22547.212891
383.113098 9301.204102
396.143738 73828.671875

