>compound Reserpine
#instrument LTQ Orbitrap XL, Thermo Scientfic; HP-1100 HPLC, Agilent
>formula C33H40N2O9
#smiles CO[C@H]1[C@@H](C[C@@H]2CN3CCC4=C([C@H]3C[C@@H]2[C@@H]1C(=O)OC)NC5=C4C=CC(=C5)OC)OC(=O)C6=CC(=C(C(=C6)OC)OC)OC
#inchi InChI=1S/C33H40N2O9/c1-38-19-7-8-20-21-9-10-35-16-18-13-27(44-32(36)17-11-25(39-2)30(41-4)26(12-17)40-3)31(42-5)28(33(37)43-6)22(18)15-24(35)29(21)34-23(20)14-19/h7-8,11-12,14,18,22,24,27-28,31,34H,9-10,13,15-16H2,1-6H3/t18-,22+,24-,27-,28+,31+/m1/s1
>charge 1
>ionization [M+H]+
>parentmass 609.28066

>ms1peaks
609.282227 253261552.0
610.284119 93543688.0
611.286743 21239542.0
612.289673 3637403.25

>collision 55
171.771255 1381.695068
174.091278 5352.410156
179.799362 1148.210571
192.1017 8087.13623
195.065155 58465.863281
200.105408 1345.197998
204.101486 3555.479004
215.118057 3280.512451
224.128006 10470.027344
236.128052 33035.050781
248.103989 1661.163818
254.139725 1490.057251
262.124847 1402.360352
268.837616 1449.656372
281.734009 1309.054199
288.138611 3718.798096
303.150665 1301.620605
316.134338 2987.357422
322.144806 2955.726807
333.159485 5069.995605
334.146942 2236.658447
336.158417 10228.18457
337.13205 3846.14624
347.176086 1309.764526
348.160919 9281.619141
353.128876 3152.854004
354.168884 3375.501465
365.185822 61321.902344
366.169556 5387.360352
368.149261 32109.558594
380.184113 6257.469727
386.162415 1769.482056
396.195709 1831.809814
396.857574 1708.776245
397.211731 330504.71875
397.548706 1561.726318
398.197571 2486.998047
402.159088 2135.078369
404.169464 9160.087891
413.206451 5787.727539
416.170471 1922.326782
418.181702 1642.664673
430.188263 1178.373779
434.180115 12602.536133
436.196655 68055.109375
447.136688 1893.292725
447.793518 2375.452393
448.078705 2395.065918
448.196198 456707.40625
448.601501 1471.276123
545.236572 1786.876221
559.245667 3443.943604
560.226196 6636.140137
577.253601 121802.226562
580.252869 3469.654297
580.806946 1365.540161
591.268982 9868.993164
592.253784 9822.068359

>collision 45
174.091568 6638.453125
192.101974 7991.895996
195.065262 60575.835938
204.100922 3372.276611
215.117905 3335.281738
220.015884 1218.106079
222.114914 1845.7052
224.127716 9164.510742
228.133438 1399.485352
236.127853 30387.216797
242.138733 2104.072266
250.853638 1162.484619
254.137421 2662.390869
276.138184 1941.137939
288.137238 3569.365234
290.119537 2719.727539
304.134766 1446.893921
316.130981 2286.148193
322.143707 4136.372559
333.158478 4769.096191
334.145111 3112.504883
336.159637 10326.573242
337.132385 3746.725342
338.104004 1611.782837
348.159027 11796.416016
353.126343 3716.814209
354.169556 3788.831299
365.185791 70958.25
366.167633 5103.907715
368.149567 36566.636719
379.203125 2262.614502
380.184631 9246.691406
386.16275 1347.543457
396.203278 1517.506592
396.323242 1578.459351
396.865112 1812.457764
397.211731 383196.125
397.327789 1588.385742
398.196747 2536.01001
402.155029 2461.751709
404.169769 12449.000977
413.207611 7448.645508
416.174225 2186.222168
429.442017 1242.553955
434.181305 15282.320312
436.196655 80887.054688
447.780731 2964.689697
448.078674 2348.984619
448.196136 536249.125
448.604919 1745.629517
449.260773 1501.992676
463.215973 1365.373169
503.625671 1518.135376
548.231567 2412.624512
559.24353 2992.333008
560.227051 9118.155273
564.858521 1215.578369
577.253418 136361.359375
580.252869 4116.746582
582.06311 1236.725586
591.269104 11423.977539
592.253296 9465.288086

>collision 35
166.84137 1167.852295
172.949738 1147.36145
174.090973 7307.729492
192.101501 8029.02832
195.065155 61022.214844
204.101013 3846.315674
213.400299 1389.056641
215.118927 3108.488281
222.109848 1502.744751
224.128326 10843.086914
236.128021 30998.296875
239.878159 1273.604004
242.140259 2715.155029
254.139587 1726.532837
268.04361 1504.478394
288.139221 2935.877686
290.117767 2090.621338
302.424561 1463.435791
305.163788 1505.164917
316.135803 1505.755737
322.145966 3264.827148
333.158661 4716.516602
334.143127 4176.909668
336.159424 10646.868164
337.128784 3611.368652
338.105286 1694.811157
348.158661 10362.879883
353.126404 4417.681152
354.168732 3074.409668
365.185913 73148.796875
366.169922 5831.799805
368.149292 38764.71875
380.185242 9626.629883
382.183502 1492.116699
386.168976 2047.477783
396.194458 2397.157471
396.8638 2305.816895
397.211609 434137.375
397.556946 1436.305054
398.18924 3515.455566
402.151428 2353.893555
404.16983 13226.121094
413.206757 7537.73877
416.169861 1758.376099
434.181061 15385.642578
436.196594 89130.117188
447.139984 2876.463379
447.781647 3354.740234
448.195984 580131.0625
448.609589 2120.815918
449.255615 1786.749756
474.130402 1468.403931
535.730164 1330.103271
543.518555 1246.11792
548.223328 2634.439697
559.233276 3024.130371
560.229553 8155.945312
577.253113 147338.578125
580.251282 3760.015137
591.267639 13247.121094
592.252197 10052.75293
623.809998 1238.452271

>collision 35
174.090744 3897.881348
178.930206 1385.216919
185.801941 1191.609009
188.439621 1263.562988
192.101273 4101.75
195.065109 43088.394531
200.266739 1415.38562
222.111862 1158.057129
224.128189 6063.104492
227.116257 1966.787842
236.127899 15169.764648
242.135529 2394.699951
254.13855 1838.910767
265.132202 3159.94043
266.134857 2211.914307
267.900543 1465.897339
288.137604 2336.624756
290.12674 1680.530396
322.140137 1680.428223
333.161316 2157.658447
334.146271 1586.790527
336.158569 5298.682129
337.129364 3688.576904
338.103607 1437.986206
348.161743 5621.213379
353.124725 3406.951904
354.16687 1603.130005
357.988556 1227.601318
363.169159 9493.640625
364.173553 14987.069336
365.184937 40943.691406
366.166077 4270.337402
368.148804 37736.960938
370.013367 1298.627808
380.187164 4887.762695
386.169952 1824.418579
386.985718 1373.461914
395.196136 60730.140625
396.199249 108769.539062
397.20752 337159.03125
398.190521 2938.171143
404.170776 8222.37793
413.206268 4211.792969
416.167297 2244.751709
416.69632 1328.865845
434.180695 11098.351562
436.196167 83961.84375
447.781586 2451.950195
448.195679 505552.3125
500.393097 1361.124146
548.216187 1542.454346
559.23822 2203.755371
560.229309 4295.008789
574.536987 1379.151611
575.239502 2265.905762
577.251953 86084.828125
580.254395 2846.010986
590.268005 1248.371216
591.265564 6602.597656
592.250916 8056.726074
593.24353 3369.255371

>collision 35
174.088257 31544.421875
192.101379 29829.101562
195.064941 231517.75
198.628784 21519.943359
224.127411 56595.773438
226.858597 20892.816406
228.38884 19842.609375
236.126678 96514.757812
285.558777 18481.216797
337.131226 37097.699219
349.664001 25231.005859
365.185028 237049.484375
368.147858 273708.65625
379.469879 21177.365234
380.185028 29640.716797
397.210358 1013617.375
404.168457 49334.742188
423.657593 23077.236328
434.178528 61510.714844
436.195557 585696.125
448.195068 3431428.0
449.19812 61853.742188
487.221191 21005.373047
577.251587 456311.5
591.270142 43742.625
592.245178 45785.160156

>collision 70
174.091904 3894.676758
192.102493 4254.183594
195.065186 40196.953125
204.1017 2496.039551
206.759109 1164.515991
224.12883 7281.390137
230.925156 1388.599487
236.128098 21174.308594
250.953094 1139.664307
261.827606 1050.615967
270.552948 1236.361206
286.285583 1291.516479
286.418701 1307.341064
288.13623 2246.650635
303.903351 1380.962402
322.141968 1793.93396
333.160522 3194.900635
334.144562 1412.839844
336.159119 6786.333984
337.129364 2033.283203
348.158875 6267.972656
353.128662 3047.932617
354.175659 1850.525757
365.185944 42522.59375
366.167511 3027.463867
368.149017 18647.833984
380.187012 4732.541992
397.211731 202914.953125
404.170135 7102.998047
413.207977 3253.331055
416.172241 2037.451904
434.179962 6417.166992
436.196625 37505.296875
448.196198 297971.09375
548.22522 1539.29126
560.225464 3597.386719
577.253357 77014.398438
580.011108 1131.251099
580.250366 1542.116577
591.267334 6623.444336
592.251648 3637.00293

