>compound Vitexin-2''-O-rhamnoside
#instrument LTQ Orbitrap XL, Thermo Scientfic; HP-1100 HPLC, Agilent
>formula C27H30O14
#smiles C[C@H]1[C@@H]([C@H]([C@H]([C@@H](O1)O[C@@H]2[C@H]([C@@H]([C@H](O[C@H]2C3=C(C=C(C4=C3OC(=CC4=O)C5=CC=C(C=C5)O)O)O)CO)O)O)O)O)O
#inchi InChI=1S/C27H30O14/c1-9-19(33)21(35)23(37)27(38-9)41-26-22(36)20(34)16(8-28)40-25(26)18-13(31)6-12(30)17-14(32)7-15(39-24(17)18)10-2-4-11(29)5-3-10/h2-7,9,16,19-23,25-31,33-37H,8H2,1H3/t9-,16+,19-,20+,21+,22-,23+,25-,26+,27-/m0/s1
>charge 1
>ionization [M+H]+
>parentmass 579.17084

>ms1peaks
579.172852 25096168.0
580.174805 7551163.5
581.177368 1820382.125
582.180481 324050.8125

>collision 35
215.973129 3535.081299
263.188202 3170.043213
271.059601 42882.171875
283.059692 16609.146484
295.058563 14930.751953
302.449799 4631.29541
313.069611 103932.125
331.803009 3664.331543
337.070465 25667.681641
367.079926 49971.203125
374.350098 3678.512451
379.079742 19551.048828
381.452637 3739.317139
387.57431 4178.322266
397.090851 67950.179688
413.604858 4341.794434
415.10144 301578.4375
416.101532 5279.02832
423.108215 4108.729004
431.835205 3758.145264
432.10672 4732.444336
432.7211 5675.073242
433.111969 1228467.0
434.115112 11006.829102
441.123627 4116.667969
459.126434 16510.279297
489.136383 3994.89624
512.352722 3221.229736
525.139343 11111.145508
543.145508 8270.703125
548.803223 4901.035645
555.543396 3673.402588
561.156433 9337.908203

>collision 45
165.179871 2681.552246
174.934952 2988.82251
181.248093 3088.75415
271.059631 18551.412109
283.059509 8271.342773
295.059174 8912.581055
299.740021 3068.974121
302.451782 3848.184326
313.069366 47257.871094
316.794983 4371.376465
337.070648 12627.948242
355.846619 3021.335938
367.080994 30976.822266
379.079315 8929.746094
397.090881 41995.703125
415.100647 163164.8125
417.621338 3894.44458
433.111237 612480.8125
459.127441 5380.48877
525.14093 7433.395508
549.49884 4426.821777
561.162781 5117.002441

>collision 70
172.472366 2660.483398
199.116302 2568.196289
201.459076 2737.681885
211.889633 2639.7771
215.995697 2713.927734
223.241943 2805.715576
228.815018 2474.580322
271.060547 8107.521973
283.059296 8030.303711
295.056976 4460.593262
313.06958 28246.486328
337.068665 9340.163086
367.080536 18107.75
379.07962 7104.101074
397.09021 26907.550781
415.101196 82158.109375
433.111755 256105.375
459.144043 2883.703857
474.269379 2661.637207
496.38736 2656.605225
523.59613 2809.306396
591.829651 2675.190674

>collision 55
188.447861 3007.117188
208.643677 3155.961182
219.387482 3247.4729
226.278809 3955.246338
240.600586 3459.344971
249.541763 3411.057129
271.059937 28303.869141
283.059601 13695.510742
295.059753 15171.238281
302.447418 4913.649414
313.069916 69812.867188
320.321228 3681.765625
337.069641 20037.462891
346.278351 3023.989014
351.089996 4223.038574
367.080017 47505.339844
379.08139 22113.001953
397.090607 59209.390625
415.101196 212951.546875
433.111786 773814.375
434.118744 5993.751465
459.131104 11488.368164

