>compound Lactose
#instrument LTQ Orbitrap XL, Thermo Scientfic; HP-1100 HPLC, Agilent
>formula C12H22O11
#smiles C([C@@H]1[C@@H]([C@@H]([C@H]([C@@H](O1)O[C@@H]2[C@H](O[C@H]([C@@H]([C@H]2O)O)O)CO)O)O)O)O
#inchi InChI=1S/C12H22O11/c13-1-3-5(15)6(16)9(19)12(22-3)23-10-4(2-14)21-11(20)8(18)7(10)17/h3-20H,1-2H2/t3-,4-,5+,6+,7-,8-,9-,10-,11-,12+/m1/s1
>charge 1
>ionization [M+H]+
>parentmass 343.1235

>collision 4
58.713535 1072.74231
61.257996 1019.557922
64.412865 1045.670288
68.792862 1171.216919
74.278519 1180.43457
80.441254 1076.098755
85.028252 6423.924316
91.038895 4387.646973
97.028244 3387.141602
103.038261 1588.638062
106.156975 1142.420288
109.708359 1682.672485
115.038162 1420.516846
127.038826 9377.428711
145.049255 23327.808594
158.018921 1422.640137
163.05986 65293.054688
163.353302 1316.129883
169.233444 1164.804077
181.071594 1670.936157
182.34877 1341.956055
194.751221 1167.771484
212.443344 1077.23999
221.703537 1052.963013
223.109253 1173.435669
283.738342 1215.935425
317.842987 1007.756836
325.112488 35609.644531
343.123657 11077.144531
365.212158 1183.552368
412.64798 1109.722168
436.979431 1250.862549

