>compound Safranin
#instrument LTQ Orbitrap XL, Thermo Scientfic; HP-1100 HPLC, Agilent
>formula C20H19N4
#smiles CC1=CC2=C(C=C1N)[N+](=C3C=C(C(=CC3=N2)C)N)C4=CC=CC=C4
#inchi InChI=1S/C20H18N4/c1-12-8-17-19(10-15(12)21)24(14-6-4-3-5-7-14)20-11-16(22)13(2)9-18(20)23-17/h3-11H,1-2H3,(H3,21,22)/p+1
>charge 1
>ionization [M]+
>parentmass 315.16097

>ms1peaks
315.161377 50794868.0
316.163605 11939235.0

>collision 70
89.732895 6168.662598
94.480751 6247.650391
120.440704 6600.384766
121.028473 5611.491211
145.419327 5388.0
145.677475 6677.633789
151.552063 7246.104004
155.682281 6500.708984
196.086319 6946.840332
197.095123 45146.433594
197.52626 6002.941406
208.101349 10754.646484
210.102676 54909.292969
211.110535 13863.80957
212.118408 38526.546875
222.111038 9630.430664
223.099091 34135.210938
237.113739 47030.851562
238.121628 565384.3125
239.125412 88962.351562
248.116989 11073.482422
256.099762 14416.170898
258.749847 6062.241699
259.110352 14185.794922
260.118134 9705.927734
261.12561 12647.93457
271.12735 11069.165039
272.116364 16421.037109
273.125946 102003.1875
274.133636 80524.679688
275.140717 9036.75
279.096161 10877.443359
280.100006 35503.820312
281.107666 32581.863281
283.11026 77845.101562
284.120331 66361.59375
285.110748 25028.804688
286.134613 44213.179688
287.141602 41974.5
288.149872 228955.3125
289.153412 50069.125
294.716583 5998.064941
296.11969 8732.371094
297.126495 193636.671875
298.134216 499583.34375
299.129181 935356.6875
300.135712 791071.875
301.140106 155184.0

>collision 35
101.390945 4417.771973
113.828857 3868.384033
115.695847 4437.21582
121.743111 5302.071777
126.799393 5343.42041
150.639572 5376.970215
168.158997 5144.944824
190.956741 5111.803223
197.096497 6912.620605
197.825226 5393.691406
203.914307 4634.512207
210.103592 20547.6875
212.118301 7728.503418
223.097733 13338.646484
237.11438 24554.712891
238.122131 136026.9375
239.125748 5262.375488
240.539841 4638.018555
248.032623 4362.171875
255.093124 9077.25293
257.097992 7461.806152
260.118317 6924.729492
269.11203 8978.430664
270.104492 6281.96875
271.112366 6487.288574
272.1185 23874.113281
273.126587 54790.703125
274.134613 27546.269531
279.094208 11145.970703
280.100891 22719.203125
281.112518 11348.652344
282.102051 13025.774414
283.112335 30004.535156
284.102264 26455.361328
286.13501 31370.439453
287.144684 15087.677734
288.150574 63599.695312
291.451263 5847.259277
296.119263 12783.205078
297.127411 104277.226562
298.135773 148619.546875
299.129944 419519.40625
300.137207 229448.953125
301.140808 22157.732422
310.454376 4317.722656
314.15744 7216.308105
314.522217 38964.429688
314.753967 15542.083008
315.16153 6844244.5
316.163696 5386664.5
316.409668 25698.199219
316.807068 20496.232422
317.166901 418414.1875

