>compound Indole-3-carboxylic_acid
#instrument LTQ Orbitrap XL, Thermo Scientfic; HP-1100 HPLC, Agilent
>formula C9H7NO2
#smiles C1=CC=C2C(=C1)C(=CN2)C(=O)O
#inchi InChI=1S/C9H7NO2/c11-9(12)7-5-10-8-4-2-1-3-6(7)8/h1-5,10H,(H,11,12)
>charge 1
>ionization [M+H]+
>parentmass 162.05496

>ms1peaks
162.055283 2165804.25
163.058548 203702.28125

>collision 45
52.013557 1214.548584
52.52536 1231.115356
53.092052 1060.920898
56.999352 1151.477051
60.529102 1050.497925
60.906418 1269.591675
64.278786 1033.28894
69.480965 2671.744873
74.928986 1173.160889
82.358139 1294.090576
82.789909 1490.682617
85.258423 1191.126587
87.143646 1042.20874
87.551743 1159.408569
92.853294 1227.813965
94.502068 1249.855225
95.459206 1110.164795
98.686905 1162.133179
116.049194 1817.663818
118.064865 1244035.0
119.937119 1232.87854
144.04422 263608.1875
159.489777 1417.684814
160.10553 1174.148682
162.054901 76606.601562
166.178513 1130.690186
172.773636 1384.138306
188.463852 1440.430054

>collision 55
54.278355 1163.513062
62.729576 1087.199341
69.480614 2691.577393
80.73996 1172.295532
89.566414 1009.658264
91.053413 2151.706299
93.086754 1125.753418
109.813103 1431.895874
110.412537 1080.343506
116.049393 2519.925293
116.251938 1338.111328
118.064926 1394000.0
142.067093 1404.360718
143.84819 1386.766113
144.044296 310619.1875
162.054901 41891.390625
170.081284 1148.756104
182.836243 1300.440674
183.222366 1135.533936
183.611771 1488.418213
192.691971 1494.862793
194.83548 1259.726196
197.534637 966.710815

>collision 35
54.04821 1340.36438
55.921864 1203.362915
56.331997 1266.235474
59.499744 1058.047974
60.846889 1081.667725
69.481094 1997.984131
73.461327 1155.043091
75.524025 1197.065918
80.804565 1334.78125
82.312004 1167.275269
86.249702 1133.357422
88.676651 1165.451538
90.428261 1309.102905
109.054596 1219.012085
113.929955 1069.139526
115.609261 1200.744141
118.064774 988378.0
144.044113 202455.203125
149.645645 1421.53186
162.054718 77231.203125
162.37735 1099.599487
179.368179 1345.52124
180.065094 1154.558594

>collision 70
53.44939 1197.583984
57.928574 1127.065063
60.392044 1623.868286
66.044518 1059.836426
66.205902 1164.524902
69.480431 3042.796387
76.439644 1261.912231
82.886108 1055.984985
84.306694 1039.165649
89.389099 1085.268921
91.053337 1298.356323
93.939621 1121.005005
101.776947 1387.518311
109.181747 1199.762817
114.27626 1030.408936
115.011414 1281.253784
116.049728 2825.076904
118.064873 1377995.125
120.437141 1135.447998
132.462708 1178.12854
143.84726 1520.901611
144.044235 319095.84375
162.054855 22010.009766
169.651611 1126.808105
178.46077 1493.592407
187.799789 1174.637329
188.447586 1609.547119

