>compound Bergapten
#instrument LTQ Orbitrap XL, Thermo Scientfic; HP-1100 HPLC, Agilent
>formula C12H8O4
#smiles COC1=C2C=CC(=O)OC2=CC3=C1C=CO3
#inchi InChI=1S/C12H8O4/c1-14-12-7-2-3-11(13)16-10(7)6-9-8(12)4-5-15-9/h2-6H,1H3
>charge 1
>ionization [M+H]+
>parentmass 217.04954

>ms1peaks
217.049896 60165868.0
218.052887 7960866.5
219.054764 880747.875
220.057083 69038.414062

>collision 45
63.01091 8283.142578
70.069305 7489.971191
76.580811 9262.06543
76.971733 8582.849609
81.796906 8461.295898
82.496254 9541.68457
87.262421 8556.857422
95.912209 7805.467773
105.069756 10287.527344
113.954964 8291.026367
115.053749 175576.921875
117.069389 182648.1875
120.011024 9476.352539
121.151566 9615.154297
131.048676 26288.601562
133.064529 28031.166016
133.208145 7596.963379
143.048691 48905.320312
145.064484 130680.125
147.378021 8638.207031
155.06012 15020.375977
158.036163 59595.746094
161.059311 154473.03125
161.878036 8391.273438
171.054077 50435.96875
173.059341 965261.125
174.031036 38653.34375
175.39238 8564.234375
189.054489 143948.53125
199.042465 11477.15332
201.713593 45799.554688
202.025772 8064139.0
202.337418 29942.335938
209.094849 9286.53125
217.049088 7736048.0
217.397736 30372.351562
218.052399 83592.46875

>collision 70
60.002956 4577.34668
67.293816 5034.205078
69.98542 4339.684082
72.446579 3844.312744
82.305611 4537.216797
84.131836 4007.318604
89.556015 4450.578613
95.829552 4273.381836
105.069077 5274.019531
111.051811 4908.23291
115.053787 112411.054688
117.06945 117081.875
131.048203 14262.977539
133.064606 14144.462891
141.418579 5157.394043
143.048798 34210.160156
145.064545 82145.359375
149.34668 3870.329102
155.060883 6627.69043
158.035675 36153.300781
160.048477 4222.230469
161.059296 101724.898438
170.497528 4302.588379
171.054428 32471.646484
173.059311 630964.5
174.030853 67668.398438
185.022797 12868.648438
189.05452 104646.671875
194.053024 5143.571777
199.039551 9032.642578
201.507629 5631.430664
202.025665 5458380.0
203.028442 35283.84375
217.049103 957290.25
218.052368 669983.375
244.618851 4823.128906

>collision 35
56.17202 9153.727539
58.483875 10865.365234
60.199467 9418.486328
66.14016 10238.516602
68.882942 9872.099609
73.81353 9467.689453
75.937393 9786.061523
85.265236 10090.578125
97.875282 9493.624023
99.774223 10070.723633
100.138748 11277.200195
105.909691 9092.039062
106.287399 9194.204102
106.412018 9315.636719
111.74398 13624.607422
115.05381 155371.984375
117.069473 172363.078125
117.869492 12090.808594
131.048889 14661.822266
133.063858 18936.917969
143.048752 44182.660156
145.064453 110444.765625
150.174316 10287.742188
158.035995 59140.230469
161.059265 130312.039062
171.054764 49385.035156
173.059433 901001.5
174.030777 41948.8125
188.451874 10215.623047
189.054672 129245.007812
201.709839 27536.380859
202.025894 7712972.0
202.341263 23268.748047
216.468567 15829.323242
216.697327 48406.917969
217.049194 12326901.0
217.584747 11581.647461
218.052353 52779.089844
226.49585 9634.410156
236.681595 10787.43457

>collision 55
56.616386 6757.100586
59.798897 6437.73291
60.842361 8187.025391
63.953983 6688.425293
68.648346 7693.396973
80.269104 8581.861328
82.827553 8051.408203
90.012184 8057.504395
91.053642 9949.264648
91.160294 7978.40332
91.279549 6776.45166
91.882858 7236.818359
96.888168 7051.705566
105.069839 9319.618164
115.05381 210417.65625
117.069511 214259.203125
121.320358 7333.453125
122.182632 9583.135742
131.04866 20494.28125
133.064301 25063.376953
133.595154 8407.630859
133.903305 7028.639648
142.117264 8524.825195
143.048386 56211.332031
145.064499 141813.46875
155.059753 12203.043945
158.035873 66700.820312
161.059402 168386.375
171.05484 69018.976562
173.059341 1067217.125
174.030518 43985.214844
178.505035 7264.334961
181.576935 7618.588867
185.023758 9122.422852
189.05455 162130.65625
199.039886 9727.775391
202.025742 9143172.0
216.702316 12604.80957
216.908951 25238.220703
217.049103 3271045.5
217.397232 10868.803711
218.0522 114072.867188
220.022888 7314.586426
232.25116 6968.527344

