>compound Berberine
#instrument LTQ Orbitrap XL, Thermo Scientfic; HP-1100 HPLC, Agilent
>formula C20H18NO4
#smiles COC1=C(C2=C[N+]3=C(C=C2C=C1)C4=CC5=C(C=C4CC3)OCO5)OC
#inchi InChI=1S/C20H18NO4/c1-22-17-4-3-12-7-16-14-9-19-18(24-11-25-19)8-13(14)5-6-21(16)10-15(12)20(17)23-2/h3-4,7-10H,5-6,11H2,1-2H3/q+1
>charge 1
>ionization [M]+
>parentmass 336.12358

>ms1peaks
336.123474 113074616.0
337.126495 26316206.0
338.128998 3557270.0
339.131653 380632.875

>collision 45
90.816643 1156.646484
99.82299 1235.125977
101.91452 1000.799011
118.39061 1058.071533
131.647491 1254.741821
137.205917 1130.714722
137.935364 1202.015381
161.261292 1453.958374
167.432083 1301.630005
182.686249 1244.420898
187.524963 1085.203369
188.071533 2241.572266
188.442719 1031.676636
207.982147 1476.539429
220.541367 1567.667114
221.72464 1246.488647
230.600464 1247.475342
247.077393 1784.212646
275.094299 9005.745117
275.369019 1188.504395
291.09082 5211.323242
291.528778 2550.297852
291.881073 4329.142578
292.098206 637952.0625
292.31604 2827.637207
292.66922 1964.419067
293.101654 9365.412109
302.481049 1874.836792
303.088867 4013.616699
304.098206 39167.898438
305.106049 20460.212891
306.077637 36008.441406
315.911835 1221.341919
318.076294 5488.475098
319.082886 3067.202881
319.841949 2386.572998
320.093475 473499.875
320.849915 14412.077148
321.100769 2116397.25
321.347076 8103.827637
321.900757 1746.474243
322.103577 37894.476562
336.123688 290766.65625
336.415924 2371.287598
336.677917 1754.619507
336.857758 3365.738037
337.126984 556212.9375
337.392517 2617.621582
337.838165 2162.549805

>collision 35
90.26461 1070.861572
94.085289 1199.979004
95.539795 1293.878784
96.858139 1142.274414
102.825806 1194.19873
116.069061 1110.929443
124.478836 1306.225952
131.283493 1209.157104
132.748184 1050.289551
134.997864 1148.022705
135.623428 1299.143311
188.071579 2614.663086
188.431351 1500.96228
194.212753 1092.759399
208.285187 1462.98584
275.093964 9620.599609
291.090759 6452.966797
291.527527 1736.20813
291.879242 2830.261719
292.098145 590485.8125
292.66745 1467.233154
293.100952 16544.582031
302.483185 1978.216431
303.090942 4418.171875
304.098175 34829.667969
305.10556 19328.630859
306.077667 31612.105469
308.128723 1772.301147
318.077057 5311.782715
319.080719 2437.00708
319.241943 1186.511597
320.093536 450036.0625
320.445984 7444.720703
321.10083 1914447.875
321.51535 3190.970459
321.756073 5555.456543
321.898376 1405.485718
322.103973 61821.40625
323.779083 1061.385986
335.422363 3267.639648
335.600952 1226.834961
335.855896 4106.665039
336.123688 757948.5625
336.393768 2705.19165
336.592255 1930.668091
336.858459 2809.248779
337.126862 671364.4375
337.397369 2281.367188
337.841553 1324.017822

