>compound Kinetin
#instrument LTQ Orbitrap XL, Thermo Scientfic; HP-1100 HPLC, Agilent
>formula C10H9N5O
#smiles C1=COC(=C1)CNC2=NC=NC3=C2NC=N3
#inchi InChI=1S/C10H9N5O/c1-2-7(16-3-1)4-11-9-8-10(13-5-12-8)15-6-14-9/h1-3,5-6H,4H2,(H2,11,12,13,14,15)
>charge 1
>ionization [M+H]+
>parentmass 216.08799

>ms1peaks
216.088089 7472038.5
217.091248 774355.25
218.094788 42634.929688

>collision 55
56.106724 1354.367798
63.886368 1109.805298
66.233238 1298.63269
72.084991 1239.724121
81.033157 107440.320312
83.808624 1031.448486
91.401291 1164.635376
91.729897 1010.660583
104.795654 1142.885986
108.302834 1087.390137
119.617859 1194.634521
120.096413 1058.647095
123.353004 1202.594482
130.226105 1104.997803
130.752426 1175.877441
134.04921 1119.499878
135.065628 1878.923096
135.252655 1140.277954
135.678253 1166.434937
136.061432 49838.375
137.045532 1783.532104
147.065979 4730.469727
147.85585 2273.044189
148.061447 382900.21875
150.192795 1244.387207
161.090729 1163.004517
162.078476 1551.20105
171.065964 8003.731445
173.069244 120203.320312
174.076035 2637.42041
177.127319 1291.993774
188.092667 478160.4375
188.389877 1879.152832
198.076782 31988.863281
199.060837 3454.324219
201.064102 2555.88501
214.734131 1178.429443

>collision 35
56.564167 1210.703491
58.082729 1073.009888
59.328613 1293.766479
60.578701 1020.786255
71.178963 1242.153564
71.569397 1176.723633
81.033134 90938.390625
81.816071 1508.445679
84.336227 1105.547363
120.24308 1189.022339
135.064774 1736.476074
136.061417 39594.582031
136.819031 1172.290894
140.967728 1158.092651
141.174973 1086.957153
147.066254 4159.491699
147.854782 2107.45752
148.061432 305714.8125
162.07579 1437.484619
171.066223 7549.329102
173.069229 92286.851562
174.077545 1959.770996
187.084 1696.871826
187.797348 1727.262329
188.092651 383760.4375
189.077652 1299.798462
198.07695 24242.1875
199.06105 3219.507812
201.063034 2375.281738
201.971664 1149.502319
216.087585 16669.183594
216.49556 1233.106689

>collision 70
55.975475 1190.773926
57.651394 1213.3927
60.734451 1323.284058
62.963085 1201.729126
65.003944 1225.095459
72.793076 1299.522705
73.867668 1172.696411
76.300758 1388.769897
81.033157 133406.328125
89.350357 1254.378662
90.119537 1265.737183
103.900291 1274.380981
107.513481 1106.867188
115.475571 1116.205811
119.504288 1031.565308
133.582474 1211.092407
135.065964 1987.355225
136.061447 54618.445312
136.302048 1184.286011
137.045593 2192.647949
144.991013 1092.902466
147.06633 5138.343262
147.856186 2012.762329
148.061462 451161.0
148.266922 1558.643921
152.523254 1160.394043
161.07901 1748.147339
161.934723 1206.260742
162.077118 2082.489746
171.065933 9439.30957
173.06926 136635.53125
174.077011 3212.425049
187.798325 2964.957764
188.092697 542830.625
196.590118 1344.552856
198.076935 35476.160156
199.061172 4842.993164
201.065826 2866.944092
220.62442 1816.132324

>collision 45
57.303463 992.906433
57.595173 1157.680908
57.719509 1056.88147
60.43758 1274.836548
61.128639 1201.509277
64.961182 1200.754028
69.391716 1236.770264
71.391655 1275.21106
77.122253 1157.893555
80.312187 1176.336304
81.033142 129457.78125
83.779434 1231.789551
84.989113 978.538452
98.055443 1246.314209
98.342133 1237.180908
99.992538 1189.798706
111.715256 1137.043823
120.258919 981.236572
136.061478 46627.3125
139.75148 1201.816162
142.020142 1409.799438
144.576996 1361.135864
147.066254 4283.604492
147.855255 2569.898926
148.061447 367496.71875
148.269562 1637.637939
148.879257 1233.686035
171.066238 6966.37793
173.069214 120535.367188
174.076294 2243.621826
187.798172 2035.988281
188.092651 464311.21875
198.07692 30430.710938
199.061584 3517.550781
201.062881 2472.826416
215.250183 1180.690186
216.087708 13516.991211
224.29982 1142.795898

