>compound Laudanosine
#instrument LTQ Orbitrap XL, Thermo Scientfic; HP-1100 HPLC, Agilent
>formula C21H27NO4
#smiles CN1CCC2=CC(=C(C=C2C1CC3=CC(=C(C=C3)OC)OC)OC)OC
#inchi InChI=1S/C21H27NO4/c1-22-9-8-15-12-20(25-4)21(26-5)13-16(15)17(22)10-14-6-7-18(23-2)19(11-14)24-3/h6-7,11-13,17H,8-10H2,1-5H3
>charge 1
>ionization [M+H]+
>parentmass 358.20129

>ms1peaks
358.201538 135545632.0
359.204468 31405218.0
360.20694 4427520.5
361.209198 428600.34375

>collision 70
98.725624 1084.634277
103.998093 1151.310181
106.537758 1244.338135
108.23613 1160.553467
110.286339 1149.04248
111.144402 1320.171265
130.237061 1197.814697
150.068024 1644.194458
151.075363 10276.450195
162.090851 1886.814087
165.090866 7569.168457
172.609467 1084.328735
174.067322 3429.023438
175.784531 1056.332886
188.106232 1690.973999
189.090912 34016.285156
190.086426 6692.701172
191.093704 9153.506836
191.655746 1226.302612
192.102859 1546.097412
203.107162 1247.66626
205.782608 2964.133545
206.117584 920698.0625
206.452789 1912.90686
210.538666 1203.281738
218.645981 1645.716309
264.111938 2391.563965
270.707031 1376.140137
274.085449 1067.632568
280.111145 1354.382202
295.13324 5843.019531
295.874573 1205.951782
296.140533 6685.751465
315.158417 5218.019531
327.159119 124150.054688
329.176788 1802.102539
341.173065 1490.922241

>collision 35
114.79332 1069.370728
115.821976 1084.471924
118.565857 1037.99707
127.99028 1162.066895
136.972672 1325.139771
151.075409 8255.389648
165.091202 6914.305176
165.609482 1121.045044
174.067154 1763.037109
182.522339 1114.219849
188.104919 1830.639038
188.46402 1186.135376
189.091034 25127.494141
190.086731 5526.93457
190.269089 1182.969238
191.094009 6027.856445
205.785263 4650.381348
206.117538 908113.6875
206.451096 3039.029785
230.701889 1330.402222
295.132507 6206.932617
296.140839 5114.162109
315.159515 4099.074707
327.159149 116595.929688
329.170807 1800.009888
342.161285 2456.782959
343.181793 1923.240967
364.194763 1082.982056

>collision 45
95.275635 1310.256958
109.230049 1067.238647
112.897484 1147.478516
118.76619 1305.01001
121.199219 1216.836792
127.285881 1064.987915
136.120056 1076.143799
139.846436 1136.486328
141.827332 1243.461792
145.362396 1109.204468
151.075409 8273.264648
165.090881 7571.004395
174.067368 3437.477539
188.104156 1526.804077
188.464264 1271.777832
189.090881 29797.792969
190.087479 5177.114746
191.094193 6884.887207
192.101593 1264.24585
205.782944 4618.094238
206.117538 949932.8125
206.452042 2824.111328
215.909912 1188.214478
218.095947 1138.362915
220.543503 1408.5448
295.133057 6372.566895
296.141113 5829.337402
302.474792 1254.596436
312.142822 1366.261841
315.158875 4388.835449
326.177246 1536.527954
327.159088 129054.742188
341.170868 2290.45166
343.183411 1942.242554
380.929535 1172.123901

>collision 55
103.62616 1324.134033
103.809204 1311.93103
110.980759 1230.99646
117.141563 1114.588379
120.043007 1211.126587
151.075516 7928.55127
154.832077 1118.267456
158.07103 1411.906494
162.092834 1653.334717
165.091217 8567.172852
174.067841 2845.413086
178.253159 1117.111206
185.919754 1345.310791
189.090988 31339.414062
190.086411 5590.286133
191.093979 8757.453125
191.213318 1251.787231
203.108505 1457.687378
205.786423 2748.141113
206.117584 938048.8125
206.448105 1545.000854
213.188675 1052.408081
219.534698 1149.001343
295.132965 7413.811523
296.139313 6785.386719
312.132874 1128.222778
315.158691 5240.760254
326.176727 1696.593018
327.159149 123459.898438
341.186859 1509.798584
343.177338 1956.148438

