>compound Phlorizin
#instrument LTQ Orbitrap XL, Thermo Scientfic; HP-1100 HPLC, Agilent
>formula C21H24O10
#smiles C1=CC(=CC=C1CCC(=O)C2=C(C=C(C=C2O[C@H]3[C@@H]([C@H]([C@@H]([C@H](O3)CO)O)O)O)O)O)O
#inchi InChI=1S/C21H24O10/c22-9-16-18(27)19(28)20(29)21(31-16)30-15-8-12(24)7-14(26)17(15)13(25)6-3-10-1-4-11(23)5-2-10/h1-2,4-5,7-8,16,18-24,26-29H,3,6,9H2/t16-,18-,19+,20-,21-/m1/s1
>charge 1
>ionization [M+H]+
>parentmass 437.14423

>ms1peaks
437.144897 2024252.25
438.147827 454765.09375
439.149963 90777.429688

>collision 55
127.876068 1218.973022
135.600174 1218.937744
152.04071 1461.29126
155.173096 1307.035278
155.630203 1108.014526
212.798706 1118.944702
214.18486 1127.653564
256.216187 1283.057495
266.129822 1141.460693
275.090576 6854.476074
299.090973 7828.928711
317.101837 20651.701172
341.101624 23894.244141
353.103668 3738.758057
365.098114 2753.446777
371.111328 3852.832031
383.111542 14921.457031
393.132843 13081.711914
401.122437 8252.196289
419.13269 33665.089844

>collision 45
140.226425 1174.796753
148.939743 1150.839722
150.947723 1256.420776
165.777863 1167.332764
177.000504 1550.594727
210.422287 1329.575928
220.590607 1306.184082
229.520996 1264.490356
275.091217 8091.920898
299.091949 10098.810547
317.101562 27563.416016
330.376648 1308.393433
341.101776 25240.904297
353.103912 2788.946045
365.101685 2894.940186
371.11142 3681.66333
383.111816 15598.766602
393.132751 15557.307617
401.121552 7748.211914
419.132721 37519.488281

>collision 70
126.667191 1131.951294
130.268692 1242.822876
148.443756 1171.147949
149.185349 1238.74707
188.826813 1086.748413
218.761246 1100.008911
275.092041 2953.310059
297.095093 1189.187134
299.09082 3359.36377
317.101898 6711.330566
325.606781 1405.05835
341.10199 9310.301758
353.097961 1635.204468
365.10022 1615.901001
371.111664 1995.749756
383.112762 7100.275391
393.13504 6775.021973
401.124176 2819.817871
419.132294 12752.049805

>collision 35
127.240364 1159.656372
133.287827 1199.756348
137.88884 1407.114624
145.763504 1220.306396
146.655045 1216.549561
149.700211 1328.366333
173.05925 1442.502075
193.247757 1210.42041
193.383408 1309.084839
222.890564 1181.212158
275.091309 11649.657227
291.999146 1227.974365
299.091949 11472.914062
317.101868 35416.207031
341.101837 29426.556641
345.424286 1131.632568
353.102448 2830.989746
365.103943 2709.68457
371.113647 4799.766602
383.11264 18562.365234
393.133362 14877.907227
401.122955 9979.621094
419.13327 55988.359375

