>compound Mannitol
#instrument LTQ Orbitrap XL, Thermo Scientfic; HP-1100 HPLC, Agilent
>formula C6H14O6
#smiles C([C@H]([C@H]([C@@H]([C@@H](CO)O)O)O)O)O
#inchi InChI=1S/C6H14O6/c7-1-3(9)5(11)6(12)4(10)2-8/h3-12H,1-2H2/t3-,4-,5-,6-/m1/s1
>charge 1
>ionization [M+H]+
>parentmass 183.08632

>collision 20
50.774963 1274.092407
52.647579 1252.575806
59.483627 1240.940918
59.843544 1343.162598
66.896797 1281.887085
67.28286 1234.474243
67.931259 1304.072632
69.033195 22607.015625
72.091232 1477.26123
74.1633 1310.072876
81.033165 1524.069092
83.048805 14789.625
85.028275 8940.47168
87.04393 5140.594238
99.043701 15621.504883
102.862816 1340.373901
103.038513 3986.841553
111.043724 32723.720703
117.054459 3280.606445
121.531738 1656.02356
129.054199 60280.8125
134.845123 1368.810791
147.064819 159790.140625
147.806885 1226.743774
150.421661 1619.782715
161.940842 1367.864502
162.581711 1601.613892
165.075256 76112.328125
168.398193 1595.145264
183.086304 17764.361328
195.512375 1531.250122
206.401428 1342.675415
284.134857 1640.158936

>collision 20
69.033302 138174.875
81.033066 16137.333008
83.049011 152024.40625
85.02829 59469.027344
87.043953 32442.242188
91.03894 28424.744141
99.043884 76871.664062
101.059242 25173.394531
103.038994 22350.994141
111.043831 488523.75
117.054611 16857.792969
129.054321 1906450.625
147.064865 3627879.75
165.075226 3902283.25
183.086014 1088931.375

