>compound Erythromycin
#instrument LTQ Orbitrap XL, Thermo Scientfic; HP-1100 HPLC, Agilent
>formula C37H67NO13
#smiles CC[C@@H]1[C@@]([C@@H]([C@H](C(=O)[C@@H](C[C@@]([C@@H]([C@H]([C@@H]([C@H](C(=O)O1)C)O[C@H]2C[C@@]([C@H]([C@@H](O2)C)O)(C)OC)C)O[C@H]3[C@@H]([C@H](C[C@H](O3)C)N(C)C)O)(C)O)C)C)O)(C)O
#inchi InChI=1S/C37H67NO13/c1-14-25-37(10,45)30(41)20(4)27(39)18(2)16-35(8,44)32(51-34-28(40)24(38(11)12)15-19(3)47-34)21(5)29(22(6)33(43)49-25)50-26-17-36(9,46-13)31(42)23(7)48-26/h18-26,28-32,34,40-42,44-45H,14-17H2,1-13H3/t18-,19-,20+,21+,22-,23+,24+,25-,26+,28-,29+,30-,31+,32-,34+,35-,36-,37-/m1/s1
>charge 1
>ionization [M+H]+
>parentmass 734.46852

>ms1peaks
734.470215 5196369.5
735.472656 2164925.5
736.475647 562343.5625
737.47937 111834.054688

>collision 55
208.798294 1581.368042
257.873779 1086.67041
267.360229 1039.874756
268.973694 1317.134399
429.597992 1189.636475
439.267242 1292.886353
506.177338 1169.825928
576.373169 4746.286133

>collision 45
261.672516 1297.783203
288.520966 1156.283447
339.204498 1132.00354
447.466187 1157.105469
545.029053 1401.104736
554.673706 1242.177002
576.373718 7824.660645
621.173889 1315.847534
623.103516 1173.915649

>collision 70
354.606018 1272.880615
469.603546 1267.511963
481.499146 1323.180298
576.36731 1776.489258

>collision 35
209.139526 1448.47583
216.56459 1369.987915
220.616486 1325.908936
225.974335 1130.992676
242.047485 1071.246582
299.897369 1113.09436
319.856049 1303.678955
345.315948 1248.927246
421.360016 1379.980957
558.364685 1473.695801
576.372131 13906.25293
689.931152 1286.887939

