>compound MLS001165674-01!ondansetron
>formula C18H19N3O
>ionization [M+H]+
>parentmass 294.159271
#inchi InChI=1S/C18H19N3O/c1-12-19-9-10-21(12)11-13-7-8-16-17(18(13)22)14-5-3-4-6-15(14)20(16)2/h3-6,9-10,13H,7-8,11H2,1-2H3/t13-/m0/s1
#inchikey FELGMEQIXOGIFQ
#Ion_Source LC-ESI
#Instrument qTof
#Compound_Source NIH Pharmacologically Active Library
#PI Dorrestein
#Data_Collector VP/LMS
#Scan -1
#Precursor_MZ 294.163
#ExactMass 293.153
#Charge 1
#CAS_Number N/A
#Pubmed_ID N/A
#Smiles Cc1nccn1C[C@@H]2CCc3c(C2=O)c4ccccc4n3C
#INCHI_AUX N/A
#Library_Class 1
#SpectrumID CCMSLIB00000085757
#IonMode Positive
#UpdateWorkflowName UPDATE-SINGLE-ANNOTATED-GOLD
#LibraryQualityString Gold
#TaskID d252d724072548979f1f6f1ced849daf
##Scan# 1430
#SpectrumFile p4-F02_GF2_01_18386.mzXML
#LibraryName Pharm_Active_Library.mgf
#MQScore -1
#Organism Pharm_Active_Library
#TIC_Query 0
#RT_Query -1
#MZErrorPPM -1
#SharedPeaks 0
#MassDiff 0
#LibMZ -1
#SpecMZ 294.163
#SpecCharge 0
#internalFilename spec-00000.mgf

>collision 10
44.913624 152.0
44.923908 148.0
44.995979 228.0
45.033371 204.0
45.060768 228.0
45.122906 192.0
45.144299 48.0
45.163025 120.0
45.207176 136.0
45.220558 236.0
45.255363 260.0
45.280807 152.0
45.306259 140.0
45.315639 124.0
45.35696 192.0
45.378635 196.0
45.428257 160.0
45.445698 152.0
45.485962 132.0
45.505539 212.0
45.56744 204.0
45.594978 204.0
45.627018 156.0
45.670052 164.0
45.738678 144.0
45.760216 112.0
45.773548 160.0
45.792595 184.0
45.831604 188.0
45.853264 56.0
45.859859 112.0
45.864376 164.0
45.901699 120.0
45.923222 192.0
45.942165 144.0
45.989395 28.0
46.009644 156.0
46.023144 216.0
46.065014 80.0
46.165943 196.0
46.209743 152.0
46.234028 216.0
46.259747 144.0
46.308914 116.0
46.327663 132.0
46.343716 168.0
46.40028 76.0
46.415558 140.0
46.476871 380.0
46.499668 196.0
46.524914 208.0
46.537682 164.0
46.59304 116.0
46.609673 188.0
46.669479 136.0
46.683079 192.0
46.704842 128.0
46.723885 172.0
46.749149 156.0
46.768723 156.0
46.793297 104.0
46.803421 424.0
46.8689 164.0
46.88184 96.0
46.911827 180.0
46.936367 116.0
46.945915 40.0
46.960915 120.0
46.993656 64.0
47.042789 320.0
47.056442 132.0
47.085373 128.0
47.111073 156.0
47.14933 200.0
47.187607 160.0
47.209454 164.0
47.258732 48.0
47.268311 400.0
47.331276 132.0
47.354561 348.0
47.372368 164.0
47.438145 120.0
47.462826 164.0
47.546509 164.0
47.557487 124.0
47.56847 140.0
47.601002 184.0
47.694847 388.0
47.712719 144.0
47.726467 188.0
47.791367 132.0
47.811756 132.0
47.840664 84.0
47.868202 144.0
47.879913 196.0
47.909523 120.0
47.927433 100.0
47.939835 204.0
47.968403 160.0
47.996567 208.0
48.037731 156.0
48.054287 168.0
48.082439 180.0
48.153648 180.0
48.206806 168.0
48.218357 104.0
48.235203 184.0
48.244881 272.0
48.257515 176.0
48.283348 176.0
48.294529 164.0
48.313461 156.0
48.33672 392.0
48.354473 176.0
48.408154 236.0
48.441395 172.0
48.452477 136.0
48.477417 156.0
48.542572 132.0
48.560604 192.0
48.591122 132.0
48.603611 120.0
48.620262 60.0
48.631367 180.0
48.652187 152.0
48.696625 156.0
48.739693 224.0
48.765053 160.0
48.781387 92.0
48.797131 172.0
48.807804 72.0
48.825882 168.0
48.842571 120.0
48.875961 192.0
48.885704 156.0
48.906582 160.0
48.927727 376.0
48.960518 184.0
48.977596 124.0
48.988739 68.0
49.058418 176.0
49.070301 192.0
49.114197 88.0
49.143494 184.0
49.156055 216.0
49.175278 124.0
49.243683 172.0
49.266743 160.0
49.311073 216.0
49.575588 112.0
49.593807 108.0
49.614838 160.0
49.648491 132.0
49.686363 156.0
49.706005 200.0
49.716679 172.0
49.739689 116.0
49.788834 140.0
49.852081 192.0
49.866108 228.0
49.954693 136.0
49.991276 248.0
50.001129 52.0
50.046177 280.0
50.098289 148.0
50.113785 124.0
50.14056 220.0
50.156067 188.0
50.171574 120.0
50.184223 148.0
50.218105 168.0
50.237621 120.0
50.434174 172.0
50.466656 156.0
50.500546 168.0
50.514744 204.0
50.594528 328.0
50.636475 200.0
50.730476 200.0
50.748428 188.0
50.798065 244.0
50.811844 152.0
50.826443 148.0
50.912361 180.0
50.945705 136.0
50.985493 192.0
51.03809 200.0
51.086449 200.0
51.099998 84.0
51.126656 156.0
51.141945 132.0
51.171841 132.0
51.214565 148.0
51.284382 140.0
51.384434 152.0
51.437012 212.0
51.466991 76.0
51.489841 192.0
51.49984 360.0
51.514126 148.0
51.529251 248.0
51.565567 144.0
51.609882 116.0
51.665665 192.0
51.678394 156.0
51.717178 132.0
51.742947 60.0
51.765858 136.0
51.798801 144.0
51.828888 184.0
51.855675 156.0
51.936413 164.0
51.946453 160.0
51.957928 284.0
51.985626 172.0
52.006721 132.0
52.0303 92.0
52.072769 140.0
52.091442 68.0
52.123051 156.0
52.134548 180.0
52.157543 144.0
52.171921 168.0
52.187733 80.0
52.209671 188.0
52.285156 144.0
52.311462 196.0
52.327301 228.0
52.386349 220.0
52.422371 36.0
52.454079 252.0
52.468494 128.0
52.481472 132.0
52.504261 224.0
52.529064 140.0
52.575237 76.0
52.591991 184.0
52.59668 112.0
52.60722 128.0
52.648865 152.0
52.695732 180.0
52.715519 116.0
52.81942 204.0
52.833885 80.0
52.883499 196.0
52.923622 140.0
52.983006 160.0
53.001842 124.0
53.014885 120.0
53.059555 176.0
53.08012 80.0
53.09462 132.0
53.116379 368.0
53.14249 152.0
53.162807 112.0
53.188934 340.0
53.209255 232.0
53.235394 52.0
53.251369 160.0
53.293953 192.0
53.363266 148.0
53.384296 172.0
53.409805 168.0
53.48547 220.0
53.520412 120.0
53.545166 180.0
53.578671 228.0
53.623844 156.0
53.676384 180.0
53.684772 76.0
53.688778 164.0
53.698204 408.0
53.723003 132.0
53.746346 52.0
53.769695 140.0
53.79451 176.0
53.844154 136.0
53.883595 76.0
53.92305 100.0
53.968369 172.0
54.054672 112.0
54.098583 108.0
54.110046 140.0
54.120895 168.0
54.145439 132.0
54.156567 160.0
54.274399 172.0
54.29493 208.0
54.315464 140.0
54.358013 48.0
54.393238 148.0
54.426655 168.0
54.457848 188.0
54.487228 132.0
54.526901 196.0
54.538662 188.0
54.606297 188.0
54.632774 208.0
54.644547 208.0
54.673264 248.0
54.684277 148.0
54.734333 144.0
54.77459 192.0
54.861042 160.0
54.872837 120.0
54.911179 112.0
54.971668 180.0
55.011517 240.0
55.026283 80.0
55.055157 216.0
55.093849 180.0
55.13855 72.0
55.181419 144.0
55.222824 80.0
55.36491 180.0
55.375275 276.0
55.403389 176.0
55.414989 188.0
55.421417 136.0
55.426159 208.0
55.517555 100.0
55.527939 196.0
55.563538 120.0
55.592037 136.0
55.670414 184.0
55.729832 216.0
55.743206 124.0
55.792255 152.0
55.814556 136.0
55.8395 140.0
55.88298 172.0
55.986118 168.0
56.024422 168.0
56.039318 172.0
56.079556 132.0
56.145481 184.0
56.169647 200.0
56.246616 208.0
56.260944 208.0
56.282448 184.0
56.297447 184.0
56.312965 192.0
56.373569 208.0
56.422142 156.0
56.433365 172.0
56.494682 172.0
56.506653 60.0
56.606941 144.0
56.618515 176.0
56.635399 424.0
56.677345 148.0
56.693001 188.0
56.737301 92.0
56.752972 184.0
56.825649 128.0
56.861599 176.0
56.894829 180.0
56.977428 128.0
57.011875 156.0
57.024014 204.0
57.066792 176.0
57.092571 180.0
57.174416 104.0
57.192768 144.0
57.230114 188.0
57.25209 188.0
57.273788 164.0
57.347618 116.0
57.359749 168.0
57.441109 200.0
57.499954 176.0
57.542225 152.0
57.554302 132.0
57.595078 316.0
57.666096 116.0
57.723545 112.0
57.740128 232.0
57.756817 196.0
57.858212 68.0
57.939991 148.0
57.990002 140.0
58.029415 180.0
58.055908 136.0
58.119209 120.0
58.135597 152.0
58.170506 152.0
58.182228 200.0
58.205429 92.0
58.229012 148.0
58.242329 228.0
58.264664 212.0
58.298092 176.0
58.358612 236.0
58.401478 128.0
58.42976 144.0
58.457771 100.0
58.469948 240.0
58.482124 172.0
58.493599 200.0
58.497795 108.0
58.513161 124.0
58.51701 48.0
58.522793 168.0
58.611576 60.0
58.660347 160.0
58.692364 100.0
58.782364 52.0
58.816765 212.0
58.840366 36.0
58.863327 220.0
58.92284 216.0
58.977631 192.0
59.00996 160.0
59.028309 164.0
59.0509 176.0
59.061954 116.0
59.106323 132.0
59.154308 204.0
59.192047 128.0
59.225147 176.0
59.241058 96.0
59.259441 164.0
59.285725 132.0
59.299286 140.0
59.31768 180.0
59.35141 188.0
59.365211 188.0
59.389854 180.0
59.432705 172.0
59.509876 204.0
59.534023 276.0
59.597004 128.0
59.609005 148.0
59.631386 216.0
59.67033 204.0
59.737782 184.0
59.784611 180.0
59.804619 168.0
59.82309 80.0
59.849266 188.0
59.900089 72.0
59.953857 192.0
60.0196 316.0
60.075451 180.0
60.095886 132.0
60.120575 124.0
60.19392 196.0
60.199802 100.0
60.204674 228.0
60.261097 140.0
60.310184 204.0
60.33683 148.0
60.367756 148.0
60.408421 356.0
60.429626 120.0
60.473663 228.0
60.477306 104.0
60.484299 208.0
60.505466 172.0
60.52932 212.0
60.58189 196.0
60.61079 112.0
60.637558 192.0
60.700699 176.0
60.728615 140.0
60.744125 148.0
60.773605 108.0
60.786018 204.0
60.813671 132.0
60.843449 136.0
60.880714 176.0
60.902458 132.0
60.945957 132.0
60.956837 152.0
60.980148 140.0
61.006573 248.0
61.045444 148.0
61.105572 304.0
61.12167 152.0
61.165249 196.0
61.182373 44.0
61.233757 196.0
61.254093 144.0
61.291401 172.0
61.311657 128.0
61.325687 540.0
61.38253 156.0
61.402046 196.0
61.417683 184.0
61.441082 152.0
61.47229 88.0
61.495132 132.0
61.506626 216.0
61.524178 148.0
61.535847 128.0
61.572323 436.0
61.671993 212.0
61.694084 80.0
61.740993 172.0
61.770618 208.0
61.79398 156.0
61.818615 180.0
61.839561 168.0
61.946041 188.0
61.96484 36.0
62.025959 192.0
62.062019 156.0
62.080837 204.0
62.096519 172.0
62.129459 88.0
62.146721 216.0
62.170258 96.0
62.184383 104.0
62.204731 220.0
62.316296 232.0
62.347721 184.0
62.393307 136.0
62.412174 136.0
62.432617 216.0
62.473515 124.0
62.498688 236.0
62.514423 104.0
62.542755 164.0
62.568367 148.0
62.629356 132.0
62.652988 108.0
62.686077 184.0
62.745972 156.0
62.761158 184.0
62.859543 212.0
62.890892 88.0
62.910049 132.0
62.930573 116.0
63.041149 108.0
63.053791 104.0
63.066437 132.0
63.134422 184.0
63.172615 164.0
63.196114 176.0
63.227764 156.0
63.293755 196.0
63.311672 180.0
63.349686 160.0
63.366264 204.0
63.389297 224.0
63.420994 192.0
63.440018 128.0
63.488758 136.0
63.555798 220.0
63.57008 144.0
63.6152 244.0
63.633575 148.0
63.652626 112.0
63.677837 220.0
63.700275 68.0
63.72921 132.0
63.752708 168.0
63.778141 156.0
63.813683 332.0
63.830605 176.0
63.850262 184.0
63.874771 156.0
63.899544 164.0
63.911682 132.0
63.989723 188.0
64.075409 60.0
64.104408 148.0
64.128319 160.0
64.161789 148.0
64.203247 148.0
64.236748 184.0
64.298218 176.0
64.325096 164.0
64.374008 168.0
64.42672 168.0
64.509819 120.0
64.549797 116.0
64.588181 140.0
64.711403 144.0
64.738922 152.0
64.773865 204.0
64.80751 172.0
64.871803 140.0
64.906891 128.0
64.939621 172.0
65.024628 216.0
65.048233 332.0
65.073769 220.0
65.109093 224.0
65.14122 136.0
65.216743 156.0
65.250504 116.0
65.307182 196.0
65.33252 52.0
65.347 228.0
65.375916 120.0
65.393669 216.0
65.404938 204.0
65.501556 212.0
65.516052 48.0
65.622429 148.0
65.644997 148.0
65.693062 176.0
65.811203 160.0
65.837044 176.0
65.84996 172.0
65.90004 180.0
65.946907 152.0
65.976006 240.0
65.995407 132.0
66.019661 196.0
66.030983 28.0
66.042305 192.0
66.110092 156.0
66.128494 208.0
66.296257 252.0
66.327026 48.0
66.343506 116.0
66.363258 132.0
66.373016 200.0
66.393005 144.0
66.453896 192.0
66.48893 116.0
66.523994 156.0
66.570663 36.0
66.635635 92.0
66.654854 272.0
66.720726 124.0
66.77742 148.0
66.856789 144.0
66.878555 204.0
67.005257 156.0
67.029205 128.0
67.045296 160.0
67.060143 168.0
67.080589 140.0
67.12722 124.0
67.153313 48.0
67.176277 200.0
67.19265 140.0
67.249825 212.0
67.2659 148.0
67.341866 224.0
67.360611 136.0
67.412895 128.0
67.429245 244.0
67.455399 184.0
67.499542 140.0
67.573143 180.0
67.586235 108.0
67.618965 192.0
67.707375 184.0
67.732307 108.0
67.751694 144.0
67.786011 124.0
67.815514 148.0
67.864693 156.0
67.995926 152.0
68.013985 216.0
68.031509 136.0
68.068161 224.0
68.089516 128.0
68.101013 236.0
68.130577 312.0
68.145363 232.0
68.165085 76.0
68.195824 176.0
68.20092 224.0
68.22097 128.0
68.23484 348.0
68.308479 168.0
68.331154 184.0
68.38546 172.0
68.405212 88.0
68.421677 180.0
68.444199 136.0
68.485901 196.0
68.541916 196.0
68.553322 156.0
68.634224 236.0
68.65731 136.0
68.6903 164.0
68.716698 180.0
68.771156 204.0
68.79303 160.0
68.806122 196.0
68.861969 156.0
68.913177 120.0
68.999123 48.0
69.058655 132.0
69.164558 160.0
69.186073 176.0
69.200974 124.0
69.291466 328.0
69.391518 176.0
69.423019 144.0
69.447899 180.0
69.474442 116.0
69.504303 376.0
69.556488 184.0
69.579262 152.0
69.658714 52.0
69.693604 172.0
69.734482 228.0
69.785019 180.0
69.821602 168.0
69.854874 172.0
69.926422 88.0
69.945274 196.0
69.982681 176.0
70.027985 176.0
70.067604 184.0
70.116287 108.0
70.132957 148.0
70.254692 168.0
70.301407 112.0
70.317268 184.0
70.339798 148.0
70.353157 232.0
70.384079 248.0
70.413269 112.0
70.496803 104.0
70.520195 220.0
70.577042 208.0
70.633904 164.0
70.672379 168.0
70.713898 124.0
70.735977 100.0
70.761093 120.0
70.774483 128.0
70.799606 64.0
70.814682 268.0
70.843155 196.0
70.886719 164.0
70.903481 216.0
70.930298 132.0
70.985626 196.0
71.036232 184.0
71.084595 140.0
71.098465 184.0
71.104317 48.0
71.109306 172.0
71.131592 180.0
71.162392 196.0
71.181961 168.0
71.232346 108.0
71.342033 164.0
71.366798 144.0
71.378571 148.0
71.449219 148.0
71.497566 208.0
71.516678 176.0
71.541779 160.0
71.632713 180.0
71.683258 152.0
71.70517 180.0
71.727081 124.0
71.777664 180.0
71.831635 76.0
71.856941 156.0
71.887314 48.0
71.907562 132.0
71.91938 268.0
71.992767 172.0
72.012245 56.0
72.029099 164.0
72.100433 340.0
72.129356 156.0
72.210846 224.0
72.273651 100.0
72.291206 148.0
72.314896 184.0
72.357216 228.0
72.419876 168.0
72.504593 196.0
72.528854 204.0
72.608009 128.0
72.687744 212.0
72.879623 124.0
72.891518 232.0
72.937408 176.0
72.949303 192.0
72.964607 132.0
72.992844 224.0
73.061546 84.0
73.09388 36.0
73.105789 176.0
73.117699 100.0
73.175575 160.0
73.218147 180.0
73.25341 188.0
73.272659 164.0
73.316963 140.0
73.366142 160.0
73.37011 136.0
73.375366 184.0
73.390266 136.0
73.403908 152.0
73.44313 208.0
73.465309 156.0
73.53698 92.0
73.597687 188.0
73.632591 124.0
73.654793 68.0
73.695847 132.0
73.710762 164.0
73.751297 168.0
73.805191 208.0
73.837685 260.0
73.851364 132.0
73.870827 192.0
73.890717 188.0
73.902687 108.0
73.935204 144.0
73.962585 180.0
73.984024 176.0
74.040428 164.0
74.057632 132.0
74.079712 212.0
74.109871 160.0
74.169853 136.0
74.200615 140.0
74.205025 132.0
74.211624 208.0
74.230553 188.0
74.245819 144.0
74.262451 168.0
74.298981 176.0
74.320778 208.0
74.373978 208.0
74.410027 108.0
74.439171 208.0
74.450775 192.0
74.466698 144.0
74.500237 152.0
74.513077 316.0
74.525108 168.0
74.547447 280.0
74.568069 156.0
74.611046 136.0
74.626518 100.0
74.648872 128.0
74.664055 140.0
74.680305 260.0
74.717674 164.0
74.735802 164.0
74.803726 220.0
74.822662 148.0
74.860542 144.0
74.891541 220.0
74.917381 88.0
74.938057 216.0
74.962868 168.0
74.98114 116.0
75.04837 208.0
75.070786 164.0
75.121727 232.0
75.153587 92.0
75.165665 164.0
75.188606 96.0
75.236435 152.0
75.288231 172.0
75.333145 40.0
75.361565 124.0
75.388435 152.0
75.41436 140.0
75.44075 208.0
75.470329 196.0
75.499939 184.0
75.505615 92.0
75.510216 164.0
75.557892 144.0
75.57692 136.0
75.592369 168.0
75.62365 112.0
75.638008 176.0
75.675583 204.0
75.703285 176.0
75.852295 96.0
75.904305 188.0
75.928589 200.0
75.995689 176.0
76.010124 156.0
76.02227 68.0
76.06543 148.0
76.128166 140.0
76.181587 148.0
76.230659 232.0
76.275848 128.0
76.37323 148.0
76.430359 172.0
76.466499 152.0
76.491554 140.0
76.568169 136.0
76.585312 180.0
76.603004 160.0
76.724991 120.0
76.747658 140.0
76.789108 172.0
76.795906 132.0
76.80249 128.0
76.80896 188.0
76.834869 232.0
76.855804 248.0
76.869766 184.0
76.899437 180.0
76.970055 160.0
77.00769 120.0
77.024254 248.0
77.102036 196.0
77.154472 136.0
77.236664 136.0
77.283905 52.0
77.308403 140.0
77.339905 172.0
77.436325 364.0
77.463692 232.0
77.498039 188.0
77.518547 148.0
77.58165 116.0
77.67762 264.0
77.818497 136.0
77.83606 156.0
77.91861 56.0
77.962173 172.0
77.986412 168.0
78.011757 156.0
78.030106 180.0
78.046921 128.0
78.08033 140.0
78.119728 172.0
78.148941 152.0
78.186966 224.0
78.240463 204.0
78.25631 116.0
78.275673 148.0
78.305573 176.0
78.344048 308.0
78.448341 180.0
78.468445 160.0
78.488121 180.0
78.528931 148.0
78.57885 84.0
78.618034 176.0
78.637085 160.0
78.669746 224.0
78.73243 160.0
78.744789 192.0
78.790718 144.0
78.836662 176.0
78.880844 76.0
78.915222 208.0
78.940964 176.0
78.958893 144.0
79.086037 132.0
79.163086 216.0
79.225937 108.0
79.239685 200.0
79.246544 152.0
79.291496 56.0
79.307098 196.0
79.332268 192.0
79.349991 232.0
79.399643 180.0
79.44117 184.0
79.491898 236.0
79.539818 68.0
79.589813 100.0
79.602264 188.0
79.627777 176.0
79.653465 176.0
79.704987 136.0
79.722755 192.0
79.746788 92.0
79.808517 196.0
79.897018 184.0
79.963524 188.0
80.007355 168.0
80.083931 112.0
80.10228 160.0
80.131531 172.0
80.160538 96.0
80.176575 84.0
80.206711 384.0
80.255013 152.0
80.281784 172.0
80.299599 96.0
80.317436 128.0
80.374527 148.0
80.405823 200.0
80.472694 148.0
80.503052 132.0
80.553062 124.0
80.565567 92.0
80.615692 152.0
80.671005 144.0
80.694252 72.0
80.706764 236.0
80.729164 212.0
80.823029 192.0
80.8619 200.0
80.907158 124.0
80.939384 384.0
80.953712 172.0
80.994904 44.0
81.008217 168.0
81.037903 140.0
81.054161 160.0
81.081978 212.0
81.328423 92.0
81.366455 128.0
81.443344 240.0
81.498146 124.0
81.512321 172.0
81.525986 188.0
81.560135 136.0
81.581711 180.0
81.614075 192.0
81.630257 180.0
81.644638 136.0
81.662628 180.0
81.682411 124.0
81.709396 168.0
81.723793 200.0
81.779579 196.0
81.811981 100.0
81.853394 184.0
81.878609 96.0
81.89727 176.0
81.94706 44.0
81.9813 248.0
82.009392 212.0
82.019096 144.0
82.087662 172.0
82.100281 220.0
82.112907 80.0
82.164001 136.0
82.212135 168.0
82.268089 184.0
82.295174 288.0
82.307648 176.0
82.322258 120.0
82.34935 108.0
82.389091 224.0
82.439194 192.0
82.472214 104.0
82.51149 160.0
82.627739 184.0
82.660309 172.0
82.7146 164.0
82.765747 376.0
82.796082 176.0
82.839989 116.0
82.870354 232.0
82.975372 208.0
83.026245 136.0
83.056442 192.0
83.10788 56.0
83.166954 160.0
83.208405 156.0
83.285957 132.0
83.380753 212.0
83.41156 188.0
83.454811 408.0
83.469353 148.0
83.529373 168.0
83.562241 184.0
83.586876 196.0
83.611252 160.0
83.704094 256.0
83.75145 72.0
83.800636 140.0
83.8311 212.0
83.844719 188.0
83.860779 144.0
83.873535 204.0
83.889938 132.0
83.954231 188.0
83.995712 152.0
84.039497 116.0
84.054092 124.0
84.075989 156.0
84.094238 132.0
84.117973 444.0
84.143532 116.0
84.187355 152.0
84.201965 48.0
84.219116 148.0
84.245804 144.0
84.260422 156.0
84.302444 144.0
84.323486 156.0
84.344482 144.0
84.406174 172.0
84.437737 144.0
84.459686 116.0
84.543846 176.0
84.613533 112.0
84.649239 196.0
84.682991 164.0
84.695816 144.0
84.715965 144.0
84.743446 156.0
84.757538 208.0
84.78891 188.0
84.835083 132.0
84.87542 144.0
85.064392 172.0
85.101112 224.0
85.115799 132.0
85.181923 28.0
85.211311 240.0
85.278175 224.0
85.292175 104.0
85.311485 160.0
85.354683 112.0
85.385948 160.0
85.415375 144.0
85.439293 176.0
85.466888 140.0
85.519661 148.0
85.546768 176.0
85.584991 100.0
85.61232 164.0
85.636261 148.0
85.709099 180.0
85.732063 336.0
85.897171 144.0
86.009178 196.0
86.051186 128.0
86.106583 72.0
86.137985 156.0
86.173088 76.0
86.245163 176.0
86.332108 148.0
86.369049 216.0
86.463409 196.0
86.478218 148.0
86.493027 488.0
86.544861 128.0
86.570396 244.0
86.598572 148.0
86.653389 196.0
86.731117 120.0
86.778328 184.0
86.809853 152.0
86.82283 128.0
86.885452 216.0
86.958443 212.0
87.024193 336.0
87.052956 96.0
87.082672 160.0
87.112389 240.0
87.130966 180.0
87.166267 124.0
87.203438 196.0
87.253967 156.0
87.302895 260.0
87.318977 196.0
87.351158 188.0
87.428482 52.0
87.444168 140.0
87.484322 108.0
87.502937 176.0
87.571846 152.0
87.622139 156.0
87.64077 108.0
87.653816 136.0
87.674316 184.0
87.737694 132.0
87.756332 60.0
87.810417 152.0
87.82534 228.0
87.901833 212.0
87.944756 132.0
87.957825 156.0
87.997025 176.0
88.01976 204.0
88.04184 120.0
88.084801 200.0
88.137115 200.0
88.17823 108.0
88.219353 132.0
88.246315 208.0
88.281052 136.0
88.305367 108.0
88.335732 204.0
88.368973 140.0
88.38459 172.0
88.41201 196.0
88.483139 164.0
88.501862 132.0
88.526207 148.0
88.544937 96.0
88.582397 224.0
88.601357 264.0
88.617996 148.0
88.681145 212.0
88.747322 168.0
88.807335 168.0
88.841103 104.0
88.876747 228.0
88.901146 184.0
88.958603 148.0
88.97998 148.0
89.008148 164.0
89.02317 260.0
89.043831 116.0
89.064911 180.0
89.083145 176.0
89.114471 208.0
89.134003 140.0
89.192268 136.0
89.231743 144.0
89.301323 192.0
89.323685 176.0
89.446213 68.0
89.47068 328.0
89.55542 380.0
89.683548 152.0
89.696747 188.0
89.726906 136.0
89.759048 256.0
89.785362 280.0
89.821205 96.0
89.853271 156.0
89.873985 172.0
89.908417 196.0
89.934418 184.0
89.947632 160.0
90.006157 200.0
90.0326 128.0
90.07415 152.0
90.087372 204.0
90.142166 176.0
90.164848 56.0
90.185638 160.0
90.211067 124.0
90.272606 136.0
90.29908 160.0
90.329865 204.0
90.374756 172.0
90.429634 40.0
90.486427 196.0
90.503464 100.0
90.526192 156.0
90.549492 224.0
90.5849 144.0
90.617111 172.0
90.643639 188.0
90.659431 216.0
90.692917 320.0
90.734016 164.0
90.740311 160.0
90.764954 176.0
90.787712 248.0
90.821854 128.0
90.880661 108.0
90.911026 124.0
90.930542 212.0
90.948982 104.0
90.988892 164.0
91.024925 176.0
91.051865 160.0
91.065758 156.0
91.106598 192.0
91.1408 196.0
91.170319 180.0
91.237732 112.0
91.254845 128.0
91.313797 144.0
91.375458 232.0
91.390808 108.0
91.414627 184.0
91.471725 92.0
91.535507 172.0
91.559311 148.0
91.601868 188.0
91.625984 160.0
91.658371 108.0
91.698395 236.0
91.823715 264.0
91.869957 136.0
91.894089 148.0
91.917709 56.0
91.946335 356.0
91.959702 204.0
92.011238 96.0
92.050438 216.0
92.093353 160.0
92.129646 64.0
92.154488 76.0
92.218864 192.0
92.232841 92.0
92.263428 112.0
92.303581 144.0
92.320793 64.0
92.339912 164.0
92.359047 196.0
92.397301 160.0
92.468544 156.0
92.492989 136.0
92.512131 104.0
92.613625 276.0
92.637863 196.0
92.651932 144.0
92.682594 152.0
92.717087 164.0
92.738167 128.0
92.766922 200.0
92.818687 148.0
92.839783 140.0
92.878616 196.0
92.909798 172.0
92.941452 192.0
92.958725 316.0
93.010544 196.0
93.05278 144.0
93.150253 180.0
93.185303 152.0
93.212204 112.0
93.368774 172.0
93.387154 204.0
93.459686 228.0
93.509377 204.0
93.555359 224.0
93.56311 92.0
93.570869 172.0
93.596931 160.0
93.635445 144.0
93.768387 176.0
93.787178 176.0
93.822357 148.0
93.870834 140.0
93.89756 192.0
94.108261 216.0
94.127213 112.0
94.18129 120.0
94.200607 128.0
94.243111 124.0
94.306885 204.0
94.337814 164.0
94.374077 212.0
94.426765 156.0
94.488663 180.0
94.502205 88.0
94.611824 176.0
94.691917 148.0
94.705482 136.0
94.75296 180.0
94.777161 200.0
94.92173 160.0
94.936119 48.0
94.949692 176.0
94.994308 232.0
95.036987 132.0
95.056396 124.0
95.095207 216.0
95.124321 176.0
95.138954 180.0
95.157326 72.0
95.180626 144.0
95.248604 48.0
95.262199 200.0
95.371513 220.0
95.404068 248.0
95.451439 264.0
95.464348 196.0
95.487679 144.0
95.571335 116.0
95.600525 184.0
95.627769 216.0
95.663918 380.0
95.693954 112.0
95.711479 184.0
95.787903 368.0
95.814713 140.0
95.875114 108.0
95.923843 200.0
95.949188 160.0
95.99794 152.0
96.075691 192.0
96.111076 68.0
96.163773 160.0
96.191093 220.0
96.21257 188.0
96.23642 112.0
96.267342 164.0
96.317635 148.0
96.354347 128.0
96.405945 180.0
96.456764 164.0
96.478592 168.0
96.515419 152.0
96.531059 148.0
96.575394 72.0
96.632774 252.0
96.658211 120.0
96.67778 104.0
96.745628 212.0
96.789368 124.0
96.838326 56.0
96.928444 216.0
96.942162 156.0
96.993118 188.0
97.008804 84.0
97.026443 68.0
97.057816 160.0
97.075462 176.0
97.104881 176.0
97.124496 100.0
97.14019 188.0
97.173546 204.0
97.228485 160.0
97.343422 196.0
97.363953 256.0
97.409126 100.0
97.490807 168.0
97.519165 204.0
97.541298 172.0
97.564377 128.0
97.586555 144.0
97.594299 184.0
97.650902 228.0
97.682434 124.0
97.718071 164.0
97.733528 192.0
97.755173 156.0
97.768951 132.0
97.802475 240.0
97.839813 144.0
97.969795 148.0
97.986771 168.0
98.005257 140.0
98.064377 72.0
98.106636 64.0
98.11483 168.0
98.145203 148.0
98.174782 200.0
98.211395 252.0
98.26947 428.0
98.304985 216.0
98.326698 72.0
98.364197 184.0
98.384727 160.0
98.409607 44.0
98.429352 180.0
98.448372 196.0
98.475327 144.0
98.601227 160.0
98.614906 152.0
98.702049 240.0
98.7416 180.0
98.813965 212.0
98.838531 220.0
98.858322 100.0
98.962784 236.0
99.03849 80.0
99.189087 112.0
99.204948 184.0
99.234688 124.0
99.280296 180.0
99.313499 156.0
99.39138 164.0
99.430733 212.0
99.520401 36.0
99.541245 160.0
99.567604 156.0
99.572563 120.0
99.582787 188.0
99.63295 160.0
99.695366 156.0
99.730988 212.0
99.785645 168.0
99.888077 184.0
99.991547 80.0
100.031357 168.0
100.069794 168.0
100.117966 148.0
100.136887 100.0
100.16552 128.0
100.224541 132.0
100.25045 112.0
100.290306 88.0
100.316559 120.0
100.364075 140.0
100.409943 164.0
100.457809 124.0
100.52964 72.0
100.556236 208.0
100.612251 124.0
100.659836 164.0
100.695351 156.0
100.78125 144.0
100.823036 184.0
100.885178 192.0
100.905174 104.0
100.929161 216.0
101.041115 140.0
101.096123 116.0
101.14724 48.0
101.165253 52.0
101.361534 128.0
101.415649 284.0
101.441711 144.0
101.493835 132.0
101.521912 204.0
101.549988 140.0
101.596123 144.0
101.640266 144.0
101.678398 164.0
101.717575 424.0
101.75869 144.0
101.774757 192.0
101.821579 152.0
101.857101 128.0
101.91938 144.0
101.955551 132.0
101.985703 204.0
102.047043 696.0
102.094269 180.0
102.11657 136.0
102.206924 128.0
102.299507 356.0
102.341782 220.0
102.40921 104.0
102.430397 212.0
102.50898 116.0
102.529129 252.0
102.580765 168.0
102.650085 104.0
102.6642 136.0
102.694458 184.0
102.72673 192.0
102.76506 72.0
102.783226 248.0
102.79937 224.0
102.861938 172.0
102.88414 160.0
102.924522 172.0
102.975014 116.0
103.052856 548.0
103.070381 192.0
103.119957 200.0
103.197304 172.0
103.245834 148.0
103.27124 76.0
103.29438 152.0
103.32457 208.0
103.366859 228.0
103.407692 196.0
103.474068 132.0
103.492714 132.0
103.512093 204.0
103.595688 176.0
103.634506 52.0
103.666016 312.0
103.73584 216.0
103.75206 48.0
103.807838 164.0
103.902138 180.0
103.918365 104.0
103.932571 100.0
103.967072 204.0
104.032021 68.0
104.05365 460.0
104.110054 148.0
104.139885 136.0
104.200539 156.0
104.208237 152.0
104.232201 136.0
104.247322 156.0
104.290001 160.0
104.312363 148.0
104.365227 132.0
104.397758 52.0
104.424202 156.0
104.473015 176.0
104.525917 88.0
104.550339 128.0
104.568657 160.0
104.660263 168.0
104.711456 204.0
104.729507 100.0
104.751915 244.0
104.780685 164.0
104.855835 136.0
104.894562 388.0
104.948692 312.0
104.990082 236.0
105.01194 224.0
105.058388 332.0
105.0979 200.0
105.149529 128.0
105.174019 128.0
105.212807 148.0
105.279823 156.0
105.339424 176.0
105.370071 196.0
105.410934 160.0
105.4375 140.0
105.45385 224.0
105.528404 256.0
105.544739 152.0
105.584702 52.0
105.61129 140.0
105.646065 156.0
105.699265 212.0
105.712135 128.0
105.754524 156.0
105.806778 144.0
105.830269 228.0
105.873276 96.0
105.893753 200.0
105.914238 156.0
105.952393 224.0
106.031708 156.0
106.06208 132.0
106.094162 160.0
106.098351 128.0
106.107986 140.0
106.115311 204.0
106.180695 112.0
106.197098 144.0
106.225754 128.0
106.266853 212.0
106.320137 128.0
106.357147 120.0
106.415291 220.0
106.437218 164.0
106.451591 168.0
106.507042 140.0
106.554291 80.0
106.657043 164.0
106.706383 156.0
106.908051 212.0
106.926491 176.0
106.953491 136.0
106.975891 128.0
106.999756 176.0
107.016418 76.0
107.039719 224.0
107.058258 72.0
107.07267 144.0
107.097389 80.0
107.144768 124.0
107.198341 160.0
107.25811 112.0
107.277206 168.0
107.308716 372.0
107.351204 132.0
107.370575 44.0
107.474663 80.0
107.528313 168.0
107.573723 144.0
107.5961 272.0
107.639793 204.0
107.666641 212.0
107.697624 184.0
107.792656 188.0
107.83606 84.0
107.865852 204.0
108.05526 76.0
108.110107 180.0
108.189781 312.0
108.272614 152.0
108.293129 388.0
108.338898 128.0
108.41349 44.0
108.508842 88.0
108.558144 196.0
108.633278 128.0
108.658173 148.0
108.739098 136.0
108.778542 128.0
108.81591 412.0
108.840828 132.0
108.923264 184.0
108.946754 176.0
108.975838 148.0
109.044418 116.0
109.069359 196.0
109.108856 144.0
109.125488 88.0
109.15876 140.0
109.174423 200.0
109.215843 128.0
109.295128 388.0
109.3265 196.0
109.350159 184.0
109.393799 124.0
109.418854 212.0
109.501015 172.0
109.541725 180.0
109.631233 196.0
109.654243 252.0
109.73571 148.0
109.777245 108.0
109.831474 120.0
109.858597 208.0
109.879456 124.0
109.933434 200.0
110.027641 48.0
110.071487 148.0
110.114258 308.0
110.144096 188.0
110.169975 156.0
110.196815 144.0
110.21505 248.0
110.307579 196.0
110.338936 172.0
110.376572 184.0
110.390701 164.0
110.464417 200.0
110.55513 260.0
110.592056 108.0
110.608803 136.0
110.665329 40.0
110.692551 128.0
110.707207 200.0
110.772141 116.0
110.789696 148.0
110.809853 184.0
110.839188 48.0
110.867241 216.0
110.969139 208.0
111.044632 188.0
111.081024 216.0
111.143234 132.0
111.172615 132.0
111.188324 188.0
111.228912 136.0
111.247459 200.0
111.300034 140.0
111.314316 224.0
111.348969 164.0
111.39518 124.0
111.418289 136.0
111.439293 184.0
111.470818 148.0
111.489731 132.0
111.519661 200.0
111.56221 160.0
111.596939 140.0
111.619041 164.0
111.652596 120.0
111.68737 264.0
111.702736 208.0
111.721024 148.0
111.742065 188.0
111.775726 100.0
111.86834 116.0
111.912552 296.0
111.946243 124.0
111.975258 196.0
112.00943 144.0
112.036812 172.0
112.093704 144.0
112.191429 220.0
112.245483 48.0
112.270782 140.0
112.289764 200.0
112.31086 192.0
112.327736 132.0
112.355164 172.0
112.410019 156.0
112.427391 156.0
112.46489 188.0
112.481781 160.0
112.543007 204.0
112.621147 52.0
112.654945 76.0
112.682411 80.0
112.703537 76.0
112.748009 172.0
112.804985 172.0
112.838806 168.0
112.925514 152.0
112.9459 276.0
112.99955 180.0
113.092667 156.0
113.119408 304.0
113.150574 192.0
113.206657 200.0
113.259941 48.0
113.312904 216.0
113.346558 172.0
113.355003 152.0
113.391312 64.0
113.411858 104.0
113.466629 128.0
113.50367 136.0
113.547058 104.0
113.581078 144.0
113.635178 152.0
113.654274 204.0
113.686104 168.0
113.71032 264.0
113.800735 192.0
113.838951 116.0
113.856743 128.0
113.895767 208.0
113.899124 188.0
113.927376 292.0
114.041718 128.0
114.170479 216.0
114.21302 132.0
114.249184 200.0
114.278969 164.0
114.304504 112.0
114.334297 156.0
114.381126 164.0
114.451729 148.0
114.504517 168.0
114.53231 136.0
114.596222 176.0
114.655869 220.0
114.675323 372.0
114.721962 192.0
114.74968 48.0
114.771004 172.0
114.956589 108.0
114.97982 208.0
115.002998 188.0
115.053207 4104.0
115.099609 176.0
115.124962 188.0
115.146538 156.0
115.164215 176.0
115.193588 108.0
115.208542 152.0
115.251274 148.0
115.328209 112.0
115.371178 156.0
115.468788 128.0
115.475121 96.0
115.48111 196.0
115.531357 36.0
115.604103 140.0
115.865341 156.0
115.891045 160.0
116.013214 120.0
116.061432 2440.0
116.103035 144.0
116.152603 168.0
116.185738 224.0
116.264175 160.0
116.307098 132.0
116.339302 208.0
116.390831 120.0
116.425186 192.0
116.448814 48.0
116.465996 152.0
116.487167 148.0
116.515404 156.0
116.556229 228.0
116.592186 268.0
116.615585 156.0
116.642197 80.0
116.695946 168.0
116.741104 176.0
116.78627 172.0
116.816383 148.0
116.841263 92.0
116.898148 136.0
116.984238 208.0
117.017761 260.0
117.057747 2436.0
117.106979 188.0
117.175911 100.0
117.21685 124.0
117.283661 228.0
117.395775 300.0
117.438911 132.0
117.469109 200.0
117.491035 124.0
117.527367 124.0
117.548943 208.0
117.587791 172.0
117.633118 144.0
117.647842 184.0
117.667351 140.0
117.704369 116.0
117.71817 68.0
117.777794 120.0
117.827805 136.0
117.842606 180.0
117.862053 36.0
117.930695 200.0
117.987724 56.0
118.019844 116.0
118.063095 512.0
118.086884 92.0
118.119331 84.0
118.135979 236.0
118.179909 128.0
118.220146 188.0
118.279465 120.0
118.303276 172.0
118.327202 152.0
118.344414 120.0
118.400711 132.0
118.455467 144.0
118.480858 192.0
118.509026 144.0
118.615219 164.0
118.699776 160.0
118.76918 176.0
118.810394 124.0
118.856438 180.0
118.882599 324.0
118.912384 172.0
118.938431 140.0
118.953629 160.0
119.044815 208.0
119.069229 272.0
119.16584 220.0
119.190361 116.0
119.236 176.0
119.266426 184.0
119.285988 104.0
119.303383 120.0
119.377312 140.0
119.420807 216.0
119.463005 360.0
119.48661 144.0
119.551346 228.0
119.642769 104.0
119.703735 184.0
119.764717 92.0
119.816994 192.0
119.901863 148.0
119.927116 160.0
119.983406 212.0
120.008797 160.0
120.045868 156.0
120.074219 128.0
120.200752 188.0
120.296783 124.0
120.314194 240.0
120.351364 160.0
120.383026 156.0
120.401588 128.0
120.419067 108.0
120.486786 160.0
120.528297 124.0
120.611343 172.0
120.672554 156.0
120.711914 156.0
120.76252 176.0
120.814758 232.0
120.847534 160.0
120.871605 192.0
120.922775 156.0
120.943825 188.0
120.981041 148.0
121.024834 152.0
121.077385 100.0
121.184723 140.0
121.200066 164.0
121.25856 156.0
121.344727 160.0
121.423668 176.0
121.458763 124.0
121.476311 128.0
121.504837 164.0
121.545761 276.0
121.583832 56.0
121.638702 176.0
121.667244 64.0
121.693588 120.0
121.717934 196.0
121.744095 180.0
121.768593 128.0
121.820969 212.0
121.847336 184.0
121.930832 152.0
122.025719 196.0
122.119919 188.0
122.150711 216.0
122.179314 160.0
122.233505 412.0
122.267334 232.0
122.28714 92.0
122.364296 164.0
122.39061 252.0
122.424866 188.0
122.444366 136.0
122.474297 200.0
122.500412 200.0
122.542587 152.0
122.571236 152.0
122.602089 128.0
122.617516 152.0
122.701332 160.0
122.765228 184.0
122.853455 92.0
122.879929 224.0
122.930679 152.0
122.948334 152.0
122.964096 200.0
123.016762 96.0
123.049873 144.0
123.11132 252.0
123.164078 224.0
123.207611 248.0
123.237617 256.0
123.253082 128.0
123.281815 164.0
123.306122 148.0
123.361382 140.0
123.389969 116.0
123.452034 184.0
123.494057 132.0
123.509544 160.0
123.553787 404.0
123.60025 156.0
123.716835 196.0
123.73748 176.0
123.786194 228.0
123.839348 124.0
123.901863 252.0
123.92131 160.0
124.018822 132.0
124.056404 176.0
124.081512 172.0
124.151848 160.0
124.176247 232.0
124.225044 204.0
124.258926 192.0
124.28051 152.0
124.482513 144.0
124.578949 100.0
124.666901 32.0
124.691345 240.0
124.795822 124.0
124.833626 188.0
124.858093 152.0
124.935944 120.0
124.963936 200.0
125.018272 196.0
125.0383 184.0
125.093948 36.0
125.113983 56.0
125.207504 212.0
125.260963 184.0
125.305382 176.0
125.355499 204.0
125.374596 160.0
125.424187 160.0
125.637711 144.0
125.671181 108.0
125.695724 152.0
125.76268 196.0
125.791695 92.0
125.835602 120.0
125.878777 260.0
125.903336 240.0
125.92791 112.0
125.983749 148.0
126.019501 132.0
126.044075 164.0
126.08654 128.0
126.160301 108.0
126.202782 232.0
126.238564 136.0
126.292236 192.0
126.354874 172.0
126.375252 148.0
126.406334 124.0
126.444382 204.0
126.504822 68.0
126.533707 124.0
126.571991 180.0
126.60334 156.0
126.714615 136.0
126.768074 220.0
126.79377 220.0
126.847565 148.0
126.864395 220.0
126.930519 168.0
126.97168 136.0
126.980232 48.0
126.98584 144.0
127.053467 700.0
127.168327 136.0
127.285065 64.0
127.300789 224.0
127.323242 96.0
127.34346 152.0
127.372658 192.0
127.404106 88.0
127.422081 40.0
127.440056 312.0
127.48275 68.0
127.542107 196.0
127.574905 140.0
127.649109 172.0
127.74807 108.0
127.835823 68.0
127.932205 180.0
127.961876 180.0
127.98439 124.0
128.01622 128.0
128.060791 6136.0
128.12178 108.0
128.184875 120.0
128.227692 160.0
128.337051 140.0
128.439636 108.0
128.477982 204.0
128.531906 156.0
128.560669 112.0
128.579529 228.0
128.615646 32.0
128.659973 184.0
128.67659 192.0
128.710464 176.0
128.770477 132.0
128.842941 320.0
128.851028 208.0
128.861282 368.0
128.906998 112.0
129.01152 164.0
129.069321 6456.0
129.11142 224.0
129.127213 68.0
129.178314 172.0
129.218826 188.0
129.266556 196.0
129.328918 108.0
129.345764 160.0
129.379379 132.0
129.400101 156.0
129.452362 144.0
129.506531 100.0
129.525665 144.0
129.541199 92.0
129.579987 92.0
129.601685 68.0
129.665131 40.0
129.715012 172.0
129.737091 140.0
129.848785 164.0
129.896423 144.0
129.931595 252.0
129.968796 412.0
129.985931 204.0
130.012131 84.0
130.065735 1708.0
130.103088 164.0
130.130997 144.0
130.151932 124.0
130.182404 144.0
130.200577 144.0
130.257355 124.0
130.291428 192.0
130.336868 184.0
130.395203 228.0
130.430054 132.0
130.477798 84.0
130.496765 140.0
130.506592 48.0
130.511261 172.0
130.53009 36.0
130.602859 124.0
130.668839 176.0
130.71489 172.0
130.743317 240.0
130.766693 232.0
130.815002 176.0
130.855469 144.0
130.872803 112.0
130.910034 100.0
130.947342 268.0
131.005112 136.0
131.049957 400.0
131.071655 916.0
131.126556 140.0
131.170303 144.0
131.217743 204.0
131.254211 108.0
131.277023 136.0
131.327194 92.0
131.359131 156.0
131.391068 160.0
131.411606 52.0
131.445831 116.0
131.468658 224.0
131.489197 252.0
131.527863 132.0
131.58963 172.0
131.617035 136.0
131.722092 232.0
131.770065 48.0
131.799774 80.0
131.89119 100.0
131.946579 176.0
132.042862 1240.0
132.074677 276.0
132.110718 76.0
132.164215 200.0
132.199951 144.0
132.228561 148.0
132.300659 40.0
132.333359 216.0
132.362488 120.0
132.466187 144.0
132.50679 120.0
132.529694 140.0
132.584702 180.0
132.616043 224.0
132.662628 216.0
132.69014 172.0
132.719955 232.0
132.802277 200.0
132.84549 136.0
132.905746 188.0
132.934128 156.0
132.960815 152.0
133.020493 128.0
133.046951 588.0
133.086929 312.0
133.116928 148.0
133.270828 120.0
133.293808 152.0
133.33725 164.0
133.377167 164.0
133.406433 196.0
133.461609 56.0
133.480011 100.0
133.498413 136.0
133.53981 112.0
133.657486 180.0
133.703156 60.0
133.744583 188.0
133.799835 88.0
133.932678 192.0
133.960251 144.0
133.999969 216.0
134.049667 160.0
134.076263 64.0
134.127014 380.0
134.203049 132.0
134.235321 156.0
134.263885 136.0
134.330917 108.0
134.385254 144.0
134.415253 56.0
134.49234 200.0
134.595734 220.0
134.616089 176.0
134.636063 192.0
134.664597 100.0
134.763931 224.0
134.807526 188.0
134.840179 196.0
134.871353 432.0
134.902603 136.0
134.953461 184.0
134.978897 80.0
134.999237 156.0
135.036713 160.0
135.087173 128.0
135.117676 180.0
135.154633 148.0
135.237335 164.0
135.268433 164.0
135.305145 60.0
135.32135 196.0
135.374603 104.0
135.395447 136.0
135.474197 124.0
135.559937 248.0
135.597015 156.0
135.680466 112.0
135.696701 172.0
135.733795 152.0
135.798035 140.0
135.849762 208.0
135.898483 196.0
135.933289 180.0
135.968094 136.0
136.044693 176.0
136.060959 244.0
136.142227 80.0
136.204926 88.0
136.24675 64.0
136.309479 164.0
136.388336 168.0
136.421982 124.0
136.456345 132.0
136.464706 144.0
136.472198 144.0
136.539627 56.0
136.572189 164.0
136.651291 120.0
136.763 52.0
136.969254 148.0
137.019165 84.0
137.04245 224.0
137.084396 108.0
137.103043 108.0
137.145004 204.0
137.168304 276.0
137.263336 132.0
137.381439 152.0
137.420181 116.0
137.492523 144.0
137.527527 172.0
137.562546 56.0
137.623245 136.0
137.653595 200.0
137.681625 120.0
137.747025 200.0
137.812439 148.0
137.872269 232.0
137.89238 176.0
137.93631 184.0
137.976318 104.0
138.006226 168.0
138.038895 160.0
138.055725 160.0
138.151459 164.0
138.219299 180.0
138.251373 188.0
138.296539 52.0
138.312912 152.0
138.336487 124.0
138.359741 132.0
138.400558 212.0
138.418274 180.0
138.488541 136.0
138.521332 144.0
138.575211 64.0
138.601273 180.0
138.650192 128.0
138.67598 136.0
138.701767 188.0
138.861206 120.0
138.896393 148.0
138.945663 144.0
138.988434 192.0
139.018402 164.0
139.055954 232.0
139.081772 184.0
139.138611 260.0
139.168945 152.0
139.234375 84.0
139.286057 144.0
139.356537 184.0
139.427032 104.0
139.458847 268.0
139.516922 164.0
139.534714 136.0
139.617966 148.0
139.646545 176.0
139.666855 196.0
139.697433 200.0
139.848038 200.0
139.871582 224.0
139.921005 184.0
139.949265 144.0
139.994003 172.0
140.015198 196.0
140.048996 260.0
140.201981 400.0
140.218887 204.0
140.281113 188.0
140.305038 68.0
140.356903 188.0
140.407318 180.0
140.439453 212.0
140.512589 120.0
140.536179 148.0
140.573929 108.0
140.621201 132.0
140.668228 160.0
140.68959 136.0
140.736801 172.0
140.762787 148.0
140.805298 216.0
140.829651 192.0
140.87616 236.0
140.918686 120.0
141.010941 104.0
141.06868 1108.0
141.1716 232.0
141.208786 72.0
141.300522 128.0
141.345856 160.0
141.361725 152.0
141.443695 168.0
141.494858 240.0
141.550232 124.0
141.618927 64.0
141.671036 220.0
141.72316 160.0
141.763443 140.0
141.817947 124.0
141.834549 128.0
141.865356 236.0
141.939835 212.0
141.993408 68.0
142.027176 184.0
142.064651 7336.0
142.195618 296.0
142.244919 80.0
142.282913 172.0
142.344788 128.0
142.38501 244.0
142.400421 140.0
142.437271 224.0
142.461029 160.0
142.484787 112.0
142.503784 76.0
142.544189 44.0
142.585938 216.0
142.610046 168.0
142.717117 144.0
142.744812 180.0
142.819977 144.0
142.845276 156.0
142.869156 160.0
142.919815 132.0
142.948166 68.0
142.955261 60.0
142.961533 120.0
142.982681 164.0
143.039398 188.0
143.072845 29440.0
143.161255 184.0
143.191284 128.0
143.216156 40.0
143.291321 60.0
143.329361 172.0
143.384262 36.0
143.405716 60.0
143.471558 64.0
143.497711 212.0
143.531891 168.0
143.596451 68.0
143.61554 84.0
143.639389 36.0
143.663254 180.0
143.682327 104.0
143.701416 68.0
143.718124 188.0
143.824326 192.0
143.864471 156.0
143.895065 148.0
143.932953 108.0
143.959213 48.0
143.983093 208.0
144.034653 116.0
144.044968 40.0
144.077454 7364.0
144.152725 52.0
144.190964 60.0
144.21344 188.0
144.223541 76.0
144.228058 160.0
144.250717 192.0
144.274628 40.0
144.305695 156.0
144.34874 108.0
144.413315 140.0
144.451584 68.0
144.492264 52.0
144.511398 80.0
144.554474 76.0
144.639435 160.0
144.710052 188.0
144.767532 200.0
144.786682 176.0
144.813034 136.0
144.859787 124.0
144.943115 120.0
144.978882 212.0
145.005768 100.0
145.031067 160.0
145.056885 260.0
145.082001 628.0
145.141357 176.0
145.165329 196.0
145.193146 168.0
145.199875 100.0
145.226837 168.0
145.285263 156.0
145.304459 172.0
145.330276 168.0
145.342331 56.0
145.347015 212.0
145.37645 64.0
145.400436 160.0
145.463882 128.0
145.515671 116.0
145.537277 72.0
145.634506 164.0
145.698196 192.0
145.727036 180.0
145.748306 252.0
145.827957 188.0
145.918106 144.0
146.013092 144.0
146.059387 1116.0
146.08461 160.0
146.206192 136.0
146.272949 156.0
146.316284 136.0
146.333145 176.0
146.417877 148.0
146.506546 116.0
146.595459 156.0
146.631851 76.0
146.648727 164.0
146.701752 184.0
146.726761 236.0
146.776489 192.0
146.80838 216.0
146.834381 128.0
146.901917 124.0
146.951157 136.0
146.9767 132.0
147.04187 148.0
147.064911 300.0
147.138428 168.0
147.181244 196.0
147.227768 140.0
147.256744 208.0
147.3582 152.0
147.421036 128.0
147.495956 132.0
147.534637 96.0
147.636185 56.0
147.666367 216.0
147.795853 216.0
147.8405 168.0
147.99675 180.0
148.016495 80.0
148.036148 208.0
148.217178 112.0
148.292313 300.0
148.311966 184.0
148.357407 224.0
148.40625 172.0
148.450577 184.0
148.505676 180.0
148.551758 112.0
148.574997 160.0
148.612411 112.0
148.694931 132.0
148.716766 176.0
148.837189 140.0
148.918304 268.0
148.938004 176.0
148.965591 128.0
149.039764 64.0
149.072403 224.0
149.110245 152.0
149.234222 172.0
149.256653 212.0
149.272552 204.0
149.292587 196.0
149.343658 132.0
149.470169 176.0
149.496933 184.0
149.550568 176.0
149.594299 36.0
149.645615 152.0
149.655029 148.0
149.694122 160.0
149.742828 164.0
149.759872 172.0
149.818344 208.0
149.913361 140.0
149.991364 152.0
150.042557 204.0
150.160828 192.0
150.204269 192.0
150.232788 188.0
150.288895 112.0
150.34996 172.0
150.388962 152.0
150.467072 212.0
150.519684 168.0
150.650238 148.0
150.684448 76.0
150.711319 128.0
150.730865 68.0
150.760193 236.0
150.79686 160.0
150.821289 76.0
150.936203 204.0
151.048706 132.0
151.11232 220.0
151.149017 192.0
151.183273 44.0
151.349152 184.0
151.491791 168.0
151.53418 268.0
151.680481 196.0
151.697647 244.0
151.756485 176.0
151.773651 156.0
151.82515 80.0
151.879105 196.0
151.925705 140.0
151.987869 180.0
152.062653 532.0
152.117126 208.0
152.141678 148.0
152.171143 204.0
152.217316 184.0
152.224701 148.0
152.231339 304.0
152.269302 180.0
152.333237 280.0
152.384827 144.0
152.480667 144.0
152.503815 220.0
152.532471 148.0
152.561707 148.0
152.61586 96.0
152.67981 40.0
152.729813 200.0
152.790497 200.0
152.817566 204.0
152.865021 208.0
152.896301 140.0
153.027969 164.0
153.069244 892.0
153.125656 208.0
153.172943 160.0
153.2854 180.0
153.305115 140.0
153.354416 156.0
153.388916 136.0
153.42836 72.0
153.465652 164.0
153.519592 120.0
153.556595 184.0
153.581253 108.0
153.603455 120.0
153.633057 188.0
153.837891 164.0
153.910995 68.0
153.944061 204.0
153.971237 128.0
154.00148 212.0
154.064026 7304.0
154.110229 268.0
154.131805 140.0
154.21994 172.0
154.257523 152.0
154.307297 120.0
154.32576 120.0
154.45517 116.0
154.52742 84.0
154.547226 64.0
154.572174 140.0
154.594238 72.0
154.668488 68.0
154.713043 200.0
154.745834 148.0
154.866577 176.0
154.882919 200.0
154.933456 52.0
154.965668 124.0
155.019257 168.0
155.071579 8496.0
155.119324 164.0
155.159653 112.0
155.19046 144.0
155.213409 76.0
155.282974 164.0
155.307785 176.0
155.324738 184.0
155.391449 68.0
155.431824 172.0
155.482086 64.0
155.514099 48.0
155.538544 136.0
155.640335 76.0
155.709869 160.0
155.78688 144.0
155.84671 148.0
155.912079 176.0
155.930084 176.0
155.973251 40.0
156.044296 932.0
156.078445 3012.0
156.124969 196.0
156.157257 160.0
156.221924 148.0
156.244308 152.0
156.266708 96.0
156.351318 60.0
156.376205 140.0
156.416031 168.0
156.446625 192.0
156.480759 48.0
156.557953 204.0
156.597275 212.0
156.615234 64.0
156.635162 256.0
156.722351 72.0
156.759735 112.0
156.776657 96.0
156.848648 220.0
156.971634 136.0
157.001846 140.0
157.0215 124.0
157.049789 188.0
157.085251 1132.0
157.136261 172.0
157.18367 128.0
157.230286 88.0
157.288483 196.0
157.378357 156.0
157.433304 176.0
157.472412 200.0
157.500732 168.0
157.538208 112.0
157.564911 128.0
157.618164 108.0
157.676224 152.0
157.714691 60.0
157.773117 200.0
157.795624 40.0
157.908157 120.0
157.928162 108.0
157.94722 116.0
157.988205 208.0
158.059616 472.0
158.095718 372.0
158.155869 220.0
158.20343 172.0
158.315567 168.0
158.362091 200.0
158.409241 172.0
158.48143 148.0
158.51651 148.0
158.571655 188.0
158.614258 216.0
158.644348 44.0
158.678894 184.0
158.744629 44.0
158.787262 156.0
158.817368 64.0
158.985474 120.0
159.043198 200.0
159.064026 304.0
159.09967 168.0
159.123535 124.0
159.248077 200.0
159.329468 132.0
159.351517 220.0
159.37973 192.0
159.399826 156.0
159.462662 160.0
159.482758 112.0
159.51796 112.0
159.570755 152.0
159.774475 152.0
159.880157 76.0
159.920135 140.0
159.935974 180.0
159.991516 292.0
160.040726 320.0
160.068954 136.0
160.099564 172.0
160.231079 180.0
160.275513 28.0
160.32782 212.0
160.368759 248.0
160.409088 184.0
160.444397 156.0
160.484726 116.0
160.517517 160.0
160.557175 192.0
160.579742 136.0
160.599609 240.0
160.604248 132.0
160.613785 160.0
160.656006 216.0
160.68399 204.0
160.719315 340.0
160.830353 132.0
160.910355 232.0
160.952103 176.0
160.98941 204.0
161.012146 200.0
161.061203 244.0
161.178879 164.0
161.249634 36.0
161.295135 112.0
161.36087 68.0
161.500198 188.0
161.532837 172.0
161.585251 156.0
161.644165 176.0
161.725143 176.0
161.744843 148.0
161.808685 128.0
161.84433 264.0
161.963165 136.0
162.047546 180.0
162.102509 136.0
162.120255 140.0
162.219101 152.0
162.279953 304.0
162.333191 40.0
162.424911 160.0
162.518372 208.0
162.54628 168.0
162.634888 180.0
162.689514 148.0
162.749359 196.0
162.923523 224.0
162.948151 184.0
162.988129 200.0
163.117737 168.0
163.138077 96.0
163.155869 164.0
163.186386 124.0
163.275391 192.0
163.31073 188.0
163.338974 128.0
163.482193 180.0
163.51709 60.0
163.608719 240.0
163.655716 176.0
163.710571 116.0
163.757111 220.0
163.909271 176.0
163.947495 124.0
164.100449 164.0
164.16156 112.0
164.212646 144.0
164.238159 192.0
164.271317 184.0
164.322342 176.0
164.353882 300.0
164.391235 144.0
164.49823 152.0
164.51886 188.0
164.63887 124.0
164.693695 180.0
164.729172 340.0
164.802353 196.0
164.8228 132.0
164.845795 140.0
164.881577 164.0
164.919922 176.0
164.996613 168.0
165.032288 276.0
165.051392 132.0
165.067719 172.0
165.170502 172.0
165.203766 96.0
165.257492 144.0
165.295868 236.0
165.352173 112.0
165.405121 148.0
165.467361 152.0
165.564667 132.0
165.639648 248.0
165.664108 180.0
165.705551 204.0
165.734619 188.0
165.805496 132.0
165.887512 196.0
165.913147 136.0
165.931488 180.0
166.038803 120.0
166.066605 636.0
166.113434 180.0
166.167053 252.0
166.226074 164.0
166.25174 84.0
166.340927 192.0
166.395325 200.0
166.441696 188.0
166.48793 152.0
166.529022 140.0
166.55162 160.0
166.680588 88.0
166.715317 172.0
166.762405 144.0
166.772766 120.0
166.78215 248.0
166.803955 148.0
166.862061 120.0
166.94986 252.0
166.986526 140.0
167.004074 112.0
167.028442 296.0
167.072571 29184.0
167.118362 160.0
167.18364 156.0
167.230957 80.0
167.27739 188.0
167.344223 44.0
167.373535 84.0
167.395721 180.0
167.417572 132.0
167.465942 76.0
167.488449 60.0
167.516785 152.0
167.534805 212.0
167.552704 144.0
167.590134 212.0
167.671387 320.0
167.69458 152.0
167.717773 168.0
167.737534 228.0
167.764175 56.0
167.815735 228.0
167.863693 188.0
167.894821 120.0
167.918045 180.0
167.955002 52.0
167.97821 168.0
168.00708 340.0
168.030975 152.0
168.080063 38228.0
168.113815 464.0
168.169678 80.0
168.194977 96.0
168.237564 160.0
168.266983 140.0
168.294052 60.0
168.321487 44.0
168.374588 300.0
168.454987 64.0
168.481628 32.0
168.50853 48.0
168.529175 136.0
168.564301 44.0
168.588043 64.0
168.602783 172.0
168.625229 184.0
168.652176 128.0
168.740814 360.0
168.787506 68.0
168.817642 64.0
168.838333 140.0
168.862701 124.0
168.896149 124.0
168.920166 352.0
168.950821 156.0
168.99855 448.0
169.029617 252.0
169.087601 45820.0
169.159821 32.0
169.19368 196.0
169.215027 316.0
169.241043 160.0
169.26384 104.0
169.306763 176.0
169.32959 172.0
169.358566 120.0
169.376694 160.0
169.400009 124.0
169.429733 136.0
169.477615 88.0
169.51619 188.0
169.543991 204.0
169.612411 120.0
169.666046 320.0
169.693115 180.0
169.74353 216.0
169.775162 180.0
169.784073 264.0
169.827621 200.0
169.871155 284.0
169.889267 160.0
169.910629 228.0
169.943726 476.0
169.976486 396.0
170.002411 536.0
170.049881 120.0
170.096207 231128.0
170.163193 240.0
170.183701 288.0
170.191818 108.0
170.201889 260.0
170.237991 112.0
170.247467 108.0
170.287796 140.0
170.333023 288.0
170.359909 244.0
170.391357 100.0
170.407272 268.0
170.428452 64.0
170.449936 80.0
170.497574 60.0
170.523315 2156.0
170.561508 272.0
170.58902 216.0
170.611465 144.0
170.624695 80.0
170.629288 84.0
170.66835 168.0
170.717194 84.0
170.723495 40.0
170.744858 92.0
170.775558 68.0
170.778915 176.0
170.791061 64.0
170.799316 204.0
170.855637 172.0
170.878891 132.0
170.920593 60.0
170.953629 156.0
170.980179 244.0
170.99115 108.0
170.997498 168.0
171.02179 420.0
171.066849 21972.0
171.098877 29772.0
171.138809 336.0
171.178055 232.0
171.240448 128.0
171.279709 80.0
171.309113 252.0
171.336121 144.0
171.366165 72.0
171.391342 64.0
171.416229 40.0
171.446396 132.0
171.505112 136.0
171.528656 104.0
171.55777 212.0
171.59935 180.0
171.630219 268.0
171.650284 200.0
171.688843 84.0
171.731812 48.0
171.755157 120.0
171.772964 68.0
171.793747 264.0
171.830811 196.0
171.860031 288.0
171.924133 152.0
171.964478 248.0
172.003052 168.0
172.031509 40.0
172.041641 36.0
172.070435 2728.0
172.101318 2068.0
172.133606 228.0
172.153976 100.0
172.177017 108.0
172.207504 124.0
172.226013 156.0
172.245361 172.0
172.28212 172.0
172.288284 192.0
172.311157 244.0
172.341904 92.0
172.361023 256.0
172.409393 140.0
172.436478 88.0
172.442993 108.0
172.455093 92.0
172.465408 184.0
172.497665 244.0
172.521255 88.0
172.571655 56.0
172.656265 36.0
172.676132 88.0
172.704727 68.0
172.745193 56.0
172.766129 40.0
172.94194 160.0
172.993805 52.0
173.02594 88.0
173.049835 200.0
173.073441 260.0
173.103775 76.0
173.141342 140.0
173.167587 164.0
173.229492 88.0
173.335434 92.0
173.360321 176.0
173.37912 76.0
173.399811 124.0
173.441132 136.0
173.517334 176.0
173.558563 108.0
173.624603 184.0
173.714462 56.0
173.848862 180.0
173.853882 208.0
173.983292 176.0
174.013657 96.0
174.049393 312.0
174.188461 88.0
174.234268 44.0
174.255295 76.0
174.328873 124.0
174.355148 148.0
174.402451 188.0
174.450867 112.0
174.512878 140.0
174.581238 124.0
174.636475 156.0
174.67067 48.0
174.70224 96.0
174.84433 168.0
174.875916 176.0
174.925919 144.0
175.012802 164.0
175.110245 148.0
175.173462 192.0
175.244598 56.0
175.263031 60.0
175.371094 176.0
175.429077 220.0
175.44754 84.0
175.508179 112.0
175.554642 124.0
175.582016 168.0
175.611023 48.0
175.720566 168.0
175.779877 88.0
175.822998 156.0
175.938248 64.0
175.977844 136.0
176.009537 160.0
176.112534 56.0
176.234055 108.0
176.384689 52.0
176.493088 52.0
176.564484 140.0
176.593582 284.0
176.810532 240.0
176.884644 84.0
176.919067 76.0
177.205093 156.0
177.279297 108.0
177.305801 188.0
177.536438 136.0
177.570923 140.0
177.592148 160.0
177.629272 60.0
177.684326 32.0
177.722137 56.0
177.947739 132.0
178.032715 108.0
178.077866 48.0
178.099121 100.0
178.170837 56.0
178.213348 104.0
178.242584 84.0
178.285095 68.0
178.303711 88.0
178.407364 72.0
178.449905 84.0
178.56958 144.0
178.633423 148.0
178.662018 244.0
178.811386 136.0
178.864929 152.0
178.96077 116.0
178.992722 68.0
179.014023 68.0
179.06369 136.0
179.093933 176.0
179.141876 72.0
179.376389 80.0
179.430435 188.0
179.472427 172.0
179.504364 156.0
179.533691 92.0
179.624374 152.0
179.661728 216.0
179.725754 144.0
179.748505 92.0
179.885895 152.0
179.927261 152.0
180.000702 124.0
180.019394 100.0
180.077911 408.0
180.150269 116.0
180.176987 72.0
180.210434 200.0
180.305252 96.0
180.36673 216.0
180.508423 136.0
180.577011 136.0
180.744461 152.0
180.779785 104.0
180.872284 48.0
180.891037 216.0
180.919205 152.0
180.965988 112.0
181.012619 224.0
181.033646 152.0
181.087036 1348.0
181.138763 156.0
181.201691 88.0
181.227859 156.0
181.265182 224.0
181.322281 160.0
181.343719 96.0
181.448257 152.0
181.52066 116.0
181.542114 228.0
181.593063 180.0
181.630402 144.0
181.660126 100.0
181.775497 116.0
181.80368 124.0
181.834549 172.0
181.856018 156.0
181.877487 84.0
181.968765 176.0
182.027832 380.0
182.058807 124.0
182.096024 28188.0
182.143326 248.0
182.25177 120.0
182.353729 164.0
182.388977 96.0
182.394943 100.0
182.430862 120.0
182.452377 144.0
182.524963 104.0
182.611023 76.0
182.657547 68.0
182.713242 72.0
182.772064 116.0
182.804733 168.0
182.885803 32.0
182.905441 116.0
182.933929 80.0
182.966232 48.0
182.985077 96.0
183.063171 132.0
183.100388 5316.0
183.13945 168.0
183.159607 104.0
183.186615 136.0
183.219391 116.0
183.247009 128.0
183.29129 152.0
183.334381 344.0
183.381073 52.0
183.419739 84.0
183.461945 120.0
183.498505 164.0
183.50943 216.0
183.553772 332.0
183.580231 92.0
183.603867 76.0
183.659409 184.0
183.684418 104.0
183.708694 280.0
183.761307 116.0
183.782898 144.0
183.821167 176.0
183.869095 68.0
183.893478 164.0
183.911591 140.0
183.935608 144.0
183.942001 84.0
183.953705 140.0
183.975479 148.0
184.034271 160.0
184.075089 1896.0
184.111771 154940.0
184.202194 140.0
184.234436 224.0
184.299072 232.0
184.315613 136.0
184.348312 104.0
184.371246 168.0
184.381439 104.0
184.38736 200.0
184.410553 216.0
184.436462 56.0
184.480667 148.0
184.503738 344.0
184.556381 444.0
184.61142 180.0
184.618362 128.0
184.692581 100.0
184.716583 192.0
184.740784 120.0
184.77179 44.0
184.799423 132.0
184.8228 92.0
184.847244 108.0
184.872635 120.0
184.90387 128.0
184.936386 92.0
184.95076 152.0
184.988083 100.0
185.011719 144.0
185.057571 116.0
185.078903 216.0
185.114029 17920.0
185.230026 92.0
185.280441 132.0
185.321411 44.0
185.355011 120.0
185.383286 168.0
185.41626 88.0
185.440659 64.0
185.492157 24.0
185.514648 124.0
185.569229 56.0
185.597885 28.0
185.627716 164.0
185.667389 108.0
185.695526 64.0
185.744339 36.0
185.778809 68.0
185.810715 164.0
185.831161 56.0
185.850159 48.0
185.874573 180.0
185.9207 36.0
185.951721 28.0
185.974365 52.0
185.984497 40.0
185.992477 72.0
186.03743 204.0
186.085678 152.0
186.117813 2052.0
186.188324 56.0
186.225983 196.0
186.2341 148.0
186.275452 200.0
186.283447 88.0
186.294235 148.0
186.364807 140.0
186.398666 92.0
186.439423 40.0
186.45845 52.0
186.492508 136.0
186.561234 64.0
186.588287 120.0
186.610733 184.0
186.631348 120.0
186.651672 340.0
186.718063 84.0
186.757538 96.0
186.809219 40.0
186.843414 112.0
186.947983 104.0
186.987961 64.0
187.08136 64.0
187.160309 216.0
187.198441 36.0
187.23111 56.0
187.258347 56.0
187.291031 200.0
187.342789 64.0
187.433334 184.0
187.474823 44.0
187.503555 60.0
187.56897 80.0
187.598969 132.0
187.664398 44.0
187.683487 116.0
187.708023 40.0
187.770752 56.0
187.833481 44.0
187.882584 44.0
187.912598 96.0
188.0354 68.0
188.221039 64.0
188.52153 112.0
188.561798 56.0
188.589859 60.0
188.693741 76.0
188.819519 28.0
188.934418 32.0
188.964508 100.0
189.131439 72.0
189.18071 100.0
189.306671 68.0
189.369659 44.0
189.728638 100.0
190.098923 72.0
190.131851 48.0
190.730621 40.0
190.826843 104.0
190.909332 108.0
190.964005 100.0
191.360611 208.0
191.539627 172.0
192.204056 32.0
192.2565 180.0
192.424881 72.0
192.549133 76.0
192.629242 52.0
192.994064 160.0
193.090851 344.0
193.126801 48.0
193.29834 72.0
193.400742 168.0
193.444 76.0
193.475479 100.0
193.74411 180.0
194.097153 888.0
194.123856 132.0
194.220917 32.0
194.659439 40.0
194.731644 52.0
194.798309 68.0
194.948349 96.0
195.094025 468.0
195.34317 72.0
195.518463 56.0
195.621445 32.0
195.649292 124.0
195.848389 40.0
195.964005 40.0
195.994659 92.0
196.082596 176.0
196.10614 268.0
196.485382 96.0
196.574677 92.0
196.777283 164.0
196.954376 156.0
196.979523 128.0
197.04657 36.0
197.08107 1232.0
197.11351 92.0
197.15834 120.0
197.180695 52.0
197.496643 136.0
198.034058 60.0
198.088974 192.0
198.129303 192.0
198.179733 36.0
198.350693 100.0
198.370316 52.0
198.631104 152.0
198.855576 88.0
199.093033 208.0
199.215012 88.0
199.436996 100.0
199.512894 72.0
199.704117 72.0
199.726624 44.0
200.044601 108.0
200.11499 88.0
200.393829 84.0
200.588287 60.0
201.147293 192.0
201.285172 84.0
201.740067 128.0
201.988907 76.0
203.053925 160.0
203.510818 76.0
203.547729 52.0
203.87442 64.0
204.688019 120.0
204.884552 84.0
205.314972 32.0
205.409088 96.0
205.891464 40.0
206.034286 84.0
207.112762 132.0
208.352036 96.0
210.039001 160.0
210.091187 132.0
210.206345 224.0
210.824341 140.0
210.890808 56.0
211.099869 340.0
211.165497 164.0
211.301453 188.0
211.336182 124.0
211.703812 220.0
211.822556 32.0
211.842834 180.0
211.868912 84.0
211.967422 176.0
212.031174 168.0
212.10585 18472.0
212.399414 80.0
212.420975 68.0
212.445831 116.0
212.479248 56.0
212.517059 116.0
212.571228 92.0
212.788284 32.0
212.815338 88.0
212.88121 28.0
212.991577 48.0
213.02063 44.0
213.064194 104.0
213.108582 2736.0
213.165894 116.0
213.279251 48.0
213.424606 56.0
213.503128 116.0
213.523483 36.0
213.686386 44.0
213.735855 76.0
213.764954 64.0
213.936676 48.0
213.989075 68.0
214.026932 52.0
214.109406 372.0
214.475586 40.0
214.544418 72.0
214.810928 64.0
215.210281 48.0
215.350952 96.0
215.897491 76.0
215.935501 120.0
216.450577 60.0
216.866592 72.0
217.262466 68.0
217.676331 72.0
217.808487 148.0
218.146423 160.0
218.887863 156.0
219.527328 64.0
219.63266 140.0
219.97876 48.0
220.090958 140.0
220.208878 56.0
220.232712 68.0
220.483856 36.0
220.797241 80.0
220.903717 96.0
222.453598 104.0
222.928818 28.0
223.125 84.0
223.26178 28.0
224.238312 64.0
224.357559 140.0
225.151276 84.0
225.211014 92.0
225.300629 92.0
226.221725 48.0
227.528839 76.0
228.580841 148.0
230.12114 112.0
230.290253 92.0
231.009674 112.0
231.418243 52.0
232.549011 96.0
232.703827 128.0
233.034897 60.0
233.591248 136.0
234.108673 156.0
234.45903 72.0
235.872208 64.0
236.009796 64.0
237.111847 164.0
238.136612 116.0
238.585266 64.0
240.377884 36.0
241.808777 44.0
242.400299 108.0
243.775024 108.0
244.810959 176.0
245.113129 144.0
245.914627 164.0
246.014511 104.0
247.59671 44.0
249.617737 168.0
249.828476 176.0
249.88826 64.0
250.924469 116.0
251.48204 108.0
252.082901 108.0
252.272537 36.0
252.433792 60.0
252.97168 76.0
253.570923 88.0
253.941299 92.0
254.05867 152.0
255.739685 92.0
257.863922 108.0
261.121429 84.0
261.285492 88.0
262.877258 136.0
262.983765 136.0
265.964905 120.0
266.182434 92.0
266.897308 52.0
268.32016 104.0
268.365814 200.0
268.851868 88.0
268.917145 100.0
269.008545 72.0
271.423126 76.0
271.87912 172.0
272.24353 144.0
273.4534 160.0
275.914246 64.0
276.148163 308.0
277.158752 160.0
277.341034 44.0
277.606262 36.0
278.359558 152.0
278.89447 124.0
279.117218 48.0
280.458893 176.0
282.432312 104.0
283.496979 76.0
288.096649 48.0
289.011047 88.0
289.144897 152.0
289.615509 92.0
289.676483 88.0
290.412048 196.0
290.649536 36.0
292.056061 156.0
292.4133 164.0
293.108032 104.0
293.356842 132.0
293.483002 52.0
293.554596 144.0
293.663727 76.0
293.883942 204.0
293.92984 44.0
293.967377 116.0
294.037537 188.0
294.066345 156.0
294.159271 11424.0
294.250702 48.0
294.31897 56.0
294.397064 176.0
294.438507 152.0
294.489746 52.0
294.517059 56.0
294.670807 160.0
294.708374 80.0
294.750214 124.0
294.793793 100.0
294.923676 116.0
294.998871 232.0
295.163177 1816.0
295.351105 52.0
295.494781 44.0
295.570068 52.0
295.621399 76.0
295.83017 144.0
295.932892 68.0
296.028778 44.0
296.164551 312.0
296.967834 56.0
297.098175 56.0
297.170227 172.0
297.348663 28.0
297.403595 40.0
297.891205 68.0
298.798798 104.0
299.725006 120.0
300.007629 52.0
301.640503 92.0
302.190369 80.0
302.418793 72.0
302.740753 96.0
302.775391 52.0
303.912445 40.0
304.332428 76.0
304.651947 72.0
306.252106 92.0
307.245605 100.0
308.2547 40.0
309.888794 140.0
310.302368 124.0
311.787231 88.0
312.07901 92.0
313.33905 44.0
313.437683 80.0
314.20282 120.0
314.605164 104.0
318.37262 136.0
319.969208 96.0
320.243408 60.0
320.881287 36.0
324.578461 108.0
326.22287 100.0
327.089813 48.0
327.907471 104.0
327.939911 36.0
330.56189 132.0
331.469177 88.0
332.23587 56.0
333.983185 92.0
334.638245 144.0
338.336731 112.0
340.00824 60.0
345.642944 68.0
349.330902 60.0
351.577728 104.0
352.137726 148.0
355.800018 48.0
355.999023 96.0
356.427277 60.0
356.592621 96.0
357.645813 84.0
357.815216 96.0
358.406555 48.0
363.177643 144.0
365.282043 52.0
367.00351 72.0
367.140778 100.0
367.197998 40.0
371.35553 88.0
374.133789 52.0
376.153839 64.0
378.338043 72.0
383.017517 52.0
385.706085 84.0
387.114594 116.0
387.377014 44.0
400.022095 60.0
400.902344 52.0
402.390198 156.0
405.651642 92.0
411.133087 128.0
413.210052 92.0
415.495117 56.0
415.706116 52.0
418.030609 100.0
422.707214 92.0
423.902954 64.0
432.109497 56.0
432.544037 56.0
433.036774 128.0
434.852814 72.0
435.338562 104.0
437.592316 72.0
441.297363 80.0
441.970795 60.0
446.1987 72.0
447.587219 52.0
448.977875 76.0
450.573456 60.0
450.877716 88.0
453.260254 48.0
456.456696 52.0
460.565186 40.0
461.629395 120.0
466.422791 60.0
469.527191 68.0
470.088043 64.0
471.802826 36.0
476.63559 76.0
477.578979 64.0
480.249054 56.0
481.737579 60.0
484.471802 40.0
484.708374 80.0
497.299744 52.0
497.659332 40.0
503.287506 52.0
503.845825 76.0
506.883942 68.0
507.14386 120.0
507.264893 76.0
508.853058 52.0
511.082428 48.0
513.28064 136.0
515.072388 96.0
516.116394 48.0
522.857544 48.0
528.749634 56.0
531.058838 60.0
536.097778 44.0
537.882751 92.0
541.160522 88.0
543.895813 76.0
550.516541 72.0
552.339355 88.0
552.947571 36.0
567.935852 116.0
572.241455 40.0
572.479553 48.0
573.608765 56.0
577.80658 132.0
583.023682 88.0
585.515808 44.0
594.352844 148.0
597.039246 88.0
599.103088 44.0
599.858398 40.0
603.676575 92.0
605.786133 48.0
608.066223 112.0
610.512878 64.0
618.302979 64.0
619.372437 68.0
625.320923 96.0
628.744873 120.0
628.915833 80.0
632.909119 80.0
634.647827 48.0
637.217712 52.0
643.30658 60.0
644.564209 100.0
652.359436 88.0
657.090698 116.0
661.286133 68.0
661.444824 52.0
669.094055 60.0
677.786926 84.0
684.159851 100.0
686.697571 244.0
687.579346 76.0
688.372864 52.0
691.02301 128.0
692.478333 68.0
706.321838 28.0
708.365112 52.0
709.271301 244.0
715.90741 60.0
725.026917 48.0
725.573669 124.0
727.048767 204.0
730.336975 68.0
736.055115 56.0
736.471008 76.0
738.103149 164.0
739.617981 48.0
739.726257 148.0
740.950195 92.0
744.948486 76.0
748.603577 48.0
761.823853 80.0
761.895264 68.0
766.015747 44.0
782.686768 204.0
786.009033 52.0
802.62439 92.0
803.10376 136.0
811.394043 172.0
811.910034 36.0
824.257812 240.0
828.92157 116.0
834.023804 60.0
844.263611 64.0
845.947388 76.0
857.83313 212.0
860.067322 152.0
860.6745 184.0
871.563782 108.0
872.368958 144.0
872.94519 104.0
876.483032 192.0
878.062927 32.0
890.201172 124.0
890.640686 120.0
898.164612 60.0
902.895142 156.0
903.068604 136.0
904.31311 100.0
908.939758 104.0
909.377808 232.0
910.332397 44.0
916.209045 168.0
916.835693 140.0
920.884094 64.0
922.920654 144.0
925.831421 176.0
934.347717 36.0
941.229187 108.0
945.121094 172.0
945.881836 188.0
951.477417 240.0
956.021423 176.0
956.119873 200.0
956.618469 160.0
956.846252 124.0
961.703979 56.0
964.755554 144.0
966.05426 216.0
968.332153 136.0
971.108887 244.0
973.361694 144.0
978.553711 148.0
983.541016 152.0
988.785095 172.0
989.686584 48.0
990.356689 136.0
993.246338 116.0
996.768494 184.0
997.126709 44.0
998.006836 168.0
998.346375 236.0
1000.1521 132.0
1005.074219 80.0
1005.503357 232.0
1007.050232 160.0
1008.098999 268.0
1008.655212 140.0
1013.877014 116.0
1014.168518 172.0
1016.946716 208.0
1019.093201 144.0
1019.75415 148.0
1020.974854 80.0
1021.102051 184.0
1022.565369 204.0
1022.68634 40.0
1025.86499 92.0
1025.909546 132.0
1026.426025 152.0
1029.201782 36.0
1029.974609 192.0
1030.971313 192.0
1031.501831 224.0
1033.605957 52.0
1034.489258 144.0
1034.97583 124.0
1035.225586 144.0
1036.05188 148.0
1040.053345 136.0
1040.932983 160.0
1041.73584 148.0
1043.927612 176.0
1044.056274 168.0
1044.49353 144.0
1047.261475 136.0
1047.570679 204.0
1050.890869 136.0
1053.014771 108.0
1054.578369 176.0
1056.199097 140.0
1057.90979 184.0
1058.110474 196.0
1058.436401 212.0
1059.716675 156.0
1060.980591 156.0
1063.179443 180.0
1066.205933 176.0
1071.190063 64.0
1073.862549 200.0
1075.813721 48.0
1077.877563 188.0
1081.978638 136.0
1083.525757 172.0
1083.602905 144.0
1087.609863 204.0
1088.555298 116.0
1090.079346 52.0
1092.051636 232.0
1092.400269 212.0
1095.902832 180.0
1099.10083 144.0
1099.318604 232.0
1099.641968 128.0
1100.599243 136.0
1101.556885 52.0
1102.653809 120.0
1105.967529 128.0
1106.672241 216.0
1106.86792 180.0
1107.073242 180.0
1108.583618 200.0
1111.866455 140.0
1112.29126 52.0
1115.253784 128.0
1115.592773 44.0
1116.550293 176.0
1117.468262 148.0
1119.232178 116.0
1121.657227 92.0
1122.123901 140.0
1123.697998 180.0
1124.091675 164.0
1126.308228 180.0
1126.615601 148.0
1127.163452 208.0
1132.582642 160.0
1133.493774 176.0
1135.659302 76.0
1136.585083 132.0
1142.363159 156.0
1143.036621 196.0
1143.359009 96.0
1143.769531 148.0
1143.877319 160.0
1145.075806 128.0
1145.217285 128.0
1146.012207 168.0
1146.241333 164.0
1146.477173 188.0
1148.634766 88.0
1149.78186 248.0
1149.957275 172.0
1150.62561 156.0
1151.422241 140.0
1151.564331 192.0
1153.327759 264.0
1155.444458 144.0
1157.123779 236.0
1157.434448 136.0
1157.833984 160.0
1158.030396 92.0
1160.246338 208.0
1160.314087 196.0
1160.402222 124.0
1161.758667 160.0
1162.545776 180.0
1162.640747 140.0
1164.304077 200.0
1165.683228 156.0
1166.057007 164.0
1166.641479 184.0
1168.897827 248.0
1169.042603 160.0
1170.029541 116.0
1171.493774 124.0
1171.827637 176.0
1172.11377 260.0
1172.856689 152.0
1174.1521 196.0
1175.059448 180.0
1176.472168 92.0
1177.46228 132.0
1180.489746 168.0
1180.592407 80.0
1181.372192 88.0
1181.495239 200.0
1181.734741 124.0
1182.672363 80.0
1183.233643 100.0
1184.014282 176.0
1184.993896 116.0
1185.761353 252.0
1186.570312 244.0
1186.981689 112.0
1187.036499 164.0
1187.379395 172.0
1187.838989 52.0
1188.428955 100.0
1189.451538 140.0
1191.456909 200.0
1191.896606 136.0
1195.107788 152.0
1196.036865 80.0
1196.181396 148.0
1197.11084 160.0
1197.675659 96.0
1198.157837 188.0
1198.729736 116.0
1199.308716 72.0
1199.577515 108.0
1199.894653 196.0
1200.108398 188.0
1200.984253 56.0
1201.439575 260.0
1201.63269 216.0
1202.861206 220.0
1203.026855 204.0
1203.095825 56.0
1203.178711 124.0
1203.599854 144.0
1204.2146 136.0
1207.566772 140.0
1207.967896 164.0
1208.208618 188.0
1209.040405 156.0
1209.393433 288.0
1210.71582 188.0
1211.588623 176.0
1212.06665 180.0
1212.80127 148.0
1213.376709 188.0
1214.132568 120.0
1215.055054 152.0
1216.047485 236.0
1216.581909 36.0
1217.831909 160.0
1217.880493 84.0
1217.998535 248.0
1218.137451 164.0
1218.658569 164.0
1218.741943 220.0
1219.381348 80.0
1221.376831 124.0
1221.781128 216.0
1221.926392 156.0
1222.434326 208.0
1223.151245 136.0
1225.219604 124.0
1225.317139 196.0
1226.055786 156.0
1226.432129 132.0
1227.226807 164.0
1227.442993 172.0
1230.638794 204.0
1232.350098 100.0
1232.958008 152.0
1233.733887 28.0
1234.440186 184.0
1235.041626 168.0
1235.643311 76.0
1236.636963 132.0
1236.741943 48.0
1237.281006 112.0
1238.394409 256.0
1239.711548 180.0
1239.767578 60.0
1240.342407 196.0
1240.748901 148.0
1241.457153 144.0
1241.576416 44.0
1241.667603 208.0
1242.081421 136.0
1242.298828 140.0
1243.197021 184.0
1244.916992 112.0
1245.928467 168.0
1246.39917 140.0
1247.312866 172.0
1248.086182 172.0
1248.247925 124.0
1248.549561 172.0
1248.641724 184.0
1249.28894 132.0
1250.055786 188.0
1250.618896 120.0
1251.646729 160.0
1251.851318 160.0
1252.660889 176.0
1253.513428 188.0
1254.274658 44.0
1254.479126 84.0
1257.519287 128.0
1258.317017 184.0
1258.48645 148.0
1259.630615 160.0
1260.534912 64.0
1260.775269 168.0
1261.432617 80.0
1261.564941 180.0
1262.733643 108.0
1262.938721 140.0
1263.158081 208.0
1263.2146 184.0
1263.554199 184.0
1263.688599 160.0
1264.375 128.0
1264.941284 148.0
1265.111206 128.0
1265.351929 44.0
1266.265381 180.0
1266.314941 108.0
1267.363403 144.0
1267.427246 172.0
1267.60437 216.0
1267.9729 132.0
1269.137939 180.0
1269.291504 188.0
1269.42627 120.0
1270.348145 208.0
1271.526245 224.0
1273.549683 200.0
1273.599487 88.0
1278.341675 48.0
1278.533813 196.0
1279.188599 152.0
1280.228149 60.0
1280.612793 188.0
1280.826416 252.0
1281.688477 132.0
1281.987793 172.0
1282.244385 216.0
1282.308594 136.0
1282.85022 132.0
1284.197998 188.0
1284.57605 52.0
1285.153931 188.0
1285.239624 164.0
1286.145996 152.0
1286.231567 64.0
1286.824097 232.0
1287.202637 104.0
1288.223999 148.0
1288.616943 88.0
1289.331421 60.0
1289.853271 124.0
1290.317871 72.0
1290.403687 112.0
1290.453735 236.0
1291.90564 40.0
1292.771362 80.0
1293.043335 172.0
1293.093506 232.0
1293.487183 60.0
1294.303345 108.0
1295.391968 168.0
1296.029663 128.0
1296.115601 32.0
1296.846558 200.0
1296.968506 68.0
1297.216553 164.0
1297.391357 100.0
1297.628052 184.0
1298.266235 148.0
1298.337891 124.0
1298.775391 84.0
1299.119751 184.0
1299.70813 160.0
1300.397095 208.0
1301.057495 216.0
1302.464966 132.0
1302.974976 148.0
1303.097168 216.0
1304.031372 180.0
1304.243774 220.0
1304.318848 148.0
1304.872437 160.0
1306.972778 36.0
1307.937134 172.0
1308.736206 60.0
1309.305176 164.0
1309.535645 184.0
1309.737305 184.0
1310.328003 136.0
1310.418335 200.0
1310.898926 168.0
1312.173096 160.0
1314.235962 152.0
1314.467896 196.0
1314.632812 132.0
1315.527832 224.0
1316.632568 160.0
1317.123779 84.0
1317.297119 56.0
1317.593384 148.0
1318.221924 60.0
1319.46521 136.0
1320.58606 240.0
1320.658447 136.0
1320.730713 136.0
1322.025879 168.0
1324.646851 140.0
1326.378784 120.0
1326.705078 152.0
1326.821045 188.0
1326.884277 132.0
1327.299561 160.0
1327.509888 156.0
1328.605103 220.0
1329.134766 52.0
1329.265381 100.0
1329.562988 40.0
1329.998413 88.0
1330.187134 172.0
1330.252563 172.0
1330.703491 168.0
1330.870972 136.0
1331.210938 140.0
1331.385254 132.0
1332.958862 96.0
1333.172363 144.0
1333.397705 104.0
1333.76416 140.0
1333.841064 160.0
1334.27002 160.0
1334.531738 152.0
1335.338989 108.0
1335.899292 156.0
1336.342896 144.0
1336.808594 88.0
1337.048706 124.0
1337.208862 224.0
1337.64563 184.0
1337.73291 108.0
1338.431885 112.0
1339.866699 72.0
1340.267456 156.0
1340.369507 184.0
1340.420532 120.0
1342.447144 124.0
1343.074341 152.0
1343.220215 152.0
1343.749268 184.0
1343.97168 80.0
1344.314697 144.0
1344.869385 208.0
1345.044556 180.0
1345.256226 276.0
1345.380371 140.0
1345.62854 180.0
1346.431763 140.0
1346.869995 160.0
1347.578735 208.0
1347.88562 140.0
1348.404419 116.0
1348.492188 240.0
1349.376709 112.0
1349.734985 136.0
1350.129883 144.0
1351.022217 132.0
1351.197876 196.0
1351.724731 116.0
1351.873535 248.0
1351.951538 156.0
1352.039307 152.0
1352.258911 188.0
1352.602905 128.0
1352.676147 80.0
1352.976318 200.0
1353.17395 140.0
1353.898926 184.0
1354.016113 184.0
1354.133301 160.0
1355.488647 208.0
1355.551636 228.0
1355.847656 164.0
1356.082275 172.0
1357.394531 120.0
1357.651245 140.0
1357.709839 188.0
1357.871216 156.0
1358.145752 124.0
1358.318726 132.0
1358.450684 76.0
1358.780884 120.0
1359.03772 184.0
1360.322021 160.0
1360.476196 200.0
1361.28894 168.0
1362.554565 116.0
1364.002686 216.0
1364.193481 116.0
1364.546387 144.0
1364.634644 32.0
1364.766968 264.0
1365.186157 116.0
1365.252319 116.0
1365.862793 164.0
1366.112915 156.0
1366.311523 172.0
1366.716187 72.0
1367.584595 220.0
1367.893799 112.0
1368.085205 104.0
1369.005615 168.0
1369.189697 236.0
1369.255981 176.0
1370.117798 160.0
1370.294678 184.0
1371.193604 80.0
1371.669434 164.0
1371.849731 96.0
1371.93811 148.0
1372.218262 156.0
1372.299438 108.0
1372.483765 236.0
1373.361328 212.0
1374.106445 40.0
1374.392944 204.0
1374.541748 172.0
1375.42749 232.0
1375.984253 384.0
1377.620728 168.0
1378.145264 140.0
1378.292969 160.0
1378.566406 108.0
1379.224243 40.0
1379.786133 160.0
1380.000488 204.0
1380.229736 84.0
1380.666016 200.0
1381.856934 196.0
1382.086304 220.0
1382.167725 196.0
1382.293579 144.0
1383.329712 180.0
1383.448242 132.0
1384.107178 208.0
1385.21814 212.0
1385.38855 72.0
1385.484863 120.0
1385.796021 84.0
1386.15918 220.0
1386.403564 164.0
1386.625977 112.0
1387.100342 164.0
1388.731689 164.0
1389.265747 144.0
1389.406738 104.0
1389.621826 180.0
1389.903809 324.0
1390.089355 132.0
1390.549438 128.0
1391.321533 232.0
1392.529053 128.0
1393.068115 144.0
1393.244995 240.0
1393.371338 132.0
1393.90625 132.0
1394.240723 200.0
1394.557983 156.0
1394.805664 176.0
1394.984009 164.0
1395.214478 48.0
1395.333374 136.0
1395.415161 56.0
1395.511841 164.0
1395.79187 220.0
1396.16626 176.0
1396.389404 156.0
1397.096069 148.0
1397.38623 60.0
1397.527588 116.0
1397.93689 112.0
1398.15271 136.0
1398.375977 200.0
1398.435547 128.0
1398.576904 164.0
1398.889526 160.0
1399.537354 176.0
1400.438843 224.0
1400.989624 220.0
1401.458984 128.0
1402.539673 108.0
1403.225464 120.0
1403.613281 196.0
1403.73999 156.0
1403.93396 164.0
1404.217285 116.0
1404.649902 52.0
1404.87207 144.0
1405.14978 124.0
1405.261719 120.0
1405.38855 208.0
1405.515381 92.0
1405.597534 204.0
1405.679565 156.0
1406.08252 136.0
1406.717041 40.0
1407.067871 136.0
1407.463623 156.0
1407.866943 128.0
1408.128296 192.0
1408.860352 108.0
1409.398315 144.0
1409.756836 164.0
1410.338867 136.0
1410.668823 176.0
1410.911255 264.0
1411.551147 144.0
1412.037231 148.0
1412.126953 260.0
1412.259644 188.0
1412.687988 140.0
1412.792725 148.0
1413.98999 148.0
1414.588745 236.0
1414.745972 64.0
1414.798462 72.0
1415.240112 232.0
1415.47229 148.0
1415.62207 172.0
1415.696899 76.0
1416.093872 140.0
1416.872925 112.0
1417.030273 148.0
1417.097656 232.0
1417.165161 120.0
1417.300049 160.0
1417.479858 160.0
1418.199341 220.0
1418.731567 160.0
1418.896484 140.0
1419.961304 160.0
1420.106812 228.0
1420.951538 196.0
1422.182251 196.0
1422.48999 88.0
1422.565063 156.0
1422.812866 220.0
1423.526123 184.0
1423.826538 136.0
1424.412476 204.0
1424.480103 204.0
1424.615234 224.0
1425.306519 168.0
1425.411743 156.0
1425.554443 172.0
1425.794922 208.0
1426.546631 160.0
1426.772217 112.0
1426.960083 132.0
1427.118042 168.0
1427.170654 164.0
1427.298462 92.0
1427.373657 208.0
1427.742188 144.0
1428.419067 180.0
1428.592163 232.0
1429.156372 164.0
1429.397217 92.0
1429.517578 152.0
1429.660645 220.0
1429.83374 160.0
1430.210083 136.0
1430.488525 112.0
1430.917725 260.0
1431.211304 52.0
1431.625488 184.0
1431.693237 140.0
1431.941772 40.0
1432.175293 44.0
1432.265747 108.0
1433.011475 128.0
1433.65564 252.0
1434.686523 112.0
1435.619629 164.0
1436.004272 396.0
1436.057129 132.0
1436.645508 232.0
1436.864258 160.0
1437.279297 196.0
1437.822632 208.0
1437.898071 140.0
1438.086792 192.0
1439.863892 212.0
1439.959229 148.0
1440.284058 192.0
1440.488037 176.0
1441.062134 112.0
1441.36438 120.0
1441.477661 164.0
1441.810303 132.0
1442.281372 240.0
1442.377197 180.0
1442.560425 188.0
1442.649292 160.0
1442.850952 228.0
1443.866699 128.0
1444.010376 60.0
1444.517212 136.0
1444.638306 188.0
1444.872803 276.0
1445.160278 240.0
1445.954834 308.0
1446.234985 200.0
1446.833008 44.0
1447.188843 48.0
1447.347778 76.0
1448.089966 160.0
1448.390991 224.0
1448.591431 200.0
1448.824829 180.0
1449.529419 72.0
1449.643066 168.0
1450.734619 144.0
1450.931641 92.0
1450.99231 220.0
1451.136353 168.0
1451.250122 108.0
1451.629272 144.0
1452.069092 232.0
1452.334595 184.0
1453.161499 160.0
1453.525757 132.0
1454.717285 176.0
1454.851807 200.0
1455.174805 152.0
1455.241211 180.0
1455.438599 68.0
1455.841064 176.0
1456.008179 188.0
1456.251221 216.0
1456.357544 220.0
1456.668945 112.0
1457.036499 140.0
1457.259644 140.0
1457.694702 72.0
1458.074707 176.0
1459.161743 156.0
1460.165527 52.0
1460.955688 160.0
1461.588135 148.0
1461.976196 212.0
1462.699219 160.0
1463.110352 176.0
1463.792847 156.0
1463.902222 156.0
1464.619873 176.0
1464.883057 260.0
1465.334229 136.0
1465.501953 156.0
1465.806641 164.0
1466.347778 140.0
1466.614502 184.0
1466.706055 96.0
1466.889038 156.0
1467.277832 344.0
1467.536987 176.0
1468.696899 168.0
1468.887207 112.0
1469.024292 136.0
1469.352295 188.0
1469.542969 196.0
1469.813477 156.0
1470.06189 80.0
1470.130615 172.0
1470.19165 172.0
1470.641968 160.0
1470.748779 188.0
1471.000732 168.0
1471.099976 128.0
1471.451172 116.0
1471.622314 200.0
1471.924561 32.0
1472.039062 128.0
1472.291138 116.0
1472.474365 136.0
1472.955566 192.0
1473.192383 104.0
1473.368164 84.0
1473.63562 204.0
1473.769409 164.0
1473.864746 176.0
1474.025269 128.0
1474.353882 168.0
1474.533569 148.0
1474.809204 176.0
1474.919434 152.0
1475.041748 160.0
1475.370483 112.0
1475.439331 80.0
1475.951538 80.0
1476.272705 180.0
1476.356934 36.0
1476.463867 220.0
1477.006958 200.0
1477.083496 224.0
1477.182983 164.0
1477.94043 160.0
1478.322998 160.0
1478.775879 140.0
1478.866333 128.0
1479.043945 164.0
1479.218506 120.0
1479.348633 96.0
1479.51709 232.0
1479.568237 124.0
1479.748413 188.0
1479.869263 88.0
1480.060669 152.0
1480.244507 128.0
1480.428223 180.0
1480.719238 140.0
1481.53894 148.0
1482.293701 224.0
1482.389404 84.0
1482.496704 200.0
1482.565674 136.0
1483.002808 184.0
1483.086792 160.0
1483.148193 120.0
1483.393433 180.0
1484.650879 184.0
1484.858032 192.0
1485.115601 196.0
1485.272217 188.0
1485.709473 120.0
1485.916626 120.0
1486.000977 196.0
1486.185181 124.0
1486.262085 152.0
1486.492065 148.0
1486.630249 216.0
1486.799072 228.0
1486.891113 124.0
1486.952515 204.0
1487.282593 116.0
1487.781982 168.0
1488.134766 192.0
1489.017822 152.0
1490.016479 204.0
1490.677368 232.0
1490.74646 116.0
1491.138428 80.0
1491.545776 140.0
1491.630371 168.0
1492.060913 180.0
1492.176147 112.0
1492.845215 132.0
1493.060547 152.0
1493.799683 172.0
1494.234253 204.0
1494.42981 156.0
1495.237793 164.0
1495.3302 132.0
1495.953613 140.0
1496.015259 152.0
1496.146118 176.0
1496.307861 196.0
1496.438721 124.0
1497.077881 144.0
1497.131714 164.0
1497.216431 184.0
1497.293457 192.0
1497.355103 176.0
1497.462891 80.0
1497.555298 196.0
1497.80957 132.0
1498.156128 148.0
1499.042236 208.0
1499.466187 160.0
1500.052002 96.0
1500.452881 144.0
1500.799805 116.0
1500.953979 100.0
1501.34314 176.0
1501.794678 164.0
1502.056885 220.0
1502.164917 156.0
1502.427246 204.0
1502.812988 136.0
1502.967285 96.0
1503.07959 188.0
1503.630981 152.0
1503.823975 180.0
1504.317993 216.0
1504.418335 120.0
1504.487793 88.0
1504.71167 68.0
1504.982788 168.0
