>compound MLS001140909-01!
>formula C23H28N4O3
>ionization [M+H]+
>parentmass 409.2234172080905
#inchi InChI=1S/C23H28N4O3/c1-14(2)18(20(28)25-11-6-7-12-25)27-21(29)23(3)19-16(10-13-26(23)22(27)30)15-8-4-5-9-17(15)24-19/h4-5,8-9,14,18,24H,6-7,10-13H2,1-3H3/t18-,23-/m0/s1
#inchikey UKKHCHPPOXFENX
#Ion_Source LC-ESI
#Instrument qTof
#Compound_Source NIH Natural Product Library
#PI Dorrestein
#Data_Collector VVP/LMS
#Scan -1
#Precursor_MZ 409.224
#ExactMass 408.216
#Charge 1
#CAS_Number N/A
#Pubmed_ID N/A
#Smiles CC(C)[C@H](N1C(=O)N2CCc3c([nH]c4ccccc34)[C@@]2(C)C1=O)C(=O)N5CCCC5
#INCHI_AUX N/A
#Library_Class 1
#SpectrumID CCMSLIB00000079905
#IonMode Positive
#UpdateWorkflowName UPDATE-SINGLE-ANNOTATED-GOLD
#LibraryQualityString Gold
#TaskID b1d8e8f6646f4e71acdff9ca3d919d08
##Scan# 2245
#SpectrumFile p1-F12_GF12_01_17944.mzXML
#LibraryName NIH_Natural_Products_Library.mgf
#MQScore -1
#Organism NIH_Natural_Products_Library
#TIC_Query 0
#RT_Query -1
#MZErrorPPM -1
#SharedPeaks 0
#MassDiff 0
#LibMZ -1
#SpecMZ 409.224
#SpecCharge 0
#internalFilename spec-00000.mgf

>collision 10
94.975395 208.0
95.209541 148.0
95.228149 248.0
95.423286 244.0
95.485512 148.0
95.503014 180.0
95.523811 168.0
95.545815 56.0
95.594452 64.0
95.613914 116.0
95.627541 168.0
95.68399 128.0
95.759933 188.0
95.793045 64.0
95.824219 232.0
95.991196 144.0
96.079903 360.0
96.130341 144.0
96.169373 148.0
96.203346 228.0
96.231842 140.0
96.286522 124.0
96.3881 144.0
96.442329 236.0
96.495003 176.0
96.58165 164.0
96.881142 220.0
96.916412 148.0
97.03009 176.0
97.04969 164.0
97.08918 204.0
97.108521 148.0
97.122253 240.0
97.153641 180.0
97.173256 208.0
97.198769 176.0
97.238014 120.0
97.344025 280.0
97.367592 172.0
97.414726 120.0
97.497055 196.0
97.566444 120.0
97.589584 136.0
97.617752 208.0
97.638802 60.0
97.656502 128.0
97.69191 128.0
97.746994 240.0
97.812408 168.0
97.835564 28.0
97.920464 104.0
97.981255 176.0
98.059631 1572.0
98.209961 164.0
98.247444 140.0
98.275063 144.0
98.333366 88.0
98.359924 64.0
98.409279 196.0
98.48037 156.0
98.52375 172.0
98.577171 60.0
98.614723 96.0
98.648018 176.0
98.668098 172.0
98.828636 164.0
98.952988 192.0
98.97477 160.0
99.000511 164.0
99.062088 176.0
99.081436 140.0
99.13324 76.0
99.160324 208.0
99.165955 188.0
99.171646 304.0
99.192696 140.0
99.236313 40.0
99.291832 208.0
99.327538 144.0
99.375145 240.0
99.4188 92.0
99.462463 188.0
99.506142 64.0
99.551804 164.0
99.63324 240.0
99.807655 208.0
99.897957 176.0
99.9235 96.0
99.951363 284.0
99.977226 152.0
100.013054 132.0
100.036942 48.0
100.104637 176.0
100.147156 148.0
100.186295 172.0
100.245354 228.0
100.269981 164.0
100.29789 164.0
100.363678 156.0
100.395576 196.0
100.447433 224.0
100.513275 164.0
100.561172 116.0
100.651001 188.0
100.773964 128.0
100.864769 136.0
100.888756 196.0
100.939209 120.0
101.145378 196.0
101.218887 116.0
101.337059 132.0
101.387154 140.0
101.469894 144.0
101.54554 212.0
101.657715 144.0
101.681969 272.0
101.700027 72.0
101.716087 104.0
101.756233 156.0
101.795181 152.0
101.80175 60.0
101.809822 192.0
101.888786 80.0
101.950081 160.0
102.054169 168.0
102.093903 172.0
102.125992 44.0
102.176277 196.0
102.194382 152.0
102.264816 100.0
102.363464 148.0
102.444031 120.0
102.531898 164.0
102.617348 148.0
102.651627 212.0
102.728264 216.0
102.748436 84.0
102.78476 100.0
102.806595 112.0
102.829155 172.0
102.938042 192.0
102.992699 140.0
103.031075 176.0
103.05352 188.0
103.073509 52.0
103.132858 212.0
103.149239 220.0
103.167381 188.0
103.185333 344.0
103.21096 188.0
103.308037 192.0
103.395042 176.0
103.415283 212.0
103.44767 164.0
103.500305 124.0
103.609673 116.0
103.629936 200.0
103.680595 160.0
103.804253 180.0
103.83873 172.0
103.898903 204.0
103.942192 140.0
103.988869 200.0
104.009361 208.0
104.035553 144.0
104.086311 124.0
104.102554 96.0
104.155052 240.0
104.2015 208.0
104.309792 172.0
104.397217 156.0
104.427719 140.0
104.443993 92.0
104.470177 124.0
104.518875 208.0
104.613106 148.0
104.641388 120.0
104.659714 208.0
104.718773 136.0
104.740875 136.0
104.757469 88.0
104.824707 148.0
104.875656 124.0
104.896042 128.0
104.912346 76.0
104.935989 168.0
105.018379 156.0
105.106102 136.0
105.146919 96.0
105.187355 212.0
105.257156 96.0
105.293915 36.0
105.34906 144.0
105.44165 204.0
105.457359 96.0
105.479843 116.0
105.627068 208.0
105.658661 144.0
105.747787 248.0
105.798965 36.0
105.854248 192.0
105.87677 176.0
105.901352 44.0
105.92926 160.0
105.971001 116.0
105.993538 232.0
106.064629 116.0
106.067535 144.0
106.331902 164.0
106.397591 180.0
106.473892 148.0
106.516693 60.0
106.575539 180.0
106.594292 192.0
106.697258 148.0
106.74894 148.0
106.785957 176.0
106.818153 220.0
106.892929 176.0
106.929977 236.0
106.999962 120.0
107.016434 176.0
107.05954 360.0
107.078209 132.0
107.13382 188.0
107.185272 140.0
107.208 212.0
107.247154 136.0
107.282196 152.0
107.366737 376.0
107.484322 132.0
107.521469 108.0
107.552422 208.0
107.575134 152.0
107.615631 304.0
107.670998 140.0
107.719681 136.0
107.791992 104.0
107.866394 196.0
107.959862 156.0
108.009071 176.0
108.042908 344.0
108.066994 96.0
108.132233 160.0
108.189102 128.0
108.224297 156.0
108.253288 64.0
108.267784 100.0
108.300926 120.0
108.377571 148.0
108.403717 168.0
108.425232 120.0
108.506073 80.0
108.537178 80.0
108.557907 168.0
108.578651 116.0
108.628426 156.0
108.773682 224.0
108.873344 244.0
108.935654 188.0
108.956429 188.0
108.977203 112.0
109.01461 152.0
109.045784 212.0
109.219391 128.0
109.259956 176.0
109.326538 124.0
109.34111 76.0
109.405632 180.0
109.441025 120.0
109.52137 124.0
109.526848 152.0
109.561829 48.0
109.58474 128.0
109.617088 168.0
109.625465 88.0
109.633316 128.0
109.682686 176.0
109.718124 164.0
109.832817 144.0
109.855576 180.0
109.918358 68.0
109.937134 68.0
110.060295 136.0
110.106285 164.0
110.140533 160.0
110.331902 168.0
110.39254 112.0
110.566177 144.0
110.622688 84.0
110.719002 108.0
110.765083 56.0
110.876129 192.0
111.064095 104.0
111.127533 148.0
111.167625 56.0
111.245285 88.0
111.272575 168.0
111.316666 116.0
111.371895 216.0
111.404884 160.0
111.419586 316.0
111.454643 204.0
111.545677 236.0
111.59613 212.0
111.631874 76.0
111.7118 204.0
111.732834 332.0
111.779907 196.0
111.804375 172.0
111.842262 184.0
111.871735 224.0
111.894691 128.0
111.901932 116.0
111.958061 84.0
111.98333 208.0
112.0065 116.0
112.027565 188.0
112.09288 100.0
112.158211 156.0
112.187721 196.0
112.27417 164.0
112.394409 84.0
112.445061 88.0
112.533714 112.0
112.561668 184.0
112.594955 40.0
112.675522 152.0
112.717484 120.0
112.770309 168.0
112.797791 188.0
112.823158 40.0
112.876015 188.0
112.892929 144.0
112.924652 96.0
112.981766 244.0
113.000809 64.0
113.032883 200.0
113.06852 176.0
113.136253 200.0
113.190025 172.0
113.339577 60.0
113.370956 168.0
113.386398 360.0
113.417992 176.0
113.434952 36.0
113.518738 160.0
113.770119 228.0
113.816833 200.0
113.852928 140.0
113.891159 148.0
113.910278 84.0
113.927078 132.0
113.965515 172.0
114.001633 172.0
114.082405 112.0
114.132149 152.0
114.242981 196.0
114.337646 172.0
114.408165 368.0
114.439819 72.0
114.505836 108.0
114.548431 212.0
114.56974 160.0
114.708252 88.0
114.827652 156.0
114.848984 132.0
114.870316 196.0
114.890892 328.0
114.915115 120.0
114.955658 184.0
115.054741 428.0
115.086609 496.0
115.130249 112.0
115.160606 68.0
115.20282 152.0
115.235374 204.0
115.352913 120.0
115.420555 144.0
115.534683 124.0
115.660934 60.0
115.687515 96.0
115.708031 128.0
115.748344 164.0
115.774406 140.0
115.827957 152.0
115.877228 160.0
115.954369 96.0
115.980087 156.0
116.000328 196.0
116.017479 180.0
116.052979 208.0
116.072273 148.0
116.089432 144.0
116.116409 212.0
116.195129 172.0
116.282509 192.0
116.312561 120.0
116.407021 88.0
116.516563 220.0
116.542351 84.0
116.570374 180.0
116.611542 220.0
116.735802 188.0
116.757309 144.0
116.821838 196.0
116.920853 192.0
116.974617 176.0
117.037773 132.0
117.06855 1160.0
117.09375 220.0
117.110275 208.0
117.187828 144.0
117.217995 80.0
117.351631 148.0
117.368881 148.0
117.427101 172.0
117.636406 52.0
117.806999 220.0
117.889107 180.0
117.976921 216.0
118.023384 168.0
118.063919 324.0
118.168037 84.0
118.183182 64.0
118.211311 36.0
118.291389 108.0
118.393158 120.0
118.41597 180.0
118.434303 168.0
118.466797 164.0
118.5578 132.0
118.577301 152.0
118.627159 160.0
118.746414 144.0
118.8228 56.0
118.901154 276.0
118.933159 112.0
119.071602 264.0
119.085968 160.0
119.187096 388.0
119.26004 212.0
119.324028 176.0
119.384911 100.0
119.443634 212.0
119.520889 172.0
119.554596 256.0
119.667786 152.0
119.709152 152.0
119.746178 168.0
119.778847 144.0
119.820236 228.0
119.983688 144.0
120.075272 120.0
120.103783 224.0
120.138527 96.0
120.207008 212.0
120.249817 128.0
120.324028 76.0
120.448509 124.0
120.475777 116.0
120.540268 184.0
120.634529 156.0
120.65464 204.0
120.67141 144.0
120.695465 156.0
120.723892 148.0
120.743568 180.0
120.776375 180.0
120.805298 144.0
120.870453 136.0
120.953613 220.0
120.975502 188.0
120.990829 156.0
121.13755 140.0
121.311295 168.0
121.42469 140.0
121.49707 148.0
121.564087 140.0
121.580452 164.0
121.61557 48.0
121.630936 228.0
121.67128 144.0
121.874702 156.0
121.894478 196.0
121.916451 36.0
122.009003 268.0
122.043945 140.0
122.059341 148.0
122.081329 160.0
122.10112 120.0
122.129715 224.0
122.202309 124.0
122.241913 168.0
122.309746 256.0
122.34536 140.0
122.367378 272.0
122.402611 184.0
122.521545 188.0
122.620705 92.0
122.669189 156.0
123.013313 160.0
123.178474 136.0
123.201019 160.0
123.231949 124.0
123.247421 120.0
123.284561 252.0
123.47953 136.0
123.543678 68.0
123.625542 108.0
123.654854 196.0
123.698853 132.0
123.718506 84.0
123.755836 200.0
123.815933 156.0
123.858017 180.0
123.955498 40.0
123.988731 128.0
124.017204 308.0
124.074379 1200.0
124.121742 40.0
124.157227 132.0
124.248169 192.0
124.285881 184.0
124.361473 128.0
124.432373 72.0
124.525635 132.0
124.596718 228.0
124.612267 148.0
124.734497 136.0
124.752281 144.0
124.854561 152.0
124.89682 188.0
124.941307 128.0
124.963554 104.0
125.078346 144.0
125.084351 200.0
125.154968 140.0
125.189278 116.0
125.228462 136.0
125.493645 224.0
125.634148 48.0
125.678764 248.0
125.710007 128.0
125.739021 60.0
125.926559 116.0
126.022614 44.0
126.080711 72.0
126.127625 340.0
126.174591 108.0
126.38707 156.0
126.624359 136.0
126.646759 204.0
126.790146 132.0
126.832733 124.0
126.868599 104.0
126.994354 148.0
127.018845 60.0
127.051659 272.0
127.072449 152.0
127.108582 164.0
127.135513 152.0
127.188042 176.0
127.195305 100.0
127.201241 140.0
127.225296 128.0
127.350731 176.0
127.396233 136.0
127.432671 204.0
127.461121 164.0
127.497078 136.0
127.530785 152.0
127.560013 124.0
127.580238 192.0
127.602722 176.0
127.63195 176.0
127.811897 76.0
127.833275 336.0
127.856903 140.0
127.895164 168.0
127.91774 136.0
128.018784 172.0
128.058365 224.0
128.102325 120.0
128.123993 236.0
128.275833 128.0
128.323181 92.0
128.377304 228.0
128.420151 188.0
128.471359 188.0
128.514893 124.0
128.553253 184.0
128.578079 156.0
128.605164 60.0
128.632248 192.0
128.693207 156.0
128.80838 160.0
128.896484 144.0
128.944138 276.0
129.020798 60.0
129.058502 364.0
129.088638 92.0
129.164536 144.0
129.283173 92.0
129.321655 100.0
129.396347 176.0
129.441635 192.0
129.536758 56.0
129.584335 228.0
129.609863 152.0
129.670441 96.0
129.69725 140.0
129.72258 132.0
129.745255 168.0
129.774719 108.0
129.811005 40.0
129.928482 196.0
130.065811 1760.0
130.119583 164.0
130.174072 140.0
130.19516 204.0
130.217224 180.0
130.501282 176.0
130.530838 104.0
130.574478 104.0
130.630905 100.0
130.696579 116.0
130.774261 144.0
130.831161 132.0
130.869873 180.0
130.979187 132.0
131.017914 292.0
131.047531 188.0
131.070358 204.0
131.115891 120.0
131.238983 92.0
131.264923 220.0
131.387238 116.0
131.487625 128.0
131.578934 144.0
131.825623 204.0
131.855331 208.0
131.910187 216.0
131.994781 160.0
132.05423 188.0
132.08168 188.0
132.106842 128.0
132.167679 244.0
132.237274 92.0
132.337997 116.0
132.363174 216.0
132.426468 432.0
132.447922 236.0
132.583481 168.0
132.612885 68.0
132.775665 96.0
132.809631 148.0
132.954605 164.0
133.007401 84.0
133.101532 136.0
133.163528 116.0
133.202576 84.0
133.243927 156.0
133.393311 172.0
133.540466 104.0
133.627884 96.0
133.662384 120.0
133.759048 132.0
133.814301 148.0
133.86496 52.0
134.003159 124.0
134.06076 172.0
134.091751 116.0
134.127609 84.0
134.15065 188.0
134.316681 100.0
134.335129 144.0
134.522049 136.0
134.677017 184.0
134.711411 32.0
134.731339 160.0
134.803833 124.0
134.849487 200.0
134.924011 120.0
134.979507 164.0
135.054337 668.0
135.111343 120.0
135.192322 192.0
135.224731 132.0
135.289536 136.0
135.377518 160.0
135.415207 164.0
135.493332 188.0
135.609192 52.0
135.725113 172.0
135.745972 196.0
135.892105 36.0
136.005814 196.0
136.051819 196.0
136.145126 136.0
136.220428 192.0
136.398376 132.0
136.444244 212.0
136.516251 188.0
136.612305 136.0
136.661163 124.0
136.693741 136.0
136.71579 160.0
136.85434 200.0
137.066315 136.0
137.168854 40.0
137.201492 92.0
137.231796 176.0
137.336731 52.0
137.376389 168.0
137.414017 64.0
137.473206 132.0
137.559158 176.0
137.605103 80.0
137.647125 76.0
137.717194 76.0
137.747559 172.0
137.763901 168.0
137.812973 220.0
137.871384 52.0
137.893158 128.0
137.953186 156.0
137.983582 260.0
138.042038 64.0
138.072433 172.0
138.23027 188.0
138.24556 232.0
138.285339 396.0
138.327713 180.0
138.435181 152.0
138.493347 200.0
138.549942 92.0
138.594452 168.0
138.651978 200.0
138.741516 204.0
138.817139 184.0
138.927383 160.0
139.035309 128.0
139.089294 196.0
139.134109 132.0
139.169113 200.0
139.240067 132.0
139.278503 192.0
139.385208 108.0
139.418106 196.0
139.460419 176.0
139.653214 132.0
139.706757 168.0
139.763779 100.0
139.832031 120.0
139.862625 216.0
139.88562 156.0
139.914856 208.0
139.952087 60.0
139.968567 144.0
140.025085 120.0
140.126373 160.0
140.156998 120.0
140.20929 188.0
140.232407 136.0
140.294937 144.0
140.332031 140.0
140.409241 176.0
140.472916 76.0
140.501221 132.0
140.555496 112.0
140.695053 188.0
140.79628 192.0
140.845871 360.0
140.98291 128.0
141.001572 232.0
141.046722 180.0
141.065216 156.0
141.099457 196.0
141.162567 148.0
141.190948 180.0
141.207504 144.0
141.389679 116.0
141.4086 112.0
141.448837 116.0
141.505661 144.0
141.531708 120.0
141.633545 236.0
141.768585 176.0
141.870499 340.0
141.889465 120.0
141.974823 60.0
142.029373 132.0
142.066254 532.0
142.091064 180.0
142.116028 212.0
142.14563 128.0
142.180817 164.0
142.189606 136.0
142.226318 116.0
142.257187 96.0
142.276169 132.0
142.354523 180.0
142.394897 200.0
142.418655 116.0
142.463776 308.0
142.548676 192.0
142.5802 96.0
142.630127 208.0
142.675293 88.0
142.739487 124.0
142.76326 148.0
142.779907 140.0
142.810822 160.0
142.844131 100.0
142.974991 180.0
142.997757 276.0
143.022217 104.0
143.039246 220.0
143.07222 1612.0
143.183563 232.0
143.242691 188.0
143.275009 56.0
143.302139 124.0
143.322662 136.0
143.39653 48.0
143.602814 140.0
143.651657 92.0
143.680695 188.0
143.71846 80.0
143.744202 188.0
143.760696 260.0
143.798401 168.0
143.811905 220.0
143.831467 148.0
143.846329 124.0
143.881378 168.0
143.905411 148.0
143.926117 224.0
143.945007 132.0
143.967697 204.0
143.988937 172.0
143.995956 196.0
144.006912 168.0
144.035797 164.0
144.044586 172.0
144.080444 80932.0
144.122986 180.0
144.129837 176.0
144.13797 104.0
144.149094 140.0
144.166809 320.0
144.200134 40.0
144.223923 172.0
144.244797 184.0
144.268814 184.0
144.309433 216.0
144.358795 56.0
144.384644 124.0
144.400055 100.0
144.416138 196.0
144.468765 60.0
144.500381 136.0
144.526077 84.0
144.543884 164.0
144.561966 88.0
144.58696 172.0
144.607437 48.0
144.633759 36.0
144.67128 88.0
144.691208 80.0
144.710114 76.0
144.729095 156.0
144.735779 192.0
144.808548 76.0
144.826645 36.0
144.84108 48.0
144.866028 84.0
144.882797 192.0
144.901978 36.0
144.924789 232.0
144.952286 140.0
144.980042 48.0
145.012238 280.0
145.08284 8208.0
145.130463 76.0
145.156036 160.0
145.210312 88.0
145.230377 52.0
145.251968 60.0
145.284225 128.0
145.30954 40.0
145.335938 48.0
145.383926 176.0
145.420441 208.0
145.479309 104.0
145.525558 96.0
145.542358 48.0
145.592636 120.0
145.628815 84.0
145.657639 84.0
145.67926 44.0
145.704422 160.0
145.753738 72.0
145.820328 124.0
145.845581 112.0
145.920151 228.0
145.955643 68.0
145.991623 112.0
146.025909 116.0
146.048431 144.0
146.086349 244.0
146.11615 132.0
146.161102 116.0
146.18898 148.0
146.227798 124.0
146.251633 164.0
146.301804 136.0
146.321365 56.0
146.345825 196.0
146.367035 140.0
146.386368 132.0
146.412857 128.0
146.443542 76.0
146.468262 52.0
146.485123 72.0
146.504242 184.0
146.663437 84.0
146.78479 204.0
146.839432 300.0
146.878036 124.0
146.896896 156.0
146.923569 164.0
146.950012 148.0
146.984177 56.0
147.061127 128.0
147.107269 76.0
147.148315 44.0
147.172455 152.0
147.220749 104.0
147.253937 124.0
147.276291 184.0
147.428513 124.0
147.482498 188.0
147.54306 192.0
147.595306 204.0
147.624313 72.0
147.699295 144.0
147.764603 224.0
147.800903 52.0
147.844452 68.0
147.863815 196.0
147.895279 40.0
147.946121 120.0
147.980682 244.0
148.040543 64.0
148.088974 176.0
148.139847 112.0
148.166504 260.0
148.231918 140.0
148.285233 96.0
148.345825 176.0
148.413712 44.0
148.445236 132.0
148.538208 348.0
148.607742 80.0
148.823761 60.0
148.857758 60.0
148.940338 48.0
148.994583 216.0
149.06424 156.0
149.103577 168.0
149.193054 92.0
149.250427 208.0
149.309769 64.0
149.494659 120.0
149.521423 60.0
149.623657 144.0
149.672348 40.0
149.714798 128.0
149.772202 48.0
149.84198 220.0
149.876678 136.0
149.947281 224.0
150.047577 132.0
150.301224 124.0
150.393967 176.0
150.486725 108.0
150.538315 188.0
150.647919 132.0
150.691895 140.0
150.726105 136.0
150.838516 220.0
150.904526 204.0
151.123306 392.0
151.163803 180.0
151.249466 176.0
151.278839 88.0
151.322906 112.0
151.422745 176.0
151.489441 232.0
151.558029 84.0
151.60704 56.0
151.727142 184.0
151.757065 80.0
151.798248 124.0
151.839935 208.0
151.90126 124.0
151.979767 164.0
152.011536 156.0
152.041107 104.0
152.107376 176.0
152.176117 128.0
152.316101 164.0
152.367691 252.0
152.409271 212.0
152.556915 168.0
152.576584 120.0
152.652435 108.0
152.707291 172.0
152.856979 128.0
152.916046 100.0
152.975113 100.0
153.061279 128.0
153.100693 180.0
153.135162 132.0
153.250946 120.0
153.268188 144.0
153.329803 100.0
153.361847 76.0
153.398819 152.0
153.44812 56.0
153.514694 128.0
153.689835 92.0
153.721909 184.0
153.795944 204.0
153.820633 72.0
153.857666 160.0
153.887283 160.0
153.963837 116.0
154.059692 504.0
154.123444 196.0
154.183701 228.0
154.201004 80.0
154.323059 156.0
154.379013 88.0
154.475464 108.0
154.63382 192.0
154.688278 128.0
154.72789 136.0
154.746567 152.0
154.812073 160.0
154.923538 104.0
154.963638 128.0
155.025009 184.0
155.056641 384.0
155.07811 180.0
155.149048 208.0
155.232361 180.0
155.258911 244.0
155.352402 172.0
155.387131 152.0
155.416901 48.0
155.476456 208.0
155.538513 124.0
155.590378 152.0
155.853912 124.0
155.913544 104.0
155.968658 136.0
156.082489 400.0
156.189529 284.0
156.24765 196.0
156.274109 96.0
156.333832 88.0
156.41098 176.0
156.493134 132.0
156.51207 132.0
156.578552 144.0
156.694305 192.0
156.760788 124.0
156.809494 112.0
156.84906 156.0
156.899826 116.0
156.93663 112.0
156.993988 168.0
157.013931 184.0
157.051346 140.0
157.084976 132.0
157.163605 128.0
157.230988 164.0
157.284332 192.0
157.318344 104.0
157.353302 48.0
157.673035 148.0
157.704315 192.0
157.758011 184.0
157.800507 128.0
157.868027 248.0
157.885529 88.0
157.910538 76.0
157.9478 156.0
157.992279 160.0
158.097 192.0
158.155731 140.0
158.308456 168.0
158.332214 164.0
158.366058 136.0
158.423676 176.0
158.483795 168.0
158.518875 184.0
158.593109 156.0
158.616623 128.0
158.685791 156.0
158.798264 208.0
158.829758 124.0
158.857361 228.0
158.879929 176.0
158.901047 156.0
159.065628 196.0
159.085129 364.0
159.153503 184.0
159.226318 188.0
159.246414 152.0
159.297256 148.0
159.339355 152.0
159.452438 156.0
159.532867 128.0
159.580643 116.0
159.664963 172.0
159.695053 96.0
159.779327 208.0
159.806992 172.0
160.015701 156.0
160.044479 124.0
160.084152 188.0
160.116623 164.0
160.41394 64.0
160.479477 180.0
160.570267 232.0
160.618179 136.0
160.656586 128.0
160.787231 144.0
160.873047 208.0
160.982819 252.0
161.082642 188.0
161.124496 184.0
161.148605 180.0
161.227371 128.0
161.363159 160.0
161.38591 144.0
161.494659 44.0
161.727432 84.0
161.750214 148.0
161.770462 196.0
161.841354 204.0
161.878479 188.0
161.942734 112.0
162.023712 132.0
162.077164 244.0
162.163071 132.0
162.310104 204.0
162.403946 216.0
162.472427 100.0
162.500336 244.0
162.609451 172.0
162.662766 56.0
162.693222 136.0
162.733841 184.0
162.777008 208.0
162.859833 124.0
163.068649 160.0
163.104736 184.0
163.136276 184.0
163.193726 148.0
163.229309 120.0
163.357986 64.0
163.376831 100.0
163.476059 116.0
163.512039 148.0
163.603333 212.0
163.69989 156.0
163.745926 132.0
163.794312 112.0
163.929337 96.0
164.000702 156.0
164.120514 188.0
164.153671 200.0
164.299057 196.0
164.414703 136.0
164.574692 124.0
164.651306 164.0
164.858231 44.0
164.904236 120.0
165.003922 180.0
165.13945 188.0
165.162476 80.0
165.252014 144.0
165.318542 176.0
165.380661 364.0
165.413239 168.0
165.563049 132.0
165.677002 124.0
165.782043 172.0
165.828186 140.0
165.881882 80.0
165.903946 172.0
166.066528 368.0
166.102539 152.0
166.215424 148.0
166.261612 184.0
166.407928 252.0
166.58255 116.0
166.603104 136.0
166.632233 272.0
166.70845 184.0
166.729004 136.0
166.757278 196.0
166.790695 136.0
166.826675 104.0
167.004532 220.0
167.072983 624.0
167.381561 152.0
167.408157 112.0
167.444016 148.0
167.471725 112.0
167.544678 32.0
167.634857 136.0
167.68898 132.0
167.730209 68.0
167.771454 92.0
167.789505 212.0
167.810135 108.0
167.84259 136.0
167.864273 164.0
167.950195 76.0
168.039612 152.0
168.079163 9204.0
168.135147 136.0
168.282288 48.0
168.411407 236.0
168.46048 112.0
168.480148 176.0
168.51474 156.0
168.553497 200.0
168.571579 176.0
168.605179 176.0
168.68013 172.0
168.747345 176.0
168.807709 232.0
168.933548 108.0
168.954239 60.0
169.024109 164.0
169.079559 2376.0
169.133499 172.0
169.202698 200.0
169.329575 140.0
169.371902 140.0
169.404694 176.0
169.44873 60.0
169.490189 148.0
169.614578 156.0
169.66124 164.0
169.739822 104.0
169.85054 176.0
169.905029 36.0
169.962555 208.0
170.024384 196.0
170.063293 720.0
170.083801 1356.0
170.12384 188.0
170.132538 60.0
170.140259 168.0
170.174942 68.0
170.198303 132.0
170.229462 140.0
170.255203 136.0
170.333359 196.0
170.351532 92.0
170.396683 52.0
170.47966 80.0
170.533432 68.0
170.554214 164.0
170.587051 120.0
170.679001 148.0
170.731018 152.0
170.762222 340.0
170.785629 108.0
170.815659 176.0
170.850662 96.0
170.876678 252.0
170.910507 100.0
170.996384 156.0
171.091827 1144.0
171.209854 144.0
171.241119 136.0
171.315445 144.0
171.410446 132.0
171.548584 104.0
171.581207 156.0
171.618973 172.0
171.793701 220.0
171.853714 108.0
172.049454 152.0
172.086746 140.0
172.263596 140.0
172.532761 108.0
172.783829 140.0
172.828308 92.0
172.898956 228.0
172.922516 248.0
172.947113 224.0
172.974854 124.0
173.044876 204.0
173.082199 144.0
173.103149 128.0
173.176468 152.0
173.236725 140.0
173.299866 184.0
173.308487 132.0
173.359863 76.0
173.509262 104.0
173.645615 136.0
173.679718 176.0
173.71907 196.0
173.789444 160.0
173.855499 156.0
173.968369 148.0
174.057632 124.0
174.078644 120.0
174.136414 76.0
174.160049 188.0
174.178436 200.0
174.2724 240.0
174.322647 156.0
174.39653 144.0
174.433319 180.0
174.464066 144.0
174.655594 176.0
174.806793 132.0
174.912064 244.0
174.967346 104.0
175.130615 156.0
175.270233 160.0
175.296585 112.0
175.33522 272.0
175.359833 104.0
175.396744 96.0
175.436279 168.0
175.549652 92.0
175.626419 148.0
175.850403 348.0
175.955994 228.0
175.985031 140.0
176.006165 68.0
176.114441 172.0
176.159332 116.0
176.278229 128.0
176.304657 196.0
176.357513 188.0
176.611343 88.0
176.722458 72.0
176.801834 272.0
176.841537 92.0
177.013611 136.0
177.061279 108.0
177.145203 188.0
177.21228 188.0
177.267914 184.0
177.326218 124.0
177.377151 92.0
177.54892 36.0
177.56749 52.0
177.62442 268.0
177.739914 168.0
177.830154 124.0
177.87793 200.0
177.96312 180.0
177.997391 224.0
178.077072 188.0
178.167374 128.0
178.193954 176.0
178.223175 312.0
178.273666 204.0
178.40921 100.0
178.491638 176.0
178.539505 140.0
178.651215 84.0
178.701767 132.0
178.749664 144.0
178.773605 60.0
178.837479 144.0
178.941299 92.0
179.066452 144.0
179.127716 136.0
179.162354 100.0
179.279587 72.0
179.343552 188.0
179.378204 220.0
179.456589 208.0
179.472809 164.0
179.706223 184.0
179.943756 304.0
179.967789 120.0
180.185516 208.0
180.210846 168.0
180.258942 184.0
180.311722 176.0
180.438019 168.0
180.491501 152.0
180.630569 144.0
180.734909 168.0
180.767014 188.0
180.849976 148.0
180.884781 44.0
180.959732 200.0
181.037384 184.0
181.056137 196.0
181.099289 172.0
181.160599 108.0
181.218796 220.0
181.267944 176.0
181.332077 108.0
181.428574 216.0
181.484879 184.0
181.546555 140.0
181.849716 48.0
181.916824 140.0
182.026901 188.0
182.066666 168.0
182.09816 788.0
182.171936 160.0
182.204163 132.0
182.231033 168.0
182.457764 144.0
182.505188 152.0
182.585861 108.0
182.62352 92.0
182.713898 168.0
182.736496 116.0
182.795685 92.0
182.919495 148.0
182.971237 108.0
183.009338 148.0
183.046829 136.0
183.090546 5876.0
183.130798 160.0
183.159973 108.0
183.180695 44.0
183.246201 64.0
183.307617 108.0
183.334274 216.0
183.366608 104.0
183.512177 196.0
183.552628 188.0
183.663193 44.0
183.874695 184.0
183.897934 76.0
183.93573 104.0
183.960022 72.0
184.008606 224.0
184.032913 184.0
184.102051 976.0
184.165237 208.0
184.191925 132.0
184.235474 60.0
184.273285 180.0
184.316422 112.0
184.366608 240.0
184.392181 324.0
184.420425 160.0
184.540863 180.0
184.567902 160.0
184.616776 328.0
184.633347 140.0
184.665253 156.0
184.695007 176.0
184.73558 80.0
184.774551 212.0
184.801376 300.0
184.872421 216.0
184.932556 276.0
184.97699 692.0
184.998398 268.0
185.005508 332.0
185.025696 352.0
185.107208 109912.0
185.158524 124.0
185.205353 44.0
185.210541 104.0
185.244507 164.0
185.28302 108.0
185.30661 100.0
185.32547 132.0
185.333527 152.0
185.378891 140.0
185.430557 44.0
185.461136 272.0
185.483444 156.0
185.499969 116.0
185.551407 240.0
185.608124 72.0
185.625839 160.0
185.689026 44.0
185.720825 116.0
185.745148 172.0
185.778534 124.0
185.84639 428.0
185.8797 264.0
185.908768 72.0
185.950912 228.0
185.992584 164.0
186.030273 152.0
186.109344 16024.0
186.184921 188.0
186.231857 48.0
186.266205 68.0
186.312836 124.0
186.359329 96.0
186.397568 120.0
186.419617 104.0
186.446487 100.0
186.47226 148.0
186.52742 144.0
186.563354 80.0
186.593262 36.0
186.626465 76.0
186.699677 60.0
186.726501 92.0
186.745544 152.0
186.780899 48.0
186.810822 32.0
186.956558 148.0
187.001587 224.0
187.021286 196.0
187.088455 424.0
187.113113 1072.0
187.145569 120.0
187.172806 136.0
187.206375 196.0
187.234131 196.0
187.279434 128.0
187.311707 124.0
187.346848 192.0
187.383301 256.0
187.412842 128.0
187.433029 60.0
187.441452 100.0
187.457581 96.0
187.478806 72.0
187.495163 104.0
187.516891 248.0
187.569199 144.0
187.600067 156.0
187.646561 192.0
187.70517 176.0
187.824158 92.0
187.899902 156.0
187.981033 184.0
188.084412 208.0
188.123825 88.0
188.151627 104.0
188.176193 56.0
188.238998 64.0
188.307678 180.0
188.386475 132.0
188.416534 144.0
188.435654 188.0
188.47937 72.0
188.513947 104.0
188.572281 128.0
188.636978 84.0
188.703491 192.0
188.729523 152.0
188.76091 160.0
188.853897 152.0
188.894928 112.0
188.92775 36.0
188.968796 164.0
188.999039 72.0
189.023514 140.0
189.202744 124.0
189.297256 140.0
189.417755 80.0
189.447891 60.0
189.488983 64.0
189.525436 120.0
189.559799 172.0
189.595856 76.0
189.656143 68.0
190.092209 200.0
190.116913 36.0
190.150284 100.0
190.177292 140.0
190.198807 152.0
190.256897 228.0
190.438126 128.0
190.590591 104.0
190.673462 152.0
190.777039 176.0
190.891586 140.0
190.979187 216.0
191.020844 68.0
191.059357 64.0
191.078613 236.0
191.111633 36.0
191.168533 148.0
191.225906 220.0
191.334564 180.0
191.37587 136.0
191.419922 176.0
191.604462 148.0
191.896606 124.0
192.067581 160.0
192.202759 128.0
192.2276 76.0
192.24968 144.0
192.271744 72.0
192.426331 124.0
192.542297 120.0
192.56163 164.0
192.899323 148.0
192.962311 96.0
192.98996 52.0
193.07016 128.0
193.099655 276.0
193.396622 112.0
193.593903 156.0
193.648575 80.0
193.77449 136.0
193.850739 136.0
193.987808 140.0
194.07811 160.0
194.116928 236.0
194.316635 200.0
194.388779 88.0
194.55809 148.0
194.674713 188.0
194.736877 156.0
194.802475 172.0
194.858032 108.0
194.883041 108.0
194.980301 168.0
195.010391 232.0
195.058807 160.0
195.090485 356.0
195.203918 164.0
195.26944 132.0
195.478088 136.0
195.578476 220.0
195.625595 172.0
195.720245 148.0
195.776291 144.0
195.982162 128.0
196.070709 796.0
196.152069 172.0
196.207825 120.0
196.278442 148.0
196.573212 96.0
196.615067 140.0
196.688354 172.0
196.735092 88.0
196.787338 220.0
196.807678 88.0
196.919388 104.0
197.005981 180.0
197.060394 376.0
197.080597 476.0
197.128342 876.0
197.278305 232.0
197.331436 148.0
197.562286 128.0
197.886932 160.0
197.99054 136.0
198.034409 192.0
198.078003 140.0
198.088562 116.0
198.127167 988.0
198.357574 180.0
198.563583 244.0
198.698074 112.0
198.772659 36.0
198.803528 148.0
199.083405 392.0
199.129868 248.0
199.441055 52.0
199.469162 84.0
199.533829 208.0
199.561935 208.0
199.73349 104.0
199.767242 132.0
199.815063 144.0
200.000793 168.0
200.116211 84.0
200.138733 140.0
200.21759 108.0
200.271103 188.0
200.330246 52.0
200.355606 176.0
200.42041 160.0
200.476761 140.0
200.528427 136.0
200.654343 84.0
200.722015 252.0
200.750214 204.0
200.786865 80.0
200.967407 108.0
201.071808 96.0
201.091568 80.0
201.153671 108.0
201.24118 176.0
201.308945 124.0
201.331543 168.0
201.419098 92.0
201.444519 108.0
201.65361 160.0
201.814743 184.0
202.063644 144.0
202.097595 112.0
202.15419 192.0
202.251938 192.0
202.391953 180.0
202.462753 64.0
202.491074 116.0
202.523361 160.0
202.560257 140.0
202.760223 208.0
202.85376 180.0
202.907623 156.0
203.188385 144.0
203.236618 80.0
203.381348 68.0
204.12854 196.0
204.26506 160.0
204.392578 112.0
204.421539 104.0
204.492676 196.0
204.598007 120.0
204.637863 92.0
204.680573 156.0
204.726135 128.0
205.078796 168.0
205.113617 132.0
205.147812 196.0
205.244751 156.0
205.284668 128.0
205.364532 128.0
205.43869 72.0
205.470078 184.0
205.524277 80.0
205.555664 208.0
205.809708 224.0
205.963928 56.0
206.096313 176.0
206.355438 120.0
206.386887 192.0
206.469818 156.0
206.590698 176.0
206.664337 108.0
206.793106 132.0
206.979187 48.0
207.056503 128.0
207.088013 136.0
207.17395 92.0
207.35733 48.0
207.440445 68.0
207.512115 88.0
207.841965 80.0
208.019897 176.0
208.066391 168.0
208.109329 256.0
208.229507 156.0
208.30246 140.0
208.37027 196.0
208.479446 64.0
208.521851 196.0
208.709412 208.0
208.758301 72.0
208.801437 136.0
208.824448 92.0
208.976913 204.0
209.002808 232.0
209.066116 116.0
209.10141 216.0
209.1297 252.0
209.230179 164.0
209.316254 76.0
209.37236 132.0
209.555618 172.0
209.584427 128.0
209.639175 228.0
209.682404 56.0
209.760239 116.0
209.803467 128.0
209.846725 132.0
209.881317 188.0
209.947647 132.0
210.042816 188.0
210.098053 428.0
210.192841 52.0
210.213852 184.0
210.407211 176.0
210.455505 128.0
210.484375 164.0
210.521927 180.0
210.553528 148.0
210.641571 144.0
210.721222 92.0
210.805023 52.0
210.862823 88.0
210.956146 84.0
211.001572 160.0
211.08548 19888.0
211.193222 116.0
211.225204 128.0
211.276672 32.0
211.313919 44.0
211.348648 48.0
211.380478 152.0
211.406509 68.0
211.478867 164.0
211.513596 28.0
211.554123 104.0
211.609131 180.0
211.867584 84.0
211.950912 32.0
212.006729 92.0
212.038788 184.0
212.086655 2852.0
212.128555 148.0
212.157898 96.0
212.182785 36.0
212.240768 44.0
212.261063 92.0
212.2892 124.0
212.391571 128.0
212.533722 40.0
212.562744 96.0
212.67012 292.0
212.696243 72.0
212.731308 100.0
212.818176 72.0
212.866592 172.0
213.04071 96.0
213.100739 9696.0
213.173996 120.0
213.207413 60.0
213.242294 68.0
213.288574 52.0
213.366409 40.0
213.410904 88.0
213.501038 112.0
213.559204 44.0
213.582474 48.0
213.626755 180.0
213.679367 156.0
213.736801 168.0
213.838516 144.0
213.905472 136.0
214.059769 148.0
214.103851 2064.0
214.164612 204.0
214.23851 152.0
214.298004 192.0
214.386032 76.0
214.46843 220.0
214.496796 92.0
214.520111 136.0
214.680466 124.0
214.894623 56.0
214.957596 160.0
215.105072 332.0
215.158997 100.0
215.231979 100.0
215.369247 84.0
215.468567 100.0
215.500702 168.0
215.614655 148.0
215.706512 104.0
215.736725 116.0
215.851456 32.0
216.059113 84.0
216.11763 148.0
216.381042 116.0
216.477234 108.0
216.533234 156.0
216.644623 152.0
216.723724 144.0
216.805771 168.0
216.869476 148.0
216.899551 196.0
216.943527 160.0
217.151718 148.0
217.302383 188.0
217.354767 148.0
217.433365 96.0
217.674088 220.0
217.844437 188.0
217.96489 132.0
218.235306 52.0
218.309052 152.0
218.402939 180.0
218.444107 84.0
218.476471 68.0
218.929749 168.0
219.060623 140.0
219.109421 136.0
219.16246 32.0
219.18898 36.0
219.427719 204.0
219.814117 204.0
219.97644 212.0
220.259918 124.0
220.351501 256.0
220.608612 168.0
220.975327 216.0
221.055206 116.0
221.259445 80.0
221.502274 140.0
221.706711 56.0
221.801544 156.0
221.896408 164.0
221.946823 124.0
222.077301 140.0
222.131531 568.0
222.25827 212.0
222.448212 56.0
222.587753 56.0
222.632294 132.0
222.935303 116.0
223.009598 176.0
223.048233 144.0
223.113358 388.0
223.149323 132.0
223.205811 108.0
223.253387 44.0
223.348557 96.0
223.411026 156.0
223.759232 184.0
223.982574 144.0
224.003418 156.0
224.045135 128.0
224.087128 124.0
224.118256 408.0
224.176224 72.0
224.226898 172.0
224.359833 180.0
224.402771 52.0
224.530655 180.0
224.978561 80.0
225.072662 200.0
225.101456 480.0
225.136322 292.0
225.317856 192.0
225.399689 172.0
225.570038 124.0
225.650757 68.0
225.674667 184.0
225.707565 208.0
225.782318 180.0
226.021042 100.0
226.056549 156.0
226.095047 188.0
226.258087 104.0
226.362885 72.0
226.389664 148.0
226.668411 204.0
227.00415 132.0
227.031143 100.0
227.072922 284.0
227.098114 168.0
227.217102 108.0
227.379135 244.0
227.502213 48.0
227.634308 132.0
227.685364 248.0
227.868607 108.0
227.989624 172.0
228.045898 84.0
228.072311 260.0
228.110413 808.0
228.184174 416.0
228.337524 140.0
228.406708 136.0
228.70459 280.0
228.770813 152.0
228.90329 136.0
229.01384 124.0
229.109146 312.0
229.183426 156.0
229.270813 176.0
229.340134 132.0
229.499908 132.0
229.521011 188.0
229.656723 112.0
229.774368 224.0
229.876953 128.0
229.955414 180.0
229.988617 44.0
230.082626 180.0
230.18486 156.0
230.293579 224.0
230.67128 56.0
230.789185 184.0
230.883652 200.0
230.913162 164.0
231.009949 140.0
231.10173 72.0
231.245972 168.0
231.282288 164.0
231.333755 60.0
231.381256 156.0
231.406906 172.0
231.429932 140.0
231.612335 180.0
231.654739 208.0
231.724426 168.0
231.751694 148.0
231.869873 188.0
231.947784 184.0
231.975952 124.0
232.06691 208.0
232.112381 84.0
232.291321 100.0
232.370193 120.0
232.919678 144.0
233.111069 240.0
233.214401 136.0
233.317764 60.0
233.363358 52.0
233.393768 160.0
233.521484 124.0
233.676636 188.0
233.743576 28.0
234.109161 160.0
234.139313 132.0
234.264191 384.0
234.287354 96.0
234.492722 32.0
234.532349 116.0
234.617691 120.0
234.776245 168.0
234.800797 168.0
234.947067 176.0
235.12709 104.0
235.191177 92.0
235.236969 64.0
235.429321 96.0
235.490402 152.0
235.55455 180.0
235.762314 72.0
235.856308 180.0
235.948761 184.0
236.03743 188.0
236.120071 168.0
236.14447 84.0
236.185791 188.0
236.220932 112.0
236.299469 132.0
236.324951 192.0
236.505508 196.0
236.68306 228.0
236.719818 148.0
236.759628 112.0
236.795242 156.0
236.88826 200.0
236.945526 168.0
237.067841 200.0
237.12175 556.0
237.25293 212.0
237.369446 208.0
237.433838 120.0
237.565735 28.0
237.603699 160.0
237.774384 152.0
237.819061 136.0
237.844971 264.0
237.989258 140.0
238.097229 612.0
238.13327 340.0
238.16124 96.0
238.199387 172.0
238.259537 60.0
238.305618 92.0
238.456192 120.0
238.506577 256.0
238.652939 208.0
238.886673 216.0
238.945114 32.0
238.98819 132.0
239.079758 2772.0
239.152512 2400.0
239.219009 176.0
239.279495 136.0
239.302139 156.0
239.372955 92.0
239.43454 48.0
239.505386 68.0
239.659424 112.0
239.748779 72.0
239.970718 80.0
240.077377 2420.0
240.110519 3912.0
240.154739 480.0
240.189667 28.0
240.22052 204.0
240.277023 204.0
240.445755 60.0
240.488968 212.0
240.512863 200.0
240.541443 136.0
240.563049 76.0
240.630966 92.0
240.689636 116.0
240.739044 76.0
240.782272 116.0
240.881119 52.0
240.920654 140.0
241.083282 4580.0
241.116608 628.0
241.127747 736.0
241.167664 288.0
241.221024 68.0
241.24884 84.0
241.316864 64.0
241.437454 160.0
241.462204 72.0
241.505493 124.0
241.529083 128.0
241.541687 80.0
241.623047 36.0
241.653732 48.0
241.691116 200.0
241.728241 152.0
241.771576 68.0
241.842758 32.0
241.994446 48.0
242.028503 192.0
242.084229 728.0
242.136856 204.0
242.217407 116.0
242.270081 48.0
242.434296 52.0
242.602448 176.0
242.63266 180.0
242.765991 168.0
242.859039 72.0
242.927277 88.0
243.091721 160.0
243.132065 116.0
243.166199 116.0
243.222946 140.0
243.352448 116.0
243.449875 64.0
243.492188 240.0
243.513931 152.0
243.718964 140.0
243.830826 92.0
244.07579 184.0
244.136292 188.0
244.455902 60.0
244.59285 44.0
244.708893 144.0
244.960281 72.0
245.025711 84.0
245.140991 144.0
245.22052 124.0
245.340469 212.0
245.422806 128.0
245.53067 104.0
245.564987 48.0
245.671036 40.0
245.780228 184.0
245.836395 92.0
246.291794 144.0
246.34845 196.0
246.485916 152.0
246.532791 184.0
246.628418 220.0
246.837799 224.0
246.9142 172.0
246.961105 192.0
247.064331 164.0
247.15506 124.0
247.336578 68.0
247.78125 156.0
247.878387 120.0
248.160492 52.0
248.204391 72.0
248.285919 140.0
248.317276 244.0
248.373734 88.0
248.553848 284.0
248.599625 52.0
248.725174 32.0
248.887466 212.0
248.922958 100.0
248.963791 192.0
249.073715 96.0
249.138824 280.0
249.183655 108.0
249.215073 132.0
249.513657 32.0
249.538803 172.0
249.570251 100.0
249.617416 172.0
249.644745 168.0
249.758942 260.0
249.900101 156.0
249.990326 116.0
250.086166 180.0
250.121536 188.0
250.205795 68.0
250.319138 152.0
250.377258 176.0
250.493988 72.0
250.520706 172.0
251.024994 160.0
251.113297 220.0
251.154312 180.0
251.35791 140.0
251.615021 72.0
251.72554 120.0
251.760269 180.0
251.845093 120.0
251.877136 60.0
251.962433 144.0
252.012985 84.0
252.066696 80.0
252.113174 596.0
252.227875 84.0
252.379623 192.0
252.404922 92.0
252.803497 204.0
252.964905 108.0
253.080719 544.0
253.123657 380.0
253.215042 204.0
253.243561 104.0
253.484329 44.0
253.528687 156.0
253.703018 156.0
253.847626 184.0
254.048676 224.0
254.085159 160.0
254.12561 144.0
254.315231 148.0
254.350143 40.0
254.400925 172.0
254.607315 192.0
254.909103 196.0
255.001266 48.0
255.055298 148.0
255.09848 536.0
255.144318 36.0
255.31601 140.0
255.379623 40.0
255.440063 64.0
255.591217 148.0
255.68187 164.0
255.917435 72.0
255.946091 100.0
256.024414 128.0
256.061493 444.0
256.107178 14340.0
256.171936 148.0
256.176056 136.0
256.241058 44.0
256.289062 88.0
256.324585 92.0
256.376129 88.0
256.449432 56.0
256.612 76.0
256.742554 68.0
256.819275 52.0
256.902222 112.0
257.107758 2184.0
257.202179 48.0
257.432037 48.0
257.537445 148.0
257.6716 188.0
257.773834 96.0
257.815399 64.0
257.908081 36.0
258.115387 300.0
258.199036 160.0
258.231018 144.0
258.28537 176.0
258.320557 120.0
258.370331 204.0
258.419739 124.0
258.589783 148.0
258.674866 216.0
258.714172 120.0
258.742981 64.0
258.90152 252.0
259.095276 120.0
259.124115 148.0
259.22345 96.0
259.290741 72.0
259.476654 132.0
259.675476 200.0
259.733185 84.0
259.781311 180.0
259.816803 128.0
259.848694 60.0
259.909637 76.0
260.127869 128.0
260.153564 208.0
260.307678 64.0
260.355835 144.0
260.489716 204.0
260.61377 176.0
260.751007 56.0
260.919617 132.0
261.004974 96.0
261.027466 200.0
261.130371 176.0
261.230103 172.0
261.429565 56.0
261.464966 48.0
261.516479 68.0
261.812653 172.0
262.087402 532.0
262.150909 148.0
262.347534 104.0
262.389435 192.0
262.695801 184.0
262.970062 112.0
263.078064 240.0
263.163757 164.0
263.257416 52.0
263.367218 164.0
263.447968 156.0
263.473816 148.0
263.528748 160.0
263.667694 180.0
263.9263 128.0
263.971558 80.0
264.02655 216.0
264.148529 392.0
264.191498 156.0
264.234406 108.0
264.269135 168.0
264.39859 192.0
264.46817 216.0
264.923126 36.0
264.955505 112.0
265.129913 400.0
265.269775 164.0
265.331451 212.0
265.357391 120.0
265.441284 244.0
265.804993 216.0
265.915344 172.0
266.132324 712.0
266.164825 1880.0
266.282196 124.0
266.41214 88.0
266.454376 256.0
266.701355 160.0
266.82486 176.0
266.857391 76.0
267.097992 164.0
267.148865 1040.0
267.198883 152.0
267.237915 80.0
267.49826 144.0
267.674072 172.0
268.105499 668.0
268.147522 336.0
268.240967 116.0
268.312012 76.0
268.518127 112.0
268.583344 56.0
268.75238 192.0
268.785614 40.0
268.821533 92.0
269.123993 180.0
269.132935 120.0
269.143219 108.0
269.188599 168.0
269.262238 60.0
269.364624 220.0
269.399567 88.0
269.448425 156.0
269.572601 136.0
269.673889 176.0
269.840424 260.0
269.919098 156.0
270.030273 136.0
270.056427 172.0
270.108765 180.0
270.206909 144.0
270.360718 160.0
270.491638 128.0
270.53418 136.0
270.779755 156.0
270.874756 168.0
270.917816 116.0
270.943542 164.0
271.028717 204.0
271.136871 84.0
271.21225 172.0
271.277802 52.0
271.317139 188.0
271.356476 84.0
271.392548 116.0
271.546661 104.0
271.799286 180.0
272.048706 128.0
272.23587 156.0
272.324524 152.0
272.360657 188.0
272.39679 300.0
272.423065 140.0
272.672791 84.0
272.748383 152.0
272.965363 68.0
273.139862 152.0
273.182434 116.0
273.633301 60.0
273.692566 148.0
273.72879 100.0
273.750183 40.0
273.985687 156.0
274.01535 136.0
274.116913 112.0
274.219666 208.0
274.635101 128.0
274.697754 180.0
274.734039 176.0
274.852814 124.0
275.139465 232.0
275.19278 196.0
275.473511 152.0
275.688263 148.0
275.918152 232.0
276.002289 116.0
276.108673 312.0
276.518372 88.0
276.70282 172.0
276.80307 164.0
277.00177 144.0
277.068024 168.0
277.117981 1112.0
277.174072 132.0
277.23703 32.0
277.391296 124.0
277.472595 160.0
277.561127 124.0
277.658966 72.0
277.817261 108.0
277.847107 164.0
277.870331 132.0
277.93338 204.0
278.066132 232.0
278.128052 144.0
278.208862 180.0
278.364899 132.0
278.9729 128.0
279.084503 156.0
279.325409 220.0
279.455139 168.0
279.668121 100.0
279.823822 156.0
279.924469 104.0
280.067688 168.0
280.104309 280.0
280.126617 168.0
280.157623 92.0
280.21759 188.0
280.270905 84.0
280.377533 332.0
280.406738 152.0
280.460846 128.0
280.484192 164.0
280.517517 84.0
280.573334 108.0
280.604187 164.0
280.687561 132.0
280.760925 204.0
280.821381 216.0
280.948914 196.0
280.991058 216.0
281.011719 212.0
281.046844 180.0
281.124542 84.0
281.2547 204.0
281.443542 188.0
281.518463 104.0
281.54184 236.0
281.645355 140.0
281.705505 104.0
281.796814 108.0
281.829102 76.0
281.894745 132.0
281.962219 172.0
282.044312 168.0
282.095612 352.0
282.105133 496.0
282.158966 81580.0
282.27002 24.0
282.296753 80.0
282.352722 44.0
282.398163 108.0
282.421204 168.0
282.472931 168.0
282.530304 176.0
282.572235 192.0
282.60376 92.0
282.628082 172.0
282.653534 208.0
282.688934 48.0
282.740906 112.0
282.787048 104.0
282.864563 84.0
282.922089 140.0
283.009583 64.0
283.050964 164.0
283.07312 132.0
283.109863 104.0
283.161865 14824.0
283.272827 92.0
283.340088 72.0
283.378235 216.0
283.434479 168.0
283.463684 112.0
283.534485 76.0
283.570679 64.0
283.649689 88.0
283.673401 176.0
283.714966 84.0
283.770111 92.0
283.83136 148.0
283.860962 168.0
283.905304 180.0
283.970551 144.0
283.994202 64.0
284.030334 84.0
284.088959 244.0
284.124786 148.0
284.16333 2064.0
284.216461 100.0
284.248047 80.0
284.313782 56.0
284.451385 32.0
284.485901 72.0
284.527924 120.0
284.537964 96.0
284.551697 100.0
284.666718 148.0
284.701324 144.0
284.727661 112.0
284.790527 56.0
284.830841 128.0
284.863068 60.0
284.890076 156.0
284.928253 36.0
284.97644 152.0
284.999786 172.0
285.084869 248.0
285.165649 444.0
285.198547 240.0
285.226593 108.0
285.272888 204.0
285.302399 128.0
285.355072 44.0
285.43576 112.0
285.57077 212.0
285.661102 120.0
285.708191 64.0
285.735107 56.0
285.882263 120.0
286.022766 172.0
286.083618 108.0
286.112061 124.0
286.192841 184.0
286.273651 72.0
286.341034 128.0
286.371338 36.0
286.455536 72.0
286.522919 48.0
286.784576 68.0
287.784302 148.0
287.905853 180.0
287.928772 56.0
288.137299 108.0
288.257172 92.0
288.314636 160.0
288.378845 28.0
288.405884 96.0
288.476868 172.0
288.622253 60.0
288.666199 116.0
288.743988 48.0
288.808258 88.0
288.987549 72.0
289.092438 48.0
289.149963 124.0
289.278595 148.0
289.498657 112.0
289.657867 124.0
289.891632 176.0
290.079834 68.0
290.111938 128.0
290.172974 224.0
290.264038 148.0
290.383209 96.0
290.529053 36.0
290.742828 208.0
290.86499 140.0
291.010986 56.0
291.085693 100.0
291.292847 100.0
291.814728 128.0
291.90802 228.0
291.95224 196.0
292.037262 180.0
292.142639 2236.0
292.254974 52.0
292.278778 84.0
292.642975 120.0
292.932465 44.0
293.051697 156.0
293.096008 144.0
293.144348 584.0
293.183899 156.0
293.355011 220.0
293.474335 96.0
293.511841 92.0
293.697601 172.0
294.15036 152.0
294.296631 48.0
294.388824 84.0
294.563019 196.0
294.597168 152.0
294.74408 40.0
294.812439 136.0
295.12851 1384.0
295.26712 68.0
295.362885 168.0
295.564728 64.0
295.674225 84.0
295.75296 76.0
295.824829 56.0
296.131561 312.0
296.420776 76.0
296.520142 220.0
296.852692 108.0
297.044739 48.0
297.133942 40.0
297.243744 60.0
297.449677 48.0
297.63504 72.0
297.700287 104.0
297.841095 136.0
298.023193 188.0
298.222504 68.0
298.274048 196.0
298.356567 184.0
298.421875 44.0
298.586945 152.0
298.676636 212.0
298.755493 64.0
299.225983 184.0
299.674713 176.0
299.74707 120.0
299.905609 160.0
299.963928 100.0
300.267609 108.0
300.530853 88.0
300.591888 188.0
300.633301 216.0
300.691986 224.0
300.750641 120.0
301.327332 52.0
301.406799 204.0
301.586517 176.0
301.631439 200.0
301.842346 152.0
302.610474 156.0
302.946411 176.0
303.008759 132.0
303.102325 132.0
303.688202 120.0
303.788788 164.0
304.194794 64.0
304.278107 140.0
304.528137 160.0
304.795624 196.0
304.924225 116.0
304.97287 108.0
305.00415 120.0
305.164062 144.0
305.525757 68.0
305.630127 52.0
305.698303 164.0
305.758667 120.0
305.811096 108.0
305.898132 204.0
306.094391 64.0
306.396118 132.0
306.591248 148.0
306.849182 64.0
306.89798 148.0
307.121185 112.0
307.330505 68.0
307.497986 156.0
307.541718 128.0
307.623657 64.0
308.000763 356.0
308.102081 220.0
308.245331 120.0
308.373444 124.0
308.430573 144.0
308.556396 164.0
308.63681 176.0
308.675293 200.0
308.703247 140.0
308.73822 96.0
308.848175 340.0
308.881622 248.0
308.933716 108.0
308.958588 124.0
308.990631 108.0
309.061066 196.0
309.087219 312.0
309.156372 272.0
309.235016 148.0
309.267181 196.0
309.308533 120.0
309.38205 88.0
309.427551 116.0
309.451447 112.0
309.51239 208.0
309.541351 112.0
309.568848 148.0
309.602631 140.0
309.642456 140.0
309.652649 144.0
309.693512 244.0
309.737396 176.0
309.766266 128.0
309.82843 360.0
309.8591 448.0
309.897919 248.0
309.929688 152.0
309.958801 236.0
309.969971 172.0
309.986145 284.0
309.996033 116.0
310.028198 408.0
310.080536 336.0
310.086975 452.0
310.154999 162972.0
310.263 168.0
310.297913 140.0
310.388367 148.0
310.422058 348.0
310.473236 140.0
310.511993 148.0
310.541351 344.0
310.568268 100.0
310.613434 120.0
310.649933 144.0
310.73172 1148.0
310.777985 120.0
310.822266 116.0
310.862427 284.0
310.885864 136.0
310.961212 132.0
310.974915 120.0
311.031158 176.0
311.076233 156.0
311.15683 34652.0
311.234772 236.0
311.294373 100.0
311.319153 124.0
311.392883 272.0
311.425537 68.0
311.438904 120.0
311.49823 136.0
311.575562 176.0
311.609528 68.0
311.64679 112.0
311.681427 264.0
311.716705 176.0
311.76239 124.0
311.790588 60.0
311.826904 76.0
311.859497 44.0
311.934326 92.0
311.966888 132.0
312.004517 76.0
312.029846 76.0
312.072113 196.0
312.103485 112.0
312.159454 3276.0
312.205719 144.0
312.283966 32.0
312.335571 108.0
312.388702 96.0
312.424652 152.0
312.459839 32.0
312.521942 80.0
312.560669 176.0
312.629211 60.0
312.663574 84.0
312.67572 104.0
312.737061 76.0
312.789703 152.0
312.823486 132.0
312.846771 112.0
312.902008 184.0
312.946777 100.0
312.976074 180.0
313.021484 176.0
313.073944 112.0
313.130585 216.0
313.16095 424.0
313.254974 164.0
313.307861 96.0
313.334564 208.0
313.395233 100.0
313.424988 176.0
313.469208 80.0
313.476074 100.0
313.539978 112.0
313.57663 284.0
313.614288 272.0
313.638489 136.0
313.671265 136.0
313.727661 84.0
313.826385 76.0
313.957306 60.0
313.988586 52.0
314.063385 76.0
314.139862 72.0
314.171997 152.0
314.198669 136.0
314.242554 92.0
314.277863 112.0
314.304932 172.0
314.429596 52.0
314.464539 112.0
314.539001 52.0
314.606079 48.0
314.634308 96.0
314.704926 88.0
314.756653 80.0
314.88501 48.0
314.941528 64.0
314.996368 160.0
315.106628 168.0
315.220642 56.0
315.259491 76.0
315.666046 216.0
315.719086 64.0
315.77533 84.0
315.902985 52.0
315.987915 36.0
316.076355 72.0
316.161285 60.0
316.270996 40.0
316.458618 72.0
316.54715 80.0
316.947418 120.0
317.621002 124.0
317.723877 76.0
317.858704 184.0
318.283905 76.0
319.197876 52.0
319.46106 56.0
319.67453 96.0
319.720795 84.0
320.005554 128.0
320.917664 124.0
321.085266 52.0
321.199402 68.0
321.852509 40.0
321.881073 84.0
321.913208 72.0
322.064392 84.0
322.29541 68.0
322.47052 92.0
322.543884 136.0
322.767242 80.0
323.139221 120.0
323.192871 60.0
323.260864 104.0
323.432648 48.0
323.572266 28.0
323.729828 60.0
323.808594 160.0
323.901978 56.0
323.987701 40.0
324.489441 88.0
324.614929 96.0
324.650787 36.0
324.733276 132.0
324.862427 56.0
325.227112 120.0
325.605408 68.0
326.061676 32.0
326.557831 68.0
326.705322 84.0
326.780853 76.0
327.954834 88.0
328.080994 80.0
328.658051 84.0
328.870972 92.0
329.513733 80.0
330.862732 36.0
331.156036 36.0
332.185455 48.0
333.170624 168.0
333.256409 56.0
334.070801 112.0
336.618439 52.0
336.651306 96.0
337.126221 120.0
338.14035 488.0
338.273987 44.0
338.395477 176.0
338.754364 84.0
339.144073 164.0
342.711121 112.0
343.075989 116.0
344.053589 72.0
345.443085 96.0
348.546265 40.0
350.682373 88.0
350.730804 48.0
350.872467 72.0
351.383423 100.0
351.764069 148.0
352.667999 108.0
352.735291 56.0
353.105438 100.0
354.11972 136.0
355.825897 80.0
356.637299 68.0
358.168701 132.0
358.240295 76.0
358.718872 40.0
360.25473 80.0
360.45874 52.0
363.408386 132.0
364.384155 72.0
364.954254 76.0
365.619934 124.0
368.590576 76.0
369.397278 60.0
377.520477 48.0
378.890686 136.0
381.319763 40.0
381.774628 48.0
382.237549 48.0
383.160309 40.0
384.903748 72.0
384.997467 156.0
386.948639 72.0
387.892761 108.0
389.042145 192.0
390.146057 188.0
391.200348 128.0
392.47287 36.0
393.269775 76.0
394.09906 128.0
394.233429 228.0
394.763123 100.0
396.112762 64.0
396.524811 108.0
396.580322 224.0
396.647705 96.0
397.635315 112.0
398.655945 80.0
399.403381 84.0
400.494019 96.0
401.374756 44.0
404.815277 52.0
408.548004 168.0
408.894043 100.0
408.922211 104.0
409.075165 136.0
409.21936 2296.0
409.280487 180.0
409.735626 88.0
409.945129 68.0
410.228302 512.0
411.037933 44.0
411.228241 100.0
411.261414 236.0
411.861511 56.0
411.914032 60.0
411.942291 92.0
412.13623 48.0
412.237244 156.0
412.829712 136.0
413.256226 92.0
413.709503 92.0
415.054596 132.0
415.849731 92.0
416.101379 36.0
424.416656 104.0
424.510956 104.0
424.638092 64.0
424.687317 84.0
425.052429 104.0
430.816528 72.0
431.192535 76.0
432.023651 100.0
433.418915 40.0
435.127716 84.0
436.133026 96.0
436.236938 128.0
437.622314 92.0
438.134583 140.0
441.043121 104.0
442.256104 56.0
442.465393 92.0
442.900909 84.0
444.31778 80.0
445.073273 56.0
446.712341 60.0
447.511963 112.0
447.591949 76.0
448.476654 68.0
450.105072 100.0
450.611938 80.0
450.831635 72.0
451.816833 128.0
452.091858 132.0
453.692932 68.0
454.193298 116.0
455.810822 64.0
456.184814 44.0
456.788666 80.0
458.13385 112.0
460.257812 168.0
467.205353 96.0
467.540955 80.0
467.971436 72.0
468.514069 104.0
469.432129 96.0
470.441742 48.0
472.044678 84.0
473.481415 100.0
473.533386 80.0
474.668793 60.0
475.320679 72.0
478.144135 44.0
479.638062 44.0
480.143829 72.0
481.806854 72.0
482.392456 36.0
482.663513 120.0
487.076782 52.0
489.337158 128.0
489.434021 160.0
490.306244 100.0
490.583923 128.0
493.104309 96.0
495.449493 128.0
495.861603 80.0
496.313751 68.0
496.7883 76.0
498.391052 72.0
500.06311 72.0
500.428131 60.0
500.517181 80.0
502.255249 64.0
502.576477 76.0
502.857605 144.0
503.388855 40.0
504.023163 96.0
504.358337 60.0
505.055878 72.0
512.616272 104.0
514.781555 76.0
518.840149 72.0
525.206482 76.0
525.781372 60.0
526.812073 56.0
533.936157 80.0
534.520386 56.0
535.091125 60.0
535.418091 104.0
535.768127 52.0
546.090698 88.0
552.878967 64.0
554.954041 56.0
556.023621 36.0
557.206909 64.0
557.99646 96.0
560.698364 68.0
562.603943 60.0
563.274536 84.0
563.75647 64.0
563.841492 104.0
566.173828 96.0
567.49115 68.0
568.325928 56.0
573.418945 120.0
574.072083 104.0
580.595032 48.0
584.606384 76.0
585.121399 64.0
586.643738 76.0
595.984436 48.0
597.749512 84.0
599.103088 36.0
599.410034 60.0
600.750793 52.0
601.599915 60.0
602.47406 60.0
605.036621 72.0
605.247192 48.0
608.016846 88.0
609.042969 52.0
617.67395 108.0
618.698303 88.0
618.841858 64.0
620.699951 96.0
622.868713 36.0
625.653503 128.0
627.117981 60.0
637.035522 124.0
637.331909 112.0
637.372742 140.0
638.804993 80.0
639.469177 88.0
640.768311 88.0
645.816345 164.0
646.954895 68.0
648.687378 52.0
649.382019 68.0
652.011902 36.0
652.662598 76.0
659.713623 56.0
666.170532 80.0
666.252747 72.0
667.033813 32.0
674.983765 44.0
676.049438 144.0
681.811035 44.0
687.743225 140.0
688.307007 100.0
698.763367 76.0
699.33197 76.0
702.762573 152.0
703.707336 52.0
706.926392 112.0
710.869019 104.0
711.37323 56.0
711.654602 80.0
713.386536 64.0
715.716797 136.0
721.372009 76.0
722.147339 148.0
728.07489 88.0
739.991821 32.0
740.186768 44.0
740.988342 92.0
743.026855 56.0
744.302307 160.0
750.543457 108.0
750.739746 136.0
750.974304 68.0
760.225647 64.0
762.936218 20.0
763.615295 68.0
764.181885 68.0
771.749207 192.0
778.537231 48.0
778.598328 84.0
781.527832 100.0
782.334839 68.0
783.036438 32.0
785.539062 116.0
788.761047 124.0
790.545166 52.0
791.188843 48.0
797.010559 76.0
797.55011 140.0
798.944641 112.0
803.048218 40.0
803.445923 80.0
805.528992 120.0
807.824036 96.0
808.836914 180.0
808.893494 96.0
819.792725 132.0
822.147949 64.0
822.193604 104.0
824.517944 40.0
827.73291 96.0
827.93335 120.0
832.153687 144.0
833.997681 104.0
836.235046 28.0
837.455688 156.0
838.187317 76.0
840.055298 88.0
841.446106 144.0
846.117493 96.0
846.169617 80.0
852.160767 68.0
854.463135 156.0
854.5271 224.0
864.920532 196.0
870.079163 100.0
872.346802 184.0
875.447449 124.0
880.2948 96.0
882.605225 84.0
889.483459 104.0
892.293396 148.0
897.404358 36.0
897.616394 36.0
902.57843 180.0
904.37915 88.0
904.666443 140.0
909.095764 124.0
913.325378 104.0
916.046143 220.0
916.112427 48.0
916.407654 72.0
917.004211 48.0
917.359863 100.0
921.548157 88.0
925.249573 136.0
927.278809 156.0
928.509521 192.0
932.473999 164.0
937.147461 72.0
937.549622 148.0
938.4823 168.0
939.830261 156.0
946.131531 56.0
949.335999 60.0
953.731873 28.0
954.930847 88.0
956.469055 204.0
956.995483 132.0
957.509583 56.0
961.319458 144.0
962.276184 64.0
965.650146 152.0
965.854248 244.0
967.34552 136.0
968.330017 244.0
969.389404 192.0
969.798401 192.0
970.257141 176.0
970.405945 128.0
974.583069 144.0
977.617493 68.0
981.878723 264.0
981.934814 160.0
984.605957 168.0
991.237061 140.0
994.918762 136.0
996.698792 204.0
996.759033 180.0
997.670349 212.0
1001.26947 160.0
1002.176575 100.0
1007.469849 172.0
1008.051147 204.0
1008.936035 168.0
1009.410217 100.0
1010.523438 152.0
1010.979004 188.0
1012.884766 164.0
1013.049438 148.0
1014.107666 188.0
1015.210754 36.0
1015.343933 192.0
1017.691833 48.0
1017.863281 252.0
1018.943054 132.0
1019.889893 48.0
1021.186951 52.0
1021.345947 40.0
1021.893066 160.0
1023.770813 136.0
1029.14624 48.0
1032.692993 160.0
1032.776123 112.0
1032.865601 136.0
1033.889282 108.0
1035.848511 64.0
1036.450806 44.0
1040.054932 104.0
1042.624023 100.0
1044.244141 92.0
1047.050171 180.0
1049.834229 124.0
1053.170898 132.0
1058.143799 160.0
1058.797729 144.0
1064.939697 132.0
1065.400879 28.0
1067.318115 120.0
1073.934692 152.0
1082.194824 136.0
1082.751343 176.0
1086.612305 176.0
1087.911621 188.0
1089.809692 172.0
1089.908203 148.0
1092.630249 80.0
1095.619141 160.0
1097.134888 76.0
1097.774414 140.0
1098.269043 176.0
1106.098999 68.0
1107.218018 128.0
1108.125488 52.0
1110.777222 144.0
1111.427368 176.0
1112.037964 80.0
1112.429565 124.0
1112.728271 32.0
1113.133301 208.0
1117.247437 172.0
1123.863281 116.0
1124.196899 108.0
1126.827759 52.0
1126.927979 232.0
1130.324585 100.0
1130.505371 136.0
1131.107666 112.0
1133.867188 144.0
1136.502563 212.0
1137.314575 40.0
1137.811279 192.0
1140.148804 40.0
1140.498291 112.0
1142.186035 176.0
1143.538452 68.0
1145.578735 36.0
1145.76062 80.0
1146.744385 132.0
1148.382812 184.0
1149.192261 212.0
1150.130249 180.0
1154.210815 192.0
1157.655151 192.0
1160.290894 64.0
1160.853638 116.0
1161.016357 176.0
1165.713989 60.0
1166.237305 172.0
1168.780762 188.0
1168.971313 108.0
1170.468872 244.0
1172.403442 128.0
1174.67395 184.0
1176.62561 148.0
1177.772827 100.0
1179.426392 104.0
1180.7323 160.0
1181.498413 192.0
1181.621582 52.0
1183.743408 48.0
1184.133789 32.0
1186.237305 88.0
1186.31958 156.0
1186.525269 140.0
1187.231445 104.0
1188.397583 40.0
1188.910767 144.0
1189.880005 200.0
1189.976196 216.0
1190.429321 120.0
1192.490356 188.0
1194.154175 136.0
1195.901733 120.0
1197.113525 208.0
1197.189209 40.0
1197.781494 168.0
1197.864136 180.0
1197.995117 172.0
1198.477295 180.0
1200.979736 224.0
1201.400513 144.0
1203.077515 128.0
1204.603638 164.0
1206.462524 116.0
1207.084839 140.0
1209.86853 224.0
1210.807861 164.0
1210.884155 112.0
1211.363037 144.0
1216.64624 256.0
1217.069824 196.0
1217.340576 128.0
1219.341309 140.0
1222.171631 184.0
1223.166748 120.0
1223.44519 204.0
1223.556641 104.0
1223.668091 32.0
1224.266846 144.0
1225.987549 64.0
1226.468506 220.0
1227.172607 196.0
1229.1604 128.0
1229.474487 88.0
1229.851318 64.0
1231.135986 124.0
1231.331543 192.0
1231.75061 180.0
1233.308716 172.0
1233.770142 132.0
1233.92395 56.0
1235.84729 256.0
1236.848022 64.0
1237.548096 120.0
1238.577515 180.0
1239.516357 208.0
1240.413452 104.0
1244.952881 144.0
1245.908081 252.0
1246.976196 148.0
1247.109741 44.0
1247.47522 148.0
1247.700195 180.0
1248.572144 156.0
1249.380981 204.0
1250.4646 188.0
1250.915161 64.0
1252.126221 204.0
1252.598022 96.0
1253.429443 148.0
1253.661987 128.0
1255.678223 172.0
1255.903931 168.0
1257.35022 124.0
1258.246704 80.0
1260.040527 236.0
1261.058105 208.0
1262.040771 168.0
1262.995483 124.0
1265.670532 112.0
1265.868286 264.0
1268.142944 136.0
1268.596558 216.0
1268.830566 136.0
1269.688477 108.0
1270.887329 176.0
1272.093872 220.0
1272.150635 56.0
1274.423218 60.0
1275.219116 136.0
1276.328125 136.0
1276.484619 212.0
1276.811768 120.0
1276.96106 140.0
1279.451538 40.0
1279.786133 128.0
1280.455566 124.0
1280.640747 208.0
1281.488403 180.0
1282.650024 124.0
1284.889282 180.0
1285.046265 232.0
1285.988159 212.0
1288.023071 104.0
1288.380249 144.0
1289.144775 204.0
1290.295532 128.0
1290.445679 172.0
1291.396851 100.0
1291.790283 104.0
1291.947632 164.0
1292.877808 120.0
1293.36853 148.0
1293.450317 252.0
1293.922852 176.0
1295.233276 148.0
1295.799194 164.0
1296.995972 76.0
1300.029785 108.0
1301.379272 172.0
1303.419067 188.0
1304.360596 196.0
1304.454102 192.0
1304.942871 60.0
1305.144165 120.0
1305.590088 172.0
1308.043579 212.0
1309.461914 128.0
1309.64917 180.0
1312.178589 156.0
1312.43811 148.0
1312.5896 200.0
1312.950195 144.0
1313.00061 204.0
1314.133179 176.0
1314.465088 176.0
1314.573242 184.0
1315.282837 64.0
1318.595825 212.0
1319.203003 128.0
1319.484863 152.0
1320.208008 144.0
1320.612915 136.0
1321.249512 140.0
1321.900757 156.0
1323.876953 220.0
1327.775879 144.0
1328.269043 188.0
1328.559204 148.0
1328.769653 124.0
1329.995972 224.0
1330.794556 140.0
1331.084961 156.0
1331.651489 128.0
1332.144653 204.0
1333.089966 132.0
1333.489624 148.0
1333.940308 52.0
1334.129272 52.0
1335.409058 140.0
1336.463867 164.0
1337.191528 148.0
1341.722412 132.0
1342.728638 124.0
1343.406982 140.0
1345.092651 144.0
1345.165649 116.0
1345.640137 224.0
1345.786133 96.0
1346.107422 140.0
1346.618652 76.0
1346.830444 68.0
1346.95459 92.0
1347.524414 224.0
1348.145508 152.0
1348.262451 168.0
1349.183472 180.0
1351.267822 152.0
1352.160522 224.0
1352.489868 188.0
1353.712524 160.0
1354.291016 168.0
1354.606079 160.0
1354.957642 244.0
1355.323975 160.0
1356.012817 144.0
1356.547974 144.0
1357.193115 132.0
1358.197754 252.0
1358.483887 144.0
1359.195557 100.0
1360.039551 188.0
1360.619385 180.0
1361.4198 224.0
1361.816406 260.0
1362.190918 140.0
1362.903564 140.0
1363.638428 180.0
1364.130981 148.0
1364.535278 216.0
1364.922852 156.0
1365.08667 152.0
1365.64563 188.0
1365.704468 128.0
1365.9104 184.0
1366.204712 128.0
1367.617554 128.0
1368.213745 52.0
1369.023682 216.0
1369.553955 44.0
1369.782349 188.0
1370.939087 116.0
1371.130615 136.0
1371.447632 216.0
1371.838257 160.0
1372.627197 164.0
1373.711304 92.0
1374.124512 152.0
1376.235352 168.0
1376.338745 160.0
1380.950317 144.0
1381.815552 96.0
1382.170654 100.0
1382.318726 72.0
1382.459229 160.0
1382.910767 148.0
1383.50293 164.0
1384.006348 140.0
1384.169312 156.0
1388.089111 180.0
1388.200439 80.0
1388.637939 128.0
1388.942017 156.0
1389.364868 160.0
1390.210693 104.0
1390.388794 40.0
1390.61145 168.0
1390.982666 104.0
1392.415649 172.0
1392.883545 176.0
1394.674316 152.0
1396.778564 152.0
1396.860352 124.0
1398.876953 152.0
1400.306641 228.0
1401.088745 132.0
1401.42395 56.0
1401.885986 220.0
1402.027588 184.0
1403.622803 44.0
1404.495361 96.0
1406.480225 176.0
1407.159546 220.0
1407.555298 176.0
1407.779297 248.0
1408.033203 200.0
1408.167603 84.0
1409.131226 152.0
1410.110107 160.0
1411.440796 208.0
1411.702515 184.0
1411.934326 228.0
1412.143799 224.0
1412.786987 176.0
1412.95166 48.0
1413.026489 84.0
1415.069702 160.0
1415.316772 92.0
1415.44397 76.0
1416.672363 152.0
1417.324097 72.0
1417.49646 176.0
1417.721313 164.0
1418.418335 172.0
1419.003052 140.0
1419.250488 124.0
1422.138672 168.0
1422.326294 204.0
1422.755127 172.0
1423.617676 152.0
1423.925537 104.0
1424.068237 172.0
1424.999756 124.0
1425.608398 136.0
1427.06665 132.0
1427.743408 184.0
1428.111938 160.0
1429.157593 196.0
1429.857422 188.0
1430.203613 172.0
1430.331665 144.0
1431.641602 140.0
1432.259277 228.0
1432.635864 204.0
1433.720825 180.0
1434.007202 216.0
1434.565063 180.0
1434.663086 140.0
1434.806274 136.0
1436.171143 164.0
1438.427246 172.0
1438.569702 152.0
1438.9104 152.0
1439.884521 232.0
1440.798462 124.0
1442.529053 128.0
1443.07251 148.0
1443.572388 208.0
1443.942993 144.0
1444.116943 204.0
1444.366577 136.0
1444.548096 144.0
1445.15332 108.0
1445.221436 176.0
1445.387817 244.0
1445.508911 76.0
1445.751099 140.0
1447.257446 240.0
1447.446777 164.0
1447.658813 180.0
1448.896118 124.0
1449.210327 124.0
1449.772339 204.0
1450.158813 168.0
1450.38623 208.0
1452.691406 200.0
1452.84314 140.0
1453.177002 312.0
1453.374268 120.0
1453.601929 80.0
1454.030396 160.0
1454.353149 228.0
1454.745605 196.0
1455.484375 100.0
1456.198242 112.0
1456.388062 144.0
1457.064209 124.0
1458.13562 104.0
1458.348389 104.0
1459.214966 48.0
1459.367065 116.0
1460.13501 192.0
1461.435913 40.0
1461.565186 112.0
1462.653442 116.0
1463.049316 140.0
1463.384277 124.0
1463.909668 164.0
1464.153442 200.0
1465.029297 204.0
1465.143677 104.0
1465.410278 108.0
1465.585571 72.0
1466.088379 68.0
1466.903931 180.0
1467.573364 168.0
1467.826538 168.0
1467.887451 212.0
1468.83313 176.0
1469.329102 168.0
1469.672363 152.0
1470.488892 56.0
1470.962158 184.0
1471.725586 136.0
1471.83252 196.0
1473.818359 192.0
1475.377563 264.0
1476.157471 80.0
1477.469116 220.0
1480.044556 148.0
1480.618896 140.0
1481.262329 152.0
1481.568726 160.0
1481.894897 220.0
1483.354248 64.0
1484.044189 44.0
1484.619263 196.0
1485.455322 188.0
1485.930908 124.0
1486.352905 220.0
1487.166382 112.0
1488.256592 112.0
1488.832397 120.0
1490.107544 148.0
1490.921997 36.0
1491.129517 236.0
1492.436401 164.0
1492.513306 96.0
1493.113037 160.0
1493.674561 192.0
1494.104492 184.0
1494.228394 176.0
1495.282593 188.0
1496.121704 192.0
1496.960938 224.0
1497.091797 184.0
1497.546143 60.0
1498.547607 124.0
1498.670898 108.0
1499.333618 224.0
1500.166016 220.0
1500.605469 120.0
1501.098999 144.0
1503.143066 56.0
1503.899414 136.0
