>compound Fluvoxamine
>formula C15H21F3N2O2
>ionization [M+H]+
>parentmass 319.161407
#inchi InChI=1S/C15H21F3N2O2/c1-21-10-3-2-4-14(20-22-11-9-19)12-5-7-13(8-6-12)15(16,17)18/h5-8H,2-4,9-11,19H2,1H3
#inchikey CJOFXWAVKWHTFT
#Ion_Source LC-ESI
#Instrument qTof
#Compound_Source Commercial
#PI Dorrestein
#Data_Collector Garg_Neha
#Scan -1
#Precursor_MZ 319.163
#ExactMass 318.156
#Charge 1
#CAS_Number N/A
#Pubmed_ID N/A
#Smiles COCCCCC(=NOCCN)c1ccc(cc1)C(F)(F)F
#INCHI_AUX N/A
#Library_Class 1
#SpectrumID CCMSLIB00000079154
#IonMode Positive
#UpdateWorkflowName UPDATE-SINGLE-ANNOTATED-GOLD
#LibraryQualityString Gold
#TaskID 278b19f5865741e282cec7349aa7e7a1
##Scan# 1224
#SpectrumFile NCP003592_A2_B11_BD8_01_15734.mzXML
#LibraryName NIHcollectionI_05062014.mgf
#MQScore -1
#Organism NIHcollectionI_05062014
#TIC_Query 0
#RT_Query -1
#MZErrorPPM -1
#SharedPeaks 0
#MassDiff 0
#LibMZ -1
#SpecMZ 319.163
#SpecCharge 0
#internalFilename spec-00000.mgf

>collision 10
86.37941 236.0
130.059067 140.0
131.07399 144.0
172.11821 200.0
176.927094 184.0
187.061981 164.0
189.287079 200.0
191.06839 184.0
200.068893 512.0
200.164795 232.0
208.135406 140.0
211.086075 212.0
226.084656 304.0
228.103149 280.0
234.981094 144.0
235.090942 152.0
242.097595 180.0
244.088791 132.0
251.801682 148.0
258.111206 1764.0
259.117035 1152.0
260.035095 220.0
260.125824 544.0
261.122345 144.0
270.112244 152.0
274.038574 128.0
291.106079 164.0
299.9021 140.0
301.406738 140.0
310.787292 176.0
315.082642 204.0
317.100342 1036.0
317.180695 168.0
317.209473 264.0
318.108612 344.0
318.208893 100.0
318.327057 176.0
319.161407 2276.0
319.210449 252.0
319.382568 164.0
319.485748 192.0
320.168213 388.0
321.132751 196.0
321.213593 180.0
322.270142 144.0
325.203033 152.0
330.142365 308.0
330.167664 148.0
333.485016 152.0
335.105194 508.0
337.114868 140.0
377.941315 156.0
