>compound MLS002207185-01!Ile-Pro-Ile90614-48-5
>formula C17H31N3O4
>ionization [M+H]+
>parentmass 342.2387329240906
#inchi InChI=1S/C17H31N3O4/c1-5-10(3)13(18)16(22)20-9-7-8-12(20)15(21)19-14(17(23)24)11(4)6-2/h10-14H,5-9,18H2,1-4H3,(H,19,21)(H,23,24)
#inchikey JNTMAZFVYNDPLB
#Ion_Source LC-ESI
#Instrument qTof
#Compound_Source NIH Pharmacologically Active Library
#PI Dorrestein
#Data_Collector VP/LMS
#Scan -1
#Precursor_MZ 342.243
#ExactMass 341.231
#Charge 1
#CAS_Number N/A
#Pubmed_ID N/A
#Smiles CCC(C)C(N)C(=O)N1CCCC1C(=O)NC(C(C)CC)C(=O)O
#INCHI_AUX N/A
#Library_Class 1
#SpectrumID CCMSLIB00000085826
#IonMode Positive
#UpdateWorkflowName UPDATE-SINGLE-ANNOTATED-GOLD
#LibraryQualityString Gold
#TaskID d252d724072548979f1f6f1ced849daf
##Scan# 1265
#SpectrumFile p4-F10_GF10_01_18394.mzXML
#LibraryName Pharm_Active_Library.mgf
#MQScore -1
#Organism Pharm_Active_Library
#TIC_Query 0
#RT_Query -1
#MZErrorPPM -1
#SharedPeaks 0
#MassDiff 0
#LibMZ -1
#SpecMZ 342.243
#SpecCharge 0
#internalFilename spec-00000.mgf

>collision 10
48.30901 152.0
49.3102 232.0
55.564129 64.0
55.89101 136.0
56.038422 160.0
57.351242 140.0
58.064907 116.0
58.769253 268.0
60.541721 204.0
61.438614 168.0
68.659691 132.0
69.923836 164.0
71.275108 168.0
71.296951 176.0
71.530754 148.0
73.266624 224.0
73.510452 112.0
75.950203 164.0
76.222778 144.0
79.212601 216.0
80.3843 236.0
80.750542 160.0
81.252121 220.0
82.949158 208.0
88.667656 216.0
89.88253 192.0
90.832298 112.0
91.048683 136.0
91.714615 196.0
92.873672 128.0
96.059418 96.0
96.082512 124.0
96.194069 168.0
96.326859 84.0
97.325706 144.0
98.058434 444.0
98.197517 144.0
99.057365 132.0
100.722382 116.0
101.364616 164.0
101.404701 200.0
105.187386 136.0
105.817055 140.0
107.888878 176.0
109.68042 228.0
109.697098 56.0
111.098251 48.0
111.995872 160.0
113.502754 176.0
116.323357 196.0
117.071602 216.0
117.789848 68.0
122.321449 100.0
123.044556 160.0
124.201958 104.0
126.049881 180.0
126.54422 168.0
131.086914 264.0
132.054932 160.0
132.10228 324.0
133.102264 176.0
134.890152 164.0
136.634125 128.0
137.846619 52.0
137.884003 32.0
138.115494 156.0
138.197372 156.0
138.874405 148.0
139.125488 184.0
139.974289 124.0
140.986343 168.0
142.087433 248.0
143.078491 200.0
144.015671 236.0
144.673279 196.0
145.102051 184.0
146.317841 172.0
146.356369 124.0
149.294159 48.0
150.036835 120.0
153.484238 124.0
153.814835 108.0
156.148956 148.0
156.838654 124.0
156.983261 108.0
159.745972 204.0
159.83403 120.0
160.10022 232.0
163.071167 140.0
164.793884 160.0
165.134277 184.0
165.896973 164.0
166.474289 196.0
167.146683 212.0
167.454163 208.0
171.681351 260.0
171.728287 144.0
173.118698 196.0
174.123169 196.0
174.648849 176.0
177.355377 148.0
177.633804 128.0
183.148315 760.0
183.277908 44.0
183.32373 92.0
183.501633 64.0
183.725479 40.0
184.149292 164.0
185.041687 92.0
185.158127 48.0
185.564606 112.0
185.659515 120.0
188.14064 1948.0
188.17157 152.0
188.43335 144.0
189.144363 668.0
190.150345 164.0
190.685913 92.0
193.131622 156.0
193.458145 144.0
194.087082 112.0
194.989319 144.0
195.119965 76.0
197.767349 192.0
207.676773 96.0
208.092896 140.0
211.138 144.0
211.903015 204.0
212.912506 140.0
213.665375 184.0
221.45369 108.0
225.276123 96.0
228.884293 128.0
228.935486 236.0
229.153244 8292.0
229.233719 68.0
229.34845 60.0
229.50502 52.0
229.972626 72.0
230.155411 788.0
230.274567 48.0
230.691559 40.0
231.021194 40.0
231.075653 72.0
231.155182 340.0
231.369232 76.0
231.666016 180.0
232.169189 36.0
232.727554 92.0
235.0867 128.0
237.976379 132.0
239.393951 88.0
242.874115 80.0
244.710785 88.0
245.140656 80.0
249.821686 60.0
262.947815 124.0
268.871033 96.0
285.107544 132.0
288.97876 80.0
297.17337 176.0
298.939606 48.0
322.219543 192.0
328.859528 104.0
332.217621 136.0
334.794708 128.0
348.962708 176.0
363.067688 152.0
567.515076 68.0
678.125793 100.0
903.185791 200.0
970.908325 244.0
1131.623535 212.0
1171.874146 220.0
1364.906372 196.0
1394.158936 92.0
1419.338989 168.0
1425.314087 140.0
