>compound Naftopidil
>formula C24H28N2O3 
>ionization [M+H]+
>parentmass 393.217926
#inchi InChI=1S/C24H28N2O3/c1-28-24-11-5-4-10-22(24)26-15-13-25(14-16-26)17-20(27)18-29-23-12-6-8-19-7-2-3-9-21(19)23/h2-12,20,27H,13-18H2,1H3
#inchikey HRRBJVNMSRJFHQ
#Ion_Source LC-ESI
#Instrument qTof
#Compound_Source Isolated
#PI Sirenas
#Data_Collector Ed Esquenazi 
#Scan -1
#Precursor_MZ 393.219
#ExactMass 0.0
#Charge 1
#CAS_Number N/A
#Pubmed_ID N/A
#Smiles N/A
#INCHI_AUX N/A
#Library_Class 3
#SpectrumID CCMSLIB00000004519
#IonMode Positive
#UpdateWorkflowName UPDATE-SINGLE-ANNOTATED-BRONZE
#LibraryQualityString Bronze
#TaskID d19310cd93df49b68e9fcbec27720eb5
##Scan# 3
#SpectrumFile Naftopidil.mgf
#LibraryName fda_library.mgf
#MQScore -1
#Organism fda_library
#TIC_Query 0
#RT_Query -1
#MZErrorPPM -1
#SharedPeaks 0
#MassDiff 0
#LibMZ -1
#SpecMZ 393.219
#SpecCharge 0
#internalFilename spec-00000.mgf

>collision 10
100.019043 2.410714
100.048615 2.35
100.075882 10185.780273
100.119232 121.584999
100.132843 57.836861
100.165222 4.401
100.176445 7.735714
100.18618 10.62227
100.194275 10.44114
100.220619 37.859348
100.231918 11.89257
100.25444 19.10833
100.263397 22.0977
100.275902 11.045
100.281685 21.482679
100.297569 2.0
100.312294 19.186319
100.337173 5.041
100.350853 19.155109
100.369316 9.184782
100.375771 33.5425
100.38868 16.10833
100.401733 24.50256
100.427071 2.133333
100.433479 10.24032
100.454987 5.020454
100.468597 17.91136
100.490356 18.24444
100.527649 3.606818
100.543022 9.902778
100.566559 9.11368
100.584618 8.440001
100.604889 10.38
100.646164 1.825
100.653854 11.2072
100.803627 5.213334
100.887772 9.686429
100.908211 2.801
101.037567 8.170282
101.059425 8.628261
101.076691 58.55077
101.082718 142.7556
101.231812 9.745588
101.261475 6.227222
101.412064 7.606667
101.538116 3.05625
101.739151 8.046429
102.091103 169.6819
102.250595 2.935
102.376022 4.975
102.820587 4.654546
103.054169 375.736786
103.264977 2.25
103.273445 21.2892
104.077904 5.411765
105.058342 292.454315
105.07 263.318115
105.1045 6.669299
105.114586 3.081667
105.159874 31.71154
105.384544 11.045
105.44165 3.003572
105.520248 6.003572
105.535233 8.71117
105.54895 4.356482
105.605782 6.221552
105.634644 5.698256
105.688286 9.427587
105.702591 4.418939
105.741928 5.621552
106.028358 5.878125
106.044716 72.296631
106.065071 2963.474121
106.094009 19.233219
106.107811 21.364019
106.124336 5.144048
106.139397 2.236765
106.207504 5.828488
106.213844 16.29697
106.22081 7.103125
106.239777 27.096519
106.245529 3.36
106.253166 8.486765
106.268845 2.44
106.282318 8.905882
106.3582 19.49456
106.383728 10.42667
106.404785 4.497581
106.448456 5.555645
106.472977 1.602778
106.518875 12.31296
106.56633 3.0375
106.701241 6.978704
106.825058 2.405555
107.049225 1142.400024
107.08149 97.568542
107.127312 6.859314
107.170586 12.17851
107.177727 1.4
107.208954 6.31413
107.257462 6.338462
107.336189 5.075
107.347069 6.21
107.359039 6.1375
107.419624 3.425
107.538109 10.41731
107.557114 11.43032
107.613907 8.752016
107.650871 2.85
108.056282 181.982697
108.080307 677.756775
108.20211 5.601191
108.250153 10.8431
108.316231 3.472222
108.416626 6.400609
108.504135 3.657143
108.623199 2.401087
108.684845 2.20119
108.844284 6.683333
109.06366 114.428497
109.091888 11.44167
109.218636 5.400714
109.706322 4.253261
110.097122 134.530701
111.067101 16.22225
111.090485 58.269901
111.10257 8.217391
112.076523 134.595993
112.378998 7.971939
112.556213 3.828125
112.670326 5.837121
112.852371 9.075
113.298996 11.58825
113.361961 5.59527
113.407524 4.669444
113.41452 12.51219
113.429596 7.344048
113.439713 10.70374
113.465652 7.585185
113.473106 41.52882
113.490967 17.560261
113.499512 3.822727
113.523582 2.736111
113.533997 47.671711
113.547272 6.291667
113.562485 28.05632
113.573212 6.420122
113.583649 21.65292
113.599045 13.0088
113.606979 12.88167
113.617378 31.80534
113.633606 21.876751
113.659218 14.1
113.682426 3.836765
113.69471 6.600758
113.722046 7.939103
113.765724 7.586818
113.777718 9.11368
113.799416 5.623684
113.827927 9.828571
113.847664 7.812857
113.858803 3.413333
113.886642 6.0
114.007637 20.25783
114.091469 21670.279297
114.136391 185.382095
114.165024 5.808333
114.181313 26.450371
114.18943 6.568023
114.206398 30.927139
114.219513 20.513041
114.238785 3.530882
114.245201 28.809999
114.256088 14.63115
114.264 55.693748
114.295723 48.65276
114.304695 4.30431
114.317436 14.98349
114.324196 42.9622
114.338303 14.31558
114.346909 30.251459
114.370682 7.604167
114.383339 40.877911
114.393341 4.415385
114.410172 18.63875
114.423378 16.18041
114.437317 5.511364
114.449493 50.999531
114.475708 15.60459
114.499413 33.79731
114.5205 21.405001
114.552933 16.335279
114.56839 38.617199
114.603127 6.864474
114.610626 33.39069
114.654953 18.02813
114.665787 4.73629
114.708229 27.63579
114.717918 9.214517
114.724014 17.471939
114.773979 6.205
114.784851 12.95125
114.866486 14.59464
114.913429 15.14333
114.936409 3.1125
114.979225 9.376087
115.053955 959.196472
115.10289 26.04977
115.189896 29.12993
115.236786 1.69
115.599968 14.27918
115.628716 9.120555
115.67775 4.408333
115.812263 4.261364
115.85878 5.041
116.105957 99.044594
116.138206 7.510345
116.160706 4.209
116.179451 5.259524
116.235703 7.21
116.291969 4.8025
116.442497 5.228571
116.532196 3.421552
116.682472 3.605556
116.697159 7.401667
116.987053 7.001786
117.069618 271.176788
117.177963 12.92819
117.187279 9.778571
117.264359 10.13611
117.322182 7.011793
117.33725 5.23141
117.381401 8.385976
117.396027 27.98085
117.409332 12.53966
117.416405 3.6
117.442795 2.664474
117.450394 8.033108
117.480499 9.801352
117.535599 11.65079
117.590477 25.220751
117.617569 3.072727
117.628021 4.404167
117.685471 12.11303
117.704124 3.069444
117.722153 12.0388
117.752144 3.008333
117.846611 6.614286
118.040077 17.91938
118.065018 6329.928223
118.111191 157.758804
118.129608 5.756482
118.145645 21.47435
118.153496 8.534513
118.178947 13.83803
118.202988 9.735714
118.22541 18.94389
118.241241 37.070381
118.258545 6.232
118.276543 40.137989
118.300163 4.6125
118.311516 1.420455
118.319733 8.890306
118.333473 2.25
118.364304 22.00132
118.382973 28.946051
118.42128 4.03
118.436508 17.841789
118.489433 5.600806
118.506325 44.883579
118.533096 12.41431
118.564003 8.4375
118.609238 13.43748
118.625839 3.313636
118.682259 20.77212
118.961754 3.681667
119.036011 74.776253
119.048859 77.642342
119.072578 2114.280029
119.156013 6.106579
119.263214 5.409091
119.274467 11.65227
119.308807 3.401
119.324524 15.97724
119.346817 1.2
119.363625 39.046139
119.378159 15.46923
119.395943 3.672059
119.407631 12.07941
119.415413 4.441667
119.424736 4.05
119.446838 18.311689
119.463631 19.97965
119.483604 9.814535
119.494331 3.825
119.501579 15.4881
119.522079 14.8908
119.568565 5.84528
119.589973 13.03214
119.60273 12.58932
119.636848 4.044565
119.664017 8.086429
119.696724 3.403333
119.750015 3.63
119.775246 4.577991
119.803802 9.881666
119.907631 7.061765
120.005219 9.404879
120.044487 11235.870117
120.078911 647.885681
120.115761 7.229878
120.127487 11.61818
120.152565 21.752939
120.170593 9.857653
120.184975 30.76985
120.195915 3.531522
120.206055 30.11529
120.2211 43.203819
120.244034 17.36305
120.259102 14.49444
120.272064 35.756229
120.297249 11.9025
120.314125 12.6125
120.346672 22.35676
120.383499 56.684639
120.401299 11.25333
120.417496 15.96889
120.436104 8.510336
120.451355 13.94827
120.461182 31.48687
120.474426 8.947059
120.488289 20.97588
120.526115 65.365463
120.53968 21.476
120.551781 17.68762
120.595871 20.7017
120.61792 13.86032
120.628471 27.985519
120.639282 8.463158
120.653595 17.82547
120.673073 4.809091
120.715698 21.66692
120.74575 11.32363
120.785957 18.714991
120.819321 8.681666
121.001961 3.611842
121.054619 11460.94043
121.097855 17.811359
121.112091 125.435402
121.146675 20.154119
121.165909 44.983139
121.188354 8.963636
121.199829 15.74286
121.212364 54.289612
121.247223 11.65591
121.280937 55.72234
121.300606 5.808333
121.309486 55.072338
121.328941 44.966839
121.350182 25.24579
121.367844 28.529181
121.390259 11.249
121.403778 7.764102
121.415703 22.80023
121.422386 10.49643
121.450737 27.07049
121.482979 9.984615
121.496239 11.03472
121.508324 22.98114
121.543701 18.36409
121.553368 19.831739
121.565147 2.822222
121.572823 6.4225
121.602829 33.957409
121.636856 10.6
121.653267 9.627222
121.674843 15.64537
121.683983 7.128947
121.748428 34.155071
121.902992 4.440909
121.972076 14.83876
122.097229 439.479095
122.129654 5.03141
122.263359 6.244842
122.292534 7.375478
122.387451 4.156482
122.426468 7.466666
122.482361 8.15921
122.614876 17.90204
122.647255 8.775681
122.67234 5.006429
122.891457 7.033064
122.977196 5.666667
123.015511 2.42
123.089966 87.604477
123.312798 6.003333
123.336243 8.020122
123.363701 3.422368
123.406464 5.7125
123.428719 4.027174
123.457901 4.592391
123.567978 8.448276
124.074654 70.995041
124.139206 10.07334
124.283607 2.416667
124.327026 4.2025
124.34938 7.000758
124.610359 2.615
124.684586 3.601191
124.847366 4.609
124.894089 5.604546
125.216919 5.002941
126.091187 90.097023
126.186165 5.275
126.446518 13.70471
126.862373 3.92
127.053772 803.14032
127.10424 4.453333
127.116013 1.8
127.21801 3.2
127.300423 3.6
127.394646 4.851923
127.426575 1.89
127.496758 3.4
127.514824 4.1125
128.043396 4.605
128.061234 404.161804
128.105698 85.257607
128.303329 2.840909
128.310455 3.335
128.354965 6.036765
128.388046 3.1
128.417603 5.000714
128.438599 3.481667
128.516159 4.666667
128.541656 16.848089
128.595551 4.25625
128.638519 9.213888
128.705612 4.10431
129.070023 2761.218994
129.09938 108.889099
129.115372 4.256818
129.147186 19.032209
129.164978 16.20849
129.250748 18.66913
129.280457 6.55
129.297028 2.8
129.314545 7.30896
129.32872 16.785
129.341766 12.78129
129.358368 21.420361
129.378937 9.545454
129.389206 1.625
129.398911 2.95625
129.429733 8.779256
129.444656 9.241667
129.457077 5.569
129.468643 7.415
129.483032 11.6553
129.728836 13.62151
129.769836 6.136111
130.146378 33.8312
130.158096 7.800455
130.524261 3.645
130.550934 3.338889
130.739151 7.056818
131.060944 398.153992
131.072327 159.237198
131.084351 19.41441
131.426773 3.464286
131.518127 6.511207
131.60733 7.145689
131.638733 7.495339
131.714569 3.801471
132.026627 14.63478
132.042725 170.287003
132.07988 1144.435059
132.130157 7.803571
132.187241 2.801667
132.204483 10.96824
132.222137 4.851923
132.269867 19.06531
132.291946 17.49865
132.315094 4.85
132.366531 2.65625
132.378265 3.813236
132.463531 4.5375
132.478271 1.820455
132.5784 2.827174
132.785309 8.128125
132.874985 3.404167
132.883347 6.539103
132.903702 17.69697
132.927155 5.409
133.007355 4.478125
133.052628 865.23938
133.088608 66.276657
133.124176 26.078449
133.168381 10.28611
133.183945 8.648649
133.224106 6.243085
133.244415 7.960526
133.267303 19.89427
133.27652 8.8125
133.311615 9.498888
133.335144 27.003639
133.356216 5.072059
133.36554 4.664286
133.385025 10.0169
133.403595 29.85568
133.418274 30.013241
133.429886 20.31418
133.4655 87.560303
133.483276 3.55
133.515762 27.98761
133.529449 10.30873
133.561615 3.615385
133.593979 5.849
133.698792 3.601191
133.73053 4.616892
133.754669 6.800532
133.7827 6.665323
133.817261 6.704166
133.863327 2.472059
133.902512 16.793131
133.951889 2.4
133.994171 4.075
134.032425 4.600555
134.060028 13022.44043
134.095642 1115.248047
134.138535 41.264408
134.149353 7.414286
134.165451 36.450649
134.189072 2.828572
134.196045 13.68553
134.210251 8.28616
134.22345 44.535629
134.254242 9.738375
134.264374 51.792122
134.274933 42.804981
134.290298 52.290031
134.3069 12.64152
134.321686 80.628433
134.336624 55.566261
134.356491 99.971268
134.375351 33.558731
134.386139 25.49703
134.409485 15.1391
134.436432 65.542038
134.451508 19.682211
134.502365 31.046021
134.522873 50.22488
134.544601 11.41423
134.573456 12.43489
134.662308 11.40263
134.673248 13.94303
134.68515 5.017308
134.695129 38.690392
134.738297 4.409783
134.912704 8.618939
134.96846 4.400862
135.025879 8.978
135.068024 4149.560059
135.114655 36.099411
135.151123 13.21286
135.171524 24.21957
135.189163 16.17717
135.198807 10.96956
135.209534 2.875
135.23938 12.20025
135.247726 12.43553
135.295563 23.283001
135.33548 34.809109
135.373306 21.288891
135.381058 11.25143
135.392654 31.56353
135.412521 14.56905
135.428848 14.00369
135.469177 12.34423
135.479385 4.736111
135.49028 3.407143
135.506561 24.02891
135.514664 11.43571
135.531418 74.362801
135.553116 18.57733
135.561035 8.477564
135.571747 8.937195
135.581055 12.41053
135.602478 20.16754
135.616714 21.371679
135.634811 10.04615
135.649567 16.2817
135.709366 22.48
135.725769 15.84962
135.73587 6.497581
135.761978 12.00577
135.777649 10.88784
135.790695 11.528
135.802368 12.01775
135.858902 10.10435
135.875305 13.0
135.883408 1.8
135.924744 9.238333
135.953217 32.63538
135.996994 7.376961
136.054214 11.62155
136.075897 38416.96875
136.199951 28.27763
136.228714 15.01525
136.247192 25.65724
136.278717 14.95173
136.290436 32.358398
136.306351 20.6499
136.323822 16.095831
136.337479 22.27656
136.357254 36.310791
136.389374 25.65167
136.415253 21.664579
136.43515 10.675
136.44722 29.11507
136.463943 18.01214
136.48349 62.807522
136.532562 18.10837
136.549576 7.76693
136.570923 10.92787
136.589706 21.83082
136.60347 12.59018
136.626633 21.261921
136.635941 20.234921
136.66214 54.677261
136.700653 22.832951
136.718887 25.606701
136.737274 14.48167
136.786865 20.840759
136.810669 46.2332
136.826202 7.37733
136.854446 16.473021
136.871262 5.696429
136.887314 15.67826
136.995758 12.2375
137.01712 4.600555
137.053848 8.222307
137.122482 10.1225
137.179413 18.291309
137.277863 18.80488
137.336227 7.136111
137.428513 6.0
137.506424 16.46752
137.5345 8.580983
137.57869 10.14569
137.644501 7.328031
137.841019 8.614062
137.87265 8.377857
137.926392 7.95383
138.205505 3.738889
138.258011 5.469828
138.266129 3.634615
138.311127 7.404245
138.757446 4.603125
138.921555 3.017308
139.050613 6.15
139.311234 2.4
139.553604 9.059507
139.936111 8.416025
140.174988 5.52
140.257248 7.26
140.281967 8.208334
141.069763 1016.335022
141.1035 11.53966
141.119659 3.022222
141.190567 3.2
141.244095 6.981097
141.281204 14.62791
141.381607 2.584091
141.404953 2.803846
141.562134 6.037121
141.678497 20.067539
141.87764 7.688953
142.795074 5.157143
142.948196 9.216071
143.049088 496.924103
143.081512 104.485703
143.118896 162.896805
143.199554 4.045
143.211151 11.06706
143.243256 8.632017
143.250748 2.425
143.266434 1.3
143.297668 13.04679
143.372665 7.832692
143.439301 4.800581
143.519119 3.642241
143.610291 2.5
143.646179 10.68999
143.743622 4.011111
144.057251 325.224792
144.080093 597.363281
144.109146 5.205
144.169373 9.0
144.255783 4.072222
144.34906 11.00172
144.49118 2.618182
144.503738 1.602778
145.003906 4.425
145.066925 774.668274
145.113876 9.412216
145.131256 1.69
145.148468 1.35
145.202972 8.610965
145.353088 10.49539
145.387573 4.712037
145.504959 5.629878
145.530182 8.686224
145.593384 12.85951
145.640045 2.355769
146.020905 11.65333
146.060669 746.478394
146.083817 1076.636963
146.168747 3.208333
146.210785 6.176219
146.24028 9.40061
146.249573 8.872727
146.265503 4.423684
146.312653 14.62664
146.324402 5.817857
146.412796 8.088195
146.433914 2.248077
146.458908 3.25625
146.508759 3.494231
146.547531 9.222222
146.678116 3.60147
146.69075 12.47819
146.708344 5.425
146.783508 5.445
146.833374 12.29389
146.929428 2.984091
147.067047 527.541504
147.168747 2.632692
147.205933 34.484001
147.319122 9.264361
147.361496 4.85473
147.46933 26.08671
147.503708 5.906579
147.657425 8.75
147.800995 3.432143
147.834839 5.249391
147.855988 6.00049
147.875946 1.625
147.970062 9.564091
148.037903 27.43292
148.075607 5519.371094
148.110641 24.850679
148.140259 78.792191
148.164276 9.689474
148.183853 10.21731
148.194016 4.825
148.221619 22.479731
148.232712 8.484483
148.249771 6.8025
148.257919 15.83048
148.278229 33.693951
148.292953 12.81607
148.301941 6.21
148.315781 27.71727
148.330673 8.671079
148.360519 8.059999
148.373718 6.136111
148.393707 7.625806
148.414154 11.48466
148.433014 37.721901
148.476761 15.91907
148.491089 20.715969
148.515686 9.246154
148.559036 10.20036
148.565689 7.539889
148.610977 16.09877
148.629196 7.729
148.662079 8.064285
148.686264 9.027987
148.703232 2.601667
148.750458 9.378664
148.777344 9.377857
148.898392 7.4225
148.909927 5.245
149.021637 4.563334
149.060532 36.056301
149.082947 4419.463867
149.152191 11.41
149.168839 7.409804
149.218918 46.270168
149.246017 24.52364
149.26326 68.176117
149.288986 12.11115
149.30957 53.803612
149.340958 68.44268
149.363861 11.42857
149.38559 72.163239
149.410904 13.73199
149.444977 4.089286
149.459061 46.398399
149.479401 9.093077
149.516556 27.55648
149.536713 14.91987
149.604584 22.046181
149.619019 2.075
149.654007 8.694118
149.671921 17.627569
149.7061 7.803689
149.855713 1.832143
149.911163 17.072081
149.940613 12.01524
149.98732 17.620911
150.037109 34.458199
150.070816 149.0522
150.09137 25200.529297
150.14238 70.203087
150.158524 21.809919
150.201523 22.61252
150.235016 17.18684
150.302414 20.284189
150.314224 29.6138
150.348862 11.60952
150.362701 64.295319
150.407928 26.30752
150.428986 54.681011
150.454361 35.42672
150.470001 46.45256
150.482605 14.75569
150.494293 31.3428
150.511215 30.184589
150.542953 9.603879
150.556732 35.15461
150.602448 46.191311
150.623276 23.374359
150.659836 27.06798
150.681534 27.34289
150.69104 9.425
150.733505 40.847252
150.770859 8.925
150.789276 6.952381
150.807343 14.23269
150.845703 18.787781
150.999161 12.77295
151.020111 20.208179
151.05928 26.3965
151.313309 20.40003
151.334473 7.107558
151.392609 7.443919
151.482071 6.41
151.843979 9.057142
151.859009 29.012119
151.923416 5.829878
152.061111 143.105606
152.108002 20.405001
152.118454 1.408333
152.129791 5.956481
152.137894 3.003846
152.236603 3.608333
152.281616 20.459999
152.542023 3.002778
152.806854 3.133333
152.962891 2.211842
153.069305 1970.92395
153.142975 22.849239
153.15831 4.625
153.215729 2.89
153.255463 4.272727
153.285751 4.920714
153.321304 6.228448
153.364395 7.71579
153.376221 2.211842
153.386414 4.289286
153.431107 25.510481
153.458984 16.443001
153.522736 5.2625
153.544296 4.832143
153.574387 6.621552
153.740707 2.9
153.751282 4.437121
153.79657 5.125
154.036072 10.00459
154.118164 2.801667
154.196701 3.335
154.239258 7.937195
154.283417 4.690909
154.329865 8.028521
154.385712 3.617308
154.407669 1.807143
154.508224 15.43684
154.542221 5.05
154.586472 4.896052
154.641205 5.069444
154.658493 7.004091
154.742874 5.375
154.827393 6.897619
154.863617 3.755556
154.921997 8.106579
154.977158 3.281667
155.050415 27.0875
155.085205 8047.283203
155.1474 83.829941
155.197739 26.55345
155.221298 21.79808
155.232376 12.0431
155.244598 8.422728
155.259125 40.793919
155.276642 8.982273
155.290939 25.509279
155.308426 9.493889
155.32518 14.09273
155.345078 4.225
155.357895 16.55286
155.368088 4.65
155.383911 8.80409
155.391922 23.63813
155.406982 3.494231
155.422302 35.37458
155.442566 2.604545
155.46254 15.24545
155.472427 9.032143
155.49028 4.011111
155.507629 11.61047
155.5793 7.829798
155.593658 3.04
155.604675 16.37081
155.620514 9.132143
155.645538 1.825
155.673935 12.31388
155.695145 14.75354
155.73764 6.042105
155.784805 13.79053
155.827759 6.783696
155.846207 7.802
155.939316 13.15872
155.948807 2.96
156.002625 12.00718
156.028931 2.919118
156.067688 2.85625
156.188141 22.23472
156.2798 17.0
156.306854 5.0375
156.320328 8.984091
156.489624 5.826064
156.540085 4.180263
156.673569 8.628261
156.760376 4.264286
156.798355 2.535
156.91481 8.008333
157.065018 5461.190918
157.116226 24.54015
157.157898 6.801667
157.173935 14.80485
157.182297 11.425
157.193024 21.64019
157.239365 30.093719
157.265457 7.752084
157.2836 8.65625
157.313049 8.258333
157.325058 7.05
157.334579 6.832895
157.354019 9.388461
157.379745 11.26706
157.388412 6.24
157.404877 3.407759
157.430908 17.416229
157.450714 3.15
157.468445 7.28658
157.48378 16.115931
157.538879 5.961364
157.557037 8.490454
157.596695 20.65926
157.606903 8.185976
157.685455 31.37941
157.704056 21.48826
157.764679 12.07647
157.873489 19.1
158.00177 8.1375
158.082855 37.26786
158.095749 16.183821
158.247253 4.377941
158.401199 15.45426
158.519363 8.442242
158.551056 13.53065
158.669952 3.886667
158.745132 4.368182
158.830963 8.400556
159.087112 136.440903
159.116074 2.001923
159.160492 8.836337
159.178711 12.62286
159.221436 24.43873
159.243362 2.410714
159.34874 1.815
159.375061 2.672059
159.393066 5.625714
159.48201 8.688095
159.735016 4.204167
159.766281 5.483333
159.836609 3.807759
159.868103 6.800645
160.074142 666.709717
160.102356 217.4487
160.126999 11.8304
160.175491 5.404546
160.461441 8.832143
160.99498 5.432895
161.043976 1.848077
161.082306 360.289612
161.154358 8.630371
161.166733 27.506941
161.201706 40.66164
161.241302 50.694149
161.278107 3.207143
161.291214 2.802273
161.312073 25.28223
161.335648 16.61059
161.362488 14.86098
161.384567 13.60682
161.397583 4.094231
161.414215 41.310398
161.426239 8.952941
161.471313 22.86227
161.482391 1.289286
161.512299 8.002778
161.521118 3.828125
161.537048 7.855527
161.549118 14.66123
161.598923 3.025
161.76973 5.157143
161.852905 6.937195
161.950699 7.605
161.981583 16.225
161.999344 8.616667
162.091339 16481.580078
162.145447 59.709438
162.182083 15.05056
162.251465 1.607143
162.278168 14.42256
162.290283 30.25942
162.303635 42.176861
162.326721 24.08823
162.345032 12.14925
162.363983 37.258419
162.397369 31.927811
162.423538 52.0425
162.44281 22.17935
162.457062 24.81786
162.466675 24.51919
162.494843 13.79707
162.511505 27.08073
162.535263 28.134661
162.550064 9.906944
162.582779 18.54027
162.604691 2.066667
162.615051 4.623684
162.668152 17.27412
162.688766 24.96085
162.716049 39.799839
162.765442 2.44
162.774124 19.062851
162.807465 11.23054
162.95195 13.91614
162.971985 17.18536
163.063721 11.655
163.160461 12.02051
163.170059 2.222222
163.195648 32.130409
163.347824 5.714167
163.429947 13.961
163.48584 3.125
163.517761 7.666667
163.5569 8.221491
163.574463 9.837122
163.650803 15.04959
163.663696 6.747449
163.703033 18.45274
163.74501 2.425
163.904129 5.601
163.984863 7.645454
163.998672 10.54325
164.04747 3.889286
164.068954 11.41047
164.106476 1560.885986
164.159653 11.62833
164.18483 6.857076
164.215591 31.620569
164.250809 22.016609
164.318588 3.600926
164.336426 6.802273
164.345718 10.12667
164.375824 28.674101
164.435379 13.49138
164.460251 3.29
164.551971 34.23262
164.5952 2.629762
164.604126 11.8509
164.613052 6.059524
164.631058 9.074122
164.742508 2.211842
164.808975 12.82586
164.831757 5.457143
164.863922 3.407759
164.894363 3.0375
165.012192 7.938793
165.069565 2403.12793
165.144638 1.601667
165.240768 6.925
165.264801 5.35
165.339218 17.688869
165.368225 6.860069
165.385239 20.47319
165.408508 9.419444
165.466675 3.400758
165.475632 8.602922
165.496231 14.58461
165.56514 7.284482
165.58609 2.938889
165.605453 5.914189
165.628906 17.89032
165.653824 39.870979
165.690475 1.032143
165.717377 13.04712
165.827194 14.33156
166.019012 6.153846
166.184174 7.4225
166.466583 6.136111
166.515793 5.213334
166.81778 1.9125
167.495575 1.44
167.53656 4.106579
167.606094 1.2
167.914536 8.813889
168.056625 297.232605
168.108459 3.811764
168.134491 6.933333
168.173462 3.76
168.271042 2.236765
168.654694 10.30946
169.065384 166.867706
169.099609 71.480148
169.487015 4.006429
169.631973 1.6
170.139023 6.408334
170.967972 3.472222
171.079712 129.741501
171.090057 204.601898
171.180573 3.481
172.010162 10.53838
172.098099 68.220123
172.108246 78.723747
172.4711 1.2
173.071793 44.46537
173.108093 167.326294
173.147263 6.620454
173.200974 2.632692
173.280731 5.647059
173.32132 9.869444
173.945389 7.886224
173.999725 8.432895
174.089951 1667.85498
174.112289 721.617615
174.165695 4.647059
174.186707 14.86019
174.250305 31.877979
174.276031 16.37845
174.30011 9.51859
174.325027 7.380173
174.339828 9.473781
174.358765 6.813158
174.407669 7.008497
174.418488 6.063158
174.441269 10.20156
174.459686 4.72
174.496414 4.5125
174.537781 3.44537
174.597534 7.758334
174.620514 5.00051
174.722031 7.142858
174.749924 2.914286
174.791214 42.916851
175.043701 1.801923
175.086472 2406.606934
175.123138 762.431213
175.176468 31.93512
175.222992 50.395519
175.237076 6.553723
175.255524 12.37051
175.324158 7.800581
175.338409 9.654546
175.36145 7.098256
175.37793 10.14875
175.402298 33.329399
175.454041 5.008333
175.483185 20.69129
175.504288 1.833333
175.518326 25.4125
175.547012 7.739103
175.564209 8.804788
175.599258 10.13929
175.666519 31.604959
175.690338 4.933333
175.914703 3.820161
176.039307 5.20061
176.071625 11.80036
176.100632 689.268005
176.194733 8.703441
176.274796 13.20116
176.285187 12.425
176.307129 2.436765
176.344086 5.420455
176.367188 3.618182
176.431854 6.945455
176.459976 14.25937
176.547882 2.845
176.75972 4.808333
176.834152 22.17042
176.852585 6.620162
176.996078 6.0225
177.066925 117.407097
177.102264 4149.475098
177.136475 24.37809
177.159088 31.014681
177.246094 3.8
177.256729 16.829821
177.297134 14.51309
177.306305 8.660317
177.320206 6.829629
177.350281 6.239474
177.382278 4.092857
177.426834 7.081757
177.474152 18.8402
177.498444 33.82761
177.534653 3.472222
177.55191 3.216667
177.587463 22.259769
177.618622 3.136111
177.669586 35.881721
177.681732 6.218
177.746277 3.963636
177.976746 3.736111
178.266953 17.39607
178.275803 3.2375
178.308319 9.015
178.326889 8.601786
178.413437 9.763675
178.430511 6.88
178.631287 3.081667
178.657654 7.336112
178.753387 10.20643
179.005478 1.2
179.243256 8.443086
179.816757 1.656818
179.942596 4.837121
180.098953 9.175
180.409592 4.128572
180.807831 2.355769
181.065796 171.721298
181.092926 11.22857
181.312531 4.400926
181.51857 6.423148
181.543747 5.041
181.931427 21.41444
181.971817 18.23551
182.030365 7.384091
182.050537 6.705385
182.071243 116.017097
182.10463 7.282692
182.135681 20.337509
182.159225 3.01
182.180069 5.944118
182.198959 2.609783
182.208359 4.65473
182.269409 5.402632
182.288193 1.801471
182.329407 5.244565
182.358475 11.60833
182.706467 5.633333
182.753342 4.801667
182.829147 21.138691
182.899368 5.609
182.971161 6.33426
183.012253 2.001316
183.031082 3.804167
183.055573 82.904823
183.080185 5784.922852
183.152298 13.6125
183.177307 22.27545
183.203918 5.022368
183.234421 22.646561
183.262909 20.032829
183.302917 17.78871
183.318802 36.99934
183.355942 6.453333
183.387894 20.683331
183.398758 4.849138
183.418884 29.97583
183.43486 30.246559
183.46376 25.12821
183.490982 2.336111
183.504776 21.72349
183.516159 8.6025
183.535019 10.02563
183.591858 20.53413
183.690582 1.41
183.778366 3.184091
183.889771 12.25208
183.992371 7.5225
184.478821 6.213334
184.734085 3.803571
184.857147 11.00227
184.932739 8.019444
185.099899 158.682602
185.323242 2.65
185.789734 6.33629
185.966782 3.248529
186.027344 14.22105
186.11438 40.800789
186.373734 6.145454
186.392746 7.747449
186.511887 3.119118
186.630737 5.07
186.968521 3.738889
187.086029 199.742798
187.167618 4.763333
187.405777 9.372857
187.424026 3.025
187.531235 7.127273
187.797485 6.046154
188.025406 8.600491
188.049271 4.609783
188.103943 319.174194
188.137619 23.521021
188.169662 4.654546
188.193069 11.51571
188.233124 14.20975
188.254456 6.278261
188.268768 6.61
188.426331 1.815
188.488495 12.76364
188.547409 5.265385
188.565063 3.825
188.784607 2.602273
188.909744 6.622298
188.923477 15.86513
188.944687 12.77778
188.955292 14.10356
188.996994 89.305717
189.013351 77.48365
189.029663 69.033821
189.054825 3.3
189.07341 27.738199
189.102158 2818.688965
189.16394 192.924698
189.187729 76.456711
189.211029 17.941509
189.249344 55.87389
189.275589 51.73016
189.285706 28.55069
189.297409 11.77609
189.324051 7.488889
189.334991 4.704167
189.354355 6.34569
189.364685 9.121
189.388748 66.023338
189.405441 11.42727
189.430649 25.55452
189.460648 67.819611
189.540649 2.205555
189.555008 4.600806
189.596191 14.39246
189.607834 3.125
189.621964 13.645
189.641464 19.62019
189.719513 10.91912
189.811615 5.804545
189.834045 22.27721
189.871262 6.438095
189.90947 7.828125
189.92215 17.658779
189.945251 11.26667
190.076553 73.463623
190.110367 42670.011719
190.212952 10.54349
190.313721 63.99947
190.35318 43.295132
190.406036 24.707001
190.420624 42.491211
190.439148 22.22673
190.506927 52.91407
190.531906 18.50988
190.544571 67.377373
190.572769 46.573441
190.620697 47.52084
190.64653 21.007851
190.690109 41.395359
190.700394 14.25682
190.732422 91.891373
190.746307 15.00167
190.763275 59.920559
190.789902 79.11882
190.828827 21.05163
190.843735 13.97101
190.868317 9.70625
190.884079 4.834615
190.894409 29.73527
190.9151 20.427099
190.928802 13.50417
190.949799 19.552851
190.972321 18.09446
190.980225 2.4
191.048218 11.34399
191.073898 27.08317
191.086655 29.14517
191.2108 20.40033
191.351639 45.888432
191.382828 16.45904
191.412415 16.027281
191.454514 24.186199
191.469589 11.49826
191.509689 6.75
191.611465 14.37241
191.662491 11.74387
191.704498 15.21294
191.737457 15.11186
191.856171 10.81096
191.886581 12.00625
191.947891 11.24032
191.959671 13.73156
191.979187 38.44165
192.015305 11.4004
192.125656 3145.159912
192.18158 14.89
192.202591 10.10952
192.248932 10.51419
192.300201 8.152027
192.330795 9.587931
192.389328 13.47713
192.502502 9.005232
192.539093 7.944047
192.576157 8.29
192.617844 14.4004
192.775696 10.05604
192.787491 5.0
192.824249 13.80333
192.939545 3.425
192.988953 2.801667
193.087219 132.072601
193.101486 60.200809
193.241104 4.792391
193.274963 10.9094
193.385422 5.451667
193.408432 15.2796
193.52536 7.06741
193.667999 6.094118
193.792496 2.355769
193.899948 2.202273
194.035614 10.44694
194.064301 2.24
194.114487 25.00816
194.176178 7.392308
194.233841 1.632143
194.283844 4.441667
194.316772 8.00051
194.338135 9.633333
194.559311 4.227174
194.949539 6.163333
195.375748 6.942857
195.614044 9.319736
195.691528 3.675
195.698578 7.401613
196.052032 13.63437
196.602722 2.809
197.09523 135.143997
198.923813 9.983511
199.073853 12.52672
199.122238 63.570122
199.152344 2.601923
199.397812 5.409783
199.697662 7.612255
200.108551 18.25
200.129059 233.910995
200.436279 2.475
200.50473 1.402273
200.736328 2.827174
201.099731 156.6353
201.397842 4.004167
201.629471 11.47805
201.985291 8.930797
202.01001 7.314286
202.064407 3.800714
202.205154 3.930882
202.391922 6.178125
202.46106 9.057142
202.50972 4.406818
202.995575 6.784616
203.117554 3780.650879
203.149384 2.609783
203.178177 39.577221
203.200699 12.66381
203.257965 5.215244
203.286209 17.05669
203.340439 21.754499
203.353989 9.622369
203.367233 10.62963
203.386459 11.35833
203.397156 2.0125
203.421677 11.80292
203.436554 8.066667
203.458435 3.76
203.471329 5.74
203.503922 9.184782
203.529694 5.159211
203.572067 14.31201
203.650085 6.320714
203.71579 47.593891
203.734619 10.24802
203.77417 4.970454
203.796265 19.784361
203.878067 15.8381
203.89476 10.49797
203.908218 5.636364
203.92691 11.68138
203.957748 3.801923
203.971939 27.77796
204.002594 18.400999
204.020035 44.60479
204.032532 9.138896
204.065659 34.34639
204.097412 90.975861
204.188126 13.11842
204.209274 28.00037
204.251083 7.218939
204.269806 11.98145
204.28096 7.84959
204.435135 7.00041
204.460007 3.600758
204.629181 8.804412
204.648941 3.125
204.678131 25.12678
204.8134 5.968421
204.86142 33.769878
204.944321 10.44857
205.133591 19622.330078
205.204636 10.325
205.265228 33.946049
205.294754 5.665385
205.308624 13.29099
205.326477 4.203846
205.340073 13.175
205.362854 34.12307
205.384399 17.30971
205.398087 21.07472
205.416214 5.032143
205.444427 43.09161
205.462311 40.496681
205.501724 38.610241
205.537811 15.52078
205.552719 28.88188
205.589874 68.950607
205.618256 47.754101
205.670654 62.445129
205.743027 15.62722
205.7556 60.577461
205.770645 41.997761
205.790512 4.866667
205.83316 41.86874
205.861526 41.264
205.879517 9.7225
205.91806 35.41267
205.932602 10.40227
206.027573 22.169741
206.090149 68.060272
206.204361 22.58054
206.219727 1.005
206.239761 16.826599
206.294128 25.23333
206.561279 2.625
206.628876 4.0125
206.640625 20.45837
206.689636 13.61429
206.719772 6.585256
207.119995 6.002273
207.253281 8.361
207.440536 3.803571
207.560806 2.2
207.806473 10.47273
207.886734 4.616667
207.907272 14.67655
207.966827 1.6
208.028091 12.4
208.109756 37.780022
208.122574 4.753246
208.372589 2.29
208.6548 1.603572
209.096176 53.391029
209.466217 10.93333
210.128143 27.325001
210.583984 10.50658
212.10321 19.824011
214.118484 16.45962
214.764404 12.62689
215.11911 58.70525
215.376953 3.428571
215.713699 5.803846
215.877258 4.814535
216.020401 2.801191
216.086761 4.088044
216.124863 573.520874
216.199402 2.025
216.291489 6.220454
216.317078 4.45
216.358002 5.216025
216.388748 9.586205
216.42453 4.423684
216.501556 3.217308
216.576172 6.065385
216.632126 7.054545
216.747086 2.618182
216.842438 3.257143
217.132217 431.35849
217.314774 4.44
217.407639 11.38519
217.546783 4.401316
217.604248 17.348881
217.76741 4.405556
217.924149 15.60986
217.967484 3.506579
218.074539 2.511364
218.238571 4.416026
218.343445 8.026087
218.970215 11.472
219.112701 1070.906006
219.147629 155.305695
219.193848 2.736111
219.300064 8.407692
219.346436 14.48475
219.553772 14.38947
219.712402 3.0
220.147339 60.925701
220.291565 7.339103
220.316101 7.277564
226.1194 8.104166
226.251968 7.665
227.128525 42.378571
228.881851 11.43289
228.913437 4.6225
229.083328 2.719118
229.714005 4.213235
229.962143 9.158334
230.115128 24.200001
231.148956 1677.387939
231.21048 29.5487
231.299088 15.60091
231.32637 6.892568
231.36116 2.8125
231.404022 11.84259
231.443115 25.21496
231.579224 3.0375
231.617416 1.266667
231.66394 7.033143
231.74411 13.29534
231.784668 16.824579
231.838715 4.478125
231.85614 5.420161
231.914734 10.49127
231.930664 14.97783
231.974457 3.008333
231.997574 7.185407
232.018921 10.42575
232.040375 9.816893
232.09935 14.97619
232.11734 21.36886
232.146042 9.496969
232.160263 54.242069
232.193436 7.805
232.264709 3.281667
232.734467 4.975
232.792999 4.805556
232.867706 5.418939
232.88797 10.88571
232.936417 12.60179
232.952423 1.96
233.131973 21.872339
233.165039 6990.963867
233.229965 84.947227
233.253998 11.27161
233.276733 6.9025
233.303391 15.65487
233.327026 22.77026
233.360413 33.032589
233.382019 31.309811
233.402084 34.709431
233.419922 6.655
233.435959 11.40068
233.470581 13.8753
233.489227 18.43121
233.524948 26.825001
233.578629 21.232121
233.60083 3.207759
233.623459 38.139599
233.683517 40.58971
233.717514 27.826771
233.753372 32.676979
233.794357 9.663222
233.813965 11.25625
233.859253 56.091141
233.899628 19.600491
233.917633 48.11097
233.935074 43.644451
233.971207 27.499809
234.00705 7.3375
234.028809 19.330971
234.052216 29.371981
234.084732 26.6203
234.146393 19.120449
234.276443 4.201087
234.294937 11.02368
234.442123 43.745239
234.458023 4.625
234.607422 4.188462
234.670639 7.176961
234.739929 8.481667
234.792465 9.422368
234.815002 8.136111
234.832092 15.64767
235.098297 31.93079
235.14444 12613.400391
235.208832 46.375622
235.257187 25.605591
235.28125 13.825
235.30809 31.33939
235.330444 11.63948
235.357422 37.614891
235.42012 11.94614
235.460419 40.927441
235.492004 12.46667
235.507309 57.569679
235.526459 6.428449
235.540115 8.323742
235.555344 34.437141
235.594162 25.40102
235.613632 20.538639
235.653442 14.52206
235.710526 31.83416
235.731812 18.913231
235.787811 26.607031
235.875153 3.05
236.08017 17.25622
236.175995 23.216669
236.221878 42.015289
236.272171 17.63929
236.324463 10.85143
236.344818 21.69928
236.432358 10.66667
236.482162 13.58138
236.675674 21.01269
236.87178 7.8025
236.896286 4.978571
237.068176 14.525
237.256958 13.65348
237.785751 3.272059
237.980896 3.05625
238.116791 2.5
238.443527 3.822727
238.762543 29.76429
239.116608 18.09923
239.410782 6.76875
239.679993 8.20051
239.858551 5.111207
241.53685 8.612255
242.662186 9.662069
242.727264 4.249
242.889877 3.44537
243.106766 19.61231
244.072739 4.808333
244.133148 1403.355957
244.203735 3.005
244.240936 4.266667
244.291504 3.81
244.34935 7.844737
244.394058 4.633108
244.516815 11.225
244.551987 9.074122
244.568115 5.094737
244.617081 6.8
244.666107 13.4794
244.776566 5.314286
244.865433 6.229762
245.324936 12.2003
245.899246 4.816667
245.990707 17.505659
247.143509 42.681499
247.814468 2.42
247.861374 9.081818
247.914536 2.858333
248.046158 1.25
248.468079 2.801
248.634384 10.51032
249.159683 2207.430908
249.230499 8.563334
249.246048 2.669445
249.274841 2.829762
249.335526 6.907558
249.384705 3.6125
249.428864 3.969
249.481384 15.02609
249.506302 2.656818
249.546799 8.45
249.565277 5.513637
249.587997 3.82
249.611832 2.645
249.766479 9.544565
249.814499 14.15713
249.896973 15.06282
250.072342 7.163372
251.289444 4.458333
252.161423 4.712037
255.965225 2.664474
256.127594 11.38824
256.778503 3.001191
258.147949 34.19038
258.174408 3.417308
260.717896 9.016026
264.14563 4.622727
265.150635 27.22724
266.138824 6.282692
270.14328 9.800531
270.801788 3.38
303.993011 4.984615
343.087311 35.16227
345.20639 4.237121
345.891876 1.408333
353.928619 5.411765
362.192871 11.92813
364.171143 3.601191
374.196716 21.723459
375.202576 55.0299
384.606323 2.275
390.60791 12.11082
390.671997 2.15
390.698212 8.667593
390.802673 22.7302
390.874847 6.502084
390.91275 2.3
391.068298 11.33373
391.190948 26.82967
391.429993 10.40833
391.509033 2.069444
391.858917 1.6125
391.886566 13.46277
391.914124 5.681818
391.976105 3.603125
393.164429 22.12458
393.217926 1132.025024
393.30365 1.645
393.485992 9.025
393.520416 9.225
393.638153 11.163
393.686096 5.308333
393.737427 6.319122
393.757874 2.25625
393.824951 6.357432
393.87262 2.906579
394.073029 3.325
394.324341 8.719999
394.729156 17.014811
395.185394 5.503049
395.538483 3.896429
396.776001 5.288043
396.923157 5.854348
460.796661 30.006189
486.32373 28.991779
489.118439 5.605
533.18573 4.188462
615.724426 15.95728
751.909607 4.015385
824.999451 18.66283
1215.81543 3.288889
1237.608276 8.184615
1263.880127 5.404412
1466.744873 4.469828
1478.395264 7.269444
1601.730347 5.400758
