>compound Valsartan
>formula C24H29N5O3 
>ionization [M+H]+
>parentmass 436.236
#inchi InChI=1S/C24H29N5O3/c1-4-5-10-21(30)29(22(16(2)3)24(31)32)15-17-11-13-18(14-12-17)19-8-6-7-9-20(19)23-25-27-28-26-23/h6-9,11-14,16,22H,4-5,10,15H2,1-3H3,(H,31,32)(H,25,26,27,28)/t22-/m0/s1
#inchikey ACWBQPMHZXGDFX
#Ion_Source LC-ESI
#Instrument qTof
#Compound_Source Isolated
#PI Sirenas
#Data_Collector Ed Esquenazi 
#Scan -1
#Precursor_MZ 436.236
#ExactMass 0.0
#Charge 1
#CAS_Number N/A
#Pubmed_ID N/A
#Smiles N/A
#INCHI_AUX N/A
#Library_Class 3
#SpectrumID CCMSLIB00000005788
#IonMode Positive
#UpdateWorkflowName UPDATE-SINGLE-ANNOTATED-BRONZE
#LibraryQualityString Bronze
#TaskID d19310cd93df49b68e9fcbec27720eb5
##Scan# 2
#SpectrumFile Valsartan.mgf
#LibraryName fda_library.mgf
#MQScore -1
#Organism fda_library
#TIC_Query 0
#RT_Query -1
#MZErrorPPM -1
#SharedPeaks 0
#MassDiff 0
#LibMZ -1
#SpecMZ 436.236
#SpecCharge 0
#internalFilename spec-00000.mgf

>collision 10
102.214233 3.666667
102.30394 1.677696
102.381256 9.528602
114.591362 4.382936
115.053551 101.8022
118.0858 50.907921
118.228386 4.190407
119.86692 22.833611
124.125786 3.857143
126.046127 16.94108
129.0439 46.51667
130.081879 12.14685
135.976379 4.340278
137.037079 12.58889
137.091995 4.713362
139.053299 20.16667
140.049973 131.684799
140.335663 7.918134
140.419281 6.86095
141.067703 16.253469
141.075607 27.28824
149.750061 41.54464
150.541718 2.240741
151.050064 7.007548
151.358063 5.674242
152.060638 153.622192
152.176315 22.868219
152.222351 9.07218
152.545944 4.84375
153.068466 555.606995
153.113647 2.005208
153.122253 2.669872
153.164352 2.481618
153.210007 8.588644
153.234207 3.176471
153.337708 6.253655
155.083206 11.66689
155.316925 2.034722
156.140366 100.908997
156.185272 3.180556
156.307175 5.104167
156.541992 3.87037
162.145279 1.672619
163.055481 125.440697
163.303909 9.688597
164.060471 57.680328
165.066635 139.695099
165.127731 14.32997
165.235291 2.173611
166.062805 46.710621
166.08168 38.03093
166.17775 4.5
166.338104 7.329942
167.074539 187.227905
167.086899 23.14222
167.21669 7.230469
167.554367 12.21818
168.064423 20.04167
169.794907 8.28954
170.112747 5.671734
176.991608 8.240998
177.053024 23.908211
177.06749 10.03472
177.258499 6.114583
178.077744 948.518127
178.132019 1.675
178.161011 29.987761
178.192062 4.048611
178.244019 5.817581
178.297318 6.448994
178.354172 6.636111
178.396744 1.837963
178.447861 8.411526
178.457153 5.022059
178.494705 5.613575
178.666351 7.185185
178.731903 10.05235
179.019745 3.7675
179.044678 9.897157
179.083267 480.744995
179.129196 4.724691
179.196854 6.072917
179.241058 9.662393
179.267395 4.259339
179.344742 6.667175
179.36174 5.77486
179.411148 5.688386
179.681503 3.200758
179.812088 7.017857
180.080719 3627.85791
180.168152 9.483334
180.181076 13.30992
180.193802 13.15476
180.22728 6.642361
180.248505 2.166667
180.262482 5.240385
180.290131 3.316886
180.303192 20.177521
180.325623 9.47319
180.343018 4.891203
180.359528 19.376671
180.393158 7.408889
180.415985 8.935
180.479553 2.907408
180.493607 6.340833
180.533493 13.8617
180.575989 4.696419
180.689194 10.7675
180.719757 13.91421
180.759735 5.969444
180.788696 8.446934
180.938583 15.14083
181.05545 5.940025
181.068619 6.314815
181.443878 11.54438
181.603241 8.356482
181.75798 2.666667
182.032578 11.00139
182.730148 6.674603
183.075333 28.719311
184.132156 88.584427
184.488388 4.503788
185.007858 11.44971
185.448975 7.000379
188.885223 6.003538
188.901459 3.12963
188.990524 7.741072
189.000717 7.390752
189.088348 7.064637
189.122162 6.631194
189.141541 13.37444
189.191345 3.1875
189.473175 15.21811
189.783508 4.074405
189.81871 4.585874
189.968796 14.66329
190.065521 2969.363037
190.119659 24.02491
190.159286 2.863971
190.183197 9.075311
190.221542 5.835417
190.249176 8.439394
190.279129 4.52759
190.328171 11.61734
190.360764 11.34984
190.384415 34.512619
190.394318 5.343137
190.412262 2.391204
190.437561 12.27109
190.452164 7.5
190.485504 11.60922
190.497147 4.416667
190.577652 8.4925
190.600922 8.420592
190.687241 8.106215
190.917877 9.53293
191.011108 8.775641
191.043457 6.521739
191.163559 4.898148
191.299286 18.648569
191.524811 4.444444
191.63028 5.786765
191.726318 5.902369
191.787567 4.185307
191.87085 2.695513
191.901535 9.870637
192.044373 2.676535
192.080078 1983.357056
192.139816 6.96387
192.16272 10.37043
192.18782 3.840278
192.227768 3.560606
192.24176 7.430555
192.256897 17.027941
192.324432 33.250019
192.367188 2.361111
192.399658 9.160859
192.435211 2.083333
192.449554 3.551136
192.488174 4.847756
192.5112 15.26801
192.540756 2.670833
192.574799 11.20905
192.594345 4.851293
192.681 16.70895
192.852509 3.595109
192.864822 5.517857
192.936478 15.08626
192.947311 3.857143
193.012283 12.8046
193.053635 5.348485
193.068207 6.520061
193.098145 164.460007
193.14032 2.840833
193.29747 2.958333
193.343414 8.524899
193.406326 3.690104
193.425552 10.7373
193.460022 11.74754
193.711243 3.420259
193.84671 3.858135
193.945389 9.240131
194.060287 4.194221
194.096756 2168.679932
194.152863 12.7328
194.311478 10.80748
194.365906 2.761364
194.389709 5.529605
194.457611 8.188172
194.502899 5.506945
194.52829 8.693055
194.565582 9.444776
194.593536 3.282051
194.724487 2.226716
194.76828 3.282051
194.864227 7.818697
194.879868 5.502976
195.108231 3.859509
195.239792 8.965278
195.832397 7.065104
195.872223 7.430555
195.940262 2.786706
196.388504 9.100278
197.877945 2.52381
202.144226 21.243259
202.613876 1.844363
203.787949 2.526786
204.077789 25.176769
204.201126 6.348485
204.34082 3.010417
204.599579 8.015625
204.619675 5.127604
204.70575 6.394737
204.793274 3.12004
205.012726 6.551445
205.074371 316.038605
205.103607 21.91186
205.39769 2.520833
205.501556 4.527554
205.592316 9.1125
205.662476 12.09459
205.762451 30.031679
205.791946 13.53861
205.820328 29.121469
205.838348 83.602509
205.87236 71.494469
205.908997 41.89986
205.933517 36.293941
205.95314 12.54167
205.970551 32.970959
205.993408 39.13821
206.011765 33.351391
206.027374 5.961538
206.048645 115.4496
206.084 1220.623047
206.134766 44.064732
206.161102 14.94921
206.182724 36.599449
206.214081 9.834325
206.23494 5.867773
206.279663 8.804122
206.300003 18.303949
206.334015 7.933929
206.358398 18.811399
206.394836 1.851852
206.452423 14.69565
206.504807 7.189783
206.5186 10.5512
206.55481 4.007936
206.577957 9.445833
206.604309 5.177696
206.616776 5.697601
206.711624 7.416006
206.799881 16.916981
206.926254 14.20139
207.092239 40274.78125
207.336227 13.55358
207.37265 25.81982
207.401535 35.34153
207.419876 49.955631
207.447433 20.625
207.476303 60.643139
207.49855 36.808449
207.52095 38.49551
207.544128 46.443569
207.575851 71.190514
207.617126 65.782928
207.635162 76.857262
207.65799 39.495522
207.671707 25.133801
207.695526 31.72707
207.713654 10.92708
207.727631 33.236031
207.745148 37.27779
207.77327 19.49048
207.805206 34.37888
207.875244 16.619539
207.890778 46.940121
207.919174 35.796841
207.943222 42.820099
207.962158 1.690476
208.193542 31.2591
208.212769 8.841503
208.245712 42.601631
208.290848 6.104855
208.317871 12.00549
208.333603 6.020833
208.430603 3.482143
208.455704 8.148284
208.482285 18.901039
208.529099 14.71061
208.643997 11.85346
209.018997 11.79704
209.057693 4.011111
209.072372 11.44242
209.106979 793.420715
209.22673 6.666667
209.272812 9.826923
209.324356 6.673611
209.343216 9.321679
209.586334 7.906666
209.651245 5.505068
209.681351 7.853745
210.09108 98.75132
210.170319 8.101943
210.377228 1.340278
210.690308 5.026175
210.757446 13.4272
210.902344 6.415
210.914963 2.416667
210.990173 5.080044
211.05899 8.333726
211.802887 2.449074
213.52298 3.000992
217.071732 33.398529
217.780762 4.666667
217.844742 5.435417
219.18541 10.90675
219.803513 4.463141
220.112045 35.113171
220.590134 8.03592
221.093124 23.617189
221.447571 2.129808
226.273743 4.539244
227.800018 14.46314
229.367172 7.898026
231.096207 5.0
231.616501 10.84455
232.069046 22.27244
232.129395 16.308491
233.088821 51.933411
233.287277 3.667438
233.420135 2.671296
233.49826 15.94963
233.54245 2.201389
233.569763 19.93359
233.610245 1.741667
233.622269 57.47995
233.647537 9.224999
233.664093 128.690994
233.684586 34.32901
233.711853 57.576889
233.731415 63.416759
233.752853 79.804672
233.780579 103.561996
233.805878 88.800423
233.820847 24.766279
233.840714 41.258888
233.856934 24.513969
233.894714 88.714577
233.91272 17.364189
233.925125 25.06781
233.944504 48.958801
233.967819 44.849369
233.984589 19.40274
233.998932 31.67436
234.029343 61.77758
234.055161 45.81929
234.115051 50.535851
234.132858 7.989394
234.158417 27.41506
234.224091 14.89628
234.239761 3.233333
234.272293 7.867424
234.284668 8.092803
234.353806 20.34684
234.393494 4.100833
234.487122 15.4538
234.518494 7.040441
234.54425 8.926017
234.602951 15.17027
234.864624 12.66027
234.876678 3.482143
235.006805 13.16613
235.098373 51477.859375
235.208618 7.864583
235.257446 8.2032
235.316147 9.284989
235.465378 19.296511
235.492676 8.245833
235.522491 10.47813
235.539902 70.118492
235.561188 24.19426
235.587936 19.17716
235.633896 81.491257
235.68309 2.181818
235.699936 93.479431
235.820221 103.321602
235.839859 16.632
235.87796 13.77819
235.908615 7.404762
235.942642 20.74943
235.95932 43.38718
235.978409 29.15773
236.004944 18.683371
236.064102 46.727489
236.156403 16.26667
236.178986 45.871712
236.257538 28.96382
236.282944 14.79583
236.299698 14.70099
236.351608 36.89259
236.380554 46.564571
236.408829 8.360119
236.428146 27.407511
236.463699 25.96958
236.515976 9.865036
236.604935 22.53722
236.62262 24.67524
236.682724 18.21533
236.727386 26.67679
237.014725 12.19038
237.215485 3.0375
237.289474 3.0625
237.318253 4.948994
237.594711 2.668982
237.64296 7.181159
237.659119 2.175
237.707336 6.231771
237.932205 3.922149
237.954453 2.5
237.99202 9.333333
238.008133 6.160257
238.045746 3.621408
238.125534 11.22269
238.466171 3.851293
238.553619 11.53731
238.578384 2.854167
238.609436 3.5375
238.711288 2.583333
238.991318 4.678241
239.335938 4.668561
239.448669 3.539216
239.588654 3.025
240.117905 4.669445
240.299988 4.85335
240.676239 3.6125
240.796875 13.47325
241.007095 16.158131
241.083588 10.57843
241.105118 1.673611
241.457077 2.891204
241.493881 7.244907
242.451447 3.354167
243.123306 2.852623
243.297775 6.222222
243.35611 7.838141
243.633469 2.6675
243.677231 3.673611
244.072327 11.77811
244.107208 21.59383
244.274933 2.969697
244.669052 3.833333
245.112946 14.25069
245.706909 3.760417
246.124207 48.24345
246.268738 4.602083
246.71553 4.194444
247.083206 44.282761
247.130569 27.56917
248.136017 58.06572
248.177826 1.354167
248.934631 2.668056
249.138718 79.174606
249.989746 8.71839
250.110657 7.000443
252.632126 2.677083
257.113495 8.760417
261.139496 61.01025
261.720764 6.160088
262.116882 78.181648
263.1539 58.708549
263.323547 2.380952
263.387695 4.500563
264.157623 42.742989
264.187408 7.420139
267.243591 7.439533
271.059174 2.906703
273.139893 128.690002
273.707001 6.407461
274.120331 36.02298
275.406555 3.677778
277.16037 8.370536
278.0513 4.5375
278.16507 127.083298
278.213745 2.852623
279.049957 5.789541
279.093231 5.940025
279.24469 2.1875
280.884766 3.223214
281.472748 3.015152
282.091766 3.340833
285.087708 15.64934
286.067932 3.68109
286.479279 3.364268
287.504761 2.835938
287.640656 3.0125
289.170349 1.677083
289.246094 10.68542
289.265289 9.673801
289.301666 44.9459
289.32959 68.528229
289.36731 100.867203
289.407074 50.338409
289.43811 70.818443
289.490784 46.610001
289.525085 47.720089
289.546875 15.63626
289.562988 33.28286
289.580139 18.70417
289.592773 34.76244
289.634552 26.049879
289.67099 24.216909
289.721802 50.54372
289.763306 8.090278
289.785889 6.004167
289.970306 18.72558
290.140137 107.355003
290.158539 9.777778
290.236755 6.572024
290.262756 46.37645
290.38681 18.812969
290.455841 15.34288
290.48822 44.82695
290.847687 14.02148
290.871552 8.333333
290.912994 13.99167
290.941925 10.67308
290.989624 5.224537
291.011353 12.73253
291.059235 35.49461
291.103271 54.52668
291.150055 43841.109375
291.545227 69.863167
291.571869 46.966148
291.604492 36.489929
291.624237 28.14521
291.645172 41.539028
291.67392 36.664879
291.698029 33.690811
291.724731 76.438553
291.757721 82.192993
291.781403 88.935059
291.808807 19.128969
291.833649 50.39645
291.852448 46.991909
291.88623 51.10178
291.933777 69.533257
291.979034 97.962891
292.021973 26.55011
292.062347 37.29504
292.092285 61.144489
292.23288 68.105293
292.291443 4.657773
292.313965 34.062168
292.36322 27.13653
292.570343 15.86462
292.651764 32.907108
292.689972 28.671659
292.918427 9.636095
292.959106 9.281068
293.043793 9.045834
293.135803 5.738817
293.2117 7.710648
293.249481 2.580357
293.281708 16.833639
293.350433 6.351523
293.398071 6.700379
293.424438 7.081191
293.515747 5.953373
293.606659 5.34058
293.660309 6.370833
293.94162 11.5627
293.958374 7.861111
294.006195 11.0615
294.06543 8.54529
294.339508 5.2675
294.680206 4.888889
294.894745 6.484543
294.966431 14.16686
294.991455 17.959249
295.197784 8.743675
295.618958 4.926136
295.660828 1.5125
295.879761 3.153409
296.378906 7.539244
296.52951 10.57317
296.786499 3.670455
297.128174 6.918403
297.158203 3.166667
297.798492 8.355051
298.972076 5.839285
299.321045 5.088768
300.605286 3.068055
301.186218 3.504167
301.830109 4.876736
302.781158 14.83622
304.032166 1.8
304.057007 11.76603
304.087097 5.734722
304.197937 8.902409
304.228271 2.000992
304.246002 22.39683
304.271881 8.148809
304.292725 16.34322
304.337494 28.481701
304.368408 7.887821
304.40567 17.537769
304.426849 32.353889
304.454773 24.519329
304.493134 56.851021
304.513702 20.39352
304.535492 90.119034
304.628082 13.083
304.671539 8.348333
304.706024 1.851852
304.797638 40.844681
304.887054 4.191468
305.266388 31.35141
305.370117 7.574405
305.595093 5.510629
305.674164 4.52374
305.887085 2.041667
305.923584 4.547348
306.064209 6.001984
306.122162 64.682373
306.136597 4.338141
306.171844 15734.839844
306.293243 6.961235
306.335693 8.743125
306.372864 34.55859
306.432526 84.073242
306.471649 20.106991
306.486572 10.51547
306.545654 62.93251
306.57431 14.01491
306.59256 18.141979
306.635742 77.352547
306.68689 29.916
306.704926 23.65941
306.723602 25.41008
306.745361 19.899639
306.768188 33.688412
306.829254 9.665385
306.84613 48.14267
306.87027 36.761971
306.891724 58.49926
306.951019 14.77315
306.978119 15.70033
307.009155 15.0886
307.0354 36.29203
307.08548 13.99405
307.282013 11.253
307.304901 18.41634
307.327271 20.81711
307.503845 21.184031
307.56842 13.47327
307.610535 6.91875
307.627411 25.232241
307.814758 3.266667
307.934937 10.19254
307.965027 15.08908
308.220398 4.797619
308.380676 2.004167
308.857391 6.057692
309.016357 5.820153
309.418915 4.560049
309.94046 4.535201
310.358276 5.000631
310.663727 2.942935
311.807281 6.20777
317.073395 4.5
319.146942 84.135437
319.190155 3.017045
320.315277 6.702571
322.079742 2.884615
324.163544 8.703743
324.810577 5.565188
329.476562 3.544384
332.806396 3.368534
333.210114 7.987179
335.509155 2.181818
337.306061 2.714286
340.63916 4.014881
345.167938 8.395833
345.195557 212.263702
345.568756 2.181818
345.607574 3.354167
345.911621 3.500718
345.944305 5.939394
346.52655 5.348215
347.460907 3.940025
349.976196 23.939301
350.006409 5.454545
350.030151 11.38554
350.0849 7.47405
350.133484 17.63467
350.247314 12.53018
350.34024 2.893518
350.768311 2.355978
350.872559 4.780996
351.19339 3.409091
351.218048 4.06813
351.391083 11.57186
351.672089 2.486742
352.122162 19.463079
352.177673 3766.12793
352.259735 14.85771
352.281891 6.672619
352.301788 11.81342
352.327271 8.532739
352.353394 5.675
352.388245 10.6359
352.439606 4.018939
352.47757 14.74386
352.516479 10.4326
352.551483 9.882111
352.587036 32.71487
352.621826 45.252331
352.701233 15.30833
352.738281 10.55772
352.780884 13.05693
352.82373 7.697304
352.876923 20.376511
352.955353 10.71626
353.001099 3.705128
353.030701 11.00312
353.321564 18.972919
353.735016 10.38393
354.206329 9.41358
354.526581 2.893518
354.963776 2.860119
355.619507 2.337963
358.719025 2.520833
359.80484 3.520833
359.8255 6.380682
359.883392 4.01796
359.903229 2.920139
359.927551 5.738889
359.94278 2.711051
359.991486 5.034167
360.017914 21.20149
360.049255 3.185606
360.10141 4.01875
360.167175 9.3015
360.259766 4.03125
360.286102 5.83507
360.360718 6.533333
360.626801 6.806818
360.86084 7.125
360.974731 3.0625
361.061279 7.38966
361.218719 4.280093
361.694366 6.122685
361.725616 5.973922
362.019867 12.32996
362.154175 26.570709
362.223419 3809.774902
362.318634 48.43652
362.355804 8.85963
362.427277 33.744091
362.454193 13.78333
362.484406 46.546322
362.513641 24.0825
362.567841 17.792299
362.584473 15.54591
362.62326 15.06651
362.689453 11.2491
362.734375 16.92824
362.799652 9.017303
362.889252 12.26088
363.038757 6.020833
363.098145 16.577591
364.172699 2.544384
364.57193 2.901389
366.037262 3.640152
366.247101 6.588644
366.986359 2.167572
387.587616 1.6875
390.221619 127.775101
390.632751 7.037281
396.127014 2.92803
408.225067 136.392395
408.422577 9.309949
408.479279 3.266667
408.765594 4.32353
410.043884 2.653409
411.353912 4.253472
411.52533 8.704545
414.447144 2.834326
415.630737 4.845446
415.680389 5.251736
416.830231 2.016667
418.111176 23.39794
418.178833 12.65661
418.223419 641.005371
418.370117 3.109069
418.636047 4.501225
418.785126 8.206618
419.143433 6.886905
419.355743 10.50399
419.512329 3.282051
436.24295 26.66667
436.301697 6.809295
437.114868 4.520833
448.659485 2.166667
455.903442 2.580357
517.525574 20.334431
524.864807 18.744829
561.565857 13.16689
784.069702 3.791667
974.884399 20.633499
1114.26709 2.900833
1307.39502 5.401389
1391.345093 10.32699
1550.506958 5.16711
1581.758057 10.50417
1590.241699 2.75947
