>compound MLS001158424-01!
>formula C29H30N4O6
>ionization [M+H]+
>parentmass 531.223999
#inchi InChI=1S/C29H30N4O6/c1-17(28(34)31-10-11-32-12-14-38-15-13-32)39-18-4-6-22-21(16-18)19-8-9-30-25-20-5-7-23(36-2)27(37-3)24(20)29(35)33(22)26(19)25/h4-9,16-17H,10-15H2,1-3H3,(H,31,34)
#inchikey NQXCIGLNRGUCQV
#Ion_Source LC-ESI
#Instrument qTof
#Compound_Source NIH Natural Product Library
#PI Dorrestein
#Data_Collector VVP/LMS
#Scan -1
#Precursor_MZ 531.224
#ExactMass 530.217
#Charge 1
#CAS_Number N/A
#Pubmed_ID N/A
#Smiles COc1ccc2c3nccc4c5cc(OC(C)C(=O)NCCN6CCOCC6)ccc5n(c(=O)c2c1OC)c43
#INCHI_AUX N/A
#Library_Class 1
#SpectrumID CCMSLIB00000080610
#IonMode Positive
#UpdateWorkflowName UPDATE-SINGLE-ANNOTATED-GOLD
#LibraryQualityString Gold
#TaskID b1d8e8f6646f4e71acdff9ca3d919d08
##Scan# 1713
#SpectrumFile p2-F11_GF11_01_18047.mzXML
#LibraryName NIH_Natural_Products_Library.mgf
#MQScore -1
#Organism NIH_Natural_Products_Library
#TIC_Query 0
#RT_Query -1
#MZErrorPPM -1
#SharedPeaks 0
#MassDiff 0
#LibMZ -1
#SpecMZ 531.224
#SpecCharge 0
#internalFilename spec-00000.mgf

>collision 10
95.503571 176.0
96.080177 128.0
96.26561 128.0
96.283188 40.0
96.332016 212.0
96.877815 44.0
97.313202 164.0
97.602043 136.0
97.72596 164.0
97.794838 64.0
97.926758 168.0
98.009499 392.0
98.035118 108.0
98.060661 4528.0
98.151421 44.0
98.246094 48.0
98.305283 44.0
98.346733 132.0
98.573853 216.0
99.066978 4908.0
99.12397 56.0
99.161629 44.0
99.357941 156.0
99.733261 100.0
99.836647 192.0
100.075432 12036.0
100.119064 44.0
100.149117 88.0
100.208878 80.0
100.224823 160.0
100.240761 60.0
100.338432 48.0
100.366341 212.0
100.641701 72.0
100.985428 216.0
101.077995 972.0
101.219582 68.0
101.242409 100.0
101.287674 140.0
101.321732 84.0
101.363808 56.0
101.381844 180.0
101.809158 120.0
101.833252 100.0
101.887489 48.0
101.913612 184.0
102.080452 120.0
102.860168 124.0
103.062126 80.0
103.080315 128.0
103.118713 200.0
103.258217 100.0
104.432571 136.0
105.074257 52.0
105.125267 104.0
105.578789 140.0
105.750648 180.0
105.926743 48.0
105.941086 148.0
106.939049 156.0
107.210907 180.0
107.516129 104.0
108.339088 160.0
108.475861 56.0
108.720123 120.0
108.861778 76.0
108.961479 156.0
109.971451 184.0
110.08419 204.0
110.286842 192.0
110.372559 144.0
110.482109 212.0
110.512703 188.0
110.640373 132.0
110.90432 44.0
111.611809 96.0
112.075302 204.0
112.239304 196.0
112.726921 220.0
113.083641 1184.0
113.126671 128.0
113.357536 152.0
113.809357 148.0
113.928291 180.0
114.026039 52.0
114.091881 2660.0
114.128075 80.0
114.340805 184.0
114.366348 100.0
114.540955 60.0
114.62191 172.0
115.093521 604.0
115.80761 212.0
115.944725 56.0
116.094795 148.0
116.410255 140.0
116.45536 60.0
116.60791 144.0
117.158768 176.0
118.411621 124.0
119.051399 76.0
119.705971 112.0
119.756065 88.0
120.277191 200.0
120.410385 232.0
120.473724 180.0
120.9198 72.0
121.235168 92.0
121.447838 172.0
121.489517 64.0
122.084763 76.0
122.157349 116.0
122.573471 76.0
123.085228 188.0
123.215546 132.0
123.50071 204.0
123.930191 60.0
125.457069 92.0
125.747047 92.0
125.865364 192.0
126.050766 120.0
126.137932 160.0
126.395134 136.0
127.085266 140.0
127.316483 148.0
127.386108 80.0
127.426544 64.0
127.597359 184.0
127.986603 120.0
128.029388 100.0
128.110474 212.0
128.55014 200.0
129.033524 140.0
129.100143 360.0
129.440796 188.0
129.540451 136.0
129.676407 168.0
130.359528 140.0
130.607346 108.0
130.846298 128.0
130.987488 120.0
131.092285 132.0
131.117172 152.0
131.158386 56.0
131.295181 148.0
131.368179 144.0
131.80426 192.0
131.971115 112.0
132.124359 156.0
132.850586 216.0
133.004333 128.0
133.696152 40.0
134.368988 92.0
134.96489 224.0
135.773087 208.0
135.893707 56.0
135.912262 120.0
136.074738 120.0
136.097961 88.0
136.979401 160.0
137.392029 164.0
137.774902 100.0
137.98056 116.0
138.366592 116.0
138.74614 160.0
141.107559 196.0
141.270737 32.0
141.8936 180.0
142.054871 64.0
142.099945 52.0
142.213852 172.0
143.11763 188.0
143.415009 160.0
144.512711 184.0
145.474594 176.0
146.397888 160.0
146.446045 128.0
147.234726 160.0
147.892365 140.0
147.957718 168.0
148.226578 184.0
148.468994 36.0
148.602402 192.0
148.748016 188.0
148.961716 56.0
149.073471 192.0
149.090485 92.0
149.428482 144.0
149.489319 164.0
149.574509 152.0
150.151962 156.0
150.955429 124.0
151.373886 136.0
151.481644 136.0
151.89592 148.0
151.964615 176.0
152.038239 196.0
152.873795 84.0
153.105209 220.0
153.349121 128.0
153.733856 64.0
154.497345 176.0
154.742371 132.0
154.794357 116.0
154.95784 72.0
155.0867 140.0
155.121964 124.0
155.151154 168.0
155.178436 108.0
155.853546 108.0
156.189178 224.0
156.223999 132.0
156.58493 164.0
156.968719 68.0
157.018585 140.0
157.098404 164.0
157.138321 144.0
157.250626 76.0
157.370453 160.0
157.442856 60.0
158.18045 40.0
158.506042 116.0
158.531113 116.0
158.972473 92.0
159.010117 164.0
159.06282 168.0
159.492371 164.0
160.189392 172.0
160.4767 208.0
160.519562 136.0
161.362915 92.0
161.625961 124.0
163.107071 160.0
163.234192 160.0
163.982666 164.0
164.048935 104.0
164.574509 116.0
164.658768 96.0
164.737961 180.0
165.164856 108.0
165.420746 40.0
165.5923 96.0
165.720383 124.0
165.935684 112.0
166.253754 112.0
166.489944 120.0
166.716003 112.0
166.926804 168.0
167.758438 104.0
168.638657 120.0
168.832565 172.0
169.130112 112.0
169.246613 80.0
170.364441 96.0
170.522949 104.0
170.616531 188.0
171.637161 160.0
172.242645 168.0
172.791641 168.0
173.113586 216.0
173.23407 192.0
173.252411 128.0
173.505539 144.0
174.299286 48.0
174.412292 212.0
174.722595 76.0
175.25708 140.0
175.491669 304.0
176.080124 192.0
176.233353 136.0
176.68811 172.0
176.733078 76.0
176.764832 188.0
176.960709 172.0
177.159332 228.0
177.864716 200.0
177.945206 164.0
178.395996 28.0
178.667252 160.0
178.949371 212.0
179.063873 160.0
179.436951 240.0
179.967896 124.0
180.812637 88.0
180.930405 52.0
181.010727 92.0
181.495743 136.0
181.632523 88.0
181.704956 252.0
182.043152 140.0
182.070007 172.0
182.397812 68.0
183.525833 152.0
183.563583 232.0
183.876526 140.0
184.964966 156.0
185.095749 156.0
185.12854 712.0
185.518417 184.0
185.588913 180.0
185.63501 176.0
185.925278 152.0
186.104446 208.0
186.136276 5012.0
186.179825 232.0
186.261963 188.0
186.283691 56.0
186.612534 36.0
186.661484 176.0
186.764816 76.0
186.821945 68.0
186.925339 40.0
187.102264 116.0
187.140808 1004.0
187.301056 84.0
188.102753 168.0
188.135498 148.0
188.280228 156.0
188.433197 100.0
188.584885 124.0
188.763931 120.0
188.963608 240.0
189.363266 76.0
189.49202 136.0
190.356049 172.0
190.452164 220.0
190.537323 176.0
190.688461 148.0
190.878143 144.0
191.855591 148.0
192.192062 116.0
192.487427 164.0
192.533585 156.0
192.755371 60.0
193.042862 136.0
193.063904 132.0
193.253082 112.0
194.072952 40.0
194.197739 116.0
194.722305 180.0
194.819534 160.0
194.983475 124.0
195.634354 44.0
195.703964 28.0
196.361618 180.0
196.950546 176.0
197.170837 128.0
197.727829 152.0
198.318802 136.0
198.391678 44.0
199.970337 116.0
200.018173 92.0
200.530823 168.0
200.601288 116.0
201.315125 124.0
201.919907 156.0
202.089645 132.0
202.123596 104.0
202.183029 128.0
202.36702 144.0
202.779282 204.0
202.996078 212.0
203.089661 132.0
203.393265 48.0
204.692551 176.0
204.94606 224.0
205.205444 196.0
205.348022 232.0
205.656174 120.0
206.333191 156.0
206.456146 128.0
206.496185 100.0
206.570557 132.0
206.762253 160.0
206.919693 112.0
207.254807 124.0
207.435364 168.0
207.570114 188.0
207.601654 116.0
207.779495 116.0
207.816788 68.0
208.692825 148.0
209.15889 120.0
209.752274 148.0
210.239716 84.0
210.730606 88.0
211.294388 88.0
211.647507 160.0
211.679352 212.0
211.765762 124.0
212.003799 132.0
212.247299 88.0
212.392319 192.0
212.595413 168.0
212.786987 164.0
213.877136 176.0
215.510269 148.0
216.095032 92.0
216.674744 180.0
216.953156 200.0
216.979538 152.0
217.108551 168.0
217.369644 36.0
217.674927 204.0
218.126022 1160.0
218.286148 188.0
218.689209 128.0
218.751022 152.0
219.129227 192.0
219.275314 52.0
219.481674 120.0
219.64093 84.0
219.661591 156.0
220.110199 160.0
220.130859 400.0
220.337616 92.0
220.444 204.0
221.793594 120.0
221.918106 80.0
223.52803 260.0
224.233826 152.0
224.350082 180.0
224.376907 124.0
224.430588 104.0
224.851578 160.0
224.943726 120.0
225.095993 156.0
225.588974 80.0
226.783325 172.0
227.074158 60.0
227.344177 128.0
228.055969 176.0
228.089035 124.0
229.067001 148.0
229.70607 116.0
230.092346 196.0
230.216141 180.0
230.560547 208.0
230.693542 88.0
230.763077 164.0
230.817505 184.0
231.256165 164.0
231.537735 36.0
231.65889 144.0
231.858871 180.0
232.562531 144.0
233.081848 188.0
233.461823 208.0
233.525696 192.0
234.210541 216.0
234.512192 204.0
234.658524 144.0
234.692062 144.0
234.853683 136.0
236.130386 180.0
236.574066 124.0
237.02124 84.0
237.241913 112.0
237.659027 148.0
237.919907 104.0
238.245438 160.0
238.325317 220.0
238.841797 236.0
238.891022 192.0
239.075623 160.0
239.241837 120.0
239.722336 80.0
239.950424 104.0
239.99942 180.0
240.592133 120.0
241.438782 136.0
241.890518 128.0
242.048416 132.0
242.494522 68.0
242.917892 156.0
243.127213 116.0
243.263779 148.0
243.763824 224.0
243.984512 204.0
244.382614 88.0
244.519165 168.0
244.81218 128.0
244.896271 156.0
245.067612 128.0
245.223419 64.0
245.46347 184.0
246.087524 112.0
246.499054 80.0
246.781158 72.0
247.078278 152.0
247.547791 80.0
247.7733 152.0
248.613647 176.0
249.081467 124.0
249.14743 152.0
249.442841 132.0
250.452911 140.0
250.572617 156.0
251.575516 152.0
251.884979 128.0
252.030304 148.0
253.70459 184.0
254.037567 180.0
254.078812 204.0
254.145432 172.0
254.319977 224.0
254.971085 140.0
255.004608 136.0
255.661194 132.0
256.132416 116.0
256.243927 140.0
256.916595 72.0
257.232544 196.0
257.382599 204.0
257.411346 128.0
257.900146 84.0
258.078644 168.0
258.248657 164.0
258.271057 216.0
258.619812 104.0
258.703033 204.0
258.795898 228.0
259.058502 148.0
259.18988 112.0
260.9263 156.0
261.093506 160.0
261.17392 84.0
261.267212 80.0
261.450623 276.0
261.894928 172.0
262.017334 112.0
262.059204 172.0
262.126892 148.0
262.191345 120.0
262.604004 128.0
262.733032 172.0
263.078339 160.0
263.174438 168.0
263.217194 136.0
263.637146 196.0
263.688843 52.0
264.76297 112.0
267.308075 120.0
267.490356 192.0
267.943024 224.0
268.104584 204.0
269.025757 172.0
269.594086 68.0
269.819611 56.0
270.156464 164.0
270.762024 64.0
270.968384 80.0
271.076508 200.0
272.096161 1012.0
272.418457 164.0
272.59259 104.0
272.681305 176.0
272.842377 68.0
272.990356 84.0
273.023224 44.0
273.190979 204.0
273.948151 132.0
274.025604 180.0
274.077362 1012.0
274.149139 112.0
274.198547 68.0
274.775635 128.0
275.071259 148.0
275.085236 124.0
276.093018 136.0
276.196136 108.0
276.742188 128.0
277.043579 164.0
277.106506 176.0
277.26889 204.0
277.388214 72.0
277.739685 180.0
278.018402 96.0
278.048248 80.0
278.081451 184.0
278.240784 112.0
278.390198 148.0
278.476562 96.0
278.918488 36.0
279.839996 152.0
279.88327 120.0
281.089935 172.0
281.553986 36.0
282.005829 148.0
282.295868 136.0
282.627045 132.0
283.083832 188.0
283.105713 232.0
283.655212 200.0
283.926788 140.0
283.96402 152.0
284.0784 120.0
284.131409 164.0
284.890137 96.0
285.066895 140.0
285.589325 156.0
285.781067 120.0
285.841644 120.0
285.905579 108.0
286.07193 296.0
286.454407 176.0
286.75766 148.0
286.932953 136.0
286.977081 124.0
287.050964 172.0
287.084503 344.0
287.115021 144.0
287.526611 176.0
287.881104 164.0
288.301727 156.0
288.314026 184.0
288.343933 140.0
288.502808 160.0
288.749634 156.0
289.061188 544.0
289.097351 220.0
289.771942 180.0
289.860016 40.0
290.108276 212.0
290.348206 160.0
290.704407 192.0
291.621368 136.0
292.522766 92.0
293.197174 96.0
293.701782 128.0
293.920135 140.0
294.049805 96.0
294.527832 144.0
294.555145 152.0
295.221619 120.0
295.936798 40.0
296.426605 192.0
297.081909 168.0
297.112366 228.0
297.503601 88.0
297.891663 132.0
297.992981 148.0
298.090912 136.0
299.046997 132.0
299.077454 288.0
300.059113 168.0
300.08847 992.0
300.121826 204.0
300.321838 100.0
300.521942 144.0
301.060425 348.0
301.099762 520.0
301.143311 32.0
301.598297 136.0
301.703125 56.0
301.76535 160.0
301.789551 56.0
301.858704 52.0
302.069397 712.0
302.170013 112.0
302.969757 132.0
303.032104 240.0
303.078247 1772.0
303.340546 156.0
303.420288 64.0
303.47229 212.0
303.891968 164.0
303.933594 36.0
304.079346 900.0
304.659241 80.0
304.756531 80.0
304.933746 44.0
305.088776 296.0
305.213959 112.0
305.490845 92.0
305.538788 120.0
306.008636 132.0
306.224548 88.0
306.506744 180.0
306.653107 76.0
306.943054 120.0
307.109863 228.0
307.322662 200.0
307.587891 52.0
307.839264 136.0
308.125702 84.0
308.461182 220.0
309.041718 192.0
309.489746 128.0
309.941589 156.0
310.677887 140.0
310.821747 204.0
311.083527 140.0
311.183258 144.0
311.418549 184.0
311.629333 104.0
311.812042 140.0
312.051086 48.0
312.083862 132.0
312.149536 72.0
312.596283 216.0
312.680756 48.0
312.923645 160.0
312.958862 44.0
312.98349 72.0
313.053101 308.0
313.091797 480.0
313.363892 32.0
313.487213 88.0
313.793884 144.0
313.959625 120.0
314.069092 300.0
314.143036 128.0
315.077454 124.0
315.350647 160.0
315.446106 204.0
315.806763 120.0
315.866882 100.0
316.077179 192.0
316.210114 96.0
316.387085 108.0
316.521637 72.0
316.581848 112.0
316.67038 188.0
316.730591 236.0
316.865204 204.0
316.936066 136.0
316.964417 68.0
317.007721 140.0
317.092773 10860.0
317.240875 192.0
317.412323 56.0
317.517975 52.0
317.669952 224.0
317.705444 124.0
317.819977 228.0
317.914795 68.0
318.01416 212.0
318.042267 96.0
318.096954 3628.0
318.301239 60.0
318.379852 60.0
318.447327 104.0
318.507721 56.0
318.605011 144.0
318.958984 72.0
318.987427 60.0
319.103607 1008.0
319.165192 100.0
319.937256 116.0
320.080139 88.0
320.294037 104.0
320.435852 112.0
320.464355 68.0
320.560577 128.0
320.58551 240.0
320.706696 104.0
321.086517 128.0
321.214172 148.0
321.523438 112.0
321.691193 144.0
321.816162 104.0
321.851868 152.0
321.99469 136.0
322.062561 104.0
322.448425 120.0
322.662903 104.0
322.991913 120.0
324.090881 128.0
324.52829 140.0
324.729095 156.0
324.955078 44.0
325.088898 180.0
325.12085 168.0
325.518646 152.0
325.805969 148.0
326.100616 128.0
326.273163 48.0
326.29834 148.0
326.611206 180.0
326.668762 144.0
327.079834 784.0
327.136566 168.0
327.413818 56.0
327.493073 156.0
327.575897 60.0
327.698395 188.0
328.08551 1116.0
328.394135 48.0
328.462677 164.0
328.827087 176.0
329.046631 364.0
329.09494 1684.0
329.195892 156.0
329.787842 56.0
329.83844 204.0
329.870972 140.0
330.095123 936.0
330.250641 120.0
330.413452 44.0
330.564117 156.0
330.728271 160.0
330.762543 128.0
330.869446 96.0
331.072052 3508.0
331.220703 104.0
331.441711 100.0
331.477936 56.0
331.688171 60.0
331.738922 204.0
331.789673 48.0
331.923828 160.0
332.077393 3992.0
332.188568 48.0
332.213959 56.0
332.2453 88.0
332.409882 48.0
332.469757 48.0
332.496979 152.0
332.533295 68.0
332.602234 56.0
332.950806 48.0
333.084991 452.0
333.205078 148.0
333.452179 52.0
333.553955 136.0
333.644836 64.0
333.724823 88.0
333.863007 64.0
333.910278 36.0
334.084442 136.0
334.126007 72.0
334.190369 56.0
334.270416 156.0
334.386871 56.0
334.441467 152.0
334.532471 132.0
335.399445 68.0
335.592651 208.0
336.094025 140.0
336.187256 156.0
336.490204 44.0
337.096558 136.0
337.367004 160.0
337.465729 128.0
338.010742 48.0
338.124176 100.0
338.442657 76.0
338.508575 132.0
338.87854 104.0
339.096497 92.0
339.439331 112.0
339.806122 104.0
340.082062 696.0
341.092712 388.0
341.381927 40.0
342.011047 164.0
342.082825 124.0
342.108002 96.0
342.161987 108.0
342.198822 192.0
342.294556 108.0
342.445526 96.0
342.692352 96.0
343.074188 952.0
343.521851 148.0
343.986816 96.0
344.016357 148.0
344.077118 452.0
344.200958 168.0
344.232544 108.0
344.38562 64.0
344.411469 52.0
344.699646 64.0
344.795715 112.0
344.825287 140.0
344.891815 204.0
344.925079 108.0
345.012726 192.0
345.087524 8128.0
345.268951 180.0
345.348389 84.0
345.358276 128.0
345.427979 60.0
345.527863 120.0
345.579681 120.0
345.634827 44.0
345.812805 72.0
345.849823 56.0
345.968292 36.0
346.093353 7004.0
346.397858 108.0
346.446014 56.0
346.527527 192.0
346.909241 48.0
346.94632 116.0
347.101929 5616.0
347.170349 204.0
347.276337 192.0
347.320831 56.0
347.391327 72.0
347.754974 40.0
347.881165 76.0
347.928009 104.0
347.959137 60.0
348.102875 1264.0
348.154755 212.0
348.2005 184.0
348.263489 92.0
348.344818 136.0
348.516266 92.0
348.58316 132.0
348.854462 92.0
348.987213 68.0
349.009399 148.0
349.062683 104.0
349.114258 368.0
349.289551 40.0
349.386261 144.0
349.453247 116.0
349.538818 48.0
349.769562 112.0
350.13446 156.0
350.346771 84.0
350.436188 140.0
350.76413 84.0
350.946808 64.0
351.010193 52.0
351.069855 132.0
351.364532 108.0
352.088593 172.0
352.215668 52.0
352.297852 128.0
352.712646 88.0
353.090271 152.0
353.221191 104.0
353.37085 132.0
354.040863 160.0
354.077057 188.0
354.449188 56.0
354.629089 184.0
355.007751 64.0
355.065674 336.0
355.10672 452.0
355.592987 132.0
355.975922 76.0
356.076111 348.0
356.100372 208.0
356.38913 136.0
356.625885 76.0
356.727356 168.0
357.091034 1336.0
357.178619 60.0
357.261353 56.0
357.607544 76.0
357.776947 192.0
357.893646 56.0
357.984039 88.0
358.097687 3596.0
358.206238 96.0
358.232422 76.0
358.273163 68.0
358.500122 96.0
358.530273 52.0
358.662598 184.0
358.937408 92.0
359.098602 676.0
359.208954 40.0
359.446655 100.0
359.597595 48.0
359.884491 116.0
360.065765 144.0
360.104279 660.0
360.953827 104.0
361.077637 212.0
361.116455 92.0
361.150513 148.0
361.211029 112.0
361.335876 92.0
361.540192 128.0
361.608307 124.0
361.846802 48.0
361.884674 48.0
362.072571 192.0
362.327789 116.0
362.411133 160.0
362.710541 60.0
362.778778 100.0
363.09726 104.0
363.643616 60.0
363.837219 96.0
365.125336 252.0
365.273682 40.0
365.673187 160.0
365.737915 152.0
366.079742 436.0
366.114838 192.0
366.739655 184.0
367.056091 144.0
367.089142 144.0
367.129272 196.0
368.092712 528.0
369.092896 160.0
370.088409 336.0
370.212555 128.0
370.396393 132.0
370.457672 84.0
370.653076 72.0
370.764221 120.0
370.861053 188.0
370.963531 128.0
371.070801 240.0
371.120911 300.0
371.323975 52.0
371.615509 92.0
371.88797 108.0
372.045349 128.0
372.082245 184.0
372.221954 116.0
372.356384 120.0
372.479279 116.0
372.525391 208.0
372.594543 152.0
372.905792 140.0
372.962372 176.0
373.118347 12520.0
373.179962 204.0
373.195007 168.0
373.359467 60.0
373.424835 88.0
373.667175 28.0
373.694122 100.0
373.851868 52.0
373.909607 84.0
373.986572 84.0
374.046356 160.0
374.121552 3696.0
374.302277 72.0
374.329224 56.0
374.433197 48.0
374.612274 124.0
374.779907 76.0
375.068939 40.0
375.122681 476.0
375.200012 60.0
375.500793 64.0
375.736084 100.0
375.882721 80.0
376.090057 180.0
376.120972 132.0
376.264832 88.0
376.341949 96.0
376.434723 72.0
376.573761 108.0
376.649994 76.0
376.701202 88.0
376.963959 60.0
377.002594 108.0
377.443268 56.0
378.890839 60.0
379.030334 64.0
379.239594 168.0
379.441162 56.0
379.704865 60.0
380.103394 532.0
380.325653 152.0
380.927521 80.0
381.103729 464.0
381.518188 116.0
382.085999 244.0
382.117096 412.0
382.257202 56.0
382.72821 128.0
383.101471 348.0
383.838715 52.0
384.101532 1136.0
384.220978 120.0
385.103607 636.0
385.220367 68.0
385.368805 168.0
385.962921 44.0
386.091156 1136.0
386.158478 196.0
386.330566 144.0
386.428375 60.0
387.094604 200.0
387.285706 140.0
387.991058 72.0
389.223053 124.0
391.007812 160.0
391.362091 120.0
392.236694 176.0
392.410156 100.0
392.820312 72.0
393.037292 124.0
393.088593 160.0
393.118561 316.0
393.409332 92.0
394.114929 144.0
395.127869 208.0
395.29361 28.0
395.879486 176.0
395.907196 124.0
396.101593 308.0
396.1409 140.0
396.850281 116.0
396.961334 116.0
397.098114 280.0
397.770691 152.0
397.862 60.0
398.11557 1964.0
398.533203 172.0
398.795502 76.0
399.002197 36.0
399.069794 156.0
399.120911 1064.0
399.296448 168.0
399.547058 124.0
400.044525 36.0
400.126617 1364.0
400.219574 128.0
400.940704 48.0
401.112823 3672.0
401.215729 56.0
401.698273 184.0
401.853882 176.0
402.11792 536.0
402.776062 136.0
402.823975 108.0
403.103943 312.0
403.343475 28.0
403.431396 56.0
403.543365 100.0
404.123291 128.0
404.226349 48.0
404.851837 168.0
404.971985 36.0
405.380615 80.0
405.645142 88.0
406.72821 28.0
407.51532 92.0
407.720276 96.0
408.81012 220.0
409.381744 140.0
409.567017 156.0
409.897369 100.0
410.113647 776.0
410.203674 136.0
411.125397 608.0
412.127441 656.0
413.07077 60.0
413.144226 316.0
413.540131 60.0
413.60083 92.0
413.944977 48.0
414.105621 336.0
414.609344 76.0
414.739044 84.0
415.117493 140.0
415.149933 184.0
415.440552 108.0
415.830109 184.0
416.089905 188.0
416.121124 128.0
416.180817 144.0
417.149994 76.0
417.186798 116.0
417.658508 80.0
418.794128 92.0
419.038544 128.0
419.128174 184.0
420.118927 168.0
420.706573 124.0
422.881195 84.0
424.606079 152.0
425.233795 164.0
426.022186 116.0
426.067383 160.0
426.144257 800.0
426.51532 100.0
426.572388 176.0
427.150757 328.0
427.881073 40.0
427.934601 132.0
428.117462 372.0
428.651306 80.0
429.001648 140.0
429.051117 100.0
429.133209 3780.0
429.51297 28.0
429.55835 32.0
429.611969 72.0
429.661469 36.0
429.690369 100.0
429.793518 56.0
430.003967 52.0
430.132721 1404.0
430.371368 40.0
430.57373 96.0
430.875275 188.0
431.136871 124.0
431.84256 104.0
431.888062 72.0
432.260406 48.0
432.434204 92.0
432.521149 112.0
432.594727 128.0
432.670166 116.0
432.862396 92.0
432.893738 128.0
434.10379 180.0
434.958466 68.0
435.2117 128.0
435.278137 52.0
436.716095 84.0
437.931458 112.0
438.081421 128.0
438.556458 56.0
438.760712 136.0
439.281982 52.0
439.365417 132.0
439.953857 60.0
440.3255 100.0
441.194641 80.0
441.399506 92.0
441.608612 180.0
441.893066 120.0
441.968384 128.0
442.416199 44.0
442.499939 52.0
442.734436 200.0
442.834961 64.0
443.027618 60.0
443.068573 160.0
443.211975 132.0
443.245514 152.0
443.304169 108.0
443.400543 144.0
443.488586 104.0
443.576599 252.0
443.605927 120.0
443.685577 156.0
443.744293 36.0
443.869263 184.0
443.913208 264.0
443.945557 56.0
444.03363 80.0
444.156525 28584.0
444.273468 112.0
444.318878 84.0
444.353271 80.0
444.416779 136.0
444.50769 104.0
444.554443 136.0
444.73642 76.0
444.8237 64.0
444.870911 200.0
444.965179 232.0
445.026398 76.0
445.055145 104.0
445.097961 160.0
445.159637 8816.0
445.26416 224.0
445.305328 84.0
445.351532 316.0
445.38092 68.0
445.410339 56.0
445.487061 120.0
445.551483 40.0
445.637177 56.0
445.668701 40.0
445.714844 56.0
445.755951 60.0
445.801056 40.0
445.859894 76.0
445.893524 56.0
445.952362 112.0
446.011963 68.0
446.164001 1344.0
446.23822 44.0
446.286926 184.0
446.347534 84.0
446.52417 100.0
446.61145 196.0
446.772339 40.0
446.858459 68.0
446.926514 68.0
447.108337 80.0
447.12085 68.0
447.158875 168.0
447.273102 52.0
447.305206 64.0
447.344666 32.0
447.395172 52.0
447.466766 88.0
447.496216 140.0
447.534119 48.0
447.584656 48.0
447.727814 68.0
447.818695 168.0
447.871033 136.0
447.972137 84.0
448.035309 52.0
448.111145 96.0
448.178558 80.0
448.313416 88.0
448.38504 68.0
448.66748 128.0
449.143982 144.0
449.401337 88.0
449.55072 60.0
449.99646 48.0
450.093567 56.0
450.638428 92.0
450.731384 44.0
450.765198 116.0
451.001862 68.0
451.238586 76.0
451.805328 116.0
452.008423 116.0
452.715363 36.0
452.850861 84.0
452.973724 80.0
454.118164 64.0
454.763092 76.0
454.928619 88.0
456.913269 92.0
457.279236 124.0
457.389893 104.0
457.798615 96.0
458.565491 100.0
458.595306 116.0
459.030182 92.0
461.263092 124.0
461.613678 88.0
468.558563 72.0
468.696442 108.0
469.174866 60.0
469.274017 56.0
469.938232 40.0
470.261871 40.0
472.829163 28.0
473.378937 40.0
478.280579 200.0
478.450348 120.0
481.991943 40.0
485.923859 60.0
486.454865 128.0
487.201416 128.0
490.541534 132.0
493.291687 180.0
493.667511 120.0
493.738251 44.0
494.817963 84.0
502.11438 108.0
503.337158 144.0
506.073639 44.0
509.059998 136.0
512.510132 124.0
513.163696 84.0
513.216553 384.0
513.83905 96.0
514.21875 204.0
515.217163 92.0
521.434143 72.0
521.934204 56.0
524.087158 132.0
525.22229 108.0
526.952515 64.0
528.255432 44.0
528.708374 28.0
528.882324 120.0
529.092896 148.0
529.221069 96.0
530.050171 160.0
530.710205 48.0
530.90741 108.0
531.017456 84.0
531.127563 128.0
531.223999 8276.0
531.293518 168.0
531.398193 112.0
531.893799 152.0
531.93512 32.0
532.100403 68.0
532.229065 4036.0
532.366699 124.0
532.504517 32.0
532.578003 56.0
532.679077 92.0
532.812256 136.0
532.862793 64.0
532.987061 88.0
533.028198 152.0
533.129333 56.0
533.225647 764.0
533.284607 76.0
533.625732 160.0
533.805054 60.0
533.878662 80.0
534.251221 136.0
534.375427 80.0
534.600891 56.0
535.07959 52.0
535.121033 76.0
535.180908 36.0
535.259766 124.0
535.738159 72.0
535.936279 64.0
536.079163 44.0
536.595398 56.0
537.536316 44.0
537.619385 92.0
541.577026 68.0
547.12616 68.0
547.633728 64.0
552.553894 120.0
555.880676 60.0
560.700989 60.0
562.809631 116.0
563.811096 128.0
564.037964 64.0
564.364136 68.0
574.084412 108.0
582.80603 80.0
587.924866 60.0
589.373535 60.0
589.750488 96.0
591.036865 88.0
592.634705 88.0
595.351135 100.0
596.667969 140.0
598.872314 56.0
600.870972 104.0
603.435059 144.0
605.039795 44.0
606.911377 64.0
611.829468 144.0
614.397095 44.0
615.655762 88.0
619.716919 104.0
620.311584 44.0
623.776489 132.0
625.66687 96.0
626.378967 64.0
628.862122 100.0
630.585205 60.0
639.809998 68.0
642.612183 92.0
650.867554 92.0
652.254517 116.0
656.352844 40.0
657.284729 64.0
657.434326 108.0
661.712646 88.0
676.938599 80.0
684.671204 44.0
685.041016 120.0
714.630066 76.0
720.703125 116.0
720.879456 100.0
727.467346 140.0
738.227112 68.0
738.681458 72.0
742.283081 120.0
745.197815 116.0
750.433777 40.0
754.402771 44.0
757.795898 72.0
766.284546 120.0
789.370056 64.0
794.691284 96.0
794.887695 100.0
814.347961 228.0
814.739868 112.0
817.793457 28.0
829.847046 116.0
830.59259 52.0
833.733154 80.0
836.263733 128.0
843.086487 76.0
844.040283 36.0
848.278259 108.0
851.684387 96.0
860.518555 40.0
864.569397 260.0
866.091675 152.0
867.310425 68.0
880.378357 160.0
884.013245 152.0
886.54187 192.0
893.346191 304.0
895.459229 244.0
897.771606 120.0
898.690247 80.0
902.423218 216.0
903.31427 160.0
906.211853 40.0
924.31781 128.0
928.479553 172.0
929.510803 36.0
938.092468 116.0
944.357361 88.0
951.999817 112.0
956.383362 48.0
959.130493 48.0
960.511719 80.0
963.932007 164.0
965.1745 136.0
974.975098 60.0
975.74585 176.0
1006.573669 188.0
1007.464233 148.0
1016.264465 192.0
1016.454834 156.0
1023.338562 172.0
1028.183105 56.0
1028.553345 144.0
1044.058472 208.0
1048.049438 132.0
1063.025391 172.0
1066.961426 72.0
1071.354248 164.0
1076.330566 132.0
1076.604858 208.0
1076.696289 216.0
1077.218872 164.0
1079.617554 168.0
1080.925903 52.0
1085.045654 164.0
1090.796387 172.0
1091.868164 200.0
1095.936279 176.0
1096.380005 172.0
1101.0354 108.0
1105.689697 76.0
1106.212524 112.0
1121.050415 56.0
1125.072266 72.0
1127.650635 156.0
1130.305664 204.0
1132.052734 168.0
1132.273682 200.0
1133.077515 108.0
1134.572876 152.0
1134.699463 220.0
1135.490723 140.0
1137.678101 156.0
1141.944946 64.0
1149.294556 132.0
1150.38208 244.0
1152.981567 220.0
1162.130005 152.0
1162.781372 212.0
1165.450195 56.0
1167.033813 184.0
1169.18335 84.0
1177.726196 176.0
1180.398315 216.0
1183.744507 156.0
1183.867798 32.0
1184.463623 176.0
1187.602905 216.0
1188.014526 156.0
1195.565674 172.0
1196.157593 116.0
1196.550049 188.0
1201.153442 60.0
1201.519043 28.0
1202.001953 148.0
1202.26416 124.0
1202.574829 180.0
1203.465332 180.0
1207.819092 80.0
1208.164917 176.0
1209.528198 196.0
1209.915894 88.0
1214.114868 176.0
1215.946411 176.0
1218.522583 60.0
1218.592041 184.0
1222.45813 116.0
1224.100952 44.0
1226.14209 180.0
1226.609009 188.0
1230.815918 204.0
1232.108032 232.0
1234.764282 148.0
1235.939453 136.0
1236.016479 156.0
1240.456665 184.0
1241.802979 192.0
1246.464355 208.0
1252.324585 40.0
1258.304443 172.0
1265.721313 188.0
1266.840332 52.0
1269.009033 120.0
1272.322266 200.0
1272.520996 220.0
1273.458374 184.0
1273.955566 160.0
1275.973877 208.0
1279.84436 180.0
1280.079346 80.0
1280.734619 48.0
1282.494507 100.0
1290.339722 144.0
1295.907959 44.0
1296.932739 180.0
1301.610229 208.0
1305.828613 120.0
1315.556152 56.0
1315.924316 156.0
1320.151367 48.0
1320.874634 172.0
1322.422974 156.0
1324.580811 160.0
1325.761719 120.0
1326.225586 200.0
1327.07373 220.0
1329.169922 160.0
1330.345703 140.0
1331.834229 140.0
1336.421509 48.0
1336.523315 156.0
1337.2146 184.0
1338.408569 52.0
1340.790649 120.0
1345.991821 140.0
1346.137939 264.0
1350.318115 184.0
1352.037354 124.0
1359.072021 144.0
1359.996704 208.0
1362.346436 120.0
1366.551758 144.0
1369.24585 224.0
1370.188721 152.0
1370.39502 208.0
1371.927979 180.0
1373.380615 180.0
1375.358032 172.0
1376.251343 188.0
1379.272827 224.0
1379.598145 64.0
1380.270874 152.0
1380.90686 148.0
1381.875977 152.0
1384.088989 156.0
1389.23999 52.0
1389.996704 140.0
1390.553345 136.0
1391.570312 148.0
1392.528198 96.0
1398.416748 148.0
1400.121582 168.0
1404.228149 200.0
1407.698364 176.0
1407.99707 172.0
1408.841064 188.0
1409.311768 148.0
1410.358032 76.0
1413.484009 96.0
1416.373901 240.0
1417.819824 152.0
1418.591919 152.0
1419.866577 172.0
1422.620239 188.0
1423.814087 216.0
1426.105591 276.0
1426.203247 160.0
1426.368652 132.0
1427.518921 140.0
1427.887451 148.0
1428.338745 176.0
1432.591797 156.0
1433.397949 220.0
1437.371826 164.0
1438.013306 136.0
1439.681763 192.0
1446.637817 172.0
1448.985474 68.0
1449.690063 140.0
1452.533203 80.0
1453.800293 152.0
1454.445435 156.0
1455.113403 44.0
1462.997192 112.0
1463.316895 244.0
1467.819946 160.0
1471.260986 64.0
1471.474731 40.0
1473.605591 164.0
1476.181396 136.0
1476.8927 176.0
1483.447266 108.0
1485.563843 204.0
1489.240601 140.0
1500.791504 240.0
1501.747803 60.0
