>compound Loratadine 79794-75-5
>formula C22H23ClN2O2
>ionization [M+H]+
>parentmass 383.152435
#inchi InChI=1S/C22H23ClN2O2/c1-2-27-22(26)25-12-9-15(10-13-25)20-19-8-7-18(23)14-17(19)6-5-16-4-3-11-24-21(16)20/h3-4,7-8,11,14H,2,5-6,9-10,12-13H2,1H3
#inchikey JCCNYMKQOSZNPW
#Ion_Source LC-ESI
#Instrument qTof
#Compound_Source Commercial
#PI Dorrestein
#Data_Collector Garg_Neha
#Scan -1
#Precursor_MZ 383.152
#ExactMass 382.145
#Charge 1
#CAS_Number N/A
#Pubmed_ID N/A
#Smiles CCOC(=O)N1CCC(=C2c3ccc(Cl)cc3CCc4cccnc24)CC1
#INCHI_AUX N/A
#Library_Class 1
#SpectrumID CCMSLIB00000079159
#IonMode Positive
#UpdateWorkflowName UPDATE-SINGLE-ANNOTATED-GOLD
#LibraryQualityString Gold
#TaskID 278b19f5865741e282cec7349aa7e7a1
##Scan# 1741
#SpectrumFile NCP003592_A2_B11_BD8_01_15734.mzXML
#LibraryName NIHcollectionI_05062014.mgf
#MQScore -1
#Organism NIHcollectionI_05062014
#TIC_Query 0
#RT_Query -1
#MZErrorPPM -1
#SharedPeaks 0
#MassDiff 0
#LibMZ -1
#SpecMZ 383.152
#SpecCharge 0
#internalFilename spec-00000.mgf

>collision 10
47.425114 148.0
87.258522 204.0
94.650253 152.0
107.964729 188.0
124.076683 132.0
180.984848 148.0
181.046432 140.0
186.00174 160.0
206.093384 156.0
226.035751 200.0
227.048599 924.0
228.048965 156.0
229.05188 308.0
230.054138 176.0
232.116165 160.0
278.179382 176.0
282.095001 168.0
286.927704 160.0
306.2117 156.0
310.093292 168.0
311.131561 196.0
317.858826 160.0
326.867249 172.0
331.090851 148.0
337.111084 440.0
338.105957 272.0
340.926361 192.0
366.14502 172.0
382.273407 216.0
383.152435 2632.0
384.155182 576.0
385.151062 1012.0
385.272552 176.0
386.161346 216.0
387.156952 100.0
387.429871 144.0
389.253662 152.0
