>compound 1-methyl-7-nitro-5-phenyl-3H-1,4-benzodiazepin-2-one
>formula C16H13N3O3
>ionization [M+H]+
>parentmass 296.1029677280905
#inchi InChI=1S/C16H13N3O3/c1-18-14-8-7-12(19(21)22)9-13(14)16(17-10-15(18)20)11-5-3-2-4-6-11/h2-9H,10H2,1H3
#inchikey GWUSZQUVEVMBPI
#Ion_Source LC-ESI
#Instrument qTof
#Compound_Source Commercial
#PI Dorrestein
#Data_Collector Garg_Neha
#Scan -1
#Precursor_MZ 296.103
#ExactMass 295.096
#Charge 1
#CAS_Number N/A
#Pubmed_ID N/A
#Smiles CN1C(=O)CN=C(c2ccccc2)c3cc(ccc13)[N+](=O)[O-]
#INCHI_AUX N/A
#Library_Class 1
#SpectrumID CCMSLIB00000079134
#IonMode Positive
#UpdateWorkflowName UPDATE-SINGLE-ANNOTATED-GOLD
#LibraryQualityString Gold
#TaskID 278b19f5865741e282cec7349aa7e7a1
##Scan# 1341
#SpectrumFile NCP003512_E2_F11_BD6_01_15730.mzXML
#LibraryName NIHcollectionI_05062014.mgf
#MQScore -1
#Organism NIHcollectionI_05062014
#TIC_Query 0
#RT_Query -1
#MZErrorPPM -1
#SharedPeaks 0
#MassDiff 0
#LibMZ -1
#SpecMZ 296.103
#SpecCharge 0
#internalFilename spec-00000.mgf

>collision 10
44.907059 144.0
45.015156 244.0
45.174206 180.0
45.194275 144.0
45.226391 204.0
45.608665 140.0
45.624798 160.0
46.178371 148.0
46.463474 156.0
46.736565 160.0
47.270428 148.0
47.357166 140.0
47.38237 144.0
47.654022 216.0
47.912075 220.0
47.937477 172.0
48.384995 152.0
48.580399 208.0
49.301643 168.0
49.855198 232.0
49.925491 160.0
50.351097 176.0
51.431583 144.0
51.713161 232.0
52.111816 148.0
52.259907 160.0
52.455769 164.0
52.854378 168.0
52.990482 172.0
53.208031 200.0
53.479862 156.0
54.917244 236.0
55.149052 184.0
55.405048 152.0
55.552639 244.0
55.92329 196.0
56.1605 176.0
56.191521 140.0
56.351273 192.0
56.936966 164.0
57.058678 260.0
57.096268 172.0
57.694881 140.0
57.729656 160.0
58.125023 156.0
58.658852 148.0
59.277836 196.0
60.249157 192.0
60.497688 224.0
61.318668 128.0
61.971012 208.0
62.024296 200.0
62.243935 152.0
63.085266 144.0
63.143772 164.0
63.374889 176.0
64.069183 176.0
64.153641 184.0
64.188721 168.0
64.292404 144.0
65.409538 204.0
65.478775 152.0
65.552879 144.0
65.802887 188.0
65.990303 224.0
66.158562 176.0
66.210373 212.0
66.946037 152.0
67.131813 168.0
67.862724 140.0
67.969337 184.0
68.472374 168.0
68.660255 144.0
68.926025 144.0
69.271805 160.0
69.429268 172.0
70.050888 148.0
70.414505 224.0
70.613388 152.0
71.253723 152.0
71.315338 108.0
71.751884 224.0
71.988106 140.0
72.828125 152.0
73.061005 180.0
73.49205 144.0
73.768715 176.0
74.201836 180.0
74.341377 148.0
74.376862 136.0
74.421448 180.0
74.708458 228.0
75.952202 140.0
76.327332 152.0
76.631927 224.0
76.935387 156.0
77.382942 208.0
77.542351 156.0
78.54808 200.0
78.662781 172.0
79.090546 188.0
79.308411 216.0
79.333229 156.0
79.458115 136.0
79.684616 196.0
79.775253 160.0
80.099113 148.0
80.277336 176.0
80.414711 156.0
80.725563 216.0
80.811417 212.0
81.013718 204.0
81.393944 188.0
81.97316 212.0
82.086723 188.0
82.449577 156.0
82.505608 140.0
82.521881 224.0
82.541771 168.0
82.739792 204.0
82.815033 172.0
82.918304 252.0
83.063354 196.0
83.763191 180.0
83.828781 148.0
84.555611 184.0
84.647141 188.0
84.896362 168.0
86.477081 212.0
87.436607 160.0
87.730904 172.0
87.945419 156.0
88.528725 160.0
89.029427 164.0
89.307579 144.0
89.737297 268.0
90.038376 160.0
90.220245 144.0
90.282639 184.0
90.685898 188.0
91.054214 556.0
91.14135 196.0
91.453224 144.0
91.468452 188.0
91.487488 196.0
91.73526 124.0
91.866714 156.0
91.975487 168.0
92.059486 232.0
92.501144 152.0
92.882462 208.0
92.95153 148.0
92.982231 144.0
94.036919 144.0
94.052361 172.0
94.398178 148.0
94.477478 236.0
94.628433 148.0
94.746574 140.0
94.812454 148.0
95.481956 168.0
95.848206 172.0
97.609909 164.0
97.979935 176.0
98.007515 140.0
98.184929 248.0
98.394089 208.0
98.694397 144.0
98.864517 176.0
98.96151 140.0
99.303902 204.0
100.931335 188.0
101.708649 160.0
102.26339 152.0
103.228447 256.0
103.31469 140.0
103.417885 188.0
103.943611 232.0
103.987419 208.0
104.050369 148.0
104.192505 160.0
104.245331 168.0
104.550369 236.0
104.762123 176.0
104.829361 160.0
104.860115 128.0
105.034286 660.0
106.035095 176.0
106.100685 148.0
106.275017 152.0
106.578896 240.0
106.615883 144.0
106.722778 208.0
106.755676 156.0
107.074661 188.0
107.31163 168.0
107.654152 200.0
107.759499 220.0
107.953796 192.0
108.770096 144.0
109.106621 172.0
109.240219 148.0
109.63739 148.0
109.870926 176.0
110.117233 164.0
110.195686 144.0
110.8461 236.0
111.821762 160.0
112.007042 148.0
112.56382 184.0
112.684212 200.0
112.954811 172.0
113.098694 144.0
114.614571 232.0
114.781273 188.0
114.89267 156.0
115.259407 176.0
115.513817 152.0
115.682869 192.0
116.032059 236.0
116.047066 144.0
116.122124 144.0
116.158585 140.0
116.295906 168.0
116.424728 180.0
116.489159 224.0
116.719124 144.0
116.792244 180.0
117.000229 208.0
117.055191 132.0
117.171104 248.0
117.402756 264.0
117.541954 148.0
118.06736 776.0
118.123123 140.0
118.684036 144.0
118.723068 216.0
118.749092 152.0
118.927002 176.0
119.072586 932.0
119.494171 188.0
119.557274 160.0
119.794601 172.0
120.041222 160.0
120.076988 180.0
120.494881 204.0
120.597588 176.0
121.071007 244.0
121.092049 164.0
121.651184 180.0
121.960899 180.0
122.059204 136.0
122.182999 172.0
122.436127 156.0
122.57711 172.0
123.06929 240.0
123.420311 200.0
123.991432 172.0
124.097832 236.0
124.452827 160.0
124.637764 200.0
125.071556 188.0
125.099785 184.0
125.128723 176.0
125.495399 132.0
125.766273 152.0
126.456909 148.0
127.09449 156.0
127.2976 144.0
128.643295 220.0
129.056229 228.0
129.085373 112.0
129.147873 172.0
129.215744 164.0
129.299469 148.0
129.707153 184.0
129.822784 168.0
129.906708 240.0
129.937195 200.0
130.062881 164.0
130.881683 164.0
131.05896 328.0
131.243973 168.0
132.043686 500.0
132.06488 292.0
132.40712 208.0
132.601852 148.0
132.959625 204.0
133.05304 308.0
133.382233 156.0
133.754868 144.0
134.121094 140.0
134.295441 200.0
134.437073 204.0
135.067276 276.0
135.177673 120.0
135.452042 176.0
135.628143 248.0
136.036392 148.0
136.182678 144.0
136.243073 204.0
136.422012 164.0
136.715073 164.0
136.772308 472.0
136.908295 160.0
137.142334 168.0
137.498108 208.0
137.610153 140.0
137.682541 188.0
137.956482 148.0
138.477707 176.0
138.524551 156.0
139.129578 176.0
139.242279 180.0
139.275162 168.0
139.688873 176.0
140.060776 204.0
140.335281 192.0
140.371872 144.0
140.735245 156.0
140.945465 216.0
141.065125 120.0
141.323776 140.0
141.723923 140.0
141.885086 184.0
142.053452 228.0
142.08165 136.0
142.240921 152.0
142.875397 160.0
142.911087 176.0
142.958679 188.0
143.060196 1372.0
143.802322 176.0
143.859619 156.0
144.045868 188.0
144.067657 1160.0
144.100815 164.0
144.356567 236.0
144.667603 176.0
144.83284 148.0
144.957413 160.0
145.050537 140.0
145.074829 276.0
145.319473 180.0
145.449066 208.0
145.696396 152.0
146.063904 324.0
146.632416 196.0
147.025528 160.0
147.067703 1180.0
147.622894 140.0
147.900436 152.0
148.044312 204.0
148.068466 296.0
148.627457 152.0
148.957642 188.0
149.550934 168.0
149.952789 180.0
150.021179 280.0
150.045425 152.0
150.28688 180.0
150.738312 132.0
151.06282 912.0
151.631821 192.0
152.061966 1324.0
152.113968 116.0
152.36171 168.0
152.719482 168.0
152.798203 148.0
153.066422 460.0
153.667892 156.0
153.852982 156.0
154.332275 144.0
154.763168 164.0
154.916351 172.0
155.070084 196.0
155.280151 212.0
155.484146 160.0
155.764709 168.0
155.836761 200.0
155.980896 224.0
156.033096 144.0
156.052673 224.0
156.42865 208.0
156.956818 196.0
157.040924 276.0
157.5858 196.0
157.63327 216.0
157.74324 224.0
157.995819 196.0
158.044601 168.0
158.095901 184.0
158.233566 164.0
158.443939 176.0
158.594284 140.0
158.687042 212.0
158.977646 208.0
159.058319 240.0
159.344604 204.0
159.477783 172.0
160.052704 124.0
160.820236 160.0
161.047974 184.0
162.656616 196.0
162.78595 160.0
163.052765 288.0
163.247299 144.0
163.572952 144.0
164.062271 208.0
164.110489 180.0
164.192093 208.0
164.236816 164.0
164.532761 160.0
165.067368 4932.0
165.446671 148.0
165.56189 156.0
165.605438 160.0
165.948822 284.0
166.074524 1004.0
166.210434 152.0
166.33876 144.0
166.515915 152.0
167.078613 296.0
167.181763 252.0
167.926315 156.0
168.055954 344.0
168.081635 552.0
168.398621 140.0
168.74231 200.0
169.081085 144.0
169.132919 168.0
169.161392 160.0
169.228714 208.0
170.15947 204.0
170.663513 188.0
171.066833 156.0
171.096176 148.0
171.939926 184.0
172.018234 232.0
172.062195 1024.0
172.245407 176.0
172.529999 176.0
172.88858 152.0
173.069458 628.0
174.073761 144.0
174.620087 176.0
174.756866 276.0
175.045471 336.0
175.072739 212.0
175.415253 284.0
175.700058 144.0
176.053452 292.0
176.455383 168.0
176.614044 220.0
176.900253 196.0
177.061096 136.0
177.472931 160.0
178.039932 196.0
178.069092 296.0
178.398621 200.0
178.417221 156.0
178.64859 144.0
178.906723 144.0
179.072128 6000.0
179.353516 176.0
179.388885 204.0
179.999847 312.0
180.079971 2944.0
180.242935 188.0
180.723007 124.0
181.065781 572.0
181.087372 1612.0
181.699448 168.0
181.922195 164.0
182.068619 656.0
182.092316 376.0
182.467545 144.0
183.090256 404.0
183.156448 220.0
183.522949 152.0
183.617325 184.0
183.987 152.0
184.45578 216.0
184.686874 144.0
185.046783 140.0
185.182175 156.0
185.455826 148.0
186.068878 172.0
187.072906 196.0
187.469666 164.0
188.080582 176.0
188.353638 216.0
188.790924 140.0
189.064957 188.0
190.063507 2668.0
191.047592 500.0
191.071945 1052.0
191.342728 184.0
191.364761 336.0
191.494186 164.0
191.728363 164.0
191.851181 144.0
192.07959 4880.0
192.504257 168.0
192.660965 152.0
192.681885 284.0
192.844986 128.0
193.034088 156.0
193.08786 9756.0
193.144455 168.0
193.406723 156.0
193.783768 204.0
193.817444 184.0
193.936615 164.0
194.066498 304.0
194.095627 6872.0
194.27417 168.0
195.064346 184.0
195.09584 2304.0
195.388916 172.0
195.411163 180.0
195.436661 204.0
196.018158 240.0
196.075226 1768.0
196.099258 632.0
196.440536 112.0
196.533997 260.0
196.91629 152.0
197.082458 496.0
197.10614 624.0
197.279678 252.0
197.299255 152.0
198.085724 264.0
198.111008 292.0
198.311783 144.0
198.660263 176.0
198.693924 192.0
198.870712 152.0
199.12059 140.0
199.463364 196.0
199.947128 216.0
200.065353 160.0
200.344147 160.0
200.755661 228.0
201.054001 868.0
201.125244 200.0
201.31723 144.0
201.523422 176.0
201.791931 140.0
201.817368 168.0
202.057465 324.0
202.08606 224.0
202.623993 176.0
202.862045 172.0
202.913071 140.0
203.236404 156.0
204.081558 2740.0
204.275665 192.0
204.942383 168.0
205.082138 1208.0
205.136169 212.0
205.297165 120.0
205.438446 184.0
205.621826 136.0
205.675293 180.0
205.969391 140.0
206.086151 2264.0
206.143661 200.0
206.403793 144.0
206.681244 144.0
207.044937 160.0
207.09227 6068.0
207.142166 156.0
207.537659 148.0
208.096237 1112.0
208.568268 140.0
208.62001 200.0
208.933472 156.0
209.084793 1148.0
209.106674 2632.0
209.382507 176.0
209.621597 236.0
210.059143 184.0
210.091415 2576.0
210.160812 172.0
210.77858 176.0
211.093933 836.0
211.12117 136.0
211.72464 232.0
211.750717 184.0
212.315842 196.0
213.500717 192.0
214.063232 184.0
214.452728 148.0
214.59848 156.0
215.506195 212.0
215.687378 140.0
216.055832 172.0
216.257736 224.0
216.284073 212.0
216.307495 140.0
216.345551 156.0
216.638382 188.0
216.825912 208.0
217.054565 148.0
218.043854 216.0
218.817474 156.0
219.002991 160.0
219.092133 288.0
219.197418 140.0
219.391953 212.0
219.686844 160.0
219.866821 176.0
219.943558 172.0
220.075516 612.0
220.099258 872.0
220.527054 124.0
220.753067 144.0
220.908829 168.0
220.951233 172.0
221.108017 37544.0
221.179459 132.0
221.246338 112.0
221.330078 248.0
221.454453 188.0
221.667755 216.0
222.048111 132.0
222.077927 1540.0
222.11441 15544.0
222.171448 140.0
222.293442 240.0
222.314209 140.0
222.385437 144.0
222.432098 100.0
222.884262 184.0
223.086182 996.0
223.117676 1544.0
223.163742 160.0
223.276993 140.0
223.530441 140.0
223.560928 132.0
223.706161 148.0
223.769104 136.0
224.068512 152.0
224.092316 284.0
224.12236 220.0
224.37886 240.0
224.509766 108.0
224.558029 200.0
224.715469 144.0
224.76619 140.0
224.914505 144.0
225.078476 2768.0
225.102158 2876.0
225.566574 148.0
225.602448 148.0
225.759857 136.0
226.087463 720.0
226.106415 668.0
227.088318 352.0
227.162704 140.0
227.444687 192.0
227.506348 228.0
227.644257 160.0
228.068405 196.0
228.646896 152.0
228.718979 152.0
229.123901 96.0
229.979034 216.0
230.800735 192.0
230.906586 172.0
231.060852 160.0
231.097427 160.0
231.184906 156.0
232.230118 156.0
232.372971 168.0
233.091125 300.0
234.095688 148.0
234.495193 164.0
234.949524 148.0
234.97699 172.0
235.089401 352.0
235.676163 180.0
236.092163 424.0
236.14888 200.0
236.287643 164.0
236.618164 172.0
236.751022 152.0
237.016342 184.0
237.068848 548.0
237.102341 964.0
237.488434 200.0
237.512985 284.0
238.074265 420.0
238.109085 1036.0
238.69075 184.0
239.081528 2984.0
239.436996 152.0
239.668564 160.0
240.085785 536.0
240.226044 144.0
240.428146 120.0
240.568573 224.0
240.880463 180.0
241.094574 288.0
241.128479 168.0
241.520309 164.0
241.857559 172.0
241.962814 164.0
242.096634 184.0
242.139313 188.0
242.33757 148.0
242.392303 152.0
243.519455 212.0
243.727585 224.0
243.764877 256.0
243.87001 164.0
243.920273 152.0
244.567245 160.0
244.985321 184.0
245.034348 168.0
245.603317 104.0
246.44458 224.0
248.17543 148.0
249.102097 6104.0
249.421967 108.0
249.547485 180.0
249.589615 272.0
249.647125 116.0
249.93573 164.0
250.00856 192.0
250.06575 232.0
250.110123 45656.0
250.175644 152.0
250.229202 224.0
250.457962 116.0
250.548294 152.0
250.575333 172.0
250.748703 100.0
250.819305 252.0
250.857132 140.0
251.006485 168.0
251.113144 6424.0
251.201889 144.0
251.35228 168.0
251.727905 208.0
251.967957 168.0
252.079041 2016.0
252.109497 1028.0
252.244904 132.0
252.442078 144.0
252.977661 200.0
253.095596 2568.0
253.745667 136.0
253.943192 140.0
254.104904 9792.0
254.274933 136.0
254.412811 196.0
254.530548 96.0
255.107651 2432.0
255.399078 236.0
255.537842 216.0
256.108215 312.0
256.60022 120.0
256.863098 164.0
257.248718 128.0
257.843292 168.0
257.981567 156.0
258.799744 144.0
259.693817 140.0
259.722687 140.0
259.876678 168.0
260.062469 152.0
260.440857 220.0
260.550903 156.0
260.621582 144.0
260.772614 176.0
261.528442 160.0
262.404633 164.0
262.578094 132.0
263.886566 196.0
263.922119 180.0
265.097992 1396.0
265.204071 180.0
265.885162 164.0
266.102386 1580.0
266.58139 204.0
267.047119 160.0
267.104919 324.0
267.705658 144.0
267.881531 176.0
267.99231 148.0
268.108063 7572.0
268.205841 124.0
268.464935 156.0
268.494293 160.0
268.656036 184.0
269.110626 1728.0
269.262451 140.0
270.110107 256.0
270.677216 152.0
270.73288 172.0
271.076843 156.0
271.122711 180.0
271.460388 176.0
271.913086 144.0
271.947693 156.0
273.263641 200.0
273.56311 140.0
273.85553 164.0
274.597748 188.0
274.795654 164.0
274.871552 152.0
274.973846 180.0
275.288422 192.0
275.330383 200.0
275.67395 180.0
277.000671 192.0
277.855957 188.0
278.104828 152.0
278.222015 144.0
278.440155 180.0
278.566376 180.0
279.093353 260.0
279.234467 248.0
279.973267 140.0
280.09317 152.0
280.516357 148.0
281.080597 112.0
281.21524 120.0
281.480133 208.0
281.542725 136.0
281.625977 148.0
281.794525 200.0
281.978729 96.0
282.007996 168.0
282.047577 204.0
282.100311 101680.0
282.195007 136.0
282.302338 348.0
282.402618 180.0
282.429047 168.0
282.601044 100.0
282.764862 96.0
282.85318 256.0
282.941742 104.0
282.986847 244.0
283.022552 152.0
283.103333 14304.0
283.172577 300.0
283.19812 156.0
283.301544 136.0
284.012268 172.0
284.10498 3232.0
284.173065 228.0
284.233795 152.0
284.35022 168.0
284.593109 112.0
284.768646 104.0
284.816986 232.0
284.847473 164.0
284.908813 112.0
285.048584 116.0
285.106018 180.0
285.185791 116.0
285.231415 124.0
285.308716 148.0
286.115875 96.0
286.336426 228.0
286.980042 164.0
287.519897 108.0
287.79657 192.0
288.304657 144.0
289.22995 196.0
289.554962 148.0
290.219147 152.0
290.761902 200.0
291.587158 224.0
291.978149 180.0
292.359161 164.0
292.518585 108.0
292.585602 144.0
293.605286 96.0
293.960693 136.0
294.145081 168.0
294.175812 140.0
294.251282 112.0
294.485077 112.0
294.533661 200.0
294.597961 180.0
294.648407 148.0
294.714874 244.0
294.835419 100.0
294.899597 196.0
294.951202 140.0
294.996185 204.0
295.057465 148.0
295.086151 252.0
295.180542 140.0
295.217712 320.0
295.242737 164.0
295.302002 108.0
295.345734 116.0
295.400848 132.0
295.432068 128.0
295.470612 256.0
295.502563 296.0
295.536011 176.0
295.567566 196.0
295.612 268.0
295.667389 152.0
295.703186 228.0
295.738617 116.0
295.770782 228.0
295.803375 132.0
295.861176 224.0
295.92038 300.0
295.929504 124.0
295.953949 376.0
296.05426 1004.0
296.105499 211844.0
296.21579 176.0
296.36734 192.0
296.434998 396.0
296.50647 396.0
296.564484 176.0
296.627991 320.0
296.668579 9136.0
296.7034 436.0
296.740814 172.0
296.791321 144.0
296.839661 196.0
296.943024 680.0
296.972504 384.0
297.048584 164.0
297.106903 91696.0
297.225952 212.0
297.264008 244.0
297.415558 100.0
297.441711 172.0
297.464386 284.0
297.494171 308.0
297.51828 212.0
297.542786 236.0
297.587158 208.0
297.673615 104.0
297.742584 176.0
297.830536 148.0
297.917603 120.0
298.06897 144.0
298.109253 8544.0
298.236633 172.0
298.292328 156.0
298.320343 108.0
298.395752 144.0
298.563477 104.0
298.623199 164.0
298.697845 160.0
298.730011 260.0
298.779602 144.0
298.827515 156.0
298.856171 196.0
298.909485 300.0
299.018097 360.0
299.110779 540.0
299.204041 312.0
299.23938 372.0
299.273773 312.0
299.309906 232.0
299.388824 288.0
299.571747 108.0
299.626373 116.0
299.694183 132.0
299.752014 120.0
299.799744 144.0
299.935974 100.0
300.033264 136.0
300.145691 160.0
300.269684 212.0
300.329041 128.0
300.427429 140.0
300.70578 108.0
300.799622 120.0
301.187744 172.0
301.217102 104.0
301.25235 96.0
305.599152 100.0
311.085754 100.0
318.567139 140.0
328.057556 172.0
335.831909 140.0
374.311279 140.0
389.569641 152.0
430.780212 140.0
439.582153 148.0
471.815948 160.0
478.579773 140.0
532.557129 168.0
669.439819 148.0
742.563049 148.0
752.548523 140.0
756.763916 156.0
925.329285 148.0
1005.361206 152.0
1123.5354 164.0
1161.598389 144.0
1264.670044 152.0
1311.404541 148.0
1396.23938 228.0
1534.224731 208.0
1575.085693 188.0
1592.606567 168.0
1626.774658 180.0
1629.810425 168.0
1631.626831 144.0
1663.528931 232.0
1672.161011 140.0
1673.357666 160.0
1714.131836 200.0
1769.852539 212.0
1785.107422 228.0
1785.452148 148.0
1799.406006 160.0
1831.648193 184.0
1842.644287 204.0
1860.912476 152.0
1871.444946 168.0
1871.927124 160.0
1878.968994 172.0
1883.129639 164.0
1887.770508 148.0
1891.161743 144.0
1944.204346 164.0
1949.429443 172.0
1956.738647 168.0
1966.585205 176.0
1994.165771 140.0
1997.171021 220.0
