>compound Gestodene
>formula C21H26O2
>ionization [M+H]+
>parentmass 311.20166
#inchi InChI=1S/C21H26O2/c1-3-20-11-9-17-16-8-6-15(22)13-14(16)5-7-18(17)19(20)10-12-21(20,23)4-2/h2,10,12-13,16-19,23H,3,5-9,11H2,1H3/t16-,17-,18+,19-,20-,21+/m0/s1
#inchikey SIGSPDASOTUPFS
#Ion_Source LC-ESI
#Instrument qTof
#Compound_Source Commercial
#PI Dorrestein
#Data_Collector Garg_Neha
#Scan -1
#Precursor_MZ 311.201
#ExactMass 310.193
#Charge 1
#CAS_Number 60282-87-3, 110541-55-4
#Pubmed_ID N/A
#Smiles C1C(C=C2[C@](C1)([C@]3([C@@](CC2)([C@]4([C@](CC3)([C@@](C=C4)(O)C#C)CC)[H])[H])[H])[H])=O
#INCHI_AUX N/A
#Library_Class 1
#SpectrumID CCMSLIB00000078120
#IonMode Positive
#UpdateWorkflowName UPDATE-SINGLE-ANNOTATED-GOLD
#LibraryQualityString Gold
#TaskID 77f51c88eb8b467eb4a01dd2d0cb90d2
##Scan# 1498
#SpectrumFile Plate2_41_60_GG7_01_16495.mzXML
#LibraryName FDALibrary_2_04302014.mgf
#MQScore -1
#Organism FDALibrary_2_04302014
#TIC_Query 0
#RT_Query -1
#MZErrorPPM -1
#SharedPeaks 0
#MassDiff 0
#LibMZ -1
#SpecMZ 311.201
#SpecCharge 0
#internalFilename spec-00000.mgf

>collision 10
44.898354 172.0
44.969067 152.0
45.632164 192.0
45.902809 224.0
46.196186 204.0
46.609409 188.0
47.25845 176.0
47.385784 172.0
47.46254 148.0
47.592892 152.0
47.738548 192.0
47.916111 176.0
48.73381 228.0
48.825554 196.0
48.932701 208.0
49.523403 168.0
50.096981 204.0
50.245953 176.0
50.272762 148.0
50.308304 156.0
50.404091 204.0
50.779243 176.0
51.006424 156.0
51.234112 176.0
51.529434 152.0
52.047935 152.0
52.889881 176.0
52.92173 156.0
53.001392 156.0
53.182674 152.0
53.197189 216.0
53.238529 144.0
53.306122 140.0
53.585491 140.0
53.649616 228.0
53.871437 144.0
54.043953 164.0
54.397152 196.0
54.4412 168.0
54.667591 364.0
54.825886 160.0
55.025776 204.0
55.111439 220.0
55.328854 200.0
55.367355 148.0
55.641674 168.0
55.867569 140.0
56.374519 176.0
56.384979 156.0
56.464218 200.0
56.494133 172.0
56.852238 160.0
56.910782 172.0
57.049004 204.0
57.121185 168.0
57.191906 144.0
57.457127 208.0
57.931828 168.0
57.951523 160.0
58.449554 196.0
58.586586 208.0
58.845856 184.0
59.304787 148.0
59.389114 148.0
59.862476 148.0
60.052036 188.0
60.295979 140.0
60.560547 172.0
60.802414 212.0
61.07431 156.0
61.60743 192.0
61.643368 160.0
61.7356 192.0
61.975098 156.0
62.034653 212.0
62.072281 264.0
63.111538 140.0
63.133675 140.0
63.290337 176.0
63.390129 148.0
63.442436 168.0
63.976215 228.0
64.117508 204.0
64.314156 160.0
64.330116 184.0
64.59539 232.0
64.611389 180.0
65.143623 144.0
65.402519 208.0
65.478188 164.0
65.549072 148.0
65.964828 132.0
66.157982 172.0
66.829895 240.0
67.384247 196.0
67.420197 144.0
67.565727 176.0
67.591904 152.0
67.99012 140.0
68.159264 184.0
69.422089 152.0
69.518311 152.0
70.030365 224.0
70.439034 168.0
70.678108 176.0
71.018066 160.0
71.07019 148.0
71.367493 248.0
72.362976 192.0
72.693504 188.0
72.977173 148.0
73.063911 160.0
73.080925 196.0
73.213699 140.0
73.278427 208.0
73.334663 160.0
73.471085 148.0
73.80584 172.0
74.961082 168.0
75.290581 224.0
75.328583 180.0
75.345856 144.0
76.151352 140.0
76.309486 176.0
76.372093 140.0
76.424278 160.0
76.556572 156.0
77.98069 180.0
78.584709 232.0
78.934441 144.0
79.100754 200.0
79.398422 184.0
79.545685 200.0
79.666443 216.0
80.89872 144.0
82.014236 204.0
82.514282 272.0
83.25721 204.0
83.781059 168.0
84.346764 156.0
84.599205 148.0
84.679771 208.0
84.820862 228.0
84.947487 148.0
85.129089 244.0
85.480202 156.0
85.56855 172.0
85.995438 168.0
86.018372 148.0
86.110695 248.0
86.123627 224.0
86.201218 184.0
86.741653 180.0
86.786148 148.0
87.153664 188.0
87.436317 248.0
87.917145 144.0
88.442329 152.0
88.472282 168.0
88.667084 152.0
88.736443 164.0
89.023529 152.0
89.26783 164.0
89.442802 188.0
89.74234 188.0
90.05938 236.0
90.520844 172.0
90.782349 164.0
91.055443 656.0
91.523445 220.0
91.851242 148.0
91.964676 160.0
92.42247 180.0
92.581352 200.0
92.615829 204.0
92.751877 140.0
93.070343 168.0
93.083786 140.0
93.119576 176.0
93.633789 220.0
94.042534 180.0
94.187347 204.0
94.235641 164.0
94.39608 156.0
94.500526 212.0
95.050972 152.0
95.085136 272.0
95.155632 148.0
95.624107 268.0
96.862038 160.0
96.885544 168.0
97.065994 180.0
97.527222 184.0
97.568504 152.0
98.035812 136.0
98.100044 176.0
98.247948 176.0
98.609299 160.0
98.818916 164.0
99.008179 176.0
99.207092 148.0
99.304253 144.0
99.320122 172.0
99.464973 188.0
99.500702 144.0
99.726288 172.0
99.790009 176.0
99.939949 224.0
100.143005 140.0
101.331596 156.0
101.405746 148.0
101.461868 172.0
102.108627 224.0
103.051857 144.0
103.535316 260.0
103.662941 176.0
103.851486 148.0
103.979309 144.0
104.063347 180.0
104.168144 208.0
104.296158 184.0
104.713051 152.0
104.800858 152.0
105.033875 412.0
105.070602 1784.0
106.035149 164.0
106.075539 164.0
106.860649 196.0
107.049149 1292.0
107.086792 516.0
107.60881 176.0
107.672821 140.0
107.718262 200.0
107.776169 140.0
108.054314 128.0
108.156639 184.0
108.231171 264.0
109.064552 5216.0
109.104431 144.0
109.225266 196.0
109.275192 244.0
109.735489 156.0
110.069672 272.0
110.106926 168.0
110.194656 148.0
110.363953 196.0
110.745789 152.0
110.807678 176.0
110.839104 156.0
111.078217 232.0
111.286972 184.0
111.319473 256.0
112.416237 156.0
112.986732 172.0
113.101418 204.0
113.327606 156.0
113.877037 164.0
114.072525 164.0
114.20649 260.0
114.905212 212.0
115.052605 692.0
115.381477 172.0
115.454178 212.0
116.063171 144.0
116.424995 192.0
116.599007 164.0
116.654892 156.0
116.693596 152.0
116.803734 168.0
117.070992 868.0
117.205864 152.0
117.693344 184.0
117.886528 148.0
118.030426 184.0
118.073677 528.0
118.558624 184.0
118.610641 156.0
118.853539 148.0
119.053482 368.0
119.08503 1484.0
119.821083 164.0
119.986717 148.0
120.054314 212.0
120.093773 216.0
120.534569 232.0
120.632919 164.0
120.873497 164.0
120.915077 248.0
120.947914 172.0
121.067612 972.0
121.102386 608.0
121.563766 176.0
121.61644 176.0
121.710838 192.0
122.036034 188.0
122.068169 396.0
122.104202 152.0
122.293419 224.0
122.696541 148.0
122.899452 224.0
122.976685 148.0
123.081139 484.0
123.120193 152.0
123.198616 216.0
123.526886 164.0
124.084961 240.0
124.255737 152.0
124.273491 160.0
124.684303 172.0
124.797668 176.0
124.913315 228.0
125.099922 196.0
125.385353 216.0
125.496811 188.0
125.86274 212.0
126.334328 160.0
127.051208 380.0
127.612686 192.0
127.743126 224.0
127.871384 220.0
128.061035 796.0
128.479782 144.0
128.96077 172.0
129.042145 268.0
129.070328 2388.0
129.214035 176.0
129.596664 176.0
129.685043 208.0
129.907272 184.0
130.076065 348.0
130.186447 208.0
130.445465 144.0
130.973373 172.0
131.014664 196.0
131.049149 328.0
131.084824 2640.0
131.219498 180.0
131.465851 184.0
132.087616 148.0
132.105606 228.0
132.501663 164.0
132.75618 104.0
132.85701 140.0
132.893723 160.0
133.01535 160.0
133.065125 1332.0
133.103699 896.0
133.866028 156.0
134.018066 144.0
134.068726 304.0
134.104843 360.0
134.380051 148.0
134.463135 176.0
134.934418 148.0
135.080475 1376.0
135.117218 560.0
136.083572 240.0
136.118362 180.0
136.734421 184.0
137.06044 180.0
137.098465 316.0
137.676285 180.0
137.886551 184.0
138.101654 208.0
138.740921 168.0
138.874588 152.0
139.334686 196.0
139.981522 228.0
140.108704 248.0
140.172318 156.0
141.069 1216.0
141.705811 152.0
142.077911 376.0
142.522018 244.0
142.560043 148.0
142.743088 164.0
142.894638 212.0
143.045242 164.0
143.084366 2132.0
143.581345 144.0
143.755493 140.0
144.060684 156.0
144.089386 408.0
144.678116 168.0
145.065277 1004.0
145.101013 1792.0
145.224457 156.0
145.471619 148.0
145.500412 248.0
145.889603 144.0
146.071075 440.0
146.104675 320.0
146.418976 156.0
146.894974 148.0
147.081848 1888.0
147.116653 916.0
148.088333 240.0
148.133896 160.0
148.410187 156.0
149.058289 220.0
149.09584 3288.0
149.131668 324.0
149.369476 192.0
150.101196 504.0
150.414856 196.0
150.808105 200.0
150.893677 156.0
151.018387 164.0
151.073715 264.0
151.114029 392.0
151.277756 160.0
151.520218 172.0
151.924728 148.0
152.061279 152.0
152.118591 188.0
152.243805 164.0
152.30275 140.0
152.806702 148.0
153.015915 172.0
153.070892 604.0
153.092239 172.0
153.126724 224.0
154.077301 132.0
154.10112 200.0
154.269165 156.0
154.33345 152.0
155.045929 176.0
155.085617 1048.0
155.165359 180.0
155.182724 184.0
155.396027 148.0
155.480392 144.0
155.944824 148.0
155.969681 160.0
156.09314 212.0
156.375107 220.0
157.063126 656.0
157.10051 2556.0
157.47464 140.0
157.522095 172.0
157.882019 164.0
158.071182 304.0
158.106644 600.0
158.304947 152.0
159.080063 1640.0
159.11644 1544.0
160.007355 140.0
160.08754 516.0
160.12529 612.0
160.259216 140.0
161.008423 152.0
161.095779 1896.0
161.132645 896.0
161.254959 96.0
162.102036 592.0
162.135361 128.0
162.195053 148.0
163.080719 204.0
163.112106 1460.0
163.897812 148.0
164.116211 176.0
164.154755 204.0
164.287903 172.0
164.555878 172.0
164.635025 320.0
165.071899 364.0
165.127075 152.0
165.916962 152.0
166.077118 508.0
167.083969 1108.0
167.131821 196.0
167.260498 204.0
167.780853 168.0
167.992325 140.0
168.054245 188.0
168.09346 476.0
168.149719 148.0
168.826599 204.0
169.065948 180.0
169.101166 1628.0
169.131897 248.0
169.199203 152.0
169.642212 172.0
169.753693 308.0
170.072983 156.0
170.108337 324.0
170.542938 188.0
170.815964 144.0
171.079681 368.0
171.11644 2336.0
171.185547 144.0
171.638962 192.0
171.795441 152.0
172.087814 260.0
172.124298 196.0
172.198242 140.0
172.338486 160.0
173.023331 208.0
173.063004 236.0
173.095306 1300.0
173.132492 2184.0
173.345901 180.0
174.098801 144.0
174.136719 344.0
174.918808 236.0
175.077103 196.0
175.111588 1512.0
175.147873 332.0
176.117416 180.0
176.153229 180.0
176.75441 120.0
177.06842 140.0
177.092911 360.0
177.12793 508.0
178.001892 176.0
178.076096 388.0
178.392456 208.0
178.73024 188.0
179.085983 624.0
179.308105 176.0
179.537384 156.0
179.649414 160.0
180.086151 752.0
181.017868 144.0
181.06369 144.0
181.101746 1212.0
181.596741 148.0
181.808685 196.0
182.107697 732.0
182.473083 164.0
182.719589 180.0
182.786865 272.0
183.080978 1188.0
183.116592 2044.0
183.236511 248.0
183.274231 172.0
183.972778 168.0
184.088638 544.0
184.121185 300.0
184.245529 148.0
184.4991 172.0
184.540131 160.0
184.813309 156.0
185.098862 748.0
185.13205 1536.0
185.433441 172.0
186.098694 480.0
186.13916 452.0
186.174103 256.0
186.471268 136.0
186.592545 168.0
186.619736 140.0
186.671402 156.0
187.111832 636.0
187.147034 516.0
187.199326 156.0
188.077209 160.0
188.118774 180.0
189.085205 160.0
189.126556 824.0
189.161697 152.0
189.874802 160.0
190.077393 528.0
190.132172 168.0
190.193085 172.0
190.231506 140.0
191.079727 384.0
191.14267 208.0
191.276093 236.0
191.876648 216.0
192.096161 280.0
192.387024 144.0
192.922974 224.0
193.100571 712.0
194.03035 160.0
194.105743 264.0
194.221695 204.0
194.343765 216.0
194.893524 224.0
195.07695 284.0
195.116592 792.0
195.41069 156.0
195.780899 212.0
196.083878 176.0
196.12532 188.0
196.210785 124.0
196.56424 208.0
196.957886 164.0
196.98024 156.0
197.0952 500.0
197.130966 884.0
198.09639 136.0
198.141556 160.0
198.673874 200.0
198.918015 144.0
199.111359 752.0
199.14444 436.0
200.117523 540.0
200.149765 196.0
200.890671 188.0
200.952744 196.0
201.09407 152.0
201.127319 2096.0
201.159805 612.0
201.548508 224.0
201.664368 176.0
201.873581 196.0
202.130219 316.0
202.165909 196.0
203.143295 1044.0
203.179581 148.0
204.092255 308.0
204.155823 144.0
204.816757 196.0
205.097687 556.0
205.147308 144.0
205.172974 216.0
205.352615 184.0
206.040558 160.0
206.107193 708.0
206.252029 152.0
206.649536 180.0
207.072876 172.0
207.120102 720.0
208.028046 172.0
208.090485 192.0
208.128998 332.0
208.309464 140.0
208.387039 256.0
208.855621 184.0
208.98996 172.0
209.099014 392.0
209.131989 920.0
210.07988 192.0
210.136154 484.0
211.112671 284.0
211.146988 972.0
211.857773 172.0
212.118134 424.0
213.036804 132.0
213.086258 136.0
213.128067 732.0
213.163315 1268.0
213.648987 244.0
214.128876 440.0
214.169312 372.0
215.093216 180.0
215.1418 1148.0
215.492142 100.0
215.982681 152.0
216.108475 140.0
216.143585 164.0
216.172852 172.0
216.30455 176.0
216.793686 140.0
217.097198 120.0
217.154144 936.0
217.549545 136.0
218.110565 204.0
218.160019 236.0
218.367294 160.0
219.117966 704.0
219.17157 848.0
219.834442 168.0
219.869858 140.0
219.937744 140.0
220.123077 560.0
220.172806 324.0
221.095535 152.0
221.130798 576.0
221.161438 176.0
221.356842 172.0
221.484192 160.0
221.611572 184.0
222.138138 268.0
222.278732 164.0
222.436035 240.0
222.68248 156.0
222.926697 176.0
222.955811 192.0
223.006332 192.0
223.111771 492.0
223.147079 1044.0
223.366119 244.0
223.797653 192.0
224.115982 132.0
224.152328 512.0
224.608261 164.0
225.129807 124.0
225.16333 1316.0
225.339661 188.0
226.161392 476.0
226.818024 148.0
227.10463 288.0
227.141022 612.0
227.628082 200.0
227.802277 172.0
227.952499 160.0
228.152267 112.0
228.701355 156.0
229.161911 812.0
229.442413 264.0
229.641434 152.0
229.728897 168.0
230.054825 188.0
230.164948 888.0
231.009766 212.0
231.120987 296.0
231.173859 2536.0
232.126205 356.0
232.178223 716.0
232.319839 128.0
233.131699 1600.0
233.214233 176.0
233.929062 176.0
234.130844 136.0
234.198837 216.0
234.595108 176.0
234.754761 156.0
235.146255 1380.0
235.42308 160.0
235.719391 176.0
235.820251 140.0
236.112885 184.0
236.153488 224.0
236.46254 140.0
236.487015 156.0
237.019882 152.0
237.126541 756.0
237.161285 352.0
238.134537 284.0
238.234863 160.0
238.474533 176.0
238.511429 192.0
238.73587 152.0
238.871201 168.0
239.144745 620.0
239.17955 156.0
240.087814 164.0
240.147812 264.0
241.121613 200.0
241.156433 576.0
241.188095 360.0
241.418839 156.0
242.165558 480.0
242.871155 148.0
243.128922 188.0
243.172684 1536.0
243.265488 148.0
243.607086 216.0
244.123077 132.0
244.175812 316.0
245.129959 356.0
246.137115 528.0
247.147583 832.0
248.143799 228.0
248.809967 176.0
248.970108 168.0
249.024124 180.0
249.124008 168.0
249.160812 448.0
249.919434 140.0
250.01384 148.0
250.133438 200.0
250.164658 284.0
250.445175 280.0
250.591248 152.0
250.69722 140.0
251.018753 148.0
251.14061 1064.0
251.181366 712.0
251.400467 220.0
252.145096 112.0
252.180634 152.0
252.923843 192.0
253.012482 184.0
253.156967 1132.0
253.661911 216.0
254.162094 328.0
254.426437 180.0
254.705887 140.0
255.140533 120.0
255.174469 480.0
256.134125 200.0
256.182983 140.0
257.103363 180.0
257.457733 172.0
257.700287 120.0
258.173584 164.0
258.535095 144.0
258.759155 156.0
258.890442 176.0
258.932068 176.0
259.159515 228.0
259.675629 176.0
260.092773 160.0
260.160645 188.0
260.706207 152.0
261.159515 168.0
261.973938 140.0
262.141479 220.0
262.596039 168.0
263.089722 156.0
263.186829 112.0
263.457886 156.0
263.63559 156.0
264.152344 728.0
264.570374 196.0
265.157074 776.0
265.193634 792.0
266.167969 324.0
266.197845 200.0
266.711365 160.0
267.12793 216.0
267.171539 336.0
267.619232 188.0
268.045715 160.0
268.482544 220.0
269.147583 460.0
269.19165 476.0
269.455261 168.0
269.680756 152.0
270.096008 180.0
270.151611 140.0
270.198669 244.0
270.734222 184.0
271.271576 152.0
271.524048 144.0
271.957153 208.0
273.149902 144.0
273.294678 164.0
273.408539 160.0
274.183777 164.0
275.014923 216.0
275.180908 1356.0
275.754761 152.0
276.181458 800.0
276.694214 160.0
277.370239 120.0
277.396515 208.0
278.160675 144.0
279.059784 188.0
279.818359 148.0
280.038147 188.0
280.751373 212.0
281.579041 148.0
282.119995 152.0
282.162323 188.0
282.240723 148.0
282.886414 164.0
283.000244 212.0
283.165497 652.0
283.206207 988.0
283.940125 144.0
284.171265 148.0
284.210266 148.0
284.344482 192.0
286.099121 208.0
286.14624 180.0
287.14032 200.0
287.990845 164.0
289.022888 216.0
289.15506 168.0
289.404449 172.0
289.583923 200.0
291.466736 160.0
292.294556 152.0
292.953552 148.0
293.191101 5556.0
293.289825 128.0
293.433441 108.0
293.539764 168.0
294.190887 604.0
294.474854 196.0
295.585938 148.0
296.082306 160.0
296.58252 204.0
296.626343 144.0
296.904816 168.0
298.333221 164.0
298.718353 148.0
298.93512 144.0
301.896698 120.0
302.763611 180.0
302.822479 172.0
303.211609 168.0
303.473969 148.0
303.546783 160.0
303.806915 176.0
304.296265 148.0
305.157928 168.0
306.421326 140.0
306.536316 164.0
307.296448 164.0
308.924469 172.0
309.126678 304.0
309.172882 220.0
309.4039 140.0
309.449432 148.0
309.498444 140.0
309.941803 140.0
310.050507 156.0
310.09906 144.0
310.204132 148.0
310.321838 288.0
310.54895 188.0
310.668945 152.0
310.739868 216.0
310.818695 124.0
310.916351 200.0
310.974426 160.0
311.054352 108.0
311.116699 316.0
311.20166 124888.0
311.329865 120.0
311.371826 200.0
311.410278 180.0
311.438843 204.0
311.537018 144.0
311.593048 144.0
311.78009 672.0
311.851868 96.0
311.87915 212.0
312.018738 108.0
312.059021 108.0
312.08432 164.0
312.138916 160.0
312.204193 21900.0
312.302582 168.0
312.391144 236.0
312.450195 200.0
312.477081 112.0
312.571564 204.0
312.923279 116.0
313.079285 116.0
313.127075 160.0
313.206177 2576.0
313.82431 132.0
313.919952 236.0
314.048584 124.0
314.085968 168.0
314.209991 148.0
314.260498 216.0
314.423645 128.0
314.461121 160.0
314.509613 268.0
315.054504 96.0
315.151367 124.0
315.246307 240.0
317.504944 232.0
325.942047 140.0
329.216064 288.0
340.127106 144.0
352.229767 192.0
368.745209 188.0
628.226135 152.0
635.144348 164.0
659.326782 148.0
895.220154 180.0
1028.687744 172.0
1076.677612 188.0
1101.908569 188.0
1109.970459 188.0
1164.107178 228.0
1226.688599 208.0
1230.071777 200.0
1231.126099 148.0
1299.740723 148.0
1311.189209 160.0
1322.09436 188.0
1328.833252 264.0
1329.442871 204.0
1339.804199 152.0
1346.303223 176.0
1371.181152 224.0
1375.126953 264.0
1428.863892 220.0
1429.939941 156.0
1460.021118 160.0
1472.756836 200.0
1479.822998 192.0
1484.895874 260.0
1503.614624 180.0
1513.254028 224.0
1526.530396 208.0
1528.654053 168.0
1528.934204 184.0
1538.506104 200.0
1541.145874 168.0
1544.882935 180.0
1547.669189 176.0
1555.399292 176.0
1556.058716 140.0
1557.582153 192.0
1560.930176 144.0
1568.125732 164.0
1575.985596 168.0
1580.737915 184.0
1587.233398 164.0
1607.374268 152.0
1621.112549 156.0
1621.657471 188.0
1623.637817 172.0
1624.696533 192.0
1630.3573 192.0
1630.630615 188.0
1636.390259 176.0
1643.74939 180.0
1643.886597 208.0
1644.540283 248.0
1647.164551 188.0
1666.072021 160.0
1670.917358 168.0
1684.69519 184.0
1686.533813 228.0
1691.089722 156.0
1695.815552 176.0
1698.488647 216.0
1698.808472 184.0
1722.946167 228.0
1734.042603 152.0
1736.695801 176.0
1743.379272 156.0
1746.322266 160.0
1750.291992 152.0
1752.574219 164.0
1769.973267 168.0
1781.135986 160.0
1788.846924 180.0
1789.865601 212.0
1798.329712 180.0
1821.725952 148.0
1822.065674 148.0
1829.013428 160.0
1838.917725 196.0
1839.079956 192.0
1843.247559 188.0
1843.743164 148.0
1844.127808 156.0
1845.512695 160.0
1853.455933 168.0
1853.695801 196.0
1856.661987 188.0
1862.403809 232.0
1866.46875 140.0
1879.90686 204.0
1884.232788 160.0
1889.134644 204.0
1889.428711 180.0
1895.229736 184.0
1896.581665 196.0
1899.208862 232.0
1914.409668 236.0
1922.176758 168.0
1924.821655 188.0
1925.380615 224.0
1926.987793 152.0
1930.414307 152.0
1936.391602 220.0
1939.52832 176.0
1942.860596 172.0
1948.927368 164.0
1964.166748 152.0
1965.101807 180.0
1965.366577 156.0
1967.908569 176.0
1970.240112 152.0
1976.862793 220.0
1984.383057 148.0
1987.851196 152.0
1989.067139 168.0
1991.420166 148.0
