>compound MLS002154218-01!16837-52-8
>formula C47H51NO14
>ionization [M+H]+
>parentmass 854.3382317640904
#inchi InChI=1S/C47H51NO14/c1-25-31(60-43(56)36(52)35(28-16-10-7-11-17-28)48-41(54)29-18-12-8-13-19-29)23-47(57)40(61-42(55)30-20-14-9-15-21-30)38-45(6,32(51)22-33-46(38,24-58-33)62-27(3)50)39(53)37(59-26(2)49)34(25)44(47,4)5/h7-21,31-33,35-38,40,51-52,57H,22-24H2,1-6H3,(H,48,54)/t31-,32-,33+,35-,36+,37+,38-,40-,45+,46-,47+/m0/s1
#inchikey RCINICONZNJXQF
#Ion_Source LC-ESI
#Instrument qTof
#Compound_Source NIH Pharmacologically Active Library
#PI Dorrestein
#Data_Collector VP/LMS
#Scan -1
#Precursor_MZ 854.346
#ExactMass 853.331
#Charge 1
#CAS_Number N/A
#Pubmed_ID N/A
#Smiles CC(=O)O[C@@H]1C2=C(C)[C@H](C[C@@](O)([C@@H](OC(=O)c3ccccc3)[C@@H]4[C@@]5(CO[C@@H]5C[C@H](O)[C@@]4(C)C1=O)OC(=O)C)C2(C)C)OC(=O)[C@H](O)[C@@H](NC(=O)c6ccccc6)c7ccccc7
#INCHI_AUX N/A
#Library_Class 1
#SpectrumID CCMSLIB00000085132
#IonMode Positive
#UpdateWorkflowName UPDATE-SINGLE-ANNOTATED-GOLD
#LibraryQualityString Gold
#TaskID d252d724072548979f1f6f1ced849daf
##Scan# 2290
#SpectrumFile p3-F03_GF3_01_18284.mzXML
#LibraryName Pharm_Active_Library.mgf
#MQScore -1
#Organism Pharm_Active_Library
#TIC_Query 0
#RT_Query -1
#MZErrorPPM -1
#SharedPeaks 0
#MassDiff 0
#LibMZ -1
#SpecMZ 854.346
#SpecCharge 0
#internalFilename spec-00000.mgf

>collision 10
45.037392 204.0
45.048077 132.0
45.057949 144.0
45.078808 48.0
45.096184 148.0
45.157776 108.0
45.216564 128.0
45.239323 112.0
45.274136 184.0
45.314323 116.0
45.425606 160.0
45.482456 132.0
45.54911 128.0
45.607639 180.0
45.652607 28.0
45.740677 220.0
45.766994 132.0
45.794212 172.0
45.825504 328.0
45.847824 188.0
45.858608 56.0
45.882874 164.0
45.91119 180.0
45.955708 188.0
45.994846 120.0
46.096146 180.0
46.127235 160.0
46.146164 36.0
46.189442 88.0
46.266582 236.0
46.320755 184.0
46.399361 192.0
46.440044 180.0
46.453827 100.0
46.491085 220.0
46.506531 132.0
46.535042 160.0
46.578503 180.0
46.602959 124.0
46.654606 152.0
46.685883 204.0
46.702206 36.0
46.730774 60.0
46.742218 176.0
46.794922 124.0
46.805641 148.0
46.849228 204.0
46.89011 172.0
46.902309 160.0
46.943825 220.0
47.041523 100.0
47.079754 220.0
47.179508 128.0
47.209591 180.0
47.362888 176.0
47.406734 48.0
47.44923 44.0
47.458828 208.0
47.479397 96.0
47.679852 136.0
47.726593 212.0
47.794098 108.0
47.882107 140.0
47.910507 188.0
47.936852 152.0
47.978569 140.0
48.011662 116.0
48.028214 212.0
48.122063 44.0
48.146919 68.0
48.221527 180.0
48.314995 136.0
48.341652 216.0
48.431854 200.0
48.462334 136.0
48.512539 196.0
48.594959 160.0
48.612099 176.0
48.650963 232.0
48.68568 176.0
48.6954 92.0
48.798241 188.0
48.934597 72.0
48.944347 44.0
49.020966 176.0
49.069752 228.0
49.094852 140.0
49.119961 72.0
49.185669 232.0
49.330833 168.0
49.409157 160.0
49.431545 168.0
49.526752 204.0
49.565426 424.0
49.620647 156.0
49.674904 208.0
49.702003 168.0
49.720249 64.0
49.748253 164.0
49.783424 204.0
49.848618 208.0
49.877567 204.0
49.940845 128.0
50.030941 172.0
50.090904 20.0
50.110485 128.0
50.121056 216.0
50.185898 208.0
50.205639 144.0
50.257114 172.0
50.308239 220.0
50.345364 128.0
50.404697 180.0
50.448513 132.0
50.479622 136.0
50.491821 288.0
50.587513 144.0
50.64135 148.0
50.747967 224.0
50.876858 164.0
50.89341 260.0
51.032665 136.0
51.046883 168.0
51.083866 148.0
51.146481 104.0
51.199528 204.0
51.261848 192.0
51.287506 68.0
51.318871 200.0
51.388763 212.0
51.423012 128.0
51.448708 192.0
51.530121 204.0
51.631832 132.0
51.706017 256.0
51.743237 144.0
51.793362 156.0
51.816284 160.0
51.826313 188.0
51.869308 196.0
51.894676 208.0
51.929535 108.0
51.988819 136.0
52.001278 152.0
52.026577 80.0
52.037167 132.0
52.071632 156.0
52.177975 200.0
52.200588 204.0
52.304466 208.0
52.331932 40.0
52.349213 148.0
52.39819 128.0
52.42701 72.0
52.488998 188.0
52.567497 212.0
52.585663 168.0
52.637638 144.0
52.65641 236.0
52.704086 80.0
52.860264 156.0
52.88868 272.0
52.939953 176.0
52.96891 104.0
53.000732 176.0
53.045662 124.0
53.119621 176.0
53.138481 184.0
53.154446 168.0
53.244453 160.0
53.288036 60.0
53.320007 124.0
53.359257 160.0
53.421795 168.0
53.43198 188.0
53.458172 132.0
53.551353 148.0
53.571747 168.0
53.587929 152.0
53.627121 144.0
53.648251 168.0
53.710239 164.0
53.758751 224.0
53.787579 132.0
53.805099 164.0
53.829922 148.0
53.856213 100.0
53.959972 84.0
54.014084 148.0
54.028713 204.0
54.096035 128.0
54.142895 144.0
54.178051 144.0
54.233738 168.0
54.264523 148.0
54.310665 260.0
54.315426 96.0
54.362808 192.0
54.399502 192.0
54.467056 108.0
54.533337 188.0
54.544727 56.0
54.553284 148.0
54.575813 148.0
54.627293 164.0
54.681736 176.0
54.702347 196.0
54.717201 176.0
54.746521 48.0
54.787766 168.0
54.817234 432.0
54.86771 148.0
54.879112 180.0
54.967655 108.0
55.038509 124.0
55.124191 148.0
55.163155 144.0
55.175926 184.0
55.314995 152.0
55.381191 188.0
55.397926 160.0
55.491299 112.0
55.510574 148.0
55.525406 120.0
55.566944 148.0
55.626308 120.0
55.642307 160.0
55.688679 108.0
55.710003 180.0
55.762882 192.0
55.800137 192.0
55.834782 148.0
55.89983 184.0
55.923611 36.0
55.953384 120.0
56.004021 252.0
56.051697 92.0
56.062126 156.0
56.170975 144.0
56.19783 176.0
56.221706 100.0
56.242603 124.0
56.267982 92.0
56.296352 124.0
56.351624 188.0
56.411407 72.0
56.54903 140.0
56.574478 136.0
56.614906 152.0
56.628895 188.0
56.691315 152.0
56.716 172.0
56.769272 152.0
56.821774 188.0
56.836777 40.0
56.859291 152.0
56.926849 124.0
56.949379 172.0
56.962898 180.0
57.024506 172.0
57.057838 116.0
57.075623 196.0
57.137295 168.0
57.208317 168.0
57.226097 248.0
57.296886 80.0
57.483864 116.0
57.508015 212.0
57.520088 156.0
57.545757 76.0
57.585022 156.0
57.716503 176.0
57.728603 156.0
57.878418 188.0
57.895077 60.0
57.973858 172.0
58.019333 188.0
58.036011 176.0
58.092129 132.0
58.237862 76.0
58.266724 112.0
58.333595 92.0
58.351837 48.0
58.500481 160.0
58.520733 132.0
58.532913 120.0
58.570839 160.0
58.63023 132.0
58.670048 52.0
58.726471 116.0
58.872486 204.0
59.038052 148.0
59.048759 164.0
59.103832 64.0
59.217125 184.0
59.243168 144.0
59.256954 380.0
59.296799 228.0
59.321327 144.0
59.388798 188.0
59.405674 144.0
59.424084 120.0
59.568401 188.0
59.608963 188.0
59.661522 220.0
59.745201 116.0
59.763252 132.0
59.842163 152.0
59.859104 64.0
59.883747 136.0
59.937668 196.0
59.996731 176.0
60.048668 108.0
60.071808 180.0
60.123405 164.0
60.163788 156.0
60.203011 84.0
60.241627 136.0
60.270981 196.0
60.289528 76.0
60.303436 48.0
60.560291 40.0
60.575783 120.0
60.616993 184.0
60.653267 52.0
60.69978 140.0
60.74321 164.0
60.809933 92.0
60.831665 164.0
60.898438 128.0
60.97768 156.0
60.98856 164.0
61.025875 124.0
61.036758 120.0
61.049198 144.0
61.060085 140.0
61.09742 132.0
61.161224 184.0
61.173679 172.0
61.189247 120.0
61.243755 220.0
61.299843 68.0
61.33725 132.0
61.370941 280.0
61.387146 96.0
61.408981 196.0
61.479191 60.0
61.541634 92.0
61.560371 192.0
61.660362 124.0
61.680683 168.0
61.69788 64.0
61.713512 92.0
61.732281 144.0
61.763561 132.0
61.822857 156.0
62.010963 160.0
62.037613 208.0
62.08157 120.0
62.136421 196.0
62.161789 192.0
62.177372 204.0
62.256577 132.0
62.283993 132.0
62.294991 196.0
62.441177 140.0
62.48365 196.0
62.50568 200.0
62.619034 140.0
62.658417 52.0
62.699387 164.0
62.713573 192.0
62.835003 56.0
62.878555 172.0
62.951569 180.0
62.963223 196.0
63.00552 180.0
63.085464 144.0
63.130398 128.0
63.141468 148.0
63.152538 168.0
63.166775 72.0
63.195255 136.0
63.235283 204.0
63.283894 80.0
63.313984 160.0
63.363979 164.0
63.394783 84.0
63.458191 168.0
63.558121 52.0
63.577164 264.0
63.590488 152.0
63.609585 228.0
63.654755 160.0
63.718491 192.0
63.821808 168.0
63.880436 232.0
63.955448 208.0
64.191254 44.0
64.219955 144.0
64.231125 168.0
64.271011 160.0
64.336456 148.0
64.44593 184.0
64.480598 220.0
64.537773 152.0
64.587349 160.0
64.628944 36.0
64.665756 160.0
64.69297 184.0
64.715385 124.0
64.728195 80.0
64.739403 64.0
64.781052 168.0
64.797073 200.0
64.813095 112.0
64.827522 164.0
64.861176 100.0
64.876472 168.0
64.910881 176.0
64.963814 156.0
64.975044 124.0
65.023186 108.0
65.036026 212.0
65.095428 132.0
65.1147 120.0
65.204681 220.0
65.280243 196.0
65.305977 96.0
65.331711 92.0
65.429886 228.0
65.45726 244.0
65.468536 172.0
65.494568 124.0
65.508804 220.0
65.54747 164.0
65.561981 164.0
65.574875 156.0
65.589378 156.0
65.65226 132.0
65.723244 120.0
65.765205 144.0
65.795876 244.0
65.806175 164.0
65.83786 112.0
65.913788 112.0
65.944496 104.0
66.012398 200.0
66.120087 92.0
66.15641 184.0
66.208221 168.0
66.240623 152.0
66.28437 128.0
66.29895 196.0
66.332047 156.0
66.407585 188.0
66.470856 208.0
66.552025 160.0
66.563385 136.0
66.584503 128.0
66.597496 96.0
66.642982 52.0
66.672112 160.0
66.728317 96.0
66.7584 180.0
66.898338 180.0
67.025383 148.0
67.051453 204.0
67.087387 176.0
67.104317 204.0
67.119926 204.0
67.17701 168.0
67.219437 180.0
67.262581 184.0
67.323921 220.0
67.33535 136.0
67.405602 188.0
67.423576 216.0
67.477524 148.0
67.493874 44.0
67.506958 68.0
67.53849 156.0
67.569115 140.0
67.600204 164.0
67.631516 152.0
67.677147 76.0
67.760681 104.0
67.79509 168.0
67.830254 160.0
67.855743 160.0
67.890182 128.0
67.934464 128.0
67.950874 156.0
67.972206 180.0
68.005028 156.0
68.02784 156.0
68.047714 156.0
68.073982 172.0
68.098625 160.0
68.129837 160.0
68.182419 152.0
68.197212 216.0
68.22187 168.0
68.251465 160.0
68.267906 192.0
68.348518 132.0
68.381432 64.0
68.42588 172.0
68.498344 152.0
68.605461 216.0
68.625244 120.0
68.659882 240.0
68.674721 140.0
68.697403 160.0
68.714317 60.0
68.781815 176.0
68.878174 144.0
68.922363 100.0
68.937241 164.0
68.99675 184.0
69.022545 212.0
69.034195 124.0
69.061241 188.0
69.122459 284.0
69.1539 116.0
69.218819 152.0
69.235031 180.0
69.29467 116.0
69.351013 204.0
69.478706 140.0
69.507004 144.0
69.553101 188.0
69.599869 76.0
69.644714 168.0
69.699539 248.0
69.729454 52.0
69.746078 44.0
69.835869 92.0
69.897423 80.0
69.953011 132.0
70.017288 156.0
70.113922 112.0
70.167267 64.0
70.182274 160.0
70.304054 228.0
70.343346 196.0
70.371262 228.0
70.466034 184.0
70.547928 144.0
70.566315 188.0
70.594742 148.0
70.66333 132.0
70.700142 104.0
70.760406 216.0
70.881012 184.0
70.939674 128.0
70.982605 132.0
71.0252 136.0
71.070496 164.0
71.231247 204.0
71.271996 216.0
71.391357 48.0
71.463692 124.0
71.530579 124.0
71.606781 204.0
71.659004 164.0
71.672485 172.0
71.722206 64.0
71.771942 200.0
71.81073 144.0
71.829285 316.0
71.897453 160.0
71.945732 160.0
72.016655 56.0
72.050446 116.0
72.074562 132.0
72.209343 164.0
72.261787 168.0
72.397079 156.0
72.509033 168.0
72.541237 104.0
72.561584 132.0
72.610756 104.0
72.682014 152.0
72.701027 116.0
72.787262 208.0
72.895981 196.0
72.921471 248.0
72.946968 128.0
72.979271 196.0
73.023491 84.0
73.0439 116.0
73.05751 248.0
73.084732 192.0
73.122177 132.0
73.183464 216.0
73.227737 184.0
73.273735 196.0
73.311226 144.0
73.338493 196.0
73.352135 120.0
73.404388 136.0
73.50222 148.0
73.526115 96.0
73.553429 136.0
73.604645 168.0
73.618309 200.0
73.643929 92.0
73.735977 192.0
73.73896 168.0
73.849045 44.0
73.914055 76.0
73.927742 40.0
74.020187 176.0
74.04245 44.0
74.136681 140.0
74.190079 212.0
74.241257 160.0
74.261841 148.0
74.423164 108.0
74.438622 116.0
74.454071 200.0
74.476402 140.0
74.517166 192.0
74.558876 72.0
74.615601 132.0
74.629356 124.0
74.660316 140.0
74.705032 112.0
74.74633 56.0
74.874107 164.0
74.915001 100.0
74.980545 104.0
75.058128 36.0
75.091049 132.0
75.109871 80.0
75.153 132.0
75.17543 160.0
75.242508 140.0
75.311829 148.0
75.372299 96.0
75.391312 136.0
75.420692 124.0
75.465645 104.0
75.479477 128.0
75.519257 140.0
75.538284 220.0
75.617882 268.0
75.643143 236.0
75.665123 272.0
75.692322 68.0
75.780663 184.0
75.792793 176.0
75.806656 172.0
75.891602 148.0
75.917114 196.0
76.049469 180.0
76.129341 116.0
76.167549 76.0
76.190132 220.0
76.268333 44.0
76.322235 144.0
76.346581 216.0
76.374512 208.0
76.397026 76.0
76.437256 164.0
76.450966 192.0
76.485771 264.0
76.543228 292.0
76.573135 180.0
76.616386 168.0
76.632065 112.0
76.651237 160.0
76.680862 216.0
76.808151 108.0
76.832573 188.0
76.872711 232.0
76.938309 336.0
77.019371 264.0
77.049263 176.0
77.134354 256.0
77.167923 172.0
77.23674 244.0
77.318359 168.0
77.37162 164.0
77.402283 192.0
77.479462 108.0
77.530144 252.0
77.612671 108.0
77.649506 244.0
77.674057 188.0
77.756531 124.0
77.772324 76.0
77.844315 120.0
77.891731 160.0
77.919846 60.0
78.007721 128.0
78.072777 140.0
78.136101 128.0
78.159164 152.0
78.222336 172.0
78.268494 168.0
78.301575 132.0
78.333282 164.0
78.466476 124.0
78.4972 88.0
78.536003 152.0
78.599518 136.0
78.648933 172.0
78.726624 144.0
78.746048 184.0
78.916153 204.0
78.93515 176.0
78.968521 152.0
79.129799 344.0
79.152191 204.0
79.172295 184.0
79.192879 360.0
79.241379 180.0
79.259544 144.0
79.314041 200.0
79.342407 48.0
79.368301 124.0
79.455193 156.0
79.468239 72.0
79.47464 160.0
79.487854 44.0
79.555305 92.0
79.58194 152.0
79.621002 76.0
79.740875 188.0
79.774376 204.0
79.839607 196.0
79.879082 188.0
79.89653 212.0
80.094139 152.0
80.149368 208.0
80.222443 160.0
80.27594 128.0
80.311783 204.0
80.361565 128.0
80.404289 212.0
80.424026 220.0
80.447227 128.0
80.574036 156.0
80.854782 220.0
80.883423 80.0
80.922806 156.0
81.020309 164.0
81.107338 112.0
81.125839 244.0
81.204163 140.0
81.302841 104.0
81.338745 200.0
81.36824 148.0
81.410561 148.0
81.430321 208.0
81.446487 128.0
81.534523 132.0
81.572273 124.0
81.617226 196.0
81.694565 212.0
81.708954 112.0
81.79174 136.0
81.807938 120.0
81.860161 96.0
81.952026 152.0
81.973648 128.0
82.024117 124.0
82.06739 128.0
82.096237 72.0
82.117279 156.0
82.265854 200.0
82.310989 136.0
82.359756 128.0
82.426605 136.0
82.442871 200.0
82.503937 184.0
82.541512 212.0
82.618263 160.0
82.685219 160.0
82.703316 132.0
82.745895 116.0
82.782982 168.0
82.855438 148.0
82.985939 228.0
83.15284 128.0
83.170784 144.0
83.18277 212.0
83.205482 184.0
83.223015 276.0
83.236351 80.0
83.252693 160.0
83.273827 252.0
83.305367 64.0
83.338074 52.0
83.399864 152.0
83.43792 184.0
83.484322 176.0
83.601753 140.0
83.61631 124.0
83.676384 212.0
83.69989 132.0
83.711235 204.0
83.77018 120.0
83.78566 160.0
83.82589 52.0
83.865845 164.0
83.907776 236.0
83.949715 68.0
84.019867 148.0
84.112106 76.0
84.167747 168.0
84.219841 100.0
84.27282 140.0
84.287437 140.0
84.329582 136.0
84.347755 188.0
84.40992 280.0
84.448326 108.0
84.472168 244.0
84.497719 168.0
84.607529 196.0
84.633163 148.0
84.648788 120.0
84.715584 212.0
84.775337 184.0
84.780891 112.0
84.787201 144.0
84.799095 292.0
84.871254 184.0
84.941071 176.0
84.979599 120.0
85.043831 168.0
85.062187 96.0
85.076874 60.0
85.097366 124.0
85.157669 168.0
85.174202 136.0
85.25872 236.0
85.27343 204.0
85.415016 116.0
85.44445 84.0
85.472046 64.0
85.493355 164.0
85.58065 128.0
85.593544 180.0
85.6138 120.0
85.667213 80.0
85.700378 176.0
85.781471 164.0
85.799911 172.0
85.824631 88.0
85.840477 56.0
85.860764 136.0
85.945213 72.0
85.975151 180.0
86.026215 48.0
86.091461 132.0
86.12101 228.0
86.234047 132.0
86.256714 156.0
86.309525 196.0
86.363152 204.0
86.405701 168.0
86.429756 108.0
86.477875 116.0
86.537117 108.0
86.618164 192.0
86.661217 160.0
86.687157 164.0
86.72052 144.0
86.815079 196.0
86.896027 176.0
86.980209 76.0
87.119492 152.0
87.186386 84.0
87.22728 164.0
87.241211 168.0
87.364899 124.0
87.430023 128.0
87.443047 340.0
87.482361 148.0
87.524963 128.0
87.552902 124.0
87.573387 156.0
87.590149 108.0
87.746696 176.0
87.767212 208.0
87.804863 208.0
87.826889 188.0
87.866066 108.0
87.923912 168.0
87.955643 200.0
88.086365 176.0
88.134941 120.0
88.205963 140.0
88.219048 128.0
88.234001 204.0
88.341949 200.0
88.381767 172.0
88.428551 120.0
88.638306 152.0
88.733902 176.0
88.747032 56.0
88.837059 160.0
88.87458 132.0
88.987206 148.0
89.043541 140.0
89.092377 164.0
89.150627 144.0
89.191978 72.0
89.227699 192.0
89.273872 256.0
89.300674 164.0
89.316963 180.0
89.481697 144.0
89.530663 148.0
89.543846 80.0
89.707779 152.0
89.751144 204.0
89.773773 48.0
89.8964 128.0
89.934151 60.0
89.963219 220.0
89.984657 180.0
90.058769 128.0
90.079552 264.0
90.143791 172.0
90.221291 120.0
90.24398 128.0
90.278015 144.0
90.291252 112.0
90.346115 220.0
90.385849 160.0
90.463448 76.0
90.497078 236.0
90.535324 172.0
90.755081 160.0
90.77697 188.0
90.81591 144.0
90.854187 112.0
90.870689 160.0
90.8899 128.0
90.98291 132.0
91.018982 72.0
91.052841 2328.0
91.119652 80.0
91.136757 128.0
91.229889 116.0
91.262383 200.0
91.294533 36.0
91.31926 124.0
91.374596 180.0
91.387749 216.0
91.429611 152.0
91.451469 132.0
91.479103 144.0
91.503853 160.0
91.591461 36.0
91.612411 184.0
91.640991 196.0
91.728661 160.0
91.770607 116.0
91.787766 212.0
91.822098 180.0
91.850708 144.0
91.878502 112.0
91.938477 196.0
91.988106 64.0
92.037743 244.0
92.051109 140.0
92.102676 176.0
92.117958 100.0
92.13694 184.0
92.143021 172.0
92.146919 204.0
92.167641 160.0
92.207771 136.0
92.244087 220.0
92.256088 188.0
92.310356 216.0
92.377953 116.0
92.508942 184.0
92.529144 172.0
92.573189 260.0
92.594254 128.0
92.647888 148.0
92.711121 164.0
92.730293 176.0
92.766708 188.0
92.791634 248.0
92.820396 156.0
92.897118 172.0
92.918221 120.0
92.986526 280.0
93.01226 136.0
93.069336 776.0
93.097839 196.0
93.138992 208.0
93.244675 144.0
93.274887 128.0
93.2985 232.0
93.360031 100.0
93.37542 212.0
93.388878 168.0
93.40847 220.0
93.435974 184.0
93.481232 112.0
93.679558 88.0
93.702675 224.0
93.716164 212.0
93.75856 232.0
93.870377 192.0
93.90123 168.0
93.914734 192.0
93.97068 72.0
93.997696 180.0
94.038223 308.0
94.071037 184.0
94.084549 168.0
94.174484 204.0
94.343437 160.0
94.405312 120.0
94.443993 156.0
94.573639 184.0
94.620102 144.0
94.684006 160.0
94.714996 176.0
94.753738 200.0
94.846764 48.0
94.902985 160.0
94.922379 132.0
94.986382 116.0
95.021301 276.0
95.046608 636.0
95.085632 600.0
95.108635 104.0
95.131927 112.0
95.157822 236.0
95.291733 128.0
95.353104 144.0
95.378639 80.0
95.399254 208.0
95.419464 40.0
95.458351 60.0
95.491417 132.0
95.627617 148.0
95.67749 220.0
95.736649 40.0
95.752228 232.0
95.783394 148.0
95.830147 96.0
95.843788 124.0
95.917854 152.0
96.013397 160.0
96.134354 112.0
96.185097 132.0
96.259293 124.0
96.305359 108.0
96.331558 56.0
96.462494 56.0
96.587646 100.0
96.632645 100.0
96.703094 220.0
97.016518 184.0
97.032394 204.0
97.063156 168.0
97.124374 108.0
97.149879 156.0
97.216545 180.0
97.253883 168.0
97.3442 152.0
97.373657 160.0
97.491539 168.0
97.51709 180.0
97.546715 208.0
97.593758 84.0
97.611458 88.0
97.745224 36.0
97.965744 60.0
98.032738 208.0
98.048508 92.0
98.115524 116.0
98.170738 92.0
98.192436 108.0
98.218079 140.0
98.305283 200.0
98.321945 112.0
98.389275 176.0
98.494431 220.0
98.547775 132.0
98.562958 228.0
98.617935 196.0
98.662407 160.0
98.876045 164.0
98.907715 200.0
99.039536 228.0
99.054253 152.0
99.155312 164.0
99.202881 168.0
99.268356 184.0
99.296082 196.0
99.38932 136.0
99.405197 120.0
99.427025 228.0
99.510399 132.0
99.597786 136.0
99.619637 128.0
99.661362 68.0
99.806038 148.0
99.838409 188.0
99.884033 124.0
99.905914 176.0
100.035271 156.0
100.057175 144.0
100.122887 144.0
100.171486 100.0
100.188622 100.0
100.242043 208.0
100.256371 184.0
100.284271 96.0
100.303459 180.0
100.326134 140.0
100.356041 404.0
100.4039 164.0
100.453766 144.0
100.4739 172.0
100.503647 148.0
100.561523 156.0
100.617416 156.0
100.6549 148.0
100.684685 176.0
100.738228 228.0
100.801186 48.0
100.856895 128.0
100.917122 132.0
100.933121 248.0
100.947113 168.0
100.991119 224.0
101.06514 160.0
101.099159 200.0
101.117172 56.0
101.181999 156.0
101.279358 176.0
101.343468 152.0
101.547951 132.0
101.576035 128.0
101.658295 116.0
101.692413 164.0
101.73658 108.0
101.79882 84.0
101.83033 192.0
101.885193 92.0
101.901268 140.0
101.917343 160.0
101.980652 208.0
101.998299 196.0
102.039955 100.0
102.158615 228.0
102.18074 160.0
102.249161 88.0
102.335724 208.0
102.470673 132.0
102.506943 120.0
102.553299 64.0
102.601685 128.0
102.712601 92.0
102.85936 176.0
102.938148 144.0
103.053276 688.0
103.108757 200.0
103.144737 216.0
103.282242 72.0
103.348671 168.0
103.450203 120.0
103.481537 136.0
103.508919 196.0
103.544563 240.0
103.602097 124.0
103.640587 220.0
103.658829 168.0
103.711967 220.0
103.780449 220.0
103.816956 212.0
103.835205 248.0
103.954903 188.0
104.013763 128.0
104.056519 360.0
104.117317 136.0
104.143723 268.0
104.157944 152.0
104.196541 216.0
104.214828 176.0
104.245308 160.0
104.292053 220.0
104.314606 128.0
104.392845 216.0
104.422188 64.0
104.457352 168.0
104.507629 68.0
104.542221 208.0
104.584969 172.0
104.625679 60.0
104.648079 176.0
104.681999 140.0
104.709167 108.0
104.723427 136.0
104.737686 128.0
104.797508 188.0
104.814415 352.0
104.844933 180.0
104.927498 200.0
104.951897 188.0
104.975784 184.0
104.981644 192.0
104.988586 340.0
104.994911 200.0
105.03289 57728.0
105.068489 2220.0
105.087387 368.0
105.123032 116.0
105.140816 112.0
105.155304 128.0
105.195831 156.0
105.237396 156.0
105.278191 104.0
105.310867 188.0
105.368568 284.0
105.404846 56.0
105.436722 228.0
105.484558 104.0
105.529533 112.0
105.56823 52.0
105.571968 48.0
105.581276 40.0
105.603157 104.0
105.648674 96.0
105.662903 176.0
105.694763 216.0
105.721825 164.0
105.822929 164.0
105.913887 144.0
105.998665 152.0
106.035347 6088.0
106.065247 960.0
106.102829 164.0
106.139732 72.0
106.194496 148.0
106.226662 84.0
106.250496 68.0
106.266907 68.0
106.451653 136.0
106.474243 44.0
106.519432 84.0
106.547363 168.0
106.590347 124.0
106.620117 264.0
106.643623 292.0
106.698715 136.0
106.751694 60.0
106.772255 112.0
106.806343 140.0
106.838852 192.0
106.86689 88.0
106.895691 120.0
106.913704 160.0
106.948471 168.0
106.969788 124.0
106.996552 96.0
107.010963 160.0
107.047623 888.0
107.083725 1288.0
107.177811 176.0
107.194298 168.0
107.212845 148.0
107.229332 48.0
107.243759 180.0
107.28627 180.0
107.344788 164.0
107.408722 280.0
107.443794 200.0
107.466492 180.0
107.520142 152.0
107.544914 120.0
107.571747 48.0
107.604782 104.0
107.625427 164.0
107.679123 156.0
107.693581 120.0
107.794815 188.0
107.854752 180.0
107.884727 80.0
107.962265 88.0
107.976746 156.0
108.047836 176.0
108.088043 672.0
108.181602 272.0
108.247856 84.0
108.293419 132.0
108.502724 184.0
108.529678 36.0
108.55249 116.0
108.701851 188.0
108.732979 192.0
108.84716 160.0
108.967636 140.0
108.994652 96.0
109.029022 324.0
109.064445 1524.0
109.100204 680.0
109.160957 132.0
109.204628 208.0
109.229591 160.0
109.287842 160.0
109.333626 160.0
109.377335 36.0
109.408562 144.0
109.471031 152.0
109.502815 184.0
109.527267 136.0
109.621025 92.0
109.675789 144.0
109.738518 240.0
109.753342 168.0
109.831604 152.0
109.952621 48.0
109.998543 184.0
110.031944 144.0
110.065643 420.0
110.105934 204.0
110.14119 220.0
110.180237 184.0
110.2892 140.0
110.535698 72.0
110.594299 108.0
110.629402 104.0
110.67804 148.0
110.711548 228.0
110.736679 128.0
110.778572 128.0
110.80162 144.0
110.935745 216.0
111.023811 160.0
111.04454 684.0
111.079086 376.0
111.136734 232.0
111.142296 192.0
111.297958 208.0
111.340721 144.0
111.367592 196.0
111.466774 128.0
111.666496 164.0
111.689636 212.0
111.759064 136.0
111.776001 80.0
111.900085 104.0
111.996964 60.0
112.06282 148.0
112.093697 188.0
112.207703 200.0
112.233002 60.0
112.247765 204.0
112.412308 192.0
112.578064 192.0
112.625549 48.0
112.640335 84.0
112.676254 124.0
112.7164 164.0
112.745438 184.0
112.781914 156.0
112.845337 152.0
112.8834 116.0
112.916183 60.0
112.95108 144.0
112.993393 60.0
113.020905 208.0
113.057121 308.0
113.077209 152.0
113.106064 216.0
113.189484 156.0
113.219894 136.0
113.274963 132.0
113.297142 128.0
113.335098 168.0
113.393631 144.0
113.408463 224.0
113.423302 112.0
113.455101 100.0
113.46994 36.0
113.527199 120.0
113.554764 104.0
113.760597 108.0
113.960243 204.0
114.134544 180.0
114.179199 144.0
114.238876 144.0
114.409012 204.0
114.479279 148.0
114.570877 164.0
114.613487 264.0
114.645088 252.0
114.685951 40.0
114.726067 88.0
114.822411 176.0
115.035789 212.0
115.051842 504.0
115.260056 136.0
115.303139 100.0
115.335709 260.0
115.358368 216.0
115.493088 164.0
115.66642 40.0
115.68354 204.0
115.70649 156.0
115.732788 168.0
115.747772 128.0
115.835587 184.0
115.974876 116.0
116.059471 148.0
116.142128 60.0
116.185036 88.0
116.267746 176.0
116.384644 64.0
116.441002 180.0
116.483437 104.0
116.554344 188.0
116.623116 260.0
116.935555 124.0
117.014488 220.0
117.031868 64.0
117.069649 1004.0
117.090019 40.0
117.107246 152.0
117.23436 80.0
117.262383 56.0
117.382591 132.0
117.423355 164.0
117.493118 148.0
117.516853 108.0
117.53627 132.0
117.557854 140.0
117.577278 144.0
117.599609 196.0
117.640846 112.0
117.669418 140.0
117.812645 148.0
117.973007 216.0
118.064598 4892.0
118.127487 88.0
118.206161 168.0
118.297073 156.0
118.366356 68.0
118.424828 132.0
118.507156 156.0
118.595001 188.0
118.639366 56.0
118.691399 196.0
118.79512 164.0
118.831009 220.0
118.836517 80.0
118.844589 212.0
118.860603 100.0
118.884468 72.0
118.906174 144.0
118.949585 232.0
118.966957 44.0
119.028099 180.0
119.048065 4268.0
119.084358 3120.0
119.104141 212.0
119.142868 40.0
119.171906 164.0
119.190666 216.0
119.234131 104.0
119.26239 168.0
119.286301 128.0
119.342827 140.0
119.360222 60.0
119.390671 176.0
119.464622 216.0
119.486382 76.0
119.514664 172.0
119.5299 48.0
119.610428 144.0
119.673561 156.0
119.770409 96.0
119.902298 208.0
120.003891 176.0
120.02002 140.0
120.052399 892.0
120.087112 592.0
120.129074 128.0
120.190163 132.0
120.220718 76.0
120.297112 56.0
120.342964 156.0
120.401924 100.0
120.486649 188.0
120.498642 204.0
120.572334 60.0
120.602936 144.0
120.721001 164.0
120.749435 108.0
120.771309 48.0
120.799744 108.0
120.854439 148.0
120.9179 136.0
120.966057 200.0
120.994522 100.0
121.024788 204.0
121.062714 4560.0
121.099579 2244.0
121.158783 48.0
121.180687 172.0
121.209175 36.0
121.274231 164.0
121.298836 196.0
121.322418 168.0
121.342445 160.0
121.382355 132.0
121.399895 100.0
121.43718 92.0
121.465698 40.0
121.508301 212.0
121.550995 196.0
121.58857 52.0
121.603935 200.0
121.634666 172.0
121.72908 188.0
121.759819 56.0
121.776375 172.0
121.846382 148.0
121.880966 140.0
121.907021 140.0
122.022148 276.0
122.059433 23056.0
122.098434 352.0
122.158669 80.0
122.201683 72.0
122.289703 52.0
122.320526 252.0
122.346939 36.0
122.368958 48.0
122.463654 48.0
122.527542 160.0
122.552727 136.0
122.576012 64.0
122.611275 232.0
122.653984 32.0
122.675201 48.0
122.697243 160.0
122.721497 76.0
122.789192 120.0
122.833977 60.0
122.871483 104.0
122.901375 168.0
123.043098 772.0
123.062714 2836.0
123.078613 2092.0
123.112663 404.0
123.156258 212.0
123.186409 160.0
123.210052 140.0
123.235794 100.0
123.262306 128.0
123.315346 112.0
123.412621 44.0
123.534264 104.0
123.62941 92.0
123.710373 180.0
123.748947 128.0
123.78437 136.0
123.838806 180.0
123.890694 68.0
123.919495 148.0
123.972679 276.0
124.001488 36.0
124.08461 396.0
124.138702 184.0
124.203262 204.0
124.223228 68.0
124.37413 168.0
124.505554 188.0
124.540665 80.0
124.602867 200.0
124.653976 200.0
124.708 180.0
124.876297 124.0
124.894096 116.0
124.953529 152.0
125.005341 212.0
125.023621 204.0
125.05983 500.0
125.09214 156.0
125.118019 232.0
125.17675 156.0
125.256927 120.0
125.403999 132.0
125.421829 184.0
125.53331 152.0
125.563362 244.0
125.624756 64.0
125.714012 128.0
125.803291 148.0
125.832314 152.0
125.88591 144.0
125.908241 100.0
126.055786 92.0
126.119293 180.0
126.151802 140.0
126.200989 108.0
126.449303 184.0
126.536606 32.0
126.558998 68.0
126.646339 168.0
126.760605 116.0
126.848999 100.0
126.895096 188.0
126.951157 160.0
127.040161 472.0
127.06665 188.0
127.072617 220.0
127.108574 232.0
127.275597 152.0
127.454002 184.0
127.471977 216.0
127.54615 132.0
127.633835 68.0
127.708046 152.0
127.723793 176.0
127.745323 148.0
127.804787 164.0
127.936752 120.0
127.971352 96.0
128.01413 168.0
128.062729 872.0
128.153793 196.0
128.192108 272.0
128.318344 160.0
128.512314 180.0
128.566467 200.0
128.636444 220.0
128.752686 200.0
128.882629 232.0
128.930084 36.0
128.954941 84.0
129.069122 1140.0
129.151657 212.0
129.355316 144.0
129.507034 160.0
129.534225 148.0
129.554611 172.0
129.595398 124.0
129.717773 144.0
129.765381 128.0
129.906006 208.0
129.95137 144.0
129.974518 184.0
130.019394 164.0
130.073929 276.0
130.107986 48.0
130.135223 120.0
130.196533 160.0
130.2397 252.0
130.2715 260.0
130.391937 168.0
130.501053 112.0
130.530609 152.0
130.594284 172.0
130.619308 116.0
130.924316 164.0
130.990372 180.0
131.048965 656.0
131.082703 2052.0
131.168579 116.0
131.300354 48.0
131.327728 124.0
131.407578 204.0
131.443268 180.0
131.534668 204.0
131.576477 180.0
131.638077 184.0
131.745483 124.0
131.770615 136.0
131.827087 168.0
131.864304 140.0
131.887161 160.0
131.980896 184.0
131.996902 136.0
132.023941 200.0
132.051422 276.0
132.096634 152.0
132.102737 208.0
132.141006 104.0
132.216827 152.0
132.287476 180.0
132.337265 220.0
132.354462 172.0
132.392807 152.0
132.423691 192.0
132.502762 104.0
132.592133 336.0
132.775909 152.0
132.9086 148.0
132.947617 140.0
132.973663 172.0
133.00499 172.0
133.028946 156.0
133.064194 4200.0
133.099747 4544.0
133.132324 180.0
133.199081 60.0
133.22316 148.0
133.300491 200.0
133.326553 164.0
133.41391 172.0
133.455292 192.0
133.47139 72.0
133.48938 188.0
133.55188 124.0
133.650803 124.0
133.686264 128.0
133.703735 208.0
134.069336 668.0
134.104721 440.0
134.175964 172.0
134.286652 56.0
134.332779 156.0
134.385849 232.0
134.418152 128.0
134.434311 100.0
134.513535 160.0
134.605133 196.0
134.6698 304.0
134.697525 260.0
134.799179 128.0
134.856964 60.0
134.935562 160.0
134.974869 80.0
135.042282 820.0
135.079819 1848.0
135.113358 468.0
135.148621 72.0
135.181061 60.0
135.253021 212.0
135.291855 88.0
135.324265 60.0
135.558228 124.0
135.594482 180.0
135.643982 144.0
135.748322 136.0
136.021881 212.0
136.046814 124.0
136.074585 2132.0
136.372864 60.0
136.451904 108.0
136.51236 196.0
136.565842 140.0
136.624008 172.0
136.649597 140.0
136.677521 160.0
136.742676 108.0
136.763626 116.0
136.784714 144.0
136.828812 136.0
136.970871 36.0
137.058197 1548.0
137.093063 660.0
137.136307 160.0
137.185272 184.0
137.210907 172.0
137.236557 128.0
137.262207 124.0
137.278534 188.0
137.320511 172.0
137.385834 132.0
137.467499 124.0
137.514175 228.0
137.577591 120.0
137.654999 176.0
137.684616 124.0
137.794403 240.0
137.936966 148.0
137.999466 180.0
138.063461 160.0
138.102982 156.0
138.311234 188.0
138.718842 68.0
138.742279 104.0
138.847809 180.0
138.929901 116.0
138.958054 140.0
139.037842 424.0
139.073532 1096.0
139.112503 368.0
139.190445 56.0
139.232712 188.0
139.284393 88.0
139.376007 100.0
139.399506 160.0
139.509979 224.0
139.580521 132.0
139.916992 72.0
139.945251 228.0
140.080215 144.0
140.164307 108.0
140.48497 168.0
140.525085 168.0
140.749313 228.0
140.834335 188.0
140.909943 148.0
140.950104 132.0
140.983185 108.0
141.063995 336.0
141.088348 336.0
141.094666 176.0
141.165222 156.0
141.181778 64.0
141.387604 188.0
141.427841 88.0
141.446777 92.0
141.569901 52.0
141.593582 132.0
141.645691 136.0
141.704926 180.0
141.870834 108.0
142.077011 512.0
142.18869 64.0
142.250397 152.0
142.31633 192.0
142.392868 220.0
142.497391 84.0
142.599579 200.0
142.794556 104.0
142.870667 128.0
142.887329 128.0
142.915878 124.0
143.041031 200.0
143.057465 164.0
143.083878 2952.0
143.194412 120.0
143.349274 148.0
143.492294 60.0
143.587677 148.0
143.60437 156.0
143.663239 148.0
143.686966 32.0
143.759445 176.0
143.919388 156.0
143.943268 204.0
144.054749 168.0
144.096893 244.0
144.261047 40.0
144.366257 324.0
144.435608 104.0
144.564819 212.0
144.586349 80.0
144.799789 164.0
144.856934 164.0
144.974335 156.0
145.062134 1156.0
145.09935 2160.0
145.132553 84.0
145.228485 128.0
145.38443 152.0
145.451645 180.0
145.485245 112.0
145.516464 156.0
145.540466 140.0
145.665359 64.0
145.768677 128.0
145.93454 140.0
146.007401 80.0
146.069672 684.0
146.10434 460.0
146.134171 100.0
146.16304 196.0
146.184708 188.0
146.432678 48.0
146.582047 80.0
146.801422 192.0
146.919617 224.0
146.94133 220.0
147.043213 1348.0
147.079437 3612.0
147.116364 728.0
147.168213 60.0
147.202026 48.0
147.218933 132.0
147.250092 124.0
147.344528 268.0
147.400116 60.0
147.516129 64.0
147.548126 152.0
147.576569 36.0
147.731354 160.0
147.753128 276.0
147.774902 136.0
147.796677 192.0
147.852341 68.0
147.94191 148.0
147.978226 152.0
148.019379 76.0
148.048447 240.0
148.086258 796.0
148.203476 128.0
148.297989 252.0
148.443466 148.0
148.542908 88.0
148.607635 252.0
148.671509 52.0
148.732849 176.0
148.868851 236.0
148.923538 184.0
149.030899 124.0
149.058441 5464.0
149.09494 3748.0
149.132568 72.0
149.174301 68.0
149.293442 180.0
149.390732 56.0
149.467514 108.0
149.539169 92.0
149.609756 188.0
149.680374 40.0
149.758301 40.0
149.803162 164.0
149.83139 160.0
149.923981 144.0
149.953232 176.0
149.988403 64.0
150.032272 132.0
150.063919 708.0
150.100693 816.0
150.138535 116.0
150.280014 188.0
150.304413 96.0
150.350784 248.0
150.45639 196.0
150.514084 184.0
150.576752 72.0
150.607147 76.0
150.834396 104.0
150.934647 136.0
151.033661 332.0
151.072189 2816.0
151.108215 1056.0
151.147461 28.0
151.191513 72.0
151.257599 88.0
151.311462 184.0
151.342407 168.0
151.360428 180.0
151.39769 148.0
151.468185 220.0
151.517181 184.0
151.622559 68.0
151.816238 220.0
151.906998 136.0
151.958511 164.0
152.07869 392.0
152.114578 400.0
152.172043 120.0
152.220306 196.0
152.292389 200.0
152.417679 168.0
152.449631 108.0
152.488953 140.0
152.515991 112.0
152.634003 184.0
152.715164 108.0
152.835983 140.0
152.857849 68.0
152.94809 276.0
153.052048 432.0
153.067993 432.0
153.122849 88.0
153.133057 56.0
153.137466 132.0
153.168076 72.0
153.247849 204.0
153.29866 84.0
153.325775 132.0
153.38739 40.0
153.642181 176.0
153.762314 220.0
153.85611 156.0
153.87587 116.0
153.984787 180.0
154.016632 52.0
154.048752 100.0
154.07431 292.0
154.132751 64.0
154.290939 36.0
154.340393 104.0
154.370071 132.0
154.421997 168.0
154.563019 128.0
154.63266 144.0
154.674393 168.0
154.694199 204.0
154.75061 228.0
154.922028 188.0
154.971588 240.0
154.996368 156.0
155.053253 264.0
155.08403 1640.0
155.115326 188.0
155.236816 60.0
155.321152 48.0
155.415421 124.0
155.494843 116.0
155.559372 72.0
155.611511 128.0
155.628891 40.0
155.87233 204.0
155.922028 136.0
155.942047 148.0
155.961792 84.0
155.986664 100.0
156.093491 588.0
156.123413 176.0
156.155746 128.0
156.240326 172.0
156.302521 136.0
156.529053 180.0
156.752716 92.0
156.798111 132.0
156.947693 120.0
157.038712 164.0
157.06488 712.0
157.10054 3068.0
157.138611 88.0
157.250763 240.0
157.389359 184.0
157.489258 76.0
157.651657 32.0
157.719131 120.0
157.828903 208.0
157.866653 148.0
157.891663 248.0
158.073135 568.0
158.104492 572.0
158.19693 188.0
158.344666 88.0
158.467422 76.0
158.657898 92.0
158.690353 216.0
158.760712 32.0
158.795364 112.0
158.878601 148.0
158.908707 164.0
159.04332 184.0
159.078934 5348.0
159.113678 1064.0
159.189102 104.0
159.240082 164.0
159.2677 156.0
159.292831 76.0
159.370712 204.0
159.456161 168.0
159.637177 200.0
159.710114 96.0
159.850998 180.0
159.892181 160.0
159.981888 52.0
160.022171 156.0
160.044098 192.0
160.083344 552.0
160.119232 292.0
160.213577 140.0
160.400757 204.0
160.447968 168.0
160.476349 216.0
160.619446 144.0
160.639633 44.0
160.702713 164.0
160.760742 80.0
160.870178 136.0
160.894531 132.0
160.914719 128.0
160.945023 132.0
161.059006 2056.0
161.09433 6588.0
161.157196 44.0
161.193954 140.0
161.265869 124.0
161.302582 84.0
161.344238 216.0
161.392273 52.0
161.415039 56.0
161.498489 164.0
161.52597 172.0
161.566803 184.0
161.609802 108.0
161.640503 92.0
161.751541 156.0
161.784439 180.0
161.824951 128.0
161.870529 164.0
161.962982 40.0
162.064056 204.0
162.098816 816.0
162.137543 132.0
162.189774 48.0
162.212585 40.0
162.288635 136.0
162.509308 160.0
162.547379 144.0
162.620972 224.0
162.87236 120.0
162.915543 144.0
162.946335 164.0
163.03685 764.0
163.073685 1676.0
163.10936 600.0
163.353638 244.0
163.396042 188.0
163.4673 140.0
163.683929 164.0
163.767715 180.0
163.883087 208.0
163.975403 260.0
164.009781 68.0
164.037827 332.0
164.070465 200.0
164.119415 124.0
164.155121 52.0
164.249481 132.0
164.326019 252.0
164.3694 160.0
164.433197 72.0
164.540405 104.0
164.721741 40.0
164.762604 52.0
164.826492 240.0
164.852402 140.0
164.877594 48.0
164.905716 180.0
165.051956 1352.0
165.069504 808.0
165.135834 72.0
165.18187 124.0
165.345627 100.0
165.390793 192.0
165.499161 144.0
165.567322 232.0
165.689926 212.0
165.779892 128.0
165.939941 60.0
166.073654 300.0
166.139999 148.0
166.199005 344.0
166.309357 124.0
166.326508 136.0
166.467697 184.0
166.504501 120.0
166.561493 84.0
166.733154 144.0
166.796555 180.0
166.941406 128.0
166.967117 184.0
166.987686 160.0
167.069641 2236.0
167.106339 540.0
167.136902 216.0
167.20639 196.0
167.247574 244.0
167.33252 132.0
167.481888 180.0
167.541138 160.0
167.747314 108.0
167.871078 188.0
167.88913 144.0
167.994888 252.0
168.017426 148.0
168.040741 176.0
168.074173 188.0
168.093964 920.0
168.211655 160.0
168.24263 48.0
168.348495 64.0
168.389816 132.0
168.51123 168.0
168.529327 136.0
168.778458 180.0
168.828201 52.0
168.936966 180.0
168.966293 64.0
169.005829 200.0
169.063934 248.0
169.101135 3160.0
169.183685 36.0
169.232483 132.0
169.253586 128.0
169.393448 288.0
169.411591 152.0
169.528183 56.0
169.720016 132.0
169.889938 116.0
169.922333 168.0
169.966446 44.0
169.989792 192.0
170.071381 296.0
170.105118 1192.0
170.155914 100.0
170.441635 184.0
170.485809 64.0
170.633987 140.0
170.748398 152.0
170.852448 28.0
170.88887 140.0
171.011185 72.0
171.037659 164.0
171.078949 2040.0
171.113846 2268.0
171.167389 168.0
171.279388 208.0
171.300232 144.0
171.459167 56.0
171.53215 152.0
171.608536 204.0
171.691208 108.0
171.933838 208.0
171.959946 256.0
172.082916 604.0
172.117813 360.0
172.26532 152.0
172.380417 172.0
172.450989 56.0
172.469284 204.0
172.54509 84.0
172.581696 148.0
172.628769 380.0
172.665375 192.0
172.717697 172.0
172.805054 196.0
173.016022 256.0
173.05896 684.0
173.096298 3036.0
173.131027 252.0
173.215057 132.0
173.319855 132.0
173.419434 116.0
173.458054 120.0
173.500702 36.0
173.53479 40.0
173.752487 84.0
173.902069 92.0
173.988693 140.0
174.03595 156.0
174.065842 220.0
174.099976 924.0
174.129791 228.0
174.232941 212.0
174.277603 56.0
174.324905 104.0
174.353821 188.0
174.391922 128.0
174.461594 112.0
174.606216 204.0
174.6483 168.0
174.790359 52.0
174.819702 192.0
174.893005 108.0
174.948288 36.0
174.987778 144.0
175.035172 284.0
175.073547 3356.0
175.110916 1192.0
175.151062 108.0
175.190582 128.0
175.235367 156.0
175.266983 96.0
175.321732 72.0
175.376587 96.0
175.425125 132.0
175.526901 80.0
175.601791 60.0
175.628174 176.0
175.663147 168.0
175.760086 100.0
175.786469 164.0
175.831329 140.0
176.00029 184.0
176.079559 560.0
176.117554 356.0
176.166687 32.0
176.306732 92.0
176.507645 96.0
176.544662 132.0
176.610794 44.0
176.729126 180.0
176.746979 188.0
176.791168 136.0
176.838348 164.0
176.91246 220.0
176.991745 192.0
177.053772 3592.0
177.089706 3392.0
177.128281 168.0
177.26947 164.0
177.273285 212.0
177.349548 64.0
177.389313 84.0
177.452942 120.0
177.548401 52.0
177.588181 248.0
177.609406 152.0
177.63858 92.0
177.65715 76.0
177.705215 172.0
177.760635 148.0
177.795135 188.0
177.837662 172.0
178.017502 248.0
178.056412 700.0
178.091873 856.0
178.176117 180.0
178.205414 184.0
178.257233 140.0
178.283798 68.0
178.358231 72.0
178.469894 48.0
178.544342 60.0
178.685333 36.0
178.709274 196.0
178.811295 192.0
178.843246 408.0
178.980789 72.0
179.028717 168.0
179.078537 1240.0
179.148224 88.0
179.200943 104.0
179.248825 112.0
179.303131 156.0
179.3591 108.0
179.399094 76.0
179.524414 96.0
179.570984 120.0
179.692459 96.0
180.068512 196.0
180.092224 1560.0
180.437637 76.0
180.471161 192.0
180.57402 168.0
180.61647 96.0
180.854965 192.0
180.889755 136.0
181.068436 176.0
181.098923 2532.0
181.151199 128.0
181.191635 156.0
181.26741 144.0
181.348038 212.0
181.377304 80.0
181.835968 96.0
181.986298 136.0
182.072784 284.0
182.106369 824.0
182.265656 88.0
182.383911 180.0
182.448425 112.0
182.480698 156.0
182.588257 148.0
182.636673 36.0
182.690475 116.0
182.71199 112.0
182.77388 104.0
183.018829 176.0
183.036057 172.0
183.076935 1424.0
183.114426 4212.0
183.207367 152.0
183.280472 152.0
183.352875 44.0
183.403259 144.0
183.433472 40.0
183.455307 136.0
183.495544 104.0
183.54306 136.0
183.584732 120.0
183.703415 80.0
183.746582 192.0
183.8815 36.0
184.007339 216.0
184.039886 108.0
184.082474 484.0
184.121521 760.0
184.286575 208.0
184.308197 100.0
184.329819 120.0
184.373062 80.0
184.486847 176.0
184.542206 156.0
184.610962 136.0
184.662354 144.0
184.705627 116.0
184.792206 76.0
184.813843 224.0
184.878799 116.0
185.054596 448.0
185.064529 144.0
185.094147 2840.0
185.129517 1740.0
185.282257 108.0
185.368958 112.0
185.490936 88.0
185.588531 104.0
185.610229 144.0
185.726852 132.0
185.751266 220.0
185.842194 100.0
186.041626 144.0
186.064407 172.0
186.100555 1052.0
186.134964 548.0
186.272797 132.0
186.364838 152.0
186.449081 208.0
186.503433 112.0
186.585419 280.0
186.608719 160.0
186.684814 164.0
186.807999 56.0
186.846085 44.0
186.878738 196.0
187.010132 144.0
187.073639 1660.0
187.110443 1832.0
187.152451 172.0
187.232635 96.0
187.273483 92.0
187.33342 192.0
187.535065 112.0
187.809204 156.0
187.968704 84.0
187.998718 172.0
188.077637 648.0
188.116013 516.0
188.15976 108.0
188.195267 136.0
188.255341 200.0
188.29631 180.0
188.331818 180.0
188.364594 140.0
188.490265 184.0
188.618729 136.0
188.687073 176.0
188.708939 208.0
188.85936 144.0
188.993408 160.0
189.012573 156.0
189.051712 248.0
189.090637 1296.0
189.122162 580.0
189.252502 92.0
189.335602 96.0
189.449234 136.0
189.647949 44.0
189.749374 76.0
189.839874 132.0
189.878265 108.0
189.911179 128.0
190.026398 196.0
190.081406 204.0
190.207535 140.0
190.24321 120.0
190.264816 152.0
190.592026 176.0
190.834915 92.0
190.888916 204.0
190.947891 188.0
191.007172 112.0
191.037445 140.0
191.086044 780.0
191.097641 596.0
191.100967 772.0
191.13649 36.0
191.158508 60.0
191.298874 132.0
191.435349 120.0
191.446747 68.0
191.453949 100.0
191.546722 96.0
191.618347 144.0
191.772675 200.0
191.811264 88.0
191.833313 52.0
191.940842 44.0
192.029755 152.0
192.09201 632.0
192.415436 144.0
192.528656 180.0
192.553513 224.0
192.57901 104.0
192.724792 48.0
192.744125 172.0
192.927582 160.0
193.003967 112.0
193.09967 3620.0
193.278534 184.0
193.322098 68.0
193.369141 164.0
193.421738 244.0
193.521393 84.0
193.576782 196.0
193.702667 132.0
193.740204 124.0
193.779907 148.0
193.925858 180.0
193.982635 208.0
194.009018 160.0
194.066483 360.0
194.106766 2080.0
194.153214 52.0
194.180954 224.0
194.207855 120.0
194.37793 40.0
194.499573 212.0
194.522842 188.0
194.563889 128.0
194.611099 44.0
194.663849 196.0
194.730499 60.0
194.815887 76.0
194.837967 144.0
194.964676 224.0
195.075485 860.0
195.115356 4412.0
195.155701 40.0
195.24469 64.0
195.283615 56.0
195.344818 52.0
195.428284 152.0
195.447754 60.0
195.468353 140.0
195.485947 200.0
195.508987 208.0
195.620316 32.0
195.709412 144.0
195.896011 76.0
195.926666 108.0
196.087006 1272.0
196.124054 1908.0
196.197006 152.0
196.269501 96.0
196.325272 212.0
196.355942 56.0
196.487061 44.0
196.551224 56.0
196.834885 124.0
197.028381 180.0
197.093582 4016.0
197.12915 2252.0
197.382828 188.0
197.417221 76.0
197.451675 88.0
197.537491 208.0
197.646606 56.0
197.738968 64.0
197.904129 200.0
197.971344 80.0
198.099716 1312.0
198.132797 704.0
198.250336 88.0
198.313232 136.0
198.41127 52.0
198.523422 100.0
198.554276 152.0
198.589874 116.0
198.652451 168.0
198.714172 48.0
198.742874 52.0
198.857285 148.0
198.890976 52.0
198.961151 40.0
199.042587 120.0
199.073044 768.0
199.11084 3416.0
199.146439 212.0
199.180206 96.0
199.239197 96.0
199.407806 124.0
199.430283 180.0
199.500565 68.0
199.643967 180.0
199.700211 52.0
199.71991 116.0
199.812744 168.0
199.936554 144.0
200.081879 256.0
200.113556 356.0
200.137497 200.0
200.155853 160.0
200.184296 176.0
200.232178 68.0
200.282867 100.0
200.364563 168.0
200.732132 220.0
200.860733 164.0
200.891769 148.0
200.91716 148.0
200.972656 168.0
201.050369 376.0
201.089539 724.0
201.123322 956.0
201.157562 192.0
201.27562 168.0
201.340576 68.0
201.377289 164.0
201.555267 96.0
201.625931 128.0
201.705063 128.0
201.849258 128.0
201.939758 140.0
201.976532 132.0
201.996338 72.0
202.05426 184.0
202.093933 576.0
202.129227 256.0
202.449081 184.0
202.481049 132.0
202.537003 140.0
202.667328 72.0
202.743835 124.0
202.809021 92.0
202.843048 40.0
202.967789 68.0
203.068634 1136.0
203.106201 564.0
203.134125 164.0
203.259964 80.0
203.317535 208.0
203.461487 72.0
203.555191 144.0
203.958633 132.0
204.010574 44.0
204.088684 472.0
204.097565 356.0
204.225922 184.0
204.316956 176.0
204.339722 184.0
204.462082 176.0
204.521851 128.0
204.607254 96.0
204.718307 136.0
204.795197 200.0
204.835083 120.0
204.880661 116.0
205.049713 304.0
205.097137 1036.0
205.373825 172.0
205.453705 200.0
205.476532 108.0
205.505066 144.0
205.767654 128.0
205.953278 192.0
205.996124 112.0
206.064514 328.0
206.107391 2696.0
206.144745 164.0
206.171524 156.0
206.259033 56.0
206.28476 80.0
206.602188 88.0
206.809662 136.0
206.830231 216.0
206.94278 180.0
207.017227 160.0
207.073364 152.0
207.113525 2916.0
207.185394 136.0
207.338104 144.0
207.36676 56.0
207.388321 48.0
207.406891 136.0
207.441299 128.0
207.498627 52.0
207.550247 152.0
207.62767 152.0
207.719452 128.0
207.857178 196.0
207.934662 184.0
208.053299 256.0
208.087341 940.0
208.121063 1276.0
208.227524 128.0
208.265961 208.0
208.315811 244.0
208.34816 92.0
208.68837 208.0
208.733322 132.0
208.764954 156.0
208.80809 112.0
208.865616 48.0
209.017532 140.0
209.044968 208.0
209.063995 156.0
209.09407 3024.0
209.130066 5524.0
209.195007 104.0
209.282333 136.0
209.349167 40.0
209.42981 124.0
209.449966 160.0
209.481659 96.0
209.637833 176.0
209.674713 52.0
209.738129 76.0
209.8246 164.0
210.026474 104.0
210.096832 1736.0
210.134216 1528.0
210.182266 176.0
210.222672 192.0
210.349319 124.0
210.44783 128.0
210.537354 160.0
210.618225 148.0
210.774231 136.0
210.794464 84.0
211.075821 960.0
211.109589 4864.0
211.146027 3112.0
211.218933 64.0
211.25708 100.0
211.300476 36.0
211.393066 40.0
211.682556 56.0
211.807098 76.0
211.838974 180.0
211.870834 144.0
211.943268 156.0
212.047592 128.0
212.075134 152.0
212.116058 1632.0
212.14946 1032.0
212.182053 168.0
212.310211 60.0
212.395538 136.0
212.428818 168.0
212.465164 212.0
212.497086 176.0
212.62767 40.0
212.662491 60.0
212.693283 112.0
212.797028 152.0
212.875824 192.0
213.022568 76.0
213.089676 1460.0
213.124512 3076.0
213.165222 360.0
213.223068 32.0
213.250229 116.0
213.353867 96.0
213.391663 180.0
213.412018 40.0
213.484726 132.0
213.53125 124.0
213.574875 168.0
213.734894 240.0
213.854218 168.0
213.923157 140.0
214.069427 148.0
214.090637 876.0
214.133209 568.0
214.165344 328.0
214.197815 104.0
214.221115 76.0
214.326004 112.0
214.413437 224.0
214.547516 164.0
214.672897 96.0
214.728317 152.0
214.79248 52.0
214.815826 120.0
214.888763 172.0
214.970459 212.0
214.996735 36.0
215.031754 136.0
215.069611 312.0
215.104919 1548.0
215.139969 864.0
215.303284 132.0
215.396744 68.0
215.416611 60.0
215.528214 168.0
215.586655 176.0
215.618805 68.0
215.805908 148.0
215.969681 108.0
216.022324 68.0
216.107132 560.0
216.153992 124.0
216.250565 168.0
216.353027 80.0
216.386459 152.0
216.7836 68.0
216.947739 84.0
217.018112 168.0
217.053299 128.0
217.100189 624.0
217.21167 56.0
217.271988 136.0
217.375977 60.0
217.419998 140.0
217.66954 108.0
217.819321 60.0
217.942719 36.0
217.99118 108.0
218.040298 156.0
218.107452 664.0
218.236664 176.0
218.268997 64.0
218.311935 60.0
218.6073 184.0
218.638275 128.0
218.689713 152.0
218.736801 128.0
219.070572 580.0
219.114594 1732.0
219.226898 224.0
219.308258 140.0
219.408493 180.0
219.514633 212.0
219.533768 132.0
219.616074 152.0
219.661453 180.0
219.73587 116.0
219.924744 152.0
220.028061 36.0
220.051682 112.0
220.086456 284.0
220.123703 2844.0
220.1698 188.0
220.220001 172.0
220.284988 96.0
220.400223 56.0
220.468185 204.0
220.751999 48.0
220.95018 148.0
220.976807 52.0
221.003433 176.0
221.09346 1568.0
221.13002 4964.0
221.32016 72.0
221.349762 76.0
221.500809 124.0
221.530441 152.0
221.565994 68.0
221.723694 128.0
221.78775 120.0
221.894974 108.0
221.980957 100.0
222.057907 140.0
222.102325 984.0
222.137283 1248.0
222.24794 124.0
222.271667 140.0
222.29245 140.0
222.411163 144.0
222.464249 68.0
222.506165 132.0
222.624939 128.0
222.645721 64.0
222.703445 212.0
222.731857 84.0
222.777969 100.0
222.901215 84.0
223.002258 232.0
223.108963 4348.0
223.145477 2140.0
223.19252 152.0
223.254044 152.0
223.326355 28.0
223.407883 196.0
223.439407 216.0
223.49295 68.0
223.516769 72.0
223.558426 72.0
223.751907 48.0
223.811462 212.0
223.853149 116.0
223.903778 40.0
223.924622 108.0
223.978989 252.0
224.019943 160.0
224.116333 2328.0
224.150192 496.0
224.46405 32.0
224.526672 152.0
224.637039 64.0
224.726532 56.0
224.765335 212.0
224.878738 68.0
225.089157 1916.0
225.12558 5004.0
225.161362 1508.0
225.213425 44.0
225.27887 44.0
225.318497 184.0
225.356552 60.0
225.47908 72.0
225.517929 72.0
225.601471 156.0
225.60672 148.0
225.619568 112.0
225.63443 148.0
225.644745 256.0
225.674377 108.0
225.695557 280.0
225.846848 104.0
225.903671 48.0
225.963516 144.0
226.096039 548.0
226.128723 1616.0
226.165726 420.0
226.211914 60.0
226.313705 84.0
226.523956 192.0
226.718124 56.0
227.044907 152.0
227.070755 300.0
227.106171 1460.0
227.142059 2312.0
227.440964 68.0
227.513 116.0
227.549026 48.0
227.657135 64.0
227.693176 152.0
227.748856 104.0
227.885437 140.0
227.960556 64.0
228.038696 136.0
228.087646 196.0
228.109894 356.0
228.144699 556.0
228.195023 108.0
228.29425 52.0
228.474304 144.0
228.544998 168.0
228.622162 144.0
228.663345 96.0
228.721008 148.0
228.727264 96.0
228.817825 76.0
228.838898 132.0
228.90213 136.0
228.959351 124.0
229.046204 48.0
229.080414 492.0
229.117477 1940.0
229.157883 380.0
229.345016 80.0
229.639511 240.0
229.767212 96.0
229.848679 100.0
229.91507 164.0
230.0177 128.0
230.110504 1656.0
230.157715 432.0
230.212494 64.0
230.235092 84.0
230.307419 72.0
230.378525 128.0
230.694382 144.0
230.727631 76.0
230.769958 72.0
230.881851 264.0
231.062378 200.0
231.115082 860.0
231.211624 200.0
231.35994 160.0
231.456833 160.0
231.511337 44.0
231.58403 80.0
231.632492 76.0
231.677933 120.0
231.820343 112.0
231.968872 100.0
232.040146 220.0
232.089157 372.0
232.121536 892.0
232.214478 128.0
232.554306 144.0
232.590729 184.0
232.678772 108.0
232.7061 52.0
232.76683 244.0
232.806305 124.0
232.930832 200.0
233.094574 968.0
233.12912 936.0
233.274231 140.0
233.322861 236.0
233.389755 192.0
233.41713 60.0
233.471863 36.0
233.535736 64.0
233.65831 204.0
233.923096 188.0
234.062241 52.0
234.1008 1688.0
234.135254 288.0
234.177979 112.0
234.455231 72.0
234.790588 68.0
234.891724 76.0
234.952255 140.0
235.067703 244.0
235.108521 1208.0
235.145844 6848.0
235.226181 200.0
235.376526 192.0
235.416229 264.0
235.494736 172.0
235.532288 84.0
235.575058 44.0
235.599487 44.0
235.651428 60.0
235.697266 56.0
235.746155 184.0
235.810349 148.0
235.880646 92.0
235.966248 56.0
236.077988 452.0
236.116211 2128.0
236.151733 1376.0
236.333282 52.0
236.44957 188.0
236.492432 116.0
236.587402 160.0
236.679596 88.0
236.945648 176.0
237.025314 124.0
237.091476 656.0
237.124649 5680.0
237.229538 140.0
237.557693 132.0
237.586426 44.0
237.617096 140.0
237.650848 48.0
237.774475 84.0
237.844193 56.0
237.880463 212.0
237.952545 156.0
238.000778 44.0
238.060364 192.0
238.090302 368.0
238.131348 1720.0
238.271072 184.0
238.473877 84.0
238.571091 148.0
238.5923 192.0
238.692169 184.0
238.762894 176.0
238.793655 108.0
238.896759 208.0
239.059265 360.0
239.104675 2060.0
239.140427 6708.0
239.205978 116.0
239.257477 132.0
239.32579 124.0
239.392258 80.0
239.424591 116.0
239.458481 180.0
239.480042 48.0
239.516998 152.0
239.621826 148.0
239.748077 140.0
239.803558 132.0
239.907211 128.0
239.951523 40.0
239.976196 52.0
239.997772 172.0
240.023499 248.0
240.059616 152.0
240.100906 26812.0
240.144684 700.0
240.212067 108.0
240.237549 100.0
240.296249 52.0
240.365601 116.0
240.438919 68.0
240.460526 104.0
240.494476 52.0
240.605865 140.0
240.701324 180.0
240.728546 64.0
240.777969 200.0
240.926804 192.0
240.970062 176.0
240.994507 180.0
241.105087 5048.0
241.152969 640.0
241.18428 112.0
241.207458 44.0
241.218506 72.0
241.298553 56.0
241.322418 32.0
241.433731 60.0
241.49173 160.0
241.529617 68.0
241.558533 208.0
241.693588 52.0
241.721436 104.0
241.82666 76.0
241.891098 192.0
241.951645 128.0
241.978363 60.0
242.021698 80.0
242.115295 284.0
242.204422 40.0
242.23851 52.0
242.260193 212.0
242.291168 36.0
242.374832 80.0
242.401093 84.0
242.517395 80.0
242.647598 132.0
242.675491 44.0
242.718903 72.0
242.745346 120.0
242.792877 232.0
242.839859 108.0
242.87088 76.0
242.904999 60.0
243.052505 140.0
243.099152 992.0
243.133408 1132.0
243.170731 404.0
243.410904 64.0
243.538239 52.0
243.612793 152.0
243.791916 120.0
243.929764 76.0
243.967072 32.0
244.102112 204.0
244.12796 636.0
244.175003 60.0
244.243835 52.0
244.26561 40.0
244.480301 76.0
244.513931 184.0
244.542557 88.0
244.586136 92.0
244.656342 36.0
244.72934 60.0
244.773804 128.0
244.822754 196.0
244.897507 108.0
244.944229 60.0
245.012772 136.0
245.129593 1728.0
245.308838 52.0
245.786026 60.0
245.807877 48.0
245.84845 128.0
246.099731 452.0
246.133408 960.0
246.338654 48.0
246.39801 60.0
246.49852 72.0
246.613647 124.0
246.729309 52.0
246.823105 80.0
246.907547 128.0
247.108566 1032.0
247.145523 944.0
247.207886 128.0
247.248566 160.0
247.367508 48.0
247.398819 96.0
247.504395 124.0
247.599213 108.0
248.006531 204.0
248.11702 3576.0
248.172989 188.0
248.19664 88.0
248.354584 140.0
248.662079 172.0
248.806473 192.0
248.834732 124.0
248.856705 244.0
248.908279 132.0
248.938354 188.0
249.016876 132.0
249.12468 4420.0
249.192795 116.0
249.290207 172.0
249.356201 76.0
249.799561 72.0
249.831024 44.0
249.856186 200.0
249.969467 52.0
250.098648 516.0
250.129974 1320.0
250.1772 84.0
250.282242 144.0
250.325195 212.0
250.353531 168.0
250.389633 52.0
250.630753 44.0
250.810898 172.0
250.908112 100.0
250.942795 156.0
250.96637 88.0
251.01532 60.0
251.070221 508.0
251.104843 1528.0
251.140793 3332.0
251.264511 72.0
251.450684 68.0
251.64325 84.0
251.684296 80.0
251.712723 64.0
251.876953 80.0
251.971725 84.0
251.993851 144.0
252.070892 208.0
252.111176 1152.0
252.148666 1168.0
252.201859 112.0
252.219193 132.0
252.259323 60.0
252.325714 40.0
252.550247 220.0
252.70842 100.0
252.835007 184.0
252.907791 148.0
253.021759 196.0
253.081299 424.0
253.119919 1536.0
253.155746 3508.0
253.204514 196.0
253.243439 136.0
253.276764 92.0
253.392319 124.0
253.462036 116.0
253.528259 40.0
253.740967 192.0
253.810715 76.0
253.943909 72.0
253.972458 120.0
254.023224 88.0
254.094879 184.0
254.127365 288.0
254.16362 872.0
254.286591 148.0
254.388168 96.0
254.419907 136.0
254.445312 168.0
254.677124 100.0
254.899521 48.0
255.013931 80.0
255.09314 680.0
255.136169 2552.0
255.281006 84.0
255.440033 76.0
255.49411 72.0
255.58638 40.0
255.739639 104.0
255.898315 68.0
255.946075 64.0
256.022522 92.0
256.057556 156.0
256.096405 180.0
256.139221 600.0
256.191315 100.0
256.471771 88.0
256.576965 108.0
256.640717 88.0
256.816132 52.0
257.113953 636.0
257.147125 1424.0
258.005035 92.0
258.029633 84.0
258.101288 716.0
258.148865 220.0
258.237488 60.0
258.375061 48.0
258.62146 76.0
258.890411 56.0
258.980072 216.0
259.024933 40.0
259.126953 376.0
259.181915 48.0
259.289215 176.0
259.371002 36.0
259.399872 120.0
259.496033 60.0
259.614532 84.0
259.701294 64.0
259.794312 92.0
260.108032 132.0
260.147308 120.0
260.179413 104.0
260.275757 84.0
260.37851 112.0
260.46524 124.0
260.497375 92.0
260.568054 164.0
260.625885 44.0
260.683716 80.0
260.744781 40.0
260.863708 116.0
260.995544 176.0
261.081024 316.0
261.12442 1208.0
261.236755 92.0
261.365448 156.0
261.400848 140.0
261.941772 144.0
262.012634 64.0
262.035187 356.0
262.097076 136.0
262.132751 416.0
262.296234 156.0
262.454193 112.0
262.667053 164.0
262.838074 88.0
262.873566 148.0
262.993927 188.0
263.01947 188.0
263.141815 9652.0
263.367523 32.0
263.396606 40.0
263.42569 76.0
263.477356 76.0
263.764984 40.0
263.855499 44.0
263.95575 56.0
264.023651 156.0
264.116119 744.0
264.146057 2260.0
264.567261 100.0
264.716217 56.0
264.780975 72.0
264.826324 44.0
264.865204 84.0
264.887878 156.0
264.917023 48.0
264.96048 168.0
265.023956 48.0
265.068359 308.0
265.121521 2344.0
265.157104 1468.0
265.374023 72.0
265.476929 76.0
265.565338 80.0
265.620483 48.0
265.711334 60.0
265.750275 64.0
265.83139 108.0
265.935242 60.0
266.048859 148.0
266.127991 2100.0
266.162872 204.0
266.233948 56.0
266.402832 100.0
266.487305 100.0
266.711548 176.0
266.779816 88.0
266.822083 156.0
266.913147 172.0
266.987915 140.0
267.056244 168.0
267.134521 4096.0
267.235168 68.0
267.319763 128.0
267.535645 92.0
267.562531 100.0
267.645294 52.0
267.817902 84.0
267.902588 64.0
268.049225 116.0
268.095428 3984.0
268.138611 676.0
268.193237 64.0
268.244781 40.0
268.283875 60.0
268.319763 172.0
268.345825 248.0
268.368652 52.0
268.433868 80.0
268.456696 56.0
268.505615 168.0
268.583893 156.0
268.685028 36.0
268.998322 44.0
269.078461 1464.0
269.111542 1032.0
269.150757 1700.0
269.269348 188.0
269.36734 84.0
269.442474 52.0
269.491486 144.0
269.643311 132.0
269.803467 124.0
269.926239 104.0
269.985107 160.0
270.083771 332.0
270.122314 528.0
270.144928 388.0
270.348236 60.0
270.410431 120.0
270.557739 60.0
270.652679 136.0
270.816437 116.0
271.096741 412.0
271.132874 680.0
271.168335 2292.0
271.301422 284.0
271.409607 92.0
271.491608 64.0
271.734344 92.0
271.783569 76.0
271.849182 208.0
271.872162 44.0
271.935425 132.0
271.98703 92.0
272.069122 164.0
272.098663 504.0
272.129822 156.0
272.172089 696.0
272.36795 176.0
272.43692 100.0
273.068085 324.0
273.121521 1136.0
273.202942 212.0
274.123749 336.0
274.151398 244.0
274.365509 60.0
274.391876 116.0
274.474304 192.0
274.731567 108.0
274.939453 44.0
275.008759 96.0
275.129974 348.0
275.21344 156.0
275.352142 48.0
275.527222 72.0
275.560272 184.0
275.854401 96.0
275.950287 88.0
276.112152 1100.0
276.989441 132.0
277.11908 596.0
277.161804 204.0
277.261169 180.0
277.595978 104.0
277.645752 64.0
277.785034 116.0
278.126404 268.0
278.229736 156.0
278.654877 64.0
278.950653 128.0
279.020477 56.0
279.089172 464.0
279.137054 1944.0
279.364838 124.0
279.429565 132.0
279.855591 184.0
279.925537 40.0
280.015442 76.0
280.105011 368.0
280.137665 280.0
280.351959 60.0
280.645294 88.0
280.808716 84.0
280.835388 104.0
280.907135 212.0
280.951447 156.0
281.012207 116.0
281.110626 600.0
281.151398 7260.0
281.251007 76.0
281.335938 184.0
281.399384 52.0
281.618286 36.0
281.846954 76.0
281.927155 92.0
281.990662 44.0
282.120483 176.0
282.156189 1796.0
282.298248 32.0
282.368469 48.0
282.488892 88.0
282.723114 84.0
283.129181 1164.0
283.164001 744.0
283.275574 92.0
283.546448 72.0
283.890808 88.0
284.083496 152.0
284.129639 560.0
284.23114 164.0
284.36203 68.0
284.553375 56.0
284.620514 44.0
284.723114 80.0
284.996735 188.0
285.11142 576.0
285.145966 2020.0
285.450531 52.0
285.743164 40.0
285.767578 124.0
285.820557 176.0
285.85083 84.0
285.93161 132.0
285.988831 80.0
286.042023 180.0
286.10614 12312.0
286.200928 104.0
286.224487 68.0
286.349091 100.0
286.456879 68.0
286.643005 84.0
286.709595 36.0
286.750061 64.0
286.783752 52.0
286.854553 56.0
287.063599 108.0
287.111938 2516.0
287.191193 188.0
287.296326 44.0
287.336792 48.0
287.404297 32.0
287.724945 148.0
287.831451 184.0
287.920776 76.0
287.944427 100.0
288.049133 80.0
288.117401 400.0
288.282288 80.0
288.529022 128.0
288.603424 68.0
288.704132 136.0
288.796722 76.0
288.972107 120.0
289.063446 48.0
289.101624 248.0
289.188171 160.0
289.219147 76.0
289.273315 156.0
289.882965 84.0
290.135345 132.0
290.171082 112.0
290.384735 112.0
290.859772 136.0
290.920868 140.0
290.956573 148.0
291.08725 128.0
291.135406 4008.0
291.261993 132.0
291.345398 128.0
291.562866 116.0
291.736206 172.0
292.136902 1760.0
292.484619 108.0
292.917084 80.0
293.122437 208.0
293.151459 404.0
293.380554 56.0
293.486237 184.0
293.649933 92.0
293.789795 48.0
293.947205 152.0
294.049133 152.0
294.090088 64.0
294.122467 816.0
294.202728 152.0
294.294922 128.0
294.414459 104.0
294.718475 100.0
294.84491 140.0
295.130096 404.0
295.162842 124.0
296.137787 124.0
296.371185 56.0
296.545959 92.0
296.731079 80.0
296.995148 60.0
297.143799 1144.0
297.211273 108.0
297.252441 52.0
297.276489 156.0
297.303925 40.0
297.348541 48.0
297.607117 176.0
297.63028 116.0
297.801758 96.0
297.867035 172.0
298.152161 348.0
298.3172 104.0
298.650757 100.0
299.119263 264.0
299.161835 4688.0
299.36319 48.0
299.397644 92.0
299.593994 88.0
300.083374 76.0
300.168304 1212.0
300.355835 76.0
300.480042 136.0
300.502991 100.0
300.711243 48.0
300.773376 44.0
300.856232 56.0
301.134003 352.0
301.180603 192.0
301.239563 40.0
301.69574 28.0
301.778717 72.0
301.809814 60.0
302.017334 80.0
302.130585 152.0
302.193756 168.0
302.248444 100.0
302.294098 104.0
302.979706 48.0
303.038605 36.0
303.125824 208.0
303.161346 180.0
303.562012 216.0
304.13916 116.0
304.304596 88.0
304.571991 44.0
304.936829 100.0
305.053009 236.0
305.148285 360.0
305.674133 92.0
306.15802 132.0
306.924683 112.0
307.116577 216.0
307.343262 108.0
307.601532 92.0
307.825012 72.0
307.97168 52.0
308.132568 168.0
308.415436 80.0
308.845551 136.0
309.00647 172.0
309.069458 180.0
309.146515 8064.0
309.265442 68.0
309.33194 44.0
309.394958 76.0
309.424896 72.0
309.5 72.0
309.591034 76.0
309.633057 48.0
309.738159 128.0
309.801208 80.0
309.937836 64.0
310.058105 64.0
310.10257 144.0
310.149292 2336.0
310.298859 52.0
311.150543 436.0
311.260284 68.0
311.383209 64.0
311.699402 56.0
311.755615 188.0
311.920807 68.0
312.143036 156.0
312.27243 132.0
312.402588 136.0
312.448334 48.0
312.789703 140.0
313.092499 128.0
313.120667 332.0
313.151611 148.0
313.289764 128.0
313.814911 60.0
314.132141 156.0
314.901825 156.0
315.080383 196.0
315.156952 844.0
315.852661 116.0
316.163422 444.0
316.234802 44.0
317.092865 280.0
317.168518 432.0
317.340088 84.0
317.677032 64.0
318.046082 48.0
318.099304 152.0
318.134827 140.0
318.168549 176.0
318.175964 88.0
318.189392 140.0
318.259094 188.0
318.532562 44.0
320.118866 184.0
321.151001 100.0
322.162659 116.0
322.302002 56.0
323.16214 204.0
323.203094 32.0
324.151947 136.0
325.163391 88.0
325.23877 128.0
326.108002 128.0
326.142395 120.0
326.532288 52.0
326.582642 156.0
326.730133 108.0
326.863251 104.0
326.985626 76.0
327.054016 104.0
327.099365 244.0
327.157379 6740.0
327.262817 52.0
327.324036 84.0
327.381653 52.0
327.57254 48.0
327.695038 48.0
327.781525 40.0
327.922058 40.0
328.157471 2784.0
328.286194 28.0
328.401611 64.0
328.495392 56.0
328.650543 60.0
328.683014 76.0
328.707245 120.0
328.794891 44.0
328.978973 52.0
329.164734 456.0
329.199219 108.0
329.246185 44.0
329.428345 92.0
329.513489 80.0
329.62912 88.0
329.827911 28.0
330.041199 40.0
330.131622 56.0
330.167603 176.0
330.417358 72.0
330.460785 72.0
330.764801 32.0
331.131958 220.0
331.181213 136.0
332.022095 80.0
332.051117 176.0
332.17807 128.0
333.129181 120.0
333.154602 68.0
333.180023 164.0
334.115845 20.0
334.137512 192.0
335.122925 104.0
335.272339 104.0
336.154877 156.0
337.126282 140.0
337.755157 76.0
339.151672 284.0
339.57193 92.0
340.153412 164.0
340.698883 48.0
340.787048 48.0
340.926697 160.0
341.106812 76.0
341.166077 460.0
341.801941 156.0
342.177032 84.0
343.057892 44.0
343.152161 140.0
343.969086 88.0
343.994904 52.0
344.152588 300.0
344.301392 80.0
345.084778 196.0
345.16626 2116.0
345.236389 52.0
345.302979 116.0
346.131958 28.0
346.167725 560.0
346.243042 168.0
346.380096 136.0
346.406036 44.0
346.661682 44.0
347.161713 136.0
347.648163 124.0
347.848572 116.0
348.153046 84.0
348.179047 144.0
348.264465 72.0
348.335052 76.0
348.885071 216.0
349.134186 216.0
349.759277 184.0
350.045959 148.0
350.146515 148.0
351.154144 724.0
351.302032 88.0
351.82077 96.0
352.166077 168.0
353.630035 56.0
355.151306 80.0
355.545258 176.0
356.161011 168.0
357.16394 264.0
357.73288 120.0
357.924896 80.0
358.18631 136.0
359.145996 248.0
359.180725 540.0
359.519501 108.0
360.181213 240.0
360.958832 32.0
361.019348 72.0
361.175171 156.0
363.151642 136.0
363.178192 200.0
363.606934 176.0
364.167236 204.0
365.693573 32.0
366.154266 100.0
366.379028 64.0
366.992645 80.0
367.62207 36.0
368.187103 124.0
369.166382 1428.0
369.467621 36.0
370.172699 220.0
370.378754 60.0
370.830872 112.0
371.137573 140.0
371.181061 164.0
372.116425 112.0
372.1586 176.0
372.269592 68.0
373.141846 124.0
374.138336 132.0
375.20166 240.0
376.451843 40.0
376.992706 132.0
377.155151 136.0
378.187805 144.0
379.185394 136.0
379.842407 128.0
381.609467 72.0
382.403076 180.0
382.547089 108.0
383.193604 136.0
383.474182 68.0
384.309967 152.0
385.179352 312.0
385.210602 176.0
385.402039 96.0
386.007935 52.0
387.176971 1904.0
387.863739 32.0
387.895111 52.0
388.180206 388.0
388.255829 56.0
388.471558 60.0
389.134827 104.0
389.172516 180.0
389.272278 48.0
389.460785 116.0
389.515778 100.0
389.959808 40.0
390.172089 152.0
390.231049 116.0
390.596802 68.0
391.471893 60.0
392.191559 128.0
395.146912 172.0
395.656067 72.0
395.70755 140.0
396.809021 148.0
398.913177 148.0
401.150452 112.0
401.187866 184.0
401.417572 52.0
402.730652 72.0
403.190582 168.0
405.066711 72.0
405.142822 132.0
405.182312 260.0
406.213196 112.0
406.277405 64.0
406.546234 112.0
407.060089 40.0
407.168518 264.0
408.195557 108.0
409.171082 144.0
409.203278 80.0
409.972687 88.0
410.440308 96.0
410.799255 204.0
412.196259 116.0
413.176178 160.0
414.373169 40.0
414.519043 84.0
415.171753 132.0
415.411041 72.0
416.143829 132.0
417.161346 152.0
417.787628 136.0
418.14978 116.0
418.178284 52.0
419.188446 116.0
420.587219 68.0
421.218109 312.0
425.154999 124.0
426.674835 68.0
429.187042 276.0
431.064667 112.0
431.183685 464.0
431.320923 104.0
431.358124 80.0
432.179596 204.0
432.5495 100.0
433.207916 232.0
433.26593 140.0
434.202759 84.0
434.277405 92.0
434.323029 52.0
434.982819 120.0
435.19455 116.0
435.75177 112.0
436.395386 152.0
436.536743 96.0
436.599121 104.0
436.773834 180.0
437.086823 208.0
437.191376 1872.0
437.881012 60.0
438.196106 1084.0
438.668549 64.0
438.747772 56.0
439.031311 104.0
439.199371 268.0
440.120483 92.0
441.328064 180.0
443.450562 140.0
443.785919 96.0
444.587158 48.0
445.192017 160.0
446.208588 168.0
447.194885 228.0
448.195251 124.0
449.194519 744.0
449.265045 140.0
450.198761 524.0
450.253937 40.0
450.283508 72.0
451.187805 92.0
451.222137 236.0
452.181885 184.0
452.52478 96.0
453.148895 136.0
453.185547 148.0
453.278748 84.0
454.334534 84.0
457.280487 76.0
459.337433 56.0
460.391693 44.0
460.861603 120.0
461.459991 96.0
463.214691 196.0
465.195007 136.0
466.179504 116.0
466.719543 116.0
467.052307 208.0
467.19635 148.0
468.205811 148.0
468.31781 68.0
471.126068 72.0
471.999146 88.0
473.19281 92.0
474.046722 84.0
474.189728 120.0
474.675293 92.0
475.985809 72.0
476.255066 164.0
477.315521 68.0
480.198578 92.0
481.896729 92.0
482.355621 68.0
483.576019 68.0
484.315979 116.0
484.740967 144.0
485.661682 84.0
488.358612 124.0
491.206635 344.0
491.769012 88.0
491.866119 60.0
492.199219 156.0
492.289978 136.0
493.17804 96.0
493.367462 116.0
497.532623 60.0
498.936523 64.0
499.724335 136.0
500.850098 56.0
503.98645 116.0
508.231323 176.0
508.976471 152.0
509.052826 64.0
509.106689 244.0
509.214905 3776.0
509.292206 344.0
509.398651 52.0
510.068237 80.0
510.217926 1348.0
510.706757 36.0
510.913666 48.0
511.218109 356.0
511.669769 32.0
512.034546 92.0
513.174622 168.0
513.260315 68.0
513.373047 76.0
513.454224 48.0
513.505676 120.0
514.821716 84.0
518.033142 108.0
519.438477 48.0
520.30072 52.0
520.754822 96.0
522.691528 120.0
523.225281 148.0
524.215576 160.0
524.248962 168.0
524.900879 84.0
525.831543 92.0
527.187927 88.0
529.5625 60.0
539.779602 64.0
548.773987 44.0
549.459595 96.0
551.201233 120.0
551.243286 156.0
553.165649 56.0
553.380981 52.0
553.469971 60.0
556.264282 60.0
559.494019 80.0
569.224121 112.0
570.01825 48.0
571.858826 76.0
576.242126 168.0
577.278625 88.0
579.590759 60.0
583.55072 92.0
587.929504 148.0
594.021301 88.0
594.249329 128.0
599.806885 64.0
602.883057 72.0
603.934265 108.0
604.942261 48.0
608.025452 64.0
612.233887 112.0
614.10675 68.0
615.577515 72.0
618.752014 104.0
619.851624 40.0
619.955688 76.0
620.188599 76.0
630.286682 88.0
630.711487 76.0
632.887756 80.0
637.261658 116.0
647.816284 92.0
655.131836 76.0
655.192993 52.0
655.252502 304.0
655.804504 128.0
656.258545 232.0
656.946777 76.0
658.10022 56.0
659.366699 96.0
662.647278 80.0
664.441772 76.0
666.064026 60.0
670.674561 36.0
672.934204 96.0
685.904236 60.0
695.266785 48.0
697.120667 104.0
697.236267 88.0
697.84082 88.0
698.319397 188.0
701.037903 80.0
701.515686 52.0
702.227539 92.0
704.037842 68.0
713.299683 60.0
720.617065 32.0
724.238831 76.0
724.721008 72.0
731.461182 172.0
732.382019 88.0
738.313721 180.0
739.639343 116.0
742.066406 52.0
746.731201 116.0
746.981384 96.0
752.698792 48.0
752.944519 60.0
753.479858 76.0
753.616455 84.0
756.400208 112.0
762.653564 104.0
765.354797 72.0
774.129517 92.0
774.229187 64.0
776.257507 88.0
776.340698 92.0
777.294861 88.0
789.668518 64.0
799.543213 32.0
803.245117 72.0
807.973633 160.0
808.143372 108.0
811.377441 84.0
817.073975 88.0
821.198303 104.0
824.555542 104.0
833.863525 164.0
834.674133 48.0
837.384766 204.0
840.520935 180.0
843.842224 44.0
846.544556 104.0
853.58374 140.0
857.122986 188.0
861.090088 152.0
863.668396 184.0
864.188416 72.0
865.171692 168.0
865.247803 188.0
865.809937 88.0
871.576599 136.0
872.340637 52.0
872.91687 76.0
875.765442 72.0
879.185059 204.0
882.658691 124.0
899.580261 92.0
904.685669 76.0
905.206604 124.0
907.141907 228.0
910.454041 184.0
911.06073 152.0
912.034241 136.0
912.677551 148.0
912.773743 176.0
916.367249 196.0
920.789062 212.0
922.468872 64.0
924.77356 92.0
924.997559 56.0
925.052002 60.0
925.154907 68.0
925.96637 40.0
928.954712 72.0
932.634644 76.0
937.564697 184.0
939.705078 116.0
942.073914 208.0
942.196106 108.0
946.838928 140.0
947.132935 96.0
952.045837 148.0
955.678894 128.0
958.566833 128.0
959.152405 64.0
959.294189 128.0
959.454468 132.0
961.854248 140.0
962.595154 124.0
965.889404 176.0
967.052673 192.0
968.780334 44.0
971.501953 128.0
974.382629 100.0
976.521118 156.0
978.07666 160.0
980.33136 200.0
980.667908 148.0
982.218872 152.0
984.91095 120.0
986.004395 152.0
989.119324 204.0
992.220337 132.0
993.920166 172.0
993.989197 108.0
998.072266 148.0
999.242188 264.0
1000.582764 232.0
1001.212463 84.0
1001.332153 188.0
1001.678589 44.0
1001.993591 144.0
1003.001892 52.0
1004.622559 32.0
1004.761902 248.0
1005.234619 212.0
1008.474609 52.0
1009.511475 132.0
1010.156616 128.0
1011.466553 156.0
1013.77832 180.0
1014.348816 148.0
1015.28009 168.0
1015.578979 112.0
1016.98761 152.0
1017.66687 164.0
1018.384521 136.0
1019.210388 124.0
1019.605286 148.0
1020.278198 164.0
1020.36084 132.0
1024.24292 156.0
1025.574585 184.0
1026.964722 188.0
1027.372925 212.0
1027.991821 92.0
1030.137207 116.0
1030.220215 168.0
1030.367188 236.0
1031.536743 116.0
1032.540649 184.0
1033.218628 60.0
1034.697144 108.0
1034.953247 44.0
1039.324829 112.0
1039.799683 92.0
1041.649048 88.0
1043.293213 232.0
1043.76355 72.0
1043.96936 120.0
1045.243042 168.0
1045.957397 200.0
1046.156982 144.0
1046.987671 132.0
1047.200195 224.0
1048.166626 164.0
1048.21814 176.0
1048.791748 156.0
1051.087769 184.0
1054.135742 168.0
1054.717407 188.0
1055.667847 68.0
1055.745483 48.0
1056.812744 140.0
1058.023071 116.0
1061.956665 172.0
1062.131714 244.0
1062.306885 128.0
1063.604736 140.0
1064.766968 144.0
1069.233643 160.0
1069.604614 116.0
1070.040771 180.0
1070.333862 172.0
1070.431519 140.0
1070.711548 108.0
1072.099243 56.0
1072.457642 88.0
1072.855347 164.0
1074.009644 176.0
1074.414062 52.0
1075.07312 200.0
1075.203613 144.0
1076.750977 204.0
1077.378052 184.0
1077.430298 120.0
1077.547974 100.0
1078.433105 132.0
1079.351929 224.0
1080.719116 40.0
1083.429688 208.0
1084.242188 140.0
1085.277954 132.0
1085.979736 196.0
1086.255249 248.0
1087.245972 176.0
1087.608154 216.0
1088.657471 204.0
1088.861084 164.0
1089.03186 152.0
1090.891479 168.0
1091.785767 156.0
1092.331665 192.0
1092.864624 204.0
1093.239746 188.0
1093.338379 180.0
1094.391724 204.0
1094.57605 220.0
1094.81311 216.0
1094.990967 176.0
1096.987549 192.0
1097.67981 172.0
1100.015503 216.0
1100.140991 48.0
1100.437988 148.0
1101.019165 192.0
1101.276733 104.0
1102.043091 192.0
1102.2677 208.0
1102.822876 136.0
1104.932495 180.0
1105.693481 204.0
1106.183228 228.0
1106.944702 200.0
1108.083984 172.0
1109.535522 76.0
1109.701172 96.0
1110.89502 184.0
1117.612061 148.0
1118.550537 184.0
1119.482666 84.0
1120.075439 208.0
1121.221558 144.0
1122.181396 196.0
1122.915039 80.0
1123.188477 92.0
1123.889038 176.0
1124.309448 112.0
1125.036987 160.0
1125.631226 200.0
1126.41272 168.0
1128.778687 184.0
1128.919067 272.0
1129.327148 112.0
1130.725464 136.0
1133.04248 144.0
1133.712524 116.0
1134.03418 172.0
1134.999634 148.0
1135.616577 60.0
1137.005493 208.0
1137.401489 148.0
1137.911743 200.0
1138.012451 144.0
1138.395142 52.0
1138.878784 80.0
1139.651367 208.0
1140.96875 172.0
1141.520142 192.0
1141.60083 216.0
1141.829468 212.0
1142.044678 200.0
1142.340698 148.0
1142.791382 112.0
1143.269165 52.0
1144.090454 212.0
1145.919922 224.0
1146.036865 120.0
1146.650146 168.0
1147.749023 128.0
1148.261597 164.0
1148.571777 72.0
1149.071045 224.0
1149.975342 104.0
1150.778687 128.0
1150.913696 164.0
1153.974609 200.0
1154.285645 188.0
1154.657593 80.0
1154.732056 164.0
1154.792847 212.0
1155.949829 160.0
1156.917725 116.0
1157.073364 196.0
1157.181763 192.0
1158.163696 184.0
1159.247803 104.0
1159.654419 132.0
1160.094971 160.0
1162.516479 108.0
1162.754028 116.0
1163.595825 104.0
1163.738403 160.0
1164.01001 160.0
1164.811401 152.0
1165.103516 116.0
1166.034546 152.0
1166.415161 168.0
1166.544312 152.0
1166.748291 204.0
1167.536987 132.0
1168.203613 180.0
1169.15625 164.0
1169.380859 172.0
1169.986694 136.0
1171.039185 224.0
1171.893799 76.0
1172.650146 132.0
1173.106934 140.0
1173.850098 88.0
1174.156982 316.0
1174.409302 104.0
1175.009644 164.0
1178.505493 172.0
1178.724121 248.0
1179.544312 180.0
1179.605835 188.0
1180.378418 172.0
1180.706787 216.0
1180.953003 128.0
1182.396606 124.0
1182.855225 176.0
1184.231567 132.0
1184.361694 152.0
1185.087891 168.0
1185.231812 44.0
1185.39624 200.0
1186.684937 188.0
1186.787842 232.0
1187.315796 72.0
1187.685791 204.0
1188.680542 236.0
1189.408569 124.0
1189.463501 144.0
1189.641968 164.0
1190.033325 36.0
1190.602295 136.0
1190.878052 148.0
1191.668091 192.0
1191.963501 152.0
1192.47229 140.0
1192.705811 60.0
1192.80896 128.0
1192.877686 80.0
1193.55835 124.0
1194.442505 152.0
1194.610596 88.0
1194.706909 80.0
1195.539551 204.0
1195.766602 140.0
1195.842407 224.0
1196.85437 176.0
1197.067871 144.0
1197.391479 172.0
1197.453491 160.0
1198.748779 136.0
1199.87915 100.0
1200.11438 192.0
1200.348022 184.0
1200.44458 152.0
1201.548218 180.0
1201.782837 124.0
1204.130005 116.0
1205.345947 208.0
1205.415039 204.0
1205.802002 204.0
1206.023193 148.0
1206.396484 172.0
1207.931763 148.0
1207.987061 160.0
1208.319092 212.0
1208.845093 180.0
1209.142578 120.0
1209.883301 144.0
1210.686523 180.0
1212.744263 260.0
1212.813599 184.0
1213.021606 168.0
1213.4375 180.0
1216.025024 212.0
1217.89978 152.0
1218.004028 136.0
1218.180054 188.0
1219.372803 136.0
1220.040161 376.0
1220.930176 156.0
1221.305786 176.0
1221.778809 120.0
1222.481689 140.0
1223.421265 204.0
1223.685913 196.0
1223.964355 188.0
1224.229004 164.0
1225.008789 180.0
1225.399292 132.0
1226.514404 156.0
1226.584106 128.0
1226.828003 184.0
1227.169678 176.0
1229.897461 208.0
1231.196167 152.0
1231.789795 156.0
1232.628296 152.0
1233.040649 148.0
1235.397095 140.0
1237.195679 56.0
1237.748779 136.0
1238.67334 196.0
1238.876465 48.0
1239.128662 184.0
1239.408936 136.0
1239.50708 88.0
1239.745361 40.0
1239.983643 196.0
1240.067749 108.0
1240.698608 180.0
1241.995972 128.0
1242.458984 152.0
1242.711548 220.0
1243.251953 180.0
1243.711426 200.0
1243.799316 72.0
1244.315063 140.0
1244.368042 220.0
1245.400391 180.0
1245.505737 112.0
1246.285522 140.0
1246.552612 32.0
1249.709839 36.0
1249.956177 132.0
1250.005371 116.0
1250.519165 204.0
1252.737305 156.0
1253.780151 144.0
1254.38269 164.0
1256.558472 228.0
1256.854858 220.0
1257.977051 140.0
1258.492432 148.0
1258.584229 132.0
1259.996948 164.0
1260.979126 244.0
1261.276001 136.0
1261.39624 108.0
1261.650757 132.0
1262.266357 168.0
1262.838745 192.0
1263.772583 192.0
1263.949463 116.0
1264.494385 144.0
1264.593506 124.0
1265.442993 104.0
1266.328247 124.0
1266.391968 80.0
1266.944458 100.0
1267.44751 120.0
1267.752319 248.0
1268.227173 64.0
1268.290894 168.0
1268.574463 140.0
1270.155884 152.0
1270.297729 192.0
1270.411255 216.0
1270.5177 148.0
1270.943359 140.0
1271.234375 56.0
1271.667236 208.0
1271.830444 220.0
1272.213867 124.0
1272.817383 72.0
1273.193726 204.0
1273.442383 116.0
1274.493774 200.0
1275.417603 204.0
1276.171265 160.0
1276.313477 92.0
1276.747314 152.0
1276.868164 152.0
1277.003296 204.0
1277.415894 156.0
1277.956543 152.0
1278.198486 120.0
1278.497437 148.0
1278.703857 148.0
1279.743164 124.0
1280.206055 172.0
1280.334229 152.0
1280.469604 180.0
1280.818604 40.0
1281.473999 200.0
1281.844482 148.0
1282.015503 204.0
1282.165283 144.0
1282.421753 164.0
1283.84375 248.0
1284.018921 124.0
1284.932007 160.0
1285.188843 144.0
1285.360107 80.0
1288.073242 188.0
1288.530396 136.0
1289.982056 208.0
1290.774414 184.0
1291.139648 128.0
1291.432861 220.0
1291.511475 100.0
1291.962158 304.0
1292.541748 128.0
1292.75647 200.0
1293.078491 140.0
1293.235962 172.0
1293.436401 96.0
1293.687012 268.0
1294.095093 204.0
1294.667969 176.0
1296.408813 168.0
1296.516357 140.0
1296.781494 172.0
1297.30481 240.0
1297.964478 104.0
1299.025879 200.0
1299.686035 140.0
1300.296021 212.0
1302.629639 188.0
1302.78772 204.0
1302.988892 112.0
1303.542114 212.0
1303.908691 220.0
1304.577148 204.0
1305.177246 148.0
1305.224243 192.0
1306.238403 140.0
1306.590942 136.0
1307.051392 164.0
1307.260132 132.0
1307.879028 236.0
1308.73584 160.0
1309.765625 144.0
1310.536499 128.0
1311.441528 228.0
1312.158325 144.0
1313.117432 164.0
1314.083984 120.0
1314.761353 144.0
1314.827271 228.0
1315.1521 184.0
1315.339844 76.0
1315.491333 144.0
1315.54187 220.0
1316.776733 184.0
1317.007812 192.0
1317.332031 172.0
1318.879272 188.0
1319.913208 128.0
1320.036133 168.0
1320.607422 156.0
1320.802734 172.0
1322.040039 60.0
1322.915894 144.0
1323.27063 204.0
1324.262695 216.0
1324.929199 124.0
1326.103149 124.0
1326.878784 180.0
1327.538696 68.0
1327.690918 164.0
1327.903198 148.0
1329.439331 216.0
1329.577271 136.0
1330.274048 128.0
1330.593506 192.0
1330.85498 184.0
1332.540039 160.0
1332.917847 216.0
1333.979004 172.0
1334.21167 200.0
1334.989746 172.0
1335.527954 136.0
1335.651611 192.0
1335.935303 184.0
1337.280396 204.0
1337.361572 128.0
1337.56543 108.0
1337.732788 148.0
1338.417236 164.0
1338.599243 124.0
1338.795898 56.0
1339.88855 156.0
1340.311157 100.0
1341.112793 124.0
1343.154541 196.0
1344.146729 48.0
1344.621094 176.0
1344.694092 104.0
1345.2854 112.0
1346.395264 200.0
1346.468384 220.0
1346.723999 224.0
1347.125732 120.0
1347.264526 156.0
1347.425293 144.0
1347.571411 136.0
1348.219849 152.0
1348.480591 108.0
1348.577393 148.0
1348.821167 160.0
1348.879639 116.0
1349.81543 200.0
1350.510254 184.0
1351.051636 60.0
1351.292969 148.0
1351.366211 256.0
1352.632324 228.0
1352.771362 132.0
1353.869751 176.0
1354.382446 204.0
1354.726685 172.0
1355.525391 176.0
1355.701294 60.0
1355.774536 60.0
1355.862427 196.0
1357.013428 160.0
1357.248047 168.0
1357.812744 220.0
1358.252808 144.0
1358.531616 252.0
1359.030518 136.0
1359.309326 60.0
1359.514771 136.0
1359.654297 192.0
1359.911133 132.0
1359.999268 152.0
1360.659912 156.0
1360.931641 172.0
1362.092041 148.0
1362.407837 188.0
1362.679688 144.0
1363.179443 200.0
1363.304321 156.0
1364.333374 80.0
1364.642212 148.0
1365.046631 188.0
1366.08374 144.0
1366.631592 156.0
1366.70459 152.0
1367.084351 180.0
1367.967651 92.0
1368.085449 112.0
1368.394653 204.0
1368.483032 168.0
1369.167847 136.0
1369.683472 144.0
1369.904419 140.0
1370.788574 164.0
1370.91394 216.0
1371.783691 156.0
1373.3396 196.0
1373.494507 176.0
1373.70105 84.0
1374.283936 172.0
1374.708984 244.0
1375.494263 168.0
1375.582886 132.0
1375.656616 108.0
1376.291626 132.0
1376.550049 184.0
1376.749512 144.0
1376.867676 160.0
1377.229492 152.0
1377.739258 280.0
1379.379883 184.0
1379.539673 224.0
1379.949097 84.0
1380.415039 144.0
1380.836548 200.0
1381.147217 152.0
1381.642822 236.0
1381.872192 160.0
1381.924072 168.0
1382.575195 144.0
1382.960083 184.0
1383.093018 184.0
1384.070557 152.0
1384.944458 220.0
1385.122314 120.0
1386.567139 176.0
1387.627197 124.0
1388.539307 176.0
1388.709961 160.0
1388.791504 192.0
1389.425049 348.0
1390.805908 188.0
1391.611572 172.0
1392.941772 184.0
1393.357056 100.0
1393.646851 184.0
1393.727905 176.0
1393.936646 132.0
1394.010986 160.0
1394.984619 172.0
1395.861938 184.0
1396.018188 120.0
1396.226318 176.0
1396.84375 148.0
1397.037109 100.0
1397.461304 60.0
1397.56543 64.0
1397.639771 240.0
1398.331299 236.0
1399.54541 152.0
1399.664551 168.0
1399.984741 152.0
1400.111328 152.0
1400.282715 184.0
1400.334839 180.0
1401.243652 188.0
1401.668335 208.0
1401.735474 156.0
1402.391235 172.0
1402.599976 176.0
1403.256104 264.0
1404.590942 92.0
1405.32959 60.0
1406.031006 96.0
1406.098267 172.0
1406.570435 196.0
1407.36731 160.0
1408.383057 176.0
1408.861084 128.0
1409.324341 176.0
1409.406494 144.0
1409.759521 172.0
1411.073364 160.0
1411.873535 112.0
1412.247437 108.0
1412.598999 172.0
1412.808472 140.0
1413.230957 184.0
1413.901001 104.0
1414.118042 180.0
1414.514771 56.0
1415.053833 128.0
1415.712769 148.0
1416.664062 200.0
1417.93042 152.0
1418.245239 232.0
1418.642578 164.0
1418.897461 184.0
1419.077393 64.0
1419.257324 156.0
1419.407349 144.0
1419.467285 108.0
1419.572266 196.0
1419.782227 148.0
1421.290161 240.0
1421.462769 116.0
1422.51355 44.0
1422.588623 144.0
1422.674805 152.0
1422.965088 164.0
1423.089844 132.0
1423.549683 164.0
1423.654785 176.0
1423.872559 160.0
1424.210571 228.0
1424.411133 276.0
1424.496094 176.0
1424.563721 32.0
1425.052002 148.0
1425.254883 64.0
1425.465332 116.0
1425.998901 236.0
1426.10498 176.0
1426.442383 164.0
1427.269409 180.0
1427.540161 196.0
1428.600708 144.0
1428.778687 252.0
1428.894165 128.0
1429.09729 128.0
1429.294556 88.0
1429.782104 96.0
1429.985229 204.0
1430.452026 108.0
1430.828369 128.0
1432.138672 160.0
1432.251709 168.0
1432.515381 144.0
1432.899536 280.0
1433.095459 160.0
1433.547607 196.0
1433.653076 204.0
1433.788818 112.0
1434.105347 48.0
1434.256104 192.0
1435.914917 180.0
1436.080811 76.0
1436.352417 160.0
1436.608887 176.0
1437.137085 52.0
1437.899292 228.0
1437.989868 128.0
1438.616333 152.0
1438.85791 208.0
1439.71875 116.0
1439.786743 196.0
1440.005737 148.0
1440.187012 96.0
1440.27771 84.0
1440.496704 192.0
1440.821655 184.0
1441.048218 172.0
1441.682983 168.0
1441.78125 120.0
1442.477783 112.0
1443.141968 120.0
1443.542725 148.0
1443.769653 120.0
1445.169067 164.0
1445.252319 52.0
1445.38855 244.0
1446.092407 112.0
1446.629883 184.0
1447.4021 136.0
1448.310913 216.0
1448.598755 148.0
1448.651855 192.0
1449.894531 48.0
1450.485718 184.0
1450.546387 52.0
1450.614624 148.0
1450.925415 164.0
1451.539551 80.0
1452.375122 172.0
1452.442139 148.0
1452.723389 112.0
1452.958008 152.0
1454.027954 116.0
1454.369507 60.0
1454.84021 156.0
1454.894287 224.0
1454.984375 116.0
1455.305054 188.0
1455.834839 140.0
1456.199463 236.0
1456.640015 256.0
1457.293335 164.0
1457.642944 200.0
1458.722168 164.0
1459.338013 128.0
1459.459717 184.0
1459.87793 160.0
1460.273438 48.0
1460.32666 132.0
1460.707031 164.0
1461.346069 204.0
1461.444946 192.0
1462.076538 132.0
1463.050903 64.0
1463.439209 200.0
1463.667725 48.0
1464.269287 224.0
1464.642578 156.0
1464.947266 96.0
1465.008179 132.0
1465.282471 184.0
1465.358643 124.0
1465.602417 180.0
1465.945435 84.0
1466.029175 136.0
1466.204468 180.0
1466.806641 152.0
1467.14209 180.0
1467.46228 196.0
1467.752075 176.0
1468.667236 144.0
1468.903687 220.0
1469.330933 124.0
1469.559814 64.0
1470.726685 172.0
1470.971802 184.0
1471.418213 116.0
1471.887939 184.0
1472.437866 124.0
1472.873169 156.0
1473.438477 140.0
1475.815552 188.0
1476.228516 160.0
1477.980347 200.0
1478.217529 100.0
1478.554321 188.0
1478.714966 92.0
1480.177246 160.0
1480.897217 128.0
1481.149902 40.0
1481.4104 124.0
1482.012085 156.0
1482.759033 120.0
1483.004272 144.0
1483.885864 224.0
1484.161865 204.0
1484.476318 224.0
1484.68335 216.0
1485.373657 128.0
1485.833984 144.0
1486.614746 144.0
1487.49939 128.0
1487.867798 196.0
1488.221069 140.0
1489.319214 44.0
1489.603516 368.0
1489.680298 216.0
1490.295654 208.0
1490.540894 164.0
1490.73291 204.0
1490.809814 164.0
1491.040405 76.0
1491.324707 124.0
1491.550415 168.0
1491.639893 144.0
1491.970459 96.0
1492.070435 36.0
1492.293457 176.0
1492.470215 196.0
1492.770142 116.0
1492.893188 68.0
1493.27002 192.0
1493.477783 144.0
1494.724121 188.0
1494.85498 140.0
1495.031982 120.0
1495.122314 204.0
1495.824707 260.0
1495.878662 172.0
1496.163452 216.0
1496.902588 76.0
1497.064331 128.0
1497.256836 100.0
1497.310791 172.0
1497.580444 176.0
1497.641968 136.0
1498.327637 172.0
1499.067383 128.0
1499.344849 100.0
1500.491821 116.0
1500.709229 108.0
1500.948242 144.0
1501.318481 164.0
1501.411011 40.0
1502.128296 220.0
1502.61438 44.0
1503.000122 116.0
1503.077393 128.0
1503.393799 204.0
1503.463257 156.0
1503.578979 160.0
1504.103882 132.0
1504.227295 128.0
1505.254272 128.0
