>compound MLS001056802-01!Adenosine amine congener
>formula C28H32N8O6
>ionization [M+H]+
>parentmass 577.2517571960905
#inchi InChI=1S/C28H32N8O6/c29-8-9-30-21(38)12-17-2-1-3-19(10-17)34-22(39)11-16-4-6-18(7-5-16)35-26-23-27(32-14-31-26)36(15-33-23)28-25(41)24(40)20(13-37)42-28/h1-7,10,14-15,20,24-25,28,37,40-41H,8-9,11-13,29H2,(H,30,38)(H,34,39)(H,31,32,35)/t20-,24-,25-,28-/m1/s1
#inchikey HVJGNAHENNXYLP
#Ion_Source LC-ESI
#Instrument qTof
#Compound_Source NIH Pharmacologically Active Library
#PI Dorrestein
#Data_Collector VP/LMS
#Scan -1
#Precursor_MZ 577.258
#ExactMass 576.245
#Charge 1
#CAS_Number N/A
#Pubmed_ID N/A
#Smiles NCCNC(=O)Cc1cccc(NC(=O)Cc2ccc(Nc3ncnc4n(cnc34)[C@@H]5O[C@H](CO)[C@@H](O)[C@H]5O)cc2)c1
#INCHI_AUX N/A
#Library_Class 3
#SpectrumID CCMSLIB00000086147
#IonMode Positive
#UpdateWorkflowName UPDATE-SINGLE-ANNOTATED-BRONZE
#LibraryQualityString Bronze
#TaskID d252d724072548979f1f6f1ced849daf
##Scan# 1272
#SpectrumFile p5-G02_GG2_01_18471.mzXML
#LibraryName Pharm_Active_Library.mgf
#MQScore -1
#Organism Pharm_Active_Library
#TIC_Query 0
#RT_Query -1
#MZErrorPPM -1
#SharedPeaks 0
#MassDiff 0
#LibMZ -1
#SpecMZ 577.258
#SpecCharge 0
#internalFilename spec-00000.mgf

>collision 10
45.967731 68.0
47.240833 192.0
59.788666 132.0
67.773682 212.0
69.180199 148.0
71.50206 160.0
77.547112 104.0
85.940735 52.0
86.871323 212.0
106.066368 760.0
107.070282 120.0
117.792252 152.0
120.96933 124.0
123.754341 44.0
124.139893 88.0
128.465698 172.0
135.185867 164.0
137.071457 148.0
139.087448 124.0
139.25885 132.0
146.651932 184.0
148.977325 248.0
152.943695 208.0
170.54451 172.0
170.965836 140.0
176.116364 184.0
177.101761 1300.0
178.107025 196.0
181.399841 92.0
184.931183 164.0
194.129303 152.0
197.076675 56.0
208.178741 140.0
209.666046 180.0
213.426392 124.0
214.739761 120.0
217.079361 136.0
224.034225 72.0
224.093811 1168.0
225.006454 68.0
225.089996 208.0
225.19458 40.0
225.311066 56.0
245.481918 220.0
251.4142 184.0
252.087387 760.0
252.542084 52.0
252.836319 48.0
253.093231 128.0
276.043304 220.0
279.862549 180.0
280.552216 172.0
284.013184 176.0
290.90036 184.0
295.183044 96.0
295.839966 72.0
295.925568 68.0
296.168701 168.0
298.450836 164.0
305.889191 120.0
306.049316 152.0
308.939117 172.0
314.967804 148.0
327.95285 188.0
357.133575 220.0
358.159454 120.0
361.943359 172.0
375.406158 68.0
383.092133 48.0
383.996429 84.0
384.154877 148.0
385.145691 224.0
386.149231 156.0
386.226654 132.0
402.16272 108.0
403.476929 216.0
409.564514 176.0
427.197083 636.0
428.088287 84.0
428.180542 1032.0
428.248932 80.0
428.788635 64.0
428.920532 84.0
429.182129 328.0
429.225616 192.0
429.588562 52.0
430.19104 148.0
431.05838 68.0
431.194763 100.0
431.430389 36.0
441.308746 168.0
442.275116 200.0
443.791626 148.0
445.079773 228.0
445.113373 140.0
445.142761 88.0
445.201782 804.0
445.592194 96.0
446.1091 76.0
446.213531 296.0
447.148041 40.0
449.178925 56.0
464.878967 124.0
523.213257 76.0
556.76825 136.0
561.106689 124.0
565.802734 132.0
576.901672 216.0
758.9953 128.0
813.71637 84.0
830.430603 120.0
887.453125 168.0
972.938904 20.0
1504.253418 176.0
