>compound MLS001142922-01!
>formula C21H23ClN4O3
>ionization [M+H]+
>parentmass 415.1531447280905
#inchi InChI=1S/C21H23ClN4O3/c22-16-3-1-4-17(10-16)24-19(27)7-8-23-21(29)25-11-14-9-15(13-25)18-5-2-6-20(28)26(18)12-14/h1-6,10,14-15H,7-9,11-13H2,(H,23,29)(H,24,27)/t14-,15+/m1/s1
#inchikey CVJDJVCOTWRRGG
#Ion_Source LC-ESI
#Instrument qTof
#Compound_Source NIH Natural Product Library
#PI Dorrestein
#Data_Collector VVP/LMS
#Scan -1
#Precursor_MZ 415.154
#ExactMass 414.146
#Charge 1
#CAS_Number N/A
#Pubmed_ID N/A
#Smiles Clc1cccc(NC(=O)CCNC(=O)N2C[C@H]3C[C@@H](C2)c4cccc(=O)n4C3)c1
#INCHI_AUX N/A
#Library_Class 1
#SpectrumID CCMSLIB00000080593
#IonMode Positive
#UpdateWorkflowName UPDATE-SINGLE-ANNOTATED-GOLD
#LibraryQualityString Gold
#TaskID b1d8e8f6646f4e71acdff9ca3d919d08
##Scan# 1773
#SpectrumFile p2-C11_GC11_01_18011.mzXML
#LibraryName NIH_Natural_Products_Library.mgf
#MQScore -1
#Organism NIH_Natural_Products_Library
#TIC_Query 0
#RT_Query -1
#MZErrorPPM -1
#SharedPeaks 0
#MassDiff 0
#LibMZ -1
#SpecMZ 415.154
#SpecCharge 0
#internalFilename spec-00000.mgf

>collision 10
95.044983 152.0
95.179108 80.0
95.235229 96.0
95.412331 204.0
95.478172 116.0
95.604622 144.0
95.645493 132.0
95.949387 256.0
96.044182 276.0
96.064445 156.0
96.263519 68.0
96.294769 180.0
96.316254 176.0
96.408073 148.0
96.437393 160.0
96.546875 168.0
96.584038 136.0
96.605553 208.0
96.693604 68.0
96.722961 228.0
96.907043 144.0
96.920761 232.0
97.046204 208.0
97.212929 188.0
97.250214 144.0
97.324814 160.0
97.353058 156.0
97.387657 120.0
97.479988 140.0
97.65889 132.0
97.715942 100.0
97.830086 56.0
97.924599 56.0
98.024086 472.0
98.076309 204.0
98.30619 192.0
98.364288 136.0
98.459061 144.0
98.472885 40.0
98.561783 88.0
98.818817 220.0
98.866837 136.0
98.939545 172.0
98.998947 144.0
99.022713 136.0
99.050438 212.0
99.064308 228.0
99.135635 148.0
99.149506 152.0
99.201042 116.0
99.274399 200.0
99.292244 152.0
99.353737 132.0
99.409294 80.0
99.451347 228.0
99.504478 192.0
99.601868 148.0
99.722557 108.0
99.752884 80.0
99.86026 156.0
99.917946 172.0
100.045311 188.0
100.150848 156.0
100.254448 152.0
100.316231 136.0
100.365578 208.0
100.62146 132.0
100.735291 188.0
100.847183 188.0
101.055153 160.0
101.077026 232.0
101.323433 156.0
101.427635 156.0
101.563988 116.0
101.630188 176.0
101.730537 148.0
101.79097 464.0
101.905258 136.0
101.935394 188.0
101.995689 184.0
102.120346 200.0
102.247093 136.0
102.692345 212.0
102.783127 184.0
102.904228 56.0
102.922401 176.0
103.013283 164.0
103.051666 132.0
103.077934 232.0
103.189102 252.0
103.334717 216.0
103.510811 188.0
103.595879 244.0
103.626266 44.0
103.662735 44.0
103.751915 148.0
103.983154 108.0
104.055107 148.0
104.082626 216.0
104.373192 292.0
104.517609 176.0
104.533882 140.0
104.580696 164.0
104.672302 360.0
104.790443 92.0
104.893143 192.0
105.012634 208.0
105.044365 208.0
105.065979 208.0
105.106476 64.0
105.469994 212.0
105.529274 156.0
105.609024 148.0
105.74202 156.0
105.782951 84.0
105.870995 244.0
105.940628 112.0
106.064957 472.0
106.084076 148.0
106.125084 48.0
106.225571 80.0
106.278908 172.0
106.586906 240.0
106.634171 132.0
106.667061 156.0
106.971497 100.0
107.074448 148.0
107.175385 176.0
107.195992 124.0
107.235146 312.0
107.317604 104.0
107.379463 264.0
107.435158 216.0
107.571358 192.0
107.635353 188.0
107.752937 168.0
107.821274 172.0
107.87915 216.0
108.045677 464.0
108.097534 176.0
108.292984 192.0
108.639763 160.0
108.742889 72.0
108.758469 156.0
108.877838 172.0
108.992088 164.0
109.052193 320.0
109.164619 68.0
109.258217 204.0
109.699699 176.0
109.759613 152.0
109.781013 184.0
109.812294 144.0
109.83107 220.0
109.937469 156.0
110.200569 136.0
110.269524 68.0
110.378227 176.0
110.42424 204.0
110.625107 144.0
110.71933 136.0
110.882317 100.0
110.901604 56.0
111.001091 356.0
111.052559 152.0
111.092056 116.0
111.31279 192.0
111.384193 196.0
111.43882 96.0
111.474533 64.0
111.615372 160.0
111.716324 128.0
111.754196 128.0
111.850998 168.0
111.876259 112.0
111.925583 224.0
111.996353 128.0
112.015244 36.0
112.424271 144.0
112.595268 176.0
112.853065 92.0
112.889015 64.0
112.999001 348.0
113.054016 240.0
113.257263 136.0
113.316574 208.0
113.39286 156.0
113.744949 212.0
113.789528 108.0
113.910576 212.0
113.925446 132.0
113.974312 172.0
114.091209 136.0
114.444374 180.0
114.512344 144.0
114.599861 180.0
114.685097 152.0
114.731995 168.0
114.81942 180.0
114.852692 180.0
114.889809 168.0
114.917542 136.0
115.088287 124.0
115.231392 52.0
115.304039 204.0
115.588814 168.0
115.676208 148.0
115.738289 160.0
115.806816 128.0
116.006096 184.0
116.033966 148.0
116.06398 128.0
116.109009 72.0
116.199104 184.0
116.47139 232.0
116.557663 120.0
116.671577 180.0
116.753281 184.0
116.892143 156.0
117.013641 156.0
117.05722 540.0
117.259209 224.0
117.332497 40.0
117.483734 156.0
117.686325 200.0
117.848312 124.0
117.941238 216.0
118.038528 132.0
118.063583 184.0
118.066925 212.0
118.109894 304.0
118.42157 152.0
118.47139 164.0
118.601402 120.0
118.863815 160.0
119.065704 164.0
119.096107 132.0
119.178658 152.0
119.224297 140.0
119.285149 140.0
119.32428 124.0
119.356895 160.0
119.387337 140.0
119.437363 176.0
119.509148 152.0
119.62014 152.0
119.696342 120.0
119.731186 204.0
119.820488 112.0
119.890213 204.0
119.979576 180.0
120.086426 204.0
120.11042 124.0
120.175644 196.0
120.220886 228.0
120.389778 172.0
120.48838 228.0
120.531769 148.0
120.765686 180.0
120.796303 76.0
120.980125 184.0
121.047997 160.0
121.247345 160.0
121.321869 144.0
121.370102 336.0
121.385452 76.0
121.672874 96.0
121.747528 160.0
121.782669 168.0
121.907898 188.0
121.957596 148.0
122.041977 160.0
122.062439 196.0
122.193741 160.0
122.343636 144.0
122.788483 208.0
122.962769 92.0
122.99588 128.0
123.017952 92.0
123.150436 240.0
123.176941 140.0
123.358139 56.0
123.459846 180.0
123.705437 152.0
123.809502 116.0
123.918037 164.0
124.000031 204.0
124.124168 36.0
124.186264 208.0
124.223976 220.0
124.241722 160.0
124.271362 144.0
124.399277 192.0
124.44368 208.0
124.470322 104.0
125.034966 192.0
125.075027 116.0
125.158684 140.0
125.288803 124.0
125.335587 96.0
125.355644 80.0
125.518364 160.0
125.533974 148.0
125.605347 168.0
125.792786 160.0
125.846359 232.0
125.89772 156.0
125.914581 152.0
126.009125 160.0
126.046494 400.0
126.449921 196.0
126.552887 72.0
126.615585 168.0
127.014542 96.0
127.063889 184.0
127.108765 60.0
127.505508 196.0
127.969627 156.0
128.027023 3452.0
128.059708 128.0
128.266998 156.0
128.289536 196.0
128.316589 92.0
128.589539 208.0
128.634674 200.0
128.798004 168.0
129.026199 484.0
129.068497 180.0
129.24939 176.0
129.296921 156.0
129.330872 40.0
129.67514 200.0
129.724686 200.0
129.849716 92.0
129.886002 144.0
129.93364 140.0
129.958588 124.0
129.988098 124.0
130.025299 1096.0
130.065475 708.0
130.242355 192.0
130.319595 124.0
130.467331 144.0
130.546906 140.0
130.574188 100.0
130.728897 56.0
130.790344 148.0
130.83815 156.0
130.947433 120.0
130.972488 76.0
131.024887 144.0
131.075104 396.0
131.125153 204.0
131.353149 84.0
131.611038 244.0
131.627014 216.0
131.643005 120.0
131.876038 208.0
131.985764 188.0
132.045822 1284.0
132.082489 536.0
132.235107 156.0
132.381622 36.0
132.452621 144.0
132.610718 124.0
132.665741 92.0
133.014404 168.0
133.052292 2012.0
133.075073 188.0
133.091934 52.0
133.121429 156.0
133.172836 228.0
133.198105 212.0
133.290009 256.0
133.416412 284.0
133.593491 152.0
133.631516 160.0
133.715439 140.0
133.957199 48.0
134.033234 116.0
134.059845 1112.0
134.208405 148.0
134.231461 40.0
134.494461 100.0
134.593735 148.0
134.769272 144.0
134.796997 220.0
134.840912 240.0
135.000427 84.0
135.06311 376.0
135.157715 264.0
135.294266 120.0
135.599899 144.0
135.894531 144.0
136.463547 44.0
136.562332 244.0
136.599609 176.0
136.686844 92.0
136.72641 140.0
136.831146 164.0
136.963882 172.0
136.991837 164.0
137.175934 80.0
137.290176 104.0
137.467468 128.0
137.560822 156.0
137.59584 188.0
137.641174 172.0
137.721939 120.0
138.156723 148.0
138.184799 240.0
138.45163 188.0
138.653107 140.0
138.744522 204.0
138.983749 72.0
139.002518 88.0
139.04007 156.0
139.138657 168.0
139.272507 188.0
139.326538 212.0
139.382919 100.0
139.453415 168.0
139.688553 132.0
139.827377 212.0
139.865036 48.0
140.020416 92.0
140.171188 144.0
140.206543 112.0
140.704239 180.0
140.727844 196.0
140.769226 280.0
140.85997 160.0
140.990341 124.0
141.127136 76.0
141.219376 180.0
141.422852 96.0
141.465454 128.0
141.718857 212.0
142.021973 120.0
142.063904 156.0
142.100586 196.0
142.126678 108.0
142.314194 88.0
142.725235 68.0
142.810852 152.0
143.067841 112.0
143.096405 60.0
143.358414 56.0
143.389404 188.0
143.503815 120.0
143.553894 48.0
143.584885 224.0
143.682693 192.0
143.797226 172.0
144.004944 132.0
144.082962 500.0
144.174561 60.0
144.23909 184.0
144.274948 220.0
144.302094 204.0
144.499756 120.0
144.583511 172.0
144.710373 148.0
144.856461 216.0
145.028976 112.0
145.048996 308.0
145.088898 184.0
145.144043 144.0
145.180023 160.0
145.338333 124.0
145.362335 40.0
145.405533 188.0
145.51355 172.0
145.66243 132.0
145.686462 64.0
145.756134 208.0
145.97728 124.0
146.025375 40.0
146.061234 6316.0
146.096512 432.0
146.150467 152.0
146.2034 88.0
146.229874 96.0
146.292465 132.0
146.559784 136.0
146.641724 152.0
146.704391 156.0
146.78154 184.0
146.911774 48.0
146.964859 240.0
147.015533 68.0
147.064285 1136.0
147.107315 152.0
147.167603 44.0
147.203827 96.0
147.307678 60.0
147.505814 100.0
147.536377 168.0
147.580765 68.0
147.614609 240.0
147.682327 216.0
147.769409 228.0
147.877014 112.0
148.016296 160.0
148.07663 10968.0
148.13739 52.0
148.167282 164.0
148.202805 208.0
148.221359 152.0
148.246826 96.0
148.287613 120.0
148.340942 80.0
148.403198 112.0
148.430649 76.0
148.464478 88.0
148.505829 36.0
148.578598 120.0
148.624695 148.0
148.70639 192.0
148.957291 160.0
149.035034 260.0
149.080841 624.0
149.102554 200.0
149.130554 168.0
149.190582 64.0
149.355927 228.0
149.414307 60.0
149.484879 76.0
149.805954 160.0
150.072815 152.0
150.093842 144.0
150.276764 100.0
150.323135 120.0
150.432953 140.0
150.527542 216.0
150.581909 48.0
151.063416 212.0
151.224915 76.0
151.388947 152.0
151.538361 120.0
151.726883 208.0
151.812881 112.0
151.861938 148.0
151.969879 188.0
152.025772 1608.0
152.217789 228.0
152.24234 60.0
152.532257 144.0
152.635666 180.0
152.696991 168.0
152.770782 112.0
152.957794 196.0
153.025864 468.0
153.068588 180.0
153.122757 108.0
153.18187 176.0
153.38147 168.0
153.502274 160.0
153.581192 124.0
153.694672 52.0
153.734146 184.0
153.808182 144.0
153.837814 104.0
153.899536 96.0
153.916809 52.0
153.98349 156.0
154.00795 480.0
154.043808 156.0
154.064484 496.0
154.141586 76.0
154.220673 204.0
154.30719 72.0
154.408066 212.0
154.49762 96.0
154.621338 144.0
154.64856 44.0
154.811966 216.0
154.955627 132.0
155.012619 128.0
155.0737 160.0
155.240677 140.0
156.003174 172.0
156.052628 204.0
156.080505 452.0
156.269196 200.0
156.430771 144.0
156.510437 196.0
156.674805 228.0
156.759521 156.0
156.80687 192.0
156.866699 88.0
156.99884 232.0
157.058701 176.0
157.080948 204.0
157.190918 168.0
157.28476 160.0
157.303223 164.0
157.468887 160.0
157.56044 160.0
157.685379 164.0
157.821991 204.0
157.842865 196.0
157.902893 216.0
157.946426 196.0
158.01796 216.0
158.059967 2488.0
158.165604 124.0
158.19313 52.0
158.263229 80.0
158.353378 160.0
158.522522 160.0
158.824585 136.0
159.068253 1256.0
159.123215 88.0
159.701172 176.0
159.78418 236.0
159.831985 176.0
159.907486 228.0
159.941788 140.0
159.958527 216.0
160.076736 14672.0
160.115189 136.0
160.202087 80.0
160.259567 88.0
160.333099 124.0
160.406204 40.0
160.484741 156.0
160.577652 64.0
160.607925 204.0
160.628098 68.0
160.66713 72.0
160.701263 76.0
160.736588 212.0
160.774429 108.0
160.817337 192.0
160.835007 240.0
161.080978 1628.0
161.112518 180.0
161.170883 40.0
161.211319 192.0
161.323303 156.0
161.512177 28.0
161.798111 100.0
161.874069 52.0
161.919662 140.0
162.008316 148.0
162.049957 92.0
162.089172 232.0
162.166107 116.0
162.213577 60.0
162.309906 152.0
162.429108 92.0
162.492523 172.0
162.632095 100.0
162.759033 64.0
162.825058 72.0
163.198593 188.0
163.328293 188.0
163.473312 116.0
163.508926 184.0
163.732971 148.0
163.952057 196.0
164.026627 1632.0
164.184052 152.0
164.222305 188.0
164.28862 168.0
164.324341 168.0
164.416199 176.0
164.730255 148.0
164.748138 88.0
165.029846 220.0
165.198044 144.0
165.520523 140.0
165.541016 188.0
165.587112 200.0
165.60759 40.0
165.745377 168.0
165.804871 160.0
166.025269 796.0
166.125366 48.0
166.199768 80.0
166.269058 128.0
166.330353 172.0
166.428207 156.0
166.637512 196.0
166.700485 248.0
166.744171 116.0
166.811005 168.0
166.875275 120.0
167.02713 332.0
167.088745 112.0
167.117035 56.0
167.232834 92.0
167.266296 164.0
167.510925 140.0
167.732529 180.0
167.823135 164.0
168.191666 104.0
168.220047 160.0
168.573486 156.0
168.811707 136.0
168.909988 200.0
168.968262 176.0
169.060043 32.0
169.261963 132.0
169.528763 56.0
169.717987 136.0
169.790604 152.0
169.811996 96.0
170.003326 252.0
170.065613 232.0
170.156464 80.0
170.346039 232.0
170.462952 228.0
170.511612 232.0
170.598099 108.0
170.639694 64.0
170.681305 72.0
170.769714 140.0
170.923203 72.0
170.957031 160.0
171.068954 120.0
171.092377 184.0
171.113205 152.0
171.277267 112.0
171.619186 136.0
171.649948 184.0
171.678635 208.0
171.910797 156.0
171.942123 188.0
171.999252 184.0
172.07486 2520.0
172.171371 176.0
172.354706 144.0
172.485382 68.0
172.618713 112.0
172.744247 44.0
172.882919 128.0
172.916946 196.0
172.937881 64.0
172.958817 80.0
173.080795 628.0
173.205353 132.0
173.259964 36.0
173.377869 40.0
173.438156 148.0
173.658401 108.0
173.797424 140.0
173.861847 276.0
173.889282 140.0
173.909454 204.0
173.98082 164.0
174.060547 232.0
174.092361 8968.0
174.18222 56.0
174.298935 180.0
174.364639 40.0
174.446121 40.0
174.496063 60.0
174.540771 68.0
174.659103 176.0
174.774109 208.0
174.890656 156.0
174.957901 44.0
175.06662 172.0
175.096527 680.0
175.351562 144.0
175.486008 80.0
175.78688 176.0
175.811844 196.0
175.992584 92.0
176.071808 160.0
176.096619 352.0
176.153687 140.0
176.17218 140.0
176.248795 148.0
176.330719 80.0
176.397705 128.0
176.544846 144.0
177.288727 36.0
177.4133 176.0
177.439819 72.0
177.601578 120.0
177.996994 128.0
178.026215 68.0
178.100571 80.0
178.900955 204.0
179.023438 128.0
179.329803 140.0
179.447098 128.0
179.641769 92.0
179.897949 144.0
180.04213 212.0
180.18103 80.0
180.279892 208.0
180.734467 72.0
180.828125 124.0
180.876312 152.0
181.051178 200.0
181.430817 132.0
181.548798 88.0
181.605118 116.0
181.88147 244.0
182.037598 936.0
182.394501 60.0
182.550446 60.0
182.641876 76.0
182.703751 148.0
182.757553 268.0
182.873276 176.0
183.005173 140.0
183.045074 448.0
183.141953 172.0
183.242188 200.0
183.360748 80.0
183.401184 144.0
183.452393 148.0
183.602844 180.0
183.829987 84.0
183.96904 112.0
184.033737 268.0
184.534973 128.0
184.635025 128.0
184.89473 96.0
185.04361 140.0
185.108597 52.0
185.357803 104.0
185.539398 148.0
185.775604 192.0
186.057556 152.0
186.149872 120.0
186.36174 124.0
186.818466 104.0
187.243088 180.0
187.357483 116.0
187.665451 184.0
187.714539 180.0
187.831802 116.0
187.913651 200.0
188.039169 120.0
188.073486 748.0
188.129242 136.0
188.40506 180.0
188.560806 100.0
188.582672 184.0
188.656479 200.0
188.727554 112.0
188.902588 168.0
188.960037 132.0
189.068314 140.0
189.103439 11844.0
189.230988 88.0
189.269318 124.0
189.367905 36.0
189.43399 64.0
189.456619 72.0
189.49118 132.0
189.551453 172.0
189.603516 136.0
189.704926 44.0
189.795532 248.0
189.91333 68.0
190.025803 84.0
190.061462 220.0
190.107178 1076.0
190.187698 100.0
190.228882 184.0
190.27829 164.0
190.308487 140.0
190.35791 112.0
190.577652 80.0
190.657349 160.0
190.693069 104.0
190.720566 148.0
190.8125 144.0
190.938766 208.0
190.968018 100.0
191.011398 68.0
191.119049 18812.0
191.174622 204.0
191.199112 64.0
191.270676 48.0
191.303711 48.0
191.409698 168.0
191.427002 104.0
191.507996 84.0
191.566391 204.0
191.592865 44.0
191.614899 44.0
191.697556 56.0
191.727875 100.0
191.749924 52.0
191.79126 220.0
191.857422 208.0
191.995285 136.0
192.031143 80.0
192.066986 168.0
192.12085 1836.0
192.193893 72.0
192.315323 128.0
192.400894 80.0
192.463013 40.0
192.638382 60.0
192.693634 32.0
192.964478 104.0
193.050201 128.0
193.12764 120.0
193.213379 108.0
193.249344 72.0
193.304688 100.0
193.348969 212.0
193.80864 136.0
193.897308 168.0
194.004364 144.0
194.085815 40.0
194.238342 108.0
194.346542 196.0
194.501953 40.0
194.557465 124.0
195.327209 200.0
195.477448 128.0
196.062241 152.0
196.695358 116.0
196.793076 140.0
196.949448 84.0
197.539246 160.0
197.561615 92.0
198.026276 124.0
198.045883 132.0
198.065491 56.0
198.284027 148.0
198.502686 68.0
198.850555 216.0
198.999329 224.0
199.085587 484.0
199.125687 188.0
199.170624 140.0
199.274567 96.0
199.496582 76.0
199.589355 144.0
199.682159 48.0
199.803116 44.0
199.867828 136.0
199.92691 60.0
200.06134 248.0
200.450699 176.0
200.741043 236.0
200.808716 192.0
201.124725 204.0
201.184006 48.0
201.229172 160.0
201.429672 140.0
201.710297 188.0
201.901672 164.0
202.082718 128.0
202.201553 52.0
203.028793 120.0
203.113892 140.0
203.187637 288.0
203.431702 168.0
203.908875 108.0
204.090805 124.0
204.531769 108.0
204.887711 200.0
205.768951 128.0
205.920303 128.0
206.068832 192.0
206.394669 240.0
206.580566 136.0
206.778 148.0
206.858139 156.0
206.906799 160.0
207.03566 508.0
207.316391 160.0
207.396637 84.0
207.528519 160.0
207.623138 204.0
207.869843 144.0
207.898544 172.0
208.181076 228.0
208.799316 168.0
208.84375 124.0
209.030746 140.0
209.373306 140.0
209.479874 208.0
209.606644 184.0
209.765152 192.0
209.9814 116.0
210.033325 200.0
210.087326 160.0
210.396912 152.0
210.500854 160.0
210.653931 132.0
210.977814 252.0
211.356461 148.0
211.38829 76.0
211.973221 156.0
212.089142 188.0
212.231186 156.0
212.529938 88.0
212.709869 44.0
212.837601 56.0
213.308243 208.0
213.677567 136.0
213.732849 204.0
213.901901 140.0
214.131668 108.0
214.181183 172.0
214.22197 140.0
214.697052 120.0
214.781631 104.0
215.172668 72.0
215.505203 144.0
215.616653 76.0
215.637115 176.0
215.6642 120.0
216.011368 64.0
216.113297 820.0
216.236664 92.0
216.264206 312.0
216.376663 160.0
216.429871 144.0
216.508926 104.0
216.561646 144.0
216.611618 260.0
216.68309 120.0
216.762589 196.0
216.815567 132.0
216.84584 156.0
216.888626 172.0
216.972046 160.0
217.008499 312.0
217.055283 292.0
217.098862 64448.0
217.164795 56.0
217.172028 156.0
217.183609 92.0
217.231583 172.0
217.278656 160.0
217.310562 92.0
217.317566 96.0
217.371704 108.0
217.419724 112.0
217.453094 84.0
217.479156 60.0
217.502838 36.0
217.553329 80.0
217.582077 336.0
217.654175 44.0
217.70462 44.0
217.749924 52.0
217.872849 76.0
217.948151 152.0
218.005066 52.0
218.031509 40.0
218.101395 9144.0
218.173645 124.0
218.201996 88.0
218.22551 260.0
218.407837 60.0
218.44313 84.0
218.475037 52.0
218.499023 72.0
218.522568 92.0
218.557877 112.0
218.607895 44.0
218.635956 60.0
218.696182 48.0
218.760941 36.0
218.794098 56.0
218.916992 92.0
219.076035 48.0
219.101166 620.0
219.132004 32.0
219.176208 56.0
219.220032 128.0
219.297028 124.0
219.329987 88.0
219.361877 40.0
219.416565 160.0
219.489594 140.0
219.516327 72.0
219.571213 72.0
219.660263 104.0
219.721298 132.0
219.74231 140.0
219.779144 72.0
219.827866 68.0
220.019714 48.0
220.106461 72.0
220.189178 100.0
220.244141 136.0
220.350494 56.0
220.492325 48.0
220.572128 104.0
220.638504 132.0
220.773163 132.0
220.873734 104.0
221.157776 52.0
221.187378 64.0
221.288681 156.0
221.73674 108.0
221.770874 128.0
221.815338 36.0
221.901306 60.0
222.005096 72.0
222.340317 244.0
222.634216 204.0
222.681732 44.0
222.85997 72.0
223.177994 160.0
223.222595 192.0
224.121521 132.0
224.774536 80.0
225.045685 700.0
225.437439 136.0
225.533081 160.0
226.020538 136.0
226.054291 328.0
226.625366 136.0
226.907089 68.0
226.940063 148.0
227.043182 336.0
227.52211 132.0
227.648209 52.0
227.705261 140.0
227.858459 96.0
228.613174 96.0
229.022614 44.0
229.338974 76.0
229.755112 248.0
229.815445 208.0
230.005569 72.0
230.210861 128.0
230.340744 176.0
230.630814 44.0
231.027664 116.0
231.393112 132.0
231.417343 48.0
231.54451 172.0
231.662643 96.0
231.7202 52.0
231.944458 32.0
232.032364 84.0
232.05661 124.0
232.20224 164.0
232.800018 120.0
232.821274 60.0
232.924545 148.0
233.100754 132.0
233.243591 88.0
233.422958 160.0
233.596313 52.0
233.641953 88.0
233.708878 80.0
233.76973 216.0
233.806259 132.0
233.900604 160.0
233.952347 80.0
233.999588 116.0
234.055862 216.0
234.086227 468.0
234.125458 37488.0
234.211182 80.0
234.243088 76.0
234.347031 128.0
234.379929 96.0
234.468124 132.0
234.491486 172.0
234.554535 104.0
234.58316 100.0
234.626999 88.0
234.64801 184.0
234.686584 172.0
234.750626 76.0
234.781113 120.0
234.839066 112.0
235.003784 164.0
235.111374 12960.0
235.18689 156.0
235.223511 216.0
235.260147 160.0
235.281265 48.0
235.300781 64.0
235.352783 128.0
235.398224 72.0
235.43248 72.0
235.470825 84.0
235.550247 80.0
235.580627 156.0
235.693832 108.0
235.730499 140.0
235.784805 140.0
235.805832 112.0
235.896301 128.0
235.938339 68.0
236.112854 2056.0
236.349792 120.0
236.430786 84.0
236.488937 84.0
236.534851 80.0
236.579056 152.0
236.639114 88.0
236.662933 100.0
236.685455 104.0
236.709351 56.0
236.854233 92.0
236.893112 48.0
236.932938 144.0
237.112595 312.0
237.141953 152.0
237.25473 208.0
237.294586 40.0
237.319107 60.0
237.352829 60.0
237.42337 76.0
237.582855 36.0
237.770035 92.0
237.88974 76.0
237.999298 140.0
238.120026 36.0
238.218765 136.0
238.384216 28.0
238.414948 76.0
238.510223 84.0
238.682388 72.0
238.86998 176.0
239.248489 32.0
239.522552 80.0
239.6427 164.0
240.540115 64.0
240.608032 64.0
240.669769 140.0
240.790207 128.0
241.083694 136.0
242.194366 268.0
242.891785 116.0
244.436874 192.0
244.740341 164.0
244.865448 180.0
245.095352 144.0
245.132599 336.0
245.320358 108.0
245.342178 52.0
245.473129 152.0
245.523026 124.0
245.753845 168.0
246.025375 120.0
246.067535 204.0
246.125504 21068.0
246.228333 36.0
246.256439 136.0
246.279175 72.0
246.311707 196.0
246.337646 108.0
246.416916 64.0
246.444611 84.0
246.459366 96.0
246.470581 80.0
246.509491 52.0
246.606369 32.0
246.647003 20.0
246.812683 140.0
246.919006 56.0
247.036942 148.0
247.127304 3728.0
247.181778 32.0
247.206818 52.0
247.310089 48.0
247.349335 52.0
247.625305 124.0
247.676437 88.0
247.70462 44.0
247.83934 100.0
247.964676 48.0
247.999161 140.0
248.133621 308.0
248.368454 128.0
248.442444 124.0
248.507172 60.0
248.583786 48.0
248.610718 92.0
248.673477 112.0
248.814743 140.0
248.877762 108.0
248.932159 84.0
248.9944 148.0
249.008011 152.0
249.103653 108.0
249.29216 52.0
249.361298 84.0
249.438766 80.0
250.106705 96.0
250.418411 44.0
250.575912 64.0
250.749222 156.0
252.011459 104.0
252.479279 72.0
252.621613 40.0
253.413071 52.0
254.028091 120.0
254.145477 88.0
254.627975 84.0
254.723267 116.0
255.260376 156.0
255.677094 124.0
256.591278 120.0
257.082458 140.0
257.449585 80.0
258.14624 92.0
258.286957 76.0
258.827789 48.0
259.532715 52.0
259.898346 80.0
260.004242 48.0
260.136597 532.0
260.389496 112.0
260.739685 48.0
260.887543 132.0
261.139557 268.0
262.900574 100.0
265.589111 176.0
265.673462 164.0
268.281555 76.0
270.067688 56.0
270.309784 40.0
270.977722 124.0
271.106842 108.0
273.578735 80.0
275.692932 76.0
276.834198 192.0
280.015686 164.0
285.507629 196.0
285.595062 112.0
285.7229 168.0
285.756531 84.0
286.507294 152.0
286.534241 148.0
287.043182 72.0
287.090393 220.0
287.360229 88.0
287.684235 132.0
287.77536 48.0
287.903687 188.0
288.04892 116.0
288.08609 152.0
288.136169 12024.0
288.206635 76.0
288.336121 124.0
288.376678 52.0
288.413849 56.0
288.555817 92.0
288.593689 80.0
288.633575 76.0
288.657257 100.0
288.680939 48.0
288.856812 92.0
288.968445 40.0
289.136597 2332.0
289.222229 36.0
289.748016 104.0
289.872467 64.0
290.055481 72.0
290.096161 80.0
290.138214 672.0
290.296204 60.0
290.343689 56.0
290.567535 72.0
290.655762 44.0
290.771149 132.0
290.8526 124.0
291.030884 212.0
291.121704 104.0
291.277039 104.0
293.322052 96.0
295.230591 52.0
298.055176 104.0
302.731934 72.0
302.843506 72.0
303.762024 60.0
307.450073 64.0
312.72464 156.0
316.017029 116.0
318.733002 124.0
322.667847 80.0
325.265015 136.0
337.214417 136.0
338.121429 100.0
338.890381 132.0
341.121704 88.0
343.279175 92.0
343.814087 56.0
345.906006 124.0
349.052094 20.0
352.470184 140.0
353.131866 140.0
356.934479 32.0
357.532593 76.0
359.20166 120.0
361.052368 52.0
363.594391 124.0
364.418396 136.0
375.631683 48.0
376.430573 32.0
389.100677 76.0
400.143005 124.0
402.175995 164.0
413.097626 44.0
413.312042 140.0
415.15564 336.0
415.185638 84.0
415.28894 52.0
416.159424 212.0
416.604095 56.0
417.380341 56.0
433.343109 76.0
442.459808 56.0
442.535187 120.0
443.548981 88.0
451.121704 148.0
459.351288 60.0
460.610504 112.0
468.809448 144.0
471.078888 156.0
472.111847 132.0
473.124329 64.0
478.424927 104.0
480.473145 88.0
486.191956 76.0
487.408325 72.0
494.756134 132.0
505.156006 88.0
518.243408 48.0
526.426392 60.0
529.128601 72.0
532.126953 64.0
533.238586 136.0
537.729004 120.0
541.571045 156.0
542.228943 96.0
543.935791 60.0
552.491455 48.0
556.287231 100.0
574.621033 112.0
579.593445 136.0
582.774536 64.0
591.774475 160.0
603.808228 36.0
624.055786 60.0
632.681763 36.0
633.923889 136.0
638.949829 68.0
660.136475 36.0
660.463806 76.0
660.719543 52.0
684.420288 48.0
687.323547 56.0
713.995178 48.0
721.994568 72.0
736.662415 100.0
740.508118 100.0
759.832031 200.0
781.879333 44.0
795.528503 52.0
810.33783 132.0
815.348206 204.0
850.214783 140.0
864.691101 80.0
904.478699 72.0
904.891724 72.0
909.015442 48.0
915.694275 64.0
916.856995 76.0
934.258606 216.0
939.467102 176.0
939.515869 64.0
943.540344 120.0
946.666931 128.0
950.393677 124.0
952.812683 80.0
963.056519 96.0
969.298584 192.0
973.212402 168.0
987.932861 192.0
1008.128052 60.0
1011.176208 52.0
1019.280579 152.0
1020.233887 208.0
1025.956909 132.0
1027.213135 48.0
1039.984497 136.0
1042.868408 140.0
1045.408569 228.0
1046.245361 176.0
1051.776123 152.0
1066.186523 220.0
1070.317139 56.0
1076.021973 56.0
1080.891235 184.0
1091.011108 196.0
1105.753174 132.0
1124.835327 132.0
1132.866333 44.0
1138.876343 144.0
1159.826538 64.0
1169.682251 64.0
1169.845581 92.0
1169.920532 180.0
1176.164429 164.0
1178.622925 176.0
1178.855225 152.0
1183.691406 140.0
1193.902222 208.0
1196.248291 180.0
1196.812866 36.0
1200.485474 140.0
1200.671631 156.0
1201.975464 72.0
1202.140991 176.0
1203.625122 100.0
1207.930664 112.0
1212.029053 156.0
1221.783569 200.0
1228.331665 48.0
1228.533936 208.0
1233.533691 152.0
1238.31958 68.0
1249.023071 228.0
1250.141602 68.0
1251.324097 136.0
1252.507202 196.0
1256.07373 148.0
1263.448608 176.0
1271.079102 168.0
1272.945923 184.0
1274.473022 152.0
1285.160034 68.0
1294.07251 148.0
1296.214111 44.0
1299.167969 144.0
1299.892578 156.0
1306.754395 172.0
1311.283569 72.0
1316.427246 244.0
1317.344482 108.0
1324.099854 192.0
1328.956543 260.0
1335.188965 200.0
1339.257324 156.0
1344.42627 128.0
1347.675537 92.0
1348.281982 164.0
1350.190063 84.0
1352.304443 148.0
1353.094971 188.0
1354.977051 152.0
1356.054199 140.0
1356.955811 60.0
1359.442261 156.0
1365.083862 212.0
1371.348633 148.0
1373.132812 128.0
1375.958862 240.0
1377.590942 224.0
1380.872681 80.0
1383.640015 164.0
1391.186646 76.0
1391.624634 76.0
1398.999512 140.0
1399.200439 52.0
1403.526245 52.0
1404.051147 152.0
1409.067017 232.0
1410.890503 184.0
1413.067505 200.0
1415.679077 216.0
1421.615967 168.0
1421.908691 140.0
1425.190186 280.0
1428.294922 172.0
1429.769531 104.0
1429.927612 196.0
1431.877441 172.0
1435.713379 144.0
1439.470947 180.0
1439.796021 180.0
1444.981201 72.0
1446.222168 160.0
1450.797363 124.0
1451.767822 152.0
1457.88623 180.0
1461.24707 56.0
1462.807129 56.0
1463.210571 136.0
1463.644531 108.0
1465.70105 104.0
1466.120117 140.0
1466.569824 180.0
1466.836548 212.0
1468.285156 208.0
1471.009033 176.0
1472.948486 152.0
1475.852539 128.0
1476.089478 44.0
1476.349487 164.0
1479.203247 260.0
1481.906494 176.0
1482.46582 156.0
1483.462158 72.0
1486.714233 128.0
1489.385864 136.0
1492.513672 176.0
1492.590454 148.0
1495.806274 172.0
1496.106445 252.0
1496.765381 136.0
1497.076538 184.0
1504.061523 136.0
