>compound BENIDIPINE HCl
>formula C28H31N3O6
>ionization [M+H]+
>parentmass 506.2285621640906
#inchi InChI=1S/C28H31N3O6/c1-18-24(27(32)36-3)26(21-11-7-12-22(15-21)31(34)35)25(19(2)29-18)28(33)37-23-13-8-14-30(17-23)16-20-9-5-4-6-10-20/h4-7,9-12,15,23,26,32H,8,13-14,16-17H2,1-3H3/b27-24+/t23-,26-/m1/s1
#inchikey IEQUDZMRAGKBCG
#Ion_Source LC-ESI
#Instrument qTof
#Compound_Source Commercial
#PI Dorrestein
#Data_Collector Garg_Neha
#Scan -1
#Precursor_MZ 506.229
#ExactMass 505.221
#Charge 1
#CAS_Number N/A
#Pubmed_ID N/A
#Smiles CO/C(=C\1/[C@H](C(=C(C)N=C1C)C(=O)O[C@@H]2CCCN(Cc3ccccc3)C2)c4cccc(c4)[N+](=O)[O-])/O
#INCHI_AUX N/A
#Library_Class 1
#SpectrumID CCMSLIB00000078914
#IonMode Positive
#UpdateWorkflowName UPDATE-SINGLE-ANNOTATED-GOLD
#LibraryQualityString Gold
#TaskID 278b19f5865741e282cec7349aa7e7a1
##Scan# 1263
#SpectrumFile NCP003272_A2_B11_BB8_01_15713.mzXML
#LibraryName NIHcollectionI_05062014.mgf
#MQScore -1
#Organism NIHcollectionI_05062014
#TIC_Query 0
#RT_Query -1
#MZErrorPPM -1
#SharedPeaks 0
#MassDiff 0
#LibMZ -1
#SpecMZ 506.229
#SpecCharge 0
#internalFilename spec-00000.mgf

>collision 10
44.94072 168.0
44.976974 156.0
45.081146 208.0
45.161366 160.0
45.800278 236.0
46.001194 236.0
46.42308 176.0
46.618816 196.0
46.641922 188.0
46.677269 164.0
46.728954 160.0
46.876514 152.0
47.138012 188.0
47.179016 160.0
47.313087 184.0
47.489857 256.0
47.830616 148.0
48.082848 192.0
48.297005 192.0
48.522728 172.0
48.789288 156.0
49.126301 140.0
49.172947 148.0
49.365135 148.0
49.530285 188.0
49.591938 176.0
49.757465 148.0
49.823475 164.0
50.19223 148.0
50.26276 156.0
51.031883 176.0
51.08308 188.0
51.577709 132.0
51.607914 192.0
51.728088 144.0
52.054859 144.0
52.09663 172.0
52.267723 172.0
52.449184 208.0
52.845848 188.0
52.993683 160.0
53.015743 192.0
53.062126 144.0
53.339405 188.0
53.72855 180.0
54.238285 120.0
54.262035 176.0
54.304562 140.0
54.564213 200.0
54.82354 108.0
54.845646 144.0
55.346062 140.0
55.987972 144.0
56.160858 144.0
56.241432 168.0
56.46106 140.0
56.777508 224.0
56.813057 188.0
56.877583 172.0
57.182701 188.0
57.396618 184.0
57.476566 204.0
57.58979 156.0
57.863499 160.0
58.053204 180.0
58.081718 144.0
58.260841 164.0
58.622967 176.0
58.662594 148.0
58.914394 152.0
58.967873 164.0
59.013733 236.0
59.427277 180.0
59.531654 160.0
59.805317 160.0
60.676563 140.0
60.69207 144.0
60.723885 132.0
60.774277 176.0
60.870514 148.0
60.886044 168.0
60.937305 140.0
61.377789 200.0
61.499474 152.0
61.58691 164.0
61.708801 172.0
62.092449 192.0
62.147224 156.0
62.308361 180.0
62.58746 180.0
62.738712 152.0
62.759205 200.0
62.983303 192.0
62.994358 180.0
63.558853 124.0
63.675457 160.0
63.720589 108.0
63.848007 168.0
64.079498 144.0
64.205429 152.0
64.511993 160.0
64.915466 264.0
65.143814 148.0
65.178726 200.0
65.771385 148.0
65.924812 152.0
66.135063 140.0
66.156364 176.0
66.203064 160.0
66.280045 176.0
66.590668 168.0
66.626404 156.0
67.130981 140.0
67.215805 164.0
67.379654 204.0
67.563812 236.0
67.689842 208.0
67.978355 188.0
68.392509 204.0
68.773262 232.0
69.153412 176.0
69.272629 152.0
69.590805 192.0
69.676582 104.0
70.076714 152.0
70.356247 184.0
70.617577 140.0
70.637642 144.0
70.794502 192.0
70.997749 140.0
71.032974 148.0
71.303299 160.0
71.414307 148.0
71.437813 172.0
71.702164 152.0
72.105522 180.0
72.606651 220.0
72.902046 292.0
73.092499 236.0
73.257645 164.0
73.312172 200.0
73.368996 188.0
73.605446 108.0
73.796944 184.0
73.962883 144.0
74.040695 144.0
74.141006 144.0
74.231865 156.0
74.514977 132.0
74.629318 132.0
74.987129 212.0
75.794746 164.0
75.93576 144.0
76.100616 164.0
76.138817 144.0
76.210037 152.0
76.239578 156.0
76.319542 148.0
76.596252 184.0
76.622383 160.0
76.639801 172.0
76.683372 168.0
76.812126 128.0
76.836823 164.0
77.249107 176.0
77.459541 168.0
77.566055 168.0
78.071709 180.0
78.1931 204.0
78.457314 152.0
78.850945 172.0
78.905182 152.0
79.311119 188.0
80.189156 152.0
80.240845 180.0
80.308609 164.0
80.488853 164.0
80.749763 284.0
80.951996 152.0
80.989601 156.0
81.504478 204.0
81.517059 196.0
81.725746 136.0
81.972328 248.0
81.991699 128.0
82.185104 144.0
82.298813 180.0
82.356598 216.0
82.489594 100.0
82.54998 144.0
82.63443 232.0
82.94104 168.0
83.107887 164.0
83.271263 156.0
83.975616 188.0
84.114288 168.0
84.531876 164.0
84.708588 160.0
84.769043 168.0
84.813034 160.0
85.209412 160.0
85.233292 148.0
85.866562 152.0
85.920052 168.0
86.115723 172.0
86.128654 160.0
86.532906 152.0
86.635506 192.0
86.767715 124.0
86.82827 180.0
86.929359 108.0
86.998978 176.0
87.253494 152.0
87.312996 184.0
87.527 164.0
87.599632 156.0
87.61454 184.0
87.836372 192.0
87.859383 144.0
88.026741 140.0
88.402473 156.0
88.56723 156.0
88.683395 168.0
88.702141 216.0
88.737762 180.0
88.803398 196.0
89.037994 180.0
89.660713 176.0
89.753082 168.0
90.185204 156.0
90.435158 160.0
90.91613 140.0
91.026047 224.0
91.054726 21672.0
91.095291 188.0
91.189934 144.0
91.316055 128.0
91.332893 120.0
91.717163 152.0
92.057472 2880.0
92.142334 120.0
92.483879 128.0
92.59639 164.0
92.640114 144.0
92.695679 228.0
93.004448 188.0
93.329109 172.0
94.267845 168.0
94.731537 164.0
95.071503 180.0
95.219048 156.0
95.286491 184.0
95.358932 224.0
95.382889 248.0
95.434753 172.0
95.487251 144.0
95.654587 168.0
95.948746 176.0
95.977989 176.0
96.0802 236.0
96.184296 208.0
96.698837 156.0
96.732117 148.0
97.336967 220.0
97.577637 180.0
97.691704 140.0
98.300507 168.0
98.371559 140.0
98.824936 236.0
98.974564 196.0
99.024071 168.0
99.098083 132.0
99.182579 184.0
99.323357 164.0
99.386841 156.0
99.428513 184.0
99.546387 160.0
99.729904 128.0
100.076065 484.0
100.233902 176.0
100.303658 144.0
100.321594 164.0
100.363464 148.0
100.423294 148.0
100.582916 156.0
100.624405 184.0
100.663536 116.0
100.762642 148.0
101.079514 144.0
101.138283 208.0
101.45108 140.0
101.493187 172.0
101.876518 192.0
101.891335 140.0
101.946846 168.0
102.005135 140.0
102.02523 156.0
102.198196 168.0
102.471733 120.0
102.820869 200.0
103.443405 160.0
103.637825 140.0
104.035339 164.0
104.054962 204.0
105.071472 148.0
105.154709 160.0
105.332497 152.0
105.465317 140.0
105.6782 180.0
105.788506 140.0
106.026108 144.0
106.07061 140.0
106.149101 160.0
106.278328 196.0
106.353172 204.0
106.399422 172.0
106.615097 144.0
106.639755 332.0
106.697311 196.0
107.110939 160.0
107.195412 140.0
107.211899 140.0
107.416466 128.0
107.53775 216.0
107.707062 180.0
107.955078 200.0
108.182671 144.0
108.327629 192.0
108.517853 152.0
109.125893 200.0
109.430389 168.0
109.502609 200.0
109.786705 260.0
109.801308 172.0
109.822159 160.0
110.300316 256.0
110.823509 160.0
111.072983 176.0
111.091858 168.0
111.20517 240.0
111.448769 172.0
111.471886 188.0
111.91571 168.0
111.955719 152.0
112.042076 144.0
112.056824 152.0
112.231194 104.0
112.409531 160.0
112.465927 148.0
113.396561 224.0
113.97377 180.0
114.335281 140.0
114.507729 140.0
114.590805 140.0
115.058334 164.0
115.333435 176.0
115.403976 192.0
115.480965 172.0
116.06131 196.0
116.078461 168.0
116.788788 112.0
116.955002 164.0
116.989441 148.0
117.085297 224.0
117.377258 184.0
117.405289 192.0
117.603775 160.0
117.638313 192.0
117.713882 144.0
117.939941 132.0
118.068283 204.0
118.14238 188.0
118.342216 156.0
118.470879 196.0
118.635574 160.0
118.67894 196.0
118.836304 224.0
118.960976 168.0
119.134705 144.0
119.221611 176.0
119.671532 124.0
119.74157 144.0
120.080719 516.0
120.222389 152.0
120.301941 160.0
120.415489 152.0
120.514717 140.0
120.719261 156.0
120.844025 96.0
121.082596 156.0
121.549469 188.0
121.580193 168.0
122.457397 156.0
122.763031 144.0
123.006706 160.0
123.379761 148.0
123.839272 164.0
124.769798 184.0
124.963287 144.0
124.996658 168.0
125.439865 164.0
125.522354 184.0
126.053627 148.0
126.258514 196.0
126.469597 148.0
126.917648 184.0
126.964737 164.0
127.043762 156.0
127.413658 152.0
127.645889 136.0
127.731064 184.0
128.020966 160.0
128.063812 152.0
128.36348 152.0
128.488693 156.0
128.652283 160.0
128.708725 140.0
128.735825 152.0
128.79454 208.0
128.821655 160.0
128.87587 140.0
128.914719 200.0
129.013733 140.0
129.06871 568.0
129.196915 152.0
129.590851 148.0
130.076584 368.0
130.268433 124.0
130.291901 176.0
130.446426 144.0
130.516907 168.0
130.875153 152.0
131.085739 1264.0
131.154343 208.0
131.923599 204.0
132.047073 212.0
132.100449 192.0
132.459076 192.0
132.585083 192.0
132.775375 196.0
133.22525 184.0
133.35817 156.0
133.429794 160.0
133.512558 152.0
133.809402 208.0
134.341751 160.0
134.494049 196.0
134.54483 148.0
135.173508 148.0
135.278656 152.0
135.317017 140.0
135.724228 128.0
135.942032 148.0
135.970688 160.0
136.077469 164.0
136.412399 120.0
136.463928 108.0
136.626511 148.0
137.019394 144.0
137.134415 228.0
137.516083 176.0
137.537079 140.0
137.684174 148.0
137.827042 128.0
137.861725 164.0
137.913132 152.0
138.018341 200.0
138.336517 140.0
138.43251 172.0
138.782822 144.0
139.643478 224.0
139.779053 152.0
139.84346 152.0
139.911728 232.0
139.965881 184.0
140.070602 120.0
140.407471 148.0
140.441925 176.0
140.880981 168.0
141.066925 292.0
141.508881 120.0
141.647415 160.0
141.818024 156.0
142.038528 152.0
142.090912 152.0
142.237854 156.0
142.356567 212.0
142.812866 168.0
143.081757 152.0
143.434326 200.0
143.610779 144.0
143.765854 140.0
144.041946 188.0
144.0858 180.0
144.179596 220.0
144.336761 192.0
144.357117 204.0
144.774673 168.0
144.81778 184.0
145.062195 148.0
145.101151 576.0
145.438782 144.0
146.09964 232.0
146.139206 164.0
146.181412 116.0
146.255051 108.0
146.472855 152.0
146.738174 136.0
146.793259 144.0
146.870438 192.0
147.370163 172.0
147.578018 200.0
148.023239 144.0
148.065262 136.0
148.08075 192.0
148.180679 192.0
149.241318 144.0
149.406693 180.0
149.43103 148.0
149.691467 196.0
149.767975 116.0
150.239868 184.0
150.581604 152.0
150.702103 244.0
151.061142 104.0
151.148743 172.0
151.288254 160.0
151.415573 204.0
151.435165 152.0
151.528259 176.0
151.645874 184.0
151.687546 188.0
151.734131 148.0
152.080002 164.0
152.378494 204.0
152.448395 140.0
152.785248 140.0
153.064728 240.0
153.154495 156.0
153.250565 180.0
153.389297 216.0
153.453812 172.0
153.741272 144.0
154.064072 184.0
154.202591 136.0
154.255005 284.0
154.433029 144.0
154.799301 188.0
154.980118 176.0
155.057877 212.0
155.100204 212.0
155.310822 132.0
155.640915 148.0
155.764084 144.0
155.990204 192.0
156.405609 164.0
157.029556 152.0
157.104858 520.0
157.385361 240.0
157.62764 172.0
157.698563 96.0
157.765106 212.0
158.09726 308.0
158.140945 120.0
158.288025 140.0
158.389603 164.0
158.495926 204.0
159.062454 116.0
159.446991 152.0
159.733627 172.0
160.075912 200.0
160.147644 116.0
160.240173 176.0
160.542114 168.0
160.720856 124.0
160.815796 124.0
161.302063 148.0
161.845993 152.0
161.883972 208.0
161.975159 200.0
163.067184 160.0
163.192001 132.0
163.394211 176.0
163.595261 144.0
163.811707 144.0
163.962036 144.0
164.07164 176.0
164.250153 152.0
164.398132 200.0
164.448944 188.0
164.678955 140.0
164.696838 160.0
164.942139 160.0
165.029053 164.0
165.063568 208.0
165.297623 152.0
165.581787 152.0
165.607391 144.0
165.656067 176.0
166.073044 172.0
166.082901 116.0
166.484512 164.0
166.520462 144.0
166.697723 160.0
167.055008 116.0
167.284134 180.0
167.750381 152.0
167.872192 164.0
167.897354 144.0
168.052368 252.0
168.083084 320.0
168.208054 160.0
168.41156 136.0
168.713287 184.0
168.803772 180.0
168.938263 172.0
169.084839 124.0
169.220352 176.0
169.296707 124.0
169.51564 296.0
169.54155 148.0
169.559692 148.0
169.75412 144.0
169.780197 156.0
169.847763 188.0
170.067749 196.0
170.094437 152.0
170.117355 176.0
170.455643 128.0
170.786484 200.0
170.982895 240.0
171.067917 180.0
171.104645 440.0
171.272049 136.0
171.295349 148.0
171.378708 172.0
171.409973 168.0
171.740128 184.0
172.04747 200.0
172.080185 160.0
172.115906 272.0
172.189987 144.0
173.050293 156.0
173.081284 176.0
173.11908 252.0
173.156494 108.0
173.259811 172.0
173.347336 136.0
173.389908 148.0
173.436829 116.0
173.498093 200.0
173.524521 232.0
173.557388 156.0
173.618652 148.0
173.644012 232.0
173.699005 264.0
173.791428 196.0
173.819778 196.0
173.851715 156.0
173.928101 180.0
173.977798 104.0
174.017349 164.0
174.052765 460.0
174.101349 352.0
174.129089 288476.0
174.212723 276.0
174.251923 96.0
174.293411 120.0
174.308746 168.0
174.358185 168.0
174.402725 264.0
174.442871 128.0
174.49025 172.0
174.511139 172.0
174.532074 252.0
174.559814 1460.0
174.595596 152.0
174.647797 220.0
174.667557 176.0
174.827881 188.0
174.860672 100.0
174.894073 96.0
174.913971 192.0
174.947983 280.0
175.000412 172.0
175.082306 232.0
175.131561 37068.0
175.196091 188.0
175.374512 104.0
175.402542 124.0
175.49025 124.0
175.528625 120.0
175.562897 192.0
175.647339 264.0
175.754028 156.0
175.887741 120.0
175.921478 252.0
176.032318 336.0
176.133774 2156.0
176.188538 216.0
176.218887 168.0
176.246124 236.0
176.297455 168.0
176.345535 116.0
176.372452 224.0
176.433945 120.0
176.467438 196.0
176.491714 96.0
176.500687 116.0
176.523132 300.0
176.627426 248.0
176.722687 116.0
176.817215 164.0
177.051208 188.0
177.145721 248.0
177.198532 172.0
177.564575 112.0
177.596664 124.0
177.66214 96.0
177.936844 272.0
178.517715 152.0
178.969162 176.0
179.083252 308.0
179.476334 180.0
179.663025 140.0
180.081482 496.0
180.627548 128.0
180.689667 112.0
181.006256 136.0
181.089447 832.0
181.241623 200.0
181.685501 168.0
181.846619 100.0
182.094742 428.0
182.528183 128.0
182.93512 144.0
182.980881 216.0
183.103439 352.0
183.223267 156.0
183.297409 100.0
183.534714 144.0
183.778656 168.0
183.901123 116.0
184.073288 272.0
184.110596 132.0
184.640381 140.0
184.782181 104.0
184.864914 140.0
185.080917 100.0
185.336075 148.0
186.105698 160.0
186.314148 112.0
186.512558 140.0
186.823593 116.0
187.0905 152.0
187.166809 192.0
187.229431 140.0
187.703598 156.0
187.752686 236.0
188.04187 152.0
188.11557 220.0
188.168808 148.0
188.22287 132.0
188.831451 220.0
189.07106 160.0
189.241928 196.0
189.30217 204.0
189.773453 140.0
190.041809 124.0
190.086151 144.0
190.132797 156.0
190.242599 144.0
190.363983 132.0
190.447189 100.0
190.494156 164.0
191.078049 188.0
191.218384 208.0
191.300919 140.0
191.34906 156.0
191.376556 192.0
191.465347 96.0
191.510223 288.0
191.636948 152.0
191.664551 140.0
191.760941 160.0
191.810974 132.0
191.887756 140.0
191.990585 108.0
192.035202 144.0
192.067001 328.0
192.096817 152.0
192.139343 97676.0
192.20816 120.0
192.304794 140.0
192.340881 176.0
192.439484 100.0
192.491821 132.0
192.56105 132.0
192.593399 148.0
192.645386 236.0
192.667969 144.0
192.927979 136.0
192.970993 148.0
193.083725 284.0
193.106857 124.0
193.142197 9924.0
193.303909 112.0
193.371613 132.0
193.579468 108.0
193.699463 144.0
194.055344 228.0
194.074753 264.0
194.111603 116.0
194.144073 700.0
194.292435 180.0
194.340515 176.0
194.376984 112.0
194.402618 176.0
194.595871 136.0
194.620514 120.0
195.020416 208.0
195.088577 308.0
195.117249 148.0
195.271622 140.0
195.910049 140.0
196.075592 700.0
196.11113 128.0
196.43869 208.0
196.522385 144.0
197.08136 272.0
197.119095 284.0
197.206558 156.0
198.061111 144.0
198.09079 528.0
198.522369 164.0
198.735565 164.0
198.839386 212.0
199.068924 168.0
199.095383 176.0
199.778488 108.0
199.974838 156.0
200.037857 416.0
200.066193 264.0
200.566666 160.0
200.605789 184.0
200.659348 140.0
200.797516 156.0
200.882141 172.0
201.065369 352.0
201.15686 168.0
201.25705 180.0
201.498032 120.0
201.667114 140.0
201.768875 184.0
202.082169 232.0
202.197739 136.0
203.099472 140.0
203.318268 124.0
203.397736 176.0
203.542526 152.0
203.835098 188.0
204.665909 144.0
205.024597 176.0
205.075897 200.0
205.121506 220.0
205.204178 152.0
205.246948 144.0
205.333084 136.0
205.920425 144.0
205.954697 156.0
206.151825 176.0
206.175781 144.0
206.564789 128.0
206.592148 148.0
206.686554 144.0
207.067459 452.0
207.431366 120.0
207.613922 196.0
208.077988 720.0
208.314636 96.0
208.614517 104.0
208.636856 172.0
208.915817 220.0
209.04689 212.0
209.084869 2344.0
209.161682 144.0
209.317551 156.0
209.574326 192.0
209.620422 148.0
209.667313 152.0
209.88063 148.0
209.984451 184.0
210.091217 5996.0
210.137329 148.0
210.445892 132.0
210.702164 112.0
211.022156 136.0
211.061584 168.0
211.099976 2064.0
211.339264 180.0
212.068817 308.0
212.103714 476.0
212.167587 144.0
212.225571 144.0
213.019653 124.0
213.044006 152.0
213.072144 320.0
213.099197 184.0
213.496155 104.0
213.570587 256.0
213.785431 160.0
213.806961 140.0
213.852356 164.0
214.052765 276.0
214.088806 564.0
214.866425 144.0
215.062302 192.0
215.097656 188.0
215.132004 176.0
215.689926 332.0
215.73378 164.0
216.096527 228.0
216.225174 156.0
216.251511 144.0
216.676117 188.0
216.907623 164.0
217.038101 252.0
217.06189 1276.0
217.329926 148.0
217.480042 132.0
217.638123 204.0
218.064285 284.0
218.480804 160.0
219.055664 232.0
219.120468 152.0
219.984543 140.0
220.03421 180.0
220.108551 148.0
221.070816 560.0
221.437439 184.0
221.708908 164.0
222.082031 96.0
222.269363 152.0
222.355423 168.0
222.527603 264.0
222.554321 164.0
222.604797 140.0
222.8246 164.0
222.857269 212.0
222.906967 160.0
222.964691 144.0
223.239105 140.0
223.267487 156.0
223.838852 176.0
224.020523 140.0
224.069077 304.0
224.348328 160.0
224.706192 200.0
225.08078 636.0
225.107559 360.0
225.375305 192.0
225.942154 240.0
226.087082 14620.0
226.239151 128.0
226.353104 188.0
226.4729 188.0
226.736557 156.0
226.973373 168.0
227.086166 2828.0
227.330902 168.0
227.387344 136.0
227.723618 264.0
228.091583 436.0
228.264557 148.0
228.463058 144.0
228.795044 104.0
229.111542 996.0
229.285065 216.0
229.395615 112.0
229.622726 220.0
230.041016 184.0
230.079987 112.0
230.115997 164.0
230.582809 244.0
230.826675 228.0
230.924438 140.0
231.054367 164.0
231.089722 544.0
231.220932 180.0
231.431808 132.0
231.594086 176.0
231.775101 188.0
232.063477 100.0
232.098572 444.0
232.238632 204.0
232.372406 196.0
232.627335 156.0
232.955292 196.0
233.113281 140.0
233.272614 104.0
233.9758 108.0
234.079208 164.0
234.664352 172.0
235.063629 448.0
235.281906 172.0
235.501892 100.0
235.751114 104.0
236.069229 1768.0
236.192551 160.0
236.519958 144.0
236.581177 192.0
236.669968 176.0
236.751801 160.0
236.884064 196.0
236.931534 128.0
237.025696 144.0
237.072906 1000.0
237.402313 148.0
237.471283 152.0
237.506592 204.0
237.563644 96.0
237.77092 160.0
237.819565 196.0
238.074081 1476.0
238.163437 148.0
238.781219 168.0
239.030396 152.0
239.083313 1616.0
239.815704 164.0
239.994156 208.0
240.099884 1044.0
240.216553 164.0
240.391174 96.0
240.821548 152.0
241.067657 740.0
241.107346 732.0
241.455124 184.0
241.504608 176.0
241.600494 148.0
241.916153 136.0
242.042664 296.0
242.079605 1728.0
242.109421 292.0
242.318756 140.0
242.917068 156.0
243.013245 128.0
243.05661 180.0
243.088531 1848.0
243.856079 144.0
244.052338 248.0
244.19368 156.0
244.321213 144.0
245.059433 224.0
245.419693 228.0
245.637207 124.0
245.804276 156.0
246.231964 144.0
246.675644 188.0
246.77774 140.0
247.082184 172.0
247.345047 188.0
247.382599 184.0
247.444855 172.0
248.052963 152.0
248.088837 172.0
248.352859 212.0
248.388824 220.0
249.08754 1172.0
249.380692 108.0
249.707672 144.0
250.085892 244.0
250.229065 144.0
250.374878 176.0
250.432739 140.0
250.491409 196.0
251.050797 120.0
251.082489 196.0
251.163376 136.0
251.453094 164.0
251.94252 156.0
252.014145 256.0
252.064255 120.0
252.096359 244.0
252.544998 160.0
253.070984 632.0
253.448502 144.0
253.518219 148.0
253.642563 136.0
253.726013 100.0
254.012817 140.0
254.040039 144.0
254.082062 9296.0
254.220032 128.0
254.397614 152.0
254.462265 104.0
254.682571 144.0
254.873169 204.0
255.003067 156.0
255.080261 4116.0
255.450806 140.0
255.741364 216.0
256.092041 1664.0
256.337921 172.0
256.421478 168.0
256.457367 112.0
256.735382 156.0
257.098724 1900.0
257.179291 112.0
257.226715 160.0
257.332947 176.0
257.452454 160.0
257.485352 176.0
257.766449 148.0
258.060272 156.0
258.086761 228.0
258.097687 476.0
258.285889 144.0
258.393158 216.0
259.067383 144.0
259.189484 112.0
259.57251 148.0
259.626343 148.0
260.02417 188.0
260.101196 152.0
260.62146 172.0
260.817474 184.0
261.269501 132.0
261.360992 168.0
261.521881 148.0
261.563721 136.0
261.621674 148.0
262.73349 184.0
262.985168 176.0
263.07132 168.0
263.312042 128.0
263.621399 152.0
263.892242 152.0
264.313416 200.0
264.358704 164.0
264.549652 160.0
264.61441 156.0
264.773071 204.0
264.798981 192.0
264.863495 192.0
264.93631 124.0
265.059265 228.0
265.304474 156.0
265.534698 156.0
266.070679 576.0
266.303131 192.0
266.446808 152.0
266.726288 184.0
266.749023 176.0
267.051666 296.0
267.088745 4632.0
267.141296 128.0
267.175049 148.0
268.031311 156.0
268.097412 17192.0
268.144165 168.0
268.395294 96.0
268.459198 108.0
268.57901 156.0
268.609619 180.0
268.756378 132.0
268.868317 144.0
268.98172 296.0
269.013458 116.0
269.105042 37864.0
269.239044 140.0
269.492401 216.0
269.676086 144.0
269.779968 128.0
270.011139 332.0
270.07193 1348.0
270.106323 7480.0
270.377838 112.0
270.537537 144.0
270.590332 112.0
271.004578 112.0
271.108154 1188.0
271.353546 152.0
271.682343 116.0
271.901276 164.0
272.021729 108.0
272.050903 224.0
272.081329 356.0
272.172363 144.0
272.211517 144.0
272.694702 144.0
273.096191 256.0
273.337006 140.0
273.445892 188.0
273.57077 116.0
273.764862 180.0
274.830933 244.0
274.872528 116.0
275.095917 152.0
275.426147 144.0
275.716888 240.0
275.862305 180.0
276.103699 192.0
276.159912 180.0
276.199615 160.0
276.531372 104.0
276.919769 296.0
277.53421 312.0
277.557434 140.0
277.59198 152.0
278.909576 152.0
278.935211 148.0
279.187897 188.0
279.302002 160.0
279.342621 176.0
279.492126 140.0
279.570465 148.0
279.656982 160.0
280.091736 380.0
280.253082 160.0
280.393036 144.0
280.469696 176.0
280.879822 156.0
281.091431 588.0
281.188416 188.0
281.587433 160.0
281.725525 104.0
281.824585 148.0
281.998352 152.0
282.105682 116.0
282.18042 112.0
282.476501 232.0
282.636719 144.0
282.781006 148.0
282.854401 116.0
282.954529 196.0
283.02536 160.0
283.07196 21876.0
283.241638 160.0
283.439301 172.0
283.559479 128.0
283.787964 160.0
283.909058 152.0
284.011627 148.0
284.076447 4236.0
284.707275 112.0
284.781067 96.0
284.836823 144.0
285.069458 1044.0
285.097351 1236.0
285.18161 144.0
285.218689 200.0
285.475311 104.0
285.844055 136.0
285.873169 196.0
286.062683 272.0
286.104004 184.0
286.973267 104.0
287.102936 1812.0
287.297089 156.0
287.548492 128.0
288.106537 324.0
288.208679 140.0
288.360779 332.0
289.656342 96.0
289.731171 344.0
290.421661 148.0
291.08786 192.0
291.162567 152.0
291.227081 208.0
291.650818 124.0
291.695892 132.0
292.00882 140.0
292.191345 156.0
292.270752 168.0
292.58902 108.0
292.910767 164.0
293.745911 140.0
293.780029 156.0
293.861908 188.0
295.105804 100.0
295.74826 172.0
296.187866 140.0
296.657867 132.0
297.087219 904.0
297.239044 200.0
297.764252 140.0
297.942871 192.0
298.045959 356.0
298.095398 22392.0
298.862823 108.0
299.082764 6768.0
299.21521 108.0
299.288727 208.0
299.780243 292.0
299.832611 124.0
299.889465 164.0
300.081329 1500.0
300.195801 116.0
300.388458 144.0
300.581116 120.0
300.711365 176.0
300.954132 160.0
300.980133 216.0
301.094482 16628.0
301.377869 164.0
301.520844 96.0
301.8125 204.0
301.937042 100.0
302.035187 116.0
302.096558 2508.0
302.278839 140.0
302.658356 96.0
303.065643 144.0
303.093262 228.0
303.328033 112.0
303.360931 152.0
303.723663 152.0
303.770203 168.0
303.815216 148.0
303.889648 96.0
304.075684 120.0
304.111786 248.0
304.231659 148.0
304.311493 148.0
304.838196 112.0
305.110565 148.0
305.20578 128.0
305.341187 324.0
305.9664 160.0
306.175323 148.0
306.976837 148.0
307.580414 172.0
307.845734 144.0
308.652954 272.0
308.979004 124.0
309.485718 176.0
309.727356 144.0
310.158325 144.0
310.329071 164.0
310.473877 144.0
310.510223 228.0
310.593323 140.0
310.705383 304.0
310.94046 156.0
311.008606 116.0
311.302063 176.0
311.567993 140.0
312.035675 148.0
312.586609 132.0
312.813873 148.0
312.948425 132.0
313.082886 1704.0
313.131317 156.0
313.184875 112.0
313.254791 348.0
313.504211 152.0
313.709351 120.0
313.830872 208.0
313.933502 160.0
313.992371 232.0
314.086121 768.0
314.15799 140.0
314.231964 108.0
314.334564 164.0
314.435242 148.0
314.482361 208.0
314.511475 116.0
314.624268 256.0
314.691742 172.0
314.77182 220.0
314.844543 100.0
314.878906 96.0
314.915222 332.0
314.967194 140.0
314.989349 304.0
315.019135 304.0
315.053009 568.0
315.099396 312672.0
315.211121 268.0
315.224884 152.0
315.232483 148.0
315.278015 172.0
315.328766 96.0
315.366089 204.0
315.414978 220.0
315.462372 140.0
315.519989 100.0
315.641479 280.0
315.68045 1580.0
315.7341 236.0
315.766449 212.0
315.797241 248.0
315.857147 128.0
315.954895 208.0
316.014404 140.0
316.101379 60044.0
316.21817 240.0
316.261719 236.0
316.301147 248.0
316.329315 116.0
316.377563 204.0
316.464722 180.0
316.509003 196.0
316.543762 112.0
316.574188 212.0
316.651611 96.0
316.812073 156.0
316.859253 232.0
316.891937 236.0
316.927521 220.0
317.029205 124.0
317.103088 6272.0
317.404816 188.0
317.447601 204.0
317.535492 136.0
317.687683 204.0
317.721466 124.0
317.774536 156.0
317.811157 148.0
317.84668 264.0
317.878662 140.0
317.905792 228.0
317.931824 436.0
317.959229 256.0
318.000153 316.0
318.03656 280.0
318.103973 864.0
318.155914 232.0
318.185699 120.0
318.220886 156.0
318.253387 212.0
318.29718 288.0
318.408508 232.0
318.44455 188.0
318.529877 136.0
318.598694 104.0
318.659729 184.0
318.851593 140.0
319.024902 276.0
319.063965 188.0
319.291107 116.0
319.350464 116.0
319.381805 216.0
319.518738 128.0
319.561615 132.0
320.302124 136.0
320.592896 120.0
320.750702 112.0
320.809265 192.0
320.938477 116.0
322.349121 148.0
322.55127 160.0
322.787231 208.0
322.930267 148.0
323.35144 128.0
323.402557 336.0
323.692535 148.0
324.224762 96.0
324.316376 212.0
324.616791 264.0
324.668091 136.0
324.80957 112.0
325.443176 136.0
325.60907 120.0
325.661377 140.0
326.147614 136.0
326.618927 120.0
326.653503 244.0
327.713165 100.0
328.150665 144.0
328.460266 100.0
328.855011 152.0
329.165955 120.0
329.418304 148.0
331.038605 140.0
331.091217 3408.0
331.527649 196.0
331.966309 208.0
332.052032 100.0
332.097443 832.0
333.097595 124.0
333.422028 216.0
333.911407 116.0
334.115387 128.0
334.243866 156.0
335.190613 148.0
335.412933 192.0
336.616882 140.0
336.693909 124.0
337.356628 120.0
338.556213 108.0
339.295135 144.0
339.649017 120.0
340.693359 164.0
341.352753 168.0
341.777954 172.0
342.157043 140.0
342.279816 188.0
342.882812 116.0
343.210785 248.0
344.762634 120.0
345.345276 196.0
345.693359 148.0
346.181702 188.0
346.370575 172.0
347.262054 148.0
347.560608 144.0
349.068695 200.0
349.45108 100.0
349.678802 144.0
349.768127 172.0
349.90036 132.0
350.127136 132.0
350.26709 144.0
350.703064 140.0
350.808289 156.0
351.207397 164.0
351.723755 160.0
353.778992 120.0
353.93399 176.0
354.054352 160.0
354.133514 112.0
354.307831 112.0
354.444702 172.0
354.542664 136.0
355.700287 148.0
355.832886 124.0
355.904236 160.0
355.967957 176.0
356.124603 180.0
356.24292 168.0
356.489014 176.0
358.234772 200.0
358.29129 148.0
358.409607 112.0
359.403503 164.0
359.735626 144.0
359.803589 152.0
359.907013 172.0
360.169861 168.0
362.140472 140.0
362.16803 188.0
362.570343 108.0
362.697449 220.0
363.606171 176.0
363.641327 132.0
364.48114 144.0
364.587555 140.0
365.283325 140.0
366.242554 164.0
366.493988 148.0
366.689697 136.0
366.763245 128.0
366.936096 168.0
367.228912 100.0
367.432617 132.0
367.812012 124.0
367.948608 152.0
367.995697 148.0
368.126556 144.0
369.020813 104.0
369.208038 144.0
369.471954 164.0
369.559967 148.0
369.698151 104.0
369.996277 160.0
370.268127 208.0
370.67038 140.0
371.721375 136.0
371.828491 140.0
372.250763 192.0
372.377502 148.0
372.75708 184.0
373.114471 152.0
373.637115 104.0
375.692322 256.0
376.476746 128.0
376.619995 164.0
376.754608 128.0
376.797089 164.0
377.031494 216.0
377.146271 172.0
377.473114 116.0
378.174957 140.0
378.590546 176.0
378.729401 140.0
378.904266 104.0
379.140625 140.0
379.466248 160.0
379.610077 120.0
379.760956 160.0
380.013092 144.0
380.478821 148.0
382.146912 140.0
382.994781 140.0
383.177856 148.0
383.290863 152.0
383.489594 164.0
383.813171 168.0
385.417419 140.0
385.827789 184.0
385.988007 172.0
386.066315 148.0
386.949249 152.0
387.040649 140.0
387.183624 108.0
387.734772 128.0
387.981903 100.0
388.102509 176.0
388.292725 116.0
389.593903 152.0
390.309204 216.0
390.681641 120.0
391.261719 124.0
391.588806 156.0
391.645477 160.0
392.104279 156.0
392.640442 192.0
393.169098 196.0
393.261139 136.0
393.459198 232.0
393.693787 132.0
394.50412 140.0
394.808563 180.0
394.889557 144.0
395.105225 168.0
395.313995 136.0
396.007751 140.0
396.491089 160.0
396.518829 180.0
397.075348 128.0
397.162292 112.0
397.29599 140.0
399.103088 168.0
399.812531 136.0
400.941284 164.0
401.707703 176.0
402.028046 192.0
402.252533 148.0
402.410065 140.0
403.380829 164.0
403.436798 152.0
403.592743 168.0
404.066589 152.0
404.13269 156.0
404.198059 120.0
404.827271 100.0
404.977356 148.0
405.680511 284.0
406.115662 152.0
406.575378 148.0
407.343903 220.0
407.409424 116.0
407.765808 156.0
407.908997 160.0
407.994934 168.0
408.316589 168.0
408.439667 160.0
409.123596 128.0
409.913818 112.0
410.971222 144.0
411.754913 144.0
411.893372 172.0
411.993591 104.0
412.206787 156.0
412.63678 204.0
412.702148 160.0
412.928192 180.0
413.886505 196.0
414.173584 320.0
414.318817 168.0
414.578156 164.0
415.17569 188.0
415.216064 224.0
415.737946 248.0
415.981476 144.0
416.181488 104.0
417.10202 168.0
417.224548 184.0
417.265198 168.0
417.448181 232.0
417.860016 96.0
418.571289 160.0
419.569489 168.0
419.916107 188.0
419.970703 164.0
421.234467 144.0
421.365967 220.0
421.56723 148.0
421.661194 144.0
421.826263 112.0
422.260406 156.0
422.865906 156.0
422.89917 140.0
423.074951 112.0
423.153168 208.0
423.26532 132.0
423.619324 148.0
423.896515 140.0
424.171021 132.0
424.375336 144.0
425.210205 180.0
426.47522 180.0
426.783539 168.0
426.92746 156.0
427.709167 220.0
427.939697 220.0
428.078278 140.0
428.343719 112.0
428.458618 192.0
428.621155 132.0
429.697845 176.0
430.306274 144.0
430.417755 208.0
431.070404 204.0
431.215027 156.0
431.618958 152.0
432.084045 152.0
432.402008 168.0
433.959564 144.0
433.992706 156.0
434.1586 140.0
434.606567 148.0
435.126892 156.0
435.417053 100.0
435.503265 148.0
435.801331 144.0
436.255371 156.0
436.622742 240.0
436.694824 308.0
437.48822 100.0
437.650024 108.0
437.811493 156.0
438.147614 184.0
438.247406 148.0
438.86795 120.0
438.944977 148.0
439.095551 112.0
439.186859 228.0
439.377136 104.0
439.445496 156.0
439.708374 144.0
440.458344 168.0
440.522583 160.0
440.782593 156.0
441.163483 152.0
441.471344 220.0
441.574249 172.0
442.415588 124.0
442.635986 192.0
443.057678 240.0
443.751282 152.0
444.109833 168.0
444.235687 224.0
445.037262 164.0
445.094482 204.0
445.477142 168.0
445.580872 140.0
446.361145 120.0
446.785645 160.0
446.924469 200.0
447.113831 248.0
448.463562 168.0
448.516357 156.0
448.647034 140.0
448.760864 148.0
448.963257 164.0
449.171967 148.0
449.383942 184.0
449.447174 196.0
449.735321 140.0
450.584106 144.0
450.859253 172.0
451.401733 208.0
451.433685 144.0
452.262543 132.0
452.415283 140.0
452.496368 164.0
452.707458 188.0
453.139496 144.0
453.33017 176.0
453.658081 108.0
453.699036 124.0
454.175964 128.0
454.532776 212.0
455.229279 132.0
455.795563 244.0
456.403412 200.0
456.671326 152.0
457.292847 140.0
457.982239 188.0
458.684235 96.0
459.073273 148.0
459.260925 148.0
459.963257 100.0
460.248047 108.0
461.049408 128.0
461.766174 128.0
462.422302 104.0
462.434753 96.0
463.109192 156.0
463.981842 152.0
464.362732 184.0
465.318024 116.0
466.304077 144.0
466.377136 140.0
466.463104 176.0
466.776947 176.0
467.288116 128.0
467.402557 136.0
467.449677 276.0
467.700287 148.0
467.787994 152.0
467.827545 132.0
467.950623 140.0
468.522827 164.0
468.713074 156.0
469.342407 240.0
469.727112 160.0
470.527924 96.0
470.841492 128.0
471.022095 264.0
471.433624 204.0
471.877747 212.0
472.498779 188.0
472.739899 148.0
472.825043 188.0
473.026398 104.0
473.067444 196.0
473.307373 144.0
473.672546 140.0
473.83551 180.0
473.994263 140.0
474.19873 248.0
474.354004 180.0
474.628693 112.0
474.718658 108.0
475.117218 152.0
475.210938 184.0
475.642303 156.0
475.828949 140.0
476.212341 140.0
476.317627 152.0
476.558441 108.0
477.223969 100.0
477.680237 144.0
477.745728 140.0
477.968994 152.0
478.35907 152.0
478.55188 112.0
478.881592 168.0
478.98175 148.0
479.432068 124.0
480.394104 156.0
481.673096 188.0
481.799774 152.0
481.983734 116.0
482.088165 188.0
482.580627 108.0
482.949432 236.0
483.242218 180.0
483.34317 288.0
483.39566 140.0
483.598267 192.0
483.695892 148.0
483.957672 168.0
485.213379 144.0
485.467682 148.0
485.537842 152.0
485.656281 232.0
485.727844 176.0
485.981537 120.0
486.424133 168.0
486.880768 144.0
487.437836 128.0
487.577606 136.0
488.033966 120.0
488.675781 112.0
488.929108 108.0
489.187744 192.0
489.816589 104.0
490.069305 164.0
490.536804 156.0
491.069946 112.0
491.154999 144.0
491.409485 140.0
491.456024 96.0
491.900116 148.0
492.014893 168.0
492.48938 176.0
493.291565 188.0
493.521851 188.0
494.742554 168.0
496.147034 248.0
496.303162 180.0
496.698334 204.0
497.068329 112.0
497.224762 144.0
497.260254 152.0
497.407501 116.0
497.578644 252.0
497.721832 160.0
498.170502 248.0
498.334167 124.0
498.501404 160.0
498.543243 116.0
498.992279 96.0
499.132874 104.0
499.348389 176.0
500.089447 136.0
500.13504 100.0
500.212128 132.0
500.299164 172.0
500.447723 100.0
500.694397 164.0
500.828339 140.0
500.872192 124.0
501.052307 112.0
501.260834 108.0
501.371094 136.0
501.487976 140.0
501.525604 268.0
501.65094 136.0
501.697266 192.0
501.799011 228.0
501.890015 220.0
501.955566 116.0
502.050873 220.0
502.109406 160.0
502.195374 116.0
502.309509 384.0
502.423126 168.0
502.515076 96.0
502.59967 152.0
502.866333 244.0
502.929413 268.0
502.993805 132.0
503.074158 144.0
503.134796 292.0
503.194275 268.0
503.248993 192.0
503.313995 276.0
503.379791 180.0
503.455597 196.0
503.522736 224.0
503.558258 164.0
503.667847 180.0
503.755798 248.0
503.815948 296.0
503.88504 216.0
503.915802 180.0
503.969421 356.0
504.023346 216.0
504.074371 412.0
504.115662 344.0
504.216492 752.0
504.334717 424.0
504.407806 276.0
504.452667 364.0
504.483826 388.0
504.585114 292.0
504.628082 268.0
504.677582 204.0
504.744263 280.0
504.779205 264.0
504.84845 360.0
504.91684 336.0
504.963806 372.0
505.067169 492.0
505.125305 292.0
505.204437 700.0
505.268433 312.0
505.31601 464.0
505.392395 456.0
505.42038 460.0
505.464783 452.0
505.554047 624.0
505.615662 644.0
505.675537 312.0
505.717773 312.0
505.755463 324.0
505.850983 512.0
505.928833 616.0
505.970428 624.0
506.041718 672.0
506.139526 1672.0
506.232269 245148.0
506.533936 292.0
506.647217 3052.0
506.684387 1028.0
506.720062 864.0
506.796875 1236.0
506.843994 1692.0
506.910645 1368.0
506.990021 12512.0
507.145996 968.0
507.235138 216304.0
507.378296 172.0
507.427216 140.0
507.53833 212.0
507.665314 3192.0
507.736908 876.0
507.776978 708.0
507.837402 120.0
507.887787 120.0
507.918091 328.0
507.977631 1512.0
508.033173 1040.0
508.073425 396.0
508.112091 432.0
508.160645 252.0
508.235535 64076.0
508.365906 324.0
508.398285 476.0
508.450226 432.0
508.48999 172.0
508.558289 120.0
508.674988 252.0
508.746857 496.0
508.802368 492.0
508.877411 256.0
508.911743 208.0
509.024231 232.0
509.055023 388.0
509.108398 196.0
509.155273 232.0
509.238678 6280.0
509.469727 372.0
509.534149 180.0
509.572906 372.0
509.700592 284.0
509.735291 220.0
509.806885 384.0
509.863556 392.0
509.917236 316.0
510.050049 236.0
510.128113 464.0
510.158142 528.0
510.237579 1400.0
510.303802 516.0
510.395813 384.0
510.46286 320.0
510.565125 244.0
510.599426 288.0
510.699463 136.0
510.770477 120.0
510.860809 260.0
510.926178 352.0
511.048859 268.0
511.097351 224.0
511.173096 252.0
511.225006 272.0
511.382568 428.0
511.52652 140.0
511.640106 176.0
511.70755 164.0
511.769714 184.0
511.86377 128.0
511.92337 188.0
511.991089 160.0
512.144104 128.0
512.492493 128.0
512.557739 120.0
512.935242 244.0
513.351807 196.0
513.824524 116.0
514.105347 112.0
514.193726 96.0
514.694153 148.0
515.513428 132.0
517.855774 104.0
520.224487 108.0
521.269348 132.0
521.886536 124.0
522.06543 160.0
522.114014 96.0
522.377563 172.0
522.881226 128.0
523.18396 116.0
523.314941 228.0
524.426941 96.0
524.800964 96.0
524.949646 112.0
526.046997 96.0
526.854492 120.0
527.66626 188.0
527.78363 172.0
528.650696 116.0
529.92572 148.0
530.799744 144.0
530.949646 112.0
541.603882 140.0
564.802673 140.0
565.960266 136.0
566.658325 168.0
580.275085 148.0
597.57074 144.0
623.285522 120.0
634.612549 188.0
648.50592 148.0
648.789795 148.0
658.368286 112.0
661.03418 140.0
671.215271 160.0
684.912781 176.0
689.953674 148.0
693.074951 108.0
700.02771 144.0
705.292969 140.0
713.715393 100.0
743.45874 100.0
746.952454 108.0
761.747009 164.0
780.579041 104.0
784.323059 132.0
828.995544 152.0
837.789978 160.0
838.491089 112.0
847.145081 108.0
907.841492 100.0
921.425781 116.0
927.575623 140.0
930.82074 100.0
980.990967 112.0
993.326355 116.0
1003.995056 108.0
1053.570679 140.0
1058.7323 212.0
1143.752808 140.0
1152.72937 148.0
1190.606689 184.0
1202.466553 136.0
1209.484253 144.0
1241.744263 216.0
1247.220703 224.0
1253.998779 172.0
1255.161987 172.0
1255.47229 176.0
1274.919189 140.0
1285.075439 216.0
1288.735962 148.0
1290.437012 172.0
1299.260376 180.0
1301.693481 164.0
1306.969604 184.0
1308.819458 168.0
1334.498291 180.0
1335.298218 144.0
1350.07373 148.0
1351.170898 148.0
1353.827881 148.0
1362.887085 144.0
1363.335327 200.0
1364.033569 248.0
1367.637695 184.0
1371.032959 192.0
1376.949707 184.0
1379.861084 224.0
1380.393555 156.0
1381.266235 240.0
1389.184937 144.0
1392.755371 148.0
1398.019043 180.0
1400.103516 212.0
1400.297241 176.0
1407.366577 140.0
1408.210449 192.0
1408.583862 180.0
1414.970337 148.0
1431.436279 152.0
1434.676025 180.0
1444.311523 168.0
1448.52002 144.0
1467.992065 148.0
1473.720093 112.0
1476.965942 176.0
1491.13501 196.0
1491.211792 204.0
1496.150146 204.0
1499.423828 220.0
1502.631592 148.0
1502.80896 220.0
1503.758179 224.0
1509.830688 244.0
1511.4552 172.0
1519.25708 208.0
1529.047485 180.0
1533.868774 172.0
1535.311157 220.0
1540.181274 168.0
1549.968262 200.0
1550.626587 148.0
1556.664307 164.0
1564.317139 192.0
1567.530518 236.0
1570.786621 192.0
1581.255859 172.0
1583.322144 148.0
1586.618408 196.0
1592.911377 200.0
1602.239624 172.0
1611.193848 172.0
1618.520142 144.0
1625.373413 212.0
1625.469727 144.0
1633.054077 184.0
1636.255249 192.0
1646.286743 140.0
1653.295654 188.0
1661.463135 176.0
1665.668091 160.0
1667.601929 172.0
1671.22876 152.0
1676.032715 256.0
1682.149414 148.0
1682.435059 140.0
1686.607666 112.0
1688.137207 168.0
1689.414062 140.0
1689.978638 192.0
1693.695312 160.0
1695.694458 140.0
1698.244263 160.0
1707.928101 220.0
1709.94397 216.0
1714.341675 176.0
1717.185913 152.0
1717.936523 144.0
1720.783691 152.0
1727.916138 172.0
1729.231934 144.0
1730.978638 160.0
1731.334717 160.0
1734.624023 152.0
1735.710083 168.0
1737.186401 180.0
1738.065796 184.0
1741.843262 144.0
1742.192139 160.0
1742.391479 176.0
1744.926392 164.0
1745.741211 144.0
1747.671021 220.0
1749.268921 148.0
1752.933472 152.0
1755.242432 156.0
1755.417603 208.0
1755.509277 168.0
1756.918945 176.0
1757.060669 176.0
1757.402832 140.0
1760.950562 144.0
1763.022461 180.0
1765.053833 164.0
1768.299683 196.0
1773.685303 156.0
1775.798218 148.0
1782.67395 168.0
1785.515381 220.0
1789.049316 152.0
1791.146118 144.0
1792.713257 184.0
1793.008179 108.0
1807.219971 140.0
1812.986572 152.0
1814.605591 200.0
1815.538208 156.0
1815.631592 144.0
1816.462769 188.0
1819.543213 232.0
1826.631958 132.0
1826.987915 192.0
1834.166504 144.0
1835.317383 192.0
1836.809814 188.0
1837.773804 160.0
1838.490601 184.0
1841.051636 148.0
1842.546509 164.0
1843.597412 140.0
1843.939331 168.0
1844.07605 176.0
1844.469238 196.0
1845.751587 156.0
1846.640991 144.0
1850.534424 180.0
1850.7229 152.0
1856.078247 164.0
1856.524048 168.0
1857.733521 164.0
1861.011841 200.0
1862.308594 172.0
1864.989258 172.0
1865.178467 140.0
1865.272949 212.0
1868.644531 140.0
1872.724365 160.0
1874.361206 180.0
1876.86084 176.0
1879.552124 196.0
1880.078491 160.0
1880.984985 148.0
1883.333374 152.0
1884.197144 144.0
1890.63855 164.0
1890.803345 164.0
1891.175537 192.0
1891.703613 216.0
1894.275391 144.0
1902.084473 208.0
1906.057251 192.0
1906.578613 140.0
1912.658081 176.0
1912.762573 156.0
1916.010742 168.0
1916.394043 152.0
1916.52478 168.0
1916.739502 188.0
1919.470947 140.0
1922.044189 144.0
1924.645264 224.0
1927.623901 152.0
1932.004272 144.0
1933.710571 168.0
1934.699707 176.0
1935.268799 160.0
1935.636475 140.0
1936.126953 164.0
1937.572144 140.0
1940.508179 176.0
1941.235962 140.0
1941.700684 144.0
1942.279663 172.0
1946.790771 168.0
1949.197632 152.0
1949.788696 204.0
1949.935913 148.0
1950.036987 144.0
1952.986816 172.0
1953.532104 160.0
1955.668945 180.0
1956.339355 160.0
1959.518555 200.0
1959.641968 160.0
1963.317627 204.0
1963.438843 136.0
1964.53479 148.0
1965.443604 148.0
1965.796509 172.0
1967.817871 192.0
1968.118042 176.0
1974.900024 128.0
1975.25 184.0
1976.745239 156.0
1978.302856 144.0
1983.201294 168.0
1983.768677 200.0
1984.672974 172.0
1985.080811 172.0
1986.145142 160.0
1987.906982 200.0
1991.248535 208.0
1992.101318 176.0
1993.691772 140.0
1995.583618 216.0
1995.851807 144.0
1996.367554 116.0
1999.47229 176.0
2000.495972 172.0
2001.591064 140.0
