>compound Linezolid (Zyvox)
>formula C16H20FN3O4
>ionization [M+H]+
>parentmass 338.1510607920905
#inchi InChI=1S/C16H20FN3O4/c1-11(21)18-9-13-10-20(16(22)24-13)12-2-3-15(14(17)8-12)19-4-6-23-7-5-19/h2-3,8,13H,4-7,9-10H2,1H3,(H,18,21)/t13-/m0/s1
#inchikey TYZROVQLWOKYKF
#Ion_Source LC-ESI
#Instrument qTof
#Compound_Source Commercial
#PI Dorrestein
#Data_Collector Garg_Neha
#Scan -1
#Precursor_MZ 338.151
#ExactMass 337.144
#Charge 1
#CAS_Number 165800-03-3
#Pubmed_ID N/A
#Smiles C1=C(C(=CC(=C1)N2C[C@@H](OC2=O)CNC(C)=O)F)N3CCOCC3
#INCHI_AUX N/A
#Library_Class 1
#SpectrumID CCMSLIB00000078137
#IonMode Positive
#UpdateWorkflowName UPDATE-SINGLE-ANNOTATED-GOLD
#LibraryQualityString Gold
#TaskID 77f51c88eb8b467eb4a01dd2d0cb90d2
##Scan# 1104
#SpectrumFile Plate2_61_88_GG8_01_16496.mzXML
#LibraryName FDALibrary_2_04302014.mgf
#MQScore -1
#Organism FDALibrary_2_04302014
#TIC_Query 0
#RT_Query -1
#MZErrorPPM -1
#SharedPeaks 0
#MassDiff 0
#LibMZ -1
#SpecMZ 338.151
#SpecCharge 0
#internalFilename spec-00000.mgf

>collision 10
44.959423 276.0
45.09164 196.0
45.137093 188.0
45.501678 168.0
45.956459 156.0
46.222645 192.0
46.91806 168.0
47.023094 240.0
47.058586 148.0
47.223938 200.0
47.429321 144.0
47.834541 256.0
47.889622 144.0
47.905613 144.0
48.264992 152.0
48.47401 140.0
48.780739 180.0
49.127487 144.0
49.395699 216.0
50.372673 164.0
50.863884 184.0
50.88876 164.0
51.233414 224.0
51.339249 140.0
51.504807 208.0
51.878292 156.0
51.954296 220.0
52.260319 148.0
52.380783 260.0
52.9431 140.0
53.191029 144.0
53.390083 176.0
53.647804 168.0
53.809742 156.0
53.874001 192.0
54.084572 144.0
54.116776 216.0
54.272091 152.0
54.489311 200.0
54.528988 152.0
54.551037 220.0
54.581909 184.0
54.667229 196.0
54.796806 232.0
54.830696 144.0
54.880817 192.0
55.039906 308.0
55.176105 196.0
55.452915 156.0
55.507767 176.0
55.604195 168.0
56.083118 164.0
56.196453 168.0
56.294971 152.0
56.320358 148.0
56.519192 216.0
56.550621 156.0
56.722874 156.0
56.796349 196.0
57.043842 156.0
57.167446 208.0
57.520126 200.0
57.554848 156.0
57.805775 164.0
57.893574 156.0
58.189259 172.0
58.322941 164.0
58.347263 176.0
58.732536 284.0
59.169586 172.0
59.194088 248.0
59.51149 188.0
59.615944 172.0
60.048553 252.0
60.52319 176.0
61.024143 172.0
61.184391 152.0
61.532818 148.0
61.717987 172.0
61.7915 156.0
61.998192 164.0
62.191101 152.0
62.288452 252.0
62.337158 144.0
62.427753 232.0
62.462936 180.0
62.576244 144.0
62.759014 196.0
63.567314 176.0
64.090462 152.0
64.107994 180.0
64.200455 152.0
64.225975 328.0
64.497421 184.0
64.626953 152.0
64.655762 220.0
64.774246 160.0
64.853516 152.0
64.958588 200.0
64.980278 184.0
65.059685 144.0
65.385986 176.0
65.753448 156.0
66.658722 240.0
66.775772 172.0
67.426285 188.0
68.170311 148.0
68.237701 164.0
68.576813 236.0
68.627914 180.0
68.692238 164.0
68.936844 208.0
69.423286 200.0
69.494614 192.0
69.552696 168.0
69.700508 196.0
69.795258 160.0
69.853462 176.0
70.426872 164.0
71.145248 168.0
71.200661 140.0
71.341805 140.0
71.722237 248.0
71.830154 200.0
71.990494 160.0
72.598022 200.0
73.327362 204.0
74.211151 140.0
74.741898 236.0
75.609917 152.0
75.642799 256.0
75.751892 148.0
75.824669 224.0
76.123055 188.0
76.86985 168.0
77.079391 168.0
77.443283 216.0
79.133797 216.0
79.224182 192.0
79.900581 172.0
80.935783 152.0
81.380455 204.0
81.790337 184.0
81.926666 204.0
82.128517 164.0
82.250435 144.0
82.264427 148.0
82.300529 232.0
83.305695 248.0
83.547478 164.0
83.834366 164.0
84.331581 216.0
84.836792 144.0
84.855125 176.0
85.584557 212.0
86.119362 216.0
86.72348 160.0
86.744789 224.0
86.935822 164.0
87.013786 188.0
87.223701 176.0
87.35759 176.0
87.791573 188.0
88.884033 172.0
88.914055 180.0
88.970367 172.0
89.436562 168.0
89.66069 224.0
89.884575 144.0
90.013458 164.0
90.353676 220.0
90.899361 148.0
91.197525 216.0
91.210831 144.0
91.414337 160.0
92.221062 224.0
92.385506 144.0
92.822197 160.0
92.891243 172.0
93.428902 132.0
93.565773 168.0
93.791161 172.0
93.872269 176.0
93.916489 168.0
93.939636 216.0
93.99366 196.0
94.511513 176.0
94.617958 196.0
95.263756 220.0
95.366737 176.0
95.52813 184.0
95.734444 172.0
95.841583 188.0
96.900574 180.0
97.078949 168.0
97.597351 204.0
97.84919 232.0
98.059967 208.0
98.255188 172.0
98.60865 196.0
98.764847 148.0
98.923149 172.0
99.142456 188.0
99.788124 188.0
99.907455 172.0
100.381493 160.0
100.487206 156.0
100.622925 152.0
100.75074 200.0
101.44516 160.0
101.463203 184.0
101.750572 168.0
102.889603 208.0
103.1502 156.0
103.170418 192.0
103.320068 224.0
103.639961 156.0
103.84066 164.0
104.09433 180.0
104.157295 208.0
104.289261 152.0
104.665726 232.0
104.684059 224.0
105.22644 192.0
105.33876 148.0
105.400055 148.0
106.479645 204.0
106.594688 184.0
106.646065 200.0
106.767372 172.0
107.030769 152.0
107.067841 204.0
107.086372 144.0
107.234718 172.0
107.401733 180.0
107.416168 176.0
108.392021 236.0
108.667786 188.0
109.044708 408.0
109.453468 148.0
109.493042 224.0
109.937088 184.0
109.966309 176.0
110.056076 184.0
110.275421 140.0
110.304688 176.0
111.059235 228.0
111.110939 192.0
111.371239 200.0
111.528831 176.0
111.669701 216.0
111.764366 172.0
112.059143 188.0
112.958481 172.0
113.019608 188.0
113.19976 180.0
113.812576 192.0
114.435562 188.0
114.586777 184.0
114.680542 220.0
114.782875 148.0
115.049004 196.0
115.684494 164.0
115.977959 176.0
116.044411 200.0
117.468109 148.0
117.60405 204.0
117.802711 188.0
118.252464 244.0
118.633698 172.0
118.739944 164.0
118.87603 148.0
119.763649 176.0
120.103676 160.0
121.082352 140.0
121.388489 188.0
121.905533 168.0
122.04232 140.0
122.147385 152.0
122.411491 140.0
122.93615 196.0
123.048424 212.0
123.307167 160.0
123.324852 156.0
123.514069 228.0
123.5504 212.0
123.821907 164.0
124.054619 928.0
124.128487 160.0
124.217201 200.0
124.85466 180.0
124.912483 172.0
124.983681 160.0
125.05838 156.0
125.156082 212.0
125.260147 180.0
125.306526 176.0
125.580719 148.0
126.002617 192.0
126.068848 268.0
126.087532 188.0
126.613281 184.0
126.915794 204.0
127.016533 196.0
127.122169 236.0
127.508438 176.0
127.850281 180.0
127.879539 236.0
128.331451 204.0
128.670761 144.0
128.822067 344.0
128.840149 240.0
128.876297 148.0
128.989288 188.0
129.011902 160.0
129.049179 228.0
129.066162 140.0
129.539169 212.0
129.838364 148.0
129.942703 212.0
130.065613 348.0
130.144714 140.0
130.592392 208.0
131.059875 456.0
131.652161 196.0
131.704697 228.0
131.733841 232.0
131.860062 228.0
132.045258 172.0
132.070343 240.0
132.306107 168.0
132.519104 172.0
132.773544 144.0
133.05809 172.0
133.077042 188.0
133.338318 148.0
133.582047 144.0
133.938568 168.0
134.036636 164.0
134.074783 172.0
134.162369 188.0
134.233841 180.0
134.480698 184.0
135.04834 2960.0
135.238815 152.0
135.340683 168.0
135.654861 164.0
136.053787 696.0
136.421829 168.0
136.661377 168.0
137.063263 1388.0
137.542297 168.0
137.694061 160.0
137.808517 172.0
138.063034 288.0
138.318344 220.0
138.622818 192.0
138.74469 192.0
139.06546 608.0
139.199875 176.0
139.453613 220.0
139.472412 160.0
139.805786 172.0
139.895828 172.0
140.817795 148.0
141.084808 224.0
141.404144 148.0
141.470413 156.0
141.49646 164.0
141.607758 236.0
141.839951 188.0
142.065216 276.0
142.592361 160.0
142.642288 140.0
142.932434 184.0
143.062027 364.0
143.091568 224.0
143.139526 156.0
143.361069 152.0
143.656723 200.0
143.711594 148.0
143.735458 188.0
144.080948 376.0
144.196365 144.0
144.358932 176.0
145.075867 140.0
145.201904 144.0
146.038834 324.0
146.514343 204.0
146.71196 200.0
147.044846 160.0
147.092499 224.0
147.320099 140.0
147.48201 148.0
147.515854 148.0
147.56662 176.0
147.677856 188.0
147.856888 180.0
147.912567 228.0
148.056351 7616.0
148.108688 164.0
148.17804 96.0
148.260345 168.0
148.8134 116.0
148.916397 152.0
149.011398 148.0
149.061691 3824.0
149.229874 160.0
149.641052 208.0
149.784744 172.0
149.821945 160.0
149.980408 184.0
150.070557 1252.0
150.323547 160.0
150.543259 196.0
150.782669 204.0
150.804672 224.0
151.0345 224.0
151.066925 2832.0
151.12851 160.0
151.324585 120.0
151.476776 176.0
151.553513 168.0
152.049759 192.0
152.073273 928.0
152.427032 156.0
152.67778 208.0
152.805695 148.0
152.938583 164.0
153.056747 472.0
153.081558 1492.0
153.416458 184.0
153.54715 140.0
153.62114 188.0
153.774124 192.0
153.850647 240.0
153.944473 164.0
154.076614 176.0
154.098053 248.0
154.369522 200.0
154.401672 172.0
154.510498 168.0
154.88678 220.0
155.070129 152.0
155.412354 144.0
155.447098 200.0
155.951248 148.0
156.067978 252.0
156.230621 228.0
156.369095 208.0
156.395508 124.0
157.074966 616.0
157.099182 144.0
157.311295 168.0
157.944092 304.0
158.048752 172.0
158.081741 172.0
158.17627 144.0
158.346466 164.0
158.55191 160.0
159.091904 252.0
159.327255 156.0
159.500656 140.0
159.654022 180.0
159.726959 156.0
159.910095 160.0
159.943359 236.0
160.054123 204.0
160.071762 164.0
160.095627 192.0
160.116882 180.0
160.669113 152.0
160.734711 140.0
160.926544 148.0
161.055344 144.0
161.812363 220.0
162.071747 4360.0
162.11795 168.0
162.525238 244.0
162.77243 148.0
163.033188 148.0
163.067322 8316.0
163.275589 176.0
163.362076 152.0
163.629288 212.0
163.985916 176.0
164.048874 160.0
164.073456 764.0
164.801025 184.0
164.860321 188.0
164.994217 188.0
165.047913 168.0
165.082687 4156.0
165.138458 156.0
166.047012 136.0
166.085907 728.0
166.598511 240.0
166.768097 140.0
166.840073 236.0
167.074097 180.0
167.098358 348.0
167.498856 164.0
167.542648 196.0
167.625092 276.0
168.009277 200.0
168.079712 212.0
168.641922 184.0
168.678101 144.0
168.921173 244.0
169.002625 100.0
169.076355 3244.0
169.19809 180.0
169.293884 196.0
169.387131 200.0
169.918564 196.0
170.084381 380.0
170.232635 304.0
170.637985 140.0
170.873001 232.0
171.033401 168.0
171.091034 1448.0
171.118088 204.0
171.53093 184.0
172.055481 632.0
172.110107 144.0
172.899567 180.0
173.030441 192.0
173.062042 384.0
173.105087 168.0
173.276627 152.0
174.060303 3548.0
174.118652 184.0
174.339325 216.0
174.384003 152.0
174.407669 232.0
174.665344 236.0
175.02327 196.0
175.064941 1268.0
175.122803 196.0
175.30249 148.0
175.589844 276.0
176.073929 480.0
176.548523 160.0
176.810425 156.0
176.966614 160.0
177.045441 560.0
177.082581 3216.0
177.136108 192.0
177.958237 140.0
178.092499 948.0
178.133514 172.0
178.319504 240.0
178.50827 196.0
179.060776 612.0
179.098206 1296.0
179.406311 152.0
180.089981 576.0
180.773071 164.0
181.016418 132.0
181.089691 2068.0
181.747284 156.0
181.847748 184.0
182.095032 352.0
182.215622 184.0
182.448776 160.0
182.817947 172.0
183.058044 188.0
183.088165 276.0
183.383514 160.0
183.472473 196.0
184.084946 172.0
184.103851 144.0
184.360504 236.0
184.532013 176.0
185.06308 196.0
185.109116 524.0
185.220871 152.0
185.261505 164.0
186.086319 248.0
186.106659 176.0
186.137558 180.0
186.343994 152.0
186.550537 176.0
186.901382 152.0
186.955795 248.0
187.066483 1068.0
187.097244 284.0
187.12645 168.0
187.60405 160.0
188.07373 420.0
188.387268 192.0
188.442368 164.0
188.463028 208.0
188.52388 148.0
188.764435 184.0
189.046204 236.0
189.081726 4288.0
189.456909 172.0
189.583023 160.0
189.615829 164.0
189.761124 180.0
190.089691 2272.0
191.018906 152.0
191.097733 6404.0
191.920303 148.0
192.044662 192.0
192.101761 1024.0
192.501709 192.0
192.847595 164.0
193.053436 268.0
193.078278 160.0
193.110138 276.0
193.281235 160.0
193.42569 248.0
193.553955 152.0
194.101425 388.0
194.289749 204.0
194.822769 144.0
195.058838 464.0
195.093277 10236.0
195.85202 240.0
195.961899 216.0
196.06601 624.0
196.100342 2476.0
196.554565 140.0
196.615952 212.0
196.959381 216.0
197.072662 1648.0
197.106705 2004.0
197.805893 192.0
197.854233 168.0
198.076035 408.0
198.10939 156.0
198.179123 176.0
199.450409 208.0
199.984558 208.0
200.084824 148.0
200.395981 204.0
200.78569 144.0
200.858307 140.0
201.093033 232.0
201.194122 248.0
201.338135 164.0
201.906174 200.0
202.088882 116.0
202.407074 144.0
202.908569 168.0
202.95961 140.0
203.058868 144.0
203.099838 228.0
203.122452 424.0
203.311356 156.0
204.079666 144.0
204.106613 384.0
204.39975 176.0
204.419662 164.0
204.693344 200.0
205.073074 464.0
205.110275 800.0
205.372101 156.0
206.056335 140.0
206.08667 276.0
206.11525 136.0
206.176346 220.0
206.213501 168.0
206.545181 160.0
207.091019 628.0
207.119537 244.0
207.510269 156.0
207.579468 148.0
207.670853 208.0
208.074783 184.0
208.117554 248.0
209.017105 208.0
209.073792 176.0
209.10878 3776.0
209.204803 140.0
209.382492 104.0
210.084244 168.0
210.113373 628.0
210.190994 236.0
210.947693 148.0
210.973709 208.0
211.098038 172.0
211.190582 216.0
212.114273 216.0
212.201248 176.0
213.07457 176.0
213.630112 228.0
213.874542 196.0
214.091034 200.0
214.277939 144.0
214.425018 140.0
214.448334 164.0
214.787369 160.0
215.117828 2448.0
215.288574 176.0
215.861343 172.0
215.975403 224.0
216.038559 176.0
216.125473 500.0
216.513931 200.0
216.802795 212.0
217.076599 292.0
217.114075 1256.0
217.346466 148.0
217.628235 164.0
217.742767 176.0
218.111511 160.0
218.186462 188.0
218.483505 228.0
219.305069 216.0
219.965042 188.0
220.09523 308.0
220.134079 172.0
220.32608 152.0
220.630478 168.0
220.722122 160.0
221.065262 260.0
221.106674 976.0
221.620605 124.0
221.933182 156.0
222.105301 932.0
222.182312 236.0
223.086044 784.0
223.123962 800.0
223.629456 204.0
223.992126 160.0
224.090698 144.0
224.130157 188.0
224.335419 144.0
224.565018 196.0
224.98732 160.0
225.07695 140.0
225.097046 304.0
225.221664 144.0
225.415848 180.0
225.66095 156.0
225.831406 168.0
226.483917 168.0
226.639694 184.0
226.819519 168.0
228.179428 144.0
228.525299 180.0
228.913605 148.0
229.29921 192.0
229.778671 176.0
229.845047 212.0
229.911438 148.0
230.276749 236.0
231.062683 140.0
231.332031 156.0
232.028809 160.0
232.145569 276.0
232.262314 184.0
232.410965 176.0
233.027328 232.0
233.075943 148.0
233.110748 456.0
234.076706 164.0
234.109085 136.0
234.202667 156.0
234.320374 164.0
234.341705 228.0
234.487976 156.0
234.570267 160.0
235.081009 148.0
235.123886 7392.0
235.40625 160.0
236.084427 148.0
236.124924 1412.0
236.367386 180.0
236.509842 132.0
236.90802 212.0
237.128448 172.0
238.099411 1532.0
238.193344 212.0
238.248642 164.0
238.383835 232.0
238.40535 144.0
239.106918 284.0
239.349731 172.0
239.405151 184.0
240.117065 156.0
240.317566 176.0
240.52742 184.0
240.666351 164.0
240.944321 156.0
241.097733 3804.0
241.649231 152.0
241.906097 172.0
242.099594 312.0
242.553513 152.0
242.615509 168.0
243.097076 256.0
243.763916 224.0
244.142563 340.0
244.295578 144.0
244.410706 160.0
244.992477 312.0
245.147186 140.0
245.522797 164.0
245.64679 120.0
245.981461 224.0
246.1297 300.0
246.925079 188.0
247.153442 148.0
248.120804 356.0
248.541534 152.0
249.129044 808.0
250.053085 204.0
250.100662 852.0
250.131104 452.0
250.998169 148.0
251.105576 984.0
251.141922 124.0
251.581863 176.0
252.077744 152.0
252.11348 2668.0
252.151932 324.0
252.763931 176.0
253.118805 516.0
254.031235 216.0
254.101898 176.0
255.137115 172.0
255.775787 140.0
255.966812 148.0
256.263031 160.0
256.897461 204.0
257.021881 156.0
258.085541 164.0
258.194275 192.0
258.981598 196.0
259.004028 220.0
259.129486 244.0
259.491943 176.0
260.958405 208.0
261.108185 160.0
261.778931 140.0
262.097137 148.0
263.000824 140.0
263.133179 160.0
263.233276 184.0
263.595062 216.0
264.138214 144.0
264.873016 168.0
265.015564 188.0
265.121552 340.0
266.098877 168.0
266.293701 172.0
266.904663 164.0
266.989197 200.0
267.102509 108.0
267.145325 172.0
267.727966 232.0
268.572083 140.0
269.084412 220.0
270.424683 196.0
270.755371 140.0
271.223877 168.0
271.397644 212.0
271.574738 156.0
271.965179 180.0
272.227844 172.0
272.625336 268.0
273.888733 212.0
274.155579 208.0
275.181458 220.0
276.149323 192.0
276.559967 140.0
276.917542 148.0
277.12738 116.0
277.54718 152.0
277.676514 172.0
278.130737 560.0
278.270508 204.0
278.544373 128.0
279.114288 760.0
279.249023 132.0
279.796539 152.0
280.105194 192.0
280.706146 160.0
280.912933 156.0
281.114807 224.0
281.954681 180.0
282.101776 164.0
282.606781 152.0
283.128967 172.0
283.353394 196.0
283.822632 212.0
283.976898 168.0
284.00708 156.0
284.238586 156.0
284.869781 160.0
285.844788 184.0
285.962585 216.0
286.238647 200.0
286.262207 148.0
286.38681 164.0
288.137573 160.0
288.505951 152.0
288.651337 164.0
289.135101 204.0
290.097046 176.0
290.222473 196.0
291.050415 148.0
291.593933 164.0
291.811493 148.0
292.039337 236.0
292.13797 148.0
292.457855 216.0
292.502106 140.0
292.575104 196.0
293.11908 152.0
293.149689 168.0
293.773163 156.0
293.839813 112.0
294.06662 200.0
294.162537 3300.0
294.951263 172.0
295.165985 920.0
295.406067 212.0
295.464203 160.0
295.659241 144.0
295.73111 240.0
295.775604 140.0
295.970764 180.0
296.005005 176.0
296.078796 208.0
296.141205 16776.0
296.221558 176.0
296.676544 168.0
296.917908 152.0
297.144409 2628.0
297.225891 168.0
297.688721 176.0
298.148193 424.0
299.109985 156.0
299.149963 140.0
299.237335 116.0
300.097382 204.0
301.256989 144.0
301.782318 160.0
302.924377 196.0
303.004059 140.0
303.563873 316.0
304.892944 148.0
305.162842 160.0
306.036163 168.0
306.137146 140.0
306.304321 140.0
306.77475 176.0
307.290924 224.0
308.275574 152.0
310.281219 176.0
310.744171 208.0
310.870483 204.0
311.217987 188.0
312.296875 184.0
314.368439 188.0
315.138214 196.0
315.884186 176.0
315.965546 216.0
318.493073 176.0
318.670715 200.0
319.253662 156.0
319.688934 156.0
320.135834 152.0
320.175385 148.0
320.631409 140.0
321.141235 168.0
322.555237 184.0
322.826935 188.0
323.377899 228.0
323.574768 160.0
324.01889 152.0
324.997681 192.0
325.058685 200.0
325.470032 188.0
325.697754 160.0
325.847321 220.0
326.006714 156.0
326.434509 204.0
327.205139 160.0
327.888916 252.0
328.043884 152.0
328.960175 140.0
328.987335 192.0
329.375427 204.0
330.763977 180.0
330.847229 152.0
331.419464 168.0
332.097382 140.0
332.658447 116.0
332.88855 160.0
332.946655 240.0
333.075592 184.0
333.448029 208.0
333.742493 188.0
334.062531 160.0
334.181854 156.0
334.459167 288.0
334.69986 176.0
335.067322 156.0
335.406219 188.0
335.548401 188.0
335.60672 196.0
335.818237 152.0
335.937195 112.0
336.190369 224.0
336.24411 104.0
336.29834 112.0
336.540802 168.0
336.596222 340.0
336.649872 176.0
336.891418 144.0
336.926727 212.0
337.016632 144.0
337.146149 420.0
337.211792 252.0
337.305908 288.0
337.359985 160.0
337.392059 312.0
337.453461 400.0
337.511108 264.0
337.643585 340.0
337.690399 168.0
337.7388 160.0
337.80542 148.0
337.835663 208.0
337.906067 344.0
337.976959 304.0
338.039246 140.0
338.071655 600.0
338.153076 175268.0
338.262451 252.0
338.33786 100.0
338.5112 292.0
338.549805 204.0
338.62207 224.0
338.684723 160.0
338.756073 1152.0
338.794739 200.0
338.847137 208.0
339.011932 96.0
339.05957 124.0
339.155212 25496.0
339.28479 184.0
339.355652 124.0
339.471008 140.0
339.532806 276.0
339.589691 172.0
339.622559 128.0
339.771179 180.0
339.943176 176.0
340.025879 132.0
340.15567 2928.0
340.250458 224.0
340.307404 188.0
340.52774 180.0
340.701385 188.0
340.927643 132.0
341.044067 188.0
341.087982 156.0
341.231812 164.0
341.422455 136.0
341.512299 192.0
341.768127 112.0
341.873047 104.0
341.923737 112.0
342.227692 192.0
343.171631 104.0
343.497925 132.0
349.716858 172.0
350.666595 216.0
352.485046 104.0
358.819855 144.0
427.118774 148.0
721.631714 144.0
842.172546 144.0
1048.59729 176.0
1223.16272 168.0
1275.243896 184.0
1304.529663 200.0
1313.696899 240.0
1314.541138 172.0
1317.710938 160.0
1323.316162 156.0
1407.403442 148.0
1407.463135 188.0
1412.432983 192.0
1414.969971 144.0
1455.057129 156.0
1460.178711 204.0
1468.205933 176.0
1484.586914 168.0
1493.742188 164.0
1504.569458 148.0
1505.102173 236.0
1520.096069 152.0
1535.437134 172.0
1535.710083 168.0
1552.376221 212.0
1564.019653 176.0
1568.446411 164.0
1578.947388 152.0
1580.727417 156.0
1620.821289 216.0
1634.825928 156.0
1635.477783 152.0
1637.925659 224.0
1642.197632 192.0
1642.349854 140.0
1670.523926 176.0
1672.672241 200.0
1673.5271 156.0
1674.422852 192.0
1674.854492 164.0
1678.040894 192.0
1682.103516 140.0
1685.6073 168.0
1694.493164 268.0
1697.156982 184.0
1700.036133 164.0
1700.126465 180.0
1712.689209 164.0
1720.985474 168.0
1721.373657 152.0
1722.662109 160.0
1723.397339 168.0
1724.719604 180.0
1762.466919 232.0
1768.96521 164.0
1769.249878 204.0
1773.27063 164.0
1798.984619 216.0
1800.74939 144.0
1806.040405 180.0
1807.174072 168.0
1809.019043 184.0
1816.272583 144.0
1825.274902 160.0
1827.605591 160.0
1829.758911 180.0
1834.222778 140.0
1841.654785 168.0
1842.047729 164.0
1853.717773 172.0
1860.004395 216.0
1861.300781 168.0
1868.030273 360.0
1877.685913 164.0
1878.488037 156.0
1883.434204 180.0
1885.386841 172.0
1888.672241 160.0
1901.747192 160.0
1906.984619 164.0
1907.514771 156.0
1912.029053 204.0
1917.62915 180.0
1919.302856 156.0
1920.54126 152.0
1920.733154 176.0
1931.188599 144.0
1937.149536 224.0
1937.517456 252.0
1941.637207 192.0
1941.716187 180.0
1944.569458 148.0
1947.5177 204.0
1948.703613 156.0
1953.97876 156.0
1955.37793 224.0
1957.385132 180.0
1958.459595 148.0
1958.996826 220.0
1963.571533 204.0
1968.1427 180.0
1971.234375 144.0
1974.80603 160.0
1981.47168 172.0
1983.279419 192.0
1984.236816 220.0
1984.875244 160.0
1985.46936 212.0
1994.436768 192.0
1995.370117 152.0
