>compound 49562-28-9
>formula C20H21ClO4 
>ionization [M+H]+
>parentmass 361.121063
#inchi InChI=1S/C20H21ClO4/c1-13(2)24-19(23)20(3,4)25-17-11-7-15(8-12-17)18(22)14-5-9-16(21)10-6-14/h5-13H,1-4H3
#inchikey YMTINGFKWWXKFG
#Ion_Source LC-ESI
#Instrument qTof
#Compound_Source Commercial
#PI Dorrestein
#Data_Collector Garg_Neha
#Scan -1
#Precursor_MZ 361.121
#ExactMass 360.113
#Charge 1
#CAS_Number N/A
#Pubmed_ID N/A
#Smiles N/A
#INCHI_AUX N/A
#Library_Class 1
#SpectrumID CCMSLIB00000076999
#IonMode Positive
#UpdateWorkflowName UPDATE-SINGLE-ANNOTATED-GOLD
#LibraryQualityString Gold
#TaskID 48f7f52fc6d249b5abbcc6e7b3df5969
##Scan# 3209
#SpectrumFile NCP002928_E2_F11_BA4_01_15698.mzXML
#LibraryName NIH_Clinical_Collection_2.mgf
#MQScore -1
#Organism NIHcollection2_04212014_2_mgf
#TIC_Query 0
#RT_Query -1
#MZErrorPPM -1
#SharedPeaks 0
#MassDiff 0
#LibMZ -1
#SpecMZ 361.121
#SpecCharge 0
#internalFilename spec-00000.mgf

>collision 10
44.958183 152.0
46.003803 180.0
46.014603 180.0
46.034859 180.0
46.0984 104.0
46.734314 196.0
47.135204 196.0
47.610561 140.0
47.629791 200.0
47.692997 204.0
47.845692 160.0
48.027596 212.0
48.274815 156.0
48.55595 216.0
49.342716 188.0
49.465828 156.0
49.635353 168.0
49.958393 140.0
50.276836 176.0
50.484505 144.0
50.779087 172.0
50.859962 148.0
51.788166 128.0
51.907162 168.0
52.011894 152.0
52.328167 140.0
53.112885 168.0
53.253906 128.0
53.284187 232.0
53.556217 152.0
53.64365 180.0
53.68885 180.0
54.020409 180.0
54.160938 160.0
55.260647 184.0
55.441303 224.0
55.460571 192.0
56.226551 160.0
56.287758 160.0
56.790611 144.0
56.864128 140.0
57.374065 164.0
57.869621 156.0
57.995361 148.0
58.787746 156.0
59.771553 168.0
60.118279 188.0
60.563416 140.0
60.777489 196.0
61.029121 172.0
61.075775 144.0
61.444977 224.0
61.579613 160.0
61.608902 192.0
61.629215 168.0
61.663593 168.0
61.826244 152.0
62.083614 184.0
62.485634 164.0
62.694717 148.0
62.986607 256.0
63.664494 180.0
63.708965 184.0
63.753029 164.0
64.306099 152.0
64.587135 176.0
64.641708 144.0
64.833885 240.0
64.92366 184.0
64.992638 168.0
65.433029 140.0
65.734451 140.0
65.975105 220.0
66.054352 176.0
66.221069 204.0
67.256432 120.0
67.930992 184.0
68.086037 164.0
68.198647 176.0
68.241386 228.0
68.313751 144.0
68.585449 228.0
68.60688 156.0
68.821365 152.0
68.890732 240.0
69.006416 232.0
69.307655 224.0
69.519913 220.0
69.70092 204.0
69.712547 184.0
70.428963 216.0
70.63121 140.0
70.70591 168.0
70.824211 160.0
71.421265 140.0
71.582832 180.0
72.566246 168.0
72.606941 192.0
73.181305 200.0
73.201736 192.0
73.662239 164.0
74.415779 180.0
74.795715 164.0
74.809486 228.0
74.859413 160.0
75.679626 172.0
76.387718 200.0
76.413811 208.0
76.434692 140.0
76.608795 148.0
77.873489 196.0
79.160927 184.0
79.879738 176.0
80.171745 164.0
80.938087 144.0
80.968536 140.0
81.987183 152.0
82.030441 176.0
82.190956 196.0
83.328033 144.0
83.797447 188.0
83.844826 168.0
83.899506 160.0
83.914093 188.0
83.930504 148.0
83.963326 180.0
83.994331 144.0
84.965721 160.0
85.140099 208.0
85.417641 140.0
85.629311 164.0
85.756439 168.0
85.907646 156.0
85.979607 220.0
86.129158 164.0
87.001358 156.0
87.083061 196.0
87.293839 164.0
87.544289 196.0
87.764175 192.0
87.885414 184.0
87.978737 156.0
88.575272 204.0
88.87336 204.0
88.940918 192.0
89.04982 184.0
89.273064 112.0
89.510574 176.0
89.804893 164.0
90.07827 184.0
90.165184 176.0
90.3713 196.0
90.662918 144.0
91.040886 132.0
91.143021 236.0
91.18293 196.0
91.338837 144.0
91.94664 148.0
92.698212 164.0
93.032127 144.0
93.907471 148.0
94.034813 168.0
94.452164 160.0
94.746414 152.0
95.068283 164.0
95.241081 192.0
96.115204 164.0
96.412033 168.0
96.490219 156.0
96.783707 196.0
97.946342 152.0
98.579666 164.0
98.747704 140.0
98.777374 172.0
98.836731 152.0
98.999054 212.0
99.474403 192.0
99.520561 144.0
99.592056 140.0
99.770897 144.0
100.001648 156.0
100.699478 188.0
101.013298 172.0
101.097458 152.0
101.264595 116.0
101.387711 288.0
101.602264 164.0
101.660454 144.0
102.060196 156.0
102.543335 236.0
102.697281 216.0
102.857994 164.0
102.892311 156.0
104.269745 140.0
104.391724 304.0
105.053673 192.0
105.214897 180.0
105.861015 216.0
106.273026 152.0
106.724907 156.0
107.08844 204.0
107.7286 236.0
107.995255 148.0
108.106972 160.0
108.346642 160.0
108.382385 196.0
108.465286 140.0
108.512962 196.0
109.027756 212.0
110.228096 144.0
110.57106 164.0
110.816063 204.0
110.99826 268.0
112.003731 192.0
112.528114 144.0
112.819664 140.0
112.996452 548.0
113.041176 176.0
113.202637 172.0
113.528122 196.0
113.866425 224.0
114.34053 160.0
114.721809 140.0
114.76516 156.0
114.828423 160.0
114.899666 192.0
114.993584 136.0
115.225464 224.0
115.522133 192.0
115.927292 160.0
115.942291 148.0
115.984261 160.0
116.255402 200.0
116.373459 180.0
116.992645 160.0
117.266205 156.0
117.669594 148.0
118.023941 148.0
119.290077 160.0
119.910423 236.0
120.518761 236.0
120.715996 196.0
120.863266 184.0
120.901947 144.0
120.991692 188.0
121.02903 32836.0
121.090225 232.0
121.175308 124.0
121.237892 160.0
121.713036 196.0
121.734993 148.0
122.030457 2436.0
122.192192 224.0
122.685509 176.0
122.789146 140.0
122.806793 144.0
122.881798 176.0
123.03553 280.0
123.148903 200.0
123.179825 188.0
123.664696 156.0
124.014023 168.0
124.093826 160.0
124.67318 168.0
125.00676 168.0
125.47451 156.0
126.121887 152.0
126.580521 160.0
127.396927 220.0
127.592445 184.0
128.321899 212.0
128.61969 160.0
128.879395 220.0
129.012863 344.0
129.089615 408.0
129.112228 160.0
129.168777 140.0
129.222977 180.0
129.628387 168.0
130.286377 176.0
131.012085 176.0
131.075882 216.0
131.783234 160.0
132.190247 212.0
132.276871 136.0
132.389404 196.0
132.829468 152.0
134.001923 140.0
134.380035 184.0
135.082352 228.0
135.272095 144.0
136.26236 204.0
136.981216 188.0
137.82811 172.0
138.330612 168.0
138.564423 224.0
138.59137 244.0
138.635422 172.0
138.785446 156.0
138.806549 144.0
138.837036 160.0
138.954315 156.0
138.99501 71672.0
139.096008 160.0
139.12291 148.0
139.489761 168.0
139.50621 140.0
139.580048 148.0
139.670822 196.0
139.844391 204.0
139.998077 5672.0
140.045944 152.0
140.107895 112.0
140.349075 148.0
140.836334 156.0
140.962799 192.0
140.991791 21192.0
141.110504 196.0
141.179916 180.0
141.208664 140.0
141.327911 108.0
141.349548 116.0
141.99614 1344.0
142.215836 140.0
142.453094 164.0
142.657455 176.0
142.834763 256.0
142.87149 140.0
142.927444 108.0
143.174561 124.0
143.356216 132.0
143.773132 188.0
143.896286 336.0
144.319199 152.0
146.46228 176.0
146.493591 164.0
146.606842 192.0
146.693604 164.0
147.417679 168.0
147.521606 220.0
148.410767 148.0
148.444412 148.0
148.846893 172.0
149.082535 156.0
149.961121 176.0
150.545273 128.0
151.495651 200.0
151.627975 192.0
151.981094 168.0
152.133255 164.0
152.514008 216.0
153.036758 132.0
153.257217 172.0
154.32103 160.0
154.476837 148.0
154.501572 148.0
155.130585 144.0
155.248642 144.0
155.629257 216.0
155.832932 160.0
156.442596 124.0
156.554291 236.0
156.731155 168.0
156.845795 160.0
156.938034 140.0
156.992889 168.0
158.199707 152.0
158.244781 200.0
158.946594 152.0
159.775742 144.0
160.513718 160.0
160.67009 380.0
161.064575 180.0
162.117004 216.0
162.222855 192.0
162.398087 148.0
162.50943 164.0
162.892776 144.0
164.040436 152.0
164.152618 244.0
165.509491 188.0
167.087967 140.0
167.291275 184.0
167.396851 144.0
167.468948 176.0
168.208984 160.0
168.361328 184.0
168.663605 164.0
169.129196 160.0
169.678391 140.0
172.22081 148.0
173.005295 200.0
173.681366 148.0
173.817795 164.0
174.658493 172.0
174.742676 148.0
175.97879 200.0
176.348633 148.0
176.435867 212.0
176.534882 124.0
178.509308 168.0
178.751373 156.0
179.012253 148.0
179.846725 228.0
179.94194 208.0
180.018387 136.0
180.060318 156.0
180.693848 208.0
181.146271 156.0
181.23201 176.0
181.302429 144.0
181.57782 148.0
182.281174 180.0
182.794785 160.0
184.092453 104.0
184.913269 152.0
185.430573 160.0
186.393967 192.0
186.586945 192.0
186.88884 160.0
188.822952 156.0
189.017181 140.0
189.074646 196.0
189.520996 160.0
191.083267 192.0
195.452225 156.0
196.092728 140.0
196.444061 140.0
197.057236 132.0
197.989731 148.0
198.726959 196.0
200.422913 192.0
201.706543 144.0
202.507294 152.0
202.86673 156.0
203.664536 164.0
203.749756 152.0
204.213104 176.0
204.614334 160.0
204.775269 132.0
205.415405 168.0
206.114609 148.0
206.732269 220.0
207.204727 220.0
208.820847 208.0
209.448318 152.0
210.821655 184.0
211.759018 176.0
212.194229 128.0
212.530136 212.0
213.221268 172.0
215.174408 196.0
215.491257 188.0
216.023346 188.0
216.579651 160.0
217.207077 164.0
217.570663 148.0
218.03183 200.0
218.137634 140.0
218.243484 168.0
218.472885 168.0
219.981781 156.0
220.052567 200.0
220.105713 244.0
220.711456 152.0
220.915527 212.0
221.033875 152.0
221.634964 176.0
222.0233 156.0
222.846497 176.0
223.217087 200.0
223.815186 148.0
223.961121 156.0
224.268021 200.0
224.304352 168.0
224.655655 208.0
225.034683 148.0
226.498459 128.0
226.950577 292.0
227.60672 144.0
228.030289 172.0
228.370041 152.0
228.740036 108.0
229.245392 180.0
229.451096 224.0
229.82811 148.0
230.016296 124.0
230.235626 144.0
231.546234 156.0
231.693573 148.0
232.025177 284.0
232.150284 204.0
232.190247 152.0
232.303619 320.0
232.437454 120.0
232.527542 272.0
232.591187 224.0
232.620972 144.0
232.702759 112.0
232.754135 236.0
232.796097 116.0
232.821014 260.0
232.848846 200.0
232.88623 328.0
232.940643 100.0
233.001999 412.0
233.037811 177884.0
233.155716 352.0
233.247116 212.0
233.278076 144.0
233.400864 196.0
233.496124 244.0
233.536972 3792.0
233.604813 148.0
233.659271 116.0
233.6884 112.0
233.748444 156.0
233.80011 376.0
233.872055 160.0
233.909332 144.0
234.040298 31612.0
234.124603 188.0
234.22435 128.0
234.308151 200.0
234.549622 100.0
234.651459 136.0
234.741333 100.0
234.796356 136.0
234.833679 156.0
234.893326 120.0
234.97644 172.0
235.034241 72500.0
235.151901 132.0
235.275665 392.0
235.327927 108.0
235.365295 320.0
235.476089 212.0
235.538437 252.0
235.584991 184.0
235.613266 140.0
235.63797 104.0
235.706497 132.0
235.793091 300.0
235.82814 112.0
236.036209 7532.0
236.143402 156.0
236.605759 96.0
236.710815 108.0
236.926361 160.0
236.971924 112.0
237.039032 224.0
237.367798 96.0
237.771759 188.0
238.408112 132.0
238.490768 104.0
238.563293 176.0
243.485519 144.0
243.864563 200.0
251.715683 172.0
252.742401 152.0
254.432693 164.0
254.470413 156.0
254.807068 144.0
257.524323 184.0
258.416199 168.0
265.182068 140.0
267.478485 224.0
267.579407 180.0
269.457977 140.0
271.031769 164.0
273.06366 1416.0
274.072113 476.0
275.064423 276.0
276.069946 180.0
276.531403 160.0
277.276611 152.0
283.167053 148.0
285.704742 168.0
286.623901 156.0
293.000549 184.0
297.937286 148.0
298.00943 212.0
300.074524 160.0
300.978516 188.0
301.061401 212.0
302.067169 144.0
302.132904 192.0
302.690155 144.0
304.757477 140.0
309.144135 148.0
312.162079 180.0
317.660187 148.0
319.074677 2224.0
319.166046 200.0
320.075134 344.0
321.071625 552.0
321.913422 220.0
322.071869 140.0
324.184998 160.0
328.850464 112.0
330.052551 216.0
330.287628 164.0
330.566223 208.0
333.096863 160.0
338.505676 156.0
340.372131 188.0
342.604675 156.0
343.548401 156.0
344.493469 164.0
346.050446 172.0
346.90625 156.0
347.707428 228.0
349.844727 164.0
352.085632 176.0
353.376404 220.0
353.861816 208.0
358.375183 364.0
358.406586 276.0
359.016357 144.0
359.236359 128.0
359.360504 196.0
359.695923 96.0
359.751068 108.0
360.267487 128.0
360.309418 136.0
360.364716 100.0
360.458588 148.0
360.518921 128.0
360.739258 292.0
360.787354 368.0
360.860718 212.0
360.908875 188.0
360.986938 200.0
361.017487 188.0
361.042877 396.0
361.059967 136.0
361.121063 116496.0
361.350677 128.0
361.514435 188.0
361.606201 124.0
361.742493 908.0
361.82547 244.0
361.910614 124.0
362.005737 140.0
362.033203 152.0
362.068237 244.0
362.122772 21972.0
362.270844 192.0
362.32019 308.0
362.40799 180.0
362.469727 148.0
362.718414 108.0
362.759766 264.0
362.871033 120.0
362.924011 148.0
363.016754 192.0
363.067047 168.0
363.117462 39744.0
363.232239 116.0
363.324036 260.0
363.647858 156.0
363.676697 112.0
363.797577 208.0
363.950409 96.0
364.013489 132.0
364.053406 124.0
364.121399 4680.0
364.414368 208.0
364.49408 196.0
364.553436 124.0
364.605988 364.0
364.645203 216.0
364.687317 116.0
364.717468 240.0
364.82782 136.0
364.933655 164.0
365.125183 256.0
365.563538 108.0
366.07019 180.0
366.38681 140.0
476.867157 140.0
512.974365 140.0
796.903564 140.0
1189.499512 140.0
1192.384277 156.0
1289.421509 212.0
1300.831665 180.0
1331.511841 200.0
1354.751221 156.0
1365.019287 144.0
1367.321899 140.0
1423.879883 176.0
1446.416748 144.0
1484.788086 140.0
1504.802856 200.0
1507.058105 228.0
1518.972778 140.0
1541.840698 164.0
1558.650024 156.0
1581.01416 256.0
1583.112061 176.0
1593.002563 204.0
1619.052856 168.0
1626.501343 152.0
1634.723267 140.0
1636.727661 160.0
1647.058594 232.0
1653.170898 280.0
1655.259399 156.0
1666.696655 160.0
1687.898193 192.0
1692.193848 248.0
1696.150635 184.0
1699.373657 160.0
1699.455688 188.0
1719.12207 208.0
1748.417847 212.0
1759.390015 196.0
1762.310303 160.0
1780.286499 172.0
1781.605225 220.0
1794.608276 212.0
1811.417847 144.0
1833.781982 172.0
1836.697998 180.0
1843.417114 160.0
1844.579468 176.0
1846.879639 160.0
1849.831787 228.0
1852.931885 140.0
1853.377441 204.0
1853.951538 204.0
1854.705811 188.0
1859.054077 168.0
1861.13147 148.0
1870.080688 272.0
1872.568848 180.0
1878.79248 148.0
1879.180664 152.0
1879.672485 228.0
1884.146118 156.0
1893.487061 192.0
1899.025269 172.0
1901.45459 152.0
1904.102661 164.0
1908.447632 156.0
1916.411621 172.0
1926.584473 192.0
1931.786011 168.0
1934.069824 192.0
1935.453003 200.0
1940.35083 156.0
1942.850342 176.0
1944.640381 216.0
1945.272339 148.0
1948.442627 148.0
1960.074341 168.0
1962.083984 152.0
1962.683472 152.0
1970.309326 188.0
1970.592041 144.0
1977.002808 192.0
1979.357544 144.0
1979.596558 164.0
1982.325073 148.0
1986.35022 240.0
1986.634033 168.0
1990.787964 140.0
