>compound MLS001141057-01!1-[(2S)-2-amino-4-methylsulfanylbutanoyl]-N-[(2S)-1-[(4-fluorophenyl)methylamino]-1-oxopropan-2-yl]piperidine-4-carboxamide
>formula C21H31FN4O3S
>ionization [M+H]+
>parentmass 439.218
#inchi InChI=1S/C21H31FN4O3S/c1-14(19(27)24-13-15-3-5-17(22)6-4-15)25-20(28)16-7-10-26(11-8-16)21(29)18(23)9-12-30-2/h3-6,14,16,18H,7-13,23H2,1-2H3,(H,24,27)(H,25,28)/t14-,18-/m0/s1
#inchikey TVISSERFJHLDBX
#Ion_Source LC-ESI
#Instrument qTof
#Compound_Source NIH Natural Product Library
#PI Dorrestein
#Data_Collector VVP/LMS
#Scan -1
#Precursor_MZ 439.218
#ExactMass 438.21
#Charge 1
#CAS_Number N/A
#Pubmed_ID N/A
#Smiles CSCC[C@H](N)C(=O)N1CCC(CC1)C(=O)N[C@@H](C)C(=O)NCc2ccc(F)cc2
#INCHI_AUX N/A
#Library_Class 1
#SpectrumID CCMSLIB00000079415
#IonMode Positive
#UpdateWorkflowName UPDATE-SINGLE-ANNOTATED-GOLD
#LibraryQualityString Gold
#TaskID b1d8e8f6646f4e71acdff9ca3d919d08
##Scan# 1469
#SpectrumFile p1-A06_GA6_01_17879.mzXML
#LibraryName NIH_Natural_Products_Library.mgf
#MQScore -1
#Organism NIH_Natural_Products_Library
#TIC_Query 0
#RT_Query -1
#MZErrorPPM -1
#SharedPeaks 0
#MassDiff 0
#LibMZ -1
#SpecMZ 439.218
#SpecCharge 0
#internalFilename spec-00000.mgf

>collision 10
95.070694 180.0
95.126846 140.0
95.262772 40.0
95.402687 160.0
95.587456 128.0
95.955574 128.0
96.045273 160.0
96.191612 160.0
96.338066 56.0
96.418175 400.0
96.441628 104.0
96.562851 136.0
96.576538 188.0
96.605881 172.0
97.225021 160.0
97.38208 148.0
97.505852 212.0
98.085213 212.0
98.171242 168.0
98.19294 96.0
98.228439 220.0
98.256058 176.0
98.514664 136.0
98.656944 136.0
98.674736 196.0
98.759766 140.0
98.929939 160.0
99.015076 128.0
99.159698 204.0
99.21804 164.0
99.401634 136.0
99.421478 192.0
99.657776 216.0
99.689568 196.0
99.769066 48.0
99.860535 112.0
100.406227 48.0
100.420181 148.0
100.551857 196.0
100.595772 180.0
100.813469 152.0
100.923409 172.0
101.039406 116.0
101.638458 68.0
101.686623 200.0
101.710709 240.0
102.26255 204.0
102.656281 208.0
102.757126 124.0
102.930702 156.0
102.952919 148.0
103.043808 188.0
103.066032 200.0
103.343033 156.0
103.389572 76.0
103.780518 188.0
103.954956 52.0
104.012856 212.0
104.053291 4544.0
104.088928 136.0
104.244659 132.0
104.340866 112.0
104.387627 136.0
104.424232 128.0
104.501534 56.0
104.534088 188.0
104.580894 224.0
104.678612 244.0
104.703049 188.0
104.727486 172.0
104.800827 220.0
104.992393 208.0
105.054588 480.0
105.129112 156.0
105.312851 148.0
105.476311 64.0
105.515152 212.0
105.582626 196.0
105.66761 168.0
105.729919 192.0
105.846596 152.0
105.869125 44.0
106.01252 56.0
106.047806 316.0
106.066521 492.0
106.272926 152.0
106.402229 156.0
106.601456 180.0
106.802933 128.0
106.915184 100.0
107.072548 208.0
107.134338 72.0
107.565315 220.0
107.643768 196.0
107.904099 172.0
107.945457 160.0
108.042664 92.0
108.35527 52.0
108.450584 144.0
108.531433 148.0
108.630981 148.0
108.738876 108.0
108.765854 36.0
108.815674 192.0
109.000534 160.0
109.024452 172.0
109.04509 7188.0
109.094055 80.0
109.130974 216.0
109.258995 244.0
109.288391 180.0
109.333244 192.0
109.385277 148.0
109.476883 240.0
109.518539 160.0
109.572701 188.0
109.651878 440.0
109.736427 164.0
109.781128 92.0
109.854126 180.0
109.874985 168.0
109.908371 184.0
109.927147 204.0
110.018982 132.0
110.049347 820.0
110.080231 192.0
110.20903 208.0
110.455719 120.0
110.838829 60.0
110.937332 188.0
111.000229 88.0
111.09169 348.0
111.153351 164.0
111.256195 108.0
111.296082 204.0
111.321281 172.0
111.361183 160.0
111.386383 124.0
111.478828 116.0
111.504044 136.0
111.533089 164.0
111.676445 160.0
111.739738 176.0
111.783737 172.0
111.8153 124.0
111.887817 208.0
111.916344 128.0
111.970367 140.0
111.977776 92.0
111.982483 156.0
112.076263 72072.0
112.121193 132.0
112.152328 108.0
112.175468 60.0
112.213989 44.0
112.240517 72.0
112.278778 100.0
112.299225 64.0
112.332428 92.0
112.348381 100.0
112.366379 100.0
112.421959 224.0
112.444298 52.0
112.50032 32.0
112.54554 124.0
112.574219 48.0
112.616455 64.0
112.684052 144.0
112.736877 72.0
112.759384 160.0
112.84256 44.0
112.876389 160.0
112.897537 44.0
112.925026 48.0
113.078735 4296.0
113.152046 84.0
113.220078 48.0
113.248848 52.0
113.270027 88.0
113.332611 96.0
113.36113 72.0
113.43531 108.0
113.534958 32.0
113.730141 172.0
113.749245 132.0
113.77047 80.0
113.804443 72.0
113.853989 84.0
113.919121 84.0
113.979347 104.0
114.001984 144.0
114.08168 508.0
114.335854 92.0
114.363525 64.0
114.928238 156.0
114.983719 196.0
115.02079 320.0
115.079781 64.0
115.712616 40.0
115.918236 192.0
116.053268 36.0
116.070427 164.0
116.261337 80.0
116.439522 64.0
116.536186 232.0
117.201019 56.0
117.690628 172.0
117.802933 56.0
117.910965 172.0
118.339256 68.0
118.508194 144.0
118.826897 200.0
119.705002 116.0
119.805191 104.0
119.842224 216.0
120.08419 176.0
120.448685 56.0
120.741562 156.0
120.844368 76.0
121.072014 192.0
121.238503 88.0
121.712311 256.0
122.060867 356.0
122.099442 256.0
122.132057 104.0
122.550316 32.0
123.064209 196.0
123.101746 180.0
123.499542 112.0
123.82267 80.0
124.057533 160.0
124.081924 164.0
124.228287 244.0
125.150581 120.0
125.732368 120.0
125.877472 184.0
126.047173 156.0
126.072411 1200.0
126.21711 84.0
126.427376 88.0
126.610947 172.0
126.971756 96.0
127.072693 116.0
127.090591 168.0
127.90416 64.0
128.923569 160.0
129.672653 160.0
130.06929 388.0
130.088516 408.0
130.108109 160.0
131.204681 160.0
132.042679 140.0
132.083847 148.0
132.28978 120.0
132.477554 200.0
132.546295 76.0
132.562332 80.0
132.899399 184.0
133.075989 176.0
133.648422 48.0
133.936172 52.0
134.445236 160.0
134.907639 328.0
135.090317 60.0
135.143524 120.0
135.527878 156.0
135.578857 140.0
135.847809 108.0
136.078049 444.0
136.121674 176.0
136.286575 192.0
137.071228 232.0
137.108917 220.0
137.303818 116.0
137.684219 148.0
137.913177 84.0
138.072159 180.0
138.092712 364.0
138.350586 288.0
138.685547 152.0
139.086929 1452.0
139.124191 176.0
139.204025 268.0
139.373138 128.0
139.631714 128.0
139.702271 144.0
139.921143 188.0
140.070755 392.0
140.088562 128.0
140.105362 208.0
140.996719 196.0
141.15274 92.0
141.216583 168.0
141.294647 48.0
141.446106 140.0
141.623688 100.0
141.867737 144.0
142.147598 140.0
142.221176 104.0
142.330368 64.0
143.911346 200.0
143.942383 148.0
144.257751 164.0
145.515457 140.0
146.149963 84.0
146.407532 88.0
146.687012 124.0
146.822021 244.0
146.925751 220.0
147.075348 164.0
148.141708 80.0
148.16835 36.0
149.115768 232.0
149.155991 160.0
149.798386 156.0
150.046951 136.0
150.066452 132.0
150.090836 136.0
150.111862 316.0
151.082413 164.0
151.880966 180.0
152.08548 2012.0
152.148438 44.0
152.298218 160.0
152.342438 120.0
152.607849 196.0
153.097916 472.0
153.129532 176.0
153.546036 196.0
153.720566 160.0
154.054489 80.0
154.131073 124.0
154.521713 60.0
154.697418 152.0
155.011963 172.0
155.064011 136.0
155.083832 156.0
155.117523 5376.0
155.512909 124.0
155.671799 84.0
155.937607 92.0
156.069351 168.0
156.11824 596.0
156.649216 92.0
156.743896 116.0
156.908386 72.0
156.970718 80.0
157.013107 136.0
157.34996 52.0
157.484802 116.0
157.564743 84.0
158.06572 204.0
158.312607 208.0
158.833908 168.0
159.584763 128.0
159.632538 112.0
159.773392 128.0
160.017502 96.0
160.266846 152.0
160.392853 40.0
160.478561 192.0
160.549164 200.0
161.079178 176.0
161.268677 76.0
161.658142 136.0
163.800934 204.0
163.831497 112.0
164.295471 236.0
164.382217 244.0
164.59407 168.0
164.908295 200.0
164.995193 188.0
165.048889 180.0
165.082123 232.0
165.104904 252.0
165.975784 172.0
166.091736 320.0
166.232285 112.0
166.314407 208.0
167.081024 1940.0
167.115799 1008.0
167.157349 32.0
167.198517 100.0
167.324646 76.0
167.803833 160.0
168.090027 276.0
168.120148 144.0
168.30954 44.0
168.381836 136.0
168.405075 156.0
169.087616 116.0
169.175629 72.0
170.217865 144.0
170.901459 128.0
171.03418 56.0
171.344055 96.0
171.675079 152.0
173.300919 108.0
173.366425 108.0
173.843689 196.0
174.463531 112.0
175.155594 204.0
175.537735 112.0
176.387833 136.0
176.416916 156.0
177.100479 504.0
178.08902 164.0
178.314728 240.0
178.54335 200.0
179.606018 60.0
179.742081 144.0
179.872849 288.0
179.947601 120.0
180.067749 136.0
180.109131 204.0
180.129181 112.0
180.368164 120.0
180.84845 116.0
180.875214 84.0
180.990326 136.0
181.09642 576.0
182.095154 192.0
182.126251 592.0
182.186478 132.0
182.216019 60.0
182.272446 148.0
182.452515 68.0
182.67572 68.0
182.751053 104.0
182.794098 136.0
182.928665 160.0
182.977112 148.0
183.062439 140.0
183.112427 9272.0
183.179092 44.0
183.205063 100.0
183.243744 116.0
183.386566 88.0
183.44397 120.0
183.499771 80.0
183.594147 140.0
183.912506 128.0
184.082047 368.0
184.116989 908.0
184.41217 84.0
184.459976 84.0
184.839447 164.0
185.080338 220.0
185.124115 276.0
185.245544 100.0
185.340363 92.0
185.771423 176.0
186.238297 188.0
186.569809 180.0
186.594269 192.0
186.751984 60.0
186.907043 172.0
187.206909 124.0
187.42984 36.0
188.369141 148.0
188.663437 240.0
189.098358 144.0
190.041 176.0
191.740356 132.0
193.004639 320.0
193.112488 68.0
194.009628 120.0
194.137177 184.0
194.284164 176.0
194.611649 180.0
195.061707 68.0
195.112732 288.0
196.116913 176.0
196.52655 164.0
196.587936 136.0
197.076569 128.0
197.108398 3708.0
197.364182 80.0
197.526657 72.0
197.585403 56.0
197.663742 76.0
198.111023 496.0
198.16774 124.0
198.355499 100.0
199.115845 88.0
199.141129 148.0
199.379929 84.0
199.672302 48.0
200.314026 196.0
201.476242 136.0
201.829514 108.0
202.097626 172.0
202.125412 156.0
203.120346 200.0
203.360352 144.0
204.114899 172.0
205.45636 176.0
206.147308 128.0
207.114014 1092.0
207.899841 164.0
207.940018 188.0
208.12178 188.0
208.330521 200.0
208.908325 120.0
209.101517 192.0
209.128891 580.0
209.492676 120.0
209.939423 88.0
210.12027 1992.0
210.912369 36.0
210.958618 52.0
211.102753 304.0
211.126968 568.0
211.213074 88.0
212.051743 168.0
212.090836 184.0
212.134094 160.0
212.647263 48.0
212.862091 140.0
213.830124 144.0
214.246506 104.0
214.604965 112.0
215.115494 144.0
215.430878 112.0
215.96579 148.0
218.417847 44.0
219.295258 100.0
220.111877 408.0
220.144897 172.0
220.984344 100.0
221.129349 128.0
221.150055 176.0
223.134537 196.0
225.91095 168.0
226.030624 180.0
226.0923 184.0
227.76944 32.0
228.28035 180.0
228.710556 100.0
229.813507 40.0
230.088135 180.0
230.913055 116.0
231.730347 180.0
232.394318 120.0
233.074432 140.0
233.278061 100.0
235.078033 112.0
235.115112 296.0
235.17569 224.0
235.343582 268.0
235.734558 248.0
235.875153 44.0
236.119751 160.0
236.245148 64.0
237.122833 316.0
237.967468 136.0
238.074936 108.0
238.114349 828.0
238.154175 3036.0
239.15657 728.0
239.23407 168.0
239.304871 60.0
239.412643 84.0
239.517365 64.0
239.631332 56.0
240.164627 140.0
240.207809 48.0
240.769547 92.0
240.967224 64.0
241.792831 152.0
242.120987 192.0
242.480347 292.0
243.103195 180.0
244.875702 72.0
245.149841 188.0
245.411667 116.0
247.112518 208.0
247.56456 168.0
247.918549 132.0
248.116013 152.0
248.536285 192.0
249.139069 236.0
249.506744 180.0
249.701706 104.0
250.135895 56.0
252.404221 124.0
255.064056 180.0
255.767014 96.0
256.101318 140.0
256.509186 208.0
258.674896 172.0
261.124298 100.0
261.129944 180.0
261.143372 268.0
261.840698 172.0
261.985626 124.0
262.137054 220.0
263.156311 132.0
265.165009 404.0
266.148438 620.0
266.827026 136.0
267.129456 172.0
267.164185 460.0
267.217285 148.0
268.301758 228.0
268.93457 132.0
269.123901 96.0
270.447845 180.0
271.122528 168.0
271.158569 136.0
273.12854 136.0
275.117737 136.0
278.21405 108.0
280.47934 164.0
283.18457 276.0
284.144409 44.0
285.138306 168.0
286.153656 688.0
287.148193 148.0
287.175171 260.0
287.509155 164.0
287.948059 196.0
288.150818 116.0
288.431183 108.0
289.126343 144.0
290.162262 120.0
290.747803 180.0
291.16568 164.0
292.202087 196.0
294.660156 80.0
295.065491 176.0
295.248077 80.0
295.504608 32.0
297.126373 308.0
298.784393 76.0
300.710205 164.0
303.169464 104.0
303.32196 152.0
303.869873 72.0
305.0784 256.0
306.166992 252.0
306.533203 56.0
306.616852 88.0
306.696991 92.0
306.832947 128.0
306.961945 184.0
307.007294 92.0
307.153778 164.0
307.195618 60.0
307.247955 168.0
307.272369 44.0
307.335175 148.0
307.422394 36.0
307.453827 108.0
307.607391 172.0
307.740051 108.0
307.830811 172.0
307.862244 164.0
307.921631 116.0
307.95105 160.0
307.980988 188.0
308.06134 116.0
308.107391 128.0
308.176514 26832.0
308.259613 96.0
308.31424 188.0
308.396759 36.0
308.467804 148.0
308.521942 124.0
308.577484 40.0
308.621124 112.0
308.646545 152.0
308.704895 128.0
308.748322 36.0
308.806427 116.0
308.844299 56.0
308.882782 60.0
308.938751 84.0
309.013306 104.0
309.046997 68.0
309.058716 96.0
309.106689 80.0
309.178284 4676.0
309.547729 40.0
309.60376 52.0
309.631775 40.0
309.69574 76.0
309.747986 44.0
309.792908 40.0
309.883972 68.0
309.987061 76.0
310.146271 104.0
310.182434 540.0
310.430786 44.0
310.704346 64.0
310.785034 80.0
310.844696 68.0
310.88681 136.0
311.007111 100.0
311.084839 60.0
311.172943 152.0
311.206238 60.0
311.360718 208.0
311.624176 112.0
311.736603 92.0
311.785797 56.0
311.827972 56.0
312.003723 56.0
312.088104 60.0
312.13382 60.0
312.239319 136.0
312.869141 48.0
313.541901 100.0
314.007263 80.0
314.151611 228.0
315.141815 68.0
316.164032 152.0
317.022797 56.0
318.154205 112.0
318.38147 56.0
318.750885 196.0
320.17688 148.0
320.209412 44.0
320.433838 120.0
321.168152 84.0
321.817627 80.0
322.44989 56.0
323.72345 60.0
324.020721 56.0
325.83963 32.0
327.195435 64.0
327.67804 228.0
331.192841 88.0
332.792084 88.0
334.151337 108.0
335.185364 80.0
336.180847 156.0
336.388885 184.0
337.56897 100.0
341.226471 140.0
341.562836 48.0
342.803528 128.0
343.127899 112.0
346.142792 156.0
346.195892 300.0
347.206329 128.0
349.193237 168.0
349.870422 92.0
354.794159 76.0
355.18573 172.0
355.431763 64.0
356.195404 196.0
356.460602 104.0
360.190338 104.0
360.575714 52.0
361.165527 148.0
362.182373 204.0
363.195709 160.0
364.919739 144.0
368.727753 104.0
369.775665 36.0
370.112518 152.0
371.565094 128.0
372.152283 176.0
373.201996 96.0
374.188232 264.0
377.125519 128.0
378.862885 152.0
387.617523 116.0
387.974182 104.0
388.017303 56.0
389.009796 128.0
389.893524 156.0
390.137207 116.0
390.211914 68.0
391.212189 7940.0
391.340149 52.0
391.459167 36.0
391.53006 28.0
391.943665 76.0
392.13678 40.0
392.212158 1244.0
392.294434 40.0
392.452118 52.0
392.771545 100.0
392.949066 60.0
393.22583 256.0
393.343689 68.0
393.631897 84.0
394.461548 80.0
394.718536 140.0
395.28418 64.0
396.174988 124.0
397.856415 100.0
405.174347 120.0
406.188538 92.0
406.264771 128.0
417.867584 92.0
421.199432 224.0
422.19043 392.0
423.181458 124.0
423.242859 180.0
423.636017 60.0
424.168732 124.0
424.198608 156.0
430.68634 100.0
431.20694 72.0
433.350403 36.0
437.245361 104.0
438.824066 136.0
439.212372 1084.0
440.22348 244.0
441.206451 188.0
442.655518 88.0
443.237762 144.0
448.482422 116.0
450.571198 72.0
470.300323 124.0
499.58728 92.0
521.831726 104.0
537.745544 48.0
538.535034 140.0
547.44397 88.0
557.686462 60.0
578.915833 156.0
595.875183 88.0
602.500793 68.0
608.951843 96.0
621.202698 100.0
643.674866 44.0
657.354919 184.0
663.461731 104.0
672.2724 96.0
678.499817 72.0
705.44519 184.0
706.402283 108.0
745.229736 64.0
759.40094 100.0
765.666199 80.0
800.669739 88.0
835.276001 248.0
853.318787 160.0
864.746033 32.0
867.135559 152.0
870.197571 232.0
874.700562 260.0
881.849182 260.0
890.950684 40.0
899.477966 224.0
905.367065 152.0
914.528564 76.0
916.654419 196.0
936.781128 172.0
938.27417 260.0
941.141602 136.0
949.469788 96.0
959.49231 204.0
959.726562 68.0
962.219116 228.0
974.87323 116.0
975.83667 144.0
977.54718 168.0
985.472107 108.0
993.473022 184.0
1001.81488 148.0
1005.844238 140.0
1006.911255 32.0
1007.006042 188.0
1010.375122 132.0
1013.64209 172.0
1014.237793 136.0
1019.766052 160.0
1022.068054 200.0
1024.054199 204.0
1024.500122 152.0
1026.310059 156.0
1031.461914 196.0
1033.105225 232.0
1033.374023 140.0
1035.063721 116.0
1038.812866 164.0
1043.243774 144.0
1046.678955 180.0
1051.410767 164.0
1055.305786 80.0
1056.745361 176.0
1057.621704 60.0
1058.38562 76.0
1059.473633 164.0
1061.126221 152.0
1066.904175 168.0
1068.321777 180.0
1072.326172 72.0
1078.768433 92.0
1079.696899 152.0
1080.226685 208.0
1081.332397 172.0
1087.637573 164.0
1087.840942 168.0
1089.416992 180.0
1093.157959 84.0
1095.100098 92.0
1096.121216 164.0
1096.503418 200.0
1099.484253 176.0
1101.425293 136.0
1109.756958 88.0
1110.008911 116.0
1116.709473 92.0
1120.36377 176.0
1120.956787 180.0
1123.083374 200.0
1126.440796 168.0
1127.222534 180.0
1127.823975 28.0
1129.876831 188.0
1130.559326 176.0
1130.673096 52.0
1132.025269 128.0
1132.815552 140.0
1133.217529 232.0
1134.236206 172.0
1135.912476 104.0
1137.905518 184.0
1140.03479 180.0
1140.330444 212.0
1141.883545 88.0
1142.657104 156.0
1143.807739 212.0
1144.130859 164.0
1145.080322 36.0
1145.221802 196.0
1147.836548 200.0
1148.612061 196.0
1149.205688 192.0
1151.379272 168.0
1153.047974 224.0
1154.183594 132.0
1158.945557 180.0
1161.368652 164.0
1161.450073 176.0
1164.416016 120.0
1171.019775 152.0
1171.551147 136.0
1172.702637 160.0
1174.025269 136.0
1174.80957 200.0
1177.089111 208.0
1177.580811 156.0
1178.09314 136.0
1180.65625 224.0
1181.189697 196.0
1181.695923 216.0
1182.783936 164.0
1183.037231 172.0
1186.435059 152.0
1187.785889 164.0
1188.465088 124.0
1190.318359 96.0
1190.984497 212.0
1191.623291 128.0
1196.175781 100.0
1200.681763 224.0
1201.28186 244.0
1203.193359 48.0
1206.371094 228.0
1209.082397 156.0
1209.269287 148.0
1212.607422 176.0
1213.363037 228.0
1213.411499 48.0
1216.679077 144.0
1217.540039 144.0
1222.301758 168.0
1224.459839 92.0
1226.940308 176.0
1227.421387 76.0
1227.860718 152.0
1228.488403 128.0
1229.130371 28.0
1229.200073 100.0
1232.72644 180.0
1232.838257 160.0
1235.551025 200.0
1236.677612 204.0
1236.747681 76.0
1237.40564 152.0
1237.594727 184.0
1238.729248 56.0
1240.761475 156.0
1240.894653 180.0
1241.027832 148.0
1242.626953 148.0
1243.174194 172.0
1243.230347 176.0
1244.234009 212.0
1246.80481 144.0
1247.142212 176.0
1247.549805 172.0
1247.746704 176.0
1249.146118 220.0
1250.363281 180.0
1252.341675 224.0
1253.250366 212.0
1253.764771 52.0
1256.542847 204.0
1256.726318 176.0
1258.942749 188.0
1260.998535 124.0
1262.744751 156.0
1264.669922 208.0
1265.978882 176.0
1267.42395 188.0
1268.763428 164.0
1268.876831 80.0
1269.912109 172.0
1274.385132 172.0
1274.803467 176.0
1274.867432 176.0
1275.521362 184.0
1275.670654 240.0
1276.83667 108.0
1277.690186 136.0
1279.149048 144.0
1280.644287 156.0
1282.119019 184.0
1282.803223 172.0
1283.145386 156.0
1283.965332 160.0
1285.613281 160.0
1287.105225 168.0
1290.785034 244.0
1291.335693 184.0
1294.54895 176.0
1296.33252 132.0
1298.483154 176.0
1298.727051 144.0
1298.978149 208.0
1304.852295 256.0
1308.744629 188.0
1309.09021 148.0
1309.911255 52.0
1310.242676 120.0
1311.100098 84.0
1312.426392 208.0
1313.371094 176.0
1314.720215 116.0
1315.081055 176.0
1316.185547 160.0
1317.608398 108.0
1318.345459 40.0
1319.639282 200.0
1321.375 152.0
1321.780151 160.0
1323.19812 180.0
1323.336304 52.0
1323.850464 136.0
1324.415283 196.0
1328.155273 144.0
1329.221802 208.0
1329.795044 68.0
1331.196167 64.0
1331.769897 104.0
1332.380005 196.0
1334.865723 164.0
1335.171143 148.0
1337.216309 188.0
1339.137573 276.0
1340.42749 232.0
1345.532471 228.0
1346.949097 164.0
1347.708862 48.0
1349.762817 160.0
1352.367065 120.0
1354.204834 216.0
1354.2854 48.0
1356.549438 176.0
1357.817993 264.0
1359.512573 80.0
1360.70166 128.0
1361.07605 120.0
1361.700317 92.0
1363.639893 188.0
1364.418945 160.0
1365.448364 60.0
1365.536621 92.0
1367.133057 168.0
1367.979492 172.0
1369.341675 152.0
1370.527588 168.0
1371.809937 104.0
1372.827393 176.0
1373.078125 200.0
1373.564941 196.0
1373.793579 140.0
1376.384033 204.0
1378.622192 148.0
1378.799561 160.0
1381.254272 196.0
1385.792236 152.0
1386.421997 100.0
1386.748047 96.0
1387.719116 112.0
1388.393921 224.0
1388.623779 204.0
1389.98877 160.0
1390.894165 160.0
1391.688477 184.0
1392.41626 20.0
1392.497925 192.0
1392.726685 100.0
1393.515625 256.0
1393.575073 196.0
1394.072876 120.0
1394.838379 216.0
1395.656128 156.0
1396.089355 188.0
1396.511353 196.0
1396.645142 132.0
1396.924805 48.0
1397.344482 192.0
1397.649536 192.0
1397.976929 196.0
1399.346436 236.0
1399.562378 172.0
1400.671997 136.0
1403.593384 144.0
1404.234619 256.0
1404.615112 176.0
1406.293823 180.0
1406.876099 180.0
1407.839233 212.0
1410.140259 208.0
1410.924438 204.0
1411.919556 108.0
1412.211182 128.0
1412.540283 32.0
1417.039429 136.0
1418.148438 180.0
1419.092896 136.0
1419.655273 140.0
1419.970215 172.0
1420.787842 220.0
1421.455566 144.0
1423.99292 196.0
1426.502563 180.0
1426.78064 224.0
1427.134033 208.0
1427.322021 56.0
1427.457397 100.0
1427.878418 112.0
1431.12915 164.0
1433.449097 148.0
1434.330933 168.0
1434.873657 140.0
1435.627686 208.0
1435.816162 152.0
1436.660889 140.0
1438.675781 184.0
1440.012329 28.0
1440.238892 184.0
1443.949829 164.0
1445.795776 160.0
1446.13623 168.0
1446.234619 120.0
1447.150635 108.0
1448.437988 204.0
1448.566772 112.0
1454.807617 120.0
1457.883667 228.0
1458.689331 156.0
1458.978149 184.0
1459.403931 176.0
1459.525513 116.0
1459.881714 128.0
1460.012207 92.0
1461.191162 112.0
1461.761841 52.0
1463.101318 176.0
1464.083618 108.0
1470.266113 196.0
1471.563721 160.0
1472.831421 244.0
1473.159912 144.0
1473.358521 128.0
1474.466431 176.0
1474.940308 180.0
1475.200195 80.0
1476.637573 84.0
1476.890015 144.0
1477.088867 120.0
1477.723755 40.0
1478.97876 136.0
1479.614136 156.0
1480.617188 88.0
1481.421387 136.0
1481.850464 240.0
1484.14209 180.0
1485.530151 148.0
1485.675903 120.0
1485.770264 176.0
1485.852417 200.0
1487.696533 212.0
1488.561768 40.0
1488.984131 220.0
1489.414185 140.0
1489.775269 168.0
1489.890503 156.0
1490.581909 96.0
1491.304321 172.0
1491.727051 132.0
1492.242065 44.0
1494.549438 52.0
1494.995728 116.0
1495.549927 316.0
1497.359131 244.0
1497.459229 140.0
1497.898315 168.0
1498.345093 192.0
1498.938354 180.0
1499.053955 220.0
1499.955688 56.0
1500.08667 144.0
1500.348755 28.0
1502.461792 60.0
1502.816772 164.0
1503.43396 160.0
