>compound Lychnopholide
>formula C20H22O6
>ionization [M+H]+
>parentmass 359.14891487609054
#inchi InChI=1S/C20H22O6/c1-6-10(2)18(22)25-15-9-20(5)16(21)8-13(26-20)11(3)7-14-17(15)12(4)19(23)24-14/h6-8,14-15,17H,4,9H2,1-3,5H3/b10-6-,11-7-/t14-,15+,17+,20-/m1/s1
#inchikey QATUWZPYBIHFFR
#Ion_Source DI-ESI
#Instrument qTof
#Compound_Source Isolated
#PI Norberto Lopes
#Data_Collector Denise Silva
#Scan -1
#Precursor_MZ 359.144
#ExactMass 358.142
#Charge 1
#CAS_Number 77448-64-7
#Pubmed_ID  
#Smiles C/C(C(O1)=C2)=C/[C@@H](OC(C3=C)=O)[C@H]3[C@@H](OC(/C(C)=C\C)=O)C[C@]1(C)C2=O
#INCHI_AUX  
#Library_Class 3
#SpectrumID CCMSLIB00000078861
#IonMode Positive
#UpdateWorkflowName UPDATE-SINGLE-ANNOTATED-BRONZE
#LibraryQualityString Bronze
#TaskID 9654a7ae543544b989fca5f6e084506f
##Scan# 1
#SpectrumFile lychnopholide_pos_MSMS_359.mgf
#LibraryName gnps_library.mgf
#MQScore -1
#Organism gnps_library
#TIC_Query 0
#RT_Query -1
#MZErrorPPM -1
#SharedPeaks 0
#MassDiff 0
#LibMZ -1
#SpecMZ 359.144
#SpecCharge 0
#internalFilename spec-00000.mgf

>collision 10
121.062599 2609.0
128.059525 1189.0
129.067673 1497.0
133.061157 2034.0
135.040451 2098.0
137.056686 3752.0
141.067413 2606.0
142.074707 2308.0
143.082443 1785.0
145.06041 3505.0
147.042099 2468.0
149.056335 3503.0
154.074081 1432.0
157.096527 5991.0
159.109375 3190.0
161.056671 19746.0
162.060669 1747.0
163.070496 2275.0
165.052322 2591.0
167.082916 3622.0
169.09668 6888.0
170.070206 1496.0
171.077103 4905.0
173.089035 2088.0
175.107773 3737.0
182.069504 1380.0
185.093033 68716.0
186.097153 5604.0
187.106949 6656.0
189.085693 1987.0
195.078094 6560.0
196.082993 1314.0
197.092163 8378.0
198.064423 3380.0
199.071045 3068.0
203.101425 21891.0
204.10582 1701.0
213.08786 95292.0
214.091187 8580.0
215.100647 6610.0
217.080948 2507.0
223.070831 4925.0
226.06012 1522.0
231.098694 68477.0
232.102997 5829.0
241.083389 68609.0
242.084183 6273.0
259.091858 102773.0
277.102325 6497.0
359.143677 4592.0
