>compound MLS001160379-01!(2S)-3-phenyl-2-[[2-[(3,4,8,8-tetramethyl-2-oxo-9,10-dihydropyrano[2,3-h]chromen-5-yl)oxy]acetyl]amino]propanoic acid
>formula C27H29NO7
>ionization [M+H]+
>parentmass 480.202026
#inchi InChI=1S/C27H29NO7/c1-15-16(2)26(32)34-24-18-10-11-27(3,4)35-20(18)13-21(23(15)24)33-14-22(29)28-19(25(30)31)12-17-8-6-5-7-9-17/h5-9,13,19H,10-12,14H2,1-4H3,(H,28,29)(H,30,31)/t19-/m0/s1
#inchikey KSVIRFPCRPCERS
#Ion_Source LC-ESI
#Instrument qTof
#Compound_Source NIH Natural Product Library
#PI Dorrestein
#Data_Collector VVP/LMS
#Scan -1
#Precursor_MZ 480.202
#ExactMass 479.194
#Charge 1
#CAS_Number N/A
#Pubmed_ID N/A
#Smiles Cc1c(C)c2c(OCC(=O)N[C@@H](Cc3ccccc3)C(=O)O)cc4OC(C)(C)CCc4c2oc1=O
#INCHI_AUX N/A
#Library_Class 1
#SpectrumID CCMSLIB00000079515
#IonMode Positive
#UpdateWorkflowName UPDATE-SINGLE-ANNOTATED-GOLD
#LibraryQualityString Gold
#TaskID b1d8e8f6646f4e71acdff9ca3d919d08
##Scan# 2345
#SpectrumFile p1-E07_GE7_01_17927.mzXML
#LibraryName NIH_Natural_Products_Library.mgf
#MQScore -1
#Organism NIH_Natural_Products_Library
#TIC_Query 0
#RT_Query -1
#MZErrorPPM -1
#SharedPeaks 0
#MassDiff 0
#LibMZ -1
#SpecMZ 480.202
#SpecCharge 0
#internalFilename spec-00000.mgf

>collision 10
94.960915 128.0
95.244713 204.0
95.387634 156.0
95.456131 188.0
95.469742 228.0
95.500854 164.0
95.591606 204.0
95.672089 164.0
95.701294 156.0
95.761665 176.0
95.800621 140.0
95.886353 164.0
95.925331 56.0
95.946144 160.0
96.067047 208.0
96.130119 156.0
96.356216 156.0
96.428917 180.0
96.690987 148.0
96.781029 108.0
96.871117 128.0
96.921196 224.0
97.027893 204.0
97.129868 204.0
97.273109 88.0
97.326111 184.0
97.405807 256.0
97.547119 216.0
97.754623 140.0
97.894386 180.0
97.914085 120.0
97.965294 184.0
98.002724 172.0
98.036224 184.0
98.146606 128.0
98.369392 204.0
98.375084 188.0
98.642143 144.0
98.808258 144.0
98.859703 192.0
98.93689 272.0
99.027977 204.0
99.05571 128.0
99.148827 140.0
99.414566 64.0
99.609138 132.0
99.764137 168.0
99.901352 120.0
100.054581 148.0
100.337479 132.0
100.395302 224.0
100.415245 188.0
100.518982 160.0
100.53894 196.0
100.55291 132.0
100.586838 100.0
100.722618 112.0
100.826515 36.0
101.156532 176.0
101.177887 168.0
101.224602 64.0
101.262566 184.0
101.364822 92.0
101.477066 156.0
101.509148 180.0
101.552513 160.0
101.792084 220.0
101.890503 116.0
101.918633 188.0
101.990974 204.0
102.007057 224.0
102.073402 168.0
102.15184 208.0
102.196098 112.0
102.248421 164.0
102.296722 124.0
102.715858 176.0
102.883347 132.0
102.929779 200.0
103.05426 3172.0
103.271317 96.0
103.287491 144.0
103.307724 76.0
103.441277 188.0
103.530365 136.0
103.574921 36.0
103.619492 76.0
103.641777 176.0
103.677666 180.0
103.729706 236.0
103.775543 192.0
104.05838 512.0
104.138786 168.0
104.240173 216.0
104.400955 168.0
104.429428 180.0
104.459938 84.0
104.559639 128.0
104.883476 140.0
105.028244 196.0
105.069763 2432.0
105.156784 52.0
105.311951 160.0
105.410011 68.0
105.528564 144.0
105.574409 124.0
105.718796 148.0
105.845711 192.0
105.895691 148.0
105.923531 148.0
106.005486 212.0
106.038231 196.0
106.070091 344.0
106.112068 36.0
106.20845 152.0
106.604683 144.0
106.723907 172.0
106.744469 192.0
106.841133 140.0
106.89669 56.0
107.018967 256.0
107.04731 556.0
107.084526 368.0
107.234428 176.0
107.269463 96.0
107.463318 200.0
107.47776 68.0
107.531418 168.0
107.663544 224.0
107.684196 140.0
107.723442 92.0
107.752365 228.0
107.843285 212.0
107.954926 196.0
108.033524 152.0
108.064789 176.0
108.103867 168.0
108.375122 140.0
108.51606 256.0
108.551308 160.0
108.608337 224.0
108.630119 164.0
108.667465 256.0
108.69236 204.0
108.723488 48.0
109.02874 792.0
109.060242 224.0
109.374016 180.0
109.486443 140.0
109.540749 164.0
109.56768 96.0
109.601013 196.0
109.644775 220.0
109.809479 172.0
109.892921 276.0
110.018135 144.0
110.070335 184.0
110.093307 172.0
110.185211 196.0
110.312683 208.0
110.384888 188.0
110.564545 248.0
110.626465 148.0
110.775146 112.0
110.800285 132.0
110.814949 216.0
110.944885 156.0
111.314148 148.0
111.517929 232.0
111.635658 200.0
111.738724 148.0
111.810265 48.0
111.854683 156.0
112.029243 200.0
112.086128 112.0
112.261086 132.0
112.307487 140.0
112.514282 168.0
112.569176 156.0
112.634651 244.0
112.676903 204.0
112.708595 184.0
112.788895 188.0
112.83963 160.0
112.862137 180.0
113.176041 124.0
113.225449 216.0
113.264984 180.0
113.305237 60.0
113.349731 240.0
113.38575 236.0
113.426025 128.0
113.44722 52.0
113.483261 144.0
113.646576 136.0
113.672043 184.0
113.695381 176.0
113.765427 160.0
113.78878 140.0
113.839737 228.0
113.897079 124.0
113.91407 64.0
113.954437 132.0
114.162743 128.0
114.2024 240.0
114.247818 136.0
114.277603 192.0
114.447876 176.0
114.498985 180.0
114.535194 172.0
114.66729 144.0
114.686478 60.0
115.019218 152.0
115.052788 3672.0
115.08326 132.0
115.140915 116.0
115.213539 72.0
115.45079 160.0
115.549187 64.0
115.628357 64.0
115.780357 112.0
116.011765 152.0
116.058388 804.0
116.161873 96.0
116.254128 116.0
116.507484 176.0
116.571945 216.0
116.599876 152.0
116.649315 168.0
116.668663 168.0
116.709511 132.0
116.776176 184.0
116.812767 300.0
116.840706 100.0
116.857918 176.0
116.89019 152.0
116.905258 152.0
116.943993 96.0
116.98101 224.0
117.026009 164.0
117.057945 4844.0
117.107628 160.0
117.131317 132.0
117.327415 132.0
117.344666 84.0
117.41935 176.0
117.516754 152.0
117.553886 80.0
117.57547 104.0
117.648849 164.0
117.733063 168.0
117.771935 48.0
117.787056 196.0
117.854164 124.0
117.934998 136.0
118.037895 184.0
118.06469 1208.0
118.093979 220.0
118.178345 92.0
118.24543 128.0
118.444626 108.0
118.51828 144.0
118.622932 124.0
118.674339 160.0
118.743729 132.0
118.782768 52.0
118.873894 160.0
118.939003 120.0
118.958534 64.0
118.975899 104.0
119.0215 128.0
119.052872 356.0
119.083015 524.0
119.140945 160.0
119.269157 144.0
119.28437 184.0
119.456161 172.0
119.49749 144.0
119.567123 176.0
119.623711 204.0
119.745644 148.0
119.784851 204.0
119.841492 188.0
120.00248 172.0
120.014183 192.0
120.037666 176.0
120.080917 8020.0
120.113998 120.0
120.164177 140.0
120.196899 64.0
120.253639 188.0
120.271744 68.0
120.358429 104.0
120.419571 184.0
120.454521 44.0
120.541908 60.0
120.59436 84.0
120.720161 132.0
120.81958 52.0
120.914131 228.0
121.003418 60.0
121.065231 1284.0
121.08577 808.0
121.204918 176.0
121.283813 88.0
121.375893 76.0
121.478966 124.0
121.505295 64.0
121.548759 188.0
121.571121 156.0
121.632576 136.0
121.741692 228.0
121.775291 140.0
121.963303 272.0
122.001617 76.0
122.068588 400.0
122.126953 140.0
122.151146 184.0
122.181946 92.0
122.239151 156.0
122.377823 76.0
122.430672 292.0
122.53199 160.0
122.668625 120.0
122.717125 168.0
122.895775 236.0
123.028191 180.0
123.048065 64.0
123.17173 192.0
123.291039 124.0
123.352921 176.0
123.576546 136.0
123.600624 32.0
123.662582 224.0
123.733421 228.0
124.056854 220.0
124.074593 84.0
124.103416 192.0
124.205429 76.0
124.371597 180.0
124.431778 148.0
124.49173 132.0
124.546455 168.0
124.598343 40.0
124.676109 196.0
124.729454 152.0
124.851692 216.0
124.89399 188.0
125.047516 188.0
125.176636 100.0
125.374893 216.0
125.459595 108.0
125.490807 144.0
125.593384 120.0
125.620155 204.0
125.667 112.0
125.771355 168.0
126.001892 148.0
126.089035 44.0
126.127029 212.0
126.281311 84.0
126.303673 152.0
126.538643 200.0
126.603584 52.0
126.648376 152.0
126.845551 104.0
126.926262 152.0
126.998024 144.0
127.044846 224.0
127.103462 208.0
127.157326 172.0
127.238129 212.0
127.35041 228.0
127.433525 68.0
127.602081 172.0
127.680786 144.0
127.723518 216.0
128.047623 280.0
128.065643 100.0
128.094025 180.0
128.286469 200.0
128.320282 132.0
128.36055 200.0
128.369156 172.0
128.525528 172.0
129.033707 168.0
129.067627 192.0
129.34816 100.0
129.595001 192.0
129.610855 72.0
129.776321 160.0
129.846619 176.0
129.916931 180.0
129.941895 132.0
130.064713 15472.0
130.15036 132.0
130.184753 100.0
130.230179 44.0
130.249741 52.0
130.281601 100.0
130.298325 180.0
130.330139 116.0
130.380127 104.0
130.40834 164.0
130.466492 152.0
130.486954 40.0
130.539261 64.0
130.555176 36.0
130.573364 216.0
130.602936 108.0
130.662079 48.0
130.750824 60.0
130.770294 72.0
130.77858 40.0
130.785522 80.0
130.821381 128.0
130.882843 108.0
130.9375 28.0
131.051071 1768.0
131.069 1516.0
131.17218 184.0
131.315826 88.0
131.356888 60.0
131.397949 172.0
131.514328 180.0
131.548569 120.0
131.575958 96.0
131.601074 160.0
131.63121 228.0
131.682129 144.0
131.722107 144.0
131.742676 36.0
131.774658 176.0
131.790649 144.0
131.866348 124.0
131.918457 352.0
131.952988 148.0
131.987106 172.0
132.045425 468.0
132.081161 94500.0
132.129517 180.0
132.169418 108.0
132.195374 64.0
132.211395 104.0
132.237854 128.0
132.265747 136.0
132.271805 196.0
132.28978 148.0
132.318039 312.0
132.339661 184.0
132.388687 80.0
132.432098 120.0
132.457794 492.0
132.559799 76.0
132.592422 160.0
132.631241 76.0
132.666656 116.0
132.696991 32.0
132.811661 108.0
132.840424 88.0
132.92865 148.0
132.982681 156.0
133.03653 140.0
133.084229 8072.0
133.156464 68.0
133.176605 164.0
133.221176 108.0
133.24321 104.0
133.283493 64.0
133.348923 48.0
133.39119 228.0
133.420166 172.0
133.477646 168.0
133.513794 84.0
133.620255 52.0
133.636353 124.0
133.661667 192.0
133.721497 224.0
133.742218 52.0
133.82164 120.0
133.868835 100.0
133.932068 168.0
133.951477 232.0
133.985107 100.0
134.022324 184.0
134.042313 176.0
134.072815 404.0
134.092896 176.0
134.115509 112.0
134.133789 84.0
134.189407 64.0
134.206696 124.0
134.235229 112.0
134.254425 112.0
134.279053 64.0
134.31134 148.0
134.396698 128.0
134.433609 56.0
134.586731 72.0
134.678329 80.0
134.712982 120.0
134.747635 96.0
134.773056 184.0
134.803085 172.0
134.823883 200.0
134.925583 116.0
135.044342 168.0
135.082169 580.0
135.154556 68.0
135.192429 164.0
135.455521 96.0
135.508804 124.0
135.603821 96.0
135.752182 268.0
135.824081 60.0
135.909912 96.0
135.986496 56.0
136.050858 148.0
136.104889 144.0
136.341827 136.0
136.39064 148.0
136.532455 68.0
136.858231 112.0
136.935089 224.0
137.093506 152.0
137.679047 124.0
137.812195 172.0
137.851913 216.0
138.221375 164.0
139.072067 192.0
139.255203 176.0
139.471359 292.0
139.497223 116.0
139.626541 112.0
139.680634 36.0
139.718277 48.0
139.918304 236.0
140.047821 188.0
140.248093 120.0
140.292404 216.0
140.373047 232.0
140.456604 84.0
140.580826 140.0
140.996262 72.0
141.029358 84.0
141.147552 132.0
141.448013 36.0
141.537979 216.0
141.706146 140.0
141.732208 132.0
141.841217 116.0
142.063126 1356.0
142.149536 156.0
142.185135 64.0
142.201736 148.0
142.218353 136.0
142.244461 152.0
142.265839 172.0
142.45343 32.0
142.641159 132.0
142.688705 96.0
142.712479 56.0
142.840759 212.0
142.849365 200.0
143.050629 520.0
143.074661 336.0
143.348007 176.0
143.536316 168.0
143.803513 60.0
144.051834 116.0
144.080429 276.0
144.1689 108.0
144.300369 116.0
144.802872 148.0
144.982559 88.0
145.006516 76.0
145.030487 204.0
145.063339 944.0
145.433441 188.0
145.870605 60.0
145.937912 200.0
145.971588 52.0
146.058167 224.0
146.241028 108.0
146.587814 160.0
147.041931 180.0
147.079102 1312.0
147.10762 184.0
147.205353 156.0
147.413086 152.0
147.480759 144.0
147.54361 104.0
147.594376 144.0
147.654831 52.0
147.686279 256.0
147.8992 144.0
148.074539 548.0
148.422485 120.0
148.512207 68.0
148.88353 192.0
148.970978 132.0
149.058029 1160.0
149.082092 232.0
149.158081 104.0
149.187256 188.0
149.245605 172.0
149.265045 164.0
149.374496 120.0
149.578888 164.0
149.68602 164.0
149.746628 212.0
149.885757 64.0
150.005173 76.0
150.022232 244.0
150.06485 324.0
150.0905 340.0
150.246231 116.0
150.341751 52.0
150.793564 124.0
150.893784 176.0
150.984253 104.0
151.072464 508.0
151.317032 180.0
151.412521 196.0
151.473755 224.0
151.552155 56.0
151.635468 220.0
151.69429 144.0
151.905182 96.0
151.924805 104.0
152.079391 132.0
152.361786 148.0
152.393723 184.0
152.504303 132.0
152.597717 36.0
152.784637 212.0
152.907654 132.0
152.981506 108.0
153.131699 180.0
153.217911 196.0
153.301682 168.0
153.41507 100.0
153.592606 172.0
153.923309 108.0
154.051743 128.0
154.123383 120.0
154.462082 168.0
154.526398 152.0
154.543716 184.0
154.702103 96.0
155.058365 164.0
155.083572 152.0
155.172806 184.0
155.502731 132.0
155.860321 148.0
156.054184 176.0
156.38504 188.0
156.634033 188.0
156.718735 56.0
157.060272 160.0
157.115143 148.0
157.140091 288.0
157.289825 76.0
157.467102 76.0
157.939484 112.0
158.05867 328.0
158.122131 136.0
158.430115 40.0
158.477707 92.0
158.575439 132.0
158.592987 80.0
158.680725 108.0
159.075684 132.0
159.272949 148.0
159.886429 196.0
159.929214 152.0
160.074753 5368.0
160.362411 176.0
160.438034 36.0
160.619598 152.0
160.642303 84.0
160.740692 68.0
160.854263 96.0
160.972931 144.0
161.023438 184.0
161.05838 1760.0
161.152267 124.0
161.344345 176.0
161.44043 176.0
161.508713 136.0
161.551712 112.0
161.587128 256.0
161.746552 200.0
161.792114 136.0
161.923782 188.0
162.064301 360.0
162.146729 224.0
162.280609 108.0
162.659073 156.0
162.70224 144.0
163.037598 216.0
163.075439 2688.0
163.218002 156.0
163.546173 136.0
164.007187 248.0
164.059723 224.0
164.077637 596.0
164.19841 120.0
165.018082 144.0
165.051331 168.0
165.080994 364.0
165.207336 232.0
165.266174 108.0
165.448425 76.0
165.506775 80.0
165.598969 208.0
165.724487 172.0
165.896194 64.0
165.926956 116.0
166.084641 456.0
166.191132 136.0
166.211655 48.0
166.889755 100.0
167.03891 124.0
167.07605 260.0
167.216446 104.0
167.324554 72.0
167.453308 128.0
167.615601 92.0
167.659409 48.0
167.863068 180.0
168.025558 136.0
168.330124 76.0
168.428253 204.0
168.446335 176.0
168.629791 144.0
168.883163 204.0
169.048752 172.0
169.092743 136.0
169.235107 68.0
169.40863 140.0
169.460449 184.0
169.802612 128.0
169.883026 128.0
169.95047 216.0
170.059372 1100.0
170.352875 136.0
170.701828 76.0
170.888428 172.0
170.953476 136.0
171.040009 376.0
171.063583 292.0
171.393539 140.0
171.607269 192.0
171.909836 76.0
172.071671 188.0
172.772064 92.0
172.908127 128.0
173.010208 100.0
173.05928 1972.0
173.096619 112.0
173.151611 228.0
173.455536 216.0
173.746613 184.0
173.932938 136.0
174.065933 408.0
174.132477 212.0
174.187637 76.0
174.334763 184.0
174.474075 68.0
174.771271 144.0
174.95813 168.0
174.987091 84.0
175.041382 304.0
175.074661 2172.0
175.110092 84.0
175.167831 132.0
175.471848 44.0
175.543045 44.0
175.577332 52.0
175.722412 116.0
175.809479 68.0
176.076508 304.0
176.105164 116.0
176.200272 116.0
176.255753 244.0
176.340317 36.0
176.387894 132.0
176.435471 232.0
176.678772 200.0
176.729034 128.0
176.916946 148.0
177.020203 96.0
177.054031 2056.0
177.115555 104.0
177.245361 28.0
177.310089 132.0
177.325745 84.0
177.407028 160.0
177.462708 128.0
177.638824 88.0
177.786316 176.0
177.964157 72.0
178.054398 200.0
178.086624 2896.0
178.154053 184.0
178.227112 120.0
178.245712 152.0
178.312149 52.0
178.346695 48.0
178.49292 160.0
178.524048 68.0
178.671112 128.0
178.764236 176.0
178.899979 148.0
179.038864 148.0
179.059662 136.0
179.087616 360.0
179.142319 124.0
179.30751 72.0
179.382141 188.0
179.566116 164.0
180.077805 104.0
180.300034 160.0
180.335037 156.0
180.385818 84.0
180.452652 272.0
180.506134 256.0
180.597061 184.0
180.714767 136.0
180.80574 88.0
180.875336 140.0
180.97171 164.0
181.116318 144.0
181.15918 208.0
181.183289 60.0
181.547806 216.0
181.703384 196.0
182.503754 132.0
182.592484 172.0
182.850754 68.0
182.872299 224.0
183.117294 136.0
183.362396 144.0
183.623978 176.0
183.928864 132.0
184.355209 144.0
184.59375 192.0
184.677307 68.0
184.766571 84.0
185.07782 124.0
185.259277 140.0
185.543823 140.0
185.633301 156.0
186.064713 128.0
186.420532 144.0
186.447708 132.0
186.55098 284.0
186.616226 212.0
186.665176 144.0
187.285675 144.0
187.789902 112.0
188.069412 1228.0
188.244492 188.0
188.363098 100.0
188.890656 92.0
189.052536 792.0
189.506622 132.0
189.972672 108.0
190.06189 940.0
190.325378 152.0
190.40361 104.0
190.711319 100.0
190.739334 188.0
190.82402 112.0
190.978012 196.0
191.006989 128.0
191.036392 328.0
191.070862 7592.0
191.233902 32.0
191.266922 52.0
191.303421 108.0
191.371536 64.0
191.396317 100.0
191.454147 76.0
191.500961 64.0
191.534012 108.0
191.596375 88.0
191.619415 84.0
191.646957 156.0
192.030136 128.0
192.074951 668.0
192.110123 64.0
192.248077 148.0
192.537949 68.0
192.631851 76.0
192.651199 148.0
192.721649 208.0
192.75618 148.0
192.897141 164.0
193.082382 48.0
193.134125 192.0
193.203049 64.0
193.228989 112.0
193.414398 112.0
193.550049 148.0
193.666351 96.0
193.710678 176.0
194.009964 192.0
194.356644 240.0
194.401031 164.0
194.809174 188.0
195.365158 124.0
195.412445 128.0
195.741638 148.0
196.091888 100.0
196.289825 96.0
196.619003 268.0
197.185928 172.0
197.253021 176.0
197.4767 144.0
197.888062 132.0
198.058884 180.0
198.095291 100.0
198.692398 92.0
198.877609 176.0
199.155579 152.0
199.17804 196.0
199.340988 152.0
200.066635 184.0
200.215866 136.0
200.593414 132.0
200.926178 184.0
200.957214 136.0
201.052063 1040.0
201.084641 164.0
201.123718 284.0
201.620789 244.0
201.714066 144.0
202.05777 176.0
202.107162 128.0
202.313766 100.0
202.452515 128.0
202.472336 192.0
202.659286 136.0
202.937057 176.0
203.070511 3968.0
203.195145 120.0
203.302963 80.0
203.870926 36.0
204.037155 108.0
204.074387 320.0
204.485214 72.0
204.584839 140.0
204.664551 120.0
204.787003 172.0
204.94368 104.0
205.045486 304.0
205.071014 432.0
205.12439 156.0
205.154587 92.0
205.282883 160.0
205.351334 160.0
205.411224 84.0
205.655182 112.0
205.942139 112.0
206.079803 3512.0
206.127823 128.0
206.150681 40.0
206.173553 188.0
206.213562 136.0
206.386337 100.0
206.479446 180.0
206.591003 152.0
206.622467 268.0
206.651077 172.0
206.739777 144.0
206.957321 56.0
207.020325 192.0
207.064484 480.0
207.085663 572.0
207.16066 124.0
207.240875 96.0
207.350464 132.0
207.521759 60.0
207.73111 44.0
208.082748 108.0
208.170242 132.0
208.267883 108.0
208.313843 56.0
208.66362 208.0
208.727692 184.0
208.920395 300.0
208.983688 112.0
209.035675 180.0
209.156357 160.0
209.219681 116.0
209.288788 120.0
210.56337 160.0
210.589355 52.0
210.678665 192.0
210.970779 104.0
211.152939 192.0
211.291779 148.0
211.358322 76.0
211.433563 124.0
211.6362 232.0
211.705688 92.0
212.070724 200.0
212.122894 136.0
212.24176 44.0
212.436081 160.0
212.859818 72.0
213.048599 248.0
213.086365 124.0
213.557281 148.0
213.749298 220.0
213.769669 96.0
214.124817 124.0
214.197632 56.0
214.325821 124.0
214.556076 148.0
214.834167 100.0
214.876877 96.0
214.897293 204.0
215.072388 132.0
215.107422 128.0
215.133682 160.0
215.700394 296.0
215.861191 136.0
216.041031 156.0
216.355652 128.0
216.507904 140.0
216.639709 140.0
216.671936 124.0
217.050171 1024.0
217.08522 116.0
217.457794 212.0
217.557602 180.0
217.680908 72.0
217.769012 40.0
217.81601 56.0
217.887329 128.0
217.983475 140.0
218.055359 720.0
218.133362 164.0
218.175262 188.0
218.280365 144.0
218.316513 176.0
218.436234 92.0
218.474472 100.0
218.515656 128.0
218.624527 132.0
218.69696 92.0
218.809967 68.0
218.889465 132.0
218.989594 196.0
219.015625 196.0
219.065079 43404.0
219.154831 44.0
219.209305 76.0
219.26358 52.0
219.292084 72.0
219.311676 76.0
219.342896 256.0
219.4142 96.0
219.478775 56.0
219.525955 124.0
219.579041 80.0
219.628967 56.0
219.640533 52.0
219.692307 72.0
219.728424 56.0
219.815048 172.0
219.865509 120.0
219.966446 80.0
219.990906 68.0
220.009842 232.0
220.068008 5568.0
220.111374 72.0
220.289017 88.0
220.329208 56.0
220.361282 88.0
220.402649 68.0
220.54155 56.0
220.671616 36.0
220.720291 104.0
220.781021 92.0
220.884537 88.0
221.017075 100.0
221.072006 720.0
221.114395 64.0
221.183395 148.0
221.231552 60.0
221.25354 132.0
221.282318 96.0
221.405441 84.0
221.466583 116.0
221.491333 60.0
221.618729 56.0
221.648361 144.0
221.672058 108.0
221.694656 156.0
221.729233 136.0
221.781326 124.0
221.949539 92.0
221.992203 104.0
222.075241 136.0
222.184998 68.0
222.205765 104.0
222.416458 68.0
222.669617 136.0
222.741699 120.0
222.808441 36.0
222.861923 88.0
222.906494 40.0
222.995636 40.0
223.022385 88.0
223.256271 156.0
223.307816 48.0
223.397049 48.0
223.447632 72.0
223.551773 40.0
223.736298 96.0
224.338058 244.0
224.403656 92.0
224.543808 48.0
225.107834 116.0
225.346786 48.0
225.478256 220.0
226.043457 48.0
226.09433 128.0
226.53746 96.0
227.437027 224.0
227.758301 128.0
228.064789 128.0
228.112869 44.0
228.774673 128.0
229.042679 152.0
229.081833 160.0
229.119598 4464.0
229.380157 52.0
229.669617 84.0
229.738571 56.0
229.943008 196.0
229.974365 80.0
230.123184 680.0
230.234009 212.0
230.463577 80.0
230.502853 52.0
230.608627 240.0
230.632812 88.0
230.681168 52.0
230.726517 100.0
230.774887 136.0
230.796051 36.0
230.832336 188.0
230.883743 160.0
230.904922 44.0
230.998688 148.0
231.064972 20984.0
231.145889 116.0
231.171127 136.0
231.213501 132.0
231.30127 80.0
231.338303 160.0
231.431458 100.0
231.470108 52.0
231.697968 160.0
231.807053 164.0
231.870682 60.0
231.897964 56.0
231.961609 72.0
232.001022 32.0
232.067749 4072.0
232.155655 36.0
232.301239 44.0
232.352814 116.0
232.619858 76.0
232.729156 32.0
233.071808 480.0
233.115891 184.0
233.285126 64.0
233.488831 84.0
233.580078 120.0
233.616592 148.0
233.689606 64.0
233.763519 136.0
233.809067 76.0
234.033524 60.0
234.111206 140.0
234.246719 212.0
234.362473 120.0
234.523987 80.0
234.798386 72.0
234.920395 132.0
235.05159 144.0
235.26828 132.0
235.463699 36.0
235.787537 144.0
236.993195 144.0
237.054474 180.0
237.077591 200.0
237.819168 232.0
237.986954 148.0
238.076004 156.0
239.392181 156.0
239.604706 164.0
240.085541 188.0
240.869492 56.0
241.144485 52.0
241.172302 248.0
241.25267 168.0
241.719681 52.0
242.081863 200.0
242.955902 132.0
243.021057 132.0
243.216568 80.0
243.381104 112.0
243.657425 140.0
244.114426 140.0
244.612213 108.0
244.823929 136.0
244.873764 72.0
244.914261 136.0
245.076782 208.0
245.114029 296.0
245.141678 148.0
245.80899 76.0
246.082962 364.0
246.12085 176.0
246.649109 128.0
247.058167 3064.0
247.205795 76.0
247.371674 36.0
247.537613 64.0
247.988739 192.0
248.062454 288.0
248.095306 84.0
248.201904 64.0
248.700714 64.0
249.060638 152.0
249.247147 160.0
249.668381 108.0
249.801331 68.0
249.844513 168.0
251.16124 156.0
251.195938 68.0
251.735641 164.0
251.798798 160.0
252.468781 44.0
252.544678 132.0
252.759796 200.0
252.819931 48.0
252.883224 128.0
253.088989 140.0
253.190323 116.0
253.59584 76.0
253.687775 28.0
253.884354 176.0
254.100037 156.0
254.338043 200.0
254.700012 236.0
254.87793 72.0
255.103577 144.0
255.981689 176.0
256.105896 100.0
256.803894 148.0
257.074677 124.0
257.120544 176.0
257.461365 100.0
257.787201 112.0
257.934204 104.0
258.067322 260.0
258.202789 60.0
258.273132 184.0
258.298737 192.0
258.506683 128.0
258.740356 196.0
258.9935 152.0
259.059692 23000.0
259.135254 636.0
259.175934 72.0
259.201569 44.0
259.251404 72.0
259.300903 104.0
259.329742 124.0
259.358582 56.0
259.384216 88.0
259.435913 100.0
259.506042 64.0
259.534912 136.0
259.679199 36.0
259.731232 56.0
259.804321 48.0
259.826782 192.0
259.849213 100.0
260.000031 176.0
260.061523 3184.0
260.097565 148.0
260.141266 172.0
260.232208 80.0
260.316833 152.0
260.404541 68.0
260.94632 120.0
261.018341 44.0
261.066162 624.0
261.098755 68.0
261.134125 112.0
261.34967 40.0
261.375397 32.0
261.409241 124.0
261.523438 68.0
261.587158 80.0
261.619995 56.0
261.65863 92.0
261.684387 88.0
261.816406 68.0
261.845398 108.0
261.90271 140.0
261.964569 56.0
262.022552 156.0
262.061218 40.0
262.08847 152.0
262.238464 56.0
262.280365 88.0
263.319275 108.0
263.745758 88.0
263.897705 56.0
263.984985 108.0
264.356995 156.0
264.638611 60.0
265.082367 104.0
265.22821 60.0
265.61731 120.0
266.10733 68.0
266.740814 100.0
266.987915 144.0
268.655579 180.0
269.154907 244.0
269.955505 48.0
270.109222 200.0
270.305511 168.0
270.989838 104.0
271.343781 76.0
272.072113 148.0
272.105743 136.0
272.765228 200.0
273.08316 216.0
273.117401 508.0
273.712738 196.0
274.067841 768.0
274.089661 216.0
274.117279 948.0
274.73114 88.0
274.965393 180.0
275.08194 168.0
275.126648 2544.0
275.331848 56.0
275.609344 64.0
275.873718 48.0
275.9729 72.0
275.996063 80.0
276.090729 248.0
276.136017 688.0
276.896149 56.0
277.068573 504.0
277.135376 112.0
277.214172 108.0
277.39743 96.0
277.618591 124.0
277.767853 44.0
277.986816 96.0
278.068665 152.0
278.112946 140.0
279.355682 116.0
280.504517 116.0
280.936768 60.0
282.444519 160.0
282.685425 112.0
283.472351 88.0
285.311646 208.0
285.378876 76.0
285.96756 72.0
286.092102 128.0
286.206573 64.0
287.127167 2572.0
287.210846 68.0
287.960144 116.0
288.020935 32.0
288.081726 200.0
288.132751 544.0
288.345276 120.0
288.392609 172.0
288.561615 172.0
288.646149 120.0
289.115143 100.0
289.881683 108.0
290.091827 132.0
290.186737 116.0
290.729462 100.0
292.07486 208.0
292.190521 236.0
292.881561 144.0
293.117188 168.0
293.617737 96.0
293.969116 40.0
294.911713 72.0
297.062042 132.0
297.120361 124.0
298.752167 76.0
299.798859 116.0
300.047028 140.0
300.095306 160.0
302.745605 144.0
304.135864 176.0
305.035492 120.0
305.077209 140.0
305.125885 92.0
305.717194 32.0
306.110535 116.0
306.242889 108.0
307.096802 324.0
307.794739 128.0
308.133911 112.0
309.361053 92.0
310.103607 136.0
310.506805 120.0
310.643585 56.0
312.326141 76.0
312.611115 124.0
312.931427 40.0
314.655457 136.0
315.043915 156.0
315.121674 2460.0
315.24176 68.0
316.016144 60.0
316.125092 856.0
317.074921 60.0
317.131622 308.0
317.965088 76.0
318.146088 124.0
318.323639 32.0
318.430176 136.0
318.675262 96.0
319.066223 152.0
319.102875 180.0
319.26532 128.0
320.140747 156.0
321.114807 276.0
322.12735 280.0
323.131897 116.0
324.130859 184.0
324.991394 148.0
326.144165 84.0
326.474701 132.0
326.938995 136.0
328.928497 112.0
329.318451 168.0
329.372131 148.0
329.665283 84.0
329.849579 60.0
330.489716 96.0
330.627197 220.0
330.880585 40.0
330.905914 88.0
332.123535 172.0
332.149384 248.0
332.27951 160.0
332.965546 68.0
333.117249 168.0
333.303375 100.0
333.925018 140.0
334.077789 116.0
334.58728 92.0
334.73291 84.0
335.133575 116.0
336.136292 116.0
336.530487 100.0
336.603516 76.0
336.702118 60.0
338.131012 324.0
338.655151 48.0
339.147644 176.0
339.945618 112.0
340.53299 28.0
340.570282 104.0
341.275299 60.0
343.10141 88.0
343.337402 152.0
345.10614 100.0
347.424561 172.0
348.114899 88.0
348.211456 76.0
348.367462 152.0
349.110809 116.0
350.133484 484.0
350.596161 164.0
350.706451 224.0
350.853363 96.0
350.946564 84.0
350.987579 180.0
351.143921 456.0
351.968903 112.0
352.146027 300.0
352.413391 184.0
355.056122 32.0
356.185852 36.0
357.780273 108.0
359.661285 176.0
360.133545 160.0
360.741608 68.0
361.002502 60.0
361.104462 204.0
362.118896 204.0
363.142212 128.0
363.737915 104.0
365.273041 152.0
365.457001 124.0
366.03421 132.0
366.142578 164.0
366.617035 76.0
367.143127 128.0
367.467346 160.0
369.362152 168.0
371.910187 148.0
374.124298 124.0
375.12973 96.0
375.384186 104.0
376.429932 144.0
376.90506 84.0
376.939819 216.0
377.237427 48.0
377.474335 116.0
377.999329 172.0
378.054688 144.0
378.13266 4740.0
378.219055 212.0
378.332184 52.0
378.479431 80.0
378.537384 124.0
378.610107 36.0
378.897614 68.0
379.138428 1400.0
379.382019 56.0
379.622406 80.0
379.762024 52.0
380.142242 364.0
380.491547 104.0
380.802185 44.0
381.124603 164.0
381.229523 72.0
381.497711 92.0
382.014923 48.0
382.727112 104.0
386.661987 80.0
388.119232 148.0
388.393738 48.0
390.675995 152.0
392.901794 96.0
394.121765 164.0
395.232819 180.0
395.822601 108.0
396.143402 304.0
396.309784 72.0
399.553467 136.0
399.609192 76.0
399.684784 100.0
400.110626 60.0
402.119629 140.0
403.397797 88.0
406.024353 72.0
406.121582 668.0
406.21286 116.0
407.136658 172.0
407.188202 204.0
407.312714 68.0
407.819 108.0
408.136566 176.0
409.520905 88.0
410.238159 32.0
410.471985 124.0
410.697815 188.0
411.876434 148.0
412.075043 120.0
412.134888 320.0
412.195587 92.0
412.498718 124.0
412.543182 56.0
413.131042 196.0
414.076691 92.0
415.560303 108.0
417.384003 100.0
417.896515 48.0
419.036499 72.0
419.142426 140.0
419.30542 128.0
420.088287 80.0
420.161713 76.0
421.635742 176.0
421.737915 92.0
422.081329 188.0
422.232635 88.0
422.563965 144.0
422.633514 52.0
422.821747 136.0
422.864258 136.0
422.977295 92.0
423.12265 148.0
423.187012 140.0
423.250214 72.0
423.32785 128.0
423.580322 104.0
423.611969 32.0
423.640656 152.0
423.702118 84.0
423.812714 60.0
423.931549 124.0
423.993042 116.0
424.047058 152.0
424.138245 16452.0
424.244995 160.0
424.306976 140.0
424.341431 60.0
424.412689 96.0
424.464447 68.0
424.521851 184.0
424.62027 52.0
424.673615 52.0
424.730194 60.0
424.862274 120.0
424.948456 56.0
424.980408 76.0
425.009003 116.0
425.079742 88.0
425.140625 4780.0
425.241425 192.0
425.369873 156.0
425.414001 72.0
425.486084 64.0
425.52359 128.0
425.607849 116.0
425.716003 40.0
425.817688 148.0
425.888519 80.0
426.081573 52.0
426.142609 888.0
426.204834 136.0
426.451385 52.0
426.603485 72.0
426.685699 92.0
426.726807 56.0
426.755585 52.0
426.796722 48.0
426.966217 164.0
427.124512 180.0
427.153198 172.0
427.229248 72.0
427.389008 164.0
427.520691 168.0
427.618011 148.0
427.843445 124.0
427.878784 84.0
428.022888 100.0
428.134064 108.0
428.191711 64.0
428.368835 36.0
428.404999 92.0
428.694305 100.0
428.763306 56.0
428.958099 76.0
429.003448 92.0
430.897675 68.0
431.773987 60.0
433.595581 64.0
433.736481 80.0
434.189178 572.0
435.2034 140.0
436.85083 72.0
438.141327 168.0
439.354492 124.0
440.469055 100.0
440.631958 96.0
441.309052 132.0
444.328705 52.0
449.402679 92.0
452.207214 268.0
453.220703 96.0
459.227478 104.0
465.260925 92.0
467.861816 124.0
469.572449 60.0
470.819702 64.0
471.761627 124.0
477.367676 108.0
479.640289 76.0
480.132965 152.0
480.202026 980.0
480.255066 236.0
480.730621 148.0
481.207001 272.0
481.516418 136.0
482.045013 96.0
482.088715 64.0
482.190735 288.0
482.302856 156.0
482.350952 120.0
482.656982 48.0
482.888733 92.0
484.035309 76.0
486.148163 96.0
487.592987 64.0
491.053436 80.0
506.723114 112.0
507.485046 120.0
510.75885 92.0
518.184875 56.0
523.918274 80.0
530.246765 32.0
538.241943 72.0
539.531006 80.0
541.539246 120.0
541.798645 68.0
552.272278 68.0
553.587341 56.0
555.152527 60.0
557.330566 156.0
582.866882 52.0
583.371521 52.0
604.440552 72.0
609.107788 32.0
613.852173 76.0
623.346497 96.0
624.037354 68.0
624.295959 48.0
624.728638 88.0
633.845337 48.0
634.371521 96.0
636.247742 136.0
639.364136 124.0
639.595642 36.0
651.595764 60.0
653.761841 52.0
655.931519 80.0
656.925842 60.0
659.238708 92.0
661.965271 100.0
673.206421 36.0
680.839722 164.0
719.325867 96.0
723.591858 112.0
726.6521 140.0
732.953552 52.0
734.781311 212.0
741.806152 240.0
742.852722 160.0
751.448242 164.0
754.249695 76.0
763.064636 116.0
768.925598 144.0
771.311584 108.0
772.323486 36.0
774.099976 108.0
775.329773 196.0
780.397766 108.0
782.200256 128.0
783.319458 92.0
788.838257 96.0
799.950745 192.0
809.016724 132.0
810.44397 152.0
815.670715 36.0
819.768494 144.0
823.522339 172.0
834.852722 104.0
839.817139 136.0
846.712097 108.0
847.592651 184.0
852.490173 60.0
854.449585 112.0
858.311157 32.0
859.203491 76.0
859.331848 176.0
860.00293 108.0
865.82605 148.0
876.110901 196.0
887.517517 108.0
894.527832 136.0
895.71283 160.0
899.70813 80.0
900.82489 136.0
903.2099 128.0
903.897888 196.0
907.167969 152.0
912.847656 152.0
919.057922 152.0
926.530701 60.0
929.75647 80.0
929.817139 200.0
937.229858 188.0
937.516235 176.0
937.735657 160.0
939.906616 56.0
945.314453 120.0
945.791809 48.0
948.566589 152.0
949.351379 108.0
951.726074 172.0
952.14978 144.0
955.542786 204.0
956.927551 120.0
965.844788 168.0
967.323669 144.0
970.762207 196.0
970.87384 144.0
976.904785 216.0
981.338928 108.0
982.892029 68.0
987.214661 120.0
987.539856 112.0
990.099609 148.0
991.446533 212.0
995.530396 168.0
999.050171 72.0
999.50946 124.0
1001.013855 192.0
1004.05127 80.0
1006.442871 132.0
1011.025757 224.0
1011.278931 144.0
1013.888245 172.0
1016.951477 156.0
1017.424805 220.0
1018.526123 84.0
1019.498169 164.0
1022.149902 132.0
1023.040894 68.0
1023.276489 52.0
1023.658508 164.0
1025.505981 64.0
1025.767334 156.0
1032.247559 124.0
1033.187744 68.0
1037.35022 220.0
1038.318359 148.0
1040.525757 136.0
1040.904541 44.0
1043.358887 116.0
1049.243042 88.0
1051.771729 176.0
1052.468994 128.0
1053.457153 172.0
1054.865845 140.0
1055.182617 184.0
1058.618408 236.0
1060.283325 140.0
1063.221802 192.0
1064.155762 160.0
1065.201294 232.0
1066.435913 96.0
1066.598389 136.0
1073.049561 64.0
1074.784546 120.0
1075.149902 140.0
1075.698242 156.0
1079.814575 120.0
1080.102417 144.0
1082.144165 152.0
1086.102295 208.0
1086.226807 68.0
1093.381958 176.0
1095.278076 140.0
1096.477295 196.0
1097.795776 48.0
1099.200806 176.0
1104.4198 176.0
1109.836914 124.0
1113.951538 136.0
1114.390015 108.0
1116.696777 88.0
1121.170654 80.0
1122.683838 180.0
1125.994019 64.0
1127.042725 132.0
1127.203125 44.0
1128.574097 176.0
1130.459717 180.0
1130.934814 120.0
1132.65564 52.0
1134.694092 196.0
1134.887207 176.0
1135.041504 76.0
1135.21582 108.0
1135.80603 100.0
1137.72522 216.0
1139.793823 216.0
1141.077515 144.0
1142.483154 112.0
1145.236206 228.0
1148.019653 188.0
1148.410767 160.0
1148.909912 44.0
1149.119019 148.0
1150.300049 188.0
1152.150391 44.0
1153.211182 64.0
1154.424438 236.0
1154.827148 180.0
1155.307373 168.0
1158.86853 204.0
1159.363159 160.0
1159.546143 136.0
1161.071533 164.0
1163.935181 108.0
1164.166016 200.0
1165.742065 216.0
1165.973145 196.0
1166.312866 40.0
1170.061157 192.0
1171.423096 44.0
1171.668335 232.0
1172.547363 172.0
1172.806274 220.0
1175.404663 104.0
1176.216797 160.0
1180.473145 192.0
1183.189453 40.0
1183.983643 188.0
1185.093384 112.0
1185.305786 244.0
1188.85791 176.0
1189.44812 188.0
1191.123535 180.0
1192.484009 136.0
1192.690186 184.0
1193.350098 220.0
1196.927979 204.0
1201.807983 180.0
1202.035767 132.0
1202.270386 124.0
1202.594727 104.0
1208.43396 48.0
1211.81958 156.0
1212.394653 124.0
1213.517578 124.0
1213.843506 56.0
1214.079224 88.0
1215.355591 120.0
1217.00061 180.0
1217.264404 244.0
1217.431152 156.0
1217.514404 112.0
1220.064453 164.0
1222.389404 228.0
1223.681641 284.0
1224.41333 144.0
1226.580078 96.0
1228.686157 140.0
1229.523438 144.0
1229.795654 148.0
1231.939209 128.0
1232.980347 96.0
1234.144287 20.0
1234.672119 208.0
1237.716187 148.0
1239.551392 116.0
1240.42041 128.0
1241.023315 212.0
1241.170532 136.0
1242.440063 148.0
1243.057495 88.0
1244.615723 260.0
1245.100342 164.0
1245.901001 124.0
1246.006348 116.0
1248.698608 252.0
1249.556763 124.0
1250.54895 196.0
1255.235107 240.0
1257.477051 136.0
1257.752319 164.0
1259.877808 56.0
1260.450195 156.0
1261.234619 176.0
1261.361816 64.0
1262.351562 84.0
1262.69104 220.0
1266.314697 140.0
1267.100952 148.0
1267.320557 200.0
1268.759277 140.0
1269.581787 172.0
1269.723633 100.0
1270.305298 112.0
1272.384521 108.0
1273.02356 160.0
1276.825562 140.0
1277.109985 152.0
1278.774902 160.0
1278.838989 216.0
1279.194824 120.0
1279.714478 188.0
1280.405273 184.0
1280.854004 152.0
1281.381104 136.0
1281.737305 164.0
1282.998901 80.0
1284.574829 164.0
1286.808594 160.0
1287.843994 104.0
1289.415771 116.0
1290.681152 192.0
1290.745483 116.0
1291.710938 88.0
1292.240356 72.0
1292.891479 156.0
1294.71582 120.0
1294.824463 268.0
1295.01062 140.0
1297.934448 144.0
1298.515381 64.0
1298.888306 160.0
1299.462158 268.0
1299.770752 192.0
1300.97644 244.0
1302.322876 136.0
1302.599365 84.0
1303.310547 160.0
1303.389648 108.0
1303.454346 28.0
1303.878296 212.0
1304.050781 164.0
1304.755249 144.0
1306.423584 128.0
1308.553833 204.0
1309.727661 120.0
1310.188721 152.0
1310.476807 208.0
1310.527344 188.0
1311.925415 276.0
1312.999756 220.0
1313.374756 36.0
1314.197266 224.0
1314.673462 148.0
1314.723999 156.0
1316.312134 216.0
1316.485352 116.0
1318.508179 80.0
1318.734741 204.0
1321.783936 140.0
1321.885254 172.0
1322.210938 232.0
1322.348511 108.0
1322.732056 168.0
1323.122925 196.0
1324.354004 108.0
1324.477173 156.0
1324.788574 76.0
1325.331909 152.0
1325.694214 88.0
1326.121826 196.0
1327.093262 176.0
1329.087891 152.0
1329.196655 184.0
1329.252686 136.0
1330.408691 120.0
1331.352661 160.0
1331.614136 156.0
1331.701294 228.0
1331.810181 200.0
1332.485718 188.0
1333.626587 160.0
1333.851929 124.0
1334.36084 164.0
1336.557373 172.0
1337.243774 232.0
1338.340576 176.0
1340.234375 116.0
1342.224243 192.0
1342.800293 216.0
1342.90979 76.0
1343.150391 184.0
1345.872559 108.0
1346.55896 68.0
1346.821899 212.0
1348.16626 116.0
1349.533081 92.0
1351.127441 48.0
1351.57373 172.0
1352.979004 280.0
1355.776978 164.0
1356.033447 204.0
1356.23877 116.0
1357.32373 208.0
1359.671143 108.0
1359.972046 132.0
1361.954468 140.0
1362.373169 144.0
1362.872803 200.0
1363.0271 144.0
1364.269165 136.0
1364.49707 144.0
1365.12207 212.0
1365.725098 108.0
1367.446777 200.0
1368.49939 204.0
1369.861816 152.0
1370.362793 184.0
1371.29126 148.0
1373.075439 224.0
1373.599121 152.0
1373.672852 144.0
1374.181885 140.0
1374.233521 176.0
1374.823853 180.0
1377.370972 120.0
1378.360962 236.0
1378.723145 108.0
1379.831787 68.0
1379.883545 184.0
1381.939697 180.0
1381.991455 176.0
1382.479858 88.0
1382.8573 172.0
1383.034912 132.0
1383.234741 204.0
1383.71167 140.0
1383.849243 152.0
1385.915649 180.0
1386.397339 200.0
1387.434937 104.0
1387.9021 36.0
1388.487915 212.0
1388.547241 188.0
1388.791992 176.0
1389.355713 56.0
1389.422485 72.0
1390.624634 132.0
1390.89917 156.0
1391.849487 124.0
1392.710938 204.0
1393.052612 128.0
1393.130005 136.0
1394.018433 156.0
1394.672485 220.0
1395.192871 144.0
1395.624023 204.0
1396.189209 292.0
1396.390015 80.0
1398.084473 88.0
1398.257324 164.0
1398.830444 164.0
1399.665039 128.0
1401.012329 140.0
1407.202393 220.0
1407.963989 144.0
1409.510254 184.0
1410.608887 212.0
1413.690308 152.0
1414.062866 148.0
1415.022705 124.0
1415.2323 140.0
1415.464478 144.0
1416.085938 168.0
1416.798462 204.0
1417.344482 56.0
1417.456909 60.0
1417.839111 128.0
1417.966553 216.0
1418.213867 48.0
1420.028198 100.0
1420.500854 144.0
1421.963867 192.0
1422.774536 64.0
1422.857178 40.0
1423.420288 72.0
1423.562988 180.0
1424.283936 164.0
1424.374023 172.0
1425.065186 56.0
1425.335693 180.0
1426.966675 164.0
1427.13208 168.0
1427.447876 172.0
1427.741211 204.0
1428.169922 160.0
1428.440674 176.0
1428.606201 72.0
1429.456299 148.0
1429.93042 76.0
1431.910522 116.0
1432.693848 176.0
1433.062988 168.0
1433.198608 204.0
1437.036377 132.0
1439.021362 156.0
1440.131348 236.0
1440.992554 36.0
1441.96936 144.0
1443.161743 224.0
1444.175049 104.0
1444.432251 144.0
1446.01355 160.0
1446.233032 164.0
1446.56604 200.0
1447.701782 120.0
1448.080444 244.0
1448.489502 176.0
1448.981812 116.0
1449.959351 216.0
1450.148804 120.0
1450.376221 140.0
1451.285889 80.0
1451.460327 140.0
1451.558838 128.0
1452.226196 212.0
1453.381592 196.0
1453.546265 208.0
1453.804199 160.0
1454.183716 88.0
1454.479736 68.0
1454.744385 160.0
1455.656494 200.0
1456.438721 148.0
1457.304688 200.0
1457.753052 144.0
1457.828979 220.0
1458.741089 192.0
1459.242798 104.0
1459.326416 204.0
1459.417725 32.0
1459.95752 148.0
1460.459473 124.0
1460.778931 212.0
1463.191284 140.0
1463.320801 152.0
1463.442627 160.0
1463.724365 200.0
1463.785278 388.0
1463.884277 176.0
1464.714355 132.0
1465.140991 124.0
1465.979126 164.0
1466.619263 196.0
1467.160522 188.0
1467.245117 144.0
1468.05249 164.0
1468.860962 140.0
1468.921997 204.0
1469.562866 112.0
1470.760986 156.0
1471.486206 236.0
1472.223145 224.0
1472.402466 132.0
1472.455933 100.0
1473.143311 164.0
1473.196777 160.0
1475.260132 104.0
1475.313599 164.0
1475.917603 156.0
1476.169922 168.0
1476.632202 176.0
1476.965332 156.0
1477.049438 136.0
1477.477783 204.0
1477.531372 92.0
1478.556641 152.0
1478.633179 124.0
1478.725098 128.0
1480.669678 144.0
1480.930054 144.0
1481.351318 172.0
1481.489258 152.0
1483.068848 140.0
1483.236328 108.0
1483.573608 160.0
1484.08728 112.0
1484.394043 172.0
1484.946167 172.0
1486.779785 208.0
1488.384155 224.0
1488.491577 232.0
1489.006104 176.0
1489.082886 128.0
1489.175049 148.0
1489.3479 180.0
1490.142944 116.0
1490.726929 124.0
1492.940918 208.0
1493.486938 196.0
1494.787109 248.0
1495.194946 168.0
1495.448975 108.0
1496.449707 128.0
1497.050293 84.0
1497.27356 124.0
1497.342896 116.0
1497.651001 168.0
1499.762085 176.0
1501.080444 132.0
1501.620239 196.0
1501.720459 200.0
1502.252686 184.0
1502.74646 196.0
1503.765015 184.0
1504.089233 200.0
1504.235962 100.0
