>compound NCGC00095566-02!STICTIC ACID
>formula C19H14O9
>ionization [M+H]+
>parentmass 387.072
#inchi InChI=1S/C19H14O9/c1-6-4-9(25-3)8(5-20)15-10(6)17(22)27-14-7(2)13(21)11-12(16(14)26-15)19(24)28-18(11)23/h4-5,19,21,24H,1-3H3
#inchikey SKCUFZLDTAYNBZ
#Ion_Source LC-ESI
#Instrument qTOF
#Compound_Source Prestwick Phytochem Lib
#PI Dorrestein
#Data_Collector VVP/LMS
#Scan -1
#Precursor_MZ 387.072
#ExactMass 386.064
#Charge 1
#CAS_Number N/A
#Pubmed_ID N/A
#Smiles COC1=CC(=C2C(=O)OC3=C(C)C(=C4C(=O)OC(O)C4=C3OC2=C1C=O)O)C
#INCHI_AUX N/A
#Library_Class 1
#SpectrumID CCMSLIB00000078708
#IonMode Positive
#UpdateWorkflowName UPDATE-SINGLE-ANNOTATED-GOLD
#LibraryQualityString Gold
#TaskID 67c915c6594c435cadc1fe2b5358144d
##Scan# 1962
#SpectrumFile p1-E02_GE2_01_17922.mzXML
#LibraryName phytochem_lib.mgf
#MQScore -1
#Organism phytochem_lib
#TIC_Query 0
#RT_Query -1
#MZErrorPPM -1
#SharedPeaks 0
#MassDiff 0
#LibMZ -1
#SpecMZ 387.072
#SpecCharge 0
#internalFilename spec-00000.mgf

>collision 10
98.451576 96.0
103.790825 84.0
105.072174 136.0
106.022964 196.0
106.355217 156.0
106.585228 128.0
107.613014 180.0
107.757584 128.0
108.664406 36.0
109.061035 172.0
112.243202 192.0
112.661087 204.0
113.211014 164.0
114.125565 184.0
115.053482 160.0
115.191132 180.0
116.723503 216.0
117.069954 164.0
117.229362 204.0
118.15564 196.0
119.048645 176.0
119.088821 336.0
119.129005 36.0
119.176804 40.0
122.367905 160.0
122.462593 140.0
127.055199 132.0
128.062225 132.0
129.068222 164.0
129.265503 164.0
130.047363 144.0
131.629562 148.0
132.052399 164.0
133.062866 100.0
135.039978 152.0
135.081619 172.0
140.477905 176.0
141.062012 224.0
143.046616 160.0
143.201385 156.0
143.809372 136.0
144.007538 180.0
144.052917 168.0
144.5215 164.0
144.700989 80.0
145.063705 260.0
145.576172 108.0
146.59613 180.0
146.779327 256.0
146.86615 156.0
146.965057 176.0
147.044678 168.0
147.080215 188.0
148.081863 164.0
148.491455 104.0
148.957474 160.0
149.957504 180.0
150.22084 60.0
152.055298 156.0
153.00473 164.0
153.024429 208.0
156.702362 216.0
156.754684 172.0
158.042114 176.0
160.051971 496.0
161.054535 180.0
162.528183 180.0
163.038986 176.0
165.912643 64.0
166.335907 224.0
168.057571 192.0
168.599838 104.0
168.938553 92.0
169.066742 184.0
170.069412 212.0
170.221481 72.0
170.993561 200.0
171.04007 180.0
171.078232 152.0
172.044006 428.0
173.055496 360.0
173.095047 132.0
174.055862 140.0
174.722321 152.0
175.036667 172.0
175.071655 1144.0
175.119797 120.0
176.085571 124.0
177.047729 168.0
177.782059 60.0
178.023621 60.0
178.068771 156.0
179.084747 168.0
179.938065 112.0
181.055756 172.0
182.064102 88.0
183.083313 156.0
184.048676 88.0
184.919128 132.0
185.054489 140.0
185.615356 132.0
186.065735 192.0
187.044907 328.0
188.050217 444.0
188.222107 56.0
189.033951 188.0
189.094147 120.0
190.009369 184.0
191.028244 600.0
191.763718 144.0
192.041183 316.0
193.009033 188.0
193.050797 612.0
193.241074 32.0
194.051056 152.0
194.116333 196.0
194.180115 72.0
195.055832 160.0
195.766953 100.0
197.066788 184.0
198.069412 220.0
200.056381 136.0
200.081726 128.0
200.41687 156.0
200.944107 132.0
201.000534 128.0
201.052658 352.0
202.053101 284.0
203.070068 856.0
203.278427 48.0
204.07373 156.0
204.936127 116.0
205.08432 168.0
206.060242 140.0
206.260284 124.0
207.052811 180.0
207.279114 172.0
207.471146 136.0
209.00769 184.0
209.042221 124.0
212.042725 68.0
212.0746 176.0
213.055389 116.0
214.061188 300.0
215.035416 204.0
215.073135 208.0
215.137573 168.0
216.763733 200.0
217.051224 156.0
217.326706 116.0
218.634323 124.0
219.084808 176.0
220.595703 116.0
221.6819 96.0
223.368256 96.0
225.064713 180.0
225.766205 200.0
225.808075 64.0
226.050385 120.0
227.02095 108.0
227.065933 320.0
228.03566 208.0
228.850876 204.0
229.049973 1324.0
229.090179 160.0
229.233414 88.0
229.33287 52.0
229.655472 132.0
230.055344 160.0
231.065323 3336.0
231.123657 216.0
231.175095 44.0
231.199295 68.0
231.22049 40.0
231.405136 76.0
231.498993 64.0
232.064667 564.0
232.909256 32.0
233.061157 140.0
233.687485 68.0
234.220215 64.0
234.903015 44.0
238.316513 164.0
239.066788 96.0
241.052673 212.0
241.088303 304.0
241.804138 136.0
242.017731 104.0
242.061264 272.0
242.925781 48.0
243.059189 292.0
244.059357 216.0
245.049103 192.0
246.022125 168.0
246.050217 216.0
246.649994 40.0
249.314026 212.0
251.070663 124.0
252.080826 148.0
252.611984 112.0
253.051865 132.0
253.083527 212.0
254.052444 116.0
255.064468 116.0
255.559219 168.0
256.01123 168.0
256.071411 164.0
257.041473 744.0
257.077942 628.0
257.139771 156.0
257.746521 52.0
258.053497 300.0
258.459564 128.0
258.731598 128.0
259.058899 3056.0
259.250488 68.0
259.372253 72.0
259.490875 60.0
260.059998 240.0
260.292175 76.0
260.967773 56.0
261.053772 208.0
261.122101 52.0
261.192871 52.0
261.225037 100.0
262.568146 88.0
263.908234 184.0
264.040802 144.0
267.057037 140.0
268.203156 88.0
269.040344 444.0
269.077789 144.0
270.053314 716.0
271.062744 180.0
272.302765 124.0
277.059265 156.0
278.714813 144.0
281.048889 180.0
282.050751 152.0
283.061096 372.0
284.073273 116.0
284.153778 84.0
285.006561 208.0
285.041748 136.0
285.072906 276.0
285.147705 36.0
285.214935 48.0
285.383026 72.0
286.050354 144.0
286.078766 360.0
287.075226 288.0
289.083282 124.0
289.215271 168.0
295.586151 152.0
296.014038 80.0
297.068756 292.0
297.826141 176.0
297.989685 84.0
298.037811 184.0
298.072144 152.0
298.106506 156.0
299.041931 180.0
300.065002 212.0
300.358124 36.0
300.440918 52.0
301.066254 308.0
303.040741 116.0
304.049805 120.0
308.02594 120.0
308.669006 80.0
311.051331 128.0
312.065094 176.0
313.032013 900.0
313.071198 544.0
313.153961 36.0
314.0065 160.0
314.03418 300.0
314.072052 172.0
314.232605 48.0
314.324341 100.0
315.054291 316.0
315.083069 328.0
316.080505 108.0
317.735107 80.0
323.046692 284.0
323.794769 172.0
324.048798 224.0
324.077759 80.0
325.065765 292.0
326.022614 164.0
326.076508 248.0
331.04776 232.0
339.044067 100.0
339.293335 168.0
339.792084 48.0
341.067657 1104.0
341.154572 52.0
341.77243 64.0
341.812897 80.0
342.064514 328.0
342.479248 52.0
342.696594 36.0
343.090912 112.0
343.574036 80.0
357.054596 212.0
357.171204 80.0
364.999725 100.0
367.048279 88.0
369.064331 460.0
370.039978 168.0
370.082092 152.0
371.055237 152.0
372.098755 32.0
422.343323 124.0
428.253754 128.0
431.935516 48.0
441.702332 160.0
478.816833 76.0
543.165833 48.0
547.553406 52.0
582.703003 60.0
588.08667 36.0
637.944946 52.0
710.634216 68.0
738.188232 72.0
762.727905 32.0
833.939636 20.0
844.019409 76.0
849.573608 80.0
876.026367 68.0
895.269897 96.0
920.703552 116.0
933.909729 68.0
1249.313232 164.0
1298.395996 92.0
1378.799316 104.0
1404.137695 132.0
1419.542969 180.0
1464.563965 144.0
