>compound MLS000728634-01!
>formula C11H10N2S2
>ionization [M+H]+
>parentmass 235.036
#inchi InChI=1S/C11H10N2S2/c14-9-11(5-6-12-9)7-3-1-2-4-8(7)13-10(11)15/h1-4H,5-6H2,(H,12,14)(H,13,15)
#inchikey OIDCZOCVOJNTRE
#Ion_Source LC-ESI
#Instrument qTof
#Compound_Source NIH Natural Product Library
#PI Dorrestein
#Data_Collector VVP/LMS
#Scan -1
#Precursor_MZ 235.036
#ExactMass 234.029
#Charge 1
#CAS_Number N/A
#Pubmed_ID N/A
#Smiles SC1=NCCC12C(=Nc3ccccc32)S
#INCHI_AUX N/A
#Library_Class 1
#SpectrumID CCMSLIB00000080338
#IonMode Positive
#UpdateWorkflowName UPDATE-SINGLE-ANNOTATED-GOLD
#LibraryQualityString Gold
#TaskID b1d8e8f6646f4e71acdff9ca3d919d08
##Scan# 1602
#SpectrumFile p2-E07_GE7_01_18031.mzXML
#LibraryName NIH_Natural_Products_Library.mgf
#MQScore -1
#Organism NIH_Natural_Products_Library
#TIC_Query 0
#RT_Query -1
#MZErrorPPM -1
#SharedPeaks 0
#MassDiff 0
#LibMZ -1
#SpecMZ 235.036
#SpecCharge 0
#internalFilename spec-00000.mgf

>collision 10
96.553848 144.0
96.951263 68.0
97.129684 176.0
99.64476 92.0
99.724243 164.0
99.777916 152.0
100.91835 192.0
101.36071 160.0
101.711678 240.0
104.051407 196.0
104.341934 236.0
104.472092 116.0
104.722466 124.0
107.100494 156.0
107.764763 184.0
108.621841 128.0
109.834549 172.0
111.976669 64.0
113.034325 224.0
114.588577 160.0
114.799599 44.0
115.053619 1304.0
115.115425 76.0
115.49157 180.0
116.059235 668.0
116.342285 184.0
116.892509 52.0
117.055763 860.0
117.549751 32.0
117.601547 128.0
118.068748 180.0
118.279327 168.0
119.058617 160.0
121.437546 160.0
122.986534 184.0
125.401962 76.0
125.658401 164.0
125.908409 80.0
127.523773 128.0
127.615936 180.0
127.663162 216.0
127.77787 224.0
127.816124 168.0
127.917404 224.0
128.049545 432.0
129.663376 172.0
130.064651 1408.0
130.121582 28.0
130.194244 140.0
131.062286 572.0
131.923645 92.0
132.075409 152.0
134.014435 192.0
134.314133 60.0
135.764297 176.0
137.329514 192.0
137.670242 176.0
139.883591 192.0
140.044464 892.0
140.069611 60.0
141.05249 144.0
141.818146 132.0
141.991226 184.0
142.065628 1888.0
142.17627 36.0
142.245102 56.0
142.492081 100.0
142.558609 56.0
142.862946 76.0
143.031906 116.0
143.073212 6072.0
143.127136 84.0
143.162018 92.0
143.474991 48.0
143.510742 44.0
143.584671 144.0
143.961731 160.0
144.077454 1128.0
144.631165 44.0
144.990433 80.0
145.009598 72.0
145.035965 40.0
145.259537 84.0
145.302155 144.0
145.342941 72.0
145.914581 40.0
146.058868 228.0
146.873016 148.0
147.051559 196.0
148.022766 1232.0
149.026703 160.0
149.998642 128.0
150.019516 276.0
151.597076 60.0
152.615753 152.0
153.951324 252.0
157.073654 200.0
159.062988 136.0
160.075653 224.0
160.989059 64.0
161.023621 152.0
161.072403 136.0
162.041321 188.0
163.598114 84.0
169.075623 148.0
169.200012 156.0
171.071777 76.0
173.030212 384.0
174.039246 236.0
175.043625 112.0
175.067322 56.0
176.052612 2544.0
177.057785 152.0
178.052429 304.0
178.491577 140.0
183.914078 116.0
185.027817 172.0
185.336578 60.0
196.113052 116.0
199.441071 112.0
201.046432 164.0
206.990677 124.0
210.152481 72.0
222.05069 188.0
222.249435 64.0
233.077744 160.0
234.127243 128.0
234.953262 140.0
455.504974 36.0
472.503143 76.0
530.730652 84.0
654.23877 92.0
740.834961 104.0
834.696411 156.0
835.967651 120.0
847.533691 92.0
869.776733 20.0
882.140869 148.0
921.985596 164.0
951.933838 120.0
971.089905 244.0
1021.150085 168.0
1054.851807 180.0
1060.120117 176.0
1067.299316 120.0
1138.516113 200.0
1149.434814 168.0
1173.998047 76.0
1184.42749 116.0
1194.146362 160.0
1204.229492 240.0
1244.824707 224.0
1257.83667 108.0
1264.125366 164.0
1280.011719 184.0
1282.547974 140.0
1299.474609 148.0
1305.349976 44.0
1307.421753 184.0
1324.590942 140.0
1325.003906 196.0
1333.282959 128.0
1339.073975 196.0
1344.81189 116.0
1363.737671 192.0
1366.568726 220.0
1398.388794 236.0
1407.834473 168.0
1418.121216 52.0
1418.795898 184.0
1428.979614 200.0
1435.819214 48.0
1436.316895 228.0
1446.358887 184.0
1475.180664 48.0
1478.408203 84.0
1483.256226 84.0
1490.055298 124.0
1493.614502 236.0
1501.007812 180.0
1502.218628 232.0
1503.213867 36.0
