>compound Pazopanib
>formula C21H23N7O2S
>ionization [M+H]+
>parentmass 438.1706704280906
#inchi InChI=1S/C21H23N7O2S/c1-13-5-6-15(11-19(13)31(22,29)30)24-21-23-10-9-20(25-21)27(3)16-7-8-17-14(2)28(4)26-18(17)12-16/h5-12H,1-4H3,(H2,22,29,30)(H,23,24,25)
#inchikey CUIHSIWYWATEQL
#Ion_Source LC-ESI
#Instrument qTof
#Compound_Source Commercial
#PI Dorrestein
#Data_Collector Garg_Neha
#Scan -1
#Precursor_MZ 438.171
#ExactMass 437.163
#Charge 1
#CAS_Number 444731-52-6, 790713-33-6, 635702-64-6 (HCl)
#Pubmed_ID N/A
#Smiles C1(C(=CC=C(C=1)NC2N=C(C=CN=2)N(C)C3C=CC4=C(N(N=C(C=3)4)C)C)C)S(=O)(=O)N
#INCHI_AUX N/A
#Library_Class 1
#SpectrumID CCMSLIB00000078534
#IonMode Positive
#UpdateWorkflowName UPDATE-SINGLE-ANNOTATED-GOLD
#LibraryQualityString Gold
#TaskID 77f51c88eb8b467eb4a01dd2d0cb90d2
##Scan# 1087
#SpectrumFile Plate9_81_88_Plate8_81_88_GC8_01_15759.mzXML
#LibraryName FDALibrary_2_04302014.mgf
#MQScore -1
#Organism FDALibrary_2_04302014
#TIC_Query 0
#RT_Query -1
#MZErrorPPM -1
#SharedPeaks 0
#MassDiff 0
#LibMZ -1
#SpecMZ 438.171
#SpecCharge 0
#internalFilename spec-00000.mgf

>collision 10
45.635799 144.0
47.404575 180.0
48.224834 176.0
48.805702 144.0
49.035896 168.0
50.596069 160.0
50.681049 244.0
51.085678 144.0
51.520489 168.0
52.568657 156.0
54.609848 156.0
55.108116 172.0
55.210114 152.0
55.429207 180.0
58.171066 144.0
59.217091 160.0
60.147343 164.0
60.324776 304.0
61.899551 176.0
62.147217 196.0
62.287388 160.0
63.172863 144.0
63.188683 140.0
63.264648 160.0
63.559444 156.0
64.171822 224.0
65.868164 196.0
66.204582 168.0
66.295303 256.0
67.276108 140.0
67.66848 148.0
69.110321 160.0
69.174866 216.0
69.236359 112.0
71.353683 140.0
71.674667 188.0
72.291519 204.0
72.452377 148.0
72.620193 152.0
73.036339 204.0
73.184395 152.0
73.312149 232.0
75.221153 148.0
75.719124 184.0
76.676422 152.0
76.899666 148.0
77.787109 164.0
77.911797 160.0
78.284683 188.0
78.536713 184.0
78.946457 140.0
79.171204 176.0
79.445946 176.0
80.255173 176.0
81.344719 180.0
81.36087 156.0
82.344048 196.0
83.015472 164.0
83.403999 148.0
83.476723 160.0
83.594963 220.0
83.698723 156.0
85.461418 184.0
85.918343 188.0
87.205307 192.0
87.264801 140.0
87.903694 172.0
88.509338 284.0
88.82795 148.0
89.713669 140.0
90.242294 192.0
90.503403 188.0
92.131462 164.0
92.314949 172.0
92.357025 212.0
92.59053 160.0
92.753387 172.0
93.102585 184.0
93.167892 144.0
93.504395 176.0
93.63916 188.0
94.040192 208.0
94.811882 156.0
95.682091 188.0
96.17334 160.0
96.34713 140.0
97.153709 180.0
97.678215 156.0
97.711655 156.0
98.818489 148.0
100.178429 192.0
100.198349 272.0
100.944855 152.0
100.98085 188.0
104.517387 184.0
106.952797 192.0
107.270012 144.0
108.053726 156.0
108.392273 208.0
109.212318 200.0
110.077408 132.0
110.545464 184.0
110.658501 172.0
111.08812 152.0
111.132179 156.0
111.388306 160.0
112.776901 172.0
113.522133 160.0
113.927528 140.0
115.065224 156.0
115.329674 196.0
115.731857 176.0
116.282791 180.0
118.077492 152.0
118.239479 128.0
118.807457 140.0
118.881233 168.0
119.997101 164.0
120.407333 184.0
122.090477 232.0
122.898911 148.0
123.482109 140.0
124.352829 176.0
124.434967 148.0
124.501579 148.0
124.565994 148.0
125.942581 160.0
126.844337 272.0
127.797562 164.0
128.542389 172.0
129.154648 152.0
129.215729 148.0
129.992905 236.0
130.06662 168.0
130.886246 188.0
131.070709 196.0
131.826065 152.0
131.967789 196.0
132.078354 264.0
132.81282 144.0
132.949478 164.0
133.04689 180.0
133.074036 436.0
133.090164 312.0
133.242096 148.0
133.421356 180.0
134.084183 164.0
134.284866 168.0
134.670319 168.0
135.091019 280.0
135.109512 140.0
135.352539 140.0
135.588837 164.0
136.269379 140.0
137.577606 144.0
137.70369 164.0
138.131439 240.0
139.000641 176.0
139.06636 180.0
139.364594 140.0
139.677277 152.0
140.303665 180.0
141.064835 288.0
141.189133 156.0
141.295578 172.0
142.064606 272.0
142.718643 152.0
142.975555 156.0
143.059814 236.0
143.168396 196.0
143.266052 148.0
143.318466 164.0
143.50676 196.0
144.05806 152.0
144.082764 248.0
144.191864 152.0
144.870514 160.0
144.940353 124.0
144.976837 148.0
145.010391 156.0
145.072693 788.0
145.888931 156.0
146.084549 384.0
146.574875 212.0
146.895523 168.0
146.996857 248.0
147.052994 124.0
147.080597 288.0
148.053284 164.0
148.082382 132.0
148.186508 180.0
148.817108 148.0
149.047867 152.0
149.082916 208.0
149.10376 176.0
150.026276 140.0
150.107101 212.0
150.393311 180.0
150.648575 216.0
150.724304 136.0
153.320618 180.0
153.826248 152.0
154.194275 256.0
155.056168 176.0
155.636032 148.0
155.663345 180.0
155.908096 168.0
155.991302 224.0
156.068375 340.0
156.384308 184.0
156.929871 140.0
157.074722 140.0
157.111938 140.0
157.403885 148.0
157.541321 248.0
158.079544 308.0
158.100937 236.0
158.121429 160.0
158.542175 160.0
158.742722 144.0
159.090591 708.0
159.435593 156.0
159.500931 144.0
159.591431 152.0
159.739822 148.0
159.996506 176.0
160.087814 1396.0
160.520584 156.0
160.797028 200.0
161.094543 512.0
161.468506 168.0
161.547516 128.0
161.602829 104.0
162.009277 140.0
162.091965 208.0
162.939911 116.0
163.861343 152.0
164.167206 168.0
165.826431 152.0
165.923019 164.0
165.954605 252.0
165.986328 156.0
166.090515 156.0
166.622406 144.0
166.963776 168.0
167.059311 168.0
167.764557 160.0
167.805801 184.0
167.903793 156.0
168.08078 180.0
168.75853 184.0
168.979614 96.0
169.037888 152.0
169.074203 672.0
170.079025 280.0
171.090012 604.0
171.499924 188.0
171.784149 160.0
171.815613 188.0
171.898941 148.0
172.012421 184.0
172.088486 460.0
172.123428 188.0
172.763779 168.0
173.08551 168.0
173.109268 308.0
173.452484 196.0
173.549484 156.0
174.008636 248.0
174.102051 1744.0
175.077911 236.0
175.108139 648.0
176.117569 668.0
176.570984 204.0
177.213196 160.0
178.024887 172.0
178.447372 152.0
179.022125 212.0
179.060242 140.0
179.400482 180.0
179.537231 180.0
179.739197 204.0
179.928696 180.0
180.70108 140.0
180.867004 180.0
181.069977 164.0
181.672058 176.0
181.716507 196.0
181.93927 160.0
181.960754 148.0
182.006393 148.0
182.072479 732.0
183.082825 428.0
183.426895 164.0
183.507431 128.0
183.572495 188.0
183.866547 184.0
183.961014 264.0
184.087021 2992.0
184.137207 172.0
184.180588 140.0
184.249969 168.0
185.039688 180.0
185.093704 1048.0
185.283432 196.0
185.475845 140.0
185.576141 160.0
185.980362 168.0
186.100739 2380.0
186.500305 112.0
186.722092 196.0
186.833618 184.0
186.946701 164.0
187.067352 148.0
187.106918 120.0
187.222855 224.0
187.544342 196.0
187.759735 140.0
188.091934 148.0
188.12027 148.0
188.308304 156.0
189.309174 132.0
189.78331 176.0
189.816208 152.0
190.233246 176.0
191.415482 172.0
191.456787 160.0
192.07373 256.0
192.344589 160.0
193.072098 356.0
193.151459 140.0
193.519516 180.0
193.710617 204.0
195.031433 168.0
195.077805 300.0
195.328949 172.0
195.370682 148.0
195.718582 180.0
196.084427 1132.0
196.229858 132.0
196.59108 148.0
196.808807 164.0
196.867447 160.0
197.095551 600.0
197.242264 156.0
197.264206 188.0
197.700531 160.0
198.101944 788.0
198.403564 180.0
198.429581 116.0
198.751358 168.0
199.097549 272.0
199.130341 164.0
199.287643 140.0
199.610901 168.0
200.073502 112.0
200.117661 716.0
200.787308 156.0
201.053223 156.0
201.110016 132.0
201.152008 156.0
201.671753 200.0
202.09877 140.0
202.121399 176.0
203.013718 144.0
203.042084 192.0
203.33429 160.0
203.444992 148.0
203.527328 160.0
203.596603 116.0
203.993271 268.0
204.077698 204.0
204.746994 120.0
205.060516 160.0
205.084381 292.0
205.126221 200.0
205.402817 184.0
205.725281 204.0
206.010849 144.0
206.070847 116.0
206.092545 356.0
206.119415 152.0
206.273758 152.0
207.101761 292.0
207.200958 148.0
207.696884 176.0
208.083618 472.0
208.733658 232.0
208.888779 116.0
209.08255 344.0
209.105667 332.0
209.242935 140.0
209.55687 168.0
209.59433 140.0
209.872314 280.0
209.960434 152.0
210.066772 148.0
210.102081 1712.0
210.21843 112.0
210.310623 112.0
210.554947 236.0
210.919006 152.0
211.04332 184.0
211.107117 1896.0
212.111282 432.0
212.819458 156.0
212.964661 164.0
213.111298 748.0
213.329437 112.0
213.445572 120.0
214.026123 184.0
214.122971 244.0
215.093384 156.0
215.419052 212.0
215.773819 164.0
215.922958 156.0
215.987305 160.0
216.37944 156.0
216.451233 184.0
216.933121 148.0
217.056274 160.0
217.540359 180.0
218.088699 276.0
219.092102 308.0
219.441376 184.0
219.898102 168.0
220.082367 148.0
220.624756 160.0
220.941193 144.0
221.084015 272.0
221.141159 208.0
221.567947 176.0
222.087646 340.0
222.113342 192.0
222.286346 168.0
222.61586 204.0
222.969376 220.0
223.095642 1024.0
223.156647 156.0
223.22348 176.0
223.248825 216.0
223.333862 176.0
223.400528 172.0
223.826126 160.0
224.093201 132.0
224.12233 208.0
224.40416 148.0
224.768616 152.0
225.02774 144.0
225.113327 1096.0
225.698166 188.0
225.870422 196.0
226.119553 544.0
226.73967 132.0
226.841263 184.0
227.125381 876.0
228.135651 140.0
228.989059 180.0
229.072968 112.0
229.121597 152.0
230.424927 152.0
230.739243 240.0
231.09729 168.0
231.339951 284.0
231.734985 152.0
231.819824 180.0
232.097839 292.0
232.14769 132.0
232.204849 160.0
232.373352 204.0
232.568939 148.0
232.912048 160.0
232.978882 148.0
233.104965 1000.0
234.107651 812.0
234.594818 180.0
235.094925 664.0
235.308701 152.0
235.68132 144.0
236.10553 524.0
236.131836 284.0
236.559067 152.0
236.776459 176.0
237.103058 764.0
237.392441 148.0
237.520233 160.0
237.634766 140.0
237.723755 152.0
238.054626 180.0
238.112274 216.0
239.115173 248.0
239.356033 164.0
240.030853 180.0
240.055527 140.0
240.126541 372.0
240.311554 168.0
241.129868 512.0
241.234955 196.0
242.030075 180.0
242.088913 164.0
242.485458 148.0
242.804794 140.0
242.957428 136.0
243.093918 200.0
243.332306 148.0
243.524841 156.0
243.953644 160.0
244.08548 168.0
244.189957 156.0
244.445068 144.0
245.002396 140.0
245.096054 532.0
245.405243 200.0
245.841141 172.0
245.9254 196.0
245.987823 96.0
246.100128 448.0
246.296967 180.0
246.367126 104.0
246.809494 164.0
247.057846 188.0
247.110458 196.0
247.18486 196.0
247.373947 164.0
247.66806 188.0
248.054291 192.0
248.116333 740.0
248.312653 196.0
248.406754 168.0
249.053375 220.0
249.125351 608.0
249.371552 168.0
250.10733 420.0
250.131287 852.0
250.717728 184.0
250.818588 168.0
251.11795 716.0
251.322189 116.0
251.721664 148.0
252.121201 1240.0
252.19162 140.0
253.086899 160.0
253.124771 432.0
253.682526 172.0
254.078934 140.0
254.113327 200.0
254.142136 152.0
254.358185 168.0
254.637604 176.0
254.868759 136.0
255.094345 140.0
255.158737 140.0
255.833191 156.0
255.979645 204.0
256.105225 236.0
256.180298 208.0
256.345978 168.0
256.625183 168.0
257.105225 340.0
257.500854 188.0
257.53302 112.0
258.105621 272.0
258.69162 196.0
259.101776 360.0
259.439941 204.0
259.468781 156.0
260.115479 500.0
260.694916 152.0
261.111938 712.0
261.218994 208.0
261.466736 176.0
262.042236 144.0
262.121094 196.0
262.385437 172.0
262.681458 144.0
263.106628 144.0
263.142944 176.0
263.433594 160.0
263.856964 148.0
264.119873 292.0
264.144348 340.0
264.206238 176.0
264.569153 172.0
264.665833 144.0
265.134979 376.0
265.323547 172.0
265.352722 172.0
265.537567 164.0
265.938293 140.0
266.126282 268.0
266.160431 132.0
266.542877 148.0
267.090088 164.0
267.969055 208.0
268.138641 144.0
268.223267 176.0
268.667999 108.0
268.993073 240.0
269.0802 180.0
269.402679 124.0
269.894775 344.0
270.098114 232.0
270.136108 276.0
270.270935 184.0
270.673553 144.0
270.864105 176.0
271.104065 236.0
271.280853 176.0
271.656799 180.0
271.7388 156.0
271.899597 180.0
271.975098 168.0
272.118073 380.0
273.114258 608.0
273.18103 156.0
273.269867 200.0
273.915131 164.0
274.124023 568.0
274.251801 156.0
275.127533 1712.0
275.394135 192.0
275.772797 140.0
275.924866 152.0
275.964539 164.0
276.128021 492.0
276.237061 108.0
276.477264 272.0
276.861298 196.0
277.082916 128.0
277.14801 260.0
277.179291 160.0
277.587036 152.0
277.742889 140.0
278.133179 168.0
278.26059 192.0
278.520447 160.0
278.743835 188.0
278.875153 152.0
279.032928 144.0
279.826538 184.0
280.138489 192.0
280.216217 176.0
281.166565 152.0
281.203278 220.0
281.305817 132.0
281.687408 148.0
281.808563 196.0
281.847778 200.0
282.071106 132.0
282.52179 188.0
282.898804 152.0
283.005951 164.0
283.10434 136.0
283.500854 204.0
284.106171 432.0
285.112427 660.0
285.168823 364.0
285.88855 176.0
286.110413 932.0
287.125488 864.0
287.357697 152.0
287.782959 212.0
288.124756 580.0
288.349091 168.0
288.401154 256.0
289.101257 152.0
289.142853 1268.0
289.449921 160.0
290.036041 184.0
290.137909 352.0
290.356781 152.0
290.511841 248.0
291.009644 160.0
291.141724 156.0
291.339081 196.0
291.36731 104.0
291.519165 160.0
291.933899 152.0
292.542938 184.0
293.162842 120.0
293.379761 148.0
293.87207 164.0
294.108521 192.0
294.23172 180.0
294.329468 156.0
294.428497 156.0
295.109344 292.0
296.108582 268.0
296.159668 236.0
296.231018 180.0
296.707367 196.0
296.786224 248.0
297.012573 208.0
297.111755 532.0
298.124298 276.0
298.169647 196.0
298.197144 204.0
299.126862 1260.0
299.167297 288.0
299.800903 148.0
300.079865 172.0
300.127136 2204.0
300.317383 112.0
300.558319 168.0
300.79422 204.0
301.09259 144.0
301.131592 6012.0
301.831909 136.0
301.90741 148.0
302.13858 5796.0
302.243622 116.0
302.374756 140.0
302.609192 164.0
303.142487 1344.0
303.198059 128.0
303.266327 104.0
303.91745 176.0
304.156586 364.0
304.427979 160.0
304.818695 164.0
305.16333 128.0
305.677582 152.0
306.018707 160.0
306.060486 156.0
306.091827 152.0
306.159882 300.0
306.858368 144.0
307.440887 200.0
307.597961 140.0
308.523682 188.0
308.751587 112.0
309.11084 320.0
309.779999 148.0
309.976196 148.0
310.111053 528.0
310.214539 152.0
310.246094 140.0
310.473999 148.0
310.820282 152.0
311.119202 1272.0
311.414032 152.0
311.510864 164.0
311.660492 148.0
311.692108 188.0
311.786072 168.0
312.126495 1568.0
313.136566 3060.0
313.221588 120.0
313.451508 164.0
313.945038 148.0
314.034241 136.0
314.146362 2496.0
314.405853 116.0
315.146423 2288.0
315.321899 168.0
316.15506 8032.0
316.19989 400.0
316.421997 140.0
316.661896 224.0
316.878387 148.0
317.157623 1348.0
317.236816 152.0
317.279358 140.0
317.305817 156.0
317.555939 180.0
318.123688 156.0
318.166779 320.0
318.315399 144.0
318.578247 148.0
318.635071 140.0
318.851837 172.0
318.923431 112.0
319.472229 160.0
319.559479 172.0
319.632538 180.0
319.701813 144.0
319.733826 284.0
319.807373 208.0
320.083069 156.0
321.344482 164.0
321.415833 324.0
321.547882 172.0
321.629974 212.0
321.654938 144.0
321.941986 104.0
322.209625 196.0
322.279938 188.0
322.699951 120.0
323.130676 144.0
323.578247 148.0
324.128479 652.0
324.197906 164.0
324.954498 144.0
325.072906 168.0
325.129486 1536.0
325.248779 184.0
325.31131 124.0
325.604218 152.0
325.71051 108.0
326.064087 160.0
326.139496 5864.0
326.230927 108.0
326.303223 156.0
327.135742 10696.0
327.220947 140.0
327.253296 108.0
327.403931 212.0
327.443939 136.0
327.727509 112.0
327.810333 136.0
327.861176 152.0
327.930695 160.0
328.154633 21252.0
328.25647 172.0
328.299744 212.0
328.591217 168.0
328.891449 196.0
328.955109 144.0
329.091553 168.0
329.161377 4388.0
329.241669 224.0
329.701904 104.0
330.042267 252.0
330.08078 196.0
330.171112 2256.0
330.698822 104.0
330.749359 160.0
330.794556 148.0
330.868805 172.0
331.08667 140.0
331.168793 576.0
331.49231 172.0
331.56189 152.0
331.897797 164.0
332.177521 332.0
333.016876 188.0
333.164246 152.0
333.371552 160.0
333.469666 232.0
333.647644 104.0
333.968414 144.0
334.291595 140.0
334.406982 124.0
334.600983 152.0
335.007111 152.0
335.037994 176.0
335.187378 160.0
335.294891 96.0
335.558716 96.0
335.712311 260.0
336.328888 156.0
336.635559 180.0
336.73053 152.0
337.242035 144.0
338.145691 216.0
338.243195 140.0
338.302826 172.0
338.588409 168.0
338.738586 152.0
338.920074 180.0
339.143951 184.0
339.45694 192.0
340.1539 2724.0
340.770905 124.0
340.916931 224.0
341.090729 152.0
341.150604 13008.0
341.450317 156.0
341.491516 136.0
341.598175 168.0
341.813599 144.0
341.967255 316.0
342.040619 212.0
342.158081 30896.0
342.579132 136.0
342.652222 132.0
343.161163 5880.0
343.246674 168.0
343.403351 104.0
343.60965 160.0
343.737305 100.0
344.161621 796.0
344.232788 228.0
344.344208 160.0
344.390503 112.0
344.612122 168.0
344.729797 120.0
344.90213 164.0
345.053833 108.0
345.179108 152.0
345.361053 120.0
345.466064 112.0
345.842224 124.0
346.112671 188.0
346.186249 164.0
346.351807 112.0
346.480408 120.0
346.534119 164.0
346.687622 160.0
347.031952 164.0
347.193176 172.0
347.27182 140.0
347.705597 136.0
348.641663 120.0
349.043274 180.0
349.19574 228.0
349.247803 168.0
350.211823 140.0
351.359955 140.0
351.498016 176.0
351.927277 168.0
352.442719 148.0
353.265228 192.0
353.596558 116.0
354.482056 272.0
354.600037 132.0
354.699432 140.0
354.962585 124.0
355.166687 1496.0
355.273346 188.0
355.452576 148.0
355.509399 104.0
355.749756 148.0
355.82486 212.0
356.027618 208.0
356.067657 328.0
356.121216 192.0
356.172791 2216.0
356.245483 188.0
356.279938 152.0
356.313721 140.0
356.406616 176.0
356.484528 148.0
356.658203 124.0
356.682526 164.0
356.749146 120.0
356.790741 132.0
356.832489 152.0
356.860504 380.0
356.939758 252.0
357.051056 344.0
357.122314 368.0
357.183289 217624.0
357.282745 128.0
357.336578 240.0
357.408783 204.0
357.448914 280.0
357.493896 184.0
357.539948 160.0
357.58783 176.0
357.643524 172.0
357.750702 232.0
357.802368 868.0
357.863586 220.0
357.932434 168.0
357.971558 272.0
358.016235 132.0
358.067963 244.0
358.096405 304.0
358.110657 140.0
358.122314 520.0
358.185272 74556.0
358.295074 200.0
358.431183 396.0
358.504456 160.0
358.631042 120.0
358.687683 244.0
358.948303 304.0
358.995178 172.0
359.051331 148.0
359.087341 188.0
359.131775 148.0
359.187195 7084.0
359.299591 108.0
359.408691 156.0
359.446625 172.0
359.557861 112.0
359.84726 128.0
359.916046 108.0
360.042603 192.0
360.113037 156.0
360.133362 352.0
360.194092 416.0
360.246368 248.0
360.290222 136.0
360.361603 296.0
360.409943 164.0
360.445404 152.0
360.483032 324.0
360.509338 188.0
360.536865 388.0
360.578674 164.0
360.632202 292.0
360.668335 184.0
360.742371 116.0
360.836792 120.0
361.098633 280.0
361.155243 144.0
361.198456 188.0
361.320648 324.0
361.458008 120.0
361.48941 148.0
361.579193 128.0
362.07132 140.0
362.174377 272.0
362.463257 172.0
362.747498 156.0
362.969147 156.0
363.94635 156.0
364.356537 152.0
365.927277 156.0
366.231079 160.0
366.864471 204.0
367.647797 172.0
368.19458 176.0
368.303223 100.0
368.432953 164.0
368.75766 152.0
368.98526 108.0
370.130859 120.0
370.206116 116.0
370.418365 160.0
370.603485 136.0
370.793854 144.0
371.134796 132.0
371.752625 180.0
371.944519 140.0
372.163422 208.0
372.190765 160.0
372.236847 136.0
372.301575 188.0
372.813904 132.0
372.931671 148.0
373.175262 1204.0
373.271057 140.0
373.68924 180.0
374.141083 168.0
374.177032 528.0
374.772369 100.0
375.141876 272.0
375.206543 136.0
375.611572 180.0
375.758179 156.0
375.947235 164.0
376.209717 144.0
376.47937 176.0
376.537933 156.0
376.943542 196.0
378.870361 160.0
380.072296 148.0
380.550446 164.0
380.677826 148.0
381.43158 140.0
381.536255 112.0
382.054718 128.0
382.291107 188.0
382.843903 156.0
382.878937 148.0
383.030853 216.0
383.125671 116.0
383.252777 124.0
383.744019 204.0
384.017181 152.0
384.703735 276.0
385.075928 140.0
385.441895 144.0
386.360596 140.0
386.423309 164.0
386.779419 212.0
387.123962 184.0
387.264954 188.0
387.52713 112.0
387.997742 180.0
388.144135 140.0
388.274841 104.0
388.372009 180.0
388.436951 140.0
388.582092 216.0
389.391907 204.0
389.917206 216.0
390.42041 152.0
390.979065 248.0
391.187408 124.0
391.398224 224.0
391.884735 148.0
392.121185 188.0
392.176361 144.0
393.146576 164.0
393.201691 144.0
393.734802 160.0
393.861176 216.0
396.135681 236.0
396.263977 144.0
396.611176 156.0
397.053131 128.0
397.690765 196.0
398.281677 156.0
398.392883 164.0
398.559753 148.0
399.235535 124.0
400.059143 144.0
400.122864 200.0
400.157257 192.0
400.608704 156.0
401.15863 144.0
401.760803 168.0
403.153839 140.0
405.150909 180.0
405.425476 124.0
405.68866 192.0
406.205231 184.0
406.373718 160.0
406.630554 164.0
406.947662 152.0
407.011902 240.0
407.136475 244.0
407.931946 204.0
408.121613 156.0
408.225464 148.0
409.126801 192.0
410.085419 176.0
410.359863 156.0
410.698273 192.0
410.85965 144.0
411.155304 132.0
411.19455 140.0
412.176697 136.0
412.73999 120.0
412.83075 160.0
413.049133 144.0
413.554932 144.0
413.952911 104.0
414.299988 140.0
414.648468 208.0
415.205383 164.0
415.688507 104.0
415.999176 140.0
416.344299 140.0
416.738312 160.0
417.693665 140.0
417.972595 100.0
419.061554 156.0
419.440552 140.0
419.970612 144.0
420.165466 124.0
420.453766 200.0
420.635712 148.0
420.778595 176.0
421.138794 704.0
421.996124 172.0
422.140381 1468.0
422.60556 144.0
422.846985 168.0
422.945221 188.0
423.141968 792.0
423.260468 164.0
423.305481 208.0
423.354645 172.0
423.825714 168.0
424.160706 296.0
424.936859 148.0
425.010712 188.0
425.142029 200.0
425.191254 160.0
425.335693 104.0
425.687988 208.0
426.694672 188.0
427.21698 160.0
427.286896 156.0
427.360962 144.0
427.669617 164.0
428.05249 176.0
428.643036 176.0
428.847595 208.0
429.296967 144.0
429.585693 128.0
429.845612 144.0
430.468933 164.0
430.543274 192.0
430.66806 128.0
430.815887 212.0
430.884949 312.0
431.084442 148.0
431.122803 100.0
431.358063 176.0
431.397858 140.0
431.563934 180.0
432.198639 124.0
432.343994 152.0
432.388275 172.0
432.424377 244.0
433.081757 176.0
433.137482 160.0
433.677124 148.0
434.4133 180.0
434.448578 156.0
434.698395 188.0
434.886749 116.0
435.131073 172.0
435.343475 188.0
435.398529 108.0
435.459351 168.0
435.774994 176.0
435.849976 148.0
435.881531 120.0
436.038116 176.0
436.134888 172.0
436.184509 224.0
436.263336 108.0
436.369202 204.0
436.395966 268.0
436.456207 276.0
436.550232 132.0
436.614258 160.0
436.710449 276.0
436.804779 284.0
436.932129 204.0
436.976379 128.0
437.016174 156.0
437.053314 604.0
437.109711 364.0
437.152344 252.0
437.199158 300.0
437.237946 552.0
437.269501 224.0
437.344971 172.0
437.456085 192.0
437.507812 128.0
437.516876 228.0
437.552094 364.0
437.616882 116.0
437.667816 360.0
437.704407 208.0
437.730408 504.0
437.762146 216.0
437.832672 376.0
437.877991 664.0
437.921356 356.0
437.964478 484.0
438.003448 332.0
438.045654 560.0
438.100464 664.0
438.17276 270828.0
438.293549 200.0
438.327148 452.0
438.452393 520.0
438.56189 780.0
438.637177 496.0
438.688721 716.0
438.737457 200.0
438.767365 208.0
438.807465 656.0
438.866913 8324.0
438.922974 300.0
438.990997 304.0
439.023682 264.0
439.17453 161324.0
439.295258 156.0
439.329865 248.0
439.382996 104.0
439.445801 228.0
439.46344 220.0
439.477997 348.0
439.551727 568.0
439.634247 172.0
439.725983 148.0
439.809174 344.0
439.8638 992.0
439.911316 236.0
439.985718 188.0
440.085571 128.0
440.110565 248.0
440.171173 52288.0
440.351471 208.0
440.389893 104.0
440.469604 116.0
440.513336 156.0
440.569946 284.0
440.606476 196.0
440.656555 220.0
440.704712 144.0
440.849304 204.0
440.880676 156.0
440.919495 192.0
440.976288 172.0
441.170654 8484.0
441.292999 308.0
441.422119 180.0
441.468323 244.0
441.494446 296.0
441.539093 196.0
441.593658 344.0
441.650879 240.0
441.726593 212.0
441.798431 352.0
441.849548 492.0
441.880707 252.0
441.925964 536.0
441.964722 332.0
442.003632 432.0
442.042938 252.0
442.124664 200.0
442.170166 828.0
442.277466 96.0
442.420135 144.0
442.453003 204.0
442.512299 184.0
442.612 348.0
442.692657 112.0
442.84726 168.0
442.961365 476.0
443.009979 248.0
443.056671 192.0
443.096771 188.0
443.244263 120.0
443.579773 160.0
443.609924 324.0
443.83313 116.0
444.061707 120.0
444.186401 112.0
444.704803 116.0
444.883026 136.0
444.931335 96.0
445.133087 120.0
445.945709 136.0
446.448425 124.0
448.361053 96.0
448.589905 180.0
449.192902 148.0
450.640289 104.0
454.0755 184.0
454.19278 144.0
454.304138 116.0
454.389221 116.0
455.209351 144.0
456.860474 176.0
456.981445 120.0
457.916107 188.0
492.812347 140.0
499.225311 104.0
500.597076 148.0
547.696533 180.0
548.143799 156.0
571.307495 96.0
584.568176 144.0
590.08136 148.0
604.195312 140.0
665.673218 140.0
669.315308 156.0
677.394897 108.0
728.667053 172.0
745.422791 144.0
780.82312 156.0
810.452942 148.0
811.093323 180.0
836.085693 136.0
1102.61145 216.0
1240.649414 100.0
1361.02478 104.0
1427.450806 176.0
1584.079346 140.0
1654.240112 144.0
1723.127563 188.0
1818.512817 200.0
1856.32666 160.0
1892.223267 144.0
