>compound MLS002153419-01!SB 202190152121-30-7
>formula C20H14FN3O
>ionization [M+H]+
>parentmass 332.119324
#inchi InChI=1S/C20H14FN3O/c21-16-5-1-13(2-6-16)18-19(14-9-11-22-12-10-14)24-20(23-18)15-3-7-17(25)8-4-15/h1-12,25H,(H,23,24)
#inchikey QHKYPYXTTXKZST
#Ion_Source LC-ESI
#Instrument qTof
#Compound_Source NIH Pharmacologically Active Library
#PI Dorrestein
#Data_Collector VP/LMS
#Scan -1
#Precursor_MZ 332.123
#ExactMass 331.112
#Charge 1
#CAS_Number N/A
#Pubmed_ID N/A
#Smiles Oc1ccc(cc1)c2nc(c([nH]2)c3ccncc3)c4ccc(F)cc4
#INCHI_AUX N/A
#Library_Class 1
#SpectrumID CCMSLIB00000085690
#IonMode Positive
#UpdateWorkflowName UPDATE-SINGLE-ANNOTATED-GOLD
#LibraryQualityString Gold
#TaskID d252d724072548979f1f6f1ced849daf
##Scan# 1421
#SpectrumFile p4-E04_GE4_01_18376.mzXML
#LibraryName Pharm_Active_Library.mgf
#MQScore -1
#Organism Pharm_Active_Library
#TIC_Query 0
#RT_Query -1
#MZErrorPPM -1
#SharedPeaks 0
#MassDiff 0
#LibMZ -1
#SpecMZ 332.123
#SpecCharge 0
#internalFilename spec-00000.mgf

>collision 10
44.942814 124.0
44.972172 184.0
45.135162 136.0
45.216766 168.0
45.24086 48.0
45.366787 156.0
45.392262 128.0
45.424454 148.0
45.472759 108.0
45.547951 272.0
45.628582 124.0
45.678341 144.0
45.734856 188.0
45.957218 148.0
46.016609 144.0
46.241009 120.0
46.326317 192.0
46.346638 188.0
46.516167 28.0
46.590858 168.0
46.680569 104.0
46.760834 104.0
47.070301 172.0
47.186443 212.0
47.267143 172.0
47.332848 136.0
47.367088 156.0
47.523376 28.0
47.596596 200.0
47.607113 100.0
47.634583 136.0
47.988277 108.0
48.158447 180.0
48.17321 148.0
48.214664 60.0
48.24369 48.0
48.298759 136.0
48.408344 200.0
48.457466 216.0
48.488693 136.0
48.534443 64.0
48.614899 212.0
48.678757 220.0
48.688839 216.0
48.865017 60.0
48.986137 164.0
49.03212 180.0
49.159027 152.0
49.276318 180.0
49.286098 224.0
49.446922 128.0
49.539337 148.0
49.549145 192.0
49.687943 60.0
49.711796 248.0
49.780582 108.0
49.793224 100.0
49.85001 236.0
49.977379 144.0
50.001301 96.0
50.22533 160.0
50.326942 140.0
50.557358 96.0
50.598408 272.0
50.711735 200.0
50.732998 96.0
50.869183 148.0
50.922401 192.0
50.952972 144.0
51.065273 124.0
51.105206 168.0
51.123604 152.0
51.146378 64.0
51.16061 204.0
51.213299 156.0
51.242397 264.0
51.311626 144.0
51.53857 92.0
51.641499 156.0
51.893539 100.0
52.03154 108.0
52.072918 228.0
52.10165 256.0
52.160568 72.0
52.282825 128.0
52.294338 44.0
52.506134 148.0
52.534981 168.0
52.615799 168.0
52.721245 132.0
52.765923 176.0
52.783405 144.0
52.919422 144.0
52.983147 212.0
53.067207 124.0
53.120869 108.0
53.135376 148.0
53.145535 164.0
53.165848 140.0
53.203587 172.0
53.245697 216.0
53.267487 100.0
53.292183 240.0
53.347412 136.0
53.367764 168.0
53.396851 200.0
53.431763 184.0
53.543846 88.0
53.556953 224.0
53.609406 132.0
53.625435 168.0
53.715839 200.0
53.72897 216.0
53.762531 152.0
53.780045 172.0
53.95388 180.0
53.993359 196.0
54.138245 80.0
54.166073 232.0
54.317059 160.0
54.427837 216.0
54.465317 168.0
54.602009 128.0
54.764343 176.0
54.815472 236.0
54.871483 32.0
54.943752 88.0
55.057411 192.0
55.078087 144.0
55.115021 180.0
55.183014 196.0
55.19632 140.0
55.277679 180.0
55.336887 96.0
55.406498 72.0
55.514702 164.0
55.548817 184.0
55.57048 292.0
55.673492 60.0
55.688347 168.0
55.759663 116.0
55.839947 188.0
55.924755 124.0
56.143772 172.0
56.424496 208.0
56.4888 212.0
56.525414 204.0
56.569611 124.0
56.654972 208.0
56.714794 200.0
56.741898 132.0
56.813885 160.0
56.973705 184.0
57.003071 88.0
57.05267 120.0
57.126358 124.0
57.18354 152.0
57.20005 128.0
57.308529 156.0
57.359772 152.0
57.389923 28.0
57.56345 108.0
57.815914 156.0
57.950684 192.0
58.070442 184.0
58.181217 148.0
58.202473 132.0
58.229809 172.0
58.43959 160.0
58.482288 216.0
58.533966 100.0
58.550716 100.0
58.573563 116.0
58.613174 224.0
58.955002 180.0
58.979458 136.0
58.993214 160.0
59.017677 156.0
59.055908 208.0
59.135983 84.0
59.273304 180.0
59.346878 180.0
59.388462 172.0
59.420498 180.0
59.446583 196.0
59.468071 104.0
59.497238 172.0
59.746204 148.0
59.781597 132.0
59.889366 136.0
59.92942 132.0
59.957161 136.0
60.063549 260.0
60.091316 156.0
60.165398 176.0
60.205544 100.0
60.562817 180.0
60.592251 132.0
60.660439 168.0
60.846603 176.0
60.907169 160.0
61.050159 200.0
61.081264 200.0
61.115494 176.0
61.1544 128.0
61.358467 164.0
61.383415 156.0
61.420845 164.0
61.438992 196.0
61.567558 164.0
61.693241 156.0
61.731651 160.0
61.784832 140.0
61.823948 368.0
61.84586 140.0
61.894394 120.0
62.168724 168.0
62.251926 204.0
62.324184 52.0
62.37133 132.0
62.569546 244.0
62.594738 196.0
62.678226 140.0
62.705017 84.0
62.845367 88.0
62.924282 124.0
63.009571 200.0
63.025368 48.0
63.052235 116.0
63.107563 200.0
63.156586 76.0
63.169243 116.0
63.30061 168.0
63.519325 116.0
63.55423 300.0
63.593903 96.0
63.666939 188.0
63.80381 200.0
63.844933 156.0
63.895832 148.0
64.039101 116.0
64.187317 144.0
64.297386 168.0
64.433121 136.0
64.685791 144.0
64.809113 136.0
64.987091 52.0
65.012764 232.0
65.038445 200.0
65.068947 260.0
65.284264 136.0
65.588562 172.0
65.678864 128.0
65.706284 184.0
65.724037 132.0
65.807755 152.0
65.93235 96.0
65.97599 132.0
66.150711 152.0
66.173378 76.0
66.322418 220.0
66.353218 132.0
66.466751 68.0
66.685997 216.0
66.912109 76.0
67.07502 116.0
67.380188 112.0
67.507683 156.0
67.605843 164.0
67.686737 268.0
67.758125 72.0
67.800728 100.0
68.025436 132.0
68.143684 120.0
68.176544 136.0
68.222572 136.0
68.331116 132.0
68.41011 124.0
68.513863 108.0
68.594612 168.0
68.708405 116.0
68.792564 64.0
68.82724 84.0
68.853661 236.0
68.880089 236.0
68.908173 176.0
69.15126 144.0
69.290359 56.0
69.364937 128.0
69.411362 128.0
69.449501 196.0
69.461113 156.0
69.494293 192.0
69.59388 180.0
69.612152 184.0
69.640381 140.0
69.660316 180.0
69.739967 188.0
69.914711 140.0
69.926361 160.0
69.949661 68.0
70.074646 176.0
70.107895 172.0
70.124557 184.0
70.368111 104.0
70.697411 128.0
70.735909 156.0
70.812927 76.0
70.829681 156.0
70.843079 104.0
70.926865 156.0
70.997284 52.0
71.128159 68.0
71.151665 216.0
71.205399 120.0
71.492882 68.0
71.546745 144.0
71.622528 188.0
71.646111 140.0
71.937859 164.0
71.964874 64.0
72.084801 132.0
72.113533 132.0
72.13382 152.0
72.169319 128.0
72.304649 164.0
72.390991 204.0
72.68425 136.0
72.730072 108.0
72.755539 104.0
72.774216 216.0
72.831955 132.0
72.903313 132.0
72.927109 164.0
72.944107 192.0
72.983208 116.0
73.10228 172.0
73.192505 48.0
73.207825 108.0
73.274261 92.0
73.478851 88.0
73.538574 116.0
73.64785 144.0
73.801659 168.0
74.032928 188.0
74.072067 176.0
74.16288 100.0
74.178307 232.0
74.336098 128.0
74.35498 208.0
74.380722 172.0
74.49234 164.0
74.683144 100.0
74.794991 84.0
74.891731 176.0
74.937927 164.0
75.24321 124.0
75.298462 172.0
75.343376 140.0
75.360649 52.0
75.403854 180.0
75.516235 144.0
75.737793 112.0
75.796692 168.0
76.027855 240.0
76.044693 40.0
76.068993 184.0
76.115868 244.0
76.326126 64.0
76.416336 204.0
76.484444 176.0
76.587173 68.0
76.634216 128.0
76.663834 180.0
76.785873 120.0
76.888809 40.0
77.637596 180.0
77.653381 152.0
77.769966 128.0
77.792 140.0
77.934258 200.0
77.955345 180.0
77.996727 176.0
78.012871 352.0
78.067856 176.0
78.199806 72.0
78.294876 192.0
78.365341 232.0
78.473633 172.0
78.55751 148.0
78.724586 172.0
78.836693 168.0
78.866524 180.0
78.905418 112.0
79.004456 140.0
79.045151 132.0
79.089394 132.0
79.238152 216.0
79.27182 128.0
79.293083 140.0
79.362221 144.0
79.417198 200.0
79.479286 180.0
79.520103 172.0
79.671043 116.0
79.839905 136.0
79.959099 248.0
80.049896 184.0
80.073044 140.0
80.10511 128.0
80.383247 140.0
80.547501 108.0
80.593948 108.0
80.665443 160.0
80.742325 112.0
80.994698 160.0
81.019775 144.0
81.034103 136.0
81.161369 76.0
81.227722 116.0
81.414391 104.0
81.45031 168.0
81.567108 136.0
81.671402 228.0
81.705582 192.0
81.775764 148.0
81.92276 164.0
81.988281 252.0
82.018921 80.0
82.03154 188.0
82.269669 108.0
82.337593 136.0
82.366707 152.0
82.426804 120.0
82.640167 176.0
82.667313 76.0
82.803093 136.0
82.935356 144.0
83.00425 168.0
83.074989 164.0
83.109459 68.0
83.267395 188.0
83.409119 124.0
83.425476 112.0
83.445473 128.0
83.461838 184.0
83.48912 120.0
83.58371 164.0
83.805855 172.0
83.822258 124.0
84.190758 164.0
84.225754 196.0
84.282089 188.0
84.415535 120.0
84.453941 40.0
84.585686 80.0
84.607651 148.0
84.653427 92.0
85.08165 132.0
85.126556 32.0
85.289864 180.0
85.38752 76.0
85.411324 136.0
85.450058 192.0
85.485023 44.0
85.67099 136.0
85.697243 112.0
85.71521 156.0
85.759438 164.0
85.835022 184.0
85.866379 212.0
85.901421 172.0
86.07122 164.0
86.211609 180.0
86.228241 44.0
86.27446 136.0
86.287399 172.0
86.350273 160.0
86.472382 140.0
86.638908 172.0
86.664978 120.0
86.881096 148.0
87.216156 140.0
87.657242 148.0
87.845551 212.0
88.273262 184.0
88.288223 196.0
88.321892 172.0
88.46785 172.0
88.559608 96.0
88.829529 108.0
88.963768 192.0
89.118652 156.0
89.199463 76.0
89.297241 120.0
89.32357 148.0
89.378128 188.0
89.483536 116.0
89.500481 176.0
89.532494 136.0
89.705841 140.0
89.869919 184.0
89.951073 192.0
90.143723 236.0
90.162621 144.0
90.630028 136.0
90.758926 192.0
90.779785 64.0
90.886009 144.0
90.937248 136.0
90.96003 56.0
91.007492 180.0
91.049263 184.0
91.133385 184.0
91.444725 192.0
91.46566 128.0
91.480888 64.0
91.509445 172.0
91.694229 192.0
91.717041 132.0
92.007057 176.0
92.024239 64.0
92.048401 328.0
92.070068 216.0
92.090111 116.0
92.156029 188.0
92.276443 72.0
92.398849 176.0
92.494537 112.0
92.622826 156.0
92.764633 248.0
92.814484 160.0
92.900787 224.0
93.01593 60.0
93.029366 116.0
93.055466 180.0
93.085045 144.0
93.19838 180.0
93.284859 164.0
93.30024 192.0
93.327156 256.0
93.411781 112.0
93.504143 48.0
93.677437 108.0
93.746796 200.0
93.883675 48.0
93.899101 192.0
94.074692 216.0
94.153854 136.0
94.271706 220.0
94.48053 196.0
94.619873 232.0
94.75351 76.0
94.767067 168.0
95.059868 168.0
95.147217 200.0
95.292587 188.0
95.329796 140.0
95.432823 132.0
95.44838 168.0
95.504776 144.0
95.574814 128.0
95.615677 140.0
95.779228 200.0
95.841576 172.0
95.866905 140.0
95.995567 220.0
96.011169 164.0
96.063835 76.0
96.163345 132.0
96.497391 220.0
96.538452 224.0
96.763481 200.0
97.027718 156.0
97.178993 144.0
97.226089 120.0
97.436195 144.0
97.617027 136.0
97.790154 120.0
97.908279 120.0
97.989044 116.0
98.022545 276.0
98.089554 224.0
98.18222 192.0
98.219696 176.0
98.272964 240.0
98.328217 140.0
98.367691 152.0
98.422974 164.0
98.555313 184.0
98.590881 184.0
98.695656 148.0
98.882446 76.0
98.925156 176.0
99.007248 244.0
99.030106 60.0
99.180695 144.0
99.206459 156.0
99.363136 168.0
99.402817 184.0
99.478241 116.0
99.500076 200.0
99.587456 92.0
99.670891 168.0
99.698715 64.0
99.788162 176.0
99.858185 152.0
100.144371 40.0
100.216095 220.0
100.243988 140.0
100.597015 212.0
100.716827 116.0
100.757019 204.0
100.780762 164.0
100.830719 172.0
100.990669 128.0
101.058685 168.0
101.144279 156.0
101.184776 116.0
101.228828 224.0
101.443214 144.0
101.491333 140.0
101.553497 240.0
101.621704 100.0
101.649796 56.0
101.72406 104.0
101.872665 196.0
101.936958 128.0
102.015343 172.0
102.085716 124.0
102.103813 168.0
102.147453 132.0
102.393631 176.0
102.478233 168.0
102.589554 136.0
102.716125 156.0
102.808937 228.0
102.901794 132.0
102.950256 232.0
103.04425 156.0
103.08358 156.0
103.561043 156.0
103.629921 184.0
103.846832 196.0
103.883339 88.0
103.903625 44.0
104.046494 324.0
104.241844 148.0
104.317917 184.0
104.40332 124.0
104.522598 132.0
104.54776 172.0
104.594574 148.0
104.616966 164.0
104.792114 72.0
104.867378 180.0
105.021904 244.0
105.044334 1012.0
105.081635 168.0
105.097954 40.0
105.181633 176.0
105.202042 128.0
105.238792 256.0
105.438988 160.0
105.471687 104.0
105.539154 168.0
105.591362 136.0
105.618912 160.0
105.643463 120.0
105.660591 224.0
105.743729 76.0
105.803085 236.0
105.861176 172.0
105.925957 148.0
105.962837 212.0
106.005867 196.0
106.048416 320.0
106.108353 104.0
106.141159 192.0
106.171921 192.0
106.192429 112.0
106.305267 160.0
106.331947 220.0
106.430481 168.0
106.467445 196.0
106.518791 188.0
106.586594 104.0
106.763382 196.0
106.835373 28.0
106.983543 164.0
107.027534 508.0
107.046974 532.0
107.156548 140.0
107.243095 80.0
107.337929 140.0
107.364738 220.0
107.391548 168.0
107.405991 96.0
107.457565 152.0
107.53804 72.0
107.674309 128.0
107.744545 188.0
107.796196 220.0
107.8582 148.0
107.947105 248.0
108.035774 344.0
108.133293 168.0
108.176765 120.0
108.216103 112.0
108.294792 176.0
108.37973 96.0
108.535187 152.0
108.574593 176.0
108.595329 168.0
108.780006 80.0
108.850594 140.0
108.894211 100.0
108.930481 164.0
108.968994 100.0
109.014709 152.0
109.044022 672.0
109.10408 40.0
109.129036 152.0
109.151901 48.0
109.166458 100.0
109.181015 172.0
109.219574 224.0
109.347458 96.0
109.409904 188.0
109.426559 144.0
109.60569 64.0
109.630699 192.0
109.816246 224.0
109.832932 156.0
109.885086 28.0
109.962502 204.0
110.181557 164.0
110.242149 160.0
110.526543 88.0
110.666786 232.0
110.727516 228.0
110.805023 176.0
110.836449 212.0
111.008339 272.0
111.037697 196.0
111.132095 180.0
111.405029 152.0
111.434448 152.0
111.452568 192.0
111.484879 72.0
111.535316 180.0
111.640442 208.0
111.65937 236.0
111.980759 200.0
112.027733 136.0
112.145729 144.0
112.286995 140.0
112.521225 80.0
112.563454 84.0
112.580345 120.0
112.601471 132.0
112.80854 236.0
112.888885 180.0
113.036964 52.0
113.08564 212.0
113.189377 176.0
113.424751 124.0
113.524193 88.0
113.715134 180.0
113.749092 240.0
113.827652 252.0
113.846764 52.0
113.918976 128.0
114.116631 244.0
114.131516 80.0
114.195312 180.0
114.450684 204.0
114.567825 156.0
114.593391 128.0
114.650925 176.0
114.763908 204.0
114.898277 192.0
115.053932 388.0
115.250565 176.0
115.378799 88.0
115.489998 212.0
115.622658 148.0
115.695435 156.0
115.727547 76.0
115.873192 132.0
115.982483 184.0
116.006065 184.0
116.038223 188.0
116.180916 180.0
116.244133 136.0
116.287056 200.0
116.302086 172.0
116.31926 140.0
116.435204 160.0
116.59848 104.0
116.731773 100.0
116.76403 136.0
116.807045 112.0
116.880196 136.0
116.900589 232.0
116.916779 168.0
116.940453 144.0
117.01149 140.0
117.044792 3376.0
117.254906 160.0
117.300171 236.0
117.364845 64.0
117.496414 216.0
117.692825 176.0
117.720894 140.0
117.849503 212.0
117.885078 196.0
118.027748 200.0
118.052994 2148.0
118.101273 116.0
118.138046 120.0
118.278709 96.0
118.330666 188.0
118.350151 168.0
118.516937 176.0
118.755402 248.0
118.811798 108.0
118.911621 120.0
118.948517 160.0
119.05645 364.0
119.085312 48.0
119.276527 84.0
119.359138 240.0
119.393936 40.0
119.435257 168.0
119.498344 196.0
119.578865 180.0
119.59845 204.0
119.628929 132.0
119.69207 104.0
119.757401 140.0
119.838005 88.0
119.853256 100.0
120.043465 1400.0
120.084343 180.0
120.324379 164.0
120.429199 60.0
120.464149 156.0
120.667595 216.0
120.811737 212.0
120.96711 120.0
121.048119 272.0
121.078339 100.0
121.166397 176.0
121.267197 164.0
121.372429 144.0
121.428085 148.0
121.655457 188.0
121.672729 152.0
122.040474 444.0
122.097107 196.0
122.160896 148.0
122.253922 144.0
122.308334 148.0
122.32975 192.0
122.36557 184.0
122.444847 172.0
122.466866 52.0
122.640167 232.0
122.678413 224.0
122.729118 168.0
122.978409 168.0
123.040215 132.0
123.079956 200.0
123.236786 176.0
123.294235 52.0
123.33844 68.0
123.475525 160.0
123.493217 172.0
123.572861 172.0
123.619324 140.0
123.643669 60.0
123.756569 52.0
123.865082 84.0
123.969971 212.0
124.006897 140.0
124.068062 192.0
124.132729 184.0
124.59494 140.0
124.634933 204.0
124.674934 228.0
124.846115 148.0
124.946205 92.0
125.040504 128.0
125.093086 188.0
125.119804 96.0
125.269012 220.0
125.445061 148.0
125.723862 76.0
125.846642 84.0
125.935966 148.0
126.016388 68.0
126.150482 28.0
126.293594 104.0
126.524086 72.0
126.710777 100.0
126.77047 160.0
126.822021 184.0
126.837708 184.0
126.934113 152.0
126.978966 108.0
127.118057 160.0
127.170105 148.0
127.295403 136.0
127.403214 144.0
127.423431 116.0
127.504326 76.0
127.607727 172.0
127.648201 188.0
127.715675 132.0
127.769661 148.0
127.832664 216.0
127.857422 140.0
128.047409 204.0
128.064331 664.0
128.134384 144.0
128.179459 192.0
128.445251 156.0
128.488358 140.0
128.639557 160.0
128.73439 356.0
128.802139 124.0
129.06955 676.0
129.163818 140.0
129.271362 180.0
129.415024 136.0
129.503342 152.0
129.546371 100.0
129.675537 120.0
129.716339 160.0
129.755112 192.0
129.852386 176.0
129.909088 108.0
130.013458 96.0
130.074722 328.0
130.120148 52.0
130.385925 72.0
130.495041 120.0
130.558701 220.0
130.708847 184.0
130.777115 108.0
130.797607 128.0
130.829468 56.0
130.881836 220.0
130.931946 124.0
130.966721 176.0
131.032166 112.0
131.048111 124.0
131.114929 244.0
131.307983 60.0
131.349045 160.0
131.387833 268.0
131.495071 100.0
131.533875 128.0
131.661743 120.0
131.695999 192.0
131.814804 212.0
131.847961 176.0
132.054474 132.0
132.115738 116.0
132.258484 120.0
132.471451 60.0
132.543655 240.0
132.696045 136.0
132.753357 72.0
133.045959 728.0
133.076904 116.0
133.134659 136.0
133.244568 112.0
133.299713 208.0
133.334183 160.0
133.354874 236.0
133.435333 152.0
133.658432 100.0
133.702164 140.0
133.770004 252.0
133.840286 84.0
133.881729 180.0
134.041626 600.0
134.093689 192.0
134.199722 108.0
134.282745 132.0
134.333496 244.0
134.395782 120.0
134.425781 96.0
134.45578 164.0
134.674057 176.0
134.721329 200.0
134.751358 176.0
134.806808 168.0
135.009857 208.0
135.047104 1788.0
135.091202 96.0
135.125916 180.0
135.396744 104.0
135.447693 140.0
135.561218 72.0
135.702621 120.0
135.748993 204.0
135.772049 72.0
135.789993 100.0
135.79599 136.0
135.858002 148.0
136.055267 184.0
136.104034 184.0
136.15744 268.0
136.206223 144.0
136.294495 56.0
136.322388 128.0
136.47348 160.0
136.589767 212.0
136.645599 124.0
136.759628 120.0
136.91095 104.0
136.962189 120.0
136.994812 188.0
137.055389 212.0
137.076355 132.0
137.129959 104.0
137.206879 136.0
137.248856 204.0
137.309479 252.0
137.72644 224.0
137.816971 152.0
137.853439 192.0
137.983551 212.0
138.211212 156.0
138.258011 48.0
138.304825 64.0
138.51088 124.0
138.549469 144.0
138.719437 144.0
138.742874 196.0
138.923462 180.0
139.053268 832.0
139.176941 44.0
139.341354 68.0
139.402435 68.0
139.534073 208.0
139.569336 104.0
139.611664 164.0
139.804581 160.0
139.837524 148.0
139.931198 196.0
139.96936 64.0
140.047867 220.0
140.131577 184.0
140.152802 236.0
140.263855 172.0
140.393539 140.0
140.426544 92.0
140.487885 144.0
140.55394 132.0
140.636536 136.0
140.815994 72.0
140.912842 192.0
141.000275 120.0
141.0522 140.0
141.057693 136.0
141.067032 180.0
141.125565 148.0
141.433105 120.0
141.793121 144.0
141.864227 172.0
141.940109 136.0
141.987534 168.0
142.06424 364.0
142.126511 116.0
142.29364 132.0
142.322128 244.0
142.341125 196.0
142.393372 188.0
142.410004 208.0
142.538284 60.0
142.811691 172.0
142.990128 160.0
143.061081 164.0
143.209183 224.0
143.318771 148.0
143.387878 240.0
143.466537 164.0
143.538055 140.0
143.685944 132.0
143.705032 140.0
143.747986 248.0
143.835159 144.0
143.886414 124.0
143.929398 160.0
143.972382 192.0
144.062561 148.0
144.266281 208.0
144.304535 176.0
144.383438 168.0
144.495865 204.0
144.560471 144.0
144.591583 124.0
144.809464 132.0
144.842987 144.0
145.029892 216.0
145.051468 164.0
145.116196 140.0
145.202515 104.0
145.281677 172.0
145.336868 152.0
145.370453 132.0
145.480865 36.0
145.531281 212.0
145.586517 188.0
145.634552 148.0
145.749863 132.0
145.814743 56.0
145.94696 180.0
146.038986 320.0
146.163452 128.0
146.228424 180.0
146.24527 56.0
146.543884 232.0
146.748764 320.0
146.76564 112.0
146.929642 72.0
147.342484 132.0
147.388397 176.0
147.439148 52.0
147.521332 88.0
147.591446 164.0
147.676086 32.0
147.898682 120.0
148.005203 180.0
148.051224 184.0
148.291595 184.0
148.344391 136.0
148.434097 156.0
148.485031 200.0
148.528687 160.0
148.555374 44.0
148.720383 216.0
148.832047 96.0
148.931625 120.0
148.989929 204.0
149.038513 104.0
149.135727 176.0
149.194061 108.0
149.284027 132.0
149.381317 120.0
149.539871 124.0
149.590607 224.0
149.960846 92.0
150.060791 232.0
150.103958 244.0
150.204681 232.0
150.341309 252.0
150.578491 80.0
150.648956 68.0
150.680725 136.0
150.974045 192.0
151.022964 168.0
151.040085 56.0
151.201569 88.0
151.265213 100.0
151.417023 148.0
151.448853 120.0
151.779709 156.0
151.985748 144.0
152.052017 184.0
152.069199 140.0
152.381058 84.0
152.50148 204.0
152.541977 176.0
152.710464 156.0
152.907303 164.0
152.973755 168.0
153.074707 268.0
153.128876 184.0
153.335846 88.0
153.46402 184.0
153.51828 124.0
153.646545 180.0
153.736328 124.0
153.802002 136.0
153.880997 88.0
154.034119 184.0
154.06308 568.0
154.12059 52.0
154.150238 128.0
154.439499 132.0
154.526077 216.0
154.672089 212.0
154.696854 180.0
154.966797 128.0
155.069366 420.0
155.092407 192.0
155.569458 160.0
155.586838 116.0
155.701065 124.0
155.965454 156.0
156.00827 164.0
156.07933 3456.0
156.137085 92.0
156.188217 188.0
156.292709 236.0
156.325058 176.0
156.377319 52.0
156.404694 180.0
156.476898 32.0
156.559067 160.0
156.691086 44.0
156.733444 96.0
156.784912 104.0
156.823151 88.0
157.043442 476.0
157.0802 712.0
157.109924 228.0
157.179779 104.0
157.289597 140.0
157.327042 208.0
157.367767 128.0
157.424423 176.0
157.539322 108.0
157.61676 128.0
157.954285 128.0
158.006821 140.0
158.047897 204.0
158.116913 204.0
158.359772 164.0
158.404861 116.0
158.427414 152.0
158.485031 184.0
158.657974 136.0
158.699081 292.0
158.941391 156.0
158.986557 92.0
159.019196 168.0
159.060104 3444.0
159.189911 68.0
159.207489 152.0
159.297913 172.0
159.343124 328.0
159.421021 112.0
159.54921 120.0
159.649796 68.0
159.768005 156.0
159.897293 184.0
159.966812 276.0
160.062653 404.0
160.150635 72.0
160.198502 80.0
160.223694 72.0
160.243851 156.0
160.26149 64.0
160.314407 164.0
160.432861 172.0
160.483292 132.0
160.551376 124.0
160.579117 188.0
160.682541 188.0
160.722916 152.0
160.803665 148.0
161.003113 132.0
161.055145 144.0
161.096573 144.0
161.181778 72.0
161.186111 156.0
161.390839 188.0
161.513672 156.0
161.549088 44.0
161.569321 156.0
161.91864 84.0
162.03009 112.0
162.047836 188.0
162.0681 160.0
162.108643 40.0
162.130432 148.0
162.18721 176.0
162.207489 124.0
162.242981 140.0
162.286087 164.0
162.560028 144.0
162.626022 132.0
162.71994 204.0
162.907883 180.0
162.940903 116.0
162.97139 132.0
163.05899 144.0
163.106094 132.0
163.225586 204.0
163.56395 104.0
163.75238 92.0
163.864456 148.0
164.04541 160.0
164.124435 140.0
164.195847 192.0
164.246857 160.0
164.445877 172.0
164.504593 124.0
164.553101 196.0
164.588837 148.0
164.841736 180.0
165.051346 184.0
165.071793 160.0
165.11528 88.0
165.176666 188.0
165.243179 144.0
165.545212 192.0
165.570831 184.0
165.762955 140.0
165.783463 112.0
165.850098 204.0
166.016312 212.0
166.063965 4072.0
166.106522 144.0
166.216843 120.0
166.329773 172.0
166.393951 168.0
166.517197 156.0
166.564774 56.0
166.612244 76.0
166.650787 208.0
166.716553 208.0
166.828125 144.0
166.933533 144.0
167.070618 3052.0
167.126465 168.0
167.203659 44.0
167.226822 64.0
167.381287 176.0
167.430222 52.0
167.471436 96.0
167.582199 124.0
167.615707 180.0
167.775497 192.0
167.878647 152.0
167.914749 76.0
168.027588 172.0
168.070724 1328.0
168.144363 140.0
168.21846 164.0
168.276016 184.0
168.353485 104.0
168.38063 104.0
168.418045 92.0
168.454208 52.0
168.477463 76.0
168.611832 48.0
168.629913 180.0
168.676453 36.0
168.813477 72.0
168.979019 248.0
169.015244 156.0
169.045609 196.0
169.071625 416.0
169.196426 128.0
169.225143 220.0
169.294815 220.0
169.339966 212.0
169.45282 212.0
169.470963 148.0
169.732758 144.0
169.769058 140.0
169.84169 176.0
169.862442 144.0
169.89357 124.0
169.927292 284.0
169.955841 156.0
169.976593 184.0
170.060806 696.0
170.119614 152.0
170.324493 208.0
170.420609 128.0
170.456985 108.0
170.506363 148.0
170.672745 176.0
170.768967 152.0
170.886017 176.0
171.045868 500.0
171.187973 128.0
171.302567 64.0
171.446075 156.0
171.48497 120.0
171.873535 128.0
171.897034 108.0
171.959656 144.0
172.002945 192.0
172.055161 652.0
172.095413 84.0
172.205093 160.0
172.223373 68.0
172.288681 188.0
172.367065 108.0
172.512634 212.0
172.633698 160.0
172.720001 136.0
172.76709 180.0
172.842453 144.0
172.916885 112.0
172.95813 92.0
173.007858 136.0
173.039413 156.0
173.066101 592.0
173.394958 180.0
173.634109 124.0
173.712799 140.0
173.770523 128.0
173.851868 56.0
173.951599 208.0
173.969986 172.0
174.014618 136.0
174.043411 140.0
174.051529 136.0
174.077637 124.0
174.101273 168.0
174.14328 204.0
174.29303 132.0
174.358734 168.0
174.479645 120.0
174.647949 84.0
174.690033 172.0
174.734756 64.0
174.784744 128.0
174.863693 104.0
174.88475 128.0
175.005936 236.0
175.160629 156.0
175.269257 168.0
175.308777 200.0
175.340408 172.0
175.390488 104.0
175.469574 184.0
175.524933 156.0
175.849426 164.0
175.899582 128.0
175.944458 168.0
176.02623 132.0
176.205917 180.0
176.356552 152.0
176.496658 180.0
176.660645 220.0
176.724136 80.0
176.933228 104.0
176.972946 68.0
177.065628 164.0
177.118607 120.0
177.227219 136.0
177.288162 108.0
177.372986 104.0
177.588318 172.0
178.054886 180.0
178.081436 100.0
178.123932 136.0
178.161133 116.0
178.214264 92.0
178.251465 172.0
178.283356 172.0
178.307281 180.0
178.394989 128.0
178.448166 168.0
178.546555 172.0
178.586441 44.0
178.634323 48.0
178.676895 172.0
178.873154 336.0
179.001617 192.0
179.053589 136.0
179.073517 76.0
179.102829 108.0
179.145447 160.0
179.176651 112.0
179.241364 124.0
179.377289 112.0
179.465271 132.0
179.582596 132.0
179.630615 164.0
179.750671 148.0
180.068359 380.0
180.098602 260.0
180.155151 204.0
180.188568 160.0
180.218018 196.0
180.343567 164.0
180.643051 180.0
180.683182 76.0
180.870499 156.0
180.891922 152.0
180.985992 116.0
181.074249 264.0
181.14267 188.0
181.194534 208.0
181.341919 104.0
181.382126 196.0
181.65564 48.0
181.677109 180.0
181.730759 184.0
181.765656 96.0
181.889099 128.0
182.082047 2496.0
182.130768 128.0
182.16301 140.0
182.243607 48.0
182.273163 160.0
182.316162 116.0
182.391418 132.0
182.445175 112.0
182.501633 292.0
182.649551 132.0
182.681839 200.0
182.824432 132.0
183.010178 84.0
183.090744 7876.0
183.13945 96.0
183.187927 120.0
183.241257 184.0
183.263367 72.0
183.2957 56.0
183.342148 68.0
183.387329 76.0
183.438538 60.0
183.460114 92.0
183.495163 56.0
183.551788 136.0
183.643478 44.0
183.684494 308.0
183.764862 48.0
183.821381 168.0
183.975388 96.0
184.023972 200.0
184.074722 9224.0
184.126587 164.0
184.153275 168.0
184.226532 172.0
184.258957 52.0
184.280563 80.0
184.31839 184.0
184.402176 76.0
184.421097 40.0
184.467041 68.0
184.604935 84.0
184.645508 32.0
184.667145 60.0
184.699951 120.0
184.797241 84.0
184.886292 56.0
184.907944 100.0
184.970184 188.0
185.014282 112.0
185.062958 17496.0
185.120987 132.0
185.182541 192.0
185.308716 128.0
185.379166 48.0
185.414398 96.0
185.463181 156.0
185.485321 120.0
185.57077 116.0
185.59874 136.0
185.647537 156.0
185.689255 148.0
185.731628 48.0
185.772308 36.0
185.930969 152.0
185.99292 148.0
186.010834 420.0
186.069977 16068.0
186.127762 108.0
186.181717 48.0
186.242157 92.0
186.271805 44.0
186.308746 100.0
186.377762 88.0
186.396149 52.0
186.466904 148.0
186.529953 92.0
186.604492 200.0
186.649582 92.0
186.674057 64.0
186.71756 132.0
186.753891 56.0
186.831802 72.0
186.981461 124.0
187.074936 1520.0
187.123016 104.0
187.161133 120.0
187.180191 52.0
187.215607 152.0
187.253723 108.0
187.319107 48.0
187.340897 116.0
187.370865 112.0
187.392654 144.0
187.433533 92.0
187.479858 80.0
187.53981 68.0
187.567078 168.0
187.621597 124.0
187.654312 48.0
187.722473 80.0
187.812485 192.0
188.025177 188.0
188.05455 240.0
188.077087 152.0
188.153595 132.0
188.276474 192.0
188.418503 80.0
188.475891 156.0
188.530533 152.0
188.609802 436.0
188.657898 148.0
188.726654 172.0
188.803925 28.0
188.965317 112.0
189.014572 72.0
189.085724 172.0
189.342285 152.0
189.375931 116.0
189.437378 128.0
189.485519 84.0
189.540314 88.0
189.595123 244.0
189.685562 56.0
189.995453 148.0
190.039352 116.0
190.167984 124.0
190.346771 200.0
190.415436 44.0
190.49234 172.0
190.572021 200.0
190.750656 52.0
190.813889 140.0
190.99263 168.0
191.055908 152.0
191.121933 144.0
191.300827 116.0
191.556931 188.0
191.785645 112.0
192.014557 144.0
192.067444 2060.0
192.171722 96.0
192.282104 80.0
192.342834 120.0
192.41185 28.0
192.525055 152.0
192.561111 76.0
192.682159 160.0
192.721191 60.0
192.77092 100.0
192.806854 152.0
192.892532 168.0
192.942291 128.0
192.989288 192.0
193.073898 2132.0
193.188431 36.0
193.268661 176.0
193.288025 100.0
193.371048 56.0
193.415344 144.0
193.681168 64.0
193.955475 144.0
194.080719 696.0
194.22168 160.0
194.260513 128.0
194.37149 68.0
194.510254 52.0
194.535248 156.0
194.848969 128.0
195.045395 308.0
195.064514 68.0
195.08139 380.0
195.157578 100.0
195.243774 76.0
195.279938 56.0
195.327225 140.0
195.43811 56.0
195.477463 120.0
195.521988 48.0
195.585999 40.0
195.925735 192.0
195.948029 148.0
196.026047 100.0
196.055466 812.0
196.126373 64.0
196.22673 136.0
196.262985 48.0
196.321548 140.0
196.350571 196.0
196.541916 80.0
196.592148 124.0
196.770782 168.0
196.999802 248.0
197.062485 552.0
197.203781 160.0
197.41626 100.0
197.523956 148.0
197.553314 40.0
197.696014 76.0
197.884491 192.0
197.970352 68.0
198.067444 892.0
198.15242 32.0
198.365417 128.0
198.463547 180.0
198.488785 56.0
198.526459 180.0
198.558884 184.0
198.763672 140.0
198.786118 112.0
198.816986 108.0
199.057404 516.0
199.167953 204.0
199.474243 168.0
199.50235 196.0
199.839844 160.0
200.003067 56.0
200.060394 512.0
200.101593 144.0
200.190842 184.0
200.386063 220.0
200.676361 156.0
200.760742 204.0
200.811722 168.0
200.947128 132.0
201.034607 124.0
201.069443 892.0
201.144684 176.0
201.280197 148.0
201.311264 172.0
201.42424 76.0
201.653107 112.0
201.777481 104.0
201.802933 72.0
201.853836 200.0
201.910385 104.0
202.020706 80.0
202.043335 244.0
202.063141 168.0
202.258408 176.0
202.431107 196.0
202.456589 148.0
202.555725 152.0
202.640717 44.0
202.878784 108.0
202.98085 100.0
203.054581 168.0
203.080109 168.0
203.108475 68.0
203.173721 144.0
203.264511 188.0
203.329788 140.0
203.466034 216.0
203.764252 168.0
203.912018 132.0
204.055527 152.0
204.159363 112.0
204.193481 104.0
204.514999 116.0
204.626022 120.0
204.905136 80.0
204.933624 148.0
204.973511 156.0
205.061859 128.0
205.321304 148.0
205.35553 156.0
205.452515 136.0
205.503876 52.0
205.989212 152.0
206.074493 164.0
206.340729 180.0
206.460815 124.0
206.591019 180.0
206.649612 208.0
206.887161 192.0
207.09906 140.0
207.15062 144.0
207.230835 168.0
207.308212 156.0
207.359787 156.0
207.422852 116.0
207.61496 108.0
207.637894 156.0
208.075119 120.0
208.122879 276.0
208.240616 88.0
208.346893 144.0
208.559555 260.0
208.763672 88.0
208.842194 200.0
209.068436 344.0
209.240265 184.0
209.411224 68.0
209.442917 152.0
209.59848 96.0
209.782944 192.0
209.804855 192.0
209.990555 64.0
210.010742 124.0
210.07814 2204.0
210.143707 196.0
210.212692 188.0
210.264648 116.0
210.330017 80.0
210.394531 72.0
210.429184 208.0
210.460938 184.0
210.515808 136.0
210.554169 184.0
210.577484 140.0
210.619781 152.0
210.666 92.0
210.696289 256.0
210.755569 72.0
210.782806 124.0
210.822021 160.0
210.881378 172.0
210.92897 204.0
210.949646 180.0
210.97522 140.0
210.998154 172.0
211.031113 156.0
211.0867 73780.0
211.151611 48.0
211.196823 88.0
211.223923 60.0
211.261673 180.0
211.302368 212.0
211.383789 156.0
211.488434 168.0
211.563965 256.0
211.598557 88.0
211.629852 60.0
211.674286 72.0
211.70668 60.0
211.736221 44.0
211.765198 76.0
211.834702 132.0
211.863678 64.0
211.889755 144.0
211.996964 96.0
212.085876 6544.0
212.149673 140.0
212.211243 52.0
212.242203 180.0
212.271317 56.0
212.288574 88.0
212.315857 84.0
212.348419 176.0
212.37677 56.0
212.428009 48.0
212.460892 32.0
212.488602 80.0
212.516663 108.0
212.542862 224.0
212.58815 112.0
212.631119 48.0
212.656464 108.0
212.695938 80.0
212.716263 32.0
212.746552 92.0
212.79689 156.0
212.807068 216.0
212.827103 344.0
212.845398 148.0
212.864334 204.0
212.890472 40.0
212.92189 176.0
212.929031 256.0
212.981705 184.0
213.028305 564.0
213.081894 44772.0
213.199677 156.0
213.228439 48.0
213.273361 284.0
213.298569 140.0
213.316711 44.0
213.348862 84.0
213.354752 56.0
213.366104 52.0
213.376434 116.0
213.385895 80.0
213.398544 156.0
213.451157 72.0
213.470474 48.0
213.47963 120.0
213.489471 76.0
213.511383 184.0
213.551819 116.0
213.579498 92.0
213.600174 292.0
213.648376 128.0
213.668915 200.0
213.712799 100.0
213.753937 160.0
213.806564 76.0
213.856216 252.0
213.901001 208.0
213.948868 168.0
213.973007 68.0
214.024658 128.0
214.084579 6752.0
214.156998 88.0
214.197433 152.0
214.250961 116.0
214.298355 60.0
214.333313 64.0
214.364639 80.0
214.442245 96.0
214.481949 48.0
214.526077 88.0
214.607315 32.0
214.627716 64.0
214.668549 36.0
214.703537 104.0
214.728104 152.0
214.756042 36.0
214.797287 116.0
214.971939 84.0
214.998199 88.0
215.061493 176.0
215.086578 464.0
215.17334 44.0
215.196701 56.0
215.255096 88.0
215.312805 100.0
215.362213 112.0
215.391998 112.0
215.461777 84.0
215.478912 172.0
215.509216 64.0
215.573502 56.0
215.596893 40.0
215.643555 116.0
215.678726 136.0
215.713074 140.0
215.738434 132.0
215.784912 112.0
215.806442 116.0
215.886307 100.0
216.006226 140.0
216.096924 32.0
216.579956 60.0
216.6492 100.0
216.831924 124.0
216.852448 112.0
216.890549 52.0
217.054733 156.0
217.306976 188.0
217.621033 100.0
217.823669 128.0
217.848343 80.0
217.955887 124.0
218.340988 88.0
218.532196 132.0
218.876572 100.0
218.94136 64.0
219.006149 144.0
219.070953 96.0
219.259537 92.0
219.415771 152.0
219.743134 80.0
219.908401 88.0
220.113235 156.0
220.298172 124.0
220.759262 80.0
220.883484 64.0
221.623611 84.0
221.810318 120.0
221.913437 164.0
222.102478 160.0
222.252228 100.0
222.436234 140.0
222.474823 140.0
222.566864 176.0
222.834183 96.0
223.051117 152.0
223.158142 112.0
223.265198 124.0
223.458542 96.0
223.628174 108.0
223.735336 60.0
223.809769 32.0
224.04422 172.0
224.423569 124.0
224.733765 92.0
225.032242 116.0
225.054642 208.0
225.247269 132.0
225.357803 160.0
225.411591 64.0
225.462387 100.0
225.577393 228.0
225.746399 204.0
226.064621 220.0
226.099411 132.0
226.557541 132.0
226.584503 120.0
226.620453 32.0
226.772415 124.0
227.075272 1064.0
227.1241 184.0
227.187103 148.0
227.475189 80.0
227.664337 92.0
227.712402 60.0
227.745438 52.0
227.805511 116.0
228.080231 712.0
228.481934 76.0
228.64743 168.0
228.806961 112.0
228.837067 68.0
229.002701 80.0
229.457733 116.0
229.810608 132.0
229.940369 196.0
230.052048 112.0
230.079224 152.0
230.604828 188.0
231.273285 144.0
231.857834 64.0
232.04274 136.0
232.100342 200.0
232.379395 52.0
232.485596 208.0
232.91066 172.0
233.208435 60.0
233.828903 116.0
233.874557 120.0
234.407532 40.0
235.005173 80.0
235.081467 160.0
236.082031 224.0
236.141586 188.0
236.291473 84.0
236.426102 124.0
236.631195 76.0
236.72612 104.0
236.830246 84.0
237.090683 148.0
237.289917 144.0
237.409515 188.0
237.486176 168.0
237.627289 116.0
237.719345 124.0
237.80835 140.0
238.070938 220.0
238.121521 136.0
238.41954 192.0
238.496368 84.0
239.080734 164.0
239.14537 132.0
239.210007 128.0
239.958633 48.0
240.091232 140.0
240.112823 140.0
240.788727 140.0
241.054398 208.0
241.329514 236.0
241.923523 40.0
242.450089 104.0
242.713593 144.0
242.81282 192.0
242.955505 48.0
243.061005 136.0
243.455246 48.0
243.486298 128.0
243.542206 216.0
243.647827 40.0
243.709961 56.0
244.048767 128.0
244.61824 180.0
245.14447 244.0
245.262894 144.0
245.484268 188.0
246.008438 128.0
246.38945 88.0
246.517548 128.0
246.802017 40.0
247.599991 160.0
248.069992 144.0
248.098114 136.0
248.314575 112.0
248.9077 172.0
248.932816 96.0
249.10556 96.0
249.954453 112.0
249.995361 180.0
250.089783 104.0
250.341644 124.0
250.417236 216.0
250.502289 156.0
251.053864 124.0
251.448227 224.0
251.530289 156.0
252.098801 264.0
252.743881 176.0
253.066742 124.0
253.820862 132.0
253.928696 52.0
254.080948 256.0
254.150757 144.0
254.309433 172.0
254.360214 88.0
254.576111 164.0
254.887421 132.0
255.087845 140.0
255.628021 156.0
255.940308 112.0
256.01355 156.0
256.121826 100.0
256.175995 160.0
256.217407 136.0
256.555206 220.0
256.679565 44.0
256.76886 212.0
256.998535 88.0
257.327301 96.0
257.547638 68.0
257.851166 96.0
257.985413 108.0
258.046173 156.0
258.078156 96.0
258.426788 168.0
258.497162 40.0
258.714813 84.0
258.830078 148.0
258.887726 132.0
259.067108 52.0
259.323456 60.0
260.093262 100.0
260.173492 112.0
260.359741 180.0
261.082489 152.0
261.1922 140.0
261.317657 68.0
261.546143 132.0
261.584778 188.0
261.620178 144.0
261.642731 156.0
261.9422 112.0
263.106384 100.0
263.206482 180.0
263.749237 48.0
264.146973 124.0
264.308746 176.0
264.354034 76.0
264.418762 148.0
264.846161 196.0
264.972504 192.0
265.076019 164.0
265.481384 144.0
265.744141 136.0
265.948608 84.0
266.432434 148.0
266.526672 148.0
267.997406 180.0
268.616821 92.0
269.047607 128.0
269.135742 104.0
269.501587 104.0
269.632294 120.0
269.919983 140.0
270.191437 52.0
270.325592 80.0
270.667908 92.0
271.193481 144.0
271.655853 124.0
271.777222 152.0
272.177673 180.0
272.322174 176.0
272.358307 160.0
273.482849 176.0
273.897736 128.0
274.105286 68.0
275.098053 136.0
275.673065 180.0
275.980164 192.0
276.085999 128.0
276.115753 148.0
276.377106 148.0
276.459808 176.0
276.55249 128.0
276.774292 148.0
276.943207 116.0
277.082336 216.0
277.476715 188.0
278.017395 128.0
278.090088 124.0
278.601807 100.0
279.103668 192.0
279.309875 124.0
279.848999 124.0
280.048798 124.0
280.188721 144.0
280.288055 108.0
280.401978 84.0
280.68866 48.0
281.072266 176.0
281.229126 40.0
281.546326 148.0
281.750061 160.0
282.331665 128.0
282.375153 120.0
283.010986 176.0
283.317322 104.0
284.102417 240.0
285.102509 176.0
285.389923 140.0
286.143585 148.0
286.352386 140.0
286.419739 128.0
286.446686 156.0
286.47702 192.0
286.588196 120.0
286.817352 168.0
287.097198 240.0
287.178131 36.0
287.832855 176.0
288.092926 144.0
288.549164 152.0
288.894135 144.0
288.971924 132.0
289.029449 196.0
289.097137 188.0
289.188507 168.0
289.327301 224.0
289.61853 148.0
289.991241 104.0
290.021759 168.0
290.048004 176.0
290.438812 112.0
290.560944 188.0
290.82901 160.0
290.886719 128.0
290.95462 128.0
291.092102 196.0
291.419922 196.0
291.538849 152.0
291.98761 184.0
292.065857 208.0
292.094055 220.0
292.212128 148.0
292.572876 68.0
293.073547 112.0
293.424622 208.0
293.595093 104.0
293.622375 48.0
294.100067 184.0
294.158081 168.0
294.386841 140.0
294.499542 80.0
294.813873 132.0
295.497742 196.0
295.925568 120.0
296.309174 120.0
296.617615 128.0
297.090851 160.0
297.303589 152.0
298.031586 196.0
298.078369 212.0
298.423401 148.0
298.615997 116.0
298.729492 92.0
298.939392 56.0
299.083923 112.0
299.108032 148.0
299.393799 52.0
299.535004 120.0
299.67627 112.0
299.776184 248.0
299.889923 168.0
299.917511 72.0
300.092102 264.0
300.111877 280.0
300.182953 76.0
300.607269 136.0
300.65213 180.0
301.099121 372.0
301.156219 192.0
301.26474 192.0
301.346191 108.0
301.553558 52.0
301.584656 104.0
302.023773 108.0
302.106293 392.0
302.570557 180.0
302.670959 112.0
302.871826 76.0
302.94458 204.0
302.989624 68.0
303.108368 288.0
303.242584 72.0
303.613556 128.0
303.83902 84.0
303.911865 120.0
303.943085 48.0
304.121368 1264.0
304.585388 32.0
304.748657 40.0
304.845947 48.0
304.87027 152.0
305.11203 880.0
305.308319 124.0
305.345184 120.0
305.597046 152.0
306.11264 304.0
306.153992 160.0
306.2341 68.0
306.544159 120.0
306.592957 100.0
306.673096 244.0
306.767212 164.0
306.826477 116.0
307.088013 100.0
307.136841 32.0
307.251984 132.0
307.869812 164.0
308.313477 156.0
308.341431 100.0
308.565155 124.0
308.746979 128.0
308.907867 140.0
308.935883 200.0
309.881134 160.0
311.617889 144.0
312.102936 224.0
312.47226 112.0
312.510956 52.0
313.070648 108.0
313.105865 180.0
313.239716 208.0
313.676666 176.0
313.856476 160.0
314.059326 172.0
314.091583 236.0
314.116425 152.0
314.15625 124.0
314.999969 116.0
315.090942 564.0
316.09024 168.0
316.687225 132.0
317.098328 160.0
317.151367 68.0
317.406647 172.0
317.48819 96.0
317.967163 96.0
318.10202 180.0
318.531708 124.0
318.55658 92.0
318.691589 112.0
318.919006 128.0
319.003265 132.0
319.303009 108.0
319.455963 272.0
319.681519 232.0
319.904358 148.0
320.068115 140.0
320.202332 164.0
320.264008 164.0
321.940948 84.0
322.154572 132.0
322.215576 104.0
323.202148 60.0
323.814301 52.0
324.746185 88.0
324.975769 172.0
325.209045 72.0
325.234161 144.0
325.273651 164.0
325.374176 132.0
325.984772 204.0
326.096191 160.0
326.380188 160.0
326.707489 104.0
326.883789 168.0
327.189728 108.0
327.240143 156.0
327.340973 172.0
327.567871 108.0
328.555634 108.0
328.956207 168.0
329.180084 236.0
329.241455 184.0
329.436523 144.0
329.461792 120.0
329.964142 204.0
330.021729 268.0
330.101959 1180.0
330.188354 152.0
330.474121 64.0
330.558563 112.0
330.622498 124.0
330.671234 180.0
330.78772 160.0
330.821564 124.0
330.904846 100.0
330.993622 148.0
331.056915 252.0
331.114105 900.0
331.213898 76.0
331.24527 160.0
331.387726 124.0
331.469879 260.0
331.538727 100.0
331.591339 256.0
331.651642 156.0
331.702698 136.0
331.749634 200.0
331.777954 36.0
331.825592 188.0
331.859253 116.0
331.90979 304.0
331.956879 140.0
331.984924 264.0
332.011719 160.0
332.030304 192.0
332.119324 99044.0
332.193817 240.0
332.245392 72.0
332.274567 116.0
332.295868 188.0
332.330627 224.0
332.351776 140.0
332.401306 180.0
332.452515 128.0
332.487274 124.0
332.515381 224.0
332.558868 88.0
332.624817 64.0
332.65387 180.0
332.716949 228.0
332.768829 108.0
332.835236 144.0
332.870331 64.0
332.908539 136.0
332.941193 96.0
333.006836 68.0
333.059998 64.0
333.071136 228.0
333.12085 16520.0
333.204254 140.0
333.257965 144.0
333.339996 68.0
333.369263 64.0
333.395508 100.0
333.453613 208.0
333.517731 140.0
333.581757 64.0
333.62439 40.0
333.673096 76.0
333.702179 32.0
333.744171 88.0
333.798798 84.0
333.91156 76.0
333.944153 84.0
333.996765 56.0
334.02951 44.0
334.069275 120.0
334.124359 3144.0
334.185516 140.0
334.234589 68.0
334.26236 108.0
334.302368 88.0
334.365601 32.0
334.411774 68.0
334.495667 76.0
334.535309 56.0
334.57724 56.0
334.671478 132.0
334.705017 68.0
334.743652 72.0
334.800842 112.0
334.827484 100.0
334.840057 64.0
334.853943 80.0
334.954834 140.0
335.039032 204.0
335.12442 96.0
335.211945 60.0
335.253601 140.0
335.274628 148.0
335.282349 128.0
335.343628 88.0
335.415039 168.0
335.506775 168.0
335.530518 132.0
335.604797 124.0
335.814331 40.0
335.927399 44.0
335.978455 76.0
336.036835 132.0
336.098877 152.0
336.146301 104.0
336.1828 84.0
336.459869 180.0
336.499542 124.0
336.547821 140.0
336.71582 228.0
336.86557 88.0
336.92038 100.0
336.997101 56.0
337.190765 96.0
337.307739 44.0
337.783112 80.0
337.900177 144.0
337.925781 32.0
338.039215 48.0
338.848419 36.0
339.137939 64.0
339.302887 60.0
339.530243 72.0
340.078796 68.0
341.017181 52.0
342.205414 64.0
342.581055 28.0
342.632629 48.0
343.737946 88.0
343.871643 72.0
344.599121 72.0
344.676697 52.0
344.851532 52.0
344.883667 68.0
345.231201 56.0
345.430939 104.0
345.556732 96.0
345.71582 124.0
345.978638 36.0
346.304504 80.0
347.57608 72.0
348.978821 80.0
349.143768 48.0
349.839569 104.0
349.966156 52.0
350.949799 32.0
351.453369 104.0
352.129059 36.0
352.573639 44.0
352.939972 80.0
354.115051 52.0
354.590881 84.0
354.954529 104.0
355.588531 40.0
356.132965 52.0
358.427856 116.0
359.053619 84.0
359.846069 88.0
360.337067 56.0
366.213196 136.0
367.749786 40.0
369.239868 48.0
370.978241 112.0
372.229034 76.0
373.481934 68.0
374.686829 80.0
381.319397 32.0
382.466827 76.0
384.719971 128.0
392.942108 92.0
396.405884 80.0
398.306305 76.0
401.291077 88.0
403.383026 72.0
403.53894 96.0
404.030884 32.0
406.306458 80.0
414.913025 48.0
421.261688 64.0
424.156219 92.0
424.499207 116.0
436.079773 168.0
443.392059 60.0
444.482391 56.0
444.51178 68.0
449.337982 56.0
450.566559 64.0
453.198212 48.0
460.874237 68.0
461.925934 116.0
465.04538 132.0
468.92926 44.0
477.275818 64.0
481.721313 48.0
481.979095 68.0
482.083954 108.0
482.919006 92.0
483.535919 116.0
484.35907 60.0
486.082092 56.0
488.775757 108.0
488.920959 88.0
490.405212 56.0
493.667847 44.0
497.243073 64.0
498.695435 60.0
498.962158 40.0
501.949829 72.0
505.514587 88.0
506.105438 84.0
508.364685 56.0
509.788269 64.0
516.384033 84.0
519.64563 32.0
521.157593 64.0
523.869141 68.0
525.834412 52.0
527.323364 104.0
540.642639 80.0
543.552856 120.0
550.951355 116.0
586.016785 64.0
586.595093 100.0
590.08551 100.0
595.634399 80.0
597.574158 64.0
597.895325 128.0
601.228821 112.0
608.841675 80.0
625.186035 44.0
638.569275 64.0
639.500061 60.0
657.110168 32.0
670.061218 76.0
670.112732 64.0
672.319702 44.0
673.455566 56.0
675.714661 40.0
679.450073 92.0
686.107056 40.0
705.722656 56.0
711.975586 52.0
713.628235 80.0
717.210999 48.0
722.005615 88.0
728.330139 84.0
736.290771 32.0
746.674927 108.0
747.066589 52.0
750.944946 40.0
758.298767 60.0
758.539917 80.0
784.338806 104.0
789.626465 104.0
790.320129 88.0
802.418518 84.0
815.051941 84.0
816.160339 68.0
819.991577 40.0
827.028381 108.0
832.756348 48.0
841.417175 184.0
872.2005 52.0
873.005981 44.0
874.465027 60.0
877.852539 92.0
878.01178 116.0
878.772766 180.0
878.967468 68.0
880.573242 92.0
890.036682 192.0
894.079041 116.0
906.117188 116.0
908.611267 232.0
908.8573 40.0
910.736389 160.0
916.433472 84.0
924.337524 212.0
925.124329 48.0
959.138916 48.0
961.69873 44.0
964.577209 60.0
967.150452 64.0
975.126831 148.0
982.880188 48.0
986.427673 172.0
990.914856 36.0
994.671326 192.0
1001.991455 96.0
1004.046387 64.0
1014.162537 60.0
1015.570129 100.0
1016.68042 160.0
1018.108887 120.0
1023.062134 152.0
1043.528931 168.0
1043.606079 36.0
1045.934937 88.0
1046.025024 132.0
1050.774658 136.0
1053.169678 64.0
1053.473267 164.0
1054.597656 164.0
1059.7229 176.0
1060.883057 148.0
1061.148926 60.0
1065.640259 144.0
1066.907593 116.0
1067.349731 160.0
1089.64502 112.0
1095.421265 152.0
1099.304688 164.0
1101.695923 192.0
1103.909058 64.0
1108.967163 72.0
1109.7229 76.0
1111.2948 44.0
1116.243408 156.0
1127.289307 108.0
1128.298584 60.0
1130.592896 96.0
1136.671143 176.0
1153.731934 40.0
1156.038452 116.0
1160.705811 164.0
1161.234863 52.0
1165.328247 196.0
1171.192383 68.0
1172.863647 224.0
1174.559692 160.0
1178.300781 204.0
1185.403198 200.0
1189.830933 184.0
1194.115112 188.0
1201.4375 68.0
1201.48584 72.0
1201.96875 168.0
1207.841309 152.0
1208.450073 176.0
1212.962891 248.0
1214.171875 80.0
1215.573242 128.0
1222.752197 72.0
1225.80249 204.0
1227.538208 60.0
1228.061279 92.0
1229.659058 100.0
1229.875488 128.0
1230.349854 88.0
1230.734131 168.0
1231.809692 172.0
1233.381958 128.0
1234.346802 132.0
1235.588989 184.0
1236.214478 128.0
1243.208374 64.0
1249.602783 216.0
1254.335327 164.0
1258.434204 152.0
1259.47229 144.0
1264.273071 72.0
1269.643066 148.0
1270.678711 140.0
1271.558716 112.0
1275.770874 200.0
1275.941528 168.0
1281.329102 240.0
1281.863525 196.0
1282.533447 144.0
1286.328369 192.0
1286.606689 104.0
1289.035278 116.0
1293.576904 144.0
1294.249878 156.0
1295.145142 208.0
1296.64978 168.0
1297.703491 28.0
1298.800781 140.0
1299.252686 120.0
1301.657227 92.0
1305.048706 100.0
1305.415527 40.0
1305.674316 164.0
1306.249756 60.0
1308.415894 192.0
1309.964233 156.0
1310.238037 128.0
1310.555054 32.0
1312.299316 136.0
1313.792236 152.0
1315.105591 112.0
1317.813721 148.0
1318.362915 164.0
1321.920898 92.0
1322.39856 140.0
1323.832031 188.0
1326.541748 160.0
1327.013062 148.0
1328.739258 40.0
1329.0802 144.0
1332.870605 180.0
1335.502319 200.0
1335.647827 120.0
1342.888062 232.0
1344.828857 132.0
1345.69751 80.0
1347.012085 192.0
1348.853638 140.0
1349.292236 80.0
1351.464478 92.0
1352.115723 48.0
1358.409912 104.0
1358.600586 148.0
1361.140137 140.0
1364.622925 148.0
1366.52063 192.0
1373.563477 132.0
1374.662842 212.0
1375.061401 116.0
1377.18042 184.0
1378.000366 120.0
1378.488037 156.0
1380.56543 128.0
1380.765015 96.0
1382.629395 144.0
1383.339966 196.0
1384.680298 68.0
1385.161743 168.0
1385.858154 164.0
1387.01416 68.0
1391.584106 212.0
1391.977661 152.0
1394.9198 156.0
1395.804565 112.0
1398.825195 132.0
1400.634766 148.0
1402.907593 104.0
1404.921143 152.0
1405.473267 168.0
1407.667847 188.0
1412.181885 96.0
1413.102051 164.0
1418.05188 108.0
1419.483765 152.0
1419.761353 144.0
1421.937012 116.0
1425.203735 140.0
1425.707153 116.0
1427.353516 132.0
1427.496338 112.0
1427.859741 276.0
1429.881226 248.0
1430.739258 204.0
1432.245361 36.0
1432.772705 160.0
1435.569092 228.0
1438.021118 72.0
1438.640015 112.0
1439.168579 168.0
1439.614136 216.0
1441.510254 176.0
1441.963623 160.0
1444.209229 132.0
1445.185181 208.0
1448.607178 28.0
1449.008667 88.0
1449.220825 84.0
1451.18396 208.0
1456.003296 188.0
1458.601196 168.0
1460.388062 196.0
1460.677124 152.0
1461.354126 196.0
1462.434814 148.0
1464.231689 120.0
1465.64856 140.0
1466.44873 128.0
1466.89856 160.0
1471.078857 216.0
1472.522095 132.0
1473.064453 172.0
1473.324097 164.0
1474.669067 32.0
1475.751221 192.0
1477.398926 104.0
1477.470703 144.0
1477.873291 196.0
1478.401245 56.0
1478.814575 144.0
1479.480591 64.0
1479.817383 112.0
1480.567871 248.0
1484.292236 124.0
1484.782959 192.0
1488.312988 140.0
1488.881226 200.0
1489.879883 156.0
1491.884521 184.0
1493.1698 164.0
1493.623535 236.0
1493.700562 224.0
1494.192871 32.0
1495.909058 200.0
1496.417114 132.0
1497.379761 224.0
1499.097778 152.0
1500.230713 128.0
1501.09436 60.0
1503.65564 136.0
1503.887085 168.0
1504.867554 232.0
1504.998779 132.0
