>compound Naratriptan HCl
>formula C17H25N3O2S
>ionization [M+H]+
>parentmass 336.17402449209055
#inchi InChI=1S/C17H25N3O2S/c1-18-23(21,22)10-7-13-3-4-17-15(11-13)16(12-19-17)14-5-8-20(2)9-6-14/h3-4,11-12,14,18-19H,5-10H2,1-2H3
#inchikey AMKVXSZCKVJAGH
#origInchi InChI=1S/C17H25N3O2S.ClH/c1-18-23(21,22)10-7-13-3-4-17-15(11-13)16(12-19-17)14-5-8-20(2)9-6-14;/h3-4,11-12,14,18-19H,5-10H2,1-2H3;1H
#Ion_Source LC-ESI
#Instrument qTof
#Compound_Source Commercial
#PI Dorrestein
#Data_Collector Garg_Neha
#Scan -1
#Precursor_MZ 336.174
#ExactMass 335.167
#Charge 1
#CAS_Number 143388-64-1, 121679-13-8(free base)
#Pubmed_ID N/A
#Smiles C1(=CC=C2C(=C1)C(=CN2)C3CCN(CC3)C)CCS(=O)(=O)NC.Cl
#INCHI_AUX N/A
#Library_Class 1
#SpectrumID CCMSLIB00000078161
#IonMode Positive
#UpdateWorkflowName UPDATE-SINGLE-ANNOTATED-GOLD
#LibraryQualityString Gold
#TaskID 77f51c88eb8b467eb4a01dd2d0cb90d2
##Scan# 1045
#SpectrumFile Plate3_1_20_GG9_01_16498.mzXML
#LibraryName FDALibrary_2_04302014.mgf
#MQScore -1
#Organism FDALibrary_2_04302014
#TIC_Query 0
#RT_Query -1
#MZErrorPPM -1
#SharedPeaks 0
#MassDiff 0
#LibMZ -1
#SpecMZ 336.174
#SpecCharge 0
#internalFilename spec-00000.mgf

>collision 10
45.073711 140.0
45.215462 212.0
45.526489 148.0
45.877666 192.0
46.000423 208.0
46.224781 168.0
46.282986 144.0
46.954296 188.0
47.051178 152.0
47.134495 168.0
47.963432 184.0
48.000656 172.0
48.149696 152.0
48.274075 180.0
48.365383 168.0
48.607918 160.0
48.823238 180.0
49.200844 168.0
49.217598 152.0
49.275574 228.0
49.410477 148.0
49.773491 196.0
49.854572 200.0
50.00967 156.0
50.223839 184.0
50.500679 172.0
50.920204 164.0
51.198952 200.0
51.243111 164.0
51.257023 152.0
51.385685 168.0
51.808861 144.0
52.205009 140.0
52.354675 144.0
52.41518 176.0
52.727497 104.0
52.761578 156.0
52.883083 144.0
53.193855 156.0
53.580101 184.0
53.972717 152.0
54.063412 160.0
54.113178 172.0
54.133678 176.0
54.404926 180.0
54.706291 188.0
54.928806 188.0
55.60054 176.0
55.615383 152.0
55.943893 156.0
56.21814 200.0
56.752529 208.0
57.242004 176.0
57.400227 164.0
57.492245 228.0
57.529587 168.0
57.789928 180.0
58.158176 184.0
58.457577 172.0
58.708931 156.0
58.94249 204.0
59.035736 188.0
59.23011 184.0
59.366516 140.0
59.695141 148.0
59.827465 140.0
60.151188 184.0
60.274742 180.0
60.355656 184.0
60.373676 192.0
60.815224 236.0
60.864902 164.0
60.95966 244.0
61.339767 176.0
61.539524 192.0
61.735989 152.0
61.820465 196.0
62.397686 168.0
62.706215 140.0
62.783466 148.0
62.819744 156.0
62.946007 192.0
63.213154 172.0
63.246387 172.0
63.52845 152.0
63.641129 196.0
64.060989 168.0
64.166176 200.0
64.207634 176.0
64.520599 188.0
64.538185 160.0
64.6381 268.0
64.735001 176.0
64.803879 184.0
64.965805 280.0
65.132751 156.0
65.361038 184.0
65.391617 176.0
65.44796 200.0
65.705841 160.0
65.930283 188.0
66.007874 140.0
66.463043 160.0
66.760307 208.0
66.779823 184.0
67.129967 148.0
67.206635 276.0
67.280083 212.0
67.368263 160.0
67.49575 152.0
67.517006 200.0
67.654449 220.0
67.906792 160.0
67.952728 196.0
68.327316 196.0
68.620468 220.0
69.276573 216.0
69.326279 172.0
69.420769 140.0
69.502052 156.0
69.528603 164.0
69.659775 168.0
69.772774 148.0
69.821838 168.0
69.934135 156.0
70.360878 172.0
70.3759 204.0
70.397606 164.0
70.429344 164.0
70.818161 148.0
71.310661 196.0
71.337555 156.0
71.40818 208.0
71.871445 140.0
72.068993 216.0
72.096031 148.0
72.638313 152.0
72.666672 204.0
72.817749 272.0
72.923088 140.0
73.54306 180.0
73.638672 164.0
73.777084 140.0
74.013191 176.0
74.126244 176.0
74.380066 152.0
74.477943 164.0
74.966553 208.0
75.004471 172.0
75.040672 140.0
75.159683 140.0
75.411812 140.0
75.463676 168.0
75.689583 248.0
75.815063 156.0
76.484703 188.0
76.588211 352.0
76.670097 156.0
76.734589 156.0
76.765976 144.0
76.882858 312.0
76.989349 144.0
77.031265 140.0
77.179817 168.0
77.193398 152.0
77.361771 172.0
77.489616 164.0
77.510643 224.0
77.675446 164.0
77.73159 176.0
77.756157 236.0
77.79126 176.0
78.140984 144.0
78.352257 148.0
78.37516 236.0
78.749146 160.0
78.78978 152.0
78.883926 232.0
79.432381 180.0
79.572578 180.0
80.378876 228.0
80.509193 172.0
80.641396 176.0
80.864967 200.0
81.067337 176.0
81.35611 160.0
81.418953 144.0
81.659782 164.0
82.054138 156.0
82.068565 152.0
82.268822 140.0
82.593361 160.0
82.708084 140.0
82.769638 236.0
83.146698 180.0
83.373711 252.0
83.431496 192.0
84.102226 160.0
84.332367 176.0
84.423775 156.0
84.491455 148.0
85.037514 196.0
85.166039 148.0
85.221153 212.0
85.33007 160.0
85.397629 192.0
85.778778 240.0
85.837776 148.0
85.894402 200.0
86.003822 152.0
86.144157 148.0
86.314949 184.0
86.558441 152.0
86.580666 148.0
86.69738 164.0
86.801186 172.0
86.955162 160.0
86.968155 152.0
87.000191 184.0
87.261665 172.0
87.805405 236.0
87.967735 160.0
88.120064 164.0
88.345215 176.0
88.736633 176.0
89.518288 188.0
89.63131 240.0
89.655807 148.0
89.823616 160.0
90.131348 164.0
90.227737 152.0
90.378738 172.0
90.399864 240.0
90.530479 188.0
90.560783 152.0
90.677376 172.0
90.782059 160.0
91.205902 164.0
91.281952 200.0
91.855217 164.0
92.173119 156.0
92.490417 164.0
92.880501 160.0
93.089699 164.0
93.193466 160.0
93.547287 148.0
93.660904 156.0
93.896042 176.0
94.066925 368.0
94.158882 188.0
94.193283 164.0
94.297623 180.0
94.783356 216.0
95.219841 180.0
95.408325 144.0
95.961235 180.0
96.081429 2968.0
96.332039 196.0
96.529442 180.0
96.837082 180.0
97.083679 188.0
97.13266 176.0
97.215065 140.0
97.246468 192.0
97.421227 208.0
97.499817 272.0
97.615807 148.0
97.71022 164.0
97.78595 156.0
97.824356 196.0
97.895241 160.0
97.944473 140.0
97.975586 152.0
98.056786 144.0
98.097466 19164.0
98.221786 192.0
98.24678 112.0
98.26899 124.0
98.581734 156.0
98.639053 140.0
98.739891 144.0
98.857964 164.0
99.099586 2032.0
99.159615 164.0
99.369812 244.0
99.429337 160.0
99.520653 180.0
99.575401 252.0
100.105255 160.0
100.17627 140.0
100.266617 176.0
100.309219 220.0
100.368286 164.0
100.619682 156.0
100.633659 152.0
100.660477 136.0
100.841408 220.0
101.177467 188.0
101.284622 172.0
101.348984 144.0
101.459938 156.0
101.602333 168.0
101.77092 212.0
101.897789 192.0
101.912575 160.0
102.096451 192.0
102.303696 164.0
102.452675 172.0
102.495033 260.0
102.64621 184.0
102.678474 220.0
102.692596 156.0
102.708733 152.0
102.835846 220.0
102.880249 192.0
102.934769 268.0
102.956978 172.0
103.001411 176.0
103.367348 168.0
103.504997 148.0
103.776512 164.0
104.186478 188.0
104.218979 184.0
104.635925 184.0
104.652214 200.0
104.836143 164.0
104.953773 144.0
105.455971 156.0
106.238174 180.0
106.455742 220.0
106.735207 168.0
106.85244 184.0
106.875076 160.0
106.918289 192.0
107.076813 212.0
107.49324 244.0
107.522133 156.0
107.557381 152.0
107.699692 168.0
108.052261 144.0
108.129745 144.0
108.347168 180.0
109.637512 144.0
109.661163 288.0
109.82933 140.0
109.86676 144.0
109.883568 156.0
109.93782 280.0
109.973297 188.0
110.051682 132.0
110.097336 232.0
110.249939 148.0
110.363953 172.0
110.552208 172.0
110.939697 188.0
111.071808 152.0
111.111664 184.0
111.191399 152.0
111.220787 148.0
111.701973 160.0
111.786133 148.0
111.962112 148.0
112.122162 176.0
112.175774 152.0
112.232697 180.0
112.310722 152.0
112.376122 140.0
112.528313 148.0
112.809059 152.0
113.292542 180.0
113.738983 164.0
114.042282 116.0
114.323456 164.0
114.446922 228.0
114.473053 176.0
114.551277 188.0
114.753731 188.0
114.866661 172.0
114.956367 176.0
115.0214 212.0
115.204041 200.0
115.253181 216.0
115.272415 160.0
115.336525 220.0
115.454117 152.0
115.762283 180.0
115.852234 180.0
115.922943 148.0
116.274643 168.0
116.470032 156.0
116.73008 188.0
117.059929 140.0
117.445091 176.0
117.544327 184.0
117.63929 156.0
117.668976 176.0
117.75589 208.0
117.84668 144.0
117.94603 164.0
118.179588 144.0
118.350006 180.0
118.367905 172.0
118.49353 268.0
118.721123 148.0
118.781853 220.0
119.014069 200.0
119.071617 160.0
119.303024 180.0
119.520523 152.0
119.62281 164.0
119.683769 240.0
119.720787 372.0
119.875458 216.0
119.9888 192.0
120.043304 168.0
120.46891 140.0
120.706024 160.0
120.934669 176.0
121.0205 136.0
121.241287 140.0
121.427132 120.0
121.506607 172.0
121.526352 148.0
121.624893 168.0
121.679985 168.0
122.093086 140.0
122.687592 180.0
122.753738 192.0
122.930214 188.0
122.978767 216.0
123.025116 148.0
123.239349 152.0
123.369743 180.0
123.478088 148.0
123.573204 156.0
123.588699 240.0
123.798988 164.0
123.892014 176.0
123.995125 232.0
124.109207 164.0
124.348793 140.0
124.486435 248.0
124.674187 132.0
124.768616 168.0
125.042213 168.0
125.146843 144.0
125.233696 140.0
125.414169 180.0
125.82016 152.0
126.2939 144.0
126.434853 144.0
126.882835 148.0
127.172211 160.0
127.230576 140.0
127.443939 160.0
127.600906 124.0
128.048203 208.0
128.402908 184.0
128.43222 180.0
128.551804 160.0
128.685059 200.0
128.84758 188.0
128.908585 252.0
128.924408 156.0
129.008041 168.0
129.152756 152.0
129.331512 172.0
129.403946 152.0
129.606796 176.0
129.75679 224.0
129.786865 140.0
130.066116 1108.0
130.131744 152.0
130.214844 268.0
130.379349 180.0
130.446609 112.0
130.479355 188.0
130.772797 140.0
130.89241 236.0
131.002777 160.0
131.071075 188.0
131.317337 204.0
131.41246 160.0
131.844727 200.0
131.904144 164.0
132.082458 1176.0
132.12825 196.0
132.166275 168.0
132.260986 164.0
132.487686 148.0
132.586212 152.0
132.937088 192.0
133.019699 196.0
133.0849 268.0
133.462738 112.0
133.481506 164.0
133.710754 232.0
133.831253 160.0
133.91185 148.0
134.096115 1792.0
134.435181 188.0
134.45134 200.0
134.760773 140.0
134.883255 140.0
134.943359 180.0
135.100922 120.0
135.292694 308.0
135.332062 172.0
135.35289 172.0
135.453735 148.0
135.542831 164.0
135.642487 176.0
136.029877 140.0
136.097214 140.0
136.310898 164.0
136.606171 156.0
137.207001 168.0
137.295609 168.0
137.498581 176.0
137.76944 160.0
137.879257 208.0
137.99614 328.0
138.145813 160.0
138.391006 188.0
138.653976 140.0
138.871948 220.0
139.333847 156.0
139.586426 156.0
140.341721 200.0
140.43605 156.0
140.462006 152.0
141.092514 244.0
141.137436 140.0
141.400024 184.0
141.624954 148.0
141.691284 152.0
141.978088 180.0
142.06543 360.0
142.241455 168.0
142.45755 160.0
142.574966 228.0
142.688797 168.0
143.072556 260.0
143.247314 156.0
143.294952 148.0
143.382919 140.0
143.482529 244.0
143.814819 204.0
143.934189 172.0
144.07988 2044.0
144.118103 168.0
144.462372 168.0
144.731232 144.0
144.876526 148.0
144.919647 168.0
145.063446 164.0
145.088867 740.0
145.449646 196.0
145.586502 168.0
145.62973 200.0
145.687378 164.0
146.09729 132.0
146.197113 216.0
146.222275 176.0
146.399323 204.0
146.446075 188.0
146.53421 152.0
146.560715 164.0
146.758362 140.0
146.994751 184.0
147.215561 228.0
147.804245 172.0
148.414642 204.0
148.671768 160.0
148.808655 172.0
148.934204 128.0
149.322861 156.0
149.546692 144.0
149.613571 136.0
149.747971 156.0
149.819427 208.0
149.908676 164.0
150.014374 152.0
150.336334 148.0
150.407104 164.0
150.653748 180.0
150.841904 164.0
150.881027 148.0
150.988617 192.0
151.01062 292.0
151.351715 148.0
152.019974 156.0
152.103424 204.0
152.387207 144.0
152.459549 160.0
152.721237 184.0
152.860397 168.0
153.148438 164.0
153.325836 176.0
153.421967 204.0
153.738892 228.0
153.809311 172.0
153.843811 240.0
153.924438 164.0
154.064224 208.0
154.530853 204.0
154.80809 140.0
155.085571 192.0
155.226883 228.0
155.398026 148.0
155.588303 192.0
155.62886 144.0
155.946182 152.0
156.0811 824.0
156.421921 148.0
156.559921 108.0
156.950089 160.0
156.985001 168.0
157.08226 228.0
157.100464 260.0
157.444168 152.0
157.596558 156.0
158.070969 148.0
158.097855 352.0
158.244339 208.0
158.306946 156.0
158.492599 104.0
158.685303 152.0
159.100677 240.0
159.175781 152.0
159.229828 148.0
159.425797 184.0
159.482971 208.0
159.709885 176.0
159.740067 156.0
159.979141 176.0
160.014389 164.0
160.110062 216.0
160.152878 204.0
160.475449 172.0
160.924545 160.0
161.083649 168.0
161.331299 180.0
161.903137 180.0
162.058365 172.0
162.133682 156.0
162.371994 140.0
162.437943 152.0
162.506439 196.0
162.882156 160.0
163.127335 136.0
163.182022 176.0
163.357513 152.0
163.433838 144.0
163.614532 148.0
163.797882 156.0
163.966995 176.0
164.249069 168.0
164.277115 148.0
164.346008 140.0
164.397034 144.0
165.110382 212.0
165.38356 180.0
165.739532 184.0
165.788208 180.0
165.93689 336.0
166.011246 212.0
166.396133 164.0
166.524521 200.0
166.683792 160.0
166.737762 144.0
166.88356 196.0
167.000015 216.0
167.071915 376.0
167.628174 160.0
167.860184 200.0
168.077377 144.0
168.128464 192.0
168.787186 184.0
168.825974 176.0
168.921036 176.0
169.035522 292.0
169.088684 648.0
169.366898 256.0
170.097321 732.0
170.194183 176.0
170.568283 144.0
170.677475 240.0
170.711288 148.0
170.820511 204.0
171.106018 212.0
171.158859 144.0
171.179688 156.0
171.200516 196.0
171.422775 176.0
171.54184 140.0
171.567902 212.0
171.586151 188.0
171.719482 156.0
171.852188 156.0
171.938293 152.0
172.019211 348.0
172.042709 168.0
172.110199 384.0
172.28035 152.0
172.49118 188.0
172.7509 140.0
172.816299 164.0
172.951782 208.0
173.126312 168.0
173.16185 176.0
173.444824 196.0
173.481522 144.0
173.738525 152.0
173.772629 156.0
173.804108 164.0
173.870621 140.0
174.434418 180.0
174.54747 204.0
174.615845 192.0
174.710541 192.0
174.857895 148.0
174.878952 200.0
174.931595 160.0
175.065872 156.0
175.091751 184.0
175.123657 136.0
175.221283 172.0
175.56131 160.0
175.640427 204.0
175.793457 196.0
175.883179 140.0
176.110199 164.0
176.274063 184.0
176.834717 152.0
176.916763 164.0
177.480484 176.0
177.932144 180.0
178.022415 228.0
178.075806 212.0
178.139282 208.0
178.205688 148.0
178.333252 180.0
178.393768 184.0
178.547958 132.0
178.804001 152.0
178.974106 196.0
179.016983 176.0
179.048935 188.0
179.080902 152.0
179.20343 176.0
179.565979 204.0
179.750854 132.0
179.872818 152.0
179.963577 160.0
180.082092 160.0
180.213898 152.0
180.345596 188.0
180.548782 160.0
180.578201 168.0
180.74675 232.0
181.011749 152.0
181.0867 144.0
181.148346 156.0
181.172455 164.0
181.207275 196.0
181.679123 164.0
181.714005 196.0
181.841125 172.0
182.097794 1008.0
182.417618 184.0
182.745712 208.0
182.783386 156.0
182.80304 144.0
182.920639 148.0
183.105331 264.0
183.219559 156.0
183.359192 216.0
183.492218 168.0
183.611038 204.0
183.67514 180.0
183.770706 160.0
183.960724 168.0
184.113144 1956.0
184.244736 156.0
184.560959 164.0
184.866623 168.0
185.031723 160.0
185.119675 736.0
185.164413 168.0
185.369949 156.0
185.869247 216.0
186.083664 192.0
186.34169 168.0
186.378418 192.0
186.415054 160.0
186.52919 152.0
186.749069 232.0
186.869141 156.0
187.086853 152.0
187.291092 256.0
187.52269 164.0
187.948105 172.0
188.13916 208.0
188.15802 176.0
188.333038 148.0
188.440567 132.0
188.559799 176.0
188.835938 260.0
188.92894 188.0
189.027451 168.0
189.073959 184.0
189.147858 152.0
190.132477 152.0
190.183975 228.0
190.733322 216.0
190.859787 172.0
190.961533 168.0
190.994537 176.0
191.035812 152.0
191.162369 176.0
191.489975 140.0
191.564346 228.0
191.691086 184.0
191.865875 200.0
191.900574 184.0
192.234329 184.0
192.368561 120.0
192.947418 164.0
193.046478 184.0
193.123917 156.0
193.497498 176.0
193.650635 160.0
193.899155 176.0
194.096237 236.0
194.187485 156.0
194.242966 156.0
194.564865 172.0
194.835571 124.0
195.077545 116.0
195.102859 680.0
195.437576 220.0
195.961029 220.0
196.109634 564.0
196.284042 112.0
196.440536 172.0
197.015594 160.0
197.058563 180.0
197.088242 144.0
197.118469 548.0
197.18605 164.0
197.581299 172.0
197.658661 140.0
197.841599 144.0
198.126419 1272.0
198.289642 248.0
198.331696 176.0
198.423309 216.0
198.484985 216.0
198.582016 208.0
198.872131 172.0
198.953537 196.0
199.02092 140.0
199.093933 148.0
199.132248 588.0
199.380478 140.0
199.996429 176.0
200.129761 184.0
200.427307 160.0
200.568222 160.0
200.843552 204.0
200.970078 136.0
201.33847 184.0
201.457092 144.0
201.548676 216.0
201.626633 168.0
202.121506 164.0
202.151154 192.0
202.381912 156.0
202.424377 296.0
202.62265 180.0
202.710495 144.0
202.979782 156.0
203.158463 188.0
203.183014 196.0
203.436569 192.0
203.513809 176.0
204.095703 144.0
204.175323 148.0
204.360229 228.0
204.502518 144.0
204.654404 124.0
204.772995 164.0
205.204041 196.0
205.592606 156.0
206.428223 164.0
206.491135 164.0
206.602692 144.0
206.86792 236.0
207.100769 180.0
207.389694 148.0
207.444626 236.0
207.544968 172.0
207.897797 184.0
208.038437 184.0
208.116592 220.0
208.555496 144.0
208.727982 204.0
208.900558 240.0
208.960617 132.0
209.061676 164.0
209.116364 164.0
209.262726 184.0
209.456116 156.0
209.614578 188.0
209.695267 144.0
210.003769 140.0
210.128647 5716.0
210.274979 148.0
210.33078 144.0
210.361938 124.0
210.667664 144.0
210.7948 144.0
210.84874 192.0
211.030991 196.0
211.131546 1440.0
211.202438 152.0
211.329727 164.0
211.390488 152.0
211.609375 180.0
211.677063 156.0
211.977417 152.0
212.137833 372.0
212.381317 180.0
213.151932 136.0
213.397705 164.0
213.41806 144.0
213.48204 176.0
213.772934 192.0
214.144821 712.0
214.18927 176.0
214.270844 152.0
214.64975 188.0
214.740158 200.0
214.775162 140.0
215.148361 148.0
215.519592 260.0
215.540054 320.0
215.899612 196.0
215.959671 164.0
216.426331 220.0
217.015259 192.0
217.065109 152.0
217.317368 148.0
217.389359 172.0
218.083817 156.0
218.139679 192.0
218.32196 264.0
218.419022 152.0
218.477859 140.0
218.657349 200.0
218.934082 160.0
219.373093 168.0
219.485138 196.0
219.555908 172.0
219.656189 248.0
219.723816 164.0
219.939453 204.0
220.019669 208.0
220.074829 196.0
220.462997 212.0
220.633652 156.0
221.548111 156.0
221.743683 180.0
221.794067 220.0
222.084641 144.0
222.131165 240.0
222.185501 192.0
222.636673 168.0
223.06749 256.0
223.103165 268.0
223.13884 144.0
223.159653 164.0
223.257782 172.0
223.358902 156.0
224.144867 176.0
224.595047 140.0
225.097916 140.0
225.132782 160.0
225.407089 156.0
225.806229 156.0
225.829803 152.0
225.858521 140.0
225.924332 156.0
226.124023 196.0
226.199646 224.0
226.403244 148.0
226.663864 160.0
226.909454 152.0
226.959946 164.0
227.0849 5688.0
227.15419 696.0
227.296555 168.0
227.511566 112.0
227.564941 212.0
227.855774 144.0
227.950394 184.0
228.087112 432.0
228.130676 116.0
228.158752 192.0
228.338974 152.0
228.507431 160.0
228.639832 168.0
228.714035 188.0
229.016174 196.0
229.039337 180.0
229.089935 208.0
229.162201 164.0
229.230072 152.0
229.407898 164.0
229.795502 160.0
230.101776 172.0
230.220764 108.0
230.281494 108.0
230.467224 164.0
230.515579 184.0
230.93277 216.0
230.980682 156.0
231.087051 152.0
231.11731 168.0
231.162704 184.0
231.901642 248.0
232.077469 148.0
232.145569 184.0
232.790558 200.0
233.641602 184.0
233.689041 176.0
233.831345 204.0
233.891144 184.0
234.792984 220.0
235.079239 96.0
235.156052 140.0
235.500336 168.0
235.607971 184.0
236.485001 148.0
236.580475 212.0
237.105377 184.0
237.186996 196.0
237.235107 168.0
237.413879 144.0
237.57338 144.0
237.917099 148.0
237.944717 144.0
238.015335 184.0
238.061707 124.0
238.242615 176.0
238.39624 156.0
238.563812 216.0
238.760834 168.0
239.011246 172.0
239.109726 180.0
239.153351 400.0
239.209457 140.0
239.602402 160.0
239.790375 152.0
240.021576 244.0
240.13031 140.0
240.155899 320.0
240.565506 200.0
240.855911 128.0
240.993866 180.0
241.066742 240.0
241.170303 9248.0
241.221115 124.0
241.438812 280.0
241.476105 148.0
241.698837 288.0
241.75145 144.0
241.811874 124.0
242.132233 172.0
242.174728 1808.0
242.334 148.0
242.47612 184.0
242.502701 188.0
242.714828 220.0
242.75824 160.0
242.928818 168.0
243.124298 196.0
243.150238 128.0
243.183029 104.0
243.428513 236.0
243.513718 120.0
243.586914 152.0
243.755707 196.0
243.810623 148.0
243.838593 200.0
243.869186 152.0
243.944275 144.0
244.059311 164.0
244.093506 160.0
244.186798 172.0
244.990662 176.0
245.083344 272.0
245.156036 196.0
245.565445 216.0
245.588379 168.0
245.794586 204.0
246.068939 172.0
246.136002 452.0
246.361069 156.0
246.481232 240.0
246.700012 148.0
247.144638 120.0
247.269302 188.0
247.319366 176.0
247.660202 160.0
247.911301 140.0
248.027267 172.0
248.293777 152.0
248.585526 196.0
248.685944 188.0
249.367508 140.0
249.692215 144.0
250.065735 164.0
250.175903 164.0
250.393158 232.0
250.443558 164.0
250.998215 224.0
251.07489 140.0
251.171677 160.0
251.275772 304.0
251.499832 260.0
251.539108 396.0
251.569275 196.0
251.648209 164.0
251.755569 148.0
251.976669 192.0
252.14415 160.0
252.188385 304.0
252.213684 172.0
252.637405 156.0
252.906372 160.0
253.059891 136.0
253.425735 204.0
253.974091 148.0
254.097885 168.0
254.167694 168.0
254.189911 148.0
254.793167 240.0
254.9254 260.0
255.063797 176.0
255.609909 128.0
255.740784 160.0
256.005035 168.0
256.106964 252.0
256.559448 180.0
256.690155 320.0
257.212372 164.0
257.773041 156.0
257.871368 184.0
258.132019 364.0
258.280914 216.0
258.354218 144.0
258.393372 132.0
258.443787 152.0
258.555786 144.0
258.789459 144.0
259.231903 184.0
259.306427 184.0
259.33725 160.0
259.561676 392.0
259.818268 184.0
259.888855 188.0
259.936981 168.0
260.00296 156.0
260.328003 208.0
260.976166 196.0
261.16098 156.0
261.377197 156.0
261.57608 148.0
261.95929 180.0
262.081696 144.0
262.123596 180.0
262.236389 172.0
262.364868 204.0
262.584595 140.0
262.681366 172.0
262.791046 204.0
262.86203 144.0
263.000153 452.0
263.078278 144.0
263.297607 160.0
263.498657 152.0
264.122009 236.0
264.199646 192.0
264.44812 168.0
264.588287 144.0
264.753143 136.0
264.92569 160.0
265.104156 180.0
265.583862 204.0
265.709351 224.0
265.767761 144.0
266.109802 188.0
266.521057 196.0
266.675354 128.0
267.018097 200.0
267.054199 140.0
267.109497 196.0
267.223358 140.0
267.307617 148.0
267.429016 220.0
267.802795 276.0
267.958313 152.0
268.001526 152.0
268.037354 164.0
268.112305 180.0
268.96405 164.0
269.482819 176.0
269.505676 140.0
269.76062 156.0
269.803101 152.0
269.875031 204.0
269.945984 120.0
270.006165 160.0
270.032013 220.0
270.054901 172.0
270.260986 164.0
270.375519 144.0
270.513 164.0
270.549011 156.0
270.873199 188.0
271.325439 152.0
271.394287 160.0
271.59433 160.0
272.007782 172.0
272.061188 188.0
272.106262 184.0
272.401215 128.0
272.811615 148.0
272.993439 144.0
273.151306 152.0
273.256561 176.0
273.355286 164.0
274.023682 176.0
274.088715 120.0
274.167114 448.0
274.234589 152.0
274.446503 200.0
274.633545 196.0
274.676422 144.0
275.312195 108.0
275.395996 176.0
276.136353 152.0
276.169403 168.0
276.574463 236.0
276.722046 152.0
276.991913 136.0
277.100067 964.0
277.179138 140.0
277.315033 144.0
277.44519 120.0
277.719513 172.0
277.955078 192.0
278.106232 312.0
278.476288 164.0
278.512817 164.0
278.732086 140.0
278.848389 140.0
279.005585 136.0
279.037872 160.0
279.06778 176.0
279.267303 180.0
279.310547 172.0
279.628906 164.0
279.669922 176.0
279.748749 164.0
279.999512 204.0
280.11618 148.0
280.412659 168.0
280.460358 180.0
280.622223 188.0
280.712677 144.0
280.802734 160.0
280.909454 180.0
280.986206 212.0
281.016235 220.0
281.113434 120.0
281.168365 168.0
281.261139 252.0
281.363312 156.0
281.422241 136.0
281.476837 144.0
281.577515 200.0
281.897736 176.0
282.006866 160.0
282.576324 152.0
282.984833 140.0
283.071899 224.0
283.209198 148.0
283.253448 172.0
283.400146 200.0
283.426941 152.0
283.6716 224.0
283.705139 148.0
283.920624 196.0
284.030396 156.0
284.107574 184.0
284.174652 148.0
284.654663 144.0
284.859528 140.0
285.151855 152.0
285.387177 180.0
285.513611 192.0
285.652832 204.0
285.704926 176.0
285.740936 212.0
286.00528 200.0
286.218262 168.0
286.667572 176.0
286.720184 164.0
286.875244 196.0
287.151733 168.0
287.350739 200.0
287.526215 156.0
287.644348 216.0
287.776001 144.0
287.801514 144.0
287.911591 272.0
287.941467 176.0
288.215118 208.0
288.457672 156.0
288.597046 184.0
288.914978 156.0
288.982635 172.0
289.090912 144.0
289.48172 140.0
289.74884 168.0
290.008728 160.0
290.292511 192.0
290.324005 172.0
290.835602 152.0
290.885101 184.0
290.972107 220.0
291.070557 140.0
291.117615 444.0
291.27774 148.0
291.342285 152.0
291.4646 140.0
291.569946 168.0
291.685516 152.0
291.787476 192.0
291.904266 264.0
292.122681 208.0
292.386169 152.0
292.487885 140.0
293.127899 272.0
293.659332 184.0
293.776337 196.0
293.837738 160.0
294.100525 160.0
294.170166 188.0
294.243896 208.0
294.325836 144.0
294.359985 140.0
294.404358 140.0
294.687897 204.0
294.7323 140.0
294.790405 196.0
294.857544 184.0
295.323883 180.0
295.967102 180.0
296.108063 144.0
296.237671 184.0
296.261627 188.0
296.365143 200.0
296.572906 120.0
296.600891 176.0
296.805389 148.0
296.844299 96.0
296.947174 180.0
297.063812 168.0
297.619781 164.0
297.894531 156.0
298.303467 140.0
298.434113 200.0
298.478821 168.0
298.592285 148.0
298.771149 140.0
298.795258 204.0
299.25708 108.0
299.483704 152.0
299.590515 256.0
299.673187 184.0
299.762787 144.0
299.80069 204.0
300.183319 164.0
300.235046 156.0
301.063293 164.0
301.17038 188.0
301.525208 172.0
301.591919 260.0
302.067169 156.0
302.117523 176.0
302.46701 164.0
302.567413 164.0
302.74054 172.0
303.215149 144.0
303.260223 240.0
303.284485 168.0
303.437012 224.0
303.579163 192.0
304.127319 152.0
304.151611 160.0
304.312897 224.0
304.398132 160.0
304.446747 160.0
304.491882 168.0
304.514587 148.0
304.702911 160.0
304.865356 108.0
304.91922 164.0
305.133698 1492.0
305.433807 144.0
305.472076 160.0
305.577728 140.0
305.63089 164.0
305.925354 152.0
305.984467 132.0
306.097107 128.0
306.1297 340.0
306.860291 148.0
307.131683 152.0
307.439148 196.0
307.770447 136.0
307.859558 308.0
307.899109 172.0
308.313721 180.0
308.680756 148.0
308.768188 140.0
308.817169 168.0
308.9151 164.0
309.436554 192.0
309.51358 220.0
309.562592 140.0
309.674652 164.0
309.753113 144.0
309.930389 228.0
310.098602 152.0
310.224792 148.0
310.252838 168.0
310.378296 320.0
310.628052 164.0
310.684204 140.0
310.778412 224.0
310.896423 164.0
311.207123 232.0
311.322083 124.0
311.452942 164.0
311.563324 204.0
312.004669 152.0
312.098724 172.0
312.240234 204.0
312.440247 192.0
312.71521 216.0
313.705017 144.0
313.733215 220.0
314.304565 148.0
314.378479 156.0
314.650452 192.0
315.046783 192.0
315.360474 180.0
315.427643 160.0
315.55246 172.0
315.77417 176.0
317.108917 184.0
317.164215 176.0
317.247162 164.0
317.367706 184.0
317.469025 144.0
317.779144 144.0
317.8927 148.0
318.048859 176.0
318.281616 260.0
318.375488 140.0
318.627686 148.0
318.663391 152.0
319.061249 200.0
319.125244 160.0
319.656067 156.0
319.790466 140.0
319.883026 144.0
320.082397 180.0
320.201508 144.0
320.248413 208.0
320.531219 148.0
321.868866 188.0
321.972412 148.0
322.190308 144.0
322.482788 132.0
322.544983 112.0
322.708527 160.0
322.769318 140.0
323.595825 348.0
323.641022 104.0
324.151031 224.0
324.398315 180.0
324.74408 208.0
325.119263 144.0
325.324127 160.0
325.403595 224.0
325.47464 180.0
325.898468 140.0
326.405304 144.0
326.588715 168.0
327.031281 196.0
327.823578 184.0
327.903503 156.0
328.018219 216.0
328.07016 136.0
328.202087 180.0
328.490601 168.0
328.703461 176.0
328.739532 156.0
329.11496 168.0
329.216064 156.0
329.284668 140.0
329.469879 192.0
329.67627 348.0
329.732666 156.0
329.771393 124.0
329.795593 148.0
330.419708 156.0
330.448547 128.0
330.586151 160.0
331.12558 160.0
331.212494 160.0
331.368286 156.0
331.428986 184.0
331.564575 128.0
331.868378 176.0
332.067047 188.0
332.13562 232.0
332.196075 132.0
332.321136 148.0
332.408905 208.0
332.586731 248.0
332.615967 152.0
332.855377 148.0
333.011841 104.0
333.062408 152.0
333.094025 96.0
333.206757 260.0
333.245514 216.0
333.335632 96.0
333.527496 148.0
333.674255 292.0
333.756531 144.0
333.895782 148.0
333.994141 156.0
334.056702 240.0
334.144562 144.0
334.162628 136.0
334.200165 136.0
334.211182 128.0
334.257324 224.0
334.314667 184.0
334.344055 112.0
334.412659 188.0
334.468597 164.0
334.605469 160.0
334.657227 272.0
334.703552 120.0
334.744141 380.0
334.795563 396.0
334.825348 168.0
334.881836 180.0
334.941162 236.0
334.978363 280.0
335.056641 236.0
335.092865 256.0
335.159515 368.0
335.177216 280.0
335.223297 156.0
335.325806 160.0
335.356537 220.0
335.405823 248.0
335.508179 440.0
335.551178 128.0
335.579529 224.0
335.624146 144.0
335.674622 520.0
335.726288 544.0
335.753784 172.0
335.783936 264.0
335.831543 292.0
335.888763 380.0
335.921753 324.0
335.974243 952.0
336.006622 264.0
336.048584 432.0
336.078369 732.0
336.1091 1244.0
336.11853 988.0
336.177063 235256.0
336.298126 160.0
336.400055 160.0
336.425537 356.0
336.499359 232.0
336.520233 260.0
336.568085 312.0
336.629425 400.0
336.663086 224.0
336.710175 260.0
336.778717 9128.0
336.826263 396.0
336.886688 372.0
336.925293 304.0
336.994629 184.0
337.064575 372.0
337.10141 496.0
337.178558 97020.0
337.266083 252.0
337.312317 252.0
337.393524 128.0
337.425415 376.0
337.452881 136.0
337.516968 128.0
337.577271 188.0
337.61441 296.0
337.703125 164.0
337.746124 212.0
337.780121 308.0
337.857117 196.0
337.9245 264.0
337.961975 128.0
338.03006 168.0
338.040039 188.0
338.053467 396.0
338.174561 28388.0
338.285248 96.0
338.681244 216.0
338.834625 244.0
338.883209 148.0
338.922699 196.0
339.003326 144.0
339.085602 180.0
339.126556 264.0
339.174042 3132.0
339.229767 212.0
339.277893 184.0
339.31485 348.0
339.362915 304.0
339.399597 212.0
339.456696 180.0
339.482483 456.0
339.562042 428.0
339.631134 336.0
339.944244 228.0
340.040802 148.0
340.133362 192.0
340.212402 180.0
340.27002 128.0
340.312622 276.0
340.45108 152.0
340.484314 124.0
340.532166 200.0
340.850983 148.0
341.603851 188.0
342.327454 124.0
342.848755 96.0
343.821747 116.0
346.919495 96.0
348.889008 96.0
350.487122 160.0
350.770142 128.0
351.187988 148.0
351.230225 132.0
354.996674 124.0
355.190247 184.0
355.527924 164.0
363.93454 160.0
365.70224 144.0
381.577789 124.0
393.217072 192.0
400.377136 116.0
418.0755 144.0
435.317413 152.0
443.11084 124.0
460.999817 172.0
481.255371 164.0
483.869904 176.0
496.80307 120.0
526.063232 176.0
539.884277 140.0
607.368347 148.0
680.387146 156.0
680.478455 124.0
752.07605 140.0
894.752686 100.0
966.201111 148.0
1088.943604 172.0
1167.51001 220.0
1240.029663 160.0
1241.424683 224.0
1246.436768 144.0
1263.754272 180.0
1300.936035 156.0
1326.849854 180.0
1327.115845 216.0
1359.161133 148.0
1361.862671 144.0
1415.079712 212.0
1426.520508 156.0
1433.542603 216.0
1437.154541 160.0
1440.990112 144.0
1441.088257 192.0
1446.684814 168.0
1450.320801 232.0
1450.593628 168.0
1459.149292 196.0
1479.411987 140.0
1481.05835 212.0
1481.548584 184.0
1488.950562 192.0
1492.300903 240.0
1500.824341 180.0
1509.617554 248.0
1513.63562 176.0
1525.506226 204.0
1530.446411 240.0
1531.902832 204.0
1533.749634 140.0
1545.9021 148.0
1552.223633 232.0
1555.204834 164.0
1556.429565 160.0
1558.235962 152.0
1568.371826 148.0
1577.465088 160.0
1577.789307 156.0
1587.211182 164.0
1596.13623 188.0
1597.973511 208.0
1598.562378 184.0
1600.71167 208.0
1601.571777 172.0
1603.770874 144.0
1608.181641 172.0
1609.203491 172.0
1609.419067 204.0
1613.565796 168.0
1621.859131 192.0
1626.575562 220.0
1626.968872 160.0
1628.17334 160.0
1630.342407 232.0
1634.483765 164.0
1642.193359 144.0
1644.72876 228.0
1647.432129 148.0
1648.522827 172.0
1649.807983 176.0
1651.708252 192.0
1652.873291 160.0
1654.305786 188.0
1670.080322 148.0
1672.985352 164.0
1676.153564 176.0
1678.281006 176.0
1680.31189 212.0
1682.401123 176.0
1691.303101 160.0
1700.154663 160.0
1700.376221 228.0
1705.0 168.0
1706.570068 212.0
1716.912598 164.0
1718.479858 172.0
1724.475098 164.0
1735.883179 148.0
1738.41333 152.0
1740.795776 232.0
1759.137817 156.0
1763.021606 148.0
1766.081665 156.0
1771.438721 164.0
1771.782227 184.0
1773.256958 236.0
1774.765991 196.0
1779.095093 200.0
1785.422119 180.0
1798.278687 148.0
1799.899536 196.0
1801.385986 172.0
1805.265381 176.0
1807.524048 140.0
1809.707764 184.0
1812.596191 148.0
1822.761841 140.0
1822.855225 148.0
1825.303345 148.0
1826.621582 140.0
1826.825806 172.0
1836.894653 164.0
1837.031128 212.0
1843.460327 168.0
1853.789185 208.0
1854.53479 168.0
1854.817627 220.0
1858.651123 160.0
1858.711182 248.0
1859.166016 184.0
1863.004028 216.0
1873.792358 152.0
1874.317871 180.0
1874.7229 200.0
1878.740845 208.0
1880.078247 168.0
1887.464111 180.0
1888.683472 196.0
1898.851807 196.0
1899.693237 148.0
1902.886841 208.0
1903.477295 176.0
1903.842041 148.0
1905.492432 160.0
1905.874756 196.0
1908.160645 236.0
1910.02832 156.0
1914.843506 252.0
1917.047607 196.0
1921.18042 188.0
1932.319336 176.0
1933.290649 184.0
1934.23584 156.0
1938.606201 148.0
1943.744873 236.0
1943.876587 180.0
1946.439697 156.0
1949.672485 156.0
1951.263428 180.0
1951.791016 168.0
1953.576294 156.0
1958.541016 160.0
1958.858154 156.0
1960.382324 184.0
1965.011475 180.0
1965.364502 216.0
1965.973267 176.0
1967.288452 140.0
1971.29834 168.0
1974.458252 152.0
1976.524292 140.0
1980.711914 144.0
1981.411743 216.0
1985.622192 256.0
1986.615601 152.0
1987.53833 144.0
1998.52063 200.0
1998.843506 168.0
1999.3927 156.0
