>compound MLS001401397-01!
>formula C18H19N3O
>ionization [M+H]+
>parentmass 294.15979
#inchi InChI=1S/C18H19N3O/c1-12-19-9-10-21(12)11-13-7-8-16-17(18(13)22)14-5-3-4-6-15(14)20(16)2/h3-6,9-10,13H,7-8,11H2,1-2H3
#inchikey FELGMEQIXOGIFQ
#origInchi InChI=1S/C18H19N3O.ClH/c1-12-19-9-10-21(12)11-13-7-8-16-17(18(13)22)14-5-3-4-6-15(14)20(16)2;/h3-6,9-10,13H,7-8,11H2,1-2H3;1H
#Ion_Source LC-ESI
#Instrument qTof
#Compound_Source NIH Pharmacologically Active Library
#PI Dorrestein
#Data_Collector VP/LMS
#Scan -1
#Precursor_MZ 294.166
#ExactMass 293.153
#Charge 1
#CAS_Number N/A
#Pubmed_ID N/A
#Smiles Cc1nccn1CC2CCc3c(C2=O)c4ccccc4n3C.Cl
#INCHI_AUX N/A
#Library_Class 1
#SpectrumID CCMSLIB00000086137
#IonMode Positive
#UpdateWorkflowName UPDATE-SINGLE-ANNOTATED-GOLD
#LibraryQualityString Gold
#TaskID d252d724072548979f1f6f1ced849daf
##Scan# 1409
#SpectrumFile p5-F04_GF4_01_18467.mzXML
#LibraryName Pharm_Active_Library.mgf
#MQScore -1
#Organism Pharm_Active_Library
#TIC_Query 0
#RT_Query -1
#MZErrorPPM -1
#SharedPeaks 0
#MassDiff 0
#LibMZ -1
#SpecMZ 294.166
#SpecCharge 0
#internalFilename spec-00000.mgf

>collision 10
44.888718 184.0
44.911388 180.0
44.922062 68.0
44.975437 176.0
45.010609 104.0
45.046207 168.0
45.062237 52.0
45.076569 220.0
45.091637 192.0
45.131737 144.0
45.185627 152.0
45.273582 180.0
45.378098 92.0
45.44516 120.0
45.476025 224.0
45.518982 164.0
45.549873 160.0
45.570023 192.0
45.57943 152.0
45.607651 48.0
45.637943 200.0
45.65202 132.0
45.672192 120.0
45.688335 40.0
45.736778 128.0
45.746201 88.0
45.765049 140.0
45.786594 128.0
45.80949 188.0
45.932159 176.0
45.949696 108.0
46.053005 176.0
46.073902 184.0
46.099575 116.0
46.125252 124.0
46.15905 192.0
46.21418 164.0
46.233456 92.0
46.259171 176.0
46.367527 240.0
46.401417 188.0
46.420399 200.0
46.42989 136.0
46.447525 152.0
46.467873 32.0
46.48687 212.0
46.498341 216.0
46.542522 176.0
46.575115 176.0
46.636261 208.0
46.656174 252.0
46.690643 136.0
46.700729 212.0
46.7505 176.0
46.787251 140.0
46.81176 128.0
46.840988 148.0
46.916672 196.0
47.039448 168.0
47.052055 204.0
47.076569 212.0
47.109089 144.0
47.14325 216.0
47.154182 48.0
47.199295 132.0
47.280003 192.0
47.310116 164.0
47.327759 176.0
47.355301 156.0
47.440258 156.0
47.463566 148.0
47.48962 188.0
47.548615 140.0
47.599411 176.0
47.628876 184.0
47.641987 164.0
47.734074 104.0
47.746136 228.0
47.809734 160.0
47.862041 204.0
47.871681 160.0
47.880836 148.0
47.91576 124.0
47.941936 160.0
47.952484 172.0
47.998455 80.0
48.014763 204.0
48.028797 180.0
48.056389 208.0
48.108833 180.0
48.125401 164.0
48.14473 68.0
48.220715 160.0
48.256657 116.0
48.278782 180.0
48.300911 40.0
48.310593 36.0
48.347523 220.0
48.411633 140.0
48.453186 132.0
48.521095 176.0
48.534958 68.0
48.582115 92.0
48.598763 232.0
48.642887 136.0
48.671234 188.0
48.682049 120.0
48.707047 156.0
48.764015 148.0
48.805023 128.0
48.819626 60.0
48.850224 148.0
48.859962 76.0
48.905884 64.0
48.941799 200.0
49.004753 220.0
49.080021 180.0
49.106518 100.0
49.131626 160.0
49.156738 140.0
49.198612 120.0
49.232121 188.0
49.322937 152.0
49.343906 92.0
49.402641 140.0
49.507618 212.0
49.517422 108.0
49.528625 148.0
49.612705 160.0
49.628124 44.0
49.650562 208.0
49.768131 204.0
49.773209 160.0
49.949726 208.0
49.96661 164.0
50.002239 212.0
50.051891 392.0
50.0783 232.0
50.125713 108.0
50.152489 64.0
50.263603 244.0
50.276604 232.0
50.329491 124.0
50.350643 144.0
50.369789 236.0
50.379677 204.0
50.463058 224.0
50.481441 164.0
50.536606 132.0
50.561756 204.0
50.581894 196.0
50.621536 200.0
50.68528 196.0
50.702282 112.0
50.729214 128.0
50.756149 176.0
50.79586 216.0
50.836254 172.0
50.869652 84.0
50.899464 184.0
50.982418 212.0
51.106991 344.0
51.12122 128.0
51.141144 84.0
51.181004 156.0
51.202366 40.0
51.212334 176.0
51.304958 176.0
51.373409 152.0
51.393383 104.0
51.40337 176.0
51.427631 172.0
51.454792 156.0
51.470356 168.0
51.492943 156.0
51.530449 180.0
51.566174 172.0
51.599052 124.0
51.626217 132.0
51.655689 152.0
51.683437 116.0
51.765026 196.0
51.796764 200.0
51.825912 176.0
51.899719 160.0
51.92123 192.0
52.02454 200.0
52.102089 184.0
52.18401 144.0
52.209953 184.0
52.231464 88.0
52.274628 132.0
52.29015 244.0
52.329323 152.0
52.362442 72.0
52.431595 56.0
52.458981 84.0
52.484932 300.0
52.499352 40.0
52.581585 176.0
52.688438 168.0
52.707222 168.0
52.740459 116.0
52.863392 128.0
52.886547 252.0
52.896679 104.0
52.950253 152.0
53.018341 164.0
53.102222 140.0
53.169167 136.0
53.190937 148.0
53.219975 200.0
53.247566 172.0
53.259186 124.0
53.295502 120.0
53.317299 148.0
53.333286 328.0
53.412361 168.0
53.426353 108.0
53.440903 64.0
53.465637 56.0
53.47728 244.0
53.536972 204.0
53.555904 176.0
53.576298 208.0
53.595009 176.0
53.628757 128.0
53.70895 136.0
53.736668 176.0
53.814022 148.0
53.827164 228.0
53.837387 172.0
53.965973 68.0
53.986446 228.0
54.008385 248.0
54.043495 96.0
54.102036 168.0
54.133041 136.0
54.170864 168.0
54.187992 224.0
54.206024 92.0
54.225079 136.0
54.23671 124.0
54.254871 160.0
54.313049 124.0
54.356441 208.0
54.442295 128.0
54.487419 240.0
54.50684 196.0
54.558281 168.0
54.593567 136.0
54.630421 212.0
54.759869 224.0
54.776073 212.0
54.84568 184.0
54.967255 172.0
55.023823 192.0
55.126736 184.0
55.300247 176.0
55.315014 156.0
55.320736 152.0
55.473553 124.0
55.503204 140.0
55.521782 220.0
55.627827 120.0
55.657047 188.0
55.691677 148.0
55.712471 140.0
55.734756 176.0
55.762993 180.0
55.781837 236.0
55.795696 200.0
55.816509 80.0
55.856667 416.0
55.920647 100.0
55.990002 140.0
56.050209 152.0
56.075542 212.0
56.156052 344.0
56.167984 168.0
56.181412 128.0
56.232143 224.0
56.251194 168.0
56.314259 160.0
56.336666 160.0
56.360237 144.0
56.379997 168.0
56.493633 168.0
56.504105 172.0
56.550491 180.0
56.567612 180.0
56.578934 104.0
56.644825 140.0
56.686775 156.0
56.716747 168.0
56.752728 216.0
56.788719 184.0
56.824089 220.0
56.85323 156.0
56.917778 196.0
56.931973 168.0
56.965969 232.0
57.018429 72.0
57.034229 160.0
57.111031 176.0
57.153767 172.0
57.167313 208.0
57.180855 92.0
57.207951 232.0
57.23505 120.0
57.272728 196.0
57.311867 168.0
57.355572 136.0
57.375168 192.0
57.394768 148.0
57.412865 156.0
57.45208 160.0
57.590954 144.0
57.618641 280.0
57.640808 28.0
57.654408 136.0
57.671947 192.0
57.713364 68.0
57.792015 176.0
57.838928 168.0
57.891918 128.0
57.908577 84.0
57.932812 188.0
57.982815 92.0
58.032837 160.0
58.044968 188.0
58.079849 64.0
58.098957 124.0
58.135986 208.0
58.196705 172.0
58.225555 172.0
58.241478 132.0
58.277203 96.0
58.299995 88.0
58.322792 160.0
58.360798 160.0
58.396053 152.0
58.468803 216.0
58.516293 144.0
58.533672 196.0
58.557106 156.0
58.627186 140.0
58.758316 140.0
58.811726 128.0
58.833096 88.0
58.883148 200.0
58.904869 160.0
58.963791 156.0
58.984329 212.0
59.00573 28.0
59.027138 184.0
59.037842 148.0
59.114075 144.0
59.16943 164.0
59.180149 176.0
59.195461 160.0
59.22324 172.0
59.275116 212.0
59.336422 88.0
59.38818 156.0
59.432049 196.0
59.451309 196.0
59.500137 208.0
59.558029 224.0
59.666504 208.0
59.689568 184.0
59.777248 152.0
59.885014 76.0
59.927467 136.0
59.956577 160.0
59.968212 156.0
60.011917 160.0
60.03759 96.0
60.049927 208.0
60.072639 160.0
60.094662 176.0
60.178009 136.0
60.196537 152.0
60.216614 156.0
60.25523 168.0
60.281498 256.0
60.327866 104.0
60.343327 196.0
60.363426 156.0
60.471718 180.0
60.488747 76.0
60.516609 156.0
60.553776 100.0
60.631241 124.0
60.652939 188.0
60.682392 36.0
60.770798 88.0
60.781658 184.0
60.812698 168.0
60.827034 136.0
60.839966 120.0
61.084614 224.0
61.108616 168.0
61.126621 184.0
61.145298 172.0
61.163975 180.0
61.269867 76.0
61.307262 76.0
61.367516 116.0
61.391441 160.0
61.419518 172.0
61.475681 160.0
61.519386 140.0
61.548813 160.0
61.55191 216.0
61.592777 152.0
61.620895 188.0
61.683407 36.0
61.811653 112.0
62.052864 148.0
62.0952 184.0
62.113541 156.0
62.196098 156.0
62.253708 168.0
62.288261 184.0
62.368397 152.0
62.422649 220.0
62.461166 124.0
62.503647 180.0
62.544563 172.0
62.571358 188.0
62.590218 168.0
62.612267 204.0
62.673702 164.0
62.728859 88.0
62.823475 144.0
62.857502 208.0
62.884018 152.0
63.001865 180.0
63.033463 168.0
63.080879 136.0
63.188869 84.0
63.204239 100.0
63.284962 192.0
63.397427 216.0
63.43071 164.0
63.489372 200.0
63.500477 196.0
63.557587 128.0
63.582973 124.0
63.624245 144.0
63.643295 88.0
63.710003 96.0
63.72271 160.0
63.776741 204.0
63.791046 104.0
63.850189 164.0
63.905552 156.0
63.932602 144.0
63.948517 128.0
64.013565 112.0
64.059982 104.0
64.072723 108.0
64.102745 76.0
64.147621 184.0
64.187477 132.0
64.281593 48.0
64.30323 232.0
64.32309 152.0
64.353424 120.0
64.370987 132.0
64.425545 152.0
64.444466 76.0
64.490807 84.0
64.554703 128.0
64.580345 172.0
64.594742 44.0
64.633133 188.0
64.661942 120.0
64.854141 168.0
64.8862 168.0
64.905441 80.0
64.937508 344.0
65.06424 176.0
65.094788 180.0
65.11422 40.0
65.154213 184.0
65.285416 284.0
65.323006 124.0
65.340706 192.0
65.406685 140.0
65.437271 204.0
65.691704 168.0
65.7519 220.0
65.791954 52.0
65.8517 180.0
65.879158 152.0
65.89537 116.0
65.915627 188.0
66.02301 72.0
66.064957 176.0
66.089676 208.0
66.273918 176.0
66.303085 104.0
66.331154 212.0
66.346848 148.0
66.379272 180.0
66.395493 76.0
66.426308 136.0
66.44091 160.0
66.463623 172.0
66.527039 164.0
66.550407 196.0
66.56163 168.0
66.582809 200.0
66.634125 308.0
66.703987 220.0
66.757637 136.0
66.784927 92.0
66.803177 160.0
66.814568 152.0
66.831688 160.0
66.84919 128.0
66.863037 172.0
66.951294 92.0
66.993637 148.0
67.005043 196.0
67.022911 224.0
67.081238 196.0
67.130554 236.0
67.180603 180.0
67.199059 116.0
67.264336 112.0
67.288826 208.0
67.323112 144.0
67.337814 160.0
67.401726 140.0
67.437477 64.0
67.463631 148.0
67.48819 176.0
67.534775 132.0
67.605881 152.0
67.658302 176.0
67.710701 104.0
67.8172 148.0
67.854904 144.0
67.879494 212.0
67.906578 164.0
67.940178 144.0
67.999252 172.0
68.018951 168.0
68.045708 160.0
68.076408 220.0
68.142113 180.0
68.161835 132.0
68.210793 268.0
68.270325 232.0
68.291702 52.0
68.324608 212.0
68.426643 240.0
68.446404 192.0
68.46122 72.0
68.485924 128.0
68.520515 144.0
68.545235 144.0
68.574944 144.0
68.61171 156.0
68.670525 204.0
68.713409 204.0
68.789322 188.0
68.805222 108.0
68.870232 148.0
68.987556 152.0
69.002724 272.0
69.016945 216.0
69.068581 76.0
69.085121 148.0
69.202011 160.0
69.326859 144.0
69.368294 204.0
69.401451 104.0
69.418037 212.0
69.452866 80.0
69.464478 148.0
69.500549 140.0
69.51503 196.0
69.53582 172.0
69.565697 116.0
69.703926 228.0
69.748421 156.0
69.826569 216.0
69.869339 180.0
69.889786 120.0
69.908089 184.0
69.959686 224.0
69.974663 48.0
70.000015 212.0
70.047943 132.0
70.062935 196.0
70.13459 196.0
70.224625 132.0
70.274666 148.0
70.35144 168.0
70.383163 160.0
70.396523 212.0
70.423241 128.0
70.4366 168.0
70.488396 116.0
70.607086 176.0
70.642212 124.0
70.722527 204.0
70.739265 160.0
70.789497 160.0
70.867409 396.0
70.90509 172.0
70.946991 144.0
70.975494 136.0
71.044258 152.0
71.094597 152.0
71.114731 72.0
71.136559 92.0
71.212112 144.0
71.237312 280.0
71.267555 160.0
71.308571 156.0
71.339821 140.0
71.360725 208.0
71.421341 148.0
71.483566 248.0
71.51812 208.0
71.568626 104.0
71.588837 40.0
71.689201 200.0
71.764076 88.0
71.870338 160.0
71.893959 76.0
71.924339 112.0
71.990181 104.0
72.003693 76.0
72.039162 132.0
72.157463 208.0
72.17099 104.0
72.245407 228.0
72.275185 164.0
72.322479 156.0
72.394348 192.0
72.407898 176.0
72.487518 104.0
72.551926 140.0
72.645195 128.0
72.684219 116.0
72.775879 172.0
72.787766 104.0
72.8591 224.0
72.898178 244.0
72.942368 204.0
73.032837 212.0
73.047791 128.0
73.098831 168.0
73.117554 172.0
73.14138 72.0
73.178833 284.0
73.252068 104.0
73.273064 232.0
73.304878 160.0
73.330444 120.0
73.356354 160.0
73.378174 32.0
73.397934 204.0
73.444679 52.0
73.499275 176.0
73.593147 188.0
73.640961 120.0
73.688797 192.0
73.719551 212.0
73.772537 144.0
73.827248 192.0
73.868301 196.0
73.96241 364.0
74.010345 220.0
74.029182 120.0
74.094269 192.0
74.258827 176.0
74.29142 136.0
74.332596 120.0
74.38237 228.0
74.433876 128.0
74.476807 128.0
74.526627 196.0
74.576462 120.0
74.603966 124.0
74.636635 96.0
74.648666 148.0
74.684784 180.0
74.717468 192.0
74.757042 200.0
74.817284 96.0
74.874107 152.0
74.896851 156.0
74.975754 192.0
75.010223 208.0
75.051598 100.0
75.117134 228.0
75.15509 152.0
75.198227 96.0
75.293182 156.0
75.336365 172.0
75.45549 168.0
75.478088 96.0
75.50795 164.0
75.606102 272.0
75.632065 136.0
75.666679 56.0
75.687035 180.0
75.693085 240.0
75.72036 160.0
75.755005 212.0
75.793121 152.0
75.82103 192.0
75.850937 232.0
75.879784 80.0
75.944046 180.0
76.009865 176.0
76.036568 184.0
76.106941 220.0
76.131378 140.0
76.143539 96.0
76.181747 180.0
76.244301 164.0
76.277321 216.0
76.345131 136.0
76.357307 208.0
76.430367 208.0
76.447769 76.0
76.634087 164.0
76.651512 172.0
76.68985 224.0
76.729942 76.0
76.754349 192.0
76.777023 132.0
76.859009 192.0
76.881691 116.0
76.932312 124.0
76.972466 108.0
77.124458 372.0
77.154602 180.0
77.190895 176.0
77.213631 136.0
77.257355 76.0
77.302849 188.0
77.350105 160.0
77.395622 148.0
77.563805 156.0
77.661995 192.0
77.711113 152.0
77.73217 152.0
77.79184 184.0
77.823441 176.0
77.886665 128.0
77.921799 172.0
77.983208 152.0
77.989601 144.0
78.02549 148.0
78.09407 100.0
78.111656 188.0
78.130386 236.0
78.169716 112.0
78.203156 48.0
78.305275 84.0
78.324646 180.0
78.354599 168.0
78.479912 192.0
78.514221 204.0
78.587326 184.0
78.615555 172.0
78.644577 144.0
78.667381 204.0
78.6791 156.0
78.700287 216.0
78.712646 172.0
78.755028 92.0
78.770927 108.0
78.786827 184.0
78.967125 216.0
79.000732 128.0
79.046844 124.0
79.099831 180.0
79.117531 104.0
79.190132 144.0
79.266304 88.0
79.336205 252.0
79.372665 116.0
79.413452 204.0
79.450699 132.0
79.487961 128.0
79.52533 140.0
79.548302 184.0
79.610451 176.0
79.684029 152.0
79.795242 168.0
79.850891 148.0
79.881088 160.0
79.901947 96.0
79.921524 204.0
79.986923 144.0
80.039001 96.0
80.131615 188.0
80.161911 116.0
80.199333 152.0
80.256378 84.0
80.279564 152.0
80.346375 236.0
80.456207 120.0
80.509773 164.0
80.561569 200.0
80.636612 160.0
80.654488 224.0
80.692032 64.0
80.717064 204.0
80.88855 192.0
80.95327 180.0
81.03566 180.0
81.101967 124.0
81.175468 140.0
81.198784 216.0
81.295662 228.0
81.360275 64.0
81.383614 108.0
81.462639 172.0
81.540771 124.0
81.596893 164.0
81.639114 176.0
81.710724 196.0
81.771912 156.0
81.79171 80.0
81.804306 212.0
81.85009 212.0
81.928566 192.0
82.011452 184.0
82.033081 224.0
82.069145 136.0
82.119637 184.0
82.177315 164.0
82.296486 140.0
82.366913 180.0
82.394234 188.0
82.433762 184.0
82.486176 144.0
82.506058 160.0
82.567627 316.0
82.628738 144.0
82.750298 148.0
82.829979 116.0
82.858963 152.0
82.875275 68.0
82.921387 216.0
83.022102 140.0
83.042046 160.0
83.078323 132.0
83.091026 180.0
83.107353 160.0
83.134575 188.0
83.270729 36.0
83.305244 132.0
83.545006 180.0
83.667137 84.0
83.682579 116.0
83.721756 160.0
83.743614 128.0
83.938614 240.0
84.004272 152.0
84.024338 252.0
84.126617 168.0
84.221489 80.0
84.258026 140.0
84.283653 140.0
84.309181 152.0
84.323807 108.0
84.34391 156.0
84.395096 208.0
84.428017 236.0
84.449646 140.0
84.470078 216.0
84.500359 196.0
84.558784 192.0
84.574379 180.0
84.596344 144.0
84.618317 136.0
84.700722 112.0
84.720871 148.0
84.748871 184.0
84.763008 192.0
84.856491 188.0
84.882156 148.0
84.922508 212.0
84.935349 208.0
84.968369 52.0
85.008728 136.0
85.044907 236.0
85.076309 176.0
85.107857 176.0
85.177643 224.0
85.240105 120.0
85.327011 212.0
85.352234 228.0
85.427643 184.0
85.447876 220.0
85.532524 184.0
85.584076 228.0
85.608009 92.0
85.652214 116.0
85.692741 120.0
85.766457 140.0
85.799637 192.0
85.851265 192.0
85.995171 112.0
86.035774 192.0
86.069008 100.0
86.091171 192.0
86.209396 220.0
86.2556 92.0
86.288879 184.0
86.307365 148.0
86.331406 72.0
86.351753 164.0
86.381348 212.0
86.412796 148.0
86.478821 200.0
86.50885 204.0
86.592003 320.0
86.681274 200.0
86.718765 52.0
86.731316 156.0
86.786041 208.0
86.824013 168.0
86.840706 268.0
86.861115 152.0
86.892815 44.0
86.952026 156.0
86.965019 116.0
87.106857 164.0
87.134003 196.0
87.160011 160.0
87.188835 180.0
87.219482 136.0
87.247368 128.0
87.332909 128.0
87.406387 160.0
87.428993 168.0
87.46315 180.0
87.526451 152.0
87.552521 204.0
87.599083 188.0
87.614418 172.0
87.636345 184.0
87.668022 136.0
87.72953 152.0
87.805977 124.0
87.860069 168.0
87.873131 116.0
87.936577 116.0
87.975777 132.0
87.998177 180.0
88.020584 184.0
88.041122 96.0
88.061668 104.0
88.080345 180.0
88.194328 156.0
88.220497 168.0
88.35083 196.0
88.357018 136.0
88.363197 196.0
88.382812 164.0
88.420639 164.0
88.458069 200.0
88.478661 72.0
88.495514 144.0
88.547546 208.0
88.669724 164.0
88.757828 180.0
88.784081 164.0
88.805458 232.0
88.977348 52.0
89.003639 128.0
89.037437 196.0
89.054344 80.0
89.071243 196.0
89.138878 64.0
89.156006 108.0
89.184082 160.0
89.266708 48.0
89.33065 160.0
89.366394 304.0
89.422852 104.0
89.454849 136.0
89.513214 128.0
89.760063 128.0
89.94873 204.0
89.966156 172.0
90.02047 108.0
90.050461 172.0
90.071465 208.0
90.090355 188.0
90.177277 144.0
90.190506 176.0
90.218857 192.0
90.277473 164.0
90.330429 168.0
90.366379 180.0
90.419357 156.0
90.498863 212.0
90.618584 172.0
90.644714 120.0
90.663666 156.0
90.692093 140.0
90.716736 124.0
90.735695 164.0
90.748184 136.0
90.763229 168.0
90.841888 168.0
90.917786 256.0
90.961441 48.0
91.014595 108.0
91.060173 124.0
91.123566 140.0
91.166565 48.0
91.269325 132.0
91.306686 204.0
91.379524 228.0
91.425194 92.0
91.446457 232.0
91.579407 188.0
91.686096 100.0
91.72422 116.0
91.914932 144.0
91.935921 156.0
91.98555 208.0
92.018005 120.0
92.060013 128.0
92.082924 168.0
92.138321 164.0
92.176163 164.0
92.205681 224.0
92.236519 176.0
92.243721 208.0
92.281662 128.0
92.308434 204.0
92.340942 220.0
92.358154 120.0
92.403236 264.0
92.461472 36.0
92.561615 232.0
92.578255 48.0
92.593575 144.0
92.652313 168.0
92.714264 148.0
92.787109 156.0
92.842712 176.0
92.921356 144.0
93.057671 168.0
93.072983 160.0
93.113312 64.0
93.159988 200.0
93.225182 172.0
93.267021 188.0
93.28624 44.0
93.30851 192.0
93.429405 176.0
93.511292 136.0
93.576736 244.0
93.633286 228.0
93.690369 148.0
93.738533 188.0
93.794426 40.0
93.925545 180.0
93.970901 168.0
93.993065 256.0
94.029732 112.0
94.106949 160.0
94.120461 144.0
94.17067 164.0
94.203506 336.0
94.24601 204.0
94.271133 280.0
94.334106 200.0
94.354248 156.0
94.414192 152.0
94.454002 312.0
94.460701 84.0
94.464867 168.0
94.514206 188.0
94.526917 176.0
94.729683 132.0
94.830437 172.0
94.898285 136.0
94.92543 208.0
94.977798 212.0
94.997192 132.0
95.014656 124.0
95.067039 84.0
95.086449 100.0
95.169922 244.0
95.193222 164.0
95.220406 156.0
95.237892 112.0
95.288399 140.0
95.38372 156.0
95.39917 148.0
95.418068 244.0
95.471115 40.0
95.522537 172.0
95.552803 176.0
95.589775 188.0
95.663399 156.0
95.70462 108.0
95.7202 168.0
95.741615 420.0
95.770828 152.0
95.784706 160.0
95.813683 128.0
95.835121 216.0
95.862396 132.0
95.897476 192.0
95.911118 124.0
95.94426 244.0
95.977402 124.0
95.994957 48.0
96.044777 132.0
96.063217 156.0
96.115891 140.0
96.166634 192.0
96.196754 176.0
96.261337 180.0
96.297447 148.0
96.33651 184.0
96.353386 176.0
96.3834 288.0
96.424438 156.0
96.521172 160.0
96.551514 148.0
96.661064 56.0
96.707718 124.0
96.778511 188.0
96.819633 116.0
96.837257 168.0
96.866638 172.0
96.993111 272.0
97.029289 128.0
97.054779 196.0
97.068504 160.0
97.094002 172.0
97.129303 104.0
97.15873 144.0
97.174423 220.0
97.276474 168.0
97.301994 196.0
97.339302 212.0
97.482697 212.0
97.513054 72.0
97.557388 200.0
97.575081 132.0
97.612434 124.0
97.645866 48.0
97.665535 116.0
97.702911 48.0
97.726524 184.0
97.739334 160.0
97.830826 192.0
97.908859 172.0
97.916351 92.0
97.924492 212.0
97.964737 144.0
97.990349 44.0
98.04158 160.0
98.084946 52.0
98.138168 152.0
98.159859 152.0
98.207191 240.0
98.226913 80.0
98.288971 168.0
98.34333 208.0
98.412422 240.0
98.445992 156.0
98.545258 184.0
98.56649 204.0
98.607994 144.0
98.639618 176.0
98.661362 136.0
98.744408 244.0
98.766167 44.0
98.795837 124.0
98.827492 128.0
98.889252 212.0
98.91655 276.0
98.934364 116.0
99.043274 352.0
99.160744 184.0
99.187927 120.0
99.201797 176.0
99.253349 168.0
99.291023 140.0
99.338631 160.0
99.372353 164.0
99.517136 176.0
99.547028 168.0
99.658264 132.0
99.723839 148.0
99.755646 188.0
99.789444 180.0
99.843132 144.0
99.861031 212.0
99.900688 128.0
99.942589 208.0
99.95652 120.0
100.06002 216.0
100.125732 192.0
100.173531 160.0
100.205406 152.0
100.221344 132.0
100.289101 192.0
100.362862 148.0
100.392776 192.0
100.418701 204.0
100.43708 168.0
100.464577 140.0
100.490517 208.0
100.504478 208.0
100.534409 240.0
100.652191 156.0
100.670158 196.0
100.694122 132.0
100.847969 160.0
100.867958 264.0
100.957466 156.0
101.034561 128.0
101.098526 156.0
101.130997 244.0
101.16201 68.0
101.224075 152.0
101.280151 220.0
101.372307 164.0
101.401428 196.0
101.428429 44.0
101.467674 132.0
101.520653 48.0
101.552742 244.0
101.580826 144.0
101.6157 176.0
101.632988 132.0
101.75943 96.0
101.839333 188.0
101.871895 176.0
101.922127 112.0
101.936188 160.0
101.962311 48.0
101.984421 156.0
102.008545 176.0
102.046249 476.0
102.088966 44.0
102.139244 220.0
102.154686 148.0
102.223747 136.0
102.249908 152.0
102.328415 124.0
102.402924 156.0
102.427094 192.0
102.461334 184.0
102.48954 120.0
102.525482 192.0
102.56411 68.0
102.652817 144.0
102.681053 128.0
102.921188 128.0
102.951477 216.0
102.981773 152.0
103.00399 240.0
103.054451 592.0
103.145439 156.0
103.179802 116.0
103.222267 148.0
103.333511 56.0
103.371956 212.0
103.386116 176.0
103.509605 80.0
103.596695 64.0
103.622513 176.0
103.655449 140.0
103.801399 104.0
103.860207 120.0
103.884552 76.0
103.914986 172.0
103.930801 156.0
103.976074 188.0
103.993874 164.0
104.026604 168.0
104.053917 184.0
104.203201 96.0
104.221573 144.0
104.296417 164.0
104.326996 188.0
104.384186 128.0
104.462555 172.0
104.536751 68.0
104.561455 172.0
104.63884 152.0
104.664986 204.0
104.799423 176.0
104.852402 156.0
104.895203 112.0
104.968597 128.0
105.00531 136.0
105.032288 124.0
105.055733 228.0
105.087799 164.0
105.164452 188.0
105.178734 208.0
105.22773 128.0
105.270607 208.0
105.30674 168.0
105.329842 180.0
105.372742 112.0
105.419731 168.0
105.470825 164.0
105.54557 112.0
105.64669 252.0
105.674492 220.0
105.689651 152.0
105.732887 124.0
105.75309 100.0
105.778389 180.0
105.818596 60.0
105.861595 108.0
105.89846 56.0
105.949669 56.0
105.984497 64.0
106.01239 236.0
106.050079 236.0
106.069855 148.0
106.149727 112.0
106.164886 132.0
106.191551 156.0
106.236679 176.0
106.267448 48.0
106.281815 116.0
106.312592 152.0
106.363068 128.0
106.394691 124.0
106.409065 112.0
106.491203 76.0
106.573372 200.0
106.587761 168.0
106.685432 172.0
106.725471 152.0
106.871513 92.0
106.897392 152.0
106.949715 236.0
106.984703 200.0
107.029999 184.0
107.06501 144.0
107.15358 208.0
107.200974 184.0
107.246307 164.0
107.291344 52.0
107.328773 180.0
107.353516 224.0
107.431892 192.0
107.521461 220.0
107.553642 160.0
107.61351 152.0
107.644478 164.0
107.768417 36.0
107.877945 104.0
107.946175 156.0
108.010292 140.0
108.03511 148.0
108.19239 152.0
108.262794 128.0
108.39537 284.0
108.478271 88.0
108.517662 192.0
108.542542 96.0
108.561203 136.0
108.579872 128.0
108.758301 160.0
108.840401 180.0
108.992973 116.0
109.021049 164.0
109.057396 72.0
109.157188 128.0
109.188377 168.0
109.205017 156.0
109.397469 180.0
109.436005 192.0
109.498482 168.0
109.546387 168.0
109.585968 116.0
109.600555 128.0
109.660988 108.0
109.866142 176.0
109.927933 224.0
110.034378 140.0
110.053169 132.0
110.224449 180.0
110.289276 204.0
110.330978 136.0
110.397949 124.0
110.448143 160.0
110.462791 132.0
110.546478 40.0
110.659508 188.0
110.747459 200.0
110.894127 152.0
110.929329 196.0
110.998947 288.0
111.019913 172.0
111.038506 148.0
111.063957 160.0
111.095421 296.0
111.126892 184.0
111.147873 76.0
111.238602 208.0
111.317902 144.0
111.37426 196.0
111.395615 124.0
111.441833 136.0
111.534241 176.0
111.60157 96.0
111.668861 196.0
111.724213 176.0
111.755112 64.0
111.822449 204.0
111.862442 160.0
111.877174 204.0
111.891914 40.0
111.912971 200.0
111.937805 176.0
111.971931 188.0
112.073044 264.0
112.10157 208.0
112.188957 316.0
112.205826 136.0
112.241669 140.0
112.2743 144.0
112.288063 176.0
112.416748 176.0
112.454742 152.0
112.564514 152.0
112.663788 172.0
112.708153 224.0
112.722946 288.0
112.76944 176.0
112.879372 112.0
112.920609 152.0
112.963966 152.0
112.980896 148.0
113.118446 132.0
113.172699 224.0
113.277023 176.0
113.304802 60.0
113.425591 164.0
113.459511 136.0
113.520996 132.0
113.540085 364.0
113.59523 132.0
113.652138 188.0
113.694954 188.0
113.711121 168.0
113.76075 140.0
113.932762 164.0
114.011383 140.0
114.03476 176.0
114.066643 172.0
114.104912 96.0
114.233025 164.0
114.260162 248.0
114.287819 172.0
114.309097 128.0
114.379333 76.0
114.419777 188.0
114.434685 140.0
114.451714 184.0
114.496437 180.0
114.521988 220.0
114.55394 128.0
114.600815 188.0
114.64769 196.0
114.843834 116.0
114.867294 48.0
114.952705 132.0
114.999588 196.0
115.0252 136.0
115.054024 2352.0
115.249443 140.0
115.281494 48.0
115.300728 152.0
115.417046 160.0
115.459259 132.0
115.486732 156.0
115.523102 100.0
115.632225 136.0
115.692162 180.0
115.743683 124.0
115.760674 116.0
115.824921 172.0
115.869911 152.0
115.891335 136.0
115.913712 192.0
115.949196 136.0
115.972771 164.0
116.034187 196.0
116.059937 1152.0
116.090683 152.0
116.105698 140.0
116.127724 176.0
116.207016 204.0
116.236549 144.0
116.296638 56.0
116.312401 176.0
116.330986 212.0
116.425461 136.0
116.461967 168.0
116.510071 224.0
116.537155 84.0
116.574898 228.0
116.604439 180.0
116.689476 92.0
116.734909 80.0
116.784378 164.0
116.805885 180.0
116.827393 188.0
116.842453 244.0
116.874725 44.0
116.907005 68.0
116.957443 188.0
116.980804 180.0
117.00602 164.0
117.030846 188.0
117.057526 1096.0
117.096458 236.0
117.120148 156.0
117.168243 180.0
117.217094 192.0
117.247269 196.0
117.447777 136.0
117.484444 220.0
117.506218 132.0
117.55349 80.0
117.592339 120.0
117.613922 216.0
117.654877 144.0
117.827705 180.0
117.903336 136.0
118.002769 120.0
118.039192 156.0
118.065369 1332.0
118.104401 128.0
118.169304 348.0
118.227722 156.0
118.340286 152.0
118.439903 116.0
118.48539 120.0
118.552567 168.0
118.572792 120.0
118.634926 132.0
118.765793 200.0
118.812752 196.0
118.932106 152.0
119.018944 196.0
119.047462 240.0
119.067085 376.0
119.240517 136.0
119.312248 108.0
119.360085 156.0
119.562393 104.0
119.590179 188.0
119.642014 124.0
119.721313 116.0
119.762695 188.0
119.781715 180.0
119.797546 220.0
119.851089 208.0
119.875984 116.0
119.900223 160.0
119.930466 116.0
120.044312 220.0
120.063461 232.0
120.344955 112.0
120.368973 88.0
120.419197 152.0
120.489098 188.0
120.545906 152.0
120.574318 212.0
120.650826 272.0
120.749222 280.0
120.862976 120.0
120.878288 168.0
120.897987 72.0
121.045975 188.0
121.105972 152.0
121.145401 180.0
121.355797 104.0
121.373337 128.0
121.570755 104.0
121.607796 164.0
121.660751 140.0
121.869392 208.0
121.944344 220.0
121.966087 228.0
121.981476 176.0
122.100204 176.0
122.117798 136.0
122.168388 188.0
122.240997 196.0
122.257278 120.0
122.289207 216.0
122.392883 56.0
122.468369 172.0
122.496391 148.0
122.512878 144.0
122.554886 152.0
122.60215 204.0
122.635208 164.0
122.704765 188.0
122.727798 124.0
122.749847 252.0
122.787338 64.0
122.802773 40.0
122.862335 112.0
122.910873 204.0
122.926315 204.0
122.961624 124.0
123.060959 116.0
123.171379 128.0
123.301743 136.0
123.589211 132.0
123.655602 196.0
123.717583 92.0
123.755219 248.0
123.802803 180.0
123.812286 88.0
123.816002 160.0
123.848228 152.0
123.881454 156.0
123.897896 212.0
124.093063 140.0
124.18956 40.0
124.218399 160.0
124.235374 208.0
124.318237 204.0
124.382599 76.0
124.436455 232.0
124.453293 76.0
124.463264 124.0
124.531364 196.0
124.578011 188.0
124.602455 196.0
124.631332 132.0
124.744682 180.0
124.829163 160.0
124.85585 180.0
124.920357 132.0
124.945717 180.0
125.073891 164.0
125.093925 224.0
125.156265 144.0
125.247574 96.0
125.287086 216.0
125.307716 176.0
125.416908 192.0
125.474869 144.0
125.490479 92.0
125.550682 156.0
125.586365 124.0
125.608673 164.0
125.637672 184.0
125.664444 112.0
125.744781 136.0
125.769333 60.0
125.799698 232.0
125.84523 124.0
125.889893 152.0
125.99276 144.0
126.044022 200.0
126.104362 180.0
126.122238 76.0
126.171417 152.0
126.225082 160.0
126.272041 184.0
126.328461 232.0
126.401794 88.0
126.419693 40.0
126.446548 152.0
126.547287 92.0
126.589828 160.0
126.605507 52.0
126.753349 56.0
126.883347 116.0
126.898293 224.0
126.916977 152.0
126.935638 212.0
126.975281 112.0
127.002197 160.0
127.056023 696.0
127.086113 108.0
127.105392 124.0
127.160416 116.0
127.217613 176.0
127.260269 172.0
127.362244 196.0
127.378174 160.0
127.44445 188.0
127.475906 144.0
127.505119 124.0
127.570305 180.0
127.639145 136.0
127.709717 176.0
127.727707 128.0
127.799698 248.0
127.918976 164.0
127.964005 164.0
127.984268 108.0
128.000031 148.0
128.061935 4044.0
128.125534 176.0
128.148102 168.0
128.191498 80.0
128.213943 300.0
128.362183 200.0
128.441757 244.0
128.579132 108.0
128.62767 148.0
128.647095 188.0
128.696762 184.0
128.735153 152.0
128.757736 164.0
129.000107 180.0
129.069275 4212.0
129.114822 44.0
129.155533 180.0
129.218872 212.0
129.261856 144.0
129.402191 144.0
129.455444 204.0
129.486832 336.0
129.513748 136.0
129.535812 164.0
129.553925 148.0
129.572052 120.0
129.64003 108.0
129.701218 152.0
129.762802 192.0
129.846329 144.0
129.875031 184.0
129.909836 196.0
129.962021 196.0
130.031891 200.0
130.065399 1860.0
130.1436 152.0
130.193558 72.0
130.235779 224.0
130.279861 128.0
130.332123 72.0
130.35939 60.0
130.450302 144.0
130.468491 160.0
130.554886 128.0
130.629944 164.0
130.675446 240.0
130.752823 228.0
130.768753 164.0
130.848419 124.0
130.864349 228.0
130.880295 176.0
131.071365 592.0
131.108276 140.0
131.176468 140.0
131.259872 232.0
131.3358 128.0
131.395386 56.0
131.418213 152.0
131.468414 168.0
131.527756 132.0
131.591675 124.0
131.60994 188.0
131.674652 224.0
131.703568 160.0
131.758392 116.0
131.845215 164.0
131.87265 184.0
131.897781 228.0
131.913788 180.0
132.008209 188.0
132.044968 516.0
132.084167 176.0
132.10791 144.0
132.140198 100.0
132.268341 260.0
132.287354 212.0
132.350601 180.0
132.389694 176.0
132.615601 184.0
132.685272 156.0
132.720367 304.0
132.754059 220.0
132.799927 128.0
132.820572 140.0
132.923813 132.0
132.97641 196.0
132.999542 172.0
133.051086 252.0
133.116623 40.0
133.144226 200.0
133.18782 180.0
133.27742 228.0
133.32338 164.0
133.470505 112.0
133.510406 152.0
133.557373 176.0
133.585495 128.0
133.606201 128.0
133.629745 120.0
133.66832 188.0
133.702835 200.0
133.764984 188.0
133.891617 188.0
133.973587 272.0
134.040955 160.0
134.071915 92.0
134.165817 164.0
134.248825 192.0
134.267273 76.0
134.315704 200.0
134.382599 192.0
134.419525 168.0
134.467987 200.0
134.521072 160.0
134.620468 160.0
134.648071 132.0
134.74411 180.0
134.84906 68.0
134.90686 124.0
134.957718 196.0
135.003967 180.0
135.022461 144.0
135.043274 208.0
135.064102 136.0
135.082596 52.0
135.182083 132.0
135.202911 236.0
135.221436 200.0
135.237625 360.0
135.307083 116.0
135.355698 112.0
135.388123 128.0
135.54332 96.0
135.585098 148.0
135.620453 128.0
135.705582 180.0
135.779785 168.0
135.828491 148.0
135.886475 136.0
135.907364 292.0
135.974655 160.0
136.135635 156.0
136.194031 164.0
136.213806 180.0
136.239365 44.0
136.284714 52.0
136.306747 168.0
136.323013 112.0
136.404358 172.0
136.506653 128.0
136.588058 164.0
136.615967 164.0
136.639236 120.0
136.688095 188.0
136.727661 168.0
136.811447 76.0
136.876633 136.0
136.904587 100.0
136.932465 156.0
137.016388 308.0
137.0327 96.0
137.107407 196.0
137.144547 128.0
137.313019 156.0
137.335739 116.0
137.396393 144.0
137.489731 40.0
137.597107 216.0
137.615784 172.0
137.676498 68.0
137.769302 136.0
137.805511 152.0
137.91713 184.0
138.001297 136.0
138.029358 124.0
138.071976 160.0
138.162674 196.0
138.212219 180.0
138.381714 248.0
138.436981 164.0
138.456635 196.0
138.5466 144.0
138.570038 124.0
138.588776 148.0
138.615738 160.0
138.656738 228.0
138.680176 168.0
138.740601 216.0
138.858353 144.0
138.895889 72.0
138.942795 128.0
139.010849 72.0
139.057785 164.0
139.149323 152.0
139.176224 184.0
139.221985 212.0
139.301971 220.0
139.414749 192.0
139.445312 204.0
139.49231 184.0
139.525223 168.0
139.612228 136.0
139.696899 176.0
139.722778 176.0
139.804138 200.0
139.97226 124.0
139.988754 104.0
140.019363 100.0
140.038208 216.0
140.055511 184.0
140.074905 220.0
140.104156 36.0
140.132431 124.0
140.252411 140.0
140.335129 48.0
140.370499 168.0
140.486069 176.0
140.61348 184.0
140.63237 172.0
140.705536 140.0
140.760544 148.0
140.821243 284.0
140.852341 144.0
140.962524 120.0
141.007889 140.0
141.067795 692.0
141.130814 172.0
141.234879 116.0
141.291641 160.0
141.487 204.0
141.537796 64.0
141.574127 412.0
141.625595 160.0
141.699554 176.0
141.819717 216.0
141.864746 192.0
141.888458 180.0
141.919281 156.0
142.06517 6108.0
142.156479 72.0
142.212082 164.0
142.239548 124.0
142.262207 100.0
142.291779 128.0
142.334518 84.0
142.361755 136.0
142.403381 152.0
142.445618 164.0
142.47702 176.0
142.55542 176.0
142.610092 148.0
142.66951 96.0
142.693283 136.0
142.757492 168.0
142.781265 152.0
142.806549 108.0
142.858948 128.0
142.990631 168.0
143.019196 164.0
143.040619 72.0
143.073303 20452.0
143.116394 520.0
143.169617 152.0
143.217941 76.0
143.244995 144.0
143.274979 240.0
143.323013 164.0
143.350235 252.0
143.431259 160.0
143.449371 40.0
143.481323 152.0
143.527466 180.0
143.552856 40.0
143.631561 92.0
143.723602 240.0
143.794998 200.0
143.846313 160.0
143.893555 344.0
143.922714 156.0
143.972855 168.0
143.99913 212.0
144.079117 4332.0
144.126816 168.0
144.163971 48.0
144.184372 112.0
144.209381 168.0
144.242844 180.0
144.25946 164.0
144.27829 92.0
144.283051 44.0
144.286621 128.0
144.331299 212.0
144.352814 136.0
144.377548 188.0
144.400085 212.0
144.439713 144.0
144.470016 36.0
144.532227 108.0
144.553757 116.0
144.697372 164.0
144.74852 176.0
144.795547 72.0
144.829071 184.0
144.869797 136.0
144.891693 144.0
144.926941 220.0
144.977615 172.0
145.022995 212.0
145.063202 316.0
145.083389 564.0
145.119049 152.0
145.171799 88.0
145.330109 36.0
145.392502 112.0
145.435699 120.0
145.466904 168.0
145.48851 72.0
145.514923 44.0
145.531723 56.0
145.589584 188.0
145.63739 208.0
145.715118 172.0
145.844025 152.0
145.880081 36.0
145.932968 236.0
145.971863 160.0
146.033966 176.0
146.059799 1156.0
146.096512 164.0
146.120575 52.0
146.159073 140.0
146.231262 84.0
146.308289 148.0
146.397385 116.0
146.435913 148.0
146.476852 68.0
146.551743 196.0
146.578751 204.0
146.626236 180.0
146.672043 152.0
146.703369 196.0
146.725067 216.0
146.785339 164.0
146.803497 120.0
146.881821 176.0
146.901108 96.0
146.946945 268.0
146.983139 92.0
147.065857 424.0
147.176239 140.0
147.27301 172.0
147.330811 52.0
147.388794 136.0
147.526566 196.0
147.591843 60.0
147.611191 168.0
147.715179 120.0
147.749054 52.0
147.778076 60.0
147.843414 152.0
147.862778 120.0
147.937805 284.0
147.980179 48.0
148.068558 148.0
148.109741 236.0
148.138443 216.0
148.182404 136.0
148.257706 168.0
148.320541 128.0
148.364182 248.0
148.415085 116.0
148.444183 160.0
148.470856 144.0
148.490265 64.0
148.548477 204.0
148.594574 72.0
148.613983 188.0
148.633392 172.0
148.656113 128.0
148.703766 136.0
148.730469 140.0
148.866226 144.0
148.902847 220.0
148.939285 52.0
148.985443 160.0
149.063568 180.0
149.072021 176.0
149.252792 144.0
149.379257 88.0
149.398712 160.0
149.429688 184.0
149.5009 248.0
149.537415 192.0
149.587479 176.0
149.700531 84.0
149.851547 196.0
149.958755 184.0
150.100159 176.0
150.192825 100.0
150.217224 68.0
150.378265 188.0
150.495438 184.0
150.573578 196.0
150.629761 216.0
150.734818 184.0
150.952377 104.0
151.154922 164.0
151.209244 184.0
151.231262 28.0
151.253189 172.0
151.285126 100.0
151.331635 212.0
151.365921 32.0
151.512878 128.0
151.588821 192.0
151.642746 124.0
151.659897 148.0
151.679504 152.0
151.721176 144.0
151.775116 268.0
151.824158 200.0
151.853592 88.0
151.981155 164.0
152.027786 472.0
152.059418 452.0
152.283112 108.0
152.333771 192.0
152.364166 200.0
152.403702 212.0
152.447708 180.0
152.582901 196.0
152.60257 148.0
152.71077 164.0
152.842667 168.0
152.951889 168.0
152.988815 100.0
153.069199 680.0
153.14888 188.0
153.166122 60.0
153.227707 116.0
153.270569 140.0
153.333664 56.0
153.376785 144.0
153.476639 164.0
153.534775 320.0
153.560394 176.0
153.604874 204.0
153.627075 168.0
153.661621 132.0
153.698624 132.0
153.789932 152.0
153.84671 124.0
153.943008 156.0
153.965225 280.0
154.002274 40.0
154.065247 6712.0
154.265198 128.0
154.37793 280.0
154.42305 212.0
154.543655 92.0
154.65593 208.0
154.771378 216.0
154.791183 204.0
154.820908 44.0
154.917496 156.0
154.949707 168.0
154.994308 76.0
155.016602 180.0
155.072052 7160.0
155.125656 88.0
155.145493 76.0
155.232269 136.0
155.31163 92.0
155.366211 176.0
155.412186 128.0
155.487793 184.0
155.577148 128.0
155.671494 168.0
155.718674 172.0
155.743515 196.0
155.793198 116.0
155.824188 176.0
155.933258 176.0
156.001938 180.0
156.043304 872.0
156.078461 2460.0
156.123779 208.0
156.171036 184.0
156.205856 44.0
156.225754 40.0
156.254593 128.0
156.31781 132.0
156.337723 56.0
156.380386 164.0
156.409897 52.0
156.435333 128.0
156.487076 184.0
156.506989 84.0
156.539352 60.0
156.597626 172.0
156.66684 108.0
156.713715 124.0
156.76355 104.0
156.810898 100.0
156.904236 208.0
156.957993 116.0
157.064423 100.0
157.089935 828.0
157.15004 76.0
157.171249 80.0
157.234894 148.0
157.274826 100.0
157.349716 156.0
157.384659 52.0
157.423065 196.0
157.467072 84.0
157.551529 148.0
157.631073 148.0
157.706924 216.0
157.79686 148.0
157.909454 60.0
158.059082 304.0
158.09787 564.0
158.122101 184.0
158.15976 192.0
158.202957 212.0
158.294846 188.0
158.327393 60.0
158.352448 208.0
158.410049 116.0
158.480194 156.0
158.698257 120.0
158.763458 76.0
158.796783 236.0
159.001785 140.0
159.026886 124.0
159.063324 312.0
159.107208 152.0
159.169983 160.0
159.222717 160.0
159.303085 168.0
159.433746 156.0
159.45134 128.0
159.547394 224.0
159.649948 148.0
159.707794 228.0
159.74617 196.0
159.785767 176.0
159.832855 208.0
159.918961 168.0
159.987106 172.0
160.00473 140.0
160.05574 216.0
160.075226 276.0
160.105438 48.0
160.178482 132.0
160.223831 168.0
160.274704 168.0
160.324615 112.0
160.342255 172.0
160.417877 180.0
160.496033 112.0
160.542206 180.0
160.687714 220.0
161.038605 112.0
161.1548 88.0
161.177536 180.0
161.367111 164.0
161.387329 132.0
161.579559 120.0
161.612442 176.0
161.632553 80.0
161.738983 160.0
161.776291 124.0
161.977005 60.0
162.097443 372.0
162.235474 220.0
162.303925 156.0
162.369858 160.0
162.400299 176.0
162.421951 200.0
162.50177 188.0
162.542358 152.0
162.600723 224.0
162.651489 168.0
162.743179 208.0
162.831757 116.0
163.047714 100.0
163.171539 196.0
163.365463 144.0
163.373978 140.0
163.384003 188.0
163.418777 104.0
163.589478 80.0
163.75499 152.0
163.783005 160.0
163.85434 200.0
163.90274 164.0
163.976639 144.0
164.045471 180.0
164.167847 168.0
164.228607 112.0
164.246918 240.0
164.269211 148.0
164.347992 236.0
164.397446 188.0
164.445923 164.0
164.471451 88.0
164.514664 112.0
164.541122 164.0
164.578674 148.0
164.685928 144.0
164.743759 232.0
164.785553 76.0
164.803436 52.0
164.89032 132.0
164.933777 180.0
164.959335 108.0
164.992645 140.0
165.013031 52.0
165.057999 136.0
165.092285 140.0
165.144104 156.0
165.176697 112.0
165.225296 200.0
165.271347 180.0
165.307175 140.0
165.343002 196.0
165.373718 128.0
165.430862 160.0
165.627197 176.0
165.660492 164.0
165.760422 160.0
165.92189 196.0
165.976425 208.0
166.028671 156.0
166.063583 408.0
166.142441 96.0
166.214279 140.0
166.270737 184.0
166.300064 312.0
166.430389 144.0
166.536102 400.0
166.60968 108.0
166.638794 108.0
166.671341 128.0
166.733017 168.0
166.828125 180.0
166.902237 196.0
166.952393 132.0
166.994247 152.0
167.073441 20600.0
167.147034 60.0
167.19989 52.0
167.262848 192.0
167.286011 104.0
167.378708 60.0
167.494659 160.0
167.534454 208.0
167.55899 132.0
167.646606 160.0
167.672379 172.0
167.701477 152.0
167.74231 152.0
167.778763 44.0
167.811462 88.0
167.832199 52.0
167.852829 36.0
167.922455 116.0
167.978226 176.0
168.005005 108.0
168.029694 128.0
168.080658 28392.0
168.145462 40.0
168.190399 240.0
168.23912 144.0
168.291473 72.0
168.347275 88.0
168.380829 116.0
168.387985 96.0
168.434525 112.0
168.513214 188.0
168.531677 64.0
168.590073 164.0
168.615707 156.0
168.647964 76.0
168.671234 112.0
168.706619 336.0
168.741028 192.0
168.761719 64.0
168.79071 224.0
168.828476 200.0
168.865158 68.0
168.883926 156.0
168.937576 28.0
168.962982 304.0
168.985992 248.0
169.023849 164.0
169.088562 35508.0
169.122726 504.0
169.179611 136.0
169.196686 168.0
169.208496 152.0
169.220016 272.0
169.259308 148.0
169.311142 196.0
169.36058 204.0
169.400421 388.0
169.430511 108.0
169.458984 324.0
169.495041 128.0
169.513809 260.0
169.543457 120.0
169.565552 80.0
169.59613 200.0
169.63913 176.0
169.649017 84.0
169.65654 108.0
169.681213 216.0
169.718246 244.0
169.749161 408.0
169.777618 408.0
169.803833 200.0
169.828873 224.0
169.86496 312.0
169.881699 264.0
169.948425 164.0
169.975998 336.0
169.983734 200.0
170.001678 372.0
170.044418 376.0
170.097137 157048.0
170.167664 80.0
170.224823 360.0
170.243835 88.0
170.265793 208.0
170.280075 64.0
170.285355 160.0
170.30838 184.0
170.325668 336.0
170.391266 276.0
170.426254 56.0
170.43959 36.0
170.461472 148.0
170.494476 24.0
170.524063 1228.0
170.557236 156.0
170.584671 368.0
170.664291 220.0
170.684875 224.0
170.73674 56.0
170.768875 152.0
170.81369 148.0
170.835403 104.0
170.87532 180.0
170.939514 232.0
170.972595 196.0
171.003036 224.0
171.068176 20160.0
171.099762 19440.0
171.156631 64.0
171.17746 60.0
171.198288 84.0
171.221054 268.0
171.23587 84.0
171.265839 84.0
171.29155 144.0
171.339279 184.0
171.363525 80.0
171.394302 184.0
171.414124 108.0
171.435989 160.0
171.475922 148.0
171.497894 132.0
171.524124 132.0
171.557175 124.0
171.594345 156.0
171.616776 40.0
171.677795 52.0
171.72374 84.0
171.763855 160.0
171.814392 88.0
171.83429 68.0
171.865295 148.0
171.906921 72.0
171.943893 56.0
171.980423 220.0
172.00618 180.0
172.028366 160.0
172.072342 1536.0
172.10141 1612.0
172.161087 160.0
172.206573 188.0
172.243164 296.0
172.291061 92.0
172.297638 208.0
172.315033 96.0
172.349243 140.0
172.406143 232.0
172.439331 188.0
172.484543 60.0
172.515366 132.0
172.526367 76.0
172.535248 132.0
172.602188 136.0
172.632812 160.0
172.653656 68.0
172.691101 92.0
172.730347 92.0
172.769577 124.0
172.860718 96.0
172.884705 36.0
172.934433 40.0
173.008682 132.0
173.042938 152.0
173.078537 216.0
173.104599 220.0
173.122925 152.0
173.142761 80.0
173.198883 148.0
173.24025 76.0
173.259964 88.0
173.285812 44.0
173.345596 96.0
173.37619 136.0
173.413208 100.0
173.449936 64.0
173.484512 140.0
173.520538 108.0
173.549179 72.0
173.639206 44.0
173.704788 44.0
173.731018 120.0
173.867462 112.0
173.982956 152.0
174.050201 456.0
174.114243 76.0
174.200912 112.0
174.266586 44.0
174.340164 56.0
174.361191 48.0
174.387466 68.0
174.42952 152.0
174.487366 72.0
174.55835 104.0
174.637253 44.0
174.697754 92.0
174.779312 140.0
174.813522 56.0
174.887207 168.0
174.917603 152.0
175.005676 52.0
175.039902 164.0
175.150513 64.0
175.234818 100.0
175.303314 216.0
175.366577 152.0
175.580124 44.0
175.746307 84.0
175.801727 140.0
175.841309 128.0
176.036667 152.0
176.06308 148.0
176.094772 92.0
176.385406 168.0
176.470016 172.0
176.784775 148.0
176.840363 140.0
176.861526 100.0
177.007141 100.0
177.057449 120.0
177.309143 148.0
177.537125 60.0
177.592819 96.0
177.685669 140.0
177.730774 140.0
177.754654 52.0
177.773224 128.0
177.791809 64.0
177.844879 240.0
177.929825 48.0
177.97496 252.0
178.033386 60.0
178.073227 124.0
178.131653 124.0
178.174164 128.0
178.245895 116.0
178.285767 168.0
178.328278 124.0
178.586182 176.0
178.604813 148.0
178.634064 68.0
178.708557 80.0
178.782791 196.0
178.900177 180.0
179.017334 108.0
179.065262 176.0
179.083908 240.0
179.119156 220.0
179.182465 84.0
179.381012 96.0
179.414322 136.0
179.464981 112.0
179.600998 148.0
179.665009 152.0
179.710373 140.0
179.81662 108.0
179.899857 100.0
179.995972 56.0
180.080353 356.0
180.137512 48.0
180.236374 72.0
180.28714 44.0
180.394058 100.0
180.463562 196.0
180.511688 48.0
180.530411 52.0
180.961212 112.0
181.054932 160.0
181.089401 460.0
181.164749 52.0
181.246353 192.0
181.29068 160.0
181.381805 108.0
181.768005 72.0
181.810944 72.0
181.829727 160.0
181.887894 160.0
181.96907 180.0
182.017639 176.0
182.061035 244.0
182.096375 20108.0
182.159546 172.0
182.191055 200.0
182.235626 128.0
182.313126 104.0
182.337311 96.0
182.38031 40.0
182.42778 188.0
182.482529 164.0
182.526871 132.0
182.571198 76.0
182.602844 184.0
182.681488 76.0
182.756805 60.0
182.77565 68.0
182.79718 72.0
182.827957 100.0
182.856384 48.0
182.875214 28.0
182.907516 52.0
182.955978 136.0
182.980209 164.0
183.009811 80.0
183.101395 4488.0
183.1371 112.0
183.160629 60.0
183.235535 188.0
183.27916 72.0
183.30072 176.0
183.327667 96.0
183.411835 136.0
183.432785 88.0
183.502869 164.0
183.561691 128.0
183.613434 64.0
183.659286 84.0
183.678162 204.0
183.706741 128.0
183.740204 100.0
183.769882 168.0
183.810364 104.0
183.833221 160.0
183.869736 64.0
183.913239 100.0
183.941193 212.0
183.970566 100.0
184.007278 400.0
184.03566 452.0
184.079544 440.0
184.112732 112444.0
184.188553 96.0
184.210114 64.0
184.220184 144.0
184.267899 204.0
184.301941 76.0
184.341263 104.0
184.392044 176.0
184.436401 140.0
184.459137 108.0
184.483551 128.0
184.517746 80.0
184.556274 352.0
184.585617 108.0
184.63855 204.0
184.686401 60.0
184.700104 72.0
184.730759 60.0
184.774948 68.0
184.80423 224.0
184.841888 108.0
184.870163 84.0
184.914627 136.0
184.941406 124.0
185.069336 140.0
185.114746 13788.0
185.151627 272.0
185.189102 88.0
185.227036 112.0
185.271255 116.0
185.304047 100.0
185.342026 108.0
185.408554 56.0
185.471146 44.0
185.522888 88.0
185.571198 44.0
185.614578 44.0
185.643051 60.0
185.691467 60.0
185.8414 72.0
185.892624 56.0
185.923279 164.0
185.95369 60.0
185.99733 52.0
186.027298 68.0
186.11821 1116.0
186.206177 72.0
186.239349 112.0
186.271362 44.0
186.294556 112.0
186.336411 68.0
186.366974 104.0
186.410339 152.0
186.434021 160.0
186.461533 156.0
186.48909 124.0
186.500412 96.0
186.574463 112.0
186.627899 128.0
186.667206 112.0
186.725281 44.0
186.752472 104.0
186.790558 48.0
186.872375 52.0
186.907547 92.0
187.049057 40.0
187.076279 76.0
187.122559 324.0
187.194992 60.0
187.33226 48.0
187.381302 88.0
187.465775 68.0
187.561157 56.0
187.631546 112.0
187.806564 96.0
188.174957 56.0
188.363388 68.0
188.450806 172.0
188.480865 92.0
188.53006 112.0
188.571045 40.0
188.639374 52.0
189.608307 88.0
189.693283 180.0
189.778275 144.0
190.294083 112.0
190.829849 164.0
190.884842 212.0
191.446213 124.0
191.663818 68.0
191.818161 64.0
192.360657 72.0
192.640488 44.0
193.021881 92.0
193.091019 220.0
193.807999 84.0
194.049133 112.0
194.093399 628.0
194.35144 96.0
194.762314 28.0
195.040176 44.0
195.105423 176.0
195.226456 76.0
195.290421 48.0
195.412811 68.0
195.816452 64.0
195.936234 88.0
195.995667 48.0
196.077271 456.0
196.114563 144.0
196.390594 36.0
196.708694 84.0
196.856674 236.0
196.948837 148.0
197.083359 636.0
197.270172 64.0
197.628159 52.0
197.666306 132.0
197.807266 120.0
197.916443 164.0
198.094681 652.0
198.440399 140.0
198.636703 52.0
198.84433 64.0
199.054886 56.0
199.08577 152.0
199.206543 52.0
199.740631 56.0
199.884109 76.0
199.993881 176.0
200.092392 116.0
200.165604 68.0
200.309235 64.0
200.856079 68.0
200.997147 72.0
201.107208 112.0
201.553406 148.0
201.912415 116.0
202.648407 80.0
202.775925 140.0
202.822693 40.0
203.053757 108.0
203.528107 104.0
203.786133 68.0
205.092346 236.0
205.891205 116.0
205.988312 208.0
206.468491 104.0
207.972656 96.0
207.992737 152.0
208.11911 236.0
208.213821 104.0
208.814484 244.0
209.652252 112.0
209.715668 212.0
210.096298 140.0
210.131409 116.0
210.899048 144.0
211.127457 188.0
211.839462 112.0
211.86264 76.0
211.993027 144.0
212.019104 40.0
212.107239 14900.0
212.190125 76.0
212.219116 48.0
212.378616 60.0
212.718109 216.0
212.752945 104.0
212.941696 68.0
213.057877 152.0
213.108932 1084.0
213.211884 64.0
213.409546 76.0
213.473511 96.0
213.767319 80.0
214.115219 224.0
214.340973 48.0
214.373016 132.0
214.416733 56.0
214.442963 76.0
214.606216 104.0
214.676514 108.0
214.711197 136.0
214.962067 48.0
215.122589 56.0
215.613297 72.0
215.914413 168.0
216.400162 68.0
217.59343 60.0
217.954697 200.0
218.075195 152.0
219.358536 52.0
220.361923 68.0
220.901398 240.0
222.144135 92.0
224.14801 176.0
225.347473 40.0
225.783905 204.0
226.080078 72.0
227.359711 112.0
227.741013 88.0
227.810104 104.0
229.338699 40.0
233.939941 32.0
234.5065 28.0
234.838837 88.0
234.991364 108.0
235.110367 48.0
237.12886 140.0
237.410904 84.0
237.49678 76.0
237.668579 128.0
237.868057 136.0
239.34993 60.0
243.382004 224.0
244.815506 52.0
248.115082 152.0
248.761322 88.0
249.160141 292.0
251.521942 72.0
253.821945 108.0
254.977463 176.0
256.492493 44.0
256.967651 72.0
257.909698 108.0
260.723724 56.0
260.826569 32.0
260.868347 60.0
261.920593 68.0
262.781311 108.0
263.37854 124.0
264.358154 96.0
264.996033 100.0
265.206665 20.0
266.456024 100.0
266.712738 36.0
269.760529 68.0
269.973053 52.0
270.483459 80.0
270.529266 76.0
270.971405 108.0
274.57077 96.0
275.445435 80.0
276.013885 64.0
276.1521 200.0
276.75174 76.0
276.847778 108.0
277.155823 280.0
278.549225 84.0
280.029358 136.0
280.212585 76.0
280.785919 124.0
281.119537 240.0
282.462616 52.0
282.835236 56.0
284.181213 244.0
288.09668 60.0
288.508972 84.0
289.53421 172.0
289.568054 44.0
293.789764 100.0
294.014984 128.0
294.15979 6620.0
294.226593 124.0
294.537354 76.0
295.036255 72.0
295.160553 2244.0
295.234589 112.0
295.270294 72.0
295.409027 56.0
295.463745 68.0
295.723816 96.0
295.771729 44.0
295.915527 108.0
296.154785 160.0
296.189484 220.0
296.377899 68.0
296.477264 92.0
296.652069 72.0
296.981262 112.0
297.176788 108.0
297.200806 40.0
297.331207 64.0
308.603546 48.0
309.121216 104.0
310.085815 128.0
310.133362 88.0
311.42453 56.0
313.799866 92.0
317.385101 84.0
317.519836 120.0
317.761047 76.0
318.325409 76.0
321.218933 68.0
321.729248 36.0
322.289978 108.0
324.369263 28.0
326.027435 88.0
327.45932 68.0
327.942108 60.0
328.241333 52.0
328.648926 80.0
328.952057 44.0
329.320374 104.0
331.030975 80.0
331.683105 48.0
333.043793 48.0
333.556122 68.0
334.869629 44.0
335.478149 56.0
337.413025 112.0
339.027191 76.0
341.229584 84.0
342.28186 116.0
342.510193 236.0
345.282043 128.0
346.236877 64.0
347.630768 148.0
348.024231 128.0
351.735901 64.0
352.636078 84.0
354.185089 80.0
354.3237 52.0
354.758423 60.0
356.195618 108.0
357.172943 56.0
357.846558 40.0
360.725006 76.0
363.694702 36.0
364.765869 44.0
368.821594 144.0
369.869659 104.0
369.992157 56.0
374.338531 116.0
376.212372 144.0
376.386108 148.0
376.598511 168.0
376.768463 32.0
377.151031 60.0
377.754242 64.0
386.793762 72.0
391.249298 104.0
392.194702 68.0
393.275421 72.0
401.539948 80.0
402.717346 84.0
404.877045 44.0
405.349731 116.0
411.104218 104.0
411.988434 100.0
415.392914 64.0
415.437531 76.0
419.64679 44.0
422.976288 32.0
424.976166 44.0
427.873688 52.0
428.9216 84.0
429.711823 148.0
432.27359 52.0
434.54422 28.0
434.776611 92.0
437.18277 80.0
441.086609 64.0
441.513062 100.0
443.723969 40.0
444.332062 32.0
450.267242 56.0
454.008362 92.0
455.948486 92.0
458.958099 36.0
461.011292 40.0
462.264252 140.0
464.037537 64.0
470.391632 104.0
472.362091 76.0
472.768768 88.0
477.271423 64.0
479.652802 32.0
479.796661 124.0
484.661163 52.0
484.902161 40.0
485.283539 40.0
485.480865 112.0
501.766388 60.0
504.091827 56.0
510.407745 160.0
513.303101 64.0
514.507751 64.0
523.744995 88.0
528.149658 76.0
533.546936 68.0
550.440369 108.0
559.729553 60.0
559.917908 56.0
559.993225 56.0
560.176941 64.0
562.468628 48.0
570.098694 88.0
571.634705 48.0
581.858582 72.0
584.920776 84.0
585.219238 36.0
586.028381 80.0
592.173035 100.0
595.048584 88.0
595.208862 56.0
597.006775 132.0
597.931152 40.0
599.075378 84.0
603.971375 96.0
605.214417 40.0
633.244934 52.0
635.480652 40.0
637.257996 48.0
640.472595 48.0
646.237671 48.0
655.575684 108.0
662.780701 100.0
666.721741 52.0
668.279785 116.0
672.649963 64.0
678.148254 108.0
686.648926 76.0
702.610901 68.0
704.474487 64.0
725.425598 96.0
735.004211 56.0
754.475708 224.0
764.408691 132.0
770.479187 200.0
773.670166 196.0
776.152283 72.0
782.068787 152.0
786.706482 192.0
791.929138 48.0
807.46875 144.0
810.769348 96.0
815.855042 100.0
818.961975 116.0
825.176331 96.0
838.464905 176.0
848.059021 168.0
848.81842 60.0
858.418945 44.0
867.059265 68.0
873.206116 56.0
876.903503 200.0
878.418823 184.0
884.889954 212.0
886.015198 44.0
886.264038 172.0
887.390198 44.0
888.967957 76.0
899.6875 156.0
900.732544 80.0
904.194397 132.0
907.728821 172.0
909.588684 60.0
911.228149 52.0
912.640564 256.0
912.857056 36.0
917.378662 160.0
926.631104 180.0
933.16156 68.0
935.187256 140.0
937.903809 128.0
941.460754 220.0
942.664185 68.0
946.193359 120.0
951.474854 184.0
951.791199 292.0
956.125 152.0
958.988831 168.0
960.468628 172.0
960.783264 88.0
961.128723 168.0
965.40332 152.0
978.147095 120.0
979.934387 164.0
982.640259 80.0
991.124756 208.0
998.821594 96.0
1001.868347 156.0
1004.944946 124.0
1006.118835 100.0
1007.729309 164.0
1012.384827 136.0
1015.528259 220.0
1016.572876 196.0
1019.852112 92.0
1020.068237 164.0
1024.28064 172.0
1027.787109 172.0
1027.946655 108.0
1028.776367 112.0
1030.903198 224.0
1031.561523 32.0
1031.638184 84.0
1031.849243 176.0
1032.418335 176.0
1034.779419 196.0
1038.220337 168.0
1040.376221 236.0
1041.056763 224.0
1044.984131 140.0
1049.466919 128.0
1049.737793 280.0
1050.240845 144.0
1051.415039 188.0
1051.834595 180.0
1053.3479 180.0
1059.659546 176.0
1060.72229 184.0
1061.202026 56.0
1061.396484 148.0
1062.998779 196.0
1063.368652 132.0
1064.141113 180.0
1064.615112 124.0
1065.193115 88.0
1067.702026 156.0
1069.133179 124.0
1069.328491 148.0
1071.953003 204.0
1073.595703 104.0
1074.789429 152.0
1075.66394 184.0
1075.84021 168.0
1080.166138 80.0
1086.697632 184.0
1089.047729 172.0
1089.441895 172.0
1091.35437 80.0
1094.144043 108.0
1095.744385 164.0
1096.66687 192.0
1097.530518 168.0
1098.605469 144.0
1099.879028 212.0
1100.611938 144.0
1101.549683 200.0
1104.914551 136.0
1105.318115 172.0
1105.807861 240.0
1106.350586 172.0
1107.449829 180.0
1108.019531 60.0
1108.721924 192.0
1109.895142 148.0
1110.82373 240.0
1113.146606 252.0
1114.182739 132.0
1115.910767 76.0
1118.518433 132.0
1120.149902 180.0
1121.422485 156.0
1121.522461 148.0
1122.629272 188.0
1123.256226 116.0
1123.456299 228.0
1125.084595 164.0
1125.779053 180.0
1130.585571 188.0
1132.419922 152.0
1133.511963 244.0
1134.282715 48.0
1135.046997 176.0
1135.308472 176.0
1135.757812 180.0
1136.193848 136.0
1136.328003 140.0
1137.321167 124.0
1139.026733 152.0
1139.194702 160.0
1139.382812 172.0
1139.947144 156.0
1140.578857 200.0
1143.982666 140.0
1145.228271 68.0
1146.363159 136.0
1146.791504 92.0
1147.108276 116.0
1147.593628 84.0
1147.978027 128.0
1148.456787 52.0
1148.53772 92.0
1149.023438 84.0
1149.428345 96.0
1152.966797 224.0
1153.26416 48.0
1155.076294 112.0
1155.72583 156.0
1157.478882 184.0
1158.210327 180.0
1159.843262 120.0
1161.84375 112.0
1163.839111 160.0
1163.893433 220.0
1166.305054 168.0
1166.77417 116.0
1168.576416 264.0
1171.544678 136.0
1171.716431 180.0
1173.568848 184.0
1176.058838 128.0
1177.635986 168.0
1177.711182 116.0
1178.066406 188.0
1178.394287 132.0
1179.268921 128.0
1180.122681 180.0
1182.113892 120.0
1183.058472 152.0
1184.743042 124.0
1184.797852 156.0
1186.950073 152.0
1188.239502 172.0
1189.234497 172.0
1190.683105 124.0
1191.404297 48.0
1194.511597 136.0
1196.328247 136.0
1196.500366 168.0
1198.497681 60.0
1198.904175 144.0
1199.910522 120.0
1200.903564 104.0
1203.291138 132.0
1208.281006 28.0
1209.547363 156.0
1209.637329 148.0
1210.620483 112.0
1211.45166 76.0
1211.610962 124.0
1212.026733 136.0
1213.516968 220.0
1214.598755 188.0
1215.38269 140.0
1217.819336 168.0
1218.068604 164.0
1218.805786 40.0
1220.432251 204.0
1220.926025 180.0
1221.245972 148.0
1223.382202 92.0
1224.259399 180.0
1225.485352 144.0
1225.868652 128.0
1226.914062 44.0
1227.834473 72.0
1228.587891 132.0
1229.180908 176.0
1229.432129 188.0
1229.94165 36.0
1232.385864 208.0
1233.371216 132.0
1234.594727 184.0
1235.475952 132.0
1237.162598 128.0
1238.107788 192.0
1238.675171 168.0
1238.878296 160.0
1239.494751 112.0
1240.307739 92.0
1240.74939 160.0
1242.334351 264.0
1242.600952 96.0
1244.839966 164.0
1246.230713 192.0
1246.722656 52.0
1247.875366 192.0
1249.661865 168.0
1250.393677 184.0
1250.625977 140.0
1252.196045 96.0
1253.901001 44.0
1254.76001 140.0
1256.785156 188.0
1258.514404 208.0
1258.599121 92.0
1259.997559 60.0
1262.952393 148.0
1264.494751 204.0
1264.763794 72.0
1265.171509 216.0
1266.21521 200.0
1266.498535 156.0
1266.944824 152.0
1267.029785 160.0
1268.043091 92.0
1268.404541 144.0
1271.163452 88.0
1271.475708 136.0
1272.746338 112.0
1273.641113 144.0
1274.436768 248.0
1274.664185 248.0
1275.104736 116.0
1275.325073 140.0
1275.41748 92.0
1275.716064 184.0
1276.441284 128.0
1277.038574 192.0
1277.32312 180.0
1277.86377 232.0
1278.753296 168.0
1279.77124 48.0
1280.298218 184.0
1280.504761 168.0
1281.672974 144.0
1283.633179 260.0
1283.904175 184.0
1284.838623 172.0
1286.429932 176.0
1286.572754 192.0
1286.779785 144.0
1286.922607 160.0
1287.822388 132.0
1288.401001 140.0
1288.622437 112.0
1289.108276 176.0
1290.380615 100.0
1290.588013 160.0
1290.730957 216.0
1291.331665 100.0
1291.388916 144.0
1291.583008 180.0
1291.882446 52.0
1292.089966 96.0
1292.361816 156.0
1293.685791 256.0
1294.87439 160.0
1295.354248 172.0
1295.404419 200.0
1297.002319 204.0
1297.231689 108.0
1297.353638 140.0
1298.006104 76.0
1298.880981 40.0
1298.988647 156.0
1299.419067 144.0
1299.69165 144.0
1300.574341 200.0
1300.890259 148.0
1301.306641 212.0
1302.577759 168.0
1303.511719 204.0
1305.373535 148.0
1305.862549 160.0
1305.970459 152.0
1307.042358 184.0
1307.675537 100.0
1307.913086 184.0
1308.251465 64.0
1308.553833 120.0
1308.877808 152.0
1309.072266 160.0
1309.658325 268.0
1309.723389 180.0
1309.979736 164.0
1310.736206 72.0
1310.793823 72.0
1311.406372 180.0
1311.759644 196.0
1312.091187 96.0
1312.516602 64.0
1313.396484 180.0
1315.3302 160.0
1316.081055 248.0
1316.535889 168.0
1317.164307 112.0
1318.03125 244.0
1318.551514 212.0
1318.768311 60.0
1319.54187 160.0
1320.69165 140.0
1321.039307 124.0
1322.740723 212.0
1324.151245 200.0
1324.578613 172.0
1324.687256 144.0
1324.911865 236.0
1326.398071 212.0
1326.593018 164.0
1327.035278 52.0
1327.115112 84.0
1327.927246 104.0
1328.115845 140.0
1328.572876 48.0
1328.993652 144.0
1329.399902 40.0
1330.307251 168.0
1330.488647 208.0
1330.81543 196.0
1330.996948 140.0
1331.5271 168.0
1332.253418 160.0
1334.07019 152.0
1335.051758 212.0
1338.144165 36.0
1339.505981 204.0
1339.600708 208.0
1339.731812 216.0
1339.884766 268.0
1340.139771 196.0
1340.438599 156.0
1341.34436 228.0
1341.582886 196.0
1343.055786 124.0
1344.463867 176.0
1344.894531 132.0
1345.71936 164.0
1346.581055 152.0
1348.80957 148.0
1348.999634 108.0
1349.262817 80.0
1349.928223 132.0
1350.308472 172.0
1351.383789 152.0
1353.660156 212.0
1354.004395 36.0
1354.348633 228.0
1354.436523 228.0
1355.330322 116.0
1357.844604 204.0
1359.025635 132.0
1359.407227 136.0
1359.803589 144.0
1360.684448 160.0
1362.020874 140.0
1362.522461 160.0
1362.71875 156.0
1362.998047 180.0
1363.406128 104.0
1363.975464 172.0
1364.504761 248.0
1364.791504 92.0
1365.078247 156.0
1365.84314 160.0
1366.586182 128.0
1366.652344 112.0
1367.179077 152.0
1367.299927 212.0
1369.088867 60.0
1369.60437 172.0
1369.759033 68.0
1370.009521 168.0
1370.119995 40.0
1370.26001 224.0
1370.422119 148.0
1370.554688 176.0
1370.783203 196.0
1372.692383 72.0
1372.780884 136.0
1373.193848 156.0
1373.717529 220.0
1373.953613 224.0
1374.39624 288.0
1375.983154 176.0
1376.248901 136.0
1376.751099 164.0
1377.799927 152.0
1377.969849 176.0
1378.30835 200.0
1378.464844 84.0
1378.730957 156.0
1380.024536 128.0
1380.180664 164.0
1380.608643 204.0
1380.741821 204.0
1380.956299 116.0
1381.119019 100.0
1381.496216 112.0
1381.762329 176.0
1382.347046 136.0
1383.079712 168.0
1383.783081 124.0
1384.049561 112.0
1384.256958 216.0
1384.441162 164.0
1384.819702 96.0
1385.0271 88.0
1385.767944 92.0
1386.461426 212.0
1386.605225 168.0
1386.849854 72.0
1387.302002 48.0
1388.199097 148.0
1389.126221 184.0
1389.230103 132.0
1389.652954 160.0
1389.808838 200.0
1390.343018 172.0
1390.831909 176.0
1391.204102 56.0
1392.057861 148.0
1392.406982 200.0
1392.577759 216.0
1393.342896 136.0
1393.521118 164.0
1393.914917 200.0
1394.293945 116.0
1394.606079 164.0
1394.732422 156.0
1395.119019 196.0
1395.334595 180.0
1398.481201 200.0
1398.905518 72.0
1399.404297 164.0
1400.133301 176.0
1401.638794 116.0
1402.82373 168.0
1403.41272 168.0
1404.98645 160.0
1405.292358 144.0
1405.404175 156.0
1405.751587 152.0
1406.508667 196.0
1406.784424 116.0
1406.993896 128.0
1407.382202 36.0
1407.621094 192.0
1407.688354 124.0
1407.991089 184.0
1408.666748 120.0
1408.818115 176.0
1408.883301 184.0
1409.495972 164.0
1409.645508 152.0
1409.974243 136.0
1410.407715 148.0
1411.020752 168.0
1411.506714 100.0
1411.805908 168.0
1411.880615 176.0
1412.157349 160.0
1412.209717 236.0
1412.935303 336.0
1413.137329 100.0
1413.631104 184.0
1413.758423 220.0
1414.192383 224.0
1414.716431 136.0
1414.813721 144.0
1415.592407 148.0
1415.839478 160.0
1417.599976 84.0
1417.764893 192.0
1418.011719 208.0
1418.154541 124.0
1418.574341 200.0
1418.874146 112.0
1419.126343 224.0
1419.181641 160.0
1419.429077 136.0
1419.504028 184.0
1419.593994 108.0
1419.826416 132.0
1419.956177 236.0
1420.516479 140.0
1420.598999 52.0
1421.071655 204.0
1421.476807 172.0
1421.60437 148.0
1421.807007 248.0
1422.835327 128.0
1423.425049 204.0
1423.871582 220.0
1424.464966 232.0
1424.833008 172.0
1425.096069 144.0
1425.201172 116.0
1425.907593 104.0
1426.133057 196.0
1426.262329 184.0
1426.786987 212.0
1427.44873 116.0
1427.576538 168.0
1429.299072 180.0
1430.111816 144.0
1430.315063 208.0
1431.105591 100.0
1431.256104 164.0
1431.557373 136.0
1431.640137 160.0
1432.462036 164.0
1432.649414 196.0
1432.739868 132.0
1433.259766 124.0
1433.561157 176.0
1433.674194 200.0
1433.877686 172.0
1434.2771 128.0
1435.51355 152.0
1436.04895 44.0
1437.233398 188.0
1437.754028 236.0
1439.142944 156.0
1439.241089 56.0
1439.452515 128.0
1439.898071 192.0
1440.149658 160.0
1441.038696 76.0
1441.832153 200.0
1442.217651 96.0
1443.552368 184.0
1443.638916 152.0
1444.811279 200.0
1445.023193 204.0
1445.12146 136.0
1445.825195 148.0
1446.196045 172.0
1446.854614 176.0
1447.793579 140.0
1448.005615 212.0
1448.899414 132.0
1449.634399 132.0
1450.763672 232.0
1451.658325 180.0
1452.697388 252.0
1455.292969 136.0
1455.804688 252.0
1456.059937 68.0
1457.571655 132.0
1459.000488 152.0
1459.692383 140.0
1460.46814 120.0
1460.551758 220.0
1460.673462 184.0
1460.84082 164.0
1461.335327 132.0
1461.510376 120.0
1461.639648 176.0
1461.860352 104.0
1462.583374 180.0
1462.644287 192.0
1462.735596 104.0
1463.778687 128.0
1463.854736 84.0
1463.946167 100.0
1464.570679 80.0
1465.020142 140.0
1465.096313 48.0
1465.157227 44.0
1465.5 136.0
1465.835327 180.0
1466.681274 196.0
1467.184326 164.0
1467.496948 68.0
1467.634155 148.0
1468.084106 104.0
1468.900146 136.0
1470.059814 160.0
1470.113281 268.0
1470.723877 160.0
1471.869019 168.0
1472.128662 36.0
1472.530884 200.0
1472.625 116.0
1472.716675 112.0
1473.297241 56.0
1473.557007 160.0
1474.955444 56.0
1475.085327 184.0
1475.184692 168.0
1475.536377 152.0
1475.94165 208.0
1476.897583 156.0
1476.98938 140.0
1477.241821 52.0
1478.851318 108.0
1479.744263 184.0
1480.188354 188.0
1481.161011 144.0
1481.735596 112.0
1481.835083 108.0
1482.256592 140.0
1482.900269 44.0
1483.122559 160.0
1483.643799 160.0
1483.78186 172.0
1484.165161 256.0
1484.303223 76.0
1484.364502 136.0
1484.709595 132.0
1485.223511 140.0
1485.323242 148.0
1485.458862 208.0
1486.236084 128.0
1486.381958 132.0
1487.318237 140.0
1487.963013 132.0
1488.016724 136.0
1488.108887 272.0
1488.270142 172.0
1488.707764 156.0
1489.030396 120.0
1489.491211 184.0
1490.052002 132.0
1490.282471 132.0
1490.897217 144.0
1491.16626 180.0
1491.269287 160.0
1491.504395 32.0
1492.903687 76.0
1493.565063 124.0
1494.026611 144.0
1494.349731 232.0
1494.557495 136.0
1495.011475 120.0
1495.111572 180.0
1496.166016 148.0
1496.301758 336.0
1496.674194 128.0
1496.87439 164.0
1496.959106 192.0
1497.213257 60.0
1497.582886 148.0
1497.752319 124.0
1497.983398 180.0
1499.709473 60.0
1499.786499 88.0
1501.282227 104.0
1501.351562 132.0
1501.444092 40.0
1502.539429 136.0
1502.824951 172.0
1503.218384 200.0
1503.280151 200.0
1503.943848 344.0
1504.02832 180.0
1504.190918 120.0
1504.275757 176.0
1504.499634 116.0
1504.854858 172.0
