>compound PEROSPIRONE HCl
>formula C23H30N4O2S
>ionization [M+H]+
>parentmass 427.21622365209055
#inchi InChI=1S/C23H30N4O2S/c28-22-17-7-1-2-8-18(17)23(29)27(22)12-6-5-11-25-13-15-26(16-14-25)21-19-9-3-4-10-20(19)30-24-21/h3-4,9-10,17-18H,1-2,5-8,11-16H2/t17-,18+
#inchikey FBVFZWUMDDXLLG
#Ion_Source LC-ESI
#Instrument qTof
#Compound_Source Commercial
#PI Dorrestein
#Data_Collector Garg_Neha
#Scan -1
#Precursor_MZ 427.216
#ExactMass 426.209
#Charge 1
#CAS_Number N/A
#Pubmed_ID N/A
#Smiles O=C1[C@H]2CCCC[C@H]2C(=O)N1CCCCN3CCN(CC3)c4nsc5ccccc45
#INCHI_AUX N/A
#Library_Class 1
#SpectrumID CCMSLIB00000079033
#IonMode Positive
#UpdateWorkflowName UPDATE-SINGLE-ANNOTATED-GOLD
#LibraryQualityString Gold
#TaskID 278b19f5865741e282cec7349aa7e7a1
##Scan# 1165
#SpectrumFile NCP003352_G2_H11_BC7_01_15721.mzXML
#LibraryName NIHcollectionI_05062014.mgf
#MQScore -1
#Organism NIHcollectionI_05062014
#TIC_Query 0
#RT_Query -1
#MZErrorPPM -1
#SharedPeaks 0
#MassDiff 0
#LibMZ -1
#SpecMZ 427.216
#SpecCharge 0
#internalFilename spec-00000.mgf

>collision 10
45.937538 212.0
47.519432 136.0
47.566456 168.0
47.768456 160.0
48.39225 164.0
48.879444 144.0
48.946262 144.0
49.004143 144.0
49.186054 204.0
49.44603 152.0
49.587482 160.0
49.674416 176.0
49.744579 252.0
49.789509 212.0
49.913174 192.0
50.029953 184.0
50.318962 148.0
50.751915 160.0
51.429081 140.0
51.466198 144.0
52.433067 196.0
53.238884 152.0
53.458397 172.0
53.66378 156.0
53.833042 176.0
53.885624 164.0
54.128426 156.0
54.157719 148.0
54.187016 200.0
54.858635 144.0
55.039433 152.0
55.13908 140.0
55.321014 184.0
55.639748 216.0
56.033867 176.0
56.059196 148.0
56.424889 164.0
57.001358 132.0
57.848064 172.0
58.08749 152.0
58.573917 200.0
58.87133 160.0
59.135815 180.0
61.034916 144.0
61.839893 156.0
61.869633 160.0
62.056072 156.0
62.629665 140.0
62.689533 140.0
63.020901 160.0
63.261292 168.0
63.590988 180.0
63.730736 144.0
63.901756 220.0
63.940639 192.0
64.540215 120.0
64.8414 144.0
66.569221 176.0
66.595207 204.0
66.827667 184.0
67.001877 172.0
67.107811 176.0
67.316673 152.0
67.357498 224.0
67.373833 176.0
68.025604 196.0
68.117561 160.0
68.186569 212.0
68.85051 176.0
68.962852 180.0
69.015755 180.0
69.348503 176.0
69.854279 212.0
70.488495 148.0
70.806343 220.0
71.737198 172.0
72.323341 140.0
72.363976 172.0
72.475761 144.0
72.499481 404.0
72.689407 152.0
72.702988 160.0
72.857498 160.0
73.081642 124.0
73.115952 180.0
73.345886 188.0
75.68676 124.0
76.07766 184.0
76.671288 180.0
78.307144 244.0
78.953079 180.0
78.979614 204.0
79.433067 184.0
79.495171 184.0
79.662064 152.0
79.786461 148.0
80.365288 232.0
80.590813 260.0
80.622429 156.0
81.486099 160.0
81.808136 176.0
82.799301 188.0
83.016769 144.0
83.973373 180.0
84.137596 168.0
84.843765 164.0
85.749977 168.0
86.562828 180.0
87.526558 184.0
87.776253 156.0
87.862045 156.0
88.241173 168.0
88.615486 196.0
88.859222 164.0
89.315712 168.0
89.586777 256.0
89.72435 204.0
90.056465 152.0
90.273796 160.0
90.417572 144.0
90.61261 160.0
91.079277 156.0
91.30735 152.0
91.643471 128.0
92.255005 144.0
93.072739 324.0
93.103813 168.0
93.26712 148.0
94.216446 228.0
94.514885 148.0
95.04882 1208.0
95.086029 464.0
95.368172 216.0
95.447876 168.0
95.659943 168.0
95.987259 148.0
96.004807 168.0
96.055519 152.0
96.078369 136.0
96.162834 172.0
96.356148 152.0
96.389366 156.0
97.34333 184.0
97.388496 176.0
97.769913 236.0
97.863083 144.0
98.05764 148.0
98.097549 992.0
98.625877 152.0
98.817696 140.0
98.90873 160.0
98.985939 180.0
99.034088 248.0
99.09951 276.0
99.408165 160.0
99.837257 152.0
100.746155 172.0
100.998024 140.0
101.289986 144.0
101.52877 156.0
101.6661 120.0
101.743469 160.0
101.904137 140.0
102.290253 160.0
102.475533 156.0
102.679123 192.0
102.989944 140.0
103.103088 160.0
104.192604 172.0
105.05027 240.0
105.707932 148.0
106.066559 180.0
106.534424 180.0
106.993027 144.0
107.073326 176.0
107.126884 140.0
107.401344 132.0
107.81189 152.0
107.952461 188.0
108.080048 1116.0
108.6567 152.0
108.9058 176.0
109.011604 168.0
109.064583 900.0
109.085815 132.0
109.128151 184.0
109.334084 140.0
109.611847 156.0
109.834122 188.0
109.857071 248.0
110.057426 160.0
110.095894 620.0
110.119499 204.0
110.586319 148.0
110.663773 160.0
110.776863 156.0
111.082909 184.0
111.102783 192.0
112.007805 212.0
112.167953 204.0
112.233025 296.0
112.372513 212.0
113.188377 148.0
113.448975 148.0
113.998695 156.0
114.022072 152.0
114.268738 180.0
114.349602 144.0
114.390038 176.0
114.553154 160.0
114.803604 148.0
115.670815 140.0
116.050179 144.0
116.107971 116.0
116.251633 148.0
116.449142 156.0
116.61673 240.0
117.243011 188.0
118.297043 156.0
118.376335 224.0
118.860542 152.0
119.386116 156.0
119.573326 140.0
120.043594 152.0
122.067261 192.0
122.120949 164.0
122.326447 144.0
122.747681 168.0
122.820457 180.0
123.102951 160.0
123.13829 152.0
123.51403 144.0
123.662277 144.0
124.120773 228.0
124.210365 188.0
124.324593 132.0
124.429253 248.0
124.929283 148.0
125.178558 160.0
125.55294 184.0
125.793915 140.0
126.012772 148.0
126.098183 196.0
126.254181 192.0
126.589851 188.0
126.98204 276.0
127.091957 140.0
127.359108 156.0
127.790726 204.0
128.268143 180.0
128.522995 184.0
128.552322 140.0
128.86618 148.0
128.92926 136.0
129.287354 148.0
129.739777 160.0
129.869308 156.0
130.06189 168.0
130.077774 156.0
130.238998 160.0
130.948624 184.0
131.220917 156.0
131.258545 168.0
132.224869 168.0
132.47673 204.0
132.559204 164.0
132.646301 176.0
132.728836 140.0
132.939743 136.0
133.045456 168.0
133.436005 140.0
134.00679 860.0
134.251129 152.0
134.932281 164.0
134.978516 216.0
135.014175 320.0
135.032974 132.0
135.72876 148.0
135.929489 184.0
136.02037 2408.0
136.073761 852.0
136.484222 144.0
136.602005 188.0
136.913879 208.0
137.021027 140.0
137.081619 216.0
137.125885 200.0
137.307739 196.0
137.928802 204.0
138.001663 144.0
138.091919 1064.0
138.150955 196.0
138.253906 180.0
138.703583 188.0
138.736404 184.0
138.860687 140.0
138.940811 176.0
139.088165 140.0
139.11554 204.0
139.511093 144.0
139.541656 192.0
139.60141 176.0
139.993439 212.0
140.19838 180.0
141.641968 188.0
142.080521 220.0
142.721786 144.0
143.424545 160.0
144.069107 276.0
144.168701 148.0
144.199768 160.0
144.90329 224.0
145.079132 232.0
145.30127 148.0
145.702194 144.0
146.067596 156.0
147.04364 220.0
147.299347 152.0
147.437073 192.0
147.816742 180.0
148.016968 172.0
148.347137 144.0
148.560547 160.0
148.737686 156.0
149.017609 240.0
149.047119 160.0
149.452179 160.0
150.033432 620.0
150.135132 192.0
150.748154 188.0
150.900955 144.0
150.981644 184.0
151.033875 992.0
151.133301 140.0
151.263016 140.0
151.456451 152.0
151.5569 216.0
151.959 160.0
152.03476 132.0
152.143555 216.0
153.028122 160.0
153.045364 204.0
153.222687 188.0
153.383255 168.0
153.449753 152.0
153.883652 164.0
153.952911 160.0
154.04541 216.0
154.087402 34572.0
154.208878 104.0
154.409988 160.0
155.090561 2812.0
155.128036 172.0
155.352798 224.0
155.552231 164.0
155.808014 140.0
156.089615 172.0
156.294006 160.0
156.49942 188.0
156.564163 160.0
156.823257 224.0
156.918625 140.0
157.01651 136.0
157.105026 248.0
157.154938 156.0
157.419525 180.0
157.976868 176.0
158.172058 144.0
158.297241 192.0
158.427475 144.0
158.555267 208.0
158.908829 140.0
160.02092 408.0
160.352219 260.0
161.015442 480.0
161.263336 176.0
161.723663 208.0
161.842651 180.0
161.949005 148.0
162.035019 340.0
162.055405 140.0
162.897675 212.0
162.915451 144.0
163.035294 600.0
163.240784 152.0
163.56134 168.0
164.001999 192.0
164.043839 156.0
164.180466 164.0
164.274826 196.0
164.310547 172.0
164.467941 152.0
164.494278 176.0
164.514709 156.0
164.805847 196.0
165.043564 144.0
165.084473 140.0
165.110046 204.0
165.173111 164.0
165.225159 288.0
165.591187 240.0
165.716705 140.0
165.741257 152.0
165.77565 172.0
165.812897 124.0
165.870468 160.0
165.9272 124.0
165.984421 116.0
166.039703 208.0
166.058701 332.0
166.086945 78820.0
166.315979 152.0
166.476273 168.0
166.747818 256.0
166.784088 128.0
166.915375 192.0
167.090607 5340.0
167.174835 212.0
167.294281 124.0
167.365677 144.0
167.538223 144.0
167.787033 96.0
168.093124 628.0
168.151917 268.0
168.38118 140.0
168.411713 148.0
168.797745 140.0
168.901199 140.0
169.180664 180.0
169.522552 180.0
169.547424 112.0
169.56662 160.0
169.786987 196.0
171.706299 140.0
171.745422 168.0
172.107101 200.0
172.283142 144.0
172.510498 144.0
172.879288 164.0
172.989212 196.0
173.520386 116.0
173.85939 196.0
174.032639 156.0
174.119293 196.0
174.750168 156.0
174.865952 208.0
174.900162 144.0
175.033112 788.0
175.564102 196.0
175.806793 200.0
175.933487 148.0
176.040497 296.0
176.36142 160.0
176.395782 280.0
176.431549 240.0
176.473785 228.0
176.530624 156.0
176.565964 132.0
176.701355 152.0
176.729004 164.0
176.779282 152.0
176.81897 152.0
176.858673 204.0
176.922531 160.0
177.009048 480.0
177.04924 91912.0
177.093552 136.0
177.131409 212.0
177.209732 168.0
177.232971 244.0
177.30098 204.0
177.353561 124.0
177.432709 120.0
177.721939 176.0
177.742233 100.0
177.801483 184.0
177.891449 100.0
177.990677 140.0
178.051346 8720.0
178.101486 136.0
178.139404 168.0
178.234955 100.0
178.350662 160.0
178.562119 132.0
178.912125 112.0
178.974503 228.0
179.007751 148.0
179.044571 3440.0
179.104919 132.0
179.248047 152.0
179.31955 116.0
179.348999 160.0
179.439835 148.0
179.55632 128.0
179.702133 176.0
180.047363 716.0
180.139252 600.0
180.500763 176.0
181.143509 264.0
182.100647 176.0
183.265442 188.0
183.75885 148.0
184.060959 136.0
184.096268 2404.0
184.196182 180.0
184.882919 156.0
185.066986 284.0
185.101059 124.0
185.614319 152.0
185.683319 132.0
186.034103 104.0
186.096375 100.0
186.420532 168.0
187.570236 196.0
187.657425 164.0
188.041534 156.0
188.401352 144.0
188.844177 152.0
189.047241 172.0
189.138672 304.0
189.273819 176.0
189.583359 212.0
190.051376 224.0
190.126358 224.0
190.241638 184.0
190.33223 172.0
191.062469 1228.0
191.260651 164.0
191.498337 120.0
191.618744 172.0
191.773758 172.0
192.057205 140.0
192.136169 180.0
193.065277 376.0
193.134964 160.0
193.23732 148.0
193.289902 148.0
194.123688 148.0
195.203888 172.0
195.367981 176.0
196.169998 276.0
196.24527 176.0
196.335129 124.0
196.605453 136.0
196.789337 188.0
197.675385 160.0
198.022537 144.0
198.112167 264.0
198.141922 200.0
198.383987 248.0
198.692474 212.0
199.25116 144.0
199.282059 140.0
199.820267 176.0
200.506119 376.0
201.041641 568.0
201.216949 164.0
201.292404 116.0
201.462646 176.0
201.920547 148.0
201.985596 228.0
202.042099 460.0
202.098755 196.0
202.491486 120.0
203.06488 6272.0
203.144165 232.0
203.505219 216.0
203.788605 148.0
204.063751 1000.0
204.482452 172.0
204.854599 160.0
205.080093 7948.0
205.650696 112.0
205.779465 168.0
205.828003 212.0
205.978027 136.0
206.030792 156.0
206.083267 1444.0
206.119354 180.0
206.142212 188.0
206.686172 192.0
207.078201 512.0
207.117798 184.0
207.304031 216.0
207.802948 204.0
207.903366 168.0
207.949615 140.0
207.987778 132.0
208.025116 164.0
208.044754 156.0
208.077271 244.0
208.134262 52524.0
208.347473 120.0
208.806946 208.0
208.928421 132.0
209.046341 180.0
209.137085 6592.0
209.253418 212.0
209.371948 100.0
209.697968 164.0
210.140198 728.0
210.332504 200.0
210.367889 100.0
210.556107 172.0
210.704086 136.0
210.787659 140.0
210.846619 200.0
210.910675 168.0
211.184875 224.0
211.222473 208.0
211.32373 140.0
211.614639 156.0
212.15094 168.0
212.215271 132.0
212.822205 164.0
212.987732 148.0
213.170761 160.0
213.496353 212.0
215.387878 140.0
216.061966 300.0
216.619354 160.0
216.795151 164.0
217.066986 2468.0
217.237885 172.0
217.270157 148.0
217.886658 152.0
217.971863 188.0
218.036514 152.0
218.072586 768.0
219.065536 384.0
219.084137 312.0
219.116425 144.0
219.847672 144.0
219.891937 224.0
220.091019 3236.0
220.952744 280.0
221.023758 140.0
221.091873 1088.0
221.180603 160.0
221.415955 124.0
221.53595 152.0
221.621857 168.0
221.72261 148.0
222.092697 168.0
224.207108 148.0
225.302155 196.0
225.343979 144.0
225.771423 144.0
226.807343 156.0
227.063919 264.0
227.326187 180.0
227.347183 140.0
227.650391 140.0
227.683426 152.0
228.064987 200.0
228.927124 176.0
228.959656 152.0
229.072998 148.0
229.139282 152.0
230.078049 144.0
230.114349 132.0
230.579819 172.0
230.607712 192.0
231.020065 168.0
231.337814 256.0
232.090744 268.0
232.340546 136.0
232.580627 140.0
233.014877 196.0
233.933289 144.0
234.11293 148.0
234.146423 156.0
234.347473 168.0
234.545563 160.0
234.676651 176.0
234.707138 160.0
235.143372 180.0
236.283127 148.0
236.687134 220.0
236.818817 188.0
237.071579 108.0
237.155624 156.0
238.079315 200.0
238.134598 212.0
239.817581 148.0
240.03801 160.0
240.190659 148.0
240.264694 184.0
240.452927 204.0
240.591827 164.0
240.755478 200.0
240.872833 144.0
241.116928 160.0
241.939697 148.0
243.179596 168.0
245.101456 160.0
245.279099 144.0
245.39444 168.0
245.656555 128.0
246.065216 148.0
246.615005 184.0
247.910675 172.0
248.280594 268.0
248.754364 156.0
249.155319 452.0
249.337143 168.0
250.029938 120.0
250.165451 176.0
250.550247 136.0
250.682343 268.0
250.98494 168.0
251.089005 264.0
251.176086 30148.0
251.269699 140.0
251.501312 144.0
251.573151 172.0
251.627075 108.0
251.681168 184.0
251.77449 116.0
252.179108 4176.0
252.405838 268.0
253.182022 280.0
253.640533 156.0
253.821243 144.0
254.083374 304.0
254.186035 148.0
255.05304 164.0
255.326462 164.0
256.345062 116.0
256.995636 196.0
257.589447 164.0
257.956909 164.0
259.701996 148.0
260.588013 172.0
260.777588 184.0
261.060516 140.0
261.733032 148.0
261.807098 208.0
261.874725 176.0
262.068024 144.0
262.155029 304.0
263.116211 204.0
263.175415 544.0
263.353394 212.0
264.26355 172.0
264.739349 176.0
265.189575 236.0
266.640442 176.0
266.700012 196.0
267.964813 160.0
268.916992 160.0
270.110443 108.0
270.15213 204.0
270.9935 152.0
272.003571 160.0
272.121277 180.0
272.377899 176.0
272.857666 164.0
273.133087 144.0
273.966736 148.0
274.012848 196.0
274.137543 1584.0
274.1875 204.0
274.492584 160.0
275.138702 260.0
275.17337 832.0
275.220001 320.0
276.042755 200.0
276.127472 128.0
276.177002 332.0
276.241211 156.0
276.500336 148.0
276.994293 116.0
277.190399 2456.0
277.404755 184.0
277.524597 176.0
277.745056 168.0
278.192169 644.0
278.450989 116.0
278.790955 148.0
278.90387 152.0
278.980347 312.0
279.662231 172.0
280.50827 264.0
280.678314 180.0
281.038544 148.0
281.158661 140.0
281.689545 264.0
281.833191 176.0
281.918549 156.0
282.087189 192.0
282.879974 140.0
283.161682 148.0
283.516357 196.0
283.647064 168.0
284.257477 160.0
284.391693 172.0
284.97937 140.0
285.338989 152.0
285.567657 216.0
285.768433 180.0
286.786469 184.0
286.877502 156.0
288.024261 156.0
288.131348 160.0
288.518158 160.0
288.602661 168.0
290.024506 152.0
290.072174 120.0
290.132965 140.0
290.185791 164.0
290.982941 120.0
291.023224 164.0
291.190887 1160.0
291.504181 152.0
291.847504 172.0
292.190918 296.0
292.796906 168.0
293.203552 304.0
293.37616 144.0
295.803009 196.0
295.887115 192.0
296.19873 208.0
296.627075 228.0
296.688782 140.0
298.128632 152.0
298.185333 224.0
298.436279 144.0
298.474121 196.0
300.809967 160.0
301.390167 160.0
301.497284 176.0
303.109863 172.0
304.644867 232.0
304.751068 140.0
305.081238 264.0
305.495056 200.0
305.863922 152.0
306.166809 176.0
306.525604 212.0
308.553497 144.0
309.168793 188.0
309.351105 160.0
309.634705 148.0
309.799347 172.0
309.83136 124.0
309.921967 148.0
310.085052 148.0
310.479309 160.0
310.537537 140.0
310.773621 152.0
312.305634 172.0
312.991852 176.0
313.263062 140.0
313.654175 172.0
313.90741 136.0
314.730194 192.0
314.783142 152.0
316.096954 160.0
317.015259 144.0
317.06842 180.0
317.852417 172.0
319.781281 196.0
320.369324 168.0
320.394257 204.0
320.483337 212.0
320.682892 156.0
320.921722 180.0
321.117859 144.0
321.856567 168.0
321.899414 152.0
322.085114 152.0
322.199432 208.0
322.579987 184.0
322.71051 152.0
325.13916 140.0
325.590149 172.0
325.745941 232.0
326.559937 192.0
327.771484 184.0
327.843536 160.0
327.969696 268.0
328.878632 164.0
329.077148 156.0
330.965088 104.0
331.718536 124.0
332.643066 144.0
332.9646 144.0
333.279785 100.0
334.618347 152.0
335.670074 192.0
335.713837 208.0
336.461395 172.0
336.881805 224.0
337.201569 152.0
337.484802 152.0
337.594055 132.0
338.05957 216.0
338.384857 224.0
339.352112 180.0
339.841278 160.0
340.427216 152.0
341.081177 156.0
341.75415 152.0
341.879272 140.0
341.99704 168.0
342.118988 132.0
342.943634 140.0
343.120575 212.0
343.378693 140.0
343.600555 164.0
343.860138 112.0
344.098236 168.0
344.260712 164.0
344.423187 172.0
345.572906 144.0
345.75235 132.0
347.468903 128.0
348.747223 192.0
349.995636 172.0
350.157318 176.0
350.365906 156.0
350.526123 144.0
350.693817 156.0
351.309082 144.0
351.846466 164.0
351.943542 156.0
352.163879 148.0
352.751709 124.0
352.799805 208.0
352.99353 184.0
353.217926 168.0
353.532196 180.0
353.593506 108.0
353.73056 144.0
353.905548 140.0
354.210419 188.0
354.741974 148.0
355.221954 172.0
355.920013 164.0
356.032654 180.0
356.742798 152.0
357.583069 144.0
358.746399 144.0
358.8284 196.0
359.333771 144.0
360.247375 148.0
361.010864 140.0
361.11676 152.0
361.744873 148.0
362.013672 204.0
362.631195 180.0
362.66153 172.0
363.023773 152.0
364.065247 144.0
364.390778 172.0
364.50589 140.0
364.695923 180.0
364.741272 112.0
365.034271 152.0
365.197815 140.0
366.019806 144.0
366.160706 152.0
366.402893 172.0
366.476898 140.0
366.510315 160.0
366.661926 200.0
367.41095 228.0
370.165039 164.0
370.741302 184.0
370.900757 120.0
372.207703 116.0
372.452454 168.0
372.713531 100.0
372.990387 192.0
373.222687 104.0
373.528717 144.0
373.778778 140.0
373.909637 172.0
374.687439 160.0
374.737518 180.0
375.43161 120.0
375.47934 180.0
375.639618 148.0
375.774658 180.0
376.654816 200.0
377.033051 192.0
377.65979 152.0
378.263397 140.0
378.429871 160.0
378.658325 180.0
379.128204 192.0
379.506989 192.0
380.150879 148.0
380.286713 220.0
380.96524 176.0
381.286835 128.0
381.335358 152.0
381.458374 160.0
381.5755 216.0
381.992462 180.0
382.157715 1492.0
382.432159 164.0
383.160797 120.0
384.053009 152.0
384.171448 168.0
384.271484 152.0
384.948761 108.0
385.069733 128.0
385.168457 160.0
385.2034 240.0
385.804382 148.0
386.185608 168.0
386.662903 196.0
387.070038 176.0
388.732086 156.0
389.022522 144.0
389.055481 140.0
390.114594 204.0
390.389801 208.0
391.217133 352.0
391.292633 168.0
391.394104 164.0
391.436768 116.0
392.125214 176.0
392.213562 120.0
392.40976 152.0
393.856262 168.0
394.53772 140.0
394.676758 96.0
395.028076 168.0
396.152313 196.0
396.342926 240.0
396.450714 176.0
396.560425 172.0
397.184875 136.0
397.428894 188.0
397.595551 176.0
398.183044 160.0
398.222839 156.0
399.379425 180.0
399.500183 112.0
399.542542 152.0
400.278839 164.0
400.485931 156.0
401.095581 168.0
401.155365 172.0
401.29541 124.0
402.420471 152.0
403.189697 244.0
403.350189 128.0
403.647766 136.0
403.830627 144.0
404.646973 144.0
404.756195 128.0
404.989899 112.0
405.636444 148.0
405.74469 228.0
406.149719 144.0
406.429352 96.0
406.618073 168.0
407.120972 200.0
407.256378 140.0
407.522644 172.0
408.113464 168.0
408.242157 144.0
408.495544 164.0
408.765106 148.0
409.209625 280.0
409.417053 164.0
409.453491 216.0
410.183105 232.0
410.549652 160.0
411.355255 148.0
411.530182 196.0
411.954224 148.0
412.212799 236.0
412.936432 220.0
414.360474 116.0
414.875977 144.0
414.971405 164.0
415.114136 152.0
415.301758 148.0
415.488342 176.0
415.733002 172.0
416.133636 176.0
416.210785 160.0
416.290955 124.0
417.344421 140.0
417.604431 124.0
418.076599 204.0
418.41803 172.0
418.760559 160.0
420.124084 124.0
420.31955 144.0
420.773407 148.0
420.926056 168.0
421.052643 148.0
421.146576 236.0
421.384827 140.0
421.518341 212.0
421.82486 164.0
421.906097 148.0
421.941376 132.0
422.061981 236.0
422.416626 156.0
422.455414 140.0
423.025879 152.0
423.190643 160.0
423.216827 116.0
423.282227 164.0
423.326385 116.0
423.388733 176.0
423.60257 120.0
423.699524 200.0
423.774017 140.0
423.894958 100.0
424.085114 280.0
424.200989 160.0
424.231201 252.0
424.324524 152.0
424.411316 124.0
424.454163 292.0
424.515594 204.0
424.599457 128.0
424.643951 148.0
424.68576 236.0
424.732941 108.0
424.825897 132.0
424.868927 392.0
424.927277 156.0
424.963898 156.0
425.017792 140.0
425.093903 100.0
425.202789 5772.0
425.436615 508.0
425.46994 140.0
425.572662 108.0
425.641602 248.0
425.72934 168.0
425.794495 240.0
425.861755 116.0
425.899689 280.0
425.939819 260.0
425.979706 240.0
425.996033 112.0
426.009399 284.0
426.065918 328.0
426.10025 376.0
426.202484 1724.0
426.293854 136.0
426.326874 244.0
426.377075 164.0
426.414246 152.0
426.448212 352.0
426.520874 256.0
426.579651 272.0
426.596161 268.0
426.606445 360.0
426.659698 292.0
426.709961 496.0
426.758881 300.0
426.805206 372.0
426.841888 356.0
426.861969 476.0
426.896362 544.0
426.960114 416.0
427.013153 220.0
427.094177 804.0
427.218964 316572.0
427.33429 320.0
427.366974 264.0
427.437225 312.0
427.496338 528.0
427.602386 1592.0
427.66806 500.0
427.730804 1052.0
427.844482 624.0
427.906036 13676.0
427.950989 484.0
427.99057 668.0
428.01947 392.0
428.05957 364.0
428.074799 440.0
428.117706 444.0
428.156036 200.0
428.221649 178688.0
428.367859 228.0
428.40274 280.0
428.461975 228.0
428.52063 368.0
428.583679 468.0
428.615082 948.0
428.660645 232.0
428.718109 132.0
428.779358 232.0
428.854706 144.0
428.901764 2072.0
428.937897 436.0
429.058594 180.0
429.115417 176.0
429.143555 256.0
429.217957 61768.0
429.392731 200.0
429.523895 212.0
429.585175 404.0
429.663635 284.0
429.712311 112.0
429.784424 236.0
429.837402 180.0
429.894196 448.0
429.977814 152.0
430.038757 116.0
430.071106 212.0
430.102142 248.0
430.218872 7176.0
430.358002 260.0
430.424133 188.0
430.527374 276.0
430.615845 496.0
430.665558 200.0
430.69278 400.0
430.756439 384.0
430.77359 292.0
430.823059 432.0
430.89328 504.0
430.924286 476.0
430.988647 576.0
431.024323 344.0
431.078064 172.0
431.117981 188.0
431.218872 564.0
431.293976 184.0
431.310791 188.0
431.366516 228.0
431.495361 276.0
431.532806 124.0
431.629761 128.0
431.720581 188.0
431.768097 112.0
431.829865 104.0
431.877045 316.0
431.958069 268.0
432.023621 160.0
432.064117 308.0
432.145905 176.0
432.404266 108.0
432.559601 100.0
432.816895 156.0
433.103241 112.0
433.413513 96.0
433.812836 116.0
434.134705 104.0
434.37085 96.0
435.944092 132.0
436.017029 120.0
436.838318 120.0
437.287231 140.0
437.612152 116.0
439.373657 164.0
440.117676 104.0
440.464417 104.0
441.471405 172.0
442.641327 108.0
444.335663 96.0
444.411896 148.0
444.680786 124.0
445.202972 184.0
445.803711 160.0
447.566193 188.0
452.28537 128.0
458.708557 144.0
478.195618 148.0
483.073242 124.0
549.895874 156.0
593.221252 140.0
597.699097 156.0
599.677185 104.0
609.655212 148.0
620.779663 116.0
623.44519 128.0
625.512085 204.0
629.450684 156.0
633.55481 104.0
636.616455 152.0
640.700684 168.0
642.9729 108.0
689.525146 100.0
776.036804 152.0
776.691162 192.0
801.23999 108.0
1034.896484 112.0
1139.490356 224.0
1142.932739 148.0
1182.483521 168.0
1227.862305 160.0
1304.503296 144.0
1412.508667 156.0
1448.171875 180.0
1455.171143 144.0
1458.855713 160.0
1459.129395 184.0
1485.322876 148.0
1490.228394 256.0
1498.545532 152.0
1520.622803 188.0
1525.749512 160.0
1526.309326 164.0
1533.299805 176.0
1536.785522 156.0
1543.338501 160.0
1552.902954 128.0
1575.538818 164.0
1576.012939 156.0
1581.469482 164.0
1585.849487 184.0
1586.78479 168.0
1593.769287 184.0
1614.262939 152.0
1614.966797 212.0
1622.686279 168.0
1623.616455 168.0
1626.119507 232.0
1628.134644 148.0
1644.671753 176.0
1651.070679 184.0
1655.270508 188.0
1681.879761 148.0
1687.483765 144.0
1691.786987 172.0
1692.008057 148.0
1699.121704 156.0
1718.810669 140.0
1725.525635 144.0
1739.791626 172.0
1745.266724 196.0
1759.413696 184.0
1762.554077 140.0
1773.072876 140.0
1773.500366 200.0
1777.643311 188.0
1787.34021 152.0
1788.358521 192.0
1790.724365 188.0
1799.528076 184.0
1811.943604 232.0
1821.257935 192.0
1822.285767 164.0
1830.340576 144.0
1830.510864 160.0
1836.7323 156.0
1838.157104 168.0
1844.793335 192.0
1847.461426 236.0
1849.617798 152.0
1858.195923 180.0
1863.226929 144.0
1869.219727 152.0
1874.187988 156.0
1875.739258 172.0
1884.628296 160.0
1886.365356 168.0
1886.512329 152.0
1897.064819 144.0
1898.391357 172.0
1899.831177 176.0
1903.745605 180.0
1906.586426 144.0
1910.05542 148.0
1910.368652 168.0
1931.329712 188.0
1932.300781 160.0
1953.627808 164.0
1957.403564 204.0
1959.711304 176.0
1968.390625 168.0
1970.422119 160.0
1974.567871 160.0
1977.133423 160.0
1978.053955 160.0
1982.12793 192.0
1997.878418 140.0
1999.951782 164.0
