>compound Daunorubicin HCl (Daunomycin HCl)
>formula C27H29NO10
>ionization [M+H]+
>parentmass 528.184692
#inchi InChI=1S/C27H29NO10/c1-10-22(30)14(28)7-17(37-10)38-16-9-27(35,11(2)29)8-13-19(16)26(34)21-20(24(13)32)23(31)12-5-4-6-15(36-3)18(12)25(21)33/h4-6,10,14,16-17,22,30,32,34-35H,7-9,28H2,1-3H3/t10-,14-,16+,17-,22+,27-/m0/s1
#inchikey STQGQHZAVUOBTE
#origInchi InChI=1S/C27H29NO10.ClH/c1-10-22(30)14(28)7-17(37-10)38-16-9-27(35,11(2)29)8-13-19(16)26(34)21-20(24(13)32)23(31)12-5-4-6-15(36-3)18(12)25(21)33;/h4-6,10,14,16-17,22,30,32,34-35H,7-9,28H2,1-3H3;1H/t10-,14-,16+,17-,22+,27-;/m0./s1
#Ion_Source LC-ESI
#Instrument qTof
#Compound_Source Commercial
#PI Dorrestein
#Data_Collector Garg_Neha
#Scan -1
#Precursor_MZ 528.186
#ExactMass 527.179
#Charge 1
#CAS_Number 23541-50-6, 20830-81-3 (free base)
#Pubmed_ID N/A
#Smiles C1(=CC=C2C(=C1OC)C(C3=C(C2=O)C(=C4C(=C3O)[C@@H](C[C@](C4)(O)C(C)=O)O[C@]5(C[C@@H]([C@@H]([C@@H](O5)C)O)N)[H])O)=O).Cl
#INCHI_AUX N/A
#Library_Class 1
#SpectrumID CCMSLIB00000078550
#IonMode Positive
#UpdateWorkflowName UPDATE-SINGLE-ANNOTATED-GOLD
#LibraryQualityString Gold
#TaskID 77f51c88eb8b467eb4a01dd2d0cb90d2
##Scan# 1130
#SpectrumFile Plate9_1_20_GC4_01_15750.mzXML
#LibraryName FDALibrary_2_04302014.mgf
#MQScore -1
#Organism FDALibrary_2_04302014
#TIC_Query 0
#RT_Query -1
#MZErrorPPM -1
#SharedPeaks 0
#MassDiff 0
#LibMZ -1
#SpecMZ 528.186
#SpecCharge 0
#internalFilename spec-00000.mgf

>collision 10
46.931198 144.0
47.776249 200.0
49.821365 176.0
50.032318 228.0
50.209862 144.0
50.24498 192.0
50.555984 220.0
50.60836 204.0
51.77177 184.0
52.251194 144.0
52.624485 164.0
53.917343 152.0
54.111893 152.0
54.569656 144.0
54.606419 160.0
56.02898 140.0
56.463352 156.0
56.903908 180.0
57.004543 208.0
57.589092 180.0
57.852203 152.0
58.619225 148.0
58.857185 144.0
59.646191 172.0
59.707691 156.0
60.561199 176.0
61.416084 176.0
61.776924 232.0
62.624565 168.0
62.734867 200.0
63.357521 140.0
64.207924 140.0
64.754524 176.0
66.393608 156.0
66.499062 168.0
66.648468 156.0
68.423103 164.0
68.525215 160.0
69.379669 164.0
70.673775 164.0
71.129623 140.0
72.243507 204.0
72.58902 156.0
72.81813 244.0
73.151398 168.0
75.80854 152.0
76.65831 172.0
76.732468 176.0
77.805145 144.0
77.84436 148.0
77.914612 156.0
78.118538 144.0
78.50074 140.0
78.671883 176.0
79.200615 164.0
80.942726 208.0
81.148445 192.0
84.091751 204.0
84.115479 152.0
84.162949 156.0
84.490105 168.0
85.240013 184.0
85.600555 164.0
85.70739 208.0
86.056 156.0
86.510506 152.0
86.583008 164.0
86.766449 276.0
87.271461 196.0
87.725723 140.0
88.722137 164.0
88.928482 164.0
89.084335 200.0
89.451027 228.0
89.53952 172.0
89.594147 168.0
90.094078 152.0
90.720474 144.0
90.773567 208.0
91.195023 140.0
94.38903 156.0
94.495407 196.0
94.733536 152.0
95.014633 148.0
95.050682 908.0
95.218452 172.0
97.791466 140.0
100.153633 164.0
100.241295 176.0
100.372856 160.0
100.548409 140.0
100.727913 204.0
102.253975 228.0
102.368721 196.0
102.78801 156.0
103.452957 156.0
103.939384 184.0
104.068893 132.0
104.656898 144.0
105.033005 148.0
105.55471 144.0
105.847328 192.0
106.132149 180.0
108.515671 228.0
108.895424 160.0
109.7257 140.0
109.934288 192.0
110.301872 192.0
111.352684 184.0
111.444038 172.0
112.076324 896.0
112.214371 160.0
112.668129 148.0
113.059433 4956.0
113.09388 200.0
113.706337 100.0
113.773613 148.0
114.064415 316.0
115.057358 148.0
115.917191 164.0
116.464264 176.0
116.715706 156.0
117.568748 180.0
119.854355 184.0
120.874084 144.0
121.018555 200.0
121.063507 856.0
121.799271 148.0
122.692703 172.0
123.385925 144.0
124.598206 160.0
125.954865 188.0
126.048698 148.0
126.657227 140.0
126.737877 124.0
127.316628 144.0
128.324707 140.0
129.608536 160.0
130.052048 152.0
130.086227 20708.0
130.125671 200.0
130.524185 112.0
130.614258 140.0
130.680038 132.0
130.72316 152.0
131.088745 2896.0
131.222305 152.0
131.35434 176.0
131.541687 224.0
132.090042 296.0
132.131287 220.0
132.424881 172.0
133.028091 604.0
133.884964 180.0
133.990921 268.0
134.629852 236.0
135.043121 1472.0
135.186981 224.0
135.383759 156.0
135.506531 156.0
136.045349 604.0
136.396484 176.0
137.284714 148.0
139.631348 168.0
140.007889 140.0
140.330719 140.0
141.639938 156.0
141.677841 156.0
141.976501 156.0
142.467834 144.0
143.480377 140.0
143.82515 172.0
144.049622 156.0
146.349564 200.0
146.385681 140.0
146.547058 228.0
147.047653 264.0
148.022903 184.0
148.095932 1424.0
148.391205 208.0
149.099823 264.0
149.124298 180.0
149.530472 204.0
150.215149 204.0
150.66188 168.0
151.056396 172.0
151.334457 172.0
151.824539 144.0
152.062515 204.0
152.212265 216.0
153.033524 152.0
153.736542 156.0
154.148422 156.0
154.180557 164.0
154.365967 152.0
154.393158 160.0
154.509415 172.0
155.873108 264.0
156.435196 196.0
156.86615 192.0
157.0271 300.0
157.557419 156.0
157.687347 164.0
158.097504 152.0
159.048126 164.0
159.18045 144.0
159.463104 148.0
159.489456 236.0
160.461166 156.0
162.819504 156.0
163.040527 408.0
163.719788 160.0
163.94397 176.0
165.156693 212.0
166.023758 132.0
166.479156 140.0
168.067398 140.0
168.795822 188.0
169.06485 140.0
169.538757 160.0
170.558762 160.0
172.16806 196.0
172.294281 164.0
173.021484 128.0
173.058578 172.0
173.212494 144.0
173.267502 144.0
173.327759 204.0
173.521729 176.0
173.878464 160.0
174.06749 176.0
174.259232 180.0
175.03476 108.0
175.196365 172.0
176.058319 164.0
176.206238 204.0
178.084137 204.0
178.35582 104.0
179.047165 140.0
180.704834 228.0
181.619171 192.0
182.010147 156.0
182.617493 140.0
183.034622 176.0
183.174667 148.0
183.384842 188.0
183.810944 144.0
184.169998 156.0
185.022461 752.0
185.363083 196.0
186.157883 168.0
186.640457 104.0
186.935349 140.0
187.21846 156.0
187.632629 164.0
188.036346 216.0
188.211044 184.0
189.063934 156.0
189.570557 156.0
191.086243 140.0
191.111008 176.0
191.375229 232.0
192.856644 172.0
192.889816 244.0
193.111008 160.0
193.48735 236.0
193.512268 196.0
194.096893 144.0
194.385376 160.0
194.88797 176.0
194.971329 140.0
197.259644 140.0
197.381058 188.0
197.564468 152.0
197.598038 196.0
199.370178 196.0
199.842575 192.0
200.037766 112.0
200.67627 148.0
201.05426 268.0
201.169983 204.0
202.080002 208.0
202.428146 160.0
202.518784 224.0
203.036682 344.0
203.411957 148.0
203.94313 188.0
204.825195 144.0
205.058533 176.0
207.21344 156.0
207.600403 188.0
208.366776 168.0
209.284271 160.0
209.863403 176.0
209.895126 144.0
209.987411 164.0
210.394272 176.0
210.998077 192.0
211.6259 148.0
211.796753 156.0
211.85759 168.0
212.003128 176.0
212.109695 168.0
212.359055 180.0
213.878662 232.0
214.618637 156.0
215.415375 164.0
215.561462 144.0
216.770004 176.0
217.051727 152.0
217.9496 148.0
218.075821 168.0
218.246475 168.0
218.776047 192.0
219.878433 152.0
219.98175 192.0
220.244553 212.0
220.344986 200.0
220.775604 128.0
220.943268 164.0
221.001358 152.0
221.223328 212.0
221.288452 156.0
222.100433 188.0
222.857452 216.0
223.07579 232.0
224.073395 152.0
224.640762 180.0
225.384155 176.0
225.590607 100.0
226.128784 172.0
227.039551 172.0
227.966949 108.0
228.048126 128.0
228.7341 228.0
228.782272 188.0
229.36969 156.0
230.28392 144.0
231.92688 156.0
232.049454 124.0
233.055801 148.0
233.096909 192.0
233.192551 176.0
233.365814 184.0
234.066879 276.0
237.091507 244.0
237.195694 156.0
237.70015 292.0
238.02861 204.0
238.169876 144.0
238.64621 164.0
238.670807 192.0
239.070709 204.0
240.760086 164.0
241.07518 172.0
242.49881 168.0
242.970139 292.0
243.724594 156.0
243.758774 292.0
244.31221 140.0
244.477127 216.0
245.045792 140.0
245.351013 156.0
245.389786 180.0
245.505157 168.0
246.04184 244.0
246.073059 180.0
246.454956 160.0
246.616608 148.0
247.071747 280.0
247.126343 144.0
247.198303 248.0
248.047058 164.0
248.492386 140.0
249.060577 300.0
249.091095 272.0
249.233368 140.0
250.337463 248.0
250.885712 148.0
252.869385 140.0
255.630402 268.0
256.076813 232.0
256.39151 152.0
256.541321 208.0
257.058899 276.0
257.862762 156.0
257.91391 256.0
258.092957 180.0
258.220856 144.0
259.072083 172.0
260.053589 132.0
260.085602 156.0
260.310333 176.0
261.050995 312.0
261.332489 152.0
261.863647 200.0
262.06485 212.0
263.00827 172.0
263.067963 116.0
263.092194 168.0
264.537201 156.0
264.828644 148.0
264.903137 168.0
265.086914 792.0
265.301727 140.0
265.752533 176.0
266.091827 252.0
266.756042 168.0
267.094238 180.0
268.02533 164.0
269.003754 148.0
269.049438 148.0
269.186584 176.0
269.715851 148.0
271.01181 168.0
271.388733 148.0
271.510071 164.0
272.590088 168.0
273.050323 140.0
273.468353 156.0
273.850098 144.0
274.149902 168.0
274.525726 152.0
274.733521 156.0
275.071808 616.0
275.264893 144.0
275.519714 156.0
275.568787 148.0
275.977905 176.0
276.425171 140.0
277.082489 1272.0
277.306091 188.0
277.859863 156.0
278.03125 152.0
278.057007 348.0
278.115387 208.0
279.064941 156.0
279.091675 160.0
280.050507 164.0
280.533661 180.0
281.743347 156.0
282.236359 156.0
283.052795 184.0
283.290588 148.0
284.306549 156.0
284.726166 140.0
285.764862 204.0
286.286621 140.0
286.456055 116.0
286.559448 168.0
287.21344 212.0
287.550842 208.0
288.042389 244.0
288.36142 200.0
288.594666 224.0
289.051453 428.0
289.091919 212.0
289.183289 176.0
289.501526 168.0
290.057983 588.0
290.419983 164.0
291.059479 396.0
291.48465 152.0
291.904114 192.0
292.033325 160.0
292.067505 196.0
292.662903 160.0
292.880859 252.0
293.040955 168.0
293.079559 3840.0
293.535187 160.0
294.084106 744.0
294.993042 140.0
295.089691 324.0
295.194763 152.0
296.224976 148.0
296.571045 164.0
296.721893 144.0
297.806244 208.0
298.142944 200.0
299.660431 140.0
299.998169 140.0
300.85025 168.0
301.337189 188.0
301.634796 172.0
301.720825 160.0
301.966339 232.0
302.055023 336.0
302.807343 140.0
303.065155 2580.0
303.316681 180.0
303.592346 196.0
303.656464 152.0
303.708496 180.0
303.833374 204.0
303.96524 176.0
304.070526 668.0
304.326202 172.0
304.734467 228.0
305.043976 128.0
305.075592 160.0
305.222656 152.0
305.274841 140.0
305.333954 144.0
305.694305 96.0
305.935913 144.0
305.969971 220.0
306.005524 188.0
306.052094 44304.0
306.188354 120.0
306.33017 128.0
306.700409 124.0
307.055969 6188.0
307.460602 120.0
307.643066 136.0
308.058746 1024.0
308.105072 256.0
308.196594 140.0
308.63092 200.0
308.789948 184.0
308.980835 144.0
309.055664 480.0
309.644165 168.0
309.801788 152.0
310.878174 168.0
311.789337 220.0
313.052765 140.0
314.006836 176.0
314.447998 224.0
314.510284 160.0
315.048523 112.0
315.772888 136.0
315.803467 228.0
316.079071 164.0
316.536041 200.0
316.727264 164.0
316.762207 260.0
317.749908 244.0
317.990021 96.0
318.305481 196.0
318.621124 156.0
319.054657 316.0
319.11087 144.0
319.206726 160.0
319.464142 276.0
319.539124 96.0
319.61087 132.0
319.780731 152.0
319.835693 272.0
319.872162 156.0
319.914795 192.0
319.943176 184.0
320.073242 844.0
320.191986 284.0
320.253296 104.0
320.30484 132.0
320.34201 304.0
320.415344 156.0
320.508179 304.0
320.547333 384.0
320.58844 148.0
320.618866 200.0
320.714996 424.0
320.742859 432.0
320.80661 156.0
320.873322 396.0
320.933533 368.0
320.981567 320.0
321.077362 392372.0
321.20401 264.0
321.246582 252.0
321.307678 176.0
321.347015 208.0
321.387482 300.0
321.412018 296.0
321.464203 136.0
321.496063 364.0
321.5336 240.0
321.601624 252.0
321.619873 172.0
321.663055 4844.0
321.701111 432.0
321.751801 232.0
321.807526 236.0
321.845398 152.0
321.917511 420.0
321.967194 156.0
322.079651 122600.0
322.240143 108.0
322.320862 188.0
322.466736 204.0
322.494385 236.0
322.529785 192.0
322.568085 132.0
322.60202 220.0
322.620148 136.0
322.666718 256.0
322.727905 168.0
322.825073 168.0
322.943085 104.0
322.986572 164.0
323.013245 196.0
323.081818 12728.0
323.197235 132.0
323.255737 148.0
323.358337 184.0
323.429779 136.0
323.476685 140.0
323.546112 152.0
323.719177 112.0
323.761566 112.0
323.808136 228.0
323.852203 248.0
323.877411 172.0
323.915863 252.0
323.950195 276.0
323.981018 148.0
324.021179 476.0
324.086182 1280.0
324.159485 296.0
324.216766 144.0
324.244232 160.0
324.284637 236.0
324.311462 212.0
324.340454 288.0
324.420593 144.0
324.442932 180.0
324.615204 152.0
324.680023 156.0
324.822479 96.0
324.873077 136.0
324.918274 96.0
324.98172 208.0
325.046692 160.0
325.079865 156.0
325.119629 216.0
325.249481 120.0
325.298004 192.0
325.56076 176.0
325.668457 128.0
325.821747 96.0
326.039642 148.0
326.627686 144.0
327.053864 124.0
328.480774 212.0
329.076233 160.0
330.055969 236.0
330.684875 148.0
330.985352 148.0
331.125702 148.0
331.227997 144.0
332.060333 144.0
332.23938 156.0
333.039124 708.0
333.441284 140.0
334.032776 176.0
334.063202 96.0
335.092072 1776.0
335.598297 160.0
336.054291 188.0
336.100861 264.0
336.167053 144.0
337.009491 128.0
337.07785 148.0
337.535156 180.0
337.893585 140.0
338.075256 172.0
338.817657 160.0
339.081329 136.0
341.084015 248.0
343.690216 108.0
343.90918 176.0
344.119598 212.0
344.182373 196.0
345.075562 1036.0
346.075867 452.0
346.451324 100.0
347.087036 160.0
347.213104 168.0
347.420837 148.0
347.784485 152.0
347.830719 96.0
348.06073 2084.0
349.067902 708.0
349.575836 188.0
350.068115 164.0
350.313019 148.0
352.056793 100.0
352.719879 144.0
353.030182 192.0
354.325287 140.0
355.525146 152.0
357.697571 168.0
359.03891 152.0
360.88031 160.0
361.098969 184.0
361.309021 176.0
361.399811 148.0
361.490631 172.0
361.938629 136.0
362.014313 132.0
362.092834 108.0
362.138 164.0
362.797058 188.0
362.921814 188.0
362.969635 196.0
363.003235 148.0
363.087402 146108.0
363.273315 148.0
363.313293 184.0
363.412628 192.0
363.452698 212.0
363.555511 116.0
363.578705 288.0
363.710907 372.0
363.763885 168.0
363.915405 124.0
363.979706 280.0
364.00354 312.0
364.089905 35508.0
364.214661 156.0
364.317047 100.0
364.363098 132.0
364.607391 96.0
364.662048 156.0
364.960419 108.0
365.091949 4908.0
365.671661 116.0
365.876801 100.0
365.954071 192.0
366.013062 124.0
366.096161 744.0
366.329254 176.0
366.373291 120.0
366.463898 112.0
366.69928 100.0
366.728882 152.0
366.791107 132.0
367.231384 104.0
367.568237 192.0
367.617004 148.0
368.11734 112.0
370.789795 112.0
376.982697 140.0
379.952515 180.0
380.596802 144.0
381.029572 128.0
381.096313 21256.0
381.170776 268.0
382.100037 4760.0
382.334412 172.0
382.371124 136.0
383.10025 508.0
384.111694 180.0
384.414154 120.0
384.618347 188.0
385.262665 140.0
389.128693 108.0
398.124847 240.0
399.108765 640.0
400.109131 336.0
401.105865 152.0
404.112274 120.0
436.124359 172.0
441.126373 140.0
441.343781 152.0
445.976166 144.0
464.121307 312.0
464.425781 140.0
465.125183 168.0
469.93219 148.0
484.161896 280.0
485.167603 156.0
492.189606 180.0
493.210114 168.0
509.596832 144.0
510.140625 288.0
510.177734 208.0
511.171082 276.0
512.180359 276.0
526.881592 188.0
527.126526 164.0
528.184692 3608.0
528.268066 204.0
529.186401 1680.0
529.293518 188.0
530.189331 776.0
530.228577 164.0
531.150085 124.0
531.239807 212.0
549.841064 148.0
569.807129 160.0
657.811768 132.0
662.635925 148.0
702.578125 192.0
745.758545 208.0
886.3172 156.0
1076.239624 184.0
1088.458008 152.0
1239.259155 164.0
1292.958862 156.0
1310.869263 216.0
1390.228394 144.0
1482.706055 188.0
1501.973877 156.0
1507.161865 212.0
1529.68396 156.0
1566.496948 148.0
1587.394043 176.0
1590.130981 180.0
1597.536499 140.0
1664.140503 164.0
1668.462646 152.0
1676.080811 164.0
1726.236694 184.0
1759.689453 192.0
1761.192627 144.0
1783.47229 152.0
1786.448975 172.0
1855.298462 156.0
1856.001465 212.0
1867.75 176.0
1872.67334 156.0
1898.627197 204.0
1913.398926 140.0
1920.95459 168.0
1928.227905 204.0
1949.866699 140.0
1958.612427 164.0
1971.096069 188.0
1994.004272 172.0
1998.076782 148.0
