>compound MLS001332620-01!CORYNANTHINE483-10-3
>formula C21H26N2O3
>ionization [M+H]+
>parentmass 355.200378
#inchi InChI=1S/C21H26N2O3/c1-26-21(25)19-15-10-17-20-14(13-4-2-3-5-16(13)22-20)8-9-23(17)11-12(15)6-7-18(19)24/h2-5,12,15,17-19,22,24H,6-11H2,1H3/t12-,15-,17-,18-,19-/m0/s1
#inchikey BLGXFZZNTVWLAY
#Ion_Source LC-ESI
#Instrument qTof
#Compound_Source NIH Pharmacologically Active Library
#PI Dorrestein
#Data_Collector VP/LMS
#Scan -1
#Precursor_MZ 355.202
#ExactMass 354.194
#Charge 1
#CAS_Number N/A
#Pubmed_ID N/A
#Smiles COC(=O)[C@@H]1[C@@H](O)CC[C@H]2CN3CCc4c([nH]c5ccccc45)[C@@H]3C[C@H]12
#INCHI_AUX N/A
#Library_Class 1
#SpectrumID CCMSLIB00000085214
#IonMode Positive
#UpdateWorkflowName UPDATE-SINGLE-ANNOTATED-GOLD
#LibraryQualityString Gold
#TaskID d252d724072548979f1f6f1ced849daf
##Scan# 1454
#SpectrumFile p3-G02_GG2_01_18295.mzXML
#LibraryName Pharm_Active_Library.mgf
#MQScore -1
#Organism Pharm_Active_Library
#TIC_Query 0
#RT_Query -1
#MZErrorPPM -1
#SharedPeaks 0
#MassDiff 0
#LibMZ -1
#SpecMZ 355.202
#SpecCharge 0
#internalFilename spec-00000.mgf

>collision 10
44.919601 204.0
45.109241 132.0
45.138657 124.0
45.161392 32.0
45.184135 112.0
45.23901 96.0
45.252399 148.0
45.267128 48.0
45.314014 40.0
45.366283 152.0
45.478699 176.0
45.512535 160.0
45.541515 228.0
45.706112 84.0
45.757259 128.0
45.843475 144.0
45.958099 52.0
45.973053 204.0
46.082329 240.0
46.132339 108.0
46.171555 168.0
46.255447 184.0
46.283882 232.0
46.298988 204.0
46.321804 236.0
46.334 208.0
46.367878 164.0
46.437027 92.0
46.487228 120.0
46.498276 144.0
46.522522 100.0
46.568691 168.0
46.605373 236.0
46.695103 168.0
46.722309 144.0
46.765858 160.0
46.814873 224.0
46.866642 144.0
46.917072 180.0
46.980804 176.0
47.022114 196.0
47.10268 124.0
47.14558 312.0
47.251701 80.0
47.311165 152.0
47.475647 200.0
47.58065 192.0
47.639343 240.0
47.705677 156.0
47.837749 172.0
47.923145 176.0
47.983791 160.0
48.08588 176.0
48.107967 60.0
48.206039 148.0
48.239212 144.0
48.261333 264.0
48.312912 152.0
48.378944 100.0
48.394455 176.0
48.412174 116.0
48.54245 168.0
48.574669 192.0
48.621529 156.0
48.67012 208.0
48.693729 204.0
48.70623 168.0
48.820206 184.0
48.863331 180.0
48.931534 140.0
48.944065 136.0
48.957993 176.0
49.119682 184.0
49.143398 48.0
49.235538 64.0
49.273254 116.0
49.331955 236.0
49.446941 220.0
49.457859 144.0
49.543285 172.0
49.567104 184.0
49.585327 232.0
49.630188 180.0
49.689568 168.0
49.732605 84.0
49.867455 108.0
49.963875 156.0
49.995445 148.0
50.079926 196.0
50.126419 148.0
50.193443 148.0
50.274502 184.0
50.321236 188.0
50.342182 196.0
50.39595 212.0
50.52462 160.0
50.68037 136.0
50.729977 56.0
50.761173 32.0
50.846298 236.0
50.927486 156.0
51.003967 192.0
51.048565 328.0
51.068768 140.0
51.144794 52.0
51.180389 224.0
51.220268 108.0
51.282967 76.0
51.34045 216.0
51.35997 120.0
51.399918 176.0
51.571304 132.0
51.710052 132.0
51.741547 112.0
51.778778 128.0
51.790237 240.0
51.848988 44.0
51.889126 172.0
51.930714 156.0
51.988678 200.0
52.025429 112.0
52.041222 216.0
52.161907 172.0
52.219425 180.0
52.230934 196.0
52.272659 140.0
52.298569 120.0
52.348961 156.0
52.395103 120.0
52.43108 156.0
52.444054 144.0
52.513268 136.0
52.534203 164.0
52.605621 140.0
52.643166 128.0
52.669163 128.0
52.683609 56.0
52.700264 164.0
52.719734 192.0
52.731297 252.0
52.7631 192.0
52.844101 176.0
52.879082 208.0
52.94109 44.0
53.01799 252.0
53.091816 184.0
53.138237 136.0
53.237511 164.0
53.274715 128.0
53.30732 160.0
53.325577 128.0
53.386147 376.0
53.443378 96.0
53.456474 200.0
53.529266 208.0
53.554028 172.0
53.577335 136.0
53.613766 200.0
53.683746 192.0
53.747932 128.0
53.788731 168.0
53.804859 120.0
54.056282 180.0
54.095802 88.0
54.145588 112.0
54.160236 148.0
54.174885 176.0
54.233501 172.0
54.289471 188.0
54.3479 132.0
54.35817 140.0
54.405144 116.0
54.47123 156.0
54.482983 152.0
54.556469 136.0
54.59029 184.0
54.61235 156.0
54.62706 200.0
54.718311 172.0
54.789009 184.0
55.072254 160.0
55.085548 76.0
55.107399 172.0
55.156483 120.0
55.202888 160.0
55.217106 200.0
55.305889 144.0
55.322174 88.0
55.394741 64.0
55.412518 148.0
55.477028 168.0
55.487633 236.0
55.511837 176.0
55.535568 144.0
55.61718 180.0
55.62912 184.0
55.652683 184.0
55.65815 168.0
55.773155 164.0
55.804375 136.0
55.81776 180.0
55.866844 152.0
55.884041 172.0
55.957634 140.0
56.01572 108.0
56.151367 180.0
56.170757 172.0
56.243881 196.0
56.323025 124.0
56.409698 116.0
56.447079 248.0
56.459042 56.0
56.536842 240.0
56.580254 136.0
56.626678 104.0
56.689602 248.0
56.728577 104.0
56.752563 180.0
56.76606 156.0
56.866585 216.0
57.00428 264.0
57.031815 132.0
57.042339 176.0
57.054363 160.0
57.113014 196.0
57.164173 140.0
57.280109 276.0
57.298187 148.0
57.319283 76.0
57.364281 216.0
57.431755 160.0
57.453484 200.0
57.628628 116.0
57.660458 132.0
57.684551 196.0
57.696644 128.0
57.752602 144.0
57.786137 216.0
57.861561 144.0
57.884277 124.0
57.902451 140.0
57.984268 120.0
58.064629 88.0
58.076763 116.0
58.111656 164.0
58.15263 128.0
58.163258 168.0
58.242222 136.0
58.269566 140.0
58.281723 164.0
58.426266 188.0
58.444427 176.0
58.456604 76.0
58.584507 160.0
58.631821 160.0
58.659184 140.0
58.682434 168.0
58.700352 76.0
58.749161 140.0
58.784256 188.0
58.82547 80.0
58.840736 132.0
58.93544 156.0
59.030216 56.0
59.069984 176.0
59.134254 160.0
59.198559 172.0
59.244511 168.0
59.267494 80.0
59.298145 176.0
59.572826 84.0
59.668118 168.0
59.712711 92.0
59.823509 120.0
59.837364 60.0
59.858921 200.0
59.90205 140.0
59.976017 128.0
60.011398 156.0
60.256897 168.0
60.267715 240.0
60.298622 192.0
60.309444 204.0
60.36665 192.0
60.442451 160.0
60.52116 180.0
60.56012 120.0
60.580257 164.0
60.59885 164.0
60.653091 188.0
60.764755 204.0
60.77636 92.0
60.788033 144.0
60.829941 152.0
60.940212 80.0
61.007046 200.0
61.042133 156.0
61.095695 120.0
61.125259 208.0
61.158382 128.0
61.175808 236.0
61.224895 128.0
61.318378 44.0
61.332409 180.0
61.395878 244.0
61.436893 168.0
61.474342 108.0
61.613319 140.0
61.646133 112.0
61.680519 188.0
61.697716 52.0
61.713352 200.0
61.807205 196.0
61.890171 144.0
61.965359 188.0
61.996696 64.0
62.028046 192.0
62.051563 164.0
62.076653 176.0
62.144108 44.0
62.169216 204.0
62.370262 136.0
62.412712 140.0
62.463043 136.0
62.477203 160.0
62.491364 120.0
62.516541 144.0
62.573212 164.0
62.609428 224.0
62.625092 144.0
62.661415 84.0
62.707115 144.0
62.812019 204.0
63.160301 80.0
63.244167 208.0
63.30489 184.0
63.315418 192.0
63.362942 180.0
63.396538 100.0
63.432678 152.0
63.488174 212.0
63.499275 152.0
63.588131 132.0
63.656399 168.0
63.70723 148.0
63.773972 108.0
63.816898 128.0
63.856655 244.0
63.905972 136.0
63.944168 188.0
64.098656 124.0
64.157631 196.0
64.210556 152.0
64.22142 136.0
64.272469 176.0
64.344803 140.0
64.363464 164.0
64.411377 156.0
64.523247 168.0
64.566383 160.0
64.588814 136.0
64.621536 116.0
64.645386 360.0
64.889908 144.0
64.936409 180.0
65.019844 264.0
65.077637 120.0
65.171944 192.0
65.236702 144.0
65.302635 180.0
65.349289 140.0
65.521568 184.0
65.652008 200.0
65.68924 120.0
65.74733 44.0
65.790527 184.0
65.828049 44.0
65.850662 168.0
65.867905 172.0
65.913673 92.0
65.979942 152.0
66.012749 180.0
66.10611 208.0
66.123917 148.0
66.140106 80.0
66.16864 172.0
66.178963 236.0
66.246986 148.0
66.355576 200.0
66.496712 180.0
66.521057 96.0
66.546555 176.0
66.560028 184.0
66.662369 92.0
66.678627 164.0
66.704636 140.0
66.877541 244.0
67.043198 228.0
67.093727 116.0
67.189957 200.0
67.261765 36.0
67.359749 184.0
67.453865 268.0
67.485596 56.0
67.508492 124.0
67.529137 180.0
67.578835 56.0
67.611557 172.0
67.623016 196.0
67.642662 180.0
67.721207 224.0
67.788437 196.0
67.92057 172.0
68.021347 168.0
68.118355 224.0
68.154381 52.0
68.177391 36.0
68.19001 224.0
68.434021 196.0
68.445549 76.0
68.468605 40.0
68.488365 164.0
68.501549 96.0
68.518021 228.0
68.532852 180.0
68.616913 220.0
68.641647 172.0
68.666389 124.0
68.742279 136.0
68.786842 72.0
68.809959 172.0
68.826469 176.0
68.847939 156.0
68.91732 164.0
68.970207 128.0
68.990044 144.0
69.032349 180.0
69.052887 176.0
69.130646 120.0
69.157127 432.0
69.253166 148.0
69.480286 132.0
69.546661 192.0
69.593147 168.0
69.735542 220.0
69.789223 176.0
69.816063 200.0
69.887367 176.0
69.91066 92.0
69.935631 92.0
70.055527 152.0
70.070526 160.0
70.135521 172.0
70.160156 180.0
70.178864 196.0
70.223892 92.0
70.287598 152.0
70.327347 176.0
70.377434 96.0
70.489357 108.0
70.599693 188.0
70.626457 188.0
70.703423 108.0
70.780434 144.0
70.815605 56.0
70.90242 196.0
71.031845 104.0
71.046944 224.0
71.115746 148.0
71.161072 208.0
71.189117 192.0
71.265213 128.0
71.394653 140.0
71.420174 188.0
71.505699 152.0
71.556206 156.0
71.610092 200.0
71.677483 152.0
71.770195 188.0
71.834244 140.0
71.851158 188.0
71.910225 164.0
71.952431 104.0
71.979446 192.0
72.023361 152.0
72.074043 160.0
72.126442 176.0
72.148415 172.0
72.199142 228.0
72.336205 160.0
72.405632 152.0
72.425957 220.0
72.471695 192.0
72.503899 180.0
72.531013 192.0
72.544579 112.0
72.564926 200.0
72.58358 156.0
72.648033 280.0
72.683662 100.0
72.698936 156.0
72.911232 176.0
72.935028 132.0
73.042351 216.0
73.064278 168.0
73.084694 164.0
73.100006 232.0
73.149368 116.0
73.219185 148.0
73.244736 172.0
73.289032 152.0
73.360619 164.0
73.59436 216.0
73.642181 180.0
73.751915 220.0
73.896912 176.0
73.924286 148.0
73.963654 184.0
74.049271 112.0
74.08696 184.0
74.126366 112.0
74.198364 200.0
74.229225 104.0
74.260101 100.0
74.388794 280.0
74.407684 48.0
74.440308 124.0
74.462639 168.0
74.479813 100.0
74.491837 328.0
74.503479 180.0
74.541664 136.0
74.56916 148.0
74.691246 276.0
74.722214 204.0
74.741142 108.0
74.875427 136.0
74.913322 196.0
75.04776 112.0
75.11377 132.0
75.178864 100.0
75.194397 120.0
75.272087 60.0
75.29837 220.0
75.413765 136.0
75.472542 56.0
75.673264 92.0
75.741562 184.0
75.794518 184.0
75.834373 136.0
75.879448 204.0
75.941879 100.0
75.966171 204.0
75.983521 156.0
76.020966 172.0
76.146858 128.0
76.171021 156.0
76.353531 136.0
76.409195 172.0
76.510139 152.0
76.539742 216.0
76.557159 272.0
76.586769 172.0
76.621613 108.0
76.663429 72.0
76.682602 204.0
76.720528 276.0
76.723167 208.0
76.766289 156.0
76.804665 124.0
76.942528 212.0
77.040337 128.0
77.115479 144.0
77.147835 188.0
77.215141 156.0
77.234383 104.0
77.290367 148.0
77.335869 188.0
77.549568 64.0
77.58989 152.0
77.614433 176.0
77.7425 184.0
77.907555 212.0
77.933914 88.0
77.956757 116.0
78.013008 144.0
78.051689 112.0
78.078064 168.0
78.109726 216.0
78.127319 48.0
78.187149 188.0
78.299828 184.0
78.387917 164.0
78.403778 216.0
78.447845 180.0
78.493477 196.0
78.537788 180.0
78.712517 168.0
78.767265 204.0
78.889206 240.0
78.933411 36.0
78.963646 208.0
78.988235 184.0
79.002388 120.0
79.090874 180.0
79.18586 236.0
79.328255 64.0
79.386765 136.0
79.422241 144.0
79.434662 164.0
79.510956 124.0
79.692093 220.0
79.724083 136.0
79.886879 216.0
79.91436 184.0
79.996231 168.0
80.017593 168.0
80.074585 44.0
80.087051 140.0
80.152969 168.0
80.186836 184.0
80.215355 116.0
80.247444 144.0
80.297379 188.0
80.313431 72.0
80.479408 160.0
80.552635 160.0
80.645561 184.0
80.774307 136.0
80.808304 204.0
80.922852 180.0
80.960457 40.0
80.981575 152.0
81.064369 212.0
81.146828 176.0
81.272385 120.0
81.314964 204.0
81.346535 140.0
81.367516 148.0
81.411163 196.0
81.466301 148.0
81.550758 92.0
81.577721 120.0
81.661324 148.0
81.695518 272.0
81.783478 180.0
81.818802 168.0
81.849411 132.0
81.872826 176.0
81.88723 128.0
81.900352 152.0
81.914253 136.0
81.997139 164.0
82.054825 248.0
82.097244 160.0
82.159431 264.0
82.184692 112.0
82.211761 204.0
82.267723 116.0
82.2948 216.0
82.365242 52.0
82.509819 120.0
82.533325 112.0
82.562256 124.0
82.679855 208.0
82.773994 36.0
82.789742 144.0
82.864571 80.0
82.998703 180.0
83.26548 128.0
83.329063 152.0
83.383575 128.0
83.536324 136.0
83.667358 152.0
83.703773 224.0
83.827652 180.0
83.840408 100.0
83.893272 128.0
84.004517 144.0
84.060539 176.0
84.103058 144.0
84.185226 252.0
84.208969 120.0
84.294838 196.0
84.344185 164.0
84.369774 140.0
84.38623 160.0
84.420975 216.0
84.479507 120.0
84.501465 72.0
84.598465 76.0
84.626129 184.0
84.705498 184.0
84.776146 136.0
84.790802 156.0
84.882225 120.0
84.923737 80.0
84.948502 164.0
85.014557 144.0
85.029243 132.0
85.047592 60.0
85.185318 132.0
85.233093 112.0
85.494232 192.0
85.516319 100.0
85.601013 184.0
85.661789 140.0
85.846115 148.0
85.886688 152.0
86.025909 168.0
86.135895 184.0
86.163612 184.0
86.211655 144.0
86.224594 152.0
86.261559 88.0
86.344948 168.0
86.472435 184.0
86.566856 188.0
86.585381 424.0
86.653923 112.0
86.668747 232.0
86.752151 172.0
86.815193 56.0
86.861565 56.0
86.935448 200.0
87.026749 116.0
87.073174 212.0
87.08989 308.0
87.13076 112.0
87.237556 224.0
87.258118 368.0
87.38176 156.0
87.459923 144.0
87.595863 144.0
87.692764 160.0
87.741234 216.0
87.793068 160.0
87.821419 200.0
87.89978 124.0
87.918442 112.0
87.976311 236.0
88.047264 148.0
88.088364 120.0
88.120125 220.0
88.153755 172.0
88.204224 76.0
88.385643 156.0
88.441795 68.0
88.507095 168.0
88.535408 144.0
88.56163 100.0
88.599098 160.0
88.615715 120.0
88.677803 192.0
88.758423 88.0
88.847984 64.0
88.876602 188.0
88.936653 188.0
88.977959 108.0
89.036171 148.0
89.06382 228.0
89.088768 172.0
89.229271 148.0
89.263573 152.0
89.284256 160.0
89.314354 196.0
89.348221 248.0
89.400902 172.0
89.457375 212.0
89.528923 44.0
89.604279 172.0
89.625 156.0
89.704163 56.0
89.719246 216.0
89.84848 184.0
89.877686 56.0
89.903008 216.0
89.919205 144.0
89.934303 176.0
89.962616 152.0
90.019264 156.0
90.101761 196.0
90.130722 164.0
90.1912 144.0
90.215775 208.0
90.25737 144.0
90.287628 172.0
90.600845 124.0
90.637863 128.0
90.882477 248.0
90.967888 212.0
90.994469 160.0
91.052483 664.0
91.087524 184.0
91.209145 140.0
91.285507 148.0
91.336548 40.0
91.532593 220.0
91.55735 276.0
91.572586 132.0
91.591629 188.0
91.612587 168.0
91.658081 164.0
91.694527 112.0
91.725021 160.0
91.738373 160.0
91.770782 144.0
91.837532 176.0
91.877594 124.0
91.961555 112.0
92.054092 188.0
92.08567 160.0
92.121964 188.0
92.169731 160.0
92.194572 196.0
92.209862 104.0
92.24427 180.0
92.271034 164.0
92.345619 204.0
92.387703 168.0
92.406837 196.0
92.437454 148.0
92.471901 84.0
92.502533 136.0
92.536987 152.0
92.565994 136.0
92.596359 188.0
92.646164 108.0
92.665321 164.0
92.682564 164.0
92.705566 192.0
92.85511 188.0
92.895393 132.0
92.950409 148.0
92.966385 160.0
92.989418 84.0
93.066101 484.0
93.102692 144.0
93.275139 252.0
93.312157 180.0
93.410507 172.0
93.639305 96.0
93.693237 208.0
93.716362 196.0
93.734642 164.0
93.79538 136.0
93.882149 172.0
93.928436 212.0
93.974739 124.0
93.994041 128.0
94.019127 44.0
94.065231 840.0
94.090553 180.0
94.113716 104.0
94.334183 224.0
94.376511 240.0
94.405518 472.0
94.562462 172.0
94.577721 172.0
94.637741 260.0
94.819839 196.0
94.842888 160.0
94.876053 76.0
94.934227 184.0
94.963318 92.0
95.046745 120.0
95.066147 224.0
95.081673 156.0
95.159683 216.0
95.315758 188.0
95.367195 104.0
95.392021 192.0
95.399406 148.0
95.51693 168.0
95.546112 152.0
95.639519 120.0
95.67086 160.0
95.697929 184.0
95.731033 44.0
95.750504 316.0
95.82843 148.0
95.857658 148.0
95.908333 144.0
96.044785 168.0
96.118973 164.0
96.144417 108.0
96.179474 204.0
96.230232 232.0
96.366959 168.0
96.387978 180.0
96.43927 156.0
96.478371 200.0
96.587883 172.0
96.658318 200.0
96.692131 136.0
96.81102 216.0
96.842354 136.0
96.861938 164.0
96.924637 216.0
96.952072 144.0
96.981476 164.0
97.00074 164.0
97.068474 344.0
97.171707 132.0
97.193291 80.0
97.238426 124.0
97.263947 176.0
97.314987 92.0
97.458382 124.0
97.483925 132.0
97.571106 148.0
97.61171 240.0
97.824203 176.0
97.859642 152.0
97.912819 68.0
97.934219 208.0
97.959564 196.0
97.972305 180.0
98.039383 216.0
98.058617 208.0
98.135498 180.0
98.194664 200.0
98.208473 360.0
98.234116 144.0
98.352516 104.0
98.388054 188.0
98.415695 104.0
98.437416 140.0
98.613251 96.0
98.690353 144.0
98.757599 160.0
98.795181 164.0
98.828819 76.0
98.981239 128.0
99.04081 156.0
99.09613 60.0
99.121887 136.0
99.234879 256.0
99.278503 92.0
99.321686 176.0
99.38166 192.0
99.423332 168.0
99.546417 112.0
99.593025 224.0
99.641762 44.0
99.72921 128.0
99.766975 172.0
99.790833 96.0
99.833336 172.0
99.852486 188.0
99.997734 200.0
100.310471 248.0
100.338379 200.0
100.384239 220.0
100.444641 228.0
100.479988 140.0
100.545845 112.0
100.56543 192.0
100.619698 176.0
100.711563 120.0
100.753517 48.0
100.791481 96.0
100.951065 116.0
101.021286 124.0
101.092567 164.0
101.223572 184.0
101.25161 164.0
101.41391 128.0
101.429947 160.0
101.451996 252.0
101.466988 252.0
101.566612 128.0
101.638527 56.0
101.656593 52.0
101.70858 204.0
101.734871 164.0
101.809166 128.0
101.893539 56.0
102.006081 164.0
102.048302 228.0
102.066399 84.0
102.092545 168.0
102.113091 148.0
102.175018 164.0
102.201172 112.0
102.428276 180.0
102.485092 88.0
102.601997 124.0
102.664505 156.0
102.737122 212.0
102.771423 132.0
102.89064 196.0
102.970306 140.0
103.053017 1740.0
103.183472 96.0
103.197624 108.0
103.21582 232.0
103.278519 188.0
103.31089 36.0
103.450531 140.0
103.480896 132.0
103.511269 180.0
103.556664 184.0
103.572029 168.0
103.767319 212.0
103.851761 176.0
103.894363 112.0
104.018158 120.0
104.058037 176.0
104.133904 196.0
104.166405 108.0
104.308182 228.0
104.319977 56.0
104.325958 164.0
104.420494 180.0
104.52832 216.0
104.746834 224.0
104.766548 108.0
104.791 200.0
104.888824 188.0
104.903091 172.0
104.943871 192.0
105.007088 144.0
105.032547 340.0
105.047882 132.0
105.06926 1680.0
105.184616 184.0
105.200943 224.0
105.30088 184.0
105.325294 188.0
105.3582 160.0
105.468552 200.0
105.543922 116.0
105.699669 180.0
105.726273 160.0
105.787682 176.0
105.804955 228.0
106.06517 708.0
106.119591 80.0
106.145332 224.0
106.1688 176.0
106.204758 136.0
106.228287 148.0
106.316521 240.0
106.367836 176.0
106.419159 188.0
106.55883 80.0
106.589111 168.0
106.671867 144.0
106.717102 144.0
106.75 148.0
106.787025 152.0
106.853165 184.0
107.029869 156.0
107.045822 456.0
107.066086 164.0
107.083336 308.0
107.149338 116.0
107.172005 60.0
107.186424 72.0
107.217339 136.0
107.328659 248.0
107.343094 120.0
107.380219 180.0
107.481308 176.0
107.547356 136.0
107.617546 148.0
107.733208 160.0
107.816818 156.0
107.840668 148.0
107.861336 160.0
107.90889 180.0
107.936966 304.0
107.966789 176.0
108.010223 148.0
108.04882 116.0
108.078239 544.0
108.150932 264.0
108.172501 48.0
108.225464 192.0
108.269234 180.0
108.312454 116.0
108.368393 144.0
108.424339 108.0
108.563248 188.0
108.606804 84.0
108.629623 208.0
108.660744 52.0
108.718849 148.0
108.749977 132.0
108.82679 156.0
108.903633 156.0
108.926483 176.0
108.982582 124.0
109.062134 300.0
109.086426 204.0
109.099762 152.0
109.282005 284.0
109.367332 216.0
109.402718 152.0
109.458939 140.0
109.644356 172.0
109.713142 32.0
109.72982 132.0
109.871124 208.0
110.05854 136.0
110.092972 272.0
110.109619 188.0
110.278862 132.0
110.356216 144.0
110.391762 172.0
110.508911 116.0
110.588432 132.0
110.609367 248.0
110.698784 212.0
110.715538 136.0
110.740707 288.0
110.864899 220.0
111.013748 176.0
111.038918 120.0
111.08297 180.0
111.101242 96.0
111.162704 164.0
111.259254 180.0
111.286552 160.0
111.315948 164.0
111.364258 384.0
111.393661 212.0
111.434746 188.0
111.486115 140.0
111.544968 196.0
111.582809 144.0
111.608047 148.0
111.649475 160.0
111.765808 184.0
111.828949 84.0
111.866837 84.0
111.916222 148.0
111.934982 228.0
111.988976 116.0
112.02153 152.0
112.054276 168.0
112.071915 284.0
112.08799 200.0
112.113281 152.0
112.210251 116.0
112.248207 136.0
112.322021 192.0
112.404312 80.0
112.442299 176.0
112.469734 148.0
112.507431 192.0
112.541519 140.0
112.648155 164.0
112.742203 152.0
112.936722 156.0
113.008652 112.0
113.05098 144.0
113.065796 148.0
113.08696 112.0
113.10601 128.0
113.139885 220.0
113.190697 312.0
113.34214 192.0
113.366531 160.0
113.411041 76.0
113.657059 168.0
113.734726 228.0
113.924583 92.0
113.956451 196.0
114.0093 184.0
114.030838 180.0
114.081749 160.0
114.084869 152.0
114.093163 224.0
114.169029 140.0
114.24456 164.0
114.28334 180.0
114.445679 192.0
114.490402 72.0
114.601616 192.0
114.643791 172.0
114.686424 192.0
114.70134 160.0
114.746117 152.0
114.865547 128.0
115.017471 144.0
115.053162 6084.0
115.149437 104.0
115.16555 160.0
115.189896 132.0
115.217957 220.0
115.264809 124.0
115.309685 96.0
115.353081 200.0
115.38031 216.0
115.615532 136.0
115.676796 116.0
115.873032 176.0
115.958214 236.0
115.981796 136.0
116.030006 164.0
116.055229 1684.0
116.109375 196.0
116.171043 208.0
116.209129 148.0
116.243736 156.0
116.372253 128.0
116.419495 152.0
116.506035 176.0
116.634361 176.0
116.649406 144.0
116.685471 176.0
116.80854 144.0
116.896759 216.0
116.926888 152.0
116.946259 208.0
117.068474 12004.0
117.165916 96.0
117.189613 112.0
117.204697 44.0
117.435547 52.0
117.461266 152.0
117.534622 128.0
117.595055 72.0
117.627434 124.0
117.774269 204.0
117.815315 124.0
117.895271 116.0
117.922676 164.0
117.983894 124.0
118.022812 176.0
118.069519 1056.0
118.108238 44.0
118.13961 188.0
118.17968 160.0
118.208847 40.0
118.249969 84.0
118.285202 160.0
118.30542 52.0
118.325272 112.0
118.466515 100.0
118.504959 236.0
118.52935 132.0
118.678917 108.0
118.730965 180.0
118.750481 156.0
118.791702 88.0
118.832924 180.0
118.906708 68.0
118.945778 204.0
119.026108 176.0
119.046288 384.0
119.081818 676.0
119.115158 188.0
119.18251 128.0
119.30191 184.0
119.352058 72.0
119.394897 224.0
119.478218 192.0
119.508751 228.0
119.577286 144.0
119.602257 156.0
119.621849 168.0
119.64798 192.0
119.741615 128.0
119.778641 136.0
119.900665 148.0
119.966057 72.0
119.998764 124.0
120.048103 176.0
120.080475 744.0
120.104385 120.0
120.19944 156.0
120.326042 172.0
120.371895 96.0
120.440865 164.0
120.524811 104.0
120.579445 152.0
120.616608 52.0
120.675636 128.0
120.769676 184.0
120.835304 172.0
120.984131 60.0
121.062119 228.0
121.079422 176.0
121.225075 56.0
121.244797 136.0
121.382912 144.0
121.499168 152.0
121.606697 252.0
121.657188 152.0
121.718666 64.0
121.740623 164.0
121.819702 172.0
121.843864 96.0
121.88781 48.0
121.986717 76.0
122.057076 348.0
122.09446 168.0
122.160454 52.0
122.226456 160.0
122.247192 180.0
122.351921 120.0
122.411369 204.0
122.48185 260.0
122.651527 140.0
122.691727 224.0
122.748543 144.0
122.799263 208.0
122.8433 404.0
122.883095 204.0
123.034889 160.0
123.073883 156.0
123.114883 112.0
123.194397 100.0
123.227539 164.0
123.249634 124.0
123.326988 128.0
123.395523 112.0
123.475006 212.0
123.570251 208.0
123.636642 140.0
123.734039 192.0
123.851822 196.0
123.909012 188.0
124.048637 180.0
124.072891 144.0
124.108498 288.0
124.321671 128.0
124.419128 64.0
124.487968 92.0
124.619026 196.0
124.876907 60.0
124.970345 172.0
125.028206 112.0
125.054916 160.0
125.228592 216.0
125.277077 188.0
125.382324 176.0
125.424675 104.0
125.451431 112.0
125.484871 148.0
125.518318 200.0
125.576302 72.0
125.591919 92.0
125.630478 196.0
125.658844 216.0
125.752571 160.0
125.861969 44.0
125.899933 228.0
125.915565 56.0
125.95237 224.0
125.980347 112.0
126.033966 144.0
126.103249 116.0
126.168076 116.0
126.237396 72.0
126.304497 140.0
126.409653 152.0
126.472321 128.0
126.577545 184.0
126.593224 160.0
126.69178 132.0
126.761063 152.0
126.853508 144.0
127.05294 1808.0
127.131271 116.0
127.15432 416.0
127.371521 104.0
127.423195 240.0
127.627731 80.0
127.719948 104.0
127.791939 144.0
127.827942 104.0
127.843697 188.0
128.050797 2340.0
128.113098 56.0
128.271652 164.0
128.303207 140.0
128.610016 152.0
128.657425 204.0
128.704834 148.0
128.752258 276.0
128.871994 140.0
129.068436 1452.0
129.10257 204.0
129.127457 236.0
129.263199 172.0
129.35675 132.0
129.399185 160.0
129.48732 232.0
129.60849 240.0
129.675934 180.0
129.818222 132.0
129.886261 152.0
129.945251 200.0
129.961136 152.0
129.988358 140.0
130.064087 5772.0
130.149536 196.0
130.184692 180.0
130.206314 168.0
130.244919 256.0
130.301712 148.0
130.3358 232.0
130.358521 144.0
130.38353 56.0
130.408524 152.0
130.450302 224.0
130.499466 212.0
130.554047 88.0
130.574509 188.0
130.594986 136.0
130.661209 244.0
130.915894 104.0
130.956894 124.0
130.988785 116.0
131.046921 316.0
131.069077 784.0
131.12323 112.0
131.155136 68.0
131.212128 64.0
131.244049 144.0
131.309341 152.0
131.358093 124.0
131.394592 116.0
131.442505 188.0
131.499557 164.0
131.522385 80.0
131.581741 160.0
131.746185 160.0
131.819305 276.0
131.851303 84.0
131.871872 72.0
131.97879 244.0
132.052505 184.0
132.079376 1492.0
132.14859 200.0
132.169174 180.0
132.203506 132.0
132.345428 52.0
132.368332 120.0
132.519516 176.0
132.537842 96.0
132.592285 260.0
132.770508 196.0
132.874908 120.0
132.962112 68.0
132.996536 96.0
133.077484 324.0
133.10173 328.0
133.244568 156.0
133.268997 164.0
133.3181 180.0
133.336487 176.0
133.515808 108.0
133.591721 148.0
133.623932 124.0
133.642334 136.0
133.879669 160.0
133.976196 112.0
133.999237 132.0
134.022278 196.0
134.038406 168.0
134.06073 180.0
134.095062 5672.0
134.126556 456.0
134.15596 164.0
134.174393 180.0
134.208984 108.0
134.24588 196.0
134.35199 152.0
134.451202 132.0
134.485825 400.0
134.647461 192.0
134.746796 56.0
134.79686 232.0
134.839218 248.0
134.901642 56.0
134.961746 120.0
135.080963 604.0
135.099136 788.0
135.308823 104.0
135.33165 204.0
135.3806 124.0
135.408401 148.0
135.452408 148.0
135.488815 184.0
135.556671 160.0
135.603027 140.0
135.626205 160.0
135.647064 124.0
135.837219 160.0
135.915527 256.0
135.953247 64.0
135.971802 204.0
136.075165 768.0
136.110184 680.0
136.176132 92.0
136.194717 188.0
136.217941 148.0
136.234207 48.0
136.281738 192.0
136.396881 216.0
136.417801 140.0
136.459396 148.0
136.494522 200.0
136.62944 204.0
136.645721 216.0
136.712814 120.0
136.864517 156.0
137.067184 204.0
137.209366 40.0
137.325195 184.0
137.386612 80.0
137.463608 32.0
137.49057 232.0
137.568756 172.0
137.664383 112.0
137.729782 140.0
137.813889 200.0
137.855957 176.0
137.891006 184.0
138.053436 148.0
138.088394 736.0
138.302673 172.0
138.333115 160.0
138.377594 140.0
138.5392 128.0
138.597778 172.0
138.7173 160.0
138.736053 152.0
138.947144 196.0
139.097336 176.0
139.239456 176.0
139.287552 172.0
139.343719 228.0
139.372131 136.0
139.426178 176.0
139.506104 200.0
139.617325 184.0
139.852661 136.0
139.979034 192.0
140.019073 64.0
140.047333 124.0
140.063828 156.0
140.153351 196.0
140.440979 236.0
140.472351 228.0
140.497604 100.0
140.535355 196.0
140.622665 172.0
140.68071 164.0
140.710007 84.0
140.738342 188.0
140.776138 164.0
140.804474 140.0
140.820999 112.0
140.903687 192.0
140.962753 228.0
141.026566 120.0
141.048538 248.0
141.070007 140.0
141.156601 112.0
141.23938 168.0
141.267776 76.0
141.284546 232.0
141.324554 160.0
141.360046 112.0
141.445267 104.0
141.57785 176.0
141.599167 228.0
141.629959 96.0
141.667862 204.0
141.731842 168.0
141.893021 184.0
141.947556 288.0
141.980453 188.0
142.037689 136.0
142.062988 428.0
142.080994 224.0
142.134964 188.0
142.223587 200.0
142.286865 172.0
142.42424 180.0
142.526764 156.0
142.550858 144.0
142.600449 164.0
142.626587 176.0
142.79541 220.0
142.959579 44.0
142.978622 100.0
143.071823 11036.0
143.10994 168.0
143.136078 112.0
143.216721 64.0
143.290573 56.0
143.33345 128.0
143.373978 204.0
143.393036 188.0
143.428787 224.0
143.464554 108.0
143.486008 100.0
143.557053 204.0
143.574234 60.0
143.626358 212.0
143.738297 224.0
143.747009 172.0
143.758789 124.0
143.794754 180.0
143.83432 208.0
143.861847 120.0
143.895599 108.0
143.913239 360.0
143.939026 156.0
143.973251 336.0
144.010071 164.0
144.028534 192.0
144.080536 152956.0
144.145859 172.0
144.179337 268.0
144.225967 92.0
144.26181 128.0
144.292252 116.0
144.328018 144.0
144.350967 152.0
144.39003 84.0
144.409348 172.0
144.454437 212.0
144.472931 1444.0
144.510483 216.0
144.537674 104.0
144.588974 72.0
144.611176 172.0
144.627396 108.0
144.662811 80.0
144.695969 124.0
144.721298 52.0
144.773636 136.0
144.838654 112.0
144.863205 176.0
144.900818 72.0
144.957123 108.0
144.987503 108.0
145.018372 60.0
145.083298 19324.0
145.11528 132.0
145.166214 96.0
145.190994 48.0
145.222305 156.0
145.249588 84.0
145.267761 116.0
145.294144 28.0
145.321823 164.0
145.404526 136.0
145.440536 36.0
145.457336 72.0
145.474152 64.0
145.505356 60.0
145.54509 124.0
145.586075 196.0
145.606216 56.0
145.658096 80.0
145.705338 76.0
145.772125 68.0
145.805634 100.0
145.836685 56.0
145.868988 128.0
145.893616 80.0
145.914459 176.0
145.99498 168.0
146.034393 56.0
146.061523 512.0
146.091934 1896.0
146.121277 108.0
146.150894 112.0
146.168991 76.0
146.187241 148.0
146.212097 148.0
146.235641 92.0
146.252869 76.0
146.288116 164.0
146.32431 136.0
146.342941 180.0
146.402283 212.0
146.474548 36.0
146.496231 60.0
146.568512 64.0
146.60466 60.0
146.621536 56.0
146.669739 128.0
146.787399 80.0
146.809586 92.0
146.930191 92.0
146.956726 36.0
147.048431 104.0
147.078247 148.0
147.097931 400.0
147.195709 100.0
147.362381 120.0
147.405869 60.0
147.427628 44.0
147.998535 100.0
148.073486 360.0
148.100906 160.0
148.235916 124.0
148.257736 184.0
148.444412 52.0
148.471085 48.0
148.565689 212.0
148.601196 104.0
148.665176 176.0
148.793823 44.0
148.975967 200.0
149.007553 92.0
149.05896 444.0
149.096909 172.0
149.116913 80.0
149.194702 140.0
149.332062 132.0
149.44278 144.0
149.464691 248.0
149.542572 36.0
149.839661 144.0
149.963943 104.0
150.088623 404.0
150.124863 148.0
150.185837 76.0
150.237076 140.0
150.398132 172.0
150.529968 156.0
150.598358 36.0
150.911179 140.0
151.071472 536.0
151.439789 132.0
151.83931 164.0
151.986496 96.0
152.018402 84.0
152.074402 132.0
152.105362 2160.0
152.266373 52.0
152.286011 80.0
152.325317 104.0
152.376907 44.0
152.706329 100.0
152.775208 52.0
152.87117 64.0
152.888397 48.0
153.01886 220.0
153.069702 228.0
153.087814 212.0
153.106613 328.0
153.198654 128.0
153.368683 140.0
153.484558 184.0
153.521545 140.0
153.627625 52.0
153.661057 152.0
153.731247 64.0
153.770737 168.0
153.788025 156.0
153.816376 108.0
153.913925 44.0
153.94603 72.0
154.061752 456.0
154.086746 108.0
154.148605 124.0
154.279602 64.0
154.371094 36.0
154.481827 212.0
154.611069 76.0
154.628403 196.0
154.719986 116.0
154.776932 152.0
154.843811 124.0
154.861145 136.0
154.923065 156.0
155.058807 2088.0
155.289948 96.0
155.364365 144.0
155.416473 104.0
155.473557 44.0
155.848526 312.0
155.928055 156.0
155.987717 116.0
156.034943 40.0
156.07988 1244.0
156.356888 124.0
156.51767 52.0
156.819122 136.0
156.861496 48.0
156.878937 120.0
156.99614 156.0
157.058777 176.0
157.090424 828.0
157.145813 124.0
157.200378 156.0
157.235306 88.0
157.244217 156.0
157.335495 124.0
157.395416 116.0
157.705215 72.0
157.730209 40.0
157.810211 108.0
157.970291 140.0
158.056412 296.0
158.095459 2016.0
158.125427 60.0
158.23056 136.0
158.608856 184.0
158.661499 128.0
158.744247 36.0
158.76181 56.0
159.055374 156.0
159.093811 268.0
159.251221 116.0
159.28891 60.0
159.364273 116.0
159.604965 60.0
159.753983 72.0
159.884827 148.0
160.074646 560.0
160.113113 192.0
160.27153 144.0
160.508911 236.0
160.554993 136.0
160.726547 132.0
160.85022 116.0
160.903229 148.0
161.055756 380.0
161.079788 180.0
161.089691 164.0
161.208878 92.0
161.695831 96.0
161.815964 140.0
161.932465 120.0
162.019348 160.0
162.090851 7972.0
162.122955 180.0
162.155426 184.0
162.236404 144.0
162.266968 172.0
162.345581 72.0
162.497772 120.0
162.776993 64.0
162.820175 216.0
163.07515 976.0
163.094543 652.0
163.554993 140.0
163.605911 68.0
163.830032 92.0
163.937042 72.0
164.036453 64.0
164.071747 204.0
164.103302 384.0
164.176697 156.0
164.19455 80.0
164.250656 132.0
164.299133 116.0
164.34761 184.0
164.510956 180.0
164.546707 116.0
164.592667 112.0
164.748474 148.0
164.850677 160.0
165.07753 152.0
165.091522 304.0
165.211212 288.0
165.244461 100.0
165.377548 168.0
165.536285 40.0
166.081314 332.0
166.12059 120.0
166.873184 28.0
167.027496 80.0
167.07486 512.0
167.120117 96.0
167.251373 124.0
167.271957 68.0
167.349197 156.0
167.439331 68.0
167.490845 196.0
167.864563 40.0
167.941132 204.0
168.079147 1632.0
168.269684 204.0
168.874405 136.0
168.895096 100.0
169.003754 152.0
169.084625 1184.0
169.166809 96.0
169.221191 44.0
169.329956 124.0
169.366211 80.0
169.590179 148.0
169.762772 56.0
170.061127 176.0
170.093506 840.0
170.328598 64.0
170.380554 112.0
170.710663 104.0
170.8069 112.0
170.86673 100.0
170.921371 208.0
171.098434 564.0
171.348404 44.0
171.603836 128.0
171.650772 128.0
171.708145 228.0
171.770752 108.0
171.911652 244.0
171.979507 192.0
172.079956 176.0
172.108383 360.0
172.177948 192.0
172.781784 48.0
172.847198 68.0
172.99115 68.0
173.069702 144.0
173.103745 140.0
173.208511 168.0
173.517761 76.0
173.974258 132.0
174.092957 772.0
174.297333 276.0
174.515503 156.0
174.891708 192.0
175.081177 276.0
175.089905 204.0
175.147141 152.0
175.769348 120.0
176.009567 196.0
176.067673 176.0
176.096725 148.0
176.424393 196.0
177.038284 112.0
177.09079 912.0
177.475525 180.0
177.547134 144.0
177.575684 68.0
177.632004 272.0
177.714249 84.0
177.939865 96.0
178.087051 372.0
178.170929 172.0
178.269257 124.0
178.351639 48.0
179.090149 148.0
179.381836 160.0
179.464493 100.0
179.659195 172.0
179.707214 204.0
179.765915 120.0
180.100449 6988.0
180.313416 72.0
180.370834 52.0
180.406967 104.0
180.457779 80.0
180.535324 180.0
180.701172 164.0
180.89119 44.0
181.049774 232.0
181.086411 792.0
181.142914 68.0
181.255447 148.0
181.357285 44.0
182.060257 168.0
182.096451 1784.0
182.170593 52.0
182.342361 52.0
182.388046 76.0
182.42569 96.0
182.463318 32.0
183.076691 140.0
183.099243 352.0
183.187286 176.0
183.35704 196.0
183.842499 108.0
184.067719 180.0
184.101105 524.0
184.161087 140.0
184.201614 188.0
184.439407 176.0
185.105423 240.0
185.194351 208.0
185.218735 164.0
185.362335 112.0
186.086578 92.0
186.107101 308.0
186.910202 212.0
187.141571 232.0
187.163345 132.0
187.209641 176.0
187.512054 224.0
187.574753 148.0
187.822906 224.0
187.872009 140.0
187.983887 64.0
188.002991 92.0
188.387985 76.0
188.464493 48.0
188.532166 156.0
188.86911 144.0
189.038757 160.0
189.089478 160.0
189.394684 168.0
189.956635 204.0
190.080109 128.0
190.173416 104.0
190.803375 392.0
190.949219 140.0
191.089951 180.0
191.383072 192.0
191.493225 60.0
191.683319 244.0
191.945206 232.0
192.02243 44.0
192.100296 2136.0
192.149323 192.0
192.174149 108.0
192.28212 64.0
192.596542 196.0
192.861816 116.0
193.086731 500.0
193.311432 184.0
193.517487 116.0
193.553482 164.0
193.769531 156.0
193.910858 128.0
193.946899 112.0
194.032837 100.0
194.115204 2768.0
194.157623 48.0
194.199219 56.0
194.276901 88.0
194.337936 56.0
194.532211 160.0
194.601624 160.0
194.679382 64.0
194.83493 56.0
194.921066 40.0
195.071152 176.0
195.101685 484.0
195.149002 220.0
195.193497 52.0
195.361496 60.0
195.555176 96.0
195.641464 208.0
195.789047 108.0
195.864258 96.0
195.92276 88.0
196.031418 96.0
196.062073 124.0
196.11058 1008.0
196.145706 44.0
196.321365 120.0
196.536163 116.0
196.706406 80.0
197.110153 248.0
197.371368 164.0
197.539185 132.0
197.93663 164.0
198.112717 356.0
198.281219 92.0
198.337265 128.0
198.811279 124.0
198.8983 204.0
199.086411 136.0
199.125198 208.0
199.254959 72.0
199.381409 80.0
199.578201 96.0
199.791962 256.0
199.845413 184.0
200.09874 48.0
200.135345 156.0
200.219818 140.0
200.741196 168.0
201.260422 156.0
201.42424 136.0
201.449661 80.0
201.703995 120.0
202.068817 180.0
202.103821 420.0
202.725769 264.0
202.76828 172.0
203.10672 168.0
203.256073 192.0
203.593903 228.0
203.90358 112.0
204.079407 536.0
204.117599 200.0
204.486649 68.0
204.580582 164.0
205.016388 156.0
205.086121 908.0
205.172256 264.0
205.387054 44.0
205.601044 80.0
205.621033 140.0
205.712372 40.0
205.942688 152.0
205.997055 140.0
206.093689 1156.0
206.112534 1176.0
206.550674 132.0
206.609741 64.0
206.704163 52.0
207.101181 1196.0
207.781555 192.0
208.025497 40.0
208.110504 1656.0
208.281067 224.0
208.301178 60.0
208.367264 152.0
208.416107 212.0
208.643173 68.0
208.809952 64.0
208.853104 180.0
208.873245 48.0
208.930771 156.0
209.079285 216.0
209.116867 1924.0
209.181152 88.0
209.224335 48.0
209.310715 56.0
209.552673 64.0
209.679474 152.0
210.090057 420.0
210.116699 512.0
210.189926 48.0
210.32225 212.0
210.397751 48.0
210.625885 160.0
210.816589 180.0
210.975571 52.0
211.128525 120.0
211.380508 52.0
211.487595 92.0
211.710541 60.0
211.797424 236.0
211.832184 124.0
211.868408 248.0
211.919098 108.0
211.953156 160.0
211.991379 200.0
212.002655 188.0
212.023315 196.0
212.064011 108.0
212.127609 38268.0
212.194229 88.0
212.213013 40.0
212.230728 196.0
212.264053 64.0
212.299789 112.0
212.332077 140.0
212.354996 148.0
212.384354 92.0
212.423569 80.0
212.574448 72.0
212.672119 160.0
212.746399 64.0
212.786148 56.0
212.843643 60.0
212.886688 108.0
212.909958 112.0
212.936493 160.0
212.969315 68.0
213.001266 52.0
213.033218 88.0
213.07193 172.0
213.094223 172.0
213.13028 5636.0
213.203033 136.0
213.241638 96.0
213.313278 128.0
213.457581 48.0
213.774673 48.0
213.838699 56.0
213.864899 44.0
213.911469 68.0
213.946411 48.0
213.969696 84.0
214.043884 56.0
214.132477 644.0
214.253174 60.0
214.272964 128.0
214.339447 68.0
214.412476 76.0
214.44162 92.0
214.470764 48.0
214.51741 140.0
214.590668 220.0
214.628204 124.0
214.666107 84.0
214.724319 96.0
214.747772 92.0
214.922821 196.0
215.080414 156.0
215.103775 108.0
215.124207 92.0
215.506805 76.0
215.693863 92.0
215.840042 72.0
215.932266 164.0
216.062332 52.0
216.090027 172.0
216.349152 68.0
216.4487 60.0
216.551208 64.0
217.0289 200.0
217.08522 584.0
217.240082 60.0
217.269409 40.0
217.598129 108.0
217.73909 48.0
217.90947 96.0
217.950607 48.0
218.093842 1044.0
218.159286 224.0
218.238678 36.0
218.262192 148.0
218.459259 72.0
218.685837 88.0
219.102356 1328.0
219.269028 36.0
219.779221 92.0
219.912018 32.0
220.003525 124.0
220.108841 2408.0
220.78067 44.0
220.830948 148.0
220.984772 96.0
221.026199 44.0
221.052841 84.0
221.115387 1032.0
221.180099 44.0
221.209702 60.0
221.274841 60.0
221.692505 156.0
221.858505 64.0
222.090622 160.0
222.121338 856.0
222.520126 196.0
222.555756 96.0
222.576538 104.0
222.894394 68.0
223.121887 852.0
223.471252 60.0
223.634933 68.0
223.736145 60.0
223.819519 136.0
223.962997 68.0
224.127319 8168.0
224.204803 48.0
224.251495 100.0
224.290253 88.0
224.349869 56.0
224.466156 96.0
225.015198 68.0
225.128372 1272.0
225.194366 100.0
225.292953 76.0
225.403503 60.0
225.517227 80.0
225.611069 36.0
225.684494 88.0
225.77121 60.0
226.097321 172.0
226.138626 1052.0
226.181122 68.0
226.303879 32.0
226.324829 144.0
226.480576 44.0
226.564026 56.0
226.615387 64.0
226.866821 188.0
226.906113 68.0
227.059052 92.0
227.081863 164.0
227.110046 120.0
227.275055 96.0
227.398102 116.0
227.860565 48.0
227.905624 168.0
228.122025 188.0
228.570175 124.0
228.874207 136.0
229.103119 152.0
230.044052 96.0
230.065186 52.0
230.092148 536.0
230.418549 32.0
231.101898 1212.0
231.386383 72.0
231.677139 112.0
231.761978 116.0
232.075287 148.0
232.108627 760.0
232.544418 76.0
232.920929 148.0
233.042465 152.0
233.115906 412.0
233.303848 72.0
233.33728 68.0
234.055374 132.0
234.088501 172.0
234.124832 2024.0
234.344757 44.0
234.379944 116.0
234.518463 96.0
235.100723 124.0
235.122284 784.0
235.45517 144.0
235.681229 68.0
235.971603 92.0
236.105499 156.0
236.128693 332.0
237.091995 116.0
237.139313 344.0
237.346436 148.0
237.38324 68.0
237.576477 104.0
238.125183 112.0
238.130783 132.0
238.14296 216.0
238.193527 28.0
238.463928 68.0
238.531555 104.0
238.559219 100.0
239.114594 168.0
239.150436 104.0
239.591736 176.0
240.030975 44.0
240.104996 284.0
242.055069 136.0
242.098419 120.0
242.792648 48.0
243.101654 276.0
243.239456 120.0
243.270493 124.0
243.366745 76.0
244.11618 304.0
244.233826 112.0
244.66951 132.0
244.778488 160.0
245.115997 996.0
245.280121 92.0
245.42041 80.0
246.124588 1360.0
246.175583 40.0
246.447357 92.0
246.953812 88.0
247.093048 156.0
247.130371 804.0
247.272964 140.0
247.445129 212.0
247.695679 80.0
248.101395 112.0
248.141571 2132.0
248.186569 76.0
248.2724 40.0
248.507675 144.0
248.532776 148.0
248.984833 176.0
249.05394 36.0
249.11058 308.0
249.147202 448.0
249.179718 100.0
249.465591 100.0
249.751755 64.0
249.883881 88.0
250.031784 68.0
250.080353 260.0
250.114395 132.0
250.148254 248.0
250.989487 28.0
251.090408 108.0
251.125092 172.0
251.52536 160.0
251.803711 100.0
252.135086 280.0
252.631897 52.0
252.777451 44.0
252.900879 72.0
253.071838 132.0
253.106659 96.0
253.139938 300.0
253.493134 160.0
253.930649 72.0
254.120987 192.0
255.10556 152.0
255.935974 140.0
256.105743 144.0
256.134308 148.0
256.732666 68.0
257.125061 156.0
257.338959 88.0
258.038696 140.0
258.125366 528.0
258.240173 144.0
259.093414 352.0
259.118805 140.0
260.106445 336.0
260.14151 1892.0
260.182129 92.0
260.660706 144.0
261.108826 304.0
261.145264 584.0
261.567719 124.0
262.131317 508.0
262.135315 360.0
262.189362 52.0
262.228058 44.0
262.440826 68.0
263.02478 100.0
263.119843 180.0
263.157227 328.0
263.462433 152.0
263.968201 76.0
264.134583 136.0
264.164185 352.0
264.262573 176.0
264.357483 128.0
264.923035 40.0
265.102264 156.0
265.139526 160.0
265.691406 64.0
265.798492 68.0
266.128418 156.0
266.156647 248.0
266.23349 76.0
267.145691 268.0
267.670898 112.0
267.771851 104.0
268.149811 128.0
269.121979 132.0
270.129333 240.0
270.256195 76.0
271.258392 36.0
272.498962 100.0
272.985474 128.0
273.115295 128.0
273.986115 120.0
274.113831 132.0
274.122223 104.0
274.135101 132.0
274.510223 180.0
275.122528 160.0
275.163574 180.0
275.384827 156.0
275.774719 148.0
276.093903 104.0
276.138153 1076.0
276.231049 36.0
276.608307 80.0
277.130615 528.0
277.164825 516.0
277.230988 32.0
277.519379 136.0
278.000397 120.0
278.111176 780.0
278.151031 372.0
278.973602 208.0
279.020172 64.0
279.11441 140.0
279.146057 356.0
279.232971 68.0
279.825317 140.0
280.132843 764.0
280.294983 64.0
280.421631 44.0
280.728363 176.0
280.771729 180.0
280.81842 100.0
281.140961 248.0
281.149902 180.0
281.188782 188.0
281.612823 128.0
282.043854 152.0
282.110718 200.0
282.143494 164.0
282.321381 96.0
282.348114 72.0
282.47522 128.0
282.706116 56.0
282.829956 112.0
283.144684 368.0
283.168121 148.0
283.288727 184.0
283.338959 44.0
283.824982 120.0
284.09668 76.0
284.163757 184.0
285.134277 104.0
285.763123 172.0
286.301727 112.0
286.375824 100.0
286.955444 140.0
287.110565 72.0
287.151031 172.0
287.566071 112.0
288.140228 292.0
288.420624 52.0
288.684357 84.0
288.849701 168.0
289.14389 164.0
289.149078 256.0
289.943787 180.0
290.100952 316.0
290.153931 168.0
290.313324 160.0
291.121948 284.0
291.236511 72.0
291.889038 128.0
292.132568 360.0
292.736389 48.0
292.998688 148.0
293.140564 504.0
293.735046 52.0
294.147003 1496.0
294.84137 112.0
295.153839 576.0
295.187897 172.0
295.487671 64.0
295.829895 168.0
296.145325 148.0
297.128815 156.0
297.169983 136.0
297.523499 116.0
297.633362 100.0
297.7948 172.0
298.147491 352.0
298.378998 184.0
298.908691 152.0
298.95343 104.0
299.032593 72.0
299.157715 92.0
299.414764 128.0
300.162598 144.0
300.593811 148.0
301.094391 64.0
301.764801 176.0
303.152893 124.0
303.19101 120.0
304.136383 180.0
304.47818 76.0
305.16217 308.0
305.677582 60.0
305.896881 224.0
306.148804 736.0
306.809631 116.0
307.147766 492.0
308.162109 1184.0
308.933014 68.0
309.117157 108.0
309.163239 388.0
309.836273 136.0
310.064026 112.0
310.140869 152.0
310.180664 176.0
311.181213 168.0
311.249817 52.0
312.036896 84.0
312.163513 992.0
312.216217 68.0
312.288025 48.0
312.378021 72.0
313.155182 240.0
313.836121 104.0
314.273499 124.0
314.891296 116.0
314.926636 168.0
316.217194 148.0
317.170044 52.0
317.194855 160.0
318.152679 92.0
318.458099 72.0
319.140442 148.0
319.23288 124.0
319.631317 124.0
320.097656 116.0
320.163391 1052.0
320.257904 56.0
320.400421 112.0
321.088379 196.0
321.170074 284.0
321.216797 176.0
321.44873 104.0
321.680725 88.0
321.791382 56.0
322.044952 96.0
322.094971 144.0
322.168488 108.0
322.409393 56.0
323.171875 724.0
323.332123 116.0
323.37149 108.0
324.008911 220.0
324.158661 636.0
324.668488 124.0
325.142059 160.0
325.182251 120.0
325.479523 196.0
325.673462 48.0
326.057922 76.0
326.17215 1312.0
326.241241 64.0
326.615234 112.0
327.171173 296.0
327.461121 76.0
327.940338 108.0
328.174774 140.0
328.282837 156.0
328.556976 152.0
328.726562 152.0
329.069489 144.0
329.206696 80.0
329.546265 92.0
329.632996 72.0
329.698029 48.0
330.703522 48.0
331.141632 108.0
331.425049 68.0
332.145691 140.0
332.853424 48.0
332.98053 88.0
333.267548 180.0
333.398346 180.0
333.532837 120.0
335.18219 316.0
335.381989 48.0
337.068146 52.0
337.189056 652.0
337.254547 172.0
337.733551 124.0
337.949402 96.0
338.103119 56.0
338.171295 2904.0
338.288757 56.0
338.338959 140.0
338.608368 136.0
339.175812 632.0
339.418274 28.0
340.011627 76.0
340.16861 120.0
340.179199 228.0
340.383392 212.0
340.912384 80.0
341.004272 56.0
341.12558 64.0
341.177032 124.0
343.356995 200.0
343.52298 112.0
344.833862 148.0
345.100006 80.0
345.658569 112.0
345.984314 160.0
346.171326 168.0
346.951263 40.0
347.173767 120.0
347.459381 172.0
347.682037 192.0
347.875031 92.0
348.127533 136.0
348.896698 144.0
349.14212 132.0
350.083679 72.0
350.690979 148.0
351.171722 516.0
351.795166 44.0
352.067749 108.0
352.175079 184.0
352.288116 104.0
352.482422 80.0
352.717865 104.0
352.957153 64.0
353.181061 316.0
353.713867 188.0
353.869263 84.0
353.898468 116.0
354.184418 208.0
354.366913 116.0
354.514465 128.0
354.611908 192.0
354.851837 128.0
354.900574 324.0
354.930573 116.0
354.956818 128.0
355.075073 120.0
355.151245 296.0
355.200378 32604.0
355.335663 32.0
355.399475 32.0
355.460449 64.0
355.527039 64.0
355.572784 88.0
355.628387 52.0
355.690338 44.0
355.722504 160.0
355.771027 48.0
355.823883 260.0
355.850128 116.0
355.918732 84.0
355.94751 88.0
356.072937 52.0
356.142365 168.0
356.203125 5308.0
356.281586 144.0
356.315613 152.0
356.355469 172.0
356.38324 48.0
356.426025 104.0
356.500732 108.0
356.69519 36.0
356.809387 88.0
356.913269 32.0
357.108826 52.0
357.146423 40.0
357.208282 500.0
357.349579 36.0
357.417328 96.0
357.620544 40.0
357.744781 64.0
357.823822 72.0
358.18161 156.0
358.224335 128.0
358.253174 64.0
358.473907 152.0
358.531189 92.0
358.607391 80.0
358.667694 216.0
358.716705 240.0
358.746887 52.0
359.105103 88.0
359.1315 124.0
359.203186 96.0
359.267303 76.0
359.474854 44.0
359.505035 92.0
359.637146 116.0
360.060028 44.0
360.551178 76.0
360.815765 44.0
361.054016 40.0
361.110748 100.0
362.866608 60.0
363.072662 116.0
363.846771 152.0
363.899902 60.0
364.178101 520.0
364.534271 80.0
365.180603 140.0
369.571686 112.0
369.797455 56.0
369.996521 112.0
371.598602 56.0
374.246918 52.0
374.608978 88.0
381.867035 112.0
386.846191 120.0
389.104401 84.0
396.170593 168.0
397.190796 104.0
400.414398 48.0
400.717163 56.0
403.191284 132.0
407.687988 76.0
411.559296 60.0
417.345642 76.0
417.540833 100.0
419.50351 64.0
420.707001 56.0
420.915222 64.0
426.006409 100.0
428.886993 72.0
432.613129 36.0
432.898834 60.0
433.263336 136.0
433.727478 32.0
437.058319 104.0
441.179199 48.0
442.258484 72.0
443.573792 68.0
444.928864 80.0
447.788361 52.0
449.888336 56.0
452.010162 80.0
455.257477 44.0
461.320831 116.0
461.367859 48.0
464.966095 88.0
466.022491 120.0
467.088715 80.0
469.620056 104.0
472.714996 96.0
476.105194 112.0
480.872681 80.0
484.861542 92.0
496.190735 104.0
497.797028 80.0
505.585449 116.0
509.980927 84.0
526.131042 92.0
530.394714 112.0
538.192993 36.0
544.142883 56.0
556.248779 140.0
559.690308 112.0
559.812744 64.0
561.924561 88.0
574.545166 68.0
581.954285 36.0
590.856689 116.0
612.203491 80.0
628.523315 104.0
632.181274 96.0
640.25415 60.0
649.493774 152.0
654.102722 80.0
660.425171 72.0
661.597046 92.0
665.955872 184.0
670.736206 124.0
677.557861 128.0
687.411499 168.0
695.104187 180.0
708.19519 100.0
716.024292 48.0
723.47345 60.0
726.378052 52.0
727.188293 108.0
728.407227 64.0
732.457886 32.0
734.384827 84.0
736.217285 80.0
736.460388 88.0
737.659973 80.0
748.277344 156.0
756.313354 180.0
756.4776 228.0
758.981506 96.0
760.106018 76.0
760.561584 180.0
770.579224 88.0
776.164246 176.0
776.247437 72.0
778.2229 168.0
781.062866 224.0
787.607117 224.0
793.645874 280.0
800.753784 92.0
804.821106 108.0
805.973389 76.0
809.208862 136.0
813.540466 112.0
823.437256 120.0
824.099976 228.0
824.5 108.0
830.615173 152.0
841.654114 208.0
844.79834 36.0
848.110718 196.0
848.696289 68.0
850.285828 176.0
853.405396 172.0
854.370911 148.0
856.757935 156.0
860.525635 192.0
864.869385 100.0
871.431885 160.0
876.757507 124.0
881.537842 140.0
886.72821 180.0
889.04126 52.0
890.103882 84.0
890.596863 176.0
891.291992 128.0
893.212341 184.0
893.712097 156.0
896.30835 220.0
896.540771 184.0
914.063782 232.0
915.556763 116.0
918.636902 156.0
930.335205 184.0
938.793091 172.0
942.761353 280.0
943.513184 196.0
943.592651 100.0
944.626221 220.0
944.913818 208.0
950.581787 160.0
955.712891 208.0
955.854431 132.0
963.2099 152.0
963.284058 196.0
963.667114 140.0
963.80304 108.0
965.540222 176.0
966.065979 228.0
968.628906 52.0
969.273254 108.0
969.626526 208.0
972.057617 60.0
972.541687 156.0
973.528931 112.0
975.758118 204.0
976.636536 108.0
982.554749 160.0
984.065186 188.0
988.703613 220.0
991.421692 180.0
994.463623 220.0
995.273499 172.0
995.487 152.0
998.182983 196.0
999.579468 228.0
1000.202576 192.0
1002.791443 60.0
1003.768677 164.0
1004.683228 80.0
1012.344238 232.0
1013.769653 96.0
1014.200684 252.0
1015.139038 216.0
1018.185303 192.0
1020.740112 128.0
1021.407959 76.0
1030.33313 192.0
1031.055176 196.0
1032.647217 116.0
1036.283447 80.0
1037.161377 136.0
1037.712769 108.0
1037.873047 220.0
1039.085327 132.0
1039.193604 208.0
1040.619385 80.0
1041.017456 40.0
1043.832275 164.0
1051.531128 200.0
1052.615723 68.0
1058.80481 52.0
1061.306274 216.0
1061.513794 152.0
1063.700317 220.0
1065.005493 52.0
1066.610596 244.0
1067.325684 200.0
1067.989136 32.0
1069.877686 228.0
1070.722778 148.0
1072.436401 180.0
1073.65564 144.0
1073.994873 76.0
1075.972168 152.0
1076.226807 64.0
1077.533203 188.0
1079.363403 152.0
1080.036987 152.0
1080.161377 140.0
1086.430786 244.0
1092.698608 228.0
1093.527832 236.0
1094.166382 188.0
1094.943359 116.0
1095.075073 108.0
1096.129272 64.0
1098.489624 196.0
1102.325806 152.0
1102.43811 164.0
1103.132202 136.0
1103.833008 216.0
1104.018188 132.0
1104.547363 248.0
1105.725098 180.0
1105.989868 200.0
1106.413574 180.0
1108.9375 208.0
1110.495728 76.0
1110.92688 156.0
1114.213257 192.0
1114.385986 220.0
1115.210083 220.0
1115.422729 156.0
1115.876709 212.0
1117.511108 76.0
1118.74231 120.0
1119.334961 152.0
1119.881104 96.0
1121.333618 176.0
1124.001221 136.0
1124.267578 232.0
1126.25708 152.0
1129.299194 140.0
1129.5802 236.0
1130.590576 52.0
1133.657837 208.0
1134.407349 112.0
1136.950806 132.0
1137.279663 172.0
1138.602417 224.0
1139.153198 228.0
1141.203003 152.0
1143.525024 136.0
1145.032227 204.0
1145.449829 216.0
1147.431152 144.0
1148.541382 192.0
1149.043213 200.0
1149.819214 164.0
1152.64209 180.0
1153.79126 164.0
1154.352417 148.0
1155.867798 200.0
1156.185791 72.0
1157.627808 132.0
1158.122314 212.0
1159.829834 132.0
1161.38269 208.0
1162.027222 224.0
1162.481812 128.0
1163.22168 172.0
1163.48645 140.0
1164.980469 124.0
1165.293091 128.0
1166.58374 212.0
1166.686401 240.0
1167.359497 124.0
1168.699585 164.0
1168.794922 128.0
1169.489014 196.0
1169.992798 172.0
1170.210693 60.0
1171.702271 156.0
1171.92041 184.0
1172.833984 144.0
1173.459717 180.0
1173.617676 84.0
1173.910889 204.0
1174.606567 112.0
1174.93396 36.0
1176.217041 192.0
1176.73584 120.0
1176.783691 152.0
1177.405151 236.0
1177.609985 168.0
1179.167847 148.0
1180.193237 352.0
1180.911377 156.0
1181.793945 140.0
1182.163452 160.0
1182.984741 200.0
1183.648926 152.0
1184.922974 192.0
1185.709961 128.0
1186.122314 212.0
1186.485596 140.0
1187.281128 164.0
1188.611938 160.0
1190.046631 100.0
1190.932495 184.0
1191.857178 148.0
1192.313599 188.0
1192.40979 152.0
1192.581665 140.0
1193.887939 124.0
1196.406494 52.0
1196.750732 180.0
1198.803467 76.0
1199.299805 120.0
1200.05127 100.0
1200.692505 188.0
1201.423706 136.0
1204.848145 160.0
1206.78186 140.0
1207.675537 64.0
1209.12854 136.0
1209.474609 184.0
1209.993896 144.0
1211.032593 76.0
1211.164185 96.0
1212.397583 108.0
1212.563843 180.0
1213.735474 104.0
1214.276489 148.0
1214.866089 176.0
1214.928467 168.0
1215.337891 228.0
1215.573853 208.0
1215.795898 276.0
1216.101318 120.0
1217.225952 160.0
1218.46936 176.0
1218.552734 204.0
1218.837646 140.0
1219.087769 164.0
1219.532593 168.0
1219.622925 160.0
1219.720337 164.0
1220.046997 148.0
1222.725098 52.0
1223.887695 140.0
1224.671265 128.0
1225.375244 176.0
1227.455566 256.0
1231.54541 32.0
1232.7854 176.0
1233.914429 164.0
1234.20813 48.0
1234.403931 60.0
1235.004028 184.0
1237.958984 92.0
1239.14978 80.0
1240.390259 136.0
1242.09436 96.0
1242.30481 188.0
1242.571411 152.0
1242.774902 56.0
1242.978394 96.0
1243.322266 176.0
1243.701294 136.0
1243.982056 84.0
1244.192627 144.0
1244.972046 136.0
1245.316284 176.0
1246.17334 248.0
1246.310791 168.0
1248.584595 104.0
1249.112061 124.0
1249.611572 40.0
1252.033203 216.0
1252.166992 144.0
1252.392456 224.0
1254.668579 40.0
1254.880127 204.0
1255.035278 48.0
1258.217407 164.0
1259.015381 176.0
1259.389771 80.0
1260.209229 96.0
1260.880615 184.0
1261.333008 156.0
1261.877319 176.0
1262.959351 172.0
1263.171509 204.0
1263.659668 112.0
1264.098511 132.0
1267.355835 148.0
1267.667603 176.0
1268.695435 212.0
1270.099609 160.0
1270.418823 132.0
1271.064453 140.0
1271.170898 216.0
1271.490234 196.0
1272.640381 136.0
1273.016724 232.0
1274.899292 192.0
1275.247559 168.0
1276.164673 132.0
1276.221558 140.0
1277.018066 200.0
1277.430664 124.0
1277.544434 92.0
1277.829102 200.0
1278.085205 52.0
1278.682983 160.0
1279.437622 140.0
1279.686768 144.0
1280.042847 152.0
1280.455933 140.0
1282.009033 196.0
1282.22998 120.0
1283.983887 144.0
1284.065552 156.0
1284.426147 264.0
1284.611572 88.0
1284.761475 192.0
1284.925537 44.0
1285.739014 156.0
1286.110229 172.0
1286.752686 180.0
1286.845459 132.0
1287.495361 184.0
1287.952515 200.0
1288.431152 212.0
1288.945557 124.0
1289.095581 96.0
1289.774658 136.0
1290.368042 172.0
1290.418091 160.0
1291.669556 48.0
1292.120361 184.0
1293.079224 160.0
1293.344116 120.0
1293.966919 168.0
1294.317749 108.0
1294.432373 120.0
1295.062622 96.0
1296.932861 208.0
1297.233887 200.0
1297.491943 104.0
1297.613525 172.0
1298.058472 184.0
1298.391479 136.0
1298.790039 212.0
1299.320923 128.0
1301.790161 136.0
1302.005615 128.0
1302.185181 208.0
1302.874756 36.0
1303.463989 148.0
1305.354614 52.0
1306.598999 192.0
1308.952759 232.0
1309.564941 136.0
1309.627319 192.0
1310.098022 148.0
1310.350098 184.0
1310.688843 160.0
1311.344604 100.0
1312.209717 80.0
1313.067871 48.0
1313.140015 148.0
1313.31311 104.0
1313.522339 156.0
1314.041748 204.0
1314.207642 28.0
1314.517944 164.0
1316.438232 132.0
1317.875732 160.0
1318.049194 120.0
1318.107056 144.0
1318.40332 128.0
1319.784058 40.0
1319.964844 176.0
1320.803833 68.0
1320.984741 240.0
1321.136597 136.0
1322.019409 236.0
1322.229248 224.0
1322.402954 224.0
1322.554932 68.0
1323.003784 140.0
1323.170288 220.0
1323.612061 168.0
1323.764038 228.0
1324.698486 200.0
1325.162109 160.0
1325.843262 180.0
1326.097046 156.0
1326.444946 124.0
1327.104736 212.0
1327.208008 188.0
1327.779175 192.0
1328.714844 112.0
1329.03418 176.0
1329.114014 172.0
1331.938232 192.0
1332.06897 216.0
1332.417725 136.0
1332.868164 128.0
1333.078979 40.0
1334.329224 100.0
1334.452881 104.0
1334.765503 80.0
1335.791016 156.0
1335.907471 144.0
1335.958374 40.0
1336.292969 192.0
1336.402222 152.0
1336.729614 60.0
1337.086182 160.0
1338.738892 168.0
1339.714966 108.0
1341.412964 264.0
1341.544189 120.0
1342.309814 160.0
1343.047363 152.0
1343.199585 132.0
1343.294434 224.0
1343.8927 160.0
1343.973022 176.0
1345.37439 132.0
1348.340088 216.0
1348.457031 132.0
1348.880981 72.0
1349.341553 56.0
1349.831421 156.0
1350.394653 136.0
1351.133423 196.0
1351.689575 164.0
1353.431763 192.0
1353.526978 156.0
1354.296021 188.0
1354.545044 48.0
1354.830688 88.0
1355.219116 160.0
1355.776001 48.0
1356.171753 60.0
1357.770142 160.0
1358.012207 212.0
1358.767822 176.0
1359.018188 188.0
1359.222778 108.0
1359.817261 164.0
1360.911133 108.0
1361.065308 224.0
1362.012939 148.0
1362.233154 104.0
1363.901245 128.0
1364.048218 116.0
1364.562866 176.0
1365.629272 180.0
1367.130127 148.0
1367.350952 216.0
1368.042847 160.0
1368.374146 196.0
1369.316772 48.0
1369.500977 208.0
1369.67041 144.0
1370.127075 244.0
1370.34082 156.0
1370.495483 156.0
1370.620728 100.0
1372.227661 172.0
1372.817627 232.0
1373.813354 124.0
1374.433105 176.0
1374.684082 40.0
1374.787354 140.0
1375.171143 128.0
1375.311401 212.0
1375.591919 212.0
1375.717407 48.0
1376.101318 124.0
1376.898926 92.0
1377.039185 140.0
1377.910889 192.0
1378.479858 200.0
1378.598145 168.0
1379.329834 48.0
1380.305786 152.0
1380.601685 160.0
1384.050171 92.0
1384.316772 208.0
1384.820435 188.0
1385.175903 200.0
1386.065063 236.0
1387.006348 160.0
1387.302856 144.0
1387.688354 308.0
1388.311279 208.0
1388.860107 120.0
1389.119751 160.0
1389.63916 148.0
1390.640991 80.0
1391.791748 176.0
1392.044189 160.0
1392.913208 188.0
1393.165771 172.0
1393.567017 160.0
1393.886475 196.0
1394.012817 192.0
1394.243286 144.0
1394.756104 192.0
1395.603638 172.0
1396.020142 176.0
1396.146484 160.0
1396.458862 184.0
1398.23999 188.0
1398.646484 148.0
1398.79541 248.0
1399.070923 152.0
1399.368652 184.0
1399.644165 148.0
1400.537964 216.0
1400.60498 184.0
1400.806152 196.0
1400.888062 156.0
1401.200928 200.0
1401.32019 212.0
1401.953613 148.0
1402.691528 196.0
1403.019531 160.0
1403.690552 196.0
1404.958618 172.0
1405.652466 144.0
1405.742065 160.0
1406.085327 144.0
1407.070801 140.0
1407.899658 212.0
1407.966797 200.0
1408.556885 192.0
1409.124756 180.0
1410.14856 104.0
1410.861816 144.0
1411.516724 48.0
1412.421631 112.0
1412.840576 96.0
1413.147339 192.0
1413.484131 168.0
1413.633789 288.0
1413.955566 164.0
1414.120239 220.0
1414.352295 156.0
1414.404663 256.0
1414.651733 164.0
1414.868774 48.0
1415.15332 92.0
1416.224243 184.0
1416.463989 132.0
1416.553833 68.0
1417.190674 104.0
1417.396973 236.0
1417.692749 176.0
1417.827637 156.0
1421.127319 156.0
1421.187378 224.0
1421.613892 188.0
1421.876831 172.0
1422.560791 96.0
1422.808594 80.0
1422.951172 64.0
1423.071411 212.0
1423.168945 168.0
1423.536865 148.0
1424.107788 172.0
1425.445068 188.0
1425.956055 168.0
1426.30188 200.0
1426.557495 140.0
1427.294312 196.0
1427.4823 80.0
1427.610107 244.0
1427.700439 200.0
1427.835815 180.0
1427.933594 196.0
1428.309692 192.0
1428.738403 144.0
1429.107178 180.0
1429.754272 176.0
1429.829102 180.0
1430.491943 200.0
1430.559692 128.0
1430.642578 176.0
1430.830811 156.0
1432.55542 140.0
1432.821655 356.0
1432.917114 204.0
1433.005249 68.0
1433.057983 160.0
1433.723389 152.0
1434.997314 168.0
1435.381958 128.0
1435.736328 168.0
1435.917358 152.0
1436.022949 164.0
1436.105957 160.0
1436.294556 220.0
1436.739624 68.0
1437.192261 240.0
1438.011841 180.0
1438.875488 180.0
1439.139771 228.0
1439.192627 128.0
1439.303589 184.0
1439.327393 128.0
1439.352905 164.0
1439.472046 180.0
1439.827026 200.0
1439.910034 228.0
1440.000732 168.0
1440.242432 172.0
1440.801392 152.0
1441.405884 160.0
1441.63269 140.0
1442.388428 116.0
1442.668213 204.0
1443.477173 156.0
1443.787231 140.0
1444.785767 48.0
1445.020386 176.0
1445.186768 192.0
1445.814941 208.0
1446.102539 156.0
1446.564209 56.0
1447.313843 180.0
1447.927246 32.0
1448.881714 248.0
1449.268066 108.0
1449.563599 148.0
1450.859863 208.0
1452.194458 32.0
1452.376465 200.0
1453.097168 176.0
1453.924316 100.0
1454.334229 164.0
1454.706177 100.0
1455.670532 152.0
1456.536377 104.0
1456.923828 208.0
1456.984619 108.0
1457.11792 212.0
1457.539185 188.0
1457.896362 188.0
1458.093994 36.0
1458.223267 164.0
1458.557617 108.0
1458.626099 180.0
1458.755371 184.0
1459.728516 140.0
1459.804565 184.0
1460.087769 84.0
1460.29895 32.0
1460.481567 168.0
1463.282104 140.0
1463.451172 128.0
1463.822754 92.0
1464.96521 176.0
1465.605225 180.0
1466.588379 140.0
1466.672241 168.0
1467.175415 152.0
1468.182007 236.0
1468.380249 120.0
1468.441284 248.0
1468.792114 184.0
1469.158325 364.0
1469.387207 176.0
1469.532227 156.0
1470.073975 116.0
1470.272339 148.0
1470.501343 140.0
1470.745605 140.0
1472.440674 228.0
1473.036499 96.0
1474.052734 72.0
1477.014893 248.0
1477.547119 224.0
1477.896606 148.0
1478.618408 128.0
1479.705444 220.0
1479.843262 76.0
1479.931885 220.0
1479.99646 172.0
1480.203247 116.0
1481.068604 112.0
1482.256226 72.0
1483.007324 152.0
1483.612915 164.0
1484.47168 184.0
1484.671021 72.0
1485.514771 136.0
1486.13623 180.0
1486.45166 168.0
1487.279785 132.0
1487.678955 164.0
1488.247192 196.0
1489.337769 140.0
1490.543945 204.0
1491.028076 56.0
1491.139893 176.0
1491.397095 188.0
1491.558472 116.0
1491.735229 100.0
1492.088989 160.0
1492.456177 168.0
1492.688721 188.0
1492.965576 104.0
1493.088623 164.0
1493.942383 152.0
1494.619507 128.0
1495.712402 136.0
1495.997192 172.0
1496.297485 172.0
1496.567017 168.0
1498.015015 48.0
1498.42334 216.0
1498.538818 56.0
1498.931885 128.0
1499.10144 120.0
1499.401978 228.0
1499.517578 72.0
1500.218994 176.0
1500.398438 152.0
1500.612305 180.0
1500.720215 112.0
1502.602173 224.0
1503.296631 184.0
1503.373901 196.0
1503.520508 216.0
1504.176636 152.0
1504.523926 152.0
1504.585693 236.0
1504.724731 220.0
1504.956421 156.0
