>compound MLS000517295-01!
>formula C10H12O4
>ionization [M+H]+
>parentmass 197.081
#inchi InChI=1S/C10H12O4/c1-5-4-7(11)6(2)9(12)8(5)10(13)14-3/h4,11-12H,1-3H3
#inchikey UUQHKWMIDYRWHH
#Ion_Source LC-ESI
#Instrument qTof
#Compound_Source NIH Natural Product Library
#PI Dorrestein
#Data_Collector VVP/LMS
#Scan -1
#Precursor_MZ 197.081
#ExactMass 196.074
#Charge 1
#CAS_Number N/A
#Pubmed_ID N/A
#Smiles COC(=O)c1c(C)cc(O)c(C)c1O
#INCHI_AUX N/A
#Library_Class 1
#SpectrumID CCMSLIB00000080250
#IonMode Positive
#UpdateWorkflowName UPDATE-SINGLE-ANNOTATED-GOLD
#LibraryQualityString Gold
#TaskID b1d8e8f6646f4e71acdff9ca3d919d08
##Scan# 2069
#SpectrumFile p2-B06_GB6_01_17994.mzXML
#LibraryName NIH_Natural_Products_Library.mgf
#MQScore -1
#Organism NIH_Natural_Products_Library
#TIC_Query 0
#RT_Query -1
#MZErrorPPM -1
#SharedPeaks 0
#MassDiff 0
#LibMZ -1
#SpecMZ 197.081
#SpecCharge 0
#internalFilename spec-00000.mgf

>collision 10
100.337296 156.0
103.71257 144.0
107.04818 268.0
107.39518 144.0
109.065231 560.0
110.070312 596.0
110.844269 116.0
110.879898 120.0
118.566078 228.0
119.052963 252.0
120.214516 224.0
120.975128 128.0
121.032051 160.0
121.06678 272.0
121.106506 100.0
122.039177 236.0
123.043854 184.0
129.219467 48.0
136.816772 144.0
137.061401 432.0
137.607117 160.0
138.062241 552.0
138.088501 200.0
139.469498 148.0
140.420715 88.0
142.347107 172.0
156.463013 168.0
158.681564 196.0
158.972534 208.0
165.055313 3800.0
165.469345 36.0
165.638351 56.0
166.063843 132.0
167.065628 184.0
169.078247 224.0
172.435852 96.0
174.972427 244.0
184.100266 184.0
198.136078 172.0
242.96138 112.0
394.533722 20.0
404.318756 76.0
627.954407 44.0
774.646667 20.0
796.030457 72.0
914.584778 44.0
970.531189 176.0
977.432007 116.0
1213.751099 160.0
1227.616577 144.0
1253.898926 136.0
1275.998047 40.0
1287.79126 164.0
1381.699585 100.0
1400.778076 232.0
1403.01355 160.0
1469.108765 48.0
