>compound MLS000571180-01!Phenanthraquinone
>formula C14H8O2
>ionization [M+H]+
>parentmass 209.061
#inchi InChI=1S/C14H8O2/c15-13-11-7-3-1-5-9(11)10-6-2-4-8-12(10)14(13)16/h1-8H
#inchikey YYVYAPXYZVYDHN
#Ion_Source LC-ESI
#Instrument qTof
#Compound_Source NIH Pharmacologically Active Library
#PI Dorrestein
#Data_Collector VP/LMS
#Scan -1
#Precursor_MZ 209.061
#ExactMass 208.052
#Charge 1
#CAS_Number N/A
#Pubmed_ID N/A
#Smiles O=C1C(=O)c2ccccc2-c3ccccc13
#INCHI_AUX N/A
#Library_Class 1
#SpectrumID CCMSLIB00000085760
#IonMode Positive
#UpdateWorkflowName UPDATE-SINGLE-ANNOTATED-GOLD
#LibraryQualityString Gold
#TaskID d252d724072548979f1f6f1ced849daf
##Scan# 1961
#SpectrumFile p4-F03_GF3_01_18387.mzXML
#LibraryName Pharm_Active_Library.mgf
#MQScore -1
#Organism Pharm_Active_Library
#TIC_Query 0
#RT_Query -1
#MZErrorPPM -1
#SharedPeaks 0
#MassDiff 0
#LibMZ -1
#SpecMZ 209.061
#SpecCharge 0
#internalFilename spec-00000.mgf

>collision 10
45.033466 52.0
45.788593 212.0
45.810146 140.0
46.125923 144.0
46.535641 260.0
47.052448 112.0
47.464298 160.0
47.501328 204.0
47.678455 128.0
47.789841 136.0
48.276787 180.0
48.524651 124.0
48.981876 144.0
49.08913 168.0
49.114304 172.0
49.246906 136.0
49.427254 204.0
49.897141 164.0
50.078674 144.0
50.605427 176.0
51.049576 212.0
51.708702 176.0
51.771698 160.0
52.706764 136.0
53.064281 208.0
53.793163 216.0
53.838428 160.0
53.855953 140.0
54.305313 208.0
55.517673 172.0
55.614113 144.0
55.65271 156.0
55.682411 148.0
55.836983 140.0
56.601074 204.0
56.68346 220.0
57.151962 120.0
57.596714 68.0
57.862877 212.0
59.10186 184.0
59.155426 180.0
60.685322 180.0
60.803219 204.0
61.201187 116.0
61.297764 60.0
61.595764 132.0
61.712978 188.0
61.824043 76.0
61.863174 144.0
62.673603 40.0
62.96545 208.0
63.686115 172.0
64.602715 180.0
65.379326 176.0
65.596771 164.0
65.670944 140.0
65.708046 160.0
66.600044 136.0
66.839027 180.0
67.658394 168.0
67.69442 160.0
67.718987 220.0
67.838608 120.0
68.518997 128.0
68.550301 196.0
69.37011 204.0
69.845039 164.0
70.256508 144.0
70.532051 164.0
70.771286 164.0
70.799759 164.0
70.989128 144.0
71.024353 200.0
71.123352 136.0
71.212341 232.0
71.237541 192.0
71.397224 132.0
71.509949 188.0
71.681732 192.0
71.890839 212.0
71.912781 204.0
72.06308 184.0
72.577637 144.0
72.749001 148.0
73.079689 144.0
73.632751 84.0
74.350105 168.0
74.453117 208.0
74.748802 124.0
75.393776 152.0
75.431801 128.0
75.537292 192.0
76.241249 144.0
78.010162 160.0
78.099846 176.0
78.267036 184.0
79.32357 136.0
80.019989 164.0
80.497864 176.0
81.047028 212.0
81.351929 196.0
81.781555 148.0
81.952637 128.0
82.058983 176.0
82.434433 188.0
83.044563 228.0
83.871887 48.0
84.145538 84.0
84.450714 120.0
84.520241 204.0
84.77478 56.0
85.38797 180.0
85.426598 132.0
85.483635 136.0
85.824417 264.0
85.861298 44.0
86.056908 72.0
86.633949 168.0
87.142303 188.0
87.42495 156.0
87.665184 152.0
87.691277 152.0
87.831123 116.0
88.056969 152.0
88.155991 132.0
88.777519 152.0
89.028992 60.0
89.685631 196.0
90.148026 164.0
90.47715 212.0
91.371056 52.0
91.462402 180.0
92.152771 228.0
92.166145 208.0
92.416634 168.0
92.707703 144.0
92.751785 152.0
92.861076 156.0
92.882179 52.0
92.924385 124.0
92.999229 48.0
93.118271 208.0
93.525894 152.0
93.570168 120.0
93.65683 176.0
93.996147 160.0
94.4347 204.0
95.099297 280.0
95.497612 116.0
95.554024 148.0
95.633812 180.0
96.117134 180.0
96.283073 96.0
96.893379 108.0
96.912971 160.0
97.395584 156.0
97.725868 160.0
97.773094 192.0
98.088242 212.0
98.605385 120.0
99.098137 176.0
99.969864 152.0
100.127144 120.0
100.232727 216.0
101.0634 156.0
101.63446 172.0
101.772964 196.0
102.551521 140.0
103.051163 384.0
103.130814 184.0
103.144958 52.0
104.391884 136.0
104.662529 104.0
104.870323 156.0
104.980423 80.0
105.190575 84.0
107.256279 192.0
107.97068 212.0
108.074112 220.0
108.318413 68.0
108.405434 180.0
108.814064 44.0
108.834824 208.0
108.878433 188.0
109.003082 164.0
109.196426 184.0
109.669067 96.0
109.723267 148.0
109.79834 200.0
109.815025 36.0
110.456284 96.0
110.71582 212.0
111.198036 160.0
111.637131 244.0
111.660263 148.0
111.738594 236.0
113.304672 184.0
113.957779 184.0
115.181015 156.0
115.228012 228.0
115.396866 144.0
115.518768 152.0
115.610771 196.0
116.120674 260.0
116.290176 80.0
116.674698 136.0
116.846748 224.0
116.980186 144.0
117.068459 148.0
117.085693 168.0
117.277451 192.0
118.697861 136.0
119.12326 180.0
119.908775 40.0
120.240288 116.0
120.353806 160.0
120.432426 172.0
120.454269 120.0
120.811729 180.0
120.834663 172.0
121.78389 168.0
121.972855 120.0
122.179573 124.0
122.500992 100.0
122.562683 68.0
122.595734 172.0
123.076637 160.0
123.441238 164.0
124.081154 52.0
124.220871 152.0
124.496101 192.0
124.66494 116.0
125.038567 128.0
125.285736 56.0
125.321388 152.0
125.441734 224.0
125.620132 152.0
125.892441 180.0
126.001892 132.0
126.04998 144.0
126.256721 80.0
126.540909 144.0
126.899399 80.0
127.052216 1292.0
127.240433 168.0
127.534065 152.0
127.91037 176.0
128.058105 340.0
128.372253 128.0
128.514359 96.0
129.703949 268.0
130.505356 80.0
131.048233 172.0
131.2659 196.0
131.9189 136.0
132.197952 64.0
132.378799 168.0
132.697296 148.0
133.252731 140.0
133.530884 216.0
133.627502 76.0
134.097397 176.0
134.4617 108.0
135.078629 192.0
135.219788 188.0
135.266068 120.0
136.653915 200.0
137.135971 244.0
137.420471 160.0
138.179825 164.0
138.788803 136.0
139.021042 160.0
139.17128 228.0
139.526062 120.0
139.634232 160.0
140.232254 180.0
140.475128 140.0
140.595474 168.0
140.706421 160.0
140.838654 176.0
140.947342 60.0
141.013504 164.0
141.590805 140.0
141.965256 168.0
142.416199 136.0
142.439941 132.0
142.682343 232.0
142.825027 196.0
143.565247 168.0
144.055069 168.0
145.064789 380.0
145.80423 128.0
146.434601 132.0
146.661087 184.0
147.010803 192.0
147.078384 176.0
147.131485 188.0
147.177368 96.0
147.518036 192.0
148.724365 188.0
148.760773 140.0
148.777771 144.0
148.935623 136.0
149.042511 168.0
149.071671 60.0
149.70137 212.0
149.998993 64.0
150.044586 404.0
150.206268 56.0
150.899841 168.0
151.027008 308.0
151.054047 2096.0
151.346573 196.0
151.403931 168.0
151.482315 88.0
151.560715 212.0
151.847534 168.0
151.870102 140.0
151.896591 108.0
152.017593 200.0
152.061554 26024.0
152.130157 68.0
152.242676 48.0
152.281967 56.0
152.350754 76.0
152.409714 140.0
152.471161 36.0
152.510483 48.0
152.530151 100.0
152.57193 180.0
152.761307 64.0
152.933548 76.0
152.99263 204.0
153.067352 11404.0
153.122971 60.0
153.132462 56.0
153.137421 60.0
153.177322 48.0
153.26355 32.0
153.349808 44.0
153.384323 36.0
153.653122 140.0
153.715546 132.0
153.796265 72.0
153.872787 60.0
153.90242 140.0
153.919693 64.0
153.951797 56.0
153.969086 56.0
154.001205 108.0
154.07019 1308.0
154.203796 52.0
154.2211 172.0
154.248291 72.0
154.416443 64.0
154.463425 44.0
154.688614 52.0
154.705948 36.0
154.809937 40.0
154.859482 128.0
154.911499 28.0
154.988297 132.0
155.018036 108.0
155.059921 352.0
155.149399 56.0
155.216354 100.0
156.028275 268.0
156.060959 140.0
156.127731 68.0
156.296906 120.0
157.658478 244.0
157.818466 184.0
158.083618 116.0
159.382584 196.0
159.540924 116.0
160.510284 36.0
161.634384 104.0
162.709076 92.0
163.845932 56.0
164.828262 112.0
164.943268 52.0
166.259796 180.0
168.419983 88.0
169.064331 624.0
169.944824 72.0
173.452606 152.0
175.806641 88.0
178.357239 188.0
179.059204 924.0
179.699463 60.0
180.064606 168.0
180.880707 164.0
181.017258 144.0
181.063904 8644.0
181.097595 232.0
181.143143 48.0
181.161896 36.0
181.317307 44.0
181.52124 164.0
181.566635 68.0
181.681976 28.0
182.067932 1108.0
182.86702 60.0
183.072525 384.0
183.392242 40.0
183.440765 44.0
184.461182 116.0
188.317017 48.0
188.336136 132.0
196.095398 132.0
199.072189 196.0
207.230667 108.0
209.05658 196.0
210.053879 168.0
215.04483 164.0
227.733521 80.0
228.073059 48.0
229.165497 48.0
241.914536 64.0
265.187012 88.0
272.924316 64.0
292.618195 108.0
299.966919 40.0
303.69104 40.0
360.830505 68.0
384.492188 68.0
453.290894 40.0
506.871552 56.0
517.882446 52.0
523.300232 48.0
555.338318 68.0
579.641663 88.0
584.462769 100.0
593.422791 164.0
601.064392 72.0
604.788452 88.0
616.904419 56.0
654.278748 180.0
677.337646 56.0
733.34845 100.0
741.125122 176.0
752.624084 180.0
770.662781 124.0
811.220032 92.0
812.405273 176.0
821.268005 188.0
882.541138 60.0
909.835999 144.0
925.233948 164.0
933.163696 168.0
941.72583 184.0
943.167908 64.0
948.425964 164.0
979.583374 168.0
983.337158 156.0
1000.305298 244.0
1006.793457 176.0
1012.422058 168.0
1020.213989 180.0
1039.189209 52.0
1042.875488 224.0
1047.637329 144.0
1048.752075 200.0
1063.499756 152.0
1064.967285 168.0
1075.202393 160.0
1091.692261 120.0
1095.63501 208.0
1102.457886 128.0
1125.168701 244.0
1135.326294 140.0
1136.178223 176.0
1141.054199 196.0
1155.649902 204.0
1161.001465 172.0
1161.605103 180.0
1162.310669 140.0
1169.501099 200.0
1173.254517 168.0
1173.349976 40.0
1183.373169 140.0
1186.469971 180.0
1187.971802 212.0
1197.705811 212.0
1202.843018 136.0
1207.569336 76.0
1207.956665 180.0
1208.309448 216.0
1215.293579 164.0
1222.061279 60.0
1222.93811 244.0
1228.310425 184.0
1228.9104 136.0
1230.06897 88.0
1235.813843 128.0
1241.326538 180.0
1244.477173 184.0
1263.882324 120.0
1274.667847 136.0
1276.750854 176.0
1277.824951 108.0
1282.418213 184.0
1282.624878 160.0
1283.451904 156.0
1288.655396 168.0
1291.82251 140.0
1299.969238 132.0
1302.834106 140.0
1303.43042 212.0
1309.840942 140.0
1313.618286 208.0
1319.041504 100.0
1325.780029 180.0
1327.752075 96.0
1327.810059 200.0
1329.529541 236.0
1329.696411 120.0
1330.444092 152.0
1334.687256 72.0
1340.918945 128.0
1341.684326 172.0
1345.689819 104.0
1348.918945 148.0
1351.954468 216.0
1352.22522 216.0
1359.789062 160.0
1378.916748 172.0
1384.347046 100.0
1388.200684 136.0
1389.328125 124.0
1394.095093 152.0
1394.429443 132.0
1395.262085 172.0
1398.907471 200.0
1402.684326 184.0
1404.123413 224.0
1411.546631 172.0
1411.628906 148.0
1415.947144 228.0
1418.494751 32.0
1421.4198 184.0
1423.446655 120.0
1428.444702 220.0
1429.761475 124.0
1432.231079 244.0
1432.577637 124.0
1432.931641 132.0
1433.052246 164.0
1437.689819 64.0
1438.44458 76.0
1439.826416 144.0
1441.715088 168.0
1443.741211 152.0
1443.960571 196.0
1445.935303 276.0
1446.374268 48.0
1449.994873 64.0
1454.932983 116.0
1458.374268 132.0
1458.587036 144.0
1459.027954 56.0
1459.354858 144.0
1459.567871 288.0
1461.667358 52.0
1463.250488 136.0
1464.400391 240.0
1464.804077 120.0
1468.554443 80.0
1469.927734 80.0
1470.713745 184.0
1471.438965 52.0
1471.729126 140.0
1472.401123 104.0
1477.140137 196.0
1485.774048 192.0
1490.864868 156.0
1491.856445 108.0
1492.948364 220.0
1497.597046 172.0
1498.413574 172.0
1504.26709 148.0
1505.046875 148.0
1505.324951 120.0
