>compound Edaravone (MCI-186)
>formula C10H10N2O
>ionization [M+H]+
>parentmass 175.087753
#inchi InChI=1S/C10H10N2O/c1-8-7-10(13)12(11-8)9-5-3-2-4-6-9/h2-6H,7H2,1H3
#inchikey QELUYTUMUWHWMC
#Ion_Source LC-ESI
#Instrument qTof
#Compound_Source Commercial
#PI Dorrestein
#Data_Collector Garg_Neha
#Scan -1
#Precursor_MZ 175.087
#ExactMass 174.079
#Charge 1
#CAS_Number 89-25-8
#Pubmed_ID N/A
#Smiles C1(CC(N(N=1)C2=CC=CC=C2)=O)C
#INCHI_AUX N/A
#Library_Class 1
#SpectrumID CCMSLIB00000078097
#IonMode Positive
#UpdateWorkflowName UPDATE-SINGLE-ANNOTATED-GOLD
#LibraryQualityString Gold
#TaskID 77f51c88eb8b467eb4a01dd2d0cb90d2
##Scan# 1069
#SpectrumFile Plate2_1_20_GG5_01_16493.mzXML
#LibraryName FDALibrary_2_04302014.mgf
#MQScore -1
#Organism FDALibrary_2_04302014
#TIC_Query 0
#RT_Query -1
#MZErrorPPM -1
#SharedPeaks 0
#MassDiff 0
#LibMZ -1
#SpecMZ 175.087
#SpecCharge 0
#internalFilename spec-00000.mgf

>collision 10
45.692062 156.0
45.938602 152.0
47.726929 184.0
48.166569 152.0
48.373993 148.0
48.523613 184.0
49.997337 188.0
52.231281 180.0
52.265808 152.0
52.724388 176.0
53.095013 148.0
53.768616 200.0
54.252781 220.0
54.555202 156.0
54.865833 176.0
54.945473 200.0
54.964653 160.0
55.076855 164.0
55.446751 152.0
55.85358 204.0
55.898212 216.0
56.587818 164.0
57.982746 160.0
58.029739 148.0
58.286255 168.0
60.000557 188.0
61.644341 160.0
61.977646 200.0
62.052879 196.0
62.867691 212.0
63.126766 236.0
63.575089 196.0
63.958126 156.0
64.026588 232.0
64.865433 224.0
64.968071 168.0
65.464729 152.0
65.761375 192.0
66.079727 156.0
67.187767 172.0
68.964584 180.0
69.727005 172.0
69.770218 180.0
70.006493 164.0
70.443489 176.0
70.568832 248.0
71.009247 176.0
71.375351 272.0
72.243958 172.0
73.116119 172.0
74.166527 140.0
76.695427 196.0
77.936234 192.0
78.670662 248.0
79.070145 168.0
79.779663 140.0
80.092857 160.0
81.08091 232.0
82.041519 212.0
82.369202 260.0
83.496605 208.0
83.931839 224.0
84.777283 136.0
85.969902 176.0
86.626282 212.0
87.326073 248.0
88.066032 192.0
88.602905 148.0
89.259842 200.0
89.429153 152.0
90.474937 200.0
90.810051 156.0
91.127365 256.0
91.188171 184.0
91.307953 200.0
92.053146 160.0
92.586655 188.0
93.179375 160.0
93.404297 152.0
93.554649 152.0
94.065254 372.0
95.855423 160.0
97.183128 188.0
97.403008 148.0
98.348167 176.0
99.051849 184.0
99.113525 148.0
99.524117 152.0
102.403915 164.0
103.052803 176.0
103.54303 172.0
103.899788 208.0
104.046875 312.0
104.442177 164.0
105.035065 176.0
105.065529 220.0
105.283936 176.0
106.065453 1620.0
106.083969 184.0
107.059875 192.0
107.532066 212.0
107.682793 244.0
109.697609 152.0
110.190132 160.0
110.342705 160.0
110.669098 216.0
111.411552 148.0
111.514519 220.0
113.30397 176.0
113.942566 200.0
114.189156 188.0
115.040169 296.0
115.284973 176.0
115.736336 180.0
116.021294 196.0
116.053452 148.0
116.471939 180.0
116.710487 140.0
117.055977 324.0
117.149353 132.0
117.274529 144.0
118.059364 160.0
118.077705 192.0
118.235641 216.0
119.039932 212.0
119.063293 164.0
119.720604 184.0
119.738022 236.0
120.080086 188.0
121.065865 160.0
124.242172 152.0
126.743813 176.0
128.188705 184.0
129.118805 232.0
129.347336 192.0
129.589661 152.0
129.727905 160.0
130.064774 1284.0
130.340714 208.0
130.59761 204.0
131.002686 188.0
131.048111 192.0
131.075577 372.0
131.952179 180.0
132.044296 268.0
132.069611 364.0
132.98761 220.0
133.052475 140.0
133.076355 2016.0
133.875061 188.0
134.060532 680.0
134.760834 188.0
135.055588 1220.0
135.089127 192.0
136.199493 144.0
136.936813 156.0
137.218781 152.0
138.131912 140.0
138.961243 200.0
139.073883 188.0
139.938995 248.0
140.143906 156.0
140.216965 148.0
142.664505 184.0
142.731079 200.0
142.800049 188.0
144.52005 316.0
145.074875 148.0
145.815002 176.0
145.932785 148.0
146.055435 200.0
146.085892 376.0
146.389984 164.0
147.05835 172.0
147.092453 1928.0
148.000626 144.0
148.053894 188.0
148.094009 376.0
149.659027 140.0
150.531982 196.0
152.592697 208.0
153.306534 204.0
153.501282 188.0
153.789932 184.0
155.110794 176.0
155.520081 144.0
155.634277 144.0
156.302917 180.0
156.990463 164.0
157.105194 200.0
158.062012 208.0
158.114685 156.0
158.485306 160.0
158.963943 164.0
159.778336 208.0
160.065277 176.0
161.066528 192.0
161.220657 192.0
161.321762 224.0
163.246201 144.0
164.331314 168.0
164.985138 152.0
165.115555 212.0
165.87088 168.0
167.662369 144.0
168.930145 148.0
168.971542 164.0
169.447922 156.0
169.486786 192.0
173.077972 432.0
174.012268 148.0
174.080826 224.0
174.114685 164.0
174.317474 104.0
174.874512 156.0
174.982773 196.0
175.007095 144.0
175.055557 352.0
175.087753 55308.0
175.27623 160.0
175.324066 144.0
175.51767 152.0
175.567429 212.0
176.090622 4660.0
176.145447 156.0
176.598648 168.0
177.057968 172.0
177.09375 524.0
177.137436 224.0
177.363998 100.0
177.416138 120.0
178.448456 140.0
183.503555 160.0
190.069839 152.0
207.002029 160.0
217.002304 144.0
217.094421 280.0
218.100235 152.0
239.030243 128.0
241.023895 200.0
268.219421 160.0
270.404572 152.0
275.921112 184.0
1243.741211 316.0
1423.144287 144.0
1434.022217 168.0
1441.569214 152.0
1442.158691 172.0
1458.189087 204.0
1528.483765 164.0
1540.943726 232.0
1541.006226 160.0
1561.22229 188.0
1576.152832 160.0
1674.208008 144.0
1728.331055 168.0
1737.901367 192.0
1757.579956 188.0
1768.678467 164.0
1777.486816 172.0
1778.460327 168.0
1834.008301 152.0
1840.756714 212.0
1862.441895 152.0
1876.00354 196.0
1879.772705 144.0
1882.077393 156.0
1883.787476 180.0
1890.747925 208.0
1892.782349 160.0
1914.544434 164.0
1922.591187 236.0
1932.605469 204.0
1943.716064 256.0
1977.964966 140.0
1983.474731 156.0
1987.54541 204.0
1989.364868 192.0
1992.517578 252.0
1993.406128 172.0
1996.482056 148.0
