>compound VARDENAFIL CITRATE
>formula C23H32N6O4S
>ionization [M+H]+
>parentmass 489.2278509560905
#inchi InChI=1S/C23H32N6O4S/c1-5-8-20-24-16(4)21-23(30)25-22(26-29(20)21)18-15-17(9-10-19(18)33-7-3)34(31,32)28-13-11-27(6-2)12-14-28/h9-10,15H,5-8,11-14H2,1-4H3,(H,25,26,30)
#inchikey SECKRCOLJRRGGV
#Ion_Source LC-ESI
#Instrument qTof
#Compound_Source Commercial
#PI Dorrestein
#Data_Collector Garg_Neha
#Scan -1
#Precursor_MZ 489.228
#ExactMass 488.221
#Charge 1
#CAS_Number N/A
#Pubmed_ID N/A
#Smiles CCCc1nc(C)c2c(O)nc(nn12)c3cc(ccc3OCC)S(=O)(=O)N4CCN(CC)CC4
#INCHI_AUX N/A
#Library_Class 1
#SpectrumID CCMSLIB00000079076
#IonMode Positive
#UpdateWorkflowName UPDATE-SINGLE-ANNOTATED-GOLD
#LibraryQualityString Gold
#TaskID 278b19f5865741e282cec7349aa7e7a1
##Scan# 1120
#SpectrumFile NCP003432_E2_F11_BD2_01_15724.mzXML
#LibraryName NIHcollectionI_05062014.mgf
#MQScore -1
#Organism NIHcollectionI_05062014
#TIC_Query 0
#RT_Query -1
#MZErrorPPM -1
#SharedPeaks 0
#MassDiff 0
#LibMZ -1
#SpecMZ 489.228
#SpecCharge 0
#internalFilename spec-00000.mgf

>collision 10
44.970028 172.0
45.795959 180.0
46.512596 180.0
47.478596 152.0
47.691406 148.0
51.690563 192.0
52.074772 140.0
53.821308 140.0
53.891415 156.0
55.617428 168.0
55.98019 148.0
56.884747 188.0
56.983864 168.0
57.864662 152.0
58.765945 180.0
58.808674 180.0
58.898762 184.0
59.891178 184.0
60.32478 168.0
61.34156 164.0
62.026226 184.0
62.459606 196.0
63.042961 172.0
63.197922 144.0
64.29438 152.0
64.363022 248.0
64.573967 180.0
64.642754 156.0
66.424706 284.0
74.817314 180.0
75.229332 160.0
75.272491 160.0
75.876343 212.0
79.323051 168.0
79.562538 236.0
80.254623 164.0
81.459076 160.0
83.023941 148.0
83.581619 176.0
85.287369 148.0
85.99704 176.0
86.831459 144.0
90.073372 164.0
91.39286 200.0
94.078003 176.0
94.423874 192.0
94.626114 128.0
95.028244 152.0
95.047646 148.0
95.796165 184.0
96.913666 144.0
97.0765 276.0
98.084251 760.0
99.09227 5520.0
99.120728 340.0
100.094444 1184.0
100.514458 148.0
102.549988 172.0
103.149467 168.0
103.195969 212.0
108.584251 140.0
109.175873 160.0
110.418831 196.0
111.094063 812.0
111.931877 152.0
112.100471 672.0
113.108002 8008.0
113.830772 200.0
113.866875 208.0
114.051414 140.0
114.113617 2992.0
114.275009 192.0
114.658295 164.0
114.922714 148.0
115.120773 520.0
115.208359 136.0
116.128159 156.0
116.956451 152.0
120.714157 200.0
123.275139 164.0
123.640022 160.0
124.982559 156.0
125.096062 148.0
127.374489 212.0
135.006134 144.0
136.041824 168.0
136.102188 164.0
136.748459 180.0
137.058182 172.0
138.001144 140.0
138.377823 156.0
138.511307 172.0
141.731857 180.0
143.071381 184.0
144.98941 164.0
146.091507 200.0
146.524841 232.0
148.06694 212.0
149.493393 172.0
151.052429 152.0
152.204285 200.0
154.100845 152.0
155.068405 148.0
155.663803 152.0
157.217163 164.0
158.489151 124.0
161.428696 144.0
162.072983 204.0
162.161682 156.0
162.787292 172.0
163.09317 144.0
163.151627 148.0
163.736862 152.0
163.769974 156.0
164.54007 176.0
164.675415 144.0
165.058746 156.0
166.098129 576.0
166.694382 224.0
166.892075 184.0
169.84906 144.0
170.264328 172.0
170.773727 276.0
171.920044 160.0
172.397949 140.0
173.070969 1376.0
173.742813 172.0
174.072433 144.0
175.11853 140.0
175.606125 144.0
175.864685 156.0
175.885803 156.0
177.06955 596.0
177.150894 208.0
178.074585 152.0
178.200333 140.0
178.835892 164.0
179.06662 140.0
180.888962 120.0
182.312714 168.0
183.084793 180.0
185.093887 172.0
185.345795 208.0
185.549072 200.0
185.706039 180.0
186.390457 184.0
187.085999 120.0
187.604324 208.0
187.773376 172.0
187.956146 212.0
188.133545 164.0
190.680923 168.0
192.117767 436.0
193.109894 172.0
193.79364 204.0
194.264938 144.0
194.331741 256.0
195.74353 192.0
196.507248 176.0
196.987427 148.0
197.082413 176.0
198.335312 108.0
199.062775 148.0
201.315582 168.0
202.214584 200.0
206.096298 188.0
207.017365 140.0
207.751099 180.0
210.638382 152.0
211.896774 144.0
212.040222 116.0
212.122818 152.0
212.574448 100.0
213.081573 160.0
214.097076 168.0
215.11319 144.0
216.07756 152.0
216.756851 144.0
217.11264 240.0
217.278732 160.0
218.753983 204.0
219.127991 144.0
220.229904 124.0
220.862762 116.0
221.983261 148.0
223.468414 164.0
223.634445 136.0
224.722748 144.0
225.068558 172.0
226.07933 160.0
227.08815 260.0
227.139954 156.0
228.10466 204.0
228.265945 236.0
228.609116 164.0
228.693375 144.0
231.119675 176.0
232.786835 184.0
233.102753 144.0
237.091263 172.0
238.03302 204.0
238.057587 152.0
239.087433 156.0
239.312134 144.0
239.771118 152.0
239.928314 152.0
240.067581 96.0
240.101532 112.0
240.715088 176.0
241.074295 160.0
241.518616 172.0
241.766129 176.0
242.080399 300.0
243.091873 172.0
243.126587 212.0
244.294846 144.0
245.266388 244.0
245.646805 156.0
248.261536 224.0
248.339935 156.0
248.622299 164.0
248.829468 252.0
249.162369 172.0
249.253479 148.0
249.492355 188.0
249.60553 148.0
249.649567 176.0
249.70932 160.0
250.096313 172.0
250.530853 148.0
251.136063 216.0
251.307953 132.0
251.39476 152.0
251.712234 140.0
251.998245 168.0
252.204224 132.0
252.247528 148.0
252.851639 164.0
253.045792 168.0
253.070587 332.0
253.10936 148.0
253.147675 156.0
253.305756 120.0
253.351929 152.0
253.633957 140.0
253.874908 148.0
253.938339 160.0
254.079132 1328.0
254.490494 236.0
254.950134 148.0
255.085678 292.0
255.125916 952.0
255.286438 168.0
255.326218 172.0
255.921265 144.0
255.979126 116.0
256.097595 564.0
257.131744 148.0
257.721375 148.0
258.077362 164.0
258.154907 140.0
259.109863 148.0
261.658722 176.0
261.732788 140.0
262.049347 128.0
262.580292 172.0
263.34198 172.0
263.374268 220.0
263.597198 144.0
263.726471 172.0
264.116882 128.0
265.107147 188.0
265.490936 176.0
266.08963 360.0
266.127747 148.0
267.084656 176.0
267.122192 644.0
267.596527 180.0
268.101013 244.0
268.123352 176.0
268.136108 276.0
268.265411 148.0
268.861237 184.0
269.137329 552.0
269.249725 148.0
270.053345 100.0
270.108856 188.0
270.147644 180.0
270.400543 168.0
270.451385 208.0
270.652588 160.0
271.304565 184.0
271.632507 164.0
271.75061 176.0
272.128052 180.0
272.939606 164.0
273.071136 176.0
273.131042 152.0
273.647003 164.0
273.71286 172.0
273.874237 152.0
274.424561 196.0
274.543274 148.0
274.708588 196.0
274.873138 148.0
275.209808 148.0
275.543396 224.0
275.705322 156.0
277.171265 144.0
277.429779 264.0
277.734833 144.0
278.124512 144.0
279.130249 160.0
279.853027 148.0
280.428009 236.0
281.101929 188.0
281.32193 156.0
281.580597 188.0
281.958771 152.0
282.043457 164.0
282.112549 2092.0
283.119354 22032.0
283.218384 140.0
283.317932 116.0
284.025696 144.0
284.124237 4880.0
284.210327 124.0
284.855225 156.0
285.022186 160.0
285.134766 2184.0
286.044556 188.0
286.065643 100.0
286.134155 604.0
286.191528 176.0
286.243805 180.0
287.08075 164.0
287.123016 108.0
287.665375 136.0
288.084106 220.0
288.116638 124.0
288.573853 108.0
288.653107 140.0
288.757935 168.0
288.856018 156.0
289.468597 172.0
289.715851 176.0
292.143707 132.0
293.105194 164.0
293.139191 616.0
293.18158 168.0
293.931793 196.0
294.139343 144.0
294.768372 116.0
295.095917 192.0
295.118591 236.0
295.152039 292.0
295.199097 224.0
295.469299 156.0
296.129822 136.0
296.164185 152.0
296.499969 208.0
296.884613 100.0
297.021118 156.0
297.097321 464.0
297.133453 1304.0
297.412262 144.0
297.84491 252.0
298.138153 348.0
298.377533 152.0
298.642334 140.0
299.115906 6424.0
299.447693 184.0
299.930054 208.0
300.117889 736.0
301.072052 348.0
301.126526 576.0
301.452057 188.0
301.535004 140.0
301.611053 144.0
302.064026 144.0
302.127228 148.0
303.185791 204.0
304.236755 180.0
304.601379 180.0
304.740356 144.0
305.476898 128.0
305.67218 176.0
306.517944 176.0
306.887817 176.0
307.933685 180.0
308.119812 144.0
308.402863 160.0
308.631744 136.0
308.783966 148.0
309.067322 156.0
309.257111 156.0
309.532867 152.0
309.974213 172.0
310.103699 244.0
310.14325 172.0
310.464996 188.0
310.752045 124.0
311.151154 12556.0
311.355011 104.0
311.823639 180.0
311.988831 188.0
312.031036 188.0
312.080383 796.0
312.15506 4168.0
312.251587 116.0
312.315735 120.0
313.085175 512.0
313.16272 2536.0
313.386047 148.0
313.792847 132.0
313.82663 160.0
314.053467 148.0
314.091095 276.0
314.170807 476.0
314.294373 188.0
315.066864 136.0
315.108246 1188.0
315.169769 228.0
315.268982 104.0
315.850159 172.0
315.876129 140.0
316.060669 144.0
316.113861 404.0
316.671326 140.0
316.893585 160.0
316.919281 144.0
317.110657 172.0
317.294983 204.0
317.49353 160.0
318.110901 188.0
318.586761 148.0
318.902985 152.0
319.596436 176.0
320.044098 140.0
320.368744 160.0
321.454559 112.0
322.806732 184.0
323.200195 204.0
323.998596 164.0
324.116852 184.0
324.161041 168.0
324.726257 180.0
324.787231 152.0
324.989594 128.0
325.1474 268.0
325.910889 160.0
326.091492 876.0
326.161835 192.0
326.424225 172.0
327.097168 412.0
327.143311 972.0
327.877106 204.0
328.04422 220.0
328.114868 276.0
328.604034 152.0
329.080109 124.0
329.12912 240.0
329.163269 420.0
329.232544 164.0
329.292542 104.0
329.448822 176.0
330.162292 520.0
330.244049 144.0
331.088379 288.0
332.082764 144.0
332.795227 144.0
333.102661 288.0
334.536652 144.0
334.656799 140.0
334.784241 140.0
335.086578 144.0
335.39267 148.0
335.43277 160.0
335.797394 160.0
335.92868 152.0
336.107452 232.0
336.852234 156.0
338.117798 124.0
338.490723 164.0
338.796509 204.0
338.948578 160.0
339.179779 892.0
339.707489 156.0
340.182434 232.0
340.224915 144.0
340.873505 136.0
340.948517 156.0
341.108124 124.0
341.198456 160.0
341.485687 144.0
342.08136 156.0
342.136597 156.0
342.197052 132.0
342.729553 164.0
342.880646 176.0
342.991211 140.0
343.129333 300.0
343.902252 260.0
344.031433 156.0
344.064667 148.0
344.148621 2080.0
344.888428 152.0
345.15155 400.0
345.59845 188.0
345.63916 160.0
346.149567 132.0
346.609283 148.0
346.642639 152.0
346.92804 168.0
347.084167 384.0
347.51651 148.0
348.093292 116.0
348.256439 168.0
349.093689 372.0
349.185608 160.0
349.553894 196.0
350.105316 124.0
350.618958 144.0
351.103577 180.0
351.526367 128.0
352.29425 164.0
352.544586 140.0
353.277435 140.0
354.193481 372.0
354.885834 136.0
355.079071 148.0
355.196564 220.0
355.465454 168.0
355.919647 148.0
356.15625 140.0
356.400421 160.0
356.483093 168.0
357.426941 176.0
357.825897 164.0
358.189758 180.0
358.724945 192.0
358.903473 152.0
359.106598 120.0
359.503754 120.0
359.869354 144.0
360.133331 288.0
360.292358 164.0
360.356598 152.0
361.14093 136.0
361.415253 160.0
361.877014 188.0
361.97168 172.0
362.633514 108.0
362.846893 180.0
363.928192 244.0
364.049713 152.0
364.110474 156.0
364.205414 148.0
364.478943 168.0
364.687958 140.0
365.180695 304.0
366.069183 128.0
366.183197 148.0
366.274628 204.0
366.369843 180.0
367.193176 144.0
367.601379 164.0
368.200409 312.0
369.315826 192.0
370.403778 180.0
372.023895 112.0
372.17688 176.0
372.440552 160.0
372.882385 144.0
373.005402 140.0
373.047668 140.0
373.609131 192.0
373.929504 152.0
374.147919 164.0
374.286926 112.0
374.848907 192.0
375.113159 348.0
375.164948 148.0
375.631531 144.0
375.896698 192.0
375.959503 172.0
376.111633 312.0
376.330048 148.0
376.677612 156.0
376.867737 112.0
376.939819 148.0
377.128937 2796.0
378.133514 640.0
378.208832 164.0
378.243683 144.0
378.388245 116.0
379.125275 148.0
379.661713 160.0
380.53476 172.0
381.206726 168.0
382.224518 184.0
382.688721 104.0
383.224121 164.0
383.253479 164.0
383.502869 140.0
383.576935 140.0
384.204773 168.0
384.528625 140.0
385.157257 160.0
385.757629 184.0
385.911469 172.0
386.306458 120.0
386.689667 120.0
387.16394 100.0
387.328125 156.0
388.037445 148.0
388.445282 164.0
388.555115 152.0
388.700287 308.0
388.9711 164.0
389.598206 100.0
390.22821 176.0
391.138458 184.0
391.361328 168.0
392.133453 140.0
392.493958 108.0
393.016785 208.0
393.814209 176.0
395.328369 160.0
395.724182 176.0
396.222443 236.0
396.94458 160.0
397.051636 152.0
397.083374 188.0
397.225189 144.0
397.523224 124.0
397.682465 184.0
399.23587 144.0
399.538147 156.0
399.581909 168.0
399.753021 300.0
400.700653 156.0
401.53775 148.0
401.665375 140.0
401.773071 176.0
402.761963 244.0
403.826691 140.0
404.16095 120.0
404.606537 224.0
404.766693 160.0
405.119141 140.0
405.170593 340.0
406.057068 336.0
406.166107 240.0
406.498352 160.0
406.674927 148.0
406.956299 132.0
407.184814 240.0
407.647705 124.0
407.813599 96.0
408.410675 188.0
408.539398 144.0
408.963623 164.0
409.461121 160.0
409.859924 148.0
410.396027 160.0
410.877777 176.0
410.940521 156.0
410.972778 156.0
411.029266 148.0
411.09787 164.0
412.110107 128.0
412.208344 156.0
412.281097 148.0
412.758087 208.0
414.575653 232.0
414.863403 156.0
415.058014 164.0
415.625885 148.0
415.808502 148.0
416.153534 204.0
416.527161 164.0
416.689423 136.0
416.909058 200.0
417.031006 156.0
417.376526 140.0
417.522919 168.0
417.740265 156.0
417.836151 188.0
417.907532 108.0
418.027374 144.0
418.147675 164.0
418.605408 188.0
418.754486 152.0
418.866058 160.0
419.239655 128.0
420.093048 168.0
420.166412 152.0
420.600037 112.0
420.783569 96.0
421.520233 104.0
422.020691 144.0
422.056641 116.0
422.990234 148.0
423.257507 244.0
423.411957 172.0
424.155823 152.0
424.990173 160.0
425.024658 196.0
425.263275 144.0
426.118805 152.0
426.190552 164.0
426.577515 156.0
426.645294 156.0
427.029572 96.0
428.586945 124.0
428.653809 184.0
428.859863 232.0
429.680481 260.0
429.87854 160.0
430.814301 136.0
431.297455 112.0
431.915314 184.0
432.829651 184.0
432.995575 144.0
433.612885 180.0
433.774536 192.0
434.184998 156.0
434.558319 176.0
435.687897 148.0
436.564575 180.0
436.631104 156.0
437.710114 212.0
437.869293 164.0
439.313507 140.0
439.644989 116.0
440.006256 200.0
440.12973 192.0
440.251038 168.0
440.590942 168.0
441.192719 248.0
441.251251 156.0
442.714172 120.0
443.260315 160.0
443.616577 212.0
443.960358 180.0
444.127167 136.0
444.233002 156.0
444.665161 156.0
444.807892 156.0
444.929626 140.0
445.055573 192.0
445.664612 152.0
446.206787 196.0
446.547394 176.0
446.585236 176.0
446.665161 208.0
447.190094 132.0
448.631561 152.0
450.437775 148.0
450.624664 152.0
450.78421 204.0
450.927887 176.0
451.536713 156.0
451.743958 144.0
452.006256 156.0
452.167084 144.0
452.526886 148.0
452.84024 144.0
454.472321 220.0
454.544434 176.0
455.15567 140.0
455.729095 144.0
455.815918 128.0
456.438904 164.0
457.08374 128.0
457.700928 120.0
458.18396 148.0
458.469421 164.0
458.546143 148.0
459.535431 164.0
459.765869 212.0
460.243958 144.0
460.735107 156.0
461.055573 180.0
461.194641 4060.0
461.531586 168.0
461.611298 216.0
462.08609 184.0
462.199829 1208.0
462.25235 172.0
462.42157 120.0
463.022125 124.0
463.19458 228.0
463.850433 144.0
463.983337 152.0
464.017639 144.0
464.17627 164.0
464.717682 124.0
466.696747 160.0
467.029083 144.0
468.133942 144.0
468.642212 140.0
468.886444 148.0
469.406464 168.0
470.155731 152.0
470.328369 140.0
470.889679 148.0
471.06427 168.0
471.347595 160.0
471.395111 176.0
471.61554 160.0
472.454407 140.0
473.545197 216.0
473.76178 180.0
474.122803 144.0
474.511536 156.0
474.611267 184.0
475.665466 168.0
476.216919 180.0
476.319061 100.0
476.937805 96.0
477.041443 100.0
477.125092 156.0
477.268555 152.0
478.994965 108.0
479.298767 160.0
479.427643 140.0
479.915833 188.0
480.334503 152.0
480.539551 148.0
480.727509 156.0
481.0047 116.0
481.380768 116.0
481.438721 96.0
481.581116 152.0
481.623505 196.0
481.735718 168.0
482.330017 152.0
482.439301 148.0
482.658813 172.0
482.993256 140.0
483.595215 108.0
483.957397 260.0
484.060272 220.0
484.099121 212.0
484.160767 184.0
484.397339 164.0
484.573486 160.0
484.750214 148.0
484.785278 196.0
484.866699 152.0
484.949493 112.0
485.04245 108.0
485.291809 136.0
485.367828 236.0
485.420502 268.0
485.574402 304.0
485.647369 172.0
485.704102 112.0
485.79071 100.0
485.868286 212.0
485.911804 192.0
485.99884 108.0
486.050903 108.0
486.100159 240.0
486.2146 108.0
486.338715 132.0
486.449615 232.0
486.541931 260.0
486.634918 216.0
486.737305 124.0
486.82254 248.0
486.869049 244.0
486.924988 432.0
486.976349 168.0
487.042938 320.0
487.154297 248.0
487.217285 1460.0
487.314423 176.0
487.34964 296.0
487.379395 256.0
487.425446 400.0
487.53418 424.0
487.613678 200.0
487.702789 244.0
487.765259 232.0
487.801941 184.0
487.836975 332.0
487.87204 296.0
487.94046 196.0
487.98822 224.0
488.041351 328.0
488.067383 344.0
488.115723 272.0
488.157745 308.0
488.217163 664.0
488.32785 96.0
488.450653 264.0
488.532013 220.0
488.563141 408.0
488.607056 340.0
488.651794 436.0
488.700775 444.0
488.735168 472.0
488.809143 516.0
488.841644 456.0
488.862549 532.0
488.919952 544.0
488.979279 472.0
489.035614 896.0
489.063263 712.0
489.095367 1352.0
489.230865 255300.0
489.485107 116.0
489.54068 320.0
489.641479 1408.0
489.710175 720.0
489.78064 684.0
489.8992 1064.0
489.968201 9988.0
490.029724 864.0
490.122162 604.0
490.155548 400.0
490.233276 199300.0
490.392822 284.0
490.447601 268.0
490.500488 148.0
490.54071 100.0
490.645203 1572.0
490.719025 556.0
490.758301 516.0
490.857513 164.0
490.911865 264.0
490.962799 524.0
491.013916 456.0
491.073883 396.0
491.118103 612.0
491.155518 320.0
491.230682 69480.0
491.336456 140.0
491.363312 476.0
491.383179 284.0
491.502319 132.0
491.565216 108.0
491.623077 148.0
491.6922 388.0
491.821228 152.0
491.886475 240.0
491.976532 148.0
492.043396 284.0
492.105377 100.0
492.150391 152.0
492.230408 7464.0
492.309601 204.0
492.380157 188.0
492.403503 176.0
492.512238 260.0
492.633759 144.0
492.676544 324.0
492.731842 376.0
492.781738 532.0
492.8461 316.0
492.916962 324.0
492.945587 332.0
493.025452 680.0
493.083557 280.0
493.123016 392.0
493.159241 632.0
493.229187 1116.0
493.279572 460.0
493.336487 456.0
493.427734 228.0
493.482147 240.0
493.555389 184.0
493.602081 228.0
493.714783 164.0
493.822388 112.0
493.875946 128.0
493.916046 124.0
493.994049 172.0
494.105377 152.0
494.17923 212.0
494.22522 112.0
494.318756 112.0
494.370667 216.0
494.405121 204.0
494.439758 388.0
494.499695 212.0
494.611542 128.0
494.808258 212.0
494.875214 116.0
494.969574 116.0
495.064209 144.0
495.138062 140.0
495.199707 116.0
495.329437 96.0
495.695435 108.0
495.923126 124.0
496.177917 124.0
496.90387 144.0
499.660156 100.0
500.731049 108.0
500.771912 100.0
503.079346 148.0
503.295868 216.0
503.873505 96.0
505.282715 96.0
505.657043 104.0
506.222595 160.0
506.465759 112.0
506.936432 180.0
507.076935 120.0
507.143646 116.0
507.547668 136.0
508.024231 144.0
508.703339 120.0
509.941376 96.0
510.729095 180.0
511.141113 148.0
511.349274 184.0
511.454681 172.0
513.884583 112.0
518.426086 152.0
523.183167 104.0
552.512024 144.0
586.28479 192.0
614.190979 100.0
616.076538 140.0
625.501526 144.0
633.310852 164.0
636.018433 148.0
638.520508 148.0
666.636902 108.0
668.398804 140.0
689.803345 100.0
697.666382 144.0
729.832458 116.0
785.026123 124.0
817.7948 156.0
888.391968 96.0
989.165588 120.0
1390.311768 156.0
1430.968384 144.0
1432.570068 104.0
1468.738281 156.0
1494.575562 104.0
1535.161499 160.0
1562.639282 184.0
1575.766357 180.0
1576.098267 260.0
1627.121338 140.0
1654.904541 140.0
1655.074585 148.0
1665.073242 160.0
1665.755493 148.0
1686.84436 232.0
1733.842773 164.0
1740.794556 196.0
1773.900879 144.0
1792.137817 152.0
1798.935303 224.0
1845.979858 140.0
1846.159546 184.0
1857.662231 176.0
1863.594482 164.0
1877.237671 176.0
1885.412842 172.0
1889.277832 160.0
1905.915405 164.0
1914.196289 204.0
1916.452271 172.0
1923.158325 256.0
1944.443848 160.0
1975.388428 152.0
1979.14978 140.0
1993.901855 140.0
1997.992065 176.0
2000.79541 268.0
2000.902222 196.0
