>compound (+)-3-HYDROXY-N-METHYLMORPHINAN D-TARTRATE
>formula C17H23NO
>ionization [M+H]+
>parentmass 258.1852408080905
#inchi InChI=1S/C17H23NO/c1-18-9-8-17-7-3-2-4-14(17)16(18)10-12-5-6-13(19)11-15(12)17/h5-6,11,14,16,19H,2-4,7-10H2,1H3/t14-,16+,17+/m1/s1
#inchikey JAQUASYNZVUNQP
#Ion_Source LC-ESI
#Instrument qTof
#Compound_Source Commercial
#PI Dorrestein
#Data_Collector Garg_Neha
#Scan -1
#Precursor_MZ 258.185
#ExactMass 257.178
#Charge 1
#CAS_Number N/A
#Pubmed_ID N/A
#Smiles CN1CC[C@]23CCCC[C@@H]3[C@@H]1Cc4ccc(O)cc42
#INCHI_AUX N/A
#Library_Class 1
#SpectrumID CCMSLIB00000079179
#IonMode Positive
#UpdateWorkflowName UPDATE-SINGLE-ANNOTATED-GOLD
#LibraryQualityString Gold
#TaskID 278b19f5865741e282cec7349aa7e7a1
##Scan# 1036
#SpectrumFile NCP003592_C2_D11_BE1_01_15735.mzXML
#LibraryName NIHcollectionI_05062014.mgf
#MQScore -1
#Organism NIHcollectionI_05062014
#TIC_Query 0
#RT_Query -1
#MZErrorPPM -1
#SharedPeaks 0
#MassDiff 0
#LibMZ -1
#SpecMZ 258.185
#SpecCharge 0
#internalFilename spec-00000.mgf

>collision 10
44.976593 156.0
45.012779 356.0
45.064873 252.0
45.075562 184.0
45.147747 144.0
45.240913 108.0
45.257553 140.0
45.313728 172.0
45.414268 156.0
45.528347 204.0
45.569988 144.0
45.727322 148.0
45.742783 248.0
45.996899 216.0
46.029301 180.0
46.244251 152.0
46.299759 144.0
46.406811 188.0
46.459705 184.0
46.663422 148.0
46.681831 148.0
46.828075 140.0
46.841698 160.0
46.860771 152.0
46.96574 172.0
46.99575 160.0
47.050346 224.0
47.069458 148.0
47.133659 168.0
47.327892 176.0
47.526642 168.0
47.802834 220.0
47.958828 180.0
47.983273 160.0
48.107857 196.0
48.119862 144.0
48.562683 160.0
48.720928 204.0
48.815441 200.0
48.900303 148.0
48.921185 148.0
49.230717 196.0
49.411686 128.0
49.51041 236.0
49.675701 168.0
49.688217 160.0
49.760006 156.0
49.78809 184.0
49.995228 152.0
50.062321 216.0
50.128529 144.0
50.175041 188.0
50.302006 252.0
50.342953 200.0
50.409344 200.0
50.468712 168.0
50.550213 188.0
50.607376 208.0
50.627068 128.0
50.791607 152.0
51.203793 216.0
51.229431 184.0
51.242252 216.0
51.26548 120.0
51.527596 180.0
51.722084 172.0
51.738575 96.0
51.868187 148.0
51.900703 188.0
51.941574 156.0
51.957096 164.0
52.008759 164.0
52.08773 156.0
52.256241 148.0
52.355251 164.0
52.490711 244.0
52.733246 160.0
52.744808 168.0
52.756374 216.0
52.918407 160.0
52.963837 212.0
52.994888 144.0
53.092293 192.0
53.454014 192.0
53.544685 196.0
53.668137 152.0
53.700218 140.0
54.109375 140.0
54.143055 152.0
54.167953 212.0
54.374691 220.0
54.461319 152.0
54.734859 176.0
54.789352 184.0
55.043041 152.0
55.069622 156.0
55.093258 140.0
56.099861 176.0
56.323093 152.0
56.372555 144.0
56.399456 156.0
56.562496 180.0
56.622681 132.0
56.80225 172.0
56.916309 252.0
56.98991 156.0
57.009445 200.0
57.233673 124.0
57.252029 220.0
57.411392 200.0
57.489838 164.0
57.507946 176.0
57.52153 164.0
57.574375 212.0
57.804157 140.0
57.848045 140.0
58.123882 160.0
58.666855 172.0
58.694298 224.0
58.718697 160.0
58.992012 192.0
59.268944 152.0
59.384567 152.0
59.525192 296.0
59.566658 164.0
59.586632 144.0
59.623508 188.0
59.672699 152.0
59.712677 168.0
59.949009 180.0
60.122482 152.0
60.188129 160.0
60.354195 140.0
60.441242 232.0
60.453194 236.0
60.46867 148.0
60.831371 180.0
60.857765 156.0
61.201385 140.0
61.37746 156.0
61.589436 256.0
61.631886 216.0
61.711254 164.0
61.971413 160.0
62.007458 164.0
62.401463 164.0
62.448639 168.0
62.522583 176.0
62.5336 156.0
62.634369 180.0
62.764954 200.0
62.803024 184.0
62.834576 180.0
62.846779 188.0
62.894543 164.0
63.020088 128.0
63.335739 136.0
63.533844 172.0
63.593349 232.0
63.651295 156.0
63.873795 152.0
63.916748 196.0
63.962902 144.0
64.155655 180.0
64.287796 132.0
64.331131 192.0
64.38382 176.0
64.463699 152.0
64.583603 160.0
64.670006 160.0
64.694016 192.0
64.908661 224.0
65.120544 152.0
65.21373 180.0
65.665337 164.0
65.778343 96.0
65.791046 200.0
66.037628 236.0
66.091011 200.0
66.115288 152.0
66.137947 168.0
66.2351 216.0
66.411774 160.0
66.863449 140.0
67.085716 172.0
67.102173 188.0
67.312759 136.0
67.346794 140.0
67.431007 156.0
67.542725 132.0
67.781212 148.0
67.800873 160.0
68.03051 148.0
68.114258 180.0
68.181618 220.0
68.285652 216.0
68.413544 180.0
68.530472 204.0
68.610779 176.0
68.640907 208.0
68.670593 152.0
68.712273 164.0
68.817459 140.0
68.967789 168.0
68.984322 180.0
69.237473 144.0
69.291054 184.0
69.421036 172.0
69.961418 152.0
70.251389 256.0
70.533592 200.0
70.577057 148.0
70.65403 172.0
70.741013 152.0
70.791245 200.0
70.836464 196.0
70.853218 208.0
70.89164 172.0
71.022522 192.0
71.074768 144.0
71.131592 160.0
71.14502 144.0
71.194824 176.0
71.232346 156.0
71.343254 220.0
71.399345 168.0
71.417244 140.0
71.807991 176.0
71.82933 148.0
71.921036 320.0
72.160919 196.0
72.172752 144.0
72.675995 112.0
72.990593 136.0
73.270882 208.0
73.728172 160.0
73.835876 180.0
73.991592 220.0
74.161179 156.0
74.18689 228.0
74.305222 244.0
75.043053 140.0
75.089615 144.0
75.226463 180.0
75.341629 216.0
75.357178 180.0
75.611374 156.0
75.723907 196.0
75.921478 156.0
76.17646 216.0
76.213104 156.0
76.386955 188.0
76.470474 168.0
76.576675 144.0
76.588875 148.0
76.642876 152.0
77.508812 104.0
77.572647 196.0
77.718216 188.0
77.774368 144.0
77.855133 176.0
78.011505 140.0
78.120537 164.0
78.134613 196.0
78.306206 108.0
78.347633 144.0
78.570618 288.0
78.645638 188.0
78.666824 172.0
78.733917 188.0
78.756874 172.0
78.882851 96.0
78.944214 196.0
78.990196 212.0
79.004829 164.0
79.117615 176.0
79.170731 248.0
79.278793 184.0
79.324875 140.0
79.547043 248.0
79.866455 160.0
79.907372 148.0
80.224373 192.0
80.524139 184.0
80.801437 156.0
80.851517 136.0
80.969467 156.0
81.346977 212.0
81.45015 140.0
81.603096 144.0
81.757591 144.0
81.838593 152.0
82.043983 196.0
82.136467 140.0
82.19368 212.0
82.206314 148.0
82.41259 140.0
82.875351 144.0
82.931534 144.0
83.02581 168.0
83.058456 200.0
83.216339 140.0
83.265366 148.0
83.374588 168.0
83.390518 176.0
83.525276 232.0
83.541649 348.0
83.618073 148.0
83.789238 248.0
83.912193 120.0
84.047226 112.0
84.132889 192.0
84.258102 400.0
84.307442 164.0
84.825409 144.0
84.995766 180.0
85.069382 160.0
85.131805 152.0
85.1465 156.0
85.201607 184.0
85.216301 172.0
85.310028 176.0
85.608093 172.0
85.66468 160.0
85.716774 176.0
85.773911 172.0
85.801559 188.0
85.82 156.0
86.032166 160.0
86.096786 212.0
86.288963 204.0
86.316696 228.0
86.36525 172.0
86.890877 152.0
86.96032 160.0
87.070923 164.0
87.14151 152.0
87.195404 156.0
87.232727 144.0
87.429733 144.0
87.522804 168.0
87.65506 164.0
88.026268 144.0
88.097237 180.0
88.18132 140.0
88.226181 200.0
88.405952 156.0
88.536789 168.0
88.598602 196.0
88.613586 176.0
88.637947 148.0
88.696045 184.0
88.896721 140.0
89.095749 148.0
89.125809 168.0
89.244217 188.0
89.321327 156.0
89.671539 148.0
89.786545 272.0
89.920494 188.0
90.113106 192.0
90.198143 164.0
90.23217 164.0
90.285118 188.0
90.358887 204.0
90.396729 140.0
90.434578 196.0
90.551964 196.0
90.750938 164.0
90.841972 144.0
91.02607 272.0
91.119141 180.0
91.191345 188.0
91.301613 164.0
91.361618 132.0
91.381508 276.0
91.667122 148.0
91.743355 160.0
91.781487 140.0
91.88913 192.0
91.909828 112.0
92.043648 212.0
92.058174 156.0
92.089066 160.0
92.619209 196.0
93.203674 212.0
93.284393 188.0
93.320923 156.0
93.336304 148.0
93.910187 152.0
94.093506 152.0
94.157227 156.0
94.381386 148.0
94.464546 152.0
94.510979 168.0
94.754936 224.0
94.921623 140.0
94.939079 152.0
95.034126 160.0
95.06517 168.0
95.087265 364.0
95.286522 144.0
95.41674 180.0
95.827393 144.0
95.955971 136.0
96.346352 140.0
96.762917 184.0
96.94384 120.0
97.21962 160.0
97.35508 140.0
97.386497 172.0
97.428955 124.0
97.645935 192.0
98.004616 212.0
98.320702 112.0
98.843391 184.0
98.86911 156.0
98.954231 200.0
99.043892 188.0
99.429962 200.0
99.476105 212.0
99.52459 128.0
99.610649 152.0
99.813362 144.0
99.85096 128.0
100.111855 208.0
100.580376 176.0
100.93399 164.0
101.17408 212.0
101.450439 160.0
101.540771 168.0
101.658211 132.0
101.687225 152.0
101.787605 192.0
101.821617 188.0
101.950317 176.0
101.992691 224.0
102.134331 144.0
102.211731 200.0
102.392906 168.0
102.453339 204.0
103.02021 196.0
103.053993 336.0
103.163689 156.0
103.44487 192.0
103.619827 112.0
103.939384 208.0
104.036804 168.0
104.258202 192.0
104.282593 144.0
104.475761 228.0
104.530701 144.0
104.628456 128.0
104.703735 144.0
104.970695 180.0
105.070946 616.0
105.095116 188.0
105.138184 116.0
105.227783 216.0
105.536301 216.0
105.569389 132.0
105.81752 132.0
105.9067 184.0
105.959961 156.0
106.073593 116.0
106.439911 164.0
106.522064 180.0
106.645348 140.0
106.684402 164.0
106.789276 188.0
106.892136 164.0
107.00135 132.0
107.049797 3300.0
107.077408 220.0
107.343254 140.0
107.94622 164.0
108.030159 144.0
108.050491 584.0
108.088951 140.0
108.256622 184.0
108.302437 200.0
108.401627 416.0
108.745232 180.0
108.808167 164.0
108.837433 124.0
109.100052 296.0
109.250824 140.0
109.371513 148.0
109.413147 160.0
109.481857 168.0
109.527679 140.0
109.563095 148.0
109.594345 140.0
109.64019 140.0
109.708969 176.0
110.124214 140.0
110.151367 256.0
110.193146 168.0
110.241203 152.0
110.268372 180.0
110.310173 192.0
110.495193 204.0
110.550697 168.0
110.60302 192.0
110.676926 292.0
110.71608 140.0
110.892067 180.0
111.078674 224.0
111.238159 140.0
111.262199 124.0
111.404053 168.0
111.675209 188.0
111.738312 160.0
112.214294 156.0
112.336609 184.0
112.558212 156.0
112.661705 156.0
112.790611 188.0
112.863152 228.0
113.040169 152.0
113.094215 252.0
113.33873 228.0
113.583969 244.0
113.6483 168.0
113.665276 188.0
113.827042 192.0
113.852081 156.0
113.866943 208.0
113.900932 172.0
113.971039 168.0
114.013535 152.0
114.213387 148.0
114.507111 144.0
114.534798 152.0
114.611488 140.0
114.85376 400.0
115.053741 652.0
115.146935 160.0
115.322128 224.0
115.381981 176.0
115.407639 216.0
115.555214 156.0
115.610847 248.0
115.672913 160.0
115.773544 152.0
116.059448 296.0
116.082359 184.0
116.326714 168.0
116.597343 284.0
116.807014 204.0
117.071671 232.0
117.288231 180.0
117.393875 164.0
117.713249 144.0
117.730522 204.0
118.076302 172.0
118.101967 208.0
118.355453 216.0
118.875687 184.0
118.928024 140.0
119.048729 360.0
119.087814 296.0
119.242706 140.0
119.320961 140.0
119.453613 152.0
119.471016 216.0
119.510178 168.0
119.747742 152.0
119.99369 240.0
120.013313 144.0
120.205261 152.0
120.264191 144.0
120.620224 188.0
120.733917 140.0
120.757858 152.0
120.929031 132.0
121.003059 160.0
121.064316 1104.0
121.10379 148.0
121.174248 192.0
121.193604 148.0
121.357986 172.0
121.491776 156.0
121.605873 176.0
121.792572 132.0
121.818863 156.0
121.931953 136.0
122.040833 168.0
122.06942 184.0
122.089211 144.0
122.152496 196.0
122.190392 184.0
122.419304 220.0
122.452339 160.0
122.530518 140.0
122.730003 148.0
123.231026 144.0
123.728645 176.0
124.302696 148.0
124.584671 168.0
124.872643 104.0
124.993767 204.0
125.024918 168.0
125.111725 144.0
125.191879 204.0
125.305481 168.0
125.60643 184.0
125.681923 148.0
125.714981 196.0
125.758156 228.0
125.974297 216.0
126.196571 156.0
126.34584 140.0
126.39283 152.0
126.417442 160.0
126.533836 152.0
126.571899 172.0
126.766777 172.0
126.798157 148.0
126.970779 208.0
127.054413 760.0
127.161484 140.0
127.296181 160.0
127.323128 144.0
127.390175 180.0
127.52533 176.0
127.620003 176.0
127.644478 144.0
127.682709 144.0
127.7472 156.0
127.801933 152.0
127.887444 172.0
128.061127 816.0
128.142197 152.0
128.574844 172.0
128.910583 144.0
129.070023 1556.0
129.144196 140.0
129.544846 184.0
129.577255 248.0
129.707993 192.0
129.907547 152.0
129.939301 156.0
130.075409 152.0
130.200333 164.0
130.313919 160.0
130.381531 148.0
130.95314 156.0
131.048431 1836.0
131.08371 592.0
131.634384 104.0
131.857376 252.0
131.904602 148.0
132.028 140.0
132.048752 284.0
132.089828 168.0
132.14473 208.0
132.160751 144.0
132.252563 164.0
132.35759 176.0
132.399185 96.0
132.469818 196.0
132.489304 156.0
132.611038 164.0
132.822815 164.0
132.838882 168.0
132.962036 196.0
133.065186 38704.0
133.125153 212.0
133.167999 156.0
133.217712 132.0
133.5495 108.0
133.579788 156.0
133.626083 164.0
133.937637 144.0
134.029785 160.0
134.068573 2808.0
134.241852 196.0
134.518723 152.0
134.813721 160.0
135.036591 156.0
135.074432 356.0
135.302399 164.0
135.325546 144.0
135.65683 208.0
135.756531 144.0
135.867874 172.0
136.174271 240.0
136.327026 196.0
136.629868 240.0
136.846313 140.0
137.181793 148.0
137.40567 208.0
137.669418 180.0
137.867996 204.0
138.438797 180.0
138.471725 128.0
138.532486 204.0
138.595734 140.0
139.030762 116.0
139.054596 172.0
139.245529 172.0
139.304596 168.0
139.400589 164.0
139.454636 192.0
139.598053 180.0
139.847427 156.0
140.012222 140.0
140.243118 152.0
140.335052 160.0
140.573364 132.0
140.894394 152.0
140.92984 156.0
141.012543 180.0
141.045639 196.0
141.069031 296.0
141.107101 152.0
141.171799 164.0
141.258453 296.0
141.305771 200.0
141.412247 160.0
141.4673 216.0
141.659637 192.0
142.047256 140.0
142.074814 156.0
142.149048 160.0
142.194366 188.0
142.264771 164.0
142.332047 152.0
142.543793 196.0
142.562469 192.0
142.695587 196.0
142.71936 168.0
142.745514 144.0
142.900116 144.0
143.058472 172.0
143.083893 300.0
143.109558 168.0
143.533691 144.0
143.63649 144.0
143.715805 216.0
143.944107 192.0
144.05751 772.0
144.166275 164.0
144.187775 184.0
144.2547 160.0
144.515381 148.0
144.54039 112.0
144.630249 160.0
144.658966 196.0
144.767288 128.0
144.795456 164.0
144.991287 156.0
145.038422 168.0
145.065201 21352.0
145.121704 144.0
145.179779 196.0
145.227386 164.0
145.338242 200.0
145.472855 192.0
145.594055 176.0
145.668518 268.0
145.858963 156.0
146.067078 2256.0
146.33226 176.0
147.081497 2952.0
147.135086 196.0
147.169281 124.0
147.255997 120.0
147.368454 148.0
147.797028 164.0
147.898972 180.0
148.067627 152.0
148.0867 152.0
148.194412 164.0
148.288925 140.0
148.35437 160.0
148.526535 224.0
148.611435 140.0
148.893021 148.0
148.916428 120.0
149.165146 152.0
149.351379 164.0
149.459427 180.0
149.987885 204.0
150.231735 152.0
150.334213 164.0
150.462021 156.0
150.654068 248.0
150.690704 148.0
151.065063 188.0
151.133255 176.0
151.218903 168.0
151.331512 148.0
151.746368 156.0
151.79216 172.0
151.828827 144.0
152.064758 228.0
152.142822 152.0
152.22702 168.0
152.380203 172.0
152.725388 144.0
153.072739 292.0
153.12558 208.0
153.363098 160.0
153.432114 152.0
153.969131 120.0
154.067627 132.0
154.170135 176.0
154.404999 192.0
154.461884 168.0
154.560837 140.0
154.657349 144.0
154.90744 172.0
154.966446 152.0
155.003571 228.0
155.059799 408.0
155.08136 440.0
155.227158 156.0
155.249481 164.0
155.323883 172.0
155.346207 140.0
155.591614 140.0
155.709534 224.0
156.05423 128.0
156.096268 176.0
156.321899 148.0
156.336243 196.0
156.526749 280.0
156.618896 160.0
156.651276 152.0
156.68367 176.0
156.743469 148.0
156.815399 120.0
156.881256 180.0
156.915833 156.0
156.980545 204.0
157.027756 200.0
157.065811 67700.0
157.144272 108.0
157.184814 172.0
157.294952 232.0
157.320404 160.0
157.374954 140.0
157.402832 156.0
157.657089 256.0
157.911301 228.0
158.068558 5900.0
158.103531 160.0
158.207535 168.0
158.258102 184.0
158.327606 172.0
158.680542 176.0
158.76329 152.0
158.977951 176.0
158.99617 184.0
159.080566 15660.0
159.12001 152.0
159.16214 144.0
159.467499 128.0
159.652283 144.0
159.669891 148.0
159.752899 168.0
159.775543 176.0
159.859314 180.0
160.084137 2116.0
160.139664 140.0
160.499176 164.0
160.785217 180.0
160.82634 156.0
161.087509 428.0
161.297379 104.0
161.351761 256.0
161.698303 168.0
161.865387 196.0
162.292038 240.0
162.372208 188.0
162.463791 148.0
162.549789 204.0
162.831573 184.0
162.940796 164.0
163.024643 328.0
163.319565 148.0
163.386703 128.0
163.983994 188.0
164.228867 180.0
164.299149 152.0
164.653854 192.0
164.711273 420.0
164.931946 220.0
165.069962 268.0
165.217422 204.0
165.501343 120.0
166.047333 164.0
166.08197 340.0
166.183289 228.0
167.007904 280.0
167.084702 484.0
167.321854 176.0
167.868225 140.0
167.97641 156.0
168.09465 168.0
168.138962 168.0
168.306747 168.0
168.376465 152.0
168.42038 160.0
168.619781 164.0
168.971344 148.0
169.06813 192.0
169.107529 144.0
169.227219 216.0
169.320435 220.0
169.784332 156.0
170.070297 172.0
170.167679 136.0
170.290421 164.0
170.337173 220.0
170.74263 144.0
171.079361 1796.0
171.116776 2772.0
171.161591 144.0
171.242325 156.0
171.564133 128.0
171.703629 140.0
171.779266 204.0
171.813187 148.0
171.982803 152.0
172.085632 492.0
172.118896 864.0
172.157715 208.0
172.358856 160.0
172.38649 184.0
172.411499 164.0
172.620255 156.0
173.097488 696.0
173.282471 160.0
173.374176 148.0
173.531448 168.0
173.575851 184.0
173.867203 196.0
173.903946 152.0
174.098984 360.0
174.182266 140.0
174.426651 164.0
174.723801 148.0
174.855362 144.0
174.990204 152.0
175.060715 156.0
175.263535 188.0
175.344498 212.0
175.39267 156.0
175.474396 212.0
175.602203 188.0
175.637894 148.0
175.776077 184.0
175.84819 176.0
176.231873 176.0
176.620483 144.0
177.096909 140.0
177.189621 176.0
177.24527 172.0
177.340012 112.0
177.757034 184.0
178.253601 216.0
178.979294 180.0
179.08049 136.0
179.997345 212.0
180.090073 184.0
180.120102 164.0
180.324265 248.0
180.428513 156.0
180.754211 160.0
181.102249 928.0
181.275467 148.0
181.365433 188.0
181.386871 152.0
181.676483 224.0
181.950211 156.0
182.106201 152.0
182.194595 160.0
182.683868 152.0
182.901825 192.0
183.085815 144.0
183.118042 132.0
183.159927 136.0
183.309937 156.0
183.402832 156.0
183.462128 140.0
183.56189 144.0
183.623917 180.0
183.680557 152.0
183.769577 180.0
184.083847 308.0
184.120499 152.0
184.258255 200.0
184.423096 152.0
184.587997 140.0
184.631271 160.0
184.823334 172.0
185.096176 7544.0
185.778214 172.0
186.10173 2000.0
186.137894 148.0
186.231613 272.0
186.351791 144.0
186.477539 160.0
186.588989 164.0
186.610748 176.0
186.665131 180.0
187.046936 152.0
187.099777 160.0
187.331924 356.0
187.353729 156.0
187.879868 196.0
187.908371 188.0
188.013565 164.0
188.144592 152.0
188.226501 216.0
188.595306 288.0
188.849579 176.0
189.13414 140.0
189.169724 244.0
189.243637 152.0
189.262817 200.0
189.358658 144.0
189.717606 168.0
189.766953 168.0
190.403564 152.0
190.433777 140.0
190.472229 152.0
190.656311 232.0
190.832245 180.0
190.878983 172.0
190.922974 140.0
190.950485 224.0
191.052261 152.0
191.084351 144.0
192.057693 212.0
192.156998 168.0
192.219162 136.0
192.24353 216.0
192.546204 156.0
192.653931 140.0
192.933044 196.0
193.015991 188.0
193.068527 152.0
193.273224 196.0
193.309204 152.0
193.421417 204.0
193.551788 132.0
193.710648 196.0
194.284485 152.0
194.431549 172.0
194.661957 144.0
194.689728 160.0
194.853607 148.0
195.088226 188.0
195.259445 164.0
195.28447 184.0
195.326187 156.0
195.384613 140.0
195.476425 224.0
195.52652 236.0
195.551834 204.0
195.59053 200.0
196.253571 216.0
196.384628 160.0
196.549225 192.0
196.718033 312.0
196.892578 168.0
196.964432 200.0
197.095901 556.0
197.619751 144.0
197.699417 164.0
197.795944 120.0
197.837662 172.0
197.918854 148.0
198.018066 140.0
198.105713 404.0
198.176041 112.0
198.388138 196.0
198.411957 148.0
198.47084 152.0
198.504486 392.0
198.615067 168.0
198.678375 164.0
198.751328 156.0
198.853577 192.0
198.888184 188.0
198.955658 188.0
198.992432 340.0
199.008469 172.0
199.112656 112088.0
199.20549 328.0
199.358353 184.0
199.476501 204.0
199.543365 140.0
199.625168 196.0
199.67363 100.0
199.728973 188.0
199.892609 112.0
199.947083 168.0
200.115738 13972.0
200.369049 148.0
200.451141 156.0
200.604706 272.0
200.689087 124.0
200.740036 172.0
200.793213 308.0
200.878235 232.0
200.90799 132.0
200.931839 188.0
200.995605 192.0
201.016479 164.0
201.062317 132.0
201.128036 61612.0
201.178497 128.0
201.299881 240.0
201.336823 156.0
201.521912 184.0
201.558212 132.0
201.626465 144.0
201.674164 100.0
201.749146 196.0
201.84877 160.0
201.89183 156.0
201.940277 144.0
202.09021 172.0
202.130524 6580.0
202.237366 148.0
202.296799 144.0
202.43364 180.0
202.520096 140.0
202.616806 316.0
202.737732 124.0
202.85202 172.0
202.882584 164.0
202.9366 140.0
203.041992 140.0
203.133606 656.0
203.182266 132.0
203.260422 172.0
203.335327 212.0
203.537582 112.0
203.668411 124.0
203.780304 200.0
203.835297 96.0
204.224747 392.0
204.278625 124.0
204.435623 204.0
204.560425 216.0
204.992157 172.0
205.75708 132.0
206.010712 248.0
206.099289 212.0
206.459457 144.0
206.55957 152.0
206.968811 124.0
207.10054 216.0
207.129196 228.0
207.193558 204.0
207.255249 220.0
207.392807 144.0
208.026718 144.0
208.522003 160.0
208.641479 140.0
209.107285 528.0
209.244247 132.0
209.352173 196.0
209.612869 112.0
209.850677 176.0
209.997742 212.0
210.112045 160.0
210.223831 152.0
210.381943 132.0
210.468124 256.0
210.678955 236.0
210.727402 208.0
210.830887 212.0
211.025757 180.0
211.514664 172.0
211.555191 156.0
211.850113 128.0
211.960663 208.0
212.117157 172.0
212.540588 156.0
212.663712 252.0
212.708908 200.0
212.740356 168.0
213.069 152.0
213.08934 148.0
213.170074 168.0
213.196854 140.0
213.321823 192.0
213.370743 160.0
213.629181 208.0
213.974274 220.0
214.009277 120.0
214.197708 152.0
214.723373 136.0
214.827347 232.0
214.939301 140.0
215.069534 152.0
215.141281 524.0
215.58873 156.0
216.115738 152.0
216.531418 160.0
216.645645 164.0
216.700546 168.0
217.10289 196.0
217.305283 152.0
217.697403 184.0
217.760284 208.0
217.910095 180.0
218.038498 112.0
218.309845 144.0
218.784836 140.0
218.999084 188.0
219.311508 176.0
219.352097 252.0
219.638123 164.0
219.73735 132.0
219.791534 172.0
220.190048 144.0
220.38797 216.0
220.494553 168.0
220.529816 188.0
221.034988 156.0
221.186447 168.0
221.319672 180.0
221.405548 208.0
221.592163 200.0
222.113907 184.0
222.303787 184.0
222.98848 224.0
223.40123 140.0
223.664963 164.0
223.85849 156.0
224.203552 144.0
224.28154 152.0
225.079575 152.0
225.119583 156.0
225.481369 172.0
226.043579 140.0
226.774994 136.0
226.915176 164.0
227.142212 4152.0
227.311096 188.0
227.539215 144.0
227.60527 172.0
228.049271 176.0
228.148636 364.0
228.540054 140.0
228.576157 152.0
228.910294 176.0
229.054855 144.0
229.387512 132.0
229.64563 152.0
229.807938 104.0
229.859818 216.0
230.368469 252.0
230.439545 152.0
230.516571 144.0
230.971588 156.0
231.013046 148.0
231.041168 156.0
231.26207 156.0
231.537567 176.0
231.627426 180.0
231.664795 184.0
231.831436 200.0
232.14769 184.0
232.205521 128.0
232.477356 212.0
232.504669 232.0
232.679199 120.0
232.755203 192.0
232.777878 148.0
232.824219 184.0
233.090759 192.0
233.161591 156.0
233.394714 172.0
233.476822 144.0
234.182892 176.0
234.398956 100.0
234.963257 168.0
235.265381 140.0
235.305069 164.0
235.573807 168.0
235.622696 144.0
236.22493 164.0
236.36261 220.0
236.999481 352.0
237.073029 320.0
237.250793 200.0
237.487228 116.0
237.539062 224.0
238.048813 172.0
238.086823 180.0
238.275818 200.0
238.564697 152.0
238.927582 140.0
238.976807 204.0
239.109131 168.0
239.241486 164.0
239.381775 156.0
240.036377 152.0
240.144318 156.0
240.554291 152.0
240.810974 172.0
240.937622 144.0
241.452698 160.0
241.744629 148.0
242.088242 180.0
242.429001 184.0
243.172714 168.0
243.499298 152.0
243.687164 192.0
243.797333 180.0
244.705811 144.0
244.833481 144.0
244.87085 164.0
245.291473 160.0
245.403259 164.0
245.656326 216.0
245.731186 204.0
245.957245 160.0
246.906891 188.0
247.872986 156.0
248.200302 160.0
248.788818 264.0
249.01268 164.0
249.18013 100.0
249.337021 180.0
249.611984 184.0
249.929688 216.0
249.976883 160.0
250.253876 144.0
250.765549 152.0
251.010086 220.0
252.102295 144.0
252.326721 144.0
252.731552 168.0
252.88028 164.0
252.98056 112.0
253.044128 132.0
253.15889 184.0
253.402786 140.0
253.481888 140.0
253.727417 120.0
253.932327 224.0
254.144363 116.0
254.466293 124.0
254.547806 156.0
254.650574 112.0
255.216858 136.0
255.453613 204.0
255.598938 128.0
255.86412 220.0
255.888321 260.0
255.940536 144.0
255.96283 140.0
256.016113 164.0
256.079987 192.0
256.167572 380.0
256.226624 116.0
256.430176 128.0
256.459076 160.0
256.545685 116.0
256.710297 244.0
256.747833 164.0
256.808319 224.0
256.8367 112.0
256.860382 160.0
256.931732 144.0
256.980133 264.0
257.00592 192.0
257.039124 164.0
257.066528 100.0
257.081177 124.0
257.093536 220.0
257.130066 244.0
257.163239 344.0
257.191833 316.0
257.230804 152.0
257.270844 104.0
257.307129 96.0
257.347534 160.0
257.374329 540.0
257.414124 124.0
257.477448 112.0
257.557953 288.0
257.58252 296.0
257.629669 304.0
257.659271 228.0
257.712067 340.0
257.752899 348.0
257.805573 284.0
257.846588 316.0
257.88855 120.0
257.922089 308.0
257.95578 132.0
257.980286 216.0
258.006683 340.0
258.031769 464.0
258.062866 316.0
258.093719 472.0
258.135651 596.0
258.187744 304324.0
258.303986 200.0
258.352112 164.0
258.405457 316.0
258.486053 2244.0
258.530121 460.0
258.584198 1064.0
258.676636 2980.0
258.717651 11644.0
258.7565 588.0
258.829834 180.0
258.861237 124.0
258.902222 192.0
258.960297 260.0
258.995544 216.0
259.028809 300.0
259.068115 216.0
259.103394 220.0
259.190277 135828.0
259.255188 272.0
259.313416 340.0
259.375183 176.0
259.422546 220.0
259.486908 252.0
259.543701 136.0
259.599457 116.0
259.673645 164.0
259.719208 396.0
259.75708 188.0
259.789856 272.0
259.825012 288.0
259.964294 192.0
260.019562 228.0
260.110901 248.0
260.191803 12292.0
260.293884 300.0
260.347015 100.0
260.455688 116.0
260.498138 128.0
260.52243 376.0
260.549194 156.0
260.586884 244.0
260.637146 292.0
260.681396 160.0
260.743317 348.0
260.786957 288.0
260.830383 264.0
260.866608 196.0
260.927368 288.0
260.960754 200.0
260.97879 288.0
260.988708 324.0
260.99939 440.0
261.039612 624.0
261.078918 504.0
261.106903 556.0
261.192566 680.0
261.301147 144.0
261.338043 288.0
261.496582 152.0
261.541992 128.0
261.616089 244.0
261.810089 204.0
261.898193 100.0
261.96582 100.0
262.067413 152.0
262.211273 100.0
262.270233 160.0
262.336304 116.0
262.412201 228.0
262.510712 100.0
262.549377 124.0
265.413269 280.0
267.700348 96.0
268.330383 100.0
269.029633 104.0
270.209015 116.0
270.400177 96.0
271.329346 136.0
271.396545 140.0
271.487915 116.0
272.274567 148.0
272.507629 116.0
272.781982 232.0
273.57373 152.0
279.395935 180.0
296.48645 140.0
307.938385 168.0
340.287567 152.0
371.332947 100.0
381.308014 180.0
381.430237 108.0
466.53653 132.0
471.643066 120.0
668.34259 148.0
829.986389 168.0
1047.745972 160.0
1051.079346 160.0
1078.537842 180.0
1116.276123 228.0
1164.361572 156.0
1174.905151 164.0
1203.318359 188.0
1209.588501 148.0
1210.481567 144.0
1217.06189 204.0
1228.280396 196.0
1240.966187 196.0
1254.118896 152.0
1268.69458 276.0
1276.881592 208.0
1285.094849 168.0
1302.8573 176.0
1307.164062 224.0
1317.770508 156.0
1318.558105 144.0
1355.476074 152.0
1365.437866 192.0
1369.493164 280.0
1382.102173 140.0
1387.256836 140.0
1418.521118 164.0
1431.880371 180.0
1436.259399 176.0
1448.921387 140.0
1457.753174 200.0
1461.83667 180.0
1468.517944 156.0
1469.996948 144.0
1486.918213 212.0
1488.322998 140.0
1492.341553 144.0
1504.645508 140.0
1509.575073 188.0
1517.511719 152.0
1520.009277 168.0
1536.558716 252.0
1542.306152 200.0
1554.570679 180.0
1557.012207 180.0
1558.323975 212.0
1560.847046 208.0
1561.908691 180.0
1562.970825 180.0
1571.724854 240.0
1578.937134 180.0
1579.854736 200.0
1581.769653 216.0
1590.663574 160.0
1603.397461 160.0
1623.760254 148.0
1629.668335 216.0
1630.021973 160.0
1630.142456 152.0
1633.897339 172.0
1635.35376 144.0
1649.727905 164.0
1661.267578 200.0
1676.406738 180.0
1683.895874 140.0
1684.165405 140.0
1694.529907 144.0
1702.157959 232.0
1711.564697 140.0
1723.202637 164.0
1723.590942 140.0
1726.153442 184.0
1726.360107 160.0
1731.284058 144.0
1733.868774 152.0
1734.216797 152.0
1735.170166 164.0
1740.231079 144.0
1752.499146 152.0
1759.847168 144.0
1768.164673 168.0
1770.667847 168.0
1773.893677 180.0
1786.086182 208.0
1786.313232 148.0
1786.531982 168.0
1787.272339 188.0
1788.071777 168.0
1791.422852 212.0
1794.591675 164.0
1795.266235 160.0
1800.853271 184.0
1802.019043 164.0
1805.400146 164.0
1806.804199 164.0
1810.206665 184.0
1810.376099 152.0
1817.012817 176.0
1819.34668 180.0
1819.779663 140.0
1823.228394 148.0
1825.829834 144.0
1828.262939 152.0
1829.020386 168.0
1839.965942 212.0
1842.092285 208.0
1848.102417 200.0
1853.625244 152.0
1854.825073 160.0
1861.482666 200.0
1864.033936 160.0
1865.795898 140.0
1869.440918 144.0
1869.718262 164.0
1870.828613 140.0
1873.859985 228.0
1877.825317 156.0
1879.386719 168.0
1886.78833 152.0
1891.139404 140.0
1898.416748 144.0
1900.69812 156.0
1906.133911 152.0
1909.689575 176.0
1914.580688 280.0
1916.802002 196.0
1920.568237 148.0
1921.527832 164.0
1922.086182 164.0
1926.940796 180.0
1930.008545 140.0
1930.498291 172.0
1931.197876 200.0
1933.516357 144.0
1933.647705 168.0
1933.962769 160.0
1937.9823 152.0
1943.927368 148.0
1944.8927 224.0
1946.613403 180.0
1951.235107 148.0
1951.402222 144.0
1951.964844 184.0
1955.113403 224.0
1960.406738 160.0
1963.183594 256.0
1963.748047 224.0
1965.477173 180.0
1969.414429 244.0
1969.979736 176.0
1971.473022 152.0
1974.567139 176.0
1984.12146 144.0
1985.008057 152.0
1988.254883 152.0
1990.830444 168.0
1991.246826 184.0
1992.668091 172.0
2000.86792 208.0
2002.194702 284.0
2002.907227 208.0
