>compound MLS001048980-01!4-hydroxy-3-[1-(5-hydroxy-2,6,6-trimethyloxan-2-yl)ethyl]-1H-quinolin-2-one
>formula C19H25NO4
>ionization [M+H]+
>parentmass 332.186
#inchi InChI=1S/C19H25NO4/c1-11(19(4)10-9-14(21)18(2,3)24-19)15-16(22)12-7-5-6-8-13(12)20-17(15)23/h5-8,11,14,21H,9-10H2,1-4H3,(H2,20,22,23)
#inchikey FNNBYKQCHDQXOO
#Ion_Source LC-ESI
#Instrument qTof
#Compound_Source NIH Natural Product Library
#PI Dorrestein
#Data_Collector VVP/LMS
#Scan -1
#Precursor_MZ 332.186
#ExactMass 331.178
#Charge 1
#CAS_Number N/A
#Pubmed_ID N/A
#Smiles CC(c1c(O)nc2ccccc2c1O)C3(C)CCC(O)C(C)(C)O3
#INCHI_AUX N/A
#Library_Class 1
#SpectrumID CCMSLIB00000079513
#IonMode Positive
#UpdateWorkflowName UPDATE-SINGLE-ANNOTATED-GOLD
#LibraryQualityString Gold
#TaskID b1d8e8f6646f4e71acdff9ca3d919d08
##Scan# 1977
#SpectrumFile p1-D07_GD7_01_17915.mzXML
#LibraryName NIH_Natural_Products_Library.mgf
#MQScore -1
#Organism NIH_Natural_Products_Library
#TIC_Query 0
#RT_Query -1
#MZErrorPPM -1
#SharedPeaks 0
#MassDiff 0
#LibMZ -1
#SpecMZ 332.186
#SpecCharge 0
#internalFilename spec-00000.mgf

>collision 10
94.959229 156.0
94.997047 352.0
95.011467 180.0
95.048462 76.0
95.086029 488.0
95.107773 100.0
95.176567 144.0
95.199867 188.0
95.249275 156.0
95.30088 168.0
95.370834 36.0
95.386383 116.0
95.435944 168.0
95.462212 132.0
95.501686 228.0
95.564102 156.0
95.617477 196.0
95.640282 120.0
95.664551 232.0
95.729256 188.0
95.77047 152.0
95.841774 196.0
95.87101 184.0
95.891785 212.0
95.94117 176.0
95.966515 164.0
96.009415 88.0
96.04409 144.0
96.151642 168.0
96.190865 136.0
96.214287 164.0
96.284584 148.0
96.298256 140.0
96.32338 148.0
96.341225 84.0
96.374435 116.0
96.415474 152.0
96.429153 200.0
96.4487 196.0
96.542542 112.0
96.568359 140.0
96.58712 152.0
96.63839 216.0
96.673607 136.0
96.706459 148.0
96.759506 176.0
96.841972 196.0
96.906616 140.0
96.932091 80.0
96.965401 36.0
97.004601 212.0
97.018326 172.0
97.04274 176.0
97.067108 332.0
97.122253 132.0
97.174866 200.0
97.194839 196.0
97.273972 220.0
97.292747 176.0
97.383293 216.0
97.560143 140.0
97.58712 276.0
97.601425 40.0
97.66436 184.0
97.703102 236.0
97.725342 184.0
97.760757 152.0
97.817833 88.0
97.837517 100.0
97.898071 180.0
97.913605 144.0
98.002953 100.0
98.03054 76.0
98.056419 152.0
98.089165 204.0
98.142189 236.0
98.231636 176.0
98.294769 176.0
98.363846 148.0
98.377663 120.0
98.405304 176.0
98.422607 320.0
98.456642 176.0
98.469742 152.0
98.504044 196.0
98.640388 224.0
98.67202 76.0
98.689812 212.0
98.731339 124.0
98.764961 48.0
98.814415 152.0
98.852333 192.0
98.911598 192.0
98.976707 64.0
98.992554 128.0
99.11338 152.0
99.147095 176.0
99.19075 192.0
99.250908 188.0
99.281876 208.0
99.434631 136.0
99.45845 140.0
99.493843 144.0
99.527931 180.0
99.553741 228.0
99.637161 112.0
99.668953 192.0
99.760376 120.0
99.778267 152.0
99.800133 136.0
99.847862 80.0
99.90554 192.0
99.919464 180.0
100.056641 108.0
100.086655 132.0
100.12648 168.0
100.152367 140.0
100.17627 120.0
100.234047 192.0
100.277893 216.0
100.351646 120.0
100.401497 84.0
100.415459 92.0
100.463326 160.0
100.526031 140.0
100.545479 184.0
100.573074 116.0
100.59417 120.0
100.664909 196.0
100.718834 204.0
100.737534 144.0
100.765297 204.0
100.792908 148.0
100.814728 180.0
100.870178 172.0
100.938667 104.0
100.982475 88.0
101.035378 404.0
101.170746 132.0
101.186363 176.0
101.218803 148.0
101.240829 312.0
101.254845 96.0
101.30014 156.0
101.334969 64.0
101.365021 188.0
101.38707 180.0
101.433167 192.0
101.467247 120.0
101.511353 100.0
101.573563 204.0
101.610489 160.0
101.627693 76.0
101.677856 188.0
101.697929 156.0
101.711975 160.0
101.743889 196.0
101.762161 208.0
101.782242 148.0
101.826424 220.0
101.87262 204.0
101.944946 48.0
101.959015 212.0
101.983131 228.0
102.028862 144.0
102.043442 140.0
102.133934 80.0
102.194283 196.0
102.234528 140.0
102.30497 148.0
102.361343 140.0
102.393257 52.0
102.469124 172.0
102.494286 128.0
102.530876 180.0
102.595055 160.0
102.623909 168.0
102.658508 172.0
102.829033 108.0
102.847198 136.0
102.956223 160.0
102.978439 120.0
103.05394 532.0
103.105721 128.0
103.232269 160.0
103.257339 196.0
103.294441 152.0
103.380745 164.0
103.413124 228.0
103.544724 212.0
103.591309 136.0
103.623726 152.0
103.64196 108.0
103.684509 184.0
103.707291 152.0
103.725052 80.0
103.748375 168.0
103.771675 156.0
103.806145 188.0
103.860901 124.0
103.976547 136.0
104.023232 132.0
104.050926 452.0
104.143028 88.0
104.173492 224.0
104.218193 116.0
104.246635 184.0
104.277122 128.0
104.316383 152.0
104.395012 176.0
104.425453 188.0
104.43322 180.0
104.490631 156.0
104.615463 132.0
104.647339 128.0
104.677887 128.0
104.745094 104.0
104.798058 132.0
104.824989 148.0
104.846962 216.0
104.897919 68.0
104.953773 200.0
105.014137 172.0
105.044731 156.0
105.068192 168.0
105.140625 216.0
105.173286 144.0
105.203903 132.0
105.242691 240.0
105.27536 148.0
105.319244 144.0
105.348892 180.0
105.400467 148.0
105.416313 80.0
105.430618 180.0
105.466057 132.0
105.499489 220.0
105.516464 48.0
105.611336 152.0
105.641212 116.0
105.682129 32.0
105.706436 168.0
105.733284 140.0
105.838806 212.0
105.864304 112.0
105.882736 88.0
105.951637 188.0
106.007698 224.0
106.040489 188.0
106.066086 536.0
106.097878 132.0
106.151184 204.0
106.167931 96.0
106.249634 64.0
106.270149 212.0
106.346077 96.0
106.461044 184.0
106.537041 172.0
106.57402 152.0
106.622223 192.0
106.713783 68.0
106.777527 164.0
106.826385 180.0
106.854538 164.0
106.869759 436.0
106.989464 164.0
107.087227 816.0
107.156281 40.0
107.17688 44.0
107.198593 148.0
107.242828 168.0
107.298477 128.0
107.329407 212.0
107.350029 184.0
107.416023 56.0
107.449028 180.0
107.465538 108.0
107.541885 124.0
107.561981 272.0
107.595558 148.0
107.616936 132.0
107.632721 172.0
107.675034 228.0
107.725655 140.0
107.806236 176.0
107.870308 148.0
107.890976 132.0
107.917519 124.0
107.941956 268.0
108.009247 164.0
108.041946 340.0
108.072975 116.0
108.090576 184.0
108.157822 144.0
108.21579 220.0
108.248917 152.0
108.323471 216.0
108.377396 140.0
108.425117 152.0
108.445724 164.0
108.499405 196.0
108.526573 100.0
108.57634 84.0
108.679947 160.0
108.727783 124.0
108.829216 120.0
108.893242 176.0
108.967125 180.0
109.067101 372.0
109.079147 184.0
109.102646 544.0
109.172035 112.0
109.207703 320.0
109.2285 164.0
109.345589 116.0
109.373161 336.0
109.424118 204.0
109.442856 156.0
109.457428 36.0
109.484497 160.0
109.513657 176.0
109.613655 200.0
109.649078 76.0
109.67173 152.0
109.676933 132.0
109.684471 200.0
109.717865 280.0
109.744255 188.0
109.870102 208.0
110.014091 192.0
110.077034 136.0
110.109756 240.0
110.30027 104.0
110.329536 424.0
110.367172 132.0
110.431999 156.0
110.457611 180.0
110.49057 104.0
110.515671 164.0
110.529846 160.0
110.549881 196.0
110.62751 148.0
110.6894 128.0
110.727097 88.0
110.741753 152.0
110.785744 40.0
110.83812 200.0
110.90728 172.0
110.92614 144.0
110.976456 132.0
111.062431 104.0
111.081871 388.0
111.116974 140.0
111.140053 128.0
111.171082 112.0
111.195396 428.0
111.251282 164.0
111.274376 180.0
111.303772 164.0
111.373077 48.0
111.4487 140.0
111.534866 120.0
111.679939 72.0
111.732529 212.0
111.747253 240.0
111.775795 140.0
111.882912 140.0
111.909317 116.0
112.010399 144.0
112.10099 148.0
112.181755 152.0
112.208488 112.0
112.235901 64.0
112.273857 64.0
112.326584 188.0
112.358223 192.0
112.537811 172.0
112.560844 152.0
112.581963 108.0
112.619972 144.0
112.765755 140.0
112.819359 212.0
112.837624 144.0
112.882027 208.0
112.947586 124.0
112.966629 312.0
113.036057 176.0
113.101021 132.0
113.138039 184.0
113.158539 164.0
113.197319 240.0
113.27356 72.0
113.453682 140.0
113.491844 188.0
113.508812 156.0
113.563263 276.0
113.586647 188.0
113.604805 224.0
113.641617 156.0
113.718826 100.0
113.782509 124.0
113.816483 92.0
113.83902 188.0
113.893616 236.0
113.965157 144.0
114.029823 212.0
114.048035 116.0
114.084175 204.0
114.130943 232.0
114.216011 124.0
114.339577 224.0
114.373917 188.0
114.403053 208.0
114.408417 196.0
114.423347 124.0
114.441589 184.0
114.477783 172.0
114.515228 192.0
114.573631 140.0
114.597618 92.0
114.627113 156.0
114.656731 108.0
114.786766 128.0
114.803825 136.0
114.850746 124.0
114.889137 116.0
114.906784 220.0
114.977524 180.0
114.992134 104.0
115.009605 200.0
115.025711 132.0
115.054436 7956.0
115.084724 124.0
115.090538 196.0
115.113953 108.0
115.160225 116.0
115.180756 72.0
115.243233 216.0
115.279861 168.0
115.320465 136.0
115.42308 88.0
115.449852 192.0
115.474403 140.0
115.493652 96.0
115.592949 152.0
115.623177 156.0
115.660545 52.0
115.736183 132.0
115.75634 188.0
115.829704 196.0
115.872772 152.0
115.901138 104.0
115.931709 248.0
116.005409 152.0
116.050797 1480.0
116.100456 148.0
116.166237 152.0
116.185547 180.0
116.200562 32.0
116.22538 120.0
116.264938 108.0
116.34169 116.0
116.347672 88.0
116.40876 140.0
116.436684 176.0
116.468895 200.0
116.574165 112.0
116.595657 52.0
116.660294 196.0
116.677826 176.0
116.737427 232.0
116.778397 80.0
116.806358 92.0
116.82357 196.0
116.922546 140.0
116.959129 144.0
117.055107 664.0
117.135696 136.0
117.152931 56.0
117.168007 96.0
117.312393 112.0
117.333954 148.0
117.349045 164.0
117.372765 192.0
117.439613 120.0
117.553955 164.0
117.629494 220.0
117.651077 128.0
117.719009 168.0
117.756882 76.0
117.774162 88.0
117.79792 172.0
117.81736 144.0
117.897308 172.0
117.916756 160.0
117.939178 192.0
118.029167 152.0
118.06398 408.0
118.11351 168.0
118.135139 76.0
118.223846 136.0
118.257629 204.0
118.30484 172.0
118.321251 120.0
118.33857 40.0
118.403534 160.0
118.553009 140.0
118.687401 52.0
118.756798 136.0
118.821877 80.0
118.880455 184.0
118.902161 192.0
119.043152 152.0
119.07 168.0
119.089417 180.0
119.156212 52.0
119.2127 84.0
119.263748 148.0
119.34095 148.0
119.386612 176.0
119.501831 140.0
119.534531 148.0
119.553467 80.0
119.652733 208.0
119.720451 168.0
119.787079 224.0
119.804504 116.0
119.819756 148.0
119.850258 148.0
119.869034 104.0
119.940552 176.0
119.959229 132.0
120.013412 220.0
120.045036 11964.0
120.073067 132.0
120.100525 144.0
120.144585 104.0
120.170761 364.0
120.195831 188.0
120.215599 204.0
120.298363 324.0
120.32354 88.0
120.381462 188.0
120.415337 188.0
120.434906 96.0
120.463303 28.0
120.551163 204.0
120.620628 76.0
120.665443 160.0
120.742439 224.0
120.818558 156.0
120.889641 144.0
120.911919 176.0
120.96405 184.0
120.988129 88.0
121.007835 116.0
121.024979 212.0
121.046341 1160.0
121.065659 736.0
121.102051 156.0
121.202652 232.0
121.210892 220.0
121.278229 184.0
121.295715 136.0
121.32457 132.0
121.340843 172.0
121.38533 228.0
121.406525 176.0
121.571152 220.0
121.597488 180.0
121.618149 184.0
121.797287 136.0
121.817055 232.0
121.852203 224.0
121.871979 160.0
121.95768 216.0
121.986259 128.0
122.017036 136.0
122.062935 264.0
122.067276 136.0
122.100586 172.0
122.136719 140.0
122.168777 124.0
122.241379 168.0
122.272186 88.0
122.355835 156.0
122.375648 236.0
122.412819 172.0
122.432899 80.0
122.454918 160.0
122.478928 160.0
122.545235 52.0
122.615746 80.0
122.670853 64.0
122.688484 176.0
122.756836 228.0
122.787712 208.0
122.871529 84.0
122.893593 88.0
122.931099 144.0
122.961243 164.0
123.044266 140.0
123.080971 460.0
123.116745 636.0
123.162537 212.0
123.202675 204.0
123.249069 136.0
123.357361 60.0
123.388306 168.0
123.431602 248.0
123.509598 160.0
123.560814 168.0
123.580719 176.0
123.65403 116.0
123.686234 236.0
123.71109 132.0
123.773285 132.0
123.850792 156.0
123.994804 120.0
124.07431 180.0
124.121078 208.0
124.180634 176.0
124.223183 160.0
124.254982 84.0
124.38073 148.0
124.480629 296.0
124.502838 104.0
124.531708 180.0
124.623001 208.0
124.65834 108.0
124.680565 172.0
124.741051 188.0
124.914017 196.0
124.929588 80.0
124.949608 108.0
125.005234 92.0
125.043068 156.0
125.078674 128.0
125.143234 132.0
125.196678 68.0
125.227852 92.0
125.274986 192.0
125.325874 140.0
125.370438 48.0
125.38604 112.0
125.496193 124.0
125.546547 204.0
125.680382 76.0
125.722778 192.0
125.754028 140.0
125.794205 180.0
125.841087 144.0
125.860497 196.0
125.899139 172.0
125.923706 112.0
125.972847 208.0
126.03875 148.0
126.055954 140.0
126.10244 168.0
126.140434 200.0
126.189621 180.0
126.211975 132.0
126.241043 140.0
126.263412 132.0
126.281303 224.0
126.458054 140.0
126.563263 168.0
126.592369 92.0
126.66571 204.0
126.680252 196.0
126.753654 392.0
126.793991 208.0
126.825371 188.0
126.841057 128.0
126.858902 208.0
126.885895 124.0
126.909767 160.0
127.05687 336.0
127.087746 48.0
127.124794 184.0
127.213417 184.0
127.261566 160.0
127.318947 96.0
127.354881 160.0
127.402054 116.0
127.434151 168.0
127.455399 164.0
127.491928 148.0
127.539124 136.0
127.59082 124.0
127.647034 76.0
127.704315 204.0
127.743744 188.0
127.768486 272.0
127.806732 204.0
127.899002 180.0
127.957527 168.0
127.975471 136.0
128.013824 156.0
128.048904 1824.0
128.092651 108.0
128.153793 56.0
128.187271 200.0
128.230087 84.0
128.32251 160.0
128.378876 116.0
128.432999 176.0
128.489395 184.0
128.53981 176.0
128.57515 220.0
128.631561 176.0
128.70488 188.0
128.755371 160.0
128.818985 36.0
128.834808 160.0
128.868683 156.0
128.914703 188.0
128.950043 228.0
129.049637 132.0
129.067947 672.0
129.167099 172.0
129.198761 172.0
129.280212 116.0
129.300583 160.0
129.338455 192.0
129.375275 180.0
129.427353 124.0
129.552429 160.0
129.590424 136.0
129.638748 208.0
129.672012 160.0
129.710541 160.0
129.732056 192.0
129.77507 164.0
129.842041 272.0
129.898117 352.0
129.930496 132.0
129.966797 200.0
129.982681 136.0
130.028778 7556.0
130.065643 1060.0
130.114914 172.0
130.230133 44.0
130.255127 132.0
130.305664 80.0
130.332596 196.0
130.355087 100.0
130.457245 84.0
130.552444 224.0
130.5616 184.0
130.615067 152.0
130.641556 64.0
130.667023 184.0
130.700134 188.0
130.779465 152.0
130.825882 124.0
130.87825 196.0
130.929733 164.0
130.984955 164.0
131.031326 1112.0
131.067749 496.0
131.085526 144.0
131.142319 204.0
131.213165 288.0
131.263321 196.0
131.320343 188.0
131.335144 176.0
131.365952 140.0
131.386795 144.0
131.44809 152.0
131.486206 300.0
131.505692 168.0
131.550797 96.0
131.571335 164.0
131.640442 240.0
131.66066 168.0
131.735764 132.0
131.767746 292.0
131.861115 172.0
131.896744 160.0
131.923141 140.0
131.955139 48.0
131.984375 148.0
132.015991 248.0
132.043976 1548.0
132.079834 892.0
132.119812 112.0
132.135818 108.0
132.154129 168.0
132.18718 192.0
132.206757 192.0
132.236511 168.0
132.26973 136.0
132.363998 156.0
132.408203 192.0
132.4552 124.0
132.493561 168.0
132.586899 132.0
132.802414 176.0
132.825348 124.0
132.884995 52.0
132.930878 132.0
132.953827 88.0
133.000107 172.0
133.049866 128.0
133.095505 172.0
133.123703 160.0
133.235245 128.0
133.341644 180.0
133.364929 140.0
133.387909 156.0
133.416199 212.0
133.457916 188.0
133.486771 168.0
133.51207 156.0
133.555771 144.0
133.574005 220.0
133.657288 160.0
133.723724 212.0
133.788177 144.0
133.8181 256.0
133.871063 28.0
133.889481 100.0
133.912521 48.0
133.935547 192.0
133.984985 104.0
134.021225 148.0
134.057648 36.0
134.099136 88.0
134.115265 64.0
134.168289 80.0
134.190048 180.0
134.326157 208.0
134.364319 48.0
134.389694 32.0
134.426605 128.0
134.548935 180.0
134.5905 208.0
134.632065 36.0
134.711838 156.0
134.772964 168.0
134.829742 156.0
134.852234 148.0
134.885101 188.0
134.908127 224.0
135.080185 188.0
135.116058 584.0
135.172989 168.0
135.191498 76.0
135.221573 124.0
135.265549 184.0
135.369736 188.0
135.397522 56.0
135.457748 224.0
135.487869 152.0
135.531876 148.0
135.568954 172.0
135.610672 168.0
135.638489 228.0
135.692429 236.0
135.784561 188.0
135.803223 184.0
135.865738 176.0
135.905182 136.0
136.009613 76.0
136.092041 180.0
136.113892 164.0
136.146591 152.0
136.169815 204.0
136.253433 168.0
136.322128 192.0
136.385895 120.0
136.500076 168.0
136.52771 244.0
136.582718 312.0
136.620743 76.0
136.826019 212.0
136.846497 56.0
136.912079 192.0
136.976898 316.0
136.995529 116.0
137.053787 108.0
137.105042 192.0
137.139496 184.0
137.167969 180.0
137.199341 192.0
137.237915 152.0
137.384842 136.0
137.433838 208.0
137.461838 152.0
137.501511 92.0
137.527176 108.0
137.636902 156.0
137.657913 36.0
137.802734 84.0
137.94664 144.0
138.003815 268.0
138.029449 236.0
138.09726 60.0
138.134689 112.0
138.169388 212.0
138.216568 228.0
138.263367 108.0
138.293793 152.0
138.346054 440.0
138.373383 128.0
138.426895 164.0
138.453003 128.0
138.476822 208.0
138.546692 240.0
138.56543 88.0
138.592545 260.0
138.640411 104.0
138.666183 184.0
138.691971 216.0
138.715408 28.0
138.7603 136.0
138.787231 180.0
138.865479 176.0
138.914734 424.0
138.931534 392.0
138.966339 96.0
139.060211 140.0
139.179932 64.0
139.20575 116.0
139.229233 192.0
139.299698 120.0
139.334946 140.0
139.361954 168.0
139.375717 112.0
139.454773 132.0
139.5159 120.0
139.560562 132.0
139.586456 188.0
139.621704 128.0
139.670059 164.0
139.70845 168.0
139.738754 184.0
139.773666 212.0
139.84285 236.0
139.867142 288.0
140.049591 756.0
140.078308 132.0
140.2621 200.0
140.32103 108.0
140.341644 200.0
140.348251 148.0
140.357513 280.0
140.423416 160.0
140.441299 152.0
140.4814 156.0
140.5215 132.0
140.634766 128.0
140.653656 60.0
140.686707 160.0
140.752914 184.0
140.776428 104.0
140.843979 172.0
140.880341 108.0
140.915787 64.0
140.963043 224.0
141.003204 152.0
141.057861 336.0
141.109573 208.0
141.130859 136.0
141.159225 152.0
141.227814 76.0
141.273941 48.0
141.31636 168.0
141.360291 208.0
141.407623 92.0
141.4384 88.0
141.481003 180.0
141.533096 172.0
141.623077 116.0
141.649139 96.0
141.668091 108.0
141.696518 108.0
141.755829 120.0
141.78656 272.0
141.828705 148.0
141.838287 116.0
141.886108 76.0
141.933533 80.0
141.992813 148.0
142.024857 176.0
142.065475 8796.0
142.127457 152.0
142.148849 152.0
142.187347 64.0
142.203964 136.0
142.220581 180.0
142.27597 164.0
142.305511 200.0
142.365402 80.0
142.393188 160.0
142.453278 152.0
142.522781 108.0
142.616638 228.0
142.686157 48.0
142.712311 148.0
142.797531 144.0
142.855011 172.0
142.874039 104.0
142.907349 144.0
143.069504 1092.0
143.11203 164.0
143.139618 224.0
143.21376 184.0
143.250168 72.0
143.295425 192.0
143.326401 180.0
143.354996 84.0
143.371674 160.0
143.407425 312.0
143.457474 172.0
143.582993 156.0
143.634964 132.0
143.669708 172.0
143.692383 112.0
143.786636 184.0
143.896439 76.0
143.959335 136.0
144.015823 108.0
144.044846 3908.0
144.080399 1580.0
144.107666 216.0
144.216522 204.0
144.277435 100.0
144.303482 212.0
144.379105 168.0
144.460419 84.0
144.531311 184.0
144.566345 148.0
144.639893 192.0
144.697342 72.0
144.736267 232.0
144.766769 144.0
144.783218 60.0
144.797241 188.0
144.830826 188.0
144.879791 172.0
144.999146 112.0
145.020721 200.0
145.045303 588.0
145.079285 280.0
145.164566 184.0
145.28952 160.0
145.40686 168.0
145.426056 48.0
145.507675 180.0
145.603714 192.0
145.637344 180.0
145.68396 128.0
145.705658 136.0
145.728622 80.0
145.831345 172.0
145.906479 124.0
145.932922 112.0
146.023132 3200.0
146.060165 3584.0
146.12532 148.0
146.149384 132.0
146.192703 144.0
146.225891 156.0
146.294647 212.0
146.320267 68.0
146.38768 168.0
146.476791 412.0
146.517746 324.0
146.534607 104.0
146.580383 112.0
146.605515 140.0
146.645462 140.0
146.664001 132.0
146.699463 272.0
146.734344 160.0
146.761169 156.0
146.791 172.0
146.829361 212.0
146.879333 96.0
146.910889 148.0
147.025253 516.0
147.061111 328.0
147.200317 168.0
147.234116 28.0
147.284073 236.0
147.350067 132.0
147.420135 124.0
147.609406 280.0
147.721039 148.0
147.744125 64.0
147.802185 228.0
147.88205 184.0
147.90625 52.0
147.932877 204.0
147.969193 160.0
148.040802 696.0
148.112061 208.0
148.134094 172.0
148.250153 48.0
148.395599 204.0
148.444092 132.0
148.470963 192.0
148.519272 188.0
148.562927 52.0
148.698807 124.0
148.718231 324.0
148.743805 104.0
148.761917 128.0
148.778915 240.0
148.876038 172.0
148.910034 188.0
149.007187 200.0
149.060654 180.0
149.077652 216.0
149.126831 120.0
149.155426 92.0
149.182159 180.0
149.206482 164.0
149.231323 368.0
149.281845 148.0
149.354813 168.0
149.403458 156.0
149.454559 148.0
149.551483 376.0
149.571365 60.0
149.690796 144.0
149.753983 176.0
149.834366 120.0
149.903976 192.0
149.953445 184.0
149.990311 108.0
150.043945 172.0
150.107834 156.0
150.141479 192.0
150.202454 208.0
150.265884 104.0
150.296753 236.0
150.323654 136.0
150.393646 144.0
150.431824 244.0
150.4953 184.0
150.534363 132.0
150.566116 184.0
150.622284 124.0
150.656494 76.0
150.749329 136.0
150.908203 176.0
150.942444 252.0
150.969345 176.0
150.990234 220.0
151.05249 160.0
151.122284 308.0
151.140564 132.0
151.176514 168.0
151.213974 116.0
151.260483 196.0
151.309448 160.0
151.329025 112.0
151.370651 76.0
151.404938 220.0
151.42453 120.0
151.539658 84.0
151.581314 168.0
151.600922 176.0
151.648346 192.0
151.71611 160.0
151.777405 92.0
151.824005 212.0
151.875504 148.0
151.912292 140.0
151.929474 184.0
151.985901 192.0
152.03006 60.0
152.061966 164.0
152.110382 188.0
152.371048 160.0
152.403305 180.0
152.481247 144.0
152.531097 212.0
152.582199 192.0
152.641724 108.0
152.759781 232.0
152.804062 160.0
152.848343 204.0
152.875412 92.0
152.963074 200.0
152.988632 148.0
153.054749 144.0
153.127548 1052.0
153.168381 152.0
153.215424 124.0
153.243835 96.0
153.326065 148.0
153.348175 144.0
153.39035 192.0
153.41481 212.0
153.491226 168.0
153.567673 180.0
153.594818 96.0
153.621948 60.0
153.639206 72.0
153.662979 208.0
153.792206 172.0
153.833145 68.0
153.913376 188.0
153.950211 84.0
153.979843 44.0
154.065155 1640.0
154.123123 188.0
154.159927 352.0
154.184891 180.0
154.217026 188.0
154.239273 152.0
154.291763 260.0
154.422806 172.0
154.489014 144.0
154.543442 228.0
154.56076 96.0
154.674606 120.0
154.708023 80.0
154.736496 132.0
154.771149 136.0
154.82811 204.0
154.959381 124.0
154.98494 180.0
155.011414 212.0
155.042007 140.0
155.067322 620.0
155.085342 156.0
155.178101 176.0
155.20549 192.0
155.281631 88.0
155.330338 196.0
155.370926 172.0
155.393265 156.0
155.453674 184.0
155.547165 204.0
155.599777 188.0
155.683945 148.0
155.720917 144.0
155.787979 172.0
155.831772 212.0
155.927124 136.0
155.963455 220.0
155.99176 92.0
156.009155 204.0
156.045029 2304.0
156.080627 396.0
156.119232 160.0
156.165802 60.0
156.200623 208.0
156.238968 196.0
156.266052 172.0
156.38475 156.0
156.424576 132.0
156.464401 164.0
156.498047 196.0
156.561508 168.0
156.601364 180.0
156.701004 144.0
156.785721 108.0
156.818115 76.0
156.846878 176.0
156.872955 72.0
156.895386 76.0
156.915329 160.0
156.94664 188.0
157.046631 448.0
157.088058 632.0
157.127319 164.0
157.28952 300.0
157.316986 80.0
157.412918 180.0
157.471512 176.0
157.514786 56.0
157.561218 180.0
157.646667 144.0
157.689148 144.0
157.709152 168.0
157.734146 120.0
157.801636 172.0
157.851639 168.0
157.938004 360.0
157.971695 204.0
157.996994 140.0
158.024231 164.0
158.060364 5564.0
158.098007 672.0
158.137466 224.0
158.169373 76.0
158.208359 140.0
158.267014 148.0
158.30957 80.0
158.387543 180.0
158.419006 116.0
158.444824 176.0
158.469879 112.0
158.527512 108.0
158.602692 84.0
158.687927 212.0
158.718018 212.0
158.778198 104.0
158.830872 172.0
158.887283 200.0
158.921188 180.0
158.951294 136.0
159.062042 620.0
159.097244 132.0
159.102554 192.0
159.250031 92.0
159.270126 52.0
159.358047 252.0
159.415833 164.0
159.470032 156.0
159.513855 172.0
159.546539 216.0
159.589279 192.0
159.73262 100.0
159.825195 176.0
159.896164 212.0
159.91629 152.0
160.00943 44.0
160.036163 180.0
160.07402 996.0
160.174011 316.0
160.222168 160.0
160.245209 260.0
160.27388 216.0
160.332962 208.0
160.37973 104.0
160.397369 320.0
160.452835 148.0
160.488129 56.0
160.518387 128.0
160.591522 80.0
160.611694 292.0
160.682327 128.0
160.727753 120.0
160.831207 156.0
160.886749 116.0
160.919571 192.0
160.972595 216.0
161.02211 192.0
161.045822 144.0
161.082306 136.0
161.121002 260.0
161.156982 92.0
161.189819 152.0
161.237839 144.0
161.273224 124.0
161.304733 112.0
161.326309 236.0
161.386978 260.0
161.422379 312.0
161.455261 96.0
161.478012 132.0
161.543777 200.0
161.566544 216.0
161.609558 208.0
161.677872 120.0
161.69635 148.0
161.717163 172.0
161.748749 300.0
161.766464 128.0
161.855759 208.0
161.882919 152.0
161.92363 128.0
161.940598 176.0
161.963287 192.0
161.981613 368.0
162.01088 184.0
162.055466 48732.0
162.108368 136.0
162.151321 72.0
162.183609 132.0
162.217361 64.0
162.250305 156.0
162.271606 80.0
162.315811 220.0
162.349197 52.0
162.371063 136.0
162.437073 80.0
162.455185 152.0
162.521683 44.0
162.544525 28.0
162.58316 196.0
162.63588 52.0
162.658722 52.0
162.724731 136.0
162.750534 196.0
162.780594 176.0
162.823761 88.0
162.88472 180.0
162.913879 184.0
162.953308 48.0
162.985016 92.0
163.01532 176.0
163.058487 4328.0
163.087173 388.0
163.184586 160.0
163.220184 128.0
163.245605 116.0
163.280411 204.0
163.303696 192.0
163.334625 176.0
163.446564 148.0
163.472 52.0
163.505356 492.0
163.577316 168.0
163.586899 196.0
163.66037 240.0
163.703659 56.0
163.777512 156.0
163.795334 112.0
163.856476 120.0
163.927811 76.0
164.037415 224.0
164.060806 1212.0
164.082214 104.0
164.110504 148.0
164.158234 92.0
164.199692 204.0
164.235336 148.0
164.304123 136.0
164.353653 136.0
164.397018 128.0
164.419998 88.0
164.445511 260.0
164.488907 128.0
164.506775 168.0
164.552719 172.0
164.63443 128.0
164.654861 236.0
164.685516 92.0
164.747253 188.0
164.790237 192.0
164.897568 156.0
164.989594 148.0
165.04274 228.0
165.059601 280.0
165.092667 192.0
165.113785 140.0
165.194168 64.0
165.237717 184.0
165.309296 128.0
165.332336 136.0
165.351654 160.0
165.41423 360.0
165.4841 192.0
165.536301 112.0
165.626755 72.0
165.820496 124.0
165.893585 152.0
165.972733 140.0
166.060852 672.0
166.122055 192.0
166.165085 104.0
166.257584 220.0
166.372955 172.0
166.511612 212.0
166.557846 88.0
166.632492 140.0
166.709427 212.0
166.745407 144.0
166.76796 160.0
166.789093 176.0
166.95079 164.0
167.073456 1276.0
167.252075 104.0
167.309601 204.0
167.342178 136.0
167.414276 108.0
167.491547 120.0
167.570023 344.0
167.628082 160.0
167.665543 352.0
167.728592 196.0
167.787537 148.0
167.816238 160.0
167.923462 208.0
167.946075 184.0
168.043472 2592.0
168.078903 1664.0
168.118759 184.0
168.15416 164.0
168.173462 168.0
168.275482 56.0
168.328751 204.0
168.35553 100.0
168.39296 148.0
168.505341 116.0
168.551849 56.0
168.575104 116.0
168.624969 68.0
168.647476 172.0
168.686249 164.0
168.761215 128.0
168.818436 92.0
168.855408 132.0
168.89827 40.0
169.048996 508.0
169.085434 528.0
169.16893 180.0
169.201355 96.0
169.257462 136.0
169.296844 64.0
169.373962 108.0
169.529633 176.0
169.623291 220.0
169.672546 96.0
169.711426 172.0
169.733704 308.0
169.758102 144.0
169.794403 128.0
169.81427 140.0
169.835907 180.0
169.887054 200.0
169.908096 212.0
169.926132 180.0
169.962189 236.0
170.009125 208.0
170.060684 48244.0
170.12912 204.0
170.147293 136.0
170.201172 64.0
170.286362 144.0
170.330719 160.0
170.363708 76.0
170.406998 264.0
170.43808 108.0
170.487213 212.0
170.514008 112.0
170.562683 172.0
170.61232 180.0
170.645111 52.0
170.72258 88.0
170.83075 56.0
170.854172 120.0
170.899429 160.0
170.906693 64.0
170.915634 172.0
170.953033 144.0
170.973862 48.0
171.0233 164.0
171.063278 5768.0
171.104538 188.0
171.156067 108.0
171.184723 168.0
171.234192 144.0
171.290375 116.0
171.330566 72.0
171.354019 216.0
171.380875 116.0
171.463455 156.0
171.606827 76.0
171.644272 176.0
171.673492 68.0
171.720108 144.0
171.747635 60.0
171.786774 136.0
171.820679 152.0
171.88591 80.0
171.92244 364.0
171.938858 176.0
171.964203 168.0
171.985565 108.0
172.035629 192.0
172.074921 3888.0
172.111237 1700.0
172.148788 68.0
172.177155 80.0
172.222672 88.0
172.259247 112.0
172.315643 68.0
172.341537 120.0
172.368973 152.0
172.424393 136.0
172.449982 100.0
172.49588 172.0
172.544083 136.0
172.578827 140.0
172.622528 52.0
172.672211 212.0
172.690521 144.0
172.753296 64.0
172.771606 176.0
172.834396 108.0
172.895752 188.0
172.949554 164.0
172.975723 132.0
172.995316 152.0
173.079254 940.0
173.115021 276.0
173.147079 80.0
173.216629 148.0
173.234955 128.0
173.274261 260.0
173.314163 140.0
173.386932 168.0
173.404602 140.0
173.455078 124.0
173.476624 128.0
173.504562 184.0
173.551971 224.0
173.585251 116.0
173.58989 76.0
173.60054 148.0
173.676254 204.0
173.701401 204.0
173.733032 112.0
173.785187 168.0
173.830673 144.0
173.861847 216.0
173.888428 168.0
173.922943 176.0
173.945587 76.0
173.97226 188.0
174.016281 576.0
174.055847 80076.0
174.146271 68.0
174.166031 52.0
174.208618 72.0
174.218033 48.0
174.250534 96.0
174.263214 128.0
174.272949 128.0
174.2836 68.0
174.28801 104.0
174.320068 136.0
174.356262 204.0
174.390549 72.0
174.431976 168.0
174.465088 68.0
174.486832 468.0
174.510406 36.0
174.544785 156.0
174.576141 116.0
174.623474 52.0
174.651917 224.0
174.686478 96.0
174.71933 120.0
174.752365 52.0
174.785583 32.0
174.815521 72.0
174.909424 200.0
174.957642 172.0
174.994186 60.0
175.058578 9708.0
175.126984 68.0
175.194656 84.0
175.248032 108.0
175.300049 144.0
175.334305 76.0
175.410736 28.0
175.445007 52.0
175.483673 156.0
175.512634 96.0
175.60849 60.0
175.629593 32.0
175.671799 184.0
175.704834 92.0
175.755722 84.0
175.791138 156.0
175.849716 176.0
175.86676 180.0
175.902405 152.0
175.935684 52.0
175.995087 96.0
176.062057 1020.0
176.109238 152.0
176.168076 84.0
176.201599 116.0
176.219437 232.0
176.283524 92.0
176.312302 184.0
176.359573 76.0
176.381088 108.0
176.418213 164.0
176.448196 192.0
176.490219 112.0
176.513641 144.0
176.546036 156.0
176.586304 208.0
176.605103 156.0
176.628525 104.0
176.654465 268.0
176.675629 52.0
176.757645 48.0
176.782074 88.0
176.834396 200.0
176.900558 156.0
176.929688 168.0
176.983337 148.0
177.025009 136.0
177.06601 140.0
177.13208 216.0
177.159286 160.0
177.313751 128.0
177.381989 140.0
177.388733 152.0
177.399338 184.0
177.438248 116.0
177.470154 164.0
177.541748 104.0
177.631454 228.0
177.673355 52.0
177.738052 168.0
177.769882 64.0
177.788467 60.0
177.828278 52.0
177.854813 128.0
177.971619 192.0
178.070557 144.0
178.160187 88.0
178.242538 48.0
178.279739 164.0
178.452515 56.0
178.479111 120.0
178.500381 188.0
178.550903 60.0
178.641342 144.0
178.662628 36.0
178.689224 200.0
178.771713 68.0
178.912781 136.0
178.943542 136.0
178.976669 148.0
179.011292 116.0
179.084717 552.0
179.205734 32.0
179.269684 76.0
179.336304 324.0
179.354965 124.0
179.477585 56.0
179.566132 140.0
179.621597 48.0
179.666946 116.0
179.722977 116.0
179.758759 184.0
179.845734 160.0
180.080093 660.0
180.114212 220.0
180.174179 68.0
180.192886 108.0
180.262344 164.0
180.29892 140.0
180.35321 168.0
180.459702 120.0
180.677597 168.0
180.751678 256.0
180.928329 172.0
181.019363 128.0
181.087723 396.0
181.166672 68.0
181.198822 144.0
181.241684 180.0
181.279205 52.0
181.30867 228.0
181.346191 124.0
181.38446 160.0
181.450745 32.0
181.493637 136.0
181.634216 228.0
181.783325 144.0
181.816574 176.0
181.885315 136.0
181.938995 172.0
182.006119 60.0
182.060913 2332.0
182.095337 1132.0
182.141052 164.0
182.160416 88.0
182.223679 48.0
182.28009 84.0
182.305389 156.0
182.366089 88.0
182.390289 52.0
182.427917 188.0
182.468246 176.0
182.524704 156.0
182.636154 108.0
182.718353 72.0
182.877121 44.0
182.928253 72.0
182.951462 132.0
183.072311 668.0
183.102936 324.0
183.13559 132.0
183.19989 32.0
183.224472 192.0
183.269897 224.0
183.326859 180.0
183.36998 148.0
183.410416 96.0
183.4832 64.0
183.506012 52.0
183.5224 52.0
183.669266 140.0
183.771774 164.0
183.839233 36.0
183.936386 108.0
183.976883 124.0
184.01738 208.0
184.043228 132.0
184.074081 868.0
184.111053 448.0
184.171295 68.0
184.21431 104.0
184.263138 96.0
184.286102 168.0
184.363113 60.0
184.501968 152.0
184.617233 68.0
184.757874 68.0
184.795746 140.0
184.814697 160.0
184.879639 160.0
184.9879 156.0
185.008636 164.0
185.046707 316.0
185.080292 664.0
185.102692 160.0
185.12056 188.0
185.155762 92.0
185.238327 128.0
185.296616 200.0
185.318298 188.0
185.404999 156.0
185.443237 184.0
185.479218 104.0
185.524261 144.0
185.568893 228.0
185.635422 168.0
185.716782 60.0
185.741196 148.0
185.771027 128.0
185.836151 40.0
185.862411 144.0
185.893127 144.0
185.920258 208.0
185.983109 204.0
186.002228 212.0
186.055084 19868.0
186.091171 5592.0
186.124817 420.0
186.18631 120.0
186.241913 136.0
186.263397 104.0
186.309753 188.0
186.393784 164.0
186.458923 196.0
186.535645 104.0
186.574493 148.0
186.604324 148.0
186.651474 108.0
186.696701 148.0
186.757034 80.0
186.877762 96.0
186.909378 204.0
186.958359 64.0
187.012802 148.0
187.057404 1484.0
187.094208 940.0
187.138016 124.0
187.187027 188.0
187.232071 140.0
187.257355 208.0
187.338562 220.0
187.395615 72.0
187.434692 268.0
187.458511 144.0
187.486496 124.0
187.540329 232.0
187.561142 100.0
187.580765 108.0
187.627838 136.0
187.659637 148.0
187.696579 276.0
187.721115 192.0
187.746216 116.0
187.772476 72.0
187.792023 136.0
187.810867 136.0
187.834503 132.0
187.866959 216.0
187.886658 208.0
187.891495 216.0
187.928009 216.0
187.962875 416.0
187.984528 340.0
188.071564 211604.0
188.144012 192.0
188.173965 144.0
188.212143 132.0
188.235641 120.0
188.250366 156.0
188.256256 140.0
188.279022 380.0
188.313721 80.0
188.334122 116.0
188.362366 176.0
188.369507 112.0
188.400909 260.0
188.425308 164.0
188.434708 152.0
188.454147 144.0
188.482071 120.0
188.521042 1912.0
188.547806 204.0
188.582367 84.0
188.630096 196.0
188.671326 196.0
188.706696 252.0
188.733078 56.0
188.764816 220.0
188.814957 148.0
188.843262 148.0
188.848862 76.0
188.873627 188.0
188.906143 244.0
188.921005 100.0
188.966629 252.0
188.991302 208.0
189.023376 216.0
189.073715 27212.0
189.133255 96.0
189.146744 88.0
189.17334 76.0
189.204514 52.0
189.210892 48.0
189.240021 72.0
189.244934 64.0
189.256378 116.0
189.286865 164.0
189.330338 32.0
189.351151 84.0
189.381317 148.0
189.42038 96.0
189.47525 72.0
189.504822 112.0
189.534714 108.0
189.561478 64.0
189.572525 100.0
189.619476 48.0
189.654602 104.0
189.672729 152.0
189.702316 132.0
189.773041 92.0
189.796356 72.0
189.82608 72.0
189.831589 96.0
189.86824 52.0
189.90361 152.0
189.938095 132.0
189.966034 208.0
189.989655 172.0
190.075226 2104.0
190.131058 124.0
190.156143 164.0
190.178375 124.0
190.210251 84.0
190.238129 112.0
190.266373 204.0
190.29689 120.0
190.323181 72.0
190.356567 140.0
190.399994 48.0
190.421906 116.0
190.44902 128.0
190.459091 136.0
190.471573 192.0
190.513245 160.0
190.542343 64.0
190.552841 324.0
190.592819 36.0
190.640167 208.0
190.665359 160.0
190.710678 64.0
190.740906 304.0
190.760147 44.0
190.817886 96.0
190.842621 72.0
190.915436 168.0
190.988373 100.0
191.026886 136.0
191.08432 300.0
191.117676 88.0
191.154541 80.0
191.179214 132.0
191.225876 112.0
191.252518 192.0
191.27179 144.0
191.315445 168.0
191.355316 148.0
191.393463 60.0
191.417328 152.0
191.47052 132.0
191.515457 200.0
191.536118 100.0
191.558151 64.0
191.586578 76.0
191.637192 52.0
191.673859 40.0
191.698669 100.0
191.764801 68.0
191.808517 144.0
191.921936 168.0
191.941238 76.0
191.993637 136.0
192.077789 1020.0
192.12326 212.0
192.319183 272.0
192.35231 116.0
192.412109 132.0
192.443405 100.0
192.551102 96.0
192.573196 36.0
192.650528 80.0
192.694733 64.0
193.091248 152.0
193.145325 112.0
193.21846 92.0
193.267044 56.0
193.399887 132.0
193.478317 60.0
193.541061 88.0
193.585373 136.0
193.685898 160.0
193.826355 44.0
193.876236 68.0
194.03978 44.0
194.06488 148.0
194.101059 420.0
194.132339 104.0
194.164551 80.0
194.778687 132.0
194.797928 80.0
194.944626 44.0
195.066193 444.0
195.097946 308.0
195.133636 208.0
195.158661 148.0
195.211487 44.0
195.279175 200.0
195.378372 80.0
195.417313 164.0
195.498016 84.0
195.595428 84.0
195.946304 52.0
195.990875 160.0
196.045898 236.0
196.074463 2564.0
196.109924 464.0
196.152512 48.0
196.297485 168.0
196.403458 164.0
196.467621 124.0
196.657364 64.0
196.75293 120.0
196.819275 80.0
196.841614 216.0
197.053894 184.0
197.081589 656.0
197.145508 164.0
197.366928 96.0
197.453613 40.0
197.492767 136.0
197.677414 124.0
197.722183 48.0
197.78656 56.0
197.915329 168.0
197.951736 184.0
197.976944 48.0
198.055984 2128.0
198.088501 1184.0
198.123215 168.0
198.171783 148.0
198.195435 88.0
198.490753 44.0
198.547043 72.0
198.580627 108.0
198.624359 44.0
198.67485 36.0
198.713303 164.0
198.750595 88.0
198.853531 112.0
198.943192 128.0
198.966705 52.0
198.994781 60.0
199.062408 1244.0
199.102509 220.0
199.211029 284.0
199.255966 88.0
199.28125 92.0
199.365555 72.0
199.385223 120.0
199.421753 80.0
199.453613 152.0
199.506088 136.0
199.530518 52.0
199.554474 188.0
199.584808 152.0
199.694473 64.0
199.739487 116.0
199.784485 100.0
199.854828 112.0
199.93924 312.0
199.961761 176.0
200.00618 204.0
200.070465 25696.0
200.107193 3516.0
200.147552 104.0
200.184158 52.0
200.223572 36.0
200.252335 120.0
200.346878 144.0
200.366028 140.0
200.399521 104.0
200.428436 104.0
200.472687 84.0
200.503159 184.0
200.603943 72.0
200.640594 72.0
200.716721 92.0
200.79744 148.0
200.883118 36.0
200.928253 104.0
200.953323 140.0
200.98468 112.0
201.019165 72.0
201.073456 2760.0
201.10379 528.0
201.343185 152.0
201.509827 120.0
201.678238 88.0
201.716125 64.0
201.745377 84.0
201.803772 68.0
201.843353 144.0
201.863144 40.0
201.915573 160.0
201.991684 160.0
202.043289 144.0
202.085892 5024.0
202.185638 52.0
202.205444 72.0
202.264877 96.0
202.286392 60.0
202.316818 104.0
202.349808 28.0
202.437408 68.0
202.477234 84.0
202.562195 72.0
202.628113 148.0
202.675629 108.0
202.712357 140.0
202.924942 204.0
203.021347 52.0
203.088257 632.0
203.143295 116.0
203.215103 152.0
203.245438 120.0
203.310699 56.0
203.425339 132.0
203.458298 100.0
203.526428 84.0
203.564651 156.0
203.776367 56.0
203.875824 128.0
203.907089 36.0
203.926987 148.0
204.037842 84.0
204.085739 316.0
204.494965 204.0
204.584045 108.0
204.632446 68.0
204.70932 116.0
204.732101 116.0
204.911545 68.0
205.085373 144.0
205.638687 88.0
205.715759 36.0
205.875641 108.0
206.004166 68.0
206.049881 128.0
206.099274 608.0
206.467194 120.0
207.070694 480.0
207.098267 96.0
207.48941 96.0
208.071228 440.0
208.075424 104.0
208.114227 188.0
208.583115 72.0
208.758499 68.0
208.804504 136.0
208.876404 112.0
209.083649 1076.0
209.244751 108.0
209.292801 140.0
209.642242 212.0
209.792114 144.0
209.818054 176.0
210.090576 3224.0
210.221863 36.0
210.243286 132.0
210.334808 120.0
210.531219 24.0
210.602951 52.0
210.643387 236.0
210.79361 172.0
211.094482 892.0
211.143402 72.0
211.222076 60.0
211.316956 80.0
211.468033 116.0
211.528214 88.0
211.583221 216.0
211.722198 140.0
211.869919 124.0
211.909515 108.0
211.951035 108.0
212.070557 2936.0
212.102173 696.0
212.207794 68.0
212.548355 88.0
212.600586 172.0
212.687653 100.0
212.763123 48.0
212.806671 52.0
212.922821 184.0
212.960571 60.0
212.985703 148.0
213.019913 188.0
213.078369 7716.0
213.134872 132.0
213.201706 28.0
213.22496 136.0
213.268555 36.0
213.28891 64.0
213.373199 124.0
213.69603 44.0
213.76004 104.0
213.821152 112.0
213.867722 244.0
214.036743 128.0
214.086151 11056.0
214.125107 664.0
214.261673 180.0
214.380295 44.0
214.40361 32.0
214.432755 72.0
214.476471 76.0
214.80304 84.0
214.82637 88.0
214.978088 116.0
215.088593 1760.0
215.131287 156.0
215.316727 72.0
215.354706 48.0
215.465698 92.0
215.52121 164.0
215.565048 56.0
215.68486 104.0
215.778412 100.0
215.899841 108.0
216.064453 124.0
216.102219 14160.0
216.142044 200.0
216.206436 60.0
216.263992 120.0
216.343033 64.0
216.380112 128.0
216.471222 188.0
216.53627 100.0
216.561172 128.0
216.615356 72.0
216.67395 116.0
216.738525 100.0
216.858749 60.0
216.923035 104.0
217.005966 140.0
217.05162 172.0
217.059082 148.0
217.106812 3564.0
217.242661 56.0
217.318939 44.0
217.453934 208.0
217.741638 124.0
217.920013 220.0
217.96196 124.0
218.087845 240.0
218.091568 268.0
218.119446 184.0
218.241196 88.0
218.264709 188.0
218.320587 148.0
218.361755 108.0
218.570618 48.0
218.600052 72.0
218.697968 132.0
218.758972 120.0
218.797241 120.0
218.862289 44.0
219.065613 548.0
219.100571 144.0
219.162445 128.0
219.65477 64.0
219.69017 36.0
220.073212 156.0
220.581955 68.0
220.993027 68.0
221.082397 156.0
221.217941 48.0
221.256424 80.0
221.416321 28.0
221.848907 156.0
221.923035 144.0
222.090195 900.0
222.317535 92.0
222.362045 144.0
222.388763 100.0
222.415482 76.0
222.462967 64.0
222.61438 120.0
222.745071 148.0
222.780716 44.0
222.985733 204.0
223.09549 180.0
223.91098 132.0
224.000336 108.0
224.046005 132.0
224.071472 372.0
224.106781 1492.0
224.152267 236.0
224.247635 108.0
224.387741 116.0
224.51297 136.0
224.662109 76.0
224.702652 88.0
224.780701 32.0
224.856049 76.0
224.888885 108.0
225.079895 264.0
225.106583 388.0
225.312897 56.0
225.444366 120.0
225.725357 128.0
225.934723 96.0
225.973618 60.0
226.046539 288.0
226.085556 2136.0
226.120819 372.0
226.160645 20.0
226.299835 220.0
226.422607 72.0
226.500488 56.0
226.614319 56.0
226.647278 36.0
226.668243 52.0
226.72818 52.0
226.890045 40.0
227.000977 156.0
227.092529 1384.0
227.240936 120.0
227.432983 180.0
227.502029 108.0
227.610107 144.0
227.634125 112.0
227.781296 40.0
227.835358 96.0
227.972519 148.0
228.044357 116.0
228.101379 12888.0
228.177963 148.0
228.205017 60.0
228.226059 160.0
228.278366 132.0
228.30365 60.0
228.343338 52.0
228.418533 56.0
228.460648 148.0
228.591827 60.0
228.699677 108.0
228.821777 108.0
229.020523 128.0
229.10553 1484.0
229.205078 72.0
229.409241 52.0
229.43335 112.0
229.56601 56.0
229.979324 84.0
230.042709 164.0
230.081955 532.0
230.115234 924.0
230.151398 144.0
230.450409 116.0
230.504807 92.0
230.586395 36.0
230.638428 116.0
230.667999 136.0
230.689163 72.0
230.749619 40.0
230.879639 132.0
230.952225 40.0
230.978729 64.0
231.021805 88.0
231.119965 436.0
231.205124 68.0
231.472748 100.0
231.5 156.0
231.66658 108.0
231.708511 124.0
231.812012 108.0
231.942337 76.0
232.097992 140.0
232.284973 92.0
232.385086 56.0
232.457901 48.0
232.491287 144.0
232.758911 104.0
232.879883 76.0
233.156357 56.0
233.25058 124.0
233.639816 124.0
233.758469 52.0
233.782822 36.0
234.096359 116.0
234.559448 64.0
234.894867 180.0
234.992477 112.0
235.105377 88.0
235.801682 92.0
236.100021 208.0
236.196091 148.0
236.860321 104.0
237.117676 120.0
237.178986 156.0
237.764786 160.0
238.086105 324.0
238.127213 152.0
238.317856 176.0
238.382034 104.0
238.575653 44.0
238.92009 72.0
239.09288 156.0
239.135483 88.0
239.640488 52.0
239.668228 136.0
239.760666 56.0
240.071808 192.0
240.101913 5208.0
240.161469 96.0
240.198471 72.0
240.454559 60.0
240.555191 136.0
240.849762 168.0
240.967148 148.0
241.019028 136.0
241.105347 1048.0
241.172485 64.0
241.27002 120.0
241.297836 124.0
241.557602 224.0
241.771088 112.0
241.839172 112.0
241.916565 148.0
242.003235 144.0
242.03421 36.0
242.11702 19416.0
242.194443 216.0
242.238602 128.0
242.288177 64.0
242.316055 52.0
242.486481 60.0
242.524536 144.0
242.582932 112.0
242.629059 100.0
242.694168 56.0
242.715881 80.0
242.818207 112.0
242.83992 92.0
242.917465 152.0
242.983734 88.0
243.120834 2276.0
243.280533 52.0
243.3302 76.0
243.469925 96.0
243.528931 64.0
243.633774 64.0
243.665619 84.0
243.774368 152.0
243.853073 108.0
243.892456 36.0
243.929764 48.0
244.054108 136.0
244.132233 3912.0
244.301743 180.0
244.461594 80.0
244.510635 116.0
244.671524 44.0
244.734909 164.0
244.876892 100.0
245.053192 48.0
245.135773 612.0
245.177841 108.0
245.240173 76.0
245.296265 84.0
245.333679 76.0
245.511398 72.0
245.542587 64.0
245.598724 80.0
245.742218 36.0
245.767181 52.0
246.119888 164.0
246.469711 152.0
246.629578 76.0
247.060135 152.0
247.12944 28.0
248.094284 100.0
248.100845 160.0
248.391937 128.0
249.145325 60.0
249.173599 60.0
249.575897 52.0
249.717407 64.0
249.899841 44.0
250.126434 108.0
250.174911 120.0
250.346817 76.0
250.384598 52.0
250.535797 200.0
251.207245 132.0
251.860641 44.0
252.100693 332.0
253.102356 280.0
253.128815 132.0
253.670578 104.0
254.003525 168.0
254.078125 124.0
254.117081 1692.0
254.251007 136.0
254.343048 80.0
254.511292 52.0
254.682785 80.0
254.959183 152.0
255.118622 708.0
255.53154 44.0
256.133636 272.0
256.353027 116.0
256.718018 40.0
258.103912 296.0
258.319733 96.0
258.758148 228.0
259.117096 260.0
259.184143 64.0
259.251434 92.0
259.32193 56.0
260.130219 40.0
260.32605 68.0
260.615143 128.0
260.939758 92.0
261.13269 92.0
262.137054 248.0
262.781982 60.0
263.146667 160.0
263.582703 80.0
263.935028 36.0
264.245544 48.0
264.682465 204.0
265.483368 156.0
266.112427 328.0
266.576813 200.0
266.762085 72.0
266.898621 40.0
268.018311 80.0
268.141418 144.0
268.386627 60.0
269.14032 136.0
270.13385 144.0
271.309448 176.0
271.414368 108.0
272.119781 168.0
272.162476 176.0
272.691345 120.0
273.131927 176.0
273.418182 200.0
273.595917 168.0
274.528351 136.0
274.620697 56.0
275.231201 72.0
275.951477 80.0
276.050659 228.0
276.076233 184.0
276.092896 52.0
276.487335 92.0
276.778625 140.0
278.114624 88.0
278.150116 168.0
278.267334 104.0
279.15448 44.0
279.314117 64.0
279.483795 52.0
279.849915 104.0
280.866302 112.0
281.216644 164.0
281.460327 84.0
282.013123 160.0
282.068359 108.0
282.336639 168.0
282.981628 84.0
283.581238 100.0
283.608063 112.0
284.164703 164.0
284.476807 68.0
285.159637 112.0
285.962952 252.0
286.17807 768.0
287.181213 116.0
288.526062 56.0
288.793213 64.0
288.955566 56.0
289.73761 116.0
290.079865 128.0
290.110382 68.0
291.318451 76.0
294.011658 108.0
294.329132 44.0
295.094482 84.0
295.292786 152.0
295.457001 60.0
295.675964 52.0
295.737579 52.0
296.00119 240.0
296.162354 4088.0
296.227234 48.0
296.289978 76.0
296.456757 56.0
296.491028 44.0
296.898987 68.0
297.049896 116.0
297.077362 56.0
297.166199 984.0
297.310669 44.0
297.355286 124.0
297.471985 68.0
297.739777 72.0
298.162994 172.0
298.798462 120.0
298.963623 40.0
299.022125 56.0
299.242432 112.0
299.387054 84.0
299.631592 84.0
300.062378 60.0
300.417603 144.0
300.638428 52.0
300.835144 224.0
301.235718 92.0
301.74939 56.0
302.096466 164.0
302.141418 44.0
303.336121 60.0
303.360413 200.0
303.693268 100.0
303.762634 60.0
303.849365 140.0
304.022858 128.0
304.10614 64.0
304.63739 36.0
304.821533 96.0
305.287354 80.0
306.223511 60.0
307.366913 72.0
307.632172 72.0
307.848633 64.0
308.082642 40.0
308.211914 72.0
308.295776 96.0
309.033569 40.0
309.957916 64.0
309.992981 144.0
310.613525 64.0
311.3927 44.0
311.512146 76.0
312.281891 132.0
312.401489 88.0
312.50351 84.0
312.742798 60.0
312.788574 116.0
313.440094 76.0
313.535248 92.0
313.880707 156.0
313.905365 108.0
313.99353 60.0
314.032867 132.0
314.10022 192.0
314.116577 136.0
314.128357 176.0
314.174652 20180.0
314.277985 128.0
314.325134 44.0
314.387939 80.0
314.453247 80.0
314.620178 212.0
314.727509 68.0
314.755768 144.0
314.782654 104.0
314.836975 72.0
314.988861 28.0
315.176971 2888.0
315.219116 168.0
315.264435 132.0
315.289185 52.0
315.349243 56.0
315.492523 112.0
315.573273 76.0
315.64267 36.0
315.681305 52.0
316.042358 44.0
316.113129 116.0
316.179871 396.0
316.30423 60.0
316.421051 48.0
316.562683 48.0
316.591034 44.0
316.726044 64.0
316.761017 56.0
317.133057 64.0
317.194183 164.0
317.391846 140.0
317.466919 116.0
317.558533 84.0
318.119141 204.0
318.662506 48.0
318.957458 128.0
319.562012 40.0
320.138641 100.0
320.705078 52.0
321.675293 64.0
321.807373 124.0
321.910919 56.0
322.589752 76.0
323.215607 52.0
323.294342 64.0
323.455383 52.0
324.809845 44.0
326.688507 60.0
326.900787 80.0
327.592072 88.0
327.707336 52.0
327.779388 120.0
328.724152 60.0
329.128418 64.0
330.52002 100.0
330.563446 56.0
330.827637 60.0
332.181549 296.0
332.342529 76.0
333.192108 132.0
333.479156 48.0
335.754578 64.0
336.272644 112.0
337.291687 40.0
337.964569 128.0
338.307861 100.0
340.427795 28.0
341.98288 68.0
343.940033 96.0
344.564117 48.0
345.836151 100.0
347.136505 88.0
348.792328 80.0
349.524963 92.0
349.714752 88.0
352.0672 96.0
356.386139 80.0
357.446472 48.0
357.645935 104.0
359.432251 72.0
360.924225 92.0
361.139771 60.0
366.16098 84.0
366.576233 60.0
369.053467 100.0
370.871826 112.0
372.471863 60.0
372.882965 120.0
373.559662 48.0
374.880249 84.0
378.162903 52.0
378.833649 68.0
379.447144 112.0
381.047913 72.0
382.358307 80.0
382.996796 60.0
384.349548 68.0
385.603088 64.0
390.983795 120.0
392.654205 104.0
393.360443 60.0
403.458588 88.0
403.918427 88.0
404.39859 108.0
406.057251 40.0
409.70697 88.0
409.952759 100.0
413.000854 60.0
413.449921 40.0
413.854706 104.0
416.007446 68.0
417.506714 48.0
418.552521 92.0
422.094269 40.0
422.478729 76.0
422.744659 124.0
424.243713 124.0
424.301117 80.0
426.390381 40.0
427.459595 120.0
432.622803 64.0
432.987152 68.0
435.12674 160.0
438.179382 40.0
442.493561 72.0
442.568939 76.0
443.281006 48.0
443.60791 64.0
444.753021 60.0
448.424805 68.0
450.428986 80.0
451.303772 44.0
459.189453 88.0
459.987335 56.0
462.92453 112.0
463.845642 104.0
466.709106 96.0
470.655884 76.0
474.55423 84.0
476.611542 76.0
479.039154 80.0
482.888916 64.0
483.453247 104.0
486.569672 96.0
487.509613 48.0
488.626434 36.0
491.150574 84.0
495.084015 32.0
497.868958 48.0
500.995789 60.0
502.123474 96.0
505.505219 40.0
506.328888 64.0
508.718719 44.0
509.962921 100.0
511.69928 48.0
519.685425 108.0
519.830627 40.0
525.427002 48.0
526.7052 100.0
528.776367 136.0
530.02655 80.0
533.197449 88.0
534.811768 64.0
537.586121 80.0
539.447449 72.0
542.1828 96.0
544.186707 84.0
547.418213 76.0
550.869568 44.0
551.383484 56.0
552.856628 76.0
553.469849 84.0
570.421021 44.0
570.86322 96.0
578.037537 64.0
579.181702 56.0
584.27002 64.0
592.181519 72.0
596.572754 112.0
597.652405 108.0
604.126465 28.0
604.180237 32.0
608.502747 48.0
613.663757 44.0
615.830078 64.0
616.76886 76.0
620.040344 80.0
622.371765 40.0
628.01001 32.0
630.821228 64.0
633.503357 104.0
635.267883 116.0
638.311462 152.0
642.75415 36.0
648.032776 152.0
648.87915 64.0
653.399109 48.0
666.492981 96.0
673.942444 100.0
681.986145 96.0
691.023193 48.0
704.011597 180.0
709.010803 80.0
721.572754 100.0
722.567505 104.0
733.603455 76.0
738.792969 52.0
739.815735 104.0
740.947571 76.0
743.550293 192.0
748.399109 144.0
753.979431 68.0
754.936096 56.0
772.165955 88.0
786.891296 136.0
799.013611 56.0
807.910156 116.0
812.873352 116.0
814.303955 124.0
825.622253 88.0
828.638794 92.0
842.954285 104.0
847.577576 40.0
848.626648 28.0
853.538757 44.0
866.308533 84.0
866.437378 44.0
867.849854 92.0
868.946594 60.0
872.822998 128.0
880.519104 188.0
888.159973 112.0
890.21344 64.0
892.518921 80.0
893.089844 44.0
895.178711 92.0
907.541504 184.0
907.895325 156.0
912.735229 112.0
914.233032 148.0
916.997314 180.0
925.175842 64.0
928.067139 152.0
929.479004 208.0
929.788452 292.0
931.761841 68.0
937.395996 44.0
937.54834 180.0
939.035889 184.0
939.487244 200.0
940.1828 88.0
942.747681 140.0
949.040161 36.0
950.002991 176.0
955.304382 184.0
957.243042 208.0
961.990356 72.0
962.187927 108.0
964.813477 224.0
964.912415 152.0
965.196838 72.0
966.532837 128.0
967.937927 76.0
970.323303 148.0
970.937195 88.0
974.835693 72.0
979.514282 116.0
981.402527 196.0
984.872253 204.0
985.484436 124.0
988.216675 180.0
992.237427 128.0
999.290344 144.0
1005.156311 56.0
1007.296509 88.0
1008.844666 164.0
1009.812134 240.0
1009.900635 124.0
1012.147217 144.0
1018.400024 144.0
1019.518188 120.0
1020.376282 196.0
1027.687744 192.0
1029.570801 160.0
1030.714233 204.0
1031.551514 48.0
1035.640137 168.0
1037.414185 144.0
1041.573242 308.0
1044.51709 140.0
1047.439453 168.0
1050.894775 60.0
1052.973389 64.0
1053.451294 172.0
1054.776001 136.0
1058.92334 72.0
1058.97522 204.0
1059.026978 184.0
1059.286011 68.0
1059.616455 160.0
1063.163208 164.0
1063.669434 140.0
1063.974609 168.0
1065.325317 180.0
1069.311157 36.0
1070.294067 148.0
1071.824707 40.0
1072.183105 180.0
1072.22876 84.0
1073.128296 144.0
1073.39563 232.0
1074.452271 176.0
1074.550171 160.0
1077.893066 92.0
1079.206909 164.0
1082.484985 176.0
1082.583252 156.0
1084.01123 100.0
1084.378296 128.0
1087.093262 100.0
1088.189453 240.0
1091.303589 156.0
1091.461426 116.0
1092.32959 192.0
1094.718628 152.0
1095.291626 112.0
1098.85791 112.0
1100.910767 100.0
1101.47876 144.0
1107.09375 44.0
1108.736694 192.0
1110.931396 140.0
1110.984375 212.0
1112.271729 268.0
1112.703247 204.0
1113.739136 72.0
1114.536377 164.0
1114.868652 112.0
1115.64624 156.0
1118.726196 164.0
1120.637573 236.0
1121.383911 164.0
1121.637207 136.0
1125.68689 168.0
1128.539917 188.0
1129.951172 168.0
1137.59082 88.0
1138.342773 156.0
1139.760132 112.0
1141.111084 128.0
1141.763306 164.0
1141.884277 252.0
1142.503174 100.0
1143.317261 164.0
1146.27356 152.0
1146.442017 188.0
1147.405884 164.0
1148.100342 88.0
1148.779541 192.0
1148.855713 136.0
1149.408936 168.0
1149.928589 168.0
1150.191895 116.0
1153.690918 144.0
1153.738281 168.0
1153.92749 200.0
1156.125854 184.0
1159.051147 164.0
1161.111938 128.0
1161.824463 156.0
1164.369507 180.0
1165.680542 216.0
1167.583984 196.0
1169.318726 220.0
1169.924561 176.0
1171.231934 108.0
1171.279663 128.0
1171.797363 136.0
1172.942261 120.0
1172.996704 152.0
1174.851562 72.0
1175.629395 128.0
1176.066162 148.0
1177.069702 72.0
1178.449463 116.0
1179.194214 164.0
1180.821411 160.0
1181.279663 180.0
1181.88855 140.0
1182.559204 200.0
1184.791382 168.0
1187.485229 228.0
1188.617188 204.0
1189.008301 88.0
1190.422485 100.0
1191.590088 112.0
1194.731934 108.0
1194.786865 136.0
1194.96582 148.0
1195.192871 164.0
1196.617554 132.0
1197.386475 188.0
1198.394531 124.0
1198.525391 168.0
1198.987061 136.0
1199.276489 196.0
1200.131348 136.0
1200.931274 136.0
1201.579712 40.0
1204.59082 168.0
1206.531372 152.0
1207.47168 164.0
1207.720703 120.0
1209.284424 132.0
1210.357422 152.0
1210.682861 196.0
1211.139893 156.0
1211.75647 152.0
1212.005859 136.0
1212.698853 232.0
1212.78894 40.0
1213.828857 116.0
1215.174438 124.0
1216.792725 132.0
1217.305298 176.0
1217.777588 116.0
1217.826172 196.0
1218.611084 164.0
1218.812622 212.0
1219.556152 168.0
1220.779785 184.0
1221.023193 140.0
1222.247437 156.0
1223.681274 128.0
1224.071167 92.0
1224.286987 168.0
1224.340576 164.0
1225.55481 140.0
1226.969604 180.0
1227.192749 168.0
1227.450684 148.0
1228.161987 160.0
1228.378296 252.0
1228.629395 200.0
1228.810791 208.0
1229.166626 136.0
1229.564331 160.0
1230.178589 196.0
1230.632324 200.0
1233.636353 140.0
1234.132812 156.0
1234.363525 200.0
1234.901978 136.0
1235.50354 172.0
1236.147217 112.0
1236.490112 164.0
1237.127075 164.0
1238.401489 100.0
1239.39624 80.0
1240.110962 212.0
1240.552612 100.0
1240.875122 100.0
1242.523193 108.0
1242.782715 84.0
1242.856079 196.0
1243.210815 136.0
1243.97583 164.0
1244.502319 140.0
1244.713013 236.0
1244.818359 212.0
1245.492554 96.0
1246.286377 144.0
1247.164795 208.0
1247.93103 136.0
1248.008301 148.0
1248.198242 196.0
1248.247437 180.0
1250.0271 160.0
1250.554932 108.0
1251.160278 180.0
1251.216553 140.0
1252.174194 52.0
1252.533325 120.0
1252.815186 180.0
1253.280151 136.0
1255.521729 160.0
1255.634521 184.0
1255.810913 144.0
1257.800537 212.0
1258.27356 76.0
1258.421753 204.0
1259.348999 148.0
1259.876709 168.0
1261.233398 108.0
1261.643311 160.0
1264.246216 172.0
1264.635498 112.0
1266.320557 168.0
1267.079956 96.0
1267.53186 136.0
1268.346924 136.0
1268.680054 64.0
1268.758057 176.0
1270.303955 184.0
1270.459961 104.0
1270.88562 52.0
1271.226318 48.0
1273.483887 156.0
1273.973999 48.0
1274.783936 148.0
1276.113037 144.0
1276.205444 336.0
1276.432983 128.0
1276.553955 64.0
1278.225586 140.0
1278.296753 144.0
1278.965698 164.0
1279.300171 124.0
1279.94812 236.0
1280.354004 148.0
1280.838257 164.0
1281.03772 176.0
1281.379761 52.0
1282.562622 132.0
1283.25415 188.0
1284.352295 220.0
1284.459229 60.0
1284.68042 180.0
1284.922974 52.0
1285.108521 80.0
1285.301147 148.0
1285.936279 192.0
1286.307373 76.0
1286.849976 172.0
1287.14978 160.0
1288.871216 160.0
1291.53772 124.0
1293.362305 112.0
1293.813232 156.0
1295.023438 44.0
1295.302734 196.0
1295.352905 224.0
1295.453125 68.0
1296.355957 256.0
1296.878784 160.0
1297.302002 140.0
1297.861206 196.0
1297.911377 116.0
1298.779175 144.0
1299.592529 144.0
1299.907837 184.0
1300.034668 176.0
1300.565674 144.0
1301.886719 116.0
1302.094971 152.0
1302.281738 124.0
1302.863525 200.0
1303.064697 156.0
1303.150879 188.0
1304.940552 136.0
1305.084351 64.0
1305.141846 144.0
1307.148682 164.0
1307.990723 116.0
1308.069824 140.0
1308.134644 152.0
1308.199463 132.0
1308.847412 164.0
1309.221802 128.0
1309.661133 164.0
1309.805176 144.0
1310.259033 128.0
1312.276978 176.0
1312.88269 128.0
1313.589478 96.0
1313.769897 152.0
1314.339844 212.0
1314.714966 140.0
1315.429565 180.0
1315.996948 148.0
1316.628052 76.0
1317.227539 96.0
1317.54541 176.0
1317.689941 144.0
1317.776611 196.0
1317.827148 148.0
1318.239014 128.0
1318.694336 128.0
1318.911133 224.0
1319.749756 72.0
1320.046143 48.0
1320.465576 152.0
1320.624756 192.0
1320.90686 188.0
1321.478271 120.0
1321.586792 144.0
1321.724365 160.0
1322.259766 236.0
1322.390137 120.0
1322.511475 140.0
1322.766479 192.0
1325.091064 108.0
1325.163452 76.0
1325.286621 192.0
1327.171143 64.0
1327.475708 204.0
1327.548218 160.0
1327.82373 160.0
1328.012329 188.0
1328.730469 144.0
1329.151245 40.0
1329.361694 184.0
1329.441528 148.0
1330.036621 184.0
1330.828003 124.0
1331.045776 168.0
1332.017334 224.0
1332.084351 72.0
1332.709106 88.0
1334.119019 116.0
1334.300171 156.0
1334.71521 188.0
1335.3479 116.0
1335.456909 124.0
1336.228027 140.0
1336.373535 64.0
1336.94104 160.0
1338.564331 140.0
1339.343628 152.0
1339.511108 184.0
1340.516602 212.0
1340.662354 176.0
1341.901489 164.0
1342.65979 220.0
1343.148438 72.0
1343.396484 100.0
1343.746582 176.0
1343.826904 172.0
1344.374146 148.0
1344.69519 236.0
1344.863159 136.0
1346.308594 160.0
1346.578857 140.0
1346.688354 148.0
1346.761475 176.0
1347.302002 92.0
1347.513794 192.0
1348.069214 144.0
1349.231323 184.0
1349.340942 148.0
1349.516479 60.0
1350.224854 156.0
1350.913208 152.0
1351.337524 128.0
1352.105835 148.0
1352.164429 140.0
1352.640137 132.0
1353.533325 100.0
1353.775024 132.0
1353.870239 100.0
1354.17041 164.0
1354.285278 176.0
1354.463379 184.0
1354.514648 88.0
1355.855469 164.0
1356.932983 120.0
1357.189575 172.0
1357.292236 216.0
1358.142944 160.0
1358.267578 60.0
1358.443726 248.0
1359.411743 136.0
1359.464966 160.0
1360.601196 144.0
1361.37207 192.0
1362.135986 176.0
1362.554688 168.0
1366.252441 172.0
1367.282593 80.0
1367.657959 124.0
1368.784302 200.0
1369.208374 136.0
1369.579712 104.0
1370.522583 148.0
1371.605957 116.0
1371.775513 168.0
1372.144043 220.0
1372.291504 116.0
1373.803345 68.0
1373.936157 224.0
1374.009888 208.0
1374.231201 148.0
1374.688721 96.0
1375.264404 208.0
1375.5448 232.0
1375.596558 176.0
1375.840088 32.0
1376.14563 136.0
1376.777832 176.0
1378.602539 156.0
1379.725952 156.0
1380.184326 248.0
1380.539307 180.0
1381.027344 168.0
1381.693115 52.0
1382.026123 60.0
1382.107422 188.0
1382.995483 160.0
1383.143555 176.0
1383.373047 56.0
1383.639526 200.0
1383.691284 124.0
1383.891235 156.0
1385.861328 256.0
1386.69873 112.0
1387.313965 160.0
1387.625244 112.0
1388.292603 156.0
1389.026855 168.0
1389.323608 152.0
1391.921265 152.0
1392.010376 120.0
1392.29248 52.0
1392.938721 168.0
1393.793091 168.0
1393.949097 140.0
1394.112549 220.0
1395.004517 124.0
1395.346436 152.0
1395.495117 176.0
1395.978394 52.0
1396.201538 180.0
1396.417236 152.0
1396.551025 192.0
1397.294922 200.0
1397.347046 184.0
1398.344116 196.0
1398.686523 188.0
1398.760986 84.0
1398.999146 92.0
1399.11084 136.0
1400.153198 116.0
1400.778809 84.0
1400.831055 244.0
1401.389771 148.0
1401.792114 168.0
1402.015625 164.0
1402.179565 112.0
1402.298828 128.0
1402.544312 172.0
1402.746094 140.0
1403.461792 132.0
1403.528809 84.0
1403.774902 192.0
1404.438721 168.0
1404.580444 128.0
1405.751709 148.0
1405.885986 172.0
1406.759277 132.0
1407.169922 120.0
1407.28186 192.0
1407.66272 96.0
1407.737305 148.0
1408.110718 192.0
1408.603638 160.0
1408.887573 172.0
1408.96228 192.0
1409.582886 328.0
1410.074829 156.0
1410.82312 224.0
1411.623047 104.0
1412.08667 100.0
1412.241821 200.0
1412.430786 132.0
1412.744995 172.0
1413.044189 136.0
1413.141479 132.0
1413.5 100.0
1414.281006 152.0
1414.944092 124.0
1416.248047 176.0
1417.180298 200.0
1417.371826 212.0
1417.491699 224.0
1417.768921 132.0
1418.173584 204.0
1418.630859 220.0
1418.874268 176.0
1418.990723 76.0
1419.290649 112.0
1420.093018 164.0
1420.738037 180.0
1420.888184 236.0
1421.698486 176.0
1421.931152 132.0
1422.289551 132.0
1423.507568 64.0
1423.657837 192.0
1424.031738 180.0
1424.303711 108.0
1424.634155 104.0
1424.814453 168.0
1425.000488 168.0
1425.723633 180.0
1425.798828 212.0
1426.159546 188.0
1426.415161 188.0
1426.663208 240.0
1426.971436 192.0
1427.234619 136.0
1427.512817 160.0
1427.941406 140.0
1427.994019 184.0
1428.099365 200.0
1428.182129 52.0
1428.294922 152.0
1428.761353 160.0
1429.092285 28.0
1429.265381 156.0
1430.078125 148.0
1430.37915 192.0
1430.567383 112.0
1430.627563 148.0
1430.838379 188.0
1431.124512 84.0
1431.244995 180.0
1431.591309 152.0
1432.050781 176.0
1432.276733 144.0
1432.464966 80.0
1432.797241 148.0
1433.067627 120.0
1433.188232 96.0
1433.497192 36.0
1433.567871 272.0
1434.039795 120.0
1434.612671 64.0
1435.283569 112.0
1435.472168 192.0
1435.547485 176.0
1435.879395 68.0
1436.852417 160.0
1437.041016 176.0
1437.388062 32.0
1437.742798 136.0
1438.067261 180.0
1438.414429 52.0
1438.640991 144.0
1438.693726 256.0
1439.199585 156.0
1440.052979 196.0
1440.60437 68.0
1440.672363 136.0
1441.654541 196.0
1441.760376 200.0
1442.327148 168.0
1443.113403 164.0
1444.717529 176.0
1444.8302 156.0
1445.094971 96.0
1445.155518 356.0
1445.36731 144.0
1445.579224 148.0
1445.942383 136.0
1446.13916 72.0
1446.616089 128.0
1447.426147 184.0
1447.676025 164.0
1447.918335 260.0
1448.024414 160.0
1448.668213 132.0
1448.812134 216.0
1449.259155 128.0
1449.471313 168.0
1449.698608 156.0
1449.759277 128.0
1449.994141 136.0
1450.47168 204.0
1450.956787 164.0
1452.207153 204.0
1454.544922 140.0
1454.924438 144.0
1455.152222 60.0
1455.387573 76.0
1455.486328 48.0
1455.926758 196.0
1456.321655 160.0
1456.648315 120.0
1456.891357 148.0
1457.590332 172.0
1457.87146 168.0
1458.411133 172.0
1458.715088 32.0
1458.890015 156.0
1459.064819 240.0
1459.338501 100.0
1459.536133 232.0
1460.486816 148.0
1460.730225 136.0
1461.399658 160.0
1461.643066 168.0
1461.978882 164.0
1462.328003 104.0
1463.591675 144.0
1464.056152 140.0
1464.627441 136.0
1464.688354 124.0
1465.89209 148.0
1465.968262 192.0
1466.204468 64.0
1466.768433 128.0
1467.22583 248.0
1467.607056 180.0
1467.797729 152.0
1467.965454 132.0
1468.2323 164.0
1468.689941 204.0
1469.170532 124.0
1469.345947 52.0
1469.529053 48.0
1469.735107 200.0
1469.811401 280.0
1469.933472 180.0
1470.261597 172.0
1470.452393 180.0
1470.566895 88.0
1471.383667 68.0
1471.513428 136.0
1472.261719 32.0
1472.490845 128.0
1472.574829 200.0
1472.918579 96.0
1472.972046 80.0
1473.033081 40.0
1473.292847 108.0
1473.743652 88.0
1474.370239 48.0
1474.599487 180.0
1475.226196 148.0
1475.4021 116.0
1475.577881 188.0
1475.723145 44.0
1476.265991 200.0
1476.732544 208.0
1477.557861 132.0
1477.675781 192.0
1477.941162 180.0
1478.339111 112.0
1478.438599 132.0
1478.545776 72.0
1478.691162 104.0
1479.59436 112.0
1479.877563 180.0
1480.237549 172.0
1480.291138 140.0
1480.367676 136.0
1480.873169 108.0
1481.033936 100.0
1481.271362 148.0
1481.699951 128.0
1482.068115 200.0
1482.911133 128.0
1483.041382 104.0
1483.455322 160.0
1483.623901 188.0
1484.873779 148.0
1485.057861 156.0
1485.134521 168.0
1485.272583 88.0
1485.487427 256.0
1485.794189 200.0
1485.985962 160.0
1486.039673 148.0
1486.285278 184.0
1486.914551 132.0
1487.006592 104.0
1487.33667 120.0
1487.912354 124.0
1488.195312 112.0
1488.357666 84.0
1488.426758 192.0
1488.726196 128.0
1488.948975 164.0
1489.525024 172.0
1489.778442 164.0
1490.016602 172.0
1490.354614 140.0
1491.369019 136.0
1491.644653 132.0
1491.884033 188.0
1492.737427 180.0
1492.906616 140.0
1493.15271 196.0
1493.929565 160.0
1494.168091 180.0
1494.545044 136.0
1494.960571 120.0
1495.953491 144.0
1497.108276 100.0
1497.608887 184.0
1498.001709 56.0
1498.379272 196.0
1498.880005 204.0
1500.289307 136.0
1501.046021 180.0
1501.156982 156.0
1501.423828 180.0
1501.63208 192.0
1502.257812 156.0
1502.812378 260.0
1503.445068 144.0
1503.5354 276.0
1503.88501 204.0
1503.938965 132.0
1504.085693 172.0
