>compound MLS000059188-01!2-methyl-N-phenyl-5,6-dihydro-1,4-oxathiine-3-carboxamide5234-68-4
>formula C12H13NO2S
>ionization [M+H]+
>parentmass 236.07397610809053
#inchi InChI=1S/C12H13NO2S/c1-9-11(16-8-7-15-9)12(14)13-10-5-3-2-4-6-10/h2-6H,7-8H2,1H3,(H,13,14)
#inchikey GYSSRZJIHXQEHQ
#Ion_Source LC-ESI
#Instrument qTof
#Compound_Source NIH Pharmacologically Active Library
#PI Dorrestein
#Data_Collector VP/LMS
#Scan -1
#Precursor_MZ 236.076
#ExactMass 235.067
#Charge 1
#CAS_Number N/A
#Pubmed_ID N/A
#Smiles CC1=C(SCCO1)C(=O)Nc2ccccc2
#INCHI_AUX N/A
#Library_Class 1
#SpectrumID CCMSLIB00000084821
#IonMode Positive
#UpdateWorkflowName UPDATE-SINGLE-ANNOTATED-GOLD
#LibraryQualityString Gold
#TaskID d252d724072548979f1f6f1ced849daf
##Scan# 1926
#SpectrumFile p3-B03_GB3_01_18236.mzXML
#LibraryName Pharm_Active_Library.mgf
#MQScore -1
#Organism Pharm_Active_Library
#TIC_Query 0
#RT_Query -1
#MZErrorPPM -1
#SharedPeaks 0
#MassDiff 0
#LibMZ -1
#SpecMZ 236.076
#SpecCharge 0
#internalFilename spec-00000.mgf

>collision 10
45.21104 188.0
45.594597 68.0
46.639389 164.0
47.597095 56.0
48.467495 168.0
48.61726 160.0
50.632591 44.0
53.217617 64.0
54.391388 196.0
59.026249 176.0
59.521191 116.0
60.706318 228.0
65.541077 144.0
67.100311 160.0
67.991798 136.0
68.735619 144.0
68.875946 132.0
69.282883 56.0
69.301109 72.0
69.930489 40.0
69.96711 84.0
71.031616 168.0
71.357407 136.0
72.036568 200.0
73.472763 196.0
73.59053 112.0
73.810944 232.0
74.709671 176.0
75.07827 148.0
76.349419 192.0
76.577408 208.0
77.804947 128.0
78.225098 124.0
79.648575 152.0
79.787178 132.0
82.006882 196.0
85.959106 212.0
88.918137 176.0
89.544205 164.0
90.628517 160.0
92.052422 148.0
93.058769 1156.0
93.500595 168.0
94.064674 344.0
95.433075 228.0
97.012505 172.0
99.139229 76.0
100.758896 124.0
101.014778 268.0
102.788811 216.0
102.83725 200.0
104.051109 176.0
104.230537 72.0
105.193863 168.0
105.351105 152.0
106.06321 176.0
106.97113 132.0
109.012497 124.0
116.016434 224.0
116.619606 108.0
117.038635 184.0
119.71991 48.0
120.042419 172.0
120.262764 68.0
120.395943 132.0
120.579453 220.0
121.051384 160.0
121.624191 144.0
124.022774 640.0
125.026665 276.0
128.048813 160.0
128.235031 84.0
129.061035 176.0
130.005829 60.0
132.04422 900.0
132.069962 168.0
132.358307 64.0
133.045807 144.0
133.620667 232.0
134.090408 136.0
135.254486 196.0
138.041473 136.0
140.050598 164.0
140.573975 148.0
140.758087 188.0
141.756317 52.0
142.299484 108.0
142.698624 76.0
142.98645 140.0
143.016815 5524.0
143.057861 76.0
143.079285 112.0
143.217392 116.0
143.913742 116.0
144.018921 160.0
144.269714 156.0
144.535187 68.0
145.011459 176.0
146.056686 320.0
147.058502 124.0
147.193695 104.0
148.026031 204.0
149.02919 136.0
158.054962 144.0
161.498993 72.0
162.041763 324.0
162.57518 56.0
164.017776 152.0
165.030045 512.0
166.031784 156.0
166.255676 104.0
166.556061 84.0
167.04187 192.0
180.022827 120.0
182.689667 48.0
190.027115 172.0
196.083832 236.0
198.919998 192.0
199.442459 92.0
208.045517 184.0
208.776825 116.0
233.121109 144.0
234.195038 188.0
300.001892 168.0
595.19104 92.0
600.119934 76.0
708.585205 164.0
775.552856 188.0
830.586609 196.0
927.822449 48.0
953.59436 144.0
975.991333 56.0
1006.184753 236.0
1006.336243 56.0
1037.4021 264.0
1044.922241 216.0
1049.063232 188.0
1049.953003 160.0
1087.231323 40.0
1094.224976 40.0
1110.361328 76.0
1111.137329 172.0
1117.655151 180.0
1118.287354 148.0
1120.851196 228.0
1121.944336 288.0
1128.226196 156.0
1133.212158 192.0
1137.839844 192.0
1172.390991 188.0
1186.97876 48.0
1212.298096 76.0
1243.745605 156.0
1248.403564 184.0
1283.206055 156.0
1283.640991 196.0
1293.056519 204.0
1295.505249 152.0
1305.000122 224.0
1319.108521 212.0
1326.36145 188.0
1327.419922 148.0
1333.583374 208.0
1338.217285 164.0
1339.768555 156.0
1349.82605 168.0
1355.601562 164.0
1358.952393 212.0
1371.424438 108.0
1389.259766 176.0
1420.34375 56.0
1430.879395 172.0
1448.823242 212.0
1459.372559 232.0
1479.108276 172.0
1486.703613 156.0
1490.812012 140.0
1493.156738 152.0
1494.518311 248.0
1498.807129 164.0
