>compound Eryped
>formula C43H75NO16 
>ionization [M+H]+
>parentmass 862.517395
#inchi InChI=1S/C43H75NO16/c1-15-29-43(11,52)36(48)24(5)33(47)22(3)20-41(9,51)38(25(6)34(26(7)39(50)57-29)59-32-21-42(10,53-14)37(49)27(8)56-32)60-40-35(28(44(12)13)19-23(4)55-40)58-31(46)18-17-30(45)54-16-2/h22-29,32,34-38,40,48-49,51-52H,15-21H2,1-14H3
#inchikey NSYZCCDSJNWWJL
#Ion_Source LC-ESI
#Instrument qTof
#Compound_Source Commercial
#PI Dorrestein
#Data_Collector Garg_Neha
#Scan -1
#Precursor_MZ 862.52
#ExactMass 861.509
#Charge 1
#CAS_Number N/A
#Pubmed_ID N/A
#Smiles N/A
#INCHI_AUX N/A
#Library_Class 1
#SpectrumID CCMSLIB00000077069
#IonMode Positive
#UpdateWorkflowName UPDATE-SINGLE-ANNOTATED-GOLD
#LibraryQualityString Gold
#TaskID 48f7f52fc6d249b5abbcc6e7b3df5969
##Scan# 1254
#SpectrumFile NCP003017_G2_H11_2_BB1_01_15712.mzXML
#LibraryName NIH_Clinical_Collection_2.mgf
#MQScore -1
#Organism NIHcollection2_04212014_2_mgf
#TIC_Query 0
#RT_Query -1
#MZErrorPPM -1
#SharedPeaks 0
#MassDiff 0
#LibMZ -1
#SpecMZ 862.52
#SpecCharge 0
#internalFilename spec-00000.mgf

>collision 10
53.049114 228.0
53.696167 184.0
61.829292 176.0
67.131027 148.0
73.375282 156.0
75.017654 144.0
76.20488 148.0
78.457367 180.0
81.673531 180.0
97.027992 316.0
98.096443 1000.0
99.099411 260.0
101.022972 616.0
101.958969 176.0
102.025307 256.0
106.348175 144.0
115.070755 140.0
116.071312 276.0
116.107521 1056.0
117.073494 168.0
117.109589 184.0
117.135956 164.0
125.08577 168.0
127.074989 176.0
128.887253 144.0
129.018341 212.0
129.055176 4112.0
130.057709 440.0
139.617706 156.0
140.107147 700.0
152.35759 172.0
155.75177 212.0
158.119171 2096.0
159.121033 260.0
160.446411 196.0
199.271957 148.0
223.16951 148.0
226.948669 236.0
235.135559 156.0
241.106613 204.0
244.120117 184.0
245.124664 144.0
255.862488 156.0
272.15033 208.0
280.389893 176.0
285.999969 196.0
286.165894 10668.0
286.303558 164.0
286.922943 156.0
287.168121 1812.0
288.16925 388.0
289.175446 188.0
289.983246 144.0
290.182098 196.0
307.189789 176.0
318.15918 152.0
327.236664 228.0
347.230713 164.0
390.152191 156.0
399.099365 160.0
426.890747 220.0
466.764374 160.0
541.344849 148.0
571.097229 208.0
598.062622 172.0
668.397339 104.0
673.362488 144.0
686.419617 280.0
686.685364 152.0
687.397156 216.0
704.410706 228.0
712.160339 156.0
744.765076 224.0
753.803284 184.0
770.987427 152.0
778.332764 152.0
779.215881 184.0
783.878601 148.0
800.713013 196.0
819.138367 148.0
831.792847 160.0
837.681152 160.0
844.496277 240.0
854.405701 144.0
858.205566 108.0
858.339294 96.0
859.185608 104.0
859.467529 140.0
860.418518 120.0
861.033142 148.0
861.447876 140.0
861.827576 180.0
862.072998 164.0
862.279236 148.0
862.517395 16464.0
862.74408 108.0
862.80127 100.0
863.115112 144.0
863.418823 136.0
863.518066 7104.0
864.073303 164.0
864.519287 2984.0
864.751526 160.0
865.519409 644.0
866.529785 136.0
867.516235 140.0
867.784302 116.0
867.997986 96.0
868.329407 100.0
868.616577 148.0
886.530518 180.0
887.289185 164.0
1431.889038 180.0
1449.422607 168.0
1473.99292 176.0
1653.531372 164.0
1805.241943 180.0
