>compound MLS000697596-01!
>formula C25H24O6
>ionization [M+H]+
>parentmass 421.165771
#inchi InChI=1S/C25H24O6/c1-13(2)5-7-17-23(29)21-20(30-24(17)15-8-6-14(26)11-18(15)27)12-19-16(22(21)28)9-10-25(3,4)31-19/h5-6,8-12,26-28H,7H2,1-4H3
#inchikey XIWCDUHPYMOFIL
#Ion_Source LC-ESI
#Instrument qTof
#Compound_Source NIH Natural Product Library
#PI Dorrestein
#Data_Collector VVP/LMS
#Scan -1
#Precursor_MZ 421.165
#ExactMass 420.157
#Charge 1
#CAS_Number N/A
#Pubmed_ID N/A
#Smiles CC(=CCc1c(oc2cc3OC(C)(C)C=Cc3c(O)c2c1=O)c4ccc(O)cc4O)C
#INCHI_AUX N/A
#Library_Class 3
#SpectrumID CCMSLIB00000079977
#IonMode Positive
#UpdateWorkflowName UPDATE-SINGLE-ANNOTATED-BRONZE
#LibraryQualityString Bronze
#TaskID b1d8e8f6646f4e71acdff9ca3d919d08
##Scan# 2670
#SpectrumFile p2-E02_GE2_01_18026.mzXML
#LibraryName NIH_Natural_Products_Library.mgf
#MQScore -1
#Organism NIH_Natural_Products_Library
#TIC_Query 0
#RT_Query -1
#MZErrorPPM -1
#SharedPeaks 0
#MassDiff 0
#LibMZ -1
#SpecMZ 421.165
#SpecCharge 0
#internalFilename spec-00000.mgf

>collision 10
94.967644 176.0
95.204422 204.0
95.30349 128.0
95.332634 132.0
95.373451 144.0
95.451218 88.0
95.614624 156.0
95.708061 52.0
95.900925 188.0
95.997108 236.0
96.066666 208.0
96.164932 256.0
96.326294 52.0
96.363411 168.0
96.568672 140.0
96.686058 124.0
96.821144 116.0
96.93084 136.0
97.152397 148.0
97.350632 116.0
97.503868 108.0
97.553009 180.0
97.574631 96.0
97.73111 200.0
97.964294 84.0
97.998337 228.0
98.029312 148.0
98.106178 140.0
98.386314 100.0
98.583832 240.0
98.617424 112.0
98.680687 148.0
98.765717 144.0
98.894333 228.0
99.011139 140.0
99.048775 196.0
99.088394 152.0
99.120094 60.0
99.191444 144.0
99.369926 96.0
99.602196 92.0
99.624046 144.0
99.679871 160.0
99.769112 156.0
99.989906 100.0
100.011795 108.0
100.117317 136.0
100.143211 144.0
100.193008 228.0
100.236839 180.0
100.388344 108.0
100.464134 204.0
100.671715 184.0
100.853516 76.0
100.941483 172.0
101.117531 164.0
101.405937 140.0
101.46006 216.0
101.532242 208.0
101.692749 160.0
101.883507 124.0
101.953835 212.0
102.14283 108.0
102.207207 80.0
102.358574 180.0
102.487083 112.0
102.57576 176.0
102.636246 276.0
103.217781 196.0
103.318909 160.0
103.545616 140.0
103.780678 96.0
103.794876 176.0
103.955124 176.0
103.991653 196.0
104.147995 116.0
104.180496 184.0
104.196747 192.0
104.25161 68.0
104.381706 92.0
104.492523 108.0
104.585373 188.0
104.699165 104.0
104.721573 88.0
104.933502 120.0
105.049744 216.0
105.066063 180.0
105.086464 88.0
105.511276 156.0
105.584885 52.0
105.709679 156.0
105.797684 184.0
105.926697 188.0
105.953331 156.0
106.004555 124.0
106.070137 176.0
106.10704 172.0
106.125488 64.0
106.158424 132.0
106.287529 108.0
106.3881 100.0
106.52758 156.0
106.654358 236.0
106.790848 236.0
106.932808 128.0
107.019264 196.0
107.049835 204.0
107.159325 176.0
107.487167 76.0
107.511925 184.0
107.602753 216.0
107.646111 192.0
107.805176 52.0
108.020195 144.0
108.053299 128.0
108.212662 136.0
108.334846 128.0
108.370071 148.0
108.421875 84.0
108.58773 256.0
108.676933 140.0
108.697678 136.0
109.063538 332.0
109.125565 116.0
109.275314 168.0
109.302361 212.0
109.331093 208.0
109.537621 88.0
109.631378 100.0
109.912888 136.0
110.069443 152.0
110.214302 148.0
110.579529 112.0
110.610924 132.0
110.671638 92.0
110.948196 152.0
111.183113 100.0
111.321671 204.0
111.384674 160.0
111.409882 84.0
111.895691 120.0
111.914642 148.0
112.081039 80.0
112.156914 180.0
112.293961 80.0
112.416321 140.0
112.67392 128.0
112.690819 136.0
112.735191 168.0
113.086266 156.0
113.18576 116.0
113.423042 132.0
113.673302 124.0
113.722115 248.0
113.865379 168.0
113.98333 168.0
114.019455 92.0
114.22995 136.0
114.455544 84.0
114.527954 152.0
114.57695 76.0
114.723991 232.0
114.881805 184.0
115.057785 356.0
115.093094 120.0
115.135803 40.0
115.210556 176.0
115.259697 64.0
115.400772 184.0
115.563324 128.0
115.666046 180.0
115.749542 132.0
115.779518 136.0
115.815926 88.0
115.936935 200.0
116.025932 128.0
116.285484 160.0
116.491615 188.0
116.792549 176.0
116.994827 136.0
117.038139 172.0
117.068222 272.0
117.268394 200.0
117.31366 204.0
117.406372 200.0
117.503441 112.0
117.78624 96.0
117.8153 176.0
117.959106 152.0
117.981331 184.0
118.078026 256.0
118.12561 176.0
118.303299 212.0
118.348518 172.0
118.63884 176.0
118.760269 112.0
118.792809 140.0
119.048515 844.0
119.087593 188.0
119.093727 152.0
119.122765 172.0
119.255539 192.0
119.435776 144.0
119.607674 76.0
119.62944 256.0
119.65992 128.0
119.983322 136.0
120.023788 144.0
120.055977 216.0
120.070518 196.0
120.137199 96.0
120.261574 100.0
120.322701 192.0
120.342346 164.0
120.571709 152.0
120.720367 140.0
120.74511 128.0
120.770668 224.0
120.823166 160.0
120.993874 128.0
121.027969 280.0
121.068794 228.0
121.323174 64.0
121.383881 172.0
121.814049 188.0
121.875565 104.0
122.018425 68.0
122.183372 144.0
122.236176 156.0
122.34182 124.0
122.427689 160.0
122.542236 112.0
122.570877 152.0
122.687691 108.0
122.806763 144.0
122.877357 188.0
122.956795 152.0
123.041306 596.0
123.081909 148.0
123.142288 200.0
123.294693 276.0
123.369843 208.0
123.445938 220.0
123.586578 128.0
123.630836 108.0
123.726013 92.0
123.832306 164.0
123.965225 168.0
124.124832 176.0
124.18914 180.0
124.213539 152.0
124.260132 124.0
124.442123 44.0
124.502075 104.0
124.700302 144.0
124.748711 168.0
125.169205 128.0
125.35186 56.0
125.380836 416.0
125.396431 212.0
125.463303 180.0
125.670723 236.0
125.690804 104.0
125.753288 152.0
125.867142 32.0
125.983284 68.0
126.052544 148.0
126.179947 40.0
126.344543 140.0
126.378998 152.0
126.419281 192.0
126.470757 140.0
126.631958 88.0
126.999542 128.0
127.054855 408.0
127.07357 168.0
127.100494 204.0
127.237404 104.0
127.286797 120.0
127.307007 164.0
127.394608 116.0
127.486359 148.0
127.53392 148.0
127.59462 108.0
127.824036 156.0
128.061935 500.0
128.315048 196.0
128.400742 120.0
128.592514 232.0
128.608307 100.0
128.793457 68.0
128.827347 168.0
128.87027 140.0
128.955246 132.0
129.014908 132.0
129.065979 252.0
129.259186 148.0
129.447067 112.0
129.478775 112.0
129.508209 132.0
129.598831 120.0
129.669083 40.0
129.718948 236.0
130.009262 36.0
130.068268 184.0
130.113678 112.0
130.65683 176.0
130.786545 196.0
130.836624 100.0
130.886719 76.0
130.93454 152.0
130.993759 184.0
131.051727 472.0
131.187454 28.0
131.239883 160.0
131.698578 176.0
131.714569 132.0
131.810532 116.0
131.881378 208.0
132.061996 124.0
132.606918 120.0
132.76741 48.0
132.824738 156.0
132.882095 80.0
132.916519 208.0
133.028976 148.0
133.063919 404.0
133.100143 128.0
133.208084 92.0
133.536774 196.0
133.808304 148.0
133.951096 32.0
134.034027 116.0
134.064774 212.0
134.128525 160.0
134.157166 236.0
134.306061 152.0
134.354507 116.0
134.48143 164.0
134.518356 196.0
134.763153 180.0
134.917999 172.0
135.046158 752.0
135.07756 220.0
135.218796 96.0
135.315933 120.0
135.401611 136.0
135.818802 44.0
135.841995 96.0
135.881439 116.0
135.920883 136.0
135.971924 168.0
136.046204 248.0
136.180878 176.0
136.199463 252.0
136.28775 232.0
136.310989 128.0
136.513214 120.0
136.536469 132.0
136.734222 204.0
136.757507 132.0
136.929794 160.0
136.95076 164.0
136.982697 152.0
137.026276 332.0
137.045227 108.0
137.316681 164.0
137.458984 184.0
137.505661 228.0
137.547668 100.0
137.592026 180.0
137.634048 188.0
137.87944 212.0
138.049988 128.0
138.080399 124.0
138.560257 36.0
138.614136 136.0
138.736023 164.0
138.801666 160.0
138.865433 104.0
138.92128 196.0
139.010437 64.0
139.040253 532.0
139.188843 112.0
139.320358 216.0
139.475449 172.0
139.503662 156.0
139.562439 128.0
139.672562 136.0
139.771774 148.0
139.802368 160.0
139.917709 116.0
139.948318 132.0
140.056641 168.0
140.11554 152.0
140.179581 108.0
140.240433 220.0
140.504532 192.0
140.624878 236.0
140.641403 160.0
140.76416 124.0
140.917694 112.0
140.96022 144.0
141.019302 188.0
141.042938 172.0
141.068939 296.0
141.130417 204.0
141.184799 176.0
141.291245 220.0
141.532654 152.0
141.561066 156.0
141.662918 188.0
141.75531 132.0
141.788498 72.0
141.87146 120.0
142.027954 172.0
142.260513 144.0
142.289001 112.0
142.307983 108.0
142.355484 144.0
142.505127 92.0
142.524124 120.0
142.559769 40.0
142.64534 216.0
142.694061 156.0
142.906937 144.0
142.975937 128.0
143.030685 144.0
143.048401 152.0
143.077484 152.0
143.252136 92.0
143.290253 40.0
143.400604 196.0
143.585831 88.0
143.776688 92.0
143.845901 52.0
143.924698 212.0
143.977234 184.0
144.005112 136.0
144.084717 132.0
144.110992 96.0
144.154007 120.0
144.180298 108.0
144.223557 92.0
144.292877 196.0
144.383499 172.0
144.405029 60.0
144.711334 180.0
144.804718 224.0
144.8694 156.0
144.984406 184.0
145.028931 1764.0
145.063828 604.0
145.123428 52.0
145.207794 112.0
145.363297 180.0
145.442505 176.0
145.620178 200.0
145.641785 220.0
145.842728 204.0
146.033951 204.0
146.072052 128.0
146.259735 96.0
146.553543 104.0
146.584869 104.0
147.014114 152.0
147.044189 3440.0
147.080856 120.0
147.117905 168.0
147.192749 224.0
147.243454 116.0
147.37149 44.0
147.509232 52.0
147.610779 212.0
147.755905 120.0
147.823654 80.0
147.976151 176.0
147.99794 100.0
148.047974 120.0
148.461884 188.0
148.485016 64.0
148.582047 192.0
148.858734 40.0
148.895172 124.0
149.023285 116.0
149.059662 760.0
149.091949 160.0
149.108963 52.0
149.405609 64.0
149.498077 60.0
149.571091 40.0
149.605164 56.0
150.066071 460.0
150.211945 152.0
150.490158 152.0
150.57074 160.0
150.780853 184.0
150.85907 104.0
151.074112 180.0
151.103622 124.0
151.154999 128.0
151.255875 92.0
151.443878 132.0
151.632538 136.0
151.666855 128.0
151.701172 208.0
151.733032 72.0
151.880173 176.0
151.934143 168.0
152.06665 160.0
152.115738 124.0
152.163681 136.0
152.179565 192.0
152.254486 176.0
152.329376 188.0
152.422729 128.0
152.556885 180.0
152.636581 160.0
152.757095 92.0
152.865356 156.0
152.94165 120.0
153.015442 188.0
153.070953 344.0
153.096756 176.0
153.562546 152.0
153.619278 144.0
153.717972 176.0
153.833969 52.0
153.905563 108.0
153.950012 100.0
154.023834 144.0
154.071045 156.0
154.652145 196.0
154.748688 168.0
154.831894 120.0
155.049088 556.0
155.20459 32.0
155.224426 172.0
155.259155 76.0
155.703384 148.0
155.864853 140.0
155.93692 176.0
156.043808 216.0
156.061218 128.0
156.120895 184.0
156.407013 192.0
156.58876 92.0
156.618652 80.0
156.909134 232.0
156.970062 164.0
157.066391 644.0
157.276917 156.0
157.496643 148.0
157.5616 120.0
157.59407 104.0
157.734024 32.0
157.969086 148.0
158.039124 260.0
158.069672 156.0
158.230316 280.0
158.497345 116.0
158.544952 136.0
158.59758 180.0
158.625153 116.0
158.690338 148.0
158.773087 80.0
158.986328 168.0
159.018951 124.0
159.046021 292.0
159.084213 192.0
159.164566 124.0
159.275055 180.0
159.340378 140.0
159.541428 48.0
159.636978 152.0
159.669662 152.0
160.016922 152.0
160.056671 344.0
160.25618 120.0
160.495636 228.0
160.68985 208.0
161.024673 340.0
161.060623 1176.0
161.14682 148.0
161.225159 192.0
161.500732 128.0
161.667709 104.0
161.720871 144.0
161.766434 176.0
161.867691 256.0
162.032806 196.0
162.065277 232.0
162.394821 124.0
162.578049 180.0
162.691711 188.0
162.757721 236.0
162.902481 232.0
162.98378 176.0
163.040817 660.0
163.076324 392.0
163.210007 176.0
163.258316 220.0
163.298355 152.0
163.357513 48.0
163.451645 36.0
163.540726 160.0
163.820816 72.0
163.838654 156.0
164.041977 236.0
164.062912 72.0
164.090958 132.0
164.141953 164.0
164.315399 76.0
164.404694 48.0
164.453186 140.0
164.611465 112.0
164.884811 168.0
164.905258 196.0
165.018463 260.0
165.05098 52.0
165.071442 152.0
165.08934 140.0
165.140488 52.0
165.357956 100.0
165.415298 180.0
165.457474 132.0
165.524353 52.0
165.610855 88.0
165.693405 152.0
165.803589 148.0
165.853943 228.0
165.908676 136.0
166.024063 168.0
166.078186 220.0
166.142044 188.0
166.236984 152.0
166.259277 140.0
166.316544 132.0
166.604141 132.0
166.817444 172.0
166.886856 204.0
167.059174 92.0
167.084518 152.0
167.241867 208.0
167.360275 156.0
167.406631 116.0
167.720718 92.0
167.735397 212.0
167.782822 224.0
167.855011 108.0
168.391785 140.0
168.748398 228.0
169.020081 96.0
169.063522 156.0
169.221863 116.0
169.315079 112.0
169.462738 192.0
169.486053 160.0
169.548248 176.0
169.623413 112.0
169.662292 44.0
169.680435 204.0
169.986511 164.0
170.274658 160.0
170.326614 180.0
170.39415 184.0
170.516281 136.0
170.880341 132.0
171.007843 100.0
171.042435 292.0
171.081665 236.0
171.29686 144.0
171.41597 156.0
171.682602 120.0
171.737381 112.0
171.81041 112.0
171.980026 124.0
172.052261 212.0
172.246368 96.0
172.481537 88.0
172.510284 184.0
172.745636 148.0
172.816284 112.0
172.96283 84.0
173.024216 3160.0
173.060257 952.0
173.109436 44.0
173.240402 188.0
173.319 44.0
173.366165 100.0
173.410721 108.0
173.599472 136.0
173.772598 40.0
173.987808 224.0
174.029327 844.0
174.065536 316.0
174.103333 188.0
174.155869 48.0
174.242554 180.0
174.281967 212.0
174.342392 116.0
174.539551 36.0
174.958649 152.0
174.981583 304.0
175.007904 216.0
175.039215 1284.0
175.075516 180.0
175.105347 108.0
175.331909 44.0
175.355637 104.0
175.456436 164.0
175.511169 48.0
175.558624 120.0
175.606094 136.0
175.687866 68.0
175.761749 144.0
175.838272 144.0
175.872589 136.0
175.996658 172.0
176.04628 192.0
176.083862 196.0
176.202682 96.0
176.355164 244.0
176.400879 120.0
176.45639 156.0
176.504929 156.0
176.530731 128.0
176.649445 40.0
176.752625 132.0
176.929962 172.0
177.017365 1024.0
177.055008 1928.0
177.178909 172.0
177.298141 72.0
177.435974 184.0
177.534088 68.0
177.587128 164.0
177.653442 188.0
177.918823 164.0
178.024536 224.0
178.058792 496.0
178.176422 192.0
178.314606 180.0
178.349152 284.0
178.673569 196.0
178.79863 132.0
178.893372 116.0
179.031357 164.0
179.118134 128.0
179.13678 120.0
179.177979 164.0
179.216705 240.0
179.307312 108.0
179.360611 120.0
179.557922 104.0
179.766006 160.0
180.070343 140.0
180.105072 136.0
180.22261 140.0
180.364258 68.0
180.551407 104.0
180.570129 144.0
180.604904 188.0
180.751678 176.0
180.952682 208.0
181.027756 124.0
181.068527 268.0
181.116241 172.0
181.470474 160.0
181.571472 180.0
181.601273 228.0
181.625412 164.0
181.703201 128.0
181.823959 112.0
181.899109 124.0
182.041412 184.0
182.071945 428.0
182.148911 160.0
182.493362 220.0
182.673019 148.0
182.812927 112.0
182.923279 148.0
183.048981 156.0
183.086182 140.0
183.119827 164.0
183.367691 200.0
183.437775 128.0
183.507874 48.0
183.710144 164.0
183.859863 204.0
184.004303 188.0
184.050201 188.0
184.087997 284.0
184.166733 156.0
184.239258 424.0
184.39328 148.0
184.671753 160.0
184.70079 76.0
185.060867 524.0
185.09935 100.0
185.129135 204.0
185.619614 208.0
185.877304 84.0
185.945145 120.0
186.064575 172.0
186.43399 172.0
186.45845 60.0
186.526398 52.0
186.559021 184.0
186.716721 176.0
187.0392 1028.0
187.073502 380.0
187.201126 136.0
187.329147 196.0
187.759796 128.0
187.97258 160.0
188.046646 372.0
188.193665 112.0
188.417633 76.0
188.54332 164.0
188.617111 36.0
188.65538 168.0
188.731934 140.0
188.833115 124.0
188.906967 80.0
188.961685 120.0
189.018082 804.0
189.055267 976.0
189.188828 164.0
189.224426 168.0
189.347641 128.0
189.501053 208.0
189.566208 224.0
189.79158 240.0
189.829971 68.0
189.953384 116.0
189.975327 152.0
190.022827 868.0
190.059723 988.0
190.321136 184.0
190.439224 200.0
190.46669 40.0
190.656265 236.0
190.708481 44.0
190.818451 68.0
190.90094 148.0
190.947571 100.0
190.994446 148.0
191.034241 2332.0
191.066925 516.0
191.143005 80.0
191.206299 36.0
191.410004 156.0
191.473343 80.0
191.560104 136.0
191.881165 152.0
191.927383 64.0
192.041534 360.0
192.077972 156.0
192.11235 116.0
192.173523 212.0
192.272858 232.0
192.419159 116.0
192.482651 164.0
192.640076 264.0
192.803101 116.0
192.897079 128.0
192.924713 172.0
193.042328 208.0
193.083939 404.0
193.108795 244.0
193.234467 100.0
193.350677 92.0
193.401672 236.0
193.439255 196.0
193.461395 36.0
193.480774 208.0
193.555527 148.0
193.594299 160.0
193.718933 76.0
194.018234 128.0
194.07486 280.0
194.104614 180.0
194.287231 140.0
194.34549 116.0
194.456497 92.0
194.542542 60.0
194.598068 292.0
194.648056 148.0
194.675812 136.0
194.70636 128.0
194.734146 60.0
194.803574 136.0
194.836914 196.0
194.8647 148.0
195.074707 204.0
195.106491 164.0
195.173218 128.0
195.205017 156.0
195.23996 88.0
195.353989 348.0
195.431885 120.0
195.540421 208.0
195.568253 104.0
195.687958 128.0
195.729721 140.0
195.811172 160.0
195.907959 128.0
195.933044 168.0
195.997116 140.0
196.052856 108.0
196.088364 228.0
196.119736 164.0
196.178284 140.0
196.331635 164.0
196.379044 128.0
196.440414 112.0
196.736206 132.0
196.786469 96.0
196.878616 172.0
197.009888 188.0
197.062149 272.0
197.099289 132.0
197.15239 184.0
197.21666 140.0
197.244614 184.0
197.498077 136.0
197.543823 140.0
197.77887 124.0
198.058868 404.0
198.100891 228.0
198.120499 208.0
198.252182 120.0
198.350281 64.0
198.524109 148.0
198.583008 80.0
198.647522 216.0
198.956207 148.0
199.041595 340.0
199.077835 476.0
199.118393 168.0
199.247177 168.0
199.397202 132.0
199.49559 172.0
199.548996 224.0
199.60524 128.0
200.04805 92.0
200.056137 184.0
200.069016 248.0
200.134232 132.0
200.232788 124.0
200.38208 232.0
200.903641 100.0
201.053558 1564.0
201.095261 180.0
201.157608 192.0
201.459763 128.0
201.489594 144.0
201.527573 188.0
201.617996 152.0
201.705612 148.0
201.960098 64.0
201.986938 200.0
202.059967 304.0
202.124176 176.0
202.234543 180.0
202.342117 148.0
202.73584 248.0
202.871887 132.0
202.900238 216.0
202.948441 52.0
202.982468 136.0
203.034088 2064.0
203.097244 132.0
203.192352 60.0
203.243423 80.0
203.348419 68.0
203.419388 56.0
203.64653 188.0
203.899399 188.0
203.964767 100.0
204.039261 448.0
204.06427 220.0
204.097107 312.0
204.111404 152.0
204.122238 248.0
204.175171 60.0
204.419815 88.0
204.51088 164.0
204.564972 164.0
204.678848 244.0
204.82695 152.0
204.949448 164.0
204.997894 72.0
205.067215 500.0
205.102173 312.0
205.388474 172.0
205.415466 104.0
205.571075 52.0
205.827972 176.0
205.902222 28.0
205.999344 72.0
206.02504 128.0
206.074173 312.0
206.105042 228.0
206.196487 148.0
206.390884 136.0
206.602524 44.0
206.731277 28.0
206.754166 64.0
206.797104 156.0
206.860077 160.0
206.977448 140.0
207.032211 360.0
207.07991 292.0
207.116348 136.0
207.283951 192.0
207.361328 128.0
207.407181 60.0
207.48172 144.0
207.564865 160.0
207.656296 172.0
207.711136 176.0
207.845963 140.0
208.039978 204.0
208.096466 260.0
208.184692 144.0
208.305328 104.0
208.351288 124.0
208.526566 84.0
208.865845 68.0
208.957901 192.0
209.062744 180.0
209.091553 224.0
209.248581 84.0
209.478973 40.0
209.591324 116.0
209.726776 136.0
209.77002 136.0
209.829941 132.0
209.862274 116.0
209.896866 124.0
209.919937 124.0
209.986267 124.0
210.069916 128.0
210.110306 112.0
210.165115 108.0
210.398895 132.0
210.679031 76.0
210.7108 124.0
210.835052 192.0
210.936996 224.0
211.04361 680.0
211.075256 736.0
211.10704 168.0
211.170425 72.0
211.231155 196.0
211.315063 176.0
211.734787 116.0
211.986816 116.0
212.045044 172.0
212.07666 296.0
212.230301 148.0
212.320206 104.0
212.381104 112.0
212.566788 92.0
212.587097 144.0
212.682861 228.0
212.883194 152.0
213.015671 208.0
213.053864 960.0
213.106857 40.0
213.234711 100.0
213.287033 108.0
213.319 124.0
213.395081 160.0
213.44693 60.0
213.602554 228.0
213.656342 168.0
214.06218 404.0
214.241501 228.0
214.270538 140.0
214.36969 200.0
214.408157 160.0
214.672867 124.0
214.737015 56.0
214.783691 128.0
215.03479 972.0
215.073624 180.0
215.130936 36.0
215.498917 92.0
215.718109 220.0
215.74733 224.0
215.939789 176.0
216.043503 160.0
216.07489 136.0
216.300217 264.0
216.458313 76.0
216.516876 188.0
216.849228 180.0
216.997437 148.0
217.050217 2696.0
217.102829 388.0
217.141129 160.0
217.352341 60.0
217.422775 44.0
217.507889 156.0
217.585144 104.0
217.615128 212.0
217.901398 36.0
218.051636 264.0
218.315842 52.0
218.3629 112.0
218.409958 140.0
218.48645 116.0
218.698318 136.0
218.866119 116.0
218.914642 92.0
219.007477 108.0
219.066589 3052.0
219.16066 64.0
219.194885 156.0
219.228439 136.0
219.343384 36.0
219.467194 168.0
219.487839 48.0
219.593994 72.0
219.629395 92.0
219.653 152.0
219.810211 96.0
219.830566 212.0
219.877228 144.0
220.071472 760.0
220.190826 200.0
220.234482 108.0
220.264023 96.0
220.512207 96.0
220.606796 136.0
220.671829 44.0
220.706085 144.0
220.760544 108.0
220.929138 188.0
220.955765 76.0
221.054382 624.0
221.095947 428.0
221.204346 48.0
221.26651 124.0
221.293152 176.0
221.571548 44.0
221.64859 80.0
222.052719 160.0
222.077881 224.0
222.098648 184.0
222.268311 140.0
222.35437 40.0
222.60968 96.0
222.689865 128.0
222.918625 164.0
222.939423 148.0
223.07048 400.0
223.112366 152.0
223.156418 124.0
223.20993 128.0
223.391357 56.0
223.822906 164.0
223.849701 120.0
224.04628 108.0
224.084854 256.0
224.334473 96.0
224.371124 204.0
224.462738 184.0
224.591782 184.0
224.684265 180.0
224.83345 172.0
224.899109 160.0
224.964783 96.0
225.055267 1080.0
225.095688 244.0
225.134979 92.0
225.16185 116.0
225.212631 64.0
225.329132 128.0
225.373947 176.0
225.583145 104.0
226.056229 272.0
226.097824 264.0
226.163437 160.0
226.603653 124.0
226.709137 176.0
226.802887 132.0
226.903351 140.0
227.035889 232.0
227.072006 324.0
227.113815 176.0
227.254257 84.0
227.281265 48.0
227.383301 64.0
227.405884 120.0
227.557404 200.0
227.665497 180.0
227.706375 236.0
227.887772 108.0
228.04599 400.0
228.077103 100.0
228.110168 176.0
228.149246 188.0
228.320633 108.0
228.459 68.0
228.48909 160.0
228.526108 144.0
228.645554 104.0
228.732834 144.0
228.790024 36.0
228.856262 112.0
228.901428 132.0
229.049927 1080.0
229.086884 320.0
229.178543 176.0
230.025986 112.0
230.061234 512.0
230.147964 120.0
230.153549 160.0
230.261505 60.0
230.533936 112.0
230.775208 112.0
230.853836 140.0
230.956665 76.0
231.030136 348.0
231.071716 252.0
231.22467 232.0
231.253174 104.0
231.305695 172.0
231.371231 128.0
231.425064 128.0
231.540802 116.0
231.743759 96.0
231.783142 132.0
231.804352 196.0
232.010452 44.0
232.080521 108.0
232.304047 276.0
232.841858 172.0
233.021072 120.0
233.042343 152.0
233.063614 160.0
233.103119 124.0
233.324997 168.0
233.376678 200.0
233.431412 96.0
233.842102 152.0
234.003448 92.0
234.066467 624.0
234.125244 168.0
234.399399 68.0
234.594467 188.0
234.640198 148.0
234.685928 156.0
234.838409 156.0
234.975677 148.0
235.068161 460.0
235.111053 164.0
235.118683 60.0
235.130127 156.0
235.37149 76.0
235.439636 184.0
235.464066 224.0
235.610687 148.0
235.705399 108.0
235.763458 216.0
236.075058 276.0
236.127274 116.0
236.286331 52.0
236.319992 132.0
236.408722 160.0
236.488297 64.0
236.543396 152.0
237.054489 436.0
237.086334 252.0
237.179367 192.0
237.214233 132.0
237.241135 140.0
237.502472 140.0
237.526093 132.0
237.576096 136.0
237.655869 140.0
237.787811 232.0
238.059967 332.0
238.122467 116.0
238.22998 84.0
238.307526 148.0
238.51207 180.0
238.55571 52.0
238.687912 92.0
238.760544 208.0
238.8909 112.0
238.952438 148.0
238.977051 88.0
239.034409 288.0
239.070602 1036.0
239.246307 188.0
239.309448 64.0
239.515732 160.0
239.589706 64.0
239.743774 116.0
239.848557 120.0
240.039703 116.0
240.075027 344.0
240.111221 148.0
240.43457 204.0
240.554947 108.0
240.900803 152.0
240.968765 184.0
241.049423 3944.0
241.086182 332.0
241.120178 228.0
241.203629 112.0
241.58194 172.0
241.618011 64.0
241.655136 52.0
241.741776 88.0
241.85939 132.0
242.019638 156.0
242.054428 852.0
242.088486 104.0
242.113266 84.0
242.53746 184.0
242.636917 100.0
242.661728 120.0
242.705139 268.0
242.813675 148.0
242.841583 164.0
242.900513 100.0
243.023544 364.0
243.028122 240.0
243.068542 1572.0
243.266678 88.0
243.291519 176.0
243.462296 112.0
243.797806 100.0
243.853745 108.0
243.884827 36.0
243.912796 100.0
243.965347 212.0
244.074966 364.0
244.102448 136.0
244.307724 136.0
244.40416 192.0
244.569107 108.0
244.600235 132.0
244.824402 188.0
244.871109 72.0
244.896027 128.0
244.961441 124.0
245.005051 132.0
245.099426 620.0
245.226303 128.0
245.310455 224.0
245.669067 180.0
245.837555 196.0
245.903091 176.0
246.040436 76.0
246.074783 232.0
246.103973 184.0
246.30275 156.0
246.599579 156.0
246.624588 172.0
246.662094 64.0
246.730865 136.0
246.834045 292.0
247.074524 144.0
247.138519 188.0
247.218811 104.0
247.453568 104.0
247.50679 132.0
247.541245 172.0
247.606995 108.0
247.729156 140.0
247.766754 148.0
247.848206 124.0
247.917145 156.0
248.02684 100.0
248.082092 308.0
248.33725 188.0
248.437637 48.0
248.613342 132.0
248.779694 188.0
248.848755 188.0
248.936676 116.0
249.056747 536.0
249.091339 1160.0
249.194244 148.0
249.244522 156.0
249.539963 192.0
249.590271 80.0
249.687759 72.0
249.826157 124.0
250.062531 392.0
250.095901 860.0
250.257324 28.0
250.436813 140.0
250.493515 204.0
250.528168 128.0
250.9095 48.0
250.997772 136.0
251.032455 64.0
251.069611 380.0
251.10704 432.0
251.190155 160.0
251.354218 104.0
251.411011 64.0
251.546738 148.0
251.682495 236.0
251.900406 184.0
251.973068 116.0
252.043945 244.0
252.078583 528.0
252.112091 268.0
252.191101 132.0
252.380783 120.0
252.437698 164.0
252.652771 124.0
252.7034 152.0
252.770706 160.0
252.985062 156.0
253.050491 2152.0
253.08432 632.0
253.120239 220.0
253.156036 48.0
253.246536 228.0
253.425278 60.0
253.472809 48.0
253.62175 40.0
253.762787 196.0
253.834167 72.0
254.050751 600.0
254.097595 420.0
254.2453 152.0
254.481461 96.0
254.665634 52.0
254.786346 56.0
254.834 184.0
254.942047 148.0
254.980179 168.0
255.02417 128.0
255.067139 2368.0
255.488922 64.0
255.552567 64.0
255.807159 88.0
255.870819 80.0
255.893112 104.0
255.972717 48.0
256.065582 120.0
256.10965 124.0
256.394073 192.0
256.667358 136.0
256.858704 60.0
256.916138 56.0
257.045563 1776.0
257.079285 704.0
257.102539 160.0
257.155457 188.0
257.340607 76.0
257.426819 92.0
257.647186 44.0
257.762207 168.0
257.784576 128.0
257.829315 252.0
257.912415 160.0
258.05777 288.0
258.187378 132.0
258.238556 232.0
258.39209 44.0
258.494476 144.0
258.689728 148.0
258.760162 92.0
258.792175 196.0
259.06369 180.0
259.071289 160.0
259.349579 144.0
259.386353 144.0
259.436127 164.0
259.676605 148.0
259.926849 184.0
260.06485 304.0
260.094177 140.0
260.128662 168.0
260.206085 148.0
260.266357 124.0
260.299194 76.0
260.360199 96.0
260.434082 48.0
260.520813 124.0
260.579834 216.0
260.822876 148.0
260.874298 84.0
261.059204 216.0
261.093872 164.0
261.189423 140.0
261.289154 168.0
261.340637 104.0
261.542267 92.0
261.565918 160.0
261.633514 132.0
262.065002 220.0
262.089386 504.0
262.290649 88.0
262.375427 148.0
262.445404 208.0
263.07193 388.0
263.105194 180.0
263.271484 112.0
263.458801 108.0
263.507263 100.0
263.762573 156.0
263.853088 224.0
263.956543 112.0
264.047089 160.0
264.074524 284.0
264.110107 748.0
264.231476 124.0
264.412689 44.0
264.457977 92.0
264.646637 160.0
264.797943 240.0
264.946259 192.0
264.958435 132.0
265.050293 916.0
265.096313 428.0
265.13974 176.0
265.241852 48.0
265.595276 164.0
265.874298 208.0
265.903503 48.0
266.01712 116.0
266.058472 2460.0
266.124237 48.0
266.187866 128.0
266.361298 256.0
266.572479 128.0
266.624481 108.0
266.793518 32.0
266.826019 88.0
266.915955 176.0
266.943085 228.0
266.969086 88.0
267.031494 336.0
267.067291 2720.0
267.101532 2396.0
267.14798 200.0
267.183746 28.0
267.291138 88.0
267.413788 252.0
267.533691 128.0
267.580811 108.0
267.743622 80.0
267.841339 56.0
268.071045 1276.0
268.10495 824.0
268.166931 112.0
268.174316 140.0
268.255157 160.0
268.473602 76.0
268.516022 44.0
268.79657 44.0
268.865082 192.0
268.956482 40.0
268.998901 48.0
269.044617 788.0
269.079407 672.0
269.116852 452.0
269.244751 188.0
269.322174 124.0
269.351562 52.0
269.394043 152.0
269.465912 76.0
269.4953 224.0
269.629303 104.0
269.655426 104.0
269.691376 68.0
269.769836 72.0
269.828674 80.0
269.897339 92.0
270.04541 272.0
270.071411 52.0
270.081818 136.0
270.109924 64.0
270.14917 52.0
270.365112 132.0
270.41095 84.0
270.466583 96.0
270.63028 56.0
270.659729 72.0
270.780914 144.0
270.802185 136.0
270.915375 160.0
270.99054 132.0
271.064453 176.0
271.151123 108.0
271.200287 184.0
271.450439 172.0
271.554382 192.0
271.938507 220.0
271.987488 140.0
272.072632 188.0
272.40451 172.0
272.447205 164.0
272.585205 204.0
272.706787 80.0
272.933624 212.0
273.091888 488.0
273.325043 140.0
273.450104 80.0
273.552155 204.0
273.585052 44.0
273.963776 152.0
274.054382 104.0
274.099365 384.0
274.468048 252.0
274.675812 104.0
274.97937 124.0
275.073242 360.0
275.246765 232.0
275.329315 32.0
275.407013 152.0
275.441315 132.0
275.563843 144.0
275.590271 120.0
275.799072 108.0
275.857971 188.0
276.028351 156.0
276.04248 84.0
276.078705 280.0
276.185333 204.0
276.234039 148.0
276.291168 124.0
276.450012 32.0
276.524536 100.0
276.618805 128.0
276.800903 80.0
276.998779 120.0
277.050415 728.0
277.087616 2572.0
277.40387 60.0
277.440338 196.0
277.523224 96.0
277.917938 56.0
278.059784 732.0
278.08905 1088.0
278.253143 196.0
278.28302 144.0
278.515472 100.0
278.561981 100.0
278.613251 224.0
278.868805 204.0
278.900909 176.0
279.065918 2788.0
279.098816 836.0
279.339844 92.0
279.383087 64.0
279.48291 136.0
279.52948 76.0
279.566101 32.0
279.719177 48.0
279.802399 40.0
279.843262 128.0
279.955566 96.0
280.016998 252.0
280.073792 3540.0
280.14209 64.0
280.165405 244.0
280.210297 68.0
280.34201 120.0
280.391998 68.0
280.425323 100.0
280.48465 200.0
280.568665 136.0
280.601379 132.0
280.655334 68.0
280.765381 48.0
280.988861 248.0
281.080566 2832.0
281.116058 516.0
281.20578 108.0
281.280121 72.0
281.347748 56.0
281.41272 64.0
281.489532 204.0
281.646484 184.0
281.67572 60.0
281.733337 108.0
281.840271 36.0
281.863647 164.0
281.893738 120.0
281.920471 124.0
282.008179 160.0
282.05542 1156.0
282.084991 1056.0
282.141052 180.0
282.239075 164.0
282.318268 32.0
282.381805 216.0
282.475464 180.0
282.505585 164.0
282.592743 216.0
282.696289 204.0
282.749817 152.0
282.860291 124.0
282.944489 128.0
283.024689 416.0
283.062073 2180.0
283.21521 140.0
283.275513 156.0
283.429626 112.0
283.634064 80.0
283.801666 80.0
283.845276 60.0
283.875458 160.0
283.943115 180.0
283.966003 104.0
284.031036 316.0
284.064606 232.0
284.147125 168.0
284.200806 192.0
284.499512 116.0
284.583435 200.0
284.683044 120.0
284.79837 40.0
284.858459 112.0
284.986481 112.0
285.036896 424.0
285.081329 180.0
285.110809 132.0
285.161224 52.0
285.386475 140.0
285.544495 184.0
285.637329 168.0
285.716064 40.0
285.793427 60.0
286.00882 160.0
286.034637 120.0
286.062408 308.0
286.091888 160.0
286.358978 60.0
286.54425 112.0
286.732941 36.0
286.786896 128.0
286.854309 184.0
286.898132 136.0
286.9487 140.0
287.073883 144.0
287.130768 104.0
287.373657 180.0
287.930634 116.0
288.076782 296.0
288.288727 72.0
288.518555 48.0
288.589569 48.0
288.775543 120.0
288.890564 160.0
288.99881 120.0
289.049347 292.0
289.079498 280.0
289.286469 124.0
289.445618 28.0
289.718445 100.0
290.058777 508.0
290.516602 200.0
290.604828 204.0
290.676056 184.0
291.061279 316.0
291.102997 2044.0
291.263397 184.0
291.310974 96.0
291.389099 120.0
291.548798 148.0
291.73233 168.0
291.966949 32.0
292.079376 448.0
292.104523 528.0
292.172424 168.0
292.385406 120.0
292.647522 48.0
292.733154 52.0
292.830139 140.0
292.988098 192.0
293.048309 524.0
293.082184 304.0
293.202759 132.0
293.311829 164.0
293.349304 108.0
293.502716 32.0
293.632324 108.0
293.678497 164.0
293.704956 108.0
293.741333 112.0
293.840393 120.0
294.052521 1184.0
294.087585 1236.0
294.164581 108.0
294.205566 152.0
294.366028 128.0
294.514038 172.0
294.565918 176.0
294.629028 176.0
294.88739 164.0
294.896606 92.0
294.910645 192.0
294.922424 172.0
294.979156 172.0
295.061249 4816.0
295.097534 12944.0
295.163971 180.0
295.222382 60.0
295.278473 36.0
295.470032 68.0
295.526733 48.0
295.566406 48.0
295.678772 204.0
295.750641 60.0
295.921783 76.0
296.068695 1596.0
296.102356 3584.0
296.17865 60.0
296.213989 144.0
296.264282 40.0
296.353363 64.0
296.387604 80.0
296.432159 220.0
296.586395 108.0
296.66864 52.0
296.836639 144.0
296.949829 60.0
297.039337 464.0
297.112122 4256.0
297.189941 28.0
297.248291 112.0
297.282593 28.0
297.334076 84.0
297.392426 80.0
297.443146 72.0
297.529724 36.0
297.627625 56.0
297.731079 56.0
297.79837 120.0
297.821808 168.0
297.886475 104.0
297.972748 104.0
298.048828 1040.0
298.116364 1256.0
298.178925 140.0
298.234558 84.0
298.340485 128.0
298.407043 100.0
298.4505 36.0
298.641083 96.0
298.808197 56.0
299.058533 1348.0
299.118866 196.0
299.193634 40.0
299.238403 56.0
299.431244 160.0
299.631012 180.0
299.730927 76.0
299.786072 32.0
299.958405 140.0
300.01355 44.0
300.059418 872.0
300.220428 76.0
300.327362 132.0
300.696533 120.0
300.720673 64.0
300.812775 200.0
300.938171 60.0
301.039001 240.0
301.083679 1476.0
301.15918 92.0
301.204071 60.0
301.297333 188.0
301.473572 68.0
301.546875 92.0
301.642914 124.0
301.784912 112.0
301.843445 120.0
301.929901 168.0
301.993286 96.0
302.05246 156.0
302.091156 1104.0
302.234314 48.0
302.390015 40.0
302.722382 124.0
302.97522 48.0
303.064758 440.0
303.094147 420.0
303.298523 212.0
303.418823 136.0
303.585236 140.0
303.675415 104.0
303.828033 64.0
303.89743 160.0
304.029297 136.0
304.075745 1412.0
304.195892 56.0
304.230591 188.0
304.324341 356.0
304.428528 56.0
304.463226 52.0
304.560486 136.0
304.605652 128.0
304.636902 92.0
305.046448 556.0
305.077576 1424.0
305.199921 72.0
305.30426 100.0
305.514618 100.0
305.857452 112.0
306.059937 480.0
306.089935 344.0
306.428558 68.0
306.466888 120.0
306.522614 108.0
306.599304 128.0
307.060089 2476.0
307.265289 52.0
307.362976 120.0
307.482849 160.0
307.743439 136.0
307.771362 60.0
307.828461 164.0
307.925018 104.0
308.00885 124.0
308.067719 2200.0
308.340759 96.0
308.382721 164.0
308.452606 120.0
308.498047 140.0
308.63092 60.0
308.686859 76.0
308.725311 64.0
308.781281 96.0
308.839935 88.0
308.8862 100.0
308.973663 176.0
309.071411 1416.0
309.115479 1620.0
309.183594 116.0
309.232605 48.0
309.264099 56.0
309.351624 40.0
309.393616 44.0
309.475677 120.0
309.572205 132.0
309.694763 48.0
309.817383 48.0
309.869934 136.0
309.940979 184.0
310.044006 644.0
310.082886 428.0
310.117432 340.0
310.211121 120.0
310.236237 92.0
310.278473 48.0
310.346588 92.0
310.39917 156.0
310.437744 164.0
310.490356 156.0
310.560486 88.0
310.588562 56.0
310.690277 232.0
310.721436 260.0
310.768005 340.0
310.865723 172.0
310.911346 176.0
310.937439 276.0
310.950989 120.0
310.965302 192.0
311.057037 25256.0
311.146515 40.0
311.188477 52.0
311.281708 72.0
311.357208 32.0
311.402863 64.0
311.473114 80.0
311.506165 156.0
311.553894 52.0
311.584381 108.0
311.636169 56.0
311.67688 80.0
311.845551 60.0
311.870148 80.0
311.965057 212.0
311.993347 92.0
312.061066 3920.0
312.186554 52.0
312.220917 68.0
312.267456 80.0
312.32724 64.0
312.42926 164.0
312.520721 84.0
312.569427 200.0
312.641052 188.0
312.700195 72.0
312.841919 172.0
312.872681 40.0
313.00647 44.0
313.06192 756.0
313.238922 112.0
313.305847 112.0
313.344604 64.0
313.393921 48.0
313.531342 44.0
313.56308 64.0
313.695404 88.0
313.749878 44.0
313.778076 196.0
313.802765 152.0
313.852142 80.0
313.905029 180.0
313.929718 48.0
313.990204 208.0
314.059814 164.0
314.134277 80.0
314.173065 120.0
314.229523 272.0
314.254211 128.0
314.353027 40.0
314.391846 128.0
314.582428 76.0
314.882568 120.0
315.066284 264.0
315.105225 168.0
315.285309 72.0
315.351257 128.0
315.394867 140.0
315.571625 72.0
315.695374 124.0
315.780273 204.0
315.957123 52.0
316.076874 180.0
316.399506 132.0
316.456146 132.0
316.604858 140.0
316.987457 48.0
317.09024 496.0
317.228455 176.0
317.905914 124.0
318.01236 36.0
318.053375 464.0
318.088593 316.0
318.243103 116.0
318.296387 64.0
318.328339 76.0
318.630249 212.0
318.688812 220.0
318.736816 76.0
318.859863 148.0
318.896759 112.0
319.097412 4084.0
319.191803 96.0
319.230927 112.0
319.287842 32.0
319.572418 184.0
319.600861 44.0
319.778809 144.0
319.903381 156.0
319.946106 120.0
320.102844 956.0
320.348511 68.0
320.519531 216.0
320.605042 112.0
320.729797 140.0
320.758301 204.0
320.950806 72.0
320.975769 88.0
321.040192 380.0
321.073608 1908.0
321.204041 148.0
321.253967 156.0
321.296783 80.0
321.332458 56.0
321.378845 48.0
321.439484 240.0
321.473755 120.0
321.614349 64.0
321.68576 72.0
321.760712 176.0
321.789276 140.0
321.903534 176.0
321.928528 56.0
321.989258 184.0
322.047302 2036.0
322.082306 1084.0
322.119415 236.0
322.164276 112.0
322.225006 104.0
322.253601 72.0
322.346497 32.0
322.394043 144.0
322.537292 88.0
322.617188 136.0
322.71109 60.0
322.833984 152.0
322.904755 160.0
322.950684 204.0
322.996216 60.0
323.057983 8628.0
323.092316 7296.0
323.19516 92.0
323.253113 188.0
323.300476 180.0
323.323944 176.0
323.386963 144.0
323.430115 100.0
323.533936 68.0
323.562592 92.0
323.719025 52.0
323.763092 56.0
323.812378 68.0
323.879425 48.0
323.948639 40.0
323.963226 112.0
324.061951 2048.0
324.094025 1760.0
324.18222 52.0
324.235992 44.0
324.31485 112.0
324.382935 48.0
324.440308 44.0
324.504822 140.0
324.565796 56.0
324.691284 80.0
324.80542 132.0
324.856293 80.0
324.88916 72.0
324.920074 92.0
324.949554 84.0
324.983459 116.0
325.067902 1596.0
325.197174 76.0
325.247406 60.0
325.365875 64.0
325.523865 80.0
325.606445 92.0
325.653137 68.0
325.746521 92.0
325.847107 68.0
325.904602 100.0
326.07608 200.0
326.184937 76.0
326.238831 80.0
326.292755 68.0
326.392151 124.0
326.519318 80.0
326.612823 188.0
326.652374 128.0
326.690277 68.0
326.902588 140.0
327.075867 180.0
327.116425 180.0
327.156189 176.0
327.186371 144.0
327.393829 332.0
327.487457 56.0
327.642365 220.0
327.793671 172.0
327.869354 116.0
327.905396 204.0
328.082001 176.0
328.338013 120.0
328.583313 48.0
328.650787 68.0
328.890045 88.0
329.078308 780.0
329.189056 248.0
329.551849 76.0
329.883392 168.0
330.091583 572.0
330.219666 248.0
330.476501 152.0
330.722565 44.0
330.936157 268.0
330.997711 188.0
331.064392 844.0
331.148529 168.0
331.722321 132.0
331.926147 160.0
332.068451 7464.0
332.148834 92.0
332.386017 56.0
332.44043 68.0
332.497192 112.0
332.552948 52.0
332.886932 72.0
332.934143 112.0
332.974091 260.0
333.024933 128.0
333.075897 4548.0
333.273743 156.0
333.313232 68.0
333.481201 64.0
333.660858 40.0
333.846313 48.0
333.984924 136.0
334.079529 844.0
334.239166 52.0
334.315582 92.0
334.406555 116.0
334.432037 200.0
334.47937 128.0
334.570374 156.0
334.635895 68.0
334.665039 56.0
334.82254 156.0
334.864655 136.0
334.992798 88.0
335.05777 11376.0
335.144745 232.0
335.169403 244.0
335.244202 52.0
335.335297 152.0
335.38269 104.0
335.422791 52.0
335.490326 116.0
335.633026 196.0
335.64859 132.0
335.653564 188.0
335.714447 44.0
335.773041 104.0
335.944244 44.0
336.006256 84.0
336.065033 7276.0
336.105804 240.0
336.214233 52.0
336.279938 56.0
336.507263 96.0
336.575623 172.0
336.655975 188.0
336.720947 140.0
336.794739 44.0
336.827606 44.0
336.900665 52.0
336.973755 104.0
337.017334 120.0
337.068481 2764.0
337.107086 5780.0
337.315613 112.0
337.434265 52.0
337.610809 168.0
337.69754 52.0
337.728516 136.0
337.894165 224.0
337.993866 128.0
338.071686 800.0
338.112732 1144.0
338.151215 132.0
338.330566 96.0
338.511444 212.0
338.660126 112.0
338.734619 96.0
338.773682 80.0
338.887268 108.0
338.945892 28.0
338.986176 132.0
339.066803 168.0
339.115967 116.0
339.269531 92.0
339.294067 100.0
339.323395 168.0
339.371063 36.0
339.426056 72.0
339.451721 108.0
339.514069 72.0
339.551422 132.0
339.627777 44.0
339.899261 96.0
339.932281 76.0
340.049713 44.0
340.113708 120.0
340.405823 116.0
340.564362 68.0
340.707001 124.0
340.790619 128.0
341.102203 64.0
341.500977 104.0
341.894623 60.0
342.126526 144.0
342.424774 168.0
342.5979 80.0
342.84845 88.0
343.046692 240.0
343.161774 100.0
343.608032 144.0
343.759308 104.0
343.973358 160.0
344.719421 80.0
344.870941 100.0
345.074707 824.0
345.118134 148.0
345.310913 132.0
345.525452 60.0
345.636444 76.0
345.765991 40.0
345.85849 104.0
345.969666 140.0
346.006561 196.0
346.082336 300.0
346.232452 68.0
346.265778 72.0
346.573242 248.0
346.732574 132.0
346.779541 168.0
346.804932 104.0
346.836365 128.0
346.880829 216.0
346.932739 156.0
346.980927 140.0
347.092682 11776.0
347.166138 96.0
347.248322 224.0
347.285004 100.0
347.333221 52.0
347.399017 124.0
347.450714 100.0
347.615204 48.0
347.673187 128.0
347.719788 172.0
347.771057 112.0
347.810791 164.0
347.882416 48.0
347.934387 60.0
347.972504 152.0
348.056152 204.0
348.097961 4008.0
348.264893 44.0
348.313171 148.0
348.365173 52.0
348.408661 264.0
348.43576 56.0
348.553406 48.0
348.639343 208.0
348.663208 188.0
348.740479 148.0
348.807373 36.0
348.84082 184.0
348.877991 36.0
348.925537 76.0
348.95932 64.0
349.072449 8660.0
349.171753 52.0
349.197784 84.0
349.227539 112.0
349.275879 120.0
349.355865 64.0
349.443298 32.0
349.502808 76.0
349.595856 104.0
349.787628 76.0
349.879791 196.0
349.906494 104.0
349.974182 128.0
350.079956 11364.0
350.170166 60.0
350.206085 156.0
350.266144 56.0
350.308441 124.0
350.398773 100.0
350.441101 100.0
350.476501 88.0
350.56778 68.0
350.631134 136.0
350.679596 80.0
350.72876 64.0
350.821503 176.0
350.919739 88.0
350.966644 132.0
351.007935 180.0
351.032837 128.0
351.083282 2752.0
351.162323 204.0
351.209045 76.0
351.246338 168.0
351.291107 80.0
351.39856 100.0
351.440338 64.0
351.466461 112.0
351.596924 72.0
351.656097 44.0
351.735168 84.0
351.880737 36.0
351.94223 112.0
351.969055 116.0
352.006226 192.0
352.088226 528.0
352.133179 100.0
352.162018 88.0
352.239258 52.0
352.624115 84.0
352.695129 52.0
352.73996 148.0
352.885773 40.0
352.960541 56.0
353.042816 176.0
353.098663 404.0
353.166229 68.0
353.196167 52.0
353.300903 100.0
353.431854 72.0
353.50708 76.0
353.716278 68.0
353.895966 152.0
353.952148 72.0
354.109772 308.0
354.150604 120.0
354.214294 100.0
354.25174 52.0
354.277985 48.0
354.501495 76.0
354.551514 60.0
354.648956 64.0
354.675171 80.0
354.855133 120.0
355.083282 132.0
355.305176 168.0
355.766754 68.0
355.796814 44.0
356.300049 88.0
356.484161 52.0
356.814911 136.0
357.079437 128.0
357.540863 188.0
357.593567 60.0
358.309021 152.0
358.406982 212.0
358.825348 128.0
358.974457 208.0
359.105896 160.0
359.120178 196.0
359.326935 176.0
359.353363 68.0
359.421265 76.0
359.485413 84.0
359.632599 180.0
359.995026 136.0
360.05545 100.0
360.083771 104.0
360.091766 52.0
360.106903 136.0
360.667542 136.0
360.695923 188.0
360.799835 72.0
361.10025 208.0
361.131683 184.0
361.567688 164.0
361.91217 100.0
362.014404 84.0
362.063629 100.0
362.237854 152.0
362.268158 44.0
362.340149 156.0
362.393188 88.0
362.480316 84.0
362.650879 100.0
362.703918 144.0
362.851776 124.0
362.889679 124.0
363.09137 584.0
363.136169 72.0
363.166504 120.0
363.367554 96.0
363.447235 144.0
363.488983 120.0
363.671143 116.0
363.762238 76.0
363.792603 160.0
363.838531 120.0
363.899933 60.0
363.933075 116.0
363.986237 44.0
364.088837 560.0
364.232269 100.0
364.298981 148.0
364.355652 120.0
364.41925 208.0
364.480042 144.0
364.505005 56.0
364.540222 204.0
364.590118 140.0
364.695465 156.0
364.737183 168.0
364.84491 256.0
364.895386 248.0
364.951263 220.0
365.012756 216.0
365.104309 66256.0
365.198761 120.0
365.22699 148.0
365.264252 240.0
365.311798 96.0
365.341278 124.0
365.394745 60.0
365.438202 164.0
365.471069 344.0
365.506775 104.0
365.536896 88.0
365.565674 56.0
365.610962 100.0
365.650299 108.0
365.675995 104.0
365.707825 108.0
365.747742 164.0
365.845398 68.0
365.88559 72.0
365.93338 136.0
365.986267 208.0
366.038696 172.0
366.106262 11988.0
366.215668 68.0
366.266479 160.0
366.317017 76.0
366.394012 72.0
366.428101 80.0
366.481415 52.0
366.522034 116.0
366.574402 160.0
366.674866 68.0
366.726807 144.0
366.790131 96.0
366.89032 128.0
366.928131 116.0
367.004517 92.0
367.037933 72.0
367.106049 2684.0
367.253845 164.0
367.311127 44.0
367.578522 72.0
367.659973 56.0
367.719543 100.0
367.764404 84.0
367.890808 72.0
367.93454 68.0
367.976532 60.0
368.060516 64.0
368.110382 296.0
368.16745 72.0
368.219696 112.0
368.286011 160.0
368.396606 124.0
368.427185 80.0
368.469208 92.0
368.510773 268.0
368.585693 132.0
368.662811 144.0
368.740509 48.0
368.786377 80.0
368.862823 88.0
368.93161 32.0
369.053955 140.0
369.096039 116.0
369.248993 96.0
369.307404 44.0
369.33844 92.0
369.438965 60.0
369.49762 76.0
369.703125 96.0
369.84201 116.0
370.014282 40.0
370.355103 112.0
370.71524 128.0
370.789001 64.0
370.8992 88.0
371.443695 84.0
372.695221 88.0
372.810486 64.0
373.106476 172.0
373.19104 156.0
373.229492 32.0
373.484772 84.0
373.856506 80.0
373.918091 56.0
374.12207 100.0
375.065857 40.0
375.883453 80.0
377.103882 252.0
377.544525 92.0
377.772736 56.0
378.094391 144.0
378.306763 208.0
378.976746 208.0
379.115692 556.0
379.58847 112.0
380.077911 156.0
380.124573 204.0
380.322418 44.0
380.58252 96.0
380.689301 80.0
381.114624 160.0
381.398315 80.0
381.62381 84.0
382.074951 152.0
382.242249 88.0
383.001404 156.0
384.756195 48.0
384.871674 104.0
385.158417 160.0
385.666382 80.0
386.27243 80.0
386.878998 116.0
387.121735 44.0
387.482086 88.0
388.011169 104.0
388.105286 144.0
388.293488 72.0
389.12146 196.0
389.879547 84.0
392.134644 140.0
393.195557 196.0
398.477905 88.0
398.648743 184.0
399.352417 132.0
399.885559 76.0
400.343628 72.0
401.097626 92.0
401.144257 124.0
401.718475 64.0
402.081573 76.0
402.404877 140.0
403.157928 144.0
404.149475 140.0
404.900085 84.0
405.138733 144.0
406.144775 172.0
409.140259 136.0
409.289246 76.0
409.353668 104.0
410.002228 124.0
412.828125 128.0
413.434937 68.0
413.730408 128.0
416.532501 64.0
417.703186 196.0
417.987976 152.0
418.307983 120.0
420.257538 156.0
420.535004 148.0
420.649292 64.0
420.681976 160.0
421.165771 3656.0
421.637726 52.0
421.670441 92.0
421.899323 56.0
421.968842 56.0
422.083313 48.0
422.166534 1256.0
422.500488 60.0
423.177765 252.0
423.503387 64.0
423.63446 116.0
423.863892 60.0
424.445953 40.0
424.950439 128.0
425.106384 44.0
425.92749 96.0
425.980896 52.0
430.003662 72.0
436.345551 44.0
436.428711 100.0
439.056274 128.0
441.352966 92.0
445.737396 52.0
446.74646 48.0
450.637726 88.0
452.786865 56.0
453.824768 68.0
456.627441 108.0
457.09964 80.0
457.337952 92.0
457.52951 104.0
458.824615 56.0
463.012085 72.0
464.164825 68.0
464.628052 76.0
469.816315 84.0
471.236694 96.0
472.676514 72.0
473.533661 56.0
474.97699 36.0
480.571533 56.0
480.754791 136.0
481.254211 132.0
482.799286 100.0
482.834259 112.0
494.701202 88.0
495.507202 40.0
502.482819 32.0
504.22876 136.0
504.711548 124.0
509.763306 148.0
513.513367 48.0
513.675781 100.0
514.185608 124.0
514.912476 84.0
516.033142 84.0
519.842468 56.0
520.001282 136.0
525.863342 100.0
525.895325 100.0
526.068787 160.0
527.882629 60.0
528.152405 64.0
532.901672 68.0
533.563538 72.0
534.19812 108.0
535.348755 88.0
535.998291 104.0
538.748047 56.0
540.671509 68.0
541.481689 44.0
545.420837 68.0
545.476624 44.0
547.561096 116.0
548.115417 44.0
548.208618 72.0
550.592468 172.0
553.192139 96.0
554.80365 140.0
557.150085 76.0
561.28717 36.0
562.957581 92.0
563.098511 120.0
569.678467 104.0
569.977783 80.0
570.315186 72.0
572.951416 76.0
573.642395 104.0
574.920654 84.0
577.122742 84.0
577.404846 44.0
578.352173 128.0
580.685486 112.0
584.562378 72.0
587.482117 76.0
591.352478 52.0
594.386169 68.0
598.128296 104.0
599.696716 68.0
602.644165 100.0
604.184204 92.0
605.701721 92.0
608.789062 72.0
616.763062 68.0
618.355652 52.0
619.836365 76.0
624.368591 92.0
625.567749 36.0
627.505615 36.0
636.421509 56.0
636.74292 96.0
639.165894 64.0
643.409668 56.0
643.490479 60.0
644.283325 56.0
646.315796 108.0
647.171204 120.0
649.263977 100.0
653.719177 144.0
654.793335 96.0
663.351685 32.0
665.742615 80.0
666.076477 100.0
673.194153 80.0
675.426819 104.0
677.518127 92.0
687.642151 80.0
693.966492 44.0
699.651001 84.0
706.527405 116.0
707.231201 108.0
707.75531 32.0
708.809387 132.0
709.6521 68.0
711.217041 112.0
715.075745 64.0
715.602722 84.0
720.001892 48.0
728.776123 92.0
729.136169 56.0
729.528564 76.0
730.103821 80.0
739.631958 92.0
739.734802 56.0
743.414856 44.0
744.880798 92.0
747.985657 108.0
755.27002 128.0
757.382812 92.0
763.953369 68.0
766.789062 36.0
768.735779 88.0
781.379944 104.0
790.939209 52.0
791.543823 64.0
825.513367 140.0
825.592712 156.0
833.763794 44.0
839.526367 128.0
841.118713 68.0
844.799622 56.0
855.186157 84.0
867.106506 156.0
873.877075 80.0
874.600891 56.0
877.121887 100.0
877.245667 64.0
879.599304 108.0
880.986938 52.0
887.49115 56.0
891.254211 100.0
893.126831 28.0
918.403564 72.0
923.469543 84.0
927.291321 72.0
931.307861 112.0
931.380737 72.0
948.76593 92.0
956.136658 116.0
956.432129 96.0
961.91803 40.0
961.979736 92.0
973.762756 160.0
982.371033 112.0
983.18219 80.0
984.736694 160.0
984.830383 36.0
1003.045532 72.0
1023.419495 44.0
1037.455688 80.0
1045.465088 100.0
1050.032593 32.0
1053.724854 204.0
1059.521484 96.0
1059.988037 52.0
1079.823853 104.0
1082.231934 112.0
1083.161865 100.0
1093.259521 148.0
1108.401123 172.0
1113.901001 84.0
1115.535645 144.0
1117.351196 48.0
1118.389282 156.0
1119.241333 56.0
1122.373047 112.0
1128.589233 120.0
1129.311523 96.0
1133.529053 260.0
1142.821899 72.0
1144.733521 64.0
1168.674927 112.0
1175.761719 104.0
1180.112915 248.0
1189.88269 144.0
1191.524048 96.0
1209.10022 152.0
1212.458984 164.0
1234.68103 92.0
1239.462036 44.0
1246.268066 88.0
1246.921631 252.0
1252.092529 220.0
1256.998901 40.0
1258.459961 80.0
1260.381104 160.0
1260.501221 188.0
1263.951904 96.0
1267.775635 172.0
1283.399536 144.0
1297.247559 48.0
1298.430664 32.0
1302.651001 40.0
1307.259521 188.0
1307.403442 204.0
1313.275024 136.0
1315.663452 128.0
1324.007446 244.0
1326.391113 140.0
1328.929321 160.0
1331.673218 212.0
1332.87915 52.0
1334.5 108.0
1339.601562 208.0
1340.869385 96.0
1341.889893 156.0
1345.362427 44.0
1346.24585 136.0
1356.547363 92.0
1367.999512 200.0
1370.976074 156.0
1372.980225 204.0
1375.990723 144.0
1381.829346 180.0
1386.664673 144.0
1393.357666 180.0
1396.323486 64.0
1403.151611 176.0
1407.68811 44.0
1409.869385 44.0
1417.292358 120.0
1423.352905 84.0
1427.605957 140.0
1430.073608 44.0
1434.178467 200.0
1436.674316 44.0
1439.454712 136.0
1439.746338 196.0
1440.735718 100.0
1441.974976 240.0
1443.887695 184.0
1457.585693 140.0
1458.512817 88.0
1460.801636 116.0
1462.894287 116.0
1463.168335 160.0
1466.306519 36.0
1468.738647 164.0
1468.814941 156.0
1476.536621 96.0
1477.110352 132.0
1482.776123 208.0
1489.865967 116.0
1498.104858 104.0
1498.181885 216.0
