>compound MLS001148257-01!(+)-CIS-DILTIAZEM HYDROCHLORIDE
>formula C22H26N2O4S
>ionization [M+H]+
>parentmass 415.167206
#inchi InChI=1S/C22H26N2O4S/c1-15(25)28-20-21(16-9-11-17(27-4)12-10-16)29-19-8-6-5-7-18(19)24(22(20)26)14-13-23(2)3/h5-12,20-21H,13-14H2,1-4H3/t20-,21+/m1/s1
#inchikey HSUGRBWQSSZJOP
#origInchi InChI=1S/C22H26N2O4S.ClH/c1-15(25)28-20-21(16-9-11-17(27-4)12-10-16)29-19-8-6-5-7-18(19)24(22(20)26)14-13-23(2)3;/h5-12,20-21H,13-14H2,1-4H3;1H/t20-,21+;/m1./s1
#Ion_Source LC-ESI
#Instrument qTof
#Compound_Source NIH Pharmacologically Active Library
#PI Dorrestein
#Data_Collector VP/LMS
#Scan -1
#Precursor_MZ 415.161
#ExactMass 414.161
#Charge 1
#CAS_Number N/A
#Pubmed_ID N/A
#Smiles COc1ccc(cc1)[C@@H]2Sc3ccccc3N(CCN(C)C)C(=O)[C@@H]2OC(=O)C.Cl
#INCHI_AUX N/A
#Library_Class 1
#SpectrumID CCMSLIB00000085377
#IonMode Positive
#UpdateWorkflowName UPDATE-SINGLE-ANNOTATED-GOLD
#LibraryQualityString Gold
#TaskID d252d724072548979f1f6f1ced849daf
##Scan# 1696
#SpectrumFile p3-H11_GH11_01_18316.mzXML
#LibraryName Pharm_Active_Library.mgf
#MQScore -1
#Organism Pharm_Active_Library
#TIC_Query 0
#RT_Query -1
#MZErrorPPM -1
#SharedPeaks 0
#MassDiff 0
#LibMZ -1
#SpecMZ 415.161
#SpecCharge 0
#internalFilename spec-00000.mgf

>collision 10
44.910339 144.0
44.925495 156.0
44.94017 180.0
44.950844 144.0
44.978874 220.0
45.013588 176.0
45.06435 168.0
45.176659 144.0
45.199772 204.0
45.241333 296.0
45.279732 132.0
45.322601 160.0
45.40572 128.0
45.445965 108.0
45.455357 52.0
45.491127 160.0
45.544998 220.0
45.619762 180.0
45.642082 204.0
45.800896 164.0
45.82592 160.0
45.856144 156.0
45.959988 196.0
45.980228 140.0
46.013977 184.0
46.031532 212.0
46.051792 168.0
46.121819 160.0
46.147743 116.0
46.187691 276.0
46.222141 188.0
46.246502 60.0
46.265453 224.0
46.281704 136.0
46.383316 140.0
46.399586 140.0
46.419926 140.0
46.457905 140.0
46.471226 176.0
46.486397 224.0
46.537983 224.0
46.601822 176.0
46.641235 220.0
46.656189 44.0
46.680252 132.0
46.698345 84.0
46.717392 108.0
46.728275 172.0
46.789524 208.0
46.804607 156.0
46.819481 44.0
46.841274 180.0
46.853535 188.0
46.884876 132.0
46.93259 156.0
46.955776 216.0
46.965324 196.0
46.992607 76.0
47.002159 160.0
47.023998 80.0
47.047203 136.0
47.09407 144.0
47.156487 448.0
47.170155 124.0
47.187931 136.0
47.235508 132.0
47.245373 180.0
47.349407 144.0
47.375435 184.0
47.386395 80.0
47.40147 216.0
47.435734 176.0
47.478241 184.0
47.52763 180.0
47.541351 252.0
47.62373 156.0
47.65258 228.0
47.669071 208.0
47.69931 136.0
47.708931 176.0
47.814854 156.0
47.843761 116.0
47.896091 156.0
47.918133 128.0
47.962234 140.0
48.019741 136.0
48.027653 172.0
48.072575 192.0
48.160938 132.0
48.174755 152.0
48.191334 136.0
48.20377 108.0
48.227543 180.0
48.249386 132.0
48.285339 344.0
48.294903 236.0
48.404736 288.0
48.433445 148.0
48.477779 68.0
48.509491 164.0
48.551258 216.0
48.562355 152.0
48.605045 140.0
48.628956 84.0
48.6595 184.0
48.698383 164.0
48.708107 184.0
48.741451 160.0
48.772026 168.0
48.849903 156.0
48.881905 196.0
48.897213 132.0
48.950115 120.0
48.981548 240.0
48.997475 160.0
49.036495 184.0
49.073868 208.0
49.122871 208.0
49.136295 188.0
49.174038 176.0
49.212273 128.0
49.226238 164.0
49.265347 116.0
49.275127 220.0
49.34082 212.0
49.377178 136.0
49.409657 184.0
49.440136 128.0
49.460243 208.0
49.493332 108.0
49.512939 184.0
49.531876 168.0
49.585796 152.0
49.666836 156.0
49.714828 200.0
49.735882 140.0
49.82576 160.0
49.860889 176.0
49.887333 212.0
49.912907 196.0
49.938221 148.0
50.009983 100.0
50.022652 168.0
50.042122 140.0
50.064896 128.0
50.108562 248.0
50.15366 84.0
50.226986 148.0
50.239681 120.0
50.259983 124.0
50.306011 200.0
50.322956 68.0
50.348373 156.0
50.363911 164.0
50.394993 116.0
50.417603 172.0
50.427494 168.0
50.451527 104.0
50.471321 88.0
50.482635 176.0
50.499607 132.0
50.511387 188.0
50.553371 136.0
50.580265 132.0
50.607162 164.0
50.621323 152.0
50.662399 208.0
50.686489 148.0
50.73468 152.0
50.748859 176.0
50.785732 160.0
50.818363 184.0
50.849583 104.0
50.930519 200.0
50.953247 252.0
50.983089 136.0
51.002987 124.0
51.037758 184.0
51.071243 144.0
51.0812 132.0
51.13385 160.0
51.15947 228.0
51.260601 60.0
51.297661 208.0
51.329884 220.0
51.360405 156.0
51.508865 136.0
51.527336 224.0
51.543156 168.0
51.596039 144.0
51.63179 176.0
51.647522 156.0
51.664833 160.0
51.745735 160.0
51.770615 164.0
51.80426 188.0
51.820751 120.0
51.835083 216.0
51.863747 140.0
52.007187 184.0
52.070431 176.0
52.094784 124.0
52.121456 196.0
52.25869 212.0
52.382507 168.0
52.39259 160.0
52.406998 116.0
52.427174 104.0
52.516567 264.0
52.538204 136.0
52.699913 136.0
52.720959 128.0
52.757729 188.0
52.770741 104.0
52.792793 144.0
52.831486 220.0
52.848846 220.0
52.876343 192.0
52.89661 204.0
52.941494 56.0
53.071228 164.0
53.106964 72.0
53.167664 328.0
53.177822 116.0
53.19524 168.0
53.337456 156.0
53.365227 260.0
53.375408 100.0
53.392857 140.0
53.421585 144.0
53.458759 188.0
53.481613 136.0
53.49617 168.0
53.516556 88.0
53.573357 120.0
53.631649 248.0
53.729355 76.0
53.777695 160.0
53.797947 124.0
53.855183 248.0
53.904575 176.0
53.917831 228.0
53.986443 168.0
54.001068 48.0
54.030327 196.0
54.061054 196.0
54.12254 184.0
54.149006 164.0
54.203403 196.0
54.230949 64.0
54.276402 172.0
54.301331 148.0
54.336864 332.0
54.354145 132.0
54.365887 180.0
54.418732 168.0
54.44223 64.0
54.476013 124.0
54.517632 160.0
54.561253 212.0
54.572727 204.0
54.609276 176.0
54.624493 136.0
54.63773 152.0
54.662342 204.0
54.680405 148.0
54.723099 156.0
54.752552 396.0
54.78643 160.0
54.798218 120.0
54.810005 148.0
54.85717 132.0
54.896591 136.0
54.910255 172.0
54.964596 232.0
55.009117 164.0
55.019455 164.0
55.035873 164.0
55.05637 96.0
55.080601 128.0
55.094505 180.0
55.10955 220.0
55.125805 92.0
55.156929 212.0
55.181976 120.0
55.204159 132.0
55.229301 180.0
55.254452 216.0
55.288967 208.0
55.299652 132.0
55.381763 112.0
55.423248 336.0
55.439548 156.0
55.460297 220.0
55.483349 400.0
55.546303 140.0
55.569569 376.0
55.583397 116.0
55.595268 160.0
55.610111 116.0
55.75864 116.0
55.788368 148.0
55.800262 124.0
55.818108 160.0
55.855289 120.0
55.870167 128.0
55.91729 168.0
55.941441 184.0
55.971378 184.0
55.986271 196.0
56.002655 56.0
56.029472 132.0
56.047352 180.0
56.135303 184.0
56.171329 336.0
56.190495 176.0
56.224041 160.0
56.250191 296.0
56.28746 168.0
56.311413 92.0
56.327843 208.0
56.381779 164.0
56.4118 152.0
56.456387 140.0
56.47583 216.0
56.504253 72.0
56.529694 224.0
56.559628 112.0
56.579891 216.0
56.592564 248.0
56.659966 164.0
56.67345 220.0
56.722908 72.0
56.734901 188.0
56.815887 128.0
56.844082 152.0
56.849899 120.0
56.855629 232.0
56.917953 188.0
57.015606 156.0
57.059196 132.0
57.127918 196.0
57.209648 156.0
57.220188 120.0
57.236752 112.0
57.255997 164.0
57.269882 140.0
57.291851 144.0
57.367832 144.0
57.385925 176.0
57.397987 212.0
57.408249 184.0
57.443588 172.0
57.476429 148.0
57.493031 188.0
57.509632 56.0
57.527748 224.0
57.607788 140.0
57.619873 136.0
57.633076 152.0
57.650097 236.0
57.68335 152.0
57.693932 76.0
57.705238 240.0
57.807377 120.0
57.820995 188.0
57.848934 152.0
57.870953 116.0
57.940624 156.0
57.976803 140.0
58.003899 192.0
58.019436 232.0
58.038162 80.0
58.089199 124.0
58.102852 136.0
58.121059 160.0
58.169628 152.0
58.19392 176.0
58.225811 140.0
58.260746 148.0
58.320015 184.0
58.365479 124.0
58.424942 48.0
58.482769 212.0
58.522354 180.0
58.555855 128.0
58.64423 136.0
58.672337 144.0
58.744873 100.0
58.75555 204.0
58.779964 156.0
58.875916 160.0
58.90757 188.0
58.92033 164.0
58.940308 380.0
58.990746 172.0
59.018997 144.0
59.05191 52.0
59.065678 160.0
59.082504 156.0
59.111576 204.0
59.134533 180.0
59.168362 372.0
59.188118 72.0
59.223713 116.0
59.303864 196.0
59.398193 184.0
59.453327 176.0
59.500778 180.0
59.51627 192.0
59.546982 120.0
59.579243 140.0
59.593071 172.0
59.604427 184.0
59.620731 116.0
59.650646 176.0
59.670948 96.0
59.686836 84.0
59.703751 156.0
59.743744 240.0
59.845325 48.0
59.863342 120.0
59.910015 176.0
59.923882 128.0
59.963947 200.0
59.996319 72.0
60.031784 120.0
60.068802 156.0
60.113869 192.0
60.138191 120.0
60.153679 184.0
60.173748 192.0
60.203087 156.0
60.236298 220.0
60.258698 152.0
60.311245 144.0
60.329792 48.0
60.343708 96.0
60.357624 192.0
60.383915 44.0
60.451988 180.0
60.498425 68.0
60.526295 164.0
60.548622 336.0
60.563465 128.0
60.580505 136.0
60.602196 176.0
60.654888 156.0
60.706055 152.0
60.733746 272.0
60.791382 76.0
60.836395 152.0
60.889191 188.0
60.931129 124.0
60.949776 44.0
60.971535 48.0
61.008282 156.0
61.026035 136.0
61.068844 116.0
61.099045 116.0
61.148842 132.0
61.178417 156.0
61.197102 192.0
61.332642 156.0
61.354465 176.0
61.388088 128.0
61.410606 164.0
61.441166 52.0
61.485497 220.0
61.512032 136.0
61.540134 108.0
61.594795 120.0
61.666676 132.0
61.677616 124.0
61.699505 196.0
61.713573 148.0
61.733906 168.0
61.74485 188.0
61.813358 172.0
61.85125 148.0
61.978111 164.0
61.990646 132.0
62.095688 288.0
62.122356 124.0
62.135811 132.0
62.18911 296.0
62.202389 156.0
62.217293 236.0
62.22908 92.0
62.309181 196.0
62.397198 156.0
62.481213 140.0
62.493141 116.0
62.551376 64.0
62.562393 148.0
62.59861 140.0
62.617508 116.0
62.674221 136.0
62.70155 176.0
62.719929 168.0
62.740421 184.0
62.789307 156.0
62.809811 180.0
62.828743 148.0
62.913967 176.0
62.947124 164.0
63.026108 164.0
63.052971 212.0
63.195152 176.0
63.25544 116.0
63.282959 136.0
63.347984 148.0
63.363132 180.0
63.434448 184.0
63.455059 92.0
63.507393 192.0
63.586727 120.0
63.65023 132.0
63.665939 188.0
63.699467 136.0
63.721706 124.0
63.804356 140.0
63.831387 172.0
63.88932 132.0
63.920471 152.0
63.936382 136.0
63.971401 124.0
64.007759 144.0
64.038284 136.0
64.079002 236.0
64.091919 264.0
64.119545 200.0
64.159393 104.0
64.243919 160.0
64.256683 120.0
64.301361 156.0
64.324547 236.0
64.344467 180.0
64.420738 180.0
64.449883 188.0
64.475456 160.0
64.515419 168.0
64.528206 160.0
64.542595 188.0
64.572983 188.0
64.600174 196.0
64.611374 220.0
64.657784 108.0
64.674446 232.0
64.723419 172.0
64.749039 176.0
64.767273 136.0
64.81472 48.0
64.928543 236.0
65.032837 168.0
65.055336 132.0
65.113121 136.0
65.183807 120.0
65.325294 340.0
65.341385 32.0
65.357475 152.0
65.371857 188.0
65.381714 188.0
65.407364 164.0
65.431152 160.0
65.476601 124.0
65.515266 192.0
65.562149 168.0
65.575691 160.0
65.580368 80.0
65.587112 192.0
65.607124 116.0
65.660339 200.0
65.688622 136.0
65.699051 176.0
65.718414 184.0
65.760376 40.0
65.792664 48.0
65.847565 120.0
65.875023 116.0
65.904106 140.0
65.918648 312.0
65.929962 152.0
65.985748 312.0
66.004143 180.0
66.040283 120.0
66.059319 56.0
66.140228 180.0
66.167747 248.0
66.188568 120.0
66.226051 128.0
66.240631 180.0
66.325134 212.0
66.349213 112.0
66.385193 208.0
66.448143 96.0
66.527672 180.0
66.555275 176.0
66.610497 180.0
66.644608 136.0
66.675385 184.0
66.698242 228.0
66.776291 220.0
66.823471 188.0
66.880104 220.0
66.882576 176.0
66.88916 276.0
66.901062 184.0
66.974869 116.0
67.046356 156.0
67.088943 176.0
67.111771 104.0
67.137863 128.0
67.173988 320.0
67.201485 172.0
67.225395 220.0
67.256966 348.0
67.272324 168.0
67.302681 176.0
67.372917 204.0
67.409721 236.0
67.416084 124.0
67.4207 164.0
67.454628 168.0
67.485687 128.0
67.548759 196.0
67.577286 200.0
67.729538 84.0
67.900009 220.0
67.919693 160.0
67.93367 168.0
67.959061 156.0
67.996811 164.0
68.009941 144.0
68.055908 100.0
68.092728 152.0
68.164322 140.0
68.193909 216.0
68.216919 132.0
68.285095 140.0
68.304077 172.0
68.322174 168.0
68.337593 160.0
68.341919 60.0
68.347878 160.0
68.361664 168.0
68.373184 80.0
68.399521 96.0
68.45385 84.0
68.495026 136.0
68.541161 176.0
68.557678 172.0
68.593903 152.0
68.635971 140.0
68.83149 132.0
68.846352 180.0
68.917381 132.0
69.000061 208.0
69.016937 124.0
69.028137 168.0
69.059563 160.0
69.086029 380.0
69.10244 196.0
69.124084 136.0
69.175392 136.0
69.201881 212.0
69.21347 164.0
69.256531 136.0
69.274757 112.0
69.302925 208.0
69.328728 160.0
69.349327 168.0
69.365898 184.0
69.400719 216.0
69.412415 148.0
69.458763 324.0
69.500244 112.0
69.511856 172.0
69.531685 156.0
69.54837 220.0
69.569954 68.0
69.594856 60.0
69.606483 204.0
69.651321 192.0
69.681229 160.0
69.699501 208.0
69.859123 120.0
69.882416 60.0
69.920685 180.0
69.950645 152.0
69.998932 156.0
70.020584 96.0
70.040573 128.0
70.055565 164.0
70.08889 144.0
70.103882 168.0
70.133888 44.0
70.152222 164.0
70.258957 212.0
70.309013 164.0
70.359093 144.0
70.38327 192.0
70.402512 180.0
70.442596 408.0
70.46933 172.0
70.568382 368.0
70.614418 172.0
70.688385 136.0
70.720177 156.0
70.775429 220.0
70.829018 224.0
70.854149 196.0
70.867554 160.0
70.886848 164.0
70.912804 168.0
70.927887 196.0
70.948006 188.0
70.968124 192.0
71.015678 56.0
71.033531 180.0
71.057022 48.0
71.106247 132.0
71.159515 156.0
71.189629 352.0
71.208107 172.0
71.236664 52.0
71.256821 68.0
71.290428 212.0
71.306351 156.0
71.326752 208.0
71.342537 72.0
71.377846 100.0
71.472046 204.0
71.502182 44.0
71.532639 152.0
71.589851 196.0
71.605042 80.0
71.64547 316.0
71.66906 180.0
71.685905 180.0
71.712875 120.0
71.731415 384.0
71.775253 124.0
71.853287 124.0
71.911011 136.0
71.949043 192.0
71.964241 216.0
71.999702 236.0
72.041931 172.0
72.070656 156.0
72.104454 176.0
72.126755 168.0
72.172813 228.0
72.244583 124.0
72.271873 116.0
72.306572 176.0
72.324341 108.0
72.341263 196.0
72.434402 188.0
72.505569 48.0
72.536186 212.0
72.576729 172.0
72.653091 168.0
72.691971 184.0
72.705696 176.0
72.719276 92.0
72.809265 380.0
72.840858 160.0
72.870415 116.0
72.989403 168.0
73.004707 72.0
73.031921 36.0
73.093163 200.0
73.110184 204.0
73.138069 232.0
73.156143 144.0
73.222549 116.0
73.253212 168.0
73.268547 196.0
73.34523 128.0
73.379326 320.0
73.401535 172.0
73.436447 168.0
73.497025 108.0
73.517502 144.0
73.53286 260.0
73.553345 212.0
73.635765 132.0
73.671173 156.0
73.716682 208.0
73.742943 100.0
73.783974 148.0
73.800156 196.0
73.825012 144.0
73.840401 132.0
73.90712 124.0
73.924232 160.0
73.97216 132.0
74.021812 100.0
74.040649 68.0
74.068054 124.0
74.160583 192.0
74.225731 148.0
74.240501 300.0
74.280617 52.0
74.292625 156.0
74.349411 176.0
74.371567 128.0
74.402466 176.0
74.429939 168.0
74.453537 248.0
74.483177 180.0
74.507233 168.0
74.544319 204.0
74.60347 196.0
74.630981 188.0
74.667091 188.0
74.71698 72.0
74.751396 180.0
74.840904 160.0
74.858002 168.0
74.885681 116.0
74.940811 164.0
74.992508 212.0
75.006302 160.0
75.030434 200.0
75.060638 132.0
75.065224 160.0
75.079651 176.0
75.092514 208.0
75.139282 148.0
75.165726 92.0
75.247559 232.0
75.368736 184.0
75.436142 152.0
75.481094 180.0
75.520874 132.0
75.588348 156.0
75.60392 132.0
75.65239 196.0
75.674538 156.0
75.719925 168.0
75.836006 144.0
75.981674 192.0
76.066711 176.0
76.117065 96.0
76.165695 144.0
76.21608 172.0
76.233459 60.0
76.252571 144.0
76.299507 132.0
76.342979 128.0
76.41256 164.0
76.428558 408.0
76.463028 184.0
76.476952 32.0
76.530922 140.0
76.603012 224.0
76.658081 140.0
76.778374 160.0
76.792175 140.0
76.905273 208.0
76.965103 232.0
77.014 172.0
77.048943 132.0
77.066414 148.0
77.085632 200.0
77.106606 84.0
77.136322 228.0
77.153801 336.0
77.220253 124.0
77.27623 172.0
77.307732 84.0
77.346237 88.0
77.370743 64.0
77.398758 180.0
77.448074 176.0
77.463562 160.0
77.496849 204.0
77.522079 364.0
77.56871 200.0
77.616043 144.0
77.648666 60.0
77.686203 172.0
77.707253 56.0
77.760185 172.0
77.780968 152.0
77.837151 160.0
77.896866 108.0
77.916191 112.0
77.940788 124.0
77.982964 192.0
78.018127 144.0
78.056808 180.0
78.070877 128.0
78.104515 224.0
78.11837 168.0
78.14476 336.0
78.15966 148.0
78.188751 184.0
78.223953 136.0
78.274529 232.0
78.324326 188.0
78.347229 244.0
78.403618 164.0
78.424767 208.0
78.447685 192.0
78.479416 136.0
78.54467 168.0
78.588783 152.0
78.60466 128.0
78.632896 88.0
78.655846 216.0
78.721169 68.0
78.810471 232.0
78.855408 216.0
78.923653 128.0
78.979034 208.0
78.994156 164.0
79.049469 124.0
79.081017 180.0
79.18631 40.0
79.223511 208.0
79.253845 172.0
79.280212 188.0
79.359978 224.0
79.397964 188.0
79.411407 152.0
79.427376 164.0
79.439789 172.0
79.508995 292.0
79.555473 192.0
79.700783 168.0
79.814552 108.0
79.891029 140.0
79.912376 272.0
79.939072 76.0
79.981789 128.0
79.994247 180.0
80.141251 160.0
80.171295 252.0
80.195534 128.0
80.281364 184.0
80.368484 180.0
80.371895 176.0
80.427422 44.0
80.458618 160.0
80.486404 200.0
80.523766 196.0
80.545822 52.0
80.557777 168.0
80.610153 180.0
80.690544 196.0
80.715065 96.0
80.734734 152.0
80.747253 144.0
80.784821 88.0
80.808075 160.0
80.852814 180.0
80.904724 140.0
80.917259 156.0
80.942894 176.0
81.013969 224.0
81.035469 156.0
81.078476 120.0
81.114326 152.0
81.126877 128.0
81.211151 64.0
81.256004 164.0
81.334969 188.0
81.46067 168.0
81.530746 192.0
81.563095 188.0
81.590546 148.0
81.685379 124.0
81.701569 132.0
81.748009 168.0
81.81855 60.0
81.849411 172.0
81.868973 164.0
81.886978 116.0
81.923164 184.0
81.937424 136.0
81.971657 132.0
82.061783 200.0
82.07621 180.0
82.099655 216.0
82.126709 132.0
82.14592 160.0
82.16098 104.0
82.220528 180.0
82.251213 224.0
82.267464 188.0
82.307182 148.0
82.339691 132.0
82.405579 76.0
82.422157 144.0
82.455902 124.0
82.49147 136.0
82.563797 112.0
82.590927 152.0
82.617714 124.0
82.708511 188.0
82.768295 344.0
82.7864 68.0
82.8498 68.0
82.870789 148.0
82.887848 176.0
82.907784 160.0
82.990387 204.0
83.025627 68.0
83.058273 136.0
83.084015 192.0
83.092468 160.0
83.112701 48.0
83.125404 136.0
83.165329 116.0
83.326958 208.0
83.339676 168.0
83.473129 116.0
83.528755 256.0
83.557861 124.0
83.603355 140.0
83.625198 152.0
83.672523 144.0
83.716225 184.0
83.736259 120.0
83.758118 148.0
83.784279 324.0
83.805489 176.0
83.818245 52.0
83.851044 124.0
83.902084 140.0
83.916672 180.0
84.032745 132.0
84.075378 92.0
84.08815 172.0
84.149803 212.0
84.179436 116.0
84.210487 156.0
84.263458 140.0
84.283562 132.0
84.365807 120.0
84.444435 124.0
84.545067 172.0
84.572517 180.0
84.623779 168.0
84.671394 128.0
84.693375 80.0
84.713737 168.0
84.795982 160.0
84.830811 184.0
84.847305 84.0
84.918823 176.0
84.951843 192.0
84.964684 116.0
85.021568 112.0
85.044968 160.0
85.060234 188.0
85.124374 44.0
85.140907 48.0
85.168457 128.0
85.181313 120.0
85.247459 160.0
85.276863 152.0
85.319145 220.0
85.384575 176.0
85.411095 72.0
85.451569 160.0
85.464447 88.0
85.504936 196.0
85.519043 216.0
85.661446 64.0
85.693382 264.0
85.733841 180.0
85.764641 40.0
85.79258 128.0
85.842072 116.0
85.871582 212.0
85.899254 204.0
85.930527 172.0
85.954605 132.0
86.002586 132.0
86.080132 296.0
86.096748 272.0
86.125816 212.0
86.146622 136.0
86.198357 228.0
86.241615 168.0
86.255653 156.0
86.300026 140.0
86.352425 96.0
86.433205 172.0
86.462814 156.0
86.489914 200.0
86.621162 156.0
86.749069 136.0
86.842636 124.0
86.903862 200.0
86.942261 184.0
86.970673 116.0
87.020798 288.0
87.041222 104.0
87.054222 196.0
87.094185 116.0
87.122948 140.0
87.223946 252.0
87.250923 172.0
87.28093 160.0
87.295807 160.0
87.349747 180.0
87.437202 148.0
87.468842 124.0
87.490852 180.0
87.506073 192.0
87.565178 212.0
87.58429 208.0
87.597336 136.0
87.627144 152.0
87.640182 196.0
87.65509 100.0
87.714729 212.0
87.77253 152.0
87.819153 108.0
87.848999 204.0
87.878853 76.0
87.891914 64.0
87.906845 116.0
87.933968 172.0
87.992706 252.0
88.018631 140.0
88.04557 156.0
88.106636 60.0
88.127693 176.0
88.151482 44.0
88.218765 132.0
88.272987 176.0
88.287949 132.0
88.325356 172.0
88.342003 196.0
88.368385 144.0
88.396454 168.0
88.4133 204.0
88.443245 80.0
88.461967 44.0
88.476944 156.0
88.50219 232.0
88.532593 200.0
88.600548 32.0
88.709251 144.0
88.744873 76.0
88.771126 168.0
88.812386 140.0
88.827393 72.0
88.84803 124.0
88.88501 180.0
88.902443 152.0
89.039497 172.0
89.06955 164.0
89.088333 160.0
89.171753 132.0
89.28006 132.0
89.296989 132.0
89.31015 204.0
89.387291 104.0
89.402344 84.0
89.471992 140.0
89.492699 396.0
89.542732 176.0
89.620064 200.0
89.659569 168.0
89.6838 304.0
89.699753 196.0
89.727409 184.0
89.77536 212.0
89.807426 104.0
89.855339 120.0
89.87912 144.0
89.907425 188.0
90.011253 172.0
90.057831 196.0
90.154388 240.0
90.190498 156.0
90.213425 160.0
90.268257 156.0
90.45327 168.0
90.548347 144.0
90.569183 140.0
90.63739 180.0
90.656334 232.0
90.773872 76.0
90.790939 160.0
90.810989 180.0
90.872513 344.0
90.910461 144.0
91.010773 180.0
91.053719 140.0
91.077843 176.0
91.153542 136.0
91.231468 164.0
91.25238 240.0
91.278999 152.0
91.320839 172.0
91.361275 172.0
91.376007 156.0
91.391228 164.0
91.450226 264.0
91.524475 204.0
91.537804 212.0
91.551132 232.0
91.566368 148.0
91.627327 140.0
91.656685 324.0
91.676872 164.0
91.690216 80.0
91.75312 176.0
91.808418 128.0
91.952347 336.0
91.972504 204.0
91.991592 140.0
92.083244 164.0
92.106171 164.0
92.148201 160.0
92.163483 176.0
92.180679 236.0
92.207436 252.0
92.2342 176.0
92.26297 156.0
92.310677 140.0
92.335533 180.0
92.403778 184.0
92.479034 216.0
92.511581 144.0
92.559441 280.0
92.590088 376.0
92.616142 120.0
92.63797 172.0
92.651382 132.0
92.68779 228.0
92.798965 160.0
92.821976 124.0
92.85038 172.0
92.853592 140.0
92.861633 100.0
92.895302 188.0
92.926483 264.0
92.981079 124.0
93.025352 156.0
93.038788 184.0
93.054146 136.0
93.067589 176.0
93.086792 32.0
93.104073 116.0
93.144409 204.0
93.188599 100.0
93.428932 188.0
93.505898 152.0
93.548248 196.0
93.573273 200.0
93.617943 164.0
93.669571 172.0
93.691269 212.0
93.750496 96.0
93.768372 144.0
93.794823 140.0
93.810242 112.0
93.823738 180.0
93.841095 140.0
93.887421 164.0
93.925949 96.0
93.991959 244.0
94.024353 340.0
94.041664 192.0
94.06823 180.0
94.09771 52.0
94.13633 128.0
94.254166 128.0
94.312141 80.0
94.341141 168.0
94.360474 176.0
94.463737 184.0
94.490639 252.0
94.511345 168.0
94.524887 188.0
94.538437 96.0
94.577141 256.0
94.592628 156.0
94.630539 172.0
94.654587 208.0
94.70211 312.0
94.722374 184.0
94.7715 268.0
94.798035 140.0
94.859962 100.0
94.888412 160.0
94.914246 160.0
94.939461 52.0
94.958855 176.0
94.986008 228.0
95.017052 248.0
95.048141 152.0
95.086906 180.0
95.104378 140.0
95.180092 128.0
95.222816 152.0
95.244186 132.0
95.323837 164.0
95.404388 172.0
95.416565 256.0
95.492981 176.0
95.541611 92.0
95.56691 64.0
95.603882 188.0
95.623344 132.0
95.65728 156.0
95.800858 64.0
95.861984 156.0
95.876389 144.0
95.896027 156.0
95.911621 152.0
95.927216 208.0
95.970108 184.0
96.022758 136.0
96.038361 232.0
96.071114 212.0
96.09494 92.0
96.130058 156.0
96.165192 116.0
96.180359 208.0
96.204231 160.0
96.307732 392.0
96.440598 180.0
96.514771 268.0
96.610054 220.0
96.663559 168.0
96.685081 160.0
96.698784 136.0
96.843674 252.0
96.86718 148.0
96.90509 184.0
97.000435 56.0
97.03376 168.0
97.061211 208.0
97.108101 172.0
97.204323 176.0
97.249214 208.0
97.273109 164.0
97.322746 212.0
97.341827 164.0
97.373329 100.0
97.400749 240.0
97.418053 188.0
97.45945 164.0
97.495064 108.0
97.523781 144.0
97.616943 124.0
97.652344 180.0
97.698479 168.0
97.794014 152.0
97.82354 228.0
97.860947 172.0
97.884575 176.0
97.916084 132.0
97.963364 152.0
98.066292 204.0
98.099342 200.0
98.191254 128.0
98.219627 116.0
98.265938 144.0
98.358704 180.0
98.483963 184.0
98.503296 160.0
98.523643 160.0
98.541428 48.0
98.582924 52.0
98.614937 120.0
98.644684 132.0
98.676117 188.0
98.758881 144.0
98.885513 132.0
98.942924 156.0
99.053825 188.0
99.093636 208.0
99.119209 148.0
99.141006 220.0
99.158844 64.0
99.172714 200.0
99.212364 52.0
99.281761 172.0
99.331352 112.0
99.345238 148.0
99.371025 144.0
99.416672 132.0
99.438499 48.0
99.456367 204.0
99.524017 204.0
99.586716 160.0
99.615662 272.0
99.680794 208.0
99.706627 44.0
99.758308 88.0
99.778191 136.0
99.811989 180.0
99.831879 116.0
99.879608 72.0
99.94976 200.0
99.987053 92.0
100.004967 156.0
100.026863 100.0
100.050751 228.0
100.078682 144.0
100.140739 168.0
100.174225 144.0
100.201141 180.0
100.280746 232.0
100.320526 320.0
100.345619 180.0
100.374138 120.0
100.417412 148.0
100.450127 160.0
100.483246 196.0
100.505188 208.0
100.573044 176.0
100.623581 216.0
100.680862 196.0
100.724808 120.0
100.744781 216.0
100.81871 96.0
100.864914 168.0
100.898666 236.0
100.92466 132.0
100.950661 196.0
100.986656 112.0
101.036461 192.0
101.094696 112.0
101.111374 156.0
101.132088 228.0
101.224449 152.0
101.24794 396.0
101.261711 200.0
101.309677 240.0
101.479301 148.0
101.511314 116.0
101.617699 160.0
101.647797 200.0
101.780281 132.0
101.864632 140.0
101.887566 180.0
101.912582 240.0
101.936966 136.0
102.015358 120.0
102.04953 144.0
102.095787 116.0
102.171944 88.0
102.188316 164.0
102.278877 116.0
102.356827 184.0
102.393646 120.0
102.431915 180.0
102.466164 160.0
102.507889 176.0
102.54274 160.0
102.625397 44.0
102.663712 120.0
102.691948 116.0
102.71212 164.0
102.728256 192.0
102.851349 156.0
102.871536 156.0
102.929718 176.0
102.953896 132.0
103.025017 208.0
103.051285 144.0
103.095741 176.0
103.170532 104.0
103.217033 40.0
103.243324 228.0
103.285797 100.0
103.332329 244.0
103.366455 180.0
103.421371 184.0
103.512474 128.0
103.566719 92.0
103.607956 144.0
103.641922 204.0
103.719131 196.0
103.742546 284.0
103.806313 72.0
103.859047 156.0
103.958466 124.0
103.986877 164.0
104.027473 184.0
104.045746 132.0
104.068077 48.0
104.084328 128.0
104.106659 208.0
104.173691 168.0
104.228325 224.0
104.28907 164.0
104.332207 152.0
104.372871 160.0
104.419083 144.0
104.44577 128.0
104.584976 156.0
104.735435 192.0
104.808479 160.0
104.877769 112.0
104.896118 40.0
104.933189 248.0
104.993065 140.0
105.071907 344.0
105.144966 116.0
105.19191 128.0
105.231422 204.0
105.281754 172.0
105.310349 216.0
105.334862 252.0
105.387978 140.0
105.431519 208.0
105.455414 192.0
105.469727 108.0
105.537193 220.0
105.561729 176.0
105.582939 172.0
105.620323 136.0
105.680374 240.0
105.74176 228.0
105.792938 112.0
105.873817 140.0
105.99366 156.0
106.028496 152.0
106.06472 412.0
106.157654 76.0
106.188423 148.0
106.208931 168.0
106.280739 176.0
106.328789 192.0
106.37925 236.0
106.459328 236.0
106.491035 88.0
106.532501 212.0
106.55793 196.0
106.588104 192.0
106.630478 144.0
106.65657 156.0
106.695633 148.0
106.740814 164.0
106.78611 152.0
106.804832 156.0
106.845764 132.0
106.876457 144.0
106.923965 160.0
106.967186 172.0
106.997986 196.0
107.050888 196.0
107.082497 332.0
107.098976 176.0
107.160782 156.0
107.227608 132.0
107.299805 184.0
107.331863 248.0
107.441177 40.0
107.486572 112.0
107.57119 192.0
107.690056 248.0
107.735474 124.0
107.820755 112.0
107.841652 176.0
107.878998 140.0
108.002426 304.0
108.073418 124.0
108.089211 252.0
108.106522 56.0
108.129288 164.0
108.224518 120.0
108.249969 192.0
108.315643 128.0
108.330147 232.0
108.348434 232.0
108.376495 172.0
108.446182 160.0
108.481422 188.0
108.539658 136.0
108.601692 168.0
108.628662 148.0
108.678452 168.0
108.699997 168.0
108.796761 164.0
108.823753 220.0
108.852821 136.0
108.873589 104.0
108.896431 144.0
108.925514 60.0
108.942131 124.0
108.968689 148.0
109.010887 41476.0
109.065048 1624.0
109.106316 48.0
109.124367 88.0
109.156219 140.0
109.201416 180.0
109.237335 84.0
109.261482 184.0
109.285187 216.0
109.308075 136.0
109.350357 44.0
109.377914 108.0
109.39341 52.0
109.437317 176.0
109.476692 152.0
109.5121 192.0
109.562485 256.0
109.593613 32.0
109.630859 84.0
109.680214 160.0
109.734009 124.0
109.762192 44.0
109.797806 188.0
109.828934 112.0
109.883171 208.0
109.908211 124.0
109.972908 176.0
110.014374 3324.0
110.067825 304.0
110.127419 116.0
110.190086 176.0
110.221428 96.0
110.249565 212.0
110.342659 160.0
110.362526 136.0
110.397026 36.0
110.447227 92.0
110.461868 160.0
110.486969 140.0
110.583229 84.0
110.625008 92.0
110.638329 224.0
110.671158 140.0
110.687912 88.0
110.704659 80.0
110.727699 116.0
110.811493 192.0
110.868073 156.0
110.898613 84.0
110.930954 104.0
110.958206 168.0
111.006355 1144.0
111.082649 200.0
111.128693 180.0
111.178459 432.0
111.243523 128.0
111.266617 184.0
111.304413 212.0
111.377922 88.0
111.451454 180.0
111.472466 120.0
111.499298 224.0
111.517769 212.0
111.530167 328.0
111.617516 192.0
111.649055 160.0
111.68692 156.0
111.710052 156.0
111.724785 100.0
111.799065 212.0
111.840523 32.0
111.867889 76.0
111.882622 64.0
111.912102 92.0
111.942047 196.0
112.011734 156.0
112.091385 180.0
112.133301 48.0
112.148048 216.0
112.241905 120.0
112.308304 68.0
112.329399 148.0
112.348381 284.0
112.75592 144.0
112.954681 132.0
112.979538 176.0
112.98558 132.0
113.011803 136.0
113.035736 168.0
113.096451 176.0
113.117622 52.0
113.149376 252.0
113.183258 156.0
113.2146 200.0
113.392128 128.0
113.409943 192.0
113.482025 100.0
113.507469 184.0
113.55127 172.0
113.567543 260.0
113.641098 144.0
113.654617 108.0
113.757828 96.0
113.830673 220.0
113.99572 164.0
114.055229 28.0
114.093491 200.0
114.125381 256.0
114.176422 96.0
114.205765 236.0
114.257256 368.0
114.291298 84.0
114.350883 76.0
114.38707 160.0
114.436035 60.0
114.469261 176.0
114.51696 200.0
114.534004 184.0
114.553169 204.0
114.576607 160.0
114.644791 188.0
114.681023 148.0
114.738586 120.0
114.768433 112.0
114.811821 184.0
114.930542 156.0
115.008743 224.0
115.050072 188.0
115.139114 148.0
115.154701 192.0
115.250839 72.0
115.357018 188.0
115.379082 224.0
115.435387 156.0
115.505249 172.0
115.563019 140.0
115.584412 208.0
115.612236 64.0
115.637917 124.0
115.656029 148.0
115.673462 172.0
115.706421 256.0
115.732109 168.0
115.762093 120.0
115.804924 72.0
115.819916 200.0
115.96315 132.0
115.995125 204.0
116.049042 468.0
116.145737 144.0
116.285202 120.0
116.308815 172.0
116.35302 292.0
116.377518 124.0
116.416168 160.0
116.456978 136.0
116.536461 52.0
116.590187 68.0
116.605232 60.0
116.622421 192.0
116.734222 160.0
116.751427 160.0
116.768631 168.0
116.954071 216.0
116.985962 212.0
117.007492 188.0
117.031944 112.0
117.057564 1896.0
117.093628 172.0
117.330666 112.0
117.367317 200.0
117.421234 100.0
117.505363 128.0
117.53125 104.0
117.623444 140.0
117.697464 112.0
117.755768 176.0
117.814095 128.0
117.88324 136.0
117.917816 44.0
117.9944 168.0
118.063545 2224.0
118.092949 124.0
118.112419 152.0
118.16539 148.0
118.196487 196.0
118.257393 136.0
118.272545 112.0
118.330994 192.0
118.424118 96.0
118.483398 220.0
118.536636 188.0
118.556274 216.0
118.614799 168.0
118.658157 148.0
118.747063 200.0
118.777435 104.0
118.803467 136.0
118.843941 92.0
118.860573 188.0
118.985062 184.0
118.998795 244.0
119.076576 440.0
119.116074 104.0
119.146484 220.0
119.200806 140.0
119.248619 212.0
119.285568 212.0
119.302963 232.0
119.32589 148.0
119.46389 164.0
119.524811 132.0
119.616226 128.0
119.655411 172.0
119.672829 120.0
119.694603 76.0
119.716377 176.0
119.826706 136.0
119.847084 140.0
119.893143 148.0
119.910278 272.0
119.980408 96.0
120.022606 168.0
120.041695 196.0
120.082527 124.0
120.298553 128.0
120.337845 188.0
120.367607 280.0
120.429192 116.0
120.471077 156.0
120.516953 56.0
120.538803 176.0
120.565033 124.0
120.58033 244.0
120.595627 180.0
120.621742 152.0
120.645905 84.0
120.672058 108.0
120.768364 76.0
120.81868 176.0
120.858063 112.0
120.914963 124.0
121.009407 164.0
121.064636 4504.0
121.105446 168.0
121.147064 92.0
121.188698 128.0
121.25 156.0
121.25811 148.0
121.295189 176.0
121.331161 140.0
121.365372 196.0
121.388168 40.0
121.427643 196.0
121.452499 120.0
121.474083 116.0
121.544434 152.0
121.576836 84.0
121.598778 204.0
121.616341 204.0
121.655853 132.0
121.742203 196.0
121.864731 188.0
121.893066 176.0
121.954605 276.0
121.969986 220.0
121.996368 176.0
122.067932 476.0
122.115112 80.0
122.205307 152.0
122.261673 160.0
122.293335 240.0
122.320999 176.0
122.329254 100.0
122.352768 108.0
122.42543 172.0
122.456268 148.0
122.482475 204.0
122.520149 196.0
122.546585 164.0
122.566422 124.0
122.600388 184.0
122.663391 40.0
122.698669 164.0
122.755997 48.0
122.80452 176.0
122.855255 136.0
122.899376 140.0
122.943512 104.0
122.967789 160.0
123.024155 192.0
123.069344 220.0
123.098045 168.0
123.166512 144.0
123.239418 168.0
123.37645 156.0
123.453842 188.0
123.517982 152.0
123.54026 168.0
123.726868 164.0
123.834511 200.0
123.929878 132.0
124.024742 288.0
124.042801 144.0
124.118179 160.0
124.242393 96.0
124.3106 124.0
124.391075 148.0
124.431038 100.0
124.502098 148.0
124.539856 176.0
124.628716 196.0
124.690941 128.0
124.710945 152.0
124.775414 256.0
124.859917 64.0
124.911652 200.0
124.96669 160.0
125.000069 120.0
125.115814 188.0
125.195969 124.0
125.278389 124.0
125.320717 188.0
125.344467 164.0
125.369743 52.0
125.397903 132.0
125.43438 156.0
125.449982 168.0
125.548096 196.0
125.628395 220.0
125.673676 132.0
125.697563 188.0
125.72657 136.0
125.746658 84.0
125.795761 144.0
125.812119 160.0
125.860512 200.0
125.895142 164.0
125.936447 76.0
125.95208 160.0
125.995499 212.0
126.050385 136.0
126.115623 168.0
126.168846 104.0
126.208275 124.0
126.340134 68.0
126.386574 264.0
126.52681 64.0
126.549202 160.0
126.609665 172.0
126.636536 80.0
126.6679 164.0
126.800102 72.0
126.865105 164.0
126.898735 68.0
126.934608 176.0
126.974976 172.0
127.042274 164.0
127.061516 256.0
127.100609 196.0
127.218666 180.0
127.353859 232.0
127.426186 148.0
127.477867 212.0
127.499687 152.0
127.527313 128.0
127.599243 84.0
127.630722 240.0
127.687439 164.0
127.707939 180.0
127.743179 244.0
127.785927 80.0
127.864983 184.0
127.905197 160.0
127.950226 112.0
127.97049 140.0
128.017776 148.0
128.048141 296.0
128.096603 212.0
128.161942 156.0
128.177719 136.0
128.215195 376.0
128.25209 220.0
128.283646 312.0
128.361267 208.0
128.466415 172.0
128.549316 204.0
128.689758 184.0
128.709686 164.0
128.743896 184.0
128.798996 332.0
128.850113 116.0
128.871017 144.0
128.888519 136.0
128.904343 136.0
128.978165 212.0
129.017365 168.0
129.049011 156.0
129.112335 124.0
129.143997 140.0
129.182449 184.0
129.261642 152.0
129.29332 164.0
129.311432 180.0
129.338593 68.0
129.361221 112.0
129.515213 116.0
129.558258 220.0
129.651154 260.0
129.680618 272.0
129.720505 168.0
129.778458 180.0
129.809845 100.0
129.865982 180.0
129.92099 92.0
129.950485 120.0
130.045853 140.0
130.067963 176.0
130.095612 148.0
130.134323 116.0
130.177475 128.0
130.213806 168.0
130.263123 136.0
130.361786 148.0
130.388138 224.0
130.420258 204.0
130.452408 220.0
130.486343 176.0
130.529709 52.0
130.591995 228.0
130.610489 184.0
130.627502 72.0
130.745819 112.0
130.827774 104.0
130.852814 264.0
130.94162 156.0
130.956528 152.0
131.072693 284.0
131.114777 140.0
131.324539 244.0
131.356476 200.0
131.374725 120.0
131.408936 156.0
131.475113 144.0
131.493378 136.0
131.513794 192.0
131.657684 132.0
131.737701 172.0
131.774261 120.0
131.797104 160.0
131.824951 128.0
131.851959 164.0
131.910049 248.0
131.938812 140.0
131.993683 320.0
132.048218 156.0
132.085175 168.0
132.220169 180.0
132.240768 220.0
132.298004 228.0
132.426224 164.0
132.505997 176.0
132.533447 160.0
132.556824 132.0
132.58432 176.0
132.619186 112.0
132.66684 152.0
132.844833 124.0
132.903076 216.0
132.96962 180.0
133.065582 532.0
133.089005 212.0
133.123444 212.0
133.215363 180.0
133.295731 148.0
133.352249 180.0
133.383072 144.0
133.461243 196.0
133.477341 160.0
133.518738 40.0
133.587738 240.0
133.753418 392.0
133.834 52.0
133.861328 244.0
133.866959 128.0
133.891571 140.0
133.909286 180.0
133.979095 200.0
134.009048 136.0
134.036285 292.0
134.075882 152.0
134.103546 144.0
134.135803 188.0
134.204971 192.0
134.311066 136.0
134.359512 176.0
134.37796 52.0
134.419495 96.0
134.583389 124.0
134.72197 180.0
134.746704 176.0
134.782043 76.0
134.802307 208.0
134.872177 156.0
134.899918 132.0
134.927658 180.0
135.013306 852.0
135.039673 260.0
135.080627 420.0
135.103424 184.0
135.157822 204.0
135.20755 196.0
135.233002 176.0
135.263107 160.0
135.341629 244.0
135.383499 152.0
135.402023 252.0
135.418243 244.0
135.464569 192.0
135.49469 160.0
135.513214 172.0
135.543335 136.0
135.636047 36.0
135.657654 312.0
135.680099 180.0
135.704254 116.0
135.73111 152.0
135.895798 180.0
135.932922 132.0
136.021454 1152.0
136.07016 96.0
136.089081 216.0
136.116302 176.0
136.153458 152.0
136.175232 128.0
136.216171 164.0
136.266312 184.0
136.41333 220.0
136.453232 80.0
136.506714 140.0
136.562531 128.0
136.593536 84.0
136.618347 204.0
136.702499 168.0
136.783585 168.0
136.813843 164.0
136.906677 188.0
136.954468 164.0
136.964767 64.0
136.975815 152.0
137.009018 152.0
137.037369 160.0
137.059418 15688.0
137.136139 212.0
137.158615 56.0
137.199249 84.0
137.230667 200.0
137.249542 32.0
137.279861 196.0
137.311218 232.0
137.346939 68.0
137.355927 52.0
137.377823 56.0
137.438477 60.0
137.472672 172.0
137.50383 132.0
137.613541 116.0
137.653229 160.0
137.690598 56.0
137.898544 120.0
137.931274 180.0
137.954651 112.0
137.973343 172.0
138.011292 176.0
138.064041 1588.0
138.101959 136.0
138.153656 140.0
138.201096 236.0
138.237167 188.0
138.303192 176.0
138.396835 164.0
138.420258 84.0
138.455383 116.0
138.486816 132.0
138.549072 180.0
138.80925 92.0
138.836639 184.0
138.856964 140.0
138.882935 152.0
138.898376 192.0
138.974396 248.0
138.994217 188.0
139.02977 212.0
139.061172 304.0
139.239304 160.0
139.297623 208.0
139.327972 208.0
139.350296 240.0
139.468979 120.0
139.490128 120.0
139.621811 252.0
139.664139 164.0
139.697083 236.0
139.721878 140.0
139.75824 128.0
139.803085 156.0
139.890045 80.0
139.925354 112.0
140.044495 184.0
140.061386 184.0
140.12085 136.0
140.139694 132.0
140.207535 276.0
140.274292 184.0
140.368332 164.0
140.419754 160.0
140.488632 172.0
140.507507 136.0
140.618408 28.0
140.682144 112.0
140.7034 120.0
140.730316 220.0
140.776733 136.0
140.804932 120.0
140.846298 360.0
140.953766 132.0
141.001038 168.0
141.063171 176.0
141.079041 244.0
141.109772 172.0
141.282425 128.0
141.327591 176.0
141.45755 172.0
141.554611 36.0
141.60199 136.0
141.643372 136.0
141.803375 160.0
141.819962 160.0
141.857895 68.0
141.884552 148.0
142.016769 32.0
142.045227 92.0
142.114029 172.0
142.164307 156.0
142.220825 116.0
142.325287 172.0
142.35141 208.0
142.406036 200.0
142.444046 192.0
142.505814 128.0
142.55571 144.0
142.612747 116.0
142.693573 164.0
142.757782 220.0
142.786316 136.0
142.867188 204.0
142.971893 172.0
142.994568 204.0
143.027527 192.0
143.07579 216.0
143.162338 192.0
143.193405 180.0
143.246826 136.0
143.281448 160.0
143.347137 232.0
143.371994 180.0
143.43396 92.0
143.474487 136.0
143.608032 200.0
143.676254 120.0
143.709579 176.0
143.739243 140.0
143.853806 188.0
143.998596 208.0
144.030518 180.0
144.11058 148.0
144.124725 432.0
144.28064 168.0
144.384262 196.0
144.444061 60.0
144.635498 164.0
144.676193 164.0
144.704926 164.0
144.724075 168.0
144.771973 176.0
144.987579 208.0
145.018738 172.0
145.045975 344.0
145.064285 320.0
145.090652 156.0
145.126617 160.0
145.212952 248.0
145.234543 172.0
145.256134 192.0
145.344681 132.0
145.366501 120.0
145.486511 156.0
145.511017 116.0
145.527328 148.0
145.572113 184.0
145.624115 132.0
145.666611 180.0
145.784348 156.0
145.80838 160.0
145.842026 224.0
145.875687 108.0
145.894913 44.0
146.02829 224.0
146.060272 572.0
146.122665 292.0
146.152267 120.0
146.255493 184.0
146.289459 184.0
146.330383 100.0
146.486923 144.0
146.51265 148.0
146.629089 132.0
146.672073 144.0
146.706085 144.0
146.771942 188.0
146.807495 196.0
146.838852 80.0
146.942581 160.0
146.966705 176.0
147.026169 268.0
147.076126 520.0
147.164368 108.0
147.365112 196.0
147.445847 264.0
147.478683 124.0
147.529449 132.0
147.647934 220.0
147.701157 120.0
147.784561 176.0
147.811249 204.0
147.888351 88.0
147.915039 204.0
147.970627 228.0
148.020004 1120.0
148.046814 176.0
148.195023 180.0
148.267731 40.0
148.307434 324.0
148.398621 240.0
148.466522 44.0
148.490784 172.0
148.534439 120.0
148.551422 112.0
148.598755 236.0
148.672195 268.0
148.783463 176.0
148.820816 120.0
148.84024 104.0
148.946396 164.0
149.025589 796.0
149.058777 1288.0
149.105042 124.0
149.143921 48.0
149.190109 128.0
149.258194 172.0
149.277649 108.0
149.350433 168.0
149.384659 56.0
149.411423 172.0
149.463181 164.0
149.490692 196.0
149.519943 236.0
149.594391 176.0
149.627014 312.0
149.646729 188.0
149.670517 188.0
149.700394 188.0
149.723007 120.0
149.766846 64.0
149.813126 140.0
149.833328 328.0
149.839737 104.0
149.848572 160.0
149.899719 104.0
149.939163 176.0
149.977844 184.0
150.038055 147424.0
150.086533 424.0
150.111282 264.0
150.134384 80.0
150.15593 56.0
150.179047 108.0
150.200134 244.0
150.230652 164.0
150.262146 120.0
150.286118 68.0
150.31311 132.0
150.33638 208.0
150.358231 144.0
150.400818 76.0
150.438583 1456.0
150.465515 80.0
150.524048 64.0
150.568787 236.0
150.599319 148.0
150.614792 76.0
150.650742 60.0
150.689713 148.0
150.724091 152.0
150.821304 196.0
150.839249 132.0
150.890808 48.0
150.94809 60.0
150.979218 148.0
150.995712 152.0
151.039902 14152.0
151.097107 108.0
151.124207 64.0
151.161255 56.0
151.207001 72.0
151.221207 164.0
151.257339 192.0
151.288193 76.0
151.316757 156.0
151.356689 104.0
151.390213 120.0
151.417969 184.0
151.476013 224.0
151.503204 60.0
151.54657 96.0
151.634995 100.0
151.664169 140.0
151.748795 40.0
151.776077 220.0
151.795547 108.0
151.817444 148.0
151.842133 128.0
151.865967 240.0
151.905136 116.0
151.964844 100.0
151.991623 144.0
152.033112 7876.0
152.102219 124.0
152.125427 192.0
152.15448 172.0
152.18187 268.0
152.202301 288.0
152.23082 136.0
152.261917 264.0
152.294846 140.0
152.325165 132.0
152.378433 224.0
152.415543 156.0
152.458206 164.0
152.479034 136.0
152.547974 104.0
152.579529 100.0
152.645035 136.0
152.704056 92.0
152.743423 180.0
152.780319 132.0
152.827057 60.0
152.963837 104.0
153.03389 716.0
153.086517 120.0
153.137253 156.0
153.231812 156.0
153.280136 196.0
153.400909 168.0
153.46994 136.0
153.575989 140.0
153.662323 192.0
153.800522 152.0
153.828522 176.0
153.836563 60.0
153.844269 212.0
153.891876 164.0
154.005478 224.0
154.04361 164.0
154.146301 172.0
154.175949 104.0
154.193253 116.0
154.294601 192.0
154.367798 212.0
154.393509 176.0
154.46524 128.0
154.512238 152.0
154.574097 36.0
154.611221 124.0
154.628555 164.0
154.680527 96.0
154.702805 144.0
154.769272 156.0
154.842911 268.0
154.943039 148.0
154.965332 60.0
155.002502 136.0
155.255692 176.0
155.295044 56.0
155.399231 152.0
155.508423 56.0
155.6996 124.0
155.731888 188.0
155.796478 148.0
155.990311 228.0
156.266373 168.0
156.39827 68.0
156.433121 164.0
156.465485 148.0
156.495361 116.0
156.542679 100.0
156.580032 244.0
156.597458 188.0
156.687149 84.0
156.876556 112.0
156.958832 88.0
156.983765 68.0
157.026169 160.0
157.353058 204.0
157.370544 172.0
157.425476 92.0
157.507904 216.0
157.552856 188.0
157.62532 192.0
157.665314 116.0
157.685303 180.0
157.735291 176.0
157.905014 128.0
157.947845 108.0
158.032898 172.0
158.175552 112.0
158.343323 208.0
158.385895 184.0
158.55127 172.0
158.624237 144.0
158.68663 96.0
158.812012 152.0
158.879745 136.0
158.909698 128.0
159.031372 124.0
159.079453 196.0
159.158356 48.0
159.339188 40.0
159.376877 228.0
159.434677 76.0
159.472 188.0
159.530197 100.0
159.580475 128.0
159.66597 220.0
159.706223 68.0
159.74646 32.0
159.796783 88.0
159.927643 208.0
160.001877 156.0
160.011246 76.0
160.019913 120.0
160.080032 136.0
160.129074 212.0
160.183655 204.0
160.214722 136.0
160.255707 164.0
160.291885 172.0
160.318024 40.0
160.373474 176.0
160.560059 56.0
160.592178 184.0
160.601898 136.0
160.635727 128.0
160.72908 56.0
160.80983 140.0
160.837601 144.0
160.885117 180.0
160.941101 176.0
160.996658 112.0
161.029343 212.0
161.059021 416.0
161.095169 132.0
161.121811 236.0
161.254364 132.0
161.363068 216.0
161.550217 168.0
161.57045 104.0
161.608398 76.0
161.685226 224.0
161.72229 128.0
161.770386 184.0
161.914719 40.0
161.945404 100.0
161.964722 124.0
161.984558 216.0
162.036301 1364.0
162.071289 188.0
162.113022 288.0
162.331528 144.0
162.373444 112.0
162.436859 184.0
162.47937 164.0
162.600723 144.0
162.713486 200.0
162.792191 204.0
163.015488 116.0
163.04332 480.0
163.072311 684.0
163.130127 164.0
163.275055 108.0
163.336105 136.0
163.407333 268.0
163.506577 124.0
163.661865 72.0
163.687332 148.0
163.705154 140.0
163.850342 144.0
163.92424 68.0
164.015701 784.0
164.050934 516.0
164.079727 204.0
164.154785 128.0
164.186813 268.0
164.20723 104.0
164.255692 72.0
164.283752 104.0
164.306717 424.0
164.339874 52.0
164.375595 188.0
164.447067 144.0
164.470032 140.0
164.533859 176.0
164.587479 48.0
164.777573 132.0
164.911926 156.0
165.009064 136.0
165.038727 212.0
165.050354 176.0
165.139481 40.0
165.198318 124.0
165.318573 124.0
165.47728 140.0
165.523376 148.0
165.656555 56.0
165.69754 160.0
165.787231 164.0
165.838486 128.0
165.858994 56.0
165.876938 84.0
165.910263 196.0
165.95192 212.0
165.997437 152.0
166.01413 120.0
166.061752 164.0
166.22319 104.0
166.251419 196.0
166.277084 96.0
166.300171 148.0
166.345078 136.0
166.405426 160.0
166.603195 216.0
166.644302 124.0
166.705963 184.0
166.767654 220.0
166.821625 60.0
166.883682 180.0
166.942474 128.0
166.973343 176.0
167.037643 216.0
167.146622 168.0
167.204895 124.0
167.2435 156.0
167.321136 176.0
167.382523 168.0
167.403122 172.0
167.435501 168.0
167.488113 40.0
167.660751 176.0
167.712296 184.0
167.848938 112.0
167.88504 116.0
167.980469 128.0
168.026917 40.0
168.095413 240.0
168.124969 136.0
168.169769 224.0
168.197235 124.0
168.26178 168.0
168.344406 156.0
168.452881 240.0
168.542664 224.0
168.688049 272.0
168.900284 272.0
169.032028 132.0
169.136856 248.0
169.218399 168.0
169.254654 148.0
169.303848 136.0
169.430771 188.0
169.511108 212.0
169.534424 76.0
169.562927 212.0
169.583664 100.0
169.619965 284.0
169.741943 156.0
170.009018 156.0
170.086884 160.0
170.193314 104.0
170.238876 124.0
170.317978 200.0
170.632431 168.0
170.765045 116.0
170.832687 172.0
170.876907 152.0
170.921143 80.0
171.030457 148.0
171.155411 200.0
171.316895 208.0
171.374222 156.0
171.395065 116.0
171.4133 128.0
171.449783 168.0
171.488876 104.0
171.561874 116.0
171.689636 132.0
171.736588 104.0
171.853973 112.0
171.91922 144.0
171.937485 208.0
171.989685 152.0
172.04512 188.0
172.081055 128.0
172.117615 168.0
172.138504 200.0
172.172455 52.0
172.190735 80.0
172.222076 232.0
172.271713 128.0
172.300446 176.0
172.363159 204.0
172.543503 148.0
172.611496 212.0
172.679489 96.0
172.71611 308.0
172.739639 208.0
172.773651 120.0
172.820755 104.0
172.933273 180.0
172.962067 124.0
173.03038 452.0
173.082504 232.0
173.103836 192.0
173.150589 124.0
173.187256 124.0
173.244888 208.0
173.446671 52.0
173.763992 168.0
173.80336 156.0
173.834839 136.0
173.897827 188.0
173.916199 200.0
173.947708 204.0
174.036484 2812.0
174.09259 176.0
174.123627 168.0
174.149887 120.0
174.173538 44.0
174.241837 164.0
174.270035 104.0
174.399506 52.0
174.725586 120.0
174.817688 168.0
174.870605 188.0
174.950394 192.0
174.991425 152.0
175.040695 636.0
175.067337 48.0
175.223984 224.0
175.246902 140.0
175.324112 200.0
175.383942 116.0
175.434036 184.0
175.505219 172.0
175.550049 200.0
175.615982 184.0
175.663467 160.0
175.721497 168.0
175.745255 156.0
175.817261 220.0
175.895676 140.0
175.943207 176.0
175.968323 144.0
176.000183 192.0
176.004776 136.0
176.030014 344.0
176.096359 232.0
176.138626 60.0
176.180893 132.0
176.334152 136.0
176.390274 176.0
176.463684 112.0
176.52803 168.0
176.617065 216.0
176.722885 384.0
176.820145 128.0
176.855209 136.0
176.900574 140.0
177.052322 1512.0
177.151794 128.0
177.204773 168.0
177.281235 164.0
177.328949 196.0
177.367783 244.0
177.451141 244.0
177.477783 60.0
177.510193 344.0
177.530029 236.0
177.605408 316.0
177.626312 220.0
177.644867 112.0
177.674057 328.0
177.694855 176.0
177.723099 196.0
177.759872 452.0
177.796112 60.0
177.83046 152.0
177.83783 232.0
177.847046 440.0
177.887665 160.0
177.914642 256.0
177.948837 348.0
177.972519 356.0
178.033066 260092.0
178.072876 424.0
178.125137 196.0
178.166138 252.0
178.212479 144.0
178.237274 104.0
178.279068 484.0
178.317932 428.0
178.355453 308.0
178.367798 132.0
178.390747 124.0
178.435333 340.0
178.469833 3200.0
178.512619 220.0
178.53363 284.0
178.550446 112.0
178.559418 252.0
178.596741 100.0
178.650452 128.0
178.696304 212.0
178.733582 144.0
178.755219 104.0
178.777176 60.0
178.843307 124.0
178.900604 164.0
178.938416 116.0
178.955719 196.0
178.987518 156.0
179.035477 36732.0
179.079376 168.0
179.141556 108.0
179.187378 80.0
179.219742 244.0
179.265503 92.0
179.324524 60.0
179.360931 72.0
179.37207 64.0
179.419968 100.0
179.43129 76.0
179.438995 204.0
179.472046 84.0
179.490707 100.0
179.530701 124.0
179.551178 188.0
179.594711 52.0
179.630173 88.0
179.682083 48.0
179.713669 68.0
179.755615 196.0
179.774246 108.0
179.806564 100.0
179.844742 108.0
179.854584 124.0
179.889969 236.0
179.933746 288.0
180.028915 14652.0
180.094711 76.0
180.119904 152.0
180.138885 56.0
180.168381 72.0
180.214203 216.0
180.251434 172.0
180.276825 84.0
180.296783 244.0
180.335663 184.0
180.340958 92.0
180.386124 96.0
180.43573 60.0
180.468826 104.0
180.503845 128.0
180.550903 184.0
180.572296 60.0
180.593689 44.0
180.628464 108.0
180.665909 132.0
180.700699 148.0
180.750824 76.0
180.793594 100.0
180.823792 152.0
180.842529 52.0
180.875061 52.0
180.907333 128.0
180.999725 156.0
181.031464 1436.0
181.099579 40.0
181.147781 64.0
181.193069 80.0
181.273712 56.0
181.305878 88.0
181.353531 72.0
181.405151 208.0
181.442947 144.0
181.487946 100.0
181.497375 92.0
181.547165 76.0
181.718842 148.0
181.775177 60.0
181.973816 32.0
181.997986 120.0
182.029739 160.0
182.151062 48.0
182.215546 64.0
182.250092 84.0
182.310196 68.0
182.341843 40.0
182.449356 80.0
182.468185 80.0
182.659729 176.0
182.715622 76.0
182.813782 116.0
182.858231 72.0
183.014374 164.0
183.038605 36.0
183.663879 120.0
183.787979 52.0
183.96611 120.0
184.041702 140.0
184.106506 44.0
184.136215 32.0
184.357758 92.0
184.419922 52.0
184.633514 148.0
184.790405 76.0
185.036697 60.0
185.061066 116.0
185.212738 88.0
185.237106 40.0
185.38884 148.0
185.478287 104.0
185.668076 144.0
185.69249 124.0
185.790146 108.0
185.879684 168.0
185.923096 60.0
186.039825 132.0
186.284225 120.0
186.380402 116.0
186.403778 104.0
186.534241 68.0
186.681061 44.0
186.838821 140.0
187.018433 168.0
187.03952 192.0
187.361542 128.0
187.386063 136.0
187.511414 136.0
187.598648 44.0
187.936829 72.0
188.063629 164.0
188.10878 28.0
188.185226 204.0
188.37912 68.0
188.422028 108.0
188.485687 40.0
188.519241 72.0
188.595001 112.0
188.677017 88.0
188.783646 156.0
188.802795 76.0
188.837402 128.0
188.912201 76.0
189.068176 144.0
189.174927 44.0
189.380295 48.0
189.543503 76.0
189.658112 92.0
189.722824 44.0
189.898331 172.0
190.029999 156.0
190.27977 64.0
190.505859 140.0
190.549683 276.0
190.766037 184.0
190.936523 124.0
190.986023 108.0
191.040009 9048.0
191.138596 76.0
191.170044 136.0
191.206345 104.0
191.250183 44.0
191.316238 68.0
191.431885 68.0
191.477554 76.0
191.547562 96.0
191.627457 64.0
191.657776 60.0
191.762497 80.0
191.881027 192.0
191.991333 88.0
192.044464 2788.0
192.14856 96.0
192.183197 72.0
192.314133 64.0
192.391418 68.0
192.526718 80.0
192.715866 68.0
192.750488 48.0
192.833405 120.0
192.910797 76.0
192.955032 64.0
193.036331 564.0
193.074509 180.0
193.179123 124.0
193.2565 52.0
193.383804 56.0
193.522217 80.0
193.558228 92.0
193.580368 48.0
193.696701 100.0
193.932236 52.0
194.041107 236.0
194.067139 116.0
194.201187 76.0
194.445343 56.0
194.565872 112.0
194.725769 28.0
195.089783 112.0
196.365112 120.0
196.76416 36.0
196.878647 36.0
197.08815 176.0
197.966522 132.0
198.064545 72.0
199.026505 132.0
199.492889 92.0
199.88385 144.0
200.06398 72.0
200.241379 144.0
200.489304 132.0
200.585144 60.0
201.702988 32.0
201.946152 168.0
202.540573 68.0
202.894806 72.0
202.943008 60.0
204.050949 348.0
204.132782 132.0
204.24086 120.0
204.758881 96.0
205.090286 192.0
205.16066 52.0
205.722672 48.0
206.024689 332.0
206.093964 148.0
206.265442 164.0
206.422684 152.0
206.871902 116.0
207.017929 164.0
207.050507 192.0
207.473511 116.0
208.077713 220.0
208.096756 172.0
208.567245 60.0
208.687988 44.0
209.053299 96.0
209.678253 108.0
210.04155 136.0
210.373413 92.0
211.041031 160.0
211.095749 196.0
211.500793 72.0
211.862778 108.0
212.036636 132.0
212.056931 92.0
212.465805 184.0
213.339951 68.0
213.560959 36.0
214.320786 84.0
216.286285 32.0
216.529312 108.0
217.089066 164.0
217.397095 100.0
217.649551 40.0
218.052017 52.0
218.893417 156.0
219.011215 148.0
219.065338 576.0
220.042786 292.0
220.062729 168.0
220.856049 168.0
221.045395 160.0
221.077942 156.0
221.110504 116.0
221.960739 140.0
222.640305 100.0
222.800705 36.0
223.038071 488.0
223.090469 1776.0
223.359589 68.0
223.436935 104.0
223.463715 32.0
223.669052 96.0
223.832809 80.0
223.993637 112.0
224.046417 328.0
224.090256 268.0
224.14856 72.0
224.276718 84.0
224.783722 112.0
225.040436 160.0
225.085464 204.0
226.044785 108.0
226.080704 164.0
226.667648 56.0
227.369385 96.0
228.114304 160.0
229.065231 180.0
229.450974 80.0
229.740494 120.0
230.483246 208.0
232.412079 60.0
232.651855 52.0
233.086182 200.0
234.058151 876.0
234.092026 92.0
234.242325 112.0
235.056076 176.0
235.199829 28.0
236.057922 512.0
236.107285 96.0
236.459122 100.0
236.508102 176.0
236.673416 140.0
236.995041 132.0
237.025681 64.0
237.063217 96.0
237.126816 76.0
237.243286 120.0
237.307678 56.0
237.730988 44.0
237.773956 92.0
237.872177 168.0
238.031799 364.0
238.067398 352.0
239.031403 264.0
239.080124 116.0
239.212463 52.0
239.634399 148.0
239.871704 96.0
240.045334 152.0
240.510223 160.0
241.041443 160.0
241.070251 320.0
241.427856 124.0
241.55777 168.0
243.07283 96.0
243.218704 196.0
244.073059 88.0
245.346512 140.0
245.926727 176.0
246.282684 92.0
248.097672 140.0
248.147842 136.0
248.266998 188.0
248.922867 76.0
248.944855 48.0
249.07225 128.0
249.115448 192.0
249.334412 44.0
249.406708 68.0
250.087006 344.0
250.36319 196.0
250.990295 124.0
251.040909 180.0
251.072083 308.0
251.11644 148.0
251.804489 116.0
251.937164 96.0
252.045685 160.0
252.088821 92.0
252.212082 128.0
252.945953 184.0
253.052795 428.0
253.180252 88.0
253.509735 148.0
253.57312 132.0
254.059357 480.0
254.934631 48.0
255.065643 144.0
255.631073 60.0
256.079102 248.0
256.809875 56.0
257.077881 232.0
257.98819 140.0
258.116089 128.0
258.973785 84.0
259.09552 60.0
259.159576 100.0
260.420349 184.0
260.915222 120.0
261.516785 64.0
261.645538 88.0
261.774353 184.0
261.945038 160.0
262.705841 100.0
263.645447 132.0
263.965485 176.0
264.072205 132.0
265.215179 88.0
266.060822 136.0
266.130371 152.0
266.776581 100.0
267.031433 304.0
267.072113 708.0
267.124542 132.0
267.742981 192.0
268.054047 184.0
268.068512 112.0
268.076508 328.0
268.926514 48.0
269.049957 176.0
269.295471 40.0
269.53067 68.0
269.582947 64.0
269.710419 84.0
269.958923 92.0
270.299133 44.0
270.53479 120.0
271.255493 84.0
271.967285 96.0
272.069061 132.0
273.686676 152.0
274.035828 108.0
275.480865 80.0
275.877441 60.0
276.509216 172.0
276.711151 84.0
276.979401 100.0
277.093414 172.0
277.396942 100.0
278.117157 344.0
278.342499 64.0
278.774353 116.0
278.84082 184.0
279.126801 216.0
280.035278 116.0
280.07193 36.0
280.308472 60.0
280.581787 148.0
281.753235 64.0
282.066589 336.0
282.097473 464.0
283.075714 124.0
283.101868 316.0
284.066895 804.0
284.4021 48.0
285.072845 156.0
285.081604 112.0
285.095367 192.0
285.460388 48.0
285.494019 152.0
285.568024 48.0
287.066711 100.0
289.134247 112.0
289.557465 116.0
293.012146 152.0
293.087097 140.0
294.062225 116.0
295.063507 892.0
295.10437 144.0
295.148834 152.0
295.268524 44.0
296.076569 352.0
296.758148 112.0
297.065308 148.0
298.077484 164.0
298.196503 52.0
299.125244 224.0
299.228516 56.0
299.617706 88.0
300.104706 236.0
300.603821 52.0
301.121674 96.0
301.180389 56.0
301.972626 180.0
302.096466 168.0
302.238312 76.0
302.407898 136.0
303.547699 176.0
303.995361 92.0
305.003021 112.0
307.115997 140.0
307.869873 148.0
308.055023 140.0
308.970947 52.0
308.995453 60.0
309.156403 84.0
309.762146 248.0
309.811188 156.0
309.835693 124.0
309.996887 76.0
310.089691 12336.0
310.242737 200.0
310.403534 60.0
310.536804 100.0
310.612366 80.0
310.665558 96.0
310.761566 108.0
310.813934 44.0
311.090729 1992.0
311.294861 72.0
311.554779 92.0
311.681274 84.0
311.888611 92.0
311.941345 76.0
312.104187 1788.0
312.208557 48.0
312.299744 52.0
312.423126 148.0
312.574432 76.0
312.81897 72.0
312.912323 56.0
312.944031 132.0
313.102722 404.0
313.142334 152.0
313.172913 128.0
313.373718 76.0
313.486481 52.0
313.521729 60.0
313.581635 44.0
314.101715 268.0
314.311646 48.0
314.435181 88.0
314.872955 212.0
317.247284 92.0
318.624268 88.0
322.547913 120.0
323.256073 60.0
323.367004 72.0
324.334106 116.0
326.452393 76.0
326.822906 108.0
326.923676 100.0
327.741119 72.0
328.102386 2564.0
328.162811 32.0
328.195282 84.0
328.503571 100.0
328.660583 88.0
329.010681 144.0
329.097992 908.0
329.556061 112.0
329.61026 68.0
329.827087 52.0
330.09198 296.0
330.521484 92.0
331.107941 48.0
331.325287 48.0
335.584961 56.0
336.573792 88.0
336.92807 84.0
339.449982 84.0
339.776428 72.0
342.268463 96.0
346.512451 120.0
349.456757 68.0
351.550934 80.0
351.991425 48.0
352.570465 100.0
353.54657 40.0
355.147034 748.0
355.405243 44.0
355.840637 108.0
356.15741 228.0
356.298859 60.0
357.150116 108.0
357.174774 172.0
359.737244 96.0
361.142914 68.0
363.571533 40.0
363.970123 104.0
364.429749 60.0
365.311768 56.0
366.332001 168.0
366.976105 60.0
369.007355 160.0
369.768585 68.0
370.109863 1504.0
370.201202 108.0
370.890839 36.0
370.998169 60.0
371.109955 436.0
371.213531 124.0
371.241974 48.0
371.435364 112.0
372.109955 164.0
372.402649 68.0
373.155701 152.0
374.163544 148.0
374.371796 132.0
376.122223 80.0
379.891327 52.0
380.931732 120.0
382.759705 108.0
383.433655 40.0
383.901489 120.0
390.001404 52.0
392.528961 52.0
394.795715 84.0
396.185059 48.0
400.260162 108.0
401.236359 80.0
403.392151 112.0
403.520081 124.0
405.870422 104.0
406.668793 80.0
409.882111 72.0
412.085205 76.0
412.558075 124.0
413.253723 68.0
414.371185 108.0
415.167206 1152.0
416.173798 456.0
416.375092 76.0
417.172974 44.0
418.34314 60.0
418.428619 96.0
418.477478 64.0
419.479706 64.0
419.573456 152.0
420.748444 116.0
424.258667 92.0
425.900085 100.0
425.928864 96.0
428.681335 32.0
428.969849 116.0
430.273499 168.0
431.790039 132.0
439.558746 96.0
441.196075 56.0
446.828583 68.0
451.354401 40.0
453.310089 92.0
458.24765 52.0
458.413849 60.0
458.989319 88.0
459.424377 48.0
459.791351 84.0
462.291443 76.0
462.680939 80.0
463.224823 64.0
486.843628 60.0
495.236786 32.0
497.187592 84.0
499.346832 40.0
499.511414 108.0
501.22998 48.0
503.18808 84.0
504.649109 104.0
511.589783 44.0
517.468018 128.0
521.132812 80.0
527.403625 120.0
530.479797 56.0
532.687073 84.0
552.955566 76.0
560.191467 72.0
571.045532 68.0
586.020081 76.0
589.972839 68.0
592.523376 80.0
598.5755 92.0
598.663147 40.0
599.632629 72.0
611.756165 84.0
612.085999 108.0
612.933289 84.0
628.02478 76.0
641.543152 96.0
644.466431 144.0
651.823975 104.0
667.348022 68.0
668.98407 116.0
669.746216 148.0
678.173767 48.0
682.212341 76.0
682.831116 44.0
690.079651 68.0
692.56543 56.0
707.568787 84.0
717.823853 52.0
718.058533 56.0
725.866516 88.0
726.043518 48.0
726.574524 76.0
753.182922 84.0
755.292847 72.0
789.94574 100.0
793.956177 72.0
799.912109 56.0
806.206726 84.0
826.497009 60.0
832.165833 84.0
833.814453 40.0
846.245972 208.0
846.327026 128.0
849.828003 48.0
851.186279 124.0
852.708374 88.0
855.802551 172.0
856.43219 88.0
857.556702 48.0
863.716919 92.0
864.436523 168.0
865.408264 156.0
867.25946 128.0
870.374695 40.0
873.401428 156.0
873.783813 236.0
875.461426 72.0
885.631836 156.0
893.789062 152.0
899.468872 216.0
903.197571 188.0
905.22052 132.0
907.43158 192.0
908.51709 184.0
910.071594 84.0
911.020508 100.0
914.020752 216.0
915.869019 164.0
917.646851 32.0
921.086792 132.0
921.515747 236.0
926.737366 104.0
927.149475 148.0
928.458984 216.0
929.217224 88.0
933.311035 196.0
937.395569 128.0
942.264832 40.0
942.576416 160.0
944.514526 116.0
945.946411 160.0
946.656677 52.0
949.629089 136.0
950.058472 88.0
950.831665 132.0
951.377991 64.0
953.271851 164.0
953.792175 156.0
958.050598 88.0
959.005737 64.0
959.357117 80.0
963.028687 212.0
963.139893 156.0
966.917725 156.0
967.022949 124.0
967.481018 100.0
969.302002 156.0
969.413574 152.0
969.952759 48.0
970.355713 232.0
971.794678 60.0
973.091919 184.0
974.340271 64.0
975.881653 208.0
977.698059 140.0
977.872375 92.0
982.589661 140.0
983.163696 132.0
983.363464 180.0
987.218201 112.0
988.000122 120.0
989.621094 132.0
993.971252 164.0
995.980286 112.0
996.991882 224.0
999.500977 92.0
1005.039795 100.0
1006.428467 116.0
1008.532227 40.0
1010.707764 168.0
1013.291077 108.0
1015.440063 192.0
1016.112488 60.0
1017.591309 160.0
1018.105652 64.0
1018.963196 172.0
1019.980042 260.0
1020.711182 92.0
1021.518921 60.0
1021.805176 156.0
1023.211731 128.0
1024.56189 144.0
1024.976074 180.0
1026.812134 188.0
1029.17334 216.0
1029.914062 80.0
1031.633057 132.0
1033.199951 176.0
1034.083008 84.0
1034.832031 220.0
1036.401245 76.0
1038.067871 132.0
1038.414185 152.0
1038.75415 152.0
1039.665283 92.0
1042.490967 188.0
1043.468018 132.0
1043.558105 152.0
1046.62085 180.0
1046.865601 84.0
1048.327881 136.0
1048.959595 160.0
1050.210571 168.0
1051.746216 208.0
1052.527466 112.0
1052.604858 176.0
1053.031128 152.0
1053.095703 56.0
1053.799927 72.0
1054.148804 140.0
1054.808105 128.0
1055.758545 132.0
1058.354126 188.0
1061.139648 168.0
1061.373047 168.0
1065.9104 160.0
1066.358887 140.0
1068.114502 72.0
1068.927734 168.0
1071.428101 192.0
1071.480225 156.0
1071.981934 248.0
1072.855347 136.0
1073.898682 196.0
1075.236206 160.0
1075.575562 108.0
1076.026001 184.0
1076.287231 172.0
1076.457031 144.0
1078.207886 184.0
1080.104004 136.0
1080.56189 112.0
1080.666626 156.0
1081.471558 208.0
1081.825073 224.0
1082.302979 60.0
1083.501587 220.0
1083.934082 108.0
1085.75 80.0
1086.419067 188.0
1087.823364 104.0
1088.348633 160.0
1089.780518 88.0
1089.925171 152.0
1090.201172 212.0
1090.588867 172.0
1091.219971 196.0
1091.936768 140.0
1092.272217 52.0
1092.522217 192.0
1093.127563 180.0
1093.897583 116.0
1095.385864 200.0
1095.537354 236.0
1095.781128 220.0
1095.847046 144.0
1096.552124 52.0
1097.435547 188.0
1097.580566 144.0
1098.226929 168.0
1098.273071 152.0
1098.418213 188.0
1099.744507 32.0
1101.038574 180.0
1103.529907 196.0
1104.429199 120.0
1104.647583 76.0
1105.501099 60.0
1105.665039 172.0
1105.858521 84.0
1107.334961 152.0
1107.712524 188.0
1110.436768 160.0
1111.803589 60.0
1112.613403 176.0
1114.944824 184.0
1116.015137 156.0
1116.912964 140.0
1116.966187 160.0
1118.942749 248.0
1124.355469 184.0
1124.695801 68.0
1125.216553 188.0
1126.518799 192.0
1126.806152 164.0
1127.180298 200.0
1128.069214 156.0
1128.43689 196.0
1128.851562 120.0
1129.346436 128.0
1129.97522 56.0
1132.030273 156.0
1133.001465 92.0
1133.483887 188.0
1135.481689 156.0
1135.897583 156.0
1137.185913 108.0
1138.038452 124.0
1138.622681 128.0
1139.274292 180.0
1139.811768 196.0
1140.026855 48.0
1140.214966 128.0
1141.398193 128.0
1142.837646 28.0
1144.661865 52.0
1145.811401 296.0
1146.480713 212.0
1148.213379 160.0
1150.122803 208.0
1150.669678 212.0
1151.223389 84.0
1152.8927 180.0
1153.006958 56.0
1153.088013 60.0
1153.486816 64.0
1154.568604 92.0
1154.778809 268.0
1155.651001 160.0
1155.799805 124.0
1156.442749 144.0
1156.571411 80.0
1157.173828 164.0
1157.356689 160.0
1157.546265 132.0
1157.945923 140.0
1158.589355 132.0
1158.69104 132.0
1158.846802 128.0
1160.561646 148.0
1161.375488 168.0
1162.203247 56.0
1162.467773 140.0
1164.008789 84.0
1164.341553 96.0
1164.932495 64.0
1166.209961 200.0
1166.64502 176.0
1167.052979 204.0
1167.603882 100.0
1167.678589 256.0
1170.108032 200.0
1172.06958 88.0
1173.412354 160.0
1173.95105 212.0
1174.74231 124.0
1174.790039 104.0
1175.875 200.0
1176.270874 148.0
1177.609253 120.0
1177.766357 148.0
1178.531494 184.0
1179.508789 108.0
1179.966797 144.0
1180.876343 168.0
1183.915161 132.0
1185.929443 152.0
1186.676636 76.0
1186.772583 148.0
1186.985229 216.0
1187.053833 80.0
1187.136108 188.0
1187.856201 52.0
1188.116943 96.0
1189.53064 196.0
1189.901367 164.0
1190.176025 204.0
1191.055054 148.0
1191.316162 168.0
1191.515381 72.0
1191.783325 180.0
1192.023804 56.0
1192.443115 124.0
1192.745483 184.0
1192.958618 36.0
1193.364258 168.0
1193.474243 204.0
1194.134399 200.0
1194.437134 136.0
1194.843018 168.0
1194.911743 184.0
1195.090698 120.0
1196.41394 180.0
1197.520752 164.0
1197.913452 204.0
1198.016724 136.0
1198.312988 60.0
1199.560425 204.0
1199.801758 220.0
1200.229248 160.0
1200.346436 40.0
1200.505005 128.0
1201.13269 152.0
1201.224854 208.0
1201.394775 184.0
1202.561035 128.0
1202.816406 216.0
1204.770752 168.0
1205.876343 212.0
1206.08374 124.0
1206.311768 188.0
1206.671265 160.0
1208.313354 148.0
1208.857178 152.0
1209.473145 196.0
1209.673828 148.0
1210.241577 148.0
1210.580933 188.0
1210.66394 148.0
1210.94104 160.0
1211.405151 180.0
1211.557495 252.0
1211.709961 108.0
1212.659302 112.0
1212.791016 140.0
1213.463501 64.0
1213.671509 144.0
1214.052856 112.0
1215.22522 92.0
1215.894409 208.0
1215.967773 200.0
1216.411987 176.0
1217.075562 192.0
1217.252075 160.0
1217.529907 168.0
1218.127197 144.0
1218.266113 208.0
1218.766357 192.0
1218.940063 144.0
1219.238892 120.0
1219.586426 136.0
1220.497192 104.0
1220.740601 112.0
1221.206543 160.0
1221.693481 164.0
1224.317627 116.0
1225.028076 192.0
1227.990601 72.0
1228.213745 124.0
1228.590454 152.0
1228.974243 160.0
1229.030029 124.0
1230.244507 132.0
1231.557251 68.0
1231.899536 56.0
1232.171997 160.0
1232.549316 200.0
1232.668091 112.0
1233.513794 240.0
1235.604858 188.0
1236.283569 212.0
1236.885498 204.0
1237.102539 200.0
1237.158569 136.0
1237.963745 184.0
1238.797241 120.0
1238.984863 192.0
1239.119507 116.0
1240.766602 136.0
1241.138184 140.0
1242.070923 196.0
1242.555054 96.0
1242.912842 192.0
1243.425171 128.0
1243.811157 228.0
1243.860352 192.0
1244.815186 84.0
1246.33252 60.0
1246.811035 212.0
1247.963257 68.0
1248.223389 144.0
1248.364014 132.0
1248.483643 220.0
1248.610229 160.0
1248.687622 136.0
1248.821167 148.0
1249.559814 176.0
1249.756836 196.0
1250.073486 204.0
1251.312378 108.0
1251.608154 160.0
1251.791138 260.0
1252.227783 184.0
1252.734985 176.0
1253.066162 92.0
1253.862427 144.0
1254.130249 160.0
1254.496826 180.0
1255.110229 68.0
1255.293579 164.0
1255.342896 56.0
1255.582642 212.0
1256.217529 44.0
1256.697266 144.0
1256.880737 108.0
1257.551147 100.0
1258.108887 132.0
1258.235962 368.0
1260.997925 120.0
1261.627075 188.0
1261.895752 64.0
1262.114868 148.0
1262.510986 164.0
1262.567505 124.0
1263.543701 196.0
1264.046021 140.0
1265.362671 160.0
1265.844116 196.0
1267.147461 184.0
1267.218262 80.0
1267.579712 220.0
1267.856079 140.0
1268.734985 72.0
1269.188721 64.0
1271.366577 52.0
1272.554199 68.0
1272.672729 152.0
1272.878662 148.0
1273.560425 176.0
1274.199829 164.0
1274.498291 164.0
1274.825195 160.0
1275.443481 212.0
1276.125977 220.0
1276.175781 56.0
1276.261108 160.0
1276.751709 156.0
1278.266235 172.0
1278.352417 144.0
1278.5802 156.0
1278.675781 156.0
1279.576782 56.0
1280.011108 72.0
1280.424072 152.0
1281.122192 180.0
1281.35022 184.0
1281.749146 140.0
1282.868164 96.0
1282.925171 40.0
1283.217529 156.0
1283.937744 156.0
1284.301514 44.0
1285.321777 160.0
1285.521484 44.0
1286.078247 168.0
1286.692261 212.0
1286.820679 160.0
1286.970581 96.0
1287.113403 204.0
1287.598999 172.0
1287.834717 352.0
1289.035034 168.0
1289.635376 104.0
1289.925659 120.0
1290.064209 184.0
1290.436035 156.0
1290.936523 196.0
1291.344238 132.0
1291.537354 160.0
1292.06665 56.0
1292.517456 140.0
1292.581909 136.0
1292.875244 160.0
1293.309937 164.0
1293.555298 100.0
1295.103394 208.0
1295.861328 232.0
1296.556396 132.0
1296.814453 104.0
1297.122681 184.0
1297.194336 120.0
1297.395142 96.0
1299.001465 104.0
1299.884033 144.0
1300.049072 120.0
1300.321777 180.0
1301.326782 172.0
1301.95874 188.0
1302.720093 128.0
1303.050537 184.0
1303.208618 100.0
1303.258911 144.0
1303.359497 180.0
1304.43042 184.0
1307.228271 124.0
1307.278687 156.0
1307.588135 160.0
1308.250366 176.0
1308.32959 180.0
1309.388062 256.0
1309.769775 140.0
1310.77124 164.0
1310.980225 116.0
1311.664917 144.0
1312.020386 252.0
1312.191284 124.0
1313.987061 132.0
1314.954102 160.0
1315.019043 76.0
1315.365479 136.0
1316.174194 156.0
1316.946899 168.0
1317.416382 128.0
1317.698242 208.0
1317.943848 140.0
1318.102783 104.0
1318.182251 180.0
1318.261841 212.0
1318.991821 264.0
1319.049561 276.0
1319.150879 136.0
1320.112427 224.0
1320.278809 172.0
1320.778687 172.0
1321.674927 164.0
1322.022339 164.0
1323.028442 176.0
1323.274658 124.0
1323.484619 232.0
1324.484009 84.0
1324.56543 180.0
1324.723022 228.0
1324.976685 208.0
1325.121582 172.0
1325.244751 164.0
1325.534546 132.0
1326.389771 108.0
1326.817505 212.0
1327.129272 144.0
1327.238037 136.0
1327.383057 140.0
1327.600586 212.0
1327.68042 184.0
1328.342041 140.0
1329.915039 120.0
1330.19812 228.0
1331.250977 168.0
1331.417969 160.0
1331.468872 216.0
1331.650391 168.0
1331.781128 228.0
1331.87561 200.0
1332.100708 104.0
1332.471313 156.0
1333.190674 216.0
1333.677612 100.0
1334.644531 132.0
1335.044434 76.0
1336.343994 204.0
1336.455688 172.0
1337.023315 112.0
1337.248901 64.0
1337.343628 164.0
1337.503662 80.0
1337.845825 160.0
1338.027832 132.0
1338.311768 140.0
1338.414429 180.0
1338.623291 164.0
1338.901733 212.0
1338.952637 228.0
1339.871582 164.0
1340.183838 176.0
1341.255127 104.0
1341.430054 52.0
1342.363281 88.0
1342.735229 132.0
1343.04895 116.0
1343.194824 168.0
1343.493896 168.0
1345.025757 140.0
1345.398682 132.0
1345.47168 92.0
1345.654175 168.0
1345.800171 188.0
1346.158081 128.0
1346.340576 112.0
1346.464722 36.0
1347.801636 196.0
1348.459351 112.0
1349.095337 168.0
1349.21228 172.0
1349.329224 148.0
1349.380493 96.0
1349.6875 192.0
1349.892334 160.0
1350.477417 160.0
1350.777344 136.0
1351.026001 60.0
1351.640625 112.0
1351.904053 136.0
1352.234741 252.0
1353.463257 96.0
1353.514526 116.0
1353.653687 228.0
1354.32019 220.0
1355.543701 212.0
1355.924805 136.0
1356.921753 128.0
1358.117065 260.0
1358.234375 160.0
1359.151489 132.0
1359.467041 248.0
1359.606445 172.0
1359.701904 52.0
1359.819336 100.0
1360.215698 212.0
1360.303833 136.0
1360.472656 176.0
1361.427124 172.0
1361.985352 152.0
1362.8302 180.0
1362.9021 196.0
1363.107544 248.0
1363.396118 108.0
1364.226685 100.0
1364.859009 128.0
1365.403198 208.0
1366.079834 128.0
1366.506592 168.0
1366.668457 152.0
1366.780396 220.0
1368.022705 68.0
1368.184692 112.0
1368.53064 124.0
1368.817871 116.0
1368.961182 184.0
1369.2229 208.0
1369.709106 140.0
1369.767944 176.0
1369.900635 148.0
1370.209961 60.0
1370.615234 120.0
1370.851074 124.0
1371.37439 132.0
1371.43335 96.0
1371.535645 172.0
1371.74292 180.0
1372.214722 152.0
1372.782471 192.0
1373.195557 152.0
1373.697144 120.0
1373.911011 220.0
1374.479126 148.0
1375.852051 108.0
1376.621216 192.0
1376.693848 100.0
1376.841553 172.0
1377.055664 204.0
1377.247681 68.0
1378.170288 184.0
1378.392456 148.0
1379.228027 184.0
1379.383301 172.0
1379.461304 184.0
1380.536743 176.0
1381.461304 268.0
1381.594482 100.0
1381.697998 36.0
1382.040161 80.0
1382.31958 44.0
1382.926392 192.0
1383.133667 176.0
1383.540894 200.0
1383.651855 148.0
1384.518311 164.0
1385.592896 156.0
1386.340698 136.0
1387.200562 196.0
1388.557495 104.0
1389.447632 96.0
1389.848267 136.0
1389.900269 156.0
1390.671997 148.0
1391.904419 88.0
1392.008423 188.0
1392.156982 164.0
1392.587646 248.0
1392.728882 196.0
1392.847656 232.0
1393.256226 32.0
1393.612915 208.0
1394.229614 132.0
1394.385742 128.0
1395.865234 164.0
1397.434692 184.0
1397.977905 160.0
1398.416992 128.0
1398.655151 132.0
1398.722168 164.0
1398.923218 104.0
1399.451782 160.0
1399.775513 176.0
1399.95813 192.0
1400.516724 176.0
1400.687988 172.0
1401.231934 76.0
1401.604492 200.0
1402.550903 232.0
1402.91626 208.0
1403.221924 48.0
1403.460449 228.0
1403.654419 116.0
1403.818481 120.0
1403.930298 224.0
1404.265869 204.0
1404.467285 212.0
1405.325195 72.0
1405.675903 80.0
1405.795288 148.0
1405.996826 208.0
1406.623779 120.0
1407.176758 140.0
1407.519775 68.0
1407.922974 260.0
1408.117188 104.0
1408.191895 48.0
1409.626343 208.0
1409.887817 128.0
1410.336304 180.0
1410.612915 204.0
1411.001587 72.0
1411.360596 192.0
1411.690674 212.0
1411.98877 208.0
1412.325317 132.0
1412.430054 204.0
1412.901367 180.0
1413.582275 240.0
1413.649536 112.0
1414.038696 204.0
1414.121094 108.0
1414.345581 192.0
1414.465332 188.0
1414.976196 176.0
1415.094238 116.0
1415.296387 128.0
1415.423706 80.0
1415.880493 156.0
1416.367432 160.0
1417.071655 104.0
1418.09082 128.0
1418.159668 172.0
1418.562988 124.0
1419.320312 172.0
1419.807739 224.0
1420.182739 100.0
1420.542725 272.0
1421.721558 200.0
1421.795898 124.0
1423.289795 124.0
1423.913086 148.0
1424.258545 112.0
1424.919678 200.0
1425.017334 128.0
1425.160034 128.0
1425.302856 140.0
1425.671021 104.0
1425.874023 120.0
1425.964233 176.0
1426.167114 84.0
1426.678345 68.0
1427.38501 88.0
1427.437744 144.0
1427.715942 184.0
1428.26001 132.0
1429.007568 228.0
1429.145264 136.0
1429.295776 160.0
1429.348389 168.0
1429.408569 88.0
1429.521484 132.0
1429.799927 212.0
1429.912842 192.0
1430.680664 144.0
1431.523926 124.0
1431.57666 188.0
1431.810181 176.0
1431.908081 172.0
1431.987061 112.0
1432.638672 164.0
1433.188721 188.0
1433.444946 192.0
1433.768921 160.0
1434.100586 164.0
1434.462402 132.0
1435.216309 136.0
1435.472778 188.0
1435.600952 60.0
1435.908447 184.0
1436.121338 160.0
1436.242065 136.0
1436.838013 196.0
1437.358643 136.0
1437.539673 128.0
1437.630249 188.0
1438.436279 168.0
1438.724731 160.0
1439.313721 128.0
1439.638428 196.0
1439.827271 180.0
1440.325684 64.0
1440.416382 216.0
1440.597656 108.0
1440.952759 144.0
1441.119019 156.0
1441.882202 148.0
1442.033325 112.0
1442.160645 168.0
1442.244995 156.0
1442.98584 192.0
1443.053955 236.0
1443.106812 124.0
1443.507568 188.0
1443.855469 220.0
1444.04895 184.0
1444.158081 144.0
1444.517822 136.0
1444.82373 172.0
1444.944824 140.0
1445.421509 156.0
1445.497192 232.0
1445.974609 208.0
1446.081665 216.0
1446.488647 152.0
1446.632446 180.0
1447.056396 164.0
1447.132202 124.0
1447.42749 100.0
1447.480469 196.0
1447.71521 152.0
1447.786621 352.0
1448.313599 104.0
1448.55835 168.0
1449.354614 156.0
1449.503052 172.0
1449.587402 152.0
1449.813721 184.0
1449.927368 176.0
1450.344238 176.0
1450.480713 180.0
1450.56604 220.0
1450.730957 192.0
1451.041748 116.0
1451.269165 196.0
1451.489136 168.0
1451.580078 72.0
1451.663574 88.0
1452.846802 224.0
1452.899902 140.0
1453.097168 184.0
1453.355103 176.0
1453.757324 196.0
1454.174683 48.0
1454.25061 100.0
1455.837402 176.0
1455.989258 192.0
1457.151489 168.0
1457.219971 260.0
1457.440308 76.0
1457.843018 156.0
1457.934204 172.0
1458.032959 152.0
1458.45105 176.0
1458.922363 124.0
1459.234131 188.0
1459.462158 124.0
1459.515381 252.0
1459.957031 216.0
1460.587769 164.0
1460.863159 200.0
1461.051758 136.0
1461.188721 188.0
1461.36377 184.0
1461.592041 128.0
1462.57373 132.0
1462.634644 180.0
1463.053345 148.0
1463.27417 156.0
1463.434204 160.0
1463.625122 160.0
1464.26416 116.0
1464.378418 348.0
1464.507812 128.0
1464.614502 212.0
1466.107788 148.0
1466.517822 196.0
1466.801392 192.0
1466.908203 196.0
1467.075928 148.0
1467.670532 96.0
1468.532349 208.0
1468.768799 248.0
1468.951904 52.0
1469.028198 212.0
1469.272339 148.0
1469.463013 136.0
1469.691895 64.0
1470.012451 176.0
1470.065918 164.0
1470.256592 92.0
1470.325317 136.0
1470.528809 228.0
1470.974121 176.0
1471.516235 120.0
1471.88269 128.0
1473.066528 164.0
1473.196411 216.0
1473.364502 148.0
1473.677734 188.0
1473.74646 144.0
1473.859497 184.0
1473.880005 144.0
1474.044556 252.0
1474.747559 272.0
1475.053345 132.0
1475.122192 56.0
1476.246094 152.0
1476.567383 44.0
1477.087402 104.0
1477.243896 152.0
1477.607666 168.0
1477.79895 160.0
1478.003662 164.0
1478.250366 180.0
1478.53418 168.0
1478.770874 156.0
1478.931641 104.0
1479.107666 184.0
1479.306641 44.0
1480.723267 140.0
1480.822754 40.0
1480.930054 160.0
1481.37439 48.0
1481.918335 140.0
1482.347412 132.0
1483.320801 132.0
1483.888062 124.0
1483.957153 196.0
1484.118164 216.0
1484.777588 176.0
1485.023071 148.0
1485.145752 136.0
1485.629028 184.0
1485.782471 168.0
1486.388672 136.0
1486.450073 104.0
1487.378662 144.0
1487.440063 232.0
1487.562988 36.0
1487.678101 236.0
1487.855713 168.0
1489.244629 216.0
1489.313721 164.0
1489.444336 104.0
1489.934326 148.0
1490.212524 224.0
1490.504517 188.0
1490.686157 140.0
1490.796631 192.0
1490.888794 136.0
1491.405029 240.0
1492.210938 220.0
1492.357056 164.0
1492.818359 156.0
1492.987549 148.0
1493.241577 164.0
1493.572144 160.0
1493.856812 140.0
1494.4646 176.0
1494.672363 168.0
1494.833984 216.0
1494.94165 184.0
1495.411133 124.0
1495.728027 160.0
1496.45813 148.0
1496.84314 112.0
1497.020264 136.0
1497.451538 172.0
1497.551636 160.0
1497.775024 184.0
1498.175537 132.0
1498.522339 136.0
1498.876709 208.0
1499.393066 140.0
1500.055908 52.0
1500.211304 156.0
1500.546021 148.0
1500.641846 216.0
1500.695312 116.0
1500.958008 212.0
1501.343628 36.0
1501.55188 104.0
1502.009277 236.0
1502.21521 132.0
1502.315552 144.0
1502.490234 124.0
1503.148804 224.0
1503.349487 128.0
1503.534668 180.0
1503.835693 240.0
1503.959106 196.0
1504.785156 224.0
1505.240723 80.0
