>compound MLS001158392-01!3-(5-hydroxy-1H-indol-3-yl)-2-[[2-(7-methyl-2-oxo-4-propylchromen-5-yl)oxyacetyl]amino]propanoic acid
>formula C26H26N2O7
>ionization [M+H]+
>parentmass 479.1812776240905
#inchi InChI=1S/C26H26N2O7/c1-3-4-15-10-24(31)35-22-8-14(2)7-21(25(15)22)34-13-23(30)28-20(26(32)33)9-16-12-27-19-6-5-17(29)11-18(16)19/h5-8,10-12,20,27,29H,3-4,9,13H2,1-2H3,(H,28,30)(H,32,33)
#inchikey SVQMTLWGUWEXGN
#Ion_Source LC-ESI
#Instrument qTof
#Compound_Source NIH Natural Product Library
#PI Dorrestein
#Data_Collector VVP/LMS
#Scan -1
#Precursor_MZ 479.182
#ExactMass 478.174
#Charge 1
#CAS_Number N/A
#Pubmed_ID N/A
#Smiles CCCc1cc(=O)oc2cc(C)cc(OCC(=O)NC(Cc3c[nH]c4ccc(O)cc34)C(=O)O)c12
#INCHI_AUX N/A
#Library_Class 1
#SpectrumID CCMSLIB00000079725
#IonMode Positive
#UpdateWorkflowName UPDATE-SINGLE-ANNOTATED-GOLD
#LibraryQualityString Gold
#TaskID b1d8e8f6646f4e71acdff9ca3d919d08
##Scan# 1690
#SpectrumFile p1-C10_GC10_01_17906.mzXML
#LibraryName NIH_Natural_Products_Library.mgf
#MQScore -1
#Organism NIH_Natural_Products_Library
#TIC_Query 0
#RT_Query -1
#MZErrorPPM -1
#SharedPeaks 0
#MassDiff 0
#LibMZ -1
#SpecMZ 479.182
#SpecCharge 0
#internalFilename spec-00000.mgf

>collision 10
94.972466 248.0
95.191765 220.0
95.215065 176.0
95.265564 100.0
95.333565 32.0
95.566902 224.0
95.692619 324.0
95.849228 140.0
96.36042 152.0
96.571533 184.0
96.643913 116.0
96.900391 116.0
97.235703 192.0
97.267105 88.0
97.377052 204.0
97.487068 180.0
97.555862 96.0
97.584869 196.0
97.785988 176.0
97.913567 200.0
98.150429 240.0
98.185921 172.0
98.213531 164.0
98.24707 104.0
98.501717 232.0
98.679573 192.0
98.746803 144.0
98.776474 176.0
99.008041 200.0
99.109062 160.0
99.138786 80.0
99.622902 120.0
99.769958 140.0
100.155991 192.0
100.251625 196.0
100.387177 272.0
100.443016 116.0
100.458977 152.0
100.512848 192.0
100.540779 212.0
100.738441 176.0
100.846344 160.0
101.064316 120.0
101.128136 184.0
101.176392 196.0
101.210426 128.0
101.687531 136.0
102.04982 224.0
102.288498 160.0
102.373055 188.0
102.649124 176.0
102.792343 140.0
103.053276 296.0
103.085136 44.0
103.907181 152.0
103.923416 192.0
103.980232 36.0
104.250328 96.0
104.317398 148.0
104.476013 100.0
105.03212 184.0
105.071945 608.0
105.179031 140.0
105.383049 208.0
105.949951 120.0
106.070847 292.0
106.41037 160.0
106.557205 136.0
106.672287 40.0
106.807999 252.0
106.964378 72.0
106.978783 112.0
107.024078 160.0
107.052429 296.0
107.329025 140.0
107.721138 160.0
107.762459 152.0
107.805847 108.0
107.857513 220.0
108.041557 140.0
108.1119 216.0
108.128456 60.0
108.277519 176.0
108.47435 156.0
108.65477 176.0
108.708717 180.0
109.028519 216.0
109.063843 144.0
109.192749 196.0
109.303001 168.0
109.338379 44.0
109.688637 120.0
109.863449 284.0
109.936478 176.0
109.988647 168.0
110.036667 120.0
110.059631 128.0
110.078423 232.0
110.264343 160.0
110.291588 120.0
110.419052 144.0
110.496445 196.0
110.515274 192.0
110.655502 232.0
110.745544 108.0
111.200508 116.0
111.393677 164.0
111.645317 248.0
111.881546 64.0
112.146957 168.0
112.53299 172.0
112.613235 116.0
112.682945 212.0
112.84568 260.0
112.978912 180.0
113.009575 152.0
113.069901 120.0
113.684464 224.0
113.779976 184.0
114.060379 148.0
114.143295 188.0
114.166687 160.0
114.194328 196.0
114.475243 180.0
114.620949 188.0
114.713867 136.0
115.054382 564.0
115.187576 156.0
115.305092 160.0
115.426941 148.0
116.01786 164.0
116.058746 220.0
116.08432 32.0
116.284081 172.0
116.678291 188.0
116.744537 160.0
116.941498 152.0
117.05986 848.0
117.087891 220.0
117.243004 188.0
117.769417 220.0
118.06575 916.0
118.089294 172.0
118.106598 184.0
118.169334 224.0
118.186638 44.0
118.264542 60.0
118.292686 76.0
118.710831 48.0
118.877861 156.0
119.084892 444.0
119.266609 120.0
119.928276 120.0
119.969696 168.0
120.039467 84.0
120.07872 156.0
120.135429 124.0
120.275078 164.0
120.34494 128.0
120.58741 148.0
120.733887 128.0
120.904526 104.0
120.974564 44.0
121.040245 84.0
121.064217 308.0
121.171654 164.0
121.43689 200.0
121.515862 260.0
121.718658 152.0
121.95285 72.0
122.071602 240.0
122.205734 48.0
122.280556 164.0
122.527168 136.0
122.624123 136.0
122.699066 280.0
122.837997 152.0
123.023674 140.0
123.058678 168.0
123.098602 148.0
123.186768 144.0
123.226532 128.0
123.303871 100.0
123.456413 164.0
123.797195 180.0
123.837059 152.0
124.045753 64.0
124.331451 116.0
124.466866 120.0
124.5979 208.0
124.742348 128.0
124.855743 164.0
125.022591 164.0
125.062645 152.0
125.124977 196.0
125.258591 180.0
125.697784 204.0
126.021545 212.0
126.090813 164.0
126.47998 136.0
126.804741 188.0
127.004288 88.0
127.054451 368.0
127.291542 60.0
127.716293 128.0
128.006607 244.0
128.04744 148.0
128.200333 148.0
128.231888 120.0
128.335571 252.0
128.394196 124.0
128.689804 108.0
128.719162 144.0
129.070587 524.0
129.107101 124.0
129.560516 168.0
129.667007 144.0
129.834778 188.0
130.007187 44.0
130.064117 312.0
130.197876 40.0
130.272827 52.0
130.320526 172.0
130.545563 272.0
130.593323 156.0
130.768509 168.0
130.948364 180.0
130.977982 72.0
131.049164 1340.0
131.093033 176.0
131.110123 184.0
131.178497 172.0
131.228653 184.0
131.30162 184.0
131.417953 168.0
131.769547 348.0
132.052994 196.0
132.081375 756.0
132.130768 44.0
132.217728 236.0
132.522263 160.0
132.705627 140.0
132.781296 152.0
132.921234 140.0
132.941879 152.0
133.055893 700.0
133.081802 232.0
133.215103 72.0
133.424225 192.0
133.442398 216.0
133.571396 140.0
133.638107 200.0
133.660828 164.0
133.746262 156.0
133.921249 104.0
134.060699 2968.0
134.091736 124.0
134.26004 224.0
134.359222 244.0
134.389206 72.0
134.540573 96.0
134.751694 128.0
134.78302 64.0
134.964325 216.0
135.064102 300.0
135.084885 396.0
135.397049 92.0
135.53479 60.0
135.82814 72.0
135.932953 180.0
135.955734 44.0
136.187897 152.0
136.257599 76.0
136.373779 112.0
136.594666 48.0
136.932159 180.0
136.955444 172.0
136.974075 176.0
137.027924 176.0
137.066345 508.0
137.375015 92.0
137.508011 200.0
137.662094 168.0
137.867661 172.0
138.274582 248.0
138.468903 124.0
138.485291 184.0
138.639908 128.0
138.768829 48.0
138.930649 68.0
139.108292 200.0
139.334442 132.0
139.383774 88.0
139.713852 256.0
139.814102 140.0
140.04483 196.0
140.141418 156.0
140.759384 92.0
140.813705 220.0
140.849136 72.0
140.993256 144.0
141.066605 160.0
141.146896 180.0
141.163452 180.0
141.366882 52.0
141.463928 180.0
141.63678 60.0
141.669952 164.0
141.797897 188.0
141.959335 200.0
142.067856 984.0
142.229553 132.0
142.395752 72.0
142.452225 160.0
142.533539 136.0
142.785522 128.0
142.902069 172.0
142.94252 216.0
142.963943 144.0
143.082581 508.0
143.123428 76.0
143.275848 156.0
143.470383 216.0
143.604797 112.0
144.058563 148.0
144.081696 360.0
144.180161 188.0
144.349884 144.0
144.447937 104.0
144.711182 196.0
144.737518 160.0
144.916855 192.0
145.036209 188.0
145.063812 492.0
145.100571 264.0
145.130478 156.0
145.226395 112.0
145.243179 96.0
145.29451 352.0
145.322342 228.0
145.459991 220.0
145.511948 144.0
145.566788 176.0
145.728104 216.0
145.813141 124.0
145.841049 156.0
145.932404 132.0
145.980484 176.0
146.000488 156.0
146.061295 25432.0
146.122452 88.0
146.153671 44.0
146.175537 48.0
146.654953 280.0
146.931335 84.0
147.013916 156.0
147.064163 3544.0
147.185303 40.0
147.214279 60.0
147.335037 72.0
147.554962 144.0
147.576721 60.0
147.687958 76.0
147.864838 144.0
147.951706 104.0
148.019501 108.0
148.048203 184.0
148.05275 132.0
148.076004 1600.0
148.178284 172.0
148.201172 64.0
148.23024 44.0
148.283554 44.0
148.363541 92.0
148.414459 44.0
148.564819 148.0
148.717697 56.0
148.775955 56.0
148.849716 156.0
149.059433 332.0
149.079651 196.0
149.095062 260.0
149.135452 148.0
149.202713 184.0
149.278885 140.0
149.315353 116.0
149.37616 220.0
149.44429 164.0
149.500244 48.0
149.561096 184.0
149.646286 128.0
150.019028 220.0
150.067795 244.0
150.328781 116.0
150.480118 124.0
150.592438 156.0
151.032379 184.0
151.051956 180.0
151.071518 220.0
151.2061 84.0
151.311356 48.0
151.401947 48.0
152.078598 128.0
152.162064 216.0
152.240631 120.0
152.392929 152.0
152.542831 92.0
153.063126 116.0
153.522736 80.0
153.717621 48.0
153.952118 108.0
154.064117 264.0
154.082382 136.0
154.113968 168.0
154.24118 104.0
154.300507 168.0
154.374695 72.0
154.46373 204.0
155.005905 184.0
155.061661 600.0
155.089844 156.0
155.108459 220.0
155.142227 108.0
155.420212 220.0
155.80481 172.0
156.045807 188.0
156.092026 108.0
156.098831 216.0
156.399124 184.0
156.625702 52.0
156.725357 48.0
156.897324 192.0
157.002045 180.0
157.021988 48.0
157.058929 184.0
157.099365 696.0
157.124268 148.0
157.234055 212.0
157.37384 164.0
157.398804 56.0
157.471222 240.0
157.55365 176.0
157.904785 176.0
157.953613 124.0
158.060699 5064.0
158.476837 64.0
158.504395 36.0
158.557022 96.0
158.577072 180.0
158.614655 136.0
158.827789 180.0
158.910568 68.0
158.950714 188.0
159.015961 60.0
159.068512 2788.0
159.174118 48.0
159.35611 148.0
159.430344 128.0
159.611328 136.0
159.734558 72.0
159.954941 324.0
160.040466 316.0
160.076416 9328.0
160.134766 32.0
160.156281 132.0
160.17627 100.0
160.202774 140.0
160.280869 60.0
160.366547 136.0
160.391754 56.0
160.439651 96.0
160.462341 152.0
160.507416 64.0
160.590942 116.0
160.855881 116.0
160.87355 184.0
160.929092 188.0
161.061508 1384.0
161.077408 1120.0
161.161453 104.0
161.383865 44.0
161.682358 160.0
161.746567 184.0
161.986176 168.0
162.055237 5944.0
162.187378 60.0
162.206635 112.0
162.245178 116.0
162.272552 52.0
162.371445 200.0
162.424698 60.0
162.46373 156.0
162.473404 60.0
162.482132 168.0
162.57692 60.0
162.790405 124.0
162.866348 128.0
162.911743 184.0
163.056458 696.0
163.08139 164.0
163.467438 64.0
163.580856 92.0
163.601227 188.0
163.741257 76.0
163.845703 164.0
164.063202 272.0
164.161743 108.0
164.319885 136.0
164.383682 100.0
164.771774 196.0
165.093826 168.0
165.549332 152.0
166.19014 92.0
166.387772 136.0
166.837341 192.0
167.220596 108.0
167.382782 232.0
167.795013 120.0
168.065826 200.0
168.347183 152.0
168.584839 112.0
169.050308 200.0
169.076904 304.0
169.120178 112.0
169.164185 220.0
169.516418 148.0
169.944244 76.0
170.027283 148.0
170.060089 1624.0
170.292099 148.0
170.783325 168.0
170.905594 32.0
171.075089 480.0
171.212753 180.0
171.379456 144.0
171.408112 184.0
172.075439 1996.0
172.209 68.0
172.31871 80.0
172.619293 112.0
172.736984 80.0
172.831161 136.0
173.014374 48.0
173.071609 1700.0
173.284119 48.0
173.433487 48.0
173.457077 100.0
173.533096 176.0
173.682571 96.0
173.979095 44.0
174.078659 5372.0
174.112869 160.0
174.149765 96.0
174.286362 96.0
174.367828 88.0
174.465088 60.0
174.667557 48.0
174.69603 200.0
174.732803 80.0
174.770157 160.0
174.864899 80.0
174.972824 180.0
175.084488 5204.0
175.113159 748.0
175.145294 104.0
175.204559 48.0
175.241455 40.0
175.299423 56.0
175.383759 48.0
175.455246 96.0
175.473373 220.0
175.681061 64.0
175.731842 68.0
175.771423 48.0
175.882263 104.0
176.011627 144.0
176.043304 140.0
176.087555 1004.0
176.116562 228.0
176.204422 36.0
176.259659 84.0
176.31012 92.0
176.435898 132.0
176.53746 36.0
176.563904 160.0
176.630035 64.0
177.055466 1300.0
177.086014 304.0
177.149872 76.0
177.281326 52.0
177.367783 180.0
177.456268 220.0
177.477478 104.0
178.09314 144.0
179.069229 156.0
179.54361 188.0
179.76561 184.0
180.060013 152.0
180.304459 48.0
180.900909 176.0
181.067917 172.0
181.565384 84.0
181.705612 216.0
181.763885 68.0
182.061859 220.0
182.295563 72.0
182.626236 64.0
183.051453 160.0
183.482544 184.0
183.852066 92.0
183.95462 80.0
184.067535 268.0
184.092316 116.0
184.392181 120.0
185.045273 128.0
185.073059 332.0
185.103134 224.0
185.179474 148.0
185.420593 216.0
185.455826 132.0
185.566971 52.0
185.925018 172.0
185.949448 52.0
186.006439 252.0
186.055862 7572.0
186.111862 248.0
186.196503 76.0
186.465454 176.0
186.721008 104.0
187.060287 1472.0
187.085663 4236.0
187.16185 68.0
187.611389 132.0
187.769531 96.0
187.870453 88.0
187.903183 44.0
187.946838 64.0
188.085373 1604.0
188.208862 120.0
188.432831 140.0
188.517532 140.0
188.648727 140.0
188.829178 192.0
189.056046 604.0
189.090622 1628.0
189.316315 48.0
189.801331 96.0
190.06044 1288.0
190.101196 392.0
190.179901 48.0
190.34462 140.0
190.986679 240.0
191.070389 192.0
191.108902 196.0
191.673172 112.0
192.073807 236.0
192.348846 68.0
192.642776 132.0
192.887482 200.0
193.042313 188.0
193.081024 148.0
193.612366 56.0
193.989182 256.0
194.077896 228.0
194.383011 76.0
194.88002 44.0
195.979034 84.0
196.026398 192.0
196.076553 148.0
196.52272 124.0
196.732025 44.0
196.913513 128.0
197.070404 632.0
197.433334 124.0
197.466888 140.0
197.50325 124.0
197.668304 244.0
198.052841 704.0
198.075714 740.0
198.194717 184.0
198.242355 76.0
198.466599 52.0
198.573151 124.0
198.62645 112.0
198.688156 140.0
198.932312 116.0
198.974411 140.0
199.063812 1356.0
199.085419 1824.0
199.170975 72.0
199.688141 124.0
199.735947 72.0
200.074982 676.0
200.106842 212.0
200.217224 36.0
200.617325 120.0
201.024902 124.0
201.060059 1096.0
201.091339 380.0
201.17305 84.0
201.269043 36.0
201.582581 56.0
201.862427 104.0
201.916153 48.0
202.06929 384.0
202.100021 360.0
202.128311 140.0
202.286804 116.0
202.547302 40.0
202.603958 120.0
202.645508 120.0
202.728638 104.0
202.771133 52.0
202.843414 160.0
203.068756 3440.0
203.106628 1924.0
203.193634 44.0
203.318481 60.0
203.346863 52.0
203.443375 200.0
203.469437 156.0
203.579651 80.0
203.619415 136.0
203.679062 64.0
203.761444 76.0
203.900665 60.0
203.991623 176.0
204.065475 8016.0
204.104599 444.0
204.196335 60.0
204.23616 60.0
204.312958 152.0
204.384094 112.0
204.432465 32.0
204.529221 164.0
205.068558 876.0
205.110291 52.0
205.158752 112.0
205.344086 76.0
205.706451 48.0
205.943451 52.0
206.066284 200.0
206.543671 108.0
208.657104 124.0
209.771179 148.0
209.83461 80.0
210.633957 80.0
212.10968 136.0
213.061218 168.0
213.097839 124.0
213.779648 168.0
213.896057 28.0
214.018326 108.0
214.061096 260.0
214.09404 164.0
214.965652 240.0
215.047363 152.0
215.079071 1812.0
215.116501 152.0
215.222519 56.0
215.523361 136.0
215.631485 164.0
215.684097 124.0
216.087585 2560.0
216.146164 40.0
216.245651 188.0
216.324692 68.0
216.345184 56.0
216.374451 56.0
216.94278 120.0
217.054779 412.0
217.090134 744.0
217.359238 52.0
217.420868 60.0
217.608719 108.0
217.849533 80.0
217.873047 144.0
218.059998 256.0
218.072708 160.0
218.089142 688.0
218.122818 168.0
218.40509 184.0
218.858292 184.0
219.032043 152.0
219.102112 3724.0
219.241226 92.0
219.425217 76.0
219.630386 104.0
220.107162 528.0
220.332947 88.0
220.394989 60.0
221.075089 116.0
221.100082 284.0
221.228989 36.0
221.415527 144.0
221.471802 52.0
221.634735 56.0
222.037872 68.0
222.931442 36.0
223.645203 108.0
224.106781 132.0
225.067184 168.0
225.437576 84.0
227.072128 180.0
228.092972 164.0
228.459824 84.0
229.071533 176.0
229.112457 192.0
229.161285 68.0
230.008682 116.0
230.115463 172.0
230.881836 104.0
231.068024 184.0
231.101669 3884.0
231.148041 140.0
231.329636 44.0
231.615875 60.0
231.817245 72.0
232.041473 188.0
232.052612 184.0
232.064224 180.0
232.101135 492.0
232.29628 120.0
232.723434 148.0
233.094147 784.0
233.18895 108.0
234.102875 164.0
234.232574 116.0
235.69693 60.0
236.051514 208.0
236.146317 60.0
237.009583 172.0
238.08934 72.0
238.116974 140.0
239.088455 152.0
240.068085 68.0
241.058975 204.0
241.094193 172.0
241.133148 76.0
242.10289 160.0
243.077927 200.0
243.189636 32.0
244.065674 152.0
244.089172 136.0
245.069275 196.0
246.109634 132.0
246.309494 84.0
247.059814 132.0
247.092773 156.0
247.441528 84.0
248.084274 212.0
248.82724 64.0
249.068024 204.0
249.788849 44.0
250.074615 428.0
250.122391 92.0
250.175369 120.0
251.077133 112.0
251.351471 56.0
252.076843 72.0
252.103012 204.0
253.967728 160.0
254.183456 188.0
255.069519 92.0
255.101242 204.0
256.591156 80.0
257.506958 132.0
258.07254 164.0
258.101562 168.0
258.488373 236.0
259.101227 616.0
259.292145 52.0
259.474854 52.0
259.766693 56.0
260.099365 368.0
260.527466 112.0
260.95813 120.0
261.078766 320.0
262.104828 132.0
265.1091 168.0
266.79364 76.0
266.969208 88.0
268.098816 72.0
268.643311 132.0
269.113251 176.0
270.708893 208.0
272.129974 288.0
276.121674 712.0
276.198517 80.0
276.347382 92.0
276.390381 76.0
277.112671 148.0
278.123596 124.0
278.17337 60.0
279.103607 108.0
283.104492 148.0
285.053467 200.0
285.108551 184.0
285.776367 48.0
286.112946 88.0
287.107117 128.0
287.184479 160.0
288.119507 92.0
288.99176 160.0
289.746735 144.0
292.082245 64.0
293.522797 92.0
294.686707 80.0
296.054901 168.0
297.313019 88.0
297.673462 132.0
298.529114 124.0
298.896454 96.0
299.296448 152.0
300.092346 92.0
301.507599 52.0
302.112671 168.0
302.14035 236.0
303.140961 140.0
303.57428 32.0
307.114655 172.0
308.089478 160.0
312.073303 116.0
315.432953 88.0
316.094299 120.0
316.820099 164.0
318.114441 160.0
321.124634 112.0
326.101257 168.0
326.126404 60.0
328.131439 208.0
329.95462 220.0
334.127533 332.0
335.130066 40.0
336.151001 92.0
337.348938 116.0
339.139771 224.0
341.098907 168.0
342.158356 120.0
344.090149 164.0
344.127075 132.0
345.143372 128.0
346.111816 140.0
347.16864 80.0
348.129761 148.0
349.088501 48.0
350.190063 88.0
352.129425 108.0
353.086182 188.0
353.127319 48.0
353.623962 60.0
354.137848 52.0
356.095612 152.0
359.083893 144.0
359.14801 76.0
361.1763 124.0
362.872803 64.0
364.368103 56.0
365.664764 108.0
369.163025 148.0
370.08902 152.0
370.146454 208.0
372.17865 248.0
373.122131 152.0
374.124023 172.0
375.156403 152.0
375.692444 48.0
376.155029 264.0
377.1474 136.0
380.149628 128.0
381.132019 144.0
382.979858 128.0
384.118011 128.0
386.121674 124.0
387.164825 372.0
388.149384 164.0
388.157379 132.0
388.330536 40.0
389.170898 184.0
390.105316 168.0
391.04538 64.0
391.128998 228.0
391.163452 268.0
392.128387 140.0
392.159973 168.0
397.181396 168.0
397.883759 128.0
398.132874 232.0
398.13916 88.0
399.14325 132.0
401.165741 120.0
405.177673 424.0
406.15979 176.0
408.389252 84.0
408.972656 52.0
409.069244 64.0
411.181274 132.0
415.166992 336.0
416.166199 416.0
417.184021 144.0
417.789917 136.0
422.012177 68.0
426.047821 60.0
430.281372 56.0
431.057861 92.0
431.917786 72.0
433.174042 2868.0
434.180511 1320.0
435.179718 224.0
435.228973 68.0
436.18866 164.0
436.454712 68.0
436.820679 92.0
437.390747 88.0
437.511475 80.0
441.809845 112.0
443.174652 104.0
444.167114 136.0
444.247894 156.0
445.137665 148.0
449.177917 116.0
451.19223 108.0
452.182007 116.0
460.933777 100.0
461.163452 140.0
466.114258 100.0
471.362579 88.0
476.292694 132.0
478.188385 136.0
479.18396 300.0
480.194885 268.0
481.183014 132.0
481.261597 152.0
482.261963 164.0
506.206177 96.0
507.411438 92.0
517.979004 100.0
527.900696 68.0
532.240051 44.0
538.059631 96.0
540.791504 144.0
573.989624 84.0
612.217834 64.0
625.190491 20.0
638.384583 104.0
640.065247 92.0
643.105103 56.0
655.346741 36.0
689.739502 56.0
767.949158 84.0
805.702515 108.0
807.075928 132.0
825.991089 188.0
839.320557 236.0
862.911133 108.0
867.178467 188.0
878.137512 92.0
879.866394 28.0
891.772644 96.0
897.153564 68.0
905.153503 92.0
929.463501 128.0
937.459656 88.0
939.337463 72.0
953.376465 136.0
955.891541 60.0
966.139587 132.0
978.63269 196.0
989.959473 212.0
990.097229 44.0
991.162109 168.0
1011.371277 136.0
1023.814941 56.0
1029.592651 168.0
1032.231812 136.0
1045.986938 132.0
1083.247437 128.0
1089.236206 272.0
1095.327148 48.0
1097.468994 164.0
1106.473999 224.0
1109.945801 20.0
1112.732422 104.0
1116.894165 220.0
1117.644043 232.0
1118.54248 128.0
1119.075073 220.0
1126.844971 192.0
1127.573364 148.0
1129.444702 212.0
1130.060791 88.0
1130.515869 192.0
1139.473755 116.0
1140.212891 188.0
1142.485596 204.0
1143.501587 132.0
1144.821167 204.0
1145.898804 244.0
1151.058594 152.0
1156.358521 136.0
1159.419678 152.0
1164.297363 180.0
1165.499634 152.0
1166.825073 124.0
1166.879395 136.0
1171.289062 176.0
1174.164673 212.0
1174.45166 132.0
1175.272827 112.0
1175.427246 68.0
1182.370117 192.0
1182.76709 160.0
1187.57019 164.0
1195.429443 132.0
1202.921021 64.0
1215.4198 88.0
1223.690796 132.0
1232.926025 160.0
1233.806763 176.0
1234.310181 188.0
1234.519897 140.0
1234.631836 116.0
1241.200195 84.0
1241.487671 252.0
1244.055542 180.0
1244.75769 52.0
1245.207153 92.0
1250.747437 68.0
1264.553101 176.0
1264.885742 180.0
1268.512451 204.0
1268.845581 204.0
1278.107056 68.0
1281.766968 164.0
1283.934082 128.0
1288.016479 152.0
1293.830078 36.0
1295.778076 196.0
1297.182617 156.0
1297.541138 32.0
1300.309814 132.0
1305.626099 184.0
1314.306274 208.0
1319.26062 228.0
1321.184204 52.0
1323.369873 124.0
1324.405396 84.0
1324.658936 180.0
1325.35437 164.0
1327.369385 132.0
1330.068237 204.0
1331.956055 188.0
1340.832397 132.0
1344.252563 176.0
1344.996948 196.0
1346.179688 176.0
1359.898926 160.0
1363.071411 152.0
1363.166992 172.0
1363.990112 164.0
1366.872925 148.0
1369.751587 60.0
1372.456177 80.0
1373.237915 152.0
1375.96814 172.0
1376.33728 200.0
1379.565796 120.0
1382.146851 212.0
1387.064331 96.0
1392.554932 112.0
1392.993164 188.0
1398.81543 240.0
1401.205933 220.0
1401.466675 120.0
1401.533691 64.0
1402.450317 172.0
1402.644165 188.0
1403.352295 160.0
1404.202393 156.0
1405.963013 128.0
1406.702026 208.0
1407.269287 88.0
1408.001099 164.0
1409.786621 208.0
1413.907104 192.0
1414.056763 224.0
1414.288818 196.0
1415.890991 268.0
1419.93042 144.0
1420.350464 140.0
1421.048096 136.0
1421.738403 72.0
1422.211182 96.0
1422.811768 176.0
1428.936768 196.0
1430.727905 184.0
1430.923584 192.0
1433.537231 88.0
1433.808472 204.0
1436.749146 156.0
1438.401733 192.0
1439.330322 180.0
1441.724976 176.0
1442.306885 172.0
1442.556274 252.0
1443.025024 140.0
1444.817383 152.0
1445.581543 204.0
1451.489868 136.0
1454.19812 64.0
1458.223389 76.0
1459.34082 212.0
1459.696533 92.0
1459.827515 152.0
1462.255371 136.0
1464.210815 164.0
1467.291016 84.0
1468.860107 164.0
1470.088501 280.0
1470.302124 108.0
1472.096069 204.0
1475.175049 220.0
1475.595581 172.0
1478.081299 200.0
1479.657959 108.0
1483.810303 240.0
1484.277954 44.0
1484.983521 164.0
1485.351685 140.0
1489.281494 128.0
1491.263794 144.0
1493.255005 60.0
1496.779541 172.0
1497.919312 132.0
1499.622192 136.0
1502.845581 260.0
