>compound Tebipenem pivoxil (L-084)
>formula C22H31N3O6S2
>ionization [M+H]+
>parentmass 498.172791
#inchi InChI=1S/C22H31N3O6S2/c1-11-15-14(12(2)26)18(27)25(15)16(19(28)30-10-31-20(29)22(3,4)5)17(11)33-13-8-24(9-13)21-23-6-7-32-21/h11-15,26H,6-10H2,1-5H3/t11-,12+,14+,15-/m0/s1
#inchikey SNUDIPVBUUXCDG
#Ion_Source LC-ESI
#Instrument qTof
#Compound_Source Commercial
#PI Dorrestein
#Data_Collector Garg_Neha
#Scan -1
#Precursor_MZ 498.173
#ExactMass 497.165
#Charge 1
#CAS_Number 161715-24-8, 211558-19-9 (HCL)
#Pubmed_ID N/A
#Smiles [C@]1(C(N2[C@]1([C@@H](C(=C2C(OCOC(C(C)(C)C)=O)=O)SC3CN(C3)C4SCCN=4)C)[H])=O)([C@@H](C)O)[H]
#INCHI_AUX N/A
#Library_Class 1
#SpectrumID CCMSLIB00000078456
#IonMode Positive
#UpdateWorkflowName UPDATE-SINGLE-ANNOTATED-GOLD
#LibraryQualityString Gold
#TaskID 77f51c88eb8b467eb4a01dd2d0cb90d2
##Scan# 1105
#SpectrumFile Plate7_21_40_GD3_01_15768.mzXML
#LibraryName FDALibrary_2_04302014.mgf
#MQScore -1
#Organism FDALibrary_2_04302014
#TIC_Query 0
#RT_Query -1
#MZErrorPPM -1
#SharedPeaks 0
#MassDiff 0
#LibMZ -1
#SpecMZ 498.173
#SpecCharge 0
#internalFilename spec-00000.mgf

>collision 10
46.922413 176.0
50.592247 184.0
51.191444 144.0
52.580673 212.0
53.492409 164.0
54.78701 164.0
60.052322 164.0
62.903351 184.0
66.143852 172.0
66.980125 152.0
79.796936 148.0
81.525497 156.0
82.018654 148.0
85.216309 156.0
85.716805 160.0
91.528282 156.0
94.656479 236.0
96.853394 180.0
100.07254 140.0
103.031845 312.0
104.677933 196.0
104.893898 144.0
105.030571 164.0
108.048363 188.0
111.077484 156.0
111.281052 140.0
112.021126 180.0
113.019981 144.0
114.033318 204.0
114.857697 192.0
115.031303 312.0
115.757484 172.0
117.101845 136.0
119.068214 208.0
120.082153 200.0
126.037727 160.0
127.035118 556.0
128.111908 220.0
129.014618 156.0
135.091309 192.0
137.996384 176.0
138.026123 156.0
139.032822 448.0
139.057327 152.0
140.01535 776.0
141.02623 328.0
141.047073 3616.0
142.056076 1764.0
142.177475 156.0
143.061996 560.0
144.067108 288.0
150.037231 408.0
152.015869 160.0
152.052582 1424.0
153.055328 416.0
154.026031 220.0
154.050812 168.0
154.071396 148.0
154.120819 160.0
154.372955 164.0
155.043854 264.0
161.089264 156.0
161.119583 168.0
165.052231 208.0
165.076813 104.0
166.07605 216.0
167.021301 152.0
168.046051 268.0
169.043182 304.0
169.971741 176.0
170.023544 352.0
171.01387 172.0
172.02005 208.0
172.087921 156.0
173.019394 712.0
174.046188 316.0
175.031723 220.0
176.978622 140.0
178.030975 108.0
179.034485 204.0
179.068893 156.0
180.014023 112.0
181.042267 140.0
187.009125 208.0
187.095306 168.0
189.792953 148.0
191.026123 164.0
192.05452 216.0
192.081161 148.0
192.743774 164.0
195.032974 160.0
195.059204 188.0
196.042709 1328.0
196.098358 116.0
197.042068 236.0
198.015686 188.0
198.060196 300.0
200.837646 160.0
207.073868 236.0
207.391907 148.0
211.033646 180.0
213.033417 152.0
216.976212 164.0
220.056198 176.0
227.061829 160.0
228.136795 156.0
234.154938 172.0
242.050095 144.0
249.049866 156.0
250.101013 148.0
253.054947 184.0
254.077606 1968.0
254.751694 152.0
255.083908 236.0
256.069366 240.0
257.673126 160.0
259.50708 176.0
260.074921 200.0
260.775116 144.0
262.871704 156.0
267.627045 184.0
269.077972 168.0
269.153046 144.0
270.069794 1388.0
270.745636 156.0
271.078766 116.0
272.069885 236.0
277.573914 192.0
279.061798 152.0
279.783447 160.0
280.056915 7028.0
280.683044 180.0
281.059875 1180.0
282.059509 604.0
283.056244 180.0
283.910126 172.0
287.979156 228.0
291.536591 172.0
295.071381 180.0
295.097382 196.0
296.187012 180.0
297.867828 168.0
297.96402 164.0
298.066895 7408.0
299.069794 1240.0
300.05957 968.0
301.072205 144.0
303.188324 148.0
306.071625 156.0
306.625519 176.0
310.068085 148.0
311.201172 184.0
322.108459 100.0
324.446289 156.0
325.106293 140.0
338.101379 176.0
338.147369 196.0
340.118225 188.0
342.118469 152.0
344.227478 204.0
356.092743 144.0
358.096222 120.0
366.094635 748.0
367.09549 188.0
372.591705 148.0
373.141296 216.0
379.531433 144.0
380.180817 120.0
382.12793 1172.0
383.124084 148.0
384.106628 3096.0
385.113007 748.0
386.099915 312.0
387.110657 144.0
397.577515 180.0
407.339996 144.0
412.132202 244.0
413.134369 316.0
423.845245 152.0
424.130646 156.0
424.170715 820.0
425.184631 264.0
426.133179 172.0
426.169891 200.0
428.17514 164.0
440.17099 416.0
444.09848 192.0
444.631317 152.0
450.169586 220.0
454.175629 148.0
459.036591 172.0
468.163971 1208.0
469.171814 288.0
470.158356 272.0
471.162384 216.0
474.993591 144.0
475.275604 144.0
479.746674 160.0
482.34845 156.0
491.353027 460.0
491.871948 192.0
493.493286 172.0
493.855438 108.0
496.55899 152.0
498.172791 23412.0
498.38501 128.0
498.705109 108.0
499.008972 176.0
499.175995 8904.0
500.173676 3760.0
500.288269 124.0
500.360687 456.0
500.742035 140.0
500.872711 176.0
501.17392 504.0
501.364868 244.0
502.167511 352.0
625.298523 160.0
786.010193 140.0
867.601318 136.0
883.614197 168.0
886.655762 192.0
1174.872192 208.0
1195.599976 196.0
1417.084106 192.0
1550.491333 168.0
1667.2052 176.0
1688.868164 176.0
1695.92627 140.0
1718.261353 156.0
1733.434082 252.0
1775.568237 180.0
1812.102783 180.0
1854.808105 144.0
1920.68396 264.0
