>compound Benzeneacetonitrile, Alpha-[3-[[2-(3,4-dimethoxyphenyl)ethyl]methylamino]propyl]-3,4-dimethoxy-Alpha-(1-methylethyl)-, (R)- [CAS]
>formula C27H38N2O4
>ionization [M+H]+
>parentmass 455.2904341480905
#inchi InChI=1S/C27H38N2O4/c1-20(2)27(19-28,22-10-12-24(31-5)26(18-22)33-7)14-8-15-29(3)16-13-21-9-11-23(30-4)25(17-21)32-6/h9-12,17-18,20H,8,13-16H2,1-7H3
#inchikey SGTNSNPWRIOYBX
#Ion_Source LC-ESI
#Instrument qTof
#Compound_Source Commercial
#PI Dorrestein
#Data_Collector Garg_Neha
#Scan -1
#Precursor_MZ 455.29
#ExactMass 454.283
#Charge 1
#CAS_Number N/A
#Pubmed_ID N/A
#Smiles COc1ccc(CCN(C)CCCC(C#N)(C(C)C)c2ccc(OC)c(OC)c2)cc1OC
#INCHI_AUX N/A
#Library_Class 1
#SpectrumID CCMSLIB00000079176
#IonMode Positive
#UpdateWorkflowName UPDATE-SINGLE-ANNOTATED-GOLD
#LibraryQualityString Gold
#TaskID 278b19f5865741e282cec7349aa7e7a1
##Scan# 1190
#SpectrumFile NCP003592_C2_D11_BE1_01_15735.mzXML
#LibraryName NIHcollectionI_05062014.mgf
#MQScore -1
#Organism NIHcollectionI_05062014
#TIC_Query 0
#RT_Query -1
#MZErrorPPM -1
#SharedPeaks 0
#MassDiff 0
#LibMZ -1
#SpecMZ 455.29
#SpecCharge 0
#internalFilename spec-00000.mgf

>collision 10
45.298935 140.0
45.32037 208.0
46.391838 140.0
46.671516 152.0
47.07486 172.0
47.092613 184.0
50.2183 144.0
50.720642 176.0
50.77594 140.0
51.651901 168.0
52.162384 176.0
52.267372 140.0
52.620502 152.0
54.636173 228.0
55.28392 148.0
55.556549 152.0
56.743172 220.0
57.123638 164.0
58.909416 164.0
60.232025 144.0
60.487164 144.0
60.915146 192.0
61.019268 156.0
61.674 208.0
61.954098 200.0
64.321472 160.0
66.439262 196.0
67.671379 156.0
68.153595 216.0
69.280449 200.0
69.77755 184.0
69.798279 140.0
71.198662 228.0
71.423874 184.0
72.702866 152.0
73.873413 152.0
75.761917 144.0
77.180382 164.0
77.327324 148.0
78.229538 180.0
79.090958 156.0
80.300941 140.0
80.801102 160.0
82.534958 184.0
82.676056 160.0
85.326462 200.0
86.067131 192.0
86.129921 236.0
86.438667 172.0
89.481171 180.0
91.056618 188.0
91.472733 156.0
91.758492 196.0
92.067604 172.0
92.119171 148.0
93.071014 176.0
94.67733 144.0
94.799377 148.0
95.301941 140.0
95.537186 248.0
95.727928 164.0
96.079689 144.0
96.096329 288.0
96.531906 152.0
96.65905 180.0
96.715805 204.0
97.019432 188.0
97.738266 164.0
97.767784 152.0
98.368927 184.0
98.975876 148.0
99.336578 192.0
100.893875 176.0
101.009857 188.0
102.695091 212.0
102.911018 176.0
103.053902 436.0
103.072601 180.0
103.347595 144.0
103.600662 192.0
104.058998 192.0
104.262131 144.0
104.931816 152.0
105.029701 204.0
105.070267 1364.0
105.13987 172.0
105.253479 172.0
105.320877 104.0
106.072563 276.0
106.854958 140.0
106.920807 148.0
107.048676 320.0
107.221481 140.0
108.055656 164.0
109.065384 224.0
109.89444 164.0
110.096359 164.0
112.013947 172.0
115.052826 160.0
115.21727 144.0
116.017654 176.0
116.421028 220.0
117.605148 180.0
118.039383 272.0
119.04808 132.0
119.581833 196.0
120.055969 256.0
120.630997 156.0
121.026978 184.0
121.06546 820.0
121.164963 144.0
121.599129 180.0
121.983513 176.0
122.066254 196.0
122.096878 800.0
122.333275 188.0
123.043884 188.0
123.102753 152.0
123.118645 184.0
124.053001 220.0
124.431267 204.0
125.089302 152.0
126.49337 148.0
126.636673 208.0
127.091751 208.0
127.278046 196.0
127.975075 164.0
128.078659 144.0
128.123718 196.0
128.624329 180.0
129.243561 160.0
130.213791 196.0
130.877808 188.0
131.048737 700.0
132.0578 156.0
133.030594 208.0
133.065155 2420.0
133.859161 192.0
134.072845 2428.0
134.408936 168.0
134.583176 140.0
134.666 128.0
135.04512 1948.0
135.080978 2116.0
135.453476 176.0
135.990677 144.0
136.018524 152.0
136.051041 720.0
136.078888 424.0
136.557587 144.0
137.059677 604.0
137.090836 420.0
137.10936 200.0
137.942596 176.0
138.066101 572.0
138.379944 208.0
139.074188 1004.0
141.014725 176.0
141.154205 144.0
141.911896 156.0
141.987778 164.0
142.006744 176.0
142.569412 200.0
146.072845 468.0
146.510284 156.0
146.736832 140.0
146.845337 160.0
147.028702 188.0
147.610886 180.0
147.9254 172.0
148.827271 172.0
149.061081 548.0
149.092041 160.0
149.223297 140.0
149.607681 140.0
149.860291 156.0
150.067856 21388.0
150.377945 176.0
150.711639 148.0
151.036591 176.0
151.073166 5800.0
152.0811 1108.0
153.080475 200.0
153.871063 148.0
154.738846 144.0
155.105484 156.0
155.125305 144.0
157.119751 168.0
158.066681 140.0
158.457275 216.0
158.631516 124.0
159.249969 148.0
159.625916 148.0
159.732559 236.0
160.08403 184.0
161.064667 168.0
161.141785 196.0
162.075409 212.0
163.081589 164.0
163.286285 152.0
164.082764 332.0
164.113892 152.0
164.463379 156.0
164.741714 132.0
164.817017 152.0
164.994705 160.0
165.039673 232.0
165.091431 99604.0
165.162827 128.0
165.217239 404.0
165.279251 112.0
165.335907 140.0
165.39386 160.0
165.705719 108.0
165.862518 180.0
165.917145 196.0
166.041992 184.0
166.094803 8696.0
166.329559 96.0
166.718384 164.0
166.776276 104.0
166.839371 96.0
166.989685 152.0
167.037689 108.0
167.097702 696.0
167.259689 132.0
167.322906 144.0
168.425323 168.0
169.100143 172.0
170.362915 144.0
172.263824 152.0
173.536469 164.0
175.073059 308.0
176.082901 340.0
177.091248 3528.0
177.131836 176.0
178.092865 436.0
179.083389 200.0
179.107742 500.0
183.114288 140.0
185.092209 216.0
186.091492 160.0
187.09848 408.0
187.473358 176.0
188.086227 124.0
188.832932 204.0
189.112 156.0
189.577576 148.0
190.085968 244.0
191.109955 348.0
191.867172 156.0
194.112991 180.0
197.417709 192.0
197.521194 156.0
197.977402 168.0
198.955948 160.0
200.635452 200.0
200.903366 216.0
201.094437 172.0
202.097656 176.0
202.138046 148.0
202.763885 140.0
203.095535 428.0
204.104004 160.0
204.521973 152.0
205.125839 144.0
208.132675 312.0
211.100662 172.0
212.121857 300.0
214.122971 160.0
215.105545 388.0
216.103836 260.0
216.135941 152.0
217.109055 404.0
218.115952 1184.0
218.153732 140.0
218.200775 148.0
218.635681 112.0
218.924606 156.0
219.12056 268.0
219.764679 148.0
221.310501 196.0
223.144073 152.0
225.993347 256.0
228.122253 204.0
229.143417 464.0
229.630249 140.0
230.114227 140.0
231.125031 180.0
231.591782 172.0
232.128967 284.0
233.131851 180.0
233.153625 896.0
234.155106 588.0
234.688461 144.0
235.164337 192.0
236.166504 176.0
243.045746 152.0
243.133408 912.0
244.139755 148.0
245.138901 1276.0
246.139328 304.0
247.055496 168.0
247.290176 176.0
247.974228 128.0
249.816086 160.0
249.923065 176.0
251.04895 144.0
253.313736 176.0
258.153046 136.0
258.417023 144.0
258.887543 168.0
259.143799 140.0
259.93576 160.0
259.961853 96.0
260.164337 7588.0
260.831146 156.0
261.16217 3800.0
262.163727 1028.0
263.168488 320.0
264.197723 372.0
264.661194 148.0
265.740509 144.0
266.001678 152.0
266.282623 148.0
266.402802 168.0
266.919556 200.0
267.342438 140.0
268.400848 200.0
270.361084 164.0
275.133698 164.0
277.134613 164.0
280.324524 176.0
280.444489 232.0
280.507812 184.0
282.360901 168.0
284.606079 208.0
288.3284 148.0
289.192017 296.0
289.7099 148.0
290.25116 164.0
291.204773 288.0
291.5513 160.0
292.447113 160.0
293.67572 192.0
293.761017 160.0
295.681244 176.0
298.31546 160.0
299.725708 164.0
299.86438 212.0
300.343628 260.0
300.840515 152.0
300.926849 152.0
301.210022 148.0
302.132996 228.0
303.043518 172.0
303.20694 15076.0
304.209015 2976.0
305.210815 792.0
306.514648 216.0
306.946899 144.0
307.016632 140.0
311.641693 172.0
313.647461 152.0
315.687256 152.0
317.220306 100.0
321.552612 196.0
322.038147 144.0
322.202484 164.0
325.583801 144.0
328.748138 152.0
331.492828 164.0
332.308655 156.0
332.980194 184.0
335.341431 148.0
339.032623 188.0
339.175568 164.0
339.989807 148.0
342.360962 364.0
343.558868 156.0
346.253448 156.0
347.435852 148.0
348.880463 148.0
353.333313 144.0
360.567963 148.0
364.794159 144.0
367.147156 156.0
368.99527 140.0
372.429291 152.0
372.947479 176.0
376.345245 224.0
378.522156 188.0
382.945465 164.0
386.407928 188.0
388.009735 144.0
388.813843 176.0
390.491425 200.0
392.732483 164.0
394.378937 140.0
394.852539 152.0
397.035522 140.0
398.651245 236.0
399.30719 168.0
399.518005 144.0
401.95636 184.0
402.119965 156.0
406.120514 108.0
406.594391 212.0
408.309845 212.0
408.788574 140.0
409.444763 140.0
410.081299 168.0
411.808136 140.0
411.844482 156.0
413.093506 184.0
413.88269 180.0
415.215912 144.0
415.633728 164.0
419.660461 164.0
422.466187 184.0
423.071838 168.0
423.239685 148.0
423.964752 156.0
425.339355 128.0
428.287628 132.0
430.989014 204.0
431.059235 180.0
433.115387 152.0
433.202393 172.0
434.047852 156.0
434.885864 152.0
435.130768 164.0
435.915802 296.0
439.245575 168.0
439.462677 160.0
447.388641 148.0
449.99054 120.0
450.306519 176.0
450.522247 120.0
451.511017 120.0
451.870117 224.0
451.946716 196.0
452.097717 100.0
452.171539 224.0
452.269989 168.0
452.437256 204.0
452.532318 212.0
452.74649 124.0
452.850708 236.0
453.030548 168.0
453.062714 156.0
453.127991 172.0
453.271606 228.0
453.406921 164.0
453.46106 152.0
453.546875 188.0
453.638184 304.0
453.746338 108.0
453.788116 180.0
453.819672 172.0
453.873413 128.0
453.968292 152.0
454.065643 116.0
454.111298 132.0
454.167114 176.0
454.210541 252.0
454.251556 204.0
454.296204 152.0
454.36142 112.0
454.422821 140.0
454.489136 188.0
454.584869 160.0
454.638184 100.0
454.695068 132.0
454.772095 184.0
454.851318 300.0
454.89035 240.0
454.953125 256.0
454.991425 136.0
455.006134 212.0
455.089325 468.0
455.134735 292.0
455.162903 332.0
455.292877 205424.0
455.419525 208.0
455.500397 208.0
455.550018 176.0
455.589996 176.0
455.66394 328.0
455.690399 152.0
455.737946 408.0
455.790314 188.0
455.83374 140.0
455.897308 148.0
455.941528 120.0
455.991638 3348.0
456.040222 172.0
456.075958 304.0
456.147491 232.0
456.181488 132.0
456.22406 352.0
456.295074 87132.0
456.404053 392.0
456.517609 128.0
456.665222 200.0
456.712524 236.0
456.744385 348.0
456.871368 184.0
456.921051 192.0
457.005585 108.0
457.124878 168.0
457.23349 168.0
457.297852 13212.0
457.422974 128.0
457.648315 156.0
457.702942 152.0
457.845032 184.0
457.882721 120.0
457.930634 132.0
458.023468 96.0
458.208344 124.0
458.297577 1284.0
458.400177 140.0
458.533722 156.0
458.722656 264.0
458.801147 124.0
458.830597 172.0
458.934082 168.0
459.038177 156.0
459.068726 168.0
459.105988 216.0
459.221497 144.0
459.269073 324.0
459.317963 324.0
459.384125 96.0
459.555908 108.0
459.741333 96.0
459.773376 188.0
459.877869 140.0
459.955383 152.0
460.073883 136.0
460.14035 152.0
460.325989 132.0
460.405914 144.0
460.666473 160.0
460.796021 184.0
461.201324 140.0
461.259735 124.0
462.582184 160.0
470.037628 120.0
470.185638 160.0
470.850494 176.0
471.023254 148.0
477.055206 256.0
497.580963 156.0
625.206055 128.0
703.634827 140.0
725.571655 140.0
809.727478 108.0
827.189514 144.0
921.584167 144.0
1120.028198 208.0
1139.965454 176.0
1178.556274 180.0
1204.711792 180.0
1211.359619 224.0
1253.532349 208.0
1265.887207 148.0
1345.855713 200.0
1387.759155 184.0
1462.291382 140.0
1530.057007 292.0
1541.209961 164.0
1556.13855 148.0
1557.449951 188.0
1563.818604 204.0
1573.443481 232.0
1576.737305 144.0
1606.736328 156.0
1629.02356 168.0
1633.002319 228.0
1640.724487 172.0
1640.958252 160.0
1643.773193 168.0
1666.241821 164.0
1672.356934 192.0
1691.293091 164.0
1704.357056 172.0
1705.491089 168.0
1726.424072 140.0
1742.421387 172.0
1744.598755 144.0
1766.706421 196.0
1786.958618 144.0
1806.141968 164.0
1817.859009 156.0
1840.339233 148.0
1866.068604 168.0
1868.390625 148.0
1872.986084 120.0
1878.607788 176.0
1902.231812 240.0
1903.586182 140.0
1924.405396 156.0
1930.740601 140.0
1932.463745 220.0
1933.723877 176.0
1933.811401 180.0
1942.880615 156.0
1945.135986 148.0
1945.513428 160.0
1947.453979 208.0
1983.259033 168.0
1994.327148 232.0
