>compound MLS000563030-01![5-hydroxy-6-[2-(3-hydroxy-4-methoxyphenyl)ethoxy]-2-(hydroxymethyl)-4-[(2R,3R,4R,5R,6S)-3,4,5-trihydroxy-6-methyloxan-2-yl]oxyoxan-3-yl] (E)-3-(4-hydroxy-3-methoxyphenyl)prop-2-enoate
>formula C31H40O15
>ionization [M+Na]+
>parentmass 675.2259412800905
#inchi InChI=1S/C31H40O15/c1-15-24(36)25(37)26(38)31(43-15)46-29-27(39)30(42-11-10-17-5-8-20(40-2)19(34)12-17)44-22(14-32)28(29)45-23(35)9-6-16-4-7-18(33)21(13-16)41-3/h4-9,12-13,15,22,24-34,36-39H,10-11,14H2,1-3H3/b9-6+/t15-,22?,24-,25+,26+,27?,28?,29?,30?,31+/m0/s1
#inchikey WLWAYPFRKDSFCL
#Ion_Source LC-ESI
#Instrument qTof
#Compound_Source NIH Natural Product Library
#PI Dorrestein
#Data_Collector VVP/LMS
#Scan -1
#Precursor_MZ 675.226
#ExactMass 652.237
#Charge 1
#CAS_Number N/A
#Pubmed_ID N/A
#Smiles COc1ccc(CCOC2OC(CO)C(OC(=O)/C=C/c3ccc(O)c(OC)c3)C(O[C@H]4O[C@@H](C)[C@H](O)[C@@H](O)[C@H]4O)C2O)cc1O
#INCHI_AUX N/A
#Library_Class 1
#SpectrumID CCMSLIB00000079886
#IonMode Positive
#UpdateWorkflowName UPDATE-SINGLE-ANNOTATED-GOLD
#LibraryQualityString Gold
#TaskID b1d8e8f6646f4e71acdff9ca3d919d08
##Scan# 1668
#SpectrumFile p1-D12_GD12_01_17920.mzXML
#LibraryName NIH_Natural_Products_Library.mgf
#MQScore -1
#Organism NIH_Natural_Products_Library
#TIC_Query 0
#RT_Query -1
#MZErrorPPM -1
#SharedPeaks 0
#MassDiff 0
#LibMZ -1
#SpecMZ 675.226
#SpecCharge 0
#internalFilename spec-00000.mgf

>collision 10
96.113235 20.0
96.744507 164.0
97.02755 172.0
97.33857 68.0
113.098328 176.0
120.057877 128.0
121.695366 156.0
125.001343 168.0
138.563705 160.0
145.028564 116.0
146.812469 60.0
151.073654 288.0
160.481293 68.0
163.083633 192.0
164.336517 128.0
166.047836 92.0
167.072708 184.0
169.049088 152.0
170.615677 172.0
175.03479 140.0
175.079559 88.0
177.056595 516.0
178.064301 224.0
181.475677 68.0
182.412613 120.0
185.048294 372.0
186.298508 108.0
186.782364 60.0
191.077255 208.0
197.057571 116.0
201.01944 120.0
202.384689 132.0
206.050797 144.0
208.110046 112.0
210.121826 108.0
216.924011 124.0
220.094864 228.0
220.928925 128.0
221.402512 48.0
223.028351 156.0
229.003494 124.0
229.072769 148.0
232.355789 120.0
233.011475 140.0
237.02681 128.0
241.209274 84.0
243.999252 180.0
247.027313 140.0
249.064774 156.0
251.01947 188.0
258.071442 148.0
259.983734 200.0
260.086456 120.0
260.616333 20.0
265.999908 224.0
266.714508 144.0
270.060425 152.0
270.68161 160.0
272.022522 204.0
272.429718 164.0
272.814209 156.0
273.070679 424.0
274.037628 144.0
274.991455 108.0
275.093781 92.0
276.614349 152.0
279.063873 160.0
286.024353 88.0
287.030273 192.0
287.065399 188.0
291.075226 116.0
293.070221 200.0
294.047119 124.0
295.143677 128.0
298.074341 128.0
299.130157 40.0
301.109283 168.0
302.073608 100.0
302.613464 176.0
303.053314 192.0
304.104034 168.0
306.109955 44.0
307.050873 132.0
309.062958 196.0
311.042999 208.0
316.900604 216.0
317.10614 120.0
318.759857 96.0
319.108185 152.0
320.125824 168.0
329.025208 128.0
333.070099 100.0
335.034393 120.0
335.111298 640.0
336.098999 352.0
336.124542 112.0
336.234009 36.0
339.104767 180.0
341.782013 68.0
345.068298 204.0
345.589783 148.0
347.052795 156.0
348.143707 160.0
351.068665 204.0
352.076263 124.0
353.107727 76.0
356.222443 216.0
357.079437 148.0
360.06427 132.0
362.087585 136.0
363.057739 144.0
365.549744 128.0
366.349274 108.0
368.317566 84.0
369.106415 240.0
370.09201 212.0
371.671173 80.0
372.15094 116.0
373.619049 148.0
377.039154 136.0
378.052368 116.0
381.290527 216.0
381.418793 108.0
382.753174 152.0
386.672516 148.0
387.095306 124.0
395.065369 124.0
398.069641 184.0
400.989594 252.0
401.08371 144.0
402.138245 156.0
406.536469 56.0
409.21347 20.0
413.067413 80.0
414.934265 48.0
415.307343 176.0
415.631897 56.0
423.585876 100.0
425.135651 136.0
429.463135 120.0
442.118835 160.0
444.461273 112.0
445.603302 128.0
451.889465 128.0
458.036469 88.0
461.082825 104.0
461.134094 108.0
461.617188 192.0
461.771118 108.0
466.109436 80.0
466.633789 128.0
467.300446 124.0
468.303436 120.0
468.678192 192.0
471.733734 80.0
473.464417 228.0
476.131531 156.0
478.292358 76.0
481.168549 712.0
481.23056 76.0
482.155334 268.0
482.195923 196.0
483.175415 164.0
486.093445 112.0
489.183105 44.0
493.157318 108.0
493.387177 192.0
498.115479 60.0
500.48587 196.0
503.576202 124.0
504.134644 88.0
507.14209 160.0
508.411316 184.0
510.581146 204.0
510.972473 64.0
513.747559 144.0
514.140442 224.0
515.160522 184.0
516.118652 56.0
521.554199 96.0
523.105286 112.0
523.241821 96.0
525.183044 140.0
525.310791 128.0
526.141296 200.0
528.266296 120.0
528.344055 132.0
528.975586 100.0
529.166443 2240.0
529.373901 64.0
530.174683 528.0
530.94574 156.0
531.181091 308.0
531.312683 156.0
531.968872 44.0
532.15918 212.0
533.052795 44.0
533.894043 112.0
534.082581 104.0
534.165344 100.0
538.941467 88.0
544.969421 172.0
545.142212 400.0
545.36908 92.0
546.139099 308.0
548.1427 112.0
550.316284 72.0
552.826355 124.0
553.046326 128.0
554.156128 72.0
554.385742 124.0
562.116516 116.0
563.140015 224.0
564.164124 420.0
565.131104 116.0
566.10144 104.0
567.660461 248.0
568.158447 136.0
569.174133 156.0
569.734558 148.0
571.121521 196.0
571.160645 88.0
574.976929 140.0
575.893616 108.0
580.977112 104.0
581.370544 156.0
593.332581 128.0
596.81366 196.0
600.353699 192.0
603.200073 108.0
605.200989 100.0
612.57251 108.0
618.324646 160.0
620.008423 72.0
627.100464 124.0
632.189453 80.0
633.220703 112.0
633.897034 160.0
636.651001 136.0
637.982483 116.0
641.007324 88.0
646.172546 132.0
646.800049 112.0
659.316833 92.0
660.196045 260.0
661.218384 156.0
662.468628 100.0
662.555725 116.0
663.155212 96.0
663.519165 56.0
664.411499 72.0
664.888672 32.0
666.03363 192.0
666.290466 48.0
666.845398 64.0
667.441711 32.0
668.022888 116.0
670.107849 84.0
670.875732 180.0
671.381042 52.0
671.901978 144.0
672.846375 176.0
673.429382 76.0
673.662354 52.0
673.977478 128.0
674.025085 148.0
674.447754 44.0
674.499451 136.0
674.561462 128.0
674.739502 120.0
674.830322 112.0
674.917847 64.0
674.995728 80.0
675.094666 256.0
675.223755 11760.0
675.298584 140.0
675.438904 104.0
675.518127 40.0
675.606079 32.0
675.683655 64.0
675.771606 44.0
675.874634 116.0
676.032043 120.0
676.128235 48.0
676.223267 4160.0
676.361572 56.0
676.402954 124.0
676.501282 68.0
676.553101 76.0
676.786072 64.0
676.910339 68.0
676.967285 132.0
677.080322 112.0
677.138184 124.0
677.222656 924.0
677.319458 104.0
677.376404 112.0
677.456177 80.0
677.537048 28.0
677.578491 140.0
677.832336 88.0
677.992981 52.0
678.075928 52.0
678.234375 396.0
678.314331 48.0
678.547607 76.0
678.614441 72.0
678.687561 72.0
678.801636 104.0
678.952026 48.0
679.102478 56.0
679.2453 220.0
679.53302 108.0
679.709412 116.0
679.899475 76.0
679.994812 76.0
680.534668 68.0
680.950134 44.0
681.017639 68.0
682.082764 88.0
684.470703 36.0
685.194702 72.0
691.183289 104.0
691.764221 52.0
693.560852 152.0
693.660461 108.0
694.950562 184.0
696.231323 112.0
698.633362 88.0
772.783447 68.0
784.417969 140.0
799.034119 116.0
833.043762 104.0
846.573486 60.0
856.528076 112.0
859.337952 52.0
897.44104 56.0
968.499634 140.0
1315.810913 64.0
1315.868652 52.0
1318.758057 104.0
1321.657959 52.0
1450.364502 224.0
1464.710205 188.0
