>compound RIFAPENTINE
>formula C47H64N4O12 
>ionization [M+H]+
>parentmass 877.459412
#inchi InChI=1S/C47H64N4O12/c1-24-13-12-14-25(2)46(59)49-37-32(23-48-51-20-18-50(19-21-51)31-15-10-11-16-31)41(56)34-35(42(37)57)40(55)29(6)44-36(34)45(58)47(8,63-44)61-22-17-33(60-9)26(3)43(62-30(7)52)28(5)39(54)27(4)38(24)53/h12-14,17,22-24,26-28,31,33,38-39,43,48,53-55,57H,10-11,15-16,18-21H2,1-9H3,(H,49,59)/b13-12+,22-17+,25-14-,32-23+/t24-,26+,27+,28+,33-,38-,39+,43+,47-/m0/s1
#inchikey RISDZDVHYCURHD
#Ion_Source LC-ESI
#Instrument qTof
#Compound_Source Commercial
#PI Dorrestein
#Data_Collector Garg_Neha
#Scan -1
#Precursor_MZ 877.464
#ExactMass 876.452
#Charge 1
#CAS_Number N/A
#Pubmed_ID N/A
#Smiles N/A
#INCHI_AUX N/A
#Library_Class 1
#SpectrumID CCMSLIB00000077148
#IonMode Positive
#UpdateWorkflowName UPDATE-SINGLE-ANNOTATED-GOLD
#LibraryQualityString Gold
#TaskID 48f7f52fc6d249b5abbcc6e7b3df5969
##Scan# 1990
#SpectrumFile NCP003195_E2E6F2F6G2G6H2H6_BB7_01_15711.mzXML
#LibraryName NIH_Clinical_Collection_2.mgf
#MQScore -1
#Organism NIHcollection2_04212014_2_mgf
#TIC_Query 0
#RT_Query -1
#MZErrorPPM -1
#SharedPeaks 0
#MassDiff 0
#LibMZ -1
#SpecMZ 877.464
#SpecCharge 0
#internalFilename spec-00000.mgf

>collision 10
45.605228 160.0
47.591465 148.0
47.847195 156.0
48.16851 164.0
48.662914 200.0
50.477528 180.0
52.882565 252.0
52.967995 140.0
59.743835 200.0
60.486095 264.0
62.247887 168.0
64.880272 144.0
65.800522 184.0
66.532288 176.0
68.465034 140.0
68.626518 168.0
73.130028 176.0
73.237289 180.0
74.269684 164.0
74.668152 168.0
75.107353 168.0
79.297035 184.0
79.728302 156.0
83.462456 128.0
83.62616 120.0
84.501816 160.0
85.319778 244.0
86.639313 168.0
87.248024 192.0
87.514069 200.0
88.752869 196.0
88.831635 160.0
91.054253 304.0
92.060692 160.0
92.481293 156.0
93.070511 180.0
93.714172 220.0
95.051437 308.0
95.085968 1572.0
95.104614 156.0
95.149261 152.0
96.091232 200.0
96.348938 192.0
97.041763 216.0
97.066742 508.0
99.857773 224.0
100.279861 156.0
100.682869 168.0
102.897697 144.0
105.071007 336.0
107.085991 1372.0
108.083458 152.0
109.026978 140.0
109.064285 848.0
109.101616 184.0
109.705521 152.0
109.749306 184.0
110.09639 348.0
110.323448 180.0
111.045845 192.0
111.06263 180.0
111.08078 868.0
111.402679 184.0
112.799805 164.0
112.911865 188.0
114.917145 172.0
115.290825 184.0
117.353676 160.0
117.886833 168.0
118.079239 164.0
118.50135 168.0
119.045792 156.0
119.087471 732.0
120.090096 260.0
120.653809 140.0
121.06411 608.0
121.103546 696.0
121.330284 196.0
123.081627 2896.0
123.116737 152.0
124.079498 248.0
124.112755 176.0
125.0569 184.0
125.097588 292.0
125.121452 180.0
126.105179 180.0
129.071335 328.0
129.520782 216.0
130.076111 176.0
131.085602 292.0
132.092697 144.0
132.108994 172.0
133.06665 200.0
133.101929 376.0
133.784683 164.0
135.081558 1500.0
135.117096 748.0
136.085236 452.0
136.110901 280.0
137.058411 160.0
137.097092 864.0
137.132782 488.0
138.10437 480.0
139.075058 288.0
139.11261 144.0
140.083801 172.0
141.069397 292.0
141.092789 324.0
141.129303 168.0
142.07666 160.0
142.637085 208.0
144.097549 152.0
145.101303 1536.0
146.101791 248.0
147.081543 140.0
147.117783 1280.0
147.26947 148.0
148.083954 156.0
148.11969 492.0
149.062347 256.0
149.096085 440.0
149.128555 284.0
149.200165 176.0
150.13472 152.0
151.07576 9944.0
151.123337 856.0
152.07782 460.0
152.131012 740.0
153.09082 1236.0
153.138733 1724.0
153.766129 208.0
154.088867 304.0
154.142776 456.0
154.173615 156.0
155.084396 140.0
155.107147 200.0
155.153625 2284.0
156.157486 160.0
156.746994 176.0
157.101273 400.0
158.112976 140.0
159.077499 152.0
159.117386 860.0
159.251221 148.0
160.123474 148.0
160.388504 144.0
161.055557 168.0
161.095352 1756.0
161.134537 304.0
161.355347 172.0
162.098206 324.0
162.238892 176.0
163.077835 152.0
163.112137 4856.0
163.142578 164.0
164.076935 188.0
164.116776 784.0
164.7379 212.0
165.088867 380.0
165.127136 744.0
165.369476 192.0
166.125381 144.0
166.156158 192.0
166.800201 96.0
167.101608 164.0
167.137589 196.0
168.093613 152.0
168.15033 440.0
169.101486 192.0
169.150665 164.0
170.163895 132.0
171.117249 1212.0
173.097458 1388.0
173.133499 784.0
174.10173 288.0
174.133301 288.0
175.077667 212.0
175.111618 1640.0
175.14711 464.0
175.958359 188.0
176.1203 160.0
177.092331 624.0
177.128403 324.0
178.098022 188.0
179.106659 2632.0
180.112305 572.0
181.126495 284.0
181.162964 184.0
183.118073 544.0
184.127106 164.0
185.057312 140.0
185.096497 152.0
185.132172 772.0
186.106613 276.0
186.132553 124.0
187.07991 184.0
187.111145 432.0
187.148972 336.0
188.11853 360.0
189.091019 404.0
189.133987 236.0
189.156647 156.0
190.085999 144.0
191.106979 2976.0
191.142349 308.0
192.11113 316.0
192.823746 196.0
193.120148 340.0
193.155334 160.0
193.603912 156.0
194.126434 236.0
194.856415 124.0
195.115921 268.0
195.136566 276.0
196.086349 128.0
198.102524 136.0
198.138 420.0
199.093979 140.0
199.117767 172.0
199.148346 504.0
200.154663 156.0
201.128281 864.0
202.133972 244.0
203.108017 256.0
203.141235 524.0
203.687607 160.0
204.102646 112.0
204.150238 184.0
205.100082 120.0
205.127457 348.0
205.153107 156.0
206.129211 160.0
207.101288 320.0
207.142014 164.0
208.565247 164.0
209.116516 808.0
210.120438 512.0
211.139465 160.0
213.127792 412.0
214.13504 184.0
215.14418 172.0
216.146423 184.0
217.120178 516.0
217.156006 320.0
219.139465 488.0
220.137405 120.0
221.12323 140.0
221.15387 184.0
222.118332 156.0
222.216232 208.0
223.110168 208.0
223.145782 220.0
224.166779 176.0
225.126694 172.0
225.161926 192.0
227.117599 172.0
227.138031 160.0
229.122635 168.0
230.13298 168.0
231.138107 648.0
231.178986 356.0
232.1409 356.0
233.128754 148.0
235.144455 128.0
235.184509 188.0
236.128601 144.0
237.132339 532.0
239.14183 172.0
240.158234 196.0
241.163406 396.0
241.197861 172.0
243.140762 148.0
243.169556 204.0
245.163849 128.0
245.201859 104.0
249.143417 276.0
251.180862 300.0
252.16568 136.0
253.15657 264.0
253.198547 160.0
255.133209 288.0
256.139679 140.0
257.148743 164.0
259.175171 256.0
261.164459 264.0
264.160187 176.0
267.177216 288.0
268.413025 144.0
269.192383 636.0
271.180328 340.0
272.177307 100.0
277.169617 160.0
279.17157 480.0
280.180115 152.0
287.152405 160.0
287.199188 184.0
289.178741 224.0
290.187256 156.0
290.222931 196.0
297.060974 164.0
297.188263 1016.0
298.185577 388.0
299.066101 1024.0
300.074982 168.0
302.080017 264.0
312.093048 148.0
315.197327 832.0
315.251404 156.0
316.199219 456.0
317.203766 148.0
333.205292 288.0
334.204376 116.0
337.106781 140.0
340.128265 156.0
347.216034 140.0
352.098846 144.0
357.109741 172.0
357.202057 156.0
375.232147 384.0
376.110992 156.0
379.090698 188.0
385.140503 152.0
392.128387 156.0
395.101746 140.0
404.117188 168.0
406.124786 156.0
407.144623 168.0
408.248718 140.0
408.936676 160.0
419.12323 96.0
432.137695 144.0
434.153839 192.0
434.186554 224.0
435.11557 188.0
435.179871 144.0
436.135223 144.0
437.187439 248.0
438.211914 152.0
442.389984 136.0
451.195404 756.0
452.18515 116.0
453.215118 2732.0
454.218536 896.0
455.222778 388.0
460.260101 140.0
499.722656 144.0
502.141479 172.0
560.208496 152.0
574.288696 140.0
606.919922 164.0
607.062134 148.0
613.271423 176.0
640.383057 104.0
668.09491 184.0
679.273743 152.0
690.294373 148.0
708.30603 132.0
708.431702 212.0
715.894104 252.0
721.339661 112.0
723.66333 160.0
729.769104 172.0
743.310486 152.0
747.456543 140.0
751.32489 140.0
756.346802 188.0
762.857971 192.0
764.21637 144.0
785.412537 276.0
786.412537 236.0
787.397339 140.0
787.913025 140.0
789.243225 176.0
793.072388 140.0
803.447205 244.0
805.485107 160.0
812.635132 144.0
817.406982 128.0
823.13678 144.0
826.349792 120.0
831.673157 108.0
834.932007 96.0
837.050354 104.0
841.170227 148.0
841.506897 116.0
842.036316 244.0
842.773071 128.0
843.330505 156.0
843.418579 384.0
843.502441 108.0
843.745056 168.0
843.839233 152.0
843.895447 220.0
844.015015 108.0
844.113403 96.0
844.201599 108.0
844.418579 332.0
844.669556 152.0
844.800537 196.0
844.981995 224.0
845.129028 100.0
845.224915 104.0
845.335754 188.0
845.433228 32252.0
845.766968 280.0
845.912109 188.0
846.032288 120.0
846.086731 116.0
846.173706 208.0
846.234253 176.0
846.437195 19452.0
846.596924 164.0
846.649963 176.0
846.705994 152.0
846.812805 128.0
847.137939 236.0
847.287354 312.0
847.35498 232.0
847.437195 5052.0
847.575195 152.0
848.142029 256.0
848.439209 1088.0
849.444336 536.0
849.715942 168.0
850.044556 144.0
850.603394 220.0
850.690125 208.0
850.78241 172.0
850.905273 96.0
850.953918 236.0
851.528809 148.0
868.836182 152.0
874.505066 136.0
874.591553 96.0
875.444824 976.0
875.727417 116.0
876.367493 196.0
876.441956 1228.0
876.744629 144.0
877.00769 144.0
877.328308 116.0
877.459412 17900.0
877.664368 200.0
877.736145 156.0
878.463013 9788.0
878.646912 148.0
878.727478 148.0
878.904846 108.0
879.048645 124.0
879.46405 3560.0
879.974121 112.0
880.202026 184.0
880.471008 672.0
881.477539 212.0
883.046448 144.0
883.136841 148.0
883.501526 96.0
903.34259 100.0
1044.418457 144.0
1103.909546 140.0
1168.726562 140.0
1213.718506 156.0
1259.390747 168.0
1282.215332 156.0
1311.789185 184.0
1319.745117 264.0
1339.375732 148.0
1422.859009 280.0
1462.28772 224.0
1468.626831 244.0
1504.030151 140.0
1510.683228 180.0
1527.59436 160.0
1549.774292 204.0
1551.263306 164.0
1585.478882 160.0
1601.312744 164.0
1635.822754 224.0
1644.254272 188.0
1645.868774 156.0
1680.943481 176.0
1684.797241 180.0
1693.566284 196.0
1695.630859 164.0
1697.713257 144.0
1743.25769 268.0
1745.859741 164.0
1762.289307 188.0
1762.573364 188.0
1773.016846 156.0
1774.106567 152.0
1777.268433 188.0
1782.398804 140.0
1785.912842 216.0
1799.201538 140.0
1811.285767 140.0
1820.606812 176.0
1839.380493 216.0
1883.223267 304.0
1883.897095 144.0
1904.799805 140.0
1912.277466 284.0
1916.884399 160.0
1927.468994 144.0
1955.980713 148.0
1959.591431 144.0
1995.507446 188.0
