>compound Nafamostat mesylate
>formula C19H17N5O2
>ionization [M+H]+
>parentmass 348.145233
#inchi InChI=1S/C19H17N5O2/c20-17(21)14-2-1-13-10-16(8-5-12(13)9-14)26-18(25)11-3-6-15(7-4-11)24-19(22)23/h1-10H,(H3,20,21)(H4,22,23,24)
#inchikey MQQNFDZXWVTQEH
#origInchi InChI=1S/C19H17N5O2.2CH4O3S/c20-17(21)14-2-1-13-10-16(8-5-12(13)9-14)26-18(25)11-3-6-15(7-4-11)24-19(22)23;2*1-5(2,3)4/h1-10H,(H3,20,21)(H4,22,23,24);2*1H3,(H,2,3,4)
#Ion_Source LC-ESI
#Instrument qTof
#Compound_Source Commercial
#PI Dorrestein
#Data_Collector Garg_Neha
#Scan -1
#Precursor_MZ 348.146
#ExactMass 347.138
#Charge 1
#CAS_Number 82956-11-4, 81525-10-2 (free base), 80251-32-7 (HCl)
#Pubmed_ID N/A
#Smiles C1(=CC=C(C=C1)NC(=N)N)C(=O)OC2(=CC3=C(C=C2)C=C(C=C3)C(=N)N).S(O)(C)(=O)=O.S(O)(C)(=O)=O
#INCHI_AUX N/A
#Library_Class 1
#SpectrumID CCMSLIB00000078130
#IonMode Positive
#UpdateWorkflowName UPDATE-SINGLE-ANNOTATED-GOLD
#LibraryQualityString Gold
#TaskID 77f51c88eb8b467eb4a01dd2d0cb90d2
##Scan# 1016
#SpectrumFile Plate2_41_60_GG7_01_16495.mzXML
#LibraryName FDALibrary_2_04302014.mgf
#MQScore -1
#Organism FDALibrary_2_04302014
#TIC_Query 0
#RT_Query -1
#MZErrorPPM -1
#SharedPeaks 0
#MassDiff 0
#LibMZ -1
#SpecMZ 348.146
#SpecCharge 0
#internalFilename spec-00000.mgf

>collision 10
45.16151 144.0
45.488461 180.0
45.892063 156.0
47.433792 144.0
47.931313 140.0
48.196243 220.0
48.241852 144.0
51.17292 216.0
52.892826 180.0
53.778034 180.0
53.985493 172.0
55.410362 156.0
55.730843 172.0
56.907833 240.0
57.537167 156.0
59.736324 176.0
60.562153 168.0
62.282642 160.0
63.410793 156.0
64.177017 216.0
66.052864 204.0
66.196907 240.0
67.10685 152.0
68.664719 144.0
69.807426 168.0
70.525986 172.0
70.92939 164.0
71.522331 176.0
72.2192 180.0
72.686783 196.0
72.856575 180.0
74.897408 180.0
75.351112 232.0
75.844307 248.0
77.584053 176.0
78.477188 148.0
78.794884 236.0
81.922417 268.0
85.763901 172.0
85.780495 152.0
90.865898 164.0
91.16021 160.0
91.649246 176.0
92.05555 160.0
92.815231 168.0
95.256706 192.0
96.177742 180.0
97.425133 144.0
97.600052 228.0
101.417862 164.0
102.050232 180.0
103.290504 188.0
104.139801 192.0
104.817261 148.0
106.704437 180.0
111.235596 180.0
111.288086 244.0
112.904343 172.0
113.639389 180.0
113.730644 196.0
114.044998 180.0
114.802933 156.0
115.058983 152.0
115.103821 200.0
117.076721 148.0
118.623756 148.0
119.112 228.0
119.908188 156.0
120.044746 3628.0
120.342461 240.0
120.447289 144.0
121.046829 372.0
121.928436 156.0
127.500412 180.0
127.609756 188.0
129.028702 208.0
132.357483 156.0
133.095825 200.0
134.029709 236.0
135.559448 200.0
137.135147 224.0
137.93811 144.0
138.319397 244.0
138.970901 188.0
139.099976 152.0
140.847198 172.0
141.353149 140.0
142.289398 148.0
143.462265 192.0
144.33371 172.0
145.038498 492.0
145.071182 212.0
145.769577 228.0
150.417435 176.0
152.165375 148.0
153.346146 188.0
156.566956 196.0
156.64418 156.0
156.868454 144.0
157.122818 196.0
158.084808 144.0
158.959366 172.0
159.190323 168.0
159.265656 212.0
159.421432 236.0
160.428223 148.0
161.562134 156.0
161.868393 188.0
161.977295 188.0
162.06694 14140.0
162.220505 216.0
163.069443 1276.0
163.176392 112.0
164.064255 228.0
164.368225 104.0
165.02359 180.0
166.394318 164.0
167.332733 148.0
167.974426 184.0
169.769409 156.0
170.028839 180.0
170.060303 3500.0
171.061172 224.0
172.077469 252.0
172.205429 164.0
173.073639 172.0
174.574615 156.0
175.098328 172.0
181.486969 144.0
185.504089 248.0
186.563187 180.0
186.622635 160.0
186.747726 172.0
187.036148 160.0
187.055206 192.0
187.086746 11056.0
187.164764 216.0
188.088593 1208.0
189.111465 148.0
195.505478 252.0
197.117325 160.0
213.015442 140.0
213.672455 160.0
216.588791 184.0
218.423386 160.0
226.938156 188.0
236.572952 156.0
239.092957 164.0
241.354126 188.0
241.743896 164.0
247.249191 144.0
247.812851 236.0
251.186157 180.0
254.017303 188.0
255.959198 200.0
259.967834 204.0
268.554535 228.0
269.210541 160.0
278.043579 148.0
280.838348 180.0
283.539856 168.0
287.423981 160.0
289.086517 144.0
296.524536 196.0
299.686066 140.0
302.594208 156.0
314.095642 140.0
315.077026 188.0
322.243164 156.0
325.050385 140.0
325.574493 232.0
326.016388 152.0
335.405121 148.0
340.259583 144.0
342.469666 184.0
346.618469 148.0
346.692596 140.0
347.173157 172.0
347.248718 164.0
347.387115 152.0
347.419342 184.0
347.55661 156.0
347.705048 144.0
347.746185 136.0
348.057251 164.0
348.091583 296.0
348.145233 18676.0
348.307281 120.0
348.670654 204.0
348.942017 160.0
349.149414 3536.0
349.719482 172.0
350.152679 1080.0
350.680206 120.0
351.161407 256.0
351.2099 168.0
351.427216 108.0
1315.980225 188.0
1346.187622 180.0
1443.959351 168.0
1500.592163 180.0
1585.490845 192.0
1620.080444 156.0
1649.258911 228.0
1661.746216 220.0
1666.666626 184.0
1700.262451 196.0
1703.785034 176.0
1712.9823 140.0
1731.186035 140.0
1758.31311 140.0
1772.546509 236.0
1791.695068 208.0
1797.38623 184.0
1797.571899 148.0
1800.31543 156.0
1807.187744 208.0
1808.897339 184.0
1849.697876 240.0
1878.976807 212.0
1880.469604 188.0
1883.46582 164.0
1902.803345 164.0
1905.791138 264.0
1923.086182 212.0
1933.06665 176.0
1957.725708 180.0
1962.969116 156.0
1973.688965 188.0
1974.741333 144.0
1990.60498 208.0
2002.83374 228.0
