>compound MLS001148653-01!
>formula C23H29ClO4
>ionization [M+H]+
>parentmass 405.18271354009056
#inchi InChI=1S/C23H29ClO4/c1-13(25)23(28-14(2)26)10-7-18-16-12-20(24)19-11-15(27)5-8-21(19,3)17(16)6-9-22(18,23)4/h11-12,16-18H,5-10H2,1-4H3/t16-,17+,18+,21-,22+,23+/m1/s1
#inchikey QMBJSIBWORFWQT
#Ion_Source LC-ESI
#Instrument qTof
#Compound_Source NIH Pharmacologically Active Library
#PI Dorrestein
#Data_Collector VP/LMS
#Scan -1
#Precursor_MZ 405.185
#ExactMass 404.175
#Charge 1
#CAS_Number N/A
#Pubmed_ID N/A
#Smiles CC(=O)O[C@@]1(CC[C@H]2[C@@H]3C=C(Cl)C4=CC(=O)CC[C@]4(C)[C@H]3CC[C@@]21C)C(=O)C
#INCHI_AUX N/A
#Library_Class 1
#SpectrumID CCMSLIB00000085121
#IonMode Positive
#UpdateWorkflowName UPDATE-SINGLE-ANNOTATED-GOLD
#LibraryQualityString Gold
#TaskID d252d724072548979f1f6f1ced849daf
##Scan# 2474
#SpectrumFile p3-F02_GF2_01_18283.mzXML
#LibraryName Pharm_Active_Library.mgf
#MQScore -1
#Organism Pharm_Active_Library
#TIC_Query 0
#RT_Query -1
#MZErrorPPM -1
#SharedPeaks 0
#MassDiff 0
#LibMZ -1
#SpecMZ 405.185
#SpecCharge 0
#internalFilename spec-00000.mgf

>collision 10
44.915817 160.0
45.291451 88.0
45.314224 144.0
45.514091 116.0
45.585289 128.0
45.600071 44.0
45.682098 144.0
46.020401 184.0
46.159584 196.0
46.242115 108.0
46.476574 120.0
46.928177 212.0
46.966366 164.0
47.01685 212.0
47.204018 156.0
47.347717 156.0
47.403557 132.0
47.429932 148.0
47.498497 144.0
47.587708 88.0
47.616547 184.0
47.711365 204.0
47.726337 180.0
47.843445 160.0
48.200691 208.0
48.35836 152.0
48.392971 88.0
48.49826 72.0
49.157528 76.0
49.204987 204.0
49.273426 160.0
49.32933 104.0
49.40765 168.0
49.546257 68.0
49.639488 164.0
49.742599 120.0
49.899952 176.0
49.967808 164.0
49.996948 168.0
50.047695 140.0
50.058964 128.0
50.144905 184.0
50.294422 164.0
50.415894 160.0
50.441338 204.0
50.700367 124.0
50.742893 68.0
50.802464 128.0
50.833679 80.0
50.850708 224.0
50.889042 144.0
51.032555 116.0
51.344429 196.0
51.364395 132.0
51.45145 264.0
51.487152 28.0
51.540009 204.0
51.580029 136.0
51.651531 180.0
51.789242 176.0
52.072956 128.0
52.672188 192.0
52.874622 88.0
52.88765 140.0
52.902126 80.0
53.199326 116.0
53.347511 188.0
53.48571 108.0
53.815201 168.0
54.040302 164.0
54.076859 196.0
54.101776 132.0
54.158886 132.0
54.217495 64.0
54.353886 96.0
54.462528 196.0
54.718422 140.0
54.734619 48.0
54.750893 160.0
54.799431 52.0
54.909996 116.0
54.994102 176.0
55.131462 176.0
55.153633 124.0
55.491177 144.0
55.695984 184.0
55.745014 172.0
56.005428 148.0
56.697186 144.0
56.733162 188.0
56.823151 172.0
56.905704 160.0
56.944748 168.0
57.057457 204.0
57.081512 108.0
57.2271 208.0
57.377026 220.0
57.708817 128.0
57.818611 180.0
57.832874 132.0
57.958576 136.0
58.051048 120.0
58.123867 180.0
58.514515 188.0
58.618095 184.0
58.631813 52.0
58.807213 136.0
58.952309 184.0
59.062397 124.0
59.194023 128.0
59.416283 220.0
59.428558 180.0
59.439301 228.0
59.680298 180.0
59.728146 228.0
59.761993 212.0
59.794312 172.0
59.885334 208.0
59.925209 188.0
59.956032 220.0
60.076305 56.0
60.093277 216.0
60.564808 60.0
60.738422 80.0
60.803593 164.0
60.977547 64.0
61.16732 156.0
61.204685 100.0
61.270103 168.0
61.438484 128.0
61.539936 168.0
61.697746 124.0
61.744656 152.0
61.77594 88.0
61.935616 164.0
61.955982 180.0
61.999859 148.0
62.161392 176.0
62.19278 88.0
62.258724 216.0
62.505543 140.0
62.674038 140.0
62.86327 200.0
63.117607 208.0
63.160313 164.0
63.267925 184.0
63.416832 120.0
63.645287 132.0
63.673874 192.0
63.686581 184.0
63.870972 144.0
64.192703 192.0
64.229393 164.0
64.302788 200.0
64.47049 200.0
64.667213 192.0
64.723579 216.0
64.745674 240.0
64.801743 180.0
64.8386 148.0
64.95565 148.0
64.992554 64.0
65.119377 112.0
65.206146 116.0
65.442627 140.0
65.491417 176.0
65.552162 132.0
65.582787 156.0
65.621483 144.0
65.698898 260.0
65.763443 208.0
65.826416 124.0
65.863564 164.0
65.916878 132.0
65.934654 104.0
65.976685 192.0
66.002556 180.0
66.435013 92.0
66.454483 216.0
66.611969 140.0
66.678589 156.0
66.740364 196.0
66.834717 192.0
66.92424 204.0
66.940521 292.0
67.010567 172.0
67.021973 104.0
67.142609 212.0
67.390747 168.0
67.501907 164.0
67.931038 148.0
67.955551 260.0
68.313812 180.0
68.368118 176.0
68.654785 172.0
68.696022 156.0
68.837967 132.0
68.917259 220.0
68.999901 40.0
69.01313 172.0
69.077637 152.0
69.163681 168.0
69.196793 200.0
69.282921 108.0
69.337601 132.0
69.447037 168.0
69.727638 152.0
69.789154 148.0
69.800789 176.0
69.854012 100.0
69.968849 76.0
70.000488 160.0
70.298897 108.0
70.315582 140.0
70.402397 112.0
70.479248 128.0
70.574524 196.0
70.646446 148.0
70.70166 176.0
70.85907 176.0
71.06279 128.0
71.120689 160.0
71.236397 168.0
71.404655 172.0
71.606628 108.0
71.689186 152.0
71.78273 220.0
71.81395 164.0
71.940506 136.0
71.972588 104.0
71.994545 116.0
72.065491 160.0
72.210876 144.0
72.322556 80.0
72.405525 176.0
72.42585 164.0
72.510567 236.0
72.544693 184.0
72.861839 156.0
73.21566 128.0
73.753128 132.0
73.876251 152.0
74.004616 144.0
74.020027 200.0
74.210236 180.0
74.409264 180.0
74.479675 176.0
74.512321 80.0
74.88562 140.0
74.990723 172.0
75.126953 132.0
75.83596 196.0
76.181282 164.0
76.233406 204.0
76.282074 172.0
76.342934 168.0
76.645844 176.0
76.724274 56.0
76.788795 160.0
76.851601 192.0
77.038422 124.0
77.195732 136.0
77.337448 192.0
77.360207 96.0
77.393471 120.0
77.440758 120.0
77.56517 200.0
77.816048 52.0
77.954819 200.0
78.044472 160.0
78.282036 232.0
78.345444 172.0
78.371872 176.0
78.475868 144.0
78.536156 172.0
78.668182 192.0
78.689369 168.0
78.72998 164.0
78.805939 152.0
78.894318 200.0
78.908455 176.0
79.076515 116.0
79.101295 104.0
79.269562 88.0
79.358192 180.0
79.850105 204.0
80.02095 152.0
80.077934 280.0
80.341759 124.0
80.447052 160.0
80.472054 124.0
80.682884 92.0
80.840286 268.0
81.435532 152.0
81.550529 152.0
81.632698 204.0
81.662003 204.0
82.126724 160.0
82.240402 204.0
82.26387 188.0
82.28373 204.0
82.480644 44.0
82.513191 116.0
82.692276 136.0
82.706108 200.0
82.858879 224.0
83.13269 100.0
83.21801 160.0
83.261589 204.0
83.346977 184.0
83.396042 168.0
83.528786 152.0
83.55426 152.0
83.667099 164.0
83.74176 148.0
83.894829 148.0
83.945885 148.0
84.007904 144.0
84.278122 212.0
84.504852 36.0
84.583549 228.0
84.684258 180.0
84.869354 208.0
85.022781 164.0
85.063744 156.0
85.183205 168.0
85.400108 152.0
85.422188 56.0
85.453461 172.0
85.644928 68.0
85.70388 180.0
85.797882 144.0
85.939903 108.0
86.185486 108.0
86.2742 144.0
86.301941 164.0
86.505455 156.0
86.829727 132.0
86.946609 180.0
87.069153 188.0
87.104439 200.0
87.128593 108.0
87.429832 120.0
87.619766 164.0
87.645851 136.0
87.873337 160.0
88.546318 168.0
88.630623 224.0
88.804977 36.0
88.925056 140.0
89.079033 196.0
89.156075 140.0
89.251953 156.0
89.276398 124.0
89.348747 216.0
89.656693 160.0
89.679314 156.0
89.703819 184.0
89.718895 160.0
89.732094 212.0
89.901871 236.0
89.920738 172.0
90.086914 112.0
90.225731 220.0
90.267975 212.0
90.565506 156.0
90.770195 112.0
90.973213 92.0
91.035873 124.0
91.052223 400.0
91.092857 92.0
91.113754 112.0
91.127052 164.0
91.339989 124.0
91.368523 60.0
91.515076 112.0
91.530312 180.0
91.734184 132.0
91.797104 164.0
91.865768 108.0
91.907745 152.0
91.951637 200.0
91.966904 128.0
92.096748 72.0
92.15406 208.0
92.203476 56.0
92.22477 140.0
92.247711 96.0
92.289772 196.0
92.350975 212.0
92.429413 112.0
92.634277 236.0
92.699425 68.0
92.762672 176.0
92.787598 92.0
92.839371 252.0
92.852798 112.0
92.942963 204.0
92.979424 100.0
93.017815 172.0
93.06781 200.0
93.238708 140.0
93.519524 168.0
93.538773 156.0
93.629272 64.0
93.731377 104.0
93.99556 116.0
94.070831 168.0
94.151932 108.0
94.240791 144.0
94.507629 76.0
94.544403 124.0
94.92411 160.0
94.982292 96.0
95.048264 76.0
95.085648 208.0
95.110367 76.0
95.170547 92.0
95.364822 84.0
95.419258 148.0
95.561241 104.0
95.62352 112.0
95.641037 156.0
95.670235 156.0
95.753967 192.0
95.822151 80.0
95.954681 144.0
96.155609 176.0
96.245415 136.0
96.461792 144.0
96.636345 156.0
96.734207 256.0
97.064232 596.0
97.163399 80.0
97.226196 28.0
97.275635 148.0
97.292931 128.0
97.39505 192.0
97.501152 132.0
97.587646 172.0
97.617584 232.0
97.819801 192.0
98.032524 136.0
98.066032 156.0
98.271126 124.0
98.338226 244.0
98.46064 120.0
98.613518 80.0
98.776901 76.0
98.838234 224.0
98.895622 80.0
98.976799 180.0
99.002541 160.0
99.046112 48.0
99.135277 316.0
99.174911 192.0
99.206635 120.0
99.227501 236.0
99.258186 148.0
99.276031 228.0
99.307762 104.0
99.375214 100.0
99.500259 220.0
99.53997 156.0
99.999222 132.0
100.120674 136.0
100.204338 116.0
100.35981 232.0
100.535355 144.0
100.713058 104.0
100.810959 92.0
100.880913 148.0
101.579826 148.0
101.752419 128.0
101.854843 112.0
102.007561 216.0
102.194603 252.0
102.303291 148.0
102.613556 188.0
102.675316 160.0
102.690186 128.0
102.912178 184.0
103.001038 160.0
103.02124 220.0
103.053474 168.0
103.096008 144.0
103.255722 36.0
103.318436 136.0
103.362946 52.0
103.439857 184.0
103.711296 164.0
104.001358 104.0
104.088821 208.0
104.184128 156.0
104.603058 192.0
104.668213 212.0
104.733383 80.0
104.810806 184.0
104.890289 132.0
104.98204 204.0
105.018753 92.0
105.039154 176.0
105.069054 2148.0
105.233032 168.0
105.267746 128.0
105.333107 48.0
105.484329 168.0
105.658165 140.0
105.699081 208.0
106.07029 216.0
106.102592 264.0
106.149757 180.0
106.336449 152.0
106.465797 180.0
106.650711 112.0
106.749405 208.0
106.815224 268.0
106.870766 120.0
106.916039 192.0
106.969559 136.0
107.047798 92.0
107.085495 908.0
107.183762 104.0
107.319809 116.0
107.369301 40.0
107.398178 92.0
107.415161 156.0
107.488953 132.0
107.938339 140.0
107.947968 40.0
107.957451 148.0
108.053047 188.0
108.146172 200.0
108.195854 152.0
108.218636 148.0
108.29982 196.0
108.344978 52.0
108.367767 44.0
108.398849 156.0
108.438225 164.0
108.521149 164.0
108.604103 176.0
108.813705 144.0
108.909233 176.0
109.06382 568.0
109.099854 736.0
109.13784 148.0
109.19191 172.0
109.252235 108.0
109.275124 168.0
109.360443 188.0
109.409538 172.0
109.435394 152.0
109.491615 148.0
109.552025 116.0
109.683311 72.0
109.750031 212.0
109.78965 88.0
109.82267 24.0
109.852226 180.0
109.937775 68.0
110.315842 156.0
110.625458 184.0
110.734344 196.0
110.769951 188.0
110.952278 128.0
110.997795 220.0
111.081406 192.0
111.212402 140.0
111.243889 176.0
111.353081 56.0
111.445518 164.0
111.486008 164.0
111.626297 116.0
112.080986 172.0
112.437393 224.0
112.673897 184.0
112.760536 192.0
112.991035 168.0
113.056633 176.0
113.07991 180.0
113.217529 140.0
113.635132 208.0
113.671204 280.0
113.804939 184.0
113.983368 132.0
114.093895 200.0
114.165855 184.0
114.255531 216.0
114.753922 156.0
114.770714 164.0
114.907486 164.0
115.020599 64.0
115.051865 360.0
115.108131 124.0
115.342186 176.0
115.542046 176.0
115.574135 348.0
115.818199 120.0
115.9039 108.0
116.030357 156.0
116.062981 292.0
116.788429 168.0
117.005783 140.0
117.023003 136.0
117.069153 764.0
117.126381 164.0
117.163002 48.0
117.439423 140.0
117.455437 92.0
117.533859 124.0
117.557594 232.0
117.583496 140.0
117.632851 148.0
117.78862 260.0
117.853439 236.0
117.989609 192.0
118.069618 252.0
118.201576 148.0
118.244865 136.0
118.26651 236.0
118.327126 160.0
118.754036 140.0
119.040207 192.0
119.051765 200.0
119.085022 760.0
119.13826 56.0
119.170853 104.0
119.39476 176.0
119.471176 184.0
119.655884 104.0
119.677658 64.0
119.740814 144.0
119.830132 252.0
119.856277 132.0
119.923546 148.0
119.978333 64.0
120.083008 216.0
120.395111 224.0
120.419136 100.0
120.548035 76.0
120.661156 176.0
120.854179 168.0
120.871681 88.0
120.948288 168.0
121.063347 300.0
121.099617 172.0
121.331657 152.0
121.425949 68.0
121.445694 156.0
121.521629 208.0
121.636597 144.0
121.676117 112.0
121.838638 128.0
121.985886 176.0
122.023254 204.0
122.082626 164.0
122.101204 188.0
122.128815 160.0
122.28064 152.0
122.71682 216.0
122.906517 196.0
123.080223 376.0
123.169243 136.0
123.206802 192.0
123.412354 260.0
123.58046 120.0
123.684471 148.0
123.699966 44.0
123.770821 40.0
123.815109 216.0
123.83947 140.0
123.863838 140.0
123.914795 212.0
124.007866 152.0
124.60482 112.0
124.899384 152.0
124.924965 200.0
125.018471 168.0
125.078514 224.0
125.263344 136.0
125.495125 224.0
125.666878 172.0
125.698112 132.0
125.890099 180.0
126.057648 236.0
126.077759 168.0
126.26104 188.0
126.493797 176.0
126.749123 176.0
126.959854 220.0
127.030235 348.0
127.048866 392.0
127.170753 220.0
127.224625 176.0
127.496422 132.0
127.568352 172.0
127.878777 132.0
127.894531 68.0
127.954529 172.0
128.06163 672.0
128.097198 64.0
128.153519 204.0
128.2845 204.0
128.39473 160.0
128.491119 204.0
128.629395 160.0
128.682159 236.0
128.780685 160.0
128.843933 204.0
129.046097 352.0
129.069336 728.0
129.275818 232.0
129.629105 192.0
130.074738 304.0
130.320892 148.0
130.500763 88.0
130.539429 180.0
130.594009 112.0
130.671356 104.0
130.817017 128.0
130.944519 156.0
130.974136 108.0
130.999191 168.0
131.019699 148.0
131.048737 172.0
131.083054 1896.0
131.197464 120.0
131.240784 188.0
131.402725 176.0
131.450653 144.0
131.630981 160.0
131.722351 164.0
131.804596 228.0
132.05751 268.0
132.085907 896.0
132.143005 156.0
132.495605 92.0
132.532257 224.0
132.692444 68.0
132.869308 108.0
132.938141 184.0
133.062286 148.0
133.100449 6276.0
133.206787 192.0
133.269135 204.0
133.296387 32.0
133.31842 144.0
133.337753 48.0
133.491791 76.0
133.5746 172.0
133.600983 160.0
133.655121 208.0
133.747177 64.0
133.813934 172.0
133.92218 52.0
133.982071 140.0
134.068665 180.0
134.103836 724.0
134.141083 168.0
134.166443 128.0
134.26329 236.0
134.344025 108.0
134.447861 80.0
134.554047 52.0
134.932953 88.0
135.018524 224.0
135.078873 412.0
135.113113 568.0
135.20401 184.0
135.310089 112.0
135.347137 52.0
135.488419 156.0
135.569519 84.0
135.585739 140.0
135.657608 160.0
135.729477 156.0
135.956818 120.0
135.975388 28.0
136.085358 220.0
136.182037 80.0
136.302841 184.0
136.577179 56.0
136.642319 140.0
136.68187 184.0
136.784286 124.0
136.81813 132.0
136.898376 48.0
136.989212 244.0
137.049789 168.0
137.089859 164.0
137.243256 204.0
137.315552 172.0
137.338882 188.0
137.551224 200.0
137.579239 140.0
137.728683 88.0
137.859528 96.0
138.013809 112.0
138.170532 160.0
138.329666 68.0
138.41629 124.0
138.54213 144.0
138.606781 268.0
138.634155 84.0
138.704483 116.0
138.828751 116.0
138.845154 112.0
138.94368 124.0
139.028152 220.0
139.068054 124.0
139.110855 136.0
139.215973 188.0
139.33812 140.0
139.401566 128.0
139.554352 172.0
139.770752 208.0
139.791931 44.0
139.82489 124.0
139.867249 60.0
140.017944 120.0
140.34787 124.0
140.44693 112.0
141.009216 196.0
141.026917 176.0
141.065704 344.0
141.098709 40.0
141.32814 160.0
141.375473 212.0
141.752014 108.0
141.82074 188.0
141.925049 96.0
141.99382 200.0
142.076538 704.0
142.318939 132.0
142.71814 52.0
142.913193 180.0
142.946503 152.0
143.027039 196.0
143.083649 1212.0
143.229828 104.0
143.344193 80.0
143.446686 124.0
143.539658 144.0
143.573059 152.0
143.62587 140.0
143.792542 64.0
143.83313 164.0
143.883255 108.0
143.928619 120.0
143.969223 104.0
144.025894 176.0
144.055206 512.0
144.087158 624.0
144.162735 180.0
144.191406 160.0
144.239212 188.0
144.468796 204.0
144.880569 204.0
145.005173 124.0
145.031036 172.0
145.062988 524.0
145.099915 2420.0
145.405716 212.0
145.422516 208.0
145.448929 44.0
145.540146 92.0
145.561768 124.0
145.652679 220.0
145.733749 136.0
146.069138 324.0
146.099258 276.0
146.206055 136.0
146.332535 212.0
146.389008 180.0
146.485352 52.0
146.629929 60.0
146.66127 152.0
146.868637 140.0
147.01445 120.0
147.056839 208.0
147.078201 408.0
147.115356 2052.0
147.196869 52.0
147.568985 56.0
147.866547 60.0
147.936737 96.0
148.069916 68.0
148.117538 336.0
148.326767 28.0
148.433441 220.0
148.84111 76.0
148.889679 184.0
149.091324 200.0
149.25177 124.0
149.502335 120.0
149.672745 144.0
149.80426 176.0
149.989471 160.0
150.016586 96.0
150.138199 220.0
150.199173 236.0
150.265045 132.0
150.40416 192.0
150.530777 148.0
150.92453 44.0
151.028793 156.0
151.051987 144.0
151.109802 296.0
151.135208 156.0
151.271957 140.0
151.575668 148.0
151.619781 108.0
151.965546 192.0
152.073517 172.0
152.112793 192.0
152.225739 156.0
152.456665 156.0
152.554993 124.0
152.872284 84.0
152.941193 128.0
153.039825 172.0
153.068787 368.0
153.692886 172.0
153.798996 136.0
154.026428 180.0
154.076141 396.0
154.194199 36.0
154.315323 120.0
154.500824 164.0
154.926651 84.0
155.028244 120.0
155.052643 180.0
155.08342 1744.0
155.201767 60.0
155.27121 240.0
155.49202 196.0
155.828781 184.0
156.093781 524.0
156.205154 156.0
156.527878 180.0
156.851654 232.0
156.99472 152.0
157.062119 572.0
157.100037 1188.0
157.226746 160.0
157.294144 200.0
157.399002 112.0
157.468933 184.0
157.601334 188.0
157.681305 176.0
158.071289 856.0
158.109207 536.0
158.16655 48.0
158.202744 148.0
158.212143 188.0
158.487122 184.0
158.715225 124.0
159.016266 76.0
159.079269 836.0
159.114899 772.0
159.146805 116.0
159.415604 60.0
159.701538 60.0
159.716766 204.0
159.835556 84.0
159.860718 188.0
159.948807 172.0
160.087189 136.0
160.11499 452.0
160.328064 168.0
160.377029 168.0
160.901749 100.0
161.093796 564.0
161.135071 180.0
161.230133 164.0
161.29332 88.0
161.364105 136.0
161.589218 148.0
161.612656 76.0
161.654999 172.0
162.02095 256.0
162.042435 56.0
162.065231 176.0
162.088699 184.0
162.265472 208.0
162.42778 48.0
162.714249 68.0
162.79834 48.0
162.838974 120.0
162.948212 152.0
163.028564 300.0
163.068268 196.0
163.118484 168.0
163.279755 180.0
163.693512 92.0
163.866714 124.0
163.968643 92.0
164.47879 212.0
164.757141 196.0
164.808243 108.0
164.860031 144.0
164.987152 184.0
165.041412 440.0
165.064941 132.0
165.122681 144.0
165.184067 80.0
165.237793 120.0
165.347839 212.0
165.61412 64.0
166.083817 476.0
166.822754 108.0
167.023575 388.0
167.031937 152.0
167.041931 412.0
167.083435 1456.0
167.154556 48.0
167.30127 44.0
167.442886 136.0
167.615494 64.0
168.089508 756.0
168.147324 148.0
168.211288 224.0
168.30423 96.0
168.361053 160.0
168.562546 164.0
168.872787 76.0
168.898651 160.0
169.017975 168.0
169.042297 700.0
169.098663 1784.0
169.145721 84.0
169.255814 72.0
169.520035 148.0
170.020569 80.0
170.04393 132.0
170.067017 316.0
170.102722 320.0
170.212677 140.0
170.256821 80.0
170.306168 216.0
170.350327 132.0
170.443863 140.0
170.841675 92.0
170.891113 196.0
170.98999 100.0
171.047256 196.0
171.079453 2408.0
171.113541 1284.0
171.156601 176.0
171.276413 196.0
171.338928 48.0
171.44577 52.0
171.466614 120.0
171.630859 176.0
171.784729 148.0
171.865616 56.0
171.915192 168.0
171.941299 200.0
172.037872 172.0
172.086548 1184.0
172.11821 208.0
172.224594 128.0
172.340851 40.0
172.42186 84.0
172.489822 60.0
172.583939 152.0
172.900467 100.0
173.007431 172.0
173.033981 136.0
173.053925 240.0
173.094955 1900.0
173.129166 872.0
173.322098 180.0
173.354736 212.0
173.411194 204.0
173.531784 60.0
173.57637 112.0
173.602585 80.0
173.917297 232.0
173.985687 180.0
174.096893 412.0
174.136414 312.0
174.647919 88.0
175.029221 368.0
175.047958 256.0
175.079559 112.0
175.112061 1612.0
175.146622 148.0
175.976151 276.0
176.114319 248.0
176.208572 224.0
176.250854 236.0
176.406784 176.0
176.541641 168.0
176.65538 188.0
176.824722 164.0
176.898834 96.0
177.047348 776.0
177.093796 300.0
177.19281 80.0
177.354462 156.0
177.404831 136.0
177.497635 60.0
177.542709 52.0
177.802719 232.0
177.855804 164.0
177.999161 152.0
178.028381 92.0
178.052277 156.0
178.073914 708.0
178.108063 164.0
178.190414 92.0
178.501404 164.0
178.583862 204.0
178.668976 188.0
178.977737 136.0
179.02066 164.0
179.083389 1220.0
179.849518 88.0
179.948303 56.0
180.033752 144.0
180.090897 668.0
180.734131 140.0
180.814423 208.0
180.873306 216.0
181.038574 996.0
181.072739 264.0
181.100006 2048.0
181.197662 244.0
181.317932 196.0
181.402634 248.0
181.468048 144.0
181.738968 144.0
181.771881 120.0
181.806046 52.0
181.878525 96.0
182.039612 132.0
182.06575 224.0
182.103516 260.0
182.190033 160.0
182.474915 36.0
182.590546 112.0
182.636276 136.0
182.71698 172.0
182.757339 156.0
182.800385 76.0
182.851532 72.0
183.033554 312.0
183.074097 220.0
183.113861 2720.0
183.15213 112.0
183.18811 40.0
183.314743 184.0
183.409073 192.0
183.632874 84.0
183.732697 192.0
183.95137 136.0
184.085617 308.0
184.119659 300.0
184.415894 68.0
185.051636 124.0
185.094849 504.0
185.126541 436.0
185.298111 120.0
185.344177 128.0
185.363144 148.0
185.677628 132.0
185.826813 60.0
185.88652 256.0
185.981506 136.0
186.0168 184.0
186.103668 104.0
186.143906 240.0
186.402481 104.0
186.570999 128.0
186.970856 200.0
187.033463 140.0
187.070908 280.0
187.107712 316.0
187.146362 148.0
187.201355 168.0
187.322113 56.0
187.387497 88.0
187.463791 188.0
187.499222 136.0
187.845505 108.0
187.924637 140.0
188.088379 204.0
188.12146 172.0
188.268585 48.0
188.336868 192.0
188.640182 156.0
189.045288 876.0
189.095657 156.0
189.124527 256.0
189.206497 160.0
189.272202 64.0
189.469406 168.0
189.502289 36.0
189.573532 148.0
189.795578 132.0
190.029907 176.0
190.041687 144.0
190.075378 372.0
190.130264 132.0
190.196136 48.0
190.245544 140.0
190.286728 52.0
190.54216 164.0
190.844498 164.0
190.913254 164.0
191.057281 968.0
191.081467 748.0
191.141571 172.0
191.265427 124.0
191.463669 156.0
191.700592 100.0
191.76123 132.0
191.802582 192.0
192.023163 96.0
192.090851 768.0
192.24939 48.0
192.553085 172.0
192.804504 220.0
192.854263 184.0
192.94548 136.0
193.038818 264.0
193.061325 344.0
193.099228 1696.0
193.132233 136.0
193.175018 60.0
193.468369 60.0
193.595749 184.0
193.714844 104.0
193.991974 44.0
194.030777 252.0
194.066177 352.0
194.106842 1084.0
194.530151 84.0
194.918991 44.0
195.055389 1348.0
195.11467 2112.0
195.177521 52.0
195.205322 188.0
195.383347 44.0
195.469604 164.0
195.62825 72.0
195.744141 148.0
196.079788 164.0
196.123245 788.0
196.668015 172.0
197.00032 48.0
197.052979 336.0
197.095154 1032.0
197.129166 576.0
197.165176 64.0
197.583496 188.0
198.061569 248.0
198.100967 212.0
198.132538 304.0
198.382797 96.0
198.408035 84.0
198.497757 200.0
198.548233 212.0
198.618347 96.0
198.705322 92.0
198.72496 44.0
198.820374 60.0
198.983185 164.0
199.061813 96.0
199.108871 552.0
199.148956 140.0
199.283722 64.0
199.477646 208.0
199.547928 148.0
199.708221 128.0
200.051529 156.0
200.119095 156.0
200.147247 212.0
201.043396 340.0
201.089417 244.0
201.331665 128.0
201.396622 40.0
201.520935 136.0
201.546356 88.0
201.594406 56.0
201.654755 192.0
201.704636 212.0
201.79509 236.0
201.848816 148.0
202.055298 208.0
202.077118 152.0
202.723557 216.0
202.839767 156.0
202.985474 144.0
203.0625 768.0
203.104477 336.0
203.147537 184.0
203.168732 160.0
203.401428 252.0
203.514999 184.0
203.682556 88.0
204.000839 100.0
204.061951 372.0
204.085892 348.0
204.140152 48.0
204.418945 156.0
204.464478 176.0
204.669449 140.0
204.92865 60.0
204.991348 64.0
205.041611 484.0
205.070862 788.0
205.100494 1120.0
205.216537 196.0
205.393356 268.0
205.476089 36.0
205.498917 204.0
205.544571 32.0
205.564545 140.0
205.678711 156.0
205.795761 100.0
205.94426 200.0
205.992828 152.0
206.053223 412.0
206.074036 132.0
206.107697 784.0
206.277161 180.0
206.384369 192.0
206.464447 80.0
206.573135 100.0
206.616043 72.0
206.757904 132.0
206.833542 188.0
207.056305 2988.0
207.113281 2076.0
207.179642 172.0
207.257416 164.0
207.280334 216.0
207.326187 96.0
207.521118 168.0
207.572723 172.0
207.658768 188.0
207.756302 84.0
207.845245 88.0
208.056183 476.0
208.123886 800.0
208.166748 96.0
208.21138 208.0
208.362076 44.0
208.425293 60.0
208.459778 152.0
208.61499 212.0
208.675354 88.0
208.752991 52.0
209.051697 1016.0
209.092773 1876.0
209.130661 2416.0
209.198975 100.0
209.239288 88.0
209.337189 80.0
209.357346 40.0
209.498489 212.0
209.530182 116.0
209.708847 120.0
209.832794 68.0
210.053558 328.0
210.099594 620.0
210.13858 1300.0
210.173157 108.0
210.211349 188.0
210.262619 88.0
210.303024 68.0
210.337418 184.0
210.629318 228.0
210.748398 92.0
210.958755 64.0
210.978989 140.0
211.068497 288.0
211.110275 1228.0
211.149231 240.0
211.534439 56.0
211.647354 136.0
211.682739 168.0
211.919632 52.0
211.971786 136.0
212.075897 160.0
212.110626 644.0
212.152893 108.0
212.23558 136.0
212.479218 212.0
212.511124 64.0
212.873978 100.0
212.975632 120.0
213.039536 120.0
213.088837 824.0
213.120605 760.0
213.156525 168.0
213.434814 28.0
213.571503 64.0
213.75058 80.0
213.810089 68.0
213.894501 40.0
213.914886 72.0
214.051727 116.0
214.090363 104.0
214.106232 160.0
214.124817 160.0
214.203171 56.0
214.302231 60.0
214.520813 36.0
215.058899 748.0
215.078323 580.0
215.1035 868.0
215.18309 232.0
215.215195 96.0
215.235641 88.0
215.422562 124.0
215.618347 40.0
215.790817 68.0
215.858063 172.0
215.907776 156.0
216.06282 140.0
216.105423 304.0
216.144745 192.0
216.373047 108.0
216.765549 180.0
216.906235 76.0
217.073395 1036.0
217.094177 816.0
217.17894 196.0
218.046585 144.0
218.075348 396.0
218.105103 920.0
218.180313 52.0
218.321457 48.0
218.374405 140.0
218.559738 52.0
218.639191 140.0
218.845261 144.0
218.895325 52.0
219.079834 684.0
219.091461 480.0
219.115952 1408.0
219.216415 160.0
219.245895 44.0
219.307785 144.0
219.366745 156.0
219.552505 140.0
219.747192 64.0
219.823914 96.0
220.083786 352.0
220.122223 452.0
220.162399 156.0
220.228394 44.0
220.308151 60.0
220.361328 92.0
220.464752 72.0
220.621414 104.0
220.686462 152.0
220.792923 176.0
220.88298 112.0
221.038467 188.0
221.073868 388.0
221.091278 920.0
221.130814 1836.0
222.057587 112.0
222.102158 516.0
222.138107 1276.0
222.722702 148.0
222.790787 116.0
222.960159 212.0
223.110626 1772.0
223.145599 4436.0
223.206497 232.0
223.492477 52.0
223.632339 44.0
223.656158 44.0
223.721649 160.0
223.760345 192.0
223.819901 76.0
224.058182 176.0
224.118073 608.0
224.152969 1176.0
224.329391 52.0
224.564957 44.0
224.708145 48.0
224.866302 104.0
225.072296 80.0
225.125626 2236.0
225.164886 644.0
225.2276 56.0
225.287338 64.0
225.329178 208.0
225.460648 116.0
225.49054 64.0
225.690842 88.0
225.735687 236.0
225.912155 100.0
226.058777 148.0
226.128204 280.0
226.169449 336.0
226.272598 156.0
226.352142 76.0
226.438995 64.0
226.582779 80.0
226.864502 84.0
226.978439 80.0
227.026413 92.0
227.063843 452.0
227.106155 348.0
227.131012 164.0
227.280258 84.0
227.347427 44.0
227.476486 152.0
227.58757 92.0
228.038193 272.0
228.070038 148.0
228.099411 228.0
228.146408 144.0
228.359924 156.0
228.531387 140.0
228.883575 176.0
228.982956 180.0
229.074799 860.0
229.112015 440.0
229.153198 172.0
230.081299 388.0
230.325211 136.0
230.379578 144.0
231.059204 420.0
231.087387 408.0
231.111557 328.0
231.223221 68.0
232.057449 156.0
232.086609 120.0
232.12294 772.0
232.705597 192.0
232.796692 88.0
232.957672 172.0
233.006958 72.0
233.071304 344.0
233.130737 2912.0
234.093124 196.0
234.136841 944.0
234.262756 72.0
234.588837 40.0
234.945648 44.0
235.088211 528.0
235.109222 944.0
235.143829 1060.0
235.479843 96.0
235.690643 56.0
235.831223 108.0
236.118301 668.0
236.151672 608.0
236.36644 232.0
236.449463 60.0
236.580688 72.0
236.617432 28.0
236.951263 76.0
237.024796 104.0
237.082245 392.0
237.124115 1592.0
237.159561 556.0
237.533752 76.0
237.570572 120.0
237.67923 164.0
237.78537 164.0
237.960342 176.0
237.984909 48.0
238.130402 884.0
238.167892 532.0
238.356583 52.0
238.611694 56.0
238.983871 120.0
239.138016 692.0
239.17662 672.0
239.374802 184.0
239.513397 64.0
239.711319 100.0
240.077438 128.0
240.145035 340.0
240.183182 280.0
240.8367 52.0
241.040604 84.0
241.070633 468.0
241.114777 160.0
241.160583 312.0
241.430115 72.0
241.510529 92.0
241.816849 144.0
241.869476 104.0
241.984024 172.0
242.087296 284.0
242.13266 176.0
242.163635 132.0
242.612961 128.0
242.882751 152.0
243.093674 1700.0
243.152695 180.0
243.193054 40.0
243.252029 168.0
243.472488 168.0
243.578094 48.0
243.643326 220.0
244.038055 172.0
244.098312 728.0
244.202866 28.0
244.520233 228.0
244.785553 108.0
244.828461 88.0
245.108353 1320.0
245.161804 56.0
245.23349 28.0
245.548401 132.0
245.629501 144.0
245.670059 44.0
245.716858 148.0
245.835419 44.0
245.875992 148.0
245.975876 96.0
246.107895 412.0
246.172577 176.0
246.841339 112.0
246.894501 164.0
246.942108 108.0
246.978943 176.0
247.10025 1208.0
247.146439 1036.0
247.244904 84.0
247.43898 52.0
247.529785 40.0
247.561096 80.0
247.836761 44.0
247.948059 140.0
248.076691 172.0
248.105392 180.0
248.151825 1432.0
248.429337 104.0
248.492081 144.0
248.702347 124.0
248.772659 140.0
248.840469 48.0
248.887573 152.0
249.090439 188.0
249.122696 784.0
249.160797 2344.0
249.23938 36.0
249.264526 168.0
249.311661 148.0
249.717239 36.0
249.792725 124.0
249.972076 196.0
250.072784 144.0
250.134186 2768.0
250.165878 1012.0
250.308899 60.0
250.359283 44.0
250.414505 96.0
250.598694 152.0
250.619537 76.0
250.649109 52.0
250.68692 124.0
250.73735 112.0
250.800385 92.0
250.872894 36.0
250.907578 148.0
250.939102 120.0
251.058929 144.0
251.102539 116.0
251.141052 8928.0
251.222946 60.0
251.330215 184.0
251.366638 132.0
251.582718 64.0
251.895355 64.0
252.091248 124.0
252.146057 2168.0
252.301544 68.0
252.410538 136.0
252.448486 136.0
252.559189 132.0
252.663574 116.0
252.904083 100.0
252.942062 96.0
253.079071 176.0
253.155563 828.0
253.848221 92.0
253.870422 132.0
253.917984 144.0
254.070251 148.0
254.12532 216.0
254.152527 244.0
254.219391 68.0
254.508255 64.0
254.775055 72.0
255.092392 172.0
255.146896 208.0
255.178696 172.0
256.053802 140.0
256.09201 96.0
256.841095 76.0
256.917664 120.0
257.006989 148.0
257.072784 212.0
257.107391 1836.0
257.135803 184.0
257.338928 216.0
257.48584 68.0
257.783386 88.0
257.862854 44.0
258.019287 64.0
258.02951 60.0
258.072968 372.0
258.111115 488.0
258.138336 360.0
258.339294 28.0
258.499268 44.0
258.537689 76.0
258.68811 72.0
258.848206 40.0
259.001953 88.0
259.107574 692.0
259.364044 200.0
259.681488 56.0
259.774506 124.0
259.866882 120.0
259.989471 52.0
260.096954 376.0
260.138336 200.0
260.34906 132.0
260.583557 148.0
260.847076 212.0
260.921021 52.0
261.12381 296.0
261.171844 136.0
261.31662 96.0
261.557983 40.0
261.805908 72.0
262.120605 228.0
262.176392 140.0
262.234406 92.0
262.453644 96.0
262.76651 32.0
263.094177 160.0
263.136414 456.0
263.179504 148.0
263.515564 116.0
263.680389 84.0
264.150269 472.0
264.343353 204.0
264.459869 48.0
264.521362 96.0
264.654114 64.0
264.775787 208.0
265.010406 120.0
265.036346 116.0
265.079742 120.0
265.156769 7172.0
265.20163 80.0
265.510193 68.0
265.600464 52.0
265.776459 208.0
265.876251 68.0
265.965424 48.0
266.032043 56.0
266.079865 104.0
266.163605 4384.0
266.262604 40.0
266.314575 188.0
266.344971 44.0
266.379517 76.0
266.418518 164.0
266.444489 52.0
266.48349 36.0
266.538727 148.0
266.568634 60.0
266.597229 144.0
266.671967 36.0
266.810028 68.0
266.948334 68.0
266.995056 260.0
267.020691 128.0
267.087555 328.0
267.130524 260.0
267.172607 14280.0
267.248291 76.0
267.293152 80.0
267.364746 48.0
267.390778 80.0
267.467194 88.0
267.501434 56.0
267.527496 60.0
267.550293 96.0
267.582825 48.0
267.703552 172.0
267.748352 68.0
267.843384 100.0
267.911774 76.0
268.064911 188.0
268.100525 168.0
268.176514 3088.0
268.24353 60.0
268.32959 176.0
268.394165 92.0
268.438721 72.0
268.518097 76.0
268.671387 44.0
268.707275 152.0
269.10434 264.0
269.144653 156.0
269.181915 280.0
269.307953 76.0
269.497437 32.0
269.644501 44.0
269.677185 40.0
269.909302 128.0
269.971436 68.0
270.049927 160.0
270.105255 140.0
270.226593 128.0
270.485138 44.0
270.863678 80.0
270.901001 144.0
271.088623 868.0
271.146759 128.0
271.482666 24.0
271.677979 184.0
272.068512 48.0
272.096313 408.0
272.134186 212.0
272.488922 172.0
272.709076 40.0
272.89975 124.0
273.014862 120.0
273.076019 216.0
273.103821 116.0
273.167023 588.0
273.274719 72.0
273.573914 44.0
273.900238 52.0
273.956238 40.0
274.020966 56.0
274.101227 448.0
274.169922 180.0
274.952057 132.0
275.102173 84.0
275.132904 188.0
275.1745 232.0
275.206238 120.0
275.298706 180.0
275.341644 88.0
275.480377 28.0
275.559662 192.0
275.873627 128.0
275.966217 64.0
276.142212 192.0
276.617981 224.0
277.151611 560.0
277.176208 156.0
278.174286 220.0
278.491486 80.0
278.817108 136.0
279.132263 312.0
279.731812 120.0
279.845001 104.0
280.128082 328.0
280.161743 164.0
281.149536 176.0
281.180481 160.0
282.150513 148.0
282.197296 120.0
282.478241 88.0
282.642181 108.0
282.799469 76.0
283.03717 176.0
283.124054 452.0
283.19458 96.0
284.101044 108.0
284.129242 312.0
285.049866 60.0
285.100494 392.0
285.13736 944.0
285.328857 120.0
285.554169 148.0
286.110474 1016.0
286.139099 440.0
286.190216 164.0
286.375427 164.0
286.671906 120.0
287.118164 2116.0
287.474518 52.0
288.045135 88.0
288.118835 652.0
289.077545 164.0
289.115326 920.0
289.181274 44.0
289.262512 44.0
289.956909 40.0
290.11972 208.0
290.140564 152.0
290.221313 184.0
290.67926 64.0
290.736938 80.0
291.171204 1924.0
291.208893 64.0
291.766174 124.0
291.885193 176.0
292.178955 588.0
292.419312 48.0
293.170105 192.0
294.158783 564.0
294.400146 104.0
295.121185 120.0
295.163208 120.0
295.172791 84.0
295.781464 48.0
295.860199 256.0
297.102112 128.0
297.169464 84.0
299.127625 104.0
299.133087 100.0
300.006897 144.0
300.048248 144.0
300.107727 176.0
300.500061 100.0
300.872833 212.0
300.931519 72.0
301.028198 116.0
301.132751 10600.0
301.205963 172.0
301.311432 192.0
301.346008 68.0
301.487671 216.0
301.556793 40.0
301.646667 128.0
301.722717 92.0
301.86795 80.0
301.961334 64.0
301.992462 148.0
302.139343 4240.0
302.196564 168.0
302.220795 64.0
302.290009 36.0
302.424988 136.0
302.491852 148.0
302.539215 68.0
302.570374 64.0
302.646545 72.0
302.71579 48.0
302.788513 60.0
302.868866 100.0
302.954803 128.0
303.055267 216.0
303.086456 48.0
303.136841 4412.0
303.18161 156.0
303.225067 124.0
303.329071 48.0
303.446167 92.0
303.547485 48.0
303.714081 112.0
303.741699 56.0
303.80069 56.0
303.870087 64.0
303.996155 60.0
304.137268 1332.0
304.251862 132.0
304.298462 56.0
305.144897 560.0
305.254944 128.0
305.318634 100.0
305.422974 76.0
305.50647 40.0
305.830078 56.0
306.014587 64.0
306.04245 36.0
306.105133 60.0
306.151123 220.0
306.233978 96.0
306.30365 40.0
306.355896 80.0
306.798492 120.0
306.854279 72.0
307.150726 184.0
307.258881 52.0
307.335632 64.0
307.55899 60.0
307.813843 60.0
309.182007 2880.0
309.313751 48.0
309.38028 32.0
309.478302 60.0
309.565857 56.0
309.649902 28.0
309.702454 160.0
309.853088 116.0
309.916138 56.0
310.049316 160.0
310.140442 76.0
310.189026 868.0
310.224579 188.0
310.638397 64.0
310.813812 88.0
310.912079 76.0
311.189789 212.0
311.579254 52.0
312.129333 176.0
312.16275 48.0
312.226044 60.0
313.121765 136.0
314.128113 112.0
315.378143 72.0
315.604401 96.0
315.76355 80.0
316.119934 200.0
316.301361 48.0
316.846741 56.0
318.134125 132.0
319.157379 132.0
320.118164 156.0
321.157806 212.0
321.433594 56.0
322.151245 116.0
323.621185 48.0
324.864868 44.0
326.146851 52.0
326.276245 220.0
327.147705 1080.0
327.860077 48.0
328.150543 316.0
328.274658 28.0
328.37204 68.0
329.148224 288.0
329.54892 48.0
329.657318 104.0
330.133759 156.0
330.384094 68.0
331.155121 120.0
331.763916 84.0
332.141052 160.0
333.13208 204.0
333.157501 72.0
335.800262 84.0
337.224243 48.0
340.308807 112.0
344.079071 192.0
345.156555 924.0
345.246735 100.0
345.535278 116.0
346.167847 116.0
346.283051 92.0
346.427521 92.0
346.497528 80.0
346.775818 76.0
347.154022 500.0
348.144867 116.0
348.18573 52.0
349.159454 164.0
350.112213 40.0
359.741425 32.0
361.158508 144.0
361.60498 84.0
363.154663 140.0
371.20578 96.0
372.626038 96.0
375.042786 124.0
375.374359 92.0
376.030212 92.0
389.986481 52.0
391.339783 36.0
393.366241 64.0
394.464417 160.0
405.161987 296.0
405.251617 108.0
406.268494 144.0
411.218018 216.0
422.470184 192.0
434.102264 120.0
441.611481 108.0
445.497345 36.0
457.43161 156.0
466.539551 40.0
467.253479 52.0
478.619934 48.0
479.560944 72.0
481.375885 112.0
486.266113 56.0
494.875763 112.0
498.926575 68.0
511.272552 20.0
514.346497 80.0
527.817688 100.0
532.910217 100.0
533.333008 228.0
536.767578 104.0
538.188843 80.0
543.261475 56.0
544.110779 40.0
556.450867 60.0
559.106812 108.0
572.819397 108.0
584.939819 72.0
589.372131 68.0
603.214111 76.0
603.399902 60.0
612.252258 104.0
612.439392 96.0
630.095459 88.0
635.954529 124.0
649.37616 88.0
662.989197 48.0
667.655945 64.0
667.964539 168.0
676.106689 64.0
704.22644 68.0
707.557983 80.0
719.509888 72.0
735.934387 68.0
739.594421 92.0
747.333435 56.0
779.608948 68.0
794.551575 76.0
796.690613 56.0
801.523743 124.0
815.320801 176.0
832.942322 44.0
838.466064 104.0
846.397949 80.0
855.385559 124.0
861.841797 168.0
875.086243 100.0
875.168701 40.0
894.302856 172.0
928.249084 104.0
944.027832 180.0
972.47406 172.0
987.115051 164.0
987.233826 80.0
992.199402 224.0
1019.742004 48.0
1021.051758 40.0
1025.757324 40.0
1028.270386 116.0
1029.553711 176.0
1050.807983 112.0
1064.491943 156.0
1068.248779 60.0
1092.881958 216.0
1093.21106 120.0
1099.762329 104.0
1102.979126 232.0
1107.366089 124.0
1118.414917 140.0
1120.386108 152.0
1122.479004 172.0
1123.019287 164.0
1130.769897 192.0
1134.413818 52.0
1143.919678 168.0
1156.360107 200.0
1156.921997 188.0
1159.16394 108.0
1160.248413 168.0
1161.17749 180.0
1171.128174 48.0
1180.355347 172.0
1181.593384 108.0
1187.162354 216.0
1192.565674 180.0
1206.884766 204.0
1216.473633 220.0
1217.237427 196.0
1220.447754 84.0
1228.366577 160.0
1228.715454 216.0
1230.718628 172.0
1236.940918 56.0
1239.399292 152.0
1240.506592 120.0
1243.979248 164.0
1245.84021 112.0
1250.593872 108.0
1250.748779 160.0
1254.4823 144.0
1260.601807 172.0
1264.074097 164.0
1275.223022 176.0
1275.777466 160.0
1279.071167 112.0
1281.811646 92.0
1291.351318 168.0
1291.859253 160.0
1292.732178 204.0
1293.641235 104.0
1298.671631 192.0
1300.702271 184.0
1301.470459 284.0
1301.729004 172.0
1310.014893 164.0
1310.483276 208.0
1312.703491 220.0
1317.366211 72.0
1318.572876 200.0
1326.749512 176.0
1327.289185 96.0
1330.358276 196.0
1332.994873 148.0
1337.766357 136.0
1338.276001 160.0
1340.075073 136.0
1341.992065 128.0
1344.070923 116.0
1344.121948 208.0
1344.304443 204.0
1344.749634 188.0
1349.59314 148.0
1350.397583 200.0
1354.826294 96.0
1356.680542 172.0
1360.781738 208.0
1361.868652 140.0
1369.37854 140.0
1376.982788 132.0
1377.418579 124.0
1387.490723 180.0
1388.009766 224.0
1391.667969 136.0
1399.63916 144.0
1399.832764 184.0
1406.289185 160.0
1413.33667 172.0
1413.501343 96.0
1417.365234 196.0
1419.681641 196.0
1426.755005 56.0
1431.005981 148.0
1431.179199 136.0
1435.097412 200.0
1439.096436 156.0
1439.511719 132.0
1439.730713 152.0
1439.859131 176.0
1441.55896 204.0
1443.327881 124.0
1444.000977 100.0
1446.505615 176.0
1450.277954 136.0
1450.588745 188.0
1457.890503 200.0
1460.939697 68.0
1461.175537 196.0
1463.557861 140.0
1465.119263 156.0
1467.337158 128.0
1469.007324 148.0
1469.518555 144.0
1472.564453 88.0
1474.512817 76.0
1477.778198 192.0
1480.411377 224.0
1481.376587 188.0
1481.583374 48.0
1482.487549 208.0
1484.779907 184.0
1486.521362 236.0
1488.12561 176.0
1495.536621 136.0
1498.732788 164.0
1499.025513 196.0
1504.30896 44.0
