>compound Argatroban
>formula C23H36N6O5S
>ionization [M+H]+
>parentmass 509.255707
#inchi InChI=1S/C23H36N6O5S/c1-14-8-10-29(18(12-14)22(31)32)21(30)17(6-4-9-26-23(24)25)28-35(33,34)19-7-3-5-16-11-15(2)13-27-20(16)19/h3,5,7,14-15,17-18,27-28H,4,6,8-13H2,1-2H3,(H,31,32)(H4,24,25,26)/t14-,15?,17+,18+/m1/s1
#inchikey KXNPVXPOPUZYGB
#Ion_Source LC-ESI
#Instrument qTof
#Compound_Source Commercial
#PI Dorrestein
#Data_Collector Garg_Neha
#Scan -1
#Precursor_MZ 509.254
#ExactMass 508.247
#Charge 1
#CAS_Number 74863-84-6
#Pubmed_ID N/A
#Smiles NC(NCCC[C@@](C(N1CC[C@H](C[C@H]1C(=O)O)C)=O)(NS(C2=CC=CC3=C2NCC(C3)C)(=O)=O)[H])=N
#INCHI_AUX N/A
#Library_Class 1
#SpectrumID CCMSLIB00000078418
#IonMode Positive
#UpdateWorkflowName UPDATE-SINGLE-ANNOTATED-GOLD
#LibraryQualityString Gold
#TaskID 77f51c88eb8b467eb4a01dd2d0cb90d2
##Scan# 1185
#SpectrumFile Plate6_61_80_GD10_01_15777.mzXML
#LibraryName FDALibrary_2_04302014.mgf
#MQScore -1
#Organism FDALibrary_2_04302014
#TIC_Query 0
#RT_Query -1
#MZErrorPPM -1
#SharedPeaks 0
#MassDiff 0
#LibMZ -1
#SpecMZ 509.254
#SpecCharge 0
#internalFilename spec-00000.mgf

>collision 10
44.956558 144.0
45.270729 160.0
47.653618 140.0
48.809891 164.0
49.695492 148.0
49.736191 152.0
51.320763 180.0
51.47916 156.0
54.454235 164.0
56.05653 176.0
57.6745 236.0
58.346073 152.0
59.033764 176.0
59.620934 144.0
60.030441 180.0
61.286072 160.0
62.350216 228.0
63.002579 248.0
64.153175 168.0
65.310974 176.0
65.844482 184.0
66.703262 160.0
68.194038 144.0
68.841522 204.0
70.064011 140.0
71.347687 216.0
71.473831 184.0
71.514229 152.0
71.871506 232.0
74.205246 144.0
74.332176 164.0
77.320053 200.0
77.507431 176.0
78.889091 188.0
80.702599 160.0
80.886871 148.0
80.913727 148.0
82.0438 192.0
83.789131 192.0
85.254845 204.0
85.713066 252.0
85.86055 148.0
86.718437 160.0
88.56498 164.0
88.617432 168.0
88.857422 156.0
89.319572 144.0
89.986717 152.0
90.446114 152.0
91.05265 148.0
91.438812 164.0
92.971611 184.0
93.025352 276.0
93.323151 172.0
94.505531 224.0
96.955345 176.0
96.990623 212.0
97.074928 148.0
98.094269 616.0
99.198471 204.0
99.965149 172.0
101.862602 212.0
102.268791 164.0
102.516518 164.0
102.89978 204.0
103.583344 200.0
104.05014 336.0
106.075615 200.0
107.071457 160.0
108.041595 408.0
108.201706 148.0
111.087631 164.0
111.764725 188.0
111.882591 172.0
111.965828 204.0
112.086197 7576.0
112.327248 164.0
112.931374 160.0
113.011765 148.0
113.074562 284.0
113.088242 744.0
114.053062 216.0
114.101082 184.0
114.971046 280.0
115.085182 636.0
116.072777 188.0
117.061478 220.0
117.151741 180.0
117.779488 164.0
118.067383 140.0
118.473892 140.0
119.08123 200.0
121.083496 152.0
121.201797 176.0
123.106834 160.0
123.433891 152.0
123.706039 244.0
124.085999 412.0
124.928436 184.0
125.048981 184.0
125.066788 164.0
125.091873 164.0
125.513039 160.0
126.088615 772.0
126.835915 164.0
127.096375 484.0
127.689148 140.0
128.059128 212.0
129.112915 3336.0
129.802994 168.0
130.036667 168.0
130.063904 236.0
130.096863 820.0
130.166077 180.0
130.518295 144.0
130.627457 176.0
130.675232 152.0
131.046371 184.0
131.070908 360.0
131.098831 488.0
131.285721 160.0
132.077133 340.0
133.050613 160.0
133.089554 484.0
133.123398 196.0
133.615295 140.0
134.066147 204.0
134.200317 200.0
134.9646 196.0
135.065842 176.0
136.035004 152.0
137.634521 148.0
138.065338 168.0
138.968719 164.0
139.013306 212.0
139.095444 176.0
139.123611 180.0
140.079224 312.0
141.112091 288.0
141.556946 172.0
141.819931 192.0
141.947952 212.0
142.08461 280.0
142.116379 156.0
142.607956 152.0
142.629349 184.0
143.089661 140.0
144.102448 512.0
145.066116 300.0
145.13858 140.0
145.841995 172.0
146.056274 108.0
146.094864 6344.0
146.149826 156.0
146.802643 208.0
146.881821 184.0
146.935303 192.0
147.068039 168.0
147.100922 1844.0
148.076752 212.0
148.111816 1304.0
148.692123 152.0
149.03653 616.0
149.080963 636.0
149.113708 284.0
150.044632 212.0
150.08989 856.0
151.063019 160.0
151.09613 172.0
152.886093 152.0
153.100281 196.0
154.084534 332.0
155.09314 620.0
156.096802 832.0
157.107376 3452.0
157.134323 176.0
158.091492 3020.0
158.68161 140.0
159.08522 264.0
159.114731 260.0
159.34169 184.0
159.929138 100.0
160.073273 156.0
160.537354 148.0
161.082504 2360.0
162.090652 6208.0
162.670319 160.0
162.906494 140.0
162.985245 176.0
163.093918 1140.0
163.121536 180.0
164.097198 112.0
165.129257 148.0
165.595078 192.0
165.830795 148.0
168.110733 132.0
168.230804 144.0
169.094162 180.0
169.529251 176.0
169.705521 140.0
170.258255 176.0
170.481674 176.0
173.107605 456.0
173.313034 156.0
174.023865 256.0
174.111511 1008.0
175.118729 2864.0
176.120728 344.0
177.031128 180.0
177.142166 168.0
178.080872 152.0
178.141327 156.0
179.085541 180.0
179.153091 1544.0
181.056763 168.0
181.150513 148.0
181.426544 140.0
182.747955 144.0
185.104446 196.0
185.364502 196.0
186.693634 120.0
188.111572 172.0
188.999817 164.0
189.040863 192.0
189.13118 140.0
189.237961 164.0
191.063461 396.0
191.175934 172.0
192.036667 164.0
193.043076 172.0
193.13208 1020.0
193.192947 216.0
194.05925 364.0
194.164886 376.0
194.546906 108.0
194.973114 176.0
195.042664 380.0
195.14534 608.0
196.152634 172.0
197.241959 152.0
198.672958 176.0
199.029404 188.0
200.099472 176.0
203.860001 144.0
204.047592 152.0
204.380386 148.0
205.152237 148.0
206.121964 212.0
206.176956 180.0
206.411377 148.0
208.037216 160.0
208.113449 164.0
208.165146 144.0
208.716873 236.0
208.990128 140.0
209.02951 152.0
209.069504 18972.0
209.531021 100.0
210.060638 3116.0
211.062012 1980.0
211.304153 144.0
211.474884 180.0
212.051743 688.0
212.158524 148.0
212.683594 180.0
214.251022 180.0
215.146469 324.0
218.129242 188.0
219.017273 176.0
219.056122 320.0
219.164505 140.0
219.208786 156.0
220.039032 1212.0
220.146698 240.0
220.228546 136.0
221.034332 176.0
221.129395 412.0
221.173721 1036.0
221.929108 116.0
222.030792 276.0
222.106155 152.0
222.123123 248.0
222.165253 304.0
223.142899 476.0
224.148895 388.0
225.300476 180.0
226.124405 364.0
226.700806 164.0
226.946609 184.0
227.429626 148.0
228.067062 1404.0
229.068314 268.0
229.764847 168.0
230.06749 120.0
230.5439 192.0
231.796753 192.0
232.0271 160.0
232.318253 160.0
233.871063 152.0
233.89595 232.0
234.04155 192.0
234.795959 144.0
235.160721 148.0
236.182434 436.0
236.863541 188.0
237.064301 24312.0
237.166702 1140.0
237.303421 128.0
237.41832 140.0
238.065353 2072.0
238.165787 308.0
238.199097 632.0
238.480621 140.0
239.062393 1144.0
239.136902 996.0
239.233139 120.0
240.053864 156.0
240.14566 1584.0
240.289841 128.0
241.148483 232.0
243.149536 324.0
243.641312 140.0
243.728302 176.0
243.98317 168.0
244.156189 280.0
246.123688 204.0
246.498535 144.0
246.817383 180.0
247.011292 144.0
248.134308 156.0
250.12735 168.0
252.087234 100.0
252.528595 156.0
253.196411 212.0
253.253418 164.0
254.068115 160.0
254.150604 192.0
254.194901 1224.0
255.072739 824.0
255.154282 140.0
255.201233 176.0
255.564575 212.0
255.940002 140.0
256.074921 240.0
257.066803 132.0
257.173584 176.0
257.34314 148.0
258.010895 152.0
258.148407 160.0
261.170471 168.0
262.209625 152.0
263.146729 396.0
264.713379 224.0
265.164124 296.0
265.857727 148.0
266.155029 192.0
266.168152 232.0
266.403229 236.0
266.994812 172.0
269.854675 144.0
270.158813 172.0
270.626862 140.0
272.818512 148.0
274.123627 164.0
274.270233 276.0
274.454865 216.0
274.715393 164.0
277.097595 140.0
277.524597 264.0
277.553192 152.0
279.113373 380.0
280.177338 136.0
281.158051 128.0
282.190186 1788.0
282.489166 148.0
282.559418 140.0
283.177643 1324.0
283.478302 208.0
284.175018 348.0
285.149933 248.0
285.162598 128.0
285.171661 284.0
288.127075 164.0
288.394043 216.0
288.916016 180.0
289.212585 180.0
290.949249 148.0
294.07663 200.0
294.605896 164.0
294.927124 180.0
294.974976 140.0
295.269043 148.0
296.282257 176.0
296.539276 180.0
298.114563 140.0
298.187225 388.0
299.187744 224.0
299.704376 164.0
300.114563 192.0
300.205139 148.0
301.222412 216.0
301.899841 156.0
302.349609 148.0
303.100708 144.0
303.180969 432.0
304.11142 3088.0
304.184662 132.0
304.752747 192.0
305.114838 492.0
305.576782 164.0
306.110748 232.0
306.422852 216.0
306.882935 164.0
307.106232 128.0
308.632263 140.0
308.782654 140.0
308.877075 156.0
308.929565 220.0
310.050049 208.0
310.29892 164.0
313.451874 152.0
314.002502 144.0
316.447205 152.0
317.042328 160.0
318.067963 120.0
319.040741 148.0
320.200745 144.0
321.106049 188.0
322.11261 172.0
322.784546 140.0
323.364105 172.0
323.962097 188.0
324.139099 344.0
324.808105 156.0
325.057556 160.0
325.125153 680.0
326.124939 164.0
326.614929 172.0
327.748993 248.0
332.094513 148.0
333.556458 168.0
334.037872 172.0
334.153503 236.0
338.165436 384.0
338.336853 172.0
339.465393 176.0
339.524078 244.0
340.161011 156.0
342.148224 412.0
343.15799 176.0
344.271606 140.0
346.502106 176.0
347.823181 140.0
348.019104 176.0
348.453674 180.0
348.651825 136.0
348.758423 148.0
349.134216 156.0
358.301208 144.0
358.719543 148.0
359.573517 100.0
359.843811 156.0
359.870239 144.0
360.036377 152.0
360.761871 192.0
360.811005 248.0
362.1492 1036.0
363.144073 136.0
365.754089 140.0
366.158966 796.0
366.538635 156.0
367.140747 1756.0
367.560608 152.0
367.6539 112.0
367.924469 204.0
368.142151 652.0
369.142639 168.0
370.167664 168.0
373.329803 180.0
374.626953 144.0
375.714111 176.0
375.826477 160.0
376.17337 144.0
378.232239 176.0
379.531616 152.0
379.578156 236.0
380.235565 112.0
381.367889 160.0
381.589478 176.0
381.815033 140.0
381.85614 112.0
382.093933 132.0
382.871918 120.0
383.111053 96.0
383.216431 144.0
383.243713 152.0
383.319214 168.0
383.526031 180.0
383.735657 116.0
383.807159 144.0
383.953308 180.0
384.073364 236.0
384.169952 123156.0
384.29071 108.0
384.375885 148.0
384.400269 212.0
384.441498 124.0
384.541504 96.0
384.669861 128.0
384.739746 160.0
384.778687 284.0
384.874542 152.0
384.98645 248.0
385.013245 240.0
385.052826 164.0
385.08493 200.0
385.172241 20796.0
385.322876 124.0
385.35849 232.0
385.451538 192.0
385.664429 136.0
385.714142 268.0
385.95108 148.0
386.166779 6052.0
386.332001 172.0
386.443298 124.0
386.49118 144.0
386.764618 116.0
387.119324 108.0
387.169952 656.0
387.236572 160.0
387.275391 184.0
387.334473 100.0
387.394775 184.0
387.531982 176.0
387.556763 204.0
387.60672 104.0
387.740417 128.0
387.810272 180.0
388.049805 196.0
388.569061 108.0
388.796661 268.0
389.638214 188.0
390.5625 120.0
390.619781 208.0
392.293427 144.0
393.205353 188.0
393.765259 164.0
393.824493 184.0
394.401398 144.0
395.34668 164.0
395.544586 168.0
399.019806 224.0
399.628357 152.0
399.887024 164.0
399.982544 140.0
400.136108 160.0
400.752563 164.0
401.783844 144.0
401.829285 256.0
409.722076 172.0
410.620972 148.0
411.206024 164.0
411.906342 160.0
412.226196 152.0
413.234619 184.0
413.335785 160.0
416.995636 144.0
417.603729 224.0
417.904755 184.0
420.863953 188.0
421.50119 148.0
423.42395 144.0
423.870483 208.0
425.958832 140.0
426.089874 160.0
429.707306 204.0
431.476196 120.0
433.350769 100.0
436.581482 180.0
436.976654 168.0
438.680023 152.0
441.109589 140.0
441.699188 168.0
442.826447 172.0
442.988525 164.0
443.516541 144.0
444.913452 168.0
445.068817 156.0
445.686279 144.0
445.963654 224.0
446.194855 152.0
447.078186 196.0
449.855865 144.0
449.965637 140.0
450.204926 268.0
451.186646 168.0
452.883575 148.0
453.205536 260.0
454.201843 152.0
454.804382 156.0
456.053162 184.0
456.529358 156.0
461.142395 268.0
462.592468 180.0
463.063477 180.0
465.379211 172.0
465.911804 140.0
466.04071 140.0
467.227356 176.0
469.415466 168.0
469.454285 140.0
469.540527 140.0
470.761871 156.0
471.526581 196.0
472.85437 148.0
473.124817 176.0
473.343567 164.0
474.578522 140.0
475.256989 172.0
475.719574 140.0
478.145844 148.0
479.684326 152.0
479.87442 156.0
480.559204 140.0
481.873444 148.0
483.670837 140.0
483.888306 116.0
484.571442 140.0
485.125183 160.0
486.383209 196.0
486.498322 152.0
488.282349 152.0
489.025909 152.0
490.479462 140.0
491.529144 160.0
492.010254 144.0
492.22171 1156.0
492.354675 144.0
492.860657 140.0
493.136688 152.0
493.226166 148.0
494.21347 224.0
496.065155 160.0
497.380096 172.0
497.667267 204.0
498.605988 140.0
498.81488 284.0
499.664307 228.0
499.84436 124.0
500.006927 152.0
501.093475 148.0
501.142487 152.0
501.199493 96.0
502.310699 132.0
502.44223 148.0
502.954071 172.0
504.007111 172.0
504.118835 156.0
504.351257 204.0
504.731262 216.0
504.77597 160.0
504.858887 104.0
505.026428 148.0
505.092987 132.0
505.186798 104.0
505.256531 132.0
505.311401 180.0
505.365295 204.0
505.798096 132.0
506.106506 212.0
506.221405 176.0
506.374603 288.0
506.408508 148.0
506.483032 220.0
506.558289 216.0
506.807922 288.0
506.947845 200.0
506.997437 220.0
507.091522 204.0
507.157776 180.0
507.227966 100.0
507.264465 180.0
507.304138 208.0
507.362946 168.0
507.422333 184.0
507.510834 280.0
507.585693 144.0
507.726257 172.0
507.776886 100.0
507.838837 112.0
507.888672 152.0
507.939392 192.0
508.00769 340.0
508.062012 336.0
508.176697 112.0
508.214996 136.0
508.283234 120.0
508.347687 136.0
508.457733 376.0
508.503174 356.0
508.53363 400.0
508.560425 148.0
508.64267 244.0
508.708923 212.0
508.785675 300.0
508.850403 332.0
508.93573 136.0
508.955841 348.0
509.031982 364.0
509.121918 484.0
509.196899 1076.0
509.255707 209300.0
509.418274 236.0
509.487091 128.0
509.561279 204.0
509.619019 296.0
509.667389 648.0
509.720276 344.0
509.753967 452.0
509.797791 500.0
509.872467 208.0
509.933289 276.0
510.000092 4928.0
510.053802 612.0
510.11792 348.0
510.257446 113644.0
510.419495 208.0
510.516266 152.0
510.61554 140.0
510.667511 236.0
510.773926 220.0
510.825531 216.0
510.882416 156.0
511.016418 188.0
511.118317 144.0
511.173187 232.0
511.254883 32624.0
511.366486 272.0
511.433136 156.0
511.565552 164.0
511.616821 156.0
511.67868 260.0
511.725739 268.0
511.759918 276.0
511.921021 164.0
512.149048 300.0
512.25293 5104.0
512.405212 128.0
512.512451 172.0
512.564636 140.0
512.682434 144.0
512.752319 220.0
512.827393 280.0
512.903442 236.0
512.945679 296.0
513.033386 276.0
513.109131 240.0
513.12207 112.0
513.258057 744.0
513.390442 336.0
513.544922 144.0
513.69043 180.0
513.774048 104.0
513.871155 196.0
513.982239 156.0
514.065186 320.0
514.101013 144.0
514.19519 204.0
514.299011 248.0
514.388306 164.0
514.858521 152.0
515.003296 112.0
515.095154 116.0
515.152222 216.0
515.283386 200.0
515.444336 144.0
516.589355 136.0
520.972839 100.0
523.5672 120.0
525.060059 100.0
525.352539 152.0
527.630249 108.0
530.39447 164.0
546.308105 152.0
668.328857 120.0
668.607605 124.0
674.325439 172.0
707.597595 112.0
725.310181 104.0
828.429688 152.0
851.253479 144.0
871.165161 140.0
1125.200806 140.0
1328.540894 160.0
1383.900879 212.0
1399.352173 180.0
1541.461304 152.0
1592.681885 164.0
1605.256836 216.0
1607.16333 188.0
1651.97998 168.0
1659.88501 212.0
1661.88855 192.0
1663.414429 236.0
1664.421143 148.0
1685.608765 144.0
1693.733032 204.0
1720.880615 160.0
1727.103516 156.0
1744.451294 160.0
1782.480957 140.0
1791.29834 180.0
1812.496582 156.0
1824.90625 156.0
1831.808472 180.0
1838.868652 156.0
1862.157471 160.0
1886.5177 200.0
1886.62146 232.0
1898.310547 272.0
1907.279297 172.0
1910.253296 156.0
1937.351074 196.0
1973.887329 184.0
1977.408447 160.0
1979.834229 160.0
1988.354248 196.0
1992.678833 200.0
1995.780884 156.0
