>compound MLS001158943-01!N-cyclopropyl-3-(7-methoxy-4,8-dimethyl-2-oxochromen-3-yl)propanamide
>formula C18H21NO4
>ionization [M+H]+
>parentmass 316.155
#inchi InChI=1S/C18H21NO4/c1-10-13-6-8-15(22-3)11(2)17(13)23-18(21)14(10)7-9-16(20)19-12-4-5-12/h6,8,12H,4-5,7,9H2,1-3H3,(H,19,20)
#inchikey SLIVCJIYDODSCI
#Ion_Source LC-ESI
#Instrument qTof
#Compound_Source NIH Natural Product Library
#PI Dorrestein
#Data_Collector VVP/LMS
#Scan -1
#Precursor_MZ 316.155
#ExactMass 315.147
#Charge 1
#CAS_Number N/A
#Pubmed_ID N/A
#Smiles COc1ccc2c(C)c(CCC(=O)NC3CC3)c(=O)oc2c1C
#INCHI_AUX N/A
#Library_Class 1
#SpectrumID CCMSLIB00000080043
#IonMode Positive
#UpdateWorkflowName UPDATE-SINGLE-ANNOTATED-GOLD
#LibraryQualityString Gold
#TaskID b1d8e8f6646f4e71acdff9ca3d919d08
##Scan# 1943
#SpectrumFile p2-D03_GD3_01_18015.mzXML
#LibraryName NIH_Natural_Products_Library.mgf
#MQScore -1
#Organism NIH_Natural_Products_Library
#TIC_Query 0
#RT_Query -1
#MZErrorPPM -1
#SharedPeaks 0
#MassDiff 0
#LibMZ -1
#SpecMZ 316.155
#SpecCharge 0
#internalFilename spec-00000.mgf

>collision 10
95.033104 184.0
95.081619 44.0
95.203918 100.0
95.314644 252.0
95.413773 188.0
95.493492 148.0
95.51683 172.0
95.600494 220.0
95.641365 164.0
95.732864 212.0
95.748451 168.0
95.781555 148.0
95.836105 148.0
95.978394 160.0
95.997894 172.0
96.066154 68.0
96.28476 100.0
96.327728 52.0
96.569412 328.0
96.626755 300.0
96.664009 116.0
96.710976 184.0
96.795158 64.0
96.836281 96.0
96.989113 176.0
97.008713 108.0
97.108711 116.0
97.130287 156.0
97.157753 100.0
97.210724 212.0
97.28727 204.0
97.355995 216.0
97.483681 160.0
97.566231 232.0
97.609482 132.0
97.694054 112.0
97.715698 140.0
97.784569 172.0
97.798347 176.0
97.835747 204.0
98.001183 144.0
98.25354 112.0
98.356155 148.0
98.397606 144.0
98.51017 136.0
98.549683 120.0
98.743782 148.0
98.921486 192.0
99.020485 156.0
99.07 192.0
99.232513 180.0
99.252647 128.0
99.299934 220.0
99.464249 108.0
99.479042 120.0
99.68705 164.0
99.893822 172.0
99.941574 180.0
99.955498 164.0
100.023163 252.0
100.24556 60.0
100.29406 172.0
100.395737 192.0
100.409698 148.0
100.427643 96.0
100.469536 76.0
100.501457 168.0
100.523407 216.0
100.544342 236.0
100.580772 140.0
100.78698 168.0
100.804962 180.0
100.822952 156.0
100.862923 48.0
100.968887 140.0
101.199013 120.0
101.25708 224.0
101.319176 124.0
101.379288 72.0
101.419365 244.0
101.44342 132.0
101.517609 64.0
101.69014 112.0
101.80658 136.0
101.890938 52.0
101.977341 124.0
102.032623 144.0
102.120094 136.0
102.15831 212.0
102.36367 112.0
102.456253 272.0
102.512665 148.0
102.59127 200.0
102.694107 120.0
102.718315 188.0
102.786903 132.0
102.865784 144.0
102.910034 184.0
102.9282 184.0
103.03669 168.0
103.05442 648.0
103.172668 196.0
103.263664 72.0
103.308167 136.0
103.348625 172.0
103.397194 168.0
103.42247 172.0
103.782074 156.0
103.883476 140.0
103.909851 80.0
103.938255 96.0
104.031609 136.0
104.057083 204.0
104.122986 136.0
104.263161 128.0
104.35463 216.0
104.5438 168.0
104.653717 152.0
104.676117 72.0
104.690369 144.0
104.961388 224.0
104.979744 180.0
105.025871 220.0
105.070351 2768.0
105.104172 124.0
105.195099 232.0
105.216423 160.0
105.246559 200.0
105.291824 164.0
105.324471 180.0
105.375725 160.0
105.508621 160.0
105.547417 140.0
105.578087 164.0
105.702873 168.0
105.77562 176.0
105.805206 72.0
105.842064 36.0
105.864586 172.0
105.930122 200.0
105.954712 212.0
105.991585 160.0
106.026428 192.0
106.073784 420.0
106.094948 180.0
106.126869 220.0
106.268387 208.0
106.315582 156.0
106.347748 252.0
106.416161 52.0
106.481873 208.0
106.584587 112.0
106.603081 104.0
106.633904 148.0
106.712021 120.0
106.757881 276.0
106.778778 232.0
106.833359 168.0
106.938301 200.0
106.989761 200.0
107.028877 128.0
107.049782 280.0
107.076241 276.0
107.105072 80.0
107.129791 156.0
107.284348 96.0
107.389511 152.0
107.447266 136.0
107.490601 160.0
107.533936 176.0
107.799232 152.0
107.823074 168.0
107.83754 196.0
107.899551 136.0
108.149849 104.0
108.576653 96.0
108.692818 136.0
108.867188 208.0
108.948189 200.0
109.125435 168.0
109.180984 56.0
109.203865 168.0
109.224663 96.0
109.284988 176.0
109.364067 212.0
109.461914 160.0
109.511894 72.0
109.534805 160.0
109.697342 196.0
109.730659 236.0
109.918419 144.0
109.985962 240.0
110.183578 168.0
110.30304 164.0
110.357048 192.0
110.380051 188.0
110.505753 200.0
110.532806 140.0
110.702301 144.0
110.886658 120.0
110.904778 168.0
110.923233 124.0
110.968407 80.0
110.999855 88.0
111.021179 200.0
111.073265 200.0
111.104729 168.0
111.224335 60.0
111.308311 124.0
111.360817 64.0
111.57515 208.0
111.60508 168.0
111.659256 184.0
111.726562 120.0
111.814941 180.0
111.857033 84.0
111.880188 148.0
111.897034 136.0
112.008644 136.0
112.122421 124.0
112.218384 76.0
112.284752 188.0
112.512634 120.0
112.624557 120.0
112.683281 220.0
112.709061 164.0
112.742867 148.0
112.808388 208.0
112.83799 156.0
112.852783 160.0
112.88662 112.0
112.975449 180.0
113.034691 96.0
113.060081 120.0
113.206154 108.0
113.280281 180.0
113.681 52.0
113.838081 112.0
113.884804 124.0
113.955566 232.0
114.054787 56.0
114.088799 96.0
114.124939 48.0
114.20575 140.0
114.318504 192.0
114.456863 164.0
114.591049 232.0
114.623009 224.0
114.755165 148.0
114.84259 124.0
114.930725 140.0
115.017555 156.0
115.055328 2540.0
115.105087 248.0
115.455544 176.0
115.511154 116.0
115.681778 168.0
115.80867 156.0
115.87294 184.0
115.894363 108.0
115.964249 176.0
116.061882 720.0
116.299667 132.0
116.404869 148.0
116.430008 164.0
116.45211 172.0
116.53804 140.0
116.600357 36.0
116.64119 208.0
116.666985 80.0
116.759445 56.0
116.780952 128.0
116.81752 60.0
116.856239 240.0
117.070297 1012.0
117.09906 160.0
117.144722 60.0
117.187805 128.0
117.295555 156.0
117.314957 144.0
117.461594 128.0
117.515083 196.0
117.530632 168.0
117.697113 152.0
117.714104 136.0
117.778893 52.0
117.798332 248.0
117.936623 220.0
117.966888 120.0
117.984177 292.0
118.025261 236.0
118.054543 172.0
118.080963 428.0
118.097214 148.0
118.157188 64.0
118.200462 220.0
118.245911 172.0
118.274048 124.0
118.527428 80.0
118.607613 92.0
118.68132 128.0
118.72686 128.0
118.743828 160.0
118.776375 140.0
118.917778 132.0
118.992767 160.0
119.008949 172.0
119.030663 220.0
119.052437 168.0
119.087128 172.0
119.217476 184.0
119.252251 224.0
119.424011 96.0
119.460991 172.0
119.541489 116.0
119.585014 160.0
119.63073 148.0
119.711288 196.0
119.82019 192.0
120.001083 208.0
120.031609 120.0
120.123207 304.0
120.22139 108.0
120.247581 136.0
120.478584 244.0
120.559875 152.0
120.586098 60.0
120.621529 96.0
120.756638 148.0
120.925102 68.0
120.9645 220.0
121.032364 128.0
121.067451 576.0
121.201439 168.0
121.356644 160.0
121.403786 172.0
121.54747 196.0
121.624283 180.0
121.687943 52.0
121.734055 80.0
121.753815 176.0
121.771385 236.0
121.795547 132.0
121.852661 168.0
121.92627 192.0
121.971329 192.0
122.019691 144.0
122.056061 148.0
122.067574 72.0
122.071167 156.0
122.094452 124.0
122.224236 32.0
122.239639 160.0
122.350334 164.0
122.392601 244.0
122.492828 64.0
122.521461 180.0
122.607399 168.0
122.708794 152.0
122.741867 88.0
122.761711 108.0
122.873116 152.0
122.933777 140.0
122.954849 204.0
123.110374 132.0
123.147919 44.0
123.26059 144.0
123.291527 148.0
123.313629 88.0
123.388786 188.0
123.413101 120.0
123.479439 172.0
123.541374 184.0
123.608154 220.0
123.654221 216.0
123.698486 104.0
123.76712 52.0
123.98642 116.0
124.050697 212.0
124.154907 204.0
124.265816 140.0
124.281349 120.0
124.303535 136.0
124.418953 168.0
124.445595 164.0
124.503326 176.0
124.529976 176.0
124.594391 160.0
124.679504 236.0
124.758842 72.0
124.932304 168.0
124.967896 368.0
124.992371 164.0
125.027977 140.0
125.083618 168.0
125.105881 164.0
125.148178 172.0
125.192719 88.0
125.266212 164.0
125.377617 104.0
125.40213 180.0
125.589241 100.0
125.734436 232.0
125.841583 184.0
125.879539 184.0
125.933144 160.0
125.950867 192.0
126.067993 188.0
126.225899 152.0
126.329445 148.0
126.348511 244.0
126.54586 180.0
126.563774 144.0
126.684708 156.0
126.743706 132.0
126.753349 44.0
126.757797 116.0
126.890884 252.0
126.949181 128.0
126.969368 200.0
127.056229 584.0
127.094986 208.0
127.13089 184.0
127.371178 148.0
127.420952 132.0
127.532898 140.0
127.54863 208.0
127.615532 232.0
127.654297 176.0
127.692528 112.0
127.787003 144.0
127.859009 100.0
127.908524 212.0
127.982819 180.0
128.005341 184.0
128.030106 112.0
128.062775 4148.0
128.097977 148.0
128.2509 148.0
128.510239 180.0
128.526031 180.0
128.62532 52.0
128.641129 160.0
128.686279 220.0
128.73143 128.0
128.774643 184.0
128.817764 228.0
128.839859 228.0
129.031952 176.0
129.070389 4636.0
129.131439 52.0
129.152985 152.0
129.246811 72.0
129.287552 48.0
129.454193 240.0
129.575104 180.0
129.595505 144.0
129.63855 196.0
129.668594 188.0
129.693283 132.0
129.720459 368.0
129.772293 48.0
129.853928 124.0
129.899292 144.0
129.956009 152.0
129.978699 112.0
130.006561 236.0
130.049759 196.0
130.076538 1608.0
130.128494 108.0
130.314728 152.0
130.448822 144.0
130.523422 172.0
130.531631 140.0
130.564774 188.0
130.589783 136.0
130.721741 196.0
130.742218 124.0
130.808884 128.0
130.862854 112.0
130.901566 328.0
130.949387 48.0
131.009872 212.0
131.050629 2784.0
131.085785 1436.0
131.117081 80.0
131.189026 216.0
131.252487 172.0
131.31633 76.0
131.352661 160.0
131.512543 124.0
131.549072 160.0
131.578751 44.0
131.608429 216.0
131.626694 124.0
131.667801 28.0
131.736328 216.0
131.752319 60.0
131.839142 124.0
131.892197 168.0
131.930557 124.0
131.960281 108.0
132.05571 784.0
132.08725 308.0
132.104355 172.0
132.127243 56.0
132.16156 176.0
132.303452 112.0
132.406494 204.0
132.433975 184.0
132.526245 200.0
132.612473 152.0
132.750244 380.0
132.947525 88.0
133.004898 152.0
133.046219 140.0
133.063889 372.0
133.101425 504.0
133.241425 128.0
133.382812 176.0
133.399994 176.0
133.432175 148.0
133.931534 184.0
133.96608 176.0
134.065979 180.0
134.105667 180.0
134.2957 116.0
134.334915 100.0
134.395004 272.0
134.422592 276.0
134.466431 40.0
134.514908 76.0
134.556458 156.0
134.618011 204.0
134.648819 204.0
134.865997 152.0
134.928406 200.0
135.018585 164.0
135.079849 792.0
135.096832 164.0
135.19075 268.0
135.210602 176.0
135.326355 188.0
135.458908 148.0
135.557968 172.0
135.597366 68.0
135.648361 128.0
135.713272 216.0
135.748062 80.0
135.796753 100.0
135.933624 244.0
135.968445 156.0
136.079865 160.0
136.117004 116.0
136.177383 116.0
136.258698 168.0
136.316772 108.0
136.437637 144.0
136.576187 88.0
136.740021 152.0
136.830811 140.0
136.988281 168.0
137.014786 176.0
137.040421 240.0
137.133636 136.0
137.161835 156.0
137.317825 180.0
137.446121 148.0
137.467117 148.0
137.53714 164.0
137.787003 160.0
137.882797 224.0
137.990326 76.0
138.068985 200.0
138.348267 148.0
138.367004 196.0
138.423187 160.0
138.507507 132.0
138.58577 184.0
138.772308 160.0
138.924759 132.0
138.945862 88.0
138.990448 116.0
139.051453 268.0
139.069672 216.0
139.265106 176.0
139.342636 196.0
139.471878 196.0
139.589966 176.0
139.892929 152.0
139.965912 144.0
140.029495 168.0
140.064819 184.0
140.081314 200.0
140.142563 180.0
140.199127 100.0
140.307541 296.0
140.382996 172.0
140.578979 152.0
140.727493 176.0
140.791245 96.0
140.82431 212.0
140.892822 152.0
140.914078 152.0
140.962219 172.0
141.006241 104.0
141.044052 216.0
141.070023 2980.0
141.097 276.0
141.12207 52.0
141.145706 68.0
141.22139 220.0
141.245041 160.0
141.375168 92.0
141.394089 100.0
141.431961 160.0
141.487686 192.0
141.57164 92.0
141.592957 152.0
141.698914 104.0
141.733368 192.0
141.822769 132.0
141.848846 140.0
142.076859 1824.0
142.204636 52.0
142.301956 120.0
142.318588 132.0
142.404419 136.0
142.484833 160.0
142.686844 108.0
142.758179 132.0
142.779572 36.0
142.936584 172.0
143.050034 2432.0
143.085632 1988.0
143.126999 48.0
143.253235 132.0
143.308029 100.0
143.324707 140.0
143.360443 56.0
143.377121 220.0
143.434326 128.0
143.489151 160.0
143.574997 304.0
143.817017 108.0
144.030853 128.0
144.055878 672.0
144.093857 256.0
144.132599 136.0
144.210602 212.0
144.243515 144.0
144.286545 116.0
144.305679 92.0
144.345993 148.0
144.485046 156.0
144.575974 192.0
144.719589 200.0
144.789902 132.0
144.839066 188.0
144.901611 208.0
144.965607 180.0
145.066574 3488.0
145.098068 316.0
145.14682 236.0
145.165268 144.0
145.356247 152.0
145.51918 176.0
145.60202 164.0
145.639526 124.0
145.804855 196.0
145.984634 168.0
146.02742 156.0
146.07254 4828.0
146.108002 56.0
146.120407 140.0
146.168533 164.0
146.200638 136.0
146.225235 144.0
146.247772 96.0
146.281906 180.0
146.354691 112.0
146.429337 156.0
146.458237 128.0
146.56665 212.0
146.655823 164.0
146.702347 144.0
146.735367 164.0
146.759476 144.0
146.852066 128.0
146.906586 196.0
146.9431 92.0
147.037033 68.0
147.077789 676.0
147.11319 156.0
147.143097 208.0
147.180664 148.0
147.244507 160.0
147.266251 96.0
147.403946 144.0
147.447449 172.0
147.512711 104.0
147.57933 164.0
147.710983 48.0
147.759369 148.0
147.865845 132.0
147.936035 212.0
147.967499 104.0
148.079742 172.0
148.098267 200.0
148.209702 200.0
148.44725 112.0
148.503036 164.0
148.532486 196.0
148.57338 148.0
148.61705 156.0
148.653442 88.0
148.67598 208.0
148.697128 88.0
148.762665 188.0
148.837921 136.0
148.932632 104.0
149.062729 116.0
149.088058 164.0
149.112427 188.0
149.175629 108.0
149.32637 28.0
149.409439 112.0
149.484497 180.0
149.574554 168.0
149.684113 88.0
149.70845 164.0
149.908203 224.0
149.935013 168.0
150.037384 104.0
150.0569 184.0
150.210526 132.0
150.269073 156.0
150.356918 148.0
150.388657 172.0
150.417938 172.0
150.503387 228.0
150.613281 156.0
150.703674 88.0
150.757431 164.0
150.791641 184.0
151.035461 144.0
151.077728 200.0
151.122864 160.0
151.156021 160.0
151.34938 168.0
151.366531 184.0
151.496338 136.0
151.519943 164.0
151.53688 152.0
151.613937 128.0
151.645798 152.0
151.727417 144.0
151.998947 156.0
152.01857 188.0
152.092194 160.0
152.109375 140.0
152.160934 192.0
152.261612 208.0
152.490082 128.0
152.522034 44.0
152.539246 168.0
152.637589 152.0
152.826981 168.0
153.004181 112.0
153.068207 216.0
153.110062 184.0
153.319473 112.0
153.339188 60.0
153.600189 140.0
153.654816 120.0
153.672073 136.0
153.825089 128.0
153.852234 236.0
153.874466 140.0
153.896683 152.0
153.94606 80.0
154.117386 208.0
154.156036 184.0
154.195572 196.0
154.390884 32.0
154.418091 204.0
154.460129 92.0
154.612106 76.0
154.804153 128.0
154.871017 252.0
154.951889 124.0
155.0271 160.0
155.06427 112.0
155.085342 192.0
155.128708 184.0
155.195648 48.0
155.38414 116.0
155.617447 160.0
155.7267 52.0
155.79129 84.0
155.862915 140.0
155.943115 152.0
156.05661 296.0
156.096512 252.0
156.15419 136.0
156.191498 180.0
156.236267 96.0
156.332031 164.0
156.395523 192.0
156.4254 144.0
156.455276 192.0
156.475815 204.0
156.513153 160.0
156.58226 112.0
156.645325 100.0
156.799011 144.0
157.005936 92.0
157.06485 1868.0
157.113174 60.0
157.145615 164.0
157.320312 192.0
157.372742 84.0
157.452652 176.0
157.497604 180.0
157.567551 144.0
157.652496 88.0
157.746643 96.0
157.787476 112.0
157.975037 172.0
158.009048 140.0
158.073853 10504.0
158.09967 152.0
158.152695 212.0
158.214111 104.0
158.307907 108.0
158.32666 156.0
158.408096 172.0
158.530869 40.0
158.560928 196.0
158.618576 168.0
158.726379 124.0
158.776535 88.0
158.831711 80.0
158.864334 160.0
158.954651 68.0
158.992294 176.0
159.014877 64.0
159.045609 644.0
159.078659 1992.0
159.1203 180.0
159.183075 48.0
159.260925 76.0
159.293579 44.0
159.389053 28.0
159.439301 92.0
159.471985 40.0
159.570023 192.0
159.610245 176.0
159.69072 316.0
159.708328 28.0
159.979614 152.0
160.050583 144.0
160.088303 1056.0
160.135193 100.0
160.216797 84.0
160.243774 184.0
160.269714 176.0
160.418396 168.0
160.478912 184.0
160.640305 168.0
160.687744 80.0
160.695175 132.0
160.704208 196.0
160.784866 68.0
160.859848 128.0
160.912857 136.0
160.953262 252.0
161.001236 136.0
161.018921 164.0
161.044174 184.0
161.064499 136.0
161.097504 6112.0
161.166611 140.0
161.34993 108.0
161.468781 28.0
161.486481 216.0
161.514297 40.0
161.615494 124.0
161.883804 132.0
161.936981 44.0
162.052231 192.0
162.099182 1016.0
162.369431 140.0
162.379944 88.0
162.387054 208.0
162.479446 44.0
162.497192 144.0
162.537796 144.0
162.70784 132.0
162.745926 136.0
162.763702 160.0
162.789093 140.0
162.918625 136.0
162.946579 152.0
162.974518 224.0
162.999924 164.0
163.025345 176.0
163.077194 296.0
163.104126 164.0
163.243958 168.0
163.366043 176.0
163.511078 168.0
163.605255 84.0
163.699463 160.0
163.760574 72.0
163.796234 204.0
163.956757 172.0
164.07869 172.0
164.130096 132.0
164.153046 52.0
164.175995 140.0
164.242294 112.0
164.35965 128.0
164.486679 176.0
164.515335 116.0
164.722183 152.0
164.798813 216.0
164.9496 56.0
165.021179 128.0
165.047775 176.0
165.08255 128.0
165.117508 184.0
165.328125 124.0
165.348602 216.0
165.397232 176.0
165.420273 32.0
165.44989 272.0
165.561081 84.0
165.716339 176.0
165.796768 144.0
165.883911 164.0
166.024933 152.0
166.058273 144.0
166.196793 212.0
166.299438 152.0
166.404694 220.0
166.499695 268.0
166.674377 180.0
166.766891 152.0
166.784882 132.0
166.820297 144.0
166.913422 112.0
166.951996 212.0
167.106339 252.0
167.186096 72.0
167.274597 176.0
167.392044 128.0
167.495056 96.0
167.643631 216.0
167.72226 160.0
167.767212 220.0
167.997025 220.0
168.051895 104.0
168.07872 200.0
168.113815 212.0
168.165436 80.0
168.204147 108.0
168.224792 184.0
168.4133 160.0
168.439133 124.0
168.46994 168.0
168.488602 184.0
168.52179 156.0
168.570892 60.0
168.594147 124.0
168.618896 192.0
168.640671 140.0
168.82164 72.0
168.948364 188.0
169.007874 148.0
169.02858 144.0
169.095856 244.0
169.170929 52.0
169.336639 116.0
169.370316 136.0
169.440247 156.0
169.582428 212.0
169.611282 172.0
169.675034 88.0
169.722763 88.0
169.878372 168.0
169.940628 96.0
170.072983 140.0
170.096344 204.0
170.209015 160.0
170.24173 212.0
170.311859 44.0
170.441269 172.0
170.530106 128.0
170.600281 108.0
170.667877 160.0
170.725082 184.0
170.810913 152.0
170.964417 128.0
171.080505 664.0
171.104965 132.0
171.128403 148.0
171.175278 160.0
171.242981 244.0
171.271637 124.0
171.440979 184.0
171.472931 200.0
171.639084 212.0
171.66777 152.0
171.803406 108.0
171.892105 160.0
171.974762 244.0
172.089813 1616.0
172.194931 32.0
172.270676 164.0
172.30986 232.0
172.330765 112.0
172.354279 100.0
172.393478 56.0
172.552917 172.0
172.6026 208.0
172.667969 68.0
172.788788 176.0
172.861557 164.0
172.969055 216.0
173.059189 1760.0
173.09729 3752.0
173.135666 164.0
173.180954 36.0
173.217621 192.0
173.336807 184.0
173.3853 176.0
173.419373 52.0
173.495392 176.0
173.660583 104.0
173.715668 212.0
173.739273 64.0
173.765518 100.0
173.825867 176.0
173.847275 124.0
173.880966 172.0
173.961197 176.0
173.991211 212.0
174.016449 340.0
174.031219 272.0
174.068298 14824.0
174.095703 520.0
174.131607 188.0
174.157715 116.0
174.186356 64.0
174.211807 184.0
174.248764 68.0
174.287994 168.0
174.318756 68.0
174.324127 48.0
174.364197 68.0
174.422165 76.0
174.478836 124.0
174.501205 204.0
174.577148 164.0
174.619217 80.0
174.637634 60.0
174.66394 144.0
174.687607 48.0
174.784958 28.0
174.890213 168.0
174.979721 128.0
175.072464 2300.0
175.109985 876.0
175.190399 40.0
175.366943 56.0
175.44603 136.0
175.506668 136.0
175.59137 212.0
175.65715 200.0
175.775711 176.0
175.794174 152.0
175.947266 60.0
176.052887 196.0
176.142685 180.0
176.182297 120.0
176.294434 156.0
176.324982 92.0
176.34613 48.0
176.422089 152.0
176.454025 220.0
176.531189 284.0
176.60524 72.0
176.645874 188.0
176.782501 132.0
177.100189 160.0
177.415512 64.0
177.460587 180.0
177.521576 76.0
177.540131 84.0
177.638275 184.0
177.682709 160.0
178.047012 132.0
178.089508 208.0
178.419006 184.0
178.458878 148.0
178.51207 68.0
178.549286 44.0
178.65303 156.0
178.716873 104.0
178.767441 124.0
178.932465 72.0
179.198792 124.0
179.342682 120.0
179.409332 96.0
179.854797 68.0
180.530731 104.0
180.578873 164.0
180.624344 224.0
180.705612 216.0
180.731354 200.0
180.752747 60.0
180.889252 116.0
180.940109 156.0
181.146317 152.0
181.537613 208.0
181.671722 108.0
181.791122 164.0
182.171021 92.0
182.214005 124.0
182.299988 144.0
182.501587 212.0
182.751724 220.0
183.08551 108.0
183.276764 96.0
183.379166 180.0
183.430374 148.0
183.692368 200.0
183.745895 96.0
183.78096 188.0
183.875412 132.0
183.894302 244.0
183.934784 56.0
184.502075 268.0
184.536514 204.0
184.591293 180.0
184.734634 208.0
184.82933 220.0
184.973099 164.0
185.062103 340.0
185.092926 188.0
185.173126 132.0
185.219177 88.0
185.351913 196.0
185.528091 208.0
185.555191 88.0
185.747742 180.0
185.888809 136.0
185.972946 112.0
186.106918 136.0
186.429199 140.0
186.453659 188.0
186.687241 148.0
186.733688 236.0
186.934998 220.0
186.970383 160.0
186.997589 136.0
187.071716 376.0
187.111923 196.0
187.41423 128.0
187.449661 144.0
187.487808 100.0
187.566849 128.0
187.591385 140.0
187.771332 224.0
187.90773 112.0
188.030518 144.0
188.055084 172.0
188.084427 2624.0
188.240723 164.0
188.311722 72.0
188.365341 192.0
188.430664 184.0
188.471664 148.0
188.522079 216.0
188.56308 140.0
188.628677 88.0
188.69429 144.0
188.724365 100.0
188.825531 116.0
188.924011 48.0
188.989548 180.0
189.01149 180.0
189.047073 228.0
189.09256 27604.0
189.136719 76.0
189.146866 136.0
189.178497 260.0
189.21022 164.0
189.274963 188.0
189.314392 48.0
189.374664 144.0
189.431534 80.0
189.526062 204.0
189.544693 68.0
189.586609 52.0
189.619354 84.0
189.688019 68.0
189.710449 176.0
189.764771 80.0
189.841553 84.0
189.918335 180.0
189.940277 64.0
189.99585 156.0
190.04071 112.0
190.094437 3664.0
190.157043 204.0
190.26683 200.0
190.294296 36.0
190.356094 96.0
190.414642 164.0
190.464554 112.0
190.508499 64.0
190.55246 128.0
190.570312 80.0
190.717331 48.0
190.816299 44.0
190.912537 140.0
190.995041 172.0
191.070694 152.0
191.098618 196.0
191.173874 44.0
191.19313 128.0
191.226456 76.0
191.245422 112.0
191.325256 44.0
191.3638 108.0
191.435394 48.0
191.484955 84.0
191.518951 152.0
191.538712 108.0
191.630951 156.0
191.729156 100.0
191.76889 216.0
191.793091 124.0
191.838837 204.0
191.892776 180.0
191.917603 44.0
191.986526 120.0
192.240326 52.0
192.303802 84.0
192.342728 196.0
192.516373 32.0
192.68486 60.0
192.82579 148.0
192.911469 104.0
193.00824 184.0
193.152054 136.0
193.238693 124.0
193.306976 52.0
193.386093 164.0
193.500732 128.0
193.647491 148.0
193.697342 40.0
193.716736 148.0
193.921783 64.0
194.060379 184.0
194.262833 192.0
194.748581 32.0
194.779144 44.0
195.279434 92.0
195.490875 188.0
195.627258 112.0
195.763672 148.0
196.011597 204.0
196.337753 132.0
196.491165 128.0
196.619522 160.0
196.717209 144.0
196.934998 68.0
196.968521 160.0
197.077469 160.0
197.138947 260.0
197.219986 144.0
197.337402 88.0
197.65625 148.0
197.826981 144.0
198.01738 236.0
198.058594 196.0
198.079193 116.0
198.233093 140.0
198.277924 84.0
198.314362 152.0
198.3508 120.0
198.419052 136.0
198.549866 60.0
198.900574 100.0
199.012863 156.0
199.080261 156.0
199.147659 192.0
199.307785 44.0
199.352753 152.0
199.616989 228.0
199.847626 136.0
200.084045 100.0
200.289612 340.0
200.441742 128.0
200.527023 152.0
200.754639 172.0
201.000046 204.0
201.054214 856.0
201.143982 160.0
201.223022 100.0
201.361389 188.0
201.618469 200.0
201.649567 124.0
201.683487 40.0
201.759796 92.0
201.900467 144.0
202.06398 576.0
202.104843 136.0
202.206726 96.0
202.232193 200.0
202.254837 180.0
202.345413 92.0
202.563477 80.0
202.583298 84.0
202.634293 136.0
202.707962 64.0
202.787323 184.0
202.949921 144.0
203.064331 176.0
203.107437 2644.0
203.294952 60.0
203.317657 92.0
203.358307 112.0
203.380096 300.0
203.40564 60.0
203.431198 36.0
203.493652 176.0
203.530563 56.0
203.771973 160.0
203.814606 76.0
204.023087 212.0
204.113342 480.0
204.184143 184.0
204.204056 212.0
204.297913 84.0
204.343445 124.0
204.408875 140.0
204.445877 72.0
204.628036 48.0
205.100922 40.0
205.442871 236.0
205.567261 164.0
205.625717 88.0
205.688522 152.0
206.028336 192.0
206.0569 96.0
206.102615 120.0
206.136902 204.0
206.282669 220.0
206.388443 156.0
206.448486 172.0
206.560028 152.0
206.646347 184.0
206.900574 208.0
207.01796 164.0
207.124634 172.0
207.2453 120.0
207.298691 164.0
207.318756 136.0
207.364609 116.0
207.467789 180.0
207.585342 220.0
208.170731 180.0
208.236786 204.0
208.377548 60.0
208.41777 164.0
208.477264 108.0
208.526962 152.0
208.578705 180.0
208.702316 180.0
208.736816 124.0
208.831726 116.0
208.952545 188.0
209.027344 184.0
209.065689 196.0
209.182755 172.0
209.231705 108.0
209.418869 148.0
209.513931 148.0
209.548492 140.0
209.787018 204.0
209.998184 180.0
210.36174 200.0
210.416595 172.0
210.501389 120.0
210.526321 128.0
210.786301 48.0
210.811035 192.0
211.046448 164.0
211.074951 116.0
211.451431 156.0
211.480362 192.0
211.523788 44.0
211.58168 176.0
211.607742 60.0
211.697495 80.0
211.888657 92.0
212.012283 84.0
212.048172 172.0
212.391098 172.0
212.793533 316.0
212.883545 192.0
212.935806 188.0
213.037476 108.0
213.09198 152.0
213.267029 64.0
213.293182 96.0
213.313538 160.0
213.347794 168.0
213.461807 216.0
213.482162 80.0
213.511246 140.0
213.563599 128.0
213.691589 80.0
213.930222 188.0
213.953522 156.0
214.026306 176.0
214.157349 188.0
214.192307 148.0
214.279694 52.0
214.457443 156.0
214.489517 228.0
214.559479 64.0
214.614868 216.0
214.71402 124.0
214.754852 180.0
214.805145 148.0
214.89682 188.0
214.983704 180.0
215.110825 148.0
215.332733 112.0
215.417435 196.0
215.44957 92.0
215.50679 116.0
215.665802 144.0
215.7798 212.0
215.817535 164.0
215.836914 136.0
215.88298 112.0
215.917236 56.0
215.975739 76.0
216.02803 196.0
216.05011 112.0
216.07785 1504.0
216.15712 232.0
216.180527 124.0
216.262466 148.0
216.289551 100.0
216.347839 124.0
216.395447 384.0
216.41983 260.0
216.47168 156.0
216.496552 256.0
216.507782 192.0
216.589478 328.0
216.628922 164.0
216.649689 228.0
216.669495 180.0
216.709686 84.0
216.746933 308.0
216.78978 160.0
216.836578 172.0
216.858887 76.0
216.885818 76.0
216.961639 220.0
216.993454 312.0
217.025681 560.0
217.088043 238544.0
217.195419 288.0
217.234787 136.0
217.26001 148.0
217.292862 108.0
217.32106 140.0
217.364502 152.0
217.417633 336.0
217.452698 200.0
217.485443 224.0
217.540466 108.0
217.570206 2080.0
217.610718 112.0
217.671112 116.0
217.677307 72.0
217.682922 84.0
217.708603 132.0
217.756744 100.0
217.777649 144.0
217.806915 112.0
217.829712 76.0
217.86058 320.0
217.89122 116.0
217.935181 60.0
217.965271 168.0
218.010391 36.0
218.091171 27648.0
218.157227 152.0
218.211197 76.0
218.233795 180.0
218.253082 64.0
218.281799 148.0
218.317596 112.0
218.372574 104.0
218.406235 132.0
218.436539 140.0
218.486908 64.0
218.507172 84.0
218.51973 36.0
218.532639 92.0
218.572632 80.0
218.596848 64.0
218.629425 80.0
218.654434 32.0
218.691284 60.0
218.713303 44.0
218.756668 224.0
218.777481 80.0
218.797745 72.0
218.831055 64.0
218.864517 44.0
218.876175 112.0
218.933701 56.0
218.956314 104.0
218.994141 152.0
219.016113 152.0
219.036255 256.0
219.093369 3332.0
219.147461 28.0
219.164734 96.0
219.185226 148.0
219.213638 108.0
219.229218 116.0
219.261383 220.0
219.296478 124.0
219.327286 80.0
219.346588 92.0
219.367386 72.0
219.428162 192.0
219.454529 104.0
219.464294 104.0
219.502289 180.0
219.526932 120.0
219.56575 180.0
219.618378 164.0
219.648911 216.0
219.679382 112.0
219.711853 208.0
219.737289 224.0
219.757401 200.0
219.784607 144.0
219.796082 160.0
219.872116 248.0
219.972992 112.0
220.013275 148.0
220.08876 376.0
220.131363 104.0
220.199295 56.0
220.273132 96.0
220.346558 56.0
220.385056 140.0
220.426758 92.0
220.453354 84.0
220.474045 116.0
220.508728 168.0
220.542023 124.0
220.565659 72.0
220.598175 160.0
220.668274 96.0
220.710526 124.0
220.743988 140.0
220.814026 88.0
220.837692 28.0
220.88205 92.0
221.009262 44.0
221.092865 48.0
221.157227 48.0
221.287476 56.0
221.370392 68.0
221.429611 108.0
221.459229 68.0
221.586609 80.0
221.648834 76.0
221.684387 44.0
221.731796 140.0
221.82962 36.0
221.918549 96.0
221.939301 96.0
222.069778 60.0
222.099442 80.0
222.155807 188.0
222.189072 168.0
222.221069 92.0
222.304153 48.0
222.434113 76.0
222.731674 80.0
222.886154 128.0
222.921814 52.0
223.025833 100.0
223.120956 92.0
223.189331 36.0
223.76561 88.0
223.829071 68.0
224.720261 60.0
224.917221 160.0
224.944092 60.0
225.036041 60.0
225.254639 136.0
225.418961 80.0
225.858429 108.0
226.364212 156.0
226.421112 100.0
226.63678 100.0
226.924515 196.0
227.023468 28.0
227.233429 112.0
227.266434 84.0
227.685684 60.0
228.351669 140.0
228.405014 156.0
228.600571 104.0
228.760071 80.0
228.910614 92.0
229.025055 132.0
229.05217 92.0
229.098877 136.0
229.127472 136.0
229.154587 108.0
229.229919 100.0
229.269089 60.0
229.311279 44.0
229.422806 84.0
229.679123 56.0
229.811859 60.0
229.905396 108.0
229.963516 172.0
230.08046 124.0
230.424744 40.0
230.533524 152.0
230.569794 136.0
230.65744 116.0
230.708832 44.0
230.896301 200.0
230.927551 156.0
230.97493 324.0
230.996109 104.0
231.102753 17784.0
231.142563 164.0
231.152252 348.0
231.18428 228.0
231.210922 52.0
231.262375 32.0
231.383453 108.0
231.444016 52.0
231.483368 60.0
231.519714 112.0
231.607544 224.0
231.696472 80.0
231.77417 84.0
231.831741 68.0
232.025726 48.0
232.049973 136.0
232.106171 4196.0
232.147003 52.0
232.283493 56.0
232.380569 84.0
232.404831 60.0
232.453384 64.0
232.663452 76.0
232.702271 64.0
232.735672 72.0
232.838913 124.0
232.960419 44.0
233.036362 96.0
233.109421 576.0
233.328918 76.0
233.437592 100.0
233.556198 132.0
233.600647 104.0
233.629196 128.0
233.66571 120.0
233.760025 100.0
233.814804 84.0
233.840378 148.0
233.8909 196.0
233.9944 40.0
234.055283 60.0
234.475677 72.0
234.734787 40.0
234.81189 92.0
234.893387 88.0
235.146622 108.0
235.516052 56.0
235.622971 88.0
235.937744 72.0
236.369003 72.0
236.525085 36.0
236.99057 84.0
237.56694 52.0
237.766373 48.0
239.054382 188.0
239.466522 64.0
239.675995 68.0
240.329666 120.0
240.882263 204.0
240.931702 72.0
241.135635 68.0
241.336563 76.0
241.531387 44.0
242.382751 84.0
242.534607 84.0
243.735611 80.0
244.597061 88.0
244.830582 196.0
244.892868 160.0
245.871811 116.0
247.594391 36.0
248.064362 120.0
248.691696 84.0
250.169052 104.0
250.222565 64.0
250.282379 44.0
251.335144 120.0
251.51503 40.0
252.883606 116.0
254.027466 172.0
255.040375 136.0
256.102417 156.0
256.482239 116.0
257.100983 224.0
258.407867 44.0
258.446259 60.0
258.555054 132.0
258.791931 40.0
259.038513 188.0
259.097626 4240.0
259.512817 48.0
259.692413 96.0
259.733337 252.0
259.862427 44.0
259.98114 88.0
260.101624 696.0
260.167297 152.0
260.363159 60.0
260.732605 100.0
261.131256 92.0
261.662201 88.0
262.7612 96.0
263.154053 72.0
265.306335 80.0
265.974579 60.0
268.222198 84.0
268.99527 156.0
275.186859 124.0
275.583191 40.0
278.694366 100.0
281.268646 96.0
283.482666 128.0
283.526215 40.0
283.827911 84.0
287.872589 104.0
292.292816 100.0
297.216644 100.0
297.879211 72.0
299.764587 48.0
303.938202 108.0
306.459015 76.0
306.483398 48.0
307.288788 100.0
309.084686 188.0
309.221161 64.0
312.139862 28.0
314.217926 60.0
315.019287 84.0
316.455109 104.0
317.028931 100.0
319.066284 108.0
320.237 60.0
324.675781 108.0
324.700897 40.0
326.410248 68.0
327.936615 100.0
328.394501 56.0
334.110535 48.0
340.448486 96.0
341.981537 88.0
343.086609 96.0
344.732727 56.0
344.906433 84.0
346.834869 72.0
353.239471 68.0
355.509918 56.0
360.832153 112.0
364.231354 72.0
364.668274 44.0
365.645721 132.0
365.950226 136.0
367.535797 60.0
377.534821 52.0
380.875641 108.0
381.322479 108.0
383.088959 96.0
385.082153 104.0
386.497253 64.0
392.727814 76.0
393.374908 68.0
393.469666 40.0
396.634308 124.0
396.884064 80.0
399.191071 148.0
402.933716 80.0
405.093964 80.0
406.075958 92.0
406.98288 68.0
410.931244 52.0
412.870087 36.0
414.254303 40.0
415.052704 92.0
419.736908 76.0
425.120087 60.0
425.50592 80.0
425.682465 68.0
431.607819 120.0
432.261353 52.0
433.068634 80.0
435.461731 52.0
435.573883 68.0
436.446625 124.0
440.998871 108.0
443.057587 44.0
443.929382 84.0
444.235565 68.0
447.719879 80.0
449.055847 120.0
450.888123 96.0
456.182037 28.0
456.39035 80.0
458.527252 116.0
458.817108 96.0
462.550659 148.0
466.00116 72.0
468.015717 160.0
468.144897 104.0
468.261169 80.0
470.149445 48.0
471.155457 104.0
473.291992 44.0
483.578735 88.0
486.063507 56.0
490.126343 92.0
492.804565 40.0
502.443176 44.0
506.68576 48.0
511.238678 88.0
511.756317 56.0
512.571533 60.0
519.797363 40.0
523.629578 92.0
524.618347 72.0
540.569763 128.0
540.75946 72.0
542.844177 72.0
545.555603 60.0
547.328186 100.0
549.789429 32.0
552.639771 68.0
557.582153 96.0
570.571472 120.0
574.777039 64.0
577.260925 84.0
585.799133 96.0
589.451294 72.0
594.09436 84.0
600.827209 96.0
611.543762 84.0
613.395752 108.0
615.813416 52.0
644.180969 84.0
646.54718 100.0
669.876038 112.0
677.811584 100.0
683.09668 84.0
695.921387 84.0
696.730164 108.0
704.674805 52.0
718.589539 144.0
722.195984 68.0
723.753235 64.0
726.609924 48.0
742.083191 56.0
744.448914 68.0
757.713989 84.0
758.716858 36.0
778.725159 72.0
783.141174 60.0
783.659241 228.0
787.759644 204.0
805.798462 32.0
811.452332 116.0
813.857971 52.0
816.085144 104.0
841.143311 48.0
844.020325 36.0
858.514038 256.0
860.322754 56.0
864.484131 132.0
883.683777 196.0
884.435303 88.0
886.454834 96.0
898.065308 80.0
911.474182 140.0
911.823608 136.0
917.505676 68.0
929.365662 148.0
930.257751 84.0
930.476318 168.0
931.885315 104.0
932.638855 36.0
932.948853 136.0
946.119629 68.0
946.511475 96.0
966.429382 52.0
983.175659 208.0
987.730286 188.0
988.531067 128.0
996.707642 180.0
1004.356506 192.0
1016.477783 220.0
1031.041382 212.0
1032.434937 108.0
1043.380005 72.0
1044.421753 148.0
1053.859253 48.0
1053.969116 200.0
1054.027344 164.0
1059.487793 148.0
1065.456177 172.0
1066.807861 68.0
1078.880737 148.0
1080.554932 220.0
1110.998169 184.0
1111.303345 104.0
1125.440063 140.0
1128.326294 240.0
1133.359253 188.0
1133.607178 152.0
1134.391357 192.0
1143.902954 116.0
1145.754883 236.0
1151.305908 40.0
1151.494995 128.0
1156.058105 164.0
1158.990112 88.0
1159.810059 176.0
1160.284546 156.0
1161.172852 140.0
1164.57312 64.0
1167.563477 200.0
1169.189331 200.0
1170.80957 56.0
1171.981201 172.0
1173.773804 160.0
1174.189697 112.0
1174.646729 104.0
1175.792969 168.0
1176.857788 160.0
1180.793701 132.0
1181.717163 80.0
1183.907593 128.0
1187.34082 208.0
1189.893433 172.0
1190.270996 184.0
1190.645752 196.0
1195.34375 156.0
1196.045776 128.0
1201.737793 152.0
1202.131104 148.0
1205.452515 188.0
1205.922485 180.0
1207.630249 108.0
1208.997437 200.0
1209.484497 36.0
1211.149292 168.0
1211.263916 156.0
1211.596436 80.0
1218.318604 68.0
1219.041138 240.0
1223.694458 96.0
1225.191772 168.0
1225.296265 176.0
1226.438965 56.0
1227.282471 132.0
1228.300659 64.0
1228.795166 180.0
1229.361084 152.0
1230.861938 176.0
1231.448486 208.0
1231.972412 136.0
1232.146973 164.0
1232.349609 212.0
1232.789795 224.0
1235.915405 120.0
1239.121948 252.0
1240.817993 80.0
1243.202759 92.0
1246.538208 132.0
1249.758545 180.0
1250.293335 60.0
1250.427124 48.0
1250.771973 220.0
1253.920288 180.0
1255.30188 168.0
1257.06543 136.0
1263.056396 164.0
1268.770874 132.0
1271.175171 120.0
1271.281616 216.0
1272.133301 84.0
1272.516724 64.0
1274.967285 124.0
1276.05481 140.0
1278.615479 72.0
1280.259888 128.0
1280.950806 120.0
1283.937134 244.0
1286.512817 156.0
1287.026855 136.0
1287.590942 92.0
1289.655762 160.0
1292.5448 104.0
1292.866821 184.0
1293.01001 136.0
1294.391602 56.0
1295.22229 228.0
1296.017456 188.0
1296.504761 148.0
1300.305664 116.0
1301.210083 132.0
1301.920898 220.0
1303.127563 132.0
1303.601807 100.0
1304.140747 204.0
1304.744629 108.0
1305.211914 176.0
1305.974243 168.0
1307.528198 176.0
1311.885742 180.0
1312.765381 220.0
1313.868896 100.0
1314.453369 204.0
1314.6698 96.0
1318.309326 152.0
1318.511597 120.0
1319.350098 152.0
1320.07312 108.0
1320.977173 164.0
1321.476318 152.0
1324.676025 72.0
1328.74292 92.0
1329.519287 164.0
1330.136108 132.0
1330.455566 64.0
1330.651489 116.0
1331.196045 112.0
1331.639038 196.0
1332.234741 184.0
1333.419067 128.0
1333.724243 104.0
1334.087769 180.0
1335.520142 216.0
1338.620361 116.0
1339.166504 160.0
1340.106201 244.0
1340.171875 312.0
1341.09729 128.0
1341.323242 132.0
1345.269531 192.0
1346.130981 120.0
1349.396973 116.0
1349.616333 120.0
1350.091675 160.0
1351.854614 144.0
1354.834473 180.0
1355.80896 48.0
1356.36438 192.0
1361.736694 152.0
1362.698975 96.0
1362.912109 108.0
1363.668945 204.0
1366.154175 156.0
1366.382324 52.0
1368.523926 184.0
1370.460938 168.0
1371.337891 156.0
1373.58667 44.0
1375.829956 160.0
1378.171143 48.0
1378.385376 252.0
1382.415405 160.0
1384.599121 112.0
1384.969482 184.0
1385.643555 80.0
1385.984375 48.0
1386.458618 152.0
1386.577148 144.0
1386.629028 208.0
1387.036743 88.0
1387.503784 156.0
1391.071899 160.0
1391.814331 144.0
1393.307129 180.0
1396.153809 84.0
1396.562866 44.0
1396.905029 220.0
1397.351318 68.0
1398.415405 160.0
1398.534546 128.0
1398.661011 116.0
1399.606445 104.0
1402.295654 120.0
1406.479858 188.0
1408.757324 172.0
1410.371216 48.0
1410.550659 100.0
1411.260864 144.0
1412.494751 140.0
1414.732178 108.0
1417.001221 64.0
1417.315918 184.0
1418.754883 68.0
1419.782104 140.0
1419.95459 128.0
1421.58252 148.0
1421.860107 160.0
1422.528076 160.0
1423.038574 220.0
1424.237305 236.0
1424.390259 180.0
1424.555542 228.0
1427.772461 144.0
1428.434326 124.0
1429.374634 140.0
1429.60791 144.0
1429.796143 100.0
1429.871338 160.0
1431.866333 180.0
1438.803345 112.0
1438.992065 152.0
1440.328613 108.0
1440.729004 100.0
1440.978271 132.0
1441.204956 160.0
1442.073975 68.0
1442.353638 160.0
1445.144043 52.0
1445.302979 248.0
1446.052124 212.0
1446.105103 180.0
1449.725098 232.0
1449.944824 184.0
1450.626953 152.0
1450.816406 156.0
1451.430542 172.0
1451.832397 132.0
1452.230713 192.0
1452.408813 160.0
1453.258423 208.0
1454.161499 196.0
1454.518188 100.0
1454.958496 188.0
1455.110352 188.0
1455.231812 100.0
1455.899902 164.0
1456.591064 92.0
1456.743042 164.0
1458.057495 144.0
1459.64624 148.0
1460.91626 136.0
1461.593384 56.0
1462.978516 220.0
1463.123169 160.0
1463.45813 256.0
1463.915039 36.0
1464.851807 140.0
1465.77356 164.0
1466.208008 228.0
1466.771973 96.0
1467.389404 108.0
1469.204468 48.0
1469.784302 224.0
1471.425171 140.0
1472.196411 164.0
1473.082275 136.0
1473.258057 156.0
1473.540649 40.0
1473.647705 60.0
1474.793945 168.0
1474.962036 136.0
1475.275391 180.0
1475.695923 208.0
1477.30188 212.0
1478.21228 172.0
1478.388306 40.0
1478.510742 148.0
1478.748047 116.0
1479.674194 176.0
1481.466187 216.0
1482.354858 188.0
1483.458496 116.0
1483.742188 172.0
1484.294189 196.0
1484.715942 180.0
1485.552002 260.0
1487.186279 152.0
1487.442749 184.0
1488.260986 132.0
1488.902832 184.0
1491.879517 160.0
1491.987061 40.0
1492.248535 72.0
1492.486816 136.0
1492.755981 200.0
1493.409668 120.0
1493.655762 148.0
1494.194214 156.0
1496.32605 164.0
1496.826416 216.0
1497.565063 188.0
1498.428467 156.0
1498.613403 132.0
1499.738525 144.0
1500.324341 88.0
1501.488525 192.0
1502.514404 124.0
1503.293701 172.0
