>compound MLS001332533-01!82640-04-8
>formula C28H27NO4S
>ionization [M+H]+
>parentmass 474.17453
#inchi InChI=1S/C28H27NO4S/c30-21-8-4-20(5-9-21)28-26(24-13-10-22(31)18-25(24)34-28)27(32)19-6-11-23(12-7-19)33-17-16-29-14-2-1-3-15-29/h4-13,18,30-31H,1-3,14-17H2
#inchikey GZUITABIAKMVPG
#origInchi InChI=1S/C28H27NO4S.ClH/c30-21-8-4-20(5-9-21)28-26(24-13-10-22(31)18-25(24)34-28)27(32)19-6-11-23(12-7-19)33-17-16-29-14-2-1-3-15-29;/h4-13,18,30-31H,1-3,14-17H2;1H
#Ion_Source LC-ESI
#Instrument qTof
#Compound_Source NIH Pharmacologically Active Library
#PI Dorrestein
#Data_Collector VP/LMS
#Scan -1
#Precursor_MZ 474.177
#ExactMass 473.166
#Charge 1
#CAS_Number N/A
#Pubmed_ID N/A
#Smiles Oc1ccc(cc1)c2sc3cc(O)ccc3c2C(=O)c4ccc(OCCN5CCCCC5)cc4.Cl
#INCHI_AUX N/A
#Library_Class 1
#SpectrumID CCMSLIB00000085407
#IonMode Positive
#UpdateWorkflowName UPDATE-SINGLE-ANNOTATED-GOLD
#LibraryQualityString Gold
#TaskID d252d724072548979f1f6f1ced849daf
##Scan# 1685
#SpectrumFile p4-A06_GA6_01_18331.mzXML
#LibraryName Pharm_Active_Library.mgf
#MQScore -1
#Organism Pharm_Active_Library
#TIC_Query 0
#RT_Query -1
#MZErrorPPM -1
#SharedPeaks 0
#MassDiff 0
#LibMZ -1
#SpecMZ 474.177
#SpecCharge 0
#internalFilename spec-00000.mgf

>collision 10
44.935345 196.0
44.980721 128.0
44.999554 148.0
45.04348 160.0
45.153191 192.0
45.34721 116.0
45.418274 144.0
45.49342 176.0
45.525642 184.0
45.551968 228.0
45.571316 136.0
45.584751 128.0
45.622688 124.0
45.739418 184.0
45.756916 176.0
45.766342 216.0
45.871426 60.0
46.012417 184.0
46.075199 160.0
46.091415 124.0
46.126553 212.0
46.173874 136.0
46.222576 92.0
46.272655 236.0
46.326828 104.0
46.39323 208.0
46.408146 164.0
46.420349 172.0
46.462395 160.0
46.499031 164.0
46.774948 148.0
46.787201 164.0
46.800816 212.0
46.843037 224.0
47.013466 196.0
47.062607 148.0
47.085819 180.0
47.139099 164.0
47.189674 176.0
47.226269 184.0
47.408684 92.0
47.438839 108.0
47.451176 204.0
47.522495 192.0
47.565617 176.0
47.603481 172.0
47.878521 116.0
47.906067 172.0
47.919846 116.0
47.959808 28.0
48.056339 256.0
48.155964 180.0
48.285648 156.0
48.389431 128.0
48.712921 200.0
48.781662 160.0
48.800114 164.0
48.827923 172.0
49.066032 172.0
49.121815 120.0
49.148323 248.0
49.335476 52.0
49.457172 208.0
49.549595 220.0
49.593037 176.0
49.628082 60.0
49.71365 144.0
49.818954 188.0
49.89484 96.0
49.941246 184.0
49.991894 172.0
50.014534 188.0
50.059654 208.0
50.158089 108.0
50.22765 180.0
50.293499 224.0
50.352798 108.0
50.376808 48.0
50.448879 76.0
50.488472 132.0
50.535152 60.0
50.602402 208.0
50.624325 108.0
50.661152 232.0
50.750439 212.0
50.792984 128.0
50.886646 124.0
50.970448 184.0
51.054317 148.0
51.133987 268.0
51.185867 208.0
51.282112 192.0
51.316322 144.0
51.326305 392.0
51.336285 140.0
51.371944 136.0
51.431873 124.0
51.453289 180.0
51.526123 108.0
51.554703 32.0
51.589005 164.0
51.601871 136.0
51.614738 212.0
51.627609 212.0
51.830879 152.0
51.990055 96.0
52.010147 156.0
52.025936 168.0
52.061832 148.0
52.076195 288.0
52.191162 184.0
52.208416 64.0
52.253006 96.0
52.356647 232.0
52.408504 76.0
52.469036 116.0
52.483456 196.0
52.528923 220.0
52.565674 172.0
52.593292 236.0
52.668179 144.0
52.701946 128.0
52.787849 184.0
52.818504 44.0
52.848885 108.0
52.949856 128.0
52.9888 188.0
53.083542 128.0
53.131405 172.0
53.176388 152.0
53.206871 168.0
53.248981 124.0
53.269318 136.0
53.288204 160.0
53.327438 128.0
53.337612 56.0
53.350697 112.0
53.439411 132.0
53.490349 92.0
53.525288 236.0
53.574806 156.0
53.675373 196.0
53.692837 160.0
53.707153 172.0
53.749767 112.0
53.764359 148.0
53.819828 80.0
53.869484 136.0
53.883408 204.0
53.903088 100.0
54.066872 104.0
54.169365 104.0
54.181084 224.0
54.277817 120.0
54.288082 84.0
54.475403 188.0
54.515621 124.0
54.661205 176.0
54.67445 216.0
54.706829 236.0
54.783405 188.0
55.004601 176.0
55.031174 136.0
55.082863 80.0
55.205532 128.0
55.238071 128.0
55.322422 148.0
55.566952 128.0
55.628368 208.0
55.644127 204.0
55.724327 196.0
55.755531 72.0
55.834324 108.0
55.846226 172.0
55.865562 160.0
56.017403 136.0
56.306763 100.0
56.335194 120.0
56.460697 188.0
56.489117 144.0
56.536995 52.0
56.6418 156.0
56.766193 116.0
56.815689 108.0
56.856205 224.0
56.935772 224.0
57.132675 296.0
57.236526 148.0
57.402279 240.0
57.427917 144.0
57.590927 260.0
57.686123 196.0
57.882805 136.0
57.900978 196.0
57.961308 160.0
58.008556 180.0
58.098026 180.0
58.142029 184.0
58.16024 220.0
58.25135 148.0
58.356209 176.0
58.366852 108.0
58.457458 156.0
58.566216 152.0
58.641327 188.0
58.704903 156.0
58.785755 180.0
59.030167 172.0
59.062286 44.0
59.129604 296.0
59.187778 160.0
59.21381 136.0
59.261299 108.0
59.324135 80.0
59.350121 164.0
59.397739 96.0
59.515911 124.0
59.565056 140.0
59.585026 112.0
59.606537 204.0
59.641884 108.0
59.761833 100.0
59.875748 168.0
59.912716 44.0
59.930481 168.0
59.958939 232.0
60.008266 160.0
60.145565 36.0
60.176098 180.0
60.258297 152.0
60.323036 224.0
60.403614 148.0
60.415318 156.0
60.477886 80.0
60.60635 172.0
60.648979 156.0
60.666866 144.0
60.772305 160.0
60.974197 144.0
61.046886 164.0
61.062817 148.0
61.311913 176.0
61.327499 156.0
61.372707 120.0
61.392979 172.0
61.414814 68.0
61.466297 152.0
61.6912 132.0
61.716213 176.0
61.808498 136.0
61.929043 112.0
61.94072 176.0
61.969181 180.0
62.038731 140.0
62.151653 188.0
62.233273 120.0
62.349514 168.0
62.363659 92.0
62.402958 144.0
62.498901 152.0
62.51149 152.0
62.566578 136.0
62.585472 156.0
62.610668 32.0
62.621693 132.0
62.665798 344.0
62.782444 116.0
62.878681 188.0
62.897621 116.0
62.973408 152.0
63.011322 144.0
63.02396 168.0
63.045731 180.0
63.193138 224.0
63.216873 76.0
63.360962 152.0
63.457638 216.0
63.505211 176.0
63.679798 200.0
63.740166 192.0
63.859398 92.0
63.873341 188.0
63.887566 192.0
64.015564 124.0
64.079071 140.0
64.125282 140.0
64.278381 136.0
64.327858 176.0
64.358192 92.0
64.373634 172.0
64.383743 304.0
64.485992 192.0
64.551537 216.0
64.658905 104.0
64.679527 104.0
64.880028 144.0
64.902206 188.0
64.928741 172.0
64.995239 164.0
65.118851 120.0
65.149368 140.0
65.20079 156.0
65.382515 192.0
65.42437 200.0
65.513931 160.0
65.525826 64.0
65.562889 116.0
65.58223 196.0
65.640266 108.0
65.706146 156.0
65.751579 236.0
65.869446 228.0
65.898521 124.0
65.934074 152.0
65.989029 156.0
66.05629 144.0
66.07637 220.0
66.173477 212.0
66.200569 164.0
66.26741 200.0
66.370598 212.0
66.468468 72.0
66.479828 152.0
66.513908 204.0
66.599968 200.0
66.690956 200.0
66.768997 160.0
66.783638 172.0
66.818214 156.0
66.878006 164.0
66.897537 200.0
67.000137 140.0
67.088142 184.0
67.133789 136.0
67.220253 84.0
67.243095 268.0
67.254524 208.0
67.340691 196.0
67.370461 72.0
67.381897 260.0
67.437454 176.0
67.494675 208.0
67.663193 140.0
67.694305 160.0
67.76474 164.0
67.815994 116.0
67.84996 52.0
67.9254 132.0
68.117455 156.0
68.134331 160.0
68.206184 44.0
68.230843 100.0
68.25222 120.0
68.367363 184.0
68.462845 144.0
68.494141 148.0
68.507965 356.0
68.606194 160.0
68.680397 208.0
68.736488 88.0
68.758018 188.0
68.772797 160.0
68.838837 144.0
68.866913 132.0
68.918236 176.0
68.947868 36.0
68.972656 172.0
69.040443 136.0
69.073524 136.0
69.141365 164.0
69.235725 200.0
69.270508 132.0
69.333473 132.0
69.369011 272.0
69.383919 212.0
69.514229 216.0
69.534142 140.0
69.577393 148.0
69.843178 148.0
69.869797 172.0
69.898079 188.0
69.996292 136.0
70.176247 168.0
70.217934 196.0
70.28299 236.0
70.423218 220.0
70.446609 112.0
70.503418 124.0
70.523468 304.0
70.553246 172.0
70.597031 152.0
70.615425 156.0
70.745941 140.0
70.779427 172.0
70.802872 136.0
70.863174 176.0
70.935242 64.0
71.054543 140.0
71.107826 188.0
71.263206 196.0
71.546722 216.0
71.710114 232.0
71.745514 156.0
71.914192 68.0
72.017189 192.0
72.08548 224.0
72.11824 188.0
72.142227 160.0
72.245384 176.0
72.338455 244.0
72.382477 128.0
72.417152 160.0
72.509529 176.0
72.648567 156.0
72.66214 128.0
72.701172 112.0
72.755928 228.0
72.813217 124.0
72.935547 184.0
72.982506 200.0
73.258858 208.0
73.318497 148.0
73.424194 172.0
73.444664 92.0
73.482193 108.0
73.526558 156.0
73.553864 128.0
73.635818 68.0
73.65461 264.0
73.770805 72.0
73.794739 196.0
73.868279 176.0
73.967529 180.0
74.006798 132.0
74.102814 152.0
74.212509 52.0
74.284538 148.0
74.456177 148.0
74.581596 128.0
74.657249 68.0
74.714005 140.0
74.812103 132.0
74.839645 156.0
74.855141 160.0
74.893036 108.0
74.913704 60.0
74.939545 236.0
74.989517 144.0
75.02227 164.0
75.070549 60.0
75.113663 128.0
75.127464 212.0
75.170601 168.0
75.303528 352.0
75.431389 148.0
75.471878 152.0
75.512657 216.0
75.590508 184.0
75.692635 100.0
75.832954 60.0
75.881172 192.0
75.914436 248.0
75.97168 152.0
76.174835 124.0
76.317291 128.0
76.349083 168.0
76.383377 184.0
76.484299 184.0
76.59922 92.0
76.613159 132.0
76.648003 100.0
76.684601 172.0
76.703773 136.0
76.743874 80.0
76.775261 208.0
76.81955 112.0
76.836304 68.0
76.888657 148.0
76.920074 400.0
76.988777 160.0
77.070267 216.0
77.094727 216.0
77.119194 32.0
77.143669 140.0
77.173386 140.0
77.201363 132.0
77.227959 176.0
77.269585 132.0
77.304573 268.0
77.388596 164.0
77.411362 152.0
77.479668 44.0
77.595337 96.0
77.609367 192.0
77.639175 220.0
77.676003 124.0
77.704865 180.0
77.725128 128.0
77.97625 148.0
78.072945 160.0
78.085258 200.0
78.097565 112.0
78.116913 196.0
78.197853 148.0
78.314056 152.0
78.340485 176.0
78.403915 176.0
78.423302 164.0
78.527321 188.0
78.663185 168.0
78.693199 144.0
78.87339 236.0
78.970642 180.0
78.995399 156.0
79.020416 204.0
79.066177 136.0
79.085648 204.0
79.23439 180.0
79.250191 280.0
79.279984 152.0
79.321228 220.0
79.340729 140.0
79.496811 52.0
79.512787 180.0
79.544624 132.0
79.581253 260.0
79.642395 116.0
79.839676 132.0
79.914383 180.0
79.949974 144.0
80.014053 172.0
80.149414 152.0
80.186836 144.0
80.215355 232.0
80.268837 144.0
80.281326 116.0
80.432976 144.0
80.493675 240.0
80.513321 68.0
80.529396 176.0
80.545471 184.0
80.574249 216.0
80.641953 112.0
80.693794 156.0
80.838593 172.0
80.972946 172.0
81.006973 128.0
81.096565 96.0
81.119873 128.0
81.202385 184.0
81.22567 180.0
81.280052 140.0
81.302818 172.0
81.315376 124.0
81.331535 76.0
81.345894 164.0
81.365639 76.0
81.394981 144.0
81.469803 184.0
81.55246 212.0
81.592804 196.0
81.64595 172.0
81.741295 52.0
81.802483 180.0
81.920029 200.0
82.065514 56.0
82.13945 92.0
82.269379 168.0
82.312714 144.0
82.356056 148.0
82.406631 160.0
82.428314 176.0
82.455421 148.0
82.713448 260.0
82.761139 48.0
82.79686 128.0
82.828148 176.0
82.853508 140.0
83.022072 180.0
83.043839 52.0
83.082611 168.0
83.150879 288.0
83.297951 156.0
83.352455 180.0
83.425156 340.0
83.468788 164.0
83.597946 200.0
83.616142 108.0
83.632523 180.0
83.658005 68.0
83.736305 128.0
83.750877 216.0
83.794594 40.0
83.845619 216.0
83.876602 140.0
83.934944 188.0
84.083107 516.0
84.104027 164.0
84.179459 200.0
84.479202 140.0
84.597656 104.0
84.739166 168.0
84.847298 200.0
84.909645 244.0
85.081032 128.0
85.118843 128.0
85.287865 244.0
85.302567 84.0
85.43129 164.0
85.446007 160.0
85.468086 212.0
85.510414 44.0
85.576683 168.0
85.642975 172.0
85.659554 132.0
85.703773 132.0
85.718513 204.0
85.731415 172.0
85.912102 212.0
86.245346 152.0
86.274063 116.0
86.314735 156.0
86.479385 184.0
86.494194 140.0
86.518257 168.0
86.564545 96.0
86.666428 120.0
86.686806 124.0
86.807297 160.0
86.822136 192.0
86.926018 192.0
86.974274 168.0
86.996544 84.0
87.015114 140.0
87.100533 104.0
87.154411 172.0
87.217598 172.0
87.304977 172.0
87.517113 180.0
87.563667 132.0
87.653084 184.0
87.675446 92.0
87.761192 192.0
87.839523 84.0
87.910423 56.0
87.929085 140.0
87.942146 152.0
87.962677 204.0
88.012886 228.0
88.076584 96.0
88.141968 52.0
88.156921 68.0
88.538551 144.0
88.679062 192.0
88.780304 112.0
88.804688 148.0
88.883476 160.0
88.961159 184.0
89.009239 160.0
89.238472 208.0
89.488708 44.0
89.737404 128.0
89.797752 212.0
89.929825 172.0
90.086548 108.0
90.158722 260.0
90.310562 188.0
90.438255 192.0
90.493156 176.0
90.555641 152.0
90.690163 52.0
90.713791 152.0
90.811508 176.0
90.849449 112.0
90.940529 204.0
91.022163 140.0
91.057335 176.0
91.088631 180.0
91.117126 164.0
91.14183 200.0
91.183632 204.0
91.210243 52.0
91.263474 96.0
91.360474 204.0
91.56414 128.0
91.732224 184.0
91.760406 116.0
91.818771 164.0
91.824631 100.0
91.829514 132.0
91.851944 140.0
91.890099 180.0
91.915245 156.0
91.985512 104.0
92.082893 176.0
92.103905 116.0
92.300751 188.0
92.484406 172.0
92.583961 52.0
92.612694 88.0
92.631844 212.0
92.664413 180.0
92.687408 204.0
92.718063 124.0
92.797379 192.0
92.894463 192.0
92.925156 200.0
92.938591 92.0
92.965454 152.0
93.055672 164.0
93.159378 120.0
93.184349 148.0
93.199722 204.0
93.215096 140.0
93.383804 148.0
93.401581 244.0
93.445824 128.0
93.526649 144.0
93.580551 68.0
93.605583 216.0
93.671066 136.0
93.719231 196.0
93.83873 188.0
93.925507 168.0
93.971809 232.0
93.985313 168.0
94.110771 204.0
94.188019 200.0
94.414536 200.0
94.487656 204.0
94.551514 200.0
94.613449 80.0
94.667664 120.0
94.692841 88.0
94.845909 216.0
94.865288 76.0
94.960304 112.0
95.107758 164.0
95.245621 180.0
95.292328 180.0
95.342766 132.0
95.372719 204.0
95.439964 208.0
95.560371 128.0
95.593628 168.0
95.624763 144.0
95.718208 48.0
95.74012 160.0
95.757156 128.0
95.790268 64.0
95.840927 212.0
95.924728 184.0
96.065132 80.0
96.079712 356.0
96.113907 120.0
96.182213 144.0
96.227112 184.0
96.290817 160.0
96.405846 220.0
96.522148 168.0
96.64537 144.0
96.688911 192.0
96.717781 56.0
96.741272 172.0
96.766724 52.0
96.978287 128.0
97.090233 644.0
97.466072 184.0
97.502312 80.0
97.653694 192.0
97.698936 148.0
97.728447 212.0
97.759933 52.0
97.866226 140.0
97.933182 184.0
98.022217 124.0
98.059395 132.0
98.098373 2552.0
98.120384 44.0
98.165733 176.0
98.179535 52.0
98.258438 200.0
98.280144 84.0
98.31115 168.0
98.341316 88.0
98.436081 120.0
98.457802 192.0
98.537689 208.0
98.59214 120.0
98.62574 80.0
98.698883 168.0
98.712723 124.0
98.752281 56.0
98.821518 204.0
98.859108 156.0
98.944901 292.0
98.997681 120.0
99.076912 192.0
99.100525 244.0
99.195137 176.0
99.235458 216.0
99.362389 204.0
99.658218 100.0
99.755013 204.0
99.868942 148.0
99.912704 152.0
99.980354 152.0
100.017342 192.0
100.068138 40.0
100.097801 152.0
100.123695 192.0
100.145599 196.0
100.334908 76.0
100.350853 116.0
100.4785 224.0
100.600235 128.0
100.761993 224.0
100.899895 112.0
101.118706 236.0
101.157959 44.0
101.308151 180.0
101.346214 132.0
101.374268 212.0
101.546677 108.0
101.570747 108.0
101.685112 144.0
101.731277 180.0
101.752083 144.0
101.766884 196.0
101.887924 176.0
101.910019 232.0
101.960449 124.0
102.134087 192.0
102.149254 184.0
102.225922 148.0
102.352524 220.0
102.396828 152.0
102.451218 136.0
102.584221 188.0
102.697136 172.0
102.77581 204.0
102.860573 152.0
102.971626 212.0
102.993843 160.0
103.018364 1368.0
103.117088 168.0
103.157516 188.0
103.272774 272.0
103.369881 252.0
103.46096 140.0
103.497406 60.0
103.580437 80.0
103.641212 140.0
103.663506 164.0
103.787155 184.0
103.836601 156.0
103.860161 184.0
103.941307 140.0
103.975807 160.0
104.022491 204.0
104.044823 444.0
104.111824 36.0
104.204277 196.0
104.315002 128.0
104.3638 180.0
104.437012 136.0
104.459381 200.0
104.510246 76.0
104.66153 196.0
104.742325 108.0
104.805481 140.0
104.848274 156.0
105.031906 180.0
105.07869 224.0
105.107254 160.0
105.274643 104.0
105.28894 244.0
105.30732 168.0
105.397202 136.0
105.422424 140.0
105.495308 124.0
105.52597 200.0
105.581184 144.0
105.622345 124.0
105.683456 136.0
105.703918 172.0
105.74485 120.0
105.783745 192.0
105.820595 120.0
106.006989 188.0
106.057388 196.0
106.162781 140.0
106.185341 144.0
106.203804 156.0
106.298172 192.0
106.389786 208.0
106.474716 172.0
106.540451 176.0
106.649353 144.0
106.667854 148.0
106.729294 208.0
106.81385 132.0
106.84227 108.0
106.904495 228.0
107.12468 108.0
107.176186 124.0
107.2071 176.0
107.322533 164.0
107.367897 164.0
107.524689 104.0
107.739433 124.0
107.791084 180.0
107.865486 208.0
107.900635 152.0
107.929581 124.0
108.001961 176.0
108.081848 296.0
108.229599 48.0
108.281372 172.0
108.302086 60.0
108.374588 144.0
108.391167 116.0
108.413963 136.0
108.540413 140.0
108.664856 136.0
108.682526 148.0
108.71051 100.0
108.824669 104.0
108.930588 292.0
109.148811 232.0
109.21328 148.0
109.377655 160.0
109.440109 144.0
109.60466 104.0
109.721375 112.0
109.76516 172.0
109.789413 216.0
109.904915 116.0
109.927872 72.0
109.975868 112.0
110.097755 4064.0
110.138275 128.0
110.15863 228.0
110.201401 164.0
110.226479 108.0
110.245285 180.0
110.320526 96.0
110.498291 128.0
110.579903 60.0
110.615479 84.0
110.648796 140.0
110.686661 176.0
110.71389 128.0
110.730644 116.0
110.808144 184.0
110.923409 208.0
110.998878 108.0
111.042923 184.0
111.09903 340.0
111.192818 188.0
111.212868 216.0
111.25695 60.0
111.324135 60.0
111.420753 176.0
111.454681 136.0
111.494301 56.0
111.536339 116.0
111.551048 200.0
111.664284 192.0
111.708275 172.0
111.725594 144.0
111.747139 132.0
111.759811 152.0
111.786606 192.0
111.833443 220.0
111.85215 140.0
111.907898 340.0
111.923431 120.0
112.00531 472.0
112.021027 188.0
112.029709 104.0
112.045006 276.0
112.069099 220.0
112.113861 103804.0
112.167816 28.0
112.189812 112.0
112.205597 52.0
112.24334 204.0
112.282143 140.0
112.316757 176.0
112.336685 72.0
112.363503 136.0
112.410881 112.0
112.435036 80.0
112.460205 2072.0
112.487366 120.0
112.518143 120.0
112.545303 116.0
112.5905 48.0
112.634727 160.0
112.661606 124.0
112.708092 192.0
112.746651 64.0
112.779678 64.0
112.804184 72.0
112.839798 76.0
112.855087 88.0
112.869888 44.0
112.902565 52.0
112.934288 72.0
112.962761 192.0
113.005157 32.0
113.029488 192.0
113.063507 56.0
113.09153 152.0
113.116241 16064.0
113.184006 156.0
113.227539 36.0
113.248795 52.0
113.285667 64.0
113.312813 100.0
113.341599 96.0
113.370422 60.0
113.412804 56.0
113.440361 32.0
113.513046 100.0
113.527802 116.0
113.545532 140.0
113.583923 80.0
113.631226 72.0
113.660934 64.0
113.682152 188.0
113.701248 104.0
113.719833 124.0
113.756439 128.0
113.788414 64.0
113.816093 80.0
113.878761 112.0
113.902954 132.0
113.925697 124.0
113.929985 72.0
113.947128 116.0
113.967484 168.0
114.000031 140.0
114.060196 120.0
114.081451 108.0
114.119392 320.0
114.155869 64.0
114.255836 60.0
114.294678 116.0
114.331551 144.0
114.396294 76.0
114.418526 72.0
114.47081 52.0
114.605003 104.0
114.692375 120.0
114.721008 100.0
114.743896 48.0
114.79258 200.0
114.806267 72.0
114.826698 88.0
114.870956 80.0
114.882835 88.0
114.897095 204.0
114.914658 120.0
114.993118 104.0
115.023155 160.0
115.052879 160.0
115.097717 92.0
115.116936 156.0
115.298523 32.0
115.390434 200.0
115.405403 80.0
115.469551 64.0
115.674957 60.0
115.777733 176.0
115.989845 144.0
116.012299 132.0
116.039146 84.0
116.24292 148.0
116.438271 80.0
116.48542 84.0
116.50486 44.0
116.543533 112.0
116.567642 236.0
116.825172 272.0
116.928452 144.0
116.967194 164.0
116.995178 96.0
117.033928 152.0
117.061928 68.0
117.309692 60.0
117.359283 60.0
117.475739 192.0
117.503784 60.0
117.818985 36.0
117.929192 124.0
118.19519 136.0
118.28392 100.0
118.309898 76.0
118.398674 104.0
118.441994 36.0
118.46582 124.0
118.517815 120.0
118.539482 108.0
118.63485 188.0
118.864746 212.0
118.999321 40.0
119.052727 148.0
119.160042 100.0
119.19046 120.0
119.246964 68.0
119.282341 144.0
119.316521 136.0
119.388275 36.0
119.444824 28.0
119.555786 56.0
119.795288 120.0
119.869362 40.0
119.893333 56.0
119.974045 144.0
120.048111 148.0
120.133179 56.0
120.218269 44.0
120.333954 128.0
120.364525 132.0
120.458435 104.0
120.661667 112.0
120.939484 80.0
121.029228 1024.0
121.064079 160.0
121.180367 112.0
121.30529 128.0
121.480713 88.0
121.56694 112.0
121.759468 192.0
121.803398 96.0
121.838547 144.0
121.915451 144.0
122.045143 108.0
122.067131 156.0
122.117714 128.0
122.177101 88.0
122.27832 180.0
122.689125 160.0
122.815071 176.0
122.871071 100.0
123.164665 156.0
123.192223 128.0
123.239777 108.0
123.317123 96.0
123.635597 108.0
123.662155 216.0
123.86364 248.0
123.912376 144.0
124.06086 128.0
124.096336 56.0
124.189468 132.0
125.027061 96.0
125.167305 88.0
125.22966 152.0
125.318764 104.0
125.626427 256.0
126.102028 124.0
126.155678 160.0
126.189209 36.0
126.388275 160.0
126.446457 168.0
126.549431 240.0
126.690521 116.0
126.813766 44.0
127.033508 88.0
127.207886 152.0
127.237724 164.0
127.336525 64.0
127.390434 112.0
127.478058 200.0
127.511765 48.0
127.729858 200.0
127.819855 244.0
128.108521 148.0
128.175064 60.0
128.437149 160.0
128.502563 108.0
128.545532 192.0
128.60611 152.0
128.887192 136.0
129.105667 160.0
129.291168 172.0
129.880249 184.0
130.04361 176.0
130.102631 124.0
130.154846 272.0
130.284302 64.0
130.422928 204.0
130.661697 192.0
130.987228 120.0
131.037338 116.0
131.180923 88.0
131.411255 112.0
131.559601 36.0
131.598404 60.0
131.966263 116.0
132.014282 152.0
132.23848 192.0
132.316315 92.0
132.912231 160.0
132.997131 104.0
133.025299 224.0
133.116516 132.0
133.245148 124.0
133.383026 152.0
133.406006 124.0
133.583084 168.0
133.647491 180.0
133.974426 168.0
134.055069 156.0
134.10347 160.0
134.362976 96.0
134.583298 180.0
134.904434 180.0
135.006165 192.0
135.026199 96.0
135.043167 156.0
135.070923 88.0
135.110245 164.0
135.175034 80.0
135.250549 184.0
135.45517 216.0
135.772705 64.0
135.8573 236.0
135.94902 76.0
136.009354 100.0
136.28804 216.0
136.483276 40.0
136.685654 148.0
136.815186 188.0
136.981323 128.0
137.00798 420.0
137.053543 212.0
137.081512 100.0
137.128113 64.0
137.209702 108.0
137.279648 148.0
137.344955 156.0
137.391602 124.0
137.723083 144.0
137.818863 132.0
137.998825 136.0
138.175598 212.0
138.244431 192.0
138.270187 140.0
138.408295 172.0
138.593338 48.0
138.644882 96.0
138.673019 92.0
138.769119 76.0
138.952057 180.0
138.968491 84.0
139.020111 120.0
139.520401 184.0
139.677948 172.0
139.967422 152.0
140.002747 132.0
140.245422 164.0
140.320847 240.0
140.698334 192.0
140.936874 104.0
141.038498 124.0
141.088135 140.0
141.159058 168.0
141.270233 152.0
142.011627 124.0
142.079193 60.0
142.118378 88.0
142.229919 88.0
142.457886 80.0
142.705048 136.0
142.800156 144.0
143.052383 136.0
143.371536 116.0
143.781738 116.0
143.886765 120.0
143.934509 128.0
144.049149 156.0
144.104095 88.0
144.130371 100.0
144.25705 144.0
144.441177 168.0
144.544052 132.0
144.721176 116.0
144.745117 252.0
144.831329 152.0
144.934341 96.0
145.031876 224.0
145.070953 208.0
145.471573 176.0
145.601227 108.0
145.747757 160.0
145.791016 72.0
146.002563 236.0
146.029022 124.0
146.380371 104.0
146.638153 112.0
146.69841 32.0
146.729752 164.0
146.785202 140.0
146.934738 176.0
146.97818 176.0
147.044952 15708.0
147.089188 52.0
147.108505 76.0
147.142303 96.0
147.24382 96.0
147.316177 96.0
147.332489 108.0
147.480484 80.0
147.545761 48.0
147.584442 48.0
147.62796 136.0
147.649734 164.0
147.727127 120.0
147.903778 160.0
147.973984 72.0
148.00061 48.0
148.047577 1448.0
148.104752 88.0
148.126541 148.0
148.242844 52.0
148.361603 60.0
148.470718 160.0
148.487686 168.0
148.575012 96.0
148.618683 128.0
148.660202 72.0
148.715759 136.0
148.757019 196.0
148.795868 200.0
148.90271 64.0
148.977997 76.0
148.99501 244.0
149.021729 132.0
149.054352 324.0
149.128662 72.0
149.150528 96.0
149.36084 196.0
149.38884 156.0
149.520218 120.0
149.615158 56.0
149.680893 44.0
149.851395 104.0
149.931808 100.0
150.009796 232.0
150.368347 32.0
150.732224 148.0
150.905762 200.0
150.922867 148.0
151.030472 116.0
151.054932 128.0
151.07695 52.0
151.128326 92.0
151.299652 128.0
151.391357 44.0
151.436783 112.0
151.498016 36.0
151.529861 128.0
151.863251 104.0
152.059875 168.0
152.120895 248.0
152.167526 168.0
152.199448 152.0
152.516357 144.0
152.95665 176.0
153.409912 136.0
153.632935 176.0
153.671326 76.0
153.834213 136.0
154.063873 208.0
154.568237 212.0
154.706848 112.0
154.887604 160.0
154.971832 224.0
155.130447 68.0
155.209793 96.0
155.383408 108.0
155.569534 116.0
155.713547 116.0
155.922241 116.0
156.053986 152.0
156.382355 164.0
157.099976 184.0
157.506866 172.0
157.526855 152.0
157.686768 124.0
157.786743 64.0
158.269623 232.0
158.505081 180.0
158.690567 140.0
158.828491 64.0
159.104523 196.0
159.491379 84.0
159.51149 144.0
159.556732 116.0
159.959229 108.0
160.02626 192.0
160.34964 88.0
160.841476 256.0
160.917206 140.0
160.942459 80.0
161.08136 144.0
161.250641 184.0
161.399796 104.0
161.483246 140.0
161.733734 48.0
161.834991 104.0
162.017349 172.0
162.076141 156.0
162.481277 248.0
162.681763 160.0
162.775711 176.0
162.798569 76.0
163.141571 96.0
163.446762 88.0
163.764984 120.0
164.050369 84.0
164.068222 192.0
164.307938 116.0
164.351318 104.0
164.404907 48.0
164.455948 44.0
164.57338 92.0
164.744492 176.0
164.770035 144.0
164.879913 196.0
165.447754 76.0
165.741974 128.0
166.301346 200.0
166.39119 208.0
166.808716 144.0
167.007919 212.0
167.381073 172.0
167.594864 132.0
167.628372 32.0
167.661865 256.0
167.960953 84.0
168.071884 100.0
168.133804 148.0
168.311935 196.0
168.758926 196.0
169.014999 212.0
169.065018 312.0
169.162521 52.0
169.369659 96.0
169.556213 120.0
169.613235 120.0
169.985367 148.0
170.061951 176.0
170.093109 108.0
170.123795 156.0
170.430725 120.0
170.503479 216.0
170.576248 108.0
170.643845 104.0
170.805084 192.0
170.854507 36.0
170.883118 236.0
171.027985 332.0
171.110229 180.0
171.156418 128.0
171.377365 116.0
171.680191 312.0
172.050995 140.0
172.097305 136.0
172.267441 160.0
172.507858 132.0
172.628128 156.0
172.703964 128.0
172.957779 148.0
173.059875 56.0
173.395172 124.0
173.47905 136.0
173.541977 144.0
173.796387 48.0
173.841003 140.0
173.877731 228.0
174.122925 164.0
174.445084 120.0
174.755417 48.0
174.952789 108.0
175.409561 192.0
175.508698 148.0
175.564087 48.0
175.619461 160.0
176.069702 616.0
176.115677 252.0
176.20813 136.0
176.35611 124.0
176.59407 120.0
176.818954 156.0
177.001434 476.0
177.069031 248.0
177.096954 108.0
177.356613 160.0
177.478561 164.0
177.553131 128.0
177.72789 52.0
178.051743 256.0
178.131424 184.0
178.296158 160.0
178.328049 160.0
178.532761 116.0
178.875992 216.0
178.963837 72.0
179.006439 160.0
179.043732 56.0
179.139618 140.0
179.158264 52.0
179.416763 164.0
179.747482 160.0
179.985046 112.0
180.054489 256.0
180.131943 100.0
180.36441 124.0
180.423218 160.0
180.527496 204.0
180.760223 164.0
180.899399 152.0
181.068573 176.0
181.234177 176.0
181.258286 92.0
181.338684 140.0
181.410614 96.0
181.563889 164.0
181.622894 172.0
181.703369 172.0
181.934174 148.0
182.183914 112.0
182.415024 196.0
182.541382 128.0
182.675858 112.0
182.712906 104.0
182.748505 136.0
182.81398 120.0
183.047272 172.0
183.462189 132.0
183.529602 228.0
183.61319 144.0
183.799332 132.0
183.893784 100.0
183.936966 180.0
184.031067 308.0
184.677322 216.0
184.95871 128.0
185.045639 528.0
185.175323 120.0
185.21962 192.0
185.400177 108.0
185.459808 76.0
185.533005 132.0
185.709259 72.0
185.838028 144.0
186.043015 104.0
186.07016 192.0
186.227661 96.0
186.303711 92.0
186.453156 216.0
186.602661 180.0
187.02594 424.0
187.225784 120.0
187.247574 140.0
187.44371 220.0
187.484589 124.0
187.673203 124.0
188.284897 136.0
189.019287 120.0
189.156128 124.0
189.345047 84.0
189.383392 156.0
189.471054 48.0
190.008392 176.0
190.115402 92.0
190.38443 148.0
190.502747 104.0
191.011078 120.0
191.512039 120.0
191.98056 124.0
192.214584 168.0
192.386154 136.0
192.507645 104.0
192.573929 112.0
192.645737 164.0
193.07692 108.0
193.480911 204.0
193.69136 136.0
193.721832 244.0
193.768936 36.0
193.853607 164.0
194.109848 136.0
194.265167 200.0
194.304001 188.0
194.434418 168.0
195.000992 76.0
195.026001 160.0
195.12886 108.0
195.529404 192.0
195.557236 172.0
195.582291 144.0
195.660233 36.0
195.746552 72.0
195.855164 160.0
195.877441 84.0
196.016754 148.0
196.301071 144.0
196.337326 200.0
196.549332 152.0
196.75029 156.0
196.881531 136.0
196.95694 44.0
197.060287 11768.0
197.150009 184.0
197.378937 200.0
197.412491 120.0
197.432068 140.0
197.547836 112.0
197.636261 36.0
197.658646 160.0
197.714615 68.0
197.756592 120.0
197.882828 132.0
197.977768 152.0
197.997375 144.0
198.062912 980.0
198.159836 96.0
198.185059 108.0
198.445724 168.0
198.644836 276.0
198.720581 108.0
198.85527 120.0
198.925446 60.0
199.014282 180.0
199.069473 188.0
199.110764 160.0
199.152893 56.0
199.290543 76.0
199.32988 176.0
199.405762 88.0
199.592102 112.0
199.937302 168.0
199.959808 148.0
200.066772 204.0
200.246979 120.0
200.266693 116.0
200.365295 172.0
200.399094 132.0
200.542816 156.0
200.680954 144.0
200.807846 64.0
201.03952 236.0
201.349716 164.0
201.372314 116.0
201.612457 180.0
201.728348 52.0
201.977173 148.0
202.039413 144.0
202.224289 180.0
202.475311 76.0
202.495132 116.0
202.886169 124.0
203.025101 156.0
203.314468 76.0
203.547241 164.0
203.601196 112.0
203.694931 192.0
203.845505 80.0
204.103333 176.0
204.271973 164.0
204.340256 156.0
204.368698 120.0
204.442093 172.0
204.627701 96.0
204.846985 108.0
205.102203 168.0
205.150009 508.0
205.534698 148.0
205.596863 64.0
206.150726 160.0
206.265182 240.0
206.508224 144.0
206.599762 108.0
206.637512 164.0
206.87735 84.0
207.080048 180.0
207.155121 144.0
207.66246 188.0
207.80661 64.0
207.983826 84.0
208.026871 160.0
208.059708 156.0
208.089005 168.0
208.288193 104.0
208.610016 104.0
208.644516 160.0
208.722153 208.0
209.052948 124.0
209.637527 136.0
209.916351 172.0
210.067123 132.0
210.127716 156.0
210.580917 80.0
210.708008 212.0
210.997009 180.0
211.043518 140.0
211.071167 244.0
211.153168 212.0
211.189667 224.0
211.289108 104.0
211.532196 192.0
211.874802 144.0
211.897095 88.0
211.998505 124.0
212.021683 212.0
212.056458 212.0
212.192703 40.0
212.294189 144.0
212.465317 108.0
212.573517 96.0
212.738113 124.0
212.816498 192.0
212.886185 188.0
212.932648 160.0
213.036133 4432.0
213.217361 40.0
213.519714 64.0
213.58371 128.0
213.857452 124.0
213.944534 112.0
214.002762 192.0
214.039902 724.0
214.119247 192.0
214.20079 40.0
214.398926 112.0
214.541748 72.0
214.655457 128.0
214.710861 120.0
214.754608 152.0
214.917969 44.0
215.020187 268.0
215.077698 180.0
215.107666 40.0
215.148544 140.0
215.198166 92.0
215.274094 60.0
215.408432 108.0
215.513611 172.0
215.569138 136.0
215.677261 60.0
215.86438 180.0
215.952103 48.0
216.030182 520.0
216.104218 40.0
216.429108 144.0
216.572617 116.0
216.67514 160.0
217.097214 156.0
217.150009 144.0
217.240936 100.0
217.284943 200.0
217.408173 136.0
217.672379 52.0
218.06015 104.0
218.080734 56.0
218.433578 144.0
218.496964 108.0
218.974274 160.0
219.122437 160.0
219.352295 96.0
219.37294 168.0
219.511505 92.0
219.729767 60.0
219.951279 164.0
220.045563 76.0
220.237503 84.0
220.340897 124.0
220.391129 164.0
220.630524 168.0
220.790192 212.0
220.813858 112.0
220.870041 96.0
221.056442 144.0
221.117722 192.0
221.234024 148.0
222.066666 144.0
222.241684 120.0
222.547394 108.0
222.603821 92.0
222.663208 120.0
222.737457 164.0
222.906799 56.0
223.019119 116.0
223.067291 48.0
224.027954 820.0
224.0672 120.0
224.094009 76.0
224.174469 116.0
224.207245 160.0
224.284744 96.0
224.529221 68.0
224.857391 136.0
224.940964 92.0
225.024765 120.0
225.057816 688.0
225.203735 88.0
225.341141 116.0
225.511475 108.0
225.89122 48.0
226.016876 292.0
226.082703 144.0
226.115616 164.0
226.510849 220.0
226.603714 68.0
226.675629 236.0
226.741562 156.0
226.936401 152.0
227.018448 144.0
227.118301 128.0
227.227325 20.0
227.254333 192.0
227.293335 100.0
227.374359 48.0
227.467407 120.0
227.539444 164.0
227.722626 180.0
228.026077 96.0
228.068146 112.0
228.089188 104.0
228.119247 136.0
228.158325 180.0
228.477112 176.0
228.498169 152.0
228.591446 188.0
228.633575 148.0
228.7901 132.0
228.850311 132.0
229.977753 168.0
230.279678 152.0
230.331039 52.0
230.672485 56.0
230.763184 224.0
230.787369 212.0
231.000107 128.0
231.02327 200.0
231.132187 192.0
231.19574 28.0
231.244156 120.0
231.365234 148.0
231.504517 124.0
231.601425 148.0
231.704422 92.0
231.771072 136.0
232.078003 168.0
232.116638 164.0
232.168182 156.0
232.292542 120.0
232.325912 208.0
232.459412 128.0
232.762955 164.0
232.817612 164.0
232.881393 140.0
232.933029 160.0
233.023773 248.0
233.078857 240.0
233.115326 180.0
233.227768 148.0
233.291611 128.0
233.391937 112.0
233.650452 176.0
233.836075 176.0
234.049164 104.0
234.073532 48.0
234.14357 112.0
234.527161 124.0
234.621948 112.0
234.945221 180.0
234.975723 148.0
235.018448 160.0
235.039795 104.0
235.161865 148.0
235.509369 128.0
235.882721 256.0
236.084503 92.0
236.179321 132.0
236.4608 96.0
236.57489 132.0
236.782272 44.0
237.03653 96.0
237.100891 180.0
237.339996 120.0
237.548538 148.0
237.680466 168.0
237.821625 220.0
237.843109 136.0
238.040649 176.0
238.097946 132.0
238.159378 216.0
238.239243 176.0
239.015411 312.0
239.055222 304.0
239.081802 140.0
239.127884 184.0
239.343369 140.0
239.438828 136.0
239.46347 104.0
239.564926 132.0
239.756149 224.0
240.026245 476.0
240.073669 80.0
240.098343 144.0
240.200134 132.0
240.295761 68.0
240.477692 188.0
240.55191 144.0
240.598206 96.0
240.687744 96.0
240.746414 112.0
240.958878 72.0
241.030899 3360.0
241.219131 184.0
241.326904 144.0
241.43248 56.0
241.503601 76.0
241.543823 72.0
241.778961 164.0
241.987457 124.0
242.036774 1020.0
242.120804 152.0
242.169052 176.0
242.195786 152.0
242.51297 168.0
242.702072 196.0
243.028961 280.0
243.079941 132.0
243.18602 196.0
243.307083 156.0
243.375381 92.0
243.62384 212.0
243.835129 140.0
244.089966 148.0
244.391769 164.0
244.531799 148.0
244.844986 168.0
244.911652 204.0
245.064301 228.0
245.114151 40.0
245.151535 204.0
245.30426 236.0
245.332321 68.0
245.460144 144.0
245.625443 56.0
245.656631 48.0
245.681595 208.0
245.737747 184.0
245.843842 156.0
246.127899 100.0
246.159119 136.0
246.374634 76.0
246.3965 152.0
246.602737 164.0
246.643372 132.0
246.768417 152.0
246.865356 276.0
247.071793 180.0
247.156265 76.0
247.272049 36.0
247.400375 128.0
247.45047 68.0
247.488037 168.0
247.760529 192.0
248.058228 168.0
248.864502 80.0
249.037216 188.0
249.065475 96.0
249.411118 196.0
249.51799 156.0
249.672073 176.0
249.7444 36.0
249.857651 164.0
250.041901 108.0
250.077927 132.0
250.317184 144.0
250.411652 52.0
250.518753 84.0
250.792892 220.0
250.937897 68.0
251.018173 840.0
251.054565 164.0
251.089264 156.0
251.256439 152.0
251.442612 192.0
251.527832 36.0
251.590958 148.0
251.894119 76.0
252.022919 560.0
252.153214 148.0
252.25119 148.0
252.409607 192.0
252.505951 124.0
252.693939 108.0
252.738235 124.0
252.826828 104.0
252.899628 148.0
252.959763 40.0
252.985092 120.0
253.026321 900.0
253.2099 140.0
253.327103 144.0
253.374619 116.0
253.504532 120.0
253.637634 172.0
253.916656 116.0
254.022339 176.0
254.138702 128.0
254.176773 116.0
254.294205 128.0
254.437042 152.0
254.691467 168.0
254.996002 140.0
255.050125 356.0
255.084366 192.0
255.314026 196.0
255.479416 88.0
255.568497 92.0
255.648056 84.0
255.864487 56.0
256.023682 184.0
256.088623 172.0
256.316772 188.0
256.361389 204.0
256.399231 164.0
256.740723 132.0
256.906586 172.0
257.024628 132.0
257.093964 220.0
257.152283 172.0
257.222504 160.0
257.347015 164.0
257.570557 144.0
257.775024 148.0
257.851715 104.0
257.896484 72.0
258.005157 152.0
258.032379 124.0
258.062714 116.0
258.136261 96.0
258.229004 112.0
258.503326 96.0
258.57132 124.0
258.622528 116.0
258.648132 72.0
258.676941 168.0
258.977936 36.0
259.061157 132.0
259.234222 132.0
259.500275 120.0
259.81778 60.0
259.849854 108.0
259.89798 152.0
259.962158 164.0
260.084137 112.0
260.190063 208.0
260.350616 136.0
260.376282 76.0
260.501556 144.0
260.542267 132.0
260.562592 212.0
260.999725 108.0
261.051147 148.0
261.089264 108.0
261.276306 68.0
261.353516 88.0
261.504791 148.0
261.540192 156.0
261.730133 64.0
262.033661 132.0
262.087646 52.0
262.116638 136.0
262.175415 220.0
262.416412 196.0
262.710541 140.0
262.845398 168.0
263.056763 184.0
263.106842 108.0
263.297333 108.0
263.636536 140.0
263.943634 200.0
264.056824 132.0
264.085938 104.0
264.325317 72.0
264.668427 112.0
264.772064 108.0
264.94696 164.0
265.031219 132.0
265.105743 184.0
265.400726 112.0
265.452606 212.0
265.799683 204.0
266.039459 584.0
266.182709 132.0
266.322357 96.0
266.40033 116.0
266.606445 108.0
266.760315 128.0
266.858551 76.0
267.046295 260.0
267.073181 40.0
267.3237 168.0
267.37735 140.0
267.401794 36.0
267.746887 92.0
267.818542 108.0
267.939087 120.0
267.970764 72.0
268.020752 520.0
268.049042 160.0
268.211151 100.0
268.264954 148.0
268.323639 148.0
268.421448 116.0
268.500336 128.0
268.542114 184.0
268.639984 144.0
268.691132 136.0
268.710052 176.0
268.755066 216.0
268.793304 60.0
268.822693 36.0
268.881287 416.0
268.923859 148.0
268.965759 168.0
269.027527 52316.0
269.086426 200.0
269.134186 84.0
269.158203 140.0
269.223328 116.0
269.253601 168.0
269.299072 52.0
269.306396 48.0
269.335205 136.0
269.343567 52.0
269.401703 128.0
269.439117 124.0
269.472473 56.0
269.529816 152.0
269.565521 176.0
269.601868 80.0
269.671814 68.0
269.728943 100.0
269.77121 156.0
269.827393 60.0
269.857269 136.0
269.910156 76.0
269.944031 76.0
269.985657 108.0
270.030212 10212.0
270.126312 92.0
270.206726 144.0
270.273529 132.0
270.301941 88.0
270.420776 64.0
270.487823 132.0
270.57135 212.0
270.63028 188.0
270.774933 120.0
270.893158 284.0
270.941437 60.0
270.970734 148.0
271.025177 2380.0
271.124786 96.0
271.256012 188.0
271.35437 48.0
271.413391 32.0
271.574066 104.0
271.64624 64.0
271.772003 136.0
271.816833 132.0
271.895599 180.0
272.031067 416.0
272.065369 168.0
272.086639 300.0
272.171356 172.0
272.220612 140.0
272.292847 72.0
272.328979 112.0
272.401245 52.0
272.424225 28.0
272.460388 64.0
272.545807 284.0
272.614807 32.0
272.685333 112.0
272.710114 148.0
272.742981 84.0
273.035034 212.0
273.104126 168.0
273.150726 76.0
273.20993 52.0
273.234924 100.0
273.512665 108.0
273.539001 180.0
273.565338 40.0
273.659485 140.0
273.695007 144.0
273.72995 52.0
273.937439 148.0
274.039368 328.0
274.095337 100.0
274.25708 52.0
274.438385 76.0
274.557098 176.0
274.735199 164.0
275.052521 276.0
275.090027 244.0
275.237396 200.0
275.329346 68.0
275.709259 72.0
275.851379 140.0
276.019989 144.0
276.057709 228.0
276.466583 128.0
276.867126 136.0
277.074036 292.0
277.387329 80.0
277.891418 192.0
278.044037 72.0
278.078491 208.0
278.150269 80.0
278.472321 136.0
278.674957 120.0
278.711517 180.0
279.053406 156.0
279.103729 116.0
280.032196 116.0
280.435333 88.0
280.485321 108.0
280.585358 128.0
280.685364 96.0
280.94751 152.0
281.025574 104.0
281.04895 72.0
281.112335 140.0
281.162415 48.0
281.483704 208.0
281.873688 168.0
282.029968 264.0
282.065002 164.0
282.107635 224.0
282.141083 40.0
282.405243 132.0
282.67746 204.0
282.985809 156.0
283.00885 224.0
283.03775 144.0
283.064514 108.0
283.178406 44.0
283.644135 192.0
283.842651 112.0
283.911713 148.0
283.962646 60.0
284.005646 176.0
284.052338 92.0
284.082214 592.0
284.284729 28.0
284.365265 72.0
284.398834 60.0
284.929382 96.0
284.959625 56.0
285.01825 160.0
285.091339 168.0
285.124298 140.0
285.396576 124.0
285.433563 36.0
285.598358 40.0
286.08963 172.0
286.261353 272.0
286.318604 108.0
286.429749 80.0
286.672302 72.0
286.820618 228.0
287.053925 1876.0
287.238739 112.0
287.312927 72.0
287.667267 160.0
287.782074 80.0
288.0578 912.0
288.199615 128.0
288.261719 40.0
288.501678 36.0
288.657196 180.0
289.065979 504.0
289.797882 104.0
289.848724 124.0
290.04361 652.0
290.06369 276.0
290.2453 68.0
290.618408 120.0
290.682861 96.0
290.783508 160.0
291.046814 436.0
291.521637 132.0
291.711212 164.0
291.786743 64.0
292.056396 228.0
292.32077 176.0
292.593048 88.0
292.644135 228.0
293.052826 144.0
293.086456 120.0
293.250488 112.0
293.362976 188.0
293.744904 120.0
293.983734 136.0
294.021271 140.0
294.055389 180.0
294.424103 48.0
294.65979 136.0
294.755463 124.0
294.929749 80.0
294.9776 76.0
295.036133 456.0
295.087006 140.0
295.189575 112.0
295.630859 156.0
296.043091 164.0
296.0896 128.0
296.274567 148.0
296.418488 156.0
296.490814 256.0
296.894958 100.0
297.04245 248.0
297.2948 196.0
297.715149 176.0
297.818207 200.0
297.952148 80.0
298.040771 120.0
298.398956 108.0
298.584625 136.0
298.763489 192.0
298.914886 180.0
298.96994 152.0
298.997467 124.0
299.058105 224.0
299.159241 116.0
299.272858 148.0
299.355499 72.0
299.686157 120.0
299.899841 160.0
299.968781 52.0
299.992889 136.0
300.071594 700.0
300.303223 144.0
300.35498 132.0
300.399811 120.0
300.717255 76.0
300.865692 112.0
301.024384 108.0
301.084656 392.0
301.473572 76.0
301.508148 128.0
301.563446 40.0
301.608368 60.0
301.670593 128.0
302.061981 228.0
302.106323 104.0
302.435059 68.0
302.791656 148.0
302.926758 108.0
303.012939 132.0
303.042328 440.0
303.151947 100.0
303.176208 52.0
303.465363 152.0
303.862762 96.0
304.054016 884.0
304.567474 108.0
304.619568 48.0
304.733093 136.0
304.918365 188.0
305.062836 3424.0
305.199951 132.0
305.290375 44.0
305.321655 96.0
305.436432 148.0
305.700836 228.0
305.76001 216.0
306.063721 608.0
306.418121 72.0
306.449493 204.0
306.69342 108.0
307.039154 316.0
307.104858 128.0
307.157166 48.0
307.663177 112.0
307.862183 184.0
307.893616 28.0
308.047302 132.0
308.096191 128.0
308.194031 112.0
308.263916 92.0
308.616943 88.0
308.910736 36.0
308.952698 52.0
309.019165 148.0
309.057648 96.0
309.183624 136.0
309.239624 140.0
309.320129 64.0
309.432159 44.0
310.055664 148.0
310.550018 200.0
310.581573 68.0
310.613129 84.0
310.96051 88.0
311.058136 164.0
311.11496 120.0
311.202728 208.0
311.26593 68.0
311.339661 116.0
311.557434 192.0
311.620667 96.0
311.736633 112.0
312.0354 188.0
312.076721 112.0
312.299133 100.0
312.351898 152.0
312.629852 132.0
312.753021 148.0
312.781189 108.0
312.805817 116.0
313.024109 128.0
313.066376 364.0
313.119202 136.0
313.355194 36.0
313.503204 116.0
313.549011 168.0
313.746399 100.0
313.982635 144.0
314.03775 160.0
314.062988 148.0
314.162537 120.0
314.56369 236.0
315.048431 644.0
315.100342 100.0
315.617615 100.0
315.826263 152.0
316.054138 692.0
316.335815 56.0
316.583649 48.0
316.732422 60.0
316.835144 160.0
317.062164 1700.0
317.185974 144.0
317.275604 84.0
317.735626 88.0
317.944977 112.0
318.067963 808.0
318.218292 56.0
318.264465 44.0
318.328369 52.0
318.864807 52.0
319.039215 568.0
319.380341 64.0
319.487061 160.0
319.810883 184.0
320.038269 336.0
320.072174 160.0
320.089386 120.0
320.100525 188.0
320.198944 140.0
320.476807 112.0
320.548065 68.0
320.772614 124.0
321.035248 416.0
321.386017 52.0
321.61441 56.0
321.828613 120.0
321.914307 160.0
322.058899 124.0
322.278625 108.0
322.435883 56.0
322.850586 120.0
322.943573 160.0
322.993622 96.0
323.512512 128.0
323.770294 172.0
323.852661 200.0
325.103882 100.0
325.207977 180.0
325.560791 128.0
325.663971 92.0
325.983704 60.0
326.08432 112.0
326.113068 144.0
326.19574 112.0
326.900696 100.0
326.947479 88.0
327.001434 152.0
327.051025 568.0
327.103424 120.0
327.339844 104.0
327.368652 204.0
327.404663 152.0
327.732483 200.0
327.98114 44.0
328.052917 752.0
328.136139 52.0
328.186615 84.0
328.406586 52.0
328.500366 108.0
328.583344 124.0
328.666351 68.0
328.731293 132.0
329.082336 608.0
329.160858 116.0
329.193359 164.0
329.269196 28.0
329.901093 108.0
330.028046 140.0
330.0802 396.0
330.8638 188.0
331.039307 224.0
331.078186 168.0
331.393707 76.0
331.457794 160.0
331.561554 132.0
331.617889 184.0
331.660736 92.0
331.721069 56.0
331.856506 40.0
332.050659 716.0
332.567505 136.0
332.684296 92.0
332.74176 64.0
332.803467 160.0
332.865204 120.0
332.995941 112.0
333.057343 3852.0
333.095093 284.0
333.159393 120.0
333.302063 104.0
333.450104 36.0
333.580933 36.0
333.708191 60.0
333.751801 60.0
333.860901 76.0
333.893646 132.0
333.919098 116.0
333.98819 168.0
334.064392 836.0
334.153229 44.0
334.210907 72.0
334.515808 56.0
334.54129 124.0
334.890869 48.0
335.018341 152.0
335.063995 532.0
335.149506 40.0
335.207825 228.0
335.346283 128.0
335.612427 36.0
335.659821 184.0
335.750977 144.0
336.052612 156.0
336.404083 68.0
336.47345 80.0
337.017639 148.0
337.054199 160.0
337.430664 100.0
337.463562 224.0
337.671997 160.0
337.741486 188.0
337.887817 72.0
337.920746 156.0
338.084412 104.0
338.315979 112.0
338.451447 100.0
338.594269 68.0
338.726532 140.0
339.02655 68.0
339.426117 188.0
339.855286 112.0
339.902985 52.0
340.136292 160.0
340.214966 64.0
341.041443 248.0
341.085846 148.0
341.615082 116.0
342.027191 192.0
342.084991 148.0
342.303314 128.0
342.480103 56.0
342.697449 120.0
342.767456 164.0
343.0383 980.0
343.110229 52.0
343.250336 188.0
343.294586 164.0
343.434723 120.0
344.052063 1176.0
344.139557 32.0
344.372223 68.0
344.486725 104.0
345.056671 4036.0
345.114288 184.0
345.166779 36.0
345.244415 44.0
345.381256 200.0
345.44046 48.0
345.525543 44.0
345.688324 116.0
345.732758 84.0
345.758636 64.0
345.817871 96.0
345.999237 144.0
346.058624 1056.0
346.165863 112.0
346.345612 112.0
346.373566 196.0
346.47699 188.0
346.50293 120.0
346.843842 200.0
346.88092 200.0
346.958771 120.0
347.03656 384.0
347.04892 312.0
347.063293 484.0
347.091064 200.0
347.101318 360.0
347.429749 40.0
347.694733 164.0
347.808258 84.0
347.938171 100.0
348.050507 344.0
348.617889 32.0
348.643921 56.0
348.733124 136.0
348.840912 56.0
349.051056 120.0
349.112335 96.0
349.413605 60.0
349.499176 132.0
349.83786 44.0
350.124573 188.0
351.298645 184.0
351.38446 144.0
351.620972 176.0
351.671783 176.0
351.746429 188.0
352.000305 148.0
352.075012 104.0
352.147919 152.0
352.784912 148.0
352.956909 204.0
353.056732 196.0
353.431854 164.0
353.831146 176.0
354.064575 92.0
354.120758 120.0
354.150696 124.0
354.338013 60.0
354.536591 112.0
354.570343 148.0
354.611542 140.0
355.042694 128.0
355.076447 136.0
355.275238 112.0
355.309021 104.0
355.582947 92.0
356.059723 104.0
356.164886 96.0
357.054688 140.0
357.224915 96.0
357.360352 40.0
358.034149 144.0
358.218719 44.0
358.512604 160.0
358.569122 192.0
358.652039 152.0
358.859375 84.0
358.942322 160.0
359.308197 108.0
359.414825 184.0
359.519501 84.0
359.564758 224.0
359.693115 104.0
359.742188 188.0
359.885651 92.0
359.942261 104.0
360.046356 1140.0
360.289764 28.0
360.34671 156.0
360.446136 72.0
360.501343 56.0
360.856659 160.0
361.001312 156.0
361.052704 6456.0
361.153076 64.0
361.373383 96.0
361.454254 28.0
361.529938 44.0
361.575348 132.0
361.844116 220.0
362.005585 136.0
362.059387 7240.0
362.174622 160.0
362.234161 92.0
362.306152 104.0
362.400879 176.0
362.567596 164.0
362.624451 144.0
362.741943 68.0
362.832916 32.0
362.876007 132.0
363.06311 2344.0
363.420776 164.0
363.557404 52.0
363.682648 148.0
363.819305 128.0
364.058838 344.0
364.118652 148.0
364.221802 152.0
364.252197 76.0
364.34433 104.0
364.491547 48.0
364.688171 108.0
364.730988 116.0
365.066559 180.0
365.145416 52.0
365.183441 104.0
365.353668 48.0
365.445923 148.0
365.518219 156.0
365.567688 188.0
365.697083 160.0
365.742737 144.0
366.26059 52.0
366.344391 72.0
366.382477 144.0
366.660645 148.0
366.996094 132.0
367.182953 144.0
367.457611 176.0
367.507202 80.0
367.862122 148.0
368.518982 40.0
368.75473 156.0
369.004395 52.0
369.057922 156.0
369.226166 136.0
369.689056 108.0
369.922546 168.0
370.116028 148.0
370.59613 212.0
370.665527 144.0
370.983643 104.0
371.07666 592.0
371.221375 224.0
371.25589 40.0
371.766083 124.0
371.921478 164.0
372.074005 168.0
372.152954 204.0
372.280518 44.0
372.706879 120.0
372.983582 144.0
373.050476 492.0
373.094818 132.0
373.268097 68.0
373.671936 136.0
374.014435 116.0
374.060181 1024.0
374.137634 108.0
374.696045 68.0
374.803925 56.0
375.057678 224.0
375.509399 128.0
375.547943 168.0
375.590393 112.0
375.713837 232.0
375.765625 132.0
375.864288 76.0
376.037354 684.0
376.188477 180.0
376.304321 88.0
376.663452 68.0
376.767761 148.0
377.045532 752.0
377.11554 32.0
377.304932 32.0
377.410309 144.0
377.703247 44.0
377.807678 132.0
377.91214 40.0
378.043091 152.0
378.124969 44.0
378.256561 76.0
378.33786 112.0
378.666992 148.0
378.864563 132.0
379.027283 140.0
379.186157 84.0
379.585449 232.0
379.71344 44.0
379.752197 48.0
379.779358 164.0
380.027649 132.0
380.38855 48.0
380.439026 80.0
380.971039 100.0
381.180847 56.0
381.429596 140.0
381.639526 104.0
381.810608 156.0
381.845612 112.0
382.215179 60.0
383.021057 136.0
383.336639 120.0
383.383392 104.0
383.500305 108.0
383.628937 132.0
384.022766 152.0
384.40509 80.0
384.444122 132.0
384.896942 124.0
384.959412 100.0
384.986755 112.0
385.100006 112.0
385.248444 140.0
385.459412 152.0
385.850281 192.0
386.112244 136.0
386.534729 96.0
387.125824 144.0
387.376495 168.0
387.682098 184.0
387.709534 108.0
387.893738 40.0
388.065491 104.0
388.23877 88.0
388.277985 148.0
388.615356 52.0
388.835083 208.0
389.079773 1648.0
389.133423 64.0
389.180542 128.0
389.345459 176.0
389.384735 32.0
389.427948 64.0
389.60614 188.0
389.704041 180.0
389.86795 88.0
390.059143 204.0
390.085449 392.0
390.131287 32.0
390.237457 76.0
390.528442 144.0
390.733002 124.0
390.780212 164.0
390.80658 112.0
391.085052 180.0
391.450989 116.0
391.705353 172.0
392.087524 136.0
392.327972 104.0
392.446259 112.0
392.529053 132.0
392.639465 136.0
392.738068 48.0
392.856415 148.0
393.069458 164.0
393.179962 36.0
393.333893 92.0
394.590118 124.0
394.657349 188.0
394.918335 124.0
394.977661 140.0
395.139862 96.0
395.401031 56.0
395.979034 120.0
396.006775 124.0
396.137482 136.0
396.402924 76.0
396.561462 144.0
397.338684 48.0
397.485474 92.0
397.675964 252.0
397.739471 96.0
398.057068 196.0
398.283447 132.0
398.402618 168.0
399.090179 116.0
399.483917 180.0
400.383453 104.0
400.479034 64.0
400.622437 144.0
400.777802 128.0
400.949158 156.0
401.746613 120.0
401.997986 120.0
402.229462 144.0
402.462036 124.0
402.671814 172.0
403.267975 144.0
403.415863 108.0
403.547791 176.0
403.69574 160.0
403.907715 80.0
404.487915 224.0
405.056519 164.0
405.101624 140.0
405.621521 64.0
406.054535 104.0
406.086639 224.0
406.170868 112.0
406.812897 116.0
407.262634 116.0
407.491608 128.0
407.596069 60.0
407.628204 168.0
407.865326 84.0
408.219116 136.0
408.540894 108.0
408.669647 36.0
408.899017 64.0
409.204926 152.0
410.079071 120.0
410.107269 212.0
410.320923 112.0
410.70401 136.0
411.026764 88.0
411.176086 128.0
411.321381 128.0
411.34964 160.0
412.007874 112.0
412.201813 96.0
412.234131 220.0
412.561523 232.0
412.650452 72.0
412.787933 72.0
412.901184 144.0
413.095306 92.0
413.427094 92.0
413.657806 180.0
414.990662 204.0
415.047424 104.0
415.290741 108.0
415.465149 140.0
415.765411 184.0
415.83847 96.0
416.061737 168.0
416.81311 144.0
417.353729 236.0
417.491974 52.0
418.000458 116.0
418.120575 120.0
419.07135 152.0
419.099854 188.0
419.287292 132.0
419.747955 136.0
420.212952 104.0
420.653687 40.0
420.68634 124.0
420.73941 204.0
420.976227 100.0
421.102844 140.0
421.160004 172.0
421.290741 108.0
421.445984 100.0
421.895538 32.0
422.255371 76.0
422.357635 132.0
422.668549 180.0
422.844513 140.0
422.93866 188.0
423.135132 168.0
423.892883 216.0
424.278168 104.0
424.372467 156.0
424.487274 120.0
424.647217 164.0
424.80307 164.0
424.860504 96.0
425.443237 124.0
425.517151 148.0
426.129089 80.0
426.166077 140.0
426.297577 112.0
426.433197 116.0
426.585266 100.0
427.243225 152.0
427.576538 84.0
427.687653 124.0
427.757629 100.0
427.844086 132.0
428.054047 108.0
429.129486 116.0
429.312134 108.0
429.892578 136.0
429.999878 84.0
430.297089 60.0
430.387909 200.0
430.672852 72.0
430.999237 108.0
431.660583 116.0
431.896332 180.0
431.954224 48.0
432.367981 100.0
433.059387 72.0
433.191925 120.0
433.581421 68.0
433.668457 44.0
433.7099 52.0
433.84256 108.0
434.145233 92.0
434.746735 40.0
434.779938 128.0
434.933502 44.0
435.037292 148.0
435.358093 164.0
436.04248 124.0
436.12561 104.0
436.98642 48.0
437.215271 128.0
437.902222 36.0
438.135468 108.0
438.843994 148.0
439.457092 156.0
439.536377 108.0
439.595184 124.0
439.763306 200.0
439.895294 160.0
440.279419 96.0
440.960419 180.0
441.324097 64.0
441.713013 164.0
442.05191 52.0
442.152344 120.0
442.311401 76.0
442.650513 140.0
442.918549 144.0
443.329132 92.0
443.412933 132.0
443.526123 128.0
443.786041 128.0
444.129913 140.0
444.461334 48.0
444.520081 60.0
444.612396 68.0
444.851624 84.0
445.216919 132.0
445.296722 184.0
445.704193 188.0
446.31369 80.0
446.553375 176.0
446.669556 136.0
446.906738 152.0
446.969849 124.0
447.272064 148.0
448.523895 144.0
449.350433 172.0
449.438812 152.0
449.536072 232.0
449.666901 132.0
449.869507 104.0
450.410034 156.0
450.676178 60.0
450.828278 112.0
451.521606 128.0
451.946899 112.0
452.710785 124.0
452.757385 44.0
453.252991 196.0
453.659882 104.0
453.969391 128.0
454.100861 40.0
455.093842 84.0
455.871185 120.0
456.160553 140.0
456.300476 64.0
456.334473 48.0
456.402527 76.0
456.576874 80.0
456.632141 120.0
457.108612 140.0
457.542755 236.0
457.627899 216.0
457.998383 108.0
458.479828 148.0
458.586395 124.0
458.735565 128.0
458.867737 176.0
459.073853 128.0
459.132111 188.0
459.166229 136.0
459.656799 104.0
459.887268 120.0
460.420929 152.0
461.224152 152.0
461.352417 112.0
461.51059 192.0
461.583282 136.0
461.775726 108.0
462.079437 48.0
463.636719 180.0
463.942383 164.0
464.933197 56.0
465.413971 84.0
465.547089 120.0
465.577148 156.0
465.882111 112.0
466.273132 108.0
466.46225 240.0
466.756683 148.0
466.926605 160.0
466.969604 72.0
467.051331 124.0
467.171265 132.0
467.179199 116.0
467.212372 92.0
467.5289 176.0
467.576233 152.0
467.662323 240.0
467.795746 92.0
467.967957 76.0
468.069946 192.0
468.364136 52.0
468.562317 112.0
468.876862 168.0
469.118225 128.0
469.269135 76.0
469.352905 112.0
469.394165 88.0
469.445923 164.0
469.51059 116.0
469.644287 120.0
469.687653 104.0
469.842743 80.0
469.876343 76.0
469.941956 140.0
470.101624 108.0
470.170654 172.0
470.274231 60.0
470.327423 176.0
470.362854 120.0
470.451202 140.0
470.589355 108.0
470.636871 56.0
470.796631 48.0
470.852783 112.0
470.956421 188.0
470.9953 160.0
471.081696 52.0
471.320709 160.0
471.39502 108.0
471.441467 328.0
471.487854 80.0
471.565399 68.0
471.597412 100.0
471.708282 80.0
471.863922 152.0
471.899963 100.0
471.94809 68.0
472.002258 104.0
472.161194 400.0
472.23938 140.0
472.309326 96.0
472.374207 112.0
472.425354 132.0
472.451447 152.0
472.521301 144.0
472.558929 92.0
472.598907 252.0
472.676483 136.0
472.717407 248.0
472.765991 116.0
472.82132 76.0
472.862213 220.0
472.914978 92.0
472.96106 464.0
473.008453 132.0
473.053589 196.0
473.097504 196.0
473.163849 296.0
473.263855 92.0
473.305664 108.0
473.347992 224.0
473.379211 96.0
473.438599 160.0
473.454163 116.0
473.541992 100.0
473.577515 76.0
473.622955 188.0
473.667999 388.0
473.698547 68.0
473.727142 236.0
473.783569 200.0
473.792847 244.0
473.905304 288.0
473.949982 196.0
473.992615 200.0
474.0271 268.0
474.044067 164.0
474.107422 904.0
474.17453 144800.0
474.302124 272.0
474.383789 236.0
474.448517 180.0
474.483185 136.0
474.580322 352.0
474.617523 132.0
474.653412 212.0
474.687927 144.0
474.732758 128.0
474.777008 236.0
474.835663 596.0
474.889313 980.0
474.96048 164.0
474.999146 264.0
475.057617 396.0
475.075256 204.0
475.086487 72.0
475.175903 52232.0
475.298401 96.0
475.307495 280.0
475.343048 164.0
475.381714 284.0
475.453857 216.0
475.506592 140.0
475.553925 180.0
475.584106 80.0
475.683624 112.0
475.749359 156.0
475.77713 280.0
475.870331 176.0
475.958191 132.0
476.038544 60.0
476.174561 12320.0
476.258636 168.0
476.298553 84.0
476.307373 44.0
476.352325 56.0
476.39389 72.0
476.469147 96.0
476.503052 88.0
476.561035 140.0
476.606049 240.0
476.694153 124.0
476.773224 96.0
476.804138 120.0
476.860046 216.0
476.88739 116.0
476.99234 124.0
477.048157 224.0
477.065857 88.0
477.080078 176.0
477.102814 88.0
477.175262 2816.0
477.26416 100.0
477.319092 152.0
477.383301 104.0
477.417358 80.0
477.457947 112.0
477.492584 80.0
477.536591 48.0
477.599457 96.0
477.660217 88.0
477.688507 212.0
477.783905 160.0
477.845856 116.0
477.904877 116.0
477.949951 260.0
478.014893 208.0
478.060608 208.0
478.074921 132.0
478.093628 152.0
478.102264 212.0
478.16983 348.0
478.240204 152.0
478.284149 136.0
478.343475 104.0
478.375244 136.0
478.386719 88.0
478.418549 56.0
478.425232 128.0
478.461121 88.0
478.509003 84.0
478.544434 52.0
478.600037 132.0
478.671692 168.0
478.758789 132.0
478.797974 48.0
478.867676 44.0
478.918579 244.0
479.003143 160.0
479.056335 76.0
479.105377 128.0
479.190643 196.0
479.224884 108.0
479.29364 92.0
479.311066 72.0
479.328522 76.0
479.434021 84.0
479.51828 48.0
479.573364 128.0
479.711823 76.0
479.766998 92.0
479.867218 96.0
479.886169 44.0
479.992401 136.0
480.05307 36.0
480.108154 88.0
480.210052 56.0
480.310394 40.0
480.384521 156.0
480.419434 32.0
480.493591 56.0
480.576782 60.0
480.729218 108.0
480.790314 60.0
481.097443 88.0
481.222443 104.0
481.297821 92.0
481.350616 116.0
481.414581 112.0
481.637329 80.0
481.711578 40.0
481.7771 64.0
481.899445 104.0
482.04361 100.0
482.104797 56.0
482.144135 48.0
482.303802 68.0
482.506927 92.0
482.555023 52.0
482.931091 92.0
483.075439 72.0
483.578644 60.0
483.998901 112.0
484.077728 48.0
485.257935 116.0
485.923035 68.0
486.133636 80.0
486.519897 28.0
487.020477 68.0
487.516937 44.0
488.075195 60.0
488.629395 108.0
489.214691 92.0
489.456848 44.0
489.593353 84.0
489.78714 108.0
489.830505 76.0
490.042664 108.0
490.10434 104.0
490.474518 112.0
490.611176 76.0
490.963928 100.0
491.105042 60.0
491.193268 80.0
491.352081 152.0
491.391785 104.0
491.453552 104.0
492.362885 60.0
493.012299 72.0
493.949615 92.0
494.015961 88.0
494.055786 92.0
494.564667 52.0
494.613342 76.0
495.20224 108.0
495.417297 88.0
495.818054 96.0
496.048553 88.0
496.558441 136.0
496.73587 92.0
496.891144 92.0
497.92984 56.0
498.080841 52.0
498.120819 40.0
498.280762 60.0
499.730164 140.0
500.402222 56.0
500.941071 80.0
501.975067 48.0
502.77359 108.0
503.068176 120.0
503.233368 72.0
503.952454 132.0
508.044464 92.0
509.413635 64.0
511.837769 140.0
513.838989 100.0
516.906921 72.0
516.956665 84.0
520.669495 92.0
520.942017 80.0
520.98291 104.0
526.005737 92.0
527.074402 80.0
527.449158 52.0
527.952087 92.0
530.195312 136.0
531.571045 80.0
531.717896 120.0
531.864807 72.0
534.516541 52.0
536.026917 128.0
537.027283 36.0
537.488586 52.0
546.956848 112.0
553.094971 52.0
556.982117 60.0
558.307495 92.0
559.686279 52.0
561.972229 48.0
565.289307 124.0
567.041504 132.0
568.12738 96.0
568.364563 68.0
572.243042 176.0
572.866943 120.0
573.329102 88.0
575.895874 48.0
577.080994 80.0
577.143127 40.0
577.186157 176.0
579.215332 104.0
580.394287 156.0
581.416077 80.0
582.313843 68.0
583.231567 64.0
583.27002 76.0
583.505554 140.0
584.847656 36.0
588.052856 100.0
590.870056 84.0
592.220581 64.0
595.912231 48.0
598.640991 48.0
604.865967 104.0
606.884338 68.0
607.752502 76.0
611.08374 40.0
611.388794 48.0
611.639832 36.0
612.053345 108.0
612.383301 48.0
612.570496 40.0
616.394043 36.0
617.808105 112.0
619.634888 40.0
623.351257 48.0
628.031006 44.0
629.553223 60.0
630.407471 80.0
631.852478 76.0
635.570129 108.0
638.644592 68.0
639.00177 116.0
640.975525 60.0
642.952271 36.0
643.64386 72.0
644.810791 72.0
645.564087 80.0
648.566284 136.0
652.749634 116.0
653.777222 68.0
653.909485 64.0
654.887085 44.0
655.315002 88.0
656.635254 116.0
656.732117 56.0
659.095764 116.0
661.694031 100.0
662.031982 128.0
662.487854 88.0
663.553833 72.0
665.246765 132.0
665.826965 96.0
666.96759 100.0
668.170898 92.0
670.086121 52.0
670.544739 88.0
671.807983 60.0
672.096924 84.0
673.857544 116.0
674.038391 44.0
676.303589 92.0
677.19928 100.0
677.328796 88.0
678.069702 60.0
678.375488 96.0
678.59845 48.0
682.830566 52.0
686.069275 120.0
686.914062 72.0
687.112305 76.0
687.321045 116.0
687.816833 76.0
691.569763 40.0
696.545715 80.0
697.323364 68.0
697.523132 80.0
698.027832 44.0
699.569397 84.0
701.539551 136.0
702.367493 104.0
702.798828 104.0
705.102417 132.0
706.424316 88.0
708.806763 96.0
712.239258 52.0
712.425171 92.0
713.56781 72.0
714.200623 180.0
715.61084 104.0
715.78125 68.0
717.859436 52.0
718.14209 40.0
718.654175 44.0
719.99939 72.0
722.105103 116.0
722.174622 52.0
723.51239 52.0
723.871094 100.0
724.288818 188.0
727.495483 36.0
728.263367 76.0
728.897278 68.0
729.811035 120.0
732.431885 116.0
734.129639 68.0
734.976501 100.0
738.136414 148.0
739.478088 88.0
742.192078 68.0
742.419861 48.0
745.378357 92.0
747.885437 44.0
749.159607 64.0
759.381226 116.0
759.490967 128.0
759.584229 80.0
759.726807 104.0
760.566406 64.0
760.827026 92.0
762.257935 52.0
762.91748 44.0
766.257996 64.0
768.877197 108.0
768.954468 96.0
773.154724 60.0
773.979553 36.0
774.832458 72.0
776.107239 52.0
776.739441 200.0
777.638306 52.0
778.393311 88.0
781.873291 44.0
786.772827 68.0
787.158081 76.0
796.106628 68.0
797.168396 68.0
806.309143 68.0
807.236267 96.0
811.845825 68.0
811.930908 72.0
812.43573 48.0
812.532166 72.0
815.240601 100.0
822.108398 68.0
824.426941 48.0
825.23291 104.0
827.481445 40.0
829.360413 112.0
834.22229 176.0
835.217102 92.0
842.307007 60.0
845.921082 80.0
846.378479 40.0
849.914246 88.0
851.05188 48.0
853.172485 240.0
853.608521 148.0
855.074524 104.0
856.570923 212.0
857.608093 60.0
857.736328 92.0
857.998657 48.0
861.213928 104.0
862.809204 192.0
871.647827 140.0
875.524475 44.0
875.601013 100.0
875.924988 60.0
878.500977 116.0
878.931702 188.0
878.978882 248.0
879.445129 32.0
880.454712 76.0
880.850403 120.0
883.084717 116.0
888.427673 220.0
890.736816 48.0
891.229919 224.0
892.430542 204.0
894.555298 220.0
896.794128 76.0
901.987 100.0
902.124512 56.0
903.290588 92.0
903.517883 32.0
905.367432 92.0
911.979004 92.0
912.634216 128.0
914.920471 128.0
916.618958 128.0
916.667175 88.0
918.319031 104.0
918.373291 220.0
918.608521 60.0
920.111206 148.0
920.853943 156.0
921.180115 124.0
921.512329 64.0
922.606262 204.0
929.820374 152.0
930.737061 64.0
931.982178 164.0
936.301208 56.0
938.013306 228.0
940.080872 164.0
943.562439 32.0
950.348572 92.0
951.005188 28.0
952.239258 252.0
953.45575 196.0
953.720032 128.0
957.664001 48.0
960.030579 172.0
960.530151 148.0
960.937317 76.0
962.572998 136.0
963.351196 60.0
966.219666 176.0
970.11499 116.0
970.51178 180.0
970.952026 80.0
971.268372 216.0
972.037659 32.0
972.093506 196.0
973.167358 64.0
973.241882 88.0
974.900391 124.0
976.212097 96.0
979.043579 176.0
980.195984 36.0
981.398987 136.0
982.477966 72.0
983.832153 132.0
984.394104 116.0
984.606445 152.0
986.318359 180.0
986.862244 244.0
987.381287 120.0
989.039307 80.0
989.458679 124.0
992.340698 180.0
993.607544 124.0
993.664062 120.0
993.990295 64.0
994.818787 120.0
995.057312 160.0
996.451599 64.0
998.746094 128.0
1001.080994 224.0
1001.402222 204.0
1003.677185 152.0
1004.09967 72.0
1004.35199 220.0
1005.380371 180.0
1007.969421 148.0
1008.045288 128.0
1010.081055 60.0
1011.34021 48.0
1013.26532 144.0
1014.228516 220.0
1015.097107 156.0
1016.467224 80.0
1019.209167 236.0
1021.282837 140.0
1022.784424 232.0
1026.785645 84.0
1027.142822 164.0
1027.487305 204.0
1028.667969 128.0
1030.55835 80.0
1030.999268 160.0
1031.996338 240.0
1033.230713 212.0
1033.909058 132.0
1034.062622 160.0
1034.107422 72.0
1034.593872 52.0
1035.022827 108.0
1035.445557 184.0
1035.618408 196.0
1036.162964 128.0
1036.970337 152.0
1037.162598 124.0
1037.412598 196.0
1038.874756 52.0
1039.529175 152.0
1040.068237 88.0
1041.673584 160.0
1042.82373 96.0
1043.220581 168.0
1044.038818 64.0
1046.24585 168.0
1046.393921 156.0
1048.854736 164.0
1049.054565 164.0
1049.525146 56.0
1049.621948 152.0
1049.865112 212.0
1050.008789 48.0
1050.569946 136.0
1050.75708 180.0
1051.350708 92.0
1053.268311 108.0
1055.174683 156.0
1059.374756 200.0
1060.262329 56.0
1060.327148 136.0
1060.800293 144.0
1061.772949 128.0
1061.837769 164.0
1062.415039 88.0
1063.018433 64.0
1063.823242 176.0
1065.622192 176.0
1066.798462 188.0
1068.138062 112.0
1069.621704 164.0
1070.62439 192.0
1071.575317 164.0
1071.835938 92.0
1072.800537 48.0
1073.948242 96.0
1074.143921 204.0
1074.528809 140.0
1075.749146 156.0
1076.7677 160.0
1076.937622 68.0
1079.453613 192.0
1079.898315 256.0
1080.003052 164.0
1081.370483 92.0
1081.526489 120.0
1082.319702 124.0
1082.660156 180.0
1084.586426 52.0
1084.907593 208.0
1085.878052 176.0
1086.39624 132.0
1086.455322 216.0
1086.593018 164.0
1087.288574 144.0
1088.168213 104.0
1089.087524 216.0
1089.645996 180.0
1090.677734 84.0
1091.05896 252.0
1091.10498 72.0
1092.321533 176.0
1092.551758 160.0
1093.032104 156.0
1093.953491 104.0
1096.291626 176.0
1097.920044 172.0
1101.213257 188.0
1102.395874 252.0
1102.567627 156.0
1103.76416 208.0
1104.915039 156.0
1105.530396 204.0
1107.218506 92.0
1107.708618 108.0
1108.205566 128.0
1109.842651 164.0
1110.114502 164.0
1110.837524 108.0
1111.458496 152.0
1111.74646 72.0
1113.286621 96.0
1113.372925 116.0
1114.110229 164.0
1115.273071 92.0
1115.884644 68.0
1116.779175 192.0
1118.046509 184.0
1118.098755 160.0
1118.918457 128.0
1119.491089 132.0
1120.090454 196.0
1120.623413 200.0
1121.636353 40.0
1122.163086 176.0
1122.949951 200.0
1123.136719 176.0
1124.511108 112.0
1125.492432 52.0
1125.605957 168.0
1126.033325 160.0
1126.493042 196.0
1127.683594 60.0
1127.904175 208.0
1128.900391 116.0
1129.509033 168.0
1131.295654 144.0
1131.583496 196.0
1132.802368 104.0
1134.169312 144.0
1134.270142 184.0
1134.63855 184.0
1134.698975 56.0
1134.993896 216.0
1135.597534 188.0
1136.449463 168.0
1137.368896 196.0
1137.912598 164.0
1138.454834 128.0
1139.463989 200.0
1140.209961 220.0
1141.446777 160.0
1141.850342 388.0
1142.078979 160.0
1142.469116 92.0
1144.811401 196.0
1146.387817 184.0
1146.509155 188.0
1146.873047 116.0
1147.493286 176.0
1148.147339 164.0
1148.626221 60.0
1149.00293 80.0
1149.25354 168.0
1149.746216 276.0
1150.171387 212.0
1151.123291 144.0
1151.366455 40.0
1152.156738 144.0
1152.447266 112.0
1152.501343 212.0
1152.724243 116.0
1153.109497 132.0
1155.126465 124.0
1155.557373 68.0
1156.010742 136.0
1156.288208 128.0
1157.296875 164.0
1158.502319 172.0
1160.128784 100.0
1160.583008 220.0
1161.810547 116.0
1162.088745 112.0
1162.658691 180.0
1165.463257 184.0
1166.401123 140.0
1166.666138 100.0
1167.383545 228.0
1169.223755 164.0
1170.394531 176.0
1170.7146 44.0
1170.796265 176.0
1170.857666 92.0
1170.939331 32.0
1172.417725 248.0
1172.697144 124.0
1173.876587 180.0
1173.944702 184.0
1174.108398 92.0
1174.504028 68.0
1176.066528 176.0
1176.175659 80.0
1176.680908 132.0
1177.54126 32.0
1178.176514 160.0
1178.258545 196.0
1178.54541 156.0
1180.685059 168.0
1180.794434 180.0
1181.780396 224.0
1183.182617 56.0
1185.107056 152.0
1185.161987 256.0
1185.730713 208.0
1185.991089 80.0
1186.765747 180.0
1187.273193 152.0
1187.376099 108.0
1187.561279 192.0
1187.753296 240.0
1187.891113 232.0
1188.192383 172.0
1188.411865 128.0
1188.55603 136.0
1188.672607 184.0
1189.194214 180.0
1189.839478 160.0
1189.942505 224.0
1191.865601 128.0
1192.071777 152.0
1192.2229 72.0
1192.827759 172.0
1193.412109 160.0
1193.859131 112.0
1194.292358 188.0
1194.361206 212.0
1194.815186 80.0
1195.083496 108.0
1195.248657 52.0
1196.198364 172.0
1196.31543 200.0
1196.969482 36.0
1197.878662 172.0
1198.147217 176.0
1198.22998 208.0
1198.546875 164.0
1200.345947 208.0
1201.66333 176.0
1203.250732 156.0
1203.540771 156.0
1203.658081 40.0
1204.176025 124.0
1205.018799 148.0
1205.95166 160.0
1206.435547 192.0
1206.981812 220.0
1208.067627 64.0
1208.47583 56.0
1209.299316 240.0
1209.562256 272.0
1209.936157 196.0
1211.078735 160.0
1211.958496 216.0
1212.083252 28.0
1212.554443 212.0
1212.720825 128.0
1214.509644 196.0
1214.558228 180.0
1215.744629 164.0
1216.952271 152.0
1217.507935 156.0
1217.556519 176.0
1217.625977 88.0
1218.028809 152.0
1218.702759 164.0
1218.848633 144.0
1218.952881 68.0
1219.328125 96.0
1219.578369 44.0
1219.779907 232.0
1220.276611 156.0
1220.63501 128.0
1221.330566 184.0
1222.137451 200.0
1223.515503 64.0
1224.685425 148.0
1225.667725 216.0
1226.002197 72.0
1228.88208 136.0
1229.370483 108.0
1229.900879 176.0
1230.11731 232.0
1230.189819 208.0
1230.508179 176.0
1230.677124 40.0
1231.562622 212.0
1232.205322 188.0
1232.268188 56.0
1232.542114 188.0
1233.183716 64.0
1233.748535 168.0
1234.092407 200.0
1234.505005 148.0
1234.861694 144.0
1235.057495 124.0
1235.645142 40.0
1236.71582 176.0
1237.620728 176.0
1239.15271 224.0
1239.805542 172.0
1240.776855 152.0
1242.090088 136.0
1242.461792 216.0
1242.510986 56.0
1242.567017 152.0
1242.721436 160.0
1242.988037 224.0
1243.197021 144.0
1243.872314 164.0
1244.202271 208.0
1244.279541 184.0
1244.469116 148.0
1244.567383 64.0
1245.318848 152.0
1246.133667 156.0
1246.499023 168.0
1246.688721 36.0
1246.808228 148.0
1247.047241 212.0
1248.017334 168.0
1248.263428 208.0
1250.254272 164.0
1250.331665 204.0
1250.416138 160.0
1251.859253 176.0
1252.563599 140.0
1252.810181 196.0
1253.042603 180.0
1254.015015 192.0
1254.099609 188.0
1254.374512 192.0
1254.642456 128.0
1255.185303 160.0
1255.918701 172.0
1256.250244 176.0
1256.320801 204.0
1256.468994 140.0
1256.701782 160.0
1256.800537 108.0
1257.146362 124.0
1257.548584 168.0
1258.890015 252.0
1259.412598 104.0
1261.228516 168.0
1261.280151 224.0
1264.439575 88.0
1264.496216 152.0
1265.331421 48.0
1266.067871 132.0
1266.898804 200.0
1267.009888 68.0
1268.087036 352.0
1268.760376 172.0
1269.107788 88.0
1269.575806 192.0
1269.980103 176.0
1270.370239 80.0
1270.873901 48.0
1270.930664 108.0
1271.008789 124.0
1271.399048 88.0
1271.569336 252.0
1272.634155 120.0
1272.804565 148.0
1273.173828 148.0
1273.692261 164.0
1274.52356 68.0
1274.821899 132.0
1275.120483 192.0
1275.568237 120.0
1276.641846 192.0
1277.503906 156.0
1277.637573 168.0
1278.100098 92.0
1278.235229 164.0
1278.327759 176.0
1279.52356 192.0
1279.943604 204.0
1280.264038 192.0
1280.762573 140.0
1281.154419 144.0
1281.282593 204.0
1282.429932 216.0
1282.693604 140.0
1282.757812 204.0
1282.864746 156.0
1285.617798 148.0
1286.431519 160.0
1286.574341 188.0
1287.352539 208.0
1287.523926 236.0
1287.588257 184.0
1287.809692 208.0
1288.345337 84.0
1288.988403 156.0
1289.195679 192.0
1289.49585 176.0
1289.588745 132.0
1290.096191 172.0
1290.239136 148.0
1290.4823 152.0
1291.090088 140.0
1291.569336 172.0
1292.112915 136.0
1292.449219 168.0
1292.54187 160.0
1292.728271 160.0
1293.143433 80.0
1294.038208 212.0
1296.960938 148.0
1298.545532 184.0
1299.155273 172.0
1299.463745 168.0
1299.599976 116.0
1299.82251 148.0
1300.137085 156.0
1300.317627 60.0
1300.418091 116.0
1301.724731 76.0
1302.069458 136.0
1302.328979 136.0
1303.520508 240.0
1304.282349 144.0
1304.339844 56.0
1305.001221 148.0
1305.336792 72.0
1306.648315 160.0
1306.900024 132.0
1307.698853 128.0
1308.278687 144.0
1308.397095 156.0
1308.836304 196.0
1309.405151 168.0
1309.606812 176.0
1309.808472 124.0
1309.952637 96.0
1310.118286 60.0
1310.399292 108.0
1310.737915 184.0
1311.026123 124.0
1311.170288 120.0
1311.321655 192.0
1311.487427 188.0
1311.991943 116.0
1312.114502 156.0
1312.287598 160.0
1312.37207 184.0
1312.626465 160.0
1312.857178 208.0
1313.160156 204.0
1313.63623 216.0
1314.112305 164.0
1314.545288 112.0
1315.129883 160.0
1315.331909 164.0
1315.483521 52.0
1316.025024 52.0
1316.219971 172.0
1317.108276 32.0
1317.902954 188.0
1318.032959 152.0
1318.790039 180.0
1319.013062 184.0
1319.919556 48.0
1319.977417 160.0
1320.997192 184.0
1321.083984 164.0
1321.539795 176.0
1322.212769 160.0
1322.893188 152.0
1323.03064 204.0
1323.515747 204.0
1323.703979 168.0
1323.790894 124.0
1324.232666 176.0
1324.928101 160.0
1325.522217 260.0
1325.609131 176.0
1326.464355 176.0
1326.580322 176.0
1326.986328 140.0
1327.203857 208.0
1327.472168 236.0
1327.55188 144.0
1327.907349 156.0
1328.088623 168.0
1328.294678 52.0
1328.770508 48.0
1328.821289 232.0
1328.893799 32.0
1330.00415 96.0
1331.841187 52.0
1334.33374 44.0
1334.697266 84.0
1334.762695 188.0
1335.206299 84.0
1335.831787 180.0
1336.086426 216.0
1337.833008 124.0
1337.884033 324.0
1338.451904 124.0
1338.925171 176.0
1341.35144 196.0
1341.745117 164.0
1342.445068 224.0
1342.722168 176.0
1342.904541 76.0
1343.232788 180.0
1343.371338 52.0
1343.568359 168.0
1343.619385 120.0
1343.861694 204.0
1344.67749 160.0
1345.141968 256.0
1345.331299 180.0
1345.816284 196.0
1345.918457 224.0
1346.028076 200.0
1346.239746 124.0
1347.598389 132.0
1347.686157 144.0
1347.737305 92.0
1347.863403 216.0
1347.963745 336.0
1348.309326 204.0
1348.687256 196.0
1348.738403 160.0
1348.848145 172.0
1349.513306 176.0
1350.215332 176.0
1350.59314 216.0
1351.188232 104.0
1351.268677 108.0
1351.971191 184.0
1352.095581 52.0
1352.27124 128.0
1353.054443 112.0
1353.449829 144.0
1353.567017 76.0
1354.313965 244.0
1355.302979 124.0
1355.530151 132.0
1356.145752 152.0
1357.72937 180.0
1357.905396 116.0
1358.044678 276.0
1358.528809 172.0
1360.290039 148.0
1360.840576 124.0
1361.02417 64.0
1362.177246 232.0
1362.37561 176.0
1362.515137 172.0
1363.080933 196.0
1363.301392 124.0
1363.74231 200.0
1364.006958 100.0
1365.197998 216.0
1365.403931 148.0
1365.514282 56.0
1366.00708 192.0
1366.220337 128.0
1366.30127 136.0
1366.78186 176.0
1367.294678 160.0
1367.773071 124.0
1367.839355 236.0
1368.531372 156.0
1370.527344 140.0
1371.013672 172.0
1371.411743 156.0
1372.02356 92.0
1372.672363 112.0
1373.29187 224.0
1374.088501 148.0
1374.700928 156.0
1374.952759 176.0
1375.453735 116.0
1375.896729 228.0
1376.487427 140.0
1376.753174 108.0
1376.812256 168.0
1377.477051 32.0
1378.289673 156.0
1378.407959 224.0
1379.346558 112.0
1379.457397 148.0
1379.730957 156.0
1380.803101 172.0
1382.15686 212.0
1382.504639 196.0
1383.059814 156.0
1383.466919 128.0
1383.93335 68.0
1384.199829 144.0
1384.740479 196.0
1384.859009 132.0
1384.925659 160.0
1385.844238 160.0
1387.089233 140.0
1387.637817 156.0
1388.001221 96.0
1389.618164 172.0
1390.560547 200.0
1391.429077 144.0
1391.570068 184.0
1392.075073 216.0
1392.379517 212.0
1393.27832 152.0
1393.471436 148.0
1393.597778 152.0
1394.238403 192.0
1394.920654 164.0
1395.574829 140.0
1396.014648 208.0
1396.080444 200.0
1396.140015 192.0
1396.876343 184.0
1398.059326 172.0
1398.290039 116.0
1399.265137 144.0
1399.816162 44.0
1400.136353 188.0
1400.471558 204.0
1401.015259 68.0
1401.313232 140.0
1401.946655 224.0
1402.065918 120.0
1402.364014 360.0
1404.324951 116.0
1405.563232 116.0
1405.742432 196.0
1405.95874 176.0
1406.511108 124.0
1406.988892 344.0
1407.444336 120.0
1407.563721 44.0
1407.630981 64.0
1407.981934 176.0
1408.056641 80.0
1409.07251 112.0
1409.834717 208.0
1410.417603 104.0
1410.768921 44.0
1410.918457 188.0
1412.137329 144.0
1412.249512 220.0
1412.571167 124.0
1412.788086 160.0
1413.319336 148.0
1413.506348 120.0
1414.045166 204.0
1414.217285 176.0
1414.584106 132.0
1414.786255 144.0
1415.123169 156.0
1415.939331 176.0
1416.366333 180.0
1416.463623 116.0
1416.546021 232.0
1419.191528 220.0
1419.903931 176.0
1420.218994 176.0
1420.316528 132.0
1420.691528 192.0
1421.164185 136.0
1421.246704 96.0
1421.974609 108.0
1422.079712 148.0
1422.132324 248.0
1422.72522 184.0
1423.108154 168.0
1423.228271 80.0
1423.783936 64.0
1424.595215 152.0
1424.865601 168.0
1425.369019 204.0
1425.722168 176.0
1426.834717 160.0
1427.180542 184.0
1428.278564 156.0
1428.338745 116.0
1428.546997 156.0
1428.654663 224.0
1429.391968 192.0
1429.504883 176.0
1429.587646 84.0
1430.21228 160.0
1430.280029 160.0
1430.430542 180.0
1430.551025 92.0
1430.874756 172.0
1431.115601 132.0
1432.132324 188.0
1432.629395 40.0
1433.880249 128.0
1433.976074 196.0
1434.068726 204.0
1434.513428 56.0
1435.207031 132.0
1435.49353 268.0
1435.614136 160.0
1436.413696 180.0
1436.783325 176.0
1437.922729 160.0
1437.990601 136.0
1438.073608 124.0
1438.126465 236.0
1438.247314 176.0
1438.79834 160.0
1438.858765 180.0
1438.987061 128.0
1439.878052 192.0
1440.112183 36.0
1440.535278 148.0
1440.754272 136.0
1441.109375 72.0
1441.479614 44.0
1442.174927 192.0
1442.855225 188.0
1443.30896 156.0
1443.790771 156.0
1444.344971 176.0
1444.602173 108.0
1444.655151 168.0
1444.844238 232.0
1444.935059 180.0
1446.079346 180.0
1446.463745 124.0
1446.8573 188.0
1447.122314 144.0
1447.993164 72.0
1448.629395 160.0
1448.894531 180.0
1449.040405 148.0
1449.25061 152.0
1449.379517 68.0
1449.644653 120.0
1449.993286 88.0
1450.220703 124.0
1450.455566 92.0
1451.18335 152.0
1451.577637 228.0
1451.88855 148.0
1452.093384 228.0
1452.207153 260.0
1452.563599 144.0
1452.700195 120.0
1453.094727 156.0
1453.23877 176.0
1453.724487 184.0
1454.255737 60.0
1454.483398 140.0
1454.711182 236.0
1455.333618 164.0
1455.569092 180.0
1455.763916 188.0
1456.369141 196.0
1456.639893 60.0
1456.731079 148.0
1457.126099 156.0
1457.7948 104.0
1458.227905 172.0
1458.47876 136.0
1458.645996 240.0
1458.805664 132.0
1459.223755 192.0
1459.55835 208.0
1459.885254 92.0
1460.090576 184.0
1461.170776 240.0
1461.566406 112.0
1462.251343 96.0
1462.418701 200.0
1462.936401 156.0
1463.19519 124.0
1463.564819 164.0
1463.728149 148.0
1463.956665 192.0
1464.596313 120.0
1464.695435 124.0
1464.870605 152.0
1465.662964 104.0
1465.967773 56.0
1466.432617 132.0
1466.539307 240.0
1466.905151 124.0
1467.293823 192.0
1467.759033 140.0
1468.315796 140.0
1468.460693 172.0
1469.040405 232.0
1469.160278 196.0
1469.347534 168.0
1469.459961 144.0
1469.559204 100.0
1469.74231 120.0
1471.177124 208.0
1471.879517 140.0
1472.29187 56.0
1472.666138 220.0
1473.13208 208.0
1473.28479 168.0
1473.605713 164.0
1473.689697 140.0
1474.80542 176.0
1475.569946 112.0
1475.738159 176.0
1476.618652 188.0
1477.420654 172.0
1477.59668 160.0
1478.683228 180.0
1478.759766 192.0
1478.828613 96.0
1478.898682 208.0
1479.091553 192.0
1479.8927 152.0
1480.735107 96.0
1480.796265 180.0
1480.941895 184.0
1481.118042 192.0
1481.677246 116.0
1481.983643 136.0
1482.113892 64.0
1482.175293 56.0
1482.405151 44.0
1482.49707 120.0
1483.034668 208.0
1483.309448 188.0
1483.392944 148.0
1483.42334 132.0
1483.443604 260.0
1483.73877 172.0
1483.900635 240.0
1484.743286 128.0
1485.085815 72.0
1485.234131 184.0
1486.114014 168.0
1486.285156 248.0
1486.377197 140.0
1486.599731 180.0
1487.041626 172.0
1487.359619 172.0
1487.584595 196.0
1487.712646 172.0
1487.920044 176.0
1489.217773 96.0
1490.055054 164.0
1490.124146 136.0
1490.339355 80.0
1490.815674 120.0
1491.453613 172.0
1491.522827 160.0
1491.753418 184.0
1491.814941 208.0
1491.930176 224.0
1493.045166 88.0
1493.137451 236.0
1494.152832 148.0
1494.591309 72.0
1495.391724 60.0
1495.661011 136.0
1497.170166 220.0
1497.532104 112.0
1497.686157 208.0
1497.824829 188.0
1498.125244 56.0
1498.587402 196.0
1498.656738 236.0
1498.887939 124.0
1499.126831 104.0
1499.489014 172.0
1499.604614 208.0
1499.674072 144.0
1499.943848 240.0
1500.668457 192.0
1501.401001 252.0
1501.470459 184.0
1501.555298 156.0
1501.701782 228.0
1502.064331 192.0
1502.264893 144.0
1503.013306 72.0
1503.275635 144.0
1503.352783 104.0
1503.476196 96.0
1503.615112 88.0
1504.163208 68.0
1504.402466 88.0
1504.566895 132.0
1505.170532 192.0
