>compound MLS001139320-01!(2S)-2-[2-[(4-methyl-6-oxo-7,8,9,10-tetrahydrobenzo[c]chromen-3-yl)oxy]propanoylamino]-2-phenylacetic acid
>formula C25H25NO6
>ionization [M+H]+
>parentmass 436.174591
#inchi InChI=1S/C25H25NO6/c1-14-20(13-12-18-17-10-6-7-11-19(17)25(30)32-22(14)18)31-15(2)23(27)26-21(24(28)29)16-8-4-3-5-9-16/h3-5,8-9,12-13,15,21H,6-7,10-11H2,1-2H3,(H,26,27)(H,28,29)/t15?,21-/m0/s1
#inchikey JUZNJLMPVMZQFK
#Ion_Source LC-ESI
#Instrument qTof
#Compound_Source NIH Natural Product Library
#PI Dorrestein
#Data_Collector VVP/LMS
#Scan -1
#Precursor_MZ 436.176
#ExactMass 435.168
#Charge 1
#CAS_Number N/A
#Pubmed_ID N/A
#Smiles CC(Oc1ccc2c3CCCCc3c(=O)oc2c1C)C(=O)N[C@H](C(=O)O)c4ccccc4
#INCHI_AUX N/A
#Library_Class 1
#SpectrumID CCMSLIB00000080611
#IonMode Positive
#UpdateWorkflowName UPDATE-SINGLE-ANNOTATED-GOLD
#LibraryQualityString Gold
#TaskID b1d8e8f6646f4e71acdff9ca3d919d08
##Scan# 2222
#SpectrumFile p2-G11_GG11_01_18059.mzXML
#LibraryName NIH_Natural_Products_Library.mgf
#MQScore -1
#Organism NIH_Natural_Products_Library
#TIC_Query 0
#RT_Query -1
#MZErrorPPM -1
#SharedPeaks 0
#MassDiff 0
#LibMZ -1
#SpecMZ 436.176
#SpecCharge 0
#internalFilename spec-00000.mgf

>collision 10
95.014748 148.0
95.045792 184.0
95.117599 140.0
95.148666 152.0
95.241875 80.0
95.294327 72.0
95.333191 124.0
95.387611 292.0
95.482887 156.0
95.537354 164.0
95.601974 152.0
95.731628 120.0
95.839134 152.0
95.925026 164.0
95.944382 128.0
96.01458 116.0
96.127251 160.0
96.209709 104.0
96.292259 156.0
96.327614 212.0
96.448029 172.0
96.505997 156.0
96.52037 184.0
96.579041 128.0
96.598602 276.0
96.684692 172.0
96.719925 192.0
96.805916 152.0
96.882454 212.0
96.911842 140.0
96.949081 80.0
97.035324 188.0
97.086311 188.0
97.135963 228.0
97.213821 204.0
97.237373 220.0
97.276634 156.0
97.302155 204.0
97.341423 176.0
97.427849 316.0
97.440636 132.0
97.473038 156.0
97.555588 180.0
97.620468 64.0
97.801476 116.0
97.827065 200.0
97.90358 144.0
97.925522 120.0
97.988556 72.0
98.075264 56.0
98.091034 140.0
98.152153 148.0
98.211319 100.0
98.379051 140.0
98.404716 56.0
98.433601 236.0
98.506142 56.0
98.600281 244.0
98.716919 144.0
98.748566 168.0
98.873207 164.0
99.102921 132.0
99.219856 68.0
99.465843 176.0
99.611145 164.0
99.728043 216.0
99.811539 92.0
99.877174 204.0
99.932877 152.0
100.233543 108.0
100.369087 132.0
100.406982 216.0
100.460838 148.0
100.566597 152.0
100.610176 168.0
100.689758 244.0
100.738052 148.0
100.752304 184.0
100.890205 176.0
100.922195 216.0
100.994186 164.0
101.200317 112.0
101.332504 164.0
101.348534 140.0
101.372581 140.0
101.496864 184.0
101.594765 168.0
101.641289 180.0
101.661362 80.0
101.705513 208.0
101.757706 204.0
101.874191 156.0
101.922409 140.0
101.960594 140.0
102.045021 180.0
102.119431 216.0
102.157646 196.0
102.248192 208.0
102.348846 200.0
102.552322 200.0
102.580544 120.0
102.60675 144.0
102.639008 148.0
102.933624 220.0
102.976028 172.0
103.053314 196.0
103.121277 180.0
103.210457 180.0
103.360138 96.0
103.495758 164.0
103.773354 156.0
103.86055 132.0
103.929527 100.0
103.943733 224.0
103.969406 160.0
104.002586 196.0
104.020859 80.0
104.048004 476.0
104.061317 112.0
104.063972 168.0
104.169098 136.0
104.205666 140.0
104.236145 372.0
104.286957 108.0
104.319481 188.0
104.392677 120.0
104.445557 196.0
104.494377 184.0
104.590141 208.0
104.699974 84.0
104.767189 192.0
104.791641 132.0
104.917763 172.0
104.997528 172.0
105.031326 336.0
105.069305 7376.0
105.099525 192.0
105.113808 204.0
105.139374 68.0
105.16687 44.0
105.193405 176.0
105.219948 72.0
105.25721 192.0
105.288414 204.0
105.348564 192.0
105.784195 56.0
105.886574 164.0
105.984901 156.0
106.044983 320.0
106.064751 10536.0
106.176537 52.0
106.243073 144.0
106.339684 148.0
106.359573 168.0
106.390999 108.0
106.438225 184.0
106.549141 68.0
106.607841 116.0
106.641609 64.0
106.703285 64.0
106.771141 180.0
106.797874 164.0
106.954262 152.0
106.991211 164.0
107.048882 4788.0
107.086334 328.0
107.139595 160.0
107.24675 76.0
107.316841 136.0
107.356659 156.0
107.384895 112.0
107.39933 148.0
107.4179 156.0
107.659386 204.0
107.711021 132.0
107.762383 184.0
107.816399 100.0
107.888741 80.0
107.950775 152.0
108.007996 156.0
108.053619 312.0
108.091438 196.0
108.176399 160.0
108.240479 44.0
108.315041 140.0
108.58242 152.0
108.615608 160.0
108.642006 132.0
108.858437 60.0
109.005928 52.0
109.025803 180.0
109.06105 484.0
109.269997 192.0
109.29705 136.0
109.328262 228.0
109.56147 128.0
109.576057 104.0
109.690674 80.0
109.774078 164.0
110.020287 108.0
110.036987 128.0
110.285583 120.0
110.30648 164.0
110.392204 172.0
110.511436 176.0
110.576309 112.0
110.611893 196.0
110.628639 68.0
110.783607 136.0
110.930305 164.0
111.156822 100.0
111.173607 172.0
111.213486 116.0
111.268066 184.0
111.314255 164.0
111.370964 100.0
111.417175 160.0
111.476013 168.0
111.505432 196.0
111.631569 108.0
111.708786 152.0
111.947235 104.0
112.04834 40.0
112.130524 188.0
112.17057 132.0
112.227493 160.0
112.360367 140.0
112.387794 152.0
112.427895 48.0
112.472214 132.0
112.486992 156.0
112.560791 180.0
112.607346 72.0
112.687622 160.0
112.702408 136.0
112.778488 112.0
112.87574 152.0
112.916222 200.0
112.938446 136.0
112.977577 164.0
113.15081 180.0
113.19104 156.0
113.246101 92.0
113.299057 92.0
113.335075 160.0
113.349915 136.0
113.372414 136.0
113.434685 180.0
113.477089 108.0
113.822952 92.0
113.939774 28.0
114.031143 140.0
114.184227 152.0
114.40126 184.0
114.418297 204.0
114.5056 232.0
114.609985 112.0
114.637688 120.0
114.678185 96.0
114.752792 172.0
114.796303 240.0
114.827431 172.0
114.92556 192.0
115.054161 896.0
115.141167 100.0
115.173203 200.0
115.433945 112.0
115.466026 124.0
115.498108 192.0
115.549446 144.0
115.566566 124.0
115.592247 164.0
115.668503 184.0
115.752983 228.0
115.7892 68.0
115.870598 224.0
115.90274 272.0
116.035889 196.0
116.060616 480.0
116.149284 156.0
116.24057 212.0
116.46418 228.0
116.494896 212.0
116.548607 104.0
116.610931 108.0
116.778633 172.0
116.901268 228.0
116.924942 168.0
116.980904 124.0
117.011047 236.0
117.067238 568.0
117.230751 188.0
117.323433 144.0
117.342842 168.0
117.411552 208.0
117.435135 160.0
117.62207 204.0
117.657829 84.0
117.686813 132.0
117.83709 136.0
117.899757 208.0
117.960281 204.0
118.022972 52.0
118.072853 248.0
118.157074 132.0
118.234978 56.0
118.299911 116.0
118.464493 96.0
118.731102 216.0
118.767975 140.0
118.802681 140.0
118.872108 64.0
118.889473 68.0
118.928543 164.0
119.048752 784.0
119.086685 588.0
119.204361 100.0
119.303116 176.0
119.330429 104.0
119.393494 88.0
119.495728 184.0
119.521843 144.0
119.567543 128.0
119.604546 176.0
119.748245 128.0
119.977051 32.0
120.046501 188.0
120.070816 96.0
120.197151 180.0
120.225716 180.0
120.345772 132.0
120.391632 136.0
120.492111 356.0
120.610115 216.0
120.651649 216.0
120.826614 124.0
120.855057 204.0
120.90976 140.0
120.968864 160.0
120.998474 168.0
121.034546 144.0
121.064323 4364.0
121.122147 104.0
121.175896 220.0
121.193939 244.0
121.216354 72.0
121.268951 100.0
121.319374 140.0
121.34568 64.0
121.556252 144.0
121.595757 136.0
121.635262 156.0
121.738457 144.0
121.797752 120.0
121.982338 128.0
122.00872 136.0
122.067886 452.0
122.138466 176.0
122.283684 236.0
122.312302 104.0
122.517097 164.0
122.620667 180.0
122.649323 128.0
122.68679 52.0
122.726479 124.0
122.781609 160.0
122.808563 72.0
122.910431 128.0
122.991219 220.0
123.03978 200.0
123.089226 228.0
123.196579 72.0
123.214256 244.0
123.309273 156.0
123.36454 184.0
123.479515 184.0
123.532608 220.0
123.615044 216.0
123.718498 164.0
123.853577 144.0
123.902313 172.0
123.928902 180.0
124.010895 220.0
124.056396 156.0
124.07518 184.0
124.11953 168.0
124.139481 32.0
124.1661 152.0
124.281448 184.0
124.305862 144.0
124.972481 156.0
125.003632 208.0
125.055328 156.0
125.085983 164.0
125.121597 120.0
125.226257 172.0
125.310913 40.0
125.540504 136.0
125.600723 180.0
125.694427 176.0
125.747986 220.0
125.803795 164.0
125.928841 148.0
126.038307 308.0
126.060654 188.0
126.113373 176.0
126.136642 92.0
126.24173 84.0
126.303505 244.0
126.543808 148.0
126.5662 232.0
126.633385 96.0
126.689384 192.0
126.929207 148.0
127.104172 128.0
127.190689 220.0
127.353371 228.0
127.48143 96.0
127.706253 172.0
127.762489 252.0
127.875 60.0
127.901077 208.0
127.944786 232.0
127.994316 136.0
128.034851 28.0
128.062866 1392.0
128.30751 212.0
128.345596 184.0
128.429276 120.0
128.46312 172.0
128.84465 212.0
128.87854 136.0
128.952789 172.0
129.069687 4176.0
129.143356 144.0
129.171753 172.0
129.242569 120.0
129.502914 112.0
129.652451 220.0
129.731781 72.0
129.768066 168.0
129.789688 164.0
129.827438 172.0
130.031204 320.0
130.073593 652.0
130.13562 188.0
130.252411 208.0
130.428696 136.0
130.568359 228.0
130.756226 140.0
130.778976 108.0
130.810852 148.0
130.870041 204.0
130.958862 148.0
131.016022 216.0
131.051987 276.0
131.084793 716.0
131.136581 180.0
131.26355 212.0
131.334946 204.0
131.350906 56.0
131.366882 196.0
131.399384 80.0
131.460434 104.0
131.563141 108.0
131.588257 56.0
131.638489 176.0
131.818954 116.0
131.866943 160.0
131.953812 124.0
131.983536 148.0
132.00412 52.0
132.022415 180.0
132.056778 1048.0
132.080414 9096.0
132.164246 292.0
132.198563 40.0
132.245438 188.0
132.306152 152.0
132.361099 220.0
132.450409 36.0
132.564972 52.0
132.633728 112.0
132.744888 140.0
132.830933 136.0
132.851578 196.0
132.895172 180.0
133.036011 76.0
133.064178 456.0
133.084244 1140.0
133.138504 84.0
133.339355 244.0
133.364563 224.0
133.457916 136.0
133.501602 244.0
133.561401 44.0
133.598206 120.0
133.80304 176.0
133.855988 52.0
133.938904 116.0
134.064499 148.0
134.093719 148.0
134.150909 136.0
134.275421 308.0
134.298492 152.0
134.525894 168.0
134.570801 116.0
134.628525 80.0
134.76712 108.0
134.961288 188.0
135.043884 11092.0
135.079727 740.0
135.171783 140.0
135.266998 228.0
135.285675 132.0
135.327133 208.0
135.4496 104.0
135.48204 124.0
135.61412 176.0
135.637299 80.0
135.68367 96.0
135.715073 184.0
135.750916 52.0
135.781052 140.0
135.804245 140.0
135.834412 36.0
135.913284 188.0
135.94809 164.0
135.998825 228.0
136.047592 1408.0
136.081039 176.0
136.136139 184.0
136.287125 64.0
136.321976 168.0
136.424255 224.0
136.461456 92.0
136.484695 216.0
136.65683 136.0
136.691727 52.0
136.712677 116.0
136.761551 84.0
136.922195 64.0
137.024414 132.0
137.059418 1724.0
137.106247 208.0
137.24379 140.0
137.367401 216.0
137.473526 180.0
137.647476 128.0
137.775925 48.0
137.923157 208.0
138.062622 320.0
138.098526 236.0
138.278671 112.0
138.414459 180.0
138.512833 160.0
138.653412 192.0
138.675262 228.0
138.835617 184.0
138.962952 48.0
139.000488 84.0
139.029388 64.0
139.052124 188.0
139.089676 76.0
139.147186 168.0
139.249344 188.0
139.406738 204.0
139.484299 192.0
139.576004 184.0
139.608917 136.0
139.680115 104.0
139.735947 152.0
139.791367 180.0
139.827713 116.0
140.053741 88.0
140.548828 36.0
140.593674 104.0
140.652679 132.0
140.787247 68.0
140.806152 48.0
140.973877 148.0
141.016418 156.0
141.068634 1528.0
141.103882 180.0
141.172455 96.0
141.309662 128.0
141.328583 120.0
141.368805 92.0
141.461121 124.0
141.681366 100.0
141.764297 136.0
141.937347 76.0
142.019653 152.0
142.046432 212.0
142.076767 4692.0
142.110489 120.0
142.186432 304.0
142.321747 156.0
142.402481 164.0
142.419113 104.0
142.51651 76.0
142.55928 176.0
142.59256 152.0
142.640091 152.0
142.781082 232.0
142.806549 160.0
142.892181 120.0
142.911209 176.0
142.939774 184.0
143.084595 1152.0
143.156403 176.0
143.227844 176.0
143.280258 136.0
143.313614 140.0
143.335052 144.0
143.499527 116.0
143.57106 156.0
143.716049 108.0
143.909912 176.0
144.024536 136.0
144.054794 444.0
144.091782 316.0
144.141602 220.0
144.206589 232.0
144.224167 96.0
144.402191 192.0
144.41893 80.0
144.451233 144.0
144.478409 208.0
144.967194 140.0
145.034607 216.0
145.064896 1364.0
145.099731 1100.0
145.178162 160.0
145.211731 128.0
145.228516 92.0
145.293289 36.0
145.430069 200.0
145.460953 180.0
145.698303 80.0
145.775909 172.0
145.804749 60.0
145.876862 200.0
146.07225 1908.0
146.163559 176.0
146.189545 72.0
146.283401 156.0
146.468826 132.0
146.664001 180.0
146.712219 196.0
146.900314 132.0
146.977524 196.0
146.996826 168.0
147.023376 180.0
147.08046 1464.0
147.187561 172.0
147.264816 148.0
147.366272 188.0
147.429092 168.0
147.462936 48.0
147.61525 204.0
147.634583 80.0
147.762787 148.0
147.893463 212.0
147.922516 64.0
148.053268 280.0
148.087173 156.0
148.118652 168.0
148.198608 164.0
148.288162 212.0
148.409485 176.0
148.448273 112.0
148.603516 120.0
148.622925 184.0
148.763702 136.0
148.787979 96.0
149.060837 464.0
149.159668 192.0
149.254471 176.0
149.322571 184.0
149.451508 160.0
149.470963 132.0
149.568314 172.0
149.634048 144.0
149.797211 104.0
149.89711 140.0
150.055405 276.0
150.059433 188.0
150.091034 176.0
150.170166 220.0
150.282379 120.0
150.345825 64.0
150.384872 168.0
150.499619 124.0
150.56311 200.0
150.602188 40.0
150.693604 196.0
150.726776 132.0
150.8172 148.0
150.866089 176.0
150.944336 168.0
150.961456 112.0
151.042191 304.0
151.073441 524.0
151.095978 84.0
151.360321 116.0
151.4142 180.0
151.470535 96.0
151.561188 120.0
151.58078 192.0
151.713135 64.0
151.735199 40.0
151.774429 132.0
151.823486 200.0
151.857819 124.0
151.879898 152.0
151.955948 180.0
152.006454 288.0
152.069931 1696.0
152.283997 244.0
152.321732 40.0
152.361038 124.0
152.401031 204.0
152.467422 96.0
152.596985 104.0
152.663376 248.0
152.695343 148.0
152.852798 96.0
153.037399 48.0
153.070618 568.0
153.121124 120.0
153.162994 196.0
153.222122 116.0
153.296051 108.0
153.374908 164.0
153.397095 92.0
153.735001 116.0
154.00412 256.0
154.079834 200.0
154.273468 156.0
154.347641 104.0
154.394623 132.0
154.53067 216.0
154.659363 144.0
155.055649 280.0
155.0867 884.0
155.200211 228.0
155.221741 156.0
155.256165 68.0
155.294815 156.0
155.48967 120.0
155.551727 212.0
155.688278 148.0
156.051575 144.0
156.089233 508.0
156.29982 168.0
156.613495 200.0
156.643387 52.0
156.700684 164.0
156.832764 72.0
156.85022 148.0
156.925003 140.0
157.063889 1284.0
157.100662 2020.0
157.161957 144.0
157.21936 120.0
157.239319 132.0
157.324188 164.0
157.556442 160.0
157.691391 160.0
157.84639 164.0
157.873886 152.0
157.963928 120.0
158.033981 136.0
158.07222 1196.0
158.106308 616.0
158.219193 128.0
158.310776 188.0
158.336884 160.0
158.36879 168.0
158.429565 148.0
158.717789 120.0
158.802048 128.0
158.883331 152.0
158.978683 200.0
159.023849 184.0
159.042465 116.0
159.079575 1976.0
159.116928 308.0
159.209641 132.0
159.236053 132.0
159.337753 196.0
159.455856 136.0
159.561432 176.0
159.707291 60.0
159.785278 208.0
159.903534 148.0
159.953888 108.0
159.974014 156.0
160.049072 356.0
160.078751 1052.0
160.291367 288.0
160.390121 132.0
160.459808 204.0
160.495117 116.0
160.520767 112.0
160.581284 48.0
160.609039 124.0
160.697327 120.0
160.854065 192.0
160.929535 144.0
161.059204 2304.0
161.091202 616.0
161.166962 92.0
161.222565 264.0
161.298386 96.0
161.336304 132.0
161.377304 184.0
161.738525 160.0
161.827133 28.0
161.847382 168.0
162.065689 1004.0
162.090057 500.0
162.129379 176.0
162.222351 144.0
162.273056 40.0
162.379562 160.0
162.587601 140.0
162.620605 204.0
162.851654 52.0
163.03952 716.0
163.075348 2592.0
163.220154 92.0
163.390564 160.0
163.459259 160.0
163.703644 124.0
163.848831 104.0
163.915085 220.0
163.944504 184.0
164.037003 512.0
164.078445 356.0
164.172073 172.0
164.21846 260.0
164.384293 140.0
164.723862 212.0
164.869507 56.0
164.914078 136.0
164.94873 96.0
164.974304 136.0
164.994751 196.0
165.069199 376.0
165.117889 52.0
165.265869 76.0
165.455261 112.0
165.585861 64.0
165.642212 68.0
165.772873 204.0
165.798508 156.0
165.829254 92.0
165.954865 104.0
166.044067 220.0
166.073456 184.0
166.080811 132.0
166.088745 180.0
166.206238 148.0
166.527145 160.0
166.768661 116.0
166.858627 96.0
167.085876 976.0
167.120987 84.0
167.254807 160.0
167.476242 184.0
167.525192 120.0
167.619995 196.0
167.849945 140.0
168.056381 112.0
168.093246 692.0
168.177582 128.0
168.195648 104.0
168.446136 140.0
168.562393 156.0
168.606323 124.0
168.80751 176.0
168.926956 160.0
169.001984 188.0
169.065277 52.0
169.097748 348.0
169.136551 80.0
169.154678 172.0
169.550964 128.0
169.654648 72.0
169.714279 172.0
169.73761 140.0
169.792831 152.0
169.898422 172.0
169.937347 48.0
170.012589 200.0
170.071014 920.0
170.109528 104.0
170.155365 136.0
170.225464 68.0
170.305969 68.0
170.333572 148.0
170.443665 144.0
170.539825 56.0
170.573608 148.0
170.667206 76.0
170.756958 204.0
171.015808 136.0
171.081314 736.0
171.120605 140.0
171.325684 192.0
171.45076 148.0
171.666245 200.0
171.742767 184.0
171.787125 88.0
172.04863 172.0
172.086273 1336.0
172.40332 112.0
172.469269 156.0
172.70137 140.0
172.86882 148.0
173.059845 504.0
173.095459 1444.0
173.130157 1300.0
173.241989 128.0
173.303497 56.0
173.376862 52.0
173.405701 180.0
173.445007 160.0
173.531525 128.0
173.555115 116.0
173.770203 156.0
173.890915 224.0
173.935089 240.0
173.977539 36.0
174.065536 1900.0
174.101379 408.0
174.13533 516.0
174.175461 108.0
174.221771 144.0
174.253296 64.0
174.437256 40.0
174.495102 52.0
174.558197 172.0
174.614273 288.0
174.650253 64.0
174.720367 128.0
174.817825 156.0
174.873901 28.0
174.985474 156.0
175.011185 216.0
175.039764 188.0
175.07547 3052.0
175.11058 1628.0
175.174088 176.0
175.340088 148.0
175.36908 56.0
175.503525 140.0
175.621368 164.0
175.667038 64.0
175.748825 140.0
175.788406 160.0
175.822723 124.0
175.849106 60.0
175.899261 204.0
175.967896 120.0
176.07753 704.0
176.116653 328.0
176.16333 144.0
176.187103 36.0
176.239944 240.0
176.323593 148.0
176.422318 160.0
176.506927 136.0
176.562454 172.0
176.644455 232.0
176.666611 96.0
176.723816 196.0
176.776749 180.0
176.89006 284.0
176.99646 148.0
177.054306 1492.0
177.083954 200.0
177.238831 192.0
177.40712 112.0
177.515839 204.0
177.701508 216.0
177.89444 196.0
177.969589 152.0
178.00145 160.0
178.060791 488.0
178.086227 744.0
178.11731 192.0
178.163467 124.0
178.26709 136.0
178.352142 112.0
178.543579 104.0
178.753738 188.0
178.801636 176.0
178.876175 120.0
178.97467 196.0
178.998642 180.0
179.043915 144.0
179.091034 548.0
179.214401 212.0
179.619629 180.0
179.640976 184.0
179.691666 108.0
179.809082 124.0
179.858887 200.0
179.966568 152.0
180.073395 128.0
180.097427 132.0
180.209641 112.0
180.289795 136.0
180.353943 128.0
180.48761 316.0
180.571442 228.0
180.709625 68.0
180.883575 140.0
180.953186 164.0
181.065277 172.0
181.103149 292.0
181.238052 56.0
181.341614 96.0
181.507828 140.0
181.529282 176.0
181.62851 132.0
181.958588 180.0
181.989471 144.0
182.019226 200.0
182.071381 148.0
182.101837 188.0
182.135834 144.0
182.286285 200.0
182.49057 104.0
182.622345 176.0
182.662689 148.0
183.011108 200.0
183.036804 200.0
183.0811 452.0
183.115479 1212.0
183.265747 28.0
183.311569 104.0
183.396072 36.0
183.416672 164.0
183.451721 220.0
183.540695 136.0
183.591919 168.0
183.751068 216.0
184.083084 484.0
184.101456 184.0
184.111755 148.0
184.117706 156.0
184.247849 168.0
184.337006 132.0
184.369431 180.0
184.499176 140.0
184.523514 84.0
184.615448 76.0
184.756104 176.0
184.799393 204.0
184.833969 384.0
184.904922 92.0
184.931992 208.0
184.980713 172.0
185.013199 152.0
185.053818 304.0
185.096329 28324.0
185.152817 64.0
185.16069 120.0
185.171875 120.0
185.216309 108.0
185.26532 84.0
185.308411 44.0
185.358612 144.0
185.446609 108.0
185.476425 36.0
185.536972 48.0
185.574036 32.0
185.686295 120.0
185.791 84.0
185.828979 64.0
185.847977 188.0
185.978241 36.0
186.066925 384.0
186.098923 4188.0
186.149277 80.0
186.171005 164.0
186.224747 168.0
186.276932 56.0
186.464417 124.0
186.556839 56.0
186.739029 84.0
186.766968 188.0
186.793427 156.0
186.816589 140.0
186.917343 176.0
186.982422 104.0
187.009811 168.0
187.036499 132.0
187.074158 4832.0
187.110123 1084.0
187.146957 80.0
187.184998 124.0
187.283386 108.0
187.316071 100.0
187.354599 56.0
187.42778 280.0
187.465927 84.0
187.534668 72.0
187.762177 60.0
187.883102 68.0
187.961502 180.0
187.989838 172.0
188.038651 168.0
188.081757 1240.0
188.14238 120.0
188.166946 68.0
188.202438 100.0
188.292557 72.0
188.344452 60.0
188.366302 52.0
188.425705 124.0
188.452789 140.0
188.532974 116.0
188.642303 92.0
188.780777 68.0
188.921249 144.0
189.023361 160.0
189.055542 5124.0
189.080521 1140.0
189.129364 280.0
189.175751 52.0
189.227768 64.0
189.261215 132.0
189.290741 36.0
189.361954 128.0
189.392746 164.0
189.418701 144.0
189.466034 148.0
189.612442 168.0
189.646896 80.0
189.720917 180.0
189.82785 140.0
190.023941 156.0
190.057556 628.0
190.080063 356.0
190.126862 56.0
190.151566 96.0
190.236664 72.0
190.291565 52.0
190.464584 52.0
190.536011 128.0
190.604691 188.0
190.744858 164.0
190.865829 136.0
191.025345 184.0
191.067169 328.0
191.110641 104.0
191.253738 44.0
191.303284 160.0
191.38588 48.0
191.501556 152.0
191.540115 120.0
191.595215 156.0
192.063843 156.0
192.21283 148.0
192.281815 188.0
192.533051 100.0
192.767868 124.0
192.789978 148.0
192.933716 160.0
193.04155 44.0
193.079224 236.0
193.10527 176.0
193.71965 68.0
193.775055 176.0
194.104904 112.0
194.271317 92.0
194.34346 156.0
194.379532 216.0
194.410049 72.0
194.76265 200.0
194.784882 132.0
194.804321 180.0
194.918243 148.0
194.987717 48.0
195.057205 180.0
195.079285 296.0
195.182312 140.0
195.358109 192.0
195.663666 96.0
195.827957 76.0
196.084244 276.0
196.123306 148.0
196.209717 92.0
196.271057 192.0
196.310104 92.0
196.32962 176.0
196.435608 96.0
196.589066 128.0
196.614182 140.0
196.698746 188.0
196.781677 196.0
196.804016 156.0
197.018372 176.0
197.062027 444.0
197.10289 196.0
197.157425 256.0
197.223053 80.0
197.245422 48.0
197.295746 156.0
197.469116 124.0
197.550232 152.0
197.985428 164.0
198.064667 480.0
198.096115 144.0
198.219391 128.0
198.314682 204.0
198.438019 76.0
198.620316 140.0
198.724106 148.0
198.757782 224.0
199.03006 168.0
199.074219 700.0
199.120865 36.0
199.173294 44.0
199.226669 52.0
199.327805 156.0
199.521454 168.0
199.561111 28.0
199.637039 152.0
199.679214 92.0
199.794556 192.0
200.053452 128.0
200.080399 180.0
200.354797 64.0
200.444962 76.0
200.496719 240.0
200.661987 152.0
200.766327 136.0
200.830978 340.0
201.006104 128.0
201.090927 6608.0
201.12764 4508.0
201.213226 84.0
201.257324 32.0
201.282745 56.0
201.33075 144.0
201.43808 60.0
201.497406 108.0
201.692398 152.0
201.726318 100.0
201.840897 84.0
201.895966 88.0
202.025833 92.0
202.061981 1388.0
202.095459 1720.0
202.132507 888.0
202.24115 88.0
202.313751 216.0
202.357208 32.0
202.402512 168.0
202.425171 52.0
202.529953 312.0
202.621124 44.0
202.852997 108.0
202.881348 140.0
203.069855 800.0
203.106339 2264.0
203.162094 104.0
203.250061 104.0
203.344147 104.0
203.44873 48.0
203.494156 140.0
203.515457 104.0
203.613419 140.0
203.744095 104.0
203.795227 108.0
203.815125 116.0
203.897537 112.0
203.918854 64.0
204.01123 44.0
204.050217 208.0
204.077347 140.0
204.112244 276.0
204.267166 132.0
204.306992 140.0
204.326904 176.0
204.460648 116.0
204.515106 120.0
204.896317 68.0
205.035934 120.0
205.113342 180.0
205.187012 188.0
205.209824 220.0
205.315338 36.0
205.33815 80.0
205.632019 232.0
205.714798 40.0
205.763336 144.0
205.84613 120.0
206.079559 296.0
206.157516 84.0
206.200378 136.0
206.235687 192.0
206.297562 240.0
206.412109 132.0
206.509171 184.0
206.594986 204.0
206.780975 84.0
206.863983 68.0
206.898346 136.0
206.944153 144.0
207.038651 156.0
207.090057 468.0
207.193329 232.0
207.273544 180.0
207.399658 184.0
207.525787 148.0
207.590866 184.0
207.718002 172.0
207.760971 144.0
207.821213 124.0
208.07666 160.0
208.096756 52.0
208.171417 212.0
208.301056 128.0
208.374054 220.0
208.562149 160.0
208.783539 124.0
208.809418 196.0
208.941742 148.0
209.094254 164.0
209.169083 164.0
209.336075 132.0
209.38504 124.0
209.520416 128.0
209.580933 128.0
209.779785 136.0
209.961441 164.0
210.107483 216.0
210.702866 136.0
210.81662 200.0
211.052368 124.0
211.079987 268.0
211.111496 1828.0
211.426178 92.0
211.750443 264.0
212.024796 136.0
212.085266 136.0
212.119324 468.0
212.50415 152.0
212.54187 112.0
212.820511 176.0
212.98024 136.0
213.055466 192.0
213.090683 1580.0
213.125397 296.0
213.224304 88.0
213.392914 156.0
213.43071 276.0
213.590668 172.0
213.7565 140.0
213.794327 148.0
213.907837 204.0
213.957596 176.0
214.063782 336.0
214.099899 2552.0
214.140442 204.0
214.20195 60.0
214.25148 76.0
214.298096 188.0
214.344208 92.0
214.379684 176.0
214.493347 60.0
214.642044 116.0
214.703278 148.0
214.752869 64.0
214.840378 136.0
214.933731 208.0
215.070007 4956.0
215.103897 1988.0
215.251907 92.0
215.31633 136.0
215.392761 124.0
215.511887 112.0
215.532333 84.0
215.552795 100.0
215.579086 72.0
215.631699 56.0
215.683319 164.0
215.900589 160.0
216.076355 1348.0
216.111694 356.0
216.201996 104.0
216.242966 148.0
216.395203 116.0
216.526962 160.0
216.644135 44.0
216.717377 72.0
216.796494 184.0
217.013412 144.0
217.081787 960.0
217.160049 84.0
217.224579 100.0
217.365402 36.0
217.476929 60.0
217.547379 88.0
217.708862 44.0
217.749985 120.0
217.811661 172.0
217.911545 80.0
218.037903 208.0
218.095032 124.0
218.223099 68.0
218.334839 72.0
218.446609 148.0
218.552521 40.0
218.790924 188.0
218.893982 68.0
218.959442 88.0
219.097214 196.0
219.129623 104.0
219.262222 56.0
219.288757 84.0
219.335907 92.0
219.518707 144.0
219.548203 68.0
219.902237 76.0
219.972992 136.0
220.250656 128.0
220.37178 28.0
220.788574 60.0
221.031158 140.0
221.149536 76.0
221.279785 128.0
221.445618 144.0
221.507812 152.0
221.549286 136.0
221.590286 148.0
221.735962 44.0
221.887146 36.0
221.979065 148.0
222.112534 220.0
222.272736 132.0
222.650345 176.0
222.685394 116.0
223.27684 128.0
223.526733 100.0
223.758896 48.0
223.833328 144.0
224.024536 212.0
224.08606 156.0
224.125244 164.0
224.193787 124.0
224.623138 108.0
225.064835 120.0
225.154419 160.0
225.176056 148.0
225.369507 48.0
225.441223 208.0
225.575714 168.0
225.698303 196.0
226.030334 152.0
226.431473 148.0
226.602219 212.0
226.665146 200.0
226.73407 48.0
226.955902 184.0
226.982895 160.0
227.021881 192.0
227.063644 168.0
227.097366 188.0
227.330612 184.0
227.432907 108.0
227.752045 140.0
227.853333 56.0
228.073639 256.0
228.114792 124.0
228.1689 108.0
228.34816 176.0
228.430542 140.0
228.46965 140.0
228.502731 88.0
228.550873 220.0
228.58699 160.0
228.618546 176.0
228.746506 48.0
228.81575 44.0
228.950516 160.0
229.032562 188.0
229.086441 9116.0
229.121979 21716.0
229.218811 96.0
229.248398 44.0
229.269348 68.0
229.292542 212.0
229.317139 108.0
229.338791 180.0
229.382111 80.0
229.403214 144.0
229.445419 108.0
229.485657 172.0
229.516037 204.0
229.546356 92.0
229.572067 72.0
229.625336 320.0
229.650482 80.0
229.683655 156.0
229.747116 156.0
229.822433 252.0
229.87674 96.0
229.897873 80.0
229.958237 100.0
230.003159 208.0
230.04483 168.0
230.092621 6352.0
230.123917 2760.0
230.173492 100.0
230.197418 176.0
230.228241 168.0
230.276642 140.0
230.326599 72.0
230.400116 144.0
230.422974 40.0
230.465576 80.0
230.497543 140.0
230.519455 48.0
230.531754 108.0
230.539429 100.0
230.577469 212.0
230.603958 368.0
230.651428 40.0
230.683182 40.0
230.710388 116.0
230.731552 156.0
230.772781 144.0
230.816208 48.0
230.837372 68.0
230.864227 200.0
230.905853 252.0
230.910324 140.0
230.952545 144.0
231.001694 184.0
231.051071 340.0
231.059387 120.0
231.102722 85008.0
231.180038 120.0
231.188599 112.0
231.228607 88.0
231.268082 44.0
231.302795 48.0
231.339111 156.0
231.38031 100.0
231.43219 160.0
231.446732 96.0
231.516891 88.0
231.601151 692.0
231.62825 180.0
231.65033 80.0
231.671783 260.0
231.693008 128.0
231.730316 40.0
231.759644 112.0
231.765869 60.0
231.825958 140.0
231.846909 100.0
231.880646 72.0
231.930435 116.0
231.997131 248.0
232.027328 124.0
232.064392 36.0
232.105606 16904.0
232.196945 68.0
232.227478 64.0
232.251953 56.0
232.292633 108.0
232.315445 112.0
232.376114 68.0
232.433762 60.0
232.501862 148.0
232.527847 152.0
232.56427 44.0
232.588547 108.0
232.62175 124.0
232.655334 92.0
232.69783 52.0
232.752487 48.0
232.85376 116.0
232.925598 216.0
232.962051 56.0
233.016739 36.0
233.066544 132.0
233.107254 1852.0
233.214844 128.0
233.236526 112.0
233.265945 68.0
233.324417 88.0
233.468567 36.0
233.517487 44.0
233.545013 36.0
233.571243 80.0
233.61261 40.0
233.644821 68.0
233.682587 124.0
233.703888 60.0
233.744965 136.0
233.788681 60.0
233.830597 128.0
233.854721 92.0
233.89682 112.0
234.051559 108.0
234.105331 304.0
234.206207 84.0
234.288452 52.0
234.337204 56.0
234.358521 84.0
234.404236 40.0
234.52005 56.0
234.559128 112.0
234.623688 40.0
234.645035 108.0
234.755783 112.0
234.809692 72.0
234.871017 76.0
235.072067 124.0
235.099518 120.0
235.468933 52.0
235.526962 144.0
235.670547 116.0
235.845718 152.0
235.881424 64.0
235.942566 36.0
236.077332 56.0
236.327942 32.0
236.869827 84.0
236.961731 176.0
237.10199 148.0
237.737518 76.0
238.062927 104.0
238.108994 128.0
238.281021 116.0
238.413147 52.0
238.686737 36.0
239.108398 432.0
240.110809 272.0
240.593948 76.0
240.893494 72.0
240.998535 168.0
241.087082 120.0
241.115967 52.0
241.146866 216.0
241.301437 44.0
241.409668 112.0
241.431305 92.0
241.551941 76.0
241.944946 156.0
242.094955 296.0
242.195786 52.0
242.307312 116.0
242.449844 40.0
243.06076 32.0
243.106079 132.0
243.191971 72.0
243.548172 212.0
244.088943 100.0
244.113815 120.0
244.471573 100.0
244.86026 136.0
245.293823 68.0
245.577576 96.0
245.736679 100.0
245.965775 136.0
246.030045 56.0
246.086243 116.0
246.229889 84.0
246.551682 92.0
246.914352 156.0
246.948746 152.0
246.97377 68.0
247.427521 60.0
247.465103 212.0
248.317459 116.0
248.402145 52.0
248.540192 84.0
248.609238 120.0
249.312698 48.0
249.51387 64.0
249.869263 216.0
249.935333 44.0
250.741516 40.0
251.956375 104.0
252.348267 216.0
252.515869 228.0
253.107666 140.0
253.754044 128.0
253.814285 52.0
254.020432 232.0
254.083878 96.0
254.969818 128.0
255.028 168.0
255.111282 124.0
255.120193 128.0
255.516739 76.0
255.615387 120.0
255.940063 156.0
256.041962 144.0
256.074219 156.0
256.105652 112.0
256.233093 156.0
256.408356 32.0
256.526276 124.0
256.583679 68.0
256.612366 128.0
256.660187 124.0
256.711212 156.0
256.746063 180.0
256.783478 176.0
256.880859 148.0
256.979156 192.0
257.046539 264.0
257.11792 44884.0
257.199585 56.0
257.257507 72.0
257.320679 156.0
257.36026 228.0
257.403229 56.0
257.431793 76.0
257.473511 60.0
257.521851 112.0
257.544189 100.0
257.568237 52.0
257.615784 168.0
257.668793 72.0
257.715302 100.0
257.753357 172.0
257.827209 132.0
257.873291 56.0
257.914856 132.0
257.936005 72.0
257.997742 56.0
258.056458 96.0
258.121155 8460.0
258.189819 52.0
258.238861 60.0
258.288971 36.0
258.324158 100.0
258.418671 96.0
258.503326 116.0
258.544952 56.0
258.580139 44.0
258.679688 84.0
258.746613 72.0
258.89389 64.0
258.944305 204.0
259.123077 808.0
259.178986 36.0
259.291138 56.0
259.398956 76.0
259.560425 84.0
259.650238 104.0
259.701538 96.0
259.759277 56.0
259.794159 92.0
259.854034 156.0
260.003143 80.0
260.053162 136.0
260.12027 236.0
260.157196 68.0
260.273926 68.0
260.34024 76.0
260.410889 112.0
260.436584 88.0
260.475128 116.0
260.838226 164.0
260.91861 88.0
260.941101 112.0
261.127625 188.0
261.169434 72.0
261.636047 56.0
261.851776 92.0
261.906555 104.0
262.011139 76.0
262.04184 132.0
262.094269 164.0
262.215851 80.0
263.875092 48.0
265.374146 76.0
265.795807 100.0
268.5383 116.0
268.639435 112.0
268.942902 100.0
269.093292 120.0
269.511139 104.0
270.371185 80.0
270.695282 72.0
271.885284 56.0
271.944366 148.0
272.282532 140.0
272.384338 56.0
272.430328 120.0
272.591339 20.0
272.801697 48.0
274.091858 160.0
274.130157 252.0
274.559967 84.0
275.437927 40.0
275.484192 116.0
277.068817 140.0
277.09201 72.0
277.125153 168.0
279.289642 56.0
279.668976 152.0
282.107391 156.0
284.126434 160.0
284.858673 64.0
285.113525 392.0
285.33252 216.0
285.884155 148.0
286.116333 252.0
287.107056 200.0
288.11969 100.0
288.596252 64.0
289.408295 200.0
290.475861 40.0
291.132263 124.0
292.147217 160.0
292.715637 216.0
294.209015 96.0
295.617249 64.0
296.5625 112.0
299.14563 156.0
300.862427 76.0
301.128021 244.0
302.138336 4980.0
302.220703 48.0
302.262238 48.0
302.3349 84.0
302.480255 68.0
302.52182 108.0
302.64444 200.0
303.065552 84.0
303.142761 1072.0
303.304688 40.0
303.377472 32.0
304.146484 176.0
305.266296 28.0
305.847321 80.0
308.204865 112.0
308.47049 96.0
309.779266 108.0
310.070099 36.0
311.74411 36.0
313.10556 40.0
316.120453 108.0
317.11142 192.0
317.158173 112.0
318.304108 96.0
319.13031 108.0
320.138306 152.0
322.182861 36.0
323.430878 36.0
323.602722 112.0
324.093414 124.0
325.465118 48.0
326.131836 64.0
326.408661 80.0
327.135437 196.0
328.183838 136.0
329.710815 80.0
331.313751 100.0
332.089508 200.0
332.582947 40.0
332.895203 96.0
333.214844 116.0
336.124084 124.0
336.777557 92.0
345.141327 324.0
346.152283 76.0
348.154816 152.0
348.210541 64.0
348.48172 108.0
349.619568 92.0
350.468597 56.0
354.33194 148.0
356.181396 88.0
358.397308 108.0
362.160034 152.0
365.139496 200.0
366.11377 96.0
366.281342 100.0
373.146912 76.0
374.49765 76.0
377.148407 184.0
378.04184 88.0
378.808441 116.0
379.444 68.0
380.08786 64.0
380.239227 104.0
382.672668 100.0
384.056091 84.0
390.003845 112.0
390.172424 472.0
391.183929 324.0
392.160797 124.0
392.200226 120.0
392.472229 28.0
395.77948 36.0
400.266479 36.0
406.241699 112.0
408.217804 100.0
408.756836 68.0
410.037476 56.0
410.585785 100.0
411.828888 96.0
413.429901 72.0
414.320709 44.0
414.807007 44.0
417.324097 132.0
417.881317 72.0
418.007446 60.0
419.167999 108.0
420.570953 104.0
421.424469 100.0
421.77182 92.0
425.947327 56.0
426.567841 88.0
428.102509 96.0
428.147797 76.0
434.198273 72.0
435.190063 160.0
435.289703 176.0
436.174591 176.0
437.152039 124.0
437.236328 224.0
438.198303 176.0
439.210205 88.0
443.546387 116.0
444.276062 60.0
449.442657 88.0
450.426361 72.0
453.31604 112.0
454.783478 68.0
455.666748 60.0
458.649902 96.0
459.443726 108.0
461.531616 44.0
469.43277 136.0
469.790741 48.0
470.269714 108.0
470.338776 76.0
472.309174 76.0
473.417145 60.0
481.964966 96.0
482.97049 88.0
483.80191 76.0
487.635712 72.0
488.629517 80.0
497.939026 52.0
499.605896 44.0
500.135437 72.0
500.562836 136.0
503.139984 80.0
504.471283 68.0
511.847321 40.0
512.987183 108.0
514.390137 60.0
516.256104 72.0
519.676086 52.0
532.049316 112.0
533.073547 116.0
534.641724 40.0
536.94989 116.0
539.073486 64.0
539.614319 40.0
543.402893 108.0
547.754272 28.0
550.804993 88.0
558.981567 112.0
567.393799 48.0
571.682983 96.0
576.743225 36.0
577.355225 84.0
579.01593 44.0
588.571289 60.0
597.96637 80.0
600.685242 104.0
605.617249 56.0
608.589111 72.0
609.954895 92.0
612.090088 80.0
612.661438 64.0
614.401672 96.0
626.727417 36.0
629.92041 36.0
630.115234 56.0
630.994873 100.0
632.330444 72.0
637.752319 124.0
641.941101 92.0
646.072693 60.0
652.706787 128.0
661.955017 44.0
668.503418 196.0
671.068604 168.0
694.874695 140.0
715.896973 112.0
716.16864 48.0
736.919128 112.0
738.768127 96.0
742.912354 128.0
743.533936 36.0
744.877441 152.0
746.812561 64.0
747.650391 52.0
763.460938 72.0
772.456848 52.0
778.470398 160.0
784.908691 84.0
834.061279 160.0
835.418335 56.0
846.807068 44.0
848.545471 92.0
858.284485 180.0
863.388306 68.0
868.442688 184.0
874.959534 92.0
876.691223 168.0
884.031677 60.0
887.046387 52.0
892.56781 184.0
895.263489 120.0
912.815308 168.0
922.359131 96.0
926.00769 48.0
931.940491 184.0
932.706238 108.0
934.993164 160.0
942.18219 172.0
946.76355 56.0
948.307495 220.0
949.920105 204.0
954.175964 164.0
959.945312 168.0
961.425903 64.0
962.919922 204.0
965.967163 164.0
968.393555 76.0
970.798157 204.0
973.31134 156.0
974.628174 188.0
975.865051 140.0
975.964539 136.0
977.930359 196.0
979.019897 60.0
979.599915 152.0
979.829651 192.0
983.533813 44.0
984.657654 96.0
992.824829 76.0
999.433228 184.0
1015.923096 180.0
1016.830505 128.0
1016.913025 192.0
1017.357361 96.0
1022.105042 180.0
1024.581787 120.0
1024.874878 116.0
1032.138672 168.0
1032.970093 144.0
1033.296387 92.0
1034.198608 184.0
1038.581299 140.0
1040.673462 68.0
1041.045776 156.0
1042.613281 92.0
1043.944092 192.0
1046.730469 148.0
1047.200562 28.0
1048.17981 92.0
1050.578247 208.0
1051.797852 176.0
1053.354004 148.0
1053.987183 160.0
1064.883545 112.0
1068.04895 124.0
1073.780518 40.0
1077.873657 156.0
1087.34314 124.0
1090.489136 216.0
1093.014404 52.0
1095.002441 120.0
1099.485596 204.0
1099.762817 188.0
1108.247437 176.0
1111.814941 176.0
1113.029785 156.0
1115.055908 236.0
1115.148926 180.0
1116.875732 188.0
1118.314941 172.0
1118.900635 132.0
1119.646484 144.0
1119.799683 124.0
1121.025391 156.0
1122.098633 160.0
1122.452026 216.0
1124.239746 228.0
1124.640137 220.0
1126.055664 184.0
1132.550171 168.0
1132.650635 172.0
1133.233398 148.0
1135.311401 112.0
1138.760986 60.0
1140.030762 180.0
1141.200317 136.0
1141.381958 140.0
1141.704712 144.0
1143.669312 164.0
1148.358765 188.0
1148.776978 184.0
1148.84436 128.0
1149.390869 132.0
1153.740479 228.0
1153.814819 172.0
1156.595215 136.0
1158.138916 212.0
1160.043091 192.0
1161.745117 136.0
1161.98938 136.0
1162.063965 148.0
1163.041992 148.0
1166.777466 172.0
1169.137695 144.0
1169.573242 140.0
1171.405029 128.0
1172.331543 228.0
1173.94043 244.0
1175.04541 92.0
1175.693604 220.0
1182.911255 288.0
1183.096069 64.0
1186.185669 124.0
1186.233643 116.0
1186.802612 128.0
1188.249878 44.0
1189.128174 156.0
1192.026245 132.0
1194.69397 200.0
1197.226929 168.0
1199.824585 224.0
1202.701172 132.0
1204.254639 84.0
1206.106445 48.0
1206.590332 160.0
1207.274902 36.0
1208.206543 192.0
1208.277832 144.0
1209.059692 88.0
1209.440308 204.0
1211.531616 156.0
1213.251099 224.0
1216.962036 204.0
1218.031494 184.0
1218.406616 176.0
1222.474243 52.0
1223.908203 160.0
1225.280273 44.0
1225.335938 48.0
1227.803589 248.0
1230.587769 232.0
1231.181274 176.0
1231.579346 204.0
1236.676514 200.0
1238.440918 188.0
1239.625 144.0
1242.12793 232.0
1242.394409 192.0
1243.559326 80.0
1245.483154 156.0
1245.743042 232.0
1246.965698 216.0
1248.553467 220.0
1250.777832 92.0
1252.876343 204.0
1253.087769 192.0
1253.263916 244.0
1254.116577 172.0
1256.464722 60.0
1256.902222 116.0
1257.191528 152.0
1257.38208 88.0
1258.257324 248.0
1259.982422 60.0
1260.355103 104.0
1261.125366 184.0
1261.181885 152.0
1263.126465 100.0
1263.972412 224.0
1264.031982 204.0
1265.065308 172.0
1266.764893 120.0
1267.673096 124.0
1268.224609 136.0
1269.146118 60.0
1269.883667 52.0
1271.863281 168.0
1273.659668 120.0
1273.83728 132.0
1273.894165 100.0
1276.11853 112.0
1277.121216 144.0
1277.71875 220.0
1278.14563 140.0
1279.248779 44.0
1280.167236 160.0
1281.798584 68.0
1282.817749 124.0
1283.873047 204.0
1285.228271 204.0
1285.299683 108.0
1290.764038 176.0
1291.679565 232.0
1292.130249 64.0
1292.981689 172.0
1294.284546 40.0
1296.111084 144.0
1296.383423 120.0
1296.806274 84.0
1296.899414 252.0
1298.706299 160.0
1299.222778 156.0
1300.5 136.0
1301.29541 132.0
1304.012207 252.0
1304.594482 100.0
1305.622681 144.0
1306.241211 196.0
1311.641846 136.0
1312.175293 140.0
1312.629517 140.0
1313.877319 148.0
1314.050415 132.0
1314.289551 144.0
1314.526611 168.0
1315.03186 192.0
1316.266357 132.0
1316.699585 104.0
1317.746948 164.0
1320.530029 156.0
1322.421509 184.0
1327.388184 148.0
1327.504272 160.0
1327.692749 192.0
1328.200439 116.0
1329.629761 156.0
1330.283081 176.0
1332.359985 196.0
1333.151978 168.0
1333.282837 132.0
1333.827881 148.0
1334.445923 188.0
1334.947632 176.0
1336.518799 184.0
1336.787964 64.0
1337.406616 48.0
1338.513184 124.0
1340.734985 100.0
1340.90271 152.0
1341.143188 168.0
1343.637085 232.0
1345.374023 304.0
1347.572266 100.0
1349.341064 132.0
1349.582275 168.0
1351.835205 140.0
1352.105957 112.0
1356.126831 144.0
1357.534424 52.0
1358.502563 220.0
1358.568604 208.0
1359.68396 104.0
1362.011353 192.0
1364.054199 116.0
1364.252686 228.0
1366.319092 160.0
1366.797363 52.0
1366.885742 128.0
1367.062256 96.0
1367.827759 196.0
1368.372437 224.0
1373.132812 100.0
1374.526978 188.0
1375.051025 176.0
1375.30188 132.0
1375.545532 104.0
1376.106567 200.0
1377.605835 92.0
1377.791016 268.0
1378.832275 152.0
1379.201904 196.0
1379.386719 164.0
1380.614014 124.0
1381.516357 152.0
1383.655151 184.0
1385.06958 148.0
1386.277222 160.0
1387.722656 64.0
1389.332031 148.0
1393.028931 116.0
1394.678467 144.0
1394.87915 28.0
1395.377319 172.0
1396.38855 176.0
1396.723267 68.0
1398.055054 72.0
1398.375122 188.0
1398.948242 188.0
1399.216187 140.0
1399.677856 156.0
1400.407715 104.0
1401.987061 120.0
1402.180908 200.0
1404.171509 188.0
1406.626221 116.0
1407.619263 164.0
1407.835815 96.0
1408.395996 148.0
1409.53894 196.0
1409.912598 108.0
1410.062866 200.0
1410.338623 52.0
1410.615234 128.0
1411.093628 104.0
1411.161011 172.0
1416.534302 36.0
1418.175293 196.0
1419.704712 180.0
1422.488281 168.0
1424.91394 180.0
1426.394409 140.0
1426.710083 236.0
1433.33252 184.0
1433.906128 128.0
1434.169922 228.0
1434.682495 120.0
1435.149902 152.0
1436.062378 64.0
1436.311279 152.0
1437.963745 196.0
1438.641846 128.0
1438.695923 248.0
1439.783203 148.0
1441.392212 228.0
1441.452637 100.0
1442.321777 68.0
1442.850952 164.0
1444.605469 40.0
1445.18042 160.0
1445.77063 204.0
1445.876587 64.0
1446.769775 264.0
1447.110474 164.0
1447.45874 136.0
1448.178223 64.0
1448.352417 80.0
1448.798096 188.0
1449.322144 68.0
1450.345215 124.0
1450.481567 140.0
1450.837891 40.0
1450.959229 72.0
1452.218018 140.0
1452.513794 192.0
1453.515259 132.0
1453.841553 108.0
1458.200806 180.0
1458.352783 192.0
1458.755737 192.0
1459.181396 40.0
1461.807495 152.0
1464.751953 136.0
1465.955688 220.0
1468.349487 136.0
1471.126953 248.0
1471.256714 152.0
1471.714844 168.0
1472.150024 168.0
1472.325684 128.0
1472.562378 148.0
1473.555542 140.0
1474.090332 164.0
1475.481445 212.0
1475.672607 184.0
1476.184814 132.0
1477.278564 136.0
1477.638184 56.0
1478.036011 160.0
1478.204346 160.0
1478.533447 172.0
1480.15625 188.0
1480.723022 72.0
1481.458374 212.0
1481.711182 184.0
1481.948608 60.0
1482.990845 156.0
1483.274414 120.0
1483.558105 164.0
1484.478149 48.0
1485.061035 192.0
1486.165649 168.0
1486.518677 364.0
1488.422363 204.0
1489.259399 152.0
1489.927734 144.0
1490.757568 128.0
1490.875854 120.0
1491.003418 204.0
1491.134033 116.0
1491.395386 212.0
1491.579834 84.0
1492.110352 180.0
1493.894531 124.0
1494.194458 48.0
1495.679688 160.0
1495.964478 176.0
1497.466064 60.0
1498.921997 100.0
1498.975952 184.0
1500.114624 220.0
1501.5354 200.0
1504.112427 84.0
