>compound MLS002473006-01!5,7-dihydroxy-8-methoxy-2-phenylchromen-4-one
>formula C16H12O5
>ionization [M+H]+
>parentmass 285.077209
#inchi InChI=1S/C16H12O5/c1-20-15-12(19)7-10(17)14-11(18)8-13(21-16(14)15)9-5-3-2-4-6-9/h2-8,17,19H,1H3
#inchikey XLTFNNCXVBYBSX
#Ion_Source LC-ESI
#Instrument qTof
#Compound_Source NIH Natural Product Library
#PI Dorrestein
#Data_Collector VVP/LMS
#Scan -1
#Precursor_MZ 285.076
#ExactMass 284.068
#Charge 1
#CAS_Number N/A
#Pubmed_ID N/A
#Smiles COc1c(O)cc(O)c2c(=O)cc(oc12)c3ccccc3
#INCHI_AUX N/A
#Library_Class 1
#SpectrumID CCMSLIB00000080468
#IonMode Positive
#UpdateWorkflowName UPDATE-SINGLE-ANNOTATED-GOLD
#LibraryQualityString Gold
#TaskID b1d8e8f6646f4e71acdff9ca3d919d08
##Scan# 2117
#SpectrumFile p2-D09_GD9_01_18021.mzXML
#LibraryName NIH_Natural_Products_Library.mgf
#MQScore -1
#Organism NIH_Natural_Products_Library
#TIC_Query 0
#RT_Query -1
#MZErrorPPM -1
#SharedPeaks 0
#MassDiff 0
#LibMZ -1
#SpecMZ 285.076
#SpecCharge 0
#internalFilename spec-00000.mgf

>collision 10
95.012054 132.0
95.185623 168.0
95.24971 116.0
95.377953 164.0
95.605507 128.0
95.681419 236.0
95.99707 156.0
96.026321 180.0
96.073135 192.0
96.293701 72.0
96.324951 180.0
96.340584 136.0
96.472069 172.0
96.579063 184.0
96.778671 264.0
96.896187 184.0
96.911858 40.0
96.939293 148.0
97.029449 348.0
97.102005 100.0
97.376503 144.0
97.642097 220.0
97.681435 168.0
97.748322 192.0
98.426407 132.0
98.505402 148.0
98.582458 164.0
98.661514 52.0
98.815781 136.0
98.831604 236.0
98.964218 56.0
99.006989 332.0
99.110786 172.0
99.144478 200.0
99.166275 144.0
99.386398 144.0
99.434021 164.0
99.505196 136.0
99.680275 128.0
99.737907 124.0
99.763748 204.0
100.125885 176.0
100.163727 140.0
100.54454 156.0
100.573364 156.0
100.692276 184.0
101.002075 128.0
101.026077 196.0
101.126129 164.0
101.140137 144.0
101.174171 100.0
101.208206 156.0
101.278297 184.0
101.484711 264.0
101.516792 56.0
101.972511 80.0
102.043823 176.0
102.079056 104.0
102.350471 172.0
102.403069 156.0
102.471558 140.0
102.534019 200.0
102.667076 168.0
102.902336 196.0
102.910126 116.0
102.943542 384.0
102.973839 128.0
103.054764 3388.0
103.33844 164.0
103.40448 68.0
103.436859 60.0
103.651535 136.0
103.738686 96.0
103.866051 168.0
104.060295 2104.0
104.150604 192.0
104.406693 300.0
104.427032 168.0
104.612488 248.0
104.750664 192.0
104.885155 88.0
104.938156 124.0
105.034477 1024.0
105.071182 88.0
105.148262 224.0
105.170708 36.0
105.209496 56.0
105.36879 52.0
105.479958 60.0
105.49958 144.0
105.624321 80.0
105.847397 244.0
105.953903 136.0
106.109657 52.0
106.242966 176.0
106.396881 92.0
106.56118 140.0
106.60022 192.0
106.725609 84.0
106.752342 200.0
107.05278 88.0
107.07695 136.0
107.176376 260.0
107.681786 156.0
107.756149 140.0
108.051796 128.0
108.159401 192.0
108.260849 180.0
108.393425 176.0
108.461815 44.0
108.594513 168.0
108.947388 80.0
109.026344 156.0
109.280029 172.0
109.8592 76.0
110.000648 532.0
110.053291 72.0
110.099236 124.0
110.209946 128.0
110.385529 80.0
110.607292 256.0
110.864906 208.0
110.87957 96.0
110.946648 68.0
111.007057 352.0
111.278122 92.0
111.326416 188.0
111.360023 132.0
111.427238 192.0
111.614304 172.0
111.629021 44.0
111.788895 216.0
111.822563 236.0
111.972046 116.0
111.993111 184.0
112.016304 1816.0
112.108986 68.0
112.159561 80.0
112.26709 208.0
112.286072 56.0
112.456963 160.0
112.586617 136.0
112.651222 40.0
112.91906 120.0
113.01915 284.0
113.182068 156.0
113.21595 140.0
113.285851 176.0
113.323982 144.0
113.376953 152.0
113.393913 112.0
113.410866 128.0
113.453262 148.0
113.502022 56.0
113.629288 128.0
113.733269 156.0
113.818184 188.0
114.019989 204.0
114.046509 140.0
114.221977 152.0
114.29644 212.0
114.409241 160.0
114.42627 132.0
114.539139 140.0
114.711739 80.0
114.741859 156.0
115.053963 1684.0
115.149147 52.0
115.198273 32.0
115.323563 176.0
115.565987 160.0
115.76506 40.0
115.92572 164.0
115.962151 124.0
116.000732 152.0
116.06176 1336.0
116.15213 224.0
116.247383 56.0
116.352554 152.0
116.438446 208.0
116.517921 164.0
116.844704 108.0
117.038414 144.0
117.06678 464.0
117.480225 56.0
117.661507 124.0
117.780273 188.0
117.95314 200.0
118.041779 316.0
118.186707 160.0
118.34687 124.0
118.381516 176.0
118.677773 216.0
118.756447 96.0
118.773796 120.0
118.795486 116.0
119.009232 172.0
119.053772 196.0
119.123276 100.0
119.14283 200.0
119.299294 148.0
119.558128 140.0
119.586418 128.0
119.645195 196.0
120.126801 188.0
120.150795 132.0
120.207527 136.0
120.264267 120.0
120.467339 132.0
120.521324 180.0
120.59626 220.0
120.808357 56.0
120.887779 148.0
121.033783 160.0
121.051308 104.0
121.722305 208.0
121.998337 296.0
122.186066 176.0
122.476639 160.0
122.503075 108.0
122.615448 124.0
122.66835 196.0
122.713196 160.0
122.824905 164.0
122.871231 112.0
123.021294 104.0
123.491951 104.0
123.542824 88.0
123.640182 120.0
123.725288 160.0
123.817291 216.0
123.908104 96.0
123.943558 152.0
124.014473 164.0
124.131973 136.0
124.194069 120.0
124.34716 164.0
124.413803 168.0
124.633621 52.0
124.724739 44.0
124.751419 36.0
124.766975 152.0
124.818115 52.0
124.858139 32.0
125.098442 168.0
125.178596 240.0
125.220909 208.0
125.463791 188.0
125.561897 136.0
126.045639 728.0
126.129005 136.0
126.146889 40.0
126.269867 112.0
126.370529 140.0
126.482422 236.0
126.641396 92.0
126.94619 56.0
127.003799 888.0
127.053627 768.0
127.127892 172.0
127.26033 128.0
127.336678 152.0
127.435516 240.0
127.545631 88.0
127.761505 128.0
128.000778 156.0
128.061264 824.0
128.079971 232.0
128.117203 192.0
128.405716 224.0
128.430527 52.0
128.504974 92.0
128.662949 120.0
128.683273 196.0
128.753265 152.0
128.915924 52.0
129.034393 224.0
129.071609 288.0
129.119385 64.0
129.18045 140.0
129.27774 116.0
129.447525 292.0
129.667267 220.0
129.685394 200.0
129.714874 124.0
129.735275 140.0
129.807571 212.0
129.871323 140.0
129.894012 152.0
129.948456 212.0
129.982483 136.0
130.040344 156.0
130.07576 432.0
130.109589 156.0
130.173157 116.0
130.484451 216.0
130.641357 108.0
130.83252 160.0
130.944092 176.0
130.961304 108.0
131.003326 164.0
131.049149 3176.0
131.078751 160.0
131.328125 120.0
131.470734 52.0
131.756149 204.0
131.858963 156.0
132.028137 56.0
132.051514 260.0
132.169968 136.0
132.33934 124.0
132.396591 44.0
132.463715 224.0
132.501953 124.0
132.712814 76.0
132.8573 144.0
132.877945 60.0
133.008759 252.0
133.061661 164.0
133.194748 128.0
133.226913 172.0
133.350983 208.0
133.392365 144.0
133.433746 168.0
133.689056 168.0
133.718979 96.0
133.834076 148.0
133.884735 196.0
134.371094 156.0
134.41954 132.0
135.168228 224.0
135.580429 128.0
135.884186 144.0
136.334641 224.0
136.374161 308.0
136.430603 156.0
136.474121 48.0
136.574112 168.0
136.73233 120.0
136.845276 176.0
137.019928 348.0
137.284454 192.0
137.319427 56.0
137.487411 92.0
137.665771 168.0
137.76059 136.0
137.84848 136.0
137.921814 128.0
137.996628 156.0
138.045731 196.0
138.363937 160.0
138.523178 180.0
138.703613 124.0
138.734085 152.0
138.759872 156.0
138.797394 140.0
138.89119 176.0
138.93576 168.0
138.963913 104.0
139.003586 2252.0
139.056351 2272.0
139.137589 60.0
139.156372 60.0
139.179672 100.0
139.28627 96.0
139.3983 180.0
139.54567 144.0
139.779251 180.0
139.934586 140.0
140.0103 3420.0
140.062592 2632.0
140.160706 120.0
140.403061 208.0
140.445953 48.0
140.651245 108.0
140.776367 172.0
140.830688 80.0
140.887375 200.0
140.941727 132.0
141.013809 408.0
141.069839 1256.0
141.111893 184.0
141.133179 40.0
141.210373 124.0
141.230133 76.0
141.409958 60.0
141.552002 156.0
141.592255 96.0
141.668045 104.0
141.928757 92.0
141.991119 160.0
142.042007 456.0
142.075455 392.0
142.213425 88.0
142.320251 188.0
142.377243 48.0
142.450867 80.0
142.793137 112.0
142.893051 184.0
142.91922 168.0
142.95491 196.0
143.050262 880.0
143.133438 44.0
143.469391 144.0
143.488449 96.0
143.717422 148.0
143.736511 80.0
143.769012 220.0
143.893127 128.0
143.965668 112.0
144.001495 196.0
144.057892 2888.0
144.087494 48.0
144.111374 152.0
144.20697 56.0
144.472382 60.0
144.496307 60.0
144.536987 68.0
144.623138 64.0
144.651855 48.0
144.78833 96.0
144.907059 220.0
144.960815 124.0
145.012268 212.0
145.031631 220.0
145.065002 1180.0
145.12381 44.0
145.24852 72.0
145.409271 68.0
145.426071 152.0
145.490875 56.0
145.738251 184.0
145.976227 216.0
146.021912 128.0
146.065155 160.0
146.161438 92.0
146.744324 160.0
147.042603 524.0
147.085007 144.0
147.156891 32.0
147.33078 196.0
147.473343 168.0
147.538605 148.0
147.690948 156.0
148.039459 152.0
148.074921 200.0
148.100006 180.0
148.507202 72.0
148.647903 128.0
148.98053 116.0
149.853928 152.0
149.973328 148.0
150.046722 464.0
150.165955 144.0
150.478302 132.0
150.524689 224.0
150.602829 144.0
150.746979 100.0
150.871628 124.0
150.910751 200.0
151.000381 116.0
151.054642 8048.0
151.108856 44.0
151.192047 92.0
151.218964 116.0
151.243454 48.0
151.306564 184.0
151.419724 36.0
151.508026 80.0
151.544662 148.0
151.58876 116.0
151.649643 104.0
151.860886 128.0
152.00563 124.0
152.059143 1364.0
152.096436 44.0
152.194641 88.0
152.359192 52.0
152.442734 96.0
152.529968 80.0
152.649216 208.0
152.751602 196.0
152.786957 192.0
152.870605 40.0
153.034836 144.0
153.074921 296.0
153.119095 132.0
153.207916 92.0
153.242416 136.0
153.276917 132.0
153.553009 144.0
153.651672 164.0
153.728165 148.0
153.824417 156.0
153.972565 128.0
154.041107 252.0
154.081253 176.0
154.184036 120.0
154.26413 92.0
154.42485 140.0
154.553482 112.0
154.959534 152.0
154.996338 232.0
155.049301 1692.0
155.363647 88.0
155.507568 124.0
156.009323 172.0
156.054672 312.0
156.163483 124.0
156.26796 84.0
156.342606 80.0
156.365005 200.0
156.564178 120.0
156.61647 160.0
156.676254 168.0
156.800842 276.0
156.947922 224.0
156.965378 132.0
157.029694 172.0
157.065323 904.0
157.312164 120.0
157.334641 60.0
157.50354 132.0
157.659348 72.0
157.863266 84.0
157.949371 72.0
158.077133 652.0
158.119186 152.0
158.162064 100.0
158.277222 196.0
158.382401 32.0
158.65303 140.0
158.670578 92.0
159.066833 176.0
159.117142 100.0
159.157318 136.0
159.225128 76.0
159.574402 68.0
159.680008 216.0
159.727798 140.0
159.916519 64.0
160.253952 116.0
160.541306 204.0
160.962723 228.0
161.326538 40.0
161.440323 164.0
161.59462 128.0
161.792023 184.0
161.835052 192.0
161.946487 152.0
162.136505 240.0
162.344376 172.0
162.732605 160.0
162.826553 196.0
163.291656 72.0
163.426468 156.0
163.599533 64.0
163.754852 220.0
164.149872 140.0
164.27739 132.0
164.37944 52.0
164.458557 140.0
164.724106 184.0
164.826309 204.0
164.982208 176.0
165.0177 168.0
165.092148 128.0
165.255859 132.0
165.647552 112.0
165.70134 128.0
166.016617 160.0
166.075607 60.0
166.196182 116.0
166.327057 168.0
166.529907 140.0
166.996841 452.0
167.049194 240.0
167.358719 244.0
167.437775 160.0
167.47641 116.0
167.530502 184.0
167.576874 48.0
167.600067 160.0
167.641296 112.0
167.731506 168.0
167.878464 168.0
168.005386 8700.0
168.057434 6152.0
168.090439 100.0
168.125076 100.0
168.177734 56.0
168.20871 36.0
168.234512 124.0
168.265396 144.0
168.319717 56.0
168.350021 212.0
168.48584 152.0
168.552185 100.0
168.570282 60.0
168.671082 60.0
168.694336 60.0
168.782242 48.0
168.927078 240.0
169.006638 744.0
169.063797 1180.0
169.196213 188.0
169.38266 176.0
169.509613 112.0
169.742905 72.0
169.802551 168.0
169.906296 156.0
169.934845 132.0
170.034271 392.0
170.063232 236.0
170.191788 64.0
170.630875 260.0
170.86174 236.0
170.888733 192.0
170.961212 84.0
170.999802 160.0
171.04425 2876.0
171.096573 64.0
171.152054 64.0
171.269928 160.0
171.380447 48.0
171.411713 64.0
171.755859 48.0
171.930664 44.0
171.995911 160.0
172.05101 820.0
172.181274 176.0
172.364136 104.0
172.476517 48.0
173.029877 180.0
173.060211 940.0
173.107025 184.0
173.211792 108.0
173.348022 148.0
173.40387 160.0
173.607544 168.0
173.683609 68.0
174.031082 296.0
174.063248 348.0
174.120941 204.0
174.232239 196.0
174.518707 176.0
174.70018 160.0
174.797531 156.0
175.044968 144.0
175.337372 164.0
175.463348 116.0
176.124481 196.0
176.292694 180.0
176.316483 164.0
176.702545 112.0
177.340729 48.0
177.544861 124.0
177.674835 36.0
177.826096 76.0
178.178406 212.0
178.200516 200.0
178.397171 96.0
178.453003 264.0
178.474274 188.0
178.500854 116.0
178.570007 144.0
178.620544 136.0
178.652466 80.0
178.742996 156.0
178.857361 188.0
178.883972 196.0
178.953201 132.0
179.049805 13320.0
179.155594 40.0
179.17691 36.0
179.216873 144.0
179.264847 88.0
179.360779 160.0
179.486084 136.0
179.536911 68.0
179.573624 116.0
179.624771 76.0
179.808868 148.0
180.053696 2204.0
180.083862 248.0
180.169342 212.0
180.297592 40.0
180.372437 200.0
180.527496 108.0
180.599701 192.0
180.947586 168.0
181.063705 196.0
181.089508 144.0
181.19397 56.0
181.2556 104.0
181.657761 132.0
181.767761 76.0
181.834839 56.0
181.880478 180.0
182.028381 128.0
182.037079 156.0
182.073776 68.0
182.449951 140.0
182.495667 160.0
182.514481 108.0
182.831909 112.0
183.043381 452.0
183.5616 160.0
183.707581 112.0
183.988235 184.0
184.05574 168.0
184.279922 172.0
184.442062 180.0
184.523163 156.0
184.755737 204.0
185.009781 188.0
185.058319 704.0
185.934418 76.0
186.016251 376.0
186.067398 900.0
186.2901 188.0
186.347153 60.0
186.373184 152.0
186.733154 60.0
186.77124 104.0
187.035629 236.0
187.071976 180.0
187.154953 124.0
188.035446 20.0
188.070938 176.0
188.095505 168.0
188.191055 180.0
188.529755 100.0
189.23822 132.0
189.260117 204.0
189.309402 128.0
189.843781 152.0
189.93428 132.0
190.282791 184.0
190.481155 208.0
190.568436 192.0
190.837784 148.0
190.87352 148.0
191.255936 40.0
191.355026 140.0
191.66626 120.0
191.691071 208.0
191.732407 140.0
191.867462 116.0
191.952942 188.0
191.972244 128.0
192.096359 132.0
192.811478 120.0
192.844635 200.0
193.007629 96.0
193.032623 100.0
193.132187 228.0
193.190277 164.0
193.267746 148.0
193.433792 140.0
193.663605 140.0
193.951767 140.0
194.448242 256.0
194.798096 128.0
194.981476 88.0
195.04866 524.0
195.281738 104.0
195.303986 40.0
195.448639 200.0
195.473694 184.0
195.498734 148.0
195.534912 204.0
195.810181 192.0
195.947021 144.0
196.052292 1432.0
196.323318 88.0
196.931717 108.0
197.058594 2112.0
197.090958 184.0
197.890884 180.0
197.994492 188.0
198.06427 432.0
198.15303 248.0
198.266235 56.0
198.987122 168.0
199.040543 2488.0
199.072601 264.0
199.121918 36.0
199.265167 80.0
199.304504 140.0
199.374756 52.0
199.543411 184.0
200.047928 1208.0
200.132324 76.0
200.35675 104.0
200.661118 212.0
200.692139 184.0
200.807755 48.0
200.940338 76.0
201.027557 136.0
201.048904 312.0
201.343979 136.0
201.618011 72.0
201.711288 140.0
201.906372 48.0
202.022827 184.0
202.05629 136.0
202.20343 72.0
202.333633 116.0
202.597015 156.0
202.945602 168.0
203.007996 140.0
203.042572 268.0
203.163986 204.0
203.203705 108.0
203.345581 160.0
203.464813 284.0
203.74028 164.0
203.885193 176.0
204.047211 60.0
204.695938 248.0
205.320023 220.0
205.436966 148.0
205.499725 176.0
205.559647 168.0
205.810837 116.0
205.985046 156.0
206.045029 120.0
206.267929 168.0
207.475952 228.0
207.619324 136.0
207.696762 248.0
207.969345 232.0
208.382858 156.0
208.618515 176.0
209.420959 124.0
209.997772 148.0
210.030045 428.0
210.144882 192.0
210.447937 204.0
210.476807 164.0
210.576675 48.0
210.771439 160.0
210.800323 140.0
211.033936 320.0
211.462585 80.0
211.98967 116.0
212.021545 148.0
212.147812 128.0
212.186768 108.0
212.273743 172.0
212.523193 92.0
212.563828 100.0
212.819244 172.0
213.05513 3820.0
213.185608 32.0
213.61264 144.0
213.694092 32.0
213.731918 220.0
213.798843 80.0
213.8396 92.0
214.060745 276.0
214.156952 164.0
214.188995 76.0
214.21521 60.0
214.250168 88.0
214.322998 148.0
214.424988 52.0
214.684448 196.0
214.900299 92.0
214.949905 68.0
215.046219 96.0
215.122101 180.0
215.142532 60.0
215.288528 28.0
215.428436 164.0
215.884674 192.0
215.998734 248.0
216.276718 40.0
216.499222 156.0
216.527725 136.0
217.044601 220.0
217.102905 172.0
217.268478 152.0
217.280106 68.0
217.291779 112.0
217.352249 48.0
217.61348 64.0
217.634033 108.0
218.058731 676.0
218.104065 140.0
218.368683 172.0
218.955353 224.0
219.055542 168.0
219.101624 48.0
219.546707 80.0
219.649933 72.0
219.694183 100.0
219.8358 184.0
220.432297 100.0
221.050323 148.0
221.503296 172.0
221.651428 124.0
221.755142 128.0
221.953766 180.0
222.039764 156.0
222.220718 144.0
222.452194 208.0
222.93631 136.0
223.037842 640.0
223.174118 100.0
223.337677 316.0
223.822769 128.0
223.926987 148.0
224.04834 2060.0
224.096786 116.0
224.186905 244.0
224.250549 140.0
224.287506 76.0
224.400787 60.0
224.752731 96.0
224.797501 112.0
225.051956 464.0
225.079391 192.0
225.188583 204.0
225.481369 248.0
225.723511 116.0
225.768372 144.0
225.929886 80.0
226.055222 136.0
226.51062 128.0
226.597504 164.0
226.780289 192.0
226.918182 184.0
227.044128 120.0
227.860565 44.0
228.007812 112.0
228.046875 112.0
228.076935 156.0
228.122025 36.0
228.904266 176.0
229.036774 96.0
229.190414 200.0
229.232605 100.0
229.265762 208.0
229.784378 168.0
229.983551 104.0
230.388184 216.0
231.422501 156.0
232.689819 132.0
232.999603 212.0
233.102905 136.0
233.300461 108.0
233.498108 112.0
234.0215 112.0
234.103714 160.0
234.585098 168.0
234.761932 56.0
235.121918 152.0
235.192108 196.0
235.356964 232.0
236.929001 148.0
237.195419 132.0
237.64949 116.0
237.753815 128.0
238.168289 64.0
238.278885 120.0
238.829132 124.0
238.890656 152.0
239.045441 180.0
239.069107 228.0
239.14296 84.0
239.179901 116.0
239.244553 128.0
239.281494 160.0
239.8853 208.0
240.091873 156.0
240.258438 168.0
240.496033 148.0
240.712143 156.0
240.736847 132.0
240.8535 140.0
240.88649 160.0
240.900192 72.0
240.905258 152.0
241.05069 6896.0
241.19101 88.0
241.228088 36.0
241.39505 116.0
241.494019 52.0
241.555878 108.0
241.673431 52.0
241.862213 56.0
241.89006 56.0
241.914825 124.0
241.986038 204.0
242.016998 208.0
242.05806 7836.0
242.112091 124.0
242.229401 48.0
242.298843 60.0
242.373199 72.0
242.579803 144.0
242.649048 104.0
242.698654 60.0
242.804092 68.0
242.860336 144.0
242.934357 160.0
243.00882 56.0
243.061646 1176.0
243.09259 128.0
243.493057 108.0
243.626617 88.0
243.686707 212.0
243.772644 48.0
243.847229 172.0
244.008881 128.0
244.065781 280.0
244.416321 136.0
244.472412 148.0
244.519012 132.0
244.824112 68.0
245.074905 148.0
245.207291 56.0
245.303925 104.0
245.397446 92.0
245.484756 92.0
245.831009 140.0
246.255585 84.0
246.696167 64.0
247.137131 28.0
247.262299 80.0
247.387512 120.0
247.446991 136.0
247.634872 188.0
247.760162 92.0
248.44986 124.0
249.09024 164.0
249.536499 184.0
249.633972 188.0
249.784927 152.0
250.279022 180.0
250.319962 116.0
250.493179 44.0
250.556183 160.0
250.628647 76.0
250.978516 128.0
251.476944 176.0
251.66951 52.0
251.786346 176.0
251.868469 108.0
251.890579 60.0
252.040756 1892.0
252.086456 76.0
252.386749 148.0
252.532211 44.0
252.598648 56.0
252.763153 200.0
253.044601 772.0
253.345718 100.0
253.418579 64.0
253.60788 76.0
253.725998 136.0
253.830627 80.0
254.049469 176.0
254.12561 160.0
254.230331 88.0
254.84317 212.0
255.017944 160.0
255.427109 240.0
255.53627 104.0
255.631729 184.0
256.040314 680.0
256.236694 164.0
257.04657 152.0
257.384918 180.0
258.286133 84.0
258.439697 76.0
258.564484 192.0
259.01593 132.0
259.352386 152.0
260.395111 156.0
260.674622 216.0
260.759735 72.0
261.427094 164.0
261.800507 180.0
261.938995 236.0
262.064636 232.0
262.374054 140.0
262.593323 44.0
262.722321 124.0
263.038574 128.0
263.190308 188.0
263.697479 192.0
264.011078 152.0
264.642059 140.0
265.475708 108.0
265.740784 148.0
266.042603 132.0
266.292633 180.0
266.315369 120.0
266.79303 104.0
267.173523 160.0
267.365509 44.0
267.767303 96.0
267.847382 404.0
267.886444 136.0
267.950623 176.0
268.013519 140.0
268.042847 72.0
268.065643 136.0
268.267731 120.0
268.502808 120.0
268.554657 80.0
268.597076 124.0
268.665558 124.0
268.866821 272.0
268.907166 140.0
268.958069 172.0
269.044586 6164.0
269.122253 180.0
269.164917 96.0
269.243317 124.0
269.279236 132.0
269.31189 136.0
269.355255 160.0
269.404633 196.0
269.455627 44.0
269.511169 76.0
269.556915 140.0
269.613647 308.0
269.674561 48.0
269.699799 232.0
269.752472 192.0
269.824707 244.0
269.860901 172.0
269.906677 168.0
269.9646 436.0
269.999268 112.0
270.00766 240.0
270.054108 91132.0
270.144836 236.0
270.149139 232.0
270.173157 68.0
270.215485 96.0
270.274963 108.0
270.305328 92.0
270.325836 352.0
270.388092 140.0
270.425781 220.0
270.464752 112.0
270.497803 244.0
270.549744 132.0
270.593079 336.0
270.618561 84.0
270.661591 144.0
270.702179 184.0
270.728851 156.0
270.752014 60.0
270.792908 220.0
270.819702 72.0
270.843872 84.0
270.908142 72.0
270.932434 224.0
270.975006 124.0
270.997498 280.0
271.056671 13820.0
271.14798 76.0
271.2052 152.0
271.271759 152.0
271.324341 84.0
271.402649 104.0
271.431549 92.0
271.455688 64.0
271.540771 64.0
271.61319 100.0
271.652283 44.0
271.678528 64.0
271.708038 68.0
271.734283 92.0
271.82251 68.0
271.850708 100.0
271.881958 80.0
271.911499 204.0
271.952515 184.0
271.981384 40.0
272.056824 1956.0
272.141266 64.0
272.312134 124.0
272.358307 88.0
272.410553 72.0
272.446716 80.0
272.4935 164.0
272.545166 128.0
272.602448 148.0
272.676025 76.0
272.720306 76.0
272.742889 148.0
272.817627 60.0
272.855255 152.0
272.905792 104.0
272.944153 56.0
272.951935 100.0
272.988312 132.0
273.060913 116.0
273.132507 64.0
273.166626 120.0
273.234528 56.0
273.285065 64.0
273.388153 204.0
273.462769 72.0
273.534698 92.0
273.584534 28.0
273.620758 44.0
273.657654 116.0
273.735992 52.0
273.776245 92.0
273.828217 40.0
273.864441 88.0
273.897369 84.0
273.930328 136.0
274.078583 96.0
274.154358 120.0
274.236755 64.0
274.329041 48.0
274.424652 52.0
274.569733 64.0
274.622498 104.0
274.708282 136.0
274.744568 40.0
274.787445 132.0
274.919434 40.0
275.170288 204.0
275.246216 72.0
275.619476 80.0
275.645905 40.0
275.75827 60.0
275.900421 80.0
276.750671 92.0
277.585663 84.0
279.662048 48.0
280.158173 56.0
280.768127 124.0
281.539032 200.0
282.147156 56.0
282.197296 40.0
282.237427 124.0
282.471527 64.0
282.924896 124.0
282.993591 84.0
283.090698 88.0
283.318451 56.0
283.603302 132.0
283.639343 136.0
283.683746 48.0
283.723969 32.0
283.770905 112.0
283.851379 260.0
283.874847 120.0
284.032532 4832.0
284.089508 192.0
284.180084 100.0
284.280731 112.0
284.328949 152.0
284.391876 136.0
284.468689 152.0
284.498901 76.0
284.582825 32.0
284.663422 48.0
284.696991 92.0
284.850616 136.0
284.904572 156.0
284.937225 132.0
285.035217 1112.0
285.077209 9404.0
285.180786 28.0
285.214386 64.0
285.281616 28.0
285.332062 136.0
285.372406 124.0
285.406036 68.0
285.668335 64.0
285.908173 72.0
285.969208 116.0
286.0271 136.0
286.081238 1200.0
286.154358 48.0
286.193359 60.0
286.331421 68.0
286.368469 124.0
286.500793 84.0
286.699615 108.0
286.769409 52.0
286.998627 156.0
287.025604 96.0
287.083374 400.0
287.113281 68.0
287.147003 92.0
287.285309 136.0
287.335907 124.0
287.406769 124.0
287.585632 36.0
287.767914 44.0
287.855682 60.0
287.879333 88.0
288.000916 152.0
288.034698 120.0
288.088745 192.0
288.127625 116.0
288.25766 116.0
288.299835 184.0
288.805359 164.0
288.90976 124.0
292.098938 60.0
294.765015 44.0
294.799164 44.0
299.296204 100.0
303.515137 52.0
303.691986 192.0
306.058563 56.0
313.012665 132.0
314.345123 52.0
317.688599 60.0
332.936768 52.0
334.733185 100.0
335.21402 120.0
337.166382 120.0
340.985168 160.0
348.066925 64.0
353.030426 48.0
356.903931 68.0
365.254303 96.0
371.350281 84.0
389.202423 68.0
389.811249 112.0
392.211945 184.0
392.610138 80.0
394.066681 84.0
403.082275 48.0
408.386139 44.0
422.151031 100.0
424.087494 72.0
439.483978 48.0
441.271576 76.0
442.359253 44.0
447.84729 52.0
453.99231 48.0
457.561462 36.0
458.45166 84.0
474.831573 104.0
476.359406 48.0
476.689606 28.0
478.69928 72.0
481.254456 64.0
484.723022 64.0
493.000336 56.0
494.29599 80.0
500.1586 68.0
500.862091 32.0
503.381897 60.0
507.368439 64.0
512.149597 40.0
513.65509 56.0
515.67334 48.0
526.531738 116.0
530.329102 56.0
537.009583 80.0
540.284607 64.0
543.305054 92.0
575.996399 68.0
584.64563 44.0
588.917175 96.0
597.657654 136.0
597.876648 220.0
619.505676 88.0
628.424561 80.0
632.347229 56.0
635.770142 84.0
655.385315 32.0
676.737 84.0
677.497498 124.0
681.950439 56.0
709.753601 36.0
710.756104 68.0
719.580688 204.0
722.183105 144.0
735.551453 108.0
757.673584 92.0
758.917664 56.0
770.591309 44.0
772.31604 72.0
775.394348 72.0
779.767639 72.0
783.055664 120.0
840.206787 108.0
847.398743 136.0
848.853577 120.0
852.789612 132.0
855.022888 88.0
860.975098 76.0
878.713623 132.0
884.712097 132.0
889.513611 148.0
896.311279 56.0
901.174011 188.0
913.692261 184.0
921.451294 184.0
924.976868 184.0
927.357239 164.0
945.390137 60.0
945.794067 64.0
955.009827 40.0
957.945862 168.0
967.090515 44.0
971.520874 108.0
981.353333 60.0
1005.453491 36.0
1006.40033 116.0
1010.350342 76.0
1025.666748 220.0
1025.787842 216.0
1039.230469 184.0
1046.53186 280.0
1052.379761 100.0
1060.36853 72.0
1062.651001 124.0
1074.322144 208.0
1076.599976 204.0
1077.005005 176.0
1099.273926 168.0
1099.524658 48.0
1101.802612 92.0
1102.886353 84.0
1104.116089 124.0
1112.623779 108.0
1116.284668 160.0
1121.757324 80.0
1122.590698 172.0
1126.702148 172.0
1129.636841 156.0
1131.269653 164.0
1132.227051 136.0
1133.164795 164.0
1137.409668 140.0
1140.190308 160.0
1142.099609 96.0
1142.90686 160.0
1155.133789 208.0
1160.135498 168.0
1160.230469 156.0
1165.06897 164.0
1169.849609 208.0
1170.074341 48.0
1172.758179 116.0
1179.371826 88.0
1182.682251 104.0
1183.099854 188.0
1183.606445 208.0
1184.256958 128.0
1185.510742 212.0
1188.939575 200.0
1191.665527 148.0
1192.146484 132.0
1192.991943 100.0
1196.920288 200.0
1198.13855 172.0
1198.297852 52.0
1200.110474 52.0
1203.311768 128.0
1209.131836 180.0
1215.139404 104.0
1218.624756 140.0
1221.370605 228.0
1233.328491 48.0
1234.558838 128.0
1236.496704 168.0
1240.790527 144.0
1256.021973 108.0
1257.863525 40.0
1258.484741 124.0
1264.089966 68.0
1266.270264 148.0
1268.658203 208.0
1270.587036 140.0
1273.454712 124.0
1273.852539 140.0
1275.024902 48.0
1278.509521 172.0
1285.578613 180.0
1287.884644 172.0
1291.057861 216.0
1291.415405 184.0
1296.269165 160.0
1296.820923 72.0
1304.019531 200.0
1306.399536 108.0
1309.328979 176.0
1309.66748 148.0
1310.041992 156.0
1312.283325 72.0
1315.479126 220.0
1315.782349 140.0
1318.217529 128.0
1322.490356 248.0
1324.975342 100.0
1326.408936 168.0
1327.300659 220.0
1328.112793 56.0
1331.727295 236.0
1334.132446 188.0
1336.117798 212.0
1336.44519 168.0
1341.091187 212.0
1343.548462 108.0
1347.629517 160.0
1349.295898 156.0
1353.026978 192.0
1355.077515 64.0
1355.685669 160.0
1358.376343 208.0
1364.942017 208.0
1372.79895 180.0
1374.849731 112.0
1377.005371 92.0
1377.212158 192.0
1380.722778 184.0
1384.548828 160.0
1390.702271 160.0
1392.573242 148.0
1393.590942 180.0
1395.255615 220.0
1395.738892 172.0
1400.278198 132.0
1401.76062 64.0
1405.04126 188.0
1407.048706 172.0
1407.160767 164.0
1408.855957 48.0
1414.449341 144.0
1415.302734 148.0
1418.711548 160.0
1420.64624 160.0
1420.998901 116.0
1429.316162 196.0
1429.715088 120.0
1430.685913 72.0
1435.145996 124.0
1437.454102 132.0
1438.352173 112.0
1438.646484 156.0
1446.992554 176.0
1447.469604 232.0
1448.161499 176.0
1450.174072 184.0
1450.560547 68.0
1451.333862 40.0
1452.934082 160.0
1453.563843 80.0
1453.63208 184.0
1455.681641 188.0
1459.328735 136.0
1459.693726 116.0
1462.820557 160.0
1464.152954 200.0
1470.480713 192.0
1472.160156 100.0
1472.458008 64.0
1473.619141 68.0
1474.696533 176.0
1474.864746 104.0
1477.755249 156.0
1478.206665 168.0
1478.558716 160.0
1479.837036 108.0
1480.020752 124.0
1480.17395 100.0
1481.138916 180.0
1482.533203 120.0
1482.962402 120.0
1483.307251 216.0
1483.376343 92.0
1485.032471 156.0
1486.823608 252.0
1488.739136 116.0
1492.043091 152.0
1492.688843 64.0
1493.204102 192.0
1493.665649 184.0
1494.481079 144.0
1495.373657 148.0
1496.289673 176.0
1496.543701 172.0
1496.636108 88.0
1496.867188 124.0
1497.329224 164.0
1498.637817 152.0
1503.257324 180.0
1503.38855 152.0
