>compound Masitinib (AB1010)
>formula C28H30N6OS
>ionization [M+H]+
>parentmass 499.227417
#inchi InChI=1S/C28H30N6OS/c1-20-5-10-24(16-25(20)31-28-32-26(19-36-28)23-4-3-11-29-17-23)30-27(35)22-8-6-21(7-9-22)18-34-14-12-33(2)13-15-34/h3-11,16-17,19H,12-15,18H2,1-2H3,(H,30,35)(H,31,32)
#inchikey WJEOLQLKVOPQFV
#Ion_Source LC-ESI
#Instrument qTof
#Compound_Source Commercial
#PI Dorrestein
#Data_Collector Garg_Neha
#Scan -1
#Precursor_MZ 499.227
#ExactMass 498.22
#Charge 1
#CAS_Number 790299-79-5, 1048007-93-7 (methanesulfonate)
#Pubmed_ID N/A
#Smiles C1(=C(C=C(C=C1)NC(=O)C2=CC=C(C=C2)CN3CCN(CC3)C)NC4=NC(=CS4)C5=CC=CN=C5)C
#INCHI_AUX N/A
#Library_Class 1
#SpectrumID CCMSLIB00000078014
#IonMode Positive
#UpdateWorkflowName UPDATE-SINGLE-ANNOTATED-GOLD
#LibraryQualityString Gold
#TaskID 77f51c88eb8b467eb4a01dd2d0cb90d2
##Scan# 1078
#SpectrumFile Plate1_1_20_GG1_01_16488.mzXML
#LibraryName FDALibrary_2_04302014.mgf
#MQScore -1
#Organism FDALibrary_2_04302014
#TIC_Query 0
#RT_Query -1
#MZErrorPPM -1
#SharedPeaks 0
#MassDiff 0
#LibMZ -1
#SpecMZ 499.227
#SpecCharge 0
#internalFilename spec-00000.mgf

>collision 10
46.031044 256.0
49.079132 164.0
53.800163 152.0
54.937546 208.0
56.872135 164.0
57.148659 172.0
59.431007 192.0
60.61993 148.0
62.28315 156.0
63.496956 160.0
65.072021 188.0
65.486923 168.0
65.912834 216.0
71.087852 232.0
72.619789 164.0
77.478188 168.0
78.434189 148.0
78.499428 212.0
79.893417 204.0
82.582489 152.0
86.047501 160.0
88.471931 196.0
88.953728 184.0
93.911133 192.0
95.077827 220.0
96.486183 144.0
96.642654 172.0
97.07753 164.0
98.08223 204.0
99.092461 1032.0
99.69931 164.0
102.553467 168.0
103.205551 148.0
103.553635 228.0
105.044701 164.0
105.842743 156.0
108.353111 116.0
108.865959 228.0
109.013458 152.0
111.091019 152.0
112.285797 144.0
114.085701 168.0
114.217545 156.0
115.03157 164.0
115.461052 220.0
116.014885 192.0
117.094353 180.0
117.34433 216.0
118.041176 100.0
119.050575 1440.0
119.19503 148.0
120.05056 220.0
122.525322 152.0
123.114281 188.0
124.019318 360.0
124.287544 156.0
125.227943 172.0
125.952873 188.0
126.424644 160.0
127.645027 144.0
128.228104 144.0
129.958115 184.0
131.046539 192.0
132.054001 292.0
133.91777 224.0
134.388062 204.0
135.018707 212.0
135.882751 152.0
136.022995 832.0
136.045212 172.0
136.568054 140.0
137.026672 308.0
138.038422 144.0
139.044754 160.0
141.52713 172.0
142.718292 200.0
143.089478 240.0
144.076859 176.0
146.439728 232.0
148.01149 196.0
148.273575 148.0
149.017334 176.0
149.242188 184.0
151.032166 328.0
151.81604 200.0
153.027481 156.0
156.180389 188.0
160.485535 172.0
163.780182 176.0
163.803116 140.0
168.407608 184.0
168.513535 144.0
169.50975 208.0
169.561584 280.0
170.792313 168.0
171.000473 196.0
173.382431 180.0
174.124924 144.0
174.992722 192.0
175.034668 164.0
175.087524 180.0
175.965637 164.0
176.027878 1104.0
176.750687 172.0
176.842392 172.0
176.883011 156.0
177.031891 176.0
177.24321 240.0
177.691315 184.0
178.032196 164.0
179.044357 164.0
179.08165 156.0
179.513412 220.0
180.08606 140.0
184.651169 208.0
184.7724 192.0
185.30629 148.0
186.829407 232.0
187.117889 244.0
187.39299 152.0
188.132095 184.0
190.98204 152.0
191.07283 184.0
192.409531 220.0
193.083771 220.0
194.094376 364.0
194.916245 164.0
194.935699 208.0
195.102997 496.0
196.101608 156.0
198.060562 156.0
199.623871 216.0
201.405121 160.0
202.072311 188.0
206.098145 228.0
207.084549 276.0
209.100693 172.0
209.587814 160.0
210.080841 152.0
210.123367 168.0
211.236389 152.0
214.238144 168.0
214.713287 172.0
217.079239 192.0
217.136536 136.0
218.14212 208.0
219.057327 172.0
219.142761 148.0
220.087708 188.0
221.10498 412.0
221.648483 192.0
221.985306 160.0
222.090149 300.0
222.992874 144.0
223.098389 2008.0
223.205414 132.0
223.554977 164.0
223.885422 156.0
224.043304 196.0
224.105667 5364.0
224.586304 200.0
225.110931 860.0
226.105286 140.0
226.577545 128.0
227.083405 176.0
227.127686 152.0
228.134399 232.0
228.432114 168.0
228.690903 144.0
229.046219 164.0
230.331253 172.0
230.364487 196.0
231.753189 212.0
232.132095 140.0
232.611481 164.0
233.687347 180.0
233.930817 156.0
234.092194 192.0
235.082626 320.0
237.106384 360.0
238.10849 548.0
238.676285 148.0
240.126785 160.0
240.355087 172.0
240.602005 196.0
246.079254 352.0
247.087067 516.0
247.631012 396.0
247.733383 188.0
248.100449 172.0
248.140808 272.0
248.853043 168.0
249.027161 164.0
249.099548 468.0
250.113602 232.0
250.613571 228.0
250.658569 140.0
251.077866 140.0
251.107513 160.0
251.40596 164.0
252.049911 356.0
253.058075 188.0
253.236557 156.0
254.041718 180.0
254.307907 156.0
254.413025 156.0
255.169159 168.0
256.968719 140.0
260.092194 192.0
260.14035 160.0
260.683167 164.0
261.100006 1688.0
262.106293 504.0
263.055145 212.0
263.108734 944.0
264.058685 292.0
264.111603 848.0
265.061646 184.0
265.093323 220.0
265.116058 400.0
265.788635 144.0
266.078461 152.0
266.61673 172.0
267.083496 116.0
268.05191 184.0
268.449615 232.0
270.341125 144.0
270.675049 188.0
271.536957 192.0
272.206451 188.0
272.367371 168.0
274.763977 188.0
275.061005 160.0
275.91333 184.0
276.412781 144.0
276.925934 188.0
277.084961 148.0
277.134644 196.0
277.267212 200.0
278.205933 160.0
279.06781 148.0
279.116302 176.0
280.064331 160.0
280.754211 120.0
281.086975 952.0
282.066162 188.0
282.092712 312.0
283.368805 300.0
284.059448 176.0
284.173492 180.0
284.471039 160.0
285.38269 192.0
286.58432 236.0
287.036011 176.0
289.103485 144.0
290.126434 192.0
295.088287 644.0
295.819153 156.0
296.092285 456.0
297.089905 160.0
300.441467 160.0
303.630768 232.0
303.915222 184.0
304.10611 172.0
305.343018 220.0
306.673065 168.0
307.30777 192.0
309.43985 160.0
310.136993 144.0
310.280731 204.0
311.087616 172.0
313.796631 180.0
313.919464 120.0
316.646423 112.0
318.242279 224.0
319.037811 180.0
319.958008 204.0
320.06839 156.0
321.073334 180.0
322.608765 192.0
323.105865 224.0
324.097656 156.0
324.879272 152.0
327.124695 128.0
327.388214 168.0
329.534515 144.0
331.104492 220.0
331.158844 160.0
331.42691 172.0
335.136841 176.0
338.132263 180.0
338.336365 156.0
339.164276 144.0
343.160461 236.0
346.068359 144.0
347.401306 180.0
347.554718 272.0
348.104095 164.0
348.130157 300.0
348.475555 192.0
349.100067 196.0
349.140961 176.0
351.120758 184.0
351.478088 100.0
351.689453 144.0
351.950806 176.0
352.128296 520.0
353.145294 244.0
354.102814 160.0
354.367096 152.0
356.114471 152.0
356.194153 148.0
357.11908 160.0
357.679504 208.0
358.870026 156.0
359.100067 140.0
360.89389 144.0
363.276154 156.0
364.126434 180.0
364.437927 172.0
365.135864 900.0
366.150299 352.0
366.80899 144.0
367.150085 176.0
368.15094 208.0
369.084473 124.0
371.128845 2456.0
371.773682 148.0
372.137787 252.0
372.414856 220.0
372.84903 144.0
373.083496 188.0
373.131195 300.0
373.171936 172.0
373.87973 164.0
375.123871 140.0
375.378357 224.0
376.138428 188.0
376.725403 152.0
377.123413 160.0
378.134979 136.0
379.132202 168.0
379.302704 168.0
379.433624 176.0
380.150513 124.0
380.260773 184.0
381.112335 688.0
381.196747 172.0
381.803223 144.0
381.902252 120.0
382.101013 576.0
383.096741 232.0
383.135773 156.0
383.875061 164.0
384.103638 552.0
385.049744 160.0
385.105103 392.0
385.2724 152.0
386.089447 120.0
386.359253 140.0
386.875854 176.0
387.169525 156.0
389.114502 152.0
389.193024 144.0
390.5961 140.0
391.462006 164.0
393.591431 288.0
394.168518 632.0
394.429016 180.0
395.164429 620.0
396.168243 476.0
397.054169 220.0
397.099884 120.0
397.167603 260.0
397.208862 184.0
398.602448 148.0
398.973694 100.0
399.035919 184.0
399.12735 32412.0
399.232605 124.0
399.271271 132.0
399.342407 264.0
399.386017 140.0
399.435333 104.0
399.726746 224.0
399.796936 192.0
399.989258 164.0
400.130035 10644.0
400.209015 304.0
401.124969 2708.0
401.194611 248.0
401.245667 120.0
401.464722 132.0
401.664154 164.0
402.129669 576.0
402.274719 140.0
402.372131 116.0
402.47345 128.0
402.703705 120.0
402.801849 156.0
403.02179 144.0
403.15448 176.0
406.208496 172.0
411.11731 156.0
414.151367 188.0
416.835449 140.0
418.723145 144.0
420.721222 144.0
425.78241 144.0
426.074066 144.0
428.167816 140.0
433.174042 164.0
433.911743 156.0
436.76062 244.0
437.992737 236.0
442.168854 124.0
442.226776 184.0
442.469574 236.0
442.812958 192.0
443.18161 172.0
443.303131 144.0
447.541626 156.0
447.722687 140.0
448.02597 160.0
449.898499 144.0
450.963013 160.0
451.119415 188.0
452.03302 176.0
454.383881 212.0
455.412018 216.0
458.117462 120.0
458.935791 188.0
460.113373 180.0
462.11792 148.0
467.83905 144.0
468.084473 192.0
470.214172 172.0
471.216034 144.0
476.289062 152.0
478.276245 180.0
479.713776 156.0
480.577332 152.0
481.216827 140.0
482.284912 176.0
482.529724 192.0
482.621521 176.0
483.369537 168.0
484.111298 172.0
484.262634 140.0
485.312256 128.0
489.409637 200.0
491.291626 140.0
493.30542 208.0
493.38501 144.0
494.267792 1552.0
494.557281 152.0
494.619263 180.0
494.800781 152.0
495.269562 488.0
496.27243 872.0
496.598022 120.0
496.826172 180.0
497.200226 116.0
497.274109 844.0
497.340942 196.0
497.382935 248.0
497.510864 116.0
497.542938 152.0
498.068085 132.0
498.15274 196.0
498.203064 228.0
498.277679 184.0
498.423706 100.0
498.546173 144.0
498.684662 148.0
498.809692 196.0
498.852417 236.0
498.913513 156.0
498.959747 164.0
499.038879 180.0
499.090546 176.0
499.227417 52880.0
499.390594 324.0
499.587646 116.0
499.631104 172.0
499.743683 220.0
499.916443 116.0
500.023224 128.0
500.144806 132.0
500.229248 18656.0
500.399994 144.0
500.547455 196.0
500.637634 160.0
501.016541 104.0
501.059204 168.0
501.158966 124.0
501.227783 3916.0
501.367645 188.0
501.466064 152.0
501.84726 108.0
502.124084 96.0
502.220459 920.0
502.279083 336.0
502.392242 224.0
502.880249 108.0
503.145782 132.0
503.227631 308.0
503.348175 248.0
504.016937 144.0
506.487427 144.0
506.825317 168.0
540.356934 156.0
543.345276 164.0
547.334595 148.0
551.158325 188.0
582.157288 96.0
593.903931 152.0
635.392883 196.0
817.647217 148.0
821.989807 192.0
1371.800903 192.0
1495.826416 164.0
1563.33606 148.0
1605.762695 148.0
1703.161987 212.0
1798.681641 164.0
1831.012573 216.0
1849.840576 212.0
1861.32959 148.0
1991.920654 152.0
