>compound Omeprazole (Prilosec)
>formula C17H19N3O3S
>ionization [M+Na]+
>parentmass 368.105377
#inchi InChI=1S/C17H19N3O3S/c1-10-8-18-15(11(2)16(10)23-4)9-24(21)17-19-13-6-5-12(22-3)7-14(13)20-17/h5-8H,9H2,1-4H3,(H,19,20)
#inchikey SUBDBMMJDZJVOS
#Ion_Source LC-ESI
#Instrument qTof
#Compound_Source Commercial
#PI Dorrestein
#Data_Collector Garg_Neha
#Scan -1
#Precursor_MZ 368.104
#ExactMass 345.115
#Charge 1
#CAS_Number 73590-58-6
#Pubmed_ID N/A
#Smiles C1=C(C=C2C(=C1)NC(=N2)S(=O)CC3=C(C(=C(C=N3)C)OC)C)OC
#INCHI_AUX N/A
#Library_Class 1
#SpectrumID CCMSLIB00000078132
#IonMode Positive
#UpdateWorkflowName UPDATE-SINGLE-ANNOTATED-GOLD
#LibraryQualityString Gold
#TaskID 77f51c88eb8b467eb4a01dd2d0cb90d2
##Scan# 1082
#SpectrumFile Plate2_41_60_GG7_01_16495.mzXML
#LibraryName FDALibrary_2_04302014.mgf
#MQScore -1
#Organism FDALibrary_2_04302014
#TIC_Query 0
#RT_Query -1
#MZErrorPPM -1
#SharedPeaks 0
#MassDiff 0
#LibMZ -1
#SpecMZ 368.104
#SpecCharge 0
#internalFilename spec-00000.mgf

>collision 10
48.301308 156.0
61.077473 148.0
61.699684 156.0
62.260643 176.0
73.816162 148.0
74.153419 168.0
77.708565 196.0
79.185806 140.0
80.519714 180.0
82.467346 160.0
82.892639 204.0
83.775658 164.0
87.285706 248.0
105.243553 152.0
114.383186 172.0
118.847122 152.0
125.184952 180.0
133.082031 148.0
134.117264 228.0
135.501495 156.0
136.076691 160.0
136.976685 168.0
149.075409 200.0
154.766586 204.0
158.355164 168.0
162.177444 148.0
168.271179 216.0
170.532669 220.0
172.968903 236.0
173.086533 120.0
182.061188 184.0
183.034653 152.0
186.005905 144.0
188.07019 264.0
190.025833 340.0
190.083954 3836.0
190.783829 240.0
191.090256 468.0
192.367859 176.0
193.246704 188.0
194.225876 176.0
197.03627 196.0
201.009323 844.0
201.221024 180.0
202.016434 344.0
203.002838 208.0
203.628006 184.0
204.631821 152.0
207.110611 196.0
208.105728 232.0
209.837784 224.0
212.315918 172.0
215.447906 144.0
216.996109 148.0
218.01239 1936.0
219.00975 128.0
219.784454 176.0
220.008759 140.0
220.039322 1296.0
221.048798 148.0
222.039536 400.0
223.038757 104.0
238.053833 148.0
258.093872 188.0
274.460907 244.0
279.585602 164.0
280.118317 148.0
282.119934 164.0
286.894409 160.0
293.216125 204.0
317.207367 160.0
320.127899 140.0
323.262207 176.0
328.107635 156.0
329.175629 152.0
335.121552 116.0
348.626007 144.0
350.09259 752.0
351.102966 296.0
351.135254 144.0
352.085052 224.0
366.154327 148.0
366.299683 160.0
367.286957 360.0
368.105377 6440.0
369.107086 1356.0
369.196625 140.0
369.66333 156.0
369.724548 188.0
370.049927 188.0
370.102417 332.0
371.115082 176.0
371.204803 100.0
386.10968 164.0
420.019104 204.0
624.326599 144.0
1694.006104 168.0
1895.109863 156.0
