>compound (2R,3R,4S,6R)-2-((5-hydroxy-2,2-dimethyl-3,4-dihydro-2H-benzo[h]chromen-6-yl)oxy)-6-(hydroxymethyl)tetrahydro-2H-pyran-3,4,5-triol
>formula C21H26O8
>ionization [M+H]+
>parentmass 407.17
#inchi InChI=1S/C21H26O8/c1-21(2)8-7-12-14(23)19(11-6-4-3-5-10(11)18(12)29-21)28-20-17(26)16(25)15(24)13(9-22)27-20/h3-6,13,15-17,20,22-26H,7-9H2,1-2H3/t13-,15?,16+,17-,20-/m1/s1
#inchikey WVILKFILAZPSRT
#Ion_Source DI-ESI
#Instrument qTof
#Compound_Source Isolated
#PI Norberto Lopes
#Data_Collector Niege Furtado
#Scan -1
#Precursor_MZ 407.17
#ExactMass 406.163
#Charge 1
#CAS_Number  
#Pubmed_ID  
#Smiles OC1=C(O[C@H]2O[C@H](CO)C(O)[C@H](O)[C@H]2O)C3=CC=CC=C3C4=C1CCC(C)(C)O4
#INCHI_AUX  
#Library_Class 3
#SpectrumID CCMSLIB00000081259
#IonMode Positive
#UpdateWorkflowName UPDATE-SINGLE-ANNOTATED-BRONZE
#LibraryQualityString Bronze
#TaskID 885d84ad5ea143dc82549d661a9585ca
##Scan# 1
#SpectrumFile gnps_2R_3R_4S_6R_2_5_hydroxy_2_2_dimethyl_3_4_dihydro_2H_benzo_h_chromen_6_yl_oxy_6_hydroxymethyl_tetrahydro_2H_pyran_3_4_5_triol_pos_MplusH.mgf
#LibraryName gnps_library.mgf
#MQScore -1
#Organism gnps_library
#TIC_Query 0
#RT_Query -1
#MZErrorPPM -1
#SharedPeaks 0
#MassDiff 0
#LibMZ -1
#SpecMZ 407.17
#SpecCharge 0
#internalFilename spec-00000.mgf

>collision 10
127.036919 486.0
141.066254 1854.0
143.047256 2465.0
145.047714 546.0
157.060974 1002.0
181.099182 2040.0
185.092773 453.0
188.045868 5752.0
189.051773 2883.0
199.110107 30588.0
200.113358 4500.0
209.094269 2531.0
227.104599 55665.0
228.108185 9097.0
229.111664 890.0
244.107574 16113.0
245.115662 31608.0
