>compound Captopril (Capoten)
>formula C9H15NO3S
>ionization [M+H]+
>parentmass 218.083252
#inchi InChI=1S/C9H15NO3S/c1-6(5-14)8(11)10-4-2-3-7(10)9(12)13/h6-7,14H,2-5H2,1H3,(H,12,13)/t6-,7-/m1/s1
#inchikey FAKRSMQSSFJEIM
#Ion_Source LC-ESI
#Instrument qTof
#Compound_Source Commercial
#PI Dorrestein
#Data_Collector Garg_Neha
#Scan -1
#Precursor_MZ 218.085
#ExactMass 217.077
#Charge 1
#CAS_Number 62571-86-2, 198342-23-3 (HCl)
#Pubmed_ID N/A
#Smiles C([C@@H]1N(CCC1)C([C@@H](CS)C)=O)(=O)O
#INCHI_AUX N/A
#Library_Class 1
#SpectrumID CCMSLIB00000078408
#IonMode Positive
#UpdateWorkflowName UPDATE-SINGLE-ANNOTATED-GOLD
#LibraryQualityString Gold
#TaskID 77f51c88eb8b467eb4a01dd2d0cb90d2
##Scan# 1034
#SpectrumFile Plate6_41_60_GD9_01_15776.mzXML
#LibraryName FDALibrary_2_04302014.mgf
#MQScore -1
#Organism FDALibrary_2_04302014
#TIC_Query 0
#RT_Query -1
#MZErrorPPM -1
#SharedPeaks 0
#MassDiff 0
#LibMZ -1
#SpecMZ 218.085
#SpecCharge 0
#internalFilename spec-00000.mgf

>collision 10
44.925777 168.0
46.674122 164.0
48.508503 184.0
55.293056 144.0
67.10199 176.0
75.023468 156.0
87.405403 144.0
92.691437 176.0
96.069374 228.0
96.243073 148.0
99.466072 188.0
103.249153 200.0
104.242531 160.0
109.570175 256.0
116.010361 176.0
116.070168 4744.0
117.074043 608.0
138.834717 160.0
146.922943 184.0
149.671524 168.0
158.698837 164.0
171.089996 164.0
172.03096 136.0
172.077454 3940.0
172.16951 196.0
173.080246 296.0
174.031387 152.0
200.074722 280.0
201.076324 128.0
213.485046 232.0
215.97583 184.0
217.100967 292.0
217.843124 204.0
218.083252 5708.0
219.089157 408.0
220.076157 388.0
221.080627 164.0
223.716415 164.0
1570.838623 160.0
1795.914062 168.0
1857.141113 160.0
1980.653931 224.0
1994.576538 140.0
