>compound MLS000736760-01!
>formula C18H16N2O
>ionization [M+H]+
>parentmass 277.135101
#inchi InChI=1S/C18H16N2O/c1-10-15-9-19-7-6-13(15)11(2)18-17(10)14-8-12(21-3)4-5-16(14)20-18/h4-9,20H,1-3H3
#inchikey BKRMCDAOAQWNTG
#Ion_Source LC-ESI
#Instrument qTof
#Compound_Source NIH Natural Product Library
#PI Dorrestein
#Data_Collector VVP/LMS
#Scan -1
#Precursor_MZ 277.134
#ExactMass 276.126
#Charge 1
#CAS_Number N/A
#Pubmed_ID N/A
#Smiles COc1ccc2[nH]c3c(C)c4ccncc4c(C)c3c2c1
#INCHI_AUX N/A
#Library_Class 1
#SpectrumID CCMSLIB00000080289
#IonMode Positive
#UpdateWorkflowName UPDATE-SINGLE-ANNOTATED-GOLD
#LibraryQualityString Gold
#TaskID b1d8e8f6646f4e71acdff9ca3d919d08
##Scan# 1657
#SpectrumFile p2-G06_GG6_01_18054.mzXML
#LibraryName NIH_Natural_Products_Library.mgf
#MQScore -1
#Organism NIH_Natural_Products_Library
#TIC_Query 0
#RT_Query -1
#MZErrorPPM -1
#SharedPeaks 0
#MassDiff 0
#LibMZ -1
#SpecMZ 277.134
#SpecCharge 0
#internalFilename spec-00000.mgf

>collision 10
94.962051 180.0
94.989204 156.0
95.033829 136.0
95.105629 148.0
95.138634 152.0
95.152222 148.0
95.175522 120.0
95.195824 172.0
95.226013 140.0
95.278465 112.0
95.322044 84.0
95.343506 220.0
95.382072 140.0
95.395958 140.0
95.416328 128.0
95.548698 216.0
95.624596 176.0
95.670746 248.0
95.692726 168.0
95.735565 156.0
95.778412 128.0
95.802048 152.0
95.843933 140.0
95.892082 224.0
95.906662 176.0
95.988121 200.0
96.029854 180.0
96.052879 148.0
96.091087 340.0
96.156677 180.0
96.199615 188.0
96.248428 164.0
96.295555 152.0
96.361717 168.0
96.403847 128.0
96.412415 72.0
96.421158 124.0
96.490707 128.0
96.634995 104.0
96.639946 80.0
96.645958 128.0
96.664795 188.0
96.687805 132.0
96.722641 164.0
96.763107 140.0
96.813454 128.0
96.859474 212.0
96.889961 176.0
96.909378 172.0
96.946785 164.0
96.978432 192.0
97.011467 68.0
97.025192 152.0
97.038918 152.0
97.078133 140.0
97.099709 120.0
97.195831 144.0
97.280479 156.0
97.317421 200.0
97.331589 176.0
97.366623 192.0
97.3843 116.0
97.415726 156.0
97.441246 164.0
97.476929 136.0
97.494324 104.0
97.544785 196.0
97.567879 164.0
97.584747 164.0
97.60244 132.0
97.665375 212.0
97.689575 172.0
97.748009 160.0
97.777527 132.0
97.798172 140.0
97.927902 172.0
97.946808 180.0
98.025665 124.0
98.050697 216.0
98.118301 164.0
98.171539 88.0
98.2117 244.0
98.377747 244.0
98.39254 260.0
98.418205 68.0
98.456841 184.0
98.489304 164.0
98.556473 112.0
98.625641 104.0
98.651337 104.0
98.679016 176.0
98.70472 200.0
98.722519 136.0
98.797684 104.0
98.81456 196.0
98.835274 320.0
98.900581 140.0
98.921753 320.0
98.928902 208.0
98.959969 64.0
98.993637 224.0
99.049088 196.0
99.142212 232.0
99.158066 116.0
99.186089 176.0
99.206139 160.0
99.2313 140.0
99.265121 196.0
99.315269 168.0
99.346924 164.0
99.368263 188.0
99.394684 140.0
99.457565 120.0
99.538971 80.0
99.566643 124.0
99.606491 100.0
99.640266 124.0
99.70356 192.0
99.788147 148.0
99.872856 88.0
99.916618 168.0
99.930542 456.0
100.002182 176.0
100.026611 180.0
100.261101 156.0
100.27581 164.0
100.295319 120.0
100.323036 164.0
100.341766 160.0
100.374733 144.0
100.462486 152.0
100.516357 128.0
100.535446 248.0
100.591576 140.0
100.612167 196.0
100.636124 172.0
100.678055 104.0
100.746292 124.0
100.773941 136.0
100.795364 200.0
100.843887 200.0
100.875443 152.0
100.892357 160.0
100.907852 528.0
100.957848 128.0
100.973846 100.0
100.994537 184.0
101.036697 232.0
101.065865 92.0
101.1259 160.0
101.205063 236.0
101.222 212.0
101.26989 184.0
101.285347 108.0
101.338173 132.0
101.386269 180.0
101.426353 108.0
101.460434 188.0
101.548866 200.0
101.580757 136.0
101.606834 220.0
101.671638 296.0
101.691116 92.0
101.709732 132.0
101.747528 160.0
101.781372 192.0
101.861794 116.0
101.940147 84.0
101.978882 220.0
101.996429 204.0
102.018494 176.0
102.036629 260.0
102.157295 60.0
102.19754 116.0
102.213631 208.0
102.235771 156.0
102.293701 128.0
102.346489 292.0
102.372665 140.0
102.396828 112.0
102.437119 120.0
102.462791 188.0
102.511665 124.0
102.533836 208.0
102.610435 116.0
102.67395 192.0
102.731438 168.0
102.781876 320.0
102.849205 156.0
102.911057 204.0
102.931435 180.0
102.949425 120.0
102.9646 172.0
103.056488 152.0
103.084778 228.0
103.115089 108.0
103.141365 348.0
103.161583 180.0
103.184235 156.0
103.226624 164.0
103.301117 68.0
103.316734 372.0
103.364616 176.0
103.381966 132.0
103.438721 104.0
103.487312 176.0
103.535912 228.0
103.687859 148.0
103.786369 152.0
103.815582 116.0
103.852303 188.0
103.86116 152.0
103.87117 108.0
103.879364 196.0
103.917 184.0
103.937294 172.0
103.979912 68.0
104.00782 160.0
104.016312 120.0
104.020935 152.0
104.120865 168.0
104.1464 132.0
104.197189 220.0
104.215469 156.0
104.242958 160.0
104.260178 64.0
104.304306 196.0
104.323189 160.0
104.379761 160.0
104.430962 180.0
104.463158 208.0
104.491989 192.0
104.628349 232.0
104.664185 140.0
104.740356 132.0
104.809624 180.0
104.830002 168.0
104.868721 156.0
104.929878 144.0
104.970657 180.0
105.02404 136.0
105.066154 176.0
105.125694 72.0
105.178757 140.0
105.244087 168.0
105.272675 144.0
105.354378 168.0
105.389114 76.0
105.403412 96.0
105.423851 148.0
105.497437 124.0
105.55468 92.0
105.579224 232.0
105.607857 148.0
105.672089 224.0
105.68969 208.0
105.752281 164.0
105.77478 164.0
105.829491 120.0
105.861633 80.0
105.875969 156.0
105.912842 160.0
105.947609 148.0
105.990387 152.0
106.05217 164.0
106.099319 40.0
106.230568 92.0
106.306488 92.0
106.331116 164.0
106.357796 156.0
106.398849 156.0
106.497421 136.0
106.571381 164.0
106.608368 176.0
106.641502 128.0
106.680305 160.0
106.694695 164.0
106.724602 132.0
106.746101 196.0
106.768723 164.0
106.789284 120.0
106.819969 188.0
106.838402 128.0
106.885979 380.0
106.95433 172.0
106.984772 152.0
107.001244 164.0
107.028008 116.0
107.047508 188.0
107.082161 136.0
107.10009 152.0
107.244324 228.0
107.266998 32.0
107.29586 180.0
107.311378 144.0
107.360016 176.0
107.403091 152.0
107.460854 56.0
107.500061 164.0
107.538605 136.0
107.561104 104.0
107.595802 220.0
107.636307 112.0
107.685867 252.0
107.717407 224.0
107.772636 176.0
107.810509 288.0
107.907791 276.0
107.944199 176.0
108.017235 128.0
108.050659 128.0
108.09935 168.0
108.124184 88.0
108.140739 152.0
108.180069 180.0
108.24939 112.0
108.281532 136.0
108.32296 28.0
108.341599 156.0
108.361626 136.0
108.39962 172.0
108.438095 92.0
108.465942 84.0
108.482521 196.0
108.503258 120.0
108.538506 164.0
108.563385 148.0
108.606941 132.0
108.62561 112.0
108.64843 140.0
108.6819 120.0
108.730186 200.0
108.762566 176.0
108.790649 384.0
108.82692 192.0
108.884384 180.0
108.936996 64.0
108.984779 176.0
109.022186 124.0
109.040886 180.0
109.057518 136.0
109.101166 100.0
109.142754 224.0
109.15731 112.0
109.200981 172.0
109.225945 152.0
109.28727 148.0
109.315407 120.0
109.333412 92.0
109.399574 64.0
109.432541 160.0
109.459038 72.0
109.498611 120.0
109.576805 200.0
109.61116 168.0
109.67363 196.0
109.702812 148.0
109.745949 196.0
109.765266 176.0
109.782043 244.0
109.852959 96.0
109.869652 172.0
109.901398 204.0
109.946945 180.0
110.009476 100.0
110.132675 264.0
110.154106 376.0
110.167664 192.0
110.174843 172.0
110.216011 144.0
110.237137 160.0
110.285439 144.0
110.306183 112.0
110.329102 120.0
110.356285 108.0
110.373009 96.0
110.393921 48.0
110.467911 156.0
110.516617 128.0
110.598961 40.0
110.613609 100.0
110.638733 168.0
110.653389 208.0
110.668045 160.0
110.68689 40.0
110.703644 164.0
110.763611 164.0
110.788132 196.0
110.825958 204.0
110.841896 128.0
110.867043 216.0
110.908966 116.0
110.940407 168.0
110.98024 68.0
111.04525 152.0
111.059937 136.0
111.172699 200.0
111.19841 208.0
111.2257 80.0
111.240395 148.0
111.258041 168.0
111.311775 72.0
111.348587 152.0
111.378983 108.0
111.420998 120.0
111.448311 184.0
111.46302 176.0
111.51136 160.0
111.620682 64.0
111.663879 240.0
111.706909 320.0
111.765823 72.0
111.805801 108.0
111.8479 128.0
111.864738 204.0
111.902634 124.0
111.944008 216.0
112.018463 68.0
112.037422 104.0
112.071136 144.0
112.090584 244.0
112.149109 84.0
112.163864 160.0
112.189163 180.0
112.248199 172.0
112.267174 200.0
112.2967 40.0
112.322136 68.0
112.378014 192.0
112.402184 192.0
112.435951 48.0
112.462685 224.0
112.534798 208.0
112.556282 208.0
112.647202 168.0
112.680901 148.0
112.729294 168.0
112.784019 392.0
112.818169 164.0
112.888046 124.0
112.976883 148.0
113.004387 108.0
113.034828 176.0
113.140717 144.0
113.246857 144.0
113.277489 132.0
113.324203 164.0
113.358002 144.0
113.396149 172.0
113.436424 132.0
113.45974 292.0
113.474586 104.0
113.506432 208.0
113.548805 160.0
113.589104 72.0
113.627121 152.0
113.664688 172.0
113.752502 156.0
113.848518 216.0
113.894768 176.0
113.920265 48.0
113.972054 148.0
114.052971 212.0
114.075394 48.0
114.094528 72.0
114.132797 48.0
114.160439 60.0
114.198456 168.0
114.2285 148.0
114.243393 232.0
114.264023 184.0
114.272247 128.0
114.294456 52.0
114.334892 100.0
114.351913 216.0
114.377457 212.0
114.398918 132.0
114.423584 156.0
114.445587 156.0
114.556335 132.0
114.571243 208.0
114.620079 148.0
114.641556 204.0
114.684189 124.0
114.744942 164.0
114.850357 176.0
114.886765 228.0
114.927299 116.0
114.991325 144.0
115.025475 192.0
115.043861 196.0
115.120445 152.0
115.168541 272.0
115.199623 312.0
115.25827 68.0
115.315971 68.0
115.350166 184.0
115.367271 220.0
115.397202 236.0
115.519104 128.0
115.544777 176.0
115.641075 180.0
115.717049 204.0
115.739548 192.0
115.75531 188.0
115.775955 244.0
115.795227 44.0
115.859489 160.0
115.955597 108.0
115.98378 224.0
116.054527 176.0
116.104836 96.0
116.136024 220.0
116.157471 152.0
116.185364 96.0
116.20327 184.0
116.284065 84.0
116.324852 108.0
116.34417 140.0
116.374229 68.0
116.406204 144.0
116.413551 128.0
116.422127 184.0
116.45211 136.0
116.498795 180.0
116.567551 156.0
116.60994 144.0
116.631668 192.0
116.694374 164.0
116.780388 136.0
116.842773 132.0
116.877197 160.0
116.941757 232.0
116.961136 216.0
116.976204 160.0
117.025719 140.0
117.079552 112.0
117.150635 92.0
117.223892 96.0
117.246933 244.0
117.323036 92.0
117.380585 168.0
117.479271 192.0
117.540878 136.0
117.566521 168.0
117.60778 208.0
117.639908 172.0
117.71357 164.0
117.769722 132.0
117.821571 172.0
117.91777 208.0
117.992302 224.0
118.022575 44.0
118.169655 72.0
118.208603 44.0
118.265411 144.0
118.281441 104.0
118.300629 172.0
118.377457 224.0
118.433762 144.0
118.528717 188.0
118.558617 204.0
118.572433 312.0
118.609276 108.0
118.630959 180.0
118.667557 172.0
118.691666 84.0
118.717682 144.0
118.769646 184.0
118.841331 116.0
118.87233 140.0
118.918694 200.0
119.025833 200.0
119.043205 96.0
119.094543 188.0
119.183716 152.0
119.210472 120.0
119.264381 164.0
119.302902 128.0
119.338722 196.0
119.358292 96.0
119.375687 112.0
119.393089 140.0
119.532318 40.0
119.554077 204.0
119.606316 240.0
119.647675 104.0
119.680336 104.0
119.706459 152.0
119.743484 72.0
119.774521 176.0
119.793587 212.0
119.810303 184.0
119.83062 140.0
119.848732 192.0
119.874199 140.0
119.919205 228.0
120.048599 164.0
120.125374 160.0
120.166954 236.0
120.183838 96.0
120.200317 192.0
120.238396 132.0
120.2686 124.0
120.303879 164.0
120.336098 148.0
120.379257 192.0
120.423134 196.0
120.461113 92.0
120.520103 388.0
120.57692 140.0
120.609703 216.0
120.651237 144.0
120.668732 136.0
120.729195 288.0
120.741806 124.0
120.788467 176.0
120.815262 180.0
120.861206 172.0
120.920113 220.0
120.99472 128.0
121.011261 144.0
121.040703 72.0
121.088882 128.0
121.109375 216.0
121.128304 204.0
121.226013 208.0
121.281059 180.0
121.329918 164.0
121.362808 100.0
121.463013 156.0
121.490013 152.0
121.522781 60.0
121.596115 300.0
121.655937 204.0
121.702087 192.0
121.727058 144.0
121.772301 208.0
121.788559 192.0
121.832489 152.0
121.860695 172.0
121.891815 216.0
121.913788 120.0
121.933571 92.0
121.972397 60.0
121.992912 160.0
122.072067 104.0
122.149048 148.0
122.224182 160.0
122.291672 144.0
122.320686 336.0
122.338303 136.0
122.426376 132.0
122.479233 120.0
122.507874 260.0
122.523293 248.0
122.556137 172.0
122.60762 148.0
122.642288 128.0
122.726059 76.0
122.750397 176.0
123.207207 120.0
123.246468 156.0
123.283409 280.0
123.315376 160.0
123.321236 100.0
123.331253 120.0
123.374107 116.0
123.457092 160.0
123.474678 164.0
123.502357 64.0
123.529465 120.0
123.583069 88.0
123.609619 152.0
123.659157 168.0
123.691391 144.0
123.741669 200.0
123.842079 236.0
123.983879 52.0
123.99939 128.0
124.056084 184.0
124.116287 104.0
124.223343 60.0
124.252182 140.0
124.298782 160.0
124.332069 36.0
124.349823 80.0
124.424416 208.0
124.476364 44.0
124.567429 196.0
124.594086 52.0
124.638519 64.0
124.783676 144.0
124.835754 132.0
124.839478 220.0
124.891968 140.0
124.938683 200.0
124.96315 112.0
124.986832 156.0
125.013336 116.0
125.033264 164.0
125.098038 308.0
125.139565 132.0
125.17907 128.0
125.22361 164.0
125.241425 132.0
125.301575 224.0
125.328308 132.0
125.352821 120.0
125.412994 172.0
125.464264 180.0
125.502167 180.0
125.558296 188.0
125.658302 68.0
125.690147 132.0
125.752022 180.0
125.784439 192.0
125.801132 388.0
125.834618 152.0
125.87928 120.0
125.926178 120.0
125.984253 224.0
126.004364 228.0
126.021561 172.0
126.056953 172.0
126.112488 168.0
126.173149 192.0
126.208961 160.0
126.232353 228.0
126.248009 144.0
126.281555 148.0
126.295807 140.0
126.312172 160.0
126.339714 160.0
126.38446 40.0
126.429214 136.0
126.449356 188.0
126.499542 280.0
126.5252 168.0
126.565765 144.0
126.662071 112.0
126.742722 108.0
126.805473 184.0
126.857025 308.0
126.951195 136.0
126.973625 160.0
127.001099 224.0
127.022575 144.0
127.053749 172.0
127.11496 144.0
127.174355 396.0
127.183846 184.0
127.192299 340.0
127.222694 136.0
127.267601 120.0
127.296791 164.0
127.402351 180.0
127.456276 232.0
127.483246 152.0
127.541679 144.0
127.570709 184.0
127.57695 168.0
127.611366 172.0
127.629356 128.0
127.660217 144.0
127.666893 104.0
127.782425 148.0
127.822807 48.0
127.960106 112.0
128.025406 92.0
128.090729 152.0
128.156067 64.0
128.171158 132.0
128.230423 196.0
128.280014 136.0
128.311584 156.0
128.334122 224.0
128.376678 152.0
128.398056 160.0
128.415314 104.0
128.449142 164.0
128.476212 132.0
128.510056 164.0
128.546158 264.0
128.571198 156.0
128.60936 352.0
128.661835 112.0
128.698395 164.0
128.717712 152.0
128.74707 112.0
128.769669 196.0
128.806534 220.0
128.869064 116.0
128.911987 164.0
128.958191 188.0
128.997879 156.0
129.013702 200.0
129.038574 180.0
129.056091 208.0
129.089142 176.0
129.13121 180.0
129.205933 56.0
129.22403 136.0
129.269287 160.0
129.345688 164.0
129.389252 120.0
129.413177 184.0
129.432999 172.0
129.460327 160.0
129.550049 156.0
129.57431 68.0
129.614044 148.0
129.785767 180.0
129.846985 144.0
129.933182 96.0
129.95134 188.0
129.989914 192.0
130.037567 212.0
130.07074 156.0
130.107941 124.0
130.144272 148.0
130.165527 220.0
130.19603 196.0
130.239655 68.0
130.289841 128.0
130.321091 108.0
130.33847 184.0
130.361877 200.0
130.423706 100.0
130.456345 304.0
130.521454 136.0
130.562393 164.0
130.631989 168.0
130.659393 136.0
130.726715 172.0
130.748947 164.0
130.764877 148.0
130.795837 192.0
130.811111 168.0
130.853653 84.0
130.877167 236.0
130.928802 80.0
131.035858 136.0
131.079666 224.0
131.201614 172.0
131.293442 196.0
131.377838 124.0
131.431015 156.0
131.481171 204.0
131.49649 116.0
131.528458 300.0
131.574112 260.0
131.601074 164.0
131.635757 256.0
131.665451 168.0
131.686005 236.0
131.720139 148.0
131.750565 168.0
131.781952 228.0
131.820786 52.0
131.839081 124.0
131.859161 96.0
131.88707 132.0
131.928223 200.0
131.972778 108.0
132.019684 124.0
132.060852 288.0
132.093781 160.0
132.154236 156.0
132.171387 256.0
132.198822 144.0
132.225983 208.0
132.335464 132.0
132.380096 120.0
132.409332 184.0
132.485992 180.0
132.502655 232.0
132.531021 236.0
132.55307 132.0
132.571396 224.0
132.634811 84.0
132.735901 200.0
132.754791 160.0
132.793167 196.0
132.835068 188.0
132.85347 172.0
132.899307 104.0
132.919952 52.0
132.963608 200.0
132.985184 180.0
133.091705 176.0
133.108734 188.0
133.1633 92.0
133.182587 256.0
133.223038 140.0
133.280472 148.0
133.296555 144.0
133.323853 100.0
133.360901 184.0
133.402283 220.0
133.443665 212.0
133.493652 156.0
133.523575 128.0
133.549454 92.0
133.572449 196.0
133.603165 132.0
133.632263 152.0
133.666214 172.0
133.682892 172.0
133.722015 220.0
133.772644 272.0
133.788773 156.0
133.843277 220.0
133.921234 220.0
133.945358 100.0
133.970703 160.0
134.014481 140.0
134.030609 112.0
134.058258 144.0
134.111267 108.0
134.205078 164.0
134.443512 212.0
134.477997 128.0
134.534073 192.0
134.556488 140.0
134.574951 92.0
134.637299 216.0
134.655777 64.0
134.729065 160.0
134.804443 208.0
134.824432 172.0
134.919205 180.0
134.942856 228.0
135.014008 112.0
135.090347 144.0
135.106537 212.0
135.130859 348.0
135.29631 216.0
135.326401 212.0
135.391235 204.0
135.451462 180.0
135.504745 148.0
135.545715 200.0
135.620621 44.0
135.662338 192.0
135.683212 120.0
135.815384 184.0
135.996368 192.0
136.021912 128.0
136.103821 156.0
136.131027 160.0
136.230896 144.0
136.265747 132.0
136.295959 164.0
136.342438 112.0
136.374969 136.0
136.502838 140.0
136.540054 172.0
136.591217 164.0
136.614487 104.0
136.645981 156.0
136.696396 192.0
136.737808 100.0
136.791336 120.0
136.812286 40.0
136.868179 128.0
136.884476 184.0
136.903107 172.0
136.921738 184.0
136.941299 160.0
136.9823 136.0
137.038208 72.0
137.070068 136.0
137.112778 200.0
137.170242 128.0
137.190887 172.0
137.229324 172.0
137.257309 116.0
137.295807 304.0
137.359924 132.0
137.427582 52.0
137.525604 68.0
137.558273 152.0
137.6073 112.0
137.637665 144.0
137.700714 140.0
137.768448 64.0
137.789474 148.0
137.808075 180.0
137.85257 172.0
138.08989 196.0
138.123779 152.0
138.163544 156.0
138.205383 168.0
138.261826 28.0
138.278214 156.0
138.296936 156.0
138.317993 160.0
138.360138 140.0
138.410797 296.0
138.438751 188.0
138.488937 192.0
138.505325 108.0
138.533707 244.0
138.561554 196.0
138.669342 132.0
138.695129 152.0
138.73819 124.0
138.847534 48.0
138.863953 180.0
138.882706 168.0
138.899124 72.0
138.948395 92.0
138.995316 176.0
139.021851 156.0
139.053284 172.0
139.113556 128.0
139.161972 212.0
139.190155 140.0
139.225494 160.0
139.274704 36.0
139.372116 184.0
139.406265 176.0
139.457977 184.0
139.679001 128.0
139.739075 180.0
139.770752 224.0
139.798996 148.0
139.820175 148.0
139.855484 164.0
139.879028 124.0
139.99762 152.0
140.054138 300.0
140.141953 180.0
140.175781 68.0
140.194641 220.0
140.262985 140.0
140.351395 184.0
140.4021 204.0
140.469116 280.0
140.496445 172.0
140.58847 228.0
140.626236 116.0
140.689972 116.0
140.718292 124.0
140.779694 180.0
140.817474 76.0
140.86322 384.0
140.913559 160.0
140.939178 136.0
141.002182 136.0
141.051407 148.0
141.076752 160.0
141.136505 192.0
141.190903 68.0
141.254761 156.0
141.280777 200.0
141.327286 184.0
141.368332 100.0
141.418137 192.0
141.472473 136.0
141.512726 124.0
141.534912 208.0
141.571198 224.0
141.578659 76.0
141.597977 192.0
141.65155 216.0
141.687988 164.0
141.72403 132.0
141.761444 164.0
141.820694 116.0
141.883362 436.0
141.913147 364.0
142.062561 160.0
142.079163 120.0
142.128998 136.0
142.163422 120.0
142.20018 164.0
142.221542 132.0
142.2686 204.0
142.409134 188.0
142.442383 112.0
142.516037 36.0
142.558807 240.0
142.599197 92.0
142.649124 56.0
142.680283 148.0
142.718063 276.0
142.758499 136.0
142.784653 200.0
142.889313 124.0
142.910736 112.0
142.960709 132.0
143.029724 124.0
143.075272 152.0
143.125961 124.0
143.158295 80.0
143.183273 276.0
143.226242 228.0
143.247177 112.0
143.270233 180.0
143.317886 128.0
143.365799 152.0
143.432281 148.0
143.501526 176.0
143.543167 156.0
143.611633 436.0
143.64212 128.0
143.663605 148.0
143.69223 220.0
143.79007 176.0
143.842575 232.0
143.880768 136.0
143.909424 128.0
143.945236 112.0
143.96434 128.0
143.997772 152.0
144.021423 164.0
144.129578 140.0
144.155457 236.0
144.186523 184.0
144.239105 72.0
144.285126 80.0
144.356262 128.0
144.41127 72.0
144.461502 168.0
144.487808 152.0
144.504562 84.0
144.555832 196.0
144.588318 156.0
144.613251 156.0
144.633789 140.0
144.655334 200.0
144.674408 128.0
144.722366 80.0
144.83493 196.0
144.87326 240.0
144.89003 148.0
144.914459 164.0
144.993057 144.0
145.043625 164.0
145.062576 160.0
145.098404 144.0
145.117722 252.0
145.151627 176.0
145.201416 164.0
145.209885 148.0
145.25441 104.0
145.445786 176.0
145.495865 228.0
145.523209 164.0
145.550385 144.0
145.692139 176.0
145.71991 160.0
145.794647 172.0
145.821075 188.0
145.88118 44.0
145.900406 136.0
145.967728 184.0
145.985764 152.0
146.042282 216.0
146.063934 116.0
146.130966 120.0
146.220322 148.0
146.246811 168.0
146.297348 196.0
146.367172 100.0
146.456284 132.0
146.497238 64.0
146.569519 140.0
146.620117 116.0
146.704483 200.0
146.786469 100.0
146.809509 244.0
146.842407 60.0
146.90567 152.0
146.965363 144.0
146.98378 100.0
147.10939 128.0
147.18988 156.0
147.259476 196.0
147.28363 108.0
147.312622 184.0
147.344025 196.0
147.370605 164.0
147.411682 152.0
147.552124 232.0
147.588135 128.0
147.677628 176.0
147.721161 160.0
147.747772 240.0
147.779144 128.0
147.813095 120.0
147.876022 88.0
147.907486 172.0
148.067902 208.0
148.111145 148.0
148.172623 148.0
148.193253 168.0
148.222336 136.0
148.29361 196.0
148.380859 188.0
148.423523 320.0
148.457474 160.0
148.484146 124.0
148.510834 116.0
148.544785 124.0
148.573456 176.0
148.595734 124.0
148.652786 144.0
148.675812 176.0
148.772903 204.0
148.792328 200.0
148.835281 176.0
148.88945 156.0
148.923462 292.0
148.998764 116.0
149.043945 128.0
149.081375 52.0
149.112976 160.0
149.198044 160.0
149.215073 124.0
149.27829 124.0
149.319626 88.0
149.354065 200.0
149.411377 156.0
149.415237 316.0
149.460724 152.0
149.517548 308.0
149.534958 184.0
149.58728 204.0
149.626236 260.0
149.686035 292.0
149.716324 152.0
149.811951 160.0
149.843399 168.0
149.889297 312.0
149.911224 164.0
149.930725 144.0
149.979462 128.0
150.009262 160.0
150.04982 176.0
150.056122 152.0
150.157455 180.0
150.201355 168.0
150.242828 132.0
150.317093 244.0
150.392319 168.0
150.42424 172.0
150.452713 64.0
150.469803 132.0
150.4991 152.0
150.525955 96.0
150.562592 196.0
150.599228 300.0
150.653076 184.0
150.684723 132.0
150.760544 144.0
150.806915 176.0
150.899811 152.0
151.060364 172.0
151.108978 320.0
151.151749 56.0
151.236389 236.0
151.276566 128.0
151.323074 152.0
151.356293 220.0
151.443069 156.0
151.470016 52.0
151.49942 192.0
151.585663 160.0
151.624786 144.0
151.668503 300.0
151.732544 196.0
151.773926 184.0
151.818054 212.0
151.849945 124.0
151.878571 184.0
151.938431 164.0
152.002045 204.0
152.05159 212.0
152.091919 180.0
152.122314 156.0
152.186142 304.0
152.218063 212.0
152.242615 136.0
152.264725 152.0
152.313431 120.0
152.335953 64.0
152.375229 188.0
152.412125 140.0
152.439148 44.0
152.4711 60.0
152.542374 72.0
152.606293 52.0
152.683228 140.0
152.709717 140.0
152.736633 160.0
152.75827 176.0
152.812897 108.0
152.933487 148.0
152.952698 184.0
153.003586 180.0
153.063995 188.0
153.110977 232.0
153.145233 124.0
153.17366 104.0
153.206818 316.0
153.251175 228.0
153.302917 228.0
153.349747 172.0
153.40506 180.0
153.431091 144.0
153.473007 224.0
153.554382 164.0
153.587463 204.0
153.682663 140.0
153.722137 148.0
153.759888 136.0
153.818405 236.0
153.862839 128.0
153.88858 236.0
153.951721 104.0
154.057938 156.0
154.104874 160.0
154.128311 128.0
154.169128 224.0
154.2827 164.0
154.327332 160.0
154.347107 108.0
154.364426 148.0
154.394089 108.0
154.488083 92.0
154.549942 212.0
154.599426 156.0
154.662598 156.0
154.755249 160.0
154.79747 128.0
154.896545 116.0
154.928024 300.0
154.978302 248.0
155.047684 152.0
155.065033 116.0
155.107178 148.0
155.131958 144.0
155.149307 48.0
155.18898 124.0
155.218735 124.0
155.260895 152.0
155.297485 176.0
155.42157 224.0
155.464325 124.0
155.504028 176.0
155.660294 140.0
155.695267 152.0
155.752182 128.0
155.811951 128.0
155.856674 136.0
155.897659 144.0
155.96106 212.0
155.996887 168.0
156.074051 180.0
156.115204 172.0
156.179871 92.0
156.259399 132.0
156.269272 128.0
156.336609 128.0
156.378922 248.0
156.428696 192.0
156.464264 184.0
156.545715 220.0
156.56813 180.0
156.600464 176.0
156.65033 112.0
156.687698 104.0
156.738434 132.0
156.782394 92.0
156.807541 172.0
156.894562 36.0
156.926971 40.0
156.961868 56.0
156.991562 84.0
157.041687 152.0
157.073639 160.0
157.089218 140.0
157.144394 136.0
157.219955 160.0
157.263748 172.0
157.311172 172.0
157.411697 168.0
157.470978 56.0
157.670853 112.0
157.745834 240.0
157.821091 120.0
157.853348 236.0
157.898361 176.0
157.909164 176.0
157.938385 144.0
157.993423 156.0
158.02774 176.0
158.06192 212.0
158.098511 136.0
158.156067 88.0
158.186111 164.0
158.206131 120.0
158.28125 192.0
158.344818 180.0
158.371414 92.0
158.39566 164.0
158.421585 216.0
158.459091 120.0
158.489151 180.0
158.534256 156.0
158.571854 120.0
158.672119 140.0
158.742325 196.0
158.76239 84.0
158.782455 152.0
158.800018 156.0
158.857483 164.0
158.887817 128.0
159.055954 104.0
159.097534 212.0
159.115234 192.0
159.196548 168.0
159.234222 64.0
159.259918 120.0
159.314606 88.0
159.34726 56.0
159.371826 164.0
159.427673 208.0
159.475418 88.0
159.533234 124.0
159.565918 208.0
159.586029 108.0
159.72435 80.0
159.765411 160.0
159.792282 184.0
159.840088 56.0
159.880341 156.0
159.910553 128.0
159.955856 152.0
159.99649 144.0
160.024918 148.0
160.084259 140.0
160.137329 164.0
160.163406 284.0
160.202698 164.0
160.227829 184.0
160.27066 64.0
160.292404 312.0
160.394165 144.0
160.437012 164.0
160.464752 124.0
160.492477 136.0
160.545441 152.0
160.614044 100.0
160.669037 184.0
160.772491 176.0
160.80629 152.0
160.836197 212.0
160.863358 108.0
160.946671 120.0
160.98674 188.0
161.090622 212.0
161.161362 148.0
161.214432 160.0
161.262421 184.0
161.300369 88.0
161.366379 180.0
161.411606 132.0
161.434372 60.0
161.483017 188.0
161.537003 180.0
161.613968 180.0
161.677231 144.0
161.712662 192.0
161.73082 96.0
161.762665 212.0
161.849365 108.0
161.88736 140.0
161.970581 88.0
161.975601 76.0
161.984863 152.0
162.011459 160.0
162.087097 136.0
162.117889 112.0
162.150833 140.0
162.181244 76.0
162.201523 148.0
162.22319 204.0
162.254089 376.0
162.280121 152.0
162.297867 200.0
162.373947 192.0
162.4272 228.0
162.450241 152.0
162.534042 212.0
162.559143 188.0
162.579514 144.0
162.651733 136.0
162.688583 172.0
162.73175 160.0
162.749512 172.0
162.881577 380.0
162.902328 120.0
163.049515 172.0
163.102646 144.0
163.176102 112.0
163.208649 196.0
163.242477 72.0
163.275543 64.0
163.33165 196.0
163.488373 208.0
163.507065 104.0
163.548828 196.0
163.568146 164.0
163.599182 104.0
163.621613 156.0
163.687805 252.0
163.73053 176.0
163.812607 208.0
163.914047 172.0
163.956879 308.0
164.005524 48.0
164.036377 164.0
164.062347 132.0
164.118439 120.0
164.256165 160.0
164.284225 100.0
164.340347 160.0
164.38118 160.0
164.429672 72.0
164.460297 168.0
164.607971 180.0
164.616974 152.0
164.646683 128.0
164.677322 156.0
164.710526 140.0
164.743744 188.0
164.817825 388.0
164.835724 124.0
164.858719 184.0
164.884277 104.0
164.943054 180.0
164.968628 184.0
164.997269 156.0
165.01976 340.0
165.040207 120.0
165.072281 392.0
165.106705 116.0
165.165527 152.0
165.191101 136.0
165.242279 88.0
165.270416 260.0
165.349747 164.0
165.406052 172.0
165.470062 136.0
165.52623 188.0
165.673737 116.0
165.692871 204.0
165.733963 208.0
165.788361 152.0
165.846634 204.0
165.874832 200.0
165.905594 212.0
165.938919 152.0
165.980667 200.0
166.071198 220.0
166.105621 104.0
166.126144 160.0
166.167191 212.0
166.220993 136.0
166.269836 236.0
166.318588 140.0
166.362228 116.0
166.426422 40.0
166.459808 184.0
166.549698 132.0
166.574234 216.0
166.611984 188.0
166.719269 156.0
166.786087 96.0
166.840073 92.0
166.894058 208.0
167.007217 136.0
167.071686 448.0
167.108688 140.0
167.137207 124.0
167.169296 116.0
167.187317 64.0
167.231064 120.0
167.254242 108.0
167.300568 92.0
167.336609 128.0
167.374603 148.0
167.473099 132.0
167.573563 132.0
167.607071 96.0
167.674072 120.0
167.695129 92.0
167.764282 252.0
167.800385 144.0
167.826584 248.0
167.857864 188.0
167.903519 140.0
168.022186 164.0
168.070328 340.0
168.129028 244.0
168.150909 220.0
168.171036 128.0
168.205399 136.0
168.23941 164.0
168.300934 180.0
168.342239 132.0
168.445557 136.0
168.488678 180.0
168.556656 152.0
168.577332 120.0
168.654388 88.0
168.705612 316.0
168.709656 200.0
168.750519 80.0
168.771194 140.0
168.794464 68.0
168.900513 280.0
168.926376 76.0
168.947067 228.0
169.001404 100.0
169.022095 144.0
169.123825 104.0
169.207336 148.0
169.22496 172.0
169.256775 176.0
169.317505 144.0
169.335342 192.0
169.353485 132.0
169.38974 180.0
169.413055 176.0
169.480591 120.0
169.536972 160.0
169.602219 140.0
169.631943 204.0
169.659256 148.0
169.699478 232.0
169.748337 124.0
169.814835 168.0
169.838181 192.0
169.991592 212.0
170.048218 152.0
170.057144 144.0
170.075607 136.0
170.109802 148.0
170.136612 208.0
170.198914 180.0
170.234772 188.0
170.276825 76.0
170.313187 160.0
170.34436 136.0
170.443085 108.0
170.534546 144.0
170.560043 164.0
170.588852 144.0
170.635422 200.0
170.679626 116.0
170.721237 280.0
170.745132 128.0
170.783661 104.0
170.853897 160.0
170.877304 116.0
170.898117 140.0
170.937149 176.0
170.957977 152.0
171.059738 200.0
171.081009 152.0
171.119354 180.0
171.181854 124.0
171.210495 160.0
171.244141 144.0
171.325729 208.0
171.345947 156.0
171.377213 188.0
171.447571 108.0
171.489273 136.0
171.507523 56.0
171.558167 204.0
171.609192 224.0
171.643082 156.0
171.760452 148.0
171.823059 232.0
171.841324 80.0
171.883072 120.0
171.908188 160.0
171.991211 228.0
172.039673 108.0
172.138885 116.0
172.164993 148.0
172.181976 144.0
172.222458 148.0
172.264252 176.0
172.321732 152.0
172.447159 296.0
172.481827 216.0
172.536041 116.0
172.575882 184.0
172.617096 88.0
172.635406 144.0
172.673859 148.0
172.740021 200.0
172.8069 192.0
172.864044 120.0
172.956802 156.0
172.973434 164.0
172.993866 108.0
173.046219 120.0
173.081665 192.0
173.142776 136.0
173.188385 164.0
173.242233 208.0
173.281937 144.0
173.302902 36.0
173.355316 136.0
173.488983 116.0
173.529709 164.0
173.565018 116.0
173.633209 116.0
173.666306 168.0
173.725006 156.0
173.767792 168.0
173.82312 168.0
173.866699 232.0
173.903442 136.0
173.956375 240.0
174.003189 72.0
174.039948 220.0
174.121307 200.0
174.129807 188.0
174.226425 300.0
174.257965 96.0
174.278976 156.0
174.400558 168.0
174.423523 52.0
174.503189 136.0
174.560242 120.0
174.600159 252.0
174.641769 144.0
174.778564 128.0
174.801498 280.0
174.912796 248.0
174.962814 116.0
175.065506 160.0
175.083939 96.0
175.136765 208.0
175.160309 160.0
175.211502 124.0
175.247253 168.0
175.295776 232.0
175.315765 144.0
175.376389 88.0
175.400116 164.0
175.431747 188.0
175.492569 168.0
175.539841 152.0
175.621597 212.0
175.695465 176.0
175.727127 208.0
175.76947 168.0
175.79837 116.0
175.837891 152.0
175.84552 148.0
175.888107 176.0
175.988663 132.0
176.059998 164.0
176.081894 120.0
176.151382 148.0
176.23143 68.0
176.265778 108.0
176.289566 148.0
176.324615 152.0
176.355637 140.0
176.398193 160.0
176.415573 112.0
176.585663 176.0
176.659729 124.0
176.70015 100.0
176.750854 136.0
176.781433 208.0
176.799957 220.0
176.831268 156.0
176.889053 200.0
176.929657 188.0
176.961426 140.0
177.054108 124.0
177.16272 196.0
177.197159 256.0
177.307571 128.0
177.369415 144.0
177.478104 120.0
177.499313 116.0
177.528488 96.0
177.549713 172.0
177.588425 140.0
177.684982 156.0
177.711517 140.0
177.738052 196.0
177.775208 104.0
177.844208 188.0
177.907913 48.0
177.942505 148.0
177.979599 168.0
178.059265 148.0
178.129364 124.0
178.156021 180.0
178.271805 120.0
178.362167 92.0
178.398972 152.0
178.405289 128.0
178.463196 136.0
178.492447 200.0
178.510437 292.0
178.536499 212.0
178.559647 232.0
178.628082 96.0
178.675964 120.0
178.721207 192.0
178.761108 148.0
178.787735 124.0
178.822845 144.0
178.847687 220.0
178.872894 80.0
178.896866 48.0
178.934128 316.0
178.982056 152.0
179.029984 116.0
179.109894 128.0
179.163177 284.0
179.212662 152.0
179.26709 192.0
179.323059 256.0
179.360367 188.0
179.381699 144.0
179.408356 180.0
179.491013 100.0
179.57901 32.0
179.624359 212.0
179.650711 132.0
179.667419 168.0
179.679611 140.0
179.772934 152.0
179.83783 112.0
179.873657 180.0
179.893875 44.0
179.925919 148.0
179.973358 156.0
180.050583 204.0
180.080017 616.0
180.106491 116.0
180.134216 136.0
180.187653 88.0
180.214371 224.0
180.350662 196.0
180.37204 164.0
180.404114 168.0
180.430862 116.0
180.497696 460.0
180.610031 120.0
180.628754 44.0
180.659683 144.0
180.679169 208.0
180.759842 108.0
180.803696 208.0
180.842804 156.0
180.861542 52.0
180.911407 224.0
181.018311 128.0
181.055984 200.0
181.086624 1368.0
181.132294 148.0
181.176224 212.0
181.233795 220.0
181.26059 68.0
181.317627 184.0
181.34903 148.0
181.375839 100.0
181.413376 96.0
181.434814 124.0
181.469666 184.0
181.504532 212.0
181.522476 144.0
181.566208 108.0
181.590958 140.0
181.627243 184.0
181.65361 148.0
181.71106 164.0
181.759354 160.0
181.81839 152.0
181.872482 136.0
181.90036 148.0
181.921906 92.0
181.943527 104.0
181.987503 152.0
182.017044 196.0
182.049271 228.0
182.095596 2040.0
182.128281 152.0
182.210358 132.0
182.233337 88.0
182.253418 152.0
182.330475 160.0
182.411987 116.0
182.438873 160.0
182.511459 124.0
182.530289 208.0
182.570633 268.0
182.607498 96.0
182.686279 128.0
182.745468 188.0
182.810059 164.0
182.828888 192.0
182.920746 160.0
182.974243 128.0
183.000702 136.0
183.055023 172.0
183.098846 468.0
183.134293 176.0
183.178925 264.0
183.205856 200.0
183.225327 228.0
183.337891 164.0
183.405273 128.0
183.486145 112.0
183.529282 136.0
183.576965 176.0
183.612885 88.0
183.647934 204.0
183.712982 216.0
183.788223 216.0
183.854294 148.0
183.879974 148.0
183.91777 116.0
183.960953 200.0
184.00415 156.0
184.168869 140.0
184.217499 148.0
184.266129 140.0
184.303955 120.0
184.33017 108.0
184.401245 104.0
184.426743 148.0
184.46907 172.0
184.491882 200.0
184.552628 160.0
184.627487 188.0
184.671616 108.0
184.910538 132.0
184.97467 136.0
185.09877 284.0
185.145248 216.0
185.180466 236.0
185.229218 128.0
185.292404 148.0
185.332169 168.0
185.351135 104.0
185.464966 156.0
185.497482 100.0
185.543579 188.0
185.595093 208.0
185.687286 100.0
185.73761 188.0
185.763245 152.0
185.789551 160.0
185.814087 104.0
185.983032 140.0
186.020935 184.0
186.078049 140.0
186.099777 144.0
186.120422 152.0
186.317047 132.0
186.374054 272.0
186.406708 28.0
186.492599 100.0
186.553482 164.0
186.588821 136.0
186.613297 240.0
186.632324 36.0
186.656799 208.0
186.674454 128.0
186.741104 180.0
186.76355 48.0
186.800949 152.0
186.852646 84.0
186.885284 128.0
186.907059 120.0
186.931549 60.0
186.979294 132.0
187.015915 32.0
187.100296 168.0
187.195602 120.0
187.233734 56.0
187.263687 124.0
187.288193 176.0
187.32634 180.0
187.378098 108.0
187.429871 136.0
187.571594 224.0
187.590668 200.0
187.616974 136.0
187.657898 292.0
187.680756 200.0
187.721542 168.0
187.78154 44.0
187.80336 72.0
187.8367 36.0
187.871552 92.0
187.890656 112.0
187.926117 36.0
187.988876 208.0
188.039627 116.0
188.087143 92.0
188.12262 216.0
188.183456 156.0
188.201004 152.0
188.234573 48.0
188.270065 156.0
188.307419 332.0
188.389709 200.0
188.394485 160.0
188.425629 164.0
188.458557 128.0
188.529602 156.0
188.551041 184.0
188.584259 180.0
188.73735 144.0
188.764694 152.0
188.885529 200.0
188.975311 148.0
189.04718 168.0
189.072296 216.0
189.246506 152.0
189.279068 144.0
189.310822 188.0
189.429779 256.0
189.564041 192.0
189.67366 184.0
189.73056 212.0
189.755905 204.0
189.799423 152.0
189.84552 176.0
189.914963 292.0
190.032928 236.0
190.06778 148.0
190.099274 132.0
190.128967 108.0
190.23053 128.0
190.271698 92.0
190.298386 128.0
190.306229 208.0
190.337601 100.0
190.480408 364.0
190.513382 156.0
190.582062 368.0
190.615036 112.0
190.653519 124.0
190.686493 192.0
190.722229 96.0
190.826691 156.0
190.86438 152.0
190.903687 208.0
190.939438 72.0
190.958679 124.0
190.994446 148.0
191.012665 152.0
191.041199 136.0
191.074219 804.0
191.137497 108.0
191.16777 204.0
191.209183 180.0
191.235001 172.0
191.264099 168.0
191.321915 208.0
191.360458 276.0
191.37973 252.0
191.407257 160.0
191.45668 148.0
191.517426 64.0
191.558472 164.0
191.608337 108.0
191.646912 224.0
191.677216 156.0
191.751617 148.0
191.81778 236.0
191.853607 196.0
191.883942 48.0
191.919785 188.0
192.075928 500.0
192.114777 188.0
192.151474 180.0
192.220444 184.0
192.304169 148.0
192.394333 212.0
192.430893 216.0
192.452316 180.0
192.49649 36.0
192.524109 160.0
192.551727 88.0
192.595917 176.0
192.687088 168.0
192.795609 216.0
192.83078 104.0
192.854126 156.0
192.909927 132.0
192.996643 68.0
193.060059 120.0
193.086777 316.0
193.134918 296.0
193.228973 120.0
193.259415 96.0
193.320282 232.0
193.364563 372.0
193.391174 72.0
193.408859 256.0
193.451065 96.0
193.491898 128.0
193.591583 172.0
193.635895 168.0
193.694061 116.0
193.713455 420.0
193.752243 40.0
193.82428 108.0
193.863068 164.0
193.898834 168.0
193.962845 176.0
193.987793 224.0
194.051773 160.0
194.095978 2656.0
194.1819 68.0
194.202927 140.0
194.270462 164.0
194.306717 184.0
194.353897 112.0
194.384415 120.0
194.403839 148.0
194.444336 88.0
194.476578 168.0
194.512787 220.0
194.554321 168.0
194.614807 68.0
194.63942 148.0
194.731445 132.0
194.756439 168.0
194.823105 140.0
194.864777 104.0
194.939804 264.0
195.042633 56.0
195.096939 736.0
195.159409 128.0
195.206207 96.0
195.24408 204.0
195.284546 140.0
195.331833 240.0
195.366455 172.0
195.440338 184.0
195.626801 140.0
195.774368 192.0
195.844009 244.0
195.930359 120.0
196.002808 112.0
196.052963 152.0
196.125427 192.0
196.150513 136.0
196.197906 64.0
196.409836 128.0
196.5298 156.0
196.552124 184.0
196.619095 192.0
196.662567 244.0
196.719589 120.0
196.778214 128.0
196.809967 128.0
196.842438 56.0
196.948563 132.0
196.999847 188.0
197.079865 96.0
197.136627 140.0
197.177673 188.0
197.225189 136.0
197.250336 116.0
197.297867 116.0
197.442413 384.0
197.490814 156.0
197.515991 140.0
197.641891 148.0
197.720245 276.0
197.765015 140.0
197.857391 176.0
197.896591 168.0
197.92984 136.0
197.981369 176.0
198.017014 160.0
198.040955 188.0
198.078629 112.0
198.112244 184.0
198.143066 160.0
198.161896 164.0
198.196304 152.0
198.235535 120.0
198.347641 180.0
198.398102 276.0
198.524277 188.0
198.569153 216.0
198.613403 160.0
198.641769 268.0
198.653793 160.0
198.682632 176.0
198.759918 64.0
198.821655 148.0
198.866562 124.0
198.923553 156.0
198.942352 172.0
199.023758 56.0
199.150146 164.0
199.223175 52.0
199.259705 40.0
199.31308 144.0
199.363586 172.0
199.400192 236.0
199.419876 156.0
199.441086 176.0
199.557617 80.0
199.672913 128.0
199.734787 136.0
199.788239 140.0
199.816376 132.0
199.895157 212.0
199.960205 176.0
200.024628 228.0
200.057297 128.0
200.080933 188.0
200.162582 124.0
200.232986 144.0
200.268524 156.0
200.298065 112.0
200.342224 164.0
200.387924 208.0
200.424545 68.0
200.451187 204.0
200.486542 168.0
200.514725 168.0
200.568283 96.0
200.619019 124.0
200.661316 120.0
200.734619 112.0
200.847427 216.0
200.903854 164.0
200.971558 184.0
201.044937 144.0
201.104202 128.0
201.209991 96.0
201.324417 112.0
201.409149 164.0
201.433228 140.0
201.516495 196.0
201.541931 132.0
201.572479 148.0
201.62114 172.0
201.663452 200.0
201.692749 152.0
201.810455 200.0
201.923569 204.0
201.946198 188.0
202.066696 300.0
202.167709 256.0
202.265076 212.0
202.273422 148.0
202.36171 144.0
202.396164 224.0
202.430145 168.0
202.537766 48.0
202.577423 168.0
202.636917 96.0
202.659592 152.0
202.770096 132.0
202.834305 92.0
202.92601 152.0
202.965714 156.0
202.996674 152.0
203.051498 48.0
203.130203 76.0
203.152893 84.0
203.184479 228.0
203.294769 124.0
203.332489 192.0
203.360046 140.0
203.396942 204.0
203.532211 248.0
203.575806 108.0
203.598526 236.0
203.680893 168.0
203.705734 172.0
203.777481 108.0
203.852524 208.0
203.897064 188.0
203.923676 180.0
203.956528 60.0
204.013382 144.0
204.036118 120.0
204.072845 608.0
204.135635 124.0
204.16124 164.0
204.198212 84.0
204.238022 152.0
204.294571 200.0
204.343277 120.0
204.363205 52.0
204.384872 52.0
204.414413 144.0
204.474182 196.0
204.571075 104.0
204.696671 232.0
204.761734 144.0
204.79306 276.0
204.912933 156.0
204.935501 172.0
204.986801 156.0
205.078156 472.0
205.152115 216.0
205.186325 48.0
205.223907 392.0
205.274704 180.0
205.303223 192.0
205.346008 224.0
205.383087 188.0
205.415787 112.0
205.445847 140.0
205.477936 160.0
205.566376 148.0
205.602783 164.0
205.718033 180.0
205.742645 136.0
205.762634 68.0
205.785477 184.0
205.812256 136.0
205.852646 144.0
205.891129 128.0
206.039658 176.0
206.092392 700.0
206.133957 32.0
206.162521 200.0
206.187698 144.0
206.197815 116.0
206.209305 184.0
206.294006 32.0
206.322601 152.0
206.351181 136.0
206.411728 160.0
206.47197 140.0
206.491302 168.0
206.562286 176.0
206.593933 168.0
206.625259 140.0
206.669815 268.0
206.716858 184.0
206.807343 180.0
206.831329 148.0
206.871719 132.0
206.925369 140.0
206.952042 88.0
206.983536 144.0
207.040802 96.0
207.092163 2876.0
207.16684 228.0
207.201218 164.0
207.330154 324.0
207.384613 44.0
207.447678 184.0
207.499283 324.0
207.525085 112.0
207.577225 176.0
207.635376 156.0
207.69429 100.0
207.728714 124.0
207.783218 284.0
207.851273 128.0
207.889389 56.0
207.920944 88.0
208.004181 80.0
208.030029 132.0
208.106857 1696.0
208.176453 200.0
208.213791 104.0
208.236771 152.0
208.271225 308.0
208.299957 52.0
208.322937 120.0
208.400513 164.0
208.426376 80.0
208.541321 40.0
208.593063 244.0
208.618942 220.0
208.655579 212.0
208.696564 140.0
208.728195 180.0
208.782837 132.0
208.812302 160.0
208.861572 148.0
208.872604 56.0
208.879608 160.0
208.926651 160.0
208.976929 176.0
209.098526 652.0
209.178314 164.0
209.199158 116.0
209.254745 156.0
209.301697 104.0
209.341125 220.0
209.395844 32.0
209.511063 80.0
209.643616 204.0
209.682877 196.0
209.73764 96.0
209.790604 68.0
209.836731 140.0
209.922821 196.0
209.983719 136.0
210.027069 140.0
210.058792 116.0
210.084763 168.0
210.118423 176.0
210.192444 100.0
210.275665 152.0
210.299561 152.0
210.37912 184.0
210.474396 52.0
210.53006 232.0
210.614731 128.0
210.660522 180.0
210.688126 204.0
210.714127 156.0
210.757751 160.0
210.875961 92.0
210.96846 212.0
211.020493 128.0
211.04628 148.0
211.085556 160.0
211.115921 148.0
211.158188 136.0
211.184647 120.0
211.221054 160.0
211.257645 160.0
211.321289 112.0
211.34314 136.0
211.370483 184.0
211.421402 188.0
211.471771 232.0
211.502777 148.0
211.52388 180.0
211.566879 112.0
211.629471 212.0
211.705704 40.0
211.755508 172.0
211.804749 180.0
211.900986 148.0
212.004425 192.0
212.097336 136.0
212.172791 176.0
212.224976 144.0
212.256866 148.0
212.303268 184.0
212.398987 20.0
212.500519 132.0
212.535339 156.0
212.69957 184.0
212.723297 136.0
212.767532 196.0
212.787857 276.0
212.840118 184.0
212.997696 200.0
213.026001 156.0
213.098633 232.0
213.134659 240.0
213.185806 208.0
213.217773 116.0
213.249741 92.0
213.290436 136.0
213.351486 156.0
213.3992 168.0
213.427078 204.0
213.482925 192.0
213.517227 144.0
213.549957 172.0
213.591446 196.0
213.688843 120.0
213.735397 144.0
213.876663 156.0
213.991379 140.0
214.10817 244.0
214.154617 44.0
214.212875 192.0
214.269714 132.0
214.375549 168.0
214.412643 200.0
214.448898 212.0
214.480957 136.0
214.51886 124.0
214.56842 208.0
214.59465 128.0
214.615494 300.0
214.664642 232.0
214.699631 136.0
214.728806 88.0
214.790054 232.0
214.81575 128.0
214.86496 124.0
214.881485 128.0
214.930084 224.0
214.962189 200.0
214.988449 112.0
215.026398 136.0
215.083725 124.0
215.221985 172.0
215.259949 112.0
215.28331 144.0
215.339645 164.0
215.370926 156.0
215.420578 176.0
215.48703 144.0
215.537445 124.0
215.563751 160.0
215.587219 124.0
215.623276 108.0
215.709488 180.0
215.768875 112.0
215.806152 156.0
215.838531 116.0
215.861694 108.0
215.866241 100.0
215.890305 192.0
215.916199 128.0
215.939331 136.0
215.961349 172.0
215.990601 32.0
216.024277 180.0
216.073334 360.0
216.108215 160.0
216.131027 176.0
216.154434 44.0
216.215897 128.0
216.301254 176.0
216.343811 120.0
216.368881 224.0
216.409103 156.0
216.448608 136.0
216.470596 132.0
216.502808 88.0
216.5233 96.0
216.557602 124.0
216.626755 252.0
216.645737 160.0
216.713776 196.0
216.737152 80.0
216.819031 128.0
216.871964 192.0
216.935135 152.0
216.975098 180.0
217.083755 936.0
217.129974 84.0
217.150513 208.0
217.197433 156.0
217.23851 44.0
217.282578 172.0
217.346939 196.0
217.372925 172.0
217.450195 136.0
217.470245 160.0
217.578934 184.0
217.619247 148.0
217.655273 192.0
217.706543 104.0
217.821259 108.0
217.872803 240.0
217.963699 80.0
218.017883 168.0
218.086182 4976.0
218.154648 136.0
218.233002 116.0
218.2547 232.0
218.285583 152.0
218.338608 120.0
218.40947 96.0
218.471039 36.0
218.531189 416.0
218.581207 48.0
218.621246 172.0
218.65184 160.0
218.723373 216.0
218.747559 160.0
218.772522 104.0
218.82666 72.0
218.882416 204.0
218.931305 160.0
218.957092 140.0
219.006271 200.0
219.015503 164.0
219.092667 50092.0
219.173904 184.0
219.215515 228.0
219.264816 168.0
219.287735 132.0
219.326324 176.0
219.359619 328.0
219.378159 96.0
219.442566 116.0
219.470779 56.0
219.503311 128.0
219.548279 228.0
219.578415 28.0
219.629654 124.0
219.673141 72.0
219.745087 60.0
219.771637 40.0
219.79628 228.0
219.8255 204.0
219.906937 52.0
219.98111 168.0
220.02327 124.0
220.094955 6920.0
220.163177 180.0
220.198471 136.0
220.223312 148.0
220.260757 124.0
220.290115 52.0
220.344437 172.0
220.365112 164.0
220.413864 36.0
220.454941 60.0
220.493912 96.0
220.521042 172.0
220.561691 100.0
220.579865 60.0
220.59964 168.0
220.610123 80.0
220.617798 160.0
220.639984 200.0
220.707977 60.0
220.740509 88.0
220.844025 124.0
220.882477 216.0
220.959686 112.0
221.030396 172.0
221.054077 104.0
221.08876 572.0
221.216858 200.0
221.239105 184.0
221.273102 176.0
221.34407 128.0
221.40007 168.0
221.449799 156.0
221.546265 116.0
221.571976 136.0
221.60083 148.0
221.613098 96.0
221.619858 112.0
221.650757 220.0
221.701492 148.0
221.746689 184.0
221.813919 264.0
221.839294 184.0
221.892319 124.0
221.921967 168.0
221.942734 140.0
222.031418 88.0
222.036285 80.0
222.047684 132.0
222.086105 292.0
222.117706 40.0
222.147369 156.0
222.194839 124.0
222.221542 112.0
222.260117 140.0
222.28978 112.0
222.310562 64.0
222.346176 36.0
222.366943 208.0
222.424606 160.0
222.467865 156.0
222.500778 144.0
222.580688 136.0
222.64679 188.0
222.735123 128.0
222.755005 124.0
222.788605 140.0
222.831085 160.0
222.907455 72.0
222.984711 176.0
223.01741 92.0
223.145233 148.0
223.173431 176.0
223.207672 220.0
223.252289 80.0
223.301666 152.0
223.323822 148.0
223.346054 168.0
223.448608 44.0
223.487289 204.0
223.511093 188.0
223.537872 128.0
223.564651 168.0
223.630341 172.0
223.717285 72.0
223.778976 140.0
223.826614 124.0
223.939789 184.0
224.036682 144.0
224.067871 164.0
224.091705 152.0
224.11853 176.0
224.1474 160.0
224.181107 136.0
224.210907 168.0
224.270508 156.0
224.291382 300.0
224.339081 48.0
224.452377 212.0
224.491135 204.0
224.553772 28.0
224.579803 164.0
224.622375 64.0
224.64624 152.0
224.708878 116.0
224.774521 176.0
224.840179 52.0
224.946396 208.0
225.016296 132.0
225.055115 124.0
225.093933 36.0
225.123795 144.0
225.14769 116.0
225.183517 180.0
225.24028 52.0
225.273132 120.0
225.311127 168.0
225.388138 204.0
225.415314 184.0
225.46138 148.0
225.488266 132.0
225.516327 208.0
225.545059 176.0
225.598862 160.0
225.643707 208.0
225.703506 80.0
225.724442 152.0
225.851913 200.0
225.910034 80.0
225.962112 96.0
226.050507 124.0
226.124847 176.0
226.17569 184.0
226.224106 176.0
226.368912 240.0
226.454437 156.0
226.490616 188.0
226.535538 112.0
226.577484 132.0
226.611908 180.0
226.695877 204.0
226.757996 120.0
226.81723 172.0
226.883179 60.0
226.916153 136.0
226.973129 100.0
227.0271 84.0
227.084091 176.0
227.144241 140.0
227.237366 196.0
227.261078 140.0
227.297089 36.0
227.328751 108.0
227.477158 196.0
227.519196 184.0
227.584961 84.0
227.593353 120.0
227.604126 168.0
227.669479 84.0
227.789474 64.0
227.838181 188.0
227.888611 160.0
227.921661 112.0
228.044876 104.0
228.07193 132.0
228.111008 152.0
228.180145 152.0
228.232086 44.0
228.267349 76.0
228.309448 148.0
228.342529 124.0
228.443604 192.0
228.486923 160.0
228.544235 164.0
228.601257 112.0
228.670471 104.0
228.724655 248.0
228.748734 76.0
228.777267 144.0
228.88475 160.0
228.911316 100.0
229.008423 148.0
229.031784 184.0
229.074905 320.0
229.161407 168.0
229.257507 136.0
229.296936 368.0
229.336121 348.0
229.370102 160.0
229.399414 160.0
229.432648 180.0
229.492874 148.0
229.541122 128.0
229.598419 228.0
229.65271 252.0
229.722748 184.0
229.8022 216.0
229.842773 208.0
229.933304 76.0
230.032562 140.0
230.044006 124.0
230.091782 136.0
230.117447 132.0
230.13858 48.0
230.19783 192.0
230.266998 164.0
230.457458 236.0
230.523041 168.0
230.553116 52.0
230.573837 188.0
230.694489 112.0
230.720474 112.0
230.771652 152.0
230.786697 32.0
230.823212 160.0
230.834488 144.0
230.8638 60.0
230.900101 244.0
230.930344 260.0
230.954544 180.0
230.989746 144.0
231.027451 152.0
231.091019 1364.0
231.181458 236.0
231.220795 72.0
231.253174 132.0
231.314621 240.0
231.344574 76.0
231.40242 96.0
231.42485 108.0
231.456924 156.0
231.487198 184.0
231.53566 164.0
231.575027 100.0
231.607605 180.0
231.64772 188.0
231.721085 168.0
231.834854 196.0
231.876389 120.0
231.961411 148.0
232.017441 60.0
232.051346 400.0
232.09848 2212.0
232.145523 284.0
232.200241 200.0
232.298264 148.0
232.335815 184.0
232.381393 144.0
232.424026 76.0
232.481537 136.0
232.520981 176.0
232.54274 148.0
232.583679 332.0
232.622543 192.0
232.643829 184.0
232.6698 148.0
232.713089 112.0
232.737625 152.0
232.759521 164.0
232.788132 168.0
232.820129 60.0
232.845474 228.0
232.89003 192.0
232.913757 188.0
232.938354 340.0
232.954849 104.0
232.966125 264.0
233.035172 116.0
233.071182 816.0
233.108582 106948.0
233.206482 288.0
233.230637 288.0
233.280045 40.0
233.288712 48.0
233.311401 188.0
233.354904 244.0
233.382507 144.0
233.398544 104.0
233.402786 156.0
233.439911 216.0
233.482742 148.0
233.507446 156.0
233.527847 208.0
233.565948 404.0
233.608871 440.0
233.649246 328.0
233.69397 168.0
233.730408 232.0
233.75029 292.0
233.820068 280.0
233.838516 216.0
233.87645 116.0
233.881073 196.0
233.912735 424.0
233.932877 164.0
233.941956 428.0
233.979523 348.0
234.018356 408.0
234.116623 265624.0
234.234344 188.0
234.271118 64.0
234.316193 288.0
234.324631 312.0
234.36824 320.0
234.402023 236.0
234.426468 128.0
234.465744 328.0
234.488327 96.0
234.492661 352.0
234.514114 388.0
234.557129 84.0
234.580002 60.0
234.618683 3892.0
234.660477 204.0
234.688202 228.0
234.727493 52.0
234.765274 48.0
234.821899 244.0
234.843414 292.0
234.868988 160.0
234.898666 56.0
234.930908 40.0
234.96579 188.0
234.993744 184.0
235.00267 152.0
235.013962 144.0
235.119354 59208.0
235.159454 424.0
235.184952 204.0
235.250381 248.0
235.275635 60.0
235.306534 140.0
235.344833 56.0
235.350235 180.0
235.367218 88.0
235.397034 164.0
235.42453 272.0
235.454758 256.0
235.511093 120.0
235.539398 136.0
235.573822 128.0
235.629532 236.0
235.677002 128.0
235.736603 184.0
235.768478 92.0
235.814026 172.0
235.836807 72.0
235.893692 272.0
235.920319 340.0
235.953995 124.0
235.998474 88.0
236.02034 192.0
236.048538 252.0
236.081894 92.0
236.087708 220.0
236.122025 5372.0
236.169754 356.0
236.202728 68.0
236.239182 112.0
236.251312 92.0
236.304871 96.0
236.326874 168.0
236.354858 136.0
236.382751 184.0
236.406403 124.0
236.427353 84.0
236.465836 104.0
236.49321 60.0
236.547409 156.0
236.594025 244.0
236.646683 300.0
236.681808 272.0
236.721664 236.0
236.7827 156.0
236.840302 180.0
236.87233 228.0
236.913635 104.0
236.933929 300.0
236.956329 176.0
237.016251 148.0
237.036285 160.0
237.059998 124.0
237.130508 352.0
237.186295 52.0
237.230621 80.0
237.273544 48.0
237.294998 72.0
237.362534 168.0
237.386993 48.0
237.413574 36.0
237.462021 120.0
237.506607 40.0
237.531418 44.0
237.567947 48.0
237.608429 124.0
237.641174 280.0
237.681473 64.0
237.711136 204.0
237.740952 84.0
237.771454 124.0
237.790253 72.0
237.823853 132.0
237.834213 52.0
237.842804 120.0
237.877228 116.0
237.927948 92.0
237.954651 104.0
237.984604 148.0
238.025269 180.0
238.082687 112.0
238.095139 80.0
238.104721 160.0
238.148117 64.0
238.210312 64.0
238.256058 76.0
238.329361 40.0
238.363159 140.0
238.384674 188.0
238.447159 40.0
238.513763 68.0
238.577179 304.0
238.624435 164.0
238.649033 244.0
238.686249 120.0
238.721725 172.0
238.776154 220.0
238.803772 88.0
238.953522 136.0
238.978134 104.0
239.064301 72.0
239.101608 64.0
239.144684 68.0
239.199722 68.0
239.230499 148.0
239.268417 64.0
239.325943 108.0
239.454773 96.0
239.495331 152.0
239.519974 68.0
239.646545 180.0
239.714066 128.0
239.902084 140.0
240.043915 60.0
240.087646 200.0
240.253036 204.0
240.367813 128.0
240.389404 36.0
240.538467 148.0
240.605469 124.0
240.706741 160.0
240.759857 140.0
240.81987 196.0
240.886505 164.0
240.920486 104.0
240.96373 68.0
241.096603 180.0
241.149139 124.0
241.179138 204.0
241.21196 136.0
241.248062 52.0
241.300613 132.0
241.424301 76.0
241.631546 60.0
241.848175 148.0
241.94104 104.0
242.091476 116.0
242.424225 40.0
242.619507 220.0
242.668747 104.0
242.702789 176.0
242.82106 304.0
242.876892 44.0
242.995789 256.0
243.092941 220.0
243.139099 164.0
243.30513 212.0
243.329971 88.0
243.407593 92.0
243.488327 160.0
243.571777 120.0
243.612579 48.0
243.707886 236.0
243.789688 120.0
243.851837 112.0
243.898468 148.0
243.978027 168.0
244.017899 152.0
244.097443 260.0
244.156525 32.0
244.184525 136.0
244.274719 88.0
244.402283 116.0
244.486298 152.0
244.585892 88.0
244.722748 104.0
244.915955 60.0
245.012527 148.0
245.043686 100.0
245.1073 1264.0
245.183685 56.0
245.226776 132.0
245.289871 136.0
245.374664 144.0
245.431671 56.0
245.542435 76.0
245.64537 72.0
245.676559 52.0
245.707062 212.0
245.857544 136.0
245.919952 76.0
245.949738 52.0
246.007355 144.0
246.113464 3092.0
246.185333 80.0
246.211243 108.0
246.238419 76.0
246.271347 200.0
246.38237 48.0
246.502045 152.0
246.542389 176.0
246.600861 160.0
246.653992 64.0
246.741516 136.0
246.812714 104.0
246.828949 108.0
246.839951 208.0
246.884079 80.0
246.918976 160.0
246.969803 200.0
247.001083 136.0
247.087082 11732.0
247.160645 88.0
247.187836 52.0
247.219955 124.0
247.273834 212.0
247.307587 128.0
247.325775 68.0
247.35965 68.0
247.407898 40.0
247.439209 40.0
247.525314 64.0
247.55867 160.0
247.620834 68.0
247.707825 100.0
247.788223 228.0
247.87587 80.0
247.909058 132.0
247.949799 152.0
247.974091 64.0
248.018753 40.0
248.053238 148.0
248.089294 1952.0
248.166092 40.0
248.191177 200.0
248.216263 76.0
248.314789 96.0
248.343552 124.0
248.375168 192.0
248.398987 136.0
248.443283 164.0
248.489151 32.0
248.514252 64.0
248.573868 128.0
248.669418 180.0
248.802994 40.0
248.831253 160.0
249.016525 180.0
249.08876 372.0
249.134598 244.0
249.176727 168.0
249.223129 196.0
249.264709 36.0
249.341705 40.0
249.418716 76.0
249.459427 176.0
249.504089 124.0
249.59346 96.0
249.667099 84.0
249.758301 84.0
249.852325 216.0
249.899872 92.0
249.950211 68.0
250.016296 72.0
250.05513 248.0
250.091843 176.0
250.120163 64.0
250.145172 92.0
250.170532 104.0
250.287811 224.0
250.372055 52.0
250.435043 168.0
250.475983 116.0
250.549942 152.0
250.608307 36.0
250.712296 100.0
250.787125 188.0
250.820389 136.0
250.847824 84.0
250.87619 124.0
250.910385 204.0
251.045929 140.0
251.084305 104.0
251.106384 64.0
251.191544 48.0
251.254639 136.0
251.305115 92.0
251.393478 68.0
251.45343 216.0
251.485001 144.0
251.554443 28.0
251.576538 132.0
251.744888 100.0
251.92572 204.0
252.122986 56.0
252.189346 32.0
252.214645 176.0
252.315796 108.0
252.511856 112.0
252.666855 204.0
252.706177 112.0
252.806076 224.0
252.844055 76.0
252.866211 136.0
252.888367 112.0
252.999146 140.0
253.024475 28.0
253.116302 116.0
253.230316 184.0
253.293655 96.0
253.5121 148.0
253.578827 128.0
253.651733 168.0
253.845139 140.0
254.044952 44.0
254.098877 176.0
254.185379 124.0
254.206772 168.0
254.269211 136.0
254.413803 104.0
254.463867 128.0
254.562302 244.0
254.639206 132.0
254.759232 160.0
254.806885 96.0
254.841843 64.0
254.918091 112.0
254.953049 116.0
254.984833 168.0
255.057938 56.0
255.086548 140.0
255.159668 36.0
255.191467 36.0
255.25824 128.0
255.456726 276.0
255.527161 212.0
255.62088 36.0
255.649521 164.0
255.682907 164.0
255.744995 212.0
255.945129 88.0
255.993332 128.0
256.072937 56.0
256.104797 48.0
256.254517 68.0
256.332062 192.0
256.375793 192.0
256.420227 164.0
256.480774 40.0
256.643372 120.0
256.726288 204.0
256.93042 32.0
257.226532 212.0
257.311676 132.0
257.358093 76.0
257.421967 164.0
257.444305 112.0
257.511383 84.0
257.584839 80.0
257.651947 128.0
257.674316 152.0
257.744476 104.0
257.840454 172.0
257.894806 160.0
257.923584 192.0
257.95874 164.0
258.18576 108.0
258.226288 124.0
258.265717 116.0
258.310486 264.0
258.45694 168.0
258.55365 160.0
258.624084 132.0
258.768127 164.0
258.832153 96.0
258.860992 120.0
259.083527 300.0
259.194122 148.0
259.274231 80.0
259.341553 188.0
259.380005 40.0
259.460175 64.0
259.501831 124.0
259.575592 172.0
259.642944 64.0
259.748779 72.0
259.986206 268.0
260.097473 408.0
260.165955 204.0
260.279999 132.0
260.304016 76.0
260.336121 120.0
260.389618 104.0
260.486908 68.0
260.654144 152.0
260.75058 144.0
260.808655 140.0
260.908081 72.0
260.94986 172.0
260.98465 88.0
260.995941 132.0
261.032715 172.0
261.102264 14816.0
261.175232 368.0
261.201935 236.0
261.239532 160.0
261.286438 208.0
261.359131 164.0
261.391449 152.0
261.438812 88.0
261.467773 108.0
261.500519 312.0
261.551849 156.0
261.571899 124.0
261.58609 204.0
261.611298 128.0
261.623199 180.0
261.660034 180.0
261.697998 100.0
261.721375 216.0
261.78894 168.0
261.825592 260.0
261.889496 364.0
261.906982 156.0
261.963776 608.0
261.996429 384.0
262.034882 408.0
262.111847 262272.0
262.213348 100.0
262.28479 108.0
262.316223 276.0
262.364746 68.0
262.416656 248.0
262.474518 236.0
262.537262 164.0
262.587585 132.0
262.64212 736.0
262.694519 104.0
262.732819 140.0
262.775177 104.0
262.795532 80.0
262.83252 136.0
262.855225 220.0
262.911499 76.0
262.960449 148.0
263.00769 160.0
263.113861 40400.0
263.202667 88.0
263.238251 172.0
263.262756 148.0
263.269226 232.0
263.311737 72.0
263.356323 96.0
263.376526 280.0
263.407257 64.0
263.467804 260.0
263.502869 120.0
263.536224 240.0
263.572693 104.0
263.641449 56.0
263.672546 148.0
263.707031 144.0
263.749908 108.0
263.786896 48.0
263.814362 72.0
263.86026 232.0
263.882263 48.0
263.905548 88.0
263.938843 72.0
264.015808 192.0
264.052032 48.0
264.116974 3940.0
264.179962 136.0
264.22995 52.0
264.269592 80.0
264.283905 88.0
264.318634 88.0
264.368073 52.0
264.378082 36.0
264.401703 144.0
264.449524 136.0
264.473297 160.0
264.509552 68.0
264.532745 64.0
264.572998 40.0
264.615692 116.0
264.647766 92.0
264.686676 76.0
264.731232 140.0
264.777344 224.0
264.812775 112.0
264.844543 176.0
264.869904 128.0
264.8927 144.0
264.948029 264.0
264.978729 156.0
265.022156 96.0
265.033905 100.0
265.067017 92.0
265.116089 324.0
265.163971 64.0
265.20163 68.0
265.230469 104.0
265.255432 152.0
265.285706 100.0
265.311646 232.0
265.397064 80.0
265.42514 60.0
265.512848 76.0
265.551605 48.0
265.580292 208.0
265.611877 48.0
265.647217 76.0
265.697571 100.0
265.726776 68.0
265.779114 152.0
265.833862 48.0
265.936188 296.0
265.990173 100.0
266.046234 80.0
266.079834 280.0
266.103271 292.0
266.132477 100.0
266.167969 112.0
266.252655 40.0
266.300598 172.0
266.382568 104.0
266.411804 76.0
266.456299 120.0
266.509857 132.0
266.571014 104.0
266.629669 84.0
266.69873 176.0
266.754089 72.0
266.83429 60.0
267.000122 116.0
267.022888 88.0
267.071686 96.0
267.14325 88.0
267.169281 56.0
267.205048 104.0
267.276642 92.0
267.324738 128.0
267.500244 192.0
267.669647 136.0
267.725861 120.0
267.761688 68.0
267.85614 96.0
267.950623 104.0
268.009277 40.0
268.113556 44.0
268.175476 124.0
268.26535 84.0
268.277496 120.0
268.385406 92.0
268.984406 108.0
269.010529 52.0
269.121521 92.0
269.186829 88.0
269.457947 124.0
269.546173 156.0
269.60498 132.0
269.660553 56.0
269.827271 108.0
269.869751 124.0
269.928619 56.0
270.160858 160.0
270.249176 212.0
270.269989 132.0
270.475006 108.0
270.556824 48.0
270.658325 72.0
270.887604 40.0
271.139893 64.0
271.224579 220.0
271.81543 176.0
271.899658 36.0
272.061615 144.0
272.185272 60.0
272.288177 160.0
272.353851 72.0
272.698853 104.0
272.787598 112.0
272.830353 180.0
272.896088 52.0
273.238159 72.0
273.263824 120.0
273.42572 180.0
273.514587 88.0
273.814209 48.0
273.876801 72.0
273.926208 128.0
274.0448 180.0
274.123871 84.0
274.176605 60.0
274.205536 200.0
274.252411 100.0
274.417236 56.0
274.509583 160.0
274.690979 124.0
274.803131 116.0
274.95163 52.0
274.997833 48.0
275.057251 108.0
275.086975 48.0
275.124298 308.0
275.212433 36.0
275.285065 152.0
275.366394 108.0
275.483246 44.0
275.526184 88.0
275.622009 104.0
275.68811 52.0
275.843445 252.0
275.866577 136.0
275.889709 232.0
275.912872 164.0
275.988464 144.0
276.064972 216.0
276.127411 296.0
276.164185 148.0
276.263824 200.0
276.33255 152.0
276.340393 136.0
276.415619 40.0
276.478485 256.0
276.499603 180.0
276.597656 124.0
276.667175 144.0
276.700256 164.0
276.773102 108.0
276.8172 280.0
276.869141 300.0
276.893707 120.0
276.931427 200.0
277.019409 208.0
277.048004 452.0
277.087433 444.0
277.135101 135264.0
277.21579 496.0
277.249603 248.0
277.282867 220.0
277.30957 160.0
277.362305 224.0
277.37262 76.0
277.411285 80.0
277.458344 132.0
277.505585 256.0
277.536316 116.0
277.581635 32.0
277.633301 160.0
277.683716 260.0
277.721191 48.0
277.764435 72.0
277.799744 84.0
277.823822 252.0
277.878235 260.0
277.941193 72.0
277.966858 88.0
277.999603 92.0
278.040466 408.0
278.091339 244.0
278.137299 20088.0
278.196472 52.0
278.206726 152.0
278.234497 52.0
278.257568 168.0
278.289886 80.0
278.352905 44.0
278.381378 84.0
278.476532 68.0
278.517548 52.0
278.540802 96.0
278.583984 60.0
278.64325 48.0
278.67514 168.0
278.730164 48.0
278.802216 88.0
278.811707 60.0
278.849823 108.0
278.889709 100.0
278.92627 48.0
278.979462 60.0
279.00885 52.0
279.073761 88.0
279.140198 1984.0
279.194885 96.0
279.242035 116.0
279.292023 176.0
279.315308 52.0
279.382721 120.0
279.430145 112.0
279.444824 60.0
279.527405 96.0
279.592987 132.0
279.631409 96.0
279.68399 120.0
279.731018 56.0
279.753784 84.0
279.795898 68.0
279.807129 56.0
279.819489 112.0
279.863007 140.0
279.920227 48.0
279.94339 124.0
279.98053 56.0
280.010956 124.0
280.034729 88.0
280.06369 116.0
280.110168 132.0
280.137238 56.0
280.17981 88.0
280.210846 104.0
280.254852 96.0
280.294128 40.0
280.332214 100.0
280.424103 76.0
280.457428 80.0
280.487427 92.0
280.574097 40.0
280.705994 80.0
280.737488 44.0
280.850891 36.0
280.894257 88.0
280.957642 56.0
281.025604 184.0
281.085785 68.0
281.121124 72.0
281.181366 88.0
281.211243 84.0
281.3815 100.0
281.463531 112.0
281.535095 36.0
281.672028 44.0
281.698761 80.0
281.977203 72.0
282.126495 64.0
282.156586 64.0
282.220123 52.0
282.320435 100.0
282.798859 112.0
282.845734 52.0
282.949493 68.0
282.999725 80.0
283.12027 100.0
283.200653 64.0
283.227448 40.0
283.327942 44.0
283.408356 116.0
284.330536 60.0
284.683044 104.0
284.894653 32.0
285.230682 96.0
285.271027 68.0
285.529938 84.0
285.66449 132.0
285.718323 104.0
286.492615 48.0
286.711639 48.0
286.994812 88.0
287.018402 112.0
287.201416 76.0
287.598663 40.0
287.801239 36.0
288.014374 72.0
288.561462 32.0
288.656128 92.0
288.892883 92.0
289.031616 72.0
289.197418 88.0
289.22113 96.0
289.590179 52.0
289.823944 104.0
289.898499 116.0
290.15271 68.0
290.542725 60.0
290.580048 88.0
290.780243 96.0
291.051849 68.0
292.323151 48.0
292.469513 84.0
292.595459 84.0
292.687378 92.0
292.741882 56.0
293.133636 136.0
293.222229 72.0
293.749207 152.0
293.846252 80.0
293.911102 44.0
294.402649 52.0
294.863861 68.0
295.780518 68.0
296.866608 72.0
296.890625 56.0
298.587189 76.0
298.786682 100.0
298.827972 64.0
298.87616 44.0
299.657745 108.0
299.702545 128.0
301.217072 100.0
301.773499 120.0
301.884155 92.0
302.406555 40.0
302.673126 156.0
303.043732 120.0
303.553284 40.0
304.431244 52.0
307.159943 96.0
310.914246 108.0
311.212616 72.0
313.442688 120.0
313.481445 52.0
313.89743 96.0
314.829071 128.0
315.599396 104.0
316.130005 92.0
318.540985 80.0
319.371063 100.0
319.504364 84.0
320.643829 100.0
320.80069 64.0
320.911194 156.0
321.18222 116.0
322.428314 96.0
322.535553 76.0
324.346771 76.0
325.225555 64.0
325.383514 68.0
325.774963 96.0
326.299683 60.0
326.965149 68.0
327.008331 152.0
328.673279 64.0
328.864532 88.0
329.037811 64.0
329.095581 40.0
330.526947 44.0
330.878052 124.0
331.15686 92.0
331.620636 60.0
332.189941 44.0
334.413727 48.0
336.247009 60.0
336.341919 60.0
336.674164 112.0
336.951782 44.0
337.141785 64.0
338.517273 40.0
339.334381 112.0
339.939606 88.0
340.394806 68.0
340.751099 88.0
342.37326 68.0
343.084412 52.0
343.663452 64.0
345.137238 56.0
345.299957 36.0
345.377625 80.0
345.706909 48.0
346.41037 56.0
350.188019 68.0
351.030273 96.0
351.504028 40.0
351.533875 68.0
352.534698 88.0
352.583282 84.0
353.061798 40.0
353.521942 92.0
353.739044 100.0
353.810181 64.0
354.709259 84.0
354.900452 80.0
356.555908 188.0
356.593506 88.0
356.702515 64.0
357.680542 92.0
358.000549 44.0
358.170044 80.0
358.452606 48.0
359.784027 88.0
361.091461 108.0
362.495972 144.0
362.928101 132.0
363.489502 132.0
364.191864 120.0
365.689911 44.0
365.724182 96.0
365.781281 56.0
366.417236 84.0
366.569672 52.0
366.653503 44.0
366.699249 56.0
367.427551 36.0
367.748108 28.0
369.062256 100.0
369.525055 88.0
369.900116 60.0
370.147858 96.0
371.313965 40.0
371.440552 68.0
371.586334 72.0
371.692719 88.0
371.755157 88.0
371.866455 72.0
372.411682 140.0
372.742065 80.0
373.561005 40.0
374.492523 56.0
374.531036 60.0
374.708221 52.0
375.479187 84.0
376.665405 72.0
376.745239 104.0
377.71167 56.0
377.963135 88.0
378.021179 44.0
378.694824 104.0
380.614471 56.0
380.975677 40.0
381.002899 60.0
381.698608 64.0
382.017548 116.0
383.345245 52.0
384.600616 160.0
386.915283 52.0
389.047974 108.0
389.381744 116.0
389.720703 112.0
390.533325 64.0
391.403076 56.0
395.481232 68.0
395.786072 200.0
395.833588 96.0
396.281158 44.0
397.407196 128.0
397.526245 92.0
397.565918 92.0
397.823914 40.0
399.401489 120.0
402.047058 84.0
403.037384 32.0
404.016144 164.0
405.013702 56.0
406.003662 76.0
408.123932 60.0
408.972778 28.0
409.186127 64.0
409.524384 44.0
410.479523 80.0
411.468079 92.0
411.661896 96.0
411.908264 32.0
412.203186 100.0
412.579071 96.0
414.436798 80.0
415.746582 52.0
416.347412 48.0
417.81073 56.0
419.859589 68.0
420.655243 60.0
421.116638 108.0
421.263702 84.0
421.803101 68.0
422.661957 124.0
422.997559 124.0
423.063049 96.0
423.947784 56.0
424.9729 76.0
425.050873 88.0
425.17807 64.0
425.231445 88.0
425.867828 64.0
425.97052 64.0
426.028046 76.0
426.081451 84.0
427.619354 96.0
429.019867 48.0
429.601349 140.0
430.187347 104.0
430.302948 56.0
431.472168 92.0
431.83606 108.0
432.444244 48.0
432.535309 144.0
432.593262 120.0
433.301453 108.0
434.698761 40.0
435.030823 84.0
435.329773 64.0
436.530731 76.0
436.655487 52.0
437.329498 96.0
437.708374 64.0
439.834595 88.0
442.660858 68.0
443.3479 56.0
443.805389 124.0
443.855103 92.0
444.10675 80.0
444.291321 72.0
445.244141 28.0
447.29599 124.0
447.615967 92.0
448.905426 72.0
449.529755 116.0
449.854736 112.0
450.906494 88.0
452.281128 72.0
452.399628 36.0
453.801971 84.0
454.41272 100.0
455.325378 116.0
456.723724 88.0
458.985138 64.0
460.051788 80.0
460.782074 32.0
461.081177 52.0
462.651001 56.0
463.76474 40.0
465.223206 52.0
465.893127 88.0
467.402252 76.0
468.375244 92.0
468.737152 64.0
468.801788 64.0
470.104126 72.0
470.751648 68.0
471.563873 80.0
471.935638 108.0
471.965912 56.0
472.433014 56.0
473.40686 96.0
473.675415 68.0
475.539886 48.0
476.273682 100.0
477.103668 56.0
478.047516 56.0
478.83551 60.0
479.89444 96.0
481.316864 100.0
481.578888 56.0
482.68457 60.0
482.728302 68.0
482.846375 76.0
483.345093 108.0
483.699585 68.0
483.919525 68.0
484.076111 92.0
484.549164 96.0
484.702515 96.0
485.096985 128.0
486.786163 80.0
487.506592 116.0
487.682404 32.0
487.853821 88.0
489.7724 56.0
491.380798 132.0
491.487366 72.0
493.050598 104.0
495.191956 112.0
496.588074 56.0
496.676788 56.0
497.084961 76.0
497.76413 56.0
498.070557 68.0
498.443756 84.0
499.257263 60.0
499.492981 32.0
501.505615 88.0
501.822144 36.0
501.942535 64.0
502.098602 96.0
502.531311 76.0
502.97757 60.0
503.982422 68.0
505.167175 28.0
506.384674 148.0
506.729614 72.0
506.8461 76.0
507.769592 92.0
509.259674 112.0
512.115784 32.0
513.377686 72.0
513.738525 28.0
514.578003 72.0
515.119934 32.0
516.611694 32.0
517.928955 40.0
518.835266 76.0
522.150024 112.0
522.295593 96.0
523.437927 52.0
523.606445 64.0
528.620117 84.0
530.680298 40.0
531.822571 48.0
531.918945 56.0
532.378113 64.0
532.676636 72.0
532.768494 64.0
533.007446 92.0
533.13147 80.0
534.308594 32.0
535.173889 92.0
536.805054 64.0
538.628113 104.0
539.43219 64.0
539.75116 36.0
540.137207 64.0
540.296936 68.0
540.403381 60.0
541.130005 52.0
541.560669 96.0
542.033203 104.0
542.640442 60.0
542.786804 92.0
542.91864 80.0
544.106506 84.0
544.612671 64.0
545.700073 52.0
547.351929 96.0
548.423401 80.0
548.549255 108.0
550.261414 64.0
550.620972 76.0
551.153503 56.0
551.924744 56.0
552.57019 48.0
555.545105 60.0
555.831299 80.0
556.211487 72.0
556.577637 56.0
556.615234 100.0
557.418457 80.0
559.304382 40.0
559.666931 64.0
559.808167 116.0
560.382812 84.0
560.646729 76.0
561.79718 100.0
564.470459 96.0
567.382385 68.0
568.724854 96.0
568.924255 88.0
570.682129 100.0
571.357483 60.0
573.891235 112.0
575.690186 88.0
576.707825 104.0
578.391541 32.0
580.571472 108.0
581.358276 56.0
583.077576 96.0
583.697693 56.0
584.053589 52.0
584.188293 36.0
585.362671 76.0
585.755859 88.0
588.545166 36.0
590.042908 64.0
591.644287 100.0
592.709839 76.0
592.763123 148.0
594.271118 28.0
595.169067 132.0
596.524536 28.0
597.60907 168.0
600.600281 136.0
603.501099 80.0
603.72113 56.0
604.16626 108.0
604.704529 52.0
607.92926 68.0
608.449585 48.0
610.862488 124.0
611.590759 56.0
611.900879 44.0
612.058472 64.0
615.515076 52.0
618.298218 56.0
620.353821 104.0
622.889526 92.0
624.002747 116.0
625.126892 52.0
625.594727 40.0
633.870728 72.0
635.294678 84.0
637.328003 100.0
640.28595 68.0
640.734253 140.0
644.952942 44.0
647.99939 92.0
648.693726 160.0
650.327026 88.0
651.987793 60.0
652.938538 56.0
654.775757 72.0
656.085327 76.0
659.720154 92.0
659.945068 44.0
660.011536 96.0
665.144958 120.0
665.386292 92.0
667.513428 44.0
676.242493 40.0
678.604675 80.0
680.654236 64.0
682.108948 20.0
684.767761 88.0
685.705566 48.0
687.118713 72.0
687.901489 76.0
688.966858 40.0
689.834351 120.0
691.487244 92.0
699.618103 88.0
701.335327 64.0
703.059998 80.0
703.165527 96.0
703.936279 68.0
705.976135 116.0
708.008301 40.0
710.122925 48.0
712.246033 40.0
713.489563 88.0
714.239319 44.0
714.590454 48.0
719.381592 108.0
723.139282 52.0
730.221436 76.0
731.943542 68.0
732.503662 84.0
737.992188 60.0
738.419434 108.0
739.052307 84.0
748.33374 84.0
748.959961 48.0
749.079834 96.0
752.051575 84.0
753.192749 60.0
759.920898 52.0
760.650757 48.0
761.381042 104.0
767.174988 56.0
772.365723 112.0
773.306335 76.0
774.701721 52.0
782.29303 60.0
784.460022 76.0
785.129089 40.0
790.79425 88.0
791.785217 108.0
799.808533 76.0
801.86438 76.0
802.196899 56.0
802.980652 76.0
804.554993 172.0
808.619202 120.0
808.896545 112.0
809.389099 28.0
813.005737 52.0
816.869324 96.0
817.825256 92.0
819.824341 52.0
827.323914 44.0
827.953735 88.0
828.039612 80.0
828.652588 68.0
834.196411 52.0
835.12793 88.0
839.989441 148.0
846.323486 48.0
846.792603 76.0
848.084656 68.0
852.38501 72.0
853.152222 68.0
854.222229 100.0
856.113831 80.0
858.223267 108.0
860.965881 84.0
861.842102 52.0
864.385681 60.0
869.425354 68.0
870.899048 68.0
871.504089 144.0
873.473572 60.0
888.075073 60.0
889.683167 60.0
895.266357 144.0
904.820068 192.0
905.987915 56.0
912.685913 40.0
916.731018 68.0
928.277161 88.0
930.291504 44.0
933.381775 56.0
945.994995 48.0
947.397339 96.0
947.918152 100.0
949.033752 148.0
950.73291 64.0
961.74353 40.0
962.854858 176.0
963.06488 36.0
976.70752 76.0
979.15979 64.0
987.454285 108.0
988.943359 56.0
989.187439 44.0
990.984802 120.0
1003.637329 72.0
1003.990479 108.0
1004.097717 100.0
1009.592102 80.0
1024.317139 68.0
1024.763062 72.0
1026.407471 52.0
1028.691528 40.0
1029.09375 92.0
1033.75354 40.0
1034.303955 132.0
1038.385376 96.0
1044.956787 92.0
1048.968872 60.0
1052.898315 88.0
1052.97583 84.0
1060.623535 92.0
1064.451294 40.0
1067.954224 76.0
1069.958496 60.0
1075.12085 96.0
1080.864868 104.0
1088.265015 116.0
1090.715454 60.0
1095.150269 120.0
1097.423828 80.0
1098.215088 88.0
1109.72168 44.0
1121.694824 76.0
1131.950195 92.0
1141.640259 128.0
1150.244141 72.0
1154.013794 96.0
1160.954468 60.0
1161.090088 224.0
1171.87793 152.0
1172.634277 108.0
1173.009155 76.0
1174.331909 136.0
1174.864014 132.0
1175.819336 96.0
1176.338013 76.0
1180.156982 136.0
1192.585693 132.0
1194.483521 148.0
1198.593628 112.0
1199.020874 128.0
1201.365234 160.0
1202.800537 56.0
1204.071045 40.0
1206.496338 232.0
1207.934692 180.0
1209.803101 232.0
1214.875854 156.0
1218.471924 140.0
1223.409668 232.0
1235.119019 140.0
1238.12854 204.0
1240.230469 88.0
1240.868408 244.0
1241.331177 132.0
1243.548096 68.0
1247.186279 160.0
1249.141113 128.0
1253.802246 116.0
1255.67749 148.0
1256.06543 48.0
1257.377808 204.0
1258.733154 44.0
1263.023071 112.0
1264.799072 148.0
1266.463013 120.0
1268.325317 116.0
1269.262329 80.0
1277.031494 136.0
1279.237305 72.0
1292.018555 72.0
1292.734009 60.0
1296.500854 40.0
1296.57251 52.0
1299.476562 52.0
1303.095215 112.0
1305.402466 60.0
1306.171997 188.0
1306.39502 32.0
1306.927368 48.0
1309.58374 144.0
1312.14917 156.0
1312.300537 56.0
1315.178955 100.0
1315.828613 184.0
1317.76416 220.0
1319.383057 256.0
1319.488403 76.0
1319.860229 140.0
1321.509399 192.0
1322.536987 40.0
1326.36145 156.0
1327.971069 152.0
1330.046265 80.0
1331.578247 160.0
1332.239258 48.0
1333.954224 68.0
1334.303223 80.0
1334.928467 132.0
1339.622925 200.0
1340.286743 184.0
1342.472778 136.0
1343.384521 72.0
1343.807617 196.0
1345.770996 88.0
1345.902466 136.0
1349.365601 160.0
1350.682007 176.0
1354.554199 156.0
1355.63855 52.0
1356.158936 68.0
1357.537231 144.0
1357.610474 168.0
1358.351318 128.0
1358.886841 180.0
1359.393066 152.0
1360.171021 84.0
1360.692261 216.0
1360.773071 120.0
1361.32373 156.0
1361.521973 60.0
1362.601807 160.0
1363.659912 156.0
1364.358276 92.0
1365.036255 236.0
1366.218872 152.0
1366.314453 40.0
1366.652954 44.0
1368.372559 144.0
1368.61084 128.0
1373.142822 112.0
1373.3125 180.0
1375.19397 96.0
1376.574463 148.0
1377.460693 164.0
1379.60376 56.0
1383.00647 96.0
1383.768921 168.0
1384.657471 148.0
1385.013062 172.0
1386.294678 140.0
1387.080322 172.0
1388.578125 232.0
1389.082397 160.0
1392.333374 68.0
1393.091064 116.0
1393.811646 128.0
1394.800171 128.0
1395.372559 200.0
1397.536865 228.0
1400.365723 188.0
1400.507202 32.0
1401.311768 108.0
1402.228271 172.0
1403.189819 36.0
1404.830566 36.0
1405.233398 184.0
1408.032715 144.0
1408.35376 184.0
1408.615234 56.0
1409.272705 164.0
1411.163574 196.0
1412.412476 184.0
1413.123169 168.0
1418.665161 84.0
1418.852539 124.0
1419.512451 120.0
1419.564941 116.0
1420.074829 164.0
1423.121582 208.0
1425.187134 96.0
1426.7052 256.0
1429.435425 92.0
1430.564453 92.0
1431.836914 148.0
1433.245605 108.0
1434.044434 156.0
1434.964111 192.0
1435.6427 184.0
1435.944336 244.0
1443.443359 52.0
1443.549194 192.0
1443.829956 168.0
1444.343384 140.0
1444.842407 200.0
1445.992798 108.0
1449.544434 48.0
1450.863281 72.0
1451.439453 56.0
1454.694214 156.0
1457.086426 124.0
1460.203735 196.0
1460.606079 128.0
1461.762573 48.0
1462.500732 168.0
1462.590576 216.0
1463.779785 88.0
1465.69165 92.0
1466.415649 156.0
1467.421875 156.0
1467.734497 172.0
1469.641357 60.0
1469.809204 100.0
1469.900757 216.0
1470.770752 156.0
1473.191406 192.0
1473.30603 200.0
1474.008911 196.0
1475.078857 188.0
1475.568115 148.0
1476.218018 68.0
1476.97522 160.0
1479.469849 124.0
1481.269409 128.0
1481.514526 188.0
1481.805664 140.0
1482.40332 48.0
1483.246338 168.0
1486.244995 124.0
1486.321777 156.0
1487.526611 124.0
1488.908691 144.0
1490.675537 132.0
1495.736206 236.0
1497.668823 184.0
1499.772339 116.0
1500.361694 132.0
1500.458496 128.0
1500.766846 88.0
1502.772217 144.0
1503.605591 76.0
1504.230835 164.0
