>compound Abacavir sulfate
>formula C14H18N6O
>ionization [M+H]+
>parentmass 287.1614856480905
#inchi InChI=1S/C14H18N6O/c15-14-18-12(17-9-2-3-9)11-13(19-14)20(7-16-11)10-4-1-8(5-10)6-21/h1,4,7-10,21H,2-3,5-6H2,(H3,15,17,18,19)/t8-,10+/m1/s1
#inchikey MCGSCOLBFJQGHM
#origInchi InChI=1S/2C14H18N6O.H2O4S/c2*15-14-18-12(17-9-2-3-9)11-13(19-14)20(7-16-11)10-4-1-8(5-10)6-21;1-5(2,3)4/h2*1,4,7-10,21H,2-3,5-6H2,(H3,15,17,18,19);(H2,1,2,3,4)/t2*8-,10+;/m11./s1
#Ion_Source LC-ESI
#Instrument qTof
#Compound_Source Commercial
#PI Dorrestein
#Data_Collector Garg_Neha
#Scan -1
#Precursor_MZ 287.161
#ExactMass 286.154
#Charge 1
#CAS_Number 188062-50-2, 136470-78-5 (FREE BASE)
#Pubmed_ID N/A
#Smiles [C@H]1(C=C[C@@H](C1)N2C=NC3C(=NC(=NC2=3)N)NC4CC4)CO.S(=O)(=O)(O)O.[C@H]5(C=C[C@@H](C5)N6C=NC7C(=NC(=NC6=7)N)NC8CC8)CO
#INCHI_AUX N/A
#Library_Class 1
#SpectrumID CCMSLIB00000078595
#IonMode Positive
#UpdateWorkflowName UPDATE-SINGLE-ANNOTATED-GOLD
#LibraryQualityString Gold
#TaskID 77f51c88eb8b467eb4a01dd2d0cb90d2
##Scan# 987
#SpectrumFile Plate9_61_80_GC7_01_15756.mzXML
#LibraryName FDALibrary_2_04302014.mgf
#MQScore -1
#Organism FDALibrary_2_04302014
#TIC_Query 0
#RT_Query -1
#MZErrorPPM -1
#SharedPeaks 0
#MassDiff 0
#LibMZ -1
#SpecMZ 287.161
#SpecCharge 0
#internalFilename spec-00000.mgf

>collision 10
45.284115 204.0
45.345749 188.0
45.830879 152.0
45.925247 208.0
46.172413 220.0
46.183231 144.0
46.226524 160.0
46.49757 140.0
46.897438 164.0
46.965614 176.0
47.86742 152.0
47.959629 172.0
48.003845 160.0
48.19157 148.0
48.432285 148.0
48.575062 164.0
48.99514 224.0
50.220081 196.0
50.265228 168.0
50.699371 184.0
50.953476 152.0
51.116879 160.0
51.510387 176.0
51.909702 164.0
52.09198 152.0
52.156643 168.0
52.582985 208.0
52.704288 152.0
53.021206 180.0
53.317268 144.0
53.832985 144.0
54.304237 172.0
54.478916 176.0
54.939701 140.0
56.20232 240.0
56.592438 184.0
56.640362 176.0
56.727272 204.0
57.001934 148.0
57.147789 152.0
57.498901 152.0
58.665356 140.0
58.724525 204.0
58.798058 152.0
58.865227 152.0
59.005802 156.0
59.131237 176.0
59.253738 204.0
59.926693 176.0
60.077782 180.0
60.094753 168.0
60.465626 176.0
60.644295 156.0
61.13451 176.0
61.254398 160.0
61.379078 144.0
61.663204 196.0
61.952682 180.0
62.139248 156.0
62.417263 160.0
62.653351 212.0
62.70472 208.0
62.836235 148.0
63.11422 148.0
63.578785 180.0
64.283348 160.0
64.334427 140.0
64.513351 176.0
64.895988 188.0
65.511536 152.0
66.021584 192.0
66.60994 152.0
66.883118 160.0
67.189476 140.0
67.65197 152.0
67.994553 160.0
68.421936 252.0
68.621284 336.0
68.690552 144.0
70.5037 252.0
70.545486 204.0
71.03302 144.0
72.039452 152.0
73.347801 148.0
73.364845 144.0
73.407471 196.0
73.596878 172.0
74.394707 140.0
74.441071 204.0
74.891663 268.0
75.020905 180.0
75.077805 164.0
75.452499 184.0
75.513023 144.0
75.606445 148.0
76.302017 144.0
76.34549 200.0
76.41333 200.0
76.885551 144.0
77.065414 144.0
77.681671 196.0
78.044418 120.0
78.211403 112.0
79.309242 144.0
79.37484 188.0
79.4245 176.0
79.622147 224.0
79.945068 148.0
80.431633 248.0
81.550095 140.0
82.969978 156.0
83.352951 192.0
83.760483 152.0
83.824249 140.0
83.97374 196.0
84.368919 220.0
84.412041 228.0
84.585846 144.0
84.884483 180.0
85.080803 208.0
85.119362 184.0
85.778015 176.0
85.824112 176.0
86.335617 160.0
87.097374 164.0
88.359428 152.0
88.653404 180.0
89.479881 172.0
89.728577 184.0
89.800232 204.0
90.075813 236.0
90.096588 168.0
90.457787 188.0
90.622551 156.0
91.85257 220.0
92.395103 144.0
92.653557 164.0
93.167709 224.0
93.377228 144.0
93.508057 176.0
93.947388 156.0
94.038078 188.0
94.150658 220.0
94.658653 172.0
95.652702 144.0
95.995605 160.0
96.612816 188.0
96.933922 148.0
97.066147 176.0
97.092712 172.0
98.365738 156.0
98.594849 152.0
98.650192 144.0
99.043976 172.0
99.734489 160.0
100.038834 212.0
100.377541 184.0
100.700844 216.0
100.838699 152.0
101.898758 236.0
102.85936 208.0
102.89772 148.0
102.91185 164.0
103.045151 188.0
103.188652 140.0
103.494171 156.0
104.167488 160.0
104.269081 208.0
104.350395 156.0
104.494797 184.0
104.706497 144.0
105.050911 148.0
105.432785 152.0
105.676125 176.0
105.766167 216.0
106.01194 168.0
106.110329 204.0
106.323654 184.0
106.882614 200.0
106.948463 156.0
107.060753 140.0
107.447159 172.0
107.746513 176.0
107.811096 220.0
108.051613 140.0
108.098015 180.0
108.20565 188.0
108.430946 204.0
109.050346 1860.0
109.449348 152.0
110.052109 152.0
110.143829 168.0
111.171829 200.0
111.825439 176.0
112.088684 196.0
112.641441 148.0
112.675247 144.0
113.299347 180.0
113.41378 160.0
114.361092 184.0
114.397278 176.0
115.928703 148.0
116.419968 224.0
116.452179 172.0
116.497284 224.0
116.69931 144.0
116.844002 188.0
116.89505 160.0
117.097412 164.0
117.707718 156.0
117.832993 188.0
117.991028 132.0
118.44738 172.0
118.495033 168.0
119.034401 144.0
119.4981 184.0
119.574265 188.0
119.591675 176.0
120.053154 196.0
120.533806 196.0
121.047417 200.0
121.188042 144.0
121.251587 156.0
121.26693 192.0
121.354614 164.0
121.549835 140.0
121.692505 176.0
121.916557 188.0
121.984695 140.0
122.070374 640.0
122.541481 156.0
122.801605 172.0
122.909698 168.0
123.074821 164.0
123.194511 212.0
123.497345 176.0
124.018127 176.0
124.652397 168.0
124.714622 256.0
125.044861 168.0
125.090813 132.0
125.582977 196.0
126.45211 196.0
127.429817 144.0
127.74456 180.0
128.143036 136.0
128.792969 188.0
129.118195 172.0
129.620758 164.0
129.749954 164.0
130.426437 164.0
130.647018 152.0
130.731201 148.0
130.868622 196.0
130.945206 172.0
131.485535 140.0
132.053467 384.0
132.500809 232.0
132.734589 152.0
132.879089 152.0
133.043106 308.0
133.310776 176.0
133.359039 160.0
133.685608 200.0
133.856339 168.0
134.04567 5996.0
134.294601 144.0
134.32843 160.0
134.483032 176.0
134.672363 176.0
134.727798 144.0
135.049713 552.0
136.060547 592.0
136.235931 220.0
136.273117 152.0
136.407898 236.0
137.042282 152.0
137.081833 136.0
137.250687 152.0
137.633362 152.0
137.736115 148.0
137.899673 228.0
137.953445 144.0
138.052307 184.0
138.341766 152.0
138.854919 168.0
138.995682 192.0
139.021484 196.0
139.366669 208.0
139.75296 152.0
139.965042 136.0
140.39299 148.0
140.919388 188.0
141.778351 140.0
141.849457 148.0
142.233719 156.0
142.609009 160.0
142.644669 144.0
142.853928 244.0
144.079285 164.0
144.519196 152.0
144.957382 168.0
145.08049 212.0
145.67717 156.0
145.893448 144.0
146.097336 128.0
146.357803 160.0
146.897659 144.0
147.032776 144.0
147.0672 1292.0
147.173019 240.0
148.061005 560.0
148.217712 196.0
148.797394 188.0
149.011185 176.0
149.081436 3388.0
149.123611 152.0
149.193405 168.0
149.453629 180.0
149.492569 172.0
149.671814 188.0
149.939331 160.0
149.966614 136.0
150.039841 140.0
150.065094 25252.0
150.134933 124.0
150.199112 152.0
150.31134 184.0
150.472443 144.0
150.531036 144.0
151.068527 1960.0
151.60495 196.0
151.663773 144.0
151.970322 140.0
152.075394 172.0
152.166672 156.0
152.283188 124.0
152.375427 140.0
152.862747 164.0
153.729691 172.0
153.802811 172.0
154.320053 140.0
154.985855 152.0
155.139526 152.0
155.40329 148.0
155.640686 200.0
156.024216 144.0
156.269531 176.0
157.061295 112.0
157.243881 144.0
157.311264 192.0
158.20372 168.0
158.221237 176.0
158.905441 152.0
159.050995 160.0
159.111252 224.0
159.256897 224.0
159.689194 144.0
160.45723 184.0
160.659073 124.0
160.807861 144.0
161.075516 164.0
161.095718 160.0
161.672195 208.0
162.076767 636.0
162.166061 144.0
163.072144 3048.0
163.10437 172.0
163.266434 116.0
164.029205 168.0
164.092621 5052.0
164.279114 148.0
164.713074 176.0
165.097473 924.0
165.979919 180.0
166.195374 204.0
166.44754 200.0
166.521393 216.0
167.272202 156.0
167.465714 156.0
168.076294 208.0
168.401581 164.0
169.073776 208.0
169.107422 172.0
169.589172 160.0
170.040466 164.0
170.606735 156.0
170.70813 152.0
171.0802 184.0
172.056686 176.0
172.402603 172.0
172.496704 176.0
172.766052 172.0
173.067368 360.0
173.47049 176.0
173.756348 248.0
174.077484 19736.0
174.117783 368.0
174.748688 164.0
174.93895 156.0
175.078888 1772.0
175.168121 144.0
175.215469 176.0
175.277466 136.0
175.305054 160.0
175.513306 204.0
175.770981 192.0
175.99881 176.0
176.078857 784.0
176.557465 136.0
176.810349 152.0
176.847412 168.0
177.088623 180.0
177.23378 196.0
177.918335 212.0
177.982056 152.0
178.102036 244.0
178.250336 148.0
178.460312 192.0
178.646484 172.0
178.86203 140.0
179.592316 152.0
180.912155 156.0
181.04068 152.0
181.372894 156.0
182.812103 148.0
183.545166 140.0
184.052444 144.0
184.85257 164.0
184.985184 156.0
185.079941 140.0
185.164154 180.0
185.399582 156.0
185.727646 168.0
186.077713 156.0
186.270523 148.0
186.365616 172.0
186.822372 192.0
187.524887 176.0
187.823639 260.0
188.100418 164.0
188.449982 220.0
188.780731 208.0
189.084579 248.0
189.481445 180.0
189.804871 152.0
190.088242 288.0
190.125824 208.0
190.161163 128.0
190.435837 144.0
190.484436 164.0
190.715363 160.0
190.763046 168.0
190.818039 156.0
190.842773 188.0
190.86702 172.0
190.898209 168.0
190.957199 208.0
191.014664 176.0
191.036606 180.0
191.074295 352.0
191.105026 232080.0
191.172806 180.0
191.208633 200.0
191.284027 144.0
191.292847 300.0
191.336517 156.0
191.369766 148.0
191.401566 196.0
191.487 112.0
191.521637 208.0
191.557129 1188.0
191.806107 164.0
191.849091 248.0
191.917923 268.0
191.942474 104.0
192.015701 128.0
192.106461 19268.0
192.159637 380.0
192.243362 148.0
192.392166 140.0
192.436111 120.0
192.601105 108.0
192.656952 176.0
192.679047 208.0
192.726151 124.0
192.808228 152.0
192.939758 96.0
192.985046 116.0
193.043213 112.0
193.109131 836.0
193.189438 120.0
193.267273 140.0
193.299683 264.0
193.339752 100.0
193.36087 192.0
193.440582 208.0
193.499802 204.0
193.532883 116.0
193.571747 236.0
193.723312 100.0
194.095474 208.0
194.494965 148.0
194.539383 164.0
194.639771 100.0
194.825409 160.0
195.431503 260.0
195.509415 148.0
195.614044 196.0
196.300568 216.0
198.964264 156.0
199.33783 144.0
200.102905 156.0
201.72789 176.0
202.552872 96.0
204.22319 188.0
205.128677 200.0
205.197083 192.0
205.302597 200.0
206.059006 180.0
208.440048 180.0
210.190796 152.0
210.271606 148.0
210.904129 168.0
211.167252 156.0
211.462357 184.0
212.105377 168.0
213.170517 172.0
213.8685 164.0
214.68718 156.0
215.01976 140.0
215.116089 160.0
215.666855 108.0
218.218582 148.0
221.210052 152.0
223.480408 204.0
223.834625 192.0
227.099915 136.0
229.256744 168.0
232.098251 168.0
232.228653 160.0
233.119949 176.0
234.460236 192.0
234.85965 168.0
235.176971 196.0
236.723938 168.0
236.881195 196.0
237.103806 160.0
237.407303 188.0
237.904373 164.0
238.730286 164.0
240.641327 204.0
241.117111 156.0
241.488037 164.0
241.593216 140.0
242.841537 188.0
243.232483 176.0
245.114685 124.0
245.410187 224.0
245.959259 152.0
247.225052 156.0
248.140015 268.0
248.826782 180.0
248.920975 180.0
249.436234 160.0
250.273071 192.0
253.533051 172.0
253.780304 164.0
254.554535 160.0
254.881714 168.0
256.093964 148.0
256.297668 216.0
256.648285 172.0
256.762238 148.0
257.088501 160.0
257.153076 136.0
257.228943 192.0
258.027588 164.0
258.449768 184.0
260.142212 228.0
260.475922 168.0
261.170227 176.0
261.366486 152.0
261.820374 144.0
261.974976 144.0
261.99884 188.0
263.914642 144.0
265.203064 208.0
265.293854 140.0
266.389465 160.0
267.532135 168.0
267.962006 196.0
268.437897 172.0
269.150848 152.0
269.783081 152.0
270.157013 200.0
270.535522 144.0
274.016693 184.0
274.356171 148.0
275.098419 200.0
276.109497 164.0
276.271576 200.0
277.936615 220.0
278.177032 180.0
281.436401 200.0
281.783752 148.0
282.295166 160.0
282.609589 160.0
283.892517 164.0
283.989777 232.0
284.526672 184.0
285.079346 200.0
285.115112 156.0
285.2211 248.0
285.267914 212.0
285.40094 112.0
285.754517 136.0
285.904327 136.0
286.112427 188.0
286.150543 284.0
286.283783 304.0
286.339752 300.0
286.442474 156.0
286.554688 272.0
286.678009 268.0
286.79364 164.0
286.839966 100.0
286.932159 164.0
287.023682 240.0
287.06424 356.0
287.107117 292.0
287.164062 151056.0
287.33783 128.0
287.452576 196.0
287.478394 484.0
287.5224 384.0
287.583466 464.0
287.685394 156.0
287.718292 5584.0
287.791656 220.0
287.851593 116.0
287.894073 212.0
288.004425 256.0
288.045715 132.0
288.0755 252.0
288.165222 40472.0
288.292755 160.0
288.344971 108.0
288.513153 228.0
288.669769 104.0
288.770844 108.0
288.823334 168.0
288.869354 140.0
288.895386 100.0
288.931244 108.0
289.101349 248.0
289.165894 3848.0
289.305298 168.0
289.511444 120.0
289.583801 128.0
289.803375 192.0
289.827087 100.0
289.877991 336.0
289.924255 128.0
289.956909 112.0
290.003082 100.0
290.041687 124.0
290.089111 200.0
290.138519 280.0
290.170135 292.0
290.301422 168.0
290.338287 124.0
290.371613 128.0
290.405029 140.0
291.181366 248.0
291.532196 148.0
291.803589 104.0
291.901123 120.0
292.092529 148.0
292.219604 144.0
292.50592 104.0
295.220764 140.0
302.013367 148.0
304.550568 156.0
337.826416 152.0
381.333649 148.0
422.293823 148.0
455.943207 124.0
646.007996 152.0
691.281067 152.0
715.08844 140.0
765.949158 152.0
941.296448 140.0
1022.31488 200.0
1032.496704 152.0
1077.41626 164.0
1151.861816 176.0
1153.956787 156.0
1215.518433 184.0
1250.032104 172.0
1264.124268 156.0
1281.741821 180.0
1299.438354 148.0
1304.803345 148.0
1337.974976 196.0
1387.47876 164.0
1387.938477 140.0
1414.371216 164.0
1473.068726 204.0
1504.808838 200.0
1521.384399 144.0
1549.781494 216.0
1618.646973 148.0
1626.747925 184.0
1682.290894 176.0
1687.699463 172.0
1690.194214 184.0
1698.886963 168.0
1705.653442 152.0
1705.735718 152.0
1736.434937 164.0
1756.363525 140.0
1761.614136 148.0
1771.259033 156.0
1772.540894 224.0
1773.328613 160.0
1783.769531 196.0
1801.639038 204.0
1816.500977 172.0
1816.865723 204.0
1836.0979 148.0
1844.6875 172.0
1847.389771 148.0
1848.031494 200.0
1861.557617 240.0
1864.302246 228.0
1894.349976 148.0
1897.504395 168.0
1905.463013 200.0
1907.505249 224.0
1912.435791 164.0
1929.482544 196.0
1945.541016 196.0
1945.751709 180.0
1947.288452 144.0
1949.924194 140.0
1951.383423 236.0
1971.268799 144.0
2000.564697 196.0
2002.977905 216.0
2003.075928 140.0
