>compound Fluperlapine
>formula C19H20FN3
>ionization [M+H]+
>parentmass 310.172974
#inchi InChI=1S/C19H20FN3/c1-22-8-10-23(11-9-22)19-17-5-3-2-4-14(17)12-15-6-7-16(20)13-18(15)21-19/h2-7,13H,8-12H2,1H3
#inchikey OBWGMKKHCLHVIE
#Ion_Source LC-ESI
#Instrument qTof
#Compound_Source Commercial
#PI Dorrestein
#Data_Collector Garg_Neha
#Scan -1
#Precursor_MZ 310.171
#ExactMass 309.164
#Charge 1
#CAS_Number N/A
#Pubmed_ID N/A
#Smiles CN1CCN(CC1)C2=Nc3cc(F)ccc3Cc4ccccc24
#INCHI_AUX N/A
#Library_Class 1
#SpectrumID CCMSLIB00000079088
#IonMode Positive
#UpdateWorkflowName UPDATE-SINGLE-ANNOTATED-GOLD
#LibraryQualityString Gold
#TaskID 278b19f5865741e282cec7349aa7e7a1
##Scan# 1087
#SpectrumFile NCP003432_G2_H11_BD3_01_15725.mzXML
#LibraryName NIHcollectionI_05062014.mgf
#MQScore -1
#Organism NIHcollectionI_05062014
#TIC_Query 0
#RT_Query -1
#MZErrorPPM -1
#SharedPeaks 0
#MassDiff 0
#LibMZ -1
#SpecMZ 310.171
#SpecCharge 0
#internalFilename spec-00000.mgf

>collision 10
44.901955 172.0
46.294281 144.0
46.303761 164.0
46.740887 160.0
47.901901 144.0
48.190235 184.0
48.293915 156.0
48.946178 352.0
49.682751 248.0
49.879349 216.0
50.11578 140.0
50.440372 140.0
51.46183 152.0
51.547531 144.0
51.681942 192.0
52.381107 144.0
53.302853 188.0
53.342735 140.0
55.192207 196.0
55.694599 168.0
55.72134 148.0
56.341103 140.0
56.420311 152.0
56.465168 148.0
57.251572 180.0
57.467125 144.0
57.547119 248.0
57.856621 140.0
58.765907 180.0
59.714138 152.0
59.724903 220.0
60.190327 160.0
60.804905 156.0
61.711517 180.0
62.395092 148.0
62.68943 152.0
63.383137 204.0
63.98988 180.0
64.927864 160.0
65.263481 164.0
65.292419 172.0
65.895287 152.0
66.747704 212.0
66.923584 184.0
67.122375 148.0
67.202301 144.0
67.313293 176.0
67.818817 156.0
68.158524 196.0
68.321289 188.0
68.663902 152.0
69.217651 140.0
69.350044 144.0
69.938019 172.0
70.689034 140.0
70.898361 272.0
72.209862 192.0
72.684196 160.0
73.022263 168.0
74.29483 140.0
75.070549 172.0
75.084343 144.0
75.175774 200.0
75.260353 144.0
75.550713 172.0
77.278328 224.0
77.297577 152.0
78.307014 176.0
78.857483 176.0
79.174164 228.0
79.537628 160.0
79.827225 168.0
80.352669 148.0
80.366943 172.0
80.647316 180.0
81.31897 152.0
81.500343 164.0
82.155685 168.0
82.797348 188.0
82.8843 308.0
83.556091 208.0
84.629265 184.0
84.726334 188.0
86.399811 160.0
86.601578 224.0
87.213875 172.0
87.287552 196.0
88.091515 148.0
88.412735 200.0
88.450546 172.0
88.881592 156.0
88.964172 220.0
89.018616 140.0
89.334373 228.0
89.356949 264.0
89.434105 148.0
90.252846 180.0
90.667412 156.0
91.058144 320.0
92.170753 236.0
92.664398 184.0
92.683556 144.0
93.069092 208.0
93.291962 220.0
93.338104 204.0
93.732704 184.0
93.794373 148.0
94.067154 1008.0
94.097244 156.0
94.174484 180.0
95.067245 212.0
95.375786 156.0
95.587776 152.0
95.669518 156.0
95.725807 176.0
95.850647 152.0
96.081718 14660.0
96.141563 180.0
96.211876 124.0
97.010605 704.0
97.088913 2572.0
97.260712 144.0
97.659576 160.0
97.693298 168.0
97.820923 156.0
98.016907 188.0
98.097305 172.0
98.394592 200.0
99.100349 212.0
100.133629 180.0
100.749985 172.0
100.911865 208.0
101.167938 176.0
101.693115 152.0
102.302162 156.0
102.773766 160.0
103.056435 140.0
103.629028 172.0
104.241806 160.0
104.272285 196.0
105.072922 148.0
105.150078 160.0
105.499359 156.0
106.037689 268.0
106.068436 180.0
106.246841 232.0
106.756226 196.0
106.864166 184.0
107.019608 184.0
107.487503 148.0
107.561798 164.0
107.784851 184.0
107.824112 184.0
108.014328 156.0
108.086906 180.0
108.148827 192.0
108.237846 228.0
108.797638 180.0
109.007416 140.0
109.042747 216.0
109.448395 160.0
109.886093 144.0
110.416664 280.0
110.98893 284.0
111.027313 772.0
111.997093 152.0
112.113327 164.0
112.883484 140.0
113.004509 128.0
113.556244 160.0
114.967445 192.0
115.055557 852.0
115.227951 156.0
116.060532 224.0
116.248421 216.0
116.496208 148.0
116.756279 164.0
116.833717 140.0
116.96283 212.0
117.071259 512.0
118.073982 184.0
120.604767 168.0
121.897797 192.0
122.04287 200.0
122.599785 176.0
122.624023 164.0
122.734245 148.0
123.026527 948.0
123.213188 148.0
124.073318 232.0
124.233757 140.0
125.004471 288.0
125.025078 192.0
125.167221 140.0
125.760223 164.0
125.784775 156.0
126.070656 164.0
127.053604 184.0
127.091743 152.0
127.114182 144.0
128.061935 904.0
128.304001 172.0
128.403214 184.0
128.446075 160.0
128.608536 140.0
128.743988 156.0
128.879532 208.0
129.021912 200.0
129.07193 1368.0
129.336349 208.0
129.968628 160.0
130.070618 428.0
130.229691 148.0
131.13295 140.0
131.18309 168.0
131.441223 176.0
132.064484 160.0
132.288727 144.0
133.063599 160.0
134.668625 176.0
134.871948 144.0
135.026459 1132.0
135.844482 248.0
136.027817 280.0
136.055664 152.0
137.008942 168.0
137.041779 144.0
137.487152 140.0
138.036118 144.0
138.127991 812.0
139.022888 316.0
139.085693 144.0
139.628433 152.0
139.823349 136.0
140.490524 140.0
140.511749 204.0
140.820984 264.0
141.070618 1488.0
141.592865 108.0
141.670166 156.0
141.699585 380.0
141.974991 196.0
142.073334 176.0
142.726303 152.0
142.953293 140.0
143.078506 116.0
144.056168 156.0
144.781769 164.0
144.807236 168.0
145.066711 344.0
145.185898 144.0
146.069763 200.0
147.024048 272.0
147.168701 168.0
148.0392 220.0
149.403259 192.0
149.968185 144.0
150.004761 180.0
150.053513 152.0
150.071243 276.0
150.343781 160.0
150.575699 200.0
150.934937 204.0
151.052628 196.0
151.079224 140.0
151.42926 156.0
151.453751 168.0
151.653641 208.0
152.069092 132.0
153.069778 360.0
154.07782 156.0
154.642303 152.0
155.063553 352.0
155.087036 1768.0
156.091278 304.0
156.561417 148.0
156.638626 140.0
157.063904 264.0
157.10228 148.0
158.099213 200.0
159.056229 896.0
159.099991 220.0
159.979172 176.0
160.062256 160.0
160.548599 164.0
160.765549 200.0
161.051056 140.0
161.513382 192.0
161.963943 228.0
162.503906 172.0
162.53688 152.0
163.098145 164.0
163.555984 184.0
163.810608 232.0
164.062897 164.0
165.040726 156.0
165.068878 1184.0
165.977875 144.0
166.073456 552.0
167.087784 116.0
168.094391 268.0
168.960419 160.0
169.066498 472.0
169.097687 236.0
169.154251 188.0
169.193329 164.0
170.739807 144.0
171.025436 480.0
171.345596 120.0
171.802521 176.0
172.72464 164.0
172.973221 140.0
173.045593 248.0
174.161026 140.0
174.80513 152.0
175.094711 200.0
175.563812 156.0
175.686966 108.0
176.057541 160.0
176.147095 148.0
176.843826 96.0
176.961624 180.0
177.168198 220.0
177.393448 180.0
178.076294 1856.0
178.613907 124.0
178.867722 180.0
179.084045 724.0
179.276428 200.0
179.573792 140.0
179.816589 144.0
180.08522 168.0
180.23584 152.0
180.641281 196.0
180.832184 148.0
181.062439 308.0
181.101089 156.0
181.228516 140.0
181.587723 168.0
181.834549 252.0
182.0896 140.0
182.425476 276.0
182.850677 192.0
183.065475 468.0
183.106216 140.0
183.515808 140.0
184.03511 2412.0
184.061127 428.0
184.112152 372.0
184.174271 160.0
184.293137 176.0
184.665283 108.0
184.996292 184.0
185.042496 2936.0
185.122955 156.0
185.727921 184.0
186.042114 620.0
186.121201 140.0
186.319687 272.0
187.035782 132.0
187.067535 200.0
187.28537 148.0
187.499344 120.0
188.228973 172.0
188.324554 148.0
188.589584 276.0
188.618744 156.0
189.002533 140.0
189.072296 392.0
190.075424 1084.0
190.89798 232.0
190.937881 180.0
191.085068 1044.0
191.200577 172.0
191.588821 232.0
192.091782 452.0
192.661957 156.0
192.695114 148.0
193.040619 168.0
193.103638 392.0
193.735336 216.0
193.8517 144.0
194.074585 308.0
194.09819 152.0
194.392441 184.0
194.439606 156.0
194.581177 156.0
194.753601 192.0
195.044754 156.0
195.115967 164.0
195.693283 172.0
196.031219 160.0
196.068756 196.0
196.111237 600.0
196.384369 148.0
196.493164 140.0
196.705246 172.0
197.013489 132.0
197.042343 4140.0
197.078125 308.0
197.119675 496.0
197.509995 216.0
197.736633 176.0
197.994034 140.0
198.045776 944.0
198.130997 512.0
198.315506 228.0
198.692139 160.0
199.055099 620.0
199.087906 164.0
199.130981 180.0
199.522873 160.0
200.026215 148.0
200.064438 464.0
200.159286 144.0
201.02832 156.0
201.191208 144.0
201.64032 160.0
202.047424 152.0
202.07637 660.0
202.316345 176.0
203.085953 1420.0
203.893417 176.0
204.091476 1240.0
204.946289 148.0
205.063538 248.0
205.101822 3904.0
205.336823 160.0
205.870499 192.0
206.073929 200.0
206.108292 1860.0
207.048721 152.0
207.083084 196.0
207.111328 416.0
207.256149 116.0
207.429794 144.0
208.035385 544.0
208.118317 180.0
208.454391 140.0
208.833069 188.0
208.888519 152.0
209.042511 896.0
209.118713 208.0
209.297195 140.0
209.559296 140.0
209.786972 176.0
210.014771 248.0
210.071701 12324.0
210.113144 152.0
210.774017 184.0
211.063782 1376.0
211.158203 196.0
211.615707 160.0
211.832901 164.0
212.061081 316.0
212.085907 104.0
212.108185 132.0
212.505478 144.0
213.038055 13720.0
213.087204 168.0
213.501816 152.0
213.650146 160.0
213.833466 208.0
214.040924 1904.0
214.080917 164.0
214.117279 148.0
214.299377 140.0
214.383881 212.0
214.681229 200.0
214.914581 296.0
215.037399 452.0
215.086517 1392.0
216.093323 1716.0
216.484268 244.0
216.583847 172.0
216.698105 140.0
217.098526 688.0
217.199387 188.0
217.249252 168.0
217.75705 156.0
218.069717 276.0
218.107574 352.0
219.085495 428.0
219.154358 180.0
219.552292 184.0
220.088135 224.0
220.113846 340.0
220.183853 144.0
221.042206 2912.0
221.104263 320.0
221.603714 220.0
222.050858 1404.0
222.087646 260.0
222.134369 208.0
222.184799 216.0
222.227173 156.0
222.336136 176.0
222.784485 164.0
223.056915 2340.0
223.139572 156.0
223.286804 200.0
223.780777 180.0
224.035873 156.0
224.06723 1728.0
224.618179 168.0
224.86882 144.0
225.039368 396.0
225.072281 404.0
226.04039 308.0
226.079865 140.0
226.122391 168.0
226.201889 140.0
226.690079 176.0
226.90889 152.0
226.941864 184.0
227.053192 288.0
227.098068 312.0
228.007507 216.0
228.103683 336.0
229.000336 152.0
230.091919 148.0
231.084198 224.0
232.032013 152.0
232.090805 344.0
232.122131 152.0
233.042175 144.0
233.095367 552.0
233.728989 188.0
234.051819 3952.0
234.10556 228.0
234.350128 156.0
234.383652 160.0
235.056107 3688.0
235.591827 140.0
235.995255 140.0
236.062363 584.0
236.172623 176.0
236.249084 144.0
236.362885 184.0
236.506119 180.0
236.640823 148.0
236.931763 216.0
237.035446 744.0
237.074265 656.0
237.140137 160.0
237.248917 148.0
237.497986 148.0
237.802826 120.0
237.974518 144.0
238.043671 588.0
238.085693 472.0
238.223282 152.0
239.051758 1012.0
239.090179 1368.0
239.567596 176.0
240.057938 640.0
240.093063 576.0
240.319839 164.0
241.076157 232.0
242.193222 140.0
242.592941 164.0
242.952667 232.0
243.303345 244.0
244.106522 256.0
244.792664 164.0
245.099792 308.0
246.051987 136.0
246.08667 168.0
246.455215 144.0
246.964783 144.0
247.058304 512.0
247.340256 160.0
247.972946 160.0
248.063797 356.0
248.118866 164.0
248.656647 160.0
249.039337 140.0
249.073181 2932.0
249.1465 144.0
249.196762 148.0
250.04454 3048.0
250.078156 624.0
250.11438 296.0
250.905701 224.0
250.978607 164.0
251.055573 616.0
251.084351 592.0
251.135895 300.0
252.054367 364.0
252.103745 284.0
252.127243 144.0
252.376968 208.0
252.828018 136.0
252.976334 124.0
253.070801 848.0
253.114609 36108.0
253.179535 236.0
253.256073 108.0
253.332611 96.0
253.630798 136.0
253.750397 108.0
253.918488 156.0
254.010025 244.0
254.070969 152.0
254.117004 5696.0
254.152832 292.0
254.313538 116.0
254.378113 144.0
254.550644 212.0
255.124771 1044.0
255.25795 184.0
255.76413 248.0
255.861954 160.0
256.073853 192.0
256.119873 152.0
257.122864 172.0
258.123352 372.0
258.858734 160.0
259.05835 192.0
259.130157 260.0
259.236725 164.0
259.445038 196.0
260.068939 124.0
260.142242 108.0
260.333832 148.0
261.072571 636.0
261.439667 152.0
261.526581 156.0
262.074585 364.0
262.122162 132.0
262.552399 148.0
263.044495 164.0
263.074463 248.0
263.125458 164.0
263.170654 212.0
263.191559 156.0
263.361176 168.0
263.529175 160.0
263.603485 168.0
264.058777 208.0
264.092651 124.0
265.067322 916.0
266.07666 232.0
267.086212 612.0
267.589813 188.0
267.658203 160.0
268.087982 172.0
268.123352 172.0
268.192474 208.0
268.319611 180.0
268.629395 152.0
269.097229 172.0
269.697174 144.0
270.394104 132.0
271.133942 272.0
273.107147 152.0
273.739014 160.0
274.06842 144.0
274.183746 140.0
275.018158 148.0
275.091309 148.0
275.870392 160.0
276.081818 120.0
276.14151 160.0
276.919312 160.0
277.089172 316.0
277.860718 160.0
278.089569 152.0
278.113251 156.0
278.99649 156.0
279.080292 136.0
279.129883 4908.0
279.536591 196.0
279.645142 148.0
279.698395 204.0
280.097504 188.0
280.131592 968.0
280.841736 108.0
281.139587 256.0
281.892334 96.0
281.947174 128.0
282.096741 148.0
282.126862 392.0
283.549408 172.0
283.904755 160.0
284.84787 144.0
286.772522 180.0
287.93988 148.0
288.352051 164.0
288.974243 176.0
289.092682 168.0
289.529358 248.0
290.098602 260.0
291.323639 184.0
292.115967 1624.0
292.16333 152.0
293.115753 752.0
293.353638 224.0
293.798523 280.0
294.11618 144.0
294.693024 228.0
295.104309 140.0
295.936432 176.0
296.104218 116.0
297.082642 140.0
297.830963 204.0
298.21579 188.0
298.432343 168.0
298.752197 144.0
299.344177 148.0
299.626617 340.0
300.319489 148.0
300.605835 240.0
300.840515 188.0
302.205658 160.0
303.823578 168.0
303.886047 184.0
304.642853 196.0
305.073761 176.0
305.230225 152.0
305.609344 140.0
305.891235 164.0
306.227325 176.0
306.791779 188.0
307.491089 200.0
307.634979 176.0
308.062988 112.0
308.112091 280.0
308.197418 164.0
308.257812 240.0
308.296997 132.0
308.369781 128.0
308.503632 144.0
308.614807 128.0
308.671448 104.0
308.774445 108.0
308.842255 160.0
308.942169 180.0
309.011139 172.0
309.071716 168.0
309.107117 188.0
309.181793 132.0
309.241394 164.0
309.320801 204.0
309.391479 200.0
309.467651 236.0
309.616699 180.0
309.663605 164.0
309.724152 304.0
309.77417 96.0
309.817963 208.0
309.851379 144.0
309.883759 252.0
309.970551 132.0
310.016357 424.0
310.072449 444.0
310.128906 223916.0
310.172974 38364.0
310.230988 192.0
310.317108 256.0
310.35675 292.0
310.441772 308.0
310.485626 176.0
310.511536 268.0
310.56546 132.0
310.580231 152.0
310.631104 240.0
310.704712 3952.0
310.749878 412.0
310.834473 168.0
310.878143 208.0
310.976288 208.0
311.013153 168.0
311.046387 128.0
311.130646 64936.0
311.174988 6852.0
311.226959 400.0
311.281158 168.0
311.481567 216.0
311.50946 116.0
311.580627 136.0
311.63327 164.0
311.715546 144.0
311.757538 256.0
311.784119 184.0
311.817413 192.0
311.879669 140.0
311.930084 304.0
311.963043 248.0
311.994415 132.0
312.020782 160.0
312.044067 240.0
312.081116 336.0
312.125977 14628.0
312.177368 1216.0
312.240021 280.0
312.426727 320.0
312.517273 288.0
312.716766 236.0
312.777008 240.0
312.846375 144.0
312.877228 148.0
312.939941 100.0
312.985168 248.0
313.020203 124.0
313.087708 224.0
313.126465 1056.0
313.203644 4548.0
313.258942 220.0
313.296783 400.0
313.324127 192.0
313.420441 204.0
313.535034 148.0
313.838074 112.0
314.155334 136.0
314.197235 112.0
314.250549 276.0
314.361938 124.0
314.465759 116.0
315.166809 152.0
320.511292 192.0
322.696747 112.0
323.29303 160.0
325.862915 136.0
351.144379 152.0
406.289429 208.0
459.209198 176.0
487.836914 116.0
540.068176 160.0
587.57666 144.0
741.552979 180.0
1067.056641 144.0
1161.034668 284.0
1205.264404 160.0
1217.414429 140.0
1242.739014 164.0
1362.870605 140.0
1371.952515 152.0
1404.111084 192.0
1470.934814 164.0
1499.406006 224.0
1515.665039 160.0
1520.705688 188.0
1556.052124 176.0
1590.788452 144.0
1609.026855 208.0
1623.108521 144.0
1626.381714 172.0
1634.748047 180.0
1648.836548 148.0
1655.114014 236.0
1660.146118 164.0
1672.796387 176.0
1710.45105 176.0
1724.786987 224.0
1744.864746 156.0
1747.34314 148.0
1755.522583 172.0
1756.989624 172.0
1782.519165 180.0
1788.608032 224.0
1792.456787 296.0
1794.547119 144.0
1802.784546 176.0
1834.503662 168.0
1835.091919 192.0
1863.301147 156.0
1870.24939 192.0
1875.029419 224.0
1876.218994 152.0
1888.091553 160.0
1893.361938 196.0
1894.427368 148.0
1907.139404 192.0
1910.922241 240.0
1913.428711 156.0
1938.391602 176.0
1947.945801 144.0
1950.353516 180.0
2000.064087 140.0
