>compound MLS001076475-01!TETRAETHYLTHIURAM DISULFIDE97-77-8
>formula C10H20N2S4
>ionization [M+H]+
>parentmass 297.06
#inchi InChI=1S/C10H20N2S4/c1-5-11(6-2)9(13)15-16-10(14)12(7-3)8-4/h5-8H2,1-4H3
#inchikey AUZONCFQVSMFAP
#Ion_Source LC-ESI
#Instrument qTof
#Compound_Source NIH Pharmacologically Active Library
#PI Dorrestein
#Data_Collector VP/LMS
#Scan -1
#Precursor_MZ 297.06
#ExactMass 296.051
#Charge 1
#CAS_Number N/A
#Pubmed_ID N/A
#Smiles CCN(CC)C(=S)SSC(=S)N(CC)CC
#INCHI_AUX N/A
#Library_Class 1
#SpectrumID CCMSLIB00000084791
#IonMode Positive
#UpdateWorkflowName UPDATE-SINGLE-ANNOTATED-GOLD
#LibraryQualityString Gold
#TaskID d252d724072548979f1f6f1ced849daf
##Scan# 2533
#SpectrumFile p3-A09_GA9_01_18230.mzXML
#LibraryName Pharm_Active_Library.mgf
#MQScore -1
#Organism Pharm_Active_Library
#TIC_Query 0
#RT_Query -1
#MZErrorPPM -1
#SharedPeaks 0
#MassDiff 0
#LibMZ -1
#SpecMZ 297.06
#SpecCharge 0
#internalFilename spec-00000.mgf

>collision 10
45.152306 212.0
48.022484 188.0
48.994217 60.0
50.09676 176.0
50.46653 192.0
50.795094 208.0
51.043636 116.0
51.542545 208.0
51.563984 128.0
52.488506 140.0
53.322365 120.0
53.827881 184.0
54.409161 172.0
54.613419 76.0
55.064434 128.0
55.120571 188.0
55.357254 196.0
55.989891 244.0
59.538258 188.0
60.084698 128.0
64.71727 212.0
64.774925 236.0
66.900124 108.0
68.89267 176.0
69.397446 96.0
69.667969 156.0
69.934021 220.0
72.014824 192.0
72.444466 140.0
72.537666 124.0
72.639412 96.0
75.458366 188.0
76.127205 168.0
76.57589 248.0
77.42643 212.0
77.95623 204.0
81.558945 124.0
81.864799 216.0
82.999611 44.0
83.926933 176.0
84.363281 188.0
84.798927 224.0
85.011658 112.0
85.649628 176.0
86.212349 160.0
87.068237 168.0
88.023094 324.0
89.710274 200.0
91.048004 148.0
94.194984 228.0
95.320618 136.0
96.435349 144.0
97.210884 156.0
98.921646 104.0
100.077087 192.0
103.938446 36.0
104.05439 340.0
106.262436 152.0
106.710167 156.0
107.344353 56.0
108.597603 156.0
109.09803 180.0
110.177536 72.0
110.811447 132.0
111.581688 148.0
112.097359 160.0
112.147942 148.0
112.975685 224.0
113.984619 136.0
114.033768 144.0
114.879097 204.0
115.952469 128.0
116.053986 6420.0
116.106827 156.0
116.233391 56.0
116.323532 84.0
116.347145 32.0
116.405113 40.0
116.568367 76.0
116.693039 56.0
116.88446 84.0
117.052971 252.0
117.13205 92.0
117.908783 84.0
118.047859 360.0
118.081734 136.0
118.168266 168.0
118.226685 92.0
118.408539 168.0
119.326416 208.0
119.628807 128.0
119.996986 168.0
121.238541 180.0
122.059532 76.0
126.103226 168.0
126.649147 228.0
126.976379 228.0
127.767044 204.0
129.997131 120.0
130.178741 208.0
132.713852 120.0
133.561249 160.0
134.118469 96.0
134.203766 136.0
136.405396 116.0
136.917267 152.0
137.138596 68.0
140.357361 136.0
140.602707 144.0
141.970078 108.0
143.365524 156.0
144.088501 140.0
145.4823 176.0
146.061417 140.0
147.735504 128.0
147.890366 116.0
147.977509 140.0
148.02504 9612.0
148.062256 56.0
148.14946 96.0
148.187393 108.0
148.236679 152.0
148.304535 68.0
148.590683 92.0
148.844345 96.0
149.029602 572.0
149.105453 64.0
149.587051 32.0
149.625992 44.0
149.774536 84.0
149.811081 108.0
150.017563 900.0
150.101105 32.0
150.18158 60.0
151.025177 156.0
163.147675 156.0
197.01915 172.0
202.556747 20.0
206.67482 100.0
212.138245 184.0
222.12056 124.0
243.000107 172.0
253.536362 80.0
255.177414 164.0
265.015015 36.0
297.138702 200.0
298.209442 180.0
351.521271 44.0
691.484009 80.0
916.90271 148.0
982.914368 156.0
1026.395752 88.0
1047.874023 200.0
1067.564331 112.0
1072.088623 216.0
1088.159912 140.0
1097.107178 188.0
1137.265869 200.0
1138.158691 188.0
1162.560181 156.0
1176.54834 136.0
1177.668213 164.0
1190.069824 36.0
1205.699707 168.0
1211.193115 88.0
1216.747681 176.0
1226.061401 268.0
1240.375366 188.0
1241.83374 168.0
1247.366699 252.0
1250.503784 176.0
1256.42981 184.0
1262.299072 256.0
1264.209106 140.0
1268.997314 36.0
1279.241699 168.0
1309.731812 224.0
1311.691772 124.0
1316.807373 132.0
1335.361328 172.0
1339.714111 180.0
1339.990967 192.0
1345.358521 200.0
1356.807495 160.0
1366.384155 148.0
1367.988525 56.0
1371.988647 216.0
1377.789185 56.0
1379.725342 164.0
1384.090576 136.0
1384.246094 196.0
1387.432007 84.0
1395.799561 192.0
1399.743286 216.0
1400.517822 224.0
1403.864136 124.0
1410.389282 196.0
1410.770508 168.0
1411.533081 204.0
1421.998535 204.0
1425.415527 136.0
1427.046509 128.0
1434.642822 216.0
1439.086426 148.0
1440.944336 120.0
1443.529297 168.0
1446.503418 196.0
1446.752441 100.0
1451.783447 160.0
1453.793823 160.0
1456.428223 176.0
1458.59375 52.0
1459.924316 40.0
1468.148926 172.0
1469.956787 100.0
1496.369873 212.0
1496.493042 200.0
1497.609741 148.0
1501.725464 176.0
