>compound Elvitegravir (GS-9137)
>formula C23H23ClFNO5
>ionization [M+H]+
>parentmass 448.133423
#inchi InChI=1S/C23H23ClFNO5/c1-12(2)19(11-27)26-10-16(23(29)30)22(28)15-8-14(20(31-3)9-18(15)26)7-13-5-4-6-17(24)21(13)25/h4-6,8-10,12,19,27H,7,11H2,1-3H3,(H,29,30)/t19-/m1/s1
#inchikey JUZYLCPPVHEVSV
#Ion_Source LC-ESI
#Instrument qTof
#Compound_Source Commercial
#PI Dorrestein
#Data_Collector Garg_Neha
#Scan -1
#Precursor_MZ 448.132
#ExactMass 447.125
#Charge 1
#CAS_Number 697761-98-1, 697762-15-5 (sodium salt)
#Pubmed_ID N/A
#Smiles C1=CC(=C(C(=C1)Cl)F)CC2=CC3=C(C=C2OC)N(C=C(C3=O)C(O)=O)[C@@H](C(C)C)CO
#INCHI_AUX N/A
#Library_Class 1
#SpectrumID CCMSLIB00000078379
#IonMode Positive
#UpdateWorkflowName UPDATE-SINGLE-ANNOTATED-GOLD
#LibraryQualityString Gold
#TaskID 77f51c88eb8b467eb4a01dd2d0cb90d2
##Scan# 2272
#SpectrumFile Plate6_21_40_GD8_01_15775.mzXML
#LibraryName FDALibrary_2_04302014.mgf
#MQScore -1
#Organism FDALibrary_2_04302014
#TIC_Query 0
#RT_Query -1
#MZErrorPPM -1
#SharedPeaks 0
#MassDiff 0
#LibMZ -1
#SpecMZ 448.132
#SpecCharge 0
#internalFilename spec-00000.mgf

>collision 10
46.248085 188.0
46.569443 144.0
58.405216 192.0
59.53627 140.0
59.791481 148.0
60.119751 184.0
61.987522 188.0
63.002403 240.0
69.735992 204.0
70.175484 160.0
78.961372 168.0
79.794823 156.0
82.471405 188.0
90.177269 200.0
98.778374 156.0
109.634689 144.0
118.062302 156.0
121.969604 256.0
122.387611 152.0
124.064583 140.0
124.712776 160.0
125.295815 220.0
126.450302 176.0
126.835564 208.0
135.285828 220.0
136.478378 192.0
137.386719 152.0
137.888763 180.0
142.517258 176.0
142.712158 144.0
143.004532 4120.0
143.047623 152.0
144.005753 128.0
144.501038 208.0
145.001663 1112.0
145.738251 152.0
146.005081 264.0
146.036362 192.0
146.527451 148.0
146.544312 236.0
147.768448 164.0
149.19696 164.0
151.180038 144.0
152.008347 164.0
152.861069 152.0
156.044556 152.0
157.093063 152.0
157.837341 184.0
161.438461 176.0
161.544693 140.0
164.71727 144.0
165.753448 152.0
167.274414 148.0
169.654358 160.0
170.72818 164.0
170.759384 180.0
173.241806 204.0
174.23349 140.0
174.648834 180.0
175.019913 156.0
175.346588 156.0
176.434143 196.0
178.085052 160.0
178.621994 196.0
181.077682 228.0
183.057907 308.0
184.038177 488.0
184.78183 140.0
185.049774 176.0
185.757126 160.0
186.054245 264.0
186.498444 172.0
187.056076 172.0
188.160187 180.0
189.686722 168.0
193.643616 172.0
194.619781 188.0
200.193054 156.0
208.325409 160.0
208.500687 156.0
211.856537 140.0
214.048996 2164.0
215.053238 260.0
215.075699 212.0
215.63942 156.0
216.531799 196.0
216.684113 148.0
217.262863 268.0
226.080261 156.0
226.658234 164.0
228.863022 140.0
232.064911 304.0
233.009811 148.0
233.066757 140.0
234.357681 156.0
235.956085 124.0
236.128281 148.0
236.229218 244.0
238.067093 168.0
238.200333 168.0
238.867401 160.0
239.593933 172.0
240.756821 156.0
241.885376 172.0
242.012314 168.0
242.058624 540.0
243.058304 128.0
243.351776 188.0
243.42009 184.0
243.839493 200.0
243.942078 144.0
245.040054 164.0
246.050934 236.0
247.091949 156.0
248.031448 152.0
249.036667 568.0
249.092072 140.0
249.66098 148.0
251.939926 176.0
252.085281 176.0
253.025681 248.0
253.09436 148.0
257.87912 152.0
260.06543 124.0
260.721985 172.0
261.042664 184.0
261.490662 172.0
262.81192 156.0
263.632141 140.0
266.044678 156.0
266.067291 112.0
269.001221 160.0
269.657776 156.0
269.700256 216.0
270.004333 188.0
271.032257 152.0
272.834167 156.0
273.034454 300.0
274.043945 140.0
274.177185 180.0
275.0271 456.0
275.834106 172.0
276.015961 168.0
276.056458 472.0
277.026215 264.0
278.054779 112.0
280.014954 264.0
280.754852 196.0
281.472321 176.0
283.519653 140.0
284.465546 176.0
286.0354 144.0
286.136383 152.0
287.231659 196.0
288.052582 176.0
288.339142 156.0
290.031494 148.0
292.174316 188.0
292.293396 156.0
292.388702 148.0
292.565704 140.0
293.755035 168.0
293.894928 192.0
294.065552 148.0
294.728088 240.0
295.66507 164.0
296.994476 180.0
297.141968 180.0
298.433411 240.0
298.670715 192.0
298.808319 176.0
299.146637 104.0
299.452057 176.0
300.051697 612.0
301.05954 328.0
302.057922 140.0
302.279541 140.0
302.789978 252.0
302.871582 140.0
305.026459 184.0
305.315063 140.0
306.533508 164.0
306.976227 180.0
308.012817 144.0
308.110626 160.0
309.033661 192.0
309.516693 164.0
309.796906 156.0
311.181183 172.0
312.018433 216.0
312.217133 180.0
313.15152 160.0
314.078552 156.0
314.307861 156.0
316.051422 1220.0
316.595062 268.0
316.759308 128.0
316.867798 228.0
317.05545 320.0
318.050751 460.0
318.506805 176.0
318.912476 160.0
320.11438 144.0
320.606018 160.0
321.012421 140.0
321.706238 192.0
322.898071 172.0
323.222382 128.0
323.474152 148.0
324.909515 168.0
326.376648 216.0
327.128601 144.0
327.269012 152.0
329.025269 192.0
330.025574 180.0
331.028442 112.0
332.232788 128.0
333.397003 148.0
333.422424 176.0
333.447876 188.0
333.836884 180.0
333.909607 204.0
335.661316 212.0
338.017487 216.0
338.855988 140.0
339.174805 160.0
339.574493 220.0
339.691864 140.0
341.318909 144.0
341.370392 172.0
341.691376 136.0
342.421478 132.0
342.964569 140.0
343.062897 172.0
343.147491 140.0
343.321075 220.0
343.395966 152.0
343.514008 148.0
343.74646 144.0
343.787048 148.0
343.815033 144.0
343.853088 156.0
343.953125 344.0
343.999115 252.0
344.048462 85148.0
344.157074 200.0
344.204071 132.0
344.471375 192.0
344.622681 96.0
344.669525 124.0
344.724121 152.0
344.963165 104.0
345.0513 15084.0
345.115509 144.0
345.174011 132.0
345.280945 136.0
345.470337 168.0
345.678009 100.0
345.957489 160.0
346.045135 19212.0
346.152985 184.0
346.198914 116.0
346.35968 192.0
346.796204 168.0
347.046844 4560.0
347.223999 104.0
347.307251 196.0
347.363983 108.0
347.592712 108.0
347.639526 164.0
348.045349 236.0
348.087189 196.0
348.221283 176.0
349.013947 164.0
350.207275 160.0
356.614349 260.0
357.614868 152.0
360.881348 120.0
361.176819 172.0
361.318756 224.0
361.524902 160.0
361.823944 224.0
362.058258 24812.0
362.223846 208.0
362.301666 116.0
362.59671 152.0
362.72348 108.0
363.060852 6608.0
363.106628 200.0
363.295837 104.0
363.490509 132.0
364.055481 8372.0
364.144684 148.0
364.551208 144.0
364.790649 152.0
365.057678 1340.0
365.23938 144.0
365.267944 124.0
365.560425 136.0
365.656555 124.0
365.882507 196.0
366.059784 216.0
366.700653 108.0
366.880646 140.0
368.498108 120.0
371.726837 172.0
373.686523 140.0
374.055969 156.0
375.952301 164.0
376.720673 148.0
378.379791 156.0
378.573395 228.0
379.770996 160.0
380.457855 168.0
380.896667 208.0
383.581696 140.0
384.225159 176.0
384.685669 184.0
384.861359 148.0
385.078308 164.0
385.173798 168.0
385.201141 232.0
386.573517 140.0
387.074585 184.0
387.881683 176.0
389.44339 192.0
390.272614 148.0
391.827301 152.0
392.072052 176.0
394.253296 148.0
394.989471 184.0
395.452423 140.0
395.96991 148.0
399.71875 160.0
400.885559 188.0
404.860565 168.0
406.13913 192.0
406.576447 188.0
406.704895 168.0
408.034576 164.0
408.085815 108.0
408.814941 152.0
409.064484 188.0
410.394012 168.0
412.110657 252.0
413.856812 176.0
420.82196 156.0
421.800323 100.0
421.85968 172.0
422.141815 180.0
424.730286 140.0
427.282806 156.0
428.166412 148.0
428.417694 144.0
428.865662 140.0
429.039978 120.0
429.384094 124.0
429.452362 168.0
429.501862 164.0
429.769257 132.0
430.011444 192.0
430.043182 208.0
430.121185 50692.0
430.506622 100.0
430.700043 116.0
430.792694 148.0
430.837006 140.0
431.020142 128.0
431.055359 308.0
431.123322 13552.0
431.478516 180.0
431.638184 144.0
432.047394 320.0
432.119202 15120.0
433.121521 3680.0
433.460175 184.0
433.624908 100.0
433.924286 136.0
434.028381 140.0
434.123535 384.0
434.366455 168.0
434.596771 116.0
434.851929 220.0
436.271729 120.0
439.141632 148.0
440.390717 172.0
442.581055 140.0
442.689911 156.0
442.861633 200.0
442.978912 168.0
443.066895 176.0
443.48175 172.0
443.976501 140.0
444.452209 148.0
444.601593 232.0
445.382538 212.0
445.79007 156.0
446.141754 148.0
446.207611 108.0
446.496368 160.0
446.525818 156.0
446.748749 192.0
446.850983 124.0
447.046082 212.0
447.131042 216.0
447.233978 104.0
447.27594 276.0
447.34491 120.0
447.435608 216.0
447.531921 228.0
447.627136 132.0
447.709747 128.0
447.739624 176.0
447.825256 180.0
447.84259 248.0
447.875549 360.0
447.937042 220.0
447.996338 256.0
448.066132 484.0
448.133423 168320.0
448.475403 184.0
448.510956 228.0
448.561523 196.0
448.616882 240.0
448.667786 164.0
448.704529 128.0
448.774445 188.0
448.827515 1292.0
448.892303 252.0
448.937866 180.0
448.99115 244.0
449.037476 348.0
449.081665 260.0
449.136139 49124.0
449.268616 228.0
449.296143 336.0
449.339539 144.0
449.49939 136.0
449.5784 224.0
449.773712 180.0
449.825958 188.0
449.857574 272.0
449.917938 192.0
449.98233 208.0
450.011353 96.0
450.130341 66800.0
450.243073 228.0
450.315247 140.0
450.371216 352.0
450.444946 140.0
450.473206 184.0
450.605896 144.0
450.646729 184.0
450.755188 156.0
450.83078 160.0
450.866058 164.0
451.132904 14256.0
451.214722 432.0
451.247345 196.0
451.288605 156.0
451.394043 104.0
451.482697 124.0
451.575439 104.0
451.612183 220.0
451.629059 156.0
451.698792 100.0
451.812561 108.0
451.889618 188.0
451.92041 236.0
451.968567 96.0
452.134644 1416.0
452.196075 160.0
452.423309 132.0
452.475769 180.0
452.573212 120.0
452.749969 160.0
452.78772 116.0
453.037109 244.0
453.226776 176.0
453.36441 96.0
453.806152 124.0
453.847015 152.0
453.931335 208.0
454.062653 304.0
454.264679 108.0
454.839508 104.0
455.393311 156.0
464.733032 120.0
465.537994 124.0
468.244598 124.0
474.447113 152.0
483.895935 116.0
513.884094 152.0
538.417358 164.0
587.69043 96.0
626.790833 104.0
640.622559 140.0
1086.02002 148.0
1918.242188 172.0
1950.139771 140.0
