>compound Gefitinib (Iressa)
>formula C22H24ClFN4O3
>ionization [M+H]+
>parentmass 447.158752
#inchi InChI=1S/C22H24ClFN4O3/c1-29-20-13-19-16(12-21(20)31-8-2-5-28-6-9-30-10-7-28)22(26-14-25-19)27-15-3-4-18(24)17(23)11-15/h3-4,11-14H,2,5-10H2,1H3,(H,25,26,27)
#inchikey XGALLCVXEZPNRQ
#Ion_Source LC-ESI
#Instrument qTof
#Compound_Source Commercial
#PI Dorrestein
#Data_Collector Garg_Neha
#Scan -1
#Precursor_MZ 447.159
#ExactMass 446.152
#Charge 1
#CAS_Number 184475-35-2, 184475-55-6 (HCl)
#Pubmed_ID N/A
#Smiles C1(=C(C=C2C(=C1)N=CN=C2NC3=CC=C(C(=C3)Cl)F)OCCCN4CCOCC4)OC
#INCHI_AUX N/A
#Library_Class 1
#SpectrumID CCMSLIB00000078003
#IonMode Positive
#UpdateWorkflowName UPDATE-SINGLE-ANNOTATED-GOLD
#LibraryQualityString Gold
#TaskID 77f51c88eb8b467eb4a01dd2d0cb90d2
##Scan# 1079
#SpectrumFile Plate1_1_20_GG1_01_16488.mzXML
#LibraryName FDALibrary_2_04302014.mgf
#MQScore -1
#Organism FDALibrary_2_04302014
#TIC_Query 0
#RT_Query -1
#MZErrorPPM -1
#SharedPeaks 0
#MassDiff 0
#LibMZ -1
#SpecMZ 447.159
#SpecCharge 0
#internalFilename spec-00000.mgf

>collision 10
45.153458 192.0
45.228386 208.0
45.365021 140.0
45.526035 196.0
45.781559 144.0
46.476395 176.0
46.488609 164.0
46.586372 180.0
46.921165 204.0
47.054874 184.0
47.102318 184.0
47.339291 208.0
47.432461 184.0
47.682274 208.0
47.748268 220.0
48.015461 172.0
48.085827 188.0
48.130001 184.0
48.153481 224.0
48.352577 164.0
48.437038 168.0
48.878548 188.0
49.243809 172.0
49.77319 196.0
49.919334 144.0
50.043163 208.0
50.222141 196.0
50.98814 204.0
51.107597 188.0
51.443954 140.0
51.857357 164.0
52.848167 264.0
54.219975 164.0
54.793068 184.0
54.832851 180.0
55.003956 288.0
55.704395 188.0
55.774235 204.0
56.198681 172.0
56.313633 184.0
56.725132 168.0
56.735622 212.0
56.996788 168.0
58.803562 192.0
59.055668 220.0
59.236298 156.0
59.673691 196.0
59.764442 220.0
59.866039 156.0
60.294933 212.0
61.115288 180.0
61.238274 140.0
61.479935 256.0
61.676735 192.0
62.06657 228.0
62.173244 148.0
62.402588 180.0
62.419109 180.0
62.542603 140.0
62.615032 196.0
63.078934 148.0
63.687424 168.0
63.770046 144.0
63.898857 152.0
64.097893 236.0
64.36908 208.0
64.746498 188.0
66.925652 168.0
67.04232 140.0
67.081436 164.0
67.149925 140.0
67.220078 156.0
67.545212 228.0
67.730186 168.0
67.83342 164.0
68.505554 220.0
69.328415 232.0
69.823158 168.0
70.576935 196.0
70.833 232.0
71.096245 160.0
71.214256 220.0
71.61409 212.0
71.68148 264.0
72.160858 152.0
72.884628 184.0
72.916916 180.0
73.001923 188.0
73.1091 172.0
73.333923 224.0
73.490814 284.0
74.590332 216.0
75.194931 164.0
75.483437 188.0
75.50592 220.0
75.658195 152.0
76.116943 152.0
78.629974 176.0
79.45459 200.0
79.600136 152.0
80.055389 196.0
80.1409 204.0
80.515518 188.0
81.481033 212.0
81.768753 188.0
83.047997 176.0
84.81675 180.0
84.996483 160.0
86.008728 176.0
86.19342 208.0
86.667122 156.0
88.908684 164.0
88.94059 164.0
89.053253 156.0
89.48719 208.0
90.162994 220.0
91.144646 236.0
91.418488 212.0
92.506447 168.0
93.498817 140.0
94.301163 180.0
94.58744 152.0
94.773369 164.0
97.346382 264.0
97.800545 216.0
98.05069 224.0
98.230125 140.0
98.399849 160.0
98.439339 160.0
99.248688 176.0
99.36174 176.0
99.466927 236.0
99.878258 160.0
100.075844 6184.0
100.142563 248.0
100.390129 196.0
100.465927 144.0
100.872459 148.0
101.080162 572.0
101.117355 180.0
101.189415 192.0
101.801003 240.0
103.082245 180.0
103.194168 184.0
103.248016 152.0
103.375473 188.0
105.069931 172.0
106.517509 204.0
107.299538 160.0
107.365524 160.0
108.782906 172.0
109.294189 172.0
109.348297 160.0
109.704498 200.0
110.032043 228.0
110.71582 168.0
111.622414 224.0
112.378616 160.0
112.699562 216.0
112.840012 184.0
112.925766 176.0
114.0942 224.0
114.253708 152.0
114.57093 164.0
114.617805 144.0
115.704994 220.0
115.974915 164.0
116.247299 200.0
116.455025 180.0
119.046906 172.0
119.623497 180.0
119.714951 196.0
119.863083 184.0
119.894791 196.0
120.77787 220.0
121.764206 168.0
122.166466 156.0
122.384529 156.0
123.059074 196.0
123.459038 152.0
123.505486 204.0
123.580704 240.0
123.636024 188.0
124.141136 164.0
124.345245 232.0
124.902962 176.0
125.972977 368.0
126.100349 236.0
126.299347 204.0
127.294464 240.0
127.462944 164.0
127.516876 164.0
127.682259 104.0
127.714745 176.0
127.779984 204.0
127.822739 256.0
128.072647 384.0
128.107681 53380.0
128.16362 112.0
128.225357 96.0
128.982666 164.0
129.083298 112.0
129.110382 4496.0
129.867371 140.0
130.110703 336.0
130.228271 152.0
131.117889 140.0
131.638046 196.0
132.054001 172.0
132.278244 152.0
133.665878 136.0
141.59108 180.0
142.723053 160.0
143.365799 212.0
144.225021 200.0
144.313477 208.0
145.098816 172.0
146.422867 176.0
147.83522 148.0
149.020996 164.0
149.558456 144.0
150.056305 200.0
150.504379 204.0
150.685135 144.0
153.012711 144.0
154.612289 248.0
163.07283 176.0
164.517166 168.0
167.038849 172.0
169.09021 164.0
171.242615 152.0
171.964859 200.0
172.971207 172.0
173.993622 176.0
175.119141 192.0
176.066513 312.0
177.075623 2208.0
178.078903 204.0
181.706818 160.0
183.757019 236.0
186.065704 152.0
186.111862 208.0
188.123901 200.0
190.388367 140.0
190.983597 320.0
191.488495 204.0
193.000809 208.0
193.64621 172.0
193.797989 180.0
195.124725 176.0
197.954132 144.0
198.820404 140.0
199.85173 232.0
200.059998 204.0
203.577499 248.0
204.040665 160.0
204.208435 176.0
204.302307 196.0
206.676163 172.0
208.463745 160.0
208.692627 168.0
211.870392 140.0
212.142807 176.0
215.08725 192.0
217.986343 228.0
218.924774 156.0
219.670502 184.0
219.90361 200.0
224.083145 392.0
224.442688 144.0
224.943924 148.0
225.081161 212.0
225.556305 220.0
226.145584 156.0
226.561813 184.0
227.542542 160.0
228.859497 160.0
229.854218 168.0
232.086609 156.0
233.605209 140.0
235.284424 196.0
238.077042 144.0
238.965408 184.0
239.328613 168.0
239.898605 176.0
240.771835 204.0
242.674973 140.0
242.811432 180.0
244.050491 160.0
246.797562 156.0
247.00119 148.0
247.636307 588.0
248.002869 164.0
248.138962 224.0
248.643951 244.0
249.11058 196.0
250.116806 1972.0
250.619034 464.0
251.115082 180.0
251.617462 164.0
252.581329 176.0
256.213074 164.0
257.968353 156.0
259.142883 1244.0
259.719971 164.0
259.848297 224.0
259.88681 232.0
260.011963 164.0
260.148865 3552.0
260.426147 168.0
260.657471 164.0
261.13327 172.0
261.160553 100.0
263.192566 156.0
264.858154 156.0
265.17569 172.0
266.165192 152.0
267.690308 164.0
268.006287 160.0
268.048645 152.0
272.045563 164.0
274.048523 164.0
276.050995 152.0
276.770294 144.0
277.131348 160.0
277.569916 128.0
277.605347 196.0
279.056458 160.0
279.948242 188.0
281.071686 140.0
281.327118 196.0
283.08075 204.0
283.271912 156.0
285.251556 168.0
289.073029 140.0
289.276093 208.0
291.127411 168.0
291.592865 144.0
294.075836 140.0
294.512878 156.0
296.949951 168.0
298.505707 160.0
300.175873 184.0
301.076599 168.0
304.031311 248.0
305.033264 532.0
306.05719 148.0
306.530182 192.0
307.025208 148.0
307.063568 224.0
307.60791 164.0
308.047913 140.0
312.303467 148.0
313.165833 216.0
316.05722 152.0
316.372223 160.0
318.040375 160.0
318.080261 164.0
319.045593 148.0
320.056274 1436.0
320.107544 248.0
321.061401 424.0
322.052246 448.0
322.229919 144.0
322.590881 156.0
323.045044 188.0
325.927673 208.0
327.355804 168.0
329.162476 216.0
330.065887 176.0
331.30011 148.0
331.727753 156.0
332.060944 300.0
333.391632 136.0
334.062805 176.0
339.310913 192.0
340.606384 176.0
340.797424 140.0
346.073334 116.0
346.598022 164.0
347.666046 152.0
347.955597 152.0
348.072327 228.0
348.185822 188.0
349.081451 308.0
350.879944 188.0
350.943329 168.0
352.842407 216.0
356.54361 144.0
360.094818 252.0
360.217377 156.0
361.081024 148.0
362.080688 228.0
363.094086 204.0
363.298096 132.0
365.857666 212.0
367.050995 644.0
367.138519 160.0
367.161713 292.0
367.190277 140.0
367.987854 216.0
371.815887 164.0
372.833649 228.0
375.35907 148.0
377.384735 160.0
379.174774 144.0
379.562469 232.0
381.558228 180.0
382.203888 180.0
389.361908 144.0
389.660431 156.0
390.175323 152.0
392.131744 160.0
393.299286 152.0
393.508514 152.0
393.713837 188.0
393.741486 164.0
394.559479 160.0
395.366425 164.0
397.208862 208.0
399.986511 204.0
400.143066 240.0
401.038116 208.0
401.130981 188.0
401.787811 140.0
404.121155 152.0
404.171417 200.0
405.226257 172.0
408.204651 148.0
409.641571 188.0
410.379089 160.0
411.262604 168.0
413.275177 192.0
414.076752 148.0
414.838531 144.0
420.088654 144.0
421.840576 180.0
423.850189 176.0
425.720795 168.0
426.29184 248.0
428.583893 160.0
429.041412 168.0
429.701294 176.0
430.175903 184.0
430.481445 152.0
432.432861 212.0
435.368225 240.0
435.430542 180.0
436.847961 152.0
437.980255 220.0
438.509399 176.0
440.286774 152.0
441.511322 172.0
442.787811 164.0
442.896729 260.0
443.49173 144.0
444.025757 104.0
444.526215 152.0
444.789337 208.0
445.043976 160.0
445.287537 184.0
445.36734 152.0
445.410858 148.0
445.480774 140.0
445.648804 200.0
445.899902 144.0
446.267944 168.0
446.76297 184.0
446.87027 160.0
447.025818 164.0
447.09436 228.0
447.158752 78368.0
447.296387 120.0
447.473022 264.0
447.542145 128.0
447.674347 100.0
447.930237 148.0
447.976746 228.0
448.072479 208.0
448.100769 224.0
448.160553 15956.0
448.293427 204.0
448.38031 136.0
448.443329 112.0
448.49411 96.0
448.691986 172.0
448.760071 212.0
448.847198 96.0
448.906158 124.0
448.934113 260.0
449.031158 176.0
449.157135 20488.0
449.242371 304.0
449.309753 148.0
449.723938 136.0
449.772675 124.0
449.901764 200.0
449.956635 104.0
450.004211 184.0
450.063263 164.0
450.129059 5408.0
450.336853 212.0
450.473328 128.0
450.519897 140.0
450.640564 108.0
450.697723 172.0
450.764374 200.0
450.801178 100.0
451.04306 136.0
451.089203 124.0
451.124451 812.0
451.171326 424.0
451.643494 120.0
452.144501 192.0
452.606903 96.0
452.704895 140.0
453.141418 136.0
453.31366 112.0
454.00293 156.0
454.588379 140.0
467.808899 168.0
488.45462 140.0
495.296783 164.0
539.82959 156.0
684.985962 148.0
895.46405 172.0
918.771057 236.0
1005.68042 184.0
1082.601685 156.0
1091.066284 140.0
1113.022705 204.0
1116.079346 156.0
1155.107666 180.0
1159.915527 152.0
1182.057983 232.0
1225.43042 164.0
1256.653442 180.0
1266.458862 188.0
1267.557007 192.0
1282.610229 160.0
1283.494263 144.0
1288.619263 160.0
1289.44104 144.0
1322.455444 188.0
1323.360352 176.0
1324.164185 160.0
1327.947632 144.0
1335.588867 236.0
1349.986328 156.0
1370.356445 144.0
1376.995728 168.0
1385.62854 140.0
1392.185791 220.0
1396.645264 148.0
1434.966919 140.0
1437.010864 196.0
1443.605347 172.0
1453.506348 204.0
1453.787109 192.0
1462.17749 180.0
1467.502319 164.0
1481.029175 156.0
1483.059814 196.0
1488.153687 232.0
1506.955322 172.0
1517.21814 220.0
1537.699951 180.0
1546.156616 176.0
1548.419189 204.0
1551.294922 184.0
1559.309326 140.0
1581.481079 176.0
1586.495361 176.0
1598.091187 208.0
1599.555542 180.0
1616.396118 196.0
1617.044434 180.0
1623.934937 172.0
1626.454468 180.0
1630.816162 140.0
1649.137329 168.0
1652.420532 160.0
1656.233643 180.0
1663.929565 172.0
1664.100098 212.0
1669.487671 300.0
1670.764771 176.0
1672.091064 224.0
1675.128296 192.0
1683.643799 148.0
1684.30542 208.0
1691.779785 172.0
1707.575806 244.0
1713.651123 168.0
1715.538574 188.0
1721.958374 156.0
1728.340454 208.0
1729.085327 216.0
1729.225952 164.0
1730.310425 184.0
1730.376587 144.0
1731.16333 216.0
1734.013306 196.0
1734.966553 328.0
1736.376221 204.0
1737.552979 140.0
1744.555298 220.0
1744.680054 236.0
1745.004272 228.0
1752.078735 204.0
1752.628662 208.0
1759.685059 200.0
1760.035767 148.0
1766.596802 264.0
1768.002563 172.0
1769.140869 200.0
1775.031128 192.0
1777.279297 164.0
1778.337524 192.0
1780.2677 180.0
1789.416504 152.0
1794.750122 288.0
1799.416138 252.0
1805.195801 200.0
1809.333496 240.0
1810.544434 192.0
1811.840454 200.0
1817.122437 180.0
1817.733398 204.0
1825.013184 168.0
1826.161255 180.0
1828.041382 168.0
1835.137085 236.0
1842.357666 176.0
1849.404053 216.0
1850.080322 140.0
1851.433228 260.0
1851.58728 176.0
1856.79834 204.0
1857.767578 208.0
1858.814331 240.0
1863.992554 156.0
1866.115601 192.0
1872.836792 180.0
1874.46521 168.0
1881.555298 192.0
1885.658569 172.0
1885.900635 196.0
1888.607056 140.0
1893.540649 220.0
1895.550537 168.0
1897.812988 184.0
1898.879639 172.0
1904.686523 160.0
1909.014893 216.0
1913.295898 180.0
1914.140503 160.0
1917.904297 192.0
1918.043701 164.0
1924.38623 192.0
1925.268188 176.0
1925.381714 156.0
1926.159058 208.0
1929.007812 172.0
1930.739136 196.0
1930.940308 152.0
1935.815063 160.0
1937.479248 188.0
1948.762329 164.0
1950.168457 156.0
1950.405762 168.0
1950.774902 180.0
1951.882812 176.0
1954.521729 184.0
1954.759277 172.0
1963.295776 220.0
1968.63501 232.0
1972.328247 168.0
1974.662476 208.0
1975.095947 160.0
1977.423096 144.0
1980.229736 268.0
1981.266235 288.0
1983.162598 148.0
1987.108887 224.0
1989.558472 168.0
1992.871338 148.0
1994.853271 208.0
1995.671143 156.0
2001.526123 140.0
