>compound MLS001141213-01!N-(pyridin-2-ylmethyl)-2-[(4,8,8-trimethyl-2-oxo-9,10-dihydropyrano[2,3-h]chromen-5-yl)oxy]acetamide
>formula C23H24N2O5
>ionization [M+H]+
>parentmass 409.17395
#inchi InChI=1S/C23H24N2O5/c1-14-10-20(27)29-22-16-7-8-23(2,3)30-17(16)11-18(21(14)22)28-13-19(26)25-12-15-6-4-5-9-24-15/h4-6,9-11H,7-8,12-13H2,1-3H3,(H,25,26)
#inchikey DPKLZDZMJVAYFY
#Ion_Source LC-ESI
#Instrument qTof
#Compound_Source NIH Natural Product Library
#PI Dorrestein
#Data_Collector VVP/LMS
#Scan -1
#Precursor_MZ 409.176
#ExactMass 408.169
#Charge 1
#CAS_Number N/A
#Pubmed_ID N/A
#Smiles Cc1cc(=O)oc2c3CCC(C)(C)Oc3cc(OCC(=O)NCc4ccccn4)c12
#INCHI_AUX N/A
#Library_Class 1
#SpectrumID CCMSLIB00000079754
#IonMode Positive
#UpdateWorkflowName UPDATE-SINGLE-ANNOTATED-GOLD
#LibraryQualityString Gold
#TaskID b1d8e8f6646f4e71acdff9ca3d919d08
##Scan# 1855
#SpectrumFile p1-F10_GF10_01_17942.mzXML
#LibraryName NIH_Natural_Products_Library.mgf
#MQScore -1
#Organism NIH_Natural_Products_Library
#TIC_Query 0
#RT_Query -1
#MZErrorPPM -1
#SharedPeaks 0
#MassDiff 0
#LibMZ -1
#SpecMZ 409.176
#SpecCharge 0
#internalFilename spec-00000.mgf

>collision 10
94.971077 240.0
95.018501 260.0
95.048676 308.0
95.077621 192.0
95.112083 232.0
95.165138 104.0
95.217567 204.0
95.287498 84.0
95.310814 40.0
95.376884 176.0
95.405045 192.0
95.427864 236.0
95.466324 120.0
95.49614 172.0
95.537994 188.0
95.555794 140.0
95.585098 196.0
95.635582 184.0
95.653099 148.0
95.666725 68.0
95.688141 184.0
95.718765 168.0
95.764084 196.0
95.777718 116.0
95.80658 152.0
95.844757 312.0
95.874611 164.0
95.919968 196.0
95.955055 52.0
95.978455 196.0
96.04335 144.0
96.083771 132.0
96.184204 220.0
96.228195 52.0
96.255531 156.0
96.303268 192.0
96.32975 140.0
96.349281 124.0
96.394226 220.0
96.450897 184.0
96.474358 164.0
96.566261 128.0
96.587891 140.0
96.621033 168.0
96.68856 352.0
96.714958 84.0
96.773689 184.0
96.807953 48.0
96.83284 224.0
96.873573 132.0
96.926926 172.0
96.951942 196.0
96.983299 56.0
96.996788 148.0
97.026428 72.0
97.065308 188.0
97.100937 164.0
97.136246 40.0
97.149979 168.0
97.187256 132.0
97.206306 220.0
97.236313 176.0
97.259865 168.0
97.283424 164.0
97.297165 108.0
97.326065 72.0
97.395348 144.0
97.418114 80.0
97.46804 168.0
97.552551 176.0
97.591866 148.0
97.627266 40.0
97.644966 40.0
97.678116 112.0
97.747261 32.0
97.8004 56.0
97.885048 188.0
97.955956 156.0
97.997276 168.0
98.058372 192.0
98.086006 240.0
98.111855 180.0
98.127403 68.0
98.160927 132.0
98.201286 112.0
98.216148 156.0
98.297035 136.0
98.339157 336.0
98.421387 176.0
98.437714 164.0
98.459274 152.0
98.518166 224.0
98.539894 200.0
98.56871 96.0
98.62487 160.0
98.650566 80.0
98.67627 120.0
98.800865 252.0
98.847847 204.0
98.870117 216.0
98.938828 292.0
98.987663 224.0
99.024544 188.0
99.087929 160.0
99.121613 84.0
99.173141 168.0
99.2108 100.0
99.329788 172.0
99.383347 64.0
99.432961 100.0
99.451317 136.0
99.482582 164.0
99.532219 136.0
99.57988 116.0
99.652878 160.0
99.664978 172.0
99.699081 88.0
99.791565 144.0
99.811668 176.0
99.841148 164.0
99.938919 216.0
99.97551 172.0
100.080833 136.0
100.106895 96.0
100.126808 232.0
100.232391 112.0
100.254311 176.0
100.274239 172.0
100.304138 100.0
100.322273 124.0
100.429756 112.0
100.451698 140.0
100.47963 160.0
100.497581 180.0
100.53949 132.0
100.560326 200.0
100.587387 184.0
100.639542 164.0
100.666199 164.0
100.701797 160.0
100.742569 180.0
100.759132 176.0
100.805084 188.0
100.843567 204.0
100.875038 100.0
100.895027 204.0
100.910027 148.0
100.95916 160.0
100.99337 112.0
101.109055 68.0
101.139076 116.0
101.175934 332.0
101.227165 132.0
101.256973 172.0
101.315292 196.0
101.440079 356.0
101.503784 176.0
101.512932 172.0
101.553833 152.0
101.590691 160.0
101.624046 136.0
101.641342 200.0
101.658157 204.0
101.756508 136.0
101.802696 152.0
101.877007 160.0
101.915764 152.0
101.935272 196.0
101.949142 160.0
101.979485 176.0
102.001595 220.0
102.021698 80.0
102.060303 180.0
102.105957 164.0
102.119827 60.0
102.158768 200.0
102.204964 168.0
102.241661 168.0
102.289246 200.0
102.381866 44.0
102.412071 188.0
102.453461 308.0
102.55513 140.0
102.583351 136.0
102.625687 144.0
102.639801 128.0
102.666641 168.0
102.674232 164.0
102.722923 168.0
102.740646 184.0
102.821358 136.0
102.839523 84.0
102.861725 144.0
102.889984 192.0
102.918251 128.0
102.982872 140.0
103.01519 104.0
103.050346 160.0
103.092598 180.0
103.138458 208.0
103.165352 328.0
103.181915 192.0
103.203148 200.0
103.248444 204.0
103.271904 168.0
103.356194 144.0
103.369781 84.0
103.407463 144.0
103.445564 188.0
103.482521 204.0
103.543114 364.0
103.56134 96.0
103.583618 176.0
103.755875 168.0
103.813553 412.0
103.857262 88.0
103.921753 192.0
103.941452 168.0
103.946045 84.0
103.953491 148.0
103.995232 188.0
104.048737 740.0
104.104866 72.0
104.129234 160.0
104.183266 200.0
104.19017 200.0
104.208458 188.0
104.252335 256.0
104.301941 164.0
104.331299 232.0
104.358864 128.0
104.389366 180.0
104.425972 144.0
104.442238 128.0
104.493515 176.0
104.527687 156.0
104.561417 188.0
104.592812 152.0
104.635559 168.0
104.713264 76.0
104.737381 160.0
104.7659 136.0
104.804611 168.0
104.824989 204.0
104.841293 208.0
104.892242 184.0
104.924858 144.0
104.939133 68.0
104.961563 208.0
105.021667 244.0
105.04483 1648.0
105.065903 940.0
105.096184 224.0
105.158752 300.0
105.210655 136.0
105.232933 144.0
105.25441 124.0
105.305885 204.0
105.46582 56.0
105.486259 48.0
105.587143 176.0
105.593048 228.0
105.612297 176.0
105.64167 52.0
105.674408 92.0
105.688728 40.0
105.703049 200.0
105.768539 140.0
105.797203 116.0
105.811531 184.0
105.84156 180.0
105.875008 192.0
105.900787 184.0
105.938507 188.0
105.977432 88.0
106.004066 184.0
106.019127 164.0
106.04245 340.0
106.065575 1804.0
106.106552 108.0
106.126129 168.0
106.138794 116.0
106.157814 92.0
106.264473 256.0
106.278831 88.0
106.29525 112.0
106.314133 140.0
106.38662 216.0
106.420456 176.0
106.462349 180.0
106.492332 200.0
106.548347 164.0
106.580666 164.0
106.605324 160.0
106.632042 132.0
106.662872 180.0
106.681374 172.0
106.698395 472.0
106.718384 108.0
106.757011 188.0
106.760727 148.0
106.76902 128.0
106.78479 332.0
106.815247 152.0
106.849258 208.0
106.892319 192.0
106.92321 160.0
106.935249 160.0
106.968178 208.0
106.998741 492.0
107.061043 94416.0
107.12915 228.0
107.159142 80.0
107.215042 180.0
107.240295 132.0
107.258781 56.0
107.280228 204.0
107.301041 72.0
107.320007 112.0
107.362724 140.0
107.399162 832.0
107.418129 56.0
107.443054 176.0
107.463943 224.0
107.494926 116.0
107.519691 92.0
107.53801 224.0
107.596703 208.0
107.648048 152.0
107.666206 136.0
107.711708 52.0
107.746826 252.0
107.770607 112.0
107.814667 96.0
107.835678 160.0
107.854286 120.0
107.89563 52.0
107.919479 156.0
107.959038 84.0
107.997368 280.0
108.037399 192.0
108.063423 8900.0
108.112808 32.0
108.150063 92.0
108.185326 232.0
108.210098 88.0
108.224594 196.0
108.265038 60.0
108.292931 108.0
108.309502 80.0
108.338158 180.0
108.381317 60.0
108.403076 24.0
108.437164 136.0
108.480766 196.0
108.511551 108.0
108.557663 216.0
108.572716 68.0
108.595535 144.0
108.619171 152.0
108.662712 264.0
108.697723 216.0
108.743088 88.0
108.785423 168.0
108.800209 108.0
108.831238 240.0
108.870399 264.0
108.879494 224.0
108.887199 196.0
108.925858 196.0
108.946411 276.0
108.976227 124.0
109.001328 128.0
109.028427 1556.0
109.076004 11380.0
109.103218 360.0
109.134651 216.0
109.163139 220.0
109.209236 316.0
109.228539 212.0
109.243607 220.0
109.261063 264.0
109.305244 204.0
109.361 144.0
109.377449 88.0
109.402695 152.0
109.41069 112.0
109.457031 176.0
109.530876 144.0
109.557793 156.0
109.568626 164.0
109.598953 200.0
109.638 96.0
109.673759 132.0
109.714249 44.0
109.748924 152.0
109.808601 172.0
109.908218 92.0
109.924911 176.0
109.950195 68.0
109.987526 148.0
110.026894 340.0
110.061462 748.0
110.067101 340.0
110.076149 664.0
110.102356 264.0
110.121155 140.0
110.17337 208.0
110.213066 128.0
110.296661 148.0
110.355202 76.0
110.384468 156.0
110.485847 192.0
110.51416 248.0
110.588524 156.0
110.646011 188.0
110.660667 104.0
110.700523 124.0
110.767471 136.0
110.782135 40.0
110.830322 48.0
110.886154 168.0
110.90786 152.0
110.927574 168.0
110.98275 172.0
110.996651 148.0
111.063026 152.0
111.130157 172.0
111.167923 244.0
111.183472 116.0
111.240349 164.0
111.307098 200.0
111.320564 208.0
111.335869 144.0
111.405182 168.0
111.428223 128.0
111.537567 92.0
111.566994 60.0
111.646896 84.0
111.670029 68.0
111.703682 128.0
111.767883 140.0
111.790489 124.0
111.83625 140.0
111.912964 156.0
111.972786 188.0
112.044724 188.0
112.107933 44.0
112.139542 128.0
112.166191 172.0
112.188026 156.0
112.213379 160.0
112.231918 156.0
112.274475 156.0
112.297676 180.0
112.33564 220.0
112.42215 164.0
112.470688 84.0
112.521355 120.0
112.685074 224.0
112.736443 188.0
112.840424 164.0
112.901695 140.0
112.927078 184.0
112.960175 216.0
113.088577 144.0
113.123856 220.0
113.155617 180.0
113.191017 228.0
113.242432 144.0
113.274483 212.0
113.303864 160.0
113.342003 132.0
113.370499 340.0
113.409821 164.0
113.443733 208.0
113.490372 60.0
113.539146 164.0
113.581566 124.0
113.655815 120.0
113.681282 152.0
113.75769 188.0
113.787415 56.0
113.864548 168.0
113.933952 160.0
114.006416 152.0
114.110352 156.0
114.149101 160.0
114.252838 64.0
114.284752 120.0
114.361366 140.0
114.399681 304.0
114.427353 180.0
114.5317 172.0
114.583809 200.0
114.62851 164.0
114.685112 140.0
114.815308 180.0
114.842834 140.0
114.887688 172.0
114.938896 100.0
114.996025 192.0
115.007118 128.0
115.024261 184.0
115.053711 144.0
115.077637 172.0
115.117416 152.0
115.178001 144.0
115.39048 208.0
115.436607 200.0
115.499245 236.0
115.534996 176.0
115.624863 68.0
115.721191 44.0
115.74688 152.0
115.767365 160.0
115.802567 168.0
115.841118 168.0
115.892532 48.0
115.952713 300.0
116.043053 124.0
116.085449 176.0
116.160522 88.0
116.205574 120.0
116.237305 76.0
116.324944 96.0
116.351509 148.0
116.426666 136.0
116.449509 176.0
116.523003 212.0
116.635071 80.0
116.654419 152.0
116.673767 140.0
116.757072 172.0
116.787735 120.0
116.840637 216.0
116.952438 112.0
117.043289 160.0
117.069649 184.0
117.11274 80.0
117.177368 144.0
117.194603 112.0
117.239853 144.0
117.254944 224.0
117.285118 144.0
117.326073 204.0
117.368248 180.0
117.427422 136.0
117.514114 168.0
117.628815 204.0
117.695007 104.0
117.779236 132.0
117.839226 156.0
117.859169 116.0
117.879372 164.0
117.95488 236.0
117.986687 160.0
118.006142 100.0
118.034256 256.0
118.059807 132.0
118.065331 108.0
118.084221 192.0
118.109947 140.0
118.157539 140.0
118.189362 192.0
118.231705 188.0
118.283051 208.0
118.34259 260.0
118.395638 176.0
118.415131 184.0
118.438957 180.0
118.460617 160.0
118.488777 100.0
118.521278 136.0
118.536446 196.0
118.575455 136.0
118.614471 104.0
118.64048 128.0
118.748901 120.0
118.774933 188.0
118.807472 152.0
118.873825 152.0
118.894676 336.0
118.981819 160.0
119.008163 144.0
119.036728 21328.0
119.060066 4772.0
119.097572 56.0
119.13076 204.0
119.193939 108.0
119.226532 64.0
119.248268 84.0
119.280869 204.0
119.296089 84.0
119.320885 108.0
119.343918 140.0
119.365662 152.0
119.457008 112.0
119.503036 204.0
119.5317 108.0
119.552971 152.0
119.589737 92.0
119.64019 180.0
119.659393 184.0
119.684151 184.0
119.691292 68.0
119.697662 160.0
119.7444 244.0
119.779945 168.0
119.798775 148.0
119.824486 180.0
119.850929 128.0
119.883751 188.0
119.903366 168.0
119.949135 40.0
119.979652 152.0
120.003639 176.0
120.042892 6056.0
120.111343 72.0
120.151939 136.0
120.215218 108.0
120.308479 148.0
120.32872 52.0
120.368019 120.0
120.426987 132.0
120.51796 248.0
120.641129 220.0
120.67556 192.0
120.720345 244.0
120.778893 104.0
120.796387 196.0
120.813889 376.0
120.842178 172.0
120.864212 136.0
120.893021 96.0
120.95208 200.0
120.988968 76.0
121.045319 372.0
121.075584 12060.0
121.126923 196.0
121.141357 116.0
121.156876 208.0
121.194839 32.0
121.225517 136.0
121.25531 128.0
121.32634 68.0
121.353134 144.0
121.363297 112.0
121.396507 160.0
121.414864 204.0
121.440369 68.0
121.477654 188.0
121.512756 160.0
121.547867 180.0
121.575813 212.0
121.609009 176.0
121.765198 80.0
121.79155 56.0
121.830048 160.0
121.90799 136.0
121.931068 136.0
121.971085 136.0
122.008301 176.0
122.05703 160.0
122.078499 1316.0
122.100288 68.0
122.116768 324.0
122.154236 64.0
122.189438 240.0
122.207039 56.0
122.339088 112.0
122.41835 208.0
122.503677 136.0
122.572029 152.0
122.62719 156.0
122.714493 300.0
122.767601 124.0
122.854706 152.0
122.874619 88.0
122.892265 176.0
122.916534 136.0
122.993782 148.0
123.072037 116.0
123.113007 244.0
123.14312 176.0
123.225655 52.0
123.266075 164.0
123.308258 144.0
123.327309 176.0
123.371521 128.0
123.398048 236.0
123.426788 100.0
123.566132 132.0
123.594894 48.0
123.645798 76.0
123.69194 80.0
123.769119 152.0
123.926704 196.0
123.962479 140.0
124.015663 160.0
124.069351 164.0
124.122078 152.0
124.197479 68.0
124.241844 108.0
124.358658 224.0
124.364693 144.0
124.459351 172.0
124.528191 204.0
124.557068 212.0
124.592613 132.0
124.654823 124.0
124.746086 128.0
124.782036 188.0
124.812645 176.0
124.835175 152.0
124.866013 216.0
124.899376 116.0
124.918053 132.0
124.963089 156.0
125.12191 120.0
125.150856 220.0
125.168671 140.0
125.221191 184.0
125.266663 196.0
125.293396 260.0
125.404808 144.0
125.498436 136.0
125.559639 144.0
125.605484 144.0
125.707268 200.0
125.790695 180.0
125.845833 160.0
125.926895 160.0
125.973183 172.0
126.143639 276.0
126.230835 176.0
126.281631 160.0
126.490356 128.0
126.546326 232.0
126.561996 76.0
126.585014 144.0
126.60392 144.0
126.626938 172.0
126.648857 204.0
126.717674 380.0
126.743111 140.0
126.803932 212.0
126.855492 108.0
126.938446 120.0
126.963112 200.0
127.044579 236.0
127.099327 144.0
127.18232 244.0
127.239105 224.0
127.292992 88.0
127.371597 104.0
127.390526 348.0
127.432251 116.0
127.463715 180.0
127.479439 140.0
127.506409 180.0
127.540123 168.0
127.60054 64.0
127.703224 200.0
127.801743 228.0
127.827995 96.0
127.854996 68.0
127.87075 116.0
127.987808 320.0
128.035095 144.0
128.057617 112.0
128.084656 224.0
128.122345 212.0
128.150543 64.0
128.183029 132.0
128.21759 212.0
128.251389 140.0
128.273926 168.0
128.312256 144.0
128.376282 152.0
128.422745 84.0
128.463348 236.0
128.508469 148.0
128.534119 208.0
128.56813 224.0
128.595428 164.0
128.619049 212.0
128.666962 144.0
128.738251 156.0
128.810989 136.0
128.829056 112.0
128.849396 160.0
128.954849 180.0
128.987244 412.0
129.007584 40.0
129.029785 176.0
129.073151 148.0
129.120636 120.0
129.229218 376.0
129.353775 336.0
129.455582 128.0
129.47142 208.0
129.530319 92.0
129.56279 192.0
129.576965 148.0
129.65947 164.0
129.688919 136.0
129.716125 132.0
129.827225 144.0
129.915237 184.0
129.951981 200.0
129.979218 144.0
130.010986 228.0
130.029129 204.0
130.124481 156.0
130.372055 224.0
130.403885 176.0
130.435699 116.0
130.456161 272.0
130.472076 148.0
130.508453 64.0
130.572128 204.0
130.608521 224.0
130.669937 112.0
130.690414 144.0
130.757721 204.0
130.840622 124.0
130.858841 188.0
130.970428 184.0
131.011429 144.0
131.061172 7264.0
131.119141 148.0
131.150803 172.0
131.211975 80.0
131.239944 236.0
131.36705 48.0
131.426376 56.0
131.444626 188.0
131.563309 216.0
131.579971 148.0
131.622665 156.0
131.698029 172.0
131.731125 180.0
131.798553 144.0
131.851852 160.0
131.873337 112.0
131.894531 180.0
131.953979 196.0
131.992844 156.0
132.01535 188.0
132.067505 13360.0
132.142715 92.0
132.20787 40.0
132.230759 56.0
132.258224 200.0
132.274246 64.0
132.292557 144.0
132.313599 148.0
132.357803 188.0
132.441406 76.0
132.468887 152.0
132.500961 56.0
132.516998 68.0
132.558243 196.0
132.640625 152.0
132.657196 136.0
132.67421 128.0
132.714111 208.0
132.730164 192.0
132.757675 184.0
132.831726 184.0
132.858597 48.0
132.922836 216.0
132.952667 164.0
132.989395 204.0
133.031723 168.0
133.067215 2292.0
133.116547 184.0
133.140884 152.0
133.15947 264.0
133.202942 216.0
133.22142 168.0
133.241531 160.0
133.280121 124.0
133.365448 180.0
133.437347 76.0
133.45343 156.0
133.485626 176.0
133.508621 92.0
133.584518 184.0
133.621338 204.0
133.642044 124.0
133.676041 180.0
133.701874 112.0
133.736389 92.0
133.813416 140.0
133.871597 204.0
133.878265 148.0
133.902161 72.0
133.918289 80.0
133.939011 212.0
133.958328 376.0
133.9897 92.0
134.026566 200.0
134.050949 184.0
134.074326 268.0
134.183289 132.0
134.212448 148.0
134.245544 240.0
134.2686 148.0
134.37471 116.0
134.401199 128.0
134.437881 180.0
134.45195 128.0
134.533951 236.0
134.582443 144.0
134.616058 164.0
134.677124 136.0
134.764908 56.0
134.820374 208.0
134.853912 176.0
134.878143 128.0
135.001328 172.0
135.046799 916.0
135.114014 144.0
135.144104 148.0
135.206573 108.0
135.229721 36.0
135.34552 180.0
135.396408 52.0
135.422226 28.0
135.514557 120.0
135.621155 144.0
135.674469 200.0
135.693008 128.0
135.709244 172.0
135.778809 172.0
135.795044 144.0
135.811279 52.0
135.827515 48.0
135.996902 152.0
136.041504 148.0
136.047119 44.0
136.163666 164.0
136.19194 176.0
136.240723 136.0
136.296478 200.0
136.32901 48.0
136.387115 68.0
136.431274 148.0
136.468475 172.0
136.540573 128.0
136.621979 168.0
136.645248 136.0
136.663849 84.0
136.696426 60.0
136.740646 60.0
136.784866 164.0
136.829102 44.0
136.919922 204.0
136.952515 68.0
137.025833 144.0
137.058563 408.0
137.138916 112.0
137.162781 200.0
137.187866 176.0
137.206528 196.0
137.252121 316.0
137.283463 52.0
137.313782 204.0
137.339447 168.0
137.390762 168.0
137.419296 172.0
137.437424 156.0
137.736252 108.0
137.787643 120.0
137.876434 132.0
137.897461 184.0
137.997986 184.0
138.07515 148.0
138.102432 108.0
138.149994 52.0
138.189774 120.0
138.215515 68.0
138.299759 72.0
138.372986 256.0
138.419159 168.0
138.458969 84.0
138.557343 144.0
138.592484 176.0
138.632324 212.0
138.825668 140.0
138.942657 180.0
138.969986 144.0
138.993454 136.0
139.047424 168.0
139.110794 68.0
139.137451 192.0
139.192963 224.0
139.37854 112.0
139.430237 188.0
139.448013 124.0
139.505447 144.0
139.571274 152.0
139.601852 136.0
139.670059 116.0
139.695923 84.0
139.728867 308.0
139.745331 204.0
139.896988 272.0
139.940689 128.0
140.162415 116.0
140.180939 116.0
140.258713 136.0
140.308228 140.0
140.369522 116.0
140.503967 124.0
140.551147 88.0
140.570023 48.0
140.664429 132.0
140.739426 152.0
140.937439 148.0
141.009293 204.0
141.031204 192.0
141.071426 220.0
141.120392 168.0
141.19133 76.0
141.217346 160.0
141.238632 248.0
141.296097 68.0
141.321426 184.0
141.345093 172.0
141.46579 120.0
141.536819 140.0
141.750015 140.0
141.790298 144.0
141.882736 216.0
141.92305 180.0
141.960983 140.0
141.991806 100.0
142.077209 160.0
142.183975 148.0
142.210907 152.0
142.282867 176.0
142.388153 116.0
142.421402 112.0
142.440414 168.0
142.48317 124.0
142.556824 128.0
142.637634 120.0
142.656647 228.0
142.739868 160.0
142.756516 180.0
142.78743 88.0
142.825668 204.0
142.939682 124.0
142.994415 132.0
143.03035 208.0
143.047409 500.0
143.083282 72.0
143.114456 168.0
143.172974 152.0
143.351639 176.0
143.444595 112.0
143.642288 176.0
143.757034 108.0
143.896896 212.0
144.055481 180.0
144.074585 168.0
144.182114 48.0
144.22464 172.0
144.244263 184.0
144.323837 124.0
144.368576 52.0
144.423584 44.0
144.524063 144.0
144.701416 80.0
144.725769 148.0
144.763428 180.0
144.806458 220.0
144.84726 128.0
144.965103 196.0
145.028107 156.0
145.067017 296.0
145.154037 152.0
145.213989 164.0
145.26915 204.0
145.312332 212.0
145.351654 140.0
145.425125 128.0
145.444321 196.0
145.504333 200.0
145.593185 180.0
145.72049 196.0
145.744522 192.0
145.801285 116.0
145.833435 208.0
145.881516 180.0
145.906143 256.0
145.934402 164.0
145.97287 208.0
146.004135 148.0
146.028183 112.0
146.052231 104.0
146.077728 328.0
146.102753 228.0
146.232697 136.0
146.283234 140.0
146.314529 204.0
146.456604 232.0
146.477905 220.0
146.591705 160.0
146.615616 128.0
146.659012 108.0
146.70575 152.0
146.723251 172.0
146.75061 184.0
146.820541 272.0
146.887985 212.0
146.999496 168.0
147.054306 5732.0
147.086975 176.0
147.107666 208.0
147.179047 248.0
147.252548 184.0
147.34433 44.0
147.396545 196.0
147.438568 192.0
147.49025 168.0
147.500351 64.0
147.505493 204.0
147.544922 152.0
147.611801 152.0
147.658569 176.0
147.738388 136.0
147.769836 152.0
147.788834 132.0
147.840546 216.0
147.894547 120.0
147.927155 96.0
147.946518 140.0
147.982834 168.0
148.023987 116.0
148.05925 1016.0
148.100281 144.0
148.159622 68.0
148.187851 160.0
148.269928 108.0
148.337952 184.0
148.37706 100.0
148.446838 104.0
148.467453 124.0
148.512451 196.0
148.552902 176.0
148.563629 184.0
148.611923 360.0
148.639694 156.0
148.665436 492.0
148.6978 276.0
148.729736 260.0
148.756195 152.0
148.779205 280.0
148.820908 152.0
148.850311 108.0
148.865997 140.0
148.890411 236.0
148.936264 148.0
148.964325 120.0
149.006912 336.0
149.036438 416.0
149.071625 229232.0
149.13266 284.0
149.161392 128.0
149.184952 40.0
149.201843 132.0
149.23317 168.0
149.274048 240.0
149.309952 268.0
149.343155 280.0
149.380707 184.0
149.40596 204.0
149.423141 260.0
149.441528 160.0
149.471085 2024.0
149.511642 292.0
149.598938 196.0
149.635712 116.0
149.641647 136.0
149.674133 268.0
149.697311 120.0
149.719635 48.0
149.740936 172.0
149.765152 68.0
149.784195 152.0
149.819382 92.0
149.859879 200.0
149.901657 124.0
149.920563 168.0
149.927399 72.0
149.934265 260.0
150.003448 248.0
150.032516 156.0
150.075607 38804.0
150.122574 168.0
150.140488 64.0
150.149506 116.0
150.185684 60.0
150.219498 68.0
150.236526 76.0
150.268814 168.0
150.30687 84.0
150.338806 144.0
150.360062 84.0
150.383423 76.0
150.427292 148.0
150.455841 88.0
150.482254 152.0
150.511551 48.0
150.541245 76.0
150.580566 108.0
150.621445 52.0
150.654495 144.0
150.721375 72.0
150.755966 72.0
150.809753 64.0
150.852737 68.0
150.873154 68.0
150.895508 112.0
150.936829 184.0
150.957809 128.0
150.995407 100.0
151.012527 280.0
151.036102 260.0
151.078476 2136.0
151.112625 232.0
151.139328 72.0
151.19548 120.0
151.235229 124.0
151.252228 244.0
151.30307 212.0
151.338135 72.0
151.363953 100.0
151.392776 108.0
151.409149 76.0
151.457901 136.0
151.490021 108.0
151.512863 120.0
151.584503 44.0
151.606979 148.0
151.661362 80.0
151.717743 100.0
151.742264 44.0
151.78299 184.0
151.885239 92.0
151.940918 48.0
152.007401 128.0
152.037964 124.0
152.075912 172.0
152.097977 80.0
152.135513 96.0
152.18364 76.0
152.229095 108.0
152.252014 140.0
152.316513 76.0
152.387756 116.0
152.508163 132.0
152.638458 88.0
152.801239 132.0
152.850006 40.0
152.886215 112.0
153.009995 40.0
153.058136 184.0
153.075851 236.0
153.185257 260.0
153.202087 104.0
153.251358 136.0
153.301514 68.0
153.332672 60.0
153.355621 124.0
153.524979 32.0
153.565811 128.0
153.623627 96.0
153.719849 76.0
154.097641 136.0
154.159409 168.0
154.189072 136.0
154.320084 152.0
154.36705 120.0
154.409103 72.0
154.510513 136.0
154.56398 132.0
154.775345 80.0
154.795151 68.0
154.829819 180.0
155.006851 244.0
155.037918 120.0
155.065002 164.0
155.159378 140.0
155.231277 108.0
155.412354 116.0
155.484329 156.0
155.655609 140.0
155.824509 100.0
156.025818 220.0
156.053162 128.0
156.115326 32.0
156.272034 156.0
156.301895 132.0
156.374069 148.0
156.662903 76.0
156.809921 44.0
156.832352 88.0
156.913605 108.0
156.990601 136.0
157.041794 204.0
157.059097 128.0
157.203949 116.0
157.416138 88.0
157.476074 64.0
157.521042 140.0
157.560211 88.0
157.625977 80.0
157.739349 148.0
157.898453 232.0
157.935974 128.0
158.061066 108.0
158.150253 88.0
158.253799 148.0
158.301376 84.0
158.346451 52.0
158.494247 180.0
158.55188 96.0
158.569427 44.0
158.598419 240.0
158.644623 156.0
158.749939 136.0
158.827682 184.0
158.874359 168.0
158.917999 188.0
159.041718 1560.0
159.078323 184.0
159.114395 136.0
159.214188 60.0
159.297073 84.0
159.344818 188.0
159.387527 88.0
159.46109 172.0
159.476456 124.0
159.762146 80.0
159.86116 148.0
159.882919 68.0
159.905563 56.0
159.983597 168.0
160.049606 140.0
160.081787 144.0
160.154831 224.0
160.210251 180.0
160.235443 164.0
160.401276 184.0
160.477402 80.0
160.507645 72.0
160.550156 140.0
160.570694 168.0
160.589279 120.0
160.62114 112.0
160.638794 72.0
160.661499 152.0
160.719528 144.0
160.80188 164.0
160.893677 108.0
160.913879 60.0
161.014877 156.0
161.06012 3764.0
161.118439 84.0
161.150131 148.0
161.214462 120.0
161.241257 132.0
161.329758 84.0
161.389954 140.0
161.45462 108.0
161.644348 48.0
161.705093 152.0
161.981079 52.0
162.031738 132.0
162.063843 520.0
162.166046 120.0
162.275055 180.0
162.323227 164.0
162.432281 116.0
162.66066 160.0
162.693665 84.0
162.770126 172.0
162.889191 156.0
162.975571 212.0
163.011139 192.0
163.03894 3000.0
163.069595 200.0
163.18399 48.0
163.219589 148.0
163.285706 160.0
163.362015 124.0
163.46814 52.0
163.57576 112.0
163.593582 140.0
163.955261 48.0
163.9935 92.0
164.039032 304.0
164.069977 96.0
164.106598 152.0
164.271439 120.0
164.350525 232.0
164.559814 172.0
164.585342 52.0
164.613434 140.0
164.822891 220.0
164.907227 116.0
164.949448 256.0
165.027374 144.0
165.064667 144.0
165.090515 140.0
165.160355 40.0
165.288269 144.0
165.308746 136.0
165.354813 40.0
165.398315 144.0
165.510971 32.0
165.582672 168.0
165.685135 160.0
165.8927 248.0
165.974747 32.0
166.060974 160.0
166.141464 36.0
166.210739 140.0
166.272324 96.0
166.290283 68.0
166.346298 156.0
166.390396 168.0
166.421204 72.0
166.457153 72.0
166.513763 148.0
166.580429 156.0
166.646271 216.0
166.857986 68.0
166.886261 232.0
166.996841 104.0
167.043137 160.0
167.071442 176.0
167.23613 120.0
167.573471 152.0
167.606964 152.0
167.831207 64.0
168.594162 164.0
168.729706 176.0
168.881195 212.0
169.009033 188.0
169.057343 156.0
169.102341 164.0
169.241989 44.0
169.462143 60.0
169.511368 176.0
169.765411 140.0
169.887314 172.0
170.100006 192.0
170.172806 92.0
170.539078 168.0
170.572876 144.0
170.593674 148.0
170.687271 152.0
171.04068 616.0
171.119186 136.0
171.212921 184.0
171.233765 56.0
171.311905 52.0
171.53862 204.0
171.937683 116.0
171.979431 76.0
172.021194 408.0
172.049911 140.0
172.087387 284.0
172.468811 156.0
172.492401 136.0
172.711044 76.0
172.847076 68.0
173.030304 80.0
173.063614 664.0
173.098373 144.0
173.417984 164.0
173.743149 128.0
173.772003 108.0
173.840225 160.0
173.997711 208.0
174.036606 196.0
174.063461 164.0
174.26297 212.0
174.428543 168.0
174.754639 64.0
174.859894 68.0
174.975723 176.0
175.038574 672.0
175.394577 144.0
175.481567 148.0
175.576492 76.0
175.594955 144.0
175.877274 136.0
175.906311 144.0
176.046204 808.0
176.17038 320.0
176.241714 176.0
176.508682 156.0
176.778503 92.0
176.97438 180.0
177.01947 280.0
177.053604 2068.0
177.104141 36.0
177.15712 144.0
177.35585 136.0
177.384232 260.0
177.493713 96.0
177.652847 92.0
177.846558 172.0
177.883713 160.0
178.057907 356.0
178.207718 48.0
178.351212 104.0
178.505417 176.0
178.534668 60.0
178.646378 112.0
178.790054 148.0
178.840622 124.0
179.037643 188.0
179.059738 220.0
179.093567 156.0
179.165497 68.0
179.210785 100.0
179.234772 180.0
179.46666 124.0
179.722717 144.0
179.752075 148.0
179.853485 120.0
180.029694 144.0
180.073425 148.0
180.446533 172.0
180.657806 144.0
180.850464 220.0
180.874557 204.0
180.898651 180.0
181.056625 100.0
181.216446 192.0
181.270935 148.0
181.450516 56.0
181.670425 256.0
181.724075 100.0
181.887787 200.0
181.936096 136.0
182.039185 192.0
182.066315 1056.0
182.251953 192.0
182.301392 228.0
182.602493 136.0
182.693939 84.0
183.022293 192.0
183.041138 100.0
183.064743 204.0
183.124619 32.0
183.165024 236.0
183.278183 140.0
183.299728 148.0
183.345551 132.0
183.447968 108.0
183.483017 148.0
183.504578 120.0
183.687973 348.0
183.725739 80.0
184.087418 248.0
184.117111 188.0
184.176529 44.0
184.252167 88.0
184.27919 216.0
184.376556 132.0
184.546768 132.0
184.667221 192.0
184.75502 128.0
184.855133 164.0
185.057999 144.0
185.293762 140.0
185.339828 164.0
185.518707 64.0
185.619019 184.0
186.017838 140.0
186.055984 168.0
186.074844 216.0
186.103363 136.0
186.159027 188.0
186.26767 160.0
186.822205 176.0
186.966415 120.0
186.999084 168.0
187.038574 576.0
187.065048 596.0
187.11348 212.0
187.532913 68.0
187.704666 80.0
187.77829 104.0
188.043182 352.0
188.240723 216.0
188.34874 64.0
188.397919 88.0
188.44162 60.0
188.570053 88.0
188.706741 152.0
188.895432 152.0
189.01564 188.0
189.021164 176.0
189.053589 9160.0
189.116119 80.0
189.191788 68.0
189.248474 76.0
189.267639 52.0
189.29776 88.0
189.316925 36.0
189.375244 164.0
189.42923 48.0
189.552521 40.0
189.664886 40.0
189.738892 92.0
189.859543 32.0
189.881485 40.0
190.002777 164.0
190.056046 1108.0
190.161331 80.0
190.356247 108.0
190.510056 148.0
190.644684 32.0
190.707901 76.0
190.743637 48.0
190.828857 192.0
190.974594 76.0
191.035095 360.0
191.063889 184.0
191.082382 212.0
191.26532 128.0
191.31131 88.0
191.665588 204.0
192.038467 268.0
192.085953 152.0
192.241913 100.0
192.421326 128.0
192.473785 128.0
192.606354 176.0
192.649063 184.0
192.689224 224.0
192.810806 128.0
193.050491 120.0
193.297516 100.0
193.42482 72.0
193.856888 132.0
193.879044 64.0
193.953888 108.0
194.05368 128.0
194.091583 132.0
194.72522 184.0
194.872452 164.0
195.066986 196.0
195.217117 216.0
195.3228 64.0
195.804321 96.0
195.955902 220.0
195.993744 272.0
196.072891 164.0
196.09964 112.0
196.339417 132.0
196.358932 160.0
196.431458 164.0
196.551422 156.0
196.587692 36.0
196.961807 136.0
197.037231 88.0
197.073563 104.0
197.093124 168.0
197.319504 40.0
197.470505 44.0
197.495682 80.0
197.571213 156.0
197.59079 200.0
197.935059 36.0
198.089096 44.0
198.192764 40.0
198.784409 208.0
198.935974 124.0
198.997742 108.0
199.037628 604.0
199.11615 164.0
199.239273 128.0
199.402252 88.0
199.5681 132.0
199.798721 108.0
200.046371 224.0
200.065659 164.0
200.073639 140.0
200.081451 260.0
200.105484 116.0
200.14209 32.0
200.167435 184.0
200.294174 168.0
200.418121 136.0
200.488571 96.0
200.553391 112.0
200.649246 120.0
200.756393 184.0
200.804337 100.0
200.826889 132.0
200.962173 176.0
201.054581 1344.0
201.120331 160.0
201.31514 204.0
201.433762 160.0
201.603287 56.0
201.775711 160.0
201.871841 160.0
202.018082 176.0
202.051544 412.0
202.089645 176.0
202.449142 44.0
202.644577 40.0
202.73526 132.0
202.908157 220.0
203.033752 764.0
203.057556 228.0
203.06517 264.0
203.102859 164.0
203.274063 60.0
203.359192 136.0
203.501129 112.0
203.552246 104.0
203.643112 132.0
203.853348 160.0
203.927246 128.0
203.98616 148.0
204.038132 340.0
204.589172 204.0
204.612793 208.0
204.644104 232.0
204.736176 48.0
204.902832 128.0
204.957413 196.0
204.990982 164.0
205.04953 15244.0
205.124893 136.0
205.267365 136.0
205.297638 208.0
205.328003 76.0
205.376373 200.0
205.502014 80.0
205.584763 56.0
205.693222 176.0
205.938782 44.0
205.990189 88.0
206.053238 2316.0
206.092316 172.0
206.130188 184.0
206.198776 156.0
206.221634 84.0
206.375534 120.0
206.4189 272.0
206.530426 88.0
206.621979 64.0
206.802246 80.0
206.876678 48.0
206.974014 48.0
207.005508 56.0
207.053665 252.0
207.062912 200.0
207.098892 184.0
207.127426 132.0
207.228928 116.0
207.340683 48.0
207.492615 104.0
207.535614 96.0
207.555695 184.0
207.664658 204.0
207.724899 108.0
207.776535 160.0
207.813828 240.0
207.836792 76.0
208.020462 120.0
208.070435 304.0
208.109467 76.0
208.142899 56.0
208.244431 144.0
208.276031 52.0
208.319107 152.0
208.51738 172.0
208.640976 168.0
208.687347 136.0
209.006241 64.0
209.035019 164.0
209.095444 164.0
209.250885 140.0
209.527374 40.0
209.861694 60.0
209.919373 88.0
210.046265 168.0
210.114548 176.0
210.236694 92.0
210.294418 148.0
210.435867 152.0
210.508041 172.0
210.545593 76.0
210.596191 176.0
210.687119 120.0
210.794022 124.0
211.081512 264.0
211.120941 208.0
211.288452 244.0
211.690781 236.0
212.0672 276.0
212.09639 272.0
212.18045 92.0
212.247131 72.0
212.372787 184.0
212.630051 120.0
212.818741 136.0
213.055847 100.0
213.08728 160.0
213.109192 124.0
213.225433 152.0
213.737244 160.0
213.798355 112.0
213.993988 96.0
214.028137 128.0
214.050705 168.0
214.083649 72.0
214.12442 212.0
214.27298 104.0
214.302109 52.0
214.331253 104.0
214.49736 172.0
214.570251 160.0
214.63147 148.0
214.742294 144.0
214.812302 220.0
214.864807 152.0
214.891068 56.0
215.057739 1524.0
215.107864 1248.0
215.203369 36.0
215.238403 124.0
215.258835 108.0
215.307755 176.0
215.401947 80.0
215.568481 160.0
215.682465 192.0
215.735077 88.0
215.856003 100.0
215.907593 76.0
215.992416 68.0
216.028564 144.0
216.063766 452.0
216.096924 352.0
216.107101 132.0
216.15625 68.0
216.249893 44.0
216.340637 132.0
216.366989 100.0
216.443115 36.0
216.545609 100.0
216.58075 308.0
216.738953 136.0
216.76532 128.0
216.799622 68.0
216.828064 216.0
216.897202 144.0
216.938248 148.0
216.9617 76.0
216.982224 88.0
217.049911 35928.0
217.129303 132.0
217.207397 56.0
217.284714 100.0
217.346405 60.0
217.369385 48.0
217.407532 116.0
217.429901 84.0
217.463303 48.0
217.502487 80.0
217.595398 92.0
217.631424 88.0
217.665863 112.0
217.732147 160.0
217.803894 68.0
217.835693 68.0
217.856934 72.0
217.894958 180.0
217.914932 140.0
217.970154 156.0
218.051971 4356.0
218.116394 68.0
218.150757 188.0
218.246094 128.0
218.271179 84.0
218.338821 52.0
218.369797 60.0
218.403519 104.0
218.474121 52.0
218.50354 60.0
218.544724 88.0
218.577209 108.0
218.671265 100.0
218.694809 88.0
218.756622 92.0
218.897949 48.0
218.974518 40.0
219.055038 472.0
219.100784 464.0
219.149643 124.0
219.17778 120.0
219.221985 108.0
219.269135 56.0
219.316299 92.0
219.360901 152.0
219.410629 48.0
219.452484 100.0
219.51088 92.0
219.537415 92.0
219.609253 100.0
219.63179 160.0
219.777267 64.0
219.823563 40.0
219.879623 104.0
219.926849 68.0
220.057236 144.0
220.082138 120.0
220.103989 340.0
220.15419 120.0
220.269363 68.0
220.298904 88.0
220.372772 84.0
220.425949 68.0
220.632843 112.0
220.676086 128.0
220.697891 60.0
220.730423 92.0
221.079483 72.0
221.113708 168.0
221.165314 92.0
221.337021 132.0
221.39032 172.0
221.572327 108.0
221.870331 180.0
222.057037 120.0
222.061844 116.0
222.075928 188.0
222.270737 124.0
222.404282 156.0
222.58139 152.0
222.817047 76.0
222.9151 184.0
222.95076 116.0
222.977509 136.0
223.090973 168.0
223.126129 176.0
223.26886 88.0
223.313477 128.0
224.206635 56.0
224.618088 220.0
224.674759 72.0
224.823959 52.0
224.862747 148.0
225.057968 284.0
225.098587 132.0
225.150925 128.0
225.779938 44.0
225.8936 148.0
226.088791 152.0
226.439377 176.0
226.573151 84.0
226.660034 84.0
226.779907 184.0
226.824875 84.0
226.869843 168.0
227.032654 668.0
227.076599 480.0
227.115723 228.0
227.136719 76.0
227.181717 128.0
227.439789 36.0
227.664963 164.0
228.03949 184.0
228.078156 492.0
228.232895 208.0
228.253937 36.0
228.407318 96.0
228.663071 176.0
229.048019 1908.0
229.153915 104.0
229.175003 56.0
229.27948 184.0
229.434189 148.0
229.512589 88.0
229.856445 148.0
230.049744 244.0
230.285126 160.0
230.393875 200.0
230.418045 160.0
230.4543 112.0
230.532867 132.0
230.813995 208.0
231.063141 720.0
231.100281 344.0
231.273834 136.0
231.29805 120.0
231.780014 112.0
231.837158 84.0
231.952332 124.0
232.040237 156.0
232.070557 104.0
232.100952 388.0
232.243423 116.0
232.319244 172.0
232.352615 76.0
232.392059 172.0
232.45578 108.0
232.525589 76.0
232.574142 128.0
232.886887 164.0
233.045288 796.0
233.113083 476.0
233.187683 84.0
233.360947 116.0
233.436966 36.0
233.49292 228.0
233.929855 64.0
234.049118 160.0
234.098022 188.0
234.956848 60.0
235.063828 204.0
235.128952 148.0
235.182663 84.0
235.326141 40.0
235.399414 180.0
236.064453 292.0
236.090439 96.0
236.166504 144.0
236.278214 116.0
236.487778 116.0
237.074249 308.0
237.09816 176.0
237.191605 144.0
237.281174 184.0
237.441666 152.0
237.664551 48.0
237.698898 208.0
237.793442 140.0
238.082092 280.0
238.112732 132.0
238.155731 164.0
238.211029 84.0
238.238678 56.0
238.269394 84.0
238.416885 200.0
238.441467 120.0
238.475281 92.0
239.013458 220.0
239.076324 204.0
239.121155 36.0
239.213501 60.0
239.333572 112.0
239.481384 172.0
239.894287 156.0
239.93129 96.0
240.008362 188.0
240.062347 380.0
240.110123 260.0
240.202652 136.0
240.545181 48.0
240.662491 132.0
241.048141 136.0
241.082367 136.0
241.33606 180.0
241.552551 220.0
241.905319 148.0
241.930084 132.0
242.045746 488.0
242.092163 204.0
242.543427 132.0
243.052399 1320.0
243.099289 316.0
243.145126 168.0
243.173065 48.0
243.297226 56.0
243.359314 160.0
243.394669 52.0
243.44072 204.0
243.46489 96.0
243.73204 148.0
243.797302 136.0
243.865677 68.0
243.943375 152.0
244.061203 864.0
244.136154 40.0
244.234772 152.0
244.319656 200.0
244.422333 108.0
244.486801 168.0
244.529846 44.0
244.594849 148.0
244.624634 108.0
244.659714 268.0
244.68689 160.0
244.708694 208.0
244.816406 124.0
244.873734 80.0
244.967667 208.0
245.044479 54472.0
245.14183 208.0
245.186325 52.0
245.203354 40.0
245.244095 76.0
245.290421 116.0
245.335373 156.0
245.381653 116.0
245.405853 100.0
245.440308 84.0
245.45462 124.0
245.513077 136.0
245.555481 108.0
245.57811 80.0
245.614151 116.0
245.66626 128.0
245.69548 96.0
245.738495 88.0
245.807312 60.0
245.812958 160.0
245.843307 88.0
245.920029 96.0
245.964081 120.0
246.047714 7796.0
246.139862 40.0
246.164841 76.0
246.199188 96.0
246.25798 68.0
246.369308 60.0
246.48291 60.0
246.538101 140.0
246.642838 76.0
246.701752 52.0
246.851059 80.0
246.960297 68.0
246.999313 76.0
247.054993 644.0
247.119598 240.0
247.19841 64.0
247.233963 72.0
247.402985 104.0
247.462082 92.0
247.500046 64.0
247.521957 132.0
247.586334 100.0
247.656616 124.0
247.691071 92.0
247.759995 112.0
247.816391 132.0
247.842682 92.0
247.85643 36.0
247.868317 84.0
247.893723 68.0
247.92955 144.0
247.973068 132.0
247.998138 232.0
248.066971 272.0
248.102631 212.0
248.130951 120.0
248.380676 68.0
248.446548 36.0
248.543823 28.0
248.625397 104.0
248.659927 96.0
248.691315 116.0
248.813843 116.0
248.85141 156.0
248.92363 76.0
249.072495 168.0
249.668411 96.0
249.728165 76.0
250.087891 224.0
250.357605 48.0
250.40799 116.0
250.430038 148.0
251.046646 92.0
251.06012 52.0
251.068649 140.0
251.113983 144.0
251.413696 164.0
251.811478 80.0
252.051575 128.0
252.105286 132.0
252.159012 224.0
252.225388 136.0
252.396118 40.0
252.661789 172.0
252.810501 76.0
253.057404 144.0
253.091599 176.0
253.204651 96.0
253.301254 204.0
253.580078 168.0
253.951035 96.0
254.258789 104.0
254.385742 244.0
254.569901 136.0
254.658813 132.0
254.735046 64.0
254.792236 116.0
255.107178 276.0
255.634827 164.0
256.062683 1076.0
256.10199 140.0
256.281586 180.0
256.539368 56.0
256.571259 36.0
256.748322 180.0
256.800842 120.0
256.883759 92.0
257.066986 320.0
257.110321 196.0
257.528534 48.0
257.745789 88.0
257.844849 76.0
258.071991 144.0
258.121643 164.0
258.180542 80.0
258.362854 124.0
258.426849 108.0
258.478027 100.0
258.55484 176.0
258.743683 116.0
258.926208 132.0
258.996674 128.0
259.040955 208.0
259.095428 776.0
259.169647 116.0
259.352325 140.0
259.519043 92.0
259.697784 76.0
259.814087 124.0
260.103973 1464.0
260.398285 132.0
261.110352 1916.0
261.198639 56.0
261.756561 80.0
261.839142 224.0
262.077515 352.0
262.112366 568.0
262.512665 200.0
262.743195 136.0
263.081696 100.0
263.094238 252.0
263.118073 208.0
263.661926 96.0
263.726562 136.0
263.946411 56.0
264.092377 328.0
264.231049 56.0
265.085724 504.0
265.309479 88.0
266.079987 204.0
267.095581 480.0
267.922333 104.0
268.055908 172.0
268.091766 368.0
268.851959 168.0
268.936462 96.0
269.100983 204.0
269.207458 28.0
269.34787 160.0
270.109497 172.0
270.436707 76.0
270.980316 124.0
271.078796 156.0
271.124481 124.0
271.17038 60.0
271.396545 152.0
271.465424 116.0
272.069122 104.0
272.098694 128.0
272.121674 112.0
272.190613 128.0
272.487671 108.0
272.975983 180.0
273.110931 4348.0
273.183167 72.0
273.248962 164.0
273.300903 112.0
273.319458 152.0
273.367432 36.0
273.538574 76.0
273.900787 224.0
274.009491 64.0
274.063782 200.0
274.114075 1760.0
274.253357 84.0
274.632538 116.0
274.771088 160.0
274.878693 84.0
275.081116 292.0
275.118561 152.0
275.520508 60.0
275.741882 56.0
275.791473 144.0
275.913788 84.0
276.062866 172.0
276.090393 144.0
276.122101 180.0
276.310638 52.0
277.075409 124.0
277.101624 180.0
277.307373 80.0
278.085236 292.0
278.129944 152.0
278.471924 124.0
279.076721 124.0
279.104919 252.0
279.186462 88.0
279.332794 164.0
279.559052 128.0
280.062256 188.0
280.116425 196.0
280.148376 136.0
280.93512 132.0
281.087646 436.0
281.128632 148.0
282.077179 160.0
282.449646 196.0
282.665802 92.0
283.088135 124.0
283.338806 144.0
284.093079 216.0
284.33609 120.0
285.112762 352.0
285.234833 212.0
285.406281 80.0
285.97818 64.0
286.069061 56.0
286.287903 80.0
286.446198 216.0
286.473145 160.0
287.705078 52.0
288.105927 180.0
288.210663 148.0
289.005249 60.0
289.090515 292.0
289.350464 156.0
289.780579 44.0
289.973755 84.0
290.079102 1160.0
290.231384 56.0
290.465393 88.0
290.855591 92.0
291.083008 216.0
291.090485 528.0
291.113953 256.0
291.297028 68.0
291.640228 52.0
292.051636 56.0
292.112885 48.0
292.229919 148.0
292.286377 136.0
293.025238 60.0
293.049072 48.0
293.093811 92.0
293.478546 36.0
293.816193 88.0
294.081024 300.0
294.198425 120.0
294.352051 56.0
294.734619 44.0
295.073181 156.0
295.111176 372.0
295.404724 32.0
295.603149 104.0
296.031067 52.0
296.094849 476.0
296.757477 52.0
297.095245 92.0
297.477936 144.0
297.646149 172.0
297.948395 96.0
298.106659 556.0
298.138062 60.0
298.587738 60.0
298.653107 88.0
299.118805 504.0
299.355164 128.0
300.112427 152.0
300.703125 44.0
301.0242 76.0
301.106689 1032.0
301.153168 104.0
301.163788 180.0
301.214142 196.0
301.653015 56.0
301.929596 112.0
302.115448 672.0
302.15097 180.0
302.182129 52.0
302.334381 200.0
303.089264 152.0
303.117004 92.0
303.446259 68.0
303.702881 168.0
303.747986 196.0
304.107208 132.0
304.171326 56.0
304.452545 180.0
304.539368 120.0
305.093506 132.0
305.596161 152.0
306.072968 124.0
306.100861 188.0
306.139191 104.0
306.926697 68.0
307.104858 1068.0
307.54071 44.0
307.742188 156.0
307.778107 108.0
307.973663 184.0
308.091125 344.0
308.114807 88.0
308.151825 272.0
308.679626 72.0
309.091095 132.0
309.457886 160.0
310.167542 172.0
310.216614 120.0
311.104156 308.0
312.12088 348.0
312.326996 36.0
312.520508 160.0
313.137665 112.0
314.125305 224.0
315.07663 172.0
315.104889 128.0
316.12674 124.0
316.289551 108.0
316.576324 112.0
317.087341 204.0
317.501282 80.0
318.074249 1604.0
318.193207 84.0
318.232269 136.0
318.441772 92.0
318.718872 172.0
319.074249 436.0
319.173828 40.0
319.241394 156.0
319.333862 64.0
319.394348 108.0
319.746582 52.0
320.065674 168.0
320.10083 156.0
321.553497 56.0
322.081268 148.0
322.689453 80.0
322.968384 164.0
323.100098 1708.0
323.152863 204.0
323.186615 144.0
323.254578 48.0
323.32019 84.0
324.017242 72.0
324.105133 236.0
324.565613 120.0
325.010376 36.0
325.125214 96.0
325.15033 152.0
325.685303 156.0
325.764343 136.0
325.811035 36.0
326.098511 168.0
326.450806 68.0
328.143768 144.0
328.36673 152.0
329.157043 128.0
329.467651 112.0
329.500183 56.0
330.176117 164.0
330.295471 80.0
330.972229 152.0
332.222626 108.0
332.679871 184.0
332.810577 148.0
333.09021 156.0
333.151947 68.0
333.33725 40.0
333.588043 72.0
333.671661 116.0
334.12262 116.0
334.167511 196.0
334.326385 108.0
334.380981 132.0
334.701324 120.0
334.726044 96.0
334.881989 144.0
334.938538 208.0
334.992676 176.0
335.102783 14236.0
335.165466 128.0
335.179352 168.0
335.211731 68.0
335.294617 60.0
335.453369 104.0
335.479004 80.0
335.506531 64.0
335.586731 48.0
335.623199 76.0
335.672424 168.0
335.805511 44.0
335.882111 144.0
335.955078 84.0
335.987915 124.0
336.038971 36.0
336.106415 4552.0
336.180145 44.0
336.21048 44.0
336.23938 92.0
336.469635 144.0
336.692383 72.0
336.937103 76.0
337.106293 572.0
337.18924 76.0
337.236755 84.0
337.265991 40.0
337.481689 32.0
337.532867 96.0
337.621216 52.0
337.704742 92.0
337.884003 48.0
337.95575 120.0
338.069153 96.0
338.125488 132.0
338.162109 112.0
338.238953 116.0
338.451294 96.0
338.520874 96.0
338.693024 48.0
338.762604 112.0
339.11438 100.0
339.546997 40.0
339.752411 96.0
339.895508 60.0
340.097168 188.0
341.00824 100.0
341.11142 2284.0
341.169952 44.0
341.894562 68.0
342.114746 836.0
342.16217 68.0
342.373138 84.0
342.424713 64.0
342.818909 148.0
343.121155 108.0
343.37558 52.0
343.54895 40.0
343.821991 48.0
345.292389 108.0
345.662323 148.0
346.139832 144.0
346.191681 140.0
346.306488 148.0
346.510223 156.0
347.292389 96.0
347.64856 92.0
348.138977 160.0
348.718903 96.0
349.049011 140.0
349.164276 184.0
350.143066 140.0
351.412506 148.0
352.168274 132.0
353.003937 104.0
353.042816 100.0
353.115112 3004.0
353.214874 80.0
354.113434 420.0
354.273407 72.0
354.304199 208.0
354.499054 64.0
355.12326 120.0
355.646667 44.0
355.871918 128.0
357.311371 60.0
358.350494 44.0
362.181091 108.0
362.321259 36.0
363.151398 172.0
363.177948 112.0
364.449707 96.0
365.10733 116.0
365.183411 136.0
366.218658 140.0
367.156219 156.0
367.251587 56.0
367.633087 76.0
368.026276 136.0
368.179016 120.0
368.442566 120.0
368.9776 112.0
371.528198 40.0
371.86972 92.0
372.038605 52.0
373.143036 116.0
373.348846 36.0
374.165894 212.0
375.127655 168.0
375.154663 136.0
376.135193 124.0
376.307129 192.0
376.620972 72.0
380.31485 144.0
380.769104 36.0
381.177002 128.0
382.121826 88.0
383.457489 100.0
384.276367 104.0
385.607971 108.0
385.639252 88.0
388.407501 68.0
388.489868 160.0
389.809082 64.0
390.359406 80.0
390.559998 108.0
390.768494 96.0
390.893005 56.0
390.945557 104.0
391.091187 132.0
391.163757 1788.0
391.339172 136.0
391.390381 52.0
391.681793 44.0
392.164581 964.0
392.326599 108.0
392.489716 48.0
393.16684 116.0
393.788055 52.0
394.37674 96.0
394.41629 108.0
394.455811 68.0
396.189087 28.0
397.30307 56.0
398.084991 48.0
398.160431 52.0
401.439636 28.0
401.535339 104.0
401.762695 56.0
402.493073 48.0
403.300079 40.0
405.5495 104.0
405.782013 48.0
406.548157 84.0
407.893616 36.0
408.372101 64.0
408.402496 136.0
408.545074 108.0
408.71405 156.0
408.754303 84.0
408.89917 80.0
408.955505 100.0
409.00058 100.0
409.17395 5728.0
409.374207 108.0
409.523224 112.0
409.567535 144.0
409.608521 92.0
409.731323 108.0
409.79715 68.0
409.89386 116.0
409.930115 84.0
410.075195 64.0
410.103424 32.0
410.176483 1368.0
410.252563 132.0
410.768738 48.0
410.928223 112.0
411.18457 568.0
411.733368 48.0
412.175842 240.0
412.573822 60.0
413.131897 48.0
413.322052 124.0
413.767273 140.0
413.803711 68.0
413.921143 64.0
414.233002 60.0
414.322113 104.0
414.735443 44.0
415.903595 44.0
416.38269 52.0
416.813293 32.0
416.931152 96.0
417.044952 116.0
420.8172 60.0
420.898865 60.0
424.667938 68.0
425.258759 76.0
429.876312 88.0
430.235413 120.0
431.946228 88.0
432.720093 112.0
434.701385 120.0
435.91391 56.0
439.14035 68.0
441.579468 48.0
441.993622 68.0
443.216309 100.0
445.868408 64.0
448.777161 56.0
450.756805 64.0
451.801117 44.0
454.975342 96.0
459.955933 52.0
460.643433 56.0
462.661865 112.0
465.646271 64.0
467.232422 36.0
468.96347 124.0
473.738251 76.0
477.527618 88.0
479.900909 92.0
480.075348 108.0
481.668365 44.0
485.458588 116.0
486.015656 52.0
495.743256 112.0
499.414856 120.0
499.953186 64.0
500.848083 56.0
501.257965 40.0
501.993469 108.0
505.137726 80.0
511.275696 100.0
511.752838 96.0
516.134033 36.0
519.013855 68.0
528.584045 100.0
530.159363 116.0
533.795044 104.0
537.387817 216.0
547.255554 56.0
547.954163 64.0
548.163879 172.0
549.418091 52.0
555.64032 100.0
558.411743 56.0
560.71875 124.0
566.516418 48.0
567.876831 76.0
573.763733 48.0
575.433533 96.0
578.703857 100.0
579.062988 100.0
580.740479 120.0
584.954468 120.0
592.827148 88.0
593.859802 88.0
597.605164 80.0
601.284241 80.0
602.001892 56.0
605.567139 84.0
612.049438 52.0
621.46051 72.0
628.116882 36.0
630.013855 172.0
636.43457 52.0
648.790527 56.0
649.06427 100.0
651.419189 84.0
654.022644 48.0
659.148071 64.0
665.797363 52.0
665.848755 92.0
670.401672 60.0
673.130554 40.0
674.117188 60.0
679.917297 72.0
681.017944 40.0
681.127014 64.0
682.020752 76.0
682.556213 68.0
687.139709 72.0
688.047852 92.0
690.603088 92.0
709.306335 180.0
709.576721 124.0
710.483582 44.0
711.486633 56.0
721.780273 44.0
723.14447 164.0
723.535217 64.0
728.264832 68.0
731.232666 68.0
734.956421 132.0
754.203186 48.0
757.913635 116.0
760.672241 84.0
762.661194 188.0
765.306763 204.0
765.378357 256.0
765.488464 92.0
766.265137 156.0
767.587952 172.0
767.847168 84.0
769.23761 216.0
771.585449 172.0
775.111145 72.0
779.233643 68.0
780.406372 88.0
782.954956 60.0
784.225281 116.0
786.009827 64.0
786.065613 144.0
791.347717 44.0
793.930908 76.0
796.984619 48.0
797.46228 72.0
800.962036 116.0
801.305725 220.0
804.209839 88.0
804.503357 144.0
805.738403 64.0
806.830872 92.0
808.041199 124.0
813.453247 192.0
813.576782 216.0
815.071838 64.0
815.861877 188.0
820.062744 188.0
823.451782 60.0
824.428711 188.0
831.208862 200.0
832.936951 156.0
844.50531 148.0
845.436768 212.0
847.623962 96.0
848.477722 152.0
849.817444 236.0
856.234985 164.0
856.782532 96.0
858.233704 120.0
858.78772 96.0
858.97937 140.0
860.053894 228.0
860.147278 124.0
860.818665 56.0
861.274231 108.0
862.285034 176.0
862.466187 252.0
863.506958 180.0
865.285828 140.0
869.189392 140.0
869.377136 124.0
871.596863 220.0
871.696716 228.0
875.438049 84.0
876.003479 160.0
876.186096 160.0
877.099487 64.0
878.656311 176.0
881.195007 144.0
882.649048 148.0
882.731812 124.0
884.423828 60.0
885.199402 160.0
887.059753 148.0
887.290955 148.0
887.966919 140.0
888.666931 156.0
889.889587 96.0
892.426575 120.0
893.033142 172.0
894.389771 232.0
896.588074 168.0
898.710327 192.0
900.740112 108.0
902.198242 140.0
903.089172 144.0
903.322449 192.0
903.460083 212.0
903.651489 196.0
905.327515 96.0
905.638977 152.0
906.178101 64.0
906.43573 188.0
907.784485 124.0
907.826477 192.0
908.174316 172.0
910.112671 180.0
910.328857 124.0
913.225586 108.0
914.200195 192.0
914.723877 188.0
915.970337 256.0
916.36792 148.0
918.260742 184.0
918.321045 52.0
919.044922 140.0
920.040771 152.0
923.176636 220.0
924.029541 152.0
924.568054 188.0
926.329956 212.0
927.814697 140.0
928.815247 124.0
929.009399 116.0
929.622192 52.0
929.755676 240.0
929.877075 140.0
930.611572 176.0
933.132996 164.0
936.419006 112.0
936.571289 152.0
936.687012 192.0
939.125122 60.0
940.180603 204.0
940.266052 192.0
940.375916 192.0
940.607849 120.0
941.096252 84.0
941.951233 60.0
942.152832 184.0
942.479431 148.0
942.496643 204.0
943.087769 160.0
947.242493 148.0
947.799988 120.0
949.872192 80.0
954.306152 196.0
954.681213 164.0
956.126953 188.0
956.45929 216.0
956.533203 224.0
956.943054 208.0
957.303223 168.0
959.342163 224.0
959.477783 148.0
959.638123 108.0
961.08136 136.0
961.895996 156.0
962.315796 108.0
963.056824 192.0
963.458374 136.0
963.699341 44.0
964.162781 124.0
964.515076 212.0
967.620544 184.0
968.044067 164.0
968.413147 204.0
968.462708 132.0
969.274231 188.0
969.373413 156.0
970.03656 176.0
970.172974 136.0
971.301575 228.0
971.574524 108.0
971.909546 188.0
972.747375 132.0
973.591797 148.0
974.424133 200.0
974.517334 160.0
977.626404 180.0
978.006042 40.0
978.697021 168.0
979.768311 108.0
980.422546 160.0
981.825195 152.0
982.729736 232.0
983.990479 144.0
984.477478 92.0
985.522034 216.0
987.034302 144.0
987.402222 144.0
987.496033 216.0
988.027771 188.0
988.647217 164.0
988.716064 172.0
989.21051 160.0
991.06427 152.0
991.277344 168.0
991.648315 184.0
991.772461 216.0
991.904053 224.0
992.330383 72.0
993.279907 48.0
993.490601 200.0
993.917236 92.0
994.513428 136.0
994.569885 180.0
995.009338 60.0
995.298157 112.0
996.686279 44.0
997.283325 140.0
997.40271 112.0
998.591064 164.0
998.779785 188.0
1000.233337 272.0
1000.579529 176.0
1000.938416 204.0
1002.24231 192.0
1002.525879 168.0
1003.187012 100.0
1003.250671 164.0
1003.635315 124.0
1004.114563 172.0
1004.284851 228.0
1004.328979 140.0
1004.492981 180.0
1004.757935 228.0
1008.685852 156.0
1009.254822 192.0
1009.520447 212.0
1010.614746 200.0
1011.943909 92.0
1012.153076 196.0
1012.216125 200.0
1013.292908 96.0
1013.88855 168.0
1014.192749 124.0
1014.268799 40.0
1014.725281 204.0
1015.245239 156.0
1016.253784 180.0
1017.116882 80.0
1018.005737 192.0
1018.304199 168.0
1018.519104 172.0
1018.621765 80.0
1020.566467 216.0
1020.922607 152.0
1021.246948 144.0
1021.743103 180.0
1022.875854 120.0
1023.799011 132.0
1024.493286 116.0
1024.773682 128.0
1025.130493 232.0
1025.939941 200.0
1026.258667 180.0
1026.3479 164.0
1027.036743 92.0
1027.591675 144.0
1031.653442 92.0
1031.858032 168.0
1032.862061 220.0
1032.926025 140.0
1033.744995 160.0
1033.879272 184.0
1033.924072 216.0
1034.167358 160.0
1034.256958 188.0
1034.672974 252.0
1035.012329 132.0
1035.076538 188.0
1035.33252 160.0
1035.921753 156.0
1035.973022 192.0
1036.575317 136.0
1037.459839 216.0
1037.741943 156.0
1039.210693 108.0
1039.987183 80.0
1040.05127 164.0
1040.265015 156.0
1041.605225 172.0
1041.656616 60.0
1041.714478 176.0
1042.112793 76.0
1042.446899 200.0
1042.916016 172.0
1043.34668 112.0
1043.970459 168.0
1044.999634 164.0
1045.186157 160.0
1045.868286 164.0
1046.259888 152.0
1046.415527 212.0
1046.637085 192.0
1046.756836 220.0
1047.046631 176.0
1047.178711 152.0
1047.226929 168.0
1048.064331 64.0
1048.511719 164.0
1048.63147 192.0
1048.979492 152.0
1049.025391 172.0
1049.224487 176.0
1049.514648 64.0
1049.779053 220.0
1050.21106 144.0
1050.494873 172.0
1050.546509 108.0
1050.733643 236.0
1050.920776 60.0
1051.753174 144.0
1053.089722 164.0
1053.87793 224.0
1054.440063 188.0
1054.866699 160.0
1055.927124 52.0
1056.282837 40.0
1056.528687 48.0
1056.826294 120.0
1057.531616 196.0
1057.71936 132.0
1058.036499 168.0
1059.1698 132.0
1059.364136 128.0
1059.662109 176.0
1060.16748 140.0
1060.33606 140.0
1060.919434 140.0
1061.185181 168.0
1062.41748 176.0
1062.66394 48.0
1064.065796 180.0
1064.11438 196.0
1064.396973 60.0
1064.522827 188.0
1065.266479 136.0
1065.420776 152.0
1065.981934 180.0
1066.969971 196.0
1067.724243 136.0
1067.925781 180.0
1068.003906 160.0
1068.472168 176.0
1068.634888 152.0
1069.747803 52.0
1070.405273 224.0
1071.584229 204.0
1071.753662 168.0
1071.799316 196.0
1072.913818 156.0
1073.233276 104.0
1074.394165 44.0
1074.498535 228.0
1074.80957 148.0
1074.890015 44.0
1075.098877 132.0
1075.22937 164.0
1075.575317 168.0
1075.627563 180.0
1076.006104 172.0
1076.067993 180.0
1076.848511 124.0
1076.913818 148.0
1077.462524 128.0
1078.161743 168.0
1078.691162 136.0
1078.834961 132.0
1079.20105 144.0
1080.495972 124.0
1081.228882 156.0
1081.372925 156.0
1082.424805 220.0
1082.48584 188.0
1082.701904 156.0
1082.931152 160.0
1082.983521 184.0
1084.075562 272.0
1084.169312 172.0
1084.367676 208.0
1084.837891 204.0
1085.939453 200.0
1086.792358 424.0
1087.940796 160.0
1088.419434 176.0
1089.530151 228.0
1089.654907 252.0
1090.706421 156.0
1090.962769 164.0
1091.600464 136.0
1092.100342 124.0
1092.442383 40.0
1092.869995 164.0
1093.245117 108.0
1093.738647 128.0
1094.377319 156.0
1094.489258 136.0
1094.868164 232.0
1095.101685 116.0
1095.417847 172.0
1095.483643 120.0
1095.707642 148.0
1096.241333 132.0
1096.735718 168.0
1096.78186 176.0
1096.986206 144.0
1097.553101 168.0
1099.327637 160.0
1099.538818 184.0
1099.606201 228.0
1100.093262 152.0
1100.317627 172.0
1100.396851 172.0
1100.469482 128.0
1100.95813 232.0
1101.189331 56.0
1101.261963 148.0
1101.394043 96.0
1101.942383 164.0
1102.206665 148.0
1102.437988 144.0
1103.746826 60.0
1104.083984 156.0
1104.633057 180.0
1105.228394 180.0
1105.334351 144.0
1105.446777 208.0
1105.499756 144.0
1105.850464 128.0
1106.227783 156.0
1106.77063 180.0
1106.975952 52.0
1107.130127 128.0
1107.353394 160.0
1108.340454 144.0
1108.638672 148.0
1109.255127 240.0
1109.447266 136.0
1109.586548 60.0
1110.421997 208.0
1110.501587 248.0
1110.707275 140.0
1111.774902 200.0
1111.894897 116.0
1112.23999 204.0
1112.419312 92.0
1113.581299 176.0
1114.125977 200.0
1114.949829 164.0
1115.44165 276.0
1115.80835 156.0
1115.99353 48.0
1116.505493 164.0
1116.891235 236.0
1117.223877 128.0
1117.696289 136.0
1117.929199 208.0
1118.28186 196.0
1118.681274 224.0
1118.747803 80.0
1119.646729 76.0
1119.719971 224.0
1119.859863 156.0
1119.9198 124.0
1120.619263 184.0
1121.632202 192.0
1121.905518 152.0
1122.018799 204.0
1123.045776 128.0
1123.24585 176.0
1123.886353 56.0
1124.286743 156.0
1124.960815 268.0
1125.468262 208.0
1125.521606 84.0
1125.862183 144.0
1126.055908 164.0
1126.135986 60.0
1126.216187 184.0
1127.011108 128.0
1127.505615 104.0
1127.612549 112.0
1127.746216 176.0
1128.147339 168.0
1128.294434 256.0
1128.361206 136.0
1128.434814 160.0
1128.488281 68.0
1128.902832 152.0
1129.668579 144.0
1129.825928 192.0
1130.240723 148.0
1130.434692 108.0
1130.62207 184.0
1130.876465 112.0
1131.047363 176.0
1131.828003 144.0
1132.52356 228.0
1132.871826 164.0
1133.414551 172.0
1133.696045 140.0
1133.876953 156.0
1134.124878 180.0
1134.560669 168.0
1135.023315 132.0
1135.244507 124.0
1135.378662 140.0
1135.727417 224.0
1135.935425 144.0
1136.76062 180.0
1136.968628 96.0
1137.149902 48.0
1137.391479 128.0
1137.827881 236.0
1138.15686 156.0
1138.754517 104.0
1138.861938 120.0
1139.317871 160.0
1139.339844 188.0
1139.42627 160.0
1139.524048 184.0
1139.882446 168.0
1140.569824 184.0
1141.133301 156.0
1141.59729 136.0
1141.745239 140.0
1141.886475 76.0
1141.940308 156.0
1142.014282 180.0
1142.559082 120.0
1142.619629 148.0
1143.077148 176.0
1144.564819 176.0
1144.813965 120.0
1144.975586 152.0
1145.036255 184.0
1145.083374 140.0
1146.066895 140.0
1146.403809 200.0
1146.632935 160.0
1146.728638 204.0
1146.848633 152.0
1147.320923 256.0
1147.590088 164.0
1148.014893 68.0
1148.230713 132.0
1148.372314 196.0
1148.527466 124.0
1148.621948 136.0
1148.790527 104.0
1148.952515 240.0
1148.999756 144.0
1149.330322 160.0
1150.018677 148.0
1150.17395 356.0
1150.740967 152.0
1150.90979 64.0
1150.970581 204.0
1151.150513 124.0
1151.963379 156.0
1152.213257 160.0
1152.483521 224.0
1152.740356 204.0
1153.808228 220.0
1154.024536 116.0
1154.281494 112.0
1154.565552 136.0
1154.829346 180.0
1154.971313 140.0
1155.059326 80.0
1155.377197 172.0
1155.47876 216.0
1155.691406 224.0
1156.080933 172.0
1156.270386 188.0
1156.568237 84.0
1156.963745 180.0
1157.468628 100.0
1157.556641 200.0
1157.600464 152.0
1157.874878 136.0
1157.983276 48.0
1158.091675 140.0
1158.322632 188.0
1158.437134 184.0
1158.633545 200.0
1158.966431 124.0
1159.819458 152.0
1159.968628 208.0
1160.106934 184.0
1160.483765 144.0
1161.155151 248.0
1161.507812 148.0
1161.962402 228.0
1162.240479 100.0
1162.355835 136.0
1162.450928 120.0
1163.041382 248.0
1163.190674 120.0
1163.883179 124.0
1164.21582 160.0
1164.745605 196.0
1165.078491 144.0
1165.126099 172.0
1165.357056 180.0
1165.685181 124.0
1165.751099 140.0
1165.873535 176.0
1165.940796 176.0
1166.689087 188.0
1166.879517 116.0
1167.015503 176.0
1168.988037 48.0
1169.682251 100.0
1169.818359 136.0
1170.397095 156.0
1170.46521 144.0
1171.125732 272.0
1171.221191 148.0
1171.67749 188.0
1171.888794 164.0
1171.943237 232.0
1172.004517 136.0
1172.563354 148.0
1172.876953 176.0
1173.572266 192.0
1173.823486 136.0
1174.135376 156.0
1174.356445 100.0
1174.423096 168.0
1174.602051 132.0
1174.683838 164.0
1174.806641 156.0
1174.902222 148.0
1174.970459 156.0
1175.076172 164.0
1175.619385 200.0
1175.987183 72.0
1176.062256 184.0
1176.294312 156.0
1176.799561 48.0
1176.949707 156.0
1177.02478 164.0
1177.318481 208.0
1177.871704 164.0
1178.643677 160.0
1178.848633 160.0
1179.183594 88.0
1180.024292 172.0
1180.639771 180.0
1180.899658 32.0
1181.364746 180.0
1182.200439 176.0
1182.50061 76.0
1182.979736 192.0
1183.039429 164.0
1183.369995 140.0
1183.780884 120.0
1184.225952 200.0
1184.650635 148.0
1184.869873 176.0
1185.239868 168.0
1185.541382 192.0
1186.151367 96.0
1186.398193 164.0
1186.507812 120.0
1187.076904 136.0
1187.193481 148.0
1187.515869 156.0
1187.646118 176.0
1187.989136 152.0
1188.428223 164.0
1188.846802 140.0
1189.15564 200.0
1189.313477 168.0
1189.697876 100.0
1189.938232 128.0
1190.006836 144.0
1190.226562 88.0
1190.315796 232.0
1190.494385 184.0
1190.562988 128.0
1190.63855 148.0
1191.078125 156.0
1191.222412 160.0
1191.524658 196.0
1191.744507 120.0
1192.060547 152.0
1192.582886 72.0
1192.782227 88.0
1192.906006 164.0
1193.036011 140.0
1193.167236 128.0
1193.913818 228.0
1194.36377 136.0
1194.501343 224.0
1195.485229 212.0
1195.746704 264.0
1196.07019 128.0
1196.552124 220.0
1196.889404 116.0
1196.972046 48.0
1197.433472 120.0
1197.488525 152.0
1197.584961 156.0
1197.991455 164.0
1198.30835 152.0
1198.404785 196.0
1198.749268 196.0
1198.921631 168.0
1199.080078 164.0
1199.331299 228.0
1199.838379 204.0
1200.829346 208.0
1200.907104 176.0
1201.045044 116.0
1201.107178 160.0
1201.214722 256.0
1201.321045 168.0
1201.652222 188.0
1201.97644 164.0
1202.04541 204.0
1202.866699 192.0
1203.267212 176.0
1203.94104 212.0
1203.96936 128.0
1203.980103 172.0
1204.365112 116.0
1204.724365 152.0
1204.869385 176.0
1205.049072 52.0
1205.166504 172.0
1205.263184 164.0
1205.380737 216.0
1206.333984 168.0
1206.46167 92.0
1207.046631 172.0
1207.108765 204.0
1207.357788 192.0
1207.411133 212.0
1207.772705 136.0
1208.056396 152.0
1208.302002 132.0
1208.384399 132.0
1208.519897 200.0
1208.595947 120.0
1208.900513 228.0
1209.036133 204.0
1209.281128 204.0
1209.557983 168.0
1209.640991 88.0
1209.772583 276.0
1210.23645 92.0
1210.61438 160.0
1211.37915 188.0
1211.791382 168.0
1212.058105 180.0
1212.293701 152.0
1212.633301 140.0
1212.702637 116.0
1213.284912 32.0
1213.613525 156.0
1213.742432 144.0
1213.8396 136.0
1214.158569 140.0
1214.219849 228.0
1214.324951 136.0
1214.984009 188.0
1216.63562 224.0
1217.454956 200.0
1217.69104 104.0
1217.739746 160.0
1217.906372 128.0
1218.281494 124.0
1218.413452 204.0
1218.462158 168.0
1218.538574 224.0
1218.594116 88.0
1219.203369 164.0
1219.490601 220.0
1219.685913 184.0
1220.025757 220.0
1220.088379 152.0
1220.317871 140.0
1220.491577 56.0
1221.187012 208.0
1221.583496 136.0
1221.758179 228.0
1221.85144 128.0
1221.980103 136.0
1222.035767 144.0
1222.174927 108.0
1222.508911 112.0
1223.02356 144.0
1223.490356 216.0
1223.621216 188.0
1223.775757 160.0
1224.068237 172.0
1224.38855 168.0
1224.472168 204.0
1224.667114 120.0
1225.001465 68.0
1225.36377 96.0
1225.562622 176.0
1226.050415 132.0
1226.130249 156.0
1226.199951 52.0
1226.395142 192.0
1226.464844 120.0
1227.196777 148.0
1227.838257 80.0
1227.956909 148.0
1228.068481 160.0
1228.245361 180.0
1228.623657 204.0
1228.877686 224.0
1228.933472 152.0
1229.226562 44.0
1229.847656 228.0
1230.510864 180.0
1230.769165 248.0
1230.832031 220.0
1231.118286 180.0
1231.530396 232.0
1231.593262 164.0
1232.151733 144.0
1232.16272 136.0
1232.189575 216.0
1232.452515 228.0
1232.497559 56.0
1232.676147 108.0
1232.745972 152.0
1232.89978 168.0
1233.619629 380.0
1233.794434 96.0
1233.969238 200.0
1234.276855 256.0
1234.640503 164.0
1234.815796 188.0
1235.514771 188.0
1235.899658 116.0
1236.102539 140.0
1236.830322 76.0
1237.439453 160.0
1237.502441 160.0
1237.635498 160.0
1237.789551 60.0
1238.229614 188.0
1238.4198 196.0
1238.713989 72.0
1238.763062 152.0
1239.036255 204.0
1239.323486 172.0
1239.624756 152.0
1239.743896 120.0
1239.884033 132.0
1240.563965 120.0
1240.641113 240.0
1240.718262 132.0
1240.977661 192.0
1241.152954 140.0
1241.615723 388.0
1241.692871 188.0
1241.755981 148.0
1241.83313 116.0
1242.204956 188.0
1242.282104 140.0
1242.490479 248.0
1242.618774 192.0
1242.688965 216.0
1242.80127 144.0
1243.032837 140.0
1243.095947 204.0
1243.21521 168.0
1243.278442 40.0
1243.664429 192.0
1244.710449 168.0
1244.86499 136.0
1244.920288 224.0
1245.17395 152.0
1245.258179 160.0
1245.504028 172.0
1245.74292 160.0
1245.932495 140.0
1246.31897 112.0
1246.635132 152.0
1246.698364 132.0
1247.135254 160.0
1247.348877 200.0
1247.991821 200.0
1248.083252 84.0
1248.638794 148.0
1248.948242 136.0
1249.567261 152.0
1249.700928 164.0
1249.844238 140.0
1250.165405 220.0
1250.404785 180.0
1250.826904 164.0
1250.988892 68.0
1251.080322 196.0
1251.139404 176.0
1251.35498 164.0
1251.446533 176.0
1251.82666 80.0
1252.08728 152.0
1252.418335 140.0
1252.54248 176.0
1252.75647 164.0
1252.940063 208.0
1252.995972 100.0
1253.168213 148.0
1253.196899 68.0
1253.211792 184.0
1253.320068 112.0
1253.397583 52.0
1253.813354 176.0
1253.933105 56.0
1254.327881 176.0
1254.440674 164.0
1254.623901 104.0
1254.877686 144.0
1255.011719 128.0
1255.272583 164.0
1255.448853 216.0
1255.723877 120.0
1256.24585 68.0
1256.379883 160.0
1256.4646 108.0
1257.189331 168.0
1257.318359 220.0
1257.381836 168.0
1257.78418 192.0
1258.05249 172.0
1258.257202 184.0
1259.078125 180.0
1259.323486 176.0
1259.51416 296.0
1259.782593 152.0
1259.839111 160.0
1259.959229 104.0
1260.229736 188.0
1260.559814 144.0
1260.800049 104.0
1260.849487 84.0
1260.962646 172.0
1261.478516 168.0
1261.711914 204.0
1261.959351 176.0
1262.136108 120.0
1262.256226 124.0
1262.327026 172.0
1262.829102 148.0
1263.380859 156.0
1263.4375 176.0
1263.529419 124.0
1263.748779 196.0
1263.96106 180.0
1264.35022 208.0
1264.60498 144.0
1264.711182 156.0
1264.859863 160.0
1264.930664 132.0
1265.263306 108.0
1265.411987 200.0
1265.5802 184.0
1265.67395 148.0
1266.268799 160.0
1266.785889 160.0
1266.991333 172.0
1267.303101 96.0
1267.877075 96.0
1268.054199 60.0
1268.146362 136.0
1268.751099 144.0
1268.950439 176.0
1269.124634 256.0
1269.524536 200.0
1269.748657 148.0
1270.018188 176.0
1270.103271 136.0
1270.259399 76.0
1270.50061 76.0
1270.784302 48.0
1271.629761 124.0
1271.891357 176.0
1271.948242 80.0
1272.225098 136.0
1272.402466 184.0
1272.608398 108.0
1272.920898 144.0
1273.531616 244.0
1273.666504 192.0
1273.741943 156.0
1273.972046 156.0
1274.76062 216.0
1274.817505 132.0
1274.86731 168.0
1275.009399 128.0
1275.492676 152.0
1275.549561 172.0
1275.702271 168.0
1275.855225 124.0
1275.990356 160.0
1276.068481 248.0
1276.161011 160.0
1276.367188 88.0
1276.921875 168.0
1277.391235 216.0
1277.554932 108.0
1277.834473 168.0
1277.917725 192.0
1278.410278 188.0
1278.736084 72.0
1279.305542 180.0
1279.376709 116.0
1279.725586 120.0
1279.782471 56.0
1280.316528 180.0
1280.539062 168.0
1280.722534 136.0
1280.88855 160.0
1280.957642 88.0
1281.463379 188.0
1281.705688 180.0
1281.8125 188.0
1282.389771 80.0
1282.824585 236.0
1283.096436 148.0
1283.159668 184.0
1283.394897 180.0
1283.658813 96.0
1283.723022 176.0
1284.001099 44.0
1284.364868 164.0
1285.128174 124.0
1285.204224 120.0
1285.313721 116.0
1285.420654 176.0
1285.627686 176.0
1285.698975 156.0
1285.898804 124.0
1286.048706 180.0
1286.419922 164.0
1286.655518 120.0
1286.807373 180.0
1286.94104 208.0
1287.205322 136.0
1287.390991 160.0
1287.662354 116.0
1287.71228 164.0
1287.905151 176.0
1288.098022 48.0
1288.440918 164.0
1288.569458 192.0
1288.733887 116.0
1289.119751 184.0
1289.305542 52.0
1289.569946 80.0
1289.805786 124.0
1289.882324 176.0
1290.013062 128.0
1290.492065 144.0
1290.706665 212.0
1290.894897 180.0
1291.593384 160.0
1291.707886 204.0
1291.840454 164.0
1291.994019 104.0
1292.201538 192.0
1292.473389 116.0
1292.852661 148.0
1293.031494 216.0
1293.281982 176.0
1293.36792 136.0
1293.481201 164.0
1293.639893 228.0
1293.897705 148.0
1294.005005 160.0
1294.083862 104.0
1294.169678 68.0
1294.291504 208.0
1294.506226 160.0
1294.570679 192.0
1294.978882 60.0
1295.262817 152.0
1295.587769 140.0
1296.010498 172.0
1296.318604 212.0
1296.64502 192.0
1296.856079 144.0
1297.080444 200.0
1297.637451 148.0
1297.80957 156.0
1297.891968 180.0
1298.505127 212.0
1298.634277 120.0
1298.864624 164.0
1299.050293 136.0
1299.531006 184.0
1299.602661 176.0
1300.549927 208.0
1300.758179 96.0
1300.994995 124.0
1301.425781 200.0
1301.655518 152.0
1301.705811 100.0
1301.879639 156.0
1302.093628 168.0
1302.284424 204.0
1302.352173 216.0
1302.661011 140.0
1303.070557 196.0
1303.149536 196.0
1303.307617 168.0
1303.810669 132.0
1304.004761 256.0
1304.572632 164.0
1304.68042 192.0
1304.874512 168.0
1305.083008 184.0
1305.325684 140.0
1305.536011 140.0
1305.586426 204.0
1305.636719 144.0
1305.818481 168.0
1306.032349 140.0
1306.456665 148.0
1306.77063 100.0
1306.895508 144.0
1307.21936 168.0
1307.269775 152.0
1307.327271 80.0
1307.471191 96.0
1307.622314 172.0
1307.924683 176.0
1308.205444 96.0
1308.428589 188.0
1308.596924 204.0
1308.730957 108.0
1308.918213 224.0
1308.990234 172.0
1309.05542 140.0
1309.119751 208.0
1309.2052 148.0
1309.357422 272.0
1309.501465 52.0
1309.638306 176.0
1309.703125 216.0
1310.466797 72.0
1310.524414 104.0
1310.57959 216.0
1310.651611 148.0
1310.733398 176.0
1310.89917 160.0
1311.0 156.0
1311.360352 120.0
1311.468506 116.0
1312.174927 132.0
1312.502808 156.0
1312.903198 124.0
1313.025757 92.0
1313.386475 192.0
1313.754272 92.0
1313.949097 156.0
1314.042847 152.0
1314.302612 112.0
1314.706665 152.0
1314.814941 124.0
1315.024292 188.0
1315.438599 248.0
1315.652222 192.0
1315.713867 188.0
1315.803833 260.0
1316.309326 180.0
1316.547607 160.0
1316.619507 164.0
1316.75708 76.0
1316.828857 160.0
1316.962036 196.0
1317.060425 192.0
1317.19043 148.0
1317.65271 140.0
1317.703369 140.0
1318.339233 172.0
1318.498169 76.0
1318.606567 176.0
1318.712036 216.0
1318.830688 124.0
1319.011353 240.0
1319.076416 160.0
1319.206543 152.0
1319.25708 164.0
1319.481201 140.0
1319.690918 148.0
1319.770386 180.0
1319.816528 60.0
1319.958374 140.0
1320.074097 84.0
1320.13916 184.0
1320.305542 68.0
1320.421265 176.0
1320.544189 148.0
1320.623779 68.0
1320.970947 144.0
1321.679932 148.0
1321.904297 176.0
1322.04895 200.0
1322.143066 152.0
1322.72937 204.0
1323.554688 216.0
1323.771851 184.0
1324.112305 108.0
1324.25708 184.0
1324.619263 220.0
1324.713501 136.0
1324.793091 156.0
1324.911987 136.0
1324.981445 220.0
1325.223999 124.0
1325.277466 140.0
1325.380005 188.0
1326.039429 132.0
1326.198853 148.0
1326.481567 188.0
1326.591187 164.0
1326.739868 184.0
1326.769043 116.0
1326.787476 144.0
1327.105103 188.0
1327.155762 172.0
1327.206543 76.0
1327.532837 204.0
1327.849243 176.0
1327.924561 116.0
1328.06958 160.0
1328.366943 204.0
1328.570068 212.0
1328.722412 180.0
1328.823975 132.0
1329.019897 208.0
1330.021362 196.0
1330.594849 116.0
1330.769165 132.0
1330.827148 164.0
1331.342773 100.0
1331.429932 216.0
1331.488037 108.0
1331.793091 124.0
1331.872925 44.0
1331.93103 52.0
1332.115967 312.0
1332.229126 144.0
1332.286987 168.0
1332.715698 168.0
1332.882812 180.0
1333.166138 80.0
1333.456909 140.0
1333.522339 252.0
1333.645874 132.0
1333.958374 120.0
1334.12561 212.0
1334.270996 148.0
1335.405396 44.0
1335.507202 152.0
1335.579956 148.0
1335.65271 92.0
1335.73999 128.0
1336.372925 80.0
1336.438354 132.0
1336.765869 156.0
1337.333496 132.0
1337.711914 204.0
1337.798218 156.0
1337.82605 132.0
1337.988647 144.0
1338.068726 124.0
1338.338135 160.0
1338.920654 148.0
1339.044434 152.0
1339.131836 124.0
1339.692749 172.0
1340.355713 200.0
1340.690918 132.0
1340.843994 216.0
1341.485352 112.0
1342.152466 244.0
1342.229004 116.0
1342.376221 176.0
1343.053101 108.0
1343.427612 48.0
1343.797241 256.0
1343.950439 56.0
1344.030762 44.0
1344.271484 140.0
1344.351807 188.0
1344.614502 176.0
1345.036133 168.0
1345.388916 160.0
1345.59021 212.0
1345.978149 216.0
1346.096436 160.0
1346.381226 40.0
1346.483521 148.0
1346.753784 224.0
1346.958252 196.0
1347.23584 160.0
1347.484253 136.0
1347.608398 72.0
1347.812988 64.0
1348.14917 164.0
1348.229614 236.0
1348.361084 144.0
1348.663574 352.0
1348.858154 180.0
1349.545288 204.0
1349.669678 124.0
1349.837769 128.0
1350.036621 176.0
1350.09375 120.0
1350.225342 144.0
1350.393555 188.0
1350.539917 152.0
1350.934937 132.0
1351.154297 144.0
1351.245483 176.0
1351.366577 168.0
1351.754272 132.0
1352.115356 164.0
1352.200684 84.0
1352.376343 148.0
1352.442261 212.0
1352.500854 136.0
1352.669189 140.0
1352.991333 252.0
1354.332764 292.0
1354.419189 184.0
1354.631714 116.0
1354.704956 192.0
1355.100464 160.0
1355.232422 100.0
1355.518188 176.0
1355.987183 116.0
1356.280396 100.0
1356.335327 220.0
1356.427002 112.0
1356.567383 184.0
1356.661499 204.0
1357.094116 164.0
1357.28479 108.0
1357.490112 140.0
1357.827393 204.0
1358.005005 144.0
1358.223511 356.0
1358.289429 144.0
1358.473999 200.0
1358.72229 144.0
1358.7771 144.0
1358.913086 168.0
1359.676147 312.0
1359.881836 144.0
1359.947754 52.0
1360.395508 168.0
1360.468872 132.0
1360.542358 68.0
1360.59375 160.0
1360.924072 136.0
1361.063599 200.0
1361.482178 156.0
1361.724487 148.0
1361.952271 120.0
1362.951294 144.0
1363.029785 204.0
1363.120361 136.0
1363.193848 176.0
1363.252686 156.0
1363.583374 180.0
1363.798828 320.0
1363.991821 160.0
1364.149292 136.0
1364.377197 172.0
1364.803589 80.0
1364.921265 152.0
1365.299805 140.0
1365.460938 248.0
1365.803833 160.0
1365.987671 128.0
1366.120117 148.0
1366.555908 148.0
1366.579712 152.0
1366.611328 220.0
1366.708618 184.0
1366.811646 204.0
1366.87793 144.0
1367.069214 188.0
1367.24585 136.0
1367.6875 164.0
1367.753662 188.0
1368.077637 148.0
1368.31311 240.0
1368.460449 76.0
1368.548828 116.0
1368.799072 144.0
1368.929077 232.0
1369.447144 160.0
1369.572388 148.0
1369.631348 196.0
1370.080811 164.0
1370.228027 48.0
1370.338501 124.0
1370.404907 180.0
1370.478516 60.0
1370.530151 172.0
1370.706909 156.0
1370.920654 184.0
1371.074585 204.0
1371.156494 252.0
1371.370239 172.0
1371.8125 36.0
1372.099976 184.0
1372.217896 216.0
1372.469849 148.0
1372.519043 276.0
1372.598022 164.0
1372.882935 104.0
1373.206055 176.0
1373.360962 72.0
1373.582275 160.0
1373.729736 188.0
1374.078369 176.0
1374.305176 196.0
1374.593018 188.0
1374.947266 196.0
1375.020996 116.0
1375.161255 164.0
1375.257202 36.0
1375.692749 164.0
1375.818237 196.0
1375.980591 104.0
1376.047119 132.0
1376.342407 104.0
1376.504883 116.0
1376.608276 132.0
1376.771484 160.0
1376.984863 156.0
1377.058716 196.0
1377.507446 164.0
1377.70874 224.0
1378.0979 192.0
1378.154175 108.0
1378.218506 168.0
1378.388428 140.0
1378.49939 208.0
1378.654541 188.0
1379.038818 192.0
1379.120117 80.0
1379.240967 160.0
1379.408447 104.0
1379.538818 252.0
1379.65979 148.0
1379.733643 156.0
1379.814941 144.0
1380.169922 152.0
1380.295532 212.0
1380.458252 88.0
1380.51001 68.0
1380.598755 64.0
1380.905273 112.0
1380.961182 128.0
1381.109131 160.0
1381.227417 168.0
1381.510864 196.0
1381.81189 152.0
1381.959839 124.0
1382.130005 200.0
1382.455566 216.0
1383.003296 32.0
1383.2771 148.0
1383.469604 164.0
1383.684326 268.0
1384.168457 132.0
1384.447021 168.0
1384.787598 56.0
1384.883911 220.0
1384.972778 176.0
1385.217285 124.0
1385.506226 180.0
1385.780273 92.0
1385.85437 108.0
1385.921021 152.0
1386.02478 48.0
1386.158203 196.0
1386.414307 152.0
1386.721436 192.0
1386.995605 68.0
1387.484131 192.0
1387.532349 100.0
1387.603516 128.0
1387.685059 192.0
1387.974243 64.0
1388.223145 324.0
1388.493408 92.0
1388.545288 204.0
1388.708374 144.0
1388.955811 192.0
1389.205444 116.0
1389.257324 124.0
1389.650513 200.0
1389.843506 40.0
1389.983643 76.0
1390.110596 164.0
1390.28125 152.0
1390.333252 204.0
1390.531616 184.0
1390.704346 188.0
1390.941772 84.0
1391.379761 212.0
1391.570679 160.0
1391.647095 204.0
1391.921875 192.0
1392.107422 184.0
1392.244995 184.0
1392.456543 152.0
1392.872437 176.0
1393.080444 128.0
1393.212891 116.0
1393.333008 176.0
1393.38501 240.0
1393.60791 92.0
1393.860596 184.0
1394.024048 132.0
1394.350952 168.0
1394.484741 184.0
1395.324829 140.0
1395.384277 120.0
1395.545166 148.0
1395.812012 204.0
1396.207031 164.0
1396.388062 148.0
1396.630249 224.0
1396.695435 184.0
1396.767456 212.0
1396.819458 128.0
1397.094727 60.0
1397.883423 148.0
1398.002441 152.0
1398.188599 160.0
1398.717041 108.0
1398.776489 88.0
1398.828613 128.0
1398.932861 128.0
1399.09668 144.0
1399.176025 280.0
1399.305054 164.0
1399.364624 176.0
1399.841187 184.0
1400.355103 112.0
1400.787109 148.0
1401.308594 128.0
1401.502319 136.0
1401.56189 92.0
1402.322021 64.0
1402.799316 144.0
1403.30603 132.0
1403.611694 200.0
1403.671387 240.0
1404.133667 148.0
1404.379883 196.0
1404.61853 132.0
1404.700562 156.0
1404.999023 108.0
1405.304932 164.0
1405.416748 200.0
1405.468994 132.0
1405.763184 184.0
1405.894653 216.0
1406.26001 76.0
1406.52124 140.0
1406.633301 196.0
1406.700439 136.0
1406.939331 228.0
1407.103638 144.0
1407.177246 216.0
1407.342529 172.0
1407.525024 136.0
1407.592651 120.0
1407.678467 224.0
1407.730835 92.0
1407.827881 112.0
1407.910034 136.0
1408.5 156.0
1408.768921 188.0
1408.836182 172.0
1409.239624 156.0
1409.586426 164.0
1410.360596 196.0
1410.450317 324.0
1410.637207 216.0
1410.689453 180.0
1410.759033 200.0
1410.898804 188.0
1411.070801 168.0
1411.377319 164.0
1411.579224 180.0
1411.712036 240.0
1412.042847 212.0
1412.170044 204.0
1412.693604 156.0
1412.783325 184.0
1413.105103 212.0
1413.228516 332.0
1413.344482 168.0
1413.396851 108.0
1413.456787 64.0
1414.077881 60.0
1414.452148 240.0
1414.534424 112.0
1414.616821 192.0
1414.751587 140.0
1414.923706 212.0
1415.470337 164.0
1415.644287 68.0
1415.709961 232.0
1415.882202 172.0
1416.174316 44.0
1416.279175 144.0
1416.578735 224.0
1416.796021 156.0
1416.857544 192.0
1416.990723 164.0
1417.050659 144.0
1417.10083 116.0
1417.187988 188.0
1417.339233 164.0
1417.462769 176.0
1417.852539 192.0
1417.92749 356.0
1418.227295 92.0
1418.324707 48.0
1418.414673 160.0
1418.894409 116.0
1419.055908 228.0
1419.15979 188.0
1419.294922 160.0
1419.359253 160.0
1419.47168 176.0
1419.569214 88.0
1419.704224 152.0
1419.779175 204.0
1419.861694 152.0
1420.348511 212.0
1420.799316 168.0
1421.129395 144.0
1421.41333 120.0
1421.534668 132.0
1421.669678 40.0
1421.902344 140.0
1421.969849 160.0
1422.277832 148.0
1422.451538 72.0
1422.532837 200.0
1422.769653 204.0
1422.88562 176.0
1422.960693 112.0
1423.493896 152.0
1423.614014 144.0
1423.786743 228.0
1423.884399 168.0
1424.22229 208.0
1424.319946 64.0
1424.522827 60.0
1425.091064 200.0
1425.221436 160.0
1425.559692 160.0
1425.852783 172.0
1425.950439 180.0
1426.33374 136.0
1426.453979 88.0
1426.897583 316.0
1427.258423 136.0
1427.438965 88.0
1428.168457 84.0
1429.041016 136.0
1429.161499 152.0
1429.274292 100.0
1429.334473 156.0
1429.492554 128.0
1429.552734 128.0
1429.85376 148.0
1430.094604 168.0
1430.290283 120.0
1430.538696 144.0
1430.711792 172.0
1431.396973 76.0
1431.698242 124.0
1432.104858 184.0
1432.315796 124.0
1432.511719 196.0
1432.850708 188.0
1433.2677 216.0
1433.513672 288.0
1433.573975 152.0
1433.87854 192.0
1434.415283 180.0
1434.553833 120.0
1434.70459 84.0
1434.960938 116.0
1435.255005 308.0
1435.330322 80.0
1435.427002 168.0
1435.579224 204.0
1435.84314 144.0
1436.069458 204.0
1436.808716 164.0
1436.866699 212.0
1437.013062 136.0
1437.133057 164.0
1437.349243 200.0
1437.455444 216.0
1437.484863 156.0
1437.736816 160.0
1437.827393 180.0
1437.877441 152.0
1437.967163 200.0
1438.265137 248.0
1438.355713 188.0
1438.884155 208.0
1439.365112 292.0
1439.661865 180.0
1439.926147 204.0
1440.092285 144.0
1440.303833 180.0
1440.63147 388.0
1440.938354 180.0
1441.394531 148.0
1441.920654 180.0
1441.993896 200.0
1442.291016 132.0
1442.653931 48.0
1442.706787 120.0
1442.782349 140.0
1443.208618 288.0
1443.28894 48.0
1443.394775 176.0
1443.493164 216.0
1443.735107 48.0
1443.954468 160.0
1444.196411 188.0
1444.287476 204.0
1444.869751 164.0
1445.073975 112.0
1445.255615 144.0
1445.40686 40.0
1445.505249 128.0
1445.633911 144.0
1445.891235 116.0
1446.133423 144.0
1446.356567 160.0
1446.466431 180.0
1446.685913 164.0
1446.769287 172.0
1446.867676 180.0
1446.928223 176.0
1447.056885 224.0
1448.064087 140.0
1448.462891 172.0
1448.563965 40.0
1448.616943 152.0
1449.170044 168.0
1449.450439 60.0
1449.673218 60.0
1449.745972 172.0
1450.102173 116.0
1450.202026 132.0
1450.299194 124.0
1450.435669 340.0
1450.488647 160.0
1450.663086 120.0
1451.05603 300.0
1451.160522 208.0
1451.49707 188.0
1451.613159 236.0
1451.761475 188.0
1451.929321 236.0
1451.98999 116.0
1452.278198 152.0
1452.5979 184.0
1452.778809 176.0
1453.059448 148.0
1453.234009 168.0
1453.656372 132.0
1453.772705 168.0
1453.977661 184.0
1454.136963 104.0
1454.220459 192.0
1454.470947 152.0
1454.592407 204.0
1454.653198 196.0
1454.721436 188.0
1454.873291 140.0
1455.085815 156.0
1455.169434 196.0
1455.359253 180.0
1455.647705 160.0
1456.004639 184.0
1456.224854 200.0
1456.293213 140.0
1456.422363 224.0
1457.075684 152.0
1457.303589 332.0
1457.455566 212.0
1457.565308 216.0
1457.81189 180.0
1457.97229 196.0
1458.055908 88.0
1458.17749 188.0
1458.38269 212.0
1458.7323 208.0
1459.165649 192.0
1459.294922 160.0
1459.424194 104.0
1459.621826 168.0
1459.695923 164.0
1459.957886 156.0
1460.062988 116.0
1460.202026 208.0
1460.894897 152.0
1461.82019 152.0
1462.170288 148.0
1462.316162 212.0
1462.550903 244.0
1462.870605 164.0
1463.175049 52.0
1463.277222 172.0
1463.5177 132.0
1463.814697 164.0
1463.958252 88.0
1464.218262 144.0
1464.42395 176.0
1464.51123 164.0
1464.757812 168.0
1465.109497 192.0
1465.19751 144.0
1465.421875 88.0
1465.551392 144.0
1465.660889 176.0
1465.993286 136.0
1466.084717 84.0
1466.206665 152.0
1466.679199 124.0
1466.946045 188.0
1467.060425 136.0
1467.479736 208.0
1467.582153 212.0
1468.143066 92.0
1468.257446 132.0
1468.534546 220.0
1468.913452 80.0
1469.096558 156.0
1469.517456 176.0
1469.653442 168.0
1469.729736 80.0
1469.905273 208.0
1469.966309 128.0
1470.118896 236.0
1470.798218 172.0
1470.859253 164.0
1471.072998 256.0
1471.370728 136.0
1472.56189 112.0
1472.661255 168.0
1473.027832 140.0
1473.104248 124.0
1473.211182 168.0
1473.406372 160.0
1473.524414 156.0
1473.677002 152.0
1473.807129 56.0
1473.898804 136.0
1473.959961 200.0
1474.128052 120.0
1474.319092 152.0
1474.456665 152.0
1474.773682 188.0
1475.38147 204.0
1475.473267 140.0
1475.534424 104.0
1475.679688 188.0
1475.962646 200.0
1476.130859 236.0
1476.228271 192.0
1476.666138 180.0
1477.299194 204.0
1477.660522 136.0
1477.735229 176.0
1477.897705 140.0
1477.981934 144.0
1478.112061 164.0
1478.402832 100.0
1478.517578 172.0
1478.994019 208.0
1479.359497 152.0
1479.673462 136.0
1479.926025 44.0
1480.190186 120.0
1480.706299 144.0
1480.852661 52.0
1480.93689 192.0
1481.059448 144.0
1481.204956 188.0
1481.266235 156.0
1481.608521 208.0
1481.741211 144.0
1481.80249 216.0
1481.87146 124.0
1481.97876 136.0
1482.4823 272.0
1482.791016 176.0
1483.047607 180.0
1483.181885 140.0
1483.511597 176.0
1483.672485 148.0
1483.733887 72.0
1483.933228 220.0
1484.109497 176.0
1484.178589 272.0
1484.623291 232.0
1484.769043 168.0
1485.091187 104.0
1485.259888 160.0
1485.359619 144.0
1485.689453 156.0
1485.79126 188.0
1486.234253 96.0
1486.940186 72.0
1487.009277 176.0
1487.071899 148.0
1487.323975 136.0
1487.56958 236.0
1487.738525 84.0
1487.93811 136.0
1488.400391 228.0
1488.513916 220.0
1488.598389 112.0
1488.767334 136.0
1488.859497 168.0
1489.166748 220.0
1489.456665 256.0
1489.58252 172.0
1489.645874 168.0
1489.865723 72.0
1489.950195 32.0
1490.172974 128.0
1490.441895 180.0
1490.526489 160.0
1490.612671 184.0
1490.733887 160.0
1490.810791 124.0
1491.28833 184.0
1491.44104 184.0
1491.525513 64.0
1491.66394 144.0
1491.825317 176.0
1491.917603 108.0
1492.05603 200.0
1492.208374 156.0
1492.302002 168.0
1492.455811 164.0
1492.64502 104.0
1492.894043 224.0
1493.101685 148.0
1493.155518 156.0
1493.53186 156.0
1493.629395 152.0
1493.85376 176.0
1493.885864 136.0
1493.895386 168.0
1493.98938 168.0
1494.232422 160.0
1494.309448 188.0
1494.440186 180.0
1494.632568 148.0
1494.80957 104.0
1494.944824 104.0
1494.965454 168.0
1495.834717 228.0
1496.010254 140.0
1496.275513 96.0
1496.418213 140.0
1496.547363 196.0
1496.949463 68.0
1497.234497 240.0
1497.525391 208.0
1497.547729 160.0
1497.572754 156.0
1497.919922 112.0
1498.351318 208.0
1498.520874 152.0
1498.620972 68.0
1498.713501 140.0
1498.767456 196.0
1498.898438 140.0
1499.060181 136.0
1499.229736 144.0
1499.291382 164.0
1499.421509 172.0
1499.830933 252.0
1499.946533 148.0
1500.208618 152.0
1500.355103 236.0
1500.547852 204.0
1500.627441 240.0
1500.890503 36.0
1501.04126 232.0
1501.103027 120.0
1501.210938 152.0
1501.309814 156.0
1501.362427 100.0
1501.604248 52.0
1501.795166 180.0
1501.999512 216.0
1502.059326 192.0
1502.19812 176.0
1502.769043 192.0
1502.85791 180.0
1503.069946 144.0
1503.124023 212.0
1503.224365 172.0
1503.414062 116.0
1503.695068 104.0
1503.845703 128.0
1504.150513 96.0
