>compound MLS002637643-01!
>formula C14H9NO2
>ionization [M+H]+
>parentmass 224.070663
#inchi InChI=1S/C14H9NO2/c16-13-11-8-4-5-9-12(11)14(17)15(13)10-6-2-1-3-7-10/h1-9H
#inchikey MFUPLJQNEXUUDW
#Ion_Source LC-ESI
#Instrument qTof
#Compound_Source NIH Natural Product Library
#PI Dorrestein
#Data_Collector VVP/LMS
#Scan -1
#Precursor_MZ 224.071
#ExactMass 223.063
#Charge 1
#CAS_Number N/A
#Pubmed_ID N/A
#Smiles O=C1N(C(=O)c2ccccc12)c3ccccc3
#INCHI_AUX N/A
#Library_Class 3
#SpectrumID CCMSLIB00000079648
#IonMode Positive
#UpdateWorkflowName UPDATE-SINGLE-ANNOTATED-BRONZE
#LibraryQualityString Bronze
#TaskID b1d8e8f6646f4e71acdff9ca3d919d08
##Scan# 2160
#SpectrumFile p1-C09_GC9_01_17905.mzXML
#LibraryName NIH_Natural_Products_Library.mgf
#MQScore -1
#Organism NIH_Natural_Products_Library
#TIC_Query 0
#RT_Query -1
#MZErrorPPM -1
#SharedPeaks 0
#MassDiff 0
#LibMZ -1
#SpecMZ 224.071
#SpecCharge 0
#internalFilename spec-00000.mgf

>collision 10
95.537735 80.0
101.95063 108.0
102.034241 704.0
104.053322 172.0
105.027946 228.0
107.252762 116.0
113.372757 232.0
115.048798 196.0
118.663147 132.0
119.465317 32.0
120.044006 248.0
122.047394 120.0
122.289375 144.0
129.859741 56.0
130.0298 2160.0
130.143402 32.0
131.030792 452.0
131.895264 148.0
132.348221 44.0
137.020691 152.0
139.055038 172.0
141.068909 148.0
141.992325 128.0
146.024323 520.0
149.023697 344.0
149.334839 120.0
151.054489 188.0
152.041809 116.0
153.066895 180.0
165.608261 112.0
166.064484 128.0
167.079102 296.0
168.081329 140.0
169.063278 124.0
175.935089 144.0
177.056183 328.0
179.050613 96.0
179.070755 136.0
182.64241 108.0
182.7258 84.0
184.00325 176.0
185.97934 128.0
189.538223 60.0
192.191574 168.0
193.053406 196.0
195.074585 132.0
196.068176 184.0
196.072571 180.0
197.072769 168.0
203.168137 20.0
206.064301 164.0
211.12822 184.0
214.706055 156.0
223.480072 20.0
223.993607 72.0
224.070663 1728.0
225.071854 512.0
226.07756 156.0
226.799332 48.0
261.765778 124.0
321.51358 20.0
327.619751 40.0
405.674957 68.0
419.056122 136.0
573.813293 20.0
955.128845 108.0
1165.737671 172.0
1173.94043 140.0
1175.898315 56.0
1179.894287 136.0
1210.560913 144.0
1215.70459 184.0
1248.777588 160.0
1253.39563 136.0
1329.99585 144.0
1333.547485 20.0
1410.586548 64.0
1437.654785 228.0
1459.272705 132.0
1482.568848 20.0
