>compound MLS001141240-01!(2R)-3-benzylsulfanyl-2-[[2-[(6-methyl-4-oxo-2,3-dihydro-1H-cyclopenta[c]chromen-7-yl)oxy]acetyl]amino]propanoic acid
>formula C25H25NO6S
>ionization [M+H]+
>parentmass 468.148
#inchi InChI=1S/C25H25NO6S/c1-15-21(11-10-18-17-8-5-9-19(17)25(30)32-23(15)18)31-12-22(27)26-20(24(28)29)14-33-13-16-6-3-2-4-7-16/h2-4,6-7,10-11,20H,5,8-9,12-14H2,1H3,(H,26,27)(H,28,29)/t20-/m0/s1
#inchikey RRJVISVLULBUJE
#Ion_Source LC-ESI
#Instrument qTof
#Compound_Source NIH Natural Product Library
#PI Dorrestein
#Data_Collector VVP/LMS
#Scan -1
#Precursor_MZ 468.148
#ExactMass 467.14
#Charge 1
#CAS_Number N/A
#Pubmed_ID N/A
#Smiles Cc1c(OCC(=O)N[C@@H](CSCc2ccccc2)C(=O)O)ccc3c4CCCc4c(=O)oc13
#INCHI_AUX N/A
#Library_Class 3
#SpectrumID CCMSLIB00000079662
#IonMode Positive
#UpdateWorkflowName UPDATE-SINGLE-ANNOTATED-BRONZE
#LibraryQualityString Bronze
#TaskID b1d8e8f6646f4e71acdff9ca3d919d08
##Scan# 2280
#SpectrumFile p1-E09_GE9_01_17929.mzXML
#LibraryName NIH_Natural_Products_Library.mgf
#MQScore -1
#Organism NIH_Natural_Products_Library
#TIC_Query 0
#RT_Query -1
#MZErrorPPM -1
#SharedPeaks 0
#MassDiff 0
#LibMZ -1
#SpecMZ 468.148
#SpecCharge 0
#internalFilename spec-00000.mgf

>collision 10
96.054207 152.0
96.998665 224.0
97.503082 128.0
97.575813 132.0
97.951683 40.0
98.063988 172.0
98.314461 96.0
100.634933 120.0
101.499306 216.0
102.059509 236.0
102.210365 100.0
103.053177 188.0
103.704781 112.0
104.114601 172.0
104.736961 160.0
105.069023 116.0
106.602821 48.0
106.991554 156.0
107.053329 188.0
108.692558 144.0
108.887695 180.0
110.21048 168.0
112.198036 176.0
114.60144 216.0
114.825264 152.0
114.884987 68.0
115.055283 1168.0
115.617867 152.0
115.716331 188.0
115.795555 120.0
116.017487 192.0
116.062889 396.0
116.998016 132.0
117.068779 304.0
117.612366 160.0
117.925552 180.0
119.086487 172.0
120.081497 284.0
120.332443 96.0
120.677643 204.0
122.124977 64.0
122.325203 72.0
123.039452 140.0
125.09893 212.0
125.67392 124.0
126.485146 128.0
128.060333 372.0
128.273178 164.0
128.69278 56.0
129.038208 360.0
129.065567 316.0
129.497818 104.0
130.046509 104.0
130.648666 128.0
131.085815 316.0
132.01947 164.0
132.060638 176.0
132.756851 192.0
132.903656 220.0
133.057434 188.0
134.017761 168.0
134.900406 152.0
135.083084 164.0
138.160782 152.0
139.192047 184.0
141.072159 340.0
141.453003 216.0
141.865173 128.0
142.077545 176.0
143.088654 212.0
143.276794 56.0
144.05629 180.0
144.085953 184.0
144.401062 192.0
144.837616 232.0
145.064255 476.0
145.097809 280.0
146.019943 172.0
146.069916 144.0
146.255722 172.0
146.879791 60.0
147.026001 216.0
147.076645 216.0
147.633331 84.0
148.032623 112.0
148.083481 188.0
148.117386 180.0
148.779388 148.0
148.934799 148.0
149.041183 2056.0
149.180222 72.0
149.250732 68.0
149.272614 52.0
150.044693 732.0
151.03833 160.0
152.033035 164.0
152.060043 116.0
152.681595 72.0
155.054108 184.0
155.086761 220.0
157.060272 176.0
157.087982 72.0
157.834732 168.0
158.067261 132.0
159.077301 352.0
160.327423 64.0
161.060043 372.0
161.096344 128.0
161.283966 48.0
161.977264 228.0
162.027939 268.0
162.425934 160.0
162.514725 84.0
163.037811 200.0
166.065735 84.0
167.070084 116.0
169.055832 208.0
169.416702 132.0
169.730316 252.0
169.942993 208.0
171.078751 888.0
171.112488 144.0
171.143799 176.0
171.586716 64.0
171.941467 120.0
172.082428 156.0
173.0522 152.0
173.095306 136.0
174.072647 160.0
175.216537 164.0
176.03154 212.0
176.171524 148.0
177.028473 220.0
177.391449 144.0
178.72731 188.0
178.873688 184.0
179.579773 64.0
180.081543 132.0
180.113602 108.0
180.616104 100.0
182.076813 176.0
182.106354 164.0
183.074539 144.0
184.274857 160.0
185.088989 184.0
186.893997 176.0
187.072449 1516.0
188.080887 304.0
188.123138 104.0
189.046951 128.0
189.08429 224.0
190.091003 156.0
191.124161 180.0
195.051285 116.0
195.073517 140.0
199.071609 304.0
200.087555 228.0
200.590958 76.0
200.652985 160.0
201.059158 204.0
201.090179 2288.0
201.172058 32.0
201.237 104.0
201.301941 72.0
202.092926 292.0
202.421722 112.0
203.286301 108.0
203.391312 68.0
203.411179 84.0
206.168213 204.0
207.017838 136.0
207.829025 136.0
209.182648 196.0
209.418747 108.0
209.533966 92.0
211.150436 28.0
212.079803 88.0
213.096878 248.0
214.052414 112.0
214.719742 184.0
214.83934 196.0
214.886017 84.0
215.068832 2220.0
215.516663 76.0
215.902527 160.0
216.076675 3908.0
216.155212 52.0
216.358978 28.0
216.476089 44.0
216.689911 92.0
216.716278 60.0
217.012299 196.0
217.040695 152.0
217.083862 3996.0
217.118652 164.0
217.191193 72.0
217.261597 28.0
217.352905 64.0
217.449387 108.0
217.560928 48.0
217.587341 148.0
218.087677 1084.0
218.242523 52.0
218.368973 60.0
218.407211 92.0
218.44545 52.0
218.57196 72.0
218.972321 140.0
219.134323 60.0
219.202103 52.0
219.296402 104.0
219.747574 116.0
219.921677 132.0
220.007278 132.0
220.51239 52.0
220.562637 68.0
220.674973 68.0
220.701584 60.0
220.796204 60.0
221.092041 184.0
221.180832 56.0
221.565796 56.0
224.072403 196.0
225.073395 144.0
225.293411 68.0
226.900482 72.0
227.072418 248.0
227.101395 168.0
228.079254 136.0
228.224518 68.0
229.086243 2140.0
229.139481 44.0
229.29538 136.0
229.395645 48.0
229.458954 52.0
229.492111 180.0
230.053253 100.0
230.091705 760.0
230.216293 28.0
230.500244 56.0
230.609039 64.0
231.092361 304.0
231.592361 60.0
231.786255 44.0
231.879089 88.0
235.106934 224.0
235.778793 176.0
239.07283 168.0
240.107574 176.0
241.082611 240.0
243.049423 36.0
244.065109 136.0
245.098495 196.0
248.055008 156.0
249.194183 140.0
249.649963 172.0
250.084122 156.0
252.099365 168.0
253.086273 180.0
253.114777 96.0
254.071945 164.0
255.07074 152.0
256.061768 148.0
256.090424 128.0
257.034058 184.0
257.077728 484.0
257.129791 204.0
258.078522 120.0
263.413422 48.0
264.137482 184.0
269.090088 80.0
270.011566 252.0
270.080261 164.0
271.026367 52.0
271.095184 160.0
272.092285 172.0
273.050262 104.0
273.074799 148.0
273.097809 196.0
274.104309 296.0
275.09314 196.0
276.105682 104.0
276.449738 116.0
277.052338 188.0
277.118591 140.0
278.128143 288.0
278.518524 84.0
281.085327 148.0
282.11734 108.0
285.053345 104.0
287.062988 184.0
287.140533 148.0
288.920624 196.0
289.055969 140.0
289.127045 92.0
290.475525 32.0
291.127167 180.0
297.092438 120.0
298.104095 160.0
298.763031 144.0
299.098022 124.0
300.006226 28.0
300.071716 76.0
300.117706 440.0
301.055115 112.0
303.016327 148.0
303.595184 68.0
305.136841 120.0
306.128784 152.0
306.825348 56.0
307.134216 208.0
308.039764 152.0
308.135345 272.0
308.494049 60.0
310.076141 80.0
311.275909 196.0
313.041138 144.0
314.070221 204.0
317.114471 132.0
318.107635 192.0
318.789551 168.0
319.130341 164.0
320.141327 112.0
321.12851 152.0
322.210114 104.0
324.224609 144.0
330.071381 176.0
331.077637 172.0
331.109314 176.0
331.141907 136.0
335.148743 156.0
343.135193 48.0
344.106598 324.0
344.799957 116.0
345.850342 40.0
345.920654 128.0
367.193359 176.0
369.209839 116.0
376.08493 256.0
377.071899 256.0
377.425598 20.0
379.111389 152.0
382.105072 132.0
382.221802 40.0
391.101654 172.0
408.414795 104.0
409.183411 80.0
415.451538 36.0
422.147522 136.0
424.280701 56.0
468.28894 124.0
471.563629 88.0
474.658936 60.0
493.752777 128.0
643.953064 132.0
681.2005 88.0
723.625305 68.0
735.916077 80.0
754.065247 20.0
796.168274 204.0
796.544556 148.0
801.410828 112.0
825.352539 120.0
826.610962 132.0
830.139587 104.0
846.92218 144.0
855.743164 148.0
861.820618 192.0
863.030518 216.0
866.495361 200.0
872.070007 204.0
888.497681 168.0
901.698853 236.0
910.307434 160.0
911.76123 236.0
921.154419 184.0
922.024475 176.0
958.900513 100.0
987.053833 232.0
991.260315 228.0
1005.478882 180.0
1007.114136 144.0
1033.349487 208.0
1046.680664 152.0
1078.541626 200.0
1081.85144 136.0
1090.858276 148.0
1095.556763 116.0
1103.436523 148.0
1104.236694 144.0
1132.074951 172.0
1135.01001 100.0
1166.321777 148.0
1166.981201 164.0
1174.45166 136.0
1182.486572 116.0
1183.177856 176.0
1189.889648 120.0
1194.225586 212.0
1194.576416 184.0
1194.755249 196.0
1196.847534 184.0
1210.270264 112.0
1215.135742 160.0
1216.99585 120.0
1224.067261 148.0
1240.661011 168.0
1241.691772 176.0
1243.782593 200.0
1245.783813 164.0
1247.688232 152.0
1249.061401 164.0
1263.485596 116.0
1273.608154 192.0
1280.621216 208.0
1287.953491 136.0
1305.447876 132.0
1307.454956 148.0
1318.322632 172.0
1331.296997 32.0
1334.501343 204.0
1344.254517 116.0
1345.203369 220.0
1345.823853 52.0
1346.21814 216.0
1348.446289 232.0
1353.764893 240.0
1353.823486 100.0
1354.812256 156.0
1355.720825 124.0
1357.487427 96.0
1363.485107 140.0
1369.827515 216.0
1374.206543 148.0
1381.64624 228.0
1383.155762 88.0
1384.199707 200.0
1393.552856 180.0
1405.771729 204.0
1408.556519 168.0
1413.131714 52.0
1414.25415 188.0
1416.770142 44.0
1417.849121 196.0
1418.808594 148.0
1421.058472 124.0
1437.59729 220.0
1439.914917 180.0
1440.277466 164.0
1442.59729 40.0
1452.896362 136.0
1453.37439 152.0
1454.907471 136.0
1455.385742 152.0
1465.105469 56.0
1475.889648 216.0
1477.319824 212.0
1480.664673 128.0
1485.393677 168.0
1487.258301 136.0
1494.905151 96.0
