>compound Deflazacort
>formula C25H31NO6 
>ionization [M+H]+
>parentmass 442.222717
#inchi InChI=1S/C25H31NO6/c1-13-26-25(20(30)12-31-14(2)27)21(32-13)10-18-17-6-5-15-9-16(28)7-8-23(15,3)22(17)19(29)11-24(18,25)4/h7-9,17-19,21-22,29H,5-6,10-12H2,1-4H3/t17-,18-,19-,21+,22+,23-,24-,25+/m0/s1
#inchikey FBHSPRKOSMHSIF
#Ion_Source LC-ESI
#Instrument qTof
#Compound_Source Isolated
#PI Sirenas
#Data_Collector Ed Esquenazi 
#Scan -1
#Precursor_MZ 442.223
#ExactMass 0.0
#Charge 1
#CAS_Number N/A
#Pubmed_ID N/A
#Smiles N/A
#INCHI_AUX N/A
#Library_Class 3
#SpectrumID CCMSLIB00000005299
#IonMode Positive
#UpdateWorkflowName UPDATE-SINGLE-ANNOTATED-BRONZE
#LibraryQualityString Bronze
#TaskID d19310cd93df49b68e9fcbec27720eb5
##Scan# 1
#SpectrumFile Deflazacort.mgf
#LibraryName fda_library.mgf
#MQScore -1
#Organism fda_library
#TIC_Query 0
#RT_Query -1
#MZErrorPPM -1
#SharedPeaks 0
#MassDiff 0
#LibMZ -1
#SpecMZ 442.223
#SpecCharge 0
#internalFilename spec-00000.mgf

>collision 10
248.616302 7.067935
312.193665 14.56653
329.060883 58.069031
363.878845 3.666667
382.169281 50.941181
382.196991 42.260281
382.904114 15.89358
400.462555 3.375
424.219086 42.503288
424.627045 34.56522
424.988007 10.125
425.282074 13.5194
433.963959 16.640989
440.637817 37.10083
441.862518 29.004311
442.222717 1836.949951
442.308777 6.502717
442.418549 5.0
442.513672 13.005
442.548859 44.577961
442.616119 5.00329
442.674683 8.1225
442.855621 19.53422
442.946045 3.5125
443.191345 20.84696
443.809937 17.616381
443.83313 10.39803
444.081146 15.09524
444.49231 3.541667
445.967255 14.11111
691.098511 29.78125
