>compound MLS001076542-01!(-)-Scopolamine methyl bromide
>formula C18H24NO4
>ionization [M+H]+
>parentmass 319.1778097000905
#inchi InChI=1S/C18H24NO4/c1-19(2)14-8-12(9-15(19)17-16(14)23-17)22-18(21)13(10-20)11-6-4-3-5-7-11/h3-7,12-17,20H,8-10H2,1-2H3/q+1
#inchikey LZCOQTDXKCNBEE
#origInchi InChI=1S/C18H24NO4.BrH/c1-19(2)14-8-12(9-15(19)17-16(14)23-17)22-18(21)13(10-20)11-6-4-3-5-7-11;/h3-7,12-17,20H,8-10H2,1-2H3;1H/q+1;/p-1
#Ion_Source LC-ESI
#Instrument qTof
#Compound_Source NIH Pharmacologically Active Library
#PI Dorrestein
#Data_Collector VP/LMS
#Scan -1
#Precursor_MZ 318.17
#ExactMass 318.171
#Charge 1
#CAS_Number N/A
#Pubmed_ID N/A
#Smiles C[N+]1(C)C2CC(CC1C3OC32)OC(=O)C(CO)c4ccccc4.[Br-]
#INCHI_AUX N/A
#Library_Class 1
#SpectrumID CCMSLIB00000085898
#IonMode Positive
#UpdateWorkflowName UPDATE-SINGLE-ANNOTATED-GOLD
#LibraryQualityString Gold
#TaskID d252d724072548979f1f6f1ced849daf
##Scan# 1201
#SpectrumFile p4-G08_GG8_01_18404.mzXML
#LibraryName Pharm_Active_Library.mgf
#MQScore -1
#Organism Pharm_Active_Library
#TIC_Query 0
#RT_Query -1
#MZErrorPPM -1
#SharedPeaks 0
#MassDiff 0
#LibMZ -1
#SpecMZ 318.17
#SpecCharge 0
#internalFilename spec-00000.mgf

>collision 10
44.903561 232.0
44.940914 208.0
44.993801 192.0
45.061436 232.0
45.161346 168.0
45.308601 68.0
45.317982 148.0
45.363548 152.0
45.520535 196.0
45.531277 332.0
45.628029 176.0
45.76804 212.0
45.852833 180.0
45.874401 68.0
45.910809 128.0
45.983662 120.0
46.012012 216.0
46.02393 140.0
46.043068 184.0
46.056576 212.0
46.075489 160.0
46.289204 164.0
46.399536 204.0
46.487125 172.0
46.522419 188.0
46.54414 112.0
46.61729 132.0
46.654198 104.0
46.700432 160.0
46.813236 148.0
46.88015 72.0
46.982418 84.0
47.14764 220.0
47.205059 180.0
47.216 156.0
47.233784 192.0
47.27346 168.0
47.360783 236.0
47.473473 112.0
47.533836 116.0
47.555794 164.0
47.569519 228.0
47.599728 288.0
47.662918 156.0
47.726147 128.0
47.751183 196.0
47.775661 32.0
47.874767 96.0
47.889919 148.0
47.906448 44.0
47.924358 180.0
47.951618 200.0
48.019558 144.0
48.031895 132.0
48.105034 188.0
48.185139 112.0
48.237656 152.0
48.327553 136.0
48.357998 48.0
48.374607 232.0
48.459091 40.0
48.472267 228.0
48.533939 260.0
48.599133 100.0
48.651875 108.0
48.676868 100.0
48.690678 144.0
48.778294 144.0
48.80471 136.0
48.826962 164.0
48.85033 208.0
48.909054 64.0
48.974499 184.0
49.034412 168.0
49.080418 192.0
49.099941 168.0
49.182262 160.0
49.31496 104.0
49.352707 172.0
49.382076 60.0
49.396061 112.0
49.421246 160.0
49.449234 172.0
49.460434 236.0
49.509438 196.0
49.639771 140.0
49.825054 152.0
49.938919 176.0
49.957207 136.0
50.209343 264.0
50.233322 68.0
50.294003 140.0
50.326473 228.0
50.339184 140.0
50.411228 124.0
50.429604 52.0
50.449394 204.0
50.50375 164.0
50.673012 176.0
50.758057 148.0
50.775856 176.0
50.829243 176.0
50.857368 76.0
50.897121 224.0
50.943993 156.0
50.959621 148.0
50.994751 144.0
51.030689 164.0
51.087578 216.0
51.143192 196.0
51.205727 160.0
51.25293 180.0
51.579571 68.0
51.612453 216.0
51.722618 220.0
51.815704 116.0
51.903652 156.0
51.927521 224.0
52.058121 184.0
52.0811 136.0
52.164448 192.0
52.240635 184.0
52.27232 172.0
52.365902 204.0
52.387508 168.0
52.4123 168.0
52.469654 176.0
52.543213 228.0
52.61393 136.0
52.743946 144.0
52.794552 152.0
52.863995 152.0
52.923344 128.0
52.950859 240.0
52.991421 152.0
53.120453 244.0
53.261261 204.0
53.347 152.0
53.357178 180.0
53.421307 168.0
53.515301 224.0
53.700851 140.0
53.80154 168.0
53.853912 208.0
53.868717 192.0
53.941784 32.0
54.014095 196.0
54.086422 196.0
54.149094 236.0
54.247746 128.0
54.351879 84.0
54.381229 160.0
54.422035 156.0
54.455524 220.0
54.479618 144.0
54.548965 168.0
54.775311 104.0
54.801826 228.0
54.81509 228.0
54.837196 128.0
55.077709 124.0
55.107258 280.0
55.129425 192.0
55.143963 172.0
55.264729 232.0
55.302467 144.0
55.477264 164.0
55.526058 168.0
55.541031 192.0
55.74295 216.0
55.783081 152.0
55.892784 264.0
55.922684 132.0
55.942261 200.0
56.12701 192.0
56.219501 148.0
56.252338 168.0
56.282303 176.0
56.327007 128.0
56.337463 220.0
56.454052 164.0
56.476486 116.0
56.500423 140.0
56.562313 224.0
56.680099 132.0
56.726562 176.0
57.013252 96.0
57.062859 152.0
57.076389 176.0
57.098328 256.0
57.116997 56.0
57.155361 184.0
57.276562 128.0
57.354919 184.0
57.439362 88.0
57.523869 120.0
57.566269 196.0
57.789867 72.0
57.913296 140.0
57.936729 144.0
57.947334 268.0
57.960445 356.0
58.036762 116.0
58.220383 112.0
58.402771 156.0
58.436241 144.0
58.491028 168.0
58.547363 56.0
58.576305 112.0
58.588493 40.0
58.713486 192.0
58.774506 212.0
58.85083 32.0
58.893589 120.0
58.933311 196.0
58.97916 176.0
59.008205 140.0
59.179573 240.0
59.289867 176.0
59.340454 176.0
59.35556 160.0
59.371124 144.0
59.40794 248.0
59.503094 44.0
59.553768 144.0
59.636742 144.0
59.741352 148.0
59.84597 84.0
59.876766 112.0
59.9538 120.0
60.030884 152.0
60.066357 164.0
60.080242 192.0
60.095673 40.0
60.129955 240.0
60.203728 200.0
60.214539 72.0
60.426323 72.0
60.545517 180.0
60.647778 204.0
60.757881 44.0
60.774948 112.0
60.864979 160.0
60.906914 216.0
60.924 116.0
60.934875 116.0
61.004814 200.0
61.292755 240.0
61.423721 216.0
61.497059 320.0
61.676689 152.0
61.700138 128.0
61.819019 204.0
61.93018 172.0
62.124557 140.0
62.155941 180.0
62.173203 168.0
62.246986 200.0
62.341244 228.0
62.372677 204.0
62.404121 112.0
62.438717 152.0
62.48119 180.0
62.538975 172.0
62.579166 160.0
62.597668 212.0
62.623493 332.0
62.709377 208.0
62.730019 212.0
62.745785 104.0
62.772591 44.0
62.83884 152.0
62.936703 92.0
63.284569 112.0
63.295654 128.0
63.344753 144.0
63.362179 108.0
63.469959 152.0
63.60799 184.0
63.707859 176.0
63.757298 216.0
63.779549 248.0
63.968849 196.0
64.05484 240.0
64.08033 176.0
64.093079 188.0
64.161613 168.0
64.182343 136.0
64.198288 112.0
64.2621 152.0
64.276459 168.0
64.410576 200.0
64.429741 184.0
64.45211 56.0
64.479279 320.0
64.509651 152.0
64.528831 176.0
64.552818 148.0
64.586411 132.0
64.762482 104.0
64.784912 172.0
64.821762 140.0
64.92276 208.0
65.068779 112.0
65.084839 128.0
65.295364 232.0
65.485283 220.0
65.515892 104.0
65.702911 160.0
65.780373 232.0
65.847878 188.0
65.888573 176.0
65.914429 200.0
65.945137 136.0
66.013039 136.0
66.058327 132.0
66.095535 132.0
66.158783 268.0
66.171616 120.0
66.18457 172.0
66.199142 180.0
66.286621 88.0
66.335243 148.0
66.372536 212.0
66.598595 180.0
66.666359 100.0
66.710251 120.0
66.838737 108.0
67.151535 152.0
67.203735 200.0
67.220055 128.0
67.278816 136.0
67.408653 244.0
67.515747 232.0
67.573006 72.0
67.591003 156.0
67.653198 156.0
67.685944 172.0
67.835045 92.0
67.879311 72.0
67.91703 128.0
68.166588 160.0
68.210968 208.0
68.245605 176.0
68.296478 144.0
68.489067 112.0
68.502243 192.0
68.686874 160.0
68.891838 124.0
68.9114 144.0
68.949409 80.0
69.007263 152.0
69.056877 156.0
69.068451 132.0
69.144569 220.0
69.217407 180.0
69.467682 52.0
69.504181 192.0
69.522438 192.0
69.607101 192.0
69.670219 112.0
69.824814 256.0
69.962929 156.0
69.986237 160.0
70.194527 32.0
70.222885 104.0
70.286278 180.0
70.374748 108.0
70.408142 172.0
70.424843 108.0
70.44368 160.0
70.47998 156.0
70.526772 164.0
70.581947 200.0
70.633789 444.0
70.689735 272.0
70.73587 196.0
70.764328 236.0
70.846397 124.0
70.946953 180.0
70.977135 144.0
71.089523 156.0
71.102203 148.0
71.168427 96.0
71.213768 152.0
71.264168 184.0
71.280968 144.0
71.33139 132.0
71.365013 168.0
71.378471 48.0
71.506325 140.0
71.556831 228.0
71.630928 220.0
71.642723 124.0
71.661255 164.0
71.681473 80.0
71.834908 212.0
71.878181 220.0
72.100006 168.0
72.116905 172.0
72.213287 100.0
72.321579 188.0
72.473999 192.0
72.507889 212.0
72.531616 120.0
72.633362 96.0
72.658806 172.0
72.821777 84.0
72.860847 184.0
72.905029 180.0
72.920319 164.0
73.012131 176.0
73.054657 108.0
73.080177 140.0
73.146553 180.0
73.189117 40.0
73.243767 180.0
73.3237 168.0
73.454994 56.0
73.534096 212.0
73.957375 112.0
73.97963 212.0
74.202354 156.0
74.2761 196.0
74.312126 216.0
74.358459 200.0
74.444061 228.0
74.529968 156.0
74.562843 228.0
74.60582 164.0
74.640205 172.0
74.660843 220.0
74.800209 152.0
74.857033 76.0
74.915596 284.0
74.92765 84.0
75.012939 160.0
75.065552 176.0
75.108665 100.0
75.137993 180.0
75.250183 220.0
75.386642 156.0
75.533607 160.0
75.696304 144.0
75.801971 184.0
76.022217 132.0
76.044777 116.0
76.063873 160.0
76.262856 224.0
76.369698 64.0
76.510651 40.0
76.582054 236.0
76.643028 124.0
76.662193 156.0
76.754585 196.0
76.794701 180.0
77.019875 216.0
77.121216 208.0
77.163177 136.0
77.268112 176.0
77.339867 124.0
77.383629 224.0
77.441422 212.0
77.46244 156.0
77.562325 232.0
77.697357 168.0
77.813194 108.0
77.86412 76.0
77.929123 160.0
77.962509 180.0
77.996025 176.0
78.219307 192.0
78.266846 128.0
78.290604 196.0
78.330246 100.0
78.361961 132.0
78.458893 120.0
78.555893 220.0
78.730637 192.0
78.744766 228.0
78.922295 168.0
79.085526 172.0
79.13913 76.0
79.169235 152.0
79.194031 168.0
79.328705 176.0
79.346428 184.0
79.383842 164.0
79.607269 164.0
79.671219 148.0
79.712082 208.0
79.768959 120.0
79.969963 140.0
79.987762 104.0
80.014465 168.0
80.0588 116.0
80.105293 144.0
80.139145 120.0
80.153404 124.0
80.324562 204.0
80.436981 144.0
80.520905 128.0
80.59594 64.0
80.615593 224.0
80.631676 128.0
80.842712 180.0
80.876945 348.0
80.888702 144.0
80.905365 108.0
81.059402 192.0
81.147232 156.0
81.251259 172.0
81.29612 212.0
81.353561 160.0
81.475677 124.0
81.594299 160.0
81.642853 84.0
81.689613 224.0
81.725166 116.0
81.792191 204.0
81.947067 212.0
81.974098 160.0
82.026367 112.0
82.046478 156.0
82.078651 120.0
82.096031 196.0
82.114723 188.0
82.318657 136.0
82.447212 176.0
82.555397 144.0
82.578911 168.0
82.642227 172.0
82.756264 164.0
82.799721 236.0
82.859505 208.0
82.912048 184.0
82.930176 132.0
82.944679 228.0
83.097015 184.0
83.25676 108.0
83.291267 160.0
83.493027 176.0
83.551231 180.0
83.585808 112.0
83.6222 44.0
83.684097 164.0
83.698662 160.0
83.773338 116.0
83.789734 164.0
83.806137 196.0
83.82618 124.0
83.968384 332.0
84.030403 164.0
84.07785 140.0
84.132614 284.0
84.167305 52.0
84.531075 228.0
84.569511 148.0
84.657394 176.0
84.725166 140.0
84.763641 52.0
85.005707 140.0
85.068108 252.0
85.150742 192.0
85.167274 140.0
85.286705 164.0
85.363907 172.0
85.419106 124.0
85.540558 192.0
85.571861 108.0
85.59948 164.0
85.698952 216.0
85.78373 124.0
85.806068 172.0
85.918358 200.0
85.958946 156.0
85.977402 112.0
85.995857 188.0
86.067696 176.0
86.130653 176.0
86.346916 168.0
86.428314 188.0
86.469025 200.0
86.533813 88.0
86.609749 164.0
86.730186 48.0
86.75985 168.0
86.841446 92.0
86.888153 156.0
86.969475 160.0
86.999176 168.0
87.032593 152.0
87.071594 88.0
87.298325 92.0
87.35041 208.0
87.478813 184.0
87.52536 200.0
87.560745 132.0
87.603584 136.0
87.659477 188.0
87.717262 104.0
87.81295 196.0
87.977379 156.0
88.023247 156.0
88.040054 60.0
88.054993 64.0
88.078773 252.0
88.262436 188.0
88.413963 192.0
88.479485 92.0
88.552513 148.0
88.69117 72.0
88.721161 36.0
88.741791 124.0
88.762413 160.0
88.854324 156.0
88.908737 132.0
88.944405 176.0
88.996971 196.0
89.040161 168.0
89.181084 184.0
89.229958 64.0
89.416191 160.0
89.48584 180.0
89.53833 224.0
89.630882 156.0
89.666687 224.0
89.821304 232.0
89.903648 212.0
89.998711 156.0
90.21788 132.0
90.299187 156.0
90.38649 220.0
90.411728 196.0
90.46003 184.0
90.478958 156.0
90.628586 232.0
90.690849 164.0
90.723358 216.0
90.746109 232.0
90.776443 128.0
90.798744 188.0
90.852318 168.0
90.943405 184.0
90.998459 220.0
91.028839 148.0
91.053108 2040.0
91.154213 212.0
91.173218 184.0
91.241837 168.0
91.258766 172.0
91.321518 48.0
91.376686 160.0
91.525154 160.0
91.652779 180.0
91.72139 184.0
91.774773 136.0
91.935013 132.0
92.025635 76.0
92.057152 652.0
92.082024 188.0
92.252083 128.0
92.286499 156.0
92.333931 184.0
92.364914 44.0
92.399345 92.0
92.429962 352.0
92.51226 180.0
92.625252 132.0
92.705719 156.0
92.724884 192.0
92.876358 100.0
92.926239 128.0
93.052238 180.0
93.066933 516.0
93.100922 208.0
93.160469 148.0
93.204659 280.0
93.28923 152.0
93.316147 124.0
93.331528 168.0
93.44886 208.0
93.496971 60.0
93.535461 56.0
93.647148 44.0
93.780098 180.0
93.795517 128.0
93.818649 136.0
93.914169 232.0
93.969086 156.0
94.017326 144.0
94.065109 5088.0
94.117706 40.0
94.131226 156.0
94.148605 212.0
94.165993 164.0
94.182732 328.0
94.196899 108.0
94.231674 216.0
94.249062 216.0
94.334099 196.0
94.663025 148.0
94.715324 232.0
94.745949 232.0
94.792824 168.0
94.833519 144.0
94.856781 188.0
95.029388 100.0
95.046852 152.0
95.069374 708.0
95.244881 120.0
95.375374 156.0
95.42173 152.0
95.458679 100.0
95.52092 148.0
95.542358 200.0
95.573448 212.0
95.639618 160.0
95.690231 136.0
95.703865 132.0
95.736969 92.0
95.863594 44.0
95.877235 48.0
96.04882 136.0
96.080017 724.0
96.189323 212.0
96.253754 72.0
96.368141 164.0
96.43544 204.0
96.450134 172.0
96.556664 200.0
96.611435 112.0
96.670135 132.0
96.722977 128.0
96.803558 208.0
96.867508 124.0
96.906036 144.0
97.020752 152.0
97.049904 204.0
97.082413 172.0
97.103111 236.0
97.179619 104.0
97.197273 192.0
97.318977 172.0
97.334686 184.0
97.373962 176.0
97.421104 216.0
97.480049 36.0
97.598 220.0
97.641258 108.0
97.666832 232.0
97.700607 140.0
97.725853 104.0
97.763237 132.0
97.792763 220.0
97.851822 136.0
97.878677 200.0
97.98378 148.0
98.059265 640.0
98.096169 136.0
98.119774 152.0
98.161179 156.0
98.247963 84.0
98.263748 52.0
98.425606 180.0
98.554001 164.0
98.571785 148.0
98.714119 156.0
98.737846 176.0
98.801147 144.0
98.8507 180.0
98.880302 268.0
98.93177 208.0
98.963448 120.0
99.038704 116.0
99.101227 168.0
99.135414 172.0
99.159569 180.0
99.213089 128.0
99.278519 192.0
99.391594 152.0
99.624641 224.0
99.655685 180.0
99.669594 60.0
99.721268 148.0
99.751083 68.0
99.877686 128.0
99.979164 108.0
100.013657 160.0
100.072922 156.0
100.103256 136.0
100.121178 172.0
100.216797 180.0
100.280571 68.0
100.310471 144.0
100.472008 172.0
100.521889 140.0
100.627678 212.0
100.643654 152.0
100.657631 172.0
100.689583 132.0
100.825447 184.0
100.923401 64.0
100.939392 136.0
101.041405 152.0
101.143471 116.0
101.195518 116.0
101.258377 196.0
101.287643 132.0
101.347748 92.0
101.375801 128.0
101.425911 84.0
101.584595 152.0
101.6064 32.0
101.708748 48.0
101.943741 184.0
102.049362 176.0
102.093422 148.0
102.138763 124.0
102.172966 296.0
102.235344 96.0
102.39238 124.0
102.432663 128.0
102.44677 120.0
102.479721 168.0
102.549538 124.0
102.672523 116.0
102.69471 136.0
102.708832 172.0
102.827881 176.0
102.902573 176.0
102.945671 228.0
102.965172 208.0
102.979309 72.0
102.999504 56.0
103.017685 140.0
103.053368 3936.0
103.081879 156.0
103.110641 52.0
103.195541 84.0
103.258232 140.0
103.446411 184.0
103.478806 128.0
103.515259 188.0
103.533485 136.0
103.663139 60.0
103.912552 112.0
103.983574 132.0
104.054207 788.0
104.184608 140.0
104.235405 128.0
104.298248 100.0
104.43261 88.0
104.487534 200.0
104.550613 44.0
104.64222 180.0
104.739975 160.0
104.880577 44.0
105.051865 144.0
105.069801 176.0
105.121239 176.0
105.13961 188.0
105.180428 144.0
105.223305 184.0
105.362183 200.0
105.529778 128.0
105.576813 164.0
105.61158 48.0
105.707741 216.0
105.828514 152.0
105.922722 144.0
106.064583 276.0
106.151764 160.0
106.230217 112.0
106.263046 212.0
106.502686 164.0
106.67585 224.0
106.696411 140.0
106.735474 196.0
106.762207 216.0
106.784836 232.0
106.887573 196.0
106.94532 276.0
106.963852 216.0
106.996788 164.0
107.049042 760.0
107.072548 2036.0
107.18158 156.0
107.314751 224.0
107.371826 32.0
107.402763 168.0
107.479103 136.0
107.602425 176.0
107.650436 88.0
107.956291 148.0
107.972839 92.0
108.04715 264.0
108.081055 1360.0
108.107315 228.0
108.231186 200.0
108.274773 180.0
108.409859 148.0
108.43454 140.0
108.498299 232.0
108.519531 76.0
108.637749 108.0
108.652275 132.0
108.690331 216.0
108.706223 60.0
108.747734 144.0
108.814461 140.0
108.863998 192.0
108.895149 148.0
108.928383 84.0
108.963707 184.0
109.063568 356.0
109.087296 1428.0
109.132736 108.0
109.173653 208.0
109.260925 180.0
109.294304 232.0
109.350494 256.0
109.365067 92.0
109.552483 128.0
109.623322 64.0
109.817215 44.0
109.848503 116.0
110.017548 160.0
110.040512 196.0
110.059799 316.0
110.097046 332.0
110.197159 184.0
110.389473 40.0
110.416656 160.0
110.531715 112.0
110.62381 184.0
110.674057 148.0
110.83535 88.0
110.877266 152.0
110.969498 140.0
111.069923 204.0
111.098389 144.0
111.187668 180.0
111.242241 292.0
111.359833 152.0
111.469078 200.0
111.494293 96.0
111.553154 80.0
111.572075 188.0
111.832924 144.0
111.910812 212.0
112.051933 164.0
112.075531 448.0
112.129906 104.0
112.203682 168.0
112.252182 164.0
112.297295 236.0
112.332329 76.0
112.396187 224.0
112.433609 84.0
112.473717 160.0
112.496933 156.0
112.545937 228.0
112.741951 116.0
112.792679 192.0
112.86245 52.0
112.892052 44.0
112.93647 184.0
113.010513 172.0
113.090935 64.0
113.224319 236.0
113.264839 184.0
113.499817 68.0
113.561317 48.0
113.595261 128.0
113.686501 148.0
113.828728 204.0
113.856339 168.0
113.924309 124.0
114.083702 148.0
114.100708 104.0
114.194275 232.0
114.247452 156.0
114.317673 84.0
114.349594 144.0
114.396423 172.0
114.585968 192.0
114.61367 228.0
114.679733 188.0
114.722374 188.0
114.890854 112.0
114.944191 52.0
114.969803 164.0
115.187592 92.0
115.354271 108.0
115.426964 128.0
115.69442 148.0
115.728683 168.0
115.786499 208.0
115.863319 176.0
115.962189 176.0
116.041504 188.0
116.095116 248.0
116.112686 248.0
116.213737 188.0
116.363342 112.0
116.444946 360.0
116.573853 172.0
116.606087 124.0
116.625435 116.0
116.696381 156.0
116.713577 224.0
116.756592 128.0
116.902878 124.0
117.008354 176.0
117.09449 144.0
117.113876 124.0
117.139725 220.0
117.163422 160.0
117.185768 356.0
117.488968 140.0
117.57312 204.0
117.672424 112.0
117.700882 176.0
117.821449 72.0
117.929497 144.0
118.072495 172.0
118.09166 56.0
118.128433 172.0
118.147903 236.0
118.334038 144.0
118.448814 136.0
118.463982 184.0
118.509483 180.0
118.549339 196.0
118.567993 216.0
118.607002 96.0
119.072472 300.0
119.245659 224.0
119.303848 156.0
119.399521 236.0
119.611908 328.0
119.704201 168.0
119.75647 208.0
119.81311 68.0
119.906815 212.0
119.928604 164.0
120.007088 168.0
120.024536 124.0
120.079262 928.0
120.116135 204.0
120.140129 152.0
120.155403 168.0
120.231781 128.0
120.325645 180.0
120.349434 196.0
120.510315 116.0
120.516441 180.0
120.780197 92.0
121.032173 216.0
121.063583 2040.0
121.089844 168.0
121.12825 116.0
121.147972 180.0
121.180832 116.0
121.200554 184.0
121.215889 228.0
121.299179 68.0
121.321098 196.0
121.428551 196.0
121.581512 172.0
121.595703 152.0
121.70945 68.0
121.7995 148.0
121.891777 156.0
121.93573 160.0
121.968697 72.0
122.061562 664.0
122.09584 4824.0
122.131416 84.0
122.182014 300.0
122.219421 36.0
122.274437 228.0
122.294922 144.0
122.316261 148.0
122.338272 72.0
122.380104 56.0
122.465996 204.0
122.501236 168.0
122.651085 48.0
122.68856 140.0
122.734863 104.0
122.88295 204.0
123.068054 192.0
123.102287 1044.0
123.145348 212.0
123.220459 48.0
123.280121 60.0
123.401695 148.0
123.437073 44.0
123.45919 152.0
123.492363 48.0
123.698151 152.0
123.744644 144.0
123.771217 100.0
123.808861 116.0
123.87587 144.0
123.919624 148.0
124.005638 152.0
124.030434 160.0
124.073654 1504.0
124.110786 3864.0
124.198959 80.0
124.393211 148.0
124.427536 84.0
124.476273 248.0
124.523018 72.0
124.583 196.0
124.691879 200.0
124.720772 44.0
124.796364 148.0
124.832657 124.0
124.887543 168.0
124.925362 136.0
125.05442 176.0
125.086952 176.0
125.116608 312.0
125.261124 164.0
125.301605 160.0
125.323891 180.0
125.41526 112.0
125.439781 168.0
125.513359 144.0
125.591415 188.0
125.627106 224.0
125.696274 272.0
125.845833 232.0
126.033455 208.0
126.090446 352.0
126.223465 184.0
126.35096 244.0
126.386757 156.0
126.404655 60.0
126.456131 140.0
126.615097 132.0
126.70694 124.0
126.736069 196.0
126.81002 120.0
126.852608 124.0
126.992317 184.0
127.007339 232.0
127.04229 124.0
127.109566 220.0
127.395691 156.0
127.442879 168.0
127.681168 112.0
127.829643 164.0
127.966957 148.0
128.040817 180.0
128.075058 176.0
128.133621 120.0
128.151657 72.0
128.180939 180.0
128.259827 180.0
128.350006 124.0
128.487595 188.0
128.758484 152.0
128.77655 156.0
128.802292 172.0
128.83696 316.0
128.918884 92.0
129.192474 232.0
129.29657 204.0
129.384842 116.0
129.477692 144.0
129.507141 200.0
129.634018 160.0
129.695206 124.0
129.758682 164.0
130.364746 136.0
130.4534 92.0
130.498871 108.0
130.6194 152.0
130.64035 152.0
130.79689 148.0
131.149963 52.0
131.348343 112.0
131.691696 152.0
131.882675 176.0
132.067886 152.0
132.141098 148.0
132.28299 120.0
132.358536 180.0
132.495972 56.0
132.52034 188.0
132.608261 172.0
132.826096 160.0
132.970642 128.0
133.181885 208.0
133.204865 196.0
133.259995 248.0
133.35881 112.0
133.411682 164.0
133.595673 164.0
133.699219 124.0
133.841934 192.0
133.980133 140.0
134.014694 172.0
134.094345 704.0
134.173325 112.0
134.325943 136.0
134.385391 172.0
134.545609 236.0
134.64447 84.0
134.690674 208.0
134.77153 172.0
135.016571 220.0
135.05127 132.0
135.101334 368.0
135.129913 96.0
135.188522 136.0
135.430878 192.0
135.463303 140.0
135.544388 120.0
135.729843 144.0
135.806366 116.0
135.827255 136.0
135.89917 288.0
135.924698 116.0
136.00592 52.0
136.033783 188.0
136.074112 1176.0
136.109268 148.0
136.25209 132.0
136.347351 232.0
136.444992 184.0
136.521729 120.0
136.53801 108.0
136.570572 180.0
136.628723 188.0
136.742752 116.0
136.777664 132.0
136.896408 120.0
136.919693 176.0
136.942978 76.0
137.081528 872.0
137.180664 184.0
137.247314 132.0
137.469894 48.0
137.551575 144.0
137.614609 196.0
137.780441 136.0
137.962738 136.0
137.985504 192.0
138.041962 204.0
138.088623 196.0
138.119415 180.0
138.250443 208.0
138.587494 180.0
138.6064 68.0
138.84082 232.0
138.923218 124.0
138.974197 136.0
139.160614 176.0
139.20459 148.0
139.26329 188.0
139.394867 216.0
139.51004 44.0
139.54892 196.0
139.614609 236.0
139.648773 84.0
139.716995 148.0
139.837006 220.0
139.999451 192.0
140.02301 108.0
140.084259 176.0
140.10643 344.0
140.293991 180.0
140.326996 248.0
140.431122 160.0
140.546356 92.0
140.602997 200.0
140.621887 200.0
140.686081 164.0
140.742279 128.0
140.758804 168.0
140.789505 64.0
140.905258 92.0
141.08606 200.0
141.278809 132.0
141.437363 296.0
141.704971 168.0
141.828201 264.0
141.991806 172.0
142.039246 224.0
142.457047 168.0
142.511688 216.0
142.587738 188.0
142.844543 176.0
142.865952 128.0
143.199203 180.0
143.2621 140.0
143.303391 136.0
143.360062 136.0
143.377899 152.0
143.571014 56.0
143.59964 132.0
143.82782 164.0
143.97435 132.0
144.036438 180.0
144.055557 168.0
144.287994 244.0
144.847382 36.0
144.981552 212.0
145.027084 208.0
145.072632 144.0
145.142166 124.0
145.266891 92.0
145.355667 48.0
145.398865 36.0
145.445435 208.0
145.521286 128.0
145.703827 104.0
145.751877 252.0
146.132492 220.0
146.295456 248.0
146.33638 196.0
146.372498 152.0
146.552307 148.0
146.601349 128.0
146.618225 144.0
146.637497 176.0
146.685715 128.0
146.770096 248.0
146.897919 100.0
147.078903 160.0
147.229309 164.0
147.288986 256.0
147.320496 188.0
147.397705 208.0
147.549988 148.0
147.637039 144.0
147.920135 188.0
147.946762 196.0
148.235916 200.0
148.560516 220.0
148.601837 168.0
148.636108 244.0
148.761322 136.0
148.916733 144.0
148.936172 200.0
149.222931 188.0
149.400482 132.0
149.485641 128.0
149.517273 132.0
149.564529 192.0
149.755875 48.0
149.836273 152.0
149.923996 136.0
149.944901 160.0
150.088852 160.0
150.119019 176.0
150.170242 204.0
150.326385 44.0
150.389847 156.0
150.487488 168.0
150.560745 140.0
150.590057 88.0
150.695099 176.0
150.734207 112.0
150.83197 144.0
150.924866 88.0
150.951767 292.0
150.99823 228.0
151.078964 152.0
151.102158 136.0
151.136307 136.0
151.169495 104.0
151.203751 148.0
151.264938 196.0
151.321259 160.0
151.353088 140.0
151.382477 188.0
151.419205 156.0
151.45903 108.0
151.482895 96.0
151.537872 224.0
151.571091 140.0
151.603851 176.0
151.621811 172.0
151.673294 184.0
151.690048 172.0
151.694046 220.0
151.731125 184.0
151.738327 124.0
151.76709 200.0
151.835434 164.0
151.841232 232.0
151.873428 280.0
151.888275 196.0
151.928467 292.0
151.974197 112.0
151.995148 176.0
152.016052 308.0
152.042313 332.0
152.067566 556.0
152.107178 153784.0
152.168259 116.0
152.199738 104.0
152.228531 64.0
152.239929 84.0
152.248169 152.0
152.282059 264.0
152.301331 156.0
152.337631 236.0
152.360596 68.0
152.37027 56.0
152.40567 180.0
152.43129 96.0
152.490448 84.0
152.510956 1500.0
152.539398 196.0
152.577148 264.0
152.602448 48.0
152.636459 32.0
152.657166 76.0
152.672958 204.0
152.693695 84.0
152.710236 104.0
152.743118 124.0
152.772034 100.0
152.788956 164.0
152.810318 188.0
152.824829 76.0
152.852921 140.0
152.891708 200.0
152.919373 60.0
152.942764 120.0
152.96109 72.0
152.995026 104.0
153.022491 176.0
153.069336 124.0
153.075897 160.0
153.109314 15268.0
153.140884 204.0
153.170288 40.0
153.196075 76.0
153.222275 144.0
153.264984 72.0
153.315903 52.0
153.367996 60.0
153.399704 96.0
153.447968 84.0
153.469772 144.0
153.490936 76.0
153.531555 152.0
153.559982 188.0
153.58873 104.0
153.634445 176.0
153.674362 100.0
153.739273 108.0
153.798996 88.0
153.828339 64.0
153.872711 108.0
153.916946 156.0
153.957352 68.0
153.979218 96.0
154.025391 44.0
154.033112 100.0
154.041595 96.0
154.072693 100.0
154.110733 1188.0
154.134277 168.0
154.140915 256.0
154.161682 144.0
154.195923 180.0
154.22023 60.0
154.243454 116.0
154.279526 120.0
154.35083 88.0
154.388687 136.0
154.46286 84.0
154.532455 160.0
154.567963 48.0
154.605072 84.0
154.676865 92.0
154.765167 60.0
154.792236 80.0
155.008041 80.0
155.09053 176.0
155.115326 188.0
155.150024 68.0
155.169281 68.0
155.226883 52.0
155.288895 180.0
155.334 44.0
155.365799 64.0
155.820129 80.0
155.999069 124.0
156.066498 68.0
156.596283 40.0
156.618698 56.0
156.69841 92.0
157.152206 96.0
157.324417 56.0
157.584167 172.0
157.784119 64.0
158.131821 64.0
158.62529 28.0
159.029144 104.0
159.084366 200.0
159.413406 60.0
159.559189 48.0
159.687439 96.0
159.950974 208.0
160.047318 108.0
160.098465 128.0
160.490799 60.0
160.629517 88.0
160.690063 84.0
160.92984 148.0
160.985397 76.0
161.195068 156.0
161.412476 104.0
161.470642 176.0
161.635086 128.0
161.652802 44.0
161.878098 200.0
161.936356 68.0
161.966751 140.0
162.270859 84.0
162.336792 60.0
162.478836 112.0
162.641251 100.0
162.882477 80.0
162.93837 148.0
163.113724 112.0
163.35022 68.0
163.688736 52.0
163.757492 116.0
163.77533 132.0
163.813538 136.0
163.879776 140.0
163.94603 32.0
164.257095 72.0
164.66806 96.0
164.767685 52.0
165.102539 108.0
165.294403 112.0
166.075821 128.0
166.214355 92.0
166.358093 180.0
166.627747 68.0
166.817932 88.0
166.910492 64.0
167.090881 152.0
167.198624 84.0
167.476685 176.0
167.515335 124.0
167.700089 132.0
167.819443 40.0
167.840073 140.0
168.036102 168.0
168.101913 1076.0
168.402679 240.0
168.428513 36.0
168.482758 224.0
169.109497 588.0
169.349365 48.0
169.950821 76.0
170.077988 224.0
170.116821 6568.0
170.197403 64.0
170.34285 88.0
170.56633 68.0
170.815964 76.0
170.93306 108.0
170.987701 80.0
171.114716 288.0
171.162125 52.0
171.438263 140.0
171.558167 204.0
172.087799 156.0
172.393417 120.0
172.414322 148.0
172.640472 52.0
173.063095 112.0
173.631744 68.0
177.341522 116.0
178.448532 168.0
179.01799 72.0
179.588333 52.0
179.876526 116.0
180.341309 116.0
182.029175 120.0
182.432205 108.0
182.529007 132.0
183.428253 108.0
183.649368 40.0
184.559494 196.0
185.919388 100.0
187.736725 60.0
188.495636 144.0
191.070343 60.0
191.929703 48.0
192.840744 172.0
192.967911 124.0
194.880402 52.0
195.183395 120.0
195.486603 188.0
196.071457 188.0
196.874939 48.0
197.006226 140.0
197.867615 116.0
198.046844 164.0
198.119675 240.0
199.792923 156.0
200.17009 132.0
200.925507 92.0
201.399765 144.0
201.671021 156.0
201.925491 208.0
201.97641 48.0
202.024506 116.0
202.072601 40.0
202.389603 156.0
203.50679 104.0
204.299759 208.0
204.328217 208.0
204.649841 112.0
204.712479 48.0
205.573425 172.0
206.041702 76.0
206.656418 64.0
206.776611 192.0
207.900085 216.0
208.963303 248.0
209.124451 68.0
209.556427 152.0
210.303345 100.0
211.05159 136.0
211.335068 132.0
212.247498 64.0
212.671066 88.0
213.30722 132.0
213.525299 92.0
216.789322 188.0
217.170471 160.0
217.364105 120.0
218.757263 56.0
219.532181 92.0
219.744568 112.0
219.865555 92.0
220.417801 156.0
220.485779 108.0
221.628067 152.0
221.719925 56.0
222.140976 168.0
224.404251 96.0
225.227936 140.0
228.261017 112.0
228.829712 80.0
229.067642 224.0
231.711105 84.0
232.059662 100.0
232.487381 32.0
232.593613 128.0
232.654327 52.0
235.345825 168.0
236.12204 68.0
236.345367 124.0
236.89035 56.0
237.025162 144.0
237.816406 164.0
239.187347 140.0
239.751007 176.0
239.945206 152.0
239.979111 172.0
240.037704 80.0
241.034775 156.0
241.099686 148.0
241.594421 124.0
242.439743 164.0
242.551331 160.0
243.001007 152.0
243.212036 252.0
243.351746 96.0
243.52565 164.0
243.705826 140.0
244.050858 172.0
244.130066 152.0
244.343231 212.0
244.863083 220.0
245.355438 64.0
247.232758 132.0
248.103546 92.0
248.649353 196.0
249.3246 124.0
249.55722 196.0
250.668396 156.0
253.341461 152.0
253.579117 124.0
254.90889 72.0
255.055084 68.0
255.522583 88.0
256.442902 40.0
256.599091 96.0
256.914856 132.0
257.2276 76.0
257.860046 100.0
258.259705 68.0
260.057648 156.0
260.442596 48.0
260.879608 164.0
261.783752 172.0
262.566895 196.0
262.902435 168.0
264.48941 128.0
265.717651 232.0
266.146088 148.0
267.316345 76.0
267.495361 164.0
267.90567 128.0
268.619629 244.0
269.001434 164.0
269.141815 168.0
269.243042 144.0
269.363892 160.0
271.006287 136.0
271.842468 136.0
271.917938 136.0
272.880463 136.0
274.982178 176.0
275.342072 148.0
275.887299 116.0
276.323853 108.0
276.350311 164.0
276.853485 124.0
276.932983 96.0
277.624969 96.0
278.163177 88.0
279.113403 92.0
279.342896 96.0
279.965332 176.0
282.107483 96.0
282.769806 88.0
283.838501 144.0
284.852081 88.0
285.05368 180.0
285.241913 180.0
286.820679 96.0
287.066803 128.0
287.145172 148.0
287.171356 332.0
287.947632 96.0
288.158813 584.0
289.159912 140.0
289.682892 48.0
289.723541 148.0
289.882812 168.0
290.133636 56.0
290.166595 316.0
290.482941 132.0
290.849426 104.0
291.239929 136.0
291.773438 68.0
292.450409 140.0
292.542328 112.0
292.661469 140.0
293.462219 148.0
295.682678 96.0
296.06955 228.0
297.077301 96.0
297.104736 80.0
298.358307 136.0
298.602448 220.0
298.853577 148.0
299.232178 116.0
299.948761 52.0
300.145294 128.0
300.600647 92.0
300.628235 184.0
300.652405 160.0
301.394867 88.0
302.726685 144.0
303.506378 84.0
305.621765 152.0
306.575928 140.0
307.29776 160.0
307.720093 176.0
309.503326 196.0
309.730988 172.0
312.933868 64.0
313.286072 172.0
313.751282 112.0
313.881744 160.0
315.138367 168.0
315.65799 256.0
315.898499 48.0
316.319611 140.0
316.627655 40.0
316.723297 116.0
316.978394 136.0
317.052795 144.0
317.109497 168.0
317.182129 188.0
317.283203 124.0
317.332855 192.0
317.403748 204.0
317.44986 144.0
317.476135 136.0
317.510162 196.0
317.605927 192.0
317.637848 124.0
317.797485 164.0
317.838898 180.0
317.901184 216.0
317.958221 208.0
317.996216 216.0
318.04657 128.0
318.086792 172.0
318.122742 276.0
318.169739 40756.0
318.260712 28.0
318.326904 120.0
318.39032 116.0
318.448792 52.0
318.496307 76.0
318.507904 156.0
318.566162 80.0
318.638977 40.0
318.690338 88.0
318.751465 64.0
318.806 60.0
318.860229 76.0
318.927429 48.0
319.002319 136.0
319.05481 120.0
319.12027 164.0
319.173035 7092.0
319.229248 216.0
319.310852 40.0
319.339294 100.0
319.380707 100.0
319.428223 124.0
319.488708 76.0
319.552429 48.0
319.588318 72.0
319.907623 80.0
319.947815 64.0
319.972717 80.0
320.043945 60.0
320.068848 260.0
320.171326 1560.0
320.300354 48.0
320.356232 64.0
320.403656 52.0
320.428619 72.0
320.492737 56.0
320.610352 48.0
320.67926 56.0
320.745789 120.0
320.781433 92.0
320.8349 76.0
320.877686 100.0
320.987274 60.0
321.127625 92.0
321.167816 368.0
321.280701 100.0
321.309235 88.0
321.341125 128.0
321.370026 80.0
321.398438 108.0
321.439362 132.0
321.4841 120.0
321.523346 128.0
321.722687 128.0
321.758942 104.0
321.825592 72.0
322.019623 44.0
322.067505 100.0
322.280426 196.0
322.462677 68.0
322.82019 84.0
322.859528 56.0
323.185059 52.0
323.439178 108.0
323.618164 60.0
323.664734 44.0
323.782898 64.0
324.445801 40.0
327.367096 56.0
327.44632 52.0
327.777771 60.0
328.603485 48.0
328.94635 48.0
329.954285 52.0
331.170197 72.0
331.213654 108.0
332.660553 124.0
333.350677 72.0
333.746887 96.0
333.99057 52.0
334.54007 68.0
336.804626 108.0
337.137115 172.0
337.725769 112.0
348.26062 52.0
352.489227 48.0
355.214935 136.0
357.442932 120.0
357.521973 64.0
359.236389 136.0
375.78009 64.0
379.342041 76.0
381.2323 124.0
401.908173 72.0
408.430542 48.0
408.865082 156.0
433.216187 120.0
433.684448 56.0
447.390778 108.0
447.554993 60.0
458.356842 72.0
459.798279 100.0
461.720856 72.0
479.867188 152.0
483.567291 68.0
485.867889 40.0
490.489868 124.0
515.657593 116.0
515.748047 40.0
517.21814 104.0
517.919983 136.0
527.969849 52.0
537.050232 104.0
555.091492 188.0
556.527344 40.0
570.712463 76.0
579.011292 64.0
580.127747 52.0
582.834717 48.0
614.768127 84.0
648.718689 120.0
663.529175 48.0
666.583252 56.0
666.953308 40.0
690.405334 200.0
707.014709 80.0
726.136658 124.0
730.245544 68.0
746.291138 92.0
769.225647 124.0
791.230286 72.0
795.580872 148.0
796.923157 48.0
797.991089 148.0
805.678772 160.0
806.769531 212.0
808.789062 92.0
811.253235 92.0
812.211609 180.0
812.994568 104.0
815.499268 160.0
818.315247 196.0
826.958313 44.0
834.059448 156.0
840.331055 196.0
852.212463 84.0
852.985413 72.0
864.77417 188.0
874.841492 140.0
878.931885 76.0
881.831604 228.0
884.517029 260.0
890.161499 124.0
894.704224 176.0
897.164734 152.0
897.367432 200.0
900.840942 236.0
903.674805 108.0
906.908691 140.0
910.664856 124.0
914.127869 216.0
916.138916 64.0
917.742126 240.0
918.152222 32.0
918.315063 208.0
919.533875 152.0
923.388611 144.0
925.827637 208.0
927.930359 224.0
929.228333 140.0
929.386108 72.0
931.984924 160.0
933.158081 204.0
937.540894 224.0
941.530884 156.0
947.29895 252.0
947.476624 140.0
947.605286 96.0
954.922852 204.0
955.052002 132.0
957.052124 240.0
960.503479 140.0
961.52771 104.0
962.787231 144.0
963.275146 180.0
966.168396 176.0
968.353577 140.0
969.766296 120.0
970.039001 88.0
970.082397 152.0
972.830627 104.0
974.600769 188.0
975.974487 212.0
977.523376 132.0
981.853149 184.0
984.46814 156.0
989.902588 76.0
991.838623 204.0
994.717896 204.0
998.016296 100.0
998.167236 224.0
999.588928 220.0
1000.312744 124.0
1002.221069 140.0
1002.851257 76.0
1003.355591 196.0
1003.41864 140.0
1006.61145 200.0
1006.750427 108.0
1008.822937 188.0
1010.062378 220.0
1010.264832 192.0
1010.587463 160.0
1015.161011 112.0
1015.224426 164.0
1016.58844 216.0
1016.82959 152.0
1019.789368 140.0
1023.192749 208.0
1023.734009 180.0
1023.98877 92.0
1024.816895 196.0
1028.77124 136.0
1030.048462 168.0
1034.435303 196.0
1035.69043 184.0
1045.488281 36.0
1047.001221 108.0
1047.213745 156.0
1051.746704 224.0
1054.627563 136.0
1056.308838 272.0
1056.739746 172.0
1059.461548 172.0
1062.365967 120.0
1065.625122 148.0
1066.359497 128.0
1070.30188 208.0
1072.151978 72.0
1072.458374 164.0
1074.290771 160.0
1075.752563 164.0
1076.575317 164.0
1076.830078 156.0
1078.881836 152.0
1079.032227 228.0
1080.39917 160.0
1080.588867 184.0
1081.086182 192.0
1081.969849 112.0
1084.891846 156.0
1085.127808 60.0
1087.42395 36.0
1096.388428 84.0
1096.942017 48.0
1097.346069 228.0
1098.537964 160.0
1098.702881 220.0
1106.117676 188.0
1106.303101 168.0
1107.243408 180.0
1109.595825 92.0
1111.791504 64.0
1112.720825 60.0
1114.075684 56.0
1114.580566 204.0
1116.488525 216.0
1123.596069 224.0
1126.359863 144.0
1128.010498 156.0
1128.578735 124.0
1129.093628 192.0
1130.592285 60.0
1130.779663 56.0
1131.134521 136.0
1133.686401 104.0
1133.820435 140.0
1134.142212 180.0
1134.882812 180.0
1135.147827 96.0
1135.825195 96.0
1136.194214 200.0
1139.302612 136.0
1139.961182 68.0
1140.082153 160.0
1141.090454 68.0
1143.559326 160.0
1144.434448 244.0
1145.067505 124.0
1145.653564 196.0
1147.014771 116.0
1147.755371 176.0
1148.761353 168.0
1150.684814 208.0
1153.089722 204.0
1156.634033 148.0
1156.952271 108.0
1157.331421 200.0
1159.20105 204.0
1159.885498 156.0
1161.512939 208.0
1162.109985 228.0
1162.707153 208.0
1165.946777 144.0
1166.211914 236.0
1168.496826 180.0
1169.045898 192.0
1170.504883 188.0
1170.668213 176.0
1173.093872 176.0
1173.325684 196.0
1173.387085 152.0
1173.857544 164.0
1174.144043 156.0
1174.328125 64.0
1175.617676 148.0
1175.815552 176.0
1176.300171 108.0
1177.925415 152.0
1178.642822 136.0
1180.194458 80.0
1180.707397 240.0
1180.871582 160.0
1181.33667 236.0
1181.487183 140.0
1182.718994 176.0
1182.773804 40.0
1182.835327 108.0
1184.191162 180.0
1184.239136 112.0
1189.779907 120.0
1190.397949 160.0
1191.454224 164.0
1192.46582 240.0
1194.012817 228.0
1194.755737 80.0
1194.989746 156.0
1195.801758 228.0
1197.061646 168.0
1197.302612 68.0
1197.777954 136.0
1198.349731 144.0
1198.494385 164.0
1200.100464 216.0
1201.645508 148.0
1201.914551 160.0
1203.350342 144.0
1203.688721 180.0
1204.400024 60.0
1204.932007 160.0
1207.766357 148.0
1209.59314 184.0
1210.8396 172.0
1211.587646 168.0
1212.604858 208.0
1214.561646 108.0
1215.303955 188.0
1215.588501 120.0
1215.880005 208.0
1216.240967 192.0
1216.469971 220.0
1216.532471 124.0
1217.011475 52.0
1217.448975 156.0
1217.775391 132.0
1217.980225 156.0
1218.345093 160.0
1220.215332 144.0
1221.459473 116.0
1222.69104 112.0
1223.784058 72.0
1224.563965 204.0
1224.682373 160.0
1224.841553 132.0
1226.835693 172.0
1227.532959 132.0
1228.076904 236.0
1230.847656 132.0
1231.168823 176.0
1231.32251 224.0
1232.132812 176.0
1232.908447 176.0
1233.852173 132.0
1234.20166 216.0
1234.425537 160.0
1234.691284 152.0
1234.824097 104.0
1235.390747 112.0
1235.971436 156.0
1237.518433 156.0
1237.743774 196.0
1237.882568 108.0
1240.516968 168.0
1241.835327 144.0
1242.628052 148.0
1243.357788 176.0
1243.891235 152.0
1245.948975 96.0
1247.546143 168.0
1248.057495 220.0
1248.950684 100.0
1249.661255 152.0
1250.196045 52.0
1250.780273 212.0
1251.540649 128.0
1252.195557 200.0
1256.030029 128.0
1256.135864 140.0
1256.615601 192.0
1257.017822 180.0
1259.432373 192.0
1259.488892 220.0
1260.294312 104.0
1261.799805 184.0
1261.969482 72.0
1262.457397 268.0
1262.683716 40.0
1266.286377 220.0
1266.350098 112.0
1266.860107 180.0
1267.306396 216.0
1267.74585 168.0
1269.645752 136.0
1269.709595 64.0
1270.007568 52.0
1272.548096 200.0
1273.783936 200.0
1275.48938 168.0
1277.195923 156.0
1279.145752 160.0
1279.33667 152.0
1281.047119 216.0
1281.695557 196.0
1282.45813 160.0
1283.463257 200.0
1285.760376 104.0
1285.831787 192.0
1285.903198 152.0
1286.645508 80.0
1287.43103 152.0
1289.288574 184.0
1289.603027 132.0
1290.425171 156.0
1290.503784 212.0
1290.682495 64.0
1290.782593 180.0
1291.948486 68.0
1292.299072 92.0
1292.699829 168.0
1292.885864 188.0
1293.623169 140.0
1294.102783 116.0
1296.705322 192.0
1298.739624 204.0
1299.119751 100.0
1300.906738 192.0
1302.465088 236.0
1303.226562 104.0
1303.312866 116.0
1303.629028 148.0
1303.729614 188.0
1305.022095 192.0
1305.627563 224.0
1305.93689 204.0
1307.822021 64.0
1310.702881 64.0
1314.459839 164.0
1315.665283 140.0
1315.744629 208.0
1316.445068 124.0
1317.933105 136.0
1319.696899 188.0
1321.099976 224.0
1321.468994 244.0
1321.613647 148.0
1321.678833 108.0
1321.765625 124.0
1321.975464 176.0
1322.221558 132.0
1323.640503 188.0
1324.37915 180.0
1324.719727 160.0
1325.089111 204.0
1325.38623 168.0
1325.842773 220.0
1326.154419 196.0
1326.59668 168.0
1328.322632 144.0
1329.547852 232.0
1330.637695 168.0
1331.305786 40.0
1334.275146 204.0
1336.598022 260.0
1336.772583 180.0
1337.333008 212.0
1337.413086 84.0
1337.857178 176.0
1338.01001 156.0
1339.510254 172.0
1340.348145 140.0
1342.432983 248.0
1342.593506 180.0
1342.994629 204.0
1343.337524 224.0
1343.585571 156.0
1344.337036 228.0
1346.680664 180.0
1348.163818 104.0
1348.770508 204.0
1348.909424 188.0
1349.903809 64.0
1350.328003 192.0
1350.70105 148.0
1352.750244 152.0
1352.954956 168.0
1353.403442 148.0
1353.424927 180.0
1354.763916 256.0
1354.976318 160.0
1355.071655 188.0
1355.716431 96.0
1355.936279 152.0
1356.053589 164.0
1356.141602 168.0
1356.339478 56.0
1356.588745 212.0
1357.527222 172.0
1358.678833 192.0
1358.994385 160.0
1360.014404 168.0
1360.124512 184.0
1360.24939 148.0
1360.587036 128.0
1360.653076 40.0
1361.820801 140.0
1362.004395 96.0
1364.128052 160.0
1364.179565 128.0
1364.3927 224.0
1364.6427 252.0
1365.245728 140.0
1365.797363 64.0
1366.591919 144.0
1367.151123 120.0
1369.175781 152.0
1369.337769 176.0
1369.794434 208.0
1370.332275 136.0
1370.464966 152.0
1372.278198 208.0
1373.074585 220.0
1373.753174 76.0
1374.712402 124.0
1374.764038 108.0
1375.118286 144.0
1375.184814 144.0
1376.026367 228.0
1377.569824 196.0
1378.234863 140.0
1379.047729 156.0
1379.698242 240.0
1380.356323 204.0
1381.081177 164.0
1381.243896 180.0
1381.539795 156.0
1383.308472 188.0
1383.523193 184.0
1385.122803 164.0
1386.908691 160.0
1387.672241 220.0
1388.384155 164.0
1388.829102 200.0
1388.888428 176.0
1389.600708 220.0
1390.056885 164.0
1391.552734 228.0
1391.990845 140.0
1392.577515 172.0
1393.060425 164.0
1393.989136 188.0
1395.959106 216.0
1396.88147 176.0
1397.283203 212.0
1397.811523 204.0
1397.952881 268.0
1398.324951 136.0
1398.593018 172.0
1400.901489 148.0
1400.96106 112.0
1402.086182 176.0
1402.697388 144.0
1402.831543 168.0
1403.040283 128.0
1403.449341 240.0
1403.696533 136.0
1404.882446 184.0
1404.97937 148.0
1405.180908 140.0
1407.07666 48.0
1407.322998 176.0
1407.636597 176.0
1408.025024 144.0
1408.084717 64.0
1408.510498 176.0
1408.727173 180.0
1408.928833 184.0
1409.280029 176.0
1409.877808 140.0
1411.215942 192.0
1411.350464 188.0
1411.709473 156.0
1412.434937 68.0
1412.741699 56.0
1415.286377 176.0
1415.922974 204.0
1416.042847 220.0
1416.492188 180.0
1419.437744 164.0
1419.610229 52.0
1423.550171 212.0
1423.970703 196.0
1424.35376 72.0
1425.555908 44.0
1425.924194 188.0
1427.2323 164.0
1427.818848 168.0
1428.052002 76.0
1429.015015 136.0
1430.75354 216.0
1431.084839 168.0
1433.201416 148.0
1435.523193 144.0
1435.658936 140.0
1436.043579 224.0
1437.37146 164.0
1437.529907 156.0
1437.967651 256.0
1438.46582 180.0
1440.172363 136.0
1441.101562 184.0
1441.668335 216.0
1441.759033 180.0
1441.864868 172.0
1443.029053 152.0
1443.213135 180.0
1443.308838 196.0
1443.573486 148.0
1444.518921 76.0
1444.919922 208.0
1445.176147 188.0
1445.638672 160.0
1446.138184 184.0
1446.266968 144.0
1446.562134 148.0
1448.106934 100.0
1448.538696 120.0
1449.925293 180.0
1450.819702 204.0
1451.722046 128.0
1451.866089 200.0
1453.04187 164.0
1453.261963 192.0
1453.383301 164.0
1453.732422 132.0
1453.800781 132.0
1454.081543 216.0
1454.248535 212.0
1454.506592 176.0
1455.00769 116.0
1455.721436 124.0
1456.13916 128.0
1457.407837 160.0
1457.597778 200.0
1457.780151 172.0
1458.046143 68.0
1458.167725 212.0
1458.236084 128.0
1458.98877 148.0
1459.940063 164.0
1460.00769 204.0
1461.726929 108.0
1461.932373 148.0
1462.758423 184.0
1462.974609 184.0
1463.76709 248.0
1464.064087 88.0
1464.155518 240.0
1464.483032 140.0
1465.229492 48.0
1465.336182 180.0
1466.005859 196.0
1466.403076 188.0
1466.494507 180.0
1467.234009 124.0
1467.714355 216.0
1467.981201 108.0
1468.393066 184.0
1469.338989 128.0
1469.735718 44.0
1469.789185 180.0
1469.918945 204.0
1470.643921 216.0
1470.773682 124.0
1471.040894 112.0
1471.445557 20.0
1472.018188 208.0
1472.312012 204.0
1472.590942 176.0
1472.728516 180.0
1473.209717 232.0
1474.49353 76.0
1474.554565 168.0
1475.280762 104.0
1475.915405 212.0
1476.917236 36.0
1477.835327 148.0
1478.424561 168.0
1478.684814 160.0
1479.090454 188.0
1479.419678 232.0
1480.529907 188.0
1480.698364 244.0
1483.28833 140.0
1483.993652 196.0
1484.054932 152.0
1484.422974 84.0
1485.243652 132.0
1485.811401 284.0
1486.440552 152.0
1486.578735 152.0
1488.144653 148.0
1488.436401 140.0
1489.434814 220.0
1489.626953 40.0
1490.32605 180.0
1490.395264 68.0
1491.056152 204.0
1492.040039 128.0
1493.008911 76.0
1493.062744 208.0
1493.201172 152.0
1493.570435 212.0
1494.493652 96.0
1495.948242 148.0
1496.487183 104.0
1496.648926 144.0
1497.4729 252.0
1497.757935 176.0
1498.004395 76.0
1498.52832 160.0
1498.97522 112.0
1499.175659 176.0
1499.900146 208.0
1500.35498 116.0
1500.624756 124.0
1500.940918 208.0
1501.758423 92.0
1502.591553 136.0
1502.907959 144.0
1503.039062 136.0
1503.177979 196.0
1503.357788 212.0
1503.471313 160.0
1504.088745 84.0
1504.227661 148.0
1505.046143 56.0
1505.13562 180.0
