>compound NCGC00160264-01!6,7-Dimethoxy-quinazoline-2,4-diol
>formula C10H10N2O4
>ionization [M+H]+
>parentmass 223.07133325209054
#inchi InChI=1S/C10H10N2O4/c1-15-7-3-5-6(4-8(7)16-2)11-10(14)12-9(5)13/h3-4H,1-2H3,(H2,11,12,13,14)
#inchikey KWNQIIMVPSMYEM
#Ion_Source LC-ESI
#Instrument qTOF
#Compound_Source Prestwick Phytochem Lib
#PI Dorrestein
#Data_Collector VVP/LMS
#Scan -1
#Precursor_MZ 223.072
#ExactMass 222.064
#Charge 1
#CAS_Number N/A
#Pubmed_ID N/A
#Smiles O=C1NC(NC2=C1C=C(OC)C(OC)=C2)=O
#INCHI_AUX N/A
#Library_Class 1
#SpectrumID CCMSLIB00000078756
#IonMode Positive
#UpdateWorkflowName UPDATE-SINGLE-ANNOTATED-GOLD
#LibraryQualityString Gold
#TaskID 67c915c6594c435cadc1fe2b5358144d
##Scan# 1367
#SpectrumFile p1-D03_GD3_01_17911.mzXML
#LibraryName phytochem_lib.mgf
#MQScore -1
#Organism phytochem_lib
#TIC_Query 0
#RT_Query -1
#MZErrorPPM -1
#SharedPeaks 0
#MassDiff 0
#LibMZ -1
#SpecMZ 223.072
#SpecCharge 0
#internalFilename spec-00000.mgf

>collision 10
95.017654 224.0
95.85125 212.0
96.151558 272.0
96.945526 180.0
97.721123 208.0
97.835274 60.0
98.278709 212.0
101.208496 140.0
101.657501 28.0
102.029076 168.0
102.604561 144.0
103.554558 236.0
103.949867 160.0
103.966103 164.0
104.873161 108.0
106.021736 64.0
107.032394 160.0
108.047066 168.0
109.723808 208.0
110.03566 208.0
110.44632 156.0
114.362495 172.0
114.513664 168.0
114.569038 112.0
114.711815 148.0
116.039383 184.0
118.06559 180.0
118.55484 132.0
119.71051 128.0
120.009483 748.0
120.74054 88.0
121.103836 56.0
121.726662 176.0
121.996902 168.0
122.022057 324.0
123.045525 48.0
123.788429 60.0
124.072029 148.0
125.059128 660.0
125.149559 44.0
125.407967 60.0
125.981422 152.0
126.032806 136.0
126.075264 196.0
126.26976 44.0
134.025009 184.0
134.048004 212.0
135.032166 524.0
135.716919 116.0
136.036194 228.0
137.018448 76.0
138.005676 116.0
138.068802 324.0
138.917038 132.0
141.635361 208.0
144.010635 184.0
145.925293 108.0
146.635391 104.0
147.033829 116.0
149.023773 148.0
149.045639 212.0
149.916779 112.0
150.021576 220.0
150.05632 956.0
150.104477 32.0
150.219864 160.0
151.053818 184.0
151.24292 56.0
151.490234 44.0
151.656845 168.0
151.725494 228.0
152.071091 1568.0
153.079285 120.0
153.266495 52.0
154.073257 156.0
154.181976 108.0
159.033646 132.0
160.021561 144.0
161.0112 220.0
161.038452 252.0
161.060516 188.0
161.938171 140.0
162.021118 344.0
163.028168 340.0
165.042801 140.0
166.46492 40.0
167.514252 68.0
168.639236 124.0
177.027145 132.0
177.071686 208.0
179.04805 152.0
179.072021 136.0
180.066513 204.0
184.643753 20.0
189.154922 236.0
190.015289 684.0
191.045227 176.0
205.022095 176.0
205.060425 540.0
206.04364 1952.0
206.867172 60.0
207.035431 312.0
207.051315 388.0
207.956375 96.0
208.052338 172.0
208.108521 172.0
208.671631 76.0
209.051315 132.0
209.255676 44.0
209.347809 76.0
209.627228 56.0
210.354019 48.0
210.582123 48.0
211.617355 88.0
214.388428 80.0
215.269394 84.0
221.048615 156.0
223.073395 192.0
528.573486 20.0
597.799133 20.0
994.54303 252.0
1048.699341 116.0
1084.978149 200.0
1159.610229 36.0
1160.640625 88.0
1221.986572 112.0
1232.144409 44.0
1257.04895 136.0
1289.73938 224.0
1293.716553 176.0
1318.372559 244.0
1338.720825 48.0
1343.90332 136.0
1408.913452 216.0
1413.930542 180.0
1441.219727 168.0
1450.846558 152.0
1452.848633 160.0
1465.217407 184.0
1470.448242 156.0
1476.192993 120.0
1477.577393 164.0
1485.17627 156.0
1492.956177 180.0
