>compound Formononetin (Biochanin B)
>formula C16H12O4
>ionization [M+H]+
>parentmass 269.08083531609054
#inchi InChI=1S/C16H12O4/c1-19-12-5-2-10(3-6-12)14-9-20-15-8-11(17)4-7-13(15)16(14)18/h2-9,17H,1H3
#inchikey HKQYGTCOTHHOMP
#Ion_Source DI-ESI
#Instrument qTof
#Compound_Source Isolated
#PI Norberto Lopes
#Data_Collector Denise Silva
#Scan -1
#Precursor_MZ 269.078
#ExactMass 268.074
#Charge 1
#CAS_Number 485-72-3
#Pubmed_ID  
#Smiles O=C1C2=CC=C(O)C=C2OC=C1C3=CC=C(OC)C=C3
#INCHI_AUX  
#Library_Class 3
#SpectrumID CCMSLIB00000081282
#IonMode Positive
#UpdateWorkflowName UPDATE-SINGLE-ANNOTATED-BRONZE
#LibraryQualityString Bronze
#TaskID e5e31a8290c140b9b24a481204d06862
##Scan# 1
#SpectrumFile gnps_Formononetin_pos_MplusH.mgf
#LibraryName gnps_library.mgf
#MQScore -1
#Organism gnps_library
#TIC_Query 0
#RT_Query -1
#MZErrorPPM -1
#SharedPeaks 0
#MassDiff 0
#LibMZ -1
#SpecMZ 269.078
#SpecCharge 0
#internalFilename spec-00000.mgf

>collision 10
118.040558 7467.0
128.061615 1471.0
129.067566 941.0
133.063217 2819.0
136.013962 3266.0
137.022537 7804.0
141.067474 1963.0
142.073639 692.0
152.060745 3424.0
153.068771 2687.0
154.024414 2863.0
155.071655 681.0
156.05658 4802.0
157.061905 2360.0
158.072311 2269.0
163.037674 1269.0
165.067352 1247.0
168.053513 733.0
169.063889 5899.0
170.070557 7406.0
171.075363 1273.0
180.055695 1455.0
181.063568 10923.0
182.071823 5289.0
183.077789 1042.0
184.052048 2168.0
185.091705 1022.0
195.081116 1770.0
196.051437 1694.0
197.059341 39301.0
198.06662 15285.0
199.07193 1450.0
200.044922 2879.0
208.052155 799.0
209.057129 2584.0
210.066956 1301.0
211.072144 749.0
212.080521 740.0
213.090988 25972.0
214.094223 2997.0
225.053391 18164.0
226.062958 43043.0
227.063538 4412.0
228.040604 640.0
237.055176 28521.0
238.056656 3096.0
241.086563 691.0
253.049286 34636.0
254.054398 24985.0
269.078094 31856.0
