>compound Trilostane
>formula C20H27NO3 
>ionization [M+H]+
>parentmass 330.204803
#inchi InChI=1S/C20H27NO3/c1-18-7-6-14-12(13(18)3-4-15(18)22)5-8-20-17(24-20)16(23)11(10-21)9-19(14,20)2/h12-15,17,22-23H,3-9H2,1-2H3/t12-,13-,14-,15-,17+,18-,19+,20+/m0/s1
#inchikey KVJXBPDAXMEYOA
#Ion_Source LC-ESI
#Instrument qTof
#Compound_Source Isolated
#PI Sirenas
#Data_Collector Ed Esquenazi 
#Scan -1
#Precursor_MZ 330.206
#ExactMass 0.0
#Charge 1
#CAS_Number N/A
#Pubmed_ID N/A
#Smiles N/A
#INCHI_AUX N/A
#Library_Class 3
#SpectrumID CCMSLIB00000006242
#IonMode Positive
#UpdateWorkflowName UPDATE-SINGLE-ANNOTATED-BRONZE
#LibraryQualityString Bronze
#TaskID d19310cd93df49b68e9fcbec27720eb5
##Scan# 1
#SpectrumFile Trilostane.mgf
#LibraryName fda_library.mgf
#MQScore -1
#Organism fda_library
#TIC_Query 0
#RT_Query -1
#MZErrorPPM -1
#SharedPeaks 0
#MassDiff 0
#LibMZ -1
#SpecMZ 330.206
#SpecCharge 0
#internalFilename spec-00000.mgf

>collision 10
109.098518 63.375351
109.122444 2.041667
110.059219 9.391305
112.035179 7.782407
120.05751 19.42708
121.051422 43.16806
121.096764 12.64015
131.084091 33.220798
136.997498 26.880079
144.077118 67.000664
145.549866 20.09918
147.115311 44.355499
149.054459 19.08003
152.068695 85.242363
152.102341 5.363636
159.117691 21.226851
161.131424 17.7971
164.009766 26.755951
164.103271 16.000731
183.111221 16.818939
191.267258 7.116379
195.112701 45.934971
201.162994 87.340553
201.815292 15.36029
207.078384 23.700001
207.113678 35.039711
209.110733 47.397141
211.10791 18.922621
213.164185 7.673611
215.187561 13.41026
215.324341 13.44817
215.96756 8.339286
219.169968 43.393631
224.100021 6.375
225.116333 15.04412
225.160156 29.61256
239.179001 9.053572
241.158157 80.4002
246.925629 27.51862
251.875824 26.93511
256.161713 27.40752
267.166138 17.482759
268.162323 17.93391
274.177704 48.16346
274.218475 29.3776
284.167175 19.67465
285.161896 10.75556
289.956421 24.518591
292.488953 15.0375
294.186127 68.491226
295.167969 2.333333
302.174072 86.04245
302.280945 6.671297
303.188873 81.378731
311.627411 10.75
311.906982 17.98246
312.194427 152.265793
312.52774 11.70833
312.940002 7.351191
313.179993 11.61825
316.078217 49.668652
316.860077 9.075
325.78363 5.724359
328.18396 32.627541
328.567261 4.761905
328.60907 6.335784
328.665863 3.010417
328.949615 3.671296
329.151672 4.335318
329.550568 11.29643
329.750244 27.31144
330.055817 29.04006
330.113037 8.595239
330.162354 21.60745
330.204803 2819.413086
330.28241 4.44079
330.408875 21.8239
330.466949 10.72126
330.497406 6.004902
330.529541 8.989943
330.611023 21.714701
330.731567 8.482142
330.774933 12.4965
330.931946 23.027651
330.96582 17.093439
331.045624 23.495449
331.226685 43.174019
331.32605 17.712681
331.706573 2.761364
332.467255 18.67568
332.886078 9.642095
389.588135 8.111112
473.096283 6.185606
