>compound MLS000563187-01!
>formula C18H16O8
>ionization [M+H]+
>parentmass 361.092
#inchi InChI=1S/C18H16O8/c19-2-1-7(6-20)13-12(23)5-10-15(17(13)25)18(26)14-9(16(10)24)3-8(21)4-11(14)22/h3-5,7,19-23,25H,1-2,6H2/t7-/m1/s1
#inchikey ZLIRCPWCWHTYNP
#Ion_Source LC-ESI
#Instrument qTof
#Compound_Source NIH Natural Product Library
#PI Dorrestein
#Data_Collector VVP/LMS
#Scan -1
#Precursor_MZ 361.092
#ExactMass 360.085
#Charge 1
#CAS_Number N/A
#Pubmed_ID N/A
#Smiles OCC[C@H](CO)c1c(O)cc2C(=O)c3cc(O)cc(O)c3C(=O)c2c1O
#INCHI_AUX N/A
#Library_Class 1
#SpectrumID CCMSLIB00000079465
#IonMode Positive
#UpdateWorkflowName UPDATE-SINGLE-ANNOTATED-GOLD
#LibraryQualityString Gold
#TaskID b1d8e8f6646f4e71acdff9ca3d919d08
##Scan# 1773
#SpectrumFile p1-F06_GF6_01_17938.mzXML
#LibraryName NIH_Natural_Products_Library.mgf
#MQScore -1
#Organism NIH_Natural_Products_Library
#TIC_Query 0
#RT_Query -1
#MZErrorPPM -1
#SharedPeaks 0
#MassDiff 0
#LibMZ -1
#SpecMZ 361.092
#SpecCharge 0
#internalFilename spec-00000.mgf

>collision 10
95.015587 212.0
96.434563 124.0
96.512756 132.0
99.087212 208.0
99.404457 172.0
100.526779 156.0
101.6213 116.0
102.063179 56.0
102.101387 96.0
102.298569 248.0
102.69754 168.0
103.055389 164.0
103.366234 180.0
104.528961 144.0
105.381264 172.0
107.465256 148.0
108.254868 128.0
108.343925 120.0
110.099464 100.0
110.64521 172.0
110.733154 136.0
110.772949 128.0
111.787033 72.0
112.814186 88.0
113.317871 144.0
115.049042 136.0
115.390862 116.0
115.512764 160.0
116.713768 108.0
117.034363 184.0
117.655296 48.0
119.717316 60.0
120.568123 40.0
121.520653 96.0
124.567268 204.0
124.851761 116.0
126.12484 116.0
126.883713 96.0
127.056396 164.0
127.298805 140.0
128.692612 132.0
128.746811 140.0
129.070282 188.0
131.010468 68.0
131.04921 172.0
133.020569 168.0
133.066483 156.0
134.856369 236.0
135.27272 132.0
136.044662 172.0
137.023804 652.0
137.76561 196.0
138.170044 132.0
138.479034 180.0
139.055801 108.0
140.31192 204.0
141.067352 180.0
141.50264 188.0
142.534409 176.0
142.681763 152.0
143.045731 128.0
144.470383 216.0
145.022858 160.0
145.069443 100.0
145.079941 156.0
145.088608 184.0
145.29689 172.0
147.044205 188.0
147.374664 224.0
148.025345 28.0
148.165817 196.0
148.233658 132.0
150.120026 180.0
152.060959 312.0
153.06752 176.0
153.79277 116.0
154.077103 168.0
155.050568 180.0
155.796051 132.0
156.029663 92.0
156.487442 52.0
157.063843 188.0
157.617325 100.0
158.064926 168.0
158.615906 112.0
158.914322 136.0
159.040665 352.0
160.04538 180.0
160.809204 60.0
161.05899 160.0
162.398132 168.0
163.009964 168.0
163.037918 128.0
163.712067 176.0
163.803757 188.0
163.852158 192.0
164.046814 156.0
164.568832 124.0
164.783371 176.0
165.013275 164.0
165.502075 160.0
165.84024 184.0
165.960724 92.0
166.073563 136.0
167.077942 184.0
167.379074 52.0
167.9254 184.0
168.382217 184.0
168.762085 128.0
169.284775 108.0
169.595657 212.0
169.800491 176.0
170.072922 136.0
171.029434 128.0
171.047653 140.0
171.079025 148.0
171.136383 212.0
171.224701 120.0
171.555618 124.0
171.618179 88.0
172.453552 48.0
172.500595 140.0
172.99762 144.0
173.024231 244.0
173.060928 156.0
173.267365 212.0
173.602859 116.0
174.014816 116.0
174.056839 176.0
174.542953 108.0
175.045532 168.0
175.506653 160.0
175.612137 128.0
175.939346 164.0
176.037033 148.0
176.124191 152.0
177.648895 196.0
179.081085 120.0
179.37204 96.0
180.381058 80.0
180.504044 84.0
181.06752 372.0
181.202621 108.0
182.060974 148.0
182.633438 204.0
183.043976 132.0
184.057892 128.0
185.058838 292.0
185.314087 156.0
185.568863 180.0
187.040268 708.0
187.079376 196.0
188.041565 172.0
189.011703 192.0
189.057816 160.0
189.37854 128.0
190.374084 196.0
190.470215 128.0
190.802719 96.0
190.953964 104.0
191.01329 84.0
191.319931 104.0
192.0336 164.0
192.07222 188.0
193.202042 196.0
194.976624 172.0
195.037766 124.0
195.752777 148.0
196.056412 140.0
196.08429 124.0
196.946411 128.0
197.038605 184.0
197.081726 192.0
197.631332 104.0
199.038391 268.0
199.071457 172.0
199.774765 48.0
200.042313 160.0
200.264542 124.0
201.022919 136.0
201.048828 168.0
201.090652 124.0
203.036301 272.0
204.036621 116.0
204.312485 88.0
204.873306 68.0
205.012924 120.0
205.063843 340.0
206.034409 60.0
206.070068 124.0
206.237289 92.0
206.563263 80.0
207.13002 192.0
208.047653 112.0
208.308975 112.0
209.062866 216.0
209.528732 284.0
210.057007 156.0
210.899429 92.0
211.027527 128.0
211.284027 148.0
211.700821 188.0
211.973114 132.0
212.04686 108.0
212.083252 40.0
212.434113 52.0
212.674957 52.0
213.020493 144.0
213.058014 188.0
213.082458 108.0
213.616409 180.0
213.660049 180.0
213.881195 44.0
214.070435 172.0
214.933273 220.0
215.033096 856.0
215.056686 164.0
216.031799 160.0
217.037125 168.0
217.21524 132.0
218.005035 152.0
218.057938 144.0
220.332764 136.0
221.308762 136.0
223.031967 216.0
223.073471 144.0
223.359436 228.0
223.67485 140.0
224.127533 136.0
224.473297 160.0
225.04985 140.0
226.014618 176.0
226.050522 288.0
226.874191 232.0
227.031357 832.0
227.068405 532.0
227.189072 36.0
228.039551 168.0
228.068893 140.0
229.016678 136.0
229.049088 960.0
229.14621 68.0
229.342087 48.0
230.052612 176.0
230.120392 44.0
231.02739 576.0
231.378098 68.0
232.029465 128.0
232.539062 68.0
233.034042 140.0
233.528839 208.0
234.05661 104.0
234.162613 164.0
234.464218 124.0
234.560226 20.0
236.041611 144.0
237.053253 488.0
238.053925 204.0
239.036377 360.0
239.073257 164.0
239.599777 68.0
239.850525 152.0
240.03479 116.0
241.049576 888.0
241.086868 172.0
241.136459 112.0
241.349762 52.0
241.445633 144.0
241.578629 196.0
241.603378 40.0
242.044281 296.0
242.417694 236.0
243.066452 164.0
243.413437 48.0
243.627747 88.0
244.019333 176.0
245.05574 88.0
245.601929 96.0
245.654312 220.0
245.679276 44.0
246.010056 256.0
246.041275 180.0
246.344193 120.0
246.584793 104.0
247.883514 132.0
249.044296 204.0
251.065567 260.0
251.314041 80.0
251.38031 48.0
251.525482 160.0
251.806488 156.0
251.831757 108.0
251.879135 76.0
252.040268 128.0
252.072754 156.0
253.051575 336.0
253.092819 156.0
254.048111 128.0
254.41246 164.0
254.710968 176.0
255.030182 284.0
255.061584 748.0
255.184479 156.0
256.033203 188.0
256.06546 160.0
256.999969 324.0
257.042175 1016.0
257.8302 156.0
258.045654 480.0
258.204224 96.0
258.594574 96.0
258.879486 36.0
259.017212 360.0
259.129333 172.0
259.507538 264.0
259.921295 112.0
260.296844 184.0
260.878387 180.0
261.048798 184.0
262.0466 88.0
263.058777 136.0
263.424164 156.0
263.779602 136.0
264.041504 136.0
264.216187 180.0
264.614258 60.0
265.045837 128.0
265.252441 164.0
266.057831 368.0
267.022491 592.0
268.025665 116.0
268.125671 68.0
268.347321 188.0
269.042969 2956.0
269.466797 176.0
269.581146 196.0
270.056213 344.0
270.562408 68.0
270.654083 176.0
271.063599 224.0
271.117157 132.0
271.243774 96.0
271.952271 108.0
272.067169 140.0
273.041565 164.0
273.987732 208.0
274.035156 244.0
274.970367 152.0
275.300507 132.0
275.700226 76.0
276.411194 144.0
277.401459 176.0
278.061523 96.0
278.988251 176.0
279.067841 548.0
280.063141 156.0
280.759644 120.0
281.039185 320.0
281.1633 164.0
281.31015 176.0
281.90802 132.0
282.053497 368.0
282.653717 88.0
282.958282 144.0
283.057556 724.0
283.108978 64.0
283.132416 36.0
283.567932 128.0
283.795898 36.0
284.0625 512.0
284.362823 128.0
284.638092 160.0
284.784363 180.0
284.822937 108.0
284.977325 204.0
285.038696 8008.0
285.126648 220.0
285.2966 92.0
285.35376 40.0
285.791016 168.0
285.85495 100.0
285.87851 156.0
285.928986 64.0
286.042389 1636.0
286.15451 48.0
286.245422 52.0
286.285828 44.0
286.545197 176.0
286.68335 40.0
286.895691 92.0
287.003571 96.0
287.042053 224.0
287.145203 104.0
287.276733 64.0
287.391449 56.0
287.9552 132.0
287.995728 92.0
288.04303 112.0
288.137604 88.0
289.080963 124.0
289.744598 48.0
290.056366 116.0
293.043549 152.0
294.213348 224.0
294.370392 56.0
294.910187 96.0
295.00589 108.0
295.042572 132.0
296.02121 120.0
296.070007 176.0
297.039795 716.0
297.072388 852.0
297.139435 68.0
297.856934 56.0
298.043762 252.0
298.077301 168.0
298.24176 148.0
299.019073 184.0
299.063599 336.0
299.118896 40.0
301.270691 92.0
301.74762 72.0
302.418701 144.0
302.654114 112.0
302.972748 52.0
305.072266 52.0
306.621185 148.0
307.057098 304.0
308.056122 176.0
309.041382 156.0
310.047577 972.0
310.101196 28.0
310.44928 180.0
310.814087 32.0
311.052399 340.0
311.16507 128.0
312.250885 120.0
312.363434 40.0
313.068817 768.0
314.071411 256.0
314.940094 88.0
314.964813 88.0
315.031921 292.0
315.632751 44.0
316.258942 128.0
316.545685 52.0
317.031006 108.0
319.111084 116.0
319.81543 208.0
321.611847 48.0
322.926697 60.0
323.048309 172.0
323.137726 84.0
323.731934 140.0
324.054291 160.0
324.670837 244.0
324.990082 188.0
325.069672 6068.0
325.136658 184.0
325.20282 72.0
325.226929 100.0
325.35257 60.0
325.802765 164.0
325.855377 52.0
326.014374 160.0
326.072876 1076.0
326.214752 60.0
326.2435 164.0
326.876526 88.0
327.072418 108.0
327.211243 60.0
327.582184 68.0
328.014587 92.0
328.176819 60.0
328.288605 28.0
328.332062 84.0
328.930817 84.0
331.8974 76.0
341.237335 116.0
343.072937 268.0
345.34903 52.0
348.269745 116.0
358.393097 108.0
372.880951 108.0
378.861816 68.0
384.289185 100.0
393.832581 92.0
417.23703 160.0
452.174438 44.0
507.866425 88.0
522.261658 32.0
525.121948 44.0
557.867004 100.0
566.569153 60.0
632.749817 108.0
638.198547 92.0
647.969849 72.0
663.299011 100.0
724.606445 104.0
791.677979 80.0
891.219482 76.0
919.134827 88.0
967.622803 20.0
1009.158997 148.0
1016.539856 80.0
1087.703247 140.0
1090.455322 56.0
1187.445435 148.0
1203.638184 76.0
1298.223267 152.0
1347.196777 196.0
1399.86084 252.0
1430.942383 72.0
1438.541504 176.0
1446.932861 164.0
1462.441284 156.0
1497.839722 192.0
