>compound Miconazole (Monistat)
>formula C18H14Cl4N2O
>ionization [M+H]+
>parentmass 414.993958
#inchi InChI=1S/C18H14Cl4N2O/c19-13-2-1-12(16(21)7-13)10-25-18(9-24-6-5-23-11-24)15-4-3-14(20)8-17(15)22/h1-8,11,18H,9-10H2
#inchikey BYBLEWFAAKGYCD
#Ion_Source LC-ESI
#Instrument qTof
#Compound_Source Commercial
#PI Dorrestein
#Data_Collector Garg_Neha
#Scan -1
#Precursor_MZ 414.993
#ExactMass 413.986
#Charge 1
#CAS_Number 22916-47-8
#Pubmed_ID N/A
#Smiles C1(=CC=C(C(=C1)Cl)COC(C2=C(C=C(C=C2)Cl)Cl)CN3C=CN=C3)Cl
#INCHI_AUX N/A
#Library_Class 1
#SpectrumID CCMSLIB00000078506
#IonMode Positive
#UpdateWorkflowName UPDATE-SINGLE-ANNOTATED-GOLD
#LibraryQualityString Gold
#TaskID 77f51c88eb8b467eb4a01dd2d0cb90d2
##Scan# 1730
#SpectrumFile Plate8_21_40_GC10_01_15763.mzXML
#LibraryName FDALibrary_2_04302014.mgf
#MQScore -1
#Organism FDALibrary_2_04302014
#TIC_Query 0
#RT_Query -1
#MZErrorPPM -1
#SharedPeaks 0
#MassDiff 0
#LibMZ -1
#SpecMZ 414.993
#SpecCharge 0
#internalFilename spec-00000.mgf

>collision 10
119.094261 156.0
124.002716 156.0
125.035469 160.0
133.684006 164.0
158.975449 1148.0
160.972839 584.0
161.974289 136.0
162.974167 148.0
164.921173 144.0
303.062195 144.0
303.915161 168.0
323.892822 148.0
325.862335 208.0
371.859985 164.0
413.211304 160.0
413.263916 160.0
414.993958 1424.0
415.200226 156.0
415.997375 460.0
416.263458 272.0
416.600555 156.0
416.98941 1180.0
417.051605 204.0
417.202026 160.0
417.991089 204.0
418.988129 140.0
616.905762 152.0
1984.954224 208.0
