>compound 7-chloro-1-methyl-5-phenyl-3H-1,4-benzodiazepin-2-one
>formula C16H13ClN2O
>ionization [M+H]+
>parentmass 285.080719
#inchi InChI=1S/C16H13ClN2O/c1-19-14-8-7-12(17)9-13(14)16(18-10-15(19)20)11-5-3-2-4-6-11/h2-9H,10H2,1H3
#inchikey AAOVKJBEBIDNHE
#Ion_Source LC-ESI
#Instrument qTof
#Compound_Source Commercial
#PI Dorrestein
#Data_Collector Garg_Neha
#Scan -1
#Precursor_MZ 285.079
#ExactMass 284.072
#Charge 1
#CAS_Number N/A
#Pubmed_ID N/A
#Smiles CN1C(=O)CN=C(c2ccccc2)c3cc(Cl)ccc13
#INCHI_AUX N/A
#Library_Class 1
#SpectrumID CCMSLIB00000079136
#IonMode Positive
#UpdateWorkflowName UPDATE-SINGLE-ANNOTATED-GOLD
#LibraryQualityString Gold
#TaskID 278b19f5865741e282cec7349aa7e7a1
##Scan# 1420
#SpectrumFile NCP003512_G2_H11_BD7_01_15731.mzXML
#LibraryName NIHcollectionI_05062014.mgf
#MQScore -1
#Organism NIHcollectionI_05062014
#TIC_Query 0
#RT_Query -1
#MZErrorPPM -1
#SharedPeaks 0
#MassDiff 0
#LibMZ -1
#SpecMZ 285.079
#SpecCharge 0
#internalFilename spec-00000.mgf

>collision 10
47.260571 164.0
48.724834 148.0
49.29052 152.0
50.757298 148.0
51.002903 240.0
51.147991 156.0
52.261406 152.0
53.568745 204.0
54.378803 244.0
57.451805 172.0
58.530941 140.0
59.339214 176.0
59.621651 200.0
60.322952 160.0
62.958935 224.0
64.882706 152.0
65.226234 180.0
65.361328 152.0
66.81102 208.0
66.918434 212.0
68.944283 148.0
70.132614 172.0
70.790863 148.0
71.740166 200.0
72.894463 220.0
73.054283 156.0
73.226196 176.0
73.243233 172.0
73.435837 144.0
73.826927 144.0
74.52459 172.0
75.277321 180.0
75.538292 164.0
75.612694 180.0
75.704453 152.0
76.113686 168.0
77.982964 208.0
79.021622 172.0
79.179161 180.0
82.735451 200.0
84.164505 148.0
85.865639 156.0
87.95858 144.0
89.364113 204.0
89.840759 148.0
90.612091 240.0
91.306831 168.0
91.85347 184.0
92.637207 152.0
92.865303 152.0
93.126328 164.0
93.301193 176.0
94.669205 156.0
94.835815 164.0
95.774284 228.0
96.351692 176.0
98.433685 164.0
98.571953 144.0
98.595673 164.0
99.788971 200.0
100.278664 184.0
101.283676 148.0
101.951775 160.0
102.052284 212.0
102.678543 188.0
103.993622 212.0
104.047218 176.0
104.408081 144.0
104.758163 200.0
104.931389 184.0
105.035126 556.0
105.237427 196.0
105.754623 160.0
106.063904 140.0
107.093315 180.0
107.264336 160.0
107.85054 164.0
109.09877 192.0
111.676964 168.0
112.051407 156.0
113.017502 160.0
113.703773 260.0
114.008675 240.0
115.952881 180.0
116.051704 256.0
116.107239 168.0
116.788071 164.0
116.912849 160.0
116.930069 148.0
116.975273 200.0
117.055016 768.0
118.061958 464.0
118.408958 232.0
119.046539 144.0
119.072815 124.0
119.446449 172.0
119.873169 152.0
121.087807 160.0
121.72377 152.0
121.947845 172.0
122.429657 144.0
122.742569 148.0
123.16188 156.0
124.191109 140.0
124.750671 156.0
125.015175 296.0
125.097694 196.0
125.49202 188.0
126.016197 140.0
127.048607 192.0
128.413971 160.0
128.944534 152.0
129.168381 144.0
129.200043 168.0
130.029373 244.0
130.342758 216.0
130.397293 144.0
131.06105 200.0
131.545273 192.0
131.835327 148.0
132.97583 200.0
137.195038 180.0
137.82753 204.0
138.00972 240.0
138.994064 196.0
139.017532 220.0
140.027222 128.0
140.759018 148.0
141.031662 368.0
142.032257 144.0
142.274307 352.0
143.032623 192.0
143.059021 648.0
144.065414 524.0
145.077408 208.0
146.064529 216.0
146.187057 228.0
147.06839 728.0
148.08165 156.0
149.247009 152.0
150.013474 340.0
151.010132 156.0
151.063934 152.0
152.027893 444.0
152.061188 184.0
153.015106 124.0
153.749481 184.0
153.988388 172.0
154.042114 10536.0
154.087769 164.0
154.881256 156.0
155.003235 236.0
155.044266 708.0
155.201538 168.0
155.221375 168.0
155.348495 164.0
155.563751 144.0
156.039047 2024.0
156.076065 152.0
157.04245 180.0
158.479187 212.0
158.817612 192.0
158.907928 140.0
158.99324 168.0
161.343307 168.0
161.669601 148.0
163.011688 164.0
163.45607 160.0
163.534958 176.0
164.011246 224.0
164.027878 144.0
165.024933 208.0
165.065491 276.0
165.375183 148.0
165.713211 148.0
166.076126 292.0
166.315842 148.0
167.014679 700.0
167.079041 200.0
168.014206 164.0
168.321335 152.0
168.615829 152.0
169.012894 316.0
170.970657 160.0
171.288284 168.0
171.984482 160.0
172.034073 276.0
172.062302 2168.0
172.185516 232.0
172.750092 140.0
173.069382 148.0
173.344421 184.0
173.512161 176.0
175.391724 204.0
176.064514 148.0
177.030731 216.0
178.029495 168.0
178.056061 140.0
179.038773 1148.0
179.081558 116.0
179.746475 168.0
179.911942 232.0
180.021713 920.0
180.054169 264.0
180.082291 192.0
180.360718 176.0
180.943878 152.0
181.029343 180.0
181.088486 196.0
181.174194 180.0
182.03685 1076.0
182.087799 140.0
182.244675 176.0
182.736694 156.0
183.045288 436.0
183.083923 160.0
183.315598 184.0
184.03389 716.0
184.154617 144.0
185.046982 332.0
185.605133 176.0
185.634964 140.0
185.938797 152.0
188.187256 152.0
189.859161 152.0
190.408035 160.0
190.548126 184.0
190.800964 172.0
191.076324 216.0
192.076614 288.0
193.088837 12700.0
193.247284 180.0
193.612671 220.0
193.789948 148.0
193.886932 172.0
194.093246 1936.0
195.100876 148.0
195.336273 176.0
195.709198 144.0
195.98494 156.0
196.054596 236.0
196.497955 156.0
196.952972 140.0
199.033752 472.0
200.84613 200.0
201.046448 324.0
201.277908 180.0
204.081604 540.0
205.084503 444.0
205.348831 304.0
205.635559 156.0
206.083817 636.0
207.031769 364.0
207.062195 156.0
207.093414 572.0
207.724304 160.0
208.037415 140.0
208.088196 416.0
208.106949 324.0
208.557007 164.0
208.884796 192.0
211.444061 140.0
211.609055 176.0
214.039627 304.0
214.250916 176.0
214.977921 152.0
215.026611 420.0
215.050873 172.0
215.074219 216.0
215.526886 176.0
215.643768 200.0
216.02916 160.0
216.055832 1480.0
217.034286 220.0
218.085236 168.0
218.728119 176.0
219.050354 156.0
219.084702 128.0
219.246185 156.0
220.100235 288.0
221.106766 1568.0
221.705124 168.0
221.891449 124.0
222.079849 184.0
222.115387 11136.0
222.177979 208.0
223.119751 1600.0
223.422729 196.0
224.116821 180.0
225.032089 140.0
225.196732 116.0
225.63559 168.0
226.039902 732.0
227.051132 840.0
227.483963 288.0
228.057281 6704.0
228.897018 220.0
229.055969 1200.0
230.054611 1568.0
231.072159 216.0
231.224503 212.0
232.073837 316.0
232.203079 220.0
232.330475 184.0
233.490768 160.0
239.052444 160.0
240.061218 180.0
240.698517 148.0
241.053009 3416.0
241.30719 228.0
241.680374 140.0
241.981659 148.0
242.060867 1184.0
242.636581 104.0
243.049042 1352.0
243.414139 140.0
243.457611 192.0
244.058029 472.0
244.604874 168.0
245.065781 360.0
245.474106 244.0
245.867172 228.0
246.070053 148.0
247.177719 756.0
247.239105 160.0
248.091049 160.0
249.096893 160.0
250.110001 196.0
250.539124 160.0
250.803818 200.0
251.10965 168.0
251.55455 244.0
252.135712 220.0
252.844116 144.0
254.365479 192.0
254.886322 156.0
255.038864 156.0
255.069489 1204.0
256.068787 468.0
256.209869 232.0
256.592316 140.0
257.083221 5752.0
257.188843 228.0
258.087219 668.0
258.543945 140.0
258.623962 156.0
259.081818 1468.0
259.2677 184.0
259.963593 140.0
260.084167 416.0
260.29422 204.0
262.295319 180.0
263.088867 172.0
263.146973 144.0
263.90625 172.0
265.120117 152.0
265.146027 148.0
267.188446 144.0
269.049286 420.0
269.558807 192.0
270.916595 164.0
270.985413 192.0
271.045013 164.0
271.08371 224.0
276.530823 156.0
277.219635 204.0
277.574341 164.0
277.624084 180.0
280.090149 184.0
281.237152 176.0
281.761444 200.0
282.881714 140.0
283.065857 236.0
283.600433 120.0
283.953918 144.0
283.992493 128.0
284.240509 172.0
284.292267 160.0
284.36264 168.0
284.529083 176.0
284.666748 128.0
284.735901 176.0
284.766113 148.0
284.839172 160.0
284.888306 148.0
284.919769 220.0
284.966949 112.0
285.008759 236.0
285.080719 131216.0
285.182831 148.0
285.281891 208.0
285.488403 104.0
285.533691 144.0
285.585358 176.0
285.632019 620.0
285.662872 100.0
285.706482 104.0
285.787109 212.0
285.917694 184.0
285.970398 128.0
286.041626 108.0
286.082733 26112.0
286.200958 128.0
286.359528 120.0
286.413269 128.0
286.44397 140.0
286.486877 112.0
286.654114 116.0
286.856964 192.0
286.997986 156.0
287.023743 168.0
287.077393 51332.0
287.221832 120.0
287.327545 132.0
287.649841 260.0
287.714172 128.0
287.789673 128.0
287.837402 112.0
287.873871 136.0
287.900848 264.0
287.942474 104.0
288.00943 148.0
288.080017 5264.0
288.211365 128.0
288.252502 112.0
288.290039 176.0
288.333466 132.0
288.384216 132.0
288.410065 132.0
288.616302 108.0
288.673096 140.0
288.744141 136.0
289.028992 128.0
289.080261 264.0
289.204865 128.0
289.632782 100.0
289.7229 108.0
289.809357 164.0
296.906525 164.0
297.692383 192.0
339.141205 172.0
344.029816 140.0
535.266418 140.0
1218.034546 180.0
1477.59436 220.0
1629.603394 212.0
1640.298584 184.0
1645.413086 212.0
1667.63269 180.0
1702.189819 288.0
1711.390869 176.0
1726.036621 172.0
1729.627197 188.0
1758.827637 172.0
1867.342285 212.0
1869.579102 188.0
1882.639404 152.0
1893.648804 184.0
1904.082153 164.0
1915.319458 164.0
1990.339111 140.0
