>compound MLS001148451-01!TRIMETHOPRIM LACTATE
>formula C14H18N4O3
>ionization [M+H]+
>parentmass 291.144897
#inchi InChI=1S/C14H18N4O3/c1-19-10-5-8(6-11(20-2)12(10)21-3)4-9-7-17-14(16)18-13(9)15/h5-7H,4H2,1-3H3,(H4,15,16,17,18)
#inchikey IEDVJHCEMCRBQM
#origInchi InChI=1S/C14H18N4O3.C3H6O3/c1-19-10-5-8(6-11(20-2)12(10)21-3)4-9-7-17-14(16)18-13(9)15;1-2(4)3(5)6/h5-7H,4H2,1-3H3,(H4,15,16,17,18);2,4H,1H3,(H,5,6)
#Ion_Source LC-ESI
#Instrument qTof
#Compound_Source NIH Pharmacologically Active Library
#PI Dorrestein
#Data_Collector VP/LMS
#Scan -1
#Precursor_MZ 291.148
#ExactMass 290.138
#Charge 1
#CAS_Number N/A
#Pubmed_ID N/A
#Smiles COc1cc(Cc2cnc(N)nc2N)cc(OC)c1OC.CC(O)C(=O)O
#INCHI_AUX N/A
#Library_Class 1
#SpectrumID CCMSLIB00000085734
#IonMode Positive
#UpdateWorkflowName UPDATE-SINGLE-ANNOTATED-GOLD
#LibraryQualityString Gold
#TaskID d252d724072548979f1f6f1ced849daf
##Scan# 1221
#SpectrumFile p4-E09_GE9_01_18381.mzXML
#LibraryName Pharm_Active_Library.mgf
#MQScore -1
#Organism Pharm_Active_Library
#TIC_Query 0
#RT_Query -1
#MZErrorPPM -1
#SharedPeaks 0
#MassDiff 0
#LibMZ -1
#SpecMZ 291.148
#SpecCharge 0
#internalFilename spec-00000.mgf

>collision 10
44.903938 164.0
44.921288 196.0
44.987549 128.0
45.020931 116.0
45.06234 216.0
45.078373 140.0
45.10635 172.0
45.144032 176.0
45.178185 216.0
45.197388 140.0
45.212109 204.0
45.226982 140.0
45.372849 144.0
45.398998 152.0
45.419785 208.0
45.440426 176.0
45.484196 144.0
45.507568 224.0
45.524475 80.0
45.590302 44.0
45.668282 124.0
45.71941 84.0
45.74229 184.0
45.761139 276.0
45.779991 100.0
45.817707 140.0
45.832527 112.0
45.844654 164.0
45.864403 240.0
45.941738 212.0
45.951736 184.0
45.968113 124.0
45.991665 136.0
46.010395 128.0
46.032169 196.0
46.142967 56.0
46.152435 152.0
46.18354 64.0
46.202477 108.0
46.352234 292.0
46.508739 144.0
46.535255 256.0
46.58614 128.0
46.606522 112.0
46.643215 176.0
46.660889 304.0
46.67078 116.0
46.705765 156.0
46.826908 64.0
46.870502 96.0
46.88549 152.0
46.907299 176.0
47.002769 176.0
47.072392 232.0
47.085049 148.0
47.103802 240.0
47.127029 88.0
47.165295 132.0
47.187168 152.0
47.226826 124.0
47.240505 148.0
47.271976 152.0
47.284294 116.0
47.304825 128.0
47.342636 188.0
47.377407 168.0
47.403439 240.0
47.509018 168.0
47.524109 168.0
47.546066 164.0
47.556644 192.0
47.608727 212.0
47.638062 132.0
47.688904 208.0
47.731525 204.0
47.745277 96.0
47.771412 212.0
47.782417 228.0
47.801682 140.0
47.838211 116.0
47.928368 116.0
47.950417 152.0
47.972084 172.0
47.977718 124.0
48.041424 132.0
48.09248 100.0
48.241669 48.0
48.258259 168.0
48.317734 112.0
48.344021 92.0
48.367115 216.0
48.39801 132.0
48.425087 224.0
48.441902 156.0
48.488056 160.0
48.516388 92.0
48.540737 148.0
48.562927 72.0
48.592464 136.0
48.632843 368.0
48.641094 216.0
48.658676 140.0
48.67395 76.0
48.70034 124.0
48.725342 28.0
48.73785 140.0
48.750355 140.0
48.760082 124.0
48.770939 168.0
48.796227 108.0
48.812321 132.0
48.825428 160.0
48.846291 48.0
48.866497 160.0
48.896381 204.0
48.928398 184.0
48.944576 168.0
48.972961 188.0
49.009182 144.0
49.018936 68.0
49.047695 164.0
49.095612 172.0
49.115135 156.0
49.14304 184.0
49.154202 232.0
49.180717 168.0
49.232376 136.0
49.271488 80.0
49.332981 140.0
49.397472 204.0
49.439495 160.0
49.478477 168.0
49.513599 148.0
49.535896 52.0
49.573727 144.0
49.619984 188.0
49.678886 144.0
49.7645 204.0
49.793053 216.0
49.818905 152.0
49.844563 100.0
49.868454 144.0
49.947197 44.0
49.973194 160.0
50.000977 108.0
50.005013 220.0
50.037201 180.0
50.056976 112.0
50.076694 156.0
50.113319 188.0
50.142128 172.0
50.157009 216.0
50.173923 172.0
50.203537 132.0
50.213409 120.0
50.242401 188.0
50.347485 152.0
50.358784 36.0
50.386181 356.0
50.452049 164.0
50.504372 152.0
50.542568 136.0
50.552475 128.0
50.58786 136.0
50.624676 140.0
50.643085 224.0
50.672836 80.0
50.725273 168.0
50.745121 188.0
50.787556 52.0
50.844418 80.0
50.901203 136.0
50.921085 156.0
50.932449 344.0
50.979336 100.0
51.003494 132.0
51.095932 164.0
51.120121 128.0
51.135777 120.0
51.212666 120.0
51.246853 388.0
51.262527 204.0
51.299587 120.0
51.363758 116.0
51.373745 48.0
51.433678 132.0
51.487934 180.0
51.527931 148.0
51.542221 228.0
51.57938 224.0
51.591785 248.0
51.621925 116.0
51.640865 212.0
51.650879 136.0
51.683876 184.0
51.70525 84.0
51.722424 108.0
51.748192 184.0
51.799751 192.0
51.817997 212.0
51.837002 100.0
51.924454 220.0
51.956013 132.0
52.014851 148.0
52.059361 124.0
52.072285 100.0
52.095268 184.0
52.131668 224.0
52.164246 68.0
52.213276 160.0
52.226078 164.0
52.240463 104.0
52.273556 172.0
52.361374 120.0
52.375778 172.0
52.394505 132.0
52.410355 188.0
52.427647 148.0
52.48531 148.0
52.563648 156.0
52.58918 180.0
52.621147 196.0
52.649822 104.0
52.669701 208.0
52.700382 176.0
52.810249 172.0
52.833397 180.0
52.844971 192.0
52.939861 152.0
52.962234 148.0
52.993401 140.0
53.037582 80.0
53.069477 152.0
53.092678 236.0
53.120235 244.0
53.137646 272.0
53.151951 200.0
53.19001 144.0
53.227638 112.0
53.282433 168.0
53.315449 188.0
53.34272 172.0
53.434036 80.0
53.517002 36.0
53.562149 140.0
53.621887 132.0
53.643753 92.0
53.669998 164.0
53.723961 316.0
53.760437 96.0
53.79734 156.0
53.832623 188.0
53.878712 144.0
53.904388 168.0
53.919704 152.0
54.010792 228.0
54.027836 136.0
54.1259 284.0
54.176487 208.0
54.197674 92.0
54.228451 164.0
54.256302 28.0
54.273895 172.0
54.301758 60.0
54.35017 132.0
54.404476 132.0
54.446278 136.0
54.498474 88.0
54.510231 148.0
54.546974 120.0
54.601376 200.0
54.643547 156.0
54.720573 136.0
54.739716 124.0
54.75444 216.0
54.776535 196.0
54.831055 96.0
54.842846 168.0
54.873802 156.0
54.906651 232.0
54.919518 180.0
54.929844 180.0
54.963776 112.0
55.021339 200.0
55.033535 160.0
55.058258 116.0
55.095184 76.0
55.183861 52.0
55.204292 152.0
55.265213 156.0
55.309612 116.0
55.337738 144.0
55.380688 92.0
55.39846 180.0
55.459217 212.0
55.49918 188.0
55.546703 160.0
55.594181 124.0
55.616447 116.0
55.634258 168.0
55.681774 184.0
55.692173 256.0
55.707027 100.0
55.736744 84.0
55.799171 40.0
55.814037 144.0
55.85717 128.0
55.888412 168.0
55.906269 180.0
55.962688 204.0
55.977726 220.0
56.009003 136.0
56.029858 132.0
56.049229 124.0
56.06115 104.0
56.090958 52.0
56.129723 172.0
56.152092 168.0
56.289391 144.0
56.38052 172.0
56.462746 168.0
56.479198 148.0
56.516602 124.0
56.582458 184.0
56.609409 108.0
56.640862 56.0
56.718784 160.0
56.754765 172.0
56.768261 40.0
56.825222 156.0
56.866566 132.0
56.879288 64.0
56.919823 156.0
56.951363 144.0
56.973015 184.0
57.043861 72.0
57.136265 56.0
57.167862 48.0
57.206997 116.0
57.413425 176.0
57.460186 188.0
57.498249 144.0
57.540176 152.0
57.564205 184.0
57.580601 384.0
57.596272 112.0
57.608139 96.0
57.63987 104.0
57.671604 160.0
57.682186 104.0
57.715446 228.0
57.742668 160.0
57.754768 232.0
57.794102 144.0
57.823765 140.0
57.829273 184.0
57.90007 256.0
57.929787 84.0
57.954254 184.0
57.959564 132.0
58.001587 104.0
58.08828 196.0
58.12389 212.0
58.141129 104.0
58.166931 152.0
58.185062 144.0
58.239819 144.0
58.258045 224.0
58.292992 28.0
58.33707 168.0
58.391811 128.0
58.463959 240.0
58.563641 152.0
58.609505 156.0
58.645386 228.0
58.673519 144.0
58.694866 84.0
58.717743 48.0
58.765034 112.0
58.780293 148.0
58.807762 152.0
58.835239 48.0
58.856613 180.0
58.910069 168.0
58.92382 76.0
58.945881 164.0
59.061405 60.0
59.148479 168.0
59.297585 80.0
59.340126 156.0
59.373123 152.0
59.407608 180.0
59.4828 192.0
59.504295 128.0
59.518112 120.0
59.573402 100.0
59.597988 280.0
59.636406 80.0
59.691753 200.0
59.719437 80.0
59.767128 52.0
59.782516 140.0
59.833778 184.0
59.871807 164.0
59.916477 196.0
59.999226 220.0
60.076813 100.0
60.149342 208.0
60.160149 72.0
60.194115 164.0
60.228092 120.0
60.254356 120.0
60.280624 224.0
60.319263 144.0
60.35173 144.0
60.465046 160.0
60.489422 52.0
60.605579 276.0
60.635025 132.0
60.667576 144.0
60.685192 220.0
60.72805 152.0
60.769936 124.0
60.799419 136.0
60.819599 176.0
60.849094 164.0
60.91898 164.0
60.934517 148.0
60.976471 56.0
61.004452 148.0
61.086872 80.0
61.102428 224.0
61.113319 132.0
61.142887 240.0
61.239029 224.0
61.251881 204.0
61.302155 240.0
61.365646 216.0
61.44207 152.0
61.465473 208.0
61.482639 152.0
61.496689 136.0
61.510735 156.0
61.534153 92.0
61.610111 208.0
61.632557 192.0
61.654434 160.0
61.716637 248.0
61.734165 184.0
61.754498 76.0
61.790474 156.0
61.826466 116.0
61.848377 160.0
61.867367 160.0
61.893188 180.0
61.934498 120.0
61.953297 164.0
62.028519 128.0
62.083393 160.0
62.102215 140.0
62.122101 136.0
62.157124 92.0
62.18206 180.0
62.222908 176.0
62.229095 160.0
62.2733 80.0
62.307858 120.0
62.34557 104.0
62.439903 280.0
62.527576 176.0
62.543747 128.0
62.557915 48.0
62.579956 160.0
62.61145 132.0
62.65237 188.0
62.764309 132.0
62.830555 156.0
62.855381 196.0
62.922092 176.0
63.001263 156.0
63.013195 176.0
63.076912 60.0
63.092724 164.0
63.149651 188.0
63.179707 172.0
63.195526 108.0
63.207706 172.0
63.238255 148.0
63.301582 72.0
63.355434 168.0
63.369579 164.0
63.420406 128.0
63.434238 204.0
63.45528 168.0
63.491753 164.0
63.601349 164.0
63.629807 176.0
63.648861 172.0
63.674938 200.0
63.686977 208.0
63.780724 132.0
63.793442 132.0
63.855457 152.0
63.9175 64.0
63.936596 48.0
63.993904 204.0
64.040009 156.0
64.076675 132.0
64.111778 108.0
64.167694 184.0
64.189896 36.0
64.204247 168.0
64.228172 208.0
64.239342 204.0
64.301567 152.0
64.317528 60.0
64.375107 188.0
64.399231 192.0
64.43074 200.0
64.480453 168.0
64.494835 96.0
64.565186 172.0
64.617973 120.0
64.668869 264.0
64.671082 212.0
64.781273 164.0
64.832542 200.0
64.845367 64.0
64.871017 168.0
64.901474 80.0
64.919113 128.0
64.931946 164.0
64.984886 108.0
65.044266 212.0
65.094032 180.0
65.175957 136.0
65.190422 104.0
65.23864 184.0
65.251503 184.0
65.267433 172.0
65.273888 156.0
65.296524 236.0
65.339729 168.0
65.394676 168.0
65.474899 140.0
65.521889 92.0
65.556602 192.0
65.578293 232.0
65.624153 224.0
65.679169 92.0
65.699234 172.0
65.739212 184.0
65.799294 200.0
65.820282 156.0
65.89135 132.0
65.931747 96.0
65.981133 156.0
66.004494 224.0
66.019051 104.0
66.030373 164.0
66.051399 128.0
66.103172 92.0
66.135544 256.0
66.146873 164.0
66.172249 184.0
66.192207 212.0
66.237556 56.0
66.268333 196.0
66.398018 164.0
66.509766 188.0
66.526627 124.0
66.544609 168.0
66.56842 176.0
66.62265 248.0
66.646393 188.0
66.70385 136.0
66.722336 188.0
66.747177 204.0
66.786209 64.0
66.797592 204.0
66.812233 124.0
66.836639 196.0
66.86776 160.0
66.898483 216.0
66.933701 172.0
66.952217 152.0
66.965248 120.0
66.99131 156.0
67.010864 208.0
67.036934 196.0
67.06665 188.0
67.095612 32.0
67.149422 128.0
67.191841 84.0
67.20652 112.0
67.240791 140.0
67.263641 128.0
67.312622 192.0
67.351288 160.0
67.366524 140.0
67.398788 144.0
67.418854 164.0
67.433517 160.0
67.459671 112.0
67.520172 236.0
67.540298 184.0
67.572113 212.0
67.584297 100.0
67.670723 124.0
67.718269 120.0
67.737869 56.0
67.757523 180.0
67.798492 224.0
67.81945 112.0
67.855652 408.0
67.872261 164.0
67.901779 148.0
67.958748 220.0
67.971085 212.0
67.98381 160.0
68.00843 156.0
68.029816 136.0
68.105301 140.0
68.154587 84.0
68.169754 124.0
68.205536 208.0
68.224472 100.0
68.286453 316.0
68.321175 212.0
68.337105 168.0
68.365723 204.0
68.444092 128.0
68.472092 292.0
68.506676 32.0
68.524803 136.0
68.541283 192.0
68.584129 276.0
68.63131 200.0
68.692963 148.0
68.913986 164.0
68.940094 148.0
68.956276 188.0
68.996826 188.0
69.083443 196.0
69.156822 184.0
69.251671 204.0
69.274857 224.0
69.31794 140.0
69.364349 144.0
69.43071 156.0
69.457207 220.0
69.493706 92.0
69.52523 68.0
69.53685 112.0
69.573372 120.0
69.587585 144.0
69.623184 124.0
69.691292 136.0
69.712898 200.0
69.796013 196.0
69.81929 112.0
69.885834 144.0
69.951035 160.0
70.014137 160.0
70.078979 128.0
70.099449 240.0
70.115639 204.0
70.187325 136.0
70.247368 156.0
70.27446 200.0
70.284828 88.0
70.297417 196.0
70.342484 188.0
70.374207 84.0
70.411598 264.0
70.460617 292.0
70.47776 72.0
70.492577 236.0
70.524559 228.0
70.606483 156.0
70.625046 164.0
70.650917 156.0
70.683441 132.0
70.748711 204.0
70.798035 184.0
70.840294 240.0
70.864273 128.0
70.901993 204.0
70.929634 168.0
71.026894 144.0
71.063805 180.0
71.085617 148.0
71.152756 136.0
71.199326 180.0
71.204559 132.0
71.208466 160.0
71.223518 176.0
71.243446 188.0
71.277046 212.0
71.327469 148.0
71.342102 188.0
71.3638 236.0
71.443504 500.0
71.491028 148.0
71.515121 212.0
71.52903 204.0
71.539139 140.0
71.562996 124.0
71.583206 164.0
71.613121 168.0
71.655632 136.0
71.674171 104.0
71.76519 124.0
71.800606 228.0
71.842773 160.0
71.857956 84.0
71.890015 192.0
71.917023 188.0
71.930527 116.0
71.948372 112.0
71.999756 148.0
72.026779 136.0
72.065636 164.0
72.109573 164.0
72.128166 164.0
72.216087 324.0
72.24485 148.0
72.263054 232.0
72.293915 132.0
72.312759 148.0
72.39888 168.0
72.432755 76.0
72.446304 164.0
72.466454 184.0
72.563248 232.0
72.597191 204.0
72.637138 252.0
72.668404 196.0
72.685989 220.0
72.700645 164.0
72.75666 144.0
72.875549 168.0
72.894241 112.0
72.933914 140.0
72.963928 148.0
72.999634 240.0
73.021744 168.0
73.040451 96.0
73.069237 148.0
73.123833 204.0
73.156174 120.0
73.180008 140.0
73.285606 44.0
73.33844 116.0
73.353569 164.0
73.381058 220.0
73.394699 192.0
73.41346 124.0
73.440277 220.0
73.486809 144.0
73.56427 164.0
73.578972 148.0
73.604584 184.0
73.655823 208.0
73.88147 132.0
73.94136 156.0
73.96875 120.0
73.994431 176.0
74.025246 180.0
74.042374 164.0
74.092903 132.0
74.104042 176.0
74.148598 76.0
74.162308 152.0
74.215454 140.0
74.242889 64.0
74.308075 124.0
74.335533 232.0
74.388733 160.0
74.424698 184.0
74.453987 168.0
74.484955 128.0
74.557068 108.0
74.581123 168.0
74.648178 172.0
74.663254 144.0
74.695763 168.0
74.770325 176.0
74.830574 132.0
74.847794 160.0
74.877068 80.0
74.921852 120.0
74.963715 216.0
75.058014 172.0
75.085609 112.0
75.122429 236.0
75.164963 104.0
75.177048 104.0
75.246094 140.0
75.261627 60.0
75.313438 44.0
75.377365 68.0
75.40847 128.0
75.449959 144.0
75.503563 72.0
75.519127 60.0
75.553726 36.0
75.581032 224.0
75.600441 104.0
75.645447 176.0
75.681801 148.0
75.74762 196.0
75.855309 136.0
75.940018 52.0
75.952164 172.0
75.974716 176.0
75.997269 64.0
76.010345 292.0
76.056274 172.0
76.103149 296.0
76.186516 192.0
76.210121 164.0
76.250351 152.0
76.266449 80.0
76.302956 140.0
76.356865 152.0
76.37426 144.0
76.455307 240.0
76.461151 140.0
76.467163 232.0
76.513474 140.0
76.551781 136.0
76.630165 104.0
76.808823 156.0
76.902214 76.0
76.956131 212.0
76.990051 180.0
77.013962 228.0
77.027931 148.0
77.057632 132.0
77.127533 120.0
77.21859 160.0
77.23896 172.0
77.356689 176.0
77.3853 216.0
77.411682 108.0
77.451202 152.0
77.47052 128.0
77.507309 224.0
77.535713 156.0
77.556381 96.0
77.605469 164.0
77.628265 124.0
77.712463 144.0
77.752823 112.0
77.765114 100.0
77.800217 164.0
77.840187 168.0
77.919861 132.0
77.961815 144.0
77.993454 40.0
78.069054 192.0
78.101997 140.0
78.116173 152.0
78.133698 336.0
78.157814 176.0
78.195724 116.0
78.253822 216.0
78.343643 144.0
78.429985 112.0
78.490532 200.0
78.534019 168.0
78.578659 288.0
78.604591 176.0
78.623825 196.0
78.662834 180.0
78.706306 180.0
78.791756 92.0
78.906631 180.0
78.922546 80.0
78.952606 152.0
78.973831 144.0
79.003906 228.0
79.065834 176.0
79.134872 128.0
79.208847 176.0
79.235825 208.0
79.310257 180.0
79.331528 156.0
79.365211 312.0
79.393013 148.0
79.425514 108.0
79.437927 96.0
79.48938 120.0
79.547951 320.0
79.56926 88.0
79.599922 192.0
79.624306 100.0
79.679375 176.0
79.751778 188.0
79.819794 180.0
79.832237 48.0
79.855362 156.0
79.883476 180.0
79.905167 212.0
79.951431 132.0
79.96389 188.0
80.003052 52.0
80.068939 56.0
80.100998 120.0
80.133888 156.0
80.172264 152.0
80.22039 164.0
80.268532 104.0
80.298851 128.0
80.318466 184.0
80.339874 220.0
80.489799 152.0
80.547646 216.0
80.570847 204.0
80.586983 128.0
80.630936 68.0
80.664024 132.0
80.722786 164.0
80.742622 176.0
80.791862 152.0
80.807968 32.0
80.824066 168.0
80.838387 164.0
80.882072 276.0
80.938629 144.0
80.97982 196.0
81.013275 148.0
81.043022 200.0
81.064026 200.0
81.076569 224.0
81.105247 132.0
81.11779 136.0
81.211037 216.0
81.223595 80.0
81.254089 52.0
81.321266 184.0
81.347412 128.0
81.366608 188.0
81.433044 192.0
81.532417 192.0
81.552185 108.0
81.609718 168.0
81.631294 116.0
81.668678 204.0
81.706841 160.0
81.76899 292.0
81.807625 140.0
81.85083 64.0
81.866631 244.0
81.900787 212.0
81.951706 168.0
81.968613 188.0
82.001518 236.0
82.052635 148.0
82.095909 140.0
82.129776 160.0
82.171669 164.0
82.216782 180.0
82.269127 136.0
82.298019 148.0
82.337746 208.0
82.375679 116.0
82.433754 168.0
82.516541 144.0
82.550255 136.0
82.614304 160.0
82.65049 160.0
82.6903 144.0
82.702972 52.0
82.760902 144.0
82.825348 268.0
82.876831 180.0
82.900383 196.0
82.925758 176.0
82.979164 208.0
83.021851 108.0
83.059937 132.0
83.108925 160.0
83.136139 192.0
83.208748 40.0
83.27594 92.0
83.312561 172.0
83.351448 156.0
83.370415 144.0
83.417671 240.0
83.601379 128.0
83.639595 176.0
83.672363 156.0
83.686928 348.0
83.733406 176.0
83.779816 188.0
83.814438 60.0
83.830391 180.0
83.865463 120.0
83.880936 232.0
83.932915 84.0
83.949333 128.0
83.989456 200.0
84.121437 196.0
84.151207 164.0
84.181091 96.0
84.250504 148.0
84.309616 88.0
84.369293 120.0
84.40403 120.0
84.442436 52.0
84.574173 148.0
84.588219 208.0
84.612617 124.0
84.657684 248.0
84.700523 136.0
84.759148 124.0
84.830627 112.0
84.922874 352.0
84.960831 180.0
85.118683 212.0
85.150467 168.0
85.272438 208.0
85.302414 164.0
85.357567 152.0
85.390671 184.0
85.404732 168.0
85.447701 68.0
85.467934 156.0
85.510262 128.0
85.553078 92.0
85.576538 136.0
85.629578 224.0
85.647583 332.0
85.674149 148.0
85.703911 156.0
85.729424 184.0
85.756126 196.0
85.795784 172.0
85.819748 140.0
85.856628 252.0
85.895363 36.0
85.998337 184.0
86.209244 124.0
86.279884 148.0
86.32016 184.0
86.3405 80.0
86.355301 168.0
86.423744 168.0
86.457054 144.0
86.473709 220.0
86.521843 124.0
86.575539 140.0
86.595909 144.0
86.65448 192.0
86.740311 112.0
86.757126 140.0
86.858719 148.0
86.879524 144.0
86.942612 312.0
86.955605 92.0
86.967926 88.0
87.015007 160.0
87.029861 124.0
87.102295 232.0
87.119011 176.0
87.133873 156.0
87.185905 120.0
87.21936 116.0
87.267693 72.0
87.290009 148.0
87.335892 208.0
87.372063 172.0
87.394951 192.0
87.431389 180.0
87.494682 148.0
87.508644 160.0
87.639954 148.0
87.71637 144.0
87.807732 144.0
87.845879 156.0
87.863693 152.0
87.876755 196.0
87.955139 200.0
88.031685 172.0
88.089584 196.0
88.134758 180.0
88.151245 160.0
88.164322 148.0
88.186752 176.0
88.201706 108.0
88.244705 144.0
88.306419 112.0
88.326988 212.0
88.36628 28.0
88.379379 140.0
88.422417 188.0
88.446747 164.0
88.4636 176.0
88.487938 176.0
88.514153 240.0
88.581398 212.0
88.630287 192.0
88.650902 52.0
88.701508 188.0
88.740875 88.0
88.774628 116.0
88.849655 148.0
88.879677 108.0
88.941612 204.0
88.961082 204.0
89.003563 68.0
89.024223 160.0
89.047226 144.0
89.06366 140.0
89.099358 152.0
89.136887 132.0
89.200836 160.0
89.234398 216.0
89.25724 144.0
89.277924 56.0
89.302376 128.0
89.338112 184.0
89.35881 176.0
89.371979 136.0
89.385155 164.0
89.409615 84.0
89.432205 160.0
89.466087 76.0
89.494324 176.0
89.53199 152.0
89.577568 140.0
89.620529 72.0
89.63372 164.0
89.677063 96.0
89.732635 108.0
89.746811 152.0
89.792076 136.0
89.826027 156.0
89.881317 156.0
89.925087 176.0
89.993996 196.0
90.021027 176.0
90.035538 80.0
90.109207 140.0
90.173454 28.0
90.201813 112.0
90.247185 88.0
90.288788 156.0
90.383377 140.0
90.4534 396.0
90.488518 124.0
90.509865 68.0
90.581314 276.0
90.601311 360.0
90.733353 144.0
90.749619 168.0
90.805832 156.0
90.848618 180.0
90.872231 128.0
90.950035 144.0
90.993698 84.0
91.058975 128.0
91.063644 192.0
91.084854 104.0
91.130455 52.0
91.347183 156.0
91.360504 160.0
91.381432 120.0
91.430908 160.0
91.455544 224.0
91.515778 124.0
91.563919 148.0
91.588211 336.0
91.682518 212.0
91.707069 228.0
91.722321 76.0
91.884117 76.0
91.895233 192.0
92.002747 184.0
92.019928 68.0
92.109688 44.0
92.145264 180.0
92.167908 112.0
92.203316 212.0
92.224335 216.0
92.260658 248.0
92.281685 136.0
92.319977 164.0
92.339058 136.0
92.373489 212.0
92.392288 164.0
92.440453 124.0
92.478729 136.0
92.56488 80.0
92.605103 64.0
92.642548 204.0
92.664482 88.0
92.69706 152.0
92.729637 56.0
92.77948 128.0
92.803596 304.0
92.902214 160.0
92.94059 156.0
92.962524 252.0
92.977051 152.0
93.071114 124.0
93.101837 124.0
93.134491 192.0
93.155891 200.0
93.179527 216.0
93.219025 172.0
93.255539 128.0
93.284378 100.0
93.297829 124.0
93.319862 280.0
93.343979 104.0
93.423615 100.0
93.457466 80.0
93.478638 156.0
93.501732 160.0
93.516953 176.0
93.533875 148.0
93.588356 196.0
93.676949 184.0
93.737831 40.0
93.761734 124.0
93.782928 164.0
93.798355 88.0
93.815071 196.0
93.87162 248.0
93.901237 216.0
93.998932 164.0
94.037575 204.0
94.063538 144.0
94.097374 128.0
94.12204 176.0
94.175911 192.0
94.192001 172.0
94.236443 220.0
94.25576 108.0
94.302147 120.0
94.418236 92.0
94.443291 136.0
94.487015 160.0
94.538094 116.0
94.578415 184.0
94.60778 152.0
94.62133 160.0
94.663925 100.0
94.722031 124.0
94.753029 64.0
94.766594 140.0
94.861557 216.0
94.877121 136.0
94.911964 120.0
95.020676 172.0
95.049164 356.0
95.071037 196.0
95.10791 136.0
95.148674 140.0
95.204987 176.0
95.267143 180.0
95.501762 304.0
95.528343 156.0
95.565811 200.0
95.603523 164.0
95.68528 80.0
95.790443 176.0
95.836662 260.0
95.875023 204.0
95.924904 116.0
95.979736 128.0
96.000946 164.0
96.056862 304.0
96.12384 68.0
96.147263 140.0
96.167137 328.0
96.213486 224.0
96.25264 200.0
96.334709 204.0
96.371834 184.0
96.393326 220.0
96.408058 212.0
96.440231 184.0
96.458763 100.0
96.464828 48.0
96.472725 128.0
96.514519 144.0
96.595543 176.0
96.661224 212.0
96.700371 376.0
96.749306 176.0
96.84079 164.0
96.855049 168.0
96.95694 136.0
96.982414 152.0
97.034973 168.0
97.053383 196.0
97.06105 148.0
97.066833 212.0
97.105942 144.0
97.176407 148.0
97.230141 212.0
97.310883 128.0
97.324738 276.0
97.341446 188.0
97.358345 192.0
97.378761 180.0
97.416084 144.0
97.453407 112.0
97.477997 180.0
97.53595 164.0
97.592964 180.0
97.65786 52.0
97.679314 172.0
97.718849 48.0
97.740486 236.0
97.771973 148.0
97.872375 116.0
97.888123 108.0
98.059525 204.0
98.073318 140.0
98.103844 340.0
98.120636 128.0
98.242905 68.0
98.304077 100.0
98.349464 100.0
98.454109 52.0
98.492935 152.0
98.541023 124.0
98.554855 136.0
98.589851 220.0
98.61541 164.0
98.647743 184.0
98.709038 156.0
98.772369 176.0
98.805428 240.0
98.873238 136.0
98.929863 184.0
98.995979 124.0
99.030823 216.0
99.18222 144.0
99.207687 156.0
99.305153 64.0
99.344826 156.0
99.390457 48.0
99.424194 168.0
99.451981 140.0
99.477783 144.0
99.513695 368.0
99.547279 136.0
99.624741 156.0
99.652679 128.0
99.692299 40.0
99.732048 76.0
99.765839 132.0
99.849213 112.0
99.892357 168.0
99.932137 140.0
99.957214 148.0
100.006538 300.0
100.034409 136.0
100.056046 156.0
100.165833 128.0
100.202034 140.0
100.269684 136.0
100.295357 336.0
100.395874 124.0
100.420975 192.0
100.444908 216.0
100.48481 180.0
100.542679 160.0
100.593948 140.0
100.630508 136.0
100.648338 200.0
100.680428 132.0
100.73436 96.0
100.756332 152.0
100.794296 108.0
100.818283 196.0
100.872032 188.0
100.905235 124.0
100.930229 136.0
100.98822 44.0
101.036232 132.0
101.058144 336.0
101.118515 164.0
101.154305 168.0
101.174324 196.0
101.232391 124.0
101.247925 180.0
101.26844 196.0
101.293098 256.0
101.446777 132.0
101.467651 196.0
101.508934 192.0
101.535004 180.0
101.553055 188.0
101.567101 388.0
101.661469 180.0
101.695518 148.0
101.715584 160.0
101.82 72.0
101.844101 120.0
101.892899 220.0
101.912407 120.0
101.97068 188.0
101.992264 124.0
102.041039 144.0
102.067177 204.0
102.11142 36.0
102.134972 164.0
102.209999 136.0
102.230492 216.0
102.296539 128.0
102.312645 204.0
102.379097 192.0
102.439522 212.0
102.455635 108.0
102.491905 148.0
102.521805 248.0
102.562439 160.0
102.58461 156.0
102.600739 140.0
102.633804 176.0
102.649132 196.0
102.665268 212.0
102.697533 104.0
102.788322 156.0
102.848869 228.0
102.911453 180.0
102.998291 164.0
103.053947 204.0
103.196342 172.0
103.26915 176.0
103.283897 144.0
103.437096 52.0
103.465431 124.0
103.493782 148.0
103.564659 156.0
103.639618 188.0
103.7957 128.0
103.832199 168.0
103.866684 116.0
103.884941 176.0
103.97422 140.0
104.000603 308.0
104.020905 228.0
104.051659 436.0
104.108215 160.0
104.136055 352.0
104.186684 208.0
104.252449 160.0
104.495895 172.0
104.522911 156.0
104.553436 164.0
104.575829 120.0
104.610428 176.0
104.645042 156.0
104.663368 152.0
104.74279 116.0
104.765144 148.0
104.826324 144.0
104.859589 124.0
104.877281 204.0
104.90786 100.0
104.936401 240.0
104.960869 156.0
104.989418 60.0
105.003693 108.0
105.033157 340.0
105.073051 152.0
105.087334 68.0
105.11998 84.0
105.155602 116.0
105.207748 152.0
105.228165 68.0
105.255089 64.0
105.289421 56.0
105.322105 184.0
105.4263 128.0
105.462128 180.0
105.48558 152.0
105.50602 180.0
105.520332 216.0
105.555992 188.0
105.598076 204.0
105.633705 156.0
105.693275 152.0
105.724884 148.0
105.739212 76.0
105.757637 188.0
105.785194 172.0
105.852165 160.0
105.929642 152.0
106.005447 208.0
106.039291 936.0
106.064331 144.0
106.092262 336.0
106.118187 172.0
106.161247 132.0
106.213211 252.0
106.244606 220.0
106.274071 100.0
106.306023 188.0
106.331528 160.0
106.356155 188.0
106.376686 116.0
106.449417 160.0
106.471138 184.0
106.496872 204.0
106.529434 116.0
106.565628 176.0
106.588234 100.0
106.680801 304.0
106.715675 120.0
106.736237 148.0
106.765022 88.0
106.906975 144.0
106.966667 236.0
107.048584 912.0
107.087418 56.0
107.091202 108.0
107.156136 152.0
107.242966 148.0
107.29628 128.0
107.379692 116.0
107.459213 232.0
107.519058 196.0
107.533508 248.0
107.566536 48.0
107.580986 72.0
107.651184 60.0
107.695366 136.0
107.733803 152.0
107.793526 164.0
107.84539 116.0
107.882599 108.0
107.909477 120.0
107.946693 116.0
107.965309 232.0
107.982101 232.0
108.055672 344.0
108.093735 148.0
108.176361 128.0
108.190849 176.0
108.294983 140.0
108.315788 168.0
108.335815 124.0
108.350319 108.0
108.389687 128.0
108.414551 116.0
108.456009 160.0
108.499542 168.0
108.584557 172.0
108.634338 140.0
108.699928 144.0
108.746338 156.0
108.78791 68.0
108.810745 160.0
108.82756 164.0
108.854347 236.0
108.902115 184.0
108.939507 184.0
108.956123 136.0
109.051018 960.0
109.085411 248.0
109.114075 192.0
109.151505 148.0
109.168144 112.0
109.228455 184.0
109.245102 172.0
109.278389 212.0
109.30336 200.0
109.332489 108.0
109.367874 144.0
109.449066 208.0
109.574036 172.0
109.594872 116.0
109.717842 52.0
109.763718 200.0
109.780052 192.0
109.835304 220.0
109.882607 224.0
109.943123 264.0
109.989479 132.0
110.058784 12620.0
110.090416 212.0
110.120583 228.0
110.137291 56.0
110.156097 176.0
110.195282 132.0
110.218773 176.0
110.245941 116.0
110.260567 48.0
110.300278 52.0
110.327454 48.0
110.397423 216.0
110.52124 160.0
110.572197 96.0
110.66011 152.0
110.68644 188.0
110.705772 204.0
110.731544 180.0
110.796249 224.0
110.827675 116.0
110.863304 144.0
110.924088 124.0
110.940857 188.0
110.975899 252.0
110.993271 224.0
111.010048 196.0
111.030579 208.0
111.038795 164.0
111.066628 10768.0
111.147858 220.0
111.186272 168.0
111.20726 128.0
111.250847 136.0
111.278633 40.0
111.293335 76.0
111.347931 180.0
111.38784 204.0
111.442459 44.0
111.463478 112.0
111.488693 184.0
111.522392 116.0
111.541237 200.0
111.564362 208.0
111.595901 128.0
111.627441 132.0
111.646118 136.0
111.685959 192.0
111.740082 152.0
111.759964 184.0
111.776794 224.0
111.848351 168.0
111.886246 132.0
111.951523 176.0
111.997856 160.0
112.062057 552.0
112.183296 88.0
112.252869 136.0
112.322472 64.0
112.362556 164.0
112.438522 164.0
112.461212 220.0
112.489403 148.0
112.533875 256.0
112.558853 144.0
112.575745 108.0
112.628548 224.0
112.643333 116.0
112.680305 64.0
112.700378 152.0
112.719391 112.0
112.814629 208.0
112.843941 148.0
112.928696 156.0
112.946655 124.0
113.004852 148.0
113.044891 548.0
113.058151 204.0
113.097961 48.0
113.16571 160.0
113.180527 120.0
113.210175 148.0
113.231354 124.0
113.326683 104.0
113.364822 184.0
113.399017 200.0
113.475052 104.0
113.547089 148.0
113.579338 316.0
113.636246 76.0
113.682922 176.0
113.729622 144.0
113.752968 160.0
113.782692 192.0
113.844269 168.0
113.876122 172.0
113.89312 120.0
113.92923 48.0
113.969597 152.0
114.027687 168.0
114.048233 164.0
114.090744 136.0
114.121628 160.0
114.18763 168.0
114.226845 168.0
114.316208 128.0
114.335365 152.0
114.361176 308.0
114.441803 136.0
114.471611 248.0
114.522835 80.0
114.57811 236.0
114.603676 68.0
114.631378 236.0
114.666649 216.0
114.710243 164.0
114.758041 200.0
114.833916 96.0
114.872307 216.0
114.901596 176.0
114.978104 240.0
114.997322 160.0
115.05365 492.0
115.090004 164.0
115.142387 204.0
115.258751 60.0
115.335304 112.0
115.414787 188.0
115.429756 220.0
115.444725 72.0
115.476807 140.0
115.537254 216.0
115.613731 144.0
115.671524 216.0
115.707916 160.0
115.729324 148.0
115.744316 64.0
115.767868 124.0
115.838554 216.0
115.862122 60.0
115.898544 120.0
115.945686 124.0
115.998352 112.0
116.054832 244.0
116.12793 128.0
116.177269 184.0
116.217262 156.0
116.301727 208.0
116.342514 176.0
116.365143 212.0
116.410042 196.0
116.430908 192.0
116.494987 192.0
116.540108 172.0
116.600273 176.0
116.647568 188.0
116.724968 176.0
116.793785 172.0
116.818306 220.0
116.886299 112.0
116.905663 132.0
116.929337 136.0
117.041283 108.0
117.072365 352.0
117.10804 132.0
117.149834 360.0
117.201637 120.0
117.251213 128.0
117.269638 116.0
117.319221 92.0
117.43782 232.0
117.660088 224.0
117.724869 156.0
117.759422 124.0
117.782738 136.0
117.89537 136.0
117.953125 192.0
117.97551 176.0
118.007942 144.0
118.02932 188.0
118.06398 328.0
118.215401 132.0
118.293518 192.0
118.392479 176.0
118.429932 108.0
118.50576 200.0
118.622787 184.0
118.737709 164.0
118.811607 180.0
118.839668 204.0
118.859192 156.0
118.937325 148.0
118.965546 152.0
119.004623 104.0
119.056404 360.0
119.132759 144.0
119.178391 44.0
119.19577 108.0
119.282707 180.0
119.322952 296.0
119.35228 164.0
119.376198 40.0
119.417519 176.0
119.446175 184.0
119.500549 168.0
119.582878 192.0
119.609245 180.0
119.656891 112.0
119.684013 228.0
119.820244 92.0
119.837669 176.0
119.85585 128.0
119.935738 204.0
119.953178 136.0
119.985878 140.0
120.003319 112.0
120.058563 908.0
120.092728 56.0
120.121086 188.0
120.158173 140.0
120.177811 116.0
120.197449 148.0
120.286934 208.0
120.310944 176.0
120.362701 216.0
120.399261 180.0
120.417946 140.0
120.441971 172.0
120.461891 136.0
120.503143 172.0
120.518433 88.0
120.567833 132.0
120.612411 152.0
120.667061 152.0
120.688927 136.0
120.721725 152.0
120.758911 36.0
120.910988 192.0
120.965935 208.0
120.980667 140.0
121.025162 428.0
121.074959 680.0
121.112289 156.0
121.183601 108.0
121.203316 156.0
121.266876 176.0
121.323868 92.0
121.341408 176.0
121.418152 124.0
121.457634 96.0
121.480392 216.0
121.542854 180.0
121.56295 152.0
121.703438 184.0
121.775902 196.0
121.79348 152.0
121.819839 184.0
121.877594 152.0
121.887772 152.0
121.949486 168.0
122.034981 260.0
122.065247 280.0
122.109383 176.0
122.210648 116.0
122.218567 180.0
122.241989 140.0
122.273575 136.0
122.319023 132.0
122.407776 180.0
122.457741 204.0
122.553429 128.0
122.576706 40.0
122.614174 184.0
122.644562 308.0
122.692398 164.0
122.724739 180.0
122.753059 188.0
122.768494 160.0
122.789963 196.0
122.808197 216.0
122.828049 204.0
122.874374 312.0
122.900848 104.0
122.916298 300.0
122.931747 80.0
122.956017 120.0
122.984642 176.0
123.009232 232.0
123.043877 5564.0
123.066643 48972.0
123.155563 164.0
123.180763 148.0
123.214119 172.0
123.258568 100.0
123.291718 52.0
123.332687 172.0
123.36908 92.0
123.391922 216.0
123.411972 80.0
123.431213 168.0
123.478691 56.0
123.511276 172.0
123.532516 252.0
123.595612 172.0
123.614326 128.0
123.651245 64.0
123.688347 160.0
123.776184 216.0
123.802757 168.0
123.846565 144.0
123.946747 116.0
123.962265 48.0
124.018951 152.0
124.071899 6268.0
124.136124 224.0
124.220802 132.0
124.228714 160.0
124.248566 128.0
124.29496 124.0
124.336189 112.0
124.377007 128.0
124.401421 176.0
124.468033 96.0
124.541321 144.0
124.619072 84.0
124.634628 28.0
124.67421 128.0
124.683037 92.0
124.71463 92.0
124.788895 228.0
124.829575 120.0
124.873192 232.0
124.892014 232.0
124.913033 168.0
124.951576 204.0
124.974754 116.0
125.011803 292.0
125.04599 448.0
125.081078 280.0
125.152901 88.0
125.203094 140.0
125.226387 192.0
125.270744 140.0
125.295441 116.0
125.326637 160.0
125.361603 168.0
125.384575 152.0
125.475967 208.0
125.498268 164.0
125.552933 124.0
125.577202 152.0
125.612961 160.0
125.66555 128.0
125.685631 164.0
125.777138 204.0
125.81955 112.0
125.841873 120.0
125.893234 176.0
125.957687 112.0
126.053604 1004.0
126.125595 68.0
126.147949 156.0
126.174782 132.0
126.300011 140.0
126.321846 128.0
126.355934 112.0
126.401596 168.0
126.421898 196.0
126.481255 204.0
126.496925 124.0
126.520111 124.0
126.595444 116.0
126.650002 156.0
126.689934 216.0
126.77018 176.0
126.812759 180.0
126.881577 212.0
126.906914 76.0
126.962975 132.0
127.038422 176.0
127.059677 256.0
127.074753 116.0
127.232246 156.0
127.283882 160.0
127.319695 152.0
127.324867 144.0
127.333817 188.0
127.39843 232.0
127.420898 156.0
127.44561 156.0
127.488602 216.0
127.515869 244.0
127.59597 192.0
127.656914 180.0
127.764877 212.0
127.785126 248.0
127.836884 168.0
127.920158 156.0
127.99221 68.0
128.028244 164.0
128.049545 804.0
128.103378 168.0
128.172958 112.0
128.244522 36.0
128.280594 220.0
128.29863 112.0
128.318512 156.0
128.339386 156.0
128.400101 100.0
128.432343 216.0
128.465515 132.0
128.519653 160.0
128.567047 56.0
128.736801 176.0
128.801865 224.0
128.822189 160.0
128.86264 168.0
128.87149 152.0
128.919357 136.0
128.950363 128.0
128.991714 172.0
129.018127 188.0
129.049316 228.0
129.053009 632.0
129.13414 148.0
129.231415 228.0
129.274399 112.0
129.306091 64.0
129.32193 208.0
129.376251 172.0
129.460037 100.0
129.478149 104.0
129.509857 164.0
129.661667 92.0
129.686188 156.0
129.713806 224.0
129.761414 80.0
129.882675 172.0
129.924698 124.0
129.97583 128.0
130.001572 160.0
130.038498 344.0
130.066574 584.0
130.113068 148.0
130.177963 172.0
130.186829 100.0
130.387924 164.0
130.428833 220.0
130.469757 152.0
130.49704 188.0
130.540253 52.0
130.649429 112.0
130.690384 180.0
130.760925 100.0
130.788239 152.0
130.82045 184.0
130.85881 88.0
130.881577 56.0
130.902069 96.0
130.961288 204.0
130.98407 176.0
131.004852 220.0
131.028961 328.0
131.059601 836.0
131.109375 40.0
131.157959 212.0
131.177765 124.0
131.278076 208.0
131.30545 108.0
131.458939 200.0
131.478836 160.0
131.508514 132.0
131.547318 260.0
131.592972 104.0
131.627274 180.0
131.76976 112.0
131.87825 196.0
132.046234 544.0
132.077087 484.0
132.120667 180.0
132.175842 132.0
132.219131 144.0
132.244797 152.0
132.285706 164.0
132.338364 160.0
132.353363 160.0
132.468903 208.0
132.586014 180.0
132.624725 64.0
132.668472 172.0
132.700378 120.0
132.854034 76.0
132.977951 208.0
133.007782 120.0
133.028442 132.0
133.049835 280.0
133.144913 172.0
133.18689 56.0
133.260406 204.0
133.299255 44.0
133.478775 168.0
133.506363 216.0
133.60527 176.0
133.630951 176.0
133.658188 108.0
133.734146 120.0
133.754852 48.0
133.770966 164.0
133.793991 144.0
133.860764 200.0
133.964417 84.0
134.0327 240.0
134.059845 320.0
134.07785 332.0
134.18335 208.0
134.240997 124.0
134.259445 100.0
134.303268 184.0
134.344788 176.0
134.39093 224.0
134.411697 140.0
134.436249 132.0
134.540955 212.0
134.558014 144.0
134.661026 168.0
134.6772 176.0
134.74881 40.0
134.82045 180.0
134.876633 220.0
134.915207 136.0
134.972305 208.0
135.064804 2404.0
135.092484 148.0
135.125671 52.0
135.147232 172.0
135.224915 140.0
135.455353 188.0
135.521606 200.0
135.598068 116.0
135.62294 164.0
135.638184 172.0
135.718613 160.0
135.834579 196.0
135.867065 284.0
135.900589 172.0
135.938522 216.0
135.959869 152.0
136.01326 188.0
136.050018 184.0
136.060272 156.0
136.064636 272.0
136.085434 400.0
136.151962 216.0
136.179367 200.0
136.252884 260.0
136.370972 192.0
136.461624 188.0
136.499725 176.0
136.533707 28.0
136.601166 136.0
136.695511 260.0
136.730347 108.0
136.750687 140.0
136.789658 300.0
136.845032 204.0
136.86882 164.0
136.899094 108.0
136.975952 152.0
136.994583 128.0
137.028427 140.0
137.05954 2516.0
137.195007 132.0
137.253296 156.0
137.3116 180.0
137.41098 212.0
137.584778 112.0
137.61377 148.0
137.664001 144.0
137.730179 208.0
137.783127 32.0
137.888275 176.0
137.944382 188.0
137.998718 228.0
138.065033 536.0
138.101852 196.0
138.192215 324.0
138.264816 60.0
138.339722 76.0
138.407623 152.0
138.459549 136.0
138.538788 152.0
138.578613 176.0
138.608551 144.0
138.768463 76.0
138.80632 56.0
138.873993 84.0
138.913864 104.0
138.974869 104.0
139.037567 304.0
139.057953 128.0
139.063568 200.0
139.089157 188.0
139.115677 124.0
139.169678 152.0
139.263626 116.0
139.364639 80.0
139.425583 124.0
139.453934 124.0
139.473511 148.0
139.597351 148.0
139.616165 52.0
139.637329 136.0
139.672607 232.0
139.722015 124.0
139.747894 200.0
139.766724 96.0
139.80162 164.0
139.869034 204.0
139.891464 136.0
139.947968 232.0
139.966797 132.0
140.011551 172.0
140.050674 632.0
140.115189 184.0
140.134033 172.0
140.169388 172.0
140.255447 248.0
140.287231 192.0
140.306091 120.0
140.353241 244.0
140.450302 128.0
140.499481 136.0
140.541946 40.0
140.580978 168.0
140.615097 136.0
140.655228 120.0
140.677994 256.0
140.705536 168.0
140.848862 160.0
140.884293 104.0
140.985901 80.0
141.016617 76.0
141.052048 380.0
141.158478 152.0
141.184479 332.0
141.227051 88.0
141.300491 196.0
141.430542 48.0
141.534149 200.0
141.65683 100.0
141.750275 172.0
141.769943 172.0
141.795303 72.0
141.869995 312.0
141.939911 76.0
141.977859 196.0
142.064468 1396.0
142.131836 128.0
142.190048 200.0
142.210373 124.0
142.260223 172.0
142.283951 152.0
142.308853 176.0
142.364685 152.0
142.433563 168.0
142.545227 192.0
142.573746 172.0
142.590393 284.0
142.659317 40.0
142.818649 52.0
142.9198 116.0
142.959015 84.0
142.982819 172.0
143.013763 276.0
143.035599 136.0
143.069794 480.0
143.106598 124.0
143.326553 176.0
143.349564 124.0
143.437393 136.0
143.530731 132.0
143.556961 104.0
143.704742 160.0
143.828522 184.0
143.847198 396.0
143.871918 136.0
143.898178 220.0
143.926834 92.0
144.00087 116.0
144.054031 744.0
144.079895 304.0
144.17659 168.0
144.185989 192.0
144.273193 156.0
144.414368 84.0
144.431107 192.0
144.455032 180.0
144.545944 156.0
144.570236 132.0
144.648865 288.0
144.668015 180.0
144.702286 164.0
144.732651 144.0
144.778152 196.0
144.806351 212.0
144.86438 56.0
144.890732 176.0
144.977005 116.0
145.012512 160.0
145.074188 1292.0
145.111237 156.0
145.137604 120.0
145.159195 112.0
145.204758 44.0
145.221176 180.0
145.240738 40.0
145.274323 212.0
145.290421 208.0
145.332794 140.0
145.508743 164.0
145.528107 104.0
145.607971 244.0
145.676208 184.0
145.71846 176.0
145.802567 36.0
145.829208 148.0
145.889954 204.0
145.997299 160.0
146.016541 168.0
146.069016 2680.0
146.221054 100.0
146.243958 124.0
146.324554 116.0
146.404022 60.0
146.485291 156.0
146.595078 168.0
146.692154 116.0
146.770309 180.0
146.900665 160.0
147.044495 1476.0
147.066422 784.0
147.124985 136.0
147.214325 144.0
147.30127 84.0
147.344757 156.0
147.366501 44.0
147.385834 236.0
147.414078 208.0
147.443436 224.0
147.463165 80.0
147.494583 220.0
147.535675 104.0
147.569534 136.0
147.721893 200.0
147.740128 212.0
147.792053 228.0
147.835617 156.0
147.857391 176.0
148.051926 1276.0
148.071808 1248.0
148.109207 40.0
148.135849 76.0
148.179459 88.0
148.198837 56.0
148.254578 52.0
148.281235 192.0
148.421844 72.0
148.462051 144.0
148.483368 192.0
148.513992 112.0
148.678986 156.0
148.703888 168.0
148.752548 248.0
148.780991 160.0
148.839203 120.0
148.916916 192.0
148.962097 440.0
148.998337 316.0
149.023972 1332.0
149.07193 5720.0
149.113724 64.0
149.189072 140.0
149.272217 204.0
149.354431 132.0
149.37146 76.0
149.410385 40.0
149.445526 180.0
149.558624 188.0
149.612381 132.0
149.629425 144.0
149.689194 80.0
149.709778 192.0
149.741531 108.0
149.809647 168.0
149.872284 56.0
149.91806 56.0
150.023254 292.0
150.072861 472.0
150.102432 220.0
150.14357 192.0
150.208725 192.0
150.24115 184.0
150.258224 188.0
150.311905 208.0
150.331421 52.0
150.392441 160.0
150.409531 152.0
150.51088 168.0
150.534042 160.0
150.565796 160.0
150.709915 192.0
150.80278 264.0
150.819717 172.0
150.873672 132.0
150.890701 124.0
150.951279 220.0
150.9944 172.0
151.038605 4856.0
151.269989 132.0
151.363022 32.0
151.394852 116.0
151.417969 108.0
151.478134 120.0
151.519775 80.0
151.593292 184.0
151.647202 152.0
151.728104 136.0
151.748947 248.0
151.794312 204.0
151.828644 168.0
151.909576 56.0
151.933029 208.0
152.040741 784.0
152.091171 84.0
152.151993 196.0
152.196732 208.0
152.309158 180.0
152.331818 112.0
152.383408 32.0
152.464493 220.0
152.506287 140.0
152.549973 220.0
152.616028 200.0
152.678391 124.0
152.732498 48.0
152.764481 116.0
152.803833 32.0
152.845673 176.0
152.875198 136.0
152.970261 148.0
153.003189 156.0
153.048737 340.0
153.09758 144.0
153.126266 208.0
153.190353 136.0
153.247696 232.0
153.311096 92.0
153.370239 224.0
153.402283 120.0
153.449127 176.0
153.518173 132.0
153.581451 128.0
153.634094 160.0
153.666855 172.0
153.685913 56.0
153.759949 164.0
153.796967 104.0
153.837097 204.0
153.878433 160.0
153.982147 148.0
154.014252 100.0
154.034012 116.0
154.06897 204.0
154.093307 116.0
154.130371 148.0
154.178482 168.0
154.204514 200.0
154.350372 180.0
154.417145 60.0
154.486404 228.0
154.523514 76.0
154.565582 292.0
154.605179 128.0
154.632401 192.0
154.658142 140.0
154.741318 136.0
154.760742 180.0
154.919632 184.0
154.96405 172.0
154.986526 84.0
155.034851 88.0
155.062729 656.0
155.137711 128.0
155.157471 152.0
155.25177 104.0
155.28154 124.0
155.311295 184.0
155.457672 32.0
155.514191 156.0
155.56778 212.0
155.62648 156.0
155.710831 120.0
155.71434 116.0
155.758102 308.0
155.827667 88.0
155.872391 132.0
155.894745 240.0
155.924576 140.0
155.974289 152.0
156.043198 984.0
156.090714 164.0
156.154526 172.0
156.334061 104.0
156.37677 64.0
156.526611 180.0
156.618759 72.0
156.732208 204.0
156.78009 116.0
156.835541 152.0
156.982635 196.0
157.041092 516.0
157.052322 448.0
157.075165 752.0
157.166138 128.0
157.213684 240.0
157.252075 40.0
157.386887 172.0
157.40686 120.0
157.428253 216.0
157.509262 152.0
157.531754 52.0
157.54924 204.0
157.621689 140.0
157.678879 168.0
157.736664 204.0
157.79747 196.0
157.916687 140.0
158.029205 180.0
158.058945 1020.0
158.08461 464.0
158.133621 216.0
158.181931 196.0
158.267044 120.0
158.399338 128.0
158.445953 124.0
158.497498 132.0
158.52507 100.0
158.62532 144.0
158.64537 164.0
158.690506 172.0
158.735641 132.0
158.82843 140.0
158.845993 60.0
158.913727 312.0
158.95137 60.0
158.983994 160.0
159.016617 172.0
159.043579 192.0
159.061401 452.0
159.091873 1172.0
159.307892 152.0
159.431473 176.0
159.456146 152.0
159.503906 124.0
159.526535 136.0
159.556702 88.0
159.589386 188.0
159.684937 156.0
159.745316 104.0
159.793106 152.0
159.848465 56.0
159.868607 156.0
159.891251 176.0
159.986908 136.0
160.018524 208.0
160.050858 160.0
160.074509 888.0
160.137985 40.0
160.168213 172.0
160.190887 112.0
160.284103 80.0
160.309311 168.0
160.406479 108.0
160.516022 44.0
160.571503 164.0
160.604294 36.0
160.639603 160.0
160.667358 208.0
160.81871 176.0
160.861145 152.0
160.899536 120.0
160.955887 192.0
161.009323 180.0
161.035904 92.0
161.082138 8264.0
161.136948 76.0
161.154633 48.0
161.183624 196.0
161.215286 148.0
161.27594 124.0
161.334076 72.0
161.37706 220.0
161.404877 68.0
161.440277 200.0
161.484024 148.0
161.541458 208.0
161.564529 96.0
161.594574 156.0
161.617249 208.0
161.646179 80.0
161.680542 132.0
161.712479 196.0
161.735199 220.0
161.786926 144.0
161.955185 224.0
162.062668 492.0
162.08934 5200.0
162.125778 124.0
162.190277 180.0
162.222656 64.0
162.260696 112.0
162.313934 164.0
162.33168 100.0
162.379333 112.0
162.447998 200.0
162.48642 64.0
162.524475 68.0
162.577759 132.0
162.605682 136.0
162.636139 116.0
162.734726 172.0
162.849426 76.0
162.97995 104.0
163.016144 112.0
163.036377 536.0
163.064056 364.0
163.096863 1136.0
163.124496 188.0
163.142975 100.0
163.177658 140.0
163.271179 144.0
163.303314 272.0
163.411926 204.0
163.420319 196.0
163.46225 80.0
163.485031 180.0
163.518112 168.0
163.734528 76.0
163.984207 108.0
164.033768 216.0
164.069992 472.0
164.137161 156.0
164.170319 172.0
164.234085 136.0
164.257034 164.0
164.313156 96.0
164.359085 144.0
164.414703 156.0
164.491501 68.0
164.629684 128.0
164.665436 208.0
164.696091 188.0
164.752289 116.0
164.800827 112.0
164.892822 164.0
164.921692 192.0
164.954514 152.0
165.056534 1704.0
165.10759 92.0
165.181763 256.0
165.199661 264.0
165.22525 80.0
165.245712 124.0
165.277695 136.0
165.337845 128.0
165.383911 80.0
165.440231 116.0
165.534958 108.0
165.612183 156.0
165.678391 96.0
165.709137 148.0
165.729645 136.0
165.792557 200.0
165.855209 152.0
165.896225 196.0
165.949142 212.0
166.055679 392.0
166.114212 224.0
166.175781 188.0
166.196304 104.0
166.278427 224.0
166.301529 164.0
166.332321 120.0
166.361282 144.0
166.388809 104.0
166.460693 52.0
166.48381 44.0
166.512054 144.0
166.535172 60.0
166.645645 148.0
166.66925 192.0
166.771561 160.0
166.789551 40.0
166.853821 208.0
166.897934 332.0
166.951538 104.0
166.974686 124.0
167.028809 276.0
167.062119 456.0
167.136749 72.0
167.225571 164.0
167.328415 112.0
167.360107 196.0
167.392731 136.0
167.435379 128.0
167.458557 168.0
167.491806 132.0
167.631165 176.0
167.659515 164.0
167.736832 56.0
167.754883 168.0
167.821915 168.0
167.847702 92.0
167.940536 116.0
168.016403 88.0
168.06459 288.0
168.12114 172.0
168.234711 160.0
168.27861 48.0
168.320374 180.0
168.353836 152.0
168.402557 48.0
168.425812 228.0
168.451645 92.0
168.597336 172.0
168.646957 136.0
168.746262 148.0
168.797913 132.0
168.867798 152.0
168.891083 28.0
168.927292 132.0
169.002319 136.0
169.075714 920.0
169.097839 44.0
169.114059 184.0
169.136902 204.0
169.217148 112.0
169.263763 316.0
169.320724 148.0
169.354401 176.0
169.445068 120.0
169.463211 120.0
169.533173 220.0
169.561676 60.0
169.644623 120.0
169.699066 100.0
169.833923 52.0
169.88147 244.0
170.010345 180.0
170.064499 2472.0
170.111572 64.0
170.145325 32.0
170.192062 68.0
170.218536 144.0
170.273041 156.0
170.303726 44.0
170.329712 156.0
170.350494 140.0
170.449219 88.0
170.470001 52.0
170.527176 152.0
170.68576 104.0
170.716965 68.0
170.810608 252.0
170.844421 184.0
170.896454 176.0
170.928955 220.0
170.971924 200.0
171.021378 124.0
171.069229 1148.0
171.143738 204.0
171.164047 200.0
171.27655 168.0
171.302597 124.0
171.359909 176.0
171.485001 156.0
171.531921 100.0
171.598816 176.0
171.621185 220.0
171.645233 164.0
171.709991 136.0
171.777039 32.0
171.831833 188.0
171.878799 172.0
171.936203 128.0
172.042587 460.0
172.076599 976.0
172.134613 172.0
172.194672 160.0
172.236465 88.0
172.277344 148.0
172.307129 168.0
172.384216 124.0
172.414139 112.0
172.435043 240.0
172.463806 252.0
172.531769 104.0
172.550858 368.0
172.66774 96.0
172.705139 228.0
172.738358 176.0
172.793304 116.0
172.835159 140.0
173.025482 152.0
173.081131 2200.0
173.10907 88.0
173.133591 160.0
173.154541 120.0
173.185974 112.0
173.21106 188.0
173.231354 120.0
173.269806 176.0
173.361511 220.0
173.386368 508.0
173.407806 120.0
173.466354 80.0
173.500427 68.0
173.531891 132.0
173.576477 164.0
173.615799 136.0
173.636795 36.0
173.682175 196.0
173.73909 32.0
173.773193 188.0
173.898468 136.0
173.99614 224.0
174.064087 8480.0
174.13678 68.0
174.256302 48.0
174.308853 40.0
174.339798 180.0
174.372864 124.0
174.405899 168.0
174.490219 28.0
174.537537 200.0
174.595398 168.0
174.650635 160.0
174.679565 228.0
174.719025 92.0
174.89798 176.0
174.916397 224.0
174.987473 176.0
175.061859 1856.0
175.09581 1980.0
175.221878 224.0
175.274338 172.0
175.29567 188.0
175.356277 60.0
175.432724 64.0
175.451172 88.0
175.477539 60.0
175.52681 148.0
175.587265 164.0
175.635773 192.0
175.670059 240.0
175.692474 144.0
175.738663 84.0
175.762405 52.0
175.912842 176.0
175.945816 112.0
176.068359 1544.0
176.100403 588.0
176.145233 112.0
176.255478 44.0
176.293182 52.0
176.392242 176.0
176.420059 52.0
176.438568 44.0
176.457077 180.0
176.523178 88.0
176.541687 76.0
176.566727 188.0
176.650131 136.0
176.751923 176.0
176.783722 220.0
176.920059 96.0
176.999496 248.0
177.020676 148.0
177.055191 196.0
177.073242 764.0
177.108078 120.0
177.142517 96.0
177.163712 120.0
177.182251 36.0
177.240402 144.0
177.330643 156.0
177.358429 156.0
177.415482 148.0
177.530869 156.0
177.717834 128.0
177.879715 172.0
177.90361 168.0
177.930161 224.0
177.954056 176.0
178.056976 184.0
178.07605 176.0
178.092621 156.0
178.116058 144.0
178.235611 92.0
178.267502 176.0
178.286102 220.0
178.37381 164.0
178.403061 160.0
178.434677 192.0
178.443268 220.0
178.496109 28.0
178.520645 192.0
178.64772 208.0
178.711716 148.0
178.737015 92.0
178.780045 136.0
178.838898 156.0
178.868591 48.0
178.888763 176.0
178.93248 280.0
178.964432 128.0
179.008911 68.0
179.03334 148.0
179.110901 212.0
179.140213 100.0
179.188156 176.0
179.356049 200.0
179.430695 148.0
179.620041 80.0
179.678726 204.0
179.782791 128.0
179.806824 52.0
179.852188 124.0
179.87088 68.0
180.052017 296.0
180.103516 96.0
180.137909 100.0
180.298233 176.0
180.357025 172.0
180.389114 164.0
180.410492 144.0
180.463974 120.0
180.521393 124.0
180.736801 104.0
180.878647 188.0
181.047318 196.0
181.084641 3376.0
181.157867 176.0
181.324387 172.0
181.372528 200.0
181.471527 248.0
181.502884 68.0
181.552734 80.0
181.610153 32.0
181.889221 144.0
181.924118 236.0
181.972443 160.0
182.020782 88.0
182.067871 520.0
182.168503 220.0
182.192459 176.0
182.300156 120.0
182.340851 156.0
182.375412 144.0
182.426483 168.0
182.449371 144.0
182.469498 200.0
182.496063 184.0
182.552856 172.0
182.621872 212.0
182.749222 128.0
182.856857 152.0
182.883774 196.0
182.941666 220.0
183.018311 148.0
183.065567 376.0
183.077209 240.0
183.110947 268.0
183.158417 208.0
183.212296 104.0
183.268875 128.0
183.318069 140.0
183.355042 160.0
183.387451 176.0
183.465622 116.0
183.711044 164.0
183.743408 116.0
183.778488 52.0
183.87294 44.0
183.905334 140.0
183.93158 116.0
184.013306 76.0
184.048203 428.0
184.086578 1572.0
184.174133 160.0
184.205063 196.0
184.271515 160.0
184.377975 88.0
184.407715 164.0
184.624008 188.0
184.666489 124.0
184.689667 172.0
184.721375 60.0
184.774063 236.0
184.802536 124.0
184.876602 172.0
184.924408 124.0
184.988968 212.0
185.079544 1356.0
185.155197 216.0
185.216751 108.0
185.352203 144.0
185.425385 96.0
185.490845 156.0
185.547363 212.0
185.596161 148.0
185.625992 32.0
185.669388 180.0
185.693802 188.0
185.7155 64.0
185.802307 128.0
185.832138 144.0
185.851135 160.0
185.894562 104.0
185.92984 140.0
185.99498 220.0
186.019409 116.0
186.056519 1516.0
186.089142 1412.0
186.171463 176.0
186.220337 64.0
186.437698 200.0
186.46759 64.0
186.542587 176.0
186.738495 144.0
186.785721 68.0
186.810196 148.0
186.869797 128.0
186.877365 116.0
186.947464 224.0
187.016861 72.0
187.09668 13232.0
187.13237 180.0
187.221207 28.0
187.300186 60.0
187.321976 208.0
187.36171 220.0
187.406433 56.0
187.469116 128.0
187.493637 120.0
187.529068 204.0
187.548157 72.0
187.624481 144.0
187.686935 84.0
187.768997 44.0
187.837189 44.0
187.873077 204.0
187.914703 88.0
187.954514 140.0
188.098007 2488.0
188.21109 168.0
188.238403 148.0
188.276489 96.0
188.295074 64.0
188.316391 208.0
188.37851 108.0
188.415878 184.0
188.506104 192.0
188.563507 40.0
188.694717 164.0
188.768539 176.0
188.818451 176.0
188.841095 128.0
188.926453 196.0
189.073547 3144.0
189.106598 284.0
189.165375 192.0
189.188461 68.0
189.247406 172.0
189.285736 108.0
189.307648 144.0
189.430893 112.0
189.450073 72.0
189.50058 52.0
189.530594 124.0
189.567886 112.0
189.593826 84.0
189.617218 48.0
189.641891 124.0
189.679367 160.0
189.732346 196.0
189.757019 156.0
189.836548 116.0
189.962708 140.0
189.999634 164.0
190.083755 5952.0
190.201447 128.0
190.223404 284.0
190.275574 44.0
190.360687 176.0
190.409225 160.0
190.448578 156.0
190.470551 60.0
190.511765 112.0
190.533264 116.0
190.591431 56.0
190.627151 112.0
190.660141 172.0
190.689957 184.0
190.715103 196.0
190.759094 144.0
190.844315 188.0
190.896561 168.0
190.951569 120.0
190.998322 56.0
191.046921 260.0
191.090912 4840.0
191.172958 144.0
191.204681 136.0
191.298264 192.0
191.320297 140.0
191.372604 136.0
191.409073 196.0
191.477249 52.0
191.532333 128.0
191.557129 64.0
191.581924 160.0
191.672836 208.0
191.70816 172.0
191.75 144.0
191.769302 80.0
191.863022 108.0
191.937469 180.0
192.011932 92.0
192.033752 188.0
192.065552 468.0
192.095169 1020.0
192.158127 56.0
192.201462 164.0
192.243668 152.0
192.286758 144.0
192.320953 88.0
192.343033 160.0
192.387192 48.0
192.425842 128.0
192.536301 140.0
192.586014 172.0
192.640198 124.0
192.699417 168.0
193.039276 176.0
193.06926 128.0
193.112198 224.0
193.172028 116.0
193.198669 172.0
193.245193 144.0
193.313141 148.0
193.393402 32.0
193.421082 88.0
193.512436 88.0
193.540131 76.0
193.74231 120.0
193.808807 176.0
193.84761 208.0
193.941147 176.0
193.969559 28.0
194.000046 144.0
194.072083 300.0
194.152557 160.0
194.213562 72.0
194.289261 196.0
194.379181 144.0
194.441086 228.0
194.488266 40.0
194.591537 140.0
194.627075 152.0
194.67511 296.0
194.721497 120.0
194.763168 148.0
194.829834 60.0
194.932632 152.0
194.974319 112.0
194.999191 156.0
195.055466 184.0
195.080185 176.0
195.187912 120.0
195.224533 88.0
195.244003 192.0
195.324661 144.0
195.347977 348.0
195.472122 132.0
195.548553 128.0
195.597366 200.0
195.639114 188.0
195.739349 140.0
195.773483 140.0
195.811752 136.0
195.898102 132.0
195.959396 108.0
196.040039 412.0
196.076248 172.0
196.15448 60.0
196.179565 240.0
196.218597 132.0
196.243698 112.0
196.316193 156.0
196.427765 112.0
196.595032 164.0
196.646469 148.0
196.695648 192.0
196.723557 148.0
196.787781 140.0
196.826874 156.0
196.888306 144.0
196.930206 92.0
196.974884 60.0
197.080933 1120.0
197.134155 208.0
197.229172 108.0
197.293472 180.0
197.315842 188.0
197.49202 152.0
197.511597 144.0
197.550598 152.0
197.606705 292.0
197.686371 200.0
197.820663 152.0
197.928604 96.0
197.962204 144.0
198.015411 32.0
198.062317 1356.0
198.089569 556.0
198.141464 184.0
198.166687 100.0
198.214325 140.0
198.332031 52.0
198.3909 172.0
198.44136 100.0
198.47287 228.0
198.705002 148.0
198.738678 116.0
198.822861 196.0
199.008133 132.0
199.069031 940.0
199.096497 4700.0
199.151352 88.0
199.27536 168.0
199.340637 96.0
199.381744 176.0
199.404221 184.0
199.463257 48.0
199.496841 236.0
199.517899 228.0
199.584152 180.0
199.640381 40.0
199.662888 220.0
199.685379 160.0
199.927338 148.0
199.963928 156.0
199.989258 56.0
200.035126 232.0
200.103119 2052.0
200.188324 224.0
200.256744 156.0
200.33197 96.0
200.369125 116.0
200.404755 148.0
200.538467 188.0
200.676636 244.0
200.727005 148.0
200.757935 212.0
200.839066 148.0
200.967148 120.0
201.011307 136.0
201.018585 88.0
201.076477 3724.0
201.113037 21800.0
201.145721 504.0
201.223999 40.0
201.280991 44.0
201.402618 160.0
201.430359 116.0
201.454178 180.0
201.517746 76.0
201.537521 112.0
201.633606 168.0
201.701431 128.0
201.749496 44.0
201.77211 136.0
201.797562 96.0
201.847336 80.0
201.897934 96.0
201.925934 160.0
201.961212 152.0
202.050751 804.0
202.08345 384.0
202.119049 5964.0
202.16246 156.0
202.216232 52.0
202.265778 140.0
202.286987 56.0
202.306808 148.0
202.371292 268.0
202.396332 212.0
202.436935 196.0
202.46904 68.0
202.502197 84.0
202.543045 132.0
202.62468 100.0
202.658005 124.0
202.677841 124.0
202.748688 88.0
202.788361 36.0
202.845047 80.0
202.925766 128.0
202.952789 96.0
203.051025 532.0
203.090408 3616.0
203.120285 656.0
203.194244 60.0
203.347824 124.0
203.371277 124.0
203.398193 200.0
203.446457 44.0
203.455612 72.0
203.467361 132.0
203.503235 144.0
203.537323 80.0
203.617828 80.0
203.648499 136.0
203.703873 180.0
203.756027 152.0
203.937897 132.0
203.959045 108.0
204.006317 112.0
204.028854 156.0
204.070068 328.0
204.096756 1336.0
204.131317 116.0
204.149063 116.0
204.196625 192.0
204.23645 136.0
204.264893 76.0
204.429916 156.0
204.489685 248.0
204.644623 56.0
204.68042 100.0
204.771561 184.0
204.857971 140.0
204.899734 92.0
204.973816 120.0
205.107407 1264.0
205.143326 204.0
205.227249 172.0
205.335876 144.0
205.372955 92.0
205.455688 176.0
205.498474 176.0
205.518448 144.0
205.538422 116.0
205.564102 60.0
205.713394 132.0
205.766769 164.0
205.895264 116.0
205.935257 116.0
206.063553 184.0
206.085892 100.0
206.108734 148.0
206.160965 48.0
206.280182 152.0
206.343521 152.0
206.369629 212.0
206.453751 156.0
206.538361 108.0
206.731674 204.0
206.775848 96.0
206.801605 180.0
206.910385 132.0
206.947601 128.0
207.027786 152.0
207.09938 128.0
207.188187 180.0
207.268417 336.0
207.308533 132.0
207.388779 72.0
207.428909 140.0
207.477646 116.0
207.50058 108.0
207.5952 212.0
207.704193 140.0
207.730011 140.0
207.857956 148.0
207.896423 168.0
208.019852 96.0
208.10936 156.0
208.146179 196.0
208.321198 132.0
208.551254 108.0
208.591507 136.0
208.675812 148.0
208.71225 208.0
208.861801 84.0
208.884811 128.0
208.923889 192.0
208.95961 64.0
209.083344 256.0
209.166824 256.0
209.230148 144.0
209.397171 144.0
209.513672 288.0
209.598831 156.0
209.647812 140.0
209.703278 148.0
209.725632 136.0
209.745819 144.0
209.835175 96.0
209.944748 124.0
210.005325 148.0
210.031281 156.0
210.065903 148.0
210.187073 132.0
210.344391 196.0
210.729919 104.0
211.039398 140.0
211.097061 764.0
211.172211 48.0
211.218491 144.0
211.348679 120.0
211.372543 96.0
211.391708 184.0
211.45285 224.0
211.503265 144.0
211.577332 156.0
211.62944 124.0
211.666748 168.0
211.774246 92.0
211.919083 144.0
211.961319 152.0
212.003128 144.0
212.026306 180.0
212.079346 1568.0
212.177048 184.0
212.196609 64.0
212.269012 216.0
212.527985 164.0
212.549469 168.0
212.577316 120.0
212.710831 156.0
212.742767 56.0
212.763077 124.0
212.797928 112.0
212.870255 88.0
212.905365 212.0
212.924988 188.0
213.07872 1680.0
213.11055 1276.0
213.169724 184.0
213.192978 216.0
213.224945 40.0
213.281479 124.0
213.335403 160.0
213.448792 60.0
213.47496 200.0
213.50827 44.0
213.532776 164.0
213.666946 56.0
213.707672 88.0
213.809525 52.0
213.959274 108.0
214.007385 132.0
214.060364 972.0
214.085266 1496.0
214.252121 276.0
214.389069 152.0
214.464844 92.0
214.517319 56.0
214.549393 56.0
214.59021 132.0
214.613525 192.0
214.680603 144.0
214.709763 140.0
214.736008 128.0
214.756424 72.0
214.886688 196.0
214.9198 156.0
214.982712 208.0
215.091217 5544.0
215.166763 124.0
215.223373 184.0
215.266327 56.0
215.316818 192.0
215.351868 312.0
215.424545 136.0
215.550522 208.0
215.573898 160.0
215.602219 128.0
215.664505 176.0
215.687332 168.0
215.744888 128.0
215.831146 76.0
215.866241 284.0
215.920181 304.0
215.94812 160.0
216.078598 1424.0
216.096756 1864.0
216.170471 136.0
216.307602 108.0
216.392929 40.0
216.443832 208.0
216.533493 108.0
216.647736 172.0
216.670166 168.0
216.7034 64.0
216.805954 132.0
216.855774 124.0
216.882156 80.0
216.905609 84.0
216.929062 200.0
216.955444 164.0
216.978897 104.0
217.065704 1100.0
217.106094 4980.0
217.239197 148.0
217.275116 112.0
217.319962 140.0
217.348465 180.0
217.371292 96.0
217.402115 148.0
217.424774 68.0
217.483475 168.0
217.521622 100.0
217.54805 52.0
217.592087 92.0
217.647385 144.0
217.728134 112.0
217.790878 224.0
217.874023 108.0
217.903412 140.0
217.923981 148.0
218.077576 952.0
218.110199 808.0
218.250244 148.0
218.276703 92.0
218.306107 36.0
218.335526 132.0
218.364929 64.0
218.385513 44.0
218.423752 100.0
218.553207 192.0
218.579681 28.0
218.609116 128.0
218.673859 76.0
218.700348 32.0
218.732422 172.0
218.815155 80.0
218.859329 72.0
218.906448 52.0
218.930008 136.0
219.078888 1160.0
219.117325 376.0
219.254425 164.0
219.407349 52.0
219.468201 212.0
219.613052 196.0
219.678665 144.0
219.725876 212.0
219.829147 124.0
219.879318 148.0
220.043182 180.0
220.075928 240.0
220.276245 112.0
220.351791 112.0
220.396103 156.0
220.505447 164.0
220.629593 76.0
220.650299 40.0
220.786316 136.0
220.842514 148.0
221.011139 124.0
221.055527 144.0
221.144302 112.0
221.197586 120.0
221.390045 152.0
221.413742 80.0
221.57962 76.0
221.672485 140.0
221.736679 148.0
221.85524 156.0
221.9086 164.0
222.02977 140.0
222.034332 120.0
222.067657 192.0
222.105667 116.0
222.350601 88.0
222.460434 132.0
222.496048 136.0
222.525742 148.0
222.547882 140.0
222.579193 152.0
222.653427 68.0
222.851562 184.0
222.900589 224.0
223.015915 76.0
223.05484 204.0
223.11087 148.0
223.134827 192.0
223.164551 108.0
223.209152 48.0
223.423309 56.0
223.493484 212.0
223.542328 224.0
223.598862 120.0
223.670303 68.0
223.726868 104.0
224.018707 108.0
224.048508 116.0
224.075317 112.0
224.105118 204.0
224.137894 40.0
224.17067 184.0
224.233246 196.0
224.269012 40.0
224.486664 68.0
224.519791 144.0
224.561218 112.0
224.591827 228.0
224.758118 200.0
224.815155 140.0
224.852081 84.0
224.874512 180.0
224.895401 64.0
225.023758 120.0
225.074768 312.0
225.133072 132.0
225.292557 176.0
225.319443 244.0
225.361267 140.0
225.385178 196.0
225.444946 180.0
225.534607 228.0
225.693054 176.0
225.73674 184.0
225.785751 72.0
225.818665 60.0
225.893433 176.0
225.929764 188.0
225.990448 188.0
226.013687 224.0
226.0383 200.0
226.058105 540.0
226.081314 176.0
226.150772 104.0
226.22673 152.0
226.266022 200.0
226.291473 172.0
226.312958 188.0
226.402222 276.0
226.453186 120.0
226.566696 192.0
226.622635 144.0
226.659897 116.0
226.701859 68.0
226.752792 168.0
226.827728 160.0
226.97464 188.0
227.037842 300.0
227.058609 168.0
227.090607 1556.0
227.172592 112.0
227.25322 128.0
227.269058 132.0
227.313614 176.0
227.370636 160.0
227.3936 104.0
227.490692 144.0
227.53273 124.0
227.637817 72.0
227.664841 168.0
227.688873 100.0
227.803009 184.0
227.878113 60.0
227.998322 96.0
228.098099 1188.0
228.139679 132.0
228.247833 128.0
228.28392 188.0
228.310974 56.0
228.347458 184.0
228.395203 408.0
228.422272 72.0
228.481308 160.0
228.518539 168.0
228.546371 132.0
228.593262 48.0
228.705124 120.0
228.729202 116.0
228.842545 184.0
228.885818 196.0
228.941025 248.0
228.976105 96.0
229.011078 196.0
229.0746 1248.0
229.107712 44064.0
229.179184 276.0
229.206848 216.0
229.224182 252.0
229.251465 100.0
229.270569 152.0
229.304855 68.0
229.345245 72.0
229.372787 252.0
229.428314 160.0
229.486145 204.0
229.512512 136.0
229.542664 40.0
229.566803 44.0
229.608765 336.0
229.666321 160.0
229.694092 168.0
229.725876 124.0
229.775589 128.0
229.821732 200.0
229.829742 236.0
229.94101 204.0
230.005646 132.0
230.115555 48016.0
230.168762 108.0
230.227707 108.0
230.250717 112.0
230.280594 156.0
230.304794 84.0
230.327194 208.0
230.371262 220.0
230.406921 48.0
230.431427 136.0
230.45816 60.0
230.480377 56.0
230.505295 144.0
230.544907 152.0
230.580353 44.0
230.612091 200.0
230.638611 52.0
230.66478 140.0
230.699066 92.0
230.734589 96.0
230.760956 68.0
230.81955 160.0
230.830048 224.0
230.878098 48.0
230.9198 80.0
230.963486 228.0
231.008514 160.0
231.038666 132.0
231.086639 9452.0
231.117447 5624.0
231.157715 180.0
231.210251 40.0
231.231445 120.0
231.251221 84.0
231.295441 112.0
231.319595 160.0
231.342987 144.0
231.376434 80.0
231.394547 272.0
231.458069 204.0
231.501892 52.0
231.543289 148.0
231.591507 56.0
231.634155 120.0
231.681412 100.0
231.739578 80.0
231.769409 56.0
231.790176 160.0
231.834793 172.0
231.872559 76.0
231.911148 116.0
231.948059 88.0
232.005417 204.0
232.032684 228.0
232.094818 20752.0
232.164566 64.0
232.213089 200.0
232.237366 128.0
232.273758 44.0
232.309921 100.0
232.370834 52.0
232.396469 200.0
232.424225 116.0
232.473999 28.0
232.518631 172.0
232.548355 160.0
232.595764 220.0
232.614548 144.0
232.649582 236.0
232.703018 72.0
232.767654 104.0
232.792755 116.0
232.844223 220.0
232.867325 220.0
232.888992 64.0
232.894501 128.0
232.92276 60.0
232.953735 144.0
232.994965 140.0
233.036896 172.0
233.102997 43748.0
233.155502 168.0
233.21698 152.0
233.29126 252.0
233.342407 216.0
233.369415 260.0
233.410278 76.0
233.426086 144.0
233.48262 40.0
233.5224 104.0
233.585281 176.0
233.698822 56.0
233.722183 48.0
233.764572 176.0
233.801575 124.0
233.86142 156.0
233.906815 48.0
233.937012 112.0
233.963699 108.0
234.02124 40.0
234.105072 5348.0
234.161377 224.0
234.203018 52.0
234.261154 160.0
234.315552 76.0
234.359329 56.0
234.461792 116.0
234.510254 84.0
234.565247 92.0
234.577362 52.0
234.660599 152.0
234.700378 216.0
234.711472 160.0
234.74646 112.0
234.767807 76.0
234.796677 60.0
234.815872 116.0
234.851562 104.0
234.972183 212.0
235.056366 156.0
235.106033 424.0
235.14856 100.0
235.179688 100.0
235.207169 120.0
235.249893 120.0
235.298752 108.0
235.375076 76.0
235.398315 72.0
235.479782 120.0
235.518616 100.0
235.54306 72.0
235.598541 188.0
235.653397 104.0
235.680542 48.0
235.708038 152.0
235.750824 60.0
235.80278 52.0
235.84726 232.0
235.961731 116.0
236.057495 200.0
236.114624 48.0
236.145218 204.0
236.227798 116.0
236.267578 40.0
236.298172 48.0
236.408325 180.0
236.434433 96.0
236.509323 52.0
236.542999 120.0
236.564423 96.0
236.659424 72.0
236.784225 128.0
236.815521 120.0
236.88179 208.0
236.951019 104.0
237.037399 76.0
237.088196 136.0
237.158691 204.0
237.223053 128.0
237.244522 112.0
237.336502 160.0
237.373291 188.0
237.407028 88.0
237.465302 136.0
237.514374 96.0
237.627884 172.0
237.656982 368.0
237.726074 132.0
237.793594 176.0
237.867264 116.0
237.934799 36.0
238.00235 188.0
238.047195 172.0
238.069901 356.0
238.091156 200.0
238.217331 140.0
238.327942 148.0
238.377106 176.0
238.453934 88.0
238.512344 40.0
238.588058 76.0
238.635315 60.0
238.761383 172.0
238.858047 184.0
238.890579 168.0
238.940704 164.0
239.001755 144.0
239.041336 172.0
239.091812 840.0
239.210617 68.0
239.604813 68.0
239.681839 104.0
239.802032 144.0
239.823608 84.0
239.885254 48.0
239.927811 124.0
239.938766 100.0
239.948074 160.0
240.01474 44.0
240.075302 528.0
240.101089 696.0
240.153519 104.0
240.202881 100.0
240.255325 140.0
240.284561 84.0
240.378738 28.0
240.418854 80.0
240.600967 76.0
240.684341 64.0
240.712128 164.0
241.008667 200.0
241.069351 312.0
241.090729 544.0
241.103165 340.0
241.110382 364.0
241.166275 52.0
241.311584 92.0
241.354858 60.0
241.441452 104.0
241.490936 144.0
241.55899 168.0
241.63942 92.0
241.775574 92.0
241.820236 80.0
241.899384 140.0
241.923203 208.0
241.970596 48.0
241.992264 424.0
242.054688 1068.0
242.104111 316.0
242.199753 224.0
242.339157 40.0
242.370148 148.0
242.454346 156.0
242.518906 72.0
242.559204 104.0
242.711121 88.0
242.869293 144.0
242.922668 96.0
242.949936 96.0
243.058289 424.0
243.085083 1740.0
243.179565 96.0
243.205551 116.0
243.241653 88.0
243.406204 168.0
243.446564 112.0
243.502472 56.0
243.59491 180.0
243.645355 144.0
243.685745 116.0
243.716827 168.0
243.772751 112.0
243.918839 52.0
243.985504 332.0
244.073151 1604.0
244.160294 128.0
244.181488 220.0
244.215378 152.0
244.307892 220.0
244.366486 144.0
244.388443 188.0
244.41333 152.0
244.449432 72.0
244.523895 128.0
244.556488 92.0
244.598358 180.0
244.624969 128.0
244.687973 120.0
244.715256 180.0
244.740173 220.0
244.779297 184.0
244.82106 164.0
244.877121 172.0
244.949387 68.0
244.982422 128.0
245.030457 344.0
245.102951 55512.0
245.190231 76.0
245.211731 196.0
245.243195 60.0
245.298691 212.0
245.332138 64.0
245.359375 100.0
245.392349 188.0
245.412338 72.0
245.450623 88.0
245.500519 92.0
245.57692 40.0
245.618088 68.0
245.655228 128.0
245.689224 40.0
245.775024 84.0
245.809341 92.0
245.838623 168.0
245.949203 64.0
245.981003 52.0
246.106445 8628.0
246.165009 240.0
246.222366 200.0
246.265045 112.0
246.336441 88.0
246.383865 84.0
246.408615 52.0
246.439529 108.0
246.493225 52.0
246.523712 132.0
246.568222 56.0
246.627106 212.0
246.658875 68.0
246.700485 280.0
246.725586 152.0
246.755783 76.0
246.815186 36.0
246.838455 100.0
246.873566 144.0
246.89978 164.0
246.931137 52.0
246.981491 160.0
247.018478 136.0
247.082428 12112.0
247.116989 12812.0
247.177032 112.0
247.240631 56.0
247.303589 104.0
247.340271 156.0
247.40094 116.0
247.436035 60.0
247.484802 36.0
247.578751 72.0
247.644516 72.0
247.675842 104.0
247.712265 108.0
247.76355 104.0
247.802383 68.0
247.849609 132.0
247.876343 80.0
247.947739 272.0
248.000427 88.0
248.020447 160.0
248.087494 2596.0
248.119232 1724.0
248.202362 40.0
248.23999 120.0
248.35289 140.0
248.537994 108.0
248.603882 100.0
248.65802 80.0
248.706024 184.0
248.757675 120.0
248.789078 96.0
248.824371 88.0
248.920944 148.0
248.980621 56.0
249.030869 68.0
249.09671 304.0
249.15831 176.0
249.225647 80.0
249.310944 120.0
249.389053 60.0
249.426773 92.0
249.521088 60.0
249.592636 184.0
249.741226 104.0
249.766388 200.0
249.791321 164.0
249.933121 160.0
249.977188 80.0
250.096771 128.0
250.147141 160.0
250.169174 64.0
250.206955 72.0
250.279373 40.0
250.603806 228.0
250.647919 64.0
250.677475 84.0
250.701492 120.0
250.748764 116.0
250.912674 140.0
251.038803 88.0
251.098724 36.0
251.152344 36.0
251.183884 76.0
251.228058 48.0
251.289215 52.0
251.309692 164.0
251.332169 172.0
251.480499 136.0
251.625702 92.0
251.71727 264.0
251.803177 120.0
251.855194 132.0
252.194336 136.0
252.339752 212.0
252.421967 36.0
252.447266 112.0
252.478882 216.0
252.548462 124.0
252.627548 120.0
252.652542 160.0
252.826889 140.0
252.899689 88.0
253.000977 40.0
253.086472 148.0
253.137131 156.0
253.292328 72.0
253.507767 200.0
253.602844 80.0
253.631378 84.0
253.764526 92.0
253.891373 220.0
254.316513 88.0
254.433975 120.0
254.708466 128.0
254.850037 104.0
254.9263 160.0
255.088058 1244.0
255.183777 140.0
255.209213 88.0
255.330063 68.0
255.396851 140.0
255.492279 120.0
255.543182 260.0
255.571823 172.0
255.64502 96.0
255.883743 172.0
255.931503 72.0
255.997391 260.0
256.033417 164.0
256.06662 280.0
256.097626 124.0
256.179932 244.0
256.240448 72.0
256.318085 164.0
256.330444 216.0
256.377472 48.0
256.418915 304.0
256.463074 136.0
256.545319 140.0
256.583618 196.0
256.635681 60.0
256.699463 80.0
256.766418 192.0
256.833405 140.0
256.865295 180.0
256.891663 200.0
256.929535 180.0
256.972534 92.0
257.03125 208.0
257.102997 47576.0
257.174896 132.0
257.210144 116.0
257.248535 128.0
257.293274 196.0
257.36319 68.0
257.398315 92.0
257.42569 104.0
257.460724 184.0
257.520386 52.0
257.555267 132.0
257.589935 56.0
257.634644 84.0
257.678589 96.0
257.731232 180.0
257.779388 68.0
257.816803 200.0
257.857727 84.0
257.890686 64.0
257.938232 132.0
257.993622 100.0
258.027771 168.0
258.107727 9264.0
258.157715 56.0
258.203644 132.0
258.243469 116.0
258.281616 156.0
258.31897 68.0
258.353973 44.0
258.401947 136.0
258.449951 52.0
258.483307 152.0
258.559875 116.0
258.596832 76.0
258.720947 108.0
258.799957 148.0
258.834076 36.0
258.886017 180.0
258.920532 68.0
258.961731 164.0
259.005676 136.0
259.035217 208.0
259.082001 7480.0
259.115082 2756.0
259.18634 184.0
259.212341 144.0
259.277985 128.0
259.311768 244.0
259.385132 64.0
259.419006 92.0
259.470398 80.0
259.519775 76.0
259.571075 160.0
259.596497 108.0
259.628601 80.0
259.664673 112.0
259.697296 144.0
259.740906 148.0
259.781158 144.0
259.834106 96.0
259.904846 80.0
259.944336 124.0
259.950775 88.0
259.978149 144.0
260.021759 116.0
260.086212 2244.0
260.124268 1076.0
260.196777 48.0
260.236755 80.0
260.27063 180.0
260.331573 108.0
260.376587 76.0
260.415131 80.0
260.453674 28.0
260.514832 112.0
260.537201 192.0
260.575745 148.0
260.598236 204.0
260.683929 124.0
260.73349 184.0
260.77713 208.0
260.825317 88.0
260.861786 92.0
260.90274 80.0
260.960052 196.0
260.995148 156.0
261.02356 148.0
261.098206 99148.0
261.170837 144.0
261.212006 108.0
261.261597 192.0
261.2883 260.0
261.339172 144.0
261.364197 204.0
261.424072 188.0
261.509155 88.0
261.554565 188.0
261.597809 208.0
261.629395 112.0
261.678955 96.0
261.706207 120.0
261.7341 168.0
261.781891 92.0
261.814178 56.0
261.845032 296.0
261.868927 124.0
261.892517 116.0
261.937714 136.0
261.978455 312.0
262.002563 132.0
262.03717 128.0
262.100647 11744.0
262.187897 48.0
262.216919 120.0
262.245178 52.0
262.272552 92.0
262.306519 56.0
262.356903 56.0
262.451691 48.0
262.472382 144.0
262.505432 68.0
262.562683 96.0
262.631073 132.0
262.684448 68.0
262.716339 68.0
262.78006 120.0
262.803833 128.0
262.82962 68.0
262.947052 176.0
262.97818 152.0
263.024384 140.0
263.102356 2280.0
263.178253 76.0
263.217743 76.0
263.262848 80.0
263.306183 52.0
263.373779 116.0
263.459473 56.0
263.504669 132.0
263.578766 144.0
263.604614 56.0
263.646637 56.0
263.670471 132.0
263.701569 60.0
263.79248 132.0
263.835022 100.0
263.898773 84.0
263.924652 72.0
263.975372 116.0
264.011078 276.0
264.108765 148.0
264.178436 76.0
264.251343 76.0
264.286926 64.0
264.312805 52.0
264.345154 144.0
264.373688 84.0
264.432556 64.0
264.695526 52.0
264.822205 84.0
264.85672 116.0
264.957123 44.0
264.996002 96.0
265.051086 72.0
265.086548 136.0
265.200165 76.0
265.23584 84.0
265.260284 148.0
265.537384 36.0
265.566559 48.0
265.700775 100.0
265.744995 88.0
265.871552 148.0
265.912781 204.0
265.968903 72.0
266.127991 44.0
266.187714 132.0
266.228668 76.0
266.407288 112.0
266.488525 48.0
266.602264 80.0
266.748535 36.0
266.86557 64.0
266.891571 88.0
267.031403 56.0
267.135498 36.0
267.246124 56.0
267.546753 64.0
267.58786 56.0
267.92334 164.0
268.239441 68.0
268.425262 36.0
268.480713 92.0
268.643799 120.0
268.911377 96.0
269.087646 116.0
269.156219 72.0
269.299927 128.0
269.56781 188.0
269.607025 44.0
269.656067 244.0
269.777008 144.0
269.858734 64.0
269.979736 48.0
270.022247 144.0
270.110565 44.0
270.283936 84.0
270.369049 72.0
270.450867 76.0
270.752075 92.0
270.874817 76.0
270.912567 96.0
271.226349 72.0
271.246826 168.0
271.489471 28.0
271.666595 128.0
271.778137 52.0
271.820801 40.0
271.850311 104.0
272.090546 64.0
272.36908 140.0
272.526764 68.0
273.009491 212.0
273.052734 132.0
273.097809 1304.0
273.141541 36.0
273.434387 72.0
273.487061 80.0
273.58252 80.0
273.648376 32.0
273.83606 108.0
273.905243 144.0
274.004059 180.0
274.101898 276.0
274.182007 88.0
274.328918 136.0
274.369904 44.0
274.413635 196.0
274.571045 64.0
274.610626 168.0
274.646271 64.0
274.709564 128.0
274.755768 192.0
274.816437 164.0
274.850128 60.0
274.872986 144.0
275.044128 188.0
275.055237 240.0
275.113007 62644.0
275.197632 160.0
275.266174 144.0
275.309692 64.0
275.367096 60.0
275.414642 108.0
275.435822 176.0
275.49649 76.0
275.558044 100.0
275.598053 112.0
275.647247 28.0
275.707886 48.0
275.748535 124.0
275.792664 76.0
275.815826 96.0
275.95459 104.0
276.008972 64.0
276.046417 184.0
276.068756 220.0
276.115967 8332.0
276.211426 88.0
276.221832 116.0
276.303528 92.0
276.336884 136.0
276.367493 44.0
276.385651 124.0
276.452972 112.0
276.466644 72.0
276.493744 116.0
276.546814 76.0
276.59317 112.0
276.642822 76.0
276.69577 176.0
276.755371 60.0
276.798431 76.0
276.840302 68.0
276.869476 80.0
276.956909 168.0
276.980591 32.0
277.00708 108.0
277.035248 56.0
277.066711 64.0
277.114166 1388.0
277.169434 68.0
277.196838 200.0
277.240753 76.0
277.254669 100.0
277.34906 100.0
277.384857 104.0
277.421326 100.0
277.457245 48.0
277.559021 128.0
277.624634 76.0
277.656738 76.0
277.740265 152.0
277.796051 56.0
277.843719 120.0
277.875671 136.0
277.929169 296.0
277.961945 256.0
278.05777 128.0
278.079498 124.0
278.116669 168.0
278.153687 220.0
278.201569 144.0
278.249329 96.0
278.300537 112.0
278.340363 80.0
278.612732 92.0
278.752289 64.0
278.901825 48.0
278.985931 160.0
279.071381 56.0
279.135834 116.0
279.171143 52.0
279.227692 92.0
279.374054 72.0
279.99649 92.0
280.239655 64.0
280.346313 56.0
280.422943 184.0
280.486298 76.0
280.652985 80.0
280.954315 104.0
281.105713 72.0
281.20343 104.0
281.296875 84.0
281.326935 100.0
281.670898 116.0
281.776917 136.0
282.851288 92.0
283.323486 32.0
283.447449 44.0
283.635132 92.0
283.695465 96.0
283.866455 68.0
284.681915 56.0
285.232941 32.0
285.367432 56.0
285.512024 112.0
286.14801 112.0
286.420776 132.0
286.804901 136.0
287.010559 88.0
287.074646 100.0
287.422089 80.0
287.465942 48.0
287.526703 100.0
287.712341 208.0
287.739349 96.0
288.671967 136.0
289.054199 180.0
289.280975 112.0
289.721222 116.0
289.829651 80.0
289.853363 60.0
290.048737 108.0
290.099091 1404.0
290.338135 164.0
290.453461 176.0
290.728271 196.0
290.75882 76.0
290.799561 104.0
290.833496 152.0
290.881012 80.0
290.972687 108.0
291.042175 192.0
291.144897 23160.0
291.223969 40.0
291.268127 144.0
291.295319 36.0
291.329285 60.0
291.384491 80.0
291.457825 124.0
291.497253 116.0
291.598969 56.0
291.641296 88.0
291.730286 32.0
291.784668 92.0
291.930878 52.0
292.032928 92.0
292.093323 100.0
292.105438 76.0
292.147369 2976.0
292.454834 76.0
292.517242 48.0
292.553558 72.0
292.628448 48.0
292.744232 84.0
292.805542 108.0
293.026947 60.0
293.147888 688.0
293.623505 96.0
293.688843 100.0
293.72583 64.0
293.930511 80.0
294.002197 132.0
294.108002 56.0
294.138702 148.0
294.196747 64.0
294.31781 120.0
294.401611 48.0
294.459686 72.0
294.630463 32.0
294.678314 52.0
294.989502 64.0
295.030334 92.0
295.34494 104.0
295.716431 56.0
295.865082 48.0
295.984924 120.0
296.365143 32.0
296.563904 80.0
296.910187 60.0
297.043945 200.0
297.09198 84.0
297.939941 52.0
298.331726 120.0
304.190735 96.0
305.080048 52.0
305.786163 56.0
305.90451 112.0
307.085785 56.0
308.636353 36.0
309.06308 64.0
310.962494 60.0
311.152039 100.0
312.171021 40.0
314.464569 112.0
316.564575 76.0
317.181061 48.0
318.330597 56.0
320.126465 64.0
320.325928 40.0
320.664429 120.0
322.406097 68.0
323.601379 136.0
325.016663 52.0
327.201965 68.0
330.888214 116.0
331.714203 56.0
334.201996 88.0
338.428772 56.0
340.599884 92.0
340.798248 92.0
343.294006 80.0
344.707886 60.0
347.603699 88.0
349.770477 44.0
350.690521 132.0
351.406525 40.0
351.776001 72.0
352.362335 64.0
354.382751 52.0
354.570099 116.0
354.712555 48.0
355.256287 64.0
356.765991 128.0
361.102417 180.0
362.692719 128.0
363.747223 56.0
365.263428 72.0
366.112213 92.0
367.095428 56.0
367.896667 92.0
368.35495 52.0
369.272308 68.0
369.356445 40.0
369.815613 40.0
370.558533 84.0
371.428772 104.0
372.277863 72.0
378.299683 64.0
378.65979 64.0
379.299133 60.0
380.909515 44.0
381.115417 156.0
381.881256 52.0
382.753021 48.0
382.869843 48.0
383.084076 100.0
383.957184 88.0
384.589264 56.0
386.821259 72.0
387.126648 124.0
387.679871 112.0
392.352631 92.0
392.577362 88.0
393.441498 40.0
395.29129 88.0
395.532715 112.0
395.924713 120.0
397.391388 72.0
399.855194 36.0
401.157715 116.0
401.751892 64.0
403.037537 76.0
405.743195 44.0
407.308289 76.0
408.679199 48.0
409.150116 88.0
410.645111 116.0
414.96402 44.0
415.300598 76.0
416.684875 148.0
419.386993 52.0
419.782471 60.0
420.100616 108.0
420.276062 88.0
420.847504 140.0
421.063934 104.0
424.472931 112.0
424.899506 88.0
426.47641 116.0
428.118011 52.0
428.711243 88.0
430.943665 48.0
431.824188 40.0
432.56485 92.0
436.444 36.0
436.647766 80.0
437.700653 84.0
437.808929 72.0
437.888062 112.0
438.208832 164.0
440.194305 60.0
441.264008 76.0
441.32254 48.0
443.788757 52.0
445.425507 84.0
447.679901 108.0
449.226776 44.0
450.767853 96.0
454.91864 100.0
457.68219 108.0
459.958832 92.0
461.488281 160.0
462.386597 80.0
462.489319 76.0
462.780457 32.0
462.90033 52.0
462.947449 64.0
463.654327 100.0
466.581818 52.0
470.498047 92.0
473.862854 104.0
474.712463 84.0
476.596375 88.0
479.319672 52.0
482.957062 40.0
483.23703 28.0
483.849762 84.0
488.132233 52.0
496.687225 104.0
498.703125 108.0
499.258881 92.0
500.700836 68.0
503.747314 56.0
504.359497 76.0
505.124146 60.0
505.799835 96.0
507.435028 64.0
508.93811 68.0
510.87973 56.0
511.62677 124.0
511.910461 56.0
512.302307 128.0
512.342834 44.0
512.387878 144.0
513.027893 84.0
513.361511 76.0
513.803589 88.0
514.724365 100.0
514.855286 92.0
518.474609 40.0
521.597351 64.0
521.929199 68.0
524.32373 32.0
526.189453 52.0
526.37207 52.0
527.230896 88.0
527.834351 32.0
528.122498 76.0
532.242493 56.0
534.770996 56.0
538.912231 92.0
540.641724 76.0
541.294434 132.0
541.975342 32.0
542.299744 96.0
544.69873 88.0
548.062378 56.0
550.207886 112.0
553.616638 128.0
555.482056 48.0
555.514893 108.0
557.29425 120.0
562.026428 100.0
566.859131 72.0
570.556641 40.0
576.81604 60.0
580.277344 64.0
580.675354 156.0
581.898987 84.0
582.513733 120.0
585.471802 96.0
586.777649 92.0
591.095825 60.0
592.349854 80.0
592.96521 112.0
598.162476 112.0
603.460693 52.0
604.91864 84.0
605.476807 36.0
606.118591 124.0
608.237305 100.0
610.428528 108.0
628.279968 76.0
630.410217 76.0
634.832458 68.0
642.427551 40.0
644.426819 100.0
650.19458 48.0
653.339966 40.0
654.683716 104.0
661.392639 80.0
661.464294 168.0
668.490723 88.0
674.333984 76.0
674.561401 156.0
675.342224 52.0
675.399109 60.0
685.684937 176.0
690.326111 144.0
696.789124 52.0
696.878418 80.0
700.96698 124.0
701.931641 60.0
702.796692 196.0
709.83197 72.0
710.468445 60.0
714.378479 72.0
721.150574 96.0
722.58374 52.0
727.224487 88.0
731.23407 44.0
736.966553 56.0
738.842651 96.0
741.17627 28.0
743.171692 124.0
743.307312 84.0
745.653381 68.0
748.226379 76.0
749.84967 200.0
756.35498 44.0
759.516724 116.0
771.328247 96.0
780.190308 52.0
786.56543 44.0
790.125244 76.0
791.082275 88.0
796.10614 136.0
799.411682 36.0
799.541077 108.0
800.875488 120.0
802.876343 104.0
803.660461 68.0
804.85144 52.0
807.869568 72.0
820.962036 148.0
821.441162 68.0
822.09729 128.0
823.821655 76.0
832.832336 64.0
832.941467 72.0
840.431641 168.0
841.799683 64.0
846.825439 128.0
849.46283 48.0
857.388 152.0
862.395752 112.0
867.634949 52.0
871.109131 76.0
873.778198 212.0
878.24353 60.0
880.232422 36.0
884.631348 144.0
893.401733 128.0
894.283264 48.0
894.402283 68.0
894.503479 48.0
903.084106 208.0
904.807556 84.0
905.340454 132.0
910.750366 132.0
911.477356 52.0
913.17865 96.0
917.683167 160.0
918.25 60.0
920.863464 56.0
927.489014 52.0
929.587463 96.0
930.607239 64.0
932.514771 136.0
933.232117 56.0
937.700378 80.0
942.301514 60.0
947.532654 108.0
951.353455 84.0
954.191833 196.0
954.634521 144.0
956.775818 32.0
968.948792 160.0
971.447266 108.0
972.222839 52.0
974.483154 128.0
980.84967 52.0
982.963989 56.0
985.774048 196.0
986.392822 252.0
988.037537 116.0
988.8573 248.0
989.358093 72.0
991.281006 84.0
991.920288 108.0
993.889587 200.0
994.881226 80.0
995.163757 268.0
995.684998 100.0
996.237732 252.0
996.928894 96.0
998.047852 40.0
998.764771 244.0
1000.847961 56.0
1002.397522 216.0
1004.263672 196.0
1004.825134 140.0
1005.355164 108.0
1005.967407 188.0
1007.767395 100.0
1009.138916 88.0
1010.777222 172.0
1011.606323 176.0
1014.070374 88.0
1015.38916 156.0
1016.556458 72.0
1021.575989 224.0
1025.141602 44.0
1026.735352 36.0
1026.869263 68.0
1027.009644 176.0
1027.488037 120.0
1027.704956 152.0
1028.426147 156.0
1029.351807 168.0
1031.93335 168.0
1036.369019 116.0
1037.221313 136.0
1037.580322 200.0
1042.368652 236.0
1043.96936 64.0
1044.400269 180.0
1045.32666 172.0
1047.341919 68.0
1048.153687 120.0
1048.727173 92.0
1051.05542 132.0
1052.462524 116.0
1052.921021 188.0
1055.493042 116.0
1055.570679 232.0
1056.566772 192.0
1058.68335 196.0
1059.233887 48.0
1059.674438 40.0
1060.802124 152.0
1062.390991 140.0
1065.338257 152.0
1065.429321 76.0
1065.650146 96.0
1066.423462 84.0
1069.682373 204.0
1070.991211 112.0
1071.479736 116.0
1072.691895 136.0
1074.002563 196.0
1074.354858 104.0
1075.294556 216.0
1075.379395 48.0
1075.536011 52.0
1076.613281 132.0
1077.959106 168.0
1078.808716 188.0
1082.8396 176.0
1085.441284 184.0
1086.497314 116.0
1087.855835 68.0
1087.901733 196.0
1088.092163 212.0
1090.917114 64.0
1091.620605 172.0
1092.442749 168.0
1094.845337 92.0
1095.299805 144.0
1095.615967 116.0
1099.090698 64.0
1099.559204 108.0
1100.041016 144.0
1100.338135 80.0
1100.767334 272.0
1101.341919 84.0
1101.77124 112.0
1103.952515 244.0
1104.660278 156.0
1106.023438 184.0
1106.506714 196.0
1108.699219 124.0
1109.043945 152.0
1109.600708 128.0
1109.879272 164.0
1111.603882 180.0
1111.955688 212.0
1115.236816 108.0
1115.875 116.0
1116.599731 108.0
1116.912354 132.0
1117.437988 144.0
1117.69751 180.0
1118.269775 88.0
1118.569336 188.0
1122.753662 164.0
1123.70752 212.0
1124.208008 184.0
1126.170898 64.0
1127.259888 180.0
1127.467041 164.0
1128.984619 224.0
1129.934448 92.0
1131.868896 92.0
1132.866821 184.0
1132.995728 116.0
1133.530151 220.0
1133.610596 172.0
1135.588379 180.0
1135.870117 124.0
1135.997559 36.0
1138.380249 144.0
1138.534668 148.0
1142.170898 132.0
1142.803345 128.0
1143.954224 36.0
1144.452393 92.0
1148.151978 104.0
1148.307129 148.0
1148.475708 124.0
1148.698364 216.0
1149.379761 176.0
1150.40564 152.0
1152.039917 136.0
1152.364258 192.0
1153.357666 116.0
1154.845215 156.0
1156.117188 124.0
1157.606567 208.0
1161.05603 76.0
1161.869995 172.0
1164.83667 168.0
1165.108398 200.0
1166.372314 184.0
1166.440308 72.0
1166.576294 64.0
1166.970581 132.0
1167.739014 196.0
1168.310425 48.0
1170.365967 176.0
1170.440796 148.0
1171.523804 212.0
1171.878052 156.0
1173.036621 96.0
1173.118408 64.0
1173.241089 192.0
1173.418457 164.0
1173.50708 124.0
1173.595703 96.0
1173.970703 252.0
1176.167725 164.0
1176.590942 140.0
1177.00061 116.0
1177.847534 68.0
1178.421387 184.0
1179.009033 180.0
1179.405396 96.0
1184.791016 176.0
1185.298096 164.0
1186.05188 132.0
1188.555176 204.0
1188.747314 132.0
1189.008057 56.0
1189.145386 124.0
1189.751587 172.0
1189.818115 192.0
1190.806885 176.0
1192.187866 136.0
1193.672729 168.0
1197.960693 180.0
1198.725586 192.0
1198.870239 132.0
1199.64917 52.0
1199.786987 108.0
1200.331665 188.0
1204.431274 236.0
1205.087646 156.0
1205.191284 164.0
1205.253418 212.0
1205.439941 180.0
1205.536743 36.0
1206.691162 120.0
1207.168213 144.0
1207.562378 168.0
1208.095093 156.0
1208.524048 180.0
1210.122925 164.0
1210.434448 184.0
1210.67688 164.0
1211.88916 156.0
1212.270264 100.0
1214.627563 156.0
1215.328247 116.0
1215.501709 176.0
1219.342163 104.0
1219.439453 176.0
1222.485596 168.0
1223.383545 188.0
1223.766479 152.0
1224.23999 200.0
1224.964355 96.0
1225.312622 128.0
1225.877075 148.0
1226.225586 68.0
1227.870972 160.0
1228.380127 148.0
1229.084839 120.0
1230.313232 160.0
1230.711182 192.0
1231.165039 140.0
1232.513306 200.0
1233.100342 48.0
1233.799438 148.0
1234.386719 192.0
1234.603516 52.0
1235.589844 136.0
1236.50647 168.0
1236.66748 160.0
1236.877441 88.0
1237.035522 240.0
1237.192505 136.0
1237.661621 148.0
1238.067749 200.0
1238.256836 136.0
1238.319824 116.0
1238.782104 72.0
1239.013306 152.0
1242.329346 160.0
1242.883667 188.0
1243.248535 176.0
1243.353882 192.0
1243.550415 188.0
1243.845215 116.0
1245.347778 88.0
1245.432129 124.0
1245.481323 156.0
1246.190796 168.0
1246.521118 148.0
1246.661621 148.0
1247.575439 132.0
1247.793335 144.0
1247.969116 184.0
1248.067505 48.0
1249.284302 44.0
1250.114624 204.0
1250.966187 76.0
1254.692993 96.0
1254.841064 128.0
1255.849487 160.0
1256.371582 192.0
1257.182983 184.0
1258.55249 144.0
1261.533936 172.0
1262.318726 40.0
1262.835083 240.0
1263.28064 116.0
1263.422119 148.0
1263.86084 176.0
1263.938721 276.0
1265.297607 160.0
1266.012817 220.0
1266.848633 88.0
1267.861938 156.0
1268.443115 228.0
1268.669922 128.0
1269.301025 184.0
1271.336914 124.0
1273.367432 64.0
1273.928589 120.0
1275.101074 152.0
1275.392456 148.0
1275.882935 44.0
1276.112061 224.0
1276.30249 60.0
1277.625366 144.0
1279.176758 92.0
1279.660889 164.0
1280.187744 188.0
1280.543945 164.0
1281.477051 152.0
1281.655273 116.0
1281.983032 172.0
1282.260986 132.0
1282.339355 164.0
1282.624512 184.0
1282.866821 88.0
1283.094971 56.0
1283.394409 176.0
1283.729614 120.0
1284.499878 180.0
1285.00647 164.0
1285.334595 100.0
1285.641479 140.0
1286.112549 112.0
1286.72644 168.0
1286.990723 180.0
1288.226318 164.0
1288.990723 212.0
1289.076538 168.0
1289.591064 236.0
1289.927002 236.0
1290.54187 192.0
1290.682617 204.0
1290.985229 136.0
1291.929443 236.0
1292.680664 76.0
1293.489502 200.0
1295.071899 128.0
1295.766846 208.0
1296.970703 156.0
1298.089233 184.0
1299.796509 168.0
1300.772583 128.0
1301.188965 96.0
1301.346924 84.0
1302.050659 152.0
1302.115234 72.0
1302.179932 188.0
1302.783325 168.0
1303.207153 176.0
1303.279053 148.0
1303.861084 84.0
1304.515259 224.0
1304.579956 168.0
1307.249268 188.0
1307.48584 156.0
1308.27771 60.0
1308.572876 156.0
1308.824829 128.0
1309.069702 184.0
1309.609863 112.0
1309.660278 248.0
1310.42395 220.0
1310.712158 100.0
1311.094116 176.0
1312.276245 88.0
1312.737793 184.0
1313.127197 184.0
1314.577271 164.0
1314.959839 132.0
1315.638306 116.0
1316.049927 132.0
1316.317017 152.0
1316.475952 160.0
1317.147583 140.0
1317.248779 136.0
1318.325317 188.0
1319.178223 232.0
1319.590332 164.0
1320.110962 172.0
1320.225952 200.0
1321.528687 120.0
1322.911133 160.0
1324.496948 108.0
1324.873657 168.0
1325.677979 132.0
1325.779419 172.0
1326.540405 236.0
1327.436157 204.0
1327.717773 164.0
1328.335449 264.0
1328.418701 144.0
1328.991821 188.0
1329.318359 128.0
1329.478027 88.0
1330.566895 96.0
1330.842773 160.0
1331.670654 152.0
1331.801392 156.0
1331.946655 140.0
1332.171875 92.0
1332.309814 288.0
1333.370728 200.0
1334.170532 168.0
1334.693848 124.0
1334.984741 88.0
1335.186768 148.0
1335.748413 124.0
1336.657837 136.0
1337.698608 140.0
1338.776245 56.0
1339.009277 32.0
1339.677734 184.0
1340.102051 164.0
1341.333618 120.0
1341.428467 100.0
1342.186646 128.0
1342.748169 168.0
1343.411987 88.0
1343.798706 84.0
1345.469971 180.0
1345.762085 156.0
1345.988403 108.0
1346.22937 240.0
1346.762573 196.0
1347.91687 192.0
1348.201904 164.0
1348.742798 212.0
1349.1521 164.0
1350.53418 180.0
1351.104858 152.0
1352.034058 76.0
1352.224365 184.0
1353.035645 164.0
1355.072998 168.0
1356.172241 120.0
1356.883301 212.0
1357.293945 120.0
1358.298706 172.0
1359.509399 68.0
1359.795532 164.0
1360.18457 36.0
1361.136353 184.0
1361.256592 176.0
1361.520874 152.0
1362.39502 220.0
1363.15918 160.0
1363.570679 68.0
1364.026489 128.0
1364.629272 176.0
1365.026367 200.0
1366.159058 236.0
1367.822144 164.0
1368.21228 208.0
1368.985474 164.0
1369.206421 132.0
1371.357788 96.0
1371.586304 216.0
1371.792725 244.0
1371.88855 88.0
1372.161377 124.0
1372.227661 232.0
1372.839722 180.0
1373.134766 116.0
1373.363403 168.0
1373.828125 132.0
1374.260986 212.0
1375.444214 244.0
1375.503296 100.0
1375.916626 92.0
1377.257202 164.0
1377.740845 164.0
1378.154541 204.0
1379.115356 216.0
1379.558838 176.0
1379.640137 144.0
1380.231689 168.0
1380.889893 132.0
1381.333618 168.0
1381.696167 216.0
1383.020752 176.0
1383.131836 236.0
1383.309448 48.0
1383.464966 176.0
1383.657471 184.0
1383.790649 120.0
1384.175781 132.0
1384.39624 164.0
1384.701538 252.0
1384.894165 164.0
1385.057129 120.0
1385.338623 60.0
1386.057251 124.0
1386.272217 236.0
1386.450073 120.0
1386.983643 184.0
1387.369141 112.0
1387.784302 224.0
1388.481445 168.0
1388.629761 180.0
1388.94873 100.0
1389.008057 144.0
1389.616333 116.0
1390.113525 172.0
1391.100708 184.0
1391.249146 140.0
1391.345703 176.0
1391.553589 120.0
1391.672363 140.0
1392.377808 144.0
1393.893311 136.0
1394.264893 80.0
1394.361572 192.0
1394.525024 196.0
1395.216431 176.0
1395.498901 156.0
1396.60144 160.0
1397.789917 92.0
1397.975952 160.0
1398.519287 56.0
1398.75 224.0
1399.047729 132.0
1399.501953 176.0
1399.650879 136.0
1400.410522 136.0
1401.173706 160.0
1402.630981 152.0
1402.720459 160.0
1402.876953 148.0
1403.659912 108.0
1404.099854 104.0
1404.718994 200.0
1405.390381 108.0
1405.591919 168.0
1406.987671 164.0
1407.525269 144.0
1407.584961 156.0
1407.689453 128.0
1407.786621 144.0
1407.950928 188.0
1408.354248 136.0
1409.265625 220.0
1409.362793 152.0
1410.61084 128.0
1411.141724 144.0
1411.911865 72.0
1411.971802 204.0
1412.128784 232.0
1412.188599 144.0
1412.405518 128.0
1413.729858 120.0
1413.819702 184.0
1414.046753 212.0
1414.493286 176.0
1414.598877 120.0
1415.309326 148.0
1415.376709 48.0
1415.54895 172.0
1416.065674 124.0
1416.223022 144.0
1416.327881 148.0
1416.500122 96.0
1416.614136 168.0
1416.792358 92.0
1416.889771 180.0
1417.072876 232.0
1418.02124 144.0
1418.111206 140.0
1418.456055 140.0
1418.77832 200.0
1418.988281 52.0
1419.370728 144.0
1420.353149 204.0
1420.533203 96.0
1420.585693 124.0
1421.298462 140.0
1424.22644 184.0
1424.947632 204.0
1425.703613 132.0
1426.360474 172.0
1426.706421 152.0
1428.285522 140.0
1428.375732 140.0
1429.125366 208.0
1429.859375 88.0
1432.93042 144.0
1433.397583 100.0
1434.000488 156.0
1434.430054 124.0
1434.678833 140.0
1435.040771 168.0
1436.028687 136.0
1436.458618 104.0
1436.805664 180.0
1437.009399 168.0
1438.820801 216.0
1439.05481 88.0
1439.160522 68.0
1439.893066 124.0
1440.557739 176.0
1440.625732 156.0
1440.746582 148.0
1441.313232 144.0
1441.616455 216.0
1443.006348 192.0
1443.444946 64.0
1443.959229 164.0
1444.03479 136.0
1444.329834 96.0
1445.502563 140.0
1447.137451 144.0
1447.546387 212.0
1448.091675 164.0
1448.455322 136.0
1448.985596 132.0
1449.303833 140.0
1449.872192 252.0
1449.958252 220.0
1450.994019 40.0
1451.236694 192.0
1451.342773 180.0
1451.873657 124.0
1452.63208 216.0
1453.08728 160.0
1453.671631 64.0
1453.990356 272.0
1454.445679 136.0
1454.977173 216.0
1455.341553 204.0
1455.409912 48.0
1455.463013 60.0
1455.54895 184.0
1458.752808 148.0
1459.870483 160.0
1460.405273 164.0
1460.661499 148.0
1460.745239 144.0
1460.973389 48.0
1461.254883 332.0
1461.338623 128.0
1461.985474 44.0
1464.695923 248.0
1465.206421 148.0
1465.366333 172.0
1465.465454 60.0
1465.815918 116.0
1466.265503 152.0
1466.913452 96.0
1467.119263 116.0
1467.180298 160.0
1468.034302 176.0
1468.293579 200.0
1468.430908 192.0
1469.212402 192.0
1469.865112 92.0
1470.345825 164.0
1470.620605 144.0
1470.750366 84.0
1470.834351 116.0
1470.97937 80.0
1471.475586 136.0
1472.170532 92.0
1472.300293 120.0
1472.35376 188.0
1473.789917 96.0
1475.631958 164.0
1476.044922 132.0
1476.274292 140.0
1477.704712 156.0
1477.865479 116.0
1478.50061 164.0
1478.944458 148.0
1479.373169 144.0
1479.939697 76.0
1480.659546 68.0
1480.919922 96.0
1481.236206 216.0
1481.517456 176.0
1481.869873 148.0
1482.099731 184.0
1482.912109 164.0
1483.24939 176.0
1483.463989 168.0
1483.686279 188.0
1483.969971 156.0
1484.100342 164.0
1484.307373 160.0
1485.0896 40.0
1485.266113 208.0
1485.918091 196.0
1486.570312 108.0
1486.647095 120.0
1486.869629 76.0
1487.307129 212.0
1487.376221 224.0
1487.560425 196.0
1487.867554 176.0
1488.75061 160.0
1489.189209 172.0
1489.411133 148.0
1490.11792 100.0
1490.256226 136.0
1490.417603 56.0
1490.686523 192.0
1490.786377 140.0
1491.032349 148.0
1491.831787 76.0
1492.062378 192.0
1492.254639 140.0
1492.316162 188.0
1492.639038 180.0
1492.900513 92.0
1493.254272 180.0
1493.315796 228.0
1494.03894 64.0
1494.177368 108.0
1494.719116 208.0
1494.831421 148.0
1495.116211 276.0
1495.248047 172.0
1495.608765 100.0
1496.409424 124.0
1496.917603 116.0
1497.171753 152.0
1497.325806 212.0
1497.818726 152.0
1498.250122 188.0
1498.504395 124.0
1498.905029 120.0
1499.12854 68.0
1499.359741 60.0
1499.629517 232.0
1499.976318 80.0
1500.438843 176.0
1502.474976 192.0
1502.829834 128.0
1503.007324 248.0
1503.130859 176.0
1503.640137 164.0
1503.887085 188.0
1504.720825 176.0
1504.805786 132.0
1505.060547 228.0
