>compound MLS001148466-01!79794-75-5
>formula C22H23ClN2O2
>ionization [M+H]+
>parentmass 383.151672
#inchi InChI=1S/C22H23ClN2O2/c1-2-27-22(26)25-12-9-15(10-13-25)20-19-8-7-18(23)14-17(19)6-5-16-4-3-11-24-21(16)20/h3-4,7-8,11,14H,2,5-6,9-10,12-13H2,1H3
#inchikey JCCNYMKQOSZNPW
#Ion_Source LC-ESI
#Instrument qTof
#Compound_Source NIH Pharmacologically Active Library
#PI Dorrestein
#Data_Collector VP/LMS
#Scan -1
#Precursor_MZ 383.154
#ExactMass 382.145
#Charge 1
#CAS_Number N/A
#Pubmed_ID N/A
#Smiles CCOC(=O)N1CCC(=C2c3ccc(Cl)cc3CCc4cccnc24)CC1
#INCHI_AUX N/A
#Library_Class 1
#SpectrumID CCMSLIB00000084980
#IonMode Positive
#UpdateWorkflowName UPDATE-SINGLE-ANNOTATED-GOLD
#LibraryQualityString Gold
#TaskID d252d724072548979f1f6f1ced849daf
##Scan# 1905
#SpectrumFile p3-D05_GD5_01_18262.mzXML
#LibraryName Pharm_Active_Library.mgf
#MQScore -1
#Organism Pharm_Active_Library
#TIC_Query 0
#RT_Query -1
#MZErrorPPM -1
#SharedPeaks 0
#MassDiff 0
#LibMZ -1
#SpecMZ 383.154
#SpecCharge 0
#internalFilename spec-00000.mgf

>collision 10
44.925758 80.0
44.955681 160.0
44.959049 84.0
44.963638 164.0
44.976337 132.0
44.98835 256.0
45.004372 176.0
45.021732 112.0
45.037762 184.0
45.105911 164.0
45.118603 152.0
45.207561 220.0
45.245041 88.0
45.314075 192.0
45.411209 52.0
45.426651 296.0
45.49575 164.0
45.525291 200.0
45.553131 132.0
45.628761 132.0
45.655655 96.0
45.67852 140.0
45.694298 176.0
45.736385 164.0
45.801018 100.0
45.827965 172.0
45.92638 236.0
45.960106 120.0
45.983047 120.0
45.999249 56.0
46.012749 156.0
46.085262 124.0
46.101902 256.0
46.137043 116.0
46.146507 112.0
46.184376 140.0
46.201729 116.0
46.219414 156.0
46.239632 124.0
46.26828 68.0
46.357677 160.0
46.376652 140.0
46.396988 152.0
46.41597 176.0
46.427559 96.0
46.496212 152.0
46.535381 140.0
46.546242 176.0
46.592426 92.0
46.604652 136.0
46.623676 148.0
46.63863 172.0
46.656994 120.0
46.705257 112.0
46.728386 152.0
46.769421 176.0
46.792511 176.0
46.823677 172.0
46.86591 92.0
46.898617 192.0
47.017693 132.0
47.041096 148.0
47.062328 56.0
47.084179 160.0
47.134724 144.0
47.144291 132.0
47.157959 120.0
47.218121 148.0
47.24802 112.0
47.274738 156.0
47.290634 200.0
47.364578 168.0
47.383759 168.0
47.393349 192.0
47.408424 56.0
47.43858 92.0
47.463257 100.0
47.483437 168.0
47.563412 180.0
47.578514 48.0
47.600483 84.0
47.627953 332.0
47.667797 128.0
47.693909 192.0
47.718655 104.0
47.806778 128.0
47.81908 88.0
47.828712 100.0
47.874149 168.0
47.91404 96.0
47.93063 148.0
47.992661 144.0
48.003693 176.0
48.036797 136.0
48.06715 180.0
48.097515 248.0
48.134792 132.0
48.149982 136.0
48.300644 124.0
48.343536 144.0
48.40168 184.0
48.414143 188.0
48.449482 176.0
48.50975 168.0
48.519455 176.0
48.530548 164.0
48.547188 132.0
48.575516 184.0
48.611 108.0
48.621998 208.0
48.633209 112.0
48.676247 200.0
48.712891 228.0
48.723251 176.0
48.762383 100.0
48.776283 216.0
48.787403 224.0
48.836845 188.0
48.86668 104.0
48.887554 180.0
48.918175 184.0
48.93906 164.0
48.991985 156.0
49.102036 232.0
49.160706 184.0
49.258442 128.0
49.301758 40.0
49.32552 128.0
49.343296 184.0
49.389843 108.0
49.405231 180.0
49.436451 128.0
49.511616 120.0
49.553638 140.0
49.644756 168.0
49.679821 128.0
49.700867 68.0
49.734257 96.0
49.784115 204.0
49.839882 104.0
49.855339 128.0
49.872208 204.0
49.898918 164.0
49.922821 32.0
49.945324 168.0
49.963615 108.0
50.000198 64.0
50.021313 228.0
50.033836 192.0
50.073414 68.0
50.084682 196.0
50.104324 140.0
50.167221 200.0
50.213402 112.0
50.222504 160.0
50.243076 156.0
50.26656 52.0
50.276436 164.0
50.330082 216.0
50.368214 148.0
50.419079 164.0
50.434666 148.0
50.455833 144.0
50.500519 160.0
50.532207 128.0
50.551376 132.0
50.577496 156.0
50.608147 172.0
50.666714 108.0
50.685131 104.0
50.717728 132.0
50.730488 92.0
50.797138 216.0
50.85532 232.0
50.886551 220.0
50.929153 148.0
50.951885 108.0
51.005886 60.0
51.028633 104.0
51.044674 100.0
51.075565 152.0
51.091213 176.0
51.12394 140.0
51.185524 124.0
51.215065 132.0
51.235683 128.0
51.253529 112.0
51.336212 132.0
51.353802 136.0
51.363312 244.0
51.396126 116.0
51.467495 176.0
51.484634 92.0
51.494629 172.0
51.546062 132.0
51.58271 156.0
51.613247 140.0
51.683338 140.0
51.779884 100.0
51.799309 168.0
51.895332 120.0
51.942661 128.0
51.975079 148.0
52.003052 136.0
52.026497 124.0
52.063229 172.0
52.081902 64.0
52.117817 172.0
52.161034 108.0
52.176746 224.0
52.212696 96.0
52.26017 100.0
52.296146 116.0
52.362564 188.0
52.373901 148.0
52.443066 136.0
52.470455 116.0
52.484875 100.0
52.505066 144.0
52.523815 116.0
52.555061 92.0
52.567101 124.0
52.606071 176.0
52.662922 156.0
52.689098 112.0
52.699947 112.0
52.755344 220.0
52.782341 120.0
52.795357 184.0
52.828503 140.0
52.83102 128.0
52.836479 224.0
52.881653 192.0
52.890594 136.0
53.045719 176.0
53.135769 76.0
53.150276 80.0
53.169144 108.0
53.182785 216.0
53.216785 176.0
53.282406 52.0
53.341991 92.0
53.356529 164.0
53.534054 200.0
53.548618 136.0
53.559269 176.0
53.621468 116.0
53.638535 96.0
53.642555 188.0
53.647507 184.0
53.676865 144.0
53.714149 220.0
53.822792 432.0
53.86816 128.0
53.909927 148.0
53.92944 104.0
54.012787 168.0
54.030342 140.0
54.042049 116.0
54.061073 124.0
54.102055 148.0
54.125484 144.0
54.184071 104.0
54.235363 48.0
54.266151 128.0
54.364433 132.0
54.379108 140.0
54.420212 140.0
54.438473 136.0
54.462803 148.0
54.492184 164.0
54.510674 144.0
54.559792 132.0
54.620087 148.0
54.737045 172.0
54.767288 116.0
54.790859 108.0
54.818855 132.0
54.838013 180.0
54.861599 136.0
54.938286 76.0
54.96423 96.0
54.993637 236.0
55.060802 264.0
55.089134 200.0
55.102165 192.0
55.14502 160.0
55.171631 132.0
55.217468 116.0
55.290337 112.0
55.304035 176.0
55.318089 140.0
55.334373 48.0
55.365471 152.0
55.395096 108.0
55.4188 52.0
55.459732 188.0
55.480244 88.0
55.516636 72.0
55.538887 112.0
55.564106 156.0
55.577457 108.0
55.595264 88.0
55.611591 52.0
55.636829 60.0
55.668453 188.0
55.691772 144.0
55.720177 132.0
55.757149 144.0
55.789848 72.0
55.887138 340.0
55.90736 156.0
55.919266 140.0
55.931175 108.0
55.966904 128.0
55.978817 168.0
56.034946 172.0
56.066715 124.0
56.098015 64.0
56.108452 108.0
56.127834 168.0
56.169598 48.0
56.324295 196.0
56.356216 112.0
56.372654 136.0
56.465347 140.0
56.484791 244.0
56.511719 220.0
56.523689 124.0
56.538654 104.0
56.561108 136.0
56.625492 180.0
56.638973 124.0
56.665939 148.0
56.697411 56.0
56.718391 136.0
56.731884 120.0
56.794868 188.0
56.837814 64.0
56.857883 196.0
56.872894 148.0
56.890907 196.0
56.943466 156.0
56.962818 172.0
57.012577 272.0
57.04414 96.0
57.076843 32.0
57.114819 160.0
57.140392 188.0
57.154926 164.0
57.262325 168.0
57.334644 176.0
57.355747 128.0
57.4249 176.0
57.477909 120.0
57.494511 212.0
57.506111 140.0
57.51218 96.0
57.517529 112.0
57.545834 160.0
57.565197 136.0
57.634953 132.0
57.666061 164.0
57.676464 180.0
57.747581 144.0
57.763466 184.0
57.779652 160.0
57.861835 92.0
57.936047 176.0
57.987568 168.0
58.024857 100.0
58.045177 216.0
58.093712 52.0
58.168072 56.0
58.180218 132.0
58.227291 64.0
58.257671 112.0
58.276619 156.0
58.344296 136.0
58.430267 196.0
58.497952 140.0
58.551041 212.0
58.583233 124.0
58.690807 124.0
58.789074 136.0
58.900703 144.0
58.925667 160.0
58.972351 164.0
58.989609 124.0
59.016685 208.0
59.061531 260.0
59.174362 160.0
59.211037 128.0
59.306892 164.0
59.348957 164.0
59.362759 148.0
59.387909 212.0
59.405682 156.0
59.464016 212.0
59.474758 52.0
59.536667 212.0
59.547474 168.0
59.606842 164.0
59.719074 212.0
59.763687 180.0
59.792927 128.0
59.843727 128.0
59.876125 100.0
59.906872 32.0
59.948475 220.0
59.996372 160.0
60.119656 32.0
60.135777 108.0
60.153305 120.0
60.23674 188.0
60.252453 240.0
60.269447 52.0
60.280266 84.0
60.315811 184.0
60.349827 124.0
60.397766 168.0
60.430256 132.0
60.496807 180.0
60.518482 48.0
60.52932 136.0
60.556587 148.0
60.597477 208.0
60.648617 192.0
60.679623 124.0
60.716839 108.0
60.757168 128.0
60.772686 132.0
60.800537 152.0
60.878242 96.0
60.89222 156.0
60.980782 180.0
60.991661 164.0
61.018089 116.0
61.079082 440.0
61.103634 104.0
61.159657 160.0
61.186562 184.0
61.240623 200.0
61.253086 84.0
61.323208 192.0
61.355942 104.0
61.377769 132.0
61.401165 148.0
61.423 164.0
61.449936 180.0
61.501022 96.0
61.583778 204.0
61.666393 160.0
61.727562 136.0
61.761971 164.0
61.788956 180.0
61.812035 128.0
61.843334 100.0
61.855335 168.0
61.877777 156.0
61.902828 52.0
61.927887 148.0
61.941986 136.0
61.959217 192.0
61.974953 184.0
62.0219 124.0
62.048935 164.0
62.107582 228.0
62.125401 132.0
62.136383 100.0
62.161488 116.0
62.192879 168.0
62.237621 112.0
62.261963 124.0
62.274529 100.0
62.32201 160.0
62.3358 112.0
62.378235 148.0
62.392384 88.0
62.47102 56.0
62.568592 136.0
62.626484 84.0
62.646881 124.0
62.716675 236.0
62.749779 140.0
62.773434 260.0
62.799534 224.0
62.830215 96.0
62.850727 64.0
62.898075 148.0
62.965969 200.0
62.980186 144.0
62.999142 156.0
63.018345 208.0
63.056026 180.0
63.103451 184.0
63.142986 168.0
63.272743 144.0
63.313915 172.0
63.331421 208.0
63.369358 196.0
63.391541 124.0
63.404221 68.0
63.421654 104.0
63.447018 200.0
63.490269 116.0
63.569153 144.0
63.580265 180.0
63.613598 108.0
63.643761 164.0
63.739071 160.0
63.783573 128.0
63.845985 204.0
63.863075 68.0
63.899666 184.0
63.917965 128.0
63.982426 100.0
64.038162 132.0
64.054825 208.0
64.084358 120.0
64.156082 116.0
64.183189 72.0
64.291664 144.0
64.430588 200.0
64.441368 80.0
64.480904 196.0
64.523605 100.0
64.554268 144.0
64.612846 152.0
64.638451 184.0
64.670456 144.0
64.681938 140.0
64.779343 120.0
64.819397 152.0
64.837029 136.0
64.899544 148.0
64.950867 100.0
64.968086 180.0
65.001907 64.0
65.0327 100.0
65.0905 128.0
65.112984 180.0
65.132256 112.0
65.156349 160.0
65.18206 280.0
65.209381 112.0
65.222244 120.0
65.2351 48.0
65.272079 96.0
65.289772 80.0
65.302635 80.0
65.338028 52.0
65.378258 108.0
65.393486 180.0
65.468414 192.0
65.482903 92.0
65.547348 252.0
65.58873 172.0
65.639229 48.0
65.65213 212.0
65.709442 160.0
65.786057 148.0
65.803818 64.0
65.819962 140.0
65.840958 120.0
65.863571 124.0
65.907188 140.0
65.957291 160.0
66.017113 156.0
66.091522 108.0
66.156265 148.0
66.203224 84.0
66.274498 296.0
66.305756 208.0
66.318253 108.0
66.365273 116.0
66.37986 152.0
66.418785 240.0
66.508842 176.0
66.538879 192.0
66.596397 152.0
66.698082 180.0
66.712097 148.0
66.743607 72.0
66.801125 140.0
66.873756 32.0
66.935623 212.0
66.960793 168.0
66.975723 192.0
67.004028 204.0
67.092041 140.0
67.114868 48.0
67.131172 128.0
67.178474 144.0
67.198051 156.0
67.212738 64.0
67.224159 128.0
67.241615 92.0
67.264732 140.0
67.277557 140.0
67.344109 240.0
67.374382 120.0
67.402153 192.0
67.413597 124.0
67.447922 132.0
67.492058 164.0
67.537613 164.0
67.542618 140.0
67.572205 92.0
67.591843 128.0
67.607712 120.0
67.637672 324.0
67.680237 56.0
67.699883 128.0
67.714622 172.0
67.726089 200.0
67.737556 40.0
67.825165 104.0
67.85228 116.0
67.886711 108.0
67.91951 232.0
68.046471 144.0
68.113213 116.0
68.185509 108.0
68.20359 204.0
68.241402 156.0
68.257362 136.0
68.269356 156.0
68.347595 164.0
68.456726 140.0
68.52285 152.0
68.561195 164.0
68.573936 156.0
68.62339 144.0
68.641525 136.0
68.669563 92.0
68.686913 116.0
68.709152 212.0
68.771866 132.0
68.802551 88.0
68.902321 64.0
68.983299 124.0
69.036209 156.0
69.0522 180.0
69.070068 208.0
69.108994 68.0
69.167778 160.0
69.192101 172.0
69.211311 172.0
69.231491 112.0
69.24971 160.0
69.262962 124.0
69.298187 124.0
69.401283 164.0
69.430367 180.0
69.466858 144.0
69.498383 140.0
69.521614 148.0
69.536552 144.0
69.588013 64.0
69.607941 172.0
69.62207 212.0
69.671059 160.0
69.699303 104.0
69.732536 216.0
69.75869 180.0
69.784073 164.0
69.797379 64.0
69.847267 176.0
69.883873 76.0
69.943611 192.0
69.960434 92.0
69.975418 208.0
69.990402 128.0
70.085342 44.0
70.097008 108.0
70.268753 128.0
70.307137 224.0
70.32383 160.0
70.343857 188.0
70.387268 148.0
70.442383 144.0
70.500862 144.0
70.574417 212.0
70.633728 172.0
70.682732 164.0
70.721634 188.0
70.741722 176.0
70.760139 220.0
70.837181 76.0
70.853928 116.0
70.869011 160.0
70.892639 120.0
70.9897 120.0
71.040024 172.0
71.06015 216.0
71.073578 128.0
71.092033 76.0
71.122116 152.0
71.172615 172.0
71.221313 124.0
71.263313 108.0
71.323814 84.0
71.365845 168.0
71.38401 180.0
71.395317 236.0
71.471817 152.0
71.491951 116.0
71.523987 112.0
71.559341 140.0
71.582916 92.0
71.6464 156.0
71.666222 140.0
71.679985 200.0
71.724442 176.0
71.738312 176.0
71.793571 248.0
71.840797 168.0
71.858093 160.0
71.906609 164.0
71.924217 120.0
71.945435 116.0
71.960625 144.0
71.972443 140.0
71.992706 176.0
72.023109 148.0
72.061234 284.0
72.109283 160.0
72.16507 140.0
72.239487 192.0
72.28009 80.0
72.292496 220.0
72.382607 180.0
72.401978 180.0
72.416893 164.0
72.464653 160.0
72.503632 160.0
72.523972 268.0
72.562057 180.0
72.579918 100.0
72.601959 208.0
72.62571 72.0
72.689575 136.0
72.776749 56.0
72.795998 164.0
72.8209 216.0
72.854225 136.0
72.871132 136.0
72.909248 120.0
72.963646 48.0
72.976509 212.0
73.007248 168.0
73.130356 168.0
73.143974 136.0
73.167915 188.0
73.217186 160.0
73.244041 172.0
73.315651 156.0
73.344971 108.0
73.36628 144.0
73.384186 128.0
73.43705 140.0
73.480217 184.0
73.5028 208.0
73.527481 156.0
73.557449 156.0
73.607712 124.0
73.629913 144.0
73.665787 204.0
73.735847 148.0
73.775162 168.0
73.787125 172.0
73.845268 128.0
73.858955 48.0
73.87606 76.0
73.917122 144.0
73.935417 220.0
74.047234 92.0
74.067787 192.0
74.100334 128.0
74.127434 156.0
74.150032 92.0
74.163696 148.0
74.182602 144.0
74.201462 156.0
74.243088 116.0
74.345543 136.0
74.360992 140.0
74.374725 168.0
74.400475 148.0
74.453262 216.0
74.49321 100.0
74.531006 88.0
74.580849 180.0
74.630707 132.0
74.654778 100.0
74.718422 188.0
74.73735 144.0
74.757294 136.0
74.773491 156.0
74.827644 172.0
74.885399 144.0
74.918129 128.0
74.93708 100.0
75.026703 120.0
75.07843 92.0
75.114655 164.0
75.168358 96.0
75.180222 144.0
75.219917 104.0
75.247543 88.0
75.268257 164.0
75.282074 132.0
75.325256 124.0
75.393059 336.0
75.552406 172.0
75.567291 152.0
75.619209 192.0
75.663116 132.0
75.730019 156.0
75.766396 184.0
75.797585 176.0
75.814919 180.0
75.896393 200.0
75.924133 204.0
76.068069 176.0
76.113853 248.0
76.127182 236.0
76.179291 104.0
76.196663 124.0
76.237068 160.0
76.261635 124.0
76.316795 136.0
76.398338 176.0
76.410515 128.0
76.427139 144.0
76.457497 196.0
76.496864 192.0
76.511459 164.0
76.523247 156.0
76.577629 100.0
76.596794 132.0
76.636864 216.0
76.657623 232.0
76.675224 188.0
76.71006 140.0
76.764114 100.0
76.846092 144.0
76.910667 148.0
76.926376 48.0
76.9533 172.0
76.983429 160.0
77.007668 164.0
77.052116 168.0
77.08532 108.0
77.104546 164.0
77.138161 172.0
77.177963 100.0
77.209442 144.0
77.240929 136.0
77.255928 180.0
77.316162 156.0
77.342415 164.0
77.387932 60.0
77.403694 208.0
77.473312 176.0
77.491272 236.0
77.657814 328.0
77.72097 120.0
77.733253 120.0
77.770111 176.0
77.81575 292.0
77.931404 124.0
77.993187 136.0
78.045929 156.0
78.088135 108.0
78.105721 172.0
78.126831 168.0
78.149704 180.0
78.169594 172.0
78.205559 168.0
78.251793 188.0
78.283485 144.0
78.332802 112.0
78.39447 140.0
78.408569 208.0
78.445587 148.0
78.489662 152.0
78.51873 128.0
78.543404 112.0
78.558449 92.0
78.619583 148.0
78.657272 128.0
78.706703 116.0
78.719063 140.0
78.750854 88.0
78.780357 120.0
78.833893 188.0
78.876534 192.0
78.921677 200.0
78.941727 112.0
79.007179 212.0
79.036804 140.0
79.088577 180.0
79.111588 200.0
79.16066 196.0
79.175331 144.0
79.193047 172.0
79.221916 188.0
79.250206 316.0
79.270996 156.0
79.354309 44.0
79.377365 40.0
79.409821 224.0
79.443886 164.0
79.487343 40.0
79.508636 132.0
79.529938 132.0
79.551239 72.0
79.572548 104.0
79.719978 56.0
79.849106 96.0
79.862213 124.0
79.899567 60.0
80.015251 180.0
80.070457 44.0
80.09539 200.0
80.114983 92.0
80.132805 192.0
80.16082 160.0
80.262054 156.0
80.280754 152.0
80.307938 164.0
80.334259 116.0
80.366379 200.0
80.4217 120.0
80.466331 184.0
80.48954 160.0
80.546371 180.0
80.602074 88.0
80.673569 204.0
80.695023 160.0
80.732574 140.0
80.766556 160.0
80.805138 104.0
80.832298 172.0
80.864174 200.0
80.911514 176.0
80.928322 164.0
80.93644 152.0
80.984932 136.0
81.002075 140.0
81.02076 208.0
81.067345 180.0
81.083473 112.0
81.121117 260.0
81.136421 164.0
81.190865 240.0
81.210777 192.0
81.223335 88.0
81.239784 116.0
81.316635 116.0
81.34536 152.0
81.384857 164.0
81.490082 164.0
81.495796 120.0
81.541145 112.0
81.737167 132.0
81.756966 192.0
81.803764 152.0
81.859573 124.0
81.877586 148.0
81.926224 72.0
81.938835 264.0
81.953247 100.0
81.995583 188.0
82.038124 216.0
82.110077 188.0
82.207504 132.0
82.239265 100.0
82.326653 124.0
82.357834 136.0
82.393486 136.0
82.499619 280.0
82.569649 152.0
82.595955 136.0
82.787811 172.0
82.86026 120.0
82.938187 124.0
82.981461 152.0
83.005272 172.0
83.048798 172.0
83.090523 100.0
83.168556 184.0
83.23391 48.0
83.321182 180.0
83.346535 164.0
83.386513 188.0
83.407112 132.0
83.429054 188.0
83.439972 128.0
83.490463 160.0
83.589127 136.0
83.659363 192.0
83.690567 200.0
83.713989 100.0
83.732201 92.0
83.750412 184.0
83.792183 112.0
83.970963 92.0
83.989052 160.0
84.027847 336.0
84.04393 72.0
84.069481 200.0
84.084076 108.0
84.167313 148.0
84.208229 132.0
84.317856 208.0
84.329338 184.0
84.365379 208.0
84.430374 148.0
84.475105 92.0
84.487907 136.0
84.513527 48.0
84.542801 136.0
84.555618 84.0
84.599548 200.0
84.656311 136.0
84.74057 120.0
84.782715 120.0
84.840416 200.0
84.848206 176.0
84.874908 164.0
84.902687 236.0
84.923843 148.0
85.03923 144.0
85.05661 160.0
85.079872 68.0
85.210953 128.0
85.218086 172.0
85.27182 216.0
85.284424 248.0
85.309509 148.0
85.368347 252.0
85.395935 184.0
85.454803 160.0
85.521049 152.0
85.537621 228.0
85.611267 180.0
85.640732 116.0
85.697845 68.0
85.732857 192.0
85.788155 268.0
85.815582 132.0
85.860062 140.0
85.872978 132.0
85.933853 112.0
85.989212 68.0
86.023537 188.0
86.08152 92.0
86.14801 204.0
86.212685 112.0
86.266289 64.0
86.292168 164.0
86.331001 116.0
86.388336 148.0
86.434593 168.0
86.471603 176.0
86.49382 176.0
86.558617 88.0
86.582695 116.0
86.611374 148.0
86.649643 168.0
86.671616 108.0
86.710533 144.0
86.779121 136.0
86.803467 304.0
86.886688 176.0
86.908569 232.0
86.969505 64.0
86.980591 100.0
87.014755 108.0
87.048172 144.0
87.139191 136.0
87.1745 196.0
87.219765 224.0
87.286034 76.0
87.306488 184.0
87.367874 144.0
87.421829 132.0
87.462776 128.0
87.486977 132.0
87.507462 108.0
87.533524 132.0
87.565338 148.0
87.641197 164.0
87.656471 112.0
87.68174 208.0
87.719841 144.0
87.742218 144.0
87.766457 84.0
87.80748 120.0
87.827995 116.0
87.874634 200.0
87.95488 120.0
87.994087 152.0
88.037903 200.0
88.171547 136.0
88.233231 120.0
88.265022 144.0
88.279976 92.0
88.334572 172.0
88.354797 176.0
88.399704 136.0
88.429649 188.0
88.493301 188.0
88.509315 188.0
88.525131 152.0
88.566338 52.0
88.596306 204.0
88.615044 76.0
88.635651 136.0
88.650642 132.0
88.682503 48.0
88.72937 200.0
88.742493 184.0
88.767914 144.0
88.786987 132.0
88.813759 124.0
88.840019 96.0
88.892555 176.0
88.920708 40.0
88.962006 208.0
88.993919 112.0
89.042747 236.0
89.05777 88.0
89.070923 148.0
89.104736 116.0
89.16465 136.0
89.209984 272.0
89.235886 164.0
89.270149 152.0
89.335983 128.0
89.375488 112.0
89.413124 124.0
89.472244 128.0
89.511024 112.0
89.555931 208.0
89.610855 168.0
89.629692 96.0
89.690002 164.0
89.70385 160.0
89.739021 168.0
89.771072 136.0
89.789932 176.0
89.803139 172.0
89.844635 168.0
89.896172 140.0
89.912567 160.0
89.95787 52.0
90.023788 300.0
90.051071 336.0
90.122177 136.0
90.192108 176.0
90.209114 188.0
90.240395 96.0
90.335823 144.0
90.406837 152.0
90.428535 176.0
90.449364 144.0
90.484398 136.0
90.566284 224.0
90.616013 156.0
90.64254 160.0
90.761963 180.0
90.815063 148.0
90.830238 68.0
90.883362 92.0
90.966866 108.0
90.983955 120.0
91.004837 72.0
91.061806 128.0
91.120697 88.0
91.136276 200.0
91.160599 164.0
91.18911 156.0
91.219521 148.0
91.268951 188.0
91.308891 380.0
91.327911 168.0
91.360245 156.0
91.375465 172.0
91.388786 208.0
91.407814 64.0
91.425392 160.0
91.443977 88.0
91.463005 128.0
91.489662 324.0
91.510605 252.0
91.556305 96.0
91.59388 88.0
91.6325 188.0
91.73732 92.0
91.771637 152.0
91.838387 152.0
91.903244 140.0
91.933777 104.0
91.971947 188.0
92.015854 292.0
92.067413 108.0
92.098167 160.0
92.122307 92.0
92.144165 156.0
92.174393 124.0
92.220261 148.0
92.248932 208.0
92.273788 160.0
92.37429 152.0
92.494881 168.0
92.572289 136.0
92.629883 168.0
92.666145 88.0
92.701935 148.0
92.723633 176.0
92.766335 160.0
92.794563 156.0
92.815208 104.0
92.863602 92.0
92.909637 152.0
92.93074 84.0
92.988312 132.0
93.026703 168.0
93.054466 204.0
93.069138 196.0
93.09198 100.0
93.130394 152.0
93.15921 116.0
93.223854 124.0
93.266823 124.0
93.296478 96.0
93.332184 164.0
93.35334 168.0
93.397575 112.0
93.411041 212.0
93.432549 204.0
93.47261 180.0
93.528419 88.0
93.566925 184.0
93.634315 148.0
93.655502 40.0
93.685257 216.0
93.836014 96.0
93.898361 196.0
93.923439 56.0
93.944656 132.0
93.977455 168.0
94.00061 120.0
94.016045 40.0
94.085533 52.0
94.131874 216.0
94.152626 156.0
94.188515 172.0
94.211273 152.0
94.268021 160.0
94.334747 76.0
94.350212 128.0
94.375351 72.0
94.408226 124.0
94.446907 156.0
94.485596 136.0
94.539185 132.0
94.621071 132.0
94.636559 172.0
94.669479 148.0
94.721779 308.0
94.735336 116.0
94.781273 152.0
94.795403 164.0
94.816719 132.0
94.853546 104.0
94.870995 144.0
94.924782 124.0
94.952431 176.0
94.993164 108.0
95.076599 208.0
95.140656 180.0
95.156189 84.0
95.18502 184.0
95.317406 192.0
95.334892 60.0
95.404869 144.0
95.430145 84.0
95.473381 188.0
95.510445 124.0
95.552673 108.0
95.577972 128.0
95.591591 96.0
95.607162 160.0
95.667274 204.0
95.727859 128.0
95.766815 160.0
95.811615 80.0
95.829147 240.0
95.908142 188.0
95.934395 148.0
95.985085 244.0
96.052475 196.0
96.09729 176.0
96.112381 124.0
96.223129 376.0
96.34227 200.0
96.406746 92.0
96.434105 128.0
96.452988 200.0
96.484932 120.0
96.527946 148.0
96.579552 228.0
96.617424 172.0
96.639442 184.0
96.679893 148.0
96.73642 240.0
96.764709 140.0
96.919449 108.0
96.966476 132.0
96.991959 168.0
97.036491 200.0
97.097069 160.0
97.13308 128.0
97.29406 136.0
97.331367 136.0
97.362114 152.0
97.413857 168.0
97.442139 160.0
97.457077 116.0
97.472801 128.0
97.488518 132.0
97.504242 176.0
97.592705 132.0
97.614334 68.0
97.6576 168.0
97.679237 156.0
97.723381 200.0
97.803207 144.0
97.820923 204.0
97.917404 196.0
97.954834 160.0
97.982414 176.0
98.000145 120.0
98.019852 36.0
98.044411 216.0
98.062958 128.0
98.118912 200.0
98.16375 136.0
98.215118 172.0
98.305786 92.0
98.337364 176.0
98.384743 120.0
98.408432 112.0
98.439461 344.0
98.503227 140.0
98.519028 128.0
98.600044 72.0
98.641556 240.0
98.806984 160.0
98.822533 100.0
98.842499 152.0
98.85714 120.0
98.897751 200.0
98.971954 168.0
98.987793 220.0
99.053154 264.0
99.119621 168.0
99.171783 184.0
99.205215 180.0
99.237465 168.0
99.257294 124.0
99.298943 76.0
99.34655 216.0
99.361473 128.0
99.384247 124.0
99.400116 80.0
99.419144 184.0
99.481491 108.0
99.497375 108.0
99.525581 200.0
99.590706 60.0
99.616531 64.0
99.688057 148.0
99.773529 172.0
99.811096 76.0
99.837158 112.0
99.874947 116.0
99.920708 140.0
99.998314 156.0
100.107811 148.0
100.145157 196.0
100.237297 156.0
100.249649 144.0
100.293098 124.0
100.309044 68.0
100.322998 164.0
100.38282 164.0
100.421227 276.0
100.474571 124.0
100.492523 208.0
100.518463 136.0
100.552391 116.0
100.56636 204.0
100.586327 208.0
100.616272 152.0
100.634239 128.0
100.661095 160.0
100.711754 172.0
100.738319 120.0
100.770111 152.0
100.814018 176.0
100.849625 108.0
100.879974 136.0
100.907173 172.0
100.927963 160.0
100.943077 152.0
100.971367 136.0
100.995171 152.0
101.011963 116.0
101.100311 180.0
101.154037 184.0
101.198082 148.0
101.232124 104.0
101.24614 144.0
101.269249 112.0
101.306229 176.0
101.325668 240.0
101.406425 100.0
101.430473 128.0
101.44651 68.0
101.475273 128.0
101.537155 256.0
101.576859 132.0
101.652199 116.0
101.660248 64.0
101.717331 136.0
101.749451 148.0
101.81324 192.0
101.855217 176.0
101.930519 160.0
101.954338 188.0
101.996544 208.0
102.022675 124.0
102.050758 144.0
102.087921 148.0
102.113503 168.0
102.145348 160.0
102.159187 132.0
102.193634 96.0
102.255585 112.0
102.280167 148.0
102.300301 176.0
102.314392 68.0
102.330498 328.0
102.382851 160.0
102.398964 124.0
102.43119 140.0
102.457382 136.0
102.473495 168.0
102.501709 184.0
102.514954 204.0
102.586357 112.0
102.600471 124.0
102.614586 136.0
102.675079 192.0
102.719452 116.0
102.742668 236.0
102.798141 136.0
102.818321 88.0
102.86097 184.0
102.898666 252.0
102.909836 192.0
102.936012 176.0
102.961662 136.0
102.979843 180.0
103.041237 112.0
103.059052 232.0
103.101067 128.0
103.170624 184.0
103.190773 180.0
103.255096 156.0
103.323494 220.0
103.338036 148.0
103.426697 164.0
103.440872 132.0
103.665688 32.0
103.715469 200.0
103.750008 100.0
103.789345 84.0
103.824715 136.0
103.872498 112.0
103.904907 172.0
103.939445 112.0
103.969887 148.0
104.066345 132.0
104.088715 232.0
104.116058 148.0
104.140434 120.0
104.170197 172.0
104.233162 168.0
104.27581 184.0
104.327911 148.0
104.402 212.0
104.422379 184.0
104.450455 348.0
104.520607 160.0
104.538918 156.0
104.559273 172.0
104.581657 136.0
104.614227 36.0
104.695671 164.0
104.742088 132.0
104.761444 180.0
104.796745 208.0
104.840317 32.0
104.928818 144.0
104.976906 124.0
105.070732 200.0
105.089096 204.0
105.103745 240.0
105.120468 128.0
105.180931 164.0
105.197266 196.0
105.224747 52.0
105.266685 112.0
105.295425 164.0
105.353676 244.0
105.376984 128.0
105.409676 104.0
105.465759 336.0
105.482376 344.0
105.508469 176.0
105.558907 160.0
105.591629 192.0
105.616173 88.0
105.642761 356.0
105.70005 108.0
105.741074 88.0
105.768883 212.0
105.810577 56.0
105.833099 36.0
105.869965 132.0
105.900681 80.0
105.94165 188.0
105.968834 120.0
105.996971 96.0
106.065132 316.0
106.132263 124.0
106.240967 136.0
106.259308 140.0
106.359222 172.0
106.390778 92.0
106.479073 144.0
106.508789 168.0
106.534531 160.0
106.553665 192.0
106.575623 76.0
106.762688 184.0
106.777084 144.0
106.851868 212.0
106.884056 200.0
106.925217 160.0
107.048744 104.0
107.075516 168.0
107.090446 504.0
107.120827 152.0
107.149673 176.0
107.196136 156.0
107.289818 176.0
107.412743 144.0
107.419083 88.0
107.424362 116.0
107.450684 164.0
107.487823 92.0
107.505753 168.0
107.584831 152.0
107.646774 156.0
107.801277 136.0
107.828575 28.0
107.851311 152.0
107.874046 144.0
107.942276 96.0
108.014664 156.0
108.040665 120.0
108.056038 128.0
108.077934 188.0
108.091629 40.0
108.22039 176.0
108.249634 144.0
108.294106 108.0
108.372116 176.0
108.39769 168.0
108.420486 192.0
108.515785 160.0
108.600708 208.0
108.634415 184.0
108.717049 124.0
108.746109 188.0
108.785545 168.0
108.805611 156.0
108.862366 92.0
108.885216 208.0
108.924675 144.0
108.939217 32.0
108.972458 148.0
109.028564 156.0
109.113792 100.0
109.161926 132.0
109.196968 156.0
109.244812 116.0
109.263535 52.0
109.282257 244.0
109.305428 60.0
109.3218 136.0
109.366379 148.0
109.392822 196.0
109.422905 172.0
109.510994 128.0
109.536247 128.0
109.560555 180.0
109.580002 176.0
109.615425 32.0
109.680031 32.0
109.719643 96.0
109.738403 108.0
109.79158 128.0
109.846848 224.0
109.869797 60.0
109.892876 128.0
109.956947 152.0
109.974136 192.0
110.011711 192.0
110.034676 164.0
110.094681 396.0
110.209473 192.0
110.251366 136.0
110.269684 128.0
110.427536 192.0
110.456818 164.0
110.517494 128.0
110.592255 204.0
110.630508 104.0
110.650215 136.0
110.677498 136.0
110.747772 40.0
110.773758 148.0
110.790802 136.0
110.812714 196.0
110.854622 120.0
110.873489 140.0
110.894447 84.0
110.915405 124.0
110.972008 112.0
110.997223 120.0
111.046494 200.0
111.102089 176.0
111.130966 112.0
111.241226 136.0
111.299339 164.0
111.326637 68.0
111.364441 96.0
111.396591 144.0
111.452675 112.0
111.524933 192.0
111.595604 96.0
111.610321 112.0
111.62925 72.0
111.664604 212.0
111.713951 132.0
111.74704 136.0
111.774391 112.0
111.803856 156.0
111.856476 76.0
111.894371 136.0
111.959763 148.0
112.031265 180.0
112.062866 100.0
112.07972 176.0
112.109222 176.0
112.144394 116.0
112.193619 232.0
112.234619 256.0
112.309517 276.0
112.32428 276.0
112.353813 128.0
112.400238 228.0
112.421341 144.0
112.547325 228.0
112.569534 180.0
112.643509 160.0
112.659103 112.0
112.669891 140.0
112.688683 336.0
112.706413 40.0
112.800423 200.0
112.856491 144.0
112.907242 164.0
112.987625 128.0
113.015129 152.0
113.048981 176.0
113.127296 148.0
113.152702 132.0
113.195053 132.0
113.235291 108.0
113.280853 172.0
113.309433 196.0
113.336975 220.0
113.429306 204.0
113.459442 164.0
113.466728 128.0
113.517593 116.0
113.601997 212.0
113.646545 108.0
113.718704 120.0
113.737808 128.0
113.788757 108.0
113.901306 160.0
113.918304 32.0
114.024673 136.0
114.04155 92.0
114.113823 140.0
114.178871 272.0
114.230797 120.0
114.349953 148.0
114.371239 120.0
114.425385 156.0
114.447884 84.0
114.495392 192.0
114.611893 232.0
114.660904 172.0
114.7024 232.0
114.722725 120.0
114.748306 172.0
114.774078 184.0
114.790955 144.0
114.848534 120.0
114.878403 120.0
115.038368 160.0
115.073677 200.0
115.104637 224.0
115.121719 56.0
115.157013 168.0
115.207161 176.0
115.273392 116.0
115.299042 296.0
115.314003 92.0
115.382408 148.0
115.452614 120.0
115.493607 28.0
115.636963 108.0
115.675491 64.0
115.716171 144.0
115.739166 108.0
115.799683 216.0
115.814674 48.0
115.881088 140.0
115.929092 188.0
115.947517 32.0
115.998314 120.0
116.065788 140.0
116.099731 216.0
116.131905 144.0
116.151207 268.0
116.292824 152.0
116.328621 136.0
116.372253 124.0
116.402321 196.0
116.421646 164.0
116.438828 116.0
116.456291 212.0
116.475342 128.0
116.54409 120.0
116.561279 152.0
116.577675 184.0
116.642105 240.0
116.703148 104.0
116.740303 272.0
116.774109 136.0
116.972069 152.0
117.002205 100.0
117.019432 124.0
117.056396 512.0
117.071198 168.0
117.23053 96.0
117.249924 96.0
117.277946 132.0
117.32106 180.0
117.336151 156.0
117.352036 172.0
117.368492 180.0
117.412178 248.0
117.482803 72.0
117.514473 200.0
117.560478 148.0
117.579903 116.0
117.711586 132.0
117.730804 228.0
117.735931 292.0
117.76342 76.0
117.823906 164.0
117.877922 196.0
117.933792 160.0
117.958206 164.0
117.981674 148.0
118.016266 152.0
118.065491 464.0
118.154686 204.0
118.175423 164.0
118.219604 140.0
118.239029 176.0
118.244766 172.0
118.326286 140.0
118.399284 200.0
118.425278 116.0
118.451271 120.0
118.592117 96.0
118.628769 132.0
118.654984 116.0
118.684563 168.0
118.704224 136.0
118.735214 232.0
118.783508 136.0
118.841507 316.0
118.874054 136.0
118.897926 148.0
118.915291 384.0
118.939171 92.0
118.991272 144.0
119.065575 456.0
119.117226 80.0
119.178062 156.0
119.200905 140.0
119.275856 52.0
119.30629 128.0
119.327072 208.0
119.396027 120.0
119.420403 160.0
119.578392 136.0
119.706985 128.0
119.781342 176.0
119.828621 152.0
119.864914 128.0
119.88092 156.0
119.917435 144.0
119.950668 72.0
119.965927 88.0
120.081497 160.0
120.116394 76.0
120.133842 172.0
120.166573 124.0
120.192757 136.0
120.225487 76.0
120.25386 180.0
120.295334 196.0
120.355873 184.0
120.450378 140.0
120.473625 180.0
120.50499 144.0
120.6007 236.0
120.666725 136.0
120.686409 212.0
120.708275 196.0
120.813255 76.0
120.848267 120.0
120.913918 128.0
120.944557 76.0
121.021179 124.0
121.058403 168.0
121.078117 112.0
121.093445 136.0
121.130684 88.0
121.156967 144.0
121.220512 80.0
121.257767 292.0
121.279259 328.0
121.305992 208.0
121.321335 156.0
121.347702 160.0
121.406853 288.0
121.422203 148.0
121.448395 140.0
121.485748 136.0
121.528915 180.0
121.573578 64.0
121.608696 120.0
121.627281 60.0
121.648209 136.0
121.687721 208.0
121.753601 144.0
121.80851 140.0
121.885406 208.0
121.938148 72.0
121.966728 160.0
121.986511 120.0
122.042465 248.0
122.098648 128.0
122.120644 152.0
122.139648 224.0
122.290062 88.0
122.348427 156.0
122.397415 204.0
122.439957 144.0
122.473679 184.0
122.510262 172.0
122.53009 108.0
122.549301 112.0
122.574158 76.0
122.619888 128.0
122.657906 136.0
122.727547 184.0
122.754921 172.0
122.78138 176.0
122.812263 92.0
122.855255 132.0
122.885063 204.0
122.949638 136.0
123.000977 184.0
123.063843 32.0
123.114632 116.0
123.137222 200.0
123.155296 204.0
123.20298 44.0
123.236122 132.0
123.286949 120.0
123.320099 132.0
123.387489 140.0
123.459488 88.0
123.501404 96.0
123.5457 176.0
123.637726 176.0
123.665146 104.0
123.711624 124.0
123.780617 152.0
123.813484 236.0
123.855568 132.0
123.92646 88.0
123.965569 104.0
124.028397 84.0
124.050568 96.0
124.131668 104.0
124.152557 184.0
124.233696 180.0
124.267906 216.0
124.282234 132.0
124.298874 92.0
124.33004 56.0
124.352234 132.0
124.439857 144.0
124.456573 112.0
124.491547 176.0
124.549232 188.0
124.576508 112.0
124.647606 168.0
124.700943 144.0
124.733505 160.0
124.787636 140.0
124.841003 128.0
124.898834 204.0
125.014061 244.0
125.055328 132.0
125.1325 172.0
125.15699 136.0
125.192619 100.0
125.239395 144.0
125.272583 160.0
125.340874 196.0
125.419876 176.0
125.462234 136.0
125.486755 140.0
125.504593 44.0
125.524666 116.0
125.580421 180.0
125.596031 232.0
125.631721 128.0
125.662956 116.0
125.685272 100.0
125.822784 176.0
125.841515 92.0
125.863846 88.0
125.893051 152.0
125.944244 168.0
126.003052 148.0
126.054031 960.0
126.131943 44.0
126.165916 60.0
126.193474 160.0
126.210945 236.0
126.259384 152.0
126.286224 116.0
126.328728 128.0
126.346626 144.0
126.37571 96.0
126.393608 128.0
126.444809 132.0
126.505798 160.0
126.528633 300.0
126.581963 168.0
126.621956 140.0
126.688377 128.0
126.778343 124.0
126.798653 92.0
126.863953 144.0
126.890854 48.0
126.913277 184.0
126.940186 80.0
127.003403 140.0
127.063103 200.0
127.09272 40.0
127.19175 220.0
127.211029 168.0
127.225311 104.0
127.256569 128.0
127.341904 100.0
127.418282 176.0
127.447487 64.0
127.535133 80.0
127.571106 296.0
127.645302 116.0
127.670036 164.0
127.685776 164.0
127.721764 152.0
127.805008 148.0
127.843262 224.0
127.861267 152.0
127.942299 100.0
127.960312 184.0
128.05687 188.0
128.073761 84.0
128.082993 160.0
128.115707 148.0
128.131485 108.0
128.183304 100.0
128.22612 172.0
128.24823 128.0
128.311783 168.0
128.36879 160.0
128.420029 164.0
128.435806 124.0
128.488174 228.0
128.526047 88.0
128.546509 188.0
128.573441 40.0
128.611816 160.0
128.627609 180.0
128.721283 160.0
128.737061 112.0
128.774384 148.0
128.794708 76.0
128.833115 272.0
128.928009 36.0
128.977737 168.0
129.000336 216.0
129.081741 160.0
129.108871 136.0
129.140533 188.0
129.163162 132.0
129.224884 196.0
129.24234 180.0
129.287598 144.0
129.427948 52.0
129.495895 184.0
129.529861 124.0
129.589676 180.0
129.65448 132.0
129.77916 148.0
129.801834 136.0
129.82225 172.0
129.84816 140.0
129.896866 116.0
129.987854 124.0
130.005692 88.0
130.04393 168.0
130.064087 1120.0
130.142197 324.0
130.187622 104.0
130.221481 132.0
130.369354 184.0
130.395325 152.0
130.44664 132.0
130.539856 104.0
130.571701 148.0
130.610779 176.0
130.674057 152.0
130.710464 72.0
130.744598 156.0
130.806061 156.0
130.836929 224.0
130.905182 192.0
130.944946 196.0
130.963867 184.0
130.988235 140.0
131.024673 64.0
131.073044 492.0
131.1409 124.0
131.204727 140.0
131.245575 144.0
131.295929 36.0
131.330139 204.0
131.407715 136.0
131.423676 136.0
131.458984 144.0
131.559479 176.0
131.599426 88.0
131.621124 256.0
131.654236 140.0
131.697006 132.0
131.705536 96.0
131.710083 176.0
131.741028 144.0
131.768448 164.0
131.79129 152.0
131.862137 136.0
131.962234 112.0
132.077911 292.0
132.095367 188.0
132.122818 144.0
132.14296 144.0
132.247162 176.0
132.305359 68.0
132.311188 52.0
132.318222 84.0
132.349411 140.0
132.457047 156.0
132.498276 212.0
132.579681 180.0
132.58432 168.0
132.63678 92.0
132.662979 176.0
132.718307 220.0
132.744659 156.0
132.881165 144.0
132.942566 168.0
133.000504 52.0
133.030334 92.0
133.062485 212.0
133.123779 248.0
133.211761 208.0
133.257706 144.0
133.286438 136.0
133.331238 240.0
133.381805 156.0
133.417831 160.0
133.436829 120.0
133.547363 152.0
133.568237 108.0
133.623276 84.0
133.724396 216.0
133.823517 164.0
133.869568 364.0
133.908722 196.0
133.936356 124.0
133.9617 180.0
134.005463 128.0
134.021591 116.0
134.098389 188.0
134.185242 120.0
134.235291 204.0
134.256729 136.0
134.285706 208.0
134.362839 112.0
134.396881 164.0
134.443588 80.0
134.563629 120.0
134.591339 120.0
134.61673 136.0
134.644455 120.0
134.662918 152.0
134.711426 196.0
134.732224 80.0
134.764572 56.0
134.787674 144.0
134.887054 52.0
134.912277 128.0
134.942535 116.0
135.093582 196.0
135.143768 32.0
135.164276 380.0
135.212891 152.0
135.252533 180.0
135.285324 168.0
135.321991 180.0
135.355942 180.0
135.374039 496.0
135.440094 112.0
135.498016 88.0
135.534958 220.0
135.622589 148.0
135.646805 340.0
135.667191 168.0
135.693985 140.0
135.868958 112.0
135.908401 144.0
135.953094 124.0
136.030029 184.0
136.101059 84.0
136.131241 184.0
136.155243 136.0
136.176682 92.0
136.214417 192.0
136.240891 192.0
136.264587 168.0
136.307785 76.0
136.337997 196.0
136.408203 136.0
136.418655 160.0
136.496078 76.0
136.537231 224.0
136.558868 220.0
136.624008 156.0
136.642609 132.0
136.67984 156.0
136.790771 188.0
136.837021 196.0
136.854416 140.0
136.873047 120.0
136.891678 188.0
136.939285 208.0
136.973099 320.0
137.012802 100.0
137.038422 108.0
137.060074 192.0
137.103668 96.0
137.159607 304.0
137.222168 172.0
137.255203 92.0
137.343811 144.0
137.364807 148.0
137.416138 92.0
137.450394 152.0
137.507141 176.0
137.544495 148.0
137.560837 104.0
137.653961 104.0
137.741379 176.0
137.809631 160.0
137.890182 228.0
137.913559 80.0
137.943939 172.0
137.990692 188.0
138.039795 132.0
138.10762 156.0
138.134537 260.0
138.175461 108.0
138.217575 284.0
138.245789 72.0
138.294815 112.0
138.320557 116.0
138.390793 236.0
138.437256 180.0
138.470978 184.0
138.499863 112.0
138.540955 176.0
138.597046 208.0
138.620346 276.0
138.636749 136.0
138.655502 116.0
138.68129 92.0
138.744461 188.0
138.805542 200.0
138.847748 164.0
138.938385 188.0
138.982574 160.0
139.010818 164.0
139.018555 84.0
139.027069 148.0
139.055756 140.0
139.075333 40.0
139.091766 156.0
139.124573 160.0
139.159851 88.0
139.185211 216.0
139.256134 192.0
139.300766 132.0
139.328949 108.0
139.350098 64.0
139.366547 196.0
139.446442 180.0
139.530182 176.0
139.596909 96.0
139.658707 188.0
139.716003 208.0
139.763916 144.0
139.815689 156.0
139.848648 132.0
139.872177 152.0
139.893372 68.0
139.93103 140.0
139.975769 104.0
140.005432 128.0
140.031799 76.0
140.053497 120.0
140.081757 64.0
140.126526 148.0
140.158112 108.0
140.191757 176.0
140.213715 192.0
140.300919 260.0
140.352798 108.0
140.428253 80.0
140.461288 32.0
140.494308 224.0
140.542633 160.0
140.583969 128.0
140.600494 140.0
140.680054 136.0
140.723236 120.0
140.810638 168.0
140.850769 88.0
140.869659 128.0
140.91037 156.0
140.940536 272.0
140.964172 44.0
140.997253 28.0
141.027985 144.0
141.068726 256.0
141.098907 144.0
141.133408 128.0
141.207672 220.0
141.240784 96.0
141.283371 172.0
141.351303 96.0
141.396957 148.0
141.569778 152.0
141.62236 120.0
141.681107 204.0
141.71196 160.0
141.749817 192.0
141.778244 104.0
141.855927 176.0
141.896774 52.0
141.92485 220.0
141.951309 164.0
141.998734 116.0
142.070801 336.0
142.103119 180.0
142.134506 192.0
142.193726 152.0
142.226517 88.0
142.250031 128.0
142.291733 152.0
142.330978 156.0
142.371353 148.0
142.447357 120.0
142.482986 164.0
142.526535 272.0
142.563171 220.0
142.604187 112.0
142.654099 204.0
142.684998 132.0
142.749207 152.0
142.775848 116.0
142.858978 212.0
142.867233 140.0
142.873901 112.0
142.896683 248.0
142.972824 124.0
143.069321 244.0
143.088577 176.0
143.170425 140.0
143.201385 100.0
143.225204 156.0
143.244263 84.0
143.28476 116.0
143.347137 184.0
143.416748 124.0
143.437546 144.0
143.463501 180.0
143.591156 152.0
143.608963 140.0
143.642349 128.0
143.690063 136.0
143.721085 128.0
143.766418 116.0
143.806595 308.0
143.838028 132.0
143.884796 108.0
143.889496 64.0
143.964569 232.0
144.050552 176.0
144.08017 148.0
144.160995 176.0
144.184357 260.0
144.224991 176.0
144.313446 176.0
144.342133 184.0
144.365555 136.0
144.440201 208.0
144.499725 208.0
144.535889 152.0
144.659439 148.0
144.708237 40.0
144.756119 92.0
144.774963 156.0
144.81839 144.0
144.847137 216.0
144.891327 116.0
144.940567 68.0
144.966431 172.0
145.044144 148.0
145.082703 320.0
145.146713 216.0
145.201874 124.0
145.252243 116.0
145.289246 176.0
145.412354 160.0
145.458054 120.0
145.464401 204.0
145.568253 96.0
145.59465 188.0
145.621887 188.0
145.643509 168.0
145.698761 140.0
145.726334 104.0
145.742004 252.0
145.842941 124.0
145.87178 120.0
145.929489 124.0
146.008835 128.0
146.027008 164.0
146.047318 248.0
146.088287 124.0
146.112274 100.0
146.213333 128.0
146.266281 116.0
146.295181 164.0
146.350555 180.0
146.381851 148.0
146.398712 104.0
146.509506 112.0
146.564423 136.0
146.583649 156.0
146.610703 240.0
146.67337 116.0
146.702301 172.0
146.750381 200.0
146.789108 156.0
146.854218 92.0
146.894653 184.0
146.91452 136.0
146.971313 136.0
147.011368 288.0
147.037582 48.0
147.095566 200.0
147.204163 108.0
147.245575 268.0
147.299301 344.0
147.341141 320.0
147.417603 156.0
147.450577 64.0
147.58429 140.0
147.612549 164.0
147.692368 176.0
147.781876 132.0
147.821579 136.0
147.898041 112.0
147.941605 92.0
147.970657 104.0
148.048141 292.0
148.125656 136.0
148.191055 148.0
148.227402 140.0
148.283142 108.0
148.30011 100.0
148.374435 308.0
148.4189 152.0
148.595963 144.0
148.62265 84.0
148.685745 240.0
148.727005 164.0
148.75827 260.0
148.791443 172.0
148.814468 140.0
148.865906 252.0
148.940689 184.0
149.035065 80.0
149.222595 128.0
149.266357 136.0
149.291092 140.0
149.341751 148.0
149.43663 124.0
149.480423 68.0
149.529099 120.0
149.619156 92.0
149.667679 112.0
149.716553 168.0
149.760406 152.0
149.794495 112.0
149.831039 124.0
149.865936 148.0
149.935822 220.0
149.957764 184.0
149.979691 172.0
150.001633 108.0
150.034592 208.0
150.09671 96.0
150.130859 176.0
150.147934 68.0
150.178558 208.0
150.202072 180.0
150.255264 196.0
150.282089 204.0
150.308929 160.0
150.405487 164.0
150.457626 96.0
150.521301 112.0
150.5392 240.0
150.575027 40.0
150.598389 156.0
150.623703 160.0
150.65564 112.0
150.747177 256.0
150.767456 220.0
150.791687 224.0
150.83403 112.0
150.920883 212.0
150.943436 160.0
151.046768 192.0
151.099075 232.0
151.129944 164.0
151.188675 120.0
151.31308 156.0
151.328918 180.0
151.389633 92.0
151.433502 112.0
151.478577 152.0
151.540375 96.0
151.595001 140.0
151.631973 120.0
151.654022 128.0
151.717758 164.0
151.842819 104.0
151.894318 148.0
151.928665 136.0
151.950745 96.0
152.009644 48.0
152.032913 124.0
152.061172 60.0
152.144638 132.0
152.201111 184.0
152.251953 176.0
152.333893 188.0
152.368118 232.0
152.412354 168.0
152.449203 84.0
152.508194 172.0
152.554901 116.0
152.584396 168.0
152.663086 156.0
152.744247 204.0
152.803299 180.0
152.832825 208.0
152.856964 108.0
152.896805 132.0
152.918945 124.0
152.961029 196.0
153.027267 100.0
153.058319 208.0
153.103607 168.0
153.15094 200.0
153.248703 124.0
153.273575 176.0
153.314911 140.0
153.340118 124.0
153.428787 132.0
153.458435 56.0
153.475708 140.0
153.506287 100.0
153.54628 116.0
153.628616 164.0
153.702637 144.0
153.779129 208.0
153.858124 172.0
153.966003 116.0
154.038406 152.0
154.063416 296.0
154.084518 1252.0
154.115967 172.0
154.133392 108.0
154.201477 112.0
154.223572 184.0
154.27916 104.0
154.311707 172.0
154.349808 96.0
154.376114 232.0
154.421082 148.0
154.471008 200.0
154.548019 184.0
154.592239 44.0
154.622284 156.0
154.635468 128.0
154.645218 88.0
154.657501 76.0
154.662384 116.0
154.707657 140.0
154.787598 144.0
154.911636 140.0
154.978638 180.0
155.033295 204.0
155.082047 276.0
155.132187 92.0
155.230179 176.0
155.240204 92.0
155.247726 228.0
155.290894 76.0
155.330582 128.0
155.427338 104.0
155.481934 108.0
155.501587 200.0
155.534058 104.0
155.551422 144.0
155.659561 180.0
155.722763 132.0
155.760895 292.0
155.829575 180.0
155.852737 236.0
155.907242 204.0
156.050781 140.0
156.078979 472.0
156.145508 268.0
156.209946 60.0
156.249756 172.0
156.268539 168.0
156.304047 88.0
156.324402 124.0
156.353302 188.0
156.40155 108.0
156.433914 128.0
156.481216 192.0
156.572479 252.0
156.632339 128.0
156.64444 100.0
156.735275 116.0
156.755203 148.0
156.78511 164.0
156.802567 168.0
156.887314 156.0
156.909744 136.0
156.967102 160.0
156.984558 60.0
157.092621 136.0
157.135223 316.0
157.164154 184.0
157.194092 200.0
157.276459 144.0
157.328629 232.0
157.351349 136.0
157.428757 120.0
157.504944 160.0
157.526169 128.0
157.581802 176.0
157.601288 172.0
157.67984 64.0
157.756378 128.0
157.786072 148.0
157.856079 136.0
157.873581 180.0
157.933609 132.0
157.953308 188.0
157.978638 100.0
158.013672 136.0
158.036179 72.0
158.08873 148.0
158.156311 136.0
158.178833 180.0
158.233566 172.0
158.309036 184.0
158.337784 224.0
158.441788 72.0
158.489838 168.0
158.530853 156.0
158.590744 160.0
158.664703 144.0
158.81279 136.0
158.847549 140.0
159.003464 184.0
159.038605 136.0
159.068726 200.0
159.101562 212.0
159.156601 132.0
159.177094 148.0
159.274643 116.0
159.336792 284.0
159.362564 128.0
159.402771 144.0
159.436127 220.0
159.458054 164.0
159.539093 272.0
159.556488 188.0
159.57872 116.0
159.603348 116.0
159.630554 208.0
159.722076 204.0
159.786148 128.0
159.812637 108.0
159.834869 148.0
159.879181 360.0
159.940979 116.0
159.967133 320.0
160.006592 152.0
160.041687 164.0
160.099213 156.0
160.139908 88.0
160.187759 252.0
160.243179 136.0
160.268387 120.0
160.34903 128.0
160.389343 96.0
160.507843 236.0
160.528015 136.0
160.558273 108.0
160.619446 160.0
160.654068 156.0
160.679352 144.0
160.711411 148.0
160.811554 144.0
160.861069 180.0
160.919128 208.0
160.952499 200.0
160.994873 172.0
161.047913 188.0
161.084076 136.0
161.155243 152.0
161.229065 132.0
161.282913 124.0
161.330933 160.0
161.350647 196.0
161.393143 192.0
161.419434 100.0
161.454834 100.0
161.539474 304.0
161.595474 100.0
161.619263 64.0
161.647095 196.0
161.685059 128.0
161.763519 152.0
161.804642 136.0
161.850113 168.0
161.92305 160.0
161.955963 132.0
162.016769 72.0
162.080109 172.0
162.113052 136.0
162.133331 196.0
162.171341 116.0
162.223434 160.0
162.25119 160.0
162.271713 100.0
162.300629 156.0
162.384964 192.0
162.404617 172.0
162.427231 144.0
162.472565 168.0
162.518768 136.0
162.536285 120.0
162.546021 108.0
162.626633 128.0
162.636246 180.0
162.678665 40.0
162.728241 204.0
162.783829 200.0
162.802338 96.0
162.872986 252.0
162.895599 124.0
162.961517 204.0
163.030426 188.0
163.065598 144.0
163.095261 176.0
163.161346 120.0
163.238693 252.0
163.312973 160.0
163.358841 128.0
163.393372 176.0
163.446213 184.0
163.497116 196.0
163.537842 72.0
163.563293 140.0
163.594223 132.0
163.612701 108.0
163.647476 116.0
163.690598 68.0
163.750839 220.0
163.760208 144.0
163.782745 152.0
163.812851 152.0
163.879089 144.0
163.90712 164.0
163.932602 136.0
164.008667 160.0
164.039642 188.0
164.085526 208.0
164.151825 136.0
164.230881 88.0
164.361526 156.0
164.408066 36.0
164.452866 156.0
164.51091 136.0
164.548294 148.0
164.583069 200.0
164.672455 108.0
164.713318 72.0
164.741425 264.0
164.759308 172.0
164.809296 148.0
164.828293 172.0
164.892181 164.0
164.920288 184.0
165.025162 184.0
165.070068 532.0
165.096619 128.0
165.223083 148.0
165.287262 108.0
165.314148 40.0
165.357254 288.0
165.421646 112.0
165.551376 132.0
165.559921 88.0
165.565887 132.0
165.600891 148.0
165.70192 160.0
165.764862 168.0
165.857117 132.0
165.979172 132.0
166.003265 60.0
166.07515 372.0
166.117905 160.0
166.164856 120.0
166.297394 172.0
166.375305 68.0
166.398407 124.0
166.439499 184.0
166.481995 116.0
166.524429 164.0
166.581161 152.0
166.609467 176.0
166.632126 188.0
166.6604 124.0
166.683517 196.0
166.755478 124.0
166.77861 128.0
166.835159 100.0
166.872726 228.0
166.902008 160.0
166.922577 100.0
167.02803 180.0
167.083054 228.0
167.116486 104.0
167.15152 172.0
167.259613 136.0
167.284683 124.0
167.341995 112.0
167.393494 52.0
167.455307 88.0
167.483261 136.0
167.552567 316.0
167.576385 48.0
167.596878 208.0
167.635651 164.0
167.743896 104.0
167.795456 188.0
167.875397 128.0
167.893448 116.0
167.911499 220.0
167.944031 188.0
168.040482 96.0
168.081421 156.0
168.123047 136.0
168.177246 112.0
168.242844 196.0
168.270187 96.0
168.314697 336.0
168.383804 148.0
168.417374 164.0
168.510376 136.0
168.569809 164.0
168.640167 280.0
168.680939 72.0
168.730057 132.0
168.803986 196.0
168.867111 108.0
169.030106 148.0
169.090073 168.0
169.112808 96.0
169.154327 108.0
169.180145 244.0
169.216461 164.0
169.237183 132.0
169.276016 92.0
169.315964 188.0
169.37677 120.0
169.414322 212.0
169.503983 148.0
169.524704 56.0
169.563583 164.0
169.602463 232.0
169.63356 192.0
169.711349 136.0
169.822861 132.0
169.861755 152.0
169.908463 236.0
169.95256 128.0
170.021225 124.0
170.05896 200.0
170.088974 292.0
170.107681 120.0
170.172684 168.0
170.196564 128.0
170.218155 240.0
170.256287 344.0
170.292648 60.0
170.35498 120.0
170.396545 344.0
170.617462 148.0
170.647125 128.0
170.713669 64.0
170.778687 152.0
170.820923 220.0
170.851532 168.0
170.885468 184.0
170.9478 136.0
170.970352 120.0
170.994644 160.0
171.087784 232.0
171.119598 224.0
171.148239 108.0
171.199936 136.0
171.210373 116.0
171.231567 148.0
171.252396 108.0
171.27063 124.0
171.339951 164.0
171.389099 128.0
171.466049 208.0
171.502533 204.0
171.536423 132.0
171.598999 96.0
171.669098 172.0
171.716675 156.0
171.810242 124.0
171.94072 144.0
172.016403 104.0
172.112427 500.0
172.168625 148.0
172.229874 128.0
172.261871 212.0
172.282562 200.0
172.298798 232.0
172.32196 92.0
172.392517 92.0
172.442169 128.0
172.47876 40.0
172.599762 248.0
172.672256 128.0
172.784073 176.0
172.811264 140.0
172.871078 212.0
172.92865 180.0
172.988861 200.0
173.007187 160.0
173.047943 144.0
173.111923 216.0
173.16217 148.0
173.180008 212.0
173.198349 180.0
173.22583 132.0
173.250732 328.0
173.291702 208.0
173.363403 128.0
173.396576 228.0
173.434555 188.0
173.470871 160.0
173.5233 148.0
173.633438 36.0
173.70163 220.0
173.82756 160.0
173.861679 216.0
173.905197 124.0
173.950928 68.0
173.982422 124.0
174.013931 112.0
174.042816 136.0
174.105835 116.0
174.161377 108.0
174.184631 44.0
174.239014 172.0
174.268707 184.0
174.350159 252.0
174.374802 212.0
174.436768 132.0
174.510513 88.0
174.603058 184.0
174.655151 100.0
174.702499 132.0
174.723557 120.0
174.860382 120.0
174.899857 184.0
174.923553 140.0
174.944611 204.0
174.970947 192.0
175.028778 236.0
175.092072 168.0
175.110504 104.0
175.169113 128.0
175.22377 160.0
175.247925 120.0
175.487579 172.0
175.513702 168.0
175.54007 192.0
175.58754 112.0
175.614578 184.0
175.630569 212.0
175.677231 192.0
175.84874 84.0
175.909454 204.0
175.976547 184.0
176.009781 168.0
176.038834 144.0
176.059952 168.0
176.091644 128.0
176.128632 104.0
176.157684 196.0
176.194672 116.0
176.223724 172.0
176.242233 188.0
176.28186 92.0
176.306915 100.0
176.384933 112.0
176.50177 124.0
176.52507 92.0
176.580597 136.0
176.599121 108.0
176.747269 176.0
176.784317 144.0
176.834595 44.0
176.884888 152.0
176.908722 124.0
176.945786 108.0
177.042664 168.0
177.132996 184.0
177.174606 160.0
177.223877 168.0
177.247726 72.0
177.29808 124.0
177.326447 104.0
177.348434 164.0
177.390854 104.0
177.438568 164.0
177.463837 128.0
177.512817 152.0
177.560547 48.0
177.661346 112.0
177.780746 44.0
177.839722 180.0
177.91275 208.0
178.024979 188.0
178.068909 156.0
178.090042 232.0
178.181702 108.0
178.248123 164.0
178.292374 120.0
178.391647 156.0
178.431519 148.0
178.47406 180.0
178.511292 128.0
178.638962 96.0
178.657578 220.0
178.678864 140.0
178.70813 148.0
178.740067 188.0
178.774658 124.0
178.793289 212.0
178.825897 156.0
178.934082 116.0
179.043533 104.0
179.071411 364.0
179.091003 180.0
179.168732 184.0
179.212158 188.0
179.296631 148.0
179.333939 140.0
179.400589 76.0
179.483231 116.0
179.525909 144.0
179.590256 124.0
179.626572 216.0
179.843872 176.0
179.95018 180.0
179.998245 200.0
180.0383 120.0
180.074097 292.0
180.132965 108.0
180.160614 136.0
180.2146 192.0
180.246658 172.0
180.273987 176.0
180.303604 144.0
180.348221 48.0
180.412369 200.0
180.43309 176.0
180.496719 168.0
180.564789 172.0
180.638718 188.0
180.66478 136.0
180.724442 176.0
180.757401 172.0
180.786835 124.0
180.905151 20.0
180.955475 36.0
180.982254 148.0
181.067947 68.0
181.086685 296.0
181.183121 192.0
181.207245 204.0
181.23642 112.0
181.351944 172.0
181.384109 52.0
181.416275 164.0
181.44577 148.0
181.496719 96.0
181.522629 120.0
181.554398 156.0
181.575592 136.0
181.719345 188.0
181.832504 92.0
181.953033 108.0
182.022171 180.0
182.0495 128.0
182.079041 112.0
182.201752 76.0
182.240219 200.0
182.334274 236.0
182.376083 156.0
182.414917 92.0
182.469284 204.0
182.49556 144.0
182.522461 116.0
182.56279 144.0
182.622177 236.0
182.720581 148.0
182.810287 124.0
182.831818 164.0
182.853348 136.0
182.880264 104.0
182.960373 152.0
183.056198 172.0
183.186142 140.0
183.238419 176.0
183.321274 176.0
183.479324 176.0
183.619919 84.0
183.696732 88.0
183.779831 124.0
183.825424 160.0
183.851578 152.0
183.907196 116.0
183.928787 204.0
184.009781 184.0
184.054199 140.0
184.078888 128.0
184.132706 176.0
184.19397 136.0
184.270218 252.0
184.289291 184.0
184.312286 292.0
184.342834 372.0
184.368912 240.0
184.377899 228.0
184.428497 48.0
184.471756 224.0
184.496796 152.0
184.567474 128.0
184.590714 152.0
184.620468 120.0
184.64209 152.0
184.718826 144.0
184.790878 232.0
184.815231 116.0
184.882874 108.0
184.91806 148.0
184.96933 136.0
184.996567 112.0
185.041565 160.0
185.104462 136.0
185.142242 144.0
185.169861 116.0
185.201477 208.0
185.291748 80.0
185.313431 148.0
185.50856 76.0
185.535675 188.0
185.575027 156.0
185.585205 104.0
185.596222 156.0
185.67131 168.0
185.712616 192.0
185.844864 160.0
185.915421 148.0
185.975128 196.0
186.070129 148.0
186.094574 160.0
186.121719 168.0
186.142227 188.0
186.202988 156.0
186.260239 36.0
186.310562 68.0
186.379776 104.0
186.447479 164.0
186.523453 180.0
186.608093 116.0
186.638 104.0
186.670624 120.0
186.871918 136.0
186.968277 132.0
187.002533 48.0
187.025696 156.0
187.079147 176.0
187.108704 188.0
187.127762 164.0
187.217621 52.0
187.244858 128.0
187.269363 196.0
187.294235 168.0
187.335052 216.0
187.363998 168.0
187.394669 136.0
187.522751 208.0
187.547287 120.0
187.585449 168.0
187.612701 140.0
187.635117 168.0
187.653595 120.0
187.699951 60.0
187.781616 148.0
187.825409 128.0
187.847229 124.0
187.94545 96.0
187.993591 180.0
188.002762 108.0
188.04097 144.0
188.084641 112.0
188.130844 164.0
188.169266 108.0
188.237534 128.0
188.374084 184.0
188.408844 172.0
188.48381 148.0
188.505234 264.0
188.548141 108.0
188.58548 168.0
188.603622 196.0
188.633698 132.0
188.704773 204.0
188.726639 140.0
188.759827 212.0
188.85791 104.0
188.87706 148.0
188.898941 120.0
188.995392 204.0
189.049545 296.0
189.069351 128.0
189.104172 112.0
189.148041 124.0
189.205444 144.0
189.241043 168.0
189.368164 216.0
189.408096 144.0
189.473923 164.0
189.495758 76.0
189.605377 208.0
189.624557 136.0
189.704041 208.0
189.756134 152.0
189.801117 336.0
189.843887 100.0
189.885757 148.0
189.906967 120.0
189.943161 160.0
190.013947 56.0
190.069565 104.0
190.09375 124.0
190.14566 120.0
190.20871 284.0
190.255463 204.0
190.28566 72.0
190.310364 128.0
190.332336 44.0
190.363251 340.0
190.46965 116.0
190.496384 416.0
190.541077 208.0
190.599915 164.0
190.66748 252.0
190.729828 240.0
190.791107 168.0
190.829666 44.0
190.859909 172.0
190.884659 160.0
190.908005 164.0
190.928665 140.0
190.975418 156.0
191.004303 152.0
191.079147 380.0
191.118469 184.0
191.145981 128.0
191.186539 136.0
191.223038 140.0
191.252151 180.0
191.316635 140.0
191.36795 100.0
191.426773 128.0
191.464249 204.0
191.492859 120.0
191.539688 136.0
191.581009 160.0
191.62001 128.0
191.69278 148.0
191.786026 284.0
191.823517 132.0
191.912231 204.0
191.958237 148.0
192.023056 228.0
192.079865 1184.0
192.106506 352.0
192.257843 316.0
192.320023 164.0
192.353149 88.0
192.434616 188.0
192.461746 132.0
192.51329 148.0
192.532623 140.0
192.574051 92.0
192.643112 148.0
192.665207 168.0
192.687302 208.0
192.712173 176.0
192.745102 192.0
192.811661 140.0
192.851639 128.0
192.898575 120.0
192.919449 204.0
192.955399 60.0
193.004105 168.0
193.054016 48.0
193.088257 3740.0
193.171112 72.0
193.201538 96.0
193.265167 128.0
193.373093 60.0
193.42569 144.0
193.468781 188.0
193.497665 208.0
193.523529 108.0
193.55304 132.0
193.636124 136.0
193.660095 116.0
193.691513 116.0
193.767197 156.0
193.805099 108.0
193.827271 148.0
193.85498 40.0
193.893784 140.0
193.915955 180.0
194.007431 72.0
194.040695 52.0
194.061798 200.0
194.093109 624.0
194.304169 204.0
194.34285 132.0
194.415161 208.0
194.456802 36.0
194.501205 72.0
194.542847 112.0
194.593399 208.0
194.625931 160.0
194.667786 200.0
194.74556 136.0
194.769516 236.0
194.803879 108.0
194.893311 148.0
194.951141 80.0
194.976151 64.0
195.017349 172.0
195.032349 128.0
195.084503 184.0
195.109589 236.0
195.161072 100.0
195.234375 168.0
195.266617 200.0
195.287552 196.0
195.351532 192.0
195.371002 160.0
195.50177 188.0
195.549088 128.0
195.702194 116.0
195.74675 156.0
195.822006 200.0
195.866516 200.0
195.912857 220.0
195.917847 140.0
195.95845 64.0
196.025314 116.0
196.073578 164.0
196.1129 160.0
196.136795 180.0
196.208191 144.0
196.231583 144.0
196.255188 172.0
196.368225 224.0
196.402695 180.0
196.426041 148.0
196.451904 188.0
196.471436 216.0
196.569092 88.0
196.597 168.0
196.641647 92.0
196.691895 120.0
196.730972 164.0
196.789597 128.0
196.831482 188.0
196.856613 120.0
196.888412 124.0
196.905777 120.0
196.926437 124.0
196.962753 108.0
197.070587 168.0
197.098541 172.0
197.128342 196.0
197.171082 172.0
197.266922 132.0
197.302979 192.0
197.347504 220.0
197.387558 100.0
197.505753 124.0
197.549774 72.0
197.620163 180.0
197.686874 124.0
197.737259 152.0
197.776443 188.0
197.836853 124.0
197.910812 96.0
198.039642 144.0
198.059967 172.0
198.087921 168.0
198.154495 112.0
198.194748 164.0
198.233841 76.0
198.255371 144.0
198.308624 152.0
198.331039 116.0
198.428375 244.0
198.47403 204.0
198.544128 72.0
198.608643 132.0
198.695602 172.0
198.785385 128.0
198.81041 192.0
198.858353 164.0
198.880814 104.0
198.953796 184.0
198.993103 204.0
199.024384 144.0
199.086334 352.0
199.189682 116.0
199.214966 80.0
199.268341 340.0
199.296448 192.0
199.387253 128.0
199.431335 44.0
199.53447 180.0
199.560745 144.0
199.583542 144.0
199.720947 132.0
199.785645 112.0
199.808151 136.0
199.847183 184.0
199.855362 160.0
199.891617 176.0
199.915085 144.0
199.999512 232.0
200.064255 120.0
200.154358 36.0
200.204254 100.0
200.211456 72.0
200.220261 120.0
200.323349 248.0
200.374054 188.0
200.416321 56.0
200.441681 148.0
200.509308 180.0
200.634659 188.0
200.658707 124.0
200.775772 128.0
200.810989 164.0
200.864578 164.0
200.911865 168.0
200.964752 112.0
201.0 92.0
201.025024 148.0
201.04332 284.0
201.077438 180.0
201.169342 140.0
201.248398 128.0
201.273804 128.0
201.340256 196.0
201.395248 56.0
201.426315 128.0
201.472305 172.0
201.569977 240.0
201.728683 48.0
201.762604 236.0
201.785233 112.0
201.833298 140.0
201.921814 132.0
202.033875 48.0
202.055664 292.0
202.073593 184.0
202.220856 148.0
202.266464 180.0
202.367706 156.0
202.445908 180.0
202.501633 172.0
202.654144 208.0
202.733475 232.0
202.764648 216.0
202.9048 148.0
202.963089 160.0
203.002884 124.0
203.042694 168.0
203.086884 356.0
203.108154 236.0
203.167252 224.0
203.198517 248.0
203.217026 84.0
203.260941 172.0
203.301834 164.0
203.439743 132.0
203.505035 148.0
203.524918 160.0
203.55687 64.0
203.583694 132.0
203.638504 108.0
203.701004 76.0
203.754974 112.0
203.795975 196.0
203.834534 156.0
203.897049 128.0
203.934006 200.0
204.049667 204.0
204.079422 688.0
204.15007 112.0
204.221176 132.0
204.242935 228.0
204.280823 128.0
204.380493 140.0
204.432205 232.0
204.454483 180.0
204.500015 152.0
204.593948 88.0
204.61673 144.0
204.649948 168.0
204.761948 168.0
204.801178 136.0
204.861649 172.0
204.918625 164.0
204.947128 168.0
204.988785 228.0
205.034988 116.0
205.087814 304.0
205.125763 364.0
205.173813 156.0
205.274933 84.0
205.360489 132.0
205.399414 136.0
205.440353 80.0
205.460327 184.0
205.482483 120.0
205.491837 92.0
205.498154 124.0
205.602997 136.0
205.701553 148.0
205.737152 336.0
205.78569 208.0
205.82106 164.0
205.851364 100.0
205.891342 84.0
205.914185 120.0
205.954178 172.0
205.977036 148.0
206.064209 172.0
206.0793 40.0
206.097977 312.0
206.157028 168.0
206.21991 84.0
206.374283 36.0
206.408585 88.0
206.5802 56.0
206.641144 132.0
206.769043 112.0
206.817703 116.0
206.886398 84.0
206.909302 120.0
206.950165 204.0
207.029572 144.0
207.069656 84.0
207.149384 176.0
207.187103 160.0
207.331467 240.0
207.384827 348.0
207.436432 132.0
207.51059 180.0
207.586823 264.0
207.641281 252.0
207.700958 192.0
207.733505 148.0
207.803513 88.0
207.84082 116.0
207.865509 212.0
207.886734 212.0
207.941666 56.0
207.990051 184.0
208.015884 188.0
208.080292 268.0
208.110626 160.0
208.142212 152.0
208.171448 196.0
208.216873 108.0
208.259964 160.0
208.28006 164.0
208.305923 112.0
208.397858 196.0
208.423325 88.0
208.463943 200.0
208.517303 204.0
208.584656 156.0
208.658554 164.0
208.685272 128.0
208.730453 324.0
208.765793 172.0
208.808929 144.0
208.837402 160.0
208.863571 140.0
208.918228 152.0
209.030441 180.0
209.126221 196.0
209.260117 164.0
209.335495 140.0
209.345322 136.0
209.353699 192.0
209.408722 152.0
209.429947 256.0
209.456543 144.0
209.493057 160.0
209.62941 128.0
209.684174 132.0
209.741821 196.0
209.761993 156.0
209.821579 200.0
209.854248 168.0
209.883087 208.0
209.906158 212.0
209.963837 92.0
209.986908 108.0
210.012863 80.0
210.156143 168.0
210.200378 64.0
210.356781 148.0
210.382446 156.0
210.411087 116.0
210.480392 128.0
210.515045 80.0
210.595901 100.0
210.685455 136.0
210.766357 180.0
210.821259 180.0
210.916641 112.0
210.963715 140.0
211.040955 176.0
211.072754 208.0
211.095886 88.0
211.125092 208.0
211.211578 128.0
211.257858 132.0
211.29657 220.0
211.346909 72.0
211.400269 236.0
211.422791 108.0
211.45787 156.0
211.50383 104.0
211.532913 324.0
211.579086 92.0
211.622528 52.0
211.692017 128.0
211.752838 68.0
211.781799 172.0
211.804962 156.0
211.8629 176.0
211.897781 112.0
211.941132 156.0
211.993088 224.0
212.059952 120.0
212.135315 124.0
212.183197 144.0
212.297165 156.0
212.308914 128.0
212.338287 232.0
212.37706 268.0
212.427704 116.0
212.437881 96.0
212.449524 148.0
212.544083 136.0
212.616806 140.0
212.673141 204.0
212.75032 168.0
212.775925 88.0
212.78894 132.0
212.851944 180.0
212.889694 212.0
212.927658 168.0
212.950684 140.0
212.973923 160.0
213.005875 160.0
213.034012 132.0
213.06958 168.0
213.177292 160.0
213.200546 156.0
213.242828 168.0
213.357498 88.0
213.399948 120.0
213.441818 108.0
213.473816 156.0
213.594009 220.0
213.639786 196.0
213.721146 144.0
213.747253 160.0
213.776352 204.0
213.820007 228.0
213.857849 60.0
213.895676 40.0
213.941254 220.0
213.971375 128.0
214.041489 8724.0
214.095276 152.0
214.128784 144.0
214.170395 84.0
214.197647 132.0
214.326218 140.0
214.358765 164.0
214.390823 200.0
214.425797 52.0
214.504486 152.0
214.561707 232.0
214.583435 152.0
214.682098 184.0
214.714432 100.0
214.825272 132.0
214.857361 96.0
214.915817 116.0
214.962402 52.0
215.005356 100.0
215.042496 1216.0
215.084335 304.0
215.21344 116.0
215.248474 108.0
215.37114 172.0
215.470459 84.0
215.514801 180.0
215.540573 92.0
215.561035 228.0
215.613129 184.0
215.672089 172.0
215.710098 144.0
215.993744 68.0
216.038147 2916.0
216.077576 1016.0
216.157578 116.0
216.17807 104.0
216.279922 204.0
216.320236 140.0
216.356613 56.0
216.393204 80.0
216.415161 192.0
216.444962 112.0
216.483093 100.0
216.530609 184.0
216.582092 212.0
216.61586 232.0
216.649475 256.0
216.668503 136.0
216.710999 100.0
216.760803 136.0
216.781326 128.0
216.810623 152.0
216.839935 156.0
216.863235 160.0
216.894867 252.0
216.919067 172.0
216.983566 160.0
217.006058 252.0
217.043518 196.0
217.087967 1516.0
217.194717 204.0
217.262177 136.0
217.300323 136.0
217.356064 168.0
217.449982 148.0
217.505646 284.0
217.576202 172.0
217.612122 240.0
217.658417 160.0
217.714203 192.0
217.800217 56.0
217.855194 152.0
217.899261 232.0
217.946274 116.0
217.984482 132.0
218.022675 168.0
218.0504 184.0
218.094666 2176.0
218.13591 168.0
218.190231 80.0
218.21669 144.0
218.251968 88.0
218.288254 152.0
218.438828 216.0
218.494019 204.0
218.53949 112.0
218.550598 84.0
218.594757 132.0
218.619675 148.0
218.650864 196.0
218.702087 188.0
218.78038 120.0
218.836166 132.0
218.860275 152.0
218.915817 100.0
218.990631 64.0
219.033997 116.0
219.100571 2068.0
219.188019 212.0
219.244003 156.0
219.297058 184.0
219.338318 160.0
219.370743 136.0
219.409073 80.0
219.450348 84.0
219.482788 132.0
219.523331 184.0
219.585999 132.0
219.659744 112.0
219.704086 132.0
219.748245 152.0
219.822327 224.0
219.845627 200.0
219.896912 220.0
219.917343 120.0
219.951752 104.0
219.99707 128.0
220.025681 52.0
220.099396 1420.0
220.152649 136.0
220.247147 176.0
220.302246 148.0
220.33873 156.0
220.415558 140.0
220.436234 60.0
220.456924 76.0
220.545593 180.0
220.587769 364.0
220.652008 200.0
220.693405 68.0
220.740707 56.0
220.793945 192.0
220.897476 180.0
220.989182 168.0
221.03949 188.0
221.092758 180.0
221.099518 140.0
221.128265 364.0
221.149475 136.0
221.184509 120.0
221.205231 156.0
221.288895 184.0
221.335495 116.0
221.36441 172.0
221.40361 112.0
221.427292 136.0
221.453949 164.0
221.58107 176.0
221.586288 160.0
221.640594 188.0
221.675888 232.0
221.719101 116.0
221.859924 228.0
221.886597 200.0
221.96666 136.0
221.996307 156.0
222.034866 148.0
222.146591 36.0
222.2164 140.0
222.225922 128.0
222.238251 64.0
222.319717 144.0
222.356461 132.0
222.414642 96.0
222.45787 164.0
222.518539 152.0
222.563675 168.0
222.631378 56.0
222.652176 104.0
222.770981 280.0
222.848221 52.0
222.958176 148.0
222.996033 200.0
223.050308 180.0
223.071121 180.0
223.144287 184.0
223.156067 112.0
223.166428 136.0
223.229599 160.0
223.267365 116.0
223.288177 132.0
223.362534 160.0
223.391525 156.0
223.430954 184.0
223.478653 216.0
223.526169 120.0
223.555161 252.0
223.603546 96.0
223.698792 200.0
223.826813 84.0
223.863525 160.0
223.871033 52.0
223.88559 152.0
223.939987 204.0
223.965302 176.0
224.038284 132.0
224.066589 24.0
224.163864 188.0
224.217072 100.0
224.39624 200.0
224.426529 200.0
224.467484 144.0
224.527695 148.0
224.559937 112.0
224.604675 116.0
224.65123 152.0
224.656982 112.0
224.763901 216.0
224.799179 352.0
224.840378 156.0
224.901733 180.0
224.950821 200.0
225.018356 148.0
225.049347 112.0
225.115036 132.0
225.147888 120.0
225.22554 128.0
225.311859 116.0
225.359131 156.0
225.403259 140.0
225.434677 172.0
225.461578 124.0
225.515045 108.0
225.646912 192.0
225.670822 140.0
225.734177 108.0
225.772491 148.0
225.856247 120.0
225.892136 144.0
225.958969 152.0
226.041443 1144.0
226.079178 164.0
226.140488 132.0
226.164444 80.0
226.185394 176.0
226.214966 160.0
226.296158 180.0
226.356155 172.0
226.39061 220.0
226.483398 140.0
226.514069 116.0
226.565704 120.0
226.607651 32.0
226.675278 148.0
226.71553 160.0
226.766479 68.0
226.829422 88.0
226.886383 100.0
226.974579 96.0
227.00766 136.0
227.046677 896.0
227.135284 100.0
227.231277 88.0
227.252274 100.0
227.285278 52.0
227.311218 212.0
227.362457 156.0
227.441345 136.0
227.490158 216.0
227.537415 116.0
227.561432 132.0
227.605042 76.0
227.652435 388.0
227.693558 96.0
227.792679 140.0
227.813705 48.0
227.846741 272.0
227.914612 164.0
227.942902 100.0
227.967636 120.0
227.996796 128.0
228.056442 9304.0
228.126831 80.0
228.188553 132.0
228.213425 164.0
228.240479 100.0
228.264542 104.0
228.315659 180.0
228.381836 100.0
228.408737 144.0
228.425751 340.0
228.478088 84.0
228.508026 160.0
228.594833 176.0
228.602203 128.0
228.615387 140.0
228.664658 40.0
228.688736 220.0
228.788071 180.0
228.86937 116.0
228.911514 124.0
228.965729 236.0
229.013184 264.0
229.064682 10844.0
229.13327 232.0
229.164551 268.0
229.20372 80.0
229.230835 172.0
229.282059 176.0
229.30394 200.0
229.354828 224.0
229.441818 104.0
229.481018 140.0
229.523956 204.0
229.544968 172.0
229.571472 208.0
229.595612 108.0
229.645081 120.0
229.706558 132.0
229.743408 76.0
229.779602 52.0
229.848999 36.0
229.906342 140.0
229.95903 192.0
230.00972 96.0
230.055801 2600.0
230.094055 2508.0
230.133789 220.0
230.189209 148.0
230.21936 64.0
230.247482 108.0
230.307892 192.0
230.41362 52.0
230.449875 92.0
230.490356 216.0
230.562973 132.0
230.604004 36.0
230.628174 300.0
230.664459 124.0
230.700729 96.0
230.743057 116.0
230.790985 164.0
230.796875 140.0
230.819656 120.0
230.84787 288.0
230.975906 132.0
231.018677 116.0
231.060272 2692.0
231.10405 13628.0
231.178619 44.0
231.205185 112.0
231.245209 148.0
231.308762 208.0
231.405792 164.0
231.441986 192.0
231.49649 36.0
231.523743 100.0
231.550995 40.0
231.5961 188.0
231.629745 184.0
231.669128 136.0
231.711548 92.0
231.775253 148.0
231.823654 224.0
231.863052 148.0
231.912918 132.0
231.949158 88.0
231.975311 112.0
232.068314 472.0
232.110062 7888.0
232.1689 168.0
232.207642 140.0
232.25975 180.0
232.303726 60.0
232.357315 88.0
232.471481 148.0
232.562485 356.0
232.590988 188.0
232.634232 132.0
232.664581 148.0
232.69342 140.0
232.806564 176.0
232.831985 64.0
232.863205 184.0
232.909821 208.0
232.935089 224.0
232.983215 180.0
233.006134 76.0
233.030792 112.0
233.077103 128.0
233.116608 2844.0
233.167206 204.0
233.201508 172.0
233.224579 160.0
233.335266 108.0
233.374802 116.0
233.481232 52.0
233.502518 316.0
233.554214 48.0
233.581604 44.0
233.647675 128.0
233.711273 104.0
233.745895 132.0
233.799683 136.0
233.842117 200.0
233.865967 132.0
233.901108 88.0
233.976837 156.0
234.047195 252.0
234.122406 688.0
234.170837 240.0
234.20256 72.0
234.248245 56.0
234.315277 92.0
234.342026 164.0
234.445618 180.0
234.495056 180.0
234.529068 152.0
234.653091 100.0
234.687119 116.0
234.824341 176.0
234.912659 156.0
234.947617 312.0
234.98407 200.0
235.056198 68.0
235.08847 168.0
235.133072 128.0
235.211853 176.0
235.23143 136.0
235.268173 116.0
235.291229 64.0
235.355347 140.0
235.393799 168.0
235.477493 136.0
235.635498 220.0
235.702362 356.0
235.78302 168.0
235.87471 300.0
235.919876 160.0
235.994461 212.0
236.065002 116.0
236.0979 144.0
236.140732 228.0
236.211075 72.0
236.24881 176.0
236.299789 172.0
236.40361 168.0
236.414352 128.0
236.47728 128.0
236.514008 168.0
236.610077 220.0
236.664017 160.0
236.707581 160.0
236.839081 148.0
236.869217 128.0
236.896149 156.0
237.034653 124.0
237.068359 180.0
237.090729 148.0
237.138733 204.0
237.187897 144.0
237.298431 288.0
237.365723 52.0
237.399521 188.0
237.447067 84.0
237.47612 72.0
237.577347 84.0
237.604965 136.0
237.638702 180.0
237.669388 196.0
237.712494 136.0
237.743042 68.0
237.84433 144.0
237.890366 180.0
237.967117 148.0
237.988617 144.0
238.042389 756.0
238.101089 160.0
238.200516 272.0
238.240463 44.0
238.314117 160.0
238.344925 60.0
238.372574 176.0
238.421753 76.0
238.49881 224.0
238.57724 224.0
238.636917 72.0
238.683044 60.0
238.719406 208.0
238.767914 60.0
238.806061 120.0
238.907562 60.0
238.929108 84.0
239.041611 432.0
239.070648 164.0
239.110657 160.0
239.156815 92.0
239.214798 72.0
239.285782 148.0
239.326889 160.0
239.363174 176.0
239.526321 180.0
239.547882 164.0
239.615662 120.0
239.678009 160.0
239.724091 124.0
239.849869 76.0
239.886856 160.0
239.933105 132.0
240.057236 1312.0
240.08728 104.0
240.127365 160.0
240.17981 60.0
240.23912 176.0
240.263092 204.0
240.307709 96.0
240.340225 208.0
240.411209 32.0
240.435898 104.0
240.523666 124.0
240.611832 152.0
240.667419 176.0
240.701385 120.0
240.756958 128.0
240.917587 120.0
240.960831 144.0
241.048721 424.0
241.089386 504.0
241.26062 56.0
241.325546 120.0
241.389313 128.0
241.537384 144.0
241.566772 152.0
241.643509 164.0
241.65419 220.0
241.690521 152.0
241.715286 168.0
241.770981 148.0
241.802322 96.0
241.890656 60.0
241.896332 168.0
241.969086 344.0
241.995178 204.0
242.025757 140.0
242.087906 692.0
242.173477 64.0
242.195145 108.0
242.242477 216.0
242.328369 136.0
242.381042 52.0
242.40892 160.0
242.480209 188.0
242.525681 172.0
242.560791 132.0
242.629425 168.0
242.68988 144.0
242.697601 92.0
242.725464 176.0
242.818146 76.0
242.850372 184.0
242.929138 184.0
242.970184 268.0
243.053467 364.0
243.104202 9520.0
243.171844 40.0
243.214127 308.0
243.266113 312.0
243.317734 68.0
243.354996 140.0
243.379837 228.0
243.417633 208.0
243.491394 168.0
243.543549 56.0
243.56076 164.0
243.600342 84.0
243.646683 144.0
243.65918 132.0
243.714935 188.0
243.769333 212.0
243.84581 132.0
243.938034 124.0
243.946579 96.0
243.991913 208.0
244.013672 236.0
244.06517 408.0
244.11116 11668.0
244.209961 136.0
244.234467 120.0
244.267044 136.0
244.304352 60.0
244.346466 44.0
244.377579 232.0
244.422089 64.0
244.537842 72.0
244.577148 244.0
244.612228 240.0
244.65419 164.0
244.691925 340.0
244.723068 148.0
244.813126 288.0
244.848099 104.0
244.878769 76.0
244.956635 104.0
244.990738 228.0
245.07753 372.0
245.117569 9816.0
245.179352 168.0
245.226486 192.0
245.248703 164.0
245.261078 120.0
245.269409 136.0
245.322632 108.0
245.358658 144.0
245.381866 64.0
245.429062 144.0
245.454132 64.0
245.548447 268.0
245.580048 72.0
245.608124 76.0
245.652634 188.0
245.698593 192.0
245.749924 116.0
245.782837 180.0
245.807587 120.0
245.909256 220.0
245.958298 180.0
246.003387 240.0
246.014236 280.0
246.074448 168.0
246.126404 12400.0
246.197922 140.0
246.219879 184.0
246.257538 224.0
246.297897 224.0
246.305222 220.0
246.372925 140.0
246.433716 220.0
246.502655 156.0
246.549652 108.0
246.574234 104.0
246.630478 144.0
246.665878 108.0
246.681808 124.0
246.739471 324.0
246.806656 248.0
246.864853 168.0
246.926208 52.0
246.959183 132.0
247.020035 96.0
247.089294 240.0
247.133118 5304.0
247.215637 140.0
247.254715 108.0
247.320435 208.0
247.34642 132.0
247.398697 128.0
247.423737 172.0
247.455048 108.0
247.555252 120.0
247.583435 132.0
247.603317 96.0
247.627274 196.0
247.67276 308.0
247.730652 112.0
247.812103 156.0
247.855148 76.0
247.898087 172.0
247.967285 200.0
247.993439 120.0
248.001129 176.0
248.092102 2228.0
248.136429 892.0
248.196381 60.0
248.265305 104.0
248.354446 188.0
248.406555 96.0
248.448547 192.0
248.490112 128.0
248.514435 204.0
248.555222 148.0
248.60347 64.0
248.654205 140.0
248.680756 100.0
248.7108 284.0
248.759232 44.0
248.784348 136.0
248.828293 64.0
248.891098 100.0
248.928452 192.0
248.961548 220.0
249.04718 40.0
249.093323 520.0
249.134796 372.0
249.208328 168.0
249.249176 112.0
249.333862 168.0
249.364746 280.0
249.40947 88.0
249.456039 176.0
249.481766 40.0
249.509918 88.0
249.579224 68.0
249.693512 188.0
249.726425 224.0
249.799377 148.0
249.845032 164.0
249.89061 216.0
249.939697 172.0
249.957642 112.0
250.005142 152.0
250.048538 152.0
250.096741 136.0
250.140747 128.0
250.180161 140.0
250.24942 96.0
250.271469 92.0
250.299805 284.0
250.329712 128.0
250.435226 152.0
250.49823 184.0
250.527588 112.0
250.564377 220.0
250.658905 136.0
250.684113 84.0
250.742905 180.0
250.807037 36.0
250.845078 172.0
251.046158 1500.0
251.090012 272.0
251.118423 152.0
251.166489 64.0
251.207504 136.0
251.235687 176.0
251.273758 140.0
251.298996 144.0
251.412598 224.0
251.45047 80.0
251.503021 104.0
251.534027 120.0
251.555054 180.0
251.617188 484.0
251.697235 164.0
251.722916 120.0
251.783859 48.0
251.870407 52.0
251.931168 68.0
252.00798 160.0
252.056671 12584.0
252.101044 176.0
252.151443 80.0
252.202179 56.0
252.281891 168.0
252.319138 56.0
252.385544 120.0
252.425949 144.0
252.45195 176.0
252.528717 248.0
252.577713 152.0
252.600693 128.0
252.651215 124.0
252.689178 32.0
252.733475 144.0
252.767426 44.0
252.802353 68.0
252.864532 184.0
252.8862 144.0
252.913864 44.0
252.945526 80.0
252.985046 164.0
253.063141 14404.0
253.117767 188.0
253.140457 268.0
253.209457 288.0
253.23999 48.0
253.287506 196.0
253.322479 96.0
253.367661 48.0
253.399765 72.0
253.489487 180.0
253.501373 168.0
253.511826 96.0
253.523911 104.0
253.556824 64.0
253.592682 192.0
253.651138 164.0
253.671677 136.0
253.705811 48.0
253.797745 100.0
253.877716 180.0
253.958191 156.0
254.009125 160.0
254.059448 4996.0
254.153549 184.0
254.210129 96.0
254.245026 72.0
254.284958 124.0
254.327545 180.0
254.349777 132.0
254.393204 76.0
254.422791 200.0
254.445007 80.0
254.495804 100.0
254.554733 192.0
254.600601 56.0
254.629181 128.0
254.673645 88.0
254.70224 40.0
254.799576 152.0
254.832489 136.0
254.893799 172.0
254.959595 96.0
255.061478 3320.0
255.107025 300.0
255.175751 44.0
255.229721 180.0
255.282547 108.0
255.327591 272.0
255.414688 248.0
255.44606 96.0
255.476868 88.0
255.563782 140.0
255.634247 164.0
255.680084 176.0
255.727371 128.0
255.769836 236.0
255.815201 40.0
255.888428 84.0
255.950958 92.0
255.980774 96.0
256.017456 92.0
256.062714 684.0
256.10968 2672.0
256.168671 180.0
256.210083 96.0
256.273041 184.0
256.327972 136.0
256.350281 120.0
256.385345 148.0
256.442719 60.0
256.471405 116.0
256.500549 108.0
256.556915 180.0
256.606079 80.0
256.669342 132.0
256.706482 104.0
256.755157 120.0
256.834259 120.0
256.898834 176.0
256.95932 136.0
256.981659 228.0
257.013855 168.0
257.066956 208.0
257.117889 4724.0
257.201843 164.0
257.243347 180.0
257.286835 64.0
257.325287 36.0
257.367859 124.0
257.412567 28.0
257.457275 148.0
257.540161 152.0
257.581177 164.0
257.61026 200.0
257.645721 152.0
257.706879 224.0
257.740051 192.0
257.803284 212.0
257.856018 144.0
257.972076 308.0
258.019257 176.0
258.024231 204.0
258.0513 204.0
258.058014 148.0
258.127106 48960.0
258.216156 80.0
258.246704 412.0
258.278687 88.0
258.306366 152.0
258.32843 348.0
258.378418 204.0
258.413239 200.0
258.43396 60.0
258.480621 172.0
258.514038 252.0
258.566559 228.0
258.632172 176.0
258.655365 236.0
258.709259 116.0
258.757751 200.0
258.765839 212.0
258.804962 288.0
258.834045 68.0
258.859955 172.0
258.901947 196.0
258.923279 160.0
258.9422 92.0
258.980103 120.0
259.02301 60.0
259.050629 128.0
259.134918 86496.0
259.208466 116.0
259.243561 204.0
259.299805 52.0
259.30542 60.0
259.375854 208.0
259.413208 160.0
259.438629 136.0
259.464325 248.0
259.497437 28.0
259.525208 80.0
259.55246 44.0
259.595001 304.0
259.665253 184.0
259.744141 216.0
259.785828 140.0
259.823486 104.0
259.865204 168.0
259.90918 128.0
259.936249 160.0
259.958984 276.0
259.99115 148.0
260.047577 120.0
260.097687 272.0
260.13855 17256.0
260.220703 136.0
260.25119 152.0
260.304565 72.0
260.329071 160.0
260.358795 72.0
260.384308 68.0
260.404327 76.0
260.438354 212.0
260.452148 56.0
260.462524 160.0
260.488739 96.0
260.512512 72.0
260.549225 84.0
260.602753 232.0
260.631348 228.0
260.66568 216.0
260.710266 372.0
260.787506 176.0
260.85611 112.0
260.903107 220.0
260.937195 232.0
260.976685 240.0
261.022217 144.0
261.055573 104.0
261.097198 248.0
261.143646 1064.0
261.227509 44.0
261.240723 52.0
261.341064 84.0
261.37677 72.0
261.436951 152.0
261.473602 84.0
261.483246 48.0
261.556396 92.0
261.592133 144.0
261.659302 172.0
261.700287 176.0
261.729004 76.0
261.772552 252.0
261.832428 96.0
261.894897 144.0
261.961639 232.0
262.006866 220.0
262.05011 328.0
262.089447 120.0
262.122437 136.0
262.14502 356.0
262.188202 180.0
262.247375 164.0
262.284424 96.0
262.393127 148.0
262.432739 176.0
262.511505 164.0
262.618164 48.0
262.658905 108.0
262.685913 88.0
262.708496 156.0
262.75354 104.0
262.791687 168.0
262.869812 52.0
262.910645 100.0
262.954773 184.0
262.996216 172.0
263.068604 68.0
263.139008 140.0
263.186157 48.0
263.324493 160.0
263.408997 84.0
263.470367 40.0
263.538208 164.0
263.56015 168.0
263.645325 80.0
263.712738 112.0
263.769745 124.0
263.822632 136.0
263.86142 148.0
263.897003 124.0
263.948608 216.0
263.959991 100.0
263.969391 164.0
264.006927 196.0
264.057648 1396.0
264.155701 124.0
264.201019 144.0
264.223663 228.0
264.249542 36.0
264.378967 52.0
264.401611 64.0
264.430756 152.0
264.486145 136.0
264.569489 204.0
264.602325 64.0
264.692963 80.0
264.731415 340.0
264.819275 120.0
264.841949 88.0
264.871094 256.0
264.913208 256.0
264.935883 112.0
265.062622 1860.0
265.14975 152.0
265.179291 104.0
265.232239 204.0
265.331909 320.0
265.418945 196.0
265.449371 100.0
265.490356 136.0
265.523682 88.0
265.546875 212.0
265.577148 112.0
265.599365 48.0
265.611237 116.0
265.630768 92.0
265.707489 112.0
265.751312 212.0
265.804077 52.0
265.857513 220.0
265.903992 180.0
265.950195 348.0
265.997925 152.0
266.072723 49908.0
266.174866 196.0
266.202118 128.0
266.230835 152.0
266.269043 172.0
266.296661 136.0
266.326996 224.0
266.399994 252.0
266.427399 152.0
266.457458 144.0
266.503693 208.0
266.570129 124.0
266.618164 216.0
266.662018 76.0
266.70694 108.0
266.728821 252.0
266.778046 160.0
266.810852 108.0
266.852753 148.0
266.872528 240.0
266.920837 408.0
267.000488 272.0
267.080597 118236.0
267.169434 32.0
267.19754 128.0
267.207611 60.0
267.219177 140.0
267.246216 280.0
267.272003 180.0
267.336884 220.0
267.394318 196.0
267.422943 144.0
267.427856 68.0
267.441376 104.0
267.483215 124.0
267.516785 180.0
267.552948 224.0
267.570679 112.0
267.617462 396.0
267.690674 140.0
267.72702 40.0
267.786591 60.0
267.83136 160.0
267.870117 240.0
267.910736 156.0
267.945679 168.0
267.970764 124.0
268.015045 272.0
268.07962 25028.0
268.163239 128.0
268.213745 48.0
268.226715 100.0
268.239838 52.0
268.260559 268.0
268.274231 148.0
268.281952 304.0
268.322906 68.0
268.372894 232.0
268.41037 60.0
268.471222 128.0
268.504517 136.0
268.537781 80.0
268.56311 72.0
268.610626 120.0
268.656586 196.0
268.683594 224.0
268.729645 148.0
268.769348 208.0
268.808685 180.0
268.872131 260.0
268.900726 132.0
268.94635 160.0
268.974243 116.0
268.986664 216.0
269.01239 224.0
269.077667 32292.0
269.119141 348.0
269.132324 236.0
269.143005 272.0
269.172211 224.0
269.214142 68.0
269.263214 228.0
269.300415 76.0
269.322815 152.0
269.362732 348.0
269.36731 168.0
269.441986 120.0
269.492737 128.0
269.567505 144.0
269.607086 108.0
269.630829 56.0
269.686371 52.0
269.721039 132.0
269.749603 164.0
269.780762 268.0
269.80542 196.0
269.818787 100.0
269.830536 216.0
269.851624 252.0
269.888153 56.0
269.924011 124.0
269.975403 212.0
270.079071 4792.0
270.166626 208.0
270.193176 208.0
270.219543 112.0
270.245544 124.0
270.279724 100.0
270.317139 140.0
270.360077 120.0
270.406647 180.0
270.501129 68.0
270.557007 184.0
270.632294 84.0
270.688873 124.0
270.737457 188.0
270.761871 120.0
270.818146 176.0
270.853363 104.0
270.901123 100.0
270.952393 176.0
270.990967 68.0
271.056793 680.0
271.090759 352.0
271.139771 132.0
271.172821 68.0
271.202332 396.0
271.289764 132.0
271.344574 204.0
271.386505 68.0
271.415436 48.0
271.444946 168.0
271.51709 52.0
271.562988 112.0
271.599091 152.0
271.643005 176.0
271.681091 92.0
271.733856 116.0
271.795288 164.0
271.841858 188.0
271.871033 108.0
271.910187 116.0
271.938599 148.0
272.052643 612.0
272.102783 280.0
272.285065 36.0
272.321198 136.0
272.394653 120.0
272.445679 40.0
272.501862 48.0
272.593872 140.0
272.666168 96.0
272.708893 140.0
272.751617 236.0
272.797638 148.0
272.82724 52.0
272.854279 104.0
272.899567 32.0
272.985046 104.0
273.053284 256.0
273.119873 376.0
273.162659 220.0
273.195557 92.0
273.258057 40.0
273.327179 60.0
273.350189 148.0
273.396271 60.0
273.461761 120.0
273.662903 52.0
273.73822 64.0
273.788025 28.0
273.962616 100.0
273.996979 128.0
274.048035 120.0
274.100983 144.0
274.147095 548.0
274.212158 256.0
274.226227 60.0
274.235321 256.0
274.270874 176.0
274.377869 128.0
274.404236 120.0
274.453888 136.0
274.549316 172.0
274.573883 152.0
274.644958 132.0
274.677948 164.0
274.731232 156.0
274.81778 84.0
274.852814 84.0
275.047516 76.0
275.07724 40.0
275.111511 116.0
275.171967 172.0
275.211761 188.0
275.248901 128.0
275.283966 136.0
275.331482 40.0
275.509827 48.0
275.608948 136.0
275.63208 104.0
275.694885 116.0
275.79071 156.0
275.837006 140.0
275.865967 84.0
275.890991 80.0
276.049408 156.0
276.087067 140.0
276.141205 128.0
276.164368 80.0
276.266907 136.0
276.30661 48.0
276.348358 200.0
276.402557 124.0
276.511749 128.0
276.574646 148.0
276.723602 192.0
276.769958 36.0
276.856079 44.0
276.887238 184.0
276.919006 80.0
276.956268 192.0
277.065582 1508.0
277.203918 84.0
277.280121 224.0
277.301392 136.0
277.339783 36.0
277.372925 64.0
277.634857 184.0
277.664703 108.0
277.697357 100.0
277.737671 48.0
277.813995 108.0
277.873688 40.0
277.920135 212.0
277.951202 144.0
277.966095 172.0
278.072571 7748.0
278.148987 156.0
278.252777 164.0
278.317505 152.0
278.330505 108.0
278.370758 96.0
278.438019 40.0
278.507629 188.0
278.588013 100.0
278.648163 76.0
278.713745 152.0
278.74527 196.0
278.819 160.0
278.848145 188.0
278.861237 84.0
278.874512 136.0
278.935486 328.0
278.977325 284.0
279.002289 264.0
279.011932 136.0
279.024567 340.0
279.080597 33692.0
279.195435 196.0
279.277313 168.0
279.289062 144.0
279.327881 208.0
279.382019 44.0
279.448486 192.0
279.50061 336.0
279.537476 144.0
279.588104 116.0
279.621063 156.0
279.633026 92.0
279.699493 228.0
279.750885 52.0
279.798035 148.0
279.841309 84.0
279.889099 56.0
279.899719 176.0
279.939453 204.0
279.973297 200.0
280.087769 50604.0
280.166473 328.0
280.215149 164.0
280.251709 92.0
280.285065 156.0
280.312561 100.0
280.353363 72.0
280.388672 128.0
280.420227 152.0
280.455963 152.0
280.480682 52.0
280.502197 168.0
280.523376 328.0
280.562805 136.0
280.584961 188.0
280.626434 192.0
280.667236 68.0
280.689392 184.0
280.73584 160.0
280.746735 72.0
280.773682 164.0
280.78244 328.0
280.856506 284.0
280.901093 228.0
280.949371 136.0
280.975616 152.0
281.021759 124.0
281.094604 43572.0
281.184937 200.0
281.229065 236.0
281.325226 276.0
281.383972 148.0
281.422607 288.0
281.467834 72.0
281.498505 116.0
281.544373 252.0
281.573883 128.0
281.609161 144.0
281.647156 80.0
281.68222 36.0
281.733337 256.0
281.7724 84.0
281.818085 284.0
281.883942 96.0
281.893555 108.0
281.907593 124.0
281.944031 112.0
281.974304 124.0
282.009552 204.0
282.10022 29624.0
282.179718 60.0
282.191193 112.0
282.22168 132.0
282.306183 260.0
282.317505 140.0
282.357605 132.0
282.372772 40.0
282.379944 156.0
282.429626 60.0
282.47934 100.0
282.510864 320.0
282.547791 48.0
282.587524 184.0
282.651581 132.0
282.656342 120.0
282.672028 264.0
282.727234 192.0
282.744873 128.0
282.777985 148.0
282.804962 176.0
282.834015 44.0
282.844696 104.0
282.854065 64.0
282.889404 84.0
282.927063 64.0
282.961578 172.0
283.020477 428.0
283.094849 14416.0
283.176788 168.0
283.235291 72.0
283.287903 208.0
283.314728 192.0
283.361115 44.0
283.39267 60.0
283.456818 116.0
283.497223 96.0
283.56131 108.0
283.611511 28.0
283.652222 64.0
283.663818 68.0
283.745728 216.0
283.800446 104.0
283.840118 152.0
283.884521 76.0
283.914978 140.0
283.941528 72.0
283.96994 128.0
284.00174 164.0
284.012848 156.0
284.099701 7420.0
284.187927 164.0
284.264282 172.0
284.292664 108.0
284.315338 124.0
284.350861 104.0
284.374329 276.0
284.404175 72.0
284.415039 64.0
284.549561 60.0
284.637421 148.0
284.689941 136.0
284.745758 180.0
284.774628 72.0
284.837708 156.0
284.869202 140.0
284.899719 104.0
284.928406 84.0
284.97406 104.0
285.060333 1432.0
285.104034 1204.0
285.148743 308.0
285.18045 44.0
285.239136 112.0
285.260284 148.0
285.309601 76.0
285.347382 128.0
285.409058 68.0
285.492401 180.0
285.516663 136.0
285.588928 196.0
285.637726 124.0
285.70166 40.0
285.728577 52.0
285.824402 108.0
285.856415 48.0
285.898621 56.0
285.974213 116.0
286.009064 124.0
286.054718 132.0
286.058655 364.0
286.102448 152.0
286.157166 100.0
286.187378 88.0
286.254639 204.0
286.321014 140.0
286.354675 112.0
286.388367 68.0
286.536591 32.0
286.597229 28.0
286.664612 292.0
286.711792 32.0
286.755615 60.0
286.779205 88.0
286.880341 84.0
286.955719 100.0
287.046265 152.0
287.115112 392.0
287.170319 332.0
287.200684 52.0
287.291779 144.0
287.321136 80.0
287.36261 56.0
287.391144 168.0
287.44989 220.0
287.52121 100.0
287.598846 40.0
287.700104 144.0
287.737244 48.0
287.831787 92.0
287.858795 72.0
287.90271 32.0
288.013214 128.0
288.064758 164.0
288.091858 164.0
288.117554 256.0
288.247284 72.0
288.301331 52.0
288.382446 192.0
288.534576 184.0
288.652924 140.0
288.720551 120.0
288.869385 164.0
288.911224 128.0
288.935455 104.0
289.102142 100.0
289.180664 308.0
289.407501 40.0
289.451508 36.0
289.492126 132.0
289.522614 52.0
289.604279 148.0
289.722473 176.0
289.78653 136.0
289.820709 248.0
289.868164 148.0
289.956268 180.0
290.070984 324.0
290.200348 64.0
290.241028 152.0
290.329193 56.0
290.478424 44.0
290.71933 32.0
290.777039 44.0
290.800781 88.0
290.912811 156.0
290.951111 156.0
290.9841 88.0
291.034576 120.0
291.083435 416.0
291.180237 132.0
291.337311 40.0
291.446014 52.0
291.520782 172.0
291.602356 140.0
291.714508 168.0
291.775696 44.0
291.824921 76.0
291.881287 140.0
291.911713 96.0
291.943207 124.0
291.979736 296.0
292.087921 12920.0
292.142212 104.0
292.271179 124.0
292.333527 72.0
292.445831 104.0
292.490082 164.0
292.530945 64.0
292.619446 72.0
292.785095 100.0
292.84079 236.0
292.985992 96.0
293.091187 3872.0
293.221802 164.0
293.297394 160.0
293.345093 272.0
293.398071 112.0
293.449127 156.0
293.513336 104.0
293.563324 84.0
293.603699 100.0
293.689514 192.0
293.750916 104.0
293.798676 44.0
293.835388 204.0
293.901031 152.0
293.945374 116.0
293.968201 124.0
294.007202 168.0
294.103851 45760.0
294.198242 140.0
294.247589 180.0
294.313629 160.0
294.355011 156.0
294.396332 52.0
294.426727 32.0
294.498016 128.0
294.509674 112.0
294.57019 52.0
294.608185 64.0
294.654053 116.0
294.682922 88.0
294.70755 356.0
294.728333 176.0
294.757507 92.0
294.779419 100.0
294.835846 92.0
294.933655 192.0
295.000763 44.0
295.107117 7248.0
295.150879 176.0
295.185394 96.0
295.215912 264.0
295.262665 60.0
295.320953 56.0
295.373474 40.0
295.433502 88.0
295.500061 252.0
295.568512 44.0
295.613647 244.0
295.664307 116.0
295.685913 104.0
295.722931 188.0
295.815857 172.0
295.851898 60.0
295.888 80.0
295.927887 32.0
295.983337 104.0
296.016937 236.0
296.101532 8180.0
296.187286 168.0
296.234192 60.0
296.307922 92.0
296.345428 124.0
296.383453 64.0
296.425659 200.0
296.506317 84.0
296.619934 128.0
296.66745 116.0
296.69986 120.0
296.777618 108.0
296.869019 68.0
296.905334 160.0
296.951538 124.0
297.05481 520.0
297.102905 1824.0
297.199982 88.0
297.250977 48.0
297.30246 176.0
297.381409 40.0
297.492249 96.0
297.594238 108.0
297.783112 100.0
297.858673 72.0
297.980408 120.0
298.066315 148.0
298.107178 128.0
298.191986 124.0
298.2229 80.0
298.295105 56.0
298.319153 116.0
298.343231 48.0
298.510468 100.0
298.592499 60.0
298.652222 124.0
298.769653 124.0
298.967773 72.0
299.003632 48.0
299.052246 136.0
299.089691 40.0
299.127563 128.0
299.186066 156.0
299.219696 184.0
299.316925 40.0
299.411469 96.0
299.520966 180.0
299.613129 56.0
299.71994 68.0
299.871552 128.0
299.947388 68.0
300.036713 132.0
300.157715 48.0
300.188751 48.0
300.212891 108.0
300.240479 92.0
300.283234 140.0
300.354279 96.0
300.406036 152.0
300.474091 164.0
300.902985 160.0
301.132019 944.0
301.320892 108.0
301.355438 40.0
301.438354 88.0
301.568756 132.0
301.621552 52.0
301.676849 44.0
301.825531 132.0
301.873932 64.0
301.95694 68.0
302.043396 104.0
302.140533 5784.0
302.292511 56.0
302.406708 136.0
302.441315 48.0
302.531342 56.0
302.704437 220.0
302.759857 120.0
303.053345 188.0
303.106262 120.0
303.14386 1184.0
303.25528 144.0
303.307281 72.0
303.49646 120.0
303.536102 76.0
303.924591 140.0
304.056458 124.0
304.084229 72.0
304.142761 280.0
304.195312 156.0
304.341125 64.0
304.372375 116.0
304.490448 64.0
304.577271 36.0
304.633301 220.0
304.80658 60.0
305.063934 164.0
305.185455 40.0
305.345428 140.0
305.369781 112.0
305.675903 72.0
305.728119 136.0
305.839478 168.0
305.912598 68.0
306.006592 64.0
306.083191 120.0
306.112366 128.0
306.250366 120.0
306.316223 136.0
306.42453 52.0
306.511627 180.0
306.950867 48.0
307.060364 288.0
307.219421 112.0
307.261292 164.0
307.533478 152.0
307.575348 84.0
307.844177 48.0
307.938477 120.0
308.018829 84.0
308.072998 316.0
308.09964 168.0
308.141083 52.0
308.301819 104.0
308.406677 144.0
308.644409 96.0
308.724823 84.0
308.913696 120.0
309.013123 124.0
309.06778 112.0
309.11441 1092.0
309.484192 84.0
309.529694 36.0
309.711823 148.0
309.851929 168.0
310.088257 212.0
310.132141 576.0
310.207825 204.0
310.388214 116.0
310.468872 104.0
310.784576 152.0
310.868774 180.0
310.907379 128.0
310.934418 172.0
311.030243 64.0
311.067383 172.0
311.129791 3304.0
311.195221 104.0
311.327759 160.0
311.395386 44.0
311.437622 188.0
311.521851 56.0
311.648315 96.0
311.891541 196.0
311.913574 76.0
312.131836 1144.0
312.283112 112.0
312.421814 128.0
312.523834 264.0
312.594208 88.0
312.737518 232.0
312.92157 44.0
312.946198 100.0
313.000732 164.0
313.125 1020.0
313.242035 112.0
313.337158 44.0
313.400574 96.0
313.599823 148.0
313.678986 80.0
313.742462 56.0
313.812958 112.0
313.890533 144.0
314.082031 68.0
314.12326 132.0
314.200928 40.0
314.232666 144.0
314.511475 184.0
314.663269 184.0
314.712708 60.0
314.83139 168.0
314.885742 128.0
314.95636 148.0
315.323822 120.0
315.410126 132.0
315.578369 220.0
316.176178 40.0
316.200958 72.0
316.307129 72.0
316.42041 100.0
316.700165 144.0
317.462158 176.0
317.685608 168.0
318.019165 76.0
318.091309 136.0
318.27124 128.0
318.644165 160.0
318.707184 152.0
318.756317 208.0
319.104095 320.0
319.131104 48.0
319.212891 152.0
319.283997 92.0
319.397827 76.0
319.42627 172.0
319.621948 44.0
319.867523 120.0
319.945831 144.0
319.981445 72.0
320.081421 1052.0
320.110809 204.0
320.153473 316.0
320.230713 128.0
320.355377 76.0
320.380341 248.0
320.501465 68.0
320.679657 148.0
320.836487 176.0
320.93988 84.0
321.076477 360.0
321.200226 152.0
321.22876 52.0
321.389313 176.0
321.446411 152.0
321.582031 152.0
321.617706 52.0
321.670746 56.0
321.767639 92.0
321.803345 160.0
322.085785 5884.0
322.13092 212.0
322.185822 88.0
322.217651 36.0
322.250885 92.0
322.314117 44.0
322.356995 52.0
322.964783 132.0
323.036316 52.0
323.090271 1004.0
323.183014 104.0
323.211639 36.0
323.326141 116.0
323.50824 156.0
323.947571 124.0
324.0065 104.0
324.080719 2036.0
324.160553 44.0
324.325439 132.0
324.368439 56.0
324.429382 168.0
324.479584 180.0
324.5979 48.0
324.802338 112.0
324.834625 56.0
325.084961 504.0
325.132416 52.0
325.22934 60.0
325.283173 120.0
325.358551 104.0
325.382385 100.0
325.41037 112.0
325.538086 176.0
325.581177 244.0
326.091339 104.0
326.141663 152.0
326.215088 128.0
326.532288 172.0
326.625519 148.0
327.127289 128.0
327.152496 120.0
327.274902 80.0
327.541382 128.0
328.006226 104.0
328.157288 208.0
328.236969 40.0
328.276642 176.0
328.464203 52.0
328.926086 112.0
328.969391 108.0
329.496124 132.0
329.583374 108.0
329.68454 84.0
329.861664 128.0
330.035187 88.0
330.805817 160.0
331.055634 40.0
331.363525 136.0
331.54834 52.0
331.798431 120.0
332.063141 52.0
332.161072 84.0
332.259033 56.0
332.302582 48.0
332.436829 100.0
332.527557 84.0
332.861542 72.0
332.985016 60.0
333.032227 88.0
333.479156 148.0
333.649994 92.0
333.682709 76.0
333.886353 52.0
334.057312 60.0
334.148254 116.0
334.177368 92.0
334.259033 152.0
334.486694 68.0
334.534027 132.0
334.625031 148.0
334.785248 140.0
334.97464 44.0
335.09787 1260.0
335.240631 144.0
335.302582 116.0
335.51944 196.0
335.645264 48.0
335.699951 136.0
335.754669 188.0
335.810944 204.0
335.871368 136.0
335.938293 184.0
335.985901 252.0
336.000366 156.0
336.017517 188.0
336.044647 136.0
336.097229 272.0
336.182739 164.0
336.261993 216.0
336.336853 148.0
336.385895 244.0
336.445953 184.0
336.500336 68.0
336.561035 140.0
336.586761 244.0
336.621368 160.0
336.665527 212.0
336.69989 256.0
336.754883 148.0
336.809601 516.0
336.897827 212.0
336.935181 156.0
336.998138 320.0
337.110291 117364.0
337.223297 160.0
337.25293 132.0
337.300018 244.0
337.366119 208.0
337.439606 160.0
337.488831 76.0
337.524628 124.0
337.6008 124.0
337.631653 128.0
337.647675 52.0
337.655823 72.0
337.713623 460.0
337.742889 124.0
337.796753 92.0
337.823853 172.0
337.872498 136.0
337.921936 92.0
337.929871 84.0
337.978638 140.0
338.005707 160.0
338.043152 148.0
338.11261 20348.0
338.185333 76.0
338.226929 80.0
338.237793 52.0
338.256775 60.0
338.288086 244.0
338.330719 268.0
338.389313 72.0
338.428589 180.0
338.502136 44.0
338.540955 144.0
338.577789 84.0
338.658295 96.0
338.689209 156.0
338.70108 116.0
338.728485 220.0
338.759644 64.0
338.82193 104.0
338.854431 100.0
338.881439 180.0
338.903198 104.0
338.936493 92.0
338.985504 92.0
339.047546 100.0
339.107544 33172.0
339.160797 4936.0
339.21167 100.0
339.256165 52.0
339.292542 164.0
339.347137 192.0
339.455139 52.0
339.481232 156.0
339.505981 64.0
339.52066 48.0
339.534424 52.0
339.550934 44.0
339.604523 104.0
339.638397 188.0
339.681793 168.0
339.743683 80.0
339.780579 92.0
339.822998 100.0
339.899445 212.0
339.932648 80.0
339.99234 164.0
340.057648 104.0
340.109314 5548.0
340.163147 1296.0
340.242188 72.0
340.288757 112.0
340.330231 164.0
340.380402 104.0
340.441833 144.0
340.503784 136.0
340.559631 212.0
340.608734 176.0
340.674133 64.0
340.724945 96.0
340.765961 48.0
340.876465 100.0
340.960449 52.0
341.109039 212.0
341.15979 1688.0
341.251129 128.0
341.29303 60.0
341.36145 96.0
341.566772 96.0
341.591736 152.0
341.623932 88.0
341.662842 140.0
341.760284 112.0
341.819122 96.0
341.865143 52.0
341.968475 48.0
342.027374 64.0
342.080902 72.0
342.11203 80.0
342.158508 244.0
342.19101 132.0
342.303497 88.0
342.417664 104.0
342.446747 116.0
342.523773 148.0
342.564972 112.0
342.592163 128.0
342.690643 72.0
342.749207 36.0
342.800781 48.0
343.036682 40.0
343.117767 132.0
343.184143 92.0
343.212372 92.0
343.246826 96.0
343.420166 128.0
343.733307 104.0
343.866608 80.0
344.165619 76.0
344.206238 156.0
344.26532 84.0
344.328094 84.0
344.399689 156.0
344.441589 88.0
344.456909 64.0
344.512787 76.0
344.634705 68.0
344.749268 44.0
344.908203 192.0
345.518372 60.0
345.692261 108.0
345.757263 124.0
345.951355 64.0
346.168427 172.0
346.258698 104.0
346.684753 108.0
346.903412 84.0
347.031342 104.0
347.088806 120.0
347.292786 40.0
347.656372 96.0
347.738007 48.0
347.959351 204.0
348.180573 500.0
348.228119 72.0
348.395264 48.0
348.458435 100.0
348.499298 116.0
348.666504 40.0
348.703674 112.0
348.889526 28.0
349.133026 140.0
349.184479 368.0
349.431854 68.0
349.81958 68.0
349.961029 72.0
350.057861 40.0
350.158417 152.0
350.393097 208.0
350.78067 92.0
350.881317 92.0
350.985718 56.0
351.041656 60.0
351.116241 76.0
351.216949 88.0
351.39975 136.0
351.548981 60.0
351.590057 60.0
351.61618 76.0
351.66095 96.0
352.045502 104.0
352.079102 116.0
352.221039 100.0
352.247192 56.0
352.288269 136.0
352.318176 36.0
352.628296 116.0
352.740448 48.0
353.099976 288.0
353.189148 40.0
353.593262 92.0
353.698059 52.0
353.963867 72.0
354.116821 368.0
354.184845 56.0
354.398376 60.0
354.46582 64.0
354.694427 76.0
354.964386 64.0
355.122375 2864.0
355.376984 72.0
355.429504 52.0
355.455475 48.0
355.508331 68.0
355.587128 48.0
356.124268 392.0
356.311859 92.0
356.811707 52.0
356.856842 92.0
357.119171 880.0
357.253693 84.0
357.428558 76.0
357.669434 128.0
357.725891 48.0
358.117767 348.0
358.369904 116.0
359.089935 84.0
359.297394 72.0
359.795563 128.0
360.433868 64.0
360.774017 28.0
360.904358 68.0
361.031158 48.0
361.280792 76.0
361.640259 48.0
361.909058 64.0
362.791809 120.0
362.909363 172.0
363.152069 48.0
363.212738 152.0
363.941406 196.0
364.226227 236.0
364.279419 116.0
366.745178 104.0
366.928162 108.0
367.6987 56.0
368.118317 276.0
368.252319 80.0
368.886597 72.0
369.135132 104.0
370.099396 68.0
370.214264 92.0
371.076447 80.0
371.644104 116.0
373.491974 180.0
374.319427 88.0
374.41571 64.0
375.240326 96.0
375.737854 108.0
376.710693 148.0
377.580383 148.0
377.897583 36.0
378.327179 96.0
378.501404 76.0
378.753143 84.0
379.50885 104.0
379.644592 104.0
379.671722 104.0
379.869537 124.0
379.896698 80.0
380.13855 144.0
380.226501 96.0
380.261444 88.0
380.742859 120.0
380.773926 40.0
381.128723 176.0
381.146088 40.0
381.152283 92.0
381.788269 108.0
381.943848 124.0
382.025543 128.0
382.087799 92.0
382.141357 136.0
382.185059 132.0
382.227692 96.0
382.274567 144.0
382.406891 108.0
382.488617 76.0
382.624878 116.0
382.694946 32.0
382.761078 256.0
382.831238 164.0
382.906738 144.0
382.917999 144.0
382.966034 112.0
382.992432 144.0
383.061035 180.0
383.151672 27268.0
383.248047 128.0
383.300323 96.0
383.40976 112.0
383.460205 136.0
383.502258 68.0
383.575409 136.0
383.653381 76.0
383.73468 112.0
383.801117 76.0
383.838135 180.0
383.883423 108.0
383.926331 148.0
383.992615 84.0
384.045654 128.0
384.154419 4968.0
384.207001 184.0
384.211639 216.0
384.296906 36.0
384.347626 76.0
384.388519 192.0
384.429565 52.0
384.464203 64.0
384.554443 64.0
384.617889 84.0
384.714508 112.0
384.749634 160.0
384.809143 164.0
384.865906 224.0
384.93277 128.0
385.058105 140.0
385.148956 9540.0
385.249512 76.0
385.276855 64.0
385.331543 72.0
385.403107 152.0
385.486359 84.0
385.538666 104.0
385.589447 56.0
385.640259 164.0
385.698914 76.0
385.747894 172.0
385.804443 100.0
385.835724 72.0
385.882629 120.0
385.933472 68.0
385.976471 48.0
386.151886 1612.0
386.2659 160.0
386.392151 72.0
386.434479 88.0
386.565308 156.0
386.678223 84.0
386.73349 72.0
386.799225 164.0
386.860718 60.0
386.971283 112.0
387.018463 108.0
387.068207 56.0
387.158295 148.0
387.22879 36.0
387.381531 72.0
387.507935 92.0
387.53363 136.0
387.70282 52.0
387.994629 100.0
388.075226 48.0
388.134033 72.0
388.377197 156.0
388.541962 88.0
388.664978 68.0
388.793091 56.0
388.844086 36.0
389.107086 100.0
389.375641 52.0
389.523376 140.0
389.617645 48.0
389.908447 88.0
390.03421 48.0
390.132477 40.0
390.254364 80.0
390.423462 52.0
390.588654 104.0
390.698792 48.0
390.879791 56.0
391.045074 80.0
391.104095 96.0
391.805054 56.0
392.017822 56.0
392.33316 84.0
392.384399 56.0
392.463257 48.0
392.948395 36.0
393.465424 128.0
394.599304 140.0
394.757477 44.0
395.026428 76.0
395.240082 72.0
395.936798 60.0
395.97641 96.0
396.115021 64.0
396.202179 60.0
396.372559 80.0
396.558807 108.0
396.689636 44.0
396.864075 40.0
397.800354 84.0
398.054474 100.0
398.292755 80.0
398.499329 96.0
398.95639 108.0
399.026398 112.0
399.222778 144.0
399.911072 80.0
400.321136 96.0
400.416718 100.0
400.556122 80.0
400.850952 80.0
401.293396 108.0
402.234894 72.0
402.386597 92.0
403.009674 68.0
403.101593 104.0
403.621246 76.0
404.157227 60.0
404.385345 36.0
405.767365 104.0
406.228546 96.0
407.834747 56.0
408.00589 112.0
409.605225 100.0
409.774658 72.0
410.721802 60.0
411.012268 60.0
411.488556 128.0
411.815643 48.0
412.130737 76.0
413.647369 100.0
414.489777 48.0
415.142426 80.0
415.174866 72.0
415.897034 28.0
417.693054 124.0
418.669891 56.0
419.656006 92.0
420.116882 64.0
420.459625 68.0
421.039337 68.0
421.443756 76.0
424.349792 56.0
424.45639 40.0
424.870667 44.0
426.632477 68.0
426.780487 88.0
427.311066 68.0
428.68222 96.0
428.913025 84.0
428.979004 136.0
429.407806 104.0
429.94931 80.0
430.158783 28.0
430.8815 72.0
431.162476 92.0
431.265808 40.0
431.625488 104.0
432.419769 72.0
432.759216 48.0
433.036682 80.0
433.998108 92.0
434.777985 68.0
435.541931 92.0
436.639221 52.0
437.063538 44.0
437.646271 56.0
437.875305 76.0
437.90863 116.0
438.577362 80.0
438.982422 128.0
438.998932 84.0
439.638794 104.0
439.951843 100.0
440.838287 88.0
440.887482 112.0
442.075165 112.0
442.17981 84.0
442.874817 72.0
443.32312 56.0
443.394379 76.0
446.52533 80.0
446.703033 152.0
447.388977 72.0
447.671082 56.0
447.835358 68.0
447.936432 100.0
449.534363 64.0
449.593445 28.0
451.503021 68.0
452.213806 36.0
452.548218 52.0
452.59903 80.0
452.726074 48.0
453.382721 124.0
453.870239 120.0
454.256165 52.0
455.767609 80.0
457.34964 132.0
458.047974 108.0
458.925873 64.0
459.096436 56.0
459.382233 48.0
459.416351 60.0
459.668091 80.0
459.907074 112.0
459.949768 68.0
460.880768 104.0
461.799896 116.0
461.915405 76.0
462.082245 88.0
463.92807 84.0
464.189636 52.0
464.459808 88.0
465.726074 88.0
465.880707 96.0
466.55542 72.0
467.092957 56.0
467.777161 44.0
468.759155 44.0
468.806549 64.0
469.078094 140.0
469.198792 48.0
471.244568 52.0
471.663757 48.0
471.931793 52.0
473.602264 56.0
473.88385 108.0
474.915588 52.0
476.482697 104.0
477.695618 84.0
478.026276 56.0
479.284729 124.0
480.863373 60.0
481.138397 56.0
481.251892 108.0
481.575073 36.0
481.644958 120.0
482.1474 60.0
482.195465 44.0
482.724457 40.0
482.873138 68.0
483.678223 136.0
483.857727 60.0
484.010956 80.0
485.299194 72.0
486.799866 84.0
487.423645 76.0
487.880768 64.0
487.915924 44.0
487.977478 112.0
488.465637 44.0
489.270966 56.0
489.68927 52.0
491.276154 88.0
492.56958 72.0
493.608185 68.0
495.431732 168.0
497.702545 64.0
498.191101 84.0
499.309387 108.0
499.43576 64.0
499.640411 84.0
499.751617 40.0
501.368073 60.0
501.987732 56.0
502.55423 88.0
502.821991 88.0
502.906769 164.0
504.014313 32.0
505.825623 72.0
506.891571 44.0
507.613281 88.0
507.667084 80.0
507.824066 104.0
508.245758 104.0
508.609283 96.0
509.085175 84.0
509.516388 96.0
509.817444 72.0
510.694153 68.0
510.917419 88.0
511.445557 116.0
512.616516 108.0
513.910645 56.0
514.366455 88.0
514.538025 76.0
514.881226 64.0
515.332947 72.0
515.581482 116.0
515.938538 116.0
516.720947 120.0
517.06488 72.0
517.119202 56.0
518.840515 108.0
519.094421 80.0
519.811157 124.0
522.659546 76.0
523.233765 68.0
523.420471 108.0
523.771118 60.0
523.930542 44.0
524.249512 96.0
525.220642 52.0
525.521729 44.0
525.736206 80.0
525.895935 56.0
527.147339 48.0
528.445923 92.0
529.031738 40.0
529.485046 76.0
530.832397 68.0
530.974548 40.0
531.05249 132.0
531.68103 112.0
532.617676 64.0
533.398865 40.0
533.472412 128.0
534.332397 68.0
534.530273 60.0
535.331238 52.0
535.727356 48.0
535.920837 56.0
536.90271 48.0
537.176208 112.0
539.456116 84.0
539.571655 72.0
540.445801 112.0
540.644836 60.0
540.732727 80.0
541.367004 104.0
543.503967 68.0
545.463867 48.0
546.161377 84.0
547.860474 84.0
548.634033 76.0
548.736633 56.0
548.783264 76.0
551.508484 64.0
553.357422 32.0
554.678528 76.0
555.175476 52.0
556.602051 76.0
557.79541 32.0
559.328918 48.0
559.879761 100.0
560.855042 104.0
561.326538 124.0
562.246399 80.0
562.897888 48.0
563.01593 56.0
563.578064 52.0
564.022339 48.0
564.466736 76.0
565.17627 116.0
565.228333 80.0
565.389221 92.0
566.397705 64.0
567.445007 48.0
568.260803 68.0
568.498047 88.0
568.640442 72.0
569.286133 44.0
575.213806 100.0
576.321777 68.0
577.426086 48.0
577.837463 68.0
578.024048 48.0
578.416504 84.0
581.858582 104.0
582.314758 52.0
582.42041 64.0
583.290161 72.0
584.261536 168.0
585.281921 40.0
586.201965 64.0
586.775574 76.0
587.098633 116.0
588.257812 60.0
588.657349 80.0
588.947144 64.0
590.788879 68.0
591.171143 108.0
592.410645 80.0
592.812744 92.0
595.233398 84.0
595.301392 44.0
596.443115 84.0
597.522705 148.0
597.673584 40.0
597.838989 88.0
598.97345 44.0
601.55304 128.0
605.356934 56.0
607.287903 76.0
607.523315 100.0
608.087646 68.0
609.683777 88.0
610.160583 76.0
610.903198 84.0
613.720337 96.0
618.230347 60.0
619.106567 40.0
620.965088 116.0
621.694397 72.0
622.319824 144.0
626.701843 100.0
627.47937 132.0
629.530151 88.0
629.565125 60.0
631.664307 104.0
632.134644 68.0
632.354858 120.0
633.150879 68.0
634.418579 36.0
634.579041 76.0
637.018066 84.0
637.430054 48.0
637.56073 44.0
639.049194 72.0
639.220276 108.0
639.607788 84.0
640.368103 36.0
641.905212 88.0
646.006348 120.0
646.451599 64.0
646.66925 80.0
647.443848 56.0
648.102417 60.0
649.577698 152.0
652.263977 48.0
652.930054 68.0
653.474304 48.0
653.896667 64.0
654.21228 64.0
654.329346 56.0
658.572144 112.0
660.381531 60.0
660.775391 40.0
666.960022 96.0
668.904419 52.0
669.218445 68.0
670.413513 48.0
670.66095 52.0
671.547791 84.0
671.645752 36.0
672.404236 76.0
673.529846 44.0
676.104675 72.0
678.435547 44.0
678.6745 92.0
680.739258 100.0
682.100525 96.0
685.723206 72.0
688.27948 64.0
688.430908 72.0
689.162231 96.0
689.360779 68.0
689.956604 68.0
690.259888 56.0
690.479553 112.0
692.751221 112.0
693.631592 76.0
694.155884 56.0
694.334167 132.0
695.372986 60.0
699.457031 72.0
700.831604 44.0
702.054565 108.0
702.170593 116.0
703.273315 200.0
706.449097 120.0
706.962341 32.0
708.206482 48.0
712.243042 96.0
714.193787 116.0
714.454468 112.0
714.869446 160.0
717.122253 44.0
720.468018 136.0
722.788513 92.0
722.825928 28.0
723.709167 44.0
726.769714 36.0
728.783264 36.0
729.202393 56.0
729.369019 64.0
732.533081 68.0
738.378723 60.0
740.516602 68.0
742.261658 72.0
742.549072 128.0
742.690063 68.0
743.938171 52.0
744.573425 92.0
747.149963 40.0
747.998901 64.0
757.259521 104.0
758.092285 96.0
760.357239 84.0
760.609741 88.0
761.839783 88.0
762.548645 56.0
765.563538 92.0
767.007019 104.0
771.682983 112.0
772.424072 88.0
773.824158 160.0
776.478516 60.0
777.438293 96.0
779.348511 84.0
780.109924 48.0
780.26001 48.0
783.426697 52.0
785.360962 56.0
787.018433 108.0
787.800354 80.0
792.847351 96.0
793.396667 72.0
793.56488 72.0
798.276001 56.0
799.682434 88.0
799.907593 64.0
808.894409 56.0
812.413513 96.0
817.259827 80.0
819.400635 72.0
820.016052 92.0
820.728638 112.0
820.779968 56.0
825.759827 88.0
827.728455 64.0
830.783386 108.0
831.357117 40.0
831.799072 68.0
833.131348 96.0
833.499084 100.0
834.757996 64.0
843.504272 56.0
843.729736 68.0
844.747559 96.0
849.956116 60.0
850.170837 48.0
853.226135 64.0
855.337891 68.0
856.6073 80.0
869.148132 96.0
869.922852 84.0
870.063721 76.0
874.896301 52.0
875.997498 116.0
876.050537 60.0
876.533691 48.0
888.762024 84.0
889.670105 52.0
893.473633 88.0
900.029846 52.0
902.001404 100.0
906.382324 56.0
906.640015 100.0
907.970947 84.0
912.727112 48.0
915.736145 64.0
916.344543 96.0
920.343445 72.0
922.651489 88.0
932.866577 76.0
934.995483 156.0
939.303223 96.0
939.797363 124.0
944.128418 76.0
951.045593 116.0
954.024841 44.0
959.442444 56.0
975.631714 76.0
977.404358 96.0
978.530945 84.0
979.365417 76.0
981.864746 52.0
984.71698 200.0
988.655701 96.0
991.981567 104.0
997.310852 60.0
1002.585083 56.0
1005.827026 56.0
1011.680725 52.0
1013.580811 68.0
1017.278381 40.0
1019.215515 68.0
1022.293274 52.0
1025.101562 96.0
1028.986206 108.0
1030.646851 76.0
1041.126953 48.0
1041.467285 64.0
1044.366211 80.0
1046.901978 76.0
1047.829468 72.0
1048.332153 160.0
1049.350586 76.0
1052.518677 76.0
1052.776978 112.0
1055.853149 84.0
1057.509521 56.0
1058.681274 52.0
1063.82959 152.0
1069.57605 100.0
1070.20105 80.0
1071.920654 80.0
1072.552856 40.0
1076.682861 72.0
1080.408691 56.0
1082.370361 48.0
1083.276123 56.0
1084.213013 92.0
1084.278564 72.0
1093.776245 56.0
1095.620117 108.0
1096.430542 76.0
1096.700806 64.0
1102.674072 192.0
1102.766602 100.0
1105.544312 48.0
1106.907959 180.0
1107.616699 72.0
1113.672607 152.0
1115.094482 92.0
1121.210815 48.0
1122.944336 64.0
1123.858276 88.0
1124.72583 88.0
1125.239868 92.0
1130.989014 164.0
1136.075073 128.0
1140.177734 188.0
1144.59082 120.0
1147.386963 72.0
1151.401855 76.0
1154.084717 96.0
1154.930054 164.0
1155.565918 80.0
1159.364746 88.0
1163.644897 52.0
1166.811035 196.0
1169.886108 156.0
1179.251709 68.0
1180.87207 72.0
1182.787964 92.0
1183.034424 60.0
1183.280884 224.0
1185.911377 104.0
1186.295288 120.0
1193.428589 148.0
1193.52478 48.0
1196.008423 60.0
1196.352539 60.0
1198.845947 68.0
1202.570312 60.0
1202.791138 140.0
1204.158325 196.0
1205.077026 72.0
1207.932251 80.0
1211.372681 112.0
1213.89563 64.0
1217.247314 52.0
1227.804321 180.0
1231.922485 100.0
1232.076172 108.0
1232.334717 128.0
1233.067993 164.0
1233.572144 60.0
1234.424683 116.0
1236.600464 140.0
1237.881592 184.0
1238.070679 32.0
1246.77002 84.0
1253.384888 44.0
1256.783569 52.0
1262.583252 60.0
1265.661499 208.0
1266.922241 52.0
1268.530884 48.0
1272.624512 108.0
1286.279419 40.0
1288.428955 208.0
1292.912231 116.0
1298.758667 100.0
1299.37561 40.0
1299.892212 40.0
1300.87561 92.0
1301.076538 60.0
1302.979736 160.0
1303.295898 124.0
1304.596802 192.0
1306.545776 108.0
1307.912964 100.0
1309.857178 160.0
1314.377686 32.0
1314.637451 136.0
1330.75061 44.0
1337.169556 96.0
1342.87439 100.0
1344.807861 52.0
1347.772949 120.0
1351.53125 104.0
1352.197266 192.0
1354.115479 104.0
1354.833374 60.0
1355.382812 180.0
1356.848755 224.0
1357.904663 32.0
1362.132568 52.0
1362.727661 160.0
1363.264038 112.0
1364.837158 260.0
1372.80481 152.0
1375.268921 112.0
1378.917603 208.0
1385.547852 80.0
1386.607544 124.0
1386.740967 108.0
1387.415405 120.0
1390.397339 216.0
1390.872314 168.0
1391.124756 220.0
1399.898315 196.0
1400.345215 168.0
1402.945801 160.0
1405.048828 80.0
1407.862915 76.0
1408.467896 84.0
1410.605103 80.0
1410.784424 172.0
1411.577026 68.0
1412.167847 148.0
1412.863525 60.0
1414.247925 132.0
1415.086304 164.0
1423.281738 36.0
1428.061279 104.0
1433.240845 164.0
1433.346313 52.0
1436.007446 92.0
1437.742798 116.0
1440.785767 116.0
1442.614624 44.0
1444.754761 108.0
1444.890991 148.0
1451.328979 104.0
1452.519653 52.0
1453.043091 136.0
1456.907471 28.0
1456.983398 136.0
1460.290039 132.0
1461.164917 200.0
1464.316528 180.0
1464.986694 192.0
1465.41333 132.0
1467.013794 68.0
1472.469482 132.0
1478.708374 116.0
1478.807861 128.0
1479.986816 140.0
1480.752563 192.0
1480.813843 48.0
1482.016602 148.0
1484.630493 44.0
1484.898926 168.0
1488.229492 92.0
1490.472412 136.0
1493.639893 164.0
1496.310303 168.0
1496.610596 128.0
1496.910889 124.0
1497.842773 188.0
1500.617188 220.0
1502.105591 76.0
1503.563843 48.0
1504.55188 116.0
1504.868408 52.0
1505.046021 80.0
