>compound NCGC00160235-01!GLYCOPERINE
>formula C19H21NO8
>ionization [M+H]+
>parentmass 392.135
#inchi InChI=1S/C19H21NO8/c1-8-13(21)14(22)15(23)19(27-8)28-11-5-4-9-12(17(11)25-3)20-18-10(6-7-26-18)16(9)24-2/h4-8,13-15,19,21-23H,1-3H3/t8-,13-,14-,15-,19+/m1/s1
#inchikey KJOKSAQCWDHTOL
#Ion_Source LC-ESI
#Instrument qTOF
#Compound_Source Prestwick Phytochem Lib
#PI Dorrestein
#Data_Collector VVP/LMS
#Scan -1
#Precursor_MZ 392.135
#ExactMass 391.127
#Charge 1
#CAS_Number N/A
#Pubmed_ID N/A
#Smiles COC1=C2C=COC2=NC3=C1C=CC(O[C@@H]4O[C@H](C)[C@@H](O)[C@@H](O)[C@H]4O)=C3OC
#INCHI_AUX N/A
#Library_Class 1
#SpectrumID CCMSLIB00000078715
#IonMode Positive
#UpdateWorkflowName UPDATE-SINGLE-ANNOTATED-GOLD
#LibraryQualityString Gold
#TaskID 67c915c6594c435cadc1fe2b5358144d
##Scan# 1597
#SpectrumFile p1-F02_GF2_01_17934.mzXML
#LibraryName phytochem_lib.mgf
#MQScore -1
#Organism phytochem_lib
#TIC_Query 0
#RT_Query -1
#MZErrorPPM -1
#SharedPeaks 0
#MassDiff 0
#LibMZ -1
#SpecMZ 392.135
#SpecCharge 0
#internalFilename spec-00000.mgf

>collision 10
95.167747 204.0
95.202705 120.0
95.330917 96.0
95.385338 140.0
95.468941 192.0
95.533821 212.0
95.945976 48.0
96.012276 160.0
96.11956 164.0
96.269875 108.0
96.770439 140.0
96.836571 156.0
96.968285 192.0
97.076111 192.0
97.229126 136.0
97.443161 124.0
97.556908 200.0
97.596466 124.0
97.692833 216.0
97.856178 176.0
97.869965 156.0
97.923912 152.0
97.986168 180.0
98.281914 252.0
98.372696 184.0
98.433899 76.0
98.481293 176.0
98.526726 196.0
98.568222 160.0
98.987572 72.0
99.146049 204.0
99.241203 180.0
99.425682 52.0
99.508148 184.0
99.523857 208.0
99.58252 108.0
99.640129 148.0
99.834923 76.0
99.938354 136.0
100.033882 148.0
100.131447 48.0
100.722916 152.0
100.821724 192.0
100.929672 152.0
101.21981 200.0
101.271881 140.0
101.337982 184.0
101.364029 180.0
101.715004 92.0
101.730484 152.0
101.76519 76.0
101.847527 128.0
101.974106 144.0
102.068588 160.0
102.136971 44.0
102.283859 252.0
102.64045 156.0
102.673271 72.0
102.82402 112.0
102.907341 188.0
103.159317 264.0
103.594391 236.0
103.651123 112.0
103.760567 104.0
103.848763 160.0
103.918762 124.0
104.053261 164.0
104.164406 168.0
104.239578 144.0
104.331039 76.0
104.404236 124.0
104.453049 144.0
104.544609 168.0
104.593452 148.0
104.652489 204.0
104.719688 88.0
104.955673 160.0
105.026619 348.0
105.053978 68.0
105.147835 76.0
105.284409 228.0
105.36837 64.0
105.497116 172.0
105.531876 120.0
105.589127 124.0
105.687317 188.0
105.76918 112.0
106.012901 180.0
106.195358 184.0
106.230232 212.0
106.275368 136.0
106.32872 148.0
106.423141 184.0
106.536102 160.0
106.56897 144.0
106.628563 176.0
106.807442 180.0
106.821838 76.0
106.888069 168.0
106.932953 144.0
107.000877 256.0
107.165642 176.0
107.23777 100.0
107.293427 108.0
107.710274 192.0
107.757782 152.0
107.784645 168.0
108.020332 120.0
108.107231 208.0
108.31427 148.0
108.388847 156.0
108.435684 220.0
108.650093 148.0
108.677063 144.0
108.878418 172.0
109.069557 188.0
109.323296 152.0
109.350349 40.0
109.722221 208.0
109.825394 204.0
109.90049 160.0
109.950577 108.0
110.023628 128.0
110.140572 164.0
110.178169 100.0
110.316093 108.0
110.389275 188.0
110.498039 104.0
110.600578 184.0
110.79113 132.0
110.80999 268.0
110.866562 96.0
110.946213 152.0
111.048958 196.0
111.141258 64.0
111.166443 104.0
111.273491 184.0
111.298683 152.0
111.317581 192.0
111.418404 160.0
111.452682 208.0
111.622276 140.0
111.746376 156.0
112.381454 188.0
112.48185 272.0
112.540962 180.0
112.555748 96.0
112.659233 132.0
112.769112 268.0
112.898071 100.0
112.97422 156.0
113.122353 176.0
113.257866 144.0
113.4189 68.0
113.537636 204.0
113.560959 108.0
113.620354 204.0
113.749802 148.0
113.796509 128.0
113.945175 152.0
114.144974 160.0
114.178993 148.0
114.387512 124.0
114.457764 56.0
114.566383 156.0
114.581299 144.0
114.598343 188.0
114.642159 192.0
114.675056 180.0
114.68998 68.0
114.794441 140.0
114.824303 188.0
114.950165 224.0
115.093178 180.0
115.11026 124.0
115.379471 124.0
115.39872 132.0
115.420097 100.0
115.462868 308.0
115.593361 88.0
115.775322 188.0
115.820297 128.0
116.191147 108.0
116.23835 140.0
116.289856 224.0
116.354256 152.0
116.657158 176.0
116.698006 148.0
116.794777 184.0
116.809837 256.0
116.846405 188.0
116.934631 156.0
117.240448 164.0
117.354691 148.0
117.389191 160.0
117.446373 148.0
117.717194 152.0
117.758224 144.0
117.937553 252.0
117.957008 192.0
118.067444 160.0
118.359413 188.0
118.443871 156.0
118.558701 68.0
118.580376 212.0
118.651909 144.0
118.66925 176.0
118.701775 28.0
118.827576 104.0
118.886162 160.0
118.93174 136.0
118.996864 192.0
119.062378 164.0
119.109787 212.0
119.538086 176.0
119.640381 216.0
119.659981 200.0
119.742722 176.0
119.930099 44.0
120.189613 168.0
120.250717 112.0
120.307465 52.0
120.375153 152.0
120.394806 160.0
120.421013 64.0
120.81089 224.0
121.013176 196.0
121.210754 104.0
121.239243 200.0
121.300613 104.0
121.544044 228.0
121.565994 188.0
122.302238 200.0
122.42112 160.0
122.663475 144.0
123.087074 128.0
123.196663 148.0
123.209114 124.0
123.405243 128.0
123.478218 192.0
123.500336 52.0
123.830116 248.0
124.007362 116.0
124.025093 156.0
124.098251 168.0
124.135941 80.0
124.180298 132.0
124.237968 196.0
124.308968 160.0
124.505463 148.0
124.562065 204.0
124.59539 148.0
124.712433 244.0
124.911057 152.0
125.075722 64.0
125.091301 220.0
125.120239 132.0
125.226204 184.0
125.436569 244.0
125.710983 112.0
125.838127 160.0
125.876091 176.0
125.992233 200.0
126.081604 120.0
126.222443 80.0
126.376778 220.0
126.441666 104.0
126.542397 140.0
126.616295 164.0
126.642967 180.0
126.796761 152.0
126.934509 196.0
127.037682 140.0
127.118446 180.0
127.149864 140.0
127.190269 228.0
127.210472 116.0
127.238335 160.0
127.293541 208.0
127.311508 132.0
127.430557 112.0
127.689056 240.0
127.731796 120.0
127.785789 156.0
127.876053 176.0
128.042404 180.0
128.123489 32.0
128.14827 104.0
128.188828 84.0
128.493225 124.0
128.7099 184.0
128.746033 60.0
128.840897 148.0
128.856705 164.0
128.935791 124.0
128.981003 184.0
129.105347 140.0
129.447052 132.0
129.512726 136.0
129.553497 132.0
129.65094 120.0
129.759735 60.0
129.816422 168.0
129.839096 132.0
129.923019 164.0
129.957062 108.0
130.027405 156.0
130.077332 132.0
130.100037 188.0
130.545364 120.0
130.602219 100.0
130.747833 244.0
131.082581 148.0
131.116013 216.0
131.237579 196.0
131.394958 172.0
132.043915 188.0
132.206116 180.0
132.439636 184.0
132.457962 216.0
132.492325 124.0
132.570221 120.0
132.586258 164.0
132.677948 184.0
132.719223 144.0
132.822418 148.0
132.932541 68.0
133.062225 152.0
133.221832 152.0
133.305466 144.0
133.343613 76.0
133.449356 152.0
133.562042 152.0
133.968826 212.0
134.036301 128.0
134.181503 208.0
134.673019 120.0
134.911026 208.0
135.026627 152.0
135.100647 144.0
135.128418 216.0
135.269577 164.0
135.332092 212.0
135.387665 88.0
135.547501 84.0
135.633255 124.0
135.696411 244.0
135.721344 136.0
135.758453 204.0
135.844269 140.0
136.002045 184.0
136.180832 140.0
136.235565 212.0
136.262131 144.0
136.578278 216.0
136.629456 164.0
136.648071 140.0
136.669006 140.0
137.071838 192.0
137.102127 140.0
137.262985 40.0
137.304962 200.0
137.535934 56.0
137.610641 100.0
137.673691 52.0
137.774124 128.0
137.909653 48.0
137.963409 116.0
138.618759 124.0
138.649216 60.0
138.726578 192.0
138.832077 124.0
139.012711 192.0
139.046844 256.0
139.07608 112.0
139.696411 212.0
140.181427 64.0
140.393982 196.0
140.608276 240.0
140.723938 144.0
140.794785 196.0
140.934143 320.0
141.068863 72.0
141.175262 200.0
141.213089 108.0
141.269867 200.0
141.480484 244.0
141.57045 76.0
141.83107 136.0
141.935379 40.0
142.072937 128.0
142.360138 160.0
142.393387 152.0
142.50502 120.0
142.607208 156.0
142.673233 196.0
142.780762 168.0
142.971085 124.0
143.066299 184.0
143.495117 132.0
143.571152 140.0
143.695465 56.0
143.774902 220.0
143.901413 136.0
143.938919 144.0
143.991455 240.0
144.053558 160.0
144.275803 96.0
144.39296 200.0
144.409698 116.0
144.663345 160.0
144.778275 28.0
144.8573 88.0
144.974701 220.0
145.550415 132.0
145.687317 176.0
145.709549 172.0
145.836288 64.0
145.978134 156.0
146.074158 192.0
146.261566 168.0
146.447433 192.0
146.493195 168.0
146.734192 160.0
147.047775 124.0
147.139496 168.0
147.170883 164.0
147.231262 148.0
147.327866 128.0
147.371353 140.0
147.528442 156.0
147.613831 192.0
147.709808 144.0
147.833206 64.0
148.011597 212.0
148.101944 76.0
148.215805 148.0
148.27153 152.0
148.312729 212.0
148.45578 124.0
148.5625 64.0
148.59404 172.0
148.831894 56.0
148.936203 164.0
149.040787 156.0
149.077225 112.0
149.193893 188.0
149.349518 132.0
149.368988 112.0
149.393311 192.0
149.461426 148.0
149.95578 224.0
150.024033 204.0
150.136185 132.0
150.263031 164.0
150.280106 88.0
150.319153 236.0
150.426529 136.0
150.685394 148.0
151.147507 180.0
151.230713 144.0
151.252747 156.0
151.455978 160.0
151.500076 240.0
151.588272 176.0
151.674057 132.0
151.88002 72.0
152.034592 208.0
152.30957 168.0
152.417664 116.0
152.552841 152.0
152.577835 168.0
152.653641 72.0
152.801224 204.0
152.862732 148.0
153.170486 112.0
153.549759 172.0
153.57225 220.0
153.700531 144.0
153.779495 152.0
153.828873 224.0
153.920212 244.0
153.972076 144.0
154.199371 52.0
154.377365 164.0
154.458984 56.0
154.872894 232.0
154.894638 148.0
154.961151 264.0
155.034851 256.0
155.117645 160.0
155.236649 176.0
155.348267 148.0
155.387955 68.0
155.626221 204.0
155.670914 52.0
155.896805 208.0
156.043808 384.0
156.088379 216.0
156.167969 60.0
156.240097 64.0
156.272446 128.0
156.394379 156.0
156.45163 184.0
156.68074 164.0
157.052231 404.0
157.094574 68.0
157.344131 72.0
157.40155 188.0
157.461487 168.0
157.754211 160.0
157.871338 112.0
157.901352 220.0
158.477097 204.0
158.522202 176.0
158.655045 184.0
158.69516 164.0
158.860672 44.0
159.023773 124.0
159.051392 128.0
159.387909 148.0
159.506027 116.0
159.609116 112.0
159.704666 64.0
159.945389 84.0
160.039169 660.0
160.082184 128.0
160.321487 28.0
160.402145 116.0
160.49794 200.0
160.785522 84.0
160.81076 156.0
160.833481 152.0
160.881439 136.0
160.936981 128.0
161.022842 264.0
161.121353 188.0
161.202194 132.0
161.262848 120.0
161.482819 124.0
161.535934 224.0
161.578934 200.0
161.627014 132.0
161.743423 196.0
161.884491 168.0
161.99411 152.0
162.016113 164.0
162.04985 148.0
162.086655 156.0
162.399673 208.0
162.655945 128.0
162.754959 132.0
163.026764 180.0
163.047089 148.0
163.169098 168.0
163.18689 100.0
163.381165 124.0
163.474319 164.0
163.604126 148.0
163.693237 84.0
163.815201 176.0
163.90976 156.0
163.942886 144.0
164.093277 184.0
164.113678 196.0
164.179977 160.0
164.223328 140.0
164.256714 228.0
164.37384 112.0
164.404465 156.0
164.521881 180.0
164.797226 108.0
164.945923 172.0
165.306534 120.0
165.415054 140.0
165.470352 140.0
165.536926 196.0
165.675232 216.0
165.718781 228.0
165.795288 140.0
166.085373 144.0
166.131546 236.0
166.278961 88.0
166.449799 164.0
166.490891 188.0
166.565369 184.0
166.668137 52.0
166.832611 196.0
166.907181 136.0
167.100693 84.0
167.197861 144.0
167.463043 124.0
167.693146 196.0
167.994034 164.0
168.092072 116.0
168.120453 212.0
168.443192 152.0
168.497437 156.0
168.61113 144.0
168.792084 152.0
168.854156 156.0
168.913651 220.0
169.03006 116.0
169.263031 136.0
169.286331 132.0
169.335541 116.0
169.51947 268.0
169.59758 148.0
169.656845 176.0
169.716476 100.0
169.79686 128.0
169.885056 92.0
170.064957 168.0
170.126389 152.0
170.149765 100.0
170.518616 108.0
170.588791 112.0
170.669388 84.0
170.80983 232.0
170.947708 188.0
170.979172 176.0
171.090866 224.0
171.286179 76.0
171.421646 128.0
171.593674 136.0
171.635391 112.0
171.692764 204.0
171.771011 172.0
171.812744 164.0
171.831009 148.0
171.875366 44.0
171.958878 164.0
172.042404 136.0
172.102448 180.0
172.167725 148.0
172.243469 172.0
172.538757 228.0
172.737503 176.0
172.842163 168.0
173.020142 120.0
173.140579 256.0
173.33075 200.0
173.350159 196.0
173.473923 200.0
173.544128 152.0
173.704102 48.0
173.853653 188.0
173.911392 96.0
174.051376 176.0
174.129303 180.0
174.289551 40.0
174.457748 196.0
174.608398 136.0
175.055008 140.0
175.402771 132.0
175.539871 164.0
175.563599 188.0
175.724503 204.0
175.753525 112.0
175.867004 56.0
176.038605 164.0
176.0634 184.0
176.117844 152.0
176.183884 136.0
176.374146 140.0
176.479889 144.0
176.535416 204.0
176.651794 180.0
176.868774 144.0
176.889938 156.0
177.310776 156.0
177.329636 108.0
177.34819 92.0
177.499298 208.0
177.568253 104.0
177.671692 196.0
177.899918 188.0
178.268478 204.0
178.311844 200.0
178.71582 124.0
178.785004 104.0
178.848892 208.0
178.98465 212.0
179.048569 136.0
179.083191 104.0
179.155106 188.0
179.237701 120.0
179.386948 104.0
179.453598 132.0
179.53093 164.0
179.755005 132.0
179.859085 160.0
180.075363 60.0
180.195572 236.0
180.412903 184.0
180.559097 132.0
180.80397 172.0
181.324783 92.0
181.397156 160.0
181.458817 140.0
181.847778 128.0
182.003479 188.0
182.532822 132.0
182.931 124.0
182.949844 112.0
183.03006 136.0
183.035599 108.0
183.048843 120.0
183.058624 200.0
183.095245 168.0
183.264954 188.0
183.302673 136.0
183.348495 132.0
183.410477 96.0
183.701706 156.0
183.863586 148.0
184.039383 1920.0
184.101151 68.0
184.13324 164.0
184.246231 152.0
184.328064 128.0
184.414551 180.0
184.492935 148.0
184.557831 120.0
184.703079 180.0
184.74173 156.0
184.99881 196.0
185.045059 792.0
185.090866 144.0
185.169403 152.0
185.245239 64.0
185.266907 180.0
185.299423 216.0
185.31839 156.0
185.396973 144.0
185.418625 212.0
185.581299 156.0
185.608414 132.0
185.632812 200.0
185.697891 60.0
185.777512 136.0
185.971924 200.0
186.052856 172.0
186.180664 140.0
186.216293 92.0
186.257034 112.0
186.43634 216.0
186.561371 132.0
186.605347 184.0
186.757156 96.0
186.808838 124.0
187.045578 144.0
187.467178 196.0
187.609451 184.0
187.74852 116.0
187.86853 96.0
187.961288 200.0
187.980392 72.0
188.033249 2900.0
188.067719 156.0
188.095016 72.0
188.381744 60.0
188.493759 288.0
188.51561 176.0
188.73703 108.0
188.860092 168.0
188.879242 68.0
188.933945 100.0
189.035797 480.0
189.084442 136.0
189.147568 124.0
189.402054 168.0
189.52533 64.0
189.549988 144.0
189.648651 216.0
189.845535 220.0
190.033051 224.0
190.065491 192.0
190.114883 64.0
190.252121 128.0
190.295792 132.0
190.348221 200.0
190.510254 196.0
190.532242 120.0
190.730087 132.0
190.930801 80.0
190.966553 140.0
191.065948 148.0
191.090332 168.0
191.280228 160.0
191.393097 200.0
191.417877 172.0
191.519775 172.0
191.671295 152.0
191.701614 104.0
192.388397 180.0
192.587204 220.0
192.656265 80.0
192.896683 112.0
193.10405 108.0
193.400101 164.0
193.635437 132.0
193.718536 116.0
193.956833 132.0
194.137054 104.0
194.26741 228.0
194.547684 108.0
194.70874 124.0
194.858887 152.0
195.02269 136.0
195.114426 192.0
195.136658 132.0
195.200607 240.0
195.32312 156.0
195.810059 148.0
195.910339 140.0
196.063583 100.0
196.10817 220.0
196.147202 188.0
196.297745 184.0
196.317276 172.0
196.682755 84.0
196.802795 116.0
197.096069 168.0
197.217957 144.0
197.308487 112.0
197.336456 128.0
197.439911 196.0
197.49025 204.0
197.596558 160.0
197.655304 148.0
197.938019 192.0
198.010834 80.0
198.321823 184.0
198.347061 144.0
198.399384 132.0
198.691971 152.0
198.7509 144.0
199.076508 100.0
199.562622 160.0
199.627304 92.0
199.679916 208.0
199.874832 96.0
199.897354 92.0
200.038071 28.0
200.069885 1136.0
200.156311 180.0
200.226715 104.0
200.364746 228.0
200.576096 64.0
200.748062 168.0
201.04306 176.0
201.078979 176.0
201.128937 120.0
201.227753 52.0
201.356934 176.0
201.52713 124.0
201.597778 140.0
201.778671 136.0
202.007736 120.0
202.048676 1680.0
202.095444 128.0
202.273727 140.0
202.36998 52.0
202.406799 176.0
202.497406 132.0
202.518478 128.0
202.641876 160.0
202.919632 188.0
203.058395 544.0
203.279861 160.0
203.3508 156.0
203.410416 148.0
203.444794 180.0
203.509781 128.0
203.582642 132.0
203.779602 168.0
203.906006 172.0
204.056595 156.0
204.095093 176.0
204.197464 152.0
204.618607 176.0
204.735336 156.0
204.770782 212.0
205.051575 132.0
205.077225 140.0
205.125687 108.0
205.265381 128.0
205.34523 88.0
205.596283 76.0
205.639099 180.0
205.693329 124.0
205.936035 76.0
206.043365 160.0
206.144577 120.0
206.164581 64.0
206.201736 172.0
206.341797 184.0
206.407562 148.0
206.484772 132.0
206.593475 188.0
206.616348 132.0
206.707916 256.0
206.911133 160.0
207.166 124.0
207.246231 144.0
207.458313 172.0
207.486969 176.0
207.60498 280.0
207.65329 140.0
207.753677 140.0
207.874191 208.0
207.997589 236.0
208.020554 96.0
208.08371 196.0
208.129654 184.0
208.434128 100.0
208.468613 48.0
208.551956 204.0
208.667526 196.0
208.761826 92.0
208.943039 188.0
209.063889 192.0
209.196274 156.0
209.282654 52.0
209.345993 112.0
209.392075 128.0
209.418701 164.0
209.818542 156.0
210.043472 224.0
210.372421 160.0
210.563004 140.0
210.594772 152.0
210.820114 40.0
210.867722 144.0
210.976196 120.0
211.036911 144.0
211.433197 36.0
211.473724 112.0
211.690842 164.0
211.780624 136.0
211.903214 216.0
212.034332 184.0
212.235947 172.0
212.316803 120.0
212.621414 252.0
212.819321 180.0
212.90593 204.0
212.969818 180.0
213.044556 176.0
213.184799 164.0
213.536575 164.0
213.5802 152.0
213.740204 160.0
213.792587 160.0
213.847885 256.0
214.047043 808.0
214.118652 100.0
214.188553 108.0
214.357529 152.0
214.40416 32.0
214.567383 44.0
214.690933 140.0
214.867783 116.0
214.937805 168.0
214.984482 160.0
215.050293 380.0
215.180054 112.0
215.238449 116.0
215.285172 64.0
215.627808 168.0
215.670822 124.0
215.891876 380.0
215.966125 156.0
216.028381 22052.0
216.092911 188.0
216.141663 152.0
216.264877 196.0
216.305557 80.0
216.331894 76.0
216.437302 248.0
216.499817 80.0
216.536865 64.0
216.557358 52.0
216.619919 124.0
216.71315 44.0
216.750717 80.0
216.821457 84.0
216.867935 124.0
217.030746 1860.0
217.07608 84.0
217.258728 192.0
217.298996 116.0
217.360626 32.0
217.554321 84.0
217.598358 56.0
217.662216 188.0
217.71907 112.0
217.756927 44.0
217.912613 132.0
217.94664 116.0
218.034317 464.0
218.085999 144.0
218.39473 140.0
218.428665 104.0
218.485916 92.0
218.550644 152.0
218.615372 220.0
218.84729 264.0
218.871475 164.0
218.942139 108.0
218.977493 100.0
219.030502 136.0
219.51384 176.0
219.696701 80.0
220.056763 100.0
220.106949 184.0
220.360962 164.0
220.396423 160.0
220.564865 36.0
220.674255 176.0
220.751129 28.0
220.901962 212.0
221.014389 232.0
221.049896 176.0
221.129807 168.0
221.496948 40.0
221.680634 188.0
221.793259 72.0
221.822906 160.0
221.950378 188.0
222.02327 172.0
222.318207 52.0
222.374603 120.0
222.493332 92.0
222.671494 204.0
222.805161 64.0
223.025055 136.0
223.105316 188.0
223.154785 148.0
223.253983 188.0
223.352127 184.0
223.435425 152.0
223.536591 116.0
223.706238 212.0
223.727066 240.0
223.965286 124.0
224.060623 136.0
224.230469 108.0
224.343735 296.0
224.424225 168.0
224.901535 168.0
224.979141 180.0
225.134415 176.0
225.573608 124.0
225.734116 204.0
225.761978 96.0
225.875626 152.0
225.929474 52.0
226.088058 116.0
226.291595 212.0
226.32753 204.0
226.393402 168.0
226.477264 136.0
226.842834 84.0
226.863815 192.0
227.217682 104.0
227.580841 180.0
227.70697 188.0
227.797073 228.0
227.890213 196.0
228.065125 924.0
228.14566 136.0
228.372757 84.0
228.437363 44.0
228.873383 164.0
229.033371 156.0
229.06572 316.0
229.155243 140.0
229.202072 44.0
229.328644 96.0
229.490265 176.0
229.515549 220.0
229.542694 60.0
229.599991 148.0
229.648239 216.0
229.739655 208.0
229.802856 140.0
229.836945 188.0
229.904678 128.0
230.045822 376.0
230.091644 140.0
230.183441 128.0
230.215622 128.0
230.263931 148.0
230.319992 216.0
230.370529 196.0
230.393829 144.0
230.459641 240.0
230.526764 196.0
230.547333 184.0
230.575729 172.0
230.615906 176.0
230.660675 248.0
230.711136 144.0
230.737762 208.0
230.768311 220.0
230.773865 144.0
230.784836 128.0
230.826035 120.0
230.846878 112.0
230.866364 164.0
230.901291 480.0
230.951187 356.0
230.966248 168.0
231.000793 360.0
231.052963 144880.0
231.129562 52.0
231.168961 188.0
231.224197 168.0
231.267166 84.0
231.324829 212.0
231.346481 248.0
231.378113 68.0
231.386917 64.0
231.418121 88.0
231.429855 100.0
231.457764 76.0
231.518448 100.0
231.550537 1272.0
231.605316 80.0
231.642044 112.0
231.677689 152.0
231.746002 288.0
231.819092 104.0
231.838364 104.0
231.899979 176.0
231.931305 96.0
231.961365 44.0
231.988647 96.0
232.055023 18516.0
232.1371 256.0
232.165176 60.0
232.202332 76.0
232.236084 152.0
232.332687 80.0
232.352554 108.0
232.392456 80.0
232.428406 84.0
232.452545 128.0
232.480713 112.0
232.50351 80.0
232.553665 128.0
232.589249 44.0
232.612915 104.0
232.662872 144.0
232.719788 48.0
232.74408 60.0
232.782654 108.0
232.813919 48.0
232.868591 80.0
232.906769 84.0
232.962753 36.0
232.988815 172.0
233.020264 56.0
233.057663 2240.0
233.158005 136.0
233.195312 152.0
233.260559 88.0
233.309189 68.0
233.360138 108.0
233.424728 136.0
233.462128 148.0
233.491638 176.0
233.515961 84.0
233.554153 60.0
233.58403 112.0
233.651733 232.0
233.683273 52.0
233.707611 152.0
233.756882 104.0
233.794037 376.0
233.820694 100.0
233.861511 112.0
233.884766 264.0
234.023178 88.0
234.061844 332.0
234.16423 96.0
234.26474 64.0
234.3927 88.0
234.449142 160.0
234.537079 60.0
234.578613 48.0
234.710907 100.0
234.801193 116.0
234.910995 64.0
235.026932 68.0
235.135315 132.0
235.206985 132.0
235.319946 48.0
235.4879 164.0
235.542877 48.0
235.579529 160.0
235.628403 36.0
235.66507 180.0
235.890793 84.0
236.004333 148.0
236.048676 96.0
236.104202 164.0
236.17865 60.0
236.383636 144.0
236.490738 56.0
236.671356 284.0
237.336258 144.0
237.394516 196.0
237.415985 64.0
237.894623 36.0
237.937607 92.0
238.146423 116.0
238.315369 96.0
238.951813 136.0
239.194916 128.0
239.23494 224.0
239.447388 200.0
239.472031 180.0
239.65686 116.0
239.752396 112.0
240.103836 160.0
240.545059 136.0
240.591354 40.0
240.869278 92.0
241.385406 92.0
241.74733 216.0
241.790665 144.0
241.812317 128.0
241.917557 212.0
242.041397 112.0
242.301575 128.0
242.547653 88.0
243.033279 64.0
243.09433 148.0
243.203842 104.0
243.269135 100.0
243.321915 384.0
243.557922 104.0
243.585876 140.0
243.666656 48.0
243.759857 56.0
243.806473 48.0
243.937012 140.0
244.033386 100.0
244.224518 104.0
244.247055 164.0
244.430115 160.0
244.562225 244.0
244.714767 192.0
245.104111 220.0
245.188248 168.0
245.347214 156.0
245.425156 112.0
245.450104 184.0
245.528061 104.0
245.552139 172.0
245.575409 152.0
245.630981 104.0
245.654709 204.0
245.718338 128.0
245.765137 168.0
245.840027 132.0
245.87027 144.0
245.904831 136.0
245.964859 124.0
246.039673 248.0
246.075806 78720.0
246.163376 96.0
246.224548 116.0
246.253571 60.0
246.27626 104.0
246.311203 48.0
246.337128 56.0
246.384384 100.0
246.426697 140.0
246.458298 84.0
246.507095 44.0
246.520554 88.0
246.529617 92.0
246.549561 116.0
246.582504 48.0
246.667679 40.0
246.69693 124.0
246.722488 60.0
246.767715 56.0
246.865051 96.0
246.891174 56.0
246.974121 80.0
247.00853 240.0
247.07814 10420.0
247.139603 64.0
247.189987 36.0
247.216141 168.0
247.265091 92.0
247.333939 56.0
247.393417 40.0
247.430984 36.0
247.513016 100.0
247.567825 80.0
247.596939 48.0
247.650192 64.0
247.694031 52.0
247.761383 64.0
247.8358 172.0
247.941559 52.0
247.984146 184.0
248.048126 36.0
248.081573 1312.0
248.115524 152.0
248.143646 144.0
248.236237 36.0
248.260025 68.0
248.331879 40.0
248.359833 88.0
248.411865 76.0
248.445633 84.0
248.496567 124.0
248.534225 92.0
248.589584 136.0
248.717545 96.0
248.774414 60.0
248.807281 172.0
248.832397 96.0
248.857513 52.0
248.883743 112.0
248.954132 104.0
248.995682 172.0
249.024704 100.0
249.038132 108.0
249.088669 140.0
249.303543 76.0
249.407272 88.0
249.48056 88.0
249.65564 164.0
249.856949 68.0
249.916718 120.0
250.070923 44.0
250.196823 48.0
250.275543 112.0
250.473938 44.0
250.587357 80.0
250.609406 32.0
250.858383 72.0
252.064011 92.0
252.111404 68.0
252.345322 100.0
252.405396 96.0
252.490768 76.0
252.949554 76.0
253.098343 100.0
253.449936 148.0
255.29422 40.0
255.698242 140.0
255.968826 152.0
256.048431 84.0
256.513641 68.0
257.030304 72.0
257.879761 76.0
258.897125 124.0
259.050873 44.0
259.259125 120.0
259.303986 100.0
259.839508 52.0
261.346344 88.0
261.613464 60.0
261.700409 52.0
261.761566 56.0
262.16745 112.0
263.099609 80.0
263.742432 88.0
264.761597 72.0
265.007782 124.0
265.088776 132.0
265.519928 112.0
267.19278 104.0
267.492157 76.0
267.664734 68.0
270.109161 60.0
270.204041 52.0
272.850677 64.0
274.012421 40.0
275.295532 68.0
276.101868 124.0
276.42276 128.0
277.834198 116.0
288.781494 32.0
296.218903 104.0
297.093048 36.0
303.865356 156.0
303.94754 64.0
307.089996 120.0
309.879547 108.0
317.901459 52.0
320.86792 68.0
324.47522 56.0
330.526215 56.0
333.2565 104.0
336.760925 112.0
338.523682 144.0
340.437897 60.0
340.88974 92.0
341.831116 36.0
342.630096 128.0
343.230865 124.0
345.276672 76.0
348.60199 84.0
348.728363 68.0
350.812805 88.0
351.126038 128.0
353.969879 120.0
361.294281 136.0
365.022614 164.0
365.772095 124.0
372.813354 124.0
373.71698 112.0
374.278931 80.0
375.662537 76.0
376.303162 84.0
377.644073 108.0
378.41803 56.0
379.03775 84.0
379.460205 68.0
383.121155 72.0
384.080109 44.0
384.181519 64.0
389.202911 132.0
389.234314 152.0
390.358154 84.0
392.527863 64.0
393.202423 132.0
393.34848 96.0
394.205505 180.0
395.190063 116.0
397.527893 88.0
403.162811 84.0
404.570709 76.0
405.672363 76.0
408.640198 108.0
410.428528 104.0
411.756165 80.0
416.494934 100.0
418.320679 48.0
422.540375 92.0
433.285858 108.0
437.205566 140.0
440.04837 36.0
442.389526 48.0
445.005554 92.0
445.642853 76.0
446.06842 72.0
453.289673 52.0
456.31601 32.0
456.473328 60.0
464.648499 72.0
465.798981 84.0
465.910675 84.0
471.399872 52.0
474.542328 68.0
488.59256 112.0
498.763489 80.0
499.279205 76.0
504.451294 140.0
509.92865 64.0
518.748474 116.0
519.59198 136.0
527.510132 72.0
539.972107 100.0
541.175232 60.0
544.072876 72.0
546.768799 72.0
558.536011 60.0
561.399536 48.0
561.908936 84.0
566.196228 48.0
569.601685 76.0
569.677673 168.0
588.596252 56.0
589.692871 68.0
590.176331 56.0
601.798523 28.0
602.726562 88.0
604.232483 108.0
605.338684 92.0
608.138 96.0
608.682922 76.0
614.638916 112.0
626.667786 92.0
633.19165 64.0
644.085876 48.0
657.806335 84.0
685.243225 96.0
686.056213 88.0
688.633911 104.0
703.46759 92.0
712.618958 72.0
712.767761 68.0
714.102051 40.0
719.078247 20.0
724.339539 68.0
734.299255 72.0
741.798767 112.0
773.948669 64.0
789.93811 64.0
826.773865 48.0
835.857849 72.0
846.82074 84.0
859.58136 48.0
872.112183 60.0
884.60144 40.0
893.140198 88.0
893.431702 80.0
898.298645 56.0
909.776367 64.0
950.497559 104.0
967.780945 40.0
972.734375 100.0
976.16394 72.0
976.30072 132.0
976.369141 72.0
981.562683 84.0
981.911926 148.0
984.476868 216.0
1018.462097 52.0
1020.444763 100.0
1062.4552 180.0
1071.257202 80.0
1101.808716 64.0
1107.034058 92.0
1148.728027 96.0
1152.887085 100.0
1163.42627 56.0
1164.533081 164.0
1164.580688 72.0
1180.247925 180.0
1203.941528 136.0
1217.730469 152.0
1230.222168 188.0
1250.669556 56.0
1257.068726 260.0
1266.280273 96.0
1270.221191 204.0
1271.07959 204.0
1279.082031 80.0
1289.767212 204.0
1293.780151 120.0
1296.394531 164.0
1297.319092 172.0
1298.64563 44.0
1307.597778 52.0
1311.472534 152.0
1320.786987 52.0
1330.286743 144.0
1339.463623 216.0
1350.499878 152.0
1357.14563 20.0
1357.39856 108.0
1358.227295 140.0
1367.750122 64.0
1387.369995 140.0
1387.829712 76.0
1394.533081 92.0
1403.056152 152.0
1407.36853 188.0
1414.635376 124.0
1418.058472 200.0
1418.320801 128.0
1420.442749 200.0
1426.442505 80.0
1428.209595 96.0
1437.393066 144.0
1440.51123 132.0
1447.075439 144.0
1469.00061 164.0
1472.068726 112.0
1472.702637 136.0
1473.71106 160.0
1474.0625 104.0
1482.32019 140.0
1483.974731 240.0
1486.644043 232.0
1492.481934 100.0
1493.327881 112.0
1493.827881 168.0
1495.397583 112.0
1495.543823 140.0
1499.248291 140.0
1501.40686 140.0
1504.122681 88.0
