>compound MLS001140379-01!1-[2-(4-butyl-2-oxochromen-7-yl)oxyacetyl]piperidine-4-carboxamide
>formula C21H26N2O5
>ionization [M+H]+
>parentmass 387.192535
#inchi InChI=1S/C21H26N2O5/c1-2-3-4-15-11-20(25)28-18-12-16(5-6-17(15)18)27-13-19(24)23-9-7-14(8-10-23)21(22)26/h5-6,11-12,14H,2-4,7-10,13H2,1H3,(H2,22,26)
#inchikey NJBWOQIJXUXTPP
#Ion_Source LC-ESI
#Instrument qTof
#Compound_Source NIH Natural Product Library
#PI Dorrestein
#Data_Collector VVP/LMS
#Scan -1
#Precursor_MZ 387.192
#ExactMass 386.184
#Charge 1
#CAS_Number N/A
#Pubmed_ID N/A
#Smiles CCCCc1cc(=O)oc2cc(OCC(=O)N3CCC(CC3)C(=O)N)ccc12
#INCHI_AUX N/A
#Library_Class 1
#SpectrumID CCMSLIB00000079741
#IonMode Positive
#UpdateWorkflowName UPDATE-SINGLE-ANNOTATED-GOLD
#LibraryQualityString Gold
#TaskID b1d8e8f6646f4e71acdff9ca3d919d08
##Scan# 1883
#SpectrumFile p1-E10_GE10_01_17930.mzXML
#LibraryName NIH_Natural_Products_Library.mgf
#MQScore -1
#Organism NIH_Natural_Products_Library
#TIC_Query 0
#RT_Query -1
#MZErrorPPM -1
#SharedPeaks 0
#MassDiff 0
#LibMZ -1
#SpecMZ 387.192
#SpecCharge 0
#internalFilename spec-00000.mgf

>collision 10
95.037117 132.0
95.077866 288.0
95.773903 112.0
95.855728 140.0
96.08049 1320.0
96.427521 228.0
96.4412 204.0
96.456833 88.0
96.660233 144.0
96.691544 72.0
96.789421 152.0
97.032372 104.0
97.087944 544.0
98.060371 268.0
99.084015 136.0
99.411171 100.0
99.444908 124.0
99.695145 180.0
99.820381 112.0
100.065117 180.0
100.144768 208.0
100.533531 220.0
101.57592 172.0
101.595978 96.0
101.792671 232.0
103.05246 208.0
103.069092 220.0
103.942467 108.0
104.0541 160.0
104.149544 176.0
104.545998 108.0
105.070503 176.0
105.357498 148.0
105.776711 220.0
105.823799 196.0
106.071678 128.0
106.237778 160.0
106.664902 52.0
106.981956 156.0
107.047485 188.0
107.542358 148.0
107.957619 216.0
108.081726 148.0
108.272171 152.0
108.661865 180.0
109.075119 56.0
109.233154 212.0
109.676674 92.0
110.059372 492.0
110.547569 128.0
110.608261 172.0
111.066109 184.0
111.092773 220.0
111.396706 176.0
111.440819 104.0
112.076309 1244.0
112.133141 52.0
112.823372 180.0
113.074753 180.0
113.098366 120.0
113.437279 156.0
114.027344 184.0
114.27401 132.0
114.947319 240.0
115.284714 152.0
115.641869 188.0
115.701805 164.0
115.783165 144.0
115.937416 116.0
116.089615 148.0
117.067734 172.0
119.053085 376.0
119.083542 204.0
119.406822 180.0
119.792076 120.0
120.230331 128.0
121.032578 128.0
121.061043 164.0
122.5327 236.0
122.691376 148.0
123.039665 140.0
123.099716 168.0
123.170235 136.0
124.074936 1196.0
124.19062 140.0
124.343704 236.0
124.750183 116.0
124.916962 68.0
125.083916 1456.0
125.184036 168.0
125.855209 108.0
126.09108 320.0
126.758881 164.0
126.861977 216.0
127.085556 2620.0
127.141479 124.0
128.001068 244.0
128.065201 196.0
128.093567 156.0
128.751999 88.0
129.069946 340.0
129.101608 176.0
129.892731 200.0
130.042221 156.0
130.078796 184.0
130.112854 184.0
130.765228 196.0
131.047928 964.0
131.081528 144.0
132.402176 164.0
132.807831 104.0
133.028122 172.0
133.064255 468.0
133.099045 352.0
134.067719 108.0
134.877823 212.0
135.038345 292.0
135.078995 228.0
135.562881 68.0
135.852707 76.0
136.147476 36.0
137.248138 116.0
138.018677 136.0
138.037369 64.0
138.123917 208.0
138.791351 232.0
139.34761 60.0
139.575607 132.0
139.712021 132.0
140.751404 188.0
140.999435 44.0
141.075073 204.0
141.1026 1552.0
141.57431 56.0
141.849152 216.0
141.93924 48.0
142.081253 528.0
142.105453 716.0
142.181198 40.0
142.221558 172.0
143.046371 160.0
143.082764 164.0
143.115402 200.0
143.391739 160.0
144.31076 216.0
144.734268 64.0
144.827667 196.0
145.062317 556.0
145.101669 2296.0
145.283112 36.0
145.724854 72.0
145.830582 100.0
146.054199 156.0
146.07103 176.0
146.107422 344.0
146.636856 48.0
146.974472 168.0
147.043045 896.0
147.084442 380.0
147.121887 232.0
147.268982 52.0
148.057419 140.0
148.084061 176.0
149.022858 176.0
149.055038 160.0
149.095749 188.0
149.543243 152.0
150.059982 160.0
151.041382 128.0
151.344833 132.0
151.516281 124.0
152.320908 48.0
153.0858 180.0
153.968643 152.0
154.075882 116.0
154.809464 188.0
154.945694 180.0
155.082733 992.0
156.079666 136.0
156.483032 60.0
157.10202 548.0
157.917877 56.0
158.037964 144.0
158.082993 184.0
159.041824 228.0
159.078583 152.0
159.351746 84.0
160.093781 192.0
160.544861 160.0
160.670975 152.0
160.723969 136.0
160.792099 104.0
161.058243 1712.0
161.094406 324.0
161.307083 192.0
161.360443 164.0
161.42366 220.0
162.033646 148.0
162.061859 296.0
162.096985 116.0
162.396133 48.0
162.985092 128.0
163.03862 184.0
163.079117 216.0
163.118271 148.0
163.15538 132.0
163.313034 112.0
164.087158 220.0
164.113815 168.0
164.520859 120.0
165.735703 164.0
167.467148 144.0
167.956879 156.0
168.589417 144.0
169.097427 212.0
170.112366 160.0
170.364258 184.0
171.068985 180.0
171.809082 172.0
172.053009 764.0
172.971939 180.0
173.093674 1020.0
173.312393 36.0
173.372665 232.0
174.066986 360.0
174.459305 76.0
174.640747 200.0
175.038666 588.0
175.073837 220.0
175.107941 1148.0
175.277832 108.0
175.749802 144.0
175.802582 68.0
176.045807 532.0
177.095383 156.0
177.789993 132.0
178.100632 192.0
178.87706 112.0
179.316544 136.0
179.79126 152.0
180.090271 220.0
181.63736 128.0
181.85202 180.0
183.075653 148.0
183.104889 180.0
183.331177 176.0
183.892136 148.0
184.086517 132.0
184.19725 152.0
184.921875 152.0
185.090576 220.0
185.837814 92.0
186.087509 160.0
186.242294 52.0
186.696167 60.0
187.048126 188.0
187.07164 180.0
188.052917 204.0
188.079376 180.0
188.653839 152.0
189.055603 1156.0
189.094223 168.0
189.798248 124.0
189.902451 164.0
190.057022 280.0
191.031387 180.0
191.133179 44.0
192.011948 60.0
193.470871 144.0
197.581345 208.0
199.086517 208.0
199.111786 196.0
199.145493 172.0
200.039642 216.0
200.087509 212.0
200.603043 144.0
200.763748 128.0
200.870926 192.0
201.025253 200.0
201.054276 240.0
201.089706 4876.0
201.181335 72.0
201.242264 48.0
201.271683 64.0
201.427002 84.0
201.452423 40.0
201.484299 100.0
201.621964 56.0
201.737839 124.0
201.822662 76.0
202.096481 728.0
202.418991 64.0
202.465012 76.0
202.602951 120.0
202.668961 144.0
202.799316 52.0
203.070343 156.0
203.105865 1648.0
203.193481 60.0
203.227524 76.0
203.376709 64.0
203.434692 128.0
204.115662 164.0
204.514847 72.0
205.03035 136.0
205.509415 156.0
205.672073 120.0
206.818253 44.0
209.105759 64.0
211.006683 48.0
211.469513 204.0
211.593994 100.0
212.962692 112.0
213.0905 120.0
214.123154 164.0
214.283356 124.0
214.449463 120.0
214.627289 172.0
215.07196 188.0
215.107239 160.0
217.080612 120.0
217.253647 92.0
218.081131 144.0
218.708206 80.0
219.101593 420.0
220.107803 316.0
221.901566 120.0
222.408844 160.0
224.560013 128.0
224.932983 216.0
225.74263 44.0
226.970337 116.0
227.141281 136.0
227.519394 32.0
228.087143 152.0
229.094254 676.0
229.354355 48.0
229.453827 104.0
230.101624 192.0
230.11235 132.0
230.247406 200.0
230.546494 116.0
230.643204 68.0
230.685532 164.0
230.922134 240.0
231.100464 7840.0
231.190628 36.0
231.242081 48.0
231.275375 52.0
231.335907 60.0
231.42067 52.0
231.566025 44.0
231.608429 172.0
231.847778 64.0
232.104721 948.0
232.323822 104.0
232.581741 32.0
232.870193 48.0
233.113724 176.0
233.256073 76.0
233.770065 84.0
233.977036 52.0
234.089691 116.0
234.875992 116.0
235.36734 72.0
237.089554 200.0
238.971863 160.0
241.745834 184.0
242.994537 40.0
243.1008 196.0
243.491196 132.0
244.100281 104.0
244.464233 120.0
244.791092 96.0
245.11853 172.0
245.180496 204.0
245.308289 60.0
246.11319 128.0
246.400528 88.0
247.752029 132.0
247.924347 172.0
248.887375 244.0
252.052963 152.0
253.648026 88.0
256.097809 160.0
257.11853 240.0
257.16272 256.0
258.137115 160.0
258.364197 252.0
258.681 104.0
259.096985 752.0
260.099884 100.0
262.526886 84.0
264.255005 68.0
266.869141 88.0
268.126953 220.0
268.908356 132.0
269.878571 100.0
270.11731 148.0
270.182739 144.0
270.280884 72.0
270.352875 96.0
270.398682 132.0
270.955353 152.0
271.106079 152.0
271.136047 292.0
271.269958 28.0
272.127533 1388.0
272.36264 48.0
272.563049 60.0
273.095612 180.0
273.131897 116.0
273.839447 56.0
273.885559 48.0
274.126068 148.0
274.195251 100.0
275.135345 172.0
276.122742 644.0
276.159698 48.0
276.613007 136.0
277.101471 144.0
277.125702 152.0
277.686523 52.0
278.124512 148.0
282.58667 104.0
283.092102 148.0
284.144562 124.0
285.144958 212.0
286.09375 124.0
286.147644 132.0
287.452026 104.0
288.129608 348.0
288.232056 212.0
288.444977 48.0
289.114655 128.0
290.052826 52.0
290.137573 144.0
292.093567 84.0
294.138062 140.0
295.145874 152.0
295.723999 128.0
296.16568 148.0
299.118561 308.0
300.124329 1192.0
300.207367 40.0
301.127197 596.0
301.184082 108.0
301.318817 36.0
303.111084 184.0
303.81488 160.0
307.248566 64.0
309.96524 224.0
310.519104 144.0
310.750641 64.0
311.150726 144.0
311.621338 180.0
313.13736 144.0
313.560242 36.0
314.17276 2628.0
314.477234 120.0
314.759644 188.0
315.17453 1192.0
315.713745 120.0
316.185028 188.0
317.193695 136.0
317.502167 124.0
317.874634 72.0
318.144379 104.0
321.087006 60.0
321.900635 120.0
324.064636 40.0
324.152435 272.0
325.141083 104.0
325.183472 132.0
327.210846 112.0
327.452087 168.0
328.721069 56.0
328.944824 96.0
329.009796 164.0
329.674408 128.0
331.085266 80.0
331.49823 200.0
334.145203 184.0
336.466736 124.0
336.506897 168.0
338.951324 168.0
339.060089 140.0
340.91925 140.0
341.196381 132.0
341.41333 160.0
341.527344 72.0
341.608246 84.0
341.928375 144.0
342.122009 132.0
342.168304 3904.0
342.2211 44.0
342.263367 116.0
342.289124 40.0
342.447479 92.0
342.874023 72.0
343.077576 164.0
343.107086 112.0
343.171356 1496.0
343.236115 72.0
343.559753 96.0
343.756226 96.0
344.099487 120.0
344.167023 192.0
344.199188 128.0
344.321045 56.0
344.878937 84.0
345.233856 100.0
345.411377 160.0
345.722168 80.0
346.096039 180.0
346.366394 52.0
346.398743 76.0
346.633118 100.0
353.159332 128.0
369.02774 84.0
369.172974 148.0
370.165161 836.0
371.165619 280.0
372.196442 128.0
375.228271 148.0
384.222046 144.0
385.639526 64.0
386.147369 188.0
387.149658 72.0
387.192535 776.0
387.525696 44.0
387.604065 40.0
387.796082 120.0
388.180756 132.0
389.184784 152.0
390.190582 88.0
390.398987 40.0
390.788391 64.0
437.918945 48.0
440.124969 96.0
445.170746 144.0
466.6427 84.0
495.339264 72.0
542.960571 72.0
586.990662 124.0
656.1698 108.0
676.110474 96.0
695.6828 128.0
733.410461 68.0
760.64093 36.0
762.717224 80.0
883.12561 20.0
896.236267 76.0
963.371582 124.0
997.307861 192.0
1004.82666 60.0
1017.274719 128.0
1022.461243 244.0
1052.894775 248.0
1072.447021 204.0
1079.88623 124.0
1100.348999 144.0
1116.038208 104.0
1122.710327 280.0
1124.111206 136.0
1133.613525 104.0
1148.559082 116.0
1156.274902 104.0
1170.033813 272.0
1171.579712 84.0
1181.369019 128.0
1183.75769 232.0
1188.844116 160.0
1217.68811 232.0
1224.392456 208.0
1232.826782 104.0
1233.602539 116.0
1241.822876 228.0
1265.040405 192.0
1265.245728 168.0
1290.466919 172.0
1320.974121 132.0
1328.036377 200.0
1332.973022 80.0
1336.332275 184.0
1340.256714 100.0
1346.603271 148.0
1347.267944 192.0
1352.196289 64.0
1364.769653 172.0
1368.993286 148.0
1369.52356 196.0
1379.019287 148.0
1385.397583 124.0
1396.308838 236.0
1397.082397 156.0
1403.748291 136.0
1404.949219 176.0
1405.463989 216.0
1411.050659 164.0
1411.626343 196.0
1411.925537 204.0
1421.68689 124.0
1433.380249 208.0
1434.616211 184.0
1437.693604 136.0
1438.931519 144.0
1448.626587 176.0
1451.589966 212.0
1452.765625 208.0
1462.286377 168.0
1470.151245 68.0
1479.736328 188.0
1483.214233 208.0
1488.569336 144.0
1492.218994 64.0
1492.565063 196.0
1493.0802 172.0
1495.203613 80.0
1499.94812 192.0
