>compound Nitazoxanide
>formula C12H9N3O5S 
>ionization [M+H]+
>parentmass 308.034
#inchi InChI=1S/C12H9N3O5S/c1-7(16)20-9-5-3-2-4-8(9)11(17)14-12-13-6-10(21-12)15(18)19/h2-6H,1H3,(H,13,14,17)
#inchikey YQNQNVDNTFHQSW
#Ion_Source LC-ESI
#Instrument qTof
#Compound_Source Isolated
#PI Sirenas
#Data_Collector Ed Esquenazi 
#Scan -1
#Precursor_MZ 308.034
#ExactMass 0.0
#Charge 1
#CAS_Number N/A
#Pubmed_ID N/A
#Smiles N/A
#INCHI_AUX N/A
#Library_Class 3
#SpectrumID CCMSLIB00000006355
#IonMode Positive
#UpdateWorkflowName UPDATE-SINGLE-ANNOTATED-BRONZE
#LibraryQualityString Bronze
#TaskID d19310cd93df49b68e9fcbec27720eb5
##Scan# 3
#SpectrumFile Nitazoxanide.mgf
#LibraryName fda_library.mgf
#MQScore -1
#Organism fda_library
#TIC_Query 0
#RT_Query -1
#MZErrorPPM -1
#SharedPeaks 0
#MassDiff 0
#LibMZ -1
#SpecMZ 308.034
#SpecCharge 0
#internalFilename spec-00000.mgf

>collision 10
119.03817 170.932098
120.356796 15.50189
120.589783 12.42614
120.910843 16.82
120.983894 19.11343
121.028374 4164.923828
121.073524 36.195042
121.138916 19.5625
121.194153 24.14015
121.220055 18.58036
121.232353 37.16
121.335907 14.17457
121.358902 26.673149
121.369858 15.53333
121.465897 15.42262
121.485329 14.73472
121.504501 17.637501
121.539017 27.777781
121.568626 41.24028
121.663971 23.827209
121.700027 10.51563
121.810318 17.61141
128.99707 203.458405
129.114746 10.5125
146.000748 190.338303
152.945755 83.70417
248.018799 130.25
