>compound HYDROCORTISONE HEMISUCCINATE
>formula C25H34O8 
>ionization [M+H]+
>parentmass 463.2341
#inchi InChI=1S/C25H34O8/c1-23-9-7-15(26)11-14(23)3-4-16-17-8-10-25(32,24(17,2)12-18(27)22(16)23)19(28)13-33-21(31)6-5-20(29)30/h11,16-18,22,27,32H,3-10,12-13H2,1-2H3,(H,29,30)/t16-,17-,18-,22+,23-,24-,25-/m0/s1
#inchikey VWQWXZAWFPZJDA
#Ion_Source LC-ESI
#Instrument qTof
#Compound_Source Commercial
#PI Dorrestein
#Data_Collector Garg_Neha
#Scan -1
#Precursor_MZ 463.234
#ExactMass 462.225
#Charge 1
#CAS_Number N/A
#Pubmed_ID N/A
#Smiles N/A
#INCHI_AUX N/A
#Library_Class 1
#SpectrumID CCMSLIB00000077028
#IonMode Positive
#UpdateWorkflowName UPDATE-SINGLE-ANNOTATED-GOLD
#LibraryQualityString Gold
#TaskID 48f7f52fc6d249b5abbcc6e7b3df5969
##Scan# 1256
#SpectrumFile NCP003017_A2_B11_BA6_01_15701.mzXML
#LibraryName NIH_Clinical_Collection_2.mgf
#MQScore -1
#Organism NIHcollection2_04212014_2_mgf
#TIC_Query 0
#RT_Query -1
#MZErrorPPM -1
#SharedPeaks 0
#MassDiff 0
#LibMZ -1
#SpecMZ 463.234
#SpecCharge 0
#internalFilename spec-00000.mgf

>collision 10
45.207817 148.0
45.603458 148.0
47.297668 220.0
48.466934 156.0
49.352207 168.0
51.493259 156.0
51.929794 176.0
52.227116 196.0
52.753445 224.0
52.877766 156.0
53.173504 152.0
56.426376 196.0
56.587963 184.0
56.68832 152.0
57.363167 160.0
57.578934 176.0
57.91925 148.0
62.439297 144.0
62.503796 140.0
62.755814 156.0
63.171173 232.0
63.2313 220.0
64.382347 160.0
65.877747 176.0
65.935921 148.0
71.202332 172.0
74.6026 160.0
76.641441 276.0
76.871613 188.0
80.937607 152.0
82.501114 172.0
83.323898 184.0
86.874641 180.0
87.679764 156.0
88.421204 144.0
88.66655 256.0
89.062431 180.0
90.01918 160.0
90.253487 164.0
91.053108 228.0
91.808731 212.0
92.266998 160.0
92.529099 168.0
93.475372 192.0
94.544464 164.0
96.890846 184.0
96.906517 140.0
97.065735 432.0
98.395378 144.0
98.816345 180.0
99.045357 164.0
99.14505 156.0
100.255966 180.0
100.333267 184.0
100.936684 156.0
100.952682 204.0
101.023849 2380.0
102.025726 124.0
102.572952 144.0
103.085594 156.0
104.06395 172.0
105.069389 716.0
106.074585 204.0
107.045258 160.0
107.085403 300.0
107.331688 148.0
108.056664 144.0
108.085632 152.0
108.334076 252.0
109.064232 996.0
109.106308 184.0
111.073257 176.0
111.13829 152.0
111.281013 148.0
111.323013 140.0
112.633026 220.0
113.06012 140.0
113.136314 172.0
113.278198 148.0
113.532539 176.0
114.601768 268.0
114.759491 220.0
115.05703 176.0
117.072128 164.0
117.366821 184.0
117.511337 144.0
118.072968 192.0
118.274185 168.0
119.048187 160.0
119.086189 848.0
119.273384 148.0
119.737587 168.0
120.088196 156.0
120.724022 144.0
121.063393 2068.0
121.103981 144.0
122.071304 180.0
122.101265 208.0
123.04184 136.0
123.079109 1104.0
124.083122 148.0
125.061905 180.0
126.045143 140.0
126.877754 140.0
128.063751 392.0
128.923813 172.0
129.070129 432.0
129.342239 164.0
129.550568 208.0
130.07666 236.0
130.820007 192.0
131.085068 788.0
131.465042 168.0
133.064346 476.0
133.100418 432.0
134.679337 156.0
135.079346 972.0
136.07872 160.0
137.057877 168.0
137.098846 176.0
138.002579 164.0
138.096115 144.0
138.28096 188.0
139.470108 152.0
139.801727 156.0
140.407181 164.0
140.560532 144.0
141.070419 416.0
142.07164 280.0
143.085785 1260.0
144.091232 200.0
145.063614 320.0
145.101227 1572.0
146.070129 184.0
146.10405 364.0
147.078445 784.0
147.114563 852.0
147.318771 204.0
147.835159 296.0
148.088638 228.0
148.120972 408.0
148.552338 164.0
149.094284 960.0
149.131363 156.0
150.870697 144.0
150.944046 160.0
151.034546 152.0
151.078598 332.0
151.113159 160.0
151.712845 160.0
152.061157 148.0
153.070099 156.0
153.088791 292.0
154.07637 184.0
155.084091 892.0
155.439682 144.0
156.091965 204.0
157.06282 308.0
157.101425 1492.0
158.071274 124.0
158.105209 528.0
158.554092 124.0
159.028854 956.0
159.080109 912.0
159.115845 1152.0
160.031479 164.0
160.082016 172.0
160.117203 184.0
161.098572 440.0
161.131165 288.0
162.097382 248.0
162.128098 188.0
163.075516 240.0
163.110474 1460.0
164.116943 484.0
165.022339 160.0
165.070923 144.0
165.12529 216.0
165.759521 148.0
166.07486 176.0
166.12616 160.0
167.0858 452.0
168.089737 316.0
168.117645 224.0
169.066071 148.0
169.100189 1928.0
170.106781 380.0
170.775803 160.0
171.0802 436.0
171.115067 972.0
172.086792 200.0
172.122101 228.0
172.196274 196.0
172.478455 140.0
173.095764 1588.0
173.131546 500.0
173.347366 172.0
174.099762 496.0
174.132492 272.0
175.109543 936.0
175.494888 156.0
176.112335 132.0
177.093689 300.0
177.124466 212.0
178.075043 140.0
179.084076 300.0
179.320206 196.0
180.10347 192.0
180.896149 144.0
181.101151 792.0
182.106552 312.0
182.344574 184.0
183.083603 352.0
183.117569 1288.0
184.093002 140.0
184.11731 168.0
184.149719 188.0
185.096954 1692.0
185.131058 1192.0
186.100769 288.0
186.138306 124.0
187.11171 2120.0
187.142334 236.0
187.96402 228.0
188.114838 184.0
188.302521 212.0
188.422714 144.0
189.128082 1308.0
189.166565 148.0
189.78299 160.0
190.136856 236.0
191.104446 208.0
192.106491 144.0
192.913315 140.0
193.100418 484.0
193.677048 144.0
194.106277 448.0
194.767136 144.0
195.078766 164.0
195.115005 1632.0
196.124191 120.0
197.094772 352.0
197.131378 652.0
198.134995 364.0
199.110489 1036.0
199.15123 160.0
199.197418 220.0
200.114441 428.0
200.150024 140.0
200.452225 168.0
201.125732 1156.0
201.16861 148.0
201.778824 168.0
202.049316 108.0
202.136597 288.0
203.115326 284.0
203.137207 212.0
203.742844 156.0
204.112427 252.0
204.670044 152.0
205.095932 388.0
205.126419 296.0
206.106186 300.0
207.115143 628.0
208.122452 600.0
208.805054 148.0
209.096695 188.0
209.131226 1384.0
210.101425 180.0
210.139633 292.0
210.898422 156.0
210.976471 144.0
211.110657 440.0
211.145966 860.0
211.925751 144.0
212.117035 144.0
212.153625 204.0
213.126617 1676.0
213.158295 284.0
213.460297 156.0
214.131912 160.0
214.168396 172.0
214.560638 208.0
214.754333 180.0
215.106949 132.0
215.147583 240.0
215.434464 180.0
215.457321 208.0
216.145874 208.0
217.121948 168.0
217.155273 324.0
217.193741 192.0
217.824844 192.0
218.124573 144.0
218.689316 156.0
219.136765 436.0
220.123947 344.0
220.166397 228.0
221.109238 144.0
221.130997 1212.0
221.601044 204.0
222.097519 152.0
222.133682 260.0
222.986832 144.0
223.109741 696.0
223.148636 1136.0
223.221695 156.0
224.119598 128.0
224.152679 376.0
225.087082 176.0
225.126419 736.0
225.162567 432.0
226.135239 472.0
226.166519 288.0
227.099197 292.0
227.141113 1340.0
227.860641 152.0
228.11171 128.0
228.162186 204.0
228.744781 152.0
229.119141 168.0
229.159134 344.0
230.137619 140.0
230.159729 336.0
230.732819 180.0
231.133392 464.0
231.343918 204.0
232.129074 112.0
232.942032 148.0
233.133987 348.0
234.141907 456.0
235.110138 164.0
235.150452 408.0
236.121124 280.0
236.149643 196.0
237.033386 144.0
237.089523 104.0
237.126923 284.0
237.166595 172.0
237.744827 176.0
238.136993 360.0
239.023193 176.0
239.105057 208.0
239.142914 1872.0
239.430695 128.0
240.085968 180.0
240.148575 376.0
240.582733 172.0
241.118713 308.0
241.158554 4140.0
241.214417 116.0
241.509064 152.0
242.120331 196.0
242.163147 796.0
243.137024 476.0
243.172836 760.0
243.248077 180.0
244.173157 340.0
245.122559 152.0
245.150681 508.0
245.188934 160.0
246.143906 132.0
247.151382 548.0
247.253296 164.0
248.111557 164.0
248.154572 124.0
249.126602 248.0
249.163788 828.0
249.769623 176.0
250.170059 356.0
251.142227 1296.0
251.170532 536.0
252.150497 792.0
252.189682 116.0
253.114822 316.0
253.157867 1508.0
253.192047 148.0
254.122925 188.0
254.166122 260.0
255.136063 144.0
255.172623 264.0
256.179871 152.0
256.667511 164.0
257.147858 516.0
258.145142 140.0
258.475433 224.0
259.095215 160.0
259.14975 128.0
260.604523 148.0
261.160278 216.0
262.160797 192.0
263.1474 384.0
263.179871 908.0
264.186584 124.0
265.161682 820.0
265.26474 180.0
265.330872 140.0
266.160736 992.0
267.138275 428.0
267.174377 8688.0
268.138062 152.0
268.177979 1868.0
268.650299 216.0
268.732452 160.0
269.154175 764.0
269.189972 2892.0
270.16156 208.0
270.192749 460.0
271.132141 160.0
271.169769 572.0
271.886017 216.0
272.069824 156.0
272.197876 148.0
273.163361 1288.0
274.16864 436.0
275.141418 140.0
275.167297 124.0
276.150635 556.0
277.159332 144.0
278.216949 140.0
278.745056 192.0
279.047546 160.0
279.173157 1108.0
280.174896 188.0
281.152588 856.0
281.190125 2528.0
281.598511 168.0
282.153625 508.0
282.194122 892.0
283.165253 276.0
283.197601 236.0
284.177612 288.0
285.14209 156.0
285.183594 3260.0
285.393585 192.0
286.188843 1588.0
287.137939 140.0
287.164917 308.0
287.201508 1356.0
288.176544 284.0
288.203369 460.0
288.93158 148.0
289.210632 156.0
290.883545 164.0
291.120514 192.0
291.1745 4684.0
291.729401 216.0
292.042236 164.0
292.178131 880.0
293.150513 156.0
293.181122 116.0
294.069519 148.0
294.159607 240.0
295.166595 144.0
295.220856 144.0
296.950348 212.0
297.183746 2692.0
298.188232 692.0
299.16214 644.0
299.19989 1420.0
300.165802 196.0
300.205444 1036.0
300.255463 188.0
301.172058 240.0
301.989258 164.0
302.090454 248.0
303.182556 180.0
307.171936 248.0
307.231018 144.0
307.751038 220.0
308.746948 148.0
309.139557 124.0
309.185852 23496.0
309.415283 152.0
310.187897 5148.0
311.189972 876.0
311.730255 188.0
312.174133 268.0
312.424805 112.0
313.176514 108.0
313.204376 240.0
314.546021 144.0
314.932709 144.0
315.194916 1560.0
315.237396 196.0
316.19696 532.0
317.216644 260.0
319.153473 100.0
322.2258 188.0
325.542633 152.0
326.117462 172.0
326.951874 268.0
327.150726 148.0
327.196014 30400.0
327.329834 148.0
327.576355 144.0
328.092224 108.0
328.199219 7248.0
329.042511 144.0
329.201538 868.0
329.661865 152.0
330.099792 124.0
330.201813 296.0
330.336273 144.0
331.152191 108.0
332.524811 168.0
336.182343 160.0
336.303375 120.0
340.138794 208.0
342.498077 204.0
343.159119 256.0
344.166382 192.0
344.979187 148.0
345.20639 15408.0
345.391235 160.0
345.878082 140.0
346.028137 112.0
346.208893 4332.0
346.689178 172.0
346.80777 144.0
347.210602 552.0
348.21228 132.0
348.614349 156.0
349.190002 144.0
361.161224 300.0
361.481903 180.0
361.792267 160.0
362.169952 212.0
363.214935 1076.0
363.357452 196.0
364.214539 160.0
365.222198 132.0
369.1203 160.0
381.181335 108.0
383.108124 148.0
383.56015 160.0
385.115295 136.0
391.195343 256.0
391.974701 160.0
392.199341 180.0
396.345001 168.0
397.463165 152.0
399.171234 212.0
399.208099 316.0
399.238831 148.0
401.122101 224.0
401.183441 144.0
408.514343 152.0
408.952942 156.0
409.203094 960.0
410.206665 376.0
411.209808 148.0
412.215607 188.0
413.428772 172.0
417.225739 144.0
418.042877 144.0
418.211212 144.0
418.612793 160.0
421.868683 184.0
426.307587 168.0
427.096954 144.0
427.14032 136.0
427.21228 9944.0
427.316315 124.0
427.771057 112.0
428.215546 2484.0
428.270935 324.0
429.220367 596.0
430.219543 128.0
444.19223 156.0
444.383606 172.0
444.721191 180.0
445.074554 104.0
445.126526 164.0
445.155945 144.0
445.222626 22684.0
445.370789 100.0
445.94574 176.0
446.080597 228.0
446.226105 5716.0
447.227844 872.0
447.847534 144.0
448.225677 200.0
450.374054 148.0
451.767914 108.0
454.451263 184.0
459.716492 240.0
461.229126 136.0
461.775604 184.0
461.84375 100.0
462.188568 152.0
462.573761 140.0
462.623535 140.0
462.748077 120.0
462.864899 172.0
462.980499 280.0
463.076294 120.0
463.2341 40544.0
463.386658 116.0
463.534149 228.0
463.601837 120.0
463.74704 188.0
463.813019 156.0
464.027893 160.0
464.144287 240.0
464.236786 11928.0
464.312927 236.0
464.37146 200.0
465.046997 244.0
465.238525 2804.0
466.056183 148.0
466.23468 648.0
466.476105 124.0
466.914764 192.0
466.992798 128.0
467.158051 96.0
467.212708 176.0
467.352997 104.0
468.026154 208.0
481.272858 224.0
504.248688 128.0
917.964111 140.0
1294.922729 292.0
1298.814697 204.0
1329.986328 176.0
1351.719238 152.0
1377.030762 184.0
1379.750122 200.0
1480.908691 196.0
1505.728149 156.0
1507.868164 172.0
1548.426758 148.0
1561.966187 208.0
1562.988892 160.0
1577.674683 200.0
1598.081055 144.0
1659.592529 172.0
1735.067261 152.0
1749.764038 212.0
1800.639526 152.0
1843.51709 164.0
1880.964355 212.0
1887.39209 220.0
1898.562866 172.0
1920.506104 160.0
1946.621582 144.0
1950.671875 144.0
1958.652954 144.0
1969.829224 152.0
1982.605469 148.0
