>compound MLS000736759-01!Guanabenz
>formula C8H8Cl2N4
>ionization [M+H]+
>parentmass 231.019669
#inchi InChI=1S/C8H8Cl2N4/c9-6-2-1-3-7(10)5(6)4-13-14-8(11)12/h1-4H,(H4,11,12,14)
#inchikey WDZVGELJXXEGPV
#Ion_Source LC-ESI
#Instrument qTof
#Compound_Source NIH Pharmacologically Active Library
#PI Dorrestein
#Data_Collector VP/LMS
#Scan -1
#Precursor_MZ 231.022
#ExactMass 230.013
#Charge 1
#CAS_Number N/A
#Pubmed_ID N/A
#Smiles NC(=N)NN=Cc1c(Cl)cccc1Cl
#INCHI_AUX N/A
#Library_Class 1
#SpectrumID CCMSLIB00000085874
#IonMode Positive
#UpdateWorkflowName UPDATE-SINGLE-ANNOTATED-GOLD
#LibraryQualityString Gold
#TaskID d252d724072548979f1f6f1ced849daf
##Scan# 1421
#SpectrumFile p4-G06_GG6_01_18402.mzXML
#LibraryName Pharm_Active_Library.mgf
#MQScore -1
#Organism Pharm_Active_Library
#TIC_Query 0
#RT_Query -1
#MZErrorPPM -1
#SharedPeaks 0
#MassDiff 0
#LibMZ -1
#SpecMZ 231.022
#SpecCharge 0
#internalFilename spec-00000.mgf

>collision 10
44.91964 204.0
45.022415 252.0
45.041115 196.0
45.061157 180.0
45.097237 156.0
45.216278 164.0
45.24881 172.0
45.260456 200.0
45.303314 172.0
45.360939 156.0
45.465565 164.0
45.605247 176.0
45.656342 196.0
45.704769 56.0
45.734379 228.0
45.753223 80.0
45.892002 136.0
45.935158 152.0
45.9473 116.0
46.064754 116.0
46.093128 48.0
46.124214 96.0
46.135029 196.0
46.166126 60.0
46.197239 128.0
46.44949 176.0
46.503487 60.0
46.549648 156.0
46.722275 168.0
46.735878 164.0
46.937481 140.0
47.114922 152.0
47.172321 256.0
47.341988 168.0
47.440643 92.0
47.573715 112.0
47.602551 56.0
47.770237 176.0
47.873466 152.0
48.030102 168.0
48.063705 32.0
48.123058 144.0
48.156246 128.0
48.178307 216.0
48.29166 120.0
48.319328 164.0
48.341465 148.0
48.371918 168.0
48.387146 124.0
48.410686 124.0
48.500744 192.0
48.518764 116.0
48.663601 196.0
48.703335 176.0
48.778374 156.0
48.871555 184.0
48.882687 148.0
48.916092 100.0
49.242382 212.0
49.271175 216.0
49.329018 148.0
49.37376 132.0
49.496914 224.0
49.562752 172.0
49.59779 136.0
49.693153 104.0
49.708588 200.0
49.721218 232.0
49.794228 240.0
49.906654 120.0
49.924934 140.0
50.096661 168.0
50.246571 72.0
50.351974 100.0
50.381638 172.0
50.435337 120.0
50.460785 60.0
50.513111 132.0
50.545654 52.0
50.603687 180.0
50.7108 188.0
50.751049 112.0
50.799271 240.0
50.954018 184.0
51.010864 176.0
51.030769 172.0
51.138889 156.0
51.153122 116.0
51.379719 152.0
51.446796 152.0
51.555084 212.0
51.557613 172.0
51.694077 64.0
51.751335 180.0
51.843014 164.0
51.853046 48.0
51.867378 196.0
51.966335 180.0
52.099861 152.0
52.134346 148.0
52.312706 128.0
52.348701 196.0
52.62476 172.0
52.725243 192.0
52.830799 96.0
52.849609 148.0
52.865528 112.0
53.000484 184.0
53.066875 40.0
53.406708 84.0
53.448898 148.0
53.463451 140.0
53.478004 140.0
53.50275 196.0
53.580105 144.0
53.721359 144.0
53.826447 104.0
53.972576 104.0
54.036934 208.0
54.077908 176.0
54.095474 160.0
54.112411 316.0
54.31382 220.0
54.328491 312.0
54.44445 184.0
54.462074 72.0
54.514969 148.0
54.569359 176.0
54.753304 144.0
54.850552 156.0
54.897205 56.0
54.943459 176.0
54.984776 152.0
55.095528 136.0
55.106186 168.0
55.166588 192.0
55.244846 148.0
55.333645 196.0
55.431404 116.0
55.459564 200.0
55.50967 176.0
55.56189 164.0
55.850086 204.0
55.933418 176.0
55.95277 168.0
55.984043 120.0
56.061508 156.0
56.115173 148.0
56.128605 228.0
56.491535 316.0
56.505001 148.0
56.808617 116.0
56.833138 368.0
56.906689 48.0
56.92672 200.0
57.082497 148.0
57.13063 188.0
57.148682 148.0
57.210392 180.0
57.371593 112.0
57.487736 176.0
57.607021 92.0
57.64328 136.0
57.712994 136.0
57.753651 208.0
57.838387 172.0
58.15519 336.0
58.218956 116.0
58.229588 52.0
58.296436 220.0
58.545937 160.0
58.693756 196.0
58.718155 164.0
58.805122 184.0
58.857029 132.0
58.929737 200.0
59.008301 152.0
59.147518 124.0
59.2869 120.0
59.297626 104.0
59.351284 140.0
59.369686 136.0
59.388092 128.0
59.560009 176.0
59.593807 28.0
59.623005 188.0
59.644524 212.0
59.950813 164.0
59.966228 152.0
59.992432 116.0
60.210003 208.0
60.245529 180.0
60.316616 244.0
60.336716 244.0
60.369186 92.0
60.474392 140.0
60.503807 108.0
60.5606 200.0
60.604481 84.0
60.661827 168.0
60.807636 184.0
60.88216 256.0
60.924099 52.0
60.95673 100.0
61.092716 340.0
61.127789 148.0
61.227425 240.0
61.288177 148.0
61.586159 128.0
61.623653 148.0
61.642403 240.0
61.703365 172.0
61.93811 80.0
61.99765 236.0
62.063488 120.0
62.14262 196.0
62.187214 148.0
62.223534 132.0
62.671173 100.0
62.745174 204.0
63.03632 160.0
63.052124 180.0
63.191284 164.0
63.275169 144.0
63.324261 140.0
63.508125 140.0
63.663666 180.0
63.731972 196.0
63.789188 376.0
63.929157 64.0
63.996017 152.0
64.032646 196.0
64.109116 76.0
64.166504 144.0
64.279755 204.0
64.29731 176.0
64.308479 68.0
64.450615 128.0
64.497009 144.0
64.517746 144.0
64.533737 240.0
64.588112 160.0
64.623306 200.0
64.639305 140.0
64.669716 176.0
64.735359 268.0
64.754578 148.0
64.924469 160.0
64.954941 168.0
65.152405 196.0
65.28582 128.0
65.425804 152.0
65.492935 172.0
65.675591 200.0
65.783707 240.0
65.841835 132.0
65.867676 120.0
65.908066 216.0
66.061668 144.0
66.07946 140.0
66.244598 56.0
66.353188 148.0
66.43914 100.0
66.453743 112.0
66.55925 44.0
66.575493 144.0
66.638847 172.0
66.65184 56.0
66.817696 156.0
66.925117 152.0
66.969086 136.0
67.174477 128.0
67.218529 148.0
67.326279 136.0
67.344246 180.0
67.378548 156.0
67.427574 56.0
67.485497 172.0
67.50441 212.0
67.599297 92.0
67.838577 180.0
67.905663 140.0
68.14698 224.0
68.179848 232.0
68.219299 104.0
68.286713 56.0
68.352524 36.0
68.597931 164.0
68.759583 136.0
68.842133 92.0
68.929688 188.0
68.957779 60.0
69.002411 72.0
69.020599 100.0
69.142731 204.0
69.242363 112.0
69.454521 168.0
69.51757 48.0
69.590607 160.0
69.680298 192.0
69.797005 132.0
69.938835 244.0
70.212051 128.0
70.231331 148.0
70.264702 148.0
70.421616 132.0
70.438324 108.0
70.495132 108.0
70.513512 184.0
70.528557 180.0
70.587074 196.0
70.613831 164.0
70.628883 140.0
70.642265 164.0
70.662346 144.0
70.702507 148.0
70.722588 120.0
70.771469 164.0
70.903481 252.0
71.262596 100.0
71.442497 156.0
71.476151 152.0
71.501389 120.0
71.530006 188.0
71.720703 212.0
71.781052 124.0
71.813095 124.0
71.850204 172.0
71.862015 184.0
71.883957 128.0
71.921082 128.0
72.140686 164.0
72.17112 160.0
72.211708 164.0
72.242157 124.0
72.366348 348.0
72.397881 128.0
72.460556 176.0
72.474113 200.0
72.504616 164.0
72.523262 132.0
72.616516 128.0
72.677589 132.0
72.896645 168.0
72.969734 56.0
73.159683 192.0
73.178123 164.0
73.233711 172.0
73.260765 120.0
73.330635 308.0
73.378365 136.0
73.431229 64.0
73.486725 188.0
73.596764 44.0
73.735138 108.0
73.877068 208.0
73.919846 220.0
73.940384 56.0
74.251801 172.0
74.315674 116.0
74.37059 124.0
74.411797 124.0
74.470184 168.0
74.547493 180.0
74.710846 164.0
74.760742 144.0
74.907097 200.0
75.115639 156.0
75.169174 116.0
75.284836 88.0
75.381584 152.0
75.393021 220.0
75.457634 152.0
75.518166 176.0
75.559677 44.0
75.577385 188.0
75.590828 168.0
75.755318 144.0
75.774368 160.0
75.793434 92.0
75.901115 164.0
75.96508 168.0
75.992836 220.0
76.046791 192.0
76.352386 176.0
76.486404 148.0
76.630951 184.0
76.798309 184.0
76.927444 176.0
76.969307 196.0
77.109108 120.0
77.168541 140.0
77.346992 148.0
77.385506 108.0
77.457314 168.0
77.523888 124.0
77.678185 120.0
77.873032 180.0
77.929245 176.0
78.004814 216.0
78.055809 176.0
78.090981 152.0
78.141998 164.0
78.251122 40.0
78.305626 160.0
78.369133 184.0
78.401413 176.0
78.444916 40.0
78.538376 128.0
78.759018 156.0
78.872108 124.0
79.080833 208.0
79.096764 92.0
79.130844 112.0
79.275658 156.0
79.470711 172.0
79.523956 184.0
79.559456 148.0
79.605621 208.0
79.705101 196.0
79.804642 340.0
79.873596 176.0
79.902466 160.0
79.916702 192.0
79.938057 52.0
79.987892 140.0
80.068016 224.0
80.158875 32.0
80.260483 76.0
80.280098 216.0
80.319336 208.0
80.378212 120.0
80.435326 296.0
80.491219 144.0
80.571053 176.0
80.629791 136.0
80.737289 140.0
80.857162 52.0
80.923393 188.0
80.960999 108.0
81.012947 32.0
81.161339 136.0
81.217308 196.0
81.238831 196.0
81.323174 188.0
81.411148 140.0
81.576454 140.0
81.713135 148.0
81.79052 128.0
81.822922 184.0
81.873665 156.0
81.90036 196.0
82.089607 172.0
82.111244 176.0
82.262817 156.0
82.351303 148.0
82.412727 136.0
82.466942 136.0
82.49044 200.0
82.602562 180.0
82.770882 196.0
82.796234 196.0
82.846954 188.0
82.89225 176.0
82.906746 188.0
82.943001 164.0
82.959312 172.0
83.037285 168.0
83.051796 136.0
83.093521 136.0
83.118927 100.0
83.255074 144.0
83.272209 188.0
83.286453 188.0
83.32592 140.0
83.361603 176.0
83.405884 176.0
83.511345 180.0
83.576843 100.0
83.800804 156.0
83.917458 76.0
83.953926 136.0
83.968513 148.0
84.00135 156.0
84.101715 132.0
84.218575 164.0
84.348312 100.0
84.375732 172.0
84.474487 132.0
84.522064 184.0
84.661186 128.0
84.840759 216.0
84.984497 600.0
85.156387 188.0
85.17292 152.0
85.240898 176.0
85.330963 148.0
85.346931 176.0
85.500206 176.0
85.531494 264.0
85.593582 220.0
85.656708 208.0
85.759903 160.0
85.783867 96.0
85.829956 136.0
85.885284 152.0
85.938789 200.0
85.994148 172.0
86.019997 128.0
86.084618 120.0
86.176384 124.0
86.273087 168.0
86.316246 216.0
86.393295 192.0
86.452507 128.0
86.472862 48.0
86.532104 148.0
86.596916 120.0
86.720207 192.0
86.94548 212.0
86.960258 336.0
86.978897 112.0
87.016022 176.0
87.047592 172.0
87.064301 124.0
87.266853 128.0
87.300331 104.0
87.481445 176.0
87.575783 204.0
87.7174 116.0
87.8069 212.0
87.898315 124.0
87.948708 204.0
88.152283 112.0
88.357971 140.0
88.402878 108.0
88.468391 140.0
88.676315 160.0
88.809441 148.0
88.845085 116.0
88.884483 136.0
88.961441 160.0
88.977196 356.0
89.042183 208.0
89.185059 224.0
89.39563 124.0
89.418213 128.0
89.508583 76.0
89.763428 184.0
89.821449 52.0
89.859818 188.0
89.925224 108.0
90.010185 44.0
90.032501 132.0
90.149971 188.0
90.248276 56.0
90.287987 48.0
90.310684 152.0
90.346626 152.0
90.405334 140.0
90.456383 188.0
90.56324 84.0
90.803139 136.0
90.888512 228.0
90.93026 124.0
90.977715 128.0
90.991005 184.0
91.034683 204.0
91.054855 192.0
91.106857 144.0
91.515778 120.0
91.969513 164.0
92.045883 96.0
92.204445 128.0
92.376534 152.0
92.445419 120.0
92.719284 132.0
92.94558 180.0
93.012749 128.0
93.037704 160.0
93.197121 136.0
93.272079 208.0
93.297066 176.0
93.327827 140.0
93.433617 136.0
93.500969 140.0
93.620331 144.0
93.707016 200.0
93.807236 152.0
93.888214 188.0
93.978882 140.0
94.015549 200.0
94.183525 76.0
94.237617 152.0
94.394188 152.0
94.581863 120.0
94.761101 224.0
94.942245 164.0
95.093582 176.0
95.342186 144.0
95.447098 128.0
95.559982 152.0
95.587219 116.0
95.663132 152.0
95.692329 108.0
95.83062 132.0
95.953415 196.0
96.091896 48.0
96.128967 176.0
96.230469 68.0
96.261864 156.0
96.481071 168.0
96.511841 144.0
96.554863 184.0
96.715302 44.0
96.772079 192.0
96.797531 96.0
96.918983 72.0
96.932701 56.0
97.118958 204.0
97.138573 60.0
97.368225 144.0
97.499863 152.0
97.529343 104.0
97.704361 148.0
97.820473 160.0
97.863792 252.0
97.895294 228.0
98.002113 300.0
98.048965 124.0
98.3843 160.0
98.47316 188.0
98.542305 176.0
98.589729 172.0
98.702408 124.0
98.777565 140.0
98.89827 228.0
99.009056 3396.0
99.054703 156.0
99.143867 128.0
99.280663 148.0
99.296532 232.0
99.352074 124.0
99.433434 160.0
99.489014 120.0
99.522766 40.0
99.602203 136.0
99.633987 164.0
99.673729 188.0
99.707512 164.0
99.759193 208.0
99.787025 120.0
99.806915 140.0
99.820831 72.0
99.864586 116.0
99.894424 76.0
99.930237 72.0
99.952126 192.0
99.985954 252.0
100.017914 21268.0
100.06279 120.0
100.10939 68.0
100.12278 148.0
100.145241 152.0
100.232895 80.0
100.501053 92.0
100.52005 220.0
100.56813 44.0
100.591904 56.0
100.60788 96.0
100.667778 56.0
100.799149 136.0
100.844009 96.0
100.91156 132.0
100.99221 180.0
101.020622 1104.0
101.091591 64.0
101.107605 192.0
101.151634 64.0
101.191681 68.0
101.510445 144.0
101.542366 212.0
101.576469 36.0
101.610573 36.0
101.669739 248.0
101.6782 120.0
101.6866 212.0
101.765121 44.0
101.81131 132.0
101.909737 176.0
102.000175 180.0
102.030098 172.0
102.054459 192.0
102.133789 180.0
102.193245 256.0
102.217392 44.0
102.328102 148.0
102.583328 152.0
102.664619 112.0
102.737236 148.0
102.76194 180.0
102.787682 120.0
102.888603 136.0
102.902733 196.0
102.974533 104.0
103.143143 84.0
103.179535 68.0
103.226036 124.0
103.630882 52.0
104.012184 652.0
104.077126 100.0
104.121803 184.0
104.245728 204.0
104.333138 112.0
104.44091 108.0
104.455154 192.0
104.711624 128.0
104.727921 228.0
104.813484 32.0
104.872589 236.0
104.935783 224.0
104.956177 216.0
105.020378 748.0
105.094879 216.0
105.15406 100.0
105.270432 204.0
105.376564 88.0
105.448181 96.0
105.478836 168.0
105.560623 216.0
105.726334 128.0
105.820496 192.0
106.025345 148.0
106.170906 224.0
106.238594 128.0
106.460274 176.0
106.517784 200.0
106.587639 120.0
106.635635 260.0
106.71508 184.0
106.756744 184.0
106.829872 148.0
106.838417 120.0
106.976372 112.0
107.250877 188.0
107.273026 144.0
107.468956 188.0
107.584534 108.0
107.634087 184.0
107.675392 188.0
107.824532 108.0
107.894432 152.0
107.931648 164.0
107.956467 132.0
107.977142 132.0
108.066101 196.0
108.217194 152.0
108.374619 116.0
108.528 116.0
108.573624 228.0
108.613159 176.0
108.702248 160.0
108.723 168.0
108.903633 128.0
108.983604 14144.0
109.088577 216.0
109.157188 40.0
109.195869 200.0
109.263268 68.0
109.288239 60.0
109.425613 176.0
109.458931 36.0
109.601852 196.0
109.698532 52.0
109.813217 80.0
109.877892 152.0
109.987816 672.0
110.094978 36.0
110.205696 92.0
110.303925 176.0
110.377098 176.0
110.393829 80.0
110.441933 104.0
110.460762 140.0
110.487953 312.0
110.559097 108.0
110.600609 212.0
110.606461 140.0
110.67424 124.0
110.70565 184.0
110.80619 144.0
110.88163 144.0
110.980408 4164.0
111.034683 48.0
111.059853 176.0
111.509186 188.0
111.545624 108.0
111.664772 76.0
111.679497 80.0
111.769966 176.0
111.835205 172.0
111.856255 48.0
111.921524 104.0
111.968399 128.0
111.993752 2580.0
112.117439 76.0
112.199226 240.0
112.233383 132.0
112.482338 96.0
112.530891 164.0
112.59552 196.0
112.820343 108.0
112.978539 1636.0
112.997139 752.0
113.232979 144.0
113.252602 196.0
113.283813 56.0
113.423676 152.0
113.545876 220.0
113.574226 44.0
113.752129 340.0
113.803429 96.0
113.860771 184.0
113.894753 192.0
113.920242 208.0
113.989975 1092.0
114.030739 188.0
114.254021 72.0
114.309341 164.0
114.4328 76.0
114.490295 148.0
114.576653 96.0
114.775856 232.0
114.859032 164.0
114.899567 124.0
114.925171 204.0
114.97464 864.0
114.990608 308.0
115.024818 300.0
115.127968 108.0
115.519119 92.0
115.572609 140.0
115.638954 124.0
115.686043 184.0
115.707451 156.0
115.803818 164.0
115.833809 164.0
115.870232 148.0
115.943085 232.0
115.976227 584.0
116.009537 52.0
116.271225 208.0
116.356186 152.0
116.440834 56.0
116.640663 152.0
116.832062 164.0
116.911674 112.0
116.952568 164.0
116.974098 156.0
117.002083 196.0
117.043655 532.0
117.517204 96.0
117.592735 152.0
117.992378 88.0
118.028114 828.0
118.050873 732.0
118.613701 196.0
118.628876 180.0
118.698257 136.0
118.763321 176.0
118.891327 148.0
118.936913 208.0
119.02961 156.0
119.058678 648.0
119.113548 84.0
119.17363 132.0
119.32795 164.0
119.382317 36.0
119.399712 104.0
119.767555 140.0
119.837265 196.0
120.00074 160.0
120.419739 152.0
120.577049 172.0
120.692909 152.0
120.749771 204.0
120.826332 156.0
120.890884 112.0
120.958931 2496.0
121.29718 184.0
121.455063 160.0
121.551598 140.0
121.630608 140.0
121.830452 124.0
121.962303 284.0
122.054642 144.0
122.070976 212.0
122.10302 124.0
122.46962 76.0
122.48381 196.0
122.501434 84.0
122.591774 188.0
122.622627 196.0
122.700157 256.0
122.752701 56.0
122.865196 136.0
122.889465 196.0
122.956772 1388.0
122.999992 332.0
123.026299 192.0
123.048378 152.0
123.070457 224.0
123.198563 176.0
123.238327 152.0
123.381996 64.0
123.534592 152.0
123.558929 80.0
123.711784 120.0
123.996246 588.0
124.070534 36.0
124.385933 256.0
124.538765 256.0
124.556541 112.0
124.589859 180.0
124.692078 128.0
124.779472 44.0
124.834366 196.0
125.01281 344.0
125.056847 116.0
125.072426 72.0
125.208252 60.0
125.239433 128.0
125.288445 296.0
125.364197 76.0
125.969933 184.0
126.009117 716.0
126.07328 192.0
126.194595 196.0
126.451859 224.0
126.519012 168.0
126.61306 144.0
126.821434 172.0
126.839363 108.0
126.861778 172.0
126.942497 124.0
126.991615 228.0
127.015099 528.0
127.184814 144.0
127.20726 156.0
127.355461 80.0
127.548706 224.0
127.692612 104.0
127.746597 132.0
127.80735 148.0
127.829849 180.0
128.002563 980.0
128.088776 144.0
128.145096 176.0
128.257782 228.0
128.298355 40.0
128.354721 148.0
128.49231 48.0
128.618698 136.0
128.765457 116.0
128.853561 176.0
128.92012 140.0
128.949432 208.0
129.000198 204.0
129.05925 200.0
129.201736 124.0
129.321671 136.0
129.496017 140.0
129.872284 128.0
130.006668 188.0
130.224106 156.0
130.242264 164.0
130.428604 136.0
130.562744 44.0
130.70607 208.0
130.840363 212.0
130.888168 44.0
131.168411 116.0
132.006348 244.0
132.287781 172.0
132.324402 148.0
132.365631 144.0
132.53743 220.0
132.755203 124.0
132.874481 116.0
132.959976 720.0
133.011215 320.0
133.039719 132.0
133.069565 140.0
133.122391 180.0
133.202774 76.0
133.299271 184.0
133.69252 128.0
133.91124 172.0
133.961914 120.0
134.017242 160.0
134.374603 116.0
134.390747 60.0
134.61467 184.0
134.637756 108.0
134.778671 196.0
134.96048 300.0
135.088486 100.0
135.176407 108.0
135.215759 92.0
135.356979 168.0
135.447296 136.0
135.514481 60.0
135.537659 140.0
135.556198 136.0
135.637314 188.0
135.725418 40.0
135.818192 116.0
135.883331 196.0
135.924911 172.0
135.95816 172.0
135.99437 10172.0
136.04097 120.0
136.084717 256.0
136.110611 56.0
136.176682 196.0
136.233719 136.0
136.261597 48.0
136.296448 44.0
136.438232 60.0
136.65918 160.0
136.691757 88.0
136.708054 40.0
137.000259 836.0
137.062012 132.0
137.136597 60.0
137.22052 44.0
137.334793 72.0
137.386108 32.0
137.451447 220.0
137.598495 128.0
137.739578 164.0
137.958282 164.0
137.989624 2564.0
138.043915 96.0
138.061752 96.0
138.157669 156.0
138.29982 260.0
138.344284 88.0
138.524612 84.0
138.876236 116.0
138.916107 236.0
139.01033 380.0
139.028732 172.0
139.075668 176.0
139.207153 160.0
139.261169 132.0
139.385681 132.0
139.519669 152.0
139.707809 128.0
139.823105 80.0
139.844299 132.0
139.933197 152.0
139.989868 1340.0
140.030304 156.0
140.063278 52.0
140.119812 192.0
140.171661 96.0
140.258865 176.0
140.336655 104.0
140.51355 136.0
140.662231 144.0
140.749588 48.0
140.969284 164.0
140.995331 188.0
141.047272 136.0
141.290863 80.0
141.577286 112.0
141.612808 84.0
141.897171 244.0
141.98558 200.0
142.044556 192.0
142.140747 128.0
142.167603 164.0
142.338516 232.0
142.471527 36.0
142.951843 172.0
142.990982 248.0
143.04715 260.0
143.306641 272.0
143.325699 148.0
143.5784 36.0
143.673813 160.0
143.955475 140.0
144.225449 168.0
144.254135 72.0
144.301956 140.0
144.371292 100.0
144.399994 56.0
144.431091 36.0
144.658432 172.0
144.919479 188.0
144.9599 4408.0
145.047241 364.0
145.063736 148.0
145.142395 192.0
145.17598 68.0
145.259918 168.0
145.363098 68.0
145.610367 52.0
145.677628 88.0
145.761612 172.0
145.940292 196.0
145.966751 3424.0
145.999725 52.0
146.059845 132.0
146.115189 148.0
146.192184 184.0
146.278839 104.0
146.29863 164.0
146.32457 28.0
146.570251 60.0
146.654617 120.0
146.75827 100.0
146.77887 148.0
146.869217 160.0
146.924698 144.0
146.956818 2496.0
147.000427 156.0
147.040741 176.0
147.285828 168.0
147.335129 196.0
147.618317 172.0
147.639694 256.0
147.656616 120.0
147.842911 132.0
147.964569 3272.0
148.034164 32.0
148.278854 68.0
148.528595 160.0
148.557098 188.0
148.856262 52.0
148.954132 456.0
149.011719 168.0
149.156555 188.0
149.519943 148.0
149.792664 76.0
149.848694 144.0
149.900848 208.0
149.943726 116.0
150.003891 188.0
150.029053 176.0
150.453552 132.0
150.8591 84.0
150.951736 396.0
151.00737 464.0
151.218674 176.0
151.274979 132.0
151.463531 176.0
151.698792 64.0
151.764984 180.0
151.984314 140.0
152.01445 896.0
152.189484 212.0
152.325699 112.0
152.341095 192.0
152.432663 212.0
152.725235 56.0
152.831024 40.0
152.863022 40.0
152.882706 224.0
152.949158 176.0
152.992767 212.0
153.018936 3652.0
153.06488 76.0
153.417206 180.0
153.481323 172.0
153.631149 96.0
153.639999 144.0
153.742813 200.0
153.814392 116.0
153.894226 156.0
153.974564 152.0
154.004501 3528.0
154.066284 112.0
154.085342 196.0
154.09494 140.0
154.14534 204.0
154.362885 52.0
154.486557 68.0
154.615219 100.0
154.721664 136.0
154.773666 56.0
155.019867 984.0
155.232101 176.0
155.261856 156.0
155.279221 308.0
155.385895 208.0
155.53479 80.0
155.6633 200.0
155.748337 108.0
156.003754 364.0
156.128616 92.0
156.173386 124.0
156.285339 128.0
156.310226 92.0
156.481979 168.0
156.504379 188.0
156.541733 196.0
156.581589 188.0
157.002884 192.0
157.030212 68.0
157.056564 112.0
157.169922 128.0
157.209854 128.0
157.357132 240.0
157.394577 236.0
157.50946 44.0
157.574417 72.0
157.725677 76.0
157.771866 184.0
158.062012 200.0
158.280106 156.0
158.643097 44.0
158.975906 1960.0
159.240311 280.0
159.391037 68.0
159.516708 84.0
159.785812 192.0
159.975662 476.0
160.196182 168.0
160.375092 204.0
160.57933 148.0
160.75592 148.0
160.897278 152.0
160.946671 280.0
160.973068 740.0
161.159958 180.0
161.197861 92.0
161.286316 124.0
161.448135 144.0
161.698608 200.0
161.840378 168.0
161.966278 540.0
161.994873 132.0
162.021027 196.0
162.232208 92.0
162.479095 176.0
162.727829 160.0
162.892899 240.0
162.971924 536.0
163.159744 200.0
163.248734 68.0
163.365738 160.0
163.386093 80.0
163.442078 164.0
163.495514 52.0
163.597336 168.0
163.620239 72.0
163.673965 120.0
163.709366 44.0
163.727188 84.0
163.869843 112.0
163.91571 180.0
163.965729 128.0
163.971313 344.0
164.000198 13648.0
164.119675 224.0
164.14003 60.0
164.188492 120.0
164.224197 104.0
164.244598 56.0
164.273972 140.0
164.375412 196.0
164.420654 84.0
164.508804 172.0
164.724518 60.0
164.811386 52.0
164.944275 100.0
164.968811 296.0
165.002899 1960.0
165.036316 152.0
165.06189 40.0
165.10939 104.0
165.156509 164.0
165.512253 72.0
165.671051 72.0
165.724854 92.0
165.996689 3512.0
166.171005 132.0
166.199219 108.0
166.230026 72.0
166.355957 60.0
166.458496 40.0
166.674271 28.0
166.944183 72.0
166.998047 224.0
167.155136 124.0
167.237488 48.0
167.278687 104.0
167.428024 184.0
167.489838 60.0
167.57486 36.0
167.881607 136.0
168.173157 140.0
168.232529 32.0
168.304825 152.0
168.342361 164.0
168.395203 76.0
168.669098 184.0
168.788025 128.0
169.013916 176.0
169.046722 168.0
169.315964 92.0
169.530991 96.0
169.676147 52.0
169.834335 144.0
169.958878 184.0
170.09642 168.0
170.408066 164.0
170.451614 228.0
170.750137 96.0
170.883881 164.0
170.9021 212.0
170.962463 184.0
170.993179 136.0
171.134964 224.0
171.222305 44.0
171.31868 324.0
171.389023 28.0
171.425507 136.0
171.521942 128.0
171.577805 216.0
171.61058 76.0
171.672241 168.0
171.704468 104.0
171.765427 400.0
171.799072 192.0
171.84584 200.0
171.881226 216.0
171.903259 204.0
171.932144 216.0
171.971329 65280.0
172.025406 48.0
172.044449 68.0
172.089645 204.0
172.130417 128.0
172.173538 112.0
172.222473 108.0
172.263458 256.0
172.346924 80.0
172.404602 140.0
172.450012 88.0
172.473526 92.0
172.495636 48.0
172.518555 196.0
172.566223 40.0
172.587143 100.0
172.728363 88.0
172.785919 100.0
172.814697 52.0
172.856567 40.0
172.971252 5372.0
173.062531 76.0
173.141922 164.0
173.191696 80.0
173.257187 80.0
173.278137 60.0
173.330551 120.0
173.354126 40.0
173.398682 68.0
173.448486 180.0
173.493057 140.0
173.57695 228.0
173.605804 100.0
173.658264 188.0
173.828796 36.0
173.865616 120.0
173.90921 236.0
173.968124 37748.0
174.032852 64.0
174.054382 96.0
174.150696 164.0
174.169617 64.0
174.196899 60.0
174.222641 56.0
174.250702 100.0
174.27388 32.0
174.299698 148.0
174.391235 76.0
174.419739 80.0
174.447678 76.0
174.548569 108.0
174.593277 120.0
174.664291 44.0
174.692566 64.0
174.725677 48.0
174.74321 76.0
174.771027 84.0
174.806366 48.0
174.874786 76.0
174.903015 72.0
174.925659 136.0
174.96698 4452.0
175.038849 148.0
175.071182 88.0
175.182877 76.0
175.214493 56.0
175.316284 268.0
175.374786 68.0
175.384842 56.0
175.390686 56.0
175.538712 100.0
175.594086 84.0
175.710159 72.0
175.728622 112.0
175.823624 88.0
175.86058 84.0
175.909515 108.0
175.930435 112.0
175.94696 188.0
175.973587 396.0
176.092926 76.0
176.127274 48.0
176.243515 112.0
176.298523 108.0
176.357162 64.0
176.423248 96.0
176.462906 168.0
176.790909 52.0
176.925903 48.0
177.01593 112.0
177.201355 116.0
177.257004 136.0
177.376266 172.0
177.55127 224.0
177.591049 40.0
177.835159 36.0
177.853745 56.0
178.013046 112.0
178.161789 120.0
179.021484 216.0
179.881195 112.0
180.026337 340.0
180.485962 112.0
180.748108 108.0
180.83107 140.0
181.021164 144.0
181.21402 104.0
182.00798 124.0
182.03215 68.0
182.085861 128.0
182.204056 104.0
182.319611 136.0
182.822525 104.0
183.614609 80.0
183.984283 112.0
184.081497 56.0
184.392181 28.0
184.419205 88.0
184.925003 104.0
184.973724 140.0
185.092865 64.0
185.691788 80.0
185.983459 284.0
186.715729 36.0
186.740204 88.0
186.980591 360.0
187.66066 140.0
188.613464 148.0
188.714615 96.0
188.788452 180.0
188.998672 2292.0
189.086655 76.0
189.144135 48.0
189.94429 52.0
189.984207 1736.0
190.128128 80.0
190.183029 76.0
190.743393 84.0
190.905609 28.0
190.993759 2436.0
191.174805 80.0
191.202744 68.0
191.519379 100.0
191.563446 60.0
191.648865 132.0
191.739792 124.0
191.981796 644.0
192.114807 32.0
192.269333 32.0
192.49295 44.0
195.525879 112.0
195.687332 176.0
195.751389 160.0
196.021606 56.0
197.31955 80.0
198.450714 140.0
198.560089 80.0
200.584579 156.0
201.157242 56.0
201.272995 72.0
201.829666 176.0
201.931473 100.0
202.081406 128.0
202.106873 40.0
204.004318 108.0
204.271637 60.0
207.080444 164.0
208.28804 80.0
210.081482 172.0
211.969543 100.0
213.947235 176.0
213.993118 7000.0
214.081833 72.0
214.110641 28.0
214.151413 100.0
214.439865 96.0
214.495255 72.0
214.890671 48.0
214.995834 192.0
215.081573 68.0
215.367737 52.0
215.630707 92.0
215.697937 180.0
215.989441 3888.0
216.081039 184.0
216.337067 100.0
216.534775 60.0
216.651947 72.0
216.733994 88.0
216.992676 304.0
217.31456 112.0
217.98407 56.0
218.101624 64.0
218.498627 64.0
219.205307 80.0
219.562027 56.0
220.861633 76.0
224.353928 128.0
229.212631 116.0
230.673431 56.0
231.019669 740.0
232.019928 336.0
233.014771 768.0
233.526825 108.0
233.756317 84.0
234.016785 144.0
235.755554 124.0
236.422256 32.0
239.920914 132.0
246.02034 76.0
255.713928 60.0
260.857544 44.0
262.618927 144.0
264.059479 128.0
275.725769 144.0
284.832397 184.0
287.458588 100.0
294.831543 48.0
301.001556 32.0
302.605957 56.0
307.570465 84.0
308.964813 68.0
312.012573 52.0
313.76236 88.0
316.39798 28.0
317.390076 80.0
327.223572 136.0
328.174805 60.0
328.365936 124.0
328.585968 52.0
333.478394 68.0
359.463348 64.0
364.735504 76.0
367.645447 72.0
373.753937 112.0
384.758118 72.0
385.601868 76.0
394.964081 72.0
433.283173 112.0
434.966888 68.0
435.145416 48.0
439.674469 40.0
459.210205 52.0
476.985901 72.0
478.674011 32.0
484.268646 100.0
513.225159 136.0
514.028076 116.0
546.590393 84.0
562.738831 88.0
575.702698 40.0
584.172241 144.0
591.865662 52.0
622.397583 60.0
624.335693 236.0
630.128052 72.0
708.366028 220.0
712.54657 96.0
726.974792 80.0
742.718811 88.0
767.080994 188.0
800.502014 136.0
819.809021 208.0
826.450317 184.0
829.19342 268.0
839.098145 144.0
843.607117 132.0
847.583374 100.0
855.31366 80.0
861.127075 72.0
869.29425 148.0
874.413147 36.0
875.013611 196.0
879.753723 244.0
883.524231 172.0
884.441528 196.0
887.172424 108.0
891.713501 232.0
903.072021 216.0
903.981445 44.0
905.879456 144.0
907.695557 180.0
910.588257 124.0
913.882629 64.0
919.565491 152.0
919.988037 56.0
920.108765 92.0
920.62207 80.0
924.067627 196.0
925.30835 196.0
932.308533 120.0
932.892029 204.0
934.661926 180.0
937.176758 76.0
937.798401 176.0
941.94165 188.0
944.869995 152.0
951.022644 144.0
952.514832 192.0
954.801331 136.0
958.242432 152.0
961.152832 124.0
965.693604 156.0
970.796997 216.0
971.404846 160.0
977.612061 92.0
978.402588 156.0
982.646973 116.0
984.444702 148.0
984.713257 80.0
989.315613 104.0
990.762329 208.0
991.150757 84.0
993.069153 148.0
993.489441 156.0
996.151245 156.0
998.973938 228.0
1001.920227 228.0
1002.329773 28.0
1003.010498 168.0
1004.202209 96.0
1004.599609 160.0
1005.842773 120.0
1006.152161 144.0
1007.914368 172.0
1008.925659 96.0
1012.380554 200.0
1013.33075 184.0
1014.344727 156.0
1014.427124 144.0
1014.737793 212.0
1016.856567 32.0
1018.615479 112.0
1019.174561 108.0
1020.178772 116.0
1024.378906 156.0
1025.290161 200.0
1025.522827 164.0
1025.844727 132.0
1026.188965 212.0
1029.954224 112.0
1032.626099 204.0
1033.304199 192.0
1036.691528 212.0
1037.390259 148.0
1039.519653 156.0
1041.3302 156.0
1042.223145 52.0
1042.512329 128.0
1044.672729 152.0
1047.041504 164.0
1047.286255 176.0
1050.206177 60.0
1050.928711 148.0
1062.302734 168.0
1065.152588 176.0
1065.984253 120.0
1067.154297 152.0
1067.928223 260.0
1068.351074 72.0
1068.624268 124.0
1071.854004 208.0
1073.216309 148.0
1073.633667 196.0
1075.952881 232.0
1076.550903 240.0
1077.093018 212.0
1077.413086 48.0
1077.785522 240.0
1078.092651 56.0
1078.471802 68.0
1079.530884 164.0
1079.98877 144.0
1080.407471 132.0
1080.531738 92.0
1080.917847 184.0
1081.66394 184.0
1081.873413 156.0
1085.706665 180.0
1086.815308 256.0
1086.87439 176.0
1088.745361 176.0
1089.329834 108.0
1091.288452 152.0
1093.018433 176.0
1094.236084 168.0
1094.723389 284.0
1096.6604 184.0
1096.719727 120.0
1097.115234 64.0
1097.194336 144.0
1099.305054 96.0
1099.998169 72.0
1100.116943 164.0
1100.513062 188.0
1101.464111 112.0
1102.190918 208.0
1103.109619 200.0
1104.504883 48.0
1105.828247 104.0
1108.43103 128.0
1108.510498 48.0
1109.040771 184.0
1109.087158 80.0
1109.345703 172.0
1112.782349 156.0
1114.768433 292.0
1115.230591 112.0
1115.306763 204.0
1115.353394 140.0
1115.473022 92.0
1116.184448 172.0
1116.230957 152.0
1121.517212 184.0
1124.852539 144.0
1124.905884 60.0
1125.580322 200.0
1125.907471 148.0
1129.784424 108.0
1134.382324 164.0
1134.445679 88.0
1136.095337 184.0
1136.826782 216.0
1139.244019 176.0
1140.319214 104.0
1141.065308 168.0
1141.435181 200.0
1142.060669 116.0
1143.076538 152.0
1143.608276 116.0
1144.887451 156.0
1146.16748 144.0
1146.497681 120.0
1147.535767 180.0
1148.473145 136.0
1149.998047 148.0
1150.227539 164.0
1150.484131 100.0
1152.996948 48.0
1155.830444 144.0
1157.563477 208.0
1160.633179 120.0
1161.942261 200.0
1163.992188 172.0
1166.111816 160.0
1167.90686 188.0
1171.065186 224.0
1175.708252 136.0
1176.13147 80.0
1176.424927 200.0
1176.677612 112.0
1177.5448 188.0
1177.763428 168.0
1179.088989 120.0
1180.476807 140.0
1185.289185 172.0
1185.755249 124.0
1186.132202 144.0
1186.6875 200.0
1186.941284 184.0
1187.510498 120.0
1188.189575 120.0
1188.271973 160.0
1190.805054 104.0
1191.553833 120.0
1192.01416 156.0
1193.10022 52.0
1193.485229 272.0
1193.856567 156.0
1194.248657 192.0
1198.241455 188.0
1199.447388 168.0
1200.026611 144.0
1202.371948 124.0
1202.613525 84.0
1203.580078 144.0
1205.272461 124.0
1205.56958 212.0
1205.846069 200.0
1207.457031 208.0
1207.678345 180.0
1207.989624 164.0
1208.252563 124.0
1209.332153 152.0
1209.525879 80.0
1210.11438 132.0
1213.717529 132.0
1214.660767 156.0
1215.763916 188.0
1218.6875 112.0
1219.118286 176.0
1219.194702 76.0
1223.841675 228.0
1225.987305 216.0
1227.569702 192.0
1228.566284 160.0
1229.460327 168.0
1229.509155 136.0
1229.969849 132.0
1231.06604 160.0
1231.582886 136.0
1232.533081 152.0
1233.93103 140.0
1234.441406 148.0
1234.861084 124.0
1236.897217 196.0
1237.695435 204.0
1237.961548 148.0
1238.05957 188.0
1239.250488 60.0
1239.888184 172.0
1241.100952 152.0
1243.549316 116.0
1244.756836 140.0
1245.150146 168.0
1245.789307 176.0
1246.421753 152.0
1247.068237 148.0
1248.05249 204.0
1248.931641 208.0
1251.183594 176.0
1251.648315 160.0
1252.549805 140.0
1253.423462 200.0
1259.194214 224.0
1259.39209 56.0
1259.526245 256.0
1259.752319 80.0
1261.03125 104.0
1261.589722 64.0
1261.985718 180.0
1263.039429 180.0
1264.603149 64.0
1265.063354 176.0
1265.247437 76.0
1265.835083 160.0
1266.8125 120.0
1267.613159 240.0
1268.187256 176.0
1268.690552 184.0
1269.066284 48.0
1269.73999 196.0
1270.165649 260.0
1270.910522 64.0
1271.669922 136.0
1274.36145 132.0
1275.917969 232.0
1277.297607 232.0
1278.108643 208.0
1278.863037 140.0
1279.710205 112.0
1282.132202 168.0
1284.649292 172.0
1285.134521 144.0
1285.434204 212.0
1286.576172 140.0
1287.747314 176.0
1288.383057 132.0
1288.597412 176.0
1288.797485 168.0
1291.356812 164.0
1291.557129 64.0
1292.379883 224.0
1292.730469 168.0
1292.78772 124.0
1294.398438 200.0
1294.477295 212.0
1295.021606 204.0
1296.354126 144.0
1297.264404 176.0
1297.737671 148.0
1297.845215 164.0
1298.748901 140.0
1300.040283 188.0
1301.806396 72.0
1302.783203 108.0
1303.106567 192.0
1303.293335 140.0
1307.744995 92.0
1308.371216 160.0
1308.539307 260.0
1308.594482 112.0
1310.121338 36.0
1311.800537 160.0
1312.759521 116.0
1313.170532 284.0
1315.039307 244.0
1317.949707 128.0
1319.265137 244.0
1321.34082 184.0
1322.419067 180.0
1323.447144 72.0
1324.106079 168.0
1324.301636 124.0
1324.902954 184.0
1325.562256 184.0
1327.548584 192.0
1329.325928 144.0
1329.449341 104.0
1330.588989 136.0
1331.445801 64.0
1332.702637 152.0
1333.283936 136.0
1333.487427 192.0
1333.676392 192.0
1334.345215 108.0
1337.044067 76.0
1338.623779 136.0
1338.907837 64.0
1339.082642 160.0
1339.4104 108.0
1339.738281 136.0
1340.474121 168.0
1341.232178 168.0
1342.318481 284.0
1343.704346 120.0
1346.047485 148.0
1346.558716 104.0
1347.040771 252.0
1347.303833 144.0
1348.063721 164.0
1349.452515 232.0
1350.359375 132.0
1350.534912 204.0
1350.58606 164.0
1351.178711 176.0
1353.520874 212.0
1354.744141 124.0
1357.060059 136.0
1357.22876 204.0
1360.772827 116.0
1361.257446 180.0
1361.580566 132.0
1363.182129 140.0
1363.667236 108.0
1364.394897 148.0
1365.372925 156.0
1365.483276 244.0
1365.799561 120.0
1367.006226 160.0
1367.661255 176.0
1368.161743 148.0
1368.942261 236.0
1369.502075 48.0
1370.695557 244.0
1371.520996 212.0
1372.066528 180.0
1373.578369 204.0
1375.674194 232.0
1375.880859 188.0
1377.675537 200.0
1378.177979 204.0
1378.296143 248.0
1379.123901 116.0
1379.353027 196.0
1379.626587 144.0
1380.151489 196.0
1380.439941 204.0
1381.41626 196.0
1382.429565 72.0
1382.785156 116.0
1385.265747 228.0
1385.325073 136.0
1385.628784 244.0
1386.154907 208.0
1386.251221 148.0
1386.429077 176.0
1386.859009 124.0
1389.46936 196.0
1390.864502 188.0
1391.508057 152.0
1392.163818 160.0
1393.218628 188.0
1393.426636 116.0
1393.612427 264.0
1394.251465 204.0
1394.816406 196.0
1394.942749 156.0
1395.351685 124.0
1396.653076 44.0
1396.943237 144.0
1397.657471 180.0
1400.114136 52.0
1400.434326 180.0
1400.635498 108.0
1402.095947 200.0
1403.579468 200.0
1405.101074 140.0
1405.414429 112.0
1406.04126 212.0
1406.638428 140.0
1409.708252 116.0
1410.074463 200.0
1411.644409 152.0
1411.891235 36.0
1412.25769 140.0
1413.402344 104.0
1413.552002 136.0
1414.472656 60.0
1416.322266 136.0
1417.131348 112.0
1417.498535 320.0
1418.382935 140.0
1418.862671 180.0
1420.099976 156.0
1420.310059 148.0
1420.445068 128.0
1420.947754 44.0
1422.981689 144.0
1423.740112 184.0
1423.837769 192.0
1424.033081 148.0
1424.348511 132.0
1424.806885 180.0
1425.205078 84.0
1425.836304 124.0
1426.339844 160.0
1426.941284 160.0
1428.099487 200.0
1428.799072 192.0
1428.851685 36.0
1430.070801 188.0
1430.119751 148.0
1431.697144 148.0
1433.226318 204.0
1434.598145 84.0
1434.688599 168.0
1435.887573 164.0
1437.660522 164.0
1438.573853 216.0
1438.966431 76.0
1440.136963 184.0
1441.134155 212.0
1442.381104 96.0
1442.766724 264.0
1444.264038 140.0
1445.588013 240.0
1445.981567 120.0
1446.034546 172.0
1446.541748 220.0
1446.677979 216.0
1447.329102 208.0
1448.101562 116.0
1449.525879 180.0
1449.988159 176.0
1450.367188 192.0
1450.45813 80.0
1450.61731 192.0
1451.169434 112.0
1451.584839 200.0
1452.095947 152.0
1452.604248 208.0
1453.082153 164.0
1455.807251 160.0
1455.883179 164.0
1456.566772 168.0
1456.629639 180.0
1457.752075 108.0
1458.97583 148.0
1460.230591 164.0
1460.588013 152.0
1460.808594 160.0
1461.584717 188.0
1461.972778 188.0
1462.543701 144.0
1462.7948 192.0
1463.937012 164.0
1464.195923 120.0
1464.69104 244.0
1465.321167 224.0
1466.184448 160.0
1466.521606 148.0
1466.801758 348.0
1467.083862 216.0
1468.639526 160.0
1468.746338 168.0
1469.585449 84.0
1470.279907 116.0
1470.371582 136.0
1471.577637 144.0
1472.063354 252.0
1473.059326 96.0
1473.17395 188.0
1473.953247 208.0
1474.732788 48.0
1474.954468 160.0
1476.391846 176.0
1477.179688 176.0
1477.233276 140.0
1479.353149 164.0
1479.460327 140.0
1480.019165 156.0
1480.945923 148.0
1481.007202 132.0
1481.957153 72.0
1482.187012 132.0
1482.830811 212.0
1483.03772 184.0
1485.292114 152.0
1485.514526 152.0
1487.918823 132.0
1489.442139 252.0
1490.628174 180.0
1491.672974 192.0
1492.273071 168.0
1492.626831 128.0
1493.518921 180.0
1493.619019 188.0
1494.14209 72.0
1494.640381 148.0
1494.703735 240.0
1496.004517 160.0
1499.648193 176.0
1499.848511 68.0
1502.810059 164.0
1503.821045 180.0
1505.383057 176.0
