>compound SULFASALAZINE
>formula C18H14N4O5S
>ionization [M+H]+
>parentmass 399.07576700009054
#inchi InChI=1S/C18H14N4O5S/c23-16-9-6-13(11-15(16)18(24)25)21-20-12-4-7-14(8-5-12)28(26,27)22-17-3-1-2-10-19-17/h1-11,23H,(H,19,22)(H,24,25)
#inchikey NCEXYHBECQHGNR
#Ion_Source LC-ESI
#Instrument qTof
#Compound_Source Commercial
#PI Dorrestein
#Data_Collector Garg_Neha
#Scan -1
#Precursor_MZ 399.076
#ExactMass 398.068
#Charge 1
#CAS_Number N/A
#Pubmed_ID N/A
#Smiles OC(=O)c1cc(N=Nc2ccc(cc2)S(=O)(=O)Nc3ccccn3)ccc1O
#INCHI_AUX N/A
#Library_Class 1
#SpectrumID CCMSLIB00000078940
#IonMode Positive
#UpdateWorkflowName UPDATE-SINGLE-ANNOTATED-GOLD
#LibraryQualityString Gold
#TaskID 278b19f5865741e282cec7349aa7e7a1
##Scan# 1233
#SpectrumFile NCP003272_E2_F11_BC2_01_15715.mzXML
#LibraryName NIHcollectionI_05062014.mgf
#MQScore -1
#Organism NIHcollectionI_05062014
#TIC_Query 0
#RT_Query -1
#MZErrorPPM -1
#SharedPeaks 0
#MassDiff 0
#LibMZ -1
#SpecMZ 399.076
#SpecCharge 0
#internalFilename spec-00000.mgf

>collision 10
45.228233 140.0
46.133362 144.0
48.226452 148.0
48.890789 184.0
49.740585 180.0
50.279655 200.0
50.715275 152.0
52.869438 156.0
52.99107 144.0
53.93116 156.0
54.498299 180.0
56.811516 152.0
57.429802 136.0
59.036629 160.0
59.195778 176.0
61.949768 152.0
62.442764 248.0
62.800163 180.0
63.858185 252.0
65.236534 176.0
65.592293 148.0
65.99427 164.0
67.183121 180.0
67.973381 208.0
68.859062 168.0
69.313995 212.0
69.370346 244.0
69.966736 164.0
70.074997 152.0
70.610832 156.0
71.215881 168.0
71.414207 184.0
71.794838 152.0
72.824463 152.0
73.506516 160.0
73.552597 196.0
74.048439 192.0
74.427429 168.0
74.466927 224.0
75.362709 164.0
75.530403 152.0
76.274284 160.0
76.64846 160.0
76.842003 200.0
79.692612 160.0
80.343704 192.0
83.957321 152.0
83.995621 156.0
86.12674 160.0
87.715103 176.0
88.065895 164.0
88.239838 236.0
88.555931 144.0
88.673965 156.0
89.84166 160.0
90.346062 260.0
91.01915 964.0
93.04277 296.0
93.421364 168.0
93.592651 156.0
93.675728 144.0
94.022522 188.0
94.05278 2116.0
95.060219 1108.0
95.1782 236.0
97.603127 152.0
98.152496 156.0
99.008156 160.0
99.073517 184.0
99.768097 160.0
99.863548 180.0
100.012772 148.0
100.066521 172.0
100.610786 160.0
100.632751 164.0
101.034462 140.0
101.374847 224.0
101.613457 184.0
102.238365 192.0
104.177414 208.0
105.040527 184.0
105.387581 144.0
105.426407 196.0
105.970703 208.0
106.011681 140.0
106.027946 292.0
106.313133 148.0
107.012833 192.0
107.147942 144.0
107.638832 156.0
108.52858 156.0
108.974823 160.0
109.027763 344.0
109.45842 152.0
110.463341 176.0
110.48217 172.0
110.921928 160.0
112.037781 212.0
112.092567 172.0
114.639725 140.0
115.057236 692.0
115.64135 196.0
115.971184 176.0
116.061226 156.0
117.049644 160.0
117.624313 216.0
118.507622 188.0
118.956543 180.0
119.013115 12172.0
119.254128 160.0
120.015839 928.0
120.040039 144.0
120.293121 164.0
120.835098 164.0
121.040047 244.0
121.189186 160.0
122.02211 288.0
122.063385 184.0
122.971024 168.0
123.00386 164.0
123.187416 148.0
123.57872 152.0
123.939629 172.0
124.187912 164.0
124.992119 228.0
125.012146 172.0
127.052895 372.0
127.238396 144.0
128.062378 140.0
128.525803 152.0
129.047379 160.0
129.072418 180.0
129.633804 148.0
129.901337 164.0
129.989822 180.0
130.482712 152.0
132.042023 160.0
132.323868 160.0
133.862259 160.0
134.023743 2672.0
134.171005 176.0
135.025223 364.0
136.200455 196.0
137.023209 3864.0
138.027832 220.0
138.158569 172.0
138.256836 308.0
138.715912 160.0
139.026382 276.0
139.054245 4256.0
139.206955 132.0
139.260269 260.0
140.060715 408.0
141.032471 160.0
141.070526 160.0
141.150314 152.0
141.270935 168.0
141.427109 160.0
142.041702 204.0
142.539368 256.0
142.822281 228.0
143.048874 360.0
143.245972 160.0
144.04747 324.0
144.070175 168.0
144.257767 172.0
144.571091 168.0
145.062775 140.0
145.681213 228.0
145.890274 184.0
146.062012 168.0
146.265533 176.0
147.019363 10616.0
147.058533 176.0
147.966095 172.0
148.02037 1164.0
148.891281 168.0
149.032928 296.0
149.158554 160.0
149.528259 156.0
149.864304 140.0
150.395935 144.0
150.65477 208.0
151.003937 2328.0
152.008514 272.0
152.032196 420.0
153.018936 516.0
153.038406 244.0
154.030396 560.0
155.060501 544.0
156.045151 300.0
156.071487 340.0
156.370651 176.0
157.005844 508.0
157.037491 232.0
157.076996 1056.0
157.170578 256.0
158.010086 160.0
158.058838 100.0
158.077637 256.0
158.425659 152.0
159.001373 328.0
159.054474 484.0
159.814026 168.0
160.514252 140.0
161.010315 164.0
161.387909 164.0
164.244934 148.0
165.029388 7784.0
166.032333 1028.0
167.031311 140.0
167.05957 1092.0
168.06633 876.0
169.010468 304.0
169.07608 1856.0
169.947449 152.0
170.054779 320.0
170.079971 584.0
171.054062 1480.0
171.095779 152.0
172.040665 408.0
172.072357 144.0
172.992584 160.0
173.403809 140.0
174.038269 172.0
174.769348 212.0
175.066788 148.0
175.744232 216.0
177.035477 252.0
177.569504 144.0
177.735275 204.0
177.970215 152.0
178.065811 140.0
179.018356 156.0
179.052292 156.0
180.052872 160.0
180.12738 172.0
181.062195 504.0
181.662964 192.0
182.007446 168.0
182.044189 260.0
182.070267 372.0
182.19545 152.0
182.278748 172.0
183.054321 620.0
183.081161 564.0
183.177338 160.0
183.694901 188.0
183.748856 152.0
184.061356 204.0
184.645645 172.0
184.843124 164.0
185.036713 496.0
185.069168 1236.0
185.791428 196.0
186.053909 896.0
186.303329 184.0
186.668716 148.0
187.060165 200.0
187.080002 288.0
188.448608 152.0
188.519653 156.0
189.083023 172.0
190.209518 160.0
190.228729 180.0
191.303574 180.0
191.693283 176.0
194.03302 148.0
194.901749 208.0
195.053864 872.0
196.055099 312.0
196.087219 148.0
196.762268 156.0
197.069885 668.0
197.749771 132.0
198.040771 136.0
198.075699 148.0
198.222824 148.0
198.989471 240.0
199.051193 716.0
199.890259 168.0
200.057419 364.0
200.659195 184.0
201.056625 204.0
202.07164 344.0
203.055344 256.0
203.077423 196.0
203.193268 204.0
203.596329 160.0
204.085083 240.0
205.905991 140.0
206.485229 184.0
207.496964 184.0
208.090637 376.0
208.254532 180.0
208.306229 148.0
209.101212 148.0
209.266769 168.0
209.396347 216.0
209.551895 156.0
210.04158 144.0
210.071732 140.0
210.151611 152.0
211.049103 608.0
211.076416 180.0
211.808105 144.0
212.059296 696.0
213.066132 8512.0
213.165054 128.0
213.247238 160.0
213.308289 156.0
213.461426 108.0
213.84137 104.0
213.997757 176.0
214.068878 1152.0
214.691269 176.0
215.018005 160.0
215.073715 164.0
215.856415 156.0
216.016068 348.0
216.039459 272.0
217.013412 140.0
217.063889 192.0
217.171356 140.0
217.203613 188.0
217.388458 164.0
219.073303 180.0
219.586044 236.0
219.845673 172.0
219.904694 192.0
220.078857 144.0
222.043747 196.0
222.103073 160.0
222.331528 144.0
222.928421 176.0
223.005692 156.0
223.051224 12492.0
223.142349 128.0
223.413071 152.0
224.01738 188.0
224.054871 3592.0
224.129044 108.0
224.443573 180.0
224.564346 176.0
225.001495 176.0
225.030304 148.0
225.061081 888.0
226.062134 1228.0
226.298096 152.0
227.049057 300.0
228.046387 120.0
228.071686 168.0
228.486954 184.0
228.959534 148.0
229.051392 128.0
230.050247 156.0
230.082764 172.0
230.392273 176.0
231.090164 380.0
231.187485 264.0
232.101135 284.0
232.132614 152.0
232.366165 220.0
232.693954 164.0
233.041306 624.0
233.110153 400.0
233.325867 256.0
234.041336 944.0
234.110428 208.0
234.229675 184.0
234.750839 216.0
236.354523 236.0
238.384476 140.0
238.913315 184.0
239.045227 8128.0
239.101318 160.0
239.146729 140.0
239.867935 144.0
240.048157 1196.0
240.13002 148.0
240.210205 148.0
241.061539 4004.0
241.312714 180.0
241.382187 128.0
242.068573 1376.0
242.828888 140.0
243.081757 352.0
243.550125 172.0
244.076767 268.0
245.002808 148.0
245.051544 180.0
245.108749 152.0
246.676666 156.0
246.975647 192.0
247.088257 160.0
248.024582 248.0
250.733841 164.0
250.850464 208.0
251.059982 152.0
251.686508 224.0
252.802338 140.0
253.003632 212.0
253.080902 156.0
255.039398 5236.0
255.365738 140.0
255.55188 132.0
256.044037 1248.0
257.006317 164.0
257.055237 5296.0
257.261658 196.0
257.871735 180.0
258.058441 852.0
258.133881 204.0
259.015686 108.0
259.080536 956.0
259.199799 140.0
260.092865 464.0
261.045563 148.0
261.103516 780.0
262.103699 208.0
263.091522 556.0
264.089996 172.0
264.50415 168.0
265.135742 144.0
265.670715 244.0
266.033875 632.0
267.038025 128.0
267.822632 168.0
269.0242 272.0
269.058502 144.0
269.084625 188.0
270.028992 144.0
271.088135 260.0
271.692993 160.0
272.086639 112.0
272.421783 232.0
272.937775 300.0
273.050385 6396.0
273.936218 120.0
274.052521 1048.0
274.330414 168.0
274.686554 208.0
275.060516 120.0
275.092804 324.0
277.901062 188.0
278.865204 220.0
279.533661 144.0
280.802917 184.0
284.241913 164.0
285.024292 172.0
286.371979 132.0
286.521515 144.0
287.01474 656.0
287.081757 1712.0
288.006714 124.0
288.089813 400.0
289.008209 212.0
289.070709 148.0
289.106415 880.0
290.111755 572.0
290.412292 252.0
290.727814 144.0
291.158936 176.0
291.967773 164.0
293.827576 152.0
294.097168 160.0
294.394196 140.0
295.251953 204.0
296.189758 332.0
296.748322 144.0
297.348633 160.0
298.506348 188.0
299.569855 144.0
299.948883 196.0
300.066101 192.0
300.099487 128.0
301.453644 148.0
303.084656 116.0
304.087097 236.0
304.189789 160.0
304.257935 164.0
304.974792 288.0
305.021851 2260.0
305.096466 180.0
305.299042 152.0
305.764282 156.0
306.025665 300.0
306.119385 152.0
307.029846 164.0
307.086823 192.0
312.567291 148.0
313.934052 208.0
314.07724 120.0
315.087402 3344.0
316.089447 512.0
316.492401 232.0
317.056549 164.0
317.102905 5920.0
317.154694 204.0
317.255066 116.0
317.711578 172.0
317.871246 140.0
317.988831 116.0
318.105438 1584.0
319.101776 156.0
320.2052 124.0
320.819733 148.0
322.940765 196.0
323.38443 212.0
323.466736 200.0
323.932251 156.0
326.124634 196.0
329.53006 180.0
330.234955 164.0
331.987823 144.0
332.091583 1680.0
332.724396 176.0
332.856964 168.0
333.097839 3624.0
333.429047 208.0
333.981689 192.0
334.100342 676.0
335.022766 140.0
335.113525 6028.0
335.163818 184.0
336.010742 172.0
336.075378 140.0
336.119781 1128.0
336.275055 172.0
336.426758 160.0
337.123016 316.0
338.800171 156.0
339.302246 212.0
340.792328 176.0
341.446625 224.0
342.469818 204.0
342.746094 148.0
343.169983 160.0
344.029572 204.0
345.770508 140.0
345.796417 160.0
349.093994 2316.0
349.157715 144.0
350.095154 992.0
351.105438 196.0
351.754669 184.0
352.068298 96.0
353.073456 256.0
353.305481 144.0
354.859711 184.0
355.955322 180.0
357.394958 204.0
357.503693 152.0
358.151642 148.0
358.189301 192.0
358.85257 208.0
360.403839 144.0
363.05423 412.0
364.057281 144.0
365.199371 164.0
366.537384 172.0
367.107422 168.0
368.561737 140.0
369.141937 132.0
369.246002 176.0
370.459381 196.0
371.164581 144.0
372.400269 148.0
375.823517 148.0
376.528992 184.0
376.63327 152.0
377.22699 144.0
377.93219 176.0
378.381165 208.0
378.462463 144.0
378.804779 156.0
379.062866 192.0
379.310913 144.0
379.561005 140.0
379.9133 112.0
379.964508 124.0
380.286072 112.0
380.418304 108.0
380.461517 188.0
380.5849 184.0
380.669037 260.0
380.71579 200.0
380.768219 304.0
380.846161 188.0
380.911407 248.0
381.06665 120028.0
381.172089 184.0
381.213898 244.0
381.305786 156.0
381.35907 168.0
381.431671 132.0
381.474792 124.0
381.534821 108.0
381.602997 204.0
381.705475 772.0
381.754974 116.0
381.842438 124.0
381.985016 188.0
382.068451 22292.0
382.174652 176.0
382.211823 184.0
382.267792 268.0
382.372589 96.0
382.422424 116.0
382.484741 116.0
382.538635 112.0
382.630157 136.0
382.660095 120.0
382.725861 156.0
383.065887 5224.0
383.144775 152.0
383.235687 144.0
383.263062 164.0
383.594574 152.0
383.935944 108.0
384.0625 928.0
384.173645 128.0
384.394958 140.0
384.429199 144.0
384.567566 196.0
384.674927 260.0
384.757568 156.0
384.94574 252.0
385.244293 156.0
385.345856 128.0
385.559387 100.0
386.402496 104.0
387.338013 148.0
387.947174 112.0
389.526825 156.0
390.167358 176.0
390.782013 120.0
390.92038 144.0
391.103607 168.0
392.194641 196.0
392.375977 148.0
393.841583 128.0
394.539398 156.0
395.74118 116.0
395.772583 180.0
396.184174 176.0
396.342499 132.0
396.655304 116.0
397.114136 108.0
397.313324 144.0
397.351044 108.0
397.409485 104.0
397.49649 132.0
397.556885 112.0
397.655029 192.0
397.748444 108.0
397.789948 128.0
397.827698 136.0
397.902222 240.0
397.957245 156.0
398.034485 224.0
398.123077 132.0
398.162842 104.0
398.199036 160.0
398.271179 196.0
398.319153 120.0
398.406189 196.0
398.453735 164.0
398.518738 148.0
398.59848 272.0
398.635742 176.0
398.66745 308.0
398.720612 240.0
398.773041 212.0
398.86731 328.0
398.906769 300.0
398.963623 276.0
399.010803 640.0
399.077942 195380.0
399.200562 120.0
399.22879 260.0
399.335999 176.0
399.474701 292.0
399.548248 164.0
399.575714 344.0
399.670715 168.0
399.733032 3692.0
399.834473 196.0
399.915161 316.0
399.978546 132.0
400.079163 69844.0
400.228271 112.0
400.317932 180.0
400.35965 208.0
400.391296 108.0
400.526306 144.0
400.602753 116.0
400.689178 236.0
400.736786 112.0
400.838257 116.0
400.944641 100.0
401.075592 19480.0
401.1922 124.0
401.230591 264.0
401.282593 104.0
401.334869 128.0
401.375366 96.0
401.452026 124.0
401.493561 252.0
401.691254 184.0
401.967926 120.0
402.013611 164.0
402.07547 2224.0
402.183014 1652.0
402.310272 112.0
402.362671 252.0
402.45224 312.0
402.49295 268.0
402.523743 228.0
402.560333 172.0
402.615692 112.0
402.70163 172.0
402.739441 248.0
402.817932 120.0
402.986237 112.0
403.03775 140.0
403.084259 120.0
403.134247 96.0
403.194458 100.0
403.382782 144.0
403.511353 200.0
403.619568 132.0
403.706787 180.0
403.817017 128.0
404.291595 112.0
404.344482 168.0
404.795959 104.0
405.235168 140.0
405.834656 140.0
405.947296 200.0
406.156281 120.0
412.325714 160.0
430.688385 124.0
434.071198 148.0
516.649414 152.0
522.215149 156.0
536.022644 152.0
655.27417 160.0
734.204712 140.0
801.979553 160.0
944.050293 188.0
1000.928284 160.0
1130.282715 208.0
1183.399048 192.0
1229.807251 224.0
1252.25769 200.0
1312.911499 208.0
1329.011597 208.0
1355.892822 196.0
1360.614502 200.0
1406.484619 164.0
1414.684814 184.0
1434.343262 204.0
1455.701416 140.0
1474.8927 168.0
1505.509644 192.0
1542.954346 172.0
1581.98291 172.0
1626.030273 168.0
1654.387085 172.0
1665.871094 140.0
1681.984863 148.0
1689.183838 168.0
1703.47998 180.0
1738.753296 168.0
1769.009888 160.0
1799.130615 180.0
1801.273804 156.0
1802.250488 116.0
1809.65625 156.0
1814.510986 144.0
1816.656494 228.0
1832.920898 152.0
1843.408081 204.0
1847.212769 140.0
1847.392334 164.0
1869.623657 140.0
1899.466431 148.0
1899.779419 232.0
1906.047119 216.0
1929.431763 180.0
1935.906616 164.0
1975.770508 140.0
1992.668457 164.0
1996.143799 156.0
