>compound SAQUINAVIR MESYLATE
>formula C38H50N6O5
>ionization [M+H]+
>parentmass 671.3915451520905
#inchi InChI=1S/C38H50N6O5/c1-38(2,3)43-37(49)32-20-26-14-7-8-15-27(26)22-44(32)23-33(45)30(19-24-11-5-4-6-12-24)41-36(48)31(21-34(39)46)42-35(47)29-18-17-25-13-9-10-16-28(25)40-29/h4-6,9-13,16-18,26-27,30-33,45H,7-8,14-15,19-23H2,1-3H3,(H2,39,46)(H,41,48)(H,42,47)(H,43,49)/t26-,27+,30-,31-,32-,33+/m0/s1
#inchikey QWAXKHKRTORLEM
#Ion_Source LC-ESI
#Instrument qTof
#Compound_Source Commercial
#PI Dorrestein
#Data_Collector Garg_Neha
#Scan -1
#Precursor_MZ 671.392
#ExactMass 670.384
#Charge 1
#CAS_Number N/A
#Pubmed_ID N/A
#Smiles CC(C)(C)NC(=O)[C@@H]1C[C@@H]2CCCC[C@@H]2CN1C[C@@H](O)[C@H](Cc3ccccc3)NC(=O)[C@H](CC(=O)N)NC(=O)c4ccc5ccccc5n4
#INCHI_AUX N/A
#Library_Class 1
#SpectrumID CCMSLIB00000079268
#IonMode Positive
#UpdateWorkflowName UPDATE-SINGLE-ANNOTATED-GOLD
#LibraryQualityString Gold
#TaskID 278b19f5865741e282cec7349aa7e7a1
##Scan# 1287
#SpectrumFile NCP003512_A2_B11_BD4_01_15728.mzXML
#LibraryName NIHcollectionI_05062014.mgf
#MQScore -1
#Organism NIHcollectionI_05062014
#TIC_Query 0
#RT_Query -1
#MZErrorPPM -1
#SharedPeaks 0
#MassDiff 0
#LibMZ -1
#SpecMZ 671.392
#SpecCharge 0
#internalFilename spec-00000.mgf

>collision 10
45.832142 240.0
46.018276 140.0
46.478477 260.0
47.485256 140.0
48.414154 196.0
48.573544 164.0
48.627659 180.0
48.868065 140.0
49.368832 148.0
49.82156 200.0
51.634556 208.0
52.228348 144.0
52.262875 224.0
52.799496 196.0
52.886307 156.0
53.481407 212.0
53.548382 148.0
53.993519 176.0
54.274677 152.0
56.89502 160.0
57.141491 188.0
57.444298 144.0
57.82658 204.0
59.983383 144.0
61.661278 184.0
61.808277 172.0
61.969551 140.0
62.03067 160.0
62.393303 180.0
62.451485 148.0
62.917919 212.0
62.947918 208.0
63.142296 140.0
63.565269 184.0
64.77858 160.0
64.897171 148.0
65.158783 140.0
65.756187 232.0
65.885368 156.0
66.794792 176.0
68.079437 140.0
68.728004 160.0
70.382896 200.0
70.621872 164.0
70.995354 160.0
72.20961 208.0
72.56691 152.0
73.272232 164.0
74.870384 160.0
75.649086 152.0
75.754723 156.0
76.353539 232.0
78.194061 152.0
78.636436 200.0
78.97567 180.0
82.375633 208.0
82.771713 140.0
82.847778 160.0
83.752403 188.0
84.241257 144.0
85.578224 216.0
85.600174 152.0
86.292244 164.0
86.332924 172.0
87.181976 152.0
88.650635 272.0
91.023735 144.0
91.057976 124.0
93.89045 176.0
94.195404 148.0
97.036736 152.0
98.57399 164.0
98.815216 208.0
99.934219 204.0
100.571915 188.0
101.049095 196.0
102.054352 200.0
103.053337 316.0
103.940918 168.0
104.774521 196.0
105.061974 164.0
107.056305 156.0
107.60891 188.0
108.119476 204.0
108.728767 164.0
110.069389 160.0
111.273308 148.0
111.315308 236.0
111.61158 140.0
113.060783 140.0
114.257515 180.0
114.321342 144.0
114.619469 164.0
115.238441 164.0
115.419914 184.0
115.580338 168.0
116.360504 176.0
117.068245 132.0
117.123909 144.0
118.22934 148.0
118.248817 168.0
118.632202 164.0
118.690742 184.0
118.888138 192.0
118.917618 172.0
120.08152 296.0
121.075432 188.0
122.134811 168.0
122.231606 144.0
122.429726 228.0
122.672089 224.0
122.711769 144.0
123.259155 180.0
123.58419 148.0
124.819664 148.0
126.228935 124.0
126.472786 168.0
127.012787 168.0
127.056343 192.0
128.049515 2460.0
128.484329 176.0
129.07019 2576.0
129.195602 152.0
130.075485 348.0
130.120239 152.0
130.975281 188.0
133.191742 216.0
133.582504 144.0
133.750488 148.0
134.090958 160.0
136.045959 216.0
136.115555 168.0
137.031982 196.0
137.049698 204.0
137.328033 196.0
137.521683 168.0
137.59404 148.0
137.991211 160.0
138.128571 3444.0
139.028885 252.0
139.130264 352.0
139.811447 160.0
140.03511 172.0
140.112839 148.0
140.143463 184.0
140.23259 160.0
141.21106 160.0
141.714676 144.0
143.135071 188.0
143.370895 180.0
143.6427 180.0
145.066391 124.0
145.638992 176.0
146.059845 2744.0
146.096115 1816.0
146.442337 152.0
147.082809 816.0
147.135712 124.0
147.978149 144.0
148.083298 260.0
149.264114 196.0
150.128448 3100.0
150.365219 196.0
151.132278 444.0
152.105377 132.0
152.14389 5828.0
152.206207 204.0
152.446838 152.0
153.146729 1104.0
154.115036 164.0
154.14592 168.0
154.264313 96.0
154.404251 236.0
155.059875 220.0
156.043884 2620.0
157.004456 192.0
157.047668 420.0
157.461166 248.0
158.481781 144.0
161.474884 148.0
161.834213 240.0
162.094254 212.0
162.264938 200.0
163.547775 164.0
164.107361 2492.0
164.145142 656.0
165.110001 424.0
165.134781 200.0
165.398315 224.0
165.744049 172.0
166.056793 192.0
166.12149 1304.0
166.485382 160.0
167.001953 144.0
167.125107 152.0
167.153427 196.0
167.952393 188.0
169.078857 160.0
171.020203 176.0
172.036789 156.0
172.077927 1432.0
172.988327 152.0
173.071503 6772.0
174.055679 2916.0
174.31543 156.0
174.907166 140.0
175.058655 204.0
175.095367 100.0
175.120438 148.0
175.866592 148.0
176.059326 176.0
177.141159 164.0
177.268265 172.0
177.612915 148.0
178.126038 296.0
180.10965 168.0
181.077545 140.0
181.135696 340.0
181.699753 220.0
182.059494 176.0
182.131943 144.0
183.143524 400.0
184.072357 136.0
184.092606 168.0
184.154724 148.0
184.354645 172.0
185.071457 264.0
185.112076 148.0
185.559143 160.0
186.090805 348.0
186.579941 180.0
189.040176 216.0
189.242737 140.0
190.08696 264.0
190.344986 140.0
191.153137 160.0
191.954727 204.0
194.253036 148.0
195.147842 1136.0
195.244598 180.0
195.277969 144.0
195.628571 180.0
196.151978 152.0
196.492477 196.0
197.072113 180.0
197.140274 188.0
198.05513 176.0
198.092087 768.0
199.05368 188.0
199.088379 3132.0
199.365326 160.0
200.074921 628.0
200.818039 156.0
201.023987 156.0
201.074005 132.0
201.082962 236.0
202.159409 140.0
203.180008 212.0
204.046204 144.0
204.233871 148.0
205.145081 148.0
205.647095 164.0
205.869781 164.0
205.901199 152.0
207.374603 164.0
207.870743 184.0
208.172073 140.0
209.066177 220.0
209.165039 300.0
209.549927 180.0
209.792007 140.0
210.069046 144.0
210.117889 176.0
210.166824 116.0
211.174194 112.0
211.449966 160.0
214.088913 152.0
214.581345 176.0
215.112549 140.0
215.518234 160.0
215.638046 156.0
216.056198 196.0
216.10434 288.0
217.324783 172.0
218.126511 200.0
218.379379 148.0
219.110138 132.0
219.149567 200.0
220.115158 176.0
220.17128 248.0
220.56514 156.0
222.281952 176.0
223.312805 188.0
223.384186 140.0
224.080917 440.0
224.441452 144.0
225.066254 12336.0
226.072906 2068.0
227.076462 384.0
228.078842 276.0
228.978455 180.0
229.063568 364.0
230.613708 156.0
231.645508 212.0
232.31543 144.0
234.352371 148.0
234.39502 140.0
235.221817 124.0
235.560471 168.0
237.201111 148.0
238.032043 164.0
238.293106 160.0
238.348419 140.0
239.211227 952.0
239.24649 180.0
240.218948 164.0
240.246857 96.0
240.57515 140.0
240.916245 204.0
241.458847 144.0
241.936493 180.0
241.964859 152.0
242.093384 30788.0
242.19812 396.0
242.241928 196.0
242.947021 168.0
243.093338 4552.0
243.154572 140.0
243.200073 124.0
243.593887 96.0
243.704391 120.0
244.096893 10184.0
244.225403 224.0
244.728928 200.0
244.760193 232.0
244.899002 172.0
245.100571 1448.0
245.2155 172.0
246.102005 192.0
246.405899 140.0
247.007721 200.0
247.743347 180.0
248.188385 144.0
248.553589 176.0
250.296753 144.0
250.33139 144.0
250.52037 172.0
251.084366 124.0
251.122406 140.0
251.213226 3188.0
251.706238 156.0
252.074631 1248.0
252.214005 644.0
252.587982 168.0
252.888565 156.0
252.910721 188.0
253.068466 284.0
253.621994 100.0
254.01268 212.0
254.097107 252.0
254.192856 148.0
255.07518 244.0
255.26474 148.0
255.601913 160.0
256.108093 152.0
257.016663 168.0
257.576843 120.0
258.646515 140.0
259.274261 152.0
259.806519 212.0
260.133514 220.0
260.489838 116.0
261.124329 1556.0
262.127991 936.0
263.053528 164.0
263.123505 144.0
264.742188 152.0
264.896698 208.0
265.227722 1352.0
265.812866 144.0
266.151367 124.0
266.190674 6684.0
266.258301 180.0
267.09491 116.0
267.194275 1744.0
267.230896 300.0
267.693085 148.0
267.914551 160.0
268.197601 316.0
269.058258 104.0
269.104126 1160.0
269.981293 148.0
270.052612 492.0
270.088135 18116.0
270.528442 152.0
271.087372 2548.0
271.295929 160.0
272.088593 708.0
272.411621 156.0
272.948975 124.0
272.993744 124.0
273.036346 120.0
273.105927 148.0
273.41217 144.0
273.527374 232.0
274.034515 220.0
274.677368 156.0
275.124481 248.0
276.60379 164.0
276.822296 144.0
277.047516 176.0
279.990265 108.0
280.10498 516.0
280.32019 224.0
280.383514 144.0
281.114502 292.0
281.209351 180.0
281.95874 148.0
282.190002 324.0
283.112915 196.0
283.219849 384.0
284.202728 768.0
285.145935 188.0
285.202087 176.0
286.10257 148.0
288.099304 1068.0
289.101379 212.0
290.112 96.0
290.803101 176.0
291.245026 132.0
291.6716 120.0
293.217865 172.0
294.092377 328.0
294.188446 1656.0
295.187531 284.0
295.472168 204.0
296.08078 152.0
296.111603 140.0
296.793518 156.0
296.844971 216.0
298.424438 156.0
299.152069 152.0
299.215759 296.0
300.190826 160.0
300.216553 192.0
300.566833 152.0
300.649658 152.0
301.227783 3820.0
301.333344 140.0
302.230988 880.0
302.604645 96.0
303.24118 248.0
303.486115 172.0
303.624817 152.0
304.132629 260.0
304.409088 176.0
305.594391 176.0
306.618134 156.0
306.778473 164.0
307.416748 152.0
309.104523 156.0
310.277863 152.0
311.112518 188.0
311.213379 4300.0
311.643127 140.0
312.099762 476.0
312.212708 772.0
312.522125 212.0
313.106537 332.0
313.222321 160.0
314.196014 108.0
315.117096 160.0
316.146027 176.0
316.432739 176.0
317.066803 156.0
317.474487 156.0
319.135773 180.0
319.3461 168.0
320.13913 168.0
321.605011 164.0
321.833496 180.0
322.869751 160.0
323.746552 180.0
327.205414 164.0
328.148254 140.0
328.214386 104.0
328.884155 180.0
329.118805 160.0
329.217468 124.0
331.274292 172.0
333.05896 156.0
333.709442 140.0
334.93219 140.0
336.70108 144.0
337.007935 156.0
338.101288 144.0
338.324554 148.0
338.698059 172.0
339.438354 212.0
340.671539 172.0
342.079956 160.0
342.227203 220.0
344.138458 1100.0
345.1409 304.0
345.381165 156.0
345.671021 176.0
346.147125 144.0
346.240509 152.0
346.524384 124.0
347.14386 180.0
347.264435 188.0
348.269867 156.0
349.299469 176.0
350.054962 176.0
350.624939 160.0
351.340851 188.0
351.986542 164.0
352.141266 148.0
352.270386 188.0
352.546875 140.0
353.773651 148.0
353.915924 144.0
354.129578 132.0
354.842834 164.0
355.115112 196.0
355.171356 184.0
355.213531 132.0
356.123474 156.0
357.53833 148.0
358.156433 124.0
359.147369 304.0
360.075562 180.0
360.245544 176.0
362.366547 148.0
362.398163 140.0
362.648285 172.0
363.380157 140.0
363.456451 148.0
363.634399 152.0
365.585724 140.0
365.808533 140.0
366.28833 192.0
366.476257 208.0
366.612183 148.0
367.111572 148.0
367.274261 20776.0
367.808533 116.0
367.886108 172.0
368.278259 6024.0
369.141113 176.0
369.288177 788.0
370.062622 152.0
370.156036 528.0
370.274719 148.0
370.669525 144.0
371.158386 288.0
372.134491 3196.0
372.682373 96.0
373.038452 192.0
373.134613 948.0
373.707611 184.0
374.147125 860.0
375.148804 220.0
376.157104 252.0
377.398743 160.0
379.295685 156.0
379.473999 168.0
380.135406 216.0
380.202972 160.0
380.212585 148.0
381.216309 1584.0
381.30426 116.0
381.91272 172.0
382.22348 1104.0
383.223206 260.0
383.273621 132.0
383.384369 140.0
383.662628 124.0
383.906738 188.0
384.30304 224.0
384.355347 156.0
384.3927 188.0
385.073639 152.0
385.278046 232.0
386.152008 1288.0
386.281158 132.0
386.774445 176.0
386.960602 184.0
387.087616 200.0
387.153412 460.0
387.379517 236.0
388.165924 5976.0
389.167694 1144.0
389.707794 168.0
390.175964 144.0
390.753601 172.0
391.241608 164.0
395.702759 172.0
396.257233 168.0
397.170288 160.0
397.253967 596.0
397.808167 140.0
397.892029 228.0
398.150238 2416.0
398.24292 2244.0
398.293488 172.0
399.152649 616.0
399.198425 216.0
399.24762 672.0
400.14856 176.0
400.246307 308.0
400.304688 140.0
401.025757 148.0
401.194153 168.0
401.727539 144.0
402.142517 176.0
402.312622 2884.0
403.144928 172.0
403.317383 404.0
404.326447 216.0
404.711182 164.0
405.157501 164.0
405.214996 148.0
405.706543 148.0
408.183228 120.0
408.529633 144.0
409.016388 168.0
409.209625 220.0
409.781677 152.0
409.938843 144.0
410.220459 128.0
410.733704 176.0
411.184937 156.0
411.302002 160.0
411.442505 164.0
412.282684 108.0
413.294342 236.0
414.1185 124.0
414.932251 132.0
415.080627 140.0
415.175598 1476.0
415.30719 184.0
415.461884 168.0
415.555176 228.0
415.639954 108.0
415.680969 172.0
415.797363 124.0
415.849213 96.0
415.955322 144.0
416.057068 180.0
416.161438 68304.0
416.305359 160.0
416.389618 136.0
416.432495 172.0
416.522766 152.0
416.625549 152.0
416.969421 188.0
417.163147 19656.0
417.32196 228.0
417.384216 116.0
417.674072 156.0
418.165894 2868.0
418.23642 116.0
418.80072 104.0
419.165222 336.0
419.433258 140.0
419.540771 180.0
419.594696 104.0
419.680634 132.0
419.832977 144.0
419.893616 148.0
419.970215 216.0
420.006561 140.0
420.071045 120.0
420.181854 120.0
420.218811 108.0
424.114899 152.0
425.085632 144.0
425.312592 144.0
426.241974 368.0
427.233307 160.0
427.610291 116.0
429.307465 140.0
429.608551 140.0
430.074829 144.0
430.30188 148.0
430.34729 116.0
430.680695 104.0
431.000732 120.0
431.039398 100.0
431.585083 104.0
431.754639 96.0
432.352448 328.0
432.434875 144.0
432.591949 156.0
432.797455 140.0
432.86676 160.0
433.055328 120.0
433.107239 460.0
433.187622 75208.0
433.535492 168.0
433.737213 100.0
433.871674 120.0
433.944061 184.0
433.986145 116.0
434.097229 120.0
434.18985 21320.0
434.36734 120.0
434.497833 140.0
434.722504 152.0
435.193451 2980.0
435.750519 96.0
435.84787 156.0
436.127502 148.0
436.19928 292.0
436.462982 196.0
436.600555 184.0
436.66452 120.0
436.818817 120.0
436.9758 148.0
437.132935 120.0
437.371674 140.0
437.576538 100.0
437.693268 100.0
438.294403 164.0
438.402771 184.0
439.650726 148.0
440.263336 156.0
441.253998 492.0
442.250275 232.0
442.66864 128.0
443.24173 140.0
443.275238 168.0
443.657166 128.0
444.057159 116.0
444.478699 180.0
446.181976 108.0
446.6633 148.0
447.963989 148.0
450.081146 172.0
450.124786 144.0
451.102234 188.0
453.897797 188.0
454.911804 140.0
455.114075 124.0
455.548279 144.0
455.701691 148.0
457.261414 156.0
458.156494 148.0
458.20639 152.0
459.269043 140.0
459.414093 148.0
460.536713 144.0
460.600769 180.0
460.904114 140.0
461.626495 188.0
462.633759 132.0
462.683319 144.0
463.612793 160.0
464.484955 160.0
465.131073 180.0
466.024323 148.0
466.889832 160.0
469.103455 176.0
470.930908 160.0
471.375885 144.0
472.119415 188.0
472.174835 156.0
472.508698 144.0
473.668854 152.0
473.937469 144.0
474.37085 156.0
474.743713 156.0
475.059418 116.0
475.567993 172.0
476.00647 172.0
476.065765 116.0
476.214935 180.0
476.684113 148.0
478.066956 168.0
478.915924 148.0
479.752533 196.0
480.03595 156.0
482.297485 416.0
482.743347 172.0
483.305695 252.0
484.140015 100.0
487.064575 196.0
487.354614 156.0
487.605103 216.0
487.692993 144.0
489.21936 180.0
489.873169 196.0
490.25882 184.0
491.978973 168.0
492.316467 136.0
494.029449 144.0
494.286072 144.0
494.950012 180.0
495.282166 164.0
495.942352 228.0
497.117615 140.0
497.898926 236.0
498.334259 148.0
499.332123 396.0
499.498993 164.0
499.595245 140.0
500.418396 132.0
500.79425 164.0
501.311035 156.0
501.587341 204.0
502.309723 144.0
504.658783 140.0
504.733063 136.0
506.224854 336.0
507.040192 144.0
507.134308 224.0
508.012939 188.0
508.270782 152.0
508.65094 152.0
510.92868 180.0
513.396973 228.0
513.550354 140.0
513.893188 180.0
514.561157 244.0
516.156067 140.0
517.078918 220.0
517.201111 196.0
517.572327 160.0
519.326111 188.0
520.483337 172.0
520.619568 164.0
521.003418 132.0
521.084351 204.0
521.310059 152.0
522.496765 156.0
522.979126 180.0
524.997375 156.0
525.271057 168.0
525.307556 160.0
525.688599 192.0
526.299011 116.0
527.176697 140.0
527.270874 128.0
529.292847 192.0
531.392029 152.0
531.713257 228.0
531.837158 148.0
532.535034 140.0
533.026611 156.0
535.966858 192.0
536.275146 148.0
536.36322 144.0
537.470032 200.0
538.716553 160.0
539.257202 160.0
539.687073 192.0
539.859619 104.0
539.93219 176.0
540.061646 160.0
540.10791 144.0
540.181946 200.0
541.370422 112.0
541.637817 116.0
542.018921 112.0
542.32959 240.0
542.563171 136.0
543.313477 196.0
544.348511 152.0
546.512573 132.0
547.75116 116.0
547.915955 148.0
548.033752 140.0
548.181519 152.0
548.325989 168.0
548.708252 140.0
548.820129 144.0
548.861511 124.0
549.072754 140.0
549.911682 144.0
550.380737 120.0
550.530884 96.0
550.978394 204.0
551.266235 220.0
551.653687 124.0
552.296509 2476.0
553.079651 128.0
553.143494 148.0
553.205444 104.0
553.281494 6748.0
553.365356 228.0
553.413147 96.0
553.847351 140.0
554.19519 172.0
554.288147 1996.0
554.602905 148.0
555.175537 140.0
555.292053 576.0
555.629883 144.0
556.293396 132.0
556.803345 184.0
557.272705 96.0
557.827637 168.0
557.907532 144.0
558.283508 124.0
558.688171 152.0
561.408508 136.0
562.278625 156.0
562.828796 104.0
563.057617 180.0
563.258911 128.0
563.529968 172.0
563.691162 104.0
563.756226 120.0
563.937622 108.0
563.995483 96.0
564.149109 156.0
564.24646 252.0
565.926086 112.0
566.043152 168.0
566.099426 164.0
566.400452 104.0
566.54425 124.0
566.607117 100.0
566.71875 136.0
566.763489 116.0
566.861084 204.0
566.95874 104.0
567.121704 160.0
567.464111 104.0
567.519348 128.0
567.737427 96.0
567.848633 124.0
567.94989 128.0
568.046326 164.0
568.102905 224.0
568.140259 168.0
568.203857 180.0
568.286438 440.0
568.371155 300.0
568.425903 184.0
568.495117 168.0
568.538818 180.0
568.572449 232.0
568.606689 168.0
568.721924 164.0
568.890991 104.0
568.941528 124.0
568.982361 120.0
569.054138 216.0
569.16217 132.0
569.28125 464.0
569.349792 148.0
569.401855 156.0
569.485596 200.0
569.579529 152.0
569.622864 164.0
569.694946 152.0
569.745117 216.0
569.805115 296.0
569.841675 172.0
569.905518 116.0
569.948608 232.0
570.026123 296.0
570.105103 288.0
570.17627 504.0
570.309326 212156.0
570.441528 348.0
570.486572 188.0
570.54657 156.0
570.606384 184.0
570.644348 176.0
570.751709 340.0
570.828003 176.0
570.873718 220.0
570.930603 364.0
570.99231 180.0
571.032654 188.0
571.093872 856.0
571.179932 436.0
571.311035 108456.0
571.439697 504.0
571.508301 232.0
571.585693 232.0
571.635437 180.0
571.700745 228.0
571.754272 244.0
571.804016 124.0
571.927856 196.0
572.047607 280.0
572.166382 160.0
572.225281 132.0
572.313904 14440.0
572.425476 232.0
572.466431 124.0
572.522522 160.0
572.767578 340.0
572.806763 152.0
572.908997 164.0
572.979004 304.0
573.31543 3180.0
573.379578 248.0
573.435669 112.0
573.564453 220.0
573.609863 180.0
573.732971 124.0
573.828918 164.0
573.962891 164.0
574.032104 216.0
574.079468 260.0
574.134644 248.0
574.241882 300.0
574.322693 532.0
574.394409 100.0
574.440796 240.0
574.494995 408.0
574.674805 276.0
574.744202 192.0
574.783997 136.0
574.832336 100.0
574.897583 160.0
574.960754 112.0
575.011597 176.0
575.058716 220.0
575.127686 240.0
575.180542 236.0
575.402283 104.0
575.550293 132.0
575.817261 140.0
575.851685 124.0
575.909363 108.0
575.996765 112.0
576.232239 148.0
576.270935 164.0
576.457947 160.0
576.619263 96.0
576.65271 144.0
577.879272 316.0
578.123291 180.0
578.599792 108.0
579.190002 104.0
580.168457 140.0
580.292847 1172.0
581.274597 468.0
581.401184 164.0
581.501953 144.0
581.72583 136.0
582.130859 148.0
582.267273 292.0
582.347595 132.0
583.259399 252.0
583.461792 144.0
583.625244 212.0
583.721375 156.0
584.274841 120.0
585.069946 100.0
585.131409 152.0
585.87262 96.0
586.695068 116.0
587.671082 176.0
588.239807 104.0
588.430847 116.0
589.53009 252.0
591.025696 152.0
591.87616 192.0
593.835938 116.0
593.952454 204.0
594.222046 184.0
594.255981 192.0
595.061646 144.0
595.264526 172.0
595.384216 140.0
595.583801 192.0
595.887329 160.0
596.298889 116.0
596.762146 156.0
596.822876 124.0
596.884644 144.0
597.294739 172.0
597.408997 144.0
598.31189 224.0
598.597412 136.0
599.343628 172.0
599.428772 104.0
599.736511 164.0
600.721497 144.0
603.515015 108.0
603.550476 192.0
604.392212 128.0
605.366516 136.0
605.785828 148.0
607.015991 148.0
607.481567 108.0
607.678162 184.0
608.281799 144.0
608.993774 200.0
609.196716 112.0
609.344055 180.0
612.308655 148.0
614.827881 152.0
615.328979 392.0
615.637451 140.0
615.909119 164.0
616.322449 268.0
616.882202 160.0
617.30481 108.0
617.495667 168.0
617.678711 156.0
619.242371 108.0
620.575745 168.0
621.542969 140.0
621.657104 164.0
621.954834 176.0
622.376831 160.0
623.827515 260.0
624.324707 172.0
624.873047 268.0
625.429199 144.0
626.345398 148.0
626.489868 212.0
626.775635 228.0
627.361938 160.0
627.596252 144.0
627.956848 116.0
628.194702 200.0
629.792053 148.0
630.456482 188.0
630.663391 100.0
630.856323 180.0
630.991333 160.0
632.146729 164.0
632.676819 136.0
633.418396 184.0
634.756531 188.0
635.935486 172.0
636.576233 176.0
636.8078 148.0
637.047729 172.0
637.926941 96.0
638.006958 112.0
638.401184 156.0
639.155151 128.0
639.39325 144.0
640.500916 276.0
641.291992 252.0
641.901978 148.0
642.058167 152.0
642.638367 156.0
643.103516 116.0
643.758972 164.0
644.75531 120.0
646.025269 136.0
646.164917 144.0
646.600098 140.0
647.278442 144.0
647.770508 144.0
648.464417 140.0
648.604797 128.0
650.813599 116.0
651.036377 100.0
651.12738 148.0
651.223572 120.0
652.174011 148.0
652.992615 148.0
653.124817 216.0
653.28418 140.0
653.380249 656.0
653.480896 148.0
653.531799 156.0
654.371399 680.0
655.367737 912.0
655.609375 160.0
655.93042 140.0
656.164917 156.0
656.216675 108.0
656.349915 296.0
656.393494 208.0
656.48645 136.0
657.052368 160.0
657.143005 104.0
657.681702 104.0
658.588867 140.0
658.857727 100.0
658.905579 148.0
659.358337 112.0
659.445923 144.0
659.922607 140.0
659.998779 116.0
660.834229 220.0
660.899536 208.0
661.308899 228.0
662.43866 156.0
662.837769 200.0
663.029724 172.0
663.283813 148.0
663.338989 156.0
663.609863 96.0
663.688049 112.0
663.870544 120.0
663.958069 140.0
664.296387 108.0
664.475525 140.0
664.795654 184.0
664.915283 152.0
664.958069 196.0
665.096497 140.0
665.267639 152.0
665.302917 176.0
665.351379 100.0
665.460876 144.0
665.69928 148.0
665.835999 132.0
665.993408 136.0
666.09613 160.0
666.380493 156.0
666.554565 180.0
666.651123 108.0
666.693909 320.0
666.858398 156.0
666.929199 252.0
667.021484 120.0
667.150208 216.0
667.32666 244.0
667.37915 164.0
667.501343 172.0
667.619507 256.0
667.81134 184.0
667.914368 188.0
667.959595 264.0
668.017029 144.0
668.111938 300.0
668.17627 180.0
668.445923 228.0
668.594299 312.0
668.645325 176.0
668.715454 288.0
668.825195 120.0
668.856628 276.0
668.913574 148.0
668.984558 224.0
669.077393 228.0
669.123169 356.0
669.215454 184.0
669.25531 200.0
669.322754 332.0
669.370972 396.0
669.406921 420.0
669.468201 164.0
669.581177 180.0
669.655396 288.0
669.722412 316.0
669.805908 292.0
669.899658 168.0
669.961243 312.0
670.00177 428.0
670.013977 184.0
670.089661 276.0
670.143555 216.0
670.195984 416.0
670.236389 512.0
670.336975 536.0
670.374695 608.0
670.488647 224.0
670.532043 288.0
670.613159 248.0
670.712097 380.0
670.793091 356.0
670.864197 408.0
670.952087 300.0
671.011841 696.0
671.074341 500.0
671.123169 244.0
671.135681 432.0
671.269531 1152.0
671.319519 1332.0
671.394165 251848.0
671.585815 440.0
671.735901 468.0
671.782959 180.0
671.890564 996.0
671.94519 620.0
671.956482 480.0
671.998413 880.0
672.082886 336.0
672.156433 432.0
672.252808 7960.0
672.311829 1352.0
672.396484 218580.0
672.555115 172.0
672.595032 104.0
672.658813 580.0
672.741699 244.0
672.779297 332.0
672.875122 428.0
672.964111 296.0
673.007996 436.0
673.079651 312.0
673.142944 364.0
673.252319 888.0
673.397888 60944.0
673.501465 632.0
673.587097 156.0
673.620789 232.0
673.676025 196.0
673.715271 164.0
673.797791 232.0
673.847534 324.0
673.924377 316.0
673.992432 296.0
674.042053 260.0
674.133728 324.0
674.177917 176.0
674.285583 300.0
674.400208 8208.0
674.582581 132.0
674.661499 104.0
674.751953 204.0
674.796021 172.0
674.901672 332.0
675.071594 212.0
675.131165 256.0
675.192749 408.0
675.310974 180.0
675.404968 760.0
675.535339 224.0
675.62738 428.0
675.683044 256.0
675.729248 388.0
675.80542 424.0
675.872253 276.0
675.899536 372.0
675.971619 740.0
676.091431 552.0
676.164734 288.0
676.240662 560.0
676.29071 372.0
676.389709 216.0
676.527222 192.0
676.580933 188.0
676.782898 204.0
676.825073 236.0
676.896729 168.0
677.035095 124.0
677.091431 156.0
677.166687 300.0
677.243042 120.0
677.341492 216.0
677.419617 196.0
677.470459 252.0
677.542114 236.0
677.597595 256.0
677.660034 280.0
677.741333 120.0
678.026428 188.0
678.077393 176.0
678.301575 124.0
678.692383 124.0
678.736023 164.0
678.823547 96.0
678.949646 184.0
679.008606 200.0
679.294861 120.0
679.504883 172.0
679.554749 136.0
680.615723 116.0
681.320129 96.0
682.631348 140.0
683.84845 100.0
683.904114 100.0
686.796204 220.0
688.690796 180.0
689.829651 156.0
689.902039 128.0
690.219238 120.0
690.840881 148.0
691.353638 196.0
691.564026 104.0
691.958435 96.0
692.259277 148.0
692.315063 124.0
692.782043 104.0
693.116089 112.0
693.280823 132.0
693.369324 108.0
693.885742 132.0
695.354736 104.0
695.530762 144.0
696.555115 100.0
697.441589 96.0
697.55658 108.0
697.912598 96.0
702.355286 148.0
710.221802 196.0
743.400757 108.0
786.078308 144.0
793.551025 156.0
799.012573 96.0
801.915649 140.0
802.462402 140.0
819.138062 148.0
827.799194 192.0
828.102722 140.0
860.944946 112.0
871.31543 140.0
879.977417 96.0
895.318909 140.0
906.837524 156.0
927.263123 144.0
933.865601 108.0
964.829956 140.0
1006.151917 156.0
1041.263672 204.0
1047.006714 228.0
1054.655029 164.0
1054.936523 180.0
1064.908569 144.0
1071.582764 224.0
1079.491089 160.0
1090.346191 132.0
1097.037109 192.0
1102.84314 96.0
1119.108887 112.0
1136.194824 160.0
1147.227417 112.0
1172.410889 232.0
1204.026611 116.0
1219.466675 148.0
1242.310669 164.0
1243.345215 148.0
1316.66626 204.0
1326.433838 156.0
1387.835815 176.0
1415.015747 176.0
1427.80957 192.0
1452.00708 164.0
1475.238037 144.0
1480.410156 164.0
1520.902222 152.0
1525.298584 144.0
1530.557739 152.0
1541.462524 148.0
1550.697021 188.0
1569.177612 168.0
1579.593994 208.0
1593.483032 152.0
1619.953247 204.0
1634.130859 156.0
1727.650391 160.0
1751.424438 188.0
1759.309937 116.0
1760.398193 144.0
1768.298462 156.0
1815.52832 204.0
1817.411377 156.0
1823.168701 204.0
1825.821045 172.0
1837.371216 164.0
1844.672729 216.0
1845.596069 156.0
1849.462769 244.0
1861.796509 104.0
1866.350586 152.0
1875.152222 184.0
1880.965576 140.0
1915.080566 96.0
1919.041626 176.0
1919.31189 160.0
1920.89917 180.0
1922.97583 148.0
1935.608032 140.0
1938.542603 152.0
1944.795654 188.0
1953.758545 164.0
1959.005249 200.0
1960.124146 228.0
1968.797607 128.0
2001.57959 188.0
