>compound MLS000575022-01!
>formula C14H12N2O
>ionization [M+H]+
>parentmass 225.103699
#inchi InChI=1S/C14H12N2O/c1-3-10-14-13(12(17-2)8-15-10)9-6-4-5-7-11(9)16-14/h3-8,15H,1H2,2H3
#inchikey KMXKUZAFSGQYGL
#Ion_Source LC-ESI
#Instrument qTof
#Compound_Source NIH Natural Product Library
#PI Dorrestein
#Data_Collector VVP/LMS
#Scan -1
#Precursor_MZ 225.103
#ExactMass 224.095
#Charge 1
#CAS_Number N/A
#Pubmed_ID N/A
#Smiles COc1c[nH]c(C=C)c2nc3ccccc3c12
#INCHI_AUX N/A
#Library_Class 1
#SpectrumID CCMSLIB00000080595
#IonMode Positive
#UpdateWorkflowName UPDATE-SINGLE-ANNOTATED-GOLD
#LibraryQualityString Gold
#TaskID b1d8e8f6646f4e71acdff9ca3d919d08
##Scan# 1608
#SpectrumFile p2-C11_GC11_01_18011.mzXML
#LibraryName NIH_Natural_Products_Library.mgf
#MQScore -1
#Organism NIH_Natural_Products_Library
#TIC_Query 0
#RT_Query -1
#MZErrorPPM -1
#SharedPeaks 0
#MassDiff 0
#LibMZ -1
#SpecMZ 225.103
#SpecCharge 0
#internalFilename spec-00000.mgf

>collision 10
95.02169 116.0
95.077965 132.0
95.116783 144.0
95.148476 184.0
95.166641 76.0
95.206093 112.0
95.239105 168.0
95.254646 236.0
95.415939 108.0
95.441216 160.0
95.519012 152.0
95.55986 144.0
95.627968 128.0
95.653084 124.0
95.670792 52.0
95.709732 144.0
95.793472 92.0
95.807114 144.0
95.840233 144.0
95.86483 244.0
95.881157 140.0
95.894798 196.0
96.046883 52.0
96.068336 140.0
96.121017 188.0
96.2173 180.0
96.243988 76.0
96.380714 144.0
96.396347 156.0
96.683807 120.0
96.701424 120.0
96.726868 204.0
96.750359 192.0
96.785599 164.0
96.809097 200.0
96.824158 168.0
96.864914 188.0
96.926765 172.0
96.952103 312.0
96.967781 216.0
96.997185 144.0
97.056435 180.0
97.148178 184.0
97.173676 124.0
97.189377 148.0
97.234505 120.0
97.277687 52.0
97.324806 172.0
97.405327 372.0
97.560158 172.0
97.629585 196.0
97.674622 148.0
97.877327 104.0
97.893082 112.0
97.906868 136.0
97.938751 172.0
97.967926 132.0
98.157127 104.0
98.172905 132.0
98.234047 124.0
98.287315 184.0
98.31678 176.0
98.322884 184.0
98.348495 240.0
98.379051 176.0
98.423508 48.0
98.491379 164.0
98.543991 168.0
98.578934 232.0
98.640244 148.0
98.653313 152.0
98.682343 192.0
98.728592 312.0
98.76342 168.0
98.783203 168.0
98.84256 132.0
98.870262 136.0
98.884117 128.0
98.979134 248.0
99.002899 152.0
99.018745 180.0
99.036568 184.0
99.052414 80.0
99.095886 144.0
99.11779 148.0
99.151222 124.0
99.17923 132.0
99.203011 248.0
99.228622 192.0
99.327797 228.0
99.345795 100.0
99.390518 272.0
99.417221 112.0
99.433098 164.0
99.484657 164.0
99.583031 108.0
99.647552 68.0
99.663445 160.0
99.679344 100.0
99.695244 196.0
99.709152 64.0
99.730515 144.0
99.738373 108.0
99.774437 180.0
99.818489 160.0
99.870193 124.0
99.890083 228.0
99.909981 208.0
99.935638 196.0
100.033356 128.0
100.050331 220.0
100.075165 88.0
100.105034 224.0
100.214584 132.0
100.264404 176.0
100.324196 204.0
100.337189 140.0
100.395981 120.0
100.420975 112.0
100.479752 236.0
100.525642 60.0
100.575539 124.0
100.599487 216.0
100.615463 136.0
100.673416 164.0
100.696709 284.0
100.753258 208.0
100.858955 188.0
100.951134 284.0
100.983131 164.0
101.009132 188.0
101.063454 356.0
101.137192 156.0
101.15921 148.0
101.199249 28.0
101.215271 148.0
101.231293 148.0
101.285362 232.0
101.331436 72.0
101.37352 132.0
101.458839 148.0
101.491783 120.0
101.525871 136.0
101.556931 140.0
101.688377 140.0
101.716476 140.0
101.796783 100.0
101.810837 180.0
101.846992 144.0
101.871094 172.0
101.89296 272.0
101.937393 48.0
101.995682 136.0
102.020119 152.0
102.04641 3012.0
102.098213 32.0
102.126373 60.0
102.167534 208.0
102.196785 128.0
102.218918 84.0
102.233002 36.0
102.247086 112.0
102.275269 156.0
102.309486 168.0
102.388016 36.0
102.428299 188.0
102.480675 120.0
102.559265 152.0
102.607475 144.0
102.627808 108.0
102.641922 180.0
102.680237 192.0
102.708473 76.0
102.781097 180.0
102.825493 176.0
102.896149 148.0
102.944603 128.0
103.012474 212.0
103.052849 672.0
103.189095 152.0
103.2174 136.0
103.269981 100.0
103.334602 152.0
103.380325 140.0
103.43792 144.0
103.475533 188.0
103.512833 144.0
103.750656 148.0
103.796516 188.0
103.814766 188.0
103.837685 172.0
103.873581 92.0
103.923515 248.0
103.986977 176.0
104.00547 152.0
104.051697 704.0
104.080589 232.0
104.121201 144.0
104.212227 192.0
104.257317 172.0
104.282623 132.0
104.341133 272.0
104.385384 228.0
104.428093 164.0
104.529198 400.0
104.546089 180.0
104.601318 176.0
104.659096 124.0
104.680443 120.0
104.708954 136.0
104.790428 172.0
104.886208 228.0
104.961639 164.0
104.988152 140.0
105.03598 400.0
105.057739 800.0
105.100342 176.0
105.116669 168.0
105.143318 136.0
105.177895 212.0
105.235054 104.0
105.25956 140.0
105.365761 172.0
105.388527 200.0
105.416847 136.0
105.488869 268.0
105.553802 156.0
105.586525 200.0
105.600838 204.0
105.70108 140.0
105.717453 56.0
105.77066 192.0
105.823891 104.0
105.877129 128.0
105.94062 172.0
106.008232 404.0
106.037262 184.0
106.086121 260.0
106.120972 84.0
106.15583 112.0
106.285057 112.0
106.373306 200.0
106.417191 192.0
106.457481 136.0
106.50061 144.0
106.533478 48.0
106.551971 188.0
106.595116 176.0
106.621834 112.0
106.64444 152.0
106.67733 40.0
106.722557 168.0
106.796585 308.0
106.831558 164.0
106.854187 104.0
106.876816 180.0
106.905624 136.0
107.044495 208.0
107.060928 172.0
107.107391 124.0
107.130051 160.0
107.167137 132.0
107.25116 248.0
107.305222 52.0
107.342339 132.0
107.398018 168.0
107.452347 204.0
107.472282 84.0
107.634453 120.0
107.651863 148.0
107.702415 260.0
107.761337 208.0
107.829529 148.0
107.920486 152.0
107.937027 104.0
107.975266 100.0
108.114929 116.0
108.241203 172.0
108.286758 228.0
108.303329 92.0
108.348907 148.0
108.375839 68.0
108.396561 164.0
108.4235 204.0
108.487755 224.0
108.595573 228.0
108.624611 204.0
108.639137 200.0
108.711754 120.0
108.744957 188.0
108.834221 160.0
108.857063 132.0
108.892365 76.0
108.926071 176.0
108.952606 112.0
108.985847 196.0
109.041641 132.0
109.056381 132.0
109.093918 108.0
109.139656 244.0
109.18541 156.0
109.227005 244.0
109.242729 208.0
109.258209 196.0
109.312302 112.0
109.391716 128.0
109.428864 224.0
109.445518 96.0
109.522575 144.0
109.619995 168.0
109.699692 128.0
109.80603 136.0
109.920975 160.0
110.048088 100.0
110.06897 164.0
110.152512 164.0
110.242348 176.0
110.310913 224.0
110.344772 224.0
110.364532 144.0
110.39286 212.0
110.413589 180.0
110.493256 212.0
110.516273 116.0
110.637314 120.0
110.696281 168.0
110.733978 184.0
110.777969 172.0
110.852715 272.0
110.8974 136.0
110.930939 180.0
110.980858 148.0
111.00222 164.0
111.060104 220.0
111.084015 132.0
111.218307 128.0
111.254257 236.0
111.295982 196.0
111.470184 176.0
111.497643 208.0
111.53968 180.0
111.623772 140.0
111.6427 180.0
111.665833 144.0
111.777328 144.0
111.83223 92.0
111.85099 124.0
111.941521 156.0
111.985748 164.0
112.059372 164.0
112.115997 136.0
112.137444 196.0
112.278694 124.0
112.299271 212.0
112.35463 176.0
112.392609 108.0
112.424255 140.0
112.447647 48.0
112.493912 152.0
112.559357 164.0
112.641998 156.0
112.662849 208.0
112.766388 136.0
112.895348 132.0
112.933418 84.0
113.039246 1828.0
113.106918 44.0
113.123856 132.0
113.183838 40.0
113.267845 96.0
113.286911 44.0
113.361061 200.0
113.378014 236.0
113.422523 148.0
113.450081 184.0
113.524292 148.0
113.720459 172.0
113.738571 164.0
113.78952 200.0
113.870468 276.0
114.010567 180.0
114.044182 100.0
114.144348 180.0
114.16172 308.0
114.325165 132.0
114.363472 156.0
114.416687 84.0
114.597717 264.0
114.644707 160.0
114.670174 160.0
114.714928 156.0
114.737785 128.0
114.781891 128.0
114.812431 148.0
114.868462 200.0
114.898331 172.0
114.941002 144.0
115.007156 92.0
115.025726 240.0
115.05455 1344.0
115.156616 116.0
115.180237 136.0
115.197197 40.0
115.224968 176.0
115.257019 208.0
115.421608 392.0
115.445129 44.0
115.460098 88.0
115.505013 112.0
115.550308 160.0
115.571335 48.0
115.586311 220.0
115.622688 32.0
115.674057 164.0
115.706169 80.0
115.781792 176.0
115.800385 88.0
115.819664 104.0
115.8368 156.0
115.862503 160.0
115.924637 144.0
115.963219 192.0
116.051895 852.0
116.097984 176.0
116.175491 176.0
116.364349 140.0
116.390114 140.0
116.535347 220.0
116.586456 232.0
116.604935 176.0
116.751122 124.0
116.768326 204.0
116.830704 156.0
116.929382 284.0
116.966278 160.0
117.054192 836.0
117.155769 144.0
117.207031 116.0
117.285065 132.0
117.343269 128.0
117.372688 180.0
117.389008 56.0
117.444618 100.0
117.481293 140.0
117.550331 228.0
117.567467 208.0
117.685005 132.0
117.759735 116.0
117.828865 184.0
117.915291 68.0
117.993111 152.0
118.020996 116.0
118.063904 352.0
118.116371 156.0
118.150986 148.0
118.179108 120.0
118.257011 132.0
118.356598 108.0
118.386047 140.0
118.464882 224.0
118.512543 168.0
118.542877 176.0
118.657761 100.0
118.718468 140.0
118.77153 148.0
118.793564 172.0
118.82692 180.0
118.941124 272.0
118.989693 140.0
119.024437 188.0
119.040359 336.0
119.106964 172.0
119.14389 128.0
119.163445 156.0
119.213417 148.0
119.250366 172.0
119.265579 168.0
119.296013 88.0
119.319923 152.0
119.419952 156.0
119.437347 36.0
119.467804 96.0
119.500435 116.0
119.587479 148.0
119.639725 356.0
119.657143 80.0
119.683266 72.0
119.731171 172.0
119.841751 204.0
119.87059 96.0
119.994835 72.0
120.07769 144.0
120.095139 112.0
120.169083 156.0
120.287155 140.0
120.339546 140.0
120.356041 144.0
120.442184 160.0
120.481506 120.0
120.518646 156.0
120.564537 40.0
120.603874 88.0
120.704437 180.0
120.732864 220.0
120.852615 204.0
120.886002 208.0
120.931953 220.0
120.984489 76.0
121.043602 180.0
121.063316 108.0
121.158699 168.0
121.201317 152.0
121.267059 172.0
121.370094 100.0
121.420525 148.0
121.495102 148.0
121.51046 72.0
121.562889 112.0
121.646523 116.0
121.668472 184.0
121.686035 156.0
121.79364 168.0
121.863937 164.0
121.896011 220.0
121.922874 112.0
121.976013 140.0
122.011192 80.0
122.046364 232.0
122.072754 120.0
122.145332 96.0
122.175636 216.0
122.255341 224.0
122.292084 172.0
122.325768 196.0
122.349342 96.0
122.36319 188.0
122.40062 96.0
122.420441 88.0
122.508545 92.0
122.552605 52.0
122.581245 192.0
122.616508 164.0
122.642952 180.0
122.753189 152.0
122.810524 172.0
122.839203 168.0
122.918625 160.0
123.024567 128.0
123.044434 108.0
123.062096 188.0
123.136459 160.0
123.151703 256.0
123.234367 176.0
123.321449 128.0
123.393501 104.0
123.420029 168.0
123.453201 44.0
123.526184 204.0
123.614685 184.0
123.64695 248.0
123.743065 180.0
123.776276 188.0
123.800636 112.0
123.827209 120.0
123.862648 224.0
123.957909 104.0
124.011101 76.0
124.04213 188.0
124.078857 176.0
124.174255 196.0
124.221748 76.0
124.328636 136.0
124.376434 28.0
124.479195 252.0
124.533752 148.0
124.572479 184.0
124.634682 276.0
124.821396 152.0
124.922714 160.0
124.943726 132.0
125.12471 272.0
125.144028 56.0
125.207924 184.0
125.29483 180.0
125.337082 172.0
125.369179 156.0
125.411346 180.0
125.426949 104.0
125.477768 172.0
125.516083 200.0
125.550453 416.0
125.6063 172.0
125.670029 172.0
125.754829 96.0
125.808395 40.0
125.895958 168.0
125.927719 232.0
126.015762 160.0
126.046997 504.0
126.096031 192.0
126.165833 156.0
126.244087 72.0
126.44767 160.0
126.474525 112.0
126.512863 160.0
126.555122 152.0
126.607269 180.0
126.650398 236.0
126.673813 372.0
126.698456 332.0
126.747749 152.0
126.857567 152.0
126.918098 128.0
126.99968 200.0
127.019012 76.0
127.054726 2068.0
127.15139 144.0
127.172592 144.0
127.272614 164.0
127.351212 60.0
127.461288 180.0
127.517471 120.0
127.701836 112.0
127.724327 148.0
127.758934 248.0
127.782814 48.0
127.800812 72.0
127.817657 84.0
127.843567 84.0
127.875076 32.0
127.890831 148.0
127.911087 184.0
127.949356 168.0
128.007889 100.0
128.06105 5380.0
128.118774 156.0
128.144669 180.0
128.188828 188.0
128.217392 88.0
128.251205 52.0
128.278259 144.0
128.318832 68.0
128.381973 124.0
128.427078 72.0
128.510544 144.0
128.571472 144.0
128.604507 168.0
128.680374 144.0
128.700134 176.0
128.763367 188.0
128.790466 184.0
128.806274 48.0
128.867279 200.0
128.9328 176.0
129.023651 184.0
129.058792 16016.0
129.120438 68.0
129.137985 180.0
129.174728 88.0
129.198135 188.0
129.22522 164.0
129.241196 184.0
129.325562 164.0
129.444046 116.0
129.486389 52.0
129.604874 172.0
129.666061 44.0
129.686462 56.0
129.718185 40.0
129.736328 204.0
129.772598 184.0
129.845642 100.0
129.869049 100.0
129.927032 212.0
129.949509 172.0
129.983536 292.0
130.065445 4976.0
130.126541 172.0
130.153778 164.0
130.194656 108.0
130.217361 188.0
130.248505 124.0
130.25267 88.0
130.264954 84.0
130.270752 168.0
130.29808 136.0
130.306396 168.0
130.394577 136.0
130.412766 140.0
130.656067 128.0
130.681259 176.0
130.765289 152.0
130.844437 120.0
130.882935 184.0
130.903473 172.0
130.950592 164.0
130.965652 256.0
131.002808 256.0
131.040497 264.0
131.072159 860.0
131.093018 84.0
131.098999 180.0
131.150208 188.0
131.277878 208.0
131.385086 92.0
131.466415 212.0
131.485474 148.0
131.579056 164.0
131.624725 180.0
131.649841 188.0
131.684097 72.0
131.706284 140.0
131.752625 116.0
131.789185 136.0
131.936142 160.0
132.045792 760.0
132.150742 148.0
132.228241 52.0
132.296906 72.0
132.331238 36.0
132.381622 44.0
132.484009 148.0
132.535889 228.0
132.583206 356.0
132.631348 136.0
132.670303 152.0
132.697815 144.0
132.755142 172.0
132.837708 152.0
133.029358 208.0
133.052811 4528.0
133.090164 152.0
133.126907 76.0
133.170532 192.0
133.191208 68.0
133.209579 208.0
133.227966 148.0
133.280807 100.0
133.363235 216.0
133.449417 168.0
133.496872 220.0
133.559982 328.0
133.611877 96.0
133.629791 164.0
133.726929 200.0
133.763763 164.0
133.783722 232.0
133.837433 84.0
133.95488 104.0
134.012482 60.0
134.055634 588.0
134.111572 244.0
134.155365 192.0
134.185333 104.0
134.201477 168.0
134.28595 152.0
134.364746 184.0
134.439056 272.0
134.612198 52.0
134.669937 156.0
134.686096 104.0
134.813171 96.0
134.894775 300.0
134.953949 128.0
134.979599 216.0
135.009842 160.0
135.030533 160.0
135.06749 164.0
135.104492 152.0
135.129944 200.0
135.155396 180.0
135.1716 60.0
135.211044 176.0
135.278061 108.0
135.3172 180.0
135.376938 180.0
135.416977 120.0
135.453201 188.0
135.600021 152.0
135.630142 144.0
135.660278 124.0
135.741425 108.0
135.773895 44.0
135.833649 180.0
135.873627 128.0
135.936279 144.0
135.982697 100.0
136.00264 108.0
136.036545 180.0
136.078827 192.0
136.133591 136.0
136.187012 172.0
136.254379 112.0
136.309036 136.0
136.350952 172.0
136.400772 184.0
136.437973 148.0
136.461212 160.0
136.524002 132.0
136.549576 200.0
136.584473 168.0
136.791565 156.0
136.831131 100.0
136.868393 180.0
136.894012 48.0
136.910309 128.0
136.935928 128.0
136.959213 172.0
136.99881 192.0
137.024445 132.0
137.044724 68.0
137.085022 188.0
137.145615 104.0
137.276169 176.0
137.302826 84.0
137.423126 204.0
137.448792 184.0
137.493118 136.0
137.523468 84.0
137.581818 168.0
137.633179 192.0
137.689224 200.0
137.738281 68.0
137.801346 220.0
137.874847 176.0
137.897156 148.0
137.929886 116.0
137.983643 116.0
138.007034 160.0
138.046783 296.0
138.105408 180.0
138.156708 228.0
138.236252 132.0
138.374359 84.0
138.463333 152.0
138.526581 132.0
138.784363 176.0
138.864105 144.0
138.939163 108.0
138.961563 160.0
139.057205 464.0
139.09639 144.0
139.227875 208.0
139.284241 72.0
139.339035 148.0
139.387604 168.0
139.408752 56.0
139.448715 44.0
139.510269 128.0
139.533325 72.0
139.572006 176.0
139.608566 96.0
139.655609 136.0
139.816864 132.0
139.937988 152.0
139.956238 128.0
140.008636 116.0
140.050186 6536.0
140.098145 156.0
140.141922 192.0
140.229248 100.0
140.291382 48.0
140.310242 96.0
140.421066 172.0
140.461166 64.0
140.520142 108.0
140.557892 152.0
140.694778 160.0
140.725479 132.0
140.758469 176.0
140.767181 60.0
140.786865 184.0
140.824646 148.0
140.857834 156.0
140.922195 136.0
140.957367 160.0
141.008942 56.0
141.052933 972.0
141.103485 76.0
141.129745 184.0
141.162598 76.0
141.277115 96.0
141.30925 184.0
141.344742 200.0
141.434662 144.0
141.616638 136.0
141.640671 144.0
141.687561 288.0
141.718842 64.0
141.76387 180.0
141.824051 240.0
141.882385 240.0
141.915573 176.0
142.024658 160.0
142.06694 448.0
142.126663 200.0
142.14328 148.0
142.193115 76.0
142.24646 192.0
142.278564 120.0
142.328415 180.0
142.361664 104.0
142.387787 156.0
142.482803 164.0
142.536804 176.0
142.599304 92.0
142.618256 204.0
142.69194 140.0
142.734741 116.0
142.760895 208.0
142.801331 152.0
142.820358 204.0
142.851273 160.0
142.939301 88.0
143.040359 180.0
143.077744 400.0
143.103531 188.0
143.151154 40.0
143.186874 332.0
143.224991 164.0
143.32135 356.0
143.346497 44.0
143.428406 172.0
143.479965 144.0
143.507248 144.0
143.553879 164.0
143.663589 56.0
143.750107 184.0
143.780945 176.0
143.799606 140.0
143.909409 156.0
143.959549 152.0
144.003937 204.0
144.045486 3396.0
144.079819 408.0
144.100479 164.0
144.129196 228.0
144.178864 184.0
144.320236 192.0
144.365799 152.0
144.389359 184.0
144.455826 116.0
144.547592 108.0
144.636902 176.0
144.695999 116.0
144.725998 156.0
144.808533 192.0
144.89238 156.0
144.976242 108.0
145.005829 196.0
145.051071 1440.0
145.251953 192.0
145.297882 212.0
145.374313 204.0
145.410309 148.0
145.491837 176.0
145.561554 124.0
145.621597 128.0
145.654083 324.0
145.712875 108.0
145.736893 144.0
145.77774 120.0
145.799026 168.0
145.803711 144.0
145.815033 140.0
145.897079 228.0
145.941193 360.0
146.024445 200.0
146.06163 724.0
146.079758 172.0
146.138428 136.0
146.169708 56.0
146.283478 128.0
146.311707 132.0
146.335785 104.0
146.379181 184.0
146.46582 108.0
146.489914 116.0
146.513992 112.0
146.627243 116.0
146.648941 188.0
146.689911 276.0
146.728485 144.0
146.777298 196.0
146.832169 188.0
146.897293 136.0
146.962433 52.0
147.104828 212.0
147.250824 68.0
147.285919 156.0
147.319733 212.0
147.339066 200.0
147.402802 220.0
147.481644 120.0
147.532394 180.0
147.583176 144.0
147.66069 132.0
147.684738 240.0
147.753616 200.0
147.78392 84.0
147.841995 36.0
147.868622 156.0
147.892822 100.0
147.932571 152.0
148.043549 200.0
148.130112 136.0
148.235794 136.0
148.25853 216.0
148.296295 156.0
148.323959 132.0
148.371262 216.0
148.505814 92.0
148.56514 288.0
148.610123 28.0
148.729034 160.0
148.830994 196.0
148.921814 152.0
148.988861 116.0
149.051346 300.0
149.122513 440.0
149.156479 156.0
149.173355 200.0
149.353485 196.0
149.626038 224.0
149.66011 156.0
149.786758 236.0
149.812805 208.0
150.00589 168.0
150.042633 164.0
150.096268 180.0
150.125534 160.0
150.161041 192.0
150.181625 236.0
150.237717 168.0
150.288956 144.0
150.330444 112.0
150.352402 152.0
150.396332 40.0
150.525726 108.0
150.623413 168.0
150.650284 180.0
150.691818 212.0
150.711365 132.0
150.752899 192.0
150.826218 204.0
150.89711 88.0
150.933792 188.0
151.114792 208.0
151.242035 92.0
151.322815 172.0
151.54361 164.0
151.654602 200.0
151.692734 208.0
151.74913 68.0
151.827591 140.0
151.886459 116.0
151.964233 216.0
151.98822 124.0
152.06311 148.0
152.112198 160.0
152.144119 168.0
152.239868 124.0
152.367599 120.0
152.405334 132.0
152.532242 92.0
152.615829 160.0
152.687134 160.0
152.731506 196.0
152.795364 96.0
152.911011 204.0
153.007019 96.0
153.058594 1736.0
153.135056 88.0
153.157227 128.0
153.213882 204.0
153.337311 176.0
153.408569 128.0
153.448013 140.0
153.49733 84.0
153.524445 148.0
153.694092 104.0
153.722778 92.0
153.780136 328.0
153.821106 216.0
153.842743 148.0
153.864731 252.0
153.892105 176.0
153.921829 232.0
153.979309 388.0
154.028763 184.0
154.066971 72408.0
154.121536 140.0
154.156403 92.0
154.206345 132.0
154.230911 220.0
154.281952 156.0
154.288132 220.0
154.315811 148.0
154.346741 68.0
154.376419 128.0
154.411789 132.0
154.473312 568.0
154.514572 112.0
154.55452 132.0
154.582504 180.0
154.608948 200.0
154.629837 200.0
154.699158 144.0
154.725296 108.0
154.789658 104.0
154.81279 108.0
154.852325 120.0
154.896774 64.0
154.964264 172.0
155.010117 220.0
155.072968 27984.0
155.125687 156.0
155.155075 128.0
155.183624 52.0
155.217453 104.0
155.270004 212.0
155.306595 100.0
155.341446 88.0
155.384674 200.0
155.409332 52.0
155.426697 136.0
155.442627 124.0
155.465363 48.0
155.484009 84.0
155.519272 184.0
155.543335 84.0
155.581009 168.0
155.658203 60.0
155.724594 160.0
155.766815 76.0
155.804077 184.0
155.822601 44.0
155.845078 72.0
155.896164 64.0
155.950684 236.0
155.980515 132.0
156.012833 32.0
156.074265 3284.0
156.145508 224.0
156.177994 244.0
156.200821 152.0
156.222458 108.0
156.261658 92.0
156.315491 140.0
156.350571 136.0
156.389557 116.0
156.434067 192.0
156.468094 68.0
156.532837 72.0
156.551208 136.0
156.605057 40.0
156.622482 56.0
156.657364 32.0
156.69223 208.0
156.746185 260.0
156.766983 216.0
156.784424 136.0
156.814331 160.0
156.840988 92.0
156.850082 140.0
156.874161 160.0
156.925095 120.0
156.961426 36.0
156.97998 120.0
157.051346 888.0
157.076599 304.0
157.102844 164.0
157.165955 56.0
157.203384 76.0
157.225845 192.0
157.250793 188.0
157.298218 144.0
157.328552 272.0
157.390808 92.0
157.415558 136.0
157.448029 136.0
157.562927 64.0
157.640778 180.0
157.697861 108.0
158.059067 684.0
158.194916 140.0
158.310791 176.0
158.368652 200.0
158.505783 196.0
158.52623 184.0
158.58638 160.0
158.679123 116.0
158.701691 172.0
158.791962 168.0
158.819199 56.0
158.837875 92.0
158.884781 180.0
159.032059 652.0
159.069244 808.0
159.103119 120.0
159.184296 192.0
159.213593 120.0
159.267227 112.0
159.30983 216.0
159.33165 88.0
159.364304 52.0
159.412048 148.0
159.429642 160.0
159.457291 168.0
159.535202 116.0
159.575424 156.0
159.603088 128.0
159.625717 72.0
159.696136 148.0
159.718765 84.0
159.738892 160.0
159.7565 156.0
159.842041 252.0
159.922577 144.0
159.988022 240.0
160.039948 544.0
160.065369 128.0
160.136581 48.0
160.196198 176.0
160.214661 180.0
160.257492 152.0
160.323013 200.0
160.393585 140.0
160.441589 176.0
160.471725 152.0
160.507034 144.0
160.530777 144.0
160.643219 180.0
160.660873 184.0
160.698715 172.0
160.751709 68.0
160.925797 164.0
160.947205 204.0
160.971329 48.0
160.988998 200.0
161.048065 6328.0
161.095078 68.0
161.132965 160.0
161.180984 60.0
161.216354 132.0
161.393295 120.0
161.426163 148.0
161.451462 100.0
161.469162 160.0
161.522278 128.0
161.598175 124.0
161.624207 124.0
161.722168 76.0
161.78038 156.0
162.008301 152.0
162.050003 472.0
162.134995 52.0
162.243973 236.0
162.311676 240.0
162.363144 88.0
162.413712 124.0
162.42009 116.0
162.462067 148.0
162.563553 148.0
162.598526 108.0
162.734131 180.0
162.845352 132.0
162.865677 132.0
162.916473 212.0
162.959976 168.0
163.05574 488.0
163.094345 88.0
163.193497 152.0
163.231628 200.0
163.256149 168.0
163.557281 148.0
163.927246 180.0
163.95459 172.0
164.051559 312.0
164.097336 76.0
164.115189 72.0
164.168732 216.0
164.201324 200.0
164.28096 160.0
164.309021 56.0
164.426392 124.0
164.469116 152.0
164.517303 140.0
164.538712 216.0
164.574448 212.0
164.65361 140.0
164.679153 100.0
164.709808 120.0
164.766006 180.0
164.806885 176.0
164.893768 120.0
164.93721 60.0
164.955109 64.0
164.987152 104.0
165.015121 124.0
165.058929 180.0
165.182693 60.0
165.210831 160.0
165.292694 148.0
165.346436 200.0
165.464188 156.0
165.497467 32.0
165.538437 192.0
165.576691 132.0
165.632309 252.0
165.722855 104.0
165.746109 160.0
165.784363 220.0
165.833054 132.0
165.991989 128.0
166.027893 176.0
166.062042 588.0
166.16127 180.0
166.210022 120.0
166.294708 128.0
166.358261 116.0
166.37294 168.0
166.443604 104.0
166.489822 88.0
166.510376 156.0
166.533493 88.0
166.679123 116.0
166.705612 136.0
166.77243 80.0
166.805847 48.0
166.826416 152.0
166.861084 164.0
166.926682 52.0
166.9487 100.0
166.971878 132.0
167.005203 188.0
167.06636 736.0
167.124741 100.0
167.148544 96.0
167.271439 116.0
167.347885 156.0
167.428497 96.0
167.446518 104.0
167.464554 172.0
167.505753 84.0
167.529465 140.0
167.547272 316.0
167.590775 48.0
167.644882 144.0
167.671783 140.0
167.699005 216.0
167.750992 160.0
167.786652 100.0
167.820969 128.0
167.861481 156.0
167.884705 252.0
167.915573 104.0
167.94957 132.0
167.98851 320.0
168.016174 380.0
168.046509 85596.0
168.115677 88.0
168.15126 108.0
168.175842 32.0
168.216354 168.0
168.242599 132.0
168.272064 432.0
168.298904 80.0
168.307816 80.0
168.333588 180.0
168.361374 108.0
168.393036 140.0
168.429901 80.0
168.471222 652.0
168.493256 100.0
168.55545 152.0
168.579041 44.0
168.621918 108.0
168.677261 276.0
168.710968 220.0
168.748001 160.0
168.770325 92.0
168.794891 120.0
168.855453 100.0
168.896271 144.0
168.95845 200.0
169.006256 152.0
169.048172 13408.0
169.080994 612.0
169.123444 56.0
169.145203 44.0
169.18428 120.0
169.202393 44.0
169.230881 32.0
169.251587 44.0
169.31955 148.0
169.345551 128.0
169.364029 96.0
169.430801 112.0
169.539124 148.0
169.567627 80.0
169.619461 40.0
169.637604 136.0
169.741318 40.0
169.77243 204.0
169.808746 108.0
169.847641 92.0
169.882767 164.0
169.912125 56.0
169.933258 44.0
169.950714 108.0
169.982559 88.0
170.054382 1480.0
170.087891 280.0
170.115524 308.0
170.147476 200.0
170.20578 92.0
170.234787 320.0
170.267822 96.0
170.297852 160.0
170.322174 108.0
170.384476 120.0
170.394516 60.0
170.40387 196.0
170.455795 64.0
170.511459 132.0
170.533112 128.0
170.569504 140.0
170.642288 64.0
170.812485 152.0
170.834732 284.0
170.855545 80.0
170.876312 236.0
170.928391 72.0
170.95369 204.0
171.040222 128.0
171.060318 260.0
171.096085 300.0
171.172272 64.0
171.31633 48.0
171.365829 60.0
171.423141 132.0
171.459625 160.0
171.505203 164.0
171.642105 64.0
171.708176 60.0
171.824677 68.0
171.952805 204.0
172.037674 136.0
172.08255 164.0
172.103943 104.0
172.195343 120.0
172.218857 76.0
172.305054 96.0
172.325119 188.0
172.495819 168.0
172.647461 148.0
172.838425 60.0
172.880295 208.0
172.937866 92.0
173.047806 36.0
173.076614 164.0
173.128983 104.0
173.168274 200.0
173.246857 136.0
173.430267 268.0
173.453857 160.0
173.548248 76.0
173.603302 176.0
173.640015 128.0
173.823654 124.0
173.981552 148.0
174.038895 136.0
174.107162 144.0
174.157059 96.0
174.199097 108.0
174.57756 136.0
174.611755 192.0
174.659088 52.0
174.851166 132.0
174.943283 84.0
175.019638 144.0
175.103897 112.0
175.499176 152.0
175.59938 60.0
175.728638 128.0
175.834183 60.0
175.873779 220.0
175.892258 140.0
175.913376 40.0
175.995209 224.0
176.185364 160.0
176.320129 32.0
176.385025 180.0
176.433792 44.0
176.497238 232.0
176.521042 172.0
176.708832 160.0
176.841141 120.0
176.875549 108.0
176.896729 172.0
176.984085 48.0
177.206573 84.0
177.476608 172.0
177.620132 68.0
177.643997 72.0
177.689102 152.0
177.82045 152.0
178.05275 56.0
178.0979 140.0
178.287964 148.0
178.323746 196.0
178.46994 88.0
178.523132 124.0
178.547058 48.0
178.680054 124.0
178.725296 80.0
178.753265 156.0
178.781174 156.0
178.829071 52.0
178.914261 148.0
178.999451 120.0
179.026077 80.0
179.062408 144.0
179.455078 148.0
179.47374 108.0
179.491348 80.0
179.639099 168.0
179.874496 72.0
179.908615 124.0
179.937988 136.0
180.034775 80.0
180.077545 388.0
180.121048 156.0
180.279877 180.0
180.335999 176.0
180.42421 288.0
180.456299 112.0
180.477676 144.0
180.520462 164.0
180.587692 144.0
180.722687 100.0
180.769241 164.0
180.841507 160.0
180.881104 136.0
180.956604 200.0
180.980789 208.0
181.001022 172.0
181.077087 26388.0
181.144073 48.0
181.186935 108.0
181.213715 116.0
181.296783 188.0
181.354279 168.0
181.410767 164.0
181.508194 148.0
181.567062 180.0
181.614868 156.0
181.657623 184.0
181.677444 132.0
181.703445 148.0
181.739502 80.0
181.783401 364.0
181.818604 76.0
181.851929 208.0
181.882584 172.0
181.918854 56.0
181.958954 276.0
181.986115 452.0
182.018417 372.0
182.085754 83376.0
182.153107 268.0
182.18309 160.0
182.202667 80.0
182.253189 192.0
182.272369 152.0
182.313766 156.0
182.345703 184.0
182.382797 300.0
182.419495 224.0
182.45018 56.0
182.471283 104.0
182.496002 100.0
182.52713 448.0
182.557144 104.0
182.612167 92.0
182.651627 108.0
182.671249 92.0
182.702637 108.0
182.757736 56.0
182.789841 88.0
182.819794 420.0
182.879898 156.0
182.936325 164.0
182.956711 196.0
183.002243 184.0
183.069794 43032.0
183.137527 192.0
183.162369 128.0
183.206284 92.0
183.228424 100.0
183.272949 76.0
183.315231 92.0
183.359467 124.0
183.38829 212.0
183.406876 208.0
183.430573 112.0
183.438705 96.0
183.447037 224.0
183.465866 84.0
183.509003 24.0
183.527863 64.0
183.584488 204.0
183.625153 104.0
183.650787 44.0
183.682892 64.0
183.723251 60.0
183.759323 64.0
183.778473 140.0
183.783432 180.0
183.834641 212.0
183.875854 72.0
183.908234 28.0
183.932526 40.0
183.956833 60.0
184.000015 64.0
184.072235 3776.0
184.133484 68.0
184.167435 128.0
184.217072 64.0
184.28981 216.0
184.31543 136.0
184.343719 112.0
184.401093 84.0
184.450882 108.0
184.51506 112.0
184.548813 108.0
184.555283 208.0
184.607452 148.0
184.637421 112.0
184.672165 168.0
184.836853 52.0
184.859543 56.0
184.894714 52.0
184.920486 112.0
184.973419 52.0
185.008408 28.0
185.047607 304.0
185.071274 616.0
185.131393 120.0
185.162735 88.0
185.23587 92.0
185.284637 96.0
185.333405 64.0
185.376755 128.0
185.419006 76.0
185.471603 280.0
185.496902 88.0
185.528961 256.0
185.560715 152.0
185.570908 76.0
185.589142 112.0
185.639084 180.0
185.728668 124.0
185.756317 52.0
185.788879 48.0
185.807861 124.0
185.93811 96.0
186.019531 36.0
186.059494 412.0
186.095551 168.0
186.149857 160.0
186.179733 100.0
186.277512 80.0
186.307388 40.0
186.329117 160.0
186.410629 84.0
186.489441 208.0
186.538376 100.0
186.562836 144.0
186.614487 40.0
186.731415 152.0
186.867432 120.0
187.028397 132.0
187.063461 2596.0
187.196304 96.0
187.433762 104.0
187.477356 60.0
187.711792 180.0
187.739059 56.0
187.79361 184.0
187.867249 108.0
187.938187 176.0
187.957291 180.0
188.061981 168.0
188.350418 68.0
188.492477 100.0
188.848984 148.0
188.868103 100.0
189.025696 204.0
189.10231 152.0
189.131653 212.0
189.181702 124.0
189.200867 188.0
189.469238 124.0
189.614471 96.0
189.644608 68.0
189.721359 176.0
189.833786 88.0
190.02092 88.0
190.195923 156.0
190.835999 132.0
190.87999 52.0
190.984497 72.0
191.054749 224.0
191.13031 48.0
191.22937 52.0
191.295441 108.0
191.623154 72.0
191.68927 88.0
192.006302 108.0
192.068344 1040.0
192.122147 176.0
192.155258 128.0
192.232513 228.0
192.649414 132.0
192.895355 176.0
193.003174 144.0
193.077042 1976.0
193.285309 84.0
193.748581 172.0
193.81694 204.0
193.839111 52.0
193.90007 100.0
193.919479 52.0
194.0159 204.0
194.077667 668.0
194.32988 92.0
194.371506 100.0
194.768494 112.0
194.899063 48.0
194.983765 216.0
195.058182 676.0
195.092438 196.0
195.267914 64.0
195.324417 176.0
195.346664 108.0
195.480209 92.0
195.572052 56.0
195.602676 64.0
195.94519 176.0
196.048294 124.0
196.067795 188.0
196.095062 144.0
196.329849 104.0
196.393997 72.0
196.557541 180.0
196.751175 36.0
196.876816 172.0
196.996918 96.0
197.070694 176.0
197.104019 396.0
197.26239 212.0
197.437714 48.0
197.522446 116.0
197.600769 128.0
197.788269 132.0
197.919846 96.0
198.027786 176.0
198.055069 124.0
198.077042 180.0
198.143906 40.0
198.169128 72.0
198.421356 180.0
198.550339 240.0
198.718643 48.0
199.053085 184.0
199.085541 200.0
200.057663 140.0
200.197159 84.0
200.439407 64.0
200.591599 144.0
200.989243 148.0
201.62178 56.0
201.68396 172.0
201.788559 192.0
201.856415 184.0
202.156265 220.0
202.176071 196.0
202.394043 136.0
202.481827 104.0
202.657455 148.0
202.765137 84.0
203.088348 68.0
203.207489 144.0
203.295441 48.0
203.596359 104.0
203.661682 252.0
203.679276 180.0
204.093643 152.0
204.12207 88.0
204.34108 184.0
205.166977 128.0
205.509216 108.0
205.637634 164.0
205.697571 128.0
206.017395 172.0
206.088852 344.0
206.237427 144.0
206.657791 236.0
206.677826 196.0
206.792297 164.0
206.838089 88.0
207.015594 128.0
207.096512 204.0
207.198898 156.0
207.290588 76.0
207.436752 88.0
207.714905 164.0
207.958786 60.0
208.053787 148.0
208.217178 164.0
208.386658 96.0
208.421143 96.0
208.554535 144.0
208.757446 72.0
208.837112 132.0
208.970306 296.0
208.989807 180.0
209.027847 60.0
209.071152 10072.0
209.137207 48.0
209.174622 64.0
209.209503 176.0
209.240845 48.0
209.266754 44.0
209.335861 136.0
209.376175 72.0
209.445297 52.0
209.474106 140.0
209.586456 48.0
209.606628 100.0
209.641205 192.0
209.667145 172.0
209.710373 132.0
209.7388 172.0
209.771652 92.0
209.831436 88.0
209.854507 216.0
209.915054 208.0
209.945724 176.0
209.978989 188.0
210.004303 144.0
210.026932 76.0
210.080658 75720.0
210.161514 72.0
210.20784 56.0
210.240845 36.0
210.272522 56.0
210.280167 100.0
210.333939 84.0
210.365601 164.0
210.39978 40.0
210.432648 52.0
210.480331 40.0
210.506531 148.0
210.549423 112.0
210.609695 92.0
210.648132 72.0
210.697876 72.0
210.775864 84.0
210.804138 228.0
210.836639 76.0
210.896622 44.0
210.925522 80.0
210.952576 56.0
211.026703 220.0
211.082199 6896.0
211.138519 96.0
211.170288 92.0
211.187271 128.0
211.265213 60.0
211.31015 60.0
211.347504 136.0
211.406677 44.0
211.43457 84.0
211.489563 52.0
211.517059 104.0
211.616928 88.0
211.640091 104.0
211.702301 116.0
211.761719 68.0
211.897858 256.0
211.921036 168.0
211.970306 56.0
212.08548 932.0
212.149033 48.0
212.2202 56.0
212.328125 68.0
212.366501 136.0
212.435104 164.0
212.460144 84.0
212.489655 100.0
212.547333 52.0
212.652756 140.0
212.680817 88.0
212.706436 136.0
212.722687 164.0
212.759201 148.0
212.805649 60.0
212.863724 112.0
212.921799 48.0
212.974075 72.0
213.075745 84.0
213.171631 120.0
213.395447 100.0
213.546661 92.0
213.61937 32.0
213.66301 76.0
213.722794 168.0
213.759018 104.0
213.782303 52.0
213.977325 72.0
214.268555 128.0
214.775772 80.0
215.017944 84.0
215.064636 156.0
215.575714 88.0
216.330307 100.0
216.775497 80.0
217.276871 152.0
217.400101 108.0
217.61438 64.0
218.072632 64.0
218.260773 184.0
218.531372 20.0
218.999435 160.0
219.067184 44.0
219.571198 84.0
220.155518 88.0
220.49231 80.0
220.610535 60.0
220.882584 92.0
221.009796 120.0
221.326508 48.0
221.590103 164.0
221.898331 188.0
221.954666 128.0
222.132614 88.0
222.800537 80.0
223.06485 156.0
223.083344 144.0
223.231506 144.0
223.484329 80.0
224.237732 56.0
224.362915 128.0
224.441513 188.0
224.496674 56.0
224.744675 196.0
224.912872 88.0
224.971497 132.0
225.014435 180.0
225.065598 452.0
225.103699 31692.0
225.17453 100.0
225.209869 68.0
225.282059 52.0
225.340408 68.0
225.386627 36.0
225.428802 124.0
225.487 156.0
225.530075 88.0
225.559967 44.0
225.736359 60.0
225.769257 100.0
225.854401 68.0
225.905334 144.0
225.981628 48.0
226.026505 248.0
226.106308 3332.0
226.244995 68.0
226.310852 40.0
226.334808 44.0
226.56543 48.0
226.682281 188.0
226.784164 52.0
226.883087 172.0
227.02002 108.0
227.108688 780.0
227.167984 48.0
227.218979 68.0
227.335999 56.0
227.480057 84.0
227.549927 88.0
227.603149 156.0
227.749283 176.0
227.813385 52.0
227.858444 76.0
228.04776 112.0
228.231125 32.0
228.279236 84.0
228.330368 92.0
228.456696 92.0
228.781708 104.0
228.841919 40.0
229.80336 88.0
230.313538 64.0
231.75351 60.0
232.827332 56.0
232.872879 64.0
233.532425 92.0
234.013229 44.0
234.90004 68.0
236.868591 192.0
237.693298 100.0
239.550262 76.0
240.027954 84.0
243.506317 68.0
245.245529 120.0
247.685806 120.0
247.898849 100.0
250.122437 44.0
250.708237 44.0
252.336975 76.0
252.665878 84.0
253.809235 52.0
254.313644 60.0
255.091843 64.0
255.212662 132.0
256.476501 144.0
256.712402 52.0
257.242035 40.0
258.581268 76.0
260.042755 60.0
263.772583 84.0
264.921356 48.0
265.242157 100.0
267.545288 76.0
267.949097 64.0
269.211395 76.0
269.312653 124.0
269.658966 104.0
269.757019 48.0
270.286835 100.0
272.411316 68.0
274.920166 124.0
280.245514 28.0
286.328766 68.0
288.758698 88.0
291.919342 64.0
293.594788 96.0
295.254517 72.0
295.757446 108.0
297.337463 56.0
297.543396 72.0
298.942322 88.0
301.577148 116.0
303.550446 80.0
306.679291 68.0
307.111633 128.0
308.190338 68.0
308.945496 68.0
310.487732 52.0
311.205994 76.0
320.704498 84.0
322.810852 48.0
323.22934 60.0
326.580048 68.0
329.106201 112.0
330.819855 76.0
332.752106 72.0
333.50769 48.0
337.879883 52.0
338.220215 100.0
340.640289 68.0
343.932159 112.0
344.899872 36.0
344.996002 52.0
346.313293 84.0
348.38678 72.0
351.514252 116.0
351.760559 136.0
357.713226 44.0
362.759918 52.0
363.677856 72.0
363.761383 48.0
363.96637 64.0
364.66156 96.0
365.597107 76.0
365.867371 72.0
367.784729 108.0
368.829071 48.0
369.783661 84.0
370.43457 52.0
373.001678 120.0
373.47464 100.0
374.055634 52.0
376.098541 76.0
386.713409 56.0
390.20459 104.0
390.727661 100.0
393.257446 36.0
394.719116 76.0
398.190582 44.0
398.667297 52.0
405.591797 80.0
406.032837 108.0
408.599548 48.0
409.066345 100.0
409.895996 112.0
411.029053 60.0
414.932068 72.0
417.734161 108.0
418.226501 48.0
419.167236 104.0
419.354706 64.0
419.709351 72.0
419.913269 56.0
420.178406 108.0
422.228882 84.0
422.363861 108.0
423.129089 72.0
426.862823 92.0
431.116943 64.0
436.00705 32.0
436.659729 108.0
443.113129 40.0
446.576233 108.0
450.55542 80.0
456.459473 88.0
457.191132 100.0
459.765106 64.0
467.027039 44.0
469.223206 36.0
473.37973 116.0
475.282623 84.0
478.110504 68.0
484.008911 40.0
484.249786 64.0
494.503815 32.0
495.296356 100.0
500.162811 36.0
500.661469 104.0
504.520966 64.0
507.462311 88.0
509.441437 76.0
510.290833 56.0
522.561096 56.0
523.503296 88.0
533.859131 40.0
536.769409 80.0
537.281372 92.0
539.100525 76.0
555.930481 56.0
557.456604 60.0
559.606201 92.0
561.877808 112.0
566.373291 64.0
572.38562 92.0
573.676697 124.0
582.750488 140.0
586.528137 112.0
596.796021 56.0
600.696899 84.0
605.761108 28.0
614.783081 160.0
614.876892 72.0
615.059509 72.0
618.851135 100.0
619.504883 56.0
632.496521 108.0
634.846191 108.0
636.964172 56.0
642.284546 76.0
656.699463 68.0
661.66626 56.0
664.844177 80.0
673.17334 92.0
675.586975 132.0
675.773193 232.0
678.601074 88.0
681.185425 88.0
684.836853 92.0
699.250488 44.0
704.322571 136.0
724.140564 52.0
727.234131 80.0
734.298279 60.0
746.124146 188.0
749.040955 60.0
750.207031 80.0
752.38916 176.0
755.487671 164.0
755.947266 144.0
760.386169 120.0
776.728882 88.0
781.76239 128.0
786.510742 112.0
793.845276 120.0
796.084229 220.0
797.887817 232.0
801.416626 164.0
804.061279 80.0
807.196472 80.0
808.067505 44.0
811.335205 192.0
831.607971 220.0
833.836365 216.0
836.320923 124.0
839.59906 76.0
843.473145 224.0
851.491882 164.0
859.151855 128.0
860.534973 80.0
862.977112 72.0
865.007141 180.0
879.448975 144.0
889.790283 68.0
890.283081 188.0
892.90979 88.0
898.258362 124.0
901.30304 116.0
902.43866 188.0
906.005554 140.0
914.153076 84.0
919.02771 88.0
921.24939 156.0
926.439697 52.0
938.277832 56.0
938.832703 56.0
939.125427 212.0
939.973389 132.0
940.101562 96.0
943.943787 68.0
959.378906 196.0
962.797058 152.0
963.377686 96.0
965.064819 180.0
966.048157 112.0
966.772034 120.0
967.73761 120.0
968.177246 184.0
968.790466 140.0
972.796387 104.0
975.971008 168.0
976.033142 192.0
976.163757 148.0
984.969849 148.0
990.530579 184.0
992.993774 192.0
993.363831 128.0
996.213745 44.0
996.691223 116.0
1004.194946 168.0
1007.969971 148.0
1011.973694 84.0
1012.113037 84.0
1012.733643 176.0
1014.051453 124.0
1019.69989 176.0
1019.75708 140.0
1029.453125 160.0
1030.717896 96.0
1031.178101 32.0
1035.919312 196.0
1035.996094 168.0
1036.220337 136.0
1039.394043 196.0
1040.164185 172.0
1040.600708 128.0
1047.37854 172.0
1049.49231 196.0
1049.730835 152.0
1049.89209 180.0
1053.500122 100.0
1053.680908 140.0
1055.962646 76.0
1056.156738 164.0
1056.202026 68.0
1056.932983 148.0
1057.686401 96.0
1058.952759 80.0
1064.490967 148.0
1065.322266 168.0
1068.169434 64.0
1070.662109 164.0
1071.834717 168.0
1075.212524 224.0
1075.604126 184.0
1080.413574 192.0
1088.186157 180.0
1089.696655 196.0
1089.912598 60.0
1093.359131 48.0
1094.050293 116.0
1096.296265 140.0
1097.95752 160.0
1098.59729 216.0
1100.907349 164.0
1101.026123 56.0
1104.581909 228.0
1110.125366 200.0
1110.171753 108.0
1110.317627 40.0
1110.43042 148.0
1111.014038 132.0
1114.871704 48.0
1115.037842 116.0
1115.49646 104.0
1116.660034 148.0
1117.38501 168.0
1118.030518 244.0
1118.815918 160.0
1119.275269 148.0
1122.726929 132.0
1125.149048 136.0
1127.627197 96.0
1129.332031 152.0
1130.723633 116.0
1132.330322 208.0
1133.18103 152.0
1133.402222 104.0
1133.797485 136.0
1135.419922 176.0
1136.358887 176.0
1136.7146 160.0
1138.151001 140.0
1141.335815 80.0
1142.7146 136.0
1142.882812 148.0
1144.679932 196.0
1146.633545 136.0
1147.105347 144.0
1147.199707 88.0
1148.21106 120.0
1148.372925 204.0
1148.54834 128.0
1149.283569 220.0
1151.423462 140.0
1154.910889 196.0
1155.424194 172.0
1157.671997 96.0
1157.800659 164.0
1157.942871 104.0
1158.708374 136.0
1159.40625 60.0
1159.819702 144.0
1160.897583 168.0
1161.867554 144.0
1162.037109 188.0
1164.704956 132.0
1165.289185 76.0
1165.825928 220.0
1165.982178 140.0
1166.070557 180.0
1166.491943 200.0
1167.994751 40.0
1170.478638 116.0
1172.467773 108.0
1173.490234 112.0
1174.376709 104.0
1175.045166 120.0
1176.737793 140.0
1176.956177 192.0
1177.249878 168.0
1177.434204 176.0
1179.114868 76.0
1179.859863 160.0
1181.336914 136.0
1183.787109 32.0
1183.992554 232.0
1184.759644 188.0
1184.978882 148.0
1185.449707 68.0
1187.234009 68.0
1187.67981 212.0
1187.775757 192.0
1189.525513 92.0
1190.218994 180.0
1191.070557 144.0
1193.104492 204.0
1193.221313 192.0
1193.88147 192.0
1194.211548 144.0
1194.314697 84.0
1194.500488 132.0
1194.837524 160.0
1195.071411 164.0
1195.195312 168.0
1195.938477 188.0
1196.592407 200.0
1198.445068 120.0
1200.637085 168.0
1200.775024 296.0
1201.726929 212.0
1202.334106 96.0
1203.03125 144.0
1203.763062 176.0
1204.073853 152.0
1205.109985 188.0
1205.683472 84.0
1205.932251 240.0
1206.257202 192.0
1208.221069 164.0
1208.615479 92.0
1210.0896 168.0
1211.717163 144.0
1211.814209 156.0
1212.326904 208.0
1213.740967 184.0
1215.273804 156.0
1216.342529 156.0
1220.677612 140.0
1221.108765 192.0
1221.268799 196.0
1222.952515 148.0
1224.108154 192.0
1224.679199 148.0
1225.508179 164.0
1226.184082 164.0
1226.651123 68.0
1228.331543 164.0
1228.987305 124.0
1230.083008 156.0
1230.983521 204.0
1231.723877 192.0
1233.135254 48.0
1234.029907 92.0
1234.834106 196.0
1235.771484 132.0
1236.366211 184.0
1236.709106 156.0
1236.786133 44.0
1236.898071 188.0
1237.052124 164.0
1237.248169 152.0
1237.675171 108.0
1238.732666 172.0
1239.706543 164.0
1239.762573 104.0
1240.519531 180.0
1242.560181 140.0
1243.402222 152.0
1244.033936 116.0
1244.658813 112.0
1246.88562 124.0
1247.075317 56.0
1247.714966 140.0
1248.382935 36.0
1248.579834 176.0
1249.269165 100.0
1250.366699 136.0
1250.789062 108.0
1251.859131 216.0
1252.422607 152.0
1252.7677 152.0
1253.556763 216.0
1256.66626 88.0
1256.779175 128.0
1256.856812 196.0
1256.983765 164.0
1258.077759 188.0
1258.465942 188.0
1258.571899 148.0
1259.009644 176.0
1259.237549 184.0
1261.09375 52.0
1261.496704 160.0
1262.295654 152.0
1262.479492 76.0
1262.755249 176.0
1263.158447 32.0
1266.364746 128.0
1266.867676 96.0
1267.06604 236.0
1268.362793 44.0
1268.823486 160.0
1269.000732 156.0
1269.49707 152.0
1271.611206 96.0
1273.038086 184.0
1273.343506 84.0
1273.805176 224.0
1274.366333 152.0
1274.664795 132.0
1274.963257 188.0
1275.076904 192.0
1275.425171 140.0
1276.128906 248.0
1277.828735 112.0
1279.081177 144.0
1280.049438 172.0
1280.263062 140.0
1281.488159 172.0
1281.680542 60.0
1282.186401 168.0
1282.400269 80.0
1282.614136 228.0
1282.749512 48.0
1282.963379 160.0
1283.120239 148.0
1284.268311 140.0
1284.318237 176.0
1285.152832 232.0
1285.266968 140.0
1285.702271 248.0
1285.850464 128.0
1286.380249 108.0
1286.551636 152.0
1286.930054 124.0
1287.322754 144.0
1287.55835 156.0
1288.608398 204.0
1291.195923 208.0
1292.290405 132.0
1292.369019 144.0
1293.199097 200.0
1293.292236 188.0
1293.599976 192.0
1293.72168 152.0
1295.189575 248.0
1295.819946 200.0
1298.457764 160.0
1299.00293 196.0
1299.329224 132.0
1300.724976 184.0
1300.961914 136.0
1301.435669 224.0
1301.967041 92.0
1302.089233 168.0
1302.484253 148.0
1303.195435 136.0
1304.956177 120.0
1305.04248 164.0
1306.099609 156.0
1307.452148 252.0
1308.294312 196.0
1308.645508 164.0
1309.388794 200.0
1310.058594 84.0
1310.484619 144.0
1310.815063 132.0
1310.901611 160.0
1311.622192 184.0
1312.060913 188.0
1312.328735 120.0
1312.718018 96.0
1313.114746 140.0
1313.201294 160.0
1315.185303 80.0
1316.167114 168.0
1316.221924 160.0
1316.282715 128.0
1316.492065 212.0
1317.195312 160.0
1317.626099 224.0
1318.110107 80.0
1318.271973 184.0
1318.512085 320.0
1318.832764 120.0
1319.215942 160.0
1319.664062 148.0
1319.867676 136.0
1320.17749 108.0
1320.58252 256.0
1321.247925 192.0
1321.414307 196.0
1321.580811 104.0
1321.747192 188.0
1322.196899 236.0
1322.347778 104.0
1322.543213 108.0
1322.69519 132.0
1325.505127 56.0
1325.671753 100.0
1325.831177 96.0
1326.824219 156.0
1328.223755 128.0
1328.912964 208.0
1329.573242 120.0
1329.653076 144.0
1330.028198 152.0
1330.27002 132.0
1330.676514 144.0
1330.872559 84.0
1331.308228 108.0
1331.424438 148.0
1331.867432 184.0
1333.414917 260.0
1333.640259 192.0
1334.76709 188.0
1335.050659 112.0
1336.862061 140.0
1337.342285 128.0
1337.538818 168.0
1337.771729 124.0
1338.143066 100.0
1338.776489 128.0
1339.067871 108.0
1339.220825 56.0
1340.269775 128.0
1340.400879 144.0
1340.736084 116.0
1341.341064 192.0
1341.486816 172.0
1342.011719 144.0
1342.189697 212.0
1342.463867 148.0
1344.250977 212.0
1345.922485 188.0
1346.199951 144.0
1346.528564 204.0
1346.974121 160.0
1347.120239 84.0
1347.953125 192.0
1349.094849 212.0
1349.188232 80.0
1349.3125 132.0
1349.926758 152.0
1350.17981 132.0
1350.324707 192.0
1350.650757 204.0
1350.848267 136.0
1351.228638 60.0
1351.594482 172.0
1353.050903 268.0
1353.168091 176.0
1354.610718 48.0
1355.555786 60.0
1357.029053 180.0
1357.153687 120.0
1357.828247 236.0
1358.356323 220.0
1358.862549 256.0
1359.023926 168.0
1359.699097 104.0
1360.154053 248.0
1360.411133 204.0
1360.741333 120.0
1362.232056 144.0
1362.356934 220.0
1363.128418 156.0
1364.341187 128.0
1364.946899 196.0
1365.745605 168.0
1365.8927 132.0
1366.415039 164.0
1366.746094 184.0
1366.834351 216.0
1367.8573 168.0
1368.070801 128.0
1368.262207 88.0
1368.821777 164.0
1369.005859 176.0
1369.617065 148.0
1369.992798 132.0
1370.199097 148.0
1370.832642 172.0
1371.105347 144.0
1371.171631 140.0
1372.255249 144.0
1372.5354 124.0
1373.302368 136.0
1373.870361 172.0
1375.419922 168.0
1376.468262 176.0
1376.704468 128.0
1376.76355 96.0
1376.940796 192.0
1377.081177 100.0
1377.657227 152.0
1378.181763 132.0
1378.359131 196.0
1378.750732 156.0
1379.18689 80.0
1379.3125 188.0
1379.460327 100.0
1379.689453 144.0
1380.724609 116.0
1380.931763 152.0
1381.30896 204.0
1382.063477 232.0
1382.995972 252.0
1383.262451 64.0
1383.403076 184.0
1383.654785 252.0
1383.847168 136.0
1385.765503 196.0
1385.824707 220.0
1386.765869 116.0
1387.040039 140.0
1387.425537 160.0
1390.164307 164.0
1390.726318 212.0
1391.572632 184.0
1391.943848 188.0
1392.344849 136.0
1392.493408 180.0
1392.619629 228.0
1393.451538 140.0
1394.046021 92.0
1394.276367 188.0
1395.034546 176.0
1396.804199 156.0
1396.953003 128.0
1397.086914 208.0
1397.637451 92.0
1398.34436 152.0
1398.900879 224.0
1399.810913 172.0
1401.017456 132.0
1401.084473 124.0
1401.881714 128.0
1402.002686 152.0
1402.545044 112.0
1402.910278 192.0
1403.245728 240.0
1404.155396 124.0
1404.244873 92.0
1404.543213 176.0
1404.663818 124.0
1405.759277 124.0
1406.162354 156.0
1406.938599 164.0
1407.077515 136.0
1407.170044 68.0
1408.678467 136.0
1408.820435 172.0
1409.218262 156.0
1409.343384 208.0
1409.597412 120.0
1409.963623 156.0
1411.765259 208.0
1411.937256 192.0
1412.273804 232.0
1413.365967 168.0
1413.657837 100.0
1413.79248 168.0
1414.50354 224.0
1414.721802 140.0
1414.817871 76.0
1414.960083 76.0
1415.337036 212.0
1415.536621 148.0
1415.66394 164.0
1415.772461 156.0
1415.993408 132.0
1417.488159 144.0
1417.858887 128.0
1418.188599 160.0
1418.585938 332.0
1418.645874 192.0
1418.998169 160.0
1420.392944 216.0
1421.630859 124.0
1422.418945 124.0
1422.674194 128.0
1423.349854 160.0
1423.402466 184.0
1423.762817 160.0
1423.913086 132.0
1424.142822 140.0
1424.318604 140.0
1426.219604 192.0
1426.595459 116.0
1426.94873 216.0
1427.144165 120.0
1427.61792 200.0
1427.723267 132.0
1428.625732 148.0
1428.678467 228.0
1429.438354 124.0
1429.980103 204.0
1430.251099 220.0
1430.657593 184.0
1430.785522 124.0
1431.041504 200.0
1432.035522 48.0
1432.291626 84.0
1432.653198 252.0
1432.735962 172.0
1432.848999 116.0
1433.421631 200.0
1433.949097 136.0
1434.099854 84.0
1434.401367 152.0
1434.529541 124.0
1434.793335 124.0
1435.0271 136.0
1435.325684 148.0
1435.419067 100.0
1436.354248 216.0
1436.648438 80.0
1437.176514 180.0
1437.931152 116.0
1438.27832 164.0
1438.368896 104.0
1439.154053 48.0
1439.267334 144.0
1439.493774 132.0
1439.780762 188.0
1439.90918 104.0
1439.992188 160.0
1440.128174 144.0
1441.319946 164.0
1441.812866 112.0
1442.069824 128.0
1442.145508 156.0
1442.213501 208.0
1442.554321 180.0
1443.082764 212.0
1443.869141 136.0
1444.391113 212.0
1445.094604 112.0
1445.283691 92.0
1445.38208 200.0
1445.654541 28.0
1445.866333 336.0
1446.025269 124.0
1446.297729 128.0
1446.585449 184.0
1446.661133 76.0
1447.774048 160.0
1447.978516 72.0
1449.834595 100.0
1450.243896 164.0
1451.085327 316.0
1451.471924 156.0
1451.889038 180.0
1452.146851 52.0
1452.237915 44.0
1452.533691 160.0
1453.656494 128.0
1453.969238 156.0
1454.331909 184.0
1455.189697 184.0
1456.419922 156.0
1457.650635 36.0
1457.711426 60.0
1458.41394 224.0
1458.479004 232.0
1458.539795 128.0
1458.707031 112.0
1458.821045 136.0
1459.155518 116.0
1459.315186 128.0
1459.588867 160.0
1460.206543 208.0
1460.516602 52.0
1460.600342 84.0
1460.782837 124.0
1461.421875 160.0
1462.228516 200.0
1462.685181 192.0
1462.738403 124.0
1462.974365 180.0
1463.164795 144.0
1463.218018 128.0
1463.332886 152.0
1463.789062 180.0
1464.885742 184.0
1465.182861 88.0
1465.312378 56.0
1465.58667 180.0
1465.655273 140.0
1465.815186 116.0
1466.219116 156.0
1466.523926 152.0
1466.60022 108.0
1466.68396 176.0
1467.865723 96.0
1468.124878 196.0
1468.262207 196.0
1468.407104 72.0
1468.719849 100.0
1470.047241 100.0
1470.413574 140.0
1471.314209 112.0
1471.375366 208.0
1471.445801 236.0
1472.047241 124.0
1472.21521 172.0
1472.268677 152.0
1472.524658 156.0
1472.589355 164.0
1472.688721 208.0
1473.353271 148.0
1473.505981 136.0
1473.793457 160.0
1473.979736 196.0
1474.331299 188.0
1474.598755 240.0
1474.743896 208.0
1475.210205 40.0
1475.33252 120.0
1476.119995 108.0
1476.211792 80.0
1476.555908 76.0
1477.800049 212.0
1478.774536 156.0
1478.958252 96.0
1479.317993 240.0
1479.769653 212.0
1480.351562 212.0
1480.680786 116.0
1480.826294 204.0
1481.676514 128.0
1482.251221 76.0
1482.779907 156.0
1482.856567 224.0
1482.933228 96.0
1483.002197 108.0
1483.860107 224.0
1483.914429 196.0
1484.090698 164.0
1484.627441 204.0
1484.995605 68.0
1485.310059 80.0
1485.425171 228.0
1485.517212 184.0
1486.169312 172.0
1486.575928 96.0
1486.65271 148.0
1486.806152 72.0
1487.880737 128.0
1488.717651 180.0
1488.78064 180.0
1489.416504 44.0
1490.238525 132.0
1490.36145 180.0
1490.576538 104.0
1490.630371 208.0
1491.51416 148.0
1492.267456 188.0
1492.452026 116.0
1492.667236 176.0
1492.859497 120.0
1493.020996 76.0
1493.244019 164.0
1493.420898 132.0
1493.890137 88.0
1494.282471 168.0
1495.228882 192.0
1495.929321 204.0
1496.421997 156.0
1496.491333 108.0
1497.399902 136.0
1497.461548 52.0
1497.9198 176.0
1497.946045 88.0
1498.054565 152.0
1498.80957 160.0
1499.094727 144.0
1499.36438 152.0
1499.449219 136.0
1500.297119 212.0
1500.41272 136.0
1500.751953 132.0
1500.836792 220.0
1501.22998 188.0
1502.186279 144.0
1502.410034 156.0
1502.525757 140.0
1502.919189 64.0
1503.405396 192.0
1503.505615 216.0
1503.706299 168.0
1503.936401 152.0
1504.246582 216.0
