>compound MLS001075523-01!
>formula C23H24F3N3O3
>ionization [M+H]+
>parentmass 448.185
#inchi InChI=1S/C23H24F3N3O3/c24-23(25,26)18-4-1-3-15(10-18)11-27-20(30)7-8-21(31)28-12-16-9-17(14-28)19-5-2-6-22(32)29(19)13-16/h1-6,10,16-17H,7-9,11-14H2,(H,27,30)/t16-,17+/m1/s1
#inchikey SIYAFSFQNAMZQK
#Ion_Source LC-ESI
#Instrument qTof
#Compound_Source NIH Natural Product Library
#PI Dorrestein
#Data_Collector VVP/LMS
#Scan -1
#Precursor_MZ 448.185
#ExactMass 447.177
#Charge 1
#CAS_Number N/A
#Pubmed_ID N/A
#Smiles FC(F)(F)c1cccc(CNC(=O)CCC(=O)N2C[C@H]3C[C@@H](C2)c4cccc(=O)n4C3)c1
#INCHI_AUX N/A
#Library_Class 1
#SpectrumID CCMSLIB00000079544
#IonMode Positive
#UpdateWorkflowName UPDATE-SINGLE-ANNOTATED-GOLD
#LibraryQualityString Gold
#TaskID b1d8e8f6646f4e71acdff9ca3d919d08
##Scan# 1806
#SpectrumFile p1-H07_GH7_01_17963.mzXML
#LibraryName NIH_Natural_Products_Library.mgf
#MQScore -1
#Organism NIH_Natural_Products_Library
#TIC_Query 0
#RT_Query -1
#MZErrorPPM -1
#SharedPeaks 0
#MassDiff 0
#LibMZ -1
#SpecMZ 448.185
#SpecCharge 0
#internalFilename spec-00000.mgf

>collision 10
94.984703 88.0
95.004105 108.0
95.058434 228.0
95.12442 172.0
95.149658 164.0
95.200142 176.0
95.230713 216.0
95.295326 164.0
95.312813 68.0
95.351677 180.0
95.411934 128.0
95.48777 136.0
95.662895 160.0
95.686256 188.0
95.779732 124.0
95.842072 180.0
95.892738 184.0
95.90638 144.0
95.955116 116.0
96.052628 168.0
96.165794 88.0
96.239975 188.0
96.277077 176.0
96.490067 152.0
96.560463 116.0
96.576111 136.0
96.746353 256.0
96.783554 196.0
96.809006 164.0
96.885399 164.0
96.952812 168.0
97.042183 160.0
97.063751 96.0
97.120628 108.0
97.146126 132.0
97.183403 176.0
97.206955 152.0
97.226578 220.0
97.273682 204.0
97.35955 196.0
97.421471 264.0
97.481873 152.0
97.576218 120.0
97.589142 112.0
97.648979 180.0
97.68045 152.0
97.924522 228.0
97.98362 180.0
98.017113 108.0
98.058327 832.0
98.078209 60.0
98.099892 160.0
98.119606 92.0
98.166924 96.0
98.23793 116.0
98.310936 208.0
98.433327 204.0
98.447151 132.0
98.492577 56.0
98.524185 160.0
98.53801 124.0
98.58741 172.0
98.674385 72.0
98.708 148.0
98.767326 144.0
98.851151 348.0
98.896004 124.0
98.919693 148.0
99.016716 208.0
99.101898 116.0
99.145493 88.0
99.238655 164.0
99.317337 136.0
99.439011 144.0
99.520401 220.0
99.603813 152.0
99.732971 120.0
99.909653 132.0
100.08709 200.0
100.112976 128.0
100.190659 96.0
100.252426 152.0
100.268372 276.0
100.29229 220.0
100.356079 80.0
100.41391 152.0
100.433853 92.0
100.497696 108.0
100.731277 208.0
100.751251 100.0
100.849167 156.0
100.919136 136.0
100.933136 184.0
100.969131 220.0
101.06115 176.0
101.077156 160.0
101.165215 140.0
101.303398 156.0
101.337326 128.0
101.355484 156.0
101.435654 220.0
101.467728 36.0
101.706451 216.0
101.722504 40.0
101.755272 112.0
101.764442 36.0
101.768181 144.0
101.840111 204.0
101.897224 60.0
101.935402 40.0
101.975594 48.0
102.047966 116.0
102.076118 64.0
102.126396 76.0
102.220947 124.0
102.275291 156.0
102.291389 132.0
102.498833 120.0
102.523018 132.0
102.727417 128.0
102.803329 92.0
102.96888 140.0
103.051697 180.0
103.124451 180.0
103.219467 60.0
103.320595 148.0
103.340828 68.0
103.482506 168.0
103.508827 136.0
103.581741 32.0
103.712791 124.0
103.729042 248.0
103.835098 132.0
103.914215 140.0
103.936531 196.0
103.950737 144.0
103.987267 172.0
104.051445 188.0
104.324455 164.0
104.386337 212.0
104.434258 240.0
104.50882 160.0
104.694771 208.0
104.755875 116.0
104.823112 240.0
105.006973 148.0
105.084106 136.0
105.531403 208.0
105.654114 164.0
105.707314 164.0
105.752335 160.0
105.907951 84.0
106.047279 192.0
106.078026 220.0
106.131332 136.0
106.147736 196.0
106.183319 192.0
106.232948 164.0
106.254387 128.0
106.272858 132.0
106.344681 108.0
106.395996 124.0
106.41037 136.0
106.549194 148.0
106.580849 176.0
106.624001 108.0
106.691833 224.0
106.835793 164.0
106.932503 48.0
106.953087 40.0
107.103401 196.0
107.15696 168.0
107.214653 188.0
107.303291 40.0
107.340408 140.0
107.41259 124.0
107.462105 84.0
107.596252 164.0
107.634735 132.0
107.747383 160.0
107.88755 212.0
107.951645 180.0
108.063347 124.0
108.175102 128.0
108.18959 132.0
108.224792 148.0
108.249634 184.0
108.327652 228.0
108.429871 168.0
108.495216 120.0
108.639297 120.0
108.678719 68.0
108.745125 104.0
108.79702 112.0
108.830238 196.0
108.846848 164.0
108.902916 172.0
108.972946 180.0
109.042549 884.0
109.073303 144.0
109.110413 116.0
109.179337 168.0
109.280876 148.0
109.322884 132.0
109.362427 140.0
109.418633 160.0
109.454025 196.0
109.481102 192.0
109.503227 192.0
109.604004 92.0
109.810387 212.0
109.876129 188.0
109.89592 164.0
109.927216 136.0
109.956436 196.0
109.981476 172.0
110.043892 196.0
110.158974 100.0
110.179863 172.0
110.232094 128.0
110.311035 172.0
110.367966 196.0
110.42025 164.0
110.633675 148.0
110.744659 148.0
110.817978 140.0
110.97937 224.0
111.109406 40.0
111.17865 120.0
111.222725 180.0
111.499969 188.0
111.758621 148.0
112.03759 96.0
112.135574 168.0
112.20092 176.0
112.329124 156.0
112.388634 52.0
112.451057 124.0
112.501656 168.0
112.563828 128.0
112.593391 112.0
112.614517 156.0
112.800461 148.0
112.930573 276.0
112.980209 160.0
113.075432 96.0
113.139175 172.0
113.238457 116.0
113.363449 184.0
113.407356 156.0
113.45459 80.0
113.475792 64.0
113.639107 196.0
113.653961 208.0
113.777061 164.0
113.791924 176.0
114.051521 460.0
114.159523 164.0
114.257362 200.0
114.365891 132.0
114.434013 244.0
114.519196 168.0
114.721626 176.0
114.754768 176.0
114.951973 228.0
114.973312 200.0
115.082184 148.0
115.272285 124.0
115.287247 68.0
115.32785 152.0
115.381294 208.0
115.434746 104.0
115.616585 172.0
115.762161 152.0
115.790001 76.0
115.93438 192.0
115.989265 112.0
116.064301 144.0
116.112213 140.0
116.280968 44.0
116.338921 164.0
116.38765 136.0
116.478508 44.0
116.58593 132.0
116.631065 60.0
116.826752 56.0
116.920265 104.0
116.929276 148.0
116.934898 200.0
116.970932 112.0
117.309128 164.0
117.393219 56.0
117.529167 164.0
117.706116 164.0
117.98484 48.0
118.014023 156.0
118.036728 200.0
118.060135 200.0
118.092957 164.0
118.116753 104.0
118.155685 172.0
118.255226 168.0
118.281204 256.0
118.350479 188.0
118.369972 56.0
118.393791 208.0
118.428444 140.0
118.59005 116.0
118.616959 176.0
118.6343 88.0
118.686333 156.0
118.760071 100.0
118.809959 124.0
118.82515 228.0
118.849014 132.0
119.007462 132.0
119.042206 252.0
119.155151 96.0
119.187744 140.0
119.409485 176.0
119.488037 216.0
119.552139 216.0
119.792572 76.0
119.953827 56.0
119.969093 236.0
120.027954 84.0
120.045403 160.0
120.078705 168.0
120.213371 92.0
120.261391 228.0
120.468834 216.0
120.575897 60.0
120.750801 200.0
120.851425 100.0
120.877686 140.0
120.908325 168.0
120.952095 152.0
121.037483 116.0
121.21637 120.0
121.324501 224.0
121.467041 200.0
121.677719 76.0
121.721626 88.0
121.805084 124.0
122.021431 188.0
122.061111 228.0
122.277817 40.0
122.354858 164.0
122.409904 188.0
122.775726 180.0
122.855133 72.0
122.952217 88.0
122.976494 192.0
123.018433 148.0
123.111168 132.0
123.143265 120.0
123.256966 220.0
123.27906 224.0
123.526695 160.0
123.628471 56.0
123.67495 176.0
123.785645 156.0
123.826813 196.0
123.973495 160.0
124.255539 200.0
124.439758 200.0
124.688545 44.0
124.850845 156.0
124.866409 140.0
125.168137 96.0
125.238106 196.0
125.427498 152.0
125.452019 168.0
125.559052 204.0
125.916138 120.0
126.007721 140.0
126.053276 124.0
126.244659 104.0
126.348312 200.0
126.42363 176.0
126.472862 272.0
126.683357 164.0
126.781944 188.0
126.820045 168.0
126.835732 164.0
126.858147 136.0
126.936623 124.0
126.954559 80.0
126.974747 32.0
127.064468 172.0
127.125053 200.0
127.211487 220.0
127.286682 112.0
127.367531 180.0
127.482117 60.0
127.675446 140.0
127.700188 144.0
127.765419 56.0
128.070053 1012.0
128.116623 232.0
128.16394 104.0
128.242813 136.0
128.304932 168.0
128.387833 136.0
128.470383 160.0
128.53598 180.0
128.653351 116.0
128.693985 104.0
128.759476 188.0
128.92157 144.0
128.949265 100.0
129.06839 128.0
129.102997 116.0
129.141434 48.0
129.166321 152.0
129.225143 52.0
129.261337 72.0
129.354141 80.0
129.480942 144.0
129.51265 80.0
129.638336 108.0
129.662186 120.0
129.705933 144.0
129.727921 140.0
129.850952 216.0
129.89119 176.0
129.963455 196.0
129.993286 148.0
130.036407 152.0
130.068176 256.0
130.287521 232.0
130.390701 228.0
130.518005 180.0
130.532776 144.0
130.589279 164.0
130.729553 160.0
130.923065 204.0
131.014175 128.0
131.032394 92.0
131.048355 144.0
131.070999 312.0
131.109879 156.0
131.150894 156.0
131.180527 140.0
131.203323 184.0
131.356705 156.0
131.410873 220.0
131.447372 112.0
131.518127 140.0
131.561493 168.0
131.675674 196.0
131.783035 144.0
131.804062 156.0
131.831024 192.0
131.932205 104.0
131.991043 112.0
132.049713 176.0
132.079086 304.0
132.100815 68.0
132.370895 216.0
132.446472 152.0
132.653641 312.0
132.914154 156.0
132.969238 184.0
133.015137 176.0
133.049957 204.0
133.086304 148.0
133.315384 132.0
133.426346 172.0
133.518326 148.0
133.617233 144.0
133.636108 204.0
133.716187 148.0
133.796234 164.0
133.81517 84.0
134.058426 416.0
134.089294 180.0
134.15152 104.0
134.294479 96.0
134.386765 216.0
134.402908 160.0
134.444458 160.0
134.476761 168.0
134.753876 320.0
134.848618 148.0
134.874039 56.0
134.954956 112.0
134.978073 208.0
135.005829 140.0
135.054031 128.0
135.130737 160.0
135.174698 124.0
135.240967 240.0
135.267273 100.0
135.480331 120.0
135.575317 132.0
135.628632 52.0
135.65181 68.0
135.737595 160.0
135.974228 168.0
136.013672 148.0
136.071716 132.0
136.099579 148.0
136.164597 160.0
136.183182 72.0
136.264481 88.0
136.303986 196.0
136.444778 168.0
136.496918 76.0
136.522491 148.0
136.580643 64.0
136.61554 224.0
136.710938 232.0
136.74585 144.0
136.778793 204.0
136.871552 140.0
136.962387 228.0
137.018295 320.0
137.039825 512.0
137.206818 152.0
137.302673 116.0
137.356308 144.0
137.409973 224.0
137.434906 128.0
137.643372 60.0
137.757828 172.0
137.96347 116.0
138.007126 172.0
138.042969 176.0
138.089737 192.0
138.171616 188.0
138.262863 112.0
138.398636 92.0
138.582306 184.0
138.686798 100.0
138.81105 116.0
138.827469 156.0
138.985535 260.0
139.012787 172.0
139.03331 372.0
139.097275 96.0
139.113708 188.0
139.143417 120.0
139.162735 200.0
139.171661 176.0
139.200577 192.0
139.219376 172.0
139.252243 44.0
139.273392 180.0
139.386154 116.0
139.506027 104.0
139.76474 224.0
139.931534 184.0
140.036835 164.0
140.11084 256.0
140.169739 200.0
140.195663 152.0
140.221588 108.0
140.252457 128.0
140.372345 152.0
140.455017 172.0
140.665024 164.0
140.705154 56.0
140.882278 132.0
140.903549 244.0
141.050201 768.0
141.08316 148.0
141.140198 216.0
141.173004 176.0
141.239227 148.0
141.345901 132.0
141.402481 36.0
141.452194 120.0
141.478226 132.0
141.544525 144.0
141.589523 132.0
141.639252 156.0
141.679535 164.0
141.698486 120.0
141.757721 148.0
141.899933 156.0
142.05069 176.0
142.06842 156.0
142.229691 156.0
142.260834 196.0
142.419647 188.0
142.443741 108.0
142.476654 172.0
142.569321 212.0
142.744995 176.0
142.776154 172.0
142.827545 152.0
142.849884 168.0
142.949814 176.0
142.985504 180.0
143.054535 100.0
143.071854 364.0
143.231979 172.0
143.249802 116.0
143.416611 156.0
143.490509 152.0
143.564423 124.0
143.702774 160.0
143.793457 120.0
143.829254 172.0
143.874619 164.0
143.984451 232.0
144.034103 172.0
144.089966 164.0
144.197083 184.0
144.268799 176.0
144.352478 204.0
144.500778 112.0
144.555817 204.0
144.630005 168.0
144.720978 316.0
144.820496 144.0
144.96051 124.0
145.056381 128.0
145.082748 160.0
145.157074 176.0
145.233826 128.0
145.368179 232.0
145.392166 176.0
145.411377 148.0
145.468979 148.0
145.865341 132.0
145.882156 112.0
145.990356 136.0
146.016815 64.0
146.058365 2468.0
146.100998 264.0
146.201263 160.0
146.317596 140.0
146.363342 148.0
146.469315 140.0
146.621109 108.0
146.674133 152.0
146.722351 124.0
146.850143 156.0
146.997314 208.0
147.035919 276.0
147.06311 376.0
147.093857 68.0
147.144547 196.0
147.197662 164.0
147.222733 148.0
147.265289 172.0
147.349136 356.0
147.388489 232.0
147.41507 96.0
147.50209 80.0
147.622971 136.0
147.777786 120.0
147.821335 152.0
147.845535 144.0
147.886673 172.0
147.920563 128.0
147.944778 152.0
148.000458 168.0
148.024673 164.0
148.075012 11712.0
148.186966 172.0
148.2052 76.0
148.234009 216.0
148.294205 172.0
148.363876 164.0
148.422073 100.0
148.451172 104.0
148.497253 76.0
148.5215 136.0
148.543335 144.0
148.635529 64.0
148.754456 116.0
148.795715 244.0
148.812714 184.0
148.926849 184.0
149.02002 136.0
149.051056 164.0
149.078171 1072.0
149.184433 128.0
149.269531 300.0
149.293335 180.0
149.381409 160.0
149.498199 92.0
149.551743 56.0
149.70755 152.0
149.85614 140.0
149.875366 144.0
149.899994 156.0
150.012115 128.0
150.029175 204.0
150.074692 120.0
150.098541 124.0
150.158417 160.0
150.226715 76.0
150.277939 68.0
150.29747 212.0
150.377991 132.0
150.57576 132.0
150.648193 208.0
150.668579 124.0
150.739441 176.0
150.842087 120.0
150.932541 148.0
151.098862 164.0
151.118439 156.0
151.189407 112.0
151.299545 64.0
151.412186 80.0
151.523193 180.0
151.605728 188.0
151.681702 272.0
151.723373 104.0
151.939194 228.0
152.077286 192.0
152.253387 212.0
152.292679 216.0
152.368835 148.0
152.403229 256.0
152.454834 84.0
152.491699 116.0
152.653961 192.0
152.693314 100.0
152.808929 304.0
152.835983 144.0
152.858139 160.0
152.94812 156.0
153.04303 176.0
153.094452 108.0
153.131393 88.0
153.165878 40.0
153.23082 144.0
153.34082 152.0
153.442123 128.0
153.459152 208.0
153.525726 104.0
153.679672 244.0
153.76503 196.0
153.789429 172.0
153.839081 112.0
153.89093 56.0
154.006989 180.0
154.029221 184.0
154.053925 56.0
154.083572 56.0
154.110748 152.0
154.162643 72.0
154.194168 152.0
154.271393 108.0
154.424698 40.0
154.491486 216.0
154.664703 184.0
154.85289 124.0
154.942062 68.0
155.026306 204.0
155.14032 168.0
155.164352 168.0
155.214706 216.0
155.415619 184.0
155.611694 140.0
155.63652 136.0
155.676254 88.0
155.862564 220.0
155.927826 56.0
155.983047 172.0
156.036545 188.0
156.053955 92.0
156.07695 208.0
156.449539 64.0
156.469452 124.0
156.567673 180.0
156.606415 184.0
156.662384 164.0
156.691101 44.0
156.753403 272.0
156.873032 132.0
156.892975 176.0
157.038925 136.0
157.069183 224.0
157.14238 248.0
157.254669 176.0
157.373856 172.0
157.511856 200.0
157.591797 92.0
157.6754 144.0
157.75174 120.0
157.886765 136.0
157.929276 132.0
158.058487 688.0
158.171997 96.0
158.249603 76.0
158.33223 108.0
158.364792 144.0
158.439941 200.0
158.500076 120.0
158.525131 120.0
158.557709 168.0
158.584518 156.0
158.688065 216.0
158.710632 144.0
158.741653 212.0
158.773315 76.0
158.792282 180.0
158.822845 188.0
158.907898 172.0
159.041061 43344.0
159.129059 60.0
159.157166 108.0
159.197449 68.0
159.277679 76.0
159.284927 124.0
159.323029 244.0
159.348557 124.0
159.390503 84.0
159.452179 96.0
159.473801 44.0
159.514023 40.0
159.561783 92.0
159.611237 36.0
159.637894 192.0
159.666351 116.0
159.684998 56.0
159.707642 92.0
159.729828 112.0
159.853607 180.0
159.926315 184.0
159.964294 92.0
159.994415 212.0
160.043472 3372.0
160.075363 9824.0
160.11467 200.0
160.148117 100.0
160.178345 116.0
160.248871 72.0
160.279114 232.0
160.311874 52.0
160.338623 76.0
160.411514 132.0
160.432861 176.0
160.4505 140.0
160.483276 212.0
160.591721 156.0
160.639648 84.0
160.677826 176.0
160.705246 96.0
160.86676 144.0
160.971252 176.0
160.989639 144.0
161.020782 152.0
161.042984 212.0
161.077316 512.0
161.2229 72.0
161.266678 148.0
161.311356 200.0
161.374557 48.0
161.420074 156.0
161.437836 156.0
161.478241 108.0
161.518707 108.0
161.592072 92.0
161.708481 120.0
161.746445 176.0
161.781891 88.0
161.829208 156.0
161.904404 236.0
161.959137 96.0
161.987 176.0
162.056229 172.0
162.09082 796.0
162.128891 168.0
162.166916 40.0
162.215073 212.0
162.278458 152.0
162.306976 80.0
162.354523 84.0
162.372284 140.0
162.425537 196.0
162.443298 108.0
162.737686 184.0
162.783401 132.0
162.874832 164.0
162.907852 112.0
162.938339 176.0
163.039978 180.0
163.095352 304.0
163.197586 168.0
163.250977 180.0
163.485016 184.0
163.515564 104.0
163.589371 236.0
163.701401 160.0
163.759979 208.0
163.856781 168.0
163.874619 108.0
163.945969 212.0
163.984192 144.0
164.111649 224.0
164.155609 220.0
164.18306 140.0
164.257019 164.0
164.509644 140.0
164.578583 108.0
164.683289 180.0
164.785477 256.0
164.821243 196.0
164.874908 140.0
164.989929 136.0
165.03595 180.0
165.069199 180.0
165.322449 160.0
165.481155 36.0
165.606628 152.0
165.632248 52.0
165.660416 176.0
165.699127 184.0
165.742401 72.0
165.780838 80.0
165.944901 136.0
166.001312 132.0
166.019257 40.0
166.103775 176.0
166.271362 180.0
166.287781 144.0
166.360504 160.0
166.483749 116.0
166.514572 60.0
166.544266 180.0
166.717529 188.0
166.802353 176.0
167.018341 152.0
167.180435 180.0
167.283661 152.0
167.46106 100.0
167.649124 184.0
167.729034 128.0
167.944626 228.0
168.059128 192.0
168.076782 148.0
168.108154 56.0
168.167511 140.0
168.268188 108.0
168.327576 136.0
168.366318 148.0
168.459854 132.0
168.508392 40.0
168.541977 72.0
168.581177 164.0
168.683182 144.0
168.770477 268.0
168.797882 112.0
168.865128 104.0
168.890991 216.0
168.929779 136.0
168.968597 100.0
169.004822 132.0
169.343933 216.0
169.53566 196.0
169.784531 172.0
169.813065 148.0
170.059555 160.0
170.215317 88.0
170.347397 136.0
170.394531 140.0
170.52446 152.0
170.820892 112.0
171.190475 116.0
171.226929 72.0
171.292053 112.0
171.502487 184.0
171.557846 76.0
171.776581 160.0
171.800385 124.0
171.836899 96.0
171.938675 124.0
172.074051 344.0
172.118805 132.0
172.238937 136.0
172.296402 96.0
172.385239 204.0
172.450577 188.0
172.578674 148.0
172.612671 124.0
172.793198 176.0
172.931839 68.0
173.03479 168.0
173.0569 108.0
173.083511 148.0
173.107239 144.0
173.196289 164.0
173.35611 104.0
173.523865 56.0
173.675964 188.0
173.791382 152.0
173.914734 160.0
174.090302 2204.0
174.154907 76.0
174.24823 80.0
174.384888 64.0
174.496704 196.0
174.522217 132.0
174.582062 120.0
174.65834 184.0
174.69516 84.0
174.715332 60.0
174.768829 172.0
174.787247 136.0
174.968857 76.0
175.093079 376.0
175.166367 112.0
175.374527 124.0
175.429886 220.0
175.457214 48.0
175.486343 192.0
175.566986 104.0
175.606552 100.0
175.754288 176.0
175.817612 100.0
175.962265 220.0
176.077194 200.0
176.129166 132.0
176.181992 204.0
176.232193 104.0
176.339844 172.0
176.586426 120.0
176.694885 116.0
176.92514 44.0
177.007217 192.0
177.049576 196.0
177.102554 100.0
177.282715 116.0
177.433792 132.0
177.452362 204.0
177.518646 188.0
177.563736 148.0
177.616776 120.0
177.65239 180.0
177.768005 168.0
177.839661 108.0
177.937881 204.0
178.028168 140.0
178.081284 260.0
178.107834 108.0
178.320404 128.0
178.392166 140.0
178.419327 92.0
178.455978 76.0
178.493195 72.0
178.567657 156.0
178.594254 160.0
178.626175 176.0
178.745911 72.0
178.796463 252.0
178.815094 164.0
178.865662 180.0
178.889618 64.0
178.958847 148.0
179.123962 156.0
179.16925 156.0
179.190567 140.0
179.245514 308.0
179.289154 136.0
179.36911 200.0
179.467758 192.0
179.569092 280.0
179.742493 164.0
179.801208 128.0
179.915985 104.0
179.985397 64.0
180.102905 60.0
180.137634 72.0
180.217773 96.0
180.367432 128.0
180.426254 160.0
180.498444 160.0
180.5439 148.0
180.599991 156.0
180.731155 184.0
180.771286 104.0
180.881027 132.0
181.044342 160.0
181.119339 172.0
181.274734 164.0
181.572296 116.0
181.593765 112.0
181.704605 200.0
181.743988 64.0
181.862061 172.0
182.071487 176.0
182.114456 160.0
182.159836 160.0
182.221909 44.0
182.289093 164.0
182.313278 172.0
182.522949 172.0
182.568665 148.0
182.630524 96.0
182.705841 128.0
182.791946 156.0
182.91037 156.0
183.066513 76.0
183.104218 124.0
183.201187 148.0
183.273941 204.0
183.490097 160.0
183.531754 148.0
183.686417 128.0
183.718796 128.0
183.740372 228.0
183.761963 48.0
183.881042 124.0
183.937378 148.0
184.021057 128.0
184.076401 424.0
184.169586 216.0
184.229019 236.0
184.310074 104.0
184.47493 140.0
184.602005 232.0
184.841476 168.0
185.045776 120.0
185.072845 176.0
185.110748 168.0
185.25972 124.0
185.31662 92.0
185.536148 224.0
185.808075 196.0
186.035309 184.0
186.078751 180.0
186.100479 200.0
186.171066 160.0
186.293304 168.0
186.358505 52.0
186.469925 136.0
186.529709 112.0
186.850616 152.0
186.921356 208.0
186.94313 200.0
187.032944 168.0
187.062881 184.0
187.103714 96.0
187.136383 108.0
187.479614 104.0
187.564102 132.0
187.847687 124.0
187.929703 204.0
188.065994 164.0
188.205215 156.0
188.289871 64.0
188.523621 164.0
188.552139 168.0
188.598618 60.0
188.631409 232.0
188.866577 52.0
188.991318 160.0
189.05809 128.0
189.101776 4828.0
189.216843 128.0
189.238754 60.0
189.352631 56.0
189.376312 52.0
189.490723 28.0
189.523605 128.0
189.595917 144.0
189.636917 276.0
189.657898 228.0
189.731903 40.0
189.756577 72.0
189.833359 212.0
189.885468 132.0
190.105164 808.0
190.170807 112.0
190.275116 156.0
190.310806 124.0
190.395874 176.0
190.434387 236.0
190.489319 172.0
190.519608 160.0
190.56813 204.0
190.615707 92.0
190.640442 120.0
190.673416 56.0
190.698151 44.0
190.732666 136.0
190.754028 160.0
190.777588 136.0
190.8246 40.0
190.866928 152.0
190.896103 156.0
190.923599 140.0
190.981827 164.0
191.003357 128.0
191.045044 180.0
191.083542 324.0
191.117538 44808.0
191.152985 136.0
191.161148 308.0
191.195953 104.0
191.217972 76.0
191.257965 68.0
191.341843 92.0
191.369385 40.0
191.390686 224.0
191.421692 228.0
191.451981 112.0
191.471268 92.0
191.532471 56.0
191.572632 60.0
191.602036 84.0
191.628281 68.0
191.650314 64.0
191.669617 136.0
191.758942 176.0
191.796387 144.0
191.833893 152.0
191.89563 52.0
191.917679 196.0
192.000412 72.0
192.025238 44.0
192.065445 200.0
192.121567 6816.0
192.218185 144.0
192.229065 136.0
192.256973 68.0
192.295624 144.0
192.325974 76.0
192.345306 60.0
192.396271 200.0
192.499908 44.0
192.530289 60.0
192.549622 52.0
192.758514 104.0
192.795502 108.0
192.910812 100.0
192.99176 100.0
193.080261 108.0
193.124527 272.0
193.148346 136.0
193.179825 72.0
193.209732 208.0
193.315399 72.0
193.354141 124.0
193.379059 80.0
193.398438 208.0
193.439957 132.0
193.46521 64.0
193.53685 112.0
193.563736 124.0
193.5867 176.0
193.673141 132.0
193.700256 48.0
193.805527 44.0
193.924683 36.0
193.958344 84.0
193.999527 228.0
194.124298 160.0
194.243561 168.0
194.324005 152.0
194.401703 208.0
194.471085 112.0
194.587677 48.0
194.623779 280.0
194.698746 156.0
194.815414 144.0
194.853867 176.0
194.9599 140.0
195.029373 156.0
195.093307 96.0
195.148911 92.0
195.351944 88.0
195.399231 48.0
195.452103 104.0
195.472992 136.0
195.5495 196.0
195.802856 60.0
195.942139 188.0
195.962143 132.0
195.983932 180.0
196.022934 176.0
196.081451 160.0
196.184586 176.0
196.293335 196.0
196.55275 112.0
196.616928 100.0
196.791809 124.0
196.829102 140.0
196.876572 184.0
196.968735 80.0
197.172699 120.0
197.217422 192.0
197.245377 208.0
197.311905 180.0
197.421509 104.0
197.589737 144.0
197.62291 88.0
197.650894 56.0
197.726456 156.0
198.012024 212.0
198.040039 116.0
198.087296 316.0
198.112869 124.0
198.194107 96.0
198.236145 140.0
198.603409 136.0
198.782974 96.0
198.945755 148.0
199.013138 180.0
199.060883 148.0
199.097382 180.0
199.209732 156.0
199.335907 132.0
199.363449 124.0
199.645401 176.0
199.743835 140.0
199.814163 248.0
199.859375 172.0
200.016785 84.0
200.061829 128.0
200.112503 216.0
200.21106 76.0
200.433594 120.0
200.554779 116.0
200.684464 88.0
200.879059 232.0
200.991913 92.0
201.076569 244.0
201.582077 140.0
201.655563 140.0
201.706436 152.0
201.921326 92.0
201.997299 116.0
202.020325 136.0
202.054276 128.0
202.08287 964.0
202.16745 56.0
202.205856 232.0
202.57518 168.0
202.737732 192.0
202.799026 176.0
202.841537 32.0
202.906754 80.0
203.034348 152.0
203.086716 156.0
203.116714 628.0
203.417389 132.0
203.513916 56.0
203.641708 136.0
203.687149 168.0
203.721237 36.0
203.851944 112.0
203.92868 112.0
204.096405 176.0
204.252823 160.0
204.360931 60.0
204.674026 88.0
204.713882 168.0
205.089966 188.0
205.313385 188.0
205.337433 172.0
205.400757 104.0
205.8974 120.0
205.937378 108.0
206.068787 132.0
206.694977 40.0
206.845474 144.0
207.027039 168.0
207.049942 80.0
207.158798 132.0
207.405228 56.0
207.582977 120.0
207.676697 124.0
207.809586 52.0
207.921494 88.0
207.987503 128.0
208.007599 176.0
208.159775 104.0
208.222946 244.0
208.274109 108.0
208.444153 64.0
208.536118 192.0
208.722977 100.0
208.774734 208.0
208.838013 168.0
208.978775 136.0
209.039398 92.0
209.143005 188.0
209.212097 204.0
209.320236 236.0
209.33223 132.0
209.336884 200.0
209.451111 180.0
209.71907 64.0
209.762314 160.0
209.848801 108.0
209.992981 260.0
210.376755 168.0
210.477814 156.0
210.529785 144.0
210.555786 136.0
210.700211 208.0
211.096191 184.0
211.168503 220.0
211.214767 248.0
211.261215 144.0
211.327606 124.0
211.399933 140.0
211.559128 180.0
211.750244 92.0
211.973312 168.0
212.045761 88.0
212.074738 168.0
212.161713 156.0
212.286377 152.0
212.361786 176.0
212.460419 84.0
212.579376 64.0
212.683853 68.0
212.823212 100.0
213.097305 196.0
213.134003 176.0
213.223755 172.0
213.583206 148.0
213.636978 84.0
213.680618 220.0
213.764999 76.0
213.872681 36.0
213.945465 152.0
214.029892 124.0
214.088638 116.0
214.131821 144.0
214.210464 136.0
214.286209 140.0
214.385284 208.0
214.53685 124.0
214.662216 132.0
214.80513 128.0
214.828476 128.0
214.913071 164.0
215.018127 172.0
215.117401 420.0
215.152405 120.0
215.558395 152.0
215.605148 144.0
215.637299 140.0
215.81134 172.0
215.985245 224.0
216.02034 116.0
216.060776 416.0
216.098785 108.0
216.128586 172.0
216.351028 44.0
216.438858 160.0
216.538437 196.0
216.623367 112.0
216.711258 100.0
216.819687 132.0
217.064896 180.0
217.094986 544.0
217.129532 396.0
217.300583 104.0
217.33287 188.0
217.406799 180.0
217.488403 180.0
217.726227 92.0
217.74971 144.0
217.8349 120.0
217.884842 140.0
218.048843 192.0
218.056183 156.0
218.10524 120.0
218.393387 52.0
218.496353 204.0
218.527084 160.0
218.667023 156.0
218.911377 200.0
218.974716 204.0
219.085144 108.0
219.147018 176.0
219.285522 116.0
219.497787 116.0
219.668839 28.0
219.689499 100.0
219.763245 128.0
219.931458 168.0
220.064301 176.0
220.105652 128.0
220.235596 100.0
220.36557 200.0
220.418762 120.0
220.557663 120.0
221.113708 164.0
221.175873 156.0
221.198364 120.0
221.258759 180.0
221.380157 136.0
221.557877 172.0
221.634903 112.0
222.085526 120.0
222.213089 116.0
222.483154 120.0
222.524719 136.0
222.557373 164.0
222.593018 116.0
222.711807 76.0
222.895996 148.0
223.1427 64.0
223.205139 140.0
223.556519 144.0
223.630569 100.0
224.074265 136.0
224.202393 156.0
224.270935 228.0
224.330566 188.0
224.554199 68.0
224.906265 76.0
225.09436 184.0
225.127197 44.0
225.228745 100.0
225.282516 196.0
225.324341 196.0
225.387085 124.0
225.434906 176.0
225.500641 132.0
225.614243 220.0
225.75177 100.0
225.907303 140.0
226.018005 148.0
226.076523 164.0
226.140701 176.0
226.183945 72.0
226.296371 144.0
226.607697 148.0
226.706741 44.0
226.805649 176.0
226.976532 124.0
227.029312 180.0
227.078491 132.0
227.116516 2236.0
227.166077 40.0
227.207489 180.0
227.267487 140.0
227.378525 184.0
227.459564 144.0
227.531601 164.0
227.645706 96.0
227.750824 216.0
227.904037 224.0
227.925064 72.0
228.048584 200.0
228.120667 364.0
228.195587 132.0
228.463257 152.0
228.488632 228.0
228.523422 208.0
228.595642 120.0
228.66185 32.0
228.797302 160.0
228.83075 128.0
228.854507 176.0
229.135208 328.0
229.231033 128.0
229.285278 44.0
229.600937 176.0
229.686279 52.0
229.773758 124.0
229.897476 152.0
229.981979 208.0
230.078537 344.0
230.102737 244.0
230.128632 100.0
230.163116 184.0
230.253723 108.0
230.39267 164.0
230.519562 140.0
230.576981 52.0
230.973068 204.0
231.006348 152.0
231.080215 296.0
231.18486 116.0
231.218155 112.0
231.308945 140.0
231.360413 100.0
231.439133 40.0
231.590546 44.0
231.726868 164.0
231.81778 76.0
231.966293 120.0
232.216202 152.0
232.263458 128.0
232.412109 200.0
232.79155 180.0
232.849243 180.0
233.086197 196.0
233.156097 112.0
233.326309 272.0
233.450989 128.0
233.539185 116.0
233.63652 144.0
233.761276 208.0
234.00174 148.0
234.16008 140.0
234.214905 80.0
234.403793 148.0
234.434265 52.0
234.72612 168.0
234.778748 68.0
234.851959 216.0
235.004486 132.0
235.428787 40.0
235.538742 88.0
235.844299 204.0
235.884033 128.0
236.055344 136.0
236.307556 280.0
236.477432 184.0
236.529465 132.0
236.563141 236.0
236.596817 156.0
236.648865 180.0
236.826477 172.0
236.979202 136.0
236.99823 132.0
237.058609 120.0
237.313736 168.0
237.454803 144.0
237.755463 188.0
237.801498 144.0
237.884369 204.0
237.979538 144.0
238.069901 764.0
238.252884 104.0
238.640137 72.0
238.686249 156.0
239.003082 196.0
239.07077 208.0
239.095398 200.0
239.360138 64.0
239.532608 152.0
239.859253 116.0
239.954819 120.0
240.022644 84.0
240.069168 140.0
240.096649 156.0
240.534302 180.0
240.587265 72.0
240.630493 44.0
240.956909 220.0
240.964691 152.0
241.158722 140.0
241.325668 100.0
241.353485 164.0
241.37822 156.0
241.490479 152.0
241.576172 188.0
241.703018 276.0
241.88562 152.0
242.081116 160.0
242.158096 112.0
242.238632 76.0
242.275803 168.0
242.365662 88.0
242.396637 96.0
242.452423 64.0
242.601196 204.0
242.678711 60.0
242.815155 116.0
242.846176 60.0
242.909637 104.0
242.948532 152.0
243.116089 64.0
243.224716 148.0
243.246445 176.0
243.30658 184.0
243.616974 152.0
243.658676 220.0
243.793091 152.0
243.832169 188.0
243.89183 160.0
243.931686 252.0
243.970261 112.0
244.014526 84.0
244.05658 136.0
244.082184 188.0
244.102646 148.0
244.206329 100.0
244.245865 140.0
244.258606 88.0
244.266434 116.0
244.306122 96.0
244.363678 200.0
244.418671 68.0
244.443024 120.0
244.476685 308.0
244.530151 32.0
244.551941 136.0
244.655823 268.0
244.696518 108.0
244.724915 192.0
244.747345 136.0
244.752747 64.0
244.797714 200.0
244.806778 140.0
244.813919 220.0
244.857437 136.0
244.900375 224.0
244.93689 332.0
244.975464 204.0
245.000092 148.0
245.046371 476.0
245.081787 808.0
245.128494 120004.0
245.20723 296.0
245.237625 356.0
245.286774 124.0
245.335358 192.0
245.365112 96.0
245.389099 64.0
245.401825 84.0
245.47435 152.0
245.534256 56.0
245.56868 124.0
245.60907 64.0
245.641541 932.0
245.694275 152.0
245.722626 124.0
245.756027 84.0
245.785599 32.0
245.819977 32.0
245.876541 56.0
245.900177 56.0
245.982269 160.0
246.01123 68.0
246.056274 304.0
246.130829 21608.0
246.185608 116.0
246.20993 132.0
246.220352 64.0
246.227524 180.0
246.272507 112.0
246.296799 180.0
246.369003 116.0
246.404266 76.0
246.444885 132.0
246.485229 100.0
246.532379 64.0
246.612701 228.0
246.68132 104.0
246.705719 52.0
246.719528 64.0
246.73056 108.0
246.785568 40.0
246.905731 148.0
246.973709 124.0
247.005875 72.0
247.031769 100.0
247.080704 132.0
247.130707 2856.0
247.199921 188.0
247.281403 80.0
247.32991 104.0
247.359268 52.0
247.407623 176.0
247.42218 84.0
247.434357 132.0
247.481155 100.0
247.535065 92.0
247.554092 328.0
247.617966 116.0
247.645813 220.0
247.678513 256.0
247.761429 120.0
247.791245 88.0
247.845795 336.0
247.906326 116.0
247.944946 88.0
247.967682 180.0
247.99707 76.0
248.028778 244.0
248.04921 152.0
248.111176 148.0
248.134064 192.0
248.182037 124.0
248.203979 88.0
248.23848 56.0
248.432938 172.0
248.476868 52.0
248.514511 124.0
248.558441 68.0
248.624344 108.0
248.646301 92.0
248.686584 72.0
248.778137 36.0
248.8228 160.0
248.856277 140.0
248.905258 140.0
248.950531 124.0
248.986267 112.0
249.111008 72.0
249.378098 172.0
249.643539 56.0
249.815186 64.0
249.919006 240.0
250.088943 56.0
250.136154 36.0
250.170776 64.0
250.240051 184.0
250.299866 52.0
250.381744 40.0
250.844925 68.0
251.062469 52.0
251.359009 36.0
251.524506 128.0
251.565002 164.0
251.658875 204.0
251.706238 36.0
251.77887 196.0
251.819916 48.0
251.977859 88.0
252.233841 108.0
252.269547 200.0
252.502594 180.0
252.565857 92.0
252.677628 156.0
252.853775 64.0
252.942398 56.0
253.2052 176.0
253.444626 180.0
253.502991 244.0
253.572723 40.0
253.617096 228.0
253.677322 44.0
253.946838 56.0
253.997375 180.0
254.27681 44.0
254.626038 84.0
255.110596 876.0
255.236191 144.0
255.290253 112.0
255.360214 68.0
255.472748 64.0
255.81842 160.0
255.847076 92.0
255.948959 140.0
255.971252 116.0
256.07608 148.0
256.112671 180.0
256.19101 104.0
256.341949 108.0
256.417236 60.0
256.713745 56.0
256.74881 160.0
256.783905 108.0
256.937012 92.0
257.083771 84.0
257.118896 164.0
257.367889 76.0
257.623383 188.0
257.668121 100.0
257.779388 96.0
257.837463 144.0
257.987701 60.0
258.016479 136.0
258.07196 2988.0
258.403473 64.0
258.480255 52.0
258.54425 52.0
258.633881 72.0
258.713898 84.0
258.806732 88.0
258.832367 100.0
258.87616 136.0
259.075073 972.0
259.264832 96.0
259.325714 124.0
259.405853 172.0
259.880493 224.0
260.088318 260.0
260.172546 156.0
260.359619 108.0
260.538666 124.0
260.892181 60.0
261.030426 92.0
261.097961 96.0
261.178375 176.0
261.606354 164.0
261.934814 72.0
262.02179 128.0
262.49884 56.0
262.698792 132.0
262.847198 168.0
263.115112 92.0
263.518829 172.0
263.551117 60.0
263.851715 100.0
263.93576 128.0
264.045715 128.0
264.120117 112.0
264.207458 184.0
264.408081 80.0
264.472809 192.0
264.595825 140.0
265.204834 36.0
265.407593 152.0
265.538788 140.0
265.713959 92.0
265.986542 72.0
266.083923 148.0
266.307983 64.0
266.551666 120.0
266.580902 52.0
266.694641 128.0
266.818176 196.0
267.096222 128.0
267.644592 112.0
268.475555 140.0
268.82135 172.0
268.932312 92.0
269.079224 192.0
269.226135 28.0
269.366608 64.0
269.448273 44.0
269.47113 204.0
269.503815 92.0
270.187134 176.0
270.246033 112.0
270.740326 84.0
271.271118 92.0
271.303894 64.0
271.343231 112.0
271.36618 84.0
271.684296 188.0
271.897583 200.0
271.941223 188.0
272.094543 84.0
272.120819 124.0
272.158844 168.0
272.206177 124.0
272.245575 224.0
272.286072 144.0
272.329468 192.0
272.375305 192.0
272.399963 132.0
272.459076 160.0
272.488647 176.0
272.522095 156.0
272.546631 236.0
272.582245 116.0
272.655914 372.0
272.708832 80.0
272.751556 120.0
272.773468 192.0
272.8526 212.0
272.932373 124.0
272.978271 148.0
273.020447 328.0
273.062164 316.0
273.123108 146244.0
273.219818 84.0
273.254486 120.0
273.278229 108.0
273.300964 228.0
273.364838 228.0
273.423401 300.0
273.476379 164.0
273.513306 276.0
273.541748 72.0
273.575623 92.0
273.587952 140.0
273.633759 140.0
273.664825 448.0
273.702332 80.0
273.725403 96.0
273.770844 100.0
273.802826 164.0
273.855072 212.0
273.888641 112.0
273.932312 68.0
274.005646 128.0
274.035004 64.0
274.065247 68.0
274.125153 20556.0
274.215302 64.0
274.275574 36.0
274.301941 60.0
274.343536 52.0
274.399048 80.0
274.411438 60.0
274.535309 144.0
274.589722 172.0
274.651489 56.0
274.69696 96.0
274.723114 56.0
274.752686 112.0
274.776825 56.0
274.815033 76.0
274.850922 88.0
274.892334 48.0
274.915436 68.0
274.953674 136.0
275.006256 160.0
275.053925 124.0
275.065247 152.0
275.127991 2856.0
275.176178 168.0
275.205902 60.0
275.262024 96.0
275.295074 52.0
275.325623 96.0
275.355682 88.0
275.486633 60.0
275.558014 200.0
275.602264 92.0
275.638611 128.0
275.690948 152.0
275.703674 128.0
275.710114 176.0
275.758057 84.0
275.792572 152.0
275.847931 236.0
275.870789 132.0
275.911621 148.0
275.946014 40.0
276.023041 232.0
276.05072 192.0
276.080811 224.0
276.126465 256.0
276.163239 180.0
276.196106 184.0
276.243652 60.0
276.289703 52.0
276.31424 72.0
276.367706 136.0
276.465332 60.0
276.488495 136.0
276.637451 112.0
276.823212 116.0
276.90564 100.0
276.955322 124.0
276.998383 36.0
277.026703 80.0
277.040253 44.0
277.047882 68.0
277.069702 84.0
277.140839 112.0
277.177307 308.0
277.2005 108.0
277.409302 60.0
277.631439 144.0
277.717682 52.0
277.780701 100.0
277.84375 68.0
277.905945 176.0
278.022919 140.0
278.089294 48.0
278.135773 40.0
278.188873 68.0
278.441223 60.0
278.627014 60.0
278.903046 88.0
279.564911 76.0
279.62149 52.0
280.757538 84.0
280.877625 28.0
281.094482 144.0
281.672058 56.0
281.929352 52.0
282.330505 44.0
282.855072 108.0
283.085327 108.0
284.216461 60.0
284.817413 100.0
285.005554 116.0
285.476166 80.0
285.686218 148.0
286.098602 100.0
286.169312 136.0
286.465698 68.0
286.745361 124.0
286.977966 92.0
287.112823 168.0
287.207275 56.0
287.477173 68.0
287.689819 88.0
287.828247 64.0
288.020752 36.0
288.624725 56.0
288.791412 36.0
288.984222 68.0
289.217743 60.0
289.939148 28.0
290.27475 112.0
291.09256 80.0
291.247253 184.0
292.091797 104.0
292.182983 104.0
293.566528 128.0
294.61438 36.0
294.870667 48.0
295.106537 160.0
296.503174 72.0
297.034637 172.0
298.105835 108.0
298.490845 120.0
298.715607 88.0
301.521057 112.0
301.545258 92.0
301.773407 40.0
302.873901 124.0
303.379822 168.0
306.107666 148.0
307.836914 68.0
309.13385 168.0
309.806091 32.0
310.149506 104.0
311.788574 80.0
311.999481 64.0
312.579834 132.0
314.564087 60.0
315.864471 44.0
316.565247 36.0
316.784851 52.0
319.105865 220.0
321.035797 96.0
321.256958 48.0
323.5513 144.0
324.256958 72.0
327.029694 52.0
327.667084 132.0
329.098938 200.0
329.145966 340.0
330.15625 216.0
330.591858 136.0
340.600189 80.0
341.798706 60.0
342.158569 168.0
343.165436 128.0
343.537689 80.0
349.149292 68.0
350.135529 168.0
352.463318 100.0
353.300812 80.0
354.517731 88.0
355.935699 56.0
357.205994 96.0
358.685883 88.0
358.73111 48.0
362.17157 144.0
363.075592 168.0
363.11731 76.0
363.853455 32.0
364.031921 48.0
364.10788 112.0
366.477783 44.0
369.01593 44.0
370.15567 156.0
377.20462 80.0
378.040039 176.0
380.431488 136.0
381.138367 84.0
383.173279 160.0
384.510773 136.0
384.553711 64.0
385.311249 76.0
386.195282 140.0
386.398132 96.0
387.329834 108.0
388.709869 120.0
390.132446 168.0
390.146912 32.0
390.162079 164.0
390.812103 136.0
391.126923 148.0
391.178101 84.0
394.001709 68.0
394.98999 76.0
395.255066 48.0
395.848846 56.0
396.027069 52.0
396.526276 56.0
400.630951 48.0
402.585388 112.0
403.156647 112.0
403.924316 72.0
404.180359 112.0
405.794525 96.0
406.16748 108.0
408.175568 148.0
411.588562 52.0
416.168091 64.0
416.992737 92.0
418.583374 96.0
420.189331 68.0
420.732117 72.0
421.083282 184.0
422.239899 92.0
424.709656 48.0
426.565674 40.0
427.795654 96.0
428.177124 360.0
428.384521 36.0
428.763611 148.0
429.18988 164.0
430.184204 164.0
431.158539 304.0
433.251007 76.0
433.408447 116.0
434.026031 60.0
435.142181 52.0
443.104095 52.0
444.638824 112.0
445.272766 140.0
445.478577 192.0
446.331757 64.0
446.651398 92.0
447.287628 708.0
447.334717 124.0
447.682556 56.0
448.178894 508.0
448.293518 496.0
449.179749 248.0
449.292358 140.0
450.185303 100.0
451.07901 76.0
451.336884 56.0
452.051788 44.0
462.012512 112.0
464.647278 160.0
465.501434 36.0
467.651031 76.0
468.408844 48.0
468.589783 120.0
471.14386 60.0
475.769073 56.0
476.681183 92.0
482.994202 72.0
486.350616 72.0
486.495453 48.0
486.859894 76.0
486.960907 80.0
488.081543 52.0
488.767731 100.0
489.26947 60.0
491.429077 96.0
492.594574 28.0
496.507324 56.0
499.229645 144.0
500.190674 32.0
510.643036 68.0
511.2099 76.0
513.255005 64.0
513.656372 104.0
514.477661 72.0
515.466797 64.0
516.262451 76.0
523.482483 104.0
526.560791 48.0
527.259827 84.0
531.789429 96.0
538.289917 112.0
540.587402 100.0
541.652283 68.0
542.713562 96.0
545.513123 140.0
547.071472 124.0
550.615234 80.0
551.8255 124.0
552.358643 64.0
555.605042 96.0
559.190369 160.0
559.524597 60.0
564.015564 48.0
564.880859 48.0
565.604858 56.0
569.193787 92.0
569.388489 124.0
569.592712 60.0
571.147095 120.0
572.636841 64.0
573.45636 72.0
580.637573 52.0
585.987732 100.0
587.318237 36.0
588.654297 124.0
590.070862 80.0
590.346436 100.0
591.309204 44.0
594.236084 88.0
594.449585 48.0
596.513733 36.0
597.437683 64.0
597.768555 96.0
602.1073 124.0
604.052612 132.0
607.506226 48.0
611.757019 52.0
613.9151 48.0
620.015625 108.0
626.096497 72.0
635.318604 92.0
635.474182 52.0
636.759216 52.0
637.985291 104.0
644.198914 72.0
648.135071 124.0
657.298096 64.0
657.925903 60.0
664.286926 88.0
671.457092 80.0
685.042725 40.0
690.915771 40.0
703.961609 124.0
704.738098 96.0
716.298279 100.0
719.722168 92.0
730.521606 108.0
745.042297 88.0
747.521667 52.0
751.712219 48.0
771.86145 184.0
773.731628 68.0
784.526001 60.0
786.154663 52.0
788.282288 128.0
791.30835 68.0
804.751709 72.0
829.631775 68.0
834.385315 32.0
876.116089 32.0
876.504944 68.0
878.934326 184.0
880.126709 28.0
893.289795 172.0
894.283508 72.0
905.843628 108.0
906.310913 60.0
917.863892 144.0
921.878174 52.0
933.46875 84.0
938.163086 60.0
940.670288 48.0
942.276428 180.0
945.456116 60.0
946.368164 156.0
958.801392 64.0
969.610657 36.0
970.249084 120.0
976.527039 140.0
978.705078 128.0
985.847534 108.0
988.179871 40.0
991.147705 68.0
1017.671448 140.0
1036.295898 84.0
1046.714355 192.0
1047.216675 112.0
1051.465454 148.0
1057.955078 200.0
1058.181763 56.0
1060.734253 204.0
1067.583984 96.0
1073.144897 128.0
1076.544556 112.0
1092.873169 76.0
1103.988159 44.0
1107.482666 252.0
1113.133057 188.0
1115.817383 124.0
1116.615356 124.0
1131.051392 312.0
1131.830688 104.0
1133.237305 264.0
1135.429321 140.0
1137.536133 108.0
1139.92041 216.0
1141.157227 72.0
1142.12561 40.0
1142.865601 196.0
1145.282471 64.0
1146.710815 88.0
1148.753906 76.0
1151.507935 168.0
1163.249023 160.0
1166.129028 80.0
1166.394043 248.0
1170.006348 188.0
1173.324097 96.0
1174.585693 128.0
1175.424927 72.0
1177.09729 56.0
1177.834839 144.0
1179.522705 228.0
1182.80603 176.0
1184.237061 164.0
1185.223633 140.0
1195.654785 156.0
1202.588257 244.0
1205.322998 244.0
1206.899048 228.0
1207.52832 180.0
1208.787354 184.0
1211.016602 144.0
1217.577759 56.0
1218.814209 192.0
1223.536865 140.0
1223.982422 48.0
1224.511719 64.0
1225.159546 128.0
1230.641357 72.0
1231.898438 108.0
1236.324341 256.0
1238.256714 220.0
1257.111816 212.0
1261.102051 156.0
1261.250488 28.0
1272.507324 52.0
1273.054077 180.0
1275.192505 216.0
1279.545898 40.0
1279.745239 176.0
1288.825195 104.0
1289.318237 144.0
1289.875366 164.0
1290.805176 132.0
1295.084839 112.0
1300.598755 144.0
1302.013184 144.0
1303.011719 156.0
1306.174805 208.0
1319.111328 152.0
1320.579102 132.0
1322.814941 48.0
1325.610718 108.0
1326.661621 216.0
1326.828369 40.0
1328.119141 108.0
1330.82605 220.0
1331.290771 76.0
1332.431152 76.0
1339.662476 64.0
1341.31665 204.0
1344.555176 188.0
1344.91272 168.0
1346.811157 120.0
1349.529785 208.0
1350.553589 180.0
1351.629028 116.0
1351.855835 80.0
1353.341797 176.0
1353.649292 48.0
1355.216797 168.0
1355.480591 180.0
1356.997925 220.0
1362.017456 152.0
1362.193848 212.0
1365.538208 172.0
1366.178223 168.0
1366.339966 84.0
1367.819214 124.0
1369.660034 204.0
1369.807373 112.0
1369.991577 172.0
1370.356445 164.0
1372.246704 112.0
1373.758545 64.0
1380.294922 132.0
1389.138062 68.0
1389.635132 144.0
1391.83313 164.0
1396.052979 164.0
1396.171997 168.0
1396.365356 140.0
1398.969604 140.0
1399.952515 168.0
1404.633057 168.0
1405.006104 176.0
1405.192627 160.0
1405.543213 148.0
1408.193481 136.0
1409.373779 168.0
1409.575562 80.0
1409.792236 32.0
1413.261841 200.0
1413.478882 112.0
1413.905396 56.0
1414.796143 120.0
1414.885986 216.0
1415.110596 124.0
1418.129517 176.0
1419.614014 200.0
1421.039185 40.0
1424.845703 52.0
1425.386597 148.0
1425.965332 160.0
1427.50647 100.0
1427.581665 128.0
1428.476685 120.0
1429.883667 116.0
1431.268921 152.0
1431.413208 124.0
1436.997192 136.0
1437.157104 128.0
1439.231445 140.0
1439.918579 148.0
1442.041626 188.0
1442.47998 60.0
1444.2948 204.0
1445.308594 152.0
1446.035034 108.0
1446.171265 180.0
1454.789917 180.0
1455.184692 96.0
1457.432983 228.0
1458.025635 124.0
1458.762939 76.0
1462.749023 224.0
1464.964966 180.0
1466.61084 204.0
1468.547607 112.0
1469.317993 184.0
1470.714478 84.0
1471.913086 88.0
1472.165161 148.0
1472.653931 140.0
1473.402466 104.0
1475.381836 92.0
1478.112427 208.0
1479.436523 128.0
1480.301636 72.0
1480.431885 144.0
1481.764648 188.0
1482.308716 92.0
1482.783813 68.0
1483.205322 164.0
1483.573364 152.0
1484.59314 224.0
1485.797363 224.0
1486.380493 140.0
1489.420654 168.0
1495.133301 132.0
1495.26416 108.0
1495.9646 164.0
1499.122437 128.0
1500.379761 144.0
1500.440552 176.0
1501.180786 132.0
1502.515137 60.0
1503.055176 132.0
