>compound MLS001332469-01!D-Sphingosine123-78-4
>formula C18H37NO2
>ionization [M+H]+
>parentmass 300.291
#inchi InChI=1S/C18H37NO2/c1-2-3-4-5-6-7-8-9-10-11-12-13-14-15-18(21)17(19)16-20/h14-15,17-18,20-21H,2-13,16,19H2,1H3/b15-14+/t17-,18+/m0/s1
#inchikey WWUZIQQURGPMPG
#Ion_Source LC-ESI
#Instrument qTof
#Compound_Source NIH Pharmacologically Active Library
#PI Dorrestein
#Data_Collector VP/LMS
#Scan -1
#Precursor_MZ 300.291
#ExactMass 299.282
#Charge 1
#CAS_Number N/A
#Pubmed_ID N/A
#Smiles CCCCCCCCCCCCC/C=C/[C@@H](O)[C@@H](N)CO
#INCHI_AUX N/A
#Library_Class 1
#SpectrumID CCMSLIB00000084972
#IonMode Positive
#UpdateWorkflowName UPDATE-SINGLE-ANNOTATED-GOLD
#LibraryQualityString Gold
#TaskID d252d724072548979f1f6f1ced849daf
##Scan# 2268
#SpectrumFile p3-D04_GD4_01_18261.mzXML
#LibraryName Pharm_Active_Library.mgf
#MQScore -1
#Organism Pharm_Active_Library
#TIC_Query 0
#RT_Query -1
#MZErrorPPM -1
#SharedPeaks 0
#MassDiff 0
#LibMZ -1
#SpecMZ 300.291
#SpecCharge 0
#internalFilename spec-00000.mgf

>collision 10
46.448486 136.0
46.713387 92.0
47.289234 156.0
47.618301 128.0
48.17205 56.0
49.381416 60.0
49.449974 204.0
50.198807 124.0
50.43742 160.0
50.484077 152.0
50.670925 124.0
50.916336 188.0
51.577469 176.0
52.001453 152.0
52.267326 136.0
53.035664 116.0
53.134277 212.0
53.708916 168.0
54.151806 120.0
54.546524 68.0
54.695095 60.0
54.780506 268.0
55.205597 124.0
55.940063 148.0
56.523651 76.0
56.758831 176.0
57.331589 60.0
57.378319 192.0
58.192322 140.0
58.204468 104.0
58.374664 156.0
58.708176 116.0
58.86689 172.0
59.17271 148.0
59.217121 64.0
61.851116 196.0
62.790733 232.0
63.166668 108.0
63.328125 192.0
63.446972 224.0
64.152847 120.0
64.301193 168.0
64.345894 112.0
64.869041 188.0
66.060738 156.0
66.689911 176.0
67.189842 176.0
67.770279 128.0
68.052399 68.0
68.715706 180.0
69.00309 156.0
69.599586 164.0
69.62616 212.0
69.689285 120.0
70.155296 248.0
70.213661 80.0
71.256546 220.0
71.879555 180.0
71.982529 128.0
72.440887 212.0
72.528999 176.0
72.632439 132.0
73.019707 172.0
73.402885 88.0
73.747757 164.0
74.806137 196.0
75.482483 60.0
75.703987 44.0
76.029915 132.0
76.349579 188.0
76.92807 172.0
77.57534 48.0
78.551338 108.0
78.749031 208.0
79.976028 116.0
81.318298 200.0
81.620186 104.0
81.879326 52.0
82.232712 88.0
82.737045 144.0
82.773262 152.0
83.095901 136.0
83.510094 124.0
83.648384 176.0
84.05117 252.0
84.449432 144.0
84.978867 180.0
85.074303 212.0
85.280037 180.0
86.443787 160.0
86.469696 152.0
86.628937 116.0
86.669701 200.0
87.42363 132.0
87.893234 156.0
88.534431 180.0
88.628098 188.0
89.799301 132.0
91.052399 792.0
91.082634 140.0
91.095932 108.0
91.227058 180.0
91.691505 104.0
92.046341 172.0
92.153305 196.0
92.352127 52.0
92.830925 196.0
93.068665 892.0
93.420593 52.0
93.457146 148.0
93.563004 136.0
93.634254 100.0
93.715157 164.0
94.06382 972.0
94.613258 184.0
95.084435 1696.0
95.332886 140.0
95.435905 136.0
96.081299 1196.0
96.111809 88.0
96.254303 64.0
96.389091 60.0
97.065277 204.0
97.083641 316.0
97.102509 720.0
97.696877 180.0
98.067078 216.0
98.108475 156.0
98.617767 128.0
98.942184 160.0
99.078835 196.0
99.469513 52.0
99.537018 224.0
99.819191 104.0
100.076553 308.0
100.308975 124.0
101.049896 40.0
101.129944 36.0
102.268021 88.0
102.927261 176.0
103.058556 176.0
103.107056 144.0
103.748718 152.0
104.174889 140.0
104.620262 200.0
105.067169 124.0
105.902657 152.0
106.03788 128.0
106.065041 524.0
106.288078 200.0
106.46051 160.0
107.085609 1652.0
107.182564 48.0
107.227898 144.0
108.002174 232.0
108.08168 456.0
108.180138 148.0
108.219475 116.0
109.100975 1308.0
109.780609 188.0
109.967796 148.0
110.094025 468.0
110.110168 148.0
110.753983 88.0
111.078888 172.0
111.099869 184.0
111.116646 564.0
111.608139 176.0
111.93219 76.0
112.110374 144.0
112.166046 124.0
114.748222 96.0
115.100288 36.0
115.525612 68.0
115.656143 80.0
116.198318 80.0
116.931091 176.0
117.737419 140.0
117.854073 232.0
118.011856 156.0
118.860954 140.0
119.085625 104.0
119.169281 132.0
119.963661 48.0
120.081406 76.0
120.771606 144.0
121.102058 928.0
121.226997 132.0
121.531799 164.0
121.742531 168.0
122.105156 152.0
122.129349 36.0
122.624413 128.0
123.116394 140.0
123.152084 176.0
123.373062 152.0
123.585388 64.0
123.647346 148.0
124.110962 344.0
124.210136 68.0
124.569756 120.0
125.096794 164.0
125.132668 208.0
126.089386 172.0
128.111115 204.0
130.035416 164.0
130.114868 224.0
130.385178 208.0
130.526123 196.0
130.605713 228.0
131.501175 108.0
132.04953 84.0
132.379074 204.0
132.479858 168.0
132.697586 204.0
133.975418 124.0
134.099854 132.0
135.116592 1112.0
135.210785 144.0
135.502548 152.0
136.108734 92.0
137.128326 264.0
137.689148 132.0
137.95787 68.0
138.125061 136.0
138.334503 172.0
138.503098 156.0
139.108093 168.0
140.105209 128.0
140.140549 204.0
142.112503 148.0
142.653992 108.0
143.706665 64.0
144.684189 300.0
145.017151 124.0
145.583359 116.0
146.020752 240.0
147.18956 196.0
147.32724 108.0
148.142502 172.0
148.654099 40.0
149.129074 492.0
149.307587 60.0
149.40976 160.0
149.86261 40.0
149.908905 52.0
151.153503 220.0
151.533844 108.0
152.138596 212.0
153.971603 136.0
154.159683 184.0
154.824829 176.0
156.135223 272.0
156.17244 216.0
156.700272 132.0
158.634644 140.0
158.714874 44.0
158.822708 60.0
159.380035 92.0
159.42276 116.0
160.109558 224.0
160.21788 204.0
160.313629 96.0
161.960922 40.0
161.993851 124.0
162.047058 84.0
162.133209 140.0
163.008728 172.0
164.14151 240.0
164.192505 144.0
165.165527 168.0
165.523941 128.0
166.162033 152.0
169.477936 120.0
169.649002 188.0
169.737152 156.0
170.09259 240.0
170.12114 192.0
170.154892 168.0
170.190521 380.0
170.684937 100.0
170.906036 68.0
171.18457 128.0
173.077744 112.0
174.457809 136.0
174.605057 152.0
174.718155 144.0
175.437119 168.0
176.014938 132.0
176.688934 188.0
176.905945 152.0
178.027512 188.0
178.410126 212.0
178.894302 92.0
179.181931 204.0
180.175705 128.0
180.278595 192.0
180.682358 116.0
181.998352 112.0
182.858597 148.0
184.052841 68.0
184.204437 464.0
184.23381 184.0
184.674423 92.0
185.208817 480.0
186.49649 56.0
186.59436 60.0
187.094955 148.0
187.383636 128.0
188.330246 148.0
190.719559 160.0
191.17337 20.0
192.772827 132.0
193.187561 152.0
194.548264 192.0
194.766098 148.0
196.206345 136.0
198.218796 164.0
198.998581 188.0
199.018234 44.0
200.523254 180.0
201.172028 40.0
203.763351 132.0
203.894073 176.0
204.172684 140.0
205.554337 92.0
205.865494 148.0
206.194031 104.0
207.456345 180.0
208.121964 144.0
208.205139 296.0
208.808777 180.0
209.162689 108.0
209.33255 132.0
210.119446 188.0
210.142532 72.0
210.214951 280.0
210.592865 64.0
211.043686 148.0
211.204514 196.0
211.228775 120.0
211.263489 136.0
211.604996 212.0
211.894623 144.0
212.23204 356.0
212.909866 144.0
213.0522 104.0
213.145172 92.0
213.241074 144.0
214.638458 180.0
215.052719 208.0
215.397263 144.0
215.873672 124.0
216.271561 60.0
216.980484 140.0
220.216949 208.0
222.09996 152.0
222.223862 156.0
223.222595 124.0
223.276123 132.0
224.239059 260.0
224.601532 52.0
226.014633 180.0
226.251907 176.0
226.646439 76.0
226.715363 60.0
227.123123 140.0
227.14711 176.0
227.252121 180.0
227.291122 140.0
227.453186 136.0
229.942398 108.0
231.708344 148.0
233.511475 180.0
233.730515 176.0
234.744888 144.0
235.092651 144.0
235.749222 60.0
236.237564 224.0
237.092712 156.0
237.233704 160.0
237.880981 148.0
238.255508 340.0
240.228989 152.0
240.262924 148.0
241.640854 172.0
242.018448 148.0
242.684631 112.0
245.00943 128.0
246.041718 136.0
246.2603 144.0
246.319641 172.0
247.041763 220.0
247.0793 232.0
247.21698 124.0
247.25766 64.0
248.238754 188.0
248.341721 96.0
248.843811 180.0
249.148468 116.0
249.269791 156.0
250.254166 192.0
250.331116 152.0
250.359451 116.0
251.21048 52.0
251.264114 184.0
251.614426 160.0
251.740723 104.0
251.794418 140.0
251.816528 180.0
252.205154 132.0
252.232895 124.0
252.268463 10732.0
252.445435 56.0
252.47377 96.0
252.587769 44.0
252.644714 68.0
252.692169 140.0
252.78392 120.0
252.815567 60.0
252.929504 48.0
253.269226 1924.0
253.689774 52.0
254.149643 44.0
254.255981 400.0
254.262619 360.0
254.280441 700.0
254.501968 56.0
254.743347 124.0
254.845016 80.0
254.949875 128.0
255.197815 88.0
255.239151 300.0
255.287842 192.0
255.3918 108.0
255.414078 112.0
255.573135 56.0
256.264069 196.0
256.547729 84.0
257.910767 60.0
259.011505 112.0
260.609161 60.0
260.753784 180.0
261.638367 96.0
261.715637 80.0
261.847656 124.0
262.252045 2500.0
262.292297 152.0
262.705078 116.0
262.74057 68.0
262.853485 124.0
263.254608 288.0
263.441101 32.0
263.751312 60.0
263.809509 156.0
263.906494 164.0
264.037384 76.0
264.139343 200.0
264.26712 10876.0
264.371765 24.0
264.436646 132.0
264.514709 44.0
264.602112 48.0
264.637726 68.0
264.6604 68.0
264.731628 40.0
265.036133 52.0
265.169006 44.0
265.272369 1472.0
265.499695 72.0
265.545105 92.0
265.665314 116.0
265.992859 48.0
266.248657 168.0
266.279205 648.0
266.317596 144.0
266.635986 48.0
266.73349 76.0
266.935059 88.0
266.964325 108.0
267.065155 76.0
267.130219 76.0
267.16925 40.0
267.201782 124.0
267.266876 48.0
267.403534 200.0
267.768188 36.0
269.310913 152.0
270.736908 72.0
275.453491 48.0
275.651733 116.0
275.939301 76.0
276.879059 160.0
277.429077 80.0
278.306915 96.0
278.863068 84.0
278.886353 136.0
280.25412 148.0
280.277435 184.0
280.447388 104.0
280.637421 96.0
280.664093 132.0
280.714111 136.0
281.902527 144.0
282.052917 196.0
282.093048 192.0
282.146515 184.0
282.169922 108.0
282.230103 176.0
282.277893 11416.0
282.357178 32.0
282.430756 84.0
282.530304 96.0
282.608063 80.0
282.643005 64.0
282.70816 88.0
282.795471 44.0
282.818909 56.0
282.85907 40.0
282.907928 128.0
282.955933 60.0
283.013092 108.0
283.103485 68.0
283.282043 1988.0
283.334625 128.0
283.451874 32.0
283.756897 80.0
283.783722 36.0
283.870911 80.0
283.963806 68.0
284.284424 352.0
284.377502 48.0
284.401001 128.0
284.786499 176.0
284.958435 40.0
285.21048 248.0
285.287811 36.0
285.395386 108.0
285.607269 104.0
285.997589 68.0
286.866058 68.0
287.936279 68.0
289.02478 156.0
289.739197 60.0
292.132568 56.0
293.280121 156.0
293.675659 108.0
294.71347 96.0
295.147552 76.0
295.753082 88.0
298.147064 76.0
299.204926 164.0
301.264313 140.0
303.289734 196.0
314.871368 164.0
322.928802 68.0
340.629791 136.0
357.055878 84.0
357.695526 116.0
362.291321 56.0
364.104431 48.0
372.135132 80.0
386.797791 72.0
408.312927 56.0
457.132263 88.0
461.500214 68.0
472.861511 84.0
501.978455 84.0
506.290924 92.0
510.49588 72.0
526.49823 100.0
536.422852 104.0
610.386353 52.0
658.908813 60.0
665.931946 116.0
666.974976 104.0
705.745178 84.0
712.210632 84.0
727.085815 48.0
739.893311 68.0
831.161438 136.0
840.073547 112.0
842.850647 152.0
872.654114 36.0
879.965942 80.0
900.124756 128.0
923.152649 116.0
927.821045 180.0
934.009155 68.0
940.419189 164.0
954.823547 152.0
964.411011 156.0
967.157349 148.0
981.084595 148.0
985.378418 176.0
996.81366 52.0
998.963928 108.0
1020.34613 152.0
1037.205933 64.0
1040.169434 136.0
1084.199219 180.0
1087.340576 180.0
1093.860962 188.0
1103.334229 100.0
1108.490356 112.0
1126.695068 120.0
1133.131104 156.0
1138.618286 236.0
1138.900391 160.0
1142.678345 152.0
1147.001831 136.0
1151.036377 244.0
1152.718384 152.0
1170.450317 172.0
1174.866943 140.0
1175.890503 200.0
1182.177979 52.0
1183.677124 132.0
1196.014404 172.0
1205.504639 240.0
1209.287598 124.0
1221.541626 140.0
1223.50415 164.0
1224.353638 164.0
1227.203735 220.0
1227.419922 224.0
1238.980469 240.0
1241.693115 208.0
1244.226318 148.0
1258.420166 260.0
1259.719727 216.0
1261.599487 204.0
1261.995361 184.0
1276.05542 36.0
1280.41748 108.0
1280.609741 80.0
1285.800171 184.0
1292.589233 168.0
1301.283813 216.0
1301.348511 112.0
1308.05603 92.0
1323.448242 172.0
1330.894897 148.0
1338.799316 124.0
1347.450439 116.0
1350.864502 104.0
1353.609131 116.0
1355.447754 212.0
1364.372925 160.0
1365.005249 204.0
1368.272217 76.0
1369.170532 164.0
1370.142944 160.0
1382.955078 120.0
1385.420898 204.0
1387.488647 192.0
1396.75647 264.0
1397.902222 160.0
1406.622559 36.0
1407.369141 120.0
1409.228882 128.0
1410.230347 44.0
1410.731079 176.0
1412.406128 224.0
1420.848877 268.0
1435.697266 76.0
1437.077637 164.0
1441.124756 104.0
1449.690552 108.0
1452.017944 144.0
1458.958252 96.0
1462.830444 256.0
1465.396973 160.0
1473.408081 72.0
1479.932129 184.0
1482.490601 112.0
1483.10376 96.0
1487.076904 196.0
1487.529785 144.0
1490.425171 124.0
1495.908813 64.0
1497.40271 164.0
1499.513672 176.0
1501.695679 156.0
1503.269531 132.0
