>compound MLS001158355-01!2-[(4-ethyl-8,8-dimethyl-2-oxo-9,10-dihydropyrano[2,3-h]chromen-5-yl)oxy]-N-(pyridin-3-ylmethyl)acetamide
>formula C24H26N2O5
>ionization [M+H]+
>parentmass 423.192352
#inchi InChI=1S/C24H26N2O5/c1-4-16-10-21(28)30-23-17-7-8-24(2,3)31-18(17)11-19(22(16)23)29-14-20(27)26-13-15-6-5-9-25-12-15/h5-6,9-12H,4,7-8,13-14H2,1-3H3,(H,26,27)
#inchikey PNNCHGGNVYMJRW
#Ion_Source LC-ESI
#Instrument qTof
#Compound_Source NIH Natural Product Library
#PI Dorrestein
#Data_Collector VVP/LMS
#Scan -1
#Precursor_MZ 423.192
#ExactMass 422.184
#Charge 1
#CAS_Number N/A
#Pubmed_ID N/A
#Smiles CCc1cc(=O)oc2c3CCC(C)(C)Oc3cc(OCC(=O)NCc4cccnc4)c12
#INCHI_AUX N/A
#Library_Class 1
#SpectrumID CCMSLIB00000080428
#IonMode Positive
#UpdateWorkflowName UPDATE-SINGLE-ANNOTATED-GOLD
#LibraryQualityString Gold
#TaskID b1d8e8f6646f4e71acdff9ca3d919d08
##Scan# 1756
#SpectrumFile p2-G08_GG8_01_18056.mzXML
#LibraryName NIH_Natural_Products_Library.mgf
#MQScore -1
#Organism NIH_Natural_Products_Library
#TIC_Query 0
#RT_Query -1
#MZErrorPPM -1
#SharedPeaks 0
#MassDiff 0
#LibMZ -1
#SpecMZ 423.192
#SpecCharge 0
#internalFilename spec-00000.mgf

>collision 10
94.957397 180.0
94.971954 152.0
95.007195 192.0
95.030151 172.0
95.076881 148.0
95.117867 184.0
95.158257 160.0
95.183495 108.0
95.20874 208.0
95.222336 148.0
95.24176 156.0
95.270264 208.0
95.294212 180.0
95.317528 104.0
95.399162 96.0
95.416656 48.0
95.445824 164.0
95.459435 196.0
95.535294 216.0
95.608627 232.0
95.628693 268.0
95.663147 120.0
95.668114 160.0
95.696831 164.0
95.753304 176.0
95.786415 64.0
95.803947 32.0
95.915024 228.0
95.993011 80.0
96.044991 4632.0
96.135414 220.0
96.15493 172.0
96.348251 188.0
96.410774 80.0
96.424454 212.0
96.45858 160.0
96.477234 144.0
96.518295 156.0
96.569138 180.0
96.653259 216.0
96.668915 164.0
96.821617 96.0
96.839241 200.0
96.862747 148.0
96.935158 196.0
96.958755 136.0
96.999916 132.0
97.026993 232.0
97.047806 276.0
97.086189 232.0
97.109322 156.0
97.115105 124.0
97.123077 136.0
97.130089 188.0
97.159691 144.0
97.212196 156.0
97.329521 220.0
97.396294 116.0
97.467026 232.0
97.494537 160.0
97.559402 120.0
97.58889 176.0
97.675423 36.0
97.716736 120.0
97.748215 176.0
97.761993 156.0
97.785606 180.0
97.830956 212.0
97.890053 160.0
97.931313 108.0
98.002228 84.0
98.023903 156.0
98.067375 208.0
98.090919 112.0
98.106689 208.0
98.151047 288.0
98.169785 156.0
98.24868 148.0
98.278275 188.0
98.339455 212.0
98.396698 288.0
98.432243 180.0
98.574471 88.0
98.619926 136.0
98.661438 140.0
98.716797 64.0
98.78405 168.0
98.851318 120.0
98.875069 28.0
98.912674 204.0
98.96019 80.0
98.989891 44.0
99.041382 220.0
99.066498 136.0
99.090912 232.0
99.148376 128.0
99.162247 188.0
99.330788 168.0
99.396263 128.0
99.447861 200.0
99.477638 188.0
99.508904 208.0
99.586845 116.0
99.710274 200.0
99.745026 172.0
99.799492 100.0
99.821358 192.0
99.867104 216.0
99.890976 168.0
99.922806 44.0
99.980507 160.0
99.999527 180.0
100.078049 216.0
100.137794 112.0
100.161697 80.0
100.175644 160.0
100.213493 160.0
100.23143 164.0
100.249359 116.0
100.305168 212.0
100.355011 140.0
100.454727 32.0
100.474678 196.0
100.586433 272.0
100.616379 152.0
100.784149 124.0
100.848099 136.0
101.076088 140.0
101.110535 188.0
101.170158 124.0
101.188179 152.0
101.27932 188.0
101.338394 140.0
101.362442 164.0
101.437737 244.0
101.464661 216.0
101.520805 148.0
101.540863 52.0
101.679298 180.0
101.711411 228.0
101.737511 252.0
101.793724 120.0
101.816742 148.0
101.829002 156.0
102.111259 56.0
102.1269 180.0
102.246056 72.0
102.391014 160.0
102.494759 200.0
102.576385 144.0
102.6651 144.0
102.694717 260.0
102.727623 132.0
102.755875 144.0
102.810356 80.0
102.897148 60.0
103.007095 200.0
103.04055 144.0
103.105263 160.0
103.151604 168.0
103.177979 188.0
103.206665 236.0
103.266953 248.0
103.291229 168.0
103.331688 220.0
103.355965 196.0
103.382271 44.0
103.402512 144.0
103.416679 212.0
103.430847 160.0
103.467697 140.0
103.552292 192.0
103.57576 192.0
103.641472 164.0
103.708557 160.0
103.754974 168.0
103.772003 144.0
103.862457 160.0
103.896942 172.0
103.921288 156.0
103.965927 148.0
104.000435 132.0
104.024788 164.0
104.051697 692.0
104.158813 196.0
104.175064 196.0
104.189285 152.0
104.205544 112.0
104.234406 200.0
104.317314 208.0
104.351875 192.0
104.400681 44.0
104.44136 104.0
104.518669 100.0
104.549194 248.0
104.7314 148.0
104.854683 160.0
104.901115 128.0
104.932144 148.0
104.96273 204.0
105.046692 344.0
105.095314 160.0
105.117905 116.0
105.140205 200.0
105.193275 344.0
105.289246 204.0
105.346436 140.0
105.368912 132.0
105.391388 156.0
105.490479 152.0
105.579453 136.0
105.666969 56.0
105.679184 180.0
105.710876 116.0
105.73494 160.0
105.792419 148.0
105.845482 244.0
105.970428 140.0
106.027809 184.0
106.062584 988.0
106.152863 76.0
106.187729 136.0
106.20208 152.0
106.228752 228.0
106.271835 156.0
106.310822 168.0
106.368294 60.0
106.386765 200.0
106.407295 160.0
106.519135 188.0
106.553116 104.0
106.639427 252.0
106.678329 160.0
106.727821 144.0
106.751167 148.0
106.775124 200.0
106.791573 56.0
106.810089 116.0
106.831779 132.0
106.853203 196.0
106.902672 196.0
106.984123 224.0
106.998756 224.0
107.023094 156.0
107.060898 36444.0
107.125038 108.0
107.164413 48.0
107.185745 60.0
107.224876 164.0
107.258987 140.0
107.281662 180.0
107.310524 176.0
107.324959 88.0
107.364075 124.0
107.370552 36.0
107.375519 108.0
107.400528 56.0
107.414978 160.0
107.487915 36.0
107.539505 140.0
107.568031 176.0
107.619209 204.0
107.625282 124.0
107.671646 168.0
107.694366 64.0
107.749573 188.0
107.789398 212.0
107.867653 176.0
107.879387 52.0
107.8899 128.0
107.919624 108.0
107.939941 200.0
107.960983 144.0
107.985802 256.0
108.011597 268.0
108.04425 21296.0
108.060646 2040.0
108.142273 160.0
108.178238 108.0
108.194794 36.0
108.238274 48.0
108.28688 248.0
108.302475 232.0
108.33168 408.0
108.360481 224.0
108.396629 60.0
108.430939 112.0
108.528374 88.0
108.552322 196.0
108.619621 164.0
108.683266 124.0
108.725143 252.0
108.781487 168.0
108.84169 184.0
108.856102 128.0
108.872841 72.0
108.894501 84.0
108.932869 108.0
108.962158 124.0
109.009949 172.0
109.048279 1164.0
109.076019 5912.0
109.116753 136.0
109.149231 64.0
109.171524 172.0
109.205376 96.0
109.318718 168.0
109.375999 108.0
109.450218 224.0
109.486145 120.0
109.758926 240.0
109.792709 60.0
109.843147 88.0
109.886078 100.0
109.889435 76.0
109.976311 84.0
109.990921 180.0
110.009712 80.0
110.059258 416.0
110.077484 560.0
110.120384 96.0
110.151588 344.0
110.169647 68.0
110.270813 172.0
110.498749 48.0
110.542686 108.0
110.567802 124.0
110.662003 156.0
110.711105 152.0
110.805336 160.0
110.835854 112.0
110.881958 188.0
110.896629 48.0
111.00145 116.0
111.123108 132.0
111.171371 160.0
111.200752 120.0
111.316223 120.0
111.356125 168.0
111.46537 44.0
111.505295 128.0
111.520012 148.0
111.572563 164.0
111.603508 184.0
111.644051 128.0
111.738708 36.0
111.854454 160.0
111.892349 124.0
111.923935 132.0
111.94162 216.0
112.041878 208.0
112.068153 172.0
112.102989 124.0
112.140923 120.0
112.172539 156.0
112.600876 164.0
112.628334 120.0
112.683258 56.0
112.738197 156.0
112.805832 156.0
112.827301 156.0
112.852341 148.0
112.903099 168.0
113.027908 208.0
113.046951 68.0
113.165436 156.0
113.190903 148.0
113.367752 192.0
113.383682 176.0
113.430313 44.0
113.45787 132.0
113.488136 116.0
113.816437 176.0
113.867409 96.0
114.056511 116.0
114.186211 96.0
114.20961 192.0
114.226227 192.0
114.246582 204.0
114.294708 120.0
114.398857 124.0
114.439445 180.0
114.475647 64.0
114.53315 132.0
114.550194 164.0
114.63755 168.0
114.663124 108.0
114.784637 112.0
114.803825 60.0
114.827286 180.0
114.852882 160.0
114.874214 184.0
114.919014 164.0
114.955292 132.0
114.989441 72.0
115.051102 176.0
115.104721 116.0
115.243561 168.0
115.358971 156.0
115.388901 204.0
115.414558 168.0
115.476578 148.0
115.506523 120.0
115.525772 100.0
115.587822 72.0
115.724815 180.0
115.744087 132.0
115.780487 88.0
115.810471 164.0
115.832184 148.0
115.864029 128.0
115.879028 172.0
115.899994 168.0
115.924026 32.0
115.984032 168.0
116.014046 72.0
116.04406 36.0
116.065506 172.0
116.104996 192.0
116.151146 120.0
116.224236 240.0
116.256424 180.0
116.426018 160.0
116.45179 156.0
116.507462 144.0
116.614388 184.0
116.662376 188.0
116.739784 116.0
116.84774 84.0
116.875305 168.0
116.920494 28.0
116.937714 160.0
117.015305 180.0
117.047501 164.0
117.069359 148.0
117.108513 228.0
117.149811 112.0
117.187515 124.0
117.233475 148.0
117.262939 156.0
117.313545 192.0
117.413857 172.0
117.474297 192.0
117.519554 244.0
117.53466 36.0
117.800224 168.0
117.869362 140.0
117.886139 156.0
117.988235 132.0
118.018509 248.0
118.052025 880.0
118.083382 200.0
118.122757 176.0
118.206696 160.0
118.221848 124.0
118.306259 56.0
118.388542 160.0
118.428574 124.0
118.550278 112.0
118.579193 124.0
118.603035 128.0
118.639885 76.0
118.719391 204.0
118.763489 300.0
118.819519 164.0
118.840088 208.0
118.911766 212.0
118.928085 112.0
118.947929 184.0
118.982719 160.0
119.012581 360.0
119.037468 340.0
119.060822 50824.0
119.120911 164.0
119.137253 68.0
119.160637 284.0
119.197693 68.0
119.219429 196.0
119.27594 76.0
119.293327 80.0
119.319214 108.0
119.341156 116.0
119.36412 168.0
119.395523 36.0
119.417374 228.0
119.432495 72.0
119.458603 180.0
119.495583 48.0
119.593513 56.0
119.614426 56.0
119.637161 76.0
119.681404 140.0
119.749634 176.0
119.778595 132.0
119.819984 76.0
119.841423 448.0
119.928642 152.0
119.957283 112.0
119.98336 204.0
120.008247 160.0
120.044128 27680.0
120.062813 4216.0
120.084724 180.0
120.091171 300.0
120.114708 120.0
120.157921 80.0
120.205109 96.0
120.220627 128.0
120.241989 76.0
120.259361 148.0
120.30529 76.0
120.31353 40.0
120.318436 88.0
120.365273 56.0
120.398033 196.0
120.430794 212.0
120.450455 28.0
120.475044 212.0
120.493515 152.0
120.522552 132.0
120.5597 64.0
120.599037 136.0
120.631828 76.0
120.649315 136.0
120.679924 72.0
120.722527 116.0
120.794113 116.0
120.820648 152.0
120.838165 160.0
120.864944 88.0
120.892685 136.0
120.945732 96.0
120.987617 184.0
121.01075 304.0
121.04892 1708.0
121.076309 55808.0
121.111084 172.0
121.138824 148.0
121.169357 84.0
121.192101 216.0
121.219254 92.0
121.256554 68.0
121.283928 108.0
121.312645 44.0
121.330185 140.0
121.347046 176.0
121.386795 132.0
121.394585 108.0
121.421844 52.0
121.441292 40.0
121.466148 144.0
121.503441 76.0
121.539917 128.0
121.571465 60.0
121.595604 156.0
121.650871 204.0
121.689049 116.0
121.728424 24.0
121.750648 200.0
121.782234 180.0
121.897942 84.0
121.930428 44.0
121.963875 88.0
121.989723 124.0
122.079124 3584.0
122.114853 144.0
122.186714 44.0
122.270332 32.0
122.296745 76.0
122.367188 156.0
122.415627 52.0
122.448662 92.0
122.490517 84.0
122.5522 124.0
122.567627 84.0
122.600677 216.0
122.624924 52.0
122.680031 60.0
122.730736 76.0
122.75177 52.0
122.783134 184.0
122.829002 72.0
122.891754 56.0
122.931473 108.0
122.968994 52.0
123.006233 188.0
123.045601 148.0
123.067032 148.0
123.08313 204.0
123.136642 116.0
123.233994 140.0
123.2826 80.0
123.413025 116.0
123.448402 88.0
123.481575 168.0
123.523605 76.0
123.554146 164.0
123.689568 84.0
123.740486 60.0
123.794533 108.0
123.837921 136.0
123.855644 204.0
123.975281 148.0
124.015175 64.0
124.094986 144.0
124.12381 220.0
124.150421 136.0
124.170204 148.0
124.335213 136.0
124.521049 36.0
124.585472 116.0
124.663239 180.0
124.683235 164.0
124.727692 192.0
124.768951 164.0
124.803284 64.0
125.025734 180.0
125.304077 176.0
125.370926 68.0
125.431099 148.0
125.49575 56.0
125.674194 132.0
125.72998 192.0
125.783546 132.0
125.870621 68.0
126.029213 176.0
126.058266 188.0
126.130989 200.0
126.167786 228.0
126.183434 136.0
126.216972 128.0
126.234863 144.0
126.37355 76.0
126.404877 292.0
126.485443 184.0
126.532455 184.0
126.664589 160.0
126.680267 176.0
126.754456 180.0
126.787819 120.0
126.850578 92.0
126.906624 60.0
127.037933 132.0
127.070358 200.0
127.180321 140.0
127.210785 140.0
127.28373 324.0
127.35321 80.0
127.461052 84.0
127.512733 148.0
127.564438 168.0
127.663269 92.0
127.683609 92.0
127.780334 152.0
127.823082 56.0
127.931122 172.0
128.018936 120.0
128.040848 180.0
128.046021 132.0
128.053345 184.0
128.091003 140.0
128.1586 208.0
128.192398 168.0
128.217178 176.0
128.237473 128.0
128.336655 204.0
128.359207 124.0
128.390778 284.0
128.478745 128.0
128.569 132.0
128.720261 152.0
128.859039 100.0
128.882889 108.0
129.00946 84.0
129.025284 116.0
129.041702 152.0
129.06691 272.0
129.176804 108.0
129.298996 88.0
129.425766 108.0
129.443878 224.0
129.502762 96.0
129.588852 48.0
129.686295 68.0
129.742966 60.0
129.860886 112.0
130.024231 68.0
130.072876 148.0
130.10141 148.0
130.140015 52.0
130.221756 124.0
130.28537 148.0
130.430801 148.0
130.452652 196.0
130.612717 148.0
130.708267 144.0
130.787918 60.0
131.004257 136.0
131.057617 132.0
131.084686 208.0
131.170609 184.0
131.19278 204.0
131.226135 168.0
131.275482 168.0
131.300568 160.0
131.395386 220.0
131.505905 88.0
131.583527 192.0
131.818787 88.0
131.88736 148.0
131.921646 84.0
131.937653 44.0
131.997101 104.0
132.045197 196.0
132.066544 332.0
132.088577 184.0
132.166367 120.0
132.209839 80.0
132.228149 200.0
132.260193 112.0
132.287674 124.0
132.319305 44.0
132.379257 148.0
132.395279 144.0
132.452545 160.0
132.491486 104.0
132.539597 88.0
132.578552 128.0
132.643372 116.0
132.732147 68.0
132.764252 56.0
132.805542 36.0
132.858292 176.0
132.895004 160.0
132.984512 152.0
133.041901 144.0
133.064743 808.0
133.085861 212.0
133.110779 148.0
133.149033 100.0
133.168198 140.0
133.236069 124.0
133.264679 60.0
133.457748 152.0
133.496841 52.0
133.66246 180.0
133.73381 132.0
133.763733 120.0
133.838989 156.0
133.978516 136.0
134.030899 108.0
134.049377 180.0
134.086685 132.0
134.126709 168.0
134.240662 156.0
134.263718 136.0
134.312164 96.0
134.33754 156.0
134.409058 148.0
134.47963 156.0
134.535995 132.0
134.623749 140.0
134.713821 60.0
134.817795 56.0
134.857086 128.0
134.972687 224.0
135.054825 1080.0
135.079849 1084.0
135.230911 192.0
135.283417 188.0
135.31813 240.0
135.36171 164.0
135.514313 132.0
135.532852 196.0
135.551376 176.0
135.662628 88.0
135.734512 200.0
135.841202 52.0
135.892242 136.0
135.917755 108.0
135.950439 144.0
136.057022 324.0
136.093262 220.0
136.249786 176.0
136.31485 48.0
136.356674 124.0
136.396194 160.0
136.421753 184.0
136.479889 104.0
136.50856 180.0
136.57988 176.0
136.668289 240.0
136.745087 104.0
136.775345 180.0
136.793961 136.0
136.870804 36.0
136.942993 56.0
137.017075 184.0
137.063629 164.0
137.12706 100.0
137.192276 176.0
137.257614 156.0
137.60527 84.0
137.642624 124.0
137.694 136.0
137.724884 200.0
137.770584 128.0
137.845856 156.0
137.883255 116.0
137.946365 204.0
138.021179 204.0
138.039886 108.0
138.126572 120.0
138.191925 128.0
138.297241 124.0
138.526718 64.0
138.683716 72.0
138.751694 132.0
138.908813 176.0
138.956467 140.0
138.986237 144.0
139.12941 200.0
139.159927 168.0
139.199844 36.0
139.220978 136.0
139.286743 204.0
139.324341 224.0
139.439468 64.0
139.455933 112.0
139.472382 224.0
139.608749 92.0
139.660492 168.0
139.764008 212.0
139.829895 56.0
139.853439 152.0
139.919342 104.0
140.055328 124.0
140.279144 188.0
140.43071 180.0
140.484955 192.0
140.57225 212.0
140.593094 144.0
140.808273 140.0
140.865707 196.0
140.916992 144.0
140.973709 132.0
140.99498 72.0
141.035156 164.0
141.054077 220.0
141.205261 132.0
141.333145 184.0
141.352066 168.0
141.486984 36.0
141.562759 116.0
141.730942 132.0
141.749893 120.0
141.768387 140.0
141.809143 120.0
142.039154 128.0
142.119812 124.0
142.433182 48.0
142.713623 164.0
142.761185 84.0
142.806366 60.0
142.851562 52.0
142.99501 140.0
143.068115 116.0
143.144318 124.0
143.232437 212.0
143.463593 176.0
143.53035 140.0
143.623352 172.0
143.826172 196.0
143.854828 196.0
143.938385 140.0
143.981369 208.0
144.06012 120.0
144.077225 148.0
144.260941 52.0
144.282455 184.0
144.425934 140.0
144.624527 44.0
144.693954 140.0
144.717896 148.0
144.787338 32.0
144.859192 220.0
145.063446 288.0
145.146805 116.0
145.261932 216.0
145.281113 112.0
145.59581 192.0
145.686829 116.0
145.734879 176.0
145.917557 32.0
145.941589 156.0
146.013733 184.0
146.06665 484.0
146.091644 380.0
146.114761 144.0
146.30249 120.0
146.336197 124.0
146.43251 152.0
146.502365 172.0
146.538513 108.0
146.618607 84.0
146.663818 156.0
146.683105 48.0
146.748199 56.0
146.79335 204.0
146.876022 136.0
146.900146 60.0
147.008713 200.0
147.045654 200.0
147.077408 296.0
147.111008 136.0
147.169861 76.0
147.192184 264.0
147.265747 156.0
147.310532 156.0
147.327438 52.0
147.378174 180.0
147.397507 48.0
147.442383 280.0
147.479675 188.0
147.588455 132.0
147.610229 144.0
147.859406 184.0
148.052185 156.0
148.082275 144.0
148.126831 188.0
148.144165 152.0
148.162079 164.0
148.319595 104.0
148.447464 152.0
148.506302 220.0
148.596054 92.0
148.629898 144.0
148.688278 112.0
148.712936 196.0
148.739883 124.0
148.780518 100.0
148.797501 188.0
148.819016 176.0
148.863495 264.0
148.90004 144.0
148.921356 128.0
148.961075 192.0
148.978821 164.0
149.027359 396.0
149.071228 70200.0
149.144409 68.0
149.166855 72.0
149.178177 52.0
149.191727 196.0
149.235733 140.0
149.255646 72.0
149.275528 152.0
149.308197 172.0
149.334213 88.0
149.355957 60.0
149.379898 168.0
149.403946 76.0
149.429428 88.0
149.470322 200.0
149.521896 268.0
149.562912 136.0
149.59491 160.0
149.620743 92.0
149.648468 36.0
149.694733 52.0
149.741013 80.0
149.779984 48.0
149.799469 88.0
149.819992 108.0
149.881287 124.0
149.904236 96.0
149.965164 168.0
150.036026 112.0
150.077286 13700.0
150.133392 152.0
150.191925 40.0
150.270508 76.0
150.290146 92.0
150.31282 88.0
150.366516 108.0
150.389572 32.0
150.424088 168.0
150.528732 72.0
150.563049 148.0
150.591034 296.0
150.609329 80.0
150.643524 88.0
150.667953 44.0
150.689941 36.0
150.741257 52.0
150.760803 28.0
150.81778 64.0
150.895813 68.0
150.961258 128.0
150.995499 244.0
151.046112 608.0
151.080032 1764.0
151.135941 88.0
151.157745 76.0
151.191223 164.0
151.230042 144.0
151.248749 152.0
151.26088 96.0
151.29158 60.0
151.311172 128.0
151.34761 288.0
151.359207 64.0
151.367294 208.0
151.38707 128.0
151.438507 44.0
151.524246 184.0
151.562958 60.0
151.622269 232.0
151.830658 124.0
151.862534 36.0
151.888535 160.0
151.980286 220.0
151.999924 188.0
152.082291 328.0
152.127548 168.0
152.14473 72.0
152.201202 60.0
152.267517 104.0
152.353485 140.0
152.505844 116.0
152.574661 152.0
152.626297 80.0
152.680405 144.0
152.923981 160.0
153.01506 148.0
153.061844 136.0
153.088928 56.0
153.111084 124.0
153.249039 124.0
153.31311 112.0
153.411697 116.0
153.433884 52.0
153.60405 84.0
153.742218 84.0
153.766891 180.0
153.848358 136.0
154.048874 184.0
154.290573 160.0
154.612137 196.0
154.750763 72.0
154.874588 136.0
154.906784 48.0
155.045547 220.0
155.065369 176.0
155.167007 176.0
155.340607 108.0
155.402634 120.0
155.467148 108.0
155.638428 56.0
155.757645 160.0
155.777512 104.0
155.906708 80.0
156.00116 100.0
156.038452 184.0
156.07576 160.0
156.11554 196.0
156.160309 132.0
156.210052 56.0
156.406631 148.0
156.424057 96.0
156.453934 208.0
156.491287 80.0
156.645691 124.0
156.740509 140.0
156.784515 168.0
156.820114 152.0
156.894897 172.0
157.065918 292.0
157.101883 100.0
157.124344 96.0
157.214172 164.0
157.237915 172.0
157.319 88.0
157.526276 140.0
157.793686 180.0
157.931229 184.0
157.986252 240.0
158.060257 152.0
158.103851 104.0
158.42186 172.0
158.657425 64.0
158.674973 108.0
158.815414 124.0
158.895676 148.0
158.913239 140.0
158.94838 92.0
158.965942 124.0
159.04538 160.0
159.083572 92.0
159.110764 172.0
159.174286 148.0
159.422989 156.0
159.503418 140.0
159.561234 128.0
159.685471 128.0
159.722183 172.0
159.752365 72.0
160.05188 100.0
160.235748 120.0
160.262009 180.0
160.507965 208.0
160.538223 48.0
160.697128 84.0
160.881378 40.0
160.939438 172.0
160.965897 176.0
160.987427 164.0
161.058731 808.0
161.098557 156.0
161.39679 160.0
161.495422 236.0
161.520706 48.0
161.560638 184.0
161.735794 144.0
161.907959 88.0
162.032089 176.0
162.065079 544.0
162.10965 196.0
162.173996 144.0
162.196808 152.0
162.229767 152.0
162.432632 116.0
162.534119 136.0
162.640701 48.0
162.694016 100.0
163.038391 960.0
163.076248 2384.0
163.265732 124.0
163.433624 56.0
163.451431 200.0
163.525238 124.0
163.601593 56.0
163.698349 120.0
163.736557 156.0
163.77475 96.0
163.983688 160.0
164.078949 528.0
164.343262 60.0
164.419815 228.0
164.504044 224.0
164.583191 236.0
164.733871 96.0
164.808945 156.0
164.948532 156.0
164.971542 64.0
165.050446 364.0
165.093948 160.0
165.268219 132.0
165.465302 72.0
165.503708 88.0
165.536987 72.0
165.677872 152.0
165.775238 168.0
165.941849 140.0
166.021332 56.0
166.077759 144.0
166.313828 148.0
166.356934 136.0
166.401108 144.0
166.475571 136.0
166.596298 108.0
166.699066 156.0
166.814728 36.0
167.078506 412.0
167.205688 148.0
167.344696 44.0
167.41423 104.0
167.481186 144.0
167.682159 96.0
167.911621 120.0
168.030289 176.0
168.08963 196.0
168.210938 136.0
168.35553 124.0
168.451096 284.0
168.619049 176.0
168.789658 136.0
169.41861 96.0
169.444519 192.0
169.522247 184.0
169.54039 144.0
169.750366 172.0
169.815201 116.0
169.96048 44.0
169.985977 160.0
170.046127 172.0
170.136978 220.0
170.153412 204.0
170.339539 196.0
170.44606 180.0
170.737213 72.0
170.929718 152.0
171.051895 148.0
171.065598 176.0
171.374985 60.0
171.496994 156.0
171.585114 148.0
171.708649 108.0
171.747772 92.0
171.854736 172.0
171.968948 204.0
172.118378 168.0
172.186264 48.0
172.230667 124.0
172.361298 96.0
172.460602 132.0
172.588715 164.0
172.672394 148.0
172.797958 48.0
172.850281 156.0
172.894775 168.0
172.947113 152.0
173.030884 172.0
173.061249 1284.0
173.09111 128.0
173.381897 40.0
173.675552 192.0
173.735886 208.0
173.769989 120.0
173.825089 148.0
173.867081 120.0
173.943192 208.0
174.06134 240.0
174.082352 208.0
174.271469 60.0
174.3871 164.0
174.442307 108.0
174.502777 84.0
174.557983 268.0
174.697388 116.0
174.723694 92.0
174.771057 164.0
174.971085 104.0
175.037476 204.0
175.075577 1632.0
175.122574 180.0
175.147522 60.0
175.173874 80.0
175.358322 216.0
175.455856 192.0
175.490128 188.0
175.548141 92.0
175.592972 112.0
175.724869 48.0
175.811951 176.0
175.828583 144.0
175.864731 152.0
176.004654 40.0
176.047653 792.0
176.077438 624.0
176.139343 200.0
176.334869 168.0
176.461761 148.0
176.522568 96.0
176.583405 188.0
176.659058 100.0
176.710373 152.0
176.863861 136.0
176.882401 120.0
176.926315 88.0
176.94252 180.0
176.976837 160.0
177.05307 2068.0
177.085556 176.0
177.231979 144.0
177.255829 112.0
177.356537 180.0
177.422821 172.0
177.55275 120.0
177.692551 188.0
177.802124 148.0
178.059845 484.0
178.091339 160.0
178.139343 216.0
178.86264 92.0
178.907898 44.0
179.032181 160.0
179.067535 436.0
179.10495 128.0
179.136917 208.0
179.235504 124.0
179.670105 76.0
179.731461 156.0
179.776825 172.0
179.843552 112.0
179.953003 96.0
180.030441 52.0
180.074387 228.0
180.102554 184.0
180.19339 148.0
180.223633 236.0
180.31897 124.0
180.449966 164.0
180.567627 168.0
180.752213 116.0
180.803055 56.0
180.986923 244.0
181.046677 136.0
181.0681 184.0
181.108276 108.0
181.167221 164.0
181.346756 144.0
181.480789 132.0
181.502243 164.0
181.523697 136.0
181.912735 124.0
181.931519 152.0
181.950317 48.0
182.067032 848.0
182.18396 152.0
182.259201 180.0
182.374756 132.0
182.511856 220.0
182.681305 96.0
182.732422 100.0
183.066193 148.0
183.089447 132.0
183.117371 140.0
183.179321 80.0
183.303253 104.0
183.443771 148.0
183.562042 240.0
183.615967 204.0
183.78862 96.0
183.810211 184.0
183.836227 144.0
183.910065 100.0
184.031555 148.0
184.261124 240.0
184.550323 172.0
184.644974 236.0
184.872223 80.0
184.945297 84.0
185.061874 188.0
185.191696 88.0
185.256714 52.0
185.94545 168.0
185.997009 172.0
186.05603 168.0
186.061462 124.0
186.072388 136.0
186.108322 172.0
186.38855 120.0
186.559082 176.0
186.613708 60.0
186.684402 128.0
186.720688 188.0
186.768707 100.0
186.794128 128.0
186.904739 168.0
187.043549 80.0
187.078934 192.0
187.103424 128.0
187.141556 168.0
187.228683 92.0
187.332199 228.0
187.359772 128.0
187.517487 104.0
187.561096 160.0
187.649063 192.0
187.921066 180.0
188.077805 268.0
188.114838 92.0
188.210403 128.0
188.24028 140.0
188.382462 104.0
188.458969 200.0
188.707687 184.0
188.726822 140.0
188.819809 136.0
188.964783 168.0
189.054352 2300.0
189.092209 180.0
189.2686 180.0
189.38089 176.0
189.438416 152.0
189.461044 168.0
189.589111 152.0
189.709717 64.0
189.85907 156.0
189.93457 48.0
190.000412 176.0
190.06163 1696.0
190.101929 112.0
190.192505 124.0
190.241913 168.0
190.657944 196.0
190.692398 108.0
190.725388 196.0
190.777618 212.0
190.846344 56.0
190.921906 84.0
190.97583 144.0
190.996719 148.0
191.037033 132.0
191.070816 13052.0
191.140671 52.0
191.239746 92.0
191.279037 188.0
191.30867 96.0
191.391159 48.0
191.44899 56.0
191.487549 60.0
191.630783 72.0
191.68396 132.0
191.756821 196.0
191.801651 56.0
191.83197 152.0
192.073669 1544.0
192.103455 176.0
192.295105 160.0
192.408463 116.0
192.463776 40.0
192.693024 212.0
192.789734 40.0
192.849365 140.0
192.886902 192.0
192.938995 64.0
193.021942 124.0
193.072769 276.0
193.257065 56.0
193.327255 120.0
193.425888 168.0
193.484955 236.0
193.556 144.0
193.87735 28.0
194.117325 64.0
194.190643 324.0
194.215607 116.0
194.307144 164.0
194.332123 124.0
194.376511 156.0
194.420914 120.0
194.540268 56.0
194.604126 44.0
194.748535 104.0
194.879105 164.0
194.956909 280.0
195.10144 188.0
195.137589 36.0
195.39624 176.0
195.456573 264.0
195.933563 148.0
195.97258 84.0
196.032791 216.0
196.332169 192.0
196.706055 112.0
196.747925 236.0
196.773056 148.0
196.865204 128.0
196.999268 100.0
197.057938 176.0
197.080292 184.0
197.127792 132.0
197.799042 104.0
197.821442 112.0
198.074936 152.0
198.161819 96.0
198.269592 228.0
198.642502 132.0
198.709839 124.0
198.799637 196.0
198.962433 136.0
199.114059 124.0
199.187088 120.0
199.350052 152.0
199.611481 52.0
199.743668 204.0
199.811188 144.0
199.912476 136.0
200.330658 208.0
200.441895 168.0
200.670197 100.0
200.704041 148.0
200.825302 144.0
200.952255 164.0
201.055847 448.0
201.098923 144.0
201.141327 56.0
201.172379 124.0
201.333328 132.0
201.460434 52.0
201.522583 228.0
201.624313 140.0
201.6978 60.0
201.867447 156.0
202.054398 164.0
202.102219 176.0
202.161652 164.0
202.44191 56.0
202.662857 76.0
202.699692 72.0
202.923615 76.0
202.985992 136.0
203.036499 284.0
203.07045 8496.0
203.134384 100.0
203.193054 160.0
203.224274 160.0
203.306564 92.0
203.340622 60.0
203.363327 108.0
203.397385 232.0
203.476868 36.0
203.584778 100.0
203.650101 136.0
203.681427 124.0
203.776367 124.0
203.900116 60.0
203.968338 104.0
204.040863 312.0
204.072525 1220.0
204.113586 132.0
204.18158 144.0
204.349411 236.0
204.392105 216.0
204.616959 136.0
204.645432 224.0
204.699524 184.0
204.725159 168.0
204.776428 36.0
204.873276 108.0
204.918854 220.0
205.018585 128.0
205.049561 320.0
205.087204 956.0
205.40065 144.0
205.491943 144.0
205.600372 48.0
205.657455 164.0
206.048264 140.0
206.09407 140.0
206.200134 152.0
206.265869 104.0
206.313492 164.0
206.625397 124.0
206.677704 164.0
206.797897 84.0
207.06459 792.0
207.144363 148.0
207.207397 64.0
207.792267 200.0
207.924271 184.0
207.95871 68.0
208.073532 100.0
208.125214 148.0
208.148193 164.0
208.254456 192.0
208.311905 104.0
208.340485 76.0
208.375107 144.0
208.533157 104.0
209.177841 156.0
209.246567 60.0
209.281113 116.0
209.404938 180.0
209.448151 64.0
209.534576 116.0
209.73053 124.0
209.857376 40.0
210.04483 116.0
210.076569 120.0
210.102524 156.0
210.34494 176.0
210.386673 148.0
210.636581 88.0
210.694366 156.0
210.729034 124.0
210.752151 160.0
210.789719 136.0
211.009384 60.0
211.09761 196.0
211.530121 192.0
211.614075 76.0
211.790741 128.0
211.935593 132.0
212.08049 120.0
212.112366 120.0
212.152954 180.0
212.274734 144.0
212.332733 132.0
212.576431 240.0
212.611252 56.0
212.689621 172.0
212.754333 176.0
212.904465 36.0
213.049698 180.0
213.090271 112.0
213.73587 148.0
213.845108 112.0
213.977448 164.0
214.064804 152.0
214.099747 160.0
214.286179 196.0
214.326965 148.0
214.446457 124.0
214.606781 88.0
214.641785 128.0
214.911545 132.0
215.053131 144.0
215.079758 548.0
215.184494 100.0
215.310059 92.0
215.39476 188.0
215.479477 40.0
215.540833 100.0
215.570053 172.0
215.62558 124.0
215.65773 100.0
215.792206 140.0
215.821457 128.0
216.057556 176.0
216.090546 144.0
216.157837 180.0
216.181244 104.0
216.330521 152.0
216.356873 48.0
216.482773 140.0
216.646133 280.0
216.872437 212.0
217.050308 1552.0
217.153915 196.0
217.290161 172.0
217.312317 116.0
217.350464 120.0
217.597015 140.0
217.75853 156.0
217.793777 96.0
217.814331 140.0
217.949478 192.0
218.058029 904.0
218.128754 120.0
218.158157 196.0
218.316925 156.0
218.382904 120.0
218.499298 180.0
218.58168 168.0
218.634964 112.0
218.681747 72.0
218.825989 140.0
218.876053 252.0
218.932358 160.0
219.009979 176.0
219.065887 19840.0
219.152512 84.0
219.205963 72.0
219.235428 68.0
219.259018 52.0
219.279648 112.0
219.395523 64.0
219.457642 252.0
219.559052 148.0
219.593857 84.0
219.611343 96.0
219.677704 104.0
219.846512 228.0
219.910812 256.0
219.935471 136.0
220.01709 52.0
220.068817 2576.0
220.117477 124.0
220.144058 60.0
220.20903 92.0
220.291733 28.0
220.350815 124.0
220.406967 56.0
220.442413 76.0
220.554733 48.0
220.995377 136.0
221.016083 172.0
221.072067 564.0
221.243988 72.0
221.297272 64.0
221.326889 116.0
221.394989 104.0
221.436462 136.0
221.486816 56.0
221.581604 80.0
221.626938 120.0
221.673462 144.0
221.705002 112.0
221.780151 104.0
221.818695 120.0
221.845032 140.0
221.904663 116.0
221.97879 60.0
222.055161 192.0
222.097427 116.0
222.174545 132.0
222.204224 28.0
222.370392 44.0
222.432724 64.0
222.498047 96.0
222.581177 140.0
222.673233 44.0
222.860397 136.0
222.946564 88.0
223.029785 184.0
223.080612 204.0
223.115997 144.0
223.199249 48.0
223.302673 144.0
223.410416 100.0
224.005798 188.0
224.306778 68.0
224.449875 176.0
224.65567 80.0
224.710785 152.0
225.142197 140.0
225.228821 88.0
225.736893 128.0
225.784744 176.0
226.098877 216.0
226.521057 128.0
226.6409 96.0
226.985611 164.0
227.063583 116.0
227.129578 76.0
227.270569 176.0
227.707565 120.0
227.880096 140.0
228.072418 244.0
228.10849 192.0
228.195679 108.0
228.415222 92.0
228.661942 244.0
228.854614 112.0
229.02626 56.0
229.073654 120.0
229.100449 412.0
229.321548 220.0
229.55368 128.0
229.680359 112.0
229.882507 156.0
230.051529 152.0
230.104019 716.0
230.365585 132.0
230.601273 92.0
230.646622 128.0
230.712006 164.0
230.752426 104.0
230.779633 76.0
230.809875 172.0
230.834061 168.0
230.856216 136.0
230.902634 208.0
230.939133 168.0
230.97319 168.0
231.012512 164.0
231.06575 34280.0
231.152054 164.0
231.200119 80.0
231.22226 76.0
231.26973 52.0
231.297394 56.0
231.35022 108.0
231.382675 116.0
231.426102 128.0
231.501633 116.0
231.552216 92.0
231.603806 60.0
231.627029 28.0
231.652344 156.0
231.796249 84.0
231.893661 96.0
231.924454 180.0
231.960358 208.0
232.029343 132.0
232.068787 4612.0
232.224152 40.0
232.281784 60.0
232.317429 128.0
232.445618 132.0
232.472931 120.0
232.526138 120.0
232.630768 28.0
232.700592 160.0
232.803146 192.0
232.867599 60.0
232.973923 36.0
233.02861 52.0
233.074463 912.0
233.147125 44.0
233.18663 60.0
233.310089 260.0
233.408554 60.0
233.542358 188.0
233.585785 88.0
233.615875 168.0
233.723953 212.0
233.767212 128.0
233.864029 112.0
233.925766 60.0
233.947083 48.0
234.065323 152.0
234.11644 148.0
234.263794 64.0
234.384567 100.0
234.44194 64.0
234.474045 64.0
234.513657 88.0
234.547195 96.0
234.589874 88.0
234.748413 132.0
234.809402 100.0
234.84906 112.0
235.085129 308.0
235.25795 52.0
235.370926 80.0
235.616745 108.0
235.835297 148.0
236.101562 176.0
236.41333 108.0
236.434753 224.0
236.499023 164.0
236.606171 44.0
236.651932 144.0
236.690857 140.0
236.823593 80.0
236.887909 140.0
236.9422 156.0
236.980377 176.0
237.097672 200.0
237.25499 200.0
237.298584 176.0
237.473373 136.0
237.648239 152.0
237.672791 100.0
237.728012 56.0
237.869202 116.0
237.890686 168.0
237.93367 64.0
238.08287 224.0
238.243851 116.0
238.274582 104.0
238.42514 100.0
238.64032 208.0
238.754105 108.0
238.821762 40.0
239.0802 100.0
239.123291 296.0
239.166382 108.0
239.723831 160.0
240.192474 184.0
240.214066 88.0
240.908646 236.0
241.080902 356.0
241.111847 284.0
241.267136 32.0
241.579483 76.0
241.693954 76.0
241.898224 124.0
242.183105 144.0
242.328705 68.0
242.688232 80.0
242.765762 88.0
243.102524 180.0
243.218735 48.0
243.482651 136.0
243.715637 124.0
243.771576 232.0
243.79686 144.0
243.945618 68.0
244.001587 36.0
244.076202 192.0
244.09639 156.0
244.118286 132.0
244.203705 96.0
244.309479 120.0
244.387253 80.0
244.869766 200.0
245.078583 336.0
245.120407 704.0
245.32782 144.0
245.418228 128.0
245.558563 116.0
245.680222 72.0
245.705185 132.0
245.92627 132.0
246.064087 104.0
246.085953 252.0
246.119247 144.0
246.404526 80.0
246.492004 88.0
246.804596 108.0
246.951569 152.0
247.058853 1048.0
247.100067 432.0
247.133331 364.0
247.574387 76.0
248.068481 304.0
248.126434 112.0
248.417526 228.0
248.612061 56.0
248.750168 84.0
249.07196 160.0
249.510422 124.0
249.57959 116.0
249.64563 132.0
249.802887 204.0
249.928726 184.0
250.325363 156.0
250.596252 124.0
250.684479 108.0
250.775879 140.0
250.871796 112.0
250.974487 144.0
251.050156 112.0
251.22049 80.0
251.479233 168.0
251.532898 164.0
251.665497 92.0
251.753906 148.0
251.902359 152.0
252.114044 352.0
252.28157 144.0
252.332153 128.0
252.597809 144.0
253.063019 132.0
253.116241 208.0
253.598404 52.0
253.719254 160.0
253.880569 100.0
254.059952 180.0
254.099442 228.0
254.496185 132.0
254.680374 68.0
254.912292 104.0
254.998108 176.0
255.071213 208.0
255.106171 44.0
255.18248 120.0
255.351013 116.0
255.653259 112.0
255.783752 240.0
255.977966 124.0
256.095795 136.0
256.127655 200.0
256.366608 108.0
256.471771 120.0
256.602478 40.0
256.749176 224.0
257.010742 92.0
257.082458 128.0
257.113007 172.0
257.192657 140.0
257.345886 172.0
257.454834 168.0
257.582214 124.0
257.863403 156.0
258.046326 160.0
258.069672 112.0
258.359039 164.0
258.71106 148.0
258.893585 236.0
258.925598 92.0
259.002655 140.0
259.060364 5240.0
259.093292 348.0
259.136078 196.0
259.364563 28.0
259.433594 104.0
259.563324 120.0
259.65741 168.0
259.819916 60.0
259.842377 100.0
260.061035 636.0
260.3302 156.0
260.635437 192.0
260.680695 244.0
260.761932 204.0
260.828278 148.0
260.889343 40.0
261.001892 124.0
261.065674 408.0
261.144531 156.0
261.381439 120.0
261.616394 120.0
261.819244 68.0
261.902985 132.0
261.94809 76.0
261.993195 112.0
262.039429 136.0
262.241302 112.0
262.276764 104.0
262.364563 156.0
262.608887 96.0
262.660492 88.0
262.68631 84.0
262.799225 212.0
262.860535 60.0
262.925079 116.0
263.205902 216.0
263.264038 128.0
263.444916 128.0
263.545074 56.0
263.664642 112.0
263.923248 164.0
264.211121 140.0
264.321106 148.0
264.628601 144.0
264.764618 140.0
265.117737 144.0
265.169586 80.0
265.198761 144.0
265.38031 176.0
265.798737 116.0
266.088318 192.0
266.750336 204.0
266.844635 144.0
266.932404 96.0
267.018616 136.0
267.111389 156.0
267.241425 172.0
267.57016 128.0
268.003326 160.0
268.055481 72.0
268.083893 116.0
268.112061 132.0
268.636444 192.0
268.779388 108.0
268.958893 172.0
269.030701 176.0
269.06662 40.0
269.106354 436.0
269.207031 40.0
269.264008 44.0
269.481415 116.0
269.579437 132.0
269.71344 36.0
269.916138 160.0
270.00116 64.0
270.056763 200.0
270.086182 124.0
270.131989 172.0
270.167969 100.0
270.465759 148.0
270.59671 192.0
270.72113 128.0
271.106323 228.0
271.153595 92.0
271.248627 108.0
271.317474 120.0
271.79306 76.0
271.865265 112.0
272.001434 112.0
272.045776 124.0
272.107605 372.0
272.167267 84.0
272.426727 132.0
272.46286 124.0
272.673157 160.0
272.814514 124.0
272.896698 48.0
273.10672 228.0
273.146637 180.0
273.248627 148.0
273.376953 60.0
273.607361 136.0
273.70285 68.0
274.120911 852.0
274.187103 168.0
274.295868 172.0
274.454102 112.0
274.566223 56.0
274.665192 104.0
274.807037 132.0
274.849579 108.0
275.031433 124.0
275.071045 156.0
275.126831 1592.0
275.193207 60.0
275.341797 180.0
275.602783 48.0
275.699463 92.0
275.78125 188.0
275.930969 176.0
276.002747 108.0
276.089569 892.0
276.128845 352.0
276.28717 88.0
276.439392 96.0
276.469177 68.0
276.581696 96.0
276.651855 188.0
276.687622 108.0
276.906189 276.0
277.089508 144.0
277.492706 192.0
277.612091 60.0
277.638611 128.0
277.844269 184.0
278.156219 212.0
278.20932 224.0
278.684265 64.0
279.059845 152.0
279.142975 56.0
279.510559 120.0
279.575439 152.0
279.758514 40.0
279.948303 116.0
280.099091 172.0
280.201447 28.0
280.411377 176.0
280.798126 148.0
280.821472 152.0
280.866913 224.0
280.951569 92.0
281.104645 512.0
281.129425 356.0
281.168457 80.0
281.211853 64.0
281.945343 148.0
282.066956 132.0
282.11496 280.0
282.616699 168.0
282.755981 132.0
282.956818 128.0
283.020416 188.0
283.11084 104.0
283.140717 192.0
283.218018 108.0
283.402283 48.0
283.493622 256.0
283.677094 160.0
283.713959 32.0
283.921844 112.0
284.113068 216.0
284.274109 132.0
284.478851 156.0
284.542023 156.0
284.613159 172.0
284.834808 172.0
284.885193 160.0
285.06662 72.0
285.124054 280.0
285.23468 28.0
285.328796 144.0
285.964569 180.0
285.994873 200.0
286.02179 100.0
286.056702 108.0
286.136261 140.0
286.200226 196.0
286.294525 212.0
286.419128 76.0
286.442719 28.0
286.752716 220.0
286.826874 96.0
286.850464 260.0
287.059479 152.0
287.128876 1716.0
287.447418 64.0
287.585785 168.0
287.714081 128.0
287.795105 148.0
287.822113 160.0
287.882904 132.0
287.967316 168.0
288.081879 140.0
288.134766 320.0
288.197052 188.0
288.666901 176.0
288.87323 64.0
288.974701 132.0
289.126892 212.0
289.177765 136.0
289.225128 120.0
289.347015 136.0
289.47229 200.0
290.095703 144.0
290.126068 164.0
290.383942 148.0
290.407684 172.0
290.465332 48.0
290.506042 164.0
290.784271 88.0
290.916656 164.0
291.127167 168.0
291.15094 188.0
291.276611 56.0
291.592621 116.0
291.66449 136.0
291.762573 196.0
291.891785 172.0
292.010803 200.0
292.106049 120.0
292.214905 68.0
292.534821 176.0
292.572266 132.0
292.916199 128.0
293.042267 188.0
293.08252 132.0
293.12558 352.0
293.246735 152.0
293.30127 128.0
293.580841 164.0
293.850311 76.0
294.118561 132.0
294.290619 36.0
294.404236 220.0
294.475006 176.0
294.539917 60.0
294.939697 112.0
295.107208 152.0
295.133911 168.0
295.185852 32.0
295.322662 48.0
295.548462 108.0
295.592926 188.0
295.647675 172.0
295.757202 128.0
295.811005 184.0
295.835938 140.0
295.897552 132.0
296.048218 144.0
296.113281 152.0
296.157806 192.0
296.226318 76.0
296.356506 152.0
296.544983 260.0
296.918701 180.0
297.100586 368.0
297.186279 88.0
297.244598 144.0
297.323547 136.0
297.350983 56.0
297.543213 208.0
297.817932 148.0
297.943787 76.0
298.106628 164.0
298.254333 108.0
298.295563 68.0
298.46405 212.0
298.601593 148.0
298.81488 52.0
298.973145 104.0
299.10318 200.0
299.137482 156.0
299.592926 108.0
299.744537 60.0
300.109924 140.0
300.237518 108.0
300.358215 136.0
300.420319 156.0
300.665863 124.0
300.756378 124.0
301.062317 172.0
301.203918 72.0
301.400848 132.0
301.781067 112.0
301.919373 140.0
301.947052 164.0
302.091248 116.0
302.097748 168.0
302.14563 128.0
302.196106 108.0
302.289551 212.0
302.358765 184.0
302.608002 68.0
302.691101 100.0
302.7742 92.0
302.871185 136.0
302.978577 124.0
303.079041 32.0
303.141418 140.0
303.345917 96.0
303.907745 68.0
303.935516 40.0
304.122925 92.0
304.195801 144.0
304.563873 176.0
304.935669 324.0
305.130341 108.0
305.241577 168.0
305.269409 80.0
305.794739 92.0
305.923523 92.0
306.111542 140.0
306.623657 72.0
306.735199 76.0
307.160614 128.0
307.3367 204.0
307.499084 76.0
307.684082 132.0
307.78183 136.0
307.890106 112.0
307.925018 200.0
308.089203 224.0
308.34079 92.0
308.372223 108.0
308.410675 244.0
308.505066 76.0
308.68689 68.0
308.721832 144.0
308.917725 172.0
309.061157 188.0
309.095459 320.0
309.173126 128.0
309.397156 120.0
309.425171 180.0
309.513214 140.0
309.596741 204.0
309.735382 184.0
309.77887 124.0
310.003113 64.0
310.104828 228.0
310.164337 164.0
310.329102 72.0
310.367676 216.0
310.630707 112.0
310.711395 68.0
311.112091 268.0
311.26947 176.0
311.536407 64.0
311.856171 180.0
311.993286 52.0
312.115845 144.0
312.186676 148.0
312.232391 80.0
312.422333 92.0
312.763672 56.0
312.872803 84.0
313.114807 172.0
313.281311 148.0
313.379822 96.0
313.536591 136.0
313.75354 112.0
313.951019 168.0
313.982758 128.0
314.127228 152.0
314.190857 136.0
314.235962 216.0
314.462585 160.0
314.6073 188.0
315.016937 104.0
315.120087 264.0
315.554138 116.0
316.132721 188.0
316.247498 68.0
316.304108 84.0
316.332428 144.0
316.374908 80.0
316.601532 140.0
316.977051 88.0
317.115265 256.0
317.229553 180.0
317.561981 132.0
317.710968 108.0
317.902191 188.0
318.44577 164.0
318.538116 128.0
318.655365 124.0
318.847229 52.0
318.957428 132.0
319.288086 156.0
319.337891 148.0
319.54776 52.0
319.718567 76.0
319.85025 204.0
320.071625 136.0
320.430725 180.0
320.505554 136.0
320.644531 156.0
321.122284 132.0
321.496887 140.0
321.768188 144.0
321.814606 132.0
321.896729 80.0
322.105316 548.0
322.143158 172.0
322.561249 32.0
322.657776 216.0
322.704254 36.0
322.818695 196.0
322.897369 200.0
322.929565 76.0
323.136627 540.0
323.362488 100.0
323.781372 108.0
323.82077 180.0
323.878082 192.0
323.949707 168.0
324.10376 88.0
324.136017 104.0
324.171844 116.0
324.480103 112.0
324.64505 196.0
324.673737 180.0
324.964294 152.0
325.120605 1048.0
326.048767 128.0
326.117828 444.0
326.260834 132.0
326.311157 88.0
326.498169 152.0
326.75354 164.0
326.973053 120.0
327.045044 144.0
327.086487 160.0
327.135559 1392.0
327.693237 40.0
327.826569 192.0
327.904266 128.0
327.974335 144.0
328.140533 628.0
328.176208 120.0
328.342102 144.0
328.370941 44.0
328.634308 164.0
328.677582 44.0
328.782257 216.0
328.872467 32.0
329.103516 116.0
329.143494 116.0
329.34668 60.0
329.381592 132.0
329.82605 88.0
330.009216 108.0
330.057434 120.0
330.126129 116.0
330.23465 84.0
330.487885 36.0
330.99649 124.0
331.012054 64.0
331.017914 112.0
331.092407 136.0
331.139496 176.0
331.17569 188.0
331.280762 180.0
331.628601 108.0
332.085449 92.0
332.451904 32.0
332.626099 172.0
332.72049 76.0
332.92746 184.0
333.450623 136.0
333.519684 208.0
333.625092 136.0
333.901459 96.0
333.974182 128.0
334.56369 120.0
334.64743 196.0
335.117279 120.0
335.328644 136.0
335.569244 144.0
335.97406 132.0
336.076233 84.0
336.137726 140.0
336.192993 100.0
336.627411 108.0
336.715057 192.0
337.117615 148.0
337.157135 156.0
337.354492 32.0
337.881134 188.0
337.972595 64.0
338.100677 164.0
338.133606 160.0
338.170105 128.0
338.219421 108.0
338.254395 156.0
338.367889 88.0
338.393524 156.0
338.660858 108.0
338.93927 56.0
339.001556 56.0
339.13446 3792.0
339.228088 40.0
339.272797 40.0
339.436096 208.0
339.465027 76.0
339.616211 180.0
339.734894 156.0
339.929352 56.0
340.02478 164.0
340.13681 968.0
340.237671 32.0
340.63208 180.0
340.733459 128.0
340.891479 68.0
341.146912 272.0
341.523834 140.0
341.562073 172.0
341.608429 112.0
341.676239 120.0
341.862305 104.0
341.928558 48.0
342.05368 120.0
342.351929 52.0
342.41452 52.0
342.550812 120.0
342.657654 164.0
342.683441 80.0
342.753448 140.0
343.125732 96.0
343.3396 88.0
344.247437 56.0
344.842224 284.0
344.912476 152.0
345.145386 344.0
345.443542 180.0
345.568329 128.0
345.641052 212.0
345.781677 140.0
345.82608 92.0
346.007477 60.0
346.158142 184.0
346.400024 36.0
346.489685 160.0
346.537872 132.0
346.970734 128.0
347.018921 124.0
347.148712 132.0
347.330444 112.0
347.360107 32.0
347.460266 124.0
347.99472 156.0
348.217529 124.0
348.39212 208.0
348.63736 248.0
348.897552 132.0
349.12677 144.0
349.195038 168.0
349.351257 108.0
349.518677 200.0
349.779205 76.0
349.942993 104.0
349.976501 164.0
350.112732 140.0
350.253479 152.0
350.548309 152.0
350.594879 164.0
350.700287 172.0
350.941559 156.0
351.098175 128.0
351.154114 76.0
351.198883 160.0
351.422699 172.0
351.530914 96.0
351.575684 116.0
351.60556 156.0
351.654083 160.0
351.971405 100.0
352.038605 176.0
352.102081 108.0
352.41214 160.0
352.484802 128.0
353.085022 76.0
353.410461 148.0
353.507751 160.0
353.623779 116.0
353.704407 176.0
353.784729 108.0
353.837158 152.0
354.111542 156.0
354.165863 192.0
354.323425 204.0
354.387726 44.0
354.4664 116.0
354.57132 40.0
354.608826 64.0
354.690094 176.0
354.803741 60.0
354.883667 104.0
354.961212 116.0
355.002472 128.0
355.128937 20208.0
355.212494 196.0
355.287537 32.0
355.321289 68.0
355.444672 52.0
355.505157 120.0
355.677795 88.0
355.911041 32.0
355.951874 56.0
356.008209 40.0
356.039734 60.0
356.079956 148.0
356.133911 3464.0
356.196259 76.0
356.263611 56.0
356.403381 136.0
356.541656 72.0
356.647583 180.0
356.703278 40.0
356.770966 40.0
356.864929 148.0
357.134583 620.0
357.207184 28.0
357.289948 56.0
357.760376 72.0
357.805542 148.0
357.873322 160.0
358.005096 160.0
358.09549 52.0
358.144379 168.0
358.15448 164.0
358.332825 48.0
358.379089 112.0
358.509918 160.0
358.566437 144.0
358.739838 212.0
359.131989 136.0
359.279114 228.0
359.403625 224.0
359.50174 136.0
359.543243 96.0
359.988708 120.0
360.181335 52.0
360.370209 92.0
360.400452 124.0
360.59317 76.0
360.672546 180.0
361.027954 248.0
361.118713 128.0
361.591644 52.0
361.722137 136.0
362.481628 88.0
362.629425 140.0
362.696167 164.0
362.711426 100.0
362.728088 128.0
363.122314 116.0
363.175415 96.0
363.292999 80.0
363.330933 132.0
363.387848 164.0
363.482697 152.0
363.509277 120.0
363.635345 36.0
364.05188 128.0
364.101501 72.0
364.162262 268.0
364.23822 108.0
364.314209 132.0
364.401581 100.0
364.462372 84.0
364.515564 120.0
364.708557 128.0
364.741913 108.0
364.823425 184.0
364.898651 72.0
364.97171 76.0
365.051575 252.0
365.101013 124.0
365.160034 296.0
365.258179 252.0
365.371277 156.0
365.403564 204.0
365.450958 148.0
365.527069 52.0
365.56131 112.0
365.648834 164.0
365.70517 100.0
365.785889 56.0
365.827759 100.0
365.873444 60.0
365.9534 176.0
365.989044 120.0
366.028198 204.0
366.098083 152.0
366.134277 172.0
366.17038 296.0
366.240265 280.0
366.26947 188.0
366.392242 216.0
366.437866 196.0
366.481445 156.0
366.523254 296.0
366.601868 164.0
366.668213 184.0
366.709106 308.0
366.735291 268.0
366.785675 152.0
366.834656 256.0
366.868103 268.0
366.932251 160.0
366.964783 316.0
366.99054 296.0
367.056458 464.0
367.063843 312.0
367.131042 170612.0
367.279785 196.0
367.339294 160.0
367.400848 140.0
367.441345 300.0
367.474518 224.0
367.503143 236.0
367.538239 156.0
367.589142 92.0
367.640839 128.0
367.706177 152.0
367.760315 1272.0
367.827881 264.0
367.880157 168.0
367.935913 364.0
367.980316 148.0
368.010681 116.0
368.058868 164.0
368.072205 192.0
368.133087 42080.0
368.269714 180.0
368.319092 96.0
368.346405 48.0
368.388214 216.0
368.420166 168.0
368.467712 224.0
368.519684 48.0
368.592133 236.0
368.619354 52.0
368.63266 80.0
368.648743 92.0
368.682831 104.0
368.729736 72.0
368.772919 80.0
368.809784 100.0
368.935364 100.0
368.973969 88.0
369.02771 128.0
369.136169 6204.0
369.227509 88.0
369.263397 52.0
369.329834 140.0
369.407837 72.0
369.475891 136.0
369.564514 40.0
369.617523 116.0
369.66687 52.0
369.729248 80.0
369.810822 52.0
369.841614 156.0
369.880341 148.0
369.912384 172.0
369.946838 116.0
369.995178 204.0
370.04364 128.0
370.066986 84.0
370.141724 568.0
370.229584 320.0
370.260529 104.0
370.295288 96.0
370.344269 188.0
370.382141 148.0
370.440674 164.0
370.470703 244.0
370.515625 216.0
370.54895 256.0
370.590881 64.0
370.668243 380.0
370.748322 144.0
370.814789 108.0
370.901917 124.0
370.940948 88.0
370.969696 104.0
371.019135 116.0
371.111084 132.0
371.136139 152.0
371.180573 108.0
371.227051 64.0
371.26004 160.0
371.29361 104.0
371.333954 120.0
371.395569 124.0
371.45285 120.0
371.491211 96.0
371.579468 84.0
371.639648 144.0
371.683044 44.0
371.732941 84.0
371.759796 140.0
371.809692 68.0
371.860321 64.0
371.915344 76.0
371.986389 112.0
372.112946 88.0
372.185913 100.0
372.342346 108.0
372.52771 44.0
372.659882 140.0
372.708282 48.0
372.91095 60.0
373.021515 80.0
373.073425 40.0
373.106506 80.0
373.161835 32.0
373.473328 80.0
373.524475 108.0
373.581055 40.0
373.627197 104.0
374.077454 64.0
374.189117 72.0
374.269501 68.0
374.335419 36.0
374.435547 40.0
374.497192 188.0
374.624298 80.0
374.840057 112.0
374.974945 32.0
375.071289 96.0
375.630432 56.0
375.665131 96.0
375.846466 88.0
376.085754 40.0
376.197693 112.0
376.853058 92.0
378.428986 140.0
378.563965 56.0
379.00943 44.0
379.164459 92.0
379.203217 56.0
379.928345 68.0
380.227112 80.0
380.425079 80.0
380.537659 96.0
380.984283 236.0
381.081421 44.0
381.137573 288.0
381.18634 128.0
381.244629 60.0
381.322357 28.0
381.349548 40.0
381.438965 104.0
382.076721 116.0
382.149689 168.0
382.699463 76.0
382.734497 76.0
382.761749 40.0
383.018799 128.0
383.088928 44.0
383.131775 88.0
383.217468 40.0
383.31488 32.0
383.486359 120.0
383.685181 44.0
383.965912 124.0
384.633118 104.0
385.199341 84.0
385.316528 108.0
385.636963 52.0
385.742493 108.0
386.03183 116.0
386.685181 52.0
387.100159 68.0
387.194122 44.0
387.221558 60.0
387.288147 80.0
387.362549 96.0
387.699524 84.0
388.020935 36.0
388.385651 80.0
388.899658 72.0
389.720428 84.0
389.869751 56.0
390.082001 48.0
390.801697 64.0
391.151947 104.0
392.030273 108.0
392.191833 120.0
392.463867 64.0
392.625549 48.0
393.853027 28.0
395.192139 432.0
395.236725 52.0
395.363342 56.0
396.190918 28.0
396.686279 88.0
397.388245 88.0
397.693787 56.0
398.786072 96.0
399.000732 40.0
402.483032 56.0
402.682709 56.0
403.186127 52.0
403.865814 88.0
403.989807 64.0
405.186829 316.0
405.551483 48.0
405.767975 112.0
407.023834 120.0
407.164398 156.0
407.642456 80.0
408.57663 216.0
409.746826 92.0
411.053223 52.0
412.741699 72.0
412.887299 56.0
413.696533 144.0
415.455353 176.0
415.504028 160.0
416.904877 128.0
417.112183 32.0
417.506561 136.0
420.170502 84.0
420.345947 116.0
420.741882 56.0
420.974609 164.0
421.211487 156.0
421.440277 212.0
421.477051 116.0
421.828552 104.0
421.996155 32.0
422.47876 108.0
422.616211 148.0
422.646515 120.0
422.67514 44.0
422.785645 128.0
422.851105 96.0
422.916595 132.0
422.95343 192.0
423.072144 68.0
423.112885 160.0
423.192352 12596.0
423.283112 84.0
423.3255 32.0
423.403809 56.0
423.583008 96.0
423.635773 64.0
423.723328 52.0
423.753113 104.0
423.819611 64.0
423.886749 68.0
423.9487 124.0
424.055237 52.0
424.194458 3088.0
424.325806 84.0
424.428314 60.0
424.596436 76.0
424.768707 40.0
424.863068 96.0
424.899628 96.0
425.010773 60.0
425.194946 972.0
425.353851 60.0
425.647003 56.0
425.692169 64.0
425.753754 60.0
426.168671 76.0
426.241302 136.0
426.279602 92.0
426.361786 104.0
426.677246 108.0
426.90033 108.0
426.970245 104.0
426.999054 84.0
427.360718 52.0
427.583252 96.0
427.797302 104.0
428.015503 72.0
428.217285 40.0
428.386169 44.0
429.969513 44.0
430.303894 44.0
433.091125 44.0
433.526154 76.0
433.712646 40.0
435.825012 68.0
436.211517 40.0
436.307159 84.0
436.577423 88.0
437.921692 36.0
440.896454 40.0
441.460815 72.0
441.900024 80.0
445.673584 116.0
446.964478 72.0
447.970734 48.0
448.472168 80.0
450.510284 68.0
451.211823 80.0
451.685455 68.0
457.158691 88.0
458.193359 64.0
459.753998 96.0
462.716217 92.0
462.767609 112.0
469.678009 108.0
477.955719 40.0
478.5448 76.0
480.340302 84.0
483.389893 72.0
491.047272 32.0
494.404968 48.0
495.0513 36.0
495.184174 144.0
496.964203 44.0
500.731445 76.0
507.483704 72.0
509.202393 88.0
514.678406 108.0
516.291687 68.0
518.029724 88.0
523.165894 64.0
524.847107 92.0
524.938293 96.0
525.932861 36.0
527.810547 28.0
527.901978 68.0
534.199341 140.0
535.248718 52.0
535.727722 88.0
537.221375 56.0
541.635986 76.0
544.149475 28.0
546.454773 116.0
548.550476 140.0
552.608826 92.0
553.030029 120.0
554.130493 40.0
555.128906 48.0
556.588257 60.0
557.508972 76.0
559.898865 104.0
561.067444 72.0
562.813171 84.0
563.205139 36.0
563.701172 56.0
564.589966 60.0
565.062988 100.0
565.10083 52.0
566.314148 64.0
567.364685 140.0
573.859131 100.0
577.301941 72.0
578.493286 80.0
580.246704 108.0
582.886597 236.0
584.791016 84.0
587.667969 88.0
590.368164 108.0
597.595764 76.0
601.104065 56.0
603.507324 44.0
604.647095 76.0
606.753418 152.0
608.642395 76.0
610.893372 40.0
612.818359 72.0
615.126404 88.0
617.245911 40.0
619.542419 96.0
621.342041 44.0
623.263489 72.0
624.52063 64.0
628.97583 76.0
630.299316 168.0
630.844116 52.0
636.806946 148.0
637.419861 40.0
642.903809 48.0
643.151123 236.0
643.938782 76.0
647.220825 44.0
647.590515 76.0
654.86377 76.0
656.219299 36.0
664.412598 116.0
668.368774 56.0
668.857727 68.0
669.820618 76.0
672.52771 80.0
676.466553 20.0
676.82373 80.0
680.385681 64.0
680.619324 76.0
680.795898 36.0
682.432739 128.0
682.963196 36.0
683.181641 68.0
688.75415 96.0
688.916077 84.0
695.797546 52.0
695.860596 48.0
695.902588 60.0
698.609192 52.0
699.498535 128.0
699.593262 88.0
700.999573 36.0
705.174072 160.0
711.987366 96.0
713.863281 128.0
715.113525 72.0
715.422241 56.0
717.622559 76.0
718.075867 64.0
720.15741 164.0
720.894653 44.0
725.562073 212.0
732.456726 56.0
735.832642 184.0
736.243042 76.0
737.026306 36.0
737.166809 88.0
740.651001 56.0
740.710571 60.0
741.019348 48.0
741.772644 68.0
742.884338 48.0
743.264099 56.0
744.051086 96.0
745.501343 52.0
745.805725 36.0
755.681763 64.0
755.982727 172.0
758.929749 168.0
760.668884 180.0
764.098083 56.0
768.737549 112.0
771.173096 120.0
771.316772 228.0
771.405212 36.0
772.992554 180.0
775.418213 144.0
780.064026 140.0
784.829712 104.0
785.917358 60.0
786.503296 132.0
791.075867 88.0
793.294189 124.0
794.034363 168.0
797.026428 128.0
797.91449 80.0
801.961914 248.0
805.946106 84.0
806.290833 76.0
815.227966 120.0
817.422974 144.0
818.305237 120.0
820.709656 224.0
820.836853 120.0
823.683044 64.0
823.911499 248.0
823.980103 72.0
824.208618 136.0
824.300049 40.0
827.182556 176.0
830.574829 100.0
832.147217 176.0
835.958191 164.0
836.268982 160.0
837.54718 132.0
839.575989 52.0
839.754761 180.0
840.58551 44.0
842.565918 40.0
843.195801 136.0
844.75116 96.0
846.597534 156.0
847.559082 176.0
851.48645 164.0
854.241577 44.0
855.545105 168.0
857.030273 124.0
857.578064 104.0
859.811829 204.0
861.312378 140.0
861.762207 56.0
862.288086 64.0
862.73822 116.0
867.321716 168.0
870.208008 108.0
870.730591 156.0
874.669983 160.0
874.717102 208.0
875.824097 196.0
876.932861 92.0
878.063782 92.0
878.122742 116.0
878.689087 164.0
880.614746 164.0
880.80249 76.0
882.411377 188.0
884.930298 44.0
885.789001 160.0
887.703369 188.0
889.322998 192.0
889.536682 164.0
891.354065 116.0
892.727234 48.0
893.137634 128.0
893.839661 204.0
894.09552 168.0
895.167114 64.0
896.358459 56.0
896.567017 144.0
897.115417 212.0
897.485046 132.0
898.170898 152.0
898.498962 152.0
898.862915 140.0
900.170227 220.0
900.3255 128.0
901.538208 108.0
902.20166 164.0
905.068604 44.0
905.223206 64.0
905.498657 80.0
907.146423 164.0
908.825684 160.0
908.927734 108.0
909.071716 160.0
910.206238 160.0
910.362366 104.0
910.941101 92.0
911.822266 156.0
913.235168 132.0
914.281982 168.0
915.401733 136.0
916.739075 176.0
916.787231 120.0
916.955994 136.0
919.386475 156.0
919.790833 264.0
920.304016 100.0
920.460999 136.0
920.847473 204.0
922.194824 104.0
923.252869 200.0
923.797241 212.0
924.244934 172.0
925.557312 216.0
926.945557 148.0
927.436462 128.0
928.552063 168.0
929.188965 192.0
930.354187 60.0
931.107117 172.0
931.228638 100.0
932.164185 180.0
932.771973 200.0
935.503296 160.0
936.234375 272.0
936.410522 164.0
937.817993 148.0
938.482483 76.0
939.409485 116.0
941.344238 172.0
941.48468 256.0
941.655701 236.0
943.886292 160.0
946.768555 108.0
950.655212 104.0
951.687134 176.0
953.394104 68.0
956.752502 204.0
956.801758 164.0
956.968018 132.0
957.312805 152.0
957.633057 136.0
959.185791 212.0
960.53009 52.0
961.683899 208.0
962.251831 128.0
962.295044 112.0
963.307861 44.0
963.826843 204.0
964.519043 208.0
966.162598 168.0
966.955994 88.0
967.147827 196.0
968.875549 56.0
969.098572 32.0
971.038879 204.0
972.589966 160.0
973.390869 96.0
973.518799 220.0
973.757263 184.0
973.838013 156.0
974.297668 116.0
975.441101 80.0
976.4422 160.0
976.89624 192.0
978.529663 196.0
979.535645 140.0
979.803528 196.0
980.277039 204.0
980.900269 168.0
982.060059 40.0
982.209778 120.0
982.446838 184.0
983.257996 112.0
983.882202 168.0
984.094482 140.0
984.456604 188.0
984.612732 52.0
985.03125 68.0
986.987366 132.0
987.031189 140.0
987.406372 188.0
988.401062 144.0
988.50116 160.0
989.152039 204.0
990.066162 168.0
991.225098 136.0
991.287781 56.0
992.039856 156.0
992.591614 56.0
993.438293 116.0
993.744629 212.0
996.740784 156.0
996.828735 232.0
996.998413 104.0
997.394348 168.0
997.746399 224.0
998.186523 180.0
1000.457886 128.0
1001.408691 180.0
1002.032288 208.0
1002.088989 156.0
1002.637207 128.0
1002.933472 192.0
1002.9776 132.0
1003.229736 180.0
1006.390564 228.0
1006.699951 224.0
1006.87677 132.0
1006.984131 292.0
1007.078918 148.0
1007.217834 76.0
1007.457886 180.0
1007.710632 268.0
1007.761169 120.0
1008.765991 220.0
1009.783997 168.0
1011.099121 148.0
1014.038635 204.0
1014.786621 44.0
1014.856262 212.0
1015.807678 176.0
1016.270813 140.0
1017.032349 108.0
1017.178345 184.0
1017.413208 168.0
1017.769409 176.0
1017.895752 144.0
1018.734131 128.0
1019.039062 76.0
1019.140747 160.0
1019.471191 48.0
1020.558167 128.0
1021.136841 128.0
1021.206787 72.0
1021.270386 100.0
1021.925598 156.0
1022.829285 192.0
1022.87384 140.0
1023.40863 188.0
1025.045654 112.0
1025.453491 156.0
1027.557861 240.0
1027.832153 60.0
1029.402466 196.0
1029.562134 152.0
1029.84314 132.0
1030.386108 164.0
1032.783325 236.0
1033.455078 176.0
1033.557495 136.0
1034.23584 108.0
1034.408569 180.0
1034.970337 184.0
1035.977539 216.0
1038.073364 200.0
1038.208008 144.0
1038.285767 176.0
1038.547974 136.0
1039.349854 176.0
1039.901733 152.0
1040.216309 56.0
1040.299805 136.0
1040.896851 80.0
1040.941772 72.0
1041.095947 160.0
1041.166626 52.0
1041.288574 52.0
1041.763916 148.0
1042.149414 180.0
1042.36792 196.0
1042.567017 132.0
1043.205322 232.0
1043.344849 132.0
1043.80127 156.0
1044.7854 196.0
1045.596191 52.0
1046.610474 180.0
1047.179932 172.0
1047.869263 216.0
1048.15918 52.0
1048.50708 196.0
1048.758545 176.0
1049.222656 124.0
1050.170532 44.0
1050.364014 196.0
1050.454346 56.0
1050.557617 220.0
1051.293091 192.0
1051.996704 200.0
1052.170898 204.0
1052.771484 180.0
1052.861816 108.0
1054.599854 224.0
1054.83252 192.0
1055.01355 148.0
1055.647095 100.0
1055.95752 152.0
1056.035156 184.0
1056.707886 216.0
1057.329102 208.0
1057.672119 252.0
1058.028198 228.0
1058.688599 168.0
1059.064331 116.0
1059.310425 44.0
1060.001343 176.0
1060.761963 136.0
1061.475098 220.0
1061.637329 176.0
1062.727051 120.0
1062.83728 180.0
1063.077393 160.0
1063.661499 156.0
1063.973145 172.0
1064.154907 120.0
1064.869263 156.0
1065.88269 220.0
1066.383057 40.0
1066.526123 156.0
1067.00708 132.0
1067.852417 36.0
1067.989014 228.0
1068.034546 132.0
1068.94104 168.0
1069.244751 132.0
1069.563721 172.0
1069.713379 160.0
1071.145996 100.0
1071.295776 140.0
1072.273193 180.0
1073.065552 192.0
1073.551025 136.0
1074.085815 140.0
1074.973022 76.0
1075.270874 216.0
1075.371216 176.0
1075.932495 136.0
1076.030518 136.0
1076.311279 192.0
1076.977417 116.0
1077.650269 116.0
1078.159912 164.0
1078.957397 44.0
1079.225464 168.0
1079.421631 212.0
1079.55896 168.0
1080.158691 280.0
1080.265259 176.0
1080.46814 172.0
1081.286011 204.0
1082.366211 164.0
1082.425049 260.0
1082.654297 48.0
1082.929321 152.0
1083.473022 132.0
1084.062744 120.0
1084.285645 152.0
1085.16394 64.0
1085.59668 152.0
1085.931152 208.0
1086.082031 132.0
1086.967773 172.0
1087.112061 216.0
1087.427124 28.0
1087.722534 160.0
1088.497192 224.0
1088.838623 164.0
1088.950317 184.0
1090.6521 112.0
1090.711182 140.0
1091.513306 160.0
1091.848633 196.0
1092.940674 116.0
1093.026245 124.0
1093.411011 252.0
1093.769897 148.0
1094.13855 168.0
1094.393677 224.0
1094.526978 160.0
1094.968262 152.0
1095.949707 188.0
1096.048584 196.0
1096.10791 136.0
1096.305542 140.0
1098.197754 76.0
1098.956299 220.0
1099.530396 140.0
1100.533813 212.0
1101.339478 104.0
1101.689575 196.0
1101.848145 36.0
1102.019897 104.0
1102.244629 136.0
1102.641113 116.0
1102.733643 148.0
1102.811035 228.0
1103.22937 144.0
1103.28894 40.0
1103.374878 168.0
1103.566528 112.0
1103.963257 256.0
1104.227783 180.0
1104.790039 228.0
1105.173828 164.0
1105.305786 208.0
1105.534058 184.0
1105.676758 128.0
1105.961304 212.0
1107.16626 240.0
1108.047241 184.0
1108.623779 164.0
1108.73645 136.0
1109.598145 68.0
1109.75061 228.0
1109.863281 120.0
1110.002563 148.0
1110.201538 44.0
1110.281128 172.0
1110.586182 88.0
1110.725464 200.0
1110.977539 176.0
1111.408813 136.0
1111.667603 176.0
1111.760498 184.0
1112.191895 168.0
1112.576904 224.0
1112.643311 204.0
1112.862427 184.0
1113.25415 104.0
1113.712402 76.0
1114.117676 140.0
1114.861816 140.0
1115.759155 192.0
1115.865479 52.0
1116.244507 156.0
1117.710083 224.0
1118.073975 148.0
1118.18042 144.0
1118.82605 188.0
1119.426636 156.0
1119.685059 120.0
1119.851562 200.0
1120.377808 204.0
1120.43103 48.0
1120.790894 68.0
1120.87085 180.0
1121.383911 124.0
1122.063843 44.0
1122.650635 184.0
1123.170898 108.0
1123.297607 152.0
1123.47937 204.0
1124.171631 112.0
1124.79895 132.0
1124.852417 208.0
1125.379761 160.0
1126.040894 156.0
1126.30542 128.0
1126.695557 104.0
1126.809082 212.0
1127.290161 140.0
1127.724609 52.0
1128.713989 40.0
1129.393921 108.0
1129.911255 172.0
1130.165527 124.0
1130.47998 136.0
1130.935059 188.0
1131.028809 68.0
1131.416992 188.0
1132.361206 164.0
1132.441528 200.0
1132.796631 64.0
1132.903809 116.0
1133.788208 164.0
1134.109863 60.0
1134.934448 172.0
1135.591675 136.0
1135.873413 52.0
1135.947144 152.0
1136.443604 180.0
1136.960327 196.0
1137.208618 152.0
1137.356323 108.0
1137.577881 104.0
1138.02771 88.0
1138.101562 40.0
1138.155273 192.0
1139.035034 144.0
1139.155884 208.0
1139.303711 236.0
1139.444824 80.0
1139.915161 216.0
1140.351929 212.0
1140.517578 80.0
1141.224854 176.0
1141.858032 52.0
1142.120239 148.0
1142.20105 156.0
1142.94104 124.0
1143.950562 84.0
1144.933594 160.0
1145.280029 100.0
1145.459351 196.0
1145.613892 140.0
1145.883423 168.0
1146.227051 124.0
1146.378296 204.0
1146.449341 48.0
1146.692017 144.0
1147.527832 216.0
1148.026855 136.0
1148.215698 152.0
1148.512451 132.0
1149.645874 160.0
1149.848389 152.0
1150.185791 164.0
1150.3479 192.0
1150.455811 168.0
1150.678589 108.0
1150.968994 88.0
1151.630859 188.0
1152.157715 208.0
1152.340088 100.0
1152.394165 56.0
1152.46167 140.0
1152.691406 188.0
1153.361816 168.0
1155.226807 180.0
1155.632812 204.0
1155.795166 192.0
1155.95752 116.0
1156.45166 160.0
1156.661377 220.0
1157.169189 152.0
1157.995361 180.0
1158.151123 104.0
1158.435547 84.0
1158.726929 204.0
1159.126709 184.0
1159.546753 168.0
1160.258545 228.0
1160.834839 184.0
1161.072266 88.0
1161.458862 204.0
1161.743774 100.0
1162.734375 216.0
1163.596436 232.0
1164.499634 128.0
1164.574341 148.0
1165.810791 204.0
1166.05542 136.0
1167.734741 168.0
1168.253784 180.0
1168.70752 160.0
1168.911743 84.0
1169.13623 108.0
1169.708008 48.0
1170.150513 148.0
1170.699707 204.0
1171.008545 120.0
1171.219604 192.0
1171.403564 140.0
1171.498901 180.0
1171.737305 192.0
1172.132568 148.0
1172.616333 212.0
1172.848145 140.0
1173.03894 156.0
1173.570801 168.0
1173.857178 200.0
1174.129883 232.0
1174.532349 176.0
1174.682373 156.0
1175.153076 208.0
1175.228149 144.0
1175.526855 144.0
1175.671753 172.0
1176.088013 156.0
1176.204102 52.0
1176.886719 240.0
1177.378418 48.0
1178.403076 112.0
1178.484985 128.0
1178.532837 112.0
1178.915527 252.0
1179.024902 212.0
1179.11377 180.0
1179.523804 156.0
1179.790405 152.0
1179.899658 168.0
1180.009155 192.0
1180.063843 52.0
1180.761353 128.0
1181.192261 92.0
1181.547974 176.0
1182.670288 140.0
1182.779785 104.0
1183.265869 164.0
1184.203979 152.0
1184.539551 148.0
1184.6698 192.0
1184.745117 136.0
1185.663208 156.0
1186.856079 144.0
1186.979492 128.0
1187.185181 164.0
1187.50061 164.0
1188.419922 136.0
1188.629395 168.0
1189.03064 168.0
1190.135864 136.0
1190.293701 148.0
1190.348633 124.0
1190.45166 144.0
1190.588989 148.0
1190.898071 228.0
1191.601196 192.0
1191.667847 176.0
1191.976685 208.0
1192.162231 156.0
1193.75708 164.0
1193.8396 132.0
1194.699341 132.0
1194.843872 160.0
1195.015869 144.0
1195.229126 152.0
1195.297974 172.0
1195.765869 56.0
1196.013672 136.0
1196.309692 112.0
1196.633301 228.0
1198.03125 180.0
1198.913208 80.0
1199.230225 144.0
1199.388794 120.0
1199.581787 136.0
1199.836914 204.0
1199.885132 112.0
1200.140259 172.0
1200.643677 160.0
1200.719482 176.0
1200.912598 104.0
1201.300293 172.0
1201.515991 180.0
1201.89917 140.0
1202.747925 148.0
1202.851562 92.0
1203.265747 116.0
1204.612549 140.0
1204.94397 176.0
1205.082153 60.0
1205.234131 184.0
1205.745483 164.0
1206.12561 156.0
1206.374512 124.0
1206.498901 120.0
1206.913818 196.0
1207.453125 140.0
1207.591553 216.0
1208.200195 160.0
1208.373169 120.0
1208.906006 48.0
1209.168945 116.0
1209.542725 232.0
1210.0896 172.0
1210.221191 104.0
1210.408081 180.0
1210.546631 148.0
1211.197632 204.0
1211.246094 184.0
1211.433105 68.0
1212.333862 164.0
1212.916016 212.0
1213.304199 104.0
1214.080811 132.0
1215.093506 184.0
1215.225342 188.0
1215.489014 168.0
1215.627808 208.0
1215.80127 184.0
1215.86377 164.0
1216.350708 132.0
1216.460693 160.0
1216.627319 88.0
1217.523071 144.0
1217.578613 236.0
1217.717529 140.0
1217.780029 140.0
1218.050903 244.0
1218.266235 156.0
1218.662231 220.0
1218.724731 108.0
1219.204224 168.0
1219.25293 140.0
1219.5448 156.0
1220.2052 188.0
1221.394287 48.0
1221.554321 176.0
1221.978638 140.0
1222.062134 96.0
1222.42395 176.0
1223.071289 212.0
1223.468018 144.0
1223.53064 56.0
1223.683838 200.0
1224.192139 140.0
1224.456787 172.0
1224.635498 164.0
1224.74231 80.0
1224.832886 176.0
1225.020996 144.0
1225.22998 136.0
1225.501709 40.0
1225.648071 88.0
1226.414551 156.0
1227.062866 76.0
1227.265137 152.0
1227.411499 164.0
1228.290283 156.0
1228.59021 268.0
1228.973999 132.0
1229.274048 136.0
1229.399658 172.0
1229.818359 260.0
1229.909058 184.0
1230.020752 176.0
1230.593262 68.0
1231.207764 144.0
1231.559937 184.0
1231.658936 204.0
1231.962036 136.0
1232.681763 72.0
1232.940308 240.0
1233.303711 168.0
1233.401611 152.0
1233.576294 96.0
1234.362915 196.0
1234.697632 120.0
1234.841919 128.0
1235.800293 156.0
1235.965332 188.0
1236.4021 144.0
1236.625977 132.0
1237.207031 224.0
1238.733643 80.0
1239.294067 220.0
1239.448242 136.0
1239.553345 188.0
1239.669922 188.0
1239.840698 152.0
1240.190552 168.0
1240.21521 296.0
1240.471436 136.0
1240.983276 160.0
1241.074463 112.0
1241.207642 76.0
1241.509155 164.0
1241.852783 224.0
1241.965088 120.0
1242.166504 368.0
1242.699219 176.0
1242.739136 176.0
1242.996338 108.0
1243.101562 88.0
1243.27002 212.0
1243.49707 68.0
1243.613892 144.0
1243.831543 216.0
1244.0 144.0
1244.203613 152.0
1245.291992 100.0
1245.513306 196.0
1245.62915 164.0
1245.685303 160.0
1246.412354 192.0
1246.500366 80.0
1246.554565 196.0
1246.80249 244.0
1246.992188 168.0
1247.799683 140.0
1248.187378 228.0
1248.784424 192.0
1249.390015 256.0
1250.185181 168.0
1251.93335 164.0
1253.565308 256.0
1253.82605 120.0
1254.037476 204.0
1255.010376 160.0
1255.546265 128.0
1255.771973 136.0
1256.054077 176.0
1258.276978 324.0
1258.343994 200.0
1259.011353 168.0
1259.279785 160.0
1259.477539 88.0
1259.823608 172.0
1260.063843 124.0
1260.473633 204.0
1262.304443 160.0
1262.643921 140.0
1263.655396 96.0
1263.839355 148.0
1264.009155 172.0
1264.28479 192.0
1264.363037 96.0
1264.716919 184.0
1264.8302 92.0
1265.34729 196.0
1265.878052 204.0
1265.963013 296.0
1266.168335 188.0
1266.239136 200.0
1266.331299 36.0
1266.501221 156.0
1266.95459 120.0
1267.202515 140.0
1267.500122 140.0
1268.074219 184.0
1268.258423 156.0
1269.222534 84.0
1269.499146 140.0
1270.100098 216.0
1270.265137 244.0
1270.825562 196.0
1270.891357 184.0
1270.97998 116.0
1271.116455 160.0
1271.308105 176.0
1271.535156 152.0
1272.230835 196.0
1272.351562 196.0
1272.834351 220.0
1272.912476 88.0
1273.239136 128.0
1273.305054 176.0
1273.459473 156.0
1273.608398 152.0
1273.956421 272.0
1274.148315 196.0
1274.24292 128.0
1274.567505 128.0
1275.356323 404.0
1275.481323 180.0
1275.725952 156.0
1275.775757 104.0
1276.180908 168.0
1276.269653 188.0
1276.749878 136.0
1277.190796 48.0
1277.35437 116.0
1277.631836 172.0
1277.7052 184.0
1278.058716 180.0
1278.115601 156.0
1278.428711 88.0
1278.563965 140.0
1278.699219 232.0
1278.848633 208.0
1279.382568 140.0
1279.774048 172.0
1279.973511 200.0
1280.179932 148.0
1280.899292 152.0
1281.06311 248.0
1281.554688 180.0
1282.659302 328.0
1282.716431 144.0
1282.974121 208.0
1283.586182 196.0
1283.72876 80.0
1283.87854 84.0
1284.670288 208.0
1284.984131 164.0
1285.119751 160.0
1285.933228 148.0
1286.197388 124.0
1286.661377 140.0
1286.868408 188.0
1287.361084 180.0
1287.639648 228.0
1287.746704 196.0
1288.139526 200.0
1288.746826 192.0
1288.83252 184.0
1289.361328 144.0
1289.439941 212.0
1289.875977 36.0
1289.933228 196.0
1290.533691 124.0
1290.948486 148.0
1291.499146 188.0
1292.439819 384.0
1292.858521 172.0
1292.982666 216.0
1293.16626 120.0
1293.867676 132.0
1293.989502 160.0
1294.068237 36.0
1294.340332 200.0
1295.328613 160.0
1295.787109 244.0
1296.295898 84.0
1296.474976 172.0
1296.905029 176.0
1297.177368 144.0
1297.251831 136.0
1297.63623 84.0
1298.238525 120.0
1298.446533 100.0
1298.733398 152.0
1299.436401 152.0
1299.594238 136.0
1299.723389 156.0
1299.924316 92.0
1300.031982 156.0
1300.333374 188.0
1300.505615 96.0
1301.022461 104.0
1301.402954 136.0
1301.973511 148.0
1302.96875 144.0
1303.248901 60.0
1303.808228 232.0
1304.204712 36.0
1304.679077 116.0
1304.844482 108.0
1305.175171 168.0
1305.72168 192.0
1306.361938 132.0
1306.541748 116.0
1306.835815 124.0
1307.527588 160.0
1307.772217 176.0
1308.362549 156.0
1308.614502 184.0
1308.830444 156.0
1309.535156 168.0
1309.716309 196.0
1310.026001 212.0
1310.400635 204.0
1310.523193 116.0
1311.020386 160.0
1311.359131 216.0
1312.09436 128.0
1312.541382 172.0
1312.822632 188.0
1313.161499 204.0
1313.219238 120.0
1313.608765 152.0
1314.366333 180.0
1314.467285 168.0
1314.539429 144.0
1314.842529 152.0
1315.203491 164.0
1315.31897 216.0
1315.925293 204.0
1316.105835 148.0
1316.44519 88.0
1316.640259 168.0
1316.994141 104.0
1317.290283 44.0
1318.164429 152.0
1318.612549 164.0
1318.872681 156.0
1319.031738 188.0
1319.378784 296.0
1319.443848 196.0
1319.494385 172.0
1319.61731 144.0
1319.696899 56.0
1319.863159 100.0
1319.993286 152.0
1320.067871 168.0
1320.253662 196.0
1320.911865 140.0
1321.11438 60.0
1321.353149 128.0
1322.033325 228.0
1322.083862 152.0
1322.170776 168.0
1322.373413 128.0
1322.880127 120.0
1322.94519 144.0
1323.111694 176.0
1323.430298 120.0
1323.696289 176.0
1324.487671 176.0
1324.618042 124.0
1324.777344 160.0
1324.893311 120.0
1325.047729 156.0
1325.277344 128.0
1325.647461 196.0
1326.154175 44.0
1326.284668 220.0
1326.378784 168.0
1326.560059 140.0
1327.350342 208.0
1328.090088 244.0
1328.474487 196.0
1328.684937 164.0
1328.801025 172.0
1328.90979 124.0
1329.250854 144.0
1329.301636 52.0
1329.787842 168.0
1329.838623 80.0
1330.172607 136.0
1330.245117 224.0
1330.535522 172.0
1330.673462 56.0
1331.225342 112.0
1331.421387 204.0
1331.472168 168.0
1331.857178 140.0
1331.958862 128.0
1332.147705 240.0
1332.43103 84.0
1333.092285 132.0
1333.426514 160.0
1333.877197 88.0
1334.160645 200.0
1334.557129 256.0
1334.69873 136.0
1334.967773 156.0
1335.82605 76.0
1336.15332 260.0
1336.306152 144.0
1336.652588 72.0
1336.931885 168.0
1338.227661 148.0
1338.439697 164.0
1338.853882 84.0
1339.312622 164.0
1339.429199 116.0
1339.822632 216.0
1340.004761 136.0
1340.339844 180.0
1340.813599 48.0
1341.061401 136.0
1341.30188 152.0
1341.578857 184.0
1341.819458 148.0
1342.176758 140.0
1342.380981 148.0
1342.716431 204.0
1342.796631 152.0
1342.935181 208.0
1343.008179 132.0
1343.161255 192.0
1343.226929 168.0
1343.978394 192.0
1344.518433 112.0
1344.715454 168.0
1344.824951 64.0
1345.313965 144.0
1345.890747 128.0
1346.190186 224.0
1346.321533 32.0
1346.372681 84.0
1347.578003 180.0
1347.811768 180.0
1348.630249 184.0
1349.507568 104.0
1349.653687 148.0
1349.96814 148.0
1350.129028 312.0
1350.225952 172.0
1351.328735 112.0
1351.496948 136.0
1351.687256 148.0
1351.870117 204.0
1352.463013 152.0
1352.763062 240.0
1353.449829 140.0
1353.65625 188.0
1353.934814 156.0
1354.117676 224.0
1354.308105 188.0
1354.527832 52.0
1354.681641 160.0
1354.960083 156.0
1355.106567 116.0
1355.663452 112.0
1355.729492 136.0
1355.810059 212.0
1355.945801 208.0
1356.176514 144.0
1356.242432 148.0
1356.293823 164.0
1356.37439 156.0
1356.674927 156.0
1356.894897 216.0
1357.195435 144.0
1357.48877 76.0
1358.068237 168.0
1358.354248 124.0
1358.40564 180.0
1358.772339 204.0
1359.013794 172.0
1359.102539 140.0
1359.183228 192.0
1359.528198 272.0
1359.807007 172.0
1359.958008 168.0
1360.940308 160.0
1361.003662 196.0
1361.099121 160.0
1361.26062 172.0
1361.378174 204.0
1361.470703 152.0
1361.722656 176.0
1362.112549 208.0
1362.406372 148.0
1362.553345 76.0
1363.001587 160.0
1363.141113 160.0
1363.398315 188.0
1363.884888 184.0
1364.464111 136.0
1365.059692 96.0
1365.613159 60.0
1365.758423 168.0
1366.074707 144.0
1366.427856 132.0
1366.898682 112.0
1366.957642 232.0
1367.516968 192.0
1367.838745 236.0
1367.914429 176.0
1368.120483 172.0
1368.400269 164.0
1368.540161 216.0
1368.88623 224.0
1369.2323 152.0
1369.379639 160.0
1369.526978 200.0
1369.72583 180.0
1369.828979 204.0
1369.880493 168.0
1370.418335 236.0
1370.55835 188.0
1370.970947 120.0
1371.056396 156.0
1371.722778 164.0
1372.3125 116.0
1372.459961 156.0
1373.31543 124.0
1373.463013 168.0
1373.721191 168.0
1373.802246 180.0
1374.333496 152.0
1374.650757 180.0
1375.123047 152.0
1375.972046 148.0
1376.193481 168.0
1376.385498 236.0
1376.547974 96.0
1377.212646 144.0
1377.286499 132.0
1377.574585 140.0
1377.862671 180.0
1378.039917 160.0
1378.165527 68.0
1378.298584 204.0
1378.616333 104.0
1378.734619 168.0
1379.00061 52.0
1379.229736 152.0
1379.444092 208.0
1379.821167 152.0
1379.880249 72.0
1379.974731 252.0
1380.116943 160.0
1380.486572 336.0
1380.60498 184.0
1381.093018 136.0
1381.314941 92.0
1381.921753 204.0
1382.550537 232.0
1382.639404 124.0
1382.7948 220.0
1383.031616 172.0
1383.164917 96.0
1383.483154 148.0
1383.601685 152.0
1383.712646 132.0
1383.957031 84.0
1384.060669 212.0
1384.134766 76.0
1384.312378 88.0
1384.578979 240.0
1385.075317 172.0
1385.223389 132.0
1385.517212 152.0
1385.653076 116.0
1385.753418 308.0
1385.853149 152.0
1386.001343 140.0
1386.935059 196.0
1387.001831 132.0
1387.083374 120.0
1387.268677 216.0
1387.335449 140.0
1387.654175 176.0
1387.706055 148.0
1387.765381 88.0
1388.047119 116.0
1388.113892 248.0
1388.210327 136.0
1388.262207 152.0
1388.829102 160.0
1389.003906 80.0
1389.167114 204.0
1389.300659 156.0
1390.072266 176.0
1390.2948 252.0
1390.413574 204.0
1390.665894 116.0
1390.955444 240.0
1391.096436 56.0
1391.594849 160.0
1391.65332 144.0
1392.102295 144.0
1392.239868 160.0
1393.539795 148.0
1393.621582 204.0
1393.71936 124.0
1393.866699 212.0
1394.134277 184.0
1394.78833 132.0
1395.696167 172.0
1395.760864 116.0
1396.052246 152.0
1396.212158 268.0
1396.371948 160.0
1396.550537 160.0
1396.877808 128.0
1397.026611 48.0
1397.234863 156.0
1397.62915 140.0
1397.770508 68.0
1398.23938 108.0
1398.499878 108.0
1398.953979 216.0
1399.436279 344.0
1400.364624 124.0
1401.314819 188.0
1401.448853 148.0
1401.508545 132.0
1402.712646 216.0
1402.991577 80.0
1403.495361 184.0
1403.630249 228.0
1403.87146 164.0
1403.946045 160.0
1404.080322 152.0
1404.684448 184.0
1405.672363 124.0
1405.946045 208.0
1406.012573 164.0
1406.23645 172.0
1406.288696 156.0
1406.348389 176.0
1406.437988 148.0
1406.841064 140.0
1407.250122 208.0
1407.356201 152.0
1407.607422 136.0
1407.878906 48.0
1408.909668 216.0
1408.999268 172.0
1409.283203 192.0
1409.504028 176.0
1409.649292 216.0
1409.873535 180.0
1410.122803 244.0
1410.292114 164.0
1410.381714 196.0
1410.538696 192.0
1410.624634 160.0
1410.680786 192.0
1410.900146 184.0
1410.994751 164.0
1411.091919 168.0
1411.346191 192.0
1411.51062 188.0
1411.666382 180.0
1411.680176 148.0
1411.709595 132.0
1412.026611 184.0
1412.370728 224.0
1412.620361 220.0
1412.86438 164.0
1412.946655 172.0
1413.111328 96.0
1413.470459 164.0
1413.694946 136.0
1413.98584 180.0
1414.143921 176.0
1414.209595 228.0
1414.578125 184.0
1414.802734 116.0
1415.334229 264.0
1415.454102 148.0
1415.762939 180.0
1415.918335 160.0
1416.053223 184.0
1416.120605 160.0
1416.240479 148.0
1416.367798 208.0
1416.71228 44.0
1416.869629 68.0
1417.071899 132.0
1417.469116 220.0
1417.581421 136.0
1417.798828 200.0
1417.963623 152.0
1418.203491 212.0
1418.60083 196.0
1419.005615 180.0
1419.330933 152.0
1420.070435 136.0
1420.392944 96.0
1420.820557 172.0
1420.94812 200.0
1421.130859 132.0
1421.796021 156.0
1421.923584 192.0
1421.983643 56.0
1422.366455 184.0
1422.471558 124.0
1422.929443 132.0
1423.109619 160.0
1423.319946 68.0
1423.710327 212.0
1423.955933 196.0
1424.356323 192.0
1424.852051 128.0
1425.07312 220.0
1425.490723 216.0
1425.783813 144.0
1426.309937 116.0
1427.452759 100.0
1427.572998 148.0
1428.520752 164.0
1428.687134 232.0
1429.378418 180.0
1429.852539 164.0
1429.980469 152.0
1430.063232 232.0
1430.49231 208.0
1430.642822 124.0
1430.928955 148.0
1431.034302 144.0
1431.177368 180.0
1431.546387 140.0
1432.856934 148.0
1432.932251 112.0
1433.143188 148.0
1433.663208 160.0
1434.318848 132.0
1434.710938 148.0
1434.974731 248.0
1436.007812 188.0
1436.488525 184.0
1436.56604 208.0
1436.664062 184.0
1436.769653 132.0
1437.056396 156.0
1437.320435 176.0
1438.180786 104.0
1438.580811 148.0
1438.746948 180.0
1439.334595 168.0
1439.78894 164.0
1441.322388 248.0
1441.866577 140.0
1441.987427 208.0
1442.191528 172.0
1442.629883 104.0
1442.697998 192.0
1442.917236 88.0
1443.234741 100.0
1443.435913 276.0
1443.688477 32.0
1443.764038 180.0
1443.839722 132.0
1444.338867 184.0
1444.512939 176.0
1444.641479 88.0
1445.594849 164.0
1445.806641 52.0
1445.950439 40.0
1446.111328 180.0
1446.283569 172.0
1446.480347 172.0
1446.609009 324.0
1446.825928 196.0
1446.885376 192.0
1447.063232 140.0
1447.287964 216.0
1447.737183 144.0
1447.956787 180.0
1448.221802 148.0
1448.789917 80.0
1448.895996 60.0
1448.986938 192.0
1449.115723 212.0
1449.661255 160.0
1450.146362 148.0
1451.018066 148.0
1451.450195 200.0
1451.715698 100.0
1451.844604 48.0
1452.019043 188.0
1452.216187 100.0
1452.375488 132.0
1452.66333 240.0
1452.944458 88.0
1453.194824 136.0
1453.376831 216.0
1453.779053 164.0
1453.85498 160.0
1453.953613 152.0
1454.530396 180.0
1454.583496 204.0
1455.716309 164.0
1455.866699 180.0
1456.793335 140.0
1457.302368 164.0
1457.867798 184.0
1458.062256 172.0
1458.17627 164.0
1459.057983 172.0
1459.286011 160.0
1459.894409 120.0
1459.947632 156.0
1460.106689 152.0
1460.706421 224.0
1460.966797 220.0
1461.892578 168.0
1461.97876 168.0
1462.054932 72.0
1462.267944 124.0
1462.46582 136.0
1462.587646 180.0
1462.846436 204.0
1463.341309 208.0
1463.447998 224.0
1463.943359 172.0
1464.031494 320.0
1464.415039 136.0
1464.605469 136.0
1464.666382 224.0
1464.940552 220.0
1465.082642 208.0
1465.222412 80.0
1465.412964 160.0
1465.694824 168.0
1466.151367 184.0
1466.228271 148.0
1466.716064 160.0
1467.081909 116.0
1467.257324 88.0
1467.653809 220.0
1467.745239 168.0
1467.821533 192.0
1467.890137 80.0
1468.210449 172.0
1468.317261 136.0
1468.393433 52.0
1468.713867 160.0
1468.77478 160.0
1469.026611 132.0
1469.27832 124.0
1469.430908 104.0
1470.19104 84.0
1470.32373 112.0
1470.567871 92.0
1470.786499 208.0
1471.193848 196.0
1471.354126 156.0
1471.506836 60.0
1471.575562 228.0
1471.680298 188.0
1472.144897 148.0
1472.331543 168.0
1472.446045 176.0
1472.587646 176.0
1472.736328 124.0
1473.645386 148.0
1473.72937 244.0
1474.069336 160.0
1474.233765 136.0
1474.669312 180.0
1474.741455 192.0
1475.074463 100.0
1475.12793 148.0
1475.32666 160.0
1475.946045 148.0
1476.04541 48.0
1476.221924 200.0
1476.407349 168.0
1476.511841 172.0
1476.641846 156.0
1476.817871 136.0
1476.986084 124.0
1477.108521 144.0
1477.338013 136.0
1477.666992 148.0
1477.751099 164.0
1477.812256 184.0
1478.057129 196.0
1478.233154 136.0
1478.469116 224.0
1478.661743 168.0
1478.776489 184.0
1478.952515 132.0
1479.258667 136.0
1479.319946 80.0
1480.614014 164.0
1481.081177 192.0
1481.150146 156.0
1481.257324 160.0
1481.501831 152.0
1481.678711 84.0
1481.785522 76.0
1482.015747 148.0
1482.214966 156.0
1482.391235 204.0
1482.460205 156.0
1482.728394 168.0
1482.966064 148.0
1483.080933 188.0
1483.364624 180.0
1484.592407 220.0
1484.69104 152.0
1484.744751 188.0
1484.967163 224.0
1485.020874 184.0
1485.212524 140.0
1485.404297 92.0
1485.557739 164.0
1485.633667 188.0
1485.941284 200.0
1486.171509 96.0
1486.286621 56.0
1486.378662 132.0
1486.501465 132.0
1487.469971 148.0
1487.637329 164.0
1488.105713 180.0
1488.397461 208.0
1488.464111 172.0
1488.719971 184.0
1488.950317 156.0
1489.303589 164.0
1489.464966 136.0
1489.764526 104.0
1489.845581 220.0
1489.996704 204.0
1490.913696 200.0
1491.040039 232.0
1491.186035 256.0
1491.301392 112.0
1491.670288 84.0
1491.908569 160.0
1492.439087 132.0
1492.515991 124.0
1492.838989 176.0
1492.931274 176.0
1493.015869 124.0
1493.246582 156.0
1493.454224 152.0
1493.678223 156.0
1494.354248 136.0
1494.838989 176.0
1494.979492 136.0
1495.082275 116.0
1495.339233 200.0
1496.07251 164.0
1496.486206 172.0
1496.878906 100.0
1497.094482 112.0
1497.6875 160.0
1497.910889 116.0
1498.003418 164.0
1498.111206 80.0
1498.534912 136.0
1498.748901 196.0
1498.935547 156.0
1498.997192 152.0
1499.159058 160.0
1499.320923 152.0
1500.107422 168.0
1500.477173 60.0
1500.608154 68.0
1500.96167 280.0
1501.255859 168.0
1501.907593 244.0
1502.513184 164.0
1502.983765 436.0
1503.045532 180.0
1503.209229 180.0
1503.345215 180.0
1503.372314 152.0
1503.755493 148.0
1503.824951 124.0
1503.97937 212.0
1504.249512 188.0
