>compound (2R,3R,4S,5R)-2-(6-amino-2-chloro-9H-purin-9-yl)-5-(hydroxymethyl)tetrahydrofuran-3,4-diol
>formula C10H12ClN5O4
>ionization [M+H]+
>parentmass 302.065002
#inchi InChI=1S/C10H12ClN5O4/c11-10-14-7(12)4-8(15-10)16(2-13-4)9-6(19)5(18)3(1-17)20-9/h2-3,5-6,9,17-19H,1H2,(H2,12,14,15)/t3-,5-,6-,9-/m1/s1
#inchikey BIXYYZIIJIXVFW
#Ion_Source LC-ESI
#Instrument qTof
#Compound_Source Commercial
#PI Dorrestein
#Data_Collector Garg_Neha
#Scan -1
#Precursor_MZ 302.066
#ExactMass 301.058
#Charge 1
#CAS_Number N/A
#Pubmed_ID N/A
#Smiles Nc1nc(Cl)nc2n(cnc12)[C@@H]3O[C@H](CO)[C@@H](O)[C@H]3O
#INCHI_AUX N/A
#Library_Class 1
#SpectrumID CCMSLIB00000079255
#IonMode Positive
#UpdateWorkflowName UPDATE-SINGLE-ANNOTATED-GOLD
#LibraryQualityString Gold
#TaskID 278b19f5865741e282cec7349aa7e7a1
##Scan# 1018
#SpectrumFile NCP003512_A2_B11_BD4_01_15728.mzXML
#LibraryName NIHcollectionI_05062014.mgf
#MQScore -1
#Organism NIHcollectionI_05062014
#TIC_Query 0
#RT_Query -1
#MZErrorPPM -1
#SharedPeaks 0
#MassDiff 0
#LibMZ -1
#SpecMZ 302.066
#SpecCharge 0
#internalFilename spec-00000.mgf

>collision 10
60.153103 152.0
93.649597 156.0
97.921059 144.0
113.792145 192.0
114.438484 164.0
115.1614 152.0
120.525742 184.0
124.468658 156.0
126.226776 180.0
132.622787 176.0
133.083878 168.0
134.046448 1220.0
139.997513 152.0
144.897842 204.0
146.309982 168.0
148.123535 144.0
150.880707 164.0
152.062531 288.0
153.05452 152.0
155.075287 180.0
156.521118 204.0
158.098755 156.0
162.001465 148.0
169.472565 192.0
170.024033 9000.0
170.056793 400.0
170.59111 196.0
171.024033 1024.0
171.971634 216.0
172.019211 2360.0
172.061142 168.0
172.977966 180.0
173.028732 344.0
173.50975 140.0
174.089615 184.0
188.105911 168.0
200.857651 140.0
212.03801 144.0
273.116241 168.0
277.916321 148.0
283.066193 152.0
300.157013 120.0
302.065002 1712.0
303.075012 176.0
303.1362 180.0
304.059662 524.0
304.152374 164.0
305.062012 188.0
305.158905 436.0
482.721771 148.0
1317.324219 200.0
1385.524292 144.0
1701.625366 196.0
1765.154053 140.0
1953.979736 224.0
