>compound MLS001140302-01!
>formula C33H34N4O4
>ionization [M+H]+
>parentmass 551.266418
#inchi InChI=1S/C33H34N4O4/c1-39-28-17-22(18-29(40-2)32(28)41-3)30-31-25(24-11-7-8-12-26(24)35-31)19-27(36-30)33(38)34-23-13-15-37(16-14-23)20-21-9-5-4-6-10-21/h4-12,17-19,23,36H,13-16,20H2,1-3H3,(H,34,38)
#inchikey DMZLQLNKJANREG
#Ion_Source LC-ESI
#Instrument qTof
#Compound_Source NIH Natural Product Library
#PI Dorrestein
#Data_Collector VVP/LMS
#Scan -1
#Precursor_MZ 551.266
#ExactMass 550.258
#Charge 1
#CAS_Number N/A
#Pubmed_ID N/A
#Smiles COc1cc(cc(OC)c1OC)c2[nH]c(cc3c4ccccc4nc23)C(=O)NC5CCN(Cc6ccccc6)CC5
#INCHI_AUX N/A
#Library_Class 1
#SpectrumID CCMSLIB00000080261
#IonMode Positive
#UpdateWorkflowName UPDATE-SINGLE-ANNOTATED-GOLD
#LibraryQualityString Gold
#TaskID b1d8e8f6646f4e71acdff9ca3d919d08
##Scan# 1976
#SpectrumFile p2-C06_GC6_01_18006.mzXML
#LibraryName NIH_Natural_Products_Library.mgf
#MQScore -1
#Organism NIH_Natural_Products_Library
#TIC_Query 0
#RT_Query -1
#MZErrorPPM -1
#SharedPeaks 0
#MassDiff 0
#LibMZ -1
#SpecMZ 551.266
#SpecCharge 0
#internalFilename spec-00000.mgf

>collision 10
95.018272 108.0
95.059013 152.0
95.408623 92.0
95.44751 184.0
95.607018 176.0
95.622589 160.0
95.754982 152.0
96.35968 148.0
96.402672 200.0
96.433937 76.0
96.819351 232.0
96.846771 76.0
96.919258 144.0
96.940811 164.0
96.99765 184.0
97.085876 124.0
97.435265 104.0
97.720337 64.0
98.277924 116.0
98.621536 260.0
98.744118 112.0
99.013275 136.0
99.586449 200.0
99.902504 144.0
99.978111 128.0
100.097977 112.0
100.214294 124.0
100.27684 156.0
100.420395 152.0
100.520142 108.0
100.841667 176.0
100.927628 152.0
100.947624 120.0
101.055634 172.0
101.133675 244.0
101.165703 188.0
101.295868 124.0
101.508308 220.0
102.505348 152.0
102.793701 112.0
103.161285 164.0
103.312958 156.0
103.404007 76.0
103.535599 192.0
103.61055 212.0
103.701729 148.0
103.853798 204.0
103.867996 232.0
103.920738 200.0
104.194824 132.0
104.320824 88.0
104.585258 132.0
104.665337 156.0
104.82354 108.0
104.896904 60.0
105.066986 208.0
105.09269 160.0
105.200851 112.0
105.219223 48.0
105.379631 84.0
105.906311 184.0
106.025139 128.0
106.066132 488.0
106.082527 208.0
106.160439 140.0
106.230171 144.0
106.258896 136.0
106.285568 236.0
106.437462 88.0
106.486748 172.0
107.087311 156.0
107.139786 104.0
107.363472 84.0
107.394409 148.0
107.809738 232.0
107.889992 56.0
107.927208 124.0
107.97477 140.0
107.993385 56.0
108.266571 96.0
108.46962 124.0
108.556694 80.0
109.163055 168.0
109.600182 144.0
109.906685 180.0
109.983902 120.0
110.073677 60.0
110.098732 112.0
110.345299 128.0
110.562836 84.0
110.71357 72.0
110.755455 108.0
111.076157 232.0
111.183167 104.0
111.540215 216.0
111.624313 164.0
111.681091 156.0
111.742096 152.0
112.917038 188.0
112.961456 148.0
113.128632 128.0
113.357368 72.0
113.541801 44.0
113.641502 152.0
113.847397 124.0
113.885628 212.0
114.327843 132.0
114.387436 208.0
115.347336 112.0
116.060242 176.0
116.408051 176.0
116.52169 100.0
116.715126 220.0
117.07196 396.0
117.583267 172.0
117.989357 176.0
118.04557 212.0
118.066513 156.0
118.127754 140.0
118.171021 136.0
119.324844 216.0
119.431549 172.0
119.677307 124.0
120.060822 32.0
120.081032 548.0
120.228409 164.0
120.434029 128.0
120.801254 160.0
120.960991 116.0
121.32682 52.0
121.480331 192.0
121.611984 220.0
121.644913 168.0
122.046951 80.0
122.771416 48.0
123.038399 140.0
123.283577 156.0
123.371986 216.0
123.978455 140.0
124.024994 104.0
124.149147 88.0
124.486458 120.0
124.755295 180.0
124.781975 112.0
125.093422 144.0
125.151306 264.0
125.175804 116.0
125.409721 136.0
125.530106 164.0
125.619324 36.0
125.795609 180.0
125.884918 152.0
126.126205 128.0
126.193268 80.0
126.833519 164.0
127.084686 128.0
127.291183 180.0
127.342834 156.0
127.378777 224.0
127.61924 156.0
128.062561 132.0
128.089584 124.0
128.242813 200.0
128.592392 140.0
129.017059 64.0
129.069626 496.0
129.272629 120.0
129.689346 108.0
129.721085 156.0
130.011398 132.0
130.079956 196.0
130.279327 152.0
130.377029 140.0
130.404297 176.0
130.477036 36.0
130.654419 76.0
131.087769 148.0
131.577408 204.0
131.597961 64.0
132.079407 176.0
132.09845 132.0
132.336456 132.0
132.409729 244.0
132.593018 168.0
132.81311 96.0
132.925537 136.0
133.325104 44.0
133.734482 140.0
133.78743 136.0
133.856491 180.0
134.040771 140.0
134.587448 120.0
134.804565 172.0
134.908585 52.0
135.07045 228.0
135.125961 188.0
135.14679 152.0
135.369003 124.0
135.473434 136.0
136.694473 216.0
136.745667 124.0
136.801529 148.0
137.162598 92.0
137.202225 132.0
137.316483 196.0
137.339798 152.0
137.797333 100.0
137.946899 164.0
138.087204 196.0
138.117599 164.0
138.49913 236.0
138.946869 112.0
139.023376 160.0
139.111145 148.0
139.367126 160.0
139.802139 32.0
140.063477 176.0
140.084686 180.0
140.374359 224.0
140.558563 196.0
140.671844 172.0
140.789902 144.0
141.120712 168.0
141.255508 192.0
141.410309 124.0
141.546616 112.0
141.790619 352.0
142.210403 100.0
142.412216 200.0
142.659348 244.0
142.775848 140.0
142.947128 196.0
143.006622 88.0
143.392456 188.0
143.568878 164.0
143.817001 164.0
143.857574 68.0
143.965012 76.0
144.368881 156.0
144.419113 96.0
144.478912 168.0
144.538727 40.0
144.598541 40.0
144.75415 140.0
144.864319 80.0
145.104233 192.0
145.485428 164.0
145.735992 144.0
145.812088 104.0
145.864975 140.0
146.098495 332.0
146.129501 152.0
146.148743 100.0
146.228165 136.0
146.259445 100.0
146.285934 244.0
146.517105 64.0
146.558075 88.0
146.62796 56.0
147.098282 112.0
147.417099 196.0
147.683029 100.0
147.910477 88.0
148.249542 200.0
148.431351 172.0
148.698196 152.0
149.02359 148.0
149.098923 124.0
150.04335 124.0
150.223816 184.0
150.384857 172.0
150.414139 108.0
151.031311 192.0
151.10817 164.0
151.188919 120.0
151.338242 176.0
151.639542 284.0
151.732697 88.0
151.860199 160.0
152.176758 160.0
152.466614 124.0
152.60672 120.0
152.628845 132.0
152.968369 152.0
153.101318 252.0
153.332901 88.0
153.949646 220.0
153.976807 180.0
154.065735 172.0
154.404358 208.0
154.641876 124.0
154.666626 88.0
154.711182 148.0
154.733459 116.0
154.826782 168.0
154.874603 108.0
155.056549 204.0
155.792404 64.0
155.893021 120.0
156.317017 92.0
156.436478 44.0
156.46138 112.0
156.815094 52.0
156.835022 164.0
156.862442 132.0
157.09935 120.0
157.363892 172.0
157.456284 220.0
157.67363 212.0
157.701126 160.0
157.891129 136.0
158.096268 136.0
158.296631 108.0
158.499435 204.0
158.53952 108.0
158.639786 168.0
158.845398 140.0
159.252029 116.0
159.598816 180.0
160.064316 192.0
160.144913 124.0
160.401917 132.0
160.813049 108.0
160.866058 92.0
160.994904 244.0
161.121109 192.0
161.164062 64.0
161.237183 124.0
161.245712 116.0
161.568588 84.0
161.67485 104.0
161.79129 176.0
161.841919 224.0
162.27771 108.0
162.622711 116.0
162.830902 220.0
162.848679 208.0
163.008728 164.0
163.168854 216.0
163.379944 140.0
163.56366 100.0
163.619156 152.0
163.881485 52.0
163.912064 140.0
164.317459 136.0
164.447601 144.0
164.914993 92.0
165.319077 124.0
165.362579 220.0
165.444504 44.0
165.589722 156.0
165.718536 204.0
165.969711 172.0
166.009583 180.0
166.624191 164.0
166.683289 132.0
166.855499 168.0
167.014923 96.0
167.038071 96.0
167.215607 184.0
167.681778 136.0
167.836441 140.0
167.921539 52.0
168.068588 108.0
168.300888 168.0
168.321533 184.0
168.481674 88.0
169.080566 180.0
169.371536 136.0
169.641022 156.0
169.703232 140.0
169.793991 88.0
170.598907 140.0
170.619705 88.0
170.679504 192.0
170.965652 188.0
171.397919 136.0
171.496948 180.0
171.908997 136.0
171.945541 152.0
172.112244 3120.0
172.16745 28.0
172.20401 212.0
172.415619 76.0
172.734604 116.0
173.116364 604.0
173.203156 120.0
173.224106 124.0
173.375198 132.0
173.495605 164.0
173.565811 188.0
173.612015 208.0
173.635605 148.0
173.655579 120.0
173.768478 116.0
173.81662 200.0
173.896927 152.0
173.953094 288.0
174.000351 172.0
174.073868 204.0
174.128922 53084.0
174.189423 172.0
174.220947 100.0
174.267792 72.0
174.299759 104.0
174.326035 168.0
174.365463 84.0
174.391602 148.0
174.415405 32.0
174.453079 48.0
174.504776 88.0
174.554367 56.0
174.629395 100.0
174.666443 116.0
174.707275 36.0
174.725693 60.0
174.755081 120.0
174.777863 116.0
174.858536 72.0
174.908844 84.0
174.925705 180.0
174.95787 144.0
174.99678 48.0
175.132523 7528.0
175.241714 52.0
175.267563 84.0
175.312866 56.0
175.380539 100.0
175.45256 56.0
175.489471 48.0
175.596527 180.0
175.633682 104.0
175.680679 120.0
175.701233 124.0
175.732117 140.0
175.790161 52.0
175.86142 116.0
175.916855 104.0
175.971588 176.0
176.009262 72.0
176.104324 92.0
176.137726 1224.0
176.158081 80.0
176.169006 156.0
176.191498 92.0
176.23642 112.0
176.291382 80.0
176.339676 52.0
176.368546 92.0
176.397629 80.0
176.45842 116.0
176.506012 96.0
176.717621 156.0
176.773178 32.0
176.879044 88.0
177.252472 124.0
177.34523 60.0
177.607712 84.0
177.655472 164.0
177.695251 104.0
178.271439 88.0
178.369781 108.0
178.643677 84.0
178.81131 116.0
178.877838 76.0
179.22139 120.0
179.28801 200.0
179.81073 124.0
179.864105 176.0
179.925507 64.0
179.997589 48.0
180.184555 124.0
180.240662 148.0
180.337646 192.0
180.914642 144.0
181.00264 92.0
181.651566 160.0
182.215317 164.0
182.766495 172.0
182.806854 152.0
183.388565 80.0
183.493698 132.0
183.563797 140.0
183.658188 132.0
184.057602 116.0
185.225922 96.0
185.32074 64.0
185.513153 124.0
185.605331 104.0
185.700256 128.0
185.94986 192.0
186.406097 108.0
186.599152 148.0
186.705124 196.0
186.80304 132.0
187.314789 112.0
187.355652 128.0
187.422302 172.0
187.570923 248.0
188.564438 220.0
188.613632 136.0
188.810486 128.0
189.135574 488.0
189.355103 136.0
189.494812 72.0
189.550919 168.0
189.596191 116.0
189.782593 100.0
190.004745 140.0
190.120071 144.0
190.806671 104.0
190.952408 196.0
191.161484 172.0
191.555191 176.0
191.833511 200.0
192.150314 164.0
192.487396 40.0
192.741516 132.0
192.771912 84.0
193.020691 188.0
193.078766 48.0
193.396927 68.0
193.621185 100.0
193.914856 152.0
194.100601 40.0
194.205978 232.0
194.527847 136.0
194.788879 112.0
194.983368 188.0
195.080643 92.0
195.153961 116.0
195.364288 112.0
195.517334 92.0
195.795715 136.0
196.411682 272.0
197.565353 156.0
197.688461 116.0
198.27655 152.0
198.326996 132.0
198.483994 108.0
198.699966 100.0
200.398102 200.0
201.13414 80.0
201.803665 80.0
202.126114 140.0
202.194031 92.0
202.403503 200.0
202.862473 144.0
203.270889 160.0
203.316284 120.0
203.685379 148.0
203.986588 96.0
204.07756 124.0
204.387589 152.0
204.971313 196.0
205.247803 84.0
205.65004 92.0
205.770279 96.0
205.807053 136.0
206.438538 212.0
206.930695 100.0
207.842133 168.0
207.899521 116.0
207.959793 64.0
208.040161 236.0
208.074615 196.0
208.134903 188.0
208.154999 60.0
208.304352 180.0
208.485352 172.0
209.673599 180.0
210.724258 152.0
210.831161 92.0
211.409531 120.0
211.707703 192.0
211.811981 136.0
212.159714 128.0
212.220596 124.0
212.421249 168.0
212.609283 112.0
212.890884 156.0
212.914108 120.0
213.335419 116.0
214.625168 52.0
214.951859 84.0
215.541687 188.0
216.000687 140.0
216.621262 176.0
218.011963 120.0
218.085434 184.0
218.16481 76.0
218.594223 108.0
218.764633 240.0
219.071182 180.0
219.130096 60.0
219.699081 92.0
219.761047 112.0
220.106384 156.0
220.487457 140.0
221.268356 176.0
221.810455 96.0
221.878647 76.0
222.038757 164.0
222.29982 232.0
222.460098 140.0
222.789719 164.0
223.054184 52.0
223.149323 84.0
223.464584 164.0
223.583603 124.0
223.696701 100.0
224.414688 132.0
224.984512 76.0
225.026306 60.0
225.127838 84.0
225.444489 156.0
225.830154 124.0
226.335892 116.0
227.004105 128.0
227.373093 80.0
227.598236 120.0
227.778427 136.0
227.83551 96.0
227.9617 140.0
228.024811 140.0
228.057861 180.0
228.731628 152.0
228.966476 60.0
229.086945 140.0
229.165283 144.0
229.270737 220.0
229.789383 36.0
230.04892 80.0
230.541229 156.0
230.75415 228.0
230.801193 168.0
231.024994 100.0
231.092896 284.0
231.273117 96.0
231.345764 120.0
231.96373 140.0
232.066803 112.0
232.100159 208.0
232.130478 136.0
232.285156 92.0
232.540039 152.0
233.00766 144.0
233.077545 96.0
233.226456 80.0
233.335892 220.0
233.396698 248.0
234.006088 132.0
234.151382 136.0
235.23378 128.0
235.783569 148.0
236.330933 136.0
236.505356 136.0
236.542084 168.0
236.872803 216.0
237.124039 144.0
237.399948 136.0
237.921555 128.0
238.136505 140.0
238.440659 160.0
238.791138 164.0
240.063034 128.0
241.573349 140.0
241.628342 164.0
242.087128 164.0
242.675858 92.0
242.725464 128.0
242.812286 64.0
243.092438 392.0
243.637939 36.0
243.768433 180.0
243.898972 148.0
244.071289 180.0
244.095093 144.0
244.21611 156.0
245.070282 196.0
245.100586 168.0
245.521576 224.0
245.552246 36.0
245.636459 160.0
245.689499 88.0
245.851746 112.0
245.982834 192.0
246.085434 152.0
246.170151 60.0
246.37117 156.0
246.948318 124.0
247.087799 292.0
247.364471 176.0
247.549194 112.0
247.871841 136.0
248.122025 112.0
248.222916 92.0
248.310715 64.0
248.398544 152.0
248.46756 168.0
248.586792 120.0
248.709183 172.0
249.491348 128.0
249.607681 160.0
249.764923 208.0
249.815247 180.0
251.097214 180.0
251.343262 136.0
251.371658 64.0
252.502609 108.0
253.084869 108.0
253.240524 184.0
253.335068 160.0
253.420593 152.0
254.012146 148.0
254.086395 184.0
254.670471 132.0
254.959579 116.0
255.051758 52.0
255.312454 68.0
255.436493 160.0
255.592392 92.0
255.640121 104.0
255.80838 128.0
255.923416 88.0
256.069885 44.0
256.162262 144.0
256.264221 108.0
256.452209 208.0
256.560608 92.0
257.035828 224.0
257.076477 156.0
257.447601 148.0
257.524261 120.0
258.079346 136.0
258.13147 176.0
258.633728 168.0
258.755371 136.0
259.085419 488.0
259.290314 144.0
259.569214 196.0
259.793701 164.0
259.950928 64.0
260.055481 156.0
260.095276 540.0
260.188446 156.0
260.217346 132.0
260.326508 156.0
260.458191 248.0
260.895203 48.0
261.089722 272.0
261.184601 228.0
261.390503 148.0
261.916046 168.0
262.105347 112.0
262.519348 220.0
262.643738 72.0
262.772766 52.0
262.930878 40.0
262.969604 76.0
263.079346 208.0
263.124542 92.0
263.470093 128.0
263.534729 128.0
263.609039 40.0
263.9646 168.0
264.003418 76.0
264.100433 144.0
265.593628 212.0
265.788269 92.0
266.418121 204.0
266.876373 180.0
267.064972 92.0
267.172333 144.0
267.279694 192.0
267.377319 196.0
267.549835 76.0
267.791748 136.0
267.854828 240.0
267.898285 176.0
268.106812 124.0
268.240417 108.0
268.390411 160.0
268.710022 128.0
268.752441 268.0
269.075562 136.0
269.424988 72.0
269.63739 60.0
270.019897 132.0
270.245605 124.0
270.569611 84.0
270.828308 176.0
270.887085 136.0
270.933136 124.0
271.090027 280.0
271.126434 104.0
271.549377 104.0
271.897125 124.0
272.093414 788.0
272.195862 160.0
272.371887 188.0
272.48819 132.0
272.688629 140.0
272.767517 108.0
273.103943 3160.0
273.178558 192.0
273.224609 52.0
273.283813 92.0
273.31015 104.0
273.415436 120.0
273.774292 40.0
273.813782 104.0
273.971893 108.0
274.106934 984.0
274.156403 152.0
274.631165 196.0
274.683929 140.0
275.081909 748.0
275.261505 40.0
275.287903 136.0
275.433228 112.0
275.502594 184.0
275.799988 168.0
275.879333 100.0
276.079254 188.0
276.120697 244.0
276.17691 140.0
276.2034 100.0
276.382019 280.0
276.484619 200.0
276.693146 144.0
277.097198 100.0
277.269501 76.0
277.332458 72.0
277.936035 132.0
278.165009 168.0
278.726288 200.0
278.786102 116.0
278.91571 208.0
279.281464 164.0
279.357971 68.0
279.394562 244.0
279.433807 176.0
279.853851 180.0
280.106934 116.0
280.280182 144.0
280.853577 80.0
281.1138 200.0
281.307373 120.0
281.71814 84.0
282.072327 128.0
282.383301 108.0
282.442017 136.0
282.473602 188.0
282.620789 212.0
282.667633 148.0
283.377472 188.0
285.391296 200.0
285.677155 100.0
285.700684 72.0
285.939606 120.0
285.966522 104.0
286.076721 268.0
286.10788 280.0
286.619843 100.0
286.734406 176.0
287.082733 2988.0
287.661957 60.0
287.800354 40.0
287.972595 196.0
288.086487 1184.0
288.141479 152.0
288.212433 60.0
288.252777 68.0
288.327332 72.0
288.533508 212.0
288.618042 52.0
288.770233 160.0
288.848022 124.0
289.055573 160.0
289.097137 668.0
289.30484 156.0
289.480896 192.0
289.704437 160.0
289.785736 120.0
289.87262 168.0
289.95517 148.0
290.097351 432.0
290.40271 40.0
290.769104 32.0
290.989746 76.0
291.102692 320.0
291.220673 88.0
291.254639 48.0
291.50943 176.0
291.591003 156.0
292.533173 196.0
292.706787 120.0
293.074677 132.0
293.391632 120.0
293.899811 100.0
294.538177 224.0
295.078125 188.0
295.122559 120.0
295.208038 192.0
295.399597 48.0
295.676727 84.0
296.995789 128.0
297.263397 112.0
298.341858 324.0
298.431244 120.0
298.899017 196.0
298.943756 120.0
299.029785 216.0
299.071075 300.0
299.107239 160.0
299.47049 100.0
299.494598 64.0
299.983887 124.0
300.088684 2068.0
300.297668 160.0
300.36319 148.0
300.57019 64.0
300.697876 76.0
300.809448 108.0
300.8508 156.0
301.098785 3896.0
301.212341 184.0
301.260681 196.0
301.309052 164.0
301.343597 160.0
301.423065 132.0
301.480377 76.0
301.537109 128.0
301.616608 140.0
301.640808 108.0
301.669983 108.0
301.768707 152.0
301.796387 228.0
301.871521 180.0
301.884827 132.0
301.9487 200.0
301.977539 156.0
302.026825 344.0
302.040771 220.0
302.055847 272.0
302.10675 36240.0
302.20401 164.0
302.245972 224.0
302.291016 36.0
302.322144 104.0
302.405731 132.0
302.473541 172.0
302.515991 116.0
302.546082 212.0
302.623016 108.0
302.651001 128.0
302.69519 68.0
302.716339 60.0
302.772186 56.0
302.820679 184.0
302.87265 80.0
302.903809 80.0
302.96756 196.0
303.001465 148.0
303.109772 8284.0
303.206329 268.0
303.236633 132.0
303.272919 76.0
303.309235 56.0
303.349762 120.0
303.388947 48.0
303.426941 100.0
303.516022 52.0
303.577209 192.0
303.628204 64.0
303.662872 60.0
303.694092 68.0
303.774048 76.0
303.833069 64.0
303.874481 52.0
303.971344 48.0
304.041046 108.0
304.079773 1180.0
304.114349 1532.0
304.215271 148.0
304.36734 68.0
304.391632 84.0
304.423309 168.0
304.488892 40.0
304.534027 36.0
304.570648 140.0
304.624329 60.0
304.699371 160.0
304.760895 128.0
304.811951 120.0
304.843231 40.0
304.867554 176.0
304.896484 148.0
304.918579 152.0
304.998444 132.0
305.030884 100.0
305.094696 304.0
305.151611 128.0
305.242981 40.0
305.289459 76.0
305.333374 96.0
305.401093 168.0
305.472504 80.0
305.531647 68.0
305.618774 56.0
305.757568 116.0
305.921417 48.0
306.08963 200.0
306.179077 128.0
306.255676 76.0
306.436829 236.0
306.54834 76.0
306.66333 40.0
306.729553 44.0
306.858551 96.0
306.896912 40.0
307.154968 128.0
307.430573 72.0
307.884399 168.0
308.230255 112.0
308.370026 140.0
308.464386 96.0
308.572784 64.0
308.733612 100.0
308.761597 144.0
308.936493 60.0
309.099152 236.0
309.699554 124.0
309.794128 68.0
310.077942 128.0
310.467102 256.0
310.891571 56.0
311.210999 44.0
311.969849 184.0
312.078827 172.0
312.733154 36.0
312.870422 168.0
313.190857 176.0
313.28244 88.0
313.624237 128.0
314.100372 192.0
314.890869 160.0
315.072205 168.0
315.104889 136.0
315.180542 88.0
315.650665 56.0
315.880554 164.0
316.118591 212.0
316.485718 40.0
316.567169 96.0
316.63443 96.0
317.03476 32.0
317.09433 592.0
317.414062 176.0
317.477905 76.0
317.864563 148.0
318.041992 136.0
318.100372 5964.0
318.240784 76.0
318.294037 32.0
318.318909 32.0
318.457397 116.0
318.517792 144.0
318.752258 192.0
318.848206 60.0
318.922852 128.0
319.02948 184.0
319.104523 1516.0
319.395752 52.0
319.498901 52.0
319.538055 132.0
319.69104 112.0
319.755096 144.0
319.826294 32.0
320.111694 204.0
320.477966 148.0
320.727417 132.0
321.073364 128.0
321.190979 108.0
321.297974 96.0
321.826202 44.0
322.069031 60.0
322.104736 132.0
322.151184 140.0
322.226196 128.0
322.333405 84.0
322.776642 88.0
323.184387 76.0
323.481445 112.0
323.646637 140.0
324.140411 176.0
324.430725 156.0
325.123199 128.0
325.205505 84.0
325.277313 112.0
325.941711 104.0
326.099823 172.0
326.480927 152.0
326.642761 140.0
327.096985 204.0
328.104797 184.0
328.368042 168.0
328.815399 152.0
328.912842 28.0
329.104187 120.0
330.032745 40.0
330.090088 424.0
330.510193 120.0
330.778015 56.0
330.846771 220.0
331.07489 132.0
331.140076 132.0
331.281342 92.0
331.454498 156.0
331.99649 212.0
332.068542 132.0
332.122986 416.0
332.209351 28.0
332.370361 148.0
332.604706 172.0
332.750092 92.0
332.779144 64.0
332.92395 104.0
332.955566 128.0
333.12442 24860.0
333.210205 168.0
333.236755 80.0
333.285797 120.0
333.30954 72.0
333.349396 124.0
333.404694 220.0
333.470154 260.0
333.563812 88.0
333.643799 152.0
333.66925 136.0
333.727417 28.0
333.812164 104.0
333.859772 220.0
333.961243 160.0
334.026154 168.0
334.070007 160.0
334.128143 5280.0
334.2052 200.0
334.276672 36.0
334.323608 120.0
334.382629 68.0
334.449677 52.0
334.54599 36.0
334.578766 60.0
334.695251 128.0
334.728027 52.0
334.887329 140.0
334.958374 48.0
334.982971 124.0
335.030334 60.0
335.130005 1076.0
335.307251 44.0
335.336395 52.0
335.376709 72.0
335.488922 52.0
335.494537 84.0
335.599243 184.0
335.708252 64.0
335.784851 68.0
335.82132 96.0
335.883331 64.0
336.058441 128.0
336.132538 300.0
336.182495 204.0
336.208038 124.0
336.2854 100.0
336.368622 80.0
336.411713 60.0
336.44162 208.0
336.489105 36.0
336.551147 48.0
336.735901 68.0
336.76297 100.0
336.931946 152.0
336.954407 68.0
337.033295 184.0
337.119354 180.0
337.163849 116.0
337.19043 68.0
337.223328 92.0
337.346344 116.0
337.523071 76.0
337.559662 100.0
337.614502 80.0
337.914429 76.0
338.031525 116.0
338.097412 140.0
338.145477 172.0
338.19986 68.0
338.258453 48.0
338.30603 52.0
338.364594 128.0
338.811401 80.0
339.122864 144.0
339.361145 60.0
339.441803 140.0
339.826935 160.0
339.889313 96.0
340.116852 116.0
340.157227 64.0
340.50235 72.0
340.572144 56.0
341.119629 36.0
341.612366 156.0
344.044556 128.0
344.096222 144.0
344.232849 76.0
344.339935 216.0
344.853485 36.0
344.908936 168.0
344.99765 108.0
345.097961 92.0
345.106049 100.0
345.978668 148.0
346.115692 160.0
346.585358 144.0
347.115997 128.0
347.140503 536.0
347.360199 72.0
347.460358 36.0
348.085846 112.0
348.147034 264.0
348.477631 28.0
348.659698 116.0
348.93103 132.0
348.969025 168.0
349.068604 128.0
349.097748 248.0
349.126587 416.0
349.299194 172.0
349.578247 92.0
349.660095 132.0
350.072418 248.0
350.100403 204.0
350.126923 112.0
350.181335 200.0
350.285614 44.0
350.442078 116.0
350.486786 140.0
350.741547 112.0
350.825958 96.0
351.065094 152.0
351.134888 11316.0
351.21759 124.0
351.254791 112.0
351.303284 48.0
351.407745 120.0
351.445038 92.0
351.489807 68.0
351.542053 80.0
351.598022 84.0
351.680145 72.0
351.709991 40.0
351.765167 92.0
351.792114 164.0
351.851868 68.0
351.911133 64.0
351.966949 92.0
351.995178 124.0
352.049744 180.0
352.075897 76.0
352.138092 3208.0
352.456909 48.0
352.782043 76.0
352.868042 68.0
353.138519 528.0
353.28894 44.0
353.496429 56.0
353.571259 48.0
353.822052 88.0
353.904419 72.0
354.020355 104.0
354.087891 64.0
354.121307 148.0
354.134277 136.0
354.145782 140.0
354.21524 112.0
354.305145 92.0
354.380096 140.0
354.436279 112.0
354.572205 132.0
354.862091 168.0
354.938568 44.0
355.111053 92.0
355.309875 160.0
356.421204 88.0
357.74881 196.0
358.110291 144.0
358.611389 184.0
359.10611 152.0
359.154327 160.0
359.297668 160.0
359.8638 112.0
360.135437 4484.0
360.208984 176.0
360.48703 144.0
360.517242 64.0
360.611725 32.0
360.91037 88.0
361.03894 128.0
361.122406 3496.0
361.212921 28.0
361.249054 116.0
361.315063 48.0
361.349121 168.0
361.413422 68.0
361.526947 64.0
361.553436 52.0
361.62973 176.0
361.867615 48.0
362.026642 44.0
362.126068 1224.0
362.183197 180.0
362.231171 160.0
362.276611 40.0
362.367554 160.0
362.394073 60.0
362.587311 68.0
362.840942 92.0
362.951233 152.0
363.129272 624.0
363.24704 68.0
363.634064 56.0
363.725159 68.0
364.002289 84.0
364.123199 564.0
364.156982 424.0
364.226379 44.0
364.385925 88.0
364.499908 148.0
364.774902 168.0
365.15741 332.0
365.751099 220.0
365.781555 36.0
365.834839 104.0
366.109955 144.0
366.764282 76.0
366.935822 80.0
367.112885 504.0
367.152527 188.0
367.202759 100.0
367.362946 48.0
368.122467 108.0
368.160645 148.0
368.233215 48.0
368.741333 124.0
368.955414 72.0
368.997467 60.0
369.043335 100.0
369.104523 84.0
369.47934 76.0
371.01886 176.0
371.383118 40.0
371.693878 108.0
372.142944 276.0
372.511627 64.0
372.807465 132.0
373.061127 128.0
373.124969 172.0
373.676453 168.0
374.149811 36.0
374.723663 124.0
376.652496 84.0
376.876556 36.0
377.035004 176.0
377.12439 152.0
377.162537 104.0
377.301697 36.0
377.487274 176.0
377.699982 216.0
377.928223 44.0
378.144501 2128.0
378.218475 88.0
378.249451 48.0
378.621124 144.0
378.729584 60.0
378.969757 72.0
379.070496 156.0
379.131134 4992.0
379.225525 52.0
379.372803 72.0
379.496857 44.0
379.524017 64.0
379.648102 208.0
379.950623 128.0
380.08255 152.0
380.13559 1680.0
380.24942 200.0
380.276581 44.0
381.076508 100.0
381.134064 496.0
381.16095 324.0
381.375732 96.0
381.465149 60.0
381.550659 124.0
381.593445 196.0
381.81897 100.0
382.131073 300.0
382.601044 144.0
382.632202 100.0
382.706177 108.0
382.803528 108.0
383.129486 156.0
383.158722 184.0
383.311768 84.0
383.399536 76.0
384.116943 148.0
384.152039 104.0
385.17865 40.0
385.909454 28.0
386.155792 128.0
386.327911 172.0
386.78183 124.0
387.604248 216.0
388.164764 88.0
388.937622 48.0
389.12561 176.0
389.491272 212.0
389.546265 120.0
390.141418 432.0
390.218262 40.0
391.155182 168.0
391.292328 72.0
391.457703 104.0
392.150269 184.0
392.39151 76.0
393.130157 244.0
393.168549 100.0
394.127991 336.0
394.191345 184.0
394.325714 140.0
394.626129 120.0
394.823853 64.0
394.942505 188.0
395.136536 564.0
396.138824 596.0
396.51825 140.0
397.157318 1112.0
397.255768 36.0
397.331116 128.0
397.783508 48.0
398.166534 892.0
398.279877 80.0
399.150085 136.0
399.189972 112.0
399.313232 52.0
399.464386 176.0
399.63147 156.0
400.029449 124.0
400.152863 148.0
400.738312 172.0
401.208588 104.0
401.707062 124.0
402.181915 136.0
403.960022 144.0
404.156982 276.0
404.720428 104.0
405.123871 136.0
405.169891 284.0
405.273163 88.0
406.125061 180.0
407.142639 388.0
407.186584 120.0
407.568207 220.0
408.12796 124.0
408.161346 184.0
408.747192 56.0
409.157166 276.0
409.197144 52.0
409.881836 36.0
410.121948 236.0
410.166901 236.0
410.446167 164.0
410.849457 132.0
411.154266 104.0
411.62439 56.0
412.016174 196.0
412.262634 212.0
412.387909 128.0
413.795624 92.0
414.946228 120.0
415.080017 124.0
415.144897 144.0
416.043182 112.0
416.154144 620.0
416.305511 84.0
417.13028 52.0
417.168488 208.0
417.199371 140.0
417.9599 48.0
418.245667 56.0
419.253052 64.0
419.487152 100.0
420.13147 80.0
420.233459 128.0
420.339539 68.0
420.49054 100.0
421.7771 72.0
422.014191 68.0
422.141907 136.0
422.181854 116.0
422.930542 96.0
423.171661 2108.0
423.266235 132.0
423.356323 40.0
423.716766 56.0
423.815094 68.0
423.974915 96.0
424.167175 968.0
424.470917 196.0
424.62265 144.0
425.024658 140.0
425.186798 2384.0
425.240845 192.0
425.283203 100.0
425.332458 56.0
425.398132 52.0
425.603394 84.0
425.64447 88.0
425.778259 48.0
425.897797 112.0
426.00589 76.0
426.120911 176.0
426.1922 1236.0
427.201294 208.0
427.664825 116.0
428.082886 112.0
428.162048 164.0
428.19223 132.0
428.22702 188.0
428.53598 108.0
428.770874 60.0
428.981079 76.0
429.455261 32.0
430.024628 60.0
430.175934 148.0
431.131439 148.0
431.205811 116.0
432.194153 96.0
432.910248 92.0
433.382446 64.0
433.950256 176.0
434.323486 144.0
434.360809 124.0
435.290466 168.0
436.05899 112.0
436.140045 224.0
437.086151 136.0
437.15274 128.0
438.702087 168.0
439.189972 44.0
439.256714 76.0
440.183228 100.0
440.563293 172.0
441.089813 152.0
441.194305 112.0
441.424286 88.0
441.562286 32.0
441.792328 64.0
442.168915 92.0
442.210754 96.0
442.378174 172.0
442.637756 124.0
443.09848 112.0
443.186249 144.0
443.212402 308.0
443.71875 60.0
444.121307 100.0
444.19046 2432.0
444.305878 56.0
444.389771 48.0
444.561829 60.0
444.789703 160.0
445.201508 1116.0
445.258698 84.0
445.544312 72.0
445.649353 44.0
446.195587 276.0
446.314362 148.0
446.527893 56.0
446.574158 52.0
447.036926 152.0
447.226776 144.0
447.575745 56.0
448.717529 108.0
448.8862 84.0
448.974731 144.0
449.071747 44.0
449.472504 148.0
449.679291 84.0
449.966339 88.0
450.059204 108.0
450.147888 88.0
450.191315 464.0
450.236572 180.0
450.578705 104.0
450.916748 52.0
451.168884 2176.0
452.167084 1288.0
452.790924 56.0
453.173645 544.0
454.168365 104.0
454.202301 164.0
454.380463 48.0
455.95578 64.0
456.0578 112.0
457.712677 68.0
458.093994 164.0
459.199921 104.0
460.595612 92.0
461.108307 148.0
461.215179 128.0
462.956451 116.0
467.58429 112.0
467.83136 116.0
468.192566 1200.0
469.186737 648.0
470.203827 132.0
470.722626 136.0
471.176147 132.0
471.54776 68.0
472.040588 104.0
473.537903 76.0
474.369843 52.0
474.725342 96.0
475.159088 100.0
475.445465 148.0
476.053223 112.0
476.96994 100.0
478.766785 100.0
479.912811 104.0
480.190735 380.0
480.558319 92.0
480.841949 64.0
480.911774 76.0
481.204254 128.0
481.789459 148.0
482.178345 172.0
484.028748 36.0
484.558716 60.0
484.742737 96.0
485.900269 132.0
486.659546 76.0
488.052368 100.0
490.165131 96.0
490.226837 188.0
490.288513 96.0
490.989471 100.0
491.289398 112.0
491.329102 136.0
491.871887 88.0
492.194153 92.0
492.927399 100.0
492.976013 176.0
493.229858 228.0
494.214111 120.0
494.53717 104.0
495.010864 140.0
495.405029 80.0
495.582245 76.0
497.378296 60.0
499.426605 144.0
503.009064 92.0
503.186829 128.0
505.221039 108.0
505.525269 120.0
506.196747 136.0
506.232544 184.0
506.44751 272.0
506.590851 144.0
507.218201 108.0
509.385498 116.0
510.099976 148.0
510.936401 76.0
511.435883 68.0
513.143188 80.0
514.307007 92.0
514.406311 64.0
516.462708 200.0
516.539124 60.0
517.177124 132.0
517.215515 148.0
517.842712 76.0
518.227966 136.0
519.646851 136.0
520.209534 44.0
521.204163 300.0
521.241943 152.0
522.513611 132.0
524.599304 88.0
525.520508 148.0
527.232849 56.0
527.374573 68.0
527.7677 80.0
528.128967 140.0
528.627625 104.0
529.030396 44.0
529.808899 68.0
531.840271 192.0
532.129456 96.0
532.437134 192.0
533.095703 56.0
533.256226 1112.0
534.091675 56.0
534.260498 1228.0
534.344666 104.0
535.243408 532.0
535.262573 264.0
536.235291 144.0
536.476929 60.0
536.555298 240.0
536.868835 148.0
537.245789 120.0
537.523865 152.0
537.869995 96.0
538.242676 160.0
538.839722 172.0
538.932129 132.0
539.121582 36.0
540.02771 64.0
540.370056 200.0
541.207764 128.0
541.499512 128.0
541.786682 128.0
542.101746 40.0
542.134216 120.0
543.015015 144.0
543.056763 104.0
546.196594 84.0
546.438477 68.0
546.604919 68.0
547.388 40.0
548.096008 80.0
548.133301 72.0
548.273071 96.0
548.330627 188.0
548.757874 136.0
549.000305 168.0
549.284851 108.0
549.55072 96.0
549.616089 116.0
549.748718 156.0
549.82135 172.0
549.891357 84.0
549.980042 192.0
550.227478 152.0
550.316162 140.0
550.371033 80.0
550.488953 96.0
550.666382 52.0
550.73468 168.0
550.76178 180.0
550.85321 176.0
550.958435 160.0
551.043945 156.0
551.090515 112.0
551.147583 152.0
551.191406 236.0
551.266418 23088.0
551.416565 228.0
551.507385 92.0
551.605835 68.0
551.655457 148.0
551.723633 168.0
551.764648 100.0
551.783203 148.0
551.851746 140.0
551.92395 248.0
552.000122 92.0
552.101135 44.0
552.13385 116.0
552.173462 64.0
552.269165 7892.0
552.409851 48.0
552.442566 88.0
552.525024 172.0
552.585571 184.0
552.616638 160.0
552.655762 128.0
552.727966 76.0
552.765381 48.0
552.804321 152.0
553.032166 96.0
553.108215 216.0
553.272888 2048.0
553.358459 108.0
553.403076 84.0
553.476868 104.0
553.524658 80.0
553.598633 48.0
553.645447 164.0
553.734436 80.0
554.010803 56.0
554.113892 128.0
554.278625 240.0
554.404358 80.0
554.472229 116.0
554.634033 132.0
554.719421 124.0
554.816223 88.0
554.829895 76.0
554.847839 72.0
555.05127 116.0
555.140381 132.0
555.194275 80.0
555.318542 64.0
555.416016 92.0
555.45929 36.0
555.565186 120.0
555.625 176.0
555.768921 60.0
555.895569 68.0
555.994141 88.0
556.313293 40.0
556.436462 84.0
556.496399 60.0
556.583679 88.0
556.61554 84.0
557.041138 108.0
557.210266 40.0
557.379395 104.0
557.755371 88.0
559.929077 72.0
560.649841 44.0
560.999634 96.0
561.639954 80.0
563.070007 100.0
564.724182 100.0
566.603394 88.0
566.82135 48.0
568.333862 96.0
569.126526 44.0
571.022583 36.0
571.07489 68.0
572.888428 60.0
575.649963 96.0
577.748169 88.0
581.735168 40.0
583.820374 76.0
584.537109 72.0
591.907959 124.0
593.366333 128.0
593.831848 56.0
597.124695 36.0
602.120117 108.0
605.930542 120.0
607.940857 64.0
615.003174 100.0
616.385986 80.0
619.884399 144.0
620.384949 64.0
622.141052 84.0
630.194153 132.0
633.92688 80.0
637.987305 156.0
642.010254 76.0
645.494568 20.0
645.848572 80.0
652.745728 104.0
657.96814 160.0
658.979309 80.0
661.116638 72.0
664.165039 64.0
665.699524 76.0
673.455444 76.0
677.966736 192.0
678.433228 96.0
687.676392 108.0
692.0047 48.0
715.381897 80.0
729.412964 56.0
730.197937 116.0
731.193237 104.0
731.257812 68.0
736.293213 124.0
742.007202 36.0
742.674194 76.0
745.921204 92.0
747.890198 52.0
749.93811 84.0
754.042358 60.0
754.479614 64.0
757.681091 140.0
758.508545 92.0
760.444702 52.0
762.614136 136.0
767.739685 192.0
769.356323 92.0
771.665588 80.0
772.146667 40.0
773.275269 36.0
773.745728 100.0
779.886414 52.0
782.885071 124.0
786.296387 92.0
787.983154 172.0
789.151245 128.0
790.963806 80.0
791.120544 88.0
795.369446 56.0
797.312744 216.0
798.920776 52.0
799.399048 108.0
801.809265 100.0
810.778015 96.0
811.186096 100.0
812.297485 96.0
818.30426 152.0
818.634521 96.0
820.423523 156.0
822.882385 28.0
833.323181 64.0
849.058533 184.0
855.053955 68.0
856.142578 100.0
857.127014 76.0
859.167603 52.0
860.311401 72.0
862.221375 64.0
862.449341 212.0
864.677673 200.0
866.451843 184.0
871.162537 36.0
872.255493 176.0
877.712891 184.0
884.039246 64.0
887.219849 212.0
889.230652 144.0
890.465515 60.0
891.208069 96.0
892.271912 56.0
898.125488 132.0
900.19635 76.0
903.405884 84.0
920.788696 132.0
921.906311 44.0
926.438049 84.0
926.874268 104.0
929.651489 160.0
929.772827 144.0
930.14917 76.0
945.00647 184.0
952.129211 32.0
954.304443 108.0
956.722229 196.0
957.6828 20.0
960.585938 220.0
968.733154 28.0
969.842285 200.0
972.45343 36.0
973.173523 160.0
973.676514 76.0
974.91272 32.0
976.715698 196.0
979.784546 92.0
981.747925 60.0
993.036194 148.0
995.351807 124.0
1005.284851 84.0
1011.611389 68.0
1013.378296 164.0
1013.49231 160.0
1013.638062 100.0
1024.375 216.0
1030.901855 68.0
1031.579224 92.0
1032.199463 156.0
1033.107666 132.0
1035.533569 156.0
1038.135376 80.0
1038.905029 108.0
1047.022949 84.0
1049.94873 232.0
1052.342651 100.0
1055.172485 196.0
1059.178101 124.0
1061.757568 120.0
1064.638916 144.0
1065.139038 148.0
1065.294922 72.0
1071.937622 72.0
1074.930542 128.0
1075.772461 128.0
1078.81665 72.0
1079.77124 168.0
1083.102539 136.0
1083.947754 120.0
1087.843384 92.0
1093.081421 152.0
1093.199951 64.0
1094.213501 116.0
1096.907837 44.0
1097.619873 136.0
1098.272705 52.0
1099.640625 100.0
1101.612671 188.0
1102.927612 172.0
1109.394775 124.0
1123.799683 188.0
1134.47998 124.0
1135.874634 96.0
1138.935425 56.0
1140.729492 76.0
1141.011841 136.0
1143.339111 124.0
1144.510376 196.0
1147.582764 176.0
1149.444336 96.0
1151.098022 140.0
1152.705688 136.0
1157.250977 144.0
1157.325439 148.0
1158.774902 84.0
1159.161133 204.0
1161.757812 80.0
1163.481445 164.0
1165.804321 312.0
1166.096558 52.0
1166.320801 164.0
1170.491089 180.0
1172.405273 124.0
1179.530518 92.0
1182.061035 112.0
1182.546875 220.0
1187.774658 60.0
1193.39209 188.0
1195.655151 44.0
1202.153564 152.0
1209.043335 184.0
1211.861572 188.0
1212.443604 232.0
1216.285889 116.0
1216.514893 180.0
1218.702515 184.0
1224.726929 96.0
1226.719727 156.0
1229.342041 176.0
1230.647339 196.0
1232.819702 188.0
1234.379883 100.0
1239.488281 136.0
1251.970825 52.0
1255.889282 144.0
1259.001587 124.0
1264.487549 200.0
1268.574463 188.0
1270.744507 240.0
1271.730835 64.0
1279.343506 200.0
1280.347534 212.0
1284.994873 148.0
1294.286255 196.0
1297.546265 124.0
1307.321777 148.0
1308.113403 172.0
1309.89917 60.0
1311.095215 188.0
1314.044312 184.0
1315.682495 172.0
1317.841919 100.0
1320.97937 84.0
1321.413452 104.0
1321.782471 252.0
1326.852295 148.0
1327.860229 116.0
1329.463501 192.0
1335.609863 204.0
1343.097412 76.0
1344.082275 192.0
1345.344849 168.0
1346.841797 44.0
1349.055908 164.0
1350.591431 152.0
1351.637573 76.0
1352.413208 96.0
1354.412109 100.0
1355.870117 68.0
1357.277466 188.0
1358.671021 296.0
1360.101929 168.0
1360.468872 168.0
1363.311279 200.0
1364.362427 104.0
1365.244629 184.0
1365.936035 196.0
1367.341309 84.0
1370.240112 180.0
1372.409302 264.0
1375.190308 124.0
1376.54126 132.0
1378.432251 160.0
1378.535767 168.0
1381.559692 132.0
1382.314331 148.0
1383.180176 180.0
1386.587158 184.0
1386.772461 144.0
1387.721313 164.0
1388.625977 192.0
1389.033936 160.0
1390.25061 180.0
1390.636597 200.0
1391.958008 148.0
1396.439087 196.0
1403.21521 208.0
1408.573242 52.0
1409.028931 88.0
1409.35022 136.0
1410.067505 168.0
1412.751831 188.0
1416.157471 144.0
1424.408081 188.0
1425.30957 176.0
1425.955811 228.0
1431.703491 180.0
1433.405884 124.0
1434.860596 136.0
1435.870972 152.0
1436.150024 52.0
1437.704102 188.0
1439.493164 156.0
1442.477417 156.0
1443.4375 152.0
1445.740234 196.0
1453.686279 176.0
1454.118774 120.0
1460.029297 180.0
1463.468628 164.0
1466.005127 140.0
1467.354248 164.0
1469.039551 220.0
1470.108398 208.0
1470.771729 196.0
1470.932007 144.0
1471.840454 80.0
1474.025024 204.0
1474.078491 72.0
1475.821167 268.0
1477.090698 148.0
1477.358398 140.0
1482.082031 204.0
1484.734253 212.0
1484.787964 164.0
1486.207031 232.0
1489.446655 184.0
1491.605835 132.0
1493.358887 204.0
1497.037476 240.0
1497.530396 160.0
1501.8927 108.0
1502.810669 120.0
