>compound Cinanserin
>formula C20H24N2OS
>ionization [M+H]+
>parentmass 341.168
#inchi InChI=1S/C20H24N2OS/c1-22(2)15-8-16-24-19-12-7-6-11-18(19)21-20(23)14-13-17-9-4-3-5-10-17/h3-7,9-14H,8,15-16H2,1-2H3,(H,21,23)/b14-13+
#inchikey RSUVYMGADVXGOU
#Ion_Source LC-ESI
#Instrument qTof
#Compound_Source Commercial
#PI Dorrestein
#Data_Collector Garg_Neha
#Scan -1
#Precursor_MZ 341.168
#ExactMass 340.161
#Charge 1
#CAS_Number N/A
#Pubmed_ID N/A
#Smiles CN(C)CCCSc1ccccc1NC(=O)/C=C/c2ccccc2
#INCHI_AUX N/A
#Library_Class 1
#SpectrumID CCMSLIB00000079153
#IonMode Positive
#UpdateWorkflowName UPDATE-SINGLE-ANNOTATED-GOLD
#LibraryQualityString Gold
#TaskID 278b19f5865741e282cec7349aa7e7a1
##Scan# 1137
#SpectrumFile NCP003592_A2_B11_BD8_01_15734.mzXML
#LibraryName NIHcollectionI_05062014.mgf
#MQScore -1
#Organism NIHcollectionI_05062014
#TIC_Query 0
#RT_Query -1
#MZErrorPPM -1
#SharedPeaks 0
#MassDiff 0
#LibMZ -1
#SpecMZ 341.168
#SpecCharge 0
#internalFilename spec-00000.mgf

>collision 10
44.887291 160.0
45.316357 152.0
45.563221 248.0
45.77705 160.0
46.210369 160.0
46.417606 200.0
46.458294 240.0
46.851181 192.0
47.432152 140.0
47.548542 192.0
47.695503 156.0
47.798653 148.0
48.067356 164.0
48.234467 164.0
48.62645 192.0
48.686146 176.0
48.813995 140.0
49.125412 148.0
49.213905 176.0
49.279549 172.0
49.423565 184.0
49.528561 180.0
49.595818 156.0
50.087612 156.0
50.430485 172.0
50.474312 164.0
50.56485 140.0
50.743332 176.0
50.853981 148.0
51.136818 156.0
51.176678 144.0
51.225098 188.0
51.377632 240.0
51.481831 172.0
51.521824 220.0
51.667988 100.0
52.050377 120.0
52.251553 204.0
52.488064 156.0
52.548347 176.0
53.05743 152.0
53.069031 140.0
53.109421 136.0
53.250423 180.0
53.339054 196.0
53.357952 200.0
53.432415 100.0
53.666615 248.0
53.755592 188.0
53.787701 196.0
54.547951 176.0
54.767193 216.0
54.91016 188.0
55.204048 160.0
55.239544 180.0
55.578815 176.0
55.838783 168.0
55.865555 160.0
55.944427 192.0
56.002499 168.0
56.047192 156.0
56.063583 164.0
56.430786 160.0
56.733204 144.0
57.221466 272.0
57.405293 196.0
58.022198 152.0
58.158722 172.0
58.412479 188.0
58.432255 164.0
59.071465 188.0
59.29348 160.0
59.48674 168.0
59.682541 224.0
59.764912 200.0
59.89423 172.0
60.233582 164.0
61.551022 116.0
61.578701 208.0
61.62244 180.0
62.104591 152.0
62.270962 152.0
62.505199 152.0
62.650051 144.0
62.809261 156.0
62.997108 176.0
63.068214 188.0
63.180489 168.0
63.262779 164.0
63.486187 188.0
63.540115 172.0
63.65757 156.0
64.005814 144.0
64.187462 184.0
64.426872 172.0
64.625122 164.0
64.984016 144.0
65.14135 152.0
65.50489 148.0
65.640274 160.0
65.761269 156.0
66.040787 176.0
66.429543 180.0
66.629219 152.0
66.725105 176.0
66.908943 160.0
67.104454 168.0
67.723793 176.0
67.80899 172.0
68.044945 228.0
68.474388 200.0
69.048729 188.0
69.434608 172.0
69.488029 156.0
69.923058 164.0
69.943031 152.0
70.056259 224.0
70.237961 140.0
70.548553 148.0
70.602058 140.0
70.668968 160.0
70.846436 184.0
70.88118 168.0
71.524849 184.0
71.632614 172.0
71.821404 148.0
71.956406 196.0
72.555313 156.0
72.770775 172.0
72.804733 176.0
72.973587 184.0
72.995064 156.0
73.136269 140.0
73.323616 144.0
73.34066 184.0
73.541931 140.0
73.676826 156.0
74.587555 172.0
74.825882 156.0
74.93956 160.0
75.056763 160.0
75.103325 188.0
75.14473 184.0
75.184418 216.0
75.315628 164.0
75.329453 180.0
75.41066 140.0
76.383385 152.0
76.406006 232.0
76.481438 172.0
76.524353 164.0
76.783989 148.0
76.958488 176.0
77.157661 156.0
77.201958 132.0
77.222366 160.0
77.319679 180.0
77.52874 176.0
77.695312 168.0
77.974503 228.0
78.09758 196.0
78.153877 228.0
78.23307 144.0
78.266525 164.0
79.108665 140.0
79.128143 240.0
79.317429 132.0
79.51812 196.0
79.624641 192.0
79.911896 188.0
80.345543 204.0
80.407997 144.0
80.7099 140.0
80.727776 172.0
80.767128 140.0
81.089409 160.0
81.118088 224.0
81.8349 156.0
81.896126 216.0
82.094376 164.0
82.643501 148.0
82.741234 168.0
82.790123 176.0
82.862572 196.0
83.567024 148.0
83.668938 196.0
83.874786 196.0
84.230606 216.0
84.278107 188.0
84.471893 208.0
84.550056 172.0
84.675064 176.0
84.869308 240.0
85.076622 152.0
85.21804 156.0
85.644829 160.0
86.000687 276.0
86.214928 176.0
86.849442 172.0
87.763069 144.0
88.063515 208.0
88.135651 124.0
88.448685 208.0
88.87973 164.0
89.084373 180.0
89.340034 188.0
89.520721 212.0
89.580994 164.0
89.62056 180.0
89.993713 180.0
90.01667 188.0
90.285011 236.0
90.475822 128.0
90.517769 176.0
91.251862 184.0
91.517403 140.0
91.588905 184.0
91.773758 148.0
91.851944 176.0
91.907272 164.0
92.237938 140.0
92.296928 176.0
92.382996 144.0
92.591629 164.0
92.687408 204.0
92.721901 200.0
92.867615 168.0
92.971214 156.0
93.0 244.0
93.509331 188.0
93.813667 228.0
94.064728 176.0
94.209267 172.0
94.491524 140.0
95.065063 172.0
95.078644 212.0
95.140762 140.0
95.356369 156.0
95.811699 184.0
96.088539 144.0
96.313034 204.0
96.594505 160.0
96.916672 112.0
97.017487 144.0
97.180267 232.0
97.280357 156.0
97.878258 144.0
97.990303 140.0
98.057304 192.0
98.112495 224.0
98.264351 140.0
98.906601 172.0
99.25528 148.0
99.529106 180.0
99.588684 224.0
99.906731 148.0
100.446571 156.0
100.524384 248.0
100.576271 168.0
100.831924 164.0
100.855904 180.0
101.023872 168.0
101.079483 212.0
101.185974 152.0
101.972305 164.0
102.046745 1064.0
102.165337 148.0
102.541878 140.0
102.824768 136.0
102.868828 128.0
102.89286 148.0
102.951416 188.0
102.992935 108.0
103.055107 47436.0
103.222786 208.0
103.388535 96.0
103.835808 176.0
103.89666 160.0
104.058075 4728.0
104.5299 120.0
104.55703 204.0
104.656776 224.0
104.680161 124.0
104.812492 188.0
104.894096 180.0
104.911209 104.0
105.023193 140.0
105.061455 308.0
105.121521 256.0
105.282791 180.0
105.593437 168.0
105.849236 156.0
105.929115 144.0
105.962967 164.0
106.14431 176.0
106.228394 164.0
106.250961 188.0
106.753082 208.0
106.844688 192.0
106.937286 204.0
107.826195 152.0
108.026756 196.0
108.164261 128.0
108.402908 168.0
108.676682 192.0
108.924332 196.0
109.261101 172.0
109.485901 168.0
109.507507 192.0
109.551605 144.0
109.802673 188.0
109.977928 224.0
110.228539 164.0
110.247345 240.0
110.372772 196.0
110.636391 192.0
111.089966 172.0
111.36821 152.0
111.435432 156.0
111.500572 164.0
111.597275 160.0
111.765541 160.0
111.874977 264.0
111.900238 224.0
111.938141 212.0
112.408218 144.0
112.570755 212.0
112.667915 156.0
112.729187 168.0
113.217857 256.0
113.308937 156.0
113.3386 176.0
113.856194 164.0
113.898674 260.0
114.104805 140.0
114.4729 160.0
114.581528 152.0
115.061386 156.0
116.472595 160.0
116.644501 192.0
117.075409 128.0
117.324745 176.0
117.382957 180.0
117.603012 164.0
117.710953 196.0
117.885925 188.0
118.06929 3172.0
119.071823 352.0
119.562263 156.0
119.747322 152.0
120.034981 184.0
120.064636 356.0
120.085136 200.0
120.296371 208.0
120.933632 184.0
120.982895 136.0
121.15184 180.0
121.542091 152.0
121.585983 144.0
121.713303 196.0
121.924133 160.0
121.957153 180.0
122.009911 172.0
122.577766 156.0
122.683563 148.0
122.707809 208.0
122.86219 188.0
122.939415 148.0
123.670944 144.0
123.774994 152.0
123.797142 160.0
124.022133 576.0
125.025055 140.0
125.999176 176.0
126.265175 236.0
126.688217 172.0
126.952698 192.0
127.345436 152.0
127.660072 180.0
127.727547 200.0
127.797279 332.0
127.907555 144.0
127.979599 140.0
128.487015 204.0
129.153397 176.0
129.429184 180.0
129.558289 168.0
129.694244 152.0
129.831848 196.0
130.247879 224.0
130.453461 128.0
130.575043 136.0
130.597916 184.0
130.6492 148.0
130.677109 188.0
130.757187 148.0
130.936646 184.0
130.961655 144.0
130.976517 176.0
131.000259 408.0
131.050613 150556.0
131.183899 160.0
131.261978 144.0
131.315643 260.0
131.424377 2344.0
131.507019 148.0
131.590683 136.0
131.637833 140.0
131.817215 208.0
131.89711 152.0
132.001205 176.0
132.052872 17984.0
132.207809 120.0
132.417953 96.0
132.562454 144.0
132.853668 268.0
132.904861 140.0
132.9617 200.0
133.054947 1136.0
133.089584 240.0
133.314041 184.0
133.373749 152.0
133.493301 164.0
133.862946 132.0
134.065811 148.0
134.100266 104.0
134.55661 116.0
135.038971 160.0
135.369385 180.0
135.512009 140.0
135.573242 212.0
135.849152 224.0
135.90715 156.0
136.000839 152.0
136.023331 796.0
136.204315 192.0
137.027771 280.0
137.149872 236.0
137.228256 152.0
137.744507 148.0
138.038712 2044.0
138.256042 152.0
138.619003 172.0
138.710419 140.0
138.990845 112.0
139.039658 320.0
139.525635 164.0
140.030914 140.0
140.769058 180.0
141.088028 144.0
141.412872 132.0
141.601486 148.0
142.90947 176.0
143.402405 180.0
144.077698 152.0
144.577423 140.0
145.10199 152.0
145.521851 192.0
146.392288 144.0
147.528702 176.0
148.021317 736.0
148.293594 140.0
148.679214 200.0
150.002121 128.0
150.712524 200.0
150.771179 148.0
151.010773 148.0
151.047882 140.0
151.571365 140.0
151.931778 140.0
152.958679 172.0
153.989609 192.0
154.142776 156.0
154.974152 172.0
155.204666 160.0
155.941956 144.0
158.512436 192.0
158.870956 164.0
159.066696 180.0
159.687317 156.0
159.94899 164.0
160.057236 152.0
160.16301 140.0
160.422562 172.0
161.637375 200.0
161.65509 200.0
161.880386 144.0
162.589035 200.0
163.614563 208.0
163.805542 152.0
164.053787 240.0
164.243973 172.0
164.335815 148.0
165.754898 140.0
166.068863 5208.0
166.247253 220.0
166.722336 144.0
166.784851 148.0
167.072784 472.0
167.420151 172.0
168.03038 204.0
168.067184 168.0
168.880173 112.0
169.286575 148.0
170.929733 152.0
170.963364 104.0
172.011307 152.0
172.309021 140.0
173.313705 148.0
173.777786 140.0
174.042877 200.0
174.8078 180.0
175.205368 276.0
176.017975 192.0
176.570023 144.0
177.343109 164.0
177.849716 224.0
177.995728 144.0
179.120712 216.0
179.456497 176.0
179.565826 244.0
179.71788 220.0
180.412262 184.0
180.925903 144.0
181.199081 184.0
181.901688 192.0
182.200134 144.0
184.801468 144.0
184.82312 244.0
185.567963 176.0
185.784912 216.0
185.8853 148.0
185.934158 152.0
187.25 148.0
189.455444 184.0
189.651596 144.0
190.036896 136.0
190.452515 124.0
192.038879 244.0
193.013 164.0
193.765839 168.0
193.843414 192.0
195.342972 176.0
195.946686 140.0
197.3638 152.0
197.445709 196.0
198.257568 180.0
199.343582 148.0
202.330536 144.0
202.562744 172.0
202.639236 184.0
202.758255 156.0
203.427628 140.0
203.6548 144.0
204.166367 144.0
204.900742 184.0
205.366699 172.0
206.027618 160.0
206.673767 172.0
206.980026 208.0
207.088852 140.0
207.77681 240.0
207.811249 144.0
209.112091 264.0
209.614075 156.0
210.089798 172.0
210.909882 140.0
210.961914 176.0
210.996613 160.0
211.127167 22188.0
212.130722 2760.0
212.699951 204.0
213.124207 856.0
214.115753 148.0
214.12648 140.0
214.535492 164.0
215.078049 160.0
219.157333 200.0
219.537598 192.0
222.019516 152.0
222.091202 328.0
222.313293 164.0
223.044556 136.0
223.093582 156.0
223.492096 140.0
223.679596 184.0
224.955414 140.0
225.059906 144.0
226.069077 304.0
226.354614 188.0
226.58226 204.0
226.804001 164.0
227.071854 212.0
228.130768 140.0
230.279175 252.0
230.451355 192.0
233.707733 188.0
234.66983 168.0
234.859268 140.0
235.063675 168.0
235.088089 212.0
236.148193 148.0
236.194061 156.0
236.585754 144.0
237.103546 256.0
237.148514 156.0
238.07016 720.0
238.742752 144.0
238.953583 96.0
239.078232 276.0
239.869629 232.0
241.503036 252.0
241.688644 152.0
242.348145 144.0
243.40274 164.0
244.376114 124.0
245.375366 176.0
247.822571 184.0
248.662979 152.0
249.325638 172.0
250.559082 160.0
250.656754 148.0
250.710327 204.0
251.861893 184.0
252.364365 192.0
252.873672 200.0
254.06543 436.0
254.916 152.0
255.068024 192.0
255.717407 152.0
256.634857 236.0
257.636963 188.0
259.105377 168.0
259.733704 168.0
260.751495 144.0
263.212677 148.0
263.694977 188.0
264.713074 248.0
264.735718 192.0
265.012268 160.0
265.24762 172.0
272.407043 140.0
272.653473 200.0
273.07431 180.0
273.291412 164.0
273.775085 128.0
275.10733 156.0
275.470581 152.0
275.761353 176.0
277.937073 164.0
278.049896 140.0
279.518707 172.0
279.69986 136.0
280.294556 184.0
280.611206 196.0
281.762604 156.0
282.282257 120.0
282.491394 176.0
284.032257 164.0
284.841217 192.0
284.933289 108.0
287.281738 144.0
288.352081 144.0
289.282623 148.0
289.617493 140.0
289.885132 224.0
290.485229 164.0
290.739685 164.0
290.797394 176.0
292.496857 156.0
294.122345 160.0
294.69989 160.0
295.910645 256.0
296.111755 3140.0
296.247101 144.0
296.798035 148.0
297.113556 1080.0
297.600922 144.0
298.061188 180.0
298.103699 284.0
299.581512 148.0
301.756073 188.0
304.281738 224.0
306.518188 140.0
309.077667 196.0
309.742828 140.0
309.861938 156.0
310.454315 208.0
310.664764 188.0
312.027344 180.0
312.136353 204.0
312.182068 140.0
313.470459 144.0
313.741852 152.0
314.378784 248.0
314.440247 180.0
315.227753 220.0
315.733276 148.0
319.35437 156.0
320.030518 192.0
320.636078 188.0
320.797943 208.0
321.160187 160.0
321.66687 212.0
321.745392 156.0
322.177521 220.0
324.045013 252.0
324.195526 188.0
324.35321 148.0
326.121216 132.0
327.198303 156.0
328.639954 192.0
328.856476 180.0
330.401642 152.0
330.717865 220.0
331.739349 148.0
332.250671 156.0
333.950653 216.0
334.41272 212.0
334.452759 148.0
335.487274 140.0
336.136475 140.0
336.202179 188.0
336.676056 144.0
337.108978 152.0
337.564758 176.0
337.685425 308.0
338.269135 100.0
338.412933 104.0
338.450256 140.0
338.633362 220.0
339.01712 120.0
339.072998 112.0
339.143402 152.0
339.257904 132.0
339.356537 296.0
339.40152 168.0
339.492249 180.0
339.529938 156.0
339.588318 156.0
339.620789 152.0
339.657745 332.0
339.707336 232.0
339.737122 108.0
339.817383 180.0
339.872131 196.0
339.885193 124.0
339.936737 280.0
340.011414 164.0
340.114258 200.0
340.157257 204.0
340.287872 152.0
340.382202 308.0
340.411163 100.0
340.434479 220.0
340.476349 112.0
340.543518 196.0
340.634155 296.0
340.686157 360.0
340.726837 112.0
340.773163 344.0
340.833191 268.0
340.866608 348.0
340.910675 304.0
340.939545 152.0
340.984985 176.0
341.012726 128.0
341.06781 136.0
341.128387 512.0
341.171814 229012.0
341.271729 140.0
341.30014 272.0
341.339539 152.0
341.421326 276.0
341.504211 340.0
341.571594 244.0
341.607452 364.0
341.653931 256.0
341.728271 344.0
341.776001 8236.0
341.825958 288.0
341.919983 232.0
342.03894 336.0
342.084808 316.0
342.107758 400.0
342.172821 109168.0
342.290161 380.0
342.395081 180.0
342.502747 128.0
342.557373 168.0
342.603546 252.0
342.642975 196.0
342.677979 204.0
342.716461 228.0
342.786865 212.0
342.841583 124.0
342.905975 144.0
342.98053 136.0
343.033661 156.0
343.071991 144.0
343.168915 25132.0
343.267883 128.0
343.346252 240.0
343.473907 100.0
343.613342 112.0
343.684357 184.0
343.709686 100.0
343.796661 220.0
343.830719 108.0
343.868683 156.0
343.903442 196.0
343.954376 188.0
344.02533 236.0
344.070587 188.0
344.113251 216.0
344.169037 4172.0
344.23703 192.0
344.317474 208.0
344.361542 136.0
344.418274 216.0
344.430267 148.0
344.459167 208.0
344.527985 420.0
344.591705 120.0
344.636505 304.0
344.750824 144.0
344.796417 108.0
344.878754 148.0
344.910431 96.0
344.99707 100.0
345.028137 144.0
345.079376 104.0
345.150452 148.0
345.239471 104.0
345.294861 104.0
345.32666 112.0
345.42218 104.0
345.585663 152.0
346.181732 188.0
346.390533 208.0
347.037628 124.0
347.876556 116.0
348.164307 100.0
352.438721 120.0
356.265015 140.0
360.998993 144.0
377.701752 156.0
437.442261 248.0
486.138611 108.0
553.422058 116.0
568.912048 144.0
586.310974 116.0
637.549927 156.0
735.981201 148.0
869.181458 156.0
924.77124 152.0
927.660522 148.0
1040.901367 144.0
1042.404541 172.0
1072.094971 232.0
1107.01123 164.0
1125.550415 152.0
1141.992065 120.0
1153.499146 176.0
1170.255859 140.0
1178.952881 176.0
1187.236206 172.0
1188.210205 140.0
1193.622559 144.0
1197.820679 208.0
1201.881348 184.0
1205.292358 256.0
1212.496094 260.0
1222.092773 232.0
1232.090454 248.0
1239.366699 300.0
1241.30835 160.0
1248.611816 172.0
1261.423096 200.0
1261.776489 204.0
1263.537476 180.0
1282.761353 164.0
1291.172241 208.0
1295.662354 184.0
1296.412598 176.0
1311.836792 184.0
1313.033691 236.0
1324.416992 220.0
1328.672241 144.0
1339.78064 188.0
1349.194824 224.0
1359.148193 156.0
1360.674805 148.0
1362.782593 144.0
1363.311646 216.0
1371.377808 156.0
1372.896484 172.0
1381.745483 144.0
1410.95105 204.0
1415.05835 208.0
1421.96228 204.0
1422.059814 140.0
1424.177124 152.0
1424.59021 172.0
1424.943359 208.0
1429.168823 144.0
1434.500854 212.0
1435.978638 172.0
1436.695312 168.0
1437.940308 164.0
1441.75415 164.0
1445.505005 164.0
1451.125122 192.0
1452.945312 152.0
1453.28418 176.0
1453.567505 168.0
1457.553955 180.0
1458.648315 140.0
1459.613892 140.0
1464.530029 140.0
1469.500366 208.0
1474.853516 152.0
1475.946777 160.0
1477.912476 160.0
1485.090576 156.0
1485.673462 156.0
1488.728271 176.0
1490.203125 168.0
1491.217407 148.0
1496.764038 216.0
1503.896118 124.0
1504.203735 200.0
1506.497192 172.0
1508.977905 212.0
1509.148071 152.0
1510.170898 152.0
1512.590698 200.0
1513.589355 160.0
1515.688477 204.0
1522.654663 144.0
1523.439209 200.0
1523.812134 176.0
1526.454834 172.0
1527.216919 260.0
1536.900269 168.0
1538.383057 236.0
1541.49939 140.0
1552.403809 212.0
1558.416504 192.0
1560.60144 188.0
1563.472656 176.0
1566.00769 232.0
1567.536011 168.0
1570.689575 144.0
1572.78064 160.0
1587.884644 172.0
1589.526855 160.0
1591.328613 284.0
1592.940674 160.0
1593.647705 148.0
1595.102051 228.0
1596.565063 196.0
1603.945557 220.0
1604.280396 196.0
1607.901611 180.0
1613.197266 152.0
1613.484985 156.0
1622.772095 264.0
1623.333374 180.0
1624.704834 152.0
1629.682617 168.0
1631.338135 168.0
1639.169189 140.0
1642.071289 232.0
1644.556396 156.0
1646.389038 148.0
1647.851074 152.0
1650.591064 172.0
1654.806519 216.0
1657.244507 156.0
1658.857178 144.0
1659.343628 160.0
1661.176392 148.0
1661.874146 212.0
1663.326782 144.0
1666.07959 196.0
1667.964844 180.0
1668.623413 148.0
1673.505005 220.0
1676.893799 192.0
1679.266235 148.0
1680.636719 216.0
1683.248779 188.0
1686.483887 228.0
1688.585083 152.0
1689.084106 148.0
1689.321289 168.0
1692.717773 244.0
1698.200439 192.0
1699.80835 228.0
1700.973755 152.0
1703.938354 196.0
1710.533569 164.0
1711.019287 184.0
1712.098022 152.0
1712.806274 144.0
1713.910278 144.0
1714.264526 192.0
1715.113403 176.0
1715.261841 204.0
1716.531494 172.0
1718.428589 172.0
1720.384399 248.0
1722.275391 148.0
1723.126221 180.0
1724.316162 200.0
1724.597168 176.0
1734.637573 140.0
1739.44873 152.0
1740.918335 160.0
1744.790283 140.0
1747.068848 224.0
1750.161743 148.0
1750.622925 256.0
1750.689575 160.0
1753.831665 164.0
1753.997192 156.0
1754.280518 192.0
1754.614014 236.0
1755.397827 152.0
1757.940552 160.0
1761.899658 216.0
1762.459473 180.0
1763.086182 140.0
1763.696289 164.0
1764.615845 268.0
1770.054443 148.0
1775.576904 140.0
1776.633789 164.0
1780.881226 152.0
1782.225342 148.0
1783.195801 140.0
1783.511108 140.0
1784.183594 140.0
1785.133667 192.0
1785.814941 252.0
1787.144043 168.0
1791.277588 140.0
1792.01062 168.0
1793.957397 160.0
1795.694336 236.0
1800.560669 144.0
1801.645142 160.0
1805.947754 204.0
1808.350586 204.0
1810.213135 176.0
1816.332153 144.0
1819.879517 176.0
1823.379272 180.0
1823.481201 164.0
1826.822876 188.0
1831.266113 176.0
1832.169067 192.0
1832.578003 164.0
1835.151978 188.0
1839.258179 244.0
1839.997925 164.0
1846.175659 184.0
1849.144287 176.0
1849.957397 156.0
1850.907715 164.0
1850.967773 148.0
1851.772705 208.0
1853.537476 160.0
1857.275269 164.0
1864.753662 152.0
1870.852173 188.0
1870.998535 140.0
1872.152344 176.0
1872.548462 160.0
1878.202881 236.0
1880.609863 168.0
1881.269287 212.0
1883.485107 160.0
1885.545288 132.0
1886.708374 144.0
1888.991333 148.0
1889.839233 196.0
1894.427612 188.0
1896.48999 148.0
1898.917603 148.0
1901.902222 140.0
1902.993042 112.0
1904.750366 220.0
1909.026367 184.0
1909.652588 168.0
1914.099487 184.0
1915.841431 148.0
1917.462158 220.0
1922.53772 228.0
1923.689819 176.0
1923.91687 172.0
1926.755127 196.0
1927.751099 168.0
1929.275024 340.0
1931.956665 196.0
1933.102905 148.0
1935.221069 192.0
1935.527588 212.0
1940.013306 156.0
1943.758423 188.0
1946.189697 216.0
1947.436768 156.0
1947.75293 140.0
1949.562256 128.0
1954.601562 160.0
1957.578003 116.0
1957.955444 160.0
1958.343018 204.0
1958.774536 144.0
1959.188599 172.0
1959.567505 268.0
1962.50415 164.0
1962.599365 216.0
1963.022583 208.0
1964.486694 180.0
1966.322021 144.0
1969.421021 140.0
1972.716919 176.0
1975.015991 152.0
1976.741089 204.0
1977.723511 188.0
1981.300903 148.0
1983.188354 276.0
1984.110352 148.0
1987.977539 276.0
1993.083374 152.0
1993.776489 156.0
1997.894409 132.0
1998.080078 188.0
1998.711792 180.0
1999.032104 192.0
1999.628418 188.0
2002.032104 184.0
2002.566406 144.0
