>compound MLS000863586-01!(8,8-dimethyl-2-oxo-9,10-dihydropyrano[2,3-h]chromen-9-yl) (Z)-2-methylbut-2-enoate
>formula C19H20O5
>ionization [M+H]+
>parentmass 329.139
#inchi InChI=1S/C19H20O5/c1-5-11(2)18(21)22-15-10-13-14(24-19(15,3)4)8-6-12-7-9-16(20)23-17(12)13/h5-9,15H,10H2,1-4H3/b11-5-
#inchikey RRHCDWLSHIIIIT
#Ion_Source LC-ESI
#Instrument qTof
#Compound_Source NIH Natural Product Library
#PI Dorrestein
#Data_Collector VVP/LMS
#Scan -1
#Precursor_MZ 329.139
#ExactMass 328.131
#Charge 1
#CAS_Number N/A
#Pubmed_ID N/A
#Smiles C/C=C(/C)\C(=O)OC1Cc2c(OC1(C)C)ccc3ccc(=O)oc23
#INCHI_AUX N/A
#Library_Class 1
#SpectrumID CCMSLIB00000079479
#IonMode Positive
#UpdateWorkflowName UPDATE-SINGLE-ANNOTATED-GOLD
#LibraryQualityString Gold
#TaskID b1d8e8f6646f4e71acdff9ca3d919d08
##Scan# 2492
#SpectrumFile p1-H06_GH6_01_17962.mzXML
#LibraryName NIH_Natural_Products_Library.mgf
#MQScore -1
#Organism NIH_Natural_Products_Library
#TIC_Query 0
#RT_Query -1
#MZErrorPPM -1
#SharedPeaks 0
#MassDiff 0
#LibMZ -1
#SpecMZ 329.139
#SpecCharge 0
#internalFilename spec-00000.mgf

>collision 10
94.965157 152.0
95.201935 64.0
95.310715 164.0
95.629654 188.0
95.69194 172.0
96.243729 188.0
96.444954 148.0
96.479744 220.0
96.55835 36.0
96.797104 160.0
96.812767 156.0
96.855858 200.0
97.059677 168.0
97.085175 72.0
97.249977 128.0
97.501373 192.0
97.654724 228.0
97.768837 204.0
97.851509 224.0
98.131279 148.0
98.259476 144.0
98.281181 132.0
98.320648 180.0
98.429222 176.0
98.573425 128.0
98.741463 160.0
98.773109 164.0
98.933395 176.0
98.95121 184.0
99.046272 180.0
99.062119 176.0
99.280144 144.0
99.327652 176.0
99.67717 220.0
99.806374 188.0
99.866028 168.0
99.961525 200.0
100.070053 176.0
100.090912 192.0
100.313217 220.0
100.643242 224.0
100.755089 200.0
100.809036 128.0
100.882988 96.0
101.061539 412.0
101.133034 164.0
101.175064 84.0
101.191086 176.0
101.259171 188.0
101.329277 144.0
101.351318 96.0
101.409431 196.0
101.611969 156.0
101.638054 192.0
101.714317 76.0
101.842827 76.0
102.046677 188.0
102.317398 136.0
102.532928 148.0
102.867752 196.0
102.924286 88.0
103.053368 1008.0
103.130348 192.0
103.330551 164.0
103.488419 204.0
103.723419 144.0
103.869415 72.0
103.889702 156.0
104.047997 148.0
104.06221 160.0
104.383255 228.0
104.837212 204.0
104.880447 168.0
104.914665 184.0
104.930969 96.0
104.945244 56.0
105.068687 684.0
105.121017 164.0
105.217743 224.0
105.422897 132.0
105.514877 196.0
105.660088 208.0
105.895493 108.0
106.118858 212.0
106.523155 212.0
106.629997 172.0
106.716339 116.0
106.786255 172.0
106.833565 112.0
106.971443 140.0
107.093575 168.0
107.206245 148.0
108.562378 140.0
108.649498 168.0
108.821754 152.0
108.927673 188.0
109.002464 168.0
109.023247 176.0
109.239487 132.0
109.414299 144.0
109.495506 60.0
109.530914 220.0
109.670517 180.0
109.772675 48.0
109.872795 180.0
110.066902 132.0
110.154617 196.0
110.215202 48.0
110.491196 244.0
110.56234 120.0
110.612572 164.0
110.641876 152.0
110.79895 128.0
110.813614 132.0
110.859711 220.0
110.882767 144.0
111.126015 128.0
111.235146 164.0
111.254036 188.0
111.570023 176.0
111.607002 160.0
111.866142 188.0
112.297737 68.0
112.354698 188.0
112.388451 96.0
112.4151 340.0
112.496086 56.0
112.738983 152.0
113.026581 212.0
113.280907 128.0
113.332497 144.0
113.369629 124.0
113.609222 208.0
113.762016 156.0
113.793861 200.0
113.812973 60.0
113.940575 204.0
114.019028 204.0
114.135948 148.0
114.313713 152.0
114.34655 236.0
114.384865 124.0
114.443695 76.0
114.456711 188.0
114.521141 148.0
115.015907 192.0
115.05426 1856.0
115.113472 184.0
115.133247 48.0
115.161011 168.0
115.26783 160.0
115.443123 52.0
115.558624 160.0
115.592865 132.0
115.635666 184.0
115.901207 180.0
116.029808 128.0
116.057999 488.0
116.798599 104.0
116.901871 188.0
116.95137 104.0
116.981201 140.0
117.030914 152.0
117.069 1092.0
117.188255 168.0
117.242126 208.0
117.276611 200.0
117.317566 84.0
117.358528 180.0
117.526772 164.0
117.589355 148.0
117.606621 156.0
117.66275 176.0
117.710251 28.0
117.926285 104.0
117.95871 164.0
118.069397 172.0
118.164154 220.0
118.209595 144.0
118.712166 132.0
118.751205 76.0
118.95517 204.0
118.976875 52.0
119.013786 168.0
119.046532 1188.0
119.13324 112.0
119.310394 176.0
119.363625 176.0
119.481079 188.0
119.515884 96.0
119.786476 208.0
119.809814 180.0
119.864281 168.0
120.052399 256.0
120.35289 124.0
120.540741 224.0
121.024712 552.0
121.065758 60.0
121.199379 200.0
121.295815 112.0
121.317734 180.0
121.363777 192.0
121.449303 176.0
121.50634 156.0
121.567772 192.0
121.776337 152.0
121.829056 124.0
121.938927 116.0
122.004868 152.0
122.048843 200.0
122.117012 224.0
122.132408 104.0
122.526451 156.0
122.707176 104.0
122.804199 152.0
122.841698 168.0
122.872581 180.0
123.196892 196.0
123.351807 136.0
123.528709 208.0
123.61721 184.0
123.84967 168.0
123.942719 184.0
123.987038 128.0
124.036591 180.0
124.069054 168.0
124.821732 212.0
124.879555 72.0
124.984116 92.0
125.184456 108.0
125.217857 156.0
125.483032 164.0
125.500824 188.0
125.541008 80.0
125.645844 108.0
125.960609 180.0
126.041039 136.0
126.219864 84.0
126.425667 144.0
126.477142 160.0
126.754852 100.0
126.949875 100.0
127.005943 152.0
127.051605 264.0
127.317917 160.0
127.486404 64.0
127.798965 168.0
127.940758 136.0
127.95652 156.0
128.061371 1248.0
128.121948 48.0
128.184006 184.0
128.308197 204.0
128.49968 164.0
128.598969 128.0
128.70282 232.0
128.851883 172.0
129.007828 204.0
129.034958 192.0
129.069427 800.0
129.166122 84.0
129.274719 200.0
129.424118 212.0
129.47847 80.0
129.507904 40.0
129.566803 148.0
129.961304 136.0
130.042999 148.0
130.072021 56.0
130.097488 116.0
130.172409 40.0
130.348328 208.0
130.435959 164.0
130.497345 380.0
130.576935 128.0
130.604218 172.0
130.920578 180.0
130.992599 248.0
131.024261 160.0
131.048782 23276.0
131.087204 212.0
131.127151 196.0
131.191727 116.0
131.214523 60.0
131.253281 48.0
131.297791 100.0
131.317139 60.0
131.3582 68.0
131.40712 72.0
131.46315 36.0
131.492813 52.0
131.516006 100.0
131.616089 92.0
131.709717 172.0
131.755417 84.0
131.782822 96.0
131.936523 172.0
132.052216 1900.0
132.105179 40.0
132.176102 56.0
132.194351 132.0
132.25621 36.0
132.376709 76.0
132.583725 176.0
132.620392 196.0
132.749405 132.0
132.900177 80.0
133.00116 104.0
133.025497 204.0
133.063553 512.0
133.08609 96.0
133.458328 152.0
133.83107 128.0
133.876434 176.0
133.91333 144.0
133.996902 152.0
134.066025 160.0
134.082169 212.0
134.465012 168.0
134.59761 172.0
134.9478 148.0
135.04158 304.0
135.091187 80.0
135.18251 248.0
135.236969 56.0
135.279694 180.0
135.482422 104.0
135.544983 100.0
135.561203 164.0
136.15509 164.0
136.187607 76.0
136.243362 132.0
136.540894 148.0
136.9086 48.0
137.016785 164.0
137.092636 212.0
137.19986 260.0
137.360764 240.0
137.444748 148.0
137.500763 160.0
137.851059 172.0
138.052109 244.0
138.075485 64.0
138.433548 204.0
138.478043 56.0
138.77565 204.0
138.796753 52.0
138.871796 164.0
139.024307 176.0
139.059509 180.0
139.082977 164.0
139.17453 136.0
139.80452 136.0
139.844528 100.0
139.865707 152.0
139.997559 156.0
140.023468 132.0
140.079987 76.0
140.101196 168.0
140.202515 112.0
140.285004 152.0
140.407623 132.0
140.497253 176.0
140.851349 232.0
141.068192 412.0
141.146774 228.0
141.423569 172.0
141.921051 132.0
142.075516 604.0
142.191483 68.0
142.246078 156.0
142.329178 100.0
142.393295 64.0
142.659424 64.0
142.867081 216.0
142.882965 212.0
142.935303 180.0
142.973389 124.0
142.991745 212.0
143.009079 88.0
143.048309 2464.0
143.087646 172.0
143.428299 172.0
143.6763 56.0
143.845734 184.0
144.008606 248.0
144.05545 652.0
144.137802 224.0
144.165787 140.0
144.192078 168.0
144.29248 144.0
144.364212 196.0
144.569946 176.0
144.610626 112.0
144.644135 160.0
144.674393 176.0
144.987259 172.0
145.017441 188.0
145.060806 1008.0
145.08371 184.0
145.100616 244.0
145.221603 124.0
145.394333 144.0
145.800217 232.0
145.872314 80.0
146.014175 176.0
146.040634 128.0
146.065002 340.0
146.107986 164.0
146.156113 124.0
146.454636 176.0
146.710052 72.0
146.888504 184.0
146.910278 176.0
147.006729 48.0
147.04213 4864.0
147.079132 164.0
147.187775 80.0
147.21434 40.0
147.257812 68.0
147.439011 96.0
147.770294 108.0
147.85582 128.0
147.949387 88.0
148.045197 556.0
148.20369 200.0
148.310318 224.0
148.453354 184.0
148.513992 168.0
148.683823 156.0
148.812485 76.0
148.834335 64.0
149.026215 148.0
149.140442 144.0
149.289734 168.0
149.549072 180.0
149.670792 176.0
149.697571 256.0
149.721924 64.0
149.941193 172.0
150.102081 160.0
150.211838 180.0
150.236237 256.0
150.280151 168.0
150.575516 148.0
151.035019 116.0
151.233215 104.0
151.370316 124.0
151.634903 60.0
151.745209 100.0
151.767273 80.0
152.005203 44.0
152.059647 304.0
152.167206 152.0
152.36618 204.0
152.557831 232.0
152.867737 124.0
153.04274 164.0
153.066483 420.0
153.416992 168.0
153.505753 208.0
153.811676 68.0
154.07489 288.0
154.122864 60.0
154.164871 36.0
154.187103 52.0
154.456619 144.0
154.602585 196.0
154.666946 192.0
154.695694 168.0
154.756943 224.0
154.964111 80.0
155.055939 264.0
155.083908 1476.0
155.194626 188.0
155.395523 204.0
155.430267 180.0
155.661118 40.0
156.026352 64.0
156.088425 336.0
156.115875 180.0
156.135773 168.0
156.188004 88.0
156.255157 136.0
156.387054 180.0
156.479156 84.0
156.509033 168.0
156.536423 84.0
156.607712 148.0
156.665939 60.0
156.920151 128.0
157.024887 160.0
157.066376 604.0
157.426682 160.0
157.476639 164.0
158.036911 172.0
158.071121 636.0
158.121689 196.0
158.61261 176.0
158.67778 128.0
158.731491 48.0
158.780594 120.0
158.838043 164.0
158.945267 180.0
159.043304 19152.0
159.075851 308.0
159.126877 52.0
159.250809 120.0
159.313782 44.0
159.400665 36.0
159.423279 80.0
159.548965 60.0
159.614334 64.0
159.797943 96.0
159.857468 172.0
159.963364 176.0
160.044876 2708.0
160.078262 248.0
160.097488 88.0
160.147858 72.0
160.175568 72.0
160.452774 68.0
160.586426 160.0
160.810974 160.0
160.833694 52.0
160.999374 188.0
161.020523 256.0
161.061111 308.0
161.08873 172.0
161.155441 128.0
161.227692 84.0
161.269455 92.0
161.541214 212.0
161.723404 212.0
162.060226 160.0
162.105835 192.0
162.463333 64.0
162.651123 160.0
162.745056 156.0
162.762817 144.0
162.910126 184.0
163.038544 544.0
163.105804 168.0
163.291412 52.0
163.818314 92.0
163.917679 180.0
163.955902 80.0
164.042557 136.0
164.0961 124.0
164.319199 204.0
164.718781 168.0
164.736664 56.0
164.884872 40.0
164.902756 188.0
164.992218 192.0
165.070343 732.0
165.201935 156.0
165.276123 176.0
166.07605 176.0
166.732697 192.0
166.825226 136.0
166.879211 148.0
167.079819 560.0
167.229065 136.0
167.272827 88.0
167.558685 144.0
167.607635 124.0
168.054916 540.0
168.195648 140.0
168.399628 176.0
168.482285 152.0
168.846756 168.0
169.035599 172.0
169.063782 936.0
169.247849 48.0
169.755737 112.0
170.030731 152.0
170.067276 228.0
170.20726 108.0
170.279968 208.0
170.357895 148.0
170.409851 52.0
170.617767 40.0
170.997543 148.0
171.043289 704.0
171.088593 160.0
171.13031 44.0
171.708817 192.0
171.813156 288.0
172.049347 1144.0
172.168839 192.0
172.296127 176.0
172.350998 164.0
172.612396 204.0
172.727463 200.0
172.758865 88.0
172.779785 108.0
173.021957 172.0
173.058258 3780.0
173.094589 624.0
173.235306 56.0
173.45018 44.0
173.578644 108.0
173.720276 48.0
173.741257 112.0
174.062973 860.0
174.099365 204.0
174.158646 172.0
174.582657 192.0
174.613037 68.0
174.860657 200.0
174.902771 208.0
174.952789 148.0
174.990707 216.0
175.038101 20984.0
175.076538 216.0
175.100235 40.0
175.120605 136.0
175.166702 120.0
175.189789 64.0
175.245117 76.0
175.274109 64.0
175.308838 128.0
175.339005 64.0
175.419067 80.0
175.469147 40.0
175.746094 56.0
175.772476 68.0
175.809418 156.0
175.882919 208.0
176.041382 1800.0
176.105118 40.0
176.246811 144.0
176.311188 236.0
176.340271 232.0
176.406342 84.0
176.435425 72.0
176.541199 96.0
176.578217 68.0
176.612595 52.0
176.639053 56.0
176.660217 64.0
176.718414 72.0
176.922211 56.0
176.969864 184.0
177.012222 168.0
177.03653 344.0
177.047455 188.0
177.08374 36.0
177.224136 100.0
177.279785 140.0
177.315674 80.0
177.369888 60.0
177.412308 76.0
177.497147 68.0
177.685471 56.0
177.815491 48.0
178.184601 112.0
178.312149 108.0
178.418472 84.0
179.073074 156.0
179.499466 132.0
180.030518 212.0
180.623856 212.0
180.738892 120.0
181.058838 248.0
181.100311 72.0
181.440628 172.0
181.539841 216.0
181.749069 204.0
182.068512 108.0
182.358673 160.0
182.643677 132.0
183.044693 188.0
183.080154 588.0
183.106628 192.0
183.227844 36.0
183.718506 60.0
184.053177 252.0
184.088272 168.0
184.194992 164.0
184.325989 140.0
184.988632 68.0
185.055618 668.0
185.097717 288.0
185.14566 220.0
185.329865 88.0
185.674149 124.0
185.73381 176.0
185.842331 228.0
186.068344 720.0
186.227814 180.0
186.263123 156.0
186.358215 112.0
186.423416 52.0
186.572769 212.0
186.623337 184.0
186.708557 144.0
186.768707 168.0
186.809509 140.0
186.828552 180.0
186.893845 116.0
186.928345 212.0
186.969604 100.0
187.038315 60812.0
187.074158 6408.0
187.105957 212.0
187.109863 228.0
187.130432 140.0
187.157684 56.0
187.17421 124.0
187.224823 68.0
187.253006 64.0
187.301666 100.0
187.364868 144.0
187.42511 108.0
187.459747 180.0
187.489746 184.0
187.549377 116.0
187.679672 80.0
187.719971 104.0
187.749207 60.0
187.790115 40.0
187.839218 124.0
187.867477 60.0
187.910141 112.0
187.945618 48.0
187.978363 32.0
188.042038 5588.0
188.078491 648.0
188.151047 60.0
188.243149 72.0
188.301788 76.0
188.371521 72.0
188.449432 108.0
188.49173 76.0
188.554001 56.0
188.595581 88.0
188.644775 76.0
188.817047 56.0
188.874481 76.0
188.904572 64.0
188.942719 76.0
188.972961 184.0
189.050323 1684.0
189.086151 308.0
189.148468 124.0
189.22464 88.0
189.246674 112.0
189.26857 84.0
189.340134 60.0
189.389877 128.0
189.398727 144.0
189.418137 76.0
189.451981 140.0
189.469757 88.0
189.539001 132.0
189.67952 56.0
189.761765 60.0
189.915329 44.0
190.000366 108.0
190.054077 436.0
190.083847 152.0
190.236389 60.0
190.447815 88.0
190.480789 64.0
190.651123 88.0
190.813309 116.0
191.349808 60.0
191.663803 80.0
192.055267 68.0
192.146301 148.0
192.449905 196.0
193.067108 180.0
193.600235 140.0
194.071304 148.0
194.121216 188.0
195.040192 180.0
195.78862 184.0
196.047699 212.0
197.488327 52.0
198.154572 68.0
198.479706 120.0
199.035629 600.0
199.917953 56.0
200.04393 368.0
200.126266 92.0
200.980301 128.0
201.024673 176.0
201.052795 2420.0
201.089706 1940.0
201.373718 112.0
201.660889 80.0
201.901215 96.0
202.057129 656.0
202.096313 304.0
202.141663 128.0
202.450226 124.0
202.546524 56.0
203.056717 100.0
203.093582 88.0
203.278 40.0
203.649902 76.0
204.056274 144.0
205.266388 196.0
205.346252 100.0
206.045609 208.0
206.952255 128.0
207.287399 108.0
207.700241 184.0
208.044586 92.0
211.017792 160.0
211.072739 1348.0
211.816528 80.0
212.077927 184.0
212.164276 92.0
212.448471 104.0
213.054123 664.0
213.22084 52.0
214.014999 104.0
214.060333 1008.0
214.597733 92.0
214.80188 56.0
215.06929 448.0
216.09021 200.0
217.168243 28.0
217.279709 52.0
217.400009 72.0
217.925629 72.0
221.388687 120.0
221.966537 88.0
224.091782 76.0
227.696396 88.0
227.744461 72.0
228.276413 168.0
228.56218 140.0
228.718674 124.0
228.89328 100.0
228.920395 136.0
228.976517 176.0
229.016769 196.0
229.037842 212.0
229.084061 9612.0
229.164383 32.0
229.227646 88.0
229.402466 76.0
229.447678 60.0
229.682907 48.0
229.803574 84.0
229.856949 64.0
229.918243 56.0
229.984634 48.0
230.08844 1612.0
230.45575 104.0
230.501068 60.0
230.624985 68.0
230.996902 72.0
231.091232 216.0
231.169357 44.0
231.314636 76.0
231.629562 140.0
231.726501 108.0
233.167877 28.0
234.074432 48.0
234.403427 60.0
237.816467 88.0
237.877853 52.0
238.378479 40.0
238.716629 92.0
239.31665 76.0
240.735092 64.0
241.173798 64.0
247.060394 84.0
247.088562 140.0
248.784027 92.0
251.128311 120.0
252.119659 180.0
254.956055 76.0
257.837067 116.0
262.972656 156.0
266.385529 88.0
275.350769 108.0
280.973907 52.0
300.13974 52.0
303.053558 332.0
304.531372 128.0
305.33075 52.0
305.89444 88.0
310.520691 72.0
312.399902 40.0
315.326538 148.0
321.070953 172.0
325.598236 72.0
326.324097 44.0
327.850342 52.0
332.330627 96.0
349.249146 64.0
352.092926 40.0
361.13208 72.0
368.78598 88.0
381.767487 72.0
384.763885 88.0
391.071198 124.0
391.779999 72.0
401.826355 100.0
407.784973 108.0
408.428284 108.0
417.040833 104.0
425.969147 84.0
427.103668 100.0
428.75058 56.0
432.881683 68.0
446.747437 60.0
467.555603 80.0
481.214783 116.0
484.205841 80.0
537.813599 84.0
538.894165 72.0
592.954956 52.0
600.037415 76.0
603.464844 48.0
637.255554 88.0
638.255798 196.0
655.069031 56.0
677.255127 108.0
694.896423 96.0
706.582214 116.0
724.941895 136.0
731.849792 152.0
746.465149 124.0
789.035583 164.0
792.483276 196.0
797.764404 64.0
801.045166 132.0
810.593506 80.0
814.576355 184.0
816.577087 180.0
838.862854 256.0
862.997375 100.0
872.795227 212.0
879.440491 140.0
889.004578 20.0
889.105469 172.0
897.147278 144.0
903.2323 204.0
903.310059 168.0
909.782104 220.0
915.193115 144.0
926.244934 188.0
931.92334 60.0
938.015259 84.0
948.382141 196.0
950.123718 212.0
951.768555 48.0
966.085876 156.0
977.452393 124.0
979.837097 196.0
984.615234 80.0
985.089905 176.0
986.758545 132.0
986.827332 80.0
986.952393 132.0
992.023621 204.0
997.27124 264.0
999.088501 156.0
1004.651245 148.0
1004.954102 176.0
1005.875488 164.0
1007.447876 152.0
1007.618469 288.0
1014.484985 160.0
1018.520813 176.0
1025.704834 140.0
1027.254395 76.0
1027.611572 80.0
1028.217773 184.0
1030.753052 64.0
1037.364502 240.0
1040.174194 180.0
1040.970337 132.0
1051.554199 128.0
1053.271606 192.0
1058.594482 128.0
1060.09082 136.0
1063.58667 92.0
1063.820312 112.0
1065.028076 52.0
1074.812988 148.0
1074.858643 164.0
1076.288208 152.0
1079.967529 176.0
1081.7146 140.0
1103.635986 180.0
1105.097656 84.0
1107.792236 92.0
1108.567383 216.0
1119.415405 116.0
1124.862427 176.0
1125.409912 176.0
1127.61438 160.0
1133.322632 120.0
1143.657959 188.0
1147.497803 184.0
1148.610474 144.0
1149.440308 152.0
1151.053589 160.0
1153.249268 212.0
1156.516357 120.0
1158.81189 132.0
1159.950439 164.0
1161.333618 200.0
1164.319946 188.0
1164.401489 208.0
1164.931274 144.0
1166.35144 144.0
1169.398682 164.0
1170.283569 144.0
1175.211548 188.0
1179.363647 64.0
1181.750244 164.0
1182.256592 104.0
1186.229248 116.0
1186.352539 48.0
1189.432617 124.0
1190.249634 216.0
1190.58606 128.0
1192.509766 172.0
1193.375977 56.0
1197.222534 120.0
1197.615112 200.0
1200.047729 136.0
1202.952148 164.0
1206.095215 168.0
1207.962158 180.0
1216.742554 220.0
1217.450806 172.0
1218.680298 224.0
1221.815918 104.0
1222.978027 180.0
1231.86853 184.0
1235.335938 144.0
1236.728394 204.0
1238.13562 156.0
1246.139404 60.0
1248.958374 100.0
1250.196655 192.0
1252.583496 152.0
1252.822998 188.0
1255.494385 128.0
1257.265137 188.0
1257.893311 164.0
1258.352173 44.0
1258.973511 212.0
1259.432617 172.0
1262.768677 168.0
1263.002075 88.0
1267.533081 120.0
1267.873291 132.0
1268.872681 180.0
1270.553589 104.0
1271.81665 176.0
1275.908447 188.0
1281.110718 104.0
1282.607056 168.0
1283.647949 184.0
1284.996094 136.0
1287.480225 136.0
1294.216309 160.0
1296.802368 216.0
1297.748657 104.0
1299.247681 112.0
1300.740234 192.0
1300.998779 148.0
1301.25 52.0
1302.499512 72.0
1306.424438 40.0
1306.848999 188.0
1308.166016 300.0
1311.544312 116.0
1311.681274 148.0
1313.260986 240.0
1314.753906 200.0
1314.876587 144.0
1316.674194 96.0
1320.085205 140.0
1320.381714 112.0
1321.539185 192.0
1322.371338 204.0
1324.688477 76.0
1327.30481 232.0
1332.639771 224.0
1333.62085 220.0
1333.795288 116.0
1334.784058 108.0
1335.736816 168.0
1336.056885 116.0
1339.937256 128.0
1341.511353 208.0
1348.426392 168.0
1349.483765 92.0
1350.4198 184.0
1351.434204 204.0
1351.809814 176.0
1357.927002 108.0
1358.176392 132.0
1359.372314 184.0
1362.501465 188.0
1372.030762 116.0
1372.716431 144.0
1372.967163 164.0
1373.881836 228.0
1374.995972 212.0
1383.037476 184.0
1383.600098 184.0
1383.911011 132.0
1385.147827 152.0
1385.977539 168.0
1386.081299 84.0
1388.179077 240.0
1388.52771 248.0
1388.601807 200.0
1389.106201 200.0
1389.49939 140.0
1389.989136 152.0
1391.013306 224.0
1393.085205 72.0
1393.657227 200.0
1394.422607 136.0
1395.046997 80.0
1398.848267 148.0
1400.724854 220.0
1402.341797 120.0
1402.542969 168.0
1403.579224 124.0
1405.832031 132.0
1407.68335 180.0
1410.589722 96.0
1411.217773 204.0
1412.264648 36.0
1413.349976 180.0
1413.499146 152.0
1416.576294 216.0
1418.142334 200.0
1420.894409 208.0
1421.997437 60.0
1422.372681 132.0
1423.176025 192.0
1427.308716 152.0
1428.354126 120.0
1430.092163 212.0
1437.61377 116.0
1438.424194 136.0
1439.327271 152.0
1439.614258 144.0
1440.31665 100.0
1440.762329 72.0
1441.298706 156.0
1441.480103 188.0
1441.653931 28.0
1442.099854 204.0
1445.934326 140.0
1446.456665 36.0
1448.008789 168.0
1448.645142 64.0
1449.099609 80.0
1451.115723 144.0
1452.564209 192.0
1453.080078 88.0
1456.20752 136.0
1457.286255 44.0
1457.894165 100.0
1459.749023 156.0
1460.304199 160.0
1460.486694 128.0
1461.605103 168.0
1463.401367 128.0
1463.957275 160.0
1464.962646 132.0
1465.892212 208.0
1466.349487 172.0
1466.452759 116.0
1468.140991 188.0
1470.467896 184.0
1473.094604 128.0
1474.766357 92.0
1475.07373 124.0
1475.891846 216.0
1478.087036 164.0
1480.253418 116.0
1481.70105 168.0
1481.877197 164.0
1482.114746 212.0
1484.138306 160.0
1488.412231 132.0
1489.164795 92.0
1490.355591 252.0
1490.58606 116.0
1491.100952 160.0
1492.946045 144.0
1495.608154 156.0
1496.046875 104.0
1496.23938 164.0
1496.293213 56.0
1497.240356 124.0
1498.110718 120.0
1498.280273 108.0
1498.888916 224.0
1500.168335 136.0
1500.407349 140.0
1500.962402 172.0
1503.593018 212.0
