>compound Thalidomide
>formula C13H10N2O4 
>ionization [M+H]+
>parentmass 259.07077
#inchi InChI=1S/C13H10N2O4/c16-10-6-5-9(11(17)14-10)15-12(18)7-3-1-2-4-8(7)13(15)19/h1-4,9H,5-6H2,(H,14,16,17)
#inchikey UEJJHQNACJXSKW
#Ion_Source LC-ESI
#Instrument qTof
#Compound_Source Commercial
#PI Dorrestein
#Data_Collector Garg_Neha
#Scan -1
#Precursor_MZ 259.072
#ExactMass 258.064
#Charge 1
#CAS_Number N/A
#Pubmed_ID N/A
#Smiles N/A
#INCHI_AUX N/A
#Library_Class 1
#SpectrumID CCMSLIB00000077039
#IonMode Positive
#UpdateWorkflowName UPDATE-SINGLE-ANNOTATED-GOLD
#LibraryQualityString Gold
#TaskID 48f7f52fc6d249b5abbcc6e7b3df5969
##Scan# 1126
#SpectrumFile NCP003017_A2_B11_BA6_01_15701.mzXML
#LibraryName NIH_Clinical_Collection_2.mgf
#MQScore -1
#Organism NIHcollection2_04212014_2_mgf
#TIC_Query 0
#RT_Query -1
#MZErrorPPM -1
#SharedPeaks 0
#MassDiff 0
#LibMZ -1
#SpecMZ 259.072
#SpecCharge 0
#internalFilename spec-00000.mgf

>collision 10
46.584469 176.0
72.457321 144.0
73.424522 156.0
84.039413 148.0
104.509041 248.0
109.103973 224.0
115.605339 140.0
117.690445 176.0
122.60759 160.0
130.029068 948.0
130.067551 176.0
130.090256 180.0
131.045486 160.0
131.065948 164.0
132.016693 120.0
133.030563 124.0
133.336044 196.0
142.069107 308.0
143.049057 272.0
144.046707 252.0
148.038956 1252.0
155.434677 140.0
158.021027 204.0
158.056351 396.0
159.041901 212.0
160.041595 296.0
161.040146 204.0
170.056046 152.0
174.055557 148.0
175.05217 160.0
185.792755 196.0
186.055176 9892.0
186.909424 284.0
186.999237 196.0
187.058243 1920.0
188.06073 140.0
189.161041 140.0
196.945267 156.0
214.048615 1584.0
214.35524 132.0
215.060165 176.0
228.055908 180.0
231.077316 1428.0
231.110809 160.0
232.083374 128.0
248.083267 224.0
257.138062 156.0
257.241699 284.0
258.154175 216.0
259.019623 144.0
259.07077 1092.0
259.113953 296.0
260.093811 164.0
260.161224 188.0
261.123291 176.0
360.052795 144.0
1231.523682 144.0
1533.971191 176.0
1755.296021 196.0
1890.453735 196.0
