>compound Licarin A
>formula C20H22O4
>ionization [M+H]+
>parentmass 327.15908563609054
#inchi InChI=1S/C20H22O4/c1-5-6-13-9-15-12(2)19(24-20(15)18(10-13)23-4)14-7-8-16(21)17(11-14)22-3/h5-12,19,21H,1-4H3/b6-5+
#inchikey ITDOFWOJEDZPCF
#Ion_Source DI-ESI
#Instrument Ion Trap
#Compound_Source Isolated
#PI Norberto Lopes
#Data_Collector Denise Silva
#Scan -1
#Precursor_MZ 203.1
#ExactMass 326.152
#Charge 1
#CAS_Number 51020-86-1
#Pubmed_ID  
#Smiles OC(C(OC)=C1)=CC=C1C(O2)C(C)C3=C2C(OC)=CC(/C=C/C)=C3
#INCHI_AUX  
#Library_Class 3
#SpectrumID CCMSLIB00000081239
#IonMode Positive
#UpdateWorkflowName UPDATE-SINGLE-ANNOTATED-BRONZE
#LibraryQualityString Bronze
#TaskID 4dcc7c08e7434483aaf5e93523d3a9ca
##Scan# 1
#SpectrumFile gnps_LicarinA_pos_MplusHminus124.mgf
#LibraryName gnps_library.mgf
#MQScore -1
#Organism gnps_library
#TIC_Query 0
#RT_Query -1
#MZErrorPPM -1
#SharedPeaks 0
#MassDiff 0
#LibMZ -1
#SpecMZ 203.1
#SpecCharge 0
#internalFilename spec-00000.mgf

>collision 10
141.998001 150.0
143.029999 2168.0
145.070999 249.0
146.020004 543.0
157.102005 126.0
161.048996 2399.0
171.018997 10415.0
171.018997 10415.0
171.018997 10415.0
171.018997 10415.0
171.018997 10415.0
173.953995 184.0
175.022995 1812.0
185.050003 162.0
188.022995 4204.0
