>compound Benzeneacetic acid, Alpha-(hydroxymethyl)-, 9-methyl-3-oxa-9-azatricyclo[3.3.1.02,4]non-7-yl ester, [7(S)-(1Alpha,2 ,4 ,5Alpha,7 )]- [CAS]
>formula C17H21NO4
>ionization [M+H]+
>parentmass 304.15433460409054
#inchi InChI=1S/C17H21NO4/c1-18-13-7-11(8-14(18)16-15(13)22-16)21-17(20)12(9-19)10-5-3-2-4-6-10/h2-6,11-16,19H,7-9H2,1H3/t11?,12-,13-,14+,15-,16+/m1/s1
#inchikey STECJAGHUSJQJN
#Ion_Source LC-ESI
#Instrument qTof
#Compound_Source Commercial
#PI Dorrestein
#Data_Collector Garg_Neha
#Scan -1
#Precursor_MZ 304.154
#ExactMass 303.147
#Charge 1
#CAS_Number N/A
#Pubmed_ID N/A
#Smiles CN1[C@H]2CC(C[C@@H]1[C@H]3O[C@H]32)OC(=O)[C@H](CO)c4ccccc4
#INCHI_AUX N/A
#Library_Class 1
#SpectrumID CCMSLIB00000079169
#IonMode Positive
#UpdateWorkflowName UPDATE-SINGLE-ANNOTATED-GOLD
#LibraryQualityString Gold
#TaskID 278b19f5865741e282cec7349aa7e7a1
##Scan# 1003
#SpectrumFile NCP003592_C2_D11_BE1_01_15735.mzXML
#LibraryName NIHcollectionI_05062014.mgf
#MQScore -1
#Organism NIHcollectionI_05062014
#TIC_Query 0
#RT_Query -1
#MZErrorPPM -1
#SharedPeaks 0
#MassDiff 0
#LibMZ -1
#SpecMZ 304.154
#SpecCharge 0
#internalFilename spec-00000.mgf

>collision 10
45.262825 172.0
45.457191 144.0
45.649288 188.0
45.9011 168.0
46.01984 172.0
46.077915 144.0
46.099537 148.0
47.059895 172.0
47.166451 204.0
47.445713 152.0
47.813835 180.0
49.085648 164.0
49.506203 268.0
49.607082 308.0
50.118656 164.0
50.757561 160.0
51.175304 144.0
51.218025 140.0
51.516159 148.0
51.65625 212.0
51.891117 204.0
52.100651 172.0
52.503681 148.0
53.369637 216.0
53.520962 228.0
53.57048 168.0
54.252937 188.0
54.487751 220.0
54.979553 200.0
55.006123 192.0
55.224808 172.0
56.235149 164.0
56.302334 192.0
56.602909 144.0
56.692791 220.0
57.354088 232.0
57.696758 180.0
58.204323 152.0
59.400864 192.0
59.552826 208.0
59.749584 168.0
59.84655 144.0
60.53368 160.0
61.109547 184.0
61.173351 144.0
62.005878 168.0
62.560524 180.0
63.131516 236.0
63.199535 184.0
63.253345 164.0
63.430756 148.0
64.411919 140.0
64.489258 156.0
65.323059 208.0
65.887283 244.0
66.024681 168.0
66.100708 148.0
66.183266 140.0
68.548584 204.0
68.594002 180.0
68.726669 192.0
69.515968 184.0
69.741837 156.0
69.888176 244.0
70.013023 140.0
70.167992 160.0
70.251373 152.0
70.396584 172.0
71.175232 164.0
71.198738 184.0
71.316345 196.0
71.397049 172.0
71.9244 172.0
72.353775 156.0
72.507919 140.0
72.765755 144.0
72.986633 200.0
73.141449 164.0
73.398697 148.0
73.571022 172.0
74.10804 152.0
74.325798 184.0
74.392731 188.0
74.653893 144.0
74.691727 196.0
74.839729 156.0
74.90345 164.0
75.374443 152.0
75.562904 168.0
75.652901 188.0
75.69445 152.0
75.881584 140.0
76.273918 204.0
76.400856 144.0
76.604538 164.0
76.632408 196.0
77.280579 204.0
77.590164 148.0
77.686623 176.0
78.138115 160.0
78.444542 164.0
78.629738 140.0
79.676231 236.0
80.238617 184.0
80.636681 196.0
81.328033 316.0
81.638847 208.0
81.669418 156.0
82.242393 220.0
82.566994 236.0
82.62368 164.0
82.830048 184.0
83.232666 208.0
83.446236 184.0
83.55983 160.0
83.727287 188.0
85.034492 140.0
85.221565 140.0
85.501305 168.0
85.553352 188.0
85.668861 140.0
85.827362 168.0
86.146645 180.0
86.220551 140.0
86.749916 180.0
87.128494 168.0
87.729591 152.0
87.884392 208.0
88.329018 196.0
89.223526 216.0
89.364578 164.0
89.594269 164.0
89.778984 152.0
90.326714 240.0
90.959602 144.0
91.052406 248.0
91.138123 152.0
91.423355 156.0
91.465225 172.0
91.857758 148.0
92.1231 212.0
92.344826 160.0
92.492157 188.0
92.608955 176.0
92.929092 168.0
92.973221 152.0
93.068718 464.0
93.517426 176.0
94.068123 136.0
94.466469 200.0
95.070221 184.0
95.500336 180.0
95.856606 160.0
95.874146 172.0
95.92482 164.0
96.042953 680.0
96.061317 160.0
96.078926 164.0
96.827515 208.0
96.992096 232.0
97.052467 1308.0
97.787575 168.0
98.010101 176.0
98.041573 132.0
98.060776 2944.0
98.132301 224.0
98.155968 176.0
98.267334 104.0
98.347328 156.0
98.448021 160.0
98.523071 224.0
98.98391 200.0
99.067093 160.0
99.172119 156.0
99.674202 140.0
100.075989 160.0
100.556412 212.0
100.941971 204.0
101.10601 160.0
101.144035 168.0
101.346306 188.0
101.673164 172.0
102.334496 168.0
102.515778 152.0
102.711128 184.0
102.731514 164.0
102.882668 180.0
103.054993 10500.0
103.878502 164.0
104.002281 172.0
104.05645 660.0
104.156593 224.0
104.522537 180.0
104.942131 152.0
105.056335 144.0
105.072174 168.0
105.278816 164.0
105.63649 152.0
105.845245 160.0
105.918976 144.0
106.394722 184.0
106.694664 176.0
107.057251 348.0
107.213364 148.0
107.260765 156.0
107.27932 200.0
107.454613 144.0
107.743652 284.0
107.793854 148.0
108.0821 428.0
108.140671 200.0
108.810219 144.0
108.876671 160.0
108.895355 168.0
108.930672 188.0
109.064156 388.0
109.085464 228.0
109.132256 244.0
109.225838 148.0
109.27993 176.0
109.50058 180.0
109.535988 148.0
109.894562 164.0
110.06057 1104.0
110.096863 4520.0
110.87075 124.0
110.980095 156.0
111.062271 148.0
111.096771 260.0
111.120613 164.0
111.406052 108.0
111.900352 188.0
112.078278 184.0
112.108879 208.0
112.309166 208.0
113.226334 160.0
113.325996 144.0
113.883919 156.0
114.187843 196.0
114.97612 172.0
115.064102 128.0
115.138367 140.0
115.174675 144.0
116.060661 168.0
116.107841 216.0
116.189354 152.0
116.285912 160.0
116.330986 208.0
116.74781 144.0
116.818787 204.0
117.072762 200.0
118.041679 176.0
118.093582 184.0
118.227722 228.0
118.398743 184.0
118.524384 192.0
119.075394 148.0
119.240509 180.0
120.081993 664.0
120.184334 144.0
120.331841 144.0
120.559006 144.0
120.801697 140.0
120.913292 144.0
120.998657 152.0
121.064964 17804.0
121.719032 108.0
121.785896 140.0
122.001236 148.0
122.0681 1328.0
122.32901 168.0
122.555855 144.0
122.661636 144.0
122.844658 176.0
123.067467 288.0
123.239845 180.0
123.328239 204.0
123.985565 184.0
124.160706 184.0
124.431412 236.0
124.657967 148.0
125.018219 172.0
125.572952 196.0
126.739868 148.0
126.829514 200.0
126.977486 196.0
127.540718 112.0
128.157654 188.0
129.230133 160.0
129.442902 152.0
129.535751 176.0
129.794113 232.0
130.595779 144.0
130.811935 252.0
130.836975 196.0
130.873413 188.0
131.895447 200.0
132.932922 168.0
133.293442 164.0
133.923798 176.0
134.290268 164.0
135.03627 220.0
135.101028 156.0
135.191269 200.0
135.90033 164.0
136.627518 164.0
136.788086 148.0
137.146805 200.0
137.21907 188.0
137.828247 276.0
137.973145 144.0
138.043488 504.0
138.063507 180.0
138.092239 78248.0
138.162094 124.0
138.304153 144.0
138.355774 108.0
138.476639 188.0
138.666794 120.0
138.708923 156.0
138.762222 96.0
139.094727 6532.0
139.12706 128.0
139.229736 160.0
139.966019 124.0
140.044189 172.0
140.098831 692.0
140.240082 136.0
140.263458 112.0
140.284363 116.0
140.335968 160.0
140.403412 188.0
141.078705 164.0
141.596893 148.0
141.937424 184.0
142.438904 160.0
142.633743 204.0
142.664642 152.0
142.823975 144.0
143.197647 152.0
143.453247 176.0
145.452377 192.0
145.625259 172.0
146.797272 148.0
147.014389 200.0
147.57962 176.0
149.055756 168.0
149.186996 168.0
149.537262 176.0
150.278061 204.0
150.71756 168.0
151.103867 216.0
151.608276 184.0
151.819107 156.0
152.371384 180.0
152.880356 144.0
154.085693 384.0
154.199768 172.0
154.256622 184.0
154.563293 228.0
154.914856 156.0
154.986694 188.0
155.094482 116.0
155.265228 112.0
155.678772 144.0
155.716019 160.0
155.750702 228.0
155.837738 156.0
155.867081 396.0
155.890488 104.0
155.918259 160.0
155.981079 108.0
156.068771 332.0
156.103043 87516.0
156.280746 128.0
156.510818 376.0
156.776642 148.0
156.946243 144.0
157.036133 280.0
157.059357 216.0
157.105743 5236.0
157.319565 192.0
157.552078 148.0
157.640778 132.0
157.953598 148.0
158.108292 872.0
158.188873 208.0
158.263351 112.0
158.357254 140.0
158.389816 156.0
158.42244 104.0
158.748215 176.0
159.10701 160.0
159.255173 172.0
160.440369 220.0
160.508438 196.0
160.737976 184.0
161.220291 168.0
161.865356 168.0
162.387405 164.0
164.203323 184.0
166.255112 152.0
167.53299 204.0
167.628326 160.0
167.914474 144.0
168.730438 188.0
171.388184 176.0
171.419449 172.0
176.102402 168.0
176.139374 168.0
176.435349 156.0
179.019684 204.0
179.118225 168.0
179.174164 216.0
180.893967 148.0
181.121567 180.0
181.909912 152.0
183.101044 204.0
183.222244 140.0
183.575333 328.0
185.047943 188.0
185.364853 144.0
187.244736 152.0
187.95282 160.0
188.10907 200.0
191.247589 168.0
192.714676 140.0
192.816925 140.0
194.109711 160.0
194.598053 248.0
195.885666 140.0
196.030533 164.0
196.169891 184.0
197.099258 188.0
199.287582 160.0
199.672684 176.0
201.63179 160.0
202.053391 188.0
202.86615 148.0
206.971649 164.0
208.79097 208.0
213.446808 148.0
213.781326 176.0
213.804611 216.0
215.793976 196.0
215.966507 164.0
216.55481 148.0
216.812622 216.0
218.815903 204.0
219.095856 208.0
220.757416 204.0
223.593491 220.0
228.140015 132.0
228.512939 220.0
229.645584 140.0
229.850723 152.0
230.720566 160.0
234.954056 172.0
236.035263 164.0
237.084686 244.0
237.530762 116.0
237.763 140.0
241.24971 160.0
243.281891 148.0
243.419983 156.0
244.920639 164.0
245.895691 148.0
246.021393 160.0
246.068222 180.0
246.877502 168.0
248.173859 148.0
251.019501 152.0
252.01062 156.0
255.164169 152.0
256.906189 184.0
256.99231 208.0
257.710724 168.0
258.150452 112.0
258.228577 140.0
259.433838 176.0
260.877106 180.0
260.928558 176.0
262.374054 152.0
262.822357 144.0
263.054718 148.0
263.345337 200.0
263.745972 156.0
263.836487 188.0
265.79599 144.0
266.016663 192.0
266.66629 152.0
266.796326 152.0
267.004425 184.0
267.062958 144.0
267.466431 144.0
269.053955 144.0
271.455536 228.0
271.563751 180.0
273.229156 208.0
273.826355 152.0
274.137939 232.0
276.797089 148.0
276.869934 168.0
277.164246 156.0
279.093231 140.0
279.126495 164.0
280.208221 144.0
281.742859 152.0
283.40564 152.0
283.663696 196.0
285.110291 188.0
286.143982 1164.0
287.15097 292.0
288.156372 208.0
288.25824 264.0
289.511139 108.0
290.092163 188.0
291.284271 152.0
292.207886 144.0
294.041138 164.0
294.170837 164.0
294.812958 176.0
296.37674 176.0
296.695465 176.0
297.318176 108.0
297.779785 364.0
297.924042 172.0
298.828217 180.0
300.188782 224.0
301.841278 108.0
302.244751 220.0
302.289032 172.0
302.327118 184.0
302.509979 128.0
302.574371 224.0
303.006775 96.0
303.095032 212.0
303.129181 292.0
303.154266 188.0
303.188507 136.0
303.272461 104.0
303.345367 140.0
303.373108 104.0
303.402527 204.0
303.496857 116.0
303.575806 208.0
303.657776 132.0
303.78186 216.0
303.835388 160.0
303.924316 116.0
303.954712 192.0
304.00177 236.0
304.027557 128.0
304.056213 304.0
304.156738 165300.0
304.248932 180.0
304.277679 156.0
304.316772 132.0
304.387787 172.0
304.444122 192.0
304.473633 244.0
304.519257 444.0
304.633301 168.0
304.669373 156.0
304.728027 3648.0
304.808838 184.0
304.847656 164.0
304.936798 96.0
305.02124 208.0
305.073059 280.0
305.158539 47296.0
305.286774 116.0
305.319824 108.0
305.381653 124.0
305.407196 256.0
305.587799 108.0
305.781281 140.0
305.916351 148.0
305.994293 168.0
306.160004 3992.0
306.337524 116.0
306.624634 96.0
306.675323 188.0
306.700348 96.0
306.797211 152.0
306.856049 160.0
306.900696 156.0
306.962555 144.0
307.02179 104.0
307.051788 200.0
307.162933 628.0
307.218445 236.0
307.304413 300.0
307.366394 248.0
307.423492 144.0
308.193329 176.0
308.245667 176.0
308.340637 108.0
309.11499 124.0
310.833466 160.0
315.263397 140.0
315.408325 208.0
358.760376 204.0
714.138367 196.0
898.416565 164.0
901.29425 140.0
1011.289368 144.0
1177.546631 180.0
1203.76001 180.0
1225.819092 156.0
1236.741821 184.0
1252.012085 180.0
1268.098999 192.0
1271.574219 180.0
1272.33374 152.0
1278.176025 176.0
1302.698975 172.0
1312.93396 164.0
1314.650879 200.0
1324.693604 144.0
1326.519653 172.0
1329.979614 216.0
1346.01062 188.0
1354.333008 204.0
1402.517212 176.0
1411.378662 188.0
1438.002075 204.0
1442.428223 160.0
1445.763672 176.0
1448.231812 176.0
1448.413574 168.0
1464.470581 152.0
1469.028809 192.0
1471.684692 160.0
1477.378418 184.0
1482.845581 156.0
1499.005615 180.0
1505.517822 212.0
1505.74939 160.0
1507.711792 148.0
1513.35083 156.0
1514.799072 148.0
1532.301636 160.0
1533.026245 164.0
1534.717773 232.0
1545.574829 140.0
1558.677246 224.0
1565.914673 176.0
1566.970215 140.0
1572.703247 148.0
1580.210449 148.0
1583.432129 152.0
1593.665161 172.0
1607.560059 152.0
1609.970825 244.0
1626.993652 200.0
1643.863892 208.0
1646.164551 164.0
1647.529541 148.0
1648.280884 160.0
1676.854614 164.0
1677.311035 148.0
1687.155884 140.0
1699.506348 152.0
1702.518921 292.0
1707.778809 176.0
1709.769897 172.0
1716.533081 164.0
1718.999512 180.0
1724.772461 156.0
1728.411255 228.0
1734.448608 144.0
1740.994751 192.0
1746.845947 164.0
1767.202026 208.0
1768.800415 172.0
1772.292725 164.0
1779.144775 164.0
1779.824829 140.0
1785.328857 244.0
1787.036377 164.0
1795.282837 248.0
1799.55249 164.0
1811.849609 184.0
1819.533203 264.0
1822.53125 160.0
1825.234253 168.0
1825.8125 176.0
1828.730713 168.0
1839.760742 196.0
1846.528076 196.0
1850.062012 156.0
1850.301636 188.0
1851.56897 140.0
1851.663208 200.0
1851.825928 164.0
1852.733887 148.0
1854.516235 236.0
1863.122925 144.0
1867.171387 156.0
1870.11377 204.0
1883.849854 176.0
1893.182251 168.0
1898.503174 156.0
1900.125244 144.0
1901.930176 208.0
1909.321533 224.0
1911.860596 160.0
1913.735718 144.0
1914.13623 172.0
1915.250977 160.0
1923.997314 220.0
1925.813599 148.0
1929.086914 148.0
1932.710938 196.0
1933.125488 132.0
1934.224976 160.0
1938.227295 168.0
1939.953857 172.0
1942.268799 180.0
1947.78125 188.0
1950.804077 196.0
1956.363647 196.0
1958.996704 156.0
1960.194946 188.0
1960.582642 184.0
1961.137939 172.0
1966.253296 176.0
1966.597534 152.0
1967.356689 176.0
1972.144287 188.0
1972.347534 188.0
1975.601685 196.0
1979.646606 172.0
1985.743774 152.0
1986.444458 144.0
1992.036987 168.0
1992.845337 140.0
1996.125244 144.0
1996.810059 168.0
1998.108765 140.0
2000.769653 152.0
2000.867676 192.0
2001.918335 180.0
