>compound MLS001049121-01!indolo[2,1-b]quinazoline-6,12-dione
>formula C15H8N2O2
>ionization [M+H]+
>parentmass 249.066162
#inchi InChI=1S/C15H8N2O2/c18-13-10-6-2-4-8-12(10)17-14(13)16-11-7-3-1-5-9(11)15(17)19/h1-8H
#inchikey VQQVWGVXDIPORV
#Ion_Source LC-ESI
#Instrument qTof
#Compound_Source NIH Natural Product Library
#PI Dorrestein
#Data_Collector VVP/LMS
#Scan -1
#Precursor_MZ 249.066
#ExactMass 248.059
#Charge 1
#CAS_Number N/A
#Pubmed_ID N/A
#Smiles O=C1c2ccccc2-n3c1nc4ccccc4c3=O
#INCHI_AUX N/A
#Library_Class 1
#SpectrumID CCMSLIB00000080412
#IonMode Positive
#UpdateWorkflowName UPDATE-SINGLE-ANNOTATED-GOLD
#LibraryQualityString Gold
#TaskID b1d8e8f6646f4e71acdff9ca3d919d08
##Scan# 2020
#SpectrumFile p2-E08_GE8_01_18032.mzXML
#LibraryName NIH_Natural_Products_Library.mgf
#MQScore -1
#Organism NIH_Natural_Products_Library
#TIC_Query 0
#RT_Query -1
#MZErrorPPM -1
#SharedPeaks 0
#MassDiff 0
#LibMZ -1
#SpecMZ 249.066
#SpecCharge 0
#internalFilename spec-00000.mgf

>collision 10
96.464272 160.0
96.726395 112.0
96.879135 264.0
97.194794 92.0
97.397003 48.0
97.772537 180.0
97.989136 164.0
98.417137 92.0
98.66806 176.0
98.683876 204.0
98.895546 236.0
99.026222 168.0
99.200592 112.0
99.21447 188.0
99.291801 40.0
99.949348 188.0
101.242905 60.0
101.928963 176.0
102.034492 1924.0
102.341309 44.0
102.490364 120.0
102.847321 48.0
102.954323 76.0
103.036499 396.0
103.233208 160.0
103.356598 184.0
103.461845 112.0
104.027443 196.0
104.509109 176.0
104.99189 192.0
105.03064 172.0
105.204086 196.0
105.347038 200.0
105.835846 180.0
106.0289 432.0
106.221138 248.0
106.923836 124.0
106.979591 180.0
107.261627 120.0
107.882973 244.0
108.329971 56.0
109.029205 144.0
109.989372 160.0
110.745949 192.0
112.770401 132.0
112.893021 144.0
113.288818 80.0
113.797813 168.0
114.337746 188.0
114.597534 124.0
115.05394 140.0
115.778801 140.0
115.939476 60.0
116.031647 200.0
116.557503 140.0
117.047943 184.0
118.098946 236.0
118.384628 132.0
119.139435 160.0
119.34156 152.0
119.994736 184.0
120.016541 140.0
120.043816 684.0
120.57975 176.0
120.811531 136.0
121.030334 572.0
121.076378 60.0
121.225349 64.0
121.304253 60.0
121.729889 44.0
121.949585 140.0
122.033394 192.0
122.112282 144.0
122.400574 48.0
122.931824 152.0
123.579254 172.0
123.93573 224.0
124.592461 92.0
124.745796 172.0
125.424728 180.0
126.821724 160.0
127.034752 148.0
127.393929 112.0
127.980927 192.0
128.08226 168.0
128.957733 164.0
129.045349 776.0
129.51886 208.0
129.582291 208.0
129.682007 80.0
129.716003 192.0
129.867126 148.0
129.908752 180.0
130.02919 17084.0
130.108459 92.0
130.308319 56.0
130.328766 68.0
130.406036 36.0
130.476501 72.0
130.838226 56.0
130.96347 136.0
130.99765 156.0
131.033035 1380.0
131.166275 52.0
131.433105 64.0
131.46048 164.0
131.82814 144.0
131.960724 44.0
132.032959 180.0
132.116241 160.0
132.168228 100.0
132.194031 96.0
132.752991 124.0
133.186752 88.0
133.425751 176.0
133.828369 104.0
134.206253 144.0
134.866501 228.0
135.104675 168.0
136.094315 124.0
139.053787 924.0
140.047348 344.0
140.492111 68.0
140.964325 40.0
141.060242 256.0
141.167618 120.0
141.671982 216.0
142.423737 136.0
142.720795 96.0
143.351593 132.0
143.527985 80.0
144.856812 196.0
146.02478 1228.0
146.073853 84.0
146.210999 132.0
146.490295 108.0
146.837387 152.0
147.025299 304.0
148.814438 120.0
149.062195 124.0
149.996765 72.0
151.049103 364.0
152.053787 180.0
152.985382 120.0
153.160217 184.0
154.070465 180.0
154.478363 96.0
154.755554 116.0
160.653976 56.0
161.857025 140.0
164.04184 140.0
164.121017 140.0
165.040222 148.0
165.626282 132.0
165.69545 80.0
165.938919 144.0
166.064011 1552.0
166.100479 176.0
166.249298 76.0
166.557388 56.0
166.732101 52.0
166.888916 84.0
167.066742 340.0
167.51944 60.0
168.251846 156.0
170.06012 264.0
171.016663 404.0
171.317215 160.0
171.392761 88.0
172.533325 140.0
172.643143 176.0
173.059204 168.0
174.360306 164.0
176.054291 148.0
177.057663 324.0
177.159897 124.0
177.78299 152.0
178.068192 204.0
179.053329 152.0
180.040512 176.0
180.063477 208.0
181.040604 116.0
181.047302 112.0
181.054977 168.0
181.16658 188.0
181.793991 116.0
182.049026 176.0
184.074066 136.0
184.160492 176.0
184.63887 168.0
185.063721 168.0
185.928436 120.0
186.064163 236.0
187.66394 212.0
189.2733 172.0
191.061249 140.0
191.40686 84.0
191.971756 216.0
192.067764 2148.0
192.112427 104.0
192.283508 56.0
192.717041 36.0
192.987915 192.0
193.076355 1100.0
193.568985 136.0
194.06102 280.0
194.477158 76.0
195.06163 304.0
195.234009 76.0
195.39534 60.0
195.67366 92.0
196.075897 164.0
196.428879 180.0
196.73584 116.0
200.322571 168.0
202.061584 236.0
203.057556 176.0
203.521255 60.0
203.955902 164.0
204.061096 264.0
204.371109 124.0
205.075775 316.0
206.059814 304.0
206.181885 96.0
206.934189 172.0
207.088821 192.0
207.736633 96.0
210.291794 84.0
211.505768 160.0
213.01651 124.0
213.388504 184.0
216.452194 80.0
216.542969 176.0
219.074966 176.0
219.254715 100.0
220.054306 236.0
220.272629 168.0
221.071426 3472.0
221.118271 72.0
221.289963 44.0
221.408401 68.0
221.440979 52.0
221.520966 36.0
221.621689 68.0
221.80246 384.0
221.932907 88.0
222.075058 1384.0
222.348206 64.0
223.084839 200.0
223.681473 204.0
223.822678 128.0
223.849472 108.0
228.227219 44.0
229.057846 76.0
230.098251 148.0
231.057846 292.0
232.031509 192.0
232.06485 180.0
232.216476 216.0
232.623077 112.0
232.947998 108.0
233.221466 96.0
234.12204 144.0
237.204895 180.0
238.813873 96.0
238.884613 92.0
240.7061 52.0
243.334869 116.0
247.519226 228.0
248.054977 128.0
248.494019 60.0
248.861237 56.0
248.902054 144.0
248.949158 104.0
248.993134 160.0
249.066162 11228.0
249.120758 124.0
249.15332 164.0
249.213959 148.0
249.326141 64.0
249.50531 60.0
249.583908 116.0
250.008575 52.0
250.069351 1628.0
250.172256 148.0
250.262039 92.0
250.345428 64.0
250.616318 120.0
250.858994 28.0
250.963028 48.0
251.026093 212.0
251.076797 152.0
251.205872 64.0
251.303665 68.0
251.578247 76.0
251.900345 140.0
252.010925 148.0
253.231995 48.0
255.558884 32.0
260.687866 44.0
262.210083 92.0
265.063599 52.0
278.668396 84.0
281.59317 108.0
296.350159 44.0
314.20163 104.0
322.983246 100.0
325.412964 56.0
344.417023 64.0
425.701843 92.0
434.390778 88.0
457.203156 20.0
464.041931 60.0
636.022705 120.0
808.967773 208.0
848.977356 20.0
924.95874 68.0
964.864197 128.0
981.192017 136.0
993.668945 180.0
1005.7323 164.0
1015.260376 216.0
1061.595703 136.0
1070.023071 160.0
1080.268799 88.0
1087.469971 160.0
1124.488159 236.0
1126.604858 216.0
1140.630127 20.0
1142.001831 176.0
1161.739258 140.0
1169.206543 116.0
1184.22644 196.0
1206.383057 216.0
1206.929199 192.0
1211.766357 160.0
1220.011841 240.0
1221.402588 64.0
1237.124146 72.0
1243.460449 188.0
1246.648804 156.0
1247.632812 184.0
1252.981323 92.0
1285.583862 176.0
1288.511353 180.0
1293.037598 116.0
1294.984985 144.0
1309.536133 168.0
1311.546387 156.0
1316.546143 148.0
1316.986694 168.0
1327.567505 148.0
1329.86731 252.0
1331.312012 156.0
1335.585449 128.0
1340.339355 52.0
1343.15332 152.0
1344.247681 152.0
1348.161743 204.0
1358.742188 164.0
1361.795776 60.0
1361.906006 144.0
1365.146973 108.0
1368.487549 168.0
1373.587158 108.0
1373.668335 152.0
1377.950073 124.0
1378.88855 132.0
1384.037109 172.0
1392.528076 80.0
1395.842407 160.0
1401.320557 232.0
1401.7229 248.0
1403.250854 44.0
1404.354492 184.0
1408.153442 164.0
1417.197388 188.0
1419.078613 152.0
1433.050659 56.0
1435.937744 164.0
1437.37854 148.0
1461.724976 176.0
1461.922852 144.0
1467.285034 180.0
1467.376465 64.0
1467.78064 116.0
1471.733032 172.0
1474.681763 192.0
1477.006104 196.0
1485.577637 164.0
1489.845825 116.0
1493.443237 136.0
1495.420654 136.0
1496.62915 84.0
1499.309814 148.0
1500.720459 136.0
1500.828369 216.0
1501.61499 232.0
