>compound MLS001140583-01!
>formula C27H29N3O4
>ionization [M+H]+
>parentmass 460.224
#inchi InChI=1S/C27H29N3O4/c1-32-22-13-16(14-23(33-2)26(22)34-3)24-25-19(18-11-7-8-12-20(18)29-25)15-21(30-24)27(31)28-17-9-5-4-6-10-17/h7-8,11-15,17,30H,4-6,9-10H2,1-3H3,(H,28,31)
#inchikey FXHLHJGGCCHNCE
#Ion_Source LC-ESI
#Instrument qTof
#Compound_Source NIH Natural Product Library
#PI Dorrestein
#Data_Collector VVP/LMS
#Scan -1
#Precursor_MZ 460.224
#ExactMass 459.216
#Charge 1
#CAS_Number N/A
#Pubmed_ID N/A
#Smiles COc1cc(cc(OC)c1OC)c2[nH]c(cc3c4ccccc4nc23)C(=O)NC5CCCCC5
#INCHI_AUX N/A
#Library_Class 1
#SpectrumID CCMSLIB00000079514
#IonMode Positive
#UpdateWorkflowName UPDATE-SINGLE-ANNOTATED-GOLD
#LibraryQualityString Gold
#TaskID b1d8e8f6646f4e71acdff9ca3d919d08
##Scan# 2719
#SpectrumFile p1-E07_GE7_01_17927.mzXML
#LibraryName NIH_Natural_Products_Library.mgf
#MQScore -1
#Organism NIH_Natural_Products_Library
#TIC_Query 0
#RT_Query -1
#MZErrorPPM -1
#SharedPeaks 0
#MassDiff 0
#LibMZ -1
#SpecMZ 460.224
#SpecCharge 0
#internalFilename spec-00000.mgf

>collision 10
94.975906 68.0
94.983063 124.0
95.002075 80.0
95.020676 100.0
95.044922 288.0
95.069115 172.0
95.087433 136.0
95.102501 136.0
95.131622 124.0
95.144424 116.0
95.214012 132.0
95.243912 320.0
95.26442 108.0
95.29425 176.0
95.316238 200.0
95.334579 100.0
95.342392 120.0
95.348076 132.0
95.354385 120.0
95.364655 92.0
95.372871 184.0
95.400612 260.0
95.435486 136.0
95.457581 196.0
95.472458 152.0
95.495934 156.0
95.518379 208.0
95.541725 96.0
95.56205 168.0
95.584145 160.0
95.639038 140.0
95.664345 108.0
95.713173 104.0
95.726547 140.0
95.731415 144.0
95.762238 268.0
95.784195 156.0
95.810333 184.0
95.838898 156.0
95.845901 96.0
95.851562 176.0
95.868675 148.0
95.891472 244.0
95.911652 132.0
95.935165 236.0
95.968307 84.0
95.986504 160.0
96.003883 264.0
96.026024 324.0
96.077751 152.0
96.0951 100.0
96.11219 164.0
96.133591 144.0
96.148163 160.0
96.172684 64.0
96.175919 108.0
96.191284 72.0
96.235649 104.0
96.248482 96.0
96.280655 116.0
96.326797 168.0
96.342979 148.0
96.346611 104.0
96.356636 128.0
96.406425 184.0
96.445976 68.0
96.478027 280.0
96.505959 164.0
96.537697 144.0
96.563698 124.0
96.588829 132.0
96.622452 336.0
96.644402 184.0
96.682922 256.0
96.710754 88.0
96.765572 148.0
96.79306 116.0
96.812576 108.0
96.835197 108.0
96.857628 96.0
96.890892 100.0
96.908569 200.0
96.922005 168.0
96.939857 180.0
96.974586 276.0
96.996773 56.0
97.016838 240.0
97.038719 132.0
97.048798 60.0
97.05349 164.0
97.079803 140.0
97.097977 164.0
97.127792 240.0
97.163773 216.0
97.198738 116.0
97.216469 148.0
97.25769 164.0
97.27626 148.0
97.322861 176.0
97.351768 236.0
97.3909 196.0
97.41349 156.0
97.439232 104.0
97.454094 80.0
97.46785 88.0
97.483574 132.0
97.51046 152.0
97.537079 200.0
97.556763 208.0
97.574806 88.0
97.591263 292.0
97.613335 128.0
97.649063 148.0
97.667046 52.0
97.683258 112.0
97.708847 188.0
97.739243 76.0
97.782539 52.0
97.805824 188.0
97.833214 108.0
97.859322 72.0
97.873108 104.0
97.901764 128.0
97.935013 168.0
97.990318 152.0
98.009033 164.0
98.022835 124.0
98.050087 188.0
98.081963 128.0
98.094452 120.0
98.111969 128.0
98.138351 212.0
98.160835 124.0
98.194366 108.0
98.235794 144.0
98.2677 140.0
98.31028 200.0
98.337753 108.0
98.371971 104.0
98.391106 204.0
98.447014 208.0
98.477676 148.0
98.489479 84.0
98.524055 128.0
98.556374 168.0
98.594238 460.0
98.621986 116.0
98.664391 128.0
98.682068 208.0
98.68969 136.0
98.709869 100.0
98.755363 240.0
98.769211 88.0
98.801765 80.0
98.836487 120.0
98.861504 236.0
98.880028 268.0
98.905762 88.0
98.934464 120.0
98.959976 156.0
99.002785 104.0
99.027695 236.0
99.050323 224.0
99.093025 80.0
99.115753 200.0
99.128433 124.0
99.146393 152.0
99.160103 232.0
99.189056 56.0
99.224113 152.0
99.264923 204.0
99.280579 180.0
99.298119 140.0
99.327477 80.0
99.340164 148.0
99.35453 208.0
99.37748 84.0
99.427589 112.0
99.480415 260.0
99.498566 264.0
99.516434 44.0
99.532616 80.0
99.546219 164.0
99.562569 84.0
99.578293 304.0
99.593346 188.0
99.606255 152.0
99.62767 104.0
99.645172 232.0
99.67955 180.0
99.698708 112.0
99.731972 124.0
99.783409 180.0
99.802589 184.0
99.820488 60.0
99.836395 176.0
99.872505 288.0
99.906342 100.0
99.913979 196.0
99.920868 200.0
99.951508 284.0
99.983635 136.0
100.002029 132.0
100.021454 136.0
100.035393 156.0
100.057251 196.0
100.073227 220.0
100.093971 192.0
100.117035 132.0
100.132973 104.0
100.159973 72.0
100.164444 40.0
100.18676 32.0
100.214653 124.0
100.230598 188.0
100.262016 68.0
100.273392 212.0
100.300217 56.0
100.323448 188.0
100.354195 136.0
100.3881 92.0
100.424004 32.0
100.445427 108.0
100.478729 120.0
100.493828 88.0
100.511093 148.0
100.537735 112.0
100.55703 184.0
100.579659 108.0
100.604424 100.0
100.668816 324.0
100.696457 112.0
100.719444 184.0
100.763405 128.0
100.779388 240.0
100.797028 256.0
100.821358 180.0
100.842651 180.0
100.852074 140.0
100.874977 228.0
100.897324 108.0
100.954819 96.0
100.978653 144.0
101.012444 136.0
101.045341 128.0
101.073357 44.0
101.09745 104.0
101.131058 140.0
101.177444 112.0
101.204727 160.0
101.22403 76.0
101.240608 52.0
101.255547 248.0
101.276154 84.0
101.311646 144.0
101.353859 180.0
101.377769 176.0
101.391136 96.0
101.423813 124.0
101.431122 104.0
101.459343 220.0
101.489166 184.0
101.523819 224.0
101.540443 188.0
101.556961 132.0
101.585815 240.0
101.591736 120.0
101.646942 160.0
101.67672 168.0
101.695801 84.0
101.715401 152.0
101.752174 228.0
101.815674 152.0
101.850822 224.0
101.854103 168.0
101.865051 120.0
101.86956 140.0
101.904716 160.0
101.931351 140.0
101.983673 272.0
102.00058 120.0
102.024063 280.0
102.057526 244.0
102.095322 188.0
102.11673 292.0
102.140671 112.0
102.147934 104.0
102.152275 168.0
102.177597 140.0
102.20089 196.0
102.259544 156.0
102.286476 180.0
102.308739 284.0
102.332886 140.0
102.350151 60.0
102.368141 152.0
102.386398 92.0
102.402405 148.0
102.448631 240.0
102.464539 168.0
102.49894 140.0
102.521393 80.0
102.539185 268.0
102.581123 152.0
102.584473 96.0
102.613907 108.0
102.639244 148.0
102.668579 104.0
102.686737 164.0
102.722702 200.0
102.764122 56.0
102.780365 196.0
102.812645 280.0
102.830162 240.0
102.848167 68.0
102.888435 148.0
102.908401 144.0
102.920006 284.0
102.953842 60.0
102.97084 200.0
102.991508 240.0
103.049316 108.0
103.070351 140.0
103.111389 116.0
103.127472 140.0
103.152588 108.0
103.173439 88.0
103.218895 176.0
103.238152 100.0
103.262421 324.0
103.285851 200.0
103.325142 184.0
103.343353 112.0
103.362038 136.0
103.396736 212.0
103.422081 116.0
103.46109 80.0
103.479866 100.0
103.514755 104.0
103.519096 140.0
103.537704 224.0
103.587273 128.0
103.612663 104.0
103.635925 176.0
103.671432 128.0
103.687141 144.0
103.709435 80.0
103.723305 180.0
103.76432 224.0
103.783615 56.0
103.804161 152.0
103.841888 176.0
103.867386 276.0
103.894501 248.0
103.916817 104.0
103.935478 288.0
103.951317 164.0
103.965996 128.0
103.988464 120.0
104.004669 196.0
104.019646 204.0
104.026993 172.0
104.060944 248.0
104.084526 208.0
104.108826 108.0
104.115631 116.0
104.119888 256.0
104.138115 192.0
104.162743 164.0
104.18679 96.0
104.217819 168.0
104.233612 160.0
104.255966 52.0
104.285378 68.0
104.307434 176.0
104.339317 200.0
104.35762 188.0
104.382759 88.0
104.416649 168.0
104.435905 284.0
104.470665 104.0
104.500015 100.0
104.52462 172.0
104.552925 60.0
104.588913 304.0
104.611961 132.0
104.630615 196.0
104.668678 332.0
104.724571 80.0
104.749924 324.0
104.753151 160.0
104.790504 144.0
104.817886 208.0
104.84684 80.0
104.875931 96.0
104.894257 100.0
104.927498 232.0
104.959038 96.0
104.973846 172.0
104.996162 232.0
105.017509 136.0
105.057289 80.0
105.094131 176.0
105.107285 72.0
105.114304 128.0
105.166412 136.0
105.173882 140.0
105.180359 152.0
105.187592 116.0
105.195686 168.0
105.224518 140.0
105.24604 132.0
105.266525 136.0
105.290627 112.0
105.318825 172.0
105.364388 172.0
105.393188 92.0
105.417427 96.0
105.432259 128.0
105.462677 128.0
105.491112 220.0
105.511093 100.0
105.516678 68.0
105.544891 188.0
105.563606 192.0
105.596519 180.0
105.638557 288.0
105.665154 144.0
105.698692 288.0
105.710976 184.0
105.728485 116.0
105.773628 100.0
105.811508 172.0
105.8255 120.0
105.831436 156.0
105.848244 64.0
105.889008 364.0
105.963013 252.0
106.004593 160.0
106.019402 212.0
106.02626 208.0
106.058388 44.0
106.074791 164.0
106.107285 184.0
106.137695 192.0
106.153412 292.0
106.174744 264.0
106.201935 232.0
106.2323 100.0
106.237419 136.0
106.276314 184.0
106.307693 148.0
106.333267 156.0
106.373398 124.0
106.389618 196.0
106.409683 180.0
106.429924 176.0
106.470123 128.0
106.507812 156.0
106.528358 88.0
106.551956 164.0
106.579865 200.0
106.595016 100.0
106.622887 92.0
106.667694 216.0
106.687363 132.0
106.713341 52.0
106.733383 220.0
106.753311 92.0
106.78466 136.0
106.842834 248.0
106.871742 88.0
106.889343 144.0
106.91626 48.0
106.929367 148.0
106.94323 76.0
106.958183 160.0
106.972595 72.0
107.015839 100.0
107.049919 228.0
107.085861 132.0
107.127869 256.0
107.171394 316.0
107.199928 276.0
107.237137 268.0
107.269798 140.0
107.29377 204.0
107.306557 156.0
107.327003 116.0
107.343132 256.0
107.395065 108.0
107.433372 96.0
107.442467 192.0
107.44986 136.0
107.467781 116.0
107.485336 160.0
107.498726 168.0
107.520508 108.0
107.545143 160.0
107.570938 140.0
107.61129 304.0
107.66111 176.0
107.690712 164.0
107.726807 168.0
107.755577 104.0
107.761154 64.0
107.767708 124.0
107.791504 104.0
107.831909 160.0
107.855583 68.0
107.894859 176.0
107.913811 196.0
107.932083 156.0
107.946564 160.0
107.972198 304.0
108.00708 140.0
108.030029 136.0
108.047752 144.0
108.055656 136.0
108.09404 112.0
108.115349 124.0
108.157669 160.0
108.190285 144.0
108.252121 144.0
108.302826 200.0
108.332634 204.0
108.351204 68.0
108.369392 144.0
108.393745 112.0
108.410889 264.0
108.439346 108.0
108.465683 124.0
108.492355 188.0
108.534126 196.0
108.557594 132.0
108.580345 56.0
108.616226 108.0
108.65168 124.0
108.666855 132.0
108.691002 144.0
108.708107 104.0
108.738045 168.0
108.762482 88.0
108.787651 304.0
108.845116 140.0
108.872238 152.0
108.905342 184.0
108.944183 136.0
108.963394 144.0
108.990807 188.0
109.012924 340.0
109.041183 200.0
109.0858 160.0
109.110367 184.0
109.146904 132.0
109.179443 168.0
109.198669 176.0
109.213905 88.0
109.229507 196.0
109.260582 92.0
109.277 184.0
109.29287 84.0
109.307831 280.0
109.334274 132.0
109.349159 144.0
109.368774 200.0
109.392075 124.0
109.415779 152.0
109.446159 128.0
109.484123 108.0
109.50145 148.0
109.50898 208.0
109.517235 208.0
109.523186 148.0
109.531837 144.0
109.53936 108.0
109.581696 332.0
109.6241 80.0
109.638687 172.0
109.723541 148.0
109.741829 144.0
109.773369 212.0
109.803413 48.0
109.822189 148.0
109.851227 456.0
109.870171 48.0
109.901321 240.0
109.925819 132.0
109.945297 96.0
109.966568 84.0
109.97718 128.0
110.004532 64.0
110.024071 132.0
110.049942 128.0
110.066101 172.0
110.072655 264.0
110.103683 84.0
110.118294 108.0
110.144936 132.0
110.181007 152.0
110.232727 168.0
110.254425 104.0
110.296051 140.0
110.336884 108.0
110.354637 288.0
110.370155 124.0
110.401199 180.0
110.434547 184.0
110.450279 284.0
110.466614 196.0
110.515739 180.0
110.544693 168.0
110.584045 328.0
110.612595 144.0
110.656364 348.0
110.693932 116.0
110.730263 116.0
110.759087 116.0
110.785217 136.0
110.837105 108.0
110.85511 104.0
110.883514 152.0
110.91452 120.0
110.954498 120.0
110.979965 144.0
111.021317 120.0
111.035423 168.0
111.069283 172.0
111.085114 360.0
111.120499 116.0
111.142426 176.0
111.159218 60.0
111.19574 148.0
111.233772 224.0
111.238838 116.0
111.247421 216.0
111.278122 112.0
111.303352 220.0
111.328835 172.0
111.349129 240.0
111.425682 108.0
111.451775 196.0
111.467438 188.0
111.480751 168.0
111.517555 136.0
111.546852 220.0
111.59407 180.0
111.634766 240.0
111.668373 232.0
111.694252 108.0
111.719963 196.0
111.782471 108.0
111.797585 156.0
111.836029 112.0
111.873672 200.0
111.892876 136.0
111.907616 200.0
111.928673 80.0
111.956047 92.0
111.973213 116.0
111.997185 196.0
112.012924 192.0
112.035706 172.0
112.05085 268.0
112.127914 168.0
112.15834 152.0
112.194298 240.0
112.221451 120.0
112.235779 180.0
112.253227 160.0
112.270958 88.0
112.32148 200.0
112.381912 104.0
112.406059 172.0
112.422005 92.0
112.454498 112.0
112.462166 156.0
112.486351 332.0
112.540733 168.0
112.579613 88.0
112.595146 180.0
112.614151 124.0
112.633385 116.0
112.661705 220.0
112.711342 180.0
112.733139 192.0
112.764183 108.0
112.797218 60.0
112.821609 84.0
112.843498 188.0
112.885201 188.0
112.917603 260.0
112.930367 156.0
112.958611 196.0
112.992592 232.0
113.009521 88.0
113.026451 156.0
113.056877 112.0
113.078812 108.0
113.108574 180.0
113.147156 180.0
113.168282 388.0
113.196327 204.0
113.224869 204.0
113.246483 156.0
113.28054 148.0
113.297493 156.0
113.314445 264.0
113.330086 348.0
113.363182 184.0
113.3871 240.0
113.408875 144.0
113.434082 108.0
113.488441 188.0
113.511589 104.0
113.543861 204.0
113.575661 196.0
113.612129 232.0
113.625153 120.0
113.657158 156.0
113.710846 136.0
113.748962 148.0
113.772041 144.0
113.802467 124.0
113.825829 180.0
113.880913 112.0
113.895782 160.0
113.919937 140.0
113.939957 116.0
113.962952 108.0
113.988083 100.0
114.015297 132.0
114.039375 436.0
114.08992 196.0
114.096077 148.0
114.104515 220.0
114.13549 288.0
114.162354 156.0
114.205673 184.0
114.263802 124.0
114.293388 152.0
114.314285 100.0
114.384918 116.0
114.410645 140.0
114.430115 52.0
114.447395 116.0
114.489967 72.0
114.548164 196.0
114.589386 188.0
114.609787 192.0
114.655273 144.0
114.672226 196.0
114.70816 132.0
114.763527 52.0
114.796173 76.0
114.814301 96.0
114.838081 160.0
114.873611 144.0
114.893089 276.0
114.911369 152.0
114.929588 156.0
114.95623 172.0
114.983932 268.0
114.998871 60.0
115.014847 68.0
115.032021 228.0
115.052704 144.0
115.086411 84.0
115.105629 116.0
115.125671 124.0
115.148109 180.0
115.16835 132.0
115.188187 148.0
115.193832 96.0
115.212387 332.0
115.242508 212.0
115.276543 80.0
115.294327 124.0
115.316116 264.0
115.340065 128.0
115.375587 124.0
115.411491 160.0
115.451401 192.0
115.468719 68.0
115.492752 168.0
115.528297 192.0
115.53624 140.0
115.569527 100.0
115.628426 104.0
115.657196 160.0
115.683167 220.0
115.700981 156.0
115.775253 196.0
115.804138 152.0
115.857147 144.0
115.884644 136.0
115.917259 300.0
115.951927 272.0
115.985046 116.0
116.013496 148.0
116.036507 152.0
116.055161 172.0
116.073555 152.0
116.079933 128.0
116.150993 136.0
116.188271 172.0
116.224121 236.0
116.263908 44.0
116.287987 128.0
116.343338 188.0
116.367363 160.0
116.388969 148.0
116.400818 52.0
116.406937 136.0
116.424942 92.0
116.446419 116.0
116.472198 136.0
116.505287 300.0
116.563248 104.0
116.63356 140.0
116.654648 216.0
116.678528 156.0
116.703659 116.0
116.732285 80.0
116.749489 108.0
116.777451 172.0
116.806404 124.0
116.824142 148.0
116.851768 132.0
116.867821 108.0
116.91301 124.0
116.933426 148.0
117.0047 132.0
117.021973 152.0
117.040031 196.0
117.077888 188.0
117.100342 80.0
117.143425 60.0
117.159813 152.0
117.218025 84.0
117.233566 144.0
117.261589 48.0
117.282127 100.0
117.311531 192.0
117.333092 132.0
117.348999 128.0
117.371231 204.0
117.393478 236.0
117.412888 112.0
117.446205 288.0
117.455826 128.0
117.461502 276.0
117.498375 128.0
117.5186 36.0
117.571068 284.0
117.586372 120.0
117.591919 136.0
117.617325 168.0
117.648163 180.0
117.679016 128.0
117.701118 124.0
117.720383 228.0
117.737579 112.0
117.755966 144.0
117.779968 300.0
117.810493 156.0
117.828705 408.0
117.853142 100.0
117.858955 92.0
117.880249 184.0
117.896225 164.0
117.939774 232.0
117.962936 84.0
117.979103 148.0
117.995987 196.0
118.032333 168.0
118.061562 176.0
118.08033 48.0
118.131256 200.0
118.174782 164.0
118.180229 228.0
118.205818 124.0
118.223129 96.0
118.265549 148.0
118.288818 232.0
118.322716 108.0
118.341042 204.0
118.361267 204.0
118.389847 60.0
118.419464 184.0
118.4375 232.0
118.455635 244.0
118.491341 132.0
118.499947 112.0
118.550179 88.0
118.569687 148.0
118.594795 192.0
118.603592 112.0
118.611443 152.0
118.636887 136.0
118.658012 172.0
118.789619 124.0
118.81691 200.0
118.887901 304.0
118.927597 72.0
118.965187 236.0
118.984543 156.0
119.007935 276.0
119.027435 452.0
119.057884 44.0
119.075256 216.0
119.105003 208.0
119.113815 164.0
119.119431 284.0
119.13826 64.0
119.164413 156.0
119.207794 108.0
119.230385 184.0
119.248383 116.0
119.28437 160.0
119.318665 100.0
119.35128 180.0
119.374893 140.0
119.396637 352.0
119.491119 84.0
119.524849 224.0
119.528893 112.0
119.566673 152.0
119.589409 140.0
119.60585 136.0
119.626724 116.0
119.642868 160.0
119.661591 160.0
119.711319 92.0
119.751579 100.0
119.772575 208.0
119.799171 68.0
119.84304 116.0
119.905411 124.0
119.911636 140.0
119.933853 208.0
119.968437 340.0
119.995659 180.0
120.001862 164.0
120.029488 124.0
120.059708 184.0
120.111259 132.0
120.114227 116.0
120.12767 180.0
120.203796 224.0
120.238014 68.0
120.293777 220.0
120.317398 132.0
120.332764 80.0
120.339783 104.0
120.388184 236.0
120.42202 192.0
120.436722 132.0
120.469231 232.0
120.475075 76.0
120.492912 184.0
120.537033 112.0
120.576576 260.0
120.596245 144.0
120.618111 92.0
120.646042 100.0
120.681419 136.0
120.73838 252.0
120.760513 232.0
120.792244 192.0
120.807289 136.0
120.852715 368.0
120.906853 376.0
120.945007 112.0
120.991577 160.0
121.022888 116.0
121.077644 96.0
121.099548 160.0
121.131996 172.0
121.160889 80.0
121.187119 128.0
121.194016 120.0
121.212669 108.0
121.228233 312.0
121.260765 80.0
121.290199 156.0
121.318703 64.0
121.342484 104.0
121.351044 104.0
121.355919 152.0
121.364578 156.0
121.394089 156.0
121.410774 204.0
121.443382 108.0
121.472221 112.0
121.525253 460.0
121.596794 160.0
121.634163 228.0
121.648636 168.0
121.682297 116.0
121.711479 144.0
121.804695 132.0
121.80909 100.0
121.820435 172.0
121.828995 160.0
121.832939 136.0
121.898109 164.0
121.937927 108.0
121.975151 144.0
122.017471 280.0
122.047707 76.0
122.089706 152.0
122.11055 140.0
122.140663 248.0
122.157684 108.0
122.175285 148.0
122.191551 292.0
122.20562 112.0
122.210236 68.0
122.241081 200.0
122.271667 156.0
122.301704 172.0
122.337364 84.0
122.356941 204.0
122.379768 140.0
122.419952 112.0
122.453087 128.0
122.462776 144.0
122.473282 68.0
122.479691 168.0
122.489731 112.0
122.500305 148.0
122.505058 72.0
122.518799 136.0
122.558434 124.0
122.580467 100.0
122.601364 200.0
122.643242 276.0
122.675255 228.0
122.693993 264.0
122.730606 272.0
122.781784 236.0
122.79911 148.0
122.81842 292.0
122.835228 164.0
122.885086 180.0
122.937294 116.0
122.94323 100.0
122.949654 164.0
122.980789 140.0
123.059761 212.0
123.093521 364.0
123.109978 188.0
123.127647 128.0
123.166832 400.0
123.219299 180.0
123.24543 256.0
123.28894 156.0
123.306625 140.0
123.399475 248.0
123.414124 192.0
123.420044 120.0
123.485138 180.0
123.512276 228.0
123.560951 108.0
123.626091 128.0
123.645615 172.0
123.655914 44.0
123.664391 168.0
123.680466 76.0
123.704819 156.0
123.729172 64.0
123.755043 152.0
123.784531 124.0
123.808899 132.0
123.828529 88.0
123.844337 180.0
123.868706 168.0
123.888031 232.0
123.908585 112.0
123.938164 172.0
123.979095 144.0
124.008316 136.0
124.026512 172.0
124.066353 164.0
124.083694 120.0
124.116959 156.0
124.146606 160.0
124.175011 164.0
124.218132 368.0
124.237114 212.0
124.28376 148.0
124.298378 108.0
124.316528 88.0
124.342896 168.0
124.381927 172.0
124.38797 200.0
124.417572 76.0
124.447929 92.0
124.480354 152.0
124.501343 132.0
124.523064 176.0
124.573631 332.0
124.651993 32.0
124.673141 136.0
124.708321 140.0
124.729317 132.0
124.754242 224.0
124.772034 152.0
124.791733 116.0
124.815613 80.0
124.842636 96.0
124.878548 152.0
124.906082 88.0
124.937599 164.0
124.987289 244.0
125.027863 52.0
125.048927 112.0
125.082359 200.0
125.122749 180.0
125.137672 100.0
125.15477 52.0
125.179802 128.0
125.218422 124.0
125.239792 160.0
125.278679 172.0
125.301178 292.0
125.328529 88.0
125.350815 136.0
125.386909 184.0
125.42128 232.0
125.477585 132.0
125.508377 196.0
125.546776 116.0
125.565857 116.0
125.589462 132.0
125.619324 156.0
125.652664 224.0
125.668594 112.0
125.690193 68.0
125.725502 124.0
125.761726 204.0
125.786476 160.0
125.815727 280.0
125.84623 108.0
125.87291 108.0
125.894547 184.0
125.934845 144.0
125.956192 156.0
125.98008 104.0
126.008942 156.0
126.033348 232.0
126.059082 140.0
126.086082 120.0
126.110176 112.0
126.159897 252.0
126.191322 112.0
126.22509 348.0
126.252388 172.0
126.270699 200.0
126.302017 48.0
126.335075 156.0
126.3685 112.0
126.390823 168.0
126.409149 96.0
126.432884 124.0
126.466942 168.0
126.489883 140.0
126.525826 128.0
126.561226 208.0
126.577332 176.0
126.597488 80.0
126.618134 112.0
126.635353 256.0
126.667397 76.0
126.690353 332.0
126.722939 164.0
126.774963 188.0
126.832687 224.0
126.859451 164.0
126.899086 124.0
126.937363 172.0
126.978592 132.0
127.015854 136.0
127.041336 116.0
127.063774 104.0
127.094818 180.0
127.128983 72.0
127.169067 140.0
127.190697 156.0
127.206734 104.0
127.255219 264.0
127.280365 140.0
127.314713 72.0
127.327705 128.0
127.348213 156.0
127.382599 152.0
127.43354 140.0
127.466789 152.0
127.494255 128.0
127.530006 196.0
127.553482 116.0
127.588089 324.0
127.623741 184.0
127.646667 96.0
127.685638 176.0
127.689034 228.0
127.714813 100.0
127.74353 292.0
127.765793 92.0
127.779625 220.0
127.796013 236.0
127.804192 120.0
127.813995 284.0
127.854828 216.0
127.881844 120.0
127.886925 108.0
127.895576 160.0
127.935875 344.0
127.980911 84.0
128.003983 148.0
128.057266 84.0
128.067627 144.0
128.1138 116.0
128.140274 172.0
128.163055 112.0
128.195541 88.0
128.218811 120.0
128.235275 128.0
128.2603 148.0
128.278336 172.0
128.324081 260.0
128.370346 288.0
128.411301 144.0
128.440704 140.0
128.470047 228.0
128.511215 32.0
128.525909 184.0
128.556381 108.0
128.58429 140.0
128.63028 76.0
128.64682 244.0
128.670486 132.0
128.728363 220.0
128.743744 176.0
128.773682 136.0
128.810043 112.0
128.849625 132.0
128.876343 128.0
128.897461 168.0
128.94371 96.0
128.958817 144.0
129.002014 460.0
129.023148 104.0
129.070892 88.0
129.102554 188.0
129.119904 124.0
129.143265 104.0
129.163193 180.0
129.177872 180.0
129.209686 112.0
129.228409 316.0
129.267929 88.0
129.314636 132.0
129.329788 212.0
129.33638 120.0
129.34523 132.0
129.355164 152.0
129.375153 300.0
129.40097 88.0
129.42659 220.0
129.459702 156.0
129.484253 120.0
129.512253 248.0
129.539261 48.0
129.580139 220.0
129.614227 80.0
129.652756 116.0
129.675674 72.0
129.685532 164.0
129.693451 96.0
129.727951 108.0
129.785965 216.0
129.801865 160.0
129.830811 120.0
129.872253 144.0
129.897781 72.0
129.930923 292.0
129.960052 144.0
129.987213 204.0
130.020187 92.0
130.055939 332.0
130.086029 120.0
130.105118 220.0
130.133072 128.0
130.159348 124.0
130.197678 168.0
130.207382 164.0
130.251816 200.0
130.269989 92.0
130.301804 164.0
130.347244 208.0
130.367706 104.0
130.403046 116.0
130.429214 124.0
130.461487 124.0
130.489639 132.0
130.509277 176.0
130.543533 112.0
130.560349 168.0
130.576111 140.0
130.608459 220.0
130.653137 304.0
130.694092 232.0
130.758652 168.0
130.794342 300.0
130.831924 304.0
130.865494 376.0
130.899033 328.0
130.941086 156.0
130.97525 144.0
130.991196 168.0
131.016068 92.0
131.036957 100.0
131.060394 316.0
131.077789 348.0
131.092453 108.0
131.110229 424.0
131.148819 96.0
131.1754 160.0
131.21228 48.0
131.239639 112.0
131.262146 148.0
131.296127 120.0
131.32074 108.0
131.339966 228.0
131.384369 288.0
131.412888 152.0
131.441223 144.0
131.465714 252.0
131.470566 128.0
131.489746 168.0
131.517303 104.0
131.5522 252.0
131.58017 156.0
131.603455 120.0
131.645218 296.0
131.675003 172.0
131.707184 204.0
131.723389 60.0
131.730606 128.0
131.762665 168.0
131.789795 164.0
131.81897 152.0
131.826675 116.0
131.836594 168.0
131.84285 132.0
131.894943 124.0
131.926315 148.0
131.951096 256.0
131.99675 252.0
132.030624 176.0
132.070145 124.0
132.078857 76.0
132.09848 136.0
132.116776 36.0
132.136185 248.0
132.161819 212.0
132.190811 180.0
132.229034 180.0
132.265671 292.0
132.321411 60.0
132.362717 128.0
132.382324 148.0
132.417236 200.0
132.447021 280.0
132.469376 100.0
132.50145 64.0
132.527878 92.0
132.586243 116.0
132.613541 176.0
132.648514 168.0
132.680573 216.0
132.691513 208.0
132.699463 72.0
132.734314 140.0
132.790726 136.0
132.871719 132.0
132.905853 504.0
132.935669 92.0
132.964706 164.0
132.981766 124.0
133.013947 400.0
133.04744 224.0
133.070312 156.0
133.087784 144.0
133.125214 136.0
133.158447 96.0
133.200729 112.0
133.251282 132.0
133.282028 148.0
133.327545 184.0
133.370972 176.0
133.423599 144.0
133.448349 280.0
133.500061 228.0
133.533829 252.0
133.55307 88.0
133.590805 288.0
133.610825 216.0
133.634949 220.0
133.677383 108.0
133.707138 112.0
133.744385 240.0
133.783997 236.0
133.842361 136.0
133.875946 152.0
133.912064 128.0
133.972183 100.0
133.996155 160.0
134.041092 128.0
134.068756 64.0
134.098709 108.0
134.12088 84.0
134.139709 132.0
134.16507 128.0
134.185165 208.0
134.201309 104.0
134.220917 160.0
134.269943 204.0
134.310822 180.0
134.350586 352.0
134.369553 120.0
134.430389 220.0
134.47673 156.0
134.499161 128.0
134.543976 124.0
134.578827 332.0
134.60498 152.0
134.649734 160.0
134.673309 188.0
134.690842 156.0
134.73439 244.0
134.759415 252.0
134.796799 160.0
134.825546 180.0
134.864166 208.0
134.867828 228.0
134.907394 388.0
134.953079 164.0
134.975586 224.0
135.020218 96.0
135.05632 256.0
135.075546 204.0
135.108322 96.0
135.133392 84.0
135.157196 112.0
135.192413 272.0
135.252426 148.0
135.277084 184.0
135.299042 68.0
135.335388 108.0
135.352798 196.0
135.388138 152.0
135.407745 92.0
135.426193 280.0
135.451019 132.0
135.508942 108.0
135.535065 200.0
135.570236 108.0
135.588089 144.0
135.615707 144.0
135.633682 176.0
135.649902 96.0
135.670532 300.0
135.70787 252.0
135.739441 144.0
135.756393 92.0
135.76268 252.0
135.786728 192.0
135.804626 184.0
135.836533 128.0
135.881744 88.0
135.898026 140.0
135.932892 148.0
135.972351 168.0
135.98848 108.0
136.020142 192.0
136.048965 228.0
136.071564 60.0
136.076385 104.0
136.086639 160.0
136.095673 140.0
136.104065 176.0
136.127625 124.0
136.170792 156.0
136.198074 196.0
136.220764 248.0
136.239426 112.0
136.294968 172.0
136.32164 488.0
136.340836 148.0
136.358932 172.0
136.373001 252.0
136.409515 240.0
136.450684 84.0
136.4785 56.0
136.522491 176.0
136.551773 112.0
136.576523 84.0
136.618942 228.0
136.648651 176.0
136.667267 164.0
136.689148 80.0
136.738556 100.0
136.789642 152.0
136.849701 264.0
136.896667 172.0
136.903137 252.0
136.933426 164.0
136.969955 96.0
136.989441 132.0
137.026871 116.0
137.065491 100.0
137.098114 176.0
137.138412 152.0
137.158524 96.0
137.189194 352.0
137.214584 204.0
137.258408 184.0
137.303421 216.0
137.343323 100.0
137.366776 264.0
137.389618 48.0
137.408279 116.0
137.429276 100.0
137.444275 76.0
137.493301 140.0
137.529648 216.0
137.572556 180.0
137.592407 104.0
137.613693 144.0
137.675064 116.0
137.702606 212.0
137.718201 156.0
137.747742 152.0
137.766754 160.0
137.789139 112.0
137.823944 88.0
137.843979 168.0
137.88205 88.0
137.899063 220.0
137.934723 100.0
137.977081 164.0
138.016144 144.0
138.040634 208.0
138.082428 136.0
138.128998 180.0
138.195755 124.0
138.227829 296.0
138.255951 156.0
138.286285 176.0
138.305756 48.0
138.348938 136.0
138.3918 204.0
138.398926 152.0
138.406601 172.0
138.415863 164.0
138.425766 128.0
138.44397 292.0
138.467636 220.0
138.502106 156.0
138.518997 236.0
138.56665 184.0
138.614944 64.0
138.633026 152.0
138.682312 204.0
138.711044 112.0
138.729797 180.0
138.755478 252.0
138.769669 276.0
138.795456 124.0
138.821655 72.0
138.85878 116.0
138.915726 308.0
138.940384 260.0
138.962021 56.0
138.99379 164.0
139.023453 88.0
139.05896 216.0
139.086411 100.0
139.121628 80.0
139.143188 108.0
139.236267 264.0
139.259537 220.0
139.286026 72.0
139.312439 164.0
139.336624 184.0
139.361206 124.0
139.385208 172.0
139.419968 60.0
139.436981 168.0
139.454437 216.0
139.482376 156.0
139.502243 288.0
139.536026 280.0
139.55632 212.0
139.608063 148.0
139.626801 112.0
139.634109 108.0
139.64209 120.0
139.649765 164.0
139.679855 184.0
139.697113 276.0
139.726562 156.0
139.742157 128.0
139.763336 152.0
139.79158 156.0
139.815109 212.0
139.898041 152.0
139.971283 168.0
139.981369 72.0
139.990829 144.0
140.014587 124.0
140.037964 288.0
140.058212 236.0
140.096252 156.0
140.150681 140.0
140.175461 116.0
140.191971 104.0
140.23735 212.0
140.268509 152.0
140.28949 128.0
140.317123 172.0
140.333237 160.0
140.386826 356.0
140.43541 256.0
140.484146 128.0
140.491776 116.0
140.500031 44.0
140.529205 300.0
140.550446 148.0
140.565674 120.0
140.588425 168.0
140.614166 60.0
140.651794 172.0
140.688965 204.0
140.709213 124.0
140.719162 84.0
140.73349 52.0
140.739899 140.0
140.759125 152.0
140.779388 172.0
140.806442 268.0
140.826981 164.0
140.853516 144.0
140.877319 148.0
140.899918 168.0
140.952423 68.0
140.967102 128.0
141.004471 68.0
141.00946 92.0
141.019699 100.0
141.033798 268.0
141.051086 196.0
141.059402 104.0
141.088104 168.0
141.115082 148.0
141.150589 272.0
141.178879 100.0
141.221451 228.0
141.250534 348.0
141.265411 256.0
141.284851 176.0
141.293091 172.0
141.306061 152.0
141.311768 108.0
141.333496 168.0
141.378876 200.0
141.420227 200.0
141.481781 156.0
141.517303 144.0
141.552719 304.0
141.575714 168.0
141.590851 312.0
141.612045 176.0
141.647888 368.0
141.665726 176.0
141.706879 128.0
141.730499 136.0
141.76268 148.0
141.78923 232.0
141.824188 128.0
141.865707 176.0
141.902588 168.0
141.926941 204.0
141.972397 216.0
141.991302 76.0
142.029984 128.0
142.052917 84.0
142.072266 152.0
142.098053 204.0
142.11467 112.0
142.159332 288.0
142.215057 224.0
142.249557 92.0
142.280579 104.0
142.33197 208.0
142.365051 164.0
142.407013 300.0
142.448914 180.0
142.459396 152.0
142.498703 116.0
142.517303 80.0
142.549255 84.0
142.574371 192.0
142.596802 108.0
142.613434 96.0
142.637207 92.0
142.663589 292.0
142.697861 372.0
142.726242 136.0
142.744217 92.0
142.769272 204.0
142.785248 112.0
142.803131 140.0
142.811951 108.0
142.820572 80.0
142.861832 152.0
142.900864 124.0
142.968445 144.0
142.986893 384.0
143.006607 176.0
143.039917 160.0
143.069504 108.0
143.086884 76.0
143.121094 120.0
143.138168 116.0
143.163086 324.0
143.193756 216.0
143.198822 140.0
143.224365 296.0
143.246262 188.0
143.282211 88.0
143.344162 56.0
143.361496 148.0
143.38707 228.0
143.413239 180.0
143.456619 180.0
143.48111 188.0
143.516449 148.0
143.554626 100.0
143.587463 96.0
143.610352 144.0
143.666229 252.0
143.703461 96.0
143.744827 144.0
143.774567 228.0
143.799728 136.0
143.832336 144.0
143.838455 108.0
143.883438 128.0
143.891815 120.0
143.897995 224.0
143.969986 184.0
143.985016 140.0
144.034454 216.0
144.072403 68.0
144.131104 172.0
144.182144 204.0
144.201416 164.0
144.222534 144.0
144.253616 92.0
144.283447 124.0
144.326767 224.0
144.348846 136.0
144.368195 124.0
144.456909 152.0
144.482712 112.0
144.519119 96.0
144.541885 140.0
144.574158 132.0
144.595703 68.0
144.612457 84.0
144.642487 272.0
144.667526 76.0
144.694092 244.0
144.722595 124.0
144.762573 140.0
144.771591 140.0
144.813065 324.0
144.866776 124.0
144.920731 196.0
144.974899 212.0
144.997604 76.0
145.046051 104.0
145.070923 120.0
145.121948 104.0
145.142715 176.0
145.166229 68.0
145.215561 140.0
145.265533 204.0
145.292236 212.0
145.328308 184.0
145.365082 136.0
145.383194 132.0
145.415482 112.0
145.454712 164.0
145.477905 136.0
145.495316 144.0
145.518097 112.0
145.557144 68.0
145.589966 192.0
145.612808 228.0
145.656799 116.0
145.67485 164.0
145.710327 256.0
145.751526 308.0
145.754974 104.0
145.810959 256.0
145.84082 308.0
145.867752 164.0
145.895966 120.0
145.934113 304.0
145.970505 124.0
146.00177 180.0
146.03891 164.0
146.049362 168.0
146.058167 72.0
146.068832 184.0
146.084885 124.0
146.118652 172.0
146.146118 104.0
146.174316 128.0
146.213516 92.0
146.235184 56.0
146.261017 196.0
146.29306 92.0
146.331253 216.0
146.368942 100.0
146.414322 308.0
146.451904 164.0
146.487549 140.0
146.521774 152.0
146.545532 148.0
146.561661 288.0
146.611008 148.0
146.63504 140.0
146.658493 132.0
146.699982 68.0
146.750412 184.0
146.784409 92.0
146.81105 132.0
146.827286 88.0
146.874756 116.0
146.895477 120.0
146.944962 212.0
146.961746 216.0
147.019653 232.0
147.085236 140.0
147.115067 124.0
147.147507 192.0
147.201904 148.0
147.24884 268.0
147.275879 104.0
147.301071 164.0
147.322754 160.0
147.356644 100.0
147.39888 308.0
147.419479 116.0
147.451614 96.0
147.51207 148.0
147.535507 176.0
147.557281 176.0
147.609924 104.0
147.640991 156.0
147.648468 96.0
147.672485 304.0
147.70697 184.0
147.735001 84.0
147.753204 164.0
147.768967 148.0
147.785706 92.0
147.814911 240.0
147.858185 196.0
147.878662 124.0
147.901642 132.0
147.930435 132.0
147.974594 172.0
148.042419 204.0
148.087097 148.0
148.121216 68.0
148.150009 108.0
148.175385 224.0
148.202362 104.0
148.224091 96.0
148.243805 184.0
148.290421 92.0
148.309235 144.0
148.344223 248.0
148.364883 156.0
148.39595 124.0
148.43309 144.0
148.457474 188.0
148.487259 124.0
148.536331 212.0
148.572159 120.0
148.591583 128.0
148.646973 140.0
148.665771 168.0
148.685059 192.0
148.70517 248.0
148.732269 132.0
148.769867 264.0
148.801361 164.0
148.831818 204.0
148.856186 76.0
148.873184 56.0
148.902328 100.0
148.941193 96.0
148.978043 296.0
149.01944 116.0
149.030914 108.0
149.047638 124.0
149.089417 268.0
149.11731 68.0
149.123444 156.0
149.13446 68.0
149.139801 124.0
149.17157 116.0
149.195419 100.0
149.219391 164.0
149.263199 176.0
149.288788 228.0
149.342987 116.0
149.384293 168.0
149.416626 208.0
149.45871 100.0
149.482864 156.0
149.529175 312.0
149.592484 240.0
149.61351 248.0
149.641663 108.0
149.662796 172.0
149.691132 196.0
149.74231 136.0
149.787109 224.0
149.811096 172.0
149.842834 116.0
149.882507 240.0
149.909164 224.0
149.930389 164.0
149.950394 72.0
149.975449 156.0
149.994949 56.0
150.026642 136.0
150.070114 92.0
150.095856 176.0
150.129074 72.0
150.153458 36.0
150.172974 116.0
150.195251 140.0
150.205597 96.0
150.240433 208.0
150.268127 108.0
150.291245 220.0
150.315536 188.0
150.384262 212.0
150.412201 132.0
150.434097 148.0
150.487808 188.0
150.506927 116.0
150.524445 232.0
150.547485 84.0
150.57402 40.0
150.606705 212.0
150.645737 172.0
150.667389 216.0
150.712555 132.0
150.738953 84.0
150.761398 208.0
150.775528 136.0
150.875214 132.0
150.891937 84.0
150.929016 280.0
150.982025 144.0
151.009857 120.0
151.051117 180.0
151.095245 120.0
151.101791 156.0
151.14241 180.0
151.166214 104.0
151.19278 156.0
151.216385 124.0
151.233521 152.0
151.251953 188.0
151.292282 92.0
151.310959 140.0
151.345001 316.0
151.369415 112.0
151.418564 240.0
151.433502 72.0
151.451416 204.0
151.478226 160.0
151.517624 172.0
151.544327 164.0
151.578186 100.0
151.614151 132.0
151.639481 144.0
151.648224 124.0
151.668243 168.0
151.728409 132.0
151.754944 132.0
151.772018 112.0
151.818375 204.0
151.851898 160.0
151.863388 100.0
151.881531 360.0
151.91391 152.0
151.930771 72.0
151.950577 208.0
152.007568 140.0
152.033905 120.0
152.060074 144.0
152.079239 88.0
152.117249 100.0
152.15535 160.0
152.173965 240.0
152.233231 152.0
152.250931 48.0
152.257568 128.0
152.290436 216.0
152.314682 160.0
152.396271 236.0
152.406006 136.0
152.426636 316.0
152.448532 128.0
152.497253 180.0
152.534729 160.0
152.554459 128.0
152.575653 144.0
152.600098 124.0
152.619736 220.0
152.640564 164.0
152.668823 220.0
152.680115 112.0
152.718781 96.0
152.748383 112.0
152.783646 400.0
152.832397 204.0
152.85907 164.0
152.888336 196.0
152.937088 124.0
152.964737 160.0
152.988403 124.0
153.007874 56.0
153.040939 124.0
153.070129 64.0
153.090927 272.0
153.171799 180.0
153.199768 64.0
153.227692 100.0
153.252426 200.0
153.280731 140.0
153.311584 120.0
153.339508 96.0
153.363876 296.0
153.390457 180.0
153.437302 124.0
153.473434 180.0
153.496094 104.0
153.523254 272.0
153.582825 52.0
153.612427 76.0
153.66449 120.0
153.688843 264.0
153.704926 180.0
153.741089 216.0
153.767181 112.0
153.771469 80.0
153.794067 132.0
153.829605 228.0
153.850601 100.0
153.912628 164.0
153.954651 188.0
153.968887 200.0
153.995071 140.0
154.024704 120.0
154.079071 152.0
154.108719 192.0
154.136505 196.0
154.193939 212.0
154.213409 168.0
154.248001 172.0
154.294296 148.0
154.320816 144.0
154.366806 300.0
154.423264 108.0
154.46962 116.0
154.484726 120.0
154.501877 256.0
154.523422 200.0
154.545044 116.0
154.564194 180.0
154.618362 220.0
154.645096 136.0
154.67038 48.0
154.692322 216.0
154.712799 132.0
154.740875 216.0
154.800735 148.0
154.810974 232.0
154.835434 76.0
154.864349 152.0
154.895508 216.0
154.911179 168.0
154.953323 136.0
154.982635 104.0
155.014481 56.0
155.035538 172.0
155.065109 172.0
155.109894 428.0
155.138885 248.0
155.171478 84.0
155.220322 244.0
155.248566 92.0
155.274277 112.0
155.308456 228.0
155.363876 176.0
155.413742 96.0
155.467926 164.0
155.486679 156.0
155.515427 132.0
155.550262 248.0
155.575836 224.0
155.608551 120.0
155.642136 112.0
155.659515 196.0
155.705276 136.0
155.746368 216.0
155.791168 200.0
155.814102 156.0
155.85257 136.0
155.870682 100.0
155.893051 60.0
155.910461 52.0
155.969345 156.0
155.999939 44.0
156.019211 108.0
156.029114 60.0
156.048767 260.0
156.073517 312.0
156.090347 240.0
156.108994 164.0
156.135406 180.0
156.158493 412.0
156.225159 124.0
156.256638 300.0
156.276749 164.0
156.310745 156.0
156.342148 148.0
156.375671 268.0
156.400482 140.0
156.430206 196.0
156.472687 80.0
156.508835 56.0
156.557739 128.0
156.5755 112.0
156.629333 152.0
156.664108 204.0
156.689209 112.0
156.694519 156.0
156.719299 164.0
156.754547 332.0
156.785599 192.0
156.792816 216.0
156.823975 136.0
156.914307 212.0
156.937622 72.0
156.968079 156.0
156.9888 256.0
157.050903 152.0
157.078339 136.0
157.1008 60.0
157.145081 96.0
157.151169 168.0
157.160065 224.0
157.207306 88.0
157.232086 124.0
157.265106 148.0
157.299805 260.0
157.327927 392.0
157.3479 156.0
157.375366 132.0
157.396698 120.0
157.420746 96.0
157.432281 96.0
157.440598 144.0
157.495255 164.0
157.535568 264.0
157.555481 408.0
157.605087 148.0
157.621017 144.0
157.660172 92.0
157.687485 216.0
157.711899 104.0
157.718918 72.0
157.728882 140.0
157.799728 156.0
157.831116 180.0
157.849792 152.0
157.881042 180.0
157.919281 96.0
157.945236 52.0
157.984619 108.0
158.031815 324.0
158.069946 128.0
158.09819 156.0
158.120407 140.0
158.147781 296.0
158.178253 356.0
158.243073 128.0
158.2724 280.0
158.278214 188.0
158.286957 144.0
158.313751 348.0
158.335739 164.0
158.368713 96.0
158.418213 160.0
158.444046 236.0
158.4664 188.0
158.488663 224.0
158.508575 284.0
158.53067 100.0
158.53685 136.0
158.556595 168.0
158.597458 260.0
158.628937 68.0
158.64975 236.0
158.694382 236.0
158.746567 144.0
158.755341 156.0
158.795929 156.0
158.815491 212.0
158.869003 184.0
158.902802 188.0
158.945816 176.0
158.969315 92.0
158.997696 196.0
159.015854 104.0
159.055344 156.0
159.079697 168.0
159.133865 100.0
159.165909 100.0
159.198547 92.0
159.238739 80.0
159.258835 48.0
159.288193 128.0
159.316849 256.0
159.363617 68.0
159.394516 132.0
159.418839 160.0
159.452591 116.0
159.484009 176.0
159.505112 92.0
159.530136 160.0
159.57048 252.0
159.598145 104.0
159.620773 192.0
159.650146 236.0
159.689941 104.0
159.718521 136.0
159.738861 144.0
159.742416 144.0
159.753586 256.0
159.807114 124.0
159.836731 276.0
159.871002 288.0
159.921265 216.0
159.940384 244.0
159.978104 152.0
160.026138 112.0
160.074875 168.0
160.11409 96.0
160.138199 272.0
160.16684 132.0
160.217819 140.0
160.245987 136.0
160.263489 132.0
160.314545 152.0
160.334915 180.0
160.360611 148.0
160.388748 180.0
160.416733 208.0
160.485153 340.0
160.514175 124.0
160.571274 168.0
160.635895 112.0
160.658615 256.0
160.699097 168.0
160.707565 168.0
160.744034 240.0
160.787445 92.0
160.821625 304.0
160.8479 124.0
160.898392 48.0
160.933044 328.0
160.965881 116.0
160.996582 136.0
161.040497 256.0
161.063858 116.0
161.085419 176.0
161.127426 164.0
161.178787 100.0
161.19545 76.0
161.219223 124.0
161.245285 220.0
161.269073 220.0
161.279297 52.0
161.283005 148.0
161.310226 72.0
161.346649 168.0
161.393661 244.0
161.432449 120.0
161.459427 48.0
161.488708 204.0
161.518356 120.0
161.57579 220.0
161.614807 156.0
161.634003 200.0
161.691544 200.0
161.716217 124.0
161.741302 112.0
161.764587 268.0
161.798538 208.0
161.818787 168.0
161.841583 64.0
161.856522 144.0
161.888428 120.0
161.892807 176.0
161.936859 264.0
161.962845 64.0
162.003525 184.0
162.040283 188.0
162.082657 324.0
162.122803 136.0
162.146454 120.0
162.212555 272.0
162.241196 136.0
162.251984 96.0
162.260376 132.0
162.290115 168.0
162.357727 128.0
162.394958 168.0
162.417603 240.0
162.426041 180.0
162.449493 92.0
162.459213 96.0
162.488327 132.0
162.512482 116.0
162.533203 200.0
162.592728 224.0
162.661377 216.0
162.702209 136.0
162.736038 220.0
162.765289 232.0
162.798248 272.0
162.845535 124.0
162.883575 200.0
162.909454 184.0
162.945343 264.0
162.982178 72.0
163.007248 132.0
163.014328 104.0
163.050201 272.0
163.119141 152.0
163.167786 88.0
163.222107 284.0
163.27269 212.0
163.326614 244.0
163.365829 80.0
163.393326 264.0
163.431488 144.0
163.451904 124.0
163.483398 120.0
163.502899 244.0
163.524597 104.0
163.541779 64.0
163.571823 184.0
163.604492 104.0
163.62825 416.0
163.657745 152.0
163.689346 284.0
163.708221 108.0
163.726044 84.0
163.746414 76.0
163.790543 192.0
163.83168 200.0
163.863007 136.0
163.867691 120.0
163.908737 272.0
163.935318 88.0
163.955353 64.0
163.997757 76.0
164.015137 204.0
164.026321 148.0
164.03006 148.0
164.047531 180.0
164.079025 336.0
164.103683 216.0
164.144089 164.0
164.17511 296.0
164.200134 92.0
164.223099 188.0
164.242279 116.0
164.277451 104.0
164.297073 132.0
164.317062 72.0
164.354706 192.0
164.41362 208.0
164.444061 220.0
164.481323 268.0
164.537537 136.0
164.567047 388.0
164.593185 340.0
164.634949 208.0
164.642426 128.0
164.684357 92.0
164.694885 116.0
164.725067 140.0
164.742798 236.0
164.748077 188.0
164.79245 100.0
164.820953 276.0
164.858887 184.0
164.886475 136.0
164.923111 80.0
164.944397 136.0
164.97937 160.0
165.007828 192.0
165.051956 132.0
165.097488 220.0
165.127365 148.0
165.146378 184.0
165.175201 152.0
165.192062 136.0
165.222641 148.0
165.260406 148.0
165.283432 96.0
165.31398 196.0
165.359711 200.0
165.397766 132.0
165.425674 56.0
165.438339 164.0
165.469696 196.0
165.498535 148.0
165.527924 184.0
165.556259 112.0
165.621643 44.0
165.657272 220.0
165.7173 312.0
165.743973 220.0
165.767471 32.0
165.798965 164.0
165.81839 104.0
165.847702 164.0
165.870758 200.0
165.89151 288.0
165.914093 192.0
165.924805 96.0
165.933075 60.0
165.957977 204.0
165.984924 428.0
166.027191 120.0
166.052063 136.0
166.08725 168.0
166.134003 68.0
166.158127 108.0
166.215561 148.0
166.236801 120.0
166.274536 192.0
166.310257 136.0
166.361145 136.0
166.391235 100.0
166.423004 136.0
166.450195 312.0
166.477127 172.0
166.516235 116.0
166.542358 32.0
166.56459 92.0
166.611298 120.0
166.637726 168.0
166.671677 132.0
166.701065 136.0
166.747192 100.0
166.788513 160.0
166.837906 120.0
166.861053 188.0
166.902145 300.0
166.911377 204.0
166.917908 176.0
166.945663 160.0
167.010223 256.0
167.028229 280.0
167.050293 132.0
167.084503 188.0
167.105804 260.0
167.148788 188.0
167.165756 72.0
167.183167 188.0
167.207718 180.0
167.230896 232.0
167.241257 128.0
167.24707 204.0
167.283981 80.0
167.311523 168.0
167.33194 92.0
167.361099 156.0
167.398056 228.0
167.441696 148.0
167.477509 100.0
167.496429 308.0
167.542175 116.0
167.596771 160.0
167.63591 64.0
167.670685 240.0
167.726135 180.0
167.760468 212.0
167.777557 176.0
167.783844 168.0
167.795364 164.0
167.856659 128.0
167.886353 60.0
167.898285 144.0
167.939285 208.0
167.951157 216.0
167.956207 188.0
167.993317 196.0
167.99852 176.0
168.011566 220.0
168.016312 204.0
168.035034 276.0
168.058594 116.0
168.081604 128.0
168.091797 136.0
168.120712 112.0
168.160858 184.0
168.178482 92.0
168.18605 128.0
168.226639 40.0
168.247284 100.0
168.286774 96.0
168.355759 96.0
168.391907 176.0
168.428085 116.0
168.452942 152.0
168.481613 72.0
168.499054 68.0
168.510559 108.0
168.522476 168.0
168.574142 196.0
168.603546 204.0
168.641083 112.0
168.66188 108.0
168.691681 136.0
168.732544 204.0
168.736816 240.0
168.777008 100.0
168.820984 152.0
168.852478 452.0
168.898575 100.0
168.935226 152.0
168.969406 160.0
169.00116 240.0
169.019333 60.0
169.043549 148.0
169.085892 196.0
169.129227 880.0
169.171432 56.0
169.209152 100.0
169.26593 152.0
169.311813 176.0
169.343826 72.0
169.37178 192.0
169.399033 104.0
169.434509 88.0
169.461304 200.0
169.490417 164.0
169.56311 128.0
169.592514 144.0
169.605621 336.0
169.631485 96.0
169.661743 420.0
169.680099 128.0
169.70668 176.0
169.727432 172.0
169.746582 144.0
169.785126 256.0
169.807343 216.0
169.816238 132.0
169.834351 124.0
169.862076 92.0
169.897369 232.0
169.904709 128.0
169.916107 76.0
169.933807 108.0
169.957016 92.0
169.9991 396.0
170.040436 192.0
170.069046 168.0
170.076752 76.0
170.092163 132.0
170.131851 272.0
170.161026 204.0
170.259201 76.0
170.287659 136.0
170.339996 60.0
170.375931 356.0
170.407639 224.0
170.462311 68.0
170.488113 292.0
170.532303 240.0
170.570908 80.0
170.598663 76.0
170.610046 40.0
170.634247 152.0
170.64653 216.0
170.664368 236.0
170.6996 200.0
170.745773 128.0
170.794952 104.0
170.825211 120.0
170.886017 112.0
170.932861 88.0
170.963379 172.0
170.998688 188.0
171.023193 96.0
171.0513 88.0
171.078949 64.0
171.109879 120.0
171.127991 88.0
171.178345 280.0
171.234818 144.0
171.238144 192.0
171.267059 136.0
171.285904 96.0
171.293701 104.0
171.331268 136.0
171.365341 136.0
171.418442 164.0
171.491013 172.0
171.56662 292.0
171.587173 228.0
171.631607 204.0
171.673859 220.0
171.709213 300.0
171.752335 48.0
171.775757 228.0
171.82251 108.0
171.846771 80.0
171.850845 108.0
171.870422 152.0
171.895065 264.0
171.917099 376.0
171.935165 184.0
171.957169 188.0
171.989151 232.0
171.994919 96.0
172.009476 340.0
172.053772 96.0
172.076263 136.0
172.105988 88.0
172.14209 200.0
172.145737 300.0
172.209824 212.0
172.245529 236.0
172.278397 96.0
172.296677 60.0
172.329361 212.0
172.357605 76.0
172.384933 88.0
172.425354 340.0
172.480988 184.0
172.515976 84.0
172.539764 188.0
172.570023 404.0
172.633911 104.0
172.656769 128.0
172.666519 68.0
172.67485 196.0
172.691452 296.0
172.717606 100.0
172.752182 200.0
172.788727 144.0
172.883362 176.0
172.912323 284.0
172.956894 120.0
173.000885 116.0
173.026321 84.0
173.048721 228.0
173.074524 200.0
173.095474 176.0
173.125961 112.0
173.156265 196.0
173.192734 164.0
173.247055 88.0
173.270752 104.0
173.309708 144.0
173.331726 156.0
173.367004 112.0
173.393219 60.0
173.419418 160.0
173.437454 140.0
173.475037 132.0
173.502457 180.0
173.524582 336.0
173.547516 144.0
173.576736 72.0
173.633377 108.0
173.66745 144.0
173.69046 68.0
173.696564 112.0
173.708771 232.0
173.738586 236.0
173.797806 76.0
173.850418 192.0
173.884537 180.0
173.921448 160.0
173.931763 160.0
173.959854 88.0
173.995346 232.0
174.046265 268.0
174.069962 60.0
174.073776 188.0
174.106903 60.0
174.127502 128.0
174.152802 136.0
174.211929 180.0
174.245438 104.0
174.249542 164.0
174.281326 144.0
174.318863 148.0
174.345261 240.0
174.356216 172.0
174.359955 156.0
174.388062 200.0
174.41304 96.0
174.492294 68.0
174.521912 44.0
174.560623 160.0
174.602325 156.0
174.622452 88.0
174.662766 164.0
174.691559 108.0
174.744888 124.0
174.783905 192.0
174.828964 224.0
174.838562 180.0
174.865311 204.0
174.904907 180.0
174.971191 160.0
175.004593 272.0
175.0345 116.0
175.059021 368.0
175.093994 200.0
175.134079 144.0
175.145065 108.0
175.188095 192.0
175.243423 56.0
175.275558 228.0
175.294373 156.0
175.324112 176.0
175.372574 68.0
175.38031 120.0
175.463715 140.0
175.488571 292.0
175.517593 96.0
175.541321 124.0
175.585419 100.0
175.592972 96.0
175.613113 148.0
175.642776 136.0
175.669617 88.0
175.695602 264.0
175.71344 148.0
175.731598 188.0
175.762146 176.0
175.805161 116.0
175.842773 160.0
175.879395 208.0
175.922882 188.0
175.945068 280.0
175.981339 60.0
176.014175 164.0
176.033463 144.0
176.076279 188.0
176.087616 296.0
176.106964 280.0
176.137878 160.0
176.161652 172.0
176.190704 40.0
176.222824 140.0
176.254135 168.0
176.275467 180.0
176.331131 212.0
176.368195 128.0
176.396713 140.0
176.41684 324.0
176.448486 120.0
176.468262 104.0
176.510712 140.0
176.563843 104.0
176.596756 108.0
176.630569 196.0
176.663452 148.0
176.66893 152.0
176.67807 140.0
176.712189 204.0
176.748383 184.0
176.799393 168.0
176.839859 140.0
176.877457 212.0
176.905487 148.0
176.93396 264.0
177.016479 196.0
177.05658 252.0
177.077606 192.0
177.109909 324.0
177.154449 180.0
177.192673 312.0
177.224289 272.0
177.262436 132.0
177.281891 308.0
177.310776 268.0
177.354401 128.0
177.379074 80.0
177.416183 76.0
177.477173 328.0
177.519485 84.0
177.5522 152.0
177.593796 160.0
177.651642 124.0
177.686737 88.0
177.711334 132.0
177.751785 172.0
177.779007 216.0
177.801788 204.0
177.828201 360.0
177.846848 236.0
177.887848 164.0
177.910583 132.0
177.951645 300.0
177.979202 288.0
178.021225 116.0
178.061066 52.0
178.108078 148.0
178.138306 272.0
178.157272 180.0
178.193619 192.0
178.212051 180.0
178.221725 68.0
178.253342 224.0
178.27829 136.0
178.300201 152.0
178.324127 124.0
178.351486 164.0
178.371552 304.0
178.41008 228.0
178.443985 212.0
178.463242 92.0
178.500137 204.0
178.50679 188.0
178.517105 148.0
178.529388 100.0
178.582443 88.0
178.634369 236.0
178.658188 208.0
178.682358 80.0
178.713226 108.0
178.751022 96.0
178.784592 104.0
178.803986 120.0
178.853088 172.0
178.874161 84.0
178.898361 160.0
178.936035 228.0
178.955597 196.0
178.975647 196.0
179.014938 164.0
179.107697 320.0
179.151398 176.0
179.204941 200.0
179.23172 100.0
179.277603 160.0
179.339767 104.0
179.345947 56.0
179.356995 96.0
179.401901 232.0
179.411591 92.0
179.418655 276.0
179.490555 88.0
179.519653 88.0
179.546524 104.0
179.576553 144.0
179.60408 208.0
179.638016 160.0
179.659821 188.0
179.725647 136.0
179.748428 172.0
179.814117 132.0
179.833832 192.0
179.858521 108.0
179.906631 216.0
179.925888 140.0
179.937225 76.0
179.944153 176.0
179.995697 344.0
180.026749 80.0
180.071716 136.0
180.122742 156.0
180.174469 108.0
180.208755 156.0
180.253845 136.0
180.285919 160.0
180.311646 120.0
180.346848 164.0
180.389954 200.0
180.406693 156.0
180.442368 188.0
180.460098 152.0
180.471909 196.0
180.506775 92.0
180.531891 108.0
180.559479 152.0
180.594437 176.0
180.617905 148.0
180.705872 256.0
180.735214 52.0
180.756439 172.0
180.809433 44.0
180.831573 308.0
180.863342 152.0
180.872375 132.0
180.891632 92.0
180.916809 224.0
180.97023 96.0
180.985672 172.0
181.021652 328.0
181.059509 124.0
181.08313 376.0
181.140167 168.0
181.175858 188.0
181.194809 184.0
181.225235 240.0
181.251587 44.0
181.272919 164.0
181.299866 108.0
181.333221 116.0
181.39357 136.0
181.429123 144.0
181.458481 124.0
181.508835 72.0
181.535614 232.0
181.602509 172.0
181.622711 120.0
181.684402 160.0
181.703949 180.0
181.731171 104.0
181.74173 68.0
181.766937 144.0
181.810257 152.0
181.847565 156.0
181.889145 112.0
181.908081 184.0
181.944153 120.0
181.973694 40.0
182.008591 160.0
182.043839 132.0
182.072159 76.0
182.099289 160.0
182.145126 324.0
182.18071 156.0
182.211655 148.0
182.230759 228.0
182.249939 280.0
182.288971 92.0
182.336639 160.0
182.378601 124.0
182.39769 196.0
182.425018 196.0
182.465424 80.0
182.48494 192.0
182.530334 116.0
182.551559 132.0
182.57962 252.0
182.616028 112.0
182.640244 88.0
182.675217 140.0
182.699814 84.0
182.739182 124.0
182.776321 160.0
182.809753 288.0
182.849609 156.0
182.904099 172.0
182.921402 228.0
182.975159 204.0
183.008972 92.0
183.027832 140.0
183.069336 280.0
183.111633 284.0
183.141846 60.0
183.175308 148.0
183.221771 72.0
183.257599 136.0
183.294266 180.0
183.321487 80.0
183.340347 64.0
183.385803 160.0
183.412155 144.0
183.435837 132.0
183.482513 168.0
183.502731 152.0
183.523438 140.0
183.554733 132.0
183.591446 276.0
183.633148 96.0
183.66748 152.0
183.685516 216.0
183.710556 112.0
183.736771 176.0
183.762344 92.0
183.802383 216.0
183.836746 120.0
183.910034 244.0
183.937195 260.0
183.979904 400.0
184.05014 184.0
184.070862 136.0
184.101364 140.0
184.150528 232.0
184.17926 152.0
184.199341 112.0
184.230637 136.0
184.253387 328.0
184.285477 192.0
184.339096 172.0
184.412613 156.0
184.435043 132.0
184.450516 164.0
184.472778 200.0
184.567627 152.0
184.602768 296.0
184.648193 108.0
184.682144 144.0
184.706635 272.0
184.712311 112.0
184.742554 168.0
184.786255 108.0
184.813797 248.0
184.870804 100.0
184.879517 128.0
184.90303 172.0
184.944519 164.0
184.980469 128.0
185.00325 84.0
185.039017 108.0
185.082947 128.0
185.124298 380.0
185.146072 212.0
185.17337 144.0
185.18129 140.0
185.190536 116.0
185.199814 188.0
185.20874 144.0
185.24469 124.0
185.274399 176.0
185.314346 76.0
185.344543 176.0
185.373428 180.0
185.384293 120.0
185.394501 172.0
185.424728 156.0
185.469971 164.0
185.475235 128.0
185.485947 196.0
185.516388 292.0
185.555649 136.0
185.597839 116.0
185.632034 112.0
185.665985 168.0
185.710617 292.0
185.7668 124.0
185.792175 204.0
185.828415 80.0
185.859985 140.0
185.889908 140.0
185.900513 92.0
185.920105 56.0
185.949585 132.0
185.968323 116.0
185.991257 300.0
186.019577 48.0
186.044846 60.0
186.078827 108.0
186.091385 64.0
186.096283 56.0
186.14061 100.0
186.181351 92.0
186.202332 160.0
186.246536 44.0
186.268265 60.0
186.290009 72.0
186.315536 80.0
186.338013 80.0
186.366409 232.0
186.415009 128.0
186.443771 148.0
186.462555 292.0
186.494781 140.0
186.520798 152.0
186.525833 140.0
186.538589 120.0
186.543808 196.0
186.56723 136.0
186.590363 136.0
186.626984 168.0
186.668304 212.0
186.698502 176.0
186.723145 244.0
186.753494 220.0
186.776642 144.0
186.814194 120.0
186.864502 144.0
186.895905 240.0
186.969009 104.0
187.017639 108.0
187.040619 128.0
187.077255 168.0
187.105972 68.0
187.137146 212.0
187.180161 136.0
187.199585 136.0
187.218674 144.0
187.238541 180.0
187.323853 80.0
187.353989 260.0
187.383148 100.0
187.413773 164.0
187.432846 48.0
187.4814 152.0
187.514786 64.0
187.547333 132.0
187.582153 388.0
187.613602 168.0
187.630096 100.0
187.673233 156.0
187.695923 144.0
187.726074 116.0
187.754959 72.0
187.790024 152.0
187.831802 216.0
187.858231 136.0
187.880051 68.0
187.904617 168.0
187.935516 172.0
187.966599 156.0
188.002548 176.0
188.038132 164.0
188.053879 168.0
188.074173 172.0
188.103485 88.0
188.134796 168.0
188.17186 132.0
188.190491 148.0
188.217728 176.0
188.238419 120.0
188.281906 84.0
188.299545 292.0
188.355103 132.0
188.383667 132.0
188.409866 192.0
188.43161 172.0
188.478058 108.0
188.546387 164.0
188.57634 140.0
188.616028 144.0
188.648605 144.0
188.677689 148.0
188.742584 132.0
188.755554 140.0
188.784271 88.0
188.814209 152.0
188.870743 104.0
188.892517 104.0
188.915573 52.0
188.977982 84.0
189.029083 132.0
189.079941 128.0
189.0914 144.0
189.100266 164.0
189.134644 136.0
189.164108 128.0
189.180222 344.0
189.214722 208.0
189.254868 192.0
189.285629 168.0
189.313538 148.0
189.339355 168.0
189.348343 136.0
189.405624 96.0
189.430283 44.0
189.474121 96.0
189.507004 136.0
189.542038 188.0
189.593079 208.0
189.628601 144.0
189.646301 68.0
189.679352 140.0
189.722702 168.0
189.747665 392.0
189.770462 248.0
189.802979 128.0
189.827744 72.0
189.918259 108.0
189.941223 156.0
189.978699 180.0
190.020828 316.0
190.051529 160.0
190.090302 304.0
190.127075 240.0
190.151077 144.0
190.22905 192.0
190.286041 56.0
190.320694 180.0
190.373596 300.0
190.404404 204.0
190.42627 128.0
190.464844 84.0
190.503021 148.0
190.529556 100.0
190.551666 140.0
190.607437 96.0
190.646866 104.0
190.652115 140.0
190.689285 172.0
190.728516 84.0
190.74939 112.0
190.760742 88.0
190.772522 140.0
190.811661 124.0
190.829361 132.0
190.861557 192.0
190.908356 256.0
190.951599 116.0
191.009323 276.0
191.054443 152.0
191.106186 120.0
191.141388 232.0
191.171234 152.0
191.24707 124.0
191.271851 224.0
191.29863 188.0
191.326401 200.0
191.388214 168.0
191.45668 184.0
191.508148 168.0
191.543015 240.0
191.563492 196.0
191.590317 304.0
191.620117 92.0
191.664001 152.0
191.712601 100.0
191.735977 156.0
191.831436 160.0
191.858749 192.0
191.906799 64.0
191.931625 60.0
191.969284 160.0
192.008575 288.0
192.039505 252.0
192.055054 48.0
192.060699 240.0
192.09436 104.0
192.125961 228.0
192.144135 252.0
192.174377 204.0
192.196457 156.0
192.218826 200.0
192.242218 244.0
192.292801 116.0
192.320297 92.0
192.356552 52.0
192.403488 132.0
192.431732 208.0
192.475342 168.0
192.519638 132.0
192.559525 152.0
192.588516 168.0
192.623901 248.0
192.645309 160.0
192.677795 232.0
192.719818 108.0
192.737167 236.0
192.783112 256.0
192.812347 160.0
192.837219 220.0
192.856293 180.0
192.884979 128.0
192.909744 268.0
192.935425 140.0
192.966522 308.0
192.979614 136.0
192.990479 240.0
193.012619 128.0
193.069702 128.0
193.12384 80.0
193.163544 72.0
193.196747 148.0
193.225479 360.0
193.322968 240.0
193.340668 332.0
193.363953 152.0
193.400467 264.0
193.444153 152.0
193.496765 112.0
193.515869 96.0
193.526962 160.0
193.563049 168.0
193.595901 104.0
193.617386 192.0
193.706421 232.0
193.770111 176.0
193.808243 304.0
193.837814 188.0
193.866028 172.0
193.935043 252.0
193.95665 136.0
193.989838 160.0
194.077637 172.0
194.127945 100.0
194.202393 104.0
194.226746 160.0
194.253494 352.0
194.291183 116.0
194.317154 100.0
194.340393 152.0
194.371811 124.0
194.391556 180.0
194.417068 300.0
194.460464 44.0
194.500046 348.0
194.549225 288.0
194.596512 140.0
194.640945 140.0
194.671494 76.0
194.695953 84.0
194.703506 68.0
194.714355 120.0
194.752045 116.0
194.82341 104.0
194.858414 180.0
194.913193 128.0
194.956207 220.0
194.998291 440.0
195.046616 148.0
195.094284 136.0
195.133499 252.0
195.151398 228.0
195.204254 144.0
195.225937 196.0
195.263672 288.0
195.276443 80.0
195.286407 192.0
195.307877 148.0
195.323517 140.0
195.352402 264.0
195.382599 176.0
195.434265 176.0
195.473328 204.0
195.498932 144.0
195.532318 272.0
195.562439 104.0
195.587662 84.0
195.607742 148.0
195.640961 172.0
195.673035 136.0
195.706039 72.0
195.72905 136.0
195.751389 128.0
195.786804 160.0
195.810333 268.0
195.859299 160.0
195.899155 220.0
195.919891 88.0
195.94281 208.0
195.990723 204.0
195.999359 148.0
196.011688 100.0
196.067612 256.0
196.103668 100.0
196.126755 136.0
196.168365 264.0
196.196289 120.0
196.228912 204.0
196.263367 108.0
196.289368 112.0
196.317184 80.0
196.359451 104.0
196.38858 124.0
196.457947 180.0
196.52002 296.0
196.539551 116.0
196.573044 216.0
196.595367 56.0
196.64389 132.0
196.705353 144.0
196.72377 184.0
196.753479 220.0
196.802109 176.0
196.834366 152.0
196.89563 236.0
196.923309 196.0
196.955582 200.0
196.991531 124.0
197.039398 44.0
197.09346 136.0
197.126022 84.0
197.154175 168.0
197.184723 252.0
197.205795 96.0
197.244064 108.0
197.310516 52.0
197.333344 176.0
197.356583 272.0
197.396057 232.0
197.433426 104.0
197.441727 96.0
197.453766 144.0
197.49147 248.0
197.521881 56.0
197.562683 176.0
197.584641 128.0
197.629044 64.0
197.659256 192.0
197.697205 184.0
197.744156 112.0
197.772278 88.0
197.805252 180.0
197.845444 248.0
197.86618 148.0
197.874786 248.0
197.945465 80.0
197.953537 72.0
197.96431 64.0
197.97496 112.0
197.99617 40.0
198.030548 116.0
198.121185 344.0
198.177048 120.0
198.214142 140.0
198.256744 72.0
198.288651 136.0
198.320328 76.0
198.351334 188.0
198.387039 104.0
198.461578 276.0
198.47908 92.0
198.488403 224.0
198.496719 216.0
198.507095 260.0
198.557892 108.0
198.583191 188.0
198.610245 116.0
198.639633 212.0
198.680573 116.0
198.707092 172.0
198.74939 200.0
198.756821 156.0
198.788055 136.0
198.824539 184.0
198.865417 100.0
198.885071 96.0
198.923508 208.0
198.930847 104.0
198.997375 152.0
199.017807 216.0
199.084427 128.0
199.120132 96.0
199.19313 132.0
199.219269 140.0
199.238937 128.0
199.287277 200.0
199.327698 184.0
199.363632 104.0
199.403183 108.0
199.434677 148.0
199.458649 136.0
199.514389 116.0
199.542511 120.0
199.579056 396.0
199.60054 220.0
199.655563 164.0
199.704285 324.0
199.726929 112.0
199.761505 148.0
199.801147 160.0
199.835052 72.0
199.869812 192.0
199.907501 124.0
199.957123 96.0
199.98587 88.0
200.01088 144.0
200.047943 144.0
200.052185 252.0
200.075333 208.0
200.100464 152.0
200.144699 136.0
200.175217 148.0
200.218674 216.0
200.253311 200.0
200.300064 176.0
200.347305 156.0
200.405975 228.0
200.463043 232.0
200.480774 128.0
200.537704 140.0
200.57016 124.0
200.60144 124.0
200.647858 72.0
200.701202 184.0
200.738586 228.0
200.823624 152.0
200.834274 128.0
200.867645 176.0
200.896896 136.0
200.902008 144.0
200.921722 160.0
200.959167 152.0
200.987869 276.0
201.018463 208.0
201.049072 196.0
201.086456 212.0
201.113083 128.0
201.154144 68.0
201.194458 100.0
201.23616 168.0
201.290131 176.0
201.332947 144.0
201.36525 296.0
201.418884 204.0
201.470459 128.0
201.522614 156.0
201.561478 172.0
201.573715 104.0
201.587601 124.0
201.614685 220.0
201.666443 272.0
201.714737 112.0
201.736572 152.0
201.760117 84.0
201.836823 336.0
201.906433 164.0
201.942596 116.0
201.965118 116.0
202.038773 116.0
202.062912 128.0
202.095367 72.0
202.11795 288.0
202.147339 120.0
202.16922 436.0
202.213028 140.0
202.268768 92.0
202.326126 92.0
202.378448 120.0
202.400604 68.0
202.421173 144.0
202.447433 112.0
202.47403 80.0
202.51535 168.0
202.521149 96.0
202.533432 272.0
202.571808 120.0
202.597046 136.0
202.62059 100.0
202.625275 208.0
202.645615 116.0
202.680466 312.0
202.715576 180.0
202.801285 100.0
202.842361 128.0
202.901535 160.0
202.924911 184.0
202.967392 544.0
203.026474 152.0
203.074402 144.0
203.116653 216.0
203.151398 52.0
203.18396 188.0
203.216797 316.0
203.251587 312.0
203.274414 264.0
203.299088 148.0
203.348846 192.0
203.363327 76.0
203.373627 144.0
203.411423 64.0
203.441772 192.0
203.477646 96.0
203.517181 136.0
203.522415 188.0
203.542191 132.0
203.587585 160.0
203.614075 136.0
203.649078 84.0
203.671814 68.0
203.724808 116.0
203.741058 340.0
203.77977 104.0
203.807114 180.0
203.830933 332.0
203.883224 320.0
203.92157 144.0
203.931198 116.0
203.967361 160.0
203.985977 72.0
204.007172 84.0
204.038788 200.0
204.068237 140.0
204.103851 144.0
204.142151 444.0
204.196991 392.0
204.236526 160.0
204.257187 208.0
204.296631 128.0
204.320587 184.0
204.34433 148.0
204.387512 100.0
204.422165 172.0
204.448807 128.0
204.49231 180.0
204.513626 128.0
204.56282 168.0
204.588837 172.0
204.62175 144.0
204.641556 140.0
204.652802 128.0
204.660217 128.0
204.698822 128.0
204.725754 216.0
204.746872 144.0
204.763336 140.0
204.806503 180.0
204.840256 140.0
204.847748 116.0
204.870377 268.0
204.887878 164.0
204.909775 192.0
204.938553 92.0
204.982635 176.0
205.014404 164.0
205.040405 180.0
205.091843 140.0
205.141357 392.0
205.208984 144.0
205.225525 68.0
205.230133 292.0
205.254166 220.0
205.290237 160.0
205.316055 168.0
205.349335 160.0
205.374161 96.0
205.40332 128.0
205.461365 128.0
205.495789 128.0
205.531097 164.0
205.550186 144.0
205.585312 92.0
205.624496 160.0
205.654404 168.0
205.676437 100.0
205.683365 92.0
205.703552 228.0
205.739441 304.0
205.777649 96.0
205.809814 140.0
205.840103 148.0
205.912582 524.0
205.933762 248.0
205.958954 160.0
205.985092 84.0
206.010803 216.0
206.043976 244.0
206.069412 188.0
206.096527 60.0
206.119385 168.0
206.150452 600.0
206.212708 148.0
206.231812 84.0
206.243103 128.0
206.28804 124.0
206.3134 220.0
206.32193 136.0
206.333969 248.0
206.357101 156.0
206.367813 160.0
206.378479 92.0
206.419998 140.0
206.446777 160.0
206.487396 240.0
206.569336 208.0
206.596924 124.0
206.639145 132.0
206.681091 116.0
206.734116 136.0
206.765762 140.0
206.797256 128.0
206.831268 168.0
206.899307 420.0
206.937378 132.0
206.946274 248.0
206.996323 356.0
207.023666 224.0
207.077179 180.0
207.128006 192.0
207.158615 196.0
207.186844 232.0
207.229721 128.0
207.261246 56.0
207.30014 136.0
207.323273 156.0
207.341599 124.0
207.389267 120.0
207.456589 104.0
207.489746 140.0
207.500809 84.0
207.514069 188.0
207.540695 232.0
207.584885 144.0
207.59462 128.0
207.604477 72.0
207.638031 144.0
207.692291 284.0
207.751587 160.0
207.784164 240.0
207.814835 340.0
207.851532 212.0
207.860077 148.0
207.88826 172.0
207.939255 208.0
207.968475 220.0
208.004135 132.0
208.052063 116.0
208.113007 232.0
208.152557 128.0
208.157669 128.0
208.195862 260.0
208.245361 152.0
208.271072 156.0
208.282242 148.0
208.33049 108.0
208.381226 152.0
208.45372 160.0
208.502914 228.0
208.535172 108.0
208.54097 92.0
208.554871 96.0
208.565491 160.0
208.585693 156.0
208.614944 180.0
208.639832 172.0
208.687317 52.0
208.704239 376.0
208.74411 92.0
208.770859 204.0
208.80014 144.0
208.847794 240.0
208.856033 204.0
208.890594 212.0
208.930664 244.0
208.967865 136.0
209.019653 148.0
209.061447 144.0
209.070801 56.0
209.080444 316.0
209.102264 72.0
209.142212 164.0
209.188507 100.0
209.199188 96.0
209.25737 128.0
209.307968 144.0
209.340363 196.0
209.361954 104.0
209.395966 112.0
209.432373 200.0
209.459351 152.0
209.482391 164.0
209.524277 200.0
209.53273 128.0
209.576126 280.0
209.627411 184.0
209.658173 76.0
209.679459 160.0
209.718307 144.0
209.762787 144.0
209.793198 300.0
209.847702 248.0
209.877289 144.0
209.9189 80.0
209.948135 240.0
209.987915 128.0
210.025162 456.0
210.084961 156.0
210.111328 152.0
210.141434 104.0
210.16629 124.0
210.185959 148.0
210.230728 100.0
210.293427 120.0
210.351456 108.0
210.390915 172.0
210.422974 216.0
210.458435 156.0
210.48436 112.0
210.508118 116.0
210.528198 220.0
210.54924 128.0
210.559387 284.0
210.591141 144.0
210.618057 136.0
210.663956 224.0
210.716019 220.0
210.760651 140.0
210.826447 212.0
210.860901 128.0
210.908173 204.0
210.93985 184.0
210.963318 104.0
210.994354 236.0
211.053543 192.0
211.096725 160.0
211.142288 144.0
211.207077 320.0
211.249985 180.0
211.273102 108.0
211.308624 64.0
211.341049 108.0
211.378143 168.0
211.407532 136.0
211.469147 112.0
211.529037 160.0
211.536392 104.0
211.547485 116.0
211.587952 152.0
211.631393 136.0
211.680252 160.0
211.688736 140.0
211.700638 132.0
211.714828 128.0
211.719696 156.0
211.755539 164.0
211.802277 216.0
211.859116 84.0
211.867172 100.0
211.930099 176.0
211.982758 112.0
212.018875 120.0
212.052933 128.0
212.073547 180.0
212.097321 132.0
212.12233 128.0
212.148865 136.0
212.170349 96.0
212.193741 132.0
212.224548 76.0
212.24472 124.0
212.296982 132.0
212.353058 84.0
212.39035 152.0
212.440216 184.0
212.481705 176.0
212.518311 100.0
212.541656 172.0
212.563309 84.0
212.602219 184.0
212.631149 148.0
212.699707 96.0
212.756378 160.0
212.795486 100.0
212.826141 180.0
212.860077 128.0
212.892654 124.0
212.909256 332.0
212.940643 140.0
212.970306 216.0
213.014938 112.0
213.045929 176.0
213.083328 172.0
213.120255 164.0
213.12735 140.0
213.173416 156.0
213.184448 84.0
213.196854 100.0
213.266937 232.0
213.303955 120.0
213.330399 212.0
213.384399 180.0
213.4366 124.0
213.459351 144.0
213.479126 164.0
213.520401 176.0
213.546448 48.0
213.556046 188.0
213.569122 64.0
213.574753 64.0
213.600891 220.0
213.631302 140.0
213.656708 60.0
213.698227 144.0
213.733139 172.0
213.787155 252.0
213.814407 104.0
213.846512 184.0
213.896561 168.0
213.921768 160.0
213.97937 192.0
214.017105 96.0
214.042847 84.0
214.071594 176.0
214.101105 124.0
214.135208 304.0
214.17717 176.0
214.210678 84.0
214.24855 200.0
214.276459 240.0
214.309647 112.0
214.321915 180.0
214.347046 260.0
214.411209 108.0
214.464127 132.0
214.548447 216.0
214.575012 116.0
214.604172 164.0
214.638748 56.0
214.664459 160.0
214.673615 108.0
214.68866 140.0
214.698425 124.0
214.719223 232.0
214.756973 168.0
214.801254 180.0
214.848038 80.0
214.873062 176.0
214.913376 200.0
214.934998 340.0
214.994934 72.0
215.059311 128.0
215.10939 288.0
215.119003 216.0
215.177551 128.0
215.211548 144.0
215.247406 76.0
215.278305 128.0
215.311829 84.0
215.339493 80.0
215.369537 240.0
215.387817 160.0
215.440826 272.0
215.494492 104.0
215.536865 96.0
215.586945 364.0
215.612747 120.0
215.656494 140.0
215.719559 292.0
215.744202 112.0
215.777481 96.0
215.807266 220.0
215.839432 176.0
215.889755 156.0
215.927048 84.0
215.949631 148.0
216.018173 144.0
216.063538 196.0
216.099213 172.0
216.107574 236.0
216.135727 512.0
216.200668 300.0
216.228989 168.0
216.242386 104.0
216.24823 212.0
216.295715 132.0
216.318924 140.0
216.327057 124.0
216.356033 128.0
216.382614 148.0
216.426956 84.0
216.449753 292.0
216.484161 116.0
216.534607 116.0
216.545395 60.0
216.555145 128.0
216.603561 140.0
216.613647 96.0
216.636612 296.0
216.68718 128.0
216.713562 100.0
216.761795 268.0
216.787994 188.0
216.811401 132.0
216.873093 132.0
216.907166 116.0
216.942062 164.0
216.971756 84.0
217.005753 136.0
217.037201 172.0
217.076004 132.0
217.144974 420.0
217.176376 264.0
217.248444 200.0
217.288315 92.0
217.312164 136.0
217.336426 156.0
217.385696 76.0
217.452454 404.0
217.476883 144.0
217.482681 104.0
217.493744 264.0
217.522461 188.0
217.548737 108.0
217.570374 120.0
217.608215 352.0
217.63855 244.0
217.664581 92.0
217.707184 124.0
217.752762 152.0
217.774185 180.0
217.800339 152.0
217.832062 40.0
217.863205 100.0
217.883148 168.0
217.906097 68.0
217.935486 28.0
217.989014 328.0
218.030289 268.0
218.073624 320.0
218.164261 504.0
218.21817 164.0
218.257782 196.0
218.322769 180.0
218.373566 120.0
218.40033 204.0
218.444168 224.0
218.478287 180.0
218.503006 100.0
218.538254 172.0
218.597183 80.0
218.638138 268.0
218.658981 388.0
218.68071 148.0
218.733017 216.0
218.755035 64.0
218.787094 124.0
218.795654 132.0
218.827652 288.0
218.863815 84.0
218.953537 124.0
218.975067 160.0
218.994675 148.0
219.045761 152.0
219.078278 116.0
219.122177 124.0
219.157104 1132.0
219.210754 168.0
219.248871 104.0
219.291702 80.0
219.363907 328.0
219.41391 116.0
219.452408 224.0
219.472672 156.0
219.485291 96.0
219.494324 200.0
219.543015 144.0
219.565018 128.0
219.593369 80.0
219.628174 128.0
219.657608 96.0
219.703705 80.0
219.722885 196.0
219.74353 128.0
219.775726 136.0
219.797867 76.0
219.855011 356.0
219.883499 244.0
219.907776 184.0
219.929123 168.0
219.962143 176.0
220.011154 156.0
220.034073 84.0
220.075073 176.0
220.102295 220.0
220.158234 376.0
220.210007 156.0
220.286194 132.0
220.305008 204.0
220.347946 104.0
220.367691 152.0
220.39592 156.0
220.420853 244.0
220.444351 128.0
220.498871 132.0
220.541489 180.0
220.60553 160.0
220.649246 136.0
220.669983 300.0
220.736023 124.0
220.779968 124.0
220.821884 196.0
220.865875 332.0
220.891586 164.0
220.955017 176.0
221.014511 208.0
221.040787 180.0
221.080032 316.0
221.14238 456.0
221.166718 272.0
221.229034 200.0
221.276398 168.0
221.305634 184.0
221.323196 148.0
221.366043 156.0
221.392746 168.0
221.428406 164.0
221.483917 232.0
221.517487 140.0
221.566376 348.0
221.598099 156.0
221.629105 152.0
221.668686 128.0
221.728317 184.0
221.755768 232.0
221.787262 44.0
221.837143 188.0
221.847107 144.0
221.858627 136.0
221.891235 200.0
221.926514 200.0
221.985657 136.0
222.017059 192.0
222.029922 96.0
222.034729 176.0
222.060364 164.0
222.088257 120.0
222.115356 232.0
222.154831 152.0
222.159088 116.0
222.173813 212.0
222.194962 120.0
222.222916 160.0
222.242065 140.0
222.300613 56.0
222.335007 152.0
222.373245 96.0
222.381088 220.0
222.414719 128.0
222.434769 120.0
222.455963 136.0
222.497208 148.0
222.531967 44.0
222.560547 160.0
222.604813 136.0
222.637955 256.0
222.680466 116.0
222.701248 296.0
222.724533 188.0
222.764114 176.0
222.79512 152.0
222.842453 328.0
222.874496 308.0
222.899872 188.0
222.970749 156.0
223.007324 168.0
223.033981 332.0
223.09494 188.0
223.126846 100.0
223.160706 156.0
223.213211 104.0
223.284485 388.0
223.330994 196.0
223.369095 104.0
223.400482 240.0
223.421875 140.0
223.464325 128.0
223.472443 328.0
223.521652 208.0
223.551651 48.0
223.575333 184.0
223.598068 128.0
223.620102 52.0
223.658157 132.0
223.702774 184.0
223.730255 148.0
223.792786 108.0
223.833755 192.0
223.857224 120.0
223.909805 124.0
223.93988 44.0
223.977448 136.0
224.007248 88.0
224.045975 124.0
224.079941 140.0
224.110031 280.0
224.132767 160.0
224.15538 196.0
224.202744 132.0
224.241272 248.0
224.26207 188.0
224.285889 196.0
224.345795 156.0
224.38446 208.0
224.40303 424.0
224.439987 176.0
224.492432 120.0
224.544113 44.0
224.584198 140.0
224.613586 168.0
224.647842 152.0
224.693192 128.0
224.73056 116.0
224.741486 144.0
224.778076 200.0
224.819016 156.0
224.916351 168.0
224.964615 96.0
225.000443 68.0
225.041443 204.0
225.130463 104.0
225.167236 216.0
225.218826 204.0
225.24884 72.0
225.26973 348.0
225.320038 216.0
225.358887 108.0
225.393448 92.0
225.434967 132.0
225.460724 164.0
225.520432 124.0
225.551636 156.0
225.583069 144.0
225.618439 352.0
225.642929 172.0
225.664902 140.0
225.677155 128.0
225.733215 164.0
225.788406 184.0
225.825668 128.0
225.859207 228.0
225.881638 212.0
225.975494 200.0
225.998123 152.0
226.030167 216.0
226.107559 256.0
226.145493 140.0
226.195297 312.0
226.203766 120.0
226.218826 128.0
226.253265 164.0
226.285614 204.0
226.297745 164.0
226.333267 100.0
226.340958 140.0
226.398239 156.0
226.441101 144.0
226.480881 40.0
226.570129 160.0
226.597214 116.0
226.631409 176.0
226.679962 136.0
226.686081 124.0
226.697723 196.0
226.719833 128.0
226.773102 164.0
226.82251 56.0
226.8452 120.0
226.86937 252.0
226.891068 180.0
226.918015 108.0
226.959961 248.0
226.971359 56.0
226.985229 136.0
227.024719 120.0
227.079941 260.0
227.099136 140.0
227.149231 284.0
227.207932 376.0
227.273926 128.0
227.33049 184.0
227.356812 208.0
227.381241 140.0
227.419037 80.0
227.457855 240.0
227.49617 204.0
227.523865 136.0
227.543427 164.0
227.567017 108.0
227.617661 184.0
227.656708 108.0
227.718369 128.0
227.725983 184.0
227.768967 192.0
227.804245 140.0
227.846786 160.0
227.904449 120.0
228.001358 316.0
228.053055 160.0
228.104736 132.0
228.141251 468.0
228.200653 80.0
228.230728 120.0
228.265366 116.0
228.291901 152.0
228.319183 68.0
228.354233 176.0
228.38913 180.0
228.424164 44.0
228.455109 100.0
228.504837 164.0
228.528305 212.0
228.56691 164.0
228.598114 100.0
228.626572 332.0
228.672791 276.0
228.706375 224.0
228.74321 168.0
228.782669 144.0
228.805466 164.0
228.828964 164.0
228.855362 144.0
228.876968 140.0
228.913879 104.0
228.948654 348.0
228.972488 200.0
229.017349 124.0
229.046417 84.0
229.074066 112.0
229.144333 1388.0
229.23735 228.0
229.272415 104.0
229.297836 92.0
229.358017 140.0
229.395935 104.0
229.437012 100.0
229.476089 224.0
229.496185 96.0
229.537735 80.0
229.561859 160.0
229.605286 60.0
229.649323 184.0
229.715698 188.0
229.763672 164.0
229.804199 228.0
229.835724 168.0
229.862671 96.0
229.913849 204.0
229.961349 92.0
229.993347 96.0
230.024078 132.0
230.066498 244.0
230.099915 200.0
230.150314 3068.0
230.211609 212.0
230.249527 336.0
230.288681 128.0
230.328476 164.0
230.359253 100.0
230.390182 256.0
230.441711 104.0
230.493607 224.0
230.530334 188.0
230.561234 192.0
230.589249 120.0
230.639084 132.0
230.67981 156.0
230.737625 104.0
230.763794 148.0
230.789978 212.0
230.810654 56.0
230.842209 120.0
230.862885 212.0
230.903458 164.0
230.943848 148.0
230.985626 252.0
231.020889 176.0
231.065918 148.0
231.070129 240.0
231.161026 2664.0
231.214569 64.0
231.282715 224.0
231.294724 240.0
231.338028 276.0
231.347763 112.0
231.409927 172.0
231.490311 160.0
231.530594 320.0
231.574249 112.0
231.638519 112.0
231.66275 196.0
231.68396 116.0
231.719818 108.0
231.787079 132.0
231.823349 108.0
231.870636 200.0
231.90123 100.0
231.930756 148.0
231.964615 100.0
231.995102 264.0
232.00441 116.0
232.013443 144.0
232.071442 48.0
232.08699 252.0
232.134521 1196.0
232.166901 836.0
232.240936 192.0
232.247406 228.0
232.280472 140.0
232.316437 132.0
232.325516 128.0
232.372253 116.0
232.398117 196.0
232.432953 148.0
232.455414 280.0
232.48584 324.0
232.556168 124.0
232.578537 360.0
232.628036 44.0
232.693848 104.0
232.746979 216.0
232.776001 168.0
232.807526 164.0
232.816589 132.0
232.86409 128.0
232.893631 120.0
232.958054 172.0
233.04039 376.0
233.082245 216.0
233.143829 640.0
233.166946 372.0
233.175034 544.0
233.233139 108.0
233.266541 208.0
233.326035 228.0
233.370255 224.0
233.408768 116.0
233.445404 204.0
233.475357 220.0
233.487549 252.0
233.541168 144.0
233.578796 76.0
233.6241 124.0
233.644012 124.0
233.680771 96.0
233.704544 240.0
233.766571 248.0
233.791168 120.0
233.822754 96.0
233.839844 272.0
233.844238 120.0
233.896332 312.0
233.931061 180.0
233.971085 152.0
234.000519 96.0
234.052811 140.0
234.092896 176.0
234.149002 188.0
234.172867 272.0
234.179993 340.0
234.212006 300.0
234.238434 128.0
234.263321 156.0
234.300964 220.0
234.321045 76.0
234.352875 304.0
234.412796 72.0
234.48027 144.0
234.53714 176.0
234.60199 180.0
234.653732 112.0
234.706894 128.0
234.73114 124.0
234.770294 232.0
234.793991 200.0
234.830338 244.0
234.880539 92.0
234.910614 124.0
234.950714 160.0
234.989105 136.0
235.029434 80.0
235.080002 172.0
235.096878 188.0
235.125519 112.0
235.160278 376.0
235.207947 88.0
235.24469 124.0
235.256195 148.0
235.265656 136.0
235.305206 104.0
235.353439 204.0
235.386017 156.0
235.424759 64.0
235.442673 144.0
235.462372 264.0
235.490326 104.0
235.521423 216.0
235.557556 148.0
235.583237 248.0
235.610779 180.0
235.62381 104.0
235.631516 164.0
235.679153 288.0
235.715958 112.0
235.758698 364.0
235.827927 120.0
235.864075 132.0
235.921829 256.0
235.948288 152.0
235.9758 96.0
236.00238 208.0
236.033905 256.0
236.054352 64.0
236.084198 96.0
236.127701 492.0
236.169647 116.0
236.23941 88.0
236.281693 136.0
236.368912 308.0
236.403412 160.0
236.411392 156.0
236.475433 72.0
236.509033 296.0
236.539032 164.0
236.580551 124.0
236.591843 132.0
236.604523 168.0
236.621048 92.0
236.658905 144.0
236.6922 272.0
236.735519 180.0
236.765594 176.0
236.785889 332.0
236.846878 148.0
236.864914 168.0
236.893738 240.0
236.930664 88.0
236.976913 168.0
237.009308 136.0
237.034363 268.0
237.061249 120.0
237.089783 128.0
237.114349 156.0
237.134003 112.0
237.161804 284.0
237.247101 140.0
237.322601 276.0
237.407059 88.0
237.451141 176.0
237.477478 168.0
237.525223 64.0
237.561096 260.0
237.591217 120.0
237.636063 164.0
237.671158 164.0
237.700256 148.0
237.709045 228.0
237.717346 172.0
237.762558 128.0
237.795654 112.0
237.849396 216.0
237.893692 152.0
237.919815 136.0
237.972702 252.0
238.032074 192.0
238.096558 208.0
238.124557 140.0
238.154922 208.0
238.207153 44.0
238.250259 140.0
238.275879 360.0
238.322906 172.0
238.369843 152.0
238.414062 24.0
238.468369 116.0
238.537994 188.0
238.579803 144.0
238.644852 108.0
238.684036 256.0
238.70578 260.0
238.758423 216.0
238.813995 108.0
238.82576 136.0
238.868149 84.0
238.891953 88.0
238.913223 104.0
238.943192 296.0
238.973206 156.0
238.999832 172.0
239.030457 144.0
239.085266 252.0
239.132599 180.0
239.185135 160.0
239.20668 228.0
239.254135 180.0
239.300949 160.0
239.332596 224.0
239.337662 200.0
239.353516 108.0
239.362625 168.0
239.398697 112.0
239.436295 124.0
239.464584 156.0
239.504639 104.0
239.513962 188.0
239.53392 204.0
239.559967 124.0
239.590363 184.0
239.627472 220.0
239.652664 160.0
239.677948 160.0
239.713669 240.0
239.739288 152.0
239.777481 272.0
239.808044 240.0
239.851944 128.0
239.875229 108.0
239.907669 168.0
239.964203 144.0
240.002029 128.0
240.049225 84.0
240.09108 124.0
240.11554 272.0
240.142334 100.0
240.176224 232.0
240.2061 84.0
240.239227 184.0
240.26503 124.0
240.2901 312.0
240.317184 208.0
240.390366 80.0
240.433563 92.0
240.470612 136.0
240.509003 164.0
240.535934 236.0
240.579697 144.0
240.631149 192.0
240.678329 116.0
240.753067 92.0
240.765305 204.0
240.802963 148.0
240.859924 172.0
240.887512 96.0
240.915314 160.0
240.946854 172.0
240.99646 192.0
241.040192 136.0
241.108871 272.0
241.146957 724.0
241.217255 180.0
241.270554 60.0
241.335602 276.0
241.387665 104.0
241.42868 288.0
241.460388 208.0
241.472488 244.0
241.527771 180.0
241.541672 108.0
241.549744 136.0
241.591476 128.0
241.631577 104.0
241.648987 248.0
241.700638 132.0
241.710022 164.0
241.75679 104.0
241.80484 176.0
241.861679 176.0
241.882721 348.0
241.907944 148.0
241.927277 156.0
241.944595 92.0
241.958298 136.0
241.99791 156.0
242.033264 212.0
242.056351 124.0
242.09082 80.0
242.156128 1360.0
242.237106 124.0
242.272949 96.0
242.293503 196.0
242.306534 152.0
242.341049 156.0
242.364777 124.0
242.416824 432.0
242.452667 280.0
242.479675 120.0
242.515137 140.0
242.540909 296.0
242.581635 92.0
242.610519 136.0
242.66655 180.0
242.712158 232.0
242.754486 148.0
242.804626 192.0
242.853058 308.0
242.896759 248.0
242.929718 96.0
242.963516 140.0
242.987122 160.0
243.023285 144.0
243.053314 212.0
243.080292 164.0
243.165817 9788.0
243.251053 164.0
243.265717 136.0
243.330551 188.0
243.353775 116.0
243.377869 48.0
243.430008 224.0
243.447021 104.0
243.469635 168.0
243.477051 96.0
243.487305 252.0
243.537811 120.0
243.580872 112.0
243.60083 168.0
243.645248 200.0
243.692703 192.0
243.719162 120.0
243.744446 108.0
243.773529 156.0
243.821259 100.0
243.855499 120.0
243.918182 172.0
243.962036 124.0
244.031525 188.0
244.069962 128.0
244.097565 168.0
244.13649 1140.0
244.172226 4388.0
244.225052 28.0
244.257492 208.0
244.290817 224.0
244.316605 112.0
244.360947 176.0
244.395157 112.0
244.456802 416.0
244.469803 100.0
244.47728 124.0
244.507294 164.0
244.562714 196.0
244.614792 168.0
244.658981 108.0
244.694183 156.0
244.789291 268.0
244.814682 108.0
244.836487 68.0
244.870056 152.0
244.874619 116.0
244.887878 52.0
244.946075 88.0
244.975388 116.0
245.027344 136.0
245.054565 104.0
245.084778 236.0
245.154465 1432.0
245.173477 1600.0
245.224518 344.0
245.263199 204.0
245.273941 228.0
245.30188 204.0
245.344437 152.0
245.371689 160.0
245.412582 304.0
245.442444 280.0
245.486496 188.0
245.519257 144.0
245.579453 168.0
245.603897 152.0
245.653214 116.0
245.689224 136.0
245.728333 108.0
245.75618 244.0
245.77623 208.0
245.823669 128.0
245.83429 156.0
245.865417 132.0
245.899673 168.0
245.922867 196.0
245.951019 104.0
245.991547 188.0
246.054077 228.0
246.108444 108.0
246.151779 528.0
246.230545 120.0
246.293808 104.0
246.337387 420.0
246.383331 104.0
246.430466 176.0
246.4664 316.0
246.491623 96.0
246.525497 92.0
246.558197 148.0
246.610352 140.0
246.655731 124.0
246.716934 264.0
246.781555 148.0
246.828217 96.0
246.861694 156.0
246.901413 232.0
246.911865 260.0
246.957321 236.0
246.970612 104.0
246.979172 236.0
247.015945 200.0
247.035522 136.0
247.102982 88.0
247.161789 2468.0
247.263519 68.0
247.329376 156.0
247.37529 116.0
247.409729 80.0
247.431641 96.0
247.471695 172.0
247.480743 124.0
247.490219 180.0
247.527496 228.0
247.590469 140.0
247.638184 124.0
247.666534 128.0
247.688568 124.0
247.730682 120.0
247.757401 112.0
247.810486 148.0
247.81752 164.0
247.859818 128.0
247.939163 52.0
247.986176 72.0
248.042603 172.0
248.077087 56.0
248.106033 240.0
248.165314 680.0
248.2258 160.0
248.259323 164.0
248.316498 280.0
248.383774 76.0
248.425049 148.0
248.479294 268.0
248.493835 152.0
248.498291 108.0
248.528122 236.0
248.538864 168.0
248.548798 292.0
248.587357 164.0
248.607666 424.0
248.676285 120.0
248.704529 64.0
248.739899 180.0
248.804916 108.0
248.857758 120.0
248.896057 160.0
248.940674 276.0
248.971436 76.0
248.993423 192.0
249.081665 108.0
249.101379 176.0
249.130142 192.0
249.165695 388.0
249.192474 328.0
249.213013 152.0
249.260315 76.0
249.291916 108.0
249.329636 40.0
249.370499 156.0
249.392502 180.0
249.436905 196.0
249.472946 176.0
249.493866 164.0
249.55368 300.0
249.580048 160.0
249.625183 216.0
249.647186 164.0
249.708191 152.0
249.745895 304.0
249.772552 188.0
249.803116 172.0
249.839401 120.0
249.896561 180.0
249.939224 216.0
249.984024 340.0
250.023911 104.0
250.068054 116.0
250.116989 280.0
250.170349 268.0
250.196671 276.0
250.249847 256.0
250.300293 216.0
250.393646 76.0
250.45607 336.0
250.479675 128.0
250.536606 104.0
250.561737 148.0
250.604706 80.0
250.67836 164.0
250.742905 128.0
250.783463 160.0
250.832993 328.0
250.879379 152.0
250.932556 228.0
250.963867 264.0
250.989319 156.0
251.045303 144.0
251.11673 84.0
251.151321 176.0
251.176361 164.0
251.201904 176.0
251.256989 184.0
251.313751 156.0
251.338837 200.0
251.393051 156.0
251.420471 196.0
251.496811 48.0
251.530396 232.0
251.569565 284.0
251.593964 124.0
251.605347 96.0
251.630783 224.0
251.656158 144.0
251.690613 116.0
251.793427 60.0
251.820847 248.0
251.857468 188.0
251.904205 128.0
251.93251 104.0
251.976456 120.0
252.001343 132.0
252.023697 244.0
252.068848 116.0
252.09816 128.0
252.136719 76.0
252.146545 140.0
252.157883 204.0
252.168243 128.0
252.229721 92.0
252.286957 236.0
252.384659 144.0
252.44635 324.0
252.509354 112.0
252.539627 148.0
252.590256 152.0
252.628372 164.0
252.690598 164.0
252.736359 204.0
252.791351 148.0
252.833084 184.0
252.865677 208.0
252.981873 112.0
253.016876 184.0
253.068192 84.0
253.15976 280.0
253.181656 172.0
253.215836 84.0
253.269592 184.0
253.31514 128.0
253.336746 244.0
253.369934 76.0
253.444641 124.0
253.476013 76.0
253.532349 300.0
253.574219 384.0
253.615692 268.0
253.66803 516.0
253.689972 248.0
253.720932 168.0
253.76886 172.0
253.804153 140.0
253.825912 204.0
253.856201 140.0
253.893738 140.0
253.942368 156.0
253.976715 172.0
254.012177 92.0
254.03302 80.0
254.061218 308.0
254.093964 152.0
254.16124 124.0
254.210983 192.0
254.258301 88.0
254.285019 184.0
254.330566 52.0
254.406021 272.0
254.457138 176.0
254.493164 192.0
254.533279 40.0
254.560837 148.0
254.621552 152.0
254.668839 80.0
254.741974 148.0
254.765228 240.0
254.81015 156.0
254.847778 116.0
254.920273 104.0
254.949478 136.0
255.000336 264.0
255.096954 300.0
255.16655 692.0
255.202774 140.0
255.268814 164.0
255.291519 160.0
255.359665 44.0
255.404053 144.0
255.440582 292.0
255.467514 84.0
255.510422 196.0
255.55545 148.0
255.609344 196.0
255.645294 104.0
255.681091 124.0
255.716049 188.0
255.752213 100.0
255.787979 252.0
255.89798 192.0
255.937439 172.0
255.980316 132.0
256.011139 188.0
256.036896 356.0
256.066315 76.0
256.104614 144.0
256.174896 1244.0
256.217834 128.0
256.238342 272.0
256.277924 184.0
256.312469 108.0
256.388275 232.0
256.434631 184.0
256.479126 204.0
256.508575 160.0
256.530579 164.0
256.607849 160.0
256.628784 160.0
256.662964 64.0
256.693848 252.0
256.742493 120.0
256.767059 152.0
256.780243 128.0
256.83136 88.0
256.855896 180.0
256.887695 112.0
256.928589 168.0
256.973846 208.0
257.01355 196.0
257.070618 216.0
257.149323 3848.0
257.241272 132.0
257.296478 128.0
257.335907 252.0
257.361877 160.0
257.384583 176.0
257.415497 56.0
257.442627 196.0
257.477661 260.0
257.531555 244.0
257.557678 320.0
257.609009 152.0
257.646942 204.0
257.694611 212.0
257.738159 88.0
257.777405 300.0
257.800293 144.0
257.821991 184.0
257.848022 140.0
257.872406 184.0
257.896606 152.0
257.930756 176.0
257.959045 272.0
257.991577 308.0
258.02124 260.0
258.061035 172.0
258.092987 120.0
258.156097 6312.0
258.237488 188.0
258.264557 120.0
258.294525 52.0
258.33136 308.0
258.355927 40.0
258.394958 384.0
258.42926 172.0
258.464081 92.0
258.54068 200.0
258.57605 184.0
258.597107 112.0
258.627563 116.0
258.677765 60.0
258.740234 196.0
258.776245 84.0
258.814941 100.0
258.853333 152.0
258.875671 160.0
258.898041 148.0
258.944763 124.0
258.993042 160.0
259.023804 204.0
259.035339 276.0
259.041199 172.0
259.075562 148.0
259.120056 344.0
259.165649 33188.0
259.24234 84.0
259.301086 104.0
259.32254 112.0
259.376404 128.0
259.410675 168.0
259.444458 268.0
259.46875 60.0
259.509918 224.0
259.559509 124.0
259.578766 304.0
259.614258 116.0
259.641266 376.0
259.665833 100.0
259.730621 204.0
259.772675 124.0
259.818298 204.0
259.875427 156.0
259.92334 260.0
259.948303 76.0
259.996063 200.0
260.037231 212.0
260.050476 92.0
260.063477 236.0
260.137817 1232.0
260.1698 8236.0
260.224182 148.0
260.262726 204.0
260.293091 192.0
260.352448 164.0
260.384583 100.0
260.432251 132.0
260.475891 212.0
260.498932 400.0
260.527588 164.0
260.569855 168.0
260.598877 192.0
260.67746 252.0
260.720428 184.0
260.757324 192.0
260.79068 348.0
260.821686 288.0
260.847198 104.0
260.919495 292.0
260.966278 168.0
261.01947 200.0
261.045166 164.0
261.089508 280.0
261.176697 1908.0
261.278015 140.0
261.31369 44.0
261.359253 128.0
261.402954 120.0
261.431152 140.0
261.480255 408.0
261.52005 208.0
261.563599 256.0
261.616852 104.0
261.66803 212.0
261.725372 160.0
261.75174 216.0
261.762329 132.0
261.78717 172.0
261.811493 428.0
261.85141 172.0
261.872345 108.0
261.926086 140.0
261.954437 136.0
261.996307 56.0
262.03241 184.0
262.112823 264.0
262.151306 352.0
262.183624 572.0
262.263824 52.0
262.299286 252.0
262.337128 168.0
262.371368 192.0
262.415344 140.0
262.484924 84.0
262.554443 232.0
262.591003 120.0
262.647369 304.0
262.69873 84.0
262.724304 224.0
262.749329 52.0
262.793243 164.0
262.867249 48.0
262.911041 184.0
262.955872 140.0
262.984375 200.0
263.02121 112.0
263.030182 64.0
263.042694 176.0
263.065582 156.0
263.103455 292.0
263.17218 176.0
263.211395 180.0
263.219818 184.0
263.279907 248.0
263.307556 80.0
263.373566 176.0
263.423981 432.0
263.448975 164.0
263.490479 52.0
263.519043 244.0
263.614014 92.0
263.639862 140.0
263.664734 220.0
263.700317 204.0
263.758484 132.0
263.794067 124.0
263.819916 76.0
263.871429 352.0
263.952484 60.0
264.00473 136.0
264.067719 180.0
264.072662 232.0
264.145416 360.0
264.190674 508.0
264.279053 140.0
264.312286 168.0
264.350922 128.0
264.444061 116.0
264.506378 292.0
264.531708 116.0
264.559784 148.0
264.578217 76.0
264.620758 144.0
264.651001 168.0
264.679901 52.0
264.705658 128.0
264.772369 124.0
264.794983 148.0
264.819 84.0
264.858795 136.0
264.905365 180.0
264.956909 164.0
264.984619 128.0
265.003754 288.0
265.037018 120.0
265.103577 132.0
265.142334 160.0
265.18222 144.0
265.243164 428.0
265.267151 32.0
265.302795 56.0
265.357941 96.0
265.404297 392.0
265.43689 116.0
265.514923 276.0
265.540009 168.0
265.547089 124.0
265.564026 184.0
265.569702 136.0
265.614716 228.0
265.645721 80.0
265.667419 168.0
265.693634 272.0
265.730194 156.0
265.764191 312.0
265.787689 148.0
265.833496 160.0
265.872162 204.0
265.901062 136.0
265.958282 96.0
265.984894 220.0
266.036072 108.0
266.108459 172.0
266.146454 164.0
266.19278 152.0
266.222534 132.0
266.24469 116.0
266.303314 204.0
266.350739 148.0
266.403076 140.0
266.43512 180.0
266.471313 72.0
266.503815 108.0
266.620789 124.0
266.65332 56.0
266.682556 136.0
266.721558 92.0
266.761108 300.0
266.785339 124.0
266.808594 52.0
266.831207 144.0
266.854889 152.0
266.88504 100.0
266.926422 116.0
266.949188 148.0
266.98053 144.0
267.009613 144.0
267.07431 68.0
267.094604 200.0
267.136566 324.0
267.198883 204.0
267.239349 124.0
267.277771 172.0
267.304077 252.0
267.318848 84.0
267.328979 184.0
267.362396 136.0
267.389313 148.0
267.422974 176.0
267.445831 76.0
267.479584 112.0
267.513428 172.0
267.547272 208.0
267.592621 144.0
267.629364 144.0
267.694489 144.0
267.755188 240.0
267.786285 176.0
267.820038 88.0
267.845245 216.0
267.895081 236.0
267.929047 36.0
267.98999 208.0
268.028107 216.0
268.056641 160.0
268.087616 72.0
268.153564 336.0
268.160156 252.0
268.184601 96.0
268.211334 232.0
268.265289 120.0
268.277557 112.0
268.30307 248.0
268.331635 140.0
268.3815 196.0
268.434296 48.0
268.47229 240.0
268.515198 164.0
268.54129 160.0
268.572113 96.0
268.606903 140.0
268.645142 176.0
268.679718 340.0
268.703491 208.0
268.75296 180.0
268.828857 196.0
268.833893 120.0
268.875427 160.0
268.917206 96.0
268.97641 120.0
268.998932 148.0
269.05542 192.0
269.115906 364.0
269.171783 156.0
269.247009 56.0
269.285461 144.0
269.294708 280.0
269.304535 136.0
269.320618 120.0
269.340454 204.0
269.382477 164.0
269.434692 176.0
269.498566 256.0
269.548615 272.0
269.602234 140.0
269.680359 204.0
269.720032 332.0
269.758057 132.0
269.795441 96.0
269.843658 148.0
269.923706 296.0
269.972595 124.0
270.013855 156.0
270.100647 108.0
270.108521 72.0
270.164551 1584.0
270.233459 324.0
270.293213 64.0
270.357788 188.0
270.397949 244.0
270.419678 160.0
270.453613 128.0
270.487091 224.0
270.5289 64.0
270.553192 260.0
270.614044 144.0
270.691803 112.0
270.730225 160.0
270.781128 252.0
270.796753 140.0
270.811035 140.0
270.839539 312.0
270.879028 120.0
270.890533 68.0
270.930634 168.0
270.955353 144.0
271.002563 212.0
271.039734 168.0
271.052521 220.0
271.091125 108.0
271.167999 10972.0
271.274353 76.0
271.308167 176.0
271.33963 392.0
271.379303 128.0
271.418549 132.0
271.456451 68.0
271.506012 184.0
271.562073 200.0
271.595795 176.0
271.632965 252.0
271.653076 172.0
271.703918 96.0
271.771393 180.0
271.839142 136.0
271.845856 96.0
271.86853 104.0
271.935669 104.0
271.978638 60.0
271.999969 40.0
272.020081 180.0
272.057281 228.0
272.093597 208.0
272.176636 24744.0
272.229462 124.0
272.235596 240.0
272.274536 292.0
272.31778 100.0
272.34787 148.0
272.381317 116.0
272.408844 252.0
272.455261 208.0
272.53363 100.0
272.565735 396.0
272.60849 164.0
272.615387 260.0
272.655853 252.0
272.732117 180.0
272.753082 96.0
272.795471 72.0
272.838409 200.0
272.842834 64.0
272.872498 168.0
272.905762 120.0
272.935822 168.0
272.971466 144.0
272.994263 264.0
273.02478 248.0
273.054016 140.0
273.078888 296.0
273.104736 488.0
273.185425 75200.0
273.249023 148.0
273.296906 172.0
273.35553 300.0
273.37616 200.0
273.409119 196.0
273.442322 120.0
273.481262 148.0
273.508331 124.0
273.560486 336.0
273.570251 284.0
273.594238 104.0
273.636017 92.0
273.669373 232.0
273.730988 196.0
273.757538 244.0
273.783752 116.0
273.810394 104.0
273.850372 152.0
273.88446 328.0
273.943329 204.0
273.973022 52.0
274.023529 268.0
274.031158 168.0
274.05722 236.0
274.09314 128.0
274.190979 20288.0
274.265808 316.0
274.277496 120.0
274.288666 196.0
274.314789 260.0
274.387787 160.0
274.450897 328.0
274.505707 172.0
274.553528 96.0
274.574036 52.0
274.580872 64.0
274.590576 68.0
274.632294 84.0
274.675873 156.0
274.709534 76.0
274.752258 96.0
274.779907 144.0
274.835724 212.0
274.864258 108.0
274.874146 288.0
274.897766 184.0
274.97818 132.0
275.006195 156.0
275.062866 260.0
275.074921 96.0
275.100006 320.0
275.164429 19872.0
275.257477 80.0
275.28479 60.0
275.292847 68.0
275.323853 184.0
275.362427 52.0
275.390778 108.0
275.477081 192.0
275.527466 120.0
275.596222 248.0
275.676086 196.0
275.714478 152.0
275.72937 148.0
275.734833 128.0
275.76593 108.0
275.795166 248.0
275.840973 96.0
275.891724 160.0
275.923218 152.0
275.959045 148.0
275.98291 164.0
276.005249 144.0
276.035278 88.0
276.058777 200.0
276.078339 180.0
276.169464 3980.0
276.242767 156.0
276.293152 480.0
276.318085 124.0
276.363831 316.0
276.417542 112.0
276.463837 196.0
276.518005 324.0
276.54953 232.0
276.590881 100.0
276.630341 160.0
276.669373 252.0
276.715759 120.0
276.744232 152.0
276.7724 204.0
276.802979 140.0
276.869202 328.0
276.907928 292.0
276.959015 200.0
276.99826 220.0
277.041016 212.0
277.066956 120.0
277.099854 228.0
277.106171 132.0
277.130341 176.0
277.16864 668.0
277.231415 284.0
277.279999 84.0
277.287628 124.0
277.325928 56.0
277.364288 84.0
277.422241 60.0
277.466492 44.0
277.498993 252.0
277.566772 136.0
277.616852 160.0
277.697998 172.0
277.738495 108.0
277.767609 304.0
277.819122 172.0
277.8526 84.0
277.897919 148.0
277.911255 140.0
277.940399 128.0
278.013885 220.0
278.071686 104.0
278.105408 128.0
278.158539 256.0
278.182068 188.0
278.270935 172.0
278.320862 136.0
278.383087 208.0
278.424835 100.0
278.456268 256.0
278.483551 72.0
278.508087 84.0
278.549988 88.0
278.620026 164.0
278.661621 128.0
278.700439 380.0
278.729431 164.0
278.767639 112.0
278.79837 148.0
278.819183 180.0
278.855927 332.0
278.882904 208.0
278.920044 104.0
278.979889 248.0
279.021973 136.0
279.055359 88.0
279.106354 72.0
279.15564 144.0
279.213562 156.0
279.248108 280.0
279.296692 288.0
279.320343 116.0
279.420288 132.0
279.473846 180.0
279.480652 152.0
279.508972 248.0
279.550903 76.0
279.580963 124.0
279.621033 160.0
279.674042 168.0
279.702271 92.0
279.733002 184.0
279.769592 164.0
279.83255 140.0
279.867615 192.0
279.895172 108.0
279.973969 184.0
280.00177 136.0
280.016052 108.0
280.028748 140.0
280.041504 128.0
280.054718 164.0
280.078735 100.0
280.150146 272.0
280.189117 196.0
280.244415 148.0
280.280518 316.0
280.324982 160.0
280.335815 172.0
280.34436 152.0
280.370239 136.0
280.400238 44.0
280.433472 124.0
280.486908 100.0
280.547913 200.0
280.583344 364.0
280.622437 400.0
280.691467 164.0
280.705933 52.0
280.711731 92.0
280.743408 108.0
280.785126 112.0
280.827148 156.0
280.914246 352.0
280.97287 136.0
280.980377 96.0
281.001251 320.0
281.036316 204.0
281.126007 208.0
281.165466 228.0
281.189667 172.0
281.221375 168.0
281.242706 180.0
281.267456 132.0
281.277863 172.0
281.293365 148.0
281.360352 188.0
281.386536 144.0
281.4104 128.0
281.46106 100.0
281.506561 152.0
281.553345 184.0
281.594482 132.0
281.627716 136.0
281.66217 236.0
281.692688 108.0
281.744904 284.0
281.784149 136.0
281.828796 208.0
281.938904 180.0
281.989471 112.0
282.017609 144.0
282.040863 132.0
282.107361 96.0
282.162262 368.0
282.214081 108.0
282.243195 132.0
282.266602 52.0
282.293365 112.0
282.319916 428.0
282.409454 108.0
282.415894 76.0
282.473999 36.0
282.509399 436.0
282.567688 112.0
282.597809 232.0
282.62265 104.0
282.6492 144.0
282.715454 156.0
282.751312 120.0
282.783936 228.0
282.818695 84.0
282.855896 124.0
282.896729 148.0
282.918427 152.0
282.951019 200.0
282.996857 164.0
283.037048 112.0
283.067047 120.0
283.175995 556.0
283.233948 68.0
283.266235 200.0
283.307648 188.0
283.369141 208.0
283.423004 156.0
283.494232 172.0
283.55191 104.0
283.59198 128.0
283.636108 124.0
283.664154 164.0
283.696533 140.0
283.726624 168.0
283.760162 168.0
283.785309 144.0
283.814331 328.0
283.8573 124.0
283.887604 208.0
283.929352 352.0
283.971436 160.0
284.029297 132.0
284.070221 424.0
284.137909 192.0
284.175293 424.0
284.227478 64.0
284.270569 132.0
284.307068 212.0
284.340546 136.0
284.413544 172.0
284.436554 100.0
284.478455 208.0
284.509369 124.0
284.551575 164.0
284.563385 140.0
284.572571 164.0
284.626648 148.0
284.688812 264.0
284.73233 100.0
284.760803 168.0
284.79483 224.0
284.832916 128.0
284.891296 80.0
284.934082 240.0
284.971863 148.0
285.051392 312.0
285.087372 160.0
285.101013 120.0
285.156006 1120.0
285.190216 1000.0
285.235931 140.0
285.268799 284.0
285.296448 72.0
285.327148 284.0
285.35675 244.0
285.367188 212.0
285.380249 144.0
285.420685 204.0
285.458282 188.0
285.478607 176.0
285.519836 132.0
285.614044 168.0
285.645691 320.0
285.680542 172.0
285.705231 244.0
285.749969 224.0
285.789703 176.0
285.837463 128.0
285.867615 96.0
285.895477 104.0
285.969513 160.0
285.991394 180.0
286.019043 208.0
286.061493 180.0
286.089691 208.0
286.114532 328.0
286.159973 3528.0
286.229553 228.0
286.289246 380.0
286.338684 188.0
286.400818 168.0
286.44931 248.0
286.491608 240.0
286.524963 120.0
286.554932 196.0
286.596039 488.0
286.64917 408.0
286.676239 104.0
286.733185 312.0
286.790192 172.0
286.820251 160.0
286.869354 252.0
286.906006 212.0
286.936096 304.0
286.961884 312.0
287.036835 240.0
287.074554 248.0
287.089447 208.0
287.095642 224.0
287.169617 129800.0
287.23999 92.0
287.275543 164.0
287.319122 112.0
287.356018 188.0
287.389099 144.0
287.44223 216.0
287.476257 388.0
287.50473 180.0
287.53067 180.0
287.540527 132.0
287.601501 268.0
287.652618 108.0
287.678925 76.0
287.689392 96.0
287.723267 624.0
287.752014 180.0
287.785309 272.0
287.811676 168.0
287.833801 152.0
287.872375 264.0
287.877228 308.0
287.913147 276.0
287.970276 140.0
288.014679 136.0
288.05127 132.0
288.090424 292.0
288.173004 28092.0
288.276947 72.0
288.296417 176.0
288.344635 412.0
288.383911 352.0
288.457825 104.0
288.50528 172.0
288.519257 260.0
288.558685 164.0
288.606079 308.0
288.631775 64.0
288.689026 216.0
288.734497 132.0
288.794037 192.0
288.808197 132.0
288.831665 324.0
288.879089 192.0
288.91684 376.0
288.956299 144.0
288.989075 148.0
289.009827 144.0
289.042572 136.0
289.088043 172.0
289.183624 19360.0
289.257782 120.0
289.267517 104.0
289.27771 72.0
289.322815 260.0
289.345825 208.0
289.415863 264.0
289.429138 132.0
289.482056 208.0
289.519501 260.0
289.55191 92.0
289.601135 232.0
289.628204 160.0
289.651764 80.0
289.684906 280.0
289.733795 260.0
289.800507 336.0
289.867889 92.0
289.913757 352.0
289.955841 176.0
290.011597 344.0
290.051819 276.0
290.073212 144.0
290.102448 196.0
290.190826 12052.0
290.27832 60.0
290.308563 196.0
290.348755 264.0
290.386841 300.0
290.465149 76.0
290.472321 72.0
290.510101 228.0
290.545959 148.0
290.59671 164.0
290.628113 108.0
290.639221 136.0
290.714783 136.0
290.739624 232.0
290.786163 252.0
290.83609 184.0
290.885254 152.0
290.932953 192.0
290.995483 160.0
291.033142 120.0
291.061188 132.0
291.067596 124.0
291.135345 244.0
291.195862 1484.0
291.258331 144.0
291.283569 268.0
291.341003 164.0
291.390533 108.0
291.414215 176.0
291.473969 120.0
291.517273 128.0
291.609558 160.0
291.617706 92.0
291.677124 136.0
291.717865 128.0
291.746216 144.0
291.769745 168.0
291.778351 132.0
291.791992 172.0
291.805359 132.0
291.832123 52.0
291.888794 80.0
291.917542 96.0
291.931946 76.0
291.947876 76.0
291.957642 108.0
292.007294 296.0
292.029633 96.0
292.058105 184.0
292.119781 116.0
292.173035 244.0
292.192627 248.0
292.234863 124.0
292.293335 64.0
292.318848 52.0
292.328644 132.0
292.393555 216.0
292.442444 160.0
292.48407 56.0
292.53064 136.0
292.589478 100.0
292.687103 128.0
292.697906 80.0
292.713196 192.0
292.742645 268.0
292.789429 284.0
292.854248 160.0
292.882599 140.0
292.920105 240.0
292.942474 220.0
292.98056 108.0
293.02652 136.0
293.057159 224.0
293.088745 128.0
293.151337 308.0
293.185974 244.0
293.223175 192.0
293.268982 176.0
293.314178 80.0
293.328552 120.0
293.33429 176.0
293.351685 120.0
293.361359 168.0
293.411469 196.0
293.463898 152.0
293.519836 184.0
293.54718 156.0
293.633087 152.0
293.663727 96.0
293.696075 104.0
293.725311 240.0
293.758667 268.0
293.798584 136.0
293.83316 96.0
293.904266 180.0
293.918121 220.0
293.970062 120.0
294.040771 164.0
294.060089 128.0
294.117004 212.0
294.166779 60.0
294.195343 144.0
294.240479 172.0
294.285583 184.0
294.373108 148.0
294.401672 232.0
294.45047 260.0
294.485809 92.0
294.520508 104.0
294.575836 292.0
294.626678 116.0
294.692535 140.0
294.755096 144.0
294.800171 180.0
294.892853 144.0
294.942657 192.0
295.001404 216.0
295.010406 176.0
295.077362 164.0
295.102386 80.0
295.150574 236.0
295.180298 64.0
295.222168 100.0
295.249023 160.0
295.291351 156.0
295.341187 240.0
295.41864 148.0
295.486359 216.0
295.515045 208.0
295.540466 312.0
295.62442 128.0
295.66983 164.0
295.694183 136.0
295.715454 152.0
295.775879 156.0
295.810913 152.0
295.870453 200.0
295.899658 220.0
295.941345 132.0
295.973633 108.0
296.007874 276.0
296.043549 176.0
296.079102 152.0
296.134094 92.0
296.170837 272.0
296.231384 356.0
296.256653 336.0
296.299072 132.0
296.33548 172.0
296.40741 244.0
296.453278 160.0
296.497833 140.0
296.545807 128.0
296.574646 88.0
296.605774 112.0
296.630524 192.0
296.672668 188.0
296.705383 132.0
296.798126 276.0
296.861267 108.0
296.909271 128.0
296.938385 168.0
296.967926 116.0
297.02832 196.0
297.043915 128.0
297.070526 212.0
297.095673 96.0
297.129944 116.0
297.17865 312.0
297.228241 172.0
297.274841 292.0
297.288513 404.0
297.335022 160.0
297.370087 188.0
297.408142 196.0
297.46521 52.0
297.56189 308.0
297.609406 200.0
297.642731 68.0
297.697113 272.0
297.731598 284.0
297.763824 116.0
297.795105 232.0
297.8255 192.0
297.865997 188.0
297.894287 204.0
297.947327 108.0
297.975708 180.0
298.003357 124.0
298.030609 208.0
298.090149 124.0
298.122986 200.0
298.185089 536.0
298.251923 124.0
298.287323 376.0
298.34079 296.0
298.374573 124.0
298.397491 260.0
298.434418 160.0
298.460541 260.0
298.510101 44.0
298.545624 48.0
298.579163 196.0
298.622711 96.0
298.6474 368.0
298.687744 140.0
298.735992 176.0
298.768341 260.0
298.799744 320.0
298.837128 256.0
298.886322 144.0
298.917908 148.0
298.928894 84.0
298.949097 212.0
299.034424 240.0
299.06723 288.0
299.194672 7008.0
299.250885 136.0
299.284271 120.0
299.315125 108.0
299.364136 124.0
299.388519 216.0
299.423279 268.0
299.449158 252.0
299.472473 192.0
299.495209 268.0
299.528564 160.0
299.564789 248.0
299.595398 168.0
299.647186 348.0
299.670044 236.0
299.708679 212.0
299.736664 220.0
299.764679 272.0
299.832367 156.0
299.892609 232.0
299.949829 180.0
300.014954 308.0
300.026703 236.0
300.044556 264.0
300.063263 116.0
300.089447 316.0
300.102478 356.0
300.129974 320.0
300.180878 38892.0
300.292694 192.0
300.341125 64.0
300.369781 476.0
300.432281 168.0
300.497864 504.0
300.575439 288.0
300.598938 188.0
300.6138 320.0
300.689789 284.0
300.763367 336.0
300.79306 360.0
300.863281 184.0
300.898682 220.0
300.945221 436.0
300.990753 236.0
301.044281 392.0
301.102692 312.0
301.188965 102776.0
301.296295 88.0
301.321686 512.0
301.351471 272.0
301.389496 208.0
301.418793 264.0
301.4505 220.0
301.47168 128.0
301.520355 48.0
301.528534 104.0
301.567322 344.0
301.605072 340.0
301.628174 504.0
301.642639 732.0
301.669739 704.0
301.711945 444.0
301.720062 404.0
301.752777 788.0
301.805115 764.0
301.848053 580.0
301.88031 336.0
301.922211 416.0
301.954193 660.0
301.997559 916.0
302.047546 892.0
302.062347 1144.0
302.094391 980.0
302.198364 420316.0
302.311066 452.0
302.379486 96.0
302.429138 608.0
302.516998 1244.0
302.554626 444.0
302.585907 332.0
302.634949 644.0
302.672852 496.0
302.720856 808.0
302.771606 8992.0
302.863251 192.0
302.874817 244.0
302.925385 412.0
302.950745 232.0
302.960754 252.0
302.983765 464.0
303.023315 556.0
303.069427 576.0
303.171234 59356.0
303.200836 153320.0
303.324524 220.0
303.339264 324.0
303.345703 296.0
303.361115 188.0
303.395294 136.0
303.4104 220.0
303.454529 144.0
303.493042 304.0
303.534576 452.0
303.602692 132.0
303.650482 284.0
303.710571 252.0
303.7724 228.0
303.822296 416.0
303.887085 328.0
303.911774 364.0
303.981598 172.0
304.036407 200.0
304.080048 272.0
304.11731 368.0
304.173157 14500.0
304.204376 18020.0
304.263153 136.0
304.324951 92.0
304.371063 260.0
304.419098 288.0
304.430511 300.0
304.441864 80.0
304.50061 224.0
304.554596 208.0
304.593323 252.0
304.630798 212.0
304.679321 280.0
304.705719 196.0
304.78183 380.0
304.842804 304.0
304.910675 472.0
304.949493 220.0
305.006317 284.0
305.012482 340.0
305.057312 340.0
305.091888 220.0
305.120026 472.0
305.187622 2044.0
305.26651 244.0
305.281281 224.0
305.293457 388.0
305.307465 292.0
305.346741 440.0
305.376831 484.0
305.414612 412.0
305.473969 380.0
305.548615 164.0
305.557617 200.0
305.588318 276.0
305.643463 128.0
305.672211 136.0
305.721954 76.0
305.79538 116.0
305.801025 140.0
305.872131 96.0
305.945404 196.0
305.957306 148.0
305.988983 668.0
306.057343 384.0
306.080933 104.0
306.094574 76.0
306.149292 172.0
306.185211 608.0
306.263153 172.0
306.285278 88.0
306.341095 188.0
306.395599 240.0
306.431915 124.0
306.459656 280.0
306.514862 96.0
306.548004 160.0
306.581909 204.0
306.668152 192.0
306.712738 48.0
306.717926 72.0
306.725098 76.0
306.7724 404.0
306.831268 204.0
306.892914 108.0
306.946625 132.0
306.97818 244.0
307.03717 88.0
307.06662 172.0
307.121857 96.0
307.156616 144.0
307.200684 428.0
307.255157 132.0
307.273193 136.0
307.312531 104.0
307.344055 88.0
307.402222 92.0
307.452393 104.0
307.484711 276.0
307.519989 88.0
307.547974 68.0
307.587952 48.0
307.600861 60.0
307.625336 140.0
307.658112 120.0
307.667511 128.0
307.705841 160.0
307.731689 144.0
307.765198 148.0
307.813263 148.0
307.857422 56.0
307.910828 244.0
307.95462 140.0
307.997406 48.0
308.02655 144.0
308.057922 116.0
308.135437 192.0
308.177368 192.0
308.223297 164.0
308.262695 48.0
308.283295 116.0
308.312775 180.0
308.360565 48.0
308.412994 48.0
308.489227 224.0
308.520905 60.0
308.55484 112.0
308.628998 112.0
308.676483 172.0
308.705109 88.0
308.790649 132.0
308.872223 180.0
308.911865 80.0
308.951569 64.0
308.99707 80.0
309.055389 96.0
309.095032 32.0
309.139954 120.0
309.190216 140.0
309.224548 104.0
309.272369 176.0
309.32605 204.0
309.429749 124.0
309.466125 76.0
309.520447 232.0
309.61441 136.0
309.652313 272.0
309.68158 48.0
309.711304 56.0
309.742828 40.0
309.839569 148.0
309.887695 196.0
309.939026 48.0
309.986206 104.0
310.047699 84.0
310.09021 88.0
310.159943 160.0
310.190674 204.0
310.249969 220.0
310.281464 124.0
310.325653 128.0
310.356201 56.0
310.401794 28.0
310.429657 72.0
310.491241 56.0
310.542084 268.0
310.596558 76.0
310.690369 276.0
310.734833 204.0
310.774231 72.0
310.825806 116.0
310.860138 168.0
310.924561 344.0
310.977325 140.0
311.090546 192.0
311.117645 76.0
311.159088 260.0
311.203156 148.0
311.286438 116.0
311.32309 96.0
311.363464 132.0
311.388062 48.0
311.44458 172.0
311.487701 172.0
311.55307 152.0
311.598846 124.0
311.670166 108.0
311.709412 156.0
311.73941 140.0
311.774567 60.0
311.82196 100.0
311.876495 40.0
311.928833 68.0
311.964386 128.0
312.02417 116.0
312.048767 60.0
312.098663 108.0
312.135315 92.0
312.171265 212.0
312.214081 128.0
312.242218 76.0
312.285858 116.0
312.331665 112.0
312.357452 84.0
312.389954 104.0
312.442352 152.0
312.477448 148.0
312.490326 76.0
312.49826 144.0
312.530701 104.0
312.579956 40.0
312.632751 128.0
312.784119 124.0
312.854553 92.0
312.888123 112.0
312.937042 120.0
312.980255 176.0
313.045227 160.0
313.083435 92.0
313.160004 200.0
313.183197 136.0
313.232422 188.0
313.279297 100.0
313.324524 144.0
313.374268 40.0
313.421112 156.0
313.454193 120.0
313.504608 120.0
313.558502 160.0
313.59787 28.0
313.636353 132.0
313.707184 108.0
313.755859 128.0
313.769775 120.0
313.818024 104.0
313.840057 128.0
313.888428 80.0
313.963409 144.0
314.021027 92.0
314.107788 144.0
314.187561 4284.0
314.234253 252.0
314.269073 120.0
314.293732 124.0
314.322876 108.0
314.363281 68.0
314.405975 124.0
314.470886 208.0
314.49942 120.0
314.540344 396.0
314.574036 160.0
314.605652 272.0
314.671692 44.0
314.783813 176.0
314.850525 68.0
314.891876 132.0
314.932465 224.0
314.975067 140.0
315.010773 88.0
315.061493 56.0
315.125763 264.0
315.192047 1156.0
315.263245 188.0
315.29718 108.0
315.320404 192.0
315.337402 76.0
315.345062 184.0
315.375824 164.0
315.407349 116.0
315.475677 168.0
315.518433 28.0
315.553802 68.0
315.586426 160.0
315.651855 204.0
315.681122 80.0
315.734528 136.0
315.767517 256.0
315.813751 108.0
315.849792 116.0
315.858673 80.0
315.901825 184.0
315.938263 164.0
316.036957 116.0
316.112244 116.0
316.202118 1064.0
316.290863 148.0
316.320068 168.0
316.366547 80.0
316.394318 184.0
316.425568 140.0
316.47937 160.0
316.520477 88.0
316.561127 160.0
316.570099 196.0
316.604614 56.0
316.655548 172.0
316.723999 208.0
316.731232 136.0
316.762726 136.0
316.81842 260.0
316.883331 148.0
316.92984 88.0
316.942108 64.0
316.951447 100.0
316.99527 124.0
317.022339 184.0
317.060516 280.0
317.092834 96.0
317.122223 176.0
317.188751 7212.0
317.274078 172.0
317.321808 108.0
317.348114 288.0
317.386414 132.0
317.421143 216.0
317.451385 160.0
317.490173 116.0
317.517578 40.0
317.572754 132.0
317.641815 272.0
317.678375 160.0
317.702118 116.0
317.756348 140.0
317.786072 84.0
317.805542 156.0
317.839783 88.0
317.907837 100.0
317.953644 220.0
317.986755 180.0
318.021667 436.0
318.072845 256.0
318.104279 360.0
318.197235 98972.0
318.280914 100.0
318.294861 152.0
318.322693 304.0
318.391205 184.0
318.445496 60.0
318.462585 52.0
318.487854 136.0
318.51062 320.0
318.535675 328.0
318.559082 320.0
318.611603 196.0
318.650726 152.0
318.691956 172.0
318.746918 200.0
318.780243 300.0
318.845001 100.0
318.881256 132.0
318.908936 164.0
318.991791 116.0
319.074738 116.0
319.10675 148.0
319.200073 27852.0
319.274597 48.0
319.312592 144.0
319.350952 64.0
319.379395 108.0
319.416962 88.0
319.448059 120.0
319.489075 184.0
319.542969 52.0
319.5784 36.0
319.614716 52.0
319.646027 92.0
319.701965 56.0
319.761108 76.0
319.815918 124.0
319.845367 56.0
319.880371 88.0
319.911255 144.0
319.935913 220.0
320.032959 188.0
320.091309 168.0
320.09845 136.0
320.141968 200.0
320.202057 4460.0
320.278473 172.0
320.309509 60.0
320.347382 164.0
320.390442 188.0
320.42746 28.0
320.491669 172.0
320.545166 136.0
320.61145 108.0
320.639496 176.0
320.650085 76.0
320.685577 108.0
320.710693 60.0
320.74823 36.0
320.786377 136.0
320.811096 152.0
320.860901 80.0
320.954681 124.0
320.967499 80.0
320.986481 152.0
320.991913 152.0
321.019226 132.0
321.064362 256.0
321.122284 380.0
321.182739 924.0
321.26535 160.0
321.310852 232.0
321.392365 180.0
321.40213 244.0
321.449615 168.0
321.550293 76.0
321.588928 108.0
321.618073 96.0
321.672607 112.0
321.715057 56.0
321.760742 116.0
321.794189 100.0
321.860931 124.0
321.893616 136.0
321.920502 76.0
321.96759 180.0
322.034698 188.0
322.082275 216.0
322.124359 124.0
322.179718 276.0
322.20459 288.0
322.28302 36.0
322.341522 96.0
322.375916 180.0
322.43808 148.0
322.468872 36.0
322.497467 80.0
322.534882 60.0
322.561798 68.0
322.618622 172.0
322.711975 32.0
322.740601 156.0
322.776825 120.0
322.804047 172.0
322.844116 108.0
322.864624 132.0
322.935699 72.0
323.052765 216.0
323.083984 96.0
323.11618 56.0
323.173431 276.0
323.218658 100.0
323.262909 132.0
323.305847 140.0
323.330902 112.0
323.3815 128.0
323.426086 136.0
323.507904 72.0
323.558655 116.0
323.588776 132.0
323.662567 120.0
323.734711 116.0
323.774902 120.0
323.81073 60.0
323.835785 104.0
323.871613 112.0
323.937195 92.0
323.960419 132.0
323.99939 84.0
324.062592 132.0
324.1409 128.0
324.226349 52.0
324.258606 140.0
324.286499 36.0
324.330322 84.0
324.36615 60.0
324.418915 56.0
324.507721 48.0
324.545441 192.0
324.617706 188.0
324.674561 152.0
324.727448 96.0
324.791809 96.0
324.824493 144.0
324.961548 96.0
324.993866 68.0
325.034576 148.0
325.148193 160.0
325.230743 152.0
325.29895 100.0
325.32251 76.0
325.404907 132.0
325.49054 180.0
325.520325 260.0
325.563629 124.0
325.654083 88.0
325.735199 136.0
325.760132 108.0
325.798187 84.0
325.837708 136.0
325.916565 144.0
325.95517 64.0
326.064117 160.0
326.108459 192.0
326.192413 1052.0
326.254639 144.0
326.281891 124.0
326.291199 72.0
326.319489 224.0
326.376892 192.0
326.400238 156.0
326.452423 136.0
326.477234 112.0
326.520782 160.0
326.543793 120.0
326.581909 132.0
326.64032 160.0
326.682648 80.0
326.711426 72.0
326.747406 72.0
326.790588 168.0
326.838531 100.0
326.869781 92.0
326.920166 72.0
326.988556 112.0
327.017334 40.0
327.080109 92.0
327.198578 2844.0
327.250092 148.0
327.305389 184.0
327.347412 156.0
327.405548 124.0
327.438629 172.0
327.464874 84.0
327.508698 160.0
327.55011 76.0
327.583679 60.0
327.665588 136.0
327.718292 112.0
327.759308 112.0
327.799194 116.0
327.834991 160.0
327.897736 88.0
327.924225 148.0
327.950317 84.0
328.018524 156.0
328.071045 116.0
328.098145 44.0
328.12738 72.0
328.202026 860.0
328.261932 160.0
328.291962 32.0
328.338593 124.0
328.454376 176.0
328.482727 76.0
328.530945 152.0
328.561066 116.0
328.665253 92.0
328.700562 200.0
328.747467 164.0
328.813873 128.0
328.895477 88.0
328.976044 76.0
329.002167 152.0
329.027893 100.0
329.081055 120.0
329.132843 156.0
329.18335 308.0
329.267731 88.0
329.303528 160.0
329.33963 136.0
329.382996 52.0
329.486053 76.0
329.53476 96.0
329.560028 124.0
329.618164 256.0
329.710785 324.0
329.74585 176.0
329.776886 200.0
329.802185 108.0
329.827515 168.0
329.861786 140.0
329.902679 128.0
329.920685 52.0
329.927124 116.0
330.002258 76.0
330.072662 120.0
330.078735 108.0
330.187805 7408.0
330.315735 36.0
330.354614 56.0
330.43335 124.0
330.475098 136.0
330.523682 68.0
330.579865 112.0
330.655884 60.0
330.702789 48.0
330.737854 132.0
330.763214 100.0
330.836304 120.0
330.958435 36.0
330.988983 100.0
331.075897 352.0
331.135223 180.0
331.191833 1508.0
331.283051 160.0
331.342346 80.0
331.398773 192.0
331.459747 112.0
331.524567 236.0
331.577576 176.0
331.648071 156.0
331.72702 272.0
331.732452 308.0
331.763214 216.0
331.824677 160.0
331.856323 148.0
331.889526 224.0
331.932648 164.0
331.977112 204.0
331.988922 88.0
332.004791 296.0
332.062439 176.0
332.091187 208.0
332.177155 964.0
332.216919 4140.0
332.282867 188.0
332.3349 96.0
332.379272 268.0
332.405212 232.0
332.462982 184.0
332.509888 188.0
332.543121 264.0
332.58725 436.0
332.662109 552.0
332.723511 420.0
332.787079 560.0
332.829285 468.0
332.840607 196.0
332.883881 264.0
332.912048 304.0
332.964111 464.0
333.009003 452.0
333.032471 836.0
333.056488 480.0
333.069519 328.0
333.097107 616.0
333.146606 456.0
333.226013 336588.0
333.304413 116.0
333.332245 180.0
333.36499 192.0
333.467224 412.0
333.539307 188.0
333.566101 344.0
333.605652 240.0
333.655396 172.0
333.699615 172.0
333.761047 312.0
333.785187 168.0
333.824738 3232.0
333.882202 424.0
333.955444 252.0
334.030029 160.0
334.060791 312.0
334.118958 292.0
334.22821 104836.0
334.34024 112.0
334.382721 144.0
334.405945 136.0
334.459564 156.0
334.496185 244.0
334.509766 168.0
334.577454 216.0
334.617188 52.0
334.661102 192.0
334.72348 92.0
334.768402 196.0
334.8284 160.0
334.869537 136.0
334.901367 76.0
334.953613 100.0
334.979614 120.0
335.018158 184.0
335.075867 252.0
335.116272 56.0
335.231049 9956.0
335.297272 176.0
335.323334 172.0
335.337372 256.0
335.352997 128.0
335.362305 92.0
335.42923 196.0
335.493896 216.0
335.533173 140.0
335.609833 116.0
335.647583 64.0
335.69104 92.0
335.747986 48.0
335.820709 92.0
335.884369 96.0
335.918579 164.0
335.964661 268.0
336.005371 116.0
336.064606 272.0
336.13501 376.0
336.233643 1096.0
336.304962 364.0
336.363312 156.0
336.438538 324.0
336.476898 228.0
336.484802 488.0
336.499115 352.0
336.519257 164.0
336.527252 180.0
336.57724 336.0
336.64859 136.0
336.727356 224.0
336.756836 100.0
336.783142 84.0
336.828979 244.0
336.885986 112.0
336.926483 168.0
336.954742 88.0
336.978119 148.0
337.00531 84.0
337.047882 148.0
337.088074 140.0
337.126617 96.0
337.199524 220.0
337.211273 84.0
337.226532 108.0
337.236511 116.0
337.278412 136.0
337.322174 64.0
337.374329 120.0
337.416138 276.0
337.482758 228.0
337.509033 152.0
337.546997 140.0
337.614716 128.0
337.66568 92.0
337.71936 124.0
337.755554 100.0
337.811096 156.0
337.85434 52.0
337.901581 188.0
337.934814 100.0
337.96521 144.0
338.038849 28.0
338.062744 120.0
338.10318 28.0
338.154694 156.0
338.215271 180.0
338.330811 112.0
338.397278 72.0
338.425354 52.0
338.450989 204.0
338.480286 104.0
338.524048 80.0
338.573547 180.0
338.612122 84.0
338.658539 88.0
338.717682 128.0
338.747101 128.0
338.83017 160.0
338.935516 88.0
339.085724 172.0
339.142151 100.0
339.213135 204.0
339.246124 68.0
339.325287 128.0
339.391998 56.0
339.420898 132.0
339.460541 84.0
339.514069 56.0
339.543152 76.0
339.568848 76.0
339.623871 68.0
339.733917 124.0
339.772186 56.0
339.818115 72.0
339.824158 68.0
339.857239 112.0
339.917389 144.0
340.031189 96.0
340.057922 108.0
340.116821 48.0
340.139252 36.0
340.196381 156.0
340.232086 44.0
340.309784 212.0
340.416687 112.0
340.486481 192.0
340.510254 36.0
340.554901 128.0
340.607697 56.0
340.6922 36.0
340.732635 52.0
340.771606 72.0
340.800201 72.0
340.868439 144.0
340.940979 52.0
341.045013 100.0
341.077179 104.0
341.158997 72.0
341.206787 160.0
341.237427 132.0
341.280334 204.0
341.313416 124.0
341.519409 88.0
341.570892 112.0
341.749878 144.0
341.835846 184.0
341.944794 80.0
342.056702 96.0
342.167145 88.0
342.212799 140.0
342.240784 124.0
342.359955 112.0
342.410217 196.0
342.443359 140.0
342.587036 56.0
342.760223 124.0
342.853302 164.0
342.926086 92.0
343.115845 128.0
343.142334 116.0
343.183899 156.0
343.208069 184.0
343.322845 80.0
343.395569 128.0
343.45343 196.0
343.512451 104.0
343.59729 140.0
343.645264 132.0
343.69693 116.0
343.826111 44.0
343.859344 244.0
343.983063 116.0
344.018066 88.0
344.077148 124.0
344.104523 116.0
344.20694 4452.0
344.309814 80.0
344.388519 168.0
344.439087 68.0
344.470825 104.0
344.561035 76.0
344.594269 76.0
344.638947 84.0
344.694061 112.0
344.781616 92.0
344.830811 44.0
344.896912 132.0
345.040924 260.0
345.094055 136.0
345.124084 128.0
345.210724 2300.0
345.286407 92.0
345.355896 84.0
345.381805 80.0
345.424164 72.0
345.490997 100.0
345.592682 160.0
345.6492 148.0
345.685211 76.0
345.755219 96.0
345.783936 124.0
345.851196 176.0
345.898773 176.0
345.970245 120.0
346.019867 116.0
346.088745 160.0
346.149567 224.0
346.169098 92.0
346.213165 804.0
346.270203 56.0
346.326385 48.0
346.356079 132.0
346.443481 84.0
346.481384 76.0
346.544373 108.0
346.588165 44.0
346.615936 52.0
346.676514 68.0
346.703735 108.0
346.733398 88.0
346.762146 100.0
346.807526 84.0
346.854523 124.0
346.892792 44.0
346.918732 36.0
346.989563 152.0
347.112244 152.0
347.139679 144.0
347.202484 160.0
347.27475 96.0
347.331299 152.0
347.415924 108.0
347.495514 116.0
347.517609 108.0
347.623535 68.0
347.661865 148.0
347.786865 60.0
347.816559 44.0
347.883392 36.0
347.924805 120.0
347.956329 112.0
348.009644 60.0
348.069061 44.0
348.095062 68.0
348.143341 132.0
348.188293 116.0
348.196472 92.0
348.211304 248.0
348.260742 92.0
348.285126 344.0
348.307709 128.0
348.358795 156.0
348.393768 48.0
348.43045 124.0
348.456482 96.0
348.492889 88.0
348.53714 40.0
348.607666 196.0
348.682098 64.0
348.726685 204.0
348.771301 188.0
348.853699 100.0
348.923737 112.0
348.998901 92.0
349.054138 64.0
349.086395 212.0
349.131989 80.0
349.193115 456.0
349.281067 112.0
349.319244 176.0
349.357971 164.0
349.429199 144.0
349.518921 100.0
349.567291 84.0
349.635315 116.0
349.664062 72.0
349.705017 132.0
349.827881 88.0
349.939575 264.0
350.042053 68.0
350.110565 176.0
350.137695 164.0
350.183167 560.0
350.256805 264.0
350.304199 76.0
350.381409 200.0
350.409973 120.0
350.533356 272.0
350.627625 272.0
350.664276 100.0
350.731384 296.0
350.766388 116.0
350.787018 280.0
350.81427 160.0
350.846924 328.0
350.889618 312.0
350.913513 164.0
350.943115 272.0
350.972412 148.0
351.028046 136.0
351.084259 296.0
351.156616 284.0
351.169342 484.0
351.241699 163300.0
351.336334 172.0
351.361542 232.0
351.388489 40.0
351.41925 128.0
351.468719 168.0
351.497681 204.0
351.54187 244.0
351.555847 152.0
351.57254 320.0
351.61322 52.0
351.649536 448.0
351.772491 176.0
351.806885 220.0
351.853882 232.0
351.961884 164.0
351.986237 108.0
352.049927 92.0
352.083008 212.0
352.127136 312.0
352.244476 36564.0
352.351349 148.0
352.381256 92.0
352.395477 52.0
352.41864 124.0
352.454895 144.0
352.515076 252.0
352.552032 44.0
352.591553 104.0
352.643341 40.0
352.655975 52.0
352.684845 40.0
352.738739 124.0
352.780365 148.0
352.804047 80.0
352.835144 96.0
352.867157 164.0
352.906189 48.0
352.942841 128.0
353.025696 204.0
353.05191 68.0
353.108154 32.0
353.152527 68.0
353.24646 5144.0
353.333221 136.0
353.39032 104.0
353.41806 164.0
353.484985 88.0
353.529449 72.0
353.621979 88.0
353.685364 32.0
353.698853 56.0
353.717499 104.0
353.765167 64.0
353.843323 116.0
353.858521 88.0
353.865814 208.0
353.915497 28.0
353.971375 168.0
354.009186 76.0
354.037018 100.0
354.080872 64.0
354.103424 76.0
354.156036 132.0
354.200012 124.0
354.247559 244.0
354.301758 240.0
354.352814 84.0
354.377716 156.0
354.449646 136.0
354.503326 196.0
354.516418 416.0
354.599335 244.0
354.651123 196.0
354.684753 120.0
354.731354 80.0
354.763397 164.0
354.828644 104.0
354.84845 84.0
354.898895 60.0
354.975159 84.0
355.004883 84.0
355.058289 120.0
355.085907 40.0
355.112152 44.0
355.15506 128.0
355.219269 116.0
355.26236 104.0
355.314392 120.0
355.398926 112.0
355.453064 112.0
355.501923 32.0
355.53363 220.0
355.557373 288.0
355.599976 120.0
355.64502 92.0
355.730591 288.0
355.739929 136.0
355.751404 216.0
355.809937 96.0
355.892822 68.0
355.947083 116.0
356.050171 184.0
356.115662 108.0
356.143402 128.0
356.182037 64.0
356.222198 64.0
356.272217 68.0
356.351105 84.0
356.384949 52.0
356.414886 124.0
356.471741 40.0
356.501434 156.0
356.554047 44.0
356.599152 116.0
356.635315 52.0
356.778809 96.0
356.849426 92.0
356.892426 76.0
356.941833 88.0
356.971405 56.0
357.005249 72.0
357.031586 124.0
357.135559 112.0
357.175293 176.0
357.212128 56.0
357.366211 152.0
357.448761 236.0
357.475555 104.0
357.501892 80.0
357.594696 140.0
357.708923 156.0
357.757874 116.0
357.874603 136.0
357.90094 44.0
358.005554 144.0
358.115631 176.0
358.190979 176.0
358.219086 80.0
358.273865 84.0
358.35675 44.0
358.405762 72.0
358.52005 196.0
358.548981 64.0
358.582886 68.0
358.636719 72.0
358.703461 156.0
358.805328 64.0
358.834656 76.0
358.895813 32.0
358.925995 124.0
358.956177 180.0
359.011841 68.0
359.061493 52.0
359.127838 116.0
359.187531 320.0
359.319489 128.0
359.359802 92.0
359.38623 172.0
359.412659 176.0
359.448425 116.0
359.491913 140.0
359.529633 68.0
359.577576 40.0
359.619263 156.0
359.691956 76.0
359.733856 124.0
359.78125 356.0
359.900909 296.0
359.948151 96.0
359.994049 180.0
360.03476 288.0
360.068054 364.0
360.081543 392.0
360.101654 124.0
360.107727 272.0
360.172791 396.0
360.244019 88560.0
360.361023 412.0
360.406677 176.0
360.457123 60.0
360.524994 76.0
360.533478 72.0
360.57373 196.0
360.585358 276.0
360.636139 168.0
360.685547 76.0
360.701538 52.0
360.7146 52.0
360.755524 180.0
360.784882 80.0
360.837463 248.0
360.876007 132.0
360.916595 92.0
360.946564 220.0
361.03299 212.0
361.096283 304.0
361.166565 404.0
361.232239 47984.0
361.328125 204.0
361.358398 140.0
361.398071 156.0
361.447449 144.0
361.494995 204.0
361.54126 296.0
361.587524 132.0
361.651917 136.0
361.677734 180.0
361.70282 128.0
361.743408 92.0
361.7789 60.0
361.815704 192.0
361.841797 112.0
361.860596 56.0
361.925476 216.0
361.957336 124.0
362.05722 112.0
362.123779 120.0
362.15802 104.0
362.233551 13928.0
362.317871 76.0
362.345367 144.0
362.385773 120.0
362.473633 140.0
362.531433 172.0
362.595093 108.0
362.603058 156.0
362.647614 192.0
362.704041 108.0
362.775757 92.0
362.825775 68.0
362.861938 48.0
362.926697 88.0
362.989777 124.0
363.080383 92.0
363.125671 248.0
363.150421 116.0
363.233368 2848.0
363.360229 152.0
363.416656 56.0
363.469513 176.0
363.505035 100.0
363.546356 180.0
363.618805 264.0
363.666534 128.0
363.675629 252.0
363.705566 124.0
363.774628 120.0
363.81842 148.0
363.829651 32.0
363.942902 112.0
364.025909 116.0
364.069366 212.0
364.126892 112.0
364.176849 132.0
364.233978 496.0
364.291473 240.0
364.360168 80.0
364.448273 136.0
364.522339 72.0
364.568848 152.0
364.626434 128.0
364.672852 112.0
364.701935 68.0
364.739441 188.0
364.769562 252.0
364.809601 240.0
364.838287 48.0
364.940674 60.0
364.987335 116.0
365.044403 52.0
365.093781 176.0
365.130219 76.0
365.158264 84.0
365.189789 84.0
365.231628 204.0
365.321533 164.0
365.411346 80.0
365.53476 56.0
365.586426 116.0
365.643494 48.0
365.715393 72.0
365.822418 124.0
365.858643 164.0
365.925232 60.0
365.962646 68.0
366.024231 152.0
366.048798 44.0
366.077545 164.0
366.127838 100.0
366.240265 84.0
366.249725 60.0
366.26181 96.0
366.298492 56.0
366.328979 124.0
366.485321 132.0
366.553009 124.0
366.595703 112.0
366.658478 172.0
366.751984 60.0
366.815033 112.0
366.865845 60.0
366.899139 40.0
367.057037 96.0
367.095154 100.0
367.1586 76.0
367.194336 48.0
367.228668 108.0
367.27063 144.0
367.308777 76.0
367.358368 128.0
367.419403 100.0
367.486816 72.0
367.633118 108.0
367.707886 52.0
367.73999 84.0
367.846893 40.0
367.917572 116.0
367.942322 144.0
368.033966 40.0
368.175537 124.0
368.379944 132.0
368.450348 64.0
368.650848 68.0
368.916656 156.0
368.993103 40.0
369.035187 108.0
369.06958 60.0
369.149902 48.0
369.199615 52.0
369.310547 84.0
369.425323 104.0
369.706451 112.0
369.74295 48.0
369.788879 68.0
369.876923 76.0
369.995605 32.0
370.179413 100.0
370.217712 64.0
370.248383 60.0
370.300446 108.0
370.383057 152.0
370.462891 32.0
370.508881 88.0
370.65448 188.0
370.765625 48.0
370.80014 92.0
370.915131 200.0
371.007355 76.0
371.033997 108.0
371.081787 64.0
371.126007 84.0
371.216858 116.0
371.267731 88.0
371.280853 140.0
371.421356 112.0
371.478882 180.0
371.632385 244.0
371.762848 40.0
372.08313 140.0
372.139069 148.0
372.281189 100.0
372.373352 100.0
372.488617 48.0
372.530853 44.0
372.669189 40.0
372.696106 120.0
373.034332 180.0
373.065094 132.0
373.168915 72.0
373.218903 180.0
373.303528 76.0
373.351501 76.0
373.419128 68.0
373.468903 32.0
373.530243 72.0
373.557404 176.0
373.703613 92.0
373.792114 148.0
373.819061 64.0
373.853699 68.0
373.884491 60.0
374.053864 96.0
374.227142 64.0
374.27066 104.0
374.304138 108.0
374.350372 56.0
374.600739 104.0
374.853516 320.0
374.982269 88.0
375.141327 108.0
375.205872 128.0
375.272736 284.0
375.302277 96.0
375.51825 64.0
375.586731 80.0
375.630402 112.0
375.687988 32.0
375.792175 104.0
375.900238 68.0
375.954651 92.0
376.012146 40.0
376.049408 88.0
376.143402 44.0
376.174286 100.0
376.250275 164.0
376.325958 188.0
376.375092 172.0
376.409027 96.0
376.537292 48.0
376.714996 108.0
376.85022 132.0
376.915924 96.0
376.970032 44.0
377.020264 72.0
377.105316 52.0
377.132385 72.0
377.179016 108.0
377.387543 40.0
377.573486 108.0
377.650543 124.0
377.813049 108.0
377.867218 268.0
377.916534 152.0
377.957001 136.0
378.007019 92.0
378.03598 104.0
378.083405 120.0
378.126862 176.0
378.163971 176.0
378.259735 16900.0
378.332733 216.0
378.397614 256.0
378.445496 164.0
378.520264 132.0
378.592957 164.0
378.675171 184.0
378.703461 96.0
378.749512 108.0
378.796448 44.0
378.822449 100.0
378.89563 156.0
378.939819 160.0
378.965118 100.0
379.016815 116.0
379.061981 232.0
379.096863 160.0
379.158783 140.0
379.244629 43252.0
379.316956 220.0
379.355194 48.0
379.423676 40.0
379.505463 104.0
379.52951 64.0
379.589264 144.0
379.650848 136.0
379.663666 56.0
379.728882 68.0
379.788879 104.0
379.821167 164.0
379.850952 96.0
379.888794 80.0
379.916931 104.0
379.947968 112.0
380.011414 168.0
380.088379 84.0
380.128357 196.0
380.163849 88.0
380.248749 10812.0
380.30777 112.0
380.323395 76.0
380.378784 76.0
380.408417 120.0
380.46579 112.0
380.499573 124.0
380.579559 124.0
380.638916 36.0
380.724365 108.0
380.773071 144.0
380.815094 104.0
380.85968 48.0
380.898529 48.0
380.976868 56.0
381.077911 44.0
381.141693 116.0
381.180176 84.0
381.247833 1756.0
381.346069 36.0
381.432281 116.0
381.521027 44.0
381.569977 88.0
381.641571 104.0
381.670654 92.0
381.756744 116.0
381.816864 52.0
381.865204 52.0
381.994232 60.0
382.020111 56.0
382.081482 164.0
382.114807 188.0
382.165253 116.0
382.19339 84.0
382.259949 432.0
382.310242 56.0
382.371429 104.0
382.417236 132.0
382.488708 44.0
382.530273 100.0
382.594971 132.0
382.664032 100.0
382.702728 184.0
382.727051 64.0
382.762329 80.0
382.824646 84.0
382.866516 80.0
382.894135 272.0
382.960968 128.0
383.093445 84.0
383.120697 216.0
383.210327 32.0
383.312897 136.0
383.393494 68.0
383.444153 88.0
383.515503 92.0
383.697571 56.0
383.864319 100.0
384.175568 108.0
384.20462 96.0
384.29718 72.0
384.345093 108.0
384.454376 108.0
384.551971 72.0
384.661255 76.0
384.766693 92.0
384.813538 124.0
384.922882 44.0
385.126007 60.0
385.348206 64.0
385.981995 136.0
386.044373 88.0
386.18927 132.0
386.310547 112.0
386.654938 84.0
386.885895 112.0
387.297119 176.0
387.336304 176.0
387.453827 136.0
387.606659 52.0
387.714142 108.0
387.846527 244.0
388.053558 36.0
388.090942 120.0
388.418304 40.0
388.537201 92.0
388.590942 68.0
388.682953 244.0
388.716522 48.0
388.82251 120.0
388.849976 100.0
389.332947 112.0
389.419342 164.0
389.871216 60.0
390.083496 188.0
390.154266 60.0
390.273895 132.0
390.370544 76.0
390.468872 80.0
391.039429 96.0
391.405579 84.0
391.480408 56.0
391.53949 36.0
391.655457 124.0
391.831024 52.0
392.016235 84.0
392.12265 112.0
392.213318 72.0
392.344086 72.0
392.568207 68.0
392.706268 84.0
393.29425 32.0
393.483765 104.0
393.994202 136.0
394.621765 132.0
394.888184 100.0
395.029175 48.0
395.262634 52.0
395.432831 88.0
395.531769 84.0
395.907959 60.0
396.625183 60.0
396.676727 60.0
396.913544 44.0
397.247833 128.0
397.275604 68.0
397.386688 60.0
397.418457 88.0
397.990082 76.0
398.049652 52.0
398.213867 92.0
398.272095 64.0
398.423065 124.0
398.943726 96.0
399.313385 436.0
399.353363 192.0
399.508514 76.0
399.568176 32.0
399.715424 132.0
399.802979 88.0
399.948273 64.0
400.049805 52.0
400.095337 64.0
400.309998 136.0
400.392273 72.0
400.581879 60.0
400.651215 108.0
400.746826 152.0
400.830536 120.0
401.037781 52.0
401.121521 64.0
401.217194 88.0
401.297546 152.0
401.67984 172.0
401.716461 44.0
401.803528 48.0
402.019012 100.0
402.138763 72.0
402.299896 112.0
402.46048 124.0
402.56601 44.0
402.593964 104.0
403.153412 152.0
403.309204 76.0
403.66507 160.0
403.737061 160.0
403.765076 52.0
404.037109 104.0
404.333252 92.0
404.689575 124.0
404.857758 48.0
404.885803 72.0
405.026001 52.0
405.254395 76.0
405.827606 128.0
406.036163 88.0
406.092316 68.0
406.337067 48.0
406.449402 28.0
406.53772 152.0
406.790588 96.0
407.087738 84.0
407.156036 132.0
407.445282 164.0
407.827087 72.0
407.867279 60.0
407.895416 52.0
408.281464 112.0
408.40213 96.0
408.626587 56.0
408.756195 76.0
408.981598 152.0
409.589691 208.0
409.725952 44.0
409.83548 104.0
410.137787 112.0
410.200592 132.0
410.383728 88.0
410.42807 72.0
410.492615 192.0
410.60553 80.0
410.904083 36.0
411.134125 56.0
411.319794 168.0
411.396515 68.0
411.432831 36.0
411.513611 84.0
411.687256 52.0
411.926392 80.0
412.099335 64.0
412.309479 92.0
412.523743 88.0
412.61673 108.0
412.81488 52.0
412.851288 148.0
413.073761 64.0
413.277252 108.0
413.389374 112.0
413.417725 120.0
413.61203 120.0
413.842804 68.0
413.966766 168.0
414.300659 384.0
414.486908 68.0
414.584198 96.0
414.831451 68.0
415.228882 56.0
415.315216 276.0
415.37085 84.0
415.480408 32.0
415.683289 60.0
416.182648 116.0
416.243561 184.0
416.32901 488.0
416.418213 44.0
416.505341 116.0
416.54007 68.0
416.80011 36.0
416.87326 48.0
416.978943 56.0
417.035858 52.0
417.22287 44.0
417.337616 244.0
417.727203 80.0
417.800446 60.0
418.036469 84.0
418.14444 80.0
418.264404 168.0
418.296967 92.0
418.347961 352.0
418.435425 104.0
418.663452 68.0
418.883423 112.0
418.916016 100.0
419.372467 124.0
419.494781 216.0
419.559998 140.0
419.653778 44.0
419.816925 56.0
419.874023 100.0
420.19223 88.0
420.277924 52.0
420.406952 148.0
420.449341 92.0
420.645264 100.0
420.812683 112.0
420.943359 64.0
421.462189 120.0
421.535767 108.0
421.89325 88.0
422.087677 36.0
422.140839 60.0
422.296265 52.0
422.799561 72.0
422.893707 44.0
422.934631 36.0
423.116364 104.0
423.253998 100.0
423.290863 72.0
423.372772 108.0
423.409637 52.0
423.524323 44.0
423.630859 64.0
423.925903 56.0
424.159546 64.0
424.310699 156.0
424.364532 52.0
424.39325 116.0
424.536804 152.0
424.696747 40.0
424.76651 64.0
425.195404 100.0
425.250732 68.0
425.402649 56.0
425.484741 40.0
425.788666 36.0
425.911896 116.0
426.055695 80.0
426.301727 104.0
426.329407 144.0
426.713348 84.0
427.005341 124.0
427.045563 92.0
427.05722 72.0
427.241608 120.0
427.315216 312.0
427.777008 56.0
427.844879 48.0
427.918976 104.0
427.98941 116.0
428.174316 68.0
428.302032 144.0
428.339264 188.0
428.38855 68.0
428.553345 100.0
428.660492 56.0
428.986145 112.0
429.076874 48.0
429.175812 48.0
429.241821 64.0
429.30368 84.0
429.373779 72.0
429.637817 152.0
430.120697 68.0
430.244537 92.0
430.305267 256.0
430.570801 80.0
430.744293 64.0
430.785614 48.0
431.07486 40.0
431.149261 120.0
431.227783 48.0
431.281525 68.0
431.314606 124.0
431.666077 140.0
431.783203 84.0
431.897705 48.0
431.992859 96.0
432.289673 88.0
432.791718 136.0
432.899414 112.0
433.028564 152.0
433.234955 108.0
433.338531 148.0
433.384125 188.0
433.496918 184.0
433.59964 56.0
433.972748 28.0
434.039093 84.0
434.175964 56.0
434.317017 84.0
434.350189 68.0
434.636505 80.0
434.69043 36.0
434.844025 140.0
434.903412 116.0
435.113861 88.0
435.159546 68.0
435.325653 52.0
435.728607 112.0
435.815887 36.0
435.861603 56.0
436.248169 84.0
436.501831 128.0
436.618286 48.0
437.059265 40.0
437.23407 76.0
437.292358 132.0
437.379272 68.0
437.633759 48.0
437.667053 60.0
437.77951 64.0
437.941956 52.0
438.050262 176.0
438.129425 68.0
438.175262 176.0
438.237762 76.0
438.449371 120.0
438.725464 84.0
439.138336 88.0
439.175873 96.0
439.27182 68.0
439.38031 108.0
439.59729 100.0
439.914551 56.0
440.198517 172.0
440.302917 44.0
440.440765 96.0
440.549377 56.0
440.587006 60.0
440.624603 68.0
440.837738 96.0
440.921326 128.0
441.117798 64.0
441.222321 56.0
441.351959 92.0
441.519226 128.0
441.602905 52.0
441.674011 124.0
441.73468 40.0
441.849731 124.0
442.197083 124.0
442.327728 96.0
442.374695 180.0
442.4776 56.0
442.624146 160.0
442.712097 80.0
442.929932 36.0
443.143616 124.0
443.202271 124.0
443.269318 168.0
443.351685 104.0
443.449554 48.0
443.516632 56.0
443.638214 64.0
444.14566 64.0
444.328308 264.0
444.477142 184.0
444.517761 100.0
444.607239 84.0
444.859131 32.0
445.123657 72.0
445.329468 420.0
445.480713 88.0
445.522736 56.0
445.640381 116.0
445.723297 120.0
445.799805 64.0
445.854706 152.0
446.085907 140.0
446.161591 76.0
446.289551 140.0
446.332703 168.0
446.656281 136.0
446.847198 36.0
447.335449 120.0
447.647064 88.0
447.743927 72.0
447.828186 28.0
448.12381 96.0
448.418121 56.0
448.493988 44.0
448.662628 64.0
448.709015 40.0
448.761993 128.0
448.983124 60.0
449.071716 48.0
449.134979 140.0
449.21936 52.0
449.348114 80.0
449.391022 60.0
449.679352 76.0
449.763794 40.0
450.270508 120.0
450.371887 56.0
450.414124 44.0
450.722595 52.0
451.014221 92.0
451.272125 52.0
451.348267 112.0
451.453979 44.0
451.493958 164.0
451.610474 68.0
451.644318 188.0
451.737396 100.0
451.830475 80.0
451.872803 56.0
451.987061 72.0
452.642609 104.0
452.77124 128.0
452.810028 168.0
453.232117 56.0
453.338074 112.0
453.792206 96.0
453.893433 64.0
454.054626 92.0
454.122467 64.0
454.224304 88.0
454.311829 136.0
454.381287 52.0
454.444916 40.0
454.525543 108.0
454.665619 36.0
454.771729 60.0
454.873627 44.0
454.920319 40.0
454.950043 148.0
454.996735 52.0
455.052887 156.0
455.366211 76.0
455.393585 72.0
455.431641 72.0
455.548889 104.0
455.812347 132.0
455.901611 64.0
456.020599 100.0
456.118378 28.0
456.211914 104.0
456.271454 32.0
456.386261 44.0
456.442383 120.0
456.557953 76.0
456.645691 108.0
456.773315 160.0
456.845642 60.0
456.943512 96.0
457.045624 48.0
457.241425 60.0
457.386139 156.0
457.454254 120.0
457.488312 96.0
457.559296 120.0
457.632751 48.0
457.760864 160.0
457.884369 76.0
458.029205 132.0
458.103729 152.0
458.183594 136.0
458.225189 96.0
458.354889 164.0
458.384521 176.0
458.54483 52.0
458.602753 108.0
458.702545 92.0
458.804871 132.0
458.860321 156.0
458.9328 180.0
458.962646 164.0
459.001038 40.0
459.056488 48.0
459.128021 140.0
459.282532 68.0
459.390594 292.0
459.474487 800.0
459.547729 104.0
459.604156 64.0
459.703156 208.0
459.773682 84.0
459.83493 240.0
459.871887 112.0
459.91748 148.0
459.96109 116.0
459.998047 140.0
460.047394 264.0
460.092194 176.0
460.104797 164.0
460.162018 332.0
460.210083 320.0
460.26593 104.0
460.363647 73692.0
460.470398 224.0
460.52356 136.0
460.568237 104.0
460.603027 64.0
460.653503 180.0
460.690369 160.0
460.755402 168.0
460.82901 148.0
460.869904 120.0
460.904602 236.0
460.9599 200.0
460.992004 116.0
461.032654 120.0
461.039978 132.0
461.062561 172.0
461.097748 124.0
461.131683 88.0
461.178223 200.0
461.227386 128.0
461.249847 152.0
461.280121 48.0
461.366302 24972.0
461.485626 132.0
461.577362 92.0
461.645752 92.0
461.711212 52.0
461.750275 104.0
461.760864 76.0
461.775543 120.0
461.823792 128.0
461.871368 184.0
461.907806 108.0
461.963776 52.0
461.977936 44.0
462.008881 56.0
462.067291 76.0
462.169281 60.0
462.202209 76.0
462.235077 60.0
462.297363 144.0
462.368744 3460.0
462.484161 76.0
462.56842 100.0
462.637451 108.0
462.703369 136.0
462.784882 84.0
462.844971 120.0
462.939484 120.0
462.991241 96.0
463.041504 52.0
463.084442 76.0
463.141724 80.0
463.207794 96.0
463.253845 204.0
463.292328 40.0
463.363983 548.0
463.471283 60.0
463.517731 80.0
463.581268 160.0
463.62796 144.0
463.661316 76.0
463.693542 108.0
463.758881 268.0
463.804626 120.0
463.878937 268.0
463.907196 128.0
463.944885 104.0
463.992828 96.0
464.031311 100.0
464.108124 72.0
464.123871 72.0
464.183899 80.0
464.213196 132.0
464.277405 100.0
464.320709 196.0
464.335083 88.0
464.344055 84.0
464.389709 64.0
464.501801 80.0
464.562256 124.0
464.645508 104.0
464.727295 80.0
464.763519 60.0
464.836487 132.0
464.878387 84.0
465.02533 52.0
465.063965 36.0
465.1026 84.0
465.13266 40.0
465.16568 100.0
465.208771 104.0
465.411743 40.0
465.574951 68.0
465.746765 72.0
465.875641 80.0
466.004761 84.0
466.03894 104.0
466.097626 116.0
466.292511 80.0
466.41272 68.0
466.450775 132.0
466.511749 84.0
466.662231 124.0
466.976196 52.0
467.109558 32.0
467.165497 36.0
467.359131 64.0
467.690552 72.0
467.897186 48.0
468.009155 28.0
468.112518 52.0
468.401123 40.0
468.625153 52.0
468.681183 56.0
469.030304 64.0
469.168274 80.0
469.228638 80.0
469.297638 80.0
469.332123 80.0
469.452881 56.0
469.504639 96.0
469.569336 76.0
469.763458 48.0
469.966278 96.0
470.082794 104.0
470.337463 48.0
470.695831 48.0
470.898834 52.0
471.002502 76.0
471.117828 104.0
471.291992 52.0
471.548157 104.0
472.182617 40.0
472.649902 48.0
472.680206 92.0
472.840576 72.0
473.056793 44.0
473.182343 84.0
473.398865 64.0
473.598114 76.0
473.671753 36.0
473.87973 40.0
474.203522 96.0
474.634033 52.0
474.755463 72.0
475.089478 44.0
475.193634 40.0
475.28476 72.0
475.726471 68.0
475.792633 48.0
475.922882 108.0
476.022797 88.0
476.15744 32.0
476.252991 92.0
476.639679 76.0
476.809204 104.0
476.957001 84.0
477.732697 92.0
478.38327 76.0
478.471039 80.0
478.581573 116.0
478.928345 124.0
478.975739 96.0
479.337921 64.0
479.512268 120.0
479.542786 36.0
479.669189 68.0
479.799988 36.0
479.900299 52.0
480.048553 52.0
480.122711 36.0
480.349548 28.0
480.49353 84.0
480.716583 96.0
481.034729 72.0
481.576263 44.0
482.309662 48.0
482.459045 68.0
482.865753 68.0
483.031982 72.0
483.163239 76.0
483.342651 48.0
483.425812 60.0
483.526489 64.0
483.568451 88.0
483.776001 52.0
483.907379 72.0
483.999329 60.0
484.240204 64.0
484.288391 88.0
484.38916 108.0
484.533752 68.0
484.792297 72.0
484.928192 68.0
485.00708 28.0
485.283295 76.0
485.721924 136.0
485.809662 68.0
486.132904 72.0
486.173889 64.0
486.353851 76.0
486.410583 100.0
486.446045 56.0
486.511902 52.0
486.705109 40.0
486.977417 76.0
487.091644 44.0
487.400635 100.0
487.451935 84.0
487.69809 108.0
487.924957 40.0
487.966278 36.0
488.145935 108.0
489.378784 64.0
489.845673 108.0
490.05719 92.0
490.184967 80.0
490.286346 72.0
490.577301 96.0
490.819824 92.0
491.005066 76.0
491.132965 88.0
491.260925 48.0
491.536377 108.0
491.821411 72.0
492.055389 100.0
492.187866 56.0
492.408691 92.0
492.794525 116.0
492.956573 48.0
493.106873 52.0
493.292542 68.0
493.500336 68.0
493.540131 108.0
493.588776 92.0
493.867432 52.0
494.633026 44.0
494.770294 76.0
495.301758 68.0
495.425812 72.0
495.474792 76.0
496.347809 56.0
496.498596 72.0
496.764771 72.0
497.306183 52.0
497.461578 60.0
497.812378 96.0
497.963379 84.0
498.007812 68.0
498.269928 76.0
498.656586 100.0
498.727692 68.0
498.896637 84.0
499.483704 108.0
499.617188 68.0
499.857483 48.0
499.982086 108.0
500.289276 72.0
500.498535 80.0
500.618805 104.0
500.739044 72.0
500.908325 56.0
501.206879 92.0
501.55899 92.0
501.679352 48.0
501.746246 88.0
502.642548 56.0
503.748138 84.0
503.8396 36.0
503.893219 116.0
504.089874 44.0
504.197113 72.0
504.385223 104.0
504.483215 72.0
504.545837 56.0
504.836487 72.0
504.881226 40.0
505.046722 92.0
505.198853 72.0
505.297272 56.0
505.346497 72.0
505.87915 56.0
506.483734 104.0
506.546448 84.0
506.591248 112.0
506.792877 60.0
507.290436 68.0
507.424927 92.0
507.604309 56.0
507.707458 80.0
508.340088 88.0
508.789001 108.0
508.859406 128.0
508.9776 92.0
509.516632 76.0
509.754791 80.0
509.975037 44.0
510.019989 48.0
510.240295 60.0
510.414703 56.0
510.465149 36.0
510.658539 28.0
510.982483 88.0
511.049988 92.0
511.218689 96.0
511.833282 88.0
511.954865 120.0
512.108032 108.0
512.432373 80.0
512.617188 88.0
512.883118 52.0
512.991333 40.0
513.189697 32.0
513.478333 44.0
513.685852 64.0
513.947571 96.0
514.051331 76.0
514.082947 56.0
514.200317 96.0
514.412476 144.0
514.715027 120.0
515.080872 68.0
515.130554 64.0
515.564392 48.0
515.614075 52.0
515.722595 64.0
515.935059 92.0
516.143066 68.0
516.409912 76.0
516.559204 116.0
516.627075 76.0
518.035156 84.0
518.112183 108.0
518.615234 56.0
518.72406 68.0
519.041443 108.0
519.077698 48.0
519.114014 124.0
519.880737 124.0
519.976074 72.0
520.411926 52.0
520.625366 48.0
520.799988 72.0
521.00415 136.0
521.543274 108.0
522.593872 112.0
522.835083 72.0
523.017212 156.0
523.087524 80.0
523.376892 64.0
523.417847 64.0
523.686584 52.0
523.823242 88.0
523.946289 84.0
524.083008 48.0
524.142212 124.0
524.333618 40.0
524.561584 40.0
524.716614 48.0
524.748535 116.0
524.949158 52.0
524.981079 84.0
526.13562 116.0
526.309143 84.0
526.515259 92.0
526.60144 48.0
526.706543 84.0
527.07666 124.0
527.268616 96.0
527.382874 32.0
527.707458 108.0
527.771484 64.0
527.894958 76.0
528.36615 48.0
528.421082 88.0
529.011536 100.0
529.125977 160.0
529.515259 32.0
529.634338 152.0
529.7901 84.0
529.84967 40.0
529.93219 64.0
530.010071 88.0
530.252991 48.0
530.289673 56.0
530.37677 96.0
530.618042 76.0
530.844482 68.0
531.252686 100.0
531.41333 48.0
531.592285 80.0
531.797424 92.0
532.097229 56.0
532.873535 112.0
533.015991 68.0
533.33313 40.0
533.613586 88.0
534.078125 80.0
534.128723 120.0
534.29187 48.0
534.335754 88.0
534.460022 36.0
534.53125 44.0
534.713135 36.0
534.787781 92.0
534.823608 56.0
535.118286 108.0
535.316284 224.0
535.459106 80.0
535.717041 88.0
536.076477 92.0
536.228577 68.0
536.666565 48.0
536.887939 84.0
537.040161 48.0
537.367737 52.0
537.68158 88.0
537.880066 76.0
538.106323 68.0
538.235596 68.0
538.351074 44.0
538.448059 52.0
538.563538 56.0
538.702148 56.0
539.081055 84.0
539.172729 48.0
539.418518 68.0
539.649658 52.0
539.686707 44.0
540.269531 44.0
540.635071 68.0
541.033203 88.0
541.417542 56.0
541.862305 88.0
542.330383 72.0
542.599304 36.0
542.696716 108.0
542.826538 80.0
543.121826 92.0
543.244019 92.0
543.536377 28.0
543.954102 140.0
544.232666 112.0
544.594971 84.0
544.711121 80.0
545.250183 64.0
545.282715 48.0
545.649963 120.0
545.701111 72.0
545.817383 96.0
546.394165 100.0
546.594299 84.0
547.022522 64.0
547.264648 80.0
547.469543 80.0
547.502136 52.0
548.019287 72.0
548.065918 92.0
548.229004 32.0
548.693542 56.0
549.175537 32.0
549.465637 68.0
549.642151 92.0
550.020203 64.0
550.365723 124.0
550.477844 56.0
550.601074 104.0
550.879517 92.0
551.23468 48.0
551.608643 28.0
551.795654 88.0
551.828369 64.0
551.907898 32.0
552.174438 96.0
552.721863 56.0
552.890381 48.0
553.700378 44.0
553.780029 44.0
553.987488 128.0
554.131409 96.0
554.309448 68.0
554.726685 56.0
555.104004 48.0
555.528625 96.0
555.669434 112.0
555.716309 84.0
556.180969 76.0
556.514343 96.0
557.096802 44.0
557.247131 52.0
557.392822 76.0
557.732666 80.0
557.787659 40.0
557.93811 108.0
558.591858 44.0
558.629517 84.0
558.812988 76.0
559.566162 64.0
559.768677 52.0
561.320251 88.0
561.689636 96.0
561.743713 48.0
561.866394 52.0
561.956055 76.0
562.314697 104.0
562.848267 72.0
562.971008 88.0
563.207214 56.0
563.287537 76.0
563.448181 40.0
563.570129 84.0
563.703613 76.0
564.138245 84.0
564.228088 108.0
564.689392 116.0
565.439148 88.0
566.094543 76.0
566.234619 56.0
566.291504 104.0
566.599426 48.0
566.694214 92.0
567.343567 80.0
567.419434 100.0
568.178345 80.0
568.401367 148.0
569.080261 60.0
569.184692 64.0
569.783264 84.0
569.854553 68.0
570.187195 32.0
570.320312 108.0
570.432922 152.0
570.700684 84.0
571.338074 88.0
571.399902 140.0
571.756836 76.0
572.404358 76.0
572.91571 140.0
572.990295 80.0
573.142761 60.0
573.409668 76.0
573.538391 40.0
574.258423 28.0
574.406311 84.0
574.654419 100.0
575.518494 36.0
575.692749 84.0
576.526489 40.0
576.813354 136.0
577.05719 56.0
577.114563 68.0
577.281921 104.0
577.324951 52.0
577.549805 56.0
578.033081 88.0
578.650574 40.0
578.861328 72.0
579.167847 100.0
580.26062 116.0
580.605896 72.0
580.670654 80.0
581.76239 52.0
581.86322 60.0
582.007324 96.0
582.06012 72.0
582.136963 52.0
582.333923 72.0
582.629333 40.0
582.727844 52.0
582.889038 104.0
583.168396 116.0
583.299805 120.0
583.650818 52.0
584.579346 60.0
584.617859 84.0
585.03186 68.0
585.985535 32.0
586.11084 48.0
586.260254 100.0
586.293945 64.0
586.419312 40.0
586.453003 56.0
587.251465 76.0
587.929016 116.0
588.030396 56.0
588.725708 60.0
589.208801 28.0
589.64856 92.0
590.20459 52.0
590.30127 56.0
590.57251 60.0
590.780701 112.0
590.936951 60.0
590.973755 52.0
591.419006 48.0
592.063049 96.0
592.213196 88.0
592.324585 52.0
592.363342 56.0
592.508728 100.0
592.73645 92.0
592.886719 140.0
592.964294 100.0
593.211487 76.0
593.54126 64.0
593.88562 76.0
593.987488 36.0
594.987305 128.0
595.065002 100.0
595.152405 72.0
595.264099 52.0
595.905334 60.0
596.148315 88.0
596.323303 92.0
596.459412 72.0
596.916504 48.0
597.135376 68.0
597.480774 72.0
597.573242 68.0
597.641357 88.0
598.205994 40.0
598.249756 68.0
598.337402 48.0
598.449402 44.0
598.541931 72.0
598.775757 72.0
598.843933 108.0
599.155701 60.0
599.647949 40.0
599.964844 56.0
600.159851 44.0
600.194031 76.0
600.437866 76.0
600.62323 56.0
601.15509 48.0
601.599304 60.0
601.775085 104.0
602.253723 52.0
602.682007 84.0
603.553833 84.0
603.778809 64.0
603.817993 44.0
604.20697 92.0
604.61554 56.0
605.105103 104.0
605.183411 192.0
605.529846 60.0
605.903503 80.0
606.452393 92.0
606.535767 72.0
606.722046 56.0
606.877136 68.0
607.286011 88.0
607.364502 100.0
607.442993 96.0
607.595093 112.0
608.783081 56.0
608.842041 76.0
608.984497 88.0
609.205566 48.0
609.746155 92.0
609.937866 116.0
610.016479 44.0
610.090271 80.0
610.336121 84.0
610.768982 84.0
610.813232 56.0
611.36438 104.0
611.708923 100.0
611.960022 104.0
612.30481 80.0
612.738342 64.0
612.91571 80.0
613.341675 68.0
613.438232 72.0
613.482605 28.0
613.674866 52.0
614.09906 64.0
614.133545 76.0
614.325989 84.0
614.419739 80.0
614.602295 72.0
614.819458 44.0
616.350464 32.0
617.190918 96.0
617.642151 100.0
617.927979 76.0
618.185303 76.0
618.675354 40.0
618.838745 48.0
619.566895 72.0
619.606506 72.0
619.998047 100.0
620.5979 44.0
620.726868 56.0
621.198059 92.0
621.773743 132.0
621.846497 104.0
622.121216 84.0
622.210571 84.0
622.523438 56.0
622.672485 80.0
623.10968 40.0
623.440369 24.0
623.989441 40.0
624.039185 44.0
624.292786 84.0
624.471863 116.0
624.755432 76.0
624.879822 60.0
624.984314 56.0
625.034119 112.0
625.083862 80.0
626.991455 100.0
627.425171 48.0
627.514893 80.0
627.928833 52.0
628.143372 44.0
628.302979 64.0
628.377869 44.0
628.787476 48.0
629.031677 48.0
629.071655 60.0
629.111572 76.0
630.145508 52.0
630.2005 56.0
630.500305 64.0
630.735291 64.0
630.788025 92.0
631.030273 44.0
631.320312 152.0
631.370361 92.0
632.971924 108.0
633.257385 72.0
633.878723 68.0
634.254639 32.0
634.705872 104.0
635.197449 44.0
635.342957 76.0
635.995361 56.0
636.231323 80.0
636.663208 68.0
636.813904 56.0
638.306702 56.0
638.437439 52.0
638.538086 136.0
639.222351 96.0
639.453857 48.0
640.637329 32.0
640.75824 64.0
640.984985 108.0
641.065613 68.0
641.231995 48.0
641.670593 108.0
641.877319 84.0
641.942871 52.0
642.134583 48.0
642.472595 52.0
642.512939 28.0
643.23468 88.0
643.28009 72.0
643.729492 60.0
643.94165 92.0
644.780457 64.0
644.87146 52.0
644.911865 64.0
645.286011 48.0
645.557129 52.0
645.660217 52.0
645.872681 68.0
646.667175 36.0
647.396301 84.0
647.496338 80.0
648.120789 52.0
648.262695 64.0
648.308289 72.0
648.39447 116.0
648.440063 56.0
648.546509 76.0
648.602295 104.0
648.663147 32.0
648.881165 60.0
648.967346 28.0
649.40625 120.0
649.474548 32.0
649.540527 36.0
651.413879 72.0
651.764465 56.0
652.348999 72.0
652.593079 56.0
652.679504 36.0
653.010132 68.0
653.167847 44.0
654.058411 80.0
655.071899 52.0
655.209473 96.0
656.71344 68.0
657.820801 100.0
658.111877 84.0
658.397888 44.0
658.510254 88.0
658.617493 64.0
658.811646 56.0
659.756165 80.0
659.79303 48.0
660.693237 92.0
660.754639 92.0
660.887634 44.0
661.727173 64.0
661.921753 88.0
662.321289 88.0
662.864441 92.0
662.977173 52.0
663.095093 108.0
663.848755 64.0
664.094971 76.0
664.212952 104.0
664.859558 56.0
665.311279 44.0
665.737488 96.0
665.850525 64.0
666.456787 36.0
666.801086 48.0
666.970764 76.0
667.793518 96.0
668.169067 60.0
668.215393 120.0
668.364624 120.0
668.519043 32.0
668.997742 36.0
669.277832 112.0
669.52301 48.0
670.780396 52.0
670.99176 48.0
671.146484 100.0
671.363098 84.0
671.497192 96.0
671.982117 52.0
672.14209 132.0
672.570496 108.0
672.715088 32.0
672.823486 68.0
672.952576 68.0
674.606018 92.0
675.562866 84.0
676.551392 52.0
677.100342 40.0
677.291992 48.0
677.939697 48.0
678.242371 72.0
678.369995 60.0
678.800354 112.0
679.303528 28.0
679.703064 80.0
679.749756 72.0
679.838013 56.0
680.113098 56.0
680.505981 96.0
680.819275 68.0
681.177734 48.0
681.278015 80.0
681.910461 104.0
682.388733 72.0
684.378845 92.0
684.756775 120.0
684.80365 40.0
684.923462 104.0
684.996399 44.0
685.350708 80.0
685.413269 32.0
685.564392 92.0
686.591553 52.0
687.003662 120.0
687.274963 76.0
687.311523 56.0
687.666443 96.0
687.927429 48.0
688.679504 40.0
688.872742 136.0
689.160156 80.0
689.254211 72.0
689.818726 32.0
690.221375 56.0
690.875244 48.0
690.9328 60.0
691.515015 72.0
691.916809 60.0
692.943481 104.0
693.415161 52.0
693.713928 120.0
693.918457 108.0
694.059998 68.0
694.44812 88.0
694.668457 48.0
694.75769 56.0
694.951843 100.0
695.151978 84.0
695.240479 48.0
695.34021 32.0
696.238098 92.0
696.332642 44.0
698.088135 52.0
699.830078 68.0
699.922913 64.0
700.19873 60.0
700.332764 108.0
701.147156 96.0
701.521484 44.0
701.864197 68.0
702.080444 36.0
702.977356 68.0
703.061829 80.0
703.109314 96.0
703.558044 40.0
704.524597 68.0
704.584595 56.0
704.651428 112.0
704.973755 32.0
705.872559 72.0
706.115845 80.0
706.634338 84.0
708.042542 116.0
708.47699 68.0
708.768433 64.0
708.85321 68.0
710.49176 96.0
710.64563 92.0
710.86853 68.0
711.165771 48.0
711.256042 152.0
713.25885 96.0
713.460876 44.0
713.599121 56.0
713.896912 52.0
715.280457 80.0
715.349609 40.0
715.498718 84.0
715.536011 76.0
716.207031 88.0
716.345581 68.0
716.729248 64.0
716.795593 80.0
717.075684 100.0
717.176941 68.0
717.763428 48.0
718.13147 104.0
718.328857 64.0
718.552917 76.0
719.348206 76.0
719.519043 48.0
720.453796 76.0
721.31958 80.0
721.613647 52.0
722.704895 96.0
722.865479 36.0
723.28833 40.0
723.438232 56.0
723.695251 72.0
723.888062 108.0
725.098938 52.0
725.291931 48.0
725.677979 52.0
727.792236 44.0
727.9104 80.0
727.990967 64.0
728.657104 92.0
728.754578 56.0
729.527832 64.0
729.823547 72.0
730.119324 68.0
731.933105 60.0
732.056946 36.0
732.39093 52.0
732.568726 140.0
733.905457 64.0
734.407043 64.0
734.871033 80.0
735.130066 72.0
735.63208 128.0
735.73468 104.0
735.772461 88.0
736.188293 88.0
736.858154 32.0
737.166199 28.0
737.339172 36.0
737.49054 104.0
737.718689 96.0
738.236694 40.0
738.728943 60.0
739.648987 96.0
739.963013 64.0
740.36377 84.0
741.241455 60.0
741.799805 104.0
741.875671 64.0
742.212402 40.0
743.638855 68.0
743.866821 124.0
743.969971 52.0
744.735718 68.0
745.491028 68.0
746.279297 28.0
747.421692 116.0
747.891968 84.0
748.085754 100.0
748.161987 64.0
748.358032 60.0
748.875427 60.0
749.774536 60.0
750.085205 60.0
750.281494 56.0
750.897766 108.0
751.192322 92.0
751.254456 92.0
751.421509 68.0
752.010925 44.0
753.928162 32.0
754.688049 36.0
755.114685 60.0
755.924438 60.0
756.937256 52.0
757.013916 72.0
757.627502 36.0
758.208374 68.0
758.334473 112.0
759.041748 124.0
759.156921 40.0
759.217224 72.0
759.595764 100.0
760.0896 96.0
761.022827 64.0
761.75885 68.0
762.44574 60.0
763.061462 120.0
763.54541 96.0
764.051575 48.0
764.695435 72.0
764.789062 80.0
764.99823 92.0
765.091858 52.0
765.284546 36.0
765.433228 72.0
766.942993 60.0
767.346191 92.0
767.880432 92.0
768.846008 116.0
769.83429 84.0
770.005554 132.0
770.591187 72.0
771.569519 84.0
773.013367 48.0
774.070801 92.0
774.375427 88.0
776.060242 68.0
776.54834 60.0
777.197449 52.0
778.152283 68.0
778.257751 76.0
778.990967 92.0
780.775391 92.0
781.793579 84.0
782.250061 112.0
782.899109 80.0
783.44751 92.0
785.538269 56.0
786.085083 108.0
787.391602 76.0
787.888794 108.0
789.168823 68.0
789.286316 96.0
790.030273 76.0
790.931274 72.0
791.132874 64.0
791.84967 72.0
791.922485 64.0
792.684509 84.0
793.117004 128.0
793.72168 88.0
794.052551 60.0
794.220886 180.0
794.310608 100.0
795.623962 60.0
795.80365 76.0
796.095642 76.0
796.601196 76.0
796.803467 88.0
797.056335 124.0
797.253052 120.0
797.376709 48.0
800.674011 60.0
801.068604 80.0
801.986938 80.0
803.165527 72.0
804.356323 88.0
804.593445 60.0
804.740234 68.0
805.63269 84.0
805.706116 116.0
806.802673 40.0
806.864868 144.0
807.328552 92.0
809.122498 84.0
810.300659 48.0
812.109253 72.0
812.200012 68.0
812.7901 60.0
813.119263 132.0
814.453735 80.0
814.698059 64.0
814.78894 68.0
816.266907 60.0
816.460327 104.0
816.517212 40.0
816.596802 72.0
816.983704 108.0
819.10376 116.0
819.152893 48.0
821.267883 44.0
821.764282 56.0
821.815613 88.0
822.843079 76.0
823.002991 72.0
823.339966 96.0
823.557007 108.0
823.768372 52.0
824.265503 92.0
824.494141 52.0
825.048645 120.0
826.135376 76.0
826.215454 92.0
827.428894 88.0
827.669434 56.0
828.098999 48.0
828.981384 44.0
831.751892 44.0
832.504089 124.0
833.83136 84.0
835.240234 100.0
835.625732 88.0
836.494812 76.0
836.765442 96.0
837.998108 100.0
838.182556 76.0
838.407288 108.0
838.699158 76.0
839.02417 56.0
839.237488 60.0
839.410522 52.0
839.664307 52.0
840.974121 96.0
841.661194 40.0
842.088623 116.0
842.84552 116.0
844.782593 120.0
844.88092 28.0
846.235413 100.0
846.322266 100.0
846.959412 68.0
847.886536 96.0
847.950317 56.0
848.072021 64.0
849.986084 68.0
850.752319 36.0
853.396118 40.0
854.012634 36.0
854.123169 52.0
854.187134 60.0
854.763184 132.0
855.455872 52.0
855.636353 56.0
855.921692 72.0
856.451721 96.0
856.958618 108.0
857.063538 52.0
857.104309 92.0
857.284973 60.0
857.675537 128.0
859.50116 84.0
861.182739 36.0
861.498169 132.0
862.123474 64.0
862.784058 72.0
863.134888 32.0
863.439026 76.0
863.760742 28.0
865.499146 76.0
865.616272 40.0
866.196167 40.0
866.735229 44.0
867.33313 44.0
867.632141 40.0
868.582214 40.0
869.180725 40.0
869.656128 36.0
872.505554 48.0
872.617249 36.0
872.811279 72.0
873.552429 68.0
875.405334 88.0
876.714661 48.0
877.168579 84.0
878.206482 68.0
878.92041 108.0
879.239075 60.0
879.321716 112.0
879.870789 108.0
880.567627 48.0
881.294373 76.0
882.240112 80.0
883.902283 84.0
884.292908 60.0
884.920471 64.0
885.897827 132.0
886.687439 80.0
887.711731 44.0
887.818481 52.0
888.269287 64.0
891.105286 136.0
891.660095 108.0
893.02179 56.0
894.086914 40.0
895.027588 104.0
895.349182 88.0
895.426636 108.0
896.362061 84.0
896.409729 28.0
897.190613 84.0
898.282104 32.0
898.944458 80.0
900.198181 68.0
901.183899 52.0
901.428955 52.0
901.745728 56.0
901.84137 40.0
902.31366 128.0
902.439209 52.0
904.096436 64.0
904.820801 128.0
905.000427 48.0
905.174072 64.0
906.168518 60.0
906.965637 52.0
907.325378 84.0
909.041016 68.0
909.461182 60.0
909.545227 64.0
910.385925 96.0
912.609497 100.0
913.126709 88.0
914.095398 144.0
914.607056 104.0
915.672913 84.0
916.010254 48.0
917.541138 100.0
918.059753 32.0
918.210571 100.0
918.502197 96.0
919.972717 80.0
920.28064 120.0
920.617188 72.0
920.95105 100.0
921.428345 56.0
922.97583 64.0
924.675964 60.0
924.839417 52.0
927.365479 72.0
927.601929 52.0
929.118164 104.0
929.603638 96.0
930.635681 48.0
934.690491 28.0
934.733093 60.0
934.860901 104.0
934.994751 84.0
935.767944 32.0
937.35791 60.0
938.510132 84.0
940.92041 44.0
941.097534 56.0
942.154236 72.0
942.88147 56.0
944.014648 80.0
944.550903 68.0
947.385498 56.0
947.495789 88.0
947.630615 56.0
948.50708 64.0
948.746216 124.0
949.770386 40.0
951.120483 48.0
952.72345 56.0
953.153564 48.0
953.866577 68.0
956.382751 36.0
956.979919 44.0
957.207825 56.0
957.663574 96.0
958.076355 64.0
959.358337 48.0
960.363586 128.0
960.456116 40.0
961.332336 156.0
961.992859 32.0
963.506042 104.0
964.167297 96.0
964.315674 40.0
964.414551 44.0
964.692749 36.0
964.834961 116.0
965.694641 72.0
966.136963 68.0
966.851685 60.0
967.359314 76.0
968.263428 52.0
969.254761 68.0
969.298157 120.0
969.855957 56.0
970.320984 44.0
970.959717 48.0
971.133423 80.0
971.511841 56.0
972.523438 104.0
972.660034 76.0
974.560608 56.0
976.407104 52.0
976.780334 40.0
976.867432 108.0
976.979431 40.0
978.834412 68.0
978.977661 68.0
979.183228 56.0
979.930847 68.0
980.616394 48.0
981.127625 40.0
981.557861 72.0
983.554565 44.0
983.975159 76.0
984.509949 32.0
985.91571 52.0
988.286011 88.0
988.836792 44.0
988.903015 60.0
991.680664 64.0
991.774658 40.0
992.564697 44.0
993.141724 40.0
993.787964 92.0
996.01062 64.0
996.456726 64.0
996.557251 100.0
997.663513 96.0
998.135132 40.0
998.588013 48.0
1001.143494 36.0
1001.370239 48.0
1001.641113 72.0
1002.126282 36.0
1002.643066 52.0
1002.964539 96.0
1003.771667 52.0
1004.534912 52.0
1007.186401 72.0
1008.753723 28.0
1009.512512 72.0
1009.601074 68.0
1009.809814 96.0
1010.183044 32.0
1011.398132 84.0
1012.759705 48.0
1013.089111 52.0
1013.469299 84.0
1014.439087 64.0
1014.5849 44.0
1014.718079 60.0
1016.126221 76.0
1020.782715 52.0
1020.909912 92.0
1021.437866 68.0
1022.354187 52.0
1022.455994 56.0
1022.799744 44.0
1023.729431 36.0
1025.220337 80.0
1026.39978 80.0
1026.769653 164.0
1028.495239 88.0
1031.309814 48.0
1032.140991 44.0
1032.946899 128.0
1034.015625 36.0
1034.239624 44.0
1035.603638 92.0
1037.866089 96.0
1038.167603 104.0
1038.353516 52.0
1038.732056 48.0
1039.303101 60.0
1039.662476 48.0
1041.164917 52.0
1043.536377 92.0
1046.187378 60.0
1046.48999 84.0
1048.04248 64.0
1048.661133 40.0
1049.125366 96.0
1049.286499 112.0
1049.854004 64.0
1051.718872 48.0
1051.841553 40.0
1055.23999 32.0
1056.928467 48.0
1059.784302 72.0
1060.179565 68.0
1061.657837 76.0
1063.279907 156.0
1064.624023 108.0
1065.228149 48.0
1066.235352 76.0
1070.22998 108.0
1070.451416 112.0
1071.467651 52.0
1071.910767 52.0
1072.30188 64.0
1073.945068 80.0
1074.189209 160.0
1074.277832 88.0
1075.700562 60.0
1077.255005 52.0
1078.052246 52.0
1079.287842 76.0
1080.86438 88.0
1081.545166 52.0
1082.370117 76.0
1082.494629 44.0
1082.671387 80.0
1085.19458 92.0
1086.132446 48.0
1086.639282 84.0
1088.534912 64.0
1091.523315 120.0
1091.906616 92.0
1092.42627 96.0
1092.564453 68.0
1095.184692 60.0
1095.244019 72.0
1096.331299 60.0
1096.390625 60.0
1097.036621 80.0
1098.157715 80.0
1098.269897 60.0
1099.173828 40.0
1100.428101 80.0
1102.205078 56.0
1102.641235 80.0
1103.943848 68.0
1105.220703 60.0
1105.33313 88.0
1106.551147 60.0
1107.75 64.0
1108.121094 52.0
1110.687012 76.0
1110.978882 48.0
1113.415161 112.0
1114.072876 44.0
1114.690918 48.0
1118.448975 56.0
1118.928345 52.0
1120.147217 56.0
1120.307129 120.0
1120.620239 64.0
1120.966797 80.0
1126.498535 116.0
1127.62793 60.0
1130.785156 92.0
1133.335938 104.0
1133.651978 60.0
1136.676636 84.0
1138.052856 68.0
1138.724487 44.0
1138.939453 64.0
1139.624756 72.0
1140.088501 92.0
1141.150635 52.0
1142.969971 44.0
1146.23999 48.0
1148.626953 96.0
1153.516479 52.0
1154.605225 120.0
1157.650879 120.0
1158.125122 52.0
1159.724365 56.0
1159.79895 52.0
1167.79834 80.0
1169.649414 60.0
1170.241699 76.0
1171.801636 116.0
1174.283325 40.0
1174.644775 52.0
1175.054199 44.0
1175.156616 36.0
1176.828979 76.0
1177.348022 64.0
1179.26123 48.0
1182.325684 68.0
1183.332031 76.0
1184.201782 52.0
1184.996582 160.0
1185.723022 108.0
1186.484009 44.0
1186.922852 64.0
1188.751709 48.0
1188.871216 160.0
1189.633179 84.0
1194.402832 88.0
1195.441772 72.0
1195.916748 92.0
1197.982788 132.0
1198.148193 20.0
1199.795532 72.0
1200.098877 52.0
1203.210938 52.0
1207.44043 52.0
1212.120728 44.0
1213.493286 116.0
1215.477295 48.0
1217.129517 116.0
1223.95874 60.0
1226.439209 40.0
1227.387451 32.0
1229.976074 80.0
1233.105591 80.0
1233.783813 188.0
1234.846802 108.0
1235.693237 64.0
1236.064209 164.0
1236.834106 80.0
1237.233154 180.0
1239.12439 52.0
1239.734131 76.0
1239.888306 40.0
1241.753418 92.0
1244.876831 36.0
1246.710571 76.0
1251.710205 68.0
1252.328247 96.0
1254.171875 60.0
1256.774536 52.0
1257.049805 76.0
1258.299316 52.0
1262.242432 36.0
1262.32019 56.0
1263.084106 52.0
1264.393311 140.0
1267.594604 72.0
1267.771851 48.0
1267.849731 64.0
1268.452271 88.0
1270.906494 152.0
1273.25647 92.0
1273.476685 40.0
1274.194214 76.0
1277.564453 76.0
1280.782471 68.0
1281.323853 104.0
1283.754761 44.0
1287.409058 100.0
1288.416382 68.0
1292.02002 64.0
1292.19165 68.0
1293.22229 60.0
1293.565918 60.0
1293.92395 192.0
1296.252075 60.0
1296.445557 136.0
1297.312988 60.0
1297.484985 76.0
1299.220825 80.0
1300.649048 64.0
1302.386841 68.0
1303.249146 96.0
1305.880493 84.0
1307.031738 88.0
1307.62915 32.0
1309.666992 64.0
1310.603638 28.0
1312.297607 136.0
1312.860229 84.0
1314.598999 48.0
1315.232788 84.0
1315.46521 80.0
1316.28833 96.0
1316.649536 96.0
1317.198486 32.0
1320.10437 92.0
1322.34729 76.0
1322.42688 48.0
1323.013306 180.0
1323.983765 100.0
1324.773315 64.0
1325.411011 48.0
1326.897095 160.0
1327.121826 88.0
1327.317627 44.0
1327.955933 84.0
1329.00061 56.0
1330.408813 64.0
1333.132935 52.0
1335.052368 36.0
1335.728882 56.0
1337.300781 152.0
1338.392944 48.0
1340.585815 36.0
1345.977295 120.0
1346.203613 184.0
1346.459229 80.0
1347.299438 108.0
1348.527222 72.0
1352.777588 48.0
1353.011841 84.0
1354.095703 96.0
1358.303467 68.0
1358.384155 124.0
1360.307007 136.0
1360.395142 88.0
1360.593384 124.0
1362.708862 64.0
1362.83374 160.0
1365.149536 36.0
1369.971191 172.0
1370.037476 108.0
1370.951294 64.0
1372.086548 36.0
1372.447876 52.0
1372.742798 96.0
1376.277832 64.0
1376.617554 200.0
1378.848877 96.0
1380.756592 64.0
1384.849976 44.0
1393.493286 72.0
1393.946655 128.0
1394.637939 40.0
1394.868408 56.0
1395.381348 40.0
1396.206909 64.0
1396.556519 40.0
1398.766724 176.0
1400.226318 60.0
1400.38269 128.0
1401.992188 140.0
1402.148682 152.0
1404.146973 176.0
1406.094482 28.0
1406.490112 84.0
1408.297363 104.0
1408.954712 112.0
1409.776733 92.0
1413.134644 88.0
1419.47229 68.0
1422.26355 88.0
1423.111938 100.0
1425.057495 196.0
1426.816406 48.0
1427.272583 164.0
1427.688721 68.0
1431.93396 60.0
1433.53125 52.0
1433.885498 112.0
1434.563965 192.0
1435.680054 120.0
1436.260864 144.0
1436.713501 44.0
1436.773926 100.0
1437.604004 40.0
1438.245605 64.0
1439.808716 108.0
1440.580444 120.0
1442.76355 64.0
1445.630493 28.0
1446.849365 40.0
1447.243042 68.0
1447.667114 140.0
1447.909546 68.0
1448.58374 68.0
1449.250488 40.0
1449.379395 76.0
1450.857422 84.0
1453.451782 272.0
1454.810425 116.0
1455.121826 80.0
1457.522217 56.0
1457.643799 72.0
1460.099609 92.0
1460.495117 92.0
1462.488892 148.0
1463.113281 72.0
1463.722412 116.0
1464.344238 88.0
1465.375488 68.0
1465.832764 132.0
1469.638184 168.0
1471.69165 128.0
1471.989502 48.0
1472.187988 56.0
1472.806763 136.0
1474.892944 52.0
1475.068848 60.0
1475.695801 108.0
1475.856445 88.0
1478.212646 172.0
1478.763794 160.0
1479.024048 68.0
1479.873901 52.0
1480.425293 148.0
1480.723999 132.0
1481.091675 72.0
1483.122437 80.0
1483.505859 192.0
1485.085571 96.0
1487.096069 128.0
1488.49353 128.0
1488.554932 60.0
1488.877563 96.0
1489.230835 64.0
1489.630371 112.0
1490.79834 40.0
1492.951172 124.0
1493.497314 128.0
1495.844482 68.0
1497.400024 136.0
1497.646606 160.0
1497.92395 76.0
1498.586548 80.0
1499.611572 40.0
1500.158936 80.0
1500.675537 108.0
1501.616455 128.0
1501.708984 116.0
1502.557617 136.0
1503.96228 180.0
1504.141602 92.0
