>compound Febuxostat (Uloric)
>formula C16H16N2O3S
>ionization [M+H]+
>parentmass 317.095581
#inchi InChI=1S/C16H16N2O3S/c1-9(2)8-21-13-5-4-11(6-12(13)7-17)15-18-10(3)14(22-15)16(19)20/h4-6,9H,8H2,1-3H3,(H,19,20)
#inchikey BQSJTQLCZDPROO
#Ion_Source LC-ESI
#Instrument qTof
#Compound_Source Commercial
#PI Dorrestein
#Data_Collector Garg_Neha
#Scan -1
#Precursor_MZ 317.095
#ExactMass 316.088
#Charge 1
#CAS_Number 144060-53-7, 1140907-13-6 (sodium salt)
#Pubmed_ID N/A
#Smiles C1(=C(C=CC(=C1)C2SC(=C(N=2)C)C(O)=O)OCC(C)C)C#N
#INCHI_AUX N/A
#Library_Class 1
#SpectrumID CCMSLIB00000078184
#IonMode Positive
#UpdateWorkflowName UPDATE-SINGLE-ANNOTATED-GOLD
#LibraryQualityString Gold
#TaskID 77f51c88eb8b467eb4a01dd2d0cb90d2
##Scan# 1962
#SpectrumFile Plate3_21_40_GG10_01_16499.mzXML
#LibraryName FDALibrary_2_04302014.mgf
#MQScore -1
#Organism FDALibrary_2_04302014
#TIC_Query 0
#RT_Query -1
#MZErrorPPM -1
#SharedPeaks 0
#MassDiff 0
#LibMZ -1
#SpecMZ 317.095
#SpecCharge 0
#internalFilename spec-00000.mgf

>collision 10
46.810913 148.0
48.686741 140.0
49.319275 184.0
50.911366 208.0
52.87986 200.0
52.901573 168.0
56.621433 140.0
58.688744 188.0
59.099613 172.0
59.608688 180.0
60.86763 204.0
60.985699 152.0
62.616024 228.0
62.789383 216.0
63.037235 152.0
64.41153 160.0
65.10022 148.0
65.367073 180.0
65.815178 188.0
67.031746 208.0
67.323746 168.0
67.582016 184.0
68.983238 148.0
69.300995 140.0
70.676323 148.0
70.803543 148.0
71.05162 164.0
71.384186 148.0
72.076996 188.0
72.398399 196.0
73.210152 232.0
75.150589 176.0
75.188553 180.0
75.276596 204.0
77.294785 180.0
78.683327 152.0
80.462265 240.0
83.973984 188.0
84.688629 284.0
85.78009 200.0
86.568321 172.0
86.858139 140.0
89.361504 172.0
89.659019 152.0
89.770248 152.0
90.588631 196.0
90.996368 156.0
91.013458 224.0
91.260468 160.0
91.323219 160.0
91.669708 168.0
93.44471 216.0
93.650688 144.0
94.66848 144.0
98.10939 156.0
100.996796 144.0
102.924026 184.0
103.64209 240.0
104.838966 148.0
104.863426 140.0
105.036736 232.0
105.555489 168.0
106.664642 172.0
107.164726 184.0
109.824471 244.0
111.871727 144.0
112.787216 172.0
113.564293 176.0
113.753136 148.0
116.044395 148.0
116.542343 196.0
117.65799 148.0
118.049072 140.0
120.623314 160.0
122.33876 188.0
125.685463 148.0
127.638695 164.0
127.944687 168.0
128.27359 156.0
129.697647 172.0
131.004242 152.0
133.851135 168.0
133.95018 172.0
134.658279 140.0
135.028076 208.0
135.368256 220.0
135.384476 168.0
135.915314 148.0
137.029022 188.0
137.602768 176.0
138.988388 160.0
139.767944 172.0
140.607407 208.0
141.304489 176.0
142.349777 172.0
143.821091 144.0
144.062256 160.0
144.588287 180.0
144.772629 160.0
145.007416 176.0
145.041 2272.0
145.91478 188.0
146.046219 152.0
146.583908 200.0
147.631577 164.0
147.67511 156.0
148.088989 224.0
148.469482 216.0
148.559235 184.0
148.714523 220.0
149.718628 204.0
150.262192 212.0
150.435471 192.0
151.06105 204.0
153.041595 156.0
153.865067 184.0
154.916107 140.0
154.987961 168.0
156.065186 160.0
156.876801 160.0
158.837296 208.0
160.479492 188.0
160.900833 164.0
161.975586 156.0
162.001831 188.0
162.039215 468.0
163.771393 148.0
164.840347 144.0
165.436279 184.0
165.502853 148.0
165.894836 168.0
167.315475 160.0
168.346848 196.0
169.850555 200.0
169.988586 180.0
170.463272 208.0
170.978165 168.0
171.014603 156.0
173.032455 156.0
173.37822 148.0
173.56958 216.0
174.13118 188.0
175.022644 184.0
175.143799 180.0
175.438919 160.0
175.892654 172.0
176.019379 184.0
176.088028 180.0
176.365463 140.0
176.41568 168.0
176.534668 140.0
177.662994 144.0
177.867661 184.0
178.085052 200.0
178.417206 228.0
180.349823 176.0
180.887466 152.0
182.564362 180.0
182.583191 252.0
186.215561 176.0
189.031738 140.0
190.039902 168.0
190.23494 260.0
190.3228 216.0
191.858017 192.0
193.061874 156.0
193.468613 156.0
193.576599 204.0
193.756622 180.0
194.513687 144.0
195.286133 176.0
195.887375 176.0
197.442032 216.0
199.005646 220.0
199.303375 140.0
199.682877 144.0
201.032318 220.0
204.04895 208.0
205.407333 204.0
205.704102 148.0
206.029053 116.0
206.175369 144.0
206.386902 256.0
206.507019 160.0
206.816025 156.0
207.182556 144.0
208.456482 204.0
208.493835 140.0
209.03447 180.0
210.279434 164.0
212.977921 192.0
214.001556 156.0
214.027771 180.0
215.026642 940.0
215.664368 160.0
216.032394 448.0
216.419128 204.0
216.934753 152.0
217.043015 8176.0
217.22435 148.0
217.293304 184.0
217.541992 168.0
217.562546 144.0
217.903214 176.0
218.022156 108.0
218.046692 1028.0
219.04245 632.0
219.194901 216.0
219.640076 152.0
220.197922 176.0
222.531357 140.0
222.742203 164.0
222.985855 144.0
223.063126 244.0
223.503281 144.0
223.991531 196.0
224.206055 168.0
224.325287 196.0
224.865158 140.0
225.552124 156.0
226.77034 212.0
227.163132 148.0
228.773849 200.0
229.053909 176.0
230.595734 172.0
232.898438 188.0
233.01387 148.0
233.036804 228.0
234.038849 248.0
234.364761 196.0
235.701218 156.0
239.730316 148.0
242.124527 208.0
242.344467 192.0
243.023422 900.0
244.019241 132.0
244.042236 200.0
245.618042 184.0
245.917572 188.0
249.513702 144.0
250.007523 160.0
250.62471 156.0
251.31839 224.0
252.591553 212.0
253.344955 160.0
255.602356 160.0
255.860153 168.0
256.462219 240.0
256.66626 164.0
259.060089 216.0
259.406158 188.0
259.739655 200.0
259.909698 168.0
260.033264 172.0
260.269196 176.0
260.445831 164.0
260.468292 148.0
260.548615 172.0
260.613342 176.0
260.655914 132.0
260.812103 156.0
260.857117 180.0
261.033844 51304.0
261.167786 320.0
261.236572 184.0
261.585175 148.0
261.638824 148.0
261.837067 100.0
262.035309 7636.0
262.821533 132.0
263.032288 1740.0
263.538483 140.0
263.829987 108.0
263.921356 132.0
264.032257 448.0
264.067841 160.0
264.609039 152.0
265.680023 112.0
266.912689 156.0
269.654327 188.0
270.082642 180.0
271.635284 180.0
274.585663 220.0
274.93866 184.0
276.164398 200.0
276.65744 188.0
283.197388 148.0
286.998199 184.0
291.04541 164.0
293.791565 184.0
295.876251 148.0
297.604218 208.0
300.281464 148.0
313.990753 152.0
315.213623 184.0
315.535278 148.0
315.729767 188.0
316.862457 160.0
317.031433 220.0
317.095581 22164.0
317.235626 260.0
317.37912 176.0
317.461487 180.0
317.529419 328.0
317.998779 116.0
318.046875 164.0
318.097412 2508.0
318.860992 112.0
319.092407 1468.0
320.090668 196.0
320.158081 148.0
320.199005 128.0
435.671906 140.0
873.070496 188.0
1549.713623 144.0
1611.734619 136.0
1683.639893 216.0
1860.347534 192.0
1907.992188 196.0
