>compound MLS001055448-01!COLCHICINE
>formula C22H25NO6
>ionization [M+H]+
>parentmass 400.1754639720906
#inchi InChI=1S/C22H25NO6/c1-12(24)23-16-8-6-13-10-19(27-3)21(28-4)22(29-5)20(13)14-7-9-18(26-2)17(25)11-15(14)16/h7,9-11,16H,6,8H2,1-5H3,(H,23,24)/t16-/m0/s1
#inchikey IAKHMKGGTNLKSZ
#Ion_Source LC-ESI
#Instrument qTof
#Compound_Source NIH Pharmacologically Active Library
#PI Dorrestein
#Data_Collector VP/LMS
#Scan -1
#Precursor_MZ 400.174
#ExactMass 399.168
#Charge 1
#CAS_Number N/A
#Pubmed_ID N/A
#Smiles COc1cc2CC[C@H](NC(=O)C)c3cc(=O)c(OC)ccc3-c2c(OC)c1OC
#INCHI_AUX N/A
#Library_Class 1
#SpectrumID CCMSLIB00000085238
#IonMode Positive
#UpdateWorkflowName UPDATE-SINGLE-ANNOTATED-GOLD
#LibraryQualityString Gold
#TaskID d252d724072548979f1f6f1ced849daf
##Scan# 1619
#SpectrumFile p3-G05_GG5_01_18298.mzXML
#LibraryName Pharm_Active_Library.mgf
#MQScore -1
#Organism Pharm_Active_Library
#TIC_Query 0
#RT_Query -1
#MZErrorPPM -1
#SharedPeaks 0
#MassDiff 0
#LibMZ -1
#SpecMZ 400.174
#SpecCharge 0
#internalFilename spec-00000.mgf

>collision 10
44.891506 124.0
44.914181 208.0
45.030312 132.0
45.098461 180.0
45.111828 140.0
45.129211 152.0
45.206799 176.0
45.23357 148.0
45.248295 84.0
45.273739 196.0
45.30991 252.0
45.33149 188.0
45.409111 176.0
45.422523 128.0
45.450703 52.0
45.587681 108.0
45.665661 156.0
45.716362 164.0
45.767948 136.0
45.81509 172.0
45.851475 88.0
45.870346 48.0
45.889221 168.0
45.935078 144.0
45.944523 104.0
45.972858 164.0
45.992302 168.0
46.084946 40.0
46.101162 128.0
46.236408 120.0
46.259422 152.0
46.28244 160.0
46.301399 136.0
46.324429 124.0
46.365078 136.0
46.381344 220.0
46.393547 60.0
46.430161 52.0
46.466785 140.0
46.491211 140.0
46.522972 220.0
46.578114 184.0
46.692295 88.0
46.705898 124.0
46.753521 176.0
46.919712 160.0
46.937439 92.0
47.022026 156.0
47.075592 172.0
47.110786 88.0
47.129917 136.0
47.202366 176.0
47.261189 100.0
47.284454 140.0
47.380314 168.0
47.437878 136.0
47.452957 104.0
47.470787 172.0
47.487244 128.0
47.614895 220.0
47.702084 136.0
47.780544 120.0
47.803249 172.0
47.83353 180.0
47.844543 216.0
47.923054 52.0
47.957508 188.0
48.0905 116.0
48.101974 160.0
48.146538 152.0
48.179691 148.0
48.20042 72.0
48.31657 80.0
48.40239 156.0
48.414856 180.0
48.484127 44.0
48.518784 232.0
48.531261 184.0
48.661507 148.0
48.68808 120.0
48.746952 180.0
48.80621 144.0
48.847935 152.0
48.886894 52.0
48.938404 108.0
48.952328 160.0
49.097805 136.0
49.11401 84.0
49.22567 120.0
49.277355 212.0
49.302509 220.0
49.396194 72.0
49.447968 136.0
49.461967 152.0
49.478661 160.0
49.679184 68.0
49.773228 188.0
49.847683 96.0
49.868763 180.0
49.88282 168.0
49.967751 124.0
49.991131 112.0
50.044624 176.0
50.095325 136.0
50.109417 136.0
50.165794 80.0
50.208096 72.0
50.262634 176.0
50.27309 180.0
50.318169 60.0
50.383137 80.0
50.400093 152.0
50.53194 148.0
50.582546 156.0
50.685944 220.0
50.824913 152.0
50.843361 148.0
50.880272 136.0
50.939922 88.0
50.961231 84.0
50.998184 164.0
51.102001 136.0
51.13522 152.0
51.207352 92.0
51.230145 148.0
51.262917 60.0
51.321365 132.0
51.338478 196.0
51.376991 100.0
51.512619 84.0
51.535095 164.0
51.54834 44.0
51.569778 180.0
51.719975 148.0
51.778683 180.0
51.794437 124.0
51.825958 180.0
51.847454 160.0
51.901932 132.0
51.955002 116.0
51.977028 172.0
52.087082 168.0
52.120129 136.0
52.222206 116.0
52.238029 116.0
52.254772 132.0
52.338779 184.0
52.406483 100.0
52.522717 200.0
52.533363 216.0
52.563663 164.0
52.645954 368.0
52.658951 144.0
52.699402 132.0
52.787582 160.0
52.88018 172.0
52.91637 208.0
52.938091 188.0
52.998672 176.0
53.009232 180.0
53.077213 156.0
53.094616 124.0
53.117825 120.0
53.129433 192.0
53.251373 100.0
53.28223 200.0
53.322571 72.0
53.466564 232.0
53.529163 120.0
53.581604 48.0
53.619492 156.0
53.634068 76.0
53.768265 64.0
53.78286 184.0
53.828121 220.0
53.874863 80.0
53.907009 268.0
53.918701 192.0
53.961098 60.0
54.003506 112.0
54.047398 148.0
54.220207 168.0
54.245129 176.0
54.263916 216.0
54.305252 120.0
54.334591 64.0
54.362473 160.0
54.427063 196.0
54.449093 128.0
54.481411 56.0
54.612247 112.0
54.738823 184.0
54.821323 176.0
54.832153 172.0
54.875343 216.0
54.885448 208.0
55.049995 120.0
55.339836 132.0
55.372417 132.0
55.417442 152.0
55.433159 96.0
55.52063 148.0
55.538429 132.0
55.606686 124.0
55.623013 56.0
55.676468 188.0
55.756699 108.0
55.768589 192.0
55.802784 176.0
55.859299 224.0
55.924774 108.0
55.9888 212.0
56.067764 132.0
56.105034 272.0
56.229179 180.0
56.352798 136.0
56.417068 76.0
56.55769 140.0
56.588459 116.0
56.732967 196.0
56.798798 196.0
56.833458 160.0
56.922581 212.0
57.016678 100.0
57.055759 116.0
57.082829 156.0
57.149017 160.0
57.236324 60.0
57.317669 100.0
57.335754 80.0
57.402088 120.0
57.422115 172.0
57.435272 44.0
57.466953 180.0
57.614922 36.0
57.654209 144.0
57.716194 200.0
57.747952 312.0
57.826633 172.0
57.890224 140.0
57.933613 124.0
57.99477 92.0
58.043285 112.0
58.081203 216.0
58.217808 228.0
58.315048 180.0
58.378906 60.0
58.404762 112.0
58.447361 132.0
58.541748 156.0
58.614872 124.0
58.698715 100.0
58.744476 88.0
58.803989 192.0
58.860477 196.0
58.941441 52.0
58.975063 108.0
59.075993 128.0
59.169353 192.0
59.33176 128.0
59.532776 152.0
59.777218 128.0
59.801342 172.0
59.823395 112.0
59.881912 112.0
59.901936 220.0
59.914261 112.0
60.051464 164.0
60.086945 164.0
60.107002 116.0
60.123981 188.0
60.239792 160.0
60.544514 188.0
60.640579 152.0
60.732063 116.0
60.752422 124.0
60.823616 136.0
60.836037 132.0
60.846905 136.0
60.863983 116.0
60.909027 216.0
61.011818 84.0
61.06675 180.0
61.259048 168.0
61.285538 52.0
61.359032 184.0
61.457062 108.0
61.486713 140.0
61.642891 88.0
61.679493 128.0
61.703854 112.0
61.747639 244.0
61.786747 164.0
61.800831 148.0
61.846218 76.0
61.86657 180.0
61.909531 144.0
61.983574 160.0
61.990257 112.0
61.992321 156.0
62.037334 52.0
62.060856 164.0
62.082809 104.0
62.130089 172.0
62.200489 124.0
62.23032 152.0
62.24131 132.0
62.260159 148.0
62.28529 160.0
62.332424 180.0
62.346569 140.0
62.405216 196.0
62.462925 80.0
62.524292 176.0
62.562073 212.0
62.694389 168.0
62.719608 168.0
62.770061 216.0
62.839466 128.0
62.866295 156.0
63.079533 132.0
63.12756 128.0
63.146439 180.0
63.185493 152.0
63.258297 124.0
63.270962 120.0
63.321636 132.0
63.415119 140.0
63.459511 196.0
63.472195 40.0
63.557858 208.0
63.635635 172.0
63.648338 208.0
63.661045 156.0
63.746834 92.0
63.761135 116.0
63.856533 160.0
63.913807 196.0
64.033562 128.0
64.17186 164.0
64.197548 144.0
64.390488 172.0
64.432022 64.0
64.636696 160.0
64.68631 148.0
64.798424 212.0
64.840088 128.0
64.873749 176.0
64.909027 84.0
64.926666 136.0
64.981209 68.0
65.132118 52.0
65.151398 144.0
65.20282 132.0
65.23497 168.0
65.276779 144.0
65.357208 124.0
65.703636 104.0
65.714928 152.0
65.731064 116.0
65.877998 72.0
65.939407 60.0
66.012161 164.0
66.023476 116.0
66.038033 92.0
66.054214 116.0
66.128647 104.0
66.144836 136.0
66.157784 152.0
66.269539 100.0
66.324646 136.0
66.373283 140.0
66.392746 180.0
66.53392 100.0
66.551544 192.0
66.587509 144.0
66.621628 200.0
66.641121 44.0
66.756538 184.0
66.790695 156.0
66.892097 140.0
66.93718 208.0
67.026772 136.0
67.040344 164.0
67.066078 176.0
67.111542 176.0
67.194725 156.0
67.221695 144.0
67.235519 128.0
67.34346 168.0
67.433151 208.0
67.457672 132.0
67.485466 48.0
67.555946 176.0
67.609795 140.0
67.632713 112.0
67.675278 104.0
67.699844 192.0
67.868637 196.0
67.899796 224.0
67.945724 120.0
67.983467 164.0
68.052109 108.0
68.085258 112.0
68.175621 176.0
68.279198 124.0
68.442871 228.0
68.621727 176.0
68.719048 128.0
68.7537 44.0
68.768555 216.0
68.791664 124.0
68.857674 156.0
68.90728 196.0
69.031258 116.0
69.158653 136.0
69.191765 152.0
69.229851 120.0
69.263695 188.0
69.281197 100.0
69.372353 148.0
69.390587 124.0
69.441994 92.0
69.490105 184.0
69.505043 168.0
69.574753 212.0
69.586372 172.0
69.689362 188.0
69.719269 136.0
69.749191 128.0
69.799072 184.0
69.819023 204.0
69.89019 216.0
69.895195 168.0
69.938614 156.0
69.992104 176.0
70.32888 156.0
70.562767 148.0
70.694923 80.0
70.80542 160.0
70.849213 140.0
70.964622 260.0
70.978035 108.0
71.01326 180.0
71.095467 164.0
71.107216 88.0
71.132401 52.0
71.196205 124.0
71.216362 168.0
71.231476 96.0
71.271805 172.0
71.298691 132.0
71.320541 212.0
71.3703 188.0
71.520714 148.0
71.574593 156.0
71.611641 160.0
71.623436 152.0
71.695885 92.0
71.835838 112.0
71.883087 152.0
71.920219 144.0
72.066238 160.0
72.097565 136.0
72.138138 96.0
72.207466 108.0
72.26828 152.0
72.373314 220.0
72.452927 176.0
72.485115 176.0
72.500374 192.0
72.552917 196.0
72.615242 96.0
72.681831 180.0
72.717468 52.0
72.756516 148.0
72.787079 196.0
72.800659 144.0
72.851616 180.0
72.922989 160.0
73.031815 232.0
73.167961 48.0
73.27356 36.0
73.317863 84.0
73.334908 144.0
73.35025 132.0
73.375824 172.0
73.469627 112.0
73.536179 156.0
73.60276 132.0
73.705254 260.0
73.722343 216.0
73.888214 88.0
73.939552 60.0
74.016594 104.0
74.19136 188.0
74.232513 240.0
74.266418 188.0
74.32 108.0
74.373207 100.0
74.459061 152.0
74.509666 236.0
74.533768 172.0
74.563866 184.0
74.59481 208.0
74.660149 160.0
74.781349 108.0
74.828789 172.0
74.909737 88.0
74.923515 216.0
75.023483 120.0
75.062744 212.0
75.102806 144.0
75.118332 212.0
75.227051 124.0
75.273674 172.0
75.289215 100.0
75.347946 200.0
75.384239 116.0
75.422264 216.0
75.444733 136.0
75.460297 236.0
75.486237 104.0
75.596954 72.0
75.676582 152.0
75.698074 156.0
75.747589 92.0
75.85157 144.0
75.943474 180.0
75.976318 120.0
76.096191 148.0
76.117027 40.0
76.198669 128.0
76.21431 148.0
76.243851 136.0
76.26487 176.0
76.308174 164.0
76.323822 164.0
76.445595 40.0
76.509109 188.0
76.562241 264.0
76.588211 184.0
76.820221 84.0
76.839409 128.0
77.050674 120.0
77.075134 64.0
77.143303 180.0
77.296227 240.0
77.32077 184.0
77.425018 96.0
77.489838 116.0
77.611382 164.0
77.752884 40.0
77.800278 160.0
78.002312 44.0
78.077072 200.0
78.106064 216.0
78.185242 208.0
78.20636 140.0
78.245094 48.0
78.312012 220.0
78.324341 228.0
78.406654 160.0
78.43129 180.0
78.546455 192.0
78.592331 120.0
78.625862 136.0
78.645271 220.0
78.684113 148.0
78.722916 160.0
78.880219 104.0
79.154465 224.0
79.193428 208.0
79.210243 132.0
79.223541 60.0
79.276703 144.0
79.365334 92.0
79.427414 152.0
79.539207 76.0
79.636871 136.0
79.677734 164.0
79.690918 124.0
79.786148 160.0
79.807487 172.0
79.871513 176.0
79.903534 248.0
79.952057 164.0
79.969376 40.0
80.065529 124.0
80.104713 168.0
80.27404 164.0
80.406258 148.0
80.427483 116.0
80.468544 172.0
80.588219 192.0
80.613235 176.0
80.652557 180.0
80.715134 188.0
80.784889 156.0
80.813995 184.0
80.868996 168.0
80.915543 88.0
81.143089 92.0
81.184334 140.0
81.35659 152.0
81.370956 164.0
81.408669 160.0
81.433807 180.0
81.505676 124.0
81.536224 104.0
81.552399 176.0
81.608131 84.0
81.660286 108.0
81.730103 144.0
81.755013 184.0
81.908691 216.0
81.933914 144.0
81.957253 176.0
81.975357 144.0
82.007797 120.0
82.028854 200.0
82.139435 208.0
82.211609 256.0
82.266121 20.0
82.343407 124.0
82.388565 44.0
82.493393 292.0
82.522316 40.0
82.567528 132.0
82.585617 144.0
82.605515 172.0
82.634155 164.0
82.669647 264.0
82.68856 188.0
82.743057 228.0
82.770218 240.0
82.848106 116.0
82.88253 120.0
82.927841 192.0
82.951401 172.0
82.9786 180.0
83.01487 116.0
83.067467 92.0
83.114639 236.0
83.172722 124.0
83.209564 68.0
83.23082 100.0
83.283485 116.0
83.316185 216.0
83.357979 100.0
83.407051 156.0
83.427048 136.0
83.450684 168.0
83.568916 52.0
83.592575 128.0
83.61441 132.0
83.718185 164.0
83.802879 252.0
83.858482 56.0
83.922287 64.0
83.96241 160.0
84.009834 168.0
84.071877 164.0
84.113853 144.0
84.139915 160.0
84.161324 140.0
84.228897 96.0
84.289192 160.0
84.301987 156.0
84.409843 148.0
84.479347 176.0
84.5196 168.0
84.633095 28.0
84.669724 228.0
84.70269 148.0
84.722847 104.0
84.767014 112.0
84.840141 116.0
84.898819 188.0
85.047432 76.0
85.102509 152.0
85.12455 156.0
85.212723 208.0
85.326675 128.0
85.341385 156.0
85.374489 156.0
85.396553 72.0
85.433884 124.0
85.523521 144.0
85.536407 132.0
85.580589 136.0
85.602692 152.0
85.617424 120.0
85.632156 136.0
85.687424 168.0
85.706398 148.0
85.744553 96.0
85.779572 140.0
85.814606 80.0
85.827507 260.0
85.934494 192.0
85.967712 152.0
86.002777 172.0
86.082169 136.0
86.116287 180.0
86.176384 184.0
86.379753 120.0
86.401955 96.0
86.46769 176.0
86.473396 92.0
86.478462 140.0
86.520401 144.0
86.757545 40.0
86.816887 136.0
86.902214 148.0
86.965317 188.0
87.039581 176.0
87.052048 168.0
87.099014 60.0
87.177048 176.0
87.229095 180.0
87.284874 128.0
87.340668 180.0
87.506302 128.0
87.593834 112.0
87.651596 224.0
87.664642 128.0
87.715675 136.0
87.731743 100.0
87.802605 156.0
87.839912 124.0
87.925461 132.0
87.964943 108.0
87.981682 252.0
88.001587 268.0
88.097534 60.0
88.114349 92.0
88.149216 224.0
88.315559 184.0
88.381737 180.0
88.395729 140.0
88.428421 144.0
88.480942 44.0
88.568954 92.0
88.582069 144.0
88.600807 92.0
88.700134 128.0
88.745125 148.0
88.780754 112.0
88.854828 140.0
88.987175 100.0
89.079208 116.0
89.126175 152.0
89.154366 112.0
89.240837 184.0
89.311577 120.0
89.406906 172.0
89.451561 172.0
89.464737 164.0
89.485443 188.0
89.560776 160.0
89.602226 44.0
89.673836 156.0
89.726616 100.0
89.764328 148.0
89.894501 132.0
89.949234 100.0
89.96434 212.0
89.983215 172.0
90.027901 188.0
90.051201 180.0
90.177795 160.0
90.194084 104.0
90.20993 180.0
90.253418 184.0
90.28746 188.0
90.299927 132.0
90.347992 136.0
90.425575 84.0
90.489708 160.0
90.529709 104.0
90.561905 216.0
90.599792 140.0
90.616844 72.0
90.838669 156.0
90.875748 168.0
90.895592 156.0
90.912666 60.0
90.975311 176.0
91.005684 144.0
91.053162 48.0
91.079758 40.0
91.098755 76.0
91.233688 28.0
91.315453 112.0
91.399162 148.0
91.456261 148.0
91.488441 208.0
91.608604 204.0
91.648613 236.0
91.698166 36.0
91.854523 176.0
91.894592 164.0
91.907417 116.0
91.98391 180.0
92.060463 148.0
92.100777 152.0
92.172539 168.0
92.188667 208.0
92.249832 180.0
92.265129 152.0
92.289986 180.0
92.316757 152.0
92.339706 48.0
92.368401 80.0
92.565536 216.0
92.778229 192.0
92.812744 88.0
92.845345 40.0
92.883705 136.0
93.016113 168.0
93.031471 108.0
93.106361 128.0
93.23893 116.0
93.337875 300.0
93.41391 108.0
93.542847 176.0
93.562096 92.0
93.658386 60.0
93.751152 136.0
93.82605 160.0
94.065277 124.0
94.186935 164.0
94.345398 168.0
94.413078 236.0
94.451759 140.0
94.52948 168.0
94.552383 140.0
94.579475 188.0
94.620132 184.0
94.763458 52.0
94.777023 112.0
94.810982 136.0
94.833229 108.0
94.879753 168.0
95.038063 168.0
95.044388 132.0
95.091202 120.0
95.229057 152.0
95.242653 172.0
95.267914 140.0
95.411728 128.0
95.43737 172.0
95.487572 152.0
95.575111 116.0
95.635445 188.0
95.651016 40.0
95.684113 216.0
95.701637 88.0
95.933495 176.0
96.073914 156.0
96.144157 220.0
96.200676 172.0
96.303688 176.0
96.327705 48.0
96.599442 136.0
96.64444 140.0
96.765793 204.0
96.844131 164.0
96.922493 224.0
96.95385 200.0
97.028549 152.0
97.047951 188.0
97.093056 124.0
97.112663 172.0
97.216896 164.0
97.248055 176.0
97.367828 116.0
97.428719 72.0
97.464088 116.0
97.481773 40.0
97.505356 208.0
97.566299 152.0
97.692169 180.0
97.753166 280.0
97.841743 132.0
97.955963 352.0
98.032806 168.0
98.074203 268.0
98.099823 160.0
98.237877 68.0
98.257607 52.0
98.451057 164.0
98.648651 152.0
98.690407 188.0
98.713898 172.0
98.775215 116.0
98.834618 168.0
98.89196 172.0
98.914864 176.0
99.016701 152.0
99.033066 184.0
99.123199 196.0
99.175217 120.0
99.238655 116.0
99.268402 184.0
99.367577 396.0
99.383453 168.0
99.423141 208.0
99.44101 124.0
99.460854 216.0
99.498573 160.0
99.633629 136.0
99.659462 128.0
99.701195 432.0
99.740944 116.0
99.768776 108.0
99.896057 140.0
99.96524 156.0
100.34417 256.0
100.396019 56.0
100.519707 176.0
100.644104 152.0
100.713371 108.0
100.765312 104.0
100.929451 140.0
100.977219 204.0
101.12928 208.0
101.189339 136.0
101.267616 212.0
101.281464 164.0
101.317429 172.0
101.405701 156.0
101.51757 180.0
101.538033 204.0
101.582161 136.0
101.623779 252.0
101.640343 96.0
101.654388 56.0
101.682487 132.0
101.706573 164.0
101.82103 172.0
101.843117 152.0
101.865219 112.0
101.921471 172.0
101.953629 164.0
102.046097 200.0
102.128555 180.0
102.239212 168.0
102.271423 76.0
102.293564 160.0
102.309669 132.0
102.337852 176.0
102.449242 132.0
102.503036 116.0
102.559471 96.0
102.807556 76.0
103.001389 128.0
103.053703 532.0
103.373421 124.0
103.460457 132.0
103.525253 196.0
103.610329 148.0
103.640663 132.0
103.752197 168.0
103.770447 184.0
103.821693 192.0
103.830193 52.0
103.834854 216.0
103.916489 72.0
103.963158 120.0
103.993607 148.0
104.056313 180.0
104.139801 116.0
104.16011 176.0
104.180428 156.0
104.197739 192.0
104.267807 132.0
104.389786 132.0
104.406059 232.0
104.493271 220.0
104.532188 64.0
104.668579 120.0
104.70388 156.0
104.760239 164.0
104.805061 168.0
104.821365 128.0
104.85601 40.0
104.953865 128.0
105.00061 152.0
105.031364 148.0
105.05381 176.0
105.068085 128.0
105.188499 212.0
105.264046 164.0
105.28038 132.0
105.415215 136.0
105.471832 40.0
105.504051 148.0
105.666328 224.0
105.79567 208.0
105.896011 88.0
105.930832 156.0
106.000496 184.0
106.064034 212.0
106.091431 132.0
106.258865 148.0
106.289642 76.0
106.464142 112.0
106.523705 144.0
106.552467 120.0
106.624756 136.0
106.65728 228.0
106.675781 64.0
106.756172 204.0
106.805336 116.0
106.834137 132.0
106.86705 36.0
106.887634 208.0
106.938126 204.0
107.042839 436.0
107.136772 132.0
107.163559 96.0
107.204773 136.0
107.22126 120.0
107.287224 124.0
107.308197 116.0
107.441902 168.0
107.50174 176.0
107.536827 104.0
107.61528 152.0
107.631798 72.0
107.662773 224.0
107.792923 48.0
108.038055 360.0
108.107269 168.0
108.125893 236.0
108.152802 108.0
108.277039 180.0
108.297745 204.0
108.349541 168.0
108.507057 176.0
108.569267 28.0
108.631493 116.0
108.673935 176.0
108.72998 276.0
108.868118 100.0
108.893044 124.0
109.030174 44.0
109.06073 152.0
109.136818 120.0
109.229782 156.0
109.342148 92.0
109.435829 156.0
109.504112 172.0
109.507294 276.0
109.53788 180.0
109.629272 148.0
109.658737 260.0
109.690002 172.0
109.76506 160.0
109.838058 216.0
109.854752 152.0
109.91317 132.0
110.022552 184.0
110.062065 196.0
110.077042 128.0
110.186707 112.0
110.335098 64.0
110.35601 204.0
110.441757 160.0
110.519165 168.0
110.537636 140.0
110.579849 60.0
110.671967 152.0
110.780876 196.0
110.854218 148.0
110.889847 176.0
111.039162 160.0
111.09671 172.0
111.124718 172.0
111.217064 124.0
111.250648 228.0
111.271645 140.0
111.53215 116.0
111.643585 212.0
111.667625 132.0
111.683548 56.0
111.727722 168.0
111.774017 60.0
111.797165 120.0
111.835052 116.0
111.919258 200.0
111.957169 172.0
112.060387 160.0
112.102531 176.0
112.121925 156.0
112.236984 128.0
112.242424 100.0
112.325104 164.0
112.425201 108.0
112.448418 124.0
112.524414 196.0
112.581429 140.0
112.675804 124.0
112.87941 144.0
112.898438 140.0
112.913246 136.0
112.942856 144.0
113.055 112.0
113.095215 128.0
113.168274 212.0
113.290039 96.0
113.53804 136.0
113.563492 148.0
113.603348 112.0
113.659309 148.0
113.682312 180.0
113.699287 272.0
113.764557 144.0
113.788445 224.0
113.843651 96.0
113.858521 116.0
113.930748 140.0
113.956238 128.0
114.055595 216.0
114.115593 144.0
114.158867 124.0
114.16729 128.0
114.171371 160.0
114.198593 52.0
114.268799 160.0
114.283691 112.0
114.541916 100.0
114.61161 44.0
114.641449 140.0
114.664886 260.0
114.756561 168.0
114.771484 124.0
114.801453 152.0
114.867462 100.0
114.897331 52.0
114.912262 184.0
114.973083 72.0
115.054626 208.0
115.097969 104.0
115.125824 176.0
115.147087 36.0
115.172722 164.0
115.217583 120.0
115.249634 172.0
115.326569 168.0
115.377876 136.0
115.454857 284.0
115.471962 136.0
115.550743 184.0
115.58963 76.0
115.636719 140.0
115.746094 224.0
115.767113 212.0
115.82943 148.0
115.949425 112.0
115.983719 148.0
116.022308 124.0
116.058472 172.0
116.182144 144.0
116.309776 208.0
116.344124 136.0
116.374184 52.0
116.412834 120.0
116.546021 124.0
116.578278 204.0
116.735191 132.0
116.829834 140.0
116.8535 76.0
116.875015 164.0
116.925171 92.0
117.006317 136.0
117.027847 204.0
117.045074 124.0
117.068993 208.0
117.105377 172.0
117.219566 144.0
117.312248 204.0
117.36615 216.0
117.404968 116.0
117.424377 84.0
117.537689 140.0
117.618576 172.0
117.642319 180.0
117.672546 232.0
117.735168 176.0
117.912712 184.0
117.940437 236.0
118.074493 128.0
118.165352 232.0
118.219444 132.0
118.295204 88.0
118.422966 196.0
118.602814 104.0
118.676521 100.0
118.745918 380.0
118.780624 204.0
118.854393 180.0
118.878265 160.0
119.0513 468.0
119.073357 228.0
119.225746 136.0
119.373581 92.0
119.558502 136.0
119.743568 128.0
119.821991 120.0
119.859032 172.0
119.9048 76.0
119.924416 120.0
119.947319 156.0
119.981094 128.0
120.048988 412.0
120.151215 84.0
120.255959 168.0
120.314278 240.0
120.364235 188.0
120.404427 68.0
120.557365 144.0
120.852577 132.0
120.911667 124.0
120.962013 100.0
120.997269 188.0
121.062889 332.0
121.095581 208.0
121.10955 172.0
121.126251 132.0
121.176636 140.0
121.319099 200.0
121.352257 164.0
121.36953 132.0
121.45726 216.0
121.49894 132.0
121.518684 256.0
121.547211 88.0
121.714043 112.0
121.760948 112.0
121.815079 164.0
121.843636 188.0
121.859016 168.0
121.875465 232.0
121.927139 164.0
122.004074 144.0
122.035011 328.0
122.064346 332.0
122.155823 136.0
122.18222 124.0
122.426559 176.0
122.549919 152.0
122.574158 88.0
122.704453 216.0
122.750511 116.0
122.810066 120.0
122.869629 160.0
122.900513 116.0
122.938034 128.0
123.037651 152.0
123.053162 180.0
123.076759 156.0
123.106552 228.0
123.21405 152.0
123.260452 172.0
123.320282 280.0
123.364334 156.0
123.470474 188.0
123.53241 80.0
123.607635 204.0
123.667397 116.0
123.73159 220.0
123.775879 168.0
123.833458 200.0
123.90435 172.0
123.935371 48.0
123.959747 176.0
124.001831 232.0
124.032883 272.0
124.048279 188.0
124.070572 168.0
124.125488 188.0
124.17923 68.0
124.210289 188.0
124.270187 156.0
124.43 284.0
124.447762 88.0
124.492172 176.0
124.521049 112.0
124.555199 120.0
124.621017 168.0
124.665459 164.0
124.738808 112.0
124.785492 112.0
124.825523 44.0
124.852211 68.0
124.895287 184.0
125.056427 472.0
125.157089 112.0
125.20163 136.0
125.245018 204.0
125.281815 60.0
125.346436 108.0
125.36203 60.0
125.388779 176.0
125.498581 304.0
125.725555 124.0
125.87513 144.0
125.977875 128.0
126.04937 148.0
126.123131 156.0
126.181252 56.0
126.208084 196.0
126.285095 156.0
126.400459 68.0
126.420601 72.0
126.447456 128.0
126.497452 132.0
126.626579 112.0
126.667366 76.0
126.691544 112.0
126.71904 132.0
126.758759 124.0
126.794617 128.0
126.825996 184.0
126.884285 40.0
127.014359 204.0
127.05442 504.0
127.119171 160.0
127.140007 156.0
127.157967 224.0
127.223061 240.0
127.324112 72.0
127.407227 204.0
127.4589 240.0
127.479126 124.0
127.503853 180.0
127.53624 172.0
127.569038 136.0
127.593765 160.0
127.62915 168.0
127.674721 124.0
127.811951 180.0
127.833374 176.0
127.90873 100.0
127.928986 152.0
128.051712 232.0
128.07605 144.0
128.122665 224.0
128.206039 144.0
128.226334 232.0
128.381897 124.0
128.409836 204.0
128.456329 116.0
128.494766 112.0
128.636871 36.0
128.751419 120.0
128.839798 288.0
128.87175 84.0
128.943207 168.0
129.069687 196.0
129.091019 52.0
129.158875 108.0
129.219955 116.0
129.244659 140.0
129.292374 164.0
129.380646 164.0
129.448578 200.0
129.49614 172.0
129.545975 64.0
129.602615 192.0
129.657974 152.0
129.686478 192.0
129.806641 156.0
129.82251 84.0
129.854263 124.0
129.899963 156.0
129.981308 152.0
130.038055 196.0
130.061844 108.0
130.124313 92.0
130.153839 112.0
130.578812 96.0
130.744904 188.0
130.851883 80.0
130.929321 144.0
130.988541 68.0
131.022705 184.0
131.045349 212.0
131.067535 144.0
131.093353 128.0
131.141205 176.0
131.439972 116.0
131.583786 172.0
131.750504 152.0
131.771072 140.0
131.793915 100.0
131.816772 212.0
131.905914 208.0
131.924194 124.0
131.947052 196.0
131.99736 60.0
132.052246 120.0
132.068268 136.0
132.240814 180.0
132.30397 136.0
132.379532 144.0
132.432205 200.0
132.484894 168.0
132.649902 156.0
132.689972 148.0
132.777405 244.0
132.858597 192.0
132.920547 204.0
132.961853 160.0
133.028595 260.0
133.052002 1080.0
133.145538 116.0
133.179993 124.0
133.283371 132.0
133.392929 228.0
133.487961 164.0
133.579971 100.0
133.64209 248.0
133.681458 144.0
133.738663 116.0
133.75531 180.0
133.803207 80.0
133.849258 164.0
133.8815 136.0
133.90683 184.0
133.94838 116.0
134.056244 304.0
134.095764 248.0
134.190277 132.0
134.216599 68.0
134.257156 160.0
134.326355 140.0
134.389603 340.0
134.420959 160.0
134.462494 260.0
134.480957 112.0
134.598709 168.0
134.65419 148.0
134.686462 164.0
135.014755 124.0
135.038284 616.0
135.06134 208.0
135.114151 56.0
135.169678 164.0
135.222916 132.0
135.242371 188.0
135.310883 100.0
135.361816 120.0
135.394241 136.0
135.550354 208.0
135.57959 144.0
135.612854 216.0
135.657288 172.0
135.715622 176.0
135.774811 136.0
135.800491 132.0
135.878723 112.0
135.921326 144.0
136.049408 392.0
136.070282 180.0
136.175873 188.0
136.301331 164.0
136.343155 180.0
136.429169 140.0
136.452408 116.0
136.666397 188.0
136.724213 128.0
136.749023 136.0
136.870392 152.0
136.882309 96.0
136.936462 244.0
136.959747 200.0
137.008667 156.0
137.058685 2544.0
137.086975 192.0
137.108871 140.0
137.136673 56.0
137.202118 84.0
137.21843 144.0
137.24408 96.0
137.26973 72.0
137.311707 64.0
137.391159 132.0
137.42836 168.0
137.447021 148.0
137.489029 180.0
137.554382 148.0
137.608078 160.0
137.752884 200.0
137.771576 124.0
137.797272 184.0
137.855682 156.0
138.024307 156.0
138.065338 940.0
138.084808 196.0
138.105865 180.0
138.169022 184.0
138.260284 156.0
138.295395 144.0
138.414795 216.0
138.478027 184.0
138.506134 284.0
138.522537 116.0
138.562363 72.0
138.72876 248.0
138.773361 180.0
138.808487 160.0
138.834274 40.0
138.860916 224.0
138.911682 192.0
138.967987 180.0
138.991455 88.0
139.057953 384.0
139.221512 200.0
139.477036 96.0
139.597534 216.0
139.68457 72.0
139.755142 192.0
139.785736 184.0
139.842224 148.0
139.870468 68.0
139.96936 108.0
140.031509 92.0
140.046631 316.0
140.072388 140.0
140.181366 144.0
140.24501 92.0
140.5634 184.0
140.612961 112.0
140.641281 64.0
140.671967 172.0
140.756973 100.0
140.790039 228.0
140.81601 204.0
140.905777 124.0
140.969589 160.0
140.988495 164.0
141.009766 168.0
141.064499 156.0
141.144516 52.0
141.177322 128.0
141.203201 152.0
141.437897 200.0
141.560013 104.0
141.610748 116.0
141.636795 164.0
141.705505 112.0
141.845337 156.0
141.928314 144.0
141.971008 104.0
142.032669 188.0
142.062424 204.0
142.426712 152.0
142.443344 112.0
142.49324 76.0
142.509872 292.0
142.559769 216.0
142.590668 60.0
142.735687 120.0
142.980728 188.0
143.045227 348.0
143.07225 160.0
143.140228 160.0
143.171188 264.0
143.309357 140.0
143.368927 36.0
143.388 276.0
143.435669 236.0
143.542969 156.0
143.585892 68.0
143.694275 176.0
143.726639 232.0
143.908859 144.0
143.951035 124.0
143.979691 148.0
144.053818 316.0
144.080017 140.0
144.149323 176.0
144.202393 172.0
144.3703 172.0
144.40274 312.0
144.489075 132.0
144.572617 176.0
144.613297 108.0
144.706329 84.0
144.761459 312.0
144.814423 164.0
145.026947 196.0
145.063324 1336.0
145.08638 156.0
145.15715 216.0
145.186234 188.0
145.245895 208.0
145.27948 180.0
145.301071 228.0
145.346664 36.0
145.402985 120.0
145.418655 156.0
145.51709 112.0
145.565109 160.0
145.596329 76.0
145.61554 160.0
145.716446 132.0
145.757294 156.0
145.78035 128.0
145.807755 112.0
145.8414 124.0
145.875061 172.0
145.895584 232.0
145.909607 196.0
146.059601 460.0
146.12999 136.0
146.370712 120.0
146.563416 200.0
146.604385 60.0
146.732147 76.0
146.768311 116.0
146.790009 60.0
146.812683 184.0
146.828598 188.0
146.888901 144.0
146.956451 100.0
147.010895 184.0
147.044724 724.0
147.069412 580.0
147.130234 144.0
147.18576 212.0
147.277542 108.0
147.352432 104.0
147.398346 152.0
147.444107 128.0
147.538528 136.0
147.594147 184.0
147.615906 136.0
147.71991 164.0
147.816696 156.0
148.051834 640.0
148.074615 572.0
148.132431 180.0
148.162949 36.0
148.259872 128.0
148.291382 124.0
148.371078 160.0
148.397675 104.0
148.521744 176.0
148.543579 112.0
148.601791 56.0
148.63092 60.0
148.708572 156.0
148.727997 140.0
148.759552 136.0
148.86882 140.0
148.929535 188.0
148.963547 48.0
149.021118 132.0
149.058472 396.0
149.150665 160.0
149.19928 160.0
149.226028 140.0
149.278381 256.0
149.303848 116.0
149.325729 84.0
149.37439 148.0
149.444931 108.0
149.532547 64.0
149.666443 124.0
149.688354 160.0
149.749588 56.0
149.807709 256.0
149.860397 256.0
149.978287 140.0
150.055328 1448.0
150.102631 196.0
150.127487 200.0
150.156281 124.0
150.256302 136.0
150.324631 60.0
150.346588 68.0
150.363678 172.0
150.400284 184.0
150.434464 176.0
150.468643 116.0
150.502823 120.0
150.530197 116.0
150.622498 200.0
150.751999 160.0
150.822876 164.0
150.839981 108.0
150.90477 192.0
150.962234 140.0
151.032837 384.0
151.071732 924.0
151.143265 136.0
151.172638 128.0
151.197113 180.0
151.26474 200.0
151.287674 96.0
151.445297 120.0
151.498291 120.0
151.586502 48.0
151.603653 156.0
151.726212 152.0
151.792419 216.0
151.868454 180.0
151.924881 116.0
152.003387 120.0
152.068802 1140.0
152.133484 132.0
152.150665 128.0
152.17276 96.0
152.209595 168.0
152.231689 164.0
152.374161 120.0
152.474915 196.0
152.492126 124.0
152.597839 128.0
152.733093 184.0
152.774918 176.0
152.794601 168.0
152.883179 44.0
152.932404 152.0
152.96933 204.0
153.023499 32.0
153.066437 300.0
153.092438 184.0
153.10968 144.0
153.15155 164.0
153.21315 144.0
153.242706 108.0
153.328964 220.0
153.402908 188.0
153.541 180.0
153.600189 44.0
153.705902 132.0
153.772919 208.0
153.800064 64.0
153.844498 108.0
153.981003 160.0
154.075165 188.0
154.09642 108.0
154.145157 228.0
154.190323 184.0
154.225998 84.0
154.383163 120.0
154.540771 164.0
154.682556 184.0
154.712265 168.0
154.759308 144.0
154.925262 36.0
155.043457 108.0
155.081696 496.0
155.13591 196.0
155.155746 248.0
155.296432 148.0
155.396332 188.0
155.416183 144.0
155.488144 188.0
155.537796 148.0
155.61972 256.0
155.716568 188.0
155.913849 140.0
156.057037 268.0
156.081894 84.0
156.293335 96.0
156.348083 176.0
156.435211 204.0
156.574646 156.0
156.592087 160.0
156.631943 184.0
156.776443 144.0
156.87117 192.0
156.926025 168.0
156.993347 184.0
157.020218 124.0
157.058563 80.0
157.105591 156.0
157.267792 136.0
157.29776 180.0
157.316437 172.0
157.50502 128.0
157.527496 196.0
157.55748 168.0
157.594696 188.0
157.657425 196.0
157.682159 112.0
157.690125 100.0
157.747421 244.0
157.867432 84.0
157.911575 172.0
157.985001 116.0
158.062134 284.0
158.202728 84.0
158.262817 132.0
158.342957 132.0
158.388046 92.0
158.413086 112.0
158.470718 204.0
158.530853 132.0
158.558426 172.0
158.584625 140.0
158.606049 176.0
158.68631 144.0
158.728897 184.0
158.904495 144.0
158.922058 124.0
158.952164 92.0
159.047531 148.0
159.075104 216.0
159.081421 152.0
159.091431 296.0
159.114059 160.0
159.255951 88.0
159.296143 176.0
159.34639 196.0
159.382339 156.0
159.411728 172.0
159.512268 104.0
159.597748 188.0
159.798233 136.0
159.83284 132.0
159.882004 64.0
159.970108 160.0
159.995285 44.0
160.044876 596.0
160.071609 420.0
160.113632 116.0
160.166534 136.0
160.27739 140.0
160.337875 124.0
160.407745 144.0
160.466431 112.0
160.569824 88.0
160.590012 92.0
160.746429 188.0
160.78093 208.0
160.817551 132.0
160.933228 120.0
161.057236 896.0
161.08136 176.0
161.142868 124.0
161.279343 128.0
161.345062 140.0
161.477188 144.0
161.537277 100.0
161.592926 128.0
161.797943 96.0
161.823257 128.0
161.899231 172.0
162.030182 384.0
162.061966 480.0
162.092697 448.0
162.16272 116.0
162.227036 204.0
162.317383 136.0
162.484787 176.0
162.538071 124.0
162.634506 116.0
162.680206 208.0
162.804626 68.0
162.934174 164.0
162.964661 156.0
163.030289 184.0
163.035019 152.0
163.072784 268.0
163.226486 92.0
163.264709 136.0
163.432526 120.0
163.468155 176.0
163.52359 148.0
163.547058 44.0
163.575058 136.0
163.608154 160.0
163.625977 208.0
163.66925 52.0
163.806793 56.0
163.901062 192.0
164.035614 136.0
164.070267 392.0
164.260559 240.0
164.37027 72.0
164.434067 164.0
164.528519 124.0
164.56427 116.0
164.597458 32.0
164.663864 136.0
164.739853 144.0
164.78392 128.0
164.847809 132.0
164.939819 152.0
165.050308 224.0
165.075333 1360.0
165.118805 160.0
165.136703 204.0
165.164841 172.0
165.259506 160.0
165.311462 172.0
165.353088 148.0
165.374664 148.0
165.400269 160.0
165.451462 148.0
165.571732 120.0
165.676849 116.0
165.795029 164.0
165.869049 180.0
165.945953 216.0
166.028015 128.0
166.074631 396.0
166.161469 176.0
166.351334 132.0
166.410385 200.0
166.441193 44.0
166.46431 112.0
166.500259 172.0
166.615845 48.0
166.749847 140.0
166.80603 108.0
166.826599 244.0
166.968018 100.0
167.041809 128.0
167.070969 512.0
167.082718 668.0
167.168686 128.0
167.317307 196.0
167.477646 148.0
167.606476 144.0
167.652863 156.0
167.732758 128.0
167.761108 168.0
167.77916 120.0
167.808929 132.0
167.830734 136.0
167.853943 320.0
167.871994 120.0
167.892624 216.0
168.030655 204.0
168.056824 196.0
168.075638 228.0
168.111908 120.0
168.186768 148.0
168.25647 184.0
168.312271 140.0
168.354584 124.0
168.431 184.0
168.553497 144.0
168.643967 124.0
168.680145 244.0
168.742203 132.0
168.867981 156.0
168.943924 120.0
168.976913 80.0
169.021561 144.0
169.063705 360.0
169.090515 288.0
169.19516 108.0
169.220871 96.0
169.246765 164.0
169.270065 164.0
169.412521 160.0
169.478455 232.0
169.542084 148.0
169.583557 104.0
169.674423 144.0
169.707993 112.0
169.728729 36.0
169.819504 104.0
169.845139 168.0
169.876572 132.0
169.977768 172.0
170.014099 100.0
170.053024 224.0
170.086777 204.0
170.15686 128.0
170.216583 108.0
170.284988 164.0
170.316574 168.0
170.411407 124.0
170.429596 148.0
170.486771 116.0
170.520554 152.0
170.61673 168.0
170.660934 228.0
170.777969 100.0
171.044479 376.0
171.077881 480.0
171.243881 160.0
171.324631 144.0
171.358505 64.0
171.421036 224.0
171.483597 64.0
171.5242 228.0
171.547775 348.0
171.569611 80.0
171.595688 128.0
171.664597 160.0
171.814774 188.0
171.908707 180.0
171.992233 120.0
172.044662 184.0
172.068924 308.0
172.09552 276.0
172.128647 80.0
172.240311 104.0
172.363434 188.0
172.402298 212.0
172.429794 192.0
172.447357 132.0
172.563217 100.0
172.709717 180.0
172.778839 140.0
172.875656 124.0
172.962036 52.0
173.022247 116.0
173.054703 472.0
173.081314 208.0
173.116516 172.0
173.174133 192.0
173.2108 72.0
173.265823 192.0
173.347046 80.0
173.381119 160.0
173.459747 160.0
173.514801 136.0
173.533157 136.0
173.572327 288.0
173.609207 32.0
173.659042 180.0
173.74823 156.0
173.771835 48.0
173.800705 68.0
173.936447 144.0
173.951141 152.0
174.02951 168.0
174.065826 464.0
174.084686 156.0
174.231308 112.0
174.296997 120.0
174.323273 120.0
174.341675 160.0
174.373215 196.0
174.412643 284.0
174.448227 208.0
174.626633 188.0
174.704544 180.0
174.725586 140.0
174.786102 116.0
174.820312 72.0
174.869186 232.0
174.889603 196.0
175.068436 308.0
175.217926 168.0
175.325974 128.0
175.376053 160.0
175.426132 176.0
175.445999 216.0
175.464111 148.0
175.492844 132.0
175.636139 88.0
175.689865 156.0
175.972275 160.0
176.019806 140.0
176.07164 1836.0
176.347397 108.0
176.410522 196.0
176.417419 172.0
176.527176 108.0
176.588013 40.0
176.659439 120.0
176.688538 224.0
176.757339 76.0
176.869232 172.0
176.961151 192.0
177.015274 336.0
177.054138 504.0
177.067184 580.0
177.128006 188.0
177.268433 100.0
177.347214 160.0
177.382401 156.0
177.44072 164.0
177.483154 148.0
177.537567 100.0
177.668808 172.0
177.694855 128.0
177.769638 228.0
177.820068 164.0
177.93277 176.0
178.021851 52.0
178.055069 372.0
178.079178 984.0
178.194504 120.0
178.239685 144.0
178.276886 52.0
178.319412 132.0
178.413254 212.0
178.444351 168.0
178.556046 124.0
178.579987 192.0
178.670425 184.0
178.711411 188.0
178.747589 168.0
178.811462 56.0
178.844742 104.0
178.899307 200.0
179.019135 192.0
179.076935 1280.0
179.144516 156.0
179.208267 168.0
179.226913 188.0
179.336182 200.0
179.394821 228.0
179.436584 304.0
179.552155 204.0
179.638779 284.0
179.714874 168.0
179.734619 144.0
179.820618 168.0
179.867004 124.0
180.002304 148.0
180.057724 324.0
180.068542 340.0
180.086563 596.0
180.123367 204.0
180.176788 196.0
180.275665 92.0
180.339798 104.0
180.411987 56.0
180.434952 196.0
180.476151 156.0
180.517029 224.0
180.628601 168.0
180.714203 52.0
180.751495 192.0
180.773758 220.0
180.850693 124.0
180.880142 68.0
180.935852 104.0
180.989914 152.0
181.019363 104.0
181.064758 1348.0
181.084579 2600.0
181.182755 48.0
181.263138 196.0
181.327469 196.0
181.372559 228.0
181.413239 64.0
181.48027 200.0
181.499039 228.0
181.574127 152.0
181.716309 276.0
181.911346 208.0
181.933701 144.0
181.968613 132.0
182.019623 76.0
182.075165 544.0
182.143173 132.0
182.277512 156.0
182.374268 72.0
182.562469 176.0
182.608505 136.0
182.803925 288.0
182.865829 212.0
183.036102 124.0
183.08136 268.0
183.085571 444.0
183.143829 72.0
183.204727 132.0
183.299515 184.0
183.467209 156.0
183.530945 148.0
183.58046 128.0
183.642502 92.0
183.69136 172.0
183.758499 116.0
183.782776 40.0
183.815781 156.0
183.955887 144.0
184.000504 196.0
184.051132 208.0
184.08429 356.0
184.126953 188.0
184.168839 100.0
184.281036 136.0
184.35527 168.0
184.382294 176.0
184.493134 204.0
184.566132 176.0
184.704758 116.0
184.723007 164.0
184.814987 76.0
184.874527 128.0
185.059525 208.0
185.07962 356.0
185.085312 176.0
185.198807 228.0
185.294235 128.0
185.324051 132.0
185.372818 120.0
185.42189 188.0
185.481232 188.0
185.509979 332.0
185.540878 188.0
185.641205 148.0
185.668121 108.0
185.820236 168.0
185.904358 176.0
185.939636 176.0
185.972214 152.0
186.061996 532.0
186.096771 232.0
186.132385 136.0
186.227448 104.0
186.270905 96.0
186.300797 108.0
186.349701 104.0
186.458405 136.0
186.512756 184.0
186.599762 100.0
186.724854 172.0
186.833664 156.0
186.957428 164.0
187.03714 632.0
187.076569 320.0
187.116714 136.0
187.162994 156.0
187.182053 124.0
187.217468 164.0
187.269211 196.0
187.37001 132.0
187.394531 164.0
187.427231 204.0
187.566223 160.0
187.612564 152.0
187.645279 196.0
187.705276 64.0
187.770721 220.0
187.882568 168.0
188.02446 96.0
188.072235 1512.0
188.142746 168.0
188.154709 56.0
188.165405 152.0
188.21283 44.0
188.253067 136.0
188.302948 172.0
188.324799 68.0
188.365784 132.0
188.455933 132.0
188.521561 168.0
188.598053 108.0
188.644516 72.0
188.674591 144.0
188.882431 104.0
188.932541 152.0
188.952805 172.0
189.0159 216.0
189.077591 556.0
189.120499 152.0
189.273819 124.0
189.370499 120.0
189.416245 68.0
189.479248 120.0
189.525833 204.0
189.613525 188.0
189.734131 296.0
189.797195 64.0
190.061874 1100.0
190.079834 564.0
190.110962 128.0
190.186783 132.0
190.21698 212.0
190.279816 180.0
190.36525 248.0
190.46962 120.0
190.573181 184.0
190.703186 128.0
190.804901 208.0
190.940704 176.0
190.94751 88.0
190.960144 184.0
190.969772 172.0
191.022156 112.0
191.077713 552.0
191.122818 144.0
191.151474 80.0
191.201019 68.0
191.459808 92.0
191.51799 128.0
191.658157 204.0
191.889694 160.0
191.931061 84.0
191.972473 184.0
192.011032 120.0
192.066879 724.0
192.121368 80.0
192.170105 120.0
192.303925 168.0
192.333862 100.0
192.416687 88.0
192.491226 132.0
192.564667 176.0
192.598953 52.0
192.618286 156.0
192.731567 80.0
192.753662 152.0
192.811707 176.0
192.858688 60.0
192.97757 144.0
193.030106 144.0
193.069534 1084.0
193.089508 312.0
193.209641 132.0
193.214783 120.0
193.226501 104.0
193.262466 148.0
193.30397 128.0
193.323013 144.0
193.359329 120.0
193.439606 120.0
193.483887 72.0
193.578033 248.0
193.646393 164.0
193.680511 72.0
193.851349 188.0
193.973083 144.0
194.075119 896.0
194.183716 52.0
194.312607 96.0
194.376419 164.0
194.459671 112.0
194.515198 88.0
194.551285 172.0
194.607101 228.0
194.670685 112.0
194.726227 196.0
194.815125 100.0
194.890137 108.0
194.923477 76.0
195.040543 444.0
195.080093 2192.0
195.148636 148.0
195.170883 160.0
195.293243 52.0
195.356033 140.0
195.38916 144.0
195.583984 148.0
195.621613 124.0
195.650848 208.0
195.725128 156.0
195.79425 132.0
195.847168 136.0
195.916809 152.0
195.950241 124.0
196.043961 240.0
196.087006 1496.0
196.131393 104.0
196.156479 108.0
196.240631 176.0
196.301468 124.0
196.346085 108.0
196.365616 164.0
196.399078 128.0
196.591599 144.0
196.761871 188.0
196.974121 108.0
197.004852 40.0
197.058578 580.0
197.092377 1404.0
197.165237 116.0
197.233994 128.0
197.29483 116.0
197.343033 128.0
197.382187 36.0
197.46608 88.0
197.524826 224.0
197.56398 132.0
197.631134 156.0
197.695496 180.0
197.715088 140.0
197.75708 224.0
197.869049 116.0
197.975464 128.0
198.064682 708.0
198.090439 384.0
198.140732 164.0
198.191162 156.0
198.213577 160.0
198.250015 132.0
198.342499 192.0
198.432098 188.0
198.555603 196.0
198.607025 180.0
198.695938 148.0
198.717651 68.0
198.763199 136.0
198.808105 164.0
198.903656 92.0
198.96701 164.0
199.071503 1444.0
199.115738 252.0
199.142212 52.0
199.246155 84.0
199.291107 216.0
199.324829 56.0
199.372604 92.0
199.441086 44.0
199.479416 236.0
199.569382 64.0
199.600311 132.0
199.6875 72.0
199.726883 184.0
199.847855 204.0
199.875992 176.0
199.980118 152.0
200.072647 228.0
200.108948 152.0
200.17157 120.0
200.205368 40.0
200.319794 140.0
200.343384 120.0
200.450455 160.0
200.512451 248.0
200.536743 220.0
200.58522 152.0
200.732361 60.0
200.887482 176.0
200.963669 144.0
201.051926 492.0
201.081345 160.0
201.243103 124.0
201.313705 156.0
201.350418 72.0
201.372635 184.0
201.421036 68.0
201.460587 144.0
201.486008 72.0
201.576431 168.0
201.617249 152.0
201.847809 44.0
201.87326 128.0
201.898712 56.0
201.926987 168.0
202.014679 180.0
202.042969 160.0
202.088226 604.0
202.138885 188.0
202.198608 120.0
202.283524 136.0
202.323166 72.0
202.342987 104.0
202.385452 188.0
202.552551 288.0
202.571075 192.0
202.699875 92.0
202.787735 56.0
202.836533 168.0
202.928848 196.0
202.949326 244.0
202.974854 208.0
203.032181 168.0
203.090179 2096.0
203.198944 40.0
203.369217 84.0
203.462891 232.0
203.528198 92.0
203.607483 136.0
203.75827 48.0
203.817932 168.0
203.883514 216.0
203.928772 220.0
203.985626 128.0
204.006241 176.0
204.068802 1168.0
204.298447 132.0
204.324814 196.0
204.459274 200.0
204.514725 120.0
204.548874 204.0
204.571655 156.0
204.816559 64.0
204.83934 144.0
204.891983 84.0
205.007584 84.0
205.069702 1428.0
205.127167 296.0
205.172775 212.0
205.246918 208.0
205.32962 204.0
205.352432 48.0
205.47113 112.0
205.563553 72.0
205.597809 132.0
205.623489 240.0
205.700562 140.0
205.729111 48.0
205.7491 180.0
205.818375 168.0
205.90329 124.0
206.071823 1900.0
206.151855 148.0
206.280472 100.0
206.429153 120.0
206.455643 184.0
206.493469 148.0
206.526398 144.0
206.626526 240.0
206.689133 68.0
206.817032 168.0
206.852615 300.0
206.892685 140.0
206.95282 128.0
207.012589 164.0
207.04425 164.0
207.080429 2352.0
207.09993 2080.0
207.253586 84.0
207.379684 120.0
207.43512 140.0
207.48288 156.0
207.544342 216.0
207.577499 52.0
207.715179 72.0
207.737427 116.0
207.808823 200.0
207.850021 84.0
207.921768 156.0
207.95047 112.0
208.020981 220.0
208.053375 436.0
208.085541 852.0
208.188766 260.0
208.266312 76.0
208.309128 168.0
208.392731 208.0
208.424332 164.0
208.49617 40.0
208.553665 132.0
208.608963 152.0
208.680161 76.0
208.731918 84.0
208.812439 156.0
208.835449 140.0
208.959152 180.0
209.009583 160.0
209.057343 956.0
209.094437 1580.0
209.143341 188.0
209.200912 88.0
209.229706 72.0
209.341995 204.0
209.36792 116.0
209.397919 196.0
209.511948 120.0
209.601257 116.0
209.667542 72.0
209.700027 224.0
209.720871 156.0
210.025635 104.0
210.066132 1560.0
210.094406 636.0
210.130341 132.0
210.250137 220.0
210.286087 132.0
210.385803 148.0
210.452209 56.0
210.663864 192.0
210.697708 112.0
210.81041 68.0
210.850876 172.0
210.920242 196.0
211.034073 248.0
211.072876 2852.0
211.105377 484.0
211.153748 216.0
211.206512 80.0
211.241226 92.0
211.271988 240.0
211.318054 144.0
211.454102 92.0
211.4814 64.0
211.530609 176.0
211.600098 148.0
211.62616 152.0
211.681183 120.0
211.707245 100.0
211.753021 144.0
211.780792 132.0
212.049271 532.0
212.081177 1656.0
212.192612 176.0
212.212204 172.0
212.283951 120.0
212.541183 184.0
212.566727 192.0
212.707092 124.0
212.748199 164.0
212.806274 168.0
212.838211 184.0
212.8992 140.0
212.92244 176.0
212.966003 96.0
212.995056 144.0
213.049484 320.0
213.091965 900.0
213.224594 196.0
213.361221 168.0
213.431 48.0
213.451355 168.0
213.473694 188.0
213.513992 388.0
213.595352 220.0
213.668625 152.0
213.724792 328.0
213.753357 196.0
213.763199 160.0
213.876129 148.0
213.941147 108.0
214.088516 220.0
214.117798 120.0
214.169968 136.0
214.213928 132.0
214.27594 212.0
214.330475 152.0
214.394577 52.0
214.458344 32.0
214.703613 144.0
214.776535 152.0
214.948135 216.0
215.015793 52.0
215.071625 484.0
215.086624 316.0
215.097641 480.0
215.240585 100.0
215.322357 164.0
215.41507 168.0
215.459656 188.0
215.518097 116.0
215.567764 316.0
215.649597 184.0
215.670059 168.0
215.749191 172.0
215.895203 104.0
215.95369 128.0
216.023895 144.0
216.068741 408.0
216.199463 92.0
216.22287 44.0
216.407303 348.0
216.514313 200.0
216.539078 176.0
216.665054 156.0
216.694031 188.0
216.752945 136.0
216.837936 92.0
216.999176 64.0
217.063217 172.0
217.084915 508.0
217.1194 136.0
217.186859 80.0
217.374634 120.0
217.477356 120.0
217.803299 168.0
217.856461 80.0
217.891434 100.0
217.929626 144.0
217.964539 168.0
218.04129 160.0
218.077133 1072.0
218.158875 60.0
218.238266 124.0
218.291183 240.0
218.329422 244.0
218.39119 216.0
218.447083 124.0
218.50592 200.0
218.52652 156.0
218.561829 132.0
218.664825 44.0
218.70282 88.0
218.767853 132.0
218.817902 72.0
218.920959 88.0
218.941589 104.0
219.013901 232.0
219.082718 1832.0
219.126282 188.0
219.271561 128.0
219.377686 40.0
219.483826 140.0
219.519211 116.0
219.595886 204.0
219.699142 96.0
220.055344 580.0
220.092178 2612.0
220.150757 196.0
220.174377 32.0
220.419586 72.0
220.443222 112.0
220.494141 88.0
220.531891 204.0
220.555542 60.0
220.602829 72.0
220.688568 72.0
220.711121 180.0
220.786163 132.0
220.839401 180.0
220.894333 168.0
221.059311 1000.0
221.092117 1452.0
221.234558 164.0
221.265549 112.0
221.292191 244.0
221.404724 180.0
221.453629 132.0
221.524216 204.0
221.573654 132.0
221.611771 76.0
221.674316 104.0
221.789673 104.0
221.833221 104.0
221.87291 48.0
221.893661 184.0
221.958893 148.0
222.098816 896.0
222.137466 248.0
222.196182 40.0
222.219925 60.0
222.264435 68.0
222.430634 188.0
222.478134 84.0
222.540482 236.0
222.573151 52.0
222.598541 156.0
222.661819 168.0
222.754318 76.0
222.840485 176.0
222.875702 220.0
222.935577 80.0
223.024734 152.0
223.074341 4272.0
223.105743 896.0
223.176361 96.0
223.245224 216.0
223.298294 48.0
223.319427 224.0
223.381577 132.0
223.50058 160.0
223.548203 116.0
223.641815 208.0
223.729767 196.0
223.761429 208.0
223.83696 156.0
223.883316 184.0
223.911407 168.0
223.938217 132.0
223.988861 184.0
224.081009 4180.0
224.330566 84.0
224.373306 188.0
224.397156 256.0
224.429947 168.0
224.518372 160.0
224.552216 44.0
224.624374 372.0
224.689438 104.0
224.716293 92.0
224.763367 136.0
224.911835 100.0
224.982712 168.0
225.051117 876.0
225.087692 3792.0
225.211868 56.0
225.247711 212.0
225.271606 88.0
225.307465 144.0
225.469376 176.0
225.504684 156.0
225.534576 76.0
225.582413 84.0
225.621964 208.0
225.686615 108.0
225.752838 164.0
225.840057 124.0
225.92363 84.0
225.987335 124.0
226.062988 516.0
226.094772 1476.0
226.221725 68.0
226.423233 124.0
226.449249 128.0
226.477142 120.0
226.527557 116.0
226.546799 128.0
226.659897 116.0
226.728836 148.0
226.800766 204.0
227.068619 3980.0
227.10173 1400.0
227.139618 112.0
227.196609 144.0
227.361649 196.0
227.454697 228.0
227.502731 172.0
227.583038 220.0
227.631836 124.0
227.655869 108.0
227.733063 148.0
227.738327 88.0
227.782013 72.0
227.936417 164.0
227.949707 64.0
227.961029 152.0
227.986343 32.0
228.04216 328.0
228.071304 1780.0
228.107773 652.0
228.172699 32.0
228.231766 212.0
228.311035 44.0
228.344116 124.0
228.383209 148.0
228.434357 152.0
228.476471 172.0
228.530624 136.0
228.605865 188.0
228.641968 160.0
228.705185 108.0
228.756363 148.0
228.790909 236.0
228.822586 132.0
228.861969 152.0
228.949066 104.0
229.046677 344.0
229.083496 820.0
229.112762 300.0
229.164352 232.0
229.196091 60.0
229.232254 40.0
229.256363 100.0
229.298553 180.0
229.409042 184.0
229.434204 40.0
229.475052 160.0
229.625748 160.0
229.657364 172.0
229.694183 136.0
229.781052 100.0
229.811218 84.0
229.83374 228.0
229.859497 176.0
230.004761 188.0
230.053192 196.0
230.080444 260.0
230.212708 148.0
230.239883 196.0
230.300293 124.0
230.424149 208.0
230.508759 96.0
230.55246 192.0
230.632675 88.0
230.684067 144.0
230.726395 152.0
230.817093 136.0
230.922943 40.0
231.073578 180.0
231.09906 336.0
231.134018 120.0
231.246704 124.0
231.340546 148.0
231.361725 56.0
231.455597 168.0
231.59491 48.0
231.688828 132.0
231.799805 204.0
231.896805 132.0
232.022202 116.0
232.045868 124.0
232.083847 304.0
232.159012 100.0
232.252686 208.0
232.395264 120.0
232.42865 40.0
232.455399 196.0
232.638077 52.0
232.704865 116.0
232.744339 112.0
232.805084 212.0
232.878128 148.0
232.953918 140.0
232.984299 124.0
233.005554 184.0
233.057266 920.0
233.095367 856.0
233.19809 124.0
233.355087 92.0
233.397659 148.0
233.434143 132.0
233.482803 52.0
233.546677 108.0
233.735306 244.0
233.809921 180.0
233.91539 308.0
234.018402 116.0
234.065475 1800.0
234.110077 2044.0
234.164566 132.0
234.223938 172.0
234.386963 120.0
234.416306 128.0
234.438782 72.0
234.475342 80.0
234.549164 240.0
234.694839 128.0
234.765854 112.0
234.832077 108.0
234.871735 128.0
234.899185 128.0
234.926636 228.0
234.976944 156.0
235.027863 228.0
235.073807 4552.0
235.161606 80.0
235.198242 68.0
235.315399 196.0
235.372269 164.0
235.440643 160.0
235.473053 80.0
235.534134 168.0
235.656342 144.0
235.772461 168.0
235.799301 128.0
235.87027 68.0
235.896332 136.0
235.934479 200.0
235.96344 168.0
235.969986 156.0
235.980804 184.0
236.078949 3116.0
236.169937 84.0
236.20665 64.0
236.249481 44.0
236.283127 128.0
236.338211 156.0
236.384109 148.0
236.521378 80.0
236.604492 112.0
236.644302 52.0
236.723907 88.0
236.843613 148.0
236.938324 60.0
236.978165 224.0
237.054184 1328.0
237.087875 5708.0
237.220276 72.0
237.284668 92.0
237.410385 80.0
237.445038 176.0
237.539215 124.0
237.591614 148.0
237.655792 208.0
237.69194 180.0
237.781616 176.0
237.917236 204.0
237.978088 164.0
238.005722 160.0
238.058411 748.0
238.094223 3112.0
238.15007 48.0
238.303589 96.0
238.331909 64.0
238.386642 52.0
238.419022 60.0
238.462204 164.0
238.503372 172.0
238.550858 152.0
238.623337 164.0
238.657166 84.0
238.681763 52.0
238.718658 176.0
238.743271 96.0
238.804901 196.0
238.829376 180.0
238.906296 140.0
238.964752 140.0
239.027191 208.0
239.068298 1248.0
239.104736 5576.0
239.186325 164.0
239.217117 32.0
239.248154 48.0
239.327011 128.0
239.358749 152.0
239.438812 140.0
239.498566 60.0
239.609238 208.0
239.72226 44.0
239.76355 40.0
239.793137 136.0
239.814713 164.0
239.919525 124.0
239.984268 76.0
240.074448 3364.0
240.104614 2360.0
240.151627 164.0
240.224838 124.0
240.340668 76.0
240.419235 44.0
240.470703 112.0
240.554977 184.0
240.711105 176.0
240.839142 52.0
240.879303 72.0
240.913284 36.0
240.953445 168.0
240.975067 200.0
241.001587 144.0
241.046646 620.0
241.08403 5068.0
241.182129 116.0
241.208405 192.0
241.233673 144.0
241.288361 156.0
241.386185 84.0
241.407837 64.0
241.441849 164.0
241.463501 148.0
241.497528 80.0
241.608887 48.0
241.630554 104.0
241.667679 152.0
241.837891 112.0
241.99588 124.0
242.047302 652.0
242.090179 2484.0
242.172302 68.0
242.252838 256.0
242.407761 64.0
242.449799 220.0
242.542282 148.0
242.568939 96.0
242.593735 72.0
242.630936 192.0
242.680542 116.0
242.758072 148.0
242.804596 152.0
242.829407 224.0
242.895889 156.0
242.952026 280.0
243.060776 848.0
243.094055 1164.0
243.167603 128.0
243.243484 144.0
243.341446 136.0
243.369934 228.0
243.412857 148.0
243.461594 168.0
243.487396 44.0
243.655136 204.0
243.681656 172.0
243.707962 140.0
243.754578 108.0
243.785645 220.0
243.913086 112.0
243.975266 32.0
244.003235 124.0
244.071793 584.0
244.088852 172.0
244.098892 424.0
244.149399 124.0
244.268417 420.0
244.357819 64.0
244.401367 236.0
244.491623 60.0
244.564941 100.0
244.662827 184.0
244.799835 128.0
244.824738 148.0
244.874573 120.0
244.996063 152.0
245.079422 860.0
245.103394 428.0
245.304596 104.0
245.354477 124.0
245.46048 32.0
245.508652 72.0
245.594589 192.0
245.675705 184.0
245.763885 204.0
245.922226 132.0
245.962799 188.0
246.079971 624.0
246.114578 612.0
246.156387 164.0
246.259445 152.0
246.350037 124.0
246.425018 196.0
246.51564 104.0
246.575012 144.0
246.609406 224.0
246.644257 160.0
246.684418 140.0
246.775085 152.0
246.831375 128.0
246.865768 120.0
246.966202 184.0
247.072632 1736.0
247.198273 84.0
247.22554 164.0
247.247452 88.0
247.360138 200.0
247.450928 92.0
247.488495 212.0
247.585571 124.0
247.636261 132.0
247.717133 144.0
247.748459 128.0
247.769333 164.0
247.881516 116.0
247.901993 200.0
247.980698 72.0
248.014832 76.0
248.080917 1172.0
248.1465 156.0
248.196671 156.0
248.237442 80.0
248.40831 140.0
248.51976 172.0
248.613892 44.0
248.657837 44.0
248.70459 76.0
248.805374 196.0
248.892502 176.0
248.924698 156.0
248.981354 188.0
249.089737 2544.0
249.191696 72.0
249.267105 96.0
249.402252 124.0
249.436829 84.0
249.606613 60.0
249.647491 68.0
249.69545 156.0
249.754425 192.0
249.816956 160.0
249.851959 188.0
249.873978 32.0
249.895996 176.0
249.953339 164.0
250.012054 164.0
250.065338 1452.0
250.092377 2596.0
250.17337 124.0
250.213898 96.0
250.254822 48.0
250.330399 164.0
250.374496 140.0
250.418579 176.0
250.44693 216.0
250.509933 120.0
250.642822 224.0
250.6828 172.0
250.752563 112.0
250.825073 132.0
250.865295 168.0
250.886673 148.0
251.007935 208.0
251.068558 7108.0
251.102936 4112.0
251.162476 164.0
251.199219 148.0
251.225571 40.0
251.28479 52.0
251.291504 40.0
251.436981 136.0
251.474854 120.0
251.536133 136.0
251.588501 196.0
251.620071 36.0
251.670593 92.0
251.78392 104.0
251.916946 76.0
252.0755 6280.0
252.102127 2812.0
252.154373 236.0
252.181427 92.0
252.229797 68.0
252.265167 172.0
252.289658 60.0
252.300354 88.0
252.391037 140.0
252.457443 132.0
252.482758 80.0
252.546005 168.0
252.612686 52.0
252.732666 148.0
252.824432 160.0
252.899246 176.0
252.938385 96.0
253.047913 1272.0
253.08075 3636.0
253.185364 184.0
253.207535 40.0
253.232864 208.0
253.258209 140.0
253.317337 240.0
253.363861 80.0
253.39595 68.0
253.453384 152.0
253.505341 140.0
253.556046 176.0
253.578232 64.0
253.668488 76.0
253.694946 132.0
253.727219 112.0
253.781128 196.0
253.806488 120.0
253.869064 104.0
253.952377 148.0
253.974579 88.0
254.003128 112.0
254.086609 3332.0
254.114471 804.0
254.190323 184.0
254.247665 112.0
254.27919 152.0
254.377579 204.0
254.422806 196.0
254.456955 84.0
254.517288 52.0
254.568359 96.0
254.593506 136.0
254.701492 72.0
254.755493 80.0
254.798706 192.0
254.826981 216.0
254.890717 132.0
254.935944 132.0
255.020554 204.0
255.065231 4556.0
255.100342 4748.0
255.165482 96.0
255.215012 76.0
255.31987 164.0
255.502609 52.0
255.524887 68.0
255.586136 64.0
255.668076 56.0
255.817688 108.0
255.84436 168.0
255.873016 148.0
256.024658 144.0
256.071075 1896.0
256.102722 1928.0
256.144165 332.0
256.234894 88.0
256.320923 128.0
256.400269 120.0
256.524902 36.0
256.553589 40.0
256.620544 172.0
256.728973 164.0
256.786377 180.0
256.856567 124.0
256.886505 104.0
256.965027 176.0
256.987366 152.0
257.044098 260.0
257.078613 1228.0
257.109894 1908.0
257.210114 212.0
257.24588 48.0
257.276489 100.0
257.312927 128.0
257.392761 132.0
257.418304 96.0
257.504547 156.0
257.587585 52.0
257.683441 120.0
257.728149 56.0
257.764923 48.0
257.808044 52.0
257.900482 48.0
257.990234 36.0
258.013428 292.0
258.044067 280.0
258.086456 540.0
258.201294 44.0
258.262054 32.0
258.409241 220.0
258.461151 264.0
258.527618 176.0
258.5737 160.0
258.65564 156.0
258.697266 156.0
258.732483 40.0
258.809326 28.0
258.838165 128.0
258.918213 76.0
259.011108 88.0
259.043121 40.0
259.092957 684.0
259.120941 272.0
259.164886 144.0
259.248199 180.0
259.382812 112.0
259.495026 140.0
259.546967 288.0
259.570129 96.0
259.647583 160.0
259.7099 132.0
259.774048 172.0
259.806122 148.0
259.940887 124.0
260.021118 160.0
260.099121 560.0
260.15274 212.0
260.197693 204.0
260.30365 72.0
260.451385 128.0
260.560608 108.0
260.943085 52.0
260.981689 124.0
261.00293 92.0
261.026489 192.0
261.051636 516.0
261.101807 956.0
261.203583 76.0
261.254639 216.0
261.296875 188.0
261.377319 168.0
261.435242 168.0
261.464233 216.0
261.493195 284.0
261.591583 204.0
261.709961 188.0
261.821594 72.0
261.918213 124.0
261.944 180.0
261.986603 136.0
262.084991 948.0
262.156647 128.0
262.198547 176.0
262.449982 144.0
262.511261 156.0
262.549957 140.0
262.666077 148.0
262.712891 212.0
262.788666 120.0
262.908081 184.0
262.940338 28.0
263.069824 4848.0
263.140503 176.0
263.373016 172.0
263.427917 44.0
263.476379 152.0
263.518402 216.0
263.563629 72.0
263.6138 160.0
263.683197 160.0
263.712219 212.0
263.848907 172.0
263.873932 144.0
263.922211 164.0
264.079254 1668.0
264.094604 1724.0
264.143707 248.0
264.177063 192.0
264.267944 152.0
264.362366 72.0
264.436829 52.0
264.485382 188.0
264.523254 188.0
264.559814 40.0
264.705536 104.0
264.796722 168.0
264.838318 156.0
264.893402 108.0
264.93045 192.0
264.995209 168.0
265.084351 5316.0
265.162323 136.0
265.191498 248.0
265.261902 64.0
265.321167 124.0
265.412506 172.0
265.441132 40.0
265.496277 44.0
265.557892 112.0
265.580597 104.0
265.620575 160.0
265.71109 92.0
265.765533 128.0
265.899933 84.0
265.947266 112.0
266.015442 56.0
266.053497 324.0
266.090973 4640.0
266.2005 124.0
266.234467 132.0
266.265472 160.0
266.31488 148.0
266.373962 140.0
266.431122 204.0
266.460114 52.0
266.489624 160.0
266.538025 204.0
266.578186 236.0
266.609863 128.0
266.650726 180.0
266.686676 208.0
266.717102 196.0
266.743103 76.0
266.843384 200.0
266.89267 60.0
266.954559 132.0
267.01413 160.0
267.099731 18776.0
267.175079 160.0
267.241699 160.0
267.304565 148.0
267.342804 64.0
267.376434 164.0
267.413208 180.0
267.474854 72.0
267.510529 120.0
267.547729 220.0
267.634583 104.0
267.677429 124.0
267.731812 112.0
267.751068 88.0
267.844574 284.0
267.892639 120.0
267.926849 120.0
267.954193 196.0
267.986359 152.0
268.022644 260.0
268.099854 6104.0
268.174622 136.0
268.217743 88.0
268.253601 116.0
268.332001 92.0
268.393799 76.0
268.495819 176.0
268.579834 72.0
268.60907 92.0
268.633881 68.0
268.701508 228.0
268.754364 120.0
268.813141 96.0
268.870758 156.0
268.896942 144.0
268.942596 192.0
268.979706 96.0
269.026794 176.0
269.079132 2796.0
269.102203 2292.0
269.182709 128.0
269.21167 256.0
269.273315 72.0
269.317413 48.0
269.382751 92.0
269.421967 60.0
269.45462 100.0
269.494507 96.0
269.529449 160.0
269.535309 144.0
269.644165 36.0
269.667053 92.0
269.716064 100.0
269.766083 120.0
269.814148 68.0
269.902344 156.0
269.93512 104.0
269.964569 60.0
269.992584 240.0
270.087219 5468.0
270.178436 72.0
270.200073 144.0
270.321136 116.0
270.366974 88.0
270.402954 116.0
270.50116 140.0
270.556824 108.0
270.583832 144.0
270.632111 156.0
270.655853 144.0
270.695709 116.0
270.740204 124.0
270.782776 52.0
270.815826 44.0
270.847351 112.0
270.886292 312.0
270.938904 88.0
270.993439 192.0
271.09375 2920.0
271.195618 60.0
271.234955 112.0
271.261169 132.0
271.464447 48.0
271.523499 284.0
271.592377 48.0
271.664551 80.0
271.694061 112.0
271.776093 60.0
272.100403 1624.0
272.125061 740.0
272.17984 140.0
272.27179 132.0
272.436035 48.0
272.585052 236.0
272.708771 144.0
272.77124 68.0
272.87323 176.0
273.111481 1224.0
273.221771 48.0
273.261261 44.0
273.425812 112.0
273.531128 176.0
273.755432 164.0
273.876892 128.0
273.975708 164.0
274.053802 212.0
274.096039 300.0
274.173431 96.0
274.229462 200.0
274.288879 164.0
274.397583 120.0
274.421967 200.0
274.697693 64.0
274.770294 132.0
274.902283 32.0
275.034302 200.0
275.075562 400.0
275.088745 284.0
275.124847 184.0
275.192749 144.0
275.222473 88.0
275.311646 104.0
275.486206 236.0
275.618866 128.0
275.760986 124.0
275.956024 120.0
276.012238 56.0
276.099854 836.0
276.20871 88.0
276.253693 180.0
276.286774 112.0
276.412506 92.0
276.473938 156.0
276.561432 56.0
276.667358 112.0
276.693848 44.0
276.77002 148.0
276.836243 156.0
276.991913 48.0
277.084381 1960.0
277.209869 112.0
277.240417 108.0
277.316925 184.0
277.354919 220.0
277.462494 224.0
277.532135 52.0
277.558655 64.0
277.611725 184.0
277.668091 136.0
277.751038 140.0
277.780884 96.0
277.814056 156.0
277.857178 96.0
277.930176 224.0
278.089691 5712.0
278.173157 172.0
278.232208 32.0
278.307556 124.0
278.371674 160.0
278.43811 104.0
278.47464 104.0
278.504547 176.0
278.556213 132.0
278.590912 40.0
278.620819 52.0
278.670654 148.0
278.823517 116.0
278.871735 112.0
278.999695 100.0
279.065338 4140.0
279.096008 3200.0
279.209167 80.0
279.25 144.0
279.315613 128.0
279.382141 208.0
279.418732 48.0
279.478058 104.0
279.526703 196.0
279.605103 220.0
279.71402 176.0
279.738251 108.0
279.824799 184.0
279.933289 152.0
279.971313 80.0
280.004761 104.0
280.095795 3212.0
280.184509 104.0
280.221283 100.0
280.271149 80.0
280.31778 120.0
280.347534 52.0
280.411102 100.0
280.442139 104.0
280.511108 160.0
280.534454 44.0
280.601135 164.0
280.653625 108.0
280.692871 140.0
280.742767 168.0
280.786499 108.0
280.87793 64.0
280.926544 176.0
280.967987 100.0
281.113495 5784.0
281.171539 160.0
281.200165 56.0
281.226715 68.0
281.258331 60.0
281.325104 188.0
281.374176 92.0
281.418335 104.0
281.489532 60.0
281.580139 184.0
281.678131 124.0
281.739227 180.0
281.80603 56.0
281.840179 128.0
281.946381 148.0
281.9888 128.0
282.020447 152.0
282.122742 15732.0
282.254944 164.0
282.265381 96.0
282.316071 56.0
282.340912 76.0
282.380554 56.0
282.42981 100.0
282.488068 268.0
282.547729 308.0
282.575073 132.0
282.700439 108.0
282.749084 52.0
282.772522 108.0
282.819366 196.0
282.842804 252.0
282.88269 148.0
282.929626 168.0
282.953522 180.0
282.983398 44.0
283.095306 12164.0
283.122162 4528.0
283.251343 64.0
283.315857 228.0
283.358368 72.0
283.393768 132.0
283.43692 164.0
283.521393 168.0
283.602051 176.0
283.643402 52.0
283.677429 164.0
283.688263 108.0
283.70163 248.0
283.738586 180.0
283.771851 272.0
283.799164 88.0
283.810272 104.0
283.835876 196.0
283.846252 144.0
283.871521 188.0
283.911652 124.0
283.985626 144.0
284.018982 88.0
284.098663 4800.0
284.165314 272.0
284.253815 116.0
284.296021 216.0
284.381378 156.0
284.49884 172.0
284.582794 36.0
284.693359 220.0
284.723846 100.0
284.747345 124.0
284.790161 120.0
284.82193 172.0
284.887146 96.0
284.93692 148.0
284.974731 132.0
285.032196 208.0
285.109314 8776.0
285.20871 140.0
285.288361 156.0
285.342133 100.0
285.523071 60.0
285.547272 144.0
285.611176 56.0
285.65451 132.0
285.715485 80.0
285.739014 44.0
285.799683 128.0
285.845428 148.0
285.869141 132.0
285.917969 244.0
285.961304 108.0
286.018341 116.0
286.110657 3348.0
286.233826 68.0
286.271118 56.0
286.407654 176.0
286.445526 112.0
286.504364 100.0
286.574036 48.0
286.776245 64.0
286.826813 112.0
286.944794 96.0
286.988617 148.0
287.089233 3732.0
287.198914 136.0
287.265198 68.0
287.288818 132.0
287.435638 116.0
287.487885 68.0
287.523773 156.0
287.570526 164.0
287.7565 160.0
287.801819 112.0
287.89975 52.0
287.986664 140.0
288.094666 1160.0
288.190277 140.0
288.233582 128.0
288.268005 68.0
288.389679 208.0
288.480927 116.0
288.511383 164.0
288.649994 96.0
288.764984 84.0
289.005188 72.0
289.049164 196.0
289.102844 320.0
289.167633 88.0
289.208252 152.0
289.374115 104.0
289.428314 152.0
289.817841 204.0
289.946625 164.0
290.021759 176.0
290.078308 520.0
290.160187 188.0
290.355743 168.0
290.41452 124.0
290.553619 132.0
290.66217 80.0
290.727081 164.0
290.814911 152.0
290.859039 68.0
290.991425 64.0
291.090637 576.0
291.354858 116.0
291.416016 224.0
291.558746 36.0
291.626709 108.0
291.657288 164.0
291.778687 232.0
291.94754 136.0
292.024536 100.0
292.099579 2412.0
292.194611 156.0
292.232056 40.0
292.354553 264.0
292.439636 36.0
292.500916 152.0
292.558777 68.0
292.739258 96.0
292.788879 108.0
292.866455 196.0
292.947021 172.0
292.978394 96.0
293.08786 2652.0
293.250305 144.0
293.306549 160.0
293.410522 104.0
293.465088 48.0
293.502594 152.0
293.536682 152.0
293.577606 212.0
293.731659 132.0
293.816376 136.0
293.901672 192.0
293.932404 160.0
293.993805 112.0
294.107727 4284.0
294.177063 176.0
294.251556 144.0
294.297638 192.0
294.328369 148.0
294.375061 244.0
294.454742 196.0
294.502533 112.0
294.608704 124.0
294.646881 208.0
294.679626 120.0
294.72348 132.0
294.864716 80.0
294.894714 248.0
294.922821 176.0
294.950165 96.0
294.980621 88.0
295.095306 15184.0
295.219604 80.0
295.250488 48.0
295.258148 164.0
295.321472 116.0
295.381042 48.0
295.446045 60.0
295.538422 56.0
295.57608 88.0
295.622009 308.0
295.654785 44.0
295.696198 40.0
295.77594 60.0
295.825928 80.0
295.894409 44.0
295.929291 64.0
296.094269 6340.0
296.209473 72.0
296.243713 168.0
296.26947 108.0
296.305389 52.0
296.343079 60.0
296.39447 48.0
296.464966 76.0
296.531555 104.0
296.555573 96.0
296.612213 212.0
296.678955 116.0
296.726959 32.0
296.786102 224.0
296.825104 84.0
296.898407 48.0
296.965759 108.0
297.003143 188.0
297.103027 3540.0
297.177643 120.0
297.223389 44.0
297.2948 56.0
297.320404 72.0
297.398041 208.0
297.459045 164.0
297.564148 40.0
297.67746 120.0
297.768799 60.0
297.82019 100.0
297.857697 92.0
297.924774 120.0
297.967285 140.0
298.008942 204.0
298.118591 7072.0
298.198395 128.0
298.285461 92.0
298.326843 52.0
298.385315 64.0
298.477356 176.0
298.540039 100.0
298.577881 136.0
298.623505 136.0
298.658386 128.0
298.780823 64.0
298.821838 96.0
298.853088 164.0
298.894379 152.0
298.921906 56.0
298.989136 96.0
299.034088 72.0
299.120331 3824.0
299.193726 132.0
299.240662 100.0
299.300568 124.0
299.367706 184.0
299.424408 120.0
299.517548 180.0
299.641571 52.0
299.697021 164.0
299.762756 92.0
299.796631 36.0
299.873444 192.0
299.904358 184.0
299.931702 84.0
300.040741 104.0
300.123779 10096.0
300.187988 192.0
300.269775 100.0
300.293091 160.0
300.359039 68.0
300.401093 156.0
300.437744 240.0
300.460327 108.0
300.491119 92.0
300.617401 56.0
300.655365 88.0
300.68988 144.0
300.720947 68.0
300.793427 84.0
300.834869 96.0
300.872833 44.0
300.920471 100.0
300.932404 80.0
300.943054 120.0
301.127472 3116.0
301.21817 132.0
301.487701 88.0
301.563721 52.0
301.612122 180.0
301.682465 80.0
301.7435 68.0
301.809204 84.0
301.867981 176.0
301.930237 116.0
301.957886 56.0
302.071533 160.0
302.11731 1752.0
302.20697 56.0
302.248505 232.0
302.330261 116.0
302.424072 44.0
302.591187 28.0
302.636353 76.0
302.65918 112.0
302.819733 104.0
302.857422 172.0
303.010254 48.0
303.073547 136.0
303.11734 412.0
303.193909 152.0
303.21817 204.0
303.265076 136.0
303.582214 48.0
303.609955 72.0
303.734833 76.0
303.776459 64.0
303.818085 140.0
303.904816 128.0
304.09967 440.0
304.138916 124.0
304.175537 156.0
304.474152 104.0
304.540131 108.0
304.564453 184.0
304.717316 88.0
304.925812 48.0
305.098328 360.0
305.217957 108.0
305.390869 64.0
305.534363 88.0
305.64917 112.0
306.021637 104.0
306.112549 188.0
306.285217 204.0
306.324615 184.0
306.481415 48.0
306.547607 60.0
306.581635 152.0
306.646576 136.0
306.713501 108.0
306.903198 200.0
306.951996 224.0
307.037811 92.0
307.115326 1016.0
307.185699 36.0
307.384583 136.0
307.429932 92.0
307.573029 116.0
307.688232 212.0
307.827911 100.0
307.861237 84.0
307.908234 96.0
307.943176 84.0
308.038879 328.0
308.124603 2892.0
308.182526 108.0
308.226135 172.0
308.285553 36.0
308.332611 52.0
308.411377 56.0
308.451904 208.0
308.512054 60.0
308.572205 80.0
308.621155 52.0
308.712067 56.0
308.798553 88.0
308.86795 148.0
308.897308 160.0
308.95343 84.0
309.00589 104.0
309.109528 6068.0
309.194855 76.0
309.240356 148.0
309.271881 140.0
309.334869 40.0
309.390503 108.0
309.474915 88.0
309.645599 120.0
309.702576 156.0
309.740753 216.0
309.867218 84.0
309.91275 96.0
309.966431 124.0
309.999329 120.0
310.014221 84.0
310.021759 104.0
310.116028 23652.0
310.215485 96.0
310.246857 172.0
310.273773 112.0
310.298309 32.0
310.32431 136.0
310.381104 72.0
310.390747 112.0
310.422913 168.0
310.473663 44.0
310.509766 200.0
310.619446 148.0
310.652557 88.0
310.691132 56.0
310.736755 68.0
310.764801 32.0
310.831482 64.0
310.884277 176.0
310.958038 64.0
310.996429 116.0
311.030365 196.0
311.092102 13388.0
311.207581 28.0
311.222412 44.0
311.23645 88.0
311.303986 60.0
311.318268 36.0
311.328491 84.0
311.37915 108.0
311.441986 100.0
311.499359 128.0
311.537231 56.0
311.560974 164.0
311.607452 292.0
311.660187 92.0
311.725708 168.0
311.765167 120.0
311.81897 68.0
311.856995 116.0
311.925934 92.0
311.967957 164.0
312.004639 68.0
312.030762 212.0
312.097412 3568.0
312.113617 3444.0
312.117676 3644.0
312.19101 168.0
312.235443 120.0
312.282471 68.0
312.337738 56.0
312.364471 256.0
312.407288 116.0
312.477325 132.0
312.542786 88.0
312.5802 132.0
312.644836 144.0
312.669495 68.0
312.705261 120.0
312.746796 116.0
312.793793 128.0
312.84549 116.0
312.888031 96.0
313.003876 228.0
313.105652 2364.0
313.139954 4936.0
313.224976 84.0
313.312836 180.0
313.354767 80.0
313.481934 104.0
313.553497 64.0
313.611786 180.0
313.636047 84.0
313.67334 60.0
313.768555 104.0
313.821442 72.0
313.851288 152.0
313.88913 236.0
313.960785 184.0
314.012512 164.0
314.04007 60.0
314.102173 4032.0
314.136139 3376.0
314.190582 264.0
314.245361 192.0
314.320496 208.0
314.37915 192.0
314.430115 52.0
314.470551 60.0
314.562317 96.0
314.622345 140.0
314.684174 132.0
314.744385 64.0
314.789764 128.0
314.82193 152.0
314.890717 52.0
314.926025 60.0
314.957825 80.0
315.014343 140.0
315.1091 1516.0
315.14035 1072.0
315.212219 64.0
315.271851 64.0
315.297943 76.0
315.321777 136.0
315.367706 84.0
315.399536 180.0
315.473755 100.0
315.556213 100.0
315.61615 44.0
315.647034 108.0
315.700073 164.0
315.738953 168.0
315.905518 236.0
315.990356 180.0
316.021973 176.0
316.149536 2324.0
316.230774 68.0
316.372375 44.0
316.407776 56.0
316.436096 76.0
316.535248 52.0
316.708771 72.0
316.796326 84.0
316.857574 60.0
316.914276 68.0
316.942596 72.0
317.009949 68.0
317.099152 320.0
317.150879 476.0
317.248047 92.0
317.34314 72.0
317.492096 92.0
317.570129 100.0
317.605591 132.0
317.630432 132.0
317.752808 64.0
317.811371 240.0
317.839752 104.0
318.077209 124.0
318.123993 228.0
318.539185 64.0
318.74881 36.0
318.926514 168.0
319.085297 148.0
319.122894 288.0
319.598694 132.0
319.673401 80.0
319.95462 68.0
320.087433 772.0
320.210999 52.0
320.357056 44.0
320.421173 60.0
320.456818 48.0
320.48175 140.0
320.693268 160.0
320.984375 40.0
321.009338 88.0
321.09436 728.0
321.141205 204.0
321.180511 72.0
321.262573 68.0
321.298248 104.0
321.494507 44.0
321.622986 172.0
321.676544 60.0
321.819366 40.0
322.026489 120.0
322.063873 172.0
322.102509 520.0
322.141846 736.0
322.21225 144.0
322.2854 132.0
322.33374 152.0
322.423065 60.0
322.648285 140.0
322.673309 112.0
322.698334 140.0
322.794891 144.0
322.862823 108.0
322.889801 48.0
322.912903 116.0
323.00708 172.0
323.122284 920.0
323.395935 40.0
323.496155 112.0
323.542694 204.0
323.639374 140.0
323.670135 80.0
323.725311 52.0
323.807709 100.0
323.836365 52.0
324.011871 252.0
324.121887 5108.0
324.28064 136.0
324.341583 176.0
324.444611 140.0
324.470642 36.0
324.499329 176.0
324.528015 64.0
324.593536 72.0
324.61676 80.0
324.743195 172.0
324.822113 160.0
324.983551 168.0
325.033783 148.0
325.121948 3060.0
325.236328 64.0
325.292419 68.0
325.404816 160.0
325.43222 44.0
325.504028 52.0
325.543549 144.0
325.568695 108.0
325.593811 72.0
325.657715 96.0
325.681091 108.0
325.733917 52.0
325.791382 108.0
325.815338 96.0
325.874023 56.0
325.945129 188.0
325.999786 200.0
326.025665 204.0
326.13147 8724.0
326.211853 128.0
326.272003 104.0
326.298126 60.0
326.341278 52.0
326.400299 128.0
326.542664 52.0
326.576355 144.0
326.675781 44.0
326.726135 48.0
326.756531 124.0
326.888947 292.0
327.053619 168.0
327.140533 3080.0
327.218689 108.0
327.238739 160.0
327.343109 116.0
327.473145 124.0
327.518127 80.0
327.543335 220.0
327.600983 68.0
327.627838 148.0
327.676636 96.0
327.759521 40.0
327.809967 36.0
327.849609 68.0
327.885651 208.0
328.117798 7644.0
328.18219 216.0
328.237579 96.0
328.367981 144.0
328.467926 64.0
328.505859 68.0
328.570007 168.0
328.638947 72.0
328.686249 40.0
328.754822 88.0
328.815582 96.0
328.828461 88.0
328.842651 132.0
329.005859 44.0
329.12326 2576.0
329.202484 80.0
329.253021 40.0
329.285553 88.0
329.458221 144.0
329.495941 136.0
329.545654 136.0
329.625153 124.0
329.709534 136.0
329.744202 72.0
330.015533 152.0
330.070099 140.0
330.128754 988.0
330.165833 984.0
330.319061 52.0
330.398926 76.0
330.500244 40.0
330.561737 168.0
330.634125 80.0
330.742706 184.0
330.797028 96.0
330.840454 84.0
330.865814 56.0
330.992523 60.0
331.064972 124.0
331.127869 432.0
331.170013 540.0
331.270508 32.0
331.351135 88.0
331.430847 96.0
331.467072 72.0
331.554047 108.0
331.666412 52.0
331.749786 68.0
331.833191 92.0
332.021759 92.0
332.065277 40.0
332.125641 164.0
332.16098 160.0
332.481201 132.0
332.656738 76.0
332.700317 92.0
332.816498 36.0
333.093964 120.0
333.132477 120.0
333.179718 168.0
333.372284 80.0
333.597656 156.0
333.91037 120.0
334.099243 376.0
334.132812 188.0
334.494476 152.0
334.718292 40.0
334.827545 136.0
335.04245 204.0
335.107056 272.0
335.177277 76.0
335.50531 148.0
335.953125 168.0
336.118256 912.0
336.307861 92.0
336.425385 104.0
336.618195 148.0
337.092072 920.0
337.125275 560.0
337.322174 132.0
337.393799 180.0
337.487885 32.0
337.634186 72.0
337.707336 76.0
337.792786 144.0
337.937805 76.0
338.134186 788.0
338.182983 220.0
338.237915 176.0
338.395325 132.0
338.457581 124.0
338.552795 36.0
338.600403 52.0
338.728607 84.0
338.80188 148.0
339.014404 92.0
339.144867 2240.0
339.234314 80.0
339.308868 60.0
339.418823 88.0
339.457977 60.0
339.490997 68.0
339.685394 124.0
339.722076 48.0
339.75708 96.0
339.938538 128.0
340.062531 92.0
340.152008 4400.0
340.305634 76.0
340.412109 56.0
340.481903 180.0
340.801514 64.0
340.867645 80.0
340.900726 72.0
340.966858 76.0
341.057373 180.0
341.137115 9536.0
341.231537 68.0
341.290375 64.0
341.330811 48.0
341.360229 116.0
341.415405 76.0
341.591949 40.0
341.85321 160.0
342.037231 84.0
342.133514 5288.0
342.259064 48.0
342.306 68.0
342.377319 56.0
342.504883 72.0
342.552765 84.0
342.641205 84.0
342.777527 108.0
342.882751 116.0
342.983917 60.0
343.138916 3880.0
343.212524 104.0
343.264496 164.0
343.305298 220.0
343.419037 72.0
343.510803 64.0
343.56308 88.0
343.640381 88.0
343.669891 48.0
343.69574 76.0
343.736328 32.0
343.891327 124.0
343.927643 48.0
343.951416 116.0
344.039001 64.0
344.090668 208.0
344.144043 488.0
344.382416 76.0
344.493225 88.0
344.592987 172.0
345.006927 56.0
345.136353 108.0
345.184418 144.0
345.29538 60.0
346.23175 96.0
346.37619 36.0
346.646667 92.0
346.702271 40.0
346.97287 60.0
347.002533 100.0
347.202759 68.0
347.555206 116.0
348.115021 188.0
348.271729 80.0
348.925781 112.0
349.122223 276.0
349.398132 148.0
349.863342 28.0
350.137054 672.0
350.373566 72.0
350.425751 124.0
351.108826 572.0
351.143829 512.0
351.245941 136.0
351.298157 68.0
351.331726 56.0
351.925171 136.0
352.115723 3028.0
352.339752 196.0
352.590118 68.0
352.945282 60.0
353.040588 140.0
353.120361 672.0
353.289368 76.0
354.127808 336.0
354.169464 1368.0
354.341431 84.0
354.412628 56.0
354.731201 68.0
354.854919 72.0
355.027405 156.0
355.068665 120.0
355.132904 372.0
355.174225 212.0
355.530121 116.0
356.159088 296.0
356.269867 152.0
356.619354 124.0
356.788513 132.0
356.886261 80.0
357.006592 52.0
357.032928 36.0
357.124695 332.0
357.159393 840.0
357.251099 132.0
357.281189 152.0
357.386536 76.0
357.510712 88.0
357.54837 40.0
357.604797 164.0
357.82428 120.0
357.875854 104.0
357.902222 60.0
357.948395 156.0
357.992615 40.0
358.103119 220.0
358.162994 13892.0
358.244263 152.0
358.312775 144.0
358.384369 60.0
358.418274 76.0
358.448425 60.0
358.572784 48.0
358.71283 80.0
358.798981 164.0
358.830658 108.0
358.884674 88.0
358.92215 108.0
359.01767 52.0
359.165527 2660.0
359.360962 48.0
359.421326 48.0
359.493652 48.0
359.6138 52.0
359.719513 44.0
359.761017 92.0
360.166565 544.0
360.30542 56.0
360.36911 80.0
360.414459 72.0
360.569397 28.0
360.764862 56.0
360.776154 40.0
360.792084 44.0
360.801666 80.0
360.886932 92.0
360.928528 52.0
360.961243 92.0
361.064667 132.0
361.157288 116.0
361.181915 192.0
361.393799 68.0
361.461914 56.0
361.575439 112.0
361.624634 148.0
361.685211 136.0
362.152435 188.0
362.58667 68.0
362.624573 116.0
362.749664 72.0
363.117493 40.0
363.254028 36.0
363.496857 36.0
363.553802 116.0
364.393005 80.0
365.141876 112.0
365.693573 68.0
366.133606 560.0
366.257141 44.0
366.737244 32.0
366.790619 160.0
367.137299 2248.0
367.210052 204.0
367.549591 136.0
367.870178 124.0
368.145874 1500.0
368.217682 112.0
368.258789 68.0
368.43924 48.0
369.157867 460.0
369.268768 40.0
369.349091 96.0
369.946045 52.0
370.064758 32.0
370.136475 392.0
371.130066 164.0
371.800171 68.0
372.231262 120.0
372.264923 132.0
372.454041 112.0
372.653809 124.0
373.145233 140.0
373.584229 76.0
373.888214 44.0
374.904938 120.0
375.926941 56.0
376.892334 84.0
376.961884 156.0
377.213135 40.0
378.017639 100.0
378.26535 56.0
379.699036 48.0
380.01712 76.0
381.073242 152.0
381.218201 156.0
381.811859 128.0
382.161652 3712.0
382.547272 40.0
382.574524 32.0
382.675751 80.0
382.835419 48.0
383.167114 1140.0
383.283386 48.0
383.505554 100.0
384.143524 428.0
384.6875 48.0
384.949097 60.0
385.13855 372.0
385.187378 188.0
385.382721 92.0
385.578094 92.0
386.231079 48.0
386.270203 96.0
387.162628 128.0
387.366302 80.0
387.785583 44.0
387.875732 68.0
388.636597 56.0
388.74646 60.0
390.758362 64.0
391.077118 60.0
391.455078 68.0
391.573242 204.0
391.687469 152.0
391.726868 96.0
391.813538 116.0
394.090118 220.0
394.271912 44.0
395.996948 76.0
396.722107 180.0
397.146423 116.0
397.364624 120.0
397.805145 68.0
399.000977 168.0
399.171967 132.0
399.438446 92.0
399.649292 164.0
399.756744 200.0
399.872162 160.0
399.939819 152.0
400.013275 172.0
400.08313 148.0
400.173401 12508.0
400.246399 212.0
400.294159 156.0
400.35788 64.0
400.449493 48.0
400.536469 48.0
400.580933 124.0
400.656647 52.0
400.712433 76.0
400.83197 48.0
401.06311 100.0
401.17514 3784.0
401.260223 136.0
401.370117 104.0
401.457825 68.0
401.60141 116.0
401.695557 40.0
401.904633 88.0
402.17572 792.0
402.575256 40.0
402.99939 92.0
403.190521 144.0
403.273773 72.0
403.354401 72.0
403.618286 32.0
403.770233 104.0
403.842224 44.0
403.891144 88.0
403.970245 72.0
404.250336 48.0
404.450439 84.0
404.638611 68.0
405.483856 44.0
405.948914 36.0
406.297882 80.0
407.586761 44.0
408.398895 72.0
409.131287 60.0
409.509827 84.0
409.981201 40.0
410.323853 72.0
410.924805 72.0
410.957092 60.0
411.663513 52.0
411.966461 28.0
412.774811 116.0
415.983795 136.0
417.357056 36.0
419.763672 100.0
421.899139 100.0
421.968658 108.0
422.819519 92.0
423.089691 48.0
424.228607 100.0
426.116516 72.0
426.153503 104.0
430.458099 72.0
430.821594 44.0
431.834351 36.0
434.493866 28.0
435.099823 68.0
435.627258 108.0
435.963806 48.0
436.845306 48.0
436.928528 68.0
437.323853 132.0
437.365479 64.0
437.890137 136.0
440.430328 164.0
442.71402 104.0
444.017426 64.0
444.61319 96.0
446.73938 132.0
447.372437 132.0
449.988831 36.0
453.656952 60.0
454.895691 112.0
455.800385 40.0
455.834381 36.0
456.357208 112.0
457.339966 56.0
458.170349 140.0
459.044159 60.0
459.585907 112.0
460.960938 56.0
462.629059 64.0
465.132599 68.0
465.282867 40.0
465.415985 72.0
465.738068 64.0
467.862457 128.0
468.267242 72.0
468.57309 72.0
469.504211 96.0
471.848999 56.0
473.107971 52.0
473.523682 48.0
475.136292 112.0
475.93927 32.0
476.59082 120.0
477.142822 108.0
479.153625 52.0
479.685303 76.0
482.47934 40.0
482.702332 76.0
483.19223 72.0
485.783234 76.0
488.126892 84.0
489.896301 52.0
490.085754 108.0
490.138641 96.0
490.636688 80.0
490.976227 40.0
492.878937 48.0
498.293579 60.0
498.400208 72.0
499.493927 116.0
500.780365 76.0
503.036682 56.0
503.184021 88.0
505.81723 100.0
509.557526 60.0
510.496979 64.0
511.023285 104.0
514.620178 104.0
516.378113 128.0
519.172546 108.0
521.603149 64.0
524.095825 40.0
525.304016 64.0
526.116394 48.0
526.367493 56.0
526.513611 92.0
527.427429 84.0
528.165283 228.0
528.282593 100.0
529.633057 104.0
531.27417 60.0
534.614746 80.0
536.16217 64.0
540.077576 100.0
540.901245 64.0
541.74408 52.0
542.017456 192.0
544.703796 36.0
545.71228 92.0
546.949829 76.0
547.974365 80.0
550.161804 48.0
551.151978 112.0
552.442444 80.0
555.914429 128.0
559.35498 88.0
560.918945 72.0
561.914062 84.0
562.711731 92.0
562.919495 56.0
566.571106 84.0
567.960083 72.0
568.966187 92.0
569.122864 80.0
570.828796 116.0
572.322998 104.0
572.76593 44.0
573.91925 80.0
574.286499 64.0
575.312439 56.0
576.40625 96.0
579.85199 32.0
580.369751 108.0
580.964478 68.0
581.377197 68.0
583.163818 128.0
584.351685 60.0
588.323059 116.0
592.77301 48.0
593.514709 92.0
596.447144 92.0
596.544373 84.0
601.020386 56.0
603.638672 112.0
605.02832 80.0
607.120667 132.0
607.498352 68.0
608.411194 84.0
609.806274 80.0
611.134094 84.0
612.052979 88.0
615.649597 232.0
616.548767 32.0
617.300171 128.0
618.626221 52.0
620.588196 40.0
621.615051 104.0
624.247986 68.0
626.731934 48.0
630.329773 48.0
631.764771 100.0
632.068237 144.0
634.7099 56.0
636.07959 104.0
636.948364 40.0
638.602112 128.0
640.560242 100.0
641.623596 88.0
644.106506 80.0
646.417114 52.0
646.903015 128.0
650.659729 108.0
651.507935 96.0
652.392212 36.0
652.549805 124.0
653.556946 72.0
653.760498 56.0
655.950684 84.0
658.890259 60.0
660.940613 80.0
661.145325 40.0
662.973694 64.0
665.148438 84.0
666.427246 156.0
666.483765 108.0
668.208984 100.0
671.276306 88.0
672.457764 72.0
674.301697 28.0
674.498108 100.0
674.813477 76.0
679.640991 84.0
682.934753 92.0
690.59198 48.0
692.282471 80.0
696.263062 80.0
697.639771 124.0
697.676575 140.0
699.32312 40.0
702.337097 48.0
704.332458 88.0
707.029053 76.0
708.11969 84.0
710.12854 36.0
710.600708 40.0
710.908447 40.0
712.25177 40.0
713.591003 76.0
715.043274 208.0
718.427002 40.0
718.885864 144.0
722.824402 92.0
727.385498 56.0
742.49939 68.0
742.63501 52.0
745.974609 124.0
752.272217 56.0
754.375427 124.0
754.71991 44.0
756.744446 52.0
759.890564 148.0
761.641907 124.0
763.175232 96.0
764.44043 92.0
765.299194 64.0
766.610229 84.0
769.876221 72.0
771.793762 44.0
781.962769 88.0
782.558472 104.0
784.285461 40.0
785.411865 40.0
788.963562 40.0
789.315857 80.0
790.731262 92.0
792.002258 120.0
798.142212 132.0
799.053406 80.0
801.53656 84.0
806.717957 84.0
813.635437 64.0
817.597473 120.0
825.418823 48.0
826.374084 184.0
828.039978 108.0
828.320618 180.0
831.049683 124.0
843.784668 56.0
852.084412 96.0
872.27655 64.0
874.052734 120.0
877.286316 116.0
877.404236 52.0
890.036926 140.0
897.796997 124.0
903.926392 84.0
909.008179 64.0
910.052673 104.0
910.9776 52.0
911.692627 108.0
918.074219 40.0
923.963745 56.0
926.246094 112.0
927.064026 172.0
929.944946 32.0
930.303101 80.0
931.59668 128.0
934.502808 156.0
939.987 128.0
943.150757 48.0
946.240173 64.0
948.261719 112.0
950.402039 84.0
957.644165 88.0
960.306946 88.0
965.94043 92.0
966.602478 132.0
969.575073 72.0
970.393372 228.0
971.255432 88.0
975.297852 64.0
979.728638 48.0
993.771423 124.0
1001.560852 48.0
1002.688721 32.0
1004.220825 76.0
1009.235229 152.0
1011.1521 76.0
1011.576233 160.0
1011.905396 64.0
1012.044739 88.0
1013.001099 52.0
1014.667847 184.0
1016.1203 92.0
1018.831299 56.0
1029.769043 104.0
1030.292847 100.0
1034.725098 112.0
1035.615234 112.0
1037.351807 132.0
1040.174438 236.0
1040.366943 164.0
1041.516479 40.0
1046.005005 140.0
1053.834595 100.0
1054.674683 72.0
1062.35498 56.0
1062.757202 100.0
1067.434204 56.0
1070.232422 144.0
1072.473511 84.0
1076.224854 68.0
1089.678589 100.0
1090.611816 196.0
1096.021729 96.0
1097.893921 84.0
1100.731689 68.0
1106.835327 120.0
1108.809448 76.0
1109.664673 92.0
1111.170288 44.0
1116.930176 224.0
1125.060425 100.0
1129.792114 100.0
1135.667114 176.0
1141.644775 40.0
1143.252686 124.0
1150.384033 180.0
1151.261841 200.0
1152.248047 48.0
1153.173828 72.0
1154.059448 96.0
1160.776855 112.0
1161.936768 172.0
1162.506714 180.0
1167.792603 152.0
1171.052979 140.0
1176.562988 180.0
1177.464355 160.0
1185.701904 56.0
1186.072021 208.0
1190.374023 72.0
1194.814331 240.0
1207.016235 188.0
1208.538086 144.0
1209.070923 108.0
1210.171631 60.0
1215.543701 88.0
1222.687988 96.0
1224.379883 76.0
1224.881348 120.0
1226.630493 56.0
1232.619019 200.0
1233.12915 52.0
1238.341919 56.0
1241.460693 144.0
1243.404175 152.0
1244.007812 44.0
1253.73584 80.0
1255.441895 176.0
1255.639404 96.0
1256.034424 148.0
1262.490112 92.0
1262.82959 84.0
1262.942871 56.0
1265.887085 176.0
1266.66626 112.0
1271.21106 172.0
1273.490112 164.0
1277.976074 88.0
1279.513428 176.0
1280.432129 64.0
1282.847656 124.0
1283.546387 132.0
1286.479004 52.0
1288.107178 156.0
1296.235107 184.0
1300.73938 204.0
1301.155762 48.0
1306.985107 168.0
1311.637695 192.0
1311.810669 132.0
1315.886963 48.0
1316.912476 60.0
1319.781616 184.0
1328.081299 128.0
1329.343628 72.0
1330.207397 132.0
1332.647705 64.0
1336.559692 180.0
1340.812744 100.0
1347.97937 116.0
1350.472534 160.0
1351.109009 116.0
1352.052979 136.0
1360.996582 160.0
1362.51709 160.0
1367.694336 68.0
1371.443604 64.0
1378.521606 36.0
1382.270996 160.0
1382.914795 56.0
1384.062378 80.0
1387.404053 164.0
1391.402954 60.0
1391.737061 120.0
1393.482666 36.0
1394.106812 80.0
1398.323853 164.0
1399.194824 152.0
1399.40332 208.0
1403.68042 168.0
1406.694824 140.0
1408.203247 132.0
1410.609375 200.0
1415.981934 164.0
1418.22229 172.0
1418.417114 136.0
1419.616821 196.0
1420.756958 76.0
1422.392944 220.0
1424.578247 144.0
1425.254517 124.0
1425.667847 140.0
1426.088745 136.0
1426.682617 168.0
1428.600342 160.0
1429.503296 152.0
1430.158081 64.0
1433.494629 176.0
1434.059814 144.0
1434.70813 168.0
1434.791016 192.0
1436.012695 272.0
1437.559326 180.0
1437.710327 40.0
1440.428589 136.0
1442.030518 140.0
1447.818481 232.0
1450.978394 68.0
1452.47998 144.0
1453.769775 160.0
1456.981812 140.0
1463.880859 152.0
1464.756836 128.0
1467.752075 176.0
1472.613647 188.0
1473.140625 144.0
1474.546753 172.0
1477.26123 212.0
1479.393433 140.0
1480.399536 184.0
1481.188477 88.0
1481.402954 180.0
1481.73999 60.0
1483.763428 88.0
1485.16687 152.0
1487.422852 160.0
1491.348145 144.0
1495.062988 32.0
1495.809692 156.0
1496.987671 152.0
1499.93103 132.0
1502.005371 164.0
1502.437378 92.0
1504.057983 92.0
