>compound MLS002153172-01!Tyrphostin AG 490133550-30-8
>formula C17H14N2O3
>ionization [M+H]+
>parentmass 295.1077187600905
#inchi InChI=1S/C17H14N2O3/c18-10-14(8-13-6-7-15(20)16(21)9-13)17(22)19-11-12-4-2-1-3-5-12/h1-9,20-21H,11H2,(H,19,22)/b14-8+
#inchikey TUCIOBMMDDOEMM
#Ion_Source LC-ESI
#Instrument qTof
#Compound_Source NIH Pharmacologically Active Library
#PI Dorrestein
#Data_Collector VP/LMS
#Scan -1
#Precursor_MZ 295.113
#ExactMass 294.1
#Charge 1
#CAS_Number N/A
#Pubmed_ID N/A
#Smiles Oc1ccc(/C=C(\C#N)/C(=O)NCc2ccccc2)cc1O
#INCHI_AUX N/A
#Library_Class 3
#SpectrumID CCMSLIB00000086061
#IonMode Positive
#UpdateWorkflowName UPDATE-SINGLE-ANNOTATED-BRONZE
#LibraryQualityString Bronze
#TaskID d252d724072548979f1f6f1ced849daf
##Scan# 1815
#SpectrumFile p5-C05_GC5_01_18450.mzXML
#LibraryName Pharm_Active_Library.mgf
#MQScore -1
#Organism Pharm_Active_Library
#TIC_Query 0
#RT_Query -1
#MZErrorPPM -1
#SharedPeaks 0
#MassDiff 0
#LibMZ -1
#SpecMZ 295.113
#SpecCharge 0
#internalFilename spec-00000.mgf

>collision 10
46.288567 180.0
48.119442 180.0
48.343361 76.0
50.359413 148.0
51.73587 104.0
52.498543 148.0
54.447495 192.0
54.869793 220.0
58.196026 188.0
58.474205 244.0
58.992805 160.0
70.798546 164.0
72.381462 216.0
72.559364 184.0
74.01783 124.0
76.18235 220.0
82.77977 200.0
83.483856 140.0
86.902359 112.0
86.961739 92.0
90.071846 44.0
91.055519 2400.0
91.17263 148.0
91.269569 148.0
92.057877 352.0
103.92527 112.0
104.051102 164.0
104.683441 52.0
105.0299 148.0
105.06662 176.0
111.725655 124.0
114.033554 676.0
114.215439 136.0
115.040077 184.0
116.977928 156.0
117.049095 144.0
117.072662 140.0
117.901047 160.0
118.076157 208.0
132.043411 608.0
133.02832 208.0
141.331268 140.0
142.028412 552.0
143.037598 40.0
145.029663 152.0
149.067291 136.0
151.818436 68.0
155.082626 180.0
157.03685 156.0
159.038452 160.0
160.039551 624.0
160.182526 72.0
160.505112 52.0
161.024948 148.0
161.043732 144.0
162.051956 148.0
162.069687 168.0
169.083862 48.0
169.133041 92.0
170.023285 364.0
170.050568 52.0
175.784546 48.0
188.036438 960.0
188.905716 72.0
189.941132 96.0
190.039902 132.0
195.135681 152.0
196.109955 156.0
199.052994 136.0
201.551453 40.0
202.114136 184.0
203.057449 152.0
207.038788 76.0
210.12587 104.0
215.056107 208.0
216.119812 164.0
219.176392 76.0
223.862534 64.0
231.947586 76.0
233.964615 152.0
241.971436 124.0
243.991089 112.0
248.017944 164.0
248.987411 128.0
250.938324 136.0
251.162231 124.0
259.07431 92.0
261.016052 224.0
262.00412 136.0
295.131134 196.0
297.223907 152.0
364.968811 152.0
388.891815 136.0
710.954956 156.0
740.98877 204.0
766.356567 176.0
857.34314 180.0
862.835632 192.0
866.46405 104.0
883.306152 120.0
883.678833 176.0
893.848572 100.0
917.307922 144.0
938.319519 160.0
959.094421 148.0
981.84845 136.0
1002.069946 100.0
1017.126953 72.0
1021.403198 192.0
1027.29541 140.0
1063.730957 152.0
1066.166504 120.0
1077.915771 196.0
1092.990479 156.0
1103.219604 244.0
1107.785645 212.0
1114.027832 152.0
1116.407227 232.0
1126.584839 156.0
1129.425659 164.0
1188.455322 176.0
1220.038696 192.0
1255.961792 180.0
1277.922363 152.0
1280.292603 228.0
1304.979126 104.0
1307.259277 168.0
1308.425293 156.0
1316.327393 140.0
1321.379639 144.0
1322.218994 144.0
1337.547729 216.0
1338.435913 160.0
1338.98938 104.0
1340.176758 160.0
1355.081299 56.0
1357.654175 180.0
1358.380249 76.0
1364.225342 216.0
1401.563599 188.0
1404.015991 80.0
1415.606445 240.0
1422.121216 256.0
1426.575317 224.0
1427.725708 96.0
1440.667114 152.0
1443.17627 128.0
1443.365234 176.0
1448.609985 88.0
1449.640381 88.0
1451.4823 188.0
1455.473511 168.0
1478.440796 156.0
1479.734375 272.0
1490.864014 144.0
1501.603516 196.0
1502.081665 164.0
