>compound Nitazoxanide
>formula C12H9N3O5S 
>ionization [M+H]+
>parentmass 308.034
#inchi InChI=1S/C12H9N3O5S/c1-7(16)20-9-5-3-2-4-8(9)11(17)14-12-13-6-10(21-12)15(18)19/h2-6H,1H3,(H,13,14,17)
#inchikey YQNQNVDNTFHQSW
#Ion_Source LC-ESI
#Instrument qTof
#Compound_Source Isolated
#PI Sirenas
#Data_Collector Ed Esquenazi 
#Scan -1
#Precursor_MZ 308.034
#ExactMass 0.0
#Charge 1
#CAS_Number N/A
#Pubmed_ID N/A
#Smiles N/A
#INCHI_AUX N/A
#Library_Class 3
#SpectrumID CCMSLIB00000006353
#IonMode Positive
#UpdateWorkflowName UPDATE-SINGLE-ANNOTATED-BRONZE
#LibraryQualityString Bronze
#TaskID d19310cd93df49b68e9fcbec27720eb5
##Scan# 1
#SpectrumFile Nitazoxanide.mgf
#LibraryName fda_library.mgf
#MQScore -1
#Organism fda_library
#TIC_Query 0
#RT_Query -1
#MZErrorPPM -1
#SharedPeaks 0
#MassDiff 0
#LibMZ -1
#SpecMZ 308.034
#SpecCharge 0
#internalFilename spec-00000.mgf

>collision 10
120.349167 18.0
120.44841 14.63021
120.673355 12.9225
121.027817 3176.843994
121.085114 32.60738
121.098259 24.51372
121.113335 29.71875
121.128082 13.66667
121.169861 29.505951
121.203262 21.001789
121.224876 46.832069
121.247711 19.23053
121.330902 18.73942
121.349419 19.13636
121.654213 30.01852
122.72406 10.22727
128.999496 56.80489
146.000687 246.878799
163.037918 687.89978
163.304474 37.951111
163.415421 16.82
163.744736 19.507811
188.00737 38.507919
248.008408 45.690128
248.9944 171.185501
264.571136 22.83456
264.773773 16.380951
264.793121 12.19837
265.368469 11.00595
265.987 32.69141
266.02356 2225.543945
266.21228 77.906754
266.412262 10.0
266.435791 56.60936
266.49176 26.538759
266.838318 20.101139
266.898315 15.0744
290.023834 62.087292
308.038055 23.4375
308.088776 34.582241
309.121826 51.65094
