>compound MLS002153892-01!Bicuculline (+)485-49-4
>formula C20H17NO6
>ionization [M+H]+
>parentmass 368.112396
#inchi InChI=1S/C20H17NO6/c1-21-5-4-10-6-14-15(25-8-24-14)7-12(10)17(21)18-11-2-3-13-19(26-9-23-13)16(11)20(22)27-18/h2-3,6-7,17-18H,4-5,8-9H2,1H3/t17-,18+/m0/s1
#inchikey IYGYMKDQCDOMRE
#Ion_Source LC-ESI
#Instrument qTof
#Compound_Source NIH Pharmacologically Active Library
#PI Dorrestein
#Data_Collector VP/LMS
#Scan -1
#Precursor_MZ 368.121
#ExactMass 367.106
#Charge 1
#CAS_Number N/A
#Pubmed_ID N/A
#Smiles CN1CCc2cc3OCOc3cc2[C@H]1[C@@H]4OC(=O)c5c6OCOc6ccc45
#INCHI_AUX N/A
#Library_Class 1
#SpectrumID CCMSLIB00000085538
#IonMode Positive
#UpdateWorkflowName UPDATE-SINGLE-ANNOTATED-GOLD
#LibraryQualityString Gold
#TaskID d252d724072548979f1f6f1ced849daf
##Scan# 1366
#SpectrumFile p4-C04_GC4_01_18352.mzXML
#LibraryName Pharm_Active_Library.mgf
#MQScore -1
#Organism Pharm_Active_Library
#TIC_Query 0
#RT_Query -1
#MZErrorPPM -1
#SharedPeaks 0
#MassDiff 0
#LibMZ -1
#SpecMZ 368.121
#SpecCharge 0
#internalFilename spec-00000.mgf

>collision 10
44.909126 136.0
45.156216 116.0
45.231144 72.0
45.247208 224.0
45.259258 124.0
45.340969 180.0
45.511333 148.0
45.672596 104.0
45.700848 152.0
45.712959 196.0
45.743176 124.0
45.776226 208.0
45.819328 108.0
45.831451 160.0
45.857056 152.0
45.869186 132.0
45.890759 132.0
46.031086 168.0
46.058876 208.0
46.113491 120.0
46.122955 152.0
46.278526 140.0
46.334057 172.0
46.348961 192.0
46.384197 132.0
46.400463 164.0
46.422157 132.0
46.441147 132.0
46.480488 28.0
46.51849 124.0
46.533863 160.0
46.571445 180.0
46.684246 140.0
46.746822 204.0
46.83123 164.0
46.942982 188.0
47.105396 104.0
47.160049 200.0
47.235252 212.0
47.320099 164.0
47.387211 148.0
47.399544 160.0
47.521572 124.0
47.546272 160.0
47.590199 152.0
47.664371 164.0
47.742725 180.0
47.77161 104.0
47.781239 84.0
47.899628 128.0
47.975418 148.0
48.007801 196.0
48.232586 120.0
48.262585 128.0
48.280563 236.0
48.32621 156.0
48.414803 152.0
48.46051 180.0
48.529812 140.0
48.585289 208.0
48.71439 156.0
48.794994 172.0
48.865925 80.0
48.967541 192.0
49.012119 128.0
49.052536 60.0
49.132023 188.0
49.157135 168.0
49.289791 200.0
49.370544 120.0
49.382057 92.0
49.463211 60.0
49.487064 104.0
49.632729 188.0
49.705666 172.0
49.730053 180.0
49.764618 128.0
49.796917 120.0
49.825012 128.0
49.867165 192.0
49.933632 116.0
49.948715 216.0
49.972633 148.0
50.158524 180.0
50.221973 156.0
50.279819 156.0
50.370182 172.0
50.391373 232.0
50.456383 116.0
50.515778 220.0
50.538414 124.0
50.548321 236.0
50.590778 68.0
50.689922 116.0
50.715431 164.0
50.726772 164.0
50.813278 48.0
51.06044 88.0
51.090309 220.0
51.151501 48.0
51.169308 188.0
51.185669 108.0
51.198483 124.0
51.294456 144.0
51.31105 132.0
51.368092 136.0
51.40028 168.0
51.416603 152.0
51.466568 176.0
51.536552 144.0
51.546555 148.0
51.622318 84.0
51.667252 48.0
51.71674 72.0
51.868568 164.0
51.885773 180.0
51.901543 200.0
52.004372 212.0
52.082367 132.0
52.113972 116.0
52.173302 156.0
52.211716 376.0
52.273575 156.0
52.298042 168.0
52.345551 136.0
52.359951 112.0
52.443512 188.0
52.509834 144.0
52.630569 264.0
52.634827 176.0
52.649147 136.0
52.735065 140.0
52.817478 156.0
52.963673 176.0
53.086861 212.0
53.105717 104.0
53.476208 120.0
53.508232 44.0
53.553375 172.0
53.681622 104.0
53.77499 200.0
53.791046 196.0
53.979515 212.0
54.032169 136.0
54.052689 168.0
54.115593 196.0
54.184429 76.0
54.21817 148.0
54.398537 184.0
54.466084 140.0
54.514565 104.0
54.538078 148.0
54.689575 144.0
54.733742 180.0
54.853073 152.0
54.872238 40.0
54.895832 192.0
54.915001 152.0
54.987297 152.0
55.149761 120.0
55.232563 248.0
55.321346 96.0
55.331711 164.0
55.432426 208.0
55.472443 148.0
55.559937 196.0
55.583675 144.0
55.718437 220.0
55.794582 164.0
55.830269 180.0
55.926971 120.0
56.011845 160.0
56.026741 116.0
56.059521 132.0
56.201176 148.0
56.251919 140.0
56.280285 196.0
56.302628 200.0
56.377377 216.0
56.411755 200.0
56.455112 56.0
56.723114 176.0
56.801086 104.0
56.846096 140.0
56.862602 304.0
56.916645 64.0
57.081932 104.0
57.128559 208.0
57.167679 160.0
57.191757 92.0
57.217346 196.0
57.327301 144.0
57.357445 80.0
57.380054 140.0
57.467533 140.0
57.516804 236.0
57.527901 176.0
57.597359 208.0
57.647217 116.0
57.851402 156.0
57.865726 208.0
57.896824 180.0
57.907425 160.0
57.948326 168.0
57.9608 172.0
57.993786 208.0
58.031685 128.0
58.051395 144.0
58.157593 188.0
58.199585 176.0
58.219841 84.0
58.304916 152.0
58.344437 52.0
58.464596 128.0
58.482136 168.0
58.79377 160.0
58.841087 176.0
58.923557 120.0
58.964817 96.0
58.975513 188.0
59.15855 188.0
59.226444 140.0
59.267807 120.0
59.289261 188.0
59.375114 148.0
59.398121 176.0
59.645336 144.0
59.679157 220.0
59.742214 172.0
59.90847 224.0
60.016354 120.0
60.111988 196.0
60.17836 196.0
60.257126 160.0
60.283394 176.0
60.301937 164.0
60.360683 216.0
60.490643 168.0
60.834774 284.0
60.879803 116.0
60.909771 176.0
60.924171 92.0
60.962135 100.0
61.070961 108.0
61.108295 156.0
61.292023 156.0
61.306046 124.0
61.398026 152.0
61.422981 124.0
61.499435 120.0
61.583748 136.0
61.605618 108.0
61.636864 136.0
61.730595 108.0
61.747856 116.0
61.797913 172.0
61.810429 84.0
61.832336 56.0
61.854248 120.0
61.909046 76.0
61.921577 148.0
61.935673 140.0
62.133186 164.0
62.178692 152.0
62.225784 64.0
62.27132 144.0
62.304306 160.0
62.398602 104.0
62.434769 136.0
62.45364 200.0
62.481956 108.0
62.514999 184.0
62.57481 196.0
62.647255 208.0
62.696098 156.0
62.744141 200.0
62.814346 100.0
62.888508 192.0
62.913765 116.0
63.032219 204.0
63.139713 160.0
63.215649 88.0
63.244133 140.0
63.258381 120.0
63.290592 220.0
63.408852 144.0
63.521427 192.0
63.538876 184.0
63.611874 144.0
63.670624 204.0
63.888382 164.0
63.902699 144.0
64.014122 92.0
64.081017 144.0
64.163895 76.0
64.180595 252.0
64.232605 176.0
64.313843 168.0
64.342575 192.0
64.371315 196.0
64.422424 184.0
64.459167 164.0
64.479942 156.0
64.524696 64.0
64.582268 180.0
64.620659 216.0
64.655861 216.0
64.681473 160.0
64.713486 224.0
64.739868 160.0
64.764732 196.0
64.787163 224.0
64.822411 128.0
64.833626 140.0
64.888123 136.0
64.908966 124.0
64.927261 176.0
64.973122 160.0
65.083862 164.0
65.165779 116.0
65.186668 76.0
65.359268 212.0
65.393875 220.0
65.413437 204.0
65.426796 216.0
65.618034 216.0
65.721252 172.0
65.755692 132.0
65.771286 176.0
65.824562 156.0
65.864937 28.0
65.934853 132.0
65.948952 100.0
65.986137 140.0
66.04435 160.0
66.09288 112.0
66.151146 104.0
66.295296 136.0
66.313118 140.0
66.345535 176.0
66.462311 156.0
66.529427 260.0
66.543465 184.0
66.634415 200.0
66.64579 168.0
66.671783 152.0
66.704292 60.0
66.783966 196.0
66.845787 164.0
66.866943 152.0
66.881592 104.0
66.892982 120.0
66.977661 144.0
67.109657 192.0
67.152061 156.0
67.169998 84.0
67.197731 296.0
67.277702 156.0
67.32415 168.0
67.341385 140.0
67.42144 124.0
67.486824 156.0
67.532288 224.0
67.606232 120.0
67.797836 168.0
67.940483 132.0
67.951965 212.0
67.976578 96.0
68.043221 140.0
68.102989 128.0
68.14077 268.0
68.168701 80.0
68.206505 88.0
68.295296 212.0
68.389076 192.0
68.459869 48.0
68.504311 200.0
68.522461 100.0
68.55542 80.0
68.598267 172.0
68.720306 156.0
68.732925 148.0
68.761559 200.0
68.858971 132.0
68.95314 84.0
69.141678 68.0
69.163193 196.0
69.221596 100.0
69.237694 72.0
69.352013 216.0
69.421646 180.0
69.444351 272.0
69.481354 168.0
69.541092 136.0
69.615799 136.0
69.750374 88.0
69.81189 112.0
69.861786 224.0
69.874374 232.0
69.916695 192.0
69.954979 180.0
70.243256 196.0
70.279961 152.0
70.308327 136.0
70.401436 228.0
70.583954 168.0
70.663315 216.0
70.70607 172.0
70.813988 156.0
70.883972 156.0
70.896988 160.0
71.101585 156.0
71.130119 184.0
71.160339 168.0
71.195595 32.0
71.235909 88.0
71.252831 168.0
71.335052 108.0
71.377083 176.0
71.395889 372.0
71.435944 132.0
71.521767 292.0
71.641319 172.0
71.705353 144.0
71.722206 160.0
71.793015 136.0
71.811081 140.0
71.855423 60.0
71.96006 180.0
72.003967 116.0
72.066467 132.0
72.108711 48.0
72.161118 216.0
72.203392 168.0
72.240601 188.0
72.341995 196.0
72.370911 68.0
72.41494 252.0
72.440346 92.0
72.519989 172.0
72.557526 140.0
72.613235 124.0
72.670914 196.0
72.712532 124.0
72.738792 140.0
72.786331 208.0
72.816895 44.0
72.881447 164.0
72.988533 248.0
73.005539 176.0
73.042953 64.0
73.066772 208.0
73.21656 128.0
73.243813 256.0
73.306847 28.0
73.351158 96.0
73.369835 216.0
73.417648 168.0
73.444939 156.0
73.695885 144.0
73.752281 196.0
74.108231 92.0
74.12365 52.0
74.171638 192.0
74.22821 184.0
74.245361 40.0
74.277946 200.0
74.312256 208.0
74.671272 148.0
74.71772 168.0
74.745247 72.0
74.841637 92.0
74.853691 132.0
75.029945 200.0
75.074265 132.0
75.09668 160.0
75.155334 132.0
75.248535 112.0
75.272705 120.0
75.293434 156.0
75.348709 144.0
75.374619 268.0
75.42128 176.0
75.492165 124.0
75.518112 136.0
75.605476 184.0
75.643425 216.0
75.665192 76.0
75.708481 84.0
75.826286 184.0
75.902885 128.0
75.966736 120.0
75.989288 140.0
76.021454 200.0
76.056129 324.0
76.109047 128.0
76.131615 240.0
76.167587 208.0
76.204575 164.0
76.232376 160.0
76.281036 144.0
76.371452 176.0
76.496735 212.0
76.564415 216.0
76.622124 188.0
76.655228 116.0
76.6744 196.0
76.697052 136.0
76.770279 272.0
76.805161 152.0
76.937782 164.0
76.974442 180.0
77.000465 180.0
77.05204 188.0
77.142166 340.0
77.189377 148.0
77.21386 200.0
77.262833 228.0
77.296074 156.0
77.318825 196.0
77.514961 184.0
77.541245 176.0
77.565781 144.0
77.632408 136.0
77.662216 180.0
77.699867 216.0
77.790314 80.0
77.883377 140.0
77.895668 144.0
78.001099 64.0
78.053841 132.0
78.097809 188.0
78.122559 112.0
78.185776 84.0
78.210419 148.0
78.22802 132.0
78.256187 152.0
78.273796 160.0
78.381241 176.0
78.485916 220.0
78.529327 124.0
78.543037 176.0
78.620224 244.0
78.702263 108.0
78.779976 156.0
78.82238 168.0
78.852417 156.0
78.870094 80.0
78.886002 56.0
79.084114 128.0
79.096504 156.0
79.340958 168.0
79.358688 176.0
79.417206 188.0
79.436722 164.0
79.452682 56.0
79.481071 160.0
79.494217 148.0
79.557388 148.0
79.591125 164.0
79.65052 180.0
79.665718 140.0
79.772339 132.0
79.879028 136.0
79.900375 132.0
79.912834 116.0
79.975113 176.0
80.026741 156.0
80.065918 184.0
80.117569 184.0
80.215576 128.0
80.37252 128.0
80.424271 44.0
80.450127 240.0
80.509972 32.0
80.551048 156.0
80.713684 132.0
80.779854 108.0
80.813416 132.0
80.861511 276.0
80.931976 200.0
80.957047 288.0
80.97316 116.0
80.992867 140.0
81.011986 160.0
81.043022 180.0
81.060944 180.0
81.171951 192.0
81.227676 180.0
81.297646 240.0
81.333542 60.0
81.352928 176.0
81.419724 152.0
81.48259 176.0
81.534698 156.0
81.662346 256.0
81.730705 132.0
81.831497 148.0
81.910545 152.0
81.93055 156.0
81.995422 232.0
82.011642 172.0
82.107193 212.0
82.193787 160.0
82.229874 160.0
82.327362 184.0
82.36351 144.0
82.540596 164.0
82.55687 184.0
82.577057 172.0
82.640373 144.0
82.688934 112.0
82.739616 136.0
82.763153 200.0
82.783073 180.0
82.81205 152.0
82.897194 104.0
83.138382 172.0
83.175552 220.0
83.389 152.0
83.418083 128.0
83.559929 152.0
83.669128 152.0
83.756538 144.0
83.800255 124.0
83.816658 56.0
83.91143 256.0
84.002617 156.0
84.017204 160.0
84.049644 208.0
84.155914 168.0
84.20887 172.0
84.221657 124.0
84.280533 192.0
84.395264 168.0
84.417206 168.0
84.610016 212.0
84.625397 208.0
84.64045 156.0
84.700882 208.0
84.724693 144.0
84.80899 208.0
84.909828 124.0
84.976433 168.0
84.982635 52.0
84.990074 204.0
85.076797 244.0
85.092087 172.0
85.231071 148.0
85.262314 244.0
85.321136 208.0
85.475632 112.0
85.521637 48.0
85.584984 156.0
85.633949 152.0
85.663422 200.0
85.718689 72.0
85.8256 172.0
86.048851 76.0
86.128258 144.0
86.165199 180.0
86.242302 160.0
86.365234 152.0
86.446243 144.0
86.478081 180.0
86.518433 48.0
86.609169 176.0
86.718483 104.0
86.735161 192.0
86.787071 172.0
86.853836 64.0
86.885368 188.0
86.902061 188.0
86.916908 140.0
86.95031 196.0
87.095131 156.0
87.172905 116.0
87.295845 156.0
87.406662 172.0
87.440956 100.0
87.522858 140.0
87.575005 76.0
87.748306 104.0
87.802376 180.0
87.893784 180.0
87.944176 200.0
88.134651 124.0
88.187881 132.0
88.220627 100.0
88.36837 176.0
88.426376 168.0
88.600517 148.0
88.621124 216.0
88.741081 204.0
88.77858 112.0
88.82547 164.0
88.891495 144.0
88.94368 116.0
89.018776 148.0
89.103302 112.0
89.118332 104.0
89.139755 248.0
89.224457 164.0
89.323242 128.0
89.406029 276.0
89.534042 108.0
89.681 184.0
89.696075 208.0
89.765831 172.0
89.848824 72.0
89.89048 220.0
90.007248 132.0
90.064018 156.0
90.09613 76.0
90.132774 252.0
90.184944 180.0
90.211403 268.0
90.341888 204.0
90.381615 184.0
90.462997 184.0
90.552887 164.0
90.631554 184.0
90.648605 184.0
90.707359 196.0
90.756111 164.0
90.796471 116.0
90.830612 164.0
90.843887 96.0
90.955849 112.0
90.975777 112.0
91.05349 252.0
91.202049 148.0
91.252197 132.0
91.448128 128.0
91.467163 152.0
91.509041 184.0
91.562363 160.0
91.747185 152.0
91.890221 188.0
91.945557 124.0
91.96846 144.0
92.056282 208.0
92.12886 168.0
92.293221 188.0
92.327644 140.0
92.385025 128.0
92.45401 212.0
92.49601 144.0
92.518982 180.0
92.597488 124.0
92.624298 176.0
92.829369 180.0
92.856216 220.0
92.905174 252.0
92.979004 52.0
93.055786 192.0
93.138359 140.0
93.171013 48.0
93.232498 28.0
93.263252 264.0
93.345917 132.0
93.392075 168.0
93.50174 92.0
93.546005 136.0
93.60569 52.0
93.642281 172.0
93.698143 148.0
93.732399 128.0
93.784859 116.0
93.850403 100.0
94.095428 184.0
94.199715 80.0
94.267334 148.0
94.286659 156.0
94.340782 88.0
94.404587 144.0
94.435524 192.0
94.516777 212.0
94.536125 52.0
94.555481 160.0
94.578705 164.0
94.619751 256.0
94.671638 48.0
94.875076 124.0
94.921616 152.0
94.99337 156.0
95.024414 140.0
95.059334 208.0
95.2127 228.0
95.280678 180.0
95.350632 56.0
95.408943 192.0
95.484474 128.0
95.51123 220.0
95.533401 176.0
95.554802 44.0
95.592323 156.0
95.640427 200.0
95.720245 144.0
95.743614 120.0
95.971603 108.0
96.037903 196.0
96.066093 176.0
96.097298 144.0
96.113991 140.0
96.393219 196.0
96.473351 168.0
96.543739 224.0
96.648697 140.0
96.727646 376.0
96.757011 192.0
96.868637 148.0
96.888573 204.0
96.902901 204.0
96.939171 136.0
97.011719 304.0
97.050156 308.0
97.074425 212.0
97.174461 212.0
97.188194 196.0
97.258842 160.0
97.404144 208.0
97.457184 156.0
97.490593 88.0
97.543655 128.0
97.557419 136.0
97.608536 172.0
97.638672 184.0
97.716713 144.0
97.822983 64.0
97.867065 164.0
97.911583 284.0
97.974617 144.0
98.012047 180.0
98.050079 216.0
98.207077 168.0
98.284149 184.0
98.489464 212.0
98.586273 72.0
98.600105 192.0
98.621849 212.0
98.64373 172.0
98.714767 128.0
98.736519 196.0
98.859169 136.0
98.880936 148.0
98.920525 152.0
98.970016 172.0
99.071022 212.0
99.166077 176.0
99.237495 180.0
99.269226 120.0
99.283104 144.0
99.408081 172.0
99.471596 260.0
99.558952 124.0
99.610588 56.0
99.747704 120.0
99.764488 168.0
99.859047 136.0
99.93158 176.0
99.983505 172.0
100.002296 136.0
100.06002 156.0
100.153618 164.0
100.223343 184.0
100.255226 156.0
100.310448 248.0
100.374779 180.0
100.440643 128.0
100.560394 236.0
100.638206 156.0
100.724083 164.0
100.758041 184.0
100.780014 196.0
100.818954 156.0
100.861954 168.0
100.875946 172.0
100.909378 136.0
101.170006 132.0
101.226067 104.0
101.260117 152.0
101.436432 212.0
101.699196 164.0
101.727295 96.0
101.751389 144.0
101.778801 188.0
101.847778 144.0
101.881927 148.0
102.147278 184.0
102.213669 124.0
102.320335 72.0
102.360611 112.0
102.388802 124.0
102.467354 120.0
102.517731 88.0
102.632629 112.0
102.785927 128.0
102.844452 236.0
102.880783 180.0
102.907028 120.0
102.925201 92.0
103.005981 156.0
103.053879 632.0
103.135704 160.0
103.157539 136.0
103.199989 160.0
103.236389 164.0
103.377991 104.0
103.487297 136.0
103.562225 156.0
103.655411 92.0
103.693916 164.0
103.710129 196.0
103.770943 156.0
103.817581 144.0
103.890602 104.0
103.945129 132.0
103.979874 144.0
104.022499 144.0
104.160583 248.0
104.237785 160.0
104.310951 160.0
104.386169 184.0
104.432945 108.0
104.49601 128.0
104.520424 192.0
104.534668 124.0
104.628296 136.0
104.670441 240.0
104.726036 96.0
104.803444 120.0
104.862541 140.0
105.013763 164.0
105.03315 136.0
105.119499 136.0
105.150108 196.0
105.258301 64.0
105.478951 132.0
105.511658 184.0
105.603676 176.0
105.650719 112.0
105.72847 80.0
105.780716 176.0
105.884064 228.0
105.922981 176.0
105.972145 148.0
106.013123 140.0
106.033615 144.0
106.06498 172.0
106.115608 96.0
106.154572 144.0
106.211998 108.0
106.248917 144.0
106.287903 140.0
106.339203 76.0
106.365891 184.0
106.452118 52.0
106.496857 132.0
106.58358 96.0
106.700729 172.0
106.770645 208.0
106.793266 112.0
106.929054 184.0
107.003159 136.0
107.01963 164.0
107.078522 132.0
107.138458 212.0
107.17823 176.0
107.316322 112.0
107.417374 132.0
107.534981 152.0
107.74147 184.0
107.809654 168.0
107.84066 116.0
107.858673 196.0
107.877861 36.0
107.969147 188.0
108.063728 160.0
108.085144 160.0
108.167465 212.0
108.233711 124.0
108.305717 192.0
108.436722 212.0
108.569405 216.0
108.702171 76.0
108.733299 136.0
108.785187 120.0
108.841248 152.0
108.884857 136.0
109.021965 160.0
109.045753 180.0
109.115501 136.0
109.150848 132.0
109.231956 172.0
109.306854 144.0
109.583778 144.0
109.62323 180.0
109.73336 208.0
109.792229 144.0
109.822418 276.0
109.898659 168.0
109.965385 204.0
109.988342 152.0
110.007133 132.0
110.04586 196.0
110.109444 112.0
110.136726 128.0
110.253593 200.0
110.383202 116.0
110.431297 124.0
110.464767 156.0
110.565193 228.0
110.598679 64.0
110.615425 164.0
110.653107 136.0
110.67614 216.0
110.789238 68.0
110.896645 232.0
110.920578 348.0
110.958984 52.0
110.986244 144.0
111.122574 212.0
111.139359 132.0
111.177132 156.0
111.214905 112.0
111.246391 224.0
111.384979 200.0
111.441704 176.0
111.504745 148.0
111.538376 124.0
111.616158 52.0
111.645599 228.0
111.830734 112.0
111.891785 144.0
111.91861 124.0
111.940208 168.0
111.97258 172.0
111.987511 212.0
112.029945 260.0
112.045525 120.0
112.129807 204.0
112.207802 180.0
112.243645 124.0
112.311127 128.0
112.509483 168.0
112.617966 128.0
112.625854 148.0
112.648857 128.0
112.663963 316.0
112.733368 140.0
112.849625 156.0
112.875 88.0
112.900375 144.0
112.96122 180.0
113.012482 124.0
113.033646 288.0
113.063271 64.0
113.114891 236.0
113.169106 136.0
113.23687 136.0
113.26017 56.0
113.336433 92.0
113.379395 132.0
113.410606 172.0
113.457237 160.0
113.550537 164.0
113.597198 136.0
113.662971 172.0
113.696922 36.0
113.726631 52.0
113.741493 160.0
113.87101 176.0
113.90712 96.0
114.034599 212.0
114.094124 88.0
114.130264 172.0
114.183426 136.0
114.251495 136.0
114.291916 108.0
114.35363 132.0
114.400146 136.0
114.450554 188.0
114.615562 176.0
114.630478 152.0
114.744171 188.0
114.790352 236.0
114.899132 108.0
115.055534 372.0
115.080536 188.0
115.116837 140.0
115.159058 192.0
115.244995 156.0
115.277046 152.0
115.319794 136.0
115.448067 132.0
115.572128 184.0
115.594841 196.0
115.612785 168.0
115.674858 132.0
115.805466 156.0
115.824745 128.0
115.914726 164.0
115.930145 164.0
115.966156 128.0
116.096931 132.0
116.150551 152.0
116.221352 172.0
116.251389 192.0
116.290192 148.0
116.350121 232.0
116.369446 212.0
116.439423 204.0
116.676666 148.0
116.745476 140.0
116.779884 132.0
116.809998 96.0
116.873634 160.0
116.981529 168.0
117.03418 156.0
117.057495 244.0
117.12426 172.0
117.163033 140.0
117.551132 36.0
117.605087 200.0
117.648254 132.0
117.706253 176.0
117.818863 112.0
117.836952 168.0
117.933388 64.0
118.020157 144.0
118.041481 96.0
118.07106 124.0
118.095543 124.0
118.132545 192.0
118.17775 96.0
118.305946 220.0
118.470016 216.0
118.550186 96.0
118.638329 144.0
118.644661 176.0
118.688911 176.0
118.879723 232.0
118.944908 148.0
118.988327 120.0
119.007866 124.0
119.050537 1208.0
119.07518 144.0
119.194664 100.0
119.229431 148.0
119.262032 156.0
119.314201 60.0
119.33812 200.0
119.409874 124.0
119.482063 152.0
119.570869 116.0
119.840889 188.0
119.899727 120.0
119.923698 168.0
119.97007 132.0
120.054504 156.0
120.211571 112.0
120.266129 92.0
120.346901 180.0
120.501968 72.0
120.582825 108.0
120.609047 204.0
120.703056 124.0
120.727112 124.0
120.84523 144.0
120.916687 176.0
120.983109 80.0
121.031898 584.0
121.053169 148.0
121.22184 80.0
121.237183 160.0
121.285393 148.0
121.366508 116.0
121.436684 152.0
121.603424 196.0
121.631958 212.0
121.730759 120.0
121.768089 144.0
121.809822 292.0
121.831383 152.0
121.880119 140.0
122.039474 176.0
122.043907 232.0
122.141739 136.0
122.179131 188.0
122.286949 156.0
122.34198 168.0
122.377205 60.0
122.509346 52.0
122.533577 164.0
122.571037 152.0
122.628334 176.0
122.668007 156.0
122.954735 188.0
123.018745 76.0
123.053627 120.0
123.061615 96.0
123.068199 160.0
123.084106 128.0
123.142395 168.0
123.193199 204.0
123.251823 172.0
123.414253 188.0
123.595573 128.0
123.657539 40.0
123.750511 108.0
123.819153 60.0
123.87674 156.0
123.926773 252.0
124.005257 104.0
124.14743 152.0
124.231422 224.0
124.420052 104.0
124.513313 128.0
124.528862 172.0
124.57106 216.0
124.588837 132.0
124.648819 136.0
124.679932 52.0
124.715492 332.0
124.824425 152.0
124.879158 164.0
125.002525 124.0
125.040398 144.0
125.071373 176.0
125.244759 92.0
125.274002 112.0
125.345299 136.0
125.41584 220.0
125.704308 176.0
125.742241 128.0
125.78688 196.0
125.842697 176.0
125.916382 148.0
125.958817 116.0
126.036491 240.0
126.177818 120.0
126.311996 132.0
126.36792 152.0
126.466385 96.0
126.526817 120.0
126.60527 196.0
126.632065 136.0
126.652092 136.0
126.811302 168.0
126.896484 160.0
126.943573 176.0
127.001877 88.0
127.028793 176.0
127.052811 244.0
127.129761 176.0
127.331802 128.0
127.35202 152.0
127.376724 296.0
127.444122 64.0
127.459854 148.0
127.695892 188.0
127.754372 192.0
127.770126 160.0
127.792618 116.0
127.89164 184.0
128.121765 100.0
128.229477 184.0
128.414352 196.0
128.439163 112.0
128.46051 156.0
128.482025 124.0
128.556747 232.0
128.658051 108.0
128.755142 140.0
128.789017 136.0
128.816116 204.0
128.911011 184.0
128.958466 140.0
129.064728 152.0
129.107681 176.0
129.220779 80.0
129.311295 124.0
129.399582 152.0
129.444855 164.0
129.528656 128.0
129.580765 160.0
129.635147 164.0
129.818756 220.0
129.87999 136.0
129.991165 164.0
130.039429 180.0
130.065186 260.0
130.138702 92.0
130.18866 92.0
130.213638 56.0
130.288589 96.0
130.424942 124.0
130.443115 152.0
130.522186 164.0
130.639191 148.0
130.752441 60.0
130.775208 176.0
130.813904 180.0
130.968735 136.0
131.049683 616.0
131.0728 412.0
131.116837 148.0
131.132782 120.0
131.157852 200.0
131.315186 224.0
131.337982 48.0
131.502258 60.0
131.705475 160.0
131.730255 212.0
131.783142 240.0
131.986557 140.0
132.016296 152.0
132.032303 168.0
132.050598 140.0
132.079681 324.0
132.085999 268.0
132.183273 80.0
132.219894 156.0
132.254227 136.0
132.351517 256.0
132.403046 176.0
132.419067 176.0
132.531326 56.0
132.55423 156.0
132.678604 196.0
132.755951 208.0
132.797241 36.0
132.822464 140.0
132.859177 172.0
133.072601 208.0
133.203506 116.0
133.242554 100.0
133.325272 236.0
133.377289 152.0
133.41951 136.0
133.451706 144.0
133.534485 132.0
133.565948 176.0
133.661011 224.0
133.796799 164.0
133.825699 224.0
133.854355 128.0
134.00177 148.0
134.031723 176.0
134.06398 156.0
134.098557 132.0
134.118042 192.0
134.181534 76.0
134.232269 184.0
134.317596 192.0
134.349884 108.0
134.566833 92.0
134.596848 112.0
134.647644 148.0
134.81398 164.0
134.837097 144.0
134.975784 188.0
134.998383 140.0
135.04541 1000.0
135.10762 208.0
135.16217 136.0
135.186295 212.0
135.22702 380.0
135.255722 84.0
135.276962 208.0
135.352951 296.0
135.454865 140.0
135.47937 184.0
135.53363 228.0
135.582291 180.0
135.624008 140.0
135.670364 132.0
135.693542 180.0
135.744553 180.0
135.800217 256.0
135.846603 132.0
135.951019 192.0
136.006714 152.0
136.050812 572.0
136.078674 152.0
136.108871 156.0
136.129761 180.0
136.173889 404.0
136.208725 240.0
136.22963 224.0
136.245895 164.0
136.276093 172.0
136.341156 216.0
136.473663 200.0
136.499237 216.0
136.566681 32.0
136.641113 164.0
136.664383 104.0
136.729538 124.0
136.771423 112.0
136.794708 188.0
136.831955 36.0
136.932083 136.0
137.008545 212.0
137.092834 208.0
137.141769 168.0
137.172073 132.0
137.242004 160.0
137.260666 156.0
137.447266 120.0
137.538284 48.0
137.566299 100.0
137.601318 260.0
137.797729 196.0
137.894348 132.0
137.982132 76.0
138.066299 252.0
138.085007 128.0
138.124771 56.0
138.155182 136.0
138.386871 120.0
138.426682 124.0
138.492249 96.0
138.534424 136.0
138.562531 204.0
138.618759 132.0
138.836777 152.0
138.860153 140.0
138.902451 124.0
139.029144 196.0
139.053696 684.0
139.23642 164.0
139.27565 200.0
139.364929 108.0
139.387756 156.0
139.510635 180.0
139.543549 140.0
139.567062 128.0
139.585876 64.0
139.621155 264.0
139.71524 148.0
139.778763 132.0
139.806778 168.0
139.820908 184.0
139.964706 168.0
140.030655 64.0
140.057373 344.0
140.091888 40.0
140.175858 132.0
140.195557 148.0
140.334625 140.0
140.403015 144.0
140.438385 44.0
140.556351 132.0
140.591919 160.0
140.615341 196.0
140.665939 164.0
140.709763 60.0
140.735733 52.0
140.782959 132.0
140.80658 120.0
140.867981 76.0
140.912872 40.0
140.929413 204.0
140.948318 140.0
141.007385 180.0
141.065048 152.0
141.144501 108.0
141.319534 128.0
141.347931 164.0
141.518082 200.0
141.733887 32.0
141.755203 140.0
141.788391 148.0
141.804977 180.0
141.848862 148.0
141.912048 144.0
141.982788 152.0
142.030212 168.0
142.06691 172.0
142.312622 228.0
142.357742 200.0
142.395737 76.0
142.465439 220.0
142.539185 144.0
142.626205 188.0
142.733185 108.0
142.883026 156.0
143.045532 188.0
143.066269 80.0
143.16626 124.0
143.201202 60.0
143.306808 136.0
143.339264 200.0
143.385437 108.0
143.523697 172.0
143.67157 64.0
143.77655 128.0
143.905457 236.0
143.996201 164.0
144.072113 152.0
144.103683 336.0
144.141922 184.0
144.210724 248.0
144.371399 144.0
144.471863 180.0
144.534164 176.0
144.601074 124.0
144.668091 168.0
144.763855 108.0
144.78302 100.0
144.887634 188.0
144.99144 256.0
145.031921 180.0
145.063339 96.0
145.084915 132.0
145.150192 228.0
145.171234 104.0
145.255173 208.0
145.286362 104.0
145.363922 160.0
145.412048 204.0
145.579178 128.0
145.656555 132.0
145.721924 128.0
145.869385 148.0
145.885513 172.0
145.903549 132.0
145.961258 44.0
146.035797 140.0
146.054962 120.0
146.228287 144.0
146.307709 184.0
146.396805 104.0
146.428101 160.0
146.681091 64.0
146.755829 252.0
146.779938 72.0
146.815353 184.0
146.876404 220.0
146.915009 144.0
146.953598 92.0
146.987381 144.0
147.044022 484.0
147.083923 276.0
147.151505 156.0
147.168411 160.0
147.204636 152.0
147.228775 116.0
147.37854 112.0
147.40271 128.0
147.431702 172.0
147.451035 208.0
147.498306 144.0
147.603333 224.0
147.64505 160.0
147.73877 172.0
147.75618 188.0
147.77507 168.0
147.801682 228.0
148.0354 144.0
148.072693 180.0
148.225418 144.0
148.249649 112.0
148.285202 180.0
148.373276 172.0
148.402847 140.0
148.501785 140.0
148.637634 120.0
148.695877 168.0
148.739563 136.0
148.996979 176.0
149.025162 1768.0
149.059906 2148.0
149.083633 96.0
149.087921 168.0
149.222992 128.0
149.254608 140.0
149.317825 224.0
149.434586 140.0
149.451614 140.0
149.495422 28.0
149.534363 196.0
149.62442 52.0
149.682861 96.0
149.86554 156.0
149.906952 156.0
149.93573 144.0
149.950165 224.0
150.006882 172.0
150.062088 544.0
150.14801 132.0
150.341019 124.0
150.431335 104.0
150.507019 44.0
150.624466 176.0
150.703125 164.0
150.72084 104.0
150.802612 128.0
150.897934 192.0
150.919937 184.0
151.052231 424.0
151.078918 72.0
151.118759 180.0
151.207443 76.0
151.233078 196.0
151.357925 168.0
151.644547 188.0
151.734268 172.0
151.752396 124.0
151.845581 176.0
151.871872 368.0
151.933044 200.0
151.942749 144.0
151.992767 156.0
152.029572 140.0
152.063049 800.0
152.083572 176.0
152.159668 120.0
152.223511 148.0
152.361053 176.0
152.38562 152.0
152.412643 128.0
152.42984 132.0
152.508484 236.0
152.573944 136.0
152.65007 108.0
152.685928 140.0
152.845398 204.0
152.871246 136.0
152.906448 168.0
152.990616 172.0
153.032471 112.0
153.070084 780.0
153.111267 72.0
153.180222 192.0
153.391525 176.0
153.483353 152.0
153.500626 180.0
153.5672 200.0
153.623596 148.0
153.769516 32.0
153.926254 188.0
154.017761 148.0
154.035782 204.0
154.05394 212.0
154.078171 144.0
154.149826 156.0
154.214081 212.0
154.248688 176.0
154.289001 192.0
154.374771 80.0
154.414337 48.0
154.461334 240.0
154.547928 148.0
154.673965 240.0
154.704224 108.0
154.730255 232.0
154.807831 180.0
154.859833 236.0
154.879654 192.0
154.944061 152.0
154.967926 120.0
155.027985 224.0
155.045837 104.0
155.072906 164.0
155.097687 96.0
155.115051 176.0
155.142319 152.0
155.206772 192.0
155.25885 152.0
155.313416 148.0
155.49205 236.0
155.531754 152.0
155.549133 220.0
155.596298 136.0
155.713013 140.0
155.817154 216.0
155.914246 184.0
155.958969 64.0
156.033554 164.0
156.055923 128.0
156.093216 200.0
156.138855 228.0
156.170319 160.0
156.202652 160.0
156.59671 204.0
156.776642 104.0
156.899918 40.0
156.992172 112.0
157.027573 252.0
157.064499 164.0
157.086945 140.0
157.264114 108.0
157.309036 216.0
157.458847 44.0
157.494904 248.0
157.568756 172.0
157.670593 132.0
157.743683 212.0
157.761185 56.0
157.808685 136.0
157.856186 160.0
157.943619 160.0
158.018768 160.0
158.038788 92.0
158.092621 196.0
158.166412 112.0
158.198959 272.0
158.32666 176.0
158.374237 144.0
158.456909 92.0
158.642349 136.0
158.735123 96.0
158.86554 136.0
158.958374 64.0
158.98848 56.0
159.01358 40.0
159.044479 1748.0
159.067047 864.0
159.186798 52.0
159.242706 188.0
159.260788 192.0
159.392776 184.0
159.432983 180.0
159.608948 132.0
159.679352 188.0
159.737213 96.0
159.918365 116.0
159.938507 208.0
159.956131 232.0
160.051712 756.0
160.061737 300.0
160.075516 1264.0
160.288574 180.0
160.416992 192.0
160.432709 228.0
160.457443 184.0
160.522995 112.0
160.570358 164.0
160.59613 240.0
160.772736 92.0
160.883133 168.0
160.959534 164.0
161.017609 144.0
161.059265 660.0
161.260147 180.0
161.295532 124.0
161.441681 248.0
161.495285 52.0
161.609131 196.0
161.674911 128.0
161.73819 152.0
161.777649 204.0
161.840912 148.0
161.873383 228.0
162.04068 224.0
162.071335 392.0
162.138351 88.0
162.275238 112.0
162.34877 264.0
162.391891 184.0
162.592361 204.0
162.683685 236.0
162.775085 60.0
162.828415 92.0
162.871597 100.0
162.940186 164.0
162.978912 384.0
163.00116 104.0
163.053726 4620.0
163.095184 164.0
163.172409 232.0
163.229935 104.0
163.318939 144.0
163.349457 216.0
163.37236 72.0
163.408386 148.0
163.456314 76.0
163.522476 48.0
163.629395 112.0
163.715973 148.0
163.743973 104.0
163.820389 88.0
163.86116 112.0
163.927399 148.0
163.963074 120.0
164.027817 160.0
164.056686 712.0
164.093826 176.0
164.161926 68.0
164.232834 184.0
164.275543 160.0
164.312408 132.0
164.343018 164.0
164.365982 156.0
164.38385 148.0
164.483383 168.0
164.595718 192.0
164.728516 160.0
164.766968 160.0
164.866486 68.0
164.894608 116.0
164.950836 120.0
165.007065 152.0
165.070297 7708.0
165.122314 236.0
165.17894 200.0
165.225998 256.0
165.283295 156.0
165.303772 160.0
165.352402 68.0
165.447098 76.0
165.554642 144.0
165.603302 60.0
165.723694 152.0
165.810822 112.0
165.831329 96.0
165.928726 144.0
165.962067 164.0
166.073303 972.0
166.123642 172.0
166.305817 192.0
166.396103 116.0
166.452148 192.0
166.565155 176.0
166.603683 200.0
166.642212 144.0
166.701309 60.0
166.803711 176.0
166.83754 76.0
166.991821 224.0
167.04985 308.0
167.084152 600.0
167.128159 52.0
167.150772 192.0
167.274857 116.0
167.32634 104.0
167.347931 216.0
167.426758 180.0
167.449936 144.0
167.540085 36.0
167.560699 144.0
167.650879 172.0
167.774597 44.0
167.828735 72.0
167.893204 132.0
168.001541 240.0
168.057755 132.0
168.083817 184.0
168.117645 72.0
168.347397 132.0
168.367081 116.0
168.450394 164.0
168.484283 172.0
168.518997 204.0
168.592804 176.0
168.649658 84.0
168.670349 148.0
168.705109 80.0
168.884949 168.0
168.903061 92.0
168.947037 120.0
169.053055 176.0
169.06221 124.0
169.097107 164.0
169.141113 32.0
169.198059 36.0
169.330856 156.0
169.428543 112.0
169.511459 224.0
169.700668 100.0
169.718826 136.0
169.753998 148.0
169.78624 148.0
169.851089 36.0
169.882217 180.0
169.940918 228.0
169.975616 340.0
170.043091 176.0
170.066925 212.0
170.149506 80.0
170.180664 160.0
170.217529 184.0
170.339081 132.0
170.370255 132.0
170.409225 152.0
170.572937 116.0
170.63533 292.0
170.726334 84.0
170.796555 148.0
170.98909 136.0
171.061966 132.0
171.106232 148.0
171.278091 188.0
171.374481 160.0
171.422821 248.0
171.438049 224.0
171.655991 152.0
171.679459 140.0
171.89859 128.0
171.989929 104.0
172.008194 84.0
172.033722 144.0
172.048233 168.0
172.095581 152.0
172.115234 136.0
172.209244 244.0
172.27356 244.0
172.52803 184.0
172.567245 212.0
172.755554 244.0
172.807877 88.0
172.839401 164.0
172.896835 172.0
172.982361 172.0
173.023224 196.0
173.061752 200.0
173.087936 104.0
173.336777 140.0
173.397049 132.0
173.446854 192.0
173.514999 112.0
173.589951 192.0
173.782516 80.0
173.829758 192.0
173.857773 188.0
173.95311 72.0
174.025375 144.0
174.053162 384.0
174.084381 124.0
174.170532 184.0
174.196533 204.0
174.228836 80.0
174.260361 160.0
174.310287 68.0
174.428558 160.0
174.481125 116.0
174.523193 228.0
174.562637 228.0
174.597961 200.0
174.636276 156.0
174.736237 68.0
174.78096 164.0
174.841476 100.0
174.862534 172.0
174.924576 160.0
175.048874 484.0
175.056229 504.0
175.144257 100.0
175.257538 164.0
175.312866 124.0
175.435501 144.0
175.481567 64.0
175.523758 116.0
175.57869 236.0
175.616058 132.0
175.720184 144.0
175.800735 132.0
175.827118 224.0
175.906296 148.0
175.943253 104.0
175.993423 164.0
176.014542 232.0
176.070023 9060.0
176.133392 156.0
176.163498 140.0
176.212418 48.0
176.350739 76.0
176.397629 140.0
176.532471 72.0
176.55098 88.0
176.582718 220.0
176.648651 224.0
176.699097 140.0
176.73085 108.0
176.754669 84.0
176.804947 216.0
176.918762 160.0
176.945236 52.0
176.980637 140.0
177.01799 4132.0
177.07251 2600.0
177.134171 172.0
177.191528 48.0
177.24585 72.0
177.277069 256.0
177.324524 64.0
177.36853 176.0
177.417419 100.0
177.468857 188.0
177.541718 136.0
177.565277 52.0
177.591797 56.0
177.735535 180.0
177.782822 60.0
177.894989 152.0
177.981903 216.0
178.018021 320.0
178.077454 592.0
178.156631 160.0
178.246674 264.0
178.319275 160.0
178.492065 160.0
178.545258 40.0
178.582489 64.0
178.633026 68.0
178.680908 80.0
178.731461 88.0
178.760727 128.0
178.832596 216.0
178.888489 156.0
178.933746 160.0
178.963028 92.0
179.03479 540.0
179.086823 328.0
179.122818 80.0
179.161758 304.0
179.282669 132.0
179.313461 152.0
179.406265 116.0
179.5466 232.0
179.626617 128.0
179.754669 220.0
179.832062 180.0
179.976227 84.0
180.037979 208.0
180.092514 188.0
180.216599 88.0
180.288757 188.0
180.374283 184.0
180.411697 164.0
180.457153 112.0
180.50528 152.0
180.534698 148.0
180.58873 196.0
180.692505 156.0
180.818268 132.0
180.850388 224.0
180.946747 188.0
180.997955 164.0
181.032364 164.0
181.065369 1452.0
181.110107 44.0
181.179749 168.0
181.466507 192.0
181.557587 108.0
181.603271 120.0
181.824921 136.0
181.845322 240.0
182.005814 140.0
182.064926 484.0
182.363098 204.0
182.580872 108.0
182.648102 184.0
182.666931 172.0
182.68576 188.0
182.744949 152.0
182.787994 180.0
182.820297 172.0
182.851852 216.0
182.905716 184.0
182.933334 160.0
182.957565 108.0
183.039749 120.0
183.087296 152.0
183.167603 172.0
183.224182 144.0
183.294235 112.0
183.356201 128.0
183.396866 228.0
183.44516 164.0
183.604233 44.0
183.623108 196.0
183.655472 204.0
183.702011 176.0
183.8181 228.0
183.837387 156.0
183.946884 228.0
184.008972 164.0
184.033279 140.0
184.060272 72.0
184.1521 104.0
184.322296 132.0
184.360123 148.0
184.383377 172.0
184.450928 188.0
184.520584 120.0
184.765701 88.0
184.865814 76.0
184.949707 160.0
184.984894 188.0
185.025497 28.0
185.059036 264.0
185.131104 148.0
185.158188 124.0
185.293625 176.0
185.328842 160.0
185.439941 196.0
185.469757 164.0
185.624283 228.0
185.678528 124.0
185.719208 108.0
185.838577 132.0
186.025833 104.0
186.052872 500.0
186.142578 140.0
186.27565 76.0
186.302811 40.0
186.381607 64.0
186.493027 40.0
186.55011 192.0
186.626236 120.0
186.68605 76.0
186.710526 64.0
186.781235 108.0
186.849243 164.0
186.958084 184.0
187.034256 228.0
187.057175 268.0
187.200363 120.0
187.233047 44.0
187.423721 140.0
187.592468 140.0
187.636322 132.0
187.739929 64.0
187.761749 220.0
187.799927 64.0
187.865555 136.0
187.941788 80.0
187.985199 180.0
188.069351 4308.0
188.16832 32.0
188.225662 104.0
188.337631 200.0
188.358582 232.0
188.46875 132.0
188.500626 144.0
188.824127 44.0
188.851471 64.0
188.884293 188.0
188.921707 272.0
188.940582 132.0
189.025818 132.0
189.077881 4132.0
189.155975 128.0
189.174347 156.0
189.242798 156.0
189.297318 140.0
189.363281 64.0
189.476898 180.0
189.537735 120.0
189.557785 76.0
189.588242 248.0
189.629517 184.0
189.798416 188.0
189.842987 184.0
189.864807 120.0
189.912811 200.0
189.93663 172.0
189.971786 136.0
190.054962 912.0
190.086319 18916.0
190.140015 128.0
190.183075 52.0
190.263763 80.0
190.290131 76.0
190.323074 136.0
190.369751 232.0
190.408203 44.0
190.440079 112.0
190.534561 56.0
190.585327 92.0
190.670761 112.0
190.696045 52.0
190.763916 164.0
190.834122 172.0
190.886368 136.0
190.924866 264.0
190.971619 72.0
191.049011 7620.0
191.092163 1516.0
191.128418 148.0
191.177948 52.0
191.205475 160.0
191.224731 132.0
191.246765 64.0
191.290802 176.0
191.343353 176.0
191.464264 52.0
191.51384 88.0
191.693283 172.0
191.737 204.0
191.764557 160.0
191.811417 128.0
191.833466 180.0
191.855515 80.0
191.91066 164.0
191.960297 156.0
192.054276 1140.0
192.093536 332.0
192.15889 64.0
192.251938 144.0
192.313416 176.0
192.339981 192.0
192.360336 112.0
192.382416 68.0
192.415543 168.0
192.454422 52.0
192.484573 108.0
192.510956 80.0
192.556381 152.0
192.586761 96.0
192.639236 180.0
192.664093 176.0
192.696854 208.0
192.814743 228.0
192.872421 144.0
192.893463 176.0
192.934219 124.0
193.004044 176.0
193.064545 6464.0
193.167221 28.0
193.26825 52.0
193.327682 176.0
193.494843 216.0
193.610062 280.0
193.659912 92.0
193.744705 124.0
193.770706 68.0
193.826508 172.0
193.898178 216.0
193.945297 164.0
193.976807 140.0
194.069214 1016.0
194.13382 124.0
194.167099 92.0
194.316879 32.0
194.513916 144.0
194.563873 80.0
194.58609 156.0
194.608307 180.0
194.702713 168.0
194.733337 140.0
194.77771 196.0
195.005539 188.0
195.045135 820.0
195.080551 960.0
195.123276 112.0
195.186234 28.0
195.230728 236.0
195.266876 44.0
195.294693 60.0
195.329865 272.0
195.410858 116.0
195.505402 92.0
195.527527 216.0
195.600769 112.0
195.636948 168.0
195.667572 136.0
195.68985 76.0
195.876434 116.0
195.898712 132.0
196.023926 132.0
196.054321 152.0
196.078049 344.0
196.205261 148.0
196.302841 104.0
196.436722 76.0
196.470184 200.0
196.528778 212.0
196.547943 168.0
196.746475 128.0
196.886078 136.0
197.008972 136.0
197.057831 308.0
197.115143 152.0
197.151474 196.0
197.174835 100.0
197.212952 176.0
197.335953 160.0
197.43103 48.0
197.470184 152.0
197.646423 124.0
197.705185 44.0
197.777954 140.0
197.817139 276.0
197.923523 160.0
197.997543 68.0
198.049545 120.0
198.10556 96.0
198.206421 184.0
198.399811 252.0
198.422241 264.0
198.500748 180.0
198.582077 128.0
198.868256 124.0
198.97493 80.0
199.033096 100.0
199.074219 88.0
199.120941 172.0
199.191162 128.0
199.250153 212.0
199.311966 216.0
199.370972 28.0
199.401886 212.0
199.438416 184.0
199.562119 108.0
199.626785 56.0
199.680222 116.0
199.742096 72.0
199.792725 148.0
199.812424 196.0
199.908081 144.0
199.975632 72.0
200.043976 352.0
200.063629 136.0
200.198044 128.0
200.237991 128.0
200.302246 144.0
200.513565 128.0
200.544556 128.0
200.578384 68.0
200.671417 88.0
200.801132 136.0
200.913956 116.0
201.063324 188.0
201.07222 176.0
201.078247 124.0
201.342987 148.0
201.543549 124.0
201.60289 236.0
201.658157 224.0
201.896896 180.0
201.944977 236.0
202.010025 148.0
202.060944 124.0
202.239227 192.0
202.307159 128.0
202.383606 156.0
202.431732 224.0
202.451553 84.0
202.570511 64.0
202.596008 128.0
202.628952 216.0
202.686676 240.0
202.71785 72.0
202.828369 116.0
202.921921 60.0
203.024002 100.0
203.051712 852.0
203.083557 148.0
203.168655 60.0
203.252411 92.0
203.284988 148.0
203.305954 184.0
203.486511 176.0
203.554657 60.0
203.580215 132.0
203.617126 156.0
203.686401 188.0
203.727905 92.0
203.754013 172.0
203.801773 164.0
203.926804 72.0
203.975128 168.0
204.058731 268.0
204.120117 108.0
204.245255 128.0
204.454376 120.0
204.459351 160.0
204.507019 152.0
204.532639 244.0
204.606659 152.0
204.891434 168.0
204.917084 88.0
205.065933 4200.0
205.106262 260.0
205.153625 72.0
205.193527 260.0
205.219193 188.0
205.26767 48.0
205.341812 60.0
205.381744 152.0
205.470169 204.0
205.567184 112.0
205.692764 184.0
205.804092 32.0
205.892624 52.0
205.915466 120.0
206.028946 148.0
206.068985 568.0
206.161148 256.0
206.204025 96.0
206.235458 132.0
206.331741 164.0
206.515656 180.0
206.541397 216.0
206.567139 76.0
206.667282 220.0
206.698746 80.0
206.747391 216.0
206.807495 192.0
206.910553 132.0
206.95636 220.0
207.048111 256.0
207.078201 288.0
207.12532 124.0
207.19693 64.0
207.429062 132.0
207.509323 56.0
207.57814 112.0
207.652695 136.0
207.773178 180.0
208.005615 140.0
208.05069 512.0
208.120453 204.0
208.157776 176.0
208.183624 92.0
208.267822 212.0
208.4048 108.0
208.474579 224.0
208.674591 216.0
208.792862 160.0
208.828568 192.0
209.059631 1100.0
209.149628 180.0
209.184631 144.0
209.313721 224.0
209.555664 196.0
209.621933 144.0
209.731445 76.0
209.768921 108.0
209.93486 208.0
209.979401 68.0
210.034714 180.0
210.063751 532.0
210.097672 180.0
210.178452 172.0
210.262131 204.0
210.354492 188.0
210.374695 176.0
210.417999 104.0
210.455536 68.0
210.654816 200.0
210.680801 120.0
210.828171 128.0
210.95607 220.0
211.039993 356.0
211.076569 408.0
211.432571 144.0
211.518875 144.0
211.887177 112.0
211.982788 84.0
212.045563 164.0
212.082596 328.0
212.150131 224.0
212.243668 212.0
212.385239 152.0
212.472794 124.0
212.588272 160.0
213.005432 148.0
213.059235 204.0
213.149292 168.0
213.187073 144.0
213.227753 64.0
213.476227 128.0
213.591187 156.0
213.637741 184.0
213.730835 184.0
213.885071 164.0
213.932785 164.0
214.017944 168.0
214.199554 120.0
214.295685 112.0
214.423904 144.0
214.455963 80.0
214.531754 140.0
214.5784 168.0
214.625046 112.0
214.73877 60.0
214.767944 148.0
214.942978 104.0
214.969238 120.0
215.044601 168.0
215.097656 184.0
215.123932 204.0
215.439316 68.0
215.462677 204.0
215.728622 108.0
215.828018 148.0
215.981506 264.0
216.050293 108.0
216.102951 212.0
216.301956 120.0
216.412262 100.0
216.503967 128.0
216.542038 144.0
216.732452 56.0
216.80278 120.0
217.019699 140.0
217.065964 256.0
217.14418 132.0
217.201523 144.0
217.256851 88.0
217.279633 204.0
217.304184 72.0
217.509613 128.0
217.603546 28.0
217.639481 168.0
217.679901 180.0
217.714493 260.0
217.85611 156.0
217.994202 156.0
218.017715 104.0
218.055923 48.0
218.076492 220.0
218.132339 124.0
218.238174 104.0
218.320511 140.0
218.432266 176.0
218.770676 112.0
218.814835 244.0
218.84639 436.0
218.888107 172.0
218.965012 164.0
219.003296 152.0
219.044449 8180.0
219.139297 72.0
219.185944 156.0
219.215408 204.0
219.244888 128.0
219.289093 160.0
219.460068 152.0
219.480698 52.0
219.575073 60.0
219.599533 124.0
219.672409 128.0
219.7491 128.0
219.926163 140.0
219.961578 284.0
219.982254 148.0
220.049454 1968.0
220.08638 176.0
220.141678 72.0
220.188934 232.0
220.224365 168.0
220.35434 52.0
220.410492 84.0
220.434128 188.0
220.466629 72.0
220.531647 84.0
220.606964 200.0
220.717896 256.0
220.850967 124.0
220.910126 64.0
220.995209 152.0
221.059387 15760.0
221.111877 216.0
221.170517 56.0
221.200119 36.0
221.251923 88.0
221.303741 108.0
221.341385 156.0
221.42186 108.0
221.499191 220.0
221.567322 160.0
221.653488 100.0
221.667831 52.0
221.679306 96.0
221.712509 152.0
221.739182 224.0
221.776642 88.0
221.804398 144.0
221.872574 72.0
221.920013 172.0
222.008224 160.0
222.064117 2548.0
222.115738 196.0
222.182693 216.0
222.218079 192.0
222.403549 64.0
222.465881 48.0
222.563858 32.0
222.70047 64.0
222.733139 96.0
222.768784 96.0
222.81929 132.0
222.862259 232.0
222.887131 144.0
222.94577 112.0
223.07518 5280.0
223.140259 96.0
223.181244 148.0
223.266418 132.0
223.3004 176.0
223.372803 280.0
223.410889 36.0
223.434692 176.0
223.476334 124.0
223.526001 52.0
223.598343 156.0
223.625122 140.0
223.753128 120.0
223.788025 172.0
223.910934 36.0
224.00029 216.0
224.075714 1000.0
224.122437 136.0
224.393661 164.0
224.423477 140.0
224.506973 48.0
224.64119 360.0
224.673996 104.0
224.727707 100.0
224.823181 72.0
224.847061 84.0
224.873459 108.0
225.056656 532.0
225.083878 192.0
225.142609 80.0
225.164368 84.0
225.24118 52.0
225.297928 128.0
225.324814 128.0
225.360672 48.0
225.415375 104.0
225.519058 284.0
225.544693 132.0
225.725327 192.0
225.832993 64.0
225.892807 76.0
226.054932 108.0
226.12619 108.0
226.154037 200.0
226.180069 84.0
226.294708 136.0
226.326767 120.0
226.399918 140.0
226.43457 156.0
226.512436 160.0
226.545395 56.0
226.587326 232.0
226.743149 48.0
226.851044 128.0
226.878036 128.0
226.952988 192.0
226.976974 64.0
227.162918 160.0
227.502014 152.0
227.637115 176.0
227.697174 168.0
227.814316 164.0
227.89006 148.0
228.024643 156.0
228.063721 152.0
228.358322 152.0
228.596039 56.0
228.721344 236.0
228.794678 156.0
228.954193 152.0
229.059677 132.0
229.088623 200.0
229.12294 260.0
229.165115 140.0
229.186218 132.0
229.249496 36.0
229.285278 144.0
229.382095 132.0
229.424301 148.0
229.515213 264.0
229.537064 180.0
229.574112 140.0
229.695694 228.0
229.804489 128.0
229.864655 148.0
229.970276 108.0
230.19368 72.0
230.254074 112.0
230.284271 148.0
230.368851 136.0
230.704285 152.0
230.77684 136.0
231.048462 1060.0
231.282043 96.0
231.454605 200.0
231.512131 196.0
231.72113 116.0
231.899918 188.0
231.930222 88.0
231.955841 192.0
232.051682 224.0
232.109085 172.0
232.412415 148.0
232.646103 168.0
232.709854 76.0
232.770584 196.0
232.800949 96.0
232.855606 148.0
232.934586 200.0
233.06012 8264.0
233.107895 132.0
233.192856 56.0
233.270294 176.0
233.288528 160.0
233.341568 264.0
233.426941 192.0
233.478638 36.0
233.524246 72.0
233.554672 160.0
233.600296 68.0
233.786407 180.0
233.854462 172.0
233.953293 180.0
234.019302 124.0
234.064896 2612.0
234.094345 348.0
234.178619 120.0
234.230392 188.0
234.401001 140.0
234.513763 128.0
234.699905 132.0
234.748505 52.0
234.87355 68.0
234.913208 40.0
234.952866 180.0
235.004761 188.0
235.040222 196.0
235.073471 2128.0
235.129837 64.0
235.16951 68.0
235.242767 212.0
235.279404 140.0
235.399307 88.0
235.439377 192.0
235.465668 104.0
235.542023 32.0
235.578674 168.0
235.633667 196.0
235.682205 124.0
235.725327 64.0
235.832428 92.0
235.853683 140.0
235.936218 152.0
235.969849 96.0
236.009598 164.0
236.044357 384.0
236.078079 572.0
236.106262 232.0
236.139435 168.0
236.278732 44.0
236.410309 56.0
236.440903 136.0
236.649063 152.0
236.848114 148.0
236.918564 160.0
237.055328 1840.0
237.255661 164.0
237.384445 300.0
237.436569 104.0
237.458038 88.0
237.596619 136.0
237.64209 128.0
237.838501 144.0
237.961288 148.0
237.988922 60.0
238.060928 296.0
238.117889 184.0
238.249969 188.0
238.452164 140.0
238.489655 148.0
238.560349 60.0
238.618759 56.0
238.683334 164.0
238.763275 180.0
238.800507 276.0
238.830948 180.0
238.892471 148.0
239.018539 176.0
239.071487 532.0
239.119202 220.0
239.141708 204.0
239.258667 140.0
239.280228 152.0
239.323318 196.0
239.347183 156.0
239.42186 52.0
239.71759 72.0
239.763824 104.0
239.831619 92.0
240.0728 124.0
240.232483 104.0
240.312698 36.0
240.479324 156.0
240.596634 128.0
240.62442 164.0
240.772629 144.0
240.815872 104.0
240.87764 64.0
241.041382 172.0
241.202087 148.0
241.248459 84.0
241.313385 156.0
241.708649 156.0
241.818832 160.0
241.852966 220.0
241.938309 132.0
242.015717 156.0
242.06311 52.0
242.102417 84.0
242.1241 156.0
242.198425 168.0
242.282059 80.0
242.331635 160.0
242.415298 172.0
242.511368 80.0
242.573349 124.0
242.604355 364.0
242.638321 284.0
242.681854 136.0
242.7966 172.0
242.877228 216.0
242.929962 132.0
242.959885 204.0
243.077606 184.0
243.584946 92.0
243.7061 232.0
243.771362 180.0
243.811752 232.0
244.047989 120.0
244.075974 92.0
244.119507 164.0
244.194153 176.0
244.293686 88.0
244.352798 116.0
244.446136 84.0
244.645325 152.0
244.710709 156.0
244.794769 148.0
244.897552 192.0
245.05629 424.0
245.096924 140.0
245.128082 144.0
245.202881 88.0
245.274567 72.0
245.341187 96.0
245.380554 52.0
245.598831 156.0
245.651871 180.0
245.689301 80.0
245.767303 160.0
245.860916 124.0
245.938934 136.0
246.05069 108.0
246.092331 200.0
246.141861 256.0
246.263657 160.0
246.31987 44.0
246.466705 144.0
246.488571 164.0
246.580261 148.0
246.616714 76.0
246.719864 156.0
246.751129 220.0
246.835541 144.0
246.888702 52.0
246.91272 100.0
246.973709 88.0
247.038727 4180.0
247.232819 184.0
247.53334 68.0
247.570923 248.0
247.597427 248.0
247.811737 68.0
247.94371 180.0
247.974243 108.0
247.985794 188.0
248.042343 1032.0
248.119247 44.0
248.144318 312.0
248.164413 152.0
248.247803 136.0
248.282288 124.0
248.316071 88.0
248.32724 144.0
248.370224 160.0
248.397324 160.0
248.41008 108.0
248.418884 240.0
248.440353 172.0
248.469589 364.0
248.587448 188.0
248.621109 144.0
248.668045 172.0
248.696426 236.0
248.72142 108.0
248.755707 212.0
248.788849 204.0
248.81633 160.0
248.843964 44.0
248.889633 176.0
248.90094 120.0
248.934021 164.0
248.956177 140.0
249.013077 348.0
249.05545 86940.0
249.142944 180.0
249.184479 76.0
249.227432 56.0
249.255035 120.0
249.26619 112.0
249.296936 140.0
249.342865 124.0
249.400406 148.0
249.425598 96.0
249.454742 152.0
249.485077 76.0
249.513596 56.0
249.540604 164.0
249.573364 384.0
249.598206 208.0
249.622589 228.0
249.68399 48.0
249.737488 132.0
249.784851 80.0
249.82486 68.0
249.85202 64.0
249.881119 128.0
249.915726 60.0
249.967712 176.0
250.010117 64.0
250.057785 15732.0
250.154846 208.0
250.206802 116.0
250.226654 112.0
250.250671 248.0
250.279739 80.0
250.298294 212.0
250.328064 40.0
250.373047 156.0
250.411362 124.0
250.493286 52.0
250.564301 196.0
250.589264 104.0
250.6147 72.0
250.647263 60.0
250.682449 48.0
250.734604 236.0
250.841614 64.0
250.880859 128.0
250.904663 100.0
250.945648 56.0
250.980331 136.0
251.004135 152.0
251.068222 6324.0
251.123993 72.0
251.167511 68.0
251.228134 192.0
251.270493 76.0
251.310562 160.0
251.318726 112.0
251.328598 192.0
251.360672 48.0
251.390396 100.0
251.42511 100.0
251.489807 72.0
251.603104 116.0
251.629456 260.0
251.688736 124.0
251.720505 172.0
251.780212 196.0
251.802521 132.0
251.869232 228.0
251.913589 196.0
252.00647 72.0
252.073044 1732.0
252.16095 68.0
252.236816 64.0
252.268417 96.0
252.45813 84.0
252.553009 72.0
252.663727 96.0
252.697922 220.0
252.736481 72.0
252.758636 52.0
252.802933 180.0
252.830688 104.0
252.859909 132.0
252.891556 96.0
252.943863 228.0
253.048019 848.0
253.083466 176.0
253.113159 84.0
253.14798 92.0
253.300003 60.0
253.328522 104.0
253.499603 196.0
253.569321 108.0
253.632706 92.0
253.6866 156.0
253.718307 60.0
253.75 68.0
253.841949 76.0
253.889526 104.0
253.930756 80.0
254.047211 252.0
254.083008 84.0
254.197235 236.0
254.335434 132.0
254.365433 240.0
254.597214 192.0
254.635315 64.0
254.689316 116.0
254.743317 64.0
254.797318 140.0
255.172333 52.0
255.31543 128.0
255.40448 80.0
255.426743 168.0
255.652634 80.0
255.678085 84.0
255.716278 92.0
255.786301 188.0
255.808594 132.0
255.846786 172.0
255.967773 68.0
256.002808 124.0
256.025085 180.0
256.164185 156.0
256.327728 104.0
256.493439 104.0
256.586121 156.0
256.665588 52.0
256.825043 56.0
256.856934 136.0
257.08667 216.0
257.187073 120.0
257.370758 164.0
257.447388 160.0
257.616669 156.0
257.639038 192.0
257.84671 180.0
258.124847 164.0
258.265564 36.0
258.646332 208.0
258.803711 172.0
259.03595 412.0
259.072205 184.0
259.171509 108.0
259.274078 120.0
259.334961 120.0
259.405487 144.0
259.578613 144.0
259.740662 128.0
260.011688 148.0
260.047974 284.0
260.088715 192.0
260.213898 136.0
260.239594 140.0
260.329498 164.0
260.419403 124.0
260.518982 124.0
260.570404 48.0
260.927124 152.0
260.961548 220.0
260.987488 196.0
261.054443 16432.0
261.120056 40.0
261.189911 168.0
261.245514 80.0
261.28714 68.0
261.325928 44.0
261.358826 140.0
261.535095 76.0
261.57373 112.0
261.840973 244.0
261.863525 132.0
261.905396 228.0
261.938171 248.0
262.058807 2808.0
262.093994 140.0
262.198578 128.0
262.353271 184.0
262.485474 152.0
262.666077 100.0
262.769318 64.0
262.819855 88.0
262.862885 152.0
262.953247 64.0
262.998413 68.0
263.067963 1776.0
263.208252 68.0
263.272858 32.0
263.334198 124.0
263.387085 116.0
263.718689 68.0
263.797729 132.0
263.842438 56.0
263.867371 76.0
263.906189 108.0
263.996704 120.0
264.038177 636.0
264.080292 564.0
264.161682 80.0
264.20697 88.0
264.307037 60.0
264.358704 160.0
264.443176 84.0
264.493042 120.0
264.673004 112.0
264.734528 112.0
264.804504 192.0
264.8414 84.0
264.896484 80.0
265.053284 1284.0
265.093842 424.0
265.19458 108.0
265.24527 160.0
265.285339 152.0
265.424744 80.0
265.466888 72.0
265.515533 48.0
265.654999 40.0
265.680969 160.0
265.75235 172.0
265.78479 44.0
265.826965 136.0
266.055878 1740.0
266.102875 56.0
266.229492 180.0
266.310699 192.0
266.359406 140.0
266.511658 120.0
266.573853 136.0
266.601471 36.0
266.76236 180.0
266.84848 112.0
267.065521 4784.0
267.120026 96.0
267.220886 72.0
267.246918 164.0
267.360809 84.0
267.438904 84.0
267.60495 44.0
267.660278 52.0
267.699493 92.0
267.735199 120.0
267.852448 68.0
267.943634 56.0
267.985992 124.0
268.010498 224.0
268.022736 116.0
268.067444 488.0
268.132629 152.0
268.302124 156.0
268.426025 224.0
268.474945 144.0
268.562988 172.0
268.638916 88.0
268.748932 64.0
269.071564 184.0
269.199402 104.0
269.264709 124.0
269.365967 36.0
269.496643 64.0
269.718872 152.0
269.89212 216.0
270.039276 116.0
270.06546 132.0
270.199554 152.0
270.278076 152.0
270.307526 260.0
270.811707 176.0
270.840424 164.0
270.890289 68.0
270.94928 96.0
270.975494 136.0
271.09671 124.0
271.250763 88.0
271.319611 144.0
271.457306 140.0
272.287567 136.0
272.501068 212.0
272.632507 176.0
272.734406 80.0
273.055145 264.0
273.395447 136.0
273.641327 160.0
273.745209 260.0
273.777313 92.0
273.889557 148.0
273.945312 104.0
273.981537 112.0
274.056091 108.0
274.093567 148.0
274.505585 164.0
274.733185 120.0
274.83847 144.0
274.862457 192.0
274.976562 136.0
275.029327 172.0
275.066833 176.0
275.100647 232.0
275.152283 120.0
275.195221 136.0
275.307495 96.0
275.343811 116.0
275.376831 92.0
275.403259 68.0
275.670868 156.0
275.849335 132.0
275.977142 164.0
276.046265 356.0
276.058594 272.0
276.06897 148.0
276.110535 168.0
276.166748 116.0
276.193207 164.0
276.22702 72.0
276.256073 432.0
276.443237 148.0
276.510834 128.0
276.542999 192.0
276.57373 56.0
276.682953 156.0
276.704987 120.0
276.735931 168.0
276.816132 312.0
276.841766 100.0
276.890289 300.0
276.934631 308.0
276.962646 96.0
277.049927 84196.0
277.147949 172.0
277.195374 68.0
277.207336 100.0
277.254028 168.0
277.30072 108.0
277.374664 84.0
277.43631 44.0
277.456726 40.0
277.492401 104.0
277.543243 212.0
277.596741 228.0
277.6315 100.0
277.687653 216.0
277.740845 112.0
277.783783 128.0
277.840942 68.0
277.87796 180.0
277.904938 164.0
277.942505 144.0
278.052948 13088.0
278.143982 108.0
278.183441 224.0
278.28299 176.0
278.307526 72.0
278.339172 72.0
278.392212 32.0
278.440338 64.0
278.470245 48.0
278.4935 52.0
278.526459 56.0
278.578339 220.0
278.605316 48.0
278.670441 216.0
278.698425 140.0
278.727203 136.0
278.798279 76.0
278.87265 172.0
278.89325 192.0
278.96463 72.0
278.988678 184.0
279.021484 548.0
279.065887 27132.0
279.137573 204.0
279.181122 40.0
279.223938 124.0
279.262787 52.0
279.302734 128.0
279.326263 152.0
279.353424 68.0
279.402405 56.0
279.450867 236.0
279.487 52.0
279.559875 64.0
279.609589 56.0
279.661804 156.0
279.684784 112.0
279.699615 88.0
279.745392 100.0
279.761597 76.0
279.828369 140.0
279.890778 72.0
279.93222 104.0
280.002747 300.0
280.011292 208.0
280.068237 3660.0
280.199982 184.0
280.316589 56.0
280.339905 120.0
280.37323 56.0
280.52121 140.0
280.63443 68.0
280.686584 36.0
280.799957 52.0
280.911499 100.0
280.955261 84.0
280.989258 112.0
281.042267 1256.0
281.077301 1436.0
281.145325 108.0
281.176971 176.0
281.203674 72.0
281.333832 92.0
281.474915 48.0
281.530823 80.0
281.570923 64.0
281.610992 56.0
281.634369 36.0
281.691162 80.0
281.786621 200.0
281.870239 60.0
281.906586 68.0
281.981842 68.0
282.047699 492.0
282.072693 380.0
282.170746 116.0
282.212494 104.0
282.259308 184.0
282.289398 40.0
282.39975 108.0
282.690826 72.0
282.757751 144.0
282.848114 116.0
282.878235 124.0
283.075775 160.0
283.11261 36.0
283.152802 56.0
283.260742 192.0
283.303528 192.0
283.41745 44.0
283.48111 60.0
283.674561 116.0
283.802887 136.0
283.867859 128.0
284.024231 124.0
284.051056 56.0
284.178528 240.0
284.551086 116.0
284.765991 124.0
284.917145 128.0
284.980988 200.0
285.007843 128.0
285.076355 124.0
285.293518 124.0
285.323792 60.0
285.360779 48.0
285.424652 104.0
285.471741 68.0
285.542358 48.0
285.757629 76.0
285.865295 72.0
286.050415 132.0
286.225464 116.0
286.444397 152.0
286.959991 44.0
287.027435 152.0
287.05777 92.0
287.108368 72.0
287.560425 188.0
287.683228 284.0
287.773102 68.0
287.881165 248.0
287.941925 128.0
288.080414 176.0
288.261292 200.0
288.316925 148.0
288.391296 84.0
288.479187 136.0
288.824066 76.0
288.919159 108.0
288.962769 112.0
288.994263 316.0
289.049042 8508.0
289.159027 44.0
289.196259 56.0
289.460327 92.0
289.504333 52.0
289.582245 40.0
289.619507 52.0
289.677094 120.0
289.893921 132.0
289.931183 152.0
290.053162 1612.0
290.23288 152.0
290.35495 44.0
290.392273 112.0
290.529572 92.0
290.657684 100.0
290.741699 152.0
290.772919 140.0
290.897827 156.0
290.946259 160.0
291.009857 148.0
291.064301 3144.0
291.172852 56.0
291.281219 168.0
291.293335 152.0
291.454803 200.0
291.49765 92.0
291.740295 108.0
291.808289 80.0
292.005524 84.0
292.070404 1636.0
292.144958 136.0
292.190948 124.0
292.250427 92.0
292.505676 204.0
292.570343 44.0
292.63504 64.0
292.774658 132.0
292.836975 140.0
292.910889 52.0
293.075562 1092.0
293.227753 40.0
293.285706 40.0
293.367493 28.0
293.578888 88.0
293.688019 156.0
293.855194 76.0
293.882477 100.0
294.051178 328.0
294.08551 324.0
294.69165 168.0
294.749756 224.0
294.824921 300.0
295.059631 2264.0
295.837982 208.0
295.936615 100.0
296.060883 1080.0
296.608063 68.0
296.87207 68.0
296.968079 80.0
297.07251 604.0
297.167053 168.0
297.232239 160.0
298.06723 164.0
298.104431 128.0
298.286591 88.0
298.964142 52.0
299.053619 120.0
299.239502 48.0
299.363464 84.0
300.087036 136.0
300.138763 76.0
300.390533 56.0
300.416687 220.0
300.670013 160.0
300.884003 148.0
301.044373 244.0
301.308807 108.0
301.505737 80.0
301.671661 168.0
301.879089 140.0
301.975922 100.0
302.00705 128.0
302.077118 264.0
302.131592 52.0
302.180023 136.0
302.24231 136.0
302.294189 84.0
302.463776 76.0
302.588409 108.0
302.671509 148.0
302.872375 68.0
303.010925 52.0
303.06366 1064.0
303.156464 88.0
303.426819 152.0
303.499634 172.0
303.530823 148.0
303.947083 164.0
304.019928 112.0
304.071228 184.0
304.558075 76.0
304.957642 56.0
304.994019 240.0
305.042358 380.0
305.119507 284.0
305.235748 136.0
305.402679 124.0
305.440948 180.0
305.486176 104.0
305.681 156.0
305.72995 176.0
305.792358 116.0
305.991821 184.0
306.015594 120.0
306.075073 732.0
306.181488 332.0
306.217102 204.0
306.251953 120.0
306.276306 224.0
306.308838 200.0
306.352966 92.0
306.422638 160.0
306.452423 108.0
306.473846 200.0
306.515961 168.0
306.589722 92.0
306.652618 248.0
306.68988 236.0
306.722321 136.0
306.788116 164.0
306.801636 144.0
306.846069 376.0
306.904266 148.0
306.97049 144.0
307.000488 192.0
307.060242 71008.0
307.180634 256.0
307.220428 52.0
307.255859 56.0
307.322571 64.0
307.361603 244.0
307.405884 84.0
307.466614 188.0
307.517578 96.0
307.551971 56.0
307.580383 124.0
307.606659 136.0
307.636932 120.0
307.674744 212.0
307.730499 100.0
307.792755 164.0
307.882477 92.0
307.904327 200.0
307.953156 220.0
308.063324 10012.0
308.147278 56.0
308.203613 132.0
308.301819 156.0
308.342957 60.0
308.390259 92.0
308.414642 76.0
308.482605 140.0
308.552551 68.0
308.602905 80.0
308.649414 232.0
308.674927 84.0
308.701874 68.0
308.729858 100.0
308.754333 112.0
308.839905 144.0
308.882446 108.0
308.930542 148.0
308.953278 68.0
309.009674 128.0
309.071167 2244.0
309.153809 148.0
309.226624 84.0
309.266663 136.0
309.375824 52.0
309.420013 64.0
309.46051 64.0
309.482086 188.0
309.572784 64.0
309.68692 168.0
309.720306 80.0
309.793854 52.0
309.819916 120.0
309.840851 88.0
309.956665 88.0
309.986572 72.0
310.018097 84.0
310.076447 224.0
310.147766 100.0
310.18985 124.0
310.253235 120.0
310.306854 136.0
310.38266 92.0
310.451385 72.0
310.477356 40.0
310.51593 84.0
310.561523 52.0
311.007111 36.0
311.050629 380.0
311.158386 68.0
311.237549 112.0
311.36319 144.0
311.435486 60.0
311.56897 72.0
311.713013 32.0
311.814911 60.0
311.91333 84.0
312.050446 140.0
312.09613 116.0
312.184052 56.0
312.314178 92.0
312.61322 84.0
312.648407 136.0
312.764557 32.0
313.049713 252.0
313.323761 40.0
313.376221 276.0
313.532349 44.0
313.810822 84.0
314.050598 100.0
314.354004 52.0
314.689331 64.0
314.943573 124.0
315.342834 108.0
316.050079 128.0
316.404022 128.0
316.52356 64.0
316.751068 72.0
316.875031 136.0
317.052124 356.0
317.250702 96.0
317.488251 164.0
317.647858 60.0
317.768494 36.0
318.055969 232.0
318.201477 56.0
318.781982 100.0
318.887054 148.0
318.96524 132.0
319.059723 7056.0
319.110992 36.0
319.256775 56.0
319.502197 52.0
319.553711 92.0
319.63739 136.0
319.666565 168.0
319.694336 124.0
319.740753 88.0
319.893646 52.0
319.950317 52.0
320.058533 1396.0
320.328064 48.0
320.438507 36.0
320.598846 68.0
320.638062 36.0
320.769928 44.0
320.855499 128.0
321.07251 732.0
321.501099 84.0
321.64743 64.0
321.708099 40.0
321.893768 52.0
322.07782 420.0
322.111633 128.0
322.883636 104.0
322.976624 68.0
323.001678 92.0
323.035675 156.0
323.069641 100.0
323.103973 140.0
323.26001 96.0
323.692383 140.0
323.731781 160.0
323.82489 36.0
324.000427 76.0
324.057739 136.0
324.147308 132.0
324.308594 64.0
324.624054 100.0
325.069244 2080.0
325.176544 128.0
325.304688 108.0
325.478088 36.0
325.671997 36.0
326.065643 168.0
327.067078 156.0
327.520752 72.0
328.129761 120.0
328.191071 92.0
331.719543 92.0
332.059631 196.0
332.09375 432.0
332.26712 40.0
333.080566 316.0
333.741699 56.0
333.851837 68.0
334.067932 380.0
335.0383 140.0
335.078369 1356.0
335.35437 36.0
335.824707 52.0
336.081635 616.0
337.066315 796.0
337.255951 44.0
337.643494 96.0
338.073486 244.0
338.459534 128.0
338.708557 84.0
339.023651 92.0
339.085083 164.0
339.36087 68.0
340.083557 124.0
340.4617 44.0
343.081451 36.0
343.483398 48.0
345.515137 60.0
348.637146 36.0
349.667297 80.0
350.100555 432.0
350.374786 52.0
350.557343 76.0
350.605774 100.0
350.986023 44.0
351.102417 164.0
351.135162 196.0
351.493286 140.0
352.075623 112.0
352.864044 64.0
353.093964 296.0
354.08017 136.0
359.731415 96.0
362.219574 112.0
362.390045 88.0
362.791748 124.0
363.869171 52.0
364.184357 92.0
365.370331 60.0
365.800354 80.0
366.093536 128.0
368.053497 156.0
368.112396 2540.0
368.699066 44.0
369.110718 696.0
369.295502 128.0
369.394928 68.0
370.111328 128.0
370.240814 40.0
370.7005 156.0
370.880615 104.0
371.114471 128.0
371.513336 60.0
371.540161 80.0
372.657379 120.0
373.060913 80.0
378.961792 76.0
379.985352 44.0
380.528687 68.0
380.750031 40.0
380.851013 96.0
382.799408 104.0
386.852081 56.0
390.328156 64.0
392.501709 116.0
392.8685 100.0
395.733765 124.0
395.927795 136.0
396.086212 64.0
397.537292 56.0
397.704742 104.0
399.400574 84.0
400.395599 128.0
401.930328 68.0
404.127899 56.0
404.920471 40.0
407.363159 36.0
410.986511 80.0
411.075287 56.0
411.935242 124.0
419.980408 48.0
423.634735 84.0
425.180511 96.0
426.852448 88.0
427.856354 32.0
430.800812 88.0
431.734924 116.0
432.504456 68.0
433.216675 80.0
434.925079 40.0
436.524536 156.0
438.047821 76.0
441.532959 52.0
443.299561 152.0
446.914886 136.0
449.413422 80.0
449.70459 92.0
451.36908 52.0
452.71048 128.0
454.181091 40.0
456.789154 92.0
456.980591 88.0
457.159302 44.0
458.743713 108.0
460.578552 32.0
462.301514 112.0
464.049133 76.0
467.519806 124.0
468.686768 96.0
470.101105 108.0
471.301514 60.0
473.802246 52.0
474.001556 32.0
477.117859 68.0
479.285278 92.0
481.095245 76.0
482.637482 52.0
484.177795 72.0
485.080383 120.0
486.181244 60.0
490.121246 36.0
490.231415 80.0
491.496948 44.0
492.583008 156.0
492.658112 104.0
494.108124 80.0
494.528503 56.0
496.748413 64.0
497.83136 76.0
499.151123 56.0
499.373474 56.0
499.449097 76.0
500.962524 68.0
500.993713 72.0
502.464874 72.0
502.607635 88.0
503.036102 44.0
504.313568 136.0
505.212341 56.0
509.057922 56.0
510.17218 60.0
520.836548 112.0
521.809021 60.0
522.545776 100.0
523.92981 92.0
527.544067 132.0
527.919006 100.0
531.496521 88.0
531.813171 124.0
533.715027 120.0
534.437134 76.0
534.667236 40.0
539.015808 72.0
540.837891 72.0
541.736206 76.0
542.714111 48.0
548.688477 76.0
550.307373 48.0
551.12262 140.0
552.868896 80.0
558.9505 48.0
561.321289 40.0
563.103699 60.0
570.205566 60.0
570.676147 104.0
571.261108 64.0
571.608398 92.0
572.64624 44.0
575.889465 72.0
577.275391 88.0
579.161011 36.0
582.835754 56.0
585.101074 104.0
586.372742 68.0
586.50769 96.0
592.175171 92.0
593.769714 92.0
598.877747 48.0
601.710938 92.0
607.897705 52.0
610.983276 108.0
613.69696 100.0
622.30603 88.0
624.965088 56.0
627.727539 108.0
629.371216 128.0
634.539612 96.0
644.429382 48.0
646.436768 64.0
652.894592 52.0
655.516235 92.0
676.947937 124.0
677.041138 124.0
678.642273 68.0
680.074036 60.0
680.141541 112.0
680.323242 108.0
680.852844 40.0
682.666504 48.0
687.761719 108.0
689.966125 76.0
690.609314 108.0
691.048706 48.0
696.532227 64.0
703.081909 64.0
709.375977 56.0
710.680603 72.0
714.303772 92.0
716.273254 104.0
721.171448 56.0
730.808044 88.0
730.964111 88.0
739.999573 120.0
741.781921 104.0
746.804504 44.0
749.063354 92.0
750.442139 68.0
758.122009 140.0
761.347717 80.0
767.406067 32.0
776.657837 80.0
781.034729 80.0
783.57312 144.0
784.470337 68.0
785.47406 48.0
788.382935 40.0
789.976379 84.0
798.974609 56.0
800.798401 84.0
803.662048 92.0
805.440369 72.0
806.231323 56.0
814.463501 92.0
817.214905 88.0
821.732971 96.0
830.273071 68.0
831.047485 112.0
833.878479 120.0
836.74884 112.0
836.869751 108.0
841.141602 112.0
843.428955 48.0
869.780945 200.0
878.76123 72.0
886.94574 44.0
891.527588 40.0
902.639099 112.0
911.943237 52.0
919.749268 48.0
920.220093 84.0
938.775452 104.0
940.312805 44.0
942.987854 108.0
952.110229 148.0
958.329163 52.0
965.947266 52.0
975.608643 136.0
979.06189 32.0
983.394836 76.0
985.186951 28.0
991.581726 216.0
994.943848 52.0
1011.921997 208.0
1020.258301 72.0
1022.751831 48.0
1026.032471 168.0
1027.110107 52.0
1027.561768 76.0
1027.792725 76.0
1031.170898 156.0
1033.025146 184.0
1036.93103 112.0
1044.327271 48.0
1044.732544 92.0
1045.04126 72.0
1051.149658 68.0
1052.292114 232.0
1061.869019 40.0
1064.003906 84.0
1073.659912 204.0
1081.290527 44.0
1086.368652 56.0
1095.499512 172.0
1097.153564 164.0
1107.912354 212.0
1108.972534 116.0
1115.464111 48.0
1120.208618 152.0
1120.321899 176.0
1120.468384 104.0
1122.027954 132.0
1127.220703 148.0
1127.307495 196.0
1127.955811 112.0
1128.176392 212.0
1135.340698 220.0
1139.999634 132.0
1148.098022 164.0
1153.722412 152.0
1156.590576 208.0
1159.306396 128.0
1162.581909 188.0
1175.797974 160.0
1177.456909 144.0
1177.743774 160.0
1178.454224 100.0
1179.910034 80.0
1182.954224 88.0
1187.620483 168.0
1191.072998 220.0
1192.371582 140.0
1192.447266 188.0
1195.397461 128.0
1196.732788 80.0
1201.274414 28.0
1204.87793 216.0
1205.631104 88.0
1205.873047 188.0
1211.900269 68.0
1215.27002 76.0
1218.824951 148.0
1221.731079 164.0
1226.842651 168.0
1228.439575 128.0
1228.495361 84.0
1231.147705 140.0
1235.194336 152.0
1239.19873 160.0
1243.707764 200.0
1250.412964 128.0
1251.187256 152.0
1256.127197 152.0
1259.47998 192.0
1260.575073 188.0
1261.571655 104.0
1267.40332 128.0
1268.459351 160.0
1268.572754 120.0
1270.311035 92.0
1273.694458 72.0
1277.036621 164.0
1284.515503 168.0
1285.935425 120.0
1286.570679 184.0
1287.099121 140.0
1287.29895 172.0
1289.527954 180.0
1291.122192 128.0
1292.910767 112.0
1307.98291 64.0
1309.905518 232.0
1310.092896 220.0
1311.577271 220.0
1311.634888 44.0
1312.463989 136.0
1316.981567 40.0
1318.253052 160.0
1323.881104 156.0
1324.851685 72.0
1325.866089 184.0
1326.257446 172.0
1327.729248 164.0
1333.937134 180.0
1335.325806 204.0
1339.869141 132.0
1341.988892 248.0
1342.783691 208.0
1346.783325 100.0
1348.178711 212.0
1351.213135 140.0
1353.22583 40.0
1356.104736 136.0
1358.062378 152.0
1358.231079 152.0
1363.31897 72.0
1364.237671 92.0
1364.664062 212.0
1368.386963 220.0
1369.985107 176.0
1370.692383 184.0
1370.906006 44.0
1371.554565 140.0
1372.078003 64.0
1378.868896 44.0
1384.469238 100.0
1385.039551 160.0
1389.413086 236.0
1391.988647 156.0
1397.265747 168.0
1398.396851 64.0
1401.1073 92.0
1406.961548 252.0
1408.208496 184.0
1411.324707 140.0
1414.856079 148.0
1418.796631 140.0
1420.228882 272.0
1426.115356 160.0
1432.285278 136.0
1436.974243 140.0
1438.302368 168.0
1439.132812 148.0
1439.427246 180.0
1439.502808 60.0
1443.182617 164.0
1444.838867 136.0
1446.079834 144.0
1451.473633 176.0
1452.5354 148.0
1453.688599 120.0
1454.842285 188.0
1455.99646 140.0
1458.830566 96.0
1462.999268 104.0
1463.151489 164.0
1463.623535 204.0
1468.058472 192.0
1468.165283 124.0
1468.226196 132.0
1469.50769 168.0
1470.522583 124.0
1471.415771 116.0
1471.522583 172.0
1471.843262 168.0
1474.119629 172.0
1474.318237 72.0
1475.403687 184.0
1477.35376 208.0
1477.407349 128.0
1478.371338 52.0
1478.447876 56.0
1479.151978 96.0
1479.297485 92.0
1480.208496 200.0
1482.261353 140.0
1483.924683 100.0
1484.821777 184.0
1485.259033 208.0
1486.141235 140.0
1487.468872 108.0
1487.983276 144.0
1488.950684 124.0
1490.233521 112.0
1493.277588 152.0
1495.501221 72.0
1495.670532 108.0
1496.678955 144.0
1497.194946 188.0
1500.300049 48.0
1502.945435 44.0
1504.087646 68.0
