>compound Sulphadimethoxine
>formula C12H14N4O4S
>ionization [M+H]+
>parentmass 311.081512
#inchi InChI=1S/C12H14N4O4S/c1-19-11-7-10(14-12(15-11)20-2)16-21(17,18)9-5-3-8(13)4-6-9/h3-7H,13H2,1-2H3,(H,14,15,16)
#inchikey ZZORFUFYDOWNEF
#Ion_Source LC-ESI
#Instrument qTof
#Compound_Source Commercial
#PI Dorrestein
#Data_Collector Garg_Neha
#Scan -1
#Precursor_MZ 311.081
#ExactMass 310.074
#Charge 1
#CAS_Number 122-11-2
#Pubmed_ID N/A
#Smiles N(C1=NC(=NC(=C1)OC)OC)S(C2=CC=C(C=C2)N)(=O)=O
#INCHI_AUX N/A
#Library_Class 1
#SpectrumID CCMSLIB00000078360
#IonMode Positive
#UpdateWorkflowName UPDATE-SINGLE-ANNOTATED-GOLD
#LibraryQualityString Gold
#TaskID 77f51c88eb8b467eb4a01dd2d0cb90d2
##Scan# 1167
#SpectrumFile Plate5_61_88_GH9_01_16511.mzXML
#LibraryName FDALibrary_2_04302014.mgf
#MQScore -1
#Organism FDALibrary_2_04302014
#TIC_Query 0
#RT_Query -1
#MZErrorPPM -1
#SharedPeaks 0
#MassDiff 0
#LibMZ -1
#SpecMZ 311.081
#SpecCharge 0
#internalFilename spec-00000.mgf

>collision 10
45.023109 208.0
45.113605 176.0
45.2183 232.0
45.348213 208.0
45.383068 164.0
45.596504 208.0
45.782158 152.0
46.200581 228.0
46.367126 160.0
46.644012 160.0
46.671204 160.0
47.136009 192.0
47.257702 168.0
47.289173 160.0
47.316551 156.0
47.79969 164.0
47.862625 144.0
47.909836 180.0
48.216702 188.0
48.581696 188.0
49.421803 152.0
49.65855 152.0
50.026691 208.0
50.036549 212.0
50.247948 168.0
50.792587 240.0
50.88625 168.0
51.120777 140.0
51.146397 204.0
51.725925 148.0
51.776073 156.0
51.810413 164.0
51.96069 200.0
52.292885 184.0
52.454205 228.0
52.543613 176.0
52.711102 164.0
53.315388 168.0
53.654533 140.0
54.053272 168.0
54.256859 176.0
54.765289 232.0
55.569965 144.0
55.587276 156.0
55.823467 240.0
56.102516 220.0
56.125744 160.0
56.38549 152.0
56.473701 184.0
56.485668 204.0
56.529053 192.0
57.10965 176.0
57.240582 220.0
57.433483 140.0
57.601032 148.0
57.961102 220.0
58.103622 180.0
58.512444 152.0
60.024738 144.0
60.344353 212.0
60.395386 180.0
60.677219 204.0
60.74445 148.0
60.841667 164.0
61.256878 176.0
61.308292 148.0
61.395596 180.0
61.612556 148.0
61.729778 144.0
62.226479 160.0
62.408733 228.0
62.849758 152.0
63.561798 220.0
63.698334 144.0
63.776192 148.0
63.812756 160.0
63.873188 160.0
64.064209 144.0
64.178955 160.0
64.354469 180.0
64.749435 168.0
64.762253 184.0
65.201859 196.0
65.250076 192.0
65.357841 196.0
65.757492 216.0
65.89798 180.0
66.142166 208.0
66.234467 168.0
66.430603 220.0
66.54258 164.0
67.517006 184.0
67.624985 200.0
68.087326 160.0
68.233566 156.0
68.393127 200.0
68.702927 184.0
68.867989 160.0
69.101074 168.0
69.792709 144.0
69.944099 144.0
69.999039 184.0
70.20401 140.0
70.313812 176.0
70.58474 140.0
70.683434 176.0
70.956444 224.0
71.164482 152.0
71.184631 248.0
71.414177 212.0
71.852844 164.0
71.974167 188.0
72.038544 148.0
72.082474 176.0
72.168678 152.0
72.249863 144.0
72.287079 164.0
72.444542 180.0
72.639481 184.0
73.294029 144.0
73.353676 196.0
73.391182 168.0
73.794128 156.0
73.913857 192.0
74.666946 156.0
74.816643 212.0
75.047508 180.0
75.164795 168.0
75.560463 140.0
75.957169 148.0
76.056068 164.0
76.497589 188.0
76.513252 140.0
76.527184 152.0
76.943871 156.0
77.179741 156.0
77.41597 144.0
77.678864 224.0
77.770111 192.0
78.070534 164.0
78.267616 180.0
78.399734 160.0
78.437737 148.0
78.71373 176.0
78.946991 144.0
79.138092 176.0
79.223106 188.0
79.771446 224.0
79.940407 208.0
80.004486 180.0
80.138054 168.0
80.568024 160.0
80.691338 212.0
80.762863 176.0
80.779579 116.0
80.850533 140.0
81.034966 192.0
81.196297 204.0
81.708221 156.0
81.949478 192.0
82.068436 220.0
82.088272 140.0
82.176651 168.0
82.373428 140.0
82.521378 180.0
83.46949 220.0
83.491737 188.0
83.941536 196.0
84.319427 164.0
84.648712 164.0
84.667023 164.0
84.681679 232.0
84.699989 196.0
85.083252 168.0
85.125481 152.0
85.327599 156.0
85.358856 208.0
85.922462 140.0
86.025803 200.0
86.214203 212.0
86.351006 168.0
86.373199 264.0
86.519394 164.0
86.541611 172.0
86.715736 176.0
86.79174 188.0
87.072533 192.0
87.136963 160.0
87.497765 188.0
87.771652 192.0
87.963814 168.0
88.105743 156.0
88.311363 148.0
88.652092 228.0
88.802071 244.0
89.04982 176.0
89.072357 176.0
89.286621 164.0
89.672569 192.0
89.863342 120.0
90.068802 164.0
90.570045 220.0
90.588989 300.0
90.631287 232.0
90.653404 184.0
90.670464 224.0
90.719742 156.0
90.742493 188.0
90.837311 236.0
90.856285 196.0
90.877151 156.0
90.964455 168.0
91.053688 184.0
91.167679 176.0
91.300751 144.0
91.384483 192.0
91.433205 212.0
91.529106 188.0
91.809227 236.0
92.048988 1488.0
92.181473 176.0
92.244545 184.0
92.357361 144.0
92.594688 196.0
92.619591 144.0
93.048256 168.0
93.070259 228.0
93.439285 196.0
93.730019 236.0
95.085625 208.0
95.542252 204.0
95.892754 160.0
96.12249 164.0
96.165802 140.0
96.236076 252.0
96.347404 176.0
96.437439 160.0
96.865799 188.0
97.032379 144.0
97.218712 152.0
97.312935 192.0
97.564407 156.0
97.645027 208.0
98.119576 180.0
98.174789 184.0
98.38591 160.0
98.439217 148.0
99.020638 224.0
99.053833 156.0
99.141479 144.0
99.87011 152.0
100.0522 148.0
100.096985 172.0
100.114906 220.0
100.91906 168.0
101.033058 160.0
101.311325 152.0
101.495712 196.0
102.764885 184.0
102.797165 176.0
103.007141 196.0
103.19957 164.0
103.804558 164.0
103.905968 156.0
103.988876 196.0
104.570442 156.0
104.603004 168.0
104.818886 152.0
105.020714 204.0
105.243156 188.0
105.314629 188.0
105.725571 196.0
106.114754 192.0
106.213188 356.0
106.961136 152.0
107.116699 292.0
108.004395 180.0
108.043999 11892.0
108.661903 164.0
108.892311 156.0
109.046539 380.0
109.707977 184.0
109.737167 184.0
110.032959 236.0
110.192154 152.0
110.497391 192.0
111.006371 144.0
111.021049 512.0
111.037674 168.0
111.279144 196.0
111.35894 160.0
111.600601 168.0
111.638451 252.0
111.823586 184.0
112.245476 164.0
112.70929 140.0
112.736763 184.0
113.058548 444.0
113.303818 156.0
113.558189 248.0
113.872299 168.0
114.065742 188.0
114.261299 188.0
114.280449 164.0
114.518867 168.0
114.672272 196.0
114.727692 168.0
115.043999 204.0
115.077576 160.0
115.297592 180.0
115.86248 196.0
116.177612 184.0
117.138519 172.0
117.22039 220.0
117.384216 160.0
117.794281 164.0
118.224533 164.0
119.037453 180.0
119.326294 192.0
119.59182 144.0
119.824829 180.0
120.25222 176.0
120.375465 168.0
120.888184 156.0
121.422714 236.0
121.558731 168.0
121.727753 160.0
122.063957 196.0
122.270744 188.0
122.665001 148.0
123.020149 208.0
123.192398 256.0
123.904739 152.0
123.951271 180.0
124.013725 132.0
124.050301 352.0
124.750259 216.0
124.852539 212.0
124.948189 140.0
125.034966 340.0
125.056213 780.0
125.221977 168.0
125.797249 204.0
126.064766 432.0
126.452682 172.0
126.960724 200.0
127.049599 988.0
127.926865 140.0
128.053268 148.0
128.330139 148.0
128.944138 188.0
129.462204 144.0
129.643433 212.0
129.956345 148.0
130.190155 212.0
130.398514 196.0
131.059097 148.0
131.248276 144.0
131.490082 172.0
131.556274 184.0
131.647598 144.0
131.983505 152.0
132.06163 152.0
132.611755 148.0
132.77124 152.0
133.048889 140.0
133.172882 172.0
133.552124 180.0
133.568222 140.0
134.566071 176.0
135.095306 208.0
135.254974 212.0
135.971146 152.0
136.298584 208.0
136.712494 164.0
137.060898 156.0
137.101395 164.0
137.350876 224.0
138.045883 160.0
138.133392 196.0
138.517273 164.0
138.653168 240.0
138.744583 164.0
139.039429 492.0
139.399429 176.0
139.418228 144.0
140.013046 192.0
140.043213 160.0
140.230179 164.0
140.390686 240.0
140.451813 164.0
140.541458 256.0
140.845993 172.0
141.05246 1864.0
141.098846 164.0
141.257889 204.0
141.709457 208.0
142.062668 284.0
142.780014 192.0
143.763901 268.0
143.795273 164.0
143.955612 184.0
144.053009 140.0
144.743988 184.0
145.059967 152.0
145.537659 172.0
146.326263 180.0
146.456299 204.0
146.490021 232.0
147.074356 264.0
147.484177 216.0
147.602631 140.0
147.680023 212.0
147.704208 192.0
147.958298 208.0
148.073776 192.0
148.101166 160.0
148.782562 160.0
149.33786 176.0
149.441193 148.0
149.725998 148.0
150.520981 164.0
150.547836 156.0
150.936371 156.0
151.083115 196.0
151.876785 224.0
152.230194 276.0
152.252289 152.0
152.945633 164.0
153.046555 172.0
153.370331 140.0
153.499939 200.0
154.061356 4212.0
154.171387 236.0
154.208466 176.0
154.450775 208.0
154.767548 144.0
155.068024 1824.0
155.208588 188.0
155.429352 160.0
155.543945 156.0
155.603088 180.0
155.637207 172.0
155.679138 152.0
155.764511 208.0
155.796799 276.0
155.846481 156.0
155.963287 232.0
155.981873 244.0
156.010574 14116.0
156.07634 37596.0
156.116348 180.0
156.142365 168.0
156.187988 104.0
156.252365 112.0
156.286362 248.0
156.329391 212.0
157.013077 1088.0
157.047318 700.0
157.07901 3312.0
157.230621 128.0
157.486481 100.0
157.735535 228.0
157.842087 116.0
158.006866 1168.0
158.064606 212.0
158.080429 148.0
158.344788 112.0
158.616638 196.0
159.736572 192.0
159.761719 188.0
160.04863 164.0
160.174561 140.0
160.263885 148.0
160.292969 140.0
160.386215 252.0
161.004349 144.0
161.646591 132.0
162.655136 144.0
162.698288 160.0
162.850647 176.0
162.942093 140.0
163.486221 216.0
164.036896 116.0
164.730453 168.0
165.35434 172.0
165.779449 164.0
166.794464 116.0
167.009216 164.0
168.047379 212.0
168.073181 180.0
168.930908 144.0
169.694901 204.0
169.75972 172.0
169.891998 192.0
169.954269 196.0
170.051788 144.0
170.086609 148.0
170.283951 188.0
170.595749 224.0
170.847992 196.0
171.063095 288.0
172.005005 156.0
172.044159 424.0
172.072311 508.0
172.153824 232.0
172.349731 224.0
172.475174 152.0
172.684341 148.0
173.056519 3764.0
174.059052 464.0
175.048889 148.0
175.183212 260.0
175.565384 168.0
176.16188 144.0
177.413589 212.0
177.658463 176.0
179.151581 212.0
180.034424 156.0
180.189346 156.0
180.256149 164.0
180.526138 180.0
180.734772 160.0
181.211365 360.0
181.281036 152.0
181.530334 156.0
181.833481 184.0
181.895203 256.0
182.281952 184.0
182.760574 140.0
183.01358 192.0
183.34491 208.0
183.576752 228.0
183.873489 220.0
183.951767 176.0
184.156982 172.0
185.092682 156.0
185.187469 152.0
185.539734 224.0
185.574982 184.0
186.085052 156.0
187.063736 232.0
187.374191 188.0
187.611282 160.0
187.982224 160.0
188.083191 196.0
188.645905 156.0
188.894745 156.0
189.31897 140.0
190.833649 172.0
191.0383 176.0
191.644211 96.0
192.576981 140.0
192.821136 188.0
192.920639 156.0
193.537598 268.0
193.972549 144.0
194.691147 244.0
195.221924 180.0
195.291458 152.0
195.530731 184.0
195.970703 164.0
196.324707 144.0
197.103516 148.0
197.867081 168.0
198.35733 192.0
199.393021 164.0
199.578552 160.0
200.592056 184.0
200.645615 140.0
200.921997 208.0
201.076569 356.0
201.362335 196.0
201.53064 132.0
201.591171 172.0
202.032791 164.0
202.12561 172.0
202.207672 176.0
202.944199 140.0
203.003738 164.0
204.398483 152.0
205.084808 164.0
207.954529 180.0
208.395798 204.0
208.473373 148.0
209.687836 196.0
209.979034 200.0
211.466949 196.0
211.979538 196.0
213.99826 188.0
214.12056 192.0
214.995163 280.0
215.05751 320.0
215.084686 260.0
215.707809 140.0
216.673523 176.0
217.05162 140.0
217.579742 180.0
218.021027 4592.0
218.811569 220.0
219.026184 616.0
219.206253 152.0
219.330032 156.0
219.356567 168.0
219.642593 192.0
219.666183 148.0
219.771698 168.0
220.013214 584.0
220.035065 188.0
221.170212 160.0
221.235336 156.0
221.313812 140.0
221.392258 144.0
221.48111 144.0
221.599213 180.0
221.839661 180.0
222.590286 176.0
224.008942 176.0
225.2379 140.0
225.734024 184.0
225.802795 148.0
226.039139 140.0
226.075043 172.0
227.904175 172.0
228.102524 148.0
228.917862 160.0
229.02327 212.0
229.078796 164.0
229.689407 168.0
230.078766 1808.0
231.078888 408.0
232.045181 172.0
232.588181 140.0
234.26976 268.0
234.589737 236.0
234.797073 176.0
236.032379 328.0
236.814209 156.0
236.97963 188.0
237.884323 180.0
237.982574 148.0
238.083908 172.0
238.114609 144.0
240.041061 220.0
241.220444 144.0
241.297729 140.0
241.860733 192.0
242.709579 184.0
243.330124 244.0
244.153549 148.0
244.542435 204.0
244.813293 156.0
245.101562 6676.0
245.420914 168.0
245.668884 220.0
245.78273 140.0
245.887848 216.0
246.105011 1012.0
246.448975 192.0
246.826004 208.0
246.938583 220.0
247.121689 220.0
247.18573 192.0
247.674118 168.0
247.99057 184.0
248.680588 204.0
248.813904 204.0
248.8815 184.0
248.975708 184.0
249.010254 184.0
249.125397 140.0
249.623062 148.0
250.116989 196.0
250.835175 156.0
251.3871 168.0
251.930161 164.0
252.594009 224.0
255.085541 252.0
255.407547 148.0
257.562286 160.0
258.479797 144.0
258.508606 148.0
258.950409 152.0
260.480377 176.0
261.293701 152.0
261.338745 160.0
261.753937 220.0
262.209747 144.0
262.578918 152.0
262.657593 120.0
263.011261 248.0
264.915863 212.0
265.765289 188.0
266.235962 152.0
266.447083 140.0
266.7883 224.0
267.370544 160.0
267.523499 188.0
267.920807 176.0
269.189575 184.0
270.533356 160.0
271.093414 172.0
272.639069 184.0
272.829712 180.0
273.698303 140.0
274.3078 164.0
276.35202 148.0
277.303436 128.0
278.377289 148.0
279.254639 184.0
279.584015 192.0
279.890259 152.0
279.963531 212.0
280.013489 160.0
280.343842 120.0
280.656616 148.0
280.950104 160.0
281.647766 172.0
282.155701 160.0
282.660767 208.0
282.744415 160.0
282.784576 180.0
282.962006 164.0
283.948944 156.0
284.04776 144.0
284.843323 176.0
285.165863 156.0
285.498718 156.0
285.656769 220.0
285.680328 156.0
285.899017 156.0
286.175049 172.0
286.299652 192.0
288.08728 160.0
288.259583 140.0
290.114319 144.0
290.392365 112.0
291.465118 148.0
291.658813 164.0
291.818604 196.0
291.890015 156.0
291.985229 160.0
293.066345 556.0
293.619934 180.0
294.046387 204.0
294.148804 208.0
294.240967 180.0
294.579041 200.0
295.228455 224.0
295.440491 148.0
295.649231 184.0
295.673187 204.0
296.197021 184.0
297.369659 144.0
298.365814 236.0
298.396729 180.0
298.682159 172.0
299.921753 180.0
300.156158 148.0
300.283752 240.0
300.663269 184.0
300.935974 168.0
300.998108 184.0
301.561218 164.0
302.761719 212.0
303.298737 164.0
304.224915 144.0
304.495758 160.0
304.725006 148.0
304.794495 152.0
305.281158 140.0
305.569855 164.0
305.768188 176.0
305.90741 140.0
306.534332 180.0
306.806183 144.0
307.458435 148.0
307.545685 156.0
307.701477 204.0
307.835449 200.0
308.116852 120.0
308.212708 176.0
308.436371 168.0
309.13385 464.0
309.188354 200.0
309.382904 96.0
309.64328 120.0
309.748535 224.0
310.00589 160.0
310.067383 144.0
310.106873 120.0
310.132965 388.0
310.169037 172.0
310.249664 180.0
310.302246 196.0
310.338409 180.0
310.405457 176.0
310.557739 144.0
310.627228 160.0
310.698639 180.0
310.762756 200.0
310.814117 312.0
310.850677 336.0
310.877014 356.0
310.916962 108.0
310.943787 332.0
310.981445 440.0
311.081512 188672.0
311.216858 148.0
311.315491 128.0
311.354645 192.0
311.413757 224.0
311.458252 120.0
311.523743 156.0
311.658813 1212.0
311.732422 172.0
311.843262 112.0
311.987396 144.0
312.082581 21920.0
312.292297 112.0
312.346863 108.0
312.499329 128.0
312.547546 128.0
312.590393 104.0
312.628815 132.0
312.94516 136.0
313.079346 7336.0
313.402618 164.0
313.525543 192.0
313.644806 172.0
313.68515 156.0
313.796326 200.0
313.823517 208.0
313.959503 120.0
314.075775 480.0
314.156952 144.0
314.254822 124.0
314.321411 140.0
314.352539 132.0
314.381561 124.0
314.415558 152.0
314.445892 128.0
314.552032 100.0
315.093445 148.0
315.695221 112.0
315.784393 124.0
316.246582 128.0
322.475494 148.0
325.160767 100.0
345.164185 160.0
381.706604 160.0
478.694031 152.0
531.529968 152.0
1053.841309 136.0
1122.07666 220.0
1134.692383 144.0
1202.414795 172.0
1204.285889 196.0
1248.557495 140.0
1270.843872 200.0
1324.715576 168.0
1325.164795 152.0
1325.432861 164.0
1356.069458 260.0
1392.346313 164.0
1393.037109 184.0
1412.365356 144.0
1436.764038 152.0
1442.253784 188.0
1453.917236 336.0
1465.505859 196.0
1473.501587 184.0
1473.616211 224.0
1474.074585 196.0
1476.39856 220.0
1484.745972 176.0
1485.52832 156.0
1491.333252 168.0
1501.056396 184.0
1505.362183 200.0
1508.831421 236.0
1519.456909 188.0
1522.923706 216.0
1529.341309 172.0
1533.453613 184.0
1552.929321 208.0
1561.246216 164.0
1561.442871 176.0
1561.859741 248.0
1563.645752 144.0
1573.82251 224.0
1577.930908 184.0
1581.65686 164.0
1588.487183 192.0
1591.558594 152.0
1594.696411 140.0
1599.826904 220.0
1611.414673 148.0
1612.06189 168.0
1617.164185 148.0
1617.900513 168.0
1619.285767 184.0
1621.625244 144.0
1625.490601 172.0
1631.200928 164.0
1649.345337 176.0
1652.612427 212.0
1655.809937 180.0
1656.96814 200.0
1662.084229 144.0
1667.078125 204.0
1672.307373 144.0
1688.911255 144.0
1691.40686 156.0
1695.247925 172.0
1696.419922 156.0
1700.668823 164.0
1702.064453 204.0
1728.035889 168.0
1737.546875 180.0
1745.611816 176.0
1746.144043 180.0
1748.481812 156.0
1748.947876 232.0
1753.503784 232.0
1755.487793 188.0
1759.476074 164.0
1764.028931 164.0
1770.027588 208.0
1776.355103 164.0
1788.606323 212.0
1788.673706 188.0
1801.305176 156.0
1817.822998 172.0
1820.913208 196.0
1821.29541 144.0
1821.50769 144.0
1824.736938 156.0
1827.713867 204.0
1835.720825 224.0
1838.988159 168.0
1839.210083 168.0
1839.338135 188.0
1843.480347 200.0
1848.286011 212.0
1848.576904 180.0
1848.717407 192.0
1856.277832 180.0
1860.23291 280.0
1861.469238 168.0
1864.364258 148.0
1869.128052 152.0
1871.228271 212.0
1871.925659 180.0
1874.303101 156.0
1876.906128 232.0
1879.43335 164.0
1886.402832 168.0
1886.705444 152.0
1889.109497 156.0
1891.17749 176.0
1893.134399 132.0
1893.965576 148.0
1894.355347 172.0
1895.239014 168.0
1901.916504 140.0
1902.150879 176.0
1902.854004 168.0
1903.253418 196.0
1909.744995 168.0
1912.433472 160.0
1914.07019 160.0
1915.855591 172.0
1918.312988 172.0
1921.103516 168.0
1925.223145 208.0
1928.071045 168.0
1930.527588 152.0
1931.069824 236.0
1931.314697 180.0
1932.574463 164.0
1933.624512 172.0
1936.233398 144.0
1939.06311 156.0
1940.071167 204.0
1942.824829 196.0
1948.399414 220.0
1948.935303 144.0
1958.004639 168.0
1964.579956 204.0
1964.694702 152.0
1965.179932 248.0
1969.002075 144.0
1974.118774 204.0
1979.162476 180.0
1983.22876 212.0
1991.524536 224.0
1993.736816 160.0
1996.047974 156.0
1998.004761 220.0
1998.262695 144.0
1999.517334 260.0
2000.11377 148.0
2002.490967 180.0
