>compound MLS001076340-01!
>formula C19H26Cl2N2O
>ionization [M+H]+
>parentmass 369.148499
#inchi InChI=1S/C19H26Cl2N2O/c1-22(19(24)13-14-8-9-15(20)16(21)12-14)17-6-2-3-7-18(17)23-10-4-5-11-23/h8-9,12,17-18H,2-7,10-11,13H2,1H3/t17-,18-/m1/s1
#inchikey VQLPLYSROCPWFF
#origInchi InChI=1S/C19H26Cl2N2O.CH4O3S/c1-22(19(24)13-14-8-9-15(20)16(21)12-14)17-6-2-3-7-18(17)23-10-4-5-11-23;1-5(2,3)4/h8-9,12,17-18H,2-7,10-11,13H2,1H3;1H3,(H,2,3,4)/t17-,18-;/m1./s1
#Ion_Source LC-ESI
#Instrument qTof
#Compound_Source NIH Pharmacologically Active Library
#PI Dorrestein
#Data_Collector VP/LMS
#Scan -1
#Precursor_MZ 369.153
#ExactMass 368.142
#Charge 1
#CAS_Number N/A
#Pubmed_ID N/A
#Smiles CN([C@@H]1CCCC[C@H]1N2CCCC2)C(=O)Cc3ccc(Cl)c(Cl)c3.CS(=O)(=O)O
#INCHI_AUX N/A
#Library_Class 1
#SpectrumID CCMSLIB00000085115
#IonMode Positive
#UpdateWorkflowName UPDATE-SINGLE-ANNOTATED-GOLD
#LibraryQualityString Gold
#TaskID d252d724072548979f1f6f1ced849daf
##Scan# 1759
#SpectrumFile p3-F02_GF2_01_18283.mzXML
#LibraryName Pharm_Active_Library.mgf
#MQScore -1
#Organism Pharm_Active_Library
#TIC_Query 0
#RT_Query -1
#MZErrorPPM -1
#SharedPeaks 0
#MassDiff 0
#LibMZ -1
#SpecMZ 369.153
#SpecCharge 0
#internalFilename spec-00000.mgf

>collision 10
45.050636 264.0
45.113449 164.0
45.144974 160.0
45.157001 212.0
45.229839 80.0
45.248581 88.0
45.304832 128.0
45.387936 80.0
45.429516 176.0
45.464405 176.0
45.500648 164.0
45.511391 108.0
45.575867 132.0
45.590588 172.0
45.659218 164.0
45.684776 32.0
45.694195 164.0
45.717072 136.0
45.757454 140.0
45.866581 200.0
45.932659 196.0
45.987984 168.0
46.1758 148.0
46.233978 140.0
46.263996 184.0
46.301674 124.0
46.359932 212.0
46.377552 188.0
46.387043 120.0
46.410091 180.0
46.433147 376.0
46.480629 120.0
46.555294 172.0
46.572952 224.0
46.61507 128.0
46.772846 208.0
46.798717 124.0
46.88863 176.0
46.918091 124.0
46.955437 120.0
46.988178 192.0
47.000458 208.0
47.012741 68.0
47.097393 152.0
47.15205 56.0
47.225887 144.0
47.26693 44.0
47.280617 124.0
47.292934 188.0
47.302517 224.0
47.47065 164.0
47.542389 124.0
47.627522 304.0
47.686607 132.0
47.724342 64.0
47.800758 144.0
47.836544 64.0
47.887497 236.0
47.912292 40.0
47.996372 108.0
48.017059 180.0
48.046028 192.0
48.148182 44.0
48.17028 56.0
48.221409 136.0
48.311295 188.0
48.326515 184.0
48.392956 152.0
48.409573 204.0
48.435886 196.0
48.481613 188.0
48.492702 40.0
48.571739 200.0
48.711948 180.0
48.733585 252.0
48.788387 128.0
48.835667 248.0
48.890533 240.0
48.927517 136.0
48.944225 140.0
49.033386 244.0
49.128208 188.0
49.211449 144.0
49.235695 156.0
49.246868 176.0
49.259441 160.0
49.38385 132.0
49.415913 144.0
49.481812 176.0
49.500015 212.0
49.553246 100.0
49.649975 136.0
49.796677 184.0
49.808586 160.0
49.826504 180.0
49.843712 204.0
49.856358 148.0
50.025154 108.0
50.122341 100.0
50.199875 208.0
50.269001 268.0
50.324055 180.0
50.390442 104.0
50.517685 132.0
50.619598 180.0
50.646507 128.0
50.667759 352.0
50.687595 172.0
50.73579 112.0
50.791698 208.0
50.805283 116.0
50.870567 116.0
50.967152 156.0
51.053867 124.0
51.119312 172.0
51.140659 104.0
51.181946 156.0
51.203308 168.0
51.244621 168.0
51.261723 196.0
51.277401 160.0
51.34441 144.0
51.358677 156.0
51.423111 204.0
51.52142 200.0
51.544281 116.0
51.602886 160.0
51.618618 136.0
51.647221 88.0
51.713043 184.0
51.748833 236.0
51.770313 112.0
51.798962 196.0
51.823318 156.0
51.859146 104.0
51.963837 120.0
51.993412 164.0
52.074375 152.0
52.128971 152.0
52.173534 200.0
52.184536 208.0
52.20948 152.0
52.222427 56.0
52.304447 72.0
52.341881 240.0
52.363483 124.0
52.571098 212.0
52.669281 136.0
52.706844 184.0
52.845661 140.0
52.858685 116.0
52.873158 156.0
52.886185 136.0
52.926723 124.0
52.939754 144.0
53.05278 136.0
53.082348 216.0
53.142704 112.0
53.17318 128.0
53.196865 164.0
53.210922 100.0
53.225445 208.0
53.241417 152.0
53.263206 180.0
53.291779 108.0
53.3097 200.0
53.41148 160.0
53.433304 196.0
53.537491 108.0
53.587643 36.0
53.599297 144.0
53.681488 84.0
53.694061 92.0
53.746578 84.0
53.788906 176.0
53.834167 232.0
53.864368 136.0
53.894062 84.0
53.918907 188.0
53.956913 192.0
53.967148 28.0
54.047218 152.0
54.112007 52.0
54.123722 80.0
54.166195 172.0
54.233604 120.0
54.331856 164.0
54.368542 236.0
54.389091 148.0
54.444889 160.0
54.463264 188.0
54.516876 112.0
54.555096 184.0
54.622742 184.0
54.716934 108.0
54.771423 172.0
54.873112 188.0
54.917355 40.0
54.929157 176.0
54.989655 172.0
55.013275 176.0
55.032467 168.0
55.064342 180.0
55.118004 168.0
55.16692 176.0
55.303017 128.0
55.323116 152.0
55.328789 88.0
55.334892 188.0
55.353352 160.0
55.377048 204.0
55.391865 212.0
55.406677 160.0
55.497093 108.0
55.520741 148.0
55.559387 148.0
55.627655 176.0
55.68111 144.0
55.737568 160.0
55.857998 132.0
55.877338 180.0
55.89222 196.0
56.024734 184.0
56.038147 132.0
56.067951 208.0
56.078384 160.0
56.096272 36.0
56.130566 116.0
56.150616 144.0
56.200676 164.0
56.215599 164.0
56.232975 112.0
56.354473 200.0
56.366428 140.0
56.394825 136.0
56.412762 184.0
56.424725 136.0
56.480057 132.0
56.503994 124.0
56.52644 140.0
56.5457 124.0
56.602787 160.0
56.620758 204.0
56.673191 156.0
56.70916 184.0
56.844139 152.0
56.869656 152.0
56.956749 84.0
56.988297 112.0
57.007832 136.0
57.019855 220.0
57.053421 208.0
57.072475 100.0
57.17778 160.0
57.25758 76.0
57.326881 104.0
57.337433 92.0
57.378132 220.0
57.396229 44.0
57.456562 136.0
57.51693 152.0
57.527496 156.0
57.557415 152.0
57.653927 160.0
57.681587 132.0
57.696705 216.0
57.791992 128.0
57.802586 160.0
57.817719 192.0
57.905537 260.0
57.923714 232.0
57.950981 52.0
57.987354 88.0
58.022221 264.0
58.093502 100.0
58.164825 76.0
58.182575 220.0
58.202785 200.0
58.288761 184.0
58.342495 160.0
58.379566 236.0
58.411114 172.0
58.512287 124.0
58.63789 196.0
58.666855 224.0
58.746159 100.0
58.762939 184.0
58.779724 184.0
58.82246 116.0
58.834675 128.0
59.014969 176.0
59.030563 160.0
59.076145 52.0
59.096035 80.0
59.137356 264.0
59.198811 232.0
59.235359 176.0
59.256809 100.0
59.388653 168.0
59.428539 184.0
59.451557 164.0
59.466908 148.0
59.519104 56.0
59.531391 128.0
59.648163 132.0
59.695827 76.0
59.717361 140.0
59.734283 224.0
59.814304 224.0
59.841377 124.0
59.857414 140.0
59.885136 204.0
60.019218 160.0
60.041672 136.0
60.071659 200.0
60.093258 204.0
60.136471 148.0
60.190506 180.0
60.273922 160.0
60.311016 128.0
60.354305 200.0
60.365131 288.0
60.442478 172.0
60.481171 148.0
60.575634 160.0
60.616367 124.0
60.645367 108.0
60.682571 152.0
60.764778 180.0
60.819096 180.0
60.857906 244.0
60.868126 188.0
60.892075 100.0
60.958878 156.0
61.035053 168.0
61.064602 104.0
61.08638 176.0
61.157959 124.0
61.279434 184.0
61.39167 176.0
61.499329 200.0
61.55085 160.0
61.563343 92.0
61.574276 140.0
61.585209 148.0
61.653957 192.0
61.672714 148.0
61.734001 180.0
61.882351 180.0
61.934032 152.0
62.009243 120.0
62.057842 132.0
62.150387 176.0
62.224159 160.0
62.235149 100.0
62.247715 140.0
62.258705 184.0
62.315258 192.0
62.537003 180.0
62.598404 176.0
62.65781 196.0
62.724453 228.0
62.779636 200.0
62.852955 252.0
62.882191 148.0
62.901131 128.0
62.913761 224.0
62.943764 156.0
62.981667 136.0
63.033806 140.0
63.101101 204.0
63.184021 204.0
63.296406 84.0
63.331249 136.0
63.35358 124.0
63.394623 72.0
63.410473 132.0
63.530991 196.0
63.613514 128.0
63.687462 168.0
63.702446 140.0
63.740715 188.0
63.816879 248.0
63.831192 112.0
63.851868 220.0
63.86618 120.0
63.878906 188.0
63.968025 208.0
64.070908 200.0
64.112976 176.0
64.160797 220.0
64.181923 192.0
64.297981 208.0
64.343819 196.0
64.369827 128.0
64.443306 124.0
64.484856 208.0
64.536011 88.0
64.554108 204.0
64.587189 156.0
64.621506 152.0
64.639832 200.0
64.739243 144.0
64.776085 180.0
64.788902 156.0
64.880257 144.0
64.952423 216.0
64.96846 160.0
64.9813 140.0
65.04068 236.0
65.172379 216.0
65.191658 180.0
65.22863 100.0
65.26239 244.0
65.292633 204.0
65.353172 200.0
65.416847 72.0
65.474815 232.0
65.486092 56.0
65.532806 184.0
65.571487 152.0
65.585991 212.0
65.606949 148.0
65.639198 128.0
65.807747 164.0
65.900696 144.0
65.95784 124.0
66.047821 36.0
66.07856 144.0
66.138435 236.0
66.185387 216.0
66.209862 176.0
66.243698 140.0
66.318237 124.0
66.426888 136.0
66.592453 148.0
66.621696 184.0
66.642815 116.0
66.683449 196.0
66.706169 172.0
66.709763 168.0
66.716248 204.0
66.746185 224.0
66.828186 116.0
66.849335 136.0
66.894913 148.0
66.938873 164.0
67.036621 188.0
67.101822 136.0
67.220901 148.0
67.284561 216.0
67.348251 108.0
67.411972 140.0
67.459373 140.0
67.482605 76.0
67.516602 192.0
67.559738 172.0
67.57386 120.0
67.824425 156.0
67.857216 208.0
67.958908 208.0
67.972038 144.0
68.008141 180.0
68.15905 136.0
68.236496 144.0
68.251297 156.0
68.478409 52.0
68.564079 160.0
68.628372 192.0
68.657219 124.0
68.667953 156.0
68.738899 196.0
68.836296 140.0
68.902367 192.0
68.913933 120.0
69.135521 140.0
69.173592 220.0
69.200081 144.0
69.327637 72.0
69.486824 232.0
69.498444 160.0
69.617966 208.0
69.717644 220.0
69.767517 188.0
69.855659 132.0
69.948845 120.0
69.995468 220.0
70.070427 192.0
70.155426 156.0
70.31723 156.0
70.332253 120.0
70.407387 136.0
70.420753 188.0
70.465858 80.0
70.479225 132.0
70.536049 212.0
70.594612 160.0
70.614639 248.0
70.68615 172.0
70.75856 124.0
70.822197 64.0
70.845909 228.0
70.911003 172.0
70.939499 184.0
71.103882 160.0
71.11731 164.0
71.218056 160.0
71.234856 80.0
71.256699 148.0
71.299347 168.0
71.335686 200.0
71.376045 68.0
71.439148 100.0
71.564507 220.0
71.583031 348.0
71.712753 96.0
71.739731 236.0
71.792 168.0
71.815613 112.0
71.832481 412.0
71.856102 180.0
71.928673 184.0
71.967949 196.0
71.987762 188.0
72.010971 200.0
72.126312 156.0
72.175339 184.0
72.2024 108.0
72.298836 144.0
72.32457 176.0
72.337769 168.0
72.420746 128.0
72.446152 216.0
72.524101 144.0
72.56472 196.0
72.603798 164.0
72.645943 156.0
72.827759 168.0
72.846527 184.0
72.889 144.0
72.91449 156.0
73.054695 240.0
73.094765 100.0
73.108376 180.0
73.195198 220.0
73.312744 92.0
73.377525 128.0
73.396278 200.0
73.41674 104.0
73.522522 84.0
73.585678 236.0
73.645454 184.0
73.691582 120.0
73.712082 120.0
73.857414 196.0
74.028564 256.0
74.042267 84.0
74.074814 128.0
74.189636 56.0
74.211922 160.0
74.227356 212.0
74.289101 180.0
74.376625 108.0
74.393791 200.0
74.410957 220.0
74.461044 224.0
74.49855 96.0
74.582756 156.0
74.627457 120.0
74.675606 148.0
74.7341 52.0
74.773682 176.0
74.828766 132.0
74.882149 176.0
74.916603 124.0
74.954514 120.0
74.975189 164.0
74.994148 156.0
75.047592 140.0
75.066917 176.0
75.104507 148.0
75.218399 260.0
75.323738 156.0
75.375565 144.0
75.403221 192.0
75.461998 132.0
75.584808 316.0
75.64019 136.0
75.686943 220.0
75.822067 152.0
75.874069 152.0
75.980827 392.0
76.026718 132.0
76.134361 176.0
76.21386 168.0
76.299438 228.0
76.325523 220.0
76.436852 184.0
76.454254 72.0
76.522148 192.0
76.600517 120.0
76.741684 260.0
76.753654 148.0
76.785286 68.0
76.818428 160.0
76.900444 120.0
76.916153 144.0
76.930115 136.0
76.952812 132.0
76.989487 196.0
77.003456 156.0
77.041885 144.0
77.06028 228.0
77.091103 224.0
77.274422 96.0
77.433723 292.0
77.46701 28.0
77.498222 196.0
77.586182 204.0
77.679131 204.0
77.74472 200.0
77.787209 204.0
77.838699 188.0
77.866707 144.0
77.907349 180.0
77.944252 144.0
78.046204 148.0
78.143944 212.0
78.197502 176.0
78.21862 140.0
78.444107 124.0
78.463501 28.0
78.520805 156.0
78.546394 92.0
78.659332 148.0
78.708763 136.0
78.74585 156.0
78.781181 176.0
78.807686 200.0
78.843025 104.0
78.8554 164.0
78.883682 152.0
78.959717 256.0
79.004707 212.0
79.076492 136.0
79.103043 116.0
79.116791 136.0
79.200439 228.0
79.260674 144.0
79.310768 152.0
79.369789 148.0
79.42556 204.0
79.458961 160.0
79.542137 180.0
79.55407 164.0
79.679428 36.0
79.741623 180.0
79.754066 208.0
79.814514 156.0
79.896194 152.0
79.909294 196.0
79.949715 208.0
80.035164 236.0
80.128723 236.0
80.170555 196.0
80.291748 180.0
80.323898 148.0
80.397049 156.0
80.420258 148.0
80.448814 188.0
80.493454 144.0
80.528923 228.0
80.550606 172.0
80.679283 96.0
80.749458 212.0
80.778183 184.0
80.902916 188.0
80.981705 148.0
80.999619 148.0
81.039032 128.0
81.058746 188.0
81.103546 128.0
81.178856 152.0
81.22728 244.0
81.338539 180.0
81.352898 116.0
81.388809 236.0
81.435501 208.0
81.453468 124.0
81.566681 120.0
81.647591 228.0
81.744743 40.0
81.760941 160.0
81.80954 160.0
81.822144 116.0
81.903183 148.0
81.915794 156.0
81.955429 168.0
81.978851 128.0
82.105057 180.0
82.157364 256.0
82.180824 48.0
82.207886 180.0
82.272873 120.0
82.285843 236.0
82.327042 188.0
82.375809 204.0
82.462997 80.0
82.489662 196.0
82.505928 116.0
82.522202 184.0
82.563797 184.0
82.604019 200.0
82.621681 184.0
82.647011 204.0
82.682617 148.0
82.744751 96.0
82.882713 72.0
82.903053 184.0
82.944031 176.0
82.96035 140.0
82.982109 80.0
83.045578 200.0
83.090927 160.0
83.118149 132.0
83.143555 88.0
83.179855 152.0
83.214348 140.0
83.350586 128.0
83.423286 184.0
83.566971 224.0
83.599724 124.0
83.663429 124.0
83.70713 196.0
83.836479 156.0
83.914864 216.0
83.973221 128.0
84.018822 220.0
84.03524 176.0
84.13015 108.0
84.203194 184.0
84.226936 176.0
84.25251 164.0
84.321953 216.0
84.3703 248.0
84.405418 232.0
84.455429 204.0
84.625633 184.0
84.717209 152.0
84.737923 168.0
84.781342 152.0
84.797836 180.0
84.871162 172.0
84.891335 136.0
84.955536 116.0
84.968376 120.0
85.0271 176.0
85.043617 128.0
85.199707 76.0
85.28717 176.0
85.309982 152.0
85.355949 140.0
85.433197 188.0
85.446075 140.0
85.542015 136.0
85.573074 64.0
85.58596 156.0
85.615425 232.0
85.650421 172.0
85.832886 212.0
85.9897 248.0
86.074623 148.0
86.133728 76.0
86.179916 140.0
86.29174 192.0
86.463585 212.0
86.549866 140.0
86.581345 184.0
86.649887 252.0
86.664711 136.0
86.688835 200.0
86.778641 188.0
86.876076 128.0
86.889061 108.0
86.992004 204.0
87.005989 36.0
87.041267 160.0
87.098839 200.0
87.122955 200.0
87.129677 140.0
87.190697 156.0
87.21405 148.0
87.230782 56.0
87.256805 156.0
87.288414 124.0
87.366539 92.0
87.424225 156.0
87.496819 148.0
87.556404 164.0
87.673782 156.0
87.789368 344.0
87.830399 188.0
87.863983 136.0
87.927429 120.0
87.951126 204.0
87.97036 152.0
87.996155 216.0
88.018906 140.0
88.146614 220.0
88.203873 180.0
88.235649 180.0
88.248741 288.0
88.304848 148.0
88.357224 80.0
88.398102 156.0
88.51947 124.0
88.555656 160.0
88.574387 184.0
88.589371 196.0
88.70369 168.0
88.756882 184.0
88.855598 124.0
88.906265 208.0
88.994492 156.0
89.026413 132.0
89.050835 48.0
89.159927 188.0
89.235001 184.0
89.255684 112.0
89.295174 148.0
89.313988 204.0
89.34597 132.0
89.376068 168.0
89.393005 156.0
89.421242 176.0
89.470184 48.0
89.50219 108.0
89.590714 220.0
89.65667 120.0
89.669861 240.0
89.739609 160.0
89.764122 240.0
89.87542 132.0
89.986694 160.0
90.066101 192.0
90.112511 160.0
90.136009 120.0
90.215393 112.0
90.448082 188.0
90.487831 116.0
90.518135 184.0
90.561691 204.0
90.584419 116.0
90.627998 184.0
90.667793 52.0
90.717079 104.0
90.832756 128.0
90.927628 128.0
90.9599 148.0
91.007362 48.0
91.05674 36.0
91.075737 160.0
91.089027 52.0
91.146027 192.0
91.290146 212.0
91.30043 220.0
91.456032 152.0
91.54303 208.0
91.587418 180.0
91.61409 84.0
91.649162 256.0
91.675064 160.0
91.733864 132.0
91.852386 108.0
91.891174 120.0
91.919167 64.0
91.995514 32.0
92.058525 140.0
92.077621 128.0
92.366249 212.0
92.395302 172.0
92.527 132.0
92.598206 176.0
92.628502 156.0
92.651489 148.0
92.670654 152.0
92.730057 240.0
92.750603 156.0
92.826187 144.0
92.906479 88.0
92.929504 128.0
92.95253 128.0
92.998589 132.0
93.013947 252.0
93.077309 160.0
93.094589 172.0
93.129158 132.0
93.135612 156.0
93.144852 188.0
93.188461 184.0
93.215614 140.0
93.422852 128.0
93.450851 224.0
93.513718 228.0
93.554146 112.0
93.673546 156.0
93.735199 216.0
93.82386 348.0
93.910645 132.0
93.985878 112.0
94.012856 176.0
94.111351 64.0
94.229172 144.0
94.269753 140.0
94.388153 144.0
94.415329 132.0
94.447624 40.0
94.519737 260.0
94.57666 240.0
94.604378 48.0
94.621803 68.0
94.644829 152.0
94.768417 212.0
94.773666 148.0
94.835945 148.0
94.869789 196.0
94.921585 168.0
95.003601 144.0
95.129272 260.0
95.21907 184.0
95.27346 180.0
95.34919 140.0
95.454536 176.0
95.528137 192.0
95.567047 152.0
95.592346 160.0
95.650734 184.0
95.689674 124.0
95.833809 72.0
95.868889 132.0
95.904236 176.0
95.961754 212.0
95.997551 220.0
96.034607 148.0
96.06192 176.0
96.083382 176.0
96.157532 136.0
96.246925 172.0
96.305923 96.0
96.54142 196.0
96.592346 84.0
96.62458 84.0
96.683281 176.0
96.769417 196.0
96.804665 160.0
96.924156 204.0
96.998344 164.0
97.063332 132.0
97.09079 168.0
97.135902 144.0
97.177101 216.0
97.255608 188.0
97.27916 148.0
97.406807 156.0
97.538467 196.0
97.552231 176.0
97.593513 152.0
97.638748 152.0
97.652512 180.0
97.68792 108.0
97.727272 64.0
97.752853 200.0
97.77607 196.0
97.861115 76.0
97.890656 116.0
97.943832 112.0
98.004906 196.0
98.215858 144.0
98.235588 140.0
98.288857 228.0
98.332275 180.0
98.371758 104.0
98.488838 192.0
98.597473 244.0
98.646347 180.0
98.70369 204.0
98.729393 56.0
98.7472 156.0
98.85997 76.0
98.901535 100.0
98.943108 148.0
98.974785 108.0
99.000526 32.0
99.102219 120.0
99.125336 48.0
99.212547 48.0
99.273659 132.0
99.294785 68.0
99.364113 172.0
99.454567 224.0
99.500229 192.0
99.533981 168.0
99.643181 164.0
99.673035 152.0
99.718742 200.0
99.748558 164.0
99.826103 148.0
99.889748 184.0
99.917603 108.0
99.948624 156.0
99.981277 112.0
100.023079 88.0
100.07608 244.0
100.126717 168.0
100.192352 136.0
100.236191 180.0
100.256905 216.0
100.415924 208.0
100.519363 132.0
100.541313 144.0
100.567184 108.0
100.601196 200.0
100.633141 160.0
100.67308 232.0
100.715019 132.0
100.78418 156.0
100.824913 208.0
100.875595 168.0
100.890877 176.0
100.926865 108.0
100.988869 152.0
101.008865 152.0
101.024872 100.0
101.064888 168.0
101.112915 160.0
101.148949 140.0
101.170967 172.0
101.229034 56.0
101.403336 124.0
101.609886 172.0
101.64801 160.0
101.688873 188.0
101.756302 156.0
101.824677 184.0
101.903023 148.0
102.039703 124.0
102.130196 124.0
102.156349 132.0
102.222748 124.0
102.254944 52.0
102.325401 180.0
102.347549 268.0
102.373734 112.0
102.39888 132.0
102.601425 152.0
102.704277 156.0
102.718399 136.0
102.742607 152.0
102.791031 216.0
102.946472 112.0
103.073746 216.0
103.09597 160.0
103.115143 188.0
103.208366 120.0
103.279961 208.0
103.325378 200.0
103.356842 132.0
103.383148 96.0
103.403389 56.0
103.506157 152.0
103.5755 88.0
103.652489 120.0
103.703156 200.0
103.731537 88.0
103.830894 32.0
103.869431 64.0
104.050049 144.0
104.070358 180.0
104.1455 148.0
104.167839 152.0
104.194252 136.0
104.232857 108.0
104.296394 152.0
104.318222 132.0
104.415825 160.0
104.452438 68.0
104.504402 80.0
104.570457 160.0
104.595688 132.0
104.666145 360.0
104.865799 144.0
104.977928 36.0
105.018723 220.0
105.069717 208.0
105.108749 252.0
105.137062 108.0
105.286095 152.0
105.312645 208.0
105.371895 72.0
105.396408 180.0
105.413811 196.0
105.433197 192.0
105.447502 224.0
105.484299 112.0
105.607117 192.0
105.625397 176.0
105.670403 148.0
105.687393 184.0
105.764542 44.0
105.816818 240.0
105.868454 144.0
105.970764 196.0
106.061562 316.0
106.077965 120.0
106.102562 164.0
106.205101 180.0
106.262543 144.0
106.506844 188.0
106.545876 160.0
106.564369 96.0
106.617798 156.0
106.679459 52.0
106.751427 136.0
106.852219 144.0
106.907501 300.0
106.92836 228.0
106.970558 200.0
107.008644 184.0
107.058067 152.0
107.241432 144.0
107.429085 216.0
107.505432 116.0
107.530197 152.0
107.565285 52.0
107.614838 160.0
107.701576 140.0
107.751152 224.0
107.796616 144.0
107.886185 228.0
107.9403 156.0
107.974411 216.0
108.06543 72.0
108.086121 80.0
108.135796 140.0
108.208244 136.0
108.394669 164.0
108.423683 136.0
108.442337 176.0
108.458923 156.0
108.533554 84.0
108.579178 144.0
108.66423 140.0
108.790833 100.0
108.819901 184.0
108.888428 204.0
108.956978 348.0
109.01516 228.0
109.187721 120.0
109.262604 208.0
109.281334 160.0
109.333359 108.0
109.447853 144.0
109.52491 192.0
109.608246 176.0
109.735397 212.0
109.766678 216.0
109.875137 140.0
109.893921 132.0
109.914787 44.0
110.004532 156.0
110.06926 240.0
110.09417 1192.0
110.142357 108.0
110.163246 172.0
110.219048 116.0
110.253098 120.0
110.285652 360.0
110.359711 240.0
110.384804 52.0
110.497757 196.0
110.512405 100.0
110.585648 176.0
110.62542 184.0
110.675667 164.0
110.751068 172.0
110.776756 136.0
110.893547 116.0
110.916603 152.0
110.939194 196.0
110.976181 192.0
111.049232 200.0
111.065491 44.0
111.105347 140.0
111.187027 160.0
111.203972 200.0
111.273247 156.0
111.342545 116.0
111.367752 92.0
111.445747 416.0
111.484329 140.0
111.533752 176.0
111.54847 60.0
111.598724 168.0
111.640984 36.0
111.695221 208.0
111.71769 120.0
111.752983 164.0
111.767548 204.0
111.817711 136.0
111.857704 152.0
111.878754 140.0
111.893494 200.0
111.943123 176.0
111.965088 260.0
111.983231 332.0
111.990112 204.0
111.995949 160.0
112.017746 284.0
112.034172 216.0
112.05101 76.0
112.070992 344.0
112.111588 89116.0
112.186111 160.0
112.214981 96.0
112.250488 132.0
112.270782 88.0
112.2883 136.0
112.318329 136.0
112.339828 92.0
112.370018 108.0
112.396156 92.0
112.429375 92.0
112.457764 384.0
112.475998 168.0
112.511154 100.0
112.526817 116.0
112.557686 92.0
112.585144 64.0
112.629494 100.0
112.663193 80.0
112.695663 88.0
112.701897 104.0
112.727318 200.0
112.746765 116.0
112.794319 68.0
112.817383 116.0
112.848557 116.0
112.952103 156.0
112.990692 164.0
113.019249 68.0
113.091934 276.0
113.113831 5280.0
113.169357 156.0
113.189964 68.0
113.210464 100.0
113.250916 36.0
113.308578 104.0
113.35096 72.0
113.384865 44.0
113.403946 40.0
113.432838 76.0
113.46228 108.0
113.499344 64.0
113.574181 84.0
113.607513 56.0
113.641464 52.0
113.668297 68.0
113.713615 56.0
113.730598 108.0
113.758194 60.0
113.780861 124.0
113.819992 132.0
113.874985 104.0
113.89827 112.0
113.9254 120.0
113.963539 184.0
113.991112 176.0
114.038589 60.0
114.083229 76.0
114.116692 368.0
114.14064 120.0
114.174667 56.0
114.202316 176.0
114.264008 44.0
114.564201 68.0
114.677139 204.0
114.770943 260.0
114.885162 196.0
114.905319 76.0
114.986412 40.0
115.002586 164.0
115.06459 160.0
115.112366 224.0
115.133728 156.0
115.321747 88.0
115.336708 84.0
115.405121 152.0
115.42009 68.0
115.546288 48.0
115.67469 192.0
115.745346 236.0
115.957443 164.0
115.996025 112.0
116.04319 56.0
116.194756 176.0
116.477615 180.0
116.70237 80.0
116.769035 32.0
116.872299 248.0
116.913185 76.0
116.947617 80.0
116.997131 92.0
117.130966 136.0
117.186668 124.0
117.249161 104.0
117.328918 160.0
117.397919 168.0
117.531662 124.0
117.630943 168.0
117.68708 132.0
117.784264 152.0
117.942009 96.0
117.967407 96.0
118.028488 276.0
118.158264 244.0
118.208038 168.0
118.262543 152.0
118.324921 208.0
118.389885 184.0
118.504692 184.0
118.53286 112.0
118.634735 160.0
118.734482 160.0
118.755852 136.0
118.814476 132.0
118.845116 120.0
118.923241 176.0
118.951462 168.0
118.997055 172.0
119.027451 112.0
119.231667 292.0
119.332771 196.0
119.358047 128.0
119.394722 172.0
119.427147 172.0
119.536133 156.0
119.590538 212.0
119.688507 80.0
119.712463 204.0
119.729889 68.0
119.786522 144.0
119.838806 84.0
119.869316 180.0
119.888924 152.0
119.956497 204.0
119.993561 96.0
120.041534 136.0
120.133141 76.0
120.165863 56.0
120.264893 180.0
120.327377 152.0
120.488564 160.0
120.534889 124.0
120.55674 188.0
120.628868 56.0
120.655106 168.0
120.711952 72.0
121.064293 212.0
121.162857 224.0
121.257088 152.0
121.27243 196.0
121.287651 144.0
121.295898 136.0
121.299683 240.0
121.493912 116.0
121.662369 148.0
121.715599 192.0
121.897926 104.0
122.043007 140.0
122.072998 188.0
122.110596 164.0
122.170578 104.0
122.322418 180.0
122.374031 236.0
122.441322 136.0
122.483177 76.0
122.789558 196.0
122.833672 120.0
122.943993 168.0
122.999329 1120.0
123.222229 176.0
123.312828 124.0
123.35041 212.0
123.414528 124.0
123.485291 160.0
123.533958 180.0
123.562721 224.0
123.728714 92.0
123.852722 220.0
123.885956 112.0
123.930267 92.0
123.967934 148.0
124.003395 532.0
124.120895 164.0
124.147507 76.0
124.197479 196.0
124.234016 128.0
124.291702 52.0
124.311676 124.0
124.811493 100.0
124.896004 60.0
125.012856 2388.0
125.066612 204.0
125.088318 276.0
125.108963 144.0
125.116142 100.0
125.12326 116.0
125.161087 112.0
125.245483 164.0
125.354652 164.0
125.370255 136.0
125.42598 52.0
125.548607 112.0
125.738243 156.0
125.771729 40.0
125.858795 132.0
125.896759 192.0
125.954834 136.0
126.015472 196.0
126.059509 148.0
126.138069 260.0
126.160431 144.0
126.37738 276.0
126.393044 172.0
126.520622 136.0
126.764771 68.0
126.7827 96.0
126.816322 136.0
126.852188 128.0
126.885811 232.0
126.989578 192.0
127.010818 648.0
127.613274 136.0
127.67437 168.0
127.69873 68.0
127.761719 136.0
127.876488 160.0
127.971031 172.0
128.016464 140.0
128.048187 200.0
128.191788 168.0
128.347702 196.0
128.530045 84.0
128.554871 148.0
128.679016 240.0
128.868744 36.0
128.927505 80.0
128.97496 104.0
129.047318 72.0
129.13324 352.0
129.395752 208.0
129.495392 48.0
129.597336 204.0
129.767334 48.0
129.801346 164.0
129.921555 128.0
129.998703 208.0
130.207092 152.0
130.237106 116.0
130.412064 96.0
130.569931 248.0
130.653107 136.0
130.70163 136.0
130.728195 156.0
130.810135 188.0
130.86142 132.0
130.914871 180.0
130.93309 132.0
130.992325 116.0
131.033936 180.0
131.060669 168.0
131.166092 188.0
131.466583 156.0
131.493973 208.0
131.512222 60.0
131.528214 116.0
131.6241 116.0
131.731445 160.0
131.751999 52.0
131.802322 188.0
131.831985 212.0
131.863983 204.0
132.003357 124.0
132.08577 140.0
132.129242 140.0
132.243988 168.0
132.516174 168.0
132.621002 152.0
132.651642 152.0
132.699539 156.0
132.788361 240.0
132.914017 124.0
132.960312 284.0
132.993195 48.0
133.096497 40.0
133.257294 148.0
133.35611 156.0
133.38829 164.0
133.406677 140.0
133.44278 204.0
133.461853 148.0
133.597565 136.0
133.657379 140.0
133.735626 164.0
133.779373 40.0
133.853043 176.0
133.926743 100.0
133.963608 136.0
134.058075 112.0
134.113388 144.0
134.383209 160.0
134.512451 184.0
134.563248 176.0
134.588638 136.0
134.75032 184.0
134.833511 136.0
134.854324 80.0
134.872803 132.0
134.956848 352.0
135.043915 168.0
135.097122 184.0
135.178101 76.0
135.198929 176.0
135.245224 164.0
135.263748 84.0
135.386459 180.0
135.444366 140.0
135.533417 160.0
135.555573 196.0
135.598465 212.0
135.622787 220.0
135.754944 40.0
135.861649 132.0
135.912689 84.0
136.040344 168.0
136.082138 160.0
136.119278 132.0
136.177338 144.0
136.346954 160.0
136.40506 104.0
136.465515 88.0
136.491089 96.0
136.658569 124.0
136.695801 140.0
136.767944 124.0
136.851761 80.0
136.914627 80.0
136.986847 80.0
137.019455 164.0
137.070724 164.0
137.14064 160.0
137.208237 200.0
137.247879 84.0
137.286514 168.0
137.534836 212.0
137.554184 140.0
137.590866 172.0
137.65625 252.0
137.702957 172.0
137.799667 200.0
137.969345 164.0
138.020782 136.0
138.037155 232.0
138.186859 160.0
138.421051 160.0
138.493546 164.0
138.578476 200.0
138.655212 156.0
138.704437 140.0
138.765381 232.0
138.786484 192.0
138.831039 112.0
139.096176 160.0
139.288742 156.0
139.39212 136.0
139.428986 176.0
139.48848 88.0
139.574402 236.0
139.620148 224.0
139.643677 144.0
139.728363 184.0
139.758942 132.0
139.810715 212.0
139.834259 108.0
139.878983 88.0
139.919006 52.0
139.949265 188.0
140.013199 180.0
140.081497 188.0
140.13179 204.0
140.312454 60.0
140.350189 104.0
140.378479 136.0
140.538895 132.0
140.60968 204.0
140.753693 144.0
140.85762 180.0
140.883606 252.0
141.131775 164.0
141.240555 204.0
141.402313 176.0
141.453537 196.0
141.70932 140.0
141.858627 156.0
141.877594 196.0
141.960587 112.0
142.04834 80.0
142.072067 204.0
142.247681 236.0
142.28566 272.0
142.542191 164.0
142.639633 212.0
142.658661 164.0
142.718094 204.0
142.775162 104.0
142.882217 128.0
142.932175 248.0
143.098801 136.0
143.219147 216.0
143.25354 160.0
143.320312 152.0
143.346527 124.0
143.41803 152.0
143.701828 200.0
143.810455 216.0
143.902771 212.0
143.962006 72.0
144.07666 92.0
144.270248 72.0
144.332413 152.0
144.373062 180.0
144.424408 172.0
144.569244 112.0
144.653015 112.0
144.676956 124.0
144.734421 236.0
145.031494 196.0
145.057861 132.0
145.261703 140.0
145.369675 164.0
145.478882 136.0
145.600143 136.0
145.696228 72.0
145.71785 140.0
145.942123 144.0
146.12178 140.0
146.148254 188.0
146.213226 224.0
146.367294 160.0
146.487717 164.0
146.508057 128.0
146.697372 204.0
146.767303 188.0
146.791412 136.0
146.822769 124.0
146.931396 120.0
147.034958 168.0
147.065781 200.0
147.126755 240.0
147.183502 216.0
147.229568 144.0
147.269287 124.0
147.406998 132.0
147.4505 260.0
147.49884 92.0
147.597961 144.0
147.740662 56.0
147.7939 112.0
147.8423 184.0
147.879974 176.0
147.902802 148.0
147.919754 148.0
148.028702 156.0
148.134842 228.0
148.183533 100.0
148.741516 132.0
148.887207 156.0
148.935791 32.0
149.023239 140.0
149.305893 132.0
149.341705 136.0
149.721405 116.0
150.023544 252.0
150.048401 184.0
150.124893 464.0
150.191818 124.0
150.269882 208.0
150.301605 132.0
150.48732 184.0
150.504211 380.0
150.594559 160.0
150.6483 136.0
150.821808 180.0
150.846252 228.0
150.970947 156.0
150.997482 156.0
151.090805 160.0
151.127518 144.0
151.152725 252.0
151.178894 168.0
151.23764 124.0
151.418823 224.0
151.455566 196.0
151.504303 152.0
151.631989 148.0
151.732483 160.0
151.791336 40.0
151.815857 152.0
151.833023 68.0
151.874725 100.0
151.891891 72.0
152.017029 112.0
152.039108 108.0
152.06366 128.0
152.088196 104.0
152.142517 1792.0
152.370621 152.0
152.390274 88.0
152.422211 68.0
152.444336 180.0
152.562317 172.0
152.633621 236.0
152.662704 164.0
152.795959 128.0
152.909149 176.0
152.978073 200.0
153.086945 132.0
153.142456 332.0
153.228058 176.0
153.283493 192.0
153.317993 176.0
153.438782 96.0
153.680496 112.0
153.835983 92.0
153.885361 180.0
153.907578 180.0
153.942154 88.0
154.011444 152.0
154.036011 220.0
154.075531 168.0
154.174377 120.0
154.2164 180.0
154.275726 244.0
154.302917 160.0
154.359787 108.0
154.438934 124.0
154.5849 136.0
154.880615 164.0
155.015808 152.0
155.050491 132.0
155.174438 148.0
155.542496 168.0
155.623535 180.0
155.68811 180.0
155.811935 164.0
155.863205 156.0
155.901764 132.0
155.96106 144.0
156.150375 52.0
156.180222 188.0
156.210083 244.0
156.295395 196.0
156.371826 164.0
156.404175 108.0
156.528656 224.0
156.563522 144.0
156.914886 140.0
156.962265 56.0
156.979721 208.0
157.052048 72.0
157.159317 164.0
157.19043 332.0
157.211716 64.0
157.311295 112.0
157.38147 152.0
157.65152 196.0
157.753738 180.0
157.813751 48.0
157.841248 180.0
157.883759 136.0
158.021347 112.0
158.071396 132.0
158.10643 120.0
158.176514 136.0
158.234085 128.0
158.281662 196.0
158.301697 148.0
158.324234 152.0
158.384354 172.0
158.405975 152.0
158.484558 168.0
158.509628 84.0
158.577469 168.0
158.622406 156.0
158.647476 140.0
158.687592 232.0
158.706543 180.0
158.735718 188.0
158.765335 60.0
158.791946 144.0
158.823013 128.0
158.860352 176.0
158.90593 76.0
158.975418 69604.0
159.028275 116.0
159.06282 92.0
159.121658 124.0
159.144257 44.0
159.169357 84.0
159.191589 188.0
159.213364 100.0
159.234772 180.0
159.255966 116.0
159.319641 216.0
159.350128 116.0
159.386536 164.0
159.424301 192.0
159.444122 108.0
159.481079 164.0
159.509216 88.0
159.530884 104.0
159.573914 56.0
159.612076 128.0
159.634262 36.0
159.654373 36.0
159.680786 176.0
159.720718 140.0
159.812851 164.0
159.848083 100.0
159.932922 124.0
159.977386 5416.0
160.067093 72.0
160.083466 64.0
160.151718 96.0
160.19101 100.0
160.218216 56.0
160.29129 88.0
160.374466 104.0
160.424881 140.0
160.460342 176.0
160.513123 176.0
160.568604 32.0
160.730057 200.0
160.776428 32.0
160.794952 236.0
160.832581 168.0
160.860977 200.0
160.877365 164.0
160.907852 140.0
160.972092 41908.0
161.039108 80.0
161.120575 136.0
161.158035 172.0
161.18985 132.0
161.247238 148.0
161.270935 168.0
161.289215 132.0
161.333725 92.0
161.356476 36.0
161.391312 36.0
161.43486 112.0
161.462677 72.0
161.487976 52.0
161.579041 68.0
161.609406 44.0
161.686005 176.0
161.761261 128.0
161.864288 208.0
161.974152 1920.0
162.070251 108.0
162.103195 120.0
162.143738 56.0
162.16362 176.0
162.195389 96.0
162.222321 88.0
162.245132 192.0
162.341492 92.0
162.6008 228.0
162.653564 124.0
162.729736 48.0
162.805908 120.0
162.836395 132.0
162.925293 84.0
162.969055 1292.0
163.066299 196.0
163.089828 124.0
163.163315 92.0
163.248108 116.0
163.27774 172.0
163.382919 64.0
163.558517 100.0
163.688354 88.0
163.721466 160.0
163.820801 160.0
163.936951 144.0
163.99408 132.0
164.032318 116.0
164.330536 180.0
164.346497 192.0
164.501709 80.0
164.575745 48.0
164.78009 200.0
165.010056 164.0
165.031204 784.0
165.073013 180.0
165.181458 176.0
165.28125 144.0
165.34523 120.0
165.381058 56.0
165.400986 148.0
165.534668 128.0
165.744781 176.0
165.934402 64.0
165.967743 88.0
166.037079 200.0
166.101105 172.0
166.165237 220.0
166.350021 64.0
166.398804 72.0
166.568298 108.0
166.750732 160.0
167.027893 268.0
167.133911 204.0
167.175095 156.0
167.440262 68.0
167.569061 72.0
167.615448 168.0
167.692764 124.0
167.803619 208.0
167.847443 216.0
167.909348 100.0
168.180267 164.0
168.213821 92.0
168.355835 160.0
168.950348 164.0
169.004684 144.0
169.055252 140.0
169.159958 140.0
169.460388 148.0
169.496674 156.0
169.538132 104.0
169.582184 120.0
169.615891 124.0
169.691071 96.0
169.727371 68.0
169.78183 100.0
169.86702 124.0
169.876022 192.0
169.899185 132.0
169.953049 84.0
169.987137 144.0
170.030899 156.0
170.254166 148.0
170.297028 124.0
170.313904 176.0
170.346695 180.0
170.410034 132.0
170.615356 92.0
170.840897 144.0
171.150162 176.0
171.255524 188.0
171.273758 200.0
171.581268 224.0
171.769028 132.0
172.052124 100.0
172.319885 240.0
172.369537 188.0
172.41658 180.0
172.463623 60.0
172.79837 212.0
173.045059 156.0
173.240814 124.0
173.303696 216.0
173.340393 232.0
173.460953 72.0
173.773041 128.0
173.843887 84.0
173.990891 48.0
174.072281 132.0
174.256149 140.0
174.442749 136.0
174.652451 140.0
174.753098 100.0
174.792557 208.0
174.858353 52.0
174.942581 268.0
175.034744 104.0
175.19278 212.0
175.590805 128.0
175.625092 68.0
175.648834 164.0
175.778122 56.0
175.97345 228.0
176.018341 228.0
176.102844 132.0
176.153046 132.0
176.311569 256.0
176.403122 152.0
176.861725 80.0
176.991455 160.0
177.020584 136.0
177.054855 144.0
177.187454 56.0
177.301407 108.0
177.619583 156.0
177.688553 68.0
177.738968 80.0
177.818588 128.0
177.847778 152.0
177.874329 96.0
177.99646 104.0
178.126602 108.0
178.387024 160.0
178.634338 156.0
178.66893 160.0
178.746094 124.0
178.796646 160.0
178.86319 196.0
178.927094 212.0
179.102844 116.0
179.129486 212.0
179.206757 140.0
179.310684 192.0
179.377319 124.0
179.673996 184.0
179.998978 188.0
180.060394 148.0
180.079102 200.0
180.580078 192.0
180.833099 52.0
180.948212 224.0
181.135681 176.0
181.51358 112.0
181.559174 144.0
181.819412 204.0
181.851624 132.0
181.942886 148.0
182.015381 128.0
182.036865 100.0
182.48024 188.0
182.521652 160.0
183.04509 196.0
183.126099 152.0
183.179657 420.0
183.233856 144.0
183.293137 132.0
183.374969 76.0
183.411713 172.0
183.512939 200.0
183.554611 196.0
183.649002 92.0
183.7677 52.0
183.805481 152.0
183.838089 216.0
184.102432 164.0
184.189041 548.0
184.340164 132.0
184.44017 152.0
184.532089 140.0
184.781082 208.0
184.837738 128.0
184.964951 148.0
185.119278 176.0
185.270966 192.0
185.333282 140.0
185.377899 128.0
185.596207 164.0
185.851181 92.0
185.9543 64.0
185.976028 188.0
186.160645 140.0
186.285583 52.0
186.579102 136.0
186.815704 368.0
186.969559 232.0
186.989853 124.0
187.362915 160.0
187.43103 180.0
187.660004 156.0
188.036453 112.0
188.26033 120.0
188.612793 120.0
188.71489 244.0
188.774109 88.0
188.970535 136.0
189.359787 184.0
189.606369 92.0
189.781815 168.0
189.814713 96.0
189.896988 116.0
189.971054 180.0
190.229019 160.0
190.473419 192.0
190.649261 164.0
190.668503 136.0
190.800446 156.0
190.863693 60.0
190.970947 132.0
191.271912 192.0
191.320419 200.0
191.747391 84.0
192.023102 68.0
192.10585 200.0
192.285217 212.0
192.365265 52.0
192.464661 136.0
192.641418 124.0
192.669052 152.0
192.718781 164.0
192.762985 216.0
192.879074 180.0
193.235825 160.0
193.260727 116.0
193.365891 104.0
193.438461 220.0
193.515381 116.0
193.562454 124.0
193.581833 132.0
193.803436 116.0
193.894897 192.0
193.925385 164.0
194.113907 68.0
194.238708 192.0
194.27478 168.0
194.557861 64.0
194.713364 152.0
194.816132 152.0
194.852249 160.0
194.893936 148.0
195.027328 88.0
195.130188 140.0
195.227509 116.0
195.269226 68.0
195.29982 140.0
195.561386 140.0
195.656021 108.0
195.951248 200.0
196.107315 136.0
196.187469 132.0
196.475403 52.0
196.732162 144.0
196.757294 216.0
196.916458 148.0
197.067307 100.0
197.223816 104.0
197.394363 104.0
197.511826 116.0
197.584564 212.0
197.797256 132.0
197.898041 184.0
198.040863 208.0
198.270615 188.0
198.357498 164.0
198.685623 112.0
199.0112 156.0
199.06456 164.0
199.11792 204.0
199.421356 152.0
199.503204 136.0
199.533798 36.0
199.70253 108.0
199.862885 116.0
199.921982 120.0
200.001099 804.0
200.044342 164.0
200.414795 120.0
200.502151 144.0
200.660004 52.0
200.798187 120.0
200.839615 116.0
200.973083 140.0
200.998489 188.0
201.069046 168.0
201.331604 92.0
201.44458 216.0
201.502869 140.0
201.5802 184.0
201.826141 124.0
201.891174 144.0
201.930771 196.0
202.000626 568.0
202.03746 140.0
202.094849 148.0
202.227859 52.0
202.296219 164.0
202.330139 124.0
202.400558 132.0
202.437378 108.0
202.777344 184.0
203.168671 176.0
203.503571 132.0
203.759201 140.0
203.895599 84.0
204.10881 144.0
204.23288 160.0
204.413193 220.0
204.60675 220.0
204.652298 172.0
204.734879 136.0
204.777603 72.0
204.845963 140.0
205.019089 164.0
205.321976 172.0
205.438934 156.0
205.712891 192.0
205.995621 68.0
206.152756 296.0
206.195633 124.0
206.23851 116.0
206.501556 196.0
206.617569 148.0
206.799133 88.0
207.022446 152.0
207.053955 104.0
207.340454 60.0
207.85379 192.0
208.02887 216.0
208.060455 152.0
208.192535 136.0
208.287323 168.0
208.525803 148.0
208.643661 104.0
208.767319 176.0
208.813324 80.0
208.911133 68.0
209.189468 296.0
209.224823 356.0
209.265137 164.0
209.507065 136.0
209.588257 200.0
210.034607 152.0
210.291412 124.0
210.401108 84.0
210.491531 164.0
210.750595 168.0
210.843063 164.0
211.045425 60.0
211.17926 216.0
211.279694 132.0
211.330261 176.0
211.531479 184.0
211.60965 44.0
211.757339 220.0
212.009399 228.0
212.099243 140.0
212.435623 80.0
212.482056 120.0
212.534271 108.0
212.618073 128.0
212.751953 136.0
212.807129 156.0
212.955231 184.0
213.07724 164.0
213.11792 80.0
213.176041 52.0
213.309738 48.0
213.658707 152.0
213.743088 108.0
213.970123 160.0
214.20311 120.0
214.331299 92.0
214.418732 196.0
214.513306 144.0
214.535324 168.0
214.800705 164.0
214.920319 136.0
214.952423 180.0
215.092514 216.0
215.212219 80.0
215.246384 160.0
215.478012 180.0
215.5569 140.0
215.655777 188.0
215.679657 148.0
215.85289 204.0
215.972061 172.0
216.068604 160.0
216.421234 176.0
216.446182 44.0
216.686371 140.0
216.885651 176.0
216.914963 216.0
216.977875 244.0
217.025711 124.0
217.155411 176.0
217.187668 156.0
217.228745 156.0
217.256577 212.0
217.428726 128.0
217.451752 128.0
217.510452 100.0
217.563293 172.0
217.595581 40.0
217.633759 136.0
217.65712 192.0
217.689545 148.0
217.754166 176.0
217.784195 196.0
217.819534 328.0
217.886429 160.0
217.975922 372.0
218.011978 83980.0
218.084137 252.0
218.126465 200.0
218.163513 148.0
218.205627 76.0
218.240341 64.0
218.29361 80.0
218.334412 168.0
218.355469 212.0
218.402008 64.0
218.424255 84.0
218.443893 112.0
218.498749 72.0
218.521027 136.0
218.544876 72.0
218.626984 64.0
218.664337 64.0
218.67218 104.0
218.709763 48.0
218.75528 192.0
218.783371 108.0
218.915863 112.0
218.939423 32.0
218.97522 104.0
219.014618 7756.0
219.059921 128.0
219.0858 52.0
219.136139 180.0
219.141708 48.0
219.19278 64.0
219.263504 60.0
219.310669 96.0
219.390259 160.0
219.428589 48.0
219.449219 156.0
219.480011 100.0
219.505249 104.0
219.593719 76.0
219.616394 64.0
219.745193 292.0
219.829742 268.0
219.858627 148.0
219.882111 172.0
219.91954 216.0
219.970245 192.0
220.009201 42288.0
220.063751 232.0
220.120407 124.0
220.155182 200.0
220.232422 140.0
220.272263 128.0
220.304703 84.0
220.320526 140.0
220.348404 116.0
220.384903 180.0
220.423309 48.0
220.494492 132.0
220.517883 80.0
220.550705 116.0
220.590302 256.0
220.677521 48.0
220.707901 172.0
220.720566 72.0
220.726608 84.0
220.781021 76.0
220.8004 72.0
220.807053 40.0
220.8806 48.0
220.90184 156.0
220.94371 72.0
221.009781 2656.0
221.11116 68.0
221.147888 52.0
221.183411 68.0
221.213013 52.0
221.276794 96.0
221.325531 128.0
221.40361 68.0
221.461761 132.0
221.53186 144.0
221.595062 76.0
221.63063 124.0
221.70253 76.0
221.728424 152.0
221.778809 40.0
221.802521 32.0
221.882919 84.0
222.006775 1104.0
222.05159 156.0
222.140579 44.0
222.202881 48.0
222.333435 108.0
222.386871 88.0
222.522003 184.0
222.54718 100.0
222.567963 76.0
222.613373 124.0
222.622452 92.0
222.652542 200.0
222.942261 108.0
223.04332 36.0
223.095062 232.0
223.260376 44.0
223.290359 96.0
223.399353 88.0
223.466751 116.0
223.542984 108.0
223.572754 140.0
223.623352 136.0
223.650131 84.0
223.916519 96.0
224.794617 84.0
224.859131 188.0
225.357895 92.0
225.660858 48.0
225.693756 52.0
225.971924 36.0
226.208359 164.0
226.283203 116.0
226.858429 84.0
226.945374 160.0
226.972366 136.0
227.227325 144.0
227.425385 88.0
227.605515 88.0
227.972015 80.0
228.035126 148.0
228.119293 76.0
228.155365 172.0
228.582474 204.0
228.669754 136.0
229.350479 164.0
229.471069 112.0
229.501221 120.0
229.59169 196.0
229.833023 124.0
230.014099 160.0
230.284607 48.0
230.358368 76.0
230.409714 96.0
230.561539 148.0
230.73613 44.0
230.860107 108.0
231.298828 120.0
231.413864 108.0
231.480484 116.0
232.690338 68.0
232.773911 128.0
232.863434 80.0
233.180267 100.0
233.434799 76.0
233.538193 144.0
233.920959 120.0
234.122574 112.0
234.838806 240.0
235.168335 152.0
235.656967 72.0
235.739471 52.0
235.782257 148.0
236.008469 116.0
236.092529 152.0
236.195023 140.0
237.006348 52.0
237.095215 164.0
237.279129 76.0
237.733109 76.0
237.806778 132.0
237.9879 56.0
238.371872 132.0
238.82074 124.0
239.565689 56.0
239.781387 204.0
240.864426 132.0
240.932388 144.0
241.705368 152.0
241.730133 128.0
241.99324 168.0
242.389725 64.0
242.985062 112.0
243.096756 76.0
243.612183 152.0
243.938492 164.0
244.041092 164.0
244.258789 132.0
244.476593 164.0
244.63533 156.0
245.062012 204.0
245.227173 112.0
245.252121 160.0
245.638779 188.0
246.266205 136.0
246.516144 132.0
247.17598 136.0
247.514053 72.0
247.692566 128.0
248.121902 116.0
248.178345 112.0
248.250473 64.0
248.9189 96.0
248.987305 56.0
249.233017 104.0
249.299011 156.0
249.899612 136.0
249.927933 140.0
250.179733 124.0
250.261597 144.0
250.428497 76.0
250.466293 156.0
250.519989 184.0
250.762482 128.0
251.030472 100.0
251.172394 72.0
251.20079 116.0
251.348221 132.0
251.560547 244.0
251.582443 132.0
251.611053 68.0
251.800522 180.0
252.129105 192.0
252.268173 128.0
252.663498 120.0
252.967316 200.0
253.068619 136.0
253.395584 124.0
253.451889 124.0
253.578659 120.0
253.733994 156.0
253.775208 52.0
253.806915 132.0
254.266907 172.0
254.428802 124.0
254.48912 124.0
254.692383 28.0
255.159531 132.0
255.200867 72.0
255.448944 72.0
255.52211 96.0
255.687592 96.0
255.856293 76.0
255.888138 160.0
256.57312 136.0
256.742126 208.0
256.767639 104.0
256.888855 180.0
257.763702 108.0
257.952271 124.0
257.977844 120.0
258.736053 180.0
258.768066 96.0
258.905762 96.0
259.031281 192.0
259.472961 152.0
259.806488 200.0
259.921997 144.0
260.169159 184.0
260.474243 120.0
260.544922 112.0
260.946655 88.0
260.978821 240.0
261.767181 72.0
262.321381 188.0
262.74707 164.0
262.782043 128.0
263.441193 180.0
263.618896 200.0
264.139435 140.0
264.440369 108.0
264.495392 120.0
264.673462 144.0
264.871033 236.0
265.162628 164.0
265.217743 168.0
265.603607 172.0
265.937836 88.0
266.961243 80.0
267.651123 224.0
268.07135 116.0
268.13327 180.0
268.527802 236.0
268.638702 84.0
268.867096 156.0
270.080017 144.0
270.485046 200.0
270.576691 148.0
270.737152 136.0
270.864899 156.0
271.084412 144.0
271.304016 100.0
272.383698 116.0
272.482269 136.0
272.567688 168.0
272.633423 128.0
272.768158 240.0
272.814209 184.0
272.853638 68.0
272.99176 92.0
273.041077 156.0
273.159485 68.0
273.231873 252.0
273.277924 88.0
273.402985 108.0
273.449066 100.0
273.534637 164.0
273.81781 144.0
273.91333 76.0
274.361511 144.0
274.391205 144.0
274.496704 104.0
274.537598 172.0
274.823273 104.0
275.021271 172.0
275.26889 104.0
275.344849 36.0
275.516632 104.0
275.784302 160.0
276.118256 64.0
276.224091 60.0
276.280334 148.0
276.42923 136.0
276.660919 156.0
276.985443 164.0
277.021881 36.0
277.306854 244.0
277.601929 168.0
277.638428 80.0
278.033203 76.0
278.285492 232.0
278.322021 188.0
278.40506 136.0
278.730591 124.0
279.029755 172.0
279.728394 48.0
280.071381 116.0
280.118011 156.0
280.43457 108.0
280.697937 120.0
280.734619 164.0
280.818024 160.0
281.175018 148.0
281.23175 172.0
281.842926 184.0
282.114655 172.0
282.203918 60.0
282.250732 196.0
282.297546 64.0
282.85965 120.0
283.137543 196.0
283.174408 56.0
283.207886 208.0
283.750793 180.0
284.06604 144.0
284.146545 124.0
284.223724 164.0
284.404938 140.0
284.713837 200.0
285.81311 196.0
285.907349 108.0
285.937622 128.0
287.444061 112.0
287.484192 176.0
287.538574 116.0
287.572327 124.0
287.673584 80.0
287.920074 180.0
288.014648 116.0
288.085571 112.0
288.433655 56.0
288.521545 160.0
288.825897 180.0
288.990662 160.0
290.051727 196.0
290.116119 276.0
290.624878 148.0
290.828491 172.0
291.399017 164.0
291.426208 116.0
291.517944 208.0
292.364197 96.0
292.514526 132.0
292.694977 156.0
292.861084 144.0
293.118988 168.0
293.772003 112.0
293.812958 148.0
293.8573 108.0
294.184937 168.0
294.393219 60.0
294.62207 128.0
294.676727 148.0
294.782684 176.0
295.172363 112.0
295.220245 152.0
295.313232 84.0
295.528107 128.0
295.637634 152.0
295.702637 112.0
295.788208 140.0
296.041595 60.0
296.158051 160.0
296.209412 144.0
296.443848 96.0
296.57608 96.0
296.620636 108.0
296.912079 92.0
296.942963 88.0
297.012421 96.0
297.040009 228.0
297.11554 140.0
297.166565 132.0
297.226715 184.0
297.329803 228.0
297.37442 132.0
297.42572 212.0
297.464508 84.0
297.488556 192.0
297.536621 136.0
297.604126 212.0
297.684448 72.0
297.757812 200.0
297.773224 84.0
297.785797 192.0
297.819061 160.0
297.91098 408.0
297.955597 244.0
297.990448 132.0
298.075043 98136.0
298.152863 108.0
298.186951 100.0
298.256073 168.0
298.303192 148.0
298.314758 120.0
298.367554 124.0
298.378967 92.0
298.42746 104.0
298.451538 60.0
298.488007 120.0
298.522522 172.0
298.556152 148.0
298.599152 252.0
298.641174 404.0
298.683472 248.0
298.706848 108.0
298.735626 36.0
298.760101 88.0
298.791077 52.0
298.837555 148.0
298.870453 56.0
298.923065 276.0
298.983765 56.0
299.077606 16320.0
299.148987 96.0
299.208618 52.0
299.257355 100.0
299.293884 100.0
299.335083 156.0
299.383881 180.0
299.435303 104.0
299.475952 92.0
299.501678 92.0
299.55191 40.0
299.603577 256.0
299.652374 192.0
299.663422 32.0
299.675385 204.0
299.710388 156.0
299.741394 72.0
299.77655 104.0
299.823669 88.0
299.866791 128.0
299.916168 124.0
299.953186 252.0
299.969879 176.0
299.978058 264.0
300.071503 62008.0
300.179413 64.0
300.234375 60.0
300.270111 164.0
300.30957 40.0
300.317993 32.0
300.373108 124.0
300.402802 188.0
300.412292 76.0
300.450287 40.0
300.482727 36.0
300.521912 76.0
300.549133 192.0
300.60553 104.0
300.618713 136.0
300.67099 136.0
300.701294 144.0
300.738098 76.0
300.767853 128.0
300.79129 88.0
300.825623 168.0
300.887054 144.0
300.92453 172.0
300.959595 124.0
300.999664 340.0
301.074493 6416.0
301.145538 156.0
301.176025 96.0
301.209839 284.0
301.240448 276.0
301.294128 332.0
301.348206 168.0
301.401184 96.0
301.437256 100.0
301.478546 132.0
301.515228 32.0
301.553101 48.0
301.686859 116.0
301.812927 136.0
301.866608 44.0
301.947388 100.0
302.065552 1012.0
302.154968 76.0
302.189545 140.0
302.229858 124.0
302.264526 36.0
302.314117 52.0
302.449097 40.0
302.483734 76.0
302.65683 80.0
302.75473 148.0
302.829987 36.0
302.872101 100.0
302.962158 52.0
302.996277 204.0
303.041046 52.0
303.047333 92.0
303.075378 96.0
303.148743 92.0
303.189209 260.0
303.212708 52.0
303.263092 60.0
303.386536 212.0
303.422577 60.0
303.457245 84.0
303.519653 52.0
303.571655 40.0
303.600647 100.0
303.776306 52.0
303.803589 60.0
303.869995 120.0
303.897736 84.0
303.939392 168.0
303.998383 56.0
304.116364 92.0
304.278076 72.0
304.348969 56.0
304.373291 56.0
304.446198 56.0
304.82486 144.0
304.870056 44.0
304.936096 92.0
305.182922 84.0
305.29071 96.0
305.408966 28.0
305.81955 52.0
305.87384 80.0
306.112 120.0
306.397614 124.0
306.704285 48.0
307.42627 152.0
307.676941 88.0
307.922028 52.0
308.09317 40.0
308.62793 52.0
308.799316 80.0
308.953217 80.0
309.068665 44.0
310.052734 44.0
310.571625 80.0
311.329742 120.0
311.473755 132.0
311.744293 48.0
312.113403 72.0
313.049469 48.0
314.735046 52.0
316.192505 204.0
316.214539 112.0
316.31897 88.0
316.584534 112.0
318.325775 76.0
318.865784 136.0
320.075348 64.0
320.748718 92.0
320.820007 76.0
323.442078 68.0
323.664062 116.0
324.308929 128.0
326.322906 76.0
326.571045 88.0
329.086487 56.0
329.540802 92.0
329.577698 124.0
331.578949 128.0
332.362274 104.0
333.786194 172.0
335.173096 124.0
338.409424 80.0
341.778992 96.0
342.839569 100.0
343.650818 80.0
344.337463 108.0
344.895386 72.0
345.68689 68.0
349.438354 84.0
350.771606 100.0
352.398804 40.0
354.306946 72.0
357.122406 80.0
359.5224 76.0
361.392944 112.0
362.222076 44.0
366.343842 76.0
367.018433 88.0
367.262512 124.0
369.148499 652.0
369.711609 44.0
370.150391 104.0
370.538727 68.0
371.143005 224.0
371.313049 88.0
372.161163 160.0
373.86795 32.0
379.942322 72.0
381.600739 52.0
384.612183 88.0
385.190125 120.0
389.487305 52.0
390.045319 124.0
390.761047 84.0
391.638947 64.0
391.887146 60.0
393.496399 128.0
400.356537 108.0
400.782776 104.0
409.649323 40.0
412.728821 32.0
412.866302 40.0
414.181732 56.0
415.83609 168.0
421.390717 92.0
422.846497 72.0
422.883331 116.0
423.288666 64.0
425.782074 72.0
435.421875 32.0
443.143524 76.0
444.200012 48.0
444.30072 80.0
448.543976 100.0
450.683716 48.0
453.315765 80.0
454.189178 96.0
454.62619 104.0
455.602814 64.0
456.861206 132.0
458.244904 64.0
458.978027 100.0
465.808838 64.0
470.442535 40.0
470.887299 48.0
472.954102 60.0
485.792053 36.0
496.914459 84.0
498.073181 84.0
500.568268 52.0
502.676819 104.0
505.648804 52.0
514.414062 104.0
514.477234 32.0
514.730103 60.0
518.136047 84.0
522.858643 68.0
528.769043 176.0
528.805664 72.0
529.7948 116.0
529.955139 72.0
531.642639 148.0
536.85968 36.0
538.281006 40.0
540.499878 116.0
547.393372 64.0
548.460266 72.0
553.796387 96.0
554.363342 68.0
554.396118 48.0
557.545227 36.0
558.438538 48.0
561.80658 36.0
569.195068 68.0
576.837341 80.0
580.082947 72.0
591.601624 88.0
592.972473 108.0
602.363647 80.0
602.764282 92.0
604.123535 48.0
605.582275 76.0
606.341675 48.0
613.503662 56.0
614.62323 44.0
614.963806 104.0
615.097046 48.0
619.305115 68.0
621.416992 80.0
621.555908 68.0
624.661133 44.0
630.994873 72.0
632.190369 120.0
639.462708 104.0
646.047913 84.0
651.477478 100.0
652.336365 52.0
653.582397 116.0
667.239197 68.0
671.172974 100.0
672.369812 96.0
673.071899 72.0
681.317749 76.0
683.439087 76.0
726.027222 52.0
726.150574 56.0
734.69281 44.0
746.027893 96.0
751.621521 108.0
766.030334 60.0
771.858704 92.0
783.899353 104.0
789.565857 72.0
795.656982 196.0
795.746826 100.0
806.80658 72.0
807.258911 160.0
813.832214 80.0
816.05957 92.0
818.529114 68.0
821.761047 44.0
828.576355 204.0
835.483032 108.0
840.403442 84.0
857.17334 80.0
862.624695 132.0
869.783142 144.0
873.838196 132.0
876.275757 64.0
877.566589 208.0
892.357239 64.0
894.624023 68.0
896.101074 188.0
904.928894 36.0
907.547363 100.0
908.61499 52.0
908.794983 240.0
921.167358 164.0
931.119385 112.0
934.420227 184.0
934.852234 80.0
939.470886 164.0
942.731506 212.0
944.174316 64.0
947.792297 48.0
956.845947 144.0
960.1427 84.0
961.919739 144.0
962.240784 104.0
964.674927 152.0
968.951416 100.0
970.333557 212.0
976.947876 136.0
977.69458 148.0
985.53949 180.0
990.770142 244.0
990.832764 212.0
991.779053 216.0
992.161438 156.0
996.152832 112.0
996.234497 164.0
998.120056 108.0
1001.776917 172.0
1002.791382 152.0
1005.56665 244.0
1005.939026 240.0
1007.669495 60.0
1008.054932 144.0
1008.623779 148.0
1008.952515 140.0
1011.122192 168.0
1015.684265 148.0
1017.067566 140.0
1018.032654 100.0
1018.312134 128.0
1020.440979 228.0
1021.50946 148.0
1022.680298 164.0
1027.255615 168.0
1028.857422 148.0
1033.952026 132.0
1034.937866 148.0
1035.014648 180.0
1035.392578 184.0
1037.135254 156.0
1038.642212 168.0
1039.129761 156.0
1039.251709 200.0
1040.766479 132.0
1041.729858 136.0
1044.198242 140.0
1045.124634 188.0
1047.435913 152.0
1049.227539 168.0
1052.008057 160.0
1052.569824 216.0
1053.325439 168.0
1053.557983 120.0
1056.208496 212.0
1056.253784 136.0
1057.664429 116.0
1057.96875 216.0
1060.002563 48.0
1062.064209 168.0
1066.954224 220.0
1067.643555 184.0
1069.595459 184.0
1071.210449 96.0
1072.415894 188.0
1074.639771 180.0
1078.989624 220.0
1081.174438 180.0
1081.586792 200.0
1082.541992 184.0
1082.948853 116.0
1084.586914 112.0
1087.761841 220.0
1089.883179 164.0
1090.126343 60.0
1090.323486 164.0
1095.132324 168.0
1095.469116 172.0
1095.666748 132.0
1099.306519 256.0
1101.089111 224.0
1101.445801 192.0
1104.420288 184.0
1105.353149 168.0
1105.498779 184.0
1105.598022 164.0
1106.160645 168.0
1106.220215 44.0
1106.902222 116.0
1108.518555 40.0
1108.863159 128.0
1110.607056 144.0
1112.013672 200.0
1113.195435 196.0
1115.84668 228.0
1115.973022 164.0
1116.052856 200.0
1117.635986 104.0
1118.161743 196.0
1118.401245 176.0
1120.37915 160.0
1120.812256 104.0
1121.778564 124.0
1122.745483 192.0
1123.746094 188.0
1127.29187 108.0
1127.619263 188.0
1129.478149 152.0
1129.545044 100.0
1130.528564 152.0
1132.657837 192.0
1136.459106 216.0
1137.855225 100.0
1138.862549 88.0
1139.702271 120.0
1140.011353 132.0
1140.535645 160.0
1140.945679 148.0
1142.15625 160.0
1142.277344 292.0
1142.761719 120.0
1142.815552 48.0
1144.161621 232.0
1145.050537 216.0
1145.19873 32.0
1146.997803 236.0
1148.18457 172.0
1150.093994 96.0
1150.782593 148.0
1152.802368 176.0
1153.099731 152.0
1153.153809 140.0
1154.377441 176.0
1154.451904 184.0
1154.857666 96.0
1155.689819 204.0
1156.434204 156.0
1157.097656 112.0
1157.334595 168.0
1158.34375 180.0
1158.750244 200.0
1159.407471 164.0
1161.516235 180.0
1163.212646 80.0
1163.518188 188.0
1164.129272 276.0
1167.812988 184.0
1169.092041 180.0
1169.269043 220.0
1171.502441 192.0
1172.436035 236.0
1172.56543 64.0
1172.885864 116.0
1173.06311 144.0
1176.255615 148.0
1176.569702 160.0
1177.389038 172.0
1179.801147 100.0
1180.20459 100.0
1181.510986 212.0
1182.496338 184.0
1183.557495 92.0
1183.872559 180.0
1183.92041 144.0
1184.687622 208.0
1186.579224 176.0
1186.688843 196.0
1188.259521 196.0
1190.408081 112.0
1191.623901 176.0
1191.768188 40.0
1192.627197 168.0
1194.346313 168.0
1196.885864 152.0
1200.751953 48.0
1202.04895 164.0
1202.725342 148.0
1203.036011 244.0
1203.208618 160.0
1203.540039 172.0
1204.016479 204.0
1204.396362 168.0
1205.294556 188.0
1205.584839 128.0
1206.517944 148.0
1206.711548 220.0
1207.486084 64.0
1208.579102 192.0
1208.952759 164.0
1210.641968 152.0
1211.750244 88.0
1214.530273 140.0
1214.974243 112.0
1216.369141 172.0
1217.049561 148.0
1220.322266 80.0
1220.579468 136.0
1223.195557 160.0
1226.05127 160.0
1230.68335 168.0
1231.409546 192.0
1232.261841 212.0
1232.960693 124.0
1233.554077 124.0
1233.617676 164.0
1233.960327 144.0
1235.582886 180.0
1235.904785 212.0
1236.023682 128.0
1237.773804 132.0
1238.642212 196.0
1240.008545 132.0
1240.636353 196.0
1241.214355 156.0
1241.480835 168.0
1242.013916 120.0
1242.287476 180.0
1243.115479 224.0
1246.500366 156.0
1246.865723 180.0
1246.964111 232.0
1247.203125 132.0
1247.294556 160.0
1248.152222 144.0
1248.714844 36.0
1249.594238 136.0
1250.044556 136.0
1250.206421 132.0
1251.741089 56.0
1253.171021 160.0
1253.452881 148.0
1253.685425 240.0
1254.495972 160.0
1254.799194 216.0
1256.484863 164.0
1256.731812 112.0
1256.781128 220.0
1257.43042 200.0
1257.613892 196.0
1258.291626 224.0
1258.842407 156.0
1259.061401 144.0
1259.160278 140.0
1259.605225 220.0
1259.690063 204.0
1260.092651 176.0
1260.248169 192.0
1260.354126 80.0
1261.739502 160.0
1262.580933 212.0
1264.392212 152.0
1264.590332 116.0
1265.092896 48.0
1265.829346 176.0
1266.650879 160.0
1266.835083 196.0
1267.557739 164.0
1268.209839 136.0
1269.883179 152.0
1270.507446 108.0
1271.153076 164.0
1272.026123 156.0
1273.048584 124.0
1273.304199 72.0
1273.872437 128.0
1275.8573 180.0
1276.239136 156.0
1276.559204 52.0
1276.829468 68.0
1277.334473 164.0
1277.796875 160.0
1278.138428 148.0
1279.469482 188.0
1279.519287 216.0
1280.074707 92.0
1280.452148 152.0
1281.648926 68.0
1282.190552 152.0
1283.13147 148.0
1283.80896 188.0
1288.884521 136.0
1288.984497 60.0
1289.813599 176.0
1290.006592 60.0
1291.029175 160.0
1291.572754 88.0
1291.675049 180.0
1292.974365 160.0
1293.675659 148.0
1295.703369 208.0
1295.832397 124.0
1295.918335 48.0
1297.014771 156.0
1297.165405 212.0
1297.516602 80.0
1297.941284 164.0
1298.140503 112.0
1298.499023 176.0
1298.642578 184.0
1298.707031 176.0
1299.59668 208.0
1300.134888 112.0
1300.529663 176.0
1301.072876 164.0
1301.175781 124.0
1303.035889 244.0
1303.416748 120.0
1304.099487 208.0
1304.545166 116.0
1304.940552 148.0
1305.206665 60.0
1305.580566 140.0
1306.73877 176.0
1307.400757 240.0
1307.775024 232.0
1308.941406 200.0
1309.186157 128.0
1309.322998 136.0
1309.474243 172.0
1309.884888 180.0
1310.144165 32.0
1311.03772 200.0
1311.463013 188.0
1311.556641 248.0
1313.770508 56.0
1314.730225 148.0
1315.545898 132.0
1318.565308 128.0
1319.374878 172.0
1320.560791 80.0
1320.647583 364.0
1320.821167 204.0
1321.28418 168.0
1322.224854 152.0
1322.717163 48.0
1323.166016 160.0
1323.245605 192.0
1323.904541 164.0
1324.230469 144.0
1324.324585 228.0
1325.773682 208.0
1325.904175 164.0
1326.121582 100.0
1327.071289 108.0
1327.288818 268.0
1327.60791 124.0
1328.565308 36.0
1328.688721 124.0
1329.254639 188.0
1329.319946 136.0
1329.886108 128.0
1333.307007 228.0
1335.211914 200.0
1336.594116 172.0
1336.812378 152.0
1338.581421 188.0
1340.023682 140.0
1340.081909 160.0
1340.883545 140.0
1341.114014 236.0
1341.488525 196.0
1341.911377 108.0
1342.25415 120.0
1342.378052 72.0
1342.516602 92.0
1343.049072 216.0
1343.202271 172.0
1343.486816 164.0
1343.98291 160.0
1346.004883 104.0
1346.085205 220.0
1346.669434 152.0
1347.012817 172.0
1347.421875 156.0
1348.094116 200.0
1349.424561 176.0
1349.548828 160.0
1349.994873 140.0
1350.397217 128.0
1351.509155 108.0
1354.144653 120.0
1355.001709 132.0
1356.335571 172.0
1357.772705 160.0
1358.432861 168.0
1359.723755 156.0
1360.979614 72.0
1361.177856 204.0
1362.103271 176.0
1362.646973 192.0
1363.572876 128.0
1364.484375 132.0
1365.021118 120.0
1367.743408 160.0
1367.934814 188.0
1368.914062 56.0
1369.142334 208.0
1369.562256 188.0
1370.041016 152.0
1370.387329 188.0
1370.475708 208.0
1371.087402 148.0
1371.360107 72.0
1371.831909 124.0
1372.281616 100.0
1372.3479 220.0
1372.672363 152.0
1374.088623 152.0
1374.664185 188.0
1375.645874 132.0
1375.749268 192.0
1376.184814 184.0
1376.295532 228.0
1376.6427 68.0
1376.709106 192.0
1376.775635 204.0
1376.952881 180.0
1377.226074 180.0
1380.559448 48.0
1380.611206 152.0
1382.912231 180.0
1385.652222 100.0
1386.052368 184.0
1386.675293 148.0
1387.594116 44.0
1387.734985 200.0
1388.224365 172.0
1389.478027 172.0
1389.589233 164.0
1391.147827 132.0
1391.311157 196.0
1391.363159 140.0
1391.756714 200.0
1392.722168 136.0
1393.747437 204.0
1393.970337 140.0
1394.245239 216.0
1394.921631 128.0
1395.4198 120.0
1396.639404 96.0
1396.969482 208.0
1397.99353 168.0
1399.102661 164.0
1401.113525 272.0
1401.635132 152.0
1401.90332 148.0
1402.864868 160.0
1403.535889 148.0
1403.759644 156.0
1404.050415 172.0
1404.475586 60.0
1405.258911 112.0
1405.311157 164.0
1406.056519 104.0
1406.124634 124.0
1406.677002 144.0
1406.736694 124.0
1406.871094 204.0
1407.38623 136.0
1407.92395 116.0
1408.177856 152.0
1409.73938 188.0
1410.277466 212.0
1410.897949 160.0
1411.593262 64.0
1412.999512 228.0
1414.578613 60.0
1414.713379 164.0
1416.173584 28.0
1416.615601 140.0
1417.214966 92.0
1417.919434 96.0
1418.354126 200.0
1418.578979 88.0
1419.216309 224.0
1419.516235 48.0
1422.149658 56.0
1423.553589 164.0
1423.929199 92.0
1423.996704 188.0
1424.312256 164.0
1424.372314 200.0
1425.604492 176.0
1425.739868 156.0
1427.10791 156.0
1427.201294 284.0
1428.085571 188.0
1428.582153 232.0
1428.807739 168.0
1429.379639 192.0
1429.492554 128.0
1430.470947 64.0
1431.035645 92.0
1431.615479 192.0
1431.977051 184.0
1432.109253 192.0
1432.666016 180.0
1432.941284 216.0
1433.197388 108.0
1435.246948 200.0
1435.519165 136.0
1436.33374 184.0
1437.163696 168.0
1437.271729 140.0
1437.578735 136.0
1438.454224 104.0
1438.801514 116.0
1441.256226 144.0
1441.747437 212.0
1441.98938 124.0
1443.478638 188.0
1444.000488 240.0
1444.161377 148.0
1445.899536 36.0
1445.967651 68.0
1446.06604 148.0
1446.467285 108.0
1446.982056 220.0
1447.708984 148.0
1447.921021 136.0
1448.261963 240.0
1448.314941 140.0
1450.603394 76.0
1451.020386 96.0
1451.111328 180.0
1451.877319 60.0
1451.983398 208.0
1452.104736 204.0
1453.136475 164.0
1453.242676 248.0
1453.963623 212.0
1454.502563 132.0
1456.112305 100.0
1456.317383 220.0
1457.882446 88.0
1457.981323 136.0
1458.399292 168.0
1459.053101 52.0
1459.585327 176.0
1459.699341 156.0
1460.049194 188.0
1460.125244 172.0
1460.786987 120.0
1460.893555 80.0
1461.357666 296.0
1461.540283 36.0
1462.704712 176.0
1463.519409 160.0
1464.357056 152.0
1465.225464 148.0
1466.543823 172.0
1466.627686 236.0
1468.228882 152.0
1468.511108 184.0
1468.613647 168.0
1468.96106 136.0
1471.449097 232.0
1471.532837 152.0
1471.814575 148.0
1472.487671 144.0
1472.678589 120.0
1473.484863 244.0
1473.962036 256.0
1474.130249 220.0
1474.351807 156.0
1475.743164 132.0
1475.911377 180.0
1476.04895 176.0
1476.936157 168.0
1477.089111 148.0
1477.44873 228.0
1477.548218 180.0
1479.561035 144.0
1479.683472 164.0
1480.924072 140.0
1481.575195 92.0
1481.805054 100.0
1481.897095 132.0
1482.724609 148.0
1482.893311 88.0
1483.245239 136.0
1483.507568 176.0
1483.613892 112.0
1483.951172 132.0
1484.664307 44.0
1485.063232 136.0
1485.360596 172.0
1485.372314 132.0
1485.454346 156.0
1485.699829 92.0
1485.841553 176.0
1486.183228 256.0
1486.8125 156.0
1486.881592 144.0
1487.24231 196.0
1487.495605 152.0
1487.987061 132.0
1488.209717 140.0
1489.968506 156.0
1490.053101 124.0
1491.175049 112.0
1491.882202 176.0
1492.112915 68.0
1493.774048 160.0
1494.004761 180.0
1494.60498 104.0
1494.689575 180.0
1495.77478 200.0
1496.175171 240.0
1496.30603 168.0
1496.406128 148.0
1496.483154 112.0
1496.977051 136.0
1497.491943 120.0
1497.615234 152.0
1497.892456 72.0
1498.200684 176.0
1498.254517 136.0
1498.662964 168.0
1498.855591 228.0
1499.048218 148.0
1500.254028 160.0
1500.427979 116.0
1501.353271 128.0
1501.623169 148.0
1502.070557 184.0
1502.703247 240.0
1503.652466 132.0
1503.791382 220.0
1504.408936 236.0
1504.609619 144.0
1504.663696 112.0
1504.887573 192.0
1505.018799 48.0
1505.10376 140.0
