>compound pateamine
>formula C31H45N3O4S 
>ionization [M+H]+
>parentmass 556.318481
#inchi InChI=1S/C31H45N3O4S/c1-21(13-14-34(6)7)11-12-23(3)16-27-19-29-33-28(20-39-29)24(4)17-26(32)18-31(36)37-25(5)15-22(2)9-8-10-30(35)38-27/h8-13,16,20,24-27H,14-15,17-19,32H2,1-7H3/b10-8-,12-11+,21-13+,22-9+,23-16+/t24-,25-,26+,27+/m0/s1
#inchikey DSPNTLCJTJBXTD
#Ion_Source DI-ESI
#Instrument qTof
#Compound_Source Isolated
#PI Keyzers
#Data_Collector Keyzers
#Scan -1
#Precursor_MZ 556.32
#ExactMass 555.313
#Charge 1
#CAS_Number 139220-18-1
#Pubmed_ID N/A
#Smiles N/A
#INCHI_AUX N/A
#Library_Class 3
#SpectrumID CCMSLIB00000007052
#IonMode Positive
#UpdateWorkflowName UPDATE-SINGLE-ANNOTATED-BRONZE
#LibraryQualityString Bronze
#TaskID 76b66bf1ccd04cec9993212b36387ea3
##Scan# 2
#SpectrumFile pateamine_pos_MSMS_single_charge_001.mgf
#LibraryName gnps_library.mgf
#MQScore -1
#Organism test_rob_keyzers
#TIC_Query 0
#RT_Query -1
#MZErrorPPM -1
#SharedPeaks 0
#MassDiff 0
#LibMZ -1
#SpecMZ 556.32
#SpecCharge 0
#internalFilename spec-00000.mgf

>collision 10
41.03672 184.604202
42.034317 144.056198
55.051125 193.1362
58.06535 3056.483887
67.054703 442.002411
70.064079 425.978088
72.084152 196.928604
73.044876 384.911285
73.071976 228.641998
80.048706 273.040894
81.069023 433.548492
82.943993 139.130905
84.046295 383.630188
84.075188 346.697693
89.055367 190.694199
91.053146 415.299988
93.06675 275.538208
94.063255 273.720612
98.098236 853.213928
100.019775 144.278503
102.058365 350.392914
104.064041 151.358002
105.066132 490.25
106.064919 255.015198
107.085785 4553.817871
108.081993 1093.906982
109.100578 919.023376
112.111862 141.673492
114.035126 146.074997
115.05101 166.635605
117.064545 276.432495
119.085052 783.983521
120.081665 267.25
123.100494 141.112106
125.045525 268.089294
125.095444 544.189392
126.037209 472.5
127.049126 150.274399
128.049561 175.739807
131.084717 2056.899902
132.091782 342.799988
133.100464 830.612976
134.09938 181.682693
135.077789 1917.630981
136.103088 303.129608
138.035751 145.538498
142.069855 177.022095
143.080688 189.008301
144.08165 382.881714
145.100082 2138.35498
146.099411 248.470001
148.110306 186.281693
149.094727 153.371201
152.057236 246.555801
153.088196 608.901123
154.08403 1097.864014
156.097931 342.370697
157.08934 140.086304
158.100525 315.338898
159.111954 149.778793
160.10994 710.177979
162.12738 1350.467041
163.049026 195.391006
163.097534 186.166702
163.128738 413.393402
164.14772 199.149994
166.069946 164.230392
168.066513 226.795105
169.102951 718.512329
170.093307 367.115814
171.101913 183.561005
172.111649 959.075378
174.057785 314.963013
174.128906 503.247101
176.143372 17311.0
176.260529 172.434097
177.151108 1001.018005
178.070328 306.886597
180.060822 649.234619
181.078156 143.306198
184.108063 163.814499
186.058243 470.75
186.127472 15801.919922
186.25029 164.928604
187.13443 140.917603
188.071136 1171.916992
188.140518 450.451385
189.075653 199.290298
190.162292 354.541687
192.085709 143.011398
198.057983 2105.947021
204.083893 2399.376953
206.095596 429.659912
207.033508 234.0
211.066574 442.003113
212.073456 934.777893
213.065659 231.3647
214.151321 230.266693
217.168976 4241.546875
218.094818 134.0
223.059967 1179.932007
224.071823 543.025024
224.139816 222.051102
225.058823 231.141998
227.089462 150.120102
228.092773 259.048096
230.102875 227.551102
231.183472 678.349976
232.117004 252.393707
236.072098 153.666702
239.083618 326.480011
240.096466 146.133102
241.100342 475.561798
248.153076 170.889694
249.140167 487.338196
251.086975 149.631607
252.959503 138.893097
254.130997 208.107803
256.115906 1687.525024
257.123444 197.005203
258.131073 897.012329
267.001373 267.412811
273.141846 580.092773
279.120056 183.9646
281.048096 836.880127
281.135773 355.864288
282.059235 136.125
282.131714 403.338013
284.122955 176.384598
289.169647 302.768188
293.144196 288.561005
296.145905 304.883392
298.127777 294.131592
299.157166 3412.906006
300.156494 161.280304
301.172089 231.109604
302.117401 287.044312
304.149231 239.204193
306.174347 420.415588
307.179321 234.255905
308.175598 468.629608
313.170929 285.012207
315.184143 1095.313965
316.137115 1989.47998
318.145325 160.070297
322.137695 169.803604
324.139465 2014.071045
325.147766 370.666687
326.145447 839.021118
333.163025 1251.444946
334.199341 148.291702
338.142975 477.5
340.155853 1232.282959
341.167908 2040.142944
342.151855 12218.19043
343.154144 856.9021
343.209045 507.629089
344.166412 874.690002
344.209045 638.240723
350.142365 613.349976
352.162292 158.426697
354.168121 219.068802
355.06842 1461.369995
356.068604 655.0
357.057068 392.330109
359.177948 11006.80957
360.179657 716.215515
361.195557 323.382111
364.159058 195.899994
368.202148 134.017899
371.100098 1280.097046
372.105835 331.071014
373.199982 359.539795
376.158051 372.083313
377.176758 156.142395
382.186798 168.7285
386.221375 418.882904
389.15976 215.017899
390.171112 182.512497
391.164459 220.145401
393.181488 500.189209
395.200592 168.456894
403.220337 173.755096
404.236542 2801.881104
405.189484 591.564575
417.694061 159.878403
428.193817 198.343796
431.195465 247.588196
433.213593 251.285599
436.257477 153.166
445.214203 393.185699
450.237579 337.661407
451.24234 252.046906
453.726929 203.688904
467.275085 177.561401
468.218689 1282.78894
476.755951 155.941193
477.281616 496.899994
478.282806 831.001526
481.205139 146.288406
482.236603 168.070206
485.245941 4575.225098
486.238098 360.531494
493.257111 895.47937
494.235077 9660.777344
495.240601 628.039978
496.250397 553.82312
499.262146 172.001801
509.23996 139.889099
511.260834 102410.898438
512.263123 3784.764893
512.447632 242.400406
512.905762 149.652298
513.141479 139.253693
513.272705 1409.041992
513.835144 138.780106
524.256897 134.083298
525.275024 1582.58606
526.266968 169.811005
531.798767 166.973007
533.275513 159.529495
534.290649 403.769989
537.233704 139.679001
538.210449 146.225601
539.290649 2122.300049
554.288513 304.679291
556.318481 133141.09375
557.321899 4577.402832
557.582642 199.923798
557.648804 180.404404
558.26593 192.422897
558.693848 144.6716
