>compound Brompheniramine
>formula C16H19BrN2
>ionization [M+H]+
>parentmass 319.080566
#inchi InChI=1S/C16H19BrN2/c1-19(2)12-10-15(16-5-3-4-11-18-16)13-6-8-14(17)9-7-13/h3-9,11,15H,10,12H2,1-2H3
#inchikey ZDIGNSYAACHWNL
#origInchi InChI=1S/C16H19BrN2.C4H4O4/c1-19(2)12-10-15(16-5-3-4-11-18-16)13-6-8-14(17)9-7-13;5-3(6)1-2-4(7)8/h3-9,11,15H,10,12H2,1-2H3;1-2H,(H,5,6)(H,7,8)/b;2-1-
#Ion_Source LC-ESI
#Instrument qTof
#Compound_Source Commercial
#PI Dorrestein
#Data_Collector Garg_Neha
#Scan -1
#Precursor_MZ 319.08
#ExactMass 318.073
#Charge 1
#CAS_Number 980-71-2
#Pubmed_ID N/A
#Smiles C1(C(CCN(C)C)C2=CC=CC=N2)(=CC=C(C=C1)Br).OC(/C=C\C(O)=O)=O
#INCHI_AUX N/A
#Library_Class 1
#SpectrumID CCMSLIB00000078522
#IonMode Positive
#UpdateWorkflowName UPDATE-SINGLE-ANNOTATED-GOLD
#LibraryQualityString Gold
#TaskID 77f51c88eb8b467eb4a01dd2d0cb90d2
##Scan# 1065
#SpectrumFile Plate8_41_60_GC11_01_15764.mzXML
#LibraryName FDALibrary_2_04302014.mgf
#MQScore -1
#Organism FDALibrary_2_04302014
#TIC_Query 0
#RT_Query -1
#MZErrorPPM -1
#SharedPeaks 0
#MassDiff 0
#LibMZ -1
#SpecMZ 319.08
#SpecCharge 0
#internalFilename spec-00000.mgf

>collision 10
45.506413 164.0
45.721493 148.0
45.968113 220.0
46.794968 152.0
47.055386 172.0
47.131874 196.0
48.972321 200.0
49.268051 164.0
49.780701 148.0
50.348248 180.0
51.108078 148.0
51.781895 172.0
51.959648 148.0
52.792217 164.0
55.037083 148.0
55.414055 188.0
55.629101 140.0
56.06789 144.0
56.434895 136.0
57.825153 172.0
58.000854 160.0
58.51281 176.0
59.186157 168.0
60.425213 148.0
60.493309 156.0
61.433498 180.0
61.954086 156.0
62.157917 208.0
62.648472 156.0
62.883423 176.0
63.886471 196.0
64.077522 172.0
64.220993 144.0
64.895859 148.0
66.847198 144.0
67.027954 192.0
67.088257 148.0
67.179581 180.0
67.58313 216.0
67.727196 160.0
68.952995 236.0
69.534325 140.0
69.858543 136.0
70.689255 144.0
71.311455 156.0
71.454391 204.0
73.024239 176.0
73.550743 168.0
74.219673 192.0
74.8228 152.0
75.331505 148.0
75.435188 232.0
76.103935 160.0
76.251595 140.0
77.760269 172.0
78.105019 180.0
78.140205 152.0
78.263412 196.0
78.462509 184.0
79.11795 148.0
79.337631 140.0
80.438812 152.0
80.694283 164.0
82.273521 172.0
82.580978 136.0
82.618698 164.0
83.45845 160.0
83.527557 140.0
86.589272 168.0
86.81723 160.0
87.92231 192.0
88.168831 164.0
88.728516 168.0
89.058792 180.0
89.283257 176.0
89.617523 164.0
90.79142 200.0
91.007751 160.0
91.053322 220.0
91.770737 140.0
92.11409 220.0
92.141006 148.0
92.196419 156.0
92.776398 140.0
92.881866 144.0
93.964951 144.0
94.215935 148.0
94.550453 156.0
94.790588 180.0
95.723015 152.0
96.521194 216.0
97.391281 184.0
98.735474 224.0
100.12056 128.0
101.25914 148.0
102.829399 148.0
102.924278 152.0
104.886139 172.0
105.490364 240.0
105.766518 164.0
105.971313 236.0
106.159897 188.0
106.231682 192.0
106.29528 252.0
106.761604 144.0
107.406273 148.0
107.928772 180.0
109.812363 152.0
109.937538 140.0
110.547752 156.0
112.272514 160.0
112.855339 164.0
113.01609 172.0
114.66613 156.0
114.877228 176.0
115.054352 152.0
116.465561 140.0
117.053886 304.0
117.17762 172.0
117.221649 184.0
118.064003 1172.0
118.346107 184.0
119.311592 208.0
119.516045 168.0
119.576973 160.0
120.073021 144.0
120.28537 168.0
121.460442 148.0
123.334312 140.0
123.728073 144.0
124.541916 192.0
126.307304 192.0
126.360992 148.0
127.182358 100.0
127.439445 172.0
127.936493 164.0
128.931213 152.0
129.166367 176.0
129.365494 140.0
129.839066 244.0
130.165848 196.0
130.863907 188.0
131.299149 212.0
132.091736 148.0
132.292816 160.0
134.490997 152.0
134.563675 216.0
135.496628 264.0
136.331635 140.0
137.557098 212.0
137.69487 144.0
138.492432 140.0
139.048859 280.0
139.240631 196.0
140.049713 180.0
141.036011 160.0
141.068497 156.0
142.184021 160.0
145.188416 168.0
145.315552 240.0
145.661255 160.0
146.563446 152.0
147.722321 184.0
149.137314 172.0
149.78569 140.0
149.895325 148.0
150.061081 156.0
151.216537 160.0
152.580414 160.0
152.708572 152.0
153.343506 180.0
154.143097 160.0
155.942337 144.0
156.409958 172.0
156.663956 168.0
157.022888 144.0
157.33757 148.0
157.882019 140.0
158.35437 180.0
161.610077 200.0
163.289429 148.0
163.811234 192.0
164.267532 356.0
165.078278 180.0
165.284378 168.0
165.340683 168.0
165.527557 168.0
165.673553 172.0
166.061356 256.0
166.106781 164.0
166.625351 168.0
166.687027 140.0
166.843811 160.0
167.026382 148.0
167.07225 19508.0
167.131439 212.0
167.842804 224.0
167.958847 156.0
168.074844 2024.0
168.206573 176.0
168.964005 1112.0
169.078705 164.0
169.230347 192.0
169.251053 148.0
169.311249 132.0
169.477905 128.0
169.970215 172.0
170.439056 164.0
170.957489 232.0
172.017334 140.0
172.819672 164.0
172.856308 156.0
173.576675 156.0
173.644852 212.0
173.686829 184.0
174.322189 184.0
175.897186 156.0
176.557739 228.0
177.163879 168.0
178.185287 160.0
178.467026 172.0
178.669159 172.0
178.743652 200.0
179.452179 152.0
179.881699 140.0
180.079987 4024.0
180.127365 152.0
180.509567 196.0
180.723557 156.0
181.082962 460.0
181.631744 156.0
182.015533 248.0
183.101547 128.0
183.63562 200.0
183.944702 176.0
185.312546 184.0
186.361694 216.0
186.751984 176.0
187.11676 148.0
187.420135 180.0
187.7827 148.0
188.110138 140.0
188.402344 200.0
189.80368 160.0
191.725235 160.0
192.075394 156.0
193.008865 180.0
193.084763 208.0
193.947388 220.0
194.039474 288.0
194.095306 2976.0
194.138687 172.0
194.643738 156.0
195.100983 940.0
196.105957 132.0
196.765411 148.0
197.240021 164.0
198.564697 200.0
199.058624 180.0
199.395737 176.0
200.132782 156.0
200.25386 172.0
200.78418 124.0
201.359467 144.0
201.53714 184.0
202.218979 168.0
202.765594 176.0
203.09166 148.0
203.15123 180.0
203.383911 176.0
203.585495 140.0
204.314667 188.0
205.002213 152.0
205.090561 144.0
205.97226 180.0
206.406677 176.0
208.387314 176.0
208.776627 180.0
209.19545 144.0
210.186905 180.0
210.911804 204.0
211.088165 140.0
212.165253 140.0
212.908081 152.0
213.287796 164.0
214.683304 220.0
215.334122 140.0
215.866013 172.0
215.957687 288.0
216.585983 160.0
217.956039 268.0
218.770737 224.0
220.954636 220.0
221.840118 220.0
222.528412 144.0
224.108582 148.0
225.148849 156.0
227.091888 440.0
227.244247 168.0
227.274246 176.0
228.244461 196.0
228.560287 172.0
228.692703 168.0
231.064606 152.0
231.536819 216.0
232.315811 168.0
232.5009 208.0
232.579819 160.0
234.163925 180.0
235.051071 196.0
235.086533 160.0
235.933762 140.0
236.053009 188.0
236.245697 244.0
236.582321 280.0
237.182739 180.0
237.409622 204.0
237.464828 144.0
237.64888 152.0
237.823807 152.0
238.39769 140.0
238.570251 180.0
238.800873 192.0
239.090088 156.0
239.136246 176.0
240.29184 160.0
240.507858 172.0
240.560333 176.0
241.000732 140.0
241.589493 136.0
242.360321 156.0
242.509735 192.0
242.623764 216.0
242.91217 156.0
243.542297 144.0
244.241669 156.0
244.980637 1596.0
245.36586 204.0
245.99054 3600.0
246.427017 200.0
246.979752 2040.0
247.568756 152.0
247.988022 2820.0
248.684875 140.0
248.992264 152.0
250.726074 168.0
251.410416 172.0
252.054626 180.0
253.548309 168.0
254.601578 152.0
254.671463 196.0
254.846176 152.0
255.62204 152.0
258.995026 204.0
259.23056 172.0
259.724274 212.0
259.997253 148.0
261.65564 144.0
262.520477 228.0
262.628845 144.0
263.464905 160.0
263.965881 152.0
265.52774 176.0
265.899414 124.0
266.539673 176.0
267.313599 184.0
268.251617 148.0
269.501587 160.0
270.011566 148.0
270.312531 160.0
270.44342 168.0
270.587463 164.0
270.908417 188.0
272.003143 256.0
272.282776 148.0
272.956146 128.0
273.01181 184.0
273.117615 160.0
273.176819 212.0
273.206421 208.0
273.290375 164.0
273.407074 148.0
273.516357 112.0
273.575409 200.0
273.60199 124.0
273.657684 136.0
273.720795 144.0
273.757812 384.0
273.861511 160.0
273.893707 184.0
273.936646 220.0
274.022766 190756.0
274.119781 296.0
274.208405 176.0
274.254364 228.0
274.309143 132.0
274.358093 228.0
274.391083 176.0
274.428192 176.0
274.497223 168.0
274.519104 108.0
274.564331 1292.0
274.598389 188.0
274.662903 152.0
274.72879 232.0
274.779999 120.0
274.813995 120.0
274.881287 272.0
274.912781 228.0
275.025085 26564.0
275.386902 192.0
275.413727 156.0
275.47464 252.0
275.520844 168.0
275.578125 212.0
275.658752 180.0
275.714966 124.0
275.804443 204.0
275.918457 124.0
275.959564 312.0
275.969574 220.0
276.020721 146760.0
276.117584 344.0
276.224091 164.0
276.250824 196.0
276.299316 168.0
276.369781 116.0
276.463898 184.0
276.487946 148.0
276.564362 664.0
276.613678 100.0
276.68457 120.0
276.719727 124.0
276.769012 172.0
276.810577 268.0
276.846252 200.0
276.896881 172.0
276.975555 232.0
277.023743 15592.0
277.203552 216.0
277.24054 160.0
277.368713 192.0
277.480988 152.0
277.515564 244.0
277.701294 116.0
277.74118 144.0
277.926636 208.0
278.025696 196.0
278.405151 100.0
278.466553 124.0
278.537903 120.0
278.591156 100.0
278.722809 104.0
278.779083 252.0
278.823395 144.0
278.927063 140.0
279.017853 152.0
279.11322 100.0
279.404663 96.0
279.724976 208.0
279.775726 208.0
280.245331 260.0
284.600281 196.0
285.467224 208.0
291.266083 104.0
291.53479 180.0
291.824341 160.0
293.970306 148.0
294.06723 100.0
298.867035 152.0
306.603271 148.0
309.523743 140.0
312.65509 168.0
315.169403 148.0
316.251556 140.0
317.062622 164.0
317.149445 152.0
317.654999 168.0
318.062805 148.0
318.224731 124.0
318.676086 192.0
318.939423 132.0
319.080566 42616.0
319.153687 148.0
319.194153 308.0
319.71344 116.0
319.760712 224.0
320.082642 5952.0
320.209351 148.0
320.261444 156.0
320.508057 136.0
320.782227 100.0
320.926056 160.0
320.990021 132.0
321.025696 140.0
321.078522 36476.0
321.272552 228.0
321.672211 208.0
321.941895 140.0
322.079559 3548.0
322.147888 204.0
322.608246 148.0
323.087708 240.0
323.425903 104.0
323.780518 112.0
324.371399 120.0
361.520264 152.0
365.489532 180.0
764.353394 148.0
872.543701 156.0
898.6875 160.0
1101.19397 176.0
1130.165649 184.0
1377.231445 144.0
1522.894287 144.0
1553.807373 180.0
1633.45459 140.0
1687.876709 144.0
1751.052246 144.0
1824.524902 200.0
1829.161133 196.0
1844.515625 156.0
1882.21521 164.0
1921.011353 180.0
1965.220581 148.0
1979.230469 192.0
1992.179443 140.0
