>compound MLS001056593-01!
>formula C24H22N2O3
>ionization [M+H]+
>parentmass 387.170258
#inchi InChI=1S/C24H22N2O3/c1-2-3-22-23(16-4-10-19(27)11-5-16)25-26(18-8-14-21(29)15-9-18)24(22)17-6-12-20(28)13-7-17/h4-15,27-29H,2-3H2,1H3
#inchikey IOTXSIGGFRQYKW
#Ion_Source LC-ESI
#Instrument qTof
#Compound_Source NIH Pharmacologically Active Library
#PI Dorrestein
#Data_Collector VP/LMS
#Scan -1
#Precursor_MZ 387.171
#ExactMass 386.163
#Charge 1
#CAS_Number N/A
#Pubmed_ID N/A
#Smiles CCCc1c(nn(c1c2ccc(O)cc2)c3ccc(O)cc3)c4ccc(O)cc4
#INCHI_AUX N/A
#Library_Class 1
#SpectrumID CCMSLIB00000084978
#IonMode Positive
#UpdateWorkflowName UPDATE-SINGLE-ANNOTATED-GOLD
#LibraryQualityString Gold
#TaskID d252d724072548979f1f6f1ced849daf
##Scan# 2037
#SpectrumFile p3-D05_GD5_01_18262.mzXML
#LibraryName Pharm_Active_Library.mgf
#MQScore -1
#Organism Pharm_Active_Library
#TIC_Query 0
#RT_Query -1
#MZErrorPPM -1
#SharedPeaks 0
#MassDiff 0
#LibMZ -1
#SpecMZ 387.171
#SpecCharge 0
#internalFilename spec-00000.mgf

>collision 10
44.909679 144.0
45.067211 76.0
45.076569 40.0
45.211639 188.0
45.230377 140.0
45.361656 152.0
45.393837 60.0
45.48373 116.0
45.522667 280.0
45.645512 184.0
45.657059 136.0
45.725677 240.0
45.807816 192.0
45.817245 104.0
45.872501 156.0
45.926441 208.0
45.93993 220.0
46.219612 176.0
46.344189 168.0
46.574825 152.0
46.774719 132.0
46.791058 232.0
46.860519 168.0
46.977772 120.0
47.048737 164.0
47.062393 140.0
47.085609 116.0
47.33725 208.0
47.50584 164.0
47.740723 212.0
47.828217 180.0
47.962395 88.0
48.119667 68.0
48.16386 332.0
48.179054 148.0
48.25922 216.0
48.462692 220.0
48.530613 192.0
48.559734 68.0
48.588867 100.0
48.613842 200.0
48.63744 144.0
48.65271 180.0
48.691589 136.0
48.813889 200.0
48.897362 116.0
48.975334 220.0
49.050583 160.0
49.151001 200.0
49.227779 212.0
49.313004 212.0
49.377319 140.0
49.388062 224.0
49.426285 164.0
49.441681 128.0
49.521484 112.0
49.633602 144.0
49.660248 172.0
49.68129 120.0
49.77282 152.0
49.855236 196.0
49.879303 200.0
50.080524 172.0
50.141109 124.0
50.229942 156.0
50.246872 168.0
50.382408 148.0
50.413494 196.0
50.634201 144.0
50.646946 220.0
50.658279 156.0
50.746151 160.0
50.805721 148.0
50.949112 168.0
51.007378 132.0
51.035812 132.0
51.192345 180.0
51.245049 104.0
51.269276 84.0
51.343971 264.0
51.478989 212.0
51.707737 172.0
51.865295 84.0
51.891102 164.0
51.967121 120.0
52.007301 116.0
52.115013 188.0
52.242973 112.0
52.265995 140.0
52.405666 128.0
52.588818 36.0
52.806999 172.0
52.896713 208.0
53.002106 208.0
53.031425 100.0
53.08942 96.0
53.112629 152.0
53.198246 172.0
53.334797 212.0
53.349335 156.0
53.427868 152.0
53.542862 168.0
53.564713 132.0
53.576366 152.0
53.58802 148.0
53.615711 164.0
53.690063 164.0
53.720695 152.0
53.757172 44.0
53.822865 248.0
54.01725 228.0
54.21785 148.0
54.301418 192.0
54.342495 260.0
54.370377 124.0
54.68932 140.0
54.80714 160.0
54.990009 156.0
55.019531 108.0
55.06974 276.0
55.102242 136.0
55.193882 164.0
55.251568 204.0
55.518196 136.0
55.610184 200.0
55.739391 128.0
55.803307 160.0
55.98634 52.0
56.039967 384.0
56.104053 32.0
56.124928 188.0
56.135368 156.0
56.220402 180.0
56.295048 108.0
56.344337 136.0
56.44598 276.0
56.469097 96.0
56.493843 172.0
56.547714 44.0
56.573158 108.0
56.610592 32.0
56.734959 192.0
56.781445 128.0
56.793022 156.0
56.851959 148.0
56.925518 200.0
56.937534 80.0
57.06226 176.0
57.131443 164.0
57.319508 188.0
57.343765 176.0
57.527794 160.0
57.565544 148.0
57.592728 140.0
57.704559 180.0
57.818012 88.0
57.834663 132.0
57.904312 224.0
57.946728 180.0
57.983097 120.0
58.07407 52.0
58.086205 160.0
58.152969 136.0
58.180294 120.0
58.209145 168.0
58.348934 128.0
58.52821 180.0
58.621403 136.0
58.66713 176.0
58.807468 156.0
58.876175 100.0
58.891449 128.0
59.009121 164.0
59.053467 152.0
59.183552 148.0
59.19733 208.0
59.362839 60.0
59.397865 172.0
59.444145 188.0
59.547005 236.0
59.570045 156.0
59.65918 164.0
59.717613 136.0
59.74992 128.0
59.765305 100.0
59.813015 160.0
59.825333 44.0
59.905411 52.0
60.124367 48.0
60.275322 192.0
60.385475 108.0
60.547985 176.0
60.578964 196.0
60.6208 156.0
60.713818 104.0
60.747944 148.0
60.813114 56.0
60.827087 44.0
60.912495 80.0
60.994854 140.0
61.418404 148.0
61.471451 136.0
61.508907 176.0
61.554188 100.0
61.572926 160.0
61.661983 164.0
61.681522 188.0
61.788647 200.0
61.855942 132.0
61.901344 116.0
61.934235 128.0
62.048637 212.0
62.089405 184.0
62.120415 132.0
62.188251 128.0
62.21965 204.0
62.236919 60.0
62.301315 108.0
62.420773 200.0
62.552933 172.0
62.595444 92.0
62.741982 100.0
62.832146 188.0
62.844501 192.0
63.065598 116.0
63.196857 196.0
63.230091 232.0
63.249084 228.0
63.453445 132.0
63.488331 188.0
63.521641 180.0
63.54068 156.0
63.610508 212.0
63.660114 132.0
63.788425 184.0
63.872707 180.0
64.235909 180.0
64.25824 132.0
64.371574 204.0
64.400322 200.0
64.654541 152.0
64.688148 164.0
64.837112 136.0
64.885201 144.0
64.971809 128.0
65.024765 104.0
65.050491 140.0
65.06971 128.0
65.141983 192.0
65.211075 160.0
65.288254 96.0
65.549049 148.0
65.643127 188.0
65.671577 204.0
65.821327 172.0
65.904045 100.0
65.920204 172.0
66.12236 68.0
66.149879 204.0
66.202988 100.0
66.311104 128.0
66.391304 140.0
66.485397 172.0
66.599052 120.0
66.768089 40.0
66.930824 176.0
66.94548 224.0
67.046486 200.0
67.180199 188.0
67.229149 136.0
67.322205 136.0
67.443108 144.0
67.576141 172.0
67.652496 104.0
67.931091 180.0
68.057465 168.0
68.121513 160.0
68.256287 188.0
68.2826 132.0
68.412598 140.0
68.443878 76.0
68.65976 132.0
68.738945 92.0
68.78186 64.0
68.834694 128.0
68.963562 92.0
68.986702 156.0
69.013153 168.0
69.0942 124.0
69.12439 184.0
69.158737 36.0
69.178604 160.0
69.211716 180.0
69.286629 156.0
69.301163 260.0
69.352539 64.0
69.380714 164.0
69.417198 156.0
69.4935 164.0
69.534988 200.0
69.735321 220.0
69.779182 160.0
70.132103 144.0
70.195457 112.0
70.220474 156.0
70.295547 144.0
70.368996 160.0
70.489258 64.0
70.515999 84.0
70.611305 152.0
70.661484 56.0
70.704994 96.0
70.761909 212.0
70.782005 152.0
70.814941 216.0
70.902618 224.0
71.214691 76.0
71.303741 68.0
71.416397 140.0
71.485374 196.0
71.529137 112.0
71.636909 40.0
71.788605 136.0
72.009697 188.0
72.078964 124.0
72.134735 144.0
72.324425 176.0
72.491867 132.0
72.544411 148.0
72.670403 176.0
72.71064 56.0
72.806366 208.0
72.826096 164.0
72.922943 148.0
72.943344 164.0
73.005035 184.0
73.057281 228.0
73.094711 204.0
73.140663 180.0
73.213875 164.0
73.241127 188.0
73.293945 276.0
73.519043 136.0
73.56617 192.0
73.768417 140.0
73.782097 196.0
73.812874 44.0
73.877869 156.0
73.900108 132.0
73.951447 92.0
74.043907 64.0
74.114143 188.0
74.253006 228.0
74.43148 112.0
74.488159 140.0
74.649719 184.0
74.820068 84.0
74.845894 136.0
74.921677 176.0
74.997498 156.0
75.173416 180.0
75.270088 172.0
75.327087 188.0
75.345032 100.0
75.365097 248.0
75.422127 144.0
75.515495 44.0
75.534523 164.0
76.123817 132.0
76.163757 248.0
76.182869 176.0
76.370605 164.0
76.405403 160.0
76.549873 168.0
76.629997 204.0
76.718491 160.0
76.752617 196.0
76.821777 84.0
77.006805 228.0
77.607063 64.0
77.735115 80.0
77.764946 216.0
77.780746 180.0
77.998566 144.0
78.148048 124.0
78.35405 236.0
78.456268 140.0
78.503876 232.0
78.872887 168.0
78.888794 180.0
78.941399 216.0
79.055054 172.0
79.118782 136.0
79.138252 76.0
79.233894 160.0
79.34201 96.0
79.434441 164.0
79.672112 156.0
79.72364 156.0
79.768074 188.0
79.825455 160.0
79.974419 176.0
79.993996 168.0
80.011795 204.0
80.116875 272.0
80.145386 68.0
80.197067 184.0
80.220238 192.0
80.255898 216.0
80.275513 172.0
80.323669 148.0
80.355782 136.0
80.411095 36.0
80.47715 128.0
80.516434 72.0
80.786346 64.0
80.918785 212.0
81.099716 240.0
81.210884 164.0
81.239586 156.0
81.289825 220.0
81.408195 124.0
81.433449 212.0
81.556488 120.0
81.586189 176.0
81.699493 116.0
81.83448 172.0
81.965973 40.0
82.016434 168.0
82.063309 128.0
82.142296 60.0
82.18634 184.0
82.200394 184.0
82.285233 164.0
82.332176 136.0
82.379143 44.0
82.422501 188.0
82.476723 96.0
82.503838 144.0
82.590637 168.0
82.708252 36.0
82.758949 208.0
82.775246 132.0
82.833199 156.0
82.894806 52.0
82.920174 136.0
82.976372 80.0
83.059792 160.0
83.108772 176.0
83.130554 156.0
83.154144 80.0
83.199524 140.0
83.226761 112.0
83.330292 188.0
83.344826 128.0
83.55938 192.0
83.577576 76.0
83.63945 208.0
83.78849 176.0
83.821579 116.0
83.875771 136.0
83.910896 156.0
83.961952 140.0
84.305176 236.0
84.464241 116.0
84.53743 112.0
84.623116 212.0
84.777328 116.0
85.006561 144.0
85.076309 152.0
85.138741 208.0
85.277809 144.0
85.296753 136.0
85.365608 148.0
85.475159 140.0
85.565346 172.0
85.717712 156.0
85.761528 268.0
85.812233 128.0
85.856491 144.0
85.876778 144.0
85.92186 164.0
85.967178 168.0
86.039169 212.0
86.137047 160.0
86.329048 136.0
86.372864 168.0
86.605034 252.0
86.922066 188.0
87.047516 248.0
87.269417 60.0
87.434975 180.0
87.567169 156.0
87.623055 200.0
87.69429 192.0
87.744194 160.0
87.83744 128.0
87.865425 148.0
88.076378 156.0
88.147369 180.0
88.209045 172.0
88.285706 180.0
88.384857 120.0
88.40731 164.0
88.429771 104.0
88.479309 180.0
88.596428 68.0
88.615166 132.0
88.979019 156.0
89.050377 164.0
89.104858 168.0
89.127403 156.0
89.198822 124.0
89.21386 68.0
89.275909 88.0
89.360558 88.0
89.391579 168.0
89.488548 140.0
89.511139 152.0
89.560112 164.0
89.577065 200.0
89.658081 228.0
89.735367 112.0
89.77874 108.0
89.869286 136.0
89.899475 160.0
90.010857 172.0
90.069405 172.0
90.10022 180.0
90.156319 192.0
90.2584 148.0
90.345398 132.0
90.464622 52.0
90.582039 180.0
90.606667 172.0
90.627502 168.0
90.642662 144.0
90.709 108.0
90.77536 140.0
90.934723 180.0
90.970787 200.0
91.053871 664.0
91.084724 44.0
91.107521 148.0
91.278587 172.0
91.291893 156.0
91.310913 136.0
91.385101 76.0
91.423164 184.0
91.50692 132.0
91.642151 192.0
91.716476 268.0
91.750168 124.0
92.048439 108.0
92.06945 172.0
92.094276 208.0
92.264351 112.0
92.459457 120.0
92.522629 188.0
92.679688 132.0
92.819611 176.0
92.836876 84.0
92.886742 160.0
92.917435 208.0
93.031799 272.0
93.178543 108.0
93.224663 148.0
93.276558 52.0
93.328468 96.0
93.402328 180.0
93.574745 120.0
93.699936 228.0
93.744255 104.0
93.852203 164.0
93.86956 136.0
94.230515 192.0
94.303947 144.0
94.389015 120.0
94.518616 80.0
94.575386 240.0
94.625076 148.0
94.652184 200.0
94.681976 108.0
94.913773 192.0
95.096138 224.0
95.15049 108.0
95.193207 200.0
95.233994 144.0
95.247589 136.0
95.286446 96.0
95.313644 188.0
95.399605 196.0
95.749413 44.0
95.786423 192.0
95.811745 200.0
95.83123 120.0
95.850716 140.0
95.89164 220.0
95.975464 168.0
96.049576 164.0
96.227165 148.0
96.303329 136.0
96.361931 188.0
96.442055 156.0
96.522217 136.0
97.019531 32.0
97.0411 88.0
97.086205 172.0
97.143082 180.0
97.213715 172.0
97.351135 128.0
97.374702 164.0
97.443459 164.0
97.687241 188.0
97.78759 52.0
97.830902 136.0
97.964813 208.0
98.029831 156.0
98.146133 108.0
98.256592 120.0
98.33947 156.0
98.406586 168.0
98.465828 156.0
98.487556 224.0
98.54287 120.0
98.625877 184.0
98.651573 160.0
98.726707 220.0
98.76429 68.0
98.896858 144.0
98.992531 124.0
99.043381 152.0
99.059235 384.0
99.211823 204.0
99.259407 180.0
99.332794 148.0
99.348663 160.0
99.483833 144.0
99.680824 220.0
99.763725 64.0
99.904922 176.0
99.974564 44.0
100.147781 196.0
100.500641 176.0
100.530571 140.0
100.729111 216.0
100.952095 140.0
100.995071 176.0
101.298355 68.0
101.383759 224.0
101.468704 124.0
101.49276 208.0
101.574989 120.0
101.659256 168.0
101.729507 116.0
101.823883 144.0
101.843971 124.0
102.008743 136.0
102.030945 88.0
102.046944 220.0
102.227974 140.0
102.284332 108.0
102.425285 120.0
102.638916 140.0
102.751869 136.0
102.889114 188.0
102.953728 180.0
103.016342 200.0
103.030479 116.0
103.054253 544.0
103.12748 52.0
103.310486 196.0
103.337791 112.0
103.360054 248.0
103.408623 140.0
103.489601 188.0
103.544273 168.0
103.596939 212.0
103.669884 192.0
103.696228 72.0
103.710419 56.0
103.783401 180.0
103.986267 72.0
104.002502 164.0
104.020775 172.0
104.048996 368.0
104.073555 88.0
104.087769 76.0
104.256378 156.0
104.305161 224.0
104.461746 152.0
104.528885 136.0
104.661194 144.0
104.701927 184.0
104.956657 108.0
104.970932 460.0
104.991325 76.0
105.037086 228.0
105.068901 692.0
105.138214 72.0
105.315842 220.0
105.472473 128.0
105.526329 144.0
105.56723 136.0
105.622452 152.0
105.657227 176.0
105.698151 136.0
105.808678 124.0
106.039604 164.0
106.061905 324.0
106.165215 120.0
106.271881 244.0
106.781342 132.0
106.797798 128.0
106.849228 120.0
106.952118 48.0
106.96859 168.0
106.997406 264.0
107.049103 4272.0
107.092133 156.0
107.155998 80.0
107.238426 92.0
107.366257 92.0
107.471458 128.0
107.490028 172.0
107.518921 180.0
107.628334 124.0
107.675827 92.0
107.791519 144.0
107.857658 144.0
107.946556 160.0
108.016876 256.0
108.044327 2224.0
108.109985 196.0
108.130684 136.0
108.149307 60.0
108.433067 184.0
108.534645 232.0
108.845901 112.0
108.895813 116.0
108.947678 120.0
108.978836 164.0
109.0541 448.0
109.122253 100.0
109.145126 132.0
109.178398 256.0
109.37487 252.0
109.52182 128.0
109.557228 104.0
109.594734 60.0
109.824051 132.0
109.893913 172.0
109.997246 144.0
110.055702 176.0
110.108406 184.0
110.195648 156.0
110.364944 88.0
110.513458 180.0
110.536476 92.0
110.63694 140.0
110.714417 136.0
110.840103 216.0
110.884361 172.0
110.974258 112.0
110.99942 192.0
111.2323 84.0
111.347786 44.0
111.385597 212.0
111.429031 124.0
111.856628 136.0
111.890312 128.0
111.909256 120.0
111.93663 76.0
112.048264 72.0
112.063446 176.0
112.145203 176.0
112.214767 160.0
112.503807 192.0
112.632622 64.0
112.721359 140.0
112.736153 60.0
112.848183 100.0
112.877785 192.0
112.907394 176.0
112.922089 76.0
112.939117 188.0
113.023743 60.0
113.218498 196.0
113.254501 132.0
113.383751 132.0
113.413422 100.0
113.438858 128.0
113.457939 152.0
113.593658 132.0
113.661552 148.0
113.816513 104.0
113.856857 64.0
113.931206 96.0
113.982193 196.0
114.139496 160.0
114.213936 208.0
114.275627 184.0
114.641884 140.0
114.669235 168.0
114.776176 56.0
114.911636 136.0
114.934944 168.0
115.00872 160.0
115.054367 836.0
115.217995 148.0
115.239365 192.0
115.568535 80.0
115.70562 156.0
115.823402 204.0
116.058228 280.0
116.071976 240.0
116.252205 104.0
116.357384 36.0
116.477646 96.0
116.656006 156.0
116.858162 184.0
116.881836 140.0
116.901199 76.0
117.000214 76.0
117.023895 184.0
117.06546 168.0
117.146652 204.0
117.176819 48.0
117.200516 64.0
117.228531 132.0
117.30397 56.0
117.416985 164.0
117.696632 136.0
117.906586 148.0
118.0467 120.0
118.066162 140.0
118.152679 164.0
118.180809 144.0
118.323662 100.0
118.353973 100.0
118.436272 144.0
118.537697 152.0
118.590111 212.0
118.713684 160.0
118.832993 260.0
118.882896 132.0
118.93499 148.0
118.978401 60.0
119.021828 208.0
119.048767 6068.0
119.085434 140.0
119.126076 260.0
119.21299 148.0
119.230377 132.0
119.24559 156.0
119.267326 136.0
119.293411 72.0
119.350891 200.0
119.414719 132.0
119.53701 196.0
119.57618 152.0
119.665436 120.0
119.817894 140.0
119.84404 36.0
119.975899 160.0
120.014053 160.0
120.044121 14180.0
120.1231 124.0
120.176125 196.0
120.199463 88.0
120.214737 68.0
120.286766 80.0
120.356628 52.0
120.409035 276.0
120.463646 76.0
120.494232 52.0
120.586006 60.0
120.601311 56.0
120.721558 64.0
120.824364 76.0
120.885628 48.0
120.995071 92.0
121.027237 220.0
121.046089 840.0
121.062614 484.0
121.1418 72.0
121.176849 92.0
121.220673 56.0
121.298294 208.0
121.382889 64.0
121.42675 60.0
121.450882 40.0
121.613251 68.0
121.74498 128.0
121.764748 112.0
121.793297 52.0
121.842033 108.0
121.920242 180.0
121.947105 124.0
122.021255 148.0
122.030472 108.0
122.035942 88.0
122.058731 372.0
122.158203 104.0
122.387093 136.0
122.444344 180.0
122.471672 188.0
122.541275 128.0
122.804733 80.0
122.849922 92.0
123.057381 132.0
123.2164 204.0
123.384369 108.0
123.409187 160.0
123.459549 236.0
123.519272 188.0
123.618835 76.0
123.680801 80.0
123.700722 68.0
123.747215 52.0
123.877884 104.0
123.904465 192.0
124.328178 144.0
124.361282 184.0
124.514481 108.0
124.858963 220.0
124.912346 140.0
124.945717 140.0
124.979088 116.0
125.016258 844.0
125.092407 92.0
125.167595 204.0
125.274391 132.0
125.435654 144.0
125.569435 152.0
125.839455 152.0
126.015732 232.0
126.091881 136.0
126.346794 152.0
126.740852 104.0
126.846191 124.0
126.879814 184.0
126.915688 176.0
126.942596 40.0
127.012291 2488.0
127.048882 344.0
127.182655 32.0
127.234291 72.0
127.292671 64.0
127.339828 200.0
127.380264 88.0
127.598251 156.0
127.757927 96.0
127.937973 116.0
127.973991 220.0
128.015167 208.0
128.057419 672.0
128.138412 64.0
128.206009 132.0
128.289413 124.0
128.307449 148.0
128.374969 160.0
128.399902 204.0
128.483353 124.0
128.539764 164.0
128.569107 148.0
128.616501 160.0
128.742935 156.0
128.812958 136.0
128.903336 108.0
129.021088 160.0
129.069626 232.0
129.152023 148.0
129.262878 112.0
129.319458 192.0
129.396423 168.0
129.457565 204.0
129.509659 220.0
129.591202 200.0
129.758926 152.0
129.804276 144.0
129.851898 172.0
129.904068 180.0
129.926758 116.0
129.976685 144.0
130.012985 48.0
130.043854 180.0
130.071991 136.0
130.132538 104.0
130.176437 124.0
130.355896 100.0
130.385437 160.0
130.628738 156.0
130.783463 136.0
130.822174 132.0
130.883636 112.0
131.013031 168.0
131.049225 1292.0
131.080063 280.0
131.157028 156.0
131.184387 112.0
131.241379 120.0
131.257339 148.0
131.2733 136.0
131.451233 76.0
131.590469 120.0
131.702377 188.0
131.727509 120.0
131.766342 104.0
132.003937 156.0
132.044662 4352.0
132.074463 376.0
132.139175 56.0
132.306076 188.0
132.335846 120.0
132.395386 168.0
132.498459 140.0
132.601578 132.0
132.68869 44.0
132.885925 188.0
132.931824 124.0
132.982315 104.0
133.009857 44.0
133.052399 6232.0
133.115463 56.0
133.165909 208.0
133.273438 88.0
133.324524 136.0
133.425659 60.0
133.683273 104.0
133.766953 148.0
133.776443 100.0
133.781082 196.0
133.858231 176.0
133.904297 64.0
134.001038 92.0
134.01947 80.0
134.057404 672.0
134.098572 160.0
134.185287 132.0
134.215393 128.0
134.284576 112.0
134.446075 52.0
134.499161 188.0
134.609985 108.0
134.713928 152.0
134.806351 48.0
134.859497 116.0
134.884308 252.0
134.933472 80.0
134.961227 100.0
134.979721 80.0
135.054886 468.0
135.1185 164.0
135.243454 144.0
135.267075 180.0
135.428696 148.0
135.486603 164.0
135.576981 96.0
135.672012 128.0
135.69751 80.0
135.720703 136.0
135.827377 128.0
136.072037 228.0
136.245239 180.0
136.36142 184.0
136.617203 184.0
136.705627 148.0
136.768463 76.0
136.929123 132.0
136.945419 172.0
136.981689 128.0
137.057251 152.0
137.164459 144.0
137.367325 164.0
137.386765 132.0
137.526001 156.0
137.645065 144.0
137.715134 48.0
137.810913 180.0
137.841293 136.0
137.930099 208.0
138.126526 44.0
138.194366 168.0
138.423767 164.0
138.636932 184.0
138.693192 116.0
138.723663 60.0
138.854965 124.0
138.880768 152.0
138.962875 188.0
139.052048 156.0
139.256317 152.0
139.366074 200.0
139.420776 128.0
139.571228 156.0
139.647003 180.0
139.766464 264.0
139.964188 216.0
140.058395 152.0
140.09137 268.0
140.341187 192.0
140.362411 224.0
140.631363 84.0
140.836777 188.0
140.860413 152.0
140.893478 160.0
140.921829 180.0
140.969086 172.0
141.023453 76.0
141.070145 272.0
141.233887 180.0
141.368744 216.0
141.394775 288.0
141.577072 120.0
141.619705 168.0
141.652863 60.0
141.690765 52.0
141.776077 140.0
141.86377 144.0
141.901703 88.0
142.022644 136.0
142.066315 196.0
142.124664 120.0
142.236206 204.0
142.262314 116.0
142.283691 148.0
142.324051 96.0
142.390533 116.0
142.518814 216.0
142.60675 144.0
142.666183 108.0
142.75415 208.0
142.775558 104.0
142.801712 148.0
142.832642 128.0
142.884979 60.0
142.939697 60.0
143.006332 200.0
143.034897 112.0
143.0849 504.0
143.277802 148.0
143.35881 188.0
143.621078 136.0
143.642548 100.0
143.75946 124.0
143.909836 132.0
144.057495 1424.0
144.089172 372.0
144.146317 76.0
144.194107 64.0
144.349503 120.0
144.371033 120.0
144.469101 184.0
144.516953 156.0
144.536087 164.0
144.581558 124.0
144.64975 196.0
144.667725 168.0
144.720398 36.0
144.772629 172.0
144.854507 188.0
145.060211 336.0
145.101349 160.0
145.168488 128.0
145.228455 96.0
145.398804 128.0
145.442001 184.0
145.557236 68.0
145.686935 104.0
146.030685 216.0
146.062439 2356.0
146.111786 28.0
146.138931 40.0
146.206314 152.0
146.264084 164.0
146.37001 168.0
146.386871 136.0
146.719376 176.0
146.914719 192.0
146.979858 56.0
147.028122 172.0
147.072067 308.0
147.099762 112.0
147.131927 320.0
147.21402 52.0
147.269562 120.0
147.344452 152.0
147.375854 156.0
147.404861 220.0
147.448364 92.0
147.593399 108.0
147.714325 52.0
147.864349 128.0
147.927277 200.0
147.985382 84.0
148.039871 352.0
148.080063 384.0
148.128265 80.0
148.232452 180.0
148.288193 128.0
148.634995 140.0
148.718658 192.0
148.817032 96.0
148.839844 132.0
148.872879 92.0
148.909317 132.0
148.95546 112.0
149.008911 204.0
149.042923 164.0
149.094589 356.0
149.142563 164.0
149.390594 128.0
149.526871 56.0
149.689972 88.0
149.724365 296.0
149.823929 92.0
149.969162 148.0
150.026215 176.0
150.057907 120.0
150.092697 716.0
150.213989 132.0
150.248138 88.0
150.283707 132.0
150.409195 164.0
150.528839 88.0
150.722717 188.0
150.91246 164.0
150.973602 200.0
151.005386 144.0
151.049744 296.0
151.09346 164.0
151.123611 136.0
151.267212 184.0
151.291687 132.0
151.37738 120.0
151.629715 108.0
151.828308 88.0
151.847931 100.0
151.869995 60.0
151.887177 216.0
152.013657 148.0
152.06308 520.0
152.130112 136.0
152.179214 108.0
152.255341 44.0
152.282349 148.0
152.407639 208.0
152.519196 184.0
152.793655 76.0
152.925049 152.0
152.951157 96.0
153.034851 120.0
153.069626 868.0
153.256531 192.0
153.431534 180.0
153.72258 164.0
153.799088 144.0
153.999084 80.0
154.06926 392.0
154.0979 40.0
154.125076 220.0
154.194275 100.0
154.298096 116.0
154.359909 176.0
154.392059 40.0
154.619675 240.0
154.659271 100.0
154.830109 152.0
154.864777 232.0
154.953964 140.0
154.998566 44.0
155.057709 208.0
155.08078 184.0
155.24646 100.0
155.271255 156.0
155.323349 104.0
155.586395 176.0
155.727737 148.0
155.797485 56.0
155.831085 172.0
155.864578 168.0
156.046021 128.0
156.080887 204.0
156.105698 84.0
156.882538 112.0
157.039902 112.0
157.063812 352.0
157.13942 112.0
157.234238 112.0
157.301636 84.0
157.628815 152.0
157.784119 152.0
157.811279 136.0
157.843796 200.0
158.058655 272.0
158.066284 144.0
158.074936 320.0
158.184052 180.0
158.224106 136.0
158.281693 208.0
158.419449 140.0
158.614914 88.0
158.940948 188.0
159.073639 272.0
159.315048 136.0
159.358856 164.0
159.485916 108.0
159.757507 144.0
159.79776 152.0
159.934662 184.0
160.001617 60.0
160.040359 312.0
160.075027 800.0
160.397125 176.0
160.573624 176.0
160.926926 68.0
161.050659 148.0
161.094315 708.0
161.179504 124.0
161.207306 236.0
161.348846 168.0
161.50563 132.0
161.78653 156.0
161.834625 48.0
161.930862 144.0
162.030914 172.0
162.043625 132.0
162.090363 3128.0
162.136078 84.0
162.541824 184.0
162.630646 148.0
162.656036 152.0
162.708755 136.0
162.734741 136.0
162.887115 88.0
162.96434 200.0
163.059891 124.0
163.09256 372.0
163.131073 28.0
163.230225 48.0
163.330841 192.0
163.403183 228.0
163.451523 120.0
163.614426 152.0
163.647522 136.0
163.830902 180.0
163.937912 124.0
164.050064 56.0
164.095947 168.0
164.113083 128.0
164.248962 184.0
164.590958 148.0
164.825958 144.0
165.070831 588.0
165.096924 128.0
165.608795 40.0
165.657471 168.0
165.7164 280.0
165.803513 64.0
166.013748 104.0
166.036819 160.0
166.06282 384.0
166.126602 200.0
166.199722 152.0
166.280548 156.0
166.408905 160.0
166.439713 176.0
166.529602 124.0
166.598953 168.0
166.668335 136.0
166.737717 92.0
166.76236 216.0
166.786545 144.0
166.871506 160.0
167.038544 164.0
167.066254 88.0
167.088699 332.0
167.126022 164.0
167.169769 136.0
167.200638 120.0
167.275284 152.0
167.347366 148.0
167.383423 148.0
167.494171 36.0
167.610107 164.0
167.737305 152.0
167.836929 168.0
167.885925 168.0
167.924622 164.0
167.945251 188.0
167.983948 192.0
168.052048 240.0
168.079529 160.0
168.172318 188.0
168.247177 40.0
168.281799 120.0
168.361526 224.0
168.595871 72.0
168.730286 148.0
168.815613 96.0
168.854416 144.0
168.97081 208.0
169.061111 492.0
169.093033 140.0
169.265884 204.0
169.369476 212.0
169.527527 164.0
169.584549 124.0
169.773804 48.0
169.983932 44.0
170.051407 152.0
170.074768 156.0
170.09726 152.0
170.27272 200.0
170.347427 128.0
170.498123 128.0
170.737305 164.0
170.833542 132.0
171.048477 356.0
171.078644 556.0
171.117218 76.0
171.286499 48.0
171.398529 48.0
171.51059 88.0
171.549683 140.0
171.669632 84.0
171.940948 112.0
172.034912 156.0
172.0793 388.0
172.168076 116.0
172.575729 180.0
172.69603 148.0
172.905334 152.0
172.931503 148.0
173.076431 56.0
173.12001 160.0
173.230011 208.0
173.248352 168.0
173.402954 164.0
173.62056 144.0
173.743835 156.0
173.848801 112.0
173.926422 176.0
174.037796 204.0
174.089325 1028.0
174.179611 196.0
174.241089 180.0
174.408218 212.0
174.447647 108.0
174.521271 160.0
174.784302 108.0
174.844833 104.0
174.915894 116.0
175.096405 308.0
175.263535 152.0
175.39267 144.0
175.656357 160.0
175.822586 168.0
176.065475 152.0
176.102448 140.0
176.142075 80.0
176.200195 156.0
176.255676 172.0
176.35611 112.0
176.538528 176.0
176.566925 216.0
176.893066 72.0
177.067963 156.0
177.106064 496.0
177.165833 136.0
177.27977 164.0
177.406555 120.0
177.515701 136.0
177.704041 164.0
177.797882 208.0
177.956177 128.0
178.058411 124.0
178.078033 252.0
178.10527 168.0
178.173965 128.0
178.328094 104.0
178.381256 68.0
178.453033 176.0
178.567383 148.0
178.772232 120.0
178.846756 220.0
178.878693 116.0
179.07399 280.0
179.15831 180.0
179.299545 48.0
179.336853 156.0
179.390167 88.0
179.443481 104.0
179.728882 168.0
179.878342 100.0
180.019836 188.0
180.078979 1356.0
180.260269 128.0
180.289658 176.0
180.516891 208.0
180.626556 104.0
180.837936 84.0
181.06424 4460.0
181.104736 180.0
181.183365 32.0
181.290543 40.0
181.451385 152.0
181.550598 148.0
181.572052 132.0
181.609589 48.0
181.716904 92.0
181.848389 144.0
182.019043 184.0
182.0681 1016.0
182.205536 128.0
182.361404 152.0
182.457993 188.0
182.67601 60.0
182.694839 204.0
182.786316 124.0
182.810532 184.0
183.067825 1576.0
183.19017 120.0
183.41922 52.0
183.454269 144.0
183.580994 184.0
183.64032 136.0
183.694275 192.0
183.791397 184.0
183.880447 236.0
183.912842 80.0
183.945236 44.0
183.972229 140.0
184.074417 884.0
184.128845 92.0
184.204468 96.0
184.416214 100.0
184.490921 308.0
184.56662 48.0
184.634232 120.0
184.769485 120.0
185.037415 180.0
185.062408 148.0
185.09082 116.0
185.161987 180.0
185.180939 148.0
185.273041 184.0
185.329941 56.0
185.381424 36.0
185.419357 144.0
185.443756 168.0
185.492554 196.0
185.598282 56.0
185.649811 100.0
185.985947 152.0
186.075821 300.0
186.203445 148.0
186.225174 96.0
186.257767 148.0
186.377304 136.0
186.515915 172.0
186.562119 120.0
186.66272 152.0
186.79599 112.0
186.872162 196.0
186.929306 32.0
186.953796 152.0
186.994629 92.0
187.098648 92.0
187.141617 180.0
187.209702 112.0
187.261444 64.0
187.285965 132.0
187.484848 156.0
187.539352 112.0
187.83931 164.0
188.34758 176.0
188.379807 160.0
188.617538 168.0
188.699554 200.0
188.732361 64.0
188.9375 132.0
189.006454 140.0
189.129059 128.0
189.208435 144.0
189.298798 184.0
189.463135 124.0
189.8414 164.0
189.860596 168.0
189.945618 164.0
190.05722 156.0
190.346313 216.0
190.431458 176.0
190.450684 140.0
190.52211 108.0
190.549576 72.0
190.876663 108.0
191.07785 388.0
191.237061 216.0
191.338913 192.0
191.396729 168.0
191.46283 108.0
191.490372 140.0
191.650146 196.0
191.749359 164.0
191.936813 52.0
192.038849 112.0
192.076614 208.0
192.244003 168.0
192.500275 168.0
192.524597 104.0
192.552216 88.0
192.599167 184.0
192.74559 56.0
192.831268 252.0
192.872726 168.0
192.988831 44.0
193.050049 256.0
193.078247 412.0
193.201797 124.0
193.22374 180.0
193.274567 212.0
193.295868 156.0
193.367828 248.0
193.461929 180.0
194.004913 188.0
194.072235 552.0
194.235077 144.0
194.271149 164.0
194.337738 128.0
194.407104 188.0
194.457062 68.0
194.526459 84.0
194.580582 112.0
194.629181 128.0
194.655487 220.0
194.718048 56.0
194.818039 188.0
194.920837 148.0
195.009766 180.0
195.04837 176.0
195.080643 280.0
195.318405 156.0
195.43248 208.0
195.474213 168.0
195.571625 156.0
195.939209 148.0
195.989349 228.0
196.076401 2316.0
196.139847 80.0
196.41539 192.0
196.54982 176.0
196.591675 124.0
196.784286 136.0
196.998047 180.0
197.060318 1176.0
197.081207 1228.0
197.164185 52.0
197.191696 104.0
197.220078 168.0
197.37384 112.0
197.494095 148.0
197.522079 64.0
197.541656 36.0
197.564041 196.0
197.59761 204.0
197.617188 132.0
197.690277 196.0
197.958694 172.0
198.090302 3128.0
198.175278 136.0
198.222015 40.0
198.415405 52.0
198.854187 124.0
198.967743 124.0
199.029877 204.0
199.0755 4576.0
199.21524 68.0
199.248947 148.0
199.338867 120.0
199.42598 36.0
199.501877 112.0
199.544052 48.0
199.608719 120.0
199.673401 84.0
199.6931 116.0
199.749344 60.0
199.870331 32.0
200.008224 116.0
200.036377 204.0
200.079285 1248.0
200.143356 52.0
200.196869 84.0
200.247559 168.0
200.312347 244.0
200.633606 180.0
200.67308 272.0
200.898697 56.0
200.977707 104.0
201.077255 304.0
201.112198 208.0
201.387039 72.0
201.457657 68.0
201.601761 136.0
201.621552 160.0
201.641327 172.0
201.675247 36.0
201.709167 40.0
201.875977 208.0
201.98912 116.0
202.025894 48.0
202.10228 172.0
202.150391 108.0
202.302048 68.0
202.40799 56.0
202.461792 152.0
202.665741 80.0
202.711075 92.0
203.059784 156.0
203.210129 168.0
203.320801 92.0
203.343506 308.0
203.384659 208.0
203.45137 220.0
203.651474 240.0
203.786499 148.0
203.939957 40.0
203.984756 180.0
204.08667 196.0
204.193665 188.0
204.269806 176.0
204.292572 188.0
204.369385 144.0
204.397842 76.0
204.417755 176.0
204.442001 184.0
204.62236 132.0
204.659714 172.0
204.679642 80.0
204.747986 124.0
204.916061 216.0
205.004395 168.0
205.075134 136.0
205.337952 96.0
205.55191 76.0
205.631821 124.0
205.760269 164.0
205.960175 140.0
206.057037 304.0
206.075546 316.0
206.137299 40.0
206.288788 184.0
206.385986 184.0
206.67775 208.0
206.707947 108.0
206.78363 120.0
206.832291 164.0
206.932495 104.0
207.066467 680.0
207.104309 204.0
207.190247 88.0
207.216034 104.0
207.236084 140.0
207.270477 120.0
207.304855 128.0
207.378601 148.0
207.456772 220.0
207.518265 160.0
207.55426 36.0
207.640289 124.0
207.692566 248.0
207.955887 244.0
207.996078 108.0
208.073318 1800.0
208.352158 64.0
208.438354 184.0
208.458481 132.0
208.625183 152.0
208.77182 200.0
208.904129 176.0
208.96167 148.0
209.001953 220.0
209.081802 2396.0
209.147217 160.0
209.171509 172.0
209.275391 188.0
209.309952 60.0
209.379059 56.0
209.403427 148.0
209.491394 168.0
209.543259 128.0
209.580719 152.0
209.652267 164.0
209.756516 124.0
209.883362 56.0
209.995834 136.0
210.083786 872.0
210.215103 148.0
210.256088 136.0
210.336319 168.0
210.381485 228.0
210.498001 180.0
210.537277 120.0
210.567307 72.0
210.593307 180.0
210.772415 124.0
210.838882 128.0
211.075974 724.0
211.177155 52.0
211.300797 172.0
211.399918 196.0
211.496445 136.0
211.531128 144.0
211.564896 36.0
211.588058 136.0
211.651764 216.0
211.718369 152.0
211.819733 104.0
211.851608 56.0
211.906647 164.0
211.935623 96.0
212.005173 120.0
212.070206 31012.0
212.104584 228.0
212.138504 100.0
212.166946 128.0
212.206482 116.0
212.244812 96.0
212.281799 160.0
212.32222 176.0
212.345825 72.0
212.358536 68.0
212.400345 136.0
212.428497 52.0
212.451706 116.0
212.48941 188.0
212.530029 148.0
212.557114 60.0
212.628693 128.0
212.649017 52.0
212.712646 52.0
212.761597 148.0
212.854599 64.0
212.885925 120.0
212.90451 152.0
212.948074 188.0
213.001602 196.0
213.073334 4524.0
213.218262 64.0
213.288025 92.0
213.331635 80.0
213.37233 140.0
213.445023 152.0
213.474106 128.0
213.597778 92.0
213.668976 40.0
213.89888 116.0
213.995483 132.0
214.020996 148.0
214.080032 460.0
214.119446 144.0
214.16095 96.0
214.255905 80.0
214.310257 172.0
214.336166 112.0
214.369415 108.0
214.417038 192.0
214.480423 152.0
214.571838 168.0
214.647644 156.0
214.670975 220.0
214.711807 60.0
215.085266 248.0
215.129059 108.0
215.155334 68.0
215.330536 128.0
215.356827 144.0
215.477646 140.0
215.662643 216.0
215.683762 148.0
215.733765 40.0
215.836105 120.0
215.953079 204.0
216.502121 188.0
216.547241 144.0
216.667343 140.0
216.901779 44.0
217.039566 140.0
217.127548 64.0
217.244873 120.0
217.283005 216.0
217.477936 236.0
217.646957 132.0
218.066162 184.0
218.096451 168.0
218.159119 176.0
218.487564 56.0
218.643509 176.0
218.834854 144.0
218.895294 220.0
218.943802 44.0
219.066559 148.0
219.102859 340.0
219.197144 208.0
219.427063 136.0
219.657089 148.0
219.760345 152.0
220.021576 212.0
220.076553 588.0
220.102737 164.0
220.155899 188.0
220.182465 144.0
220.274033 228.0
220.309479 160.0
220.424713 204.0
220.480865 136.0
220.528152 92.0
220.548843 268.0
220.673004 60.0
220.732147 164.0
220.762146 116.0
220.826782 156.0
221.007233 148.0
221.079605 316.0
221.137436 156.0
221.20256 64.0
221.264725 88.0
221.359482 152.0
221.39798 204.0
221.667557 128.0
221.747574 204.0
222.000854 168.0
222.032196 220.0
222.090805 3420.0
222.125092 176.0
222.16864 128.0
222.21907 148.0
222.370422 236.0
222.400101 176.0
222.459473 64.0
222.504791 60.0
222.670288 32.0
222.717819 144.0
222.763947 128.0
222.896072 152.0
222.964417 228.0
223.088745 896.0
223.237915 48.0
223.36879 44.0
223.472916 136.0
223.590622 216.0
223.731842 80.0
223.764069 180.0
223.83606 120.0
223.880722 68.0
223.996887 132.0
224.026672 120.0
224.069107 3788.0
224.123108 228.0
224.214386 36.0
224.250153 72.0
224.300827 132.0
224.344009 164.0
224.375351 188.0
224.3992 164.0
224.440948 64.0
224.506561 116.0
224.694473 104.0
224.721329 180.0
224.765701 156.0
224.852631 152.0
224.879486 172.0
224.902832 148.0
224.958862 256.0
225.003128 212.0
225.077881 31660.0
225.15416 92.0
225.214035 88.0
225.263855 116.0
225.274994 124.0
225.280579 148.0
225.307404 112.0
225.354309 112.0
225.408951 84.0
225.437714 88.0
225.461884 40.0
225.594681 232.0
225.667358 184.0
225.701035 32.0
225.721954 56.0
225.757843 72.0
225.78775 64.0
225.811676 152.0
225.864838 140.0
225.881119 196.0
225.916367 76.0
226.001907 156.0
226.084579 25884.0
226.140137 160.0
226.160233 260.0
226.183044 208.0
226.22142 60.0
226.228638 92.0
226.317963 96.0
226.358459 108.0
226.450851 156.0
226.482132 72.0
226.521072 80.0
226.563019 52.0
226.601532 104.0
226.635315 92.0
226.700851 76.0
226.781769 164.0
226.819443 84.0
226.846634 244.0
226.942184 164.0
226.998901 64.0
227.021606 204.0
227.08194 13708.0
227.162582 180.0
227.228439 172.0
227.265091 132.0
227.278091 64.0
227.286255 128.0
227.319595 108.0
227.418259 88.0
227.451614 100.0
227.498688 40.0
227.565125 156.0
227.600769 176.0
227.642807 92.0
227.674866 124.0
227.709152 240.0
227.73291 92.0
227.767944 104.0
227.842773 60.0
227.868088 84.0
227.901138 68.0
227.921799 64.0
227.964233 84.0
228.007538 88.0
228.042374 148.0
228.08493 1728.0
228.126541 128.0
228.167679 188.0
228.27298 188.0
228.340027 140.0
228.460358 64.0
228.508484 132.0
228.574875 124.0
228.630157 136.0
228.695358 40.0
228.811218 116.0
228.847275 136.0
228.881714 48.0
228.963028 144.0
229.013016 60.0
229.085022 384.0
229.264297 80.0
229.430069 140.0
229.583847 200.0
229.719574 84.0
229.796768 144.0
229.882507 112.0
229.91571 76.0
229.936829 120.0
230.012283 108.0
230.07547 56.0
230.136063 48.0
230.209549 168.0
230.244781 128.0
230.333649 104.0
230.377686 140.0
230.558975 92.0
230.749405 84.0
231.038239 40.0
231.142624 196.0
231.5392 88.0
231.666412 136.0
231.80275 116.0
231.945206 184.0
232.075562 232.0
232.108917 52.0
232.181702 104.0
232.319427 176.0
232.328979 72.0
232.340942 144.0
232.639877 188.0
232.712738 176.0
232.743103 232.0
232.815979 136.0
232.959641 188.0
232.995193 72.0
233.073578 104.0
233.223099 64.0
233.356873 28.0
233.426804 56.0
233.484589 92.0
233.62146 52.0
233.709686 116.0
233.937958 112.0
234.020157 40.0
234.071243 420.0
234.605118 64.0
234.714874 108.0
234.763657 216.0
234.794159 104.0
234.818558 152.0
235.078568 248.0
235.11145 96.0
235.15564 196.0
235.187744 120.0
235.367874 108.0
235.468643 108.0
235.511414 52.0
235.554169 140.0
235.719162 136.0
235.875031 140.0
236.071411 816.0
236.19809 160.0
236.398026 208.0
236.422516 36.0
236.655151 68.0
236.86647 112.0
236.979248 192.0
237.013535 136.0
237.083252 476.0
237.274048 80.0
237.310852 52.0
237.430435 112.0
237.52858 76.0
237.777115 212.0
237.893753 132.0
237.92453 164.0
237.9776 220.0
238.026352 324.0
238.085617 12684.0
238.213135 72.0
238.253067 80.0
238.305298 72.0
238.375977 160.0
238.44397 128.0
238.483536 84.0
238.643387 64.0
238.667999 44.0
238.720261 36.0
238.757172 44.0
238.81868 56.0
238.910965 164.0
238.947891 112.0
239.089783 2640.0
239.13208 240.0
239.20639 84.0
239.271042 36.0
239.292587 48.0
239.406525 104.0
239.437317 44.0
239.508163 124.0
239.683762 56.0
239.853271 80.0
239.87793 48.0
239.918015 116.0
239.98584 88.0
240.05368 92.0
240.092697 356.0
240.133423 140.0
240.334381 80.0
240.402267 148.0
240.456299 168.0
240.510284 112.0
240.61525 152.0
240.658478 156.0
240.853653 124.0
240.875717 188.0
240.913666 128.0
241.019867 116.0
241.104431 200.0
241.137833 140.0
241.344421 96.0
241.42482 156.0
241.508331 60.0
241.978699 168.0
242.074692 164.0
242.096375 100.0
242.365875 192.0
242.409256 132.0
242.60762 180.0
242.638626 236.0
242.734741 108.0
242.782562 76.0
243.048035 120.0
243.069763 204.0
243.696976 144.0
243.852356 144.0
243.923843 144.0
244.029556 232.0
244.054428 88.0
244.122833 136.0
244.359238 112.0
244.384125 216.0
244.782562 208.0
244.872864 168.0
244.997467 92.0
245.022385 84.0
245.056656 128.0
245.099014 148.0
245.140793 136.0
245.243637 144.0
245.293518 52.0
245.433807 56.0
245.505539 112.0
245.776917 44.0
245.848694 176.0
246.092178 180.0
246.151505 196.0
246.210831 144.0
246.426376 112.0
246.578262 148.0
246.660767 172.0
247.023499 236.0
247.073593 172.0
247.096558 124.0
247.14238 136.0
247.305115 140.0
247.561844 176.0
247.674591 196.0
248.070572 280.0
248.094513 324.0
248.144669 136.0
248.439468 112.0
248.48967 112.0
248.643433 100.0
248.684235 148.0
248.922836 144.0
248.976212 92.0
249.068695 548.0
249.695923 152.0
249.878372 152.0
250.080536 720.0
250.128998 160.0
250.652939 216.0
250.939774 44.0
251.08519 1708.0
251.127975 176.0
251.570755 116.0
251.719147 244.0
251.820633 116.0
251.951508 212.0
252.092087 1228.0
252.13298 68.0
252.449127 164.0
252.784729 92.0
252.917374 104.0
252.993347 132.0
253.103287 356.0
253.443085 44.0
253.496948 72.0
253.623734 176.0
253.788574 60.0
253.937622 112.0
254.058167 188.0
254.105759 132.0
254.213638 172.0
254.661285 140.0
254.813766 192.0
254.89003 176.0
254.966293 96.0
255.082855 160.0
255.114151 232.0
255.185623 196.0
255.513214 120.0
255.770981 132.0
255.812363 184.0
256.01297 176.0
256.035248 76.0
256.134003 108.0
256.717255 236.0
256.771454 108.0
257.128021 68.0
257.227722 132.0
257.492737 172.0
257.518311 152.0
257.594971 124.0
257.639679 128.0
257.671631 136.0
257.844177 52.0
258.103821 148.0
258.189484 124.0
258.272644 204.0
258.384583 88.0
258.490173 108.0
258.919159 116.0
259.050476 144.0
259.098541 92.0
259.188263 132.0
259.441467 140.0
259.630646 140.0
260.066315 192.0
260.436218 228.0
260.558289 176.0
260.70932 148.0
261.105469 336.0
261.85141 68.0
262.0737 336.0
262.111786 516.0
262.134918 112.0
262.321869 60.0
262.50293 148.0
262.550781 120.0
262.602386 140.0
262.666901 108.0
262.808868 60.0
263.083435 1048.0
263.134827 32.0
263.176819 200.0
263.622589 172.0
264.093048 708.0
264.131195 192.0
264.156067 120.0
264.423676 136.0
264.518494 120.0
265.056122 108.0
265.097534 964.0
265.503479 76.0
265.597534 108.0
265.74353 124.0
266.025879 72.0
266.099091 288.0
266.112152 168.0
266.123474 384.0
266.507904 212.0
266.535797 200.0
266.678802 76.0
266.818573 56.0
266.883606 48.0
267.007172 124.0
267.06897 140.0
267.113525 252.0
267.166565 80.0
267.260895 192.0
267.491974 68.0
267.570099 84.0
267.592896 164.0
267.889252 172.0
267.947906 128.0
268.132172 3188.0
268.171021 116.0
268.278717 112.0
268.334839 212.0
268.363647 56.0
268.500214 192.0
268.586853 148.0
268.687988 84.0
268.834808 40.0
268.902008 88.0
268.955566 184.0
268.985687 224.0
269.129242 1072.0
269.16983 128.0
269.200439 208.0
269.314758 72.0
269.53363 120.0
269.670898 204.0
270.096008 184.0
270.143402 104.0
270.799683 84.0
270.901245 176.0
271.0112 120.0
271.042114 140.0
271.098846 180.0
271.127319 168.0
271.189575 116.0
271.264984 124.0
271.363342 48.0
272.045715 148.0
272.074463 180.0
272.083588 136.0
272.095428 116.0
272.105591 152.0
272.170502 68.0
272.259155 80.0
272.357697 172.0
272.673096 144.0
272.705963 76.0
272.728973 76.0
272.88678 108.0
273.085632 372.0
273.561218 128.0
273.640228 120.0
273.818054 88.0
274.038757 132.0
274.076996 164.0
274.083313 192.0
274.097992 164.0
274.378235 116.0
274.572784 140.0
274.661835 172.0
274.800385 60.0
274.879578 124.0
275.090424 68.0
275.28891 116.0
275.411102 160.0
276.082703 140.0
276.144867 96.0
276.561768 220.0
276.909424 68.0
277.012115 176.0
277.094452 428.0
277.326904 176.0
277.529114 168.0
277.562286 136.0
277.631927 96.0
278.114716 476.0
278.152832 176.0
278.285645 120.0
278.52475 56.0
279.12326 132.0
279.179504 116.0
279.504333 208.0
279.635284 140.0
279.788422 76.0
279.828369 116.0
279.855011 120.0
280.134338 584.0
280.181396 44.0
280.308014 128.0
280.444641 184.0
280.521301 40.0
280.647278 200.0
281.078308 152.0
281.108337 136.0
281.13739 384.0
281.365326 36.0
281.395386 64.0
281.559021 108.0
282.09967 280.0
282.130859 88.0
282.24408 116.0
282.314301 220.0
282.956757 32.0
282.983521 88.0
283.08902 260.0
283.623383 160.0
284.08136 216.0
284.093842 124.0
284.190155 64.0
284.321014 100.0
284.502289 40.0
284.885132 136.0
284.979187 152.0
285.090088 152.0
285.11731 160.0
285.281677 128.0
285.347626 116.0
285.426239 180.0
285.466583 136.0
285.554047 156.0
285.92749 132.0
286.096344 352.0
286.314667 192.0
287.071625 208.0
287.096283 168.0
287.105774 156.0
287.518219 104.0
287.70343 148.0
288.091125 288.0
288.149658 200.0
288.176697 80.0
288.616119 232.0
288.873138 124.0
289.015228 112.0
289.100677 328.0
289.133972 224.0
289.248749 52.0
289.631378 136.0
290.116638 124.0
290.485626 244.0
291.10849 136.0
291.320709 120.0
291.392059 68.0
291.41922 80.0
291.507568 132.0
291.878113 104.0
292.082153 60.0
292.110474 68.0
292.39859 140.0
293.127777 524.0
293.458008 120.0
293.53302 204.0
293.563721 168.0
293.727417 88.0
293.768372 88.0
293.884369 96.0
293.993561 136.0
294.046265 152.0
294.085693 100.0
294.138245 328.0
294.25296 40.0
294.297363 164.0
294.392975 216.0
294.505676 148.0
294.580811 72.0
294.63208 200.0
294.653412 148.0
295.014832 132.0
295.062683 144.0
295.103729 104.0
295.131073 164.0
295.237091 76.0
295.678406 136.0
295.709137 184.0
295.767395 40.0
296.044708 120.0
296.112518 140.0
296.191986 148.0
296.469513 168.0
296.671753 136.0
297.090454 220.0
297.484772 68.0
297.656464 132.0
297.683929 96.0
297.749176 184.0
297.804138 148.0
297.889984 112.0
298.076324 156.0
298.102386 172.0
298.140808 76.0
298.253235 148.0
298.463959 116.0
298.659149 180.0
299.090729 300.0
299.121643 308.0
299.282898 64.0
299.548065 148.0
299.654877 104.0
299.789246 84.0
300.02478 40.0
300.097351 448.0
300.547882 64.0
300.865417 176.0
301.105743 472.0
301.69455 144.0
302.098419 136.0
302.171814 100.0
302.230621 140.0
302.406036 164.0
302.434814 148.0
302.975006 60.0
303.070709 156.0
303.106873 272.0
303.508789 172.0
303.633606 124.0
303.765411 124.0
303.911133 180.0
304.104584 280.0
304.299866 144.0
304.589264 144.0
304.885254 116.0
305.137207 88.0
305.196289 88.0
305.481476 144.0
305.554535 216.0
306.052277 140.0
306.135834 172.0
306.215942 144.0
306.853638 176.0
306.958252 48.0
307.083801 152.0
307.122162 184.0
307.38382 36.0
307.526917 56.0
307.746826 132.0
307.778259 136.0
308.179932 112.0
308.239349 104.0
308.550415 60.0
308.655304 152.0
309.012085 144.0
309.0737 176.0
309.106995 164.0
309.460083 64.0
309.722748 104.0
309.757782 148.0
309.806824 108.0
309.855865 152.0
310.102356 120.0
310.157227 112.0
310.679749 176.0
310.900787 108.0
311.137329 52.0
311.272888 68.0
311.315033 52.0
311.357178 108.0
311.792816 96.0
312.052948 132.0
312.104919 372.0
313.089172 184.0
313.136139 172.0
313.182587 144.0
313.309387 96.0
314.021454 112.0
314.105133 252.0
314.420593 152.0
314.571899 80.0
314.734314 140.0
315.107391 292.0
315.154633 64.0
315.30658 176.0
315.366669 68.0
315.610596 144.0
315.730835 136.0
315.960754 84.0
316.096375 1244.0
316.2435 84.0
316.304016 64.0
316.410217 120.0
316.714783 140.0
316.838745 164.0
316.980499 156.0
317.00882 40.0
317.107269 732.0
317.203766 216.0
317.267578 84.0
317.455505 256.0
317.664764 80.0
317.77829 76.0
318.044464 128.0
318.11026 1200.0
318.225494 96.0
318.353333 112.0
318.506042 156.0
318.598419 80.0
318.74054 256.0
318.931183 192.0
319.109833 220.0
319.224213 180.0
319.264221 140.0
319.515656 44.0
319.679321 104.0
319.964081 116.0
320.102936 132.0
320.241821 160.0
320.430634 188.0
321.1008 196.0
321.350494 184.0
321.414734 176.0
321.697937 160.0
321.889496 128.0
321.964478 156.0
322.100189 140.0
322.139496 144.0
322.664825 160.0
323.040344 64.0
323.093994 140.0
323.480499 88.0
323.539337 204.0
323.834991 148.0
323.989014 176.0
324.09906 348.0
324.716675 116.0
325.098358 228.0
325.190277 136.0
325.376953 116.0
325.423615 124.0
325.732483 116.0
325.84024 192.0
325.91571 196.0
326.045074 152.0
326.101837 620.0
326.145691 196.0
326.199615 100.0
326.239166 224.0
326.404541 140.0
326.559296 160.0
327.110565 1108.0
327.469788 168.0
328.097992 780.0
328.168915 112.0
328.323975 56.0
328.378052 64.0
328.897644 112.0
329.09375 388.0
329.128143 248.0
329.330933 184.0
329.399567 60.0
329.489868 44.0
329.565735 172.0
330.121674 276.0
330.205597 200.0
330.256226 244.0
330.762817 144.0
331.098022 448.0
331.151489 208.0
331.219055 64.0
331.353119 68.0
331.570526 152.0
331.643005 144.0
331.864136 208.0
331.976562 124.0
332.092621 96.0
332.121643 92.0
332.684082 28.0
333.083527 40.0
333.20343 124.0
333.236115 104.0
333.290619 132.0
333.883179 184.0
334.083221 148.0
334.206909 184.0
335.689484 32.0
335.849945 188.0
336.083435 100.0
336.313324 168.0
336.915863 172.0
337.66156 128.0
337.760315 84.0
337.920471 180.0
338.020081 208.0
338.635101 132.0
338.737671 144.0
338.862213 40.0
338.931854 160.0
339.07843 156.0
339.107513 244.0
339.371704 88.0
339.672424 92.0
339.86319 212.0
340.054016 56.0
340.097809 232.0
340.182495 148.0
340.25592 128.0
340.391785 120.0
340.457886 124.0
340.546021 212.0
340.579071 148.0
340.605316 200.0
340.678253 96.0
340.836243 168.0
341.108093 1308.0
341.273651 96.0
341.586243 92.0
341.759155 100.0
341.95459 196.0
342.098145 980.0
342.178741 176.0
342.322357 112.0
342.370239 148.0
342.451263 176.0
342.5065 116.0
342.543335 176.0
342.63913 200.0
342.731232 112.0
342.991119 124.0
343.107422 9664.0
343.201538 144.0
343.238556 120.0
343.273102 128.0
343.309052 128.0
343.378723 144.0
343.410461 212.0
343.453827 56.0
343.588654 116.0
343.658386 132.0
343.709991 200.0
343.744263 72.0
343.802856 176.0
343.833862 72.0
343.881836 52.0
343.919312 176.0
343.969757 276.0
344.020081 128.0
344.051636 144.0
344.114685 9408.0
344.18573 156.0
344.252167 180.0
344.264618 152.0
344.273743 180.0
344.335968 120.0
344.39505 44.0
344.431976 116.0
344.511108 344.0
344.642578 48.0
344.675842 188.0
344.716461 164.0
344.746033 256.0
344.779297 136.0
344.803528 64.0
344.860596 212.0
344.890167 192.0
344.936859 152.0
345.017426 104.0
345.049042 148.0
345.121704 24408.0
345.256195 40.0
345.320618 144.0
345.391022 160.0
345.430389 84.0
345.523071 84.0
345.60022 68.0
345.655731 56.0
345.756348 80.0
345.788971 96.0
345.825989 148.0
345.859283 40.0
345.892609 100.0
345.933167 100.0
346.062897 108.0
346.126923 6440.0
346.178162 104.0
346.246765 104.0
346.281708 48.0
346.331573 124.0
346.365051 192.0
346.392517 116.0
346.423523 96.0
346.481415 296.0
346.664459 268.0
346.746155 216.0
346.780334 72.0
346.832977 152.0
346.868225 96.0
347.00589 124.0
347.044769 44.0
347.081848 56.0
347.125793 640.0
347.200531 52.0
347.259857 44.0
347.292206 92.0
347.345184 80.0
347.404541 44.0
347.510773 104.0
347.554199 140.0
347.634583 92.0
347.794159 108.0
347.838715 36.0
347.911255 88.0
347.981689 108.0
348.11673 188.0
348.189819 136.0
348.273132 60.0
348.343719 68.0
348.417908 128.0
348.42569 124.0
348.47345 144.0
348.562927 108.0
348.659546 96.0
348.711578 52.0
348.800171 72.0
348.837952 52.0
348.953217 72.0
349.072205 112.0
349.310242 72.0
349.366028 104.0
349.555786 44.0
349.637665 136.0
349.689758 116.0
349.719543 36.0
350.225922 112.0
350.732666 160.0
350.889252 96.0
351.101807 76.0
351.370361 132.0
351.736084 64.0
351.937683 200.0
352.027313 96.0
352.13559 40.0
352.228973 44.0
352.505463 80.0
352.602631 80.0
352.830627 88.0
353.118561 88.0
353.444031 192.0
354.111816 168.0
354.361389 148.0
354.544983 88.0
354.874878 148.0
355.066101 144.0
355.100677 276.0
355.141113 136.0
355.362457 120.0
355.47879 144.0
355.527557 80.0
355.771545 164.0
355.925476 124.0
356.0448 108.0
356.117249 220.0
356.182129 172.0
356.432587 180.0
356.488953 108.0
356.589996 104.0
356.680634 224.0
356.714447 40.0
356.894928 120.0
357.012695 124.0
357.049103 132.0
357.122955 12108.0
357.213257 112.0
357.383881 68.0
357.410248 84.0
357.515594 80.0
357.558807 156.0
357.711334 52.0
357.762146 72.0
357.843079 48.0
357.892029 52.0
357.948517 60.0
357.993713 152.0
358.053955 60.0
358.123016 2900.0
358.277313 68.0
358.498505 52.0
358.683197 68.0
358.730591 60.0
358.784607 164.0
359.127594 796.0
359.358246 92.0
359.441254 112.0
359.58844 56.0
359.833801 116.0
359.875336 108.0
359.909302 52.0
360.018829 152.0
360.049042 36.0
360.130493 176.0
360.173676 140.0
360.200104 144.0
360.438141 140.0
360.638428 88.0
360.732941 56.0
360.97113 192.0
361.080811 188.0
361.160217 72.0
361.269928 104.0
361.409912 88.0
361.455322 132.0
361.576416 92.0
362.151917 104.0
362.288269 116.0
362.36026 96.0
362.61795 168.0
362.648926 136.0
363.02124 160.0
363.292908 176.0
363.330841 76.0
363.433289 136.0
363.949493 80.0
363.995056 188.0
364.648468 160.0
364.96402 64.0
365.22641 104.0
365.747711 124.0
365.915222 116.0
366.703735 136.0
367.199402 44.0
367.500763 60.0
367.752625 60.0
367.905701 156.0
367.998077 160.0
368.092407 44.0
368.142059 80.0
368.256622 116.0
368.405609 72.0
368.5737 216.0
369.166199 176.0
369.33905 124.0
369.5755 116.0
370.142029 140.0
370.544189 80.0
370.900604 96.0
371.000244 92.0
371.061584 100.0
371.140533 524.0
372.009186 32.0
372.142975 280.0
373.18866 164.0
373.242493 96.0
373.357849 164.0
373.857971 188.0
374.002838 156.0
374.104309 188.0
374.158203 108.0
374.504791 96.0
374.774445 172.0
375.098175 116.0
375.225403 196.0
375.256256 156.0
375.533905 76.0
375.657349 68.0
375.692047 132.0
376.657135 136.0
376.734375 64.0
377.12854 208.0
377.588623 48.0
377.693054 172.0
378.161255 68.0
378.319946 128.0
378.447723 112.0
378.790375 200.0
378.85437 56.0
378.893127 176.0
379.720612 168.0
379.924347 140.0
380.067902 196.0
380.238678 128.0
380.316284 192.0
380.448273 36.0
381.026947 84.0
381.058014 48.0
381.221222 140.0
381.543823 92.0
381.804352 72.0
381.862701 48.0
382.006622 104.0
382.201141 144.0
382.450226 140.0
382.613708 168.0
382.644867 148.0
382.765564 76.0
382.874603 120.0
382.95639 156.0
383.057648 88.0
383.349884 184.0
383.381042 180.0
383.458984 68.0
383.552551 192.0
383.981445 52.0
384.09024 76.0
384.246704 164.0
384.285706 152.0
384.5979 172.0
384.66037 56.0
384.757965 132.0
384.812622 44.0
385.023895 148.0
385.073944 104.0
385.140656 144.0
385.179718 160.0
385.230499 136.0
385.261047 68.0
385.304718 136.0
385.496185 52.0
385.539185 40.0
385.672058 312.0
385.730682 168.0
385.789337 40.0
385.824524 108.0
385.894897 84.0
385.984222 104.0
386.043488 36.0
386.086487 160.0
386.139557 252.0
386.228821 256.0
386.289886 104.0
386.343658 372.0
386.397461 96.0
386.48996 88.0
386.540283 100.0
386.571594 160.0
386.618561 164.0
386.690796 96.0
386.753601 120.0
386.797119 148.0
386.863983 164.0
386.912506 288.0
386.944061 148.0
386.991669 316.0
387.015442 164.0
387.065491 520.0
387.170258 112852.0
387.25824 152.0
387.30899 68.0
387.318726 188.0
387.391083 120.0
387.431396 52.0
387.459259 288.0
387.504547 176.0
387.549866 48.0
387.603058 124.0
387.654388 264.0
387.664795 152.0
387.762451 288.0
387.817474 272.0
387.860901 404.0
387.933014 156.0
387.967285 84.0
388.014954 120.0
388.031647 48.0
388.043488 236.0
388.105865 240.0
388.172089 26348.0
388.310913 88.0
388.376038 108.0
388.418457 156.0
388.492065 132.0
388.532227 156.0
388.560303 124.0
388.641724 68.0
388.705231 192.0
388.767578 248.0
388.838348 60.0
388.878632 60.0
388.900787 104.0
388.942749 56.0
388.989838 64.0
389.034332 72.0
389.069916 192.0
389.175049 5300.0
389.285339 112.0
389.317993 112.0
389.366791 112.0
389.419617 160.0
389.469574 140.0
389.535675 44.0
389.567108 60.0
389.630676 112.0
389.68869 72.0
389.72818 76.0
389.79892 76.0
389.826416 88.0
389.889801 64.0
389.930237 48.0
389.990356 96.0
390.029419 116.0
390.066193 72.0
390.109131 108.0
390.18103 876.0
390.238983 92.0
390.248169 136.0
390.288849 88.0
390.3349 148.0
390.384705 140.0
390.476593 32.0
390.523193 268.0
390.583679 132.0
390.635498 124.0
390.670685 112.0
390.734711 132.0
390.769012 168.0
390.797394 92.0
390.86203 112.0
390.921417 80.0
391.009277 156.0
391.073151 96.0
391.136139 68.0
391.177765 76.0
391.238464 128.0
391.336914 60.0
391.395966 40.0
391.47229 116.0
391.535278 128.0
391.671661 112.0
391.738617 120.0
391.813477 128.0
391.86792 136.0
391.975006 44.0
392.026245 68.0
392.089294 48.0
392.170349 128.0
392.203583 28.0
392.312164 44.0
392.380981 64.0
392.424347 60.0
392.48349 72.0
392.554474 152.0
392.60321 100.0
392.641235 120.0
392.684631 28.0
392.925262 116.0
393.185699 156.0
393.402771 52.0
393.473846 56.0
393.93985 40.0
395.189178 44.0
395.679932 44.0
395.707642 48.0
396.400818 44.0
397.292938 136.0
397.39212 84.0
397.570679 68.0
397.64212 76.0
397.816772 72.0
398.380676 40.0
398.452209 60.0
398.503845 32.0
398.922943 88.0
399.473907 76.0
399.680786 56.0
400.226105 92.0
400.473022 52.0
400.620392 44.0
400.959106 68.0
402.279358 156.0
402.311279 84.0
402.375183 56.0
402.794495 76.0
402.946289 96.0
403.006226 76.0
403.134094 68.0
403.405884 176.0
404.049744 108.0
404.698151 80.0
405.242859 44.0
406.863159 72.0
407.1362 144.0
407.184418 76.0
407.642395 40.0
407.783051 104.0
409.839447 64.0
413.603394 40.0
413.741028 48.0
415.065918 48.0
415.414734 36.0
421.987946 76.0
426.070038 96.0
426.785187 60.0
427.430969 52.0
427.673767 116.0
428.402649 48.0
431.824554 52.0
435.808411 60.0
436.431885 112.0
440.353302 76.0
442.8461 144.0
450.235779 52.0
450.277985 48.0
451.156891 100.0
453.06131 40.0
455.509064 36.0
455.58551 116.0
461.001038 132.0
478.427338 84.0
480.318604 100.0
483.442535 36.0
486.633667 100.0
487.112366 68.0
496.806702 72.0
499.952545 60.0
500.460022 96.0
502.443359 108.0
506.497986 64.0
509.867554 52.0
510.690338 92.0
511.185211 60.0
511.626312 136.0
514.350952 68.0
517.380493 84.0
525.618286 76.0
525.896667 116.0
527.093201 68.0
527.998352 84.0
528.364258 56.0
531.397278 100.0
532.788391 112.0
534.862366 52.0
535.221436 44.0
536.32251 80.0
536.516113 84.0
538.68512 108.0
539.147156 64.0
541.145447 64.0
542.442627 60.0
543.036194 68.0
544.865112 64.0
545.334473 96.0
550.515198 100.0
552.660767 80.0
556.062927 120.0
562.81366 92.0
564.372925 100.0
565.271667 144.0
565.423096 40.0
565.972229 68.0
567.099731 104.0
568.854797 84.0
573.416382 72.0
573.91217 96.0
579.001465 92.0
580.952271 84.0
582.070618 76.0
588.60022 88.0
589.117004 68.0
590.180298 68.0
591.815735 84.0
592.522827 208.0
592.658508 112.0
593.749207 68.0
598.774536 60.0
599.934265 72.0
601.026733 92.0
611.701233 80.0
617.583069 44.0
618.310364 56.0
628.033752 72.0
629.631958 92.0
630.875061 120.0
635.287048 84.0
635.768738 60.0
639.679138 92.0
640.550293 64.0
643.010864 48.0
643.086609 40.0
648.574585 60.0
653.332764 100.0
655.934998 72.0
659.01239 80.0
662.025269 124.0
662.470886 72.0
667.361938 124.0
672.590942 40.0
682.839783 56.0
683.016602 116.0
683.609741 68.0
685.333313 52.0
691.239014 60.0
692.474548 76.0
694.801941 48.0
695.961853 100.0
700.400574 44.0
701.939514 36.0
703.791626 48.0
705.889404 68.0
712.573364 92.0
712.743408 36.0
717.283142 76.0
717.730957 36.0
725.451355 52.0
736.693298 56.0
746.449341 48.0
747.020386 108.0
747.238037 112.0
763.748291 72.0
763.97937 32.0
766.093323 64.0
773.808594 76.0
781.045166 56.0
782.397461 44.0
792.327332 76.0
794.463318 40.0
795.276978 140.0
797.928467 88.0
805.587341 68.0
809.57489 44.0
813.759705 84.0
815.009277 72.0
817.494202 56.0
817.807251 92.0
818.365173 40.0
818.951721 64.0
822.058838 56.0
825.978271 60.0
826.504578 72.0
834.810852 60.0
846.884644 104.0
849.800598 44.0
851.791931 100.0
857.494141 64.0
859.511902 56.0
863.168579 36.0
863.507812 68.0
872.373718 76.0
877.242126 116.0
879.094116 64.0
889.754395 40.0
900.037048 60.0
903.12677 76.0
905.185547 92.0
908.356079 172.0
912.908752 92.0
918.22052 148.0
918.29895 92.0
919.004761 60.0
921.933411 104.0
924.013489 128.0
932.308655 68.0
941.697205 28.0
944.117432 96.0
947.361511 84.0
955.951294 140.0
958.729309 80.0
962.386719 72.0
962.905457 144.0
965.253784 116.0
966.082581 152.0
974.570251 40.0
985.036865 136.0
989.301697 164.0
991.161865 220.0
992.885803 72.0
1002.17688 176.0
1009.220947 88.0
1012.213928 160.0
1018.219543 164.0
1018.600647 44.0
1022.561951 60.0
1022.663757 160.0
1024.064575 52.0
1027.149536 44.0
1030.149658 172.0
1042.670166 104.0
1044.586304 160.0
1045.062378 84.0
1045.879639 72.0
1047.16748 60.0
1047.341309 92.0
1060.775513 148.0
1064.791992 48.0
1068.204468 80.0
1068.347534 156.0
1070.365234 120.0
1070.775513 52.0
1071.492065 144.0
1074.419312 44.0
1078.78833 80.0
1079.729858 40.0
1082.478516 120.0
1085.951904 92.0
1087.047607 232.0
1087.198486 116.0
1087.349487 136.0
1089.614868 196.0
1090.534912 156.0
1094.673096 148.0
1099.967407 48.0
1104.050659 104.0
1104.454102 144.0
1104.725342 196.0
1109.79187 136.0
1114.099243 196.0
1114.271973 48.0
1114.637451 188.0
1117.117432 180.0
1118.288574 56.0
1123.139282 112.0
1124.380249 216.0
1125.254761 220.0
1125.601929 164.0
1126.643921 252.0
1127.840088 152.0
1128.842896 152.0
1129.879639 184.0
1133.535522 196.0
1135.312012 64.0
1137.009277 128.0
1142.2771 64.0
1143.690186 96.0
1148.314941 52.0
1152.977661 128.0
1155.371338 160.0
1156.420166 28.0
1156.833008 116.0
1157.063232 56.0
1157.686157 32.0
1167.268188 80.0
1168.322388 156.0
1173.737183 88.0
1175.565308 176.0
1177.319824 164.0
1177.531494 108.0
1182.077759 228.0
1182.721069 216.0
1184.487793 168.0
1186.756226 132.0
1192.124146 220.0
1193.327026 88.0
1193.492065 188.0
1196.608887 196.0
1197.008301 136.0
1197.442139 168.0
1197.586792 60.0
1199.261108 68.0
1200.681396 148.0
1201.019409 88.0
1202.385498 220.0
1204.208252 40.0
1204.677979 120.0
1206.364136 164.0
1206.509277 192.0
1208.425049 196.0
1208.777954 60.0
1209.248535 180.0
1211.450562 144.0
1215.707764 152.0
1220.883423 48.0
1222.810547 60.0
1223.249023 200.0
1223.37439 44.0
1225.421997 160.0
1225.82605 208.0
1226.035156 128.0
1230.06665 200.0
1231.616821 140.0
1232.846436 256.0
1237.841309 168.0
1242.972534 60.0
1244.24292 136.0
1244.85376 88.0
1245.907349 52.0
1246.912231 204.0
1248.669922 64.0
1249.436646 164.0
1251.182007 228.0
1251.858032 72.0
1253.717773 180.0
1254.154785 204.0
1254.70459 80.0
1256.065674 148.0
1256.31958 112.0
1257.490967 36.0
1257.737671 208.0
1261.503174 172.0
1262.889038 48.0
1265.181763 148.0
1267.901855 192.0
1269.177856 140.0
1269.979126 208.0
1273.009644 116.0
1274.259888 164.0
1275.140991 160.0
1278.305664 96.0
1278.746948 132.0
1278.846558 128.0
1282.122803 192.0
1286.259644 176.0
1286.595215 188.0
1286.952148 148.0
1288.194824 124.0
1288.480591 180.0
1289.817017 180.0
1289.874146 100.0
1290.617676 40.0
1291.568848 204.0
1295.520386 132.0
1298.057617 52.0
1299.520874 96.0
1299.607056 136.0
1300.547119 84.0
1304.167236 100.0
1304.893311 112.0
1305.475708 120.0
1305.871338 208.0
1306.123047 148.0
1306.468384 80.0
1306.906006 144.0
1307.490112 168.0
1307.835571 128.0
1310.925293 152.0
1312.431885 164.0
1315.187744 100.0
1315.772461 212.0
1316.256226 188.0
1318.524658 140.0
1324.98645 52.0
1326.080688 176.0
1327.508911 204.0
1330.200684 172.0
1331.180786 160.0
1336.00708 212.0
1337.964722 192.0
1338.554565 156.0
1339.792725 104.0
1340.331909 164.0
1342.91272 44.0
1343.313843 196.0
1346.57666 184.0
1346.700806 220.0
1349.704468 212.0
1350.552734 112.0
1350.6698 168.0
1352.557251 124.0
1352.909058 144.0
1354.67395 124.0
1356.000244 76.0
1356.90918 112.0
1362.244629 184.0
1362.611938 168.0
1363.714233 188.0
1366.567505 176.0
1369.239746 108.0
1371.081543 140.0
1371.95874 188.0
1373.219604 136.0
1373.485107 124.0
1373.660767 208.0
1376.381104 172.0
1378.143555 188.0
1379.192993 56.0
1379.252075 80.0
1379.761475 192.0
1384.549683 128.0
1387.194946 160.0
1387.788086 100.0
1388.967163 196.0
1390.332397 124.0
1391.022705 108.0
1392.49292 124.0
1393.577515 160.0
1397.049561 124.0
1397.168579 148.0
1399.312012 44.0
1401.17395 152.0
1402.977539 192.0
1403.573975 200.0
1404.133301 168.0
1405.505859 188.0
1405.886475 108.0
1408.492188 164.0
1409.448486 228.0
1413.299316 128.0
1415.425171 180.0
1416.196533 164.0
1419.164185 192.0
1420.184082 252.0
1420.259155 140.0
1421.49707 148.0
1422.150024 176.0
1425.627319 200.0
1428.040649 156.0
1429.823853 108.0
1432.255737 184.0
1432.662598 148.0
1433.272827 180.0
1433.416016 144.0
1438.15979 176.0
1439.662231 276.0
1441.77002 72.0
1441.898438 60.0
1442.881226 160.0
1444.249878 144.0
1444.749146 176.0
1445.354492 180.0
1446.179443 200.0
1446.618408 36.0
1447.542114 124.0
1457.167725 52.0
1458.033936 124.0
1458.763672 192.0
1459.93457 44.0
1461.075562 160.0
1461.189697 176.0
1461.889771 128.0
1462.582275 188.0
1464.48584 172.0
1467.076782 132.0
1469.212036 100.0
1470.799316 140.0
1473.872803 120.0
1474.231567 212.0
1474.412109 164.0
1474.717773 144.0
1475.084717 108.0
1476.919922 132.0
1477.478394 172.0
1478.947632 156.0
1479.338013 36.0
1481.696777 140.0
1482.907471 136.0
1482.968872 108.0
1483.244751 148.0
1483.344482 184.0
1483.858032 48.0
1484.555786 168.0
1484.80896 176.0
1484.901001 56.0
1485.368896 164.0
1487.379272 204.0
1491.634888 104.0
1491.927002 160.0
1492.180786 120.0
1493.634155 108.0
1493.749634 148.0
1493.957275 192.0
1495.057617 64.0
1500.033325 132.0
1501.768188 160.0
1501.922485 200.0
1502.277344 176.0
1502.578247 184.0
1502.910034 192.0
1503.411621 152.0
1504.044434 204.0
1504.608032 248.0
