>compound OLANZAPINE
>formula C17H20N4S
>ionization [M+H]+
>parentmass 313.14814409209055
#inchi InChI=1S/C17H20N4S/c1-12-11-13-16(21-9-7-20(2)8-10-21)18-14-5-3-4-6-15(14)19-17(13)22-12/h3-6,11,19H,7-10H2,1-2H3
#inchikey KVWDHTXUZHCGIO
#Ion_Source LC-ESI
#Instrument qTof
#Compound_Source Commercial
#PI Dorrestein
#Data_Collector Garg_Neha
#Scan -1
#Precursor_MZ 313.148
#ExactMass 312.141
#Charge 1
#CAS_Number N/A
#Pubmed_ID N/A
#Smiles CN1CCN(CC1)C2=Nc3ccccc3Nc4sc(C)cc24
#INCHI_AUX N/A
#Library_Class 1
#SpectrumID CCMSLIB00000078925
#IonMode Positive
#UpdateWorkflowName UPDATE-SINGLE-ANNOTATED-GOLD
#LibraryQualityString Gold
#TaskID 278b19f5865741e282cec7349aa7e7a1
##Scan# 1008
#SpectrumFile NCP003272_C2_D11_BC1_01_15714.mzXML
#LibraryName NIHcollectionI_05062014.mgf
#MQScore -1
#Organism NIHcollectionI_05062014
#TIC_Query 0
#RT_Query -1
#MZErrorPPM -1
#SharedPeaks 0
#MassDiff 0
#LibMZ -1
#SpecMZ 313.148
#SpecCharge 0
#internalFilename spec-00000.mgf

>collision 10
49.509243 188.0
53.99403 176.0
55.976021 168.0
58.35503 148.0
60.806824 208.0
62.433205 148.0
64.149574 152.0
67.93914 124.0
71.143677 144.0
74.372498 144.0
74.702415 176.0
74.77124 148.0
79.653526 200.0
80.81411 200.0
81.770576 180.0
81.783173 172.0
84.010216 188.0
84.055832 140.0
84.408379 160.0
84.42849 144.0
88.621498 140.0
97.310371 172.0
99.097298 184.0
99.28759 184.0
99.380821 204.0
103.913498 148.0
106.902924 160.0
107.05938 148.0
107.802025 172.0
108.640579 152.0
108.985214 156.0
112.417313 176.0
113.650955 224.0
113.841995 156.0
114.194786 156.0
116.048363 196.0
117.056107 156.0
118.079018 204.0
119.073799 172.0
119.16938 192.0
119.774155 152.0
119.922318 152.0
120.0793 208.0
120.415405 152.0
127.728287 220.0
131.065323 160.0
133.075363 264.0
134.080139 148.0
134.436264 180.0
140.562149 164.0
141.409241 176.0
142.064529 292.0
143.060242 140.0
143.655991 188.0
144.224304 256.0
148.898575 156.0
149.037048 156.0
149.859436 172.0
150.071487 140.0
150.970078 148.0
151.116837 184.0
151.731567 176.0
153.256348 124.0
154.068466 164.0
155.060562 120.0
157.081024 196.0
157.179199 160.0
158.085144 168.0
158.781586 168.0
161.0215 176.0
163.058456 156.0
164.046036 232.0
164.35463 144.0
165.300079 164.0
167.062714 152.0
169.075882 2084.0
169.115051 132.0
169.743637 148.0
170.079224 180.0
170.883896 168.0
172.007095 188.0
172.095856 148.0
173.020432 228.0
174.209366 188.0
175.140533 160.0
175.390854 180.0
175.787888 200.0
176.692734 224.0
176.954742 144.0
177.397171 172.0
179.060669 380.0
180.06723 1440.0
180.204865 152.0
181.067612 212.0
181.74173 184.0
182.076645 576.0
182.913452 220.0
183.406387 148.0
185.071655 132.0
185.102997 184.0
185.636826 144.0
186.038773 544.0
186.16745 104.0
186.391464 188.0
187.038239 296.0
187.101334 196.0
187.747101 168.0
188.069046 140.0
192.920135 160.0
192.961594 140.0
193.075745 172.0
194.087234 152.0
194.610107 160.0
194.662872 164.0
195.077408 364.0
196.085693 412.0
197.7854 156.0
198.025009 4772.0
199.029892 484.0
200.053162 172.0
200.54364 152.0
201.051453 252.0
201.35054 144.0
201.833771 164.0
202.062866 272.0
202.997574 168.0
205.677597 184.0
206.55481 152.0
206.769409 228.0
207.081467 188.0
207.789505 144.0
207.993256 228.0
208.083588 172.0
209.088303 160.0
211.02713 152.0
211.229187 172.0
212.041351 888.0
212.785385 208.0
212.958954 176.0
213.013504 376.0
213.048431 9188.0
213.377213 96.0
214.051361 1048.0
214.720444 160.0
215.063614 440.0
215.304123 140.0
216.066132 344.0
220.084061 348.0
221.094177 204.0
222.102463 676.0
222.384964 188.0
223.110596 1372.0
224.053802 236.0
224.114838 696.0
225.010468 156.0
225.05249 208.0
226.049713 312.0
227.061829 800.0
228.058807 584.0
229.075668 252.0
230.04657 108.0
230.074432 1000.0
231.077332 128.0
231.340439 152.0
231.478104 144.0
232.065918 148.0
234.102982 180.0
235.104721 188.0
236.141052 260.0
237.058823 220.0
237.130127 148.0
238.056778 324.0
239.063599 444.0
239.479706 224.0
240.068497 168.0
240.861526 168.0
241.069153 628.0
242.07663 536.0
243.087555 168.0
243.842194 184.0
243.904358 156.0
244.086823 140.0
245.35498 312.0
246.144348 144.0
246.969391 160.0
247.126434 140.0
247.175873 144.0
248.084152 140.0
248.121643 312.0
249.110291 156.0
250.133484 196.0
251.030182 184.0
252.065857 276.0
252.100327 204.0
253.065475 520.0
254.031677 188.0
254.076218 188.0
254.469635 152.0
255.08548 592.0
255.267334 140.0
255.429352 164.0
255.77301 140.0
255.874344 144.0
255.903534 180.0
255.956345 204.0
256.091248 39964.0
256.204346 184.0
256.45929 96.0
256.840027 160.0
256.914764 148.0
257.093597 4868.0
257.611603 164.0
258.088562 2132.0
258.483521 108.0
258.948456 112.0
259.023621 320.0
259.085327 224.0
260.595581 156.0
260.7948 144.0
263.921844 192.0
264.860352 152.0
266.144592 156.0
266.635101 152.0
267.067505 160.0
267.672821 152.0
268.087524 172.0
270.104034 240.0
271.105072 168.0
275.218719 176.0
278.164368 200.0
279.743347 148.0
281.089813 164.0
281.981476 156.0
282.10675 6820.0
283.065369 184.0
283.108459 1064.0
283.149078 224.0
283.882996 140.0
284.098145 164.0
284.392944 176.0
286.103912 160.0
289.470154 212.0
289.833496 136.0
300.141968 152.0
300.883759 224.0
301.039154 232.0
302.428955 172.0
302.813263 204.0
306.987091 256.0
309.471497 228.0
309.77475 112.0
310.277313 156.0
310.850891 112.0
310.998047 100.0
311.133942 2852.0
311.345276 96.0
311.51947 100.0
311.591125 144.0
311.781586 136.0
311.958862 140.0
312.135864 1140.0
312.212036 156.0
312.315063 120.0
312.359741 204.0
312.447357 128.0
312.608459 156.0
312.684723 220.0
312.749176 160.0
312.82254 104.0
312.885529 212.0
312.916656 128.0
312.971405 120.0
313.013245 248.0
313.062958 360.0
313.08728 540.0
313.150146 126916.0
313.344025 144.0
313.37854 208.0
313.481781 292.0
313.516022 360.0
313.585541 204.0
313.622681 320.0
313.681549 212.0
313.728546 1228.0
313.930115 132.0
314.04306 276.0
314.072357 116.0
314.151825 24256.0
314.445251 116.0
314.561005 116.0
314.640839 144.0
314.829987 164.0
314.881927 152.0
314.969116 156.0
315.144989 6612.0
315.243164 124.0
315.279083 192.0
315.686005 200.0
315.978363 100.0
316.016479 148.0
316.092773 120.0
316.145905 1160.0
316.218445 156.0
316.302002 148.0
316.345215 216.0
316.392273 204.0
316.483917 132.0
316.717285 112.0
317.30246 120.0
317.380402 116.0
317.666382 156.0
318.237762 108.0
321.279785 160.0
378.567047 140.0
399.114746 164.0
673.600037 120.0
1303.876465 148.0
1458.109619 160.0
1627.684082 208.0
