>compound Bisoprolol
>formula C18H31NO4
>ionization [M+H]+
>parentmass 326.2325849240906
#inchi InChI=1S/C18H31NO4/c1-14(2)19-11-17(20)13-23-18-7-5-16(6-8-18)12-21-9-10-22-15(3)4/h5-8,14-15,17,19-20H,9-13H2,1-4H3
#inchikey VHYCDWMUTMEGQY
#origInchi InChI=1S/C18H31NO4.C4H4O4/c1-14(2)19-11-17(20)13-23-18-7-5-16(6-8-18)12-21-9-10-22-15(3)4;5-3(6)1-2-4(7)8/h5-8,14-15,17,19-20H,9-13H2,1-4H3;1-2H,(H,5,6)(H,7,8)/b;2-1+
#Ion_Source LC-ESI
#Instrument qTof
#Compound_Source Commercial
#PI Dorrestein
#Data_Collector Garg_Neha
#Scan -1
#Precursor_MZ 326.233
#ExactMass 325.225
#Charge 1
#CAS_Number 104344-23-2
#Pubmed_ID N/A
#Smiles C1(=C(C=CC(=C1)OCC(O)CNC(C)C)COCCOC(C)C).OC(/C=C/C(O)=O)=O
#INCHI_AUX N/A
#Library_Class 1
#SpectrumID CCMSLIB00000078046
#IonMode Positive
#UpdateWorkflowName UPDATE-SINGLE-ANNOTATED-GOLD
#LibraryQualityString Gold
#TaskID 77f51c88eb8b467eb4a01dd2d0cb90d2
##Scan# 1103
#SpectrumFile Plate1_41_60_GG3_01_16490.mzXML
#LibraryName FDALibrary_2_04302014.mgf
#MQScore -1
#Organism FDALibrary_2_04302014
#TIC_Query 0
#RT_Query -1
#MZErrorPPM -1
#SharedPeaks 0
#MassDiff 0
#LibMZ -1
#SpecMZ 326.233
#SpecCharge 0
#internalFilename spec-00000.mgf

>collision 10
44.957817 168.0
45.004349 172.0
45.142349 236.0
45.19014 204.0
45.253963 140.0
45.319592 504.0
45.442032 152.0
45.48597 148.0
45.558838 188.0
45.662342 144.0
45.675793 188.0
45.761044 276.0
45.797192 168.0
45.815796 148.0
45.837353 156.0
45.887226 172.0
45.982544 224.0
46.01675 236.0
46.138348 140.0
46.149166 164.0
46.161858 124.0
46.192444 152.0
46.285366 276.0
46.368469 160.0
46.611389 256.0
46.620899 148.0
46.642647 164.0
46.744652 236.0
46.825172 192.0
46.964001 212.0
46.985332 188.0
47.020702 208.0
47.086842 252.0
47.100502 156.0
47.141487 140.0
47.188629 164.0
47.231728 176.0
47.242668 160.0
47.264561 204.0
47.329494 156.0
47.345329 220.0
47.467297 196.0
47.476894 144.0
47.487865 148.0
47.610016 156.0
47.621006 156.0
47.680882 124.0
47.696579 192.0
47.728199 140.0
47.774963 196.0
47.834137 156.0
47.885529 100.0
48.01326 280.0
48.147129 144.0
48.160942 180.0
48.271507 140.0
48.304703 212.0
48.32732 184.0
48.36282 208.0
48.414047 212.0
48.461098 116.0
48.516174 180.0
48.610428 152.0
48.637905 144.0
48.756721 180.0
48.779606 164.0
48.803986 156.0
48.842926 156.0
48.865433 180.0
48.930599 184.0
49.007206 156.0
49.018871 204.0
49.19936 176.0
49.259052 124.0
49.319817 192.0
49.334133 164.0
49.354767 148.0
49.451294 172.0
49.51186 152.0
49.612202 180.0
49.716183 152.0
49.748466 180.0
49.892494 152.0
49.911449 152.0
49.983189 148.0
50.000076 152.0
50.084557 144.0
50.115547 144.0
50.366669 272.0
50.394997 156.0
50.408199 160.0
50.441563 164.0
50.543392 164.0
50.568867 180.0
50.60709 148.0
50.67791 160.0
50.709087 152.0
50.727085 212.0
50.751617 204.0
50.764378 172.0
50.792744 152.0
50.806931 148.0
50.828747 224.0
50.858601 136.0
50.888699 124.0
50.90345 148.0
50.929012 216.0
51.115219 144.0
51.155109 196.0
51.172028 160.0
51.199982 140.0
51.240639 220.0
51.269058 236.0
51.279034 192.0
51.29044 144.0
51.301842 152.0
51.341949 124.0
51.424519 152.0
51.454494 148.0
51.548767 144.0
51.66671 140.0
51.718964 192.0
51.755383 128.0
51.777668 144.0
51.830673 144.0
51.843571 196.0
52.023647 176.0
52.034348 144.0
52.071987 164.0
52.102097 140.0
52.136337 156.0
52.15477 228.0
52.227318 216.0
52.339172 188.0
52.512569 188.0
52.604458 168.0
52.618172 96.0
52.691109 140.0
52.70332 168.0
52.751808 192.0
52.780956 124.0
52.828453 224.0
52.860603 180.0
52.903706 204.0
53.029728 256.0
53.041325 152.0
53.061623 152.0
53.169624 176.0
53.222675 192.0
53.35635 200.0
53.606709 160.0
53.676682 148.0
53.70293 184.0
53.897099 192.0
53.939484 164.0
54.007206 208.0
54.026592 204.0
54.062344 152.0
54.104393 200.0
54.143688 192.0
54.21172 164.0
54.358364 240.0
54.461136 140.0
54.474178 132.0
54.495487 188.0
54.546364 156.0
54.578709 184.0
54.696785 140.0
54.875015 184.0
54.899731 176.0
54.969757 172.0
55.220219 156.0
55.442299 212.0
55.470459 168.0
55.495098 136.0
55.523838 160.0
55.744209 208.0
55.859451 160.0
55.875893 168.0
55.896725 176.0
55.950272 180.0
55.986042 156.0
56.019253 176.0
56.05975 168.0
56.151474 188.0
56.169373 196.0
56.241699 128.0
56.336567 140.0
56.518974 140.0
56.544415 232.0
56.589325 180.0
56.656345 160.0
56.69825 140.0
56.745148 160.0
56.801102 168.0
56.834026 140.0
56.863655 208.0
56.900322 160.0
57.020287 112.0
57.051422 144.0
57.076916 176.0
57.109478 180.0
57.17025 152.0
57.195839 144.0
57.217258 244.0
57.302761 196.0
57.343449 220.0
57.3932 144.0
57.449787 148.0
57.476162 184.0
57.486725 192.0
57.524132 260.0
57.600178 148.0
57.689121 156.0
57.835697 156.0
57.880302 156.0
57.978226 180.0
57.996414 184.0
58.011574 196.0
58.088367 100.0
58.113861 180.0
58.209412 204.0
58.271992 168.0
58.295132 112.0
58.37344 172.0
58.499218 156.0
58.540329 148.0
58.564697 188.0
58.578957 148.0
58.650024 196.0
58.669842 180.0
58.771225 148.0
58.880421 176.0
58.907913 268.0
58.924469 172.0
58.961819 172.0
59.118916 188.0
59.166367 160.0
59.18689 160.0
59.220432 144.0
59.264389 152.0
59.320774 152.0
59.341202 176.0
59.380898 164.0
59.495987 212.0
59.546051 164.0
59.610851 148.0
59.668056 192.0
59.683781 160.0
59.700348 192.0
59.768036 168.0
59.791672 200.0
59.849617 348.0
59.871174 228.0
59.951286 152.0
60.073318 356.0
60.146755 120.0
60.170322 152.0
60.329941 168.0
60.34182 148.0
60.355331 184.0
60.399647 112.0
60.518204 160.0
60.547626 180.0
60.569313 168.0
60.676243 188.0
60.737396 120.0
60.8438 156.0
60.873302 144.0
61.120697 136.0
61.139137 200.0
61.162487 172.0
61.234108 148.0
61.313568 164.0
61.397758 164.0
61.421154 148.0
61.5382 188.0
61.56971 192.0
61.64893 156.0
61.725708 144.0
61.736652 196.0
61.872787 184.0
61.894707 184.0
61.932293 160.0
61.957359 144.0
61.969414 196.0
62.029446 200.0
62.046116 200.0
62.082756 200.0
62.162762 160.0
62.329758 232.0
62.384228 160.0
62.495773 156.0
62.53355 112.0
62.572865 164.0
62.621773 184.0
62.749702 168.0
62.901802 164.0
63.03561 132.0
63.050102 156.0
63.104729 204.0
63.117424 140.0
63.167988 192.0
63.236031 160.0
63.261356 180.0
63.50174 148.0
63.610111 160.0
63.688004 156.0
63.756241 148.0
63.823006 204.0
63.838238 208.0
63.948685 164.0
64.005997 188.0
64.031479 264.0
64.079269 168.0
64.104759 152.0
64.157364 148.0
64.189247 148.0
64.277351 176.0
64.301392 192.0
64.321678 144.0
64.338737 268.0
64.35994 132.0
64.374359 164.0
64.403114 192.0
64.51757 172.0
64.620529 160.0
64.633324 160.0
64.668823 332.0
64.6866 252.0
64.719475 156.0
64.744827 160.0
64.798248 196.0
64.819077 152.0
64.8489 112.0
65.032745 176.0
65.05468 148.0
65.120758 180.0
65.195877 120.0
65.219238 120.0
65.420692 136.0
65.514793 200.0
65.528343 168.0
65.5438 148.0
65.559914 236.0
65.714272 224.0
65.748207 180.0
65.873024 136.0
65.988541 172.0
66.07663 140.0
66.18232 176.0
66.274162 160.0
66.377907 164.0
66.410599 204.0
66.455086 124.0
66.478485 156.0
66.558029 224.0
66.571022 168.0
66.644119 164.0
66.731888 144.0
66.770821 128.0
66.82785 196.0
66.9076 192.0
66.922256 212.0
66.945847 156.0
66.975998 176.0
67.06073 188.0
67.152039 140.0
67.167915 212.0
67.235245 152.0
67.336472 164.0
67.379929 136.0
67.413254 140.0
67.444908 200.0
67.486816 140.0
67.525337 216.0
67.573502 196.0
67.626099 172.0
67.645508 152.0
67.707733 196.0
67.871346 152.0
67.914055 168.0
67.957649 316.0
68.06852 172.0
68.103004 184.0
68.126106 188.0
68.145721 140.0
68.178246 176.0
68.208984 144.0
68.319191 204.0
68.334801 164.0
68.346321 148.0
68.369362 180.0
68.385818 148.0
68.494492 164.0
68.652344 160.0
68.702316 116.0
68.730255 140.0
68.786369 152.0
68.803825 156.0
68.822685 176.0
68.836517 192.0
68.885452 176.0
68.899734 136.0
68.923447 180.0
68.951546 252.0
69.063675 176.0
69.16584 192.0
69.242729 160.0
69.269234 156.0
69.330536 160.0
69.387146 132.0
69.415588 328.0
69.435432 124.0
69.468163 144.0
69.496368 236.0
69.691605 164.0
69.720619 96.0
69.905144 188.0
69.991898 136.0
70.099579 164.0
70.222618 208.0
70.277611 176.0
70.313446 180.0
70.388321 132.0
70.485458 148.0
70.512199 156.0
70.607498 152.0
70.674416 196.0
70.710922 196.0
70.726868 140.0
70.816711 196.0
70.868645 276.0
70.99012 128.0
71.054543 128.0
71.089241 180.0
71.134468 140.0
71.168884 348.0
71.211288 112.0
71.260406 176.0
71.368843 172.0
71.460701 124.0
71.575813 148.0
71.592651 344.0
71.693207 256.0
71.748283 176.0
71.807014 248.0
71.879234 148.0
71.902863 212.0
71.995384 128.0
72.212044 148.0
72.257721 152.0
72.288177 152.0
72.325417 160.0
72.381287 164.0
72.406685 184.0
72.559196 144.0
72.570496 168.0
72.829559 176.0
73.019493 188.0
73.041107 160.0
73.107086 160.0
73.129974 152.0
73.217018 296.0
73.365051 156.0
73.404266 164.0
73.431755 236.0
73.494675 152.0
73.533928 152.0
73.557823 144.0
73.636963 172.0
73.807266 180.0
73.831207 188.0
73.865707 152.0
73.94516 152.0
73.977837 184.0
74.023247 240.0
74.059464 180.0
74.107948 240.0
74.187363 160.0
74.346878 144.0
74.377769 176.0
74.480598 208.0
74.552963 152.0
74.620003 152.0
74.638916 152.0
74.741104 128.0
74.813324 164.0
74.984947 140.0
75.013329 172.0
75.078049 144.0
75.153946 156.0
75.219528 148.0
75.292473 228.0
75.481186 200.0
75.698456 164.0
75.850922 156.0
75.882294 124.0
75.922012 196.0
75.93541 132.0
76.041656 108.0
76.190979 172.0
76.265785 160.0
76.31295 152.0
76.372055 204.0
76.446663 268.0
76.469292 348.0
76.484375 192.0
76.560387 136.0
76.6203 172.0
76.638214 156.0
76.695564 220.0
76.737823 108.0
76.782898 192.0
76.812119 128.0
76.833488 140.0
76.915512 148.0
76.938156 148.0
76.965141 160.0
77.100029 180.0
77.193306 156.0
77.214294 172.0
77.284508 144.0
77.302345 252.0
77.370026 176.0
77.510056 152.0
77.57193 144.0
77.596039 156.0
77.620583 164.0
77.72155 172.0
77.744339 196.0
77.759178 264.0
77.809265 156.0
77.846252 196.0
77.880333 180.0
77.904922 228.0
77.983116 188.0
78.013855 276.0
78.1194 220.0
78.235062 188.0
78.259125 160.0
78.404648 192.0
78.487503 176.0
78.561577 204.0
78.582748 148.0
78.598625 156.0
78.656868 164.0
78.670631 156.0
78.756935 240.0
78.77581 180.0
78.819359 204.0
78.873138 176.0
78.967857 212.0
79.013237 172.0
79.061302 176.0
79.098793 164.0
79.150139 148.0
79.317581 188.0
79.350365 140.0
79.368095 160.0
79.404312 264.0
79.49115 140.0
79.515335 156.0
79.55616 140.0
79.637848 152.0
79.667755 124.0
79.672966 104.0
79.755119 156.0
79.769341 180.0
79.790672 140.0
79.955399 196.0
80.040146 172.0
80.055801 192.0
80.077171 192.0
80.114578 148.0
80.273216 196.0
80.309326 192.0
80.351158 120.0
80.41951 164.0
80.456688 184.0
80.653168 172.0
80.777374 160.0
80.889626 148.0
81.072319 152.0
81.099197 132.0
81.158363 140.0
81.242661 168.0
81.32251 176.0
81.400299 140.0
81.425751 228.0
81.484062 108.0
81.520966 148.0
81.57309 148.0
81.645012 164.0
81.724167 164.0
81.799751 184.0
81.845985 204.0
81.916168 148.0
81.931213 256.0
81.995155 224.0
82.097916 160.0
82.116425 204.0
82.147049 272.0
82.249535 148.0
82.39669 232.0
82.457993 160.0
82.469353 188.0
82.609352 380.0
82.642227 184.0
82.856232 152.0
82.93959 240.0
83.00486 140.0
83.050201 184.0
83.077408 176.0
83.104622 152.0
83.120956 244.0
83.2789 192.0
83.405594 188.0
83.506104 140.0
83.564316 180.0
83.621986 168.0
83.662598 232.0
83.677162 232.0
83.772316 192.0
83.826019 160.0
83.92131 188.0
84.010361 184.0
84.065201 156.0
84.165154 176.0
84.203026 160.0
84.252769 204.0
84.311958 152.0
84.364632 108.0
84.445427 160.0
84.491798 172.0
84.535072 168.0
84.59462 100.0
84.644539 200.0
84.759285 128.0
84.85379 144.0
84.985855 144.0
85.004204 152.0
85.070938 312.0
85.095978 212.0
85.191483 144.0
85.2537 176.0
85.283363 140.0
85.299904 232.0
85.414001 176.0
85.42733 96.0
85.447769 160.0
85.461746 156.0
85.523148 132.0
85.759048 192.0
85.825768 172.0
85.879936 356.0
85.943184 100.0
85.961113 144.0
86.029411 168.0
86.056007 196.0
86.112503 148.0
86.160019 172.0
86.284363 168.0
86.33213 168.0
86.390564 160.0
86.432327 196.0
86.465645 172.0
86.574951 192.0
86.610962 148.0
86.694946 192.0
86.813896 188.0
86.889526 228.0
86.907196 132.0
86.929657 148.0
86.997627 184.0
87.120102 148.0
87.142136 208.0
87.164795 228.0
87.415306 180.0
87.438171 144.0
87.48098 156.0
87.50518 152.0
87.543892 148.0
87.62252 140.0
87.63929 144.0
87.807068 148.0
87.831314 304.0
87.858864 172.0
87.888641 160.0
87.967537 160.0
87.987305 344.0
88.021683 192.0
88.079582 160.0
88.169266 160.0
88.223473 168.0
88.285179 224.0
88.330711 196.0
88.357803 140.0
88.398476 192.0
88.447952 148.0
88.511253 188.0
88.601257 176.0
88.682091 172.0
88.704102 140.0
88.744324 144.0
88.801163 168.0
88.817101 152.0
88.858368 316.0
88.897774 164.0
89.039246 128.0
89.188889 152.0
89.202049 144.0
89.295937 116.0
89.376961 156.0
89.391632 196.0
89.535088 144.0
89.558319 132.0
89.58783 176.0
89.617973 196.0
89.658867 200.0
89.863091 192.0
89.982002 172.0
90.092346 112.0
90.167191 228.0
90.344864 148.0
90.411865 176.0
90.498169 140.0
90.538757 136.0
90.560669 156.0
90.618637 100.0
90.845467 124.0
90.885361 132.0
90.934189 168.0
90.967171 160.0
91.010124 172.0
91.054695 1380.0
91.209602 140.0
91.244858 128.0
91.302773 148.0
91.335106 216.0
91.467216 172.0
91.635895 140.0
91.65686 144.0
91.705185 156.0
91.740723 176.0
91.76741 380.0
91.881851 152.0
91.914284 160.0
91.950844 180.0
92.071838 104.0
92.103294 204.0
92.131348 140.0
92.151054 168.0
92.195007 228.0
92.315445 236.0
92.334106 200.0
92.370911 232.0
92.513397 140.0
92.552727 188.0
92.621674 160.0
92.650742 232.0
92.675621 176.0
92.695778 168.0
92.728973 172.0
92.753937 168.0
92.824829 176.0
92.861275 164.0
92.94838 188.0
92.964302 268.0
93.043571 160.0
93.073631 180.0
93.112701 144.0
93.128441 144.0
93.154961 252.0
93.222206 164.0
93.277946 200.0
93.331779 148.0
93.405388 132.0
93.48233 152.0
93.572289 168.0
93.589615 168.0
93.613914 212.0
93.693626 224.0
93.734085 164.0
93.827667 276.0
93.972481 152.0
94.077408 148.0
94.096931 180.0
94.148849 184.0
94.189056 176.0
94.239639 200.0
94.309212 140.0
94.3526 172.0
94.376877 208.0
94.411682 156.0
94.430428 204.0
94.510933 184.0
94.562592 160.0
94.585823 176.0
94.61853 192.0
94.641968 168.0
94.684654 184.0
94.758453 196.0
94.826004 200.0
95.068977 200.0
95.105309 180.0
95.175201 176.0
95.228157 172.0
95.256767 220.0
95.272308 140.0
95.379196 156.0
95.398636 216.0
95.50753 172.0
95.530876 156.0
95.609459 124.0
95.65477 168.0
95.69825 148.0
95.729355 148.0
95.815773 216.0
95.875923 96.0
96.012962 168.0
96.117332 192.0
96.17588 180.0
96.195396 172.0
96.289124 164.0
96.328194 164.0
96.365112 156.0
96.444298 172.0
96.523636 232.0
96.633827 156.0
96.729073 140.0
96.795639 220.0
96.848518 144.0
96.895531 156.0
96.958237 148.0
97.013611 192.0
97.034164 164.0
97.156677 140.0
97.185715 192.0
97.250481 172.0
97.26973 124.0
97.490089 156.0
97.554955 144.0
97.588371 144.0
97.637535 164.0
97.667992 240.0
97.735405 224.0
97.766708 176.0
97.806747 216.0
97.867775 180.0
97.885498 160.0
97.90979 156.0
98.096809 4244.0
98.141006 160.0
98.192497 180.0
98.228439 156.0
98.248169 164.0
98.267899 144.0
98.350784 360.0
98.41291 136.0
98.45224 104.0
98.504807 160.0
98.555817 132.0
98.588814 172.0
98.611511 176.0
98.736069 156.0
98.779587 192.0
98.813217 228.0
98.850807 172.0
98.866646 156.0
98.94619 108.0
99.035744 244.0
99.101799 580.0
99.153038 164.0
99.173965 144.0
99.283501 148.0
99.330528 128.0
99.475143 200.0
99.507721 108.0
99.614601 124.0
99.643951 208.0
99.715492 164.0
99.771149 180.0
99.886353 116.0
99.902405 272.0
99.941414 140.0
99.960068 180.0
100.074142 404.0
100.1101 752.0
100.209007 240.0
100.324608 140.0
100.343452 176.0
100.37941 140.0
100.453796 252.0
100.516083 316.0
100.551003 168.0
100.685768 152.0
100.759682 176.0
100.832458 200.0
100.907578 184.0
100.931572 280.0
100.964699 124.0
101.121628 152.0
101.15374 188.0
101.215714 204.0
101.247757 196.0
101.279808 176.0
101.31987 152.0
101.372292 224.0
101.448135 176.0
101.492241 204.0
101.519417 188.0
101.589355 152.0
101.724129 172.0
101.805176 144.0
101.89917 184.0
101.917473 156.0
101.935867 164.0
101.968018 160.0
101.992142 184.0
102.061661 128.0
102.097084 288.0
102.138931 160.0
102.193573 348.0
102.301926 148.0
102.383835 148.0
102.493271 232.0
102.543648 176.0
102.59404 200.0
102.69088 176.0
102.748802 216.0
102.779602 228.0
102.809387 168.0
102.82225 148.0
102.874413 164.0
102.938705 156.0
102.978401 368.0
103.017845 164.0
103.054993 292.0
103.075356 180.0
103.147179 188.0
103.16317 136.0
103.201759 168.0
103.224007 168.0
103.297829 108.0
103.513382 152.0
103.553368 168.0
103.799103 296.0
103.873329 148.0
103.947189 184.0
104.061111 228.0
104.144119 144.0
104.16037 176.0
104.17662 164.0
104.194016 336.0
104.342064 148.0
104.412415 264.0
104.42868 228.0
104.505989 176.0
104.560936 172.0
104.57518 152.0
104.660774 172.0
104.717705 156.0
104.829758 164.0
104.851868 132.0
104.950882 200.0
104.985306 212.0
105.029564 164.0
105.070526 1592.0
105.25666 176.0
105.302452 144.0
105.382668 100.0
105.43383 192.0
105.488121 168.0
105.637764 412.0
105.679329 156.0
105.815315 220.0
105.842079 164.0
105.862984 188.0
105.888031 176.0
105.916702 160.0
106.037125 208.0
106.07328 676.0
106.11882 180.0
106.39138 136.0
106.468109 200.0
106.656517 156.0
106.678993 144.0
106.740326 160.0
106.769753 176.0
106.810135 180.0
106.848717 308.0
106.871353 204.0
106.902222 152.0
106.921524 144.0
106.964966 140.0
106.992851 128.0
107.019554 148.0
107.049835 16420.0
107.073738 264.0
107.173744 172.0
107.294556 160.0
107.345123 264.0
107.396088 148.0
107.490967 156.0
107.541946 140.0
107.587677 116.0
107.735229 176.0
107.775291 156.0
107.829155 168.0
107.915039 148.0
107.999832 176.0
108.052536 1580.0
108.118607 176.0
108.393188 164.0
108.408966 176.0
108.444542 108.0
108.475655 168.0
108.511337 156.0
108.584358 180.0
108.726509 132.0
108.814011 176.0
108.847832 164.0
108.873711 208.0
108.930252 164.0
109.053154 180.0
109.09156 252.0
109.214005 236.0
109.258522 148.0
109.305817 164.0
109.333939 180.0
109.368317 120.0
109.415115 180.0
109.443779 224.0
109.490082 204.0
109.52459 260.0
109.617157 152.0
109.705292 212.0
109.73597 176.0
109.755714 196.0
109.781845 160.0
109.86834 336.0
109.959541 228.0
110.051521 188.0
110.070358 128.0
110.274925 192.0
110.294815 176.0
110.430038 144.0
110.476807 156.0
110.534805 200.0
110.584114 144.0
110.727516 104.0
110.763458 160.0
110.959091 252.0
111.103531 136.0
111.150162 168.0
111.244865 276.0
111.263306 192.0
111.308075 136.0
111.353462 120.0
111.379547 192.0
111.438187 180.0
111.465828 152.0
111.48703 124.0
111.51284 172.0
111.632179 152.0
111.68074 212.0
111.695793 200.0
111.877312 144.0
112.166878 180.0
112.184769 144.0
112.241699 176.0
112.351379 144.0
112.391464 160.0
112.508636 136.0
112.58194 104.0
112.657494 196.0
113.203194 264.0
113.245018 164.0
113.284729 128.0
113.309509 136.0
113.340889 164.0
113.362549 192.0
113.479607 172.0
113.487144 152.0
113.601669 168.0
113.616524 144.0
113.633362 124.0
113.805725 140.0
113.828056 236.0
113.843643 148.0
113.864876 144.0
113.97316 136.0
114.073112 160.0
114.093941 176.0
114.135361 188.0
114.152962 180.0
114.217773 140.0
114.279091 344.0
114.324738 172.0
114.373047 140.0
114.403732 156.0
114.433556 200.0
114.515831 140.0
114.581749 140.0
114.61158 220.0
114.715546 128.0
114.738884 176.0
114.80233 132.0
114.875954 152.0
114.950752 208.0
115.054237 544.0
115.094337 124.0
115.167664 280.0
115.267586 156.0
115.343613 144.0
115.420578 176.0
115.45694 176.0
115.477486 204.0
115.587433 176.0
115.605988 212.0
115.679367 452.0
115.703011 164.0
115.753494 208.0
115.789764 236.0
115.823738 248.0
115.87175 112.0
115.929581 160.0
115.959724 200.0
115.982613 176.0
116.026756 184.0
116.076103 508.0
116.10804 121556.0
116.171097 136.0
116.24765 172.0
116.29509 148.0
116.310814 292.0
116.370018 112.0
116.438347 172.0
116.459641 1268.0
116.481636 168.0
116.523552 124.0
116.591438 104.0
116.62706 112.0
116.667503 124.0
116.903595 172.0
116.928719 192.0
116.995453 208.0
117.018433 148.0
117.070343 756.0
117.110825 7476.0
117.214371 244.0
117.286743 152.0
117.365189 164.0
117.563057 144.0
117.601189 288.0
117.645294 172.0
117.704819 140.0
117.773926 484.0
117.80201 188.0
117.842239 168.0
117.871658 252.0
117.896538 320.0
117.926178 112.0
118.000267 196.0
118.04985 188.0
118.067673 172.0
118.115723 260.0
118.147507 108.0
118.217857 356.0
118.275581 144.0
118.299759 144.0
118.440155 152.0
118.500809 104.0
118.533836 132.0
118.567986 156.0
118.609619 164.0
118.888962 148.0
118.908165 184.0
118.932137 168.0
119.049438 4476.0
119.082726 480.0
119.128532 156.0
119.215851 184.0
119.245148 156.0
119.277153 176.0
119.341438 136.0
119.395164 160.0
119.490875 152.0
119.653419 140.0
119.760811 188.0
119.854492 156.0
120.051849 468.0
120.094307 192.0
120.118301 140.0
120.151024 208.0
120.364075 164.0
120.528755 172.0
120.593941 188.0
120.677185 128.0
120.756111 164.0
120.915833 200.0
120.986458 196.0
121.06427 2512.0
121.119675 124.0
121.164482 152.0
121.245277 132.0
121.283806 144.0
121.307022 156.0
121.42852 184.0
121.44606 148.0
121.477905 132.0
121.511879 156.0
121.587563 204.0
121.743484 148.0
121.832413 148.0
121.920311 156.0
121.95108 144.0
121.992531 140.0
122.067131 340.0
122.141449 176.0
122.179367 108.0
122.318893 188.0
122.399879 172.0
122.417496 176.0
122.620895 136.0
122.648834 144.0
122.78392 164.0
122.847298 212.0
122.86274 152.0
122.953217 204.0
123.042404 316.0
123.119537 196.0
123.154129 148.0
123.194611 160.0
123.234077 212.0
123.403854 276.0
123.565315 396.0
123.656044 184.0
123.673752 164.0
123.695885 152.0
123.826523 132.0
124.024231 104.0
124.071205 160.0
124.165627 140.0
124.201111 160.0
124.242111 200.0
124.320923 164.0
124.347557 164.0
124.485199 192.0
124.534058 168.0
124.580711 168.0
124.605148 204.0
124.669586 204.0
124.696259 144.0
124.714661 128.0
124.840767 148.0
124.889702 140.0
124.907494 164.0
124.937408 128.0
124.963112 176.0
125.05188 160.0
125.182533 124.0
125.316963 108.0
125.447182 172.0
125.497673 152.0
125.606239 188.0
125.623253 176.0
125.772888 220.0
125.808708 216.0
125.877838 108.0
125.944984 172.0
126.084778 228.0
126.160774 232.0
126.283035 124.0
126.438141 160.0
126.638435 140.0
126.731499 140.0
126.844238 132.0
127.002762 176.0
127.182709 328.0
127.258026 116.0
127.334633 168.0
127.368065 296.0
127.551865 168.0
127.595619 148.0
127.771042 140.0
127.816048 176.0
127.854301 152.0
128.000626 244.0
128.062057 292.0
128.135773 180.0
128.23616 204.0
128.330688 184.0
128.363434 208.0
128.394897 168.0
128.455902 180.0
128.590286 188.0
128.618988 164.0
128.676331 156.0
128.738037 152.0
128.774185 152.0
128.796768 300.0
128.819351 144.0
128.925262 168.0
129.031921 140.0
129.071274 312.0
129.101883 172.0
129.162964 164.0
129.248932 196.0
129.30954 268.0
129.410309 136.0
129.454926 176.0
129.647491 172.0
129.672424 176.0
129.844727 148.0
129.886826 180.0
129.919586 180.0
130.05925 140.0
130.083298 320.0
130.144043 116.0
130.173798 188.0
130.292114 132.0
130.33963 148.0
130.478271 168.0
130.510117 148.0
130.532852 160.0
130.582886 148.0
130.784439 172.0
130.830917 144.0
130.965271 148.0
131.052673 244.0
131.080124 312.0
131.163513 192.0
131.214462 148.0
131.284348 224.0
131.319138 176.0
131.342865 116.0
131.467728 188.0
131.496521 176.0
131.683746 204.0
131.727142 148.0
131.790665 180.0
131.86528 196.0
132.054184 288.0
132.342865 148.0
132.393509 120.0
132.436264 168.0
132.534668 164.0
132.580612 200.0
132.596649 192.0
132.713379 156.0
132.773178 184.0
132.839706 152.0
132.928421 160.0
132.984268 236.0
133.027466 160.0
133.065308 14500.0
133.103806 168.0
133.136734 128.0
133.174515 168.0
133.350708 140.0
133.365555 304.0
133.456528 224.0
133.54921 144.0
133.600113 164.0
133.678345 240.0
133.825653 224.0
133.931595 160.0
134.039093 132.0
134.06662 1244.0
134.182343 168.0
134.245041 212.0
134.2789 136.0
134.434738 176.0
134.457947 320.0
134.958588 192.0
135.043732 320.0
135.078171 464.0
135.277924 152.0
135.307953 148.0
135.333359 136.0
135.46312 224.0
135.528 172.0
135.692627 148.0
135.72998 200.0
135.750534 184.0
135.890808 264.0
135.979218 140.0
136.007095 148.0
136.114853 144.0
136.226349 148.0
136.254227 176.0
136.300507 148.0
136.378204 124.0
136.427246 172.0
136.677383 140.0
136.799194 96.0
136.957306 164.0
136.998688 212.0
137.058884 2596.0
137.108551 136.0
137.137924 128.0
137.312256 100.0
137.361755 252.0
137.55838 164.0
137.595734 180.0
137.674255 128.0
137.712036 124.0
137.740524 160.0
137.946808 176.0
138.02742 196.0
138.056992 348.0
138.177689 176.0
138.516891 144.0
138.582748 192.0
138.650711 176.0
138.928391 244.0
139.056427 324.0
139.111511 184.0
139.131577 140.0
139.153717 112.0
139.297806 168.0
139.345245 156.0
139.382889 180.0
139.528625 248.0
139.552139 160.0
139.615631 152.0
139.654312 180.0
139.734451 108.0
139.866028 104.0
139.902695 148.0
139.937714 164.0
140.039276 144.0
140.121719 244.0
140.173172 224.0
140.211105 168.0
140.274338 184.0
140.371353 184.0
140.597046 132.0
140.796356 180.0
140.862427 132.0
140.940933 260.0
140.986877 112.0
141.064301 140.0
141.094101 148.0
141.127197 180.0
141.16095 200.0
141.2966 148.0
141.394516 200.0
141.430664 216.0
141.510941 176.0
141.564972 160.0
141.598129 168.0
141.621811 232.0
141.825577 196.0
141.895294 196.0
142.076126 244.0
142.383163 196.0
142.579376 108.0
142.608307 136.0
142.871796 176.0
143.024048 220.0
143.088348 108.0
143.349045 164.0
143.383789 124.0
143.464157 188.0
143.5224 176.0
143.608902 168.0
143.642303 172.0
143.742508 140.0
143.824997 204.0
143.964523 172.0
144.017059 188.0
144.061569 172.0
144.08078 652.0
144.170364 124.0
144.216064 128.0
144.300751 236.0
144.380356 152.0
144.418381 156.0
144.511932 140.0
144.751129 172.0
144.809494 200.0
144.92366 148.0
145.065567 8216.0
145.293076 116.0
145.374573 220.0
145.514282 120.0
145.799164 172.0
145.952469 168.0
146.035263 172.0
146.068192 808.0
146.122757 152.0
146.19165 164.0
146.280487 168.0
146.340897 144.0
146.487808 168.0
146.50856 144.0
146.543472 156.0
146.615509 168.0
146.634796 180.0
146.731155 168.0
146.774979 200.0
146.829208 200.0
146.998962 188.0
147.024277 292.0
147.080444 9156.0
147.192841 204.0
147.234985 208.0
147.283844 152.0
147.33699 184.0
147.437134 172.0
147.534271 128.0
147.584885 236.0
147.658493 148.0
147.70549 196.0
147.890472 128.0
147.95311 176.0
147.985184 332.0
148.082336 1080.0
148.185471 196.0
148.268356 156.0
148.387741 220.0
148.565689 192.0
148.646927 144.0
148.685532 168.0
148.801956 152.0
148.871857 104.0
149.016815 136.0
149.05986 184.0
149.094223 1244.0
149.177307 164.0
149.221664 172.0
149.251785 172.0
149.512085 200.0
149.556335 168.0
149.665436 156.0
149.750671 160.0
149.882233 184.0
149.939804 160.0
149.979858 140.0
150.029602 232.0
150.084473 136.0
150.099319 276.0
150.145508 156.0
150.204056 152.0
150.233322 188.0
150.266861 156.0
150.440765 148.0
150.46933 160.0
150.550644 144.0
150.697205 172.0
150.719193 220.0
150.769119 140.0
150.824951 176.0
150.866241 100.0
150.956528 180.0
151.010117 256.0
151.033417 112.0
151.071579 128.0
151.274384 140.0
151.296417 168.0
151.323669 124.0
151.352127 128.0
151.460022 124.0
151.517624 112.0
151.563385 140.0
151.869843 328.0
151.894302 148.0
151.943024 156.0
152.072433 152.0
152.125046 156.0
152.162933 232.0
152.267075 128.0
152.457184 196.0
152.643219 120.0
152.819458 176.0
152.857483 244.0
152.951553 144.0
152.990402 200.0
153.0224 108.0
153.115189 112.0
153.342651 184.0
153.406738 168.0
153.46373 232.0
153.518173 124.0
153.583862 144.0
153.609222 184.0
153.667084 212.0
153.771805 164.0
153.803894 204.0
153.864136 184.0
154.008835 200.0
154.040955 196.0
154.075531 140.0
154.206497 160.0
154.290558 224.0
154.332993 168.0
154.431641 148.0
154.594788 160.0
154.643051 120.0
154.792831 180.0
154.968704 216.0
155.066727 160.0
155.091293 152.0
155.247391 136.0
155.345551 140.0
155.370361 176.0
155.54129 164.0
155.585876 148.0
155.650284 220.0
155.689651 216.0
155.716751 164.0
155.921616 184.0
156.023529 220.0
156.232437 164.0
156.551117 132.0
156.575943 276.0
156.639481 140.0
156.680573 208.0
156.732895 144.0
156.894196 156.0
156.944473 140.0
157.022079 156.0
157.207047 112.0
157.319016 188.0
157.467667 188.0
157.573746 184.0
157.705414 180.0
157.74054 168.0
157.7668 196.0
157.951874 144.0
158.251572 140.0
158.339142 204.0
158.389313 176.0
158.579742 160.0
158.700073 176.0
158.770279 164.0
158.969757 172.0
159.019806 136.0
159.105743 168.0
159.21051 108.0
159.228622 152.0
159.435577 152.0
159.458206 256.0
159.498795 188.0
159.540024 124.0
159.593948 144.0
159.679276 124.0
159.900864 312.0
159.958755 144.0
160.038681 200.0
160.072052 288.0
160.158875 120.0
160.21814 228.0
160.307938 176.0
160.376816 220.0
160.469559 124.0
160.72998 180.0
160.767838 164.0
160.919922 104.0
161.097366 452.0
161.315933 264.0
161.347275 152.0
161.407562 116.0
161.509323 168.0
161.6492 100.0
161.700409 140.0
161.745483 144.0
161.779526 316.0
161.842178 184.0
161.892822 156.0
161.968506 196.0
161.992294 164.0
162.090851 7704.0
162.163071 180.0
162.367447 116.0
162.565399 160.0
162.774765 216.0
162.838821 152.0
162.876923 168.0
162.908981 148.0
163.075211 3768.0
163.21199 192.0
163.237823 152.0
163.347198 176.0
163.510117 144.0
163.55896 272.0
163.600967 116.0
163.750259 136.0
163.83342 164.0
163.914963 216.0
164.019455 184.0
164.078491 320.0
164.098724 448.0
164.157135 164.0
164.212738 340.0
164.285004 164.0
164.336823 172.0
164.394379 140.0
164.453125 140.0
164.504517 160.0
164.532211 276.0
164.578171 268.0
164.703308 168.0
164.726105 100.0
164.783417 136.0
164.943588 132.0
164.98848 136.0
165.04834 140.0
165.125061 140.0
165.288788 148.0
165.587036 124.0
165.673828 156.0
165.754837 148.0
165.790146 200.0
165.921066 220.0
165.996506 116.0
166.071854 152.0
166.093262 168.0
166.235504 200.0
166.353226 144.0
166.472351 160.0
166.53476 164.0
166.584137 124.0
166.6064 148.0
166.988129 196.0
167.01181 140.0
167.09259 204.0
167.139359 152.0
167.177536 160.0
167.210968 152.0
167.36174 128.0
167.406631 212.0
167.448441 152.0
167.473785 156.0
167.539001 144.0
167.593994 200.0
167.656403 172.0
167.767014 152.0
167.85759 172.0
167.920441 152.0
167.942429 112.0
168.011322 160.0
168.089767 184.0
168.151108 176.0
168.251221 152.0
168.351654 152.0
168.537491 124.0
168.562317 152.0
168.598511 172.0
168.69931 424.0
168.742065 320.0
168.775131 148.0
168.858582 136.0
168.885498 144.0
168.946228 208.0
168.994186 160.0
169.188263 148.0
169.207962 164.0
169.245224 160.0
169.286652 168.0
169.315857 144.0
169.363144 112.0
169.627792 216.0
169.666275 168.0
169.768677 144.0
169.802383 224.0
169.893997 152.0
169.955444 144.0
170.004745 160.0
170.142319 192.0
170.381653 132.0
170.431778 188.0
170.492386 156.0
170.557159 168.0
170.656494 156.0
170.968048 120.0
171.010559 160.0
171.140335 136.0
171.213638 152.0
171.283096 108.0
171.429871 152.0
171.503525 344.0
171.568497 172.0
171.601913 188.0
171.638412 192.0
172.10437 204.0
172.199509 224.0
172.33255 164.0
172.439224 240.0
172.52092 144.0
172.572891 100.0
172.733398 144.0
172.803375 140.0
172.829544 184.0
172.881882 160.0
172.906296 216.0
173.097794 308.0
173.167252 140.0
173.201294 196.0
173.235352 156.0
173.308716 152.0
173.687546 116.0
173.724747 100.0
173.880402 160.0
173.951263 140.0
174.111435 220.0
174.303207 156.0
174.358398 208.0
174.417892 164.0
174.471161 116.0
174.55159 172.0
174.687073 160.0
174.747589 264.0
174.85614 184.0
174.879166 148.0
175.105927 224.0
175.166183 148.0
175.189896 176.0
175.237 132.0
175.265442 172.0
175.463196 188.0
175.566818 140.0
175.714432 100.0
175.833633 148.0
175.953247 152.0
176.027283 164.0
176.082809 124.0
176.115677 152.0
176.197693 172.0
176.293777 164.0
176.377396 240.0
176.5466 188.0
176.575699 152.0
176.682785 224.0
176.725464 144.0
176.894501 176.0
177.00972 148.0
177.044144 148.0
177.435425 336.0
177.571121 168.0
177.643173 172.0
177.711609 156.0
178.006989 112.0
178.036011 160.0
178.088638 132.0
178.152649 180.0
178.445831 232.0
178.477417 184.0
178.580856 140.0
178.685699 164.0
178.751114 180.0
178.802475 148.0
178.910828 176.0
178.982712 144.0
179.021194 168.0
179.080292 236.0
179.104034 344.0
179.220215 120.0
179.30162 140.0
179.567825 136.0
179.616257 212.0
179.739746 180.0
179.863968 212.0
179.939926 168.0
180.03569 168.0
180.100922 1248.0
180.165909 232.0
180.322784 144.0
180.349442 124.0
180.39267 184.0
180.449356 144.0
180.542404 164.0
180.915619 152.0
181.022202 112.0
181.09874 368.0
181.207687 172.0
181.472046 204.0
181.501602 256.0
181.575302 240.0
181.894241 304.0
181.936691 160.0
182.024323 240.0
182.069199 176.0
182.109055 148.0
182.334747 180.0
182.544434 148.0
182.641205 168.0
182.765015 148.0
182.86998 256.0
182.956223 284.0
183.029434 156.0
183.050354 140.0
183.17424 160.0
183.311661 180.0
183.338608 192.0
183.467987 140.0
183.5327 140.0
183.562363 144.0
183.645966 172.0
183.686432 164.0
183.713409 156.0
183.856415 140.0
183.970673 268.0
183.999481 236.0
184.283066 160.0
184.350632 140.0
184.412781 148.0
184.44252 172.0
184.507401 200.0
184.662933 140.0
184.718338 172.0
184.796799 192.0
184.821152 180.0
184.964584 140.0
185.026794 192.0
185.084167 120.0
185.18663 160.0
185.221298 120.0
185.389282 100.0
185.416718 156.0
185.481979 196.0
185.598557 184.0
185.672668 160.0
185.698898 160.0
185.753143 148.0
185.897354 160.0
185.986511 176.0
186.030991 244.0
186.241745 180.0
186.290131 120.0
186.429016 156.0
186.548813 248.0
186.585312 208.0
186.63475 144.0
186.725555 156.0
186.805084 128.0
186.826859 184.0
187.109528 152.0
187.132324 188.0
187.220886 164.0
187.280807 140.0
187.324387 144.0
187.355286 188.0
187.441544 192.0
187.467178 128.0
187.583267 148.0
187.613266 168.0
187.658463 156.0
187.746872 148.0
187.867615 176.0
187.958664 176.0
188.017563 156.0
188.113602 108.0
188.319321 140.0
188.743622 224.0
188.790115 192.0
189.093903 104.0
189.122589 184.0
189.149994 180.0
189.319489 184.0
189.466202 188.0
189.610855 168.0
189.734787 216.0
189.800598 180.0
189.885605 176.0
190.120178 124.0
190.298538 208.0
190.398834 160.0
190.464752 176.0
190.549927 140.0
190.788544 136.0
190.92926 196.0
191.045914 108.0
191.149353 148.0
191.252396 160.0
191.50174 152.0
191.581619 156.0
191.632034 204.0
191.653259 144.0
191.676498 120.0
191.909607 312.0
191.955826 156.0
192.066681 380.0
192.131989 124.0
192.270981 156.0
192.309158 144.0
192.372971 136.0
192.494598 256.0
192.546646 292.0
192.707291 144.0
192.754868 180.0
192.867569 160.0
192.9216 168.0
192.944977 208.0
193.128601 100.0
193.16069 200.0
193.207336 120.0
193.274109 164.0
193.39035 212.0
193.696533 180.0
193.778046 216.0
193.907761 152.0
194.182785 140.0
194.216064 148.0
194.279861 260.0
194.382294 156.0
194.410278 152.0
194.449127 160.0
194.527847 236.0
194.581146 144.0
194.723999 144.0
194.746216 152.0
194.787888 144.0
194.846222 172.0
194.865677 244.0
194.982452 164.0
195.031586 148.0
195.085236 164.0
195.13028 180.0
195.193665 184.0
195.221481 288.0
195.307983 156.0
195.455154 200.0
195.579712 180.0
195.606644 240.0
195.627716 200.0
195.755783 144.0
195.888016 160.0
195.922913 184.0
195.961548 148.0
196.00882 124.0
196.12677 156.0
196.19046 148.0
196.277725 196.0
196.354401 96.0
196.434967 136.0
196.629471 164.0
196.918762 172.0
197.026169 116.0
197.113968 188.0
197.202072 232.0
197.253418 136.0
197.402252 148.0
197.497345 196.0
197.533279 180.0
197.572876 152.0
197.788849 160.0
197.824982 140.0
197.984344 196.0
198.039917 124.0
198.093582 148.0
198.124802 140.0
198.347839 180.0
198.387833 160.0
198.469437 116.0
198.605789 188.0
198.735901 132.0
198.766159 104.0
198.797928 116.0
198.904007 188.0
198.972046 152.0
199.094925 144.0
199.147308 160.0
199.19043 144.0
199.427261 156.0
199.75827 140.0
199.897415 308.0
200.120087 172.0
200.169189 164.0
200.190643 168.0
200.481888 164.0
200.580536 152.0
200.63974 168.0
200.659729 160.0
200.74173 176.0
200.856888 152.0
200.907669 196.0
200.931519 148.0
201.10939 184.0
201.17012 228.0
201.224487 188.0
201.26329 172.0
201.373428 152.0
201.441574 132.0
201.805801 156.0
201.881317 148.0
201.954849 176.0
201.992462 184.0
202.105621 188.0
202.296799 264.0
202.518784 136.0
202.670929 192.0
202.746887 204.0
202.899414 188.0
202.95314 176.0
203.068832 164.0
203.122726 308.0
203.213501 156.0
203.303238 116.0
203.352554 344.0
203.407516 140.0
203.455917 120.0
203.73822 192.0
203.787048 168.0
203.82399 244.0
203.931473 176.0
204.099716 196.0
204.138596 5088.0
204.19072 148.0
204.318726 276.0
204.413986 108.0
204.512665 132.0
204.595383 164.0
204.691589 168.0
204.728271 100.0
205.090454 152.0
205.141479 956.0
205.218735 152.0
205.427551 132.0
205.446457 176.0
205.643799 156.0
205.731918 296.0
205.904343 336.0
206.063446 200.0
206.137878 168.0
206.181702 228.0
206.266495 144.0
206.336594 124.0
206.439926 104.0
206.552048 112.0
206.635422 172.0
206.677338 128.0
206.825638 128.0
207.096054 164.0
207.167923 188.0
207.300049 144.0
207.339859 144.0
207.491776 140.0
207.531921 168.0
207.666702 152.0
207.895325 164.0
207.936401 172.0
208.108551 128.0
208.151718 224.0
208.191925 168.0
208.333145 144.0
208.364273 180.0
208.539566 164.0
208.627258 164.0
208.649414 148.0
208.801987 152.0
208.844345 156.0
208.867355 188.0
208.99736 152.0
209.138657 168.0
209.214371 308.0
209.255875 140.0
209.31572 240.0
209.411377 152.0
209.441681 200.0
209.696625 228.0
209.750717 172.0
209.817688 148.0
209.9561 180.0
210.013077 228.0
210.154907 332.0
210.21524 140.0
210.256149 140.0
210.320053 112.0
210.407928 156.0
210.437912 124.0
210.531631 200.0
210.565063 140.0
210.711197 116.0
210.906006 160.0
211.036102 144.0
211.066116 316.0
211.157562 168.0
211.235352 152.0
211.419968 160.0
211.457565 128.0
211.565567 164.0
211.631439 136.0
211.724823 148.0
211.758408 108.0
211.828308 120.0
212.132523 164.0
212.176865 156.0
212.235596 128.0
212.408478 148.0
212.469788 148.0
212.523346 140.0
212.550339 204.0
212.606949 148.0
212.818069 168.0
212.941437 192.0
212.980331 248.0
213.00975 148.0
213.038803 156.0
213.132172 156.0
213.236404 148.0
213.276917 128.0
213.393158 164.0
213.400497 152.0
213.41333 232.0
213.492249 208.0
213.650269 184.0
213.806564 112.0
213.847153 188.0
213.927048 104.0
214.019897 148.0
214.068451 192.0
214.183472 128.0
214.348114 200.0
214.420151 200.0
214.550278 188.0
214.832108 188.0
214.88092 164.0
214.997101 120.0
215.07312 180.0
215.132706 140.0
215.156052 224.0
215.321625 104.0
215.366318 152.0
215.391602 176.0
215.499496 176.0
215.542572 96.0
215.594208 312.0
215.642822 108.0
215.821136 196.0
215.869003 176.0
215.945038 148.0
216.047424 200.0
216.085464 172.0
216.181595 136.0
216.230515 140.0
216.290314 148.0
216.313736 152.0
216.556717 220.0
216.753052 140.0
216.807587 112.0
216.987549 184.0
217.013184 188.0
217.603683 152.0
217.654694 196.0
217.812195 152.0
217.951401 116.0
218.18541 204.0
218.223633 180.0
218.398788 164.0
218.59169 128.0
218.661957 144.0
218.756149 176.0
218.841522 184.0
218.909256 148.0
219.087814 180.0
219.154572 244.0
219.570541 172.0
219.657883 176.0
219.784744 184.0
219.826065 148.0
219.95105 228.0
220.265976 160.0
220.3022 192.0
220.369553 204.0
220.644257 168.0
220.73909 164.0
220.844589 156.0
220.880844 236.0
220.983215 204.0
221.258331 100.0
221.324768 152.0
221.787537 100.0
221.865875 472.0
221.894867 140.0
221.932205 184.0
221.964828 196.0
221.989563 132.0
222.049072 128.0
222.103592 264.0
222.149323 19252.0
222.234406 320.0
222.342697 276.0
222.386108 124.0
222.463211 100.0
222.513535 116.0
222.577972 184.0
222.777771 436.0
222.83313 188.0
222.870209 212.0
222.929611 168.0
222.979614 184.0
223.10498 140.0
223.151138 2356.0
223.265549 216.0
223.312088 260.0
223.344116 220.0
223.420227 188.0
223.520981 148.0
223.54924 164.0
223.662857 172.0
223.699966 152.0
223.826721 188.0
223.866699 196.0
223.977005 132.0
224.036484 144.0
224.152557 388.0
224.291397 192.0
224.325546 148.0
224.35408 268.0
224.377594 116.0
224.611023 148.0
224.656921 172.0
224.689392 164.0
224.754333 120.0
224.7742 104.0
224.82872 272.0
224.870422 236.0
225.031448 132.0
225.132141 232.0
225.194473 140.0
225.223755 188.0
225.453506 116.0
225.755096 168.0
225.928574 172.0
225.983093 140.0
226.036957 140.0
226.108246 136.0
226.504013 140.0
226.524979 200.0
226.707672 152.0
226.830643 156.0
226.88562 200.0
226.994232 164.0
227.032593 284.0
227.190506 152.0
227.385559 140.0
227.436584 148.0
227.493607 220.0
227.664764 160.0
227.787216 140.0
227.959167 328.0
228.0448 156.0
228.188782 124.0
228.214676 144.0
228.43663 120.0
228.460373 156.0
228.468964 108.0
228.479874 160.0
228.533508 160.0
228.61174 176.0
228.795349 260.0
228.86412 172.0
229.048904 252.0
229.087479 160.0
229.162796 160.0
229.536575 212.0
229.557678 172.0
229.644608 204.0
229.703537 268.0
229.759766 172.0
230.123734 144.0
230.363556 156.0
230.627563 164.0
230.66272 152.0
230.702026 204.0
230.819946 156.0
230.850189 172.0
231.108658 116.0
231.173874 180.0
231.226776 176.0
231.291916 184.0
231.349426 144.0
231.382736 224.0
231.423309 128.0
231.494766 152.0
231.625 212.0
231.662094 148.0
231.744461 288.0
231.818909 156.0
231.940948 136.0
232.194839 144.0
232.246399 152.0
232.435715 280.0
232.524063 148.0
232.583221 144.0
232.633331 140.0
232.675934 200.0
232.754639 112.0
232.794067 296.0
233.013596 100.0
233.058197 216.0
233.202866 140.0
233.289291 156.0
233.317703 324.0
233.432617 160.0
233.646835 184.0
233.697235 156.0
233.753326 144.0
233.937943 144.0
233.9879 124.0
234.037704 152.0
234.064041 164.0
234.115799 180.0
234.142319 160.0
234.255707 184.0
234.277023 184.0
234.390594 256.0
234.558151 272.0
234.725815 148.0
234.858002 192.0
234.923981 148.0
234.980621 164.0
235.109451 176.0
235.136917 312.0
235.201019 140.0
235.312347 180.0
235.35672 148.0
235.583817 160.0
235.654114 296.0
235.717178 160.0
235.81192 288.0
235.912216 192.0
235.964752 172.0
236.038834 160.0
236.317749 156.0
236.405228 216.0
236.435837 144.0
236.48175 168.0
236.770126 192.0
237.083481 112.0
237.228912 148.0
237.240799 136.0
237.293152 316.0
237.367142 160.0
237.407013 168.0
237.487717 152.0
237.540344 124.0
237.685776 160.0
237.740875 300.0
237.866043 180.0
237.888733 156.0
238.061539 128.0
238.103836 144.0
238.232681 144.0
238.271729 152.0
238.503098 144.0
238.650665 176.0
238.696793 172.0
238.780106 132.0
238.849609 192.0
238.958252 136.0
239.124725 120.0
239.187195 252.0
239.325531 184.0
239.390579 132.0
239.512375 140.0
239.586777 132.0
239.735275 292.0
240.114899 208.0
240.192337 144.0
240.341705 204.0
240.403427 140.0
240.561768 172.0
240.604065 168.0
240.765961 164.0
240.805069 128.0
240.858673 196.0
240.89238 156.0
240.997803 132.0
241.091476 196.0
241.351776 140.0
241.373413 172.0
241.404343 144.0
241.43837 144.0
241.472687 204.0
241.518784 152.0
241.580017 136.0
241.842743 200.0
241.921524 108.0
241.958206 240.0
241.995361 144.0
242.068024 284.0
242.116135 172.0
242.218353 196.0
242.262955 100.0
242.298889 156.0
242.416641 200.0
242.537521 172.0
242.562317 236.0
242.639816 144.0
242.7202 156.0
242.794189 184.0
242.841446 200.0
243.030869 148.0
243.151642 212.0
243.192001 232.0
243.41243 204.0
243.651596 232.0
243.709076 104.0
243.755402 136.0
243.857803 144.0
244.02951 168.0
244.098267 136.0
244.132843 116.0
244.187637 116.0
244.242249 192.0
244.295135 192.0
244.326599 136.0
244.36203 168.0
244.4077 236.0
244.46315 144.0
244.56897 180.0
244.600098 268.0
244.671692 188.0
244.733963 144.0
244.758881 148.0
244.805588 404.0
244.863663 296.0
245.032974 336.0
245.195007 176.0
245.253479 124.0
245.304108 236.0
245.461502 160.0
245.633514 152.0
245.838989 212.0
245.893646 160.0
246.005646 172.0
246.071579 144.0
246.109039 248.0
246.265411 112.0
246.329102 208.0
246.39592 132.0
246.430756 184.0
246.515137 176.0
246.56012 164.0
246.631607 120.0
246.658905 160.0
246.844482 136.0
246.868393 152.0
246.912994 148.0
246.941605 156.0
246.994202 176.0
247.380783 192.0
247.54747 156.0
247.595078 256.0
247.628891 168.0
247.760468 156.0
247.918533 152.0
248.047318 120.0
248.080505 132.0
248.107132 176.0
248.261978 152.0
248.409393 172.0
248.540344 196.0
248.572556 252.0
248.641602 152.0
248.70842 180.0
248.794373 196.0
248.892731 172.0
248.949265 152.0
249.034058 176.0
249.120285 156.0
249.300919 188.0
249.376541 172.0
249.40123 164.0
249.558777 160.0
249.596375 160.0
249.733429 144.0
250.088287 196.0
250.279434 148.0
250.463547 148.0
250.566055 144.0
250.602814 112.0
250.69574 96.0
250.789963 160.0
250.862305 192.0
251.044037 188.0
251.098389 156.0
251.192657 148.0
251.531067 180.0
251.568954 164.0
251.631531 136.0
251.701553 168.0
251.824722 172.0
251.898254 144.0
251.95108 156.0
252.055344 140.0
252.203888 256.0
252.279755 236.0
252.355637 200.0
252.479797 120.0
252.583328 168.0
252.618576 172.0
252.71553 148.0
252.975372 140.0
253.105331 120.0
253.164124 208.0
253.211777 184.0
253.262268 156.0
253.317749 160.0
253.371597 164.0
253.628296 204.0
253.877136 140.0
253.932678 148.0
253.994141 172.0
254.052673 164.0
254.087311 140.0
254.213989 144.0
254.470917 216.0
254.535751 156.0
254.88826 160.0
254.937271 180.0
255.000854 168.0
255.086945 164.0
255.190231 140.0
255.311966 156.0
255.394821 192.0
255.425674 116.0
255.506378 160.0
255.564514 148.0
255.723099 244.0
255.734634 124.0
255.77507 120.0
255.845642 160.0
255.883835 140.0
255.91568 152.0
256.114136 188.0
256.1362 160.0
256.285156 180.0
256.320221 292.0
256.392273 156.0
256.417694 140.0
256.479553 184.0
256.590851 180.0
256.831757 160.0
257.234802 184.0
257.395203 144.0
257.497406 164.0
257.571564 148.0
257.620789 140.0
257.791321 148.0
257.928772 144.0
258.06665 156.0
258.120605 160.0
258.213898 112.0
258.354095 132.0
258.39566 168.0
258.456451 152.0
258.584473 148.0
258.953583 184.0
258.979828 148.0
259.043518 188.0
259.202576 192.0
259.303741 132.0
259.42691 156.0
259.744385 192.0
259.779694 180.0
259.866302 188.0
259.972198 180.0
260.024628 252.0
260.126251 140.0
260.239136 128.0
260.318909 164.0
260.3591 132.0
260.383148 168.0
260.461182 320.0
260.929047 104.0
261.115936 176.0
261.273193 176.0
261.372864 148.0
261.450531 144.0
261.485931 172.0
261.588409 168.0
261.73053 180.0
261.891632 236.0
262.044739 128.0
262.078461 148.0
262.142914 168.0
262.355652 144.0
262.407227 152.0
262.657166 264.0
262.731781 260.0
262.789856 128.0
262.818756 144.0
262.867615 144.0
263.077545 140.0
263.184998 240.0
263.244324 152.0
263.463501 156.0
263.599091 152.0
263.742401 116.0
263.827789 160.0
263.871582 96.0
264.060608 176.0
264.089722 160.0
264.140381 252.0
264.213226 112.0
264.346619 148.0
264.412567 164.0
264.478027 140.0
264.623688 188.0
264.669037 156.0
264.886017 148.0
264.927826 164.0
265.064972 156.0
265.093384 204.0
265.229492 156.0
265.36731 156.0
265.498627 148.0
265.532166 176.0
265.733734 116.0
265.829529 152.0
266.059967 152.0
266.199585 168.0
266.370819 128.0
266.543915 172.0
266.719147 244.0
266.773682 96.0
266.859222 204.0
266.937256 192.0
267.023346 172.0
267.047852 152.0
267.110657 208.0
267.21701 240.0
267.30777 160.0
267.506348 176.0
267.614594 208.0
267.76062 156.0
267.943054 176.0
268.116516 152.0
268.559174 204.0
268.643982 152.0
268.80896 204.0
268.940918 200.0
269.067749 152.0
269.177734 112.0
269.298767 188.0
269.423828 160.0
269.54187 320.0
269.64444 156.0
269.675049 216.0
269.791046 116.0
269.983185 140.0
270.082581 1212.0
270.190643 152.0
270.2742 100.0
270.331421 160.0
270.446747 204.0
270.480804 220.0
270.607697 156.0
270.690063 152.0
270.72934 168.0
270.914215 180.0
271.088379 160.0
271.159241 148.0
271.196838 276.0
271.228424 136.0
271.351166 116.0
271.44046 148.0
271.496216 160.0
271.630707 176.0
271.709442 144.0
271.77832 144.0
271.808563 152.0
271.883331 148.0
272.073029 284.0
272.113861 144.0
272.165649 176.0
272.254608 196.0
272.3125 188.0
272.454224 248.0
272.504333 212.0
272.592682 140.0
272.632721 196.0
272.868439 188.0
272.898407 216.0
273.052948 160.0
273.183289 128.0
273.279358 148.0
273.325989 148.0
273.375366 148.0
273.475555 172.0
273.559998 164.0
273.62146 120.0
273.666656 156.0
273.699158 216.0
274.01416 164.0
274.281891 104.0
274.628815 160.0
274.769196 180.0
274.831879 236.0
274.85498 176.0
274.891266 168.0
274.917664 144.0
275.207153 204.0
275.251099 164.0
275.393097 336.0
275.475616 216.0
275.634277 420.0
275.794647 176.0
275.934113 184.0
276.039185 132.0
276.098907 172.0
276.179779 156.0
276.281647 200.0
276.33313 180.0
276.394806 192.0
276.557434 120.0
276.637146 136.0
276.851196 144.0
276.992767 152.0
277.102692 132.0
277.21936 168.0
277.375153 160.0
277.452209 260.0
277.640411 156.0
277.706726 168.0
277.822845 196.0
277.885864 156.0
277.937134 124.0
277.992615 168.0
278.092102 164.0
278.142273 204.0
278.262024 288.0
278.528076 156.0
278.593048 140.0
278.624939 104.0
278.712646 184.0
278.755859 152.0
278.85968 164.0
278.921875 160.0
278.972412 128.0
279.156433 184.0
279.277832 160.0
279.326538 192.0
279.408997 156.0
279.653809 212.0
279.781616 132.0
279.816925 156.0
279.843903 120.0
279.953461 128.0
280.013397 160.0
280.06369 168.0
280.206604 144.0
280.279907 144.0
280.321381 196.0
280.543457 112.0
280.663055 148.0
280.799957 200.0
281.036835 160.0
281.187012 152.0
281.322906 156.0
281.403992 180.0
281.473328 176.0
281.779541 180.0
281.928436 140.0
282.125641 140.0
282.189392 164.0
282.394226 100.0
282.448761 128.0
282.517273 112.0
282.550385 148.0
282.939301 184.0
283.213196 184.0
283.30365 224.0
283.414215 144.0
283.466675 152.0
283.524231 140.0
283.580536 184.0
283.715973 164.0
283.77243 124.0
283.985504 196.0
284.104645 128.0
284.132355 196.0
284.185303 296.0
284.272644 152.0
284.383972 140.0
284.414642 184.0
284.607483 220.0
284.729218 160.0
284.820496 160.0
284.947479 144.0
285.008301 112.0
285.0383 156.0
285.071899 156.0
285.09845 180.0
285.27066 140.0
285.311523 124.0
285.357635 160.0
285.445038 156.0
285.508942 148.0
285.737335 152.0
285.99472 168.0
286.367432 108.0
286.400879 144.0
286.429382 172.0
286.638428 168.0
286.673767 156.0
286.700745 152.0
286.893951 100.0
286.977142 140.0
287.052429 240.0
287.145752 196.0
287.267639 176.0
287.361664 144.0
287.566071 208.0
287.591125 204.0
287.673553 116.0
287.745972 180.0
287.862122 168.0
287.888245 184.0
288.049194 188.0
288.208405 124.0
288.719604 160.0
288.82959 156.0
288.91507 164.0
289.029968 140.0
289.134399 160.0
289.213593 140.0
289.347168 200.0
289.416718 152.0
289.479309 132.0
289.518311 140.0
289.606415 144.0
289.802856 156.0
289.998077 152.0
290.083282 228.0
290.204437 208.0
290.321503 160.0
290.402893 184.0
290.539581 176.0
290.847412 152.0
290.991333 180.0
291.140808 164.0
291.184601 208.0
291.513092 140.0
291.723816 172.0
291.764618 184.0
291.86322 208.0
291.975433 144.0
292.015411 160.0
292.106049 184.0
292.182922 152.0
292.275177 180.0
292.586548 216.0
292.676453 140.0
292.76886 156.0
293.13681 168.0
293.184052 164.0
293.270966 152.0
293.334015 208.0
293.383087 204.0
293.568665 112.0
293.636841 152.0
294.089569 152.0
294.263245 216.0
294.390869 160.0
294.904205 140.0
295.020294 100.0
295.305817 168.0
295.341858 200.0
295.432068 120.0
295.489441 176.0
295.83313 128.0
295.957062 100.0
296.042297 176.0
296.097015 172.0
296.142822 140.0
296.498444 176.0
296.600464 172.0
296.896851 144.0
296.963074 140.0
297.068329 160.0
297.182434 224.0
297.37973 240.0
297.687439 176.0
297.746735 100.0
297.863129 152.0
297.89035 188.0
297.93689 152.0
297.988434 144.0
298.096527 176.0
298.153381 220.0
298.199646 180.0
298.371399 160.0
298.49234 220.0
298.534973 216.0
298.570648 136.0
298.617523 148.0
298.735046 188.0
298.804443 96.0
298.975342 184.0
299.095032 216.0
299.119904 164.0
299.160553 192.0
299.253906 220.0
299.512451 144.0
299.567566 148.0
299.650238 220.0
299.747162 164.0
299.805328 164.0
299.860474 148.0
300.205231 144.0
300.448029 164.0
300.688202 148.0
300.894379 116.0
300.909607 176.0
301.078339 140.0
301.118073 104.0
301.185425 204.0
301.292511 188.0
301.522034 188.0
301.622314 148.0
301.930389 284.0
302.217163 284.0
302.274475 148.0
302.322937 180.0
302.407532 280.0
302.526672 148.0
302.66217 164.0
302.751465 168.0
302.963867 224.0
303.141052 168.0
303.174561 140.0
303.353119 132.0
303.385803 356.0
303.506714 220.0
303.619202 156.0
303.634888 128.0
303.715759 212.0
303.783875 100.0
303.814056 140.0
303.918518 160.0
303.972473 176.0
304.187683 164.0
304.215454 144.0
304.270996 220.0
304.352631 180.0
304.67038 176.0
304.955322 256.0
305.034302 144.0
305.070038 272.0
305.43866 144.0
305.51236 152.0
305.589447 140.0
305.626526 152.0
305.758759 188.0
305.810974 140.0
305.851013 160.0
305.89798 192.0
305.998962 152.0
306.11734 612.0
306.260132 156.0
306.379761 224.0
306.754944 148.0
306.835144 144.0
306.894409 232.0
307.022736 220.0
307.11261 156.0
307.253662 156.0
307.306091 172.0
307.351349 148.0
307.388367 192.0
307.511871 140.0
307.571228 160.0
307.609955 216.0
307.648651 196.0
307.818298 204.0
308.147461 164.0
308.221893 2448.0
308.354095 184.0
308.517914 152.0
308.768036 164.0
308.915161 108.0
309.223846 284.0
309.350616 160.0
309.442261 160.0
309.494934 144.0
309.635834 140.0
309.775421 304.0
309.895966 184.0
310.03772 188.0
310.098602 212.0
310.227051 136.0
310.531403 176.0
310.638977 144.0
310.68924 196.0
310.82959 180.0
310.885742 292.0
311.008179 136.0
311.043671 164.0
311.084625 144.0
311.110382 160.0
311.236084 140.0
311.264862 168.0
311.506104 152.0
311.605591 144.0
311.686798 144.0
311.960541 184.0
312.16449 144.0
312.435303 144.0
312.542877 148.0
312.597168 160.0
312.671082 148.0
312.783722 180.0
312.931702 256.0
313.030151 164.0
313.059113 156.0
313.32251 208.0
313.559967 144.0
313.586792 144.0
313.727112 140.0
313.861786 164.0
314.011108 176.0
314.075562 104.0
314.16864 148.0
314.472107 148.0
314.510925 116.0
314.621613 160.0
314.686127 160.0
314.82254 112.0
314.909943 144.0
315.033051 280.0
315.2453 112.0
315.366364 156.0
315.460327 152.0
315.510406 116.0
315.6026 148.0
315.758942 112.0
315.801788 136.0
315.947357 228.0
316.029175 132.0
316.1073 104.0
316.179199 184.0
316.279236 152.0
316.338501 156.0
316.558014 180.0
316.635925 200.0
316.692596 152.0
316.875336 144.0
316.937042 152.0
317.207245 200.0
317.330475 156.0
317.391632 204.0
317.698486 232.0
318.000671 100.0
318.352417 164.0
318.431396 120.0
318.624054 120.0
318.856903 156.0
318.93512 132.0
318.995544 164.0
319.206207 152.0
319.240875 144.0
319.318268 136.0
319.461395 140.0
319.573395 176.0
319.615662 168.0
319.694519 144.0
319.884399 168.0
320.008392 220.0
320.066467 156.0
320.131714 112.0
320.170563 220.0
320.223145 140.0
320.317291 252.0
320.530304 140.0
320.574951 204.0
320.66098 136.0
320.795105 236.0
320.855621 232.0
320.903809 352.0
320.94043 160.0
321.038422 176.0
321.103516 144.0
321.141327 252.0
321.206146 124.0
321.237335 232.0
321.538391 116.0
321.652985 148.0
321.835083 140.0
321.913513 128.0
321.937531 208.0
322.02652 248.0
322.068573 148.0
322.138794 108.0
322.237122 256.0
322.374481 188.0
322.443604 152.0
322.488312 112.0
322.55127 236.0
322.619354 184.0
322.704926 240.0
322.734344 256.0
322.776855 268.0
322.813232 232.0
322.86615 192.0
322.903503 292.0
323.032349 164.0
323.058624 252.0
323.176636 232.0
323.204865 140.0
323.309967 120.0
323.434174 124.0
323.493988 96.0
323.518005 164.0
323.555298 100.0
323.61673 156.0
323.706696 208.0
323.852417 216.0
323.934235 180.0
323.966553 172.0
324.042328 180.0
324.128052 616.0
324.166809 224.0
324.294617 180.0
324.40918 448.0
324.462341 136.0
324.495209 288.0
324.526855 204.0
324.615967 284.0
324.67923 260.0
324.814331 316.0
324.824036 220.0
324.859985 108.0
324.890625 324.0
324.942383 332.0
324.97052 212.0
325.003265 344.0
325.074188 224.0
325.153992 256.0
325.268372 248.0
325.316589 208.0
325.341095 300.0
325.383881 464.0
325.399628 308.0
325.414337 440.0
325.469177 496.0
325.506897 420.0
325.575409 448.0
325.623291 480.0
325.679352 300.0
325.715698 368.0
325.762634 384.0
325.792511 700.0
325.831055 284.0
325.867615 432.0
325.918854 408.0
325.964172 292.0
326.006317 592.0
326.046661 1020.0
326.072845 1212.0
326.187805 2512.0
326.234802 238600.0
326.354279 228.0
326.485504 336.0
326.570099 3164.0
326.628387 680.0
326.679993 1320.0
326.715485 360.0
326.780762 2552.0
326.834259 17648.0
326.887787 868.0
326.950531 360.0
327.011169 312.0
327.100525 472.0
327.139099 1956.0
327.236908 162980.0
327.349426 120.0
327.379303 124.0
327.413666 292.0
327.470062 492.0
327.497192 436.0
327.562683 252.0
327.591156 156.0
327.630646 144.0
327.695496 420.0
327.711975 352.0
327.751068 328.0
327.788391 184.0
327.836731 348.0
327.907074 192.0
327.954315 164.0
328.021301 264.0
328.102783 124.0
328.137054 424.0
328.23877 25820.0
328.327881 176.0
328.40802 104.0
328.454895 208.0
328.577026 160.0
328.664825 124.0
328.692932 232.0
328.797607 196.0
328.846832 176.0
328.923767 376.0
328.953308 196.0
329.039001 224.0
329.072723 192.0
329.132965 648.0
329.167542 208.0
329.213196 672.0
329.24057 960.0
329.380554 288.0
329.419586 312.0
329.463654 692.0
329.517212 564.0
329.547943 304.0
329.605774 368.0
329.747772 260.0
329.780701 156.0
329.836609 280.0
329.904297 180.0
330.113525 124.0
330.194946 140.0
330.278107 340.0
330.327026 100.0
330.37738 240.0
330.426514 176.0
330.472321 192.0
330.51593 144.0
330.562042 132.0
330.595337 168.0
330.659515 296.0
331.190338 148.0
331.237061 96.0
331.520325 140.0
331.902863 156.0
332.709534 100.0
333.424408 144.0
336.455078 108.0
336.705139 108.0
337.830353 128.0
338.114319 100.0
338.500519 96.0
338.716827 112.0
338.80899 108.0
339.66626 108.0
339.847626 96.0
339.893158 136.0
340.217285 140.0
340.314972 132.0
340.5271 164.0
341.184845 168.0
344.452881 116.0
345.084167 136.0
345.457703 112.0
347.929535 108.0
349.877686 100.0
350.426666 168.0
351.258057 144.0
357.864136 156.0
389.901337 160.0
393.733887 140.0
394.714813 156.0
425.060791 144.0
429.240204 140.0
434.76709 248.0
456.909058 176.0
459.418396 156.0
460.938416 148.0
461.716461 140.0
473.890503 148.0
478.830963 140.0
491.989349 140.0
514.780457 140.0
568.529114 120.0
584.128662 128.0
596.286194 124.0
600.997192 100.0
647.748474 144.0
649.393311 96.0
781.177551 140.0
824.056824 104.0
1086.023926 200.0
1087.296875 156.0
1098.28479 172.0
1138.876343 156.0
1141.726074 180.0
1141.907715 160.0
1149.75 152.0
1172.081665 140.0
1172.415527 184.0
1186.22937 164.0
1192.723145 188.0
1203.289062 96.0
1210.14978 148.0
1213.43396 236.0
1226.454834 228.0
1242.160278 152.0
1244.869507 152.0
1259.859375 148.0
1267.067627 140.0
1271.968018 156.0
1281.362427 144.0
1297.507812 192.0
1299.46582 156.0
1305.981567 216.0
1315.601685 176.0
1322.852539 144.0
1336.657349 176.0
1339.358398 152.0
1342.601807 264.0
1347.952881 148.0
1353.116943 160.0
1354.464478 140.0
1356.274292 156.0
1359.677612 216.0
1360.661255 392.0
1361.557129 160.0
1364.757202 128.0
1366.151123 184.0
1380.201538 148.0
1380.342041 244.0
1381.022461 172.0
1384.486328 172.0
1399.680176 260.0
1400.96875 240.0
1407.270874 168.0
1408.249146 152.0
1408.346313 172.0
1413.355225 140.0
1416.79187 176.0
1416.941772 164.0
1419.235229 200.0
1419.452759 168.0
1419.670166 252.0
1423.872925 148.0
1425.60437 180.0
1427.638184 148.0
1428.947021 148.0
1429.752197 144.0
1431.649414 156.0
1432.010864 160.0
1432.786865 172.0
1438.67688 168.0
1439.046875 216.0
1439.862427 184.0
1440.904785 204.0
1444.125122 232.0
1444.380493 212.0
1446.660156 160.0
1449.561035 200.0
1450.059448 224.0
1451.084595 164.0
1455.827148 200.0
1462.677612 216.0
1463.735962 188.0
1466.120361 172.0
1467.240845 144.0
1468.369507 244.0
1471.444702 220.0
1473.392212 164.0
1474.030762 204.0
1474.263306 148.0
1474.826782 168.0
1475.050659 164.0
1475.593384 140.0
1476.220459 172.0
1479.074219 172.0
1479.487671 176.0
1485.334717 180.0
1485.833374 244.0
1486.124878 164.0
1487.007446 152.0
1490.862915 164.0
1491.008911 144.0
1491.154907 196.0
1493.177002 180.0
1493.361328 192.0
1494.684814 200.0
1499.343994 180.0
1499.528931 160.0
1500.492432 144.0
1501.425537 172.0
1502.574951 140.0
1502.662109 160.0
1504.010254 172.0
1504.488892 152.0
1504.681885 172.0
1504.905762 168.0
1505.206909 144.0
1505.616211 168.0
1506.774902 156.0
1506.828979 144.0
1508.931274 184.0
1510.640381 144.0
1510.702271 200.0
1514.007446 176.0
1515.138306 200.0
1516.5177 188.0
1516.871216 164.0
1517.037109 196.0
1520.263794 168.0
1520.442261 220.0
1520.807007 156.0
1522.367554 168.0
1522.8302 188.0
1523.633667 176.0
1524.333008 156.0
1526.198608 160.0
1526.657349 152.0
1527.497437 224.0
1529.979858 156.0
1530.470459 168.0
1531.233643 212.0
1534.046509 168.0
1534.771606 176.0
1535.099121 192.0
1535.598267 180.0
1536.183228 160.0
1536.245728 156.0
1537.703125 176.0
1541.258179 224.0
1542.47583 180.0
1543.282593 180.0
1544.698242 148.0
1545.449219 196.0
1550.508057 176.0
1558.708984 168.0
1560.019043 244.0
1560.485352 188.0
1563.277832 144.0
1563.812988 188.0
1566.671387 172.0
1568.113403 212.0
1569.343262 156.0
1569.850098 160.0
1569.911011 232.0
1570.10022 200.0
1570.849609 176.0
1571.90686 148.0
1572.792114 148.0
1573.193359 152.0
1575.278198 208.0
1575.373047 216.0
1576.722046 140.0
1577.443481 176.0
1578.7323 152.0
1579.657715 180.0
1582.293091 216.0
1584.423462 148.0
1588.401245 180.0
1588.712524 156.0
1589.236206 148.0
1589.410767 164.0
1589.966309 144.0
1590.244019 168.0
1591.164917 140.0
1591.704834 148.0
1595.885742 208.0
1596.281982 176.0
1598.390015 164.0
1598.636719 140.0
1598.771973 208.0
1599.329102 144.0
1599.981934 176.0
1600.220825 168.0
1600.284424 148.0
1601.120605 192.0
1602.395142 152.0
1602.801514 212.0
1603.514648 140.0
1603.973022 172.0
1605.161011 148.0
1605.488037 200.0
1605.607666 160.0
1607.322754 184.0
1610.26062 260.0
1610.891724 160.0
1612.777466 168.0
1613.638306 200.0
1614.800415 164.0
1614.880371 204.0
1616.088379 148.0
1620.540161 212.0
1620.796631 168.0
1621.261475 140.0
1621.389648 164.0
1621.814453 176.0
1622.407593 180.0
1623.081177 152.0
1623.586304 164.0
1623.674561 140.0
1624.276123 176.0
1626.033325 172.0
1627.269653 160.0
1627.430176 228.0
1627.582764 176.0
1630.506958 148.0
1633.055664 188.0
1637.103882 188.0
1638.48938 152.0
1638.939331 156.0
1639.682007 244.0
1640.439697 184.0
1640.512207 176.0
1641.97168 160.0
1642.899292 172.0
1643.044556 152.0
1644.674683 212.0
1644.884521 240.0
1645.207397 148.0
1645.320435 180.0
1645.441528 148.0
1646.117188 164.0
1647.565674 152.0
1648.381714 200.0
1648.50293 208.0
1650.787354 212.0
1652.044434 268.0
1653.808472 160.0
1657.234131 156.0
1657.477173 164.0
1657.73645 204.0
1658.084961 220.0
1658.668579 168.0
1659.527954 140.0
1660.444214 164.0
1661.904419 164.0
1663.154297 148.0
1663.438354 188.0
1663.52771 200.0
1665.208496 280.0
1667.442871 188.0
1668.50769 184.0
1668.995605 148.0
1669.117554 168.0
1670.004028 180.0
1670.418823 212.0
1676.324707 120.0
1679.126221 220.0
1679.395386 208.0
1680.706421 276.0
1680.896484 164.0
1681.500488 156.0
1683.61499 144.0
1683.704834 148.0
1685.453003 160.0
1686.016846 196.0
1687.766235 176.0
1688.477783 176.0
1690.424805 172.0
1693.048462 124.0
1694.027466 176.0
1694.14209 224.0
1696.190796 140.0
1696.66626 180.0
1697.125488 172.0
1697.789673 180.0
1699.495972 144.0
1701.104492 172.0
1701.506836 220.0
1702.024048 212.0
1702.155518 168.0
1702.401855 144.0
1704.085815 212.0
1707.38208 188.0
1708.258545 176.0
1709.781616 176.0
1710.434692 216.0
1711.488525 176.0
1712.92981 152.0
1713.267578 168.0
1713.426758 192.0
1713.522949 164.0
1714.585938 180.0
1714.693115 196.0
1715.443237 160.0
1715.764648 160.0
1717.47168 172.0
1717.771851 168.0
1719.105347 204.0
1719.575806 196.0
1719.922363 188.0
1720.508545 192.0
1721.862793 156.0
1722.854004 208.0
1725.895508 176.0
1726.573608 144.0
1727.433838 156.0
1728.9646 160.0
1729.237549 136.0
1729.510864 176.0
1730.421509 152.0
1731.009399 216.0
1731.299316 192.0
1732.947754 164.0
1733.453125 180.0
1734.157593 140.0
1734.878784 184.0
1736.188843 228.0
1736.288452 224.0
1737.391602 204.0
1737.756714 192.0
1739.532715 184.0
1739.831543 204.0
1740.489502 156.0
1740.686768 192.0
1741.102051 188.0
1741.492432 156.0
1741.575439 172.0
1742.040649 224.0
1742.151611 248.0
1743.444824 204.0
1745.281982 168.0
1745.639526 160.0
1745.864136 156.0
1745.988892 228.0
1747.843994 184.0
1748.634644 152.0
1749.733398 164.0
1752.13208 148.0
1752.940308 160.0
1753.098633 248.0
1753.647461 136.0
1753.773682 212.0
1754.015381 176.0
1754.573975 176.0
1757.101074 160.0
1758.135742 164.0
1760.621094 244.0
1764.634644 144.0
1764.701538 156.0
1766.072998 152.0
1766.809204 160.0
1768.466064 156.0
1768.770874 264.0
1770.818848 172.0
1770.902588 204.0
1771.767944 160.0
1772.821167 256.0
1773.575562 168.0
1774.212646 152.0
1774.67688 156.0
1775.554321 196.0
1778.304932 136.0
1778.776245 152.0
1779.254761 144.0
1779.850952 164.0
1780.606689 368.0
1781.564331 184.0
1782.656616 164.0
1782.959229 184.0
1783.169312 160.0
1783.766113 152.0
1784.203247 156.0
1785.414062 196.0
1786.406616 152.0
1789.486938 172.0
1790.985962 156.0
1791.289185 176.0
1792.064209 160.0
1793.918457 188.0
1795.486816 204.0
1795.689209 160.0
1797.106445 148.0
1797.452393 204.0
1798.279419 212.0
1798.676147 204.0
1798.752075 164.0
1800.744873 208.0
1802.696411 200.0
1804.716797 144.0
1806.505127 124.0
1806.797363 140.0
1807.110474 252.0
1810.140747 188.0
1810.606567 164.0
1812.995605 144.0
1815.098022 176.0
1816.896118 192.0
1817.685303 208.0
1818.168945 180.0
1820.036621 140.0
1820.223389 176.0
1821.239136 200.0
1821.565308 212.0
1822.168579 172.0
1823.230713 152.0
1823.664185 212.0
1823.753296 140.0
1823.936157 180.0
1824.020386 204.0
1824.386719 220.0
1826.175537 260.0
1826.249023 144.0
1826.317017 144.0
1828.035645 144.0
1829.303833 168.0
1830.759888 236.0
1833.298584 152.0
1834.440674 176.0
1834.645264 144.0
1836.018066 244.0
1836.871094 212.0
1837.442627 140.0
1837.903442 144.0
1838.45813 176.0
1838.782349 140.0
1839.328613 236.0
1839.567627 248.0
1839.89209 168.0
1840.098633 168.0
1840.464111 148.0
1842.428589 196.0
1844.240234 156.0
1845.608032 160.0
1845.753418 148.0
1846.01001 180.0
1846.557373 212.0
1846.796875 156.0
1847.669434 228.0
1847.78064 140.0
1847.866211 192.0
1848.062988 152.0
1850.159912 188.0
1850.365356 172.0
1850.904785 192.0
1851.05896 152.0
1851.949585 156.0
1852.968994 204.0
1854.878052 184.0
1855.283081 144.0
1857.006592 200.0
1857.873047 152.0
1858.842529 180.0
1859.752319 204.0
1859.898193 180.0
1861.183105 96.0
1861.383545 164.0
1861.924561 144.0
1864.123779 156.0
1866.126709 176.0
1866.507446 200.0
1868.509155 140.0
1869.016724 208.0
1869.395386 188.0
1870.350708 180.0
1871.047974 196.0
1871.306274 148.0
1872.05542 164.0
1872.709961 144.0
1873.028687 156.0
1874.665771 188.0
1875.044922 156.0
1875.20874 152.0
1875.450073 152.0
1877.09668 176.0
1877.760742 184.0
1878.657837 144.0
1879.943481 144.0
1880.832275 140.0
1881.859863 216.0
1883.699341 180.0
1883.958496 204.0
1884.917603 160.0
1885.42749 140.0
1886.516602 184.0
1887.502197 204.0
1888.600586 176.0
1890.702637 192.0
1892.391113 188.0
1892.953979 180.0
1893.585693 160.0
1893.83728 216.0
1894.660278 144.0
1894.85083 192.0
1895.284058 152.0
1898.618164 140.0
1898.864502 204.0
1899.029297 188.0
1899.445557 176.0
1899.571167 160.0
1901.797119 160.0
1902.669678 224.0
1903.116699 200.0
1904.080566 196.0
1904.486572 152.0
1905.427002 140.0
1907.260742 160.0
1908.851685 192.0
1911.174316 212.0
1913.733276 244.0
1914.43042 156.0
1915.27478 160.0
1915.36377 128.0
1916.294067 168.0
1918.020752 184.0
1918.159058 160.0
1919.397095 284.0
1920.304077 184.0
1920.722778 160.0
1923.742065 156.0
1923.881714 144.0
1923.960327 152.0
1924.388184 200.0
1924.737427 212.0
1925.64563 152.0
1926.361694 148.0
1926.466797 224.0
1926.627563 256.0
1927.497803 164.0
1928.083252 152.0
1928.887451 176.0
1929.307007 148.0
1930.11145 168.0
1930.907227 144.0
1931.924438 144.0
1932.578125 196.0
1933.183105 204.0
1934.190308 168.0
1934.641602 212.0
1935.84314 156.0
1936.543823 160.0
1937.297119 256.0
1937.559937 148.0
1937.752686 184.0
1939.689453 176.0
1940.676147 184.0
1941.022095 156.0
1941.811401 164.0
1942.118408 160.0
1942.390381 164.0
1942.811401 168.0
1944.329468 172.0
1945.523193 148.0
1945.812988 148.0
1947.007202 152.0
1947.121338 232.0
1947.261841 188.0
1948.149048 172.0
1948.901123 212.0
1950.69751 172.0
1950.89978 180.0
1951.110718 156.0
1951.260254 144.0
1952.530884 152.0
1953.230103 160.0
1953.337402 104.0
1954.417847 140.0
1954.54248 176.0
1955.363647 160.0
1959.780151 152.0
1961.374268 160.0
1961.463501 156.0
1962.018921 192.0
1962.151123 192.0
1962.953491 180.0
1963.42981 196.0
1963.680054 148.0
1964.135376 144.0
1966.606079 140.0
1967.577026 148.0
1969.484497 200.0
1970.001953 168.0
1970.606445 188.0
1970.90686 200.0
1971.534302 204.0
1972.515381 156.0
1972.75415 176.0
1973.655884 152.0
1973.735474 148.0
1973.930054 148.0
1974.646362 144.0
1974.955933 164.0
1975.628296 172.0
1976.27417 172.0
1976.769653 144.0
1980.222412 164.0
1980.496948 152.0
1980.629883 140.0
1981.524658 148.0
1983.651611 160.0
1983.718872 204.0
1984.245605 200.0
1985.952881 136.0
1986.143311 160.0
1986.400635 176.0
1986.50708 140.0
1988.228394 152.0
1988.397095 156.0
1989.804565 144.0
1995.094727 180.0
1995.192505 152.0
1995.396973 140.0
1995.842773 144.0
1996.659668 208.0
1997.033203 172.0
1997.264526 160.0
1997.798218 224.0
1998.759155 164.0
1998.954956 236.0
1999.248535 168.0
1999.901611 216.0
2000.138672 160.0
2001.091187 204.0
2001.527466 164.0
2002.471436 240.0
2002.542725 140.0
2003.03064 216.0
