>compound MLS000859938-01!8-(p-Sulfophenyl)theophylline hydrate
>formula C13H12N4O5S
>ionization [M+H]+
>parentmass 337.0601169360905
#inchi InChI=1S/C13H12N4O5S/c1-16-11-9(12(18)17(2)13(16)19)14-10(15-11)7-3-5-8(6-4-7)23(20,21)22/h3-6H,1-2H3,(H,14,15)(H,20,21,22)
#inchikey LXJSJIXZOAMHTG
#origInchi InChI=1S/C13H12N4O5S.H2O/c1-16-11-9(12(18)17(2)13(16)19)14-10(15-11)7-3-5-8(6-4-7)23(20,21)22;/h3-6H,1-2H3,(H,14,15)(H,20,21,22);1H2
#Ion_Source LC-ESI
#Instrument qTof
#Compound_Source NIH Pharmacologically Active Library
#PI Dorrestein
#Data_Collector VP/LMS
#Scan -1
#Precursor_MZ 337.062
#ExactMass 336.053
#Charge 1
#CAS_Number N/A
#Pubmed_ID N/A
#Smiles Cn1c(=O)n(C)c2[nH]c(nc2c1=O)c3ccc(cc3)S(=O)(=O)O.O
#INCHI_AUX N/A
#Library_Class 1
#SpectrumID CCMSLIB00000085843
#IonMode Positive
#UpdateWorkflowName UPDATE-SINGLE-ANNOTATED-GOLD
#LibraryQualityString Gold
#TaskID d252d724072548979f1f6f1ced849daf
##Scan# 1235
#SpectrumFile p4-G02_GG2_01_18398.mzXML
#LibraryName Pharm_Active_Library.mgf
#MQScore -1
#Organism Pharm_Active_Library
#TIC_Query 0
#RT_Query -1
#MZErrorPPM -1
#SharedPeaks 0
#MassDiff 0
#LibMZ -1
#SpecMZ 337.062
#SpecCharge 0
#internalFilename spec-00000.mgf

>collision 10
47.867855 184.0
48.650459 136.0
54.82832 236.0
57.357899 224.0
57.43631 168.0
58.551899 184.0
59.202507 44.0
60.08329 124.0
60.494385 156.0
61.199257 212.0
62.596054 64.0
64.263657 80.0
72.030685 140.0
72.37571 156.0
73.738396 132.0
74.55249 148.0
75.075851 136.0
75.990936 116.0
79.080658 200.0
80.073181 148.0
80.242477 184.0
87.019547 80.0
95.033211 272.0
97.611702 44.0
100.218727 40.0
101.951714 184.0
102.58979 160.0
105.586975 176.0
105.955437 156.0
107.342888 212.0
108.797485 204.0
110.648865 256.0
110.693237 208.0
111.187599 140.0
114.404869 96.0
115.904251 148.0
117.042732 140.0
124.252121 196.0
124.727364 268.0
126.397865 224.0
126.697899 40.0
126.872711 192.0
127.157593 204.0
131.951172 120.0
132.044724 376.0
132.072388 128.0
134.058395 220.0
136.72171 216.0
140.846115 188.0
141.565125 156.0
142.04628 180.0
142.972946 160.0
143.056244 112.0
144.067413 184.0
144.933533 200.0
144.993454 156.0
145.05098 104.0
153.520432 200.0
153.698044 176.0
154.048645 104.0
155.082993 148.0
156.827911 120.0
157.042343 160.0
159.054153 124.0
160.352051 72.0
160.813614 116.0
162.359512 224.0
165.527252 148.0
170.070099 144.0
171.078705 408.0
172.079865 128.0
174.085678 116.0
178.562775 148.0
183.080566 120.0
184.003738 1088.0
185.014908 176.0
186.250519 88.0
187.052704 104.0
188.072189 136.0
189.823196 96.0
193.82309 92.0
195.069275 104.0
196.008484 360.0
198.024307 208.0
198.049515 168.0
198.097137 96.0
199.073547 328.0
200.068604 164.0
200.099579 108.0
200.713837 164.0
202.012299 148.0
203.07135 140.0
204.997238 260.0
206.015869 160.0
206.999802 156.0
207.171646 104.0
208.009033 176.0
208.178436 176.0
210.020447 160.0
211.016663 324.0
211.592529 88.0
212.386581 28.0
213.341965 136.0
214.121811 148.0
215.075256 228.0
219.033951 192.0
220.122269 220.0
221.001297 216.0
223.019806 196.0
224.612885 156.0
225.033096 292.0
225.933304 156.0
226.247543 36.0
227.086594 212.0
227.533722 212.0
228.098526 140.0
237.484879 192.0
238.562729 204.0
244.729019 148.0
248.831268 56.0
248.853256 144.0
249.183044 72.0
249.340164 140.0
250.025787 148.0
250.8479 144.0
251.008255 696.0
251.854523 32.0
251.99353 204.0
252.043304 780.0
252.834671 108.0
253.039948 168.0
254.022491 124.0
254.165665 120.0
256.093994 396.0
259.01178 196.0
264.03949 180.0
264.689972 120.0
265.01532 148.0
265.046295 232.0
266.017853 136.0
267.205536 144.0
270.017487 212.0
277.771454 148.0
278.046844 56.0
278.897125 104.0
279.026794 172.0
279.146484 228.0
279.462494 96.0
280.037201 4800.0
280.131683 88.0
280.441589 48.0
280.788361 64.0
281.001831 32.0
281.039978 552.0
281.936829 176.0
282.030151 140.0
282.04129 212.0
282.346558 44.0
282.913574 128.0
283.020691 44.0
283.124512 116.0
283.15802 76.0
283.225006 48.0
283.700867 56.0
283.821564 152.0
287.080109 164.0
288.086151 144.0
288.914246 92.0
293.158661 172.0
293.598419 96.0
294.226288 80.0
297.32074 172.0
298.05249 152.0
303.776703 200.0
315.148224 128.0
316.142426 128.0
321.109283 192.0
329.776947 108.0
333.092499 144.0
336.253082 180.0
336.91037 156.0
337.056702 2036.0
337.18808 68.0
337.359863 48.0
337.42569 76.0
337.49881 76.0
337.579254 40.0
338.066681 472.0
338.117065 144.0
338.208557 60.0
338.793335 116.0
339.048584 288.0
339.219574 168.0
339.527588 184.0
340.481812 64.0
357.104126 164.0
367.133423 96.0
382.753113 36.0
419.897369 64.0
454.368195 84.0
665.432251 68.0
910.736389 64.0
1324.798584 140.0
1393.765381 136.0
1449.5 176.0
1485.42688 68.0
