>compound MLS000028581-01!METOPROLOL TARTRATE
>formula C15H25NO3
>ionization [M+H]+
>parentmass 268.190308
#inchi InChI=1S/C15H25NO3/c1-12(2)16-10-14(17)11-19-15-6-4-13(5-7-15)8-9-18-3/h4-7,12,14,16-17H,8-11H2,1-3H3
#inchikey IUBSYMUCCVWXPE
#origInchi InChI=1S/C15H25NO3.C4H6O6/c1-12(2)16-10-14(17)11-19-15-6-4-13(5-7-15)8-9-18-3;5-1(3(7)8)2(6)4(9)10/h4-7,12,14,16-17H,8-11H2,1-3H3;1-2,5-6H,(H,7,8)(H,9,10)/t;1-,2-/m.1/s1
#Ion_Source LC-ESI
#Instrument qTof
#Compound_Source NIH Pharmacologically Active Library
#PI Dorrestein
#Data_Collector VP/LMS
#Scan -1
#Precursor_MZ 268.198
#ExactMass 267.183
#Charge 1
#CAS_Number N/A
#Pubmed_ID N/A
#Smiles COCCc1ccc(OCC(O)CNC(C)C)cc1.O[C@H]([C@@H](O)C(=O)O)C(=O)O
#INCHI_AUX N/A
#Library_Class 1
#SpectrumID CCMSLIB00000085577
#IonMode Positive
#UpdateWorkflowName UPDATE-SINGLE-ANNOTATED-GOLD
#LibraryQualityString Gold
#TaskID d252d724072548979f1f6f1ced849daf
##Scan# 1333
#SpectrumFile p4-C10_GC10_01_18358.mzXML
#LibraryName Pharm_Active_Library.mgf
#MQScore -1
#Organism Pharm_Active_Library
#TIC_Query 0
#RT_Query -1
#MZErrorPPM -1
#SharedPeaks 0
#MassDiff 0
#LibMZ -1
#SpecMZ 268.198
#SpecCharge 0
#internalFilename spec-00000.mgf

>collision 10
44.894989 124.0
44.961693 208.0
44.971035 160.0
44.99506 212.0
45.06184 180.0
45.241047 164.0
45.269165 96.0
45.365379 212.0
45.388424 104.0
45.417328 148.0
45.474281 144.0
45.499786 168.0
45.544102 172.0
45.558876 196.0
45.622036 148.0
45.720272 120.0
45.881863 200.0
45.893997 164.0
45.923664 48.0
45.949295 44.0
46.014076 204.0
46.069046 364.0
46.091064 164.0
46.161514 200.0
46.189754 128.0
46.246586 40.0
46.311577 152.0
46.333118 168.0
46.362747 156.0
46.437626 148.0
46.463398 240.0
46.475513 284.0
46.593185 200.0
46.642651 200.0
46.66848 104.0
46.746181 128.0
46.759621 172.0
46.77742 160.0
46.793652 148.0
46.815437 160.0
46.834507 172.0
46.875378 132.0
46.919567 180.0
46.984455 208.0
47.127811 160.0
47.153774 148.0
47.202988 156.0
47.345306 220.0
47.359001 168.0
47.374069 144.0
47.387772 204.0
47.409695 188.0
47.483727 176.0
47.515125 184.0
47.535854 28.0
47.58939 208.0
47.615479 128.0
47.74329 204.0
47.796436 176.0
47.827213 92.0
47.843735 116.0
47.883606 188.0
47.909836 176.0
47.964958 184.0
47.98288 200.0
48.017353 192.0
48.040798 168.0
48.142937 168.0
48.192665 176.0
48.232742 144.0
48.377987 144.0
48.413986 264.0
48.429222 152.0
48.440304 156.0
48.461494 256.0
48.501598 136.0
48.513748 196.0
48.565056 220.0
48.735287 208.0
48.75526 108.0
48.7724 180.0
48.853981 224.0
48.874851 196.0
48.922169 200.0
48.947231 184.0
48.962547 228.0
48.972271 208.0
49.006897 172.0
49.041962 164.0
49.055904 148.0
49.093548 180.0
49.138184 48.0
49.166092 148.0
49.232414 204.0
49.249859 120.0
49.268021 148.0
49.286121 92.0
49.303127 160.0
49.322517 216.0
49.332542 192.0
49.349079 132.0
49.37418 160.0
49.427525 192.0
49.561829 184.0
49.603874 180.0
49.658558 208.0
49.673985 248.0
49.753975 176.0
49.83403 128.0
49.878998 216.0
49.88884 168.0
49.990108 124.0
50.102749 168.0
50.12529 192.0
50.139381 172.0
50.17321 172.0
50.202824 152.0
50.25943 152.0
50.318523 192.0
50.332645 160.0
50.372189 188.0
50.412094 180.0
50.442429 164.0
50.458393 236.0
50.531937 148.0
50.689102 236.0
50.744381 140.0
50.794018 228.0
50.860706 204.0
50.924603 184.0
50.974323 152.0
51.062462 152.0
51.080956 160.0
51.095181 160.0
51.269699 156.0
51.303596 196.0
51.338749 128.0
51.355862 164.0
51.377258 548.0
51.387245 192.0
51.508591 168.0
51.562885 208.0
51.578606 160.0
51.64724 140.0
51.685867 220.0
51.743118 168.0
51.770325 200.0
51.859684 236.0
51.877258 240.0
51.905022 180.0
51.927967 140.0
51.962395 148.0
51.989658 136.0
52.035591 128.0
52.051384 152.0
52.08176 80.0
52.105965 104.0
52.124645 184.0
52.178608 132.0
52.232471 144.0
52.251171 152.0
52.298862 168.0
52.311615 208.0
52.32457 276.0
52.374859 156.0
52.417187 156.0
52.426838 184.0
52.45134 176.0
52.498917 184.0
52.559502 112.0
52.597027 196.0
52.682484 132.0
52.744358 84.0
52.865849 144.0
53.005302 224.0
53.021812 132.0
53.052692 176.0
53.160023 164.0
53.271461 228.0
53.280777 168.0
53.295063 156.0
53.311047 132.0
53.341568 248.0
53.391003 172.0
53.434639 200.0
53.485573 120.0
53.526337 188.0
53.615662 176.0
53.672295 168.0
53.882225 200.0
53.927654 176.0
53.950912 56.0
54.005013 168.0
54.018177 204.0
54.028419 164.0
54.079636 168.0
54.146984 148.0
54.170418 136.0
54.186531 280.0
54.253708 172.0
54.291672 148.0
54.347813 208.0
54.363953 212.0
54.433414 188.0
54.47113 152.0
54.487289 204.0
54.499046 176.0
54.509331 176.0
54.529903 124.0
54.573418 200.0
54.606358 196.0
54.671089 108.0
54.734612 132.0
54.787735 236.0
54.824245 180.0
54.843403 124.0
54.877312 156.0
54.902378 168.0
54.916332 216.0
54.977615 180.0
55.026325 204.0
55.067673 184.0
55.078011 160.0
55.202156 132.0
55.261322 188.0
55.295357 172.0
55.321999 228.0
55.431599 148.0
55.498302 200.0
55.575634 176.0
55.624405 124.0
55.700394 228.0
55.725388 156.0
55.737274 156.0
55.75362 92.0
55.768482 128.0
55.807137 160.0
55.824978 132.0
55.871086 244.0
55.91275 208.0
55.952938 40.0
55.99612 56.0
56.101917 228.0
56.164543 176.0
56.179462 168.0
56.227207 196.0
56.272228 200.0
56.395977 272.0
56.509628 112.0
56.541054 96.0
56.642868 200.0
56.708794 100.0
56.81826 100.0
56.835781 220.0
56.888794 140.0
56.906807 144.0
56.953362 224.0
56.969883 148.0
56.9804 196.0
57.016464 52.0
57.090126 188.0
57.13224 196.0
57.150295 112.0
57.181896 56.0
57.262611 216.0
57.344555 176.0
57.380733 68.0
57.441055 184.0
57.451614 220.0
57.502918 184.0
57.569836 184.0
57.709873 136.0
57.732555 116.0
57.870251 60.0
57.959618 128.0
57.998497 172.0
58.052082 200.0
58.06628 176.0
58.137035 136.0
58.150692 200.0
58.168732 172.0
58.290409 40.0
58.302563 28.0
58.346645 136.0
58.36945 188.0
58.386177 200.0
58.398346 200.0
58.412033 156.0
58.456635 204.0
58.482029 188.0
58.49725 204.0
58.513058 104.0
58.597759 228.0
58.652622 132.0
58.67733 192.0
58.699883 136.0
58.713608 180.0
58.742588 40.0
58.775352 160.0
58.820412 144.0
58.986912 140.0
59.015957 120.0
59.051128 204.0
59.100082 192.0
59.145992 48.0
59.349747 148.0
59.397289 160.0
59.4249 184.0
59.481682 172.0
59.506245 136.0
59.61684 64.0
59.670639 176.0
59.76292 152.0
59.779846 152.0
59.804981 168.0
59.82756 56.0
59.839874 284.0
60.01918 160.0
60.044819 140.0
60.081841 160.0
60.097267 172.0
60.174438 172.0
60.199142 180.0
60.217674 160.0
60.270199 116.0
60.341137 196.0
60.379951 36.0
60.448021 124.0
60.492905 88.0
60.525597 196.0
60.56723 172.0
60.582722 104.0
60.602863 180.0
60.627655 136.0
60.669292 204.0
60.688786 212.0
60.731529 172.0
60.78738 48.0
60.858784 236.0
60.94421 240.0
60.959747 160.0
60.970627 120.0
60.989277 164.0
61.060795 168.0
61.115242 168.0
61.152588 164.0
61.177757 236.0
61.193062 128.0
61.221092 152.0
61.270935 148.0
61.313629 84.0
61.337944 148.0
61.351971 180.0
61.372242 168.0
61.4095 148.0
61.451786 184.0
61.49548 168.0
61.529819 160.0
61.540749 196.0
61.634464 188.0
61.687603 188.0
61.729816 128.0
61.793373 164.0
61.814289 164.0
61.866405 188.0
61.887856 128.0
61.945801 140.0
61.970867 140.0
62.016312 184.0
62.133923 124.0
62.144905 176.0
62.16687 148.0
62.191982 232.0
62.208286 152.0
62.305042 168.0
62.327038 128.0
62.350609 140.0
62.430786 192.0
62.455952 208.0
62.474827 168.0
62.503147 184.0
62.530544 176.0
62.545639 164.0
62.561382 132.0
62.575905 160.0
62.600742 172.0
62.620239 232.0
62.699989 132.0
62.722057 128.0
62.772507 112.0
62.797737 56.0
62.87978 128.0
62.89872 184.0
62.935032 104.0
62.962307 128.0
62.985565 128.0
63.034542 180.0
63.078796 260.0
63.172092 104.0
63.203171 180.0
63.217976 120.0
63.265461 36.0
63.281292 168.0
63.306625 144.0
63.359245 180.0
63.409138 164.0
63.534866 96.0
63.565014 88.0
63.615803 28.0
63.671375 172.0
63.685669 104.0
63.699963 156.0
63.715851 196.0
63.750805 136.0
63.771465 48.0
63.924137 232.0
63.953884 232.0
63.99099 124.0
64.0308 168.0
64.057877 168.0
64.127983 64.0
64.151894 200.0
64.354507 180.0
64.421585 128.0
64.444771 164.0
64.53186 108.0
64.602226 136.0
64.650223 160.0
64.675568 192.0
64.711052 176.0
64.731865 72.0
64.743073 132.0
64.757492 200.0
64.770302 164.0
64.786324 232.0
64.80555 148.0
64.853622 124.0
64.864845 120.0
64.879272 128.0
64.892097 336.0
64.962662 156.0
65.111931 72.0
65.152092 188.0
65.179405 156.0
65.203506 164.0
65.227615 192.0
65.277458 156.0
65.303185 220.0
65.341797 132.0
65.390068 228.0
65.404556 80.0
65.460899 180.0
65.536606 236.0
65.612358 120.0
65.673637 124.0
65.699448 32.0
65.772057 208.0
65.874428 188.0
65.907867 168.0
66.135742 196.0
66.160019 56.0
66.198875 36.0
66.238174 228.0
66.330536 192.0
66.354431 120.0
66.403076 160.0
66.46138 140.0
66.523148 144.0
66.541 116.0
66.661201 216.0
66.690453 124.0
66.702782 164.0
66.763611 32.0
66.818916 144.0
66.927963 212.0
66.947502 172.0
66.970306 276.0
66.989021 112.0
67.004517 148.0
67.020805 148.0
67.048508 156.0
67.059921 176.0
67.079475 128.0
67.195267 92.0
67.211578 144.0
67.240952 136.0
67.271965 100.0
67.402626 148.0
67.43531 28.0
67.456558 224.0
67.534065 220.0
67.550583 296.0
67.559929 188.0
67.584122 188.0
67.615211 152.0
67.731461 152.0
67.823219 148.0
67.869118 256.0
67.923241 140.0
67.941284 88.0
67.988869 160.0
68.0299 52.0
68.072594 116.0
68.195801 144.0
68.25602 204.0
68.279655 96.0
68.309258 176.0
68.338722 176.0
68.356972 180.0
68.383301 132.0
68.414581 40.0
68.426727 184.0
68.47715 220.0
68.534805 192.0
68.618866 196.0
68.681526 144.0
68.732666 140.0
68.74752 36.0
68.798691 84.0
68.815193 116.0
68.872993 252.0
68.991974 144.0
69.051498 228.0
69.137276 184.0
69.170631 208.0
69.18718 152.0
69.274948 180.0
69.376038 144.0
69.394272 172.0
69.482178 172.0
69.498932 164.0
69.512039 88.0
69.618279 172.0
69.70134 156.0
69.774467 136.0
69.78611 180.0
69.899216 200.0
69.927505 112.0
69.952469 180.0
70.024071 160.0
70.109032 348.0
70.162376 244.0
70.200722 160.0
70.226517 192.0
70.272446 124.0
70.28746 176.0
70.324181 140.0
70.365814 212.0
70.432709 132.0
70.452751 404.0
70.486168 184.0
70.701889 40.0
70.72197 148.0
70.740387 116.0
70.859863 208.0
70.943077 164.0
70.959846 104.0
70.974937 232.0
71.038666 180.0
71.052086 184.0
71.070541 148.0
71.087326 124.0
71.117531 168.0
71.137672 160.0
71.150726 160.0
71.240112 192.0
71.559647 180.0
71.665756 212.0
71.704514 136.0
71.731476 184.0
71.765198 176.0
71.846954 168.0
71.899567 164.0
72.104492 216.0
72.136612 196.0
72.163658 280.0
72.175491 164.0
72.197479 208.0
72.265137 64.0
72.304054 204.0
72.349762 136.0
72.480171 208.0
72.515762 136.0
72.61763 192.0
72.7108 48.0
72.795677 80.0
72.8993 128.0
72.987526 160.0
73.038712 216.0
73.082947 204.0
73.266823 136.0
73.31794 44.0
73.36396 220.0
73.392944 172.0
73.423637 128.0
73.476517 124.0
73.500397 124.0
73.631081 196.0
73.674545 72.0
73.701881 152.0
73.782547 164.0
73.845482 48.0
73.860878 180.0
73.915619 176.0
74.026886 128.0
74.11039 132.0
74.132172 228.0
74.14595 180.0
74.160515 172.0
74.172516 192.0
74.189659 176.0
74.20166 132.0
74.335442 184.0
74.35775 68.0
74.386932 216.0
74.538071 184.0
74.555252 128.0
74.634323 132.0
74.690376 88.0
74.734085 208.0
74.751289 204.0
74.80809 128.0
74.844246 140.0
74.887299 180.0
74.98378 100.0
75.013077 200.0
75.06308 48.0
75.145866 92.0
75.235611 60.0
75.275322 164.0
75.309868 124.0
75.325409 196.0
75.356506 252.0
75.39798 216.0
75.482681 116.0
75.505165 224.0
75.525917 184.0
75.544945 172.0
75.572624 220.0
75.654182 96.0
75.683403 212.0
75.740082 176.0
75.898254 68.0
75.941612 228.0
75.95549 92.0
76.028358 376.0
76.087372 192.0
76.125572 156.0
76.37236 108.0
76.403671 136.0
76.422806 144.0
76.457611 192.0
76.492416 72.0
76.63871 68.0
76.657875 212.0
76.755493 156.0
76.781647 216.0
76.797348 148.0
76.825256 184.0
76.906281 148.0
76.929962 172.0
76.949165 168.0
77.046967 200.0
77.09938 200.0
77.193069 176.0
77.218742 132.0
77.251503 80.0
77.286491 208.0
77.303986 188.0
77.324989 184.0
77.337242 200.0
77.397728 192.0
77.459808 176.0
77.473824 248.0
77.54216 152.0
77.631569 152.0
77.652611 140.0
77.692955 64.0
77.712257 284.0
77.745598 148.0
77.857948 172.0
77.873756 96.0
77.921188 384.0
77.935242 176.0
77.951057 216.0
77.998505 176.0
78.024879 96.0
78.044212 204.0
78.14415 200.0
78.172623 144.0
78.235985 164.0
78.251831 140.0
78.290565 136.0
78.308182 196.0
78.378647 532.0
78.472061 76.0
78.53907 72.0
78.643173 144.0
78.660828 196.0
78.676712 168.0
78.694366 144.0
78.710258 116.0
78.86219 144.0
78.890808 188.0
79.003647 204.0
79.063805 200.0
79.175339 172.0
79.201904 236.0
79.22316 116.0
79.242653 252.0
79.270996 208.0
79.315308 140.0
79.357857 160.0
79.375587 104.0
79.427017 124.0
79.450073 136.0
79.48024 200.0
79.501534 156.0
79.51844 152.0
79.583702 124.0
79.61692 44.0
79.712852 124.0
79.737732 144.0
79.798172 188.0
80.034805 120.0
80.084671 104.0
80.109604 88.0
80.157715 188.0
80.180878 172.0
80.377037 180.0
80.428795 140.0
80.448425 192.0
80.523422 184.0
80.543068 128.0
80.589516 192.0
80.621681 48.0
80.718208 140.0
80.730728 124.0
80.752457 160.0
80.891754 152.0
80.906075 100.0
80.927559 204.0
81.029648 160.0
81.061897 68.0
81.099533 212.0
81.149422 232.0
81.205322 148.0
81.269897 208.0
81.295021 156.0
81.318352 236.0
81.334503 144.0
81.379257 188.0
81.435051 144.0
81.458405 176.0
81.499725 192.0
81.540726 216.0
81.637558 200.0
81.763542 208.0
81.768341 148.0
81.879288 104.0
81.96833 352.0
82.073906 128.0
82.10997 172.0
82.165886 164.0
82.216408 180.0
82.31028 224.0
82.344589 104.0
82.364456 212.0
82.409622 376.0
82.436943 168.0
82.445343 156.0
82.476486 168.0
82.525299 156.0
82.568695 148.0
82.590401 284.0
82.630196 168.0
82.653717 188.0
82.670006 56.0
82.71344 124.0
82.738785 184.0
82.778618 164.0
82.818459 200.0
82.831139 408.0
82.843819 200.0
82.881866 156.0
82.912674 164.0
82.947105 148.0
82.985176 144.0
83.004616 284.0
83.058548 96.0
83.09581 180.0
83.126656 208.0
83.148438 168.0
83.168396 192.0
83.219231 196.0
83.330017 252.0
83.369995 188.0
83.399071 188.0
83.439064 60.0
83.579109 172.0
83.619148 200.0
83.644951 228.0
83.719276 232.0
83.732025 168.0
83.823112 124.0
83.860397 252.0
83.885078 220.0
84.010902 120.0
84.025497 164.0
84.038269 120.0
84.134995 164.0
84.323135 176.0
84.35421 152.0
84.374321 40.0
84.398087 136.0
84.42186 160.0
84.467583 188.0
84.707382 224.0
84.766006 156.0
84.909698 220.0
85.030083 280.0
85.05761 232.0
85.077805 144.0
85.123703 152.0
85.256226 144.0
85.284554 188.0
85.57235 48.0
85.629433 168.0
85.646011 204.0
85.765778 200.0
85.793762 176.0
85.841469 208.0
85.86718 124.0
85.968178 188.0
86.031403 120.0
86.132965 120.0
86.162521 252.0
86.177307 112.0
86.232742 116.0
86.269707 180.0
86.314079 200.0
86.41581 180.0
86.450966 152.0
86.477173 152.0
86.491684 236.0
86.573151 180.0
86.63427 64.0
86.68985 220.0
86.7323 168.0
86.789948 224.0
86.86042 140.0
86.875107 192.0
87.021873 140.0
87.122162 240.0
87.176048 112.0
87.26899 220.0
87.317337 200.0
87.373138 164.0
87.401901 96.0
87.430817 128.0
87.455017 60.0
87.482933 40.0
87.507133 148.0
87.568588 300.0
87.614288 328.0
87.674782 136.0
87.68969 184.0
87.728836 192.0
87.879898 200.0
87.911316 200.0
87.971344 184.0
88.008682 192.0
88.02549 104.0
88.046028 144.0
88.118881 148.0
88.289764 176.0
88.316093 184.0
88.343216 148.0
88.361923 208.0
88.425552 156.0
88.517281 172.0
88.582832 80.0
88.603958 100.0
88.712082 148.0
88.846451 160.0
88.908203 164.0
88.971016 240.0
89.010437 168.0
89.055511 124.0
89.085564 52.0
89.168243 248.0
89.250954 132.0
89.290443 180.0
89.414612 168.0
89.493675 192.0
89.538872 136.0
89.618881 212.0
89.741753 212.0
89.897057 168.0
89.919701 152.0
89.965004 232.0
90.017868 64.0
90.193565 28.0
90.227592 208.0
90.281395 240.0
90.314957 160.0
90.391479 204.0
90.433784 204.0
90.483002 204.0
90.532227 164.0
90.553062 132.0
90.608727 144.0
90.616653 56.0
90.622269 120.0
90.685684 200.0
90.789375 156.0
90.836609 136.0
90.88073 192.0
90.982826 136.0
91.004379 128.0
91.054756 6868.0
91.112633 184.0
91.160133 180.0
91.173439 60.0
91.192444 100.0
91.208847 140.0
91.260246 84.0
91.289398 124.0
91.322136 192.0
91.344559 112.0
91.373093 64.0
91.388313 48.0
91.401634 132.0
91.426369 52.0
91.460632 112.0
91.481567 172.0
91.574867 88.0
91.84552 336.0
91.961914 204.0
92.003906 176.0
92.057625 1016.0
92.084389 160.0
92.120392 184.0
92.137161 160.0
92.211258 188.0
92.265633 108.0
92.372719 192.0
92.412895 152.0
92.464729 92.0
92.495186 196.0
92.550705 160.0
92.58709 212.0
92.626976 228.0
92.648384 88.0
92.694366 116.0
92.759529 156.0
92.807632 132.0
92.920616 156.0
92.968582 136.0
93.016571 80.0
93.044403 180.0
93.07135 1440.0
93.091446 172.0
93.118332 92.0
93.137535 232.0
93.158669 160.0
93.212463 180.0
93.229759 176.0
93.287422 152.0
93.340546 152.0
93.552887 136.0
93.599098 100.0
93.612572 128.0
93.683838 160.0
93.739258 188.0
93.768227 316.0
93.992317 220.0
94.027954 444.0
94.033607 384.0
94.075058 312.0
94.094612 172.0
94.130157 224.0
94.144814 76.0
94.233665 196.0
94.310966 212.0
94.425041 152.0
94.438576 140.0
94.527565 152.0
94.568207 68.0
94.595306 132.0
94.635963 208.0
94.847122 176.0
94.872322 132.0
94.932426 204.0
94.955162 188.0
95.015831 84.0
95.05957 2764.0
95.117294 132.0
95.215767 176.0
95.255249 204.0
95.293465 96.0
95.309006 64.0
95.349815 256.0
95.482018 160.0
95.511192 136.0
95.534531 136.0
95.620148 48.0
95.643501 124.0
95.733505 212.0
95.76812 88.0
95.908401 152.0
96.0644 172.0
96.193192 396.0
96.214661 184.0
96.341599 176.0
96.355736 156.0
96.400215 100.0
96.437347 160.0
96.474487 92.0
96.523369 44.0
96.589638 140.0
96.60408 164.0
96.703346 216.0
96.746407 308.0
96.76207 52.0
96.785568 204.0
96.809067 48.0
96.822769 168.0
96.836479 176.0
96.85215 104.0
96.877617 56.0
96.920715 204.0
96.944229 148.0
97.08342 216.0
97.10891 164.0
97.122643 80.0
97.152306 164.0
97.167763 176.0
97.193268 164.0
97.309067 48.0
97.336555 204.0
97.373871 204.0
97.428864 184.0
97.542847 148.0
97.588058 168.0
97.631317 340.0
97.650986 152.0
97.725739 136.0
97.819 216.0
97.883202 176.0
97.916679 192.0
97.940315 148.0
97.961983 108.0
98.015175 168.0
98.05262 148.0
98.097122 2752.0
98.135414 200.0
98.20443 200.0
98.218239 128.0
98.343613 160.0
98.360306 72.0
98.423485 192.0
98.441254 108.0
98.526184 188.0
98.549896 168.0
98.619057 88.0
98.682312 140.0
98.787132 128.0
98.804939 176.0
98.874191 236.0
98.893982 204.0
98.947426 104.0
98.969208 320.0
99.040138 152.0
99.102272 368.0
99.288246 184.0
99.30481 260.0
99.387428 116.0
99.5224 160.0
99.562111 88.0
99.621696 88.0
99.68528 136.0
99.760803 108.0
99.816475 160.0
99.872162 40.0
100.05722 224.0
100.091072 184.0
100.113754 1724.0
100.170731 88.0
100.284309 56.0
100.334328 216.0
100.370033 60.0
100.451797 200.0
100.51165 200.0
100.545578 116.0
100.56868 104.0
100.655373 132.0
100.795197 172.0
100.841156 136.0
100.917122 136.0
101.029938 176.0
101.062218 176.0
101.114014 208.0
101.143181 264.0
101.207954 236.0
101.223534 148.0
101.28334 152.0
101.397469 204.0
101.413811 172.0
101.433624 104.0
101.461685 192.0
101.479729 136.0
101.5439 192.0
101.556496 164.0
101.571983 32.0
101.594048 148.0
101.616112 96.0
101.706421 36.0
101.732796 144.0
101.810822 124.0
101.871948 172.0
101.886856 192.0
101.935364 156.0
101.98159 136.0
102.019783 164.0
102.046677 1628.0
102.069885 204.0
102.093811 156.0
102.110603 188.0
102.222923 136.0
102.301414 208.0
102.341682 148.0
102.381462 148.0
102.404106 140.0
102.462524 40.0
102.654007 104.0
102.689651 160.0
102.710472 88.0
102.764946 168.0
102.89402 184.0
102.940598 320.0
102.993057 176.0
103.01915 144.0
103.05529 31752.0
103.13652 28.0
103.183014 68.0
103.198486 92.0
103.218399 128.0
103.248123 100.0
103.287155 56.0
103.30233 84.0
103.333374 180.0
103.348862 284.0
103.386841 108.0
103.407547 304.0
103.427788 104.0
103.486496 96.0
103.502693 180.0
103.523727 72.0
103.55246 236.0
103.577621 84.0
103.630295 56.0
103.731621 80.0
103.762032 44.0
103.831863 164.0
103.866081 104.0
103.882698 64.0
103.90197 44.0
103.929405 148.0
103.949471 156.0
103.983391 164.0
104.059494 3940.0
104.133377 144.0
104.196342 192.0
104.212601 176.0
104.254562 160.0
104.29998 88.0
104.333321 60.0
104.397575 112.0
104.419106 184.0
104.444351 172.0
104.468758 172.0
104.490486 236.0
104.556252 84.0
104.572533 176.0
104.64785 252.0
104.714035 136.0
104.737457 104.0
104.757828 48.0
104.77565 204.0
104.790421 236.0
104.826668 152.0
104.863777 108.0
104.901581 88.0
104.920738 140.0
104.951385 152.0
105.034233 688.0
105.070427 28304.0
105.104614 164.0
105.125839 72.0
105.14756 84.0
105.206467 68.0
105.233604 244.0
105.262405 60.0
105.295609 140.0
105.320816 208.0
105.347366 128.0
105.365753 72.0
105.38414 52.0
105.409271 148.0
105.465889 132.0
105.496544 160.0
105.543419 108.0
105.566063 148.0
105.588562 180.0
105.647873 68.0
105.66629 36.0
105.682655 112.0
105.77475 100.0
105.791122 136.0
105.827972 168.0
105.889412 72.0
105.98774 336.0
106.040855 348.0
106.072632 2164.0
106.176331 68.0
106.227608 84.0
106.328148 52.0
106.3974 168.0
106.430786 40.0
106.44516 148.0
106.490341 180.0
106.566345 64.0
106.593056 96.0
106.667046 72.0
106.720497 60.0
106.811249 124.0
106.83567 60.0
106.880928 212.0
106.912735 176.0
106.944725 100.0
107.024529 288.0
107.050072 2140.0
107.077042 404.0
107.175369 156.0
107.239258 120.0
107.282265 176.0
107.329964 244.0
107.499107 148.0
107.563087 192.0
107.600243 132.0
107.635345 224.0
107.682312 156.0
107.740677 68.0
107.784065 188.0
107.87294 164.0
107.908081 116.0
107.980453 128.0
108.051476 524.0
108.071472 172.0
108.110786 112.0
108.166313 116.0
108.214287 184.0
108.280548 28.0
108.381828 148.0
108.415657 168.0
108.460808 80.0
108.481537 156.0
108.510559 168.0
108.547882 52.0
108.585205 156.0
108.599724 136.0
108.624619 68.0
108.674408 112.0
108.715904 156.0
108.913139 148.0
109.030052 192.0
109.060661 188.0
109.091843 128.0
109.137581 232.0
109.152138 68.0
109.258209 156.0
109.272774 176.0
109.309784 168.0
109.376213 136.0
109.417778 116.0
109.44136 164.0
109.501038 152.0
109.526741 216.0
109.633003 124.0
109.71373 380.0
109.766411 140.0
109.914513 212.0
110.075241 128.0
110.091949 100.0
110.130058 192.0
110.160873 224.0
110.215187 176.0
110.251625 184.0
110.275795 128.0
110.292511 140.0
110.345863 184.0
110.371956 148.0
110.476532 104.0
110.614639 212.0
110.641853 160.0
110.769592 268.0
110.943527 120.0
111.000137 52.0
111.084023 180.0
111.113396 120.0
111.167946 96.0
111.20153 208.0
111.342194 160.0
111.356895 176.0
111.386971 212.0
111.502304 228.0
111.550201 172.0
111.655327 108.0
111.794174 156.0
111.89521 172.0
112.021568 116.0
112.040527 160.0
112.14119 176.0
112.202797 128.0
112.306129 172.0
112.363083 124.0
112.460152 212.0
112.582603 144.0
112.599495 140.0
112.667091 160.0
112.689507 216.0
112.743156 228.0
112.779541 92.0
112.836159 36.0
112.85096 120.0
112.982811 220.0
113.030746 144.0
113.075737 216.0
113.09343 148.0
113.148788 140.0
113.297516 36.0
113.34201 100.0
113.358963 128.0
113.428902 76.0
113.523094 188.0
113.642044 144.0
113.666435 52.0
113.747734 200.0
113.778923 156.0
113.85112 116.0
113.89402 240.0
113.983704 116.0
114.008324 192.0
114.043602 300.0
114.084251 188.0
114.125183 172.0
114.152878 192.0
114.208168 56.0
114.395424 184.0
114.444389 160.0
114.46994 204.0
114.489105 224.0
114.5317 136.0
114.559395 104.0
114.576431 208.0
114.619049 168.0
114.640358 132.0
114.795975 116.0
114.842888 128.0
114.911156 124.0
115.022125 176.0
115.054718 7844.0
115.113213 216.0
115.18013 84.0
115.218582 188.0
115.23568 52.0
115.340393 40.0
115.357491 84.0
115.389557 76.0
115.406662 180.0
115.481506 296.0
115.513733 184.0
115.565758 156.0
115.637695 148.0
115.659096 80.0
115.702675 112.0
115.778992 68.0
115.855171 92.0
115.901093 120.0
115.984673 192.0
116.062439 6956.0
116.107254 9840.0
116.162651 36.0
116.196976 84.0
116.214134 84.0
116.337769 132.0
116.362228 132.0
116.387413 176.0
116.43309 32.0
116.49395 192.0
116.52343 72.0
116.572723 160.0
116.744698 80.0
116.780128 152.0
116.822128 132.0
116.870178 84.0
116.938324 28.0
116.955544 212.0
116.98568 208.0
117.037621 224.0
117.069878 2444.0
117.110176 496.0
117.19458 156.0
117.33683 168.0
117.362701 48.0
117.399361 228.0
117.494263 48.0
117.571945 120.0
117.591362 84.0
117.621582 60.0
117.783531 108.0
117.844017 124.0
117.943428 112.0
117.978012 144.0
118.010437 196.0
118.041306 764.0
118.068787 548.0
118.11573 204.0
118.144531 144.0
118.185638 88.0
118.312508 196.0
118.337143 112.0
118.39994 96.0
118.503914 132.0
118.532082 120.0
118.583618 164.0
118.672966 36.0
118.688148 96.0
118.759712 152.0
118.839973 76.0
118.920265 84.0
119.050377 1300.0
119.084908 1708.0
119.114212 204.0
119.350395 212.0
119.367798 152.0
119.409111 256.0
119.594048 136.0
119.637878 176.0
119.709435 32.0
119.742104 168.0
119.956032 196.0
119.983971 116.0
120.005775 204.0
120.057808 2928.0
120.080788 532.0
120.114815 96.0
120.171532 184.0
120.202568 196.0
120.243546 124.0
120.267548 44.0
120.413834 228.0
120.481544 196.0
120.516502 236.0
120.542725 104.0
120.614845 156.0
120.654198 212.0
120.730721 132.0
120.761345 56.0
120.799591 164.0
120.859779 56.0
120.875099 168.0
120.892609 180.0
120.907928 108.0
120.934189 156.0
120.949509 52.0
121.040131 19688.0
121.065681 42068.0
121.107925 80.0
121.131302 168.0
121.150406 76.0
121.179596 60.0
121.214508 44.0
121.244804 92.0
121.269295 104.0
121.315323 56.0
121.356247 60.0
121.364357 88.0
121.400513 244.0
121.429489 60.0
121.449081 120.0
121.504326 44.0
121.529793 76.0
121.538445 60.0
121.546928 60.0
121.578529 36.0
121.598282 44.0
121.61364 92.0
121.653046 156.0
121.681526 52.0
121.708038 48.0
121.728928 80.0
121.765137 156.0
121.813454 48.0
121.842018 52.0
121.875488 136.0
121.894745 60.0
122.007568 168.0
122.041824 1964.0
122.068619 2532.0
122.123383 192.0
122.178375 200.0
122.215775 84.0
122.248779 40.0
122.297203 40.0
122.333405 116.0
122.358833 140.0
122.391312 224.0
122.404877 224.0
122.528419 48.0
122.568077 116.0
122.654022 152.0
122.673866 128.0
122.712914 168.0
122.733391 120.0
122.758125 128.0
122.823807 68.0
122.853622 140.0
122.909851 100.0
122.934456 184.0
122.959175 68.0
122.995201 160.0
123.044807 300.0
123.070526 372.0
123.085289 172.0
123.101891 120.0
123.190239 124.0
123.205704 164.0
123.230003 116.0
123.391342 80.0
123.462097 188.0
123.665634 80.0
123.6922 108.0
123.789612 208.0
123.851624 80.0
123.934242 96.0
123.964615 212.0
123.997856 64.0
124.013367 80.0
124.117561 184.0
124.212929 156.0
124.253876 96.0
124.310547 48.0
124.354935 160.0
124.401894 152.0
124.441505 184.0
124.590302 196.0
124.90374 184.0
125.088432 320.0
125.438156 196.0
125.545174 172.0
125.605392 224.0
125.908936 168.0
126.034035 232.0
126.159187 180.0
126.237442 148.0
126.449974 112.0
126.474594 152.0
126.685074 32.0
126.727646 88.0
126.891258 72.0
127.051193 324.0
127.175026 136.0
127.283905 84.0
127.326569 104.0
127.362511 192.0
127.513046 180.0
127.535515 72.0
127.716591 136.0
127.769379 296.0
127.843636 152.0
127.940414 124.0
127.956177 180.0
128.062622 2168.0
128.145355 80.0
128.253525 108.0
128.30751 268.0
128.479019 132.0
128.661819 80.0
128.790543 188.0
128.90123 208.0
128.92836 188.0
128.950958 160.0
129.021027 148.0
129.03685 148.0
129.069977 4152.0
129.137589 88.0
129.163925 144.0
129.182877 168.0
129.231354 64.0
129.249466 64.0
129.267563 76.0
129.29245 56.0
129.369415 80.0
129.403366 80.0
129.498474 204.0
129.593628 180.0
129.691071 56.0
129.70694 180.0
129.722794 148.0
129.774948 48.0
129.795349 332.0
129.81575 88.0
129.906479 192.0
129.97908 188.0
129.999496 216.0
130.07254 664.0
130.103912 36.0
130.135696 112.0
130.372925 100.0
130.406021 204.0
130.462845 68.0
130.494675 212.0
130.581085 200.0
130.681168 100.0
130.804062 172.0
130.902908 192.0
131.050537 4048.0
131.085907 9352.0
131.175369 188.0
131.234634 160.0
131.284805 264.0
131.305328 56.0
131.331406 184.0
131.350937 196.0
131.372955 80.0
131.437637 140.0
131.528931 176.0
131.598862 240.0
131.620239 96.0
131.752716 220.0
131.768707 248.0
131.802979 108.0
131.932434 248.0
131.962967 52.0
132.013275 148.0
132.067627 3920.0
132.0896 1216.0
132.125168 100.0
132.130432 128.0
132.239761 240.0
132.313019 148.0
132.360504 124.0
132.427505 116.0
132.477219 80.0
132.532562 144.0
132.580307 104.0
132.668106 176.0
132.743759 168.0
132.796509 212.0
132.822281 224.0
132.855194 260.0
132.895584 148.0
132.936462 128.0
132.970535 116.0
132.987946 92.0
133.030685 144.0
133.065659 51716.0
133.121078 108.0
133.139496 72.0
133.177246 172.0
133.184708 124.0
133.218369 88.0
133.23999 120.0
133.275696 76.0
133.295212 52.0
133.34816 92.0
133.413559 56.0
133.443527 60.0
133.487762 48.0
133.505829 56.0
133.569305 44.0
133.580917 60.0
133.614944 88.0
133.679276 196.0
133.70401 44.0
133.791473 68.0
133.830612 76.0
133.920425 104.0
133.94725 56.0
133.998566 156.0
134.020538 88.0
134.068008 3876.0
134.104752 172.0
134.344559 28.0
134.372238 180.0
134.503784 68.0
134.552261 60.0
134.59613 32.0
134.639999 120.0
134.693115 116.0
134.728958 188.0
134.76474 48.0
134.82019 84.0
134.838684 68.0
134.906174 164.0
134.931213 128.0
134.99588 176.0
135.037613 184.0
135.080002 6824.0
135.158432 88.0
135.1828 120.0
135.216446 92.0
135.262985 100.0
135.47963 56.0
135.512054 76.0
135.532913 168.0
135.579254 56.0
135.683563 188.0
135.716019 208.0
135.812622 232.0
136.054749 240.0
136.084045 904.0
136.119766 156.0
136.310242 64.0
136.433426 204.0
136.640396 52.0
136.70787 100.0
136.900406 136.0
136.943008 204.0
137.00824 112.0
137.075806 56.0
137.092743 280.0
137.150375 80.0
137.388229 76.0
137.983749 112.0
138.124069 184.0
138.271469 128.0
138.655548 168.0
139.049561 144.0
139.242065 68.0
139.31958 128.0
139.385376 136.0
139.547546 172.0
139.702774 72.0
139.836884 168.0
140.249069 140.0
140.786987 220.0
140.90509 188.0
140.935806 416.0
141.069672 5076.0
141.113068 164.0
141.134338 160.0
141.150894 44.0
141.184006 40.0
141.303055 60.0
141.335388 132.0
141.617111 140.0
141.66922 108.0
141.771103 88.0
142.005814 208.0
142.074905 776.0
142.114929 152.0
142.281296 40.0
142.399796 168.0
142.513809 72.0
142.554214 104.0
142.582718 120.0
142.837433 156.0
142.882324 184.0
142.979889 68.0
143.064392 340.0
143.082703 384.0
143.372833 176.0
143.58638 160.0
143.638077 208.0
143.778259 192.0
143.861786 104.0
144.002731 172.0
144.057419 13008.0
144.112564 180.0
144.224869 52.0
144.316833 128.0
144.342026 88.0
144.418549 120.0
144.456818 92.0
144.621918 48.0
144.645859 56.0
144.791916 68.0
145.000336 88.0
145.062439 2216.0
145.105804 116.0
145.209518 80.0
145.247299 152.0
145.460861 152.0
145.50647 60.0
145.744247 108.0
146.080811 416.0
146.172256 156.0
146.19632 52.0
146.311844 32.0
146.45874 56.0
146.584015 108.0
147.006012 132.0
147.043182 192.0
147.085144 4424.0
147.243622 84.0
147.269165 60.0
147.310226 180.0
147.752625 196.0
147.796173 40.0
147.822784 32.0
147.839722 188.0
147.958328 176.0
147.980118 204.0
148.043076 124.0
148.076309 15524.0
148.155792 52.0
148.192383 168.0
148.275833 52.0
148.348358 40.0
148.379868 44.0
148.468262 44.0
148.493835 228.0
148.547195 56.0
148.707336 68.0
148.749908 148.0
148.935577 76.0
148.957428 132.0
149.00116 168.0
149.078552 1472.0
149.120224 112.0
149.146973 44.0
149.173706 96.0
149.307434 76.0
149.329315 40.0
149.442062 92.0
149.480148 72.0
149.672455 52.0
150.013535 56.0
150.054214 128.0
150.08905 196.0
150.164703 224.0
150.216736 84.0
150.269592 216.0
150.342804 140.0
150.37941 112.0
150.430664 124.0
150.496582 212.0
150.540543 124.0
150.640671 64.0
150.728622 168.0
150.897278 64.0
151.076782 596.0
151.110062 244.0
151.178574 48.0
151.315643 192.0
151.64389 176.0
151.761551 240.0
152.079666 196.0
152.303894 52.0
152.397247 40.0
152.414444 256.0
152.446396 176.0
153.094635 540.0
153.356979 44.0
153.610947 156.0
153.778732 184.0
153.818222 188.0
154.112106 160.0
154.206009 144.0
154.869095 64.0
154.911209 132.0
155.059875 264.0
155.196213 228.0
155.238358 132.0
155.526154 116.0
155.553452 132.0
155.973251 108.0
155.998108 72.0
156.084366 172.0
156.470779 152.0
156.909256 180.0
157.064209 540.0
157.1362 208.0
157.263474 48.0
157.38829 120.0
157.415421 360.0
157.518158 180.0
157.730545 40.0
157.928085 296.0
157.973114 88.0
158.049774 136.0
158.07312 368.0
158.119171 180.0
158.155777 168.0
158.458771 124.0
158.677811 204.0
158.724457 124.0
158.782135 156.0
158.867416 196.0
159.012955 124.0
159.035172 192.0
159.080765 33316.0
159.179337 116.0
159.23317 56.0
159.258484 96.0
159.335205 168.0
159.434875 60.0
159.502731 40.0
159.520325 76.0
159.537918 40.0
159.555511 88.0
159.635971 152.0
159.691299 80.0
159.751678 88.0
159.783661 80.0
159.842255 76.0
160.05368 312.0
160.082413 2132.0
160.149384 184.0
160.255188 32.0
160.292984 36.0
160.315659 96.0
160.355988 64.0
160.441681 36.0
160.540024 124.0
160.837723 64.0
160.855392 144.0
160.941238 80.0
161.056854 216.0
161.093796 960.0
161.133179 72.0
161.173615 144.0
161.19635 196.0
161.219101 144.0
161.370758 60.0
161.401093 76.0
161.795792 180.0
161.942657 164.0
161.993317 88.0
162.041443 368.0
162.067352 212.0
162.096481 396.0
162.125061 200.0
162.163086 52.0
162.193497 56.0
162.434387 116.0
163.048828 152.0
163.087128 6128.0
163.109467 1024.0
163.224228 152.0
163.331039 140.0
163.465881 36.0
163.654236 68.0
163.954819 132.0
164.089828 480.0
164.115417 188.0
164.191803 88.0
164.367935 92.0
164.541489 48.0
164.587448 52.0
164.687897 48.0
164.827545 124.0
165.091675 10164.0
165.254547 32.0
165.287811 92.0
165.318512 76.0
165.354355 92.0
165.500259 60.0
165.533554 88.0
165.597565 128.0
166.033264 196.0
166.069168 72.0
166.094254 256.0
166.271851 108.0
166.389923 104.0
166.621063 56.0
166.741837 148.0
167.101822 84.0
167.15715 76.0
167.240784 128.0
167.410706 148.0
167.593597 144.0
168.021576 120.0
168.176407 60.0
168.731796 76.0
169.076096 356.0
169.567886 116.0
169.985397 108.0
170.085709 164.0
170.143723 148.0
171.067734 192.0
171.384323 76.0
172.065445 212.0
172.077988 184.0
172.122498 112.0
172.407227 168.0
173.07103 168.0
173.097839 132.0
173.401718 96.0
173.955154 76.0
174.094391 444.0
174.567322 144.0
175.069946 192.0
175.098526 292.0
175.115295 156.0
175.183197 176.0
175.744751 72.0
175.815994 200.0
176.107513 4456.0
176.146027 40.0
176.185654 92.0
176.267563 112.0
176.360062 40.0
176.518677 60.0
176.629761 96.0
176.650925 44.0
176.706482 60.0
176.783218 60.0
176.828201 52.0
176.944672 156.0
177.002914 76.0
177.091263 4404.0
177.448044 104.0
177.487823 184.0
177.835342 112.0
177.986664 64.0
178.096436 776.0
178.180557 40.0
178.281784 40.0
178.451645 64.0
178.531403 36.0
178.563324 88.0
178.806152 88.0
179.028717 160.0
179.069 176.0
179.106064 1624.0
179.154236 64.0
179.252808 36.0
179.762131 148.0
180.106247 220.0
180.272171 88.0
180.437897 80.0
180.464523 104.0
180.566238 172.0
181.114914 172.0
181.197968 64.0
182.792847 176.0
183.762848 80.0
183.965256 96.0
185.024979 200.0
186.106583 160.0
188.012222 36.0
188.222412 80.0
188.492844 144.0
188.511963 160.0
188.604889 172.0
189.092926 120.0
189.120895 196.0
189.286102 68.0
189.680618 96.0
190.097488 180.0
190.119781 96.0
190.806137 200.0
190.828125 120.0
190.973877 156.0
191.068634 152.0
191.106918 10212.0
191.158203 120.0
191.196716 36.0
191.249023 104.0
191.304062 64.0
191.43898 44.0
191.515213 188.0
191.560165 108.0
191.780609 40.0
191.816437 64.0
191.976349 60.0
192.11058 816.0
192.19426 40.0
192.304642 68.0
192.343292 60.0
192.508942 140.0
192.713348 60.0
192.859802 52.0
193.114258 160.0
193.207001 108.0
193.241425 80.0
193.376541 92.0
193.70929 120.0
194.027969 80.0
194.116974 1336.0
194.255371 120.0
194.438492 48.0
194.59671 48.0
194.991165 92.0
195.021744 80.0
195.123169 204.0
195.901031 152.0
196.21315 88.0
198.009872 84.0
199.260925 68.0
199.859802 104.0
200.132828 188.0
200.290527 48.0
200.372223 80.0
201.121872 356.0
202.105774 96.0
207.128845 192.0
208.141449 160.0
212.109924 132.0
213.058838 40.0
213.41922 160.0
213.669357 168.0
217.962448 88.0
217.987961 136.0
218.076126 92.0
218.151978 1288.0
218.717331 68.0
219.076584 144.0
219.158554 416.0
220.138367 172.0
220.162003 208.0
220.305008 96.0
221.602539 88.0
224.286011 152.0
224.957169 80.0
225.040756 92.0
225.225906 156.0
225.958298 204.0
225.994202 60.0
226.143097 1864.0
226.227646 44.0
227.142044 192.0
227.246597 64.0
228.827484 128.0
228.911804 120.0
229.650146 48.0
230.909592 48.0
232.390884 108.0
233.159134 124.0
233.703445 108.0
234.080887 160.0
235.34935 124.0
236.703903 164.0
237.08989 152.0
240.093445 92.0
240.152039 132.0
240.790909 180.0
241.297684 152.0
243.945175 156.0
244.505035 96.0
245.364746 96.0
246.069824 96.0
247.188797 100.0
250.183487 568.0
251.898514 88.0
252.021729 40.0
255.159454 120.0
256.282959 84.0
256.748352 100.0
258.342163 68.0
259.963409 64.0
260.082153 148.0
260.107819 64.0
261.280762 120.0
261.67984 92.0
262.279022 76.0
264.067749 100.0
266.112488 104.0
266.356049 104.0
266.791504 160.0
267.061401 156.0
267.090668 108.0
267.536469 108.0
267.770905 164.0
267.823486 84.0
267.953339 92.0
268.109741 156.0
268.190308 9328.0
268.254425 80.0
268.282471 36.0
268.390076 88.0
268.55249 236.0
268.810852 64.0
268.934875 116.0
269.192505 1292.0
269.303802 44.0
269.689362 60.0
270.198517 280.0
270.791962 96.0
270.86731 96.0
270.942657 48.0
271.050751 128.0
271.194946 124.0
271.280182 44.0
273.023651 80.0
278.679504 32.0
278.882202 80.0
279.953461 128.0
281.07016 44.0
285.58609 40.0
287.098267 140.0
288.107483 116.0
289.115082 60.0
290.117645 128.0
293.163055 52.0
297.448517 68.0
299.064026 72.0
302.093628 172.0
303.132324 160.0
303.329865 52.0
303.846588 112.0
305.138519 108.0
307.716675 60.0
314.368317 100.0
315.328888 68.0
316.057373 128.0
316.613129 88.0
323.903931 72.0
325.690216 48.0
326.218445 120.0
327.078156 176.0
329.895386 116.0
331.109344 304.0
336.1716 72.0
343.067047 116.0
349.466766 92.0
350.84848 32.0
354.260376 108.0
357.090546 84.0
365.95697 48.0
370.881165 76.0
373.861481 80.0
377.828033 76.0
382.823425 60.0
383.750793 76.0
385.847321 116.0
403.87265 92.0
410.793671 76.0
414.651031 100.0
414.756409 100.0
425.128082 80.0
426.384735 92.0
427.264679 44.0
430.405273 48.0
431.155701 188.0
432.01712 80.0
443.170715 112.0
451.852325 56.0
453.686096 120.0
466.953156 92.0
474.457916 40.0
478.837891 60.0
484.027466 76.0
489.100922 72.0
499.481659 52.0
515.311401 100.0
520.347717 96.0
522.765808 64.0
537.876831 76.0
539.697021 80.0
543.722473 60.0
556.273499 100.0
565.668335 44.0
580.035095 64.0
584.843201 72.0
592.787781 92.0
631.347473 112.0
632.192932 56.0
634.346558 104.0
634.401733 84.0
642.907043 196.0
650.209717 52.0
652.221008 88.0
656.574158 44.0
659.652954 64.0
661.074768 156.0
667.250366 152.0
689.71814 64.0
690.523315 160.0
693.874573 72.0
697.975159 140.0
707.064453 80.0
713.812256 88.0
715.541504 52.0
716.937073 148.0
727.565125 136.0
734.409851 56.0
749.649719 144.0
760.412415 112.0
760.774719 156.0
763.505493 148.0
763.703491 56.0
769.815369 132.0
770.853882 92.0
771.821228 212.0
773.309326 204.0
777.66571 212.0
778.826172 180.0
781.027222 124.0
782.908386 68.0
783.816406 172.0
783.99469 104.0
785.589355 68.0
789.862671 160.0
791.373657 40.0
794.955444 136.0
801.337341 216.0
803.225891 172.0
803.629028 240.0
812.611084 136.0
814.217529 208.0
815.535583 180.0
818.613403 168.0
818.875427 268.0
819.17157 200.0
820.63623 36.0
821.828308 136.0
822.028015 164.0
823.934998 184.0
825.747009 100.0
827.778625 160.0
830.288635 100.0
836.942993 184.0
838.411865 216.0
839.195862 160.0
840.735962 116.0
841.220764 76.0
844.300415 256.0
844.601135 184.0
845.920471 152.0
846.036255 196.0
846.2099 232.0
846.864258 72.0
847.426208 200.0
848.927429 208.0
854.759583 68.0
860.173889 144.0
862.107117 200.0
863.264526 172.0
870.407654 176.0
871.359192 144.0
871.506042 140.0
872.364075 120.0
873.952026 208.0
878.659485 112.0
879.231873 56.0
889.679016 192.0
890.189575 148.0
891.205322 108.0
892.067078 136.0
893.589539 72.0
893.821533 196.0
895.393127 216.0
895.637329 160.0
895.976868 224.0
896.107971 72.0
896.614441 164.0
897.258179 176.0
902.213257 224.0
902.344788 224.0
903.325562 256.0
906.972229 176.0
907.397827 136.0
908.573303 132.0
909.671509 204.0
910.043701 40.0
910.223816 140.0
912.290649 108.0
915.533691 64.0
917.853699 132.0
918.981628 128.0
922.611328 168.0
923.330872 104.0
923.723999 148.0
926.532898 108.0
928.145081 136.0
928.769775 68.0
929.406738 160.0
931.847534 204.0
934.029968 212.0
935.246887 172.0
936.05658 152.0
937.488098 132.0
937.78064 160.0
938.073242 140.0
938.341431 200.0
938.426819 152.0
941.685425 76.0
946.724792 148.0
947.484314 176.0
948.593506 80.0
949.286316 160.0
949.458008 112.0
949.991638 76.0
951.562744 132.0
952.176758 48.0
952.514587 200.0
953.755798 128.0
953.829529 48.0
954.075439 112.0
955.182312 164.0
955.742188 172.0
955.945251 204.0
957.379578 156.0
960.023315 200.0
963.102966 48.0
963.813416 112.0
964.623047 172.0
965.575195 176.0
967.177673 200.0
967.883423 204.0
968.255005 208.0
969.270935 168.0
969.413452 52.0
973.563538 188.0
973.824402 128.0
974.110107 268.0
974.315125 128.0
975.589111 176.0
976.173523 44.0
976.783081 244.0
977.14386 112.0
978.575317 188.0
979.036133 144.0
981.048645 92.0
981.360352 248.0
981.734497 176.0
982.308289 100.0
982.81366 88.0
983.281677 200.0
983.937073 252.0
984.5802 176.0
985.261047 116.0
985.323547 132.0
985.967102 84.0
986.179626 212.0
986.561279 196.0
986.642212 28.0
988.130615 64.0
988.543579 128.0
988.73761 96.0
989.081848 196.0
989.926453 184.0
992.565125 140.0
992.790894 148.0
992.84729 164.0
993.261292 80.0
994.96814 192.0
996.123657 224.0
996.594788 144.0
996.820984 132.0
997.480103 188.0
997.946106 168.0
999.159973 140.0
999.480835 32.0
1001.545776 84.0
1001.684326 176.0
1002.415161 188.0
1003.587585 128.0
1004.060547 144.0
1004.243408 168.0
1004.445251 156.0
1004.558777 128.0
1004.798523 208.0
1005.16449 156.0
1005.732483 180.0
1005.80188 100.0
1007.576355 200.0
1007.778564 176.0
1008.359924 204.0
1008.859253 116.0
1009.067871 132.0
1010.400269 160.0
1011.870605 140.0
1012.028931 188.0
1012.535522 92.0
1012.592468 216.0
1012.88385 120.0
1013.118225 84.0
1013.187927 144.0
1013.92926 200.0
1014.423645 168.0
1015.00061 112.0
1015.146423 100.0
1015.425476 136.0
1015.774353 68.0
1016.186707 164.0
1016.903748 208.0
1016.979919 64.0
1017.595642 160.0
1018.897644 44.0
1019.888916 188.0
1021.31958 152.0
1022.490234 140.0
1023.489685 116.0
1023.878113 188.0
1024.031006 112.0
1024.5979 148.0
1024.884644 140.0
1027.078125 212.0
1028.309082 208.0
1028.372925 136.0
1028.634521 164.0
1029.279419 28.0
1029.330444 184.0
1030.218262 176.0
1030.818848 236.0
1031.819702 176.0
1032.17688 208.0
1032.282715 104.0
1032.608887 200.0
1032.666382 48.0
1032.839111 140.0
1034.573242 148.0
1037.872681 160.0
1038.000977 288.0
1038.776978 216.0
1038.821899 112.0
1040.297852 208.0
1040.657349 56.0
1041.299561 152.0
1041.350952 236.0
1041.916138 220.0
1042.616577 184.0
1043.214355 72.0
1043.439331 176.0
1043.683594 168.0
1045.967529 224.0
1046.134888 148.0
1046.778687 244.0
1046.958984 184.0
1047.242432 124.0
1048.29248 172.0
1048.608276 328.0
1049.291504 144.0
1049.459229 172.0
1049.626831 132.0
1051.129761 52.0
1051.762207 48.0
1052.156006 160.0
1052.801758 172.0
1052.87915 192.0
1053.137573 116.0
1053.505737 44.0
1057.087646 200.0
1057.443604 128.0
1058.045532 232.0
1058.13623 160.0
1058.978027 172.0
1059.450806 176.0
1059.949707 160.0
1060.189453 180.0
1060.396851 184.0
1060.487671 92.0
1060.532959 136.0
1060.740479 112.0
1061.356323 52.0
1061.790771 212.0
1061.855591 116.0
1062.011353 136.0
1062.893555 164.0
1063.231079 196.0
1063.40625 124.0
1063.860596 188.0
1064.458008 160.0
1064.873535 160.0
1065.036011 132.0
1066.030029 144.0
1066.536865 152.0
1067.076416 132.0
1067.616089 60.0
1067.739746 176.0
1068.481201 192.0
1068.539795 56.0
1068.800049 160.0
1069.405273 220.0
1069.500977 208.0
1069.808838 164.0
1070.062744 96.0
1070.720459 156.0
1070.779053 196.0
1072.994507 204.0
1074.122681 128.0
1076.380859 232.0
1077.125366 60.0
1078.765503 68.0
1079.170776 144.0
1079.255859 136.0
1080.269531 148.0
1081.964478 136.0
1082.979492 168.0
1084.217651 56.0
1085.174683 48.0
1085.463257 120.0
1085.528809 196.0
1085.699341 152.0
1086.283081 152.0
1086.755371 168.0
1086.89978 192.0
1087.700439 144.0
1087.963013 160.0
1088.04834 196.0
1088.954468 236.0
1090.367065 68.0
1090.971802 132.0
1091.537231 368.0
1091.984375 160.0
1092.109375 176.0
1092.313232 144.0
1092.648804 96.0
1092.872437 52.0
1093.912231 128.0
1094.155884 116.0
1095.650757 128.0
1096.355835 200.0
1096.572144 204.0
1096.691895 144.0
1097.674194 136.0
1097.964355 172.0
1098.465698 196.0
1098.960449 180.0
1100.333252 64.0
1100.498291 160.0
1101.89856 132.0
1103.72937 128.0
1104.701538 96.0
1105.244019 128.0
1105.740356 164.0
1105.952148 184.0
1106.071289 184.0
1106.402344 216.0
1108.604126 172.0
1108.859741 224.0
1109.529297 168.0
1109.824585 36.0
1110.086182 224.0
1110.197632 224.0
1111.439331 184.0
1111.625122 176.0
1111.671631 104.0
1111.957031 180.0
1112.381836 208.0
1113.138672 168.0
1113.191772 168.0
1113.530518 164.0
1113.636719 124.0
1114.912354 108.0
1115.031982 168.0
1115.158203 156.0
1115.350952 196.0
1116.182007 180.0
1117.525635 132.0
1118.470581 188.0
1118.790161 156.0
1119.795532 36.0
1120.068604 84.0
1120.494995 172.0
1120.614868 196.0
1121.52124 104.0
1121.887817 44.0
1122.034546 176.0
1122.798584 240.0
1123.394897 164.0
1123.708496 96.0
1123.775269 288.0
1123.855347 136.0
1124.048828 144.0
1124.229004 208.0
1125.130005 124.0
1125.450562 76.0
1125.750977 164.0
1126.004761 220.0
1126.218506 212.0
1126.291992 192.0
1127.013428 160.0
1127.434448 160.0
1127.63501 140.0
1127.855469 48.0
1127.956909 216.0
1128.229858 84.0
1128.323486 180.0
1129.868286 140.0
1130.919067 160.0
1131.548218 156.0
1131.695435 40.0
1132.11731 160.0
1132.766968 164.0
1132.860718 120.0
1133.550415 172.0
1134.462402 216.0
1135.14624 192.0
1135.338989 276.0
1135.535156 164.0
1135.615723 148.0
1135.682739 160.0
1137.910645 156.0
1137.957642 160.0
1138.004639 232.0
1138.360596 160.0
1138.447876 180.0
1138.656006 224.0
1138.736572 128.0
1138.803833 168.0
1139.226929 156.0
1139.294189 140.0
1139.529297 88.0
1139.623291 28.0
1139.771118 104.0
1139.89209 120.0
1140.033203 192.0
1140.120605 160.0
1140.275146 200.0
1140.967529 236.0
1141.169189 180.0
1141.350708 80.0
1142.736328 96.0
1143.961182 124.0
1144.338135 64.0
1146.156738 48.0
1146.251099 240.0
1147.632812 136.0
1148.091309 44.0
1148.13855 168.0
1148.226196 256.0
1149.116699 180.0
1149.453979 204.0
1150.115356 48.0
1150.432617 204.0
1151.37793 152.0
1151.695435 180.0
1151.98584 220.0
1152.134399 172.0
1152.911499 176.0
1153.229126 188.0
1154.304077 144.0
1154.527222 140.0
1155.081787 196.0
1155.25769 148.0
1155.871582 200.0
1156.374146 208.0
1156.74646 224.0
1157.761963 188.0
1158.087158 112.0
1158.595093 48.0
1158.730591 212.0
1159.387939 68.0
1159.957275 60.0
1160.561157 200.0
1160.655518 132.0
1160.757202 72.0
1160.845337 184.0
1161.218384 160.0
1161.286255 176.0
1161.48291 148.0
1161.530396 132.0
1161.652466 72.0
1161.866577 224.0
1163.437256 120.0
1163.579834 56.0
1164.06189 152.0
1164.476196 116.0
1164.999146 220.0
1165.807739 196.0
1165.916382 156.0
1166.201904 112.0
1166.745728 172.0
1167.616089 152.0
1167.765625 164.0
1168.445923 144.0
1169.507446 160.0
1169.609619 200.0
1170.004395 60.0
1170.208618 332.0
1170.459839 176.0
1171.046265 132.0
1171.509399 52.0
1171.591187 152.0
1171.693359 136.0
1171.870483 192.0
1172.708618 192.0
1172.849243 196.0
1172.974487 196.0
1173.709717 260.0
1174.242676 124.0
1174.747437 176.0
1175.224976 140.0
1175.593506 188.0
1175.893799 200.0
1176.043945 124.0
1176.808472 160.0
1177.044189 184.0
1177.354736 176.0
1177.573242 124.0
1177.696289 184.0
1177.860229 160.0
1178.474976 100.0
1178.543335 148.0
1178.741455 188.0
1179.568481 172.0
1180.012817 184.0
1180.252075 176.0
1180.655518 288.0
1181.640503 176.0
1182.194824 172.0
1182.755981 104.0
1183.37207 116.0
1184.125366 180.0
1184.344604 176.0
1184.502075 176.0
1184.5448 160.0
1184.858276 232.0
1185.022705 188.0
1185.235107 220.0
1185.340942 176.0
1185.3927 236.0
1186.146606 208.0
1186.372803 104.0
1187.62085 148.0
1187.998169 124.0
1189.144043 124.0
1189.425415 252.0
1190.276733 236.0
1190.359131 140.0
1191.698486 164.0
1191.918457 116.0
1192.344482 160.0
1192.516235 120.0
1192.619385 204.0
1192.78833 136.0
1193.691895 124.0
1193.960083 172.0
1195.067505 172.0
1195.445557 168.0
1195.569824 180.0
1195.810791 168.0
1197.151611 188.0
1197.71106 200.0
1198.689331 164.0
1200.357544 168.0
1200.630249 228.0
1201.033325 136.0
1201.661133 80.0
1202.061279 156.0
1202.378784 164.0
1202.461548 192.0
1203.517822 176.0
1203.600586 84.0
1204.463867 156.0
1205.375854 196.0
1205.70752 172.0
1205.845825 168.0
1205.901123 184.0
1206.585449 152.0
1206.903442 140.0
1207.93396 132.0
1208.70874 240.0
1209.144775 68.0
1209.393921 140.0
1209.643066 136.0
1209.719238 168.0
1210.300781 116.0
1210.577759 152.0
1211.120117 168.0
1211.505859 176.0
1211.741455 128.0
1212.371948 184.0
1212.475952 184.0
1212.62146 132.0
1212.70459 144.0
1213.162109 208.0
1213.300781 172.0
1213.977295 224.0
1214.930542 176.0
1215.090088 240.0
1215.17334 252.0
1215.874146 196.0
1216.408569 128.0
1216.464111 32.0
1217.005615 168.0
1217.130615 80.0
1217.429199 136.0
1217.644531 224.0
1218.075195 144.0
1218.359985 152.0
1218.57959 236.0
1219.339722 60.0
1219.714233 136.0
1219.923584 112.0
1220.097412 116.0
1220.36853 168.0
1220.584106 136.0
1220.931763 188.0
1222.399536 120.0
1222.657104 200.0
1223.6604 148.0
1223.770752 108.0
1225.00354 72.0
1225.532959 176.0
1225.651367 180.0
1226.29248 44.0
1227.226685 148.0
1227.742676 144.0
1227.80542 112.0
1229.458862 136.0
1229.800781 144.0
1230.92688 212.0
1231.092407 56.0
1231.602173 68.0
1231.860596 248.0
1231.993408 48.0
1232.580322 144.0
1232.650146 200.0
1233.160278 208.0
1233.251221 212.0
1233.600708 200.0
1233.978149 164.0
1234.125 120.0
1234.425659 196.0
1235.460815 152.0
1235.579712 204.0
1235.635742 88.0
1236.0625 224.0
1236.306641 140.0
1236.776367 200.0
1237.966553 288.0
1238.330688 128.0
1238.393799 220.0
1238.484863 156.0
1238.828003 144.0
1240.460815 48.0
1240.895386 124.0
1240.944458 192.0
1241.379272 144.0
1241.617676 184.0
1242.312134 188.0
1242.662842 208.0
1242.978638 164.0
1243.266357 176.0
1243.37854 104.0
1243.806763 100.0
1243.933105 172.0
1244.27002 196.0
1244.368286 120.0
1245.793945 168.0
1246.166382 176.0
1246.229614 136.0
1246.960449 168.0
1247.116211 240.0
1247.311768 188.0
1247.635132 144.0
1247.740601 376.0
1247.862061 188.0
1248.007812 180.0
1248.296143 184.0
1248.598511 104.0
1248.696899 196.0
1249.231567 184.0
1249.400391 160.0
1249.780273 140.0
1250.026611 124.0
1250.69519 200.0
1250.934448 104.0
1251.694824 100.0
1251.997681 168.0
1252.680908 144.0
1252.758301 140.0
1252.955566 120.0
1253.068359 168.0
1254.576416 152.0
1255.112305 168.0
1255.182861 140.0
1255.514282 160.0
1255.619995 68.0
1255.669434 188.0
1255.71875 160.0
1256.057373 124.0
1256.325439 68.0
1256.755737 172.0
1257.136841 196.0
1257.306152 52.0
1257.750854 184.0
1258.119995 108.0
1258.237915 224.0
1258.534424 204.0
1258.873413 172.0
1258.95813 64.0
1259.155884 204.0
1259.473633 96.0
1260.39917 68.0
1260.745361 56.0
1260.886719 248.0
1261.579468 172.0
1261.713745 204.0
1261.83606 188.0
1262.795654 196.0
1263.32373 196.0
1263.72937 176.0
1263.89917 116.0
1263.998291 72.0
1264.295532 156.0
1264.713013 172.0
1264.854614 144.0
1265.180298 176.0
1265.470581 120.0
1265.746704 140.0
1266.015747 160.0
1266.440674 156.0
1267.205811 200.0
1268.00647 96.0
1269.140747 184.0
1270.154785 204.0
1270.509521 148.0
1270.871338 196.0
1270.949341 232.0
1271.850708 52.0
1271.935913 156.0
1272.241089 228.0
1272.77356 156.0
1272.837524 192.0
1273.299072 92.0
1273.696777 184.0
1274.776733 156.0
1274.897583 216.0
1275.302612 168.0
1275.437744 212.0
1275.543335 168.0
1275.601196 160.0
1276.063232 168.0
1276.674805 72.0
1276.788574 180.0
1277.286377 172.0
1277.54248 140.0
1277.677734 188.0
1278.047607 88.0
1278.140137 172.0
1278.474609 204.0
1279.67041 184.0
1280.069214 136.0
1280.460815 136.0
1280.745728 208.0
1281.03064 80.0
1281.379761 160.0
1281.486572 148.0
1281.550781 156.0
1282.5448 132.0
1282.9823 180.0
1283.09729 176.0
1283.330688 132.0
1283.760498 60.0
1283.995728 148.0
1284.15979 148.0
1284.288208 216.0
1284.338135 228.0
1285.315552 204.0
1286.293213 48.0
1286.661621 184.0
1286.978638 156.0
1287.064331 188.0
1288.085571 96.0
1288.457031 140.0
1288.578491 252.0
1288.657104 212.0
1288.75708 176.0
1288.835693 184.0
1289.064697 168.0
1289.23584 180.0
1289.407349 132.0
1289.657471 124.0
1290.350952 164.0
1290.408081 80.0
1290.794189 140.0
1291.001587 152.0
1292.117432 52.0
1292.281982 56.0
1292.768555 96.0
1293.004761 320.0
1293.169312 164.0
1293.484253 88.0
1294.057007 28.0
1294.923462 160.0
1295.274414 216.0
1295.476074 220.0
1295.675537 172.0
1295.73291 164.0
1296.291748 164.0
1296.348267 164.0
1296.456543 168.0
1296.807739 152.0
1297.130249 148.0
1297.395508 152.0
1297.675171 140.0
1299.661865 108.0
1299.826904 128.0
1300.121094 220.0
1300.587646 172.0
1300.702515 200.0
1300.993286 100.0
1301.197876 180.0
1301.42041 48.0
1302.361206 168.0
1302.626953 104.0
1302.993286 176.0
1303.079468 160.0
1303.295044 180.0
1303.740601 168.0
1303.984985 188.0
1304.653442 208.0
1305.221436 32.0
1305.487427 152.0
1306.012451 204.0
1306.271484 348.0
1306.717407 48.0
1307.062866 112.0
1307.213989 124.0
1307.329102 268.0
1307.74646 120.0
1308.192749 140.0
1308.473511 136.0
1309.388062 164.0
1309.575317 136.0
1309.690552 176.0
1309.82019 160.0
1310.000244 176.0
1310.994507 168.0
1311.16748 156.0
1311.334961 136.0
1311.852295 176.0
1312.501099 152.0
1312.695801 172.0
1312.789551 140.0
1313.078003 208.0
1313.691162 140.0
1313.813721 188.0
1314.297119 120.0
1314.491943 96.0
1314.54248 120.0
1315.069336 156.0
1315.524048 156.0
1315.740601 48.0
1316.144897 144.0
1317.08374 44.0
1317.199341 220.0
1317.249878 120.0
1317.546143 196.0
1318.413208 180.0
1319.018188 176.0
1319.280518 112.0
1319.938477 184.0
1320.307251 160.0
1320.401245 80.0
1320.553101 176.0
1321.22583 192.0
1321.602051 160.0
1321.830811 208.0
1321.846313 128.0
1321.871826 176.0
1322.702148 132.0
1322.832397 56.0
1323.266724 192.0
1323.520142 144.0
1323.69397 176.0
1323.864868 228.0
1324.041626 176.0
1324.396484 208.0
1325.425171 204.0
1325.628052 40.0
1325.910767 188.0
1326.374512 184.0
1326.853027 144.0
1327.215576 140.0
1327.324341 180.0
1328.209106 208.0
1328.513794 176.0
1328.994629 208.0
1329.725464 188.0
1329.964966 52.0
1330.052124 72.0
1330.52771 236.0
1331.911011 128.0
1332.397705 124.0
1332.833618 180.0
1333.066162 312.0
1333.436768 116.0
1334.149048 88.0
1334.512573 144.0
1334.592651 180.0
1336.112671 180.0
1336.578247 192.0
1336.828613 224.0
1336.913086 52.0
1337.087646 188.0
1337.407959 180.0
1337.524414 84.0
1337.757324 120.0
1337.873779 124.0
1337.953857 192.0
1338.456299 176.0
1338.827637 168.0
1338.876709 212.0
1339.541382 176.0
1339.949341 204.0
1340.27002 196.0
1340.809204 136.0
1341.202759 216.0
1341.319458 120.0
1341.46521 440.0
1341.559937 180.0
1341.654785 196.0
1341.749512 100.0
1341.953613 132.0
1342.135742 208.0
1342.216187 108.0
1342.908936 172.0
1342.959961 180.0
1343.302856 80.0
1343.463257 44.0
1343.558105 168.0
1343.685669 212.0
1343.842651 152.0
1344.004761 152.0
1344.098022 180.0
1344.871582 180.0
1345.090576 220.0
1345.316162 204.0
1345.64856 176.0
1346.302612 156.0
1346.360962 148.0
1346.455933 152.0
1346.645874 160.0
1346.976807 156.0
1347.596069 156.0
1347.756226 184.0
1347.822021 196.0
1347.916992 116.0
1348.351562 84.0
1348.640503 120.0
1348.698975 236.0
1348.976685 168.0
1349.759033 192.0
1350.197754 164.0
1350.468384 104.0
1350.563477 152.0
1351.368164 184.0
1351.463257 176.0
1351.609619 212.0
1351.690063 152.0
1352.689819 232.0
1352.817261 144.0
1353.666504 200.0
1353.761719 140.0
1354.223145 104.0
1354.552734 188.0
1354.625977 180.0
1354.68457 208.0
1354.754517 124.0
1354.875 32.0
1355.190063 140.0
1355.622437 136.0
1355.910889 224.0
1355.988281 168.0
1356.758423 160.0
1356.817139 156.0
1357.161743 156.0
1357.477051 144.0
1357.870605 196.0
1358.973389 188.0
1359.211914 168.0
1359.523682 180.0
1359.760132 180.0
1360.008057 132.0
1360.132812 108.0
1360.433838 176.0
1360.683472 112.0
1360.822876 176.0
1361.145996 80.0
1361.983276 108.0
1362.225586 144.0
1362.519531 180.0
1362.570923 260.0
1363.18811 192.0
1363.599609 136.0
1363.680542 272.0
1363.790771 144.0
1363.952393 216.0
1364.003906 128.0
1364.906494 220.0
1365.040527 196.0
1365.584717 128.0
1365.702393 156.0
1366.092285 172.0
1366.761719 216.0
1367.11499 68.0
1367.181274 124.0
1367.252075 240.0
1367.357788 128.0
1368.093872 176.0
1368.432617 188.0
1368.786011 172.0
1368.955322 192.0
1369.124756 192.0
1369.382446 104.0
1369.469604 168.0
1370.126465 208.0
1370.524292 200.0
1370.632935 140.0
1371.268677 64.0
1371.629761 264.0
1371.777222 152.0
1372.728271 156.0
1373.664917 156.0
1373.75354 132.0
1374.144531 184.0
1374.395386 120.0
1374.528198 188.0
1374.70459 172.0
1375.015259 192.0
1375.11853 68.0
1375.782837 116.0
1375.893555 116.0
1376.115112 216.0
1377.030762 180.0
1377.414795 128.0
1377.769409 148.0
1377.865479 108.0
1377.939331 192.0
1378.752197 144.0
1378.959106 140.0
1379.276978 200.0
1379.578735 164.0
1379.786987 124.0
1379.883057 160.0
1379.934814 200.0
1380.03833 176.0
1380.197632 184.0
1380.770386 152.0
1381.708984 184.0
1381.843018 100.0
1382.0354 168.0
1382.094604 132.0
1382.679199 168.0
1383.995605 188.0
1384.470703 184.0
1385.004028 132.0
1385.063232 180.0
1385.463257 28.0
1385.811523 192.0
1385.878174 148.0
1385.960083 160.0
1386.263428 160.0
1386.55249 192.0
1386.611816 36.0
1386.81189 200.0
1387.056519 200.0
1387.323364 184.0
1387.901611 184.0
1388.294678 124.0
1388.628418 116.0
1388.917603 152.0
1389.340454 128.0
1389.696655 164.0
1390.431274 56.0
1390.601929 252.0
1390.765259 164.0
1390.902344 152.0
1390.966919 120.0
1391.39624 184.0
1391.492676 248.0
1391.804565 144.0
1392.205566 148.0
1393.104248 168.0
1393.252808 164.0
1394.293091 96.0
1394.582886 116.0
1394.694458 160.0
1394.999146 192.0
1395.140381 304.0
1395.192505 76.0
1395.311401 248.0
1395.658447 188.0
1395.689941 128.0
1395.714966 176.0
1395.921143 176.0
1396.054932 156.0
1396.687134 128.0
1397.044189 176.0
1397.341797 116.0
1397.401367 172.0
1397.490601 132.0
1398.137939 100.0
1398.25708 144.0
1398.443115 56.0
1398.565796 176.0
1398.658936 200.0
1398.901978 136.0
1399.031128 184.0
1399.12793 160.0
1399.24707 180.0
1399.395996 172.0
1399.939575 84.0
1400.058716 176.0
1400.490601 108.0
1401.034424 232.0
1401.958374 100.0
1402.174438 188.0
1402.539673 108.0
1403.098755 156.0
1403.280762 224.0
1404.232178 196.0
1404.523071 196.0
1405.358643 188.0
1405.530273 188.0
1405.709351 156.0
1405.803955 164.0
1406.173218 156.0
1406.649658 176.0
1406.746704 184.0
1407.418701 212.0
1407.523193 224.0
1407.762207 148.0
1408.277466 136.0
1408.8302 80.0
1409.405518 120.0
1409.960693 224.0
1410.160278 156.0
1410.54895 132.0
1410.638672 168.0
1410.900269 152.0
1411.184448 168.0
1411.281616 180.0
1411.483521 272.0
1412.40332 52.0
1412.487793 208.0
1412.904541 128.0
1413.015625 180.0
1413.196289 116.0
1413.720093 84.0
1414.04187 220.0
1414.101807 248.0
1414.333862 208.0
1414.476074 252.0
1415.112427 132.0
1415.441772 148.0
1415.636475 44.0
1415.759277 132.0
1416.085815 168.0
1416.320557 164.0
1416.744995 168.0
1416.902344 120.0
1416.984741 144.0
1417.621704 136.0
1418.423584 184.0
1418.551025 144.0
1419.203247 256.0
1419.368286 260.0
1419.765625 52.0
1419.818115 220.0
1419.893188 160.0
1420.058105 96.0
1420.335693 156.0
1420.440674 180.0
1420.789551 72.0
1420.878906 176.0
1421.160889 212.0
1421.401001 108.0
1421.604736 180.0
1422.294067 144.0
1422.584229 192.0
1423.924927 208.0
1424.434082 204.0
1425.418335 148.0
1426.305176 148.0
1426.583252 164.0
1426.968872 224.0
1427.485474 108.0
1428.034546 172.0
1428.809326 148.0
1428.868042 184.0
1430.071777 184.0
1430.178833 164.0
1430.321899 200.0
1430.377319 108.0
1430.464844 52.0
1430.615356 144.0
1430.991821 60.0
1431.165039 180.0
1431.812622 260.0
1432.08374 220.0
1432.144043 188.0
1432.48291 184.0
1432.611084 220.0
1432.831665 180.0
1433.010376 112.0
1433.515869 156.0
1433.643311 204.0
1434.095459 128.0
1434.502441 92.0
1434.886963 172.0
1435.015137 140.0
1435.211182 112.0
1435.972778 164.0
1436.116089 148.0
1436.244385 204.0
1437.383545 168.0
1437.526855 276.0
1437.753296 152.0
1437.85144 228.0
1437.934448 80.0
1438.349487 184.0
1438.500488 176.0
1439.232788 288.0
1439.338501 164.0
1439.474487 160.0
1439.54248 144.0
1439.844482 224.0
1440.025757 104.0
1440.199463 204.0
1441.311157 168.0
1441.498901 160.0
1441.87085 144.0
1442.080811 160.0
1442.632568 80.0
1443.01062 208.0
1443.161865 136.0
1443.471802 200.0
1443.955811 64.0
1444.023926 148.0
1444.341553 156.0
1444.515503 68.0
1444.62146 152.0
1444.787842 84.0
1445.309937 144.0
1445.408325 168.0
1445.657959 184.0
1445.718506 192.0
1446.074219 252.0
1446.157471 176.0
1446.225586 64.0
1446.869019 156.0
1446.994873 196.0
1447.293091 112.0
1447.785278 172.0
1447.91394 164.0
1448.02002 60.0
1448.40625 212.0
1448.576172 176.0
1448.716187 172.0
1448.741211 156.0
1448.756592 204.0
1448.883545 244.0
1449.277466 148.0
1449.342041 176.0
1449.482056 148.0
1450.005005 160.0
1450.356812 200.0
1450.467285 248.0
1450.793335 148.0
1451.02832 128.0
1451.794189 116.0
1451.923096 164.0
1452.176025 220.0
1452.385742 128.0
1452.651245 148.0
1452.719482 116.0
1452.795288 164.0
1452.931885 196.0
1453.068481 228.0
1453.720947 208.0
1454.328125 216.0
1454.517944 188.0
1454.71521 108.0
1455.072021 180.0
1455.368164 156.0
1455.871582 224.0
1456.317383 232.0
1456.940308 188.0
1457.092285 140.0
1457.32019 44.0
1457.844482 100.0
1458.011719 160.0
1458.224487 60.0
1459.357178 112.0
1459.653687 156.0
1460.429321 168.0
1460.496826 216.0
1460.649902 184.0
1461.821655 128.0
1462.004272 164.0
1462.407593 188.0
1462.544678 52.0
1462.859619 188.0
1463.092651 156.0
1463.503784 120.0
1463.80835 160.0
1464.135864 216.0
1464.204346 156.0
1464.498535 180.0
1464.63855 184.0
1464.859375 128.0
1464.958496 172.0
1465.796509 196.0
1466.230957 260.0
1466.777954 180.0
1467.202393 124.0
1467.587769 184.0
1467.936768 176.0
1468.312256 124.0
1468.545898 132.0
1468.647827 128.0
1468.792725 212.0
1468.96814 76.0
1469.380127 116.0
1469.479248 120.0
1469.555542 164.0
1469.784546 188.0
1469.868408 168.0
1469.944702 192.0
1470.204224 60.0
1470.433105 196.0
1471.234619 80.0
1471.310913 52.0
1471.409668 168.0
1471.509521 76.0
1471.944702 40.0
1472.670166 136.0
1472.914551 176.0
1473.111694 204.0
1473.189575 168.0
1473.334717 156.0
1473.915405 156.0
1474.312744 152.0
1474.4198 216.0
1474.603149 148.0
1474.8927 176.0
1475.397827 232.0
1475.787354 180.0
1476.177979 180.0
1476.43042 176.0
1477.172241 156.0
1477.241089 128.0
1477.371216 200.0
1477.53186 76.0
1477.998535 124.0
1478.072632 204.0
1478.289307 140.0
1478.54187 56.0
1479.046997 112.0
1479.217407 168.0
1479.567505 144.0
1480.302612 188.0
1480.486328 200.0
1480.616577 124.0
1480.73877 236.0
1480.991821 152.0
1482.286621 132.0
1482.393799 160.0
1482.608398 156.0
1483.006958 140.0
1483.321167 212.0
1483.397827 160.0
1483.528198 72.0
1484.164551 152.0
1484.269531 208.0
1485.376221 172.0
1485.652466 136.0
1485.828857 52.0
1486.06665 156.0
1486.588501 260.0
1486.864746 220.0
1486.979858 136.0
1487.501831 140.0
1487.871094 260.0
1488.016113 68.0
1488.131348 108.0
1488.330933 144.0
1488.387085 224.0
1488.691895 148.0
1488.776367 220.0
1489.544312 200.0
1489.702026 124.0
1489.762695 108.0
1490.02063 48.0
1490.120483 56.0
1490.304932 176.0
1490.689087 48.0
1490.765991 176.0
1490.99646 168.0
1491.252075 188.0
1491.619141 172.0
1492.195679 124.0
1492.61084 200.0
1492.918457 160.0
1493.033813 80.0
1494.039551 220.0
1494.187622 108.0
1494.36084 212.0
1494.918579 112.0
1495.357178 248.0
1495.434204 140.0
1496.051758 228.0
1496.203979 128.0
1496.257812 144.0
1496.319458 176.0
1496.658203 168.0
1496.943115 68.0
1497.204956 116.0
1497.536133 140.0
1497.774902 212.0
1498.591431 84.0
1498.71106 160.0
1499.10437 200.0
1499.207886 220.0
1499.647217 136.0
1499.762817 256.0
1499.970947 220.0
1500.024902 184.0
1500.155884 200.0
1500.348633 112.0
1500.541382 132.0
1500.687866 144.0
1501.057983 116.0
1501.150513 140.0
1501.497559 144.0
1501.736694 200.0
1502.216919 256.0
1502.36145 176.0
1502.423218 132.0
1503.341309 124.0
1503.487915 184.0
1503.657715 64.0
1504.105469 208.0
1504.171997 192.0
1504.463379 224.0
1504.530029 60.0
1504.645752 240.0
1504.759033 144.0
1504.831055 208.0
