>compound MLS002222192-01!
>formula C21H27ClN2O2
>ionization [M+H]+
>parentmass 375.18338223609055
#inchi InChI=1S/C21H27ClN2O2/c22-20-8-6-19(7-9-20)21(18-4-2-1-3-5-18)24-12-10-23(11-13-24)14-16-26-17-15-25/h1-9,21,25H,10-17H2
#inchikey ZQDWXGKKHFNSQK
#origInchi InChI=1S/C21H27ClN2O2.ClH/c22-20-8-6-19(7-9-20)21(18-4-2-1-3-5-18)24-12-10-23(11-13-24)14-16-26-17-15-25;/h1-9,21,25H,10-17H2;1H
#Ion_Source LC-ESI
#Instrument qTof
#Compound_Source NIH Pharmacologically Active Library
#PI Dorrestein
#Data_Collector VP/LMS
#Scan -1
#Precursor_MZ 375.192
#ExactMass 374.176
#Charge 1
#CAS_Number N/A
#Pubmed_ID N/A
#Smiles OCCOCCN1CCN(CC1)C(c2ccccc2)c3ccc(Cl)cc3.Cl
#INCHI_AUX N/A
#Library_Class 1
#SpectrumID CCMSLIB00000086047
#IonMode Positive
#UpdateWorkflowName UPDATE-SINGLE-ANNOTATED-GOLD
#LibraryQualityString Gold
#TaskID d252d724072548979f1f6f1ced849daf
##Scan# 1734
#SpectrumFile p5-C03_GC3_01_18448.mzXML
#LibraryName Pharm_Active_Library.mgf
#MQScore -1
#Organism Pharm_Active_Library
#TIC_Query 0
#RT_Query -1
#MZErrorPPM -1
#SharedPeaks 0
#MassDiff 0
#LibMZ -1
#SpecMZ 375.192
#SpecCharge 0
#internalFilename spec-00000.mgf

>collision 10
44.8997 92.0
44.919609 168.0
44.942722 156.0
44.951939 144.0
44.972637 108.0
44.983116 192.0
44.994843 148.0
44.998692 48.0
45.005119 248.0
45.043812 372.0
45.057899 196.0
45.075272 152.0
45.101997 172.0
45.118038 104.0
45.130936 136.0
45.151402 164.0
45.161964 160.0
45.208565 188.0
45.252304 168.0
45.289318 176.0
45.313656 48.0
45.334549 184.0
45.356983 176.0
45.361431 88.0
45.369171 196.0
45.385937 204.0
45.415909 164.0
45.430157 116.0
45.449005 168.0
45.460922 120.0
45.479477 136.0
45.493137 304.0
45.508015 108.0
45.545506 140.0
45.564499 144.0
45.583122 196.0
45.593872 56.0
45.605511 200.0
45.622238 176.0
45.654175 140.0
45.701447 72.0
45.712212 172.0
45.737782 48.0
45.751904 212.0
45.754124 284.0
45.768745 252.0
45.796116 196.0
45.811726 188.0
45.830669 168.0
45.861839 152.0
45.921482 140.0
45.945301 84.0
45.958794 120.0
45.976334 120.0
45.993374 192.0
46.020878 124.0
46.043835 156.0
46.067116 152.0
46.083672 220.0
46.09771 100.0
46.112736 136.0
46.12355 196.0
46.152111 156.0
46.164642 192.0
46.184032 140.0
46.200626 204.0
46.218517 160.0
46.221333 200.0
46.226997 236.0
46.243664 144.0
46.255539 276.0
46.279549 204.0
46.304039 160.0
46.320679 140.0
46.332714 196.0
46.346378 220.0
46.356331 116.0
46.383347 124.0
46.419346 204.0
46.424374 184.0
46.431751 220.0
46.459373 304.0
46.470951 180.0
46.479023 232.0
46.491283 244.0
46.515594 200.0
46.530594 200.0
46.541691 144.0
46.564533 160.0
46.586884 168.0
46.608047 128.0
46.620945 188.0
46.640934 104.0
46.665184 176.0
46.694759 108.0
46.713966 212.0
46.736942 276.0
46.753422 180.0
46.780079 132.0
46.80658 224.0
46.82148 128.0
46.838177 172.0
46.874054 132.0
46.88839 268.0
46.912125 124.0
46.928684 244.0
46.955845 48.0
46.966755 156.0
46.981762 144.0
46.99472 120.0
47.002743 116.0
47.017666 356.0
47.033615 60.0
47.051823 212.0
47.101887 100.0
47.11145 40.0
47.132496 148.0
47.162006 180.0
47.171574 164.0
47.189106 136.0
47.201653 160.0
47.230373 176.0
47.248234 136.0
47.265942 100.0
47.299824 196.0
47.323429 176.0
47.33712 168.0
47.348076 120.0
47.371925 204.0
47.39753 316.0
47.416576 164.0
47.437134 192.0
47.451633 132.0
47.462727 60.0
47.493435 140.0
47.511185 192.0
47.525967 228.0
47.54343 128.0
47.549313 132.0
47.552788 148.0
47.559109 212.0
47.579803 164.0
47.603146 152.0
47.618484 148.0
47.639709 192.0
47.658089 140.0
47.667706 108.0
47.691086 144.0
47.714241 112.0
47.748196 144.0
47.774948 140.0
47.785538 172.0
47.802464 88.0
47.812096 184.0
47.82999 168.0
47.856888 208.0
47.870083 204.0
47.901989 140.0
47.917244 88.0
47.927677 184.0
47.936817 144.0
47.950325 324.0
47.978821 204.0
47.993984 188.0
48.007301 280.0
48.026493 208.0
48.044559 244.0
48.058521 192.0
48.075676 136.0
48.088291 128.0
48.097202 368.0
48.135651 148.0
48.14946 208.0
48.185665 52.0
48.198208 152.0
48.218102 192.0
48.233879 188.0
48.248516 100.0
48.253819 68.0
48.25869 116.0
48.271465 104.0
48.281681 172.0
48.298534 168.0
48.319878 68.0
48.333714 92.0
48.354469 108.0
48.371078 148.0
48.394611 164.0
48.411228 236.0
48.421616 116.0
48.448196 168.0
48.470169 276.0
48.513756 228.0
48.59697 132.0
48.608662 156.0
48.628868 168.0
48.642555 160.0
48.671234 180.0
48.688583 108.0
48.699203 148.0
48.724312 144.0
48.735809 32.0
48.758045 148.0
48.771942 100.0
48.788048 136.0
48.801136 148.0
48.826321 208.0
48.850464 204.0
48.882275 216.0
48.908531 180.0
48.931915 84.0
48.941662 136.0
48.95602 116.0
48.969513 192.0
48.979107 128.0
49.007126 164.0
49.030815 160.0
49.075256 160.0
49.118652 36.0
49.141483 164.0
49.18235 224.0
49.198505 248.0
49.219036 172.0
49.238644 148.0
49.267883 180.0
49.295959 108.0
49.30714 80.0
49.323002 172.0
49.337891 152.0
49.355671 156.0
49.364201 148.0
49.387745 188.0
49.41341 124.0
49.469387 80.0
49.489906 140.0
49.508369 128.0
49.541706 236.0
49.566734 144.0
49.58942 132.0
49.599216 292.0
49.627228 240.0
49.648392 100.0
49.653305 136.0
49.669765 76.0
49.680988 200.0
49.690807 128.0
49.719776 124.0
49.775021 156.0
49.788143 140.0
49.800301 116.0
49.818562 104.0
49.830658 216.0
49.85228 76.0
49.866333 176.0
49.901188 168.0
49.919754 160.0
49.945774 64.0
49.962898 172.0
49.997128 204.0
50.037739 192.0
50.067516 96.0
50.086365 208.0
50.105545 112.0
50.119057 212.0
50.132137 156.0
50.14315 128.0
50.176716 124.0
50.192928 132.0
50.208443 152.0
50.233829 164.0
50.248734 148.0
50.25658 192.0
50.281803 160.0
50.304207 160.0
50.331207 128.0
50.342506 208.0
50.351562 116.0
50.394276 172.0
50.407486 136.0
50.427269 148.0
50.441216 180.0
50.456524 496.0
50.471073 276.0
50.502205 132.0
50.513519 52.0
50.529079 96.0
50.553135 128.0
50.563042 92.0
50.590706 164.0
50.609959 220.0
50.625187 164.0
50.643742 204.0
50.654648 160.0
50.663349 128.0
50.687962 204.0
50.721668 104.0
50.733009 144.0
50.748699 180.0
50.786053 204.0
50.798241 128.0
50.807899 104.0
50.819809 216.0
50.876289 340.0
50.899818 160.0
50.918888 124.0
50.928829 412.0
50.940437 232.0
50.961128 276.0
50.983322 144.0
50.999584 140.0
51.019772 68.0
51.036392 156.0
51.072384 128.0
51.098854 112.0
51.110592 140.0
51.145832 148.0
51.161613 356.0
51.174843 144.0
51.189838 176.0
51.213627 272.0
51.230385 48.0
51.243187 176.0
51.277035 184.0
51.304962 132.0
51.321671 156.0
51.339287 216.0
51.365913 172.0
51.378643 108.0
51.38863 108.0
51.411461 192.0
51.427128 184.0
51.439434 164.0
51.457733 96.0
51.482567 148.0
51.491405 184.0
51.517101 180.0
51.548672 140.0
51.57185 156.0
51.592583 188.0
51.612755 148.0
51.627819 256.0
51.665791 184.0
51.683758 136.0
51.694061 200.0
51.707989 132.0
51.719982 212.0
51.730221 164.0
51.743069 140.0
51.76025 68.0
51.779453 176.0
51.800488 132.0
51.818974 72.0
51.834633 112.0
51.866707 104.0
51.882034 128.0
51.892067 128.0
51.907364 48.0
51.916363 120.0
51.927509 112.0
51.940826 152.0
51.973328 128.0
52.009037 200.0
52.013493 168.0
52.017738 140.0
52.034641 256.0
52.045589 80.0
52.055836 204.0
52.080055 120.0
52.101601 172.0
52.111656 108.0
52.129086 92.0
52.143372 336.0
52.172108 256.0
52.203648 368.0
52.218864 124.0
52.258968 164.0
52.27779 304.0
52.312954 168.0
52.338123 132.0
52.371254 144.0
52.398777 176.0
52.421013 124.0
52.436867 292.0
52.474094 184.0
52.503757 280.0
52.554874 196.0
52.56662 172.0
52.584248 168.0
52.597324 120.0
52.61475 160.0
52.640381 108.0
52.669159 116.0
52.695641 120.0
52.711544 284.0
52.718071 84.0
52.720562 324.0
52.744774 152.0
52.789764 140.0
52.807007 160.0
52.854687 176.0
52.865559 200.0
52.883217 168.0
52.904858 144.0
52.921227 144.0
52.937073 96.0
52.95623 184.0
52.970768 132.0
52.985275 140.0
52.997547 96.0
53.00914 152.0
53.023487 72.0
53.036182 200.0
53.05262 144.0
53.079945 52.0
53.124702 192.0
53.138695 148.0
53.155594 152.0
53.178875 196.0
53.190426 148.0
53.209259 156.0
53.231579 144.0
53.269901 164.0
53.274746 120.0
53.27948 172.0
53.299347 188.0
53.309387 132.0
53.326958 84.0
53.348759 52.0
53.368549 152.0
53.400246 196.0
53.410828 104.0
53.439655 208.0
53.467049 344.0
53.486492 140.0
53.506958 172.0
53.534081 204.0
53.575779 252.0
53.602592 208.0
53.63073 360.0
53.661358 72.0
53.686134 112.0
53.696758 124.0
53.735744 264.0
53.750732 124.0
53.779919 220.0
53.791599 172.0
53.801815 168.0
53.812904 296.0
53.829556 100.0
53.832859 184.0
53.839027 148.0
53.855347 272.0
53.887825 224.0
53.920128 128.0
53.961056 96.0
53.98381 144.0
54.016628 116.0
54.02906 48.0
54.040462 164.0
54.072227 132.0
54.084976 332.0
54.10463 176.0
54.128696 228.0
54.147984 172.0
54.153713 128.0
54.166702 228.0
54.176495 152.0
54.195232 132.0
54.215057 140.0
54.220848 108.0
54.224331 84.0
54.243595 240.0
54.260422 384.0
54.275848 128.0
54.300686 264.0
54.324688 132.0
54.341442 136.0
54.384052 116.0
54.39539 120.0
54.40789 228.0
54.419441 120.0
54.435223 104.0
54.438938 164.0
54.4575 148.0
54.471527 180.0
54.474213 196.0
54.495438 144.0
54.506294 100.0
54.51931 168.0
54.557571 72.0
54.591148 204.0
54.594845 268.0
54.623909 212.0
54.639545 108.0
54.643986 68.0
54.648258 152.0
54.674259 180.0
54.692509 148.0
54.733574 124.0
54.755001 372.0
54.764874 52.0
54.769085 140.0
54.779942 128.0
54.802776 156.0
54.8153 76.0
54.826958 176.0
54.862831 192.0
54.877106 192.0
54.882828 128.0
54.8876 176.0
54.917023 84.0
54.950428 124.0
54.971451 112.0
54.981453 304.0
54.996696 288.0
55.018837 120.0
55.030647 144.0
55.051319 180.0
55.068798 164.0
55.080406 144.0
55.100063 156.0
55.118145 236.0
55.140656 144.0
55.165619 188.0
55.184303 124.0
55.218315 96.0
55.232464 148.0
55.248627 128.0
55.267742 164.0
55.291538 316.0
55.321888 104.0
55.332253 48.0
55.355282 288.0
55.380108 88.0
55.428524 152.0
55.466209 84.0
55.494526 136.0
55.523258 212.0
55.551491 136.0
55.57383 160.0
55.593502 156.0
55.60796 44.0
55.618351 180.0
55.647099 120.0
55.685699 144.0
55.708775 372.0
55.712601 68.0
55.730324 216.0
55.751755 180.0
55.773476 328.0
55.783684 180.0
55.802555 136.0
55.813847 276.0
55.850647 240.0
55.88287 188.0
55.916164 180.0
55.954308 68.0
55.979237 156.0
56.008385 156.0
56.019833 120.0
56.034729 96.0
56.051117 124.0
56.065311 184.0
56.077942 188.0
56.109245 136.0
56.119682 108.0
56.152489 108.0
56.180828 520.0
56.195862 156.0
56.238125 140.0
56.267689 156.0
56.282314 144.0
56.313675 152.0
56.32655 168.0
56.34803 108.0
56.359985 316.0
56.37635 180.0
56.395847 332.0
56.412292 300.0
56.431461 180.0
56.444298 176.0
56.458191 80.0
56.467655 152.0
56.487057 140.0
56.506504 176.0
56.516979 284.0
56.527454 164.0
56.547302 228.0
56.576424 128.0
56.581921 92.0
56.598255 200.0
56.618767 108.0
56.642731 140.0
56.690674 180.0
56.70219 164.0
56.727325 184.0
56.781029 148.0
56.81498 252.0
56.82019 184.0
56.83131 152.0
56.852417 128.0
56.883751 196.0
56.918682 128.0
56.939705 164.0
56.989273 192.0
57.001297 176.0
57.026638 176.0
57.04488 124.0
57.064049 144.0
57.075291 140.0
57.130493 176.0
57.145638 164.0
57.160229 184.0
57.183239 196.0
57.2239 108.0
57.24498 108.0
57.263054 240.0
57.283623 140.0
57.297276 128.0
57.32235 176.0
57.33902 132.0
57.367771 152.0
57.379055 148.0
57.396339 148.0
57.412251 200.0
57.440865 136.0
57.467957 112.0
57.476494 136.0
57.520176 240.0
57.542015 96.0
57.566174 172.0
57.591846 76.0
57.627441 164.0
57.649952 152.0
57.678856 176.0
57.723557 216.0
57.744499 144.0
57.771297 212.0
57.797512 264.0
57.816818 224.0
57.848209 184.0
57.868202 200.0
57.884804 56.0
57.890907 112.0
57.893398 72.0
57.915527 228.0
57.92585 208.0
57.934673 100.0
57.941658 116.0
57.964005 140.0
57.98901 112.0
58.024632 48.0
58.036758 36.0
58.056892 132.0
58.101974 108.0
58.125217 264.0
58.136589 160.0
58.153061 144.0
58.169827 180.0
58.186893 88.0
58.22403 156.0
58.242199 120.0
58.256821 144.0
58.268074 180.0
58.285519 144.0
58.316944 176.0
58.330246 160.0
58.346367 108.0
58.362053 264.0
58.371464 176.0
58.39362 156.0
58.41301 176.0
58.428139 264.0
58.465122 120.0
58.504025 272.0
58.531479 108.0
58.573219 172.0
58.583881 148.0
58.637718 168.0
58.655697 156.0
58.684261 148.0
58.71386 116.0
58.738602 200.0
58.750046 104.0
58.761536 120.0
58.782871 132.0
58.798157 188.0
58.821766 212.0
58.837593 76.0
58.847717 152.0
58.88504 404.0
58.896027 164.0
58.941872 124.0
58.952431 180.0
58.968395 76.0
58.991322 132.0
59.008781 208.0
59.02898 228.0
59.052483 108.0
59.077988 148.0
59.088131 92.0
59.107555 160.0
59.118267 124.0
59.130184 236.0
59.164829 180.0
59.185619 88.0
59.196335 164.0
59.22237 176.0
59.241901 160.0
59.246265 120.0
59.271038 104.0
59.281635 164.0
59.297966 224.0
59.327423 136.0
59.34557 324.0
59.356705 64.0
59.368931 108.0
59.392887 128.0
59.413979 200.0
59.442539 176.0
59.460011 128.0
59.471951 164.0
59.503529 180.0
59.564415 200.0
59.588997 276.0
59.612041 128.0
59.64278 120.0
59.656666 116.0
59.677422 232.0
59.683197 124.0
59.687141 168.0
59.715042 200.0
59.733501 216.0
59.758018 132.0
59.816483 168.0
59.847805 320.0
59.857246 148.0
59.868942 76.0
59.896664 188.0
59.929016 104.0
59.943272 364.0
59.960091 168.0
59.979813 108.0
59.990662 188.0
60.020084 236.0
60.031834 244.0
60.078217 180.0
60.089241 192.0
60.117096 164.0
60.119106 392.0
60.154175 200.0
60.168209 260.0
60.205124 96.0
60.245201 152.0
60.266911 128.0
60.280819 80.0
60.300545 256.0
60.325638 92.0
60.364288 200.0
60.390957 180.0
60.409584 168.0
60.429211 144.0
60.444725 128.0
60.460148 120.0
60.482998 148.0
60.488174 108.0
60.491631 156.0
60.509731 68.0
60.542248 364.0
60.567223 192.0
60.593723 224.0
60.613327 140.0
60.642811 136.0
60.659588 144.0
60.692554 200.0
60.725121 312.0
60.767002 300.0
60.780922 144.0
60.798035 52.0
60.827606 196.0
60.846943 212.0
60.860725 212.0
60.906715 84.0
60.938145 208.0
60.97974 252.0
61.004223 192.0
61.031181 184.0
61.050369 288.0
61.076138 204.0
61.087025 360.0
61.10017 44.0
61.110363 164.0
61.146473 116.0
61.173828 164.0
61.206387 268.0
61.235722 120.0
61.254292 232.0
61.306557 128.0
61.319023 156.0
61.337727 52.0
61.362495 180.0
61.382938 108.0
61.399181 212.0
61.410835 144.0
61.429573 164.0
61.450008 176.0
61.474091 376.0
61.509769 108.0
61.520706 296.0
61.532528 128.0
61.549534 120.0
61.552776 128.0
61.559341 256.0
61.615097 172.0
61.631119 300.0
61.657986 476.0
61.667625 144.0
61.695637 156.0
61.707363 100.0
61.730862 148.0
61.747639 196.0
61.768692 136.0
61.788982 132.0
61.804794 156.0
61.826584 152.0
61.842232 96.0
61.861015 56.0
61.879456 108.0
61.894062 148.0
61.911118 104.0
61.924149 212.0
61.937313 216.0
61.947556 204.0
61.970642 168.0
61.984741 160.0
62.00198 168.0
62.0135 148.0
62.03204 156.0
62.054356 212.0
62.073452 108.0
62.090633 280.0
62.101151 156.0
62.128983 188.0
62.146019 396.0
62.1987 220.0
62.223232 72.0
62.266441 216.0
62.29298 172.0
62.325233 52.0
62.339844 148.0
62.375523 40.0
62.394974 268.0
62.409611 176.0
62.435646 284.0
62.457092 160.0
62.493469 160.0
62.504482 120.0
62.53281 56.0
62.581608 68.0
62.594162 144.0
62.607243 100.0
62.612118 160.0
62.637039 344.0
62.654057 128.0
62.684734 204.0
62.711971 156.0
62.731812 164.0
62.743538 128.0
62.761227 128.0
62.772263 136.0
62.809208 188.0
62.827671 184.0
62.849556 132.0
62.866516 144.0
62.871586 108.0
62.87727 248.0
62.889008 48.0
62.912064 244.0
62.934788 144.0
62.947956 176.0
62.954578 60.0
62.960991 148.0
62.992378 120.0
63.017971 216.0
63.061481 396.0
63.075386 256.0
63.088139 120.0
63.100681 140.0
63.113327 148.0
63.134209 156.0
63.167099 84.0
63.202282 184.0
63.220894 180.0
63.250217 204.0
63.264992 88.0
63.267426 160.0
63.292221 132.0
63.304512 68.0
63.315876 176.0
63.340096 372.0
63.374462 132.0
63.391914 56.0
63.436954 196.0
63.453564 152.0
63.498131 172.0
63.516495 152.0
63.55365 84.0
63.572693 108.0
63.606022 96.0
63.621895 116.0
63.637772 124.0
63.673187 120.0
63.696529 152.0
63.711571 316.0
63.734657 172.0
63.750298 176.0
63.763702 144.0
63.769485 48.0
63.774826 188.0
63.806355 72.0
63.817467 200.0
63.846615 148.0
63.860241 160.0
63.885044 116.0
63.907913 124.0
63.924973 128.0
63.943424 156.0
63.965256 140.0
63.982334 176.0
63.993679 164.0
64.00824 188.0
64.024162 156.0
64.035484 152.0
64.059204 212.0
64.078079 236.0
64.119911 216.0
64.126839 144.0
64.131233 136.0
64.138733 172.0
64.142067 172.0
64.161774 132.0
64.180664 188.0
64.205841 156.0
64.216629 136.0
64.236679 96.0
64.250252 204.0
64.262199 168.0
64.284004 164.0
64.29837 108.0
64.334381 200.0
64.378761 224.0
64.407478 152.0
64.427704 168.0
64.454865 104.0
64.483627 144.0
64.498314 128.0
64.528999 104.0
64.547775 128.0
64.576004 72.0
64.587952 160.0
64.614159 200.0
64.627457 204.0
64.6399 344.0
64.651924 172.0
64.673294 160.0
64.684662 116.0
64.704765 196.0
64.728455 96.0
64.745506 428.0
64.760201 120.0
64.775803 172.0
64.798859 208.0
64.860634 176.0
64.878708 228.0
64.882439 188.0
64.913345 216.0
64.925583 136.0
64.949547 76.0
64.962379 64.0
64.979736 132.0
64.991257 188.0
65.00914 332.0
65.027069 176.0
65.126106 268.0
65.163055 152.0
65.182335 116.0
65.199104 184.0
65.251038 328.0
65.263329 184.0
65.286819 260.0
65.301292 204.0
65.312553 144.0
65.32682 124.0
65.331566 180.0
65.351112 136.0
65.371651 136.0
65.388588 124.0
65.404266 236.0
65.439682 144.0
65.455475 84.0
65.469498 124.0
65.52343 80.0
65.542343 184.0
65.566933 160.0
65.597557 100.0
65.631447 196.0
65.67218 360.0
65.692696 156.0
65.716682 148.0
65.734268 204.0
65.766922 224.0
65.779839 112.0
65.80143 148.0
65.820198 172.0
65.859535 200.0
65.882111 204.0
65.898148 168.0
65.919151 92.0
65.942513 208.0
65.98333 264.0
65.998764 156.0
66.015717 160.0
66.038765 208.0
66.063927 124.0
66.099838 196.0
66.151627 308.0
66.171051 76.0
66.207458 140.0
66.212769 144.0
66.218636 124.0
66.236191 108.0
66.260979 128.0
66.287979 148.0
66.329887 156.0
66.35331 140.0
66.378441 96.0
66.394402 100.0
66.422234 116.0
66.446564 252.0
66.462524 184.0
66.487518 220.0
66.509789 96.0
66.522835 160.0
66.552063 108.0
66.566391 188.0
66.584091 188.0
66.605652 164.0
66.623604 164.0
66.638756 148.0
66.656013 64.0
66.673889 120.0
66.685265 136.0
66.730682 136.0
66.748924 176.0
66.781235 160.0
66.802986 100.0
66.821861 152.0
66.854805 288.0
66.901604 96.0
66.948753 196.0
66.973251 92.0
66.991165 192.0
67.030319 136.0
67.072243 148.0
67.119194 180.0
67.146011 160.0
67.168846 132.0
67.192932 120.0
67.229088 164.0
67.247673 192.0
67.265114 108.0
67.299606 224.0
67.313583 192.0
67.329117 264.0
67.353142 220.0
67.355927 340.0
67.36927 204.0
67.389862 248.0
67.407516 248.0
67.429451 180.0
67.448235 112.0
67.541084 184.0
67.588707 192.0
67.605576 168.0
67.617439 72.0
67.64238 196.0
67.678352 140.0
67.689278 144.0
67.703285 120.0
67.714684 96.0
67.726967 176.0
67.745872 148.0
67.781921 124.0
67.808395 180.0
67.826057 184.0
67.840919 344.0
67.86882 224.0
67.896469 264.0
67.901772 180.0
67.947212 184.0
67.989052 136.0
68.007339 124.0
68.021362 180.0
68.051918 156.0
68.072258 84.0
68.088676 100.0
68.1166 208.0
68.134338 204.0
68.154388 184.0
68.169006 156.0
68.192894 276.0
68.206253 256.0
68.219795 140.0
68.245529 168.0
68.277565 128.0
68.28022 124.0
68.288216 204.0
68.313858 64.0
68.328033 220.0
68.361008 152.0
68.375313 184.0
68.391777 472.0
68.414825 268.0
68.468575 204.0
68.488106 116.0
68.507599 184.0
68.512169 128.0
68.531166 92.0
68.602783 384.0
68.62841 132.0
68.64325 140.0
68.659744 108.0
68.686127 100.0
68.724075 136.0
68.752129 128.0
68.78183 128.0
68.793388 176.0
68.830269 224.0
68.854477 124.0
68.870995 168.0
68.885864 96.0
68.899139 204.0
68.921471 300.0
68.950302 60.0
68.980049 100.0
68.994926 76.0
69.007965 208.0
69.031097 196.0
69.051147 132.0
69.064133 160.0
69.0709 136.0
69.094505 208.0
69.120628 128.0
69.144417 160.0
69.169571 156.0
69.18644 136.0
69.192497 164.0
69.22229 124.0
69.238159 132.0
69.272064 136.0
69.290413 272.0
69.320343 176.0
69.339615 200.0
69.367104 92.0
69.378502 156.0
69.392311 188.0
69.4105 244.0
69.437828 284.0
69.447662 196.0
69.466888 140.0
69.4814 96.0
69.512566 160.0
69.528839 176.0
69.547379 132.0
69.566917 212.0
69.57795 160.0
69.602974 180.0
69.648109 180.0
69.671074 220.0
69.694328 140.0
69.722496 168.0
69.724907 160.0
69.756889 284.0
69.772858 112.0
69.785469 196.0
69.815536 196.0
69.827209 128.0
69.839218 208.0
69.86557 44.0
69.928749 120.0
69.947113 208.0
69.965836 176.0
69.986176 180.0
70.008713 164.0
70.029274 208.0
70.055351 104.0
70.077003 236.0
70.097305 132.0
70.120331 100.0
70.153099 344.0
70.174606 136.0
70.196571 120.0
70.215363 100.0
70.229927 188.0
70.249596 152.0
70.302284 184.0
70.326698 200.0
70.336739 144.0
70.399902 176.0
70.459854 128.0
70.487465 112.0
70.510651 144.0
70.529243 128.0
70.555527 232.0
70.584412 136.0
70.615067 96.0
70.643692 144.0
70.65152 176.0
70.656418 148.0
70.661674 184.0
70.679756 72.0
70.691467 124.0
70.710579 324.0
70.723267 136.0
70.746696 196.0
70.767082 136.0
70.78688 264.0
70.817757 164.0
70.831032 288.0
70.899117 92.0
70.922546 192.0
70.962204 188.0
70.990814 172.0
71.022858 124.0
71.036034 140.0
71.078049 68.0
71.112228 340.0
71.117676 88.0
71.124863 160.0
71.144798 124.0
71.157433 128.0
71.173698 316.0
71.211037 104.0
71.225311 180.0
71.24308 404.0
71.261559 128.0
71.280045 368.0
71.301193 116.0
71.34391 144.0
71.364082 180.0
71.380127 140.0
71.397713 132.0
71.422943 164.0
71.434715 72.0
71.481163 284.0
71.521935 312.0
71.565582 420.0
71.577225 136.0
71.587875 324.0
71.608086 116.0
71.62867 144.0
71.65506 180.0
71.673492 156.0
71.698975 160.0
71.74958 144.0
71.768166 200.0
71.793465 168.0
71.806953 124.0
71.833939 372.0
71.851906 284.0
71.864967 144.0
71.890244 108.0
71.908859 172.0
71.925659 112.0
71.970673 156.0
71.995201 144.0
72.009483 148.0
72.053856 152.0
72.096931 156.0
72.117645 212.0
72.139008 152.0
72.163208 148.0
72.192825 196.0
72.206161 196.0
72.250214 148.0
72.273193 100.0
72.295189 192.0
72.32222 300.0
72.342575 92.0
72.362892 156.0
72.417084 148.0
72.457504 148.0
72.469597 180.0
72.493317 168.0
72.514786 120.0
72.536583 136.0
72.5504 224.0
72.589935 148.0
72.613678 48.0
72.639122 140.0
72.669655 120.0
72.687637 112.0
72.698502 176.0
72.723961 148.0
72.74263 204.0
72.759041 180.0
72.77684 184.0
72.792931 128.0
72.81675 240.0
72.837982 172.0
72.856407 132.0
72.877396 124.0
72.897186 136.0
72.97197 316.0
72.984871 312.0
73.015572 168.0
73.031715 188.0
73.072311 200.0
73.084221 128.0
73.131874 132.0
73.143791 148.0
73.157402 192.0
73.199966 88.0
73.22892 152.0
73.27124 280.0
73.290787 208.0
73.315193 128.0
73.342308 116.0
73.360886 268.0
73.378876 192.0
73.394951 84.0
73.406151 168.0
73.421501 144.0
73.434464 120.0
73.452202 176.0
73.48291 180.0
73.49826 64.0
73.527206 108.0
73.549461 48.0
73.576859 320.0
73.59214 104.0
73.616043 56.0
73.634827 160.0
73.657272 228.0
73.67247 104.0
73.690552 312.0
73.703156 204.0
73.718536 164.0
73.741776 428.0
73.759209 256.0
73.804893 100.0
73.820007 324.0
73.833542 172.0
73.873505 176.0
73.891273 160.0
73.916222 172.0
73.995628 116.0
74.013245 152.0
74.02816 80.0
74.062408 116.0
74.076118 112.0
74.112091 104.0
74.149361 112.0
74.170898 240.0
74.202927 268.0
74.252655 108.0
74.269806 184.0
74.287048 156.0
74.324707 152.0
74.338432 108.0
74.353874 184.0
74.364922 120.0
74.38134 144.0
74.417389 100.0
74.439713 176.0
74.463753 44.0
74.493393 108.0
74.506691 176.0
74.52903 64.0
74.546211 96.0
74.578224 172.0
74.596054 296.0
74.623222 164.0
74.644066 160.0
74.648331 148.0
74.679688 200.0
74.71209 292.0
74.750458 180.0
74.792831 140.0
74.810349 248.0
74.830017 120.0
74.848953 92.0
74.862732 176.0
74.874786 120.0
74.892784 144.0
74.927162 108.0
74.940727 96.0
74.969269 104.0
74.995903 188.0
75.017792 140.0
75.043404 140.0
75.076416 124.0
75.100563 124.0
75.115417 156.0
75.129448 204.0
75.178192 216.0
75.190392 176.0
75.206779 160.0
75.237152 100.0
75.326675 132.0
75.343948 160.0
75.369865 144.0
75.394035 356.0
75.405663 272.0
75.438705 168.0
75.455681 184.0
75.476189 180.0
75.496414 172.0
75.527069 180.0
75.533813 284.0
75.569229 144.0
75.602753 200.0
75.627541 168.0
75.657219 244.0
75.672745 212.0
75.691093 84.0
75.722275 172.0
75.743164 204.0
75.774559 168.0
75.780289 152.0
75.783806 200.0
75.796806 208.0
75.80938 132.0
75.835381 120.0
75.850113 112.0
75.857788 56.0
75.862213 108.0
75.889984 168.0
75.903145 284.0
75.92688 108.0
75.956909 180.0
76.002357 152.0
76.023582 180.0
76.069534 168.0
76.103249 144.0
76.145554 164.0
76.152176 128.0
76.176178 148.0
76.191437 164.0
76.214066 180.0
76.253647 136.0
76.276245 236.0
76.292633 112.0
76.323181 76.0
76.35511 156.0
76.370781 148.0
76.387131 196.0
76.410149 280.0
76.422325 180.0
76.444427 264.0
76.486717 112.0
76.52227 180.0
76.557091 180.0
76.563232 76.0
76.568901 176.0
76.602432 176.0
76.657013 184.0
76.678818 136.0
76.700958 120.0
76.731026 244.0
76.774185 96.0
76.80555 140.0
76.842216 264.0
76.864258 196.0
76.87587 180.0
76.905037 152.0
76.923813 232.0
76.928398 176.0
76.94693 104.0
76.964386 172.0
76.990761 184.0
77.023376 144.0
77.055206 172.0
77.080666 352.0
77.085228 200.0
77.091293 288.0
77.126617 148.0
77.131294 144.0
77.152061 180.0
77.173843 176.0
77.202034 136.0
77.2285 176.0
77.244011 172.0
77.263252 156.0
77.275497 152.0
77.302834 192.0
77.324493 156.0
77.351799 120.0
77.387367 140.0
77.419029 208.0
77.434654 300.0
77.450027 188.0
77.492592 120.0
77.514603 200.0
77.537476 320.0
77.550423 148.0
77.571785 172.0
77.610397 148.0
77.653419 244.0
77.696037 180.0
77.729301 108.0
77.764397 144.0
77.789635 168.0
77.841637 104.0
77.871994 168.0
77.890541 128.0
77.919746 104.0
77.935577 324.0
77.954063 264.0
77.966362 52.0
77.993309 112.0
78.017784 140.0
78.046356 192.0
78.058548 164.0
78.065063 192.0
78.084282 164.0
78.097702 136.0
78.124603 136.0
78.160995 152.0
78.190102 144.0
78.214348 144.0
78.233093 216.0
78.272446 412.0
78.284805 132.0
78.31617 280.0
78.336609 176.0
78.3517 72.0
78.371948 188.0
78.404053 168.0
78.42395 124.0
78.495102 188.0
78.539841 148.0
78.545151 108.0
78.570045 108.0
78.596771 56.0
78.632065 204.0
78.65081 168.0
78.674103 132.0
78.690155 180.0
78.701958 148.0
78.709587 96.0
78.713623 140.0
78.736229 76.0
78.753601 124.0
78.773315 148.0
78.814903 160.0
78.837234 452.0
78.855797 216.0
78.870224 204.0
78.893356 128.0
78.919952 152.0
78.951637 164.0
78.96492 216.0
79.002068 168.0
79.028458 212.0
79.056198 196.0
79.074875 196.0
79.097816 164.0
79.131897 136.0
79.168526 136.0
79.181847 144.0
79.184929 140.0
79.235031 152.0
79.263382 148.0
79.302368 120.0
79.321861 52.0
79.334587 228.0
79.35276 196.0
79.38485 304.0
79.389816 160.0
79.40316 188.0
79.459595 108.0
79.483253 84.0
79.498398 116.0
79.520149 160.0
79.539757 148.0
79.578026 164.0
79.599533 228.0
79.639473 144.0
79.661232 160.0
79.683884 44.0
79.703079 144.0
79.710228 116.0
79.720535 288.0
79.75692 236.0
79.777008 280.0
79.799408 176.0
79.818153 168.0
79.84005 112.0
79.896065 160.0
79.902985 200.0
79.931694 180.0
79.954315 140.0
79.994827 188.0
80.007553 236.0
80.026329 132.0
80.056221 208.0
80.069817 120.0
80.076813 116.0
80.132645 152.0
80.138458 136.0
80.143593 220.0
80.174423 144.0
80.19281 144.0
80.207069 120.0
80.230797 116.0
80.255203 176.0
80.29258 108.0
80.310478 184.0
80.343483 132.0
80.362099 184.0
80.39592 332.0
80.424477 256.0
80.45755 144.0
80.470039 216.0
80.491364 224.0
80.52578 172.0
80.561615 144.0
80.577995 204.0
80.584618 176.0
80.616547 208.0
80.64164 92.0
80.670662 164.0
80.684143 204.0
80.703354 136.0
80.733421 220.0
80.779007 144.0
80.803505 172.0
80.860046 268.0
80.903725 172.0
80.92292 172.0
80.984306 132.0
81.001228 116.0
81.036255 148.0
81.071068 472.0
81.107933 108.0
81.125862 76.0
81.143784 124.0
81.165085 176.0
81.182426 384.0
81.210495 100.0
81.230217 164.0
81.256187 160.0
81.290863 120.0
81.318977 180.0
81.343269 100.0
81.355476 136.0
81.372917 196.0
81.408852 176.0
81.445259 108.0
81.480423 156.0
81.500954 240.0
81.521164 176.0
81.534737 100.0
81.573997 180.0
81.596207 88.0
81.611191 48.0
81.623436 164.0
81.657738 196.0
81.673531 96.0
81.708733 176.0
81.722748 156.0
81.747963 144.0
81.780807 296.0
81.809723 204.0
81.827576 172.0
81.865273 148.0
81.883797 160.0
81.898361 136.0
81.925484 136.0
81.95256 144.0
81.979591 120.0
82.006622 204.0
82.049881 196.0
82.073097 192.0
82.096146 128.0
82.108749 492.0
82.122009 292.0
82.136444 160.0
82.16745 200.0
82.183029 160.0
82.187462 100.0
82.195374 156.0
82.207146 212.0
82.228462 52.0
82.269058 136.0
82.296516 80.0
82.32859 120.0
82.353035 188.0
82.376518 76.0
82.414368 164.0
82.446541 132.0
82.492798 216.0
82.510246 236.0
82.547714 188.0
82.567986 180.0
82.596352 252.0
82.607574 112.0
82.640457 116.0
82.673485 128.0
82.703613 148.0
82.70813 152.0
82.715744 380.0
82.730949 240.0
82.762505 336.0
82.787384 176.0
82.801567 132.0
82.823296 52.0
82.838638 180.0
82.867683 128.0
82.8843 196.0
82.904823 176.0
82.926849 160.0
82.963585 156.0
82.990021 60.0
83.004524 148.0
83.01722 184.0
83.03717 276.0
83.054024 96.0
83.073448 224.0
83.095993 204.0
83.129608 92.0
83.144203 200.0
83.174957 348.0
83.189949 176.0
83.238159 180.0
83.257462 228.0
83.277565 176.0
83.309677 148.0
83.353065 164.0
83.376663 356.0
83.42028 104.0
83.434822 132.0
83.486732 300.0
83.504921 248.0
83.518471 60.0
83.524948 136.0
83.542122 104.0
83.565163 180.0
83.580322 184.0
83.594124 168.0
83.611259 152.0
83.632675 172.0
83.655212 164.0
83.684814 184.0
83.747612 176.0
83.777527 164.0
83.792831 184.0
83.815208 148.0
83.83345 176.0
83.848015 152.0
83.868057 68.0
83.882645 172.0
83.908821 224.0
83.942802 128.0
83.966057 160.0
83.993874 100.0
84.016945 136.0
84.046303 216.0
84.083275 184.0
84.108826 132.0
84.131798 144.0
84.156288 184.0
84.177254 132.0
84.187103 32.0
84.190048 196.0
84.221802 276.0
84.246994 60.0
84.280617 168.0
84.315094 128.0
84.344452 348.0
84.360901 88.0
84.384666 128.0
84.417534 168.0
84.42836 188.0
84.467247 152.0
84.499588 416.0
84.525505 180.0
84.555267 152.0
84.571259 212.0
84.58432 320.0
84.59938 188.0
84.611992 332.0
84.63559 280.0
84.651199 96.0
84.654785 192.0
84.683281 152.0
84.715912 148.0
84.747055 160.0
84.765381 208.0
84.777313 140.0
84.791817 236.0
84.805695 56.0
84.831581 164.0
84.851967 116.0
84.881714 120.0
84.894653 176.0
84.901833 124.0
84.937424 328.0
84.983574 128.0
85.011101 148.0
85.036789 112.0
85.098221 164.0
85.113892 280.0
85.127983 160.0
85.165314 108.0
85.186951 172.0
85.210381 172.0
85.24855 168.0
85.275284 168.0
85.295464 140.0
85.342331 188.0
85.361954 136.0
85.385857 152.0
85.392982 128.0
85.400169 140.0
85.409851 136.0
85.438454 188.0
85.460022 176.0
85.519691 172.0
85.549377 124.0
85.586166 188.0
85.640999 300.0
85.659523 76.0
85.688042 172.0
85.711685 196.0
85.741173 120.0
85.766975 212.0
85.813057 40.0
85.832863 172.0
85.853935 144.0
85.881554 168.0
85.895279 184.0
85.973534 124.0
85.995682 36.0
86.027267 144.0
86.060699 128.0
86.090935 168.0
86.107567 176.0
86.167412 144.0
86.189583 196.0
86.205162 100.0
86.246872 124.0
86.268509 404.0
86.28569 100.0
86.300484 72.0
86.320755 232.0
86.365204 40.0
86.385788 164.0
86.410652 120.0
86.429955 80.0
86.45401 104.0
86.471268 172.0
86.512383 336.0
86.546562 124.0
86.574341 268.0
86.588799 84.0
86.620354 156.0
86.694748 200.0
86.710258 120.0
86.731819 264.0
86.772598 112.0
86.807037 188.0
86.822044 72.0
86.856827 152.0
86.880585 164.0
86.900467 140.0
86.909103 100.0
86.938965 208.0
86.965523 212.0
86.991508 128.0
87.008209 116.0
87.026535 212.0
87.045639 308.0
87.073204 116.0
87.091774 364.0
87.10881 208.0
87.122528 208.0
87.139587 216.0
87.15567 132.0
87.182808 128.0
87.19574 120.0
87.207809 192.0
87.230904 128.0
87.236908 112.0
87.24292 140.0
87.249725 160.0
87.272964 108.0
87.286911 128.0
87.308601 312.0
87.323044 184.0
87.348282 148.0
87.380882 128.0
87.434937 164.0
87.462593 92.0
87.512047 192.0
87.526939 172.0
87.556732 316.0
87.568977 308.0
87.576416 176.0
87.580147 408.0
87.605736 208.0
87.630669 180.0
87.665863 124.0
87.68528 144.0
87.700195 132.0
87.716469 104.0
87.740456 120.0
87.753426 192.0
87.780357 76.0
87.797142 168.0
87.810196 256.0
87.82325 160.0
87.86042 108.0
87.87735 160.0
87.890526 172.0
87.917191 148.0
87.939301 116.0
87.973923 176.0
87.994614 72.0
88.007996 224.0
88.053947 244.0
88.058922 132.0
88.065132 168.0
88.126328 252.0
88.140343 140.0
88.147377 160.0
88.178955 120.0
88.19294 48.0
88.206024 128.0
88.225464 40.0
88.258499 168.0
88.288094 152.0
88.309891 152.0
88.323105 260.0
88.360771 144.0
88.380745 84.0
88.398659 72.0
88.449776 140.0
88.472641 192.0
88.503479 172.0
88.520523 196.0
88.537186 140.0
88.550293 144.0
88.567825 200.0
88.599037 176.0
88.63398 244.0
88.673141 196.0
88.690033 192.0
88.717056 172.0
88.740562 216.0
88.769554 116.0
88.78643 172.0
88.804649 140.0
88.828468 204.0
88.850204 132.0
88.868965 100.0
88.889717 216.0
88.914268 56.0
88.919319 144.0
88.928543 176.0
88.949661 36.0
88.989288 184.0
89.012367 120.0
89.04026 172.0
89.062515 484.0
89.09613 184.0
89.130211 116.0
89.148743 228.0
89.163773 88.0
89.193451 304.0
89.208885 188.0
89.223335 268.0
89.228249 184.0
89.26136 132.0
89.286072 156.0
89.329811 136.0
89.3424 124.0
89.378716 132.0
89.419853 200.0
89.447556 168.0
89.481667 100.0
89.501732 164.0
89.508797 108.0
89.538155 136.0
89.583496 200.0
89.61657 140.0
89.651192 132.0
89.667587 312.0
89.699173 112.0
89.714134 252.0
89.737694 152.0
89.74572 284.0
89.790695 180.0
89.817101 64.0
89.83596 164.0
89.871803 28.0
89.893288 240.0
89.967491 168.0
90.007706 160.0
90.035248 132.0
90.077583 124.0
90.094582 116.0
90.114891 420.0
90.139015 380.0
90.181198 100.0
90.200584 168.0
90.217171 216.0
90.270233 356.0
90.287285 148.0
90.290375 216.0
90.327995 176.0
90.367157 136.0
90.390343 168.0
90.416023 152.0
90.463898 296.0
90.483749 128.0
90.506882 128.0
90.53595 120.0
90.550346 84.0
90.612946 224.0
90.655792 144.0
90.661034 232.0
90.681389 200.0
90.713387 36.0
90.751373 196.0
90.766747 212.0
90.817413 88.0
90.844528 176.0
90.865097 168.0
90.919647 176.0
90.941002 88.0
90.957436 164.0
90.99868 124.0
91.018829 96.0
91.037819 176.0
91.051506 192.0
91.092896 180.0
91.113792 304.0
91.128426 200.0
91.175514 160.0
91.192139 156.0
91.210327 100.0
91.21727 80.0
91.236458 132.0
91.279152 180.0
91.307091 260.0
91.328598 132.0
91.342979 56.0
91.38707 152.0
91.392181 340.0
91.412453 200.0
91.456078 112.0
91.471306 124.0
91.501762 180.0
91.528183 164.0
91.535561 144.0
91.554543 128.0
91.580833 84.0
91.622795 204.0
91.636986 204.0
91.665497 136.0
91.69516 132.0
91.72274 64.0
91.778023 132.0
91.791367 96.0
91.808533 44.0
91.834312 348.0
91.858124 104.0
91.871475 136.0
91.938255 116.0
91.963867 188.0
91.989174 160.0
92.030891 188.0
92.060432 152.0
92.077362 120.0
92.108345 204.0
92.132256 132.0
92.157845 148.0
92.177696 288.0
92.199455 180.0
92.218994 112.0
92.236145 136.0
92.24958 180.0
92.280167 152.0
92.296509 156.0
92.321815 184.0
92.339447 116.0
92.389282 352.0
92.431183 268.0
92.452316 340.0
92.476746 120.0
92.4907 140.0
92.523064 224.0
92.580627 148.0
92.607285 244.0
92.632286 160.0
92.651443 128.0
92.703178 88.0
92.721092 184.0
92.737923 184.0
92.761559 156.0
92.791939 388.0
92.841164 220.0
92.844238 240.0
92.875511 256.0
92.914085 180.0
92.931358 168.0
92.964523 164.0
92.99057 312.0
93.01371 164.0
93.0373 156.0
93.050346 196.0
93.065704 96.0
93.089005 152.0
93.102615 200.0
93.129082 108.0
93.142525 228.0
93.16452 136.0
93.196312 164.0
93.228981 220.0
93.257805 88.0
93.296486 100.0
93.318954 188.0
93.325134 196.0
93.355804 284.0
93.369843 340.0
93.394318 224.0
93.407547 164.0
93.448181 192.0
93.463799 136.0
93.491524 132.0
93.523232 128.0
93.549072 160.0
93.58007 144.0
93.593498 168.0
93.621422 176.0
93.655121 272.0
93.682091 156.0
93.715805 144.0
93.747185 140.0
93.782211 164.0
93.805832 172.0
93.820702 196.0
93.843651 144.0
93.850082 48.0
93.859276 176.0
93.870682 160.0
93.907455 180.0
93.924805 220.0
93.940773 92.0
93.970879 240.0
93.99263 96.0
94.010818 344.0
94.038757 160.0
94.060036 320.0
94.07428 300.0
94.093048 120.0
94.098267 172.0
94.115059 128.0
94.139297 188.0
94.155609 96.0
94.177597 436.0
94.213554 88.0
94.245354 316.0
94.261856 168.0
94.295158 120.0
94.309914 260.0
94.371208 132.0
94.393295 156.0
94.411186 224.0
94.450165 188.0
94.468727 116.0
94.564415 168.0
94.59951 204.0
94.642303 180.0
94.66227 176.0
94.699669 372.0
94.717888 128.0
94.737747 144.0
94.762985 140.0
94.780426 200.0
94.807556 64.0
94.836624 152.0
94.8657 160.0
94.877869 116.0
94.896721 116.0
94.912231 232.0
94.937439 152.0
94.964012 228.0
94.989182 124.0
95.018906 268.0
95.038452 160.0
95.055771 116.0
95.071602 152.0
95.107285 352.0
95.144516 248.0
95.190323 156.0
95.208427 100.0
95.247971 152.0
95.267754 364.0
95.302361 160.0
95.323738 352.0
95.347801 188.0
95.366325 188.0
95.389816 172.0
95.406998 188.0
95.476311 148.0
95.508385 176.0
95.515663 172.0
95.53582 148.0
95.564842 120.0
95.589584 224.0
95.609093 108.0
95.634895 184.0
95.660202 100.0
95.675774 140.0
95.704979 144.0
95.764778 164.0
95.784164 140.0
95.814888 156.0
95.841133 164.0
95.859322 152.0
95.890182 212.0
95.904411 244.0
95.912102 248.0
95.934395 248.0
95.946213 312.0
95.976746 324.0
95.980537 104.0
95.987892 156.0
96.015427 152.0
96.028709 156.0
96.049919 88.0
96.079178 72.0
96.118019 132.0
96.161407 140.0
96.207977 240.0
96.256783 128.0
96.276596 112.0
96.292976 128.0
96.360306 168.0
96.381042 124.0
96.413063 280.0
96.451355 148.0
96.489296 140.0
96.551224 164.0
96.590981 132.0
96.618362 124.0
96.65358 128.0
96.671196 180.0
96.689827 300.0
96.707649 172.0
96.729912 148.0
96.753403 192.0
96.773605 100.0
96.800392 292.0
96.823631 92.0
96.841515 160.0
96.858665 164.0
96.863754 124.0
96.870407 112.0
96.894402 96.0
96.916039 184.0
96.94339 168.0
96.962685 208.0
96.978455 112.0
96.997482 152.0
97.021866 100.0
97.040642 148.0
97.063889 152.0
97.078217 328.0
97.111702 184.0
97.178879 204.0
97.213463 232.0
97.268974 188.0
97.297401 120.0
97.317642 160.0
97.331039 96.0
97.346703 164.0
97.382835 72.0
97.405792 252.0
97.42112 196.0
97.45945 124.0
97.483025 100.0
97.512505 176.0
97.54789 240.0
97.569511 144.0
97.600761 188.0
97.635101 280.0
97.655144 112.0
97.678833 128.0
97.703239 84.0
97.748489 96.0
97.782112 220.0
97.823212 228.0
97.854774 92.0
97.868561 204.0
97.90876 164.0
97.932159 148.0
97.967262 68.0
97.990669 212.0
98.004463 72.0
98.021141 224.0
98.09906 232.0
98.112862 160.0
98.161247 348.0
98.189758 120.0
98.227234 180.0
98.253166 136.0
98.274582 164.0
98.290367 144.0
98.312073 204.0
98.327538 124.0
98.344337 160.0
98.359436 172.0
98.399994 272.0
98.443069 276.0
98.472061 184.0
98.535187 140.0
98.564827 188.0
98.586563 156.0
98.624115 140.0
98.641647 156.0
98.659691 76.0
98.690987 188.0
98.721924 264.0
98.746696 248.0
98.792152 424.0
98.817909 156.0
98.859459 144.0
98.893105 152.0
98.914879 176.0
98.933273 144.0
98.950508 160.0
98.97229 220.0
99.000008 148.0
99.023773 168.0
99.036621 164.0
99.077568 152.0
99.092972 548.0
99.105751 156.0
99.140938 144.0
99.157784 308.0
99.198273 348.0
99.229744 216.0
99.236366 156.0
99.275459 48.0
99.295296 176.0
99.31797 156.0
99.34063 84.0
99.381409 116.0
99.394478 172.0
99.411522 156.0
99.460373 156.0
99.487762 160.0
99.503639 48.0
99.523499 184.0
99.536804 176.0
99.557251 84.0
99.581085 236.0
99.596268 204.0
99.622795 160.0
99.636703 148.0
99.676292 112.0
99.697632 132.0
99.725311 284.0
99.756081 108.0
99.783768 204.0
99.816895 212.0
99.845406 164.0
99.871262 112.0
99.922424 128.0
99.932617 128.0
99.940224 132.0
99.974907 212.0
100.000252 188.0
100.020493 212.0
100.043846 272.0
100.076515 140.0
100.102119 148.0
100.120041 188.0
100.14991 108.0
100.186386 116.0
100.201088 340.0
100.215881 176.0
100.236534 284.0
100.325264 100.0
100.34407 188.0
100.358032 92.0
100.394569 204.0
100.440918 184.0
100.49678 116.0
100.536217 272.0
100.563606 164.0
100.588898 124.0
100.610535 188.0
100.647316 180.0
100.670433 104.0
100.688034 320.0
100.693832 168.0
100.71637 132.0
100.731705 136.0
100.753197 332.0
100.775833 144.0
100.780983 116.0
100.788719 148.0
100.808273 120.0
100.833687 212.0
100.865082 160.0
100.870041 176.0
100.904213 108.0
100.930199 40.0
100.950195 108.0
100.986526 144.0
101.009445 152.0
101.024635 128.0
101.06546 308.0
101.089607 160.0
101.114555 176.0
101.136101 152.0
101.143921 140.0
101.166283 184.0
101.195396 220.0
101.21582 172.0
101.222961 128.0
101.227135 212.0
101.24437 164.0
101.291664 104.0
101.326263 152.0
101.352539 64.0
101.374054 188.0
101.397049 236.0
101.424683 152.0
101.450119 212.0
101.4851 228.0
101.502739 184.0
101.509315 148.0
101.516693 76.0
101.537422 232.0
101.568504 160.0
101.59111 96.0
101.623909 220.0
101.658463 244.0
101.693443 108.0
101.729576 124.0
101.747643 40.0
101.787796 288.0
101.827827 208.0
101.851204 196.0
101.873047 188.0
101.891441 200.0
101.906303 124.0
101.937263 140.0
101.960556 216.0
101.990707 124.0
102.011292 232.0
102.023834 108.0
102.036942 176.0
102.071121 172.0
102.095253 120.0
102.123405 72.0
102.1689 52.0
102.191284 172.0
102.235191 276.0
102.258209 180.0
102.298462 168.0
102.313972 108.0
102.332687 168.0
102.347961 184.0
102.389069 172.0
102.445465 176.0
102.494156 212.0
102.537193 160.0
102.570549 320.0
102.606239 200.0
102.630875 88.0
102.647896 272.0
102.679276 124.0
102.716705 136.0
102.749031 192.0
102.768654 116.0
102.790161 128.0
102.822975 148.0
102.838661 72.0
102.874084 116.0
102.890205 116.0
102.914986 168.0
102.922272 124.0
102.932449 96.0
102.957771 232.0
103.017937 168.0
103.048203 120.0
103.080879 136.0
103.120186 184.0
103.151161 112.0
103.171951 144.0
103.186104 148.0
103.23349 180.0
103.264046 44.0
103.296593 132.0
103.309464 236.0
103.339806 152.0
103.366112 164.0
103.389145 136.0
103.412895 208.0
103.434921 64.0
103.45578 132.0
103.461632 164.0
103.519615 96.0
103.585968 108.0
103.592339 108.0
103.635414 136.0
103.656464 164.0
103.677963 136.0
103.710388 144.0
103.757011 208.0
103.800011 136.0
103.827522 88.0
103.834854 144.0
103.854347 88.0
103.868546 112.0
103.899986 192.0
103.935493 116.0
103.962761 192.0
103.983467 172.0
104.028755 132.0
104.071404 104.0
104.096771 176.0
104.116158 136.0
104.142952 184.0
104.180519 136.0
104.198318 196.0
104.234482 144.0
104.256882 44.0
104.31192 396.0
104.342712 308.0
104.362862 244.0
104.408684 140.0
104.411316 304.0
104.426903 124.0
104.44857 80.0
104.46978 208.0
104.515434 152.0
104.530602 160.0
104.554192 128.0
104.581726 80.0
104.624474 324.0
104.652977 200.0
104.682053 200.0
104.715057 132.0
104.738747 736.0
104.770027 288.0
104.802582 160.0
104.828682 168.0
104.858719 128.0
104.881142 100.0
104.899483 132.0
104.924896 232.0
104.97084 68.0
104.994316 172.0
105.022697 140.0
105.060654 224.0
105.106941 116.0
105.152641 104.0
105.184151 164.0
105.205605 244.0
105.224724 288.0
105.245285 104.0
105.25972 464.0
105.289185 180.0
105.315216 172.0
105.338203 172.0
105.354546 204.0
105.369064 188.0
105.393295 124.0
105.47715 96.0
105.507927 136.0
105.532249 160.0
105.549095 188.0
105.569153 156.0
105.590157 200.0
105.59877 116.0
105.65506 148.0
105.691162 124.0
105.733223 140.0
105.737694 156.0
105.756065 344.0
105.772438 144.0
105.809441 92.0
105.828362 212.0
105.842247 304.0
105.864555 136.0
105.896599 424.0
105.910934 192.0
105.928986 128.0
105.956055 148.0
106.015419 180.0
106.047836 132.0
106.06971 196.0
106.095642 144.0
106.126106 88.0
106.144562 32.0
106.170349 244.0
106.193954 236.0
106.233162 120.0
106.25766 168.0
106.304558 72.0
106.323029 52.0
106.34713 264.0
106.367294 184.0
106.404045 196.0
106.457558 128.0
106.509544 156.0
106.51329 132.0
106.52108 244.0
106.552345 164.0
106.585442 208.0
106.608063 192.0
106.615845 268.0
106.662308 204.0
106.686646 128.0
106.695992 132.0
106.703758 204.0
106.721405 260.0
106.744148 124.0
106.764084 144.0
106.787735 144.0
106.814629 364.0
106.893265 212.0
106.910774 112.0
106.949295 180.0
106.971283 112.0
107.008057 184.0
107.06723 156.0
107.094002 156.0
107.114571 180.0
107.143585 116.0
107.164047 328.0
107.182274 212.0
107.211433 156.0
107.239227 148.0
107.280716 144.0
107.299721 144.0
107.319168 196.0
107.351257 232.0
107.359406 148.0
107.362854 160.0
107.390099 200.0
107.406448 136.0
107.423645 108.0
107.444427 96.0
107.514587 264.0
107.531097 228.0
107.546844 228.0
107.564575 272.0
107.588387 116.0
107.63044 128.0
107.648766 144.0
107.700394 100.0
107.716621 140.0
107.751625 140.0
107.775398 96.0
107.803696 60.0
107.829498 132.0
107.861565 284.0
107.882828 320.0
107.901611 128.0
107.917381 204.0
107.950462 112.0
107.96907 356.0
107.985619 80.0
108.022339 212.0
108.059303 212.0
108.078705 296.0
108.108246 284.0
108.126305 144.0
108.140793 180.0
108.162132 116.0
108.18219 152.0
108.198746 116.0
108.219452 160.0
108.247704 168.0
108.270027 152.0
108.315659 368.0
108.355988 212.0
108.377617 164.0
108.415558 160.0
108.45015 176.0
108.482559 124.0
108.517151 256.0
108.564713 416.0
108.585144 84.0
108.599327 240.0
108.623566 284.0
108.694778 148.0
108.732452 180.0
108.770889 132.0
108.796234 212.0
108.818634 108.0
108.848854 216.0
108.87262 60.0
108.893387 108.0
108.910004 224.0
108.927567 96.0
108.947395 216.0
108.980637 120.0
109.001411 120.0
109.024521 200.0
109.067101 132.0
109.110321 200.0
109.126717 112.0
109.144836 160.0
109.167938 204.0
109.216743 160.0
109.240501 204.0
109.264915 240.0
109.295944 68.0
109.31871 204.0
109.340378 200.0
109.359886 96.0
109.391205 124.0
109.429718 148.0
109.454872 120.0
109.472725 104.0
109.52327 52.0
109.542336 152.0
109.56942 156.0
109.602753 188.0
109.621506 132.0
109.644066 164.0
109.663193 124.0
109.689415 240.0
109.706963 176.0
109.734062 204.0
109.771591 104.0
109.793732 104.0
109.817474 108.0
109.84507 148.0
109.867538 128.0
109.912476 148.0
109.928467 176.0
109.963394 200.0
110.009438 76.0
110.049988 408.0
110.069984 120.0
110.115929 96.0
110.130547 120.0
110.151436 176.0
110.168144 196.0
110.184502 188.0
110.199829 216.0
110.232994 164.0
110.276024 204.0
110.305206 172.0
110.32206 360.0
110.339508 104.0
110.381325 184.0
110.411186 172.0
110.429428 160.0
110.482811 352.0
110.501228 160.0
110.539009 344.0
110.579338 184.0
110.603088 108.0
110.64286 200.0
110.658562 168.0
110.67115 172.0
110.699394 112.0
110.743561 44.0
110.768448 284.0
110.801003 148.0
110.836723 64.0
110.892128 96.0
110.913086 136.0
110.93824 320.0
110.952911 152.0
110.970406 140.0
110.994049 308.0
111.040977 164.0
111.071724 220.0
111.093086 1060.0
111.147751 116.0
111.187836 100.0
111.208824 220.0
111.225121 220.0
111.246605 176.0
111.267601 116.0
111.297752 88.0
111.323906 172.0
111.336281 152.0
111.352402 156.0
111.374695 48.0
111.391495 112.0
111.411789 164.0
111.460831 136.0
111.481842 144.0
111.524399 176.0
111.54821 344.0
111.576424 32.0
111.598373 112.0
111.624779 128.0
111.645676 124.0
111.700363 204.0
111.723518 144.0
111.737885 196.0
111.774132 132.0
111.807617 92.0
111.842438 252.0
111.884323 172.0
111.898308 152.0
111.917458 128.0
111.938103 80.0
111.98278 348.0
112.008575 84.0
112.034576 312.0
112.049904 244.0
112.088638 208.0
112.122078 120.0
112.159805 148.0
112.178299 168.0
112.196396 152.0
112.221939 184.0
112.244255 220.0
112.262093 160.0
112.304825 232.0
112.397293 180.0
112.427689 188.0
112.463249 84.0
112.525276 156.0
112.530846 160.0
112.567345 156.0
112.585152 244.0
112.599472 100.0
112.626122 144.0
112.645729 144.0
112.688408 264.0
112.727928 292.0
112.773773 236.0
112.790634 96.0
112.807343 124.0
112.920601 100.0
112.98941 148.0
113.013542 124.0
113.074051 140.0
113.09433 172.0
113.102501 100.0
113.124855 164.0
113.153915 356.0
113.181213 232.0
113.205887 336.0
113.221245 148.0
113.253464 92.0
113.29464 156.0
113.313332 148.0
113.340691 140.0
113.373917 188.0
113.401543 280.0
113.423294 220.0
113.445854 112.0
113.466476 248.0
113.492271 180.0
113.540001 268.0
113.558876 224.0
113.61013 204.0
113.650436 200.0
113.663666 188.0
113.669342 44.0
113.677612 228.0
113.695 136.0
113.711975 44.0
113.726837 124.0
113.746719 172.0
113.765038 172.0
113.79554 120.0
113.838646 96.0
113.847313 64.0
113.853035 144.0
113.861183 128.0
113.869698 180.0
113.905991 160.0
113.941833 192.0
113.960426 180.0
113.994423 212.0
114.022453 168.0
114.052681 136.0
114.100693 140.0
114.125328 280.0
114.157623 160.0
114.17968 156.0
114.230415 136.0
114.245308 48.0
114.260201 136.0
114.285728 176.0
114.324028 104.0
114.381493 152.0
114.403412 352.0
114.421936 68.0
114.468781 144.0
114.490265 180.0
114.507111 156.0
114.520889 64.0
114.571167 172.0
114.593575 88.0
114.631363 212.0
114.659897 140.0
114.697212 340.0
114.722321 232.0
114.741501 88.0
114.770691 180.0
114.799835 160.0
114.824661 104.0
114.855789 148.0
114.88652 68.0
114.903587 116.0
114.937721 192.0
114.965462 80.0
114.982536 152.0
114.999611 120.0
115.013542 120.0
115.054985 804.0
115.086296 184.0
115.148125 168.0
115.170853 216.0
115.189644 208.0
115.204597 196.0
115.231781 188.0
115.273033 124.0
115.295647 228.0
115.301231 140.0
115.310219 120.0
115.332642 104.0
115.369476 180.0
115.388382 128.0
115.418808 208.0
115.449341 120.0
115.484612 144.0
115.52739 96.0
115.573067 80.0
115.625282 200.0
115.635132 136.0
115.698174 124.0
115.730705 136.0
115.749977 92.0
115.775238 376.0
115.818504 160.0
115.833496 116.0
115.868088 424.0
115.897766 168.0
115.931915 168.0
115.97599 184.0
116.006485 148.0
116.058517 116.0
116.076515 180.0
116.113007 180.0
116.175468 196.0
116.211479 264.0
116.234894 212.0
116.253006 144.0
116.284309 312.0
116.350304 208.0
116.365334 140.0
116.382507 164.0
116.399689 104.0
116.427841 144.0
116.456718 136.0
116.479469 108.0
116.515663 140.0
116.545242 184.0
116.560188 404.0
116.584427 100.0
116.616188 128.0
116.62854 212.0
116.665558 128.0
116.689751 128.0
116.71125 200.0
116.731865 272.0
116.765717 280.0
116.838142 56.0
116.879021 84.0
116.904213 164.0
116.925941 220.0
116.949005 184.0
116.990929 184.0
117.008156 92.0
117.042473 268.0
117.064133 176.0
117.078491 144.0
117.094643 140.0
117.124855 364.0
117.154594 176.0
117.173981 96.0
117.193375 232.0
117.212769 172.0
117.268799 176.0
117.301125 132.0
117.328781 116.0
117.359093 108.0
117.391113 260.0
117.404198 168.0
117.427422 240.0
117.441544 324.0
117.494423 164.0
117.501846 104.0
117.508858 172.0
117.541405 156.0
117.57164 152.0
117.61161 68.0
117.637634 272.0
117.661385 60.0
117.699188 172.0
117.723999 88.0
117.745598 124.0
117.78231 28.0
117.800987 204.0
117.85144 52.0
117.888176 164.0
117.920593 88.0
117.948685 92.0
117.96669 280.0
117.989761 124.0
118.006126 224.0
118.028214 280.0
118.034035 192.0
118.040207 308.0
118.05114 72.0
118.056786 264.0
118.084053 328.0
118.146416 244.0
118.162102 172.0
118.184753 372.0
118.198807 116.0
118.219032 124.0
118.269913 204.0
118.293083 148.0
118.312103 200.0
118.356606 316.0
118.372726 180.0
118.390045 248.0
118.436279 312.0
118.466171 340.0
118.486404 288.0
118.511353 120.0
118.56427 284.0
118.594284 220.0
118.630547 120.0
118.676125 160.0
118.717644 116.0
118.75708 168.0
118.818718 140.0
118.82267 108.0
118.831085 204.0
118.847054 180.0
118.923508 176.0
118.949142 96.0
118.999344 156.0
119.016716 128.0
119.067818 168.0
119.086205 312.0
119.12748 56.0
119.190483 172.0
119.21656 92.0
119.26709 144.0
119.303497 232.0
119.321861 196.0
119.340454 124.0
119.357216 260.0
119.381386 264.0
119.435692 156.0
119.468575 316.0
119.517067 80.0
119.532906 152.0
119.555801 80.0
119.586266 140.0
119.603683 148.0
119.637901 244.0
119.655807 216.0
119.682816 132.0
119.71254 172.0
119.737579 80.0
119.747826 216.0
119.764809 144.0
119.78582 216.0
119.827286 240.0
119.851944 104.0
119.880272 140.0
119.915466 108.0
119.934471 216.0
119.958557 156.0
119.978355 136.0
119.994987 248.0
120.015533 152.0
120.067657 276.0
120.094376 116.0
120.108414 168.0
120.142738 116.0
120.166946 216.0
120.198639 192.0
120.232613 112.0
120.338326 60.0
120.369202 256.0
120.396606 168.0
120.421303 88.0
120.449699 196.0
120.488091 132.0
120.513451 216.0
120.554977 256.0
120.580399 176.0
120.600464 140.0
120.622322 136.0
120.641762 188.0
120.668228 84.0
120.693283 252.0
120.716331 180.0
120.733826 132.0
120.752945 248.0
120.760925 184.0
120.792244 108.0
120.823502 192.0
120.841003 176.0
120.856323 244.0
120.891739 108.0
120.911026 176.0
120.952614 136.0
121.009277 140.0
121.03434 96.0
121.075523 144.0
121.11245 232.0
121.139359 168.0
121.156258 132.0
121.220253 116.0
121.248291 176.0
121.293564 128.0
121.338875 200.0
121.382423 188.0
121.430969 184.0
121.446701 104.0
121.469978 84.0
121.491669 296.0
121.528969 152.0
121.544327 228.0
121.558113 112.0
121.617844 120.0
121.626549 60.0
121.630615 88.0
121.64991 144.0
121.696846 212.0
121.755936 180.0
121.783363 72.0
121.801735 192.0
121.827072 112.0
121.84951 208.0
121.871483 184.0
121.886864 128.0
121.917389 184.0
121.983559 192.0
122.012138 76.0
122.049515 136.0
122.07988 208.0
122.108887 168.0
122.128685 176.0
122.15728 168.0
122.172676 96.0
122.210075 124.0
122.229881 168.0
122.280724 168.0
122.338768 152.0
122.357056 128.0
122.40789 184.0
122.416161 160.0
122.439003 144.0
122.467636 196.0
122.497459 148.0
122.5205 284.0
122.542595 148.0
122.592064 396.0
122.630676 128.0
122.652718 232.0
122.670357 200.0
122.690193 236.0
122.713203 128.0
122.76075 92.0
122.789978 168.0
122.813675 76.0
122.840149 160.0
122.857796 140.0
122.898605 48.0
122.953728 96.0
122.984612 272.0
123.011345 240.0
123.029472 176.0
123.035728 140.0
123.067238 120.0
123.126297 260.0
123.166199 208.0
123.203651 64.0
123.23967 132.0
123.256371 148.0
123.277054 184.0
123.32592 128.0
123.358925 184.0
123.426224 332.0
123.462326 172.0
123.486557 152.0
123.520493 32.0
123.53598 140.0
123.580627 88.0
123.616501 152.0
123.635544 112.0
123.652298 140.0
123.670639 228.0
123.676239 196.0
123.694038 256.0
123.710327 152.0
123.732933 148.0
123.777214 172.0
123.82843 156.0
123.844452 112.0
123.863586 108.0
123.892387 136.0
123.911217 176.0
123.919571 88.0
123.929291 120.0
123.98101 160.0
123.996277 144.0
124.049721 36.0
124.073677 208.0
124.105141 36.0
124.150017 220.0
124.18705 124.0
124.194229 116.0
124.200935 144.0
124.232819 232.0
124.249306 148.0
124.275391 204.0
124.325562 76.0
124.348854 148.0
124.372269 124.0
124.412514 340.0
124.451271 108.0
124.485687 176.0
124.510231 148.0
124.542313 172.0
124.557861 132.0
124.597893 148.0
124.620064 216.0
124.657219 216.0
124.663422 156.0
124.68895 196.0
124.760078 288.0
124.784607 124.0
124.803139 120.0
124.829002 148.0
124.846741 176.0
124.864586 104.0
124.883339 184.0
124.913513 104.0
124.93502 96.0
124.946198 232.0
124.982811 288.0
125.000854 232.0
125.023132 180.0
125.047012 144.0
125.084854 96.0
125.109337 108.0
125.127151 148.0
125.147186 112.0
125.162773 96.0
125.21505 252.0
125.251854 164.0
125.269676 180.0
125.294785 192.0
125.329826 208.0
125.345421 92.0
125.361023 172.0
125.397888 184.0
125.430672 144.0
125.44043 108.0
125.509033 160.0
125.518036 64.0
125.52713 124.0
125.554268 192.0
125.585655 152.0
125.625732 220.0
125.644188 320.0
125.682114 64.0
125.724075 176.0
125.744499 180.0
125.790291 80.0
125.810051 236.0
125.833687 136.0
125.863228 220.0
125.885239 164.0
125.907127 60.0
125.927673 136.0
125.950005 120.0
125.96917 276.0
126.00927 136.0
126.032661 120.0
126.063385 224.0
126.102608 120.0
126.142174 132.0
126.174019 148.0
126.241562 132.0
126.269615 132.0
126.29422 44.0
126.312111 48.0
126.332245 132.0
126.354324 152.0
126.38916 100.0
126.421738 168.0
126.439644 116.0
126.477692 196.0
126.509468 144.0
126.540092 128.0
126.544693 112.0
126.563957 180.0
126.656815 128.0
126.679214 92.0
126.7061 248.0
126.723541 56.0
126.773567 144.0
126.800209 136.0
126.832001 108.0
126.870018 84.0
126.887123 124.0
126.905563 140.0
126.932549 136.0
126.958221 164.0
126.979187 204.0
127.013268 156.0
127.022896 88.0
127.03286 184.0
127.062561 168.0
127.090675 176.0
127.123978 156.0
127.15007 56.0
127.182846 312.0
127.197685 208.0
127.235367 164.0
127.251083 176.0
127.283966 136.0
127.302071 148.0
127.357407 160.0
127.379997 140.0
127.411049 172.0
127.432549 220.0
127.471664 96.0
127.484116 128.0
127.501305 148.0
127.518951 336.0
127.545479 212.0
127.569984 180.0
127.604782 148.0
127.652367 148.0
127.665352 140.0
127.731987 68.0
127.76123 184.0
127.783218 280.0
127.800697 128.0
127.827766 176.0
127.857323 244.0
127.884583 160.0
127.916283 152.0
127.931221 204.0
127.959274 128.0
127.988548 88.0
128.016754 160.0
128.035828 140.0
128.053223 156.0
128.077026 180.0
128.124252 296.0
128.132843 132.0
128.1409 168.0
128.161209 188.0
128.205673 184.0
128.222031 148.0
128.241623 160.0
128.271652 180.0
128.303436 204.0
128.32547 144.0
128.342133 332.0
128.373856 88.0
128.403183 120.0
128.425125 416.0
128.455276 180.0
128.507904 292.0
128.546051 272.0
128.562073 296.0
128.598846 160.0
128.624435 128.0
128.641785 204.0
128.656693 192.0
128.682983 112.0
128.726685 204.0
128.755249 84.0
128.771057 192.0
128.790543 124.0
128.836121 336.0
128.858459 156.0
128.879089 140.0
128.915115 88.0
128.919189 148.0
128.969757 128.0
128.998566 168.0
129.007141 196.0
129.050812 184.0
129.065887 188.0
129.09874 296.0
129.134918 92.0
129.154037 112.0
129.177902 136.0
129.261932 196.0
129.288773 124.0
129.343414 136.0
129.349869 316.0
129.38092 268.0
129.386749 192.0
129.435898 148.0
129.467606 180.0
129.497803 180.0
129.541916 148.0
129.58847 168.0
129.619385 160.0
129.648834 352.0
129.685104 172.0
129.718948 116.0
129.753098 128.0
129.771423 48.0
129.789383 68.0
129.814484 160.0
129.832458 128.0
129.848343 92.0
129.865646 164.0
129.902771 32.0
129.929886 156.0
129.968567 88.0
130.036636 116.0
130.066971 132.0
130.088852 184.0
130.107559 180.0
130.122894 336.0
130.159546 84.0
130.220306 156.0
130.250122 164.0
130.290955 200.0
130.320038 60.0
130.360535 276.0
130.429749 176.0
130.46022 100.0
130.49498 156.0
130.524414 112.0
130.547791 148.0
130.568161 132.0
130.606934 136.0
130.628952 340.0
130.653259 160.0
130.675171 148.0
130.719315 220.0
130.748108 144.0
130.783539 168.0
130.804749 136.0
130.825562 136.0
130.842865 152.0
130.846741 104.0
130.859421 88.0
130.908249 100.0
130.915588 116.0
130.921967 172.0
130.966553 132.0
131.002991 104.0
131.03717 76.0
131.067062 264.0
131.1306 104.0
131.15181 208.0
131.178467 380.0
131.207199 156.0
131.221771 220.0
131.287903 128.0
131.303864 40.0
131.341248 132.0
131.367722 196.0
131.397385 340.0
131.415314 140.0
131.444397 112.0
131.465836 88.0
131.490936 156.0
131.526855 184.0
131.559418 152.0
131.578705 160.0
131.613617 180.0
131.648453 108.0
131.678146 96.0
131.710266 200.0
131.745331 96.0
131.771805 96.0
131.816971 176.0
131.848206 100.0
131.852432 140.0
131.885132 288.0
131.929489 160.0
131.947784 204.0
132.032318 156.0
132.087265 168.0
132.105576 140.0
132.130737 116.0
132.155899 160.0
132.213303 136.0
132.245148 124.0
132.277191 56.0
132.293213 208.0
132.329544 176.0
132.358017 92.0
132.39682 124.0
132.448868 156.0
132.466629 148.0
132.487686 204.0
132.496445 188.0
132.523209 188.0
132.538269 288.0
132.581711 188.0
132.606461 116.0
132.636765 148.0
132.683334 136.0
132.710266 212.0
132.730347 180.0
132.753738 148.0
132.778961 84.0
132.807343 224.0
132.850067 156.0
132.90863 160.0
132.928604 104.0
132.968811 272.0
132.984085 136.0
133.060471 100.0
133.079529 140.0
133.109833 196.0
133.14032 120.0
133.157639 152.0
133.182907 48.0
133.226715 176.0
133.245087 112.0
133.272385 160.0
133.333664 260.0
133.382034 96.0
133.398895 92.0
133.419144 144.0
133.446075 196.0
133.471542 140.0
133.499268 116.0
133.524597 212.0
133.564896 156.0
133.585617 88.0
133.607574 140.0
133.632553 148.0
133.651993 128.0
133.681793 224.0
133.704681 144.0
133.726532 136.0
133.735107 164.0
133.776382 164.0
133.82283 220.0
133.877411 220.0
133.904831 224.0
133.931 160.0
133.958069 132.0
133.995422 176.0
134.024887 152.0
134.047821 188.0
134.075577 396.0
134.097687 192.0
134.134338 148.0
134.18367 148.0
134.206055 172.0
134.239243 104.0
134.269226 76.0
134.332825 252.0
134.381119 124.0
134.403015 44.0
134.445541 112.0
134.498077 168.0
134.531906 184.0
134.548965 320.0
134.588547 184.0
134.617538 120.0
134.628326 324.0
134.651337 128.0
134.684341 112.0
134.706863 276.0
134.758591 104.0
134.840378 412.0
134.861069 104.0
134.903824 128.0
134.930008 116.0
134.973236 120.0
135.013977 124.0
135.054214 172.0
135.075302 136.0
135.094528 192.0
135.114822 192.0
135.160904 396.0
135.18866 96.0
135.225693 204.0
135.281433 148.0
135.31398 56.0
135.35231 288.0
135.403961 124.0
135.422485 288.0
135.447937 264.0
135.455902 180.0
135.482132 128.0
135.520432 100.0
135.542953 112.0
135.573074 124.0
135.608566 128.0
135.640289 180.0
135.678497 124.0
135.743927 228.0
135.812881 204.0
135.841644 148.0
135.866013 164.0
135.888428 52.0
135.913635 148.0
135.95871 152.0
136.002991 184.0
136.036804 192.0
136.075394 172.0
136.091232 188.0
136.128128 292.0
136.173935 148.0
136.197174 320.0
136.213425 164.0
136.229935 440.0
136.250031 196.0
136.271072 240.0
136.301712 168.0
136.352829 108.0
136.369095 116.0
136.405777 228.0
136.455109 96.0
136.47702 160.0
136.531754 100.0
136.554321 96.0
136.590591 168.0
136.597427 180.0
136.623459 380.0
136.667831 112.0
136.70018 132.0
136.717957 168.0
136.743164 172.0
136.760849 148.0
136.793457 172.0
136.815399 168.0
136.850632 216.0
136.873016 432.0
136.946518 136.0
136.980164 84.0
137.006668 56.0
137.026108 104.0
137.072906 112.0
137.095795 164.0
137.123169 260.0
137.148666 136.0
137.201279 172.0
137.246719 108.0
137.273483 192.0
137.291824 140.0
137.316971 192.0
137.344131 156.0
137.385345 112.0
137.391708 168.0
137.408081 172.0
137.424927 148.0
137.446533 168.0
137.483551 152.0
137.500992 176.0
137.519653 112.0
137.541519 176.0
137.609344 184.0
137.636383 64.0
137.678406 120.0
137.713318 140.0
137.729691 92.0
137.74527 340.0
137.768234 156.0
137.794113 160.0
137.868118 180.0
137.897018 168.0
137.905731 240.0
137.956451 144.0
137.978424 420.0
138.038208 140.0
138.096741 204.0
138.11673 200.0
138.173386 204.0
138.205017 140.0
138.224106 448.0
138.276947 252.0
138.283829 104.0
138.292175 288.0
138.314346 128.0
138.372864 124.0
138.40799 224.0
138.433746 184.0
138.473206 52.0
138.496902 72.0
138.516815 128.0
138.540955 324.0
138.571182 172.0
138.578079 116.0
138.616531 144.0
138.652451 180.0
138.700836 216.0
138.765121 204.0
138.78772 128.0
138.813354 80.0
138.829773 160.0
138.855698 216.0
138.890747 176.0
138.939331 204.0
138.975204 44.0
139.020477 124.0
139.055893 1244.0
139.113419 424.0
139.143021 116.0
139.186859 188.0
139.205597 180.0
139.25914 328.0
139.28508 128.0
139.312698 284.0
139.363373 148.0
139.421356 140.0
139.443909 176.0
139.469772 180.0
139.580048 188.0
139.609344 192.0
139.642258 228.0
139.663513 272.0
139.695007 164.0
139.712906 180.0
139.731171 152.0
139.737335 116.0
139.744461 196.0
139.764679 164.0
139.799652 148.0
139.825851 340.0
139.860855 188.0
139.873489 116.0
139.898102 224.0
139.902145 156.0
139.91394 132.0
139.919891 84.0
139.941193 180.0
139.974167 128.0
139.996826 348.0
140.022537 116.0
140.064148 536.0
140.111725 168.0
140.152817 104.0
140.17337 168.0
140.226089 188.0
140.242889 328.0
140.258072 232.0
140.279968 212.0
140.318161 168.0
140.35527 92.0
140.3629 196.0
140.411804 184.0
140.430847 324.0
140.466721 152.0
140.504471 180.0
140.606216 164.0
140.643692 144.0
140.707581 180.0
140.783707 144.0
140.830215 120.0
140.868973 236.0
140.886902 180.0
140.925568 144.0
140.980637 144.0
141.018463 196.0
141.07016 2880.0
141.118515 76.0
141.165802 88.0
141.183228 108.0
141.210739 52.0
141.24704 148.0
141.294678 256.0
141.31955 60.0
141.358734 128.0
141.37558 224.0
141.411835 104.0
141.431961 136.0
141.449951 244.0
141.48996 72.0
141.512802 172.0
141.534943 128.0
141.562469 248.0
141.589401 268.0
141.620407 184.0
141.667603 248.0
141.686066 180.0
141.70961 244.0
141.77655 164.0
141.797882 124.0
141.825348 236.0
141.850967 152.0
141.887558 164.0
141.903015 80.0
141.953903 196.0
141.982803 36.0
141.999405 56.0
142.039062 244.0
142.074921 240.0
142.100449 196.0
142.131836 184.0
142.178802 148.0
142.205063 216.0
142.242325 228.0
142.264267 144.0
142.271347 144.0
142.280258 200.0
142.329254 292.0
142.352997 168.0
142.377151 324.0
142.395752 148.0
142.41774 292.0
142.443253 108.0
142.474136 76.0
142.499863 120.0
142.54541 88.0
142.575775 220.0
142.607361 120.0
142.639282 224.0
142.667511 152.0
142.697525 120.0
142.725113 156.0
142.75351 164.0
142.783127 80.0
142.806915 160.0
142.833115 184.0
142.854477 148.0
142.875015 248.0
142.906525 96.0
142.94368 220.0
142.986649 344.0
143.016281 164.0
143.044937 164.0
143.064224 144.0
143.107697 152.0
143.142456 112.0
143.180359 196.0
143.216293 140.0
143.242279 176.0
143.246475 160.0
143.257324 124.0
143.264587 188.0
143.272705 176.0
143.278946 132.0
143.313965 156.0
143.34761 164.0
143.406586 152.0
143.46434 148.0
143.492706 160.0
143.513245 176.0
143.530655 92.0
143.539917 100.0
143.548553 172.0
143.565643 204.0
143.570847 120.0
143.580856 176.0
143.629852 188.0
143.64856 148.0
143.673172 316.0
143.688828 104.0
143.709839 296.0
143.749146 204.0
143.770767 264.0
143.775497 152.0
143.784256 196.0
143.836395 112.0
143.852936 148.0
143.87204 312.0
143.892914 160.0
143.923874 140.0
143.954773 312.0
143.988785 156.0
144.039505 156.0
144.06546 176.0
144.101959 144.0
144.158218 160.0
144.173218 428.0
144.239792 528.0
144.256454 212.0
144.298477 128.0
144.335526 172.0
144.366623 92.0
144.395309 104.0
144.425323 144.0
144.447937 64.0
144.467072 220.0
144.482025 160.0
144.501816 120.0
144.543625 172.0
144.564728 132.0
144.588226 196.0
144.60611 172.0
144.644379 164.0
144.705994 252.0
144.735123 172.0
144.750748 160.0
144.797379 108.0
144.820496 172.0
144.842896 92.0
144.864441 372.0
144.915527 148.0
144.967697 208.0
145.001205 160.0
145.055969 52.0
145.100479 196.0
145.163483 172.0
145.189545 160.0
145.224701 136.0
145.328049 124.0
145.355942 184.0
145.371536 160.0
145.426788 84.0
145.457062 172.0
145.514343 148.0
145.54483 196.0
145.554535 136.0
145.586197 184.0
145.619995 36.0
145.646423 172.0
145.677399 228.0
145.730499 152.0
145.758499 80.0
145.767929 188.0
145.797791 40.0
145.848251 120.0
145.867477 216.0
145.889038 116.0
145.915558 148.0
145.969833 204.0
146.010193 112.0
146.068466 236.0
146.095932 152.0
146.11879 128.0
146.132736 120.0
146.168671 120.0
146.179138 144.0
146.185654 204.0
146.208496 168.0
146.233078 156.0
146.259018 144.0
146.298065 164.0
146.32663 144.0
146.43396 120.0
146.467438 144.0
146.492767 148.0
146.550949 120.0
146.585922 156.0
146.60878 88.0
146.637695 132.0
146.659393 180.0
146.68306 132.0
146.71965 96.0
146.740982 160.0
146.790848 168.0
146.812759 304.0
146.841034 316.0
146.873978 300.0
146.919815 136.0
146.942108 148.0
146.969208 216.0
146.987747 60.0
147.017136 224.0
147.044083 176.0
147.094711 168.0
147.129761 136.0
147.172607 208.0
147.199463 212.0
147.223938 132.0
147.285217 384.0
147.31813 112.0
147.343872 128.0
147.372833 316.0
147.409943 216.0
147.450394 116.0
147.467941 96.0
147.484283 156.0
147.50177 68.0
147.518692 236.0
147.540878 160.0
147.579636 196.0
147.615402 172.0
147.641159 164.0
147.673447 148.0
147.73732 292.0
147.785141 140.0
147.818588 208.0
147.840378 96.0
147.864151 136.0
147.906265 252.0
147.948837 316.0
147.952255 144.0
148.004776 48.0
148.052734 296.0
148.078384 128.0
148.130096 84.0
148.15271 180.0
148.203583 204.0
148.241638 120.0
148.265457 168.0
148.296585 96.0
148.316666 152.0
148.350327 200.0
148.402328 228.0
148.449722 148.0
148.459976 140.0
148.486237 180.0
148.514023 140.0
148.541885 184.0
148.581802 80.0
148.618195 132.0
148.641586 156.0
148.663803 136.0
148.690994 204.0
148.727127 208.0
148.730225 272.0
148.755829 192.0
148.786331 244.0
148.816345 148.0
148.834778 228.0
148.8853 344.0
148.921982 140.0
148.967499 136.0
148.984802 152.0
149.009094 160.0
149.029358 320.0
149.057678 276.0
149.079559 256.0
149.107574 136.0
149.118134 188.0
149.157333 208.0
149.196365 132.0
149.243942 240.0
149.286179 172.0
149.314316 56.0
149.353241 160.0
149.385376 256.0
149.407791 92.0
149.427261 96.0
149.453995 284.0
149.480789 184.0
149.500259 256.0
149.537994 180.0
149.586578 308.0
149.658478 108.0
149.699326 308.0
149.721786 156.0
149.740112 212.0
149.780777 152.0
149.817688 192.0
149.842194 128.0
149.86644 140.0
149.933731 184.0
149.958099 76.0
149.982468 208.0
150.00441 152.0
150.049637 156.0
150.076462 180.0
150.108704 108.0
150.150696 136.0
150.175095 108.0
150.197037 120.0
150.243988 132.0
150.315475 132.0
150.356567 156.0
150.397446 176.0
150.41893 128.0
150.427063 120.0
150.434341 160.0
150.472244 160.0
150.50209 192.0
150.539978 140.0
150.563797 164.0
150.585068 200.0
150.601059 84.0
150.619308 56.0
150.656204 120.0
150.699936 164.0
150.719482 128.0
150.743912 128.0
150.778122 268.0
150.814789 128.0
150.880234 224.0
150.908783 248.0
150.940704 152.0
150.967178 156.0
150.977646 52.0
150.984726 188.0
151.02626 372.0
151.052979 392.0
151.14003 212.0
151.171844 188.0
151.212646 172.0
151.279526 132.0
151.309021 184.0
151.38472 220.0
151.404099 100.0
151.44342 292.0
151.507278 120.0
151.531769 76.0
151.593033 140.0
151.621536 184.0
151.654297 120.0
151.6745 152.0
151.722931 180.0
151.74408 268.0
151.792984 168.0
151.862701 108.0
151.911758 152.0
151.949234 188.0
152.019714 92.0
152.038208 92.0
152.061981 508.0
152.112976 40.0
152.132614 140.0
152.157166 180.0
152.191879 144.0
152.242783 156.0
152.260025 76.0
152.275757 148.0
152.298798 188.0
152.324142 184.0
152.350601 156.0
152.384735 356.0
152.414368 204.0
152.461731 172.0
152.49614 68.0
152.544235 136.0
152.594543 136.0
152.690475 172.0
152.739853 200.0
152.773575 128.0
152.796036 168.0
152.832291 304.0
152.877335 208.0
152.909882 124.0
152.928329 152.0
152.958557 136.0
152.984802 168.0
153.034012 160.0
153.067215 408.0
153.097809 264.0
153.196182 88.0
153.226974 56.0
153.298798 196.0
153.336517 96.0
153.346069 48.0
153.385269 204.0
153.416733 164.0
153.469696 136.0
153.530151 112.0
153.557281 148.0
153.58934 116.0
153.621292 164.0
153.649445 208.0
153.680695 116.0
153.7155 228.0
153.739838 172.0
153.760818 96.0
153.801193 180.0
153.831161 108.0
153.894272 156.0
153.929916 120.0
153.978149 204.0
154.011414 96.0
154.028702 156.0
154.063278 224.0
154.110229 140.0
154.151627 164.0
154.174133 88.0
154.211227 192.0
154.245026 176.0
154.253738 212.0
154.265671 192.0
154.271835 92.0
154.315369 60.0
154.345947 172.0
154.377182 332.0
154.400192 156.0
154.44194 384.0
154.474304 312.0
154.51709 148.0
154.56517 196.0
154.607239 80.0
154.644058 292.0
154.662857 228.0
154.723572 132.0
154.760712 144.0
154.791779 220.0
154.833344 156.0
154.859177 136.0
154.899399 148.0
154.946457 212.0
154.971237 164.0
155.008698 164.0
155.046722 204.0
155.051743 104.0
155.082123 160.0
155.088455 120.0
155.123184 168.0
155.171097 156.0
155.209183 68.0
155.239395 152.0
155.270279 88.0
155.305893 104.0
155.333893 152.0
155.355042 232.0
155.385269 132.0
155.419159 220.0
155.468124 144.0
155.48822 148.0
155.539124 96.0
155.592422 172.0
155.599777 112.0
155.633469 160.0
155.654816 308.0
155.672302 112.0
155.677261 144.0
155.730316 64.0
155.754837 128.0
155.764267 192.0
155.833069 196.0
155.867661 164.0
155.886826 160.0
155.912247 176.0
155.941498 156.0
156.002731 252.0
156.042694 152.0
156.049591 128.0
156.115524 120.0
156.135422 120.0
156.184128 212.0
156.202576 116.0
156.227448 172.0
156.25293 148.0
156.301315 156.0
156.334442 108.0
156.379044 116.0
156.425232 116.0
156.440872 236.0
156.488754 172.0
156.510559 132.0
156.555984 108.0
156.586975 268.0
156.610779 176.0
156.658112 132.0
156.718323 148.0
156.805527 120.0
156.839417 220.0
156.877396 160.0
156.916656 204.0
156.947372 296.0
156.972137 88.0
157.024506 148.0
157.054443 116.0
157.085281 348.0
157.128723 236.0
157.153595 64.0
157.187653 208.0
157.22554 152.0
157.234879 136.0
157.288986 104.0
157.315262 116.0
157.368866 116.0
157.411316 220.0
157.438782 168.0
157.502075 164.0
157.564301 112.0
157.618835 148.0
157.630539 136.0
157.641083 252.0
157.67244 176.0
157.710678 96.0
157.734528 376.0
157.752335 164.0
157.796997 320.0
157.834045 200.0
157.866638 160.0
157.951141 136.0
157.971146 96.0
157.988663 164.0
158.031189 132.0
158.068726 168.0
158.103455 296.0
158.131287 212.0
158.201202 248.0
158.221008 228.0
158.253937 28.0
158.306534 164.0
158.374146 28.0
158.401703 248.0
158.441772 152.0
158.514435 68.0
158.536819 136.0
158.566101 188.0
158.57338 116.0
158.591156 340.0
158.616089 128.0
158.643463 92.0
158.65094 156.0
158.700974 132.0
158.757599 156.0
158.775146 112.0
158.812775 340.0
158.83284 116.0
158.871536 144.0
158.893982 128.0
158.922073 188.0
158.938232 184.0
158.970734 128.0
159.000473 128.0
159.026031 128.0
159.050598 296.0
159.071213 176.0
159.095993 96.0
159.10495 172.0
159.123932 164.0
159.164932 228.0
159.196747 156.0
159.219345 140.0
159.24205 104.0
159.264557 144.0
159.321945 132.0
159.345383 204.0
159.385132 204.0
159.402725 84.0
159.435547 160.0
159.454483 228.0
159.500748 232.0
159.517807 136.0
159.562424 180.0
159.590195 212.0
159.624725 192.0
159.657547 168.0
159.691833 136.0
159.712509 196.0
159.764771 144.0
159.811707 92.0
159.839218 204.0
159.865417 132.0
159.887939 168.0
159.91626 196.0
159.946945 252.0
159.999069 196.0
160.047028 108.0
160.065781 348.0
160.11058 176.0
160.154938 296.0
160.192719 128.0
160.231766 224.0
160.255493 232.0
160.278381 112.0
160.311142 148.0
160.399353 120.0
160.446106 116.0
160.451675 148.0
160.49263 132.0
160.516022 156.0
160.551743 244.0
160.580887 172.0
160.621689 320.0
160.64035 132.0
160.690506 148.0
160.741791 204.0
160.769363 292.0
160.80542 116.0
160.906403 212.0
160.929688 196.0
160.951843 140.0
160.972046 300.0
161.005463 136.0
161.02507 68.0
161.052856 96.0
161.070541 176.0
161.156433 188.0
161.204346 100.0
161.246368 88.0
161.305527 132.0
161.32933 120.0
161.36937 144.0
161.386719 244.0
161.409821 172.0
161.44455 360.0
161.465607 272.0
161.505295 156.0
161.524048 128.0
161.584549 152.0
161.620636 128.0
161.669739 104.0
161.706802 308.0
161.757767 256.0
161.784897 72.0
161.805878 112.0
161.810867 204.0
161.902954 164.0
161.945312 328.0
161.979477 284.0
161.998886 92.0
162.045609 560.0
162.082489 144.0
162.112076 148.0
162.139557 284.0
162.170013 216.0
162.194275 288.0
162.222 172.0
162.274612 164.0
162.28508 120.0
162.322952 148.0
162.341354 128.0
162.389221 136.0
162.417084 156.0
162.456345 156.0
162.512634 184.0
162.548309 192.0
162.567276 204.0
162.599792 140.0
162.646271 320.0
162.657852 64.0
162.666901 312.0
162.686569 152.0
162.708496 132.0
162.720688 64.0
162.727753 208.0
162.747025 188.0
162.810516 84.0
162.837097 156.0
162.869278 112.0
162.896362 204.0
162.927155 152.0
162.960129 160.0
162.966019 144.0
162.995285 124.0
163.014069 244.0
163.053864 1560.0
163.092514 152.0
163.117188 208.0
163.149094 384.0
163.185806 176.0
163.213196 236.0
163.241699 156.0
163.256393 172.0
163.311172 124.0
163.340424 136.0
163.402756 140.0
163.430145 236.0
163.463821 152.0
163.50383 196.0
163.52594 108.0
163.533218 148.0
163.555435 88.0
163.589996 216.0
163.612717 176.0
163.644943 364.0
163.660568 216.0
163.686401 72.0
163.718384 100.0
163.757004 240.0
163.777527 248.0
163.797333 132.0
163.840637 92.0
163.868668 80.0
163.899994 188.0
163.926605 184.0
163.959808 192.0
163.982208 412.0
164.021255 348.0
164.060959 884.0
164.149841 160.0
164.184128 196.0
164.193039 248.0
164.213989 328.0
164.247147 284.0
164.273911 112.0
164.302765 436.0
164.354019 88.0
164.371964 208.0
164.40155 176.0
164.417709 148.0
164.44632 212.0
164.468826 188.0
164.518982 140.0
164.545685 128.0
164.583633 124.0
164.607651 476.0
164.635452 104.0
164.667084 52.0
164.697052 172.0
164.708908 96.0
164.77803 332.0
164.807465 248.0
164.834442 208.0
164.868439 420.0
164.886856 316.0
164.925217 412.0
164.951996 340.0
164.979248 220.0
164.988327 116.0
165.040909 628.0
165.071533 220812.0
165.145096 376.0
165.21257 100.0
165.251297 216.0
165.285263 200.0
165.30986 348.0
165.335037 316.0
165.382156 440.0
165.406143 288.0
165.459869 284.0
165.492706 2668.0
165.529251 248.0
165.556793 216.0
165.564026 332.0
165.583664 316.0
165.633438 652.0
165.683609 420.0
165.70488 464.0
165.72406 152.0
165.743744 288.0
165.782242 524.0
165.821014 512.0
165.890884 384.0
165.928482 464.0
165.931824 552.0
165.962296 320.0
165.991409 820.0
165.998306 268.0
166.009949 888.0
166.079453 324488.0
166.138626 328.0
166.153152 100.0
166.203934 136.0
166.242508 156.0
166.26297 416.0
166.287094 212.0
166.317764 1408.0
166.357681 412.0
166.401398 152.0
166.431793 92.0
166.469788 452.0
166.504089 5676.0
166.584564 368.0
166.64035 156.0
166.664154 64.0
166.682938 128.0
166.713318 216.0
166.750885 172.0
166.771973 188.0
166.824677 68.0
166.854996 52.0
166.861237 100.0
166.884354 180.0
166.919662 304.0
166.94101 308.0
166.972229 448.0
167.041595 320.0
167.082077 69996.0
167.12825 288.0
167.161575 152.0
167.207092 108.0
167.214081 120.0
167.246078 332.0
167.287094 180.0
167.327545 432.0
167.347931 412.0
167.357925 224.0
167.386581 184.0
167.409973 96.0
167.442993 172.0
167.457642 280.0
167.471848 56.0
167.476822 108.0
167.512878 248.0
167.531647 168.0
167.557114 196.0
167.585983 64.0
167.608459 80.0
167.61908 72.0
167.62355 132.0
167.647339 168.0
167.673401 48.0
167.703903 44.0
167.735413 184.0
167.76207 48.0
167.783554 60.0
167.814148 132.0
167.850266 184.0
167.861115 76.0
167.872208 204.0
167.924042 120.0
167.968979 280.0
167.999985 104.0
168.023407 192.0
168.057053 1512.0
168.085495 3348.0
168.12561 444.0
168.17305 416.0
168.205093 216.0
168.228333 112.0
168.235916 76.0
168.28035 280.0
168.333023 300.0
168.363892 220.0
168.406418 440.0
168.446945 192.0
168.450745 296.0
168.524734 140.0
168.58844 64.0
168.6082 144.0
168.624893 276.0
168.661667 68.0
168.693436 76.0
168.72963 108.0
168.796936 240.0
168.853745 84.0
168.886154 128.0
168.916504 76.0
168.946869 148.0
168.971313 204.0
168.992355 96.0
169.064011 1284.0
169.117386 80.0
169.130325 120.0
169.168289 92.0
169.20134 60.0
169.224258 108.0
169.243607 176.0
169.283737 156.0
169.326599 112.0
169.372284 104.0
169.419006 84.0
169.47522 268.0
169.527206 168.0
169.553009 40.0
169.588776 80.0
169.60199 132.0
169.629303 104.0
169.657928 228.0
169.665375 132.0
169.675797 224.0
169.713089 168.0
169.769165 116.0
169.817184 52.0
169.848312 64.0
169.936508 84.0
169.997559 160.0
170.019547 120.0
170.066666 404.0
170.08963 36.0
170.133286 220.0
170.15918 136.0
170.237534 144.0
170.274811 216.0
170.310333 36.0
170.33371 100.0
170.357086 160.0
170.463608 96.0
170.48439 60.0
170.546768 152.0
170.703873 80.0
170.74469 124.0
170.809937 176.0
170.861404 96.0
170.915375 172.0
170.933273 132.0
170.962891 144.0
170.98111 44.0
171.001923 148.0
171.038361 80.0
171.067001 92.0
171.087814 176.0
171.160721 92.0
171.191971 56.0
171.24144 100.0
171.263489 104.0
171.284286 292.0
171.332611 32.0
171.367432 176.0
171.431213 152.0
171.46463 72.0
171.48114 152.0
171.548904 124.0
171.582794 56.0
171.61702 212.0
171.696503 224.0
171.726212 216.0
171.775772 104.0
171.796646 88.0
171.846207 48.0
171.886795 180.0
171.942764 172.0
171.974533 176.0
171.995941 96.0
172.028885 36.0
172.081436 236.0
172.13855 64.0
172.182938 136.0
172.258682 132.0
172.284805 76.0
172.342514 44.0
172.394547 52.0
172.425903 148.0
172.445435 136.0
172.47818 168.0
172.530457 148.0
172.632431 200.0
172.662033 148.0
172.768433 196.0
172.788132 212.0
172.828598 72.0
172.848648 180.0
172.895691 208.0
172.926102 176.0
172.947678 144.0
172.998718 220.0
173.017365 432.0
173.039383 112.0
173.129623 2032.0
173.189865 148.0
173.280975 148.0
173.350174 104.0
173.433548 72.0
173.461731 148.0
173.493835 60.0
173.525284 96.0
173.57132 72.0
173.58728 112.0
173.611984 72.0
173.645905 28.0
173.664276 144.0
173.745331 80.0
173.803299 80.0
173.832169 52.0
173.868286 152.0
173.895157 160.0
173.916153 148.0
173.968643 68.0
173.987442 200.0
174.004562 100.0
174.037064 128.0
174.09967 216.0
174.139954 360.0
174.173462 44.0
174.204987 80.0
174.296936 40.0
174.37233 116.0
174.432343 184.0
174.554428 92.0
174.593979 132.0
174.639938 244.0
174.720764 260.0
174.783386 140.0
174.860306 148.0
174.878113 184.0
174.92926 152.0
175.026443 152.0
175.043365 88.0
175.075562 68.0
175.112885 116.0
175.209396 84.0
175.236237 36.0
175.266174 112.0
175.315292 152.0
175.394363 108.0
175.444443 140.0
175.46817 140.0
175.485306 128.0
175.531448 40.0
175.552536 68.0
175.592102 168.0
175.610565 68.0
175.701355 152.0
175.728409 184.0
175.768845 132.0
175.817032 108.0
175.885483 164.0
175.916641 112.0
175.967911 208.0
175.990295 196.0
176.02916 84.0
176.039917 52.0
176.059677 136.0
176.085632 76.0
176.104111 60.0
176.143738 148.0
176.207138 184.0
176.250885 184.0
176.289673 172.0
176.312515 68.0
176.360397 128.0
176.412048 156.0
176.434418 184.0
176.460846 40.0
176.480957 152.0
176.558685 40.0
176.597031 96.0
176.680359 116.0
176.737808 212.0
176.774857 112.0
176.817947 52.0
176.870651 92.0
176.944916 120.0
176.9953 188.0
177.012405 96.0
177.029221 228.0
177.056213 92.0
177.079865 168.0
177.088531 196.0
177.181213 132.0
177.215149 224.0
177.245743 192.0
177.296051 196.0
177.341537 196.0
177.411255 124.0
177.437088 188.0
177.496094 144.0
177.535873 60.0
177.575134 144.0
177.583344 116.0
177.59462 132.0
177.659042 160.0
177.700974 104.0
177.734818 156.0
177.777618 220.0
177.859055 192.0
177.869019 156.0
177.878906 84.0
177.888824 152.0
177.963089 56.0
177.997604 44.0
178.08107 148.0
178.109192 148.0
178.133041 180.0
178.194748 124.0
178.28183 140.0
178.305756 40.0
178.33876 200.0
178.385483 108.0
178.428024 112.0
178.45195 56.0
178.515762 132.0
178.534378 80.0
178.572891 116.0
178.732071 176.0
178.80574 96.0
178.861633 96.0
178.898895 64.0
178.922852 76.0
178.957458 60.0
179.010712 116.0
179.036179 164.0
179.06134 316.0
179.098602 336.0
179.187561 68.0
179.253113 112.0
179.295761 112.0
179.343735 68.0
179.376801 228.0
179.436188 64.0
179.466354 112.0
179.513626 152.0
179.551682 80.0
179.596634 108.0
179.686279 104.0
179.69194 48.0
179.702759 132.0
179.751755 172.0
179.770248 116.0
179.80513 92.0
179.920258 212.0
179.992264 80.0
180.059021 524.0
180.110565 168.0
180.135025 72.0
180.168259 196.0
180.200317 156.0
180.238327 160.0
180.277817 56.0
180.339279 208.0
180.362259 208.0
180.414124 40.0
180.435501 164.0
180.491653 136.0
180.617111 140.0
180.649078 116.0
180.700272 196.0
180.727036 232.0
180.83139 132.0
180.916428 224.0
180.970596 128.0
181.026825 80.0
181.153992 224.0
181.204941 160.0
181.254501 108.0
181.308105 112.0
181.3349 156.0
181.359924 48.0
181.387665 152.0
181.436325 148.0
181.487701 184.0
181.533279 136.0
181.560104 60.0
181.668396 160.0
181.686279 196.0
181.775436 184.0
181.839111 136.0
181.903534 84.0
181.994812 128.0
182.032394 344.0
182.137131 56.0
182.169373 364.0
182.190857 200.0
182.231155 84.0
182.255341 156.0
182.279526 108.0
182.306396 32.0
182.377777 100.0
182.448853 180.0
182.577911 96.0
182.623627 100.0
182.763519 104.0
182.806564 68.0
182.855011 140.0
182.875473 132.0
182.900757 148.0
182.919601 156.0
182.938446 172.0
182.968063 148.0
182.997681 156.0
183.016525 96.0
183.080856 6884.0
183.133911 156.0
183.198807 108.0
183.246353 96.0
183.275085 128.0
183.311066 136.0
183.328979 180.0
183.374985 172.0
183.426376 180.0
183.541336 72.0
183.63092 80.0
183.657898 76.0
183.706451 112.0
183.725327 116.0
183.751633 48.0
183.827866 136.0
184.0168 72.0
184.043961 136.0
184.084152 1340.0
184.12204 160.0
184.150879 144.0
184.189911 196.0
184.340927 116.0
184.400375 52.0
184.503098 124.0
184.548264 124.0
184.665329 92.0
184.71402 76.0
184.780396 180.0
184.816818 180.0
184.84259 160.0
184.933258 156.0
184.955627 96.0
184.965668 28.0
184.975708 96.0
185.011322 172.0
185.046875 116.0
185.081482 304.0
185.187286 108.0
185.208023 188.0
185.30687 44.0
185.374619 120.0
185.399002 88.0
185.423401 68.0
185.447784 308.0
185.469467 184.0
185.523682 188.0
185.578903 152.0
185.60231 172.0
185.645691 44.0
185.762314 140.0
185.786728 152.0
185.813614 136.0
185.90033 152.0
185.983459 184.0
186.018188 216.0
186.03717 308.0
186.08255 160.0
186.125992 188.0
186.150421 180.0
186.182571 172.0
186.192673 144.0
186.245483 176.0
186.286224 152.0
186.416626 224.0
186.441086 156.0
186.469467 180.0
186.500885 64.0
186.609619 180.0
186.646179 244.0
186.707504 76.0
186.73642 180.0
186.861649 180.0
186.933289 116.0
186.977341 128.0
187.006973 168.0
187.027573 128.0
187.06665 108.0
187.115662 136.0
187.142883 100.0
187.181 112.0
187.210114 116.0
187.251801 140.0
187.328064 256.0
187.437042 192.0
187.488815 108.0
187.542374 148.0
187.567856 84.0
187.634689 132.0
187.695999 160.0
187.749191 204.0
187.813263 40.0
187.952393 172.0
187.996048 356.0
188.015152 128.0
188.057175 200.0
188.112167 328.0
188.121719 184.0
188.127899 288.0
188.151627 112.0
188.178925 68.0
188.208603 212.0
188.240295 136.0
188.282684 112.0
188.383743 112.0
188.416534 172.0
188.470413 116.0
188.490723 172.0
188.556152 208.0
188.767349 112.0
188.812866 60.0
188.837479 44.0
188.857559 164.0
188.892975 152.0
188.91954 204.0
188.969879 248.0
189.012558 188.0
189.043869 164.0
189.06456 144.0
189.239731 152.0
189.280807 160.0
189.302719 152.0
189.338318 128.0
189.406784 112.0
189.572876 128.0
189.636932 152.0
189.664352 108.0
189.694504 180.0
189.764343 268.0
189.805237 180.0
189.860306 76.0
189.884979 68.0
189.918945 140.0
189.96048 92.0
190.02449 132.0
190.092667 156.0
190.119614 44.0
190.224197 116.0
190.255615 124.0
190.284317 144.0
190.346298 188.0
190.407867 140.0
190.4366 140.0
190.465546 160.0
190.502213 152.0
190.526627 256.0
190.591919 136.0
190.633133 116.0
190.657867 60.0
190.685349 168.0
190.719421 152.0
190.738541 140.0
190.745819 88.0
190.755096 140.0
190.850128 188.0
190.868988 40.0
190.879852 160.0
190.94104 168.0
190.963043 160.0
191.00705 120.0
191.130844 140.0
191.150101 44.0
191.196884 252.0
191.273956 100.0
191.293213 64.0
191.332458 156.0
191.339935 148.0
191.428116 184.0
191.44838 180.0
191.494217 96.0
191.546478 164.0
191.55722 160.0
191.65123 168.0
191.702209 136.0
191.772614 184.0
191.802811 80.0
191.835876 112.0
191.891022 96.0
191.940643 52.0
191.987411 200.0
191.997574 192.0
192.094742 96.0
192.155777 112.0
192.188889 104.0
192.235794 116.0
192.265152 164.0
192.304794 232.0
192.363571 164.0
192.43454 32.0
192.496567 192.0
192.568054 216.0
192.663757 140.0
192.696594 212.0
192.721771 104.0
192.796387 204.0
192.83783 164.0
192.878494 236.0
192.898651 56.0
192.929047 84.0
192.94841 120.0
192.986694 188.0
193.014755 96.0
193.076736 17112.0
193.129044 160.0
193.162125 276.0
193.19104 108.0
193.240417 116.0
193.267883 124.0
193.296906 36.0
193.349472 60.0
193.378143 100.0
193.458801 112.0
193.505875 136.0
193.606934 48.0
193.640167 184.0
193.662811 172.0
193.697571 168.0
193.745422 104.0
193.779282 128.0
193.83963 132.0
193.86734 156.0
193.893448 200.0
193.91951 116.0
193.956024 60.0
193.983749 40.0
194.019012 188.0
194.080353 2880.0
194.127914 52.0
194.163971 140.0
194.181793 48.0
194.268524 120.0
194.293808 192.0
194.359329 160.0
194.379974 168.0
194.386551 220.0
194.43013 208.0
194.458038 260.0
194.51355 100.0
194.538544 100.0
194.582962 152.0
194.620544 208.0
194.663483 128.0
194.742859 232.0
194.769302 156.0
194.827347 136.0
194.851044 132.0
194.894028 40.0
194.916245 60.0
194.935699 404.0
195.028763 124.0
195.085617 172.0
195.114853 44.0
195.143127 100.0
195.177536 160.0
195.308243 160.0
195.344391 84.0
195.377777 80.0
195.409912 152.0
195.43103 112.0
195.469589 224.0
195.518112 92.0
195.562256 68.0
195.616699 140.0
195.650497 120.0
195.700623 108.0
195.759094 116.0
195.792511 156.0
195.857315 172.0
195.948486 120.0
195.998642 80.0
196.051865 656.0
196.077194 168.0
196.154709 64.0
196.305267 140.0
196.361313 120.0
196.416824 44.0
196.444717 100.0
196.502289 144.0
196.531204 180.0
196.56189 52.0
196.590698 172.0
196.612122 88.0
196.645615 44.0
196.73027 132.0
196.814911 148.0
196.83905 68.0
196.847763 116.0
196.891586 188.0
196.994629 172.0
197.060043 560.0
197.131439 184.0
197.169159 104.0
197.25531 180.0
197.399887 120.0
197.458618 268.0
197.514389 132.0
197.660034 80.0
197.679611 132.0
197.707596 104.0
197.761246 48.0
197.811859 208.0
197.847549 152.0
197.869949 120.0
197.917542 172.0
197.937134 216.0
198.06337 224.0
198.131348 232.0
198.15979 284.0
198.186432 196.0
198.242462 96.0
198.287308 228.0
198.334961 108.0
198.365173 148.0
198.489151 180.0
198.528397 84.0
198.550751 140.0
198.558182 136.0
198.569061 88.0
198.604828 96.0
198.623764 180.0
198.672791 192.0
198.691086 248.0
198.721939 124.0
198.745926 80.0
198.755005 220.0
198.765549 208.0
198.831375 76.0
198.859451 100.0
198.885696 136.0
198.933182 176.0
199.031784 7020.0
199.168365 144.0
199.229065 168.0
199.253281 140.0
199.312241 168.0
199.367401 168.0
199.394852 164.0
199.413879 128.0
199.46051 244.0
199.485855 164.0
199.510895 104.0
199.544846 56.0
199.592651 36.0
199.646072 128.0
199.665756 84.0
199.689499 108.0
199.716385 188.0
199.737411 92.0
199.78952 128.0
199.832916 132.0
199.885178 132.0
199.908722 132.0
199.943085 152.0
199.983673 128.0
200.035736 1992.0
200.099274 120.0
200.128372 120.0
200.157547 84.0
200.191574 92.0
200.245453 192.0
200.288055 152.0
200.318634 200.0
200.337631 324.0
200.379898 136.0
200.403259 80.0
200.466644 368.0
200.519897 244.0
200.546265 140.0
200.57753 212.0
200.610001 232.0
200.629776 256.0
200.667969 176.0
200.731552 192.0
200.741409 204.0
200.772903 256.0
200.828476 376.0
200.860916 312.0
200.893143 520.0
200.923645 576.0
200.960419 632.0
201.048355 352108.0
201.119583 136.0
201.133118 84.0
201.153091 88.0
201.202957 160.0
201.229034 308.0
201.277496 220.0
201.308136 484.0
201.359009 272.0
201.420715 356.0
201.450943 184.0
201.479767 284.0
201.513245 4984.0
201.545319 296.0
201.575912 180.0
201.598038 204.0
201.617889 312.0
201.645676 28.0
201.677475 64.0
201.690628 180.0
201.716949 120.0
201.755829 184.0
201.790161 140.0
201.822052 232.0
201.878723 180.0
201.899368 236.0
201.921432 152.0
201.925201 156.0
201.947464 140.0
201.977722 212.0
202.001404 204.0
202.050827 65980.0
202.121017 208.0
202.147507 152.0
202.179306 180.0
202.19606 60.0
202.218399 444.0
202.237671 52.0
202.245468 184.0
202.256226 160.0
202.276016 224.0
202.305099 84.0
202.339767 156.0
202.380051 76.0
202.410721 88.0
202.434586 256.0
202.466919 104.0
202.515137 224.0
202.588593 168.0
202.636353 84.0
202.657715 112.0
202.699707 144.0
202.723526 96.0
202.795822 204.0
202.828018 296.0
202.86618 196.0
202.890854 196.0
202.921722 212.0
202.964157 292.0
203.002274 544.0
203.044998 131808.0
203.122269 356.0
203.175415 84.0
203.222137 88.0
203.245819 240.0
203.321457 216.0
203.365448 240.0
203.386169 212.0
203.423798 260.0
203.479919 352.0
203.52063 340.0
203.555862 280.0
203.595337 308.0
203.617538 240.0
203.654892 212.0
203.66481 172.0
203.707321 124.0
203.733276 100.0
203.742538 156.0
203.766357 76.0
203.798294 144.0
203.836639 104.0
203.857742 156.0
203.889542 104.0
203.93605 240.0
203.963333 60.0
203.995758 216.0
204.047882 11928.0
204.108948 48.0
204.175095 144.0
204.202942 80.0
204.253357 44.0
204.286407 84.0
204.322495 132.0
204.355453 148.0
204.388412 152.0
204.414627 128.0
204.480377 136.0
204.5159 88.0
204.539795 120.0
204.576797 60.0
204.61377 104.0
204.646942 92.0
204.684738 76.0
204.741058 200.0
204.783432 84.0
204.793503 52.0
204.844208 84.0
204.881134 120.0
204.942291 32.0
204.964371 64.0
204.987869 44.0
205.049545 296.0
205.137329 156.0
205.195938 88.0
205.230164 36.0
205.274002 32.0
205.301529 100.0
205.350845 72.0
205.411072 192.0
205.471405 68.0
205.516068 132.0
205.548843 120.0
205.573395 216.0
205.606247 104.0
205.644638 68.0
205.670166 200.0
205.710571 152.0
205.7379 128.0
205.757675 372.0
205.815079 128.0
205.866989 44.0
205.889313 44.0
205.994995 144.0
206.046417 76.0
206.100082 168.0
206.18071 52.0
206.229294 88.0
206.272171 112.0
206.316849 140.0
206.355072 72.0
206.437988 52.0
206.46373 140.0
206.497955 124.0
206.540955 96.0
206.573532 72.0
206.618179 52.0
206.678268 196.0
206.79274 52.0
206.820969 60.0
206.892914 96.0
207.067581 80.0
207.162109 64.0
207.237701 72.0
207.2939 132.0
207.566208 36.0
207.726822 60.0
207.81575 28.0
207.973572 48.0
208.114243 124.0
208.200394 56.0
208.249207 60.0
208.356445 152.0
208.395706 76.0
208.458923 92.0
208.608383 64.0
208.651505 36.0
208.706131 52.0
209.059937 68.0
209.136032 108.0
209.238388 36.0
209.411163 52.0
209.555191 48.0
209.578232 108.0
209.615692 92.0
209.670456 52.0
209.716568 100.0
209.895294 44.0
210.221252 88.0
210.241455 56.0
210.304947 88.0
210.394424 40.0
210.423294 92.0
210.452164 76.0
210.540466 104.0
210.573456 120.0
210.636993 84.0
210.677429 44.0
210.749664 88.0
210.838074 112.0
211.050262 52.0
211.128326 100.0
211.148575 60.0
211.562332 100.0
211.599976 100.0
211.666565 44.0
211.701309 72.0
211.753448 44.0
211.808472 36.0
211.962021 48.0
212.121414 80.0
212.246078 96.0
212.309875 112.0
212.443298 52.0
212.556442 44.0
212.630157 72.0
212.669617 144.0
212.775452 228.0
212.844971 100.0
212.90686 84.0
212.986099 116.0
213.050003 80.0
213.10231 92.0
213.148926 80.0
213.193161 104.0
213.273758 56.0
213.331894 44.0
213.375504 148.0
213.445282 88.0
213.483078 96.0
213.51506 32.0
213.567413 52.0
213.669235 28.0
213.804993 100.0
213.837997 72.0
213.945892 120.0
214.08046 112.0
214.315567 108.0
214.494904 224.0
214.788818 72.0
214.842102 80.0
214.895004 60.0
214.930786 76.0
214.999435 44.0
215.152603 40.0
215.219757 56.0
215.339478 108.0
215.441711 52.0
215.500137 84.0
215.54982 84.0
215.739792 44.0
215.833344 84.0
215.865509 44.0
215.894745 92.0
216.102432 48.0
216.16832 92.0
216.301422 100.0
216.324844 56.0
216.48587 28.0
216.58252 88.0
216.693832 92.0
216.71434 52.0
216.934143 128.0
217.095398 36.0
217.232544 84.0
217.315384 72.0
217.56192 48.0
217.591278 28.0
217.617691 108.0
217.7146 128.0
217.87027 80.0
217.940781 60.0
218.287613 76.0
218.593536 68.0
218.808395 76.0
218.870224 36.0
218.949738 44.0
219.052826 88.0
219.073441 156.0
219.09996 140.0
219.147095 96.0
219.262009 96.0
219.639404 76.0
219.724945 88.0
220.758728 44.0
220.877029 56.0
221.010147 236.0
221.356461 104.0
221.780106 100.0
222.041016 36.0
222.979156 144.0
223.053467 92.0
223.514435 40.0
224.053329 116.0
224.22316 60.0
224.410965 108.0
225.199905 104.0
225.748642 116.0
226.382263 76.0
226.475891 72.0
226.640656 44.0
226.760513 60.0
227.069321 96.0
227.642502 92.0
227.700989 92.0
228.054077 64.0
228.36377 48.0
228.664627 100.0
229.083145 84.0
229.107254 48.0
229.483963 48.0
229.851944 56.0
230.419571 84.0
230.476974 60.0
230.528336 80.0
230.909241 56.0
231.405502 68.0
232.396576 48.0
232.891403 96.0
233.183075 64.0
233.280334 48.0
233.696976 36.0
233.812607 84.0
233.955658 56.0
234.138351 88.0
234.76918 88.0
234.885071 64.0
235.034485 160.0
235.171875 84.0
235.648254 92.0
235.929413 88.0
236.070068 40.0
236.38208 64.0
236.455521 68.0
236.994461 88.0
237.281967 124.0
237.773346 52.0
238.276917 116.0
238.971741 64.0
239.331848 72.0
240.071381 184.0
240.299637 84.0
240.481689 40.0
240.629868 36.0
241.003571 100.0
241.080826 136.0
241.581696 52.0
242.114059 64.0
242.154327 88.0
242.507523 84.0
242.603607 112.0
242.634613 100.0
242.985062 72.0
243.838974 64.0
244.00061 64.0
244.069 52.0
244.376923 64.0
244.556641 112.0
244.691269 72.0
245.663574 36.0
245.906952 64.0
246.059906 60.0
246.109863 56.0
246.781616 60.0
248.516754 60.0
249.157227 88.0
249.342606 92.0
249.578369 48.0
249.612961 84.0
249.713593 108.0
250.147995 132.0
251.00473 48.0
251.541061 52.0
251.935791 60.0
251.989502 120.0
252.647079 32.0
252.90654 36.0
253.169312 56.0
253.372025 48.0
253.495605 96.0
254.297943 84.0
254.964874 64.0
255.184204 72.0
255.301849 80.0
256.294983 100.0
257.088989 44.0
257.203888 56.0
257.545532 96.0
257.877808 124.0
258.802307 48.0
258.895172 56.0
259.061707 68.0
259.568085 132.0
259.603363 52.0
259.738068 84.0
259.866394 92.0
260.839447 76.0
261.646851 64.0
261.972107 120.0
262.246002 88.0
262.558716 48.0
262.687744 60.0
263.184753 84.0
263.281616 124.0
264.008728 64.0
264.371033 152.0
264.720642 40.0
265.018646 64.0
265.054291 124.0
265.242249 80.0
267.02475 80.0
267.512817 44.0
268.366364 88.0
268.901337 68.0
269.113525 76.0
269.387848 76.0
269.420532 80.0
269.904236 76.0
270.162598 100.0
270.617493 120.0
270.882751 96.0
271.51535 96.0
271.833527 44.0
272.125671 112.0
272.148651 36.0
272.887909 72.0
273.05365 136.0
273.104919 104.0
273.430634 80.0
273.96405 52.0
273.987122 84.0
274.392487 52.0
274.560638 48.0
274.639801 44.0
274.666168 120.0
275.841675 44.0
276.427063 80.0
276.499878 108.0
277.28476 76.0
277.510193 56.0
277.652771 72.0
278.1073 88.0
279.88736 104.0
280.118958 64.0
280.448822 116.0
280.755524 84.0
280.828918 100.0
280.979004 72.0
281.877167 68.0
282.111115 96.0
282.749969 120.0
283.150269 136.0
283.24884 40.0
283.636932 92.0
284.053314 112.0
284.164001 128.0
284.603699 76.0
284.670837 68.0
284.774963 68.0
284.818604 84.0
286.086304 52.0
286.399475 84.0
286.5578 60.0
286.60498 96.0
286.92514 72.0
287.039795 96.0
287.161194 52.0
287.903656 80.0
288.657227 104.0
288.75528 44.0
289.153534 84.0
289.570923 76.0
289.709808 52.0
290.513214 88.0
290.798218 64.0
291.395874 120.0
291.477417 84.0
291.535187 48.0
291.660919 48.0
291.841095 36.0
292.855194 64.0
293.056183 84.0
293.458344 100.0
294.372803 88.0
295.271545 40.0
295.476776 108.0
296.082642 80.0
296.774811 88.0
296.798828 44.0
296.833099 84.0
297.155518 44.0
297.306488 92.0
297.769958 40.0
298.415985 104.0
298.770203 104.0
298.808044 92.0
299.617096 48.0
300.506561 36.0
300.682556 68.0
300.941437 116.0
301.131348 72.0
301.504486 56.0
301.746429 44.0
301.964294 60.0
302.410583 28.0
302.836456 120.0
302.874542 96.0
304.015167 120.0
306.062561 36.0
306.243652 60.0
307.54068 52.0
307.774567 52.0
309.036316 44.0
309.207794 68.0
309.827545 76.0
310.872406 116.0
311.06543 72.0
311.690552 36.0
312.573151 112.0
313.1492 144.0
313.301941 184.0
313.693085 56.0
313.77771 100.0
314.437317 36.0
315.354797 92.0
315.564148 84.0
315.634857 72.0
316.165466 108.0
316.452179 68.0
317.00119 88.0
317.901886 52.0
318.430847 80.0
318.540955 44.0
318.633331 56.0
318.835846 48.0
319.422485 96.0
319.546997 100.0
320.269653 116.0
320.73996 76.0
321.114349 68.0
321.185669 96.0
321.860168 60.0
322.599701 40.0
322.808563 48.0
323.111084 76.0
323.425995 84.0
323.662262 88.0
323.698059 112.0
324.647675 60.0
325.178619 108.0
325.476593 88.0
326.036957 72.0
326.856842 72.0
326.982788 72.0
328.002075 56.0
328.582672 96.0
328.842468 52.0
328.976013 108.0
329.098755 72.0
330.844971 32.0
331.123779 92.0
331.265045 68.0
331.420807 100.0
331.866608 80.0
332.635712 108.0
332.824493 148.0
333.085968 40.0
333.369354 92.0
334.329407 116.0
334.740753 52.0
334.788086 84.0
335.094055 64.0
335.141418 108.0
335.58606 120.0
335.987244 56.0
336.176971 128.0
336.359467 84.0
337.671143 108.0
337.916229 76.0
338.65567 96.0
338.956055 40.0
338.996368 88.0
339.208832 452.0
339.634277 64.0
339.729645 120.0
339.865387 48.0
340.206696 108.0
342.132996 80.0
342.19928 48.0
342.460724 96.0
342.737 120.0
343.149811 104.0
344.253052 76.0
344.955017 108.0
345.306274 52.0
345.602234 60.0
346.490784 48.0
347.191315 60.0
347.276642 68.0
347.621643 48.0
347.762665 40.0
348.029938 124.0
348.223053 92.0
348.301056 100.0
348.84726 68.0
350.846313 56.0
351.569916 36.0
352.447418 36.0
352.809937 88.0
353.311066 80.0
353.378387 64.0
353.419556 104.0
353.745148 64.0
354.022217 72.0
354.048431 128.0
354.085876 68.0
354.996521 80.0
355.109009 52.0
356.039764 60.0
359.412567 88.0
359.442749 60.0
362.740601 72.0
364.626984 104.0
364.885468 60.0
364.919678 88.0
365.623383 84.0
365.707092 44.0
365.9888 52.0
366.087799 100.0
366.320129 112.0
366.480133 68.0
367.10907 40.0
368.036316 52.0
368.257782 84.0
368.578674 36.0
368.815613 116.0
370.319275 80.0
370.740692 80.0
371.469147 28.0
371.65332 116.0
371.779938 68.0
372.444122 80.0
372.513275 68.0
372.901337 76.0
373.178101 108.0
373.208862 176.0
373.493439 92.0
374.517273 104.0
375.187775 120.0
375.739227 92.0
375.916718 104.0
376.99411 128.0
377.369049 88.0
377.539185 84.0
377.608795 48.0
377.860229 76.0
378.405914 120.0
379.948364 68.0
380.880005 40.0
382.703888 68.0
382.773956 84.0
383.295929 48.0
383.342682 60.0
383.545349 40.0
384.395538 80.0
384.899078 68.0
385.99704 88.0
386.376434 64.0
386.536865 124.0
386.979156 56.0
389.614624 80.0
391.833435 80.0
392.25116 64.0
392.7677 56.0
393.175903 96.0
394.303558 48.0
394.750275 104.0
395.296143 40.0
395.660278 116.0
397.197815 112.0
398.650879 88.0
398.770111 96.0
400.186249 32.0
402.714447 108.0
402.79834 60.0
402.930176 160.0
404.06955 72.0
404.834045 28.0
404.986237 76.0
405.422943 104.0
405.491058 76.0
406.638092 96.0
407.10376 44.0
408.498413 76.0
410.004242 100.0
410.080811 72.0
410.911499 72.0
411.355408 84.0
413.28067 112.0
413.542114 116.0
414.096771 68.0
414.457306 64.0
414.485687 112.0
414.720703 68.0
416.575043 84.0
417.448883 52.0
418.291046 128.0
418.502747 80.0
418.840729 44.0
419.077026 80.0
419.162567 76.0
419.786255 44.0
421.590546 92.0
421.913452 84.0
422.003387 104.0
422.363251 28.0
423.411011 52.0
423.931305 60.0
425.81839 108.0
426.389465 116.0
429.019623 96.0
429.225769 68.0
429.596924 80.0
429.627686 44.0
429.993042 96.0
431.645447 72.0
432.174896 172.0
432.427307 52.0
432.808167 80.0
433.272034 64.0
433.632507 72.0
433.678101 32.0
434.154877 80.0
434.23349 120.0
434.345673 76.0
435.437225 84.0
436.035492 48.0
436.343079 64.0
436.392975 116.0
437.020996 40.0
437.612 108.0
437.716095 48.0
438.132599 48.0
439.141327 84.0
439.299835 40.0
439.591888 164.0
440.28067 44.0
441.438232 36.0
441.852295 84.0
441.944336 84.0
444.764679 56.0
445.617126 68.0
445.797821 40.0
446.870026 84.0
447.787659 56.0
448.807465 48.0
448.841187 124.0
449.085785 76.0
449.967712 88.0
450.977295 136.0
452.415466 36.0
452.538239 68.0
452.77536 56.0
453.376923 72.0
453.868652 60.0
454.403046 96.0
454.776459 64.0
455.468567 88.0
455.96991 136.0
456.63739 48.0
458.237915 80.0
459.81134 52.0
461.468719 48.0
461.592712 68.0
462.782227 52.0
465.817413 64.0
465.955963 60.0
466.016113 36.0
466.927399 68.0
467.525391 80.0
470.521027 72.0
471.078094 84.0
471.233643 84.0
471.575012 56.0
472.79892 56.0
475.021576 84.0
475.84613 92.0
476.406342 76.0
476.836487 84.0
476.975586 92.0
477.171204 76.0
477.506012 48.0
479.269012 56.0
479.778931 60.0
481.99173 76.0
483.110962 52.0
483.574768 84.0
485.813812 132.0
486.147247 60.0
487.7547 84.0
489.303131 68.0
492.045319 48.0
494.095917 76.0
495.140533 52.0
496.864777 84.0
497.157623 144.0
497.241943 68.0
497.978943 128.0
498.680908 44.0
500.104156 64.0
500.700745 60.0
500.803192 68.0
500.910065 120.0
502.871918 80.0
503.764954 68.0
504.502289 68.0
504.636414 80.0
505.557831 108.0
507.313568 36.0
507.569122 48.0
507.914429 52.0
508.318207 64.0
509.615814 76.0
509.95285 96.0
510.784668 52.0
512.00885 40.0
512.702637 52.0
512.864868 48.0
513.356323 60.0
513.699036 116.0
517.988831 72.0
518.908752 76.0
520.256165 72.0
521.646179 52.0
521.900757 60.0
523.24292 88.0
524.924194 60.0
525.946106 44.0
527.220337 60.0
528.628784 56.0
528.94458 156.0
530.960571 64.0
531.249512 60.0
534.295227 88.0
536.040222 76.0
536.994507 96.0
538.198914 120.0
538.836304 56.0
539.145874 108.0
539.469421 80.0
539.668213 64.0
539.885498 120.0
540.075134 64.0
541.514526 60.0
542.881653 96.0
543.210999 36.0
544.306274 52.0
546.825867 44.0
546.877075 108.0
546.914307 76.0
547.016663 40.0
549.682495 100.0
550.186584 36.0
550.774963 48.0
551.489807 64.0
551.578613 88.0
553.665344 80.0
555.061768 44.0
555.113342 36.0
556.131348 56.0
556.840332 44.0
561.268494 76.0
565.515381 64.0
568.140503 88.0
568.558044 72.0
569.821045 84.0
569.878052 56.0
571.922913 128.0
572.760925 116.0
573.556641 68.0
573.823608 72.0
573.976135 36.0
575.710693 72.0
576.539551 64.0
577.247009 68.0
577.285278 60.0
577.318787 44.0
578.065002 92.0
578.13678 100.0
579.290649 164.0
579.841675 116.0
581.568237 52.0
582.35083 36.0
584.283203 96.0
586.030823 48.0
586.401917 52.0
589.988281 64.0
590.026978 44.0
592.417603 52.0
595.852234 148.0
602.17981 136.0
602.311646 56.0
608.830444 64.0
609.739319 108.0
613.38147 88.0
613.563843 104.0
614.096436 84.0
614.732788 40.0
617.380615 132.0
617.420166 68.0
618.558105 56.0
621.804565 148.0
623.97522 40.0
626.543213 56.0
627.350525 44.0
632.135193 68.0
632.820923 100.0
635.708069 88.0
636.320435 80.0
636.787415 100.0
637.309814 92.0
637.701782 104.0
654.700745 44.0
657.708801 80.0
659.184692 96.0
668.424927 56.0
675.876587 100.0
681.366333 48.0
683.003784 144.0
683.648926 88.0
684.184998 92.0
684.466187 48.0
684.815063 116.0
688.444824 96.0
689.552368 40.0
691.097839 132.0
695.712158 80.0
696.799255 76.0
699.375916 96.0
699.602234 92.0
702.152466 52.0
702.384521 48.0
705.040222 68.0
709.035767 96.0
709.719543 124.0
711.714539 48.0
713.818726 128.0
716.650391 44.0
718.062988 128.0
721.608643 68.0
723.566711 96.0
725.89209 92.0
726.664429 60.0
727.066833 44.0
732.00708 28.0
733.698853 100.0
733.952271 96.0
738.87793 44.0
739.018616 92.0
742.713135 40.0
742.821655 72.0
743.885193 68.0
744.694214 64.0
747.945618 72.0
748.566284 40.0
750.860535 56.0
752.006226 56.0
752.650391 60.0
753.256592 72.0
756.745605 76.0
757.096008 136.0
758.509583 96.0
760.259094 88.0
761.285645 120.0
767.227905 96.0
769.671997 40.0
770.87616 64.0
771.882202 64.0
778.604065 116.0
780.009705 92.0
781.288696 60.0
782.969666 56.0
784.094971 56.0
786.108154 64.0
786.17511 52.0
786.610474 72.0
786.66626 40.0
787.1073 112.0
788.923096 84.0
790.248535 60.0
791.183105 80.0
792.790649 164.0
792.941956 76.0
793.536133 60.0
796.594604 72.0
799.625183 36.0
800.019226 132.0
815.114502 80.0
817.007751 44.0
819.615295 52.0
820.869324 76.0
820.920654 52.0
821.605103 60.0
824.957214 68.0
825.75769 52.0
828.276062 52.0
828.889038 52.0
838.808594 88.0
840.238708 216.0
840.809937 168.0
841.831726 72.0
847.106384 84.0
848.155212 60.0
848.479797 56.0
850.452026 216.0
850.573914 132.0
850.89325 96.0
850.980286 152.0
851.288025 116.0
851.787537 148.0
851.96759 68.0
852.420776 180.0
854.700134 100.0
855.71283 64.0
856.563049 100.0
859.046265 92.0
860.160828 164.0
861.714172 48.0
864.409607 40.0
864.53833 104.0
865.931702 64.0
870.599854 144.0
873.162109 60.0
875.616211 228.0
880.204102 120.0
885.858093 144.0
885.982483 220.0
887.304077 144.0
889.47522 36.0
894.134888 168.0
894.777771 124.0
899.146912 200.0
900.88446 104.0
901.33252 172.0
910.107422 124.0
912.907532 180.0
915.669739 76.0
915.880554 92.0
916.959045 60.0
918.297424 160.0
918.870483 124.0
919.35321 140.0
919.691162 112.0
920.675232 180.0
920.777954 48.0
923.267822 168.0
924.665283 156.0
928.556335 92.0
929.901611 156.0
931.024719 88.0
933.041992 168.0
933.887207 200.0
935.505798 84.0
935.743225 76.0
940.150146 196.0
942.592712 144.0
944.286011 32.0
946.501282 116.0
947.113708 80.0
948.498474 212.0
951.84198 84.0
952.308716 212.0
952.763245 64.0
952.990601 164.0
955.862 164.0
958.115417 184.0
959.243103 152.0
960.908142 160.0
961.426453 64.0
962.586975 52.0
965.615051 164.0
966.035645 100.0
966.561523 116.0
967.483704 40.0
967.718933 164.0
973.019775 84.0
973.665527 108.0
974.640808 140.0
975.51709 144.0
976.885132 56.0
977.438843 44.0
978.247925 152.0
978.316406 188.0
979.007507 36.0
982.510376 192.0
982.859741 100.0
985.126038 104.0
985.832031 128.0
985.913269 152.0
986.100769 92.0
986.682068 176.0
986.894653 144.0
987.982849 184.0
988.301941 180.0
988.664856 248.0
989.578735 192.0
989.829163 68.0
990.850098 44.0
991.138306 180.0
991.802551 60.0
992.310303 164.0
993.044006 168.0
993.257263 60.0
994.813416 120.0
995.026855 176.0
995.089661 160.0
995.968811 184.0
998.382202 164.0
998.690369 228.0
998.772095 92.0
1001.03772 140.0
1001.837646 184.0
1002.140015 128.0
1003.217712 144.0
1003.791443 160.0
1004.731201 124.0
1005.059265 148.0
1007.169495 104.0
1007.666809 128.0
1008.096497 168.0
1008.640015 164.0
1010.012085 96.0
1012.398071 140.0
1012.904785 44.0
1014.146667 60.0
1014.406494 40.0
1014.69812 36.0
1016.378906 208.0
1018.07373 208.0
1019.53479 60.0
1020.710815 176.0
1022.772034 220.0
1023.325867 184.0
1025.020142 48.0
1025.300537 120.0
1025.542725 184.0
1026.556274 144.0
1027.787354 84.0
1028.610718 184.0
1029.089478 192.0
1030.085693 128.0
1030.385986 64.0
1032.348145 176.0
1033.237183 176.0
1033.384399 56.0
1034.03064 176.0
1034.081909 152.0
1034.760376 160.0
1035.151001 112.0
1037.784424 152.0
1038.169189 96.0
1038.624512 168.0
1039.371582 124.0
1040.395508 116.0
1040.767944 100.0
1041.525757 224.0
1042.309448 172.0
1042.540771 104.0
1043.106445 68.0
1043.524292 92.0
1044.057983 88.0
1045.679199 144.0
1047.204956 188.0
1047.417603 200.0
1048.235718 172.0
1048.40979 176.0
1048.512817 48.0
1049.015625 52.0
1049.279907 116.0
1050.131104 184.0
1050.80188 140.0
1052.538086 252.0
1053.668457 60.0
1054.049561 36.0
1054.915649 156.0
1055.08374 148.0
1055.827271 140.0
1056.200562 192.0
1056.351196 44.0
1057.637207 80.0
1059.186279 68.0
1060.125732 92.0
1060.650757 124.0
1060.722046 212.0
1061.512939 92.0
1062.978882 236.0
1064.22522 152.0
1065.550049 184.0
1066.641846 136.0
1066.687378 56.0
1066.843384 132.0
1068.176392 132.0
1068.345459 120.0
1070.135254 80.0
1070.252441 144.0
1070.473755 96.0
1070.558472 188.0
1070.929688 132.0
1072.526001 176.0
1073.719116 156.0
1074.130005 116.0
1074.221313 92.0
1074.364868 56.0
1074.462646 152.0
1074.625732 184.0
1074.704102 168.0
1074.867188 184.0
1074.952026 68.0
1075.637329 52.0
1076.381592 152.0
1077.511475 172.0
1077.622559 112.0
1078.628906 168.0
1079.230347 44.0
1080.028198 148.0
1080.374878 64.0
1080.865601 120.0
1081.591919 164.0
1082.226929 108.0
1082.35791 116.0
1082.488892 156.0
1082.626465 184.0
1083.608887 164.0
1084.729492 224.0
1084.873779 180.0
1085.2146 36.0
1085.37854 96.0
1086.13269 196.0
1086.703491 32.0
1086.834717 108.0
1086.952759 124.0
1086.998657 136.0
1087.20874 192.0
1087.51062 152.0
1087.858521 80.0
1089.027222 132.0
1090.393799 60.0
1090.761841 144.0
1091.669189 120.0
1092.024292 64.0
1092.971558 56.0
1093.945557 124.0
1094.801514 64.0
1094.953003 168.0
1096.250732 120.0
1096.632935 220.0
1097.206421 132.0
1097.48999 120.0
1097.977905 40.0
1101.026855 172.0
1101.304199 168.0
1101.363647 160.0
1101.634521 92.0
1102.870117 156.0
1103.511353 152.0
1106.700317 88.0
1106.912231 256.0
1107.567871 128.0
1109.270752 152.0
1109.80542 128.0
1110.318359 64.0
1111.19397 160.0
1111.830933 188.0
1112.129639 204.0
1112.249023 140.0
1112.654053 136.0
1113.165283 92.0
1113.464111 220.0
1114.945557 140.0
1115.703247 196.0
1116.414673 176.0
1117.998047 172.0
1118.197632 40.0
1118.610352 196.0
1121.714355 72.0
1122.11438 72.0
1123.314697 68.0
1123.728394 364.0
1124.015259 56.0
1124.54248 48.0
1125.890991 124.0
1125.964478 228.0
1126.14563 184.0
1127.387451 104.0
1127.594604 148.0
1128.95166 152.0
1129.279419 116.0
1129.78772 60.0
1130.001831 216.0
1132.157104 108.0
1132.960938 152.0
1133.40979 164.0
1135.414062 168.0
1135.554443 152.0
1136.353149 104.0
1137.14502 104.0
1137.272461 92.0
1137.480591 148.0
1137.621582 72.0
1138.344727 196.0
1138.514526 56.0
1138.561523 156.0
1138.776489 80.0
1140.039429 60.0
1140.913208 84.0
1142.380615 196.0
1142.890503 180.0
1143.200073 152.0
1143.523071 152.0
1143.593262 160.0
1144.540894 228.0
1144.647339 184.0
1145.105225 120.0
1145.313965 64.0
1145.361206 40.0
1145.630615 216.0
1145.724854 172.0
1145.947266 148.0
1146.02832 140.0
1146.36499 128.0
1147.598511 100.0
1147.65918 124.0
1147.706299 96.0
1147.86145 128.0
1149.750244 156.0
1150.762695 208.0
1151.296143 80.0
1151.762207 164.0
1151.94458 144.0
1152.005371 120.0
1153.262207 44.0
1153.322998 84.0
1154.57373 132.0
1155.710205 44.0
1156.434204 228.0
1156.522217 128.0
1156.650879 172.0
1156.928345 180.0
1156.975708 152.0
1157.11792 96.0
1158.45874 140.0
1158.607788 156.0
1159.481934 164.0
1161.088623 100.0
1161.665161 212.0
1161.73291 224.0
1162.764282 200.0
1163.327637 236.0
1164.801147 168.0
1165.05249 100.0
1165.167969 44.0
1165.378662 220.0
1165.494141 148.0
1166.928223 144.0
1167.057373 92.0
1167.710205 192.0
1168.703369 108.0
1168.921143 76.0
1169.063965 172.0
1169.363403 32.0
1169.438354 176.0
1170.046021 160.0
1170.193848 108.0
1170.956543 148.0
1171.017822 200.0
1171.474243 40.0
1171.719482 152.0
1172.775635 56.0
1173.034668 160.0
1173.102783 100.0
1173.477783 104.0
1173.910522 180.0
1174.800781 72.0
1175.135132 220.0
1175.835571 180.0
1175.9198 164.0
1176.32251 136.0
1176.493164 156.0
1177.551514 192.0
1178.446411 128.0
1178.535278 76.0
1178.719727 100.0
1179.116089 68.0
1180.100342 164.0
1181.016724 140.0
1181.666626 116.0
1182.207153 120.0
1182.624634 136.0
1182.692993 152.0
1182.781982 84.0
1182.877808 124.0
1183.06958 80.0
1183.706299 92.0
1184.493896 100.0
1185.494141 108.0
1185.672241 212.0
1186.042358 140.0
1186.398804 108.0
1186.858154 216.0
1186.933594 120.0
1187.063843 72.0
1187.866333 80.0
1188.037842 172.0
1188.332764 108.0
1188.579834 124.0
1188.79248 100.0
1189.739746 140.0
1190.213379 136.0
1190.323242 160.0
1190.467529 132.0
1190.681274 88.0
1190.776489 200.0
1190.906982 128.0
1191.037476 100.0
1191.092407 184.0
1191.394653 52.0
1192.226074 100.0
1192.940918 84.0
1193.504639 120.0
1193.655884 144.0
1193.814087 168.0
1193.869019 196.0
1194.205322 120.0
1194.267944 116.0
1194.701294 132.0
1195.809082 136.0
1196.25647 136.0
1197.096436 188.0
1197.228149 192.0
1197.551025 156.0
1198.012451 88.0
1198.336304 228.0
1198.48584 56.0
1198.552612 140.0
1199.15625 212.0
1199.20459 80.0
1199.700806 140.0
1200.031738 132.0
1200.266113 56.0
1200.328247 108.0
1200.797119 172.0
1201.100586 132.0
1201.190308 128.0
1201.555908 224.0
1201.880127 96.0
1202.089478 188.0
1202.287354 60.0
1202.432251 128.0
1202.963745 172.0
1203.060303 32.0
1203.13623 84.0
1203.246704 128.0
1203.295044 36.0
1203.467651 48.0
1203.619507 156.0
1203.893066 52.0
1204.151245 140.0
1204.199585 144.0
1204.724609 216.0
1204.800537 176.0
1205.132202 248.0
1205.443115 208.0
1205.532104 92.0
1205.760986 112.0
1205.919922 116.0
1206.196411 184.0
1206.327759 32.0
1206.597412 172.0
1206.943115 128.0
1207.129761 172.0
1207.28186 220.0
1207.330322 188.0
1208.333252 52.0
1208.44397 152.0
1208.568481 92.0
1208.727661 84.0
1208.803711 160.0
1209.433472 120.0
1209.918091 124.0
1210.070435 140.0
1210.48584 120.0
1210.665894 180.0
1210.776611 148.0
1211.192261 168.0
1211.289185 140.0
1211.406982 64.0
1211.890381 160.0
1211.988892 76.0
1212.467041 100.0
1212.515503 72.0
1212.771973 108.0
1213.163452 176.0
1213.832642 68.0
1214.151611 168.0
1214.207153 92.0
1214.533081 240.0
1215.851318 164.0
1216.08728 104.0
1216.642578 132.0
1217.127686 152.0
1217.295166 260.0
1217.359619 112.0
1217.489624 92.0
1217.642456 108.0
1217.829956 164.0
1217.920288 112.0
1218.031372 124.0
1218.378662 148.0
1219.344482 192.0
1219.601685 156.0
1219.900513 208.0
1219.949219 88.0
1220.116089 180.0
1220.588867 124.0
1220.978271 156.0
1221.0896 188.0
1221.159058 128.0
1221.447876 64.0
1221.708618 96.0
1222.105103 68.0
1222.202515 104.0
1222.369507 204.0
1222.480835 76.0
1222.550537 136.0
1222.717529 156.0
1222.773193 64.0
1222.947144 72.0
1223.197754 100.0
1223.341064 180.0
1224.040161 144.0
1224.088867 112.0
1224.30481 148.0
1224.37439 204.0
1224.428223 164.0
1224.569336 216.0
1224.806152 288.0
1225.300781 200.0
1225.447144 144.0
1225.830322 160.0
1226.332031 208.0
1227.029175 204.0
1227.231323 184.0
1227.614868 124.0
1227.886841 48.0
1228.226074 288.0
1228.45874 32.0
1228.528564 136.0
1228.897095 120.0
1229.372681 136.0
1229.512329 180.0
1230.482544 124.0
1230.692017 72.0
1230.978271 196.0
1231.062012 156.0
1231.222656 132.0
1231.928101 56.0
1232.130737 88.0
1232.25647 152.0
1232.633789 68.0
1233.018066 156.0
1233.078979 196.0
1233.248779 52.0
1233.996704 168.0
1234.115601 124.0
1234.255371 124.0
1234.36731 184.0
1234.45813 220.0
1234.55603 160.0
1234.744873 44.0
1234.828857 196.0
1235.442139 140.0
1235.745239 136.0
1236.486938 160.0
1236.570923 112.0
1236.955811 148.0
1237.130859 160.0
1237.67688 200.0
1237.992065 36.0
1238.398193 40.0
1238.762451 136.0
1239.238892 124.0
1239.4646 168.0
1239.897461 204.0
1240.124512 156.0
1240.191895 188.0
1240.255005 176.0
1240.885864 136.0
1240.998047 172.0
1241.124268 84.0
1241.664185 108.0
1241.755371 160.0
1241.909668 140.0
1242.035889 120.0
1242.197266 32.0
1242.865601 164.0
1243.009155 120.0
1243.228638 168.0
1243.319824 232.0
1243.607544 96.0
1243.758423 104.0
1243.972534 56.0
1244.169067 68.0
1244.590332 212.0
1245.685913 132.0
1245.784302 120.0
1246.037231 80.0
1246.203491 256.0
1246.430664 52.0
1246.486816 92.0
1246.591919 144.0
1246.767944 124.0
1247.006836 116.0
1247.21228 128.0
1247.279785 160.0
1247.434692 412.0
1247.583252 192.0
1247.646484 204.0
1247.715698 168.0
1248.335571 112.0
1248.504272 152.0
1248.602783 212.0
1248.708252 72.0
1248.757568 176.0
1249.130249 180.0
1249.512451 148.0
1249.728271 140.0
1249.890137 56.0
1249.967529 160.0
1250.094116 196.0
1250.61499 176.0
1250.819092 144.0
1250.931641 80.0
1251.100586 168.0
1251.487793 88.0
1251.64978 120.0
1251.720215 88.0
1252.283569 164.0
1253.023193 160.0
1253.128906 160.0
1253.297974 152.0
1253.476807 188.0
1253.657349 112.0
1254.164795 40.0
1254.397339 184.0
1254.615845 88.0
1254.806274 256.0
1254.933105 96.0
1255.610107 56.0
1256.188477 128.0
1256.668213 100.0
1256.73877 84.0
1257.035034 216.0
1257.153442 180.0
1257.380859 168.0
1257.641968 208.0
1257.719604 184.0
1257.776123 160.0
1257.83252 184.0
1257.889038 164.0
1257.945557 48.0
1258.376099 188.0
1258.496216 172.0
1258.576294 160.0
1258.644409 52.0
1258.799805 208.0
1259.230591 128.0
1259.438965 264.0
1259.55542 56.0
1259.809814 84.0
1260.106445 208.0
1260.304321 32.0
1260.396118 224.0
1260.558716 176.0
1261.036499 176.0
1261.152344 96.0
1261.576416 168.0
1261.859131 144.0
1261.908691 80.0
1261.95813 224.0
1262.11377 68.0
1262.849121 104.0
1262.97644 136.0
1263.3302 112.0
1263.379639 48.0
1263.761719 204.0
1263.83252 132.0
1263.952759 116.0
1264.348999 96.0
1264.39856 168.0
1264.533081 72.0
1264.752441 176.0
1265.028442 164.0
1265.085083 88.0
1265.439087 104.0
1265.658569 136.0
1265.771851 112.0
1265.863892 76.0
1265.941772 104.0
1266.069336 152.0
1266.600464 228.0
1266.848389 44.0
1266.92981 96.0
1267.273438 52.0
1267.599365 72.0
1267.967896 108.0
1268.14502 136.0
1268.404785 164.0
1268.478149 200.0
1268.669556 220.0
1268.733398 40.0
1269.038208 136.0
1269.087891 176.0
1269.733521 180.0
1270.110718 192.0
1270.300537 200.0
1270.35022 132.0
1270.506348 180.0
1270.807251 104.0
1270.910645 144.0
1271.00293 128.0
1271.106201 140.0
1271.371948 204.0
1271.577759 124.0
1272.124268 116.0
1272.273315 96.0
1272.358521 180.0
1272.443726 108.0
1272.699341 84.0
1272.976196 132.0
1273.132446 120.0
1273.423584 72.0
1273.508911 176.0
1273.933105 144.0
1273.991821 212.0
1274.077148 132.0
1274.361328 128.0
1274.541382 92.0
1274.702393 180.0
1275.796875 148.0
1275.85376 196.0
1276.216309 108.0
1276.991821 176.0
1277.076782 184.0
1277.311523 104.0
1277.541138 116.0
1277.660034 192.0
1277.745483 184.0
1278.741699 164.0
1278.876831 92.0
1278.997925 136.0
1279.175781 104.0
1279.574463 164.0
1279.723999 164.0
1279.93042 148.0
1280.065796 28.0
1280.785034 56.0
1281.232666 144.0
1281.696899 96.0
1281.832275 128.0
1281.917847 116.0
1282.03186 184.0
1282.430908 156.0
1283.99231 132.0
1284.307861 132.0
1284.534302 96.0
1284.719849 80.0
1284.791138 96.0
1284.973022 164.0
1285.44043 72.0
1285.611694 160.0
1285.714966 184.0
1285.968506 44.0
1286.332764 96.0
1286.46814 52.0
1286.632324 112.0
1286.767944 228.0
1286.825073 116.0
1286.882202 220.0
1286.986206 196.0
1287.074951 88.0
1288.081909 208.0
1288.446289 64.0
1288.631958 52.0
1288.832031 68.0
1288.943237 124.0
1288.989258 180.0
1289.525269 236.0
1289.610962 176.0
1289.703857 80.0
1289.753906 156.0
1290.111328 68.0
1290.290039 188.0
1290.518799 96.0
1290.647583 84.0
1290.888794 168.0
1291.477051 88.0
1291.534302 136.0
1291.68457 132.0
1291.763184 160.0
1291.856201 148.0
1291.90625 116.0
1291.970703 84.0
1292.056519 60.0
1292.242554 108.0
1292.328369 228.0
1292.664673 120.0
1292.850708 128.0
1293.246948 132.0
1293.630859 168.0
1293.852783 108.0
1293.960205 160.0
1294.053223 116.0
1294.253662 64.0
1294.368286 188.0
1294.740601 56.0
1294.962646 56.0
1295.27063 104.0
1295.349976 212.0
1295.650269 128.0
1296.08728 104.0
1296.180542 116.0
1296.323853 128.0
1296.488647 240.0
1296.739502 288.0
1296.954468 144.0
1297.212524 160.0
1297.358643 168.0
1297.793213 140.0
1297.95813 180.0
1298.065674 136.0
1298.839233 148.0
1298.942505 136.0
1299.062622 128.0
1299.162964 188.0
1299.464355 132.0
1299.715454 88.0
1300.043701 176.0
1300.418701 120.0
1300.547852 228.0
1300.803955 160.0
1301.129272 128.0
1301.208252 120.0
1301.366211 160.0
1301.466797 168.0
1301.955444 160.0
1302.192017 68.0
1302.357178 128.0
1302.651733 112.0
1302.723511 236.0
1303.025269 104.0
1303.406128 116.0
1303.72229 168.0
1303.952271 92.0
1304.061157 160.0
1304.276978 152.0
1304.797974 140.0
1304.893921 168.0
1305.095215 104.0
1305.569824 92.0
1305.763916 100.0
1306.116333 176.0
1306.220337 296.0
1306.357788 164.0
1306.866943 152.0
1306.972412 120.0
1307.209961 104.0
1307.605713 220.0
1307.699219 252.0
1307.970703 228.0
1308.131104 140.0
1308.434448 60.0
1308.548706 76.0
1308.656616 52.0
1308.923096 180.0
1309.03833 184.0
1309.499146 188.0
1309.744019 64.0
1309.886963 96.0
1309.960205 88.0
1310.039429 204.0
1310.205078 124.0
1310.363525 176.0
1310.774292 144.0
1310.824707 184.0
1311.401245 176.0
1311.509399 132.0
1311.584473 220.0
1311.725586 160.0
1312.097778 120.0
1312.244629 168.0
1312.345581 104.0
1312.460938 116.0
1312.799805 212.0
1312.857544 212.0
1312.922363 184.0
1313.037842 36.0
1313.239746 156.0
1313.301758 204.0
1313.40564 160.0
1313.600342 128.0
1313.694214 88.0
1313.795166 64.0
1313.927856 80.0
1314.379517 132.0
1314.603271 144.0
1314.689819 236.0
1315.072388 68.0
1315.433228 84.0
1315.70752 136.0
1316.074219 196.0
1316.602905 96.0
1316.675049 80.0
1316.747314 96.0
1316.812256 64.0
1317.397339 116.0
1317.654297 156.0
1317.744141 108.0
1317.985962 164.0
1318.156006 228.0
1318.206543 88.0
1318.582397 156.0
1318.661865 116.0
1318.842529 152.0
1318.924072 112.0
1319.39917 112.0
1319.847412 160.0
1319.905273 124.0
1320.020874 48.0
1320.165527 192.0
1320.852661 244.0
1321.438843 180.0
1321.676147 144.0
1321.916138 128.0
1322.046387 92.0
1322.259521 140.0
1322.323975 188.0
1322.466064 116.0
1322.516846 224.0
1322.589111 96.0
1322.704956 160.0
1322.777344 272.0
1322.864258 180.0
1323.059692 80.0
1323.139282 128.0
1323.197266 120.0
1323.407227 176.0
1323.588257 324.0
1324.041382 260.0
1324.363037 216.0
1324.417847 220.0
1324.493408 120.0
1324.583252 164.0
1324.718018 172.0
1324.884644 124.0
1325.15271 112.0
1325.359497 176.0
1325.494507 304.0
1325.739624 56.0
1325.848267 116.0
1326.101929 156.0
1326.174438 116.0
1326.602051 180.0
1326.812256 148.0
1326.99353 124.0
1327.240601 208.0
1327.377808 52.0
1328.081299 156.0
1328.226318 84.0
1328.429443 160.0
1328.481201 276.0
1328.618042 216.0
1328.73938 160.0
1328.813965 192.0
1328.934204 196.0
1329.321777 88.0
1330.24353 160.0
1330.592041 232.0
1330.700928 108.0
1331.020386 176.0
1331.158325 132.0
1331.347168 124.0
1331.405273 108.0
1331.523071 200.0
1331.605835 160.0
1331.732056 136.0
1331.884644 48.0
1332.150269 144.0
1332.527954 168.0
1332.962158 184.0
1333.092896 152.0
1333.377441 172.0
1333.555664 80.0
1333.650146 128.0
1333.751953 152.0
1333.888184 136.0
1334.020874 208.0
1334.159058 188.0
1334.375854 160.0
1334.747925 176.0
1334.835205 112.0
1335.067871 132.0
1335.300537 164.0
1335.416992 152.0
1335.744263 68.0
1336.051514 196.0
1336.122559 204.0
1336.282593 148.0
1336.500854 152.0
1336.588135 112.0
1336.879272 104.0
1336.966553 192.0
1337.077271 164.0
1337.30127 144.0
1337.445068 156.0
1337.577881 108.0
1337.643433 112.0
1337.752563 156.0
1337.980957 76.0
1338.102051 128.0
1338.400513 160.0
1338.713623 80.0
1338.961304 144.0
1339.034058 48.0
1339.267212 136.0
1339.602173 48.0
1339.711548 124.0
1340.090332 208.0
1340.25061 92.0
1340.330811 176.0
1340.432739 132.0
1340.651367 72.0
1340.833618 124.0
1341.023071 68.0
1341.212524 192.0
1341.344604 176.0
1341.584351 56.0
1341.664551 84.0
1341.766602 220.0
1341.914917 240.0
1342.087402 148.0
1342.276978 132.0
1342.437378 88.0
1342.677979 76.0
1342.928223 184.0
1343.323975 192.0
1343.487671 200.0
1343.626221 180.0
1343.75354 208.0
1343.903442 204.0
1344.333984 112.0
1344.47998 172.0
1344.810791 156.0
1345.012695 128.0
1345.21814 168.0
1345.286499 176.0
1345.307007 88.0
1345.335693 116.0
1345.633179 152.0
1345.728149 196.0
1346.027466 124.0
1346.087891 216.0
1346.487549 120.0
1346.546021 160.0
1346.779663 148.0
1346.974976 124.0
1347.37207 136.0
1347.436523 136.0
1347.453613 124.0
1347.492188 168.0
1347.758545 116.0
1347.831665 124.0
1347.911987 172.0
1347.992432 68.0
1348.160522 84.0
1348.452759 208.0
1348.584351 176.0
1349.096069 148.0
1349.307983 120.0
1349.446899 120.0
1349.637085 216.0
1349.688232 124.0
1349.754028 80.0
1349.951416 188.0
1350.44873 104.0
1350.609619 180.0
1350.909546 192.0
1350.975342 164.0
1351.072876 232.0
1351.246094 120.0
1351.399658 208.0
1351.475464 136.0
1351.641113 148.0
1351.747925 100.0
1351.890015 168.0
1352.029541 52.0
1352.116821 192.0
1352.241211 184.0
1352.372925 156.0
1352.585205 188.0
1352.782837 176.0
1352.834106 36.0
1352.94397 96.0
1353.039062 172.0
1353.149536 128.0
1353.339233 96.0
1353.467529 188.0
1353.516846 136.0
1353.632202 92.0
1353.998291 124.0
1354.254639 92.0
1354.385376 164.0
1355.171997 184.0
1355.250854 160.0
1355.441406 164.0
1355.536621 112.0
1355.74646 176.0
1355.908203 108.0
1356.031616 160.0
1356.093628 88.0
1356.229248 168.0
1356.350098 232.0
1356.511353 272.0
1356.643311 128.0
1356.694702 104.0
1357.032227 164.0
1357.200562 184.0
1357.515869 236.0
1357.69519 160.0
1357.897217 196.0
1358.065918 196.0
1358.381226 164.0
1358.638062 176.0
1358.700928 192.0
1358.78479 164.0
1358.990112 224.0
1359.239624 128.0
1359.393677 156.0
1359.445068 160.0
1359.731323 152.0
1359.804688 136.0
1359.907349 224.0
1360.146729 128.0
1360.215698 172.0
1360.406616 160.0
1360.590088 132.0
1360.97644 116.0
1361.089355 228.0
1361.184814 96.0
1361.575562 156.0
1361.706177 140.0
1361.779663 172.0
1361.948608 72.0
1362.110107 160.0
1362.580322 76.0
1362.734619 76.0
1362.786011 112.0
1362.910889 84.0
1362.969727 104.0
1363.038574 164.0
1363.139648 180.0
1363.226929 140.0
1363.334717 188.0
1363.59082 168.0
1363.719238 136.0
1363.7854 144.0
1363.851562 184.0
1363.991211 136.0
1364.152954 176.0
1364.219116 132.0
1364.366089 188.0
1364.46167 148.0
1364.973145 92.0
1365.189575 264.0
1365.238037 124.0
1365.388184 148.0
1365.89563 228.0
1366.241333 120.0
1366.403198 120.0
1366.479614 168.0
1366.592651 172.0
1366.778442 140.0
1366.984497 36.0
1367.092285 116.0
1367.271484 164.0
1367.376221 152.0
1367.49231 340.0
1367.584717 140.0
1367.742554 160.0
1368.059082 100.0
1368.154785 56.0
1368.279907 112.0
1368.368286 104.0
1368.742188 204.0
1369.104614 104.0
1369.288696 116.0
1369.620117 76.0
1369.749146 292.0
1369.866821 160.0
1369.973633 168.0
1370.263672 108.0
1370.364136 132.0
1370.43042 200.0
1370.54834 164.0
1370.648682 128.0
1370.828369 132.0
1370.887329 96.0
1371.476929 136.0
1371.550537 184.0
1371.742188 136.0
1371.873169 204.0
1372.258301 108.0
1372.32312 240.0
1372.405762 44.0
1372.501587 144.0
1372.781738 124.0
1372.870239 136.0
1372.973145 92.0
1373.379517 148.0
1373.578247 128.0
1373.969238 140.0
1374.109375 64.0
1374.168457 184.0
1374.360229 160.0
1374.419312 200.0
1374.670166 132.0
1374.859131 216.0
1375.01709 100.0
1375.349121 152.0
1375.411621 188.0
1375.563232 124.0
1375.718262 152.0
1375.791992 88.0
1376.052246 128.0
1376.112549 156.0
1376.166748 116.0
1376.263184 196.0
1376.38269 88.0
1376.449097 300.0
1376.559937 212.0
1376.692871 224.0
1376.796265 84.0
1376.943848 108.0
1377.032471 156.0
1377.187622 52.0
1377.460938 124.0
1377.770264 128.0
1377.918945 124.0
1378.081421 132.0
1378.205322 176.0
1378.70874 144.0
1378.737915 236.0
1379.032471 128.0
1379.143311 192.0
1379.263794 88.0
1379.421265 192.0
1379.566895 48.0
1379.662964 92.0
1379.751709 120.0
1379.855225 144.0
1379.914429 108.0
1380.128784 148.0
1380.39502 128.0
1380.479858 192.0
1380.609375 100.0
1380.801758 60.0
1380.949585 272.0
1381.00415 140.0
1381.212036 128.0
1381.741089 120.0
1381.891357 144.0
1382.584595 136.0
1382.917603 88.0
1383.233643 192.0
1383.295166 88.0
1383.672729 88.0
1383.887451 128.0
1384.02063 176.0
1384.433105 144.0
1384.531616 100.0
1384.790771 172.0
1384.921387 140.0
1384.983398 96.0
1385.087036 216.0
1385.352417 252.0
1385.427856 96.0
1385.503418 136.0
1385.709351 140.0
1385.783203 140.0
1385.935303 96.0
1386.064941 168.0
1386.30542 192.0
1386.465088 68.0
1386.585449 120.0
1387.028442 52.0
1387.154419 68.0
1387.393433 84.0
1387.435547 152.0
1387.445923 224.0
1387.539917 140.0
1387.591797 36.0
1387.669556 392.0
1387.932129 208.0
1387.958618 160.0
1388.118164 168.0
1388.170166 136.0
1388.607666 56.0
1389.059937 160.0
1389.176392 232.0
1389.356812 204.0
1389.408813 80.0
1389.479614 132.0
1389.524048 156.0
1389.601929 384.0
1389.735229 156.0
1390.37207 156.0
1390.855713 140.0
1390.930054 228.0
1391.071045 112.0
1391.226929 116.0
1391.477173 156.0
1391.657471 128.0
1391.716919 112.0
1391.850586 60.0
1391.917358 160.0
1392.013916 116.0
1392.140137 108.0
1392.273804 124.0
1392.472534 136.0
1392.574585 204.0
1392.741699 140.0
1392.934814 184.0
1393.031372 152.0
1393.583252 128.0
1393.63562 168.0
1393.792236 208.0
1394.279175 284.0
1394.524902 140.0
1394.600952 172.0
1394.733032 148.0
1394.785034 172.0
1394.963013 156.0
1395.13501 144.0
1395.29187 220.0
1395.491211 132.0
1395.8927 136.0
1396.286865 124.0
1396.41333 156.0
1396.770386 152.0
1397.067871 276.0
1397.24646 124.0
1397.356689 204.0
1397.774658 216.0
1397.883667 240.0
1398.072266 120.0
1398.280762 176.0
1398.414673 100.0
1398.505981 176.0
1398.75708 160.0
1398.905884 144.0
1399.226074 144.0
1399.449341 144.0
1399.657837 144.0
1399.724854 140.0
1399.797241 180.0
1399.821411 208.0
1399.84082 176.0
1399.968628 180.0
1400.077148 284.0
1400.131714 164.0
1400.246094 156.0
1400.424927 108.0
1400.745117 96.0
1400.797363 152.0
1400.886719 144.0
1400.961182 148.0
1401.093018 156.0
1401.230225 240.0
1401.464722 192.0
1401.564697 136.0
1401.635376 172.0
1401.651978 84.0
1401.679688 148.0
1401.840332 144.0
1401.914917 72.0
1401.974487 156.0
1402.078857 148.0
1402.27832 160.0
1402.391846 52.0
1402.476562 172.0
1402.622925 216.0
1402.704956 156.0
1402.846558 120.0
1402.958374 128.0
1403.010498 244.0
1403.450439 120.0
1403.681519 68.0
1403.823242 160.0
1403.957397 156.0
1404.307983 100.0
1404.390015 124.0
1404.4646 204.0
1404.695801 76.0
1404.943848 132.0
1405.046387 124.0
1405.135986 152.0
1405.27771 100.0
1405.42688 56.0
1405.479126 144.0
1405.558105 116.0
1405.740356 64.0
1405.888306 192.0
1406.016479 132.0
1406.113403 184.0
1406.38208 100.0
1406.516479 128.0
1406.68811 164.0
1406.800781 184.0
1406.86731 100.0
1406.93457 148.0
1407.100952 216.0
1407.180908 60.0
1407.673706 164.0
1407.878906 96.0
1408.012451 140.0
1408.181519 80.0
1408.435425 180.0
1408.495239 104.0
1408.648071 192.0
1408.883667 32.0
1408.980713 132.0
1409.134399 196.0
1409.194946 108.0
1409.428955 280.0
1409.80542 200.0
1409.828979 76.0
1409.856201 164.0
1410.273438 120.0
1410.345459 228.0
1410.406128 204.0
1410.61731 168.0
1410.805908 156.0
1411.01355 224.0
1411.143799 108.0
1411.199097 120.0
1411.361694 92.0
1411.639038 152.0
1411.723755 84.0
1412.037842 168.0
1412.157593 164.0
1412.628174 148.0
1412.80835 136.0
1412.89624 140.0
1412.950439 148.0
1413.137451 92.0
1413.288086 180.0
1413.391846 68.0
1413.459229 108.0
1413.529053 120.0
1413.638794 160.0
1413.713623 184.0
1413.819824 144.0
1413.893188 104.0
1413.96814 196.0
1414.072876 148.0
1414.131104 164.0
1414.263672 204.0
1414.409668 140.0
1414.491943 120.0
1414.559326 144.0
1414.656738 116.0
1414.791382 88.0
1414.888794 156.0
1414.978638 112.0
1415.068481 92.0
1415.130737 152.0
1415.348389 180.0
1415.682373 168.0
1415.757324 204.0
1415.89209 128.0
1416.03894 100.0
1416.259033 136.0
1416.359497 128.0
1416.537354 136.0
1416.64856 148.0
1417.236816 172.0
1417.352783 188.0
1417.613525 120.0
1417.944824 160.0
1418.064697 100.0
1418.222168 80.0
1418.289551 212.0
1418.364502 256.0
1418.506958 72.0
1418.671875 92.0
1418.724365 100.0
1418.921997 264.0
1419.142578 128.0
1419.158325 100.0
1419.187134 116.0
1419.346558 80.0
1419.894287 264.0
1420.265869 148.0
1420.539062 148.0
1420.644043 188.0
1420.741577 128.0
1421.065063 108.0
1421.139282 84.0
1421.415283 172.0
1421.581909 240.0
1421.671997 36.0
1421.762085 140.0
1421.897095 136.0
1422.172119 176.0
1422.309937 160.0
1422.362427 72.0
1422.422485 92.0
1422.568237 144.0
1422.723511 172.0
1422.880371 92.0
1422.945312 156.0
1423.678223 144.0
1423.797363 160.0
1423.897583 196.0
1424.33728 128.0
1424.494995 176.0
1424.595215 196.0
1424.667725 136.0
1424.840576 148.0
1425.088501 56.0
1425.20874 192.0
1425.328857 104.0
1425.748535 128.0
1425.892456 160.0
1425.97522 192.0
1426.163086 168.0
1426.230713 36.0
1426.307373 168.0
1426.418579 280.0
1426.493774 120.0
1426.553955 148.0
1426.621826 124.0
1426.68042 136.0
1426.822998 156.0
1426.967407 68.0
1427.185425 192.0
1427.290649 184.0
1427.501221 104.0
1427.626343 140.0
1427.990112 96.0
1428.042725 180.0
1428.141357 140.0
1428.227295 132.0
1428.381226 144.0
1428.474121 136.0
1428.862671 160.0
1428.930298 176.0
1429.118408 152.0
1429.321533 156.0
1429.381714 164.0
1429.652222 176.0
1429.750488 148.0
1429.913818 224.0
1430.255249 116.0
1430.313599 184.0
1430.511108 196.0
1430.612183 156.0
1430.683838 176.0
1430.943481 200.0
1431.037598 108.0
1431.311768 108.0
1431.466797 160.0
1431.564697 112.0
1431.730347 40.0
1431.798218 124.0
1431.861816 132.0
1431.933716 68.0
1432.014038 200.0
1432.159668 36.0
1432.38562 144.0
1432.453491 168.0
1432.596558 132.0
1432.724609 112.0
1433.014893 160.0
1433.078735 344.0
1433.236938 148.0
1433.416504 160.0
1433.458496 160.0
1433.53833 168.0
1433.802124 100.0
1433.930176 88.0
1434.065918 200.0
1434.141235 136.0
1434.412964 160.0
1434.535522 228.0
1434.601074 116.0
1434.668945 84.0
1434.822754 136.0
1434.903809 152.0
1434.955322 272.0
1435.083496 108.0
1435.181519 116.0
1435.589478 116.0
1435.701904 88.0
1435.877808 156.0
1435.984497 220.0
1436.117188 120.0
1436.175781 152.0
1436.267456 128.0
1436.407471 128.0
1436.735229 164.0
1436.855835 140.0
1437.09729 76.0
1437.195435 172.0
1437.5354 148.0
1437.640625 84.0
1437.738647 160.0
1437.829224 164.0
1437.88208 204.0
1437.960205 220.0
1438.116089 192.0
1438.168823 228.0
1438.4104 120.0
1438.463257 44.0
1438.583984 112.0
1438.810547 160.0
1438.961548 100.0
1439.097412 168.0
1439.18042 192.0
1439.278564 116.0
1439.354126 228.0
1439.443481 124.0
1439.716553 128.0
1439.792114 116.0
1439.935547 288.0
1440.079102 224.0
1440.193604 192.0
1440.298096 228.0
1440.358521 120.0
1440.506348 128.0
1440.585083 140.0
1440.638062 56.0
1440.706055 160.0
1440.781494 116.0
1440.983276 160.0
1441.234863 168.0
1441.28772 188.0
1441.453979 76.0
1441.718506 60.0
1441.848999 148.0
1441.998047 116.0
1442.064331 140.0
1442.204102 136.0
1442.262573 108.0
1442.338257 112.0
1442.391113 196.0
1442.459106 176.0
1442.874878 184.0
1442.935425 92.0
1443.125366 160.0
1443.20752 180.0
1443.351196 112.0
1443.411743 112.0
1443.647217 140.0
1443.751953 176.0
1443.903198 92.0
1443.98645 120.0
1444.084717 188.0
1444.243652 160.0
1444.410034 120.0
1444.523438 80.0
1444.689941 164.0
1444.841187 92.0
1444.969849 200.0
1445.158936 100.0
1445.227051 140.0
1445.295166 88.0
1445.479858 112.0
1445.575073 136.0
1445.680054 156.0
1445.790527 160.0
1445.949097 188.0
1446.034668 88.0
1446.092896 112.0
1446.203247 128.0
1446.347046 112.0
1446.526245 212.0
1446.642212 88.0
1446.726196 140.0
1446.914795 288.0
1447.355835 184.0
1447.471436 132.0
1447.576294 164.0
1447.755249 92.0
1447.914307 188.0
1447.996094 168.0
1448.089722 120.0
1448.142822 176.0
1448.239868 188.0
1448.326294 136.0
1448.497681 116.0
1448.664062 128.0
1448.759521 168.0
1449.073242 116.0
1449.156494 284.0
1449.321167 332.0
1449.396118 160.0
1449.573242 32.0
1449.641479 152.0
1449.766846 204.0
1449.838501 108.0
1450.032104 192.0
1450.220703 204.0
1450.293213 180.0
1450.399292 104.0
1450.467529 112.0
1450.543335 136.0
1450.604004 56.0
1450.820068 196.0
1450.876953 104.0
1450.955933 132.0
1451.127075 160.0
1451.26355 84.0
1451.381104 112.0
1451.473633 176.0
1451.531616 120.0
1451.68811 216.0
1451.817139 188.0
1452.117188 376.0
1452.484497 116.0
1452.605835 148.0
1452.722046 172.0
1452.780273 132.0
1452.856201 220.0
1452.923096 176.0
1453.002319 152.0
1453.105835 132.0
1453.136597 120.0
1453.152588 120.0
1453.334106 156.0
1453.463135 180.0
1453.539062 148.0
1453.655518 240.0
1453.842529 176.0
1453.994385 80.0
1454.153687 132.0
1454.246704 184.0
1454.54834 152.0
1454.624268 144.0
1454.715332 112.0
1455.010864 196.0
1455.033936 180.0
1455.193604 140.0
1455.28479 100.0
1455.459351 188.0
1455.555786 120.0
1455.618896 100.0
1455.785889 116.0
1455.930176 112.0
1456.038574 148.0
1456.142822 164.0
1456.287109 164.0
1456.675293 152.0
1456.903442 112.0
1457.239746 168.0
1457.365845 204.0
1457.424683 144.0
1457.6698 152.0
1457.806519 144.0
1458.019287 180.0
1458.247314 152.0
1458.306885 180.0
1458.399292 120.0
1458.604492 84.0
1458.882812 112.0
1459.005737 244.0
1459.098633 60.0
1459.395142 124.0
1459.539673 168.0
1459.699341 112.0
1459.99585 172.0
1460.109985 152.0
1460.345703 120.0
1460.406006 228.0
1460.573853 172.0
1461.273804 136.0
1461.393677 136.0
1461.495605 52.0
1461.634766 108.0
1461.715088 128.0
1461.788574 204.0
1462.133545 164.0
1462.204224 180.0
1462.339111 168.0
1462.460571 208.0
1462.526855 72.0
1462.635864 164.0
1462.742432 136.0
1462.826172 60.0
1462.907104 160.0
1463.14856 288.0
1463.243774 156.0
1463.403442 92.0
1463.572266 164.0
1463.693115 192.0
1463.707153 168.0
1463.834839 216.0
1463.945435 112.0
1464.029175 84.0
1464.173462 148.0
1464.272827 128.0
1464.403687 108.0
1464.486084 152.0
1464.575195 228.0
1464.691772 196.0
1464.981201 136.0
1465.125977 164.0
1465.209717 184.0
1465.362183 112.0
1465.438354 120.0
1465.499268 172.0
1465.590698 80.0
1465.727905 184.0
1465.864014 148.0
1466.34314 140.0
1466.459961 160.0
1466.535645 112.0
1466.611816 160.0
1466.695679 204.0
1466.916748 144.0
1467.053955 160.0
1467.168701 136.0
1467.242676 192.0
1467.589844 268.0
1467.65625 140.0
1467.865723 212.0
1468.002686 116.0
1468.078491 128.0
1468.273926 240.0
1468.35022 108.0
1468.578979 136.0
1468.647583 108.0
1468.789062 112.0
1468.888794 116.0
1468.996826 236.0
1469.250244 136.0
1469.349365 156.0
1469.562988 112.0
1469.692749 160.0
1469.776611 108.0
1469.952148 108.0
1470.01123 236.0
1470.127686 200.0
1470.219238 84.0
1470.280273 176.0
1470.387085 48.0
1470.517456 164.0
1470.818726 132.0
1470.975342 168.0
1471.104614 136.0
1471.306763 184.0
1471.387085 64.0
1471.467163 252.0
1471.60083 136.0
1471.659302 176.0
1471.728027 152.0
1471.799316 220.0
1471.875732 212.0
1471.952026 88.0
1472.082397 176.0
1472.226562 316.0
1472.432983 160.0
1472.52478 208.0
1472.631714 184.0
1472.731079 356.0
1473.112915 208.0
1473.252319 228.0
1473.349731 152.0
1473.449097 152.0
1473.594238 212.0
1473.832153 276.0
1473.915161 172.0
1474.037354 152.0
1474.098511 48.0
1474.362305 160.0
1474.418457 204.0
1474.511108 52.0
1474.648682 100.0
1474.809204 96.0
1474.901001 92.0
1474.984985 52.0
1475.141724 128.0
1475.34436 176.0
1475.469238 264.0
1475.57605 144.0
1475.78772 136.0
1476.009521 168.0
1476.062988 140.0
1476.207764 188.0
1476.445312 64.0
1476.584473 120.0
1476.789551 40.0
1476.98584 180.0
1477.113647 140.0
1477.164307 140.0
1477.454224 228.0
1477.482422 192.0
1477.738037 228.0
1477.80188 104.0
1478.021118 148.0
1478.143555 168.0
1478.246216 68.0
1478.342529 148.0
1478.422363 136.0
1478.498047 212.0
1478.839966 164.0
1478.891235 128.0
1479.375732 132.0
1479.573242 60.0
1479.674316 160.0
1479.858032 136.0
1480.087769 164.0
1480.217896 52.0
1480.429443 96.0
1480.501221 52.0
1480.644775 108.0
1480.761597 192.0
1480.991455 112.0
1481.04834 120.0
1481.074463 52.0
1481.133667 180.0
1481.171753 152.0
1481.251831 132.0
1481.458618 128.0
1481.512329 136.0
1481.598267 192.0
1481.677246 308.0
1481.776489 108.0
1481.841675 116.0
1481.964233 204.0
1482.102173 92.0
1482.247803 144.0
1482.332031 124.0
1482.45813 184.0
1482.71521 104.0
1482.836426 128.0
1482.914551 76.0
1483.012207 160.0
1483.251709 148.0
1483.6427 260.0
1483.922974 100.0
1484.09729 232.0
1484.197754 172.0
1484.41272 156.0
1484.509033 108.0
1484.758667 156.0
1484.915527 120.0
1485.038208 188.0
1485.200806 292.0
1485.291382 188.0
1485.34314 128.0
1485.506104 152.0
1485.598145 132.0
1485.718872 136.0
1485.818481 204.0
1485.95105 68.0
1486.019409 88.0
1486.067383 172.0
1486.242798 184.0
1486.419067 68.0
1486.610962 136.0
1486.664673 148.0
1486.856445 208.0
1486.910278 144.0
1487.102051 72.0
1487.186523 132.0
1487.247925 216.0
1487.317017 144.0
1487.56311 124.0
1487.685425 92.0
1487.76001 156.0
1487.78772 112.0
1487.803833 192.0
1487.933105 172.0
1488.074829 160.0
1488.146118 208.0
1488.244019 112.0
1488.453247 168.0
1488.721924 204.0
1488.814087 112.0
1488.89856 124.0
1489.021484 148.0
1489.149048 116.0
1489.359375 116.0
1489.513062 168.0
1489.612915 148.0
1489.730103 120.0
1489.874023 76.0
1489.991821 112.0
1490.135254 204.0
1490.242798 76.0
1490.350342 112.0
1490.458618 144.0
1490.849854 164.0
1491.186768 124.0
1491.326294 192.0
1491.472412 128.0
1491.70105 144.0
1491.772095 152.0
1491.972046 124.0
1492.04126 80.0
1492.121094 112.0
1492.187256 80.0
1492.350342 232.0
1492.646729 144.0
1492.674316 128.0
1492.704834 188.0
1493.025391 152.0
1493.125366 168.0
1493.248413 156.0
1493.356079 128.0
1493.522461 252.0
1493.594482 180.0
1493.755615 148.0
1493.779297 140.0
1493.810913 152.0
1493.909912 56.0
1494.079102 152.0
1494.156128 224.0
1494.425293 168.0
1494.648315 172.0
1494.801147 176.0
1494.990967 276.0
1495.133301 84.0
1495.251343 196.0
1495.317993 136.0
1495.625854 160.0
1495.72583 148.0
1496.029297 76.0
1496.103027 96.0
1496.278931 152.0
1496.453003 116.0
1496.541138 188.0
1496.641602 148.0
1496.726685 112.0
1496.851807 132.0
1497.011597 136.0
1497.067505 156.0
1497.196411 60.0
1497.342773 124.0
1497.404297 96.0
1497.66626 160.0
1497.828003 132.0
1497.881836 124.0
1497.942505 88.0
1498.028198 132.0
1498.143799 284.0
1498.382568 204.0
1498.451904 204.0
1498.68396 72.0
1498.767822 64.0
1498.856689 212.0
1498.911133 108.0
1499.052002 168.0
1499.153076 164.0
1499.253296 88.0
1499.338013 156.0
1499.415161 112.0
1499.476807 96.0
1499.654053 100.0
1499.838989 92.0
1499.908447 100.0
1500.208984 232.0
1500.424927 200.0
1500.592163 356.0
1500.717896 184.0
1500.915649 216.0
1501.041626 88.0
1501.165039 208.0
1501.327026 168.0
1501.731934 136.0
1501.809692 184.0
1502.136841 136.0
1502.267944 48.0
1502.476196 188.0
1502.730103 128.0
1502.926758 200.0
1503.13208 208.0
1503.201538 84.0
1503.372925 148.0
1503.479248 104.0
1503.610474 148.0
1503.710815 60.0
1503.764893 56.0
1503.852417 156.0
1503.942383 156.0
1504.00415 124.0
1504.289673 104.0
1504.35144 96.0
1504.465698 76.0
1504.60022 200.0
1504.730103 96.0
1504.807007 104.0
1504.860962 192.0
1504.945923 108.0
1505.0 56.0
1505.112793 184.0
