>compound Cephalomannine
>formula C45H53NO14
>ionization [M+Na]+
>parentmass 854.335327
#inchi InChI=1S/C45H53NO14/c1-9-23(2)39(52)46-33(27-16-12-10-13-17-27)34(50)41(54)58-29-21-45(55)38(59-40(53)28-18-14-11-15-19-28)36-43(8,30(49)20-31-44(36,22-56-31)60-26(5)48)37(51)35(57-25(4)47)32(24(29)3)42(45,6)7/h9-19,29-31,33-36,38,49-50,55H,20-22H2,1-8H3,(H,46,52)/b23-9+/t29-,30+,31+,33-,34+,35-,36-,38-,43+,44-,45+/m0/s1
#inchikey DBXFAPJCZABTDR
#Ion_Source LC-ESI
#Instrument qTof
#Compound_Source Commercial
#PI Dorrestein
#Data_Collector Garg_Neha
#Scan -1
#Precursor_MZ 854.336
#ExactMass 831.347
#Charge 1
#CAS_Number 71610-00-9
#Pubmed_ID N/A
#Smiles C1=CC=CC(=C1)[C@@H]([C@H](C(O[C@H]2C[C@@]3(C(C(=C2C)[C@@H](C([C@]4([C@@]([C@]5([C@@H](C[C@H]4O)OC5)OC(=O)C)([C@@H]3OC(C6=CC=CC=C6)=O)[H])C)=O)OC(=O)C)(C)C)O)=O)O)NC(/C(=C/C)C)=O
#INCHI_AUX N/A
#Library_Class 1
#SpectrumID CCMSLIB00000078466
#IonMode Positive
#UpdateWorkflowName UPDATE-SINGLE-ANNOTATED-GOLD
#LibraryQualityString Gold
#TaskID 77f51c88eb8b467eb4a01dd2d0cb90d2
##Scan# 1730
#SpectrumFile Plate7_41_60_GD4_01_15769.mzXML
#LibraryName FDALibrary_2_04302014.mgf
#MQScore -1
#Organism FDALibrary_2_04302014
#TIC_Query 0
#RT_Query -1
#MZErrorPPM -1
#SharedPeaks 0
#MassDiff 0
#LibMZ -1
#SpecMZ 854.336
#SpecCharge 0
#internalFilename spec-00000.mgf

>collision 10
61.288033 148.0
68.950912 172.0
74.123283 208.0
77.161156 172.0
83.276375 196.0
85.141167 156.0
87.46907 140.0
104.043098 148.0
105.032333 384.0
106.069511 176.0
109.058487 168.0
111.044144 180.0
112.920776 148.0
117.11937 140.0
117.518204 156.0
119.875282 176.0
121.059311 316.0
122.055946 628.0
122.112755 160.0
129.066879 308.0
129.453827 144.0
131.080353 156.0
133.063202 176.0
133.10022 172.0
134.098663 164.0
134.13092 172.0
135.082321 144.0
135.112396 264.0
142.078094 224.0
146.592545 220.0
147.081375 172.0
147.241516 172.0
149.058517 140.0
150.058853 144.0
150.097824 124.0
156.472473 164.0
157.10199 172.0
159.072617 176.0
161.095337 176.0
162.104355 176.0
165.067322 156.0
167.069275 148.0
167.106522 188.0
169.102829 184.0
173.091232 168.0
173.129013 160.0
175.079697 176.0
177.050476 400.0
178.095459 188.0
180.091614 168.0
181.050659 168.0
181.104233 220.0
183.116119 340.0
184.133575 248.0
185.101868 212.0
187.104782 148.0
189.092026 256.0
193.053772 160.0
193.098495 164.0
195.05838 172.0
195.121445 368.0
196.122025 140.0
197.087311 148.0
197.130234 380.0
198.108521 188.0
199.146408 208.0
203.149155 160.0
204.082153 316.0
205.105591 196.0
205.128403 204.0
207.112869 288.0
208.118134 164.0
211.115341 324.0
211.147491 208.0
212.110031 184.0
215.10881 324.0
218.112732 152.0
220.127106 164.0
221.079605 132.0
221.128738 296.0
223.11171 216.0
224.147507 180.0
225.090118 156.0
225.124573 160.0
226.136688 112.0
226.95433 164.0
227.101273 164.0
227.140427 144.0
231.129211 156.0
235.149536 244.0
236.08165 168.0
236.117111 176.0
237.091919 152.0
237.128708 268.0
237.168137 176.0
238.135071 192.0
239.135574 256.0
239.171265 144.0
240.091171 152.0
240.116241 184.0
240.1362 152.0
241.099838 128.0
243.239212 152.0
245.134766 156.0
247.087967 160.0
247.892685 212.0
248.080734 152.0
249.125885 248.0
251.108841 184.0
251.151459 212.0
253.125351 168.0
253.155441 204.0
255.082703 172.0
255.138367 100.0
255.16217 144.0
256.279358 204.0
257.113281 256.0
257.145294 120.0
258.156311 148.0
259.128204 204.0
263.15036 124.0
264.119263 124.0
266.154602 172.0
267.140503 284.0
268.089905 572.0
270.134094 144.0
280.310272 148.0
281.152161 420.0
282.146057 140.0
283.173279 156.0
285.151611 104.0
285.798584 160.0
286.103973 11836.0
287.104401 2320.0
287.160736 244.0
287.213531 144.0
288.107819 748.0
288.801086 216.0
289.129272 240.0
291.143311 348.0
292.094757 196.0
296.149902 192.0
297.078857 148.0
299.168976 248.0
309.139191 192.0
310.15097 228.0
315.171936 176.0
319.120026 160.0
320.08075 144.0
327.161438 456.0
328.122375 140.0
328.160919 188.0
330.125275 204.0
338.085114 136.0
343.180237 148.0
345.168152 120.0
349.141541 272.0
350.152832 344.0
351.112335 296.0
367.145355 152.0
367.187439 140.0
373.145874 164.0
381.165741 120.0
382.18515 144.0
387.172638 164.0
391.155457 140.0
405.186523 140.0
407.075745 168.0
409.155304 392.0
410.165161 196.0
425.19751 272.0
426.197449 108.0
427.16748 252.0
464.632202 148.0
469.180328 432.0
470.185333 132.0
471.183502 684.0
472.175323 176.0
487.207977 252.0
489.248199 200.0
503.207031 284.0
509.223022 280.0
510.2052 140.0
520.230042 140.0
530.99884 148.0
531.199158 3312.0
532.19873 1052.0
533.199707 120.0
534.212585 188.0
545.953613 196.0
547.200378 136.0
547.240417 248.0
549.226318 152.0
565.181396 612.0
566.185425 256.0
566.224182 172.0
567.177795 136.0
569.231018 268.0
572.697937 140.0
582.215759 176.0
583.19104 216.0
586.257935 144.0
591.218384 2772.0
592.219727 892.0
593.217896 252.0
595.235352 168.0
609.233826 196.0
610.22168 144.0
612.248474 256.0
612.294617 172.0
630.266785 160.0
649.189636 188.0
672.273376 376.0
673.270447 108.0
705.817383 140.0
734.315063 144.0
756.343079 140.0
771.144775 200.0
775.977478 140.0
795.299072 252.0
796.32959 160.0
802.638245 152.0
809.685303 160.0
810.280334 244.0
811.260498 156.0
811.305847 152.0
828.288025 156.0
831.131653 140.0
844.520386 148.0
844.717041 144.0
849.884949 172.0
851.220032 176.0
852.992676 112.0
854.019348 140.0
854.068176 172.0
854.166687 160.0
854.335327 11536.0
854.575562 132.0
854.691711 100.0
855.337341 5528.0
855.521729 136.0
855.726807 100.0
856.343262 2316.0
856.453064 192.0
856.922791 164.0
857.346924 476.0
857.577515 120.0
858.333862 128.0
858.718506 164.0
859.719299 160.0
859.771667 112.0
861.955872 144.0
863.48175 148.0
870.273621 244.0
873.677551 120.0
1380.648315 192.0
1646.62207 140.0
1753.441162 192.0
1774.959595 144.0
1780.977051 172.0
1985.255981 172.0
