>compound MLS001049095-01!7-(3-methylbut-2-enoxy)chromen-2-one
>formula C14H14O3
>ionization [M+H]+
>parentmass 231.102
#inchi InChI=1S/C14H14O3/c1-10(2)7-8-16-12-5-3-11-4-6-14(15)17-13(11)9-12/h3-7,9H,8H2,1-2H3
#inchikey SMHJTSOVVRGDEO
#Ion_Source LC-ESI
#Instrument qTof
#Compound_Source NIH Natural Product Library
#PI Dorrestein
#Data_Collector VVP/LMS
#Scan -1
#Precursor_MZ 231.102
#ExactMass 230.094
#Charge 1
#CAS_Number N/A
#Pubmed_ID N/A
#Smiles CC(=CCOc1ccc2ccc(=O)oc2c1)C
#INCHI_AUX N/A
#Library_Class 1
#SpectrumID CCMSLIB00000079813
#IonMode Positive
#UpdateWorkflowName UPDATE-SINGLE-ANNOTATED-GOLD
#LibraryQualityString Gold
#TaskID b1d8e8f6646f4e71acdff9ca3d919d08
##Scan# 2358
#SpectrumFile p1-D11_GD11_01_17919.mzXML
#LibraryName NIH_Natural_Products_Library.mgf
#MQScore -1
#Organism NIH_Natural_Products_Library
#TIC_Query 0
#RT_Query -1
#MZErrorPPM -1
#SharedPeaks 0
#MassDiff 0
#LibMZ -1
#SpecMZ 231.102
#SpecCharge 0
#internalFilename spec-00000.mgf

>collision 10
95.49765 216.0
95.616325 216.0
95.768188 172.0
95.812988 212.0
95.871445 68.0
96.811081 144.0
96.942329 184.0
97.352318 156.0
97.667084 176.0
97.879311 112.0
97.965973 236.0
98.781235 100.0
98.848503 224.0
99.363647 260.0
99.60981 204.0
99.7827 192.0
99.842354 108.0
99.85627 204.0
100.134903 220.0
100.241409 228.0
101.147194 140.0
101.263321 164.0
101.8992 240.0
101.971542 136.0
102.128365 164.0
102.303421 140.0
102.367744 152.0
102.392021 132.0
102.440361 160.0
102.581413 144.0
102.678192 96.0
102.815376 200.0
102.960732 188.0
103.3367 212.0
103.35289 220.0
103.956726 152.0
104.354843 68.0
104.552147 212.0
104.596924 172.0
104.751678 180.0
105.300354 36.0
105.339958 124.0
106.256279 100.0
106.338356 132.0
106.545746 116.0
106.740997 128.0
106.773903 180.0
106.800636 112.0
106.831009 152.0
106.936432 180.0
106.954956 156.0
106.998184 140.0
107.049835 24428.0
107.073021 220.0
107.101151 72.0
107.118309 48.0
107.152168 120.0
107.175308 44.0
107.228889 96.0
107.253624 40.0
107.276299 48.0
107.360268 44.0
107.523804 48.0
107.538254 112.0
107.635277 52.0
107.730286 48.0
107.761269 92.0
107.945229 196.0
107.963837 252.0
108.030022 76.0
108.052521 1872.0
108.234917 72.0
108.419281 120.0
108.531212 56.0
108.624535 52.0
108.655655 80.0
108.726204 120.0
108.798851 116.0
108.848679 68.0
108.911652 148.0
108.99408 96.0
109.016937 124.0
109.035637 176.0
109.056969 212.0
109.10215 68.0
109.187401 176.0
109.435028 208.0
109.997894 144.0
110.694092 152.0
111.046165 124.0
111.712006 152.0
112.078331 184.0
112.185814 164.0
112.867744 140.0
113.293144 120.0
113.458443 52.0
113.651443 48.0
113.810204 240.0
113.904076 152.0
114.148476 76.0
114.254822 100.0
114.325035 40.0
114.733986 76.0
114.938736 156.0
115.030502 68.0
115.269707 88.0
115.534821 140.0
116.014519 156.0
116.432915 116.0
116.834862 172.0
117.002724 192.0
117.131927 188.0
117.159927 52.0
117.256889 208.0
117.405647 156.0
117.524284 120.0
117.835182 52.0
118.042084 160.0
118.523216 156.0
118.566551 184.0
118.722641 68.0
118.850624 144.0
118.926575 172.0
119.002556 196.0
119.049507 4764.0
119.171967 76.0
119.302361 72.0
119.561195 72.0
120.052162 600.0
120.180038 124.0
120.223679 48.0
120.428902 192.0
120.481323 196.0
121.058929 224.0
121.830795 120.0
122.019791 108.0
122.543594 144.0
122.739754 140.0
123.004494 196.0
123.675545 200.0
124.439018 212.0
124.483421 132.0
125.148262 128.0
125.181664 224.0
125.518135 208.0
125.759064 180.0
125.948853 236.0
126.248329 112.0
126.498917 172.0
127.31279 124.0
127.73983 184.0
127.816322 148.0
128.666016 180.0
129.765533 168.0
129.78595 196.0
130.444321 204.0
130.626236 212.0
130.785507 72.0
132.869537 196.0
133.604691 188.0
134.069794 108.0
134.212708 164.0
134.300339 140.0
134.628052 204.0
134.801315 116.0
135.044052 1080.0
135.118073 164.0
135.699387 104.0
135.838516 172.0
136.050201 216.0
136.154175 208.0
136.85643 60.0
137.285172 136.0
137.597839 216.0
138.378708 168.0
138.884872 100.0
139.077271 192.0
140.010651 124.0
140.09288 208.0
140.168472 144.0
141.124405 156.0
141.632294 84.0
141.879639 40.0
144.796173 164.0
144.995026 140.0
145.381119 196.0
145.407516 68.0
145.58757 140.0
145.762939 92.0
145.95282 104.0
146.02977 176.0
148.340515 196.0
148.401123 76.0
149.464966 236.0
150.620529 100.0
150.772018 176.0
151.009155 208.0
151.64328 160.0
151.805069 88.0
152.266434 120.0
152.610458 192.0
152.885956 124.0
153.176483 156.0
153.25531 144.0
154.059586 168.0
154.225143 148.0
155.895538 180.0
157.397598 176.0
158.693665 84.0
159.84404 120.0
160.599823 160.0
160.826904 44.0
162.007767 148.0
162.230774 204.0
162.385437 180.0
162.53038 148.0
162.631546 112.0
162.702621 184.0
162.728012 176.0
162.767487 44.0
162.806732 120.0
162.827042 144.0
162.900696 168.0
162.931183 164.0
162.97493 128.0
163.0392 45488.0
163.09845 184.0
163.131195 68.0
163.21965 72.0
163.249512 100.0
163.269241 56.0
163.289581 36.0
163.321503 80.0
163.340454 88.0
163.368439 108.0
163.388794 48.0
163.456833 72.0
163.488022 36.0
163.528748 36.0
163.755341 304.0
163.850677 84.0
163.903091 172.0
163.948959 220.0
164.042542 2504.0
164.196243 72.0
164.277863 36.0
164.351852 60.0
164.369705 68.0
164.420746 76.0
164.46669 84.0
164.504974 40.0
164.624969 116.0
164.813995 92.0
164.865097 92.0
164.921326 68.0
165.022766 76.0
165.042343 500.0
165.084946 144.0
165.161667 48.0
165.189804 60.0
165.322845 48.0
165.389389 108.0
165.425232 44.0
165.527634 68.0
165.819672 68.0
165.919647 44.0
165.963226 72.0
166.140198 60.0
166.787292 76.0
167.294037 76.0
167.631424 56.0
172.979126 116.0
173.461105 64.0
174.049438 200.0
174.186646 96.0
174.274658 136.0
174.293045 64.0
174.350861 76.0
176.422562 132.0
179.846558 64.0
180.926483 180.0
181.052322 208.0
182.060654 36.0
183.537964 92.0
195.53508 48.0
204.064362 116.0
234.079163 44.0
276.045319 124.0
287.942841 52.0
290.355835 96.0
316.192444 64.0
327.849365 112.0
348.492889 60.0
358.208618 92.0
369.410828 80.0
384.839203 96.0
441.052399 116.0
444.452911 164.0
445.078308 68.0
453.608856 92.0
511.652069 20.0
526.588867 64.0
575.521179 112.0
600.958557 140.0
698.217896 172.0
704.03064 108.0
734.663757 80.0
802.00177 80.0
835.808044 168.0
842.998596 152.0
858.451416 128.0
891.126282 132.0
896.767517 120.0
899.32019 108.0
907.161987 204.0
911.879761 88.0
912.048035 196.0
923.53418 204.0
932.708008 152.0
934.149109 180.0
939.241455 188.0
950.363159 180.0
956.391724 148.0
973.982788 124.0
976.058533 156.0
981.924622 168.0
983.927612 148.0
984.526978 168.0
993.904053 152.0
1003.199463 176.0
1012.595093 132.0
1019.567322 164.0
1021.048584 140.0
1022.486389 252.0
1024.4729 68.0
1033.545166 132.0
1053.494873 136.0
1059.433472 176.0
1061.286987 156.0
1061.708496 160.0
1061.961426 204.0
1063.278442 184.0
1067.35791 216.0
1068.814941 56.0
1069.055664 92.0
1070.592041 168.0
1077.068237 124.0
1080.022705 144.0
1093.295166 200.0
1106.085938 144.0
1109.563721 188.0
1112.665161 20.0
1113.279419 216.0
1118.318726 240.0
1120.502808 164.0
1124.130005 56.0
1126.306396 136.0
1126.480103 212.0
1127.268799 168.0
1129.494751 160.0
1129.688721 56.0
1130.478149 48.0
1133.323975 176.0
1133.947144 148.0
1137.401367 156.0
1139.10022 228.0
1141.344849 124.0
1141.674316 168.0
1142.710205 180.0
1144.399536 164.0
1148.604736 100.0
1148.692383 132.0
1151.743286 220.0
1152.324341 156.0
1159.063232 156.0
1159.510498 132.0
1159.564697 112.0
1159.734131 56.0
1162.060059 152.0
1162.752197 148.0
1167.079346 176.0
1167.20166 224.0
1169.085938 68.0
1170.904297 80.0
1175.539185 180.0
1176.931641 196.0
1177.341431 44.0
1179.27478 128.0
1181.814575 120.0
1182.735718 48.0
1188.595093 172.0
1191.911621 124.0
1193.264404 212.0
1195.790161 192.0
1200.219604 144.0
1202.544312 120.0
1207.345825 224.0
1207.66394 96.0
1208.348755 104.0
1212.253906 204.0
1212.399414 140.0
1212.974731 204.0
1221.515625 192.0
1227.037964 200.0
1228.076904 184.0
1229.144287 216.0
1231.462036 188.0
1233.753906 240.0
1236.21582 212.0
1248.0 168.0
1248.260132 180.0
1248.731323 164.0
1255.349854 112.0
1255.717896 204.0
1263.042114 168.0
1264.903076 56.0
1273.290771 180.0
1273.681396 176.0
1281.948486 168.0
1282.204346 204.0
1284.750488 136.0
1286.348999 188.0
1289.756104 260.0
1293.668823 120.0
1294.091309 128.0
1294.678467 168.0
1295.552246 164.0
1297.472778 32.0
1298.835327 204.0
1301.77063 156.0
1301.864014 124.0
1304.817017 140.0
1305.147827 152.0
1311.439575 64.0
1314.800415 196.0
1316.251343 108.0
1320.507812 248.0
1321.281738 108.0
1321.390259 176.0
1323.887451 236.0
1324.025024 148.0
1327.387451 204.0
1327.467285 176.0
1329.846802 56.0
1330.369385 208.0
1331.850708 184.0
1332.620728 160.0
1332.96228 192.0
1334.059692 132.0
1334.88855 220.0
1335.143066 168.0
1336.525146 76.0
1337.078125 56.0
1339.072998 212.0
1341.164062 196.0
1341.645142 228.0
1342.709717 180.0
1351.636353 172.0
1353.90564 152.0
1355.883667 212.0
1358.339844 176.0
1360.284424 212.0
1365.273193 60.0
1365.927734 160.0
1366.266113 80.0
1371.133179 148.0
1373.75061 128.0
1378.12854 172.0
1378.93396 152.0
1382.824219 132.0
1383.216431 48.0
1383.497803 128.0
1384.815796 172.0
1387.120117 200.0
1389.908691 212.0
1390.984741 156.0
1391.036743 192.0
1391.415283 120.0
1391.652832 64.0
1396.133545 212.0
1397.182251 208.0
1403.72168 148.0
1404.67627 188.0
1406.437256 224.0
1406.900024 204.0
1407.661621 168.0
1409.573853 188.0
1411.607056 172.0
1415.400757 192.0
1416.253906 204.0
1416.486694 192.0
1417.677979 60.0
1417.790405 232.0
1419.334595 200.0
1424.250122 144.0
1424.655762 76.0
1425.782837 196.0
1426.03833 152.0
1426.72229 204.0
1429.392334 124.0
1430.528809 196.0
1432.004517 180.0
1432.983887 116.0
1433.300293 212.0
1434.061401 144.0
1438.941895 240.0
1440.293701 120.0
1442.492554 200.0
1444.390381 136.0
1445.737183 212.0
1446.039917 172.0
1446.615112 180.0
1448.296143 140.0
1449.849243 260.0
1456.244751 180.0
1458.797852 64.0
1460.196899 148.0
1463.803955 192.0
1464.48938 204.0
1464.778809 216.0
1465.769165 208.0
1468.856812 208.0
1469.062866 128.0
1469.154297 204.0
1469.74939 168.0
1470.459106 156.0
1476.165771 184.0
1477.075806 228.0
1477.244141 184.0
1484.22876 100.0
1485.149048 212.0
1486.952026 144.0
1487.850098 152.0
1491.137573 180.0
1493.982544 160.0
1500.28186 220.0
1500.389771 172.0
1500.97583 160.0
1501.08374 116.0
1503.498291 176.0
