>compound QUETIAPINE HEMIFUMARATE
>formula C21H25N3O2S
>ionization [M+H]+
>parentmass 384.17402449209055
#inchi InChI=1S/C21H25N3O2S/c25-14-16-26-15-13-23-9-11-24(12-10-23)21-17-5-1-3-7-19(17)27-20-8-4-2-6-18(20)22-21/h1-8,25H,9-16H2
#inchikey URKOMYMAXPYINW
#Ion_Source LC-ESI
#Instrument qTof
#Compound_Source Commercial
#PI Dorrestein
#Data_Collector Garg_Neha
#Scan -1
#Precursor_MZ 384.174
#ExactMass 383.167
#Charge 1
#CAS_Number N/A
#Pubmed_ID N/A
#Smiles OCCOCCN1CCN(CC1)C2=Nc3ccccc3Sc4ccccc24
#INCHI_AUX N/A
#Library_Class 1
#SpectrumID CCMSLIB00000079141
#IonMode Positive
#UpdateWorkflowName UPDATE-SINGLE-ANNOTATED-GOLD
#LibraryQualityString Gold
#TaskID 278b19f5865741e282cec7349aa7e7a1
##Scan# 1090
#SpectrumFile NCP003512_G2_H11_BD7_01_15731.mzXML
#LibraryName NIHcollectionI_05062014.mgf
#MQScore -1
#Organism NIHcollectionI_05062014
#TIC_Query 0
#RT_Query -1
#MZErrorPPM -1
#SharedPeaks 0
#MassDiff 0
#LibMZ -1
#SpecMZ 384.174
#SpecCharge 0
#internalFilename spec-00000.mgf

>collision 10
46.111507 160.0
48.260582 220.0
48.47929 176.0
50.556198 188.0
52.15073 196.0
53.152992 176.0
54.472836 140.0
54.649254 216.0
55.593479 208.0
55.776157 152.0
56.158825 152.0
57.737347 220.0
58.433594 196.0
58.561462 176.0
58.853661 184.0
59.590984 184.0
62.760178 144.0
64.979004 232.0
67.024376 172.0
67.948158 156.0
69.146118 140.0
70.30114 148.0
70.806015 148.0
73.490501 156.0
74.464546 148.0
76.280556 184.0
77.610886 140.0
77.624916 244.0
80.809807 184.0
80.877808 192.0
82.471443 156.0
82.97831 188.0
83.710556 180.0
84.19381 156.0
85.175522 168.0
86.619843 152.0
86.634666 152.0
88.795036 208.0
89.048401 168.0
89.831429 200.0
90.604614 180.0
91.579094 148.0
93.464775 192.0
93.749763 152.0
95.731537 164.0
96.461235 164.0
96.645065 184.0
96.692032 188.0
98.039261 168.0
98.147675 160.0
99.052818 160.0
99.368027 164.0
99.73938 228.0
100.424316 196.0
100.609894 144.0
100.921562 188.0
101.881561 208.0
101.967964 256.0
103.096542 208.0
104.030273 172.0
104.318726 196.0
104.917229 204.0
110.351517 144.0
110.659073 216.0
111.019478 160.0
111.094986 180.0
111.363663 164.0
112.011505 160.0
112.173759 140.0
113.675392 160.0
116.523788 144.0
116.975395 168.0
117.225227 144.0
119.083588 144.0
119.296532 212.0
119.372627 164.0
126.070282 168.0
126.557922 156.0
126.595985 192.0
126.889511 180.0
127.601212 156.0
127.794632 148.0
128.675873 152.0
128.763931 160.0
130.059021 248.0
132.104279 300.0
133.086166 156.0
133.104538 280.0
135.535736 156.0
136.524612 144.0
138.522522 152.0
138.71701 144.0
139.024261 224.0
139.055161 96.0
139.543365 176.0
139.642136 244.0
139.769165 172.0
140.832382 144.0
141.056854 180.0
141.279129 228.0
142.614731 164.0
143.83606 152.0
144.34494 184.0
145.511795 172.0
146.117355 124.0
150.099396 144.0
150.751144 204.0
152.216019 260.0
153.167786 188.0
155.082703 224.0
155.956375 188.0
156.902313 152.0
158.118088 5088.0
158.230515 152.0
159.031052 196.0
159.119263 848.0
160.116425 108.0
161.330841 176.0
163.058029 196.0
165.39328 260.0
166.062012 152.0
168.298279 188.0
170.510513 140.0
171.116608 176.0
171.814941 176.0
173.131378 292.0
173.855957 156.0
174.383835 204.0
175.044159 184.0
175.621307 256.0
176.180923 164.0
176.849915 156.0
177.058212 180.0
178.060638 396.0
178.09343 144.0
179.072723 124.0
180.082336 156.0
180.679123 172.0
180.871796 192.0
181.091934 184.0
181.925278 172.0
183.024918 240.0
184.035995 148.0
185.299057 188.0
187.020096 176.0
188.007309 172.0
190.14743 180.0
190.93866 228.0
191.624069 140.0
191.847305 184.0
193.089828 144.0
193.693207 156.0
194.081192 156.0
195.086212 180.0
196.077103 140.0
197.408737 204.0
198.074829 164.0
199.244614 156.0
199.354187 204.0
199.691544 172.0
200.395294 148.0
202.445999 184.0
203.242523 180.0
204.032089 172.0
205.077515 152.0
208.030243 168.0
208.321609 156.0
209.027588 1180.0
209.220795 112.0
209.633591 228.0
210.038025 13956.0
211.04039 2632.0
212.036453 748.0
212.420715 160.0
213.035416 148.0
213.057098 160.0
213.701889 152.0
213.885223 164.0
215.632217 132.0
215.962692 152.0
217.069702 180.0
217.700607 188.0
217.850601 176.0
218.091354 164.0
218.458908 168.0
219.091873 684.0
219.286316 164.0
220.068039 160.0
220.094986 264.0
220.462326 116.0
220.579117 180.0
220.797913 172.0
220.978348 200.0
221.10849 35132.0
221.188461 164.0
221.376587 148.0
221.570969 148.0
222.111206 4300.0
222.310394 140.0
222.377701 164.0
223.114822 292.0
223.679077 124.0
223.855133 164.0
224.122635 272.0
224.525055 188.0
225.050522 208.0
225.576035 144.0
226.067047 216.0
227.064102 168.0
227.145126 160.0
227.604294 164.0
228.046844 452.0
228.394669 156.0
229.052628 348.0
230.662186 160.0
231.264099 216.0
232.361053 224.0
232.807251 140.0
233.375473 164.0
234.293503 188.0
234.925644 168.0
235.346802 164.0
236.056747 296.0
236.8116 180.0
237.884781 156.0
238.051758 312.0
239.258926 164.0
239.865784 156.0
240.36232 172.0
241.793106 188.0
241.941681 152.0
242.64183 184.0
242.998489 152.0
245.113495 156.0
246.113953 288.0
246.93277 204.0
247.124023 8716.0
247.715271 140.0
248.128403 1496.0
249.134277 420.0
250.016724 148.0
250.079666 148.0
250.897522 120.0
251.062164 564.0
251.829529 216.0
251.911652 204.0
252.068695 368.0
252.077454 400.0
252.11702 228.0
252.164429 172.0
252.246597 276.0
252.569122 164.0
252.643295 144.0
252.857559 124.0
252.884781 168.0
252.933014 144.0
252.956955 156.0
253.000412 160.0
253.039154 280.0
253.080582 75116.0
253.169022 120.0
253.262482 216.0
253.604385 108.0
253.81691 172.0
253.848618 140.0
253.919769 112.0
254.047211 136.0
254.082932 11912.0
254.696381 96.0
255.07753 3240.0
255.151611 116.0
255.175842 176.0
255.287811 112.0
255.646835 160.0
255.691391 104.0
255.740524 116.0
255.832504 120.0
255.858017 152.0
256.081604 316.0
259.091766 272.0
259.370544 180.0
263.06665 456.0
264.067871 292.0
264.696045 148.0
268.821106 140.0
272.600037 196.0
273.024109 192.0
274.341156 156.0
274.489502 168.0
275.047058 140.0
276.173767 248.0
277.044342 200.0
277.420715 104.0
278.167389 144.0
278.303284 148.0
278.344452 168.0
278.892853 176.0
278.959106 140.0
279.09552 24160.0
279.178528 140.0
279.208466 152.0
279.991608 136.0
280.046692 116.0
280.099579 2356.0
281.021698 144.0
281.099182 596.0
281.639648 116.0
282.105835 132.0
282.241577 148.0
283.578735 148.0
285.317505 144.0
287.972778 140.0
290.660736 220.0
291.767944 184.0
294.260864 208.0
297.071472 208.0
300.201324 240.0
302.017944 204.0
302.126801 148.0
302.287781 148.0
304.128052 208.0
308.964722 148.0
313.487091 148.0
320.040192 156.0
320.20401 172.0
320.268097 224.0
320.428406 172.0
322.165802 208.0
323.159668 160.0
323.517548 180.0
324.345032 204.0
324.459747 148.0
324.922363 184.0
325.568451 176.0
326.729431 148.0
329.874023 164.0
330.004181 176.0
331.750977 96.0
332.652435 148.0
334.313416 140.0
334.837646 168.0
337.033691 196.0
341.359009 156.0
341.632538 160.0
342.278931 188.0
343.037872 156.0
344.865479 156.0
347.980377 172.0
349.366608 192.0
355.396637 156.0
356.117401 148.0
356.850159 144.0
360.064423 144.0
373.030945 152.0
373.461609 144.0
375.059479 156.0
378.675934 140.0
379.082733 148.0
379.718506 168.0
381.019012 96.0
381.730133 352.0
382.16095 260.0
382.278625 164.0
382.329193 200.0
382.785767 100.0
382.948181 264.0
383.026123 144.0
383.141815 184.0
383.279968 100.0
383.450989 100.0
383.544373 148.0
383.588135 164.0
383.635406 180.0
383.699463 212.0
383.835022 180.0
383.882111 320.0
384.011871 296.0
384.051239 148.0
384.176208 163416.0
384.306122 148.0
384.362 244.0
384.468781 108.0
384.541443 256.0
384.570618 132.0
384.610535 152.0
384.654633 224.0
384.75238 156.0
384.81601 680.0
384.861298 264.0
384.891022 168.0
384.950348 164.0
385.001007 120.0
385.03363 260.0
385.177765 35224.0
385.274994 208.0
385.511444 192.0
385.55014 144.0
385.560394 112.0
385.628296 292.0
385.667511 160.0
385.749786 128.0
385.793091 208.0
385.872711 200.0
385.926056 120.0
385.967316 108.0
386.085144 160.0
386.174652 10176.0
386.25528 296.0
386.356659 172.0
386.440338 104.0
386.657379 128.0
386.703918 124.0
386.920044 168.0
387.066132 104.0
387.133209 116.0
387.176361 1096.0
387.288483 100.0
387.355927 96.0
387.431183 116.0
387.470673 128.0
387.510498 188.0
387.610535 208.0
387.683685 268.0
387.887054 148.0
387.941925 148.0
388.114624 168.0
388.179382 140.0
388.476715 128.0
388.564514 112.0
388.648499 172.0
388.734344 104.0
389.061371 112.0
389.474182 116.0
389.581207 176.0
389.932678 112.0
395.026245 160.0
518.489746 164.0
519.607605 148.0
548.340271 148.0
567.2547 160.0
655.166382 180.0
1095.607666 224.0
1702.470825 152.0
1712.10083 200.0
1749.609985 184.0
1759.497314 268.0
1779.456421 224.0
1797.401123 144.0
1808.522705 180.0
1953.346069 144.0
1977.584473 156.0
2002.016846 180.0
