>compound Oxytetracycline
>formula C22H24N2O9 
>ionization [M+H]+
>parentmass 461.153534
#inchi InChI=1S/C22H24N2O9/c1-21(32)7-5-4-6-8(25)9(7)15(26)10-12(21)17(28)13-14(24(2)3)16(27)11(20(23)31)19(30)22(13,33)18(10)29/h4-6,12-14,17,25-26,28,30,32-33H,1-3H3,(H2,23,31)/t12-,13-,14+,17+,21-,22+/m1/s1
#inchikey OWFJMIVZYSDULZ
#Ion_Source LC-ESI
#Instrument qTof
#Compound_Source Isolated
#PI Sirenas
#Data_Collector Ed Esquenazi 
#Scan -1
#Precursor_MZ 461.155
#ExactMass 0.0
#Charge 1
#CAS_Number N/A
#Pubmed_ID N/A
#Smiles N/A
#INCHI_AUX N/A
#Library_Class 3
#SpectrumID CCMSLIB00000004457
#IonMode Positive
#UpdateWorkflowName UPDATE-SINGLE-ANNOTATED-BRONZE
#LibraryQualityString Bronze
#TaskID d19310cd93df49b68e9fcbec27720eb5
##Scan# 1
#SpectrumFile Oxytetracycline.mgf
#LibraryName fda_library.mgf
#MQScore -1
#Organism fda_library
#TIC_Query 0
#RT_Query -1
#MZErrorPPM -1
#SharedPeaks 0
#MassDiff 0
#LibMZ -1
#SpecMZ 461.155
#SpecCharge 0
#internalFilename spec-00000.mgf

>collision 10
102.053711 202.116898
104.070618 746.720215
104.120171 11.025
340.077728 121.692299
388.136841 57.14959
398.032288 17.30769
443.138794 145.125
443.15744 71.066673
444.124634 158.216293
458.483459 40.084461
461.153534 1773.274048
461.288635 26.140631
461.693115 32.894741
461.963135 36.695511
462.013702 23.032141
462.225189 23.674999
462.314819 32.485291
