>compound MLS001162659-01!
>formula C25H25ClN2O5
>ionization [M+H]+
>parentmass 469.151947
#inchi InChI=1S/C25H25ClN2O5/c1-2-4-16-8-25(31)33-21-10-22(19(26)9-18(16)21)32-14-24(30)27-11-15-7-17(13-27)20-5-3-6-23(29)28(20)12-15/h3,5-6,8-10,15,17H,2,4,7,11-14H2,1H3/t15-,17+/m1/s1
#inchikey BXKMPIOCMMVMBM
#Ion_Source LC-ESI
#Instrument qTof
#Compound_Source NIH Natural Product Library
#PI Dorrestein
#Data_Collector VVP/LMS
#Scan -1
#Precursor_MZ 469.153
#ExactMass 468.145
#Charge 1
#CAS_Number N/A
#Pubmed_ID N/A
#Smiles CCCc1cc(=O)oc2cc(OCC(=O)N3C[C@H]4C[C@@H](C3)c5cccc(=O)n5C4)c(Cl)cc12
#INCHI_AUX N/A
#Library_Class 1
#SpectrumID CCMSLIB00000079568
#IonMode Positive
#UpdateWorkflowName UPDATE-SINGLE-ANNOTATED-GOLD
#LibraryQualityString Gold
#TaskID b1d8e8f6646f4e71acdff9ca3d919d08
##Scan# 2005
#SpectrumFile p1-C08_GC8_01_17904.mzXML
#LibraryName NIH_Natural_Products_Library.mgf
#MQScore -1
#Organism NIH_Natural_Products_Library
#TIC_Query 0
#RT_Query -1
#MZErrorPPM -1
#SharedPeaks 0
#MassDiff 0
#LibMZ -1
#SpecMZ 469.153
#SpecCharge 0
#internalFilename spec-00000.mgf

>collision 10
94.974586 220.0
95.038605 220.0
95.07399 376.0
95.456772 168.0
95.637299 256.0
95.668289 168.0
96.015106 116.0
96.04232 168.0
96.075577 200.0
96.348885 136.0
96.366463 200.0
96.45636 52.0
96.534561 176.0
96.612801 164.0
96.677368 208.0
96.832527 160.0
96.920174 84.0
97.096596 200.0
97.208412 140.0
97.253555 156.0
97.298698 136.0
97.656326 140.0
97.672066 184.0
98.166397 156.0
98.194046 184.0
98.509697 208.0
98.64418 208.0
98.74897 180.0
98.834038 188.0
99.170685 220.0
99.200417 128.0
99.30529 184.0
99.341209 64.0
99.357079 168.0
99.939201 96.0
100.036713 192.0
100.203995 128.0
100.401329 148.0
100.425262 152.0
100.840546 164.0
100.988495 132.0
101.132553 156.0
101.216827 204.0
101.280716 144.0
101.906601 164.0
101.966888 208.0
102.029198 124.0
102.111641 120.0
102.190086 208.0
102.20417 172.0
102.236366 180.0
102.29071 124.0
102.349091 156.0
102.697723 32.0
102.732018 176.0
102.851067 132.0
102.881348 144.0
102.991127 208.0
103.061089 184.0
103.19651 240.0
103.558731 108.0
103.657997 172.0
104.051567 392.0
104.244438 192.0
104.311501 128.0
104.541328 184.0
104.606453 148.0
104.689926 240.0
104.910927 172.0
105.055542 292.0
105.129814 176.0
105.158821 160.0
105.179237 44.0
105.356888 120.0
105.383446 64.0
105.412056 136.0
105.512207 132.0
105.776093 80.0
106.028015 212.0
106.071053 164.0
106.173569 96.0
106.237152 212.0
106.360275 224.0
106.495789 176.0
106.875954 176.0
106.913132 156.0
107.024284 232.0
107.048996 176.0
107.065468 152.0
107.114899 148.0
107.533455 188.0
107.61396 148.0
107.630478 108.0
107.673843 100.0
107.758537 96.0
107.779198 124.0
108.044975 336.0
108.076935 192.0
108.105904 152.0
108.12867 36.0
108.364731 240.0
108.42482 56.0
108.524315 164.0
108.704773 120.0
108.771187 164.0
108.804398 132.0
108.893692 192.0
108.926918 188.0
108.976776 184.0
109.052399 2328.0
109.238724 172.0
109.288651 176.0
109.373978 240.0
109.448921 144.0
109.592636 80.0
109.711433 156.0
109.949211 160.0
110.06208 476.0
110.195602 152.0
110.350266 168.0
110.421356 176.0
110.791847 140.0
110.875656 176.0
111.030739 148.0
111.068481 180.0
111.09581 192.0
111.307793 132.0
111.402298 32.0
111.463226 180.0
111.494751 204.0
111.816513 44.0
112.109238 120.0
112.19355 232.0
112.313744 72.0
112.389687 96.0
112.461433 188.0
112.5121 132.0
113.010872 124.0
113.034142 156.0
113.231018 160.0
113.262787 124.0
113.277611 124.0
113.616791 224.0
113.756851 144.0
114.330711 140.0
114.79937 124.0
114.876152 148.0
114.891083 148.0
114.989235 208.0
115.056404 292.0
115.226257 196.0
115.324554 92.0
115.55336 152.0
115.626114 176.0
115.698883 172.0
115.934494 180.0
116.271179 168.0
116.419312 140.0
116.565384 228.0
116.60836 164.0
116.623405 240.0
116.668549 184.0
116.685745 196.0
116.924507 216.0
117.025673 144.0
117.06028 724.0
117.131195 164.0
117.379036 144.0
117.394135 104.0
117.426483 160.0
117.501976 108.0
117.609871 144.0
118.068321 508.0
118.134949 104.0
118.156578 152.0
118.299408 92.0
118.505142 156.0
118.758774 164.0
118.813004 56.0
118.867241 152.0
119.068161 176.0
119.074921 192.0
119.162529 180.0
119.197296 116.0
119.360321 164.0
119.534332 156.0
119.571327 216.0
119.738968 140.0
119.948128 152.0
120.050598 140.0
120.084274 220.0
120.122574 44.0
120.515533 208.0
120.581085 176.0
121.045197 328.0
121.097755 196.0
121.169701 164.0
121.185036 120.0
121.288033 88.0
121.437126 172.0
121.452484 120.0
121.630211 104.0
121.961876 140.0
122.010239 176.0
122.059898 2216.0
122.087196 144.0
122.114014 144.0
122.13118 36.0
122.21257 136.0
122.384254 44.0
122.472336 92.0
122.542831 108.0
122.730171 112.0
122.882355 152.0
122.939728 112.0
122.999313 112.0
123.016975 192.0
123.068115 1008.0
123.213516 112.0
123.237816 164.0
123.52079 236.0
123.708878 108.0
123.795227 144.0
124.073921 140.0
124.101006 164.0
124.291756 176.0
124.342247 212.0
124.44046 152.0
124.487091 204.0
124.62925 116.0
124.764816 180.0
125.018379 180.0
125.07579 196.0
125.305611 196.0
125.323807 120.0
125.403656 128.0
125.706955 208.0
125.729271 44.0
125.842285 184.0
125.948067 132.0
126.122345 132.0
126.272148 80.0
126.298988 128.0
126.448891 156.0
126.475746 184.0
126.563057 108.0
126.657112 168.0
126.675034 156.0
126.820679 204.0
127.015747 124.0
127.051636 140.0
127.204231 160.0
127.309753 168.0
127.847031 180.0
127.86953 120.0
127.973083 112.0
128.153259 132.0
128.428284 128.0
128.516266 156.0
128.721664 84.0
128.954346 76.0
129.022156 180.0
129.067383 120.0
129.207596 168.0
129.513199 116.0
129.667267 172.0
129.866776 108.0
129.921219 164.0
130.066437 156.0
130.084595 48.0
130.191315 208.0
130.274338 260.0
130.445786 192.0
130.5 116.0
130.543549 152.0
130.58902 184.0
130.649445 200.0
131.085114 588.0
131.110382 116.0
131.171921 40.0
131.236694 212.0
131.381714 124.0
131.559448 108.0
131.614502 72.0
131.639618 84.0
132.044998 1420.0
132.080215 520.0
132.108154 64.0
132.462967 192.0
132.543152 164.0
132.65567 168.0
133.051727 1524.0
133.091202 192.0
133.157928 152.0
133.27739 92.0
133.350922 96.0
133.576859 136.0
133.973526 152.0
133.994263 212.0
134.034393 148.0
134.059845 3544.0
134.161148 96.0
134.230316 76.0
134.251068 92.0
134.37793 168.0
134.636459 124.0
134.696503 204.0
134.909103 120.0
135.001587 92.0
135.065628 728.0
135.557144 184.0
135.654495 124.0
135.876846 68.0
135.997787 108.0
136.027954 232.0
136.071426 220.0
136.188171 68.0
136.999969 152.0
137.177841 204.0
137.419601 124.0
137.549942 240.0
137.558807 204.0
137.858582 168.0
138.040909 156.0
138.288895 152.0
138.387207 156.0
138.405945 184.0
138.912155 164.0
139.029465 184.0
139.099884 52.0
139.292419 160.0
139.330017 36.0
139.732025 112.0
139.833206 204.0
139.87442 152.0
140.033325 172.0
140.068649 104.0
140.311371 152.0
140.382111 148.0
140.469376 120.0
140.504761 144.0
140.660507 124.0
141.060516 316.0
141.310379 168.0
141.412125 168.0
141.859802 140.0
142.069397 124.0
142.248825 172.0
142.317673 104.0
142.498184 164.0
142.521942 56.0
142.621063 196.0
142.809586 80.0
143.061203 144.0
143.07106 108.0
143.075012 240.0
143.249924 156.0
143.471542 164.0
143.597916 212.0
143.729126 104.0
144.040359 196.0
144.079132 512.0
144.099197 212.0
144.120697 168.0
144.20195 164.0
144.228241 140.0
144.35495 144.0
144.517609 136.0
144.54631 48.0
144.612442 184.0
144.792877 172.0
145.008499 124.0
145.05397 572.0
145.090942 220.0
145.197891 156.0
145.214691 92.0
145.277054 56.0
145.469025 156.0
145.563034 172.0
145.595169 164.0
145.661118 132.0
145.713257 160.0
145.76683 204.0
145.787994 144.0
145.824509 144.0
145.944992 168.0
145.98317 144.0
146.060501 16620.0
146.09317 288.0
146.139526 84.0
146.218933 136.0
146.282425 240.0
146.344101 76.0
146.382629 104.0
146.464508 44.0
146.49823 224.0
146.519913 36.0
146.558456 100.0
146.612228 116.0
146.69342 132.0
146.760925 72.0
146.777802 52.0
146.797089 92.0
146.879501 120.0
146.918381 168.0
147.018967 152.0
147.067215 11132.0
147.139709 84.0
147.174408 184.0
147.209732 88.0
147.248367 88.0
147.270111 160.0
147.31279 164.0
147.359482 72.0
147.388474 184.0
147.41098 128.0
147.514145 120.0
147.579422 56.0
147.599503 92.0
147.652359 124.0
147.707596 44.0
147.828568 48.0
147.906006 88.0
147.949387 100.0
148.032532 120.0
148.075516 4100.0
148.121506 152.0
148.179642 116.0
148.264709 116.0
148.322632 80.0
148.431717 116.0
148.472946 168.0
148.567535 156.0
148.589371 52.0
148.611206 56.0
148.849075 60.0
148.921936 140.0
149.073807 1252.0
149.179489 176.0
149.215958 56.0
149.339966 112.0
149.515137 44.0
149.546783 40.0
149.7854 44.0
149.970566 140.0
150.043701 44.0
150.067642 280.0
150.090027 48.0
150.236359 108.0
150.426697 200.0
150.470642 224.0
150.545792 144.0
150.76619 132.0
151.005768 116.0
151.064484 180.0
151.407135 176.0
151.470825 204.0
151.68399 40.0
152.06662 32.0
152.265488 160.0
152.304779 156.0
152.405502 212.0
152.722626 112.0
152.848099 136.0
153.072083 144.0
153.109024 156.0
153.182922 40.0
153.619232 136.0
153.787018 76.0
154.055618 148.0
154.0858 132.0
154.41951 112.0
154.68425 40.0
154.872437 120.0
154.89473 92.0
155.353317 68.0
155.517075 44.0
155.946762 124.0
156.003922 80.0
156.028778 140.0
156.066086 144.0
156.250122 156.0
156.319794 140.0
156.379517 88.0
156.464142 52.0
156.633484 160.0
156.700745 220.0
156.732071 188.0
156.949982 88.0
157.059708 80.0
157.079666 48.0
157.184448 140.0
157.211899 92.0
157.906403 44.0
157.958923 128.0
157.981445 236.0
158.033981 64.0
158.058258 636.0
158.119049 148.0
158.276764 196.0
158.479645 92.0
158.587402 128.0
158.777939 96.0
158.883286 108.0
158.973618 152.0
158.998703 88.0
159.041382 220.0
159.072281 1660.0
159.134262 108.0
159.666962 148.0
159.719788 284.0
159.752487 228.0
159.827957 52.0
160.044418 288.0
160.07486 4220.0
160.137589 132.0
160.189651 60.0
160.240875 92.0
160.389542 116.0
160.697205 72.0
160.757767 44.0
160.871338 128.0
160.979904 28.0
161.020309 116.0
161.079086 1068.0
161.369019 172.0
161.442337 64.0
161.581467 96.0
161.619415 124.0
161.880127 192.0
161.973831 120.0
162.046738 216.0
162.089767 612.0
162.12381 204.0
162.151184 36.0
162.374298 160.0
162.396179 196.0
162.406113 124.0
162.612778 28.0
162.653381 36.0
163.089722 172.0
163.105453 556.0
163.186859 124.0
163.217377 160.0
163.326721 160.0
163.833282 172.0
164.108521 68.0
164.146774 96.0
164.21817 28.0
164.241135 224.0
164.33551 52.0
165.047592 548.0
165.101822 116.0
165.165756 256.0
165.316711 152.0
165.565018 208.0
165.804337 192.0
166.059647 104.0
166.228958 188.0
166.354721 232.0
166.380386 188.0
166.809387 152.0
167.045959 124.0
167.079407 372.0
167.133423 140.0
168.07132 108.0
168.241653 228.0
168.313934 212.0
168.468903 60.0
168.489288 164.0
168.561905 92.0
168.970428 192.0
169.036774 180.0
169.198166 172.0
169.22406 164.0
169.24736 60.0
169.330231 92.0
169.949768 216.0
170.227509 80.0
170.328796 148.0
170.47168 164.0
170.900711 84.0
171.041245 132.0
171.089127 284.0
171.121948 164.0
171.215683 172.0
171.283401 156.0
171.306839 156.0
171.731705 180.0
171.909119 120.0
171.963913 56.0
172.075272 2796.0
172.149277 92.0
172.394821 84.0
172.43663 176.0
172.491531 92.0
172.75824 68.0
172.836731 164.0
172.870758 144.0
173.026947 196.0
173.083298 9956.0
173.131973 188.0
173.200623 36.0
173.284454 64.0
173.32341 156.0
173.363647 160.0
173.391891 68.0
173.425949 128.0
173.493591 100.0
173.528183 108.0
173.593735 68.0
173.64357 128.0
173.756363 72.0
173.816711 96.0
173.934799 232.0
173.989929 36.0
174.045059 168.0
174.087708 2188.0
174.399704 56.0
174.453629 148.0
174.602142 132.0
174.718704 64.0
174.852081 60.0
174.944199 156.0
175.050552 860.0
175.091187 336.0
175.307663 68.0
175.336655 76.0
175.587097 172.0
175.745377 76.0
175.927475 232.0
176.062668 180.0
176.091187 240.0
176.220627 132.0
176.860565 192.0
176.929398 36.0
176.971756 192.0
177.037949 28.0
177.104156 132.0
177.183624 124.0
177.310822 280.0
177.427444 104.0
177.697952 120.0
177.817368 156.0
177.910263 128.0
178.000534 124.0
178.09082 220.0
178.130676 160.0
179.136169 168.0
179.330673 92.0
179.426636 136.0
179.744034 120.0
181.006317 652.0
181.718628 68.0
181.819901 76.0
181.861771 176.0
181.999237 176.0
182.040726 104.0
182.882202 208.0
182.923874 140.0
183.003342 156.0
183.024872 124.0
183.283447 208.0
183.577271 48.0
183.91037 196.0
184.046768 176.0
184.652084 164.0
185.637833 112.0
185.667664 208.0
185.689362 60.0
185.732758 232.0
185.868393 180.0
185.968811 112.0
186.088242 176.0
186.444077 204.0
186.588135 156.0
186.979019 148.0
187.047867 80.0
187.077133 144.0
187.097061 308.0
187.521805 124.0
187.647186 132.0
187.900818 152.0
188.020889 172.0
188.072372 892.0
188.364899 204.0
188.515167 164.0
188.599884 188.0
188.633514 128.0
188.748718 172.0
188.778442 240.0
188.813141 136.0
188.856415 160.0
188.893158 156.0
188.944427 176.0
188.985474 180.0
189.008163 192.0
189.102951 68376.0
189.171249 68.0
189.219604 44.0
189.248993 164.0
189.274124 156.0
189.29628 160.0
189.342529 172.0
189.372757 160.0
189.433899 80.0
189.500015 184.0
189.504196 112.0
189.552582 124.0
189.594269 48.0
189.605972 80.0
189.654831 28.0
189.69751 40.0
189.771118 172.0
189.776016 44.0
189.835968 88.0
189.884369 164.0
189.938812 32.0
189.990936 144.0
190.025909 60.0
190.072113 1360.0
190.106583 9736.0
190.17421 76.0
190.204971 40.0
190.236969 68.0
190.342239 44.0
190.405396 40.0
190.473297 72.0
190.520767 48.0
190.572739 48.0
190.685623 52.0
190.79007 48.0
190.952301 184.0
191.010986 72.0
191.082138 1252.0
191.117828 5636.0
191.177887 124.0
191.2043 128.0
191.223221 76.0
191.243942 76.0
191.311996 116.0
191.3284 76.0
191.367813 56.0
191.425018 136.0
191.443283 128.0
191.503204 144.0
191.54245 144.0
191.594971 128.0
191.623962 92.0
191.67746 128.0
191.96022 48.0
191.998825 64.0
192.084229 156.0
192.119888 244.0
192.15329 148.0
192.175369 52.0
192.211243 68.0
192.382355 56.0
192.665253 172.0
192.716522 52.0
193.039917 124.0
193.122177 188.0
193.161606 132.0
193.180969 112.0
193.205872 64.0
193.407867 112.0
193.90918 44.0
195.017975 304.0
195.05307 316.0
195.272354 260.0
195.519958 180.0
196.053848 160.0
196.085297 112.0
196.757538 120.0
196.999802 180.0
197.05661 400.0
197.4505 124.0
197.976608 100.0
198.220322 136.0
198.251144 96.0
198.424927 60.0
199.081497 104.0
199.702591 68.0
201.054016 116.0
201.105698 100.0
201.246841 92.0
201.81192 132.0
202.16069 92.0
202.491058 60.0
202.612854 88.0
203.015335 76.0
203.071762 152.0
203.118134 792.0
203.216736 84.0
203.281982 52.0
203.318878 56.0
203.438095 40.0
203.767517 140.0
204.000549 68.0
204.040344 76.0
204.063095 132.0
204.087112 160.0
204.122879 148.0
204.193893 172.0
205.045135 148.0
205.085037 104.0
205.325958 20.0
205.569855 128.0
205.709702 144.0
206.063828 76.0
207.067856 188.0
208.033737 120.0
208.703522 160.0
209.048126 204.0
209.938812 164.0
210.002258 288.0
210.057068 196.0
211.333969 72.0
211.39473 128.0
211.426559 116.0
211.802948 120.0
211.96228 156.0
213.090942 164.0
214.11055 356.0
214.304184 200.0
215.070999 168.0
215.110703 172.0
215.628983 160.0
216.078323 592.0
216.187546 60.0
216.837677 56.0
217.096359 964.0
217.160187 148.0
217.218842 80.0
217.391937 100.0
217.444763 52.0
217.755966 56.0
218.055649 140.0
218.100449 396.0
218.549667 64.0
218.593796 132.0
218.749786 56.0
219.713409 104.0
219.999664 28.0
220.043945 36.0
221.038193 504.0
222.028336 156.0
222.471512 148.0
223.049057 604.0
223.324295 188.0
223.6129 128.0
224.04892 152.0
224.49173 136.0
225.015549 192.0
225.052231 152.0
225.539627 136.0
226.898666 56.0
226.955627 200.0
227.060577 140.0
227.711838 160.0
228.670898 84.0
229.273224 208.0
229.716431 236.0
230.000076 148.0
230.178192 120.0
230.477234 68.0
230.800644 160.0
230.84903 204.0
230.936722 156.0
231.075409 132.0
231.110992 2104.0
232.054123 136.0
232.120972 2100.0
232.372574 212.0
232.71553 72.0
232.961517 160.0
233.120911 264.0
233.439651 112.0
233.493423 80.0
233.62117 84.0
234.126419 136.0
234.540771 156.0
234.561127 112.0
234.650513 96.0
234.903625 112.0
235.055237 256.0
235.117203 124.0
236.220184 92.0
236.244659 48.0
236.431702 120.0
236.703735 132.0
236.936508 52.0
236.998154 164.0
237.037613 136.0
237.328812 184.0
238.034531 192.0
238.102081 176.0
238.34169 40.0
239.054123 52.0
243.059784 292.0
243.50058 44.0
244.112793 128.0
244.433182 100.0
244.869003 148.0
245.507874 216.0
245.907211 60.0
246.178802 52.0
246.638062 100.0
246.82251 200.0
247.855438 168.0
247.905563 92.0
248.382111 140.0
249.034973 132.0
250.412537 100.0
250.664566 96.0
250.828445 132.0
250.992371 176.0
251.04425 1160.0
251.238373 248.0
251.333023 104.0
251.50029 44.0
252.056549 672.0
252.416443 160.0
252.701111 68.0
253.042557 932.0
253.236069 116.0
254.042755 152.0
255.655212 104.0
256.12323 124.0
256.527893 216.0
257.006256 48.0
258.11142 148.0
258.748108 96.0
259.011139 124.0
260.357758 212.0
261.161224 92.0
261.631012 188.0
262.194672 72.0
263.294769 76.0
264.076874 120.0
264.105804 308.0
264.364807 112.0
264.516937 88.0
264.610809 84.0
265.073975 144.0
265.310577 52.0
265.433777 52.0
266.134644 184.0
266.670624 104.0
267.334076 52.0
268.017853 120.0
269.286835 160.0
270.108948 176.0
271.10907 152.0
271.286072 72.0
271.489349 120.0
272.835541 60.0
274.795074 72.0
275.204346 128.0
275.567627 144.0
276.079987 176.0
276.19574 100.0
277.331421 108.0
277.646362 120.0
277.805573 92.0
277.85202 168.0
278.087616 156.0
278.614044 112.0
279.044891 552.0
280.042572 120.0
281.991028 104.0
282.042542 136.0
283.131836 48.0
283.885468 172.0
284.154175 176.0
285.844238 48.0
286.25827 140.0
286.470459 20.0
286.834381 128.0
288.204529 172.0
289.049835 224.0
290.069244 136.0
290.774719 116.0
291.498047 148.0
292.263092 132.0
293.516571 96.0
293.857635 180.0
294.080475 288.0
294.33548 200.0
294.395264 180.0
294.803436 192.0
295.600189 116.0
296.045197 160.0
296.09314 136.0
297.317047 76.0
297.601929 132.0
299.448547 180.0
300.537842 184.0
301.715546 148.0
302.611603 140.0
302.86441 72.0
303.138092 84.0
303.193542 40.0
303.262848 48.0
303.321777 204.0
304.084839 196.0
305.03653 152.0
305.085175 200.0
305.878296 200.0
306.091187 228.0
307.143158 200.0
307.938934 132.0
308.092621 172.0
309.999481 184.0
310.027496 108.0
310.06955 124.0
310.697205 56.0
311.104279 88.0
312.587433 72.0
314.0177 136.0
314.656403 68.0
316.817169 84.0
317.019135 84.0
317.714081 212.0
318.615784 144.0
319.611298 120.0
321.350006 100.0
323.268768 96.0
323.805725 100.0
324.092316 120.0
324.307343 172.0
324.981506 140.0
325.28653 136.0
325.897064 80.0
326.0336 120.0
326.7995 48.0
328.233032 60.0
330.085419 140.0
331.373932 136.0
331.652985 136.0
331.939362 156.0
332.940918 48.0
333.645813 168.0
334.005829 92.0
336.673676 144.0
336.768616 96.0
337.236298 80.0
338.037201 116.0
340.32074 84.0
342.096436 112.0
342.578827 104.0
342.659882 96.0
343.839813 96.0
344.570923 36.0
344.652222 180.0
344.833282 100.0
346.628113 88.0
346.765228 40.0
347.326263 112.0
347.395538 76.0
348.041321 96.0
349.126343 68.0
349.230499 188.0
349.431366 136.0
349.777435 156.0
350.809265 124.0
352.899902 140.0
354.423248 196.0
355.65329 68.0
356.663666 100.0
357.111084 124.0
358.112213 124.0
360.096039 228.0
360.598541 136.0
361.6651 44.0
361.896027 144.0
363.154144 184.0
363.61319 104.0
363.871307 216.0
364.501801 228.0
365.007355 108.0
366.411804 112.0
366.781433 84.0
368.999329 100.0
369.875366 124.0
370.829071 48.0
371.135742 172.0
371.856903 172.0
374.090088 196.0
374.205597 128.0
375.550446 176.0
375.909241 44.0
377.732788 92.0
378.11969 144.0
379.180847 52.0
379.281616 108.0
379.413422 56.0
379.456055 64.0
379.66156 76.0
379.832214 144.0
381.439758 144.0
381.579712 104.0
384.540161 216.0
385.938629 216.0
386.251495 48.0
387.273071 184.0
390.684143 128.0
391.715485 116.0
394.817719 128.0
395.070862 128.0
397.186127 160.0
397.263672 204.0
398.48822 192.0
398.694824 156.0
399.02475 104.0
399.255371 112.0
399.893372 120.0
400.86792 240.0
401.015045 164.0
401.058899 36.0
401.549286 160.0
401.748718 208.0
402.155731 176.0
402.323364 132.0
402.43515 108.0
404.62207 128.0
405.343018 40.0
406.152832 140.0
406.204987 188.0
407.569946 112.0
407.630219 164.0
408.659576 120.0
413.056793 120.0
413.449249 108.0
416.1651 116.0
419.113922 172.0
421.791046 140.0
422.048615 60.0
423.132812 156.0
423.554596 196.0
425.274628 136.0
425.338257 112.0
426.115204 220.0
427.133881 96.0
428.109283 56.0
433.172516 160.0
435.408386 156.0
436.800751 124.0
438.012024 76.0
439.008118 116.0
439.575409 188.0
440.038727 212.0
440.594177 96.0
441.108154 104.0
441.166687 80.0
441.873444 136.0
442.124512 168.0
443.160217 152.0
445.587952 84.0
446.437012 100.0
448.01535 152.0
448.141754 96.0
448.462006 120.0
449.735779 132.0
449.938385 96.0
451.136536 144.0
452.144806 116.0
452.343719 176.0
452.966187 180.0
453.127167 136.0
453.606018 144.0
454.297211 96.0
455.999878 224.0
456.114655 136.0
458.01236 160.0
458.574768 44.0
459.926819 96.0
460.610016 192.0
461.554474 120.0
461.721252 188.0
462.208923 156.0
463.70343 120.0
464.766907 48.0
464.865601 136.0
465.170319 48.0
465.247589 68.0
465.350647 100.0
465.434204 216.0
465.513794 100.0
465.792969 64.0
465.887451 144.0
465.973389 104.0
466.299957 112.0
466.373016 180.0
466.523468 96.0
466.618042 124.0
466.721222 164.0
466.940552 132.0
466.983551 44.0
467.116882 144.0
467.21582 52.0
467.293274 116.0
467.470245 132.0
467.568665 152.0
467.773895 140.0
467.891266 164.0
468.06369 80.0
468.287628 128.0
468.353546 132.0
468.45993 68.0
468.533722 148.0
468.658081 32.0
468.731354 200.0
468.774445 116.0
468.821838 320.0
468.929565 176.0
468.988129 96.0
469.03302 168.0
469.151947 30652.0
469.267548 164.0
469.336945 64.0
469.395386 112.0
469.477081 172.0
469.506012 96.0
469.578033 128.0
469.655121 92.0
469.694977 84.0
469.760071 248.0
469.811798 80.0
469.860962 56.0
469.940979 44.0
469.953278 76.0
470.012054 148.0
470.073822 228.0
470.156311 11344.0
470.29895 96.0
470.334656 68.0
470.369019 104.0
470.400391 48.0
470.456512 40.0
470.53421 88.0
470.630737 96.0
470.755402 52.0
470.840668 92.0
470.920258 80.0
470.9617 76.0
471.026489 84.0
471.076691 52.0
471.149902 12152.0
471.233856 44.0
471.283844 92.0
471.341888 56.0
471.398041 88.0
471.431427 72.0
471.448242 52.0
471.528687 80.0
471.588196 128.0
471.674652 28.0
471.765411 112.0
471.890808 84.0
471.972931 56.0
472.149109 2176.0
472.243683 140.0
472.277222 100.0
472.349182 56.0
472.440033 40.0
472.500427 100.0
472.548187 60.0
472.578461 96.0
472.695312 104.0
472.725586 68.0
472.764526 124.0
472.833771 180.0
472.899902 144.0
472.95459 96.0
473.004211 128.0
473.084808 128.0
473.153381 216.0
473.214691 140.0
473.26593 72.0
473.322937 44.0
473.41922 68.0
473.430054 92.0
473.445587 136.0
473.553375 76.0
473.795013 100.0
474.072327 112.0
474.137329 60.0
474.267365 100.0
474.330841 68.0
474.553467 72.0
474.609833 148.0
474.644501 96.0
474.800629 84.0
475.056519 132.0
475.399292 44.0
475.477386 56.0
475.677063 108.0
475.729126 112.0
476.258881 84.0
477.175781 68.0
477.393188 76.0
479.256195 44.0
479.800964 60.0
480.206512 72.0
481.105377 76.0
481.900208 20.0
483.496216 40.0
486.029022 124.0
490.876343 76.0
493.80423 104.0
495.140778 80.0
497.668335 124.0
499.494812 60.0
506.390778 64.0
507.703888 64.0
509.692444 92.0
515.04895 48.0
521.237427 100.0
523.548279 96.0
555.939209 108.0
562.452881 152.0
566.315796 92.0
572.246887 60.0
582.403992 84.0
584.13916 56.0
587.178406 136.0
595.05603 72.0
602.194702 76.0
615.804382 84.0
623.036255 52.0
634.665039 100.0
636.581848 80.0
639.175537 64.0
643.348633 108.0
655.128906 100.0
656.020691 84.0
663.750916 68.0
666.363464 96.0
666.697449 28.0
668.785461 128.0
671.062378 96.0
684.539429 48.0
691.482544 112.0
692.629211 40.0
695.513062 64.0
701.26709 76.0
741.428589 96.0
743.901855 160.0
749.258362 76.0
756.80072 40.0
759.217224 124.0
759.842529 88.0
761.121338 124.0
773.005554 56.0
775.924438 96.0
783.68866 60.0
796.696167 204.0
796.904053 28.0
807.512939 80.0
811.488037 156.0
813.89093 20.0
821.297546 124.0
840.377686 132.0
869.291321 68.0
915.58606 100.0
915.652283 64.0
918.690125 160.0
923.87323 72.0
924.393555 168.0
928.276428 96.0
936.894836 156.0
944.690369 60.0
944.965698 160.0
956.010315 112.0
956.989014 112.0
959.182129 100.0
968.989258 160.0
974.852722 40.0
977.041321 160.0
980.684082 256.0
981.494446 44.0
988.56543 224.0
1012.284851 192.0
1022.040955 96.0
1031.019287 228.0
1033.986694 52.0
1043.216431 96.0
1049.422607 88.0
1054.30896 64.0
1054.554443 204.0
1071.894653 76.0
1075.9646 116.0
1081.75647 200.0
1084.271606 80.0
1095.638916 176.0
1120.54248 200.0
1128.397705 196.0
1135.529053 60.0
1150.750244 196.0
1150.919067 156.0
1156.841431 44.0
1167.983276 232.0
1168.949341 148.0
1169.800171 136.0
1177.600464 152.0
1181.961914 172.0
1196.643188 140.0
1197.682983 140.0
1198.034302 216.0
1202.040039 160.0
1208.431274 200.0
1217.789429 156.0
1223.693115 72.0
1224.800415 156.0
1229.046021 156.0
1243.370117 64.0
1256.30957 160.0
1256.591797 156.0
1261.535278 76.0
1265.815674 148.0
1269.429443 148.0
1272.466309 188.0
1272.665039 36.0
1273.922119 180.0
1281.919067 156.0
1284.121948 76.0
1288.719116 168.0
1289.162109 156.0
1289.805298 96.0
1291.864624 160.0
1295.909546 148.0
1303.860107 136.0
1304.197998 116.0
1306.362305 144.0
1312.786743 128.0
1314.741699 200.0
1320.195801 120.0
1323.922729 220.0
1325.04541 192.0
1327.219727 136.0
1331.740723 156.0
1345.291504 172.0
1346.605835 184.0
1350.399048 160.0
1352.206177 140.0
1354.160889 108.0
1358.580811 160.0
1363.250488 184.0
1363.551758 68.0
1365.073486 88.0
1368.281372 60.0
1369.754272 112.0
1370.358276 148.0
1372.731689 136.0
1373.756836 128.0
1374.494629 36.0
1379.376221 196.0
1380.233887 136.0
1381.417114 88.0
1389.039429 168.0
1390.812866 224.0
1392.193726 172.0
1392.290283 224.0
1392.832397 84.0
1392.891846 148.0
1393.909668 112.0
1396.764526 88.0
1401.476807 28.0
1401.700439 144.0
1402.527588 172.0
1404.152954 196.0
1405.115234 144.0
1406.167358 112.0
1411.329102 124.0
1411.840454 136.0
1415.167358 140.0
1416.657715 232.0
1418.073853 200.0
1419.168335 48.0
1422.056396 184.0
1426.375244 112.0
1428.939575 140.0
1435.228516 188.0
1436.080566 124.0
1437.476318 76.0
1437.597046 168.0
1437.717773 72.0
1438.842407 176.0
1440.292236 160.0
1440.994751 48.0
1442.69519 208.0
1443.814209 192.0
1444.69165 204.0
1445.024414 120.0
1445.675171 140.0
1446.643921 164.0
1447.590332 156.0
1448.779419 40.0
1451.212158 76.0
1452.213135 80.0
1452.668335 116.0
1453.897461 184.0
1456.136963 96.0
1458.028687 160.0
1463.299927 164.0
1463.771973 92.0
1463.922607 212.0
1465.782959 72.0
1465.889648 112.0
1467.162476 56.0
1468.984985 160.0
1470.488159 148.0
1470.587402 132.0
1473.712646 176.0
1474.581787 196.0
1475.369019 48.0
1476.370728 236.0
1477.043701 156.0
1477.112549 164.0
1477.854614 152.0
1482.770752 136.0
1484.610596 56.0
1488.347534 188.0
1488.777588 172.0
1490.198608 212.0
1493.911743 124.0
1494.519531 112.0
1494.596436 228.0
1497.591064 88.0
1497.775879 72.0
1498.430664 200.0
1498.584839 144.0
1501.591064 184.0
