>compound Adenosine, N-(2-hydroxycyclopentyl)-, (1S-trans)- [CAS]
>formula C15H21N5O5
>ionization [M+H]+
>parentmass 352.162933
#inchi InChI=1S/C15H21N5O5/c21-4-9-11(23)12(24)15(25-9)20-6-18-10-13(16-5-17-14(10)20)19-7-2-1-3-8(7)22/h5-9,11-12,15,21-24H,1-4H2,(H,16,17,19)/t7-,8-,9+,11?,12-,15+/m0/s1
#inchikey GYWXTRVEUURNEW
#Ion_Source LC-ESI
#Instrument qTof
#Compound_Source Commercial
#PI Dorrestein
#Data_Collector Garg_Neha
#Scan -1
#Precursor_MZ 352.162
#ExactMass 351.154
#Charge 1
#CAS_Number N/A
#Pubmed_ID N/A
#Smiles OC[C@H]1O[C@H]([C@@H](O)C1O)n2cnc3c(N[C@H]4CCC[C@@H]4O)ncnc23
#INCHI_AUX N/A
#Library_Class 1
#SpectrumID CCMSLIB00000079245
#IonMode Positive
#UpdateWorkflowName UPDATE-SINGLE-ANNOTATED-GOLD
#LibraryQualityString Gold
#TaskID 278b19f5865741e282cec7349aa7e7a1
##Scan# 985
#SpectrumFile NCP003672_E27F27G26H26_BE5_01_15741.mzXML
#LibraryName NIHcollectionI_05062014.mgf
#MQScore -1
#Organism NIHcollectionI_05062014
#TIC_Query 0
#RT_Query -1
#MZErrorPPM -1
#SharedPeaks 0
#MassDiff 0
#LibMZ -1
#SpecMZ 352.162
#SpecCharge 0
#internalFilename spec-00000.mgf

>collision 10
45.224457 148.0
45.403992 184.0
47.49556 140.0
47.826706 184.0
49.29826 184.0
50.0769 156.0
50.718376 160.0
51.137386 208.0
52.255013 180.0
53.477829 240.0
57.386326 160.0
57.505501 172.0
58.919243 140.0
59.697891 140.0
60.090675 176.0
60.231159 200.0
60.360981 144.0
61.840488 204.0
62.37064 188.0
62.501175 140.0
65.135643 192.0
66.797401 160.0
68.415863 200.0
70.155357 172.0
70.452408 208.0
73.109848 168.0
74.436409 168.0
77.107826 144.0
78.072067 204.0
81.106438 172.0
83.910355 168.0
84.782257 176.0
86.70816 144.0
88.384171 208.0
88.878838 156.0
89.453873 124.0
89.896851 144.0
91.963631 196.0
93.262253 208.0
97.257881 156.0
97.4189 172.0
100.70517 180.0
101.820747 172.0
102.496666 192.0
103.934334 160.0
104.572441 244.0
104.802551 172.0
105.377922 144.0
105.647789 148.0
107.109695 176.0
107.713753 148.0
107.881134 192.0
108.166603 192.0
109.052284 208.0
109.164551 148.0
109.628769 192.0
109.908195 152.0
110.183792 144.0
111.479195 152.0
112.244926 144.0
113.405556 176.0
113.55397 180.0
114.361336 184.0
116.512558 148.0
118.755379 160.0
119.033028 196.0
119.130898 156.0
119.402596 152.0
121.052429 168.0
124.184135 152.0
125.380257 168.0
126.445557 200.0
126.927193 168.0
130.165298 228.0
131.371567 228.0
132.111725 204.0
132.466553 176.0
132.594864 148.0
132.980164 152.0
133.52919 120.0
133.559174 176.0
133.715622 140.0
134.787964 180.0
136.062042 9888.0
136.11525 156.0
136.812744 164.0
137.063049 412.0
137.213455 164.0
137.248428 160.0
138.28331 184.0
141.037582 152.0
141.243301 180.0
141.603058 196.0
144.653229 148.0
146.519165 192.0
147.985168 164.0
148.061066 288.0
148.399475 160.0
150.755737 196.0
151.073593 200.0
153.450897 160.0
154.815155 176.0
159.583466 164.0
160.057892 628.0
160.946579 180.0
161.080429 200.0
163.725861 176.0
164.036697 168.0
164.587769 172.0
165.449387 208.0
166.626419 168.0
166.81929 140.0
167.148483 192.0
167.895538 180.0
167.967758 180.0
173.073029 168.0
173.409973 160.0
173.62233 164.0
173.774475 180.0
174.071945 312.0
174.712387 196.0
174.917648 144.0
175.09668 168.0
176.040802 144.0
176.426559 188.0
176.624878 152.0
177.787994 196.0
179.357178 200.0
181.147507 140.0
181.780243 176.0
182.33345 172.0
185.080917 256.0
185.15271 180.0
187.083115 140.0
187.592667 240.0
188.171036 164.0
191.037643 184.0
195.545166 168.0
195.971222 144.0
199.764709 156.0
200.060196 164.0
200.091949 156.0
200.127762 144.0
201.104218 136.0
201.27356 120.0
201.535202 152.0
201.641495 164.0
201.90834 204.0
202.018661 160.0
202.109543 39108.0
202.307358 120.0
202.364975 108.0
202.425217 96.0
202.740067 144.0
202.828415 104.0
203.111267 4124.0
203.975296 140.0
204.114746 148.0
204.656494 108.0
207.051056 188.0
210.704163 152.0
211.340225 140.0
211.954071 140.0
212.113464 192.0
212.16275 168.0
215.594467 200.0
218.403183 168.0
218.600571 136.0
218.865219 148.0
219.501144 176.0
219.721008 112.0
219.755356 168.0
219.811905 144.0
219.871292 220.0
219.920609 164.0
220.019272 216.0
220.048065 180.0
220.12001 78500.0
220.231873 132.0
220.370193 116.0
220.475967 280.0
220.608902 240.0
220.649338 192.0
220.750168 192.0
220.87204 140.0
220.90271 140.0
221.025009 136.0
221.122742 7912.0
221.201004 184.0
222.003403 140.0
222.127838 432.0
222.399765 112.0
222.719513 112.0
222.798874 120.0
223.583847 152.0
224.315308 172.0
230.896301 128.0
233.53389 144.0
240.592621 96.0
245.281448 228.0
248.898041 168.0
249.221558 180.0
249.778015 200.0
257.014069 260.0
262.125305 156.0
262.486328 144.0
265.938202 188.0
273.182587 164.0
273.952881 152.0
274.13739 188.0
280.071136 168.0
285.600677 140.0
293.982666 208.0
296.657349 216.0
297.298737 160.0
302.070679 236.0
306.047882 148.0
308.322266 176.0
309.182556 188.0
312.523224 144.0
314.680237 192.0
318.14267 156.0
318.532104 180.0
327.162323 228.0
327.189392 180.0
329.914886 152.0
331.369751 168.0
334.143524 156.0
344.500397 244.0
346.257324 212.0
346.40918 172.0
347.918488 140.0
348.520172 204.0
349.182251 112.0
349.981934 216.0
350.192047 132.0
350.525085 112.0
350.909393 104.0
351.017792 196.0
351.125946 196.0
351.213989 156.0
351.287079 180.0
351.41391 184.0
351.443573 392.0
351.51767 156.0
351.751526 96.0
351.777039 160.0
351.824341 140.0
351.979279 180.0
352.037201 132.0
352.162933 110080.0
352.297546 264.0
352.720825 144.0
352.778198 392.0
352.842804 108.0
352.907288 116.0
353.059906 156.0
353.165466 11320.0
353.45932 124.0
353.500336 104.0
353.838776 144.0
354.08252 208.0
354.118286 124.0
354.166107 2196.0
354.231232 112.0
354.433319 184.0
354.516571 104.0
354.613098 116.0
355.022217 152.0
355.052826 280.0
355.106384 144.0
355.170532 340.0
355.277863 156.0
355.420197 204.0
355.605804 104.0
355.805145 128.0
356.199188 160.0
356.637482 108.0
369.064423 152.0
372.287018 152.0
380.872772 144.0
381.77832 148.0
452.049133 148.0
510.135742 156.0
598.887817 168.0
627.670349 156.0
955.051758 140.0
988.911499 144.0
1192.260864 144.0
1242.07251 180.0
1522.944458 148.0
1646.253784 140.0
1670.187012 144.0
1855.623657 144.0
1962.815186 144.0
1985.852539 156.0
