>compound MLS002153518-01!N-[2-(4-(4-Chlorophenyl)piperazin-1-yl)ethyl]-3-methoxybenzamide
>formula C20H24ClN3O2
>ionization [M+H]+
>parentmass 374.163483
#inchi InChI=1S/C20H24ClN3O2/c1-26-19-4-2-3-16(15-19)20(25)22-9-10-23-11-13-24(14-12-23)18-7-5-17(21)6-8-18/h2-8,15H,9-14H2,1H3,(H,22,25)
#inchikey DQVARXSGNFBPMB
#Ion_Source LC-ESI
#Instrument qTof
#Compound_Source NIH Pharmacologically Active Library
#PI Dorrestein
#Data_Collector VP/LMS
#Scan -1
#Precursor_MZ 374.166
#ExactMass 373.156
#Charge 1
#CAS_Number N/A
#Pubmed_ID N/A
#Smiles COc1cccc(c1)C(=O)NCCN2CCN(CC2)c3ccc(Cl)cc3
#INCHI_AUX N/A
#Library_Class 1
#SpectrumID CCMSLIB00000085995
#IonMode Positive
#UpdateWorkflowName UPDATE-SINGLE-ANNOTATED-GOLD
#LibraryQualityString Gold
#TaskID d252d724072548979f1f6f1ced849daf
##Scan# 1677
#SpectrumFile p5-A03_GA3_01_18432.mzXML
#LibraryName Pharm_Active_Library.mgf
#MQScore -1
#Organism Pharm_Active_Library
#TIC_Query 0
#RT_Query -1
#MZErrorPPM -1
#SharedPeaks 0
#MassDiff 0
#LibMZ -1
#SpecMZ 374.166
#SpecCharge 0
#internalFilename spec-00000.mgf

>collision 10
44.898949 248.0
44.92115 248.0
44.946621 144.0
44.99374 140.0
45.041512 172.0
45.067596 184.0
45.099667 84.0
45.142448 216.0
45.165184 140.0
45.177151 220.0
45.196991 388.0
45.206661 152.0
45.248154 160.0
45.273594 160.0
45.286678 188.0
45.304401 116.0
45.328518 124.0
45.418343 140.0
45.437122 64.0
45.506912 124.0
45.525711 40.0
45.545856 168.0
45.566006 184.0
45.575413 344.0
45.602394 156.0
45.61573 100.0
45.637241 100.0
45.665314 160.0
45.700455 192.0
45.71526 172.0
45.738869 172.0
45.752136 220.0
45.774487 108.0
45.796307 140.0
45.810349 224.0
45.821629 56.0
45.833256 216.0
45.848042 120.0
45.874187 120.0
45.891697 204.0
45.895134 112.0
45.900375 168.0
45.917408 220.0
45.945663 152.0
45.980015 236.0
46.027706 188.0
46.047165 184.0
46.061756 288.0
46.075268 128.0
46.102291 168.0
46.133896 244.0
46.149601 112.0
46.213753 196.0
46.264599 104.0
46.29845 288.0
46.34433 184.0
46.373516 180.0
46.401428 140.0
46.492413 160.0
46.501198 80.0
46.510895 196.0
46.547112 108.0
46.564648 112.0
46.588715 104.0
46.638836 176.0
46.653069 168.0
46.692017 132.0
46.701538 88.0
46.772137 176.0
46.787266 220.0
46.798157 196.0
46.84446 148.0
46.862171 68.0
46.871708 212.0
46.898964 100.0
46.91116 148.0
46.937279 232.0
46.963047 188.0
46.989475 376.0
47.007435 124.0
47.027439 104.0
47.054478 80.0
47.076324 160.0
47.092129 168.0
47.133698 148.0
47.16103 228.0
47.180164 140.0
47.203053 168.0
47.232128 184.0
47.255272 240.0
47.273712 284.0
47.2948 180.0
47.302906 116.0
47.325188 116.0
47.338539 144.0
47.350346 172.0
47.448982 116.0
47.485519 184.0
47.507465 132.0
47.51778 216.0
47.554119 128.0
47.581573 112.0
47.598824 220.0
47.653694 164.0
47.67635 96.0
47.705215 164.0
47.749214 280.0
47.764584 184.0
47.795986 128.0
47.813877 228.0
47.833267 184.0
47.847073 136.0
47.859303 208.0
47.895107 136.0
47.932941 208.0
47.948845 148.0
47.966763 196.0
47.979168 48.0
47.989277 144.0
48.002609 168.0
48.035789 204.0
48.048122 124.0
48.060539 184.0
48.12405 148.0
48.144592 188.0
48.164082 160.0
48.184803 160.0
48.201382 152.0
48.251141 132.0
48.264965 140.0
48.273975 140.0
48.295391 120.0
48.312023 164.0
48.34243 280.0
48.381184 188.0
48.399899 132.0
48.444889 200.0
48.474564 124.0
48.479656 172.0
48.486019 140.0
48.505859 132.0
48.532036 136.0
48.53442 120.0
48.539719 208.0
48.561321 100.0
48.583088 156.0
48.597389 160.0
48.612465 176.0
48.645248 132.0
48.669563 160.0
48.702896 192.0
48.77927 116.0
48.794609 60.0
48.858063 192.0
48.868324 320.0
48.877327 264.0
48.897545 144.0
48.939308 144.0
48.949055 204.0
49.008949 148.0
49.044186 112.0
49.083313 148.0
49.106533 116.0
49.130245 192.0
49.153965 184.0
49.181873 156.0
49.208397 156.0
49.24527 172.0
49.25914 216.0
49.301987 152.0
49.321159 204.0
49.349335 156.0
49.353378 136.0
49.39706 212.0
49.425224 124.0
49.441196 152.0
49.45303 180.0
49.468967 156.0
49.506233 212.0
49.523037 48.0
49.538445 148.0
49.553856 52.0
49.568825 176.0
49.579079 164.0
49.6134 140.0
49.643566 340.0
49.67654 172.0
49.689854 148.0
49.708092 28.0
49.727741 332.0
49.741776 148.0
49.7771 176.0
49.789902 116.0
49.816059 40.0
49.820065 32.0
49.829391 164.0
49.85741 332.0
49.869595 112.0
49.889275 188.0
49.935539 124.0
49.970844 164.0
49.98632 144.0
50.006023 296.0
50.084324 392.0
50.114422 172.0
50.129494 196.0
50.153915 188.0
50.192352 212.0
50.208145 148.0
50.23288 208.0
50.246986 172.0
50.26815 140.0
50.280849 124.0
50.296375 112.0
50.309082 88.0
50.318962 152.0
50.344379 120.0
50.359917 124.0
50.408951 152.0
50.464489 204.0
50.510418 196.0
50.523888 248.0
50.547939 180.0
50.560677 132.0
50.576244 164.0
50.589638 200.0
50.632877 192.0
50.660748 136.0
50.676628 104.0
50.709805 148.0
50.777439 212.0
50.793041 128.0
50.806366 160.0
50.919361 192.0
50.950611 184.0
50.967327 68.0
50.984715 92.0
50.996082 124.0
51.009888 180.0
51.037308 240.0
51.061485 140.0
51.097046 152.0
51.120346 320.0
51.142582 192.0
51.165359 152.0
51.18676 128.0
51.221268 168.0
51.245113 172.0
51.293568 104.0
51.335999 184.0
51.386265 176.0
51.396252 156.0
51.410229 176.0
51.423122 236.0
51.434784 48.0
51.449059 104.0
51.478741 132.0
51.510582 144.0
51.533321 136.0
51.549713 288.0
51.590645 180.0
51.622406 200.0
51.637676 116.0
51.656269 228.0
51.669144 148.0
51.690605 188.0
51.703484 180.0
51.72102 156.0
51.733543 172.0
51.760746 152.0
51.770771 152.0
51.790821 116.0
51.80228 148.0
51.828068 156.0
51.8381 180.0
51.908615 104.0
51.926762 156.0
51.9375 152.0
51.961658 160.0
51.978996 140.0
52.006252 240.0
52.036591 128.0
52.097794 256.0
52.11647 80.0
52.141327 188.0
52.187561 148.0
52.227165 144.0
52.26313 168.0
52.31926 152.0
52.335098 128.0
52.366779 224.0
52.396202 188.0
52.426361 112.0
52.437057 180.0
52.456184 84.0
52.473095 256.0
52.502964 180.0
52.544083 160.0
52.558865 244.0
52.567711 96.0
52.582691 208.0
52.632126 132.0
52.650776 192.0
52.67429 348.0
52.703114 136.0
52.713047 232.0
52.730312 252.0
52.754505 136.0
52.759708 144.0
52.765339 180.0
52.800556 180.0
52.825752 152.0
52.846043 80.0
52.885117 76.0
52.904594 176.0
52.922752 40.0
52.974548 136.0
52.993725 360.0
53.016533 184.0
53.028503 140.0
53.053146 140.0
53.095196 60.0
53.111149 64.0
53.125652 276.0
53.161926 40.0
53.174988 136.0
53.196762 60.0
53.211277 88.0
53.25721 140.0
53.26276 216.0
53.315323 236.0
53.328941 260.0
53.363014 192.0
53.387932 188.0
53.396343 168.0
53.407154 348.0
53.433643 120.0
53.449646 112.0
53.497677 188.0
53.51292 180.0
53.536987 156.0
53.558834 136.0
53.578335 196.0
53.603996 172.0
53.629311 152.0
53.642773 152.0
53.678341 156.0
53.714802 152.0
53.741062 164.0
53.793602 148.0
53.811119 188.0
53.8228 172.0
53.835941 140.0
53.857349 176.0
53.884335 152.0
53.895882 188.0
53.935291 108.0
53.955757 124.0
53.97184 152.0
53.990501 252.0
54.02879 64.0
54.053753 68.0
54.088879 124.0
54.124012 144.0
54.140121 140.0
54.154766 168.0
54.191391 188.0
54.208191 180.0
54.228024 140.0
54.251476 100.0
54.267605 172.0
54.286667 168.0
54.296932 164.0
54.31953 108.0
54.335136 172.0
54.3508 216.0
54.362949 96.0
54.376156 100.0
54.389366 92.0
54.406513 256.0
54.435532 224.0
54.452499 164.0
54.47747 120.0
54.492161 184.0
54.539188 108.0
54.553886 156.0
54.573082 144.0
54.59779 172.0
54.649483 108.0
54.680382 148.0
54.691364 156.0
54.734852 52.0
54.751049 112.0
54.798111 76.0
54.801216 72.0
54.816761 304.0
54.858608 280.0
54.885147 60.0
54.919067 196.0
54.936768 236.0
54.954472 200.0
54.994316 144.0
55.01498 180.0
55.031479 364.0
55.065186 76.0
55.076408 108.0
55.090294 200.0
55.108025 88.0
55.160393 244.0
55.17601 132.0
55.215137 156.0
55.224808 184.0
55.236641 108.0
55.249954 132.0
55.279545 128.0
55.312107 132.0
55.347637 136.0
55.358002 48.0
55.414402 260.0
55.434017 140.0
55.439835 184.0
55.47752 36.0
55.510635 168.0
55.526043 184.0
55.554314 160.0
55.575901 164.0
55.614483 148.0
55.636551 148.0
55.658188 100.0
55.684265 152.0
55.713127 196.0
55.737747 184.0
55.783821 136.0
55.829716 92.0
55.843296 176.0
55.886066 120.0
55.917267 156.0
55.965469 156.0
55.98468 56.0
56.001064 136.0
56.036816 140.0
56.067722 140.0
56.129227 104.0
56.147121 244.0
56.17181 212.0
56.18943 372.0
56.247467 172.0
56.276196 80.0
56.305317 140.0
56.336681 204.0
56.37059 244.0
56.402431 152.0
56.444542 96.0
56.460087 192.0
56.49369 144.0
56.546021 248.0
56.567539 132.0
56.583443 168.0
56.596916 68.0
56.608894 92.0
56.646339 136.0
56.68977 180.0
56.70927 196.0
56.725998 176.0
56.73925 188.0
56.783485 136.0
56.80941 148.0
56.820858 280.0
56.848747 112.0
56.869591 144.0
56.907288 204.0
56.923801 180.0
56.954205 164.0
56.983883 192.0
57.007927 184.0
57.018444 164.0
57.031765 204.0
57.053017 156.0
57.087772 152.0
57.116173 176.0
57.159725 144.0
57.209473 104.0
57.253136 148.0
57.265186 140.0
57.28326 156.0
57.335995 364.0
57.346546 180.0
57.357449 204.0
57.376694 124.0
57.396046 220.0
57.423439 208.0
57.465096 104.0
57.495392 100.0
57.50491 176.0
57.516987 108.0
57.52906 104.0
57.541138 172.0
57.554726 156.0
57.591606 228.0
57.605011 136.0
57.63522 152.0
57.654198 184.0
57.657642 156.0
57.662338 204.0
57.690701 316.0
57.717915 88.0
57.736862 272.0
57.795059 164.0
57.817982 188.0
57.866196 56.0
57.914654 136.0
57.964645 168.0
58.007343 116.0
58.020725 92.0
58.03437 104.0
58.046501 80.0
58.057117 196.0
58.074219 160.0
58.135506 156.0
58.167007 168.0
58.199615 300.0
58.216461 48.0
58.231647 84.0
58.255634 116.0
58.26656 340.0
58.275948 144.0
58.29472 128.0
58.319199 192.0
58.334827 212.0
58.340546 192.0
58.376713 220.0
58.401779 188.0
58.43367 324.0
58.488605 348.0
58.525143 204.0
58.542747 176.0
58.548382 168.0
58.552906 196.0
58.577034 164.0
58.590633 148.0
58.619034 200.0
58.630733 120.0
58.650063 116.0
58.684258 196.0
58.709789 92.0
58.761387 140.0
58.790375 148.0
58.837112 168.0
58.856014 120.0
58.889744 184.0
58.903358 68.0
58.929825 148.0
58.944199 208.0
58.966961 96.0
58.982254 152.0
59.016209 152.0
59.048565 108.0
59.061577 120.0
59.091393 224.0
59.111286 172.0
59.125057 220.0
59.138832 188.0
59.167915 184.0
59.181698 148.0
59.229172 156.0
59.279686 148.0
59.283859 144.0
59.298119 160.0
59.316513 236.0
59.351471 304.0
59.377842 176.0
59.406986 116.0
59.433067 164.0
59.448414 140.0
59.533459 220.0
59.548203 52.0
59.558952 160.0
59.591213 60.0
59.606579 40.0
59.624226 120.0
59.640617 108.0
59.658836 124.0
59.68166 192.0
59.746494 120.0
59.771553 444.0
59.791744 156.0
59.804966 204.0
59.818821 32.0
59.831135 104.0
59.844883 172.0
59.86298 188.0
59.88657 120.0
59.931973 212.0
59.982101 144.0
60.036938 188.0
60.053028 176.0
60.065369 144.0
60.100853 68.0
60.124435 156.0
60.136345 36.0
60.150238 156.0
60.170307 176.0
60.184307 116.0
60.241306 156.0
60.315762 152.0
60.334068 144.0
60.369629 176.0
60.388187 196.0
60.402107 100.0
60.425846 128.0
60.443882 172.0
60.456261 96.0
60.490311 88.0
60.504242 152.0
60.51627 200.0
60.539803 120.0
60.54541 116.0
60.58147 212.0
60.594997 140.0
60.609562 80.0
60.65387 204.0
60.697914 224.0
60.721176 148.0
60.736389 104.0
60.746357 240.0
60.776134 140.0
60.879475 144.0
60.915195 164.0
60.926071 104.0
60.938499 212.0
60.961807 128.0
61.011543 152.0
61.031757 132.0
61.045448 164.0
61.084633 152.0
61.104488 152.0
61.16917 248.0
61.184231 64.0
61.209141 212.0
61.230942 108.0
61.252747 288.0
61.274559 160.0
61.310398 156.0
61.354038 168.0
61.380547 144.0
61.399258 180.0
61.411736 200.0
61.439812 120.0
61.473316 196.0
61.491306 192.0
61.533604 168.0
61.540741 168.0
61.575615 160.0
61.594357 200.0
61.636539 132.0
61.658417 200.0
61.67979 184.0
61.683033 128.0
61.724922 192.0
61.744099 164.0
61.778812 32.0
61.803535 380.0
61.825752 188.0
61.895485 168.0
61.955715 224.0
61.967854 176.0
61.976593 196.0
61.991753 120.0
62.035637 88.0
62.060539 172.0
62.15696 56.0
62.194065 176.0
62.214474 192.0
62.261578 124.0
62.307129 148.0
62.338554 144.0
62.349556 116.0
62.365273 120.0
62.379417 132.0
62.395138 372.0
62.414005 96.0
62.43602 124.0
62.452629 132.0
62.465904 72.0
62.481213 208.0
62.514679 148.0
62.563648 180.0
62.594959 132.0
62.612282 156.0
62.637486 36.0
62.680023 52.0
62.736759 176.0
62.75893 132.0
62.78091 184.0
62.837692 220.0
62.848526 144.0
62.871521 164.0
62.883457 60.0
62.926079 208.0
62.95134 48.0
62.990826 68.0
63.011116 180.0
63.031395 200.0
63.079315 192.0
63.090614 136.0
63.103031 208.0
63.11726 112.0
63.136234 88.0
63.159363 148.0
63.210587 124.0
63.251736 196.0
63.288727 124.0
63.327663 172.0
63.332912 164.0
63.344318 316.0
63.368923 132.0
63.414356 244.0
63.425419 160.0
63.451336 84.0
63.505611 176.0
63.524288 124.0
63.550629 172.0
63.565536 168.0
63.616325 224.0
63.627438 192.0
63.656353 204.0
63.684258 128.0
63.698902 152.0
63.732262 124.0
63.748207 204.0
63.789742 120.0
63.852638 188.0
63.891254 148.0
63.90239 140.0
63.915119 116.0
63.940578 152.0
63.972179 136.0
63.976036 116.0
63.982456 168.0
64.013809 364.0
64.028847 152.0
64.06208 196.0
64.100914 188.0
64.136482 76.0
64.155609 112.0
64.166771 88.0
64.180435 176.0
64.203445 96.0
64.235344 116.0
64.245827 100.0
64.258507 208.0
64.306793 196.0
64.319916 108.0
64.345589 348.0
64.361427 220.0
64.396561 176.0
64.408401 288.0
64.479523 180.0
64.481667 164.0
64.502014 188.0
64.519936 172.0
64.535583 136.0
64.564903 180.0
64.612358 300.0
64.635574 188.0
64.66996 160.0
64.690773 108.0
64.706779 108.0
64.743607 156.0
64.781944 236.0
64.804977 128.0
64.844498 316.0
64.854576 168.0
64.870186 160.0
64.885254 140.0
64.907059 208.0
64.92791 172.0
64.941818 164.0
64.956779 148.0
64.998657 156.0
65.020958 132.0
65.03701 180.0
65.093201 176.0
65.125038 92.0
65.137474 176.0
65.16066 144.0
65.184761 160.0
65.204041 108.0
65.250656 188.0
65.262733 244.0
65.318199 144.0
65.32946 340.0
65.368073 308.0
65.385376 272.0
65.437286 132.0
65.450172 156.0
65.474327 184.0
65.492043 128.0
65.50882 208.0
65.540367 220.0
65.572601 164.0
65.610481 80.0
65.674171 296.0
65.690308 252.0
65.704826 184.0
65.722572 48.0
65.759689 152.0
65.790359 124.0
65.816422 168.0
65.867867 168.0
65.885635 176.0
65.921181 168.0
65.944733 172.0
65.958839 188.0
65.971291 200.0
66.010094 176.0
66.021416 160.0
66.056992 88.0
66.079124 100.0
66.09906 108.0
66.121719 272.0
66.173943 152.0
66.189484 144.0
66.191795 124.0
66.199768 180.0
66.257736 224.0
66.288521 188.0
66.3339 124.0
66.354973 108.0
66.366325 128.0
66.38578 152.0
66.397133 76.0
66.417709 268.0
66.454025 496.0
66.491226 216.0
66.507462 48.0
66.523689 264.0
66.555038 272.0
66.574631 140.0
66.604881 124.0
66.650902 160.0
66.723946 164.0
66.741287 152.0
66.798317 108.0
66.861771 152.0
66.876419 72.0
66.8927 164.0
66.918747 76.0
66.942902 120.0
66.957405 156.0
66.990402 88.0
67.057205 208.0
67.069374 208.0
67.094696 80.0
67.112633 132.0
67.155037 180.0
67.194267 160.0
67.225182 140.0
67.243134 152.0
67.273666 228.0
67.331184 116.0
67.353943 208.0
67.401382 160.0
67.429321 88.0
67.440765 188.0
67.464577 224.0
67.49144 288.0
67.507797 108.0
67.529442 296.0
67.550316 208.0
67.577225 180.0
67.62056 228.0
67.673058 148.0
67.68512 176.0
67.748398 136.0
67.777885 168.0
67.797554 144.0
67.83033 76.0
67.853279 108.0
67.864761 372.0
67.878662 208.0
67.906532 176.0
67.922043 168.0
67.955688 208.0
68.000916 48.0
68.022255 164.0
68.101158 144.0
68.122421 404.0
68.140495 160.0
68.163757 176.0
68.181572 88.0
68.227592 240.0
68.258026 112.0
68.344093 120.0
68.364113 112.0
68.380569 124.0
68.407333 216.0
68.479355 80.0
68.5103 148.0
68.52713 144.0
68.546074 160.0
68.563957 160.0
68.594696 196.0
68.612831 40.0
68.644157 204.0
68.667244 60.0
68.698586 132.0
68.716194 172.0
68.749733 132.0
68.778488 132.0
68.793793 156.0
68.809158 212.0
68.838875 108.0
68.881882 108.0
68.892792 236.0
68.980965 136.0
68.99765 168.0
69.019943 200.0
69.055374 228.0
69.071915 176.0
69.092964 232.0
69.141403 84.0
69.163681 184.0
69.181885 316.0
69.194649 176.0
69.22583 184.0
69.237427 156.0
69.27829 208.0
69.315285 124.0
69.331856 224.0
69.369972 84.0
69.388123 176.0
69.404793 124.0
69.446251 196.0
69.461792 152.0
69.482742 64.0
69.526665 140.0
69.542595 180.0
69.567383 308.0
69.592285 164.0
69.606911 212.0
69.631996 144.0
69.664986 160.0
69.689056 228.0
69.706894 184.0
69.727806 212.0
69.769234 176.0
69.808296 64.0
69.834908 160.0
69.886475 184.0
69.909767 76.0
69.933365 208.0
69.952682 128.0
70.004662 208.0
70.037964 220.0
70.050972 188.0
70.085609 200.0
70.108696 256.0
70.121704 156.0
70.158485 136.0
70.170601 176.0
70.192207 124.0
70.215195 132.0
70.232986 180.0
70.251335 124.0
70.26635 132.0
70.281364 176.0
70.307312 176.0
70.339775 212.0
70.354797 308.0
70.37368 116.0
70.407433 272.0
70.426231 144.0
70.430252 108.0
70.444054 296.0
70.510139 124.0
70.523514 84.0
70.553596 56.0
70.578682 140.0
70.600418 160.0
70.632195 112.0
70.682755 180.0
70.70031 360.0
70.718506 308.0
70.758537 160.0
70.79454 180.0
70.811287 92.0
70.833145 168.0
70.846466 152.0
70.89003 64.0
70.920197 40.0
70.964401 172.0
70.987251 180.0
71.00235 196.0
71.029182 176.0
71.056816 144.0
71.063042 176.0
71.087906 144.0
71.111687 188.0
71.129585 148.0
71.165115 112.0
71.196053 132.0
71.200882 160.0
71.217896 172.0
71.239014 148.0
71.264214 116.0
71.315651 92.0
71.333412 68.0
71.341942 180.0
71.370102 396.0
71.383553 168.0
71.400139 320.0
71.430504 144.0
71.448997 132.0
71.480705 240.0
71.492897 136.0
71.519829 128.0
71.536659 136.0
71.568649 184.0
71.594772 140.0
71.607376 152.0
71.622536 180.0
71.636017 48.0
71.651176 192.0
71.664658 84.0
71.705353 184.0
71.729561 156.0
71.775902 204.0
71.801514 232.0
71.836617 192.0
71.855171 136.0
71.868668 48.0
71.903114 116.0
71.931641 180.0
71.946304 224.0
71.958305 148.0
71.971634 140.0
71.988159 208.0
72.002029 248.0
72.037247 352.0
72.09494 132.0
72.115227 228.0
72.137199 108.0
72.199898 148.0
72.221786 152.0
72.258957 164.0
72.27713 168.0
72.304497 132.0
72.324959 260.0
72.336807 176.0
72.362495 160.0
72.394371 104.0
72.437294 176.0
72.490929 180.0
72.51754 160.0
72.569244 200.0
72.666733 164.0
72.702904 148.0
72.716484 172.0
72.728363 196.0
72.750435 172.0
72.764015 88.0
72.776764 196.0
72.83036 172.0
72.880653 196.0
72.911797 164.0
72.937286 192.0
72.959389 104.0
72.990273 120.0
73.006828 208.0
73.020172 96.0
73.039307 152.0
73.082832 204.0
73.100929 164.0
73.113655 92.0
73.132896 180.0
73.146507 104.0
73.18737 184.0
73.22654 264.0
73.240166 112.0
73.274231 348.0
73.336411 172.0
73.40889 152.0
73.461761 144.0
73.480522 140.0
73.495186 256.0
73.508171 148.0
73.520996 100.0
73.561302 120.0
73.579514 104.0
73.669418 184.0
73.712738 188.0
73.735733 140.0
73.748199 80.0
73.768791 196.0
73.823112 212.0
73.846085 168.0
73.900826 152.0
73.921356 156.0
73.948105 204.0
73.957588 164.0
73.977837 200.0
74.012077 156.0
74.045685 192.0
74.05204 120.0
74.070305 156.0
74.101143 220.0
74.145699 56.0
74.161713 232.0
74.202263 220.0
74.228981 72.0
74.257843 224.0
74.268105 152.0
74.300827 232.0
74.304665 68.0
74.311867 124.0
74.359253 140.0
74.372093 196.0
74.408142 116.0
74.417198 160.0
74.444199 116.0
74.464325 184.0
74.483696 212.0
74.504311 144.0
74.525291 380.0
74.53614 152.0
74.54274 176.0
74.579926 28.0
74.617027 112.0
74.68367 176.0
74.696846 136.0
74.731255 128.0
74.745018 224.0
74.760391 120.0
74.781898 176.0
74.803986 168.0
74.853462 200.0
74.872406 100.0
74.898239 216.0
74.937866 132.0
74.951057 152.0
74.988098 160.0
75.013184 244.0
75.054192 260.0
75.078293 156.0
75.099907 136.0
75.16201 148.0
75.206886 168.0
75.229897 128.0
75.25235 460.0
75.27594 120.0
75.30201 184.0
75.322571 212.0
75.345345 132.0
75.362305 92.0
75.388802 180.0
75.400665 200.0
75.420509 184.0
75.437782 184.0
75.478111 156.0
75.523079 192.0
75.540375 124.0
75.561134 320.0
75.574089 176.0
75.613045 152.0
75.644043 132.0
75.669502 136.0
75.701881 152.0
75.725578 116.0
75.740189 156.0
75.759834 164.0
75.791412 372.0
75.815666 180.0
75.841934 200.0
75.860329 156.0
75.876335 152.0
75.936462 172.0
76.015099 76.0
76.035919 168.0
76.058479 148.0
76.079315 164.0
76.121613 176.0
76.152245 124.0
76.166656 120.0
76.189262 168.0
76.219009 156.0
76.251274 148.0
76.281563 160.0
76.321007 140.0
76.33905 88.0
76.353851 160.0
76.380714 152.0
76.404991 300.0
76.438225 152.0
76.466934 140.0
76.482597 144.0
76.494781 152.0
76.54216 172.0
76.566498 128.0
76.580688 132.0
76.601006 140.0
76.635849 164.0
76.653313 176.0
76.698372 128.0
76.757866 120.0
76.795258 156.0
76.853142 128.0
76.86776 92.0
76.883057 356.0
76.916626 156.0
76.935829 128.0
77.001633 412.0
77.033615 228.0
77.063469 264.0
77.094353 180.0
77.138466 176.0
77.150024 164.0
77.208405 136.0
77.227646 172.0
77.240547 184.0
77.270569 336.0
77.287766 184.0
77.304619 224.0
77.32737 148.0
77.36763 128.0
77.395454 148.0
77.414902 96.0
77.428917 212.0
77.479347 192.0
77.519333 176.0
77.549805 228.0
77.582298 260.0
77.596184 128.0
77.619926 412.0
77.633423 132.0
77.659546 216.0
77.723419 180.0
77.737457 192.0
77.769287 148.0
77.793053 160.0
77.821709 156.0
77.845673 192.0
77.876152 204.0
77.893715 152.0
77.91304 100.0
77.93412 168.0
77.951294 140.0
77.971024 256.0
78.036064 96.0
78.056633 212.0
78.081779 172.0
78.109924 156.0
78.125755 172.0
78.147186 132.0
78.190857 304.0
78.208458 172.0
78.25708 200.0
78.262352 124.0
78.268639 152.0
78.303535 204.0
78.342285 212.0
78.369324 92.0
78.405716 132.0
78.421577 172.0
78.439209 92.0
78.483284 116.0
78.507965 104.0
78.562645 188.0
78.595863 164.0
78.61911 112.0
78.642052 244.0
78.704178 172.0
78.731506 144.0
78.752678 116.0
78.759888 76.0
78.76664 172.0
78.811584 132.0
78.853996 132.0
78.876968 132.0
78.893448 188.0
78.912331 124.0
78.93708 560.0
78.964996 220.0
79.004295 32.0
79.033485 144.0
79.08963 176.0
79.128464 148.0
79.144112 196.0
79.1689 148.0
79.231537 132.0
79.250381 140.0
79.271149 156.0
79.310204 124.0
79.340775 84.0
79.356728 168.0
79.408859 232.0
79.436531 112.0
79.468163 140.0
79.486214 176.0
79.498917 148.0
79.54969 264.0
79.609009 112.0
79.626457 120.0
79.648247 128.0
79.685074 52.0
79.70462 144.0
79.717056 144.0
79.733047 144.0
79.762848 180.0
79.781044 196.0
79.807709 148.0
79.855728 188.0
79.873512 108.0
79.916794 132.0
79.947418 148.0
79.958916 224.0
80.008186 188.0
80.02478 84.0
80.044365 164.0
80.108482 52.0
80.124512 196.0
80.136986 316.0
80.172623 64.0
80.235008 144.0
80.253487 196.0
80.277802 228.0
80.317039 184.0
80.336464 332.0
80.360001 192.0
80.372757 172.0
80.398178 92.0
80.418495 264.0
80.425285 120.0
80.431297 332.0
80.470512 80.0
80.490677 164.0
80.516937 80.0
80.531227 212.0
80.573044 136.0
80.585724 172.0
80.627022 116.0
80.647362 68.0
80.67733 68.0
80.699249 168.0
80.717087 168.0
80.838722 100.0
80.858406 132.0
80.886177 192.0
80.9515 152.0
80.971199 164.0
80.988327 92.0
81.048225 156.0
81.071526 140.0
81.09436 156.0
81.155769 320.0
81.205025 172.0
81.233727 324.0
81.288551 168.0
81.324402 336.0
81.356712 180.0
81.369278 344.0
81.39225 156.0
81.417046 172.0
81.438988 368.0
81.460869 144.0
81.487137 152.0
81.514763 164.0
81.598427 192.0
81.620819 144.0
81.639969 148.0
81.664337 204.0
81.678131 208.0
81.743141 160.0
81.755737 120.0
81.776627 168.0
81.800728 60.0
81.818733 192.0
81.845741 28.0
81.88356 132.0
81.917778 152.0
81.952576 192.0
81.983749 160.0
82.011475 188.0
82.071205 132.0
82.087196 104.0
82.108841 272.0
82.12545 188.0
82.14093 212.0
82.195427 180.0
82.213013 204.0
82.240944 112.0
82.269424 188.0
82.283867 128.0
82.296509 144.0
82.310211 88.0
82.347435 200.0
82.363327 176.0
82.400543 208.0
82.435837 148.0
82.477112 152.0
82.524261 76.0
82.546936 236.0
82.568291 184.0
82.598312 184.0
82.621826 156.0
82.684319 112.0
82.705063 140.0
82.721359 208.0
82.75032 176.0
82.767685 68.0
82.799217 148.0
82.822563 220.0
82.844498 172.0
82.86261 172.0
82.887161 172.0
82.904289 224.0
82.916977 156.0
82.929665 60.0
82.96048 176.0
83.009659 224.0
83.094681 116.0
83.157677 336.0
83.175774 148.0
83.223541 124.0
83.267128 128.0
83.307083 156.0
83.323433 204.0
83.341606 172.0
83.367043 120.0
83.41066 124.0
83.469543 204.0
83.483391 148.0
83.495667 204.0
83.521584 48.0
83.538811 136.0
83.578766 172.0
83.617355 208.0
83.65078 168.0
83.69265 140.0
83.765495 252.0
83.784485 184.0
83.798286 176.0
83.812866 56.0
83.837692 192.0
83.862068 148.0
83.889412 132.0
83.909058 160.0
83.952362 220.0
83.969643 100.0
84.015244 112.0
84.042282 180.0
84.099297 304.0
84.119911 296.0
84.153778 172.0
84.198753 148.0
84.294594 160.0
84.356728 104.0
84.442673 232.0
84.470108 136.0
84.506264 188.0
84.519501 192.0
84.536507 192.0
84.550613 92.0
84.565254 128.0
84.582886 120.0
84.658623 160.0
84.717232 132.0
84.76413 148.0
84.778511 244.0
84.785812 196.0
84.836876 180.0
84.863602 180.0
84.869019 156.0
84.926201 152.0
84.939041 172.0
84.968452 120.0
84.99102 144.0
85.025276 192.0
85.056473 164.0
85.109718 108.0
85.144608 184.0
85.229103 180.0
85.269051 196.0
85.365128 180.0
85.392715 168.0
85.44606 180.0
85.458939 120.0
85.471817 204.0
85.484009 180.0
85.525749 276.0
85.569374 136.0
85.615402 120.0
85.649628 344.0
85.675507 140.0
85.714882 164.0
85.737144 192.0
85.765289 272.0
85.781227 196.0
85.795975 76.0
85.810722 48.0
85.840225 152.0
85.875267 140.0
85.894043 132.0
85.906158 96.0
85.930603 172.0
85.949059 196.0
85.966324 156.0
85.974625 172.0
85.980141 180.0
86.029015 236.0
86.087502 92.0
86.108635 180.0
86.128136 132.0
86.161194 192.0
86.194641 176.0
86.244537 168.0
86.257477 204.0
86.272263 96.0
86.316643 64.0
86.344376 120.0
86.358223 156.0
86.374413 204.0
86.396393 196.0
86.410927 164.0
86.429382 160.0
86.440468 136.0
86.510902 128.0
86.53582 244.0
86.549789 104.0
86.564835 220.0
86.636971 160.0
86.653511 108.0
86.699829 184.0
86.727631 48.0
86.749878 140.0
86.770271 148.0
86.786957 132.0
86.801262 240.0
86.82782 108.0
86.855133 84.0
86.880241 176.0
86.948341 76.0
86.966492 184.0
86.989029 208.0
87.050346 152.0
87.082016 108.0
87.116447 156.0
87.14901 244.0
87.171188 204.0
87.208359 172.0
87.226662 156.0
87.258545 180.0
87.293037 196.0
87.327354 228.0
87.344093 128.0
87.372238 220.0
87.469124 164.0
87.489059 192.0
87.50972 100.0
87.525757 260.0
87.541374 160.0
87.658905 168.0
87.676201 244.0
87.707184 208.0
87.729553 144.0
87.74633 208.0
87.800407 84.0
87.837708 108.0
87.852638 244.0
87.875023 116.0
87.893677 136.0
87.923538 208.0
88.031815 28.0
88.057961 236.0
88.100922 164.0
88.117737 132.0
88.136421 188.0
88.153236 152.0
88.166321 172.0
88.203697 148.0
88.224258 172.0
88.282227 180.0
88.330849 184.0
88.358566 172.0
88.373878 216.0
88.400078 72.0
88.418793 172.0
88.458099 124.0
88.499283 232.0
88.555466 164.0
88.578606 168.0
88.610451 328.0
88.637894 100.0
88.651009 148.0
88.664124 144.0
88.678001 388.0
88.686234 156.0
88.691704 160.0
88.72036 168.0
88.744225 148.0
88.751259 108.0
88.769104 152.0
88.795364 244.0
88.810364 160.0
88.832878 188.0
88.847885 144.0
88.864769 84.0
88.879723 136.0
88.915817 156.0
88.937958 132.0
88.994278 152.0
89.051735 140.0
89.084419 164.0
89.110001 136.0
89.15303 240.0
89.19529 376.0
89.227249 116.0
89.244171 160.0
89.26297 124.0
89.306 132.0
89.312126 116.0
89.31604 148.0
89.332077 124.0
89.373947 128.0
89.387123 200.0
89.466171 128.0
89.481232 148.0
89.528305 176.0
89.56974 144.0
89.601471 152.0
89.641335 208.0
89.667717 176.0
89.684677 120.0
89.722382 132.0
89.73558 120.0
89.759491 240.0
89.783943 160.0
89.85817 140.0
89.885696 184.0
89.89325 108.0
89.896339 140.0
89.912636 148.0
89.954414 156.0
89.984985 168.0
90.018784 128.0
90.039055 184.0
90.068954 192.0
90.082825 168.0
90.099831 168.0
90.114944 136.0
90.128166 112.0
90.169075 148.0
90.203766 188.0
90.237015 68.0
90.24218 100.0
90.262375 148.0
90.311546 160.0
90.339409 208.0
90.375862 196.0
90.399918 180.0
90.438316 168.0
90.483742 88.0
90.565536 208.0
90.664177 172.0
90.686432 128.0
90.711075 72.0
90.733757 116.0
90.760368 152.0
90.79351 184.0
90.819153 168.0
90.84761 152.0
90.868477 112.0
90.963364 96.0
90.982346 200.0
91.007027 128.0
91.063072 196.0
91.10199 96.0
91.120987 184.0
91.206505 136.0
91.22171 140.0
91.251472 128.0
91.308464 388.0
91.346474 220.0
91.373848 176.0
91.397713 124.0
91.414841 228.0
91.434341 300.0
91.492447 176.0
91.526115 176.0
91.58007 232.0
91.615623 144.0
91.634674 112.0
91.658302 164.0
91.68557 220.0
91.708778 176.0
91.745216 136.0
91.783348 192.0
91.802414 96.0
91.819328 152.0
91.836746 340.0
91.848854 164.0
91.87748 384.0
91.902397 144.0
91.937859 44.0
91.966484 88.0
91.993935 232.0
92.027428 4752.0
92.06369 188.0
92.097458 168.0
92.104668 120.0
92.109116 132.0
92.129189 136.0
92.167007 184.0
92.180382 148.0
92.209053 48.0
92.22625 208.0
92.316612 436.0
92.407837 184.0
92.434799 168.0
92.453842 384.0
92.469154 156.0
92.497864 100.0
92.528496 272.0
92.566956 148.0
92.581055 128.0
92.61084 164.0
92.654152 144.0
92.691299 208.0
92.710464 104.0
92.728523 160.0
92.744957 168.0
92.769257 216.0
92.799103 164.0
92.825478 212.0
92.863213 196.0
92.934814 128.0
92.950905 160.0
92.971275 120.0
92.984711 180.0
93.000648 72.0
93.02903 504.0
93.065331 112.0
93.103737 180.0
93.119347 136.0
93.147804 140.0
93.18911 224.0
93.203186 184.0
93.218124 132.0
93.240135 156.0
93.274734 104.0
93.307411 76.0
93.345238 232.0
93.364212 208.0
93.378563 96.0
93.411224 196.0
93.440742 184.0
93.463684 224.0
93.4786 160.0
93.540321 168.0
93.572914 140.0
93.592171 28.0
93.644165 104.0
93.657646 180.0
93.78096 40.0
93.842537 156.0
93.937141 52.0
93.954506 60.0
93.97187 108.0
93.989235 180.0
94.002747 128.0
94.031693 392.0
94.068367 124.0
94.08271 212.0
94.10704 112.0
94.1297 156.0
94.140167 148.0
94.176498 224.0
94.193878 180.0
94.230019 136.0
94.281387 124.0
94.295525 284.0
94.394882 108.0
94.470306 116.0
94.497391 164.0
94.520615 224.0
94.544853 188.0
94.574799 320.0
94.594154 112.0
94.619049 140.0
94.665794 356.0
94.679352 152.0
94.731232 152.0
94.752953 184.0
94.845161 184.0
94.859543 160.0
94.892639 276.0
94.927574 360.0
94.999161 60.0
95.016624 144.0
95.034081 144.0
95.053482 136.0
95.096184 84.0
95.109764 28.0
95.125298 184.0
95.15905 248.0
95.180397 200.0
95.204079 60.0
95.237862 136.0
95.296196 180.0
95.310951 176.0
95.33448 188.0
95.356628 160.0
95.372719 292.0
95.389481 212.0
95.43808 44.0
95.461418 160.0
95.482117 176.0
95.500313 164.0
95.51976 124.0
95.655785 164.0
95.68441 132.0
95.688538 176.0
95.722343 136.0
95.740059 192.0
95.768913 184.0
95.807869 168.0
95.832695 140.0
95.85463 136.0
95.870224 144.0
95.891151 184.0
95.903145 224.0
95.968979 260.0
95.99498 32.0
96.021103 296.0
96.056374 188.0
96.080986 172.0
96.110069 272.0
96.129578 132.0
96.18618 172.0
96.207657 88.0
96.231804 152.0
96.240417 164.0
96.253517 196.0
96.301384 144.0
96.324486 188.0
96.35022 168.0
96.379524 148.0
96.412743 172.0
96.430328 164.0
96.457298 216.0
96.483109 96.0
96.502663 192.0
96.522209 220.0
96.578926 92.0
96.606316 196.0
96.640778 180.0
96.663048 152.0
96.693962 136.0
96.713936 100.0
96.741341 64.0
96.755043 164.0
96.800079 188.0
96.833366 140.0
96.854912 164.0
96.892136 148.0
96.943077 160.0
96.958672 180.0
96.97599 116.0
97.015907 128.0
97.03302 176.0
97.050499 60.0
97.084221 188.0
97.178734 132.0
97.209129 196.0
97.247162 168.0
97.264725 120.0
97.288284 120.0
97.305946 172.0
97.364861 148.0
97.402176 72.0
97.415924 56.0
97.482727 136.0
97.533829 208.0
97.558022 156.0
97.602631 112.0
97.665039 372.0
97.687202 56.0
97.716713 388.0
97.74369 180.0
97.779678 196.0
97.834793 72.0
97.901825 192.0
97.954315 208.0
97.979614 224.0
98.012054 180.0
98.076408 128.0
98.081215 84.0
98.087692 136.0
98.112572 180.0
98.126961 280.0
98.1474 168.0
98.193413 64.0
98.218178 144.0
98.224876 80.0
98.231735 140.0
98.256538 204.0
98.279892 172.0
98.307106 492.0
98.355202 156.0
98.403946 124.0
98.436508 196.0
98.453918 36.0
98.503296 156.0
98.525032 76.0
98.550713 232.0
98.574425 148.0
98.588638 248.0
98.656334 176.0
98.683327 164.0
98.722687 240.0
98.780045 176.0
98.84137 196.0
98.857201 144.0
98.891754 156.0
98.922516 116.0
98.94429 132.0
98.992714 156.0
99.004967 112.0
99.051857 152.0
99.070244 140.0
99.098778 160.0
99.132462 112.0
99.160202 32.0
99.179161 184.0
99.2276 152.0
99.25338 240.0
99.267258 288.0
99.295021 136.0
99.345985 156.0
99.362465 172.0
99.390244 132.0
99.413963 128.0
99.503624 160.0
99.541908 148.0
99.555 196.0
99.696045 120.0
99.715576 116.0
99.739769 200.0
99.793449 188.0
99.817307 128.0
99.852325 472.0
99.869011 140.0
99.926704 192.0
99.942619 144.0
99.976448 68.0
99.992371 168.0
100.016052 120.0
100.040138 144.0
100.06218 228.0
100.105583 168.0
100.155632 124.0
100.17157 236.0
100.223366 136.0
100.253593 144.0
100.27047 188.0
100.276176 120.0
100.283897 128.0
100.289276 168.0
100.319031 220.0
100.352921 152.0
100.380836 164.0
100.472588 52.0
100.49054 172.0
100.526459 144.0
100.546417 196.0
100.604248 156.0
100.636963 264.0
100.672188 136.0
100.694153 204.0
100.736099 168.0
100.764069 176.0
100.864738 192.0
100.881371 220.0
100.917412 236.0
100.928314 296.0
100.957954 128.0
100.979958 140.0
101.037964 200.0
101.081284 92.0
101.105995 156.0
101.130013 92.0
101.196075 116.0
101.219864 168.0
101.234116 188.0
101.294205 152.0
101.308228 132.0
101.348663 108.0
101.393471 132.0
101.401619 72.0
101.405586 176.0
101.419296 148.0
101.440483 164.0
101.465523 172.0
101.481583 124.0
101.573433 140.0
101.592888 104.0
101.683182 168.0
101.699242 72.0
101.731354 172.0
101.753014 244.0
101.815689 116.0
101.833763 124.0
101.881973 108.0
101.913841 144.0
101.963264 124.0
101.990288 124.0
102.015572 56.0
102.059723 352.0
102.086548 204.0
102.109108 200.0
102.192101 124.0
102.237808 140.0
102.271652 132.0
102.327194 184.0
102.352196 236.0
102.358986 188.0
102.368813 80.0
102.373917 192.0
102.390869 132.0
102.439209 76.0
102.461365 160.0
102.501358 184.0
102.591614 152.0
102.660912 136.0
102.694069 356.0
102.788002 128.0
102.818192 180.0
102.848541 172.0
102.87075 412.0
102.88488 128.0
102.905067 108.0
102.96489 220.0
103.006042 148.0
103.035751 232.0
103.092918 124.0
103.111519 172.0
103.183395 252.0
103.209572 220.0
103.234428 40.0
103.261765 460.0
103.280945 212.0
103.307243 68.0
103.337585 204.0
103.372337 176.0
103.394241 40.0
103.422577 196.0
103.455925 144.0
103.4636 196.0
103.481804 164.0
103.588623 160.0
103.648567 176.0
103.688065 164.0
103.744957 136.0
103.843216 172.0
103.878578 224.0
103.985825 156.0
103.990677 140.0
103.996765 196.0
104.020546 260.0
104.046288 164.0
104.074364 188.0
104.078094 172.0
104.134247 228.0
104.158623 320.0
104.176498 140.0
104.196609 200.0
104.341515 132.0
104.361847 80.0
104.421814 204.0
104.449547 160.0
104.465569 124.0
104.49218 196.0
104.517014 116.0
104.554512 168.0
104.583588 76.0
104.608284 188.0
104.656876 88.0
104.744446 160.0
104.760742 156.0
104.791298 152.0
104.809639 172.0
104.838165 156.0
104.915619 268.0
104.929893 224.0
104.965843 172.0
104.989021 196.0
105.048172 108.0
105.152237 60.0
105.181877 140.0
105.244095 100.0
105.303314 164.0
105.331009 136.0
105.35643 180.0
105.376854 56.0
105.405464 156.0
105.43512 160.0
105.51992 172.0
105.591492 200.0
105.630356 212.0
105.658997 104.0
105.681496 104.0
105.695824 148.0
105.722427 40.0
105.749695 172.0
105.780869 364.0
105.804298 144.0
105.861473 156.0
105.868591 260.0
105.884155 264.0
105.945152 456.0
105.964043 64.0
105.9925 220.0
106.031662 76.0
106.048058 168.0
106.073196 136.0
106.132111 60.0
106.169022 160.0
106.195679 272.0
106.241447 116.0
106.282684 156.0
106.288002 64.0
106.295364 156.0
106.35862 296.0
106.375565 132.0
106.416664 344.0
106.445129 172.0
106.467278 108.0
106.499451 176.0
106.587791 392.0
106.616562 196.0
106.634888 100.0
106.663834 140.0
106.709061 112.0
106.745651 212.0
106.769897 200.0
106.800941 236.0
106.823944 148.0
106.849541 152.0
106.896233 268.0
106.919449 232.0
106.928596 160.0
106.933586 188.0
106.955986 160.0
106.979759 144.0
107.014114 388.0
107.050934 36524.0
107.081436 180.0
107.099403 192.0
107.111198 116.0
107.117233 176.0
107.136467 100.0
107.16185 296.0
107.203064 76.0
107.219749 364.0
107.25087 180.0
107.269897 28.0
107.276505 76.0
107.29258 84.0
107.314201 240.0
107.360794 172.0
107.388893 512.0
107.425735 168.0
107.444305 128.0
107.480225 88.0
107.542107 140.0
107.568123 52.0
107.591896 240.0
107.607346 156.0
107.631058 132.0
107.670212 144.0
107.68972 144.0
107.73024 132.0
107.789597 148.0
107.835365 52.0
107.843704 144.0
107.891243 152.0
107.941223 68.0
107.969719 120.0
108.018547 176.0
108.052895 2896.0
108.101357 36.0
108.169655 148.0
108.184143 36.0
108.251907 148.0
108.279388 128.0
108.318748 196.0
108.355293 140.0
108.376755 156.0
108.430634 180.0
108.470917 276.0
108.491119 88.0
108.51355 144.0
108.534554 92.0
108.558235 116.0
108.62429 140.0
108.644203 204.0
108.659401 148.0
108.679352 68.0
108.706589 180.0
108.729485 356.0
108.752106 64.0
108.777664 120.0
108.807571 176.0
108.835991 128.0
108.850868 84.0
108.86541 204.0
108.879677 72.0
108.920288 120.0
108.952965 160.0
108.98484 116.0
109.016289 136.0
109.034248 216.0
109.064552 140.0
109.088608 172.0
109.119789 52.0
109.145287 92.0
109.175934 148.0
109.197197 160.0
109.234169 208.0
109.286179 48.0
109.309067 136.0
109.350693 408.0
109.371506 140.0
109.450615 64.0
109.478653 156.0
109.494347 188.0
109.515175 124.0
109.529968 196.0
109.569336 152.0
109.617767 196.0
109.66983 248.0
109.688118 216.0
109.711044 164.0
109.754829 80.0
109.794449 164.0
109.836166 136.0
109.882645 200.0
109.905006 144.0
109.947617 144.0
109.970192 248.0
109.984566 196.0
110.017708 108.0
110.051117 44.0
110.065735 176.0
110.086609 152.0
110.124207 104.0
110.138824 36.0
110.284271 164.0
110.364525 180.0
110.381088 232.0
110.396332 172.0
110.425171 180.0
110.510941 180.0
110.527679 72.0
110.556976 184.0
110.585938 288.0
110.619064 288.0
110.659538 276.0
110.678543 156.0
110.755722 112.0
110.855423 164.0
110.887871 300.0
110.911781 332.0
110.944466 56.0
110.959137 180.0
110.997513 120.0
111.045174 1500.0
111.089081 180.0
111.102333 144.0
111.13031 176.0
111.164696 180.0
111.187775 152.0
111.221359 320.0
111.246552 100.0
111.273842 100.0
111.301033 160.0
111.364014 132.0
111.385139 132.0
111.414551 216.0
111.441719 176.0
111.467079 124.0
111.486221 180.0
111.549042 116.0
111.601601 220.0
111.624733 132.0
111.649696 156.0
111.685722 220.0
111.715958 160.0
111.742523 140.0
111.786705 192.0
111.876068 192.0
111.908539 168.0
111.944588 144.0
111.969856 140.0
112.026726 140.0
112.047798 148.0
112.084007 240.0
112.104683 96.0
112.131691 152.0
112.250465 336.0
112.27652 212.0
112.297485 112.0
112.319565 152.0
112.351379 148.0
112.391464 184.0
112.431335 152.0
112.45266 180.0
112.475883 144.0
112.518097 132.0
112.564499 156.0
112.594116 136.0
112.623688 152.0
112.644806 116.0
112.692543 148.0
112.782158 220.0
112.826981 196.0
112.856956 312.0
112.913239 128.0
112.938797 144.0
112.961891 208.0
112.978813 156.0
113.046516 68.0
113.063446 128.0
113.131973 196.0
113.152351 200.0
113.181992 188.0
113.206085 148.0
113.231995 164.0
113.258858 136.0
113.296364 140.0
113.494217 108.0
113.552841 164.0
113.597763 168.0
113.620979 200.0
113.707718 144.0
113.72258 184.0
113.80043 160.0
113.806076 108.0
113.814812 196.0
113.845711 160.0
113.861267 148.0
113.93824 164.0
113.979538 84.0
114.034798 128.0
114.081558 132.0
114.101875 172.0
114.149597 176.0
114.198509 144.0
114.22403 144.0
114.251686 152.0
114.277214 120.0
114.297562 348.0
114.339035 160.0
114.379326 200.0
114.434715 180.0
114.475174 132.0
114.513504 132.0
114.535187 156.0
114.563713 112.0
114.65554 144.0
114.661133 96.0
114.67083 76.0
114.716858 248.0
114.74614 116.0
114.774559 184.0
114.781006 92.0
114.787575 232.0
114.80761 136.0
114.82254 180.0
114.8396 168.0
114.867332 180.0
114.882263 216.0
114.916397 292.0
114.947632 88.0
114.967613 136.0
114.99749 108.0
115.061531 124.0
115.080742 184.0
115.108498 168.0
115.159752 128.0
115.230171 224.0
115.249359 144.0
115.252274 208.0
115.313583 232.0
115.345734 104.0
115.388405 188.0
115.403366 224.0
115.420471 164.0
115.444 164.0
115.461105 120.0
115.5103 188.0
115.587318 120.0
115.604439 176.0
115.622482 196.0
115.652115 144.0
115.697548 96.0
115.714996 80.0
115.839455 104.0
115.869339 264.0
115.884613 204.0
115.912796 72.0
115.938515 156.0
115.957802 152.0
115.998528 132.0
116.077194 164.0
116.129234 164.0
116.146477 96.0
116.176514 176.0
116.193672 132.0
116.219421 48.0
116.250191 196.0
116.268715 144.0
116.290237 180.0
116.322433 216.0
116.351204 180.0
116.381981 168.0
116.436234 132.0
116.479187 96.0
116.545784 112.0
116.582314 180.0
116.608109 176.0
116.661842 224.0
116.717743 60.0
116.745949 240.0
116.805916 216.0
116.853668 164.0
116.876915 68.0
116.941124 148.0
116.978065 136.0
117.014664 208.0
117.059883 292.0
117.100319 216.0
117.12104 232.0
117.165421 240.0
117.182655 220.0
117.218246 120.0
117.281784 404.0
117.410728 144.0
117.467224 176.0
117.506058 224.0
117.525597 140.0
117.58374 148.0
117.616989 108.0
117.659286 68.0
117.678719 176.0
117.732704 196.0
117.758614 172.0
117.81559 200.0
117.840706 140.0
117.875275 88.0
117.904221 132.0
117.938332 112.0
117.987663 124.0
118.04821 164.0
118.069626 312.0
118.089821 148.0
118.108765 128.0
118.132561 120.0
118.149864 200.0
118.180153 92.0
118.229927 152.0
118.278366 168.0
118.29702 224.0
118.312126 184.0
118.411209 200.0
118.465935 140.0
118.483261 220.0
118.515762 124.0
118.561264 156.0
118.580772 128.0
118.63279 256.0
118.655685 176.0
118.678322 164.0
118.721687 168.0
118.824036 152.0
118.907524 164.0
118.942993 172.0
118.995094 80.0
119.04055 132.0
119.073135 720.0
119.091599 136.0
119.105209 204.0
119.126846 120.0
119.144943 160.0
119.19709 124.0
119.229691 128.0
119.262291 132.0
119.305679 100.0
119.338379 160.0
119.377518 192.0
119.420357 156.0
119.439827 80.0
119.479744 112.0
119.568954 220.0
119.592896 28.0
119.651131 144.0
119.714813 132.0
119.745308 152.0
119.770172 172.0
119.791046 148.0
119.817184 248.0
119.858582 192.0
119.899986 144.0
119.925011 116.0
119.945763 48.0
119.998077 56.0
120.019386 176.0
120.050415 104.0
120.083862 340.0
120.113663 192.0
120.154732 116.0
120.168716 220.0
120.24601 164.0
120.314423 144.0
120.34211 88.0
120.364639 160.0
120.383835 420.0
120.418533 100.0
120.456367 292.0
120.494133 84.0
120.51535 208.0
120.532837 220.0
120.591934 184.0
120.622437 72.0
120.653046 108.0
120.689064 200.0
120.714264 68.0
120.869576 56.0
120.912109 220.0
120.950546 92.0
120.968063 76.0
121.011841 180.0
121.033737 196.0
121.075722 156.0
121.15818 176.0
121.189812 156.0
121.214058 212.0
121.279106 144.0
121.399681 216.0
121.436394 200.0
121.476448 180.0
121.512436 288.0
121.569527 180.0
121.612495 116.0
121.632248 40.0
121.658592 36.0
121.693718 180.0
121.781555 204.0
121.796158 148.0
121.816704 156.0
121.854752 188.0
121.873817 168.0
121.900192 84.0
121.927513 156.0
121.944145 160.0
121.967613 112.0
121.990303 112.0
122.012283 124.0
122.032074 112.0
122.060654 184.0
122.077026 196.0
122.115135 248.0
122.133163 124.0
122.166229 48.0
122.212425 144.0
122.238831 108.0
122.277779 172.0
122.308235 188.0
122.335297 188.0
122.356644 168.0
122.392036 192.0
122.425949 144.0
122.456779 312.0
122.529472 104.0
122.551506 224.0
122.628937 260.0
122.672714 172.0
122.690353 192.0
122.822662 168.0
122.860161 120.0
122.88002 168.0
122.901802 188.0
123.003601 132.0
123.019051 144.0
123.040337 168.0
123.060997 204.0
123.116859 216.0
123.136078 176.0
123.164787 128.0
123.193504 200.0
123.217812 44.0
123.233276 160.0
123.282448 204.0
123.348824 228.0
123.39904 208.0
123.44989 196.0
123.523186 144.0
123.559113 200.0
123.574837 148.0
123.591461 128.0
123.629082 128.0
123.688835 140.0
123.717613 108.0
123.766327 140.0
123.815041 204.0
123.850479 212.0
123.91349 144.0
123.955887 148.0
124.003357 48.0
124.018875 232.0
124.045723 176.0
124.08094 132.0
124.143372 128.0
124.174072 120.0
124.198471 160.0
124.244705 380.0
124.313889 164.0
124.385468 132.0
124.414474 212.0
124.438141 208.0
124.495872 160.0
124.515862 268.0
124.573608 164.0
124.591377 212.0
124.606056 132.0
124.640388 120.0
124.674507 184.0
124.701782 380.0
124.729156 120.0
124.758057 112.0
124.806824 192.0
124.835876 132.0
124.858109 92.0
124.889145 168.0
124.917374 168.0
124.951538 136.0
124.969337 148.0
125.022781 332.0
125.060898 11576.0
125.100693 164.0
125.118454 168.0
125.138489 168.0
125.170982 216.0
125.221695 164.0
125.246086 112.0
125.270836 168.0
125.276085 184.0
125.286942 128.0
125.291664 268.0
125.316948 192.0
125.396889 328.0
125.412491 172.0
125.434784 108.0
125.459602 176.0
125.515038 112.0
125.545219 120.0
125.579712 156.0
125.619301 208.0
125.643288 168.0
125.659096 392.0
125.726959 132.0
125.753372 140.0
125.798386 140.0
125.837944 172.0
125.857391 112.0
125.912865 176.0
125.94735 208.0
126.025192 180.0
126.063026 600.0
126.088753 64.0
126.117805 28.0
126.166985 160.0
126.2117 160.0
126.240768 148.0
126.296684 36.0
126.324699 168.0
126.352608 156.0
126.386169 152.0
126.424049 172.0
126.454048 112.0
126.480164 224.0
126.50341 248.0
126.533089 168.0
126.583145 164.0
126.612656 200.0
126.648094 108.0
126.686501 164.0
126.717537 152.0
126.753387 156.0
126.780281 144.0
126.834068 132.0
126.852005 224.0
126.890114 148.0
126.937126 120.0
126.979805 112.0
127.018913 284.0
127.070015 192.0
127.169075 200.0
127.188469 116.0
127.226631 364.0
127.278275 72.0
127.323181 156.0
127.399551 112.0
127.446495 112.0
127.481621 164.0
127.541122 112.0
127.57077 252.0
127.58548 180.0
127.663414 244.0
127.738243 192.0
127.771378 212.0
127.804237 128.0
127.820496 124.0
127.851494 132.0
127.904945 80.0
127.925331 184.0
127.931915 148.0
127.979805 164.0
128.002319 160.0
128.022583 44.0
128.05101 164.0
128.101486 128.0
128.135208 60.0
128.165833 164.0
128.230042 144.0
128.256561 188.0
128.321701 176.0
128.383209 180.0
128.446304 176.0
128.480148 152.0
128.538803 180.0
128.606293 208.0
128.636505 156.0
128.66745 132.0
128.696808 64.0
128.744232 180.0
128.766815 160.0
128.784882 216.0
128.818756 164.0
128.888794 140.0
128.941513 148.0
128.988235 368.0
129.012253 276.0
129.087723 100.0
129.123901 84.0
129.187241 276.0
129.237 104.0
129.28862 376.0
129.321594 168.0
129.436417 204.0
129.486008 312.0
129.542633 192.0
129.56076 232.0
129.57663 104.0
129.592484 84.0
129.611954 228.0
129.64769 232.0
129.680954 172.0
129.696289 104.0
129.740189 256.0
129.771774 116.0
129.794205 320.0
129.891724 88.0
129.909882 196.0
129.930588 216.0
129.957718 140.0
129.987991 208.0
130.009705 52.0
130.025604 228.0
130.064972 676.0
130.091522 96.0
130.124146 136.0
130.166351 180.0
130.200775 124.0
130.304901 168.0
130.325348 164.0
130.349197 208.0
130.375336 192.0
130.411972 196.0
130.445633 168.0
130.48671 64.0
130.532547 180.0
130.554932 140.0
130.586777 100.0
130.618607 220.0
130.670761 156.0
130.705063 124.0
130.753723 136.0
130.800644 180.0
130.825699 112.0
130.876831 112.0
130.919037 284.0
130.948654 156.0
130.966171 156.0
131.025238 224.0
131.071945 464.0
131.094452 128.0
131.114044 168.0
131.118652 232.0
131.162827 204.0
131.215256 140.0
131.256302 196.0
131.30191 128.0
131.379456 28.0
131.466171 28.0
131.48671 168.0
131.579071 200.0
131.608185 204.0
131.648727 160.0
131.707047 196.0
131.780319 268.0
131.815552 112.0
131.872284 180.0
131.896118 224.0
131.913834 140.0
131.975555 288.0
131.998077 132.0
132.090042 204.0
132.121933 156.0
132.163116 120.0
132.184875 144.0
132.246002 144.0
132.28212 44.0
132.345612 228.0
132.415329 180.0
132.474472 156.0
132.493088 156.0
132.519562 212.0
132.568573 168.0
132.598206 72.0
132.655258 180.0
132.715118 196.0
132.734909 276.0
132.754089 172.0
132.772446 148.0
132.823196 152.0
132.844147 152.0
132.887131 152.0
132.928436 340.0
132.969742 140.0
132.988098 196.0
133.011246 200.0
133.084015 144.0
133.109573 172.0
133.130447 104.0
133.162598 168.0
133.209488 192.0
133.258774 120.0
133.283783 144.0
133.316071 164.0
133.380875 184.0
133.417908 296.0
133.44281 128.0
133.491226 120.0
133.508621 92.0
133.523422 144.0
133.551025 72.0
133.585526 132.0
133.610321 160.0
133.63385 124.0
133.649948 208.0
133.682159 124.0
133.70784 180.0
133.737396 148.0
133.755768 176.0
133.791122 120.0
133.854813 164.0
133.891663 136.0
133.926208 200.0
133.949234 196.0
133.974579 212.0
134.060211 2104.0
134.09613 96.0
134.112839 244.0
134.16124 180.0
134.176285 96.0
134.194397 232.0
134.216583 148.0
134.274231 172.0
134.332901 304.0
134.354492 160.0
134.375305 196.0
134.401108 164.0
134.434677 172.0
134.457199 220.0
134.485809 172.0
134.508881 172.0
134.538742 144.0
134.571899 108.0
134.60463 232.0
134.634216 260.0
134.637863 256.0
134.671143 252.0
134.718109 328.0
134.752838 428.0
134.785477 324.0
134.808273 344.0
134.832474 260.0
134.84787 144.0
134.878616 316.0
134.898956 376.0
134.947723 436.0
134.976639 692.0
135.04631 228280.0
135.098358 156.0
135.116577 224.0
135.160141 216.0
135.166885 208.0
135.176056 116.0
135.201645 172.0
135.237961 64.0
135.261581 492.0
135.295212 224.0
135.311188 240.0
135.330536 356.0
135.34903 204.0
135.363251 176.0
135.40062 780.0
135.428589 3616.0
135.488632 200.0
135.510925 100.0
135.533203 200.0
135.57785 200.0
135.615829 208.0
135.645218 104.0
135.65329 116.0
135.69812 52.0
135.707932 40.0
135.728607 88.0
135.749115 176.0
135.753662 128.0
135.785812 180.0
135.805038 64.0
135.813293 76.0
135.837067 100.0
135.882812 60.0
135.942871 252.0
135.986877 264.0
136.014572 168.0
136.048782 29956.0
136.120743 136.0
136.156677 136.0
136.192596 80.0
136.214462 172.0
136.237076 168.0
136.264954 44.0
136.28894 88.0
136.305206 260.0
136.31987 120.0
136.355774 148.0
136.406036 96.0
136.428513 212.0
136.447327 60.0
136.498749 124.0
136.528915 136.0
136.546234 216.0
136.594833 196.0
136.645218 36.0
136.669235 64.0
136.692795 124.0
136.732605 220.0
136.75238 152.0
136.784302 112.0
136.811493 144.0
136.842117 104.0
136.849792 248.0
136.885803 92.0
136.897217 44.0
136.91658 328.0
136.953415 140.0
136.98584 152.0
137.015991 204.0
137.05098 2072.0
137.120377 88.0
137.145859 256.0
137.173599 92.0
137.208588 212.0
137.236404 140.0
137.271896 136.0
137.300583 112.0
137.314865 260.0
137.349777 64.0
137.391769 96.0
137.424438 76.0
137.473434 152.0
137.532852 100.0
137.555115 64.0
137.598083 240.0
137.6147 100.0
137.660187 52.0
137.681198 40.0
137.716232 152.0
137.741928 28.0
137.76152 72.0
137.777557 144.0
137.7966 100.0
137.82695 184.0
137.845795 132.0
137.870056 200.0
137.909729 64.0
137.965515 100.0
137.988937 80.0
138.010895 3248.0
138.050171 140.0
138.096619 204.0
138.117508 208.0
138.152176 120.0
138.188446 140.0
138.203018 136.0
138.228226 52.0
138.268204 204.0
138.293747 44.0
138.310135 180.0
138.325714 144.0
138.354614 40.0
138.378021 56.0
138.396759 104.0
138.481049 108.0
138.541962 56.0
138.596756 120.0
138.638031 120.0
138.659119 108.0
138.678391 108.0
138.727097 248.0
138.751953 312.0
138.797424 44.0
138.817459 96.0
138.863083 52.0
138.884201 96.0
138.902969 116.0
139.013641 412.0
139.067215 28.0
139.159439 116.0
139.192032 300.0
139.217133 144.0
139.250336 108.0
139.383621 196.0
139.428894 124.0
139.447693 72.0
139.50647 40.0
139.680481 56.0
139.741257 200.0
139.800781 244.0
139.850571 116.0
139.932281 60.0
139.967606 112.0
140.008865 1088.0
140.149567 260.0
140.210236 108.0
140.25737 132.0
140.280945 192.0
140.299805 72.0
140.344742 140.0
140.36351 152.0
140.387039 120.0
140.435364 140.0
140.454681 212.0
140.52858 204.0
140.606445 108.0
140.644211 68.0
140.670166 128.0
140.750443 88.0
140.790588 80.0
140.809418 136.0
140.86409 164.0
140.892151 88.0
140.925232 200.0
140.946487 184.0
140.965393 160.0
141.00415 260.0
141.034698 300.0
141.052841 224.0
141.15451 132.0
141.175797 160.0
141.192337 76.0
141.220718 152.0
141.250671 224.0
141.275131 68.0
141.301147 128.0
141.362671 148.0
141.380508 156.0
141.428314 152.0
141.526001 120.0
141.559143 212.0
141.630203 120.0
141.663361 96.0
141.703629 60.0
141.760498 204.0
141.784195 192.0
141.886124 84.0
141.933548 92.0
141.966736 60.0
141.999939 32.0
142.023666 108.0
142.078613 168.0
142.101944 124.0
142.125671 80.0
142.177872 132.0
142.223648 168.0
142.263321 32.0
142.331985 148.0
142.38205 160.0
142.515076 180.0
142.532791 184.0
142.562592 36.0
142.581604 60.0
142.600616 136.0
142.62439 156.0
142.666077 172.0
142.702835 48.0
142.767044 52.0
142.845993 164.0
142.893112 216.0
142.919281 172.0
142.990677 152.0
143.012085 92.0
143.04303 172.0
143.076324 184.0
143.126358 76.0
143.22876 120.0
143.297104 116.0
143.324799 180.0
143.40509 80.0
143.436768 108.0
143.459915 80.0
143.485489 104.0
143.554047 140.0
143.624863 208.0
143.747665 272.0
143.789078 112.0
143.841583 48.0
143.879776 92.0
143.900146 128.0
143.929916 56.0
144.000229 144.0
144.025436 128.0
144.082367 280.0
144.208237 136.0
144.228546 100.0
144.251328 188.0
144.294159 152.0
144.392654 176.0
144.527481 108.0
144.565765 76.0
144.644745 132.0
144.723755 40.0
144.747192 116.0
144.912964 64.0
144.966995 172.0
145.088791 296.0
145.111893 168.0
145.159851 180.0
145.179031 228.0
145.198212 200.0
145.227005 96.0
145.253387 128.0
145.308563 76.0
145.325348 212.0
145.353424 424.0
145.370941 192.0
145.394943 100.0
145.465912 204.0
145.498154 204.0
145.565384 220.0
145.602051 208.0
145.630234 120.0
145.678268 28.0
145.704697 108.0
145.733521 184.0
145.754974 160.0
145.805618 136.0
145.832047 100.0
145.876114 304.0
145.981598 156.0
146.048447 140.0
146.096069 176.0
146.209641 84.0
146.228897 148.0
146.248154 148.0
146.344543 188.0
146.363708 196.0
146.402237 136.0
146.438354 56.0
146.46875 156.0
146.522675 76.0
146.55365 216.0
146.592545 108.0
146.745972 148.0
146.798172 156.0
146.864975 132.0
146.881866 116.0
146.962112 164.0
146.996201 152.0
147.171463 36.0
147.190781 96.0
147.207672 184.0
147.23999 148.0
147.292206 96.0
147.350189 116.0
147.393677 172.0
147.46376 152.0
147.480682 84.0
147.509949 144.0
147.613266 180.0
147.645081 168.0
147.766022 28.0
147.824097 140.0
148.075699 304.0
148.097107 176.0
148.129166 76.0
148.148544 144.0
148.243744 148.0
148.29393 184.0
148.318161 136.0
148.344833 148.0
148.412643 164.0
148.468475 144.0
148.640717 104.0
148.744873 236.0
148.75177 216.0
148.760223 184.0
148.827621 212.0
148.882568 232.0
148.972672 220.0
148.994965 120.0
149.001678 108.0
149.063232 188.0
149.184753 164.0
149.213928 72.0
149.258698 164.0
149.300827 96.0
149.385788 168.0
149.420975 152.0
149.513123 212.0
149.53746 164.0
149.573959 44.0
149.647003 76.0
149.67865 132.0
149.698135 180.0
149.75415 120.0
149.856461 124.0
149.875946 440.0
149.962051 208.0
150.007553 132.0
150.070938 164.0
150.091858 124.0
150.143692 192.0
150.25386 184.0
150.292892 48.0
150.339264 48.0
150.368546 76.0
150.439331 196.0
150.461777 184.0
150.500366 144.0
150.554092 208.0
150.607819 112.0
150.738739 164.0
150.815506 36.0
150.844833 40.0
150.930405 96.0
151.033127 172.0
151.25882 272.0
151.326233 160.0
151.509369 204.0
151.547211 152.0
151.584488 172.0
151.637878 168.0
151.675812 152.0
151.748199 80.0
151.775925 104.0
151.858551 116.0
151.915161 148.0
151.968933 184.0
152.003281 80.0
152.02681 332.0
152.047455 144.0
152.082916 268.0
152.140732 148.0
152.245895 168.0
152.337875 188.0
152.460632 168.0
152.531311 100.0
152.547424 80.0
152.578018 136.0
152.614899 128.0
152.700974 208.0
152.730713 176.0
152.779678 80.0
152.796906 204.0
152.860123 168.0
152.971634 104.0
153.01268 172.0
153.029312 232.0
153.058105 164.0
153.114441 180.0
153.152283 76.0
153.210495 180.0
153.235138 148.0
153.25238 76.0
153.281952 152.0
153.407654 136.0
153.454895 124.0
153.553131 276.0
153.636963 172.0
153.684097 188.0
153.812195 180.0
153.855209 180.0
153.898605 116.0
153.935638 96.0
153.959335 168.0
154.009018 152.0
154.042984 2504.0
154.210449 84.0
154.441422 232.0
154.44931 152.0
154.457993 208.0
154.540161 204.0
154.596878 164.0
154.630325 204.0
154.782257 192.0
154.84819 172.0
154.871445 92.0
154.902679 80.0
154.962143 188.0
155.033997 32.0
155.055145 160.0
155.105865 108.0
155.138092 120.0
155.24968 80.0
155.294312 112.0
155.351364 216.0
155.463013 176.0
155.530029 160.0
155.547409 60.0
155.624359 264.0
155.698853 408.0
155.751022 172.0
155.916595 248.0
155.967194 140.0
156.039337 1088.0
156.10144 144.0
156.183517 120.0
156.208389 140.0
156.240723 172.0
156.258148 144.0
156.306168 168.0
156.634048 164.0
156.758621 184.0
156.776062 176.0
156.796005 216.0
156.813446 76.0
156.885727 156.0
156.915649 220.0
156.963028 168.0
157.020889 116.0
157.043472 124.0
157.145096 108.0
157.182526 224.0
157.205963 296.0
157.334778 140.0
157.402191 176.0
157.447144 176.0
157.484604 92.0
157.510834 160.0
157.587021 148.0
157.786972 164.0
157.819473 160.0
157.859482 192.0
157.942017 180.0
157.984528 204.0
158.044586 64.0
158.097122 148.0
158.157532 152.0
158.179718 340.0
158.217697 120.0
158.254822 304.0
158.287384 188.0
158.311371 140.0
158.340195 220.0
158.382553 208.0
158.517838 92.0
158.577972 108.0
158.690781 116.0
158.720871 224.0
158.776047 76.0
158.81868 136.0
158.973495 164.0
158.977341 116.0
159.090958 504.0
159.13237 180.0
159.157471 192.0
159.217743 176.0
159.278015 152.0
159.320724 80.0
159.409882 140.0
159.516678 204.0
159.537811 136.0
159.599701 112.0
159.652512 180.0
159.720413 108.0
159.743057 48.0
159.783295 168.0
159.809158 160.0
159.873886 148.0
159.906601 148.0
159.931778 40.0
160.0522 244.0
160.100449 356.0
160.158386 116.0
160.193649 156.0
160.23143 112.0
160.271744 160.0
160.294434 128.0
160.34021 164.0
160.363831 216.0
160.435562 124.0
160.554077 112.0
160.743271 156.0
160.781128 152.0
160.824036 132.0
160.849274 176.0
160.907333 148.0
161.041168 108.0
161.084213 200.0
161.12706 60.0
161.147278 180.0
161.235718 140.0
161.316895 168.0
161.336823 220.0
161.407608 160.0
161.453125 72.0
161.536591 44.0
161.658035 176.0
161.718781 52.0
161.847198 88.0
161.870682 124.0
161.987183 60.0
162.011856 292.0
162.11647 460.0
162.183319 168.0
162.225388 156.0
162.271439 96.0
162.34201 148.0
162.506882 76.0
162.666763 216.0
162.76532 196.0
162.836884 128.0
162.854675 252.0
162.928909 192.0
163.062973 5304.0
163.113846 148.0
163.140457 144.0
163.164688 108.0
163.197739 180.0
163.266388 248.0
163.431732 216.0
163.481995 128.0
163.500443 84.0
163.541168 104.0
163.613419 188.0
163.655716 172.0
163.696457 64.0
163.734665 148.0
163.780502 100.0
163.823807 120.0
163.939606 108.0
163.977966 232.0
164.025955 172.0
164.067093 568.0
164.14061 212.0
164.175552 168.0
164.211258 144.0
164.435776 60.0
164.47406 116.0
164.535324 132.0
164.606812 136.0
164.640015 196.0
164.683426 84.0
164.770279 108.0
164.803497 156.0
164.969879 116.0
165.005402 76.0
165.031311 60.0
165.065353 128.0
165.148605 52.0
165.23558 220.0
165.361435 240.0
165.422394 108.0
165.455673 140.0
165.478714 48.0
165.508453 160.0
165.573456 176.0
165.630859 244.0
165.652863 208.0
165.678482 124.0
165.778412 164.0
165.824539 156.0
165.915131 152.0
165.947586 184.0
165.982086 148.0
166.042953 5008.0
166.087402 100.0
166.129669 216.0
166.23999 172.0
166.304153 128.0
166.414536 220.0
166.496719 60.0
166.63028 180.0
166.691956 176.0
166.794571 112.0
166.897583 104.0
166.915588 148.0
166.946442 124.0
166.969589 168.0
167.042648 516.0
167.075043 152.0
167.131653 52.0
167.177963 112.0
167.318436 112.0
167.330826 104.0
167.386475 108.0
167.43541 140.0
167.466309 140.0
167.517822 220.0
167.58107 160.0
167.669479 232.0
167.725845 116.0
167.852875 148.0
167.903198 172.0
167.943146 176.0
167.999893 184.0
168.038559 1572.0
168.088898 148.0
168.139221 60.0
168.162445 176.0
168.180511 124.0
168.242477 116.0
168.299271 140.0
168.325089 172.0
168.371567 116.0
168.450012 108.0
168.485229 116.0
168.50589 96.0
168.619354 132.0
168.642853 124.0
168.728149 104.0
168.782455 124.0
168.803986 160.0
168.841202 200.0
168.848618 144.0
169.053177 468.0
169.095474 160.0
169.121353 176.0
169.178299 204.0
169.217133 176.0
169.253387 180.0
169.345932 228.0
169.421722 132.0
169.479752 212.0
169.551285 172.0
169.577148 180.0
169.644592 136.0
169.748306 384.0
169.820923 192.0
169.883179 144.0
170.06221 96.0
170.088165 188.0
170.121918 144.0
170.145279 184.0
170.197205 128.0
170.295441 184.0
170.329651 92.0
170.363419 148.0
170.381607 128.0
170.401688 192.0
170.488144 156.0
170.567139 168.0
170.589508 236.0
170.728775 184.0
170.77153 176.0
170.789658 140.0
170.833954 124.0
170.87558 160.0
170.932816 152.0
171.044724 184.0
171.085236 180.0
171.131134 168.0
171.314407 184.0
171.380676 128.0
171.40152 212.0
171.487518 52.0
171.523499 164.0
171.65802 272.0
171.865646 188.0
172.071838 64.0
172.197189 188.0
172.244202 96.0
172.377441 108.0
172.500275 176.0
172.607147 164.0
172.654541 100.0
172.82196 108.0
172.926636 112.0
172.960403 164.0
173.015121 184.0
173.034714 208.0
173.08371 124.0
173.107529 368.0
173.131958 172.0
173.160172 100.0
173.225128 156.0
173.28801 136.0
173.398056 132.0
173.468826 140.0
173.586807 164.0
173.605164 136.0
173.634018 204.0
173.746811 220.0
173.774033 116.0
173.922623 184.0
174.113663 152.0
174.149216 120.0
174.182571 88.0
174.250885 132.0
174.33783 180.0
174.384888 216.0
174.4319 172.0
174.441895 152.0
174.503189 168.0
174.561035 108.0
174.587326 168.0
174.612869 180.0
174.789352 196.0
174.859558 116.0
174.887253 68.0
174.9478 188.0
175.034683 136.0
175.063019 168.0
175.084717 160.0
175.121597 232.0
175.155838 200.0
175.248032 100.0
175.29837 140.0
175.335892 192.0
175.370605 172.0
175.445694 108.0
175.495789 44.0
175.540619 172.0
175.651382 220.0
175.70047 152.0
175.729599 204.0
175.751648 132.0
175.822891 196.0
175.865112 128.0
175.936386 132.0
175.970703 160.0
175.991837 164.0
176.012955 164.0
176.131805 164.0
176.158218 136.0
176.221619 220.0
176.331741 160.0
176.353745 128.0
176.403976 80.0
176.464172 148.0
176.562607 80.0
176.588318 156.0
176.631378 40.0
176.671066 152.0
176.708099 296.0
176.749969 92.0
176.771606 108.0
176.798065 164.0
176.837769 104.0
176.870544 156.0
176.89743 184.0
176.951584 148.0
176.975342 232.0
177.007187 108.0
177.029892 148.0
177.056885 132.0
177.099548 240.0
177.141098 208.0
177.167938 104.0
177.200546 104.0
177.228485 120.0
177.248581 92.0
177.272095 160.0
177.308014 180.0
177.317657 196.0
177.374146 180.0
177.445541 192.0
177.473541 88.0
177.527771 292.0
177.567337 108.0
177.602936 172.0
177.616913 404.0
177.653778 196.0
177.693283 316.0
177.724945 184.0
177.760498 164.0
177.794968 284.0
177.815308 380.0
177.840607 340.0
177.871185 192.0
177.897278 416.0
177.904587 336.0
177.940964 404.0
177.959808 232.0
177.971954 280.0
177.979706 316.0
178.005402 296.0
178.02417 856.0
178.044113 668.0
178.088486 332128.0
178.173492 216.0
178.191757 128.0
178.218262 148.0
178.260452 164.0
178.279419 264.0
178.335419 468.0
178.384018 188.0
178.412857 280.0
178.463913 84.0
178.494629 548.0
178.525558 6372.0
178.559128 392.0
178.594254 260.0
178.624207 228.0
178.661194 240.0
178.688263 172.0
178.730667 268.0
178.750656 208.0
178.79689 228.0
178.840958 136.0
178.860962 64.0
178.88942 164.0
178.923752 84.0
178.962631 180.0
178.987183 188.0
179.035797 892.0
179.091125 44948.0
179.182678 124.0
179.213638 136.0
179.246582 88.0
179.294662 216.0
179.335922 184.0
179.366394 144.0
179.397797 232.0
179.448029 184.0
179.487259 36.0
179.531494 52.0
179.557297 76.0
179.56282 84.0
179.575409 72.0
179.586258 56.0
179.632217 152.0
179.651855 120.0
179.676102 164.0
179.71254 116.0
179.762009 88.0
179.798096 56.0
179.825165 44.0
179.846054 140.0
179.871155 88.0
179.93811 128.0
179.946625 80.0
179.998367 228.0
180.035995 200.0
180.05925 660.0
180.063324 268.0
180.091858 3124.0
180.125488 168.0
180.167938 172.0
180.191406 112.0
180.230804 148.0
180.265366 176.0
180.27887 180.0
180.321808 200.0
180.329422 140.0
180.336594 308.0
180.371368 304.0
180.399567 296.0
180.419449 280.0
180.439087 284.0
180.4646 184.0
180.498993 168.0
180.553558 168.0
180.573074 172.0
180.6064 92.0
180.628159 92.0
180.719421 56.0
180.726974 60.0
180.790649 108.0
180.8134 100.0
180.846161 32.0
180.891663 60.0
180.956848 68.0
180.978821 72.0
181.00946 100.0
181.034317 316.0
181.061951 80.0
181.09433 284.0
181.139511 100.0
181.163651 84.0
181.204987 60.0
181.262863 120.0
181.381851 48.0
181.416443 124.0
181.421021 112.0
181.459 88.0
181.513229 56.0
181.554794 192.0
181.575439 100.0
181.613541 64.0
181.700974 64.0
181.829773 48.0
181.96936 96.0
181.99353 56.0
182.055603 288.0
182.102081 76.0
182.125107 40.0
182.16272 64.0
182.193939 308.0
182.246002 44.0
182.272873 64.0
182.297058 96.0
182.376846 192.0
182.431778 32.0
182.452957 88.0
182.471771 68.0
182.62236 28.0
182.64119 48.0
182.783768 44.0
182.853745 56.0
182.9991 60.0
183.028717 120.0
183.128357 44.0
183.171463 80.0
183.214554 104.0
183.44632 84.0
183.500229 144.0
183.630463 96.0
183.680923 44.0
183.815811 48.0
184.077652 56.0
184.272125 44.0
184.326172 144.0
184.46109 104.0
184.902176 132.0
185.46553 76.0
185.823486 76.0
185.882385 96.0
185.91304 80.0
186.008026 64.0
186.374664 32.0
186.524139 28.0
186.624725 128.0
186.670944 120.0
186.812378 76.0
186.847748 72.0
186.915756 88.0
186.996124 68.0
187.012665 92.0
187.100845 128.0
187.125351 72.0
187.275436 68.0
187.4086 44.0
187.659348 76.0
187.683899 28.0
187.724792 72.0
187.855713 80.0
187.940292 148.0
187.964844 108.0
188.129471 456.0
188.164093 64.0
188.221436 108.0
188.311554 56.0
188.347061 124.0
188.377106 76.0
188.415344 104.0
188.510986 56.0
188.634933 68.0
188.685913 132.0
188.814423 180.0
188.844513 96.0
188.891006 76.0
188.921997 208.0
189.000443 52.0
189.137283 136.0
189.49054 28.0
189.717773 48.0
189.830887 120.0
189.877045 80.0
189.909958 80.0
190.026108 144.0
190.077301 64.0
190.154144 68.0
190.285904 100.0
190.343567 80.0
190.362778 112.0
190.398483 28.0
190.450668 72.0
190.49736 96.0
190.645737 72.0
190.778305 104.0
190.8629 108.0
190.909637 64.0
191.173737 96.0
191.314102 136.0
191.41597 104.0
191.595001 144.0
191.636322 116.0
191.663879 44.0
191.961578 32.0
192.039719 108.0
192.143631 84.0
192.322998 32.0
192.507965 68.0
192.546631 112.0
192.640533 204.0
192.77774 152.0
192.966644 144.0
193.05162 860.0
193.118744 84.0
193.353195 128.0
193.819138 60.0
194.061371 4116.0
194.138168 44.0
194.234985 72.0
194.25441 56.0
194.318207 36.0
194.398682 40.0
194.478241 40.0
194.609634 52.0
194.723495 40.0
194.851273 152.0
194.901276 116.0
194.940186 60.0
195.063416 1016.0
195.140305 56.0
195.165329 68.0
195.396179 72.0
195.526962 48.0
195.565933 48.0
195.588196 60.0
196.058365 1516.0
196.100052 52.0
196.373917 64.0
196.566422 56.0
196.585953 104.0
196.745041 52.0
197.084106 2124.0
197.233902 88.0
197.533096 100.0
197.885712 76.0
197.992111 96.0
198.090485 556.0
198.129364 188.0
198.311508 48.0
198.350754 92.0
198.493729 104.0
198.513351 64.0
198.796692 180.0
198.920181 64.0
199.081894 1044.0
199.111099 180.0
199.408905 84.0
199.57196 124.0
199.707825 152.0
199.760391 84.0
199.985489 140.0
200.086823 124.0
200.340286 68.0
200.452988 68.0
200.729233 80.0
200.751785 40.0
200.819473 72.0
200.864609 44.0
201.045868 148.0
201.239944 92.0
201.530869 52.0
201.723038 80.0
201.790894 36.0
201.819168 88.0
202.385056 44.0
202.535141 148.0
202.801483 104.0
203.263748 72.0
203.340378 84.0
203.641327 48.0
203.746429 128.0
203.806091 60.0
203.888489 48.0
204.525589 32.0
205.759918 172.0
206.108368 180.0
207.06691 232.0
207.112518 164.0
207.413391 148.0
207.576797 84.0
207.61409 72.0
207.812012 68.0
207.92392 120.0
208.077133 544.0
208.14209 56.0
208.377609 76.0
208.469559 80.0
208.544281 44.0
208.788666 84.0
209.062683 80.0
209.088028 188.0
209.467926 100.0
210.073273 156.0
210.093475 360.0
210.295456 100.0
210.902008 108.0
211.110168 96.0
211.451538 172.0
213.116043 76.0
214.54213 152.0
216.933426 156.0
219.281967 64.0
219.700684 104.0
221.084381 340.0
221.139709 152.0
222.001831 128.0
222.031479 92.0
222.075974 152.0
222.423126 56.0
223.101639 6144.0
223.385895 92.0
223.832321 116.0
223.88295 48.0
224.104218 744.0
224.225555 36.0
224.261322 76.0
224.493866 52.0
224.628067 84.0
224.875732 32.0
224.968262 60.0
225.097931 1496.0
225.144424 44.0
225.19519 112.0
225.709213 108.0
225.877991 92.0
226.098328 180.0
226.640106 164.0
227.137756 80.0
228.106339 100.0
228.703232 92.0
228.859772 76.0
229.061554 72.0
229.097702 40.0
229.299591 60.0
229.411102 72.0
230.08989 128.0
231.641251 76.0
232.335449 112.0
232.356689 80.0
232.414337 84.0
233.997864 68.0
235.092133 156.0
235.574539 92.0
237.021667 120.0
237.214752 116.0
238.101486 132.0
238.184418 60.0
238.235779 72.0
238.937561 36.0
239.100647 116.0
239.165283 68.0
239.473175 52.0
239.534775 120.0
241.0867 152.0
241.674225 32.0
241.965164 144.0
242.538254 100.0
244.267807 68.0
245.916107 48.0
246.856461 84.0
246.969055 84.0
247.169266 88.0
247.250626 52.0
247.667038 92.0
249.131943 128.0
249.684952 64.0
249.890762 84.0
251.004623 72.0
251.036148 120.0
251.487305 68.0
253.226242 116.0
253.986938 60.0
254.364532 88.0
255.114227 52.0
256.116577 28.0
257.277313 80.0
257.493896 48.0
258.440643 52.0
258.555847 104.0
258.827942 44.0
262.126862 56.0
262.304108 100.0
262.865295 52.0
263.365692 44.0
263.743744 172.0
264.542725 108.0
265.498535 48.0
266.108582 136.0
266.2612 88.0
267.096497 132.0
267.174561 64.0
267.5 32.0
267.770233 68.0
268.043884 80.0
270.709442 48.0
271.263153 44.0
271.292633 76.0
271.505768 96.0
274.303802 48.0
274.656616 40.0
275.049255 100.0
275.326599 48.0
276.248779 76.0
277.387909 60.0
277.450897 52.0
277.994843 120.0
278.184021 56.0
278.406494 44.0
278.675537 36.0
278.918152 40.0
279.041138 40.0
279.413635 84.0
282.024689 72.0
282.118256 156.0
283.339783 60.0
284.097412 60.0
285.615753 80.0
285.8479 124.0
286.979645 32.0
287.715149 60.0
288.084503 128.0
288.931793 44.0
289.080658 68.0
289.869659 176.0
290.174713 176.0
290.724213 40.0
291.206299 52.0
292.341797 48.0
296.919617 80.0
297.478882 60.0
298.169281 108.0
298.636871 124.0
298.987793 80.0
299.33548 80.0
299.938385 40.0
300.559143 88.0
301.329102 68.0
301.591736 136.0
302.411469 80.0
303.048645 64.0
303.464569 100.0
304.498657 48.0
305.381439 48.0
306.119232 80.0
307.583527 156.0
308.351959 76.0
308.663086 60.0
308.778473 76.0
310.333252 52.0
311.466766 96.0
311.558105 96.0
312.233002 188.0
312.67627 56.0
312.827606 92.0
319.164093 72.0
319.427277 100.0
320.281555 168.0
320.880249 100.0
325.133301 72.0
326.214447 112.0
327.08493 48.0
329.587799 44.0
329.941986 52.0
330.09024 88.0
330.383209 148.0
331.83548 44.0
331.951508 40.0
332.234406 80.0
332.328735 112.0
334.363678 168.0
336.361023 76.0
338.987 132.0
339.771637 60.0
339.874359 56.0
341.222321 128.0
341.288483 56.0
343.826569 36.0
344.731323 44.0
345.052887 116.0
352.086975 100.0
353.185791 76.0
353.406525 92.0
353.702179 76.0
354.054108 68.0
354.953491 104.0
355.662537 84.0
356.161926 108.0
358.558594 52.0
358.882782 60.0
359.369354 60.0
359.595764 60.0
362.720001 84.0
365.26413 120.0
366.962585 56.0
369.177277 104.0
370.049683 92.0
370.666351 40.0
372.388855 68.0
372.807617 64.0
373.629303 68.0
373.992157 144.0
374.163483 1976.0
374.217682 48.0
374.469604 76.0
374.531219 132.0
374.781616 56.0
375.16272 552.0
375.876709 88.0
376.162201 504.0
376.339874 64.0
376.525238 48.0
377.163422 324.0
377.209137 160.0
377.305756 148.0
377.73114 56.0
377.765961 88.0
378.168365 60.0
378.485809 60.0
379.842255 76.0
381.290497 60.0
382.099304 72.0
383.532349 80.0
384.230347 108.0
385.159424 88.0
389.943481 80.0
391.32666 80.0
391.544708 136.0
392.557526 60.0
394.650299 68.0
394.772858 124.0
396.364166 48.0
400.499817 72.0
401.23703 116.0
402.509796 108.0
403.372772 80.0
404.060608 108.0
404.116608 76.0
405.169556 76.0
408.763062 76.0
409.117249 96.0
409.16153 84.0
414.691559 60.0
415.453888 28.0
415.61618 76.0
415.65271 84.0
416.078857 92.0
417.789795 116.0
418.18042 108.0
418.664917 68.0
420.311768 64.0
420.785217 68.0
420.985321 52.0
422.669464 44.0
424.298767 100.0
426.730072 76.0
429.996674 112.0
430.805969 76.0
431.628448 60.0
431.913788 84.0
433.619659 72.0
434.901245 92.0
441.567566 68.0
445.566498 104.0
445.801788 80.0
447.059174 48.0
448.971741 84.0
449.182648 72.0
449.798706 96.0
454.407227 80.0
455.536499 60.0
455.702179 72.0
457.203186 104.0
457.245758 52.0
457.594818 36.0
465.032898 40.0
465.870209 84.0
468.998535 64.0
470.564453 40.0
470.81488 80.0
471.56662 76.0
471.683319 64.0
473.275391 36.0
477.506409 108.0
479.182312 68.0
480.232849 68.0
480.411713 112.0
480.468414 68.0
480.516418 100.0
482.162598 48.0
487.377319 36.0
490.268372 128.0
499.708923 72.0
501.855713 80.0
505.035309 32.0
508.678223 64.0
510.740692 64.0
512.667664 120.0
516.53241 60.0
516.582214 104.0
517.582397 108.0
517.976379 92.0
519.404236 80.0
521.53833 120.0
524.287292 80.0
526.394836 148.0
529.206909 92.0
532.632629 44.0
533.032349 40.0
534.226074 88.0
534.931824 48.0
535.636353 164.0
535.834412 44.0
537.023743 104.0
542.707153 44.0
544.326538 128.0
545.35321 96.0
546.194824 84.0
547.158081 68.0
548.77478 44.0
554.754211 56.0
554.852661 80.0
562.903198 56.0
562.988159 76.0
564.070129 64.0
565.389709 92.0
567.393372 112.0
567.696777 92.0
568.564941 48.0
571.322021 80.0
575.385986 80.0
578.067383 72.0
579.111023 60.0
580.932495 104.0
583.275879 72.0
583.46814 136.0
586.442993 88.0
586.87207 84.0
588.097351 60.0
603.599854 28.0
613.083923 84.0
614.030518 68.0
615.743042 112.0
616.325928 64.0
617.304688 84.0
622.98468 156.0
624.530579 80.0
630.313599 88.0
631.738464 80.0
633.53064 48.0
634.096863 64.0
636.931641 116.0
639.566406 80.0
649.231506 224.0
650.977234 96.0
652.30835 76.0
655.9021 100.0
657.421936 48.0
659.229675 64.0
665.329956 56.0
670.853271 156.0
683.976257 28.0
704.849792 44.0
706.943787 88.0
706.996704 148.0
708.993225 56.0
710.180847 52.0
717.289917 216.0
724.413025 52.0
730.258362 128.0
731.038452 36.0
738.029236 96.0
739.332886 84.0
749.765381 76.0
751.341187 204.0
755.159424 60.0
756.686157 64.0
757.540466 176.0
759.349304 180.0
761.352417 56.0
763.088806 64.0
764.425415 52.0
766.550964 44.0
767.284058 92.0
770.562317 116.0
771.872253 144.0
773.548584 232.0
775.304382 160.0
777.028809 140.0
777.417236 184.0
777.483826 40.0
779.82196 148.0
780.05542 60.0
781.501404 68.0
785.947693 128.0
786.053711 116.0
786.37738 132.0
790.361877 156.0
793.083557 220.0
793.268555 80.0
810.044312 92.0
814.769836 152.0
816.077026 120.0
816.463684 104.0
820.255615 84.0
821.418884 124.0
831.408691 68.0
832.442017 180.0
835.787415 144.0
837.001953 88.0
838.66687 140.0
839.57782 96.0
841.759155 60.0
848.853516 68.0
849.445068 76.0
850.623047 80.0
851.366211 156.0
851.859863 68.0
854.539917 208.0
854.638855 140.0
855.599182 156.0
857.369873 136.0
857.99353 140.0
858.769104 36.0
859.860107 96.0
861.074463 200.0
861.238037 204.0
861.7229 196.0
863.868408 220.0
864.816345 124.0
865.384155 144.0
866.807495 204.0
868.026733 160.0
868.531128 96.0
868.654297 120.0
869.199951 72.0
873.688721 72.0
874.318298 96.0
879.121216 160.0
879.704651 140.0
880.006592 184.0
880.124695 172.0
882.127502 104.0
886.252441 204.0
886.359131 108.0
886.536865 64.0
886.908875 156.0
887.420105 172.0
888.024963 64.0
888.861389 144.0
888.968201 240.0
889.825745 156.0
892.258789 164.0
893.555298 128.0
894.162231 140.0
895.96051 136.0
897.116638 96.0
897.247742 116.0
897.718811 104.0
898.094543 72.0
898.297363 56.0
900.028076 232.0
901.885986 72.0
901.993591 156.0
903.913391 108.0
904.559753 228.0
905.847229 92.0
905.943054 200.0
906.662048 192.0
906.817871 76.0
907.345398 164.0
908.436829 96.0
908.502808 164.0
908.592834 84.0
909.432922 172.0
909.727051 76.0
910.585693 112.0
913.591064 244.0
915.414795 88.0
916.113464 132.0
920.781982 136.0
920.884705 132.0
922.111145 200.0
925.474548 68.0
925.934753 164.0
926.4375 120.0
926.691956 128.0
927.989014 240.0
929.56604 136.0
929.863403 80.0
930.409729 96.0
931.502808 148.0
932.46283 112.0
932.6026 100.0
932.894348 244.0
933.52063 180.0
933.873352 160.0
935.832825 180.0
935.88501 168.0
936.27124 192.0
936.368713 68.0
937.166687 32.0
938.190613 204.0
940.722229 136.0
941.894653 184.0
942.475037 132.0
942.792786 164.0
943.942017 164.0
944.266174 168.0
944.412964 188.0
946.432434 132.0
946.512024 164.0
948.184387 176.0
948.742188 252.0
948.919983 252.0
949.870544 120.0
949.999329 108.0
951.183655 80.0
952.552979 64.0
952.725037 216.0
953.957703 188.0
954.99939 216.0
955.153137 284.0
955.263855 124.0
955.491516 196.0
958.804199 172.0
960.59845 132.0
960.783508 44.0
961.172241 192.0
961.622742 136.0
962.925415 112.0
963.19104 148.0
963.302185 152.0
964.210449 180.0
964.9646 124.0
965.112976 180.0
965.793274 164.0
966.869812 140.0
967.705444 172.0
967.79834 32.0
967.99646 144.0
968.287537 92.0
970.46875 128.0
970.760193 76.0
970.940063 280.0
972.069092 192.0
972.602844 52.0
973.801147 200.0
974.018555 176.0
974.385071 112.0
975.976135 152.0
978.682739 192.0
979.741516 152.0
980.177673 148.0
980.688721 176.0
981.231018 204.0
982.010498 164.0
982.996155 172.0
983.108521 48.0
983.776367 152.0
983.894958 200.0
984.294556 148.0
984.819153 172.0
985.443848 120.0
985.512573 164.0
987.081421 132.0
987.350342 48.0
989.346375 164.0
989.953674 132.0
990.285583 176.0
990.655151 132.0
991.826965 72.0
992.240662 164.0
993.087219 68.0
993.269165 88.0
993.865112 112.0
994.153748 112.0
995.459473 80.0
996.533569 196.0
998.098633 176.0
998.268433 108.0
998.727539 140.0
999.495056 136.0
999.551636 92.0
999.790771 244.0
1000.791687 116.0
1001.23877 48.0
1002.03241 176.0
1004.774902 264.0
1005.576294 152.0
1005.847717 196.0
1006.598999 172.0
1006.725281 148.0
1007.388489 188.0
1007.609558 116.0
1008.205261 176.0
1008.759705 128.0
1008.886169 80.0
1009.328735 228.0
1009.935852 108.0
1010.043396 84.0
1011.112671 44.0
1013.639404 180.0
1014.044983 132.0
1014.63446 188.0
1016.086792 204.0
1016.962463 168.0
1018.924683 184.0
1019.324951 116.0
1019.69989 80.0
1019.979553 132.0
1020.036743 164.0
1020.863281 92.0
1020.920532 180.0
1021.61377 164.0
1021.923767 172.0
1022.797363 180.0
1022.861023 80.0
1024.115356 176.0
1024.752441 184.0
1024.988159 132.0
1025.109253 72.0
1025.217529 196.0
1025.31311 140.0
1027.072876 56.0
1027.653442 196.0
1028.323486 92.0
1029.22998 108.0
1029.874878 124.0
1031.056885 84.0
1031.242188 88.0
1031.344482 112.0
1031.542603 188.0
1031.76001 152.0
1032.936646 96.0
1033.00708 124.0
1033.17334 48.0
1033.781128 40.0
1034.382812 144.0
1034.658081 152.0
1035.727539 184.0
1036.765381 152.0
1037.714111 88.0
1037.932129 228.0
1039.484375 172.0
1040.0896 180.0
1040.144043 252.0
1041.217651 124.0
1041.46814 72.0
1041.526001 192.0
1042.01416 136.0
1043.730225 144.0
1043.981079 112.0
1044.399048 156.0
1044.507324 144.0
1045.074585 244.0
1045.885376 108.0
1046.0271 100.0
1046.735229 108.0
1047.450073 212.0
1048.203857 152.0
1048.680786 144.0
1049.331909 164.0
1049.796143 164.0
1049.976685 132.0
1050.279785 136.0
1050.634644 192.0
1050.931396 156.0
1051.086182 124.0
1051.40918 164.0
1051.692749 164.0
1052.835571 116.0
1053.042236 124.0
1053.177979 116.0
1053.991943 216.0
1054.069458 136.0
1054.457153 196.0
1054.677002 116.0
1054.722168 84.0
1055.116577 180.0
1055.355713 68.0
1055.556152 200.0
1055.737305 48.0
1055.814819 204.0
1055.937256 124.0
1056.067139 152.0
1056.138184 136.0
1056.280518 44.0
1056.44873 180.0
1057.20166 212.0
1057.516357 120.0
1057.587524 140.0
1057.768799 20.0
1057.839966 64.0
1058.098999 172.0
1058.208984 136.0
1059.65979 168.0
1059.835327 200.0
1060.482788 184.0
1060.677246 104.0
1061.014282 112.0
1061.144043 132.0
1061.370972 192.0
1061.60437 152.0
1061.779419 136.0
1062.119019 212.0
1062.817383 108.0
1063.420898 180.0
1063.674072 168.0
1064.803833 108.0
1065.018066 180.0
1066.109619 128.0
1066.765991 160.0
1067.338135 48.0
1067.435669 180.0
1067.650269 224.0
1068.186768 196.0
1068.313721 168.0
1068.769165 156.0
1069.035889 204.0
1069.270264 192.0
1069.367798 284.0
1069.414429 128.0
1069.475586 172.0
1072.116211 164.0
1072.486816 144.0
1072.578979 152.0
1073.061279 96.0
1073.446045 144.0
1073.661255 152.0
1073.824097 120.0
1074.633179 108.0
1074.907227 176.0
1075.390137 48.0
1075.52063 100.0
1075.814453 164.0
1076.06897 208.0
1077.767212 56.0
1077.82605 100.0
1077.950195 144.0
1078.472168 160.0
1078.590576 176.0
1079.341431 112.0
1079.42749 132.0
1080.859985 176.0
1081.043213 64.0
1081.540649 168.0
1081.612549 120.0
1082.300049 136.0
1082.699463 172.0
1082.830444 92.0
1084.377441 200.0
1085.215698 76.0
1085.405884 148.0
1085.694336 272.0
1085.92395 156.0
1086.127197 104.0
1086.205933 176.0
1087.485474 148.0
1087.754517 248.0
1087.984375 176.0
1088.430786 152.0
1089.81665 184.0
1090.217529 100.0
1090.769653 156.0
1091.032593 124.0
1091.157471 112.0
1091.334961 188.0
1091.598022 168.0
1092.203003 148.0
1093.609009 172.0
1093.705933 144.0
1093.87439 216.0
1093.986328 92.0
1094.295776 120.0
1094.94104 148.0
1096.858398 116.0
1097.300049 168.0
1097.642944 120.0
1097.702271 184.0
1097.959473 168.0
1098.150757 120.0
1098.520142 144.0
1099.087524 108.0
1099.635254 140.0
1099.803955 216.0
1100.011475 152.0
1100.876343 152.0
1101.021606 160.0
1101.226318 112.0
1101.488037 124.0
1101.629272 112.0
1101.71521 216.0
1101.946411 236.0
1102.005859 160.0
1103.42688 148.0
1103.995483 176.0
1104.762695 184.0
1105.920654 80.0
1107.562744 208.0
1107.642212 112.0
1107.787964 128.0
1108.099365 128.0
1108.549927 120.0
1109.153076 140.0
1109.358521 84.0
1109.636963 168.0
1109.981689 76.0
1110.085449 260.0
1110.943481 176.0
1111.799316 96.0
1111.88562 200.0
1111.938721 196.0
1112.436523 116.0
1112.715332 132.0
1113.007446 128.0
1113.193359 136.0
1113.246582 152.0
1113.412598 148.0
1113.671631 176.0
1113.910767 196.0
1114.515259 280.0
1114.794312 176.0
1115.106689 112.0
1115.233032 144.0
1115.286133 120.0
1115.412476 172.0
1115.671753 124.0
1115.844604 120.0
1116.549438 192.0
1116.615845 136.0
1116.702393 200.0
1116.981689 148.0
1117.12146 212.0
1117.380859 80.0
1118.538818 44.0
1118.605347 192.0
1118.81665 188.0
1119.091309 172.0
1119.27771 116.0
1119.470825 40.0
1119.52417 148.0
1119.843872 168.0
1120.190186 160.0
1120.629883 164.0
1120.829712 192.0
1121.103027 180.0
1121.389526 100.0
1121.489502 136.0
1121.609497 184.0
1123.1698 156.0
1123.723511 184.0
1124.003662 200.0
1124.130493 152.0
1124.544312 40.0
1125.051514 160.0
1125.171753 224.0
1125.598999 164.0
1125.745972 116.0
1125.866211 52.0
1125.919556 208.0
1126.113281 128.0
1126.507324 164.0
1126.614258 192.0
1126.86145 192.0
1128.238159 188.0
1129.040527 136.0
1129.174316 212.0
1129.341553 164.0
1129.567139 204.0
1129.983643 232.0
1130.057251 140.0
1130.533936 136.0
1131.134766 176.0
1131.348999 180.0
1132.473877 200.0
1132.668091 160.0
1132.775269 36.0
1133.063354 64.0
1133.805664 224.0
1133.890869 196.0
1134.001709 160.0
1135.302124 28.0
1135.429565 40.0
1135.577026 84.0
1135.704468 152.0
1135.847534 172.0
1135.979492 32.0
1136.160645 140.0
1136.368652 92.0
1136.616943 164.0
1137.160522 156.0
1137.274536 144.0
1137.502808 188.0
1137.724365 144.0
1138.033203 260.0
1138.308472 272.0
1138.691284 184.0
1139.161377 148.0
1139.262817 120.0
1139.645142 204.0
1139.91394 92.0
1139.967651 196.0
1140.27002 192.0
1140.357422 248.0
1140.461182 100.0
1140.741821 164.0
1141.002808 52.0
1141.265015 112.0
1141.325439 160.0
1142.13916 160.0
1142.374634 168.0
1142.616821 216.0
1142.670654 120.0
1142.751343 100.0
1142.965698 200.0
1143.060913 52.0
1143.276245 168.0
1143.659912 236.0
1144.171509 184.0
1144.696655 144.0
1145.363403 160.0
1145.484619 128.0
1146.043823 224.0
1146.333496 132.0
1147.209717 156.0
1147.425415 240.0
1147.468506 176.0
1147.755615 112.0
1147.771362 108.0
1147.797974 144.0
1147.991821 124.0
1148.308838 100.0
1148.396484 116.0
1148.450439 136.0
1148.565063 148.0
1148.781006 180.0
1149.293701 112.0
1149.402344 200.0
1149.6073 160.0
1149.678345 100.0
1149.74585 136.0
1150.481567 144.0
1150.635742 128.0
1150.839355 112.0
1150.954102 136.0
1151.447144 108.0
1151.764526 72.0
1151.953735 136.0
1152.250977 176.0
1152.588745 56.0
1153.169922 136.0
1153.413208 116.0
1153.541626 144.0
1153.825562 108.0
1153.913452 172.0
1154.075806 116.0
1154.542358 232.0
1154.589722 76.0
1155.06311 140.0
1156.260742 160.0
1156.78186 120.0
1156.903687 128.0
1157.506348 160.0
1157.641602 176.0
1157.811035 116.0
1159.328491 164.0
1159.39624 132.0
1159.693848 180.0
1159.972412 104.0
1160.216431 168.0
1160.4198 156.0
1161.888794 184.0
1162.183228 168.0
1162.264648 136.0
1162.692261 168.0
1163.337036 72.0
1163.622192 204.0
1165.055176 196.0
1165.265747 160.0
1165.37439 176.0
1165.476318 256.0
1166.407471 124.0
1166.516113 196.0
1166.760864 124.0
1166.808472 120.0
1166.856079 124.0
1166.924072 200.0
1167.093994 164.0
1167.359253 168.0
1167.80127 76.0
1168.066528 144.0
1168.133301 220.0
1168.923828 172.0
1169.915894 184.0
1169.992432 216.0
1170.285156 112.0
1171.109131 188.0
1171.395264 108.0
1171.579102 132.0
1171.763062 140.0
1171.87207 192.0
1172.069702 124.0
1172.253662 128.0
1172.308228 100.0
1172.655762 160.0
1172.907959 48.0
1173.187378 132.0
1173.630615 248.0
1173.789795 180.0
1173.972168 204.0
1174.380737 180.0
1174.55127 168.0
1175.05603 200.0
1175.213013 188.0
1175.540527 164.0
1175.758911 168.0
1175.85437 116.0
1176.017822 136.0
1176.106934 56.0
1176.154785 144.0
1176.352661 164.0
1176.550659 160.0
1176.700806 124.0
1176.980835 168.0
1177.223511 44.0
1177.916382 152.0
1178.247803 156.0
1178.572266 236.0
1178.852417 144.0
1178.927612 140.0
1179.002441 164.0
1179.187256 160.0
1179.570068 164.0
1179.911865 120.0
1181.067505 208.0
1181.649048 192.0
1181.752563 156.0
1181.895264 128.0
1182.032227 168.0
1182.367432 72.0
1182.627563 128.0
1183.147827 152.0
1183.236816 136.0
1183.380615 224.0
1183.442139 248.0
1183.56543 76.0
1183.825684 220.0
1184.181763 164.0
1184.770874 84.0
1185.113403 140.0
1185.983765 140.0
1186.10022 92.0
1186.463623 168.0
1186.573242 112.0
1187.135498 168.0
1187.272705 156.0
1187.560669 156.0
1188.178101 176.0
1188.493652 180.0
1188.661377 304.0
1188.794312 108.0
1189.276001 104.0
1189.37207 156.0
1189.729004 100.0
1189.94873 156.0
1190.037964 88.0
1190.367554 152.0
1190.489136 136.0
1190.690308 140.0
1191.617676 128.0
1192.002441 128.0
1192.401001 204.0
1192.675903 132.0
1192.840942 236.0
1193.074707 180.0
1193.150269 272.0
1193.253418 188.0
1193.521606 112.0
1193.624634 112.0
1193.782837 80.0
1193.972534 160.0
1194.130859 152.0
1194.209229 188.0
1194.326172 176.0
1194.478394 160.0
1194.591431 196.0
1194.800781 176.0
1194.952148 120.0
1195.13855 172.0
1195.248047 112.0
1195.330566 244.0
1195.874268 88.0
1196.022583 144.0
1196.748535 204.0
1196.963867 160.0
1197.079102 260.0
1197.574951 180.0
1198.353271 44.0
1198.415283 164.0
1198.883911 148.0
1199.118164 228.0
1199.269897 220.0
1199.414551 32.0
1199.740112 220.0
1200.028198 152.0
1200.135986 132.0
1200.183594 268.0
1200.36853 184.0
1200.56604 116.0
1200.703857 136.0
1200.772827 120.0
1201.47644 156.0
1201.71106 168.0
1201.924927 196.0
1202.187134 148.0
1202.262085 152.0
1202.394165 96.0
1202.61499 168.0
1202.66333 120.0
1202.773804 160.0
1202.939453 100.0
1203.609131 168.0
1203.837036 152.0
1204.092529 96.0
1204.285889 180.0
1205.801025 164.0
1206.434937 68.0
1206.884277 88.0
1206.946533 240.0
1207.382202 140.0
1207.458252 204.0
1207.686523 120.0
1208.073853 148.0
1208.219116 160.0
1208.343628 188.0
1208.751831 208.0
1209.139404 176.0
1209.305542 84.0
1209.450806 160.0
1209.574463 172.0
1210.13623 168.0
1210.205444 252.0
1210.886353 192.0
1211.147217 40.0
1211.251099 68.0
1211.338867 144.0
1211.819214 144.0
1212.297363 120.0
1212.768555 156.0
1213.045898 212.0
1213.378662 132.0
1213.449097 148.0
1214.002686 136.0
1214.758667 140.0
1215.029175 128.0
1215.230347 156.0
1215.326782 112.0
1215.473877 188.0
1215.542603 156.0
1215.660645 180.0
1215.72998 48.0
1215.834106 116.0
1215.94519 176.0
1216.21582 148.0
1216.535156 192.0
1217.173828 120.0
1217.66626 120.0
1217.979492 180.0
1218.45874 100.0
1218.521362 96.0
1218.986816 200.0
1219.049438 112.0
1219.195312 120.0
1219.355225 124.0
1219.487183 144.0
1219.619263 128.0
1219.807007 132.0
1220.015503 128.0
1220.126709 156.0
1220.738647 260.0
1221.364502 140.0
1221.733154 136.0
1221.830566 96.0
1222.046265 116.0
1222.324585 128.0
1222.588989 168.0
1222.658569 152.0
1223.034424 152.0
1223.243286 148.0
1224.043213 156.0
1224.218018 136.0
1224.496582 184.0
1224.594116 120.0
1224.684692 208.0
1224.768188 168.0
1224.830933 108.0
1224.879639 136.0
1225.179199 56.0
1225.437012 88.0
1225.771484 172.0
1226.067017 212.0
1226.412598 220.0
1226.823853 152.0
1227.019043 140.0
1227.200317 96.0
1227.890625 192.0
1227.953491 120.0
1228.846313 48.0
1228.937012 288.0
1229.19519 180.0
1229.255859 160.0
1229.537109 140.0
1229.624023 132.0
1229.81958 120.0
1230.123413 76.0
1230.231323 208.0
1230.339844 128.0
1230.947998 184.0
1231.024048 264.0
1231.100952 112.0
1231.240601 128.0
1231.380249 132.0
1231.484985 148.0
1231.550293 172.0
1231.702026 168.0
1231.911133 116.0
1232.029907 268.0
1233.37854 68.0
1233.609253 204.0
1233.916748 112.0
1233.965698 144.0
1234.168457 176.0
1234.734985 160.0
1234.797852 156.0
1234.993652 260.0
1235.455322 80.0
1235.791138 160.0
1235.854126 92.0
1236.022095 168.0
1236.098999 140.0
1236.224976 156.0
1236.470825 172.0
1236.526001 264.0
1237.309937 136.0
1237.393921 112.0
1237.442993 128.0
1238.507324 200.0
1238.661499 116.0
1238.717529 116.0
1238.815552 208.0
1238.983765 48.0
1239.29895 148.0
1239.6073 92.0
1239.936646 120.0
1239.999756 128.0
1240.069824 204.0
1240.329102 176.0
1240.476318 156.0
1240.546509 172.0
1240.833862 156.0
1241.044189 152.0
1241.128418 184.0
1241.191528 148.0
1241.289673 180.0
1241.359741 128.0
1241.556152 180.0
1242.183716 160.0
1242.348755 216.0
1242.418823 188.0
1242.888916 144.0
1243.001221 212.0
1243.843384 184.0
1243.94873 144.0
1244.030396 156.0
1244.376953 188.0
1244.503296 120.0
1244.828613 172.0
1244.994873 148.0
1245.065063 124.0
1245.662109 128.0
1245.914917 84.0
1246.041382 116.0
1246.170654 204.0
1246.786255 72.0
1247.229004 164.0
1247.418823 192.0
1247.517212 156.0
1247.573486 108.0
1247.678955 160.0
1247.763306 104.0
1247.967163 120.0
1248.346924 196.0
1248.417236 124.0
1248.501587 200.0
1248.649292 228.0
1248.818115 128.0
1248.888428 176.0
1249.240112 220.0
1249.46521 156.0
1249.739746 160.0
1249.929565 208.0
1250.795288 96.0
1250.851562 184.0
1251.386597 120.0
1251.851318 180.0
1252.140015 184.0
1252.210449 212.0
1252.277222 172.0
1252.619141 156.0
1252.710571 152.0
1252.759888 164.0
1253.189575 44.0
1253.245972 176.0
1253.415039 148.0
1253.957764 156.0
1254.1875 184.0
1254.394775 92.0
1254.888184 132.0
1255.198486 204.0
1255.261963 100.0
1255.360596 40.0
1255.65686 100.0
1255.868408 100.0
1256.524414 128.0
1256.602051 112.0
1256.778442 140.0
1256.954834 156.0
1257.060669 136.0
1257.251221 144.0
1257.865234 140.0
1257.99231 124.0
1258.084106 112.0
1258.23938 120.0
1258.860718 132.0
1258.945557 52.0
1259.079712 188.0
1259.220947 200.0
1259.376343 152.0
1259.531738 132.0
1260.365356 200.0
1260.492554 108.0
1260.598511 48.0
1260.711548 120.0
1260.931152 124.0
1261.319458 52.0
1261.368896 196.0
1261.467896 144.0
1261.672852 92.0
1261.891968 80.0
1262.351685 120.0
1262.521362 140.0
1262.71936 380.0
1262.83252 216.0
1262.959839 196.0
1263.037598 132.0
1263.186157 56.0
1263.278198 140.0
1263.462036 104.0
1263.631836 108.0
1263.745117 108.0
1264.304077 148.0
1264.374878 148.0
1264.502197 168.0
1264.93396 136.0
1264.99292 224.0
1265.323364 204.0
1265.877075 184.0
1267.051392 184.0
1267.270996 128.0
1267.717407 116.0
1268.015137 108.0
1268.411987 64.0
1268.525391 176.0
1268.582153 164.0
1268.901123 188.0
1269.369141 236.0
1269.674072 196.0
1269.766235 128.0
1270.092529 108.0
1270.503418 204.0
1270.631592 120.0
1270.77356 192.0
1271.014771 96.0
1271.373047 156.0
1271.504395 168.0
1271.724487 224.0
1271.852417 136.0
1272.022583 184.0
1272.398804 188.0
1272.63208 128.0
1272.782227 124.0
1273.052002 204.0
1273.101685 176.0
1273.208252 160.0
1273.275269 208.0
1273.425903 192.0
1273.639282 180.0
1273.733887 124.0
1274.181396 132.0
1274.408691 124.0
1274.611328 188.0
1274.906128 100.0
1275.090942 212.0
1275.19165 168.0
1275.282837 148.0
1275.531616 140.0
1275.680908 148.0
1275.930298 260.0
1276.313599 168.0
1276.498535 156.0
1276.782959 188.0
1277.010498 156.0
1277.171143 160.0
1277.506714 128.0
1277.52771 96.0
1277.55481 196.0
1278.106079 416.0
1278.248413 88.0
1278.767944 132.0
1279.066895 200.0
1279.202026 168.0
1279.35144 168.0
1279.486816 84.0
1279.878418 116.0
1280.027954 64.0
1280.156616 188.0
1280.483765 76.0
1280.668945 116.0
1282.09375 184.0
1282.321899 112.0
1282.471558 240.0
1282.578491 168.0
1282.813721 108.0
1283.027588 144.0
1283.105957 188.0
1283.250122 164.0
1283.305542 216.0
1283.43396 140.0
1283.490967 168.0
1283.761963 72.0
1283.81897 80.0
1283.904541 60.0
1283.994385 120.0
1284.232666 112.0
1284.353882 92.0
1284.456177 140.0
1284.575073 244.0
1284.938843 120.0
1285.12439 140.0
1285.259888 128.0
1285.723755 180.0
1285.887939 128.0
1286.130615 88.0
1286.273315 148.0
1286.587402 76.0
1286.780151 176.0
1287.130005 156.0
1287.35144 128.0
1287.601318 176.0
1287.815674 192.0
1287.922729 164.0
1287.994141 188.0
1288.05127 124.0
1288.194214 160.0
1288.294189 144.0
1288.444214 164.0
1288.579956 96.0
1288.7229 168.0
1288.824829 108.0
1288.944336 32.0
1289.072998 140.0
1289.380249 60.0
1289.594727 112.0
1289.730469 116.0
1289.844849 152.0
1289.980713 208.0
1290.180786 176.0
1290.731323 144.0
1290.967285 128.0
1291.298584 196.0
1291.473633 140.0
1291.653931 44.0
1291.911499 340.0
1292.128174 152.0
1292.322021 136.0
1292.418579 180.0
1292.884521 140.0
1293.149292 128.0
1293.265991 200.0
1293.528687 80.0
1293.865112 168.0
1293.95105 184.0
1294.05127 232.0
1294.309082 188.0
1294.488037 128.0
1294.667114 132.0
1294.731567 144.0
1294.903442 184.0
1295.132568 144.0
1295.218628 128.0
1295.880981 236.0
1295.942139 136.0
1296.015747 120.0
1296.078247 176.0
1296.13562 136.0
1297.009888 136.0
1297.095947 180.0
1297.260864 152.0
1297.318115 196.0
1297.805664 132.0
1298.060303 196.0
1298.201782 144.0
1298.227661 164.0
1298.24646 180.0
1298.453369 180.0
1298.537109 76.0
1298.823975 144.0
1298.917236 304.0
1299.009277 204.0
1299.187988 204.0
1299.65625 168.0
1299.720825 124.0
1299.907349 224.0
1300.043701 192.0
1300.230225 172.0
1300.359497 192.0
1300.41687 188.0
1300.546021 116.0
1300.653687 96.0
1300.933716 120.0
1301.149048 156.0
1301.213623 80.0
1301.666016 184.0
1301.716309 192.0
1301.795288 128.0
1301.967651 148.0
1302.692993 140.0
1303.073853 220.0
1303.257446 176.0
1303.398315 120.0
1303.927368 168.0
1304.202026 200.0
1304.654907 164.0
1305.122192 120.0
1305.179688 160.0
1305.683105 120.0
1305.927612 144.0
1306.200928 116.0
1306.575073 152.0
1306.949097 212.0
1307.157837 124.0
1307.35791 184.0
1307.496094 216.0
1307.863159 144.0
1307.949463 200.0
1308.089111 128.0
1308.151001 124.0
1308.300903 152.0
1308.374146 108.0
1308.619019 132.0
1308.781006 188.0
1309.036621 152.0
1309.094238 156.0
1309.151855 208.0
1309.274658 136.0
1309.485107 200.0
1309.625122 212.0
1309.919556 176.0
1310.160156 252.0
1310.383545 116.0
1310.441162 212.0
1310.556396 124.0
1310.700562 244.0
1310.844727 164.0
1310.895142 128.0
1311.125732 172.0
1311.442871 172.0
1311.514893 132.0
1312.026733 212.0
1312.127686 128.0
1312.250244 196.0
1312.567505 264.0
1312.680786 212.0
1312.834229 148.0
1313.072266 128.0
1313.27417 108.0
1313.461792 140.0
1313.571045 132.0
1313.685303 92.0
1313.988403 132.0
1314.204834 132.0
1314.594482 168.0
1314.64502 136.0
1314.825439 124.0
1314.919189 164.0
1315.027466 132.0
1315.142944 156.0
1315.279175 148.0
1315.633789 156.0
1315.770996 136.0
1315.92981 176.0
1316.059814 160.0
1316.550781 196.0
1316.820801 176.0
1316.890259 144.0
1317.273071 180.0
1317.352539 168.0
1317.424683 176.0
1317.612549 88.0
1317.728149 44.0
1318.132812 112.0
1318.458008 52.0
1318.739868 124.0
1318.906128 172.0
1319.551514 116.0
1319.925415 160.0
1320.409912 196.0
1320.99585 208.0
1321.097046 80.0
1321.169434 176.0
1321.386475 144.0
1321.697632 220.0
1321.994263 120.0
1322.081055 76.0
1322.153442 148.0
1322.414062 128.0
1322.56604 156.0
1322.616699 224.0
1322.817383 208.0
1322.946411 148.0
1323.515991 196.0
1323.623047 220.0
1323.866333 168.0
1324.042969 128.0
1324.209595 120.0
1324.629639 176.0
1324.716553 140.0
1324.774536 136.0
1324.868774 124.0
1325.013672 192.0
1325.078857 72.0
1325.136841 236.0
1325.506348 136.0
1325.7677 196.0
1325.896973 200.0
1326.0354 156.0
1326.970093 168.0
1327.071899 152.0
1327.196045 160.0
1327.456299 76.0
1327.586792 196.0
1327.673828 184.0
1327.746338 156.0
1327.855103 128.0
1327.94873 128.0
1328.058228 184.0
1328.109009 120.0
1328.268555 108.0
1328.355591 192.0
1328.544189 164.0
1328.645752 160.0
1329.255249 196.0
1329.30603 136.0
1329.451172 196.0
1329.545532 136.0
1329.68335 40.0
1329.800537 172.0
1329.87207 184.0
1330.169678 48.0
1330.264038 36.0
1330.703491 140.0
1330.75769 128.0
1330.881104 144.0
1331.011841 148.0
1331.113525 136.0
1331.476562 140.0
1331.527466 156.0
1331.717285 152.0
1331.825195 184.0
1332.043091 240.0
1332.266357 188.0
1332.566162 228.0
1332.778564 172.0
1332.922241 124.0
1332.973022 340.0
1333.174927 160.0
1333.263794 144.0
1333.329224 52.0
1333.481812 196.0
1333.554443 140.0
1333.619873 188.0
1334.412231 176.0
1334.620117 136.0
1334.710327 188.0
1335.037598 112.0
1335.168457 180.0
1335.503052 180.0
1335.750366 160.0
1335.837646 168.0
1336.36145 168.0
1336.434204 100.0
1337.038208 140.0
1337.352905 160.0
1337.48938 164.0
1337.554932 128.0
1337.613159 168.0
1337.736938 128.0
1337.860596 152.0
1338.057251 176.0
1338.253784 308.0
1338.355713 64.0
1338.435791 76.0
1338.552368 144.0
1338.76355 136.0
1339.142212 168.0
1339.30249 176.0
1339.382568 152.0
1339.622925 164.0
1339.783203 128.0
1339.97998 220.0
1340.140259 224.0
1340.268311 160.0
1340.366089 72.0
1340.635742 88.0
1340.89502 200.0
1341.000122 188.0
1341.37915 120.0
1341.484619 196.0
1341.583252 156.0
1341.641602 80.0
1341.955078 96.0
1342.108154 40.0
1342.275879 204.0
1342.509155 120.0
1342.604004 168.0
1342.771729 188.0
1342.990601 92.0
1343.084351 176.0
1343.377197 136.0
1343.493896 64.0
1343.997314 208.0
1344.163574 188.0
1344.422729 180.0
1344.530029 132.0
1344.734375 108.0
1344.829224 160.0
1345.040894 136.0
1345.376709 144.0
1345.515381 112.0
1345.8396 176.0
1346.070312 144.0
1346.135986 64.0
1346.311523 144.0
1346.592407 180.0
1346.769531 216.0
1346.844482 128.0
1346.910156 236.0
1346.968628 224.0
1347.472656 248.0
1347.523804 148.0
1347.691895 48.0
1347.838013 204.0
1347.956299 332.0
1348.064575 144.0
1348.196045 108.0
1348.327271 184.0
1348.809937 232.0
1349.065796 184.0
1349.54834 120.0
1349.614136 184.0
1349.716553 144.0
1349.826172 212.0
1350.06665 144.0
1350.265015 112.0
1350.499023 140.0
1350.820923 72.0
1351.225708 184.0
1351.442749 152.0
1351.571045 236.0
1351.742676 204.0
1351.837891 184.0
1351.903687 168.0
1351.954956 136.0
1352.324463 60.0
1352.459961 160.0
1352.986938 140.0
1353.11145 44.0
1353.184692 128.0
1353.411621 144.0
1353.748413 120.0
1353.91687 160.0
1354.034058 132.0
1354.43689 112.0
1354.502808 144.0
1354.71521 188.0
1354.835083 100.0
1355.066895 144.0
1355.338013 96.0
1355.565186 68.0
1355.697021 136.0
1355.880249 172.0
1356.04126 140.0
1356.180786 92.0
1356.554565 140.0
1356.649902 92.0
1356.821899 220.0
1357.159912 128.0
1357.187256 180.0
1357.317017 156.0
1357.381348 212.0
1357.485718 40.0
1357.561157 176.0
1357.720337 188.0
1357.999023 168.0
1358.241089 216.0
1358.362915 120.0
1358.431885 232.0
1358.783936 92.0
1359.466309 188.0
1359.72876 148.0
1359.792114 184.0
1359.95813 132.0
1360.081055 100.0
1360.339722 164.0
1360.434326 236.0
1360.523315 140.0
1360.831665 80.0
1360.963745 184.0
1361.044556 196.0
1361.303467 212.0
1361.420776 152.0
1361.683472 172.0
1361.881714 148.0
1362.043335 172.0
1362.204956 180.0
1362.487549 164.0
1362.655396 104.0
1362.824341 128.0
1363.071899 220.0
1363.160034 208.0
1363.439331 92.0
1363.623047 176.0
1363.689209 140.0
1363.806763 104.0
1364.005249 152.0
1364.483032 88.0
1364.748657 156.0
1364.924194 92.0
1364.975708 240.0
1365.313965 132.0
1365.519897 168.0
1365.60083 188.0
1365.703735 136.0
1366.417358 56.0
1367.145752 116.0
1367.337158 116.0
1367.40332 192.0
1367.454834 196.0
1367.822876 164.0
1367.903809 104.0
1367.992188 112.0
1368.087891 220.0
1368.235107 176.0
1368.330811 164.0
1368.460083 148.0
1368.536987 92.0
1368.610596 116.0
1368.750488 160.0
1368.875732 128.0
1369.111206 168.0
1369.472168 144.0
1369.699341 172.0
1370.105713 128.0
1370.171997 204.0
1370.312012 176.0
1370.363525 176.0
1370.614136 108.0
1370.673096 156.0
1370.73938 176.0
1370.812988 112.0
1371.129883 224.0
1371.181519 120.0
1371.373169 128.0
1371.491089 148.0
1371.542725 156.0
1371.660645 200.0
1371.719604 216.0
1372.18396 124.0
1372.309326 136.0
1372.442017 100.0
1372.604248 152.0
1372.759766 228.0
1372.899292 204.0
1373.061523 140.0
1373.179443 188.0
1374.057251 64.0
1374.167969 172.0
1374.234375 124.0
1374.389282 204.0
1374.55896 156.0
1374.785034 152.0
1374.868896 216.0
1375.57312 208.0
1375.699951 156.0
1376.049927 160.0
1376.374878 124.0
1376.49585 156.0
1376.566895 80.0
1376.625854 164.0
1376.714478 160.0
1376.825317 152.0
1377.202026 96.0
1377.297119 180.0
1377.408813 156.0
1377.607056 132.0
1378.140137 60.0
1378.265747 204.0
1378.539185 120.0
1378.871704 156.0
1378.938232 124.0
1379.39856 296.0
1379.585083 136.0
1379.829346 160.0
1379.906616 152.0
1380.283691 180.0
1380.36499 160.0
1380.616455 132.0
1380.897461 180.0
1380.993652 180.0
1381.304321 108.0
1381.474487 112.0
1381.541016 144.0
1381.725952 96.0
1381.796387 88.0
1381.896118 116.0
1381.987549 188.0
1382.095947 92.0
1382.177246 184.0
1382.414062 124.0
1382.643555 108.0
1382.761963 64.0
1382.838989 140.0
1382.902588 176.0
1383.265991 144.0
1383.479858 148.0
1383.842651 156.0
1384.264771 124.0
1384.575684 136.0
1384.664673 116.0
1384.871948 136.0
1385.153442 156.0
1385.205322 100.0
1385.42749 204.0
1385.738647 160.0
1385.812744 112.0
1385.879517 68.0
1386.04248 136.0
1386.218628 108.0
1386.346313 120.0
1386.53894 116.0
1386.650146 120.0
1386.724243 96.0
1386.869995 188.0
1387.035522 208.0
1387.094849 188.0
1387.465576 136.0
1387.717651 36.0
1387.940063 112.0
1388.169922 124.0
1388.266357 144.0
1388.503662 196.0
1388.599609 328.0
1388.7854 120.0
1388.867065 156.0
1389.460449 92.0
1389.838867 132.0
1389.898193 196.0
1390.150513 200.0
1390.439941 68.0
1390.547852 140.0
1390.707153 72.0
1390.877808 192.0
1390.968994 172.0
1391.063477 252.0
1391.145142 120.0
1391.293579 232.0
1391.345581 132.0
1391.638916 232.0
1391.857788 120.0
1391.924683 244.0
1392.437012 116.0
1392.615356 140.0
1392.862671 180.0
1393.035034 184.0
1393.365601 156.0
1393.536499 188.0
1393.618164 156.0
1393.959961 40.0
1394.09375 172.0
1394.160645 220.0
1394.294434 108.0
1394.465332 160.0
1394.614014 116.0
1394.817383 120.0
1394.881592 128.0
1395.007935 132.0
1395.284424 200.0
1395.848022 232.0
1396.115723 92.0
1396.167847 172.0
1396.264526 236.0
1396.316528 164.0
1396.437378 152.0
1396.601685 168.0
1396.77771 128.0
1397.536499 124.0
1397.846069 20.0
1397.975586 144.0
1398.288086 172.0
1398.415283 212.0
1398.55603 304.0
1398.943115 124.0
1399.300415 148.0
1399.374878 136.0
1399.600342 176.0
1399.812622 164.0
1399.996582 152.0
1400.171631 216.0
1400.35144 224.0
1400.439819 128.0
1400.514282 32.0
1400.603638 112.0
1400.67981 108.0
1401.437988 104.0
1401.527466 72.0
1401.631714 224.0
1401.832886 260.0
1401.907471 180.0
1402.054932 228.0
1402.202148 132.0
1402.429199 180.0
1402.578247 120.0
1402.69751 104.0
1402.86145 116.0
1402.921143 204.0
1402.973267 60.0
1403.07019 184.0
1403.158936 228.0
1403.261597 204.0
1403.494141 220.0
1403.6073 220.0
1403.886963 200.0
1403.95752 124.0
1404.054443 104.0
1404.494507 84.0
1404.634033 260.0
1404.725708 52.0
1404.852539 148.0
1405.009277 176.0
1405.165894 112.0
1405.255371 140.0
1405.312378 188.0
1405.658325 152.0
1405.718018 56.0
1405.77771 44.0
1405.956787 132.0
1406.08374 124.0
1406.224731 184.0
1406.509155 172.0
1406.614502 148.0
1407.18103 180.0
1407.240723 228.0
1407.658813 40.0
1407.711182 148.0
1407.870361 184.0
1408.136841 132.0
1408.22644 100.0
1408.390747 148.0
1408.674561 160.0
1408.80542 124.0
1408.883789 76.0
1408.95105 76.0
1409.010742 236.0
1409.242432 176.0
1409.421753 176.0
1409.793701 152.0
1410.041992 88.0
1410.580078 180.0
1410.783325 212.0
1411.148315 112.0
1411.245483 332.0
1411.314209 188.0
1411.484741 200.0
1411.776367 220.0
1412.015625 124.0
1412.083008 40.0
1412.322266 148.0
1412.636475 112.0
1412.756226 164.0
1412.875854 164.0
1413.025513 104.0
1413.336914 172.0
1413.399658 60.0
1413.571655 136.0
1413.640259 148.0
1413.743774 148.0
1413.811157 224.0
1413.963257 240.0
1414.035645 244.0
1414.103027 148.0
1414.599487 244.0
1414.83667 108.0
1414.955566 136.0
1415.166016 180.0
1415.225952 156.0
1415.532959 124.0
1415.660278 84.0
1415.793335 332.0
1416.004761 116.0
1416.07959 140.0
1416.161987 124.0
1416.424194 220.0
1416.49585 168.0
1416.517212 96.0
1416.953857 152.0
1417.233276 120.0
1417.333374 196.0
1417.435547 180.0
1417.576904 120.0
1417.817749 304.0
1418.132568 188.0
1418.384644 204.0
1418.434814 180.0
1418.537231 140.0
1418.660767 280.0
1418.760498 196.0
1419.271973 188.0
1419.487793 320.0
1419.91687 168.0
1420.164429 160.0
1420.250977 120.0
1420.441895 128.0
1420.697021 148.0
1420.982056 108.0
1421.081909 188.0
1421.267212 132.0
1421.372192 144.0
1421.46228 172.0
1421.702393 208.0
1421.769897 132.0
1422.235229 144.0
1422.452881 168.0
1422.512939 64.0
1422.750854 220.0
1422.978394 136.0
1423.398926 148.0
1423.616699 152.0
1423.687012 128.0
1423.909546 108.0
1424.039917 212.0
1424.247559 192.0
1424.3302 260.0
1424.623169 128.0
1424.863525 116.0
1424.92688 120.0
1425.044678 152.0
1425.239136 156.0
1425.532227 200.0
1425.690063 164.0
1425.772705 128.0
1425.975586 216.0
1426.043335 112.0
1426.110962 156.0
1426.404053 140.0
1426.494263 128.0
1427.125732 204.0
1427.209595 160.0
1427.298706 148.0
1427.907837 168.0
1428.02063 68.0
1428.291382 192.0
1428.450195 292.0
1428.675049 100.0
1428.837158 160.0
1429.307617 116.0
1430.014404 120.0
1430.217651 132.0
1430.345581 132.0
1430.493408 152.0
1430.581543 176.0
1430.759644 136.0
1430.812378 148.0
1431.038208 140.0
1431.151123 128.0
1431.48999 116.0
1431.587891 128.0
1431.821289 124.0
1431.919312 152.0
1432.619751 200.0
1432.740234 192.0
1432.988892 144.0
1433.260132 156.0
1433.710815 188.0
1434.013794 196.0
1434.081543 180.0
1434.224731 160.0
1434.300171 156.0
1434.360474 244.0
1434.58252 172.0
1435.136963 164.0
1435.272705 120.0
1435.710083 228.0
1435.819092 292.0
1436.011719 128.0
1436.199341 164.0
1436.253052 116.0
1436.848999 152.0
1436.932007 144.0
1437.143311 204.0
1437.309204 188.0
1437.362061 164.0
1437.580933 152.0
1437.769531 128.0
1438.23291 176.0
1438.448853 84.0
1438.637817 160.0
1438.871582 92.0
1438.947144 116.0
1439.03772 148.0
1439.936279 152.0
1440.074463 196.0
1440.434814 176.0
1440.940918 176.0
1441.00293 244.0
1441.250732 180.0
1441.356567 144.0
1441.410522 228.0
1441.585449 204.0
1441.915771 112.0
1442.150024 140.0
1442.369263 148.0
1442.437256 156.0
1443.034424 168.0
1443.613647 152.0
1444.108276 180.0
1444.322754 212.0
1444.582397 200.0
1444.717651 156.0
1444.866699 124.0
1445.02356 312.0
1445.09314 160.0
1445.25061 104.0
1445.401855 160.0
1445.492676 204.0
1445.543823 132.0
1446.057129 168.0
1446.181396 236.0
1446.279785 188.0
1446.476562 36.0
1446.643066 44.0
1446.855103 136.0
1447.301758 128.0
1447.437012 136.0
1447.498657 200.0
1448.195435 132.0
1448.316528 208.0
1448.363647 132.0
1448.877075 168.0
1449.081665 152.0
1449.142334 68.0
1449.204468 136.0
1449.278687 164.0
1449.407471 172.0
1449.619629 128.0
1449.77124 204.0
1449.862183 172.0
1450.104614 112.0
1450.21167 216.0
1450.286621 152.0
1450.354736 184.0
1450.498779 72.0
1450.71106 152.0
1450.771729 48.0
1450.991577 44.0
1451.112915 32.0
1451.514771 160.0
1451.567749 160.0
1451.666382 224.0
1452.059326 208.0
1452.242798 184.0
1452.294922 144.0
1452.462769 116.0
1452.527832 256.0
1452.690308 140.0
1452.830811 180.0
1452.955811 192.0
1453.016479 140.0
1453.19104 112.0
1453.47168 140.0
1453.61377 176.0
1453.725586 152.0
1453.805664 156.0
1454.24585 160.0
1454.352051 152.0
1454.473511 140.0
1454.890991 156.0
1455.111206 176.0
1455.250977 124.0
1455.505981 80.0
1455.842041 348.0
1455.938843 140.0
1456.113525 120.0
1456.174316 160.0
1456.485718 152.0
1456.546387 168.0
1456.652832 200.0
1456.842651 156.0
1456.895874 160.0
1456.990967 184.0
1457.283325 48.0
1457.344116 204.0
1457.686035 216.0
1457.898804 144.0
1457.997192 172.0
1458.063965 176.0
1458.219971 372.0
1458.354858 160.0
1458.453613 160.0
1458.567627 124.0
1458.83374 152.0
1458.894531 164.0
1459.117676 148.0
1459.206177 180.0
1459.32019 196.0
1459.685181 140.0
1459.814453 164.0
1460.187134 96.0
1460.308838 184.0
1460.358154 132.0
1460.497192 260.0
1460.919189 164.0
1461.077148 136.0
1461.145508 112.0
1461.503174 112.0
1461.678101 148.0
1461.807495 124.0
1461.891235 200.0
1462.083984 248.0
1462.172852 112.0
1462.226074 148.0
1462.751221 68.0
1462.956787 128.0
1463.10498 204.0
1463.223267 160.0
1463.299316 160.0
1463.946533 196.0
1464.155396 48.0
1464.281616 188.0
1464.341675 168.0
1464.472046 192.0
1464.525391 60.0
1464.684082 188.0
1464.845337 204.0
1464.913818 76.0
1465.346436 232.0
1465.375488 180.0
1465.485229 212.0
1465.581299 176.0
1465.812866 144.0
1465.950073 156.0
1466.270142 296.0
1466.376831 304.0
1466.643555 388.0
1467.032349 172.0
1467.13147 160.0
1467.421143 160.0
1467.592041 192.0
1467.68042 188.0
1467.817627 132.0
1468.288208 128.0
1468.35144 124.0
1468.572998 144.0
1468.851196 184.0
1469.091309 140.0
1469.396484 196.0
1469.694092 188.0
1469.777954 192.0
1469.869507 100.0
1469.922974 56.0
1470.005127 280.0
1470.129028 56.0
1470.304565 188.0
1470.403687 172.0
1470.480103 228.0
1470.571655 188.0
1470.732422 112.0
1471.014282 180.0
1471.11377 136.0
1471.212769 140.0
1471.411255 124.0
1471.508423 224.0
1471.831177 132.0
1471.911499 204.0
1472.136719 152.0
1472.235962 128.0
1472.396362 156.0
1472.633057 92.0
1472.755249 156.0
1472.956543 176.0
1473.251831 148.0
1473.671997 152.0
1473.80188 212.0
1474.031128 108.0
1474.138062 120.0
1474.19165 216.0
1474.283325 184.0
1474.36731 152.0
1474.442993 196.0
1474.57373 168.0
1474.73645 96.0
1474.833618 120.0
1475.134521 180.0
1475.376343 288.0
1475.575073 128.0
1475.651489 112.0
1475.819702 188.0
1476.171509 176.0
1476.366089 152.0
1476.431519 136.0
1476.495361 116.0
1476.546143 188.0
1476.61499 176.0
1476.668579 176.0
1476.729736 196.0
1476.810425 188.0
1476.943848 180.0
1477.135132 148.0
1477.257568 48.0
1477.372314 132.0
1477.633057 196.0
1477.823608 148.0
1477.900146 144.0
1477.968994 252.0
1478.030273 80.0
1478.216675 168.0
1478.619507 76.0
1478.688354 160.0
1478.822266 180.0
1478.910278 116.0
1479.040405 100.0
1479.109375 136.0
1479.173706 220.0
1479.31189 148.0
1479.461426 156.0
1479.637695 168.0
1479.747803 108.0
1479.959106 128.0
1480.514771 176.0
1480.786133 172.0
1480.893311 136.0
1481.06189 104.0
1481.184448 348.0
1481.337646 120.0
1481.437256 152.0
1481.559814 192.0
1481.621094 152.0
1481.758911 148.0
1482.195679 72.0
1482.333618 204.0
1482.755127 180.0
1482.931396 156.0
1483.513916 116.0
1483.572998 208.0
1483.82019 172.0
1483.943237 140.0
1484.063232 148.0
1484.28833 188.0
1484.349609 120.0
1484.633301 156.0
1484.909424 80.0
1485.095459 140.0
1485.170166 116.0
1485.223877 344.0
1485.292969 200.0
1485.576782 180.0
1485.750244 240.0
1486.195923 172.0
1486.305664 140.0
1486.451416 120.0
1486.512817 156.0
1486.699097 216.0
1486.758301 44.0
1486.927246 184.0
1487.080688 148.0
1487.25 152.0
1487.342407 152.0
1487.564209 156.0
1487.779175 240.0
1487.965576 216.0
1488.063232 116.0
1488.193848 160.0
1488.293579 116.0
1488.378052 184.0
1488.562378 160.0
1488.723633 132.0
1489.157715 244.0
1489.223755 192.0
1489.334229 392.0
1489.437866 76.0
1489.668335 152.0
1489.783569 164.0
1489.860352 140.0
1490.248779 124.0
1490.444336 172.0
1490.5979 212.0
1490.728638 144.0
1491.059082 240.0
1491.256714 224.0
1491.45105 112.0
1491.566284 56.0
1491.635498 196.0
1491.78772 216.0
1491.927612 124.0
1492.104492 132.0
1492.158203 152.0
1492.595093 172.0
1492.696411 168.0
1492.894531 80.0
1493.157837 140.0
1493.21167 212.0
1493.303955 108.0
1493.39624 32.0
1493.480957 196.0
1493.542236 332.0
1493.661621 128.0
1493.71167 176.0
1494.214478 188.0
1494.396362 208.0
1494.473267 120.0
1494.582153 136.0
1494.721924 156.0
1494.931396 180.0
1494.988892 132.0
1495.188965 104.0
1495.384766 148.0
1495.489136 136.0
1495.858521 124.0
1495.920166 236.0
1496.65918 164.0
1496.90564 84.0
1496.990356 208.0
1497.175171 212.0
1497.282959 124.0
1497.483154 140.0
1497.984253 148.0
1498.222046 192.0
1498.574707 184.0
1498.640625 164.0
1498.752319 144.0
1498.931519 180.0
1498.985474 140.0
1499.108765 188.0
1499.232788 148.0
1499.324463 124.0
1499.848633 180.0
1499.910278 132.0
1500.049072 128.0
1500.290039 208.0
1500.442139 124.0
1500.719727 84.0
1501.012695 176.0
1501.074463 164.0
1501.205566 168.0
1501.259521 164.0
1501.452271 236.0
1501.876465 160.0
1501.976807 184.0
1502.10022 276.0
1502.300781 212.0
1502.395386 164.0
1502.640137 80.0
1502.809937 136.0
1503.010498 184.0
1503.089722 140.0
1503.226562 112.0
1503.296021 112.0
1503.418579 128.0
1503.712036 184.0
1503.97522 212.0
1504.273193 124.0
1504.994263 148.0
1505.22583 184.0
