>compound MLS001158534-01!3-(3,5-dimethyl-7-oxofuro[3,2-g]chromen-6-yl)-N-(3-morpholin-4-ylpropyl)propanamide
>formula C23H28N2O5
>ionization [M+H]+
>parentmass 413.207184
#inchi InChI=1S/C23H28N2O5/c1-15-14-29-20-13-21-19(12-18(15)20)16(2)17(23(27)30-21)4-5-22(26)24-6-3-7-25-8-10-28-11-9-25/h12-14H,3-11H2,1-2H3,(H,24,26)
#inchikey VSYKDZOBACWREW
#Ion_Source LC-ESI
#Instrument qTof
#Compound_Source NIH Natural Product Library
#PI Dorrestein
#Data_Collector VVP/LMS
#Scan -1
#Precursor_MZ 413.208
#ExactMass 412.2
#Charge 1
#CAS_Number N/A
#Pubmed_ID N/A
#Smiles Cc1coc2cc3oc(=O)c(CCC(=O)NCCCN4CCOCC4)c(C)c3cc12
#INCHI_AUX N/A
#Library_Class 1
#SpectrumID CCMSLIB00000079861
#IonMode Positive
#UpdateWorkflowName UPDATE-SINGLE-ANNOTATED-GOLD
#LibraryQualityString Gold
#TaskID b1d8e8f6646f4e71acdff9ca3d919d08
##Scan# 1639
#SpectrumFile p1-B12_GB12_01_17896.mzXML
#LibraryName NIH_Natural_Products_Library.mgf
#MQScore -1
#Organism NIH_Natural_Products_Library
#TIC_Query 0
#RT_Query -1
#MZErrorPPM -1
#SharedPeaks 0
#MassDiff 0
#LibMZ -1
#SpecMZ 413.208
#SpecCharge 0
#internalFilename spec-00000.mgf

>collision 10
95.014153 120.0
95.030884 64.0
95.047729 208.0
95.102829 156.0
95.13253 124.0
95.157768 224.0
95.196297 180.0
95.22245 64.0
95.24321 400.0
95.256805 176.0
95.29673 172.0
95.326752 212.0
95.36367 128.0
95.398659 104.0
95.420044 136.0
95.443657 192.0
95.560074 152.0
95.601639 144.0
95.615578 48.0
95.634384 108.0
95.647301 112.0
95.69738 168.0
95.725525 152.0
95.740799 156.0
95.79174 44.0
95.870171 148.0
95.905769 208.0
95.927032 140.0
95.959335 124.0
95.984177 272.0
96.009781 156.0
96.03933 192.0
96.059044 228.0
96.096832 152.0
96.127075 164.0
96.152451 224.0
96.174736 276.0
96.201241 180.0
96.218811 136.0
96.2481 208.0
96.270271 204.0
96.30864 132.0
96.360069 292.0
96.38092 100.0
96.396553 76.0
96.419373 136.0
96.433685 136.0
96.447365 156.0
96.464958 108.0
96.58847 136.0
96.612488 172.0
96.656616 132.0
96.688354 148.0
96.715332 136.0
96.731018 144.0
96.746651 96.0
96.764267 60.0
96.815178 88.0
96.836723 84.0
96.860222 156.0
96.88163 140.0
96.900009 144.0
96.934669 248.0
96.958191 120.0
96.97506 164.0
97.007187 160.0
97.052231 164.0
97.126801 324.0
97.139793 128.0
97.155037 132.0
97.178947 352.0
97.202332 136.0
97.234711 132.0
97.250412 124.0
97.268074 212.0
97.34964 196.0
97.378029 128.0
97.409454 108.0
97.449455 144.0
97.482109 132.0
97.506783 224.0
97.52932 364.0
97.551743 176.0
97.60009 156.0
97.615822 76.0
97.631554 52.0
97.672928 108.0
97.692993 140.0
97.70826 92.0
97.731468 236.0
97.74456 152.0
97.760757 100.0
97.773254 136.0
97.787346 148.0
97.807343 352.0
97.832245 188.0
97.85511 188.0
97.888023 156.0
97.916908 124.0
97.958275 140.0
98.006638 116.0
98.012764 224.0
98.026146 124.0
98.058701 248.0
98.095169 312.0
98.18071 252.0
98.251999 368.0
98.31366 176.0
98.342766 124.0
98.362503 192.0
98.396065 176.0
98.419754 184.0
98.451347 144.0
98.4711 160.0
98.521988 180.0
98.5513 80.0
98.587265 128.0
98.629593 92.0
98.641632 144.0
98.660789 124.0
98.674629 496.0
98.712196 176.0
98.736382 192.0
98.777458 88.0
98.803177 100.0
98.829704 400.0
98.868477 208.0
98.915977 76.0
98.929832 140.0
98.983597 180.0
99.033836 160.0
99.074394 168.0
99.203201 168.0
99.21817 128.0
99.250031 84.0
99.257912 208.0
99.316223 256.0
99.336906 160.0
99.40947 120.0
99.463287 232.0
99.526581 124.0
99.559288 196.0
99.594101 88.0
99.626678 360.0
99.653702 44.0
99.686005 216.0
99.709335 200.0
99.733185 196.0
99.747101 128.0
99.772583 176.0
99.791649 216.0
99.822647 172.0
99.840324 176.0
99.861382 132.0
99.888199 96.0
99.907448 164.0
99.933617 172.0
99.967865 196.0
99.997711 140.0
100.019608 180.0
100.049469 180.0
100.075447 5260.0
100.113007 136.0
100.126457 148.0
100.146164 200.0
100.171745 168.0
100.216759 28.0
100.242661 128.0
100.269791 176.0
100.305367 156.0
100.32637 92.0
100.372231 180.0
100.394608 36.0
100.440033 136.0
100.458603 352.0
100.50116 188.0
100.517792 168.0
100.539307 180.0
100.560852 172.0
100.608162 188.0
100.62339 136.0
100.667557 140.0
100.689522 112.0
100.721771 352.0
100.73085 52.0
100.737587 120.0
100.775414 180.0
100.797066 172.0
100.890327 208.0
100.990524 124.0
101.039322 128.0
101.081833 144.0
101.12336 144.0
101.145378 80.0
101.163391 180.0
101.187675 124.0
101.204277 152.0
101.225456 152.0
101.261597 88.0
101.295288 152.0
101.333618 96.0
101.349648 152.0
101.369682 92.0
101.391724 120.0
101.455864 100.0
101.560791 148.0
101.582207 44.0
101.624886 164.0
101.664642 200.0
101.696571 268.0
101.712631 132.0
101.731422 408.0
101.780891 160.0
101.862686 208.0
101.913765 140.0
101.959671 168.0
101.975746 48.0
101.998901 108.0
102.030022 148.0
102.063515 164.0
102.086418 80.0
102.110451 172.0
102.130562 28.0
102.188904 152.0
102.215973 168.0
102.237251 144.0
102.256721 176.0
102.263031 124.0
102.269501 156.0
102.293884 24.0
102.334389 140.0
102.370056 80.0
102.388184 52.0
102.409515 204.0
102.44458 188.0
102.483147 140.0
102.543312 148.0
102.565033 156.0
102.64814 328.0
102.678047 116.0
102.709496 208.0
102.738785 144.0
102.761086 120.0
102.794632 128.0
102.827682 64.0
102.851883 256.0
102.86805 132.0
102.91246 236.0
102.930305 148.0
102.958771 240.0
103.013435 236.0
103.055191 336.0
103.100319 96.0
103.114464 132.0
103.134674 152.0
103.15287 116.0
103.19162 164.0
103.238487 264.0
103.260025 328.0
103.284302 176.0
103.334869 36.0
103.353081 132.0
103.429909 108.0
103.452377 128.0
103.470291 180.0
103.492744 148.0
103.555984 172.0
103.575256 228.0
103.611519 136.0
103.652847 184.0
103.67099 124.0
103.691261 124.0
103.714149 176.0
103.79834 112.0
103.850609 256.0
103.883583 168.0
103.912766 168.0
103.953697 176.0
103.975189 108.0
103.995483 164.0
104.013748 400.0
104.036079 220.0
104.088867 164.0
104.108444 156.0
104.151825 132.0
104.172134 124.0
104.192451 120.0
104.267632 140.0
104.295311 116.0
104.312347 156.0
104.328979 88.0
104.403145 188.0
104.434341 184.0
104.462822 204.0
104.483162 120.0
104.512123 152.0
104.540138 168.0
104.621223 100.0
104.648018 104.0
104.684273 124.0
104.715981 160.0
104.744026 136.0
104.762062 76.0
104.821144 116.0
104.835411 84.0
104.856705 116.0
104.880249 164.0
104.906746 108.0
104.926315 420.0
104.955986 132.0
104.982605 136.0
105.027298 196.0
105.053566 148.0
105.078148 84.0
105.102531 128.0
105.127022 100.0
105.143349 124.0
105.17292 132.0
105.222458 312.0
105.251717 224.0
105.282295 64.0
105.308716 188.0
105.337677 156.0
105.365913 60.0
105.381546 172.0
105.397293 144.0
105.416992 244.0
105.48671 180.0
105.506264 136.0
105.577133 120.0
105.613258 136.0
105.698082 124.0
105.723732 144.0
105.764259 180.0
105.786713 140.0
105.81311 200.0
105.865768 96.0
105.907333 196.0
105.979523 264.0
105.983612 140.0
106.018623 48.0
106.051414 184.0
106.073601 136.0
106.079025 212.0
106.117012 64.0
106.131363 208.0
106.147392 180.0
106.190834 180.0
106.217644 112.0
106.240059 160.0
106.261078 200.0
106.281311 108.0
106.342659 300.0
106.400131 112.0
106.432983 124.0
106.449409 160.0
106.463783 192.0
106.479073 184.0
106.495575 192.0
106.5298 112.0
106.591148 52.0
106.60553 312.0
106.640465 160.0
106.675407 148.0
106.716522 140.0
106.751442 176.0
106.794464 184.0
106.813179 140.0
106.854324 148.0
106.874901 128.0
106.889297 120.0
106.922226 136.0
106.955154 108.0
106.981918 164.0
107.052849 248.0
107.092575 124.0
107.132248 164.0
107.165207 60.0
107.187378 168.0
107.192635 128.0
107.262062 140.0
107.325974 144.0
107.344528 184.0
107.369247 176.0
107.382072 136.0
107.402275 160.0
107.447662 104.0
107.478607 172.0
107.49305 148.0
107.50956 160.0
107.54258 220.0
107.563217 44.0
107.621025 176.0
107.655724 204.0
107.709824 148.0
107.736679 140.0
107.769737 144.0
107.792465 312.0
107.82917 84.0
107.889603 152.0
107.940704 128.0
107.970306 132.0
108.005547 180.0
108.044708 172.0
108.083908 152.0
108.149185 208.0
108.220627 196.0
108.23719 96.0
108.291031 160.0
108.305527 68.0
108.344131 236.0
108.382179 224.0
108.425697 108.0
108.455719 256.0
108.535561 116.0
108.550079 60.0
108.574959 172.0
108.59288 312.0
108.628891 212.0
108.651711 136.0
108.675781 188.0
108.691124 72.0
108.740929 192.0
108.774139 168.0
108.821892 80.0
108.859261 64.0
108.890411 144.0
108.950928 152.0
108.991692 212.0
109.022308 304.0
109.038536 264.0
109.060783 92.0
109.166809 164.0
109.195923 164.0
109.220245 156.0
109.241623 136.0
109.259712 168.0
109.293694 116.0
109.310341 120.0
109.326988 104.0
109.443558 112.0
109.468903 184.0
109.514359 164.0
109.538902 148.0
109.55394 152.0
109.570488 220.0
109.61644 104.0
109.648743 208.0
109.674797 192.0
109.708595 180.0
109.726028 180.0
109.748077 156.0
109.797806 64.0
109.862465 168.0
109.881241 148.0
109.897926 136.0
109.925056 332.0
109.94384 224.0
109.991035 184.0
110.014801 144.0
110.041939 76.0
110.087875 232.0
110.11042 260.0
110.144012 232.0
110.173515 124.0
110.190224 172.0
110.204849 80.0
110.221565 136.0
110.296799 108.0
110.315613 72.0
110.340698 132.0
110.374672 164.0
110.401337 144.0
110.429802 156.0
110.468262 120.0
110.494347 256.0
110.51651 140.0
110.554047 168.0
110.572884 112.0
110.590485 176.0
110.612648 164.0
110.629395 160.0
110.696762 204.0
110.729904 96.0
110.769394 180.0
110.828354 200.0
110.850899 200.0
110.920769 208.0
110.966682 116.0
110.981361 184.0
110.995934 156.0
111.042175 168.0
111.056854 156.0
111.079231 252.0
111.107201 140.0
111.129425 128.0
111.159653 104.0
111.195045 180.0
111.21199 132.0
111.275093 132.0
111.293991 184.0
111.310791 312.0
111.329689 84.0
111.352791 80.0
111.40892 144.0
111.447319 168.0
111.486275 244.0
111.520866 104.0
111.552605 180.0
111.603378 176.0
111.643188 132.0
111.672989 140.0
111.714287 204.0
111.754288 72.0
111.773224 176.0
111.812782 140.0
111.832672 224.0
111.865829 124.0
111.880562 204.0
111.897408 88.0
111.928436 164.0
111.954338 212.0
111.970306 232.0
112.027969 108.0
112.075623 1440.0
112.104622 176.0
112.133324 128.0
112.171265 148.0
112.190239 140.0
112.234955 152.0
112.264473 96.0
112.290215 116.0
112.352615 316.0
112.396927 160.0
112.418022 156.0
112.4328 376.0
112.477119 160.0
112.491898 200.0
112.513008 120.0
112.530602 120.0
112.54911 200.0
112.565788 120.0
112.603607 168.0
112.617058 116.0
112.667168 128.0
112.705826 200.0
112.737122 188.0
112.788376 212.0
112.829803 176.0
112.870125 144.0
112.913368 352.0
112.980049 168.0
113.005432 164.0
113.039291 144.0
113.07991 156.0
113.107697 136.0
113.179459 108.0
113.199478 136.0
113.225578 112.0
113.249046 200.0
113.303825 136.0
113.328781 152.0
113.486069 176.0
113.520142 96.0
113.537109 136.0
113.575279 64.0
113.600739 124.0
113.621948 152.0
113.663742 92.0
113.677116 144.0
113.715317 68.0
113.776871 160.0
113.795982 180.0
113.861023 184.0
113.883041 112.0
113.91703 140.0
113.938271 112.0
113.97731 128.0
113.991386 208.0
114.006264 132.0
114.042397 192.0
114.067749 152.0
114.091835 108.0
114.133804 140.0
114.148399 116.0
114.186188 164.0
114.229507 172.0
114.248169 176.0
114.256538 136.0
114.298958 124.0
114.331955 160.0
114.361794 164.0
114.452965 116.0
114.502815 204.0
114.533028 256.0
114.590157 68.0
114.631897 124.0
114.646812 148.0
114.692276 228.0
114.729935 196.0
114.752213 220.0
114.770447 120.0
114.794022 136.0
114.822838 140.0
114.881348 156.0
114.906944 100.0
114.926147 148.0
114.978912 176.0
115.020599 124.0
115.054901 1440.0
115.090492 168.0
115.124962 196.0
115.208427 236.0
115.249413 188.0
115.280602 124.0
115.295563 120.0
115.360435 148.0
115.414368 204.0
115.438789 144.0
115.496536 48.0
115.549606 188.0
115.578896 240.0
115.61676 148.0
115.646309 124.0
115.687912 184.0
115.712662 140.0
115.733299 144.0
115.789574 96.0
115.793381 184.0
115.826996 100.0
115.8545 176.0
115.874512 84.0
115.879341 68.0
115.930557 132.0
115.962433 240.0
115.984993 160.0
116.022316 156.0
116.036331 164.0
116.059296 340.0
116.081253 144.0
116.14241 140.0
116.160553 92.0
116.254951 184.0
116.298889 152.0
116.317192 312.0
116.33287 248.0
116.357979 200.0
116.382866 220.0
116.411659 204.0
116.43528 180.0
116.527649 168.0
116.568474 64.0
116.603828 168.0
116.630135 208.0
116.654442 176.0
116.673553 224.0
116.733162 224.0
116.744171 120.0
116.751999 192.0
116.772346 268.0
116.8004 168.0
116.850288 168.0
116.867401 160.0
116.925446 324.0
116.968498 128.0
117.022316 156.0
117.070961 424.0
117.097679 244.0
117.112755 132.0
117.139206 144.0
117.23851 188.0
117.259262 92.0
117.278664 132.0
117.309425 248.0
117.352722 192.0
117.376656 140.0
117.414055 180.0
117.441628 152.0
117.479195 136.0
117.521339 180.0
117.547913 160.0
117.56749 152.0
117.589241 256.0
117.647606 128.0
117.672852 136.0
117.690544 220.0
117.720924 180.0
117.74131 292.0
117.772758 152.0
117.806374 228.0
117.831085 188.0
117.863693 256.0
117.88726 168.0
117.927338 184.0
117.964737 132.0
117.990196 160.0
118.034248 164.0
118.051552 108.0
118.074158 132.0
118.12899 184.0
118.159111 176.0
118.189003 176.0
118.223167 288.0
118.24353 124.0
118.321411 136.0
118.36319 204.0
118.408623 168.0
118.449776 80.0
118.488716 152.0
118.519104 132.0
118.537338 260.0
118.560272 208.0
118.582008 136.0
118.664314 164.0
118.746719 168.0
118.781418 128.0
118.854744 156.0
118.884682 108.0
118.911377 116.0
118.977707 132.0
119.009636 124.0
119.028831 96.0
119.06218 224.0
119.104843 100.0
119.13308 36.0
119.155678 220.0
119.198257 120.0
119.255051 180.0
119.303238 132.0
119.317024 112.0
119.349594 180.0
119.402603 120.0
119.472206 148.0
119.51268 172.0
119.543449 172.0
119.572296 172.0
119.618835 188.0
119.665894 200.0
119.685043 168.0
119.716965 160.0
119.748352 148.0
119.78083 152.0
119.804367 172.0
119.86528 96.0
119.876266 48.0
119.936127 168.0
119.98938 192.0
120.071198 216.0
120.086464 116.0
120.106819 168.0
120.15004 376.0
120.167175 192.0
120.188995 112.0
120.215828 364.0
120.243431 148.0
120.251343 140.0
120.317764 188.0
120.37944 80.0
120.437859 172.0
120.459702 124.0
120.491531 168.0
120.516502 252.0
120.547096 48.0
120.592552 120.0
120.639229 160.0
120.661545 156.0
120.678246 116.0
120.697922 128.0
120.743843 148.0
120.770088 172.0
120.805153 128.0
120.81987 464.0
120.861969 144.0
120.889771 192.0
120.92543 148.0
120.960449 332.0
121.000275 168.0
121.026489 120.0
121.070381 192.0
121.094009 72.0
121.115913 72.0
121.150528 180.0
121.182899 224.0
121.205421 168.0
121.231781 176.0
121.328468 48.0
121.346344 132.0
121.372063 168.0
121.380615 148.0
121.449074 140.0
121.492943 192.0
121.514885 200.0
121.558769 220.0
121.611168 188.0
121.642166 188.0
121.659035 164.0
121.667648 112.0
121.697052 132.0
121.72303 144.0
121.754143 216.0
121.784889 152.0
121.859581 112.0
121.88044 300.0
121.896362 200.0
121.918907 248.0
121.946198 256.0
121.979912 164.0
121.988388 124.0
122.027008 220.0
122.051895 176.0
122.068169 160.0
122.103577 112.0
122.127769 140.0
122.143166 152.0
122.189362 148.0
122.215759 172.0
122.244362 200.0
122.290581 160.0
122.332405 208.0
122.369827 108.0
122.385239 140.0
122.418266 124.0
122.435883 52.0
122.455872 160.0
122.474976 132.0
122.505356 192.0
122.528397 124.0
122.551247 368.0
122.584717 136.0
122.615845 128.0
122.656212 152.0
122.678986 48.0
122.700294 212.0
122.735184 204.0
122.765312 156.0
122.815735 172.0
122.858795 124.0
122.904289 204.0
122.938156 124.0
122.941711 160.0
122.979179 112.0
123.062119 104.0
123.098999 40.0
123.12616 180.0
123.179169 88.0
123.210091 196.0
123.243568 184.0
123.265327 112.0
123.293724 160.0
123.324997 108.0
123.342682 132.0
123.376335 196.0
123.400154 116.0
123.444885 208.0
123.471024 324.0
123.592583 128.0
123.621346 88.0
123.656609 184.0
123.68914 120.0
123.696999 184.0
123.765221 144.0
123.794395 232.0
123.835754 160.0
123.84436 136.0
123.873741 136.0
123.915756 120.0
123.932953 312.0
123.977875 192.0
124.039413 188.0
124.04277 100.0
124.075401 208.0
124.102005 172.0
124.123909 164.0
124.146355 124.0
124.185722 152.0
124.202652 208.0
124.239258 176.0
124.257256 112.0
124.272789 232.0
124.299416 120.0
124.316154 144.0
124.37709 172.0
124.397064 36.0
124.421486 60.0
124.443687 128.0
124.480423 344.0
124.519188 128.0
124.556946 104.0
124.594704 136.0
124.620628 120.0
124.654694 196.0
124.669823 124.0
124.685806 152.0
124.714699 104.0
124.749825 180.0
124.800125 112.0
124.804482 104.0
124.814651 208.0
124.850319 152.0
124.866882 268.0
124.897301 160.0
124.929138 256.0
124.98156 84.0
125.023117 148.0
125.046097 188.0
125.061676 92.0
125.119553 132.0
125.155701 152.0
125.219749 132.0
125.239799 292.0
125.326965 184.0
125.359428 260.0
125.379723 164.0
125.402443 148.0
125.420273 176.0
125.465652 168.0
125.48938 124.0
125.542892 180.0
125.585266 96.0
125.627647 104.0
125.687889 208.0
125.725586 76.0
125.740578 176.0
125.765991 172.0
125.808403 168.0
125.837425 92.0
125.864464 184.0
125.904419 196.0
125.925331 384.0
125.938416 180.0
125.962738 72.0
125.995995 128.0
126.015274 140.0
126.051079 220.0
126.090691 1412.0
126.152832 288.0
126.198143 160.0
126.241859 68.0
126.266457 128.0
126.287285 204.0
126.324608 124.0
126.346985 112.0
126.367226 160.0
126.392624 100.0
126.429085 164.0
126.467819 168.0
126.535088 172.0
126.561836 188.0
126.577515 120.0
126.595108 196.0
126.628014 160.0
126.685013 144.0
126.712891 144.0
126.755882 152.0
126.788017 156.0
126.820915 148.0
126.898438 160.0
126.922256 276.0
126.949486 56.0
127.000671 204.0
127.053871 276.0
127.094681 148.0
127.104019 108.0
127.111458 136.0
127.128952 136.0
127.166023 400.0
127.191788 40.0
127.23085 340.0
127.269516 148.0
127.31752 144.0
127.339981 236.0
127.360191 60.0
127.409607 180.0
127.443993 128.0
127.467453 176.0
127.557922 272.0
127.573189 152.0
127.605133 44.0
127.627617 228.0
127.655685 124.0
127.692833 132.0
127.749474 44.0
127.776672 176.0
127.796158 172.0
127.818939 200.0
127.849823 172.0
127.884071 172.0
127.928825 208.0
127.967361 156.0
127.989876 116.0
128.062637 3556.0
128.107239 11360.0
128.166016 196.0
128.190353 228.0
128.27887 116.0
128.296158 96.0
128.363922 252.0
128.392578 196.0
128.410477 216.0
128.430298 120.0
128.489014 112.0
128.524567 72.0
128.564178 204.0
128.60643 24.0
128.620529 188.0
128.64183 176.0
128.731735 132.0
128.756027 328.0
128.774643 152.0
128.813965 136.0
128.837509 144.0
128.874512 184.0
128.984772 116.0
129.012054 116.0
129.06871 1364.0
129.110031 1420.0
129.143051 88.0
129.161148 108.0
129.18602 40.0
129.235794 144.0
129.251633 128.0
129.28479 116.0
129.371582 44.0
129.394226 136.0
129.414642 184.0
129.448563 164.0
129.489334 112.0
129.531219 136.0
129.561813 148.0
129.577667 124.0
129.620712 112.0
129.650177 168.0
129.728088 160.0
129.770523 132.0
129.823349 192.0
129.889297 216.0
129.905334 120.0
129.935867 112.0
129.982681 176.0
129.999405 120.0
130.038803 156.0
130.06749 112.0
130.076035 136.0
130.084137 196.0
130.1129 340.0
130.133408 104.0
130.149216 216.0
130.20372 64.0
130.24855 124.0
130.305939 132.0
130.33252 160.0
130.376556 100.0
130.410461 180.0
130.432724 136.0
130.465012 144.0
130.484451 124.0
130.501389 108.0
130.521851 200.0
130.555969 92.0
130.578705 216.0
130.626465 60.0
130.658997 256.0
130.678101 144.0
130.724304 132.0
130.773529 176.0
130.807388 192.0
130.849487 168.0
130.876816 176.0
130.906631 208.0
130.934998 144.0
130.980103 152.0
131.031677 116.0
131.077255 116.0
131.09549 132.0
131.113068 112.0
131.117477 80.0
131.133087 136.0
131.168411 200.0
131.196655 204.0
131.217453 164.0
131.355103 248.0
131.378204 136.0
131.416992 104.0
131.435242 176.0
131.464233 148.0
131.534042 232.0
131.56691 168.0
131.590454 120.0
131.622406 140.0
131.663513 168.0
131.681793 116.0
131.721375 156.0
131.730988 52.0
131.737305 184.0
131.794846 276.0
131.821136 164.0
131.843994 100.0
131.885132 108.0
131.967606 144.0
131.986664 96.0
132.012924 156.0
132.02916 256.0
132.065048 116.0
132.084229 164.0
132.126617 304.0
132.152679 152.0
132.189301 168.0
132.244217 164.0
132.276123 124.0
132.299271 164.0
132.330353 188.0
132.353073 180.0
132.382172 188.0
132.425095 60.0
132.448151 300.0
132.457642 212.0
132.498917 140.0
132.553375 188.0
132.599213 152.0
132.614822 148.0
132.638184 40.0
132.660706 164.0
132.698685 152.0
132.74823 116.0
132.775742 260.0
132.795044 148.0
132.851212 120.0
132.86618 188.0
132.88356 208.0
132.950089 124.0
132.977631 156.0
133.060181 104.0
133.068909 180.0
133.156708 148.0
133.188873 148.0
133.275482 144.0
133.301437 212.0
133.331085 164.0
133.381882 96.0
133.400269 120.0
133.429474 188.0
133.486328 120.0
133.526733 184.0
133.551361 180.0
133.581924 96.0
133.600189 128.0
133.660309 160.0
133.685883 156.0
133.690414 184.0
133.765335 204.0
133.861282 196.0
133.897537 192.0
133.989166 168.0
134.059982 144.0
134.077896 136.0
134.129959 40.0
134.153015 220.0
134.177246 276.0
134.229095 132.0
134.307373 148.0
134.340042 152.0
134.381332 120.0
134.408585 348.0
134.423981 124.0
134.487473 140.0
134.53595 216.0
134.553604 148.0
134.583603 276.0
134.639908 164.0
134.667572 128.0
134.695282 120.0
134.739182 156.0
134.785385 368.0
134.803024 132.0
134.820053 164.0
134.83609 140.0
134.868576 204.0
134.90094 188.0
134.965668 240.0
135.007294 168.0
135.084671 184.0
135.123581 160.0
135.130386 204.0
135.168808 136.0
135.178391 100.0
135.185989 132.0
135.247101 156.0
135.262756 184.0
135.294205 208.0
135.318039 176.0
135.342819 156.0
135.372925 196.0
135.40535 84.0
135.437775 104.0
135.472519 140.0
135.493103 104.0
135.501419 92.0
135.505829 148.0
135.573181 108.0
135.580414 120.0
135.620819 116.0
135.648636 136.0
135.693863 156.0
135.719528 192.0
135.750641 148.0
135.798508 160.0
135.816269 176.0
135.848053 108.0
135.90715 168.0
135.954788 116.0
135.973343 84.0
136.001205 176.0
136.031372 136.0
136.077805 76.0
136.098312 120.0
136.119354 196.0
136.141708 100.0
136.184326 124.0
136.188324 108.0
136.198792 80.0
136.206253 116.0
136.251984 180.0
136.286087 224.0
136.312393 116.0
136.336502 160.0
136.358871 188.0
136.379791 208.0
136.400711 168.0
136.425049 196.0
136.4478 204.0
136.486038 312.0
136.530914 104.0
136.551834 136.0
136.604858 156.0
136.636795 148.0
136.689865 132.0
136.706497 100.0
136.730988 312.0
136.756577 248.0
136.778778 176.0
136.803131 128.0
136.840378 136.0
136.86792 152.0
136.88913 192.0
136.943893 196.0
136.978668 376.0
137.001846 168.0
137.03952 104.0
137.076126 172.0
137.108261 228.0
137.178711 140.0
137.209793 164.0
137.225998 156.0
137.262115 148.0
137.2901 104.0
137.308807 92.0
137.335403 224.0
137.388412 184.0
137.433197 212.0
137.504715 124.0
137.581757 252.0
137.601822 252.0
137.630905 148.0
137.660553 128.0
137.719513 112.0
137.785294 224.0
137.803619 136.0
137.882233 136.0
137.901764 116.0
137.943573 144.0
137.99292 76.0
138.012604 220.0
138.029938 116.0
138.051376 96.0
138.095032 240.0
138.142593 168.0
138.200562 180.0
138.233841 128.0
138.279526 220.0
138.299011 104.0
138.348877 132.0
138.395355 148.0
138.465469 144.0
138.488266 260.0
138.540039 140.0
138.561935 64.0
138.578033 340.0
138.653015 284.0
138.679077 136.0
138.70224 140.0
138.728027 144.0
138.760849 104.0
138.793671 208.0
138.840302 36.0
138.861267 160.0
138.90155 148.0
138.941422 184.0
139.004776 180.0
139.047592 224.0
139.087067 128.0
139.118881 148.0
139.166733 184.0
139.230133 132.0
139.260544 152.0
139.266479 144.0
139.275574 220.0
139.303543 188.0
139.35463 60.0
139.372314 148.0
139.40303 40.0
139.450012 156.0
139.474472 124.0
139.499786 148.0
139.540863 152.0
139.570862 308.0
139.650284 228.0
139.683746 104.0
139.74469 128.0
139.75148 116.0
139.75885 104.0
139.799042 156.0
139.821564 112.0
139.829193 64.0
139.843826 148.0
139.863235 52.0
139.914368 60.0
139.956772 160.0
139.989716 116.0
140.059113 180.0
140.131042 180.0
140.16893 96.0
140.197525 148.0
140.237366 100.0
140.268219 132.0
140.286575 152.0
140.325592 160.0
140.369095 156.0
140.424362 128.0
140.471329 196.0
140.548355 128.0
140.587677 220.0
140.616791 124.0
140.64679 136.0
140.674927 172.0
140.703629 132.0
140.754272 184.0
140.83313 208.0
140.884109 76.0
140.913406 124.0
140.936752 228.0
141.013565 100.0
141.038849 200.0
141.069504 1004.0
141.112854 224.0
141.186157 92.0
141.211258 188.0
141.225616 372.0
141.245285 116.0
141.265564 180.0
141.304413 104.0
141.330307 140.0
141.370667 128.0
141.411255 160.0
141.446548 400.0
141.469681 164.0
141.491379 108.0
141.509415 136.0
141.517197 84.0
141.52298 128.0
141.574249 44.0
141.628662 304.0
141.646973 160.0
141.678879 140.0
141.751465 124.0
141.77562 104.0
141.811172 112.0
141.832504 92.0
141.933258 360.0
141.988983 192.0
142.026199 144.0
142.043533 148.0
142.076645 760.0
142.126221 108.0
142.151596 124.0
142.171646 240.0
142.19017 124.0
142.216736 168.0
142.242859 104.0
142.281891 160.0
142.297745 156.0
142.318817 112.0
142.337814 132.0
142.409058 152.0
142.437561 176.0
142.482773 136.0
142.527832 128.0
142.55397 40.0
142.65155 76.0
142.679947 176.0
142.70372 364.0
142.722748 164.0
142.74176 152.0
142.786957 144.0
142.806854 120.0
142.817429 44.0
142.826447 112.0
142.84404 180.0
142.90773 124.0
142.91272 96.0
142.971375 300.0
142.991547 188.0
143.008209 76.0
143.03624 144.0
143.085251 3888.0
143.116165 252.0
143.136765 36.0
143.216507 148.0
143.332092 148.0
143.356964 200.0
143.394043 152.0
143.425034 112.0
143.441711 136.0
143.467941 292.0
143.513229 100.0
143.544235 184.0
143.567322 164.0
143.611008 156.0
143.631058 156.0
143.670639 224.0
143.705627 204.0
143.732468 140.0
143.813812 160.0
143.831848 148.0
143.870041 308.0
143.912521 200.0
143.937943 132.0
144.016953 192.0
144.056366 208.0
144.09079 488.0
144.113022 108.0
144.149124 196.0
144.224625 120.0
144.241364 168.0
144.28598 168.0
144.320251 108.0
144.35141 132.0
144.443802 268.0
144.463745 148.0
144.486191 136.0
144.510452 84.0
144.536469 192.0
144.555679 208.0
144.595337 48.0
144.624069 152.0
144.657578 96.0
144.678146 148.0
144.734177 56.0
144.758133 140.0
144.80603 192.0
144.892258 120.0
144.926575 160.0
144.944962 188.0
144.983307 132.0
145.003311 300.0
145.063843 596.0
145.088882 164.0
145.133881 1244.0
145.165497 44.0
145.193924 164.0
145.228287 156.0
145.263824 200.0
145.306335 128.0
145.323807 60.0
145.340607 68.0
145.362198 136.0
145.393387 176.0
145.414993 168.0
145.437485 164.0
145.482193 88.0
145.522964 180.0
145.580643 168.0
145.686325 144.0
145.715149 116.0
145.731964 196.0
145.75119 128.0
145.794449 84.0
145.827011 160.0
145.870514 172.0
145.902603 160.0
145.974731 204.0
145.996384 184.0
146.022827 136.0
146.039673 172.0
146.05899 332.0
146.094986 144.0
146.120193 160.0
146.142212 512.0
146.176346 152.0
146.183853 124.0
146.203064 148.0
146.218246 280.0
146.249557 152.0
146.301102 228.0
146.347839 116.0
146.417526 84.0
146.455292 176.0
146.471237 172.0
146.51387 184.0
146.529724 180.0
146.551834 184.0
146.558609 140.0
146.576385 232.0
146.603073 104.0
146.660858 276.0
146.718338 152.0
146.732422 412.0
146.77504 208.0
146.88028 148.0
146.903366 188.0
146.93576 64.0
146.955063 124.0
146.976425 164.0
147.031738 160.0
147.049759 164.0
147.074066 164.0
147.12883 188.0
147.167908 236.0
147.183182 148.0
147.228378 192.0
147.265732 92.0
147.290619 92.0
147.309937 420.0
147.346176 188.0
147.389664 132.0
147.429367 112.0
147.50325 240.0
147.567123 124.0
147.604797 180.0
147.641068 136.0
147.67009 140.0
147.696701 124.0
147.774109 116.0
147.795883 140.0
147.822495 208.0
147.856369 124.0
147.907196 160.0
147.968658 260.0
148.0634 292.0
148.117859 128.0
148.172623 232.0
148.1978 124.0
148.229858 156.0
148.260742 140.0
148.333679 184.0
148.360184 72.0
148.419662 180.0
148.447845 156.0
148.473923 180.0
148.514389 168.0
148.536163 180.0
148.571289 316.0
148.607559 112.0
148.629395 124.0
148.677917 172.0
148.708878 212.0
148.733749 128.0
148.75499 208.0
148.801712 380.0
148.819931 140.0
148.903885 216.0
148.949844 256.0
148.975647 104.0
148.993576 168.0
149.035995 192.0
149.055084 216.0
149.076187 64.0
149.095627 208.0
149.12149 160.0
149.147293 200.0
149.166107 168.0
149.207062 180.0
149.226883 64.0
149.294159 156.0
149.350906 72.0
149.370361 100.0
149.424255 180.0
149.448212 204.0
149.489578 180.0
149.511475 140.0
149.531052 100.0
149.570816 220.0
149.613708 160.0
149.656052 196.0
149.681885 56.0
149.73735 144.0
149.747269 108.0
149.788498 144.0
149.820709 200.0
149.85463 264.0
149.898666 148.0
149.935226 160.0
149.96225 224.0
150.119232 100.0
150.170715 216.0
150.19754 184.0
150.218048 152.0
150.275711 220.0
150.347366 148.0
150.380646 152.0
150.47673 180.0
150.502731 80.0
150.525574 80.0
150.558655 164.0
150.588501 404.0
150.62294 156.0
150.669586 108.0
150.720978 160.0
150.751831 128.0
150.794006 168.0
150.818726 176.0
150.870071 140.0
150.892059 196.0
150.9263 108.0
150.977646 228.0
151.018539 228.0
151.057587 152.0
151.084381 176.0
151.1241 92.0
151.137863 160.0
151.233307 152.0
151.291779 140.0
151.313705 188.0
151.340073 176.0
151.362335 204.0
151.390289 220.0
151.457352 192.0
151.481842 168.0
151.513687 164.0
151.542389 156.0
151.567581 180.0
151.605942 180.0
151.631302 96.0
151.650909 156.0
151.719208 180.0
151.734253 212.0
151.770554 168.0
151.787964 180.0
151.812714 180.0
151.851944 160.0
151.879379 680.0
151.897812 172.0
151.906189 184.0
151.974533 148.0
152.004044 216.0
152.061035 1392.0
152.099762 232.0
152.115982 88.0
152.131668 192.0
152.176788 64.0
152.197952 104.0
152.256897 160.0
152.283905 72.0
152.324646 232.0
152.363922 128.0
152.421478 132.0
152.470627 124.0
152.502579 152.0
152.524948 160.0
152.556656 52.0
152.619232 420.0
152.738358 184.0
152.800461 164.0
152.839478 176.0
152.87886 136.0
152.90593 148.0
152.923157 164.0
153.004379 48.0
153.071014 1908.0
153.104568 152.0
153.133301 192.0
153.144073 176.0
153.172714 152.0
153.191544 56.0
153.230804 128.0
153.259415 80.0
153.287018 64.0
153.316833 188.0
153.346771 200.0
153.413513 160.0
153.443726 192.0
153.487289 120.0
153.510712 144.0
153.531677 164.0
153.571823 216.0
153.606781 80.0
153.634766 136.0
153.677048 188.0
153.715622 84.0
153.753708 44.0
153.786392 180.0
153.872177 212.0
153.924271 124.0
153.945374 168.0
153.985764 292.0
154.009415 132.0
154.048752 100.0
154.076462 1248.0
154.118576 100.0
154.178467 128.0
154.218872 232.0
154.371582 136.0
154.410858 136.0
154.432388 176.0
154.450928 40.0
154.533188 92.0
154.561752 76.0
154.58403 156.0
154.604584 184.0
154.653122 152.0
154.706467 128.0
154.737488 104.0
154.76149 172.0
154.788437 180.0
154.816406 128.0
154.858566 116.0
154.893494 196.0
154.910843 120.0
154.98764 120.0
155.020523 268.0
155.058456 516.0
155.085022 2568.0
155.133865 148.0
155.19812 148.0
155.231277 192.0
155.255356 132.0
155.277985 128.0
155.310898 172.0
155.365387 300.0
155.390259 144.0
155.427277 156.0
155.462891 176.0
155.521759 168.0
155.582809 204.0
155.65239 204.0
155.676819 196.0
155.684799 164.0
155.692612 204.0
155.726883 144.0
155.744278 140.0
155.766632 196.0
155.784225 96.0
155.809784 204.0
155.835754 208.0
155.879379 220.0
155.922424 176.0
155.948746 96.0
156.000214 260.0
156.03537 164.0
156.066101 112.0
156.084412 520.0
156.089478 356.0
156.142929 60.0
156.187775 140.0
156.219604 124.0
156.243088 180.0
156.28598 124.0
156.323532 300.0
156.369751 232.0
156.400696 140.0
156.433517 184.0
156.460434 112.0
156.480347 116.0
156.525345 136.0
156.587418 136.0
156.629761 120.0
156.664642 152.0
156.693954 144.0
156.719986 184.0
156.740875 148.0
156.76181 68.0
156.795609 136.0
156.817627 160.0
156.864975 164.0
156.890701 140.0
156.953735 152.0
156.983658 116.0
157.065262 340.0
157.1017 512.0
157.168243 172.0
157.232513 192.0
157.273056 80.0
157.31987 172.0
157.370422 380.0
157.404266 208.0
157.41684 88.0
157.422531 92.0
157.445328 76.0
157.470306 220.0
157.495285 168.0
157.544083 96.0
157.565231 52.0
157.597702 368.0
157.634277 144.0
157.655182 140.0
157.680679 232.0
157.730164 88.0
157.758072 168.0
157.815155 148.0
157.840515 340.0
157.882675 168.0
157.91716 136.0
157.935028 128.0
157.980026 104.0
158.013718 132.0
158.042236 288.0
158.072784 180.0
158.105865 108.0
158.127777 168.0
158.170395 204.0
158.18721 172.0
158.226746 188.0
158.25975 184.0
158.287323 292.0
158.305588 228.0
158.328125 144.0
158.358643 236.0
158.377823 208.0
158.428314 152.0
158.469238 148.0
158.49707 176.0
158.554718 156.0
158.597824 192.0
158.623795 164.0
158.656357 140.0
158.675751 288.0
158.720291 200.0
158.73909 172.0
158.759155 72.0
158.779221 312.0
158.812546 160.0
158.846176 196.0
158.867004 148.0
158.922195 128.0
158.942581 132.0
159.007523 100.0
159.037888 164.0
159.127914 112.0
159.148087 168.0
159.19429 80.0
159.245667 180.0
159.273651 96.0
159.300171 180.0
159.327072 136.0
159.362534 180.0
159.37326 128.0
159.377106 156.0
159.411835 328.0
159.454727 120.0
159.492264 140.0
159.525772 180.0
159.55957 196.0
159.595337 140.0
159.61293 116.0
159.640594 76.0
159.660049 212.0
159.701141 140.0
159.727585 88.0
159.751251 56.0
159.771378 120.0
159.799057 244.0
159.839752 300.0
159.890869 184.0
159.909775 56.0
159.932419 148.0
160.010468 148.0
160.077393 96.0
160.117828 144.0
160.172623 320.0
160.244598 116.0
160.30011 132.0
160.320282 80.0
160.35051 76.0
160.368164 56.0
160.401489 108.0
160.423615 228.0
160.460785 188.0
160.524246 140.0
160.529266 128.0
160.539902 128.0
160.550034 144.0
160.589478 140.0
160.616547 188.0
160.66066 88.0
160.695831 136.0
160.733826 148.0
160.771683 120.0
160.817108 148.0
160.866364 132.0
160.907974 168.0
160.943787 176.0
160.9711 140.0
161.012848 120.0
161.045059 184.0
161.061401 148.0
161.092667 152.0
161.123932 252.0
161.21727 168.0
161.251511 116.0
161.294479 116.0
161.31218 76.0
161.338501 192.0
161.370911 324.0
161.406387 180.0
161.453766 140.0
161.481583 172.0
161.504486 140.0
161.562332 188.0
161.615555 200.0
161.622299 192.0
161.632095 128.0
161.678909 136.0
161.713287 124.0
161.733383 136.0
161.761383 296.0
161.781387 156.0
161.919418 60.0
161.990341 132.0
162.038467 116.0
162.11171 144.0
162.136169 212.0
162.175308 180.0
162.206177 308.0
162.217255 132.0
162.228485 228.0
162.269104 132.0
162.363602 120.0
162.418716 224.0
162.441544 76.0
162.461838 176.0
162.517654 140.0
162.548111 168.0
162.581085 360.0
162.631851 140.0
162.654694 52.0
162.683563 204.0
162.727127 128.0
162.753708 108.0
162.827347 160.0
162.888306 180.0
162.969635 324.0
162.989487 140.0
162.99588 116.0
163.003525 180.0
163.025497 216.0
163.04837 152.0
163.066162 156.0
163.136002 348.0
163.142929 176.0
163.195801 128.0
163.22377 136.0
163.246658 156.0
163.295197 144.0
163.348389 148.0
163.399261 236.0
163.432343 112.0
163.511688 132.0
163.569763 228.0
163.605408 64.0
163.628326 224.0
163.691971 88.0
163.718704 184.0
163.745377 144.0
163.782471 164.0
163.81575 120.0
163.888535 72.0
163.920166 140.0
163.984604 180.0
163.99408 156.0
164.003922 116.0
164.02359 144.0
164.084351 180.0
164.101852 116.0
164.127701 164.0
164.146866 160.0
164.215347 128.0
164.251892 212.0
164.298096 148.0
164.32663 128.0
164.35434 140.0
164.360977 260.0
164.443573 348.0
164.467743 108.0
164.495316 184.0
164.512939 240.0
164.546127 128.0
164.581863 48.0
164.650253 200.0
164.687073 220.0
164.745316 96.0
164.794556 176.0
164.827133 200.0
164.841125 88.0
164.850067 200.0
164.912231 160.0
164.935486 152.0
164.972748 284.0
165.04689 148.0
165.070038 696.0
165.128967 172.0
165.159897 192.0
165.207382 128.0
165.233597 136.0
165.25943 164.0
165.293137 300.0
165.338837 156.0
165.37178 180.0
165.422455 184.0
165.448669 356.0
165.55191 220.0
165.600021 152.0
165.643188 160.0
165.709793 172.0
165.730484 168.0
165.75592 188.0
165.773849 112.0
165.820068 192.0
165.843048 144.0
165.863556 152.0
165.8815 168.0
165.902008 128.0
165.986618 56.0
166.004562 224.0
166.022507 92.0
166.07637 132.0
166.112274 184.0
166.143066 116.0
166.178986 188.0
166.222595 112.0
166.254166 172.0
166.327484 120.0
166.423035 140.0
166.45105 236.0
166.488617 224.0
166.561478 116.0
166.589828 112.0
166.683472 200.0
166.743912 288.0
166.790176 116.0
166.862152 44.0
166.882721 184.0
166.921799 524.0
166.943527 184.0
166.972717 156.0
167.023621 156.0
167.051285 140.0
167.086884 340.0
167.147644 128.0
167.170807 120.0
167.201675 172.0
167.26181 176.0
167.32579 92.0
167.374161 208.0
167.407684 172.0
167.480713 164.0
167.524643 148.0
167.602448 164.0
167.620361 96.0
167.633667 64.0
167.638321 192.0
167.677521 136.0
167.694916 296.0
167.755447 232.0
167.782318 120.0
167.789734 108.0
167.82814 308.0
167.856766 128.0
167.916412 172.0
167.951416 100.0
167.97464 156.0
167.997849 148.0
168.02623 36.0
168.058762 588.0
168.125793 68.0
168.14093 192.0
168.174088 148.0
168.234039 160.0
168.261078 112.0
168.291153 176.0
168.326324 208.0
168.355804 192.0
168.413437 400.0
168.431519 148.0
168.480591 40.0
168.507416 188.0
168.537811 108.0
168.545853 140.0
168.57045 144.0
168.579605 112.0
168.584915 180.0
168.605438 292.0
168.624802 168.0
168.664703 144.0
168.700256 116.0
168.762299 88.0
168.780396 200.0
168.801086 172.0
168.821945 60.0
168.85022 232.0
168.891602 196.0
168.964035 132.0
169.022354 296.0
169.063171 508.0
169.100174 180.0
169.155533 140.0
169.199539 136.0
169.235779 260.0
169.26944 128.0
169.391159 144.0
169.417068 40.0
169.449707 208.0
169.487503 196.0
169.514893 100.0
169.551804 144.0
169.597183 188.0
169.619186 100.0
169.660675 164.0
169.681412 56.0
169.716919 336.0
169.747299 112.0
169.775925 220.0
169.809174 248.0
169.82811 112.0
169.857742 124.0
169.885941 60.0
169.952301 296.0
169.997849 180.0
170.044128 148.0
170.072327 676.0
170.166565 112.0
170.202911 160.0
170.270874 92.0
170.288559 196.0
170.304901 116.0
170.314972 160.0
170.348343 76.0
170.411423 204.0
170.465195 92.0
170.526703 204.0
170.558823 196.0
170.589462 316.0
170.617844 148.0
170.652039 168.0
170.694016 156.0
170.73822 100.0
170.772034 212.0
170.852661 140.0
170.87088 188.0
170.889084 140.0
170.921509 312.0
170.973114 352.0
171.007446 176.0
171.080643 5476.0
171.119415 120.0
171.130554 216.0
171.15007 324.0
171.195892 164.0
171.235291 96.0
171.266556 44.0
171.326324 152.0
171.379639 136.0
171.450058 156.0
171.47876 152.0
171.501053 284.0
171.564362 160.0
171.622513 148.0
171.642883 164.0
171.67952 132.0
171.710052 148.0
171.748749 196.0
171.776917 140.0
171.781158 112.0
171.82962 180.0
171.889618 188.0
171.954468 136.0
172.048508 228.0
172.054474 272.0
172.083633 712.0
172.155884 548.0
172.176773 252.0
172.200806 160.0
172.209076 76.0
172.294312 244.0
172.317825 64.0
172.346298 220.0
172.374466 136.0
172.385529 92.0
172.393738 116.0
172.413742 208.0
172.509842 160.0
172.528351 172.0
172.575424 96.0
172.605331 128.0
172.636719 260.0
172.713043 184.0
172.736099 52.0
172.757019 100.0
172.788422 128.0
172.843796 144.0
172.866913 164.0
172.885223 112.0
172.91925 144.0
172.997772 184.0
173.03331 184.0
173.05954 148.0
173.103012 228.0
173.108948 216.0
173.162735 100.0
173.183685 100.0
173.211594 92.0
173.238693 156.0
173.267517 144.0
173.368515 80.0
173.39328 148.0
173.421616 84.0
173.447128 132.0
173.455505 124.0
173.465073 144.0
173.514984 116.0
173.542984 144.0
173.576508 148.0
173.581863 188.0
173.621368 152.0
173.660645 164.0
173.696274 136.0
173.760391 176.0
173.791718 144.0
173.870255 184.0
173.891586 60.0
173.962509 196.0
173.996582 108.0
174.024734 188.0
174.146255 168.0
174.165955 108.0
174.29863 72.0
174.317017 48.0
174.356323 96.0
174.364975 112.0
174.377243 140.0
174.408997 104.0
174.461578 164.0
174.485229 284.0
174.519791 192.0
174.569458 128.0
174.616714 176.0
174.669312 212.0
174.687729 92.0
174.724411 216.0
174.795593 180.0
174.830765 132.0
174.860321 296.0
174.893906 148.0
174.936615 216.0
174.961411 160.0
175.016693 68.0
175.043427 292.0
175.074448 200.0
175.166809 132.0
175.190674 128.0
175.236023 192.0
175.284775 252.0
175.352463 200.0
175.390778 96.0
175.446136 84.0
175.481308 140.0
175.506592 176.0
175.559052 148.0
175.59671 116.0
175.655609 204.0
175.708786 196.0
175.772186 140.0
175.829895 196.0
175.86232 160.0
175.867844 124.0
175.879547 144.0
175.899429 148.0
175.986984 392.0
176.026581 284.0
176.045074 180.0
176.082047 236.0
176.163834 124.0
176.195618 72.0
176.222702 320.0
176.245819 208.0
176.279037 168.0
176.304886 148.0
176.396454 120.0
176.428177 76.0
176.463867 200.0
176.477829 128.0
176.485794 172.0
176.505798 112.0
176.563034 108.0
176.594681 216.0
176.624039 188.0
176.730118 148.0
176.75972 148.0
176.799042 112.0
176.841217 136.0
176.885818 128.0
176.906998 184.0
176.948563 412.0
176.989075 160.0
177.069031 124.0
177.094162 88.0
177.155914 152.0
177.179764 144.0
177.227448 104.0
177.270264 176.0
177.306946 184.0
177.397064 132.0
177.439484 172.0
177.558807 124.0
177.581543 244.0
177.668579 196.0
177.706833 124.0
177.752457 156.0
177.789444 192.0
177.840637 144.0
177.870834 248.0
177.899506 168.0
177.918625 132.0
177.939728 136.0
177.961243 196.0
178.017899 80.0
178.046524 356.0
178.070251 152.0
178.100571 156.0
178.141281 156.0
178.160614 224.0
178.206345 148.0
178.283554 128.0
178.300934 140.0
178.327591 208.0
178.377106 220.0
178.409973 164.0
178.440369 144.0
178.477325 156.0
178.555664 112.0
178.58757 124.0
178.629745 172.0
178.655334 140.0
178.714325 108.0
178.735611 68.0
178.773026 132.0
178.799469 116.0
178.845779 180.0
178.873993 48.0
178.937881 160.0
178.977829 116.0
179.024338 128.0
179.082748 140.0
179.090393 348.0
179.116302 96.0
179.137344 80.0
179.161591 140.0
179.198883 160.0
179.252182 52.0
179.337463 96.0
179.373032 232.0
179.413742 188.0
179.482697 100.0
179.515549 140.0
179.534744 204.0
179.572083 100.0
179.617416 224.0
179.644104 84.0
179.692123 104.0
179.732132 112.0
179.75882 180.0
179.865646 152.0
179.900269 164.0
179.938965 172.0
179.991043 92.0
180.031097 156.0
180.071167 184.0
180.109848 116.0
180.137939 284.0
180.156281 192.0
180.185287 172.0
180.257935 332.0
180.301453 212.0
180.338867 200.0
180.367737 156.0
180.439911 168.0
180.508499 168.0
180.557571 88.0
180.638672 148.0
180.663269 108.0
180.688629 160.0
180.712708 196.0
180.735291 188.0
180.798889 212.0
180.821457 188.0
180.90004 168.0
180.932175 120.0
181.009018 200.0
181.01915 140.0
181.071228 468.0
181.117203 124.0
181.145416 224.0
181.194016 188.0
181.253571 108.0
181.308365 160.0
181.380219 140.0
181.411163 164.0
181.435822 284.0
181.45726 136.0
181.494797 292.0
181.513565 236.0
181.537704 176.0
181.56868 156.0
181.625748 192.0
181.66095 164.0
181.714157 260.0
181.73941 204.0
181.78862 164.0
181.814331 292.0
181.869019 332.0
181.914459 188.0
181.960144 372.0
182.008698 140.0
182.031937 204.0
182.073257 828.0
182.116684 136.0
182.17984 176.0
182.21019 168.0
182.220993 92.0
182.230972 128.0
182.263779 284.0
182.321579 148.0
182.382843 184.0
182.423706 148.0
182.447906 112.0
182.491776 352.0
182.536209 128.0
182.544998 108.0
182.550797 120.0
182.576965 96.0
182.610626 116.0
182.665726 88.0
182.689941 168.0
182.734253 84.0
182.773331 112.0
182.813705 112.0
182.857361 340.0
182.896545 148.0
182.92421 136.0
182.945587 68.0
182.972504 228.0
183.016953 212.0
183.045197 164.0
183.079346 1060.0
183.137405 84.0
183.169083 160.0
183.190643 212.0
183.214874 168.0
183.27684 148.0
183.311874 168.0
183.330734 188.0
183.371475 312.0
183.390594 152.0
183.522125 88.0
183.550476 216.0
183.589539 100.0
183.620117 164.0
183.659653 120.0
183.689331 160.0
183.732712 148.0
183.778351 52.0
183.799942 156.0
183.851212 148.0
183.884567 140.0
183.932175 164.0
183.963242 212.0
184.053513 420.0
184.086746 328.0
184.164383 100.0
184.20871 264.0
184.271484 160.0
184.304413 172.0
184.347488 192.0
184.380524 64.0
184.410248 56.0
184.430542 180.0
184.439392 92.0
184.449234 160.0
184.488632 112.0
184.56163 152.0
184.585968 36.0
184.613007 48.0
184.642807 196.0
184.703033 168.0
184.760559 160.0
184.800842 136.0
184.837524 124.0
184.910599 196.0
184.989334 260.0
185.060104 568.0
185.094284 732.0
185.178619 160.0
185.205704 76.0
185.227371 32.0
185.254196 200.0
185.259033 180.0
185.292389 40.0
185.311356 108.0
185.335419 236.0
185.384521 120.0
185.403488 220.0
185.463791 116.0
185.510391 216.0
185.54715 196.0
185.623062 220.0
185.642044 112.0
185.669662 192.0
185.717972 192.0
185.777206 208.0
185.813248 168.0
185.850906 152.0
185.883469 172.0
185.924164 208.0
186.021881 84.0
186.062317 292.0
186.092468 152.0
186.12738 116.0
186.165771 152.0
186.192932 124.0
186.218674 168.0
186.307007 296.0
186.369507 140.0
186.425186 144.0
186.461899 108.0
186.51683 168.0
186.555786 132.0
186.573334 176.0
186.611404 160.0
186.651733 148.0
186.684814 124.0
186.722885 152.0
186.763687 120.0
186.828445 148.0
186.875214 132.0
186.905502 132.0
186.92691 136.0
187.013336 228.0
187.092941 140.0
187.131058 136.0
187.175751 112.0
187.203064 140.0
187.226028 164.0
187.317184 160.0
187.357101 100.0
187.37616 104.0
187.44603 192.0
187.462036 156.0
187.504227 140.0
187.561462 76.0
187.600739 148.0
187.637802 196.0
187.673248 152.0
187.692322 140.0
187.731094 128.0
187.745499 144.0
187.776871 252.0
187.801407 292.0
187.945999 160.0
187.970551 136.0
188.019669 56.0
188.041504 148.0
188.10701 164.0
188.127075 240.0
188.161606 128.0
188.183014 232.0
188.219635 160.0
188.263153 168.0
188.289948 204.0
188.317322 156.0
188.341843 28.0
188.369156 128.0
188.412857 176.0
188.454865 188.0
188.476639 152.0
188.516693 332.0
188.566803 188.0
188.626007 40.0
188.658813 56.0
188.708633 144.0
188.78537 152.0
188.817398 140.0
188.852951 64.0
188.887054 152.0
188.928543 44.0
189.007263 108.0
189.033508 108.0
189.181305 64.0
189.208679 136.0
189.234467 268.0
189.309998 208.0
189.345596 112.0
189.370239 160.0
189.438721 104.0
189.462463 168.0
189.510788 156.0
189.573318 160.0
189.622299 116.0
189.655487 212.0
189.701263 228.0
189.73468 168.0
189.775803 68.0
189.803055 176.0
189.825989 132.0
189.93486 204.0
189.983612 156.0
190.044601 216.0
190.081299 192.0
190.104965 136.0
190.129654 100.0
190.148865 236.0
190.173569 108.0
190.211426 172.0
190.247681 144.0
190.277878 124.0
190.315552 156.0
190.380493 172.0
190.428909 160.0
190.452301 172.0
190.486938 156.0
190.578659 132.0
190.623383 172.0
190.651138 184.0
190.687988 148.0
190.717392 160.0
190.744888 148.0
190.773849 112.0
190.797882 144.0
190.833557 188.0
190.868011 188.0
190.901596 216.0
190.940094 368.0
190.967148 196.0
190.976822 304.0
191.040588 120.0
191.099106 172.0
191.143951 268.0
191.17543 184.0
191.207794 172.0
191.2957 116.0
191.333572 124.0
191.371185 344.0
191.40744 116.0
191.417145 180.0
191.504303 124.0
191.531845 120.0
191.574356 172.0
191.671631 140.0
191.702652 180.0
191.730209 96.0
191.75502 52.0
191.777069 184.0
191.805328 188.0
191.826675 136.0
191.91214 212.0
191.959015 116.0
191.999283 108.0
192.022446 176.0
192.041748 172.0
192.06105 208.0
192.101669 144.0
192.133667 148.0
192.180099 208.0
192.237625 92.0
192.314545 180.0
192.349579 168.0
192.378387 160.0
192.414276 212.0
192.509308 196.0
192.544769 152.0
192.562881 224.0
192.602432 160.0
192.643265 148.0
192.714249 176.0
192.787155 116.0
192.847961 156.0
192.875595 140.0
192.939819 288.0
192.978363 160.0
193.005737 156.0
193.038712 156.0
193.060837 140.0
193.091248 60.0
193.118912 112.0
193.154861 152.0
193.196365 156.0
193.218491 116.0
193.2435 104.0
193.267227 180.0
193.289215 328.0
193.338165 140.0
193.375793 112.0
193.395584 192.0
193.428802 132.0
193.452637 164.0
193.478638 176.0
193.53093 488.0
193.589386 136.0
193.628235 136.0
193.687195 216.0
193.738953 156.0
193.771057 196.0
193.797134 96.0
193.854355 156.0
193.898041 172.0
193.937256 156.0
193.956512 180.0
193.991119 144.0
194.016068 232.0
194.038666 80.0
194.065506 192.0
194.097733 168.0
194.130356 164.0
194.229599 196.0
194.248718 188.0
194.258591 168.0
194.30278 168.0
194.364975 100.0
194.408829 212.0
194.459579 144.0
194.548706 220.0
194.576462 184.0
194.619095 332.0
194.649414 176.0
194.67775 160.0
194.686417 200.0
194.720856 96.0
194.752502 296.0
194.795853 132.0
194.818069 76.0
194.862518 172.0
194.91629 216.0
194.98204 248.0
195.004242 84.0
195.037689 252.0
195.088409 376.0
195.144516 112.0
195.168259 172.0
195.247543 164.0
195.267776 356.0
195.438049 228.0
195.485352 284.0
195.551422 252.0
195.610519 152.0
195.636215 216.0
195.666519 56.0
195.694107 144.0
195.754654 148.0
195.794708 160.0
195.841705 240.0
195.861206 152.0
195.90596 120.0
195.957413 168.0
195.992142 236.0
196.014435 200.0
196.090698 236.0
196.111298 172.0
196.161087 244.0
196.217316 172.0
196.253052 116.0
196.284805 140.0
196.333252 184.0
196.364807 128.0
196.422607 156.0
196.44545 160.0
196.513519 192.0
196.547012 180.0
196.630325 136.0
196.696518 300.0
196.73941 64.0
196.797989 148.0
196.827698 148.0
196.865219 192.0
196.953842 156.0
197.005508 124.0
197.058807 300.0
197.097672 284.0
197.152954 32.0
197.236801 260.0
197.310425 260.0
197.351425 112.0
197.391266 160.0
197.409622 196.0
197.427368 176.0
197.496841 148.0
197.542099 152.0
197.569 196.0
197.593811 60.0
197.604156 196.0
197.639511 56.0
197.676971 124.0
197.725571 176.0
197.790634 76.0
197.852219 152.0
197.88797 164.0
197.925003 48.0
197.954941 116.0
197.992783 196.0
198.018448 152.0
198.066132 1000.0
198.093918 288.0
198.158493 176.0
198.199509 68.0
198.249939 144.0
198.276199 140.0
198.325607 140.0
198.367661 144.0
198.387283 164.0
198.415146 148.0
198.448959 144.0
198.488022 120.0
198.513443 148.0
198.62323 112.0
198.733994 108.0
198.756744 288.0
198.779938 144.0
198.807999 72.0
198.88121 152.0
198.911255 172.0
198.97757 164.0
199.001221 272.0
199.031387 312.0
199.07579 29776.0
199.133286 92.0
199.177933 152.0
199.201965 156.0
199.260025 296.0
199.309387 264.0
199.369644 140.0
199.424652 156.0
199.53035 160.0
199.551575 176.0
199.576569 52.0
199.588806 128.0
199.62265 56.0
199.668015 60.0
199.692505 180.0
199.715454 160.0
199.735138 108.0
199.785767 100.0
199.829819 116.0
199.837891 76.0
199.849106 156.0
199.899368 180.0
199.923645 156.0
199.954453 148.0
199.995071 296.0
200.078217 3192.0
200.117859 96.0
200.153809 120.0
200.191071 48.0
200.23497 164.0
200.261475 88.0
200.334274 156.0
200.391052 120.0
200.429535 152.0
200.500946 204.0
200.531952 96.0
200.568588 200.0
200.596542 48.0
200.648209 212.0
200.701096 100.0
200.74057 132.0
200.780045 124.0
200.867477 108.0
200.975555 156.0
201.008545 268.0
201.051926 296.0
201.084396 268.0
201.11055 84.0
201.143372 140.0
201.177887 184.0
201.197647 36.0
201.29364 284.0
201.319061 52.0
201.355774 384.0
201.375214 140.0
201.385101 124.0
201.395523 188.0
201.401566 132.0
201.414551 84.0
201.430969 192.0
201.475586 76.0
201.510971 180.0
201.58226 132.0
201.610779 240.0
201.662247 84.0
201.694199 164.0
201.748947 132.0
201.802231 108.0
201.841827 208.0
201.875748 84.0
201.911423 280.0
201.956573 216.0
201.97757 164.0
202.035629 148.0
202.097183 124.0
202.120773 188.0
202.239288 152.0
202.276276 156.0
202.363876 188.0
202.383972 148.0
202.428696 96.0
202.454453 156.0
202.569763 132.0
202.62442 284.0
202.663651 164.0
202.699493 48.0
202.71933 164.0
202.750504 96.0
202.793518 176.0
202.818512 104.0
202.846863 152.0
202.868408 120.0
202.888474 224.0
202.953003 136.0
202.974442 40.0
203.014145 124.0
203.056686 148.0
203.130356 152.0
203.163864 264.0
203.258087 120.0
203.292145 176.0
203.340225 160.0
203.415588 136.0
203.457245 96.0
203.503189 96.0
203.556137 92.0
203.583389 148.0
203.667557 172.0
203.712341 52.0
203.753281 188.0
203.774841 36.0
203.83844 188.0
203.882812 84.0
203.905548 152.0
203.945343 124.0
203.966431 220.0
203.991714 192.0
204.027786 232.0
204.046616 160.0
204.068192 156.0
204.075394 112.0
204.135818 224.0
204.215454 92.0
204.242645 200.0
204.263229 140.0
204.311218 176.0
204.362442 208.0
204.371155 204.0
204.382538 180.0
204.392776 192.0
204.42598 148.0
204.52507 180.0
204.555603 180.0
204.575012 208.0
204.606186 152.0
204.642303 128.0
204.671646 224.0
204.724869 72.0
204.744812 184.0
204.784683 148.0
204.813156 272.0
204.833023 148.0
204.884384 128.0
204.934753 164.0
204.95845 160.0
205.000931 172.0
205.008057 156.0
205.019363 128.0
205.049637 148.0
205.085159 144.0
205.112259 248.0
205.138 324.0
205.166504 152.0
205.194443 80.0
205.219803 300.0
205.240631 184.0
205.272003 132.0
205.319107 232.0
205.343292 312.0
205.366104 132.0
205.400345 84.0
205.426697 280.0
205.446609 144.0
205.471222 208.0
205.52301 108.0
205.554398 152.0
205.601227 136.0
205.636948 160.0
205.677109 124.0
205.703629 124.0
205.745544 284.0
205.796127 156.0
205.834808 452.0
205.868393 116.0
205.91124 188.0
205.94313 192.0
205.981339 328.0
206.014069 208.0
206.038116 160.0
206.070175 144.0
206.121979 140.0
206.162643 84.0
206.192322 280.0
206.245438 136.0
206.251587 132.0
206.264465 152.0
206.276306 228.0
206.308411 340.0
206.326355 172.0
206.353378 104.0
206.439926 100.0
206.471924 84.0
206.502838 64.0
206.545746 168.0
206.617264 92.0
206.64209 212.0
206.680206 128.0
206.710449 176.0
206.766052 108.0
206.814713 76.0
206.877686 120.0
206.89772 104.0
206.93718 168.0
206.955872 180.0
207.000793 108.0
207.032288 264.0
207.077484 416.0
207.143997 112.0
207.172638 180.0
207.224197 316.0
207.275772 172.0
207.315781 196.0
207.358887 180.0
207.396149 60.0
207.462906 96.0
207.506088 260.0
207.532288 132.0
207.56424 220.0
207.636978 164.0
207.674255 232.0
207.739349 328.0
207.797607 180.0
207.837769 244.0
207.896042 356.0
207.944962 108.0
207.989868 172.0
208.01886 80.0
208.04068 40.0
208.052246 148.0
208.087479 108.0
208.132385 200.0
208.16861 172.0
208.26265 192.0
208.303574 420.0
208.327545 256.0
208.349747 148.0
208.37468 104.0
208.407242 96.0
208.446503 96.0
208.537827 108.0
208.616852 252.0
208.673569 128.0
208.721466 164.0
208.802979 132.0
208.850784 180.0
208.908508 196.0
208.924515 156.0
209.011398 100.0
209.050369 104.0
209.082031 156.0
209.130951 100.0
209.177017 120.0
209.243225 140.0
209.277771 36.0
209.320953 124.0
209.388199 160.0
209.416 184.0
209.457993 96.0
209.516312 184.0
209.527252 128.0
209.537064 136.0
209.562912 216.0
209.585953 124.0
209.638153 104.0
209.647522 208.0
209.709869 160.0
209.744461 160.0
209.770401 100.0
209.830948 156.0
209.849625 192.0
209.871231 164.0
209.911789 212.0
209.98999 176.0
210.044342 120.0
210.085648 196.0
210.125107 168.0
210.17128 148.0
210.191467 192.0
210.266495 224.0
210.289536 200.0
210.308472 252.0
210.357605 156.0
210.43103 52.0
210.454132 132.0
210.485001 160.0
210.516937 116.0
210.585007 144.0
210.616531 236.0
210.662537 168.0
210.7565 128.0
210.776001 156.0
210.803116 200.0
210.837326 156.0
210.864334 92.0
210.911301 124.0
210.962601 128.0
210.986938 144.0
211.05336 204.0
211.09137 224.0
211.119934 288.0
211.169388 116.0
211.208389 88.0
211.295166 148.0
211.325684 88.0
211.353043 44.0
211.383636 280.0
211.417923 180.0
211.446655 156.0
211.494843 212.0
211.538254 164.0
211.611877 360.0
211.704742 360.0
211.727112 160.0
211.781479 32.0
211.82782 172.0
211.865479 116.0
211.900253 64.0
211.946838 300.0
211.976364 168.0
212.020187 164.0
212.052994 168.0
212.081497 328.0
212.109863 168.0
212.15036 128.0
212.181366 176.0
212.261078 160.0
212.287827 180.0
212.317657 132.0
212.367767 184.0
212.386002 120.0
212.430771 148.0
212.468475 100.0
212.497498 140.0
212.530548 172.0
212.615356 144.0
212.647842 148.0
212.677933 112.0
212.712418 316.0
212.776108 160.0
212.796432 96.0
212.834167 164.0
212.874237 160.0
212.918381 124.0
212.955078 164.0
213.008423 92.0
213.052872 204.0
213.091293 4456.0
213.130341 112.0
213.18129 232.0
213.216766 152.0
213.281555 172.0
213.301849 136.0
213.342422 448.0
213.379196 160.0
213.422913 192.0
213.519882 140.0
213.5681 160.0
213.588852 64.0
213.597076 132.0
213.692703 124.0
213.732315 144.0
213.766525 132.0
213.816574 168.0
213.889465 148.0
213.930222 148.0
213.971161 124.0
214.011734 124.0
214.063492 368.0
214.093475 1180.0
214.128128 136.0
214.135284 132.0
214.149582 192.0
214.193268 132.0
214.22142 92.0
214.265121 124.0
214.327606 144.0
214.362686 164.0
214.383057 152.0
214.457443 112.0
214.495605 176.0
214.574051 108.0
214.596619 140.0
214.636917 120.0
214.679016 172.0
214.743164 228.0
214.781082 176.0
214.813171 140.0
214.856934 128.0
214.885788 180.0
214.95105 140.0
214.964752 152.0
215.010391 196.0
215.070557 600.0
215.125412 104.0
215.145844 160.0
215.187241 156.0
215.218826 92.0
215.347321 52.0
215.374771 140.0
215.394058 172.0
215.440674 96.0
215.46347 196.0
215.471558 136.0
215.485291 188.0
215.527634 204.0
215.598572 216.0
215.631622 152.0
215.678589 84.0
215.692093 104.0
215.781723 144.0
215.81488 104.0
215.847046 152.0
215.873367 92.0
215.902603 188.0
215.92453 120.0
215.952316 56.0
215.98587 116.0
216.007889 92.0
216.065536 256.0
216.098587 120.0
216.160034 180.0
216.19101 188.0
216.262451 124.0
216.282944 100.0
216.305466 156.0
216.327789 200.0
216.346558 164.0
216.355026 128.0
216.405899 80.0
216.446838 200.0
216.511307 100.0
216.549255 184.0
216.559631 176.0
216.625473 168.0
216.689987 188.0
216.714935 140.0
216.751785 176.0
216.821854 180.0
216.877533 128.0
216.909775 136.0
216.951981 332.0
217.011383 152.0
217.076889 44.0
217.110947 312.0
217.128311 284.0
217.217056 172.0
217.24736 256.0
217.387833 192.0
217.418137 184.0
217.446518 124.0
217.516968 340.0
217.540451 156.0
217.581543 128.0
217.604675 132.0
217.686569 156.0
217.77005 144.0
217.798172 228.0
217.86348 108.0
217.901657 148.0
217.928101 148.0
217.966309 88.0
218.015259 152.0
218.051529 184.0
218.084961 148.0
218.108475 372.0
218.135162 124.0
218.172043 120.0
218.193726 168.0
218.238327 132.0
218.258881 200.0
218.289642 112.0
218.337784 204.0
218.392578 148.0
218.445526 192.0
218.519836 168.0
218.541687 64.0
218.663162 132.0
218.714035 156.0
218.778046 116.0
218.824005 124.0
218.845245 176.0
218.877228 264.0
218.941513 332.0
218.998886 32.0
219.047546 284.0
219.078415 152.0
219.143234 76.0
219.187424 112.0
219.222702 148.0
219.266998 148.0
219.323975 240.0
219.355194 160.0
219.420471 176.0
219.453171 124.0
219.479233 164.0
219.544113 132.0
219.569077 128.0
219.609238 276.0
219.632584 116.0
219.653229 132.0
219.688629 280.0
219.730331 120.0
219.791901 96.0
219.853867 108.0
219.948303 172.0
220.013245 164.0
220.03392 200.0
220.084106 80.0
220.134308 36.0
220.184509 84.0
220.260086 156.0
220.348694 192.0
220.409012 52.0
220.507019 216.0
220.535263 140.0
220.581726 208.0
220.605789 172.0
220.710495 44.0
220.761612 184.0
220.80513 156.0
220.848648 252.0
220.912476 164.0
220.934555 148.0
220.964859 164.0
221.035873 156.0
221.077652 136.0
221.127609 152.0
221.174179 180.0
221.225281 140.0
221.245407 40.0
221.266724 144.0
221.303864 280.0
221.391083 92.0
221.453476 180.0
221.4758 100.0
221.527252 160.0
221.563736 152.0
221.625793 152.0
221.694229 300.0
221.719925 156.0
221.752518 180.0
221.786316 204.0
221.811798 108.0
221.839417 152.0
221.899338 144.0
221.939285 132.0
221.962997 228.0
221.983749 44.0
222.023819 220.0
222.07428 152.0
222.079605 176.0
222.116547 348.0
222.173584 120.0
222.237061 148.0
222.372208 124.0
222.406494 300.0
222.431747 148.0
222.45549 136.0
222.502991 176.0
222.565643 272.0
222.606064 28.0
222.672607 128.0
222.71521 180.0
222.769821 164.0
222.775864 140.0
222.787766 148.0
222.814819 68.0
222.841568 168.0
222.871201 164.0
222.893158 176.0
222.927734 128.0
222.972305 172.0
223.010941 136.0
223.037476 108.0
223.048981 100.0
223.063232 88.0
223.085892 184.0
223.119171 132.0
223.14798 164.0
223.198227 160.0
223.221436 196.0
223.242386 160.0
223.270737 168.0
223.332047 116.0
223.394516 252.0
223.424271 64.0
223.5159 180.0
223.558151 184.0
223.600098 108.0
223.662567 148.0
223.693466 164.0
223.764969 200.0
223.825073 132.0
223.855835 188.0
223.900513 216.0
223.939224 188.0
223.979462 188.0
224.061356 136.0
224.109039 292.0
224.165787 152.0
224.194336 156.0
224.226608 104.0
224.255035 184.0
224.284607 200.0
224.372742 124.0
224.401627 92.0
224.429825 184.0
224.462234 128.0
224.502167 152.0
224.508179 136.0
224.528275 400.0
224.5681 64.0
224.612457 144.0
224.67897 164.0
224.743134 324.0
224.778915 60.0
224.8647 184.0
224.90123 228.0
224.959335 132.0
225.012711 156.0
225.079285 108.0
225.112518 168.0
225.133911 68.0
225.149521 112.0
225.171967 156.0
225.219803 240.0
225.250443 156.0
225.270493 228.0
225.303604 148.0
225.313354 152.0
225.373016 176.0
225.439835 144.0
225.480515 100.0
225.503098 120.0
225.550415 296.0
225.586792 260.0
225.599152 92.0
225.606216 156.0
225.65596 144.0
225.718109 320.0
225.748795 216.0
225.823425 52.0
225.849426 200.0
225.872803 132.0
225.903259 44.0
225.946869 148.0
225.968475 144.0
225.986313 136.0
225.993988 220.0
226.007462 164.0
226.048615 220.0
226.087143 428.0
226.12767 440.0
226.166214 208.0
226.208984 232.0
226.241776 272.0
226.281769 200.0
226.313507 164.0
226.344711 148.0
226.376007 344.0
226.411011 264.0
226.431091 92.0
226.4767 376.0
226.512878 136.0
226.538849 328.0
226.557892 264.0
226.589706 460.0
226.643372 448.0
226.66156 468.0
226.670166 420.0
226.714523 380.0
226.73909 280.0
226.769119 324.0
226.79776 444.0
226.854828 176.0
226.873459 332.0
226.925476 424.0
226.96199 564.0
227.022507 1092.0
227.072052 363420.0
227.163818 276.0
227.247223 76.0
227.253891 192.0
227.28421 272.0
227.311447 340.0
227.349899 1064.0
227.372223 536.0
227.382797 224.0
227.411438 432.0
227.441391 508.0
227.498306 144.0
227.528625 416.0
227.567093 9188.0
227.598938 572.0
227.651535 240.0
227.684662 376.0
227.722198 288.0
227.745956 328.0
227.768616 88.0
227.789093 212.0
227.819962 248.0
227.846817 176.0
227.867981 324.0
227.896591 160.0
227.915726 332.0
227.937958 196.0
227.983719 216.0
227.995667 208.0
228.014694 420.0
228.074554 108604.0
228.141159 168.0
228.170746 156.0
228.222641 192.0
228.251404 172.0
228.281372 152.0
228.328033 220.0
228.352707 60.0
228.397202 140.0
228.402481 152.0
228.430664 204.0
228.483292 232.0
228.524765 264.0
228.569534 548.0
228.613281 116.0
228.671387 160.0
228.721161 204.0
228.765884 216.0
228.795685 244.0
228.849442 64.0
228.86116 136.0
228.869507 164.0
228.91394 144.0
228.949051 116.0
228.976517 116.0
229.015808 116.0
229.038467 240.0
229.076187 10288.0
229.14418 248.0
229.173599 184.0
229.220291 44.0
229.248138 168.0
229.283264 288.0
229.320389 264.0
229.36377 60.0
229.391235 100.0
229.434525 300.0
229.45932 160.0
229.498337 296.0
229.531265 208.0
229.555832 456.0
229.587738 368.0
229.596832 340.0
229.60704 260.0
229.634766 416.0
229.680984 244.0
229.701874 336.0
229.736694 264.0
229.773956 428.0
229.812332 384.0
229.84491 300.0
229.867401 164.0
229.902283 184.0
229.91304 248.0
229.923294 132.0
229.935715 332.0
229.947128 140.0
229.997116 280.0
230.075348 576.0
230.158569 68.0
230.167572 92.0
230.177902 100.0
230.262436 112.0
230.283783 92.0
230.314438 56.0
230.345215 64.0
230.362778 88.0
230.414322 144.0
230.455856 100.0
230.479568 200.0
230.543976 132.0
230.565308 60.0
230.601562 76.0
230.639099 80.0
230.668121 136.0
230.701675 220.0
230.737671 52.0
230.750092 108.0
230.772522 200.0
230.842514 120.0
230.867737 112.0
230.907364 148.0
230.955429 148.0
230.99408 104.0
231.047485 124.0
231.086807 124.0
231.109375 96.0
231.139771 204.0
231.169189 232.0
231.189255 56.0
231.252579 240.0
231.283508 104.0
231.337723 44.0
231.363861 184.0
231.398148 84.0
231.420425 196.0
231.442444 88.0
231.494675 80.0
231.541412 88.0
231.608582 104.0
231.645569 252.0
231.678925 124.0
231.748657 20.0
231.819565 80.0
231.864151 140.0
231.893875 108.0
231.946854 212.0
231.99498 100.0
232.05188 80.0
232.156052 36.0
232.192444 52.0
232.259872 172.0
232.280548 212.0
232.307709 164.0
232.348526 132.0
232.384842 160.0
232.407822 160.0
232.450592 204.0
232.47966 184.0
232.565628 88.0
232.586624 184.0
232.629364 124.0
232.653656 148.0
232.677933 52.0
232.711334 192.0
232.770844 220.0
232.822021 88.0
232.87442 128.0
232.899612 96.0
232.935364 172.0
232.945374 124.0
232.952194 220.0
232.975555 120.0
233.012009 92.0
233.049118 92.0
233.081879 48.0
233.103149 176.0
233.151779 76.0
233.176544 304.0
233.239914 152.0
233.381897 136.0
233.492264 52.0
233.612747 92.0
233.623932 112.0
233.693039 72.0
233.750839 172.0
233.785538 80.0
233.850082 92.0
233.917526 104.0
233.960846 164.0
234.027832 64.0
234.192276 60.0
234.213593 104.0
234.257126 348.0
234.350677 164.0
234.411621 164.0
234.533524 104.0
234.554855 124.0
234.579239 156.0
234.692047 124.0
234.765228 176.0
234.825607 140.0
234.849564 220.0
234.983597 264.0
235.017593 180.0
235.025528 132.0
235.073334 96.0
235.149612 48.0
235.197342 252.0
235.2453 172.0
235.271713 108.0
235.300385 72.0
235.363312 92.0
235.409103 164.0
235.519058 104.0
235.577332 172.0
235.62616 132.0
235.67485 76.0
235.751251 32.0
235.784866 56.0
235.830093 160.0
235.908981 164.0
235.997772 92.0
236.090576 72.0
236.126389 124.0
236.202927 152.0
236.252686 116.0
236.274094 44.0
236.295502 192.0
236.525024 68.0
236.555634 88.0
236.58931 136.0
236.65799 156.0
236.701279 140.0
236.709213 168.0
236.779694 156.0
236.832855 156.0
236.871033 116.0
236.923111 164.0
236.978256 132.0
237.005829 112.0
237.033401 108.0
237.082718 128.0
237.122269 124.0
237.154144 280.0
237.211716 128.0
237.241806 160.0
237.300064 72.0
237.370575 116.0
237.407379 228.0
237.44725 200.0
237.493256 156.0
237.640839 108.0
237.683136 192.0
237.716187 144.0
237.77858 84.0
237.802414 192.0
237.850204 120.0
237.895218 200.0
237.956619 104.0
238.03952 92.0
238.09787 160.0
238.130493 112.0
238.186935 204.0
238.289139 344.0
238.328247 60.0
238.37265 168.0
238.394653 164.0
238.434784 84.0
238.46347 112.0
238.566193 228.0
238.5979 76.0
238.638687 80.0
238.718628 176.0
238.746307 120.0
238.770905 40.0
238.812714 196.0
238.825104 116.0
238.839294 152.0
238.977005 32.0
239.021347 204.0
239.068192 148.0
239.097015 72.0
239.125671 64.0
239.154221 144.0
239.197098 156.0
239.229355 204.0
239.253983 36.0
239.275543 104.0
239.329605 332.0
239.38031 132.0
239.427795 224.0
239.509567 120.0
239.556152 124.0
239.624359 76.0
239.648392 172.0
239.692795 76.0
239.733139 176.0
239.754166 176.0
239.805145 316.0
239.851334 168.0
239.885498 56.0
239.912796 56.0
239.937897 56.0
239.972153 188.0
240.040787 180.0
240.065979 84.0
240.100464 748.0
240.154816 152.0
240.254227 336.0
240.289291 76.0
240.396072 168.0
240.430573 212.0
240.490067 168.0
240.534042 128.0
240.585037 268.0
240.647415 352.0
240.682968 164.0
240.703934 272.0
240.736832 252.0
240.781052 136.0
240.804077 240.0
240.854401 60.0
240.891785 236.0
240.919861 396.0
240.966095 284.0
241.002121 200.0
241.033585 460.0
241.086349 142460.0
241.200989 156.0
241.259613 180.0
241.299637 148.0
241.347626 112.0
241.355911 84.0
241.39064 140.0
241.424133 164.0
241.472473 188.0
241.520447 144.0
241.546356 88.0
241.557251 104.0
241.567474 64.0
241.594467 612.0
241.622879 220.0
241.669312 204.0
241.715332 128.0
241.747375 144.0
241.753525 68.0
241.804642 88.0
241.837631 88.0
241.865799 148.0
241.915741 84.0
241.949066 284.0
241.994797 80.0
242.01503 96.0
242.040115 148.0
242.089218 20388.0
242.187851 124.0
242.2798 156.0
242.330002 204.0
242.362869 176.0
242.389542 136.0
242.427338 224.0
242.48494 112.0
242.529266 40.0
242.572128 124.0
242.612366 172.0
242.643158 184.0
242.673325 236.0
242.760712 212.0
242.784332 224.0
242.836136 204.0
242.870117 292.0
242.903519 200.0
242.936234 132.0
242.984634 80.0
243.044952 68.0
243.09259 2168.0
243.170349 108.0
243.213806 80.0
243.25415 40.0
243.278992 132.0
243.308197 156.0
243.34108 36.0
243.421417 88.0
243.426727 48.0
243.439316 96.0
243.481018 124.0
243.518082 188.0
243.545105 148.0
243.572983 124.0
243.616562 164.0
243.656204 128.0
243.663651 116.0
243.672119 216.0
243.683426 260.0
243.73349 156.0
243.755737 128.0
243.790131 156.0
243.893173 108.0
243.915527 48.0
243.946869 116.0
244.004227 152.0
244.033798 108.0
244.053452 100.0
244.099014 128.0
244.122955 132.0
244.201843 116.0
244.276871 32.0
244.374481 164.0
244.438263 88.0
244.516068 108.0
244.550308 64.0
244.591629 216.0
244.621109 192.0
244.669662 116.0
244.737396 80.0
244.804352 212.0
244.853134 224.0
244.879547 48.0
244.928665 148.0
244.976883 136.0
245.018707 104.0
245.071823 40.0
245.103973 76.0
245.166702 192.0
245.294739 136.0
245.35582 188.0
245.398605 288.0
245.450607 116.0
245.541046 108.0
245.623627 44.0
245.658569 112.0
245.690765 36.0
245.712601 128.0
245.753159 116.0
245.83429 136.0
245.890457 84.0
245.912308 80.0
245.940399 92.0
246.055252 116.0
246.094681 76.0
246.120651 76.0
246.158936 128.0
246.240128 172.0
246.300537 236.0
246.33815 220.0
246.419525 160.0
246.455673 56.0
246.522781 92.0
246.621292 72.0
246.668182 140.0
246.796356 44.0
246.829742 212.0
246.874527 100.0
246.91832 36.0
246.940201 52.0
246.999634 148.0
247.024658 56.0
247.096619 136.0
247.215515 140.0
247.260895 120.0
247.33757 56.0
247.397049 100.0
247.422516 264.0
247.534805 148.0
247.594299 124.0
247.757172 148.0
247.863708 44.0
248.021042 196.0
248.070557 200.0
248.126984 152.0
248.148041 132.0
248.186752 248.0
248.211182 140.0
248.264938 36.0
248.324524 32.0
248.396667 100.0
248.46254 84.0
248.547256 108.0
248.646103 216.0
248.757523 112.0
248.823456 36.0
248.898804 100.0
248.955322 196.0
248.97731 92.0
249.079483 196.0
249.123993 200.0
249.174881 156.0
249.379456 96.0
249.405823 188.0
249.45192 148.0
249.487732 124.0
249.530334 136.0
249.555481 160.0
249.756744 140.0
249.843201 116.0
249.88887 40.0
250.101639 196.0
250.114395 120.0
250.119324 156.0
250.146927 80.0
250.200439 120.0
250.310638 76.0
250.401962 32.0
250.437836 164.0
250.45137 64.0
250.45726 144.0
250.524811 176.0
250.742218 72.0
250.825439 344.0
250.865143 48.0
250.929016 168.0
250.982468 56.0
251.074799 384.0
251.145767 120.0
251.205704 308.0
251.347672 160.0
251.413101 120.0
251.445496 96.0
251.473907 56.0
251.639206 208.0
251.666473 108.0
251.773834 144.0
251.824356 148.0
251.877045 112.0
251.947556 144.0
252.023376 72.0
252.066162 268.0
252.096054 136.0
252.12558 208.0
252.170776 168.0
252.233429 172.0
252.24707 204.0
252.283493 196.0
252.317307 36.0
252.345764 72.0
252.401749 136.0
252.424805 156.0
252.465912 152.0
252.532333 76.0
252.59465 176.0
252.665176 152.0
252.709473 96.0
252.798065 88.0
252.8582 108.0
252.884003 312.0
252.904968 216.0
253.010132 80.0
253.082123 336.0
253.120941 52.0
253.158951 124.0
253.260284 180.0
253.291962 164.0
253.317307 224.0
253.339478 64.0
253.453537 192.0
253.504227 168.0
253.545425 76.0
253.590836 196.0
253.665878 52.0
253.736115 128.0
253.775177 216.0
253.897324 112.0
253.929031 60.0
253.957581 48.0
253.981812 120.0
254.091843 216.0
254.11937 76.0
254.144745 124.0
254.23262 196.0
254.297073 36.0
254.328812 152.0
254.424042 136.0
254.447495 196.0
254.620056 60.0
254.648315 164.0
254.687592 216.0
254.744766 116.0
254.846832 96.0
254.942963 148.0
254.970367 104.0
254.998962 80.0
255.100159 724.0
255.148361 116.0
255.20108 124.0
255.266006 112.0
255.377304 208.0
255.460007 104.0
255.501358 32.0
255.592621 176.0
255.634995 64.0
255.710114 140.0
255.824951 176.0
255.877731 76.0
255.959686 68.0
255.994705 104.0
256.107056 144.0
256.179443 104.0
256.229004 128.0
256.311523 140.0
256.357849 144.0
256.380157 188.0
256.445618 156.0
256.574585 96.0
256.673431 132.0
256.700073 228.0
256.747986 168.0
256.791412 204.0
256.816925 168.0
256.858398 172.0
256.963684 68.0
257.053009 268.0
257.218964 128.0
257.25235 220.0
257.32431 36.0
257.41153 120.0
257.532471 132.0
257.597626 192.0
257.637299 132.0
257.735901 116.0
257.797058 208.0
257.88974 196.0
257.926849 144.0
257.982422 124.0
258.0112 108.0
258.081543 52.0
258.129486 176.0
258.190247 112.0
258.262939 220.0
258.306885 160.0
258.350189 100.0
258.446167 112.0
258.473663 200.0
258.508881 152.0
258.539856 368.0
258.57843 168.0
258.618958 136.0
258.744659 104.0
258.817444 132.0
258.884705 60.0
258.907898 128.0
259.099304 120.0
259.147339 132.0
259.263611 92.0
259.333221 132.0
259.362061 180.0
259.426178 124.0
259.602509 192.0
259.679474 112.0
259.706543 156.0
259.827026 92.0
259.875153 132.0
259.958588 164.0
260.035583 172.0
260.109406 168.0
260.176819 84.0
260.242798 156.0
260.298828 144.0
260.443359 184.0
260.50116 148.0
260.56543 152.0
260.626465 176.0
260.706787 236.0
260.746307 232.0
260.803223 152.0
260.91571 32.0
261.076477 168.0
261.124725 212.0
261.182617 172.0
261.253387 112.0
261.556671 144.0
261.607361 120.0
261.642792 184.0
261.668549 144.0
261.710388 116.0
261.787659 156.0
261.810211 92.0
261.845642 104.0
261.913269 180.0
261.957275 76.0
261.987183 152.0
262.067902 124.0
262.125092 96.0
262.138428 72.0
262.183899 76.0
262.274139 172.0
262.367645 56.0
262.564697 136.0
262.619141 176.0
262.696289 244.0
262.722382 140.0
262.822388 168.0
262.861115 100.0
262.906281 100.0
262.983734 180.0
263.103394 116.0
263.26178 164.0
263.325958 176.0
263.351807 120.0
263.397034 84.0
263.473297 156.0
263.503632 152.0
263.52948 184.0
263.565033 172.0
263.598938 72.0
263.639343 88.0
263.670929 144.0
263.894684 52.0
263.96582 128.0
264.004639 76.0
264.027283 48.0
264.082245 112.0
264.111359 60.0
264.176056 120.0
264.212952 228.0
264.283966 208.0
264.373413 148.0
264.431671 156.0
264.486694 156.0
264.556 144.0
264.585175 172.0
264.610504 132.0
264.654633 196.0
264.715118 136.0
264.829895 176.0
264.872009 84.0
264.933563 172.0
264.982147 36.0
265.004822 44.0
265.085846 132.0
265.11499 96.0
265.150665 48.0
265.260864 108.0
265.303802 160.0
265.347565 176.0
265.384033 76.0
265.413239 84.0
265.564575 208.0
265.66806 76.0
265.687866 136.0
265.787109 148.0
265.8526 152.0
265.916046 140.0
265.997192 76.0
266.047913 88.0
266.15625 116.0
266.197571 144.0
266.233612 196.0
266.256927 120.0
266.294739 124.0
266.344635 100.0
266.404816 128.0
266.537872 240.0
266.611023 144.0
266.64679 124.0
266.672791 140.0
266.740173 164.0
266.799561 88.0
266.848328 72.0
266.940094 164.0
266.971863 144.0
267.00116 68.0
267.058105 260.0
267.095459 180.0
267.194153 176.0
267.228851 136.0
267.261383 68.0
267.306946 140.0
267.349243 140.0
267.382202 144.0
267.429718 268.0
267.4664 68.0
267.493774 324.0
267.556396 260.0
267.562317 104.0
267.576111 104.0
267.584869 144.0
267.597839 116.0
267.612274 188.0
267.625641 268.0
267.664398 428.0
267.704437 284.0
267.733368 120.0
267.782074 180.0
267.79245 124.0
267.830902 140.0
267.869751 224.0
267.892365 128.0
267.939392 136.0
268.000641 356.0
268.097107 101320.0
268.211304 252.0
268.263641 88.0
268.315216 208.0
268.360382 244.0
268.386566 256.0
268.414886 276.0
268.468475 112.0
268.545929 308.0
268.59079 300.0
268.632324 412.0
268.705536 108.0
268.732605 148.0
268.778198 184.0
268.828339 168.0
268.837219 312.0
268.888275 172.0
268.931854 148.0
268.971893 552.0
268.986328 348.0
268.995026 416.0
269.037476 684.0
269.082092 188448.0
269.187439 108.0
269.227753 136.0
269.262146 200.0
269.316284 168.0
269.366211 208.0
269.372406 116.0
269.392975 184.0
269.421387 168.0
269.447632 96.0
269.480408 120.0
269.544037 536.0
269.582001 180.0
269.620056 764.0
269.660309 68.0
269.665802 136.0
269.69101 212.0
269.722168 292.0
269.762329 180.0
269.806183 64.0
269.832794 148.0
269.864197 192.0
269.900299 276.0
269.950806 120.0
269.978424 252.0
270.023285 352.0
270.085022 35912.0
270.213501 192.0
270.217987 164.0
270.294922 40.0
270.302826 60.0
270.316986 124.0
270.342896 164.0
270.369385 216.0
270.408783 128.0
270.444305 160.0
270.526581 120.0
270.589874 44.0
270.626434 208.0
270.653992 232.0
270.684387 64.0
270.719513 48.0
270.750488 176.0
270.788208 56.0
270.81427 144.0
270.847046 164.0
270.88028 184.0
270.928589 108.0
270.982605 84.0
271.018372 148.0
271.031525 108.0
271.087158 3940.0
271.177765 108.0
271.224335 80.0
271.24472 180.0
271.317749 60.0
271.350983 60.0
271.392273 44.0
271.425964 132.0
271.471863 108.0
271.504669 36.0
271.564056 36.0
271.589569 92.0
271.597961 80.0
271.611237 68.0
271.623871 80.0
271.640076 164.0
271.682251 88.0
271.750671 204.0
271.807587 176.0
271.842377 196.0
271.851685 72.0
271.865021 148.0
271.890106 276.0
271.924835 96.0
271.971771 228.0
271.983673 108.0
272.01297 108.0
272.05481 92.0
272.088409 824.0
272.212006 116.0
272.260254 100.0
272.288239 120.0
272.372833 100.0
272.412384 204.0
272.453003 160.0
272.501099 56.0
272.538666 104.0
272.568085 96.0
272.640533 104.0
272.685394 68.0
272.716644 76.0
272.791718 84.0
272.817627 100.0
272.870605 60.0
272.893616 100.0
272.945251 80.0
272.982513 128.0
273.034119 132.0
273.073914 104.0
273.09613 104.0
273.120544 36.0
273.146851 80.0
273.219208 80.0
273.261993 40.0
273.34671 124.0
273.377167 44.0
273.400177 32.0
273.459442 44.0
273.542816 132.0
273.574646 48.0
273.638885 116.0
273.679993 72.0
273.726074 32.0
273.808411 56.0
273.855103 184.0
273.929932 76.0
273.998688 120.0
274.058746 84.0
274.161469 96.0
274.260834 76.0
274.312531 64.0
274.342194 52.0
274.417999 116.0
274.516937 64.0
274.662048 248.0
274.711517 212.0
274.802704 100.0
274.844543 168.0
274.873169 36.0
274.919373 108.0
274.958984 36.0
274.995148 100.0
275.056854 128.0
275.125519 140.0
275.170227 376.0
275.24472 172.0
275.348541 148.0
275.381561 72.0
275.432709 100.0
275.530212 108.0
275.728485 40.0
275.794586 108.0
275.927979 124.0
275.94873 120.0
275.999542 188.0
276.13031 176.0
276.165497 152.0
276.248566 68.0
276.406372 104.0
276.677795 120.0
276.737366 136.0
276.843323 148.0
276.873138 148.0
276.985748 40.0
277.114929 100.0
277.267365 196.0
277.309509 152.0
277.370117 180.0
277.439728 144.0
277.672638 216.0
277.803009 88.0
277.831055 76.0
277.930573 120.0
277.97702 176.0
278.078003 104.0
278.312286 116.0
278.348816 168.0
278.391968 116.0
278.484955 64.0
278.574646 216.0
278.67099 36.0
278.694244 128.0
278.823853 100.0
278.870361 80.0
278.966766 120.0
279.094177 204.0
279.269348 84.0
279.419037 156.0
279.445648 92.0
279.728516 80.0
279.791779 64.0
279.838379 172.0
279.901642 124.0
280.024872 48.0
280.107117 156.0
280.119812 112.0
280.241394 36.0
280.457977 116.0
280.517975 144.0
280.554657 140.0
280.601318 60.0
280.636719 104.0
280.688019 204.0
280.711365 120.0
280.795868 164.0
280.820557 164.0
280.845703 216.0
280.97818 156.0
281.085297 376.0
281.13501 84.0
281.168274 120.0
281.255157 40.0
281.315247 108.0
281.340118 160.0
281.438171 104.0
281.525574 104.0
281.573181 140.0
281.615753 68.0
281.685913 64.0
281.743256 48.0
282.11203 356.0
282.152679 240.0
282.237335 100.0
282.273499 44.0
282.421265 120.0
282.575134 240.0
282.66214 76.0
282.739105 72.0
282.822754 136.0
282.856232 192.0
282.91983 96.0
282.981354 96.0
283.053925 80.0
283.114624 236.0
283.231262 96.0
283.264771 48.0
283.418854 88.0
283.445679 76.0
283.489227 176.0
283.636688 132.0
283.683624 136.0
283.853729 76.0
283.936066 124.0
283.975342 124.0
284.08493 92.0
284.109497 156.0
284.200867 120.0
284.351105 80.0
284.384674 140.0
284.42157 32.0
284.518921 104.0
284.612946 124.0
284.926666 184.0
284.962128 104.0
285.126617 100.0
285.187378 108.0
285.210907 100.0
285.357574 128.0
285.52359 48.0
285.55722 80.0
285.600952 120.0
285.752319 152.0
285.851807 120.0
286.048462 172.0
286.111786 128.0
286.173035 76.0
286.257202 56.0
286.351501 116.0
286.38855 116.0
286.533386 128.0
286.570465 148.0
286.735565 208.0
286.78949 168.0
286.860291 168.0
286.927704 164.0
286.97876 112.0
287.281799 64.0
287.36615 208.0
287.427032 92.0
287.453857 116.0
287.541595 112.0
287.58548 28.0
287.69165 196.0
287.744141 140.0
287.842041 80.0
287.875824 144.0
288.037933 196.0
288.061584 112.0
288.200104 236.0
288.260925 92.0
288.406219 168.0
288.627228 188.0
288.77478 92.0
288.832275 96.0
288.957428 152.0
289.126617 224.0
289.189362 148.0
289.268768 128.0
289.458374 64.0
289.492218 120.0
289.766571 156.0
289.93396 128.0
289.959717 128.0
290.000397 80.0
290.115631 116.0
290.464905 116.0
290.576874 208.0
290.695618 124.0
290.926422 144.0
291.119995 164.0
291.157288 140.0
291.371277 148.0
291.731506 140.0
291.870911 128.0
291.904907 164.0
292.044342 128.0
292.102173 92.0
292.18042 116.0
292.285889 140.0
292.347137 72.0
292.374359 104.0
292.445831 120.0
292.499115 248.0
292.656891 192.0
292.847595 144.0
292.905945 148.0
293.03595 148.0
293.184875 128.0
293.223114 124.0
293.42688 152.0
293.460968 84.0
293.50528 168.0
293.590546 168.0
293.634857 44.0
293.842957 160.0
293.870239 168.0
293.935059 104.0
294.003326 76.0
294.180786 128.0
294.278381 128.0
294.341248 160.0
294.443695 168.0
294.588409 164.0
294.798981 176.0
294.887848 148.0
295.034821 72.0
295.072449 116.0
295.337952 180.0
295.417847 188.0
295.452057 260.0
295.496521 32.0
295.527313 48.0
295.838745 56.0
295.867096 128.0
295.951721 148.0
295.985779 216.0
296.054443 224.0
296.085266 48.0
296.146912 52.0
296.235962 144.0
296.547791 84.0
296.579193 220.0
296.730896 180.0
296.791168 224.0
296.985565 216.0
297.226776 116.0
297.357178 208.0
297.422394 144.0
297.48761 104.0
297.93161 180.0
298.112701 56.0
298.140198 112.0
298.164246 300.0
298.315491 144.0
298.384583 84.0
298.587128 164.0
298.618073 68.0
298.772858 76.0
298.904205 116.0
299.151398 108.0
299.177765 168.0
299.203033 120.0
299.292542 80.0
299.357971 88.0
299.437195 120.0
299.475067 152.0
299.624115 108.0
299.70932 284.0
299.833374 128.0
299.860931 160.0
299.891968 116.0
300.04364 80.0
300.158569 168.0
300.374695 188.0
300.4758 128.0
300.576447 100.0
300.678314 128.0
301.182373 260.0
301.664307 128.0
301.828644 188.0
301.909332 144.0
302.067261 284.0
302.205627 120.0
302.281769 52.0
302.562103 132.0
302.686768 180.0
302.828735 108.0
303.012329 164.0
303.130127 80.0
303.175201 88.0
303.282623 132.0
303.317291 128.0
303.424744 96.0
303.507965 112.0
303.605804 128.0
303.824463 156.0
304.003998 128.0
304.195923 120.0
304.462219 112.0
305.04245 84.0
305.174561 164.0
305.37973 176.0
305.453491 96.0
305.797241 116.0
305.938873 156.0
305.992157 116.0
306.114044 176.0
306.241333 180.0
306.640076 140.0
306.674042 172.0
306.748108 92.0
306.801941 144.0
307.48056 132.0
307.64328 84.0
307.735382 96.0
307.805817 212.0
308.060181 180.0
308.127563 1632.0
308.182465 136.0
308.409607 104.0
308.500488 116.0
308.727753 36.0
308.944611 52.0
309.018738 148.0
309.063538 88.0
309.123077 284.0
309.333038 140.0
309.508087 112.0
309.532593 120.0
309.637634 120.0
309.704193 84.0
309.879333 76.0
309.984436 112.0
310.040527 180.0
310.093079 152.0
310.142731 240.0
310.33847 80.0
310.440155 144.0
310.631897 60.0
310.755829 112.0
311.005005 92.0
311.033081 152.0
311.099762 152.0
311.149567 88.0
311.257751 112.0
311.289368 140.0
311.356079 112.0
311.43335 144.0
311.542236 116.0
311.608978 104.0
311.707367 132.0
311.802246 140.0
311.833893 80.0
311.862 64.0
311.893616 36.0
312.055328 104.0
312.158997 116.0
312.185425 236.0
312.787048 136.0
312.825775 72.0
312.864502 128.0
312.945465 128.0
313.220154 104.0
313.678223 88.0
313.745209 152.0
314.143707 184.0
314.175446 112.0
314.224823 88.0
314.602448 208.0
314.669525 96.0
314.708374 36.0
314.82135 144.0
314.872009 128.0
315.054474 56.0
315.079193 48.0
315.149872 200.0
315.432587 36.0
315.457336 200.0
315.602264 156.0
315.637634 108.0
315.670837 112.0
315.846283 156.0
316.023163 204.0
316.100128 172.0
316.182404 164.0
316.263794 144.0
316.451416 216.0
316.68515 184.0
316.789795 160.0
316.986267 176.0
317.269806 156.0
317.425812 92.0
317.454163 188.0
317.489624 144.0
317.521545 104.0
317.642151 172.0
317.702454 152.0
317.730835 104.0
317.787598 76.0
318.082153 120.0
318.20639 76.0
318.415894 180.0
318.444305 156.0
318.51535 144.0
318.611267 56.0
318.710724 64.0
318.774689 76.0
318.898285 164.0
319.016388 100.0
319.098145 140.0
319.147919 160.0
319.204803 104.0
319.240356 88.0
319.425323 120.0
319.475098 184.0
319.542694 180.0
319.816711 108.0
319.845184 100.0
319.951965 132.0
320.026733 316.0
320.069275 80.0
320.240417 116.0
320.361511 192.0
320.43631 124.0
320.461273 192.0
320.51828 120.0
320.543213 224.0
320.650116 76.0
320.746368 80.0
320.967377 144.0
321.020874 136.0
321.099335 100.0
321.131439 124.0
321.327606 208.0
321.452515 64.0
321.598816 112.0
321.795166 144.0
321.888 144.0
321.920135 212.0
322.020111 64.0
322.095123 156.0
322.155853 84.0
322.202301 160.0
322.388092 100.0
322.473877 48.0
322.541779 164.0
322.6633 108.0
322.741974 140.0
322.817047 40.0
322.852814 184.0
322.881439 204.0
322.974426 148.0
323.037537 112.0
323.067413 96.0
323.131805 224.0
323.266876 112.0
323.425262 56.0
323.550537 108.0
323.61499 164.0
323.664001 168.0
323.740295 56.0
323.797974 76.0
323.907959 104.0
323.936096 116.0
324.005371 128.0
324.074341 80.0
324.122742 68.0
324.152252 204.0
324.182983 84.0
324.205231 216.0
324.23111 92.0
324.256195 112.0
324.283325 120.0
324.356689 104.0
324.379242 148.0
324.410309 128.0
324.439636 44.0
324.470367 128.0
324.515778 152.0
324.582214 144.0
324.633972 136.0
324.691772 72.0
324.747375 116.0
324.801178 156.0
324.82901 168.0
324.84375 128.0
324.892334 136.0
324.906494 100.0
324.977722 132.0
325.002258 424.0
325.102173 184.0
325.130493 216.0
325.161224 152.0
325.240021 424.0
325.28476 160.0
325.309875 348.0
325.349182 112.0
325.399536 192.0
325.430908 288.0
325.462311 264.0
325.511414 272.0
325.586853 452.0
325.630768 88.0
325.667053 192.0
325.740997 264.0
325.776947 104.0
325.808411 440.0
325.834686 236.0
325.841156 224.0
325.864746 308.0
325.899567 384.0
325.951874 284.0
325.984985 356.0
326.024872 516.0
326.140015 253488.0
326.247803 200.0
326.25354 216.0
326.374115 192.0
326.427399 280.0
326.463623 348.0
326.533905 188.0
326.591095 320.0
326.618683 128.0
326.62677 236.0
326.65329 152.0
326.6828 216.0
326.732391 2588.0
326.769012 52.0
326.812225 360.0
326.865112 64.0
326.877716 104.0
326.889404 204.0
326.925873 240.0
326.953033 148.0
326.996002 356.0
327.026581 320.0
327.045227 144.0
327.06839 372.0
327.142456 64544.0
327.213135 144.0
327.27063 164.0
327.282318 40.0
327.293579 68.0
327.330048 112.0
327.379425 144.0
327.412018 132.0
327.452515 148.0
327.488586 124.0
327.512695 184.0
327.566803 172.0
327.60556 252.0
327.656158 116.0
327.69043 104.0
327.719025 120.0
327.773346 76.0
327.787262 120.0
327.830902 180.0
327.855621 136.0
327.918549 172.0
327.977356 200.0
328.013885 84.0
328.048218 96.0
328.088623 212.0
328.144379 5120.0
328.233063 160.0
328.275787 60.0
328.291748 80.0
328.305817 144.0
328.355743 68.0
328.39325 96.0
328.498138 224.0
328.563477 68.0
328.583435 48.0
328.620056 124.0
328.650055 104.0
328.704773 208.0
328.761414 200.0
328.795929 144.0
328.826111 72.0
328.859039 392.0
328.890289 68.0
328.919922 140.0
328.958679 144.0
329.006592 108.0
329.063507 280.0
329.146118 720.0
329.196686 148.0
329.220062 196.0
329.233551 160.0
329.257538 224.0
329.291351 160.0
329.340637 112.0
329.38678 216.0
329.420563 428.0
329.456818 116.0
329.489349 200.0
329.519287 196.0
329.564117 108.0
329.598358 344.0
329.668457 48.0
329.698517 96.0
329.75592 116.0
329.818848 108.0
329.871826 168.0
329.894836 72.0
329.953339 124.0
330.007812 164.0
330.062775 160.0
330.088959 88.0
330.124237 60.0
330.186279 100.0
330.259003 100.0
330.286987 28.0
330.315125 36.0
330.359985 240.0
330.413605 212.0
330.442535 56.0
330.48233 184.0
330.583649 76.0
330.688599 68.0
330.751221 132.0
330.818451 32.0
330.873199 128.0
330.925354 100.0
331.00589 44.0
331.056122 148.0
331.108582 52.0
331.133911 88.0
331.180756 56.0
331.250977 100.0
331.336761 96.0
331.412842 68.0
331.554169 32.0
331.623016 80.0
331.670135 100.0
331.706604 72.0
331.826019 68.0
331.860474 64.0
331.889008 64.0
331.913849 68.0
331.945679 132.0
332.008972 96.0
332.192291 108.0
332.232208 68.0
332.377319 48.0
332.420868 72.0
332.587799 92.0
332.795074 44.0
332.976288 36.0
333.030029 136.0
333.168823 88.0
333.466766 120.0
333.510376 84.0
333.583069 40.0
333.71759 60.0
333.884857 60.0
334.055817 100.0
334.132202 84.0
334.226807 104.0
334.307068 80.0
334.354156 92.0
334.396851 120.0
334.641724 96.0
334.922119 56.0
335.257294 92.0
335.559845 56.0
335.61087 36.0
335.92453 88.0
335.975586 112.0
336.132477 144.0
336.35144 128.0
336.928406 40.0
337.12207 44.0
337.173218 72.0
338.054565 44.0
338.102142 80.0
338.256256 72.0
338.314423 68.0
338.416931 68.0
338.780884 64.0
338.907715 104.0
339.065277 100.0
339.13858 60.0
339.182587 188.0
339.461212 92.0
339.670258 96.0
339.835327 64.0
339.963776 176.0
340.161957 68.0
340.213348 96.0
340.261078 64.0
340.543213 96.0
340.672394 48.0
340.714844 60.0
340.925903 52.0
340.955292 80.0
341.050842 52.0
341.098633 88.0
341.414825 68.0
341.443268 60.0
341.830505 64.0
341.926178 124.0
341.966675 132.0
342.025574 52.0
342.279602 116.0
342.36795 40.0
342.507904 72.0
342.787903 56.0
342.983246 40.0
343.127014 80.0
343.189697 60.0
343.307678 104.0
343.763641 68.0
343.798309 52.0
343.879517 160.0
343.938568 52.0
343.979156 40.0
344.296692 28.0
344.333618 104.0
344.518311 44.0
344.732605 108.0
344.794098 92.0
345.501648 68.0
345.544434 136.0
346.230835 104.0
346.260437 56.0
346.504913 44.0
346.717712 132.0
346.831024 64.0
346.868103 104.0
347.209198 120.0
347.255951 92.0
347.398346 100.0
347.461426 180.0
347.706329 84.0
348.278076 120.0
348.421295 100.0
348.90979 32.0
349.303986 64.0
349.493713 120.0
349.802612 100.0
349.981293 52.0
350.044586 36.0
350.368622 96.0
350.722626 116.0
350.823273 112.0
351.143951 88.0
351.576691 28.0
351.737183 96.0
352.005981 36.0
352.129211 64.0
352.304779 136.0
352.446747 96.0
353.258026 40.0
353.695831 80.0
355.937714 48.0
356.38092 28.0
356.429779 76.0
356.749237 152.0
358.30722 104.0
358.384735 60.0
358.755676 88.0
359.151611 36.0
359.200653 60.0
359.785553 68.0
360.087616 128.0
360.911438 64.0
361.074036 72.0
361.527985 88.0
362.45575 128.0
362.618683 108.0
362.709656 92.0
362.929535 72.0
363.783142 36.0
364.060303 96.0
364.147644 140.0
365.337372 80.0
365.622742 72.0
366.902557 44.0
367.898254 104.0
368.03949 68.0
368.295349 88.0
368.46344 60.0
368.841766 88.0
369.438293 108.0
370.166931 200.0
370.839722 128.0
371.460876 140.0
371.744781 128.0
371.882935 120.0
372.08255 104.0
372.213104 92.0
372.293732 76.0
373.8237 60.0
373.858337 116.0
373.910278 108.0
373.96994 84.0
375.110077 84.0
375.568909 28.0
375.700073 84.0
375.746368 136.0
376.055054 116.0
376.263489 144.0
377.135101 100.0
377.206085 84.0
377.820953 64.0
378.122742 48.0
378.746094 96.0
378.966919 144.0
379.195526 176.0
379.358337 108.0
380.005981 36.0
380.215515 72.0
380.85611 140.0
380.898834 72.0
381.038696 104.0
382.041687 96.0
382.590393 176.0
382.676056 148.0
382.792847 60.0
382.862946 108.0
383.010956 76.0
383.120026 96.0
383.346008 124.0
383.58374 64.0
386.207672 212.0
386.806335 80.0
387.499481 44.0
388.220703 112.0
388.758118 64.0
389.032867 60.0
389.07605 92.0
389.437286 100.0
389.918121 52.0
390.261841 112.0
390.679413 108.0
392.282135 96.0
392.364929 36.0
392.518707 100.0
392.901276 96.0
393.063049 184.0
393.149841 116.0
393.745972 100.0
393.81311 96.0
394.283264 84.0
394.31488 120.0
394.445312 32.0
395.10965 68.0
395.191986 376.0
395.271881 128.0
395.564728 56.0
395.663696 84.0
395.984436 164.0
396.376617 108.0
396.669891 88.0
397.518616 56.0
397.79248 44.0
397.855988 56.0
398.268951 80.0
398.57486 128.0
399.079651 76.0
399.12735 72.0
399.179047 92.0
399.242676 204.0
399.405731 120.0
400.18573 40.0
400.26535 104.0
400.759247 100.0
401.185699 76.0
401.899567 104.0
402.389282 160.0
402.548553 96.0
402.564178 56.0
402.721924 92.0
403.101471 184.0
403.185364 100.0
403.513489 96.0
403.637085 52.0
403.973053 44.0
404.013031 180.0
404.241089 52.0
404.557281 120.0
404.749451 104.0
405.426422 52.0
405.939545 88.0
406.810181 164.0
406.906525 76.0
407.039032 96.0
407.198792 92.0
407.324158 56.0
407.754089 52.0
408.638733 60.0
409.874786 100.0
410.237518 100.0
410.451202 72.0
410.564117 76.0
410.789978 60.0
410.943268 180.0
411.067169 160.0
411.249969 68.0
411.613281 112.0
411.8909 108.0
411.903076 80.0
412.106079 68.0
412.142059 136.0
412.219208 72.0
412.316193 48.0
412.465729 72.0
412.534454 160.0
412.618134 132.0
412.77298 136.0
412.930695 60.0
412.967102 152.0
413.084412 148.0
413.124847 208.0
413.207184 32356.0
413.290253 252.0
413.335999 160.0
413.379761 56.0
413.417999 80.0
413.45874 88.0
413.495911 176.0
413.587494 60.0
413.626617 96.0
413.683899 108.0
413.731873 136.0
413.769836 64.0
413.811401 112.0
413.869537 160.0
413.966705 56.0
414.01947 64.0
414.073608 60.0
414.132751 92.0
414.210144 7784.0
414.314148 160.0
414.431244 76.0
414.466461 72.0
414.608246 120.0
414.655396 108.0
414.687805 40.0
414.747253 96.0
414.789154 132.0
414.902649 68.0
414.951294 84.0
415.12793 64.0
415.208618 1448.0
415.53125 88.0
415.594788 76.0
415.644867 68.0
415.696564 92.0
415.940002 72.0
416.054779 80.0
416.085632 80.0
416.156281 76.0
416.213135 240.0
416.257782 56.0
416.375549 52.0
416.448669 60.0
416.55426 52.0
416.653687 128.0
416.754456 72.0
416.817596 88.0
416.84375 96.0
416.879303 56.0
416.919464 136.0
416.950623 124.0
416.962952 68.0
417.009766 116.0
417.306091 84.0
417.363007 132.0
417.509399 76.0
417.672089 36.0
418.363831 84.0
418.437134 108.0
419.528931 72.0
420.156952 48.0
420.291595 28.0
420.446655 84.0
420.699707 100.0
421.079437 144.0
421.393982 40.0
421.532898 76.0
421.594177 148.0
421.622803 72.0
422.767853 56.0
423.087097 56.0
423.132141 60.0
423.250854 92.0
423.525635 84.0
423.66861 104.0
423.709595 52.0
423.8284 112.0
423.926758 88.0
424.324341 88.0
426.483551 44.0
426.668518 76.0
426.754852 56.0
426.808319 88.0
427.589905 88.0
428.318665 72.0
428.759521 168.0
429.159363 160.0
429.270691 68.0
429.501648 96.0
429.716156 68.0
430.087555 92.0
431.413483 80.0
431.855927 120.0
431.909698 48.0
431.95108 52.0
432.095856 60.0
432.526215 64.0
433.246735 64.0
433.288177 116.0
433.594788 104.0
433.76059 88.0
433.884949 92.0
434.079834 52.0
434.523621 72.0
435.241638 80.0
435.536499 168.0
435.615417 48.0
436.172241 132.0
437.59079 92.0
437.828125 76.0
438.269684 44.0
439.704163 72.0
440.484924 36.0
441.007233 84.0
441.245514 84.0
441.437836 108.0
442.015076 116.0
442.098785 60.0
443.606567 64.0
444.302704 48.0
444.600616 52.0
445.192535 76.0
445.902496 68.0
446.053802 68.0
446.625671 32.0
446.81076 80.0
446.899109 140.0
447.69043 28.0
448.524628 80.0
448.701691 60.0
449.001068 108.0
449.110718 128.0
449.266785 52.0
449.368042 68.0
450.13623 76.0
450.220703 136.0
451.535004 44.0
451.62384 64.0
453.024902 112.0
453.15625 36.0
453.198608 84.0
453.272583 52.0
453.685974 64.0
454.177887 72.0
455.187927 60.0
455.7146 64.0
456.513702 116.0
456.547729 32.0
456.675323 52.0
456.713593 80.0
456.921539 68.0
456.98587 68.0
457.078491 88.0
458.301483 92.0
458.731934 64.0
459.670197 116.0
459.887848 96.0
461.216187 104.0
461.506897 84.0
462.370972 52.0
462.657745 60.0
462.721954 120.0
462.871826 88.0
463.043121 76.0
464.14444 64.0
465.053894 60.0
465.337219 60.0
465.624908 96.0
465.94278 128.0
466.419769 72.0
469.131622 40.0
470.689117 60.0
471.095093 92.0
472.521729 68.0
473.149231 100.0
474.201843 92.0
475.550659 72.0
476.197571 112.0
476.336914 104.0
476.884033 48.0
477.523163 72.0
477.940765 132.0
478.541412 80.0
479.717651 28.0
480.253998 84.0
480.363037 60.0
480.890991 68.0
481.021942 68.0
482.148804 80.0
482.29303 68.0
482.769562 40.0
483.688324 48.0
484.699982 48.0
485.041809 88.0
486.072449 68.0
486.664978 108.0
486.897736 36.0
486.963593 52.0
487.851166 64.0
488.682373 108.0
489.038818 100.0
490.884705 96.0
491.58609 48.0
492.703156 48.0
493.025696 100.0
494.396606 52.0
496.678284 60.0
497.290588 84.0
497.61908 40.0
497.730072 80.0
498.160858 44.0
498.303009 92.0
498.396332 64.0
499.12973 92.0
499.160858 56.0
499.610077 80.0
499.97937 68.0
500.037231 36.0
500.121796 104.0
500.322113 124.0
501.368805 56.0
501.471313 92.0
501.957245 80.0
502.269409 104.0
503.322632 132.0
503.465546 80.0
503.653107 68.0
503.737976 56.0
504.059662 112.0
504.448486 172.0
505.351837 92.0
505.56662 36.0
506.408295 48.0
507.362732 116.0
507.533081 68.0
508.412292 64.0
509.539307 120.0
509.687592 36.0
509.930237 56.0
510.469696 104.0
511.360443 60.0
513.748596 48.0
513.983154 128.0
514.317139 52.0
514.845337 140.0
514.88147 84.0
517.169189 60.0
518.038574 88.0
519.244202 108.0
519.570801 40.0
519.61615 52.0
520.4422 64.0
520.560242 68.0
522.05072 64.0
523.119934 36.0
523.311157 56.0
524.171997 36.0
524.233887 48.0
524.778198 68.0
525.520874 96.0
526.069275 88.0
526.544128 104.0
527.078613 84.0
527.119751 60.0
527.325378 92.0
528.715698 72.0
529.933716 64.0
530.804565 92.0
531.065979 100.0
531.524719 52.0
531.575195 60.0
531.726624 132.0
532.135193 80.0
532.190308 60.0
534.539062 104.0
535.09137 72.0
535.519653 112.0
535.713074 72.0
535.874329 76.0
536.325928 96.0
536.593323 32.0
537.266602 88.0
537.80188 80.0
538.568359 108.0
538.868591 64.0
539.007202 84.0
539.927124 52.0
541.28302 88.0
541.593262 56.0
541.787842 84.0
542.316101 32.0
542.895569 144.0
543.545044 104.0
546.569946 144.0
546.928284 96.0
547.286743 96.0
547.375183 140.0
547.598694 40.0
549.645203 68.0
549.962585 44.0
550.480774 80.0
550.947815 104.0
551.027222 64.0
551.765686 68.0
552.008789 92.0
552.125671 68.0
552.841431 104.0
553.056763 60.0
553.744995 88.0
553.785461 88.0
554.086914 44.0
554.321228 84.0
554.508667 48.0
554.616455 148.0
555.802917 52.0
556.962463 36.0
557.549744 116.0
557.991638 52.0
558.080933 44.0
558.499451 40.0
558.847595 100.0
559.127441 84.0
559.22406 60.0
559.266418 92.0
560.377747 108.0
562.136475 88.0
562.806763 120.0
563.90271 44.0
564.186279 64.0
567.021545 108.0
567.377075 68.0
568.178528 36.0
568.899841 76.0
569.445923 84.0
570.172791 36.0
570.971497 44.0
572.737244 44.0
573.151672 108.0
573.490051 44.0
575.106934 100.0
575.651184 108.0
575.961609 92.0
576.214783 52.0
577.955078 60.0
578.414551 84.0
578.96991 68.0
580.383484 112.0
581.165344 104.0
582.17334 48.0
582.336609 36.0
582.610413 96.0
582.817017 88.0
584.307434 56.0
585.332642 52.0
585.934692 52.0
587.057739 80.0
587.646179 76.0
590.592957 44.0
591.5849 48.0
592.010986 60.0
592.29187 76.0
594.007751 72.0
595.318176 116.0
595.638733 96.0
596.877991 112.0
598.264587 88.0
599.248352 40.0
603.269653 48.0
603.92981 68.0
604.091187 96.0
605.931885 88.0
607.32196 104.0
608.585266 128.0
609.778931 120.0
610.191833 108.0
611.288696 172.0
612.000732 48.0
612.159973 56.0
613.026917 52.0
613.598694 88.0
613.830444 80.0
613.884644 72.0
614.052368 108.0
614.279236 40.0
615.414307 76.0
616.377441 112.0
616.476257 88.0
616.585022 84.0
617.301819 48.0
617.371033 60.0
617.573792 76.0
618.236755 56.0
618.776306 68.0
618.929749 76.0
619.296204 60.0
619.905579 80.0
620.26239 128.0
621.239258 108.0
621.383118 80.0
622.360901 80.0
625.119629 120.0
625.826416 120.0
626.53363 84.0
628.532898 80.0
628.972046 48.0
629.381409 76.0
629.451355 84.0
630.175598 76.0
630.63031 108.0
632.290771 84.0
632.335815 84.0
632.55603 76.0
632.706177 104.0
632.791321 124.0
634.188904 52.0
635.949402 120.0
636.581909 64.0
637.199768 56.0
642.268921 108.0
644.560913 56.0
645.667969 72.0
647.216431 64.0
647.657043 80.0
647.874817 48.0
649.542603 44.0
649.933228 112.0
649.997925 96.0
650.460999 68.0
651.01947 44.0
651.883057 80.0
652.731934 64.0
653.0625 92.0
654.355042 72.0
656.097351 40.0
656.867371 52.0
659.139282 68.0
660.882812 72.0
660.930298 52.0
661.440674 76.0
663.674255 68.0
664.028076 100.0
666.497253 92.0
666.615479 136.0
666.749084 108.0
668.466614 88.0
668.646729 76.0
669.00708 120.0
670.882202 80.0
671.341064 96.0
672.403809 100.0
673.746277 80.0
674.045959 48.0
680.208923 84.0
680.64502 36.0
681.247498 32.0
681.668335 64.0
685.894287 136.0
686.806763 92.0
687.312805 64.0
687.53717 56.0
688.711853 40.0
690.352905 68.0
690.624878 124.0
691.001526 192.0
695.854614 52.0
697.346436 92.0
697.5672 108.0
698.682068 60.0
699.534546 60.0
700.659119 80.0
701.58905 76.0
704.951111 60.0
705.632996 136.0
711.4552 64.0
714.899353 80.0
722.930664 36.0
723.075134 84.0
723.546204 64.0
724.488708 140.0
727.722595 112.0
729.721252 68.0
730.296631 76.0
732.191101 44.0
732.255737 60.0
733.01532 136.0
738.170349 100.0
739.620239 28.0
740.372803 88.0
741.196167 84.0
741.244934 52.0
741.580933 80.0
741.618896 68.0
741.689331 104.0
741.797729 112.0
744.934204 132.0
745.118896 128.0
745.58075 52.0
746.597351 72.0
747.021606 104.0
750.359863 136.0
753.110107 80.0
753.689209 100.0
758.066711 100.0
759.78833 92.0
760.847473 44.0
762.599731 52.0
764.66217 48.0
765.196106 68.0
768.734741 76.0
768.867188 88.0
768.905823 60.0
769.297729 80.0
769.778015 60.0
769.816711 56.0
771.214417 52.0
772.093506 48.0
772.823669 52.0
773.360413 28.0
773.747925 32.0
774.30719 88.0
774.933105 128.0
776.684875 88.0
777.378357 36.0
777.824402 76.0
781.34552 112.0
783.633667 124.0
785.411987 56.0
786.243286 84.0
787.209045 68.0
789.975647 56.0
790.467957 112.0
790.747742 80.0
796.573364 60.0
797.286926 64.0
797.972717 132.0
798.461914 80.0
802.961731 68.0
803.379089 52.0
803.858704 108.0
805.047058 92.0
805.654114 108.0
806.450867 56.0
809.562439 64.0
809.709656 80.0
812.980713 52.0
816.474487 44.0
819.434387 104.0
821.526611 96.0
821.629333 44.0
826.468445 44.0
826.59436 48.0
828.237427 92.0
828.987915 56.0
829.629822 36.0
830.713684 84.0
833.285522 84.0
834.044067 40.0
834.952515 96.0
837.432983 40.0
837.697937 64.0
840.649902 132.0
843.104187 92.0
843.97699 80.0
844.364441 156.0
855.854187 60.0
857.048218 44.0
857.23468 52.0
857.724243 60.0
860.325867 140.0
860.868896 56.0
861.71582 104.0
863.475281 116.0
865.453186 60.0
867.744019 108.0
868.342102 76.0
869.239685 108.0
870.948059 84.0
872.728699 96.0
879.161072 172.0
880.512939 80.0
881.339966 84.0
885.628845 88.0
887.76239 68.0
889.370178 76.0
889.536377 140.0
892.102539 76.0
892.203613 60.0
892.857666 120.0
893.874939 44.0
894.303406 64.0
894.868896 156.0
896.84668 152.0
897.091064 148.0
897.138733 168.0
898.152405 92.0
899.447205 52.0
900.163635 408.0
900.241272 80.0
901.788574 200.0
903.62439 92.0
904.551941 116.0
905.186523 188.0
910.181396 116.0
912.548706 76.0
913.895935 40.0
914.136597 52.0
914.263 44.0
918.323547 48.0
921.063782 140.0
921.728333 88.0
923.064209 36.0
926.453552 100.0
930.401428 76.0
931.2901 80.0
933.019775 52.0
933.548767 64.0
934.138672 100.0
935.396851 84.0
935.52002 84.0
937.146118 68.0
937.402039 116.0
939.993591 152.0
944.465576 92.0
945.60968 100.0
946.668762 116.0
946.730042 108.0
946.968872 112.0
948.304504 92.0
948.739685 132.0
951.052856 80.0
954.953735 80.0
956.479614 136.0
957.895874 56.0
959.520386 52.0
961.706421 176.0
966.328674 168.0
970.869019 48.0
972.494446 40.0
975.109192 164.0
975.239746 116.0
975.308105 72.0
975.911072 40.0
980.012695 44.0
981.695679 144.0
982.862122 116.0
983.679688 120.0
984.330811 68.0
985.165894 136.0
988.880066 180.0
990.182312 80.0
991.334961 112.0
994.841003 56.0
996.417297 168.0
997.642761 72.0
1000.492493 188.0
1004.172363 68.0
1011.659912 148.0
1012.198059 164.0
1015.442627 68.0
1015.493408 92.0
1017.155762 56.0
1018.31134 100.0
1019.518372 32.0
1025.271362 68.0
1026.028076 220.0
1027.981567 96.0
1029.296509 132.0
1031.82666 96.0
1031.954468 68.0
1032.491577 52.0
1034.14856 72.0
1034.50061 76.0
1034.987183 100.0
1037.383301 52.0
1039.127686 84.0
1040.706543 152.0
1043.115601 172.0
1044.382324 132.0
1045.167114 232.0
1045.340942 108.0
1052.876831 52.0
1053.232056 88.0
1053.277222 96.0
1054.789185 272.0
1059.966675 88.0
1064.390381 176.0
1066.566772 144.0
1066.969849 44.0
1067.444458 84.0
1071.427734 116.0
1072.313843 112.0
1072.561523 84.0
1076.939697 108.0
1077.168335 176.0
1079.050293 168.0
1080.081909 160.0
1080.59375 72.0
1084.621216 96.0
1084.785034 56.0
1085.289795 128.0
1085.499634 68.0
1087.50061 144.0
1089.187988 44.0
1091.133179 248.0
1094.771729 128.0
1096.036499 168.0
1099.373047 136.0
1100.567871 72.0
1101.248047 84.0
1102.569336 76.0
1105.790161 152.0
1105.902588 168.0
1106.577881 36.0
1109.002319 52.0
1111.117676 160.0
1113.06897 136.0
1113.201782 180.0
1115.301147 172.0
1116.517822 108.0
1116.996704 108.0
1117.974731 80.0
1118.786743 128.0
1120.63147 244.0
1122.337769 44.0
1128.600708 52.0
1129.791138 176.0
1130.145752 80.0
1130.707886 36.0
1134.136963 92.0
1135.927246 276.0
1138.034546 96.0
1141.468018 160.0
1141.65625 160.0
1142.187622 100.0
1142.308716 216.0
1143.035278 40.0
1144.529541 132.0
1146.233765 68.0
1146.570679 148.0
1146.725708 168.0
1147.770508 88.0
1149.591797 156.0
1149.949463 176.0
1150.325073 56.0
1152.637207 172.0
1153.373901 56.0
1157.182495 264.0
1160.637939 168.0
1164.431274 180.0
1165.524902 168.0
1166.530762 72.0
1167.720703 136.0
1169.258179 40.0
1170.122681 124.0
1170.449463 48.0
1170.701416 64.0
1172.370483 100.0
1176.353638 88.0
1176.462769 140.0
1177.555298 60.0
1179.427368 68.0
1180.083618 48.0
1180.514404 164.0
1181.636108 80.0
1182.409424 44.0
1182.724243 128.0
1184.723633 152.0
1188.0896 76.0
1190.373169 136.0
1192.099365 232.0
1195.276245 152.0
1195.985107 68.0
1197.458496 156.0
1197.727051 200.0
1198.505493 96.0
1199.856445 180.0
1201.139038 144.0
1202.070435 172.0
1203.727051 140.0
1206.67041 136.0
1207.106079 52.0
1208.64856 48.0
1208.710815 76.0
1209.105225 176.0
1210.025879 204.0
1210.178223 152.0
1210.946899 80.0
1212.304688 64.0
1213.86438 148.0
1214.438721 108.0
1216.292603 96.0
1216.458374 164.0
1217.028442 180.0
1217.465942 176.0
1218.452271 156.0
1220.801514 156.0
1222.157959 68.0
1222.234497 132.0
1224.051147 100.0
1225.040161 176.0
1225.249146 200.0
1225.590576 88.0
1226.433716 212.0
1226.566162 56.0
1228.274536 140.0
1229.949219 112.0
1230.270264 132.0
1231.352539 208.0
1231.897339 176.0
1232.134888 112.0
1234.287598 124.0
1235.063843 120.0
1236.260132 164.0
1236.442139 72.0
1236.848022 172.0
1237.14209 108.0
1237.597046 96.0
1238.297363 100.0
1238.4375 180.0
1238.864746 68.0
1239.747559 196.0
1240.343262 200.0
1240.434448 140.0
1241.324829 204.0
1242.692505 64.0
1243.738159 80.0
1244.152344 124.0
1245.121216 164.0
1245.317871 160.0
1246.132812 168.0
1249.711426 76.0
1249.971802 60.0
1250.203979 132.0
1250.893677 32.0
1253.760254 176.0
1254.669556 92.0
1255.790771 132.0
1255.938843 52.0
1256.601929 100.0
1257.392212 148.0
1258.091064 244.0
1258.677002 156.0
1258.910034 172.0
1259.358643 160.0
1263.178955 92.0
1263.341675 148.0
1263.419434 220.0
1264.119873 148.0
1264.940918 132.0
1266.845703 44.0
1267.391235 132.0
1268.00061 188.0
1268.759033 132.0
1269.106445 120.0
1274.124268 136.0
1275.438843 140.0
1276.043091 136.0
1276.88208 104.0
1277.251953 156.0
1278.269287 88.0
1278.727783 196.0
1282.22168 232.0
1283.390747 180.0
1284.603027 116.0
1284.717163 156.0
1285.223755 48.0
1285.851685 68.0
1286.187134 56.0
1287.379395 84.0
1288.000854 172.0
1288.057983 188.0
1288.193726 128.0
1289.151001 120.0
1291.546021 120.0
1291.875122 52.0
1291.939453 96.0
1296.4646 92.0
1296.557739 120.0
1296.708252 88.0
1297.088135 104.0
1297.468018 152.0
1297.522095 48.0
1298.816162 124.0
1299.66272 180.0
1300.688965 96.0
1300.796631 116.0
1302.519897 200.0
1303.511353 120.0
1304.48877 152.0
1304.560669 120.0
1305.099854 140.0
1305.52417 88.0
1305.588867 112.0
1306.013184 64.0
1308.141968 112.0
1308.834229 164.0
1308.985352 112.0
1309.17981 120.0
1309.338257 196.0
1309.669556 164.0
1310.173828 80.0
1311.470825 60.0
1311.528564 40.0
1312.134033 220.0
1314.225586 156.0
1314.362671 132.0
1315.741211 116.0
1317.163818 228.0
1318.384766 116.0
1319.599121 144.0
1320.625977 184.0
1320.835693 148.0
1321.327637 112.0
1321.494019 148.0
1321.993286 164.0
1323.332397 124.0
1323.397583 172.0
1323.571289 172.0
1324.092651 168.0
1324.911255 40.0
1326.338745 200.0
1326.976685 160.0
1327.69458 168.0
1328.434326 160.0
1328.717285 156.0
1328.8479 124.0
1330.255737 176.0
1330.335571 204.0
1331.707886 128.0
1332.502319 76.0
1334.318359 136.0
1334.571045 164.0
1337.262573 140.0
1337.983276 72.0
1338.187134 168.0
1340.51062 52.0
1340.926025 32.0
1341.633057 56.0
1343.295654 172.0
1343.434326 168.0
1344.959351 84.0
1345.222168 60.0
1345.346191 184.0
1346.602173 56.0
1346.733643 68.0
1347.076904 84.0
1347.727051 124.0
1349.123047 160.0
1349.503174 160.0
1350.150757 36.0
1350.826782 196.0
1350.991089 124.0
1351.36084 112.0
1352.817261 196.0
1355.028931 144.0
1356.41394 52.0
1356.575195 168.0
1356.692505 172.0
1357.182251 148.0
1357.520996 180.0
1357.660278 184.0
1358.723877 48.0
1358.899902 128.0
1360.639282 184.0
1360.903564 160.0
1362.262207 224.0
1362.68103 196.0
1362.769165 176.0
1362.8573 120.0
1363.768555 156.0
1363.922852 220.0
1364.4375 148.0
1364.518311 128.0
1364.930054 108.0
1365.319824 76.0
1365.459473 128.0
1366.209839 148.0
1366.783691 180.0
1367.298706 144.0
1367.534302 132.0
1367.983276 196.0
1369.721069 184.0
1370.000977 132.0
1370.325195 360.0
1371.128296 164.0
1372.012817 148.0
1372.971313 32.0
1373.273682 164.0
1373.362305 144.0
1373.664673 204.0
1373.731079 104.0
1375.059204 108.0
1375.989258 236.0
1378.035034 32.0
1378.286255 208.0
1378.685303 184.0
1379.956665 132.0
1382.353149 196.0
1382.58252 176.0
1383.029175 104.0
1383.541016 128.0
1385.12207 92.0
1385.729492 144.0
1387.174561 284.0
1387.671265 156.0
1387.960449 64.0
1389.837036 60.0
1390.022583 32.0
1391.313965 152.0
1392.316284 220.0
1393.519653 92.0
1393.623657 72.0
1393.868896 72.0
1394.166138 56.0
1394.262695 144.0
1394.931641 160.0
1395.437134 108.0
1395.816406 92.0
1396.850098 148.0
1397.497314 156.0
1397.943848 196.0
1398.822021 96.0
1399.320801 136.0
1399.678223 148.0
1400.534668 112.0
1400.601685 32.0
1403.172607 96.0
1404.411865 140.0
1404.775879 60.0
1404.971436 188.0
1405.46228 128.0
1406.186157 140.0
1406.917603 156.0
1407.134155 192.0
1407.671753 132.0
1408.336426 140.0
1410.047241 200.0
1410.308838 108.0
1410.510742 156.0
1410.712524 188.0
1411.116211 92.0
1411.662109 132.0
1413.228882 120.0
1413.56958 144.0
1414.587402 176.0
1415.283691 120.0
1415.965088 152.0
1416.062378 164.0
1416.129883 264.0
1417.365845 128.0
1418.055298 176.0
1419.022339 44.0
1419.978271 208.0
1420.387207 144.0
1420.97229 200.0
1421.197388 112.0
1421.7677 144.0
1422.165405 272.0
1423.321533 144.0
1423.381592 212.0
1423.554321 136.0
1423.817139 112.0
1424.21521 44.0
1424.553223 164.0
1425.69519 152.0
1426.093506 220.0
1427.348999 68.0
1427.724976 144.0
1428.725342 144.0
1428.785522 156.0
1429.500366 172.0
1429.688477 72.0
1430.328247 208.0
1430.411011 184.0
1430.584106 140.0
1430.644287 124.0
1430.83252 188.0
1432.918701 76.0
1433.536499 116.0
1433.830444 204.0
1434.12439 168.0
1434.365601 124.0
1434.53894 48.0
1434.606812 52.0
1435.051636 60.0
1435.564331 108.0
1435.92627 104.0
1436.084717 108.0
1436.280762 88.0
1436.989868 140.0
1437.125732 180.0
1437.238892 112.0
1437.412476 168.0
1437.576538 124.0
1438.174683 176.0
1438.453857 200.0
1438.582275 128.0
1439.088013 164.0
1439.276855 136.0
1439.556152 196.0
1439.699707 172.0
1439.835571 56.0
1440.5802 200.0
1440.666504 32.0
1442.306152 120.0
1442.631226 88.0
1443.447754 104.0
1443.765381 124.0
1444.234253 168.0
1444.461182 156.0
1444.574707 164.0
1445.452271 148.0
1447.692871 248.0
1447.889771 176.0
1448.079102 184.0
1448.548706 164.0
1448.768433 216.0
1448.859375 164.0
1449.378784 164.0
1449.465454 96.0
1450.20813 168.0
1450.405151 44.0
1450.480957 56.0
1450.868286 204.0
1451.041992 116.0
1451.201172 136.0
1451.254272 160.0
1453.281128 140.0
1453.415894 204.0
1453.575317 104.0
1453.886353 176.0
1454.516357 260.0
1454.92627 164.0
1455.34375 136.0
1455.831299 228.0
1455.966431 124.0
1456.764038 168.0
1458.128052 136.0
1458.21521 200.0
1458.488892 136.0
1459.621582 104.0
1461.043823 148.0
1461.439453 172.0
1462.039551 180.0
1462.591187 140.0
1462.832153 144.0
1463.067383 160.0
1463.768555 164.0
1464.096069 156.0
1464.431152 132.0
1465.002441 148.0
1465.461182 144.0
1466.808472 100.0
1466.876953 168.0
1467.281006 148.0
1468.264648 160.0
1468.83667 148.0
1469.942871 56.0
1470.423706 140.0
1471.683228 184.0
1472.187988 184.0
1473.432251 168.0
1474.035767 176.0
1474.784668 228.0
1474.960571 120.0
1475.082886 148.0
1475.198975 148.0
1475.809082 176.0
1476.260254 164.0
1476.443726 100.0
1476.59668 172.0
1476.803223 404.0
1477.124512 152.0
1477.484009 228.0
1477.705811 204.0
1479.463867 196.0
1479.550293 64.0
1479.889404 160.0
1480.292969 96.0
1480.476685 92.0
1481.510742 156.0
1482.105713 188.0
1482.230957 228.0
1482.690674 188.0
1483.027954 176.0
1483.625854 104.0
1483.756104 164.0
1483.909424 244.0
1484.315796 156.0
1484.653198 148.0
1486.985474 120.0
1487.68396 108.0
1488.259766 56.0
1488.321167 120.0
1488.551514 148.0
1488.73584 132.0
1488.904785 116.0
1489.019897 156.0
1489.557617 160.0
1489.880249 176.0
1490.925171 224.0
1492.124268 160.0
1493.077759 184.0
1494.870117 92.0
1497.056396 208.0
1497.402954 160.0
1497.472168 132.0
1497.595459 148.0
1498.504395 88.0
1498.56604 92.0
1498.635376 184.0
1499.074585 124.0
1499.937744 132.0
1500.323242 192.0
1500.546753 136.0
1501.356445 156.0
1501.518311 76.0
1501.626343 136.0
1503.570557 48.0
1504.064453 192.0
