>compound Fulvestrant (Faslodex)
>formula C32H47F5O3S
>ionization [M+H]+
>parentmass 607.324036
#inchi InChI=1S/C32H47F5O3S/c1-30-17-15-26-25-12-11-24(38)21-23(25)20-22(29(26)27(30)13-14-28(30)39)10-7-5-3-2-4-6-8-18-41(40)19-9-16-31(33,34)32(35,36)37/h11-12,21-22,26-29,38-39H,2-10,13-20H2,1H3/t22-,26+,27+,28+,29-,30-,41?/m1/s1
#inchikey VWUXBMIQPBEWFH
#Ion_Source LC-ESI
#Instrument qTof
#Compound_Source Commercial
#PI Dorrestein
#Data_Collector Garg_Neha
#Scan -1
#Precursor_MZ 607.324
#ExactMass 606.317
#Charge 1
#CAS_Number 129453-61-8
#Pubmed_ID N/A
#Smiles C1(C=CC2[C@@]3(CC[C@]4([C@H](CC[C@@]([C@]([C@@H](CC(C=1)=2)CCCCCCCCCS(=O)CCCC(C(F)(F)F)(F)F)3[H])4[H])O)C)[H])O
#INCHI_AUX N/A
#Library_Class 1
#SpectrumID CCMSLIB00000078037
#IonMode Positive
#UpdateWorkflowName UPDATE-SINGLE-ANNOTATED-GOLD
#LibraryQualityString Gold
#TaskID 77f51c88eb8b467eb4a01dd2d0cb90d2
##Scan# 2886
#SpectrumFile Plate1_21_40_GG2_01_16489.mzXML
#LibraryName FDALibrary_2_04302014.mgf
#MQScore -1
#Organism FDALibrary_2_04302014
#TIC_Query 0
#RT_Query -1
#MZErrorPPM -1
#SharedPeaks 0
#MassDiff 0
#LibMZ -1
#SpecMZ 607.324
#SpecCharge 0
#internalFilename spec-00000.mgf

>collision 10
47.23893 152.0
48.612667 144.0
49.053577 140.0
49.31181 172.0
50.716564 160.0
52.173744 204.0
52.541363 212.0
52.762333 228.0
53.570694 180.0
54.755722 148.0
55.134892 144.0
55.232479 192.0
55.343475 196.0
56.574787 156.0
56.982727 172.0
57.07592 140.0
58.080257 176.0
58.508804 160.0
58.954208 160.0
60.316002 184.0
60.55584 156.0
60.786839 200.0
60.957657 144.0
61.448147 184.0
62.254295 224.0
62.337555 156.0
62.477493 164.0
62.967731 192.0
63.092567 196.0
63.196953 172.0
63.813957 144.0
64.237595 236.0
64.259933 144.0
64.728271 220.0
65.371994 176.0
66.303848 144.0
66.782814 160.0
66.913002 188.0
67.170494 160.0
69.107521 152.0
70.487679 152.0
70.596336 148.0
71.979385 188.0
72.873749 168.0
73.614731 148.0
73.732613 172.0
74.018311 200.0
74.145081 204.0
74.443588 152.0
75.149353 200.0
75.398018 172.0
75.480995 152.0
76.123909 188.0
76.302879 144.0
76.748619 180.0
77.200897 140.0
77.224617 248.0
78.086578 152.0
78.832336 192.0
79.148979 196.0
79.794846 172.0
80.031487 144.0
81.089073 164.0
81.678017 160.0
82.404549 164.0
82.486526 144.0
83.821701 216.0
84.394875 208.0
84.808617 152.0
84.974571 212.0
85.333656 228.0
86.09285 144.0
87.288155 208.0
87.983147 216.0
89.037384 340.0
89.831711 184.0
90.294495 176.0
90.546211 184.0
91.651848 160.0
91.964615 160.0
91.985611 152.0
92.082993 172.0
92.140305 192.0
92.534294 176.0
92.640633 188.0
93.070175 220.0
94.016365 148.0
94.354401 236.0
94.416283 164.0
94.482048 216.0
94.499458 148.0
94.547836 140.0
94.654312 152.0
94.737602 180.0
95.085556 676.0
95.321625 140.0
95.401314 200.0
97.447609 176.0
97.484947 144.0
97.659927 164.0
97.732712 140.0
98.431374 156.0
98.547058 144.0
98.61425 144.0
98.908974 208.0
99.089188 140.0
99.564247 176.0
99.720238 152.0
99.99073 140.0
100.048462 232.0
100.247643 204.0
101.912537 224.0
102.28109 264.0
102.619026 164.0
102.685577 212.0
102.800575 160.0
103.45546 168.0
103.812073 188.0
104.122581 224.0
104.173363 228.0
104.382713 224.0
105.073212 176.0
105.733246 168.0
106.073257 160.0
106.73436 204.0
106.818687 148.0
106.954498 216.0
107.050201 1048.0
107.084221 176.0
107.156319 152.0
107.224319 232.0
107.341827 144.0
109.06855 212.0
109.100975 1180.0
109.123688 216.0
110.103523 192.0
110.15004 180.0
110.569656 112.0
110.834183 196.0
111.008171 140.0
111.119347 160.0
111.36496 188.0
111.663422 168.0
111.985451 208.0
112.857033 144.0
113.019905 140.0
113.100327 160.0
114.286674 180.0
114.712631 196.0
115.022194 172.0
115.053886 148.0
115.415054 144.0
115.500603 164.0
116.058327 220.0
116.727394 156.0
116.946838 168.0
117.071716 476.0
117.589142 268.0
118.053642 152.0
119.044014 164.0
119.082382 192.0
119.957855 156.0
121.0644 332.0
121.102623 352.0
121.240906 152.0
121.561089 180.0
122.105927 176.0
122.163116 140.0
123.088829 168.0
123.116852 332.0
123.614944 224.0
124.121025 140.0
124.986328 204.0
125.131004 140.0
125.331467 176.0
125.795372 268.0
126.651825 240.0
127.054665 292.0
127.228149 160.0
127.900307 172.0
128.05864 340.0
128.181824 216.0
128.271988 180.0
128.497513 172.0
129.067062 152.0
129.324615 220.0
129.498962 216.0
129.589569 176.0
129.893372 164.0
130.077316 124.0
131.002731 148.0
131.055801 164.0
131.085434 528.0
131.171356 224.0
131.413101 148.0
132.025299 144.0
132.066284 176.0
132.09259 372.0
132.46019 152.0
132.651962 128.0
132.705414 392.0
133.019012 248.0
133.065201 4472.0
133.129929 156.0
134.068527 824.0
134.098526 256.0
135.069199 168.0
135.117538 940.0
135.140045 192.0
135.239548 144.0
135.394958 168.0
135.906998 200.0
136.101974 180.0
136.118225 316.0
136.79715 152.0
136.892609 200.0
137.085968 188.0
137.129196 188.0
137.669189 176.0
138.138138 188.0
138.684586 212.0
138.731476 160.0
140.946274 180.0
141.013794 140.0
141.073547 444.0
141.788757 164.0
141.957077 144.0
142.628983 148.0
143.078598 144.0
143.521774 224.0
144.056824 552.0
144.881744 176.0
145.064926 4456.0
145.100586 1416.0
146.069336 1220.0
146.104614 284.0
146.652802 164.0
146.97113 160.0
147.080429 4072.0
147.114655 276.0
147.384048 224.0
147.408203 148.0
147.625778 184.0
147.792694 172.0
148.086411 332.0
148.143753 148.0
148.178177 212.0
148.953995 148.0
149.096222 276.0
149.130447 168.0
150.266205 144.0
150.651947 208.0
150.835236 168.0
151.150284 348.0
152.07222 144.0
152.703674 152.0
153.849518 160.0
154.005081 196.0
155.088715 364.0
155.75386 244.0
155.922821 156.0
156.709183 176.0
156.881149 192.0
156.943481 176.0
157.064636 6452.0
158.068527 1320.0
158.150146 300.0
158.357971 140.0
158.385513 156.0
158.987274 156.0
159.024918 216.0
159.080597 12136.0
159.115845 340.0
159.884476 156.0
160.086411 2592.0
161.093918 1816.0
161.13269 556.0
161.251465 228.0
161.441925 112.0
161.554092 264.0
162.099777 200.0
163.148605 216.0
164.484985 144.0
165.160889 204.0
167.085098 144.0
167.173645 168.0
168.437027 188.0
169.07309 276.0
169.407104 180.0
169.427826 140.0
170.07132 140.0
171.080307 7104.0
171.15564 184.0
172.08548 1380.0
172.197357 120.0
172.226959 184.0
173.095123 4024.0
174.099319 324.0
175.111877 388.0
178.125031 152.0
178.983734 148.0
179.093277 228.0
179.477051 152.0
180.090866 216.0
180.922516 152.0
181.056396 228.0
183.078659 204.0
183.119095 312.0
184.084595 164.0
185.05806 148.0
185.095215 2096.0
185.450882 144.0
186.1017 724.0
187.110229 1508.0
187.156967 204.0
187.336731 188.0
188.078461 176.0
188.115662 304.0
189.128723 420.0
189.169159 160.0
190.224579 244.0
190.389328 144.0
191.181808 184.0
191.426102 228.0
192.010361 200.0
192.035187 176.0
192.123459 156.0
192.189667 192.0
193.098557 156.0
193.508118 156.0
195.076401 184.0
195.117111 160.0
197.094559 1148.0
197.297531 160.0
198.10498 184.0
198.420212 156.0
198.930801 196.0
199.111313 1280.0
199.616364 144.0
200.116089 312.0
201.095459 144.0
201.125381 784.0
201.242249 160.0
202.01947 152.0
202.133713 160.0
203.27182 224.0
203.325745 148.0
204.569778 256.0
205.200363 200.0
207.066406 212.0
207.112228 172.0
209.100296 152.0
209.243088 180.0
211.020782 752.0
211.113022 724.0
211.148392 316.0
211.35881 212.0
211.927322 176.0
212.018112 228.0
212.130859 184.0
213.014954 216.0
213.127594 516.0
214.130524 220.0
214.341019 144.0
215.143112 296.0
216.141129 176.0
216.989227 172.0
219.364685 144.0
222.961044 192.0
223.11264 160.0
225.129684 784.0
226.128479 160.0
226.161407 204.0
226.598633 180.0
227.051285 212.0
227.144714 780.0
227.624481 140.0
228.151154 140.0
229.157394 116.0
229.212784 208.0
230.144852 180.0
231.993469 180.0
233.046631 376.0
233.228867 456.0
233.545212 172.0
233.791656 144.0
234.528717 180.0
235.15094 192.0
235.244537 164.0
235.324951 172.0
236.177597 188.0
237.031769 144.0
237.120651 180.0
239.141342 772.0
239.174591 280.0
240.152328 416.0
241.158157 1448.0
242.162781 188.0
243.165848 272.0
244.180099 184.0
244.866653 148.0
245.190308 276.0
245.839355 156.0
247.246048 228.0
248.505432 156.0
249.168884 312.0
249.435043 244.0
250.460876 188.0
251.103882 192.0
251.13858 320.0
252.623245 140.0
253.157654 1168.0
253.408401 252.0
253.909271 220.0
254.163986 692.0
254.750427 204.0
255.170242 280.0
256.170776 152.0
256.60907 216.0
257.190369 1764.0
258.194733 628.0
259.251678 160.0
259.287872 164.0
260.245697 220.0
263.185791 164.0
265.157013 160.0
265.202362 232.0
267.075928 164.0
267.174774 1968.0
267.212555 160.0
268.170654 324.0
268.685211 180.0
269.188873 880.0
270.192352 544.0
270.263306 228.0
270.384399 160.0
270.554626 160.0
271.204071 1240.0
271.24118 272.0
271.340912 196.0
271.46225 144.0
272.205048 168.0
273.14386 148.0
273.212952 272.0
273.251587 156.0
274.283234 156.0
277.195007 192.0
278.206635 220.0
279.086029 140.0
279.136963 176.0
279.173553 200.0
280.348724 208.0
281.188995 232.0
282.087708 144.0
282.191345 100.0
283.204773 3596.0
283.252228 176.0
283.76416 96.0
284.033264 168.0
284.208893 760.0
284.253754 148.0
285.216461 548.0
286.22699 140.0
287.380737 140.0
288.583191 200.0
289.164337 300.0
289.462982 148.0
289.940643 176.0
291.794067 184.0
292.154755 164.0
292.838776 160.0
293.091064 148.0
293.144073 124.0
295.970459 280.0
297.217499 484.0
297.35199 216.0
298.117859 188.0
298.225311 468.0
298.523529 144.0
299.239258 136.0
299.507874 188.0
300.214447 220.0
300.242035 172.0
301.168335 228.0
302.167389 124.0
303.175659 108.0
304.117126 160.0
304.763062 148.0
305.14563 188.0
305.288055 144.0
306.126678 152.0
306.169342 800.0
307.115143 252.0
307.174133 1164.0
308.171326 264.0
309.093903 160.0
309.223022 296.0
310.224487 176.0
310.390015 156.0
311.228638 228.0
313.19458 168.0
314.167542 160.0
314.19928 148.0
314.612213 148.0
315.181763 264.0
317.099365 204.0
317.191956 532.0
318.088593 144.0
318.163574 292.0
319.171265 1000.0
319.830383 228.0
320.17868 300.0
320.26123 244.0
321.077454 148.0
321.125092 292.0
321.186554 848.0
322.135956 116.0
322.197601 208.0
322.227142 172.0
323.177948 140.0
323.236115 412.0
324.245117 276.0
325.250763 160.0
326.097107 168.0
326.647278 240.0
328.841675 220.0
329.190521 132.0
329.253265 208.0
331.135162 284.0
332.181549 736.0
332.609741 160.0
332.918365 148.0
333.12735 212.0
333.185577 2148.0
333.44516 164.0
333.925079 160.0
334.188019 628.0
334.354401 144.0
334.656555 228.0
335.146332 2604.0
335.193756 576.0
335.346649 128.0
336.14917 680.0
336.197754 288.0
337.154907 256.0
337.26532 316.0
338.048431 176.0
338.966705 112.0
339.252747 196.0
345.195526 144.0
346.198242 300.0
347.200226 172.0
347.362244 152.0
348.208527 332.0
349.160736 704.0
349.628754 192.0
349.792542 144.0
350.161011 192.0
350.205872 164.0
350.261749 140.0
350.331848 136.0
350.783447 164.0
351.167511 200.0
351.262817 144.0
352.280212 176.0
353.996674 144.0
354.202667 164.0
355.781464 196.0
356.179016 148.0
357.044037 188.0
358.20105 224.0
358.998627 164.0
359.207489 148.0
361.154388 172.0
361.285156 488.0
362.314026 140.0
362.362823 208.0
362.647064 152.0
363.178467 480.0
364.126801 192.0
365.289917 172.0
366.298706 172.0
366.694977 140.0
369.191895 176.0
370.730896 184.0
372.192444 184.0
373.207428 140.0
373.510712 188.0
373.710754 164.0
375.169861 156.0
376.173492 140.0
377.175201 128.0
377.282227 180.0
377.684387 140.0
378.559113 144.0
378.733398 144.0
378.861206 168.0
378.969696 156.0
379.299011 2360.0
379.427063 140.0
379.469696 140.0
380.160156 192.0
380.302582 904.0
380.346466 188.0
380.800751 188.0
381.228119 164.0
381.309021 192.0
381.881287 140.0
382.589325 168.0
383.243835 184.0
383.672577 140.0
384.651764 212.0
385.151581 148.0
386.234344 148.0
387.16095 180.0
388.934174 192.0
389.472137 240.0
390.340698 140.0
391.220612 208.0
393.800995 164.0
395.137146 144.0
397.990936 144.0
399.704163 184.0
400.209686 160.0
401.184357 280.0
402.199066 164.0
402.710175 168.0
404.749786 144.0
405.839691 164.0
407.698303 160.0
407.85907 156.0
410.282501 192.0
410.653503 168.0
411.269653 620.0
411.415314 152.0
411.468658 140.0
412.288635 176.0
412.935516 172.0
414.919769 164.0
415.891388 196.0
417.217682 148.0
417.705688 152.0
418.198029 240.0
419.130646 188.0
420.391266 212.0
420.925507 232.0
422.73645 260.0
423.16626 156.0
425.536133 148.0
425.683929 152.0
426.512756 132.0
427.344604 168.0
428.272888 668.0
428.75296 168.0
429.156372 148.0
429.224731 224.0
429.279999 1808.0
430.229401 276.0
430.283081 300.0
430.828491 160.0
431.026825 152.0
432.274078 148.0
432.325317 176.0
432.374969 172.0
433.629913 152.0
435.567657 160.0
436.182648 148.0
437.147583 144.0
437.692902 140.0
438.146912 160.0
439.176453 140.0
439.552063 184.0
440.181183 152.0
441.183594 612.0
442.188538 268.0
443.127136 160.0
443.177429 188.0
443.235992 472.0
443.671997 172.0
444.229767 160.0
444.266937 148.0
445.47583 136.0
446.704102 164.0
447.22168 160.0
449.100922 140.0
449.184875 128.0
450.206726 200.0
451.364624 188.0
453.187988 476.0
453.511078 160.0
454.198944 192.0
454.312531 180.0
455.20343 1088.0
456.19928 568.0
457.195343 128.0
457.253998 256.0
458.266541 188.0
459.140411 328.0
459.430481 208.0
461.181305 148.0
463.208679 204.0
463.243835 140.0
463.736603 140.0
464.201477 140.0
464.971863 172.0
465.12207 168.0
465.193756 220.0
465.263733 164.0
465.791962 160.0
465.89505 164.0
466.188049 108.0
466.715973 140.0
467.103058 148.0
467.20343 8572.0
468.049469 116.0
468.206116 2464.0
469.206512 168.0
469.817078 140.0
469.902588 128.0
470.230896 124.0
471.184418 216.0
473.521606 148.0
475.201324 100.0
475.385834 196.0
475.737396 144.0
475.88501 180.0
476.211365 164.0
477.366791 156.0
478.145508 164.0
478.19339 228.0
478.807281 188.0
479.198669 1580.0
479.696167 148.0
480.079865 164.0
480.206421 680.0
480.27179 224.0
481.220764 5472.0
481.88269 160.0
482.217346 1392.0
482.759705 144.0
483.113464 132.0
483.150574 156.0
483.23703 328.0
483.254852 540.0
483.664612 96.0
483.719513 216.0
484.256531 156.0
484.845184 152.0
486.538361 184.0
488.15094 152.0
490.13623 160.0
490.69162 144.0
490.748932 224.0
491.202911 172.0
491.529694 196.0
491.604706 156.0
492.196228 168.0
492.523041 148.0
493.009064 220.0
493.219147 5216.0
493.367371 132.0
494.218414 1572.0
494.335785 176.0
495.061798 156.0
495.231873 892.0
495.420563 164.0
495.566772 152.0
496.226685 260.0
496.732788 160.0
496.883606 140.0
497.219391 260.0
498.255493 156.0
499.117798 180.0
499.856201 144.0
500.80896 188.0
502.12381 180.0
504.946503 144.0
505.230804 180.0
506.773285 116.0
507.158386 188.0
507.235535 540.0
508.234528 200.0
508.744385 136.0
509.242188 504.0
510.256012 116.0
511.574097 152.0
512.628052 152.0
513.078796 164.0
514.445801 144.0
515.40332 152.0
516.710022 152.0
516.841248 176.0
518.53302 176.0
519.244751 216.0
520.385803 164.0
521.257935 140.0
522.092041 100.0
522.612976 148.0
524.566833 184.0
525.159607 176.0
525.499573 160.0
525.629517 188.0
525.688843 148.0
526.601929 164.0
527.178833 160.0
527.246155 220.0
527.75061 100.0
529.176575 144.0
529.799438 160.0
530.367676 144.0
533.226196 172.0
533.880066 148.0
534.264343 152.0
535.277283 104.0
535.343506 156.0
537.925537 228.0
539.302063 144.0
542.848511 168.0
545.760071 140.0
546.407043 148.0
546.536865 140.0
546.806763 144.0
546.899841 148.0
547.006897 232.0
547.696106 144.0
548.656067 172.0
551.006592 148.0
551.125122 156.0
556.398987 216.0
556.544556 152.0
556.915588 152.0
557.136353 144.0
560.769165 160.0
561.858459 156.0
564.787354 144.0
565.028625 144.0
565.250977 184.0
565.30304 144.0
566.046265 144.0
566.780518 172.0
567.851929 148.0
569.460938 188.0
570.187866 144.0
570.302917 208.0
571.113892 172.0
571.307861 304.0
572.533386 160.0
572.985901 160.0
573.076416 160.0
574.299377 128.0
574.473328 172.0
575.284607 152.0
575.327576 160.0
575.786011 152.0
576.25415 196.0
576.301941 152.0
578.324829 204.0
579.262146 156.0
579.279236 116.0
580.360901 140.0
580.826111 272.0
581.046814 180.0
582.832947 144.0
583.049194 160.0
584.34198 104.0
585.124207 160.0
585.24762 164.0
585.790588 140.0
586.15802 144.0
586.300171 104.0
586.529114 140.0
586.618469 200.0
587.17041 168.0
587.211975 128.0
587.31311 264.0
587.784668 120.0
587.932434 188.0
588.096436 160.0
588.278137 100.0
588.524719 176.0
588.649841 424.0
588.733948 124.0
588.852356 228.0
588.910828 392.0
588.984192 160.0
589.047241 192.0
589.111084 480.0
589.182617 268.0
589.220032 536.0
589.314331 139388.0
589.506287 224.0
589.566895 252.0
589.663147 244.0
589.791443 256.0
589.885315 140.0
589.966187 332.0
590.04303 192.0
590.113403 508.0
590.184387 208.0
590.31604 45096.0
590.423767 452.0
590.477478 208.0
590.782715 160.0
590.884277 148.0
590.997864 100.0
591.082336 128.0
591.13208 392.0
591.219971 144.0
591.315918 9860.0
591.466125 172.0
591.504089 112.0
591.550659 288.0
591.59668 160.0
591.676025 96.0
591.919983 96.0
591.959717 188.0
592.025818 124.0
592.156616 176.0
592.202332 100.0
592.317322 2020.0
592.407104 160.0
592.552002 176.0
592.689941 132.0
592.776428 136.0
593.061279 104.0
593.193909 244.0
593.31012 448.0
593.422058 132.0
593.469421 164.0
593.559143 156.0
593.623962 152.0
593.713501 140.0
593.736511 120.0
593.842651 280.0
593.914001 124.0
593.955261 148.0
594.003418 128.0
594.079773 132.0
594.142212 120.0
594.414612 140.0
594.669983 284.0
594.708008 164.0
594.876343 128.0
595.827515 100.0
595.862061 132.0
598.838684 100.0
599.070557 212.0
600.947571 144.0
602.63855 96.0
603.015381 108.0
603.089172 124.0
603.313904 108.0
603.482605 156.0
604.940552 156.0
605.151062 256.0
605.214722 140.0
605.337158 204.0
605.496887 136.0
605.628784 144.0
605.669861 116.0
605.868347 140.0
605.906738 168.0
606.320984 268.0
606.49054 120.0
607.093018 172.0
607.176208 128.0
607.324036 30084.0
607.42981 276.0
607.803162 140.0
607.927002 176.0
608.090027 108.0
608.170898 176.0
608.326904 14844.0
608.435425 200.0
608.540771 128.0
608.726807 108.0
608.951294 168.0
608.998169 112.0
609.326355 3604.0
609.463928 112.0
609.53772 108.0
609.978271 172.0
610.206604 104.0
610.260254 148.0
610.325317 796.0
610.530823 112.0
610.819458 112.0
611.048218 152.0
611.322327 336.0
611.607361 96.0
611.800171 112.0
612.241943 156.0
649.963989 148.0
685.557861 148.0
760.513855 152.0
771.111267 140.0
778.579712 144.0
803.704407 144.0
807.325378 156.0
821.21759 152.0
915.049805 160.0
956.006287 184.0
1028.030884 180.0
1081.871216 140.0
1118.650269 180.0
1133.491089 140.0
1147.775513 212.0
1162.916382 160.0
1251.630005 220.0
1296.958618 184.0
1320.995728 168.0
1321.45874 180.0
1324.847046 148.0
1331.302612 180.0
1345.969116 228.0
1408.984619 168.0
1412.199097 176.0
1448.78418 164.0
1511.882324 140.0
1520.69458 172.0
1523.055054 188.0
1532.748901 196.0
1562.88855 232.0
1586.30603 156.0
1601.021484 148.0
1604.495605 176.0
1618.798462 180.0
1624.826172 228.0
1629.908691 240.0
1637.454834 172.0
1642.436035 144.0
1642.661865 224.0
1647.844971 168.0
1652.17041 176.0
1654.825073 164.0
1656.841797 200.0
1657.595337 216.0
1663.1427 240.0
1675.405762 196.0
1698.942871 144.0
1701.372192 172.0
1722.561646 236.0
1722.718628 152.0
1727.859985 156.0
1731.150146 208.0
1736.169067 176.0
1738.417358 144.0
1745.92749 156.0
1749.771851 160.0
1754.662476 160.0
1758.817017 152.0
1759.735352 156.0
1770.447266 180.0
1771.728882 212.0
1780.435669 188.0
1781.12439 176.0
1784.18335 188.0
1786.479248 188.0
1790.999756 256.0
1791.378784 192.0
1798.44519 240.0
1800.598267 160.0
1802.507568 172.0
1802.769531 156.0
1807.259766 164.0
1828.543335 224.0
1830.3396 156.0
1832.775879 140.0
1846.297852 228.0
1848.821655 244.0
1853.171875 224.0
1853.531738 200.0
1863.227417 204.0
1873.895996 172.0
1876.575806 172.0
1880.544922 140.0
1886.176758 192.0
1895.861938 224.0
1903.730591 332.0
1904.416626 152.0
1912.55542 164.0
1918.540039 184.0
1923.16333 240.0
1924.568848 180.0
1933.056763 200.0
1935.945679 176.0
1942.115845 200.0
1945.239746 180.0
1946.697266 180.0
1952.27771 172.0
1959.680786 168.0
1963.682983 224.0
1965.562134 236.0
1971.302124 188.0
1973.167114 164.0
1976.448608 192.0
1981.034912 188.0
1981.442383 156.0
1990.578613 204.0
1995.154541 216.0
1995.652344 232.0
1999.219482 172.0
2002.647217 156.0
