>compound Coproporphyrin III
>formula C36H38N4O8 
>ionization [M+H]+
>parentmass 655.275574
#inchi InChI=1S/C36H38N4O8/c1-17-21(5-9-33(41)42)29-14-27-19(3)22(6-10-34(43)44)30(39-27)15-28-20(4)24(8-12-36(47)48)32(40-28)16-31-23(7-11-35(45)46)18(2)26(38-31)13-25(17)37-29/h13-16,38,40H,5-12H2,1-4H3,(H,41,42)(H,43,44)(H,45,46)(H,47,48)
#inchikey XNBNKCLBGTWWSD
#Ion_Source DI-ESI
#Instrument LTQ-FT-ICR
#Compound_Source Standard
#PI Dorrestein
#Data_Collector J Watrous
#Scan -1
#Precursor_MZ 655.278
#ExactMass 0.0
#Charge 1
#CAS_Number N/A
#Pubmed_ID N/A
#Smiles N/A
#INCHI_AUX N/A
#Library_Class 1
#SpectrumID CCMSLIB00000072097
#IonMode Positive
#UpdateWorkflowName UPDATE-SINGLE-ANNOTATED-GOLD
#LibraryQualityString Gold
#TaskID 3bbf0c46eeeb406782b2f3cd0ad9b2b3
##Scan# 1
#SpectrumFile Coproporphyrin_III_standard_1H_FTMS_655_2780.mzXML
#LibraryName gnps_library.mgf
#MQScore -1
#Organism GNPS_JDW_Batch_Library_Centroid
#TIC_Query 0
#RT_Query -1
#MZErrorPPM -1
#SharedPeaks 0
#MassDiff 0
#LibMZ -1
#SpecMZ 655.278
#SpecCharge 0
#internalFilename spec-00000.mgf

>collision 10
182.376236 1494.0
183.009827 1884.0
189.082932 1483.0
197.603592 1414.0
199.932709 1565.0
202.83255 3310.0
203.081619 1500.0
203.098206 2782.0
203.100647 2105.0
203.102829 3422.0
203.104187 6286.0
203.106903 4295.0
203.10936 11915.0
203.110443 7506.0
203.111542 8032.0
203.1129 2624.0
203.113983 5489.0
203.115891 1992.0
203.116974 2436.0
203.118057 2339.0
203.124863 1557.0
203.126495 1749.0
203.127319 1615.0
203.159698 1502.0
205.1138 1423.0
207.805374 1429.0
209.728455 1425.0
218.756958 1447.0
218.759491 5528.0
218.760757 2672.0
233.112503 1409.0
237.626587 1505.0
260.206543 1612.0
261.616394 4652.0
265.500153 1663.0
268.624542 3338.0
271.719116 1399.0
291.122986 2313.0
297.623291 2931.0
297.62738 2213.0
298.127625 23241.0
298.206177 1497.0
300.150787 1422.0
302.684143 1584.0
309.793152 1422.0
318.62442 2296.0
318.628448 5693.0
318.631805 5157.0
327.633209 5292.0
327.636749 5826.0
328.135071 30985.0
328.138641 1551.0
328.636353 4836.0
328.639923 5186.0
342.580505 1559.0
357.702148 1422.0
358.955994 1493.0
359.478424 1459.0
362.81424 1555.0
378.171295 1451.0
379.157379 1421.0
383.300903 1441.0
384.474731 1461.0
397.785889 1796.0
398.604523 1401.0
406.21463 1872.0
410.049866 1490.0
411.868317 1432.0
421.784454 1468.0
425.095886 1498.0
448.388153 1401.0
465.227814 5585.0
467.238708 1404.0
479.243774 8672.0
481.902557 1484.0
490.13974 1485.0
490.174591 3618.0
493.25943 5910.0
502.858063 3863.0
502.866425 6402.0
505.223389 4710.0
506.576782 1522.0
509.218262 1815.0
517.752075 1408.0
523.207031 7876.0
523.219666 53488.0
523.234131 327288.0
523.244934 3339.0
523.248535 2617.0
524.221619 3329.0
524.236084 26600.0
524.243347 1996.0
529.0401 1440.0
530.362854 1547.0
536.24176 13439.0
537.220032 2713.0
537.235229 23391.0
537.248535 149145.0
538.234314 1822.0
538.251526 8879.0
541.346619 1470.0
550.199951 1470.0
550.257812 3981.0
550.753418 1655.0
551.247864 4147.0
551.265869 26429.0
552.273621 4836.0
553.10144 1589.0
553.450623 1559.0
555.430908 1558.0
562.651245 1494.0
564.23584 5366.0
565.228394 3115.0
565.245239 16450.0
566.285767 2124.0
566.389404 1875.0
566.395752 1402.0
566.567139 1798.0
569.819763 2217.0
569.83905 1757.0
572.86969 2890.0
573.125183 2133.0
573.192322 1558.0
573.216125 2369.0
573.955872 1512.0
574.501587 1842.0
574.717102 1803.0
575.709778 2339.0
575.954651 1579.0
576.469116 2482.0
576.484436 2585.0
577.228271 4113.0
577.243652 34323.0
578.108398 1435.0
578.253845 9810.0
579.847839 1837.0
581.221191 4170.0
581.239014 32572.0
582.216309 1863.0
582.229736 13789.0
582.24762 109182.0
583.017578 2156.0
583.237305 4841.0
583.255249 44911.0
584.259644 2705.0
584.273132 1854.0
586.469238 1822.0
586.480591 2891.0
589.400269 1449.0
589.452942 1446.0
593.252869 1787.0
595.215637 1552.0
595.222656 2605.0
595.236633 27304.0
595.25531 225142.0
596.214783 2533.0
596.228821 35580.0
596.24292 131161.0
596.261658 1743010.0
596.280396 4097.0
596.285095 3627.0
596.296814 3739.0
596.306213 1419.0
597.226685 1951.0
597.247864 11347.0
597.257263 12647.0
597.266663 99533.0
598.022644 1728.0
598.032104 2304.0
598.048584 2415.0
599.936462 3110.0
603.260681 1637.0
603.853943 1683.0
604.238892 1558.0
604.376099 1581.0
604.421875 4332.0
605.648071 1891.0
605.660156 1672.0
606.318726 1943.0
609.270935 12922.0
611.287048 1465.0
611.336365 2420.0
611.607544 1465.0
617.258118 1789.0
617.283203 2926.0
617.313354 2478.0
618.453735 1534.0
618.700989 3459.0
618.996399 3578.0
619.011536 2267.0
619.256714 3948.0
619.294678 2294.0
622.602234 3664.0
622.632935 3418.0
623.206055 2671.0
625.627747 2307.0
626.550476 3910.0
627.159363 4554.0
627.174866 2529.0
627.193054 1690.0
627.857727 1576.0
627.875977 2172.0
629.246216 1835.0
629.348022 1574.0
629.37677 1649.0
629.384644 2209.0
629.395081 3089.0
629.41333 6932.0
630.095886 3177.0
630.861206 2059.0
630.874329 1859.0
631.171021 2419.0
631.181519 2165.0
634.979004 1480.0
637.222717 1646.0
637.230774 5927.0
637.244141 27320.0
637.265564 303151.0
638.249817 1643.0
638.268616 23449.0
639.018921 1615.0
639.250549 1440.0
640.254456 13099.0
641.953674 2420.0
641.972717 5419.0
641.983582 3438.0
641.999878 4480.0
642.862549 3092.0
642.878906 3005.0
643.186951 1996.0
646.49353 1645.0
647.078308 1668.0
647.398682 3415.0
652.852539 1421.0
655.06897 2055.0
655.102905 2470.0
655.230286 1443.0
655.23877 5625.0
655.25293 20305.0
655.275574 191862.0
655.813965 2977.0
656.222534 3329.0
656.236755 21925.0
656.256653 82323.0
656.279358 1151400.0
656.304932 3261.0
656.310608 2552.0
656.316284 1971.0
657.234924 1971.0
657.246338 8220.0
657.260559 25466.0
657.283386 215666.0
658.264771 3632.0
658.287598 24365.0
659.128723 6148.0
659.148804 1848.0
660.049561 4581.0
660.066772 2409.0
663.430603 1560.0
663.883667 2698.0
664.38678 1509.0
664.491577 2815.0
668.639893 2003.0
668.731323 2686.0
668.751953 2357.0
668.754883 2357.0
675.251892 1537.0
682.14624 3378.0
682.173889 1635.0
686.891785 3140.0
687.352478 1588.0
695.290283 1801.0
696.580444 3338.0
696.958191 2293.0
697.827209 2230.0
706.161438 14362.0
706.174622 5659.0
706.187744 3703.0
706.204224 1540.0
706.549622 1658.0
710.042786 1540.0
711.244873 1786.0
713.328979 1714.0
716.00293 2161.0
722.036499 2257.0
725.85498 1482.0
727.679932 1493.0
732.335693 1851.0
736.732788 1502.0
736.965515 1798.0
737.22699 1411.0
737.804443 2236.0
742.507446 5285.0
742.525635 3038.0
742.936646 2440.0
745.068176 1472.0
746.520508 1819.0
748.569153 2486.0
749.872009 1886.0
753.845276 2258.0
755.196655 1944.0
760.090454 2461.0
764.28479 1687.0
765.530884 3251.0
769.02832 1411.0
771.971985 2501.0
774.032593 1507.0
777.114258 1894.0
802.467957 1400.0
811.337158 1689.0
815.095947 2073.0
827.960388 1436.0
828.937866 1398.0
836.343262 2489.0
848.604004 1535.0
855.78186 1435.0
865.085876 3023.0
865.110535 1786.0
871.548645 5066.0
871.568665 1465.0
872.13501 3659.0
872.160095 1497.0
879.310242 5365.0
887.683838 1540.0
892.122253 1671.0
895.171082 1692.0
908.208191 1762.0
911.13269 1821.0
914.1698 1428.0
924.360596 1427.0
934.925171 1690.0
936.90625 1584.0
937.068298 1683.0
943.140442 1664.0
943.697937 1929.0
943.791931 1751.0
945.350891 2532.0
946.046753 2972.0
947.921204 1516.0
955.198914 13240.0
955.222961 11627.0
955.259094 1609.0
955.90332 6756.0
955.933411 2720.0
956.819946 1685.0
963.80658 1577.0
964.523743 4348.0
964.548279 2111.0
965.38324 1434.0
993.656067 1434.0
998.148804 1463.0
999.174683 1429.0
1001.259155 1814.0
1008.778198 1506.0
1009.429443 1732.0
1022.930603 2694.0
1023.745422 3356.0
1029.967896 1691.0
1032.794556 1428.0
1033.63208 4472.0
1040.239746 1480.0
1053.967773 2388.0
1055.735962 2770.0
1056.603882 3434.0
1062.667358 1634.0
1067.927734 1422.0
1085.585815 1842.0
1089.790405 1410.0
1094.604004 1757.0
1095.386719 1488.0
1100.7771 1859.0
1106.592163 1451.0
1113.375488 1993.0
1114.373535 1885.0
1119.448608 1480.0
1120.283813 1424.0
1127.102539 2134.0
1145.464478 1523.0
1166.046265 1771.0
1168.264893 1527.0
1174.48938 1590.0
1180.054688 1701.0
1184.64502 1486.0
1190.783936 1485.0
1192.066162 2723.0
1193.097778 4091.0
1194.206299 3364.0
1204.06665 2070.0
1225.124512 1416.0
1228.697632 1853.0
1229.115845 1420.0
1239.158447 4464.0
1263.332886 1519.0
1263.427612 1531.0
1266.413208 1718.0
1267.503418 1629.0
1275.123047 1688.0
1275.530518 1470.0
1280.895386 1665.0
1286.327393 1921.0
1297.408569 1625.0
1318.053955 1412.0
1318.581055 1614.0
1318.730103 1586.0
1320.739868 2085.0
1331.5354 1928.0
1353.024658 2809.0
1353.133301 1803.0
1356.206787 1724.0
1371.463379 1490.0
1379.961426 2038.0
1381.658691 1602.0
1382.389038 1503.0
1395.593262 2391.0
1398.38562 1434.0
1412.266846 4665.0
1414.083984 1683.0
1418.979248 1455.0
1421.946045 1776.0
1433.992676 1594.0
1446.341675 1399.0
1447.335449 1713.0
1453.856445 4560.0
1459.05957 1569.0
1470.276367 2290.0
1470.361938 4777.0
1470.447388 39792.0
1470.518677 7183.0
1485.454712 1462.0
1496.181763 1833.0
1497.585327 1452.0
1514.272583 2022.0
1515.225708 1458.0
1519.582886 2651.0
1528.496216 3233.0
1541.578003 2607.0
1548.076782 2032.0
1552.084961 1938.0
1564.18689 1682.0
1572.979858 1504.0
1579.236694 1709.0
1582.515991 1639.0
1582.928955 1411.0
1589.39856 2140.0
1591.266357 1771.0
1592.452637 8758.0
1604.939941 2390.0
1612.276489 1887.0
1628.532959 1506.0
1637.041016 1479.0
1640.12146 1673.0
1668.743042 2029.0
1671.520142 2174.0
1677.621826 1439.0
1698.077026 4846.0
1698.362305 1817.0
1698.761841 13882.0
1717.810669 1801.0
1725.785889 1574.0
1726.316284 3497.0
1727.791382 3769.0
1735.164673 1487.0
1740.042114 1804.0
1741.440796 1692.0
1758.543701 5181.0
1761.99646 1501.0
1763.430542 1431.0
1770.161011 1681.0
1776.485107 1522.0
1788.025391 2305.0
1791.192993 2139.0
1794.159546 1536.0
1811.453247 1699.0
1820.761108 1521.0
1821.832764 2129.0
1835.569824 1802.0
1848.185791 1496.0
1854.831177 1636.0
1856.079712 1769.0
1868.680786 1776.0
1873.528564 1951.0
1873.783203 1743.0
1879.425781 1628.0
1880.964111 1692.0
1888.106323 3392.0
1889.0 3884.0
1893.410034 2939.0
1897.745728 1506.0
1898.601074 2350.0
1906.477051 1418.0
1909.597656 1938.0
1925.844238 1404.0
1941.151489 1529.0
1944.162476 1841.0
1960.067383 1462.0
1967.390259 1460.0
1977.96167 1619.0
1978.013184 1600.0
1985.938965 1422.0
1998.105469 1543.0
