>compound MLS001076327-01!4394-00-7
>formula C13H9F3N2O2
>ionization [M+H]+
>parentmass 283.068909
#inchi InChI=1S/C13H9F3N2O2/c14-13(15,16)8-3-1-4-9(7-8)18-11-10(12(19)20)5-2-6-17-11/h1-7H,(H,17,18)(H,19,20)
#inchikey JZFPYUNJRRFVQU
#Ion_Source LC-ESI
#Instrument qTof
#Compound_Source NIH Pharmacologically Active Library
#PI Dorrestein
#Data_Collector VP/LMS
#Scan -1
#Precursor_MZ 283.074
#ExactMass 282.062
#Charge 1
#CAS_Number N/A
#Pubmed_ID N/A
#Smiles OC(=O)c1cccnc1Nc2cccc(c2)C(F)(F)F
#INCHI_AUX N/A
#Library_Class 1
#SpectrumID CCMSLIB00000085681
#IonMode Positive
#UpdateWorkflowName UPDATE-SINGLE-ANNOTATED-GOLD
#LibraryQualityString Gold
#TaskID d252d724072548979f1f6f1ced849daf
##Scan# 2208
#SpectrumFile p4-E03_GE3_01_18375.mzXML
#LibraryName Pharm_Active_Library.mgf
#MQScore -1
#Organism Pharm_Active_Library
#TIC_Query 0
#RT_Query -1
#MZErrorPPM -1
#SharedPeaks 0
#MassDiff 0
#LibMZ -1
#SpecMZ 283.074
#SpecCharge 0
#internalFilename spec-00000.mgf

>collision 10
44.903122 160.0
44.932068 200.0
44.955799 128.0
44.967831 180.0
44.976376 160.0
44.98877 152.0
45.009483 40.0
45.032364 152.0
45.054626 100.0
45.066921 180.0
45.078945 176.0
45.093685 144.0
45.10548 216.0
45.126141 196.0
45.163887 164.0
45.210583 368.0
45.226063 116.0
45.239513 184.0
45.252693 188.0
45.258003 328.0
45.270245 120.0
45.288216 168.0
45.303471 144.0
45.319065 108.0
45.332603 168.0
45.341591 204.0
45.365376 132.0
45.381466 120.0
45.428589 204.0
45.444298 312.0
45.471153 168.0
45.474773 144.0
45.506245 188.0
45.521648 140.0
45.536934 136.0
45.569046 164.0
45.589149 164.0
45.600647 220.0
45.612377 156.0
45.627167 168.0
45.650024 180.0
45.663471 120.0
45.679615 152.0
45.694412 156.0
45.72332 176.0
45.755199 216.0
45.785732 100.0
45.810192 116.0
45.833771 128.0
45.844913 144.0
45.856785 256.0
45.882965 336.0
45.919376 196.0
45.953098 180.0
45.975376 244.0
45.996937 116.0
46.03334 180.0
46.03936 248.0
46.056046 176.0
46.089474 216.0
46.11425 232.0
46.120407 88.0
46.124569 132.0
46.135426 104.0
46.146133 100.0
46.154942 120.0
46.181541 116.0
46.196789 64.0
46.221912 484.0
46.240211 220.0
46.254578 312.0
46.283241 144.0
46.299152 224.0
46.309235 36.0
46.320946 44.0
46.324524 164.0
46.33979 120.0
46.362827 96.0
46.389179 208.0
46.405865 192.0
46.422474 112.0
46.438496 316.0
46.460453 80.0
46.493896 204.0
46.514603 120.0
46.550922 172.0
46.568195 108.0
46.58535 140.0
46.611164 152.0
46.636986 88.0
46.653301 108.0
46.665535 172.0
46.675053 164.0
46.684574 124.0
46.707329 148.0
46.713036 108.0
46.717606 140.0
46.729496 168.0
46.751232 168.0
46.764252 184.0
46.774372 232.0
46.783901 124.0
46.824749 232.0
46.835648 336.0
46.855286 152.0
46.873306 56.0
46.89151 96.0
46.916046 64.0
46.925591 204.0
46.940147 420.0
46.952095 220.0
46.957523 96.0
46.962975 164.0
46.979355 76.0
46.994415 104.0
47.022533 124.0
47.032845 404.0
47.051617 140.0
47.080475 208.0
47.127594 100.0
47.150471 220.0
47.176796 124.0
47.197788 148.0
47.220501 204.0
47.241074 192.0
47.257488 144.0
47.270077 164.0
47.277901 144.0
47.282627 152.0
47.321152 80.0
47.332348 168.0
47.368382 160.0
47.388161 220.0
47.397636 148.0
47.41497 56.0
47.428799 176.0
47.43964 168.0
47.452915 164.0
47.483116 176.0
47.50071 128.0
47.521355 160.0
47.534279 144.0
47.56694 176.0
47.582455 332.0
47.618259 236.0
47.679611 200.0
47.700466 124.0
47.740341 268.0
47.753094 176.0
47.773804 156.0
47.797798 172.0
47.81876 176.0
47.834515 308.0
47.870651 324.0
47.89341 136.0
47.905087 144.0
47.921314 152.0
47.949642 132.0
47.962006 204.0
47.982685 260.0
47.99192 132.0
48.007931 168.0
48.024929 272.0
48.049614 212.0
48.055195 112.0
48.060463 164.0
48.076485 136.0
48.093044 96.0
48.107105 216.0
48.116055 120.0
48.140808 176.0
48.162083 120.0
48.174519 156.0
48.188908 144.0
48.224548 116.0
48.235897 268.0
48.246655 100.0
48.266037 128.0
48.280949 40.0
48.29842 120.0
48.308613 340.0
48.330109 144.0
48.341831 388.0
48.351048 376.0
48.385643 196.0
48.395866 140.0
48.410614 420.0
48.440292 228.0
48.449818 300.0
48.469559 196.0
48.483974 224.0
48.510796 144.0
48.523273 208.0
48.539291 124.0
48.561478 176.0
48.589916 172.0
48.623844 124.0
48.652298 248.0
48.677914 276.0
48.708229 148.0
48.720348 132.0
48.735542 188.0
48.756004 160.0
48.789513 172.0
48.804352 100.0
48.834335 104.0
48.860577 176.0
48.884418 228.0
48.893223 196.0
48.903156 188.0
48.932529 356.0
48.943382 160.0
48.976307 232.0
48.997028 164.0
49.027695 156.0
49.04224 164.0
49.05233 216.0
49.089916 200.0
49.101749 172.0
49.114304 112.0
49.129646 64.0
49.14864 208.0
49.196136 216.0
49.217525 180.0
49.24551 64.0
49.25808 100.0
49.304813 116.0
49.328671 360.0
49.34193 76.0
49.357391 208.0
49.367897 112.0
49.379684 80.0
49.399658 244.0
49.426308 224.0
49.448242 228.0
49.459476 148.0
49.478352 196.0
49.491638 296.0
49.505238 152.0
49.514332 156.0
49.535057 144.0
49.553268 180.0
49.581909 168.0
49.59444 316.0
49.618313 176.0
49.633163 172.0
49.652794 40.0
49.67374 120.0
49.702244 128.0
49.716148 168.0
49.732769 208.0
49.746807 144.0
49.767715 184.0
49.788464 144.0
49.815266 144.0
49.828262 120.0
49.850742 124.0
49.885883 160.0
49.921818 172.0
49.933064 200.0
49.945377 168.0
49.956963 132.0
49.979259 344.0
49.998409 164.0
50.008614 208.0
50.017559 132.0
50.027966 108.0
50.041615 196.0
50.056202 148.0
50.089092 128.0
50.116501 144.0
50.15659 224.0
50.180103 148.0
50.218929 116.0
50.236923 160.0
50.270397 124.0
50.285091 136.0
50.301449 208.0
50.312954 160.0
50.326862 184.0
50.347603 64.0
50.358841 124.0
50.363934 80.0
50.367035 144.0
50.385372 188.0
50.402439 268.0
50.427971 140.0
50.442711 140.0
50.4823 132.0
50.497856 104.0
50.553627 228.0
50.589832 116.0
50.600502 164.0
50.626648 128.0
50.640305 168.0
50.648777 288.0
50.659225 168.0
50.695686 316.0
50.718033 196.0
50.737171 120.0
50.754185 196.0
50.783131 312.0
50.804569 160.0
50.839298 200.0
50.853489 120.0
50.868916 180.0
50.872345 156.0
50.884926 192.0
50.914463 144.0
50.934105 248.0
50.956646 256.0
50.989838 76.0
51.03157 168.0
51.050743 124.0
51.09214 280.0
51.115509 316.0
51.125481 192.0
51.137375 120.0
51.155697 244.0
51.168205 220.0
51.177616 200.0
51.209042 156.0
51.233162 160.0
51.257385 128.0
51.31226 164.0
51.329617 232.0
51.36314 224.0
51.398552 140.0
51.42424 120.0
51.44112 136.0
51.451866 136.0
51.464088 136.0
51.478493 148.0
51.52277 112.0
51.544205 68.0
51.559074 128.0
51.59071 104.0
51.617107 120.0
51.628548 128.0
51.648037 172.0
51.665585 152.0
51.6842 208.0
51.695042 108.0
51.713924 184.0
51.730137 160.0
51.766624 272.0
51.793243 112.0
51.807468 152.0
51.818928 100.0
51.833256 100.0
51.851887 184.0
51.891632 244.0
51.915413 180.0
51.93935 120.0
51.998726 188.0
52.010571 204.0
52.031071 148.0
52.042679 76.0
52.069965 100.0
52.083714 128.0
52.094383 172.0
52.115086 184.0
52.145645 172.0
52.180614 144.0
52.200745 236.0
52.215126 176.0
52.253963 92.0
52.266747 104.0
52.286491 172.0
52.2999 252.0
52.315849 124.0
52.328415 236.0
52.356297 44.0
52.37492 204.0
52.41523 188.0
52.437946 252.0
52.441692 188.0
52.457027 240.0
52.469791 160.0
52.480946 176.0
52.489853 192.0
52.529129 80.0
52.552212 148.0
52.585403 156.0
52.594894 132.0
52.62674 156.0
52.635208 200.0
52.646866 224.0
52.662418 152.0
52.700932 148.0
52.731277 64.0
52.751991 180.0
52.772236 140.0
52.816586 144.0
52.843647 108.0
52.850342 176.0
52.893135 120.0
52.916443 124.0
52.93092 120.0
52.958187 280.0
52.975174 176.0
52.989777 164.0
53.022881 176.0
53.055527 128.0
53.072926 200.0
53.093079 276.0
53.109566 180.0
53.122234 156.0
53.133842 128.0
53.158508 192.0
53.168667 124.0
53.183533 308.0
53.237724 148.0
53.249969 128.0
53.266071 368.0
53.283382 128.0
53.296459 164.0
53.308083 140.0
53.346649 172.0
53.374405 160.0
53.385132 84.0
53.401127 144.0
53.430222 124.0
53.457634 172.0
53.474361 132.0
53.50528 216.0
53.514977 152.0
53.526287 380.0
53.558529 172.0
53.574348 136.0
53.584549 348.0
53.597664 124.0
53.620022 360.0
53.628536 152.0
53.6642 228.0
53.69096 136.0
53.710266 152.0
53.72657 252.0
53.760986 164.0
53.794556 144.0
53.816456 120.0
53.841282 108.0
53.852966 176.0
53.882183 120.0
53.896904 156.0
53.907322 176.0
53.937714 180.0
53.953793 100.0
53.987423 276.0
54.011574 196.0
54.0424 144.0
54.054619 128.0
54.083988 160.0
54.104481 40.0
54.124146 168.0
54.158665 124.0
54.177624 136.0
54.223133 172.0
54.243958 336.0
54.259224 148.0
54.302303 152.0
54.325775 144.0
54.338978 152.0
54.349251 180.0
54.365391 156.0
54.383926 140.0
54.39249 164.0
54.419907 144.0
54.438435 180.0
54.45348 124.0
54.465229 148.0
54.479919 172.0
54.503895 88.0
54.54731 196.0
54.569538 184.0
54.588345 172.0
54.592297 132.0
54.605083 136.0
54.616631 116.0
54.658642 108.0
54.675949 152.0
54.696125 156.0
54.714607 316.0
54.79129 192.0
54.815384 48.0
54.838821 124.0
54.872963 168.0
54.886143 52.0
54.902363 136.0
54.921535 60.0
54.943848 160.0
54.960869 608.0
54.991711 112.0
55.005173 276.0
55.02158 136.0
55.0396 228.0
55.059853 492.0
55.089817 188.0
55.112728 136.0
55.147907 128.0
55.175533 176.0
55.206814 156.0
55.229412 152.0
55.249481 132.0
55.280552 220.0
55.296055 160.0
55.317554 352.0
55.33828 160.0
55.357449 212.0
55.381775 108.0
55.406784 348.0
55.435814 128.0
55.45562 96.0
55.495338 168.0
55.508682 48.0
55.529892 160.0
55.535053 200.0
55.547482 168.0
55.559528 128.0
55.57793 164.0
55.59264 148.0
55.597748 156.0
55.610863 152.0
55.632656 220.0
55.662487 136.0
55.678688 208.0
55.688683 140.0
55.694714 92.0
55.700066 80.0
55.705585 168.0
55.720036 112.0
55.733585 156.0
55.752102 148.0
55.764805 300.0
55.775513 188.0
55.788685 96.0
55.802685 188.0
55.819038 280.0
55.833912 140.0
55.851757 52.0
55.862915 128.0
55.880329 236.0
55.896496 172.0
55.93211 180.0
55.966354 112.0
55.978264 180.0
55.990177 144.0
56.000603 352.0
56.010464 336.0
56.031887 164.0
56.079121 212.0
56.106403 112.0
56.134735 80.0
56.153461 136.0
56.186893 128.0
56.190548 220.0
56.213799 88.0
56.224243 168.0
56.243816 316.0
56.270519 96.0
56.30785 28.0
56.320278 288.0
56.339218 156.0
56.366112 164.0
56.386684 220.0
56.406944 312.0
56.419441 144.0
56.455036 176.0
56.476746 184.0
56.499184 56.0
56.514145 208.0
56.527615 196.0
56.53809 116.0
56.55006 148.0
56.569023 168.0
56.588985 128.0
56.606602 120.0
56.632252 180.0
56.647518 192.0
56.676445 112.0
56.708858 184.0
56.732811 184.0
56.747234 368.0
56.768024 128.0
56.782654 216.0
56.796871 184.0
56.812458 508.0
56.831799 104.0
56.846806 184.0
56.885529 120.0
56.909927 152.0
56.935379 188.0
56.956406 124.0
56.97443 36.0
56.995464 136.0
57.019512 124.0
57.031982 376.0
57.074268 264.0
57.100697 248.0
57.120567 152.0
57.144321 140.0
57.155731 192.0
57.161411 112.0
57.164661 232.0
57.175362 208.0
57.187965 172.0
57.198635 140.0
57.215061 144.0
57.230114 92.0
57.263393 184.0
57.281021 220.0
57.300488 244.0
57.305973 176.0
57.312046 132.0
57.342728 456.0
57.358807 200.0
57.373249 132.0
57.411137 156.0
57.432056 168.0
57.447144 176.0
57.468121 264.0
57.499889 188.0
57.541931 188.0
57.570911 188.0
57.602631 216.0
57.62529 108.0
57.639885 188.0
57.656143 412.0
57.682384 284.0
57.703884 132.0
57.724567 224.0
57.740177 180.0
57.755302 192.0
57.767254 164.0
57.772881 148.0
57.808254 164.0
57.839771 200.0
57.857021 164.0
57.877598 188.0
57.904396 380.0
57.922173 116.0
57.929886 120.0
57.934277 156.0
57.947563 248.0
57.961197 184.0
58.007622 288.0
58.041538 76.0
58.052151 88.0
58.071499 148.0
58.084614 188.0
58.091259 204.0
58.095379 144.0
58.118896 148.0
58.129906 172.0
58.15324 228.0
58.163429 244.0
58.196167 172.0
58.216049 144.0
58.25098 112.0
58.279385 148.0
58.292122 208.0
58.305679 48.0
58.317841 152.0
58.354942 128.0
58.36953 176.0
58.38335 184.0
58.397579 108.0
58.428761 204.0
58.444935 156.0
58.466301 152.0
58.500046 240.0
58.524734 244.0
58.534485 172.0
58.547577 156.0
58.577183 156.0
58.591419 184.0
58.610428 248.0
58.631371 240.0
58.651184 100.0
58.683346 204.0
58.693241 348.0
58.722168 320.0
58.734646 128.0
58.739193 212.0
58.759457 220.0
58.786922 148.0
58.80048 136.0
58.855526 208.0
58.861027 184.0
58.867535 124.0
58.877254 160.0
58.893608 164.0
58.898102 176.0
58.933514 88.0
58.950413 208.0
58.973248 112.0
58.987007 212.0
59.003059 92.0
59.021526 152.0
59.03828 148.0
59.074539 108.0
59.114628 208.0
59.129921 192.0
59.143383 208.0
59.156807 136.0
59.179024 172.0
59.19202 40.0
59.205212 132.0
59.243202 164.0
59.268612 72.0
59.292286 196.0
59.308456 124.0
59.334518 68.0
59.352032 104.0
59.380524 248.0
59.397621 108.0
59.440742 204.0
59.4557 132.0
59.491001 84.0
59.521915 148.0
59.535191 144.0
59.581612 132.0
59.598946 212.0
59.632458 136.0
59.683437 172.0
59.697987 204.0
59.73019 184.0
59.741497 144.0
59.759747 116.0
59.780476 176.0
59.792942 120.0
59.814114 148.0
59.833752 124.0
59.860992 184.0
59.887424 180.0
59.913013 156.0
59.923473 180.0
59.9366 100.0
59.96022 132.0
59.981056 144.0
59.993595 200.0
60.014145 144.0
60.032326 88.0
60.046513 248.0
60.062397 152.0
60.076641 204.0
60.11187 188.0
60.145233 72.0
60.165302 100.0
60.18692 240.0
60.198112 144.0
60.214714 120.0
60.241638 160.0
60.284237 192.0
60.297611 196.0
60.350704 160.0
60.362659 148.0
60.385483 204.0
60.419022 140.0
60.451252 132.0
60.467411 172.0
60.491493 100.0
60.510662 84.0
60.527317 124.0
60.540451 168.0
60.544971 104.0
60.563644 176.0
60.579762 180.0
60.594612 260.0
60.606102 332.0
60.633995 56.0
60.654144 172.0
60.671474 156.0
60.697155 204.0
60.709961 132.0
60.726162 188.0
60.749657 196.0
60.754147 172.0
60.770893 200.0
60.801003 152.0
60.819283 52.0
60.834087 136.0
60.866692 104.0
60.887512 216.0
60.915215 616.0
60.926868 124.0
60.984764 176.0
61.013367 368.0
61.019779 172.0
61.054729 132.0
61.067169 148.0
61.085529 224.0
61.115341 112.0
61.134724 152.0
61.171001 192.0
61.182796 92.0
61.20879 96.0
61.230591 196.0
61.25182 204.0
61.265553 164.0
61.282059 104.0
61.299141 248.0
61.318832 252.0
61.331463 200.0
61.353691 232.0
61.367725 216.0
61.395645 128.0
61.41819 144.0
61.446228 144.0
61.466377 340.0
61.476379 128.0
61.502544 152.0
61.528427 88.0
61.55426 400.0
61.575272 164.0
61.608006 188.0
61.625259 160.0
61.640884 200.0
61.667206 152.0
61.688816 192.0
61.694782 176.0
61.705189 372.0
61.733391 224.0
61.745628 140.0
61.773575 120.0
61.794121 92.0
61.82333 120.0
61.836918 368.0
61.866112 188.0
61.889599 68.0
61.904388 284.0
61.936916 232.0
61.955498 160.0
61.974144 180.0
61.998226 104.0
62.030239 164.0
62.042015 156.0
62.057251 124.0
62.06823 92.0
62.08548 240.0
62.095982 188.0
62.119228 232.0
62.135674 264.0
62.156715 344.0
62.197639 148.0
62.210964 156.0
62.222458 324.0
62.233364 116.0
62.261974 104.0
62.268055 48.0
62.273186 120.0
62.295807 136.0
62.31451 248.0
62.335083 180.0
62.352371 144.0
62.373058 148.0
62.382736 88.0
62.424686 128.0
62.445133 96.0
62.470299 108.0
62.487606 156.0
62.512356 408.0
62.533241 128.0
62.556854 152.0
62.571022 128.0
62.583618 152.0
62.600937 152.0
62.613739 156.0
62.646172 128.0
62.655296 188.0
62.688301 236.0
62.704315 136.0
62.72052 120.0
62.744324 64.0
62.757744 204.0
62.774769 104.0
62.796631 276.0
62.823441 168.0
62.847729 200.0
62.893936 100.0
62.913025 176.0
62.928921 132.0
62.958443 264.0
62.998409 52.0
63.01263 188.0
63.028095 188.0
63.03455 284.0
63.056877 148.0
63.068256 200.0
63.085037 240.0
63.099556 152.0
63.120209 524.0
63.135719 184.0
63.148918 204.0
63.169704 180.0
63.176376 196.0
63.180725 112.0
63.210793 356.0
63.250107 120.0
63.264534 228.0
63.299587 124.0
63.332993 196.0
63.339165 196.0
63.355946 80.0
63.381462 188.0
63.420109 268.0
63.430801 236.0
63.451035 88.0
63.461983 84.0
63.464722 76.0
63.475346 180.0
63.494286 164.0
63.531918 124.0
63.547783 132.0
63.587456 88.0
63.635078 132.0
63.653416 160.0
63.670013 100.0
63.695896 472.0
63.707447 120.0
63.723301 144.0
63.735462 320.0
63.757393 168.0
63.7789 240.0
63.79805 164.0
63.812767 172.0
63.829193 168.0
63.850288 148.0
63.878231 344.0
63.895733 116.0
63.924374 228.0
63.94968 352.0
63.972122 100.0
63.992107 152.0
64.021141 200.0
64.037117 200.0
64.069649 192.0
64.113251 176.0
64.128227 136.0
64.156776 220.0
64.169846 188.0
64.188049 284.0
64.21273 316.0
64.225075 232.0
64.247818 196.0
64.278343 92.0
64.302078 180.0
64.316864 136.0
64.334 184.0
64.369125 292.0
64.402504 140.0
64.417923 204.0
64.428223 240.0
64.446129 136.0
64.469048 196.0
64.480957 172.0
64.493744 108.0
64.511322 140.0
64.549698 120.0
64.569542 108.0
64.595848 244.0
64.610062 168.0
64.667976 304.0
64.690498 160.0
64.700874 128.0
64.717842 192.0
64.736671 148.0
64.761307 196.0
64.774979 252.0
64.794594 212.0
64.805809 168.0
64.836906 144.0
64.849075 64.0
64.883347 252.0
64.917946 180.0
64.947685 232.0
64.98378 148.0
64.994598 140.0
65.03315 212.0
65.059174 168.0
65.091324 120.0
65.104652 160.0
65.125053 140.0
65.138481 144.0
65.150253 168.0
65.163605 148.0
65.182129 104.0
65.198959 108.0
65.216637 184.0
65.242722 160.0
65.250031 124.0
65.253067 200.0
65.266472 108.0
65.288696 156.0
65.310875 144.0
65.337708 208.0
65.350113 148.0
65.370277 316.0
65.397591 152.0
65.416725 164.0
65.435257 180.0
65.456398 140.0
65.47084 96.0
65.490173 144.0
65.50975 180.0
65.525612 324.0
65.53743 296.0
65.56694 160.0
65.583626 136.0
65.611031 124.0
65.658516 116.0
65.661484 180.0
65.673203 244.0
65.694893 168.0
65.711082 112.0
65.728867 136.0
65.764275 196.0
65.78849 156.0
65.827522 228.0
65.844963 160.0
65.862106 172.0
65.879524 148.0
65.901131 280.0
65.936241 144.0
65.95649 144.0
65.983871 124.0
65.98983 116.0
66.002174 108.0
66.046486 124.0
66.068069 120.0
66.084579 156.0
66.102982 180.0
66.123085 140.0
66.139275 76.0
66.165176 164.0
66.179024 152.0
66.196457 188.0
66.211632 116.0
66.236603 140.0
66.276932 84.0
66.292221 156.0
66.315605 116.0
66.340141 228.0
66.35276 168.0
66.392029 132.0
66.404251 140.0
66.426086 112.0
66.464951 164.0
66.487747 144.0
66.502296 116.0
66.508789 112.0
66.512253 112.0
66.545647 152.0
66.577034 384.0
66.59108 124.0
66.619743 220.0
66.652039 164.0
66.67289 56.0
66.684265 128.0
66.720024 164.0
66.734657 188.0
66.749489 100.0
66.769539 204.0
66.796455 148.0
66.817818 248.0
66.84127 88.0
66.860397 268.0
66.879448 120.0
66.891815 96.0
66.910034 152.0
66.925026 56.0
66.939682 340.0
66.964737 156.0
66.997345 156.0
67.027458 172.0
67.046837 232.0
67.058655 168.0
67.081436 100.0
67.102623 188.0
67.117691 184.0
67.152367 56.0
67.172752 56.0
67.234756 212.0
67.261353 364.0
67.274506 96.0
67.290253 188.0
67.304947 40.0
67.332977 224.0
67.358643 96.0
67.372849 252.0
67.393944 340.0
67.418137 208.0
67.43074 148.0
67.453621 176.0
67.465065 48.0
67.492035 208.0
67.506721 160.0
67.532112 136.0
67.553375 216.0
67.585373 180.0
67.597939 452.0
67.615555 64.0
67.643379 308.0
67.654839 128.0
67.689224 124.0
67.705597 76.0
67.720337 88.0
67.755333 188.0
67.777802 216.0
67.798759 180.0
67.82029 108.0
67.835548 204.0
67.851433 148.0
67.889931 132.0
67.915817 536.0
67.926186 172.0
67.942268 156.0
67.964981 136.0
67.979614 164.0
67.994141 140.0
68.008919 140.0
68.038956 160.0
68.065247 292.0
68.082794 124.0
68.097511 100.0
68.099831 172.0
68.132484 32.0
68.152786 172.0
68.173706 400.0
68.183411 164.0
68.196388 164.0
68.214241 136.0
68.247124 164.0
68.272369 136.0
68.28495 180.0
68.301308 216.0
68.332649 96.0
68.347458 112.0
68.361946 296.0
68.381523 160.0
68.393692 172.0
68.411652 120.0
68.437126 160.0
68.449516 108.0
68.465988 292.0
68.493988 84.0
68.515556 176.0
68.52858 164.0
68.55938 192.0
68.574722 152.0
68.605392 224.0
68.637367 140.0
68.662109 164.0
68.675301 104.0
68.698524 308.0
68.733147 248.0
68.757797 164.0
68.771683 136.0
68.799767 112.0
68.826668 172.0
68.858505 144.0
68.891541 300.0
68.911942 128.0
68.936157 136.0
68.952682 140.0
68.968231 168.0
68.978935 192.0
68.999245 216.0
69.041107 156.0
69.059013 116.0
69.10482 360.0
69.126328 196.0
69.139404 160.0
69.1455 144.0
69.161079 152.0
69.172668 116.0
69.195084 224.0
69.225014 272.0
69.243866 112.0
69.256416 132.0
69.280914 160.0
69.301849 168.0
69.317993 108.0
69.359612 244.0
69.365494 208.0
69.373001 120.0
69.395897 124.0
69.406067 320.0
69.426659 300.0
69.445366 112.0
69.461006 196.0
69.481911 140.0
69.500824 176.0
69.518593 152.0
69.545631 96.0
69.565552 160.0
69.583809 152.0
69.607056 316.0
69.641182 80.0
69.660583 276.0
69.682999 156.0
69.705063 100.0
69.719604 112.0
69.738304 132.0
69.762756 152.0
69.783539 228.0
69.800598 136.0
69.821434 40.0
69.842827 260.0
69.864388 136.0
69.888535 236.0
69.909073 144.0
69.951805 204.0
69.968025 248.0
70.017952 152.0
70.048187 416.0
70.089935 148.0
70.115746 200.0
70.145973 188.0
70.175529 128.0
70.197807 196.0
70.211143 140.0
70.229492 312.0
70.241165 80.0
70.254517 148.0
70.269531 172.0
70.300926 304.0
70.317924 96.0
70.338562 132.0
70.356316 148.0
70.384277 128.0
70.411415 144.0
70.426048 216.0
70.443153 212.0
70.45652 84.0
70.478241 104.0
70.493279 136.0
70.513336 176.0
70.524948 172.0
70.546761 176.0
70.5802 164.0
70.592659 176.0
70.606956 180.0
70.62262 284.0
70.634392 196.0
70.646446 264.0
70.676147 208.0
70.716743 92.0
70.743103 164.0
70.780014 136.0
70.811699 172.0
70.831245 376.0
70.8535 140.0
70.881508 248.0
70.898262 168.0
70.945312 116.0
70.95829 64.0
70.992142 232.0
71.011078 180.0
71.029045 152.0
71.041672 152.0
71.048164 80.0
71.077164 164.0
71.100433 160.0
71.139198 180.0
71.161339 192.0
71.191849 144.0
71.208458 108.0
71.23539 168.0
71.251968 192.0
71.270798 144.0
71.304108 244.0
71.308273 200.0
71.334663 104.0
71.379501 156.0
71.408646 176.0
71.420425 168.0
71.438858 120.0
71.466919 176.0
71.480988 196.0
71.5298 184.0
71.553703 176.0
71.567505 212.0
71.603882 156.0
71.624481 104.0
71.649368 64.0
71.679901 128.0
71.739342 308.0
71.765038 108.0
71.801704 352.0
71.83847 164.0
71.881294 116.0
71.910736 148.0
71.941399 208.0
71.985832 200.0
71.998535 120.0
72.051529 128.0
72.093719 128.0
72.118263 256.0
72.138397 344.0
72.173386 148.0
72.185547 308.0
72.200317 120.0
72.229912 152.0
72.246109 204.0
72.27594 156.0
72.316383 116.0
72.328232 140.0
72.34008 40.0
72.354752 156.0
72.391785 104.0
72.444084 184.0
72.469315 144.0
72.512444 280.0
72.528107 164.0
72.5578 144.0
72.584908 124.0
72.60318 116.0
72.614929 212.0
72.63076 208.0
72.65699 148.0
72.668556 132.0
72.7062 140.0
72.747795 244.0
72.774139 184.0
72.792778 232.0
72.814995 200.0
72.830139 220.0
72.8517 156.0
72.874451 144.0
72.891975 204.0
72.905449 124.0
72.916794 156.0
72.951706 216.0
72.98391 164.0
73.008064 252.0
73.044258 116.0
73.078346 76.0
73.12513 208.0
73.15493 160.0
73.166847 176.0
73.187897 232.0
73.20771 124.0
73.230934 132.0
73.264946 180.0
73.285034 132.0
73.321854 116.0
73.34742 144.0
73.366379 100.0
73.383224 160.0
73.399422 112.0
73.429337 276.0
73.492172 224.0
73.517982 188.0
73.536751 116.0
73.562798 424.0
73.591377 168.0
73.605042 136.0
73.617882 176.0
73.632362 92.0
73.659691 176.0
73.676353 260.0
73.744965 124.0
73.769058 156.0
73.78701 160.0
73.80645 208.0
73.818642 220.0
73.879799 212.0
73.89904 252.0
73.942184 208.0
73.960648 188.0
73.997246 184.0
74.030846 208.0
74.05703 184.0
74.089455 184.0
74.106506 288.0
74.126778 268.0
74.142197 36.0
74.15934 144.0
74.190483 204.0
74.233917 204.0
74.253006 288.0
74.28373 140.0
74.330833 40.0
74.353241 140.0
74.387756 200.0
74.406357 96.0
74.438011 176.0
74.449287 224.0
74.477684 164.0
74.490509 68.0
74.517281 144.0
74.56955 200.0
74.584526 168.0
74.602104 68.0
74.626274 112.0
74.665833 164.0
74.70195 136.0
74.719635 404.0
74.748405 172.0
74.786446 216.0
74.80468 148.0
74.840347 268.0
74.862869 124.0
74.896469 112.0
74.913689 136.0
74.925751 124.0
74.9394 104.0
74.963661 240.0
74.977448 60.0
75.003098 140.0
75.0093 124.0
75.022774 108.0
75.053291 116.0
75.084335 184.0
75.105034 124.0
75.124977 144.0
75.136086 172.0
75.147255 132.0
75.178032 64.0
75.201584 184.0
75.218918 164.0
75.242043 196.0
75.255173 180.0
75.269585 196.0
75.299988 164.0
75.327118 256.0
75.335754 128.0
75.342216 212.0
75.361122 176.0
75.376083 192.0
75.401512 180.0
75.421021 204.0
75.441765 136.0
75.462868 116.0
75.477234 220.0
75.508415 136.0
75.554222 172.0
75.574608 188.0
75.599159 84.0
75.625122 140.0
75.666672 112.0
75.689178 280.0
75.732071 220.0
75.75499 204.0
75.780502 204.0
75.807861 304.0
75.822182 92.0
75.841637 88.0
75.858971 332.0
75.900131 140.0
75.912285 176.0
75.927086 264.0
75.939888 228.0
75.954346 168.0
75.966782 188.0
75.986275 168.0
76.037628 164.0
76.053246 140.0
76.071907 128.0
76.098907 148.0
76.110611 188.0
76.129097 128.0
76.165085 284.0
76.192169 200.0
76.23497 152.0
76.268631 100.0
76.282707 124.0
76.317314 212.0
76.345535 104.0
76.367111 92.0
76.399521 180.0
76.423409 224.0
76.448212 128.0
76.452171 152.0
76.462646 540.0
76.485725 132.0
76.50695 108.0
76.534813 148.0
76.560928 144.0
76.599319 128.0
76.646286 160.0
76.659782 216.0
76.684631 316.0
76.720306 188.0
76.747391 144.0
76.767044 132.0
76.784012 396.0
76.801384 220.0
76.821915 164.0
76.830406 60.0
76.835815 200.0
76.859024 172.0
76.876472 172.0
76.888687 280.0
76.90963 48.0
76.946442 144.0
76.973381 264.0
76.996933 216.0
77.022644 128.0
77.052635 144.0
77.067406 176.0
77.083397 156.0
77.097183 156.0
77.124008 164.0
77.152451 92.0
77.182281 208.0
77.211899 120.0
77.232887 140.0
77.275223 40.0
77.321854 180.0
77.337746 192.0
77.33992 188.0
77.364128 144.0
77.385139 232.0
77.42366 112.0
77.435921 132.0
77.45578 308.0
77.469208 176.0
77.489792 176.0
77.509132 152.0
77.528778 320.0
77.539841 236.0
77.581635 152.0
77.611168 156.0
77.639229 140.0
77.651505 112.0
77.69294 120.0
77.712898 136.0
77.728691 176.0
77.744484 184.0
77.777153 124.0
77.798897 132.0
77.816452 104.0
77.829262 232.0
77.854492 316.0
77.881027 104.0
77.898994 116.0
77.914696 188.0
77.937653 176.0
77.964172 128.0
77.971916 56.0
77.979195 156.0
77.995224 84.0
78.015533 76.0
78.044868 156.0
78.064217 124.0
78.077271 136.0
78.103867 188.0
78.109688 84.0
78.1166 204.0
78.13633 128.0
78.150406 96.0
78.16272 108.0
78.192642 140.0
78.212601 152.0
78.229698 232.0
78.24897 36.0
78.277145 180.0
78.292992 228.0
78.315887 164.0
78.333504 112.0
78.35817 56.0
78.400459 176.0
78.417702 160.0
78.441902 132.0
78.465675 192.0
78.481209 196.0
78.484047 228.0
78.502083 212.0
78.515739 144.0
78.532318 152.0
78.575027 148.0
78.590904 128.0
78.620354 128.0
78.635025 164.0
78.653664 128.0
78.672768 156.0
78.703873 164.0
78.717995 128.0
78.744484 84.0
78.76815 288.0
78.797211 156.0
78.82045 72.0
78.8423 208.0
78.863861 264.0
78.877007 168.0
78.90097 108.0
78.908722 132.0
78.940659 188.0
78.958664 188.0
78.985008 132.0
78.999435 148.0
79.024254 192.0
79.054031 140.0
79.075111 104.0
79.092812 192.0
79.115379 144.0
79.13884 100.0
79.162506 164.0
79.175819 172.0
79.204369 212.0
79.219238 448.0
79.242996 488.0
79.268204 132.0
79.340675 164.0
79.370956 160.0
79.392746 112.0
79.430229 324.0
79.456963 288.0
79.472061 128.0
79.490608 116.0
79.508301 220.0
79.538979 188.0
79.554314 140.0
79.577805 196.0
79.608749 144.0
79.633896 148.0
79.66539 304.0
79.701118 244.0
79.714287 176.0
79.736664 308.0
79.752571 160.0
79.781097 216.0
79.806488 172.0
79.846359 132.0
79.859749 240.0
79.883606 204.0
79.922585 80.0
79.943428 152.0
79.956375 164.0
79.984421 148.0
79.98777 180.0
80.005257 156.0
80.026619 192.0
80.061722 180.0
80.078262 76.0
80.110329 188.0
80.133194 196.0
80.140266 164.0
80.177711 88.0
80.201584 76.0
80.219032 108.0
80.255142 236.0
80.288292 132.0
80.302841 236.0
80.318893 152.0
80.350586 172.0
80.36879 156.0
80.421379 320.0
80.437035 212.0
80.485229 236.0
80.50808 136.0
80.527725 64.0
80.545586 148.0
80.595612 168.0
80.616959 304.0
80.628105 180.0
80.650894 180.0
80.67849 376.0
80.700371 204.0
80.755714 36.0
80.773186 172.0
80.786583 208.0
80.800217 204.0
80.809219 220.0
80.832817 128.0
80.837372 160.0
80.863487 136.0
80.874962 176.0
80.892494 196.0
80.912193 144.0
80.960434 140.0
81.009521 140.0
81.022438 172.0
81.075844 132.0
81.099258 140.0
81.106377 140.0
81.120003 136.0
81.140488 216.0
81.166237 152.0
81.18399 152.0
81.232193 156.0
81.246674 164.0
81.277077 124.0
81.30397 248.0
81.327065 176.0
81.377365 132.0
81.40802 252.0
81.433029 108.0
81.446587 160.0
81.462898 156.0
81.504845 160.0
81.536011 156.0
81.552605 160.0
81.574463 288.0
81.590851 244.0
81.627426 168.0
81.644646 124.0
81.65918 368.0
81.688721 120.0
81.714569 124.0
81.734329 288.0
81.757637 148.0
81.781036 288.0
81.806236 156.0
81.8405 124.0
81.861099 172.0
81.879364 200.0
81.892128 148.0
81.924225 224.0
81.940247 68.0
81.955231 160.0
81.979141 112.0
81.993019 200.0
82.000099 140.0
82.007347 148.0
82.025894 64.0
82.069443 84.0
82.07383 152.0
82.094574 184.0
82.123375 144.0
82.146828 140.0
82.170662 56.0
82.186844 188.0
82.214973 140.0
82.226387 128.0
82.246071 64.0
82.273148 164.0
82.302467 152.0
82.318291 144.0
82.335762 196.0
82.348236 136.0
82.383018 148.0
82.412834 124.0
82.461494 168.0
82.4841 176.0
82.508011 120.0
82.531517 136.0
82.560448 140.0
82.573105 240.0
82.589989 228.0
82.617325 108.0
82.630234 172.0
82.650894 172.0
82.670799 180.0
82.686211 140.0
82.710182 296.0
82.744354 208.0
82.783043 132.0
82.801559 176.0
82.818726 208.0
82.86274 148.0
82.885788 256.0
82.909065 212.0
82.914597 304.0
82.948494 180.0
82.982552 152.0
83.000496 180.0
83.051659 56.0
83.093155 180.0
83.114571 136.0
83.151062 192.0
83.169518 144.0
83.186897 228.0
83.202614 220.0
83.232758 200.0
83.248383 140.0
83.279366 248.0
83.286209 148.0
83.306488 208.0
83.345375 124.0
83.361183 368.0
83.39444 108.0
83.421707 148.0
83.453438 88.0
83.465347 204.0
83.498291 208.0
83.530884 108.0
83.563568 140.0
83.6036 152.0
83.635216 140.0
83.666435 308.0
83.70372 256.0
83.720108 120.0
83.770073 192.0
83.799591 208.0
83.820122 160.0
83.83165 284.0
83.858574 136.0
83.877914 240.0
83.905792 164.0
83.935143 372.0
83.979858 216.0
83.998276 268.0
84.039108 40.0
84.051888 100.0
84.077431 132.0
84.105431 316.0
84.152809 184.0
84.168709 156.0
84.181702 140.0
84.200096 172.0
84.249069 152.0
84.293449 180.0
84.332031 292.0
84.362373 128.0
84.376938 120.0
84.396111 212.0
84.42305 176.0
84.435516 152.0
84.465553 208.0
84.50087 132.0
84.51516 104.0
84.537888 256.0
84.564369 252.0
84.609779 204.0
84.615822 172.0
84.65696 204.0
84.685257 156.0
84.73983 392.0
84.764748 152.0
84.785194 120.0
84.805359 104.0
84.821678 164.0
84.854851 196.0
84.889519 208.0
84.915367 180.0
84.951096 184.0
84.96772 196.0
84.999756 116.0
85.014435 168.0
85.028297 132.0
85.065079 156.0
85.088745 128.0
85.104149 156.0
85.109138 136.0
85.114342 236.0
85.151169 164.0
85.157852 196.0
85.172218 64.0
85.177177 176.0
85.197815 184.0
85.218262 144.0
85.233604 332.0
85.273392 156.0
85.294273 144.0
85.320923 168.0
85.325272 144.0
85.342712 160.0
85.397263 260.0
85.410126 220.0
85.446243 180.0
85.469231 196.0
85.494087 92.0
85.532738 116.0
85.54911 112.0
85.564171 268.0
85.577858 272.0
85.601204 236.0
85.622475 152.0
85.625153 280.0
85.648117 200.0
85.668777 32.0
85.678619 184.0
85.700333 168.0
85.713226 136.0
85.733063 152.0
85.763397 180.0
85.781418 184.0
85.797775 188.0
85.844109 196.0
85.86071 180.0
85.904892 180.0
85.932648 124.0
85.959686 276.0
85.984314 156.0
86.006462 124.0
86.027588 136.0
86.034599 116.0
86.054466 200.0
86.077911 172.0
86.104774 544.0
86.147179 460.0
86.177261 132.0
86.202278 184.0
86.263985 144.0
86.29686 188.0
86.324066 128.0
86.343208 140.0
86.366783 152.0
86.411346 176.0
86.446335 200.0
86.5159 160.0
86.545326 148.0
86.558197 168.0
86.576889 260.0
86.595818 172.0
86.61541 212.0
86.630302 264.0
86.660545 388.0
86.700043 140.0
86.740822 284.0
86.763069 188.0
86.790794 84.0
86.832558 320.0
86.852081 260.0
86.867439 72.0
86.904686 188.0
86.933716 148.0
86.952271 88.0
86.965263 160.0
86.987526 276.0
87.006104 64.0
87.052666 104.0
87.069237 84.0
87.083359 264.0
87.103844 184.0
87.159958 192.0
87.178596 488.0
87.197433 128.0
87.241646 168.0
87.26973 148.0
87.297318 236.0
87.318283 208.0
87.331299 292.0
87.349632 156.0
87.367752 268.0
87.374756 180.0
87.398987 184.0
87.441078 112.0
87.472183 84.0
87.496201 260.0
87.528732 184.0
87.553131 276.0
87.578247 172.0
87.595444 212.0
87.602104 192.0
87.609344 304.0
87.636642 220.0
87.663063 160.0
87.701836 128.0
87.716743 100.0
87.733521 48.0
87.754654 212.0
87.764862 104.0
87.767937 128.0
87.796921 120.0
87.824043 192.0
87.853523 220.0
87.875267 160.0
87.906982 336.0
87.923073 156.0
87.938713 172.0
87.950989 132.0
87.967773 180.0
87.988411 100.0
88.02272 112.0
88.045753 156.0
88.060814 252.0
88.101166 320.0
88.130669 228.0
88.156914 120.0
88.181519 160.0
88.198456 132.0
88.220772 152.0
88.245079 172.0
88.263779 168.0
88.279503 176.0
88.291969 104.0
88.305542 120.0
88.318008 184.0
88.340332 100.0
88.372261 104.0
88.392845 96.0
88.418541 104.0
88.43409 148.0
88.475487 132.0
88.500961 228.0
88.520691 352.0
88.559364 212.0
88.602554 136.0
88.619415 108.0
88.644569 296.0
88.66877 212.0
88.699997 148.0
88.727058 184.0
88.751465 228.0
88.794563 208.0
88.807312 304.0
88.832596 248.0
88.857529 132.0
88.872536 76.0
88.902672 140.0
88.918564 220.0
88.938721 148.0
88.948547 196.0
88.970139 48.0
88.992668 144.0
89.011276 136.0
89.03495 104.0
89.067787 160.0
89.084694 280.0
89.102638 196.0
89.11618 208.0
89.129448 168.0
89.161728 88.0
89.179039 208.0
89.218727 284.0
89.248199 92.0
89.318993 244.0
89.334717 184.0
89.356987 148.0
89.381721 212.0
89.412804 112.0
89.420181 200.0
89.449127 196.0
89.455734 156.0
89.464828 244.0
89.502502 164.0
89.514778 276.0
89.554955 120.0
89.578499 288.0
89.602051 32.0
89.61956 220.0
89.636871 168.0
89.669823 116.0
89.701897 208.0
89.736229 104.0
89.763153 148.0
89.779236 104.0
89.792435 136.0
89.810043 60.0
89.839806 180.0
89.860558 144.0
89.886208 176.0
89.922623 132.0
89.951561 144.0
89.99292 268.0
90.012962 192.0
90.046135 188.0
90.064232 140.0
90.080368 144.0
90.11335 152.0
90.143578 236.0
90.183266 176.0
90.202171 184.0
90.216148 204.0
90.245583 220.0
90.275711 160.0
90.302383 164.0
90.347244 240.0
90.381844 112.0
90.4114 192.0
90.443344 144.0
90.447655 72.0
90.455826 200.0
90.476471 168.0
90.508286 120.0
90.539413 256.0
90.562103 220.0
90.576782 128.0
90.605057 412.0
90.631783 108.0
90.646828 172.0
90.703804 144.0
90.722755 120.0
90.74234 152.0
90.768051 144.0
90.795242 184.0
90.80072 136.0
90.806801 228.0
90.827057 116.0
90.849815 168.0
90.868866 192.0
90.883972 160.0
90.899689 260.0
90.92382 136.0
90.940903 160.0
90.953026 328.0
90.981644 148.0
91.009857 176.0
91.040459 64.0
91.071915 116.0
91.099327 176.0
91.122665 148.0
91.151299 160.0
91.17997 168.0
91.203506 140.0
91.241219 128.0
91.266388 248.0
91.292381 144.0
91.319283 192.0
91.345634 168.0
91.366501 132.0
91.386986 168.0
91.408859 164.0
91.423103 56.0
91.428703 164.0
91.465622 144.0
91.488358 156.0
91.507637 260.0
91.536163 196.0
91.591194 176.0
91.615959 172.0
91.638817 176.0
91.657875 188.0
91.684555 152.0
91.711868 252.0
91.728394 132.0
91.74791 184.0
91.768425 120.0
91.814728 144.0
91.844711 128.0
91.870415 180.0
91.907402 172.0
91.928658 160.0
91.947739 176.0
91.982735 180.0
92.001015 204.0
92.037941 132.0
92.055511 124.0
92.074081 160.0
92.088646 280.0
92.124344 188.0
92.194504 248.0
92.227448 152.0
92.239182 164.0
92.264824 64.0
92.283264 180.0
92.313049 236.0
92.338448 152.0
92.344505 120.0
92.352379 164.0
92.377327 184.0
92.402527 124.0
92.437889 192.0
92.49308 164.0
92.523102 128.0
92.539787 392.0
92.545509 176.0
92.569054 84.0
92.592033 188.0
92.604927 164.0
92.638405 192.0
92.66642 140.0
92.690651 84.0
92.715012 128.0
92.740372 228.0
92.755768 156.0
92.789406 132.0
92.820084 148.0
92.837738 136.0
92.852684 132.0
92.873787 108.0
92.912155 120.0
92.945763 108.0
92.962036 148.0
93.000427 144.0
93.026802 140.0
93.044006 800.0
93.091492 212.0
93.124031 164.0
93.179016 68.0
93.196304 172.0
93.223213 120.0
93.257805 56.0
93.282883 164.0
93.313232 168.0
93.338181 120.0
93.351784 136.0
93.386627 100.0
93.407784 120.0
93.428337 240.0
93.443199 316.0
93.457809 156.0
93.510345 120.0
93.525887 492.0
93.546341 112.0
93.602684 136.0
93.626694 164.0
93.634331 120.0
93.667656 132.0
93.696228 192.0
93.731758 228.0
93.784409 216.0
93.817963 148.0
93.837242 188.0
93.876617 124.0
93.899208 176.0
93.916267 164.0
93.924385 108.0
93.968903 92.0
93.992905 200.0
94.02935 328.0
94.051003 144.0
94.05706 284.0
94.080338 64.0
94.143387 312.0
94.168655 184.0
94.183121 176.0
94.201599 156.0
94.238701 100.0
94.253151 92.0
94.273483 224.0
94.294746 220.0
94.309433 132.0
94.342392 160.0
94.360306 280.0
94.384758 184.0
94.432022 300.0
94.445717 148.0
94.464905 120.0
94.479004 208.0
94.493156 152.0
94.524933 152.0
94.551018 176.0
94.573265 140.0
94.5952 204.0
94.625534 148.0
94.641022 76.0
94.668518 160.0
94.682816 344.0
94.721397 184.0
94.739037 112.0
94.764984 116.0
94.780487 96.0
94.809555 236.0
94.830872 88.0
94.848312 100.0
94.871574 156.0
94.907372 156.0
94.929016 296.0
94.953186 184.0
94.970665 324.0
94.993698 152.0
95.009171 392.0
95.029388 2204.0
95.080322 264.0
95.113579 144.0
95.146385 372.0
95.166115 200.0
95.180321 124.0
95.227715 172.0
95.231384 104.0
95.257759 48.0
95.279129 92.0
95.306007 144.0
95.32106 220.0
95.347137 120.0
95.368515 160.0
95.413231 240.0
95.44548 368.0
95.472412 332.0
95.504623 208.0
95.531906 164.0
95.556763 184.0
95.579201 156.0
95.594101 188.0
95.618912 276.0
95.660294 144.0
95.664627 160.0
95.675179 180.0
95.69339 108.0
95.729073 148.0
95.749863 228.0
95.780807 160.0
95.824837 276.0
95.851166 188.0
95.876495 104.0
95.891891 188.0
95.904121 160.0
95.93692 320.0
95.956421 148.0
95.985847 208.0
96.001266 176.0
96.030571 148.0
96.047295 184.0
96.075226 100.0
96.109833 232.0
96.150925 196.0
96.184669 152.0
96.209473 232.0
96.234665 232.0
96.256157 180.0
96.271111 376.0
96.286819 352.0
96.31881 184.0
96.338493 160.0
96.343346 124.0
96.349396 192.0
96.367737 124.0
96.399796 108.0
96.445091 172.0
96.46489 168.0
96.486809 400.0
96.521217 168.0
96.533417 400.0
96.548958 176.0
96.577415 88.0
96.608826 148.0
96.665001 172.0
96.691551 156.0
96.72406 136.0
96.749512 144.0
96.765282 220.0
96.793999 168.0
96.824028 360.0
96.845573 152.0
96.8703 248.0
96.898468 356.0
96.921516 152.0
96.976135 172.0
97.014099 220.0
97.03566 136.0
97.053307 120.0
97.08548 116.0
97.105637 152.0
97.122841 220.0
97.147446 120.0
97.161179 160.0
97.178841 164.0
97.200424 280.0
97.222572 140.0
97.25341 140.0
97.269257 188.0
97.298141 188.0
97.339737 128.0
97.357468 44.0
97.413445 144.0
97.445862 160.0
97.465508 152.0
97.482704 160.0
97.516518 92.0
97.531662 284.0
97.608932 108.0
97.640472 136.0
97.658173 144.0
97.695549 96.0
97.70932 232.0
97.74437 216.0
97.773048 196.0
97.791969 152.0
97.817558 220.0
97.830238 180.0
97.847084 208.0
97.868744 128.0
97.891182 128.0
97.908127 256.0
97.935349 200.0
97.967216 60.0
97.993187 176.0
98.031342 184.0
98.048004 116.0
98.062744 200.0
98.079712 188.0
98.103195 172.0
98.12751 144.0
98.15332 152.0
98.172012 320.0
98.20237 164.0
98.255051 216.0
98.275749 252.0
98.320168 64.0
98.365562 252.0
98.381355 116.0
98.448486 120.0
98.482292 140.0
98.510101 176.0
98.527 176.0
98.54847 124.0
98.570969 152.0
98.588341 116.0
98.591675 92.0
98.600464 160.0
98.641327 120.0
98.666008 144.0
98.694695 148.0
98.727112 292.0
98.74794 124.0
98.764717 156.0
98.778221 248.0
98.806061 80.0
98.835541 204.0
98.855728 348.0
98.869583 120.0
98.889374 192.0
98.919945 152.0
98.950737 96.0
99.005318 624.0
99.028244 116.0
99.056 208.0
99.071548 200.0
99.107208 44.0
99.137009 196.0
99.152786 56.0
99.175087 156.0
99.208321 252.0
99.228111 108.0
99.243607 216.0
99.265556 136.0
99.269882 120.0
99.298462 236.0
99.318886 176.0
99.335556 180.0
99.351471 192.0
99.371986 132.0
99.453194 208.0
99.484474 164.0
99.510193 188.0
99.537643 108.0
99.567741 284.0
99.592583 200.0
99.609146 176.0
99.629013 152.0
99.653435 112.0
99.662468 100.0
99.672806 296.0
99.713402 204.0
99.732216 128.0
99.75827 188.0
99.776077 136.0
99.789993 152.0
99.816338 128.0
99.839706 224.0
99.915901 92.0
99.943794 160.0
99.969162 160.0
99.983696 132.0
100.010063 160.0
100.027145 136.0
100.051506 128.0
100.07785 160.0
100.098213 188.0
100.142227 200.0
100.179001 104.0
100.199112 244.0
100.22506 148.0
100.256966 216.0
100.288528 224.0
100.313591 208.0
100.343445 168.0
100.370209 164.0
100.398254 164.0
100.435745 168.0
100.456802 132.0
100.502335 156.0
100.516769 156.0
100.522308 136.0
100.557159 144.0
100.573433 152.0
100.588188 116.0
100.602783 120.0
100.620819 204.0
100.636787 176.0
100.704689 112.0
100.729599 144.0
100.746063 236.0
100.786064 408.0
100.822044 184.0
100.840248 132.0
100.863647 220.0
100.88192 196.0
100.918869 112.0
100.935387 108.0
100.954506 232.0
100.987419 176.0
101.001221 140.0
101.01873 1136.0
101.049408 252.0
101.066261 120.0
101.086456 200.0
101.104317 204.0
101.125786 388.0
101.150528 136.0
101.168648 180.0
101.196632 108.0
101.241013 148.0
101.268723 152.0
101.284378 196.0
101.304779 204.0
101.332077 288.0
101.348854 152.0
101.377731 324.0
101.39695 136.0
101.446877 172.0
101.454826 156.0
101.492119 220.0
101.496338 104.0
101.504021 176.0
101.522049 160.0
101.567383 56.0
101.581421 64.0
101.604454 104.0
101.636475 136.0
101.642166 188.0
101.657661 172.0
101.681747 120.0
101.718025 108.0
101.753487 168.0
101.78614 112.0
101.801346 160.0
101.812714 120.0
101.838356 144.0
101.877625 200.0
101.907745 280.0
101.92926 176.0
101.946198 136.0
101.989052 144.0
102.0084 228.0
102.024139 184.0
102.045601 124.0
102.063599 196.0
102.09127 152.0
102.110962 164.0
102.136375 120.0
102.151413 140.0
102.183388 132.0
102.204292 156.0
102.248512 176.0
102.265671 152.0
102.282776 312.0
102.322815 136.0
102.356018 112.0
102.373329 136.0
102.386818 112.0
102.418488 208.0
102.449867 168.0
102.468002 372.0
102.482445 164.0
102.509346 192.0
102.528061 124.0
102.549026 304.0
102.561981 176.0
102.579529 104.0
102.597374 144.0
102.639328 124.0
102.672729 208.0
102.696266 136.0
102.719597 180.0
102.762756 144.0
102.802292 168.0
102.815201 152.0
102.843086 160.0
102.876251 184.0
102.90567 120.0
102.929298 176.0
102.95211 180.0
102.970444 152.0
102.984894 208.0
103.029831 656.0
103.049072 72.0
103.064613 156.0
103.099586 136.0
103.119171 180.0
103.142029 120.0
103.187561 284.0
103.202682 92.0
103.231468 236.0
103.251213 104.0
103.267395 140.0
103.295715 144.0
103.330887 196.0
103.348312 144.0
103.379547 212.0
103.394592 124.0
103.419144 148.0
103.450691 396.0
103.481903 152.0
103.500122 180.0
103.536858 200.0
103.559631 104.0
103.586533 180.0
103.620506 156.0
103.643936 88.0
103.664085 352.0
103.669159 188.0
103.693832 116.0
103.718925 164.0
103.745277 64.0
103.773659 196.0
103.810349 176.0
103.833992 144.0
103.856804 160.0
103.893318 168.0
103.958252 152.0
103.993446 172.0
104.022064 208.0
104.030121 196.0
104.045898 88.0
104.06414 140.0
104.080048 180.0
104.130814 28.0
104.159256 188.0
104.17347 108.0
104.197853 196.0
104.217331 272.0
104.232391 168.0
104.257378 152.0
104.301491 180.0
104.344185 56.0
104.364479 136.0
104.379677 132.0
104.410736 140.0
104.447937 196.0
104.488121 140.0
104.515953 160.0
104.542809 136.0
104.578125 196.0
104.62545 80.0
104.643265 192.0
104.697525 68.0
104.722389 108.0
104.737434 152.0
104.759392 184.0
104.781761 48.0
104.806297 180.0
104.839905 164.0
104.854965 156.0
104.904449 100.0
104.924423 112.0
104.940735 136.0
104.959587 184.0
104.985596 136.0
105.012268 104.0
105.030464 112.0
105.061066 120.0
105.077896 96.0
105.08802 152.0
105.124321 348.0
105.17363 172.0
105.197792 180.0
105.22348 200.0
105.240669 108.0
105.268173 172.0
105.283028 156.0
105.309357 164.0
105.336655 152.0
105.354942 160.0
105.402039 204.0
105.420425 136.0
105.441963 208.0
105.462852 216.0
105.487816 136.0
105.524673 84.0
105.539955 376.0
105.563797 120.0
105.643295 352.0
105.680122 160.0
105.702209 232.0
105.728531 176.0
105.792686 148.0
105.817253 136.0
105.831581 76.0
105.847588 216.0
105.891136 100.0
105.910614 176.0
105.933861 200.0
105.963783 140.0
106.026321 172.0
106.064842 260.0
106.081535 88.0
106.12561 212.0
106.16143 128.0
106.197998 216.0
106.22303 180.0
106.244461 116.0
106.316788 168.0
106.353798 176.0
106.366325 196.0
106.412422 248.0
106.421539 176.0
106.474846 228.0
106.491089 192.0
106.51976 152.0
106.55014 312.0
106.565071 92.0
106.597809 132.0
106.627693 292.0
106.660408 128.0
106.687851 164.0
106.702377 180.0
106.724144 248.0
106.744835 128.0
106.82534 372.0
106.860825 124.0
106.903107 140.0
106.936035 160.0
106.955208 240.0
107.00808 128.0
107.034851 128.0
107.051323 152.0
107.088394 208.0
107.123505 172.0
107.158058 44.0
107.186378 200.0
107.194862 112.0
107.202301 192.0
107.23587 180.0
107.255295 132.0
107.271782 184.0
107.298866 176.0
107.317139 120.0
107.337761 100.0
107.358383 188.0
107.376648 140.0
107.422325 160.0
107.463356 176.0
107.468903 152.0
107.4785 156.0
107.507431 160.0
107.524117 132.0
107.559151 300.0
107.577179 344.0
107.597855 144.0
107.62738 124.0
107.635002 164.0
107.679695 168.0
107.704849 196.0
107.729805 76.0
107.746338 232.0
107.767097 184.0
107.781563 136.0
107.805801 148.0
107.833115 220.0
107.868362 96.0
107.909523 128.0
107.93866 84.0
107.955208 136.0
107.975708 184.0
107.997551 168.0
108.024368 164.0
108.041473 344.0
108.062737 184.0
108.084534 220.0
108.131058 224.0
108.146996 200.0
108.194389 136.0
108.22628 112.0
108.24688 156.0
108.282089 140.0
108.326385 120.0
108.356972 164.0
108.38163 68.0
108.413795 148.0
108.447151 280.0
108.493675 196.0
108.509323 204.0
108.541161 220.0
108.57795 148.0
108.610451 176.0
108.625496 160.0
108.642868 148.0
108.666512 264.0
108.693329 340.0
108.729469 136.0
108.748695 120.0
108.77224 116.0
108.834938 124.0
108.875435 208.0
108.892708 100.0
108.908577 180.0
108.950119 152.0
108.970718 160.0
108.999985 248.0
109.033432 204.0
109.065773 196.0
109.101349 172.0
109.130859 208.0
109.163666 152.0
109.205803 104.0
109.245964 344.0
109.270294 84.0
109.289658 180.0
109.311905 160.0
109.328552 96.0
109.351448 148.0
109.399323 156.0
109.432465 100.0
109.458916 176.0
109.485626 216.0
109.537743 208.0
109.572182 208.0
109.616997 236.0
109.626289 152.0
109.629524 200.0
109.669556 220.0
109.712402 128.0
109.734749 144.0
109.773262 108.0
109.818039 204.0
109.845078 184.0
109.867569 224.0
109.924171 196.0
109.976311 176.0
109.993965 232.0
110.014313 156.0
110.036705 248.0
110.052437 192.0
110.077408 164.0
110.116798 196.0
110.151131 116.0
110.202278 132.0
110.218994 116.0
110.241982 148.0
110.269981 180.0
110.292587 204.0
110.315132 332.0
110.35981 140.0
110.39344 248.0
110.428047 152.0
110.455833 196.0
110.490669 124.0
110.517998 164.0
110.549393 148.0
110.58078 112.0
110.601654 172.0
110.620125 136.0
110.628853 116.0
110.631805 352.0
110.672272 280.0
110.716866 148.0
110.735718 72.0
110.781021 280.0
110.815445 168.0
110.839417 96.0
110.859062 128.0
110.89106 168.0
110.924301 152.0
110.96608 228.0
110.971184 132.0
111.000519 136.0
111.022064 348.0
111.048012 348.0
111.065598 156.0
111.091438 108.0
111.110939 176.0
111.145607 204.0
111.160652 104.0
111.184387 60.0
111.200462 116.0
111.217964 292.0
111.23394 156.0
111.262108 152.0
111.293938 128.0
111.333046 204.0
111.34478 140.0
111.365494 200.0
111.382797 176.0
111.410591 176.0
111.432091 184.0
111.491005 140.0
111.514122 132.0
111.537247 204.0
111.559578 164.0
111.585999 168.0
111.611633 156.0
111.642372 112.0
111.66626 144.0
111.672485 176.0
111.707848 184.0
111.737022 140.0
111.768585 168.0
111.789474 160.0
111.806412 164.0
111.893921 224.0
111.91172 176.0
111.93399 208.0
111.940948 168.0
111.957809 216.0
111.976997 172.0
111.995956 100.0
112.036789 340.0
112.063179 132.0
112.082329 200.0
112.106056 124.0
112.160309 116.0
112.17717 100.0
112.196144 140.0
112.220093 132.0
112.250969 148.0
112.284882 96.0
112.299065 104.0
112.325645 176.0
112.349243 148.0
112.379639 156.0
112.403046 128.0
112.475594 168.0
112.493599 204.0
112.563309 240.0
112.581497 324.0
112.660248 276.0
112.698463 152.0
112.716072 144.0
112.730782 68.0
112.739349 160.0
112.747818 124.0
112.763855 216.0
112.784996 212.0
112.79985 152.0
112.822197 132.0
112.828796 72.0
112.835892 104.0
112.873604 168.0
112.899704 132.0
112.907013 116.0
112.969337 156.0
113.000816 76.0
113.041351 276.0
113.071739 284.0
113.096046 156.0
113.115814 196.0
113.145988 196.0
113.167564 148.0
113.196381 92.0
113.239098 192.0
113.259636 180.0
113.290077 260.0
113.331116 116.0
113.352303 168.0
113.417236 296.0
113.432846 136.0
113.492973 320.0
113.513359 152.0
113.520859 148.0
113.524757 228.0
113.549461 96.0
113.584816 156.0
113.591072 104.0
113.627953 164.0
113.647049 128.0
113.679001 68.0
113.711243 160.0
113.726379 148.0
113.757439 336.0
113.789505 200.0
113.815819 148.0
113.834785 208.0
113.869942 192.0
113.891342 108.0
113.929855 156.0
113.959167 320.0
113.973808 192.0
114.001663 112.0
114.044975 444.0
114.098442 152.0
114.116447 160.0
114.138878 412.0
114.17157 200.0
114.216949 208.0
114.24044 140.0
114.265327 116.0
114.288734 112.0
114.305756 200.0
114.333824 148.0
114.350449 120.0
114.371735 124.0
114.4076 200.0
114.424133 52.0
114.430275 136.0
114.460022 136.0
114.490967 148.0
114.506935 104.0
114.536331 160.0
114.565514 120.0
114.595192 172.0
114.655952 128.0
114.683395 212.0
114.710228 216.0
114.747429 168.0
114.781532 136.0
114.803864 172.0
114.837936 80.0
114.859695 152.0
114.878891 308.0
114.902626 172.0
114.923698 120.0
114.953568 184.0
114.981918 156.0
115.007751 176.0
115.043083 252.0
115.069626 140.0
115.098724 216.0
115.137161 128.0
115.152115 128.0
115.188171 268.0
115.215767 120.0
115.233559 128.0
115.252518 140.0
115.274231 192.0
115.309753 128.0
115.318512 100.0
115.334267 200.0
115.367111 156.0
115.407585 88.0
115.438492 124.0
115.483513 116.0
115.511208 144.0
115.539017 172.0
115.580009 252.0
115.625847 180.0
115.652672 72.0
115.682404 180.0
115.705009 204.0
115.729507 192.0
115.762527 180.0
115.803093 260.0
115.821594 200.0
115.848244 208.0
115.895279 256.0
115.912712 128.0
115.959969 220.0
116.002914 288.0
116.024704 128.0
116.051613 308.0
116.074295 136.0
116.106659 192.0
116.12133 152.0
116.140617 72.0
116.146072 116.0
116.164566 132.0
116.198822 156.0
116.214188 156.0
116.24395 140.0
116.285568 164.0
116.304047 96.0
116.327141 140.0
116.406723 348.0
116.45005 124.0
116.465088 148.0
116.480125 168.0
116.500893 184.0
116.526283 148.0
116.548752 144.0
116.561035 236.0
116.58873 124.0
116.628868 384.0
116.658081 172.0
116.677834 92.0
116.720833 180.0
116.763847 116.0
116.78862 132.0
116.83242 236.0
116.867317 160.0
116.912514 76.0
116.940269 76.0
116.980408 68.0
117.009155 140.0
117.026375 48.0
117.057373 624.0
117.096298 136.0
117.119591 156.0
117.142677 56.0
117.175163 248.0
117.194382 144.0
117.215927 152.0
117.23317 176.0
117.264297 324.0
117.291359 164.0
117.306793 76.0
117.331184 124.0
117.347412 76.0
117.374283 52.0
117.407722 140.0
117.429359 124.0
117.468407 128.0
117.48542 188.0
117.521385 148.0
117.560234 284.0
117.582542 236.0
117.643211 180.0
117.667953 216.0
117.693672 192.0
117.716393 144.0
117.755264 152.0
117.784477 308.0
117.83828 112.0
117.854195 140.0
117.889214 96.0
117.919464 168.0
117.960365 152.0
117.988991 196.0
118.011269 172.0
118.038925 188.0
118.067589 248.0
118.111084 192.0
118.136948 76.0
118.170807 228.0
118.186668 272.0
118.251015 172.0
118.278519 164.0
118.31749 268.0
118.34536 320.0
118.352646 220.0
118.361809 144.0
118.399773 64.0
118.414932 148.0
118.430878 352.0
118.475906 132.0
118.534081 192.0
118.575256 140.0
118.599098 116.0
118.65554 384.0
118.690155 140.0
118.718346 352.0
118.75193 144.0
118.76931 132.0
118.809265 168.0
118.843864 148.0
118.870392 136.0
118.889725 180.0
118.932083 212.0
118.957016 192.0
118.978722 176.0
119.008881 600.0
119.034172 104.0
119.063744 128.0
119.09301 248.0
119.119881 200.0
119.139435 72.0
119.161064 188.0
119.174408 132.0
119.223434 232.0
119.246109 156.0
119.28624 164.0
119.324875 140.0
119.339386 164.0
119.36425 128.0
119.397476 240.0
119.414001 140.0
119.44239 164.0
119.505516 252.0
119.528618 108.0
119.561348 100.0
119.61982 124.0
119.639626 52.0
119.685402 144.0
119.715836 184.0
119.735367 160.0
119.773308 164.0
119.792068 204.0
119.810638 156.0
119.836456 244.0
119.864792 168.0
119.909912 48.0
119.955711 124.0
119.974846 128.0
119.998962 236.0
120.01358 144.0
120.027016 180.0
120.04409 152.0
120.066811 244.0
120.089867 316.0
120.115555 128.0
120.148048 232.0
120.154587 152.0
120.179604 148.0
120.218544 160.0
120.238152 204.0
120.263344 140.0
120.278427 172.0
120.292343 68.0
120.301491 152.0
120.380333 196.0
120.423058 276.0
120.477974 192.0
120.496582 120.0
120.533875 284.0
120.570679 308.0
120.573738 132.0
120.610054 252.0
120.644028 220.0
120.669388 112.0
120.685448 84.0
120.705688 100.0
120.732201 232.0
120.747208 272.0
120.806541 292.0
120.835609 60.0
120.877182 152.0
120.891678 100.0
120.939636 172.0
120.971703 108.0
120.976372 164.0
121.039207 6752.0
121.067635 128.0
121.087349 132.0
121.117645 148.0
121.130142 52.0
121.152046 164.0
121.178566 100.0
121.193855 232.0
121.240707 220.0
121.25824 316.0
121.277969 164.0
121.309174 108.0
121.333389 156.0
121.36692 352.0
121.387589 300.0
121.401268 216.0
121.423164 108.0
121.446243 188.0
121.466545 76.0
121.521385 148.0
121.550568 160.0
121.569603 152.0
121.604774 104.0
121.626961 148.0
121.636124 128.0
121.643272 104.0
121.68158 196.0
121.69265 244.0
121.722282 168.0
121.760658 228.0
121.789108 148.0
121.849373 156.0
121.878395 128.0
121.90126 152.0
121.919594 176.0
121.953117 356.0
121.959793 76.0
121.989174 268.0
122.02108 280.0
122.044121 356.0
122.077583 116.0
122.097336 188.0
122.136505 164.0
122.158508 164.0
122.176788 180.0
122.199554 356.0
122.22451 188.0
122.257378 172.0
122.275436 84.0
122.282524 132.0
122.337021 168.0
122.356392 148.0
122.387398 152.0
122.439499 260.0
122.475487 120.0
122.490906 220.0
122.52607 180.0
122.555382 196.0
122.574036 128.0
122.603271 96.0
122.625313 128.0
122.650108 192.0
122.703934 340.0
122.758102 260.0
122.781853 220.0
122.797562 136.0
122.824661 212.0
122.863464 108.0
122.915314 248.0
122.928429 368.0
122.964966 148.0
123.009026 256.0
123.036179 320.0
123.07093 256.0
123.093826 228.0
123.114456 124.0
123.148224 128.0
123.186958 112.0
123.20874 232.0
123.229958 196.0
123.25016 196.0
123.313156 156.0
123.357651 144.0
123.375824 216.0
123.407516 140.0
123.441017 124.0
123.502869 204.0
123.52417 176.0
123.566422 156.0
123.593681 184.0
123.61351 200.0
123.681099 228.0
123.696594 88.0
123.721016 152.0
123.742805 312.0
123.771873 176.0
123.791801 316.0
123.818092 220.0
123.856262 188.0
123.922493 200.0
123.953514 96.0
124.021896 96.0
124.065437 180.0
124.119499 204.0
124.127274 124.0
124.157921 348.0
124.214676 156.0
124.221786 124.0
124.226677 156.0
124.249992 112.0
124.263199 240.0
124.292778 112.0
124.321625 176.0
124.360626 356.0
124.391258 108.0
124.440567 144.0
124.445175 128.0
124.47036 136.0
124.496513 144.0
124.531059 372.0
124.558197 160.0
124.576096 152.0
124.601517 128.0
124.625847 164.0
124.64225 188.0
124.67466 216.0
124.716965 104.0
124.741417 212.0
124.777061 344.0
124.813034 132.0
124.832573 144.0
124.863167 164.0
124.894844 96.0
124.912292 128.0
124.949463 160.0
124.958549 88.0
124.973076 164.0
125.019562 8568.0
125.062767 188.0
125.113869 104.0
125.129745 164.0
125.16964 144.0
125.202545 208.0
125.22583 108.0
125.234695 76.0
125.243248 160.0
125.27977 100.0
125.315598 120.0
125.341156 136.0
125.377129 320.0
125.405014 128.0
125.432701 164.0
125.488701 136.0
125.519615 108.0
125.54863 340.0
125.574806 116.0
125.594261 272.0
125.629356 224.0
125.670654 412.0
125.705246 220.0
125.754913 96.0
125.77784 176.0
125.811882 152.0
125.827827 184.0
125.886047 184.0
125.891396 212.0
125.91114 152.0
125.937378 144.0
125.944275 188.0
125.982018 108.0
126.02417 620.0
126.069817 36.0
126.085464 152.0
126.11113 164.0
126.126389 64.0
126.15699 172.0
126.175995 108.0
126.207451 84.0
126.213272 232.0
126.256332 260.0
126.288948 328.0
126.313522 120.0
126.334167 176.0
126.357758 396.0
126.397034 160.0
126.420021 296.0
126.442039 156.0
126.456726 188.0
126.484543 160.0
126.519165 148.0
126.546783 140.0
126.586937 276.0
126.617584 180.0
126.656006 160.0
126.733612 212.0
126.79007 224.0
126.819572 56.0
126.848717 108.0
126.901924 448.0
126.942253 184.0
126.967728 156.0
126.990906 344.0
127.068199 152.0
127.113083 124.0
127.129082 128.0
127.189606 132.0
127.212448 168.0
127.234131 224.0
127.253204 256.0
127.273773 140.0
127.300751 76.0
127.333229 332.0
127.352844 144.0
127.361923 96.0
127.38591 188.0
127.403008 140.0
127.428978 172.0
127.459183 92.0
127.479408 100.0
127.497383 128.0
127.528435 216.0
127.59404 164.0
127.631493 152.0
127.654747 104.0
127.672737 156.0
127.690735 120.0
127.704132 96.0
127.773964 172.0
127.800957 132.0
127.83503 200.0
127.865387 212.0
127.895477 272.0
127.91935 204.0
127.967125 160.0
128.015961 148.0
128.047729 460.0
128.068481 160.0
128.090225 148.0
128.113907 164.0
128.158478 128.0
128.181503 316.0
128.210312 184.0
128.235596 88.0
128.255356 172.0
128.305008 224.0
128.327698 232.0
128.333969 200.0
128.344925 160.0
128.350189 144.0
128.377625 164.0
128.427155 112.0
128.484085 360.0
128.500992 52.0
128.531616 76.0
128.554535 200.0
128.58931 232.0
128.628845 260.0
128.678711 248.0
128.717865 140.0
128.73349 356.0
128.754501 132.0
128.782761 208.0
128.815094 208.0
128.842804 144.0
128.87532 144.0
128.927734 148.0
128.940399 272.0
128.973663 148.0
129.003448 184.0
129.043259 296.0
129.086716 196.0
129.112579 192.0
129.131943 168.0
129.160263 136.0
129.177505 184.0
129.203201 140.0
129.228928 252.0
129.236176 288.0
129.278992 180.0
129.308426 92.0
129.328552 184.0
129.355637 264.0
129.380859 100.0
129.412354 264.0
129.448776 144.0
129.464569 140.0
129.495956 120.0
129.542343 180.0
129.563065 256.0
129.620087 176.0
129.643494 164.0
129.705017 120.0
129.732697 208.0
129.764023 352.0
129.793213 192.0
129.814529 80.0
129.839783 176.0
129.860062 220.0
129.895279 152.0
129.911591 144.0
129.945389 172.0
129.987488 192.0
130.023544 136.0
130.045929 104.0
130.06546 116.0
130.094788 144.0
130.151733 56.0
130.178818 164.0
130.185486 148.0
130.208511 172.0
130.236343 168.0
130.27211 112.0
130.332687 144.0
130.370209 168.0
130.392288 176.0
130.419815 68.0
130.450348 200.0
130.476532 264.0
130.52211 236.0
130.563934 224.0
130.588928 124.0
130.620941 216.0
130.648682 140.0
130.681122 160.0
130.695862 188.0
130.720367 236.0
130.77919 120.0
130.815796 332.0
130.83931 208.0
130.861145 144.0
130.878265 116.0
130.913513 332.0
130.943115 148.0
130.976257 300.0
131.002899 148.0
131.012482 184.0
131.028915 340.0
131.049362 236.0
131.075729 188.0
131.103714 392.0
131.118546 68.0
131.126862 192.0
131.143372 144.0
131.148834 112.0
131.159851 204.0
131.183182 160.0
131.210693 188.0
131.233063 224.0
131.247726 156.0
131.284424 344.0
131.305176 200.0
131.346558 172.0
131.387665 192.0
131.419556 240.0
131.453796 140.0
131.471298 184.0
131.512161 196.0
131.530548 148.0
131.616119 156.0
131.636414 120.0
131.665649 180.0
131.681366 176.0
131.701202 108.0
131.710281 164.0
131.752686 124.0
131.765335 108.0
131.803101 156.0
131.82373 136.0
131.84201 140.0
131.887497 164.0
131.893967 148.0
131.903137 124.0
131.945297 108.0
131.976074 164.0
132.015762 176.0
132.031769 120.0
132.063782 272.0
132.088943 180.0
132.116394 60.0
132.148422 76.0
132.172272 208.0
132.200867 148.0
132.204025 136.0
132.213135 188.0
132.233093 176.0
132.263763 188.0
132.282776 172.0
132.311966 44.0
132.327499 128.0
132.349396 360.0
132.367126 160.0
132.393356 108.0
132.423126 212.0
132.455521 140.0
132.498138 264.0
132.51387 136.0
132.546844 108.0
132.571152 244.0
132.594971 128.0
132.621628 304.0
132.652267 104.0
132.674957 152.0
132.701752 212.0
132.725845 228.0
132.743195 116.0
132.76944 156.0
132.799591 308.0
132.822586 192.0
132.849487 316.0
132.868393 132.0
132.899963 120.0
132.9216 280.0
132.938156 136.0
132.978149 404.0
132.993347 92.0
133.021378 288.0
133.044128 364.0
133.085602 168.0
133.119705 132.0
133.142197 192.0
133.166077 260.0
133.222885 204.0
133.238358 156.0
133.271561 244.0
133.295868 372.0
133.31749 228.0
133.352356 208.0
133.406158 300.0
133.459167 184.0
133.482971 148.0
133.502411 140.0
133.567352 148.0
133.607605 176.0
133.649582 204.0
133.704727 176.0
133.727264 144.0
133.744598 132.0
133.764099 160.0
133.826248 112.0
133.854904 100.0
133.916565 148.0
133.939102 188.0
133.962677 260.0
134.001297 124.0
134.051102 204.0
134.079651 152.0
134.130356 48.0
134.153412 128.0
134.176468 120.0
134.227188 184.0
134.265366 148.0
134.287857 168.0
134.310211 208.0
134.35405 144.0
134.374802 320.0
134.423004 108.0
134.446335 164.0
134.47403 136.0
134.514191 172.0
134.564072 240.0
134.601395 196.0
134.621796 160.0
134.640274 48.0
134.677216 128.0
134.705902 144.0
134.75296 204.0
134.803711 172.0
134.838959 124.0
134.962357 152.0
134.992645 344.0
135.014938 172.0
135.03714 156.0
135.046631 112.0
135.084045 140.0
135.101517 140.0
135.125702 172.0
135.165024 116.0
135.187576 280.0
135.233307 132.0
135.261169 96.0
135.271042 120.0
135.278442 144.0
135.286453 208.0
135.304672 320.0
135.343262 208.0
135.369339 124.0
135.420395 144.0
135.440536 140.0
135.467575 220.0
135.486862 140.0
135.508621 112.0
135.533203 132.0
135.564911 196.0
135.612 136.0
135.65271 120.0
135.671646 172.0
135.70343 220.0
135.72023 132.0
135.767334 56.0
135.791824 188.0
135.825317 52.0
135.841553 60.0
135.872284 180.0
135.891815 228.0
135.907837 176.0
135.957565 288.0
135.974838 272.0
136.015335 180.0
136.064346 132.0
136.121231 80.0
136.153641 140.0
136.199905 160.0
136.236206 152.0
136.261749 140.0
136.286255 184.0
136.306091 96.0
136.317184 108.0
136.324585 188.0
136.334915 116.0
136.370331 160.0
136.376282 252.0
136.410492 212.0
136.439545 160.0
136.470078 140.0
136.529068 72.0
136.548035 128.0
136.566284 132.0
136.630646 84.0
136.667236 152.0
136.68959 460.0
136.749969 300.0
136.775696 160.0
136.792923 140.0
136.818649 204.0
136.845535 236.0
136.861832 92.0
136.894226 156.0
136.917725 152.0
136.939148 80.0
136.968964 32.0
137.017883 204.0
137.040924 216.0
137.065811 184.0
137.097107 292.0
137.147568 272.0
137.178696 108.0
137.204712 212.0
137.224518 104.0
137.257965 320.0
137.281326 240.0
137.362991 300.0
137.403976 260.0
137.417221 216.0
137.451874 260.0
137.482834 156.0
137.492111 140.0
137.508347 244.0
137.524918 164.0
137.545563 116.0
137.587814 128.0
137.614716 184.0
137.647949 188.0
137.762405 224.0
137.797134 124.0
137.820908 160.0
137.866776 180.0
137.932159 180.0
137.95372 144.0
137.988785 108.0
138.02269 200.0
138.048431 144.0
138.071518 152.0
138.102646 292.0
138.150162 152.0
138.182922 116.0
138.215668 152.0
138.236099 292.0
138.317535 148.0
138.358093 212.0
138.375046 44.0
138.381622 116.0
138.389389 148.0
138.434387 156.0
138.466156 136.0
138.496109 112.0
138.522171 140.0
138.551987 112.0
138.556686 192.0
138.580948 208.0
138.6297 124.0
138.653595 88.0
138.669189 84.0
138.691086 228.0
138.725143 188.0
138.745819 116.0
138.767014 176.0
138.77565 228.0
138.810577 112.0
138.818207 108.0
138.825211 136.0
138.848618 216.0
138.895096 204.0
138.937317 160.0
138.966461 148.0
138.982483 144.0
138.999237 260.0
139.035278 420.0
139.068665 172.0
139.104263 168.0
139.136795 108.0
139.183823 152.0
139.203735 204.0
139.232742 144.0
139.261261 136.0
139.277695 100.0
139.310593 132.0
139.333755 320.0
139.398575 160.0
139.446579 112.0
139.482132 68.0
139.50563 232.0
139.536194 116.0
139.556305 232.0
139.62175 84.0
139.683121 148.0
139.691177 80.0
139.700775 204.0
139.741119 112.0
139.761917 240.0
139.807007 124.0
139.829514 168.0
139.862015 116.0
139.883301 184.0
139.925186 312.0
139.975281 168.0
140.048859 3836.0
140.107727 176.0
140.128479 176.0
140.164337 120.0
140.195282 132.0
140.211777 368.0
140.259186 264.0
140.298264 168.0
140.328171 160.0
140.355576 332.0
140.393234 136.0
140.435822 148.0
140.447495 140.0
140.502808 180.0
140.532486 84.0
140.553955 120.0
140.587799 204.0
140.605392 268.0
140.630997 168.0
140.663162 140.0
140.685898 204.0
140.71637 136.0
140.774261 112.0
140.796875 80.0
140.829941 296.0
140.863007 352.0
140.888992 84.0
140.933258 240.0
140.980026 136.0
141.014374 900.0
141.056396 4968.0
141.09201 164.0
141.137161 168.0
141.162231 232.0
141.197601 136.0
141.204102 284.0
141.222214 164.0
141.259018 160.0
141.291153 220.0
141.343857 184.0
141.366608 48.0
141.424622 128.0
141.466019 368.0
141.484955 100.0
141.507721 124.0
141.532318 184.0
141.580139 164.0
141.605728 172.0
141.649948 120.0
141.700287 200.0
141.750244 36.0
141.777054 192.0
141.796677 196.0
141.830826 128.0
141.856903 68.0
141.873489 92.0
141.889359 156.0
141.928024 104.0
141.951736 152.0
141.980194 316.0
142.006287 108.0
142.053848 1256.0
142.112 296.0
142.141998 156.0
142.184647 132.0
142.222198 124.0
142.253357 32.0
142.284805 172.0
142.311539 132.0
142.318314 196.0
142.330612 144.0
142.414871 136.0
142.43161 184.0
142.454071 140.0
142.472946 140.0
142.539398 424.0
142.57608 144.0
142.597824 136.0
142.634674 136.0
142.656006 144.0
142.675385 144.0
142.71582 164.0
142.724045 168.0
142.751999 164.0
142.77388 140.0
142.825729 164.0
142.843048 184.0
142.86142 144.0
142.882828 88.0
142.916138 72.0
142.942902 176.0
142.953323 128.0
142.959641 128.0
142.986908 168.0
143.028854 676.0
143.057388 404.0
143.144653 200.0
143.168472 124.0
143.195419 216.0
143.22197 152.0
143.249451 80.0
143.26947 324.0
143.331482 176.0
143.349518 120.0
143.385269 128.0
143.406525 156.0
143.456772 152.0
143.485168 88.0
143.499832 136.0
143.523529 40.0
143.542038 220.0
143.54863 168.0
143.579758 184.0
143.609375 156.0
143.64122 208.0
143.661865 148.0
143.690491 344.0
143.714615 212.0
143.730209 160.0
143.758896 144.0
143.817322 188.0
143.83606 96.0
143.863052 156.0
143.88858 104.0
143.91954 124.0
143.924164 120.0
144.013412 132.0
144.031815 216.0
144.039551 240.0
144.046295 188.0
144.072647 240.0
144.10405 224.0
144.132202 164.0
144.152237 316.0
144.174759 148.0
144.240051 220.0
144.284164 152.0
144.316925 144.0
144.327255 140.0
144.337448 160.0
144.343124 152.0
144.381699 112.0
144.404037 416.0
144.435837 168.0
144.473053 280.0
144.505966 176.0
144.536972 116.0
144.564301 144.0
144.590515 124.0
144.611862 172.0
144.640564 136.0
144.657303 268.0
144.673859 376.0
144.701981 112.0
144.721085 180.0
144.743042 132.0
144.760574 88.0
144.775467 128.0
144.794785 192.0
144.843567 192.0
144.86911 228.0
144.917648 312.0
144.940292 500.0
144.97818 412.0
145.026352 143060.0
145.063644 308.0
145.108719 172.0
145.16275 220.0
145.180405 220.0
145.205612 124.0
145.230362 288.0
145.276016 204.0
145.285233 160.0
145.29567 132.0
145.299271 112.0
145.33754 280.0
145.366089 128.0
145.380936 204.0
145.421066 988.0
145.440216 136.0
145.466721 156.0
145.486038 48.0
145.516159 208.0
145.548737 132.0
145.583252 212.0
145.599152 88.0
145.640381 264.0
145.658218 84.0
145.677307 224.0
145.707642 220.0
145.745499 100.0
145.770569 168.0
145.79306 108.0
145.809631 112.0
145.860031 140.0
145.887619 168.0
145.910675 124.0
145.923721 200.0
145.944717 196.0
145.964279 228.0
146.003815 136.0
146.029129 11324.0
146.076828 220.0
146.101562 64.0
146.126755 388.0
146.146378 124.0
146.16861 100.0
146.210632 176.0
146.25499 216.0
146.281754 80.0
146.302811 136.0
146.326797 180.0
146.342926 152.0
146.375763 240.0
146.400269 228.0
146.452118 104.0
146.473251 124.0
146.494675 84.0
146.503906 128.0
146.529922 240.0
146.568939 316.0
146.626373 172.0
146.669449 240.0
146.723068 108.0
146.764648 76.0
146.785995 284.0
146.800369 128.0
146.810181 148.0
146.833939 124.0
146.849808 164.0
146.867401 224.0
146.889679 136.0
146.918564 200.0
146.961624 228.0
147.027863 504.0
147.070663 244.0
147.080643 144.0
147.085007 128.0
147.104324 92.0
147.141403 120.0
147.164886 192.0
147.19101 116.0
147.199478 72.0
147.213821 188.0
147.247498 576.0
147.281738 140.0
147.323654 188.0
147.353333 248.0
147.378494 232.0
147.414261 128.0
147.456558 172.0
147.477066 76.0
147.51384 104.0
147.529495 88.0
147.547684 184.0
147.573334 144.0
147.602753 180.0
147.63295 184.0
147.652328 132.0
147.690353 136.0
147.718765 152.0
147.775848 220.0
147.843399 320.0
147.869125 168.0
147.888763 260.0
147.91539 164.0
147.934113 120.0
147.97966 188.0
148.001831 132.0
148.00592 132.0
148.036453 228.0
148.081116 284.0
148.109512 84.0
148.138245 168.0
148.159729 300.0
148.18663 196.0
148.213974 80.0
148.235092 156.0
148.258301 104.0
148.285156 232.0
148.319916 168.0
148.357788 212.0
148.448425 268.0
148.466568 212.0
148.490173 168.0
148.515198 168.0
148.589996 152.0
148.623077 64.0
148.649612 152.0
148.725357 136.0
148.748123 120.0
148.783264 140.0
148.817535 172.0
148.917877 156.0
148.952011 212.0
149.008041 180.0
149.012543 296.0
149.035538 152.0
149.041138 184.0
149.061981 352.0
149.092499 272.0
149.12146 208.0
149.14035 124.0
149.167099 200.0
149.191406 64.0
149.237259 172.0
149.265228 224.0
149.290009 188.0
149.312973 120.0
149.333191 156.0
149.356766 140.0
149.390091 120.0
149.419586 160.0
149.446777 112.0
149.485703 160.0
149.544113 148.0
149.578827 196.0
149.59523 120.0
149.621643 212.0
149.649612 180.0
149.668274 276.0
149.699936 180.0
149.726715 296.0
149.746323 160.0
149.764847 176.0
149.784317 216.0
149.802231 164.0
149.853287 96.0
149.872177 152.0
149.909424 120.0
149.943542 88.0
149.972656 132.0
149.990768 160.0
150.033432 736.0
150.074112 176.0
150.117218 184.0
150.139984 324.0
150.193008 140.0
150.259171 176.0
150.295059 168.0
150.328873 172.0
150.390152 152.0
150.426498 152.0
150.483383 108.0
150.509933 156.0
150.562088 344.0
150.585892 156.0
150.613815 192.0
150.663391 204.0
150.700027 156.0
150.721344 172.0
150.760513 180.0
150.803146 260.0
150.838867 252.0
150.868668 132.0
150.906891 284.0
150.914291 212.0
150.923996 212.0
150.940384 384.0
150.96843 120.0
151.038559 204.0
151.08223 124.0
151.103546 108.0
151.134262 212.0
151.167862 136.0
151.189774 144.0
151.208679 176.0
151.250473 156.0
151.287003 200.0
151.317734 188.0
151.367798 180.0
151.424484 180.0
151.461395 184.0
151.488388 136.0
151.522644 240.0
151.566208 132.0
151.592255 216.0
151.607407 104.0
151.618866 116.0
151.643661 100.0
151.702164 196.0
151.728592 160.0
151.762711 96.0
151.825378 144.0
151.856812 164.0
151.911987 132.0
151.940384 256.0
151.999756 124.0
152.009262 152.0
152.014999 244.0
152.047318 1056.0
152.071899 140.0
152.122849 92.0
152.147507 140.0
152.186066 108.0
152.222519 276.0
152.296967 188.0
152.336594 172.0
152.370987 44.0
152.391495 396.0
152.430679 196.0
152.48082 168.0
152.512817 292.0
152.550568 164.0
152.592194 56.0
152.609406 144.0
152.632584 224.0
152.656128 228.0
152.684998 204.0
152.712158 148.0
152.733688 148.0
152.764969 172.0
152.792175 408.0
152.85202 176.0
152.861343 104.0
152.918961 192.0
152.936584 244.0
152.973038 96.0
152.998138 152.0
153.054642 748.0
153.098129 92.0
153.125305 152.0
153.160599 180.0
153.219025 104.0
153.250397 200.0
153.28241 164.0
153.322327 244.0
153.342209 136.0
153.37291 148.0
153.39328 120.0
153.420883 200.0
153.442993 148.0
153.485886 160.0
153.507172 272.0
153.532837 184.0
153.557495 68.0
153.604446 228.0
153.630112 128.0
153.664581 164.0
153.709503 336.0
153.747467 152.0
153.774612 140.0
153.804794 200.0
153.823975 120.0
153.850769 244.0
153.89064 176.0
153.928329 120.0
153.958069 220.0
154.009857 360.0
154.050522 188.0
154.097488 204.0
154.132004 128.0
154.152466 100.0
154.178177 216.0
154.219193 148.0
154.259674 160.0
154.318085 116.0
154.350922 176.0
154.379532 132.0
154.397217 168.0
154.429367 132.0
154.456573 164.0
154.50853 144.0
154.544662 216.0
154.589233 136.0
154.641678 148.0
154.655792 164.0
154.679108 180.0
154.71257 116.0
154.734955 220.0
154.755081 120.0
154.786621 160.0
154.805542 64.0
154.827835 160.0
154.859344 116.0
154.866364 108.0
154.87355 316.0
154.909576 72.0
154.934341 156.0
154.970657 188.0
154.990143 100.0
155.013229 124.0
155.026245 136.0
155.049377 132.0
155.06514 260.0
155.087006 152.0
155.122879 140.0
155.169128 208.0
155.189621 80.0
155.23674 108.0
155.280472 176.0
155.338913 104.0
155.375641 172.0
155.399857 168.0
155.435196 76.0
155.462418 144.0
155.491196 268.0
155.509644 260.0
155.564377 152.0
155.570114 100.0
155.580246 180.0
155.599014 204.0
155.635742 284.0
155.6586 172.0
155.681717 168.0
155.77449 176.0
155.790237 276.0
155.825195 232.0
155.874084 160.0
155.880844 60.0
155.892105 48.0
155.926895 156.0
155.948227 172.0
155.965256 176.0
155.986557 172.0
156.010834 196.0
156.043854 176.0
156.078278 148.0
156.084991 176.0
156.116165 184.0
156.134872 272.0
156.179764 228.0
156.238846 172.0
156.293503 132.0
156.323212 168.0
156.352188 84.0
156.369598 276.0
156.385269 232.0
156.431839 164.0
156.449265 164.0
156.471664 168.0
156.527176 216.0
156.560333 256.0
156.608322 156.0
156.658447 100.0
156.702042 164.0
156.75676 200.0
156.819931 264.0
156.889679 172.0
156.91745 156.0
156.962738 188.0
156.981323 132.0
157.024612 652.0
157.054153 172.0
157.087189 208.0
157.126129 132.0
157.144058 152.0
157.189514 172.0
157.244415 104.0
157.268494 352.0
157.301834 240.0
157.331833 192.0
157.349747 164.0
157.376724 68.0
157.400208 148.0
157.479111 120.0
157.509567 336.0
157.530579 140.0
157.555573 204.0
157.593353 236.0
157.60199 172.0
157.612457 96.0
157.637833 140.0
157.69519 344.0
157.731476 144.0
157.785629 284.0
157.807159 208.0
157.837158 60.0
157.855591 244.0
157.881744 84.0
157.955154 320.0
157.986252 204.0
158.020233 296.0
158.037628 300.0
158.078384 160.0
158.106033 144.0
158.151703 104.0
158.215698 160.0
158.253342 140.0
158.283203 176.0
158.293777 204.0
158.322433 188.0
158.349838 156.0
158.394943 204.0
158.46991 332.0
158.509491 168.0
158.534195 308.0
158.574173 204.0
158.595047 52.0
158.617615 156.0
158.639954 92.0
158.694077 148.0
158.712021 208.0
158.766083 112.0
158.803238 144.0
158.822769 172.0
158.874542 188.0
158.891998 164.0
158.92691 196.0
158.95871 132.0
158.981293 220.0
159.014771 172.0
159.042648 224.0
159.050079 148.0
159.059845 220.0
159.093719 116.0
159.134415 224.0
159.153412 176.0
159.189651 144.0
159.238098 152.0
159.271667 128.0
159.319824 272.0
159.375534 152.0
159.412949 108.0
159.453445 92.0
159.482452 140.0
159.514496 208.0
159.543091 472.0
159.56395 100.0
159.602844 140.0
159.639481 204.0
159.688705 188.0
159.714371 144.0
159.759781 116.0
159.788773 216.0
159.849319 184.0
159.889343 164.0
159.95752 256.0
159.983688 120.0
159.987549 96.0
159.997711 152.0
160.030792 164.0
160.053925 144.0
160.087418 100.0
160.107574 56.0
160.136215 236.0
160.178955 152.0
160.208328 108.0
160.238556 120.0
160.279663 88.0
160.288269 104.0
160.300583 136.0
160.304764 188.0
160.334305 272.0
160.358795 168.0
160.397003 300.0
160.442703 100.0
160.473297 116.0
160.532761 224.0
160.568604 120.0
160.594086 108.0
160.652008 176.0
160.669678 136.0
160.69223 136.0
160.765564 132.0
160.791504 172.0
160.855225 144.0
160.886536 156.0
160.909683 124.0
160.962463 104.0
160.980133 132.0
161.016144 172.0
161.04454 1992.0
161.08902 108.0
161.108902 220.0
161.115509 216.0
161.146851 356.0
161.21373 136.0
161.253799 136.0
161.279343 140.0
161.31424 68.0
161.374329 208.0
161.421402 176.0
161.449585 212.0
161.476852 172.0
161.52652 92.0
161.553894 152.0
161.573425 172.0
161.639008 224.0
161.675339 100.0
161.715912 160.0
161.751862 208.0
161.808914 216.0
161.851395 264.0
161.928329 216.0
161.966507 104.0
161.991272 196.0
162.044647 288.0
162.077087 124.0
162.107483 100.0
162.145798 156.0
162.191055 168.0
162.240189 128.0
162.276642 164.0
162.334 116.0
162.374405 148.0
162.415161 140.0
162.45575 76.0
162.484741 280.0
162.505707 244.0
162.549622 184.0
162.62323 152.0
162.646698 208.0
162.678986 168.0
162.72731 176.0
162.750153 136.0
162.782761 252.0
162.845123 204.0
162.88797 136.0
162.921951 308.0
162.955887 268.0
162.973679 284.0
162.99614 200.0
163.035126 1404.0
163.098328 88.0
163.11618 256.0
163.150085 128.0
163.210922 216.0
163.216217 144.0
163.24826 108.0
163.310791 284.0
163.329224 164.0
163.379196 208.0
163.432587 240.0
163.461899 260.0
163.505081 144.0
163.52243 204.0
163.579941 220.0
163.608917 160.0
163.629562 296.0
163.65625 192.0
163.671906 136.0
163.694427 368.0
163.723114 188.0
163.749573 152.0
163.782684 116.0
163.809311 220.0
163.840164 220.0
163.871841 132.0
163.894699 136.0
163.912613 196.0
163.943192 132.0
163.970215 140.0
163.9767 216.0
164.031906 1060.0
164.091507 88.0
164.125671 164.0
164.167526 40.0
164.208084 160.0
164.241745 128.0
164.261902 88.0
164.284866 112.0
164.315475 196.0
164.350754 184.0
164.444351 88.0
164.50737 84.0
164.531601 100.0
164.591354 208.0
164.611557 220.0
164.635925 128.0
164.662079 128.0
164.695358 216.0
164.759705 144.0
164.821899 308.0
164.866272 108.0
164.908722 152.0
164.933472 196.0
164.95137 104.0
164.98204 84.0
165.035065 360.0
165.074097 112.0
165.094559 128.0
165.112457 212.0
165.171143 76.0
165.199417 56.0
165.252075 152.0
165.285675 152.0
165.343048 92.0
165.391342 356.0
165.423859 216.0
165.439713 188.0
165.493744 152.0
165.513489 140.0
165.530045 140.0
165.567047 96.0
165.574829 184.0
165.636383 132.0
165.671234 200.0
165.71167 144.0
165.74733 148.0
165.81694 156.0
165.84111 384.0
165.878036 260.0
165.912384 140.0
165.919571 176.0
165.977661 116.0
166.011642 368.0
166.05275 940.0
166.084717 180.0
166.121643 172.0
166.167511 132.0
166.176407 116.0
166.184052 172.0
166.202606 440.0
166.226837 140.0
166.30127 188.0
166.337204 136.0
166.378281 176.0
166.422638 160.0
166.445938 68.0
166.483551 172.0
166.501831 168.0
166.537888 156.0
166.58754 160.0
166.606812 148.0
166.633255 128.0
166.643723 124.0
166.680283 204.0
166.727615 180.0
166.767365 256.0
166.803436 40.0
166.854279 200.0
166.866058 56.0
166.870819 192.0
166.891281 144.0
166.901566 96.0
166.916138 264.0
166.978287 120.0
166.983643 96.0
167.025848 484.0
167.059692 6624.0
167.106644 120.0
167.139954 156.0
167.174316 176.0
167.223572 172.0
167.263702 184.0
167.290909 108.0
167.310715 168.0
167.325546 196.0
167.366241 200.0
167.40123 128.0
167.442871 284.0
167.467331 180.0
167.494171 176.0
167.541595 188.0
167.586304 104.0
167.618011 100.0
167.673508 156.0
167.699844 160.0
167.720078 196.0
167.778488 152.0
167.806793 216.0
167.831436 176.0
167.838882 140.0
167.849319 168.0
167.858582 236.0
167.866318 348.0
167.894501 376.0
167.923035 352.0
167.962433 224.0
167.978012 128.0
168.028839 1028.0
168.068405 125312.0
168.110016 216.0
168.143372 128.0
168.153107 136.0
168.172089 104.0
168.218491 172.0
168.246796 140.0
168.265366 168.0
168.324814 104.0
168.35733 196.0
168.382416 276.0
168.411072 100.0
168.42955 152.0
168.439423 64.0
168.445114 172.0
168.466446 124.0
168.492722 380.0
168.515762 56.0
168.556778 196.0
168.573441 256.0
168.594666 356.0
168.630676 112.0
168.646393 196.0
168.677612 224.0
168.708084 140.0
168.726654 76.0
168.735275 152.0
168.74913 168.0
168.768387 96.0
168.804443 160.0
168.836731 168.0
168.876938 128.0
168.901428 224.0
168.928314 192.0
168.949707 116.0
168.963669 104.0
169.070862 12644.0
169.141571 164.0
169.165085 44.0
169.188705 164.0
169.218582 224.0
169.245438 124.0
169.286591 164.0
169.293091 84.0
169.306641 136.0
169.350342 176.0
169.385208 48.0
169.437881 196.0
169.473907 132.0
169.5056 128.0
169.530594 172.0
169.581802 192.0
169.671097 136.0
169.702667 264.0
169.748718 140.0
169.756393 92.0
169.774734 264.0
169.797318 200.0
169.833817 248.0
169.896042 68.0
169.929626 236.0
169.95134 140.0
169.968277 40.0
170.039597 4576.0
170.072052 908.0
170.127884 92.0
170.152634 108.0
170.22673 144.0
170.24559 464.0
170.274612 208.0
170.30687 64.0
170.316315 124.0
170.343964 408.0
170.371811 348.0
170.391037 464.0
170.412384 124.0
170.45282 144.0
170.504364 84.0
170.535355 140.0
170.567139 160.0
170.60408 248.0
170.666168 220.0
170.704819 216.0
170.733398 184.0
170.778183 204.0
170.806412 64.0
170.836319 124.0
170.867538 176.0
170.894318 204.0
170.912964 120.0
170.946091 172.0
170.976822 60.0
171.042664 1372.0
171.074341 232.0
171.170868 172.0
171.180908 92.0
171.221863 332.0
171.266373 156.0
171.301666 164.0
171.330963 100.0
171.377243 256.0
171.414474 144.0
171.457123 144.0
171.480637 144.0
171.537308 108.0
171.562897 176.0
171.585022 256.0
171.606033 208.0
171.641602 180.0
171.675385 80.0
171.740219 148.0
171.802826 120.0
171.843201 124.0
171.902481 188.0
171.936356 356.0
171.998825 184.0
172.036118 1752.0
172.077682 164.0
172.097748 52.0
172.121246 132.0
172.146088 132.0
172.178177 80.0
172.230942 152.0
172.281204 148.0
172.304672 192.0
172.345306 180.0
172.353806 140.0
172.362183 184.0
172.407593 124.0
172.4478 116.0
172.485077 496.0
172.507828 108.0
172.517166 232.0
172.543213 140.0
172.609665 180.0
172.651657 128.0
172.694458 228.0
172.740326 320.0
172.790375 120.0
172.828888 116.0
172.858948 172.0
172.9561 252.0
172.998245 84.0
173.003662 112.0
173.031662 1684.0
173.087158 192.0
173.125412 116.0
173.162079 80.0
173.205185 164.0
173.24852 188.0
173.300079 156.0
173.360046 184.0
173.390015 96.0
173.429657 160.0
173.487778 160.0
173.511246 80.0
173.544479 232.0
173.580582 208.0
173.616608 160.0
173.636795 124.0
173.746979 152.0
173.78772 176.0
173.811874 148.0
173.829254 172.0
173.866638 208.0
173.900986 156.0
173.954849 172.0
173.979599 276.0
174.037079 680.0
174.091675 160.0
174.149811 260.0
174.178497 204.0
174.300644 108.0
174.319031 112.0
174.353195 124.0
174.384735 192.0
174.413345 120.0
174.449249 88.0
174.492157 116.0
174.563507 292.0
174.590897 116.0
174.623993 112.0
174.663452 144.0
174.716064 140.0
174.763 248.0
174.801285 144.0
174.835999 172.0
174.859406 152.0
174.90036 112.0
174.944733 292.0
174.962036 112.0
174.991928 88.0
175.021378 136.0
175.045074 276.0
175.071411 184.0
175.1586 112.0
175.216019 124.0
175.264771 128.0
175.340118 156.0
175.392838 200.0
175.425613 120.0
175.458008 188.0
175.468201 136.0
175.495651 184.0
175.565948 208.0
175.610565 132.0
175.656525 144.0
175.746872 232.0
175.780533 140.0
175.829834 60.0
175.850342 136.0
175.889343 284.0
175.917786 124.0
175.954742 188.0
175.975861 64.0
176.027863 328.0
176.060959 140.0
176.08992 104.0
176.142242 124.0
176.199478 144.0
176.224136 160.0
176.251343 188.0
176.295944 136.0
176.333923 164.0
176.374893 176.0
176.391296 176.0
176.432938 144.0
176.468414 104.0
176.51416 72.0
176.540054 180.0
176.551224 92.0
176.555649 156.0
176.588654 320.0
176.592819 292.0
176.641846 148.0
176.68869 164.0
176.713196 144.0
176.720078 140.0
176.729294 152.0
176.800598 108.0
176.852005 188.0
176.883209 136.0
176.970016 164.0
177.010666 192.0
177.017487 164.0
177.044281 784.0
177.126129 148.0
177.135574 140.0
177.179245 168.0
177.1978 160.0
177.242844 160.0
177.26062 152.0
177.267471 108.0
177.281357 52.0
177.295898 164.0
177.392044 228.0
177.431015 144.0
177.459259 224.0
177.545044 348.0
177.595428 120.0
177.621689 120.0
177.645828 184.0
177.664398 72.0
177.724564 172.0
177.750763 168.0
177.770538 76.0
177.855942 288.0
177.90477 112.0
177.932159 180.0
177.968155 168.0
177.997421 180.0
178.009323 84.0
178.018814 176.0
178.04657 748.0
178.076385 344.0
178.123398 124.0
178.160843 100.0
178.231552 92.0
178.252762 108.0
178.268539 136.0
178.329254 148.0
178.392105 208.0
178.434708 160.0
178.458878 288.0
178.486099 224.0
178.53978 200.0
178.56488 108.0
178.591492 120.0
178.610107 28.0
178.6548 172.0
178.687256 84.0
178.716385 164.0
178.790756 92.0
178.815918 288.0
178.838943 176.0
178.892685 208.0
178.92627 124.0
178.960022 124.0
178.987213 288.0
179.014435 100.0
179.018173 148.0
179.059738 2732.0
179.093124 696.0
179.131836 104.0
179.174683 248.0
179.223526 192.0
179.239548 216.0
179.296188 176.0
179.323471 168.0
179.37912 136.0
179.438324 72.0
179.46109 140.0
179.491226 188.0
179.542313 212.0
179.566315 132.0
179.63501 164.0
179.644958 124.0
179.657333 100.0
179.666107 136.0
179.718292 124.0
179.753265 160.0
179.797668 168.0
179.838455 96.0
179.866379 96.0
179.918304 132.0
179.976364 208.0
180.003983 144.0
180.055573 348.0
180.118332 128.0
180.137527 144.0
180.174927 36.0
180.220306 216.0
180.230637 80.0
180.252533 216.0
180.281815 68.0
180.331161 248.0
180.361984 148.0
180.387405 244.0
180.466156 120.0
180.496155 152.0
180.549149 112.0
180.578873 140.0
180.625381 192.0
180.668213 200.0
180.675385 164.0
180.697678 160.0
180.732727 64.0
180.756744 280.0
180.817169 132.0
180.850815 276.0
180.87825 160.0
180.931122 144.0
180.9702 120.0
180.999771 292.0
181.005524 156.0
181.019791 164.0
181.028336 144.0
181.05098 176.0
181.100281 156.0
181.146027 108.0
181.200745 208.0
181.261047 224.0
181.279419 232.0
181.317795 112.0
181.34967 164.0
181.381836 56.0
181.409668 232.0
181.464737 156.0
181.496017 164.0
181.54361 156.0
181.5522 156.0
181.618622 132.0
181.666092 176.0
181.724152 304.0
181.778473 132.0
181.829773 140.0
181.848557 144.0
181.875443 120.0
181.936493 200.0
181.954956 164.0
182.036362 1244.0
182.088013 128.0
182.123077 136.0
182.160233 532.0
182.178131 124.0
182.205704 208.0
182.237671 120.0
182.303818 244.0
182.323929 208.0
182.348114 204.0
182.368164 264.0
182.430206 156.0
182.469086 176.0
182.490601 160.0
182.525543 188.0
182.547058 152.0
182.581818 156.0
182.606049 180.0
182.636154 292.0
182.699844 196.0
182.71405 176.0
182.747742 152.0
182.807999 188.0
182.828934 160.0
182.858536 212.0
182.899185 164.0
182.927963 224.0
182.978531 232.0
183.040619 6348.0
183.115189 160.0
183.12384 128.0
183.175842 236.0
183.188141 152.0
183.216064 188.0
183.235321 172.0
183.269165 352.0
183.306915 192.0
183.354141 288.0
183.395554 224.0
183.433609 244.0
183.457123 160.0
183.486542 92.0
183.511307 164.0
183.570374 44.0
183.605972 148.0
183.664764 28.0
183.690216 120.0
183.736038 136.0
183.756485 84.0
183.786865 308.0
183.815842 132.0
183.890335 188.0
183.969223 92.0
183.987976 136.0
184.040802 832.0
184.109116 196.0
184.150467 144.0
184.171173 176.0
184.196503 344.0
184.245148 176.0
184.284653 200.0
184.317429 96.0
184.376678 268.0
184.469116 136.0
184.52623 140.0
184.580002 140.0
184.666412 248.0
184.703079 132.0
184.749207 108.0
184.799118 228.0
184.822327 160.0
184.858932 136.0
184.893082 264.0
184.95755 116.0
185.001938 140.0
185.043304 148.0
185.069061 824.0
185.135544 272.0
185.167557 164.0
185.208755 324.0
185.224823 196.0
185.247498 312.0
185.284042 104.0
185.311127 112.0
185.353836 100.0
185.37616 116.0
185.395126 132.0
185.426865 180.0
185.435196 128.0
185.444077 144.0
185.472351 120.0
185.492706 124.0
185.517105 180.0
185.543167 124.0
185.590561 168.0
185.650436 136.0
185.67012 148.0
185.726547 204.0
185.769745 248.0
185.801865 124.0
185.856125 112.0
185.877838 124.0
185.937531 144.0
185.999329 172.0
186.05896 952.0
186.103134 152.0
186.148148 200.0
186.175735 180.0
186.190628 196.0
186.251953 160.0
186.283524 160.0
186.303589 156.0
186.37059 156.0
186.421692 144.0
186.467667 168.0
186.523773 144.0
186.547836 152.0
186.595901 120.0
186.625763 132.0
186.669525 144.0
186.676987 212.0
186.728149 156.0
186.751144 148.0
186.776672 200.0
186.825287 124.0
186.85997 160.0
186.899536 144.0
186.940491 164.0
186.962234 204.0
186.986618 152.0
187.06694 656.0
187.107071 160.0
187.128174 176.0
187.204071 160.0
187.23851 264.0
187.256149 308.0
187.344299 168.0
187.381958 340.0
187.430511 140.0
187.449188 136.0
187.522797 148.0
187.542236 96.0
187.572235 144.0
187.594772 104.0
187.617447 360.0
187.656662 224.0
187.674774 228.0
187.702057 180.0
187.832504 80.0
187.904938 116.0
187.945892 360.0
187.997543 108.0
188.023972 116.0
188.049713 968.0
188.104156 60.0
188.136917 112.0
188.168076 232.0
188.207214 96.0
188.231918 156.0
188.27536 256.0
188.301422 180.0
188.376038 164.0
188.416916 184.0
188.464661 112.0
188.500061 292.0
188.527252 208.0
188.554153 180.0
188.588043 188.0
188.630737 172.0
188.67511 144.0
188.733185 216.0
188.798157 144.0
188.830978 128.0
188.880203 148.0
188.953156 112.0
188.973221 36.0
189.037018 1488.0
189.091599 356.0
189.140167 176.0
189.181229 172.0
189.249664 128.0
189.267334 116.0
189.304245 172.0
189.314224 160.0
189.386993 192.0
189.416733 224.0
189.46254 188.0
189.470703 136.0
189.482697 148.0
189.51535 36.0
189.536041 228.0
189.572891 116.0
189.617188 176.0
189.649643 52.0
189.693893 192.0
189.753799 132.0
189.772995 356.0
189.800339 144.0
189.817581 184.0
189.837555 192.0
189.877197 136.0
189.904526 196.0
189.962097 124.0
189.98967 372.0
190.046066 16556.0
190.090744 148.0
190.137924 120.0
190.19548 164.0
190.227264 124.0
190.23494 180.0
190.295349 132.0
190.329514 136.0
190.351044 132.0
190.393158 80.0
190.416656 120.0
190.461273 80.0
190.489304 48.0
190.515259 80.0
190.542618 88.0
190.582748 196.0
190.606766 236.0
190.637009 132.0
190.662399 44.0
190.687134 176.0
190.706009 144.0
190.758514 140.0
190.779892 296.0
190.813583 192.0
190.845123 196.0
190.880554 124.0
190.904327 52.0
190.945572 124.0
191.047897 2284.0
191.109146 216.0
191.169617 192.0
191.238602 96.0
191.303619 96.0
191.310577 148.0
191.32135 192.0
191.344574 156.0
191.365555 148.0
191.390976 220.0
191.399994 180.0
191.432404 156.0
191.49765 120.0
191.556244 168.0
191.565887 144.0
191.580124 76.0
191.591309 184.0
191.608978 392.0
191.638885 256.0
191.651321 76.0
191.65683 152.0
191.723526 112.0
191.823929 92.0
191.84874 380.0
191.885742 144.0
191.913376 144.0
191.950653 116.0
191.971481 196.0
192.024948 328.0
192.051987 580.0
192.086411 128.0
192.120239 196.0
192.157623 140.0
192.177658 236.0
192.203262 144.0
192.240463 344.0
192.277267 156.0
192.319733 156.0
192.341888 140.0
192.409943 152.0
192.430862 216.0
192.455719 88.0
192.477814 176.0
192.52475 164.0
192.571701 256.0
192.599319 192.0
192.62149 180.0
192.642914 180.0
192.651093 140.0
192.661499 284.0
192.703796 152.0
192.71312 124.0
192.722885 176.0
192.733551 176.0
192.781021 136.0
192.820358 132.0
192.859985 256.0
192.898636 176.0
192.950653 120.0
192.972916 144.0
193.015259 136.0
193.035477 164.0
193.088547 120.0
193.127258 144.0
193.148651 164.0
193.164185 184.0
193.190887 44.0
193.231964 156.0
193.237335 132.0
193.252548 312.0
193.279846 156.0
193.301559 328.0
193.33287 152.0
193.37706 100.0
193.400421 100.0
193.451019 260.0
193.47316 100.0
193.499161 204.0
193.524841 128.0
193.570068 180.0
193.590927 120.0
193.669769 172.0
193.690018 152.0
193.726868 92.0
193.77504 220.0
193.84552 140.0
193.871796 144.0
193.876312 132.0
193.886963 216.0
193.925446 160.0
193.935593 276.0
193.960281 200.0
193.967468 120.0
194.02095 416.0
194.042801 164.0
194.061234 156.0
194.122711 188.0
194.179764 120.0
194.213638 152.0
194.26416 140.0
194.322205 184.0
194.354538 152.0
194.376129 264.0
194.404007 164.0
194.461197 128.0
194.488617 244.0
194.515503 144.0
194.557526 172.0
194.595856 136.0
194.641312 308.0
194.690277 156.0
194.707581 180.0
194.739838 188.0
194.763062 164.0
194.857086 136.0
194.879318 224.0
194.902313 360.0
194.938324 136.0
194.975754 420.0
195.054398 4676.0
195.132355 120.0
195.157257 140.0
195.179504 60.0
195.207321 128.0
195.289291 360.0
195.348465 200.0
195.379761 136.0
195.400482 124.0
195.425858 156.0
195.44841 184.0
195.488281 104.0
195.514053 92.0
195.580429 180.0
195.619614 140.0
195.646362 116.0
195.680878 152.0
195.749954 200.0
195.786362 216.0
195.822952 432.0
195.871628 204.0
195.880295 140.0
195.890671 176.0
195.89917 56.0
195.923752 408.0
195.937973 300.0
195.946442 404.0
195.964935 272.0
195.975296 184.0
195.986328 268.0
195.997116 148.0
196.008636 364.0
196.062988 84932.0
196.130371 96.0
196.15419 88.0
196.176056 88.0
196.186157 72.0
196.209198 224.0
196.248413 256.0
196.321304 152.0
196.352798 112.0
196.393402 120.0
196.444244 76.0
196.471893 224.0
196.518036 156.0
196.546127 212.0
196.575089 164.0
196.606979 300.0
196.634995 112.0
196.643616 72.0
196.654709 152.0
196.68866 116.0
196.718124 116.0
196.759735 316.0
196.785629 188.0
196.807892 52.0
196.847626 76.0
196.889847 544.0
196.928757 112.0
196.979736 212.0
196.996262 364.0
197.052231 32752.0
197.110504 180.0
197.132599 192.0
197.159256 268.0
197.176559 128.0
197.197311 184.0
197.205185 124.0
197.218506 136.0
197.247635 128.0
197.313858 196.0
197.338364 152.0
197.36496 208.0
197.398865 276.0
197.443619 76.0
197.47377 76.0
197.50264 36.0
197.523849 116.0
197.552643 152.0
197.58876 56.0
197.619522 144.0
197.631241 112.0
197.635681 252.0
197.664917 384.0
197.697937 52.0
197.734802 216.0
197.760071 52.0
197.781998 48.0
197.816055 80.0
197.911423 240.0
197.939346 348.0
197.980759 176.0
198.015915 3800.0
198.054703 8256.0
198.102722 112.0
198.137512 112.0
198.148422 204.0
198.183441 268.0
198.252228 176.0
198.29422 84.0
198.31868 292.0
198.393143 52.0
198.423798 104.0
198.444016 136.0
198.481461 104.0
198.512985 116.0
198.547012 128.0
198.566544 76.0
198.578201 148.0
198.612915 128.0
198.632095 388.0
198.659851 136.0
198.707245 108.0
198.767334 232.0
198.799057 72.0
198.876907 328.0
198.946167 176.0
198.975204 168.0
199.016357 300.0
199.063614 792.0
199.089584 604.0
199.150787 120.0
199.169739 48.0
199.200363 92.0
199.2229 184.0
199.2621 140.0
199.315781 148.0
199.384781 156.0
199.405975 108.0
199.442398 92.0
199.467941 104.0
199.485168 124.0
199.535446 180.0
199.562653 172.0
199.60817 164.0
199.646469 184.0
199.663498 120.0
199.704498 180.0
199.731354 136.0
199.798264 168.0
199.837524 204.0
199.862411 148.0
199.905716 224.0
199.956451 116.0
199.981033 184.0
199.999939 212.0
200.027069 468.0
200.057861 1104.0
200.095581 164.0
200.12619 156.0
200.131836 80.0
200.180191 176.0
200.213913 128.0
200.334595 208.0
200.355484 140.0
200.360794 192.0
200.417343 168.0
200.463638 124.0
200.490738 108.0
200.529465 316.0
200.572479 168.0
200.590912 120.0
200.5952 112.0
200.658752 180.0
200.674393 184.0
200.718262 132.0
200.769562 176.0
200.849991 272.0
200.868805 80.0
200.912964 152.0
200.95459 196.0
200.986313 136.0
201.013901 248.0
201.04425 552.0
201.085083 148.0
201.11673 132.0
201.160843 124.0
201.216614 152.0
201.237 332.0
201.265762 328.0
201.291168 136.0
201.316589 28.0
201.358749 164.0
201.376541 124.0
201.387833 160.0
201.414413 196.0
201.47963 188.0
201.488068 136.0
201.496521 148.0
201.521133 156.0
201.556702 80.0
201.582138 72.0
201.61322 108.0
201.649963 68.0
201.680801 88.0
201.731598 236.0
201.765854 184.0
201.784546 144.0
201.832718 216.0
201.843094 140.0
201.850296 260.0
201.907242 64.0
201.947067 128.0
202.006241 192.0
202.045837 1472.0
202.098541 176.0
202.129807 172.0
202.167038 144.0
202.232605 64.0
202.255249 124.0
202.292358 112.0
202.326019 68.0
202.363174 148.0
202.391586 228.0
202.425125 100.0
202.496872 124.0
202.519913 128.0
202.547821 136.0
202.651733 104.0
202.682892 72.0
202.72937 204.0
202.77684 120.0
202.796249 268.0
202.875214 108.0
202.91835 148.0
202.940094 76.0
202.974869 152.0
203.053711 536.0
203.079361 160.0
203.122345 84.0
203.157242 144.0
203.224899 212.0
203.259796 80.0
203.289536 168.0
203.343658 148.0
203.364929 144.0
203.404175 112.0
203.463669 408.0
203.496841 204.0
203.520355 228.0
203.541306 148.0
203.56282 120.0
203.622665 176.0
203.654831 128.0
203.719421 176.0
203.745163 172.0
203.756897 204.0
203.794418 192.0
203.863739 192.0
203.887024 172.0
203.925903 104.0
203.996033 280.0
204.032471 204.0
204.055023 120.0
204.099319 216.0
204.149353 148.0
204.201691 96.0
204.241516 148.0
204.27565 116.0
204.298416 204.0
204.321167 116.0
204.366837 164.0
204.392303 228.0
204.412216 232.0
204.437836 220.0
204.462387 172.0
204.486984 148.0
204.565918 128.0
204.588638 168.0
204.622849 180.0
204.642776 120.0
204.664566 276.0
204.725357 124.0
204.745193 116.0
204.804398 128.0
204.864929 228.0
204.956802 260.0
205.009155 168.0
205.040771 256.0
205.088074 104.0
205.128708 172.0
205.162811 296.0
205.198364 224.0
205.23259 60.0
205.255402 84.0
205.303879 168.0
205.343796 144.0
205.373428 124.0
205.403702 220.0
205.454071 176.0
205.483582 204.0
205.543564 160.0
205.599747 400.0
205.739578 172.0
205.770416 112.0
205.791824 112.0
205.823242 120.0
205.872757 164.0
205.927887 352.0
205.948898 112.0
205.977463 192.0
206.018402 148.0
206.060303 260.0
206.100311 320.0
206.151749 236.0
206.171753 116.0
206.207474 128.0
206.248917 208.0
206.288254 320.0
206.330429 188.0
206.379059 200.0
206.466049 140.0
206.486954 144.0
206.520554 100.0
206.612671 184.0
206.652863 176.0
206.712906 136.0
206.742233 192.0
206.76947 80.0
206.793411 220.0
206.826859 160.0
206.847519 180.0
206.865692 124.0
206.885437 164.0
206.91832 84.0
206.976685 180.0
207.00209 188.0
207.041458 176.0
207.074142 136.0
207.149521 132.0
207.178055 116.0
207.197235 256.0
207.250565 152.0
207.268677 120.0
207.303085 148.0
207.345139 176.0
207.385651 188.0
207.413712 220.0
207.462006 212.0
207.482727 32.0
207.537201 152.0
207.56163 120.0
207.61644 220.0
207.650269 144.0
207.680588 72.0
207.743698 148.0
207.793213 108.0
207.841248 184.0
207.881271 160.0
207.886765 144.0
207.953171 100.0
207.999969 200.0
208.035751 716.0
208.058502 464.0
208.091965 160.0
208.128281 252.0
208.153198 164.0
208.196075 172.0
208.231674 124.0
208.258957 184.0
208.280502 156.0
208.317688 148.0
208.369553 104.0
208.394882 108.0
208.425903 288.0
208.46788 144.0
208.489944 116.0
208.496414 136.0
208.585083 156.0
208.615616 176.0
208.671341 140.0
208.701553 180.0
208.759338 244.0
208.849625 140.0
208.898529 164.0
208.92836 196.0
208.9711 192.0
209.010681 208.0
209.040588 708.0
209.08255 172.0
209.099594 160.0
209.112183 144.0
209.117981 196.0
209.160385 168.0
209.192413 32.0
209.225967 528.0
209.25827 68.0
209.281311 76.0
209.325592 316.0
209.368439 112.0
209.399612 196.0
209.433945 140.0
209.474274 80.0
209.554932 80.0
209.604813 140.0
209.6427 120.0
209.759995 204.0
209.811432 136.0
209.897934 108.0
209.921005 88.0
209.967148 96.0
210.001053 196.0
210.049591 4392.0
210.112671 324.0
210.188354 100.0
210.238266 160.0
210.249146 156.0
210.25383 120.0
210.294052 264.0
210.314911 292.0
210.368225 84.0
210.455582 156.0
210.499756 60.0
210.525604 196.0
210.581207 300.0
210.62561 316.0
210.654114 100.0
210.691071 176.0
210.720566 148.0
210.739059 88.0
210.777298 132.0
210.806046 136.0
210.903244 92.0
210.925735 208.0
210.961411 188.0
210.983932 212.0
211.017502 140.0
211.022476 104.0
211.054764 856.0
211.099854 128.0
211.142593 108.0
211.173477 296.0
211.197556 108.0
211.266922 208.0
211.300278 152.0
211.345093 164.0
211.386002 220.0
211.418198 76.0
211.455063 104.0
211.475311 32.0
211.504257 244.0
211.611374 120.0
211.664536 112.0
211.669815 176.0
211.690735 120.0
211.761963 192.0
211.819885 176.0
211.84346 144.0
211.869141 152.0
211.898117 80.0
211.92926 292.0
212.029648 288.0
212.149307 184.0
212.170547 100.0
212.208237 184.0
212.23143 172.0
212.289429 168.0
212.310196 340.0
212.33873 116.0
212.387833 168.0
212.398438 156.0
212.437347 176.0
212.545639 136.0
212.576614 92.0
212.614334 96.0
212.663055 132.0
212.686905 164.0
212.733353 76.0
212.761887 144.0
212.83786 144.0
212.880157 164.0
212.911865 152.0
212.938004 116.0
212.948425 188.0
212.957672 252.0
212.99469 152.0
213.039886 140.0
213.065475 696.0
213.132523 100.0
213.144455 44.0
213.154022 124.0
213.183548 164.0
213.212601 232.0
213.244583 116.0
213.291245 196.0
213.335495 188.0
213.403015 92.0
213.432144 116.0
213.456467 140.0
213.519287 168.0
213.599319 136.0
213.625732 248.0
213.660812 144.0
213.704041 156.0
213.795868 144.0
213.855377 156.0
213.907761 120.0
213.94722 188.0
213.971817 100.0
214.012573 116.0
214.044174 324.0
214.054398 260.0
214.115112 300.0
214.136612 128.0
214.161636 172.0
214.189056 80.0
214.216736 204.0
214.248489 108.0
214.268875 124.0
214.291214 132.0
214.341721 108.0
214.367767 128.0
214.393616 104.0
214.45224 204.0
214.493271 124.0
214.513687 164.0
214.57782 128.0
214.626343 112.0
214.678574 152.0
214.701843 172.0
214.774017 144.0
214.796371 216.0
214.888733 160.0
214.893784 96.0
214.933655 128.0
214.957001 112.0
214.988831 208.0
215.060089 5936.0
215.132126 280.0
215.164047 244.0
215.199905 240.0
215.228806 108.0
215.249817 104.0
215.28688 140.0
215.311707 144.0
215.398529 108.0
215.447525 116.0
215.476746 32.0
215.54541 112.0
215.579514 140.0
215.60611 76.0
215.631622 172.0
215.716385 208.0
215.754395 208.0
215.807022 124.0
215.856522 172.0
215.940048 204.0
215.973938 152.0
216.004883 176.0
216.049606 3148.0
216.122421 144.0
216.186325 196.0
216.239471 120.0
216.258377 172.0
216.287552 108.0
216.316071 140.0
216.349503 200.0
216.372772 144.0
216.398682 312.0
216.442291 144.0
216.465454 160.0
216.487961 136.0
216.525131 100.0
216.545288 164.0
216.569946 148.0
216.593689 124.0
216.617233 132.0
216.65126 180.0
216.675644 220.0
216.701675 248.0
216.725555 140.0
216.755356 176.0
216.811996 172.0
216.853775 112.0
216.889313 108.0
216.934174 336.0
216.992905 328.0
217.057663 146136.0
217.128052 192.0
217.155106 324.0
217.180756 44.0
217.220276 360.0
217.235519 116.0
217.243942 108.0
217.265793 376.0
217.288422 92.0
217.317688 152.0
217.340775 384.0
217.376831 132.0
217.395645 124.0
217.407593 144.0
217.456741 204.0
217.468781 232.0
217.495193 112.0
217.501938 68.0
217.538727 556.0
217.577591 216.0
217.616135 344.0
217.650558 184.0
217.710251 232.0
217.737122 92.0
217.745804 136.0
217.795914 240.0
217.816483 132.0
217.871796 224.0
217.904465 104.0
217.937729 156.0
217.944366 120.0
217.955948 132.0
217.981323 184.0
218.057312 19312.0
218.133347 184.0
218.206589 228.0
218.218185 168.0
218.230133 200.0
218.245316 48.0
218.251373 156.0
218.302582 244.0
218.336624 240.0
218.405319 316.0
218.471939 176.0
218.504578 140.0
218.530167 204.0
218.593491 156.0
218.615036 244.0
218.626984 84.0
218.641418 136.0
218.677872 172.0
218.732391 56.0
218.76741 212.0
218.825287 224.0
218.891129 192.0
218.956116 160.0
219.045685 2884.0
219.159698 136.0
219.196243 100.0
219.207794 100.0
219.214081 156.0
219.247055 172.0
219.292755 160.0
219.329361 208.0
219.362396 164.0
219.397598 364.0
219.422913 128.0
219.444626 316.0
219.450272 112.0
219.462585 76.0
219.495026 304.0
219.520462 196.0
219.564392 100.0
219.590866 144.0
219.649521 136.0
219.678238 172.0
219.698944 92.0
219.708786 152.0
219.734161 304.0
219.768417 204.0
219.773148 140.0
219.786621 244.0
219.834045 108.0
219.863998 276.0
219.904434 108.0
219.926849 108.0
219.967606 116.0
220.03978 1172.0
220.111069 156.0
220.170013 120.0
220.204712 184.0
220.243378 120.0
220.278824 120.0
220.290665 104.0
220.298019 124.0
220.330444 300.0
220.409637 156.0
220.428329 184.0
220.463287 264.0
220.495422 348.0
220.527344 164.0
220.549301 116.0
220.578033 160.0
220.60463 140.0
220.633423 176.0
220.663269 116.0
220.713074 128.0
220.752029 100.0
220.781845 176.0
220.822571 176.0
220.881165 84.0
220.975311 244.0
220.997726 136.0
221.045364 572.0
221.102676 120.0
221.170151 316.0
221.242737 292.0
221.299103 172.0
221.332993 124.0
221.380371 52.0
221.407013 296.0
221.445526 100.0
221.468109 128.0
221.528458 180.0
221.570755 72.0
221.598053 244.0
221.641037 160.0
221.6828 140.0
221.721054 132.0
221.741806 124.0
221.780334 152.0
221.808731 152.0
221.865036 272.0
221.892975 48.0
221.981934 160.0
222.052124 420.0
222.100571 116.0
222.124817 204.0
222.196915 100.0
222.245941 144.0
222.290451 272.0
222.329544 208.0
222.406723 144.0
222.535461 224.0
222.567871 160.0
222.606964 268.0
222.64534 180.0
222.684662 168.0
222.719345 112.0
222.765488 164.0
222.842743 160.0
222.886002 204.0
222.925217 164.0
222.935532 124.0
222.967545 60.0
222.994293 164.0
223.048828 492.0
223.084106 424.0
223.110229 120.0
223.141281 144.0
223.199417 128.0
223.258896 156.0
223.31221 56.0
223.345322 200.0
223.390762 176.0
223.434387 192.0
223.464294 244.0
223.487564 220.0
223.535553 136.0
223.574249 92.0
223.617157 76.0
223.645676 160.0
223.684372 160.0
223.708191 84.0
223.772064 140.0
223.83667 180.0
223.874924 232.0
223.934494 128.0
223.955338 96.0
223.979385 160.0
224.020493 248.0
224.032303 124.0
224.039322 352.0
224.101608 196.0
224.132629 140.0
224.169846 160.0
224.218903 200.0
224.240234 116.0
224.2798 148.0
224.309921 112.0
224.353455 192.0
224.41774 140.0
224.44223 100.0
224.473907 216.0
224.531158 160.0
224.619904 116.0
224.709549 52.0
224.782318 144.0
224.813446 112.0
224.854324 108.0
224.866379 116.0
224.952698 120.0
224.984116 212.0
225.044678 6560.0
225.14212 112.0
225.179413 140.0
225.230118 212.0
225.291718 132.0
225.31575 180.0
225.386078 144.0
225.449371 168.0
225.488937 168.0
225.519592 188.0
225.550247 88.0
225.573349 288.0
225.618988 164.0
225.680252 112.0
225.704071 112.0
225.709717 108.0
225.766769 116.0
225.808838 44.0
225.840912 144.0
225.894073 192.0
225.943451 76.0
225.972427 152.0
226.005432 144.0
226.050903 600.0
226.161911 196.0
226.193741 156.0
226.224762 152.0
226.245544 68.0
226.28009 108.0
226.317337 100.0
226.374466 164.0
226.388672 108.0
226.397903 136.0
226.443832 348.0
226.512711 128.0
226.581146 148.0
226.626083 164.0
226.68425 156.0
226.723526 176.0
226.784912 172.0
226.849487 144.0
226.876434 252.0
226.904831 84.0
226.961792 64.0
226.982788 396.0
227.041321 900.0
227.14061 148.0
227.232635 176.0
227.272095 124.0
227.31575 160.0
227.378784 164.0
227.426727 168.0
227.46582 76.0
227.492844 192.0
227.555664 436.0
227.609924 144.0
227.633957 88.0
227.659897 280.0
227.698883 152.0
227.731262 168.0
227.798141 96.0
227.83046 184.0
227.867432 148.0
227.895279 104.0
227.944427 224.0
227.972244 196.0
227.984131 120.0
228.050781 1916.0
228.149887 112.0
228.161728 80.0
228.189835 92.0
228.222443 104.0
228.320984 196.0
228.37027 60.0
228.403351 84.0
228.425201 136.0
228.492767 160.0
228.529709 108.0
228.565811 188.0
228.676727 112.0
228.721481 320.0
228.782516 116.0
228.80661 156.0
228.889832 224.0
228.957153 64.0
228.980576 160.0
229.054306 376.0
229.106857 360.0
229.137894 252.0
229.201172 164.0
229.234451 176.0
229.304611 160.0
229.348297 88.0
229.360397 72.0
229.368393 148.0
229.428894 288.0
229.472443 56.0
229.496567 84.0
229.562042 140.0
229.665436 180.0
229.714676 112.0
229.749222 176.0
229.780075 116.0
229.829468 176.0
229.855515 120.0
229.893188 204.0
229.918884 116.0
229.96463 128.0
230.048462 1224.0
230.09697 108.0
230.144272 84.0
230.180588 156.0
230.211716 60.0
230.23912 112.0
230.305908 132.0
230.356689 208.0
230.403961 180.0
230.481842 200.0
230.56665 156.0
230.602768 128.0
230.697388 168.0
230.737473 60.0
230.767715 204.0
230.800964 80.0
230.834229 120.0
230.867386 104.0
230.87439 144.0
230.906815 112.0
230.9673 76.0
230.98848 136.0
231.02478 152.0
231.055038 160.0
231.090927 156.0
231.160858 148.0
231.191193 128.0
231.219116 160.0
231.258621 288.0
231.317001 496.0
231.351624 92.0
231.381897 268.0
231.430344 124.0
231.481812 168.0
231.561768 116.0
231.605988 76.0
231.698807 168.0
231.736252 100.0
231.760498 160.0
231.787766 112.0
231.830185 152.0
231.861588 232.0
231.887772 60.0
231.924149 140.0
231.966583 272.0
231.998245 152.0
232.037628 348.0
232.075729 92.0
232.122375 104.0
232.17276 112.0
232.208008 200.0
232.233414 100.0
232.269821 56.0
232.297791 164.0
232.324417 372.0
232.348694 92.0
232.470581 580.0
232.506348 292.0
232.568283 132.0
232.587921 284.0
232.623718 64.0
232.706192 116.0
232.736099 212.0
232.772736 68.0
232.817093 180.0
232.844879 152.0
232.867767 160.0
232.895111 152.0
232.958633 196.0
233.04657 168.0
233.116898 144.0
233.145142 136.0
233.168564 224.0
233.203781 160.0
233.235947 256.0
233.283859 204.0
233.333374 140.0
233.427628 236.0
233.466736 200.0
233.505417 180.0
233.543991 168.0
233.638763 120.0
233.656372 132.0
233.74028 304.0
233.76767 148.0
233.835526 176.0
233.881958 188.0
233.95076 156.0
233.986908 148.0
234.047714 168.0
234.06868 204.0
234.116638 184.0
234.154297 72.0
234.216019 92.0
234.264114 192.0
234.294418 180.0
234.329529 144.0
234.364319 132.0
234.380966 208.0
234.48584 176.0
234.516876 88.0
234.586975 96.0
234.614426 92.0
234.635757 284.0
234.696732 76.0
234.718079 136.0
234.740952 40.0
234.754059 108.0
234.772842 184.0
234.800354 172.0
234.837021 200.0
234.867523 120.0
234.915451 140.0
234.922943 332.0
234.98201 196.0
235.05278 1044.0
235.136017 128.0
235.17363 188.0
235.203171 120.0
235.248962 220.0
235.276443 60.0
235.299866 252.0
235.346664 120.0
235.410782 196.0
235.432159 192.0
235.521271 160.0
235.581833 56.0
235.609329 48.0
235.634232 292.0
235.656631 180.0
235.679596 140.0
235.712753 160.0
235.742401 144.0
235.776276 44.0
235.801834 180.0
235.823227 168.0
235.846512 188.0
235.888596 196.0
235.927155 164.0
235.957733 180.0
235.988037 184.0
236.05423 9256.0
236.171799 76.0
236.198059 164.0
236.210403 96.0
236.218216 136.0
236.256622 224.0
236.312119 188.0
236.323227 128.0
236.335007 172.0
236.360809 272.0
236.417404 172.0
236.46228 136.0
236.470917 168.0
236.499191 204.0
236.586243 184.0
236.613342 96.0
236.6492 92.0
236.681274 180.0
236.745422 132.0
236.781052 180.0
236.805374 72.0
236.829407 52.0
236.864655 288.0
236.90033 184.0
236.943054 360.0
236.96875 144.0
237.006073 140.0
237.016434 116.0
237.062393 35368.0
237.119476 108.0
237.145081 188.0
237.168839 112.0
237.192673 120.0
237.24408 180.0
237.298965 108.0
237.344742 68.0
237.369263 116.0
237.435379 200.0
237.479675 32.0
237.507278 40.0
237.53949 88.0
237.568634 80.0
237.635193 196.0
237.680298 80.0
237.721222 172.0
237.765121 176.0
237.800278 236.0
237.848694 224.0
237.886978 180.0
238.004791 392.0
238.047806 15352.0
238.141388 68.0
238.166473 148.0
238.192764 60.0
238.214081 188.0
238.249329 64.0
238.271927 48.0
238.307434 216.0
238.343521 132.0
238.380249 152.0
238.408142 124.0
238.437592 60.0
238.492233 148.0
238.522278 152.0
238.591293 60.0
238.616394 360.0
238.65387 216.0
238.717361 236.0
238.775635 148.0
238.821396 80.0
238.883438 132.0
238.92012 168.0
238.934052 116.0
238.942429 164.0
238.970444 184.0
239.047821 1536.0
239.217056 156.0
239.324692 104.0
239.367233 108.0
239.415924 96.0
239.443649 124.0
239.513596 248.0
239.57814 232.0
239.603897 156.0
239.666199 148.0
239.702759 168.0
239.795273 300.0
239.830215 60.0
239.838028 104.0
239.907822 168.0
239.936844 72.0
239.964417 240.0
239.98909 108.0
240.031662 144.0
240.055557 264.0
240.083817 176.0
240.173691 144.0
240.184082 124.0
240.254333 48.0
240.300613 152.0
240.334335 116.0
240.407608 160.0
240.466629 120.0
240.49054 476.0
240.575104 140.0
240.62468 160.0
240.675995 224.0
240.722641 204.0
240.745102 172.0
240.830307 156.0
240.876633 108.0
240.902634 92.0
240.955795 76.0
240.986038 224.0
241.013855 60.0
241.055405 116.0
241.09111 192.0
241.140549 68.0
241.174561 132.0
241.208557 132.0
241.294785 228.0
241.404251 176.0
241.474472 92.0
241.502304 56.0
241.533951 156.0
241.561081 180.0
241.607758 132.0
241.663177 124.0
241.706497 140.0
241.765808 120.0
241.801086 120.0
241.855042 148.0
241.890472 292.0
241.92131 184.0
241.942993 204.0
241.970963 152.0
242.042603 48.0
242.105957 192.0
242.149185 172.0
242.190384 132.0
242.221527 348.0
242.275284 156.0
242.328857 164.0
242.394165 104.0
242.4776 160.0
242.499298 136.0
242.552338 152.0
242.641891 52.0
242.679153 132.0
242.756622 64.0
242.805908 188.0
242.878647 128.0
242.90239 160.0
242.952026 64.0
242.991791 88.0
243.060867 660.0
243.107162 172.0
243.127197 168.0
243.159012 204.0
243.185486 136.0
243.233978 144.0
243.251328 224.0
243.286133 152.0
243.355865 164.0
243.41449 76.0
243.487503 180.0
243.540115 292.0
243.566208 136.0
243.576965 84.0
243.625687 88.0
243.65918 252.0
243.686218 208.0
243.731323 28.0
243.796219 136.0
243.826263 140.0
243.881943 124.0
243.919357 152.0
243.975815 132.0
244.005035 180.0
244.044296 1336.0
244.090744 252.0
244.132339 192.0
244.155014 96.0
244.184006 180.0
244.209503 244.0
244.247528 204.0
244.272491 172.0
244.310135 180.0
244.332382 128.0
244.400406 296.0
244.433151 168.0
244.445282 100.0
244.452332 88.0
244.460159 148.0
244.500641 156.0
244.54364 156.0
244.619492 200.0
244.664536 424.0
244.707092 244.0
244.752975 188.0
244.765152 248.0
244.812927 344.0
244.85228 388.0
244.877823 156.0
244.906128 620.0
244.929108 300.0
244.942459 264.0
244.987686 440.0
245.052505 243236.0
245.148941 212.0
245.206284 384.0
245.242416 280.0
245.298752 96.0
245.343185 204.0
245.360397 236.0
245.394287 244.0
245.436493 92.0
245.491119 156.0
245.520874 196.0
245.56633 1256.0
245.6409 180.0
245.669067 192.0
245.697983 148.0
245.718262 160.0
245.786118 204.0
245.811218 272.0
245.82634 148.0
245.837402 296.0
245.860809 92.0
245.891037 304.0
245.912842 80.0
245.924515 120.0
245.934769 84.0
245.960358 212.0
245.983856 120.0
246.007202 44.0
246.05426 36732.0
246.15271 172.0
246.195007 32.0
246.212875 92.0
246.246078 192.0
246.275192 80.0
246.331787 136.0
246.364059 196.0
246.384369 132.0
246.404053 92.0
246.435562 68.0
246.456619 64.0
246.511429 96.0
246.546432 44.0
246.568207 160.0
246.597046 236.0
246.63945 188.0
246.656845 156.0
246.683807 148.0
246.706146 160.0
246.748474 108.0
246.770355 56.0
246.809586 204.0
246.844833 176.0
246.85675 108.0
246.867035 232.0
246.905624 180.0
246.948532 188.0
246.999268 64.0
247.054245 3220.0
247.094589 72.0
247.129715 116.0
247.216492 160.0
247.238281 296.0
247.306747 280.0
247.374466 120.0
247.429504 176.0
247.457779 148.0
247.489609 320.0
247.565414 48.0
247.602661 168.0
247.623428 164.0
247.660843 136.0
247.698059 224.0
247.740372 168.0
247.760849 260.0
247.833054 152.0
247.863953 260.0
247.885681 384.0
247.930618 156.0
247.95993 208.0
247.994583 96.0
248.03801 1292.0
248.077332 292.0
248.134003 44.0
248.169739 188.0
248.216965 164.0
248.24205 180.0
248.31076 176.0
248.331955 160.0
248.356293 244.0
248.38652 64.0
248.416687 172.0
248.465973 112.0
248.55983 196.0
248.602798 52.0
248.694931 136.0
248.708572 80.0
248.719833 112.0
248.753464 64.0
248.794327 112.0
248.817459 128.0
248.848572 232.0
248.874069 116.0
248.914856 144.0
248.958649 148.0
249.045898 464.0
249.109482 64.0
249.174286 176.0
249.196274 140.0
249.243408 132.0
249.271683 112.0
249.327423 120.0
249.356537 168.0
249.387634 152.0
249.457123 104.0
249.520004 84.0
249.560883 112.0
249.583878 164.0
249.626907 148.0
249.655212 44.0
249.700546 116.0
249.716019 168.0
249.762146 172.0
249.804581 172.0
249.924164 128.0
249.990067 172.0
250.046356 232.0
250.115326 184.0
250.138168 88.0
250.174377 128.0
250.218445 64.0
250.244766 112.0
250.266678 116.0
250.316864 396.0
250.384201 220.0
250.407394 68.0
250.460022 124.0
250.472549 64.0
250.484192 104.0
250.508179 108.0
250.562866 144.0
250.584412 132.0
250.6129 84.0
250.696732 176.0
250.719299 76.0
250.82016 76.0
250.859512 164.0
250.893372 176.0
250.921036 168.0
250.95256 28.0
251.043442 180.0
251.116547 160.0
251.219452 396.0
251.275848 120.0
251.313095 92.0
251.386932 176.0
251.481415 280.0
251.507797 176.0
251.540787 88.0
251.572144 176.0
251.617874 92.0
251.684586 76.0
251.713013 228.0
251.752686 92.0
251.803314 288.0
251.845642 32.0
251.867767 188.0
251.889877 128.0
251.943832 144.0
251.990967 188.0
252.036606 112.0
252.104721 72.0
252.132996 196.0
252.160355 184.0
252.197876 328.0
252.237473 148.0
252.303513 128.0
252.387497 192.0
252.442978 236.0
252.465118 152.0
252.522049 176.0
252.551392 172.0
252.577759 124.0
252.669449 80.0
252.742279 136.0
252.770554 192.0
252.803619 100.0
252.847916 88.0
252.923874 84.0
252.984024 104.0
253.00618 84.0
253.041992 52.0
253.082169 144.0
253.111679 200.0
253.208847 32.0
253.278519 100.0
253.409012 188.0
253.45546 176.0
253.493958 52.0
253.563034 156.0
253.606415 124.0
253.67717 184.0
253.784195 200.0
253.86232 120.0
253.903625 144.0
253.923004 152.0
253.969528 32.0
254.009521 184.0
254.035141 188.0
254.080551 52.0
254.137665 132.0
254.226257 100.0
254.2995 108.0
254.334427 188.0
254.365738 204.0
254.404739 160.0
254.444183 284.0
254.500519 112.0
254.618073 228.0
254.679428 116.0
254.744049 124.0
254.785355 188.0
254.832809 124.0
254.837204 188.0
254.874313 44.0
254.933762 96.0
255.001434 100.0
255.05661 100.0
255.092148 96.0
255.1306 132.0
255.142334 196.0
255.214417 216.0
255.303467 188.0
255.357529 128.0
255.522949 76.0
255.554764 132.0
255.583389 172.0
255.628296 180.0
255.674881 172.0
255.789978 176.0
255.815735 124.0
255.866669 148.0
255.904877 236.0
255.936707 96.0
255.975174 104.0
256.093628 176.0
256.129852 240.0
256.159668 208.0
256.287231 176.0
256.318939 140.0
256.353241 252.0
256.503815 112.0
256.571747 140.0
256.65683 188.0
256.699707 108.0
256.734924 140.0
256.781219 56.0
256.816284 160.0
256.856995 136.0
256.893585 172.0
256.982178 88.0
257.058746 80.0
257.09967 68.0
257.151306 124.0
257.201172 160.0
257.266968 180.0
257.316956 152.0
257.423309 184.0
257.464203 132.0
257.508911 160.0
257.53125 124.0
257.553619 72.0
257.592163 120.0
257.627106 172.0
257.674438 136.0
257.728241 328.0
257.78299 192.0
257.84436 212.0
257.87793 216.0
257.910309 144.0
257.957123 184.0
257.981812 176.0
258.023376 164.0
258.052155 140.0
258.091095 112.0
258.148071 172.0
258.186462 108.0
258.208832 140.0
258.23764 156.0
258.284271 124.0
258.306152 104.0
258.339996 148.0
258.387146 204.0
258.420624 216.0
258.456848 68.0
258.522369 172.0
258.561707 68.0
258.592773 164.0
258.624786 56.0
258.701599 224.0
258.746429 132.0
258.862122 156.0
259.009033 192.0
259.037842 132.0
259.108337 132.0
259.172424 52.0
259.205719 140.0
259.230103 144.0
259.359894 144.0
259.448059 248.0
259.608368 96.0
259.640442 176.0
259.694977 164.0
259.815796 144.0
259.881042 64.0
259.903503 120.0
259.952271 136.0
260.017334 156.0
260.083221 172.0
260.131348 136.0
260.169891 140.0
260.250153 156.0
260.285461 88.0
260.325439 124.0
260.359161 140.0
260.387177 60.0
260.396484 140.0
260.44809 156.0
260.492004 224.0
260.529572 48.0
260.56955 172.0
260.625946 188.0
260.667725 224.0
260.725586 52.0
260.75177 156.0
260.780212 104.0
260.821991 56.0
260.867004 232.0
260.895935 196.0
260.924866 168.0
260.99881 204.0
261.028412 80.0
261.063141 176.0
261.089874 196.0
261.121399 168.0
261.159271 168.0
261.223785 164.0
261.297943 156.0
261.366333 124.0
261.409363 136.0
261.455627 40.0
261.511597 164.0
261.536072 156.0
261.584564 120.0
261.641541 184.0
261.664856 168.0
261.699463 96.0
261.755005 96.0
261.832275 128.0
261.933197 144.0
261.963074 100.0
262.050598 452.0
262.085815 80.0
262.093781 136.0
262.147797 120.0
262.177002 188.0
262.371094 184.0
262.40802 204.0
262.467133 100.0
262.53537 204.0
262.582794 152.0
262.596466 228.0
262.647614 108.0
262.688049 280.0
262.718719 140.0
262.749451 120.0
262.788483 148.0
262.848877 220.0
262.914825 108.0
262.948761 80.0
262.9953 248.0
263.059723 7712.0
263.106323 460.0
263.137451 176.0
263.189209 220.0
263.201569 172.0
263.210663 152.0
263.226196 84.0
263.260956 144.0
263.291168 172.0
263.355316 132.0
263.396515 236.0
263.416992 408.0
263.459564 216.0
263.485291 176.0
263.522064 140.0
263.561371 84.0
263.588562 224.0
263.615723 240.0
263.667938 260.0
263.699219 228.0
263.7435 108.0
263.786652 256.0
263.822388 228.0
263.84613 392.0
263.876404 112.0
263.927673 604.0
263.952362 140.0
263.976349 236.0
264.050934 15948.0
264.149963 140.0
264.166962 232.0
264.191071 548.0
264.23999 332.0
264.270111 264.0
264.302277 432.0
264.324646 384.0
264.334961 184.0
264.346741 328.0
264.35788 244.0
264.387054 392.0
264.396393 280.0
264.445709 552.0
264.497345 272.0
264.510315 200.0
264.523926 332.0
264.576935 948.0
264.620941 708.0
264.633759 288.0
264.651398 608.0
264.69455 444.0
264.720398 304.0
264.737427 392.0
264.79071 564.0
264.847931 632.0
264.856812 532.0
264.868225 780.0
264.88028 768.0
264.890686 408.0
264.924438 604.0
264.952148 612.0
264.964172 1088.0
265.011505 1196.0
265.05954 449332.0
265.172028 116.0
265.268341 692.0
265.28302 344.0
265.291809 564.0
265.362152 1296.0
265.405212 468.0
265.444305 592.0
265.453217 388.0
265.531372 220.0
265.552002 408.0
265.593781 14108.0
265.628174 424.0
265.700958 148.0
265.751129 280.0
265.805664 300.0
265.852875 480.0
265.908661 232.0
265.955475 464.0
265.978912 244.0
266.012604 336.0
266.061646 143892.0
266.165436 572.0
266.225006 204.0
266.254242 224.0
266.300507 196.0
266.324249 92.0
266.357971 92.0
266.396301 320.0
266.427429 256.0
266.459106 168.0
266.485382 292.0
266.511841 164.0
266.548584 124.0
266.553314 132.0
266.624512 584.0
266.694427 160.0
266.744781 224.0
266.800262 184.0
266.836975 220.0
266.860107 184.0
266.893646 348.0
266.921906 184.0
266.930725 152.0
266.964752 72.0
267.003784 84.0
267.063446 8816.0
267.109894 280.0
267.155701 196.0
267.191162 84.0
267.224854 156.0
267.294586 224.0
267.336639 152.0
267.365356 84.0
267.405792 252.0
267.434204 164.0
267.474609 332.0
267.501556 192.0
267.545319 220.0
267.581543 156.0
267.620758 216.0
267.655609 248.0
267.715546 272.0
267.741943 480.0
267.771759 312.0
267.808929 424.0
267.860077 208.0
267.881714 256.0
267.920471 304.0
267.962738 556.0
268.012177 416.0
268.05957 520.0
268.099396 192.0
268.132843 348.0
268.15799 152.0
268.167938 132.0
268.184113 268.0
268.227142 172.0
268.256165 120.0
268.294159 212.0
268.349945 148.0
268.406555 92.0
268.435669 68.0
268.468292 176.0
268.541382 72.0
268.549622 84.0
268.572723 192.0
268.621582 164.0
268.679138 92.0
268.713745 128.0
268.750824 220.0
268.779968 80.0
268.820038 72.0
268.867462 260.0
268.897888 212.0
268.972992 160.0
269.003448 132.0
269.046021 108.0
269.055695 68.0
269.090179 132.0
269.178711 176.0
269.214844 96.0
269.262207 80.0
269.315186 52.0
269.41748 72.0
269.442352 60.0
269.468384 100.0
269.515747 56.0
269.546906 56.0
269.569763 76.0
269.616852 104.0
269.683289 60.0
269.710297 44.0
269.74649 56.0
269.77829 60.0
269.786713 96.0
269.860352 80.0
269.885162 140.0
269.95401 104.0
269.979187 84.0
270.033295 132.0
270.099426 84.0
270.146942 68.0
270.181213 56.0
270.213928 84.0
270.253174 48.0
270.29245 72.0
270.338257 76.0
270.499542 44.0
270.542023 96.0
270.594116 120.0
270.629608 60.0
270.657318 60.0
270.711456 60.0
270.776947 68.0
270.835907 80.0
270.90799 84.0
270.934204 72.0
271.029205 80.0
271.072449 40.0
271.114227 76.0
271.137085 100.0
271.174622 128.0
271.199829 60.0
271.31662 156.0
271.350159 104.0
271.361206 96.0
271.415985 92.0
271.52948 100.0
271.658691 48.0
271.688354 92.0
271.747284 76.0
271.793213 96.0
271.819458 68.0
271.881805 52.0
271.908752 96.0
271.979279 80.0
272.05249 28.0
272.097687 52.0
272.13382 88.0
272.246216 196.0
272.28891 68.0
272.31189 100.0
272.550323 112.0
272.591156 68.0
272.614166 48.0
272.673309 40.0
272.709473 96.0
272.756836 48.0
272.933685 156.0
273.026733 40.0
273.192841 88.0
273.301422 44.0
273.350769 72.0
273.403412 48.0
273.43634 112.0
273.472534 56.0
273.551544 44.0
273.726044 72.0
273.82431 124.0
273.979645 52.0
274.238464 104.0
274.269653 84.0
274.325256 192.0
274.3797 72.0
274.45755 80.0
274.503723 36.0
274.632355 72.0
274.665344 64.0
274.704926 32.0
274.7742 48.0
274.937286 92.0
274.972198 40.0
275.005188 96.0
275.211121 116.0
275.445831 108.0
275.721893 80.0
275.870636 72.0
276.009491 112.0
276.035339 584.0
276.176636 92.0
276.224487 56.0
276.274109 72.0
276.322937 136.0
276.429138 56.0
276.479248 36.0
276.61496 48.0
276.64621 236.0
276.684479 64.0
276.856659 52.0
276.899139 120.0
276.956024 132.0
277.029907 92.0
277.075256 108.0
277.124969 100.0
277.185242 64.0
277.340363 92.0
277.371124 128.0
277.411896 132.0
277.446442 88.0
277.476288 224.0
277.502808 112.0
277.542603 96.0
277.585693 88.0
277.655365 56.0
277.685211 52.0
277.731628 64.0
277.784698 68.0
277.856628 124.0
277.887543 68.0
277.935577 80.0
277.973816 76.0
278.06012 64.0
278.096619 44.0
278.121887 92.0
278.196198 60.0
278.223785 64.0
278.309082 92.0
278.335907 108.0
278.364136 96.0
278.37384 56.0
278.415344 40.0
278.448547 36.0
278.485107 80.0
278.598022 52.0
278.680115 148.0
278.754181 76.0
278.843933 60.0
278.883667 88.0
278.960266 108.0
279.013458 52.0
279.043365 60.0
279.15976 60.0
279.185791 76.0
279.22818 56.0
279.282654 92.0
279.349335 68.0
279.446106 92.0
279.518036 96.0
279.596405 48.0
279.672119 64.0
279.858551 132.0
279.888519 60.0
279.921814 104.0
279.951782 108.0
279.988403 52.0
280.068207 92.0
280.144958 84.0
280.213104 80.0
280.321564 64.0
280.374878 72.0
280.461517 100.0
280.513702 80.0
280.647034 68.0
280.661377 72.0
280.961731 32.0
281.048492 84.0
281.071838 44.0
281.114716 132.0
281.308807 96.0
281.382263 68.0
281.405609 72.0
281.523834 80.0
281.575928 112.0
281.629364 92.0
281.672791 80.0
281.74295 100.0
281.797089 116.0
281.966187 64.0
282.042419 84.0
282.069305 152.0
282.202362 140.0
282.210236 64.0
282.222565 128.0
282.24762 148.0
282.304474 64.0
282.351288 160.0
282.434814 128.0
282.485077 72.0
282.656403 168.0
282.696228 112.0
282.722656 136.0
282.778534 80.0
282.816376 92.0
282.851135 164.0
282.993805 148.0
283.068909 29024.0
283.160553 180.0
283.20401 52.0
283.210083 144.0
283.353851 96.0
283.392365 44.0
283.43927 56.0
283.469452 48.0
283.527954 104.0
283.625061 28.0
283.667175 36.0
283.690643 40.0
283.835663 112.0
283.895172 48.0
283.996979 68.0
284.06955 3428.0
284.153473 52.0
284.180298 84.0
284.267548 92.0
284.301117 52.0
284.358154 44.0
284.432007 28.0
284.542786 112.0
284.643524 56.0
284.703979 92.0
284.75769 40.0
284.828247 136.0
284.873138 152.0
284.982788 68.0
285.023102 76.0
285.076996 244.0
285.275177 124.0
285.382751 76.0
285.42984 56.0
285.519165 84.0
285.645081 88.0
285.673523 96.0
285.715729 72.0
285.75946 60.0
285.806549 128.0
285.941162 48.0
286.061523 88.0
286.111511 80.0
286.220581 100.0
286.260986 84.0
286.308136 60.0
286.641663 64.0
286.713959 96.0
286.84433 60.0
286.884308 112.0
287.059662 72.0
287.197937 136.0
287.231659 148.0
287.383484 56.0
287.515076 48.0
287.690582 64.0
287.852661 108.0
288.122864 136.0
288.2276 52.0
288.383057 72.0
288.410095 52.0
288.450684 84.0
288.738068 48.0
288.771881 68.0
288.849701 44.0
289.042542 72.0
289.177917 132.0
289.408112 40.0
290.194183 112.0
290.947357 40.0
291.188477 96.0
291.299347 108.0
291.64035 64.0
291.711731 96.0
291.783142 76.0
291.966736 40.0
292.534973 84.0
292.855072 52.0
293.199158 48.0
294.041809 180.0
294.430786 76.0
294.809998 108.0
295.251007 100.0
295.952515 48.0
296.007294 64.0
296.161407 60.0
296.884583 64.0
296.936005 76.0
297.141846 100.0
297.231049 60.0
297.351013 92.0
297.443817 76.0
297.914276 44.0
298.340424 128.0
298.505463 96.0
298.584564 80.0
298.942352 52.0
299.324463 104.0
299.493195 68.0
299.758484 128.0
299.944611 56.0
300.413574 116.0
300.762115 76.0
300.820801 104.0
301.369904 48.0
301.760498 88.0
302.466217 32.0
302.635864 48.0
302.795135 96.0
303.075745 80.0
303.828125 28.0
303.855865 72.0
303.921783 52.0
304.310547 68.0
304.435547 52.0
304.501526 96.0
304.577942 116.0
304.661316 84.0
305.784454 36.0
306.076141 164.0
306.275421 80.0
306.365967 64.0
306.501862 80.0
306.986389 52.0
307.366638 116.0
307.589996 100.0
308.138275 128.0
309.866638 76.0
311.273163 92.0
311.62442 80.0
312.053223 40.0
313.108887 56.0
313.140594 72.0
313.510529 116.0
313.835114 92.0
313.905334 72.0
314.113434 80.0
314.303955 76.0
314.529816 112.0
314.614532 116.0
314.921753 80.0
314.981812 88.0
315.794769 52.0
316.771729 92.0
317.290466 128.0
317.494781 44.0
317.88147 64.0
318.051819 96.0
318.641327 72.0
319.270508 60.0
320.067627 76.0
320.192261 88.0
320.36322 44.0
320.468994 64.0
321.343658 72.0
321.586304 108.0
321.664856 44.0
321.721954 80.0
321.993347 60.0
322.093353 56.0
322.54715 60.0
323.240997 64.0
323.545227 84.0
323.734375 68.0
324.032318 48.0
324.082458 40.0
324.243713 124.0
324.422943 56.0
324.8461 52.0
324.90271 128.0
325.255188 64.0
325.603455 36.0
325.725586 148.0
325.951935 44.0
326.163971 68.0
326.617035 88.0
326.642212 48.0
326.922852 32.0
327.203613 40.0
328.180023 60.0
329.201202 60.0
329.558838 108.0
329.996185 96.0
330.802948 72.0
330.933289 64.0
331.266479 92.0
331.487488 48.0
332.688019 84.0
332.869568 68.0
333.752563 128.0
334.141754 48.0
334.427338 104.0
334.822449 132.0
335.821075 72.0
336.591125 88.0
336.682404 96.0
337.265381 100.0
337.442474 100.0
337.570435 52.0
338.218018 96.0
338.287567 112.0
338.759979 80.0
339.375671 36.0
339.944244 64.0
340.656555 40.0
340.972534 44.0
342.157013 88.0
343.317688 84.0
343.564819 64.0
344.040894 96.0
344.147949 96.0
344.469269 108.0
344.535767 92.0
345.456299 96.0
346.018799 60.0
346.53363 40.0
346.727112 152.0
346.967255 56.0
347.122986 56.0
347.620056 92.0
347.842773 104.0
348.132355 32.0
348.288361 80.0
348.477814 52.0
348.689636 56.0
349.042786 120.0
349.355225 112.0
349.909729 96.0
351.079773 52.0
351.240143 48.0
351.620728 48.0
352.042603 40.0
352.513275 64.0
353.863617 124.0
354.339264 44.0
354.436676 132.0
355.103973 168.0
355.467896 124.0
356.008453 80.0
356.098602 40.0
356.256348 52.0
356.74115 76.0
357.098358 108.0
357.305237 64.0
357.824615 80.0
358.15979 132.0
359.769989 84.0
360.204254 80.0
360.642578 48.0
361.009308 68.0
361.436768 84.0
361.762268 44.0
362.235626 56.0
363.016388 136.0
363.380524 104.0
363.706909 76.0
363.972656 88.0
364.531067 64.0
364.656464 44.0
365.394196 60.0
365.420807 60.0
365.847076 96.0
366.380249 96.0
366.94812 96.0
367.237915 72.0
367.3638 72.0
367.669067 60.0
368.035522 92.0
368.532074 68.0
369.514679 52.0
369.767242 76.0
369.88974 80.0
370.467957 124.0
370.632721 76.0
370.877991 96.0
371.092682 116.0
371.43399 88.0
371.480011 148.0
371.913635 96.0
372.572845 60.0
372.661316 92.0
373.246735 84.0
373.469788 108.0
373.704468 100.0
374.09317 108.0
374.397369 96.0
374.428162 48.0
374.782562 76.0
375.241241 76.0
375.349213 60.0
375.391632 56.0
375.534302 116.0
375.734894 72.0
375.765778 84.0
375.896973 116.0
376.147827 44.0
377.140533 48.0
377.600647 40.0
377.759247 56.0
378.037811 88.0
378.246826 72.0
378.428772 48.0
379.4245 104.0
379.498169 100.0
379.85495 116.0
379.967468 64.0
380.041168 100.0
380.103271 68.0
380.650604 84.0
380.864197 56.0
381.167236 60.0
381.412079 144.0
381.723114 56.0
382.314423 36.0
382.594666 52.0
383.077576 68.0
383.775177 88.0
383.841492 100.0
384.00528 80.0
384.137909 96.0
384.777924 68.0
385.074707 84.0
385.10202 96.0
385.348145 80.0
385.492706 68.0
385.73114 76.0
385.899231 80.0
386.110413 108.0
386.356842 68.0
386.528992 92.0
387.120087 60.0
387.5784 88.0
387.89978 72.0
388.154602 52.0
389.225861 76.0
391.683929 72.0
391.731201 80.0
392.543121 68.0
392.629852 68.0
392.732422 52.0
393.016449 60.0
393.419037 92.0
393.707275 112.0
394.26825 52.0
394.430298 56.0
395.142151 52.0
396.742157 40.0
396.845245 60.0
396.912659 52.0
396.96817 76.0
397.214081 76.0
399.881531 84.0
400.557129 104.0
400.63681 76.0
400.724457 76.0
401.059204 84.0
401.306366 60.0
401.473846 56.0
402.520966 112.0
403.390381 84.0
403.650269 72.0
404.022247 32.0
404.362366 56.0
404.470428 48.0
404.974945 48.0
405.083099 56.0
405.235321 52.0
405.612061 112.0
405.896698 32.0
406.390076 76.0
406.823517 68.0
407.329498 44.0
407.494202 64.0
408.334351 44.0
408.406769 132.0
408.515381 28.0
408.560425 80.0
408.877502 68.0
409.46933 68.0
409.682831 92.0
410.36795 104.0
410.529266 64.0
410.557495 32.0
411.534027 56.0
411.620819 64.0
411.731903 76.0
412.374268 136.0
413.110199 96.0
414.679108 96.0
415.005615 72.0
415.179993 92.0
415.877838 60.0
416.340668 68.0
417.15329 80.0
417.275269 64.0
417.527374 48.0
417.669739 40.0
417.775513 40.0
418.07254 100.0
418.219055 92.0
418.394073 80.0
418.561035 96.0
418.789093 128.0
419.135376 104.0
419.286163 88.0
419.783508 76.0
420.093475 92.0
420.730133 136.0
420.966949 44.0
421.265106 112.0
421.346802 60.0
421.714569 64.0
422.94986 40.0
423.432983 52.0
423.740234 88.0
423.859039 64.0
424.900482 48.0
426.050018 52.0
427.345123 96.0
427.567322 44.0
427.81842 72.0
429.417206 44.0
429.516205 128.0
429.891632 36.0
430.011322 68.0
430.044342 120.0
430.192963 72.0
430.395264 96.0
430.651306 56.0
433.062683 36.0
433.133087 96.0
433.812683 104.0
433.932922 92.0
434.447174 92.0
434.526001 68.0
434.675385 116.0
434.798828 80.0
435.206696 76.0
436.640381 56.0
437.002289 68.0
437.064697 60.0
437.110474 96.0
437.611694 72.0
438.798462 92.0
439.018402 120.0
439.98642 36.0
440.019836 80.0
440.374786 56.0
440.750763 68.0
441.302521 56.0
441.398682 48.0
441.668549 68.0
441.796021 100.0
442.109406 80.0
442.591248 92.0
443.261444 88.0
443.341064 52.0
443.714142 84.0
443.751862 64.0
445.28772 60.0
445.371735 100.0
446.170166 36.0
446.536011 44.0
446.826263 32.0
446.893555 88.0
446.994568 60.0
447.024017 56.0
447.066101 88.0
447.183014 92.0
447.314423 68.0
447.45755 68.0
447.950287 40.0
448.135651 100.0
448.59082 96.0
448.67514 108.0
449.535583 52.0
449.843689 68.0
450.202606 92.0
450.460236 32.0
451.136383 44.0
451.20401 84.0
451.8638 72.0
452.710358 52.0
452.985687 48.0
453.205994 124.0
453.278015 80.0
454.231964 108.0
454.274384 64.0
454.554413 92.0
455.084991 104.0
455.628632 36.0
455.849579 80.0
456.079071 80.0
457.146576 108.0
458.219604 80.0
458.769379 56.0
459.264038 116.0
459.473053 52.0
459.639465 72.0
460.348083 84.0
460.988861 48.0
461.112793 60.0
461.330811 72.0
461.587341 64.0
463.008118 80.0
463.247986 60.0
463.595032 52.0
463.753601 132.0
464.032257 56.0
464.61554 84.0
464.86438 88.0
464.984558 92.0
465.164825 32.0
465.83902 56.0
465.985107 84.0
467.171692 76.0
467.791382 64.0
468.566559 68.0
468.631195 48.0
468.856476 100.0
469.057831 60.0
469.89447 44.0
469.97644 128.0
470.399384 56.0
470.603333 100.0
470.83548 40.0
471.56134 128.0
472.127686 88.0
473.776855 72.0
474.509277 80.0
475.233612 52.0
475.372467 92.0
475.897675 64.0
476.384094 124.0
476.462311 100.0
476.844696 52.0
477.018555 56.0
477.422913 88.0
477.50119 48.0
478.07547 72.0
478.214752 52.0
478.375793 100.0
478.82428 52.0
478.946259 84.0
479.024658 40.0
480.105591 120.0
480.162292 124.0
480.629059 68.0
481.663757 64.0
483.810913 72.0
484.603638 36.0
484.75946 100.0
485.177795 92.0
485.230408 140.0
485.568054 96.0
485.7742 140.0
485.839996 48.0
485.94458 96.0
486.129608 92.0
486.594879 44.0
487.454407 140.0
488.137146 72.0
488.335052 116.0
488.686981 84.0
488.752991 60.0
489.316376 112.0
489.562958 64.0
489.809601 48.0
489.905731 92.0
489.93399 100.0
490.172241 64.0
490.589569 80.0
490.638062 64.0
490.730652 68.0
490.840881 124.0
490.898224 72.0
491.586395 76.0
492.147003 28.0
492.425201 64.0
492.659332 64.0
493.27359 72.0
493.967834 64.0
494.419159 112.0
494.450134 28.0
494.906097 40.0
495.579346 36.0
495.650238 32.0
496.075714 52.0
496.253052 96.0
496.32843 48.0
496.73645 52.0
496.834045 76.0
497.526367 32.0
497.726166 56.0
497.761688 68.0
498.134766 80.0
498.259155 88.0
498.459106 28.0
498.605774 52.0
498.694641 52.0
500.727966 76.0
501.293762 72.0
501.373962 56.0
502.45752 56.0
502.667236 76.0
503.311951 92.0
503.515442 40.0
503.761108 44.0
504.038116 64.0
504.261566 92.0
504.578949 36.0
505.379547 52.0
506.050934 168.0
507.06781 84.0
507.381592 88.0
507.695465 52.0
508.072235 52.0
508.301056 64.0
508.655609 88.0
509.315704 36.0
509.365112 80.0
509.967224 84.0
510.15152 68.0
511.303009 68.0
511.431946 68.0
511.447845 44.0
511.457947 76.0
511.771179 88.0
512.793762 84.0
512.856873 84.0
515.022705 72.0
515.081421 52.0
515.433838 52.0
516.966797 84.0
517.143311 108.0
517.967407 60.0
518.166748 48.0
518.225647 72.0
519.236511 92.0
519.948792 40.0
520.616699 68.0
520.747864 44.0
520.961365 32.0
521.202209 132.0
522.011292 72.0
522.09314 112.0
522.807434 40.0
522.857483 64.0
525.226746 80.0
525.340759 64.0
525.42749 136.0
526.180481 56.0
526.687378 96.0
528.657959 68.0
529.298828 44.0
529.449951 84.0
530.366272 104.0
530.503784 40.0
530.893555 76.0
531.118286 76.0
531.425659 96.0
531.59082 32.0
531.664246 36.0
533.211975 76.0
534.407593 88.0
534.605469 60.0
535.424927 44.0
535.553894 80.0
536.240417 52.0
536.5354 124.0
538.829163 120.0
538.912354 72.0
539.58252 76.0
541.697449 92.0
541.813293 48.0
542.526978 56.0
542.89325 60.0
543.570557 104.0
544.280762 120.0
546.30719 40.0
546.846985 64.0
549.318604 128.0
551.114014 128.0
551.917969 56.0
553.490173 80.0
555.0271 60.0
556.960693 136.0
557.750061 40.0
558.224915 96.0
559.151733 48.0
559.812622 52.0
560.079285 68.0
560.993469 56.0
562.639893 64.0
562.923218 64.0
563.645935 96.0
564.028748 120.0
564.288757 44.0
564.421143 40.0
566.522583 56.0
566.925354 100.0
567.532104 52.0
568.884216 64.0
569.525269 76.0
569.724792 76.0
570.081177 72.0
570.171448 44.0
571.479187 52.0
571.717102 88.0
572.72168 76.0
572.940796 108.0
573.202881 88.0
574.494995 48.0
575.860168 84.0
575.989136 60.0
576.395203 80.0
576.811035 40.0
577.762695 76.0
578.949768 56.0
579.184448 92.0
580.209961 96.0
580.286682 68.0
580.348999 64.0
581.490723 108.0
582.210876 44.0
582.768066 60.0
582.95166 40.0
584.354736 44.0
585.640076 64.0
585.837585 56.0
586.285706 72.0
586.796631 60.0
586.941284 64.0
587.380188 128.0
587.881958 56.0
588.345337 96.0
588.731628 60.0
588.919983 44.0
589.726868 84.0
590.631042 64.0
591.371338 60.0
591.545593 28.0
591.894226 112.0
592.5578 76.0
593.003601 100.0
594.138306 72.0
595.818115 72.0
596.046448 76.0
598.312988 80.0
598.965576 76.0
600.75946 60.0
602.19458 96.0
602.854126 96.0
603.553162 48.0
603.597168 92.0
603.875916 92.0
604.878967 80.0
605.608582 92.0
605.843689 48.0
605.920837 96.0
606.201355 96.0
607.255432 48.0
607.549744 48.0
608.762085 92.0
609.779053 56.0
610.182129 80.0
611.721985 36.0
612.061707 96.0
613.032104 152.0
613.268677 36.0
614.777893 76.0
614.871643 72.0
615.409729 44.0
615.839355 68.0
616.437134 84.0
617.282471 44.0
618.964905 60.0
619.623657 72.0
620.173767 68.0
621.770813 88.0
622.584961 40.0
624.426331 40.0
624.513367 40.0
629.572083 60.0
631.846436 92.0
631.951477 108.0
632.742249 52.0
635.328308 132.0
635.393555 96.0
635.589233 76.0
635.759827 84.0
635.940491 32.0
636.322021 124.0
637.723572 112.0
637.949768 36.0
638.392212 96.0
638.472717 108.0
639.499084 64.0
640.324768 32.0
640.586731 40.0
640.984741 64.0
642.335938 76.0
642.401489 88.0
643.521912 76.0
644.415894 52.0
646.08429 64.0
646.686462 68.0
651.635864 76.0
653.323792 84.0
653.379761 60.0
654.204163 76.0
654.285645 72.0
654.789734 84.0
656.894897 32.0
658.380188 52.0
658.799011 68.0
660.833801 68.0
661.427429 32.0
661.668091 64.0
662.185242 64.0
662.871765 88.0
663.092102 88.0
663.748291 108.0
664.738342 88.0
665.066772 36.0
667.544189 76.0
667.815735 92.0
670.797119 40.0
671.462219 88.0
671.720154 96.0
672.093994 96.0
673.118835 64.0
675.439392 44.0
675.992981 128.0
676.738342 60.0
677.976379 36.0
678.442871 48.0
679.423096 64.0
681.000305 52.0
681.177734 100.0
682.300232 52.0
683.720276 104.0
684.121094 80.0
686.856873 64.0
687.477783 60.0
688.419373 88.0
689.613831 76.0
689.92749 72.0
690.816345 104.0
693.230225 184.0
695.191528 92.0
695.453979 108.0
698.443726 60.0
698.627869 100.0
699.654114 76.0
700.307068 80.0
700.707397 60.0
700.897095 52.0
701.503235 44.0
703.407532 40.0
703.608154 56.0
704.833496 44.0
705.134766 36.0
706.160461 112.0
706.94873 140.0
709.01416 264.0
711.841736 132.0
714.382324 88.0
714.419556 56.0
715.042114 96.0
715.207092 88.0
716.703613 168.0
723.063782 72.0
723.406372 112.0
726.702332 36.0
727.727478 68.0
728.72113 48.0
734.524658 80.0
735.549927 96.0
736.959473 92.0
740.523254 72.0
741.900818 48.0
744.619324 44.0
744.673645 96.0
745.513611 112.0
746.728149 80.0
748.044922 84.0
749.046875 88.0
750.785583 60.0
755.225952 44.0
756.572083 136.0
757.10321 68.0
758.089294 84.0
759.619019 40.0
759.750671 80.0
761.11731 48.0
761.529236 176.0
762.188477 80.0
764.690674 256.0
765.219116 60.0
765.483459 76.0
766.149902 128.0
767.627075 148.0
767.720825 108.0
767.814575 136.0
768.057251 128.0
768.686218 156.0
769.585938 72.0
769.873108 124.0
770.044312 128.0
770.121643 96.0
770.361084 136.0
773.61084 192.0
773.749268 120.0
774.341736 52.0
776.580933 88.0
777.624023 64.0
777.768311 64.0
779.16217 72.0
782.042725 104.0
782.354431 48.0
782.488098 92.0
782.900146 96.0
783.696716 76.0
783.953003 60.0
784.460205 148.0
785.028931 32.0
785.542053 120.0
786.323242 48.0
789.049255 52.0
789.166626 152.0
789.530151 72.0
789.653137 104.0
790.45874 56.0
791.477539 220.0
792.043213 104.0
792.306458 152.0
792.586609 68.0
792.637024 44.0
793.382507 112.0
793.831055 64.0
794.032959 76.0
794.072205 132.0
794.229248 108.0
795.065247 60.0
796.463318 192.0
798.374268 68.0
800.98584 68.0
801.30127 136.0
801.408325 52.0
802.140991 76.0
803.861206 116.0
804.459534 120.0
804.668396 188.0
805.684998 68.0
806.826599 72.0
807.838867 132.0
807.968994 36.0
809.242432 52.0
812.087219 148.0
813.102844 76.0
815.317749 132.0
815.613281 68.0
816.716431 68.0
816.824463 116.0
818.810974 44.0
818.970459 36.0
822.254578 156.0
822.414368 48.0
822.819641 48.0
825.648193 176.0
826.889709 180.0
829.753845 104.0
831.26239 40.0
831.681335 112.0
831.968323 80.0
832.146301 32.0
832.519592 168.0
832.766541 60.0
833.823669 128.0
834.530762 100.0
834.640015 72.0
836.504089 104.0
839.477112 68.0
840.059631 60.0
840.705872 56.0
841.184937 168.0
841.941345 80.0
842.079956 60.0
842.755798 148.0
842.854065 88.0
844.519043 60.0
845.26532 80.0
846.02356 104.0
847.129639 204.0
847.315063 100.0
848.700256 92.0
848.851074 68.0
853.467407 172.0
854.738342 128.0
856.301453 60.0
856.843201 80.0
859.18689 64.0
859.496155 60.0
859.86377 52.0
861.341003 160.0
863.006653 156.0
863.702576 68.0
865.089417 64.0
865.551941 44.0
866.243042 80.0
866.928589 176.0
869.332947 148.0
869.843567 192.0
870.818298 88.0
870.859436 96.0
871.211853 132.0
871.323486 140.0
872.875183 108.0
873.722168 128.0
875.658813 160.0
875.931335 108.0
876.071167 40.0
876.501282 76.0
876.813599 44.0
876.925598 188.0
878.393799 72.0
879.143127 52.0
879.29657 40.0
880.040344 60.0
880.164368 48.0
881.026672 60.0
881.78302 84.0
882.049011 132.0
885.735535 124.0
886.008057 124.0
887.52533 64.0
887.703247 48.0
889.803711 60.0
891.359924 32.0
894.613342 136.0
895.155151 164.0
896.054565 92.0
897.437317 136.0
897.926331 100.0
898.272278 52.0
898.492981 152.0
899.012146 192.0
899.238892 52.0
899.985107 136.0
901.27533 48.0
904.157715 76.0
904.726318 148.0
907.152588 176.0
907.326416 156.0
907.500305 168.0
908.261902 88.0
909.377991 200.0
909.810181 68.0
910.30249 80.0
911.053284 176.0
914.607239 232.0
914.817932 68.0
917.354126 88.0
918.300781 132.0
919.966187 124.0
920.062805 52.0
920.821106 216.0
921.161926 108.0
922.388611 196.0
924.027466 228.0
925.165283 192.0
926.988403 32.0
927.546021 92.0
927.794556 144.0
928.146179 124.0
928.194702 152.0
928.449402 136.0
928.503967 192.0
929.419983 128.0
929.486755 80.0
930.822205 92.0
931.447754 40.0
933.185852 156.0
933.654114 156.0
935.169067 124.0
935.735168 52.0
935.838684 140.0
936.831421 156.0
937.263977 104.0
937.391968 52.0
937.513855 188.0
937.855164 124.0
939.123413 180.0
940.539001 164.0
941.900696 88.0
943.550659 56.0
943.654602 84.0
944.333435 40.0
944.712646 68.0
944.908447 108.0
950.066956 52.0
950.189636 172.0
950.398254 52.0
950.69281 48.0
950.840088 148.0
952.620789 108.0
952.72522 108.0
953.640808 72.0
954.187927 68.0
956.100952 92.0
957.640137 104.0
958.971008 104.0
959.778625 76.0
959.858765 100.0
961.061584 44.0
961.499695 84.0
962.734436 144.0
963.40155 76.0
963.852539 164.0
964.618958 136.0
965.625183 216.0
966.777527 84.0
968.757385 48.0
969.601624 88.0
971.201233 148.0
971.312866 148.0
972.377991 164.0
972.57251 188.0
973.025696 112.0
973.51001 120.0
975.516907 184.0
976.866333 156.0
978.166931 100.0
981.518799 92.0
982.167419 160.0
982.52301 164.0
983.558899 136.0
984.039612 176.0
984.226929 80.0
984.27063 72.0
984.745239 132.0
985.907349 128.0
986.144836 188.0
987.776794 124.0
988.027039 180.0
988.5401 96.0
988.853027 108.0
990.737854 96.0
991.057373 36.0
991.903442 172.0
992.335999 184.0
993.753479 200.0
993.947998 244.0
994.169617 76.0
995.241089 40.0
995.379211 108.0
995.529907 172.0
995.875366 180.0
996.088928 204.0
997.043945 72.0
997.8797 160.0
999.112732 68.0
999.446167 148.0
1001.070251 60.0
1001.599304 68.0
1001.725281 152.0
1002.714539 152.0
1006.240723 96.0
1006.499634 96.0
1006.884827 128.0
1009.166077 76.0
1010.083069 56.0
1011.038513 124.0
1011.6651 80.0
1012.19696 56.0
1012.475586 100.0
1013.406799 152.0
1014.135559 116.0
1014.395447 72.0
1014.547607 104.0
1014.959717 220.0
1015.397278 112.0
1016.07605 136.0
1016.164856 204.0
1017.796082 80.0
1018.196167 76.0
1018.837708 156.0
1019.136353 116.0
1019.180847 144.0
1019.88623 192.0
1020.23584 224.0
1020.566467 108.0
1020.801758 168.0
1020.890808 152.0
1021.316895 108.0
1021.603149 56.0
1022.894958 72.0
1023.213318 60.0
1023.601685 160.0
1023.754517 76.0
1023.811829 40.0
1024.206787 68.0
1025.366333 192.0
1025.997437 128.0
1026.277954 52.0
1028.019409 84.0
1028.0896 184.0
1028.306519 52.0
1028.491699 40.0
1028.542725 100.0
1028.60022 180.0
1028.938477 256.0
1029.034302 84.0
1029.085327 84.0
1030.401123 156.0
1030.509644 100.0
1031.628174 164.0
1031.960571 48.0
1034.206055 100.0
1036.075928 148.0
1036.35144 188.0
1036.806396 72.0
1036.998657 68.0
1038.056519 112.0
1038.235962 212.0
1038.922363 48.0
1039.089111 212.0
1039.75647 136.0
1040.757935 80.0
1041.149658 52.0
1041.599243 200.0
1041.74707 56.0
1043.540039 140.0
1043.668701 36.0
1044.163818 112.0
1045.334717 148.0
1045.399048 112.0
1045.740112 56.0
1045.933228 132.0
1046.087769 192.0
1046.261597 64.0
1046.931274 172.0
1047.974731 88.0
1048.825439 48.0
1048.973755 188.0
1049.102661 164.0
1049.312988 136.0
1049.618408 180.0
1049.663574 232.0
1051.760376 168.0
1051.889404 148.0
1053.975586 132.0
1055.682129 56.0
1055.811401 112.0
1056.005493 156.0
1056.2771 80.0
1058.192749 76.0
1058.270386 216.0
1058.516479 52.0
1059.131714 132.0
1060.959229 76.0
1061.153687 132.0
1062.139404 144.0
1062.359985 72.0
1062.794678 112.0
1063.463135 204.0
1063.761719 104.0
1064.118774 156.0
1064.599243 184.0
1064.735596 132.0
1065.313721 100.0
1065.775024 128.0
1066.028442 148.0
1066.730469 124.0
1067.068481 80.0
1067.419556 176.0
1067.530151 144.0
1068.661987 96.0
1068.89624 192.0
1069.846436 100.0
1070.022217 172.0
1070.452026 68.0
1071.077271 148.0
1071.363892 156.0
1072.276123 92.0
1072.36084 104.0
1072.543335 36.0
1072.602051 172.0
1072.71936 196.0
1073.906128 232.0
1074.454102 92.0
1075.237061 100.0
1075.400269 56.0
1075.909424 132.0
1076.980347 52.0
1077.81665 196.0
1078.164551 184.0
1078.247925 120.0
1078.914673 84.0
1079.352783 104.0
1080.471191 116.0
1080.66748 124.0
1081.060059 132.0
1081.897949 164.0
1082.939087 124.0
1082.991455 52.0
1083.048096 212.0
1083.469727 176.0
1084.334595 104.0
1084.53125 144.0
1084.839355 204.0
1086.380493 212.0
1087.48291 144.0
1088.067139 128.0
1088.638306 144.0
1089.30835 72.0
1091.016968 76.0
1091.516602 164.0
1092.891357 68.0
1093.700806 140.0
1093.848633 88.0
1095.156006 136.0
1096.434204 136.0
1096.592407 136.0
1097.416382 168.0
1098.207764 72.0
1099.296387 72.0
1099.797974 200.0
1100.686646 192.0
1101.389282 28.0
1102.624756 100.0
1103.332153 104.0
1103.596558 84.0
1103.867676 84.0
1105.005371 84.0
1105.349487 100.0
1105.44873 108.0
1107.593872 120.0
1108.176758 208.0
1109.893555 92.0
1110.138916 100.0
1110.271484 100.0
1110.463867 76.0
1110.888428 156.0
1111.220093 116.0
1111.943359 124.0
1112.341675 128.0
1113.782593 136.0
1113.855713 176.0
1116.195068 124.0
1116.341431 56.0
1116.707153 96.0
1117.359131 76.0
1118.151001 108.0
1118.343994 156.0
1119.182861 176.0
1119.282715 156.0
1119.735596 96.0
1119.908691 196.0
1120.474976 136.0
1120.614868 40.0
1121.034668 112.0
1121.227905 152.0
1121.394531 232.0
1121.487793 88.0
1122.261108 44.0
1122.54126 148.0
1123.014771 188.0
1123.068115 104.0
1123.69519 84.0
1125.917969 216.0
1126.599365 204.0
1127.002197 192.0
1128.771606 164.0
1128.891968 60.0
1129.179565 152.0
1129.571655 96.0
1130.497437 104.0
1133.490845 176.0
1134.717407 184.0
1135.629395 100.0
1136.978027 144.0
1137.36731 200.0
1137.468018 148.0
1137.743164 116.0
1138.03186 160.0
1139.704346 84.0
1140.40332 180.0
1140.95459 156.0
1143.746338 148.0
1144.049194 128.0
1144.998657 52.0
1145.065918 64.0
1145.126587 156.0
1145.470093 72.0
1146.352783 164.0
1146.581909 144.0
1146.730103 148.0
1147.154785 80.0
1147.309814 216.0
1147.491943 152.0
1147.633423 52.0
1147.680664 128.0
1148.065063 64.0
1148.833984 68.0
1149.333252 56.0
1149.630127 52.0
1149.684204 104.0
1150.048584 84.0
1150.892456 184.0
1151.432739 92.0
1151.526611 188.0
1152.052368 180.0
1152.493286 144.0
1152.824463 136.0
1152.979858 56.0
1153.054199 60.0
1154.020874 124.0
1154.670044 176.0
1154.77832 108.0
1154.981201 180.0
1155.312622 124.0
1156.916504 136.0
1157.627441 228.0
1157.850952 220.0
1158.399658 76.0
1158.785767 132.0
1158.867065 160.0
1159.063599 72.0
1159.116089 96.0
1159.504028 176.0
1159.748047 128.0
1159.931152 168.0
1160.21582 152.0
1160.412476 152.0
1160.51416 204.0
1160.642944 112.0
1161.012573 196.0
1161.23291 152.0
1161.416138 112.0
1162.25061 144.0
1162.454102 108.0
1162.779907 160.0
1163.370483 92.0
1163.832153 152.0
1164.008667 64.0
1164.124146 48.0
1164.463623 144.0
1164.884766 128.0
1165.308838 132.0
1165.47583 164.0
1165.76123 176.0
1165.951538 100.0
1166.434204 140.0
1166.978027 116.0
1167.930054 116.0
1168.120605 96.0
1169.835449 132.0
1170.019287 136.0
1170.121338 68.0
1170.243896 64.0
1170.468628 168.0
1170.809082 144.0
1171.367676 108.0
1171.510742 176.0
1173.173462 60.0
1173.432617 56.0
1174.953491 172.0
1175.563599 164.0
1175.622192 120.0
1175.738159 180.0
1176.475342 232.0
1176.782593 124.0
1176.830444 192.0
1177.046631 60.0
1177.130859 192.0
1177.267456 68.0
1177.554321 100.0
1177.943604 184.0
1178.285156 40.0
1178.503784 176.0
1178.831787 140.0
1179.81604 96.0
1180.301514 192.0
1180.958008 108.0
1181.183838 40.0
1181.36853 236.0
1181.963745 128.0
1182.05957 92.0
1183.168335 72.0
1183.469604 136.0
1183.647583 148.0
1183.955811 72.0
1184.325684 136.0
1184.585938 52.0
1184.7229 84.0
1185.28479 80.0
1185.880981 40.0
1186.114014 184.0
1186.484253 104.0
1186.737915 72.0
1187.547119 188.0
1188.123291 100.0
1188.480103 124.0
1188.974243 92.0
1189.557617 152.0
1190.052002 44.0
1190.629883 144.0
1191.404907 148.0
1191.714111 164.0
1191.989014 44.0
1192.19519 88.0
1192.343018 100.0
1193.019897 64.0
1193.630371 244.0
1194.354004 196.0
1194.402222 188.0
1194.581055 196.0
1195.454834 152.0
1196.026123 164.0
1197.403198 68.0
1197.630493 136.0
1198.384888 108.0
1198.739624 224.0
1198.911987 92.0
1199.366821 48.0
1199.504639 152.0
1201.587402 124.0
1201.911621 76.0
1202.31189 96.0
1202.988281 164.0
1203.582153 44.0
1204.148438 196.0
1204.631836 112.0
1204.991089 48.0
1205.053345 160.0
1205.412598 112.0
1205.606079 28.0
1205.820312 172.0
1206.193604 96.0
1206.67749 144.0
1206.863159 208.0
1207.002563 128.0
1207.064697 116.0
1207.286011 72.0
1208.543579 172.0
1208.918701 64.0
1209.126343 104.0
1209.230103 88.0
1209.34082 184.0
1209.52771 84.0
1210.704834 164.0
1210.96106 144.0
1211.18103 132.0
1211.300415 176.0
1212.270508 192.0
1212.831787 160.0
1213.032837 84.0
1213.199219 160.0
1213.730713 224.0
1214.509888 208.0
1214.669434 112.0
1214.759521 156.0
1214.884399 144.0
1215.203613 212.0
1215.980835 176.0
1216.161255 88.0
1216.279297 184.0
1216.765137 132.0
1217.084595 176.0
1217.411011 112.0
1217.883179 164.0
1218.374023 164.0
1218.647461 228.0
1219.541016 168.0
1219.821899 148.0
1219.891479 204.0
1219.98877 168.0
1220.037476 136.0
1220.447632 164.0
1220.781372 184.0
1220.864868 152.0
1221.407349 164.0
1221.469971 72.0
1221.755249 164.0
1222.945068 132.0
1223.648193 160.0
1223.77356 176.0
1223.829224 128.0
1224.031128 100.0
1225.048096 152.0
1225.821411 176.0
1226.323242 164.0
1226.678711 52.0
1227.424683 120.0
1229.098877 56.0
1229.782715 120.0
1229.845581 172.0
1230.041016 108.0
1230.257446 148.0
1230.690308 172.0
1231.011475 120.0
1231.35376 236.0
1231.535278 156.0
1231.723877 156.0
1231.786743 72.0
1232.011841 236.0
1232.071167 180.0
1232.317749 152.0
1232.422485 120.0
1232.918701 40.0
1233.460693 148.0
1233.666626 192.0
1234.575562 72.0
1234.981201 172.0
1235.386963 64.0
1235.491821 36.0
1236.12854 156.0
1236.807495 192.0
1236.989502 128.0
1237.213745 124.0
1237.479492 108.0
1237.563599 128.0
1237.682617 128.0
1237.808594 56.0
1237.976685 104.0
1238.200806 176.0
1238.431885 144.0
1238.845215 84.0
1239.517822 112.0
1239.980347 124.0
1240.20459 116.0
1240.5271 172.0
1240.604248 72.0
1241.249268 64.0
1241.358643 196.0
1241.452637 100.0
1241.978638 116.0
1242.03479 164.0
1242.413574 180.0
1242.659058 104.0
1243.311646 104.0
1243.774902 160.0
1244.350586 28.0
1244.743774 96.0
1245.277588 208.0
1245.734131 212.0
1246.211914 136.0
1247.392578 64.0
1247.618652 164.0
1247.779175 116.0
1247.828369 116.0
1247.905762 96.0
1248.151855 116.0
1248.405029 116.0
1248.637085 68.0
1248.693359 92.0
1248.756714 144.0
1249.143555 132.0
1249.293335 148.0
1249.776733 124.0
1250.593018 156.0
1250.860596 148.0
1251.170288 200.0
1251.846191 204.0
1252.480103 132.0
1253.001465 160.0
1253.311401 152.0
1253.600342 192.0
1253.973877 100.0
1254.130249 144.0
1254.196655 156.0
1254.326294 88.0
1254.474365 148.0
1254.523682 64.0
1254.911499 124.0
1256.018677 204.0
1256.180908 144.0
1256.434814 96.0
1256.575928 56.0
1256.764526 100.0
1256.99231 68.0
1257.535645 108.0
1257.634521 212.0
1258.15686 52.0
1258.898315 136.0
1259.216064 132.0
1259.470337 148.0
1259.526855 156.0
1259.880127 140.0
1260.049683 180.0
1260.58667 92.0
1260.848145 92.0
1260.904663 192.0
1261.61853 108.0
1261.816528 168.0
1262.134766 168.0
1262.198364 180.0
1262.940918 196.0
1263.181396 256.0
1263.613037 132.0
1264.78772 136.0
1264.872681 112.0
1265.070923 140.0
1265.240845 224.0
1265.446167 56.0
1265.594849 192.0
1265.800171 140.0
1266.529663 108.0
1266.954712 180.0
1268.329468 136.0
1268.72644 100.0
1268.896606 136.0
1269.144653 76.0
1269.378662 40.0
1270.06665 224.0
1270.123413 144.0
1270.281616 216.0
1270.722046 116.0
1270.895264 140.0
1271.024414 44.0
1271.748291 160.0
1272.507935 168.0
1272.997803 124.0
1273.594482 208.0
1273.658325 140.0
1273.72937 128.0
1274.141357 128.0
1274.219604 60.0
1274.276367 132.0
1275.349487 156.0
1275.434814 152.0
1275.555664 128.0
1275.683594 208.0
1276.159912 68.0
1276.486938 112.0
1276.543945 40.0
1276.828369 160.0
1277.091553 176.0
1277.404541 52.0
1277.532593 112.0
1277.596558 180.0
1277.973633 116.0
1278.151489 120.0
1278.514404 200.0
1279.133667 80.0
1279.710327 148.0
1279.938232 60.0
1280.308472 164.0
1280.73584 80.0
1281.070679 180.0
1281.43396 172.0
1281.740356 164.0
1281.996948 120.0
1282.068237 56.0
1282.388916 112.0
1282.588501 72.0
1282.752441 180.0
1282.814209 140.0
1283.023315 180.0
1283.520752 232.0
1283.622314 116.0
1283.705688 104.0
1283.75061 176.0
1283.871826 180.0
1284.021606 80.0
1284.292603 80.0
1284.976807 128.0
1285.234009 188.0
1285.69104 64.0
1285.755249 104.0
1286.112183 100.0
1286.319214 76.0
1286.933105 100.0
1287.133057 148.0
1287.274414 196.0
1287.583008 120.0
1287.997192 184.0
1288.140137 32.0
1288.397339 176.0
1288.647339 52.0
1289.118896 124.0
1289.633545 132.0
1289.755005 140.0
1289.869385 68.0
1290.434204 144.0
1290.784546 96.0
1291.964722 228.0
1292.544189 116.0
1292.866333 132.0
1292.930664 64.0
1292.998779 180.0
1293.503296 140.0
1293.789673 128.0
1293.911377 140.0
1293.990112 204.0
1294.379395 140.0
1295.221802 108.0
1295.701782 56.0
1295.916748 180.0
1296.213135 168.0
1296.432739 168.0
1296.94873 152.0
1297.285645 108.0
1298.282349 56.0
1299.021118 96.0
1299.25061 112.0
1299.386963 108.0
1299.537598 100.0
1299.767212 180.0
1300.091309 184.0
1300.793579 80.0
1301.446899 168.0
1301.741333 40.0
1302.035767 88.0
1302.366089 72.0
1302.560059 104.0
1303.667725 140.0
1304.449951 60.0
1304.759644 160.0
1305.154541 108.0
1305.233643 80.0
1305.341553 108.0
1305.949951 192.0
1306.218994 148.0
1306.398804 168.0
1306.506714 176.0
1306.974365 96.0
1307.089478 160.0
1307.190308 164.0
1307.514038 148.0
1307.996338 208.0
1308.880737 168.0
1309.011475 132.0
1310.012695 172.0
1310.574585 60.0
1310.663086 160.0
1310.797974 192.0
1311.071777 104.0
1311.266357 184.0
1311.324097 164.0
1311.381714 168.0
1311.929565 164.0
1311.97998 96.0
1312.042358 212.0
1312.109375 136.0
1312.203491 144.0
1312.564087 136.0
1313.040039 176.0
1313.472778 144.0
1314.143677 52.0
1314.728271 128.0
1314.973633 132.0
1315.102905 92.0
1315.270264 116.0
1316.005859 140.0
1316.258667 140.0
1316.381348 168.0
1316.482544 92.0
1317.031372 40.0
1317.580444 132.0
1318.187378 40.0
1318.353516 56.0
1318.43103 220.0
1318.743774 56.0
1318.812256 172.0
1318.866699 120.0
1319.025757 88.0
1319.358276 76.0
1319.575195 100.0
1319.763184 172.0
1319.94397 128.0
1319.994507 168.0
1320.197021 64.0
1320.269287 120.0
1320.327148 208.0
1320.801392 156.0
1321.122803 140.0
1321.607666 144.0
1321.766846 176.0
1321.882568 116.0
1322.128662 100.0
1322.324097 196.0
1322.584595 124.0
1323.026123 196.0
1323.699585 156.0
1323.858887 152.0
1323.924072 200.0
1324.090576 48.0
1324.17749 44.0
1324.373047 144.0
1324.503418 184.0
1324.872925 184.0
1325.032349 124.0
1325.19165 144.0
1325.41626 72.0
1325.575684 136.0
1325.626465 100.0
1325.737793 156.0
1326.017822 120.0
1326.481689 88.0
1326.765625 164.0
1326.887695 60.0
1327.018188 72.0
1327.444092 148.0
1327.455688 108.0
1327.485229 184.0
1327.605591 188.0
1327.873901 124.0
1328.330811 128.0
1328.483154 164.0
1328.729858 100.0
1328.860474 168.0
1328.976562 124.0
1329.085327 56.0
1329.172485 56.0
1329.506226 72.0
1330.065186 108.0
1330.399048 128.0
1330.536987 152.0
1330.86377 100.0
1331.016235 180.0
1331.473755 208.0
1332.335205 192.0
1332.55603 268.0
1332.672363 148.0
1332.854004 148.0
1333.311768 136.0
1333.428101 100.0
1333.515259 180.0
1333.646118 152.0
1334.242065 136.0
1334.503906 116.0
1334.700317 64.0
1334.925659 116.0
1335.114746 48.0
1335.543945 220.0
1335.689331 112.0
1336.598755 184.0
1336.671509 120.0
1337.064575 132.0
1337.17395 112.0
1337.35791 184.0
1337.843384 92.0
1338.341187 152.0
1339.0448 224.0
1339.314331 48.0
1339.452759 160.0
1339.656738 160.0
1340.00647 152.0
1340.108154 224.0
1340.166748 32.0
1340.348877 112.0
1340.472778 192.0
1340.90271 112.0
1341.383789 132.0
1341.522339 204.0
1341.602539 124.0
1341.806641 64.0
1342.137817 116.0
1342.213745 208.0
1342.233643 172.0
1342.368042 152.0
1342.637939 116.0
1342.751831 232.0
1343.826904 160.0
1343.958252 104.0
1345.03833 152.0
1345.118652 116.0
1345.447144 300.0
1345.651611 220.0
1345.841431 36.0
1346.089722 212.0
1346.199219 160.0
1346.418335 176.0
1346.925781 208.0
1347.002686 112.0
1347.075684 128.0
1347.251099 124.0
1347.682129 104.0
1348.566406 120.0
1348.654053 164.0
1348.939209 160.0
1349.03418 56.0
1349.670288 136.0
1349.831177 44.0
1349.972778 168.0
1350.137573 124.0
1350.672241 168.0
1350.752686 180.0
1350.994141 132.0
1351.155029 112.0
1351.220947 116.0
1351.528198 32.0
1352.457642 156.0
1352.751587 176.0
1352.940796 124.0
1353.006714 172.0
1353.090332 120.0
1353.241211 140.0
1353.724243 76.0
1354.22229 176.0
1354.456665 60.0
1354.588501 108.0
1354.940186 112.0
1355.321167 148.0
1355.500488 172.0
1355.694824 120.0
1355.865601 172.0
1356.325195 120.0
1356.896973 184.0
1357.050903 68.0
1357.711426 184.0
1358.011597 100.0
1358.371094 236.0
1358.5177 32.0
1358.789185 212.0
1359.126709 68.0
1359.236572 136.0
1359.361572 124.0
1359.6698 164.0
1359.800415 160.0
1359.978027 160.0
1360.499146 152.0
1360.835693 140.0
1361.15271 176.0
1361.314209 116.0
1361.431763 96.0
1361.740234 152.0
1361.931152 172.0
1362.063354 72.0
1362.305786 76.0
1362.50415 84.0
1362.555542 120.0
1362.78833 192.0
1362.937622 168.0
1363.429932 144.0
1363.687256 168.0
1364.01062 188.0
1364.194458 120.0
1364.290039 124.0
1364.812012 196.0
1364.967285 160.0
1365.164917 132.0
1365.466553 184.0
1365.738647 36.0
1365.942017 204.0
1366.106445 148.0
1366.655518 228.0
1366.930542 184.0
1367.244751 108.0
1367.3573 136.0
1367.607544 52.0
1367.754761 192.0
1367.917114 164.0
1368.800293 144.0
1368.90332 236.0
1368.991699 92.0
1369.396729 116.0
1369.69873 128.0
1369.997192 136.0
1370.096558 240.0
1370.619629 232.0
1371.526123 152.0
1371.586426 164.0
1371.813721 156.0
1372.462402 164.0
1372.609985 120.0
1372.664795 228.0
1372.831177 164.0
1372.971313 136.0
1373.118774 96.0
1373.59082 148.0
1373.922852 52.0
1374.070312 140.0
1374.195801 148.0
1374.387695 144.0
1374.609009 188.0
1374.792603 168.0
1374.992798 56.0
1375.088745 164.0
1375.184692 104.0
1375.413452 188.0
1375.937622 224.0
1376.098755 208.0
1376.196045 76.0
1376.314209 96.0
1376.543091 100.0
1376.68335 64.0
1376.986206 72.0
1377.137207 152.0
1377.665771 144.0
1378.101685 136.0
1378.252441 188.0
1378.618896 156.0
1378.818481 212.0
1379.346558 228.0
1379.523926 128.0
1379.690674 112.0
1379.801636 124.0
1379.912476 80.0
1380.065918 208.0
1380.467041 76.0
1380.659302 188.0
1380.807251 128.0
1381.18811 156.0
1381.791138 132.0
1382.079102 116.0
1382.257202 168.0
1382.442261 160.0
1383.123169 124.0
1383.586914 264.0
1383.867188 160.0
1383.9375 156.0
1384.196655 132.0
1384.359619 216.0
1384.5448 64.0
1384.682373 204.0
1384.840942 140.0
1385.396606 144.0
1385.561157 152.0
1385.640991 192.0
1385.774414 176.0
1386.137451 176.0
1386.256104 92.0
1386.419067 148.0
1386.819336 148.0
1386.997192 148.0
1387.056519 40.0
1387.111328 160.0
1387.212158 176.0
1387.464233 40.0
1388.012939 104.0
1388.07959 168.0
1388.190918 156.0
1388.502319 104.0
1389.159546 208.0
1389.399902 104.0
1389.55188 136.0
1389.733765 96.0
1389.845093 124.0
1389.963745 88.0
1390.327393 120.0
1390.565308 180.0
1390.876709 176.0
1391.143921 184.0
1391.685913 112.0
1391.782349 180.0
1392.532471 144.0
1392.68103 212.0
1392.822144 64.0
1392.918701 204.0
1393.02832 168.0
1393.230713 156.0
1393.669067 176.0
1393.765625 160.0
1394.00061 144.0
1394.627808 196.0
1394.902832 140.0
1395.036621 144.0
1395.192749 120.0
1395.690796 160.0
1396.389893 148.0
1396.479126 92.0
1396.53125 220.0
1396.650269 188.0
1396.865967 148.0
1397.014771 96.0
1397.297485 144.0
1397.371826 100.0
1397.773682 160.0
1397.98938 116.0
1398.599731 84.0
1398.666748 128.0
1398.76355 156.0
1399.028442 160.0
1399.213867 176.0
1399.321899 120.0
1399.39624 188.0
1399.650757 48.0
1400.066528 216.0
1400.317261 172.0
1400.505859 88.0
1400.640015 208.0
1400.766602 100.0
1400.818726 80.0
1401.042236 108.0
1401.116699 184.0
1401.722534 136.0
1402.182373 128.0
1402.35376 228.0
1402.883057 128.0
1402.964966 148.0
1403.136475 96.0
1403.509277 216.0
1403.844849 84.0
1404.128296 156.0
1404.255615 108.0
1404.463867 148.0
1404.821899 144.0
1405.000977 196.0
1405.194946 152.0
1405.594849 128.0
1405.724731 108.0
1406.030762 92.0
1406.254639 52.0
1406.583008 224.0
1406.650269 252.0
1406.717407 128.0
1406.866699 140.0
1406.918945 96.0
1407.165405 100.0
1407.325439 144.0
1407.484253 300.0
1407.55835 148.0
1407.812012 244.0
1407.912109 160.0
1408.442383 112.0
1408.614136 188.0
1408.80835 156.0
1409.095337 216.0
1409.271606 116.0
1409.428467 96.0
1409.592896 168.0
1409.749878 96.0
1409.899292 112.0
1410.026367 188.0
1410.09082 160.0
1410.355225 152.0
1410.504761 124.0
1410.631836 76.0
1410.743896 208.0
1410.796265 120.0
1410.848633 132.0
1410.930786 52.0
1411.008545 132.0
1411.087891 136.0
1411.244873 188.0
1411.446777 164.0
1412.164673 160.0
1412.243042 108.0
1412.37854 204.0
1413.01001 124.0
1413.167114 140.0
1413.571167 208.0
1413.825562 136.0
1414.117554 116.0
1414.259766 144.0
1414.371948 324.0
1414.843628 56.0
1415.270386 180.0
1415.532471 96.0
1415.689697 120.0
1415.914429 188.0
1416.387207 192.0
1416.558594 192.0
1416.663452 120.0
1417.00061 156.0
1417.135376 132.0
1417.232788 88.0
1417.288452 160.0
1417.536011 128.0
1417.62146 132.0
1417.682495 240.0
1417.7948 144.0
1418.049683 72.0
1418.534424 172.0
1418.731812 148.0
1418.956665 72.0
1419.299683 272.0
1419.406616 88.0
1419.519043 128.0
1419.654053 168.0
1419.924072 196.0
1420.006592 100.0
1420.354736 184.0
1420.464111 140.0
1420.719116 160.0
1420.951782 88.0
1421.184326 68.0
1421.326904 200.0
1421.567017 156.0
1421.721924 136.0
1422.347534 116.0
1422.53833 136.0
1422.812988 100.0
1423.210938 208.0
1423.695312 108.0
1423.841797 128.0
1423.946899 184.0
1424.097168 124.0
1424.244629 136.0
1424.472656 132.0
1424.795776 248.0
1424.96106 212.0
1425.111328 60.0
1425.314209 136.0
1425.441895 152.0
1425.501953 120.0
1427.088013 140.0
1427.148193 168.0
1427.510132 88.0
1427.591919 172.0
1427.764893 48.0
1428.11084 144.0
1428.167725 176.0
1428.238647 176.0
1428.878174 152.0
1429.291992 184.0
1429.577881 152.0
1429.750977 156.0
1429.848877 144.0
1429.932373 116.0
1430.218018 148.0
1430.518677 80.0
1430.616577 148.0
1430.774658 164.0
1431.12854 144.0
1431.387817 168.0
1431.474976 36.0
1431.919312 172.0
1432.115112 168.0
1432.356079 112.0
1432.438965 220.0
1432.680054 48.0
1432.762939 140.0
1433.124634 144.0
1433.727417 152.0
1433.929199 120.0
1434.006226 180.0
1434.428345 104.0
1434.805298 200.0
1434.888428 132.0
1434.956055 140.0
1435.023926 140.0
1435.159668 36.0
1435.390015 144.0
1435.604004 168.0
1435.891235 140.0
1436.102417 120.0
1436.185303 100.0
1436.34375 148.0
1436.81897 92.0
1437.000122 148.0
1437.143433 136.0
1437.211304 240.0
1437.26416 140.0
1437.377319 144.0
1437.460327 196.0
1437.513794 224.0
1437.860352 208.0
1438.177368 164.0
1438.332886 156.0
1438.577393 128.0
1438.718384 188.0
1438.78125 156.0
1438.896851 152.0
1439.015503 172.0
1439.104736 156.0
1439.20752 212.0
1439.258423 172.0
1439.407959 196.0
1439.619385 168.0
1439.823242 136.0
1439.976196 176.0
1440.042236 164.0
1440.250732 300.0
1440.389771 164.0
1440.70752 140.0
1440.895874 196.0
1441.341675 116.0
1441.409668 160.0
1441.583496 172.0
1441.659058 144.0
1441.712036 100.0
1441.803345 212.0
1442.043579 132.0
1442.505615 164.0
1442.86853 108.0
1443.469971 204.0
1443.707764 144.0
1443.774536 156.0
1443.889282 244.0
1443.980103 100.0
1444.048096 116.0
1444.199463 148.0
1444.365845 124.0
1444.501953 144.0
1444.700562 160.0
1444.857544 184.0
1445.064209 200.0
1445.171509 176.0
1445.425049 120.0
1445.531006 192.0
1445.629272 104.0
1446.071411 196.0
1446.128784 136.0
1446.210083 152.0
1446.401367 72.0
1446.492188 68.0
1447.112915 104.0
1447.900513 156.0
1448.00647 148.0
1448.05957 164.0
1448.25647 160.0
1448.362549 156.0
1448.722778 164.0
1448.956787 116.0
1449.339844 92.0
1449.688354 228.0
1450.112793 128.0
1450.651001 76.0
1450.704102 44.0
1450.931519 120.0
1451.204468 172.0
1451.356201 188.0
1451.78833 176.0
1452.562012 156.0
1452.941284 68.0
1453.047485 188.0
1453.199219 208.0
1453.312378 128.0
1453.404053 212.0
1453.662109 156.0
1453.821411 108.0
1454.018799 108.0
1454.087036 104.0
1454.443848 72.0
1454.528076 156.0
1454.717041 120.0
1454.800659 60.0
1455.278931 164.0
1455.628174 92.0
1455.749756 148.0
1455.848389 212.0
1455.932007 144.0
1456.114258 136.0
1456.48645 80.0
1456.55481 136.0
1456.706665 116.0
1456.790283 108.0
1456.866211 132.0
1456.93457 48.0
1457.063721 128.0
1457.268921 56.0
1457.360107 144.0
1457.54248 164.0
1457.80835 176.0
1458.036377 100.0
1458.211182 116.0
1458.560791 184.0
1458.6521 172.0
1459.389526 84.0
1459.749023 188.0
1459.838135 168.0
1459.966919 160.0
1460.233643 172.0
1461.024658 104.0
1461.443848 96.0
1461.991089 204.0
1462.21936 128.0
1462.364014 124.0
1462.542358 188.0
1462.874023 204.0
1462.927246 204.0
1463.064331 248.0
1463.292725 52.0
1463.608154 144.0
1463.665771 208.0
1463.962769 156.0
1464.328369 88.0
1464.465454 124.0
1464.610229 256.0
1464.660645 136.0
1464.739624 148.0
1465.105347 64.0
1465.250122 188.0
1465.493896 148.0
1465.55481 176.0
1465.623413 144.0
1465.836792 120.0
1466.362671 80.0
1466.880981 116.0
1466.957153 116.0
1467.155396 96.0
1467.307861 148.0
1467.361206 384.0
1467.535156 168.0
1467.742432 112.0
1467.845459 136.0
1467.902588 64.0
1468.047485 212.0
1468.398926 104.0
1468.474609 124.0
1468.802612 68.0
1469.028931 240.0
1469.175903 240.0
1469.56543 272.0
1469.634155 140.0
1470.182007 192.0
1470.442993 92.0
1470.511719 124.0
1470.641479 136.0
1471.114136 152.0
1471.366699 308.0
1471.588135 112.0
1471.744263 136.0
1471.870605 180.0
1471.969849 140.0
1472.122681 156.0
1472.244751 132.0
1472.328857 104.0
1472.465576 140.0
1472.787109 108.0
1472.894043 144.0
1473.199585 92.0
1473.795532 316.0
1473.933105 152.0
1474.062988 172.0
1474.292236 168.0
1474.720215 152.0
1474.804321 44.0
1475.018311 224.0
1475.071777 208.0
1475.324097 180.0
1475.49231 120.0
1475.561157 44.0
1475.683472 112.0
1475.736938 336.0
1475.95874 172.0
1476.065796 168.0
1476.249268 56.0
1476.562866 144.0
1476.884033 212.0
1477.026367 144.0
1477.235962 180.0
1477.488403 164.0
1477.557251 212.0
1477.615723 212.0
1477.740845 184.0
1478.077515 108.0
1478.529053 104.0
1478.63623 56.0
1479.026611 156.0
1480.231079 160.0
1480.297485 92.0
1480.841187 176.0
1480.994263 132.0
1481.101685 140.0
1481.262573 116.0
1481.42334 184.0
1481.53833 152.0
1481.936646 148.0
1482.005615 156.0
1482.116089 196.0
1482.300171 184.0
1482.518799 116.0
1482.687622 208.0
1482.764282 204.0
1482.879272 128.0
1483.093872 116.0
1483.722534 140.0
1483.822632 176.0
1484.06897 164.0
1484.159546 64.0
1484.282227 32.0
1484.443237 176.0
1484.573608 140.0
1484.842041 128.0
1485.07666 180.0
1485.322144 80.0
1485.578369 80.0
1485.708862 104.0
1485.793213 136.0
1485.915894 148.0
1486.157349 156.0
1486.238159 72.0
1486.790771 160.0
1487.082397 184.0
1487.281982 216.0
1487.688721 192.0
1487.849976 168.0
1487.945435 204.0
1488.341431 120.0
1488.640869 164.0
1488.92627 300.0
1489.009521 88.0
1489.455566 176.0
1489.769897 124.0
1489.845337 108.0
1490.346191 80.0
1490.615112 116.0
1490.699585 124.0
1490.768799 148.0
1490.860962 176.0
1491.024292 112.0
1491.076172 164.0
1491.422119 132.0
1491.706543 136.0
1491.914062 152.0
1492.098511 212.0
1492.175415 136.0
1492.229248 100.0
1492.62915 60.0
1492.844482 128.0
1493.013672 152.0
1493.413574 120.0
1493.667358 136.0
1493.751953 120.0
1494.059692 136.0
1494.233032 292.0
1494.436768 68.0
1494.873657 164.0
1495.021484 156.0
1495.09082 108.0
1495.443726 160.0
1495.583374 108.0
1495.706543 216.0
1495.904907 140.0
1496.046387 216.0
1496.206909 132.0
1496.337769 148.0
1496.676636 144.0
1496.915283 100.0
1497.077026 116.0
1497.207886 100.0
1497.354248 160.0
1497.546753 164.0
1497.731689 120.0
1497.811401 180.0
1497.885742 196.0
1498.178467 140.0
1498.286377 160.0
1498.688721 288.0
1498.879639 240.0
1499.033691 92.0
1499.324463 132.0
1499.419067 136.0
1499.719604 172.0
1499.827515 144.0
1499.935425 208.0
1500.205322 164.0
1500.313232 168.0
1500.397949 132.0
1500.521362 196.0
1500.903442 164.0
1501.261597 156.0
1501.361816 72.0
1502.017456 172.0
1502.225708 120.0
1502.480347 140.0
1502.619141 204.0
1502.711792 88.0
1502.796631 208.0
1502.997314 188.0
1503.120728 132.0
1503.375366 112.0
1503.529785 136.0
1503.877075 140.0
1504.100952 136.0
1504.293823 140.0
1504.438843 140.0
1504.911499 120.0
1505.00415 64.0
1505.174072 164.0
