>compound MLS001160501-01!
>formula C23H21ClN2O5
>ionization [M+H]+
>parentmass 441.12117590409053
#inchi InChI=1S/C23H21ClN2O5/c1-12-15-6-17(24)19(27)8-20(15)31-23(30)16(12)7-22(29)25-9-13-5-14(11-25)18-3-2-4-21(28)26(18)10-13/h2-4,6,8,13-14,27H,5,7,9-11H2,1H3/t13-,14+/m1/s1
#inchikey RAXNGZMLLUDZAC
#Ion_Source LC-ESI
#Instrument qTof
#Compound_Source NIH Natural Product Library
#PI Dorrestein
#Data_Collector VVP/LMS
#Scan -1
#Precursor_MZ 441.122
#ExactMass 440.114
#Charge 1
#CAS_Number N/A
#Pubmed_ID N/A
#Smiles Cc1c(CC(=O)N2C[C@H]3C[C@@H](C2)c4cccc(=O)n4C3)c(=O)oc5cc(O)c(Cl)cc15
#INCHI_AUX N/A
#Library_Class 1
#SpectrumID CCMSLIB00000080387
#IonMode Positive
#UpdateWorkflowName UPDATE-SINGLE-ANNOTATED-GOLD
#LibraryQualityString Gold
#TaskID b1d8e8f6646f4e71acdff9ca3d919d08
##Scan# 1685
#SpectrumFile p2-B08_GB8_01_17996.mzXML
#LibraryName NIH_Natural_Products_Library.mgf
#MQScore -1
#Organism NIH_Natural_Products_Library
#TIC_Query 0
#RT_Query -1
#MZErrorPPM -1
#SharedPeaks 0
#MassDiff 0
#LibMZ -1
#SpecMZ 441.122
#SpecCharge 0
#internalFilename spec-00000.mgf

>collision 10
95.043617 144.0
95.138718 184.0
95.441803 136.0
95.56823 184.0
95.731461 140.0
96.082588 212.0
96.097298 156.0
96.127464 268.0
96.299263 136.0
96.467308 248.0
96.488808 116.0
96.670715 156.0
96.727478 180.0
96.823418 136.0
96.925278 224.0
96.938995 204.0
97.084061 132.0
97.188026 56.0
97.650627 148.0
97.728363 200.0
97.905518 192.0
98.244545 172.0
98.497215 208.0
98.649376 92.0
98.783844 172.0
98.898613 88.0
98.922363 128.0
99.284958 200.0
99.394058 88.0
99.793297 144.0
99.858917 204.0
100.125931 200.0
100.346794 196.0
100.498375 224.0
100.590179 196.0
100.624115 116.0
100.821869 160.0
100.913818 328.0
101.256004 148.0
101.352158 160.0
101.450363 28.0
101.47242 136.0
101.62886 76.0
101.80751 156.0
101.867767 136.0
102.006424 128.0
102.152527 116.0
102.338371 192.0
102.644646 160.0
102.91301 156.0
103.053291 608.0
103.341499 152.0
103.523674 180.0
103.580383 276.0
103.762772 48.0
104.109749 104.0
104.193024 136.0
104.329185 160.0
104.457298 224.0
104.504036 144.0
104.699509 36.0
104.882874 192.0
105.07457 156.0
105.156189 164.0
105.227638 188.0
105.262344 68.0
105.802124 144.0
106.015144 160.0
106.232483 180.0
106.300186 232.0
106.316605 52.0
106.376129 120.0
106.411026 112.0
106.439774 136.0
106.509598 44.0
106.704826 168.0
106.980499 136.0
107.338997 196.0
107.542374 268.0
107.588646 148.0
107.700157 280.0
107.915077 172.0
107.999863 100.0
108.172569 224.0
108.362137 208.0
108.54039 116.0
108.783127 104.0
108.797661 188.0
108.853722 216.0
109.000832 180.0
109.044846 176.0
109.18206 256.0
109.321442 128.0
109.519226 56.0
109.642151 216.0
109.658829 108.0
110.009254 124.0
110.115746 140.0
110.243179 156.0
110.32679 132.0
110.55687 248.0
110.705498 180.0
110.751579 136.0
110.826996 108.0
110.927589 396.0
111.009361 128.0
111.506905 200.0
111.654076 120.0
111.696136 136.0
111.792923 176.0
111.828697 156.0
112.117119 156.0
112.167816 64.0
112.191002 152.0
112.216301 96.0
112.264801 180.0
112.494545 180.0
112.773643 208.0
112.900452 128.0
113.137436 216.0
113.315338 144.0
113.417053 188.0
113.45945 244.0
113.548508 180.0
113.703384 36.0
113.896591 128.0
114.496376 204.0
114.556015 124.0
114.69239 124.0
114.713707 176.0
114.869377 120.0
114.90564 208.0
114.990997 208.0
115.052368 372.0
115.080658 156.0
115.14138 180.0
115.191711 116.0
115.741348 80.0
115.7799 68.0
115.801315 48.0
115.844154 152.0
116.048576 52.0
116.063927 352.0
116.163559 96.0
116.191444 152.0
116.238647 168.0
116.472664 176.0
116.603729 40.0
116.627373 144.0
117.065102 312.0
117.212746 152.0
117.281708 176.0
117.534027 192.0
117.680801 168.0
117.704552 172.0
118.00489 232.0
118.097878 204.0
118.122192 148.0
118.154114 216.0
118.314262 104.0
118.530853 160.0
118.671745 84.0
118.834412 220.0
118.858276 52.0
118.90168 180.0
119.099258 116.0
119.16008 140.0
119.199196 172.0
119.229614 64.0
119.595001 104.0
119.616768 68.0
119.969673 148.0
119.984932 176.0
120.019753 140.0
120.080879 312.0
120.887016 168.0
121.035866 136.0
121.059952 152.0
121.121277 152.0
121.439102 188.0
121.660721 76.0
121.823227 136.0
122.027618 60.0
122.064026 168.0
122.315804 184.0
122.480949 96.0
122.659431 108.0
123.26194 184.0
123.387932 116.0
123.443207 188.0
123.556007 184.0
123.580345 120.0
123.970062 168.0
123.994438 192.0
124.296036 168.0
124.431664 228.0
124.505676 196.0
124.744667 216.0
124.875854 92.0
125.069427 72.0
125.100548 184.0
125.185204 148.0
125.216377 60.0
125.298798 140.0
125.323303 140.0
125.370102 128.0
125.519455 92.0
125.575203 128.0
126.070831 152.0
126.126701 152.0
126.556236 84.0
126.603256 212.0
126.657013 140.0
127.023468 224.0
127.260269 308.0
127.345604 92.0
127.368065 132.0
127.484894 152.0
127.550072 208.0
127.725464 100.0
127.811119 164.0
127.910385 196.0
127.945992 144.0
128.09462 100.0
128.153198 76.0
128.196014 156.0
128.272644 156.0
128.473343 68.0
128.50267 92.0
128.599701 160.0
128.656128 64.0
128.728378 148.0
129.336548 60.0
129.406723 36.0
129.433899 176.0
129.973373 236.0
130.002869 180.0
130.066422 132.0
130.139069 176.0
130.209961 128.0
130.307678 220.0
130.763641 176.0
131.051758 428.0
131.635071 72.0
131.756119 152.0
131.788101 124.0
131.92981 128.0
131.991531 156.0
132.058029 1236.0
132.227158 60.0
132.334213 224.0
132.648605 180.0
132.676117 216.0
132.799942 132.0
132.89859 240.0
132.923416 112.0
132.958252 156.0
133.045074 184.0
133.05983 344.0
133.0914 120.0
133.233795 68.0
133.295822 108.0
133.494995 168.0
133.518814 136.0
133.571716 132.0
133.739685 132.0
133.836273 180.0
133.839905 172.0
133.928497 108.0
133.958435 136.0
134.087463 168.0
134.269608 84.0
134.313431 148.0
134.479553 184.0
134.605881 172.0
134.812119 144.0
134.902252 180.0
135.047928 192.0
135.068756 176.0
135.219147 64.0
135.330261 164.0
135.54335 120.0
135.626785 176.0
135.915955 244.0
135.937561 104.0
136.141846 160.0
136.202225 164.0
136.416016 152.0
136.548553 172.0
136.634781 164.0
136.82312 176.0
136.873138 152.0
137.221512 152.0
137.323059 264.0
137.453247 172.0
137.660187 136.0
137.690536 240.0
137.847061 128.0
137.910156 220.0
138.080841 148.0
138.678238 128.0
138.940506 144.0
139.033539 356.0
139.346664 120.0
139.461807 236.0
139.551132 76.0
139.744003 128.0
140.073593 192.0
140.130127 128.0
140.148972 192.0
140.490829 168.0
141.166336 236.0
141.308258 292.0
141.438416 76.0
141.478668 116.0
141.792374 136.0
142.0233 100.0
142.322693 52.0
142.469955 136.0
142.531723 244.0
142.610153 176.0
142.686218 204.0
142.70285 204.0
142.783707 112.0
142.812241 164.0
142.84317 148.0
143.014496 172.0
143.04512 180.0
143.069382 136.0
143.560074 144.0
143.69603 184.0
144.056107 912.0
144.123413 164.0
144.159256 120.0
144.250076 172.0
144.350494 96.0
144.5634 112.0
144.608871 164.0
144.726166 216.0
144.774063 216.0
144.865082 148.0
145.060364 156.0
145.153915 148.0
145.490982 172.0
145.589432 152.0
145.707123 36.0
145.829681 72.0
145.870544 160.0
145.906601 148.0
146.024231 100.0
146.06456 140.0
146.08696 100.0
146.231339 80.0
146.301147 148.0
146.373367 176.0
146.628723 180.0
146.645599 100.0
146.968735 132.0
147.065491 172.0
147.287415 184.0
147.613678 80.0
147.739456 164.0
147.83139 88.0
148.010529 188.0
148.034744 172.0
148.07692 8664.0
148.138885 76.0
148.164566 72.0
148.206726 124.0
148.441849 188.0
148.458817 112.0
148.565536 152.0
148.616287 48.0
148.635422 224.0
148.702194 256.0
148.732971 56.0
148.912659 140.0
149.039841 248.0
149.079987 1956.0
149.284485 148.0
149.318527 56.0
149.54863 168.0
149.637299 196.0
149.676254 84.0
149.742004 40.0
149.810211 84.0
149.863815 128.0
150.022232 200.0
150.583435 128.0
150.700699 136.0
150.918228 184.0
151.106552 104.0
151.128571 164.0
151.177521 136.0
151.299896 48.0
151.55217 164.0
151.883118 56.0
152.107117 168.0
152.725616 168.0
153.013535 176.0
153.151443 148.0
153.169769 192.0
153.279541 196.0
153.405243 196.0
153.50386 200.0
153.723404 128.0
153.796295 164.0
153.999908 148.0
154.098724 148.0
154.281601 228.0
154.33847 172.0
154.410187 188.0
154.496765 172.0
154.590775 168.0
154.674927 164.0
154.823486 84.0
154.873016 112.0
154.982025 128.0
155.068756 136.0
155.123291 160.0
155.202393 172.0
155.234848 32.0
155.43782 200.0
155.500305 96.0
155.62442 220.0
155.684021 164.0
155.726242 172.0
155.932449 84.0
156.614182 172.0
156.70137 64.0
156.928711 176.0
157.462189 184.0
157.584595 76.0
157.892471 96.0
158.117218 132.0
158.249893 164.0
158.26741 156.0
158.370087 176.0
158.573044 84.0
158.956741 128.0
158.990555 124.0
159.00943 172.0
159.043243 380.0
159.062866 152.0
159.187683 84.0
159.338577 152.0
159.433868 180.0
159.521835 152.0
159.587204 196.0
159.627426 152.0
159.743134 188.0
159.788406 248.0
159.818604 120.0
160.051056 3036.0
160.105072 208.0
160.123199 88.0
160.148376 120.0
160.193726 92.0
160.231506 48.0
160.272705 184.0
160.291977 100.0
160.333099 176.0
160.360031 56.0
160.435959 164.0
160.63739 136.0
160.753784 272.0
160.86702 92.0
160.88974 188.0
160.927612 92.0
160.955383 128.0
160.993271 68.0
161.0159 296.0
161.056732 304.0
161.080521 44.0
161.147354 160.0
161.435501 28.0
161.513916 192.0
161.594864 112.0
161.817581 88.0
162.017654 124.0
162.092789 364.0
162.200119 192.0
162.293915 52.0
162.385208 160.0
162.484131 32.0
162.768402 228.0
163.097412 188.0
163.230881 156.0
163.711823 172.0
163.747482 160.0
163.813477 44.0
164.002274 208.0
164.028702 236.0
164.152679 176.0
164.275116 180.0
164.686066 240.0
164.755035 160.0
164.808701 176.0
164.847015 124.0
164.890472 116.0
164.918579 132.0
165.12056 140.0
165.138474 120.0
165.161484 156.0
165.225433 216.0
165.348267 152.0
165.390442 160.0
165.470062 164.0
165.652954 124.0
165.724686 172.0
165.770813 108.0
165.832321 156.0
165.942551 156.0
166.009216 88.0
166.16568 152.0
166.240097 152.0
166.899689 216.0
167.026566 800.0
167.06485 168.0
167.08287 196.0
167.24498 104.0
167.404602 92.0
167.443237 132.0
167.623566 164.0
167.646759 128.0
167.796249 112.0
167.881348 108.0
168.030273 192.0
168.087708 92.0
168.588684 204.0
168.624863 128.0
168.82135 128.0
168.860138 220.0
169.020279 148.0
169.080048 132.0
169.100754 80.0
169.488922 192.0
169.725067 160.0
169.859924 240.0
169.950729 152.0
170.02858 184.0
170.891296 104.0
171.724899 188.0
171.847504 28.0
172.129395 144.0
172.335022 100.0
172.48732 152.0
172.505615 168.0
172.782822 100.0
172.832535 152.0
173.063202 160.0
173.1362 200.0
173.15976 180.0
173.248825 60.0
173.544983 224.0
173.565948 184.0
173.641998 104.0
173.71283 232.0
173.993622 176.0
174.055878 168.0
174.091919 376.0
174.32457 44.0
174.358215 144.0
174.566422 168.0
174.742645 148.0
174.837372 128.0
175.095383 120.0
175.129608 108.0
175.150681 188.0
175.424728 176.0
175.775513 160.0
176.03157 152.0
176.116074 136.0
176.190033 136.0
176.232315 160.0
176.256088 204.0
176.303665 44.0
176.676483 148.0
176.827301 156.0
176.941132 212.0
177.126495 232.0
177.186081 228.0
177.314621 80.0
177.701767 144.0
177.940628 156.0
178.030914 136.0
178.179657 272.0
178.283936 164.0
178.642227 176.0
178.69278 180.0
178.714066 144.0
178.958252 172.0
179.019669 152.0
179.086761 92.0
179.273254 176.0
179.651855 92.0
179.769257 208.0
179.90538 52.0
180.172775 160.0
180.215179 228.0
180.477127 96.0
180.704468 148.0
180.736572 124.0
180.787415 188.0
180.838272 88.0
181.014954 200.0
181.347153 176.0
181.457062 88.0
181.75209 124.0
181.907761 128.0
182.039322 168.0
182.119888 44.0
182.289139 152.0
182.345566 164.0
182.45578 160.0
182.732788 128.0
182.78392 284.0
182.931946 156.0
182.991165 136.0
183.030014 236.0
183.098877 120.0
183.357513 152.0
183.775482 64.0
183.804733 220.0
183.859131 148.0
184.02919 196.0
184.331726 212.0
184.364151 144.0
184.526337 200.0
184.55336 128.0
184.917252 168.0
185.02684 60.0
185.265167 264.0
185.435867 28.0
185.652756 148.0
185.837204 156.0
185.981033 212.0
186.334061 136.0
186.434601 116.0
186.660217 260.0
186.92952 188.0
187.007584 152.0
187.242584 112.0
187.501404 204.0
187.564102 168.0
187.793137 252.0
187.945908 112.0
188.052322 156.0
188.085083 168.0
188.131485 124.0
188.549393 104.0
188.598587 128.0
188.688797 132.0
188.772964 164.0
188.850143 148.0
189.298965 48.0
189.367432 164.0
189.403046 136.0
189.496185 140.0
189.523575 200.0
189.649643 204.0
189.838806 152.0
189.943039 116.0
189.98967 136.0
190.115875 60.0
190.146072 84.0
190.16803 212.0
190.412384 196.0
190.50415 204.0
190.555222 80.0
190.576553 136.0
190.893311 184.0
190.914154 200.0
190.952866 116.0
191.030823 76.0
191.060547 204.0
191.119659 33100.0
191.190414 48.0
191.27504 48.0
191.300858 84.0
191.326385 180.0
191.437439 188.0
191.469055 56.0
191.493256 48.0
191.528397 100.0
191.546402 108.0
191.567627 28.0
191.600677 44.0
191.712189 144.0
191.768768 92.0
191.859741 84.0
191.955887 64.0
192.008636 80.0
192.122223 3664.0
192.265198 180.0
192.345245 40.0
192.428055 152.0
192.494324 52.0
192.62413 48.0
192.68074 108.0
192.768494 64.0
192.834122 92.0
192.867294 56.0
192.903229 28.0
193.011047 80.0
193.127182 448.0
193.218491 84.0
193.282135 176.0
193.3181 192.0
193.35408 40.0
193.385452 72.0
193.43158 108.0
193.569839 332.0
193.594925 56.0
193.628159 148.0
193.76944 168.0
194.035492 172.0
194.129761 160.0
194.226837 60.0
194.432159 180.0
194.49321 124.0
194.65979 60.0
194.698669 76.0
194.737549 120.0
194.801437 140.0
194.827927 180.0
194.890335 200.0
194.973495 272.0
195.02179 4872.0
195.132706 40.0
195.298996 140.0
195.376877 48.0
195.424179 52.0
195.869598 40.0
196.02417 828.0
196.078568 48.0
196.153824 184.0
196.412445 188.0
196.680267 164.0
197.018265 1368.0
197.09993 40.0
197.129333 188.0
197.242462 168.0
197.704895 164.0
197.776718 84.0
197.885895 60.0
198.026184 196.0
198.342514 156.0
198.952835 148.0
199.139374 128.0
199.209595 232.0
199.451263 124.0
199.47937 40.0
199.569336 92.0
200.084198 108.0
200.227798 112.0
200.363007 172.0
200.425003 72.0
200.650482 44.0
200.794281 84.0
201.336151 136.0
201.522583 132.0
201.825012 256.0
201.878738 112.0
201.901367 152.0
201.938126 68.0
202.025406 192.0
202.70816 260.0
202.739334 120.0
202.759171 200.0
202.881058 188.0
203.195847 196.0
203.269623 132.0
203.580414 140.0
203.971115 52.0
204.116104 188.0
204.315201 108.0
204.452087 112.0
204.514404 156.0
204.722229 220.0
204.83046 132.0
204.947266 196.0
205.0755 96.0
205.184769 204.0
205.571732 268.0
205.631668 156.0
206.254318 124.0
206.277191 200.0
206.328644 172.0
206.85788 140.0
206.892242 140.0
206.969543 100.0
207.021088 112.0
207.112732 132.0
207.353409 52.0
207.470917 184.0
207.605682 124.0
207.665909 128.0
207.763443 148.0
207.806473 136.0
208.087738 124.0
208.188248 80.0
208.604858 164.0
208.791748 132.0
208.962402 172.0
209.073685 176.0
209.338531 168.0
209.407639 180.0
209.439331 192.0
209.606094 156.0
209.816818 136.0
210.004257 124.0
210.298553 188.0
210.468872 224.0
210.785934 252.0
210.910889 128.0
211.367828 132.0
211.451752 180.0
211.628326 176.0
211.978821 152.0
212.463028 104.0
212.625519 228.0
213.034912 188.0
213.058151 140.0
213.18309 148.0
213.479614 140.0
213.924774 140.0
214.269791 176.0
214.545273 132.0
214.673569 128.0
214.918579 132.0
214.941925 232.0
215.622345 80.0
215.900085 140.0
215.956177 224.0
216.37117 176.0
216.825195 100.0
217.2621 264.0
217.341309 36.0
218.476059 208.0
218.596024 76.0
219.025864 220.0
219.408951 208.0
219.432526 76.0
220.08754 240.0
220.483368 236.0
220.52475 244.0
221.048203 168.0
221.353104 148.0
221.44194 68.0
221.480438 136.0
221.568588 144.0
221.693756 204.0
221.796875 172.0
221.921997 156.0
222.010956 144.0
222.180023 104.0
222.20079 104.0
222.227493 100.0
222.251236 164.0
222.341583 204.0
222.364868 220.0
222.377731 64.0
222.406128 288.0
222.448044 140.0
222.500549 180.0
222.531876 232.0
222.561157 192.0
222.587753 184.0
222.609451 116.0
222.646042 200.0
222.728149 304.0
222.750702 136.0
222.785645 148.0
222.811584 60.0
222.848541 348.0
222.861496 60.0
222.871841 156.0
222.898544 192.0
222.931992 168.0
222.962753 296.0
223.017868 101108.0
223.075439 272.0
223.112152 140.0
223.170425 60.0
223.211212 168.0
223.249023 272.0
223.304993 176.0
223.348282 132.0
223.384766 108.0
223.426422 88.0
223.461868 148.0
223.507065 632.0
223.538544 88.0
223.621323 156.0
223.671677 104.0
223.70256 108.0
223.725372 64.0
223.755157 40.0
223.837036 248.0
223.875534 84.0
223.917068 84.0
223.944397 160.0
223.969559 196.0
224.019943 13656.0
224.123474 60.0
224.147766 160.0
224.192703 160.0
224.277054 96.0
224.322357 188.0
224.363647 64.0
224.383392 268.0
224.420151 20.0
224.446915 68.0
224.483536 184.0
224.529892 132.0
224.589005 188.0
224.60968 180.0
224.664993 204.0
224.687973 92.0
224.735718 68.0
224.789154 144.0
224.822906 108.0
224.861206 72.0
224.882523 184.0
224.924683 168.0
224.954529 168.0
225.014648 35124.0
225.073776 136.0
225.112183 64.0
225.181503 72.0
225.224152 108.0
225.260117 244.0
225.301559 104.0
225.341812 148.0
225.394714 192.0
225.442978 148.0
225.476273 36.0
225.535126 108.0
225.569489 108.0
225.62854 172.0
225.665955 48.0
225.693558 76.0
225.717712 120.0
225.78421 112.0
225.851974 128.0
225.906845 112.0
226.01741 2908.0
226.108139 216.0
226.137238 72.0
226.199097 120.0
226.241791 104.0
226.29216 128.0
226.364761 48.0
226.408539 100.0
226.496536 132.0
226.574432 52.0
226.661316 168.0
226.702408 140.0
226.724243 80.0
226.794617 140.0
226.819199 88.0
226.889099 52.0
226.940079 56.0
227.017456 296.0
227.108002 92.0
227.13501 56.0
227.242996 120.0
227.31427 80.0
227.385101 136.0
227.664139 120.0
227.7173 96.0
227.759109 152.0
227.833313 64.0
227.880569 68.0
228.050797 68.0
228.095886 144.0
228.231171 60.0
228.276276 48.0
228.333405 32.0
228.369507 56.0
228.556015 88.0
228.577957 116.0
228.667358 128.0
228.793793 120.0
229.2034 240.0
229.59227 68.0
229.830566 124.0
230.04184 72.0
230.573441 56.0
231.026993 44.0
231.726334 64.0
231.820267 72.0
231.957733 36.0
232.687744 44.0
233.082596 116.0
233.213272 104.0
233.298386 72.0
233.985931 128.0
234.16864 68.0
234.833069 68.0
234.955078 176.0
235.01915 112.0
235.583969 152.0
236.244278 64.0
236.969849 60.0
237.337646 64.0
237.380569 220.0
237.920578 128.0
238.661026 48.0
238.903992 44.0
239.116302 56.0
239.442642 108.0
239.50116 56.0
239.692169 64.0
240.006577 140.0
241.250793 80.0
241.872559 164.0
241.894226 152.0
242.628418 40.0
242.755539 160.0
243.593536 120.0
245.164764 60.0
247.038147 208.0
249.34903 68.0
250.433823 76.0
250.623505 72.0
250.677063 80.0
251.012161 5892.0
251.134201 36.0
251.206741 60.0
251.266693 68.0
251.367661 76.0
251.569656 124.0
251.591751 120.0
251.62648 48.0
252.014984 1216.0
252.074997 44.0
252.859268 88.0
253.007843 3004.0
253.201187 100.0
253.473633 108.0
253.508484 32.0
253.670135 156.0
253.822311 188.0
253.961853 60.0
254.011398 340.0
254.041153 56.0
254.082382 52.0
254.272781 108.0
254.498154 76.0
256.104126 44.0
256.225159 64.0
258.018768 148.0
259.56842 84.0
260.849426 128.0
261.563538 96.0
264.423248 96.0
265.096863 120.0
270.244934 64.0
270.618042 96.0
270.680267 60.0
275.551514 128.0
277.093262 88.0
281.226715 44.0
281.660767 88.0
285.084869 164.0
285.340332 52.0
287.701965 56.0
291.271149 60.0
292.069946 116.0
294.03244 60.0
294.298706 52.0
301.813293 48.0
303.295013 56.0
309.08313 120.0
312.5112 96.0
315.781281 48.0
319.079071 156.0
324.850159 64.0
324.882446 52.0
325.463867 60.0
328.313843 48.0
328.764801 156.0
329.866394 224.0
331.071228 176.0
334.924683 48.0
344.107391 108.0
344.48407 180.0
345.622772 112.0
345.822632 128.0
346.50769 80.0
347.968933 76.0
351.956573 188.0
352.546753 144.0
353.302063 52.0
362.80368 76.0
365.816162 76.0
368.772278 80.0
369.131653 96.0
370.913239 104.0
374.396667 60.0
375.992706 132.0
376.282227 48.0
377.588287 116.0
380.968231 72.0
381.193604 184.0
384.601318 72.0
389.20517 40.0
389.346558 116.0
390.061615 48.0
392.3685 52.0
394.955017 64.0
402.138733 112.0
403.233063 116.0
405.702759 112.0
406.167938 104.0
407.107086 108.0
411.802948 52.0
416.639496 64.0
416.77356 44.0
419.312836 40.0
420.7854 48.0
423.082977 92.0
423.115753 96.0
426.09729 148.0
426.602783 88.0
433.019043 60.0
435.071564 192.0
435.108917 104.0
437.903259 64.0
438.574066 116.0
438.799164 160.0
439.312134 92.0
439.4039 192.0
439.608368 80.0
439.900513 92.0
440.109253 88.0
440.840271 60.0
441.036682 112.0
441.124969 3592.0
441.320953 56.0
441.475677 92.0
441.772644 64.0
442.12674 1328.0
442.676666 100.0
442.890259 44.0
443.11734 844.0
443.393036 72.0
444.118073 412.0
444.617645 120.0
445.126556 192.0
445.596008 120.0
445.852325 72.0
446.268463 40.0
447.311798 52.0
452.322296 56.0
456.67569 44.0
458.020721 92.0
459.551147 172.0
462.084717 48.0
466.106537 48.0
466.308502 44.0
475.065277 80.0
475.881195 76.0
477.902252 76.0
480.071472 204.0
487.144409 124.0
491.242737 120.0
492.748108 88.0
495.734802 76.0
497.029602 116.0
501.837769 120.0
520.252625 80.0
526.011108 108.0
526.476807 60.0
529.660034 60.0
539.752747 72.0
568.184937 36.0
568.782837 136.0
574.903442 52.0
586.225586 160.0
600.556763 76.0
600.668945 128.0
620.839722 104.0
625.539917 60.0
627.323242 100.0
632.958862 88.0
634.406738 44.0
640.738892 116.0
648.366394 132.0
655.354919 120.0
656.201843 92.0
673.490723 60.0
697.438721 80.0
699.837585 36.0
726.636292 128.0
733.972595 80.0
735.547913 120.0
738.427795 100.0
747.269775 100.0
790.695496 76.0
806.064758 52.0
824.208191 32.0
852.827515 112.0
870.089111 76.0
887.0672 60.0
919.939209 208.0
927.803528 92.0
944.653809 44.0
973.231873 64.0
988.359375 68.0
989.316956 92.0
993.496826 52.0
1012.855469 172.0
1022.792603 64.0
1028.344116 64.0
1029.991455 124.0
1031.422729 80.0
1037.112915 92.0
1045.191772 180.0
1052.22998 248.0
1062.481201 108.0
1071.973877 68.0
1075.939453 96.0
1076.0896 192.0
1076.363892 48.0
1078.382446 124.0
1082.078369 40.0
1092.420898 180.0
1095.817993 204.0
1102.350098 212.0
1121.843262 48.0
1126.955444 128.0
1128.780151 184.0
1137.556763 108.0
1162.034058 204.0
1167.155151 52.0
1171.776611 224.0
1189.234497 80.0
1200.730957 56.0
1207.367798 180.0
1211.790894 40.0
1224.481812 56.0
1227.171631 144.0
1229.515259 196.0
1232.902344 128.0
1234.615112 152.0
1236.301025 52.0
1240.475342 160.0
1246.075439 204.0
1251.167114 76.0
1251.434692 208.0
1263.227295 28.0
1270.020142 220.0
1274.719849 148.0
1288.835449 152.0
1291.80957 132.0
1293.634277 132.0
1295.625122 192.0
1296.406006 132.0
1296.907715 132.0
1297.789429 168.0
1301.046631 280.0
1302.231445 168.0
1304.954834 176.0
1311.851685 72.0
1315.573975 172.0
1316.18042 84.0
1317.437012 124.0
1327.707764 120.0
1329.28186 136.0
1332.040771 148.0
1340.647827 176.0
1343.22876 88.0
1347.535767 180.0
1347.761475 164.0
1354.353638 28.0
1356.647095 100.0
1363.098389 140.0
1364.362549 172.0
1366.900024 140.0
1375.116821 200.0
1377.930176 56.0
1381.744995 72.0
1382.921631 156.0
1384.831787 96.0
1385.817017 176.0
1386.61731 176.0
1388.959595 244.0
1392.849609 156.0
1393.44397 196.0
1395.383667 108.0
1395.688599 208.0
1397.942383 184.0
1400.562988 232.0
1407.379028 160.0
1408.910034 144.0
1412.273804 172.0
1413.066772 232.0
1413.149048 232.0
1415.132446 160.0
1415.304565 156.0
1417.896484 200.0
1419.838135 260.0
1430.770752 188.0
1442.334839 140.0
1443.446167 52.0
1443.824341 148.0
1448.289673 124.0
1451.093384 144.0
1459.962158 140.0
1461.101929 140.0
1461.536743 200.0
1475.279907 136.0
1480.046265 176.0
1483.256104 100.0
1483.823364 252.0
1489.893799 180.0
1490.247192 64.0
1491.907227 216.0
1492.053345 44.0
1493.883545 124.0
1496.015137 48.0
1496.284546 156.0
1496.815796 124.0
1497.016113 64.0
1498.972656 176.0
1502.133545 92.0
1503.653564 172.0
1504.093506 212.0
