>compound Enalaprilat dihydrate
>formula C18H24N2O5
>ionization [M+H]+
>parentmass 349.17749
#inchi InChI=1S/C18H24N2O5/c1-12(16(21)20-11-5-8-15(20)18(24)25)19-14(17(22)23)10-9-13-6-3-2-4-7-13/h2-4,6-7,12,14-15,19H,5,8-11H2,1H3,(H,22,23)(H,24,25)/t12-,14-,15-/m0/s1
#inchikey LZFZMUMEGBBDTC
#origInchi InChI=1S/C18H24N2O5.2H2O/c1-12(16(21)20-11-5-8-15(20)18(24)25)19-14(17(22)23)10-9-13-6-3-2-4-7-13;;/h2-4,6-7,12,14-15,19H,5,8-11H2,1H3,(H,22,23)(H,24,25);2*1H2/t12-,14-,15-;;/m0../s1
#Ion_Source LC-ESI
#Instrument qTof
#Compound_Source Commercial
#PI Dorrestein
#Data_Collector Garg_Neha
#Scan -1
#Precursor_MZ 349.176
#ExactMass 348.169
#Charge 1
#CAS_Number 84680-54-6
#Pubmed_ID N/A
#Smiles C1(=CC=CC(=C1)CC[C@@H](C(O)=O)N[C@H](C(N2[C@@H](CCC2)C(=O)O)=O)C).O.O
#INCHI_AUX N/A
#Library_Class 1
#SpectrumID CCMSLIB00000078227
#IonMode Positive
#UpdateWorkflowName UPDATE-SINGLE-ANNOTATED-GOLD
#LibraryQualityString Gold
#TaskID 77f51c88eb8b467eb4a01dd2d0cb90d2
##Scan# 1035
#SpectrumFile Plate3_61_88_GH1_01_16501.mzXML
#LibraryName FDALibrary_2_04302014.mgf
#MQScore -1
#Organism FDALibrary_2_04302014
#TIC_Query 0
#RT_Query -1
#MZErrorPPM -1
#SharedPeaks 0
#MassDiff 0
#LibMZ -1
#SpecMZ 349.176
#SpecCharge 0
#internalFilename spec-00000.mgf

>collision 10
45.000923 180.0
45.200077 228.0
45.26165 220.0
45.77998 176.0
45.806919 172.0
45.850033 204.0
45.902607 188.0
46.042953 212.0
46.165932 164.0
46.659485 148.0
47.72319 168.0
47.903477 144.0
47.946186 148.0
48.111706 172.0
48.180759 160.0
48.260918 184.0
48.415901 144.0
48.465767 212.0
48.815567 152.0
50.008934 192.0
50.38261 140.0
50.546619 152.0
50.838535 152.0
51.001862 204.0
51.146946 160.0
51.236656 212.0
51.41061 208.0
51.427738 188.0
51.899826 156.0
52.095009 140.0
52.408646 152.0
53.090931 180.0
53.369732 172.0
53.464283 204.0
53.567657 232.0
53.841866 180.0
53.87254 184.0
54.365967 212.0
54.424683 156.0
54.534859 172.0
54.704014 184.0
55.534443 308.0
55.577461 148.0
55.767548 248.0
55.788357 168.0
55.956467 200.0
56.148689 280.0
57.517059 192.0
57.571411 144.0
57.586514 180.0
57.680191 156.0
57.699844 152.0
57.755795 192.0
57.842045 200.0
57.872322 188.0
57.905636 148.0
58.365448 180.0
58.692039 172.0
58.72332 236.0
59.190952 192.0
59.220047 144.0
59.307415 188.0
59.462292 144.0
59.949802 140.0
59.985252 148.0
60.375881 140.0
60.87022 196.0
61.122036 140.0
61.65379 156.0
62.286766 236.0
62.310329 240.0
62.606041 148.0
62.752583 176.0
63.342049 196.0
63.432369 180.0
63.893776 208.0
63.93586 212.0
63.975651 176.0
64.077576 172.0
64.187553 220.0
64.3088 156.0
64.353493 200.0
64.441338 180.0
64.559624 192.0
64.665215 192.0
65.306992 140.0
65.706482 240.0
66.103958 152.0
66.163849 256.0
66.374474 180.0
66.785347 160.0
67.217293 176.0
67.230125 212.0
67.617447 208.0
67.664917 144.0
67.728783 172.0
67.75499 140.0
67.863159 164.0
68.217773 208.0
68.637596 160.0
68.70192 172.0
68.739868 260.0
69.338516 140.0
69.389908 184.0
69.628853 176.0
69.733521 212.0
69.803345 180.0
69.853233 176.0
69.966393 156.0
70.066322 152.0
70.084648 188.0
70.101311 312.0
70.161316 176.0
70.172981 156.0
70.304756 140.0
70.913521 176.0
71.042633 256.0
71.077866 212.0
71.128212 236.0
71.284401 220.0
71.321381 192.0
71.413857 144.0
71.630989 156.0
71.728722 164.0
72.025696 140.0
72.306366 216.0
72.692749 200.0
72.882927 192.0
72.985222 196.0
73.136322 176.0
73.178879 168.0
73.202721 200.0
73.489075 144.0
73.760612 324.0
73.797142 116.0
73.858078 120.0
74.753639 216.0
74.765686 180.0
74.832817 160.0
74.925819 204.0
75.037842 140.0
75.17411 180.0
75.341591 140.0
75.400337 148.0
75.49369 244.0
75.867683 208.0
75.954384 204.0
75.994286 176.0
76.366035 148.0
76.703827 180.0
76.729973 184.0
76.792747 220.0
76.930595 160.0
77.072067 160.0
77.129738 180.0
77.414909 168.0
77.437965 148.0
77.509506 196.0
77.740265 208.0
79.362053 184.0
79.928665 188.0
80.254623 192.0
80.300987 204.0
80.393753 184.0
81.07869 204.0
81.128876 160.0
81.205978 200.0
81.415955 144.0
81.592049 168.0
81.690956 196.0
81.753929 164.0
81.854736 156.0
81.903358 140.0
81.927612 224.0
82.084366 192.0
82.180984 152.0
82.520538 196.0
82.601814 216.0
83.000351 140.0
83.105553 172.0
83.176331 192.0
83.347046 196.0
83.588882 172.0
84.303711 188.0
85.322823 204.0
85.53437 176.0
85.550941 156.0
85.657745 180.0
85.718544 156.0
85.816231 184.0
85.950882 164.0
86.362854 212.0
86.423897 144.0
86.475716 212.0
86.582497 208.0
86.851837 148.0
86.966873 140.0
87.215767 160.0
87.600945 144.0
87.917908 220.0
87.930977 196.0
88.216751 208.0
88.422501 160.0
88.600388 160.0
88.63224 164.0
89.026161 172.0
89.532036 200.0
89.571594 196.0
89.820404 160.0
89.844849 196.0
89.87323 144.0
90.22641 140.0
90.445847 204.0
90.781189 208.0
90.796356 204.0
90.965225 148.0
91.055496 1388.0
91.484184 188.0
92.054268 304.0
92.233856 200.0
92.360054 204.0
92.377266 156.0
92.404053 192.0
92.486336 200.0
92.794754 140.0
93.057602 176.0
93.082565 208.0
93.103691 184.0
93.238167 192.0
93.336205 148.0
93.422752 152.0
93.520889 156.0
93.561317 148.0
93.673004 184.0
94.021988 196.0
94.290436 208.0
94.315559 184.0
94.43737 176.0
94.479927 144.0
94.679298 144.0
94.780029 140.0
94.874992 144.0
95.185425 152.0
95.218437 228.0
95.47303 164.0
95.936852 148.0
96.102203 164.0
96.156845 160.0
96.256409 216.0
96.273979 180.0
96.320854 172.0
96.958694 176.0
97.019455 216.0
97.245033 236.0
97.43158 192.0
97.750099 164.0
98.148346 200.0
98.368958 144.0
98.698891 220.0
98.718658 168.0
98.825478 248.0
99.168068 172.0
99.304871 176.0
99.544998 160.0
99.610542 144.0
99.741684 224.0
100.141617 160.0
100.372787 152.0
100.510422 196.0
100.861916 140.0
101.324173 200.0
101.474487 216.0
101.713211 140.0
102.056297 5632.0
102.19754 144.0
102.788338 152.0
102.852501 176.0
102.94133 140.0
103.059509 324.0
103.194542 164.0
104.018425 196.0
104.056999 256.0
104.288574 196.0
104.414627 160.0
104.622177 172.0
104.664932 152.0
105.067078 364.0
105.180717 184.0
105.233795 156.0
105.311394 188.0
105.988533 148.0
106.172005 144.0
106.448013 160.0
106.608246 152.0
106.680176 144.0
107.015518 188.0
107.235939 180.0
107.411201 136.0
107.710503 212.0
107.81794 188.0
107.977127 152.0
108.068146 172.0
108.507225 168.0
108.820503 236.0
108.847496 168.0
108.899414 140.0
109.440094 196.0
109.550476 168.0
109.6017 188.0
109.763062 240.0
109.788086 164.0
109.804771 144.0
110.232727 184.0
111.374527 176.0
111.935722 156.0
111.982376 192.0
112.121429 140.0
112.224716 172.0
112.374252 156.0
112.961769 188.0
113.001961 176.0
113.607872 196.0
113.673645 252.0
113.811615 160.0
114.053802 192.0
114.426071 248.0
114.585808 188.0
114.967484 140.0
115.055779 628.0
115.341248 224.0
115.390411 156.0
115.737854 176.0
115.831253 168.0
115.865532 200.0
115.989822 172.0
116.070747 4672.0
116.348061 156.0
116.481201 212.0
117.0709 8044.0
117.151764 116.0
117.415321 144.0
118.073418 796.0
118.522614 192.0
118.916801 188.0
118.992783 180.0
119.086624 320.0
120.09388 188.0
120.574203 152.0
121.139343 208.0
121.311829 220.0
121.445587 184.0
121.586006 212.0
121.704544 172.0
121.768227 212.0
122.059593 164.0
122.372948 192.0
122.496269 180.0
122.593216 160.0
123.076294 156.0
123.266258 236.0
123.423203 204.0
123.491753 168.0
123.761734 164.0
123.781662 160.0
123.872467 212.0
124.378036 160.0
124.526802 144.0
124.760117 164.0
124.986969 160.0
125.06041 148.0
125.278625 220.0
125.775894 184.0
125.804916 180.0
126.012611 204.0
126.13105 168.0
126.193642 184.0
126.961693 160.0
127.020004 168.0
127.538696 168.0
128.004395 200.0
128.236435 192.0
128.27475 164.0
128.391998 232.0
128.407776 192.0
128.721466 140.0
129.055878 188.0
129.071701 164.0
129.286606 200.0
129.417892 168.0
129.855255 172.0
130.070801 140.0
130.104858 192.0
130.243378 220.0
130.347885 156.0
130.393326 188.0
130.675293 144.0
130.73674 164.0
130.83461 148.0
131.205948 180.0
131.333649 164.0
131.808502 144.0
132.064545 188.0
132.400986 240.0
132.547592 180.0
132.641556 180.0
132.762405 164.0
133.530136 200.0
133.955948 184.0
133.972076 172.0
134.097702 4468.0
134.650208 196.0
134.689484 164.0
134.878952 160.0
134.934433 200.0
134.955246 208.0
135.099808 516.0
135.23053 172.0
135.320801 204.0
135.557068 140.0
137.622604 188.0
137.732712 184.0
137.877289 160.0
138.104019 184.0
138.127411 180.0
139.001282 152.0
139.059952 208.0
139.294754 160.0
139.387375 152.0
139.783768 200.0
140.188797 220.0
141.071533 144.0
141.166107 160.0
142.004456 268.0
142.089874 220.0
142.567123 168.0
142.866699 172.0
143.082291 152.0
143.111847 148.0
143.15947 164.0
143.261887 168.0
143.362457 208.0
143.471588 244.0
143.502594 160.0
143.574127 184.0
143.867599 176.0
143.927292 152.0
144.081406 356.0
144.7789 152.0
144.829269 124.0
145.072052 192.0
145.135635 152.0
145.459503 176.0
145.483505 152.0
145.505112 140.0
145.829407 168.0
146.008148 184.0
146.091507 192.0
146.156464 272.0
146.45256 240.0
146.773087 176.0
146.896088 204.0
147.072235 152.0
147.371689 156.0
147.782715 156.0
148.143433 144.0
149.097 176.0
149.890305 140.0
150.329239 224.0
151.111145 228.0
152.106094 180.0
152.641678 236.0
152.690857 152.0
153.069839 176.0
153.24472 180.0
153.39505 144.0
154.219482 200.0
154.62262 160.0
155.063004 200.0
155.140305 188.0
155.842651 140.0
156.093704 204.0
156.330017 160.0
156.568405 168.0
157.15979 152.0
157.594299 140.0
157.786682 160.0
157.90921 196.0
158.294601 180.0
159.783005 172.0
159.883652 200.0
160.043365 168.0
160.088333 296.0
160.112823 14664.0
160.208466 236.0
160.344528 188.0
160.373993 168.0
160.493256 216.0
160.659256 160.0
161.117203 1916.0
161.328934 168.0
161.548935 208.0
161.731125 172.0
162.011261 108.0
162.129852 412.0
162.195557 180.0
162.242813 236.0
162.375458 116.0
162.430481 196.0
162.735001 168.0
162.968674 144.0
163.55542 188.0
163.734344 152.0
163.969315 124.0
164.104187 172.0
165.214798 144.0
165.670471 152.0
165.808838 176.0
166.566498 136.0
167.231689 156.0
167.53038 196.0
167.630859 204.0
167.80304 176.0
168.046005 200.0
168.44873 156.0
168.853012 164.0
169.077026 164.0
169.346283 144.0
169.841339 172.0
170.095627 172.0
170.152725 148.0
170.238419 144.0
170.438431 156.0
170.963699 144.0
171.231857 200.0
172.095001 148.0
172.324844 156.0
172.481644 288.0
173.109543 164.0
173.355789 164.0
173.381989 180.0
173.536652 144.0
173.955124 156.0
175.366272 212.0
176.157852 168.0
176.379822 160.0
176.758011 212.0
177.324722 216.0
177.367142 164.0
177.796799 176.0
178.121994 780.0
178.242935 224.0
178.763123 192.0
178.985062 184.0
179.279236 192.0
179.600677 140.0
179.915543 152.0
180.123917 156.0
180.316223 208.0
180.417786 188.0
180.580902 164.0
181.453537 136.0
182.21875 232.0
182.514404 208.0
182.729584 144.0
182.942184 188.0
183.041794 148.0
183.22226 168.0
183.429764 236.0
184.001663 168.0
184.255524 160.0
184.393341 164.0
184.650177 156.0
185.18335 160.0
186.233002 172.0
186.662384 144.0
187.089554 188.0
187.109314 400.0
187.141281 164.0
187.228409 160.0
187.705307 180.0
188.109146 176.0
188.185532 160.0
188.436798 196.0
188.876923 140.0
188.96994 192.0
189.106766 208.0
190.093353 156.0
190.911972 184.0
191.613876 140.0
191.773697 164.0
192.08252 244.0
192.104584 216.0
193.343521 120.0
193.713425 172.0
194.140259 160.0
194.162445 180.0
194.373276 140.0
194.55368 160.0
194.678619 176.0
194.903625 188.0
194.936966 216.0
195.615601 200.0
196.373489 156.0
196.453995 176.0
196.54924 176.0
197.283768 152.0
197.420654 176.0
198.198975 176.0
198.434402 168.0
198.516937 176.0
198.930969 196.0
199.293259 148.0
199.833084 204.0
200.714691 168.0
200.824661 200.0
200.864151 140.0
200.98674 240.0
201.488037 148.0
201.68866 224.0
201.917679 160.0
202.135513 156.0
202.325134 176.0
202.843552 168.0
202.877563 252.0
203.223572 224.0
203.26329 180.0
203.515915 168.0
203.595413 184.0
204.545044 168.0
204.949448 180.0
205.034943 180.0
205.131042 128.0
205.294357 160.0
205.409607 108.0
205.433884 200.0
205.506454 168.0
205.579727 120.0
205.689148 180.0
205.73732 144.0
205.779434 188.0
205.825119 164.0
205.888565 164.0
205.935852 316.0
206.026733 204.0
206.057571 176.0
206.118637 95812.0
206.222733 292.0
206.360443 184.0
206.408707 108.0
206.45488 180.0
206.550797 100.0
206.588791 360.0
206.729935 128.0
207.049042 168.0
207.1203 10324.0
207.369507 152.0
207.684967 100.0
208.124741 1224.0
208.20079 132.0
208.417099 172.0
208.56897 148.0
208.630615 120.0
208.704788 100.0
208.740433 152.0
208.776443 144.0
209.393051 184.0
209.536575 240.0
209.594208 244.0
209.623016 188.0
210.228592 268.0
212.450714 152.0
212.510406 180.0
212.584167 180.0
213.694138 148.0
214.063797 148.0
214.296829 156.0
214.774918 268.0
214.853683 224.0
214.932449 156.0
216.127518 160.0
217.00914 208.0
217.507858 160.0
217.728058 148.0
218.501114 164.0
218.571732 188.0
218.662964 184.0
219.632309 144.0
219.983459 148.0
220.0224 124.0
220.219681 140.0
220.757553 152.0
221.168777 188.0
223.641266 168.0
224.0224 148.0
224.344238 160.0
224.86026 192.0
225.79837 212.0
225.962891 140.0
227.104218 140.0
227.305222 188.0
227.455276 264.0
227.974869 148.0
228.030365 164.0
228.425858 188.0
228.552216 168.0
228.642487 144.0
229.651779 180.0
230.71167 180.0
231.719452 156.0
232.134537 724.0
232.574615 140.0
232.954178 168.0
234.759033 152.0
236.344391 172.0
236.696396 184.0
236.812775 172.0
237.100769 200.0
237.404266 144.0
237.572952 204.0
238.693985 232.0
240.249359 204.0
240.821396 104.0
242.11319 164.0
242.199905 148.0
242.608932 232.0
244.379196 208.0
245.095322 176.0
245.225235 180.0
246.924637 144.0
247.932724 140.0
251.108047 228.0
251.556107 248.0
251.695023 152.0
251.909683 140.0
252.126328 224.0
252.377518 168.0
253.093399 160.0
253.12587 124.0
253.621658 144.0
254.103668 140.0
254.201172 148.0
254.363892 156.0
254.900635 148.0
255.018219 236.0
255.100861 160.0
255.259827 148.0
255.55246 144.0
255.632004 156.0
255.97261 152.0
256.053528 204.0
257.24472 172.0
258.308807 140.0
259.144379 172.0
260.238068 156.0
260.356903 220.0
260.414703 156.0
261.253662 164.0
261.800812 196.0
262.119751 180.0
263.258453 172.0
264.891754 188.0
264.966034 108.0
264.97406 100.0
265.445984 168.0
265.874176 144.0
266.163086 172.0
267.476501 224.0
267.554657 164.0
267.583954 152.0
268.858429 184.0
269.554016 172.0
270.669434 144.0
270.793884 164.0
270.875763 152.0
272.018097 164.0
272.667236 164.0
273.054993 140.0
273.394043 168.0
273.762726 168.0
274.975922 144.0
275.197113 140.0
276.155426 152.0
276.393616 184.0
276.996155 172.0
277.515411 176.0
277.685577 204.0
278.08371 180.0
279.0271 256.0
279.825592 196.0
280.048706 140.0
281.349182 224.0
281.402588 156.0
282.471985 160.0
283.030884 256.0
283.121307 148.0
283.781433 148.0
283.972565 148.0
284.324829 180.0
284.647095 168.0
285.335327 216.0
286.496948 184.0
286.796844 164.0
288.86673 172.0
289.032501 168.0
290.852417 216.0
291.956604 208.0
292.116455 160.0
292.337616 144.0
292.613312 168.0
292.654175 156.0
293.058411 152.0
293.335541 228.0
293.475311 144.0
293.833435 168.0
295.295441 196.0
295.513428 116.0
296.356628 200.0
296.551971 168.0
297.268738 260.0
297.64975 196.0
298.113495 140.0
298.581024 200.0
301.393951 152.0
301.473419 188.0
301.525269 148.0
301.597839 140.0
301.971252 152.0
302.18573 156.0
302.220306 276.0
302.361725 132.0
302.668427 232.0
302.737488 108.0
302.838409 140.0
302.875427 188.0
303.003906 188.0
303.048004 236.0
303.10318 188.0
303.171936 31492.0
303.25528 116.0
303.531555 144.0
303.562866 164.0
303.624939 148.0
303.755249 132.0
304.028137 144.0
304.173828 5400.0
304.230469 176.0
304.338806 156.0
304.671509 164.0
304.855927 200.0
305.177368 784.0
305.307587 224.0
305.902313 120.0
306.11145 192.0
306.174713 312.0
306.213196 148.0
306.637482 188.0
307.22464 132.0
309.799713 212.0
311.279785 160.0
311.455383 204.0
311.581848 144.0
311.680237 156.0
313.122528 160.0
313.68277 184.0
313.760315 160.0
314.084747 172.0
315.91806 148.0
316.325012 144.0
316.395813 144.0
317.15387 148.0
317.808258 100.0
319.241455 168.0
319.657654 148.0
320.44812 160.0
320.779541 140.0
320.986328 140.0
321.036255 184.0
321.309357 192.0
322.435699 164.0
322.743103 148.0
324.877655 188.0
325.060638 196.0
325.214966 172.0
325.667358 184.0
326.069763 156.0
327.4729 168.0
328.316254 148.0
328.88269 192.0
329.14621 192.0
329.619415 208.0
329.648315 140.0
330.07486 176.0
330.519775 148.0
330.697113 156.0
331.088104 148.0
331.175018 164.0
332.349579 156.0
334.462677 128.0
334.5047 172.0
336.659485 172.0
336.889587 152.0
337.605957 192.0
338.204254 264.0
338.453278 116.0
340.089935 224.0
340.152344 172.0
340.214752 228.0
340.692169 164.0
341.331665 196.0
342.715668 180.0
342.745148 152.0
343.523041 232.0
345.37735 152.0
345.48465 148.0
345.932404 184.0
346.795471 144.0
347.090393 120.0
347.127411 168.0
347.168304 212.0
347.379425 100.0
347.469208 192.0
347.53714 228.0
347.720154 152.0
347.784943 284.0
347.937378 176.0
347.972778 160.0
348.036163 152.0
348.121796 156.0
348.15451 212.0
348.18576 148.0
348.261169 384.0
348.339722 172.0
348.527557 140.0
348.603119 220.0
348.836975 200.0
348.877258 192.0
348.916565 384.0
348.984009 280.0
349.013977 336.0
349.122223 472.0
349.17749 134976.0
349.322845 220.0
349.413971 108.0
349.457825 140.0
349.468536 244.0
349.532928 252.0
349.56546 172.0
349.626709 252.0
349.675232 216.0
349.743652 116.0
349.789734 1136.0
349.832367 500.0
349.876495 124.0
349.999481 160.0
350.179626 30176.0
350.615723 156.0
350.678284 148.0
350.748077 208.0
350.856567 124.0
351.069397 136.0
351.128326 152.0
351.182526 4148.0
351.248169 192.0
351.377228 208.0
351.557373 180.0
351.74408 124.0
351.796631 224.0
351.824219 148.0
352.09906 152.0
352.184204 196.0
352.296753 100.0
352.41922 224.0
352.470673 148.0
352.529602 184.0
352.56488 312.0
352.602722 116.0
352.666504 140.0
352.964081 152.0
353.24231 140.0
353.492004 152.0
354.130249 140.0
355.125275 108.0
365.970947 144.0
413.147644 236.0
561.82074 140.0
616.546631 148.0
796.532349 220.0
849.205139 140.0
859.776306 180.0
965.339539 148.0
1356.632812 224.0
1439.443115 152.0
1440.621338 164.0
1471.034912 144.0
1475.381592 180.0
1476.589722 140.0
1483.113037 208.0
1483.603638 160.0
1486.518188 196.0
1488.813477 188.0
1490.580322 160.0
1532.893188 208.0
1548.791748 184.0
1580.850708 160.0
1584.603882 204.0
1600.560669 196.0
1608.14209 168.0
1610.673096 216.0
1616.365356 164.0
1618.550659 160.0
1620.721313 200.0
1638.888306 224.0
1695.741943 156.0
1696.241943 160.0
1713.231934 184.0
1714.002197 164.0
1716.046265 204.0
1734.597534 164.0
1736.703613 168.0
1742.182129 164.0
1746.712524 204.0
1752.923462 172.0
1754.832153 196.0
1755.524292 172.0
1762.302124 200.0
1762.953979 220.0
1769.244751 176.0
1779.581055 220.0
1780.462769 140.0
1787.911255 180.0
1792.138428 156.0
1799.611328 188.0
1810.824341 184.0
1817.343262 144.0
1825.293579 224.0
1829.43689 208.0
1834.79541 184.0
1837.968262 184.0
1840.187378 172.0
1841.049805 160.0
1841.297485 168.0
1855.921997 164.0
1863.165649 168.0
1880.041992 196.0
1880.991333 156.0
1888.655762 152.0
1894.904175 120.0
1898.026123 160.0
1907.480591 200.0
1909.115112 156.0
1914.623779 176.0
1915.825806 204.0
1917.880005 212.0
1920.663696 144.0
1920.742188 200.0
1926.433594 168.0
1928.880371 164.0
1934.02356 220.0
1934.522583 232.0
1939.182495 244.0
1944.936157 200.0
1949.503174 140.0
1957.939697 152.0
1961.27002 180.0
1964.42688 176.0
1965.070801 204.0
1973.258057 156.0
1975.124023 212.0
1975.831665 160.0
1977.105835 168.0
1978.167969 208.0
1982.07373 176.0
1989.355103 156.0
1990.092041 148.0
1993.52063 204.0
1994.622681 148.0
1996.418701 176.0
1997.014526 200.0
1998.304443 220.0
1998.802734 200.0
2000.653931 176.0
