>compound MLS001159936-01!
>formula C26H27ClN2O5
>ionization [M+H]+
>parentmass 483.167206
#inchi InChI=1S/C26H27ClN2O5/c1-2-3-5-17-9-26(32)34-22-11-23(20(27)10-19(17)22)33-15-25(31)28-12-16-8-18(14-28)21-6-4-7-24(30)29(21)13-16/h4,6-7,9-11,16,18H,2-3,5,8,12-15H2,1H3/t16-,18+/m1/s1
#inchikey KHAMBCHKQKEHIP
#Ion_Source LC-ESI
#Instrument qTof
#Compound_Source NIH Natural Product Library
#PI Dorrestein
#Data_Collector VVP/LMS
#Scan -1
#Precursor_MZ 483.169
#ExactMass 482.161
#Charge 1
#CAS_Number N/A
#Pubmed_ID N/A
#Smiles CCCCc1cc(=O)oc2cc(OCC(=O)N3C[C@H]4C[C@@H](C3)c5cccc(=O)n5C4)c(Cl)cc12
#INCHI_AUX N/A
#Library_Class 1
#SpectrumID CCMSLIB00000079462
#IonMode Positive
#UpdateWorkflowName UPDATE-SINGLE-ANNOTATED-GOLD
#LibraryQualityString Gold
#TaskID b1d8e8f6646f4e71acdff9ca3d919d08
##Scan# 2136
#SpectrumFile p1-F06_GF6_01_17938.mzXML
#LibraryName NIH_Natural_Products_Library.mgf
#MQScore -1
#Organism NIH_Natural_Products_Library
#TIC_Query 0
#RT_Query -1
#MZErrorPPM -1
#SharedPeaks 0
#MassDiff 0
#LibMZ -1
#SpecMZ 483.169
#SpecCharge 0
#internalFilename spec-00000.mgf

>collision 10
94.972168 228.0
95.009026 96.0
95.039597 196.0
95.066895 156.0
95.09919 152.0
95.129341 184.0
95.168175 36.0
95.209976 144.0
95.249733 108.0
95.475197 144.0
95.504364 212.0
95.556892 216.0
95.615265 236.0
95.628891 44.0
95.780083 248.0
95.832253 148.0
95.852844 188.0
95.88208 356.0
95.965897 192.0
96.040985 272.0
96.082916 180.0
96.200005 44.0
96.263718 116.0
96.28006 156.0
96.313263 172.0
96.360146 136.0
96.381638 196.0
96.40509 124.0
96.536064 140.0
96.559532 116.0
96.615456 176.0
96.629951 224.0
96.66713 228.0
96.706268 176.0
96.770866 184.0
96.81395 172.0
96.857414 200.0
96.919724 180.0
96.940323 188.0
97.045166 108.0
97.096153 72.0
97.109879 208.0
97.125572 160.0
97.15107 136.0
97.186089 208.0
97.260963 104.0
97.278625 188.0
97.312004 192.0
97.347343 196.0
97.455383 144.0
97.649994 204.0
97.663757 152.0
97.709007 184.0
97.732613 144.0
97.752289 172.0
97.819702 176.0
97.86055 144.0
98.065933 216.0
98.139709 240.0
98.211327 152.0
98.240913 196.0
98.296158 44.0
98.394844 136.0
98.438492 188.0
98.509384 56.0
98.541641 140.0
98.574585 156.0
98.641785 120.0
98.655617 160.0
98.712959 148.0
98.810707 116.0
98.831642 136.0
98.857361 188.0
98.930595 112.0
99.045448 132.0
99.124695 136.0
99.138565 132.0
99.354691 48.0
99.378494 204.0
99.412231 92.0
99.551926 108.0
99.577003 148.0
99.660439 204.0
99.757881 124.0
99.968643 156.0
100.050255 204.0
100.072151 108.0
100.137863 192.0
100.173721 188.0
100.299255 164.0
100.345665 328.0
100.377007 152.0
100.433167 200.0
100.476738 172.0
100.596474 260.0
100.616432 200.0
100.660362 164.0
100.682327 96.0
100.76622 144.0
100.794197 144.0
100.875183 168.0
100.914124 104.0
100.967369 176.0
101.042122 184.0
101.086143 224.0
101.120163 140.0
101.148186 116.0
101.192223 180.0
101.256302 168.0
101.292358 212.0
101.30838 116.0
101.370491 188.0
101.440643 156.0
101.558945 124.0
101.627151 120.0
101.685349 112.0
101.733521 192.0
101.803795 188.0
101.89418 132.0
101.972549 232.0
101.99868 140.0
102.104507 164.0
102.17363 96.0
102.201797 180.0
102.322556 220.0
102.35276 68.0
102.403107 120.0
102.423248 144.0
102.580421 100.0
102.660423 188.0
102.66349 236.0
102.709473 216.0
102.730835 156.0
102.753853 108.0
102.776047 172.0
102.866859 132.0
102.897713 184.0
102.992058 192.0
103.032455 116.0
103.061562 192.0
103.089027 152.0
103.238625 88.0
103.293236 112.0
103.342415 232.0
103.623215 164.0
103.63942 176.0
103.777245 184.0
103.822563 180.0
103.840111 176.0
103.917191 156.0
103.946831 204.0
104.028816 184.0
104.049789 528.0
104.181122 108.0
104.240036 172.0
104.260361 204.0
104.406731 196.0
104.451477 108.0
104.469788 128.0
104.484032 60.0
104.530823 124.0
104.571526 152.0
104.604095 188.0
104.635651 216.0
104.686478 180.0
104.761665 268.0
104.893349 76.0
104.916496 180.0
104.942276 156.0
104.986397 188.0
105.05864 420.0
105.182999 72.0
105.209541 304.0
105.267418 184.0
105.319809 124.0
105.346359 268.0
105.456703 48.0
105.556877 144.0
105.597778 176.0
105.659142 116.0
105.698013 144.0
105.765556 212.0
105.826965 160.0
105.896591 68.0
105.935509 228.0
105.986732 60.0
106.001076 112.0
106.029762 60.0
106.06337 520.0
106.240959 176.0
106.26458 156.0
106.292252 100.0
106.310722 144.0
106.343559 116.0
106.464684 152.0
106.492836 192.0
106.518082 128.0
106.563278 144.0
106.581772 248.0
106.612595 164.0
106.729767 56.0
106.79969 152.0
106.869919 144.0
106.896378 136.0
106.935486 192.0
106.999298 148.0
107.046448 240.0
107.061432 200.0
107.086906 212.0
107.256798 128.0
107.290245 160.0
107.337196 68.0
107.394943 136.0
107.438263 96.0
107.489845 148.0
107.557945 136.0
107.576523 112.0
107.651352 244.0
107.694221 180.0
107.787186 128.0
107.840919 212.0
107.86779 104.0
107.987717 144.0
108.020813 172.0
108.039658 180.0
108.057037 172.0
108.062187 108.0
108.081833 324.0
108.113632 144.0
108.17601 136.0
108.267113 168.0
108.300247 28.0
108.366539 148.0
108.704521 196.0
108.739799 176.0
108.833214 256.0
108.893433 140.0
108.988991 92.0
109.018082 136.0
109.05146 3868.0
109.08667 180.0
109.115776 72.0
109.185844 132.0
109.213516 180.0
109.250954 72.0
109.264893 148.0
109.286324 192.0
109.307129 96.0
109.336769 212.0
109.352913 60.0
109.390251 196.0
109.736206 64.0
109.76123 152.0
109.788338 156.0
109.884285 164.0
109.999069 136.0
110.058174 508.0
110.164032 52.0
110.197464 160.0
110.329124 112.0
110.421494 160.0
110.439957 136.0
110.485977 160.0
110.544556 124.0
110.609436 80.0
110.63076 152.0
110.781151 148.0
110.845009 152.0
110.940414 92.0
110.96138 60.0
111.069397 516.0
111.150146 96.0
111.183723 120.0
111.283974 88.0
111.336975 60.0
111.460915 140.0
111.509247 132.0
111.523964 200.0
111.761597 140.0
111.791054 216.0
111.809998 68.0
112.021759 272.0
112.060577 72.0
112.087967 72.0
112.111145 216.0
112.138542 52.0
112.216537 104.0
112.256599 164.0
112.271362 176.0
112.372612 208.0
112.400352 136.0
112.459129 196.0
112.484459 104.0
112.509796 176.0
112.583694 128.0
112.676636 204.0
112.859413 108.0
112.988113 216.0
113.023376 164.0
113.134079 196.0
113.215775 180.0
113.243546 144.0
113.353706 192.0
113.383369 176.0
113.398209 160.0
113.540253 152.0
113.595398 132.0
113.616615 168.0
113.649857 132.0
113.675926 176.0
113.707855 204.0
113.943558 164.0
114.088074 72.0
114.222382 148.0
114.281609 172.0
114.309799 224.0
114.33268 168.0
114.370987 68.0
114.393433 212.0
114.456146 92.0
114.489532 224.0
114.528549 160.0
114.581802 212.0
114.62442 180.0
114.639336 100.0
114.694748 164.0
114.709671 204.0
114.758705 112.0
114.945312 164.0
114.967743 156.0
115.010429 116.0
115.054962 404.0
115.125717 128.0
115.194061 72.0
115.211151 36.0
115.293488 232.0
115.335091 140.0
115.450546 252.0
115.536102 144.0
115.553215 152.0
115.615273 60.0
115.651657 124.0
115.679482 148.0
115.801529 176.0
115.83625 152.0
115.874359 152.0
115.908646 176.0
116.010368 164.0
116.048302 456.0
116.110153 176.0
116.191658 188.0
116.256035 144.0
116.301102 120.0
116.331154 140.0
116.378387 100.0
116.429924 192.0
116.444954 136.0
116.490059 188.0
116.537323 164.0
116.625435 96.0
116.771637 128.0
116.80175 168.0
116.849075 108.0
116.971741 172.0
117.057213 704.0
117.148315 136.0
117.215912 192.0
117.244621 224.0
117.290535 160.0
117.322868 80.0
117.340118 60.0
117.363358 216.0
117.415588 104.0
117.456566 144.0
117.49324 124.0
117.54718 160.0
117.579552 180.0
117.607208 236.0
117.648621 188.0
117.693962 128.0
117.769547 108.0
117.793304 132.0
117.858116 48.0
117.898773 172.0
118.066551 368.0
118.119713 32.0
118.271172 140.0
118.301384 188.0
118.342613 152.0
118.362099 156.0
118.377258 232.0
118.422737 220.0
118.444397 132.0
118.584229 164.0
118.628586 176.0
118.734833 188.0
118.769531 156.0
118.797729 168.0
118.830276 208.0
118.977104 140.0
119.018654 136.0
119.073921 332.0
119.112488 168.0
119.162453 220.0
119.20591 152.0
119.236336 104.0
119.31459 156.0
119.364594 104.0
119.410263 180.0
119.42984 320.0
119.53862 168.0
119.573433 92.0
119.610435 52.0
119.630028 152.0
119.721474 116.0
119.736717 104.0
119.799889 128.0
119.885834 152.0
119.92524 196.0
119.987305 52.0
120.006927 196.0
120.043999 164.0
120.077728 300.0
120.177055 132.0
120.287613 236.0
120.347298 152.0
120.532959 140.0
120.633492 64.0
120.688103 188.0
120.716576 140.0
120.806252 216.0
120.836876 184.0
120.867508 64.0
120.909088 140.0
120.981316 164.0
121.011971 184.0
121.041176 744.0
121.110512 228.0
121.141182 132.0
121.165276 164.0
121.195381 232.0
121.215675 348.0
121.349373 160.0
121.373497 120.0
121.393227 164.0
121.417351 96.0
121.500702 148.0
121.663101 232.0
121.731171 112.0
121.753075 164.0
121.91597 192.0
121.94207 184.0
121.997017 92.0
122.059669 3344.0
122.093765 144.0
122.126755 28.0
122.15535 144.0
122.199348 236.0
122.219154 180.0
122.257248 172.0
122.289574 124.0
122.388634 204.0
122.415054 128.0
122.528572 164.0
122.580269 124.0
122.595695 48.0
122.613327 268.0
122.670631 172.0
122.710312 236.0
122.818375 156.0
122.902199 188.0
122.937508 156.0
123.066132 1524.0
123.132927 216.0
123.162704 132.0
123.184792 44.0
123.215721 112.0
123.237816 84.0
123.255493 52.0
123.301895 204.0
123.348312 180.0
123.363785 160.0
123.394737 248.0
123.472595 172.0
123.538483 32.0
123.609283 40.0
123.640266 116.0
123.693382 100.0
123.731018 92.0
123.841736 360.0
123.88604 116.0
123.920853 180.0
124.072189 344.0
124.170578 140.0
124.340584 160.0
124.407173 80.0
124.446045 120.0
124.509315 148.0
124.555954 84.0
124.580681 152.0
124.753723 144.0
124.811531 216.0
124.858231 68.0
124.911613 128.0
125.005669 200.0
125.069504 188.0
125.138603 84.0
125.223221 56.0
125.376945 228.0
125.439354 228.0
125.492859 80.0
125.53746 40.0
125.733559 124.0
125.820824 108.0
125.865479 148.0
125.890045 156.0
125.934807 88.0
125.972679 200.0
125.997253 112.0
126.117928 152.0
126.205109 36.0
126.323639 196.0
126.360031 180.0
126.377335 76.0
126.406425 108.0
126.507141 120.0
126.63253 108.0
126.715416 148.0
126.885788 200.0
126.91861 164.0
126.95974 160.0
126.997864 84.0
127.031509 164.0
127.047043 156.0
127.078621 64.0
127.184097 152.0
127.220009 212.0
127.309822 196.0
127.372711 188.0
127.439476 164.0
127.482796 212.0
127.581696 84.0
127.640152 128.0
127.696373 196.0
127.777351 148.0
127.851532 116.0
127.876366 164.0
127.942162 104.0
128.032822 196.0
128.053696 272.0
128.06041 172.0
128.070694 192.0
128.077393 268.0
128.210617 232.0
128.277298 232.0
128.410324 232.0
128.442719 288.0
128.472122 244.0
128.514099 148.0
128.565994 136.0
128.617905 144.0
128.674973 188.0
128.714981 144.0
128.843719 64.0
128.918289 180.0
128.965744 64.0
129.070358 192.0
129.158218 164.0
129.336685 160.0
129.402344 164.0
129.488388 128.0
129.551819 116.0
129.740311 220.0
129.785248 204.0
129.871429 220.0
129.903183 180.0
129.948547 44.0
129.973511 204.0
130.003006 208.0
130.045898 160.0
130.06636 596.0
130.136398 236.0
130.257294 144.0
130.384537 140.0
130.482956 140.0
130.552765 176.0
130.591522 220.0
130.675598 236.0
130.730209 232.0
130.96698 144.0
130.992035 140.0
131.010254 64.0
131.045319 276.0
131.071365 388.0
131.119827 192.0
131.140137 176.0
131.176605 224.0
131.308853 48.0
131.466278 64.0
131.57811 84.0
131.646622 160.0
131.751678 44.0
131.824799 112.0
131.888977 148.0
131.944763 140.0
131.98024 208.0
132.044464 2660.0
132.078827 1260.0
132.117462 80.0
132.133469 156.0
132.21814 252.0
132.297424 200.0
132.330292 88.0
132.360062 28.0
132.412735 68.0
132.478348 192.0
132.53186 168.0
132.547897 212.0
132.600601 76.0
132.64415 112.0
132.687714 116.0
132.712921 208.0
132.735855 192.0
132.813828 164.0
132.848236 220.0
132.908417 192.0
132.944611 116.0
132.969849 148.0
133.050919 5416.0
133.140717 140.0
133.193207 128.0
133.225372 196.0
133.245392 76.0
133.277206 228.0
133.318924 144.0
133.348801 172.0
133.427322 220.0
133.472946 84.0
133.539627 116.0
133.643631 116.0
133.668457 184.0
133.738815 56.0
133.783539 164.0
133.827286 64.0
133.963852 148.0
133.993103 96.0
134.020752 148.0
134.059555 8820.0
134.098145 344.0
134.143539 216.0
134.200638 180.0
134.225906 44.0
134.336609 128.0
134.391983 204.0
134.408127 68.0
134.490845 152.0
134.515167 136.0
134.536957 88.0
134.627426 48.0
134.654816 204.0
134.664062 176.0
134.708267 124.0
134.724426 172.0
134.743973 252.0
134.782196 56.0
134.85614 156.0
134.950928 84.0
134.980988 88.0
135.024109 196.0
135.065018 1244.0
135.101242 148.0
135.152145 36.0
135.176147 172.0
135.260376 68.0
135.313797 128.0
135.32872 152.0
135.457748 88.0
135.487854 160.0
135.508713 80.0
135.536514 176.0
135.581345 128.0
135.631531 68.0
135.673264 152.0
135.778946 156.0
135.923752 56.0
135.967834 52.0
135.988724 92.0
136.060837 260.0
136.08197 312.0
136.125702 100.0
136.1884 148.0
136.353195 108.0
136.399841 160.0
136.560287 128.0
136.69754 124.0
136.799942 124.0
136.902023 152.0
137.009537 164.0
137.075989 156.0
137.095749 124.0
137.154007 148.0
137.179657 180.0
137.26825 116.0
137.366211 44.0
137.382538 44.0
137.42453 112.0
137.464203 144.0
137.485199 80.0
137.517868 220.0
137.664948 180.0
137.695312 168.0
137.751801 152.0
138.073914 172.0
138.13707 184.0
138.261078 92.0
138.298523 128.0
138.474121 56.0
138.931213 176.0
138.987518 180.0
139.031403 360.0
139.067307 176.0
139.095474 140.0
139.194077 144.0
139.21521 164.0
139.233994 112.0
139.282928 220.0
139.530899 36.0
139.546524 200.0
139.605301 164.0
139.711151 104.0
139.918243 160.0
139.988876 100.0
140.047821 152.0
140.127853 104.0
140.389496 140.0
140.406006 144.0
140.436401 184.0
140.634857 236.0
140.852081 104.0
140.892242 220.0
140.915863 260.0
140.946579 188.0
140.970215 120.0
141.011871 488.0
141.045837 96.0
141.071854 248.0
141.10495 108.0
141.187698 128.0
141.23027 108.0
141.275223 204.0
141.293304 168.0
141.341461 156.0
141.391159 196.0
141.419556 152.0
141.537933 92.0
141.554504 116.0
141.604233 132.0
141.699707 144.0
141.915222 172.0
142.026123 152.0
142.066879 620.0
142.090179 176.0
142.121017 192.0
142.170853 116.0
142.213562 184.0
142.314346 220.0
142.420441 124.0
142.489029 160.0
142.524658 160.0
142.619858 180.0
142.707687 132.0
142.757614 200.0
142.817078 164.0
142.855133 116.0
142.98436 396.0
143.016937 152.0
143.03598 164.0
143.069061 332.0
143.16217 68.0
143.216949 168.0
143.271729 104.0
143.307465 108.0
143.407455 208.0
143.544815 160.0
143.600677 172.0
143.669846 176.0
143.702164 160.0
143.750977 172.0
143.789795 104.0
143.815414 152.0
143.875092 148.0
143.892868 196.0
143.936554 124.0
143.98732 252.0
144.036087 156.0
144.080124 824.0
144.145966 224.0
144.197556 112.0
144.341492 172.0
144.362518 96.0
144.403168 188.0
144.424698 48.0
144.47493 140.0
144.506027 112.0
144.568237 196.0
144.71904 176.0
144.746902 224.0
144.831604 152.0
144.898666 76.0
145.0065 92.0
145.05043 596.0
145.087021 744.0
145.128754 76.0
145.163239 284.0
145.297852 144.0
145.360229 104.0
145.450226 128.0
145.467026 144.0
145.558716 148.0
145.585083 120.0
145.636948 168.0
145.683853 120.0
145.707184 148.0
145.735001 172.0
145.784073 120.0
145.824921 224.0
145.851364 156.0
145.871521 196.0
145.894638 112.0
145.948166 204.0
145.969162 120.0
145.992004 128.0
146.027359 160.0
146.059708 43200.0
146.119247 60.0
146.149567 120.0
146.166245 84.0
146.197327 52.0
146.216949 124.0
146.233795 116.0
146.257858 32.0
146.289337 108.0
146.332443 192.0
146.368607 100.0
146.387863 84.0
146.413803 244.0
146.454971 304.0
146.501068 220.0
146.52034 68.0
146.539612 84.0
146.59021 48.0
146.637207 56.0
146.666443 128.0
146.691437 64.0
146.711685 152.0
146.739655 48.0
146.759079 76.0
146.796722 64.0
146.826462 116.0
146.850586 124.0
146.875336 108.0
146.910889 164.0
146.945541 196.0
146.98085 136.0
147.00499 148.0
147.031189 148.0
147.066742 34488.0
147.114563 148.0
147.140762 144.0
147.16301 68.0
147.179932 92.0
147.222244 76.0
147.256317 112.0
147.310928 84.0
147.316284 60.0
147.334778 184.0
147.367172 244.0
147.389847 84.0
147.422104 168.0
147.454178 44.0
147.504929 72.0
147.549347 160.0
147.626404 148.0
147.668045 148.0
147.708054 44.0
147.744919 248.0
147.763687 28.0
147.836273 156.0
147.889526 36.0
147.952454 180.0
147.968201 76.0
147.987106 128.0
148.073975 8720.0
148.115952 108.0
148.148621 72.0
148.2005 136.0
148.226151 200.0
148.243973 156.0
148.262939 308.0
148.278564 152.0
148.315811 152.0
148.340057 132.0
148.367096 52.0
148.424911 60.0
148.444305 172.0
148.468567 136.0
148.568008 64.0
148.59227 200.0
148.609253 100.0
148.628662 40.0
148.673782 196.0
148.78157 88.0
148.855621 76.0
148.885971 116.0
148.907837 80.0
148.936981 180.0
148.971802 88.0
148.993378 128.0
149.072388 2704.0
149.133102 128.0
149.158096 32.0
149.201935 116.0
149.238663 124.0
149.282089 92.0
149.318573 52.0
149.340454 124.0
149.430466 36.0
149.447495 172.0
149.474258 180.0
149.501022 168.0
149.537537 244.0
149.598389 68.0
149.627594 84.0
149.66655 124.0
149.686035 172.0
149.895523 144.0
149.940842 224.0
150.012512 228.0
150.029572 156.0
150.074844 224.0
150.166122 176.0
150.183197 88.0
150.210022 56.0
150.276245 168.0
150.297852 92.0
150.324692 180.0
150.373505 80.0
150.419876 180.0
150.44278 124.0
150.51265 160.0
150.571259 88.0
150.681183 156.0
150.715393 120.0
150.849808 40.0
150.908478 228.0
151.003845 156.0
151.042068 64.0
151.060333 128.0
151.078842 212.0
151.082901 164.0
151.121262 192.0
151.179993 208.0
151.202011 164.0
151.235458 128.0
151.275452 164.0
151.503128 176.0
151.55954 128.0
151.606094 132.0
151.625702 136.0
151.787491 164.0
151.903763 196.0
152.0009 188.0
152.035263 220.0
152.070023 168.0
152.108887 144.0
152.15799 140.0
152.222778 164.0
152.240067 172.0
152.268478 152.0
152.332352 144.0
152.361832 60.0
152.396225 40.0
152.418335 144.0
152.47731 220.0
152.634186 192.0
152.676453 132.0
152.718262 140.0
152.772369 96.0
152.856033 196.0
152.873245 420.0
152.947083 172.0
153.068161 156.0
153.161301 148.0
153.432373 120.0
153.64447 128.0
153.703674 172.0
153.765366 216.0
153.78511 216.0
153.8172 228.0
153.883865 120.0
153.930771 152.0
153.977692 188.0
154.064133 864.0
154.187683 116.0
154.232178 168.0
154.314041 140.0
154.363205 132.0
154.431229 152.0
154.459656 92.0
154.519028 168.0
154.645233 176.0
154.719498 148.0
154.769012 112.0
154.85817 160.0
155.056366 172.0
155.079453 336.0
155.120819 276.0
155.14679 92.0
155.236816 208.0
155.536453 212.0
155.621948 92.0
155.815674 128.0
155.922516 80.0
156.043381 192.0
156.078445 352.0
156.133835 164.0
156.220886 260.0
156.352768 76.0
156.412491 176.0
156.467255 132.0
156.492157 120.0
156.656525 100.0
156.796158 332.0
156.91571 212.0
156.94812 132.0
157.011002 148.0
157.049225 200.0
157.064926 324.0
157.087784 148.0
157.242477 176.0
157.299896 56.0
157.317368 176.0
157.449692 132.0
157.504715 132.0
157.537125 56.0
157.79953 196.0
157.85704 180.0
157.897049 168.0
158.01712 132.0
158.059647 1132.0
158.197311 52.0
158.447739 184.0
158.565506 104.0
158.705887 132.0
158.746002 140.0
158.788635 156.0
158.806198 140.0
158.971771 196.0
159.014435 140.0
159.067123 3448.0
159.097778 168.0
159.129913 136.0
159.148407 192.0
159.177612 104.0
159.235382 216.0
159.255478 60.0
159.338364 44.0
159.370865 180.0
159.401184 32.0
159.446411 160.0
159.56958 136.0
159.738434 228.0
159.785873 220.0
159.826126 72.0
159.846268 52.0
159.904144 148.0
159.940491 228.0
159.972107 100.0
160.032776 192.0
160.07486 16468.0
160.129211 68.0
160.163208 168.0
160.196426 48.0
160.219254 332.0
160.259201 52.0
160.335434 176.0
160.354263 116.0
160.390259 200.0
160.488571 196.0
160.57431 168.0
160.591965 44.0
160.619705 36.0
160.652496 56.0
160.677734 92.0
160.845688 136.0
160.962936 52.0
161.018494 108.0
161.078506 3180.0
161.10527 252.0
161.124588 136.0
161.162491 120.0
161.220612 108.0
161.321701 88.0
161.346985 36.0
161.496185 112.0
161.625198 116.0
161.660629 176.0
161.713776 84.0
161.769455 32.0
161.811584 112.0
161.934998 148.0
161.987228 80.0
162.00412 112.0
162.054214 128.0
162.089203 1748.0
162.127823 152.0
162.200928 240.0
162.230499 132.0
162.293335 92.0
162.319244 84.0
162.342072 172.0
162.704895 184.0
162.768372 164.0
162.806473 32.0
162.829315 124.0
163.040894 144.0
163.057983 200.0
163.097809 812.0
163.218124 132.0
163.327484 48.0
163.345291 80.0
163.45723 96.0
163.640503 160.0
163.872269 124.0
164.045563 192.0
164.098038 356.0
164.218948 116.0
164.313339 68.0
164.351608 168.0
164.434769 136.0
164.604309 176.0
164.875092 68.0
164.936935 224.0
164.969666 156.0
165.008514 204.0
165.054031 44.0
165.133301 116.0
165.215164 164.0
165.240738 132.0
165.294479 80.0
165.391724 144.0
165.432678 188.0
165.481323 80.0
165.524857 156.0
165.591431 132.0
165.611923 160.0
165.770767 84.0
166.006607 168.0
166.047638 84.0
166.075378 152.0
166.175888 64.0
166.325623 184.0
166.376083 172.0
166.412018 96.0
166.68428 96.0
166.982498 96.0
167.024872 276.0
167.079086 736.0
167.219193 64.0
167.242355 60.0
167.265518 128.0
167.371078 116.0
167.471512 200.0
167.582275 196.0
167.615768 184.0
167.664734 96.0
167.68399 156.0
167.714035 160.0
167.744644 164.0
167.909653 160.0
168.024246 188.0
168.196045 152.0
168.358932 180.0
168.485764 232.0
168.526611 132.0
168.555023 96.0
168.62738 140.0
168.723022 128.0
168.813522 180.0
169.014297 136.0
169.07222 176.0
169.092926 152.0
169.372559 208.0
169.450272 188.0
169.538361 156.0
169.605759 180.0
169.680923 48.0
169.753525 216.0
169.818359 184.0
169.934097 196.0
169.979202 196.0
170.046677 152.0
170.114166 164.0
170.142731 120.0
170.438812 144.0
170.584351 140.0
170.610352 156.0
170.74556 192.0
170.847 44.0
170.932861 36.0
170.974487 204.0
171.000046 252.0
171.016907 268.0
171.084122 264.0
171.602264 92.0
171.692703 140.0
171.720032 96.0
171.866898 276.0
171.936142 192.0
171.993561 128.0
172.074631 8332.0
172.152817 80.0
172.189392 40.0
172.221512 176.0
172.259903 48.0
172.28598 120.0
172.312149 56.0
172.343506 176.0
172.374863 80.0
172.431122 176.0
172.580368 148.0
172.667648 72.0
172.725189 52.0
172.764435 28.0
172.807709 104.0
172.826355 168.0
172.869095 52.0
172.89003 100.0
172.960693 44.0
172.981812 60.0
172.990875 136.0
173.026764 156.0
173.082703 29732.0
173.1492 84.0
173.171967 128.0
173.218353 40.0
173.256592 108.0
173.317398 116.0
173.392853 32.0
173.445267 88.0
173.477737 176.0
173.501328 168.0
173.536102 80.0
173.557999 32.0
173.586853 88.0
173.683884 48.0
173.757339 68.0
173.817688 84.0
173.878036 44.0
173.899033 44.0
173.978531 168.0
174.017166 80.0
174.040787 116.0
174.08728 4624.0
174.145828 160.0
174.220413 244.0
174.264053 84.0
174.290329 196.0
174.308716 116.0
174.334991 52.0
174.369156 112.0
174.411209 152.0
174.440125 176.0
174.484818 48.0
174.508484 92.0
174.57782 172.0
174.603043 104.0
174.905716 44.0
174.974152 200.0
175.004135 52.0
175.05069 1744.0
175.085388 1152.0
175.136307 92.0
175.160706 124.0
175.170761 104.0
175.219543 68.0
175.242798 148.0
175.35347 48.0
175.379837 108.0
175.427124 132.0
175.458908 84.0
175.482635 136.0
175.501099 92.0
175.603943 60.0
175.648788 44.0
175.677795 28.0
175.721146 112.0
175.772781 128.0
175.876038 188.0
175.904739 108.0
175.939056 120.0
176.058731 276.0
176.097672 136.0
176.276764 144.0
176.390778 124.0
176.430435 176.0
176.467453 112.0
176.52562 144.0
176.58876 128.0
176.71077 116.0
176.948578 192.0
177.001923 184.0
177.06781 100.0
177.071854 88.0
177.216476 144.0
177.414902 128.0
177.547821 100.0
177.640656 96.0
177.906021 48.0
177.943192 168.0
178.031769 88.0
178.131729 60.0
178.15564 104.0
178.229294 144.0
178.296463 152.0
178.320389 116.0
178.368225 92.0
178.386841 168.0
178.40741 124.0
178.450638 132.0
178.481216 184.0
178.652771 184.0
178.897583 84.0
178.968643 116.0
179.022934 140.0
179.061279 1144.0
179.158569 180.0
179.225174 192.0
179.303925 64.0
179.482925 148.0
179.558395 124.0
179.603729 176.0
179.795837 188.0
179.823349 256.0
179.87056 184.0
179.945786 180.0
180.022186 208.0
180.026917 164.0
180.066391 324.0
180.289886 152.0
180.337997 224.0
180.391449 164.0
180.55188 100.0
180.701675 120.0
180.744476 228.0
180.83815 172.0
180.891678 160.0
181.000687 548.0
181.055893 376.0
181.108566 164.0
181.172867 160.0
181.197952 196.0
181.368469 32.0
181.470337 200.0
181.510559 92.0
181.537384 156.0
181.660751 108.0
181.789536 96.0
181.875427 152.0
182.005203 124.0
182.061188 168.0
182.098267 172.0
182.176163 184.0
182.243332 144.0
182.297073 252.0
182.345444 180.0
182.458344 188.0
182.479858 184.0
182.705765 64.0
182.945282 60.0
182.977585 156.0
183.01796 152.0
183.029434 108.0
183.035202 180.0
183.059143 204.0
183.087006 188.0
183.298096 140.0
183.387024 172.0
183.465195 104.0
183.527206 76.0
183.764877 136.0
183.931885 132.0
183.953476 180.0
183.998398 156.0
184.009949 100.0
184.016434 148.0
184.073746 168.0
184.205566 172.0
184.226212 208.0
184.362137 128.0
184.428879 36.0
184.466721 244.0
184.493759 188.0
184.531601 116.0
184.599197 112.0
184.642471 56.0
184.707382 56.0
184.742554 184.0
184.780426 144.0
184.888657 92.0
184.926544 64.0
184.950912 68.0
185.015869 108.0
185.070175 148.0
185.305664 188.0
185.346298 148.0
185.388382 204.0
185.492645 192.0
185.78009 76.0
185.907883 204.0
186.040619 216.0
186.059616 124.0
186.088135 156.0
186.135635 172.0
186.157364 164.0
186.184525 120.0
186.217117 132.0
186.272736 140.0
186.3638 136.0
186.491531 216.0
186.613861 64.0
186.639099 184.0
186.70903 184.0
186.741669 44.0
186.779739 128.0
186.806946 132.0
186.847748 188.0
186.883118 116.0
186.932098 76.0
186.951141 192.0
187.014694 228.0
187.037323 224.0
187.085419 404.0
187.370468 144.0
187.465836 168.0
187.555771 88.0
187.600647 172.0
187.632095 112.0
187.681168 112.0
187.708435 160.0
187.727524 88.0
187.798431 160.0
187.869354 192.0
187.915741 112.0
187.98877 224.0
188.016693 68.0
188.069458 2100.0
188.144989 112.0
188.181259 144.0
188.205048 52.0
188.235092 244.0
188.281509 88.0
188.341782 124.0
188.389618 124.0
188.415359 100.0
188.43721 172.0
188.468155 160.0
188.507187 112.0
188.576569 156.0
188.605743 196.0
188.616409 132.0
188.624756 140.0
188.645828 120.0
188.671112 184.0
188.721573 276.0
188.767944 112.0
188.795288 316.0
188.813339 212.0
188.852631 112.0
188.896027 160.0
188.937347 136.0
188.96579 144.0
188.989807 364.0
189.022202 152.0
189.102066 160176.0
189.166489 60.0
189.190811 64.0
189.235718 124.0
189.259613 108.0
189.295975 104.0
189.319733 212.0
189.359863 208.0
189.38382 184.0
189.40509 148.0
189.438202 80.0
189.466705 40.0
189.496033 52.0
189.522827 72.0
189.552505 1452.0
189.573822 128.0
189.626038 168.0
189.654434 108.0
189.684464 320.0
189.718826 172.0
189.756989 204.0
189.802689 176.0
189.866531 72.0
189.899658 100.0
189.9245 80.0
189.966034 172.0
189.990341 196.0
190.032791 188.0
190.072922 2972.0
190.105591 24372.0
190.15387 40.0
190.183426 48.0
190.220444 104.0
190.262466 104.0
190.292175 112.0
190.310623 64.0
190.343109 144.0
190.409973 128.0
190.461655 68.0
190.484665 160.0
190.520264 96.0
190.551834 140.0
190.560074 68.0
190.567337 68.0
190.599014 76.0
190.666275 212.0
190.694733 244.0
190.805161 52.0
190.831223 108.0
190.938965 180.0
190.969864 152.0
190.996857 124.0
191.043869 140.0
191.080338 2216.0
191.116074 11996.0
191.189331 120.0
191.208862 152.0
191.228577 56.0
191.236191 52.0
191.246841 48.0
191.299301 160.0
191.348648 172.0
191.361755 216.0
191.372162 120.0
191.404495 120.0
191.415527 100.0
191.470764 204.0
191.478882 204.0
191.486755 100.0
191.558029 108.0
191.57692 156.0
191.603989 196.0
191.625839 308.0
191.65654 232.0
191.69931 116.0
191.735764 96.0
191.774109 60.0
191.845779 84.0
191.887131 112.0
191.953308 52.0
191.989929 244.0
192.031158 148.0
192.05397 64.0
192.082855 768.0
192.118423 1580.0
192.185226 52.0
192.215363 124.0
192.281586 104.0
192.306427 104.0
192.327133 80.0
192.375443 216.0
192.400284 100.0
192.444458 100.0
192.464584 128.0
192.499985 112.0
192.587433 152.0
192.632248 116.0
192.748291 52.0
192.800797 60.0
192.825668 44.0
192.903061 104.0
192.999237 208.0
193.052124 140.0
193.151932 72.0
193.20726 60.0
193.339691 60.0
193.379944 128.0
193.417557 192.0
193.540344 160.0
193.586441 112.0
193.625214 124.0
193.688919 52.0
193.766479 44.0
193.932755 84.0
194.074127 184.0
194.149002 80.0
194.182281 28.0
194.229568 84.0
194.265488 68.0
194.290466 52.0
194.354279 124.0
194.462509 100.0
194.598526 64.0
194.631836 68.0
194.706818 180.0
194.734589 84.0
194.84848 52.0
194.881821 104.0
194.973526 100.0
195.019653 844.0
195.220947 32.0
195.312714 160.0
195.379486 84.0
195.610458 100.0
195.6884 52.0
196.023331 296.0
196.081177 40.0
196.134125 72.0
196.209396 60.0
196.332077 184.0
196.421326 168.0
196.627808 180.0
196.731079 212.0
196.962845 124.0
197.014481 780.0
197.040894 64.0
197.051102 156.0
197.077393 48.0
197.183578 64.0
197.270233 84.0
197.292587 212.0
197.38765 84.0
197.477142 132.0
197.658981 48.0
197.720551 132.0
197.833939 196.0
197.868896 44.0
198.060318 224.0
198.148972 116.0
198.275055 44.0
198.544189 52.0
198.611511 116.0
198.807892 192.0
198.973511 36.0
199.083786 144.0
199.167267 60.0
199.507278 48.0
199.52977 88.0
199.864471 172.0
199.982666 72.0
200.359985 56.0
200.464249 40.0
200.591064 100.0
200.624893 104.0
200.743317 164.0
200.812668 52.0
200.985901 48.0
201.088638 656.0
201.127014 64.0
201.166534 64.0
201.310516 108.0
201.350052 52.0
201.376694 112.0
201.415024 52.0
201.56192 104.0
201.663666 32.0
202.09549 440.0
202.147263 132.0
202.221207 96.0
202.450165 76.0
202.556137 96.0
202.875168 172.0
202.96022 44.0
203.002762 184.0
203.078979 1376.0
203.116165 2576.0
203.158752 44.0
203.226837 108.0
203.401657 140.0
203.811752 40.0
203.882797 100.0
203.945312 140.0
203.985107 52.0
204.085464 192.0
204.114136 728.0
204.266632 204.0
204.337753 140.0
204.45726 164.0
204.676453 104.0
204.895752 180.0
205.038223 124.0
205.088959 200.0
205.169342 132.0
205.500183 128.0
205.565811 56.0
205.879822 64.0
206.022629 204.0
206.094055 100.0
206.53717 76.0
206.628708 100.0
207.022827 476.0
207.054443 208.0
207.080994 56.0
207.117722 160.0
207.777557 196.0
208.001389 160.0
208.027222 196.0
208.193756 120.0
208.535629 244.0
208.731125 84.0
209.003418 368.0
209.020859 260.0
209.070435 628.0
209.15979 120.0
209.433319 84.0
209.577362 108.0
209.836761 124.0
209.98671 124.0
210.070358 152.0
210.110748 56.0
210.280991 92.0
210.64769 80.0
210.994476 156.0
211.019852 144.0
211.079605 276.0
211.136154 116.0
211.211349 144.0
211.367584 160.0
211.642563 56.0
211.964081 128.0
212.013336 200.0
212.03363 88.0
212.053909 160.0
212.114777 96.0
212.239441 64.0
212.512085 100.0
212.799423 144.0
213.028854 176.0
213.049194 160.0
213.10408 148.0
213.272934 108.0
213.325256 220.0
213.380493 184.0
213.680054 96.0
213.735336 156.0
214.108353 172.0
214.445038 180.0
214.658722 28.0
215.072998 152.0
215.111374 356.0
215.955383 144.0
216.010956 28.0
216.039398 144.0
216.321136 152.0
216.611038 156.0
216.983215 220.0
217.015472 176.0
217.041855 224.0
217.095703 2512.0
217.223694 148.0
217.45549 52.0
217.99292 140.0
218.093994 496.0
218.339813 192.0
218.407455 120.0
218.56044 116.0
219.034424 124.0
219.058151 212.0
219.108063 132.0
219.181717 132.0
219.792084 48.0
219.930786 116.0
220.657486 72.0
220.994659 156.0
221.076035 360.0
221.640137 184.0
222.025497 184.0
222.097534 168.0
222.191605 144.0
222.337006 64.0
222.720001 44.0
222.746735 140.0
222.945801 112.0
223.004547 276.0
223.044388 164.0
223.097382 144.0
223.853119 208.0
224.046707 224.0
224.243378 180.0
224.305969 116.0
224.475906 124.0
224.81897 32.0
225.017151 172.0
225.042847 176.0
225.12944 156.0
225.213058 164.0
225.556671 188.0
225.712143 56.0
225.916565 172.0
226.017914 160.0
226.151901 164.0
227.159332 208.0
227.347717 64.0
227.644913 184.0
227.810104 96.0
228.294006 148.0
229.080994 392.0
229.263351 108.0
229.468323 116.0
229.685455 132.0
230.059631 188.0
230.093491 828.0
230.132095 184.0
230.343491 120.0
230.757507 152.0
230.996414 124.0
231.026672 144.0
231.053894 76.0
231.112045 3952.0
231.190048 44.0
231.243515 60.0
231.332306 112.0
231.489746 48.0
231.61998 60.0
231.738129 104.0
232.038177 132.0
232.119492 5836.0
232.447647 84.0
232.654037 48.0
232.717789 56.0
232.763336 196.0
232.939484 84.0
232.997208 36.0
233.030624 124.0
233.121368 1408.0
233.185593 28.0
233.459213 48.0
233.669083 112.0
233.690384 140.0
233.806015 108.0
233.976471 208.0
234.016052 52.0
234.046494 188.0
234.124634 260.0
234.393738 100.0
234.419144 48.0
234.780884 68.0
235.014481 200.0
235.048111 652.0
235.110367 124.0
235.131729 148.0
235.266037 188.0
235.863541 160.0
235.898376 60.0
236.048996 76.0
236.516281 176.0
236.586685 132.0
236.721405 248.0
236.783859 176.0
236.893677 192.0
236.972565 168.0
237.064453 1436.0
237.340378 28.0
237.484512 64.0
238.027695 192.0
238.065308 148.0
238.193542 96.0
238.221191 108.0
238.711594 172.0
239.065598 224.0
239.242157 132.0
239.411499 76.0
239.488495 72.0
239.627121 168.0
239.808929 168.0
239.855164 128.0
240.01239 60.0
240.068832 224.0
240.504486 156.0
240.58934 156.0
240.802399 80.0
240.935211 60.0
241.327728 176.0
241.401932 116.0
241.442139 140.0
241.807205 44.0
242.067245 76.0
242.696259 92.0
242.748978 140.0
243.006424 108.0
243.709763 156.0
243.997162 108.0
244.099762 92.0
244.927612 156.0
245.332703 40.0
245.691345 144.0
246.384399 120.0
246.831345 56.0
246.962692 160.0
247.040817 172.0
247.048645 368.0
247.112854 160.0
247.234879 36.0
247.337158 124.0
247.447739 96.0
248.024139 204.0
248.074295 116.0
248.387878 68.0
248.751877 156.0
248.857529 116.0
249.06488 252.0
249.128708 80.0
250.037399 188.0
250.065735 152.0
250.191635 120.0
251.060028 152.0
251.218979 80.0
251.979813 156.0
252.042999 44.0
252.182053 196.0
252.599426 164.0
252.817734 124.0
253.020309 128.0
253.059372 148.0
253.704605 128.0
253.993179 132.0
254.059784 188.0
254.110306 152.0
254.129913 156.0
254.161316 88.0
254.205734 120.0
254.415222 156.0
254.624786 128.0
254.92659 212.0
255.050537 180.0
255.530716 152.0
255.705734 80.0
256.495636 72.0
257.044189 172.0
257.079163 152.0
257.146301 176.0
257.385742 196.0
257.938446 40.0
257.983185 92.0
258.395752 160.0
258.421326 128.0
259.523132 236.0
260.286804 80.0
260.37149 192.0
260.771881 140.0
260.823303 192.0
260.951904 200.0
261.006561 56.0
261.315338 88.0
261.521271 140.0
263.054626 168.0
263.126617 72.0
263.414032 104.0
263.61264 228.0
263.76947 88.0
264.054016 264.0
264.105743 776.0
264.710938 84.0
264.827545 156.0
264.921478 160.0
264.957092 48.0
264.990265 172.0
265.060577 5808.0
265.112 204.0
265.203369 56.0
265.255249 208.0
265.349243 44.0
265.430328 56.0
265.540588 52.0
265.914215 148.0
266.06424 940.0
266.400726 64.0
266.761444 60.0
266.806335 88.0
267.057739 1672.0
267.138641 124.0
267.402222 64.0
267.53241 112.0
267.711487 176.0
268.065002 456.0
268.304504 28.0
268.686066 112.0
268.819855 168.0
268.849213 96.0
268.934082 80.0
269.094025 80.0
269.495758 128.0
269.531708 144.0
269.597046 156.0
269.884705 172.0
270.051483 116.0
270.398285 124.0
270.43103 148.0
270.653625 120.0
270.722382 164.0
270.837036 132.0
271.44989 116.0
271.613861 112.0
272.441101 176.0
273.180756 140.0
273.230103 80.0
273.700745 124.0
273.81601 64.0
274.132263 184.0
274.191589 88.0
274.590515 156.0
274.818115 76.0
275.263733 48.0
275.440582 168.0
275.663422 176.0
275.808838 88.0
276.179169 104.0
277.145813 48.0
277.556824 204.0
278.250275 176.0
278.363159 128.0
279.038025 152.0
279.157379 112.0
279.566528 120.0
279.822845 152.0
280.30484 168.0
280.982635 136.0
281.513367 140.0
281.566803 108.0
281.904205 112.0
282.382263 116.0
282.472565 164.0
282.502686 120.0
283.066711 176.0
283.356354 100.0
283.577515 120.0
283.641205 104.0
284.10733 176.0
284.456329 52.0
285.101196 188.0
285.343201 56.0
285.413818 132.0
285.538239 136.0
285.72998 52.0
286.026123 136.0
286.083344 104.0
286.824432 156.0
287.181824 144.0
287.755493 144.0
287.785889 88.0
288.012146 156.0
288.052673 192.0
288.732056 232.0
289.219238 108.0
289.81189 144.0
289.916931 128.0
290.069458 48.0
290.127075 116.0
290.330505 120.0
290.418701 136.0
290.612061 164.0
290.662964 152.0
290.842834 176.0
291.090668 112.0
292.096649 136.0
292.535614 204.0
292.756927 164.0
292.852295 108.0
293.056702 1340.0
293.141876 84.0
293.339569 80.0
293.796509 84.0
293.967102 236.0
294.055573 168.0
294.348297 40.0
294.520172 40.0
295.067261 172.0
295.135315 168.0
295.193451 92.0
295.316559 36.0
295.378143 92.0
295.83667 104.0
295.939392 132.0
296.062653 148.0
297.176697 132.0
297.475281 144.0
297.588562 80.0
298.059113 172.0
298.138153 180.0
298.79834 140.0
298.911896 116.0
299.004822 176.0
299.190674 80.0
299.452362 144.0
299.690063 168.0
300.952454 148.0
301.194183 128.0
301.539703 84.0
301.764404 164.0
301.996094 164.0
302.245178 48.0
302.300537 80.0
302.539337 132.0
302.781738 148.0
303.443573 108.0
303.825073 144.0
304.154724 156.0
304.540131 140.0
305.322113 68.0
305.71524 112.0
305.89621 100.0
306.08075 120.0
306.334991 116.0
306.470856 96.0
306.854248 88.0
306.990234 132.0
307.059204 216.0
307.227386 36.0
307.953461 76.0
308.040771 176.0
308.110779 304.0
309.111816 220.0
310.059631 88.0
310.087677 132.0
310.126221 44.0
310.263214 148.0
311.593048 112.0
312.331268 128.0
312.845001 60.0
313.147827 116.0
313.69046 88.0
313.831482 168.0
313.905518 84.0
314.072937 120.0
314.275879 204.0
314.353516 112.0
315.218292 188.0
315.264618 60.0
316.261963 80.0
316.559357 116.0
316.810822 140.0
317.01413 168.0
317.062378 84.0
317.151001 144.0
317.363708 96.0
317.651947 52.0
317.689972 116.0
317.84964 112.0
318.085724 724.0
318.126465 60.0
318.165527 124.0
318.20813 140.0
318.286224 52.0
318.463806 140.0
318.556152 48.0
319.003906 160.0
319.091553 172.0
319.377258 168.0
319.989319 124.0
320.093689 244.0
320.288452 40.0
321.026215 128.0
322.100494 176.0
322.382751 100.0
323.022736 144.0
323.394867 120.0
323.777954 168.0
323.831665 128.0
324.042999 136.0
324.207825 112.0
325.294586 116.0
326.05246 128.0
326.296875 124.0
326.516235 48.0
326.591766 92.0
326.742859 108.0
326.875977 36.0
326.904755 96.0
326.933563 88.0
327.084015 144.0
327.338379 44.0
327.732941 144.0
328.107788 164.0
328.169067 132.0
328.656006 100.0
329.822479 120.0
330.354034 108.0
331.103271 96.0
331.374939 136.0
331.476379 156.0
331.842468 128.0
332.139862 108.0
332.39743 204.0
332.872955 240.0
333.337921 148.0
333.454224 104.0
333.654144 84.0
333.897766 132.0
333.963226 144.0
334.261536 120.0
334.43985 108.0
335.561859 68.0
335.609253 152.0
335.868195 80.0
336.098022 116.0
336.22937 100.0
336.492188 172.0
336.612701 60.0
336.919495 188.0
337.959442 180.0
338.411682 136.0
338.733948 80.0
339.052704 60.0
339.202972 148.0
339.452301 184.0
339.885132 88.0
340.175049 84.0
341.288239 120.0
341.714905 68.0
342.252258 76.0
342.727417 128.0
342.801117 184.0
343.350403 144.0
344.561096 128.0
344.827148 92.0
344.875214 148.0
346.207092 128.0
346.773926 80.0
347.000061 216.0
347.155792 120.0
348.209747 104.0
348.373169 108.0
348.867065 124.0
348.919464 204.0
349.135132 100.0
349.302521 104.0
349.384338 200.0
349.455048 84.0
350.043121 88.0
350.131897 124.0
350.389526 88.0
350.65036 136.0
350.866547 76.0
351.190979 152.0
352.000824 136.0
353.907806 176.0
354.420929 92.0
354.660797 48.0
355.395813 164.0
355.44458 116.0
355.478363 180.0
355.575928 48.0
355.917542 144.0
356.000153 148.0
356.605011 44.0
356.796722 168.0
356.865326 132.0
357.195343 52.0
357.345825 80.0
357.458679 96.0
358.030884 80.0
358.358612 92.0
358.901367 96.0
359.82196 104.0
360.267609 120.0
360.335602 116.0
362.139984 44.0
362.670441 92.0
362.723511 128.0
363.246796 176.0
363.603455 140.0
363.733948 240.0
364.970978 104.0
365.465454 80.0
365.511108 28.0
365.857452 160.0
366.242065 124.0
366.550659 80.0
366.604004 148.0
367.458099 196.0
367.52298 124.0
368.855804 112.0
369.127258 200.0
369.475311 188.0
370.528137 108.0
370.957336 88.0
371.095337 76.0
371.375275 64.0
371.897095 104.0
372.004578 164.0
372.661285 36.0
373.187866 184.0
373.372437 184.0
373.545502 196.0
373.845612 148.0
374.557892 152.0
374.923889 76.0
375.110748 92.0
375.18985 144.0
375.344086 184.0
376.409088 64.0
377.119904 148.0
377.494904 180.0
377.680542 128.0
377.715363 108.0
377.873962 148.0
378.017151 108.0
378.226135 216.0
378.357758 96.0
378.601685 96.0
378.865082 120.0
379.037659 140.0
379.089783 164.0
379.275818 60.0
379.357239 112.0
379.461914 92.0
379.582092 168.0
379.803162 48.0
379.841949 48.0
380.381317 208.0
380.89389 104.0
381.566162 76.0
381.59726 196.0
381.671143 144.0
382.274078 48.0
382.562073 128.0
383.103394 116.0
383.313782 176.0
383.559296 132.0
383.621674 124.0
383.992096 100.0
386.034851 108.0
386.954071 92.0
387.796295 112.0
388.608032 120.0
389.495239 128.0
390.198669 44.0
390.35199 172.0
391.705872 196.0
392.273315 100.0
392.316681 152.0
392.466492 120.0
392.695221 108.0
392.726776 76.0
392.94397 128.0
393.11734 144.0
393.484436 84.0
393.654205 48.0
393.835876 100.0
393.989929 76.0
394.021545 48.0
394.393005 64.0
394.539246 48.0
395.334259 172.0
395.449036 136.0
395.59549 72.0
396.074646 172.0
396.30838 172.0
396.986176 64.0
397.968231 160.0
398.574005 80.0
398.828339 196.0
398.943604 160.0
399.082764 116.0
400.734528 144.0
401.118347 96.0
401.17688 136.0
401.204803 100.0
401.515808 136.0
402.194061 224.0
402.597321 124.0
403.392395 156.0
403.628296 52.0
403.656281 176.0
404.112274 76.0
404.188293 116.0
404.516479 80.0
404.984955 232.0
405.618042 88.0
405.770386 64.0
406.143311 96.0
406.47229 40.0
406.809418 112.0
406.881683 208.0
407.054321 104.0
407.255127 144.0
407.536346 120.0
407.958313 60.0
408.078918 144.0
408.14328 88.0
408.235748 76.0
408.63797 144.0
409.374573 164.0
409.66861 148.0
410.385986 152.0
410.744904 40.0
411.051514 92.0
411.184692 100.0
411.212952 172.0
411.644897 112.0
411.935699 96.0
411.968018 112.0
412.016479 164.0
412.077087 84.0
412.149811 176.0
412.271057 48.0
412.594391 128.0
412.715698 72.0
412.913849 180.0
413.281952 204.0
414.103729 92.0
414.346771 100.0
415.193939 116.0
415.404846 188.0
415.684784 92.0
417.015411 116.0
417.057495 72.0
417.54538 96.0
417.638916 132.0
418.513885 196.0
418.807098 136.0
418.864105 88.0
419.164001 172.0
419.198181 68.0
419.565033 100.0
420.192871 76.0
420.20697 128.0
420.535858 116.0
420.891022 212.0
421.180969 72.0
421.573181 156.0
421.969666 108.0
422.116882 152.0
422.58725 172.0
422.656799 112.0
422.853241 212.0
423.246246 88.0
423.557465 108.0
423.688568 120.0
424.073761 172.0
424.549316 172.0
424.657471 184.0
424.737793 180.0
424.938995 140.0
425.20163 56.0
425.283691 156.0
425.40274 200.0
425.73233 188.0
426.532379 200.0
426.766693 132.0
427.219086 96.0
427.313721 76.0
427.659393 152.0
427.737579 92.0
428.717834 204.0
429.171265 212.0
429.286713 104.0
429.525909 172.0
429.641418 188.0
429.864227 148.0
430.004547 148.0
430.442139 40.0
430.483429 124.0
430.61557 84.0
430.718842 160.0
430.751892 160.0
430.842773 72.0
431.611511 104.0
432.025116 160.0
433.341614 176.0
433.851379 292.0
434.046234 160.0
434.502472 180.0
434.564728 148.0
434.938202 104.0
435.282806 92.0
435.6026 120.0
436.146912 84.0
436.196808 144.0
437.099304 192.0
437.179321 144.0
437.467285 160.0
437.615417 136.0
438.144348 120.0
438.94043 84.0
439.173981 164.0
439.470154 56.0
439.570312 184.0
439.891663 88.0
440.118774 164.0
440.509674 160.0
440.651733 136.0
440.952606 92.0
441.150635 84.0
441.236847 200.0
441.500275 160.0
441.65918 68.0
441.897644 132.0
442.042145 60.0
442.107605 112.0
442.780884 88.0
442.919098 40.0
443.111786 148.0
443.173431 132.0
443.794952 128.0
443.866241 84.0
444.835388 172.0
444.98233 184.0
445.08728 112.0
445.129272 172.0
445.910675 168.0
445.965302 160.0
446.141846 156.0
446.398315 152.0
446.511871 180.0
446.974365 136.0
447.174652 144.0
447.239746 40.0
447.614441 196.0
447.694427 136.0
447.744965 100.0
447.972412 152.0
448.157806 268.0
448.199921 120.0
448.317902 108.0
448.684631 164.0
449.456451 128.0
449.857391 188.0
449.920715 176.0
450.076935 48.0
450.440125 156.0
451.052856 112.0
451.708252 164.0
452.249878 156.0
452.558899 96.0
452.673218 136.0
452.762146 128.0
452.951599 204.0
453.99115 132.0
454.797241 64.0
455.166809 300.0
455.548828 140.0
455.952454 180.0
456.058716 148.0
456.132202 252.0
456.16571 116.0
456.313782 92.0
456.679474 176.0
456.84964 232.0
456.887909 92.0
457.134705 72.0
457.173004 96.0
457.487946 76.0
457.824341 56.0
458.160828 136.0
458.309937 84.0
458.791534 116.0
459.776825 128.0
459.951843 100.0
460.447113 136.0
460.682037 112.0
461.502594 120.0
461.75061 216.0
462.024384 124.0
462.893219 116.0
463.060242 164.0
463.244415 152.0
463.630035 104.0
465.160278 200.0
465.264252 124.0
465.67218 152.0
465.835419 112.0
466.165222 152.0
466.213501 152.0
467.142212 120.0
467.361633 116.0
467.503632 168.0
467.91684 56.0
468.162262 172.0
468.72229 96.0
469.662109 80.0
469.834656 144.0
470.615814 180.0
470.693542 148.0
470.732422 52.0
471.250732 176.0
471.363068 76.0
471.553223 48.0
471.674255 132.0
471.851501 128.0
472.145508 72.0
472.348816 96.0
472.48291 104.0
472.852417 172.0
473.075775 104.0
473.855316 56.0
474.067627 72.0
474.210663 148.0
474.271332 92.0
474.947754 156.0
476.258575 76.0
476.365967 160.0
476.373444 116.0
476.506165 36.0
476.784271 100.0
476.845123 116.0
477.079834 104.0
477.153748 92.0
477.201569 96.0
477.310272 156.0
477.45813 116.0
477.732147 120.0
477.967072 60.0
478.19339 128.0
478.363129 96.0
478.463257 76.0
478.949219 148.0
479.168793 176.0
479.35614 100.0
479.460724 112.0
479.547913 60.0
479.665588 68.0
479.787659 144.0
479.839966 116.0
479.874847 36.0
480.086243 108.0
480.1539 88.0
480.18634 124.0
480.273071 112.0
480.433075 124.0
480.467987 60.0
480.681763 104.0
480.712311 276.0
480.782135 92.0
480.918732 104.0
481.00528 156.0
481.057098 152.0
481.129761 100.0
481.205475 152.0
481.249207 172.0
481.340881 164.0
481.375458 116.0
481.469421 92.0
481.594177 72.0
481.630371 144.0
481.772156 92.0
481.784393 88.0
481.801117 140.0
481.853638 72.0
481.866119 128.0
481.894897 144.0
481.956787 200.0
482.045563 224.0
482.079132 96.0
482.116058 116.0
482.175262 164.0
482.223358 108.0
482.256256 196.0
482.271423 104.0
482.286591 196.0
482.345734 192.0
482.396729 132.0
482.432434 48.0
482.487823 148.0
482.544952 204.0
482.599854 536.0
482.628052 132.0
482.64624 128.0
482.659454 148.0
482.785004 312.0
482.833405 368.0
482.845642 60.0
482.858185 224.0
482.903595 232.0
482.944763 168.0
483.041046 176.0
483.167206 111808.0
483.31424 180.0
483.363525 228.0
483.413544 200.0
483.482239 144.0
483.560913 132.0
483.567017 100.0
483.613281 248.0
483.711639 96.0
483.777008 248.0
483.837341 104.0
483.88501 116.0
483.91217 264.0
483.964813 268.0
484.020477 152.0
484.055328 368.0
484.093353 96.0
484.169983 31744.0
484.251068 160.0
484.258789 212.0
484.299744 160.0
484.369293 124.0
484.471008 216.0
484.519043 120.0
484.550232 132.0
484.590668 268.0
484.691528 144.0
484.790161 188.0
484.857422 128.0
484.891449 144.0
484.956512 312.0
485.014008 224.0
485.040314 380.0
485.164215 32856.0
485.251343 188.0
485.290741 124.0
485.35437 80.0
485.390167 104.0
485.453827 88.0
485.503662 112.0
485.558655 184.0
485.638733 124.0
485.687042 100.0
485.736359 172.0
485.779724 128.0
485.847687 112.0
485.899872 80.0
485.940033 48.0
486.040741 144.0
486.166077 6820.0
486.28476 168.0
486.344849 156.0
486.40921 156.0
486.483276 172.0
486.528931 124.0
486.604614 80.0
486.667938 240.0
486.720581 112.0
486.768951 80.0
486.790619 104.0
486.801819 144.0
486.851532 108.0
486.893494 112.0
486.942871 140.0
486.981506 108.0
487.017426 184.0
487.065826 236.0
487.17099 708.0
487.236847 156.0
487.35025 132.0
487.384857 116.0
487.526794 104.0
487.651276 136.0
487.69162 64.0
487.748108 160.0
487.794708 148.0
487.851532 48.0
487.910126 60.0
487.991241 144.0
488.072815 36.0
488.154907 96.0
488.299805 76.0
488.361603 56.0
488.426361 116.0
488.495209 64.0
488.552948 72.0
488.607941 132.0
488.77301 100.0
488.815613 192.0
488.920349 136.0
488.995514 112.0
489.075287 96.0
489.111237 108.0
489.22406 80.0
489.294495 112.0
489.35611 72.0
489.408966 68.0
489.439789 84.0
489.473572 124.0
489.71283 88.0
489.849365 80.0
490.080841 44.0
490.149139 56.0
490.193756 72.0
490.364899 40.0
490.5383 116.0
490.812195 76.0
490.929199 52.0
491.055084 88.0
491.110016 108.0
491.145294 76.0
491.533508 92.0
491.844147 52.0
491.877777 96.0
491.992554 40.0
492.447357 88.0
492.506165 88.0
492.663788 36.0
492.760986 104.0
492.924469 56.0
493.50351 80.0
493.538879 52.0
494.02536 28.0
494.166931 104.0
494.339508 52.0
494.724579 56.0
495.300232 116.0
495.676819 84.0
495.831909 72.0
496.842896 40.0
497.029236 28.0
497.291046 96.0
498.099152 124.0
498.192444 100.0
498.525696 76.0
498.632355 64.0
498.819031 120.0
499.156921 68.0
499.24585 48.0
499.570526 40.0
499.761841 88.0
500.856995 100.0
500.888153 68.0
501.035187 88.0
501.164368 120.0
502.042511 84.0
502.403809 40.0
502.586731 68.0
502.640259 80.0
503.077667 156.0
503.323212 36.0
503.595612 84.0
504.666443 96.0
505.048248 80.0
505.486694 32.0
505.867096 80.0
507.085449 68.0
507.197479 60.0
507.394745 104.0
508.036041 60.0
509.108765 76.0
509.49054 68.0
510.875183 40.0
511.109131 96.0
511.334137 96.0
511.473663 164.0
515.817505 96.0
515.957642 144.0
518.071045 56.0
519.199646 92.0
520.974365 56.0
521.842407 68.0
522.051575 68.0
522.310852 56.0
522.997925 32.0
524.131897 68.0
524.774536 48.0
535.815491 48.0
537.862976 36.0
542.674194 60.0
544.377075 64.0
545.092468 104.0
547.837524 64.0
548.848877 152.0
549.105347 96.0
550.089844 52.0
550.715515 104.0
551.650085 72.0
551.813721 80.0
552.552673 72.0
555.945068 68.0
556.606934 68.0
562.827087 72.0
563.157654 76.0
563.620605 120.0
566.752991 72.0
567.141541 20.0
568.199036 44.0
568.550171 104.0
576.938049 96.0
577.24408 112.0
578.488037 56.0
582.122253 76.0
582.343201 88.0
584.203369 80.0
586.379822 124.0
588.014771 64.0
588.338196 72.0
596.165405 88.0
601.776794 92.0
601.898865 36.0
606.272095 64.0
612.098145 72.0
613.665039 36.0
614.11377 68.0
616.908569 68.0
618.382568 36.0
619.154907 72.0
619.937622 112.0
620.805176 128.0
625.440552 76.0
626.585876 88.0
627.468018 68.0
628.719971 128.0
639.39978 68.0
644.260498 92.0
644.684937 44.0
646.449768 100.0
647.305298 112.0
647.953613 144.0
649.109192 124.0
649.487488 28.0
651.682678 104.0
652.358582 92.0
652.734802 60.0
658.743713 84.0
665.098328 92.0
668.423462 60.0
675.543335 40.0
677.375793 72.0
680.944336 52.0
684.824341 76.0
689.875366 84.0
692.653992 84.0
693.466125 84.0
694.82428 92.0
696.640686 68.0
699.490784 36.0
700.34906 124.0
700.976013 104.0
703.38092 48.0
710.721313 88.0
710.838013 88.0
713.036621 60.0
716.165039 36.0
718.233093 72.0
719.572571 84.0
723.566223 104.0
723.780396 48.0
725.307251 80.0
727.367004 88.0
730.655762 40.0
733.251221 60.0
734.102966 56.0
734.690857 116.0
735.926758 128.0
737.493408 136.0
737.758301 52.0
739.099548 72.0
743.27179 60.0
749.546753 64.0
752.623108 136.0
752.770569 36.0
755.147827 120.0
758.378174 100.0
760.248352 84.0
760.51178 96.0
768.011292 88.0
768.198792 96.0
768.430542 108.0
772.518677 52.0
774.101624 108.0
774.616699 76.0
775.530945 36.0
779.254517 52.0
782.558228 40.0
789.057983 152.0
790.540222 280.0
790.71936 96.0
792.348816 72.0
793.133301 112.0
799.215332 72.0
803.666565 80.0
811.420715 64.0
811.738281 188.0
818.699524 92.0
818.961487 64.0
827.544556 48.0
833.256958 84.0
833.670654 52.0
833.802856 76.0
835.453064 228.0
836.719177 104.0
837.623291 152.0
841.5448 72.0
846.824463 52.0
858.61676 156.0
860.203796 72.0
861.488525 80.0
868.289978 120.0
874.352905 148.0
875.506775 60.0
876.620178 164.0
882.357361 132.0
883.268066 92.0
884.859924 96.0
887.294861 148.0
890.962524 152.0
892.044067 52.0
893.530823 36.0
896.716553 88.0
898.177368 68.0
904.241821 116.0
907.986267 44.0
915.06488 40.0
918.035461 104.0
919.054871 136.0
919.67041 132.0
923.1745 184.0
924.826111 160.0
926.52771 132.0
930.524353 100.0
930.815796 152.0
931.769409 164.0
937.598633 48.0
938.872803 168.0
940.715454 68.0
941.051208 180.0
945.305481 116.0
948.343079 164.0
949.182922 200.0
952.189941 80.0
952.26239 140.0
954.039429 128.0
957.047913 52.0
959.556946 88.0
960.480591 128.0
961.257935 32.0
963.480652 196.0
972.260803 72.0
974.117249 48.0
985.743042 212.0
986.336792 116.0
994.623779 220.0
995.904724 188.0
997.09845 32.0
998.085388 96.0
998.607361 160.0
1000.022949 200.0
1000.299927 124.0
1002.384583 208.0
1006.629883 88.0
1008.872864 128.0
1009.119385 156.0
1009.309082 184.0
1011.017029 48.0
1013.385254 204.0
1013.54364 96.0
1014.373901 128.0
1015.895813 224.0
1015.978271 168.0
1018.066467 172.0
1020.315796 140.0
1020.760864 180.0
1021.765808 32.0
1024.84729 172.0
1025.873413 148.0
1025.988159 196.0
1026.817017 60.0
1026.893555 116.0
1027.26355 32.0
1029.89978 180.0
1031.100952 184.0
1033.332642 236.0
1035.547485 68.0
1041.377563 104.0
1047.365723 244.0
1049.71167 168.0
1050.833984 100.0
1051.853516 204.0
1055.840088 132.0
1057.243896 212.0
1060.268188 56.0
1061.117432 196.0
1062.563721 156.0
1064.582275 96.0
1064.984985 192.0
1067.220459 120.0
1070.239502 48.0
1072.397217 120.0
1074.332397 140.0
1077.10022 56.0
1077.152466 196.0
1080.139648 160.0
1080.807007 52.0
1083.242432 152.0
1085.156006 104.0
1085.674072 148.0
1087.412598 80.0
1089.132812 156.0
1089.343018 172.0
1089.625488 256.0
1092.018188 140.0
1092.27478 220.0
1092.636597 56.0
1093.55127 92.0
1095.487061 116.0
1099.786377 112.0
1100.737061 48.0
1101.318237 32.0
1103.379883 176.0
1106.595215 156.0
1106.833618 84.0
1107.297241 168.0
1107.363403 192.0
1107.939697 72.0
1110.810059 256.0
1112.130493 212.0
1115.637817 52.0
1117.120728 196.0
1120.362793 80.0
1121.46228 192.0
1121.535522 68.0
1122.575562 164.0
1123.035767 132.0
1125.431519 84.0
1125.525024 188.0
1125.665161 92.0
1125.711914 68.0
1129.781738 220.0
1131.555908 116.0
1132.553589 188.0
1133.344116 160.0
1133.585327 152.0
1134.248901 224.0
1134.946045 180.0
1138.126465 168.0
1140.780273 160.0
1145.73999 192.0
1145.841064 148.0
1146.757446 172.0
1147.379639 132.0
1148.2677 156.0
1148.685913 80.0
1153.919678 120.0
1154.568726 96.0
1155.197754 156.0
1157.945923 192.0
1158.318359 180.0
1159.050049 156.0
1159.239868 100.0
1159.510864 80.0
1159.619385 44.0
1160.914185 128.0
1161.049805 64.0
1162.189453 164.0
1163.635132 164.0
1164.524658 112.0
1166.447632 168.0
1167.678223 208.0
1169.814819 120.0
1172.689209 160.0
1177.813354 128.0
1179.343872 140.0
1182.824585 148.0
1183.085571 260.0
1184.982666 44.0
1188.644043 52.0
1189.085815 216.0
1189.852051 188.0
1190.682861 112.0
1190.744751 164.0
1191.514038 100.0
1191.603394 220.0
1193.624146 152.0
1193.96106 144.0
1194.022949 140.0
1196.741089 52.0
1197.911865 88.0
1198.214966 120.0
1199.641479 124.0
1199.751831 148.0
1200.351685 64.0
1200.468872 148.0
1200.648193 156.0
1201.807007 40.0
1206.226929 168.0
1207.713623 180.0
1210.184082 52.0
1217.659424 184.0
1218.04834 128.0
1218.861206 172.0
1219.250366 244.0
1219.736938 88.0
1219.952393 212.0
1221.266602 248.0
1221.656128 72.0
1221.837036 196.0
1222.310059 132.0
1223.966797 100.0
1224.307983 108.0
1225.304077 184.0
1225.805664 160.0
1226.426025 220.0
1226.551392 76.0
1227.827393 48.0
1230.471924 152.0
1230.688354 132.0
1231.728882 116.0
1232.616211 44.0
1233.063477 132.0
1233.38501 180.0
1233.706543 148.0
1234.000122 132.0
1234.930176 84.0
1235.88855 92.0
1236.028564 124.0
1236.959351 60.0
1237.974487 148.0
1240.230469 196.0
1240.419678 200.0
1242.221924 176.0
1244.460571 80.0
1245.675537 176.0
1246.413208 148.0
1246.539795 144.0
1247.214478 64.0
1248.543213 184.0
1249.401367 156.0
1251.463501 108.0
1252.456421 80.0
1252.942505 72.0
1253.02002 68.0
1253.365234 136.0
1253.420532 208.0
1253.773926 200.0
1254.253174 240.0
1257.208374 184.0
1257.885864 136.0
1259.022705 148.0
1260.400146 56.0
1261.382446 148.0
1261.672363 280.0
1261.743042 220.0
1263.765747 172.0
1264.169067 176.0
1267.341309 180.0
1268.255493 124.0
1269.567139 56.0
1271.908447 164.0
1272.078857 200.0
1273.605469 156.0
1274.124023 172.0
1274.699097 172.0
1274.90564 124.0
1275.197021 192.0
1277.372803 140.0
1277.422607 80.0
1278.838501 88.0
1280.127075 56.0
1281.273926 148.0
1283.868408 44.0
1283.958252 76.0
1285.152344 188.0
1287.236694 156.0
1287.843628 52.0
1288.215088 136.0
1288.629517 160.0
1289.386963 88.0
1289.85144 156.0
1289.994507 88.0
1291.381592 176.0
1292.511963 208.0
1293.606934 248.0
1294.838501 144.0
1295.354126 124.0
1296.113647 108.0
1296.708374 164.0
1297.016602 176.0
1297.116943 116.0
1297.711914 136.0
1298.335815 144.0
1298.522217 152.0
1299.361572 216.0
1303.432617 148.0
1303.935547 164.0
1304.417114 72.0
1304.489014 160.0
1304.848511 168.0
1305.071411 68.0
1305.603516 48.0
1306.12854 188.0
1307.035034 88.0
1307.279663 164.0
1307.625122 88.0
1307.948975 40.0
1309.468262 152.0
1312.73999 168.0
1313.417969 160.0
1313.612793 164.0
1313.995117 140.0
1314.370239 180.0
1314.543457 212.0
1314.636597 220.0
1314.752686 228.0
1315.279541 108.0
1316.694702 96.0
1318.435791 120.0
1318.847778 52.0
1320.170776 136.0
1320.373291 156.0
1322.688599 48.0
1325.121826 172.0
1325.860962 160.0
1326.542236 152.0
1326.911987 160.0
1328.594482 136.0
1329.06604 192.0
1331.634033 204.0
1332.936279 144.0
1333.197876 140.0
1333.335938 124.0
1334.75354 164.0
1336.710205 180.0
1337.73645 132.0
1338.166016 148.0
1339.804565 168.0
1340.001343 136.0
1340.132446 180.0
1341.145386 152.0
1342.683838 212.0
1343.128662 60.0
1343.610107 168.0
1345.098877 56.0
1345.609863 152.0
1347.581787 112.0
1347.793701 136.0
1348.276001 152.0
1348.743774 56.0
1349.189697 180.0
1350.191406 168.0
1351.639771 152.0
1352.042358 40.0
1352.357056 172.0
1352.435791 232.0
1352.942627 172.0
1353.264771 144.0
1354.106812 156.0
1354.238647 168.0
1354.883301 60.0
1356.085083 180.0
1357.865723 156.0
1358.042969 160.0
1358.944946 164.0
1359.979614 108.0
1360.772461 160.0
1361.000122 160.0
1361.462646 152.0
1361.800537 128.0
1362.674683 148.0
1363.350708 184.0
1364.743042 228.0
1364.879639 112.0
1364.997314 232.0
1365.313599 156.0
1365.556274 140.0
1365.607788 128.0
1366.387451 260.0
1366.917236 164.0
1367.77832 120.0
1368.072754 244.0
1368.698608 188.0
1368.801636 128.0
1368.86792 216.0
1369.28772 200.0
1370.598877 96.0
1371.138306 140.0
1371.317261 244.0
1372.522705 52.0
1373.068481 160.0
1373.304443 168.0
1373.80603 156.0
1374.861206 156.0
1376.381836 88.0
1376.787964 248.0
1377.393555 164.0
1378.117554 140.0
1378.25061 116.0
1379.233521 116.0
1379.388672 76.0
1380.091064 80.0
1380.253662 168.0
1380.837891 200.0
1381.156006 152.0
1382.613525 100.0
1382.811279 252.0
1383.161133 184.0
1384.523438 60.0
1384.879028 48.0
1385.930908 120.0
1387.042603 176.0
1387.279785 152.0
1387.361328 160.0
1387.435425 152.0
1387.858032 164.0
1388.199219 180.0
1389.586182 84.0
1389.712402 152.0
1389.838501 184.0
1390.202026 132.0
1391.211548 200.0
1391.456543 120.0
1392.065308 156.0
1394.264282 184.0
1395.290039 208.0
1395.884888 108.0
1397.223633 172.0
1397.580811 64.0
1400.856567 48.0
1400.998047 172.0
1401.094971 80.0
1401.765503 172.0
1401.869751 156.0
1402.212646 64.0
1402.622559 80.0
1402.905884 168.0
1403.054932 252.0
1403.300903 128.0
1403.472412 164.0
1403.629028 248.0
1404.128662 116.0
1404.330078 156.0
1404.486694 176.0
1404.561279 68.0
1405.516235 128.0
1406.060913 88.0
1406.426636 232.0
1407.262695 164.0
1407.471802 152.0
1407.949707 148.0
1408.868408 116.0
1408.935669 156.0
1410.056519 156.0
1410.392822 156.0
1410.946045 172.0
1411.701172 216.0
1412.82312 136.0
1413.473999 216.0
1413.825806 124.0
1413.945557 148.0
1414.147583 136.0
1415.337891 228.0
1415.607422 276.0
1416.266479 164.0
1416.341431 60.0
1416.783325 172.0
1417.187988 224.0
1417.285278 88.0
1417.345337 168.0
1418.192139 188.0
1418.851807 144.0
1421.011719 168.0
1421.334351 176.0
1421.649536 188.0
1422.767822 152.0
1423.083252 152.0
1424.419922 160.0
1425.643677 136.0
1427.268311 200.0
1427.802246 36.0
1428.464111 120.0
1429.359375 128.0
1429.923828 184.0
1430.126953 116.0
1431.083008 168.0
1432.310547 104.0
1432.852173 192.0
1433.900391 160.0
1434.224487 256.0
1434.518433 48.0
1434.623901 184.0
1434.865234 148.0
1435.792603 152.0
1436.086792 180.0
1436.184814 152.0
1436.239624 180.0
1436.471436 200.0
1436.599731 68.0
1436.984497 220.0
1437.482422 136.0
1439.709351 108.0
1440.925537 128.0
1441.393799 164.0
1442.361328 152.0
1443.011475 168.0
1443.276123 152.0
1443.397095 180.0
1445.242676 108.0
1445.401611 84.0
1447.051636 164.0
1447.293823 68.0
1447.574097 164.0
1448.361694 84.0
1448.960083 72.0
1449.187378 152.0
1449.990723 184.0
1450.073975 220.0
1450.301392 68.0
1450.581909 180.0
1450.953369 200.0
1451.120117 108.0
1453.069336 144.0
1453.72937 168.0
1454.154419 180.0
1454.237915 72.0
1454.359375 192.0
1454.450439 212.0
1454.50354 160.0
1455.171631 108.0
1456.143555 156.0
1456.584106 192.0
1456.667603 180.0
1456.94873 156.0
1457.131104 236.0
1457.814941 204.0
1457.936523 120.0
1458.035278 224.0
1458.959839 192.0
1459.023438 128.0
1459.494751 184.0
1459.578491 192.0
1459.943481 72.0
1460.924683 180.0
1461.502808 48.0
1461.967041 176.0
1462.860107 200.0
1463.260986 100.0
1463.786377 72.0
1464.090942 148.0
1464.67749 168.0
1464.852661 144.0
1465.065918 184.0
1465.195435 144.0
1465.294434 160.0
1465.827881 200.0
1467.138794 168.0
1467.344604 192.0
1467.878296 180.0
1468.610474 160.0
1469.014771 144.0
1469.171509 288.0
1469.579346 120.0
1470.884277 116.0
1471.265991 152.0
1471.380493 168.0
1471.800415 244.0
1472.113525 132.0
1472.800781 156.0
1474.2677 176.0
1474.626953 196.0
1474.833252 144.0
1475.582397 236.0
1475.758301 224.0
1476.882446 172.0
1477.36438 76.0
1478.359009 224.0
1478.795288 44.0
1479.170288 132.0
1479.338745 36.0
1481.498169 208.0
1482.141724 180.0
1482.578613 156.0
1483.107422 164.0
1483.299072 160.0
1483.490601 168.0
1483.743652 272.0
1484.303101 176.0
1484.518066 220.0
1484.571777 196.0
1485.108643 176.0
1485.2323 188.0
1486.834839 168.0
1487.187866 76.0
1487.625366 156.0
1488.539062 180.0
1488.684937 92.0
1489.022827 160.0
1490.036743 228.0
1491.143311 136.0
1492.327148 204.0
1492.580811 172.0
1493.157593 212.0
1493.242188 212.0
1493.46521 168.0
1493.688354 32.0
1493.765259 136.0
1493.842163 200.0
1494.126831 156.0
1495.573486 176.0
1495.665894 172.0
1495.819824 128.0
1495.973755 152.0
1499.293457 184.0
1499.678833 128.0
1500.025635 52.0
1500.233765 96.0
1501.336426 116.0
1501.914795 204.0
1503.234009 164.0
1503.712524 144.0
1504.228638 144.0
