>compound MLS001075553-01!
>formula C24H29N3O4
>ionization [M+H]+
>parentmass 424.224
#inchi InChI=1S/C24H29N3O4/c1-31-21-7-3-2-5-18(21)11-12-25-22(28)9-10-23(29)26-14-17-13-19(16-26)20-6-4-8-24(30)27(20)15-17/h2-8,17,19H,9-16H2,1H3,(H,25,28)/t17-,19?/m0/s1
#inchikey BEFNEUNVEVOMOD
#Ion_Source LC-ESI
#Instrument qTof
#Compound_Source NIH Natural Product Library
#PI Dorrestein
#Data_Collector VVP/LMS
#Scan -1
#Precursor_MZ 424.224
#ExactMass 423.216
#Charge 1
#CAS_Number N/A
#Pubmed_ID N/A
#Smiles COc1ccccc1CCNC(=O)CCC(=O)N2C[C@@H]3CC(C2)c4cccc(=O)n4C3
#INCHI_AUX N/A
#Library_Class 1
#SpectrumID CCMSLIB00000080174
#IonMode Positive
#UpdateWorkflowName UPDATE-SINGLE-ANNOTATED-GOLD
#LibraryQualityString Gold
#TaskID b1d8e8f6646f4e71acdff9ca3d919d08
##Scan# 1695
#SpectrumFile p2-B05_GB5_01_17993.mzXML
#LibraryName NIH_Natural_Products_Library.mgf
#MQScore -1
#Organism NIH_Natural_Products_Library
#TIC_Query 0
#RT_Query -1
#MZErrorPPM -1
#SharedPeaks 0
#MassDiff 0
#LibMZ -1
#SpecMZ 424.224
#SpecCharge 0
#internalFilename spec-00000.mgf

>collision 10
95.143181 116.0
95.323814 72.0
95.34713 176.0
95.467667 140.0
95.599945 184.0
95.720642 112.0
95.761536 208.0
95.90377 124.0
96.235405 176.0
96.329147 136.0
96.370178 176.0
96.385811 172.0
96.401443 120.0
96.440529 220.0
96.495262 136.0
96.698708 44.0
96.75547 204.0
96.769173 240.0
96.814209 168.0
96.867096 216.0
96.968987 140.0
96.996422 152.0
97.065041 168.0
97.107155 152.0
97.163116 116.0
97.299393 136.0
97.328171 164.0
97.388863 36.0
97.420288 156.0
97.6306 132.0
97.742729 168.0
98.022346 96.0
98.038109 184.0
98.061241 412.0
98.14061 204.0
98.176109 136.0
98.339859 44.0
98.367493 108.0
98.549187 216.0
98.744888 176.0
98.80027 120.0
98.883377 116.0
98.95266 108.0
99.045738 160.0
99.128952 76.0
99.148766 116.0
99.283577 144.0
99.402603 120.0
99.46611 164.0
99.519714 180.0
99.722343 140.0
99.762093 184.0
99.857536 160.0
100.076439 220.0
100.178009 56.0
100.21785 116.0
100.355385 144.0
100.381302 168.0
100.403236 140.0
100.604767 152.0
100.654678 168.0
100.694618 124.0
100.708603 420.0
100.786514 184.0
100.834862 144.0
100.886444 104.0
100.924431 128.0
101.002426 200.0
101.076454 140.0
101.208557 152.0
101.234589 108.0
101.374817 132.0
101.563278 200.0
101.587349 160.0
101.804115 192.0
101.830223 232.0
101.854324 80.0
102.041222 200.0
102.123672 120.0
102.165909 188.0
102.300743 188.0
102.496971 212.0
102.738045 172.0
102.796562 208.0
102.978256 184.0
103.054222 1012.0
103.154045 136.0
103.212677 144.0
103.230873 204.0
103.271324 100.0
103.29155 236.0
103.370453 140.0
103.386642 188.0
103.465584 88.0
103.568863 80.0
103.680298 132.0
103.840462 188.0
103.87088 176.0
103.899284 32.0
104.059753 176.0
104.112411 148.0
104.140846 192.0
104.17807 196.0
104.217346 140.0
104.400986 152.0
104.490486 128.0
104.525078 176.0
104.673676 92.0
104.97934 192.0
104.998726 132.0
105.049332 176.0
105.070572 5148.0
105.093391 184.0
105.115059 120.0
105.29158 56.0
105.307915 36.0
105.383499 140.0
105.399849 44.0
105.522484 188.0
105.594055 92.0
105.651329 188.0
105.792534 128.0
105.819145 176.0
105.837578 84.0
105.919495 88.0
105.995399 164.0
106.074913 1076.0
106.10598 68.0
106.128532 124.0
106.179802 112.0
106.209824 100.0
106.255692 148.0
106.270943 136.0
106.290573 128.0
106.341881 256.0
106.413727 136.0
106.520515 156.0
106.663651 208.0
106.726036 132.0
106.748657 152.0
106.837097 156.0
106.896767 72.0
106.937927 188.0
106.987022 244.0
107.051414 128.0
107.085953 444.0
107.162384 124.0
107.339653 216.0
107.355072 176.0
107.39946 160.0
107.440712 180.0
107.456398 176.0
107.570724 212.0
107.621384 164.0
107.678093 168.0
107.713203 116.0
107.762787 160.0
107.795845 72.0
107.830978 168.0
107.853714 292.0
107.87439 64.0
107.921936 112.0
107.95916 140.0
108.089485 128.0
108.103966 116.0
108.139153 132.0
108.170197 168.0
108.201248 156.0
108.300652 96.0
108.344147 116.0
108.364868 164.0
108.397278 168.0
108.4478 204.0
108.516167 120.0
108.686249 172.0
108.767189 116.0
109.043282 164.0
109.193123 172.0
109.461586 108.0
109.58239 132.0
109.646988 312.0
109.73037 268.0
110.001572 184.0
110.068542 160.0
110.156097 140.0
110.218781 156.0
110.314919 212.0
110.448746 148.0
110.570099 240.0
110.584747 96.0
110.787865 176.0
111.010033 128.0
111.070854 144.0
111.177856 160.0
111.257622 248.0
111.280716 140.0
111.300613 260.0
111.463455 244.0
111.520195 48.0
111.637932 108.0
111.753624 160.0
111.827339 128.0
111.989395 176.0
112.036621 172.0
112.122131 128.0
112.143204 52.0
112.193794 156.0
112.242287 84.0
112.337196 164.0
112.382797 176.0
112.391113 108.0
112.537689 164.0
112.563026 160.0
112.584145 220.0
112.687378 156.0
113.193176 200.0
113.244003 40.0
113.271851 136.0
113.487701 100.0
113.515266 80.0
113.551323 116.0
113.697708 44.0
113.852684 116.0
113.935524 152.0
114.056473 140.0
114.073662 60.0
114.094917 240.0
114.192909 192.0
114.222511 164.0
114.266373 208.0
114.428932 168.0
114.465134 128.0
114.552452 136.0
114.648331 28.0
114.983162 284.0
115.052063 352.0
115.089897 148.0
115.122658 432.0
115.27787 156.0
115.312065 144.0
115.392509 228.0
115.55584 212.0
115.67569 240.0
115.76561 108.0
115.810585 112.0
115.881279 160.0
115.909134 240.0
116.062157 200.0
116.342384 56.0
116.449745 196.0
116.634529 148.0
116.733429 132.0
116.905518 216.0
116.998077 80.0
117.059563 408.0
117.107971 228.0
117.235008 200.0
117.275955 60.0
117.351402 128.0
117.424721 180.0
117.649132 176.0
117.761421 168.0
117.785553 184.0
117.986145 72.0
118.016418 112.0
118.053177 188.0
118.092102 168.0
118.304161 204.0
118.465721 196.0
118.494743 124.0
118.761375 76.0
119.049011 392.0
119.069572 128.0
119.08625 592.0
119.189743 164.0
119.330338 192.0
119.355705 180.0
119.416115 152.0
119.478226 136.0
119.560913 148.0
119.60009 80.0
119.824387 100.0
119.874504 164.0
119.95578 136.0
120.014008 184.0
120.058151 1448.0
120.177589 164.0
120.358757 248.0
120.435196 236.0
120.494171 108.0
120.62748 160.0
120.666832 60.0
120.850555 180.0
121.059021 224.0
121.09053 160.0
121.242523 172.0
121.2631 144.0
121.406944 132.0
121.483551 220.0
121.534172 44.0
121.659271 176.0
121.725136 172.0
121.872307 44.0
121.896477 152.0
121.931641 196.0
122.064957 240.0
122.105324 168.0
122.169113 384.0
122.246353 188.0
122.270325 164.0
122.362778 124.0
122.389198 132.0
122.426636 188.0
122.476456 148.0
122.860855 112.0
122.997078 164.0
123.132294 136.0
123.180946 128.0
123.287003 144.0
123.306107 180.0
123.432106 200.0
123.490402 232.0
123.607651 152.0
123.865837 292.0
124.004059 116.0
124.028442 120.0
124.101601 128.0
124.216919 116.0
124.247139 284.0
124.268852 140.0
124.287918 48.0
124.318985 100.0
124.518784 144.0
124.598755 200.0
124.643188 152.0
124.753357 184.0
124.82991 132.0
125.014549 140.0
125.092453 152.0
125.123619 244.0
125.321838 52.0
125.455559 116.0
125.791107 152.0
125.850456 176.0
125.899582 152.0
126.054672 532.0
126.135735 316.0
126.22361 28.0
126.27504 188.0
126.447319 380.0
126.559242 152.0
126.785133 104.0
126.922234 144.0
127.052994 160.0
127.133095 152.0
127.296974 128.0
127.321671 180.0
127.362099 136.0
127.46769 164.0
127.654266 160.0
127.849983 196.0
127.894997 168.0
128.068893 752.0
128.165237 208.0
128.363602 172.0
128.422241 56.0
128.50119 108.0
128.589203 208.0
128.693039 256.0
128.814987 172.0
128.976776 220.0
129.071045 356.0
129.197037 196.0
129.280762 48.0
129.3396 156.0
129.35997 112.0
129.42337 140.0
129.507156 204.0
129.593246 140.0
129.618164 152.0
129.640823 192.0
129.774567 128.0
129.822189 184.0
129.861557 84.0
129.935593 160.0
130.06076 204.0
130.075638 452.0
130.114883 156.0
130.160294 152.0
130.203445 168.0
130.237518 140.0
130.305664 84.0
130.426102 56.0
130.526413 192.0
130.696732 140.0
130.819626 244.0
130.928925 140.0
130.951706 184.0
131.082809 340.0
131.193848 120.0
131.289001 152.0
131.330048 108.0
131.375671 160.0
131.400772 160.0
131.51944 100.0
131.562805 188.0
131.580841 180.0
131.722656 160.0
131.791199 176.0
131.896317 120.0
132.003769 72.0
132.045105 168.0
132.068848 364.0
132.077911 152.0
132.083984 276.0
132.248566 244.0
132.273743 108.0
132.30809 28.0
132.447769 196.0
132.557739 136.0
132.594406 144.0
132.644836 116.0
132.695267 156.0
132.881424 72.0
132.952179 232.0
133.014145 64.0
133.052307 164.0
133.094421 204.0
133.128937 176.0
133.187027 180.0
133.372482 144.0
133.388763 232.0
133.40715 148.0
133.468643 176.0
133.860214 148.0
133.922394 144.0
133.991501 88.0
134.022461 156.0
134.042694 200.0
134.060165 404.0
134.109024 152.0
134.148209 132.0
134.166656 232.0
134.242752 132.0
134.332138 188.0
134.381149 88.0
134.510376 204.0
134.538589 184.0
134.611969 128.0
134.644302 112.0
134.692795 56.0
134.787521 188.0
134.848328 128.0
134.910889 160.0
134.958572 88.0
135.008514 228.0
135.026443 196.0
135.081467 49200.0
135.129272 164.0
135.158524 124.0
135.180634 40.0
135.20462 108.0
135.254517 112.0
135.282974 276.0
135.319504 32.0
135.354233 48.0
135.384338 108.0
135.403519 104.0
135.430664 200.0
135.462418 96.0
135.514053 120.0
135.57431 136.0
135.669708 76.0
135.689941 140.0
135.871109 88.0
135.951736 128.0
135.991776 60.0
136.084045 2616.0
136.128738 84.0
136.145004 56.0
136.165894 64.0
136.233261 56.0
136.249527 76.0
136.277405 28.0
136.372681 180.0
136.412201 104.0
136.449387 152.0
136.472641 68.0
136.595901 48.0
136.642426 40.0
136.691284 108.0
136.741806 124.0
136.828613 48.0
136.879837 60.0
136.91011 60.0
136.977661 132.0
137.016235 112.0
137.063477 72.0
137.084991 504.0
137.102524 168.0
137.131058 124.0
137.185059 128.0
137.203705 144.0
137.238678 96.0
137.345947 100.0
137.401932 180.0
137.424469 176.0
137.623657 128.0
137.707733 44.0
137.747437 148.0
137.8461 192.0
137.903992 216.0
137.934372 120.0
137.969437 68.0
138.006851 60.0
138.069992 140.0
138.089615 244.0
138.11676 200.0
138.22438 96.0
138.322678 72.0
138.355453 152.0
138.479553 168.0
138.617783 88.0
138.720901 148.0
138.760757 208.0
138.824066 72.0
139.009384 128.0
139.042252 140.0
139.070404 220.0
139.093826 160.0
139.361603 208.0
139.427399 160.0
139.544937 100.0
139.622528 168.0
139.860168 152.0
139.987289 136.0
140.086212 168.0
140.180466 140.0
140.392624 48.0
140.489334 68.0
140.517639 128.0
140.56955 148.0
140.635635 124.0
140.819794 132.0
140.956818 172.0
141.068771 692.0
141.164841 104.0
141.210876 180.0
141.268707 224.0
141.488998 152.0
141.671341 28.0
141.877518 128.0
142.071991 112.0
142.119492 168.0
142.280823 56.0
142.337814 148.0
142.362595 276.0
142.510956 192.0
142.770309 80.0
143.084396 184.0
143.506104 148.0
143.591949 236.0
143.646805 132.0
143.713608 128.0
143.947525 216.0
144.012009 192.0
144.056625 536.0
144.407532 160.0
144.58342 176.0
144.612137 132.0
144.700714 208.0
144.822845 172.0
144.931549 200.0
145.007324 52.0
145.060272 412.0
145.141571 160.0
145.196732 172.0
145.227905 132.0
145.472107 156.0
145.61673 148.0
145.667175 144.0
145.693604 236.0
145.744705 204.0
145.814011 208.0
145.907486 128.0
146.059738 808.0
146.092743 124.0
146.155212 176.0
146.270737 100.0
146.287582 220.0
146.439285 168.0
146.603104 124.0
146.653717 180.0
146.783905 52.0
146.914139 252.0
146.955276 164.0
146.979813 148.0
147.079895 416.0
147.150925 108.0
147.174805 148.0
147.24118 156.0
147.318604 272.0
147.373917 228.0
147.426025 136.0
147.6315 128.0
147.798416 124.0
147.851654 140.0
147.875214 152.0
147.975113 112.0
148.07663 6868.0
148.117981 48.0
148.243973 64.0
148.290024 156.0
148.338501 140.0
148.357895 232.0
148.445175 148.0
148.59314 164.0
148.646515 72.0
148.826141 104.0
148.937851 52.0
148.960526 144.0
149.030167 212.0
149.078735 1468.0
149.132233 132.0
149.217316 144.0
149.36261 192.0
149.407013 64.0
149.482437 180.0
149.596832 64.0
149.723434 216.0
149.757538 216.0
149.781891 116.0
149.842789 72.0
149.908585 76.0
150.042648 204.0
150.081055 308.0
150.101166 160.0
150.218231 152.0
150.235306 128.0
150.511093 144.0
150.623444 40.0
150.743149 128.0
150.816467 156.0
150.928925 180.0
151.173538 112.0
151.20047 88.0
151.24942 224.0
151.406113 136.0
151.477142 160.0
151.548187 96.0
151.580048 104.0
151.957642 124.0
152.082794 208.0
152.161346 116.0
152.210449 160.0
152.360275 104.0
152.687195 160.0
153.324829 200.0
153.420959 80.0
153.470276 68.0
153.642914 172.0
153.679626 168.0
153.926758 76.0
153.955307 228.0
154.077423 112.0
154.134247 124.0
154.208389 200.0
154.228165 144.0
154.455643 148.0
154.648499 204.0
154.903687 188.0
154.987915 160.0
155.161423 204.0
155.352371 184.0
155.392075 56.0
155.429291 100.0
155.71228 72.0
155.771271 120.0
155.806671 168.0
155.898605 180.0
155.916016 140.0
156.057693 140.0
156.075104 220.0
156.119858 116.0
156.17955 108.0
156.246719 120.0
156.465729 168.0
157.062454 332.0
157.136139 128.0
157.187515 164.0
157.455658 176.0
157.640533 80.0
157.735504 120.0
157.8255 128.0
157.963058 168.0
158.060715 392.0
158.330978 128.0
158.626648 144.0
158.676773 56.0
158.704361 144.0
158.982803 124.0
159.035507 192.0
159.078506 332.0
159.084167 400.0
159.304184 156.0
159.372009 168.0
159.676193 72.0
159.771774 224.0
159.849274 200.0
159.916046 144.0
160.052841 420.0
160.076157 4708.0
160.391251 128.0
160.729187 220.0
160.815002 136.0
160.865479 160.0
161.048706 200.0
161.081299 1020.0
161.287323 132.0
161.340408 160.0
161.390976 128.0
161.504776 196.0
161.562958 36.0
161.679535 56.0
161.754532 188.0
161.909729 152.0
162.093765 436.0
162.203644 116.0
162.22139 140.0
162.256866 116.0
162.551102 208.0
162.596771 132.0
162.627228 132.0
162.723694 104.0
162.860825 132.0
162.895157 156.0
162.987854 116.0
163.090912 164.0
163.188644 144.0
163.34494 176.0
163.547333 180.0
163.595703 164.0
163.902176 180.0
164.074646 144.0
164.095047 196.0
164.168991 156.0
164.449738 176.0
164.487915 176.0
164.582367 176.0
164.684525 236.0
164.715164 156.0
164.791809 168.0
164.860809 92.0
164.944092 160.0
164.98349 148.0
165.018127 204.0
165.11116 172.0
165.18808 176.0
165.392776 124.0
165.481171 184.0
165.687271 48.0
165.723145 292.0
165.753891 160.0
166.064087 132.0
166.082031 124.0
166.125381 192.0
166.245346 172.0
166.382278 64.0
166.464432 196.0
166.536346 64.0
166.554321 136.0
166.631393 60.0
166.711044 108.0
166.795868 156.0
166.831055 192.0
166.862701 116.0
166.903839 152.0
166.934692 208.0
167.189377 232.0
167.207397 164.0
167.43573 168.0
167.544708 204.0
167.588516 72.0
167.686432 176.0
167.794693 144.0
167.862122 160.0
167.990692 148.0
168.047455 140.0
168.080414 176.0
168.230682 360.0
168.292648 116.0
168.514771 132.0
168.563873 108.0
168.853775 168.0
168.90773 200.0
169.06813 132.0
169.373642 152.0
169.402145 128.0
169.47728 92.0
169.580933 120.0
169.619812 80.0
169.669067 164.0
169.876938 128.0
170.027023 52.0
170.102081 144.0
170.221725 132.0
170.343796 172.0
170.49968 60.0
170.580261 128.0
171.073929 160.0
171.103149 196.0
171.196884 100.0
171.522568 204.0
171.569489 208.0
172.073364 276.0
172.127838 224.0
172.187897 208.0
172.227081 120.0
172.271484 188.0
172.321121 160.0
172.498825 164.0
172.6008 176.0
172.637405 100.0
172.862381 160.0
172.925186 184.0
172.980148 168.0
173.070786 220.0
173.108444 140.0
173.187012 188.0
173.257736 172.0
173.297043 48.0
173.414963 244.0
173.530304 80.0
173.77684 180.0
173.91449 176.0
173.93692 180.0
174.092133 1532.0
174.141724 136.0
174.40184 160.0
174.612183 204.0
174.704254 104.0
174.764755 144.0
174.80423 112.0
174.904236 56.0
175.075912 4540.0
175.201797 120.0
175.44162 80.0
175.652588 48.0
175.73436 176.0
175.802979 176.0
175.947083 140.0
176.07869 900.0
176.278305 140.0
176.373444 248.0
176.442184 152.0
176.465973 120.0
176.584976 164.0
176.629944 188.0
176.934265 192.0
176.979279 196.0
177.071228 160.0
177.126587 236.0
177.214996 96.0
177.238846 144.0
177.262695 40.0
177.450882 144.0
177.663055 248.0
178.215286 124.0
178.35347 72.0
178.435883 160.0
178.494385 188.0
178.574158 168.0
178.705246 144.0
178.880157 200.0
178.935226 128.0
179.138458 176.0
179.407608 136.0
179.460938 140.0
179.690308 124.0
179.898468 192.0
179.933167 172.0
180.034637 132.0
180.064011 156.0
180.14682 180.0
180.463409 164.0
180.518326 132.0
180.670792 160.0
181.281265 100.0
181.345581 184.0
181.56543 136.0
181.878937 132.0
181.951813 240.0
182.18277 176.0
182.373566 148.0
182.521423 208.0
182.642441 76.0
182.880569 184.0
183.21312 236.0
183.566208 128.0
183.625534 136.0
183.666 164.0
183.927734 108.0
184.008713 184.0
184.076355 184.0
184.200455 100.0
184.230179 196.0
184.316635 92.0
184.724869 184.0
184.803329 56.0
184.881805 148.0
185.052338 372.0
185.07399 124.0
185.352982 196.0
185.661041 156.0
185.746109 148.0
185.927887 216.0
186.024582 192.0
186.066315 180.0
186.15593 156.0
186.42215 188.0
186.536301 256.0
186.674957 60.0
186.696991 180.0
186.756546 124.0
186.824554 136.0
186.93338 100.0
187.006866 164.0
187.025909 84.0
187.325439 164.0
187.448044 116.0
187.636108 124.0
187.687912 116.0
187.742462 184.0
187.865204 176.0
187.922485 60.0
188.067123 136.0
188.260971 128.0
188.364746 312.0
188.561478 88.0
188.7966 188.0
189.048279 64.0
189.102737 2276.0
189.190598 92.0
189.38942 152.0
189.456238 40.0
189.606949 80.0
189.627701 56.0
189.697403 144.0
189.771423 56.0
189.886597 56.0
190.028381 64.0
190.104141 796.0
190.191147 196.0
190.539703 112.0
190.748749 236.0
190.776245 56.0
190.795486 112.0
190.826431 188.0
190.884842 136.0
190.91922 60.0
190.953751 208.0
190.987976 140.0
191.035217 184.0
191.078934 120.0
191.118759 27312.0
191.181915 88.0
191.209106 152.0
191.235611 60.0
191.269333 256.0
191.316635 92.0
191.355942 56.0
191.367188 40.0
191.424713 64.0
191.513519 64.0
191.543991 40.0
191.598175 72.0
191.677216 136.0
191.82782 52.0
191.847122 84.0
191.882767 56.0
191.96843 68.0
192.084274 140.0
192.121857 6052.0
192.158249 132.0
192.205658 176.0
192.362976 288.0
192.415436 68.0
192.478928 80.0
192.51207 32.0
192.534164 60.0
192.605972 100.0
192.686081 48.0
192.719238 72.0
192.948639 232.0
193.0952 112.0
193.124023 328.0
193.214142 204.0
193.327576 64.0
193.413376 92.0
193.43837 148.0
193.47258 156.0
193.549026 68.0
193.580261 116.0
193.612732 172.0
193.904785 152.0
193.989548 180.0
194.025589 60.0
194.126434 176.0
194.318863 128.0
194.348816 140.0
194.458313 72.0
194.713745 44.0
194.741516 52.0
195.014297 168.0
195.03775 52.0
195.319656 80.0
195.497711 172.0
195.572861 172.0
195.664719 132.0
195.824371 180.0
195.907013 288.0
196.11879 40.0
196.152237 116.0
196.431091 264.0
196.475723 136.0
196.506409 224.0
196.531525 140.0
196.618027 44.0
196.83577 96.0
196.981003 76.0
197.145844 180.0
197.226898 100.0
197.330322 148.0
197.358627 132.0
197.433792 152.0
197.805908 60.0
197.957092 124.0
198.08873 144.0
198.329712 92.0
198.598892 140.0
198.635345 172.0
198.767212 160.0
198.938416 104.0
199.005798 100.0
199.168671 156.0
199.424362 176.0
199.492706 216.0
199.525558 128.0
199.857437 164.0
199.972824 156.0
200.110764 156.0
200.209305 200.0
200.245926 84.0
200.482574 232.0
200.773666 124.0
200.88295 196.0
201.060699 160.0
201.238541 36.0
201.453171 40.0
201.509674 108.0
201.552063 124.0
201.636841 224.0
201.673584 152.0
201.741425 140.0
201.80928 112.0
201.831894 56.0
201.860168 48.0
202.085785 264.0
202.111923 152.0
202.197586 104.0
202.400635 156.0
202.423294 128.0
202.468597 120.0
202.641388 124.0
202.661224 140.0
202.681061 120.0
202.712234 144.0
202.746231 148.0
202.799835 188.0
202.822754 320.0
202.890793 196.0
202.934128 112.0
202.96167 340.0
202.996231 212.0
203.034805 476.0
203.071091 39024.0
203.116074 288.0
203.182983 76.0
203.211273 72.0
203.25383 52.0
203.287888 72.0
203.310593 116.0
203.347488 40.0
203.37587 116.0
203.395737 104.0
203.420334 168.0
203.495926 124.0
203.52095 184.0
203.560287 240.0
203.604538 52.0
203.631393 112.0
203.656967 172.0
203.688202 56.0
203.710938 128.0
203.799835 164.0
203.832367 108.0
203.884247 56.0
203.91835 96.0
203.998993 140.0
204.023529 148.0
204.074341 15208.0
204.22258 76.0
204.242493 48.0
204.301941 40.0
204.333145 92.0
204.391449 56.0
204.461746 64.0
204.54126 56.0
204.569733 172.0
204.614594 120.0
204.668381 144.0
204.685394 64.0
204.753586 156.0
204.788986 96.0
204.823166 68.0
205.035385 124.0
205.077911 1572.0
205.14447 116.0
205.198135 192.0
205.294891 140.0
205.349091 112.0
205.406082 72.0
205.441742 48.0
205.484299 88.0
205.530182 140.0
205.666534 268.0
205.778305 124.0
205.898438 224.0
206.058395 68.0
206.241287 128.0
206.313797 252.0
206.375656 124.0
206.455719 180.0
206.484314 136.0
206.510056 180.0
206.537079 160.0
206.570129 124.0
206.610168 100.0
206.650223 60.0
206.741791 160.0
206.813339 112.0
206.936447 52.0
206.967606 172.0
207.314545 208.0
207.670044 48.0
208.043076 132.0
208.275665 164.0
208.407822 172.0
208.46817 112.0
208.775757 192.0
208.962738 168.0
209.204483 92.0
209.380112 160.0
209.512619 184.0
209.556824 140.0
209.786392 92.0
210.239227 92.0
210.262314 128.0
210.568344 196.0
210.8983 160.0
211.152145 200.0
211.241821 32.0
211.351761 60.0
211.725174 212.0
211.748352 144.0
211.881592 188.0
212.075745 240.0
212.359894 160.0
212.597794 168.0
212.722595 168.0
212.774841 112.0
212.876465 156.0
212.937454 200.0
213.097229 184.0
213.719437 232.0
213.949356 124.0
214.07457 60.0
214.09494 164.0
214.701111 132.0
214.791534 248.0
215.115677 220.0
215.287704 180.0
215.527237 88.0
215.606125 148.0
215.723038 176.0
215.88678 180.0
215.921875 200.0
216.100479 140.0
216.211502 164.0
216.296387 172.0
216.363708 140.0
216.401779 160.0
216.697586 156.0
216.721024 136.0
216.791351 40.0
217.096161 508.0
217.141312 528.0
217.166626 28.0
217.248749 32.0
217.506989 48.0
217.600922 80.0
217.673904 56.0
217.744812 160.0
217.791809 148.0
217.829987 120.0
218.006271 220.0
218.102188 208.0
218.160675 140.0
218.214966 124.0
218.564987 164.0
218.918213 52.0
219.071381 228.0
219.292999 224.0
219.413223 136.0
219.770096 124.0
219.835022 120.0
220.159744 228.0
220.404922 148.0
220.768524 44.0
220.924942 152.0
221.058426 228.0
221.185684 204.0
221.265625 76.0
221.822556 128.0
221.988586 256.0
222.288193 112.0
222.469238 48.0
222.531586 152.0
223.217972 192.0
223.470795 84.0
223.557083 272.0
224.102005 104.0
224.152649 260.0
224.179474 60.0
224.271866 76.0
224.391098 176.0
224.698288 204.0
224.865402 200.0
225.065414 180.0
225.468689 172.0
225.659988 148.0
225.818481 148.0
225.997971 140.0
226.497925 120.0
226.536865 212.0
226.674683 140.0
226.953445 200.0
227.119583 1772.0
227.199387 64.0
227.703659 184.0
227.947083 156.0
228.119095 196.0
228.252487 268.0
228.337814 52.0
228.640579 188.0
228.731964 152.0
228.825287 168.0
229.125229 244.0
229.367538 108.0
229.575577 80.0
229.973816 144.0
230.084274 504.0
230.257614 184.0
230.629242 56.0
230.949753 224.0
231.06691 3028.0
231.282578 28.0
231.315872 112.0
231.361282 188.0
231.527817 40.0
231.558105 184.0
231.591415 140.0
231.818634 48.0
232.018692 216.0
232.068604 1092.0
232.118744 112.0
232.261292 152.0
232.282516 68.0
232.333618 128.0
232.437241 120.0
232.667923 56.0
232.762039 112.0
233.074905 124.0
233.280685 68.0
233.460968 156.0
233.533951 104.0
233.634338 156.0
233.719528 116.0
233.783432 140.0
234.113937 7460.0
234.267548 152.0
234.343704 168.0
234.410736 104.0
234.456451 68.0
234.496933 84.0
234.536285 228.0
234.865005 152.0
234.965668 124.0
235.113098 1048.0
235.15181 100.0
235.240326 40.0
235.26474 44.0
235.289169 52.0
235.380768 144.0
235.405197 60.0
235.512085 32.0
235.591507 196.0
235.622055 100.0
235.692337 216.0
235.857361 136.0
235.884872 116.0
235.947998 148.0
236.113739 172.0
236.453781 132.0
236.504288 128.0
236.554794 128.0
236.790558 124.0
237.213394 220.0
237.354416 160.0
237.562973 216.0
237.805389 168.0
238.167694 148.0
238.385818 144.0
238.570236 172.0
238.762573 204.0
239.090378 192.0
239.283981 228.0
239.33017 124.0
239.582718 180.0
240.242432 76.0
240.49855 148.0
240.554108 76.0
240.788773 140.0
240.853638 52.0
240.949402 156.0
241.09462 132.0
241.258438 152.0
241.394485 128.0
241.542938 92.0
241.576965 80.0
241.747131 140.0
242.092133 36.0
242.270401 156.0
242.304474 196.0
242.443909 196.0
242.48111 56.0
242.546188 116.0
242.654694 192.0
242.856262 172.0
243.044052 164.0
243.076523 168.0
243.098251 148.0
243.189804 144.0
243.225494 104.0
243.29689 192.0
243.818726 156.0
243.862061 72.0
243.954437 236.0
244.102417 184.0
244.213577 136.0
244.291565 160.0
244.316223 140.0
244.356674 144.0
244.39711 104.0
244.465576 76.0
244.537155 176.0
244.591385 104.0
244.671005 168.0
244.717697 180.0
244.772202 156.0
244.820465 172.0
244.93512 196.0
244.979813 176.0
245.016174 212.0
245.13031 82212.0
245.179764 96.0
245.210236 216.0
245.269623 72.0
245.31308 76.0
245.358215 88.0
245.419769 288.0
245.487442 76.0
245.522873 132.0
245.552521 40.0
245.575302 64.0
245.608978 60.0
245.641251 392.0
245.705124 88.0
245.712677 116.0
245.740005 28.0
245.766235 108.0
245.786804 52.0
245.8461 36.0
245.910431 184.0
245.955338 56.0
246.02713 268.0
246.091736 52.0
246.132416 15000.0
246.188309 84.0
246.197296 104.0
246.233337 104.0
246.261963 196.0
246.323639 84.0
246.350967 80.0
246.383667 96.0
246.39772 60.0
246.404861 80.0
246.552048 216.0
246.648773 48.0
246.720673 76.0
246.742554 120.0
246.791214 52.0
246.829361 112.0
246.864487 68.0
246.953384 92.0
247.134628 1700.0
247.243027 72.0
247.368225 52.0
247.396393 100.0
247.430832 84.0
247.471527 124.0
247.517487 124.0
247.545685 164.0
247.592346 144.0
247.601852 84.0
247.610092 112.0
247.669052 272.0
247.713531 264.0
247.736862 52.0
247.76593 132.0
247.819901 88.0
247.845016 300.0
247.917099 260.0
248.020538 64.0
248.045425 156.0
248.07045 144.0
248.098129 52.0
248.136963 152.0
248.170242 44.0
248.204727 76.0
248.226669 60.0
248.267441 64.0
248.383484 100.0
248.598862 260.0
248.690979 104.0
248.879349 144.0
248.910736 80.0
249.030075 76.0
249.184601 212.0
249.240555 64.0
249.271988 88.0
249.39769 140.0
249.488846 96.0
249.699524 72.0
249.793884 112.0
249.815903 64.0
249.844467 152.0
250.313187 168.0
251.183044 64.0
251.637482 128.0
252.022812 176.0
252.084427 128.0
252.307251 208.0
252.595032 92.0
252.731064 48.0
252.841827 172.0
253.101395 144.0
253.231247 88.0
253.687531 76.0
253.925339 64.0
254.306061 120.0
254.620377 120.0
254.645782 72.0
254.766495 76.0
254.849091 72.0
255.02388 184.0
255.112625 880.0
255.278214 36.0
255.694962 40.0
256.118164 100.0
256.159821 56.0
256.628296 192.0
256.698456 84.0
256.85791 72.0
257.100403 132.0
257.18338 112.0
257.815765 132.0
257.920227 172.0
258.154633 56.0
258.340118 32.0
258.692139 188.0
258.813812 168.0
258.852234 52.0
258.93869 68.0
259.868317 188.0
260.282349 156.0
261.682312 140.0
261.726105 72.0
261.877472 32.0
261.961212 104.0
262.054626 136.0
262.499451 52.0
263.787659 236.0
264.985077 92.0
265.182739 36.0
265.549103 172.0
265.83136 68.0
265.899506 116.0
265.970917 112.0
266.094269 124.0
266.672485 164.0
266.717987 28.0
266.981323 148.0
267.104919 116.0
267.326172 60.0
267.729828 80.0
268.280487 136.0
269.148346 172.0
269.510895 124.0
269.62854 44.0
269.716797 148.0
269.860626 132.0
269.919495 92.0
270.086273 152.0
270.154968 208.0
270.855499 136.0
271.196259 68.0
271.599548 100.0
271.753754 200.0
271.878448 36.0
272.022858 80.0
272.104919 308.0
272.132599 156.0
272.196869 120.0
272.281219 140.0
272.306396 148.0
272.403778 68.0
272.456329 172.0
272.484894 292.0
272.551605 140.0
272.591034 40.0
272.683044 160.0
272.730408 332.0
272.789185 168.0
272.83606 224.0
272.896729 156.0
272.939484 184.0
272.985352 156.0
273.025269 176.0
273.037048 172.0
273.049713 188.0
273.058685 220.0
273.125275 75480.0
273.215302 100.0
273.235596 76.0
273.294495 60.0
273.341614 140.0
273.409882 84.0
273.459045 124.0
273.468292 80.0
273.479401 92.0
273.492706 72.0
273.523773 76.0
273.567871 140.0
273.597504 60.0
273.631744 128.0
273.677826 100.0
273.722626 64.0
273.752258 136.0
273.798096 48.0
273.84845 76.0
273.876099 152.0
273.914764 140.0
273.970612 108.0
274.013733 144.0
274.049316 132.0
274.076385 124.0
274.127472 11380.0
274.223969 136.0
274.251007 92.0
274.328827 56.0
274.371704 76.0
274.424438 48.0
274.46991 56.0
274.53656 40.0
274.573334 80.0
274.718109 100.0
274.804077 80.0
274.829254 76.0
274.856537 124.0
274.889526 64.0
274.915924 40.0
274.959381 72.0
275.064636 92.0
275.130249 1400.0
275.193207 144.0
275.232819 52.0
275.257416 80.0
275.281158 100.0
275.364929 60.0
275.434265 120.0
275.504608 28.0
275.592865 88.0
275.642639 124.0
275.718414 132.0
275.741547 124.0
275.788879 156.0
275.815765 120.0
275.840729 92.0
275.89093 64.0
275.94458 124.0
275.979065 244.0
276.016296 108.0
276.07547 80.0
276.098602 48.0
276.129608 308.0
276.139435 116.0
276.153168 232.0
276.186005 244.0
276.250763 264.0
276.280518 132.0
276.320221 64.0
276.580017 112.0
276.674347 96.0
276.723999 48.0
276.813416 96.0
276.867004 88.0
276.971375 52.0
277.028687 52.0
277.089233 88.0
277.114838 88.0
277.18277 40.0
277.21347 148.0
277.303711 108.0
277.449554 92.0
277.525818 48.0
277.801086 56.0
278.006805 40.0
278.189362 92.0
278.212585 84.0
278.242462 96.0
278.464935 60.0
278.601135 108.0
279.096344 132.0
279.70517 108.0
280.981476 68.0
281.355255 72.0
281.664734 100.0
283.117401 112.0
286.115845 64.0
286.157013 228.0
286.193298 44.0
286.402069 56.0
288.264374 92.0
289.16394 96.0
289.488953 76.0
291.035187 84.0
296.126617 156.0
296.22937 88.0
296.3013 36.0
296.794861 72.0
299.165466 128.0
302.029572 84.0
302.787537 36.0
304.605011 80.0
305.383606 128.0
306.762482 112.0
308.521912 76.0
309.098999 144.0
313.89032 104.0
315.196381 200.0
316.126373 68.0
319.415314 116.0
323.461792 104.0
324.593903 48.0
324.905945 68.0
328.914764 48.0
331.214478 228.0
331.957458 76.0
338.699921 104.0
339.069977 52.0
343.039642 72.0
343.105988 84.0
344.401215 128.0
344.557251 84.0
346.465332 80.0
351.406311 56.0
351.622742 84.0
354.914673 64.0
359.26239 64.0
361.268372 96.0
361.85495 112.0
364.031403 124.0
364.608856 92.0
365.886902 108.0
375.667053 44.0
376.55481 80.0
379.491913 60.0
381.109131 60.0
382.366455 44.0
393.941528 112.0
397.016907 52.0
400.243622 56.0
407.38269 92.0
409.0354 60.0
409.417908 56.0
410.211639 144.0
411.139313 52.0
413.827393 60.0
416.325195 44.0
419.894318 120.0
421.174988 832.0
421.588562 64.0
422.18631 164.0
422.291748 64.0
424.187531 188.0
424.231537 312.0
424.704193 136.0
424.810822 52.0
425.22995 168.0
427.888916 100.0
431.937256 32.0
437.622772 100.0
440.959961 88.0
443.299347 48.0
445.237488 96.0
446.59079 68.0
455.488342 80.0
457.065613 52.0
458.406952 116.0
458.671173 84.0
459.137573 144.0
459.187103 68.0
460.710938 104.0
464.718201 40.0
483.096863 96.0
487.02002 56.0
495.135315 172.0
495.432098 104.0
496.114563 100.0
498.653534 108.0
499.631775 132.0
500.063416 52.0
510.186066 76.0
512.936523 48.0
524.559204 36.0
532.617249 72.0
534.483765 52.0
542.62207 76.0
543.122864 108.0
557.20697 80.0
558.513794 56.0
561.561218 72.0
562.934509 88.0
571.599792 52.0
572.899597 56.0
574.019653 128.0
574.878296 92.0
584.952881 96.0
590.4823 72.0
594.503357 168.0
597.642395 32.0
604.522583 100.0
612.219971 72.0
626.61438 44.0
638.492798 84.0
640.732727 44.0
645.047363 108.0
661.452393 44.0
682.366577 64.0
689.701233 100.0
699.110168 52.0
703.278931 100.0
707.137268 36.0
707.513062 44.0
711.728027 72.0
722.938171 36.0
737.151062 60.0
739.427734 76.0
764.180603 80.0
768.257446 168.0
769.918823 152.0
772.931519 96.0
773.93335 144.0
778.18042 32.0
778.252625 152.0
779.830261 100.0
787.658752 56.0
798.566162 108.0
802.305054 148.0
807.222778 84.0
809.010681 52.0
811.038574 68.0
814.573608 100.0
818.981873 236.0
825.579407 52.0
825.911133 92.0
834.751038 52.0
840.209045 140.0
850.166992 204.0
858.579041 68.0
892.029236 92.0
894.134766 200.0
900.842529 128.0
902.623535 176.0
910.137451 152.0
924.139038 88.0
926.900024 212.0
931.996948 64.0
934.848755 276.0
936.535156 100.0
943.082031 72.0
944.011292 224.0
954.816772 136.0
960.045227 132.0
964.026917 168.0
969.156616 176.0
972.772217 164.0
980.827576 192.0
981.725342 156.0
989.692383 80.0
989.805054 84.0
998.590759 60.0
1009.53894 56.0
1011.215454 184.0
1012.728638 136.0
1014.559875 108.0
1016.576843 152.0
1017.801941 80.0
1022.913391 192.0
1025.260742 44.0
1029.863525 128.0
1031.94043 196.0
1033.155518 76.0
1033.449829 112.0
1033.827393 176.0
1035.440674 136.0
1042.664429 248.0
1043.210815 176.0
1047.232422 68.0
1047.451416 80.0
1050.081055 160.0
1050.919678 164.0
1054.270996 88.0
1057.019287 84.0
1059.337036 100.0
1062.623901 236.0
1068.731201 152.0
1071.797974 184.0
1075.325928 128.0
1082.222412 48.0
1082.477783 144.0
1093.355347 168.0
1099.266479 180.0
1105.345703 148.0
1117.488037 132.0
1121.683472 80.0
1121.876831 176.0
1122.196777 176.0
1124.071045 148.0
1124.878662 72.0
1125.900146 68.0
1127.897827 204.0
1130.981323 36.0
1132.434204 132.0
1135.510498 116.0
1138.01355 64.0
1150.541748 136.0
1150.751953 204.0
1155.834717 164.0
1157.411865 200.0
1158.258423 192.0
1158.617432 72.0
1164.58667 100.0
1166.271729 56.0
1167.148682 136.0
1168.141602 164.0
1170.305786 136.0
1177.315552 172.0
1178.210327 188.0
1178.572388 224.0
1179.939331 164.0
1180.609375 148.0
1180.718872 36.0
1182.381226 212.0
1182.990479 52.0
1183.428589 188.0
1183.921631 184.0
1184.401001 108.0
1184.784668 148.0
1189.365234 68.0
1193.390869 160.0
1194.057861 76.0
1194.786987 196.0
1199.249146 116.0
1201.607422 140.0
1205.398071 124.0
1205.681396 84.0
1210.10144 204.0
1215.001221 144.0
1216.32666 96.0
1222.157349 164.0
1223.166382 44.0
1224.635498 168.0
1226.579468 100.0
1229.453003 172.0
1230.067261 180.0
1232.784058 160.0
1238.864136 40.0
1239.648804 148.0
1239.725952 156.0
1240.658081 132.0
1241.667847 204.0
1242.046509 120.0
1242.705933 208.0
1243.87793 156.0
1247.045654 152.0
1250.527222 168.0
1251.456421 132.0
1252.886108 172.0
1252.949463 132.0
1253.534302 192.0
1256.911865 164.0
1257.4552 204.0
1259.262573 200.0
1259.516846 180.0
1264.020264 120.0
1266.533569 168.0
1266.653931 276.0
1267.390747 188.0
1270.850708 128.0
1271.077759 180.0
1271.411377 52.0
1271.943604 196.0
1273.441772 304.0
1273.519897 144.0
1274.933716 172.0
1275.097168 176.0
1276.483398 120.0
1278.859497 216.0
1279.18689 144.0
1279.635376 176.0
1279.76355 160.0
1281.180786 152.0
1283.076538 112.0
1283.704712 176.0
1283.789551 200.0
1285.615723 200.0
1286.172363 188.0
1286.400879 208.0
1286.779175 152.0
1289.207764 168.0
1289.622192 168.0
1291.338135 232.0
1291.688599 240.0
1293.212646 148.0
1295.797729 208.0
1296.27063 232.0
1296.492798 132.0
1298.077026 76.0
1302.074219 80.0
1302.699097 128.0
1304.919678 132.0
1305.200073 160.0
1306.789673 144.0
1307.041504 124.0
1309.344971 48.0
1309.769897 244.0
1310.202148 224.0
1310.562378 172.0
1310.908203 184.0
1311.866821 112.0
1313.049316 176.0
1314.968384 168.0
1316.621704 192.0
1317.430664 148.0
1318.254272 148.0
1318.427734 236.0
1323.353638 204.0
1325.135376 176.0
1327.208252 196.0
1327.853638 164.0
1329.754517 156.0
1335.348755 112.0
1335.646973 208.0
1336.982056 180.0
1337.0802 128.0
1337.189453 168.0
1340.371704 152.0
1341.537842 236.0
1343.696533 176.0
1344.718018 176.0
1347.208008 200.0
1355.966431 156.0
1356.105713 116.0
1356.257324 196.0
1360.984009 96.0
1363.61377 64.0
1363.856323 188.0
1364.13562 140.0
1365.025269 96.0
1365.341431 104.0
1365.407715 96.0
1365.525391 140.0
1367.651611 232.0
1367.879883 36.0
1368.954712 140.0
1374.165894 208.0
1375.937134 264.0
1376.313721 176.0
1379.446167 180.0
1381.901367 196.0
1382.123413 164.0
1382.338013 188.0
1383.159424 160.0
1383.729492 128.0
1384.018188 184.0
1385.232788 116.0
1387.552246 176.0
1389.228271 96.0
1390.779175 184.0
1395.273315 52.0
1396.143188 104.0
1398.739746 168.0
1398.799316 44.0
1400.966309 108.0
1401.651733 200.0
1402.046631 128.0
1402.734985 128.0
1402.911255 96.0
1404.991943 68.0
1405.096313 184.0
1405.379883 168.0
1405.721436 92.0
1406.760498 40.0
1407.79834 212.0
1408.194092 128.0
1408.814087 224.0
1409.748047 204.0
1409.882568 196.0
1410.510376 72.0
1410.652344 184.0
1410.891602 120.0
1413.307251 36.0
1413.913452 144.0
1415.088623 168.0
1417.185669 60.0
1418.879517 160.0
1419.741821 136.0
1422.675537 228.0
1426.679565 188.0
1426.739624 224.0
1427.453979 168.0
1428.221069 236.0
1428.37146 60.0
1428.627197 236.0
1429.928955 160.0
1431.585083 92.0
1432.956055 200.0
1433.438232 160.0
1435.352783 76.0
1435.925903 128.0
1437.487549 180.0
1437.562988 132.0
1440.212891 124.0
1441.05896 184.0
1441.867432 216.0
1442.033813 156.0
1443.205444 188.0
1444.695312 60.0
1444.914673 156.0
1445.436768 248.0
1446.746094 120.0
1447.541138 160.0
1449.518188 156.0
1450.33667 112.0
1450.829346 132.0
1453.256226 120.0
1453.58252 136.0
1454.265503 236.0
1454.333862 168.0
1454.713379 128.0
1456.210449 188.0
1457.49292 164.0
1457.576538 188.0
1457.629761 292.0
1457.948853 252.0
1458.199707 228.0
1460.016724 168.0
1461.849976 164.0
1464.164185 172.0
1467.189209 104.0
1471.575928 56.0
1472.667969 164.0
1472.958252 128.0
1473.042236 172.0
1473.347778 144.0
1473.462402 216.0
1474.41748 172.0
1475.349976 172.0
1475.892822 212.0
1477.980957 128.0
1478.126343 172.0
1480.085815 128.0
1480.292603 136.0
1480.935669 116.0
1482.084961 112.0
1483.771118 140.0
1484.652832 136.0
1485.120728 128.0
1485.811035 260.0
1487.000488 112.0
1487.13855 128.0
1487.522339 96.0
1487.890869 244.0
1491.88562 176.0
1492.6698 148.0
1492.808228 168.0
1493.246582 140.0
1494.577393 200.0
1495.092896 216.0
1496.432251 84.0
1497.009766 172.0
1497.587402 152.0
1498.257568 124.0
1500.392212 124.0
1500.87793 256.0
1501.348389 136.0
1501.528564 148.0
1501.834229 36.0
