>compound MLS002207159-01!3,5-Dinitrobenzamide121-81-3
>formula C7H5N3O5
>ionization [M+H]+
>parentmass 212.030029
#inchi InChI=1S/C7H5N3O5/c8-7(11)4-1-5(9(12)13)3-6(2-4)10(14)15/h1-3H,(H2,8,11)
#inchikey UUKWKUSGGZNXGA
#Ion_Source LC-ESI
#Instrument qTof
#Compound_Source NIH Pharmacologically Active Library
#PI Dorrestein
#Data_Collector VP/LMS
#Scan -1
#Precursor_MZ 212.031
#ExactMass 211.023
#Charge 1
#CAS_Number N/A
#Pubmed_ID N/A
#Smiles NC(=O)c1cc(cc(c1)[N+](=O)[O-])[N+](=O)[O-]
#INCHI_AUX N/A
#Library_Class 3
#SpectrumID CCMSLIB00000085710
#IonMode Positive
#UpdateWorkflowName UPDATE-SINGLE-ANNOTATED-BRONZE
#LibraryQualityString Bronze
#TaskID d252d724072548979f1f6f1ced849daf
##Scan# 1387
#SpectrumFile p4-E06_GE6_01_18378.mzXML
#LibraryName Pharm_Active_Library.mgf
#MQScore -1
#Organism Pharm_Active_Library
#TIC_Query 0
#RT_Query -1
#MZErrorPPM -1
#SharedPeaks 0
#MassDiff 0
#LibMZ -1
#SpecMZ 212.031
#SpecCharge 0
#internalFilename spec-00000.mgf

>collision 10
49.668579 224.0
49.980473 184.0
60.665428 136.0
62.662819 192.0
69.620842 176.0
71.301559 188.0
81.837425 236.0
89.278931 168.0
92.045761 192.0
95.02935 52.0
98.971245 144.0
103.018509 352.0
103.529213 188.0
104.020454 144.0
108.022163 84.0
108.044922 172.0
110.410011 188.0
111.306938 80.0
113.234482 144.0
115.938118 124.0
117.33316 180.0
118.026245 132.0
119.747177 152.0
120.001617 200.0
120.043724 2480.0
120.665878 196.0
120.954651 108.0
121.049316 184.0
121.858185 116.0
122.961433 204.0
125.024788 180.0
127.959427 176.0
129.058243 208.0
132.912384 160.0
132.960571 188.0
134.948563 128.0
137.924316 216.0
141.490707 152.0
147.957611 108.0
149.009094 260.0
153.906555 208.0
156.983597 120.0
166.042068 220.0
172.11203 232.0
180.99675 180.0
195.001862 336.0
196.102386 152.0
197.093094 172.0
197.856659 128.0
198.026276 456.0
199.034256 248.0
200.556259 96.0
203.103943 56.0
212.030029 160.0
213.13858 128.0
237.877213 120.0
1121.755859 168.0
1163.365234 164.0
1169.523926 156.0
1202.120361 160.0
1227.468384 212.0
1235.990479 164.0
1254.849976 204.0
1261.111572 108.0
1355.426147 108.0
1403.153931 208.0
1456.489258 96.0
