>compound Oleic_acid
>formula C18H34O2
>ionization [M+H]+
>parentmass 283.263214
#inchi InChI=1S/C18H34O2/c1-2-3-4-5-6-7-8-9-10-11-12-13-14-15-16-17-18(19)20/h9-10H,2-8,11-17H2,1H3,(H,19,20)
#inchikey ZQPPMHVWECSIRJ
#Ion_Source ESI
#Instrument Q-TOF
#Compound_Source Commercial standard
#PI Dorrestein
#Data_Collector Amina
#Scan -1
#Precursor_MZ 283.264
#ExactMass 282.256
#Charge 1
#CAS_Number ?112-80-1
#Pubmed_ID N/A
#Smiles CCCCCCCCC=CCCCCCCCC(=O)O
#INCHI_AUX N/A
#Library_Class 2
#SpectrumID CCMSLIB00000077197
#IonMode Positive
#UpdateWorkflowName UPDATE-SINGLE-ANNOTATED-SILVER
#LibraryQualityString Silver
#TaskID 9bb88c04c6204bd4ae13def29ea30c87
##Scan# 3306
#SpectrumFile Oleic_acid.mzXML
#LibraryName gnps_library.mgf
#MQScore -1
#Organism Standards_Silver
#TIC_Query 0
#RT_Query -1
#MZErrorPPM -1
#SharedPeaks 0
#MassDiff 0
#LibMZ -1
#SpecMZ 283.264
#SpecCharge 0
#internalFilename spec-00000.mgf

>collision 10
74.937729 240.0
75.111717 160.0
75.237602 228.0
75.602051 180.0
75.619339 132.0
76.133881 192.0
76.613594 252.0
77.224106 188.0
77.686203 184.0
78.031929 176.0
78.369614 248.0
78.411873 76.0
79.056015 164.0
79.11261 196.0
79.225868 120.0
79.546616 148.0
80.582352 228.0
80.934448 108.0
81.605019 296.0
81.64994 216.0
81.844154 172.0
81.860344 176.0
81.892738 96.0
82.123276 120.0
82.253098 140.0
82.619675 296.0
82.947212 108.0
82.968948 168.0
83.518776 280.0
83.877228 136.0
84.262009 164.0
84.305832 188.0
84.790459 236.0
85.568748 196.0
85.771248 120.0
86.029312 260.0
86.559563 212.0
86.922623 232.0
87.805641 276.0
87.995842 128.0
88.505913 208.0
89.053116 228.0
90.769257 116.0
90.860237 120.0
91.055611 696.0
91.260696 152.0
91.446991 212.0
91.614433 176.0
91.698219 208.0
91.875427 148.0
92.165421 152.0
92.190247 236.0
92.230354 180.0
92.695084 252.0
92.813843 156.0
93.075012 272.0
93.366501 176.0
93.435699 232.0
94.021057 192.0
94.057701 216.0
94.428413 212.0
94.563751 124.0
94.764999 172.0
95.08844 1532.0
95.115761 232.0
95.969208 104.0
96.090042 220.0
96.368065 212.0
96.400284 176.0
96.413956 216.0
96.611298 180.0
96.662132 112.0
96.820587 168.0
96.945877 116.0
97.045776 212.0
97.067513 1020.0
97.102707 2124.0
97.316345 236.0
97.536217 184.0
97.929459 108.0
98.073189 252.0
98.104706 164.0
98.301414 304.0
98.637321 144.0
98.848785 188.0
99.082191 340.0
99.520271 264.0
100.520782 80.0
100.544716 260.0
101.061211 544.0
101.58844 220.0
102.106293 276.0
102.75042 164.0
103.053055 224.0
103.222725 204.0
103.882523 272.0
105.067703 212.0
105.690422 144.0
106.028069 244.0
106.249367 92.0
106.830338 252.0
107.087952 2236.0
108.703003 220.0
109.103371 2612.0
109.161758 160.0
109.246971 216.0
109.303108 160.0
109.71521 180.0
109.748543 236.0
110.107216 476.0
110.604485 192.0
110.88076 200.0
110.895424 136.0
111.082481 1624.0
111.118568 1432.0
111.886208 216.0
111.972481 244.0
112.086464 208.0
112.11985 456.0
112.341087 100.0
113.095993 204.0
113.137238 216.0
113.298073 176.0
113.704903 188.0
114.099861 236.0
114.720917 204.0
115.076111 732.0
115.1129 588.0
115.179382 208.0
116.452934 160.0
116.772949 284.0
117.319496 276.0
118.357986 200.0
118.468369 224.0
118.515999 76.0
119.620667 200.0
120.058296 216.0
120.804764 76.0
121.102615 3364.0
121.135086 216.0
121.161354 92.0
121.18763 80.0
122.108788 980.0
122.148521 156.0
123.013931 192.0
123.080116 128.0
123.118851 1440.0
123.490875 188.0
123.731903 160.0
124.077278 128.0
124.858337 248.0
125.047318 224.0
125.098534 2316.0
125.132858 560.0
125.178574 144.0
125.194153 104.0
125.568298 140.0
125.84481 116.0
126.102219 724.0
126.199814 220.0
126.673935 88.0
127.113068 188.0
127.155678 228.0
127.73497 108.0
127.811409 208.0
128.103882 196.0
128.157913 236.0
128.712402 112.0
129.092819 1064.0
129.129868 228.0
130.058502 224.0
130.097061 192.0
130.135635 284.0
130.990128 132.0
132.062195 124.0
132.343475 284.0
132.462479 80.0
132.487671 192.0
132.560928 260.0
133.104462 156.0
133.131744 204.0
133.515259 272.0
133.687683 216.0
134.203308 200.0
134.666824 132.0
135.094147 96.0
135.118408 3520.0
135.195892 80.0
135.435043 76.0
135.765381 232.0
136.121689 652.0
136.786987 284.0
136.917282 200.0
137.132523 1400.0
137.359818 208.0
138.24704 140.0
138.408447 152.0
138.4646 164.0
138.940109 108.0
139.024521 304.0
139.113907 2364.0
139.149689 456.0
139.639618 204.0
140.116318 356.0
141.022644 288.0
141.11676 252.0
141.163223 216.0
141.419724 188.0
141.521454 196.0
141.552216 144.0
142.132553 108.0
142.184723 252.0
143.108414 1036.0
143.139725 152.0
143.828232 80.0
144.152817 212.0
144.265076 92.0
144.453857 192.0
146.772278 168.0
147.677261 204.0
147.711105 96.0
148.12233 256.0
148.332993 172.0
149.134247 4232.0
149.211182 108.0
149.393448 108.0
149.928757 196.0
150.060287 88.0
150.134735 696.0
150.177261 296.0
151.149551 724.0
151.714279 264.0
151.969162 256.0
152.234085 260.0
152.44519 124.0
153.128784 3196.0
153.446304 104.0
153.913116 292.0
154.134659 592.0
154.710342 140.0
155.14357 176.0
155.180161 432.0
157.127029 472.0
157.456055 216.0
158.126999 220.0
158.280731 76.0
158.383331 92.0
158.992172 120.0
159.140167 176.0
161.353256 92.0
162.086761 236.0
162.200729 92.0
162.852386 108.0
163.149323 3868.0
163.439224 128.0
164.152664 932.0
164.355881 160.0
164.524216 168.0
165.165024 1316.0
165.195297 188.0
165.543686 84.0
165.625595 264.0
166.055893 180.0
166.099472 284.0
166.163559 144.0
166.612534 200.0
166.671585 128.0
167.144241 3208.0
167.178207 472.0
167.314133 140.0
167.4711 96.0
168.14537 740.0
168.182251 248.0
168.262222 172.0
169.157684 264.0
169.19487 200.0
169.223343 176.0
169.342377 276.0
169.466629 96.0
170.163834 196.0
170.205353 244.0
170.703918 196.0
171.104218 164.0
171.139969 1344.0
172.142456 192.0
172.175293 164.0
173.341232 196.0
176.413269 276.0
177.164474 2624.0
177.601395 188.0
178.167099 636.0
178.676498 76.0
178.963745 76.0
179.179855 572.0
179.552261 248.0
179.6642 160.0
181.160233 2148.0
181.200394 164.0
182.165878 440.0
183.176315 216.0
184.181702 196.0
185.154938 1428.0
185.190811 524.0
186.158493 412.0
188.599579 132.0
188.84549 220.0
189.29126 224.0
189.581436 196.0
191.180344 3312.0
192.081711 196.0
192.184143 444.0
193.163788 252.0
193.199722 328.0
193.57312 112.0
194.19902 124.0
194.651062 192.0
195.064743 212.0
195.17453 3464.0
195.879517 96.0
196.180878 344.0
196.570465 76.0
197.259842 164.0
197.360428 104.0
199.170532 808.0
199.204239 216.0
199.849442 92.0
202.198471 172.0
205.136261 164.0
205.195267 1188.0
206.209335 236.0
207.212326 160.0
207.410065 140.0
207.963272 96.0
208.215759 160.0
209.190521 980.0
210.073883 160.0
210.189209 392.0
211.214127 196.0
211.989502 248.0
213.187057 536.0
213.518372 164.0
215.890656 252.0
216.133286 200.0
219.205597 208.0
222.997009 280.0
223.206619 628.0
223.24025 496.0
223.874054 208.0
224.204514 136.0
224.246613 176.0
225.149567 160.0
225.56459 144.0
225.854446 112.0
226.225235 180.0
226.680176 208.0
226.886856 176.0
227.20108 204.0
229.371231 248.0
233.21579 276.0
235.050934 176.0
237.144363 204.0
239.145569 180.0
239.213242 252.0
239.480942 212.0
240.231369 284.0
240.673584 108.0
241.215637 360.0
241.250931 152.0
243.229019 204.0
244.228867 180.0
244.866486 228.0
245.810425 76.0
247.059357 228.0
247.201187 144.0
247.24295 12136.0
247.315765 80.0
247.358734 76.0
247.583054 112.0
247.688126 112.0
247.731949 184.0
247.922943 76.0
248.016907 76.0
248.245331 3252.0
248.681396 88.0
249.205475 104.0
249.248978 440.0
249.535263 116.0
249.953308 152.0
250.035065 80.0
250.302475 236.0
250.485016 100.0
251.190628 148.0
251.862518 80.0
252.804031 92.0
253.227966 224.0
261.742706 84.0
261.897186 152.0
262.486542 208.0
265.253082 6820.0
266.255829 1632.0
266.509216 88.0
267.244812 264.0
267.755524 100.0
267.895508 116.0
268.019226 124.0
268.064819 124.0
268.305847 232.0
268.331909 168.0
269.248199 92.0
269.911133 180.0
271.622803 120.0
272.485596 100.0
275.108582 144.0
276.026459 104.0
278.47052 200.0
281.068756 144.0
281.165466 200.0
281.218811 132.0
281.265503 172.0
282.09671 160.0
282.133453 228.0
282.17688 244.0
282.281616 476.0
282.731781 192.0
283.149963 164.0
283.216492 240.0
283.263214 948.0
283.618713 124.0
283.749359 96.0
283.866638 200.0
283.90686 124.0
284.118042 420.0
284.263947 640.0
284.294495 4424.0
284.637909 116.0
285.06424 100.0
285.091095 236.0
285.141174 212.0
285.297363 976.0
285.359833 100.0
285.504333 128.0
285.914459 144.0
286.250885 176.0
286.302063 248.0
287.345581 104.0
308.870361 100.0
341.495026 120.0
394.448029 108.0
406.259399 136.0
455.357635 80.0
470.501953 116.0
471.844666 136.0
483.345734 108.0
509.73175 76.0
579.990173 108.0
584.059204 112.0
773.911011 120.0
847.994141 92.0
1004.645996 92.0
1183.302002 272.0
1236.354126 124.0
1250.472168 204.0
1301.546387 188.0
1312.930176 152.0
1327.803833 180.0
1344.372437 220.0
1376.725586 272.0
1378.696655 176.0
1379.782471 288.0
1440.569458 156.0
1458.159302 232.0
1476.283936 212.0
1501.741577 176.0
1502.504761 104.0
1504.000732 232.0
1505.104004 228.0
1527.696655 200.0
1542.885864 216.0
1547.749023 196.0
1551.977417 280.0
1572.992554 180.0
1574.057617 196.0
1585.544312 104.0
1589.514648 204.0
1596.333618 152.0
1604.529175 356.0
1612.793823 212.0
1613.384888 140.0
1621.007446 220.0
1627.684937 176.0
1638.374878 236.0
1640.654053 300.0
1647.589722 280.0
1661.091675 152.0
1676.87146 212.0
1677.914185 160.0
1679.177246 136.0
1682.161621 120.0
1684.854614 116.0
1686.904419 248.0
1692.709473 252.0
1693.045044 220.0
1695.288208 240.0
1695.992554 212.0
1699.590332 252.0
1704.587524 208.0
1719.903931 196.0
1721.001221 240.0
1723.997681 232.0
1729.965454 168.0
1734.626099 236.0
1742.844971 192.0
1743.077515 192.0
1746.999146 180.0
1757.689819 144.0
1760.325806 220.0
1764.074707 240.0
1766.447998 248.0
1768.873047 164.0
1778.187378 232.0
1781.317139 248.0
1784.777344 220.0
1791.817383 152.0
1793.951538 284.0
1797.994019 268.0
1799.276245 116.0
1800.592529 256.0
1803.074707 180.0
1826.239136 240.0
1838.891602 184.0
1850.312744 208.0
1870.756836 172.0
1873.519409 224.0
1889.713501 220.0
1890.863525 284.0
1895.458862 224.0
1897.459717 192.0
1907.714233 204.0
1909.712891 172.0
1917.595825 180.0
1928.33252 204.0
1934.748657 240.0
1935.238525 196.0
1945.015625 228.0
1956.444458 248.0
1957.227539 200.0
1959.568848 160.0
1965.789795 248.0
1966.583496 200.0
1966.645264 184.0
1976.372559 212.0
1982.403564 220.0
1982.465576 236.0
1988.775879 212.0
1994.971924 124.0
2004.355347 272.0
