>compound 16502-01-5
>formula C11H12N2
>ionization [M+H]+
>parentmass 173.107483
#inchi InChI=1S/C11H12N2/c1-2-4-10-8(3-1)9-5-6-12-7-11(9)13-10/h1-4,12-13H,5-7H2
#inchikey CFTOTSJVQRFXOF
#Ion_Source LC-ESI
#Instrument qTof
#Compound_Source Commercial
#PI Dorrestein
#Data_Collector Garg_Neha
#Scan -1
#Precursor_MZ 173.107
#ExactMass 172.1
#Charge 1
#CAS_Number N/A
#Pubmed_ID N/A
#Smiles C1Cc2c(CN1)[nH]c3ccccc23
#INCHI_AUX N/A
#Library_Class 1
#SpectrumID CCMSLIB00000079038
#IonMode Positive
#UpdateWorkflowName UPDATE-SINGLE-ANNOTATED-GOLD
#LibraryQualityString Gold
#TaskID 278b19f5865741e282cec7349aa7e7a1
##Scan# 1017
#SpectrumFile NCP003432_A2_B11_BC8_01_15722.mzXML
#LibraryName NIHcollectionI_05062014.mgf
#MQScore -1
#Organism NIHcollectionI_05062014
#TIC_Query 0
#RT_Query -1
#MZErrorPPM -1
#SharedPeaks 0
#MassDiff 0
#LibMZ -1
#SpecMZ 173.107
#SpecCharge 0
#internalFilename spec-00000.mgf

>collision 10
45.265568 140.0
45.510948 260.0
45.730072 156.0
45.934883 216.0
46.4869 172.0
47.844017 164.0
48.013668 148.0
48.038498 140.0
48.382603 144.0
49.852776 164.0
50.820045 172.0
51.364918 152.0
51.555717 188.0
51.599121 148.0
53.044514 184.0
53.054661 160.0
53.159092 188.0
54.042118 180.0
54.105049 160.0
54.364487 168.0
55.006199 168.0
55.060829 288.0
55.586369 200.0
56.758827 172.0
56.911877 152.0
56.953926 148.0
57.277325 164.0
57.693817 168.0
58.254524 168.0
59.152706 144.0
59.342674 152.0
59.883591 144.0
59.905155 160.0
60.47958 204.0
60.570938 172.0
60.640663 184.0
60.756958 160.0
61.01165 152.0
62.181622 148.0
62.785755 144.0
63.840473 176.0
65.027504 208.0
65.418091 196.0
67.104614 156.0
68.058502 144.0
68.776276 152.0
70.841576 152.0
70.856178 168.0
70.923683 184.0
71.308044 172.0
72.032578 148.0
72.567352 172.0
72.879738 160.0
72.930634 196.0
73.449966 192.0
73.670174 200.0
74.518204 188.0
74.843285 184.0
74.884613 152.0
74.989708 160.0
75.658203 312.0
76.240997 144.0
77.513153 152.0
77.625343 164.0
77.786758 184.0
78.07666 160.0
78.43055 144.0
78.907181 168.0
79.457977 152.0
80.302925 168.0
80.333252 188.0
80.692215 176.0
80.928383 156.0
81.286873 188.0
81.644356 200.0
81.815292 144.0
82.546021 184.0
82.658173 148.0
83.516289 168.0
83.539932 192.0
83.565407 160.0
83.765656 172.0
83.89782 168.0
85.980591 140.0
86.283134 208.0
86.422234 176.0
86.446289 156.0
87.543633 140.0
87.800575 156.0
87.983429 164.0
88.372169 184.0
88.493988 232.0
89.116524 224.0
89.532234 188.0
89.892296 160.0
89.943687 156.0
90.256866 160.0
91.096458 176.0
92.062149 216.0
92.394691 164.0
92.438698 196.0
93.005981 156.0
93.176895 144.0
93.51918 204.0
93.653954 176.0
93.690559 144.0
94.505295 204.0
94.785179 204.0
94.989624 192.0
95.356598 164.0
95.442131 188.0
96.770866 188.0
97.502541 176.0
99.690247 148.0
100.048264 176.0
100.141853 176.0
100.50267 176.0
100.764229 180.0
101.016113 188.0
101.042122 172.0
101.318398 156.0
101.430618 180.0
101.677322 208.0
102.046928 320.0
103.034477 208.0
103.054169 804.0
103.562195 144.0
103.684715 148.0
104.01664 172.0
104.061073 180.0
104.081604 264.0
104.630562 144.0
106.015419 160.0
106.154816 176.0
106.54274 168.0
106.670151 220.0
106.721542 192.0
108.029091 156.0
108.093224 216.0
109.271767 192.0
110.01368 168.0
110.741356 140.0
111.696152 164.0
112.786522 160.0
113.442726 216.0
114.392273 204.0
114.720329 164.0
115.054443 1212.0
115.765121 148.0
115.85508 180.0
116.051941 164.0
116.063965 312.0
116.148758 208.0
116.324715 140.0
116.834015 160.0
116.971741 152.0
117.069366 1296.0
117.279762 144.0
118.070663 124.0
118.089424 144.0
118.121872 160.0
118.180283 188.0
118.236542 216.0
118.450302 128.0
119.066879 168.0
119.466812 192.0
119.638733 184.0
119.841278 148.0
120.814995 156.0
121.986023 156.0
122.324783 160.0
124.584824 192.0
124.640373 152.0
124.66259 208.0
125.060684 248.0
125.876633 168.0
126.04525 152.0
126.818481 188.0
126.955246 156.0
127.055084 860.0
127.381683 144.0
127.401901 188.0
127.752594 148.0
128.01593 284.0
128.050278 2128.0
129.059402 328.0
129.554062 176.0
129.705887 248.0
129.771637 180.0
130.021149 156.0
130.065781 568.0
131.053375 172.0
131.42746 184.0
132.687683 156.0
132.728958 224.0
133.321213 192.0
133.737488 180.0
134.112915 160.0
136.16748 268.0
137.951797 164.0
138.12973 140.0
139.741699 156.0
140.053482 228.0
141.067093 156.0
142.066681 540.0
142.336975 156.0
143.000244 184.0
143.073654 8604.0
143.114502 180.0
143.338409 208.0
143.61351 132.0
143.686508 176.0
143.780441 188.0
143.851181 164.0
143.943436 152.0
143.960999 172.0
143.996353 280.0
144.025162 144.0
144.081787 125092.0
144.137924 216.0
144.170471 256.0
144.23822 160.0
144.333771 136.0
144.369568 128.0
144.407028 120.0
144.445679 192.0
144.473984 96.0
144.865967 132.0
144.92218 208.0
144.972916 144.0
145.028946 148.0
145.084167 12876.0
145.164444 108.0
145.341309 116.0
145.399139 108.0
145.593567 112.0
145.871429 208.0
145.959564 152.0
146.002792 212.0
146.060852 432.0
146.088654 864.0
146.124603 256.0
146.19017 176.0
146.259338 176.0
146.305328 116.0
147.094238 176.0
148.039581 152.0
150.998901 188.0
153.042816 132.0
153.565475 144.0
154.064148 940.0
154.972046 156.0
155.062119 272.0
155.964706 168.0
156.081558 652.0
156.962448 160.0
156.990448 168.0
157.076828 252.0
157.855377 144.0
158.002029 180.0
158.088562 192.0
159.381012 148.0
160.077774 292.0
161.427811 140.0
171.092453 5376.0
171.172226 264.0
172.095123 832.0
172.173599 172.0
172.999054 128.0
173.107483 8336.0
173.140442 184.0
174.112762 212.0
175.12413 240.0
175.973251 156.0
189.065964 160.0
199.009796 148.0
225.882294 152.0
1144.185669 160.0
1150.239258 192.0
1150.354004 188.0
1194.76709 180.0
1271.909668 172.0
1284.17627 192.0
1328.087769 184.0
1332.595825 196.0
1334.129272 176.0
1338.232544 168.0
1376.78894 236.0
1411.11145 152.0
1425.600464 156.0
1437.362671 160.0
1440.631836 172.0
1443.314819 236.0
1486.244873 164.0
1508.486816 164.0
1511.031128 144.0
1524.678223 184.0
1533.97937 160.0
1539.585571 204.0
1544.80249 172.0
1552.94873 156.0
1576.401489 168.0
1577.365723 172.0
1577.8479 264.0
1586.770386 140.0
1596.696045 148.0
1600.308716 168.0
1617.944946 160.0
1621.437378 148.0
1642.583374 140.0
1643.309448 168.0
1652.973145 156.0
1672.287964 156.0
1692.615479 196.0
1702.488525 212.0
1702.595337 140.0
1708.743774 184.0
1708.916504 144.0
1727.635986 296.0
1735.41272 148.0
1735.54541 152.0
1739.328369 144.0
1741.578613 148.0
1742.234741 148.0
1745.168579 180.0
1751.643188 168.0
1764.971313 184.0
1766.259155 180.0
1774.574951 148.0
1774.843262 248.0
1776.881348 148.0
1778.996216 196.0
1794.703613 144.0
1803.520874 148.0
1809.819458 200.0
1809.887207 168.0
1812.597778 144.0
1816.217773 140.0
1822.822754 160.0
1823.961548 144.0
1827.06543 140.0
1840.99292 164.0
1843.042969 188.0
1852.505249 188.0
1863.357544 144.0
1863.546509 204.0
1869.049316 156.0
1869.789429 180.0
1882.297852 192.0
1887.12793 232.0
1888.649902 148.0
1893.401489 164.0
1894.068359 176.0
1900.405518 224.0
1902.366943 252.0
1910.370361 152.0
1914.130249 144.0
1928.026733 164.0
1931.217773 160.0
1933.247559 180.0
1937.012329 224.0
1944.588013 236.0
1966.662109 168.0
1975.418823 140.0
1976.657349 216.0
1986.970703 152.0
1987.139282 148.0
1993.079224 160.0
1996.048096 192.0
1996.519409 152.0
1997.657837 144.0
2000.808105 144.0
2001.680664 148.0
2002.214966 152.0
