>compound Mosapride citrate
>formula C21H25ClFN3O3
>ionization [M+H]+
>parentmass 422.16412401209055
#inchi InChI=1S/C21H25ClFN3O3/c1-2-28-20-10-19(24)18(22)9-17(20)21(27)25-11-16-13-26(7-8-29-16)12-14-3-5-15(23)6-4-14/h3-6,9-10,16H,2,7-8,11-13,24H2,1H3,(H,25,27)
#inchikey YPELFRMCRYSPKZ
#origInchi InChI=1S/C21H25ClFN3O3.C6H8O7/c1-2-28-20-10-19(24)18(22)9-17(20)21(27)25-11-16-13-26(7-8-29-16)12-14-3-5-15(23)6-4-14;7-3(8)1-6(13,5(11)12)2-4(9)10/h3-6,9-10,16H,2,7-8,11-13,24H2,1H3,(H,25,27);13H,1-2H2,(H,7,8)(H,9,10)(H,11,12)
#Ion_Source LC-ESI
#Instrument qTof
#Compound_Source Commercial
#PI Dorrestein
#Data_Collector Garg_Neha
#Scan -1
#Precursor_MZ 422.164
#ExactMass 421.157
#Charge 1
#CAS_Number 112885-42-4, 1229354-90-8, 112885-41-3 (free base)
#Pubmed_ID N/A
#Smiles C1(=C(C=C(C(=C1)C(NCC2OCCN(C2)CC3=CC=C(C=C3)F)=O)OCC)N)Cl.OC(CC(CC(O)=O)(C(=O)O)O)=O
#INCHI_AUX N/A
#Library_Class 1
#SpectrumID CCMSLIB00000078128
#IonMode Positive
#UpdateWorkflowName UPDATE-SINGLE-ANNOTATED-GOLD
#LibraryQualityString Gold
#TaskID 77f51c88eb8b467eb4a01dd2d0cb90d2
##Scan# 1124
#SpectrumFile Plate2_41_60_GG7_01_16495.mzXML
#LibraryName FDALibrary_2_04302014.mgf
#MQScore -1
#Organism FDALibrary_2_04302014
#TIC_Query 0
#RT_Query -1
#MZErrorPPM -1
#SharedPeaks 0
#MassDiff 0
#LibMZ -1
#SpecMZ 422.164
#SpecCharge 0
#internalFilename spec-00000.mgf

>collision 10
44.893036 156.0
44.923714 180.0
45.001118 168.0
45.014469 204.0
45.099976 148.0
45.128048 168.0
45.255157 204.0
45.304455 168.0
45.315308 176.0
45.341438 156.0
45.410606 352.0
45.433411 164.0
45.460247 196.0
45.511604 168.0
45.544827 144.0
45.667141 160.0
45.698769 228.0
45.7701 172.0
45.85429 148.0
45.925751 168.0
45.940586 156.0
45.968922 160.0
46.009415 204.0
46.062267 172.0
46.126942 332.0
46.233795 212.0
46.244621 160.0
46.275757 176.0
46.296188 180.0
46.325867 152.0
46.351608 160.0
46.373291 140.0
46.402191 200.0
46.417324 200.0
46.493999 180.0
46.508415 212.0
46.528553 176.0
46.583981 176.0
46.624374 168.0
46.637966 160.0
46.684555 164.0
46.788963 224.0
46.849224 184.0
46.936111 252.0
46.952477 192.0
47.224236 180.0
47.245892 168.0
47.270096 256.0
47.317318 324.0
47.350536 124.0
47.380318 196.0
47.407722 160.0
47.516045 148.0
47.540745 168.0
47.587414 232.0
47.601147 180.0
47.65921 148.0
47.723438 160.0
47.733063 184.0
47.753693 288.0
47.85828 148.0
47.872417 164.0
47.913372 164.0
48.041584 180.0
48.106441 148.0
48.147865 160.0
48.205814 148.0
48.231697 160.0
48.265327 140.0
48.305435 164.0
48.323299 176.0
48.371857 156.0
48.485432 220.0
48.497166 184.0
48.515926 216.0
48.57972 176.0
48.615795 156.0
48.648129 500.0
48.730991 200.0
48.764397 144.0
48.803322 176.0
48.839302 124.0
48.858166 500.0
48.974869 208.0
48.989819 148.0
49.030613 144.0
49.059498 188.0
49.069256 140.0
49.115276 248.0
49.127831 208.0
49.148972 156.0
49.172482 144.0
49.205086 224.0
49.229721 468.0
49.450024 152.0
49.480007 152.0
49.555534 160.0
49.643501 176.0
49.672001 208.0
49.683964 136.0
49.698513 196.0
49.743565 196.0
49.789902 144.0
49.819115 180.0
49.869984 140.0
49.88866 224.0
49.910099 172.0
49.954353 236.0
49.971882 196.0
50.080513 172.0
50.135059 140.0
50.217758 164.0
50.251614 184.0
50.299355 212.0
50.348591 132.0
50.667274 152.0
50.735497 176.0
50.868652 228.0
50.879364 256.0
50.92971 160.0
51.016354 156.0
51.070427 164.0
51.118797 152.0
51.165768 148.0
51.191822 188.0
51.209976 176.0
51.258087 152.0
51.288277 184.0
51.318214 140.0
51.358147 204.0
51.419121 212.0
51.427963 172.0
51.520878 184.0
51.572323 180.0
51.588047 164.0
51.65786 156.0
51.706768 148.0
51.741573 152.0
51.941551 176.0
51.971622 180.0
51.994602 180.0
52.03857 164.0
52.062092 132.0
52.101093 188.0
52.20602 212.0
52.22184 256.0
52.233349 184.0
52.303856 148.0
52.3647 172.0
52.449341 140.0
52.473846 232.0
52.501244 184.0
52.511341 144.0
52.528648 144.0
52.544518 156.0
52.6008 212.0
52.626785 144.0
52.712009 160.0
52.771271 168.0
52.818996 148.0
52.836353 148.0
52.855164 152.0
52.904373 172.0
52.956501 156.0
52.979774 184.0
53.009945 144.0
53.028824 236.0
53.057091 144.0
53.075336 168.0
53.095638 192.0
53.162128 144.0
53.207397 192.0
53.332298 184.0
53.350552 136.0
53.393661 156.0
53.427357 140.0
53.448643 204.0
53.507198 208.0
53.52142 176.0
53.534981 128.0
53.562199 168.0
53.584053 192.0
53.648834 112.0
53.681408 192.0
53.712337 212.0
53.779934 148.0
53.794056 376.0
53.863537 124.0
53.882378 184.0
53.910904 168.0
53.938602 164.0
53.977497 352.0
53.991936 192.0
54.004471 188.0
54.017601 160.0
54.076641 116.0
54.102512 204.0
54.143513 164.0
54.185993 140.0
54.243145 188.0
54.388363 160.0
54.402901 208.0
54.470592 168.0
54.504383 168.0
54.544064 168.0
54.593815 148.0
54.624325 172.0
54.658779 168.0
54.73827 188.0
54.760361 276.0
54.773617 140.0
54.834026 196.0
54.861195 176.0
54.926918 204.0
54.974129 236.0
55.002331 168.0
55.052372 144.0
55.089294 184.0
55.126232 252.0
55.160229 152.0
55.342804 244.0
55.495907 152.0
55.516365 216.0
55.531883 184.0
55.544968 156.0
55.64312 208.0
55.65654 176.0
55.672009 316.0
55.687725 208.0
55.700153 208.0
55.777592 200.0
55.781025 228.0
55.877609 152.0
55.904163 220.0
55.992744 144.0
56.03582 200.0
56.070091 212.0
56.12376 208.0
56.142185 168.0
56.209591 236.0
56.263931 176.0
56.288467 136.0
56.41877 140.0
56.524956 224.0
56.542034 160.0
56.591522 172.0
56.619194 220.0
56.678307 176.0
56.702286 296.0
56.759251 268.0
56.799191 152.0
56.826748 156.0
56.88969 172.0
56.931824 160.0
57.006935 132.0
57.038498 164.0
57.052856 196.0
57.08934 196.0
57.187408 164.0
57.365475 168.0
57.419434 164.0
57.446583 248.0
57.496189 128.0
57.518955 200.0
57.554916 156.0
57.569 172.0
57.640423 196.0
57.682156 168.0
57.694099 120.0
57.770176 116.0
57.781967 248.0
57.819798 216.0
57.925785 216.0
57.95697 112.0
58.028839 220.0
58.071297 164.0
58.098602 148.0
58.122879 160.0
58.138454 160.0
58.187405 276.0
58.201809 204.0
58.22155 256.0
58.29295 160.0
58.347668 264.0
58.362194 308.0
58.406975 224.0
58.429794 160.0
58.507538 196.0
58.580509 168.0
58.607933 196.0
58.693291 184.0
58.783615 132.0
59.032291 224.0
59.058289 180.0
59.068996 140.0
59.099594 148.0
59.164417 192.0
59.184402 128.0
59.251171 152.0
59.277218 156.0
59.313595 196.0
59.510368 184.0
59.522961 220.0
59.541039 152.0
59.564121 172.0
59.739361 148.0
59.791679 212.0
59.810146 196.0
59.951843 388.0
60.076569 184.0
60.107594 236.0
60.177834 160.0
60.234192 168.0
60.258034 168.0
60.282089 156.0
60.359379 224.0
60.396778 180.0
60.435169 160.0
60.46727 204.0
60.558689 152.0
60.570065 180.0
60.614788 148.0
60.630287 204.0
60.642685 212.0
60.765945 224.0
60.793835 252.0
60.903351 152.0
60.921009 152.0
60.935974 188.0
61.054111 360.0
61.074329 220.0
61.092999 148.0
61.141232 152.0
61.200386 144.0
61.215958 160.0
61.237762 152.0
61.259567 152.0
61.275146 148.0
61.315662 164.0
61.337811 152.0
61.432606 208.0
61.459129 144.0
61.492908 124.0
61.543415 200.0
61.554344 168.0
61.62112 144.0
61.641823 192.0
61.693401 152.0
61.730927 188.0
61.751259 192.0
61.774719 172.0
61.842003 180.0
61.88427 204.0
61.895233 192.0
61.917156 140.0
61.965717 164.0
62.038151 200.0
62.116215 196.0
62.189964 184.0
62.276321 224.0
62.339844 148.0
62.40361 164.0
62.417763 204.0
62.457077 216.0
62.497982 172.0
62.532524 160.0
62.592426 156.0
62.742107 160.0
62.780212 120.0
62.815903 196.0
62.91304 160.0
63.007244 272.0
63.053066 200.0
63.067291 160.0
63.095703 144.0
63.148674 204.0
63.182732 148.0
63.195389 164.0
63.303024 168.0
63.335472 176.0
63.356125 244.0
63.372719 164.0
63.550301 208.0
63.805431 176.0
63.838406 160.0
63.868244 148.0
63.901436 432.0
63.934975 156.0
63.974644 376.0
64.036095 176.0
64.052673 148.0
64.096382 240.0
64.140312 168.0
64.17379 164.0
64.271088 176.0
64.299812 300.0
64.312584 224.0
64.340485 108.0
64.386024 156.0
64.443535 224.0
64.456169 224.0
64.470695 212.0
64.534637 204.0
64.667412 144.0
64.694206 524.0
64.717171 196.0
64.735413 228.0
64.824089 164.0
64.891685 312.0
64.904045 264.0
64.955833 240.0
65.04409 220.0
65.057915 156.0
65.098679 152.0
65.119652 192.0
65.151848 168.0
65.250046 192.0
65.328094 152.0
65.347755 208.0
65.399315 212.0
65.546509 172.0
65.564384 196.0
65.60228 180.0
65.626465 192.0
65.652473 156.0
65.666779 148.0
65.706009 176.0
65.718399 172.0
65.830536 172.0
65.879852 160.0
65.928528 128.0
65.9897 132.0
66.055557 156.0
66.234116 144.0
66.250313 152.0
66.305405 188.0
66.380798 328.0
66.422142 168.0
66.462708 152.0
66.517883 160.0
66.561592 104.0
66.592575 160.0
66.676369 220.0
66.768105 164.0
66.790649 204.0
66.952003 144.0
66.969673 132.0
67.026939 144.0
67.074203 180.0
67.143852 140.0
67.178719 172.0
67.206306 156.0
67.268318 180.0
67.302605 152.0
67.317299 140.0
67.387543 160.0
67.410416 188.0
67.421349 144.0
67.461082 156.0
67.474159 168.0
67.50032 200.0
67.513824 188.0
67.557472 200.0
67.626289 180.0
67.645935 216.0
67.673767 172.0
67.729446 156.0
67.764305 172.0
67.786789 204.0
67.804901 160.0
67.824486 184.0
67.906296 152.0
67.993423 180.0
68.07547 172.0
68.100876 188.0
68.121185 152.0
68.153511 204.0
68.187218 200.0
68.284813 184.0
68.321159 236.0
68.340149 160.0
68.356476 100.0
68.384583 192.0
68.397751 184.0
68.444351 128.0
68.470856 140.0
68.529503 208.0
68.575638 140.0
68.715813 148.0
68.737259 232.0
68.900314 148.0
68.922432 172.0
68.941261 164.0
68.961418 148.0
69.081444 164.0
69.093712 196.0
69.151428 192.0
69.216965 140.0
69.274597 152.0
69.299454 140.0
69.566467 172.0
69.593079 192.0
69.646172 188.0
69.676071 160.0
69.778191 252.0
69.849319 204.0
69.898872 220.0
69.915512 220.0
69.965446 164.0
69.993752 152.0
70.013733 180.0
70.063759 136.0
70.122025 184.0
70.175369 156.0
70.195381 180.0
70.307152 152.0
70.35556 188.0
70.387283 160.0
70.410233 204.0
70.435715 196.0
70.609543 188.0
70.63102 152.0
70.689842 160.0
70.708824 140.0
70.730011 152.0
70.74173 284.0
70.766838 176.0
70.818756 364.0
70.849228 144.0
70.979637 156.0
71.00209 164.0
71.058472 152.0
71.116302 164.0
71.17337 192.0
71.313217 384.0
71.455025 132.0
71.471802 148.0
71.546303 288.0
71.573898 204.0
71.639458 172.0
71.665436 168.0
71.697456 156.0
71.771568 176.0
71.802704 168.0
71.837402 184.0
71.863831 144.0
71.877724 200.0
71.957329 128.0
71.982552 152.0
71.999435 200.0
72.026459 232.0
72.085594 196.0
72.156586 208.0
72.211929 128.0
72.344955 140.0
72.358284 204.0
72.372673 224.0
72.403633 152.0
72.429039 172.0
72.48156 184.0
72.537193 204.0
72.60434 140.0
72.639236 168.0
72.686737 152.0
72.710495 180.0
72.734261 148.0
72.771606 148.0
72.856911 212.0
72.878616 148.0
72.950272 124.0
73.038422 216.0
73.066963 164.0
73.09626 140.0
73.109879 168.0
73.247078 192.0
73.271637 228.0
73.283226 180.0
73.409744 156.0
73.43187 144.0
73.460869 164.0
73.479637 184.0
73.583748 144.0
73.611069 172.0
73.626396 176.0
73.706726 148.0
73.720398 164.0
73.809288 144.0
73.858879 212.0
73.877701 164.0
73.890846 240.0
73.914162 232.0
73.995789 156.0
74.033958 164.0
74.113503 220.0
74.199135 208.0
74.21595 176.0
74.271652 176.0
74.297333 160.0
74.314407 192.0
74.360909 304.0
74.45446 180.0
74.606148 172.0
74.647812 148.0
74.71524 176.0
74.775116 152.0
74.817497 196.0
74.902924 176.0
74.985237 204.0
75.044449 184.0
75.08474 224.0
75.188744 188.0
75.316093 148.0
75.385063 160.0
75.422539 144.0
75.470032 192.0
75.653717 168.0
75.669296 192.0
75.759354 196.0
75.795738 192.0
75.816528 192.0
75.877197 148.0
76.005547 232.0
76.049629 160.0
76.059387 180.0
76.08886 212.0
76.104485 140.0
76.19133 160.0
76.336151 184.0
76.377335 264.0
76.39299 176.0
76.509583 168.0
76.585785 100.0
76.60537 168.0
76.653076 168.0
76.706436 176.0
76.732964 148.0
76.760483 208.0
76.77269 168.0
76.859329 108.0
76.906624 188.0
76.951256 96.0
77.044983 312.0
77.064598 196.0
77.141891 176.0
77.274017 156.0
77.301392 340.0
77.344017 228.0
77.391281 332.0
77.403542 176.0
77.419296 248.0
77.450729 148.0
77.56382 132.0
77.645378 180.0
77.685722 192.0
77.729408 200.0
77.742706 148.0
77.787498 140.0
77.801544 164.0
77.847191 160.0
77.862083 180.0
77.912186 164.0
78.003563 160.0
78.017632 192.0
78.056305 204.0
78.144257 172.0
78.188202 156.0
78.206535 144.0
78.225212 160.0
78.249855 144.0
78.279793 172.0
78.292114 164.0
78.313255 148.0
78.351624 148.0
78.380196 292.0
78.439178 320.0
78.46656 144.0
78.498299 232.0
78.515938 148.0
78.528404 188.0
78.543396 204.0
78.631073 168.0
78.717117 200.0
78.740074 168.0
78.847176 164.0
78.916786 148.0
78.948616 156.0
78.969673 180.0
79.037064 212.0
79.084846 208.0
79.120842 144.0
79.203476 140.0
79.232483 244.0
79.274345 252.0
79.294525 156.0
79.315109 348.0
79.366623 192.0
79.407944 168.0
79.45166 184.0
79.487144 160.0
79.531509 144.0
79.547974 160.0
79.57737 236.0
79.682457 184.0
79.699448 156.0
79.725105 208.0
79.821098 184.0
79.856667 180.0
79.926048 212.0
79.972313 228.0
80.095177 200.0
80.118332 160.0
80.189613 172.0
80.309067 156.0
80.408768 196.0
80.453041 164.0
80.507622 112.0
80.529686 252.0
80.64399 200.0
80.714462 204.0
80.753807 220.0
80.816589 172.0
80.864357 188.0
80.885468 124.0
81.009773 148.0
81.029243 188.0
81.117294 212.0
81.156738 284.0
81.270111 172.0
81.321777 148.0
81.377426 140.0
81.424118 296.0
81.440285 192.0
81.467224 184.0
81.506752 216.0
81.52652 176.0
81.569656 140.0
81.59861 152.0
81.619995 200.0
81.647453 164.0
81.72612 212.0
81.749268 176.0
81.803368 204.0
81.882149 152.0
81.90255 156.0
81.931915 212.0
81.960091 196.0
82.011391 168.0
82.038727 144.0
82.074829 188.0
82.094612 196.0
82.125175 160.0
82.255974 240.0
82.42321 160.0
82.523346 188.0
82.559509 176.0
82.610756 104.0
82.662674 320.0
82.716919 200.0
82.733215 168.0
82.964592 228.0
83.008621 216.0
83.044708 160.0
83.109261 140.0
83.12471 164.0
83.22818 188.0
83.29538 160.0
83.331711 216.0
83.380775 196.0
83.508041 236.0
83.544426 148.0
83.571716 152.0
83.593552 336.0
83.71228 180.0
83.724625 328.0
83.772614 160.0
83.804771 176.0
83.829727 164.0
83.847046 180.0
83.864906 144.0
83.913239 188.0
84.002869 140.0
84.043633 188.0
84.09108 176.0
84.12294 172.0
84.170532 176.0
84.297447 212.0
84.311035 140.0
84.33992 208.0
84.425041 200.0
84.47068 96.0
84.49675 176.0
84.64032 244.0
84.679802 176.0
84.732849 100.0
84.765907 156.0
84.873451 232.0
84.946518 164.0
84.963928 144.0
85.002533 184.0
85.024612 168.0
85.068527 196.0
85.081383 200.0
85.11615 184.0
85.158508 144.0
85.178757 152.0
85.329407 168.0
85.588837 188.0
85.629349 216.0
85.691978 164.0
85.706718 164.0
85.741211 172.0
85.82653 148.0
85.877319 104.0
85.956642 204.0
85.990715 216.0
86.051636 172.0
86.115303 200.0
86.146805 192.0
86.195702 212.0
86.31031 220.0
86.436096 168.0
86.459084 204.0
86.574234 212.0
86.624939 172.0
86.797302 156.0
86.812134 260.0
86.894478 224.0
86.916016 260.0
86.989029 188.0
87.0961 192.0
87.117088 188.0
87.138824 168.0
87.207512 108.0
87.24662 140.0
87.287521 156.0
87.312546 176.0
87.363068 292.0
87.416962 96.0
87.447517 168.0
87.559227 176.0
87.582199 184.0
87.628143 188.0
87.708282 148.0
87.738007 148.0
87.771667 168.0
87.831345 156.0
87.902245 152.0
87.925682 128.0
87.965698 172.0
88.003036 188.0
88.081474 168.0
88.094551 192.0
88.152473 140.0
88.356277 184.0
88.416779 228.0
88.524689 164.0
88.597786 184.0
88.633385 152.0
88.747719 200.0
88.7938 188.0
88.840431 240.0
88.978493 156.0
89.032951 228.0
89.098694 180.0
89.170456 148.0
89.224609 152.0
89.252815 184.0
89.282654 180.0
89.306587 212.0
89.329926 220.0
89.349594 248.0
89.371315 180.0
89.457039 160.0
89.538857 252.0
89.561455 172.0
89.599129 168.0
89.643547 160.0
89.757454 144.0
89.810158 144.0
89.932907 168.0
89.946114 144.0
90.031082 156.0
90.080185 196.0
90.093414 176.0
90.114197 168.0
90.154739 236.0
90.20491 152.0
90.254196 172.0
90.399719 176.0
90.467712 160.0
90.528442 204.0
90.662949 192.0
90.685692 160.0
90.706543 208.0
90.799797 152.0
90.820312 156.0
90.848763 240.0
90.915176 216.0
90.929901 100.0
90.981613 188.0
91.01107 136.0
91.106949 160.0
91.216194 156.0
91.249489 152.0
91.274208 228.0
91.317947 300.0
91.351974 144.0
91.422081 196.0
91.451134 180.0
91.489868 172.0
91.67205 176.0
91.725655 192.0
91.793106 112.0
91.806061 192.0
91.840782 192.0
91.855408 144.0
91.871391 204.0
91.897057 184.0
91.919289 164.0
91.940948 164.0
91.998207 144.0
92.019951 352.0
92.082916 176.0
92.126335 132.0
92.16246 144.0
92.225525 164.0
92.279617 176.0
92.390076 236.0
92.455032 188.0
92.48336 200.0
92.533699 100.0
92.558403 156.0
92.636932 184.0
92.680992 176.0
92.826675 172.0
92.926422 168.0
92.991661 168.0
93.020454 156.0
93.047333 384.0
93.072296 204.0
93.094109 144.0
93.110329 208.0
93.17025 180.0
93.281921 176.0
93.329773 200.0
93.345154 152.0
93.387466 272.0
93.431709 148.0
93.493233 160.0
93.498955 156.0
93.572197 180.0
93.607475 212.0
93.631897 156.0
93.655006 144.0
93.677414 208.0
93.690872 348.0
93.707016 204.0
93.747482 148.0
93.780251 200.0
93.863144 168.0
93.911362 156.0
93.938118 124.0
94.005508 176.0
94.102402 232.0
94.132568 200.0
94.169991 460.0
94.210556 164.0
94.247223 172.0
94.269325 224.0
94.380638 184.0
94.525711 184.0
94.651535 236.0
94.6922 212.0
94.711571 160.0
94.740631 192.0
94.884041 200.0
94.905052 224.0
94.932518 200.0
94.976463 212.0
95.118141 196.0
95.225563 156.0
95.24305 164.0
95.303726 136.0
95.358513 160.0
95.398506 188.0
95.417946 152.0
95.435989 128.0
95.464607 156.0
95.502052 176.0
95.522278 148.0
95.608566 200.0
95.627991 176.0
95.653099 164.0
95.676697 180.0
95.717583 212.0
95.754066 144.0
95.859741 164.0
96.037201 280.0
96.103416 144.0
96.130844 204.0
96.189682 164.0
96.269867 188.0
96.315865 120.0
96.373512 160.0
96.474602 140.0
96.534355 172.0
96.627487 184.0
96.730873 164.0
96.775894 140.0
96.813637 132.0
96.966545 112.0
96.983055 220.0
97.012955 172.0
97.042122 256.0
97.134537 272.0
97.16938 184.0
97.21302 288.0
97.47419 312.0
97.531868 356.0
97.605484 192.0
97.632301 196.0
97.664894 152.0
97.681168 132.0
97.755394 180.0
97.789627 192.0
97.884293 156.0
97.999557 156.0
98.060097 1304.0
98.121758 168.0
98.155022 248.0
98.240089 148.0
98.270432 200.0
98.329094 148.0
98.385414 100.0
98.409813 292.0
98.424568 240.0
98.490784 180.0
98.512924 152.0
98.554001 224.0
98.714111 168.0
98.78334 196.0
98.809052 180.0
98.878311 160.0
98.910507 180.0
98.967392 164.0
99.016899 152.0
99.062454 168.0
99.094154 172.0
99.117935 176.0
99.221001 168.0
99.258667 160.0
99.328087 152.0
99.403481 180.0
99.431259 160.0
99.698219 284.0
99.878311 164.0
99.961632 132.0
99.99881 220.0
100.022369 200.0
100.077911 548.0
100.123123 168.0
100.186859 156.0
100.262573 164.0
100.290482 164.0
100.338326 164.0
100.396149 152.0
100.487907 208.0
100.534615 176.0
100.571716 140.0
100.619804 180.0
100.657562 196.0
100.709488 176.0
100.724716 148.0
100.823265 148.0
101.024559 200.0
101.107361 164.0
101.163406 144.0
101.186409 244.0
101.225471 180.0
101.241493 144.0
101.296341 212.0
101.422508 216.0
101.544273 204.0
101.628372 172.0
101.65789 180.0
101.690582 196.0
101.720688 240.0
101.787697 308.0
101.857239 156.0
101.91188 160.0
101.985832 140.0
102.11525 220.0
102.167305 148.0
102.210724 136.0
102.306557 164.0
102.35601 148.0
102.383514 176.0
102.444626 156.0
102.462761 184.0
102.533287 160.0
102.549408 180.0
102.573593 180.0
102.618118 140.0
102.662552 168.0
102.708694 156.0
102.722816 156.0
102.851257 308.0
102.910507 172.0
102.92868 204.0
103.002831 184.0
103.028397 236.0
103.078278 136.0
103.138786 176.0
103.167877 164.0
103.21637 204.0
103.30056 156.0
103.320786 152.0
103.384186 156.0
103.460426 424.0
103.547234 160.0
103.585983 192.0
103.61232 140.0
103.642708 248.0
103.726685 212.0
103.838722 116.0
103.858971 188.0
103.89209 148.0
103.948662 172.0
104.125519 144.0
104.214905 272.0
104.375481 144.0
104.389709 164.0
104.49752 140.0
104.536179 180.0
104.55246 288.0
104.650169 152.0
104.708778 148.0
104.731628 188.0
104.749962 160.0
104.781807 196.0
104.846642 152.0
104.888527 224.0
104.921143 192.0
104.972115 200.0
105.011459 96.0
105.164909 312.0
105.278221 160.0
105.376266 160.0
105.58886 352.0
105.606392 140.0
105.727974 160.0
105.768913 160.0
105.848755 148.0
105.865135 184.0
105.920441 140.0
105.980865 192.0
106.033295 152.0
106.066391 1004.0
106.1576 168.0
106.170776 224.0
106.196091 124.0
106.232025 152.0
106.268951 156.0
106.320786 184.0
106.37664 164.0
106.457855 140.0
106.511086 144.0
106.578995 164.0
106.706429 140.0
106.764 144.0
106.819534 164.0
106.884155 176.0
106.990341 180.0
107.07692 164.0
107.130379 160.0
107.168747 128.0
107.386238 160.0
107.433418 180.0
107.526276 140.0
107.609116 184.0
107.706985 180.0
107.857132 128.0
107.887756 184.0
107.904793 132.0
107.920837 188.0
107.951851 156.0
107.991142 164.0
108.041618 160.0
108.177376 156.0
108.211967 248.0
108.29126 196.0
108.316116 172.0
108.338905 176.0
108.380341 144.0
108.504028 112.0
108.54409 160.0
108.562149 192.0
108.588631 176.0
108.651947 184.0
108.670723 164.0
108.786842 140.0
108.860847 168.0
108.93013 144.0
108.984146 236.0
109.021309 364.0
109.045982 14992.0
109.089027 124.0
109.124916 160.0
109.146271 144.0
109.191116 156.0
109.306442 164.0
109.391365 144.0
109.479111 144.0
109.527122 148.0
109.597961 140.0
109.614624 144.0
109.66256 168.0
109.908043 140.0
109.929512 208.0
109.962898 180.0
110.024559 192.0
110.048668 2080.0
110.142464 148.0
110.312683 192.0
110.422447 176.0
110.477646 164.0
110.598473 96.0
110.66037 148.0
110.694756 168.0
110.718559 204.0
110.765434 272.0
110.805099 212.0
110.896332 128.0
110.957176 164.0
110.988464 152.0
111.082695 168.0
111.206024 208.0
111.237236 368.0
111.252319 192.0
111.372971 144.0
111.447647 200.0
111.486572 168.0
111.556931 184.0
111.925117 148.0
111.994202 164.0
112.070457 204.0
112.099953 144.0
112.131569 148.0
112.15686 152.0
112.232758 140.0
112.255951 176.0
112.325554 156.0
112.344536 168.0
112.501999 156.0
112.530258 172.0
112.551369 144.0
112.589386 216.0
112.631622 180.0
112.675491 408.0
112.711906 192.0
112.749947 156.0
112.963982 192.0
113.024399 168.0
113.059708 188.0
113.158195 212.0
113.185631 176.0
113.258789 160.0
113.369331 172.0
113.46077 108.0
113.52739 172.0
113.586449 252.0
113.666901 244.0
113.80806 168.0
113.904686 140.0
114.010719 1604.0
114.038551 204.0
114.220367 228.0
114.248322 240.0
114.28743 136.0
114.40229 152.0
114.434227 164.0
114.526558 108.0
114.557747 156.0
114.621666 220.0
114.637276 184.0
114.686211 140.0
114.777275 188.0
114.875381 152.0
114.896713 184.0
114.935722 296.0
115.014389 748.0
115.085243 132.0
115.122971 216.0
115.178497 148.0
115.195587 148.0
115.353722 164.0
115.395706 144.0
115.516243 168.0
115.607506 232.0
115.629646 192.0
115.674637 192.0
115.790215 144.0
115.83091 156.0
115.933754 208.0
116.006409 924.0
116.040932 232.0
116.074593 172.0
116.134041 200.0
116.165321 148.0
116.187279 168.0
116.218391 184.0
116.281189 168.0
116.296211 140.0
116.326263 188.0
116.354111 148.0
116.401917 152.0
116.451157 168.0
116.566811 216.0
116.581703 168.0
116.599045 172.0
116.703896 180.0
116.790405 156.0
116.820518 236.0
116.943275 164.0
116.998756 180.0
117.057266 140.0
117.098511 188.0
117.159851 136.0
117.231758 196.0
117.247284 156.0
117.307419 196.0
117.328751 200.0
117.396156 208.0
117.438728 148.0
117.648041 160.0
117.708496 188.0
117.786247 228.0
117.814331 152.0
117.928833 324.0
117.995872 176.0
118.019653 172.0
118.062592 168.0
118.200096 248.0
118.2789 216.0
118.307404 292.0
118.445145 112.0
118.57383 240.0
118.599838 176.0
118.66172 176.0
118.931702 152.0
118.962334 144.0
119.054207 264.0
119.077522 152.0
119.22274 200.0
119.24688 148.0
119.268379 144.0
119.305336 204.0
119.327072 156.0
119.35218 168.0
119.374992 208.0
119.451035 320.0
119.481972 108.0
119.551117 148.0
119.592468 164.0
119.655602 172.0
119.701324 168.0
119.736168 140.0
119.927429 184.0
119.997658 256.0
120.170822 324.0
120.200508 144.0
120.268166 208.0
120.303093 164.0
120.355492 268.0
120.394798 148.0
120.418816 184.0
120.441345 128.0
120.493088 220.0
120.635139 156.0
120.672272 188.0
120.70948 148.0
120.746658 184.0
120.855438 192.0
120.940651 132.0
120.959442 128.0
121.006081 224.0
121.039902 192.0
121.120934 152.0
121.136269 160.0
121.215141 168.0
121.340446 212.0
121.388313 144.0
121.500175 180.0
121.566002 236.0
121.609085 152.0
121.675751 168.0
121.772369 208.0
121.794334 140.0
121.862434 192.0
121.897316 196.0
121.969658 196.0
122.035202 364.0
122.119637 156.0
122.262642 160.0
122.279686 188.0
122.330879 160.0
122.372704 264.0
122.418945 164.0
122.650284 196.0
122.720825 192.0
122.740677 168.0
122.756569 136.0
122.813454 172.0
123.109192 176.0
123.141388 104.0
123.181473 160.0
123.201958 184.0
123.252777 216.0
123.385269 200.0
123.442879 184.0
123.615425 156.0
123.769577 144.0
123.861488 144.0
123.898834 184.0
123.98082 228.0
124.048843 180.0
124.106125 124.0
124.163597 164.0
124.220284 144.0
124.235809 164.0
124.286842 212.0
124.357857 164.0
124.382896 224.0
124.496658 216.0
124.542145 200.0
124.611008 232.0
124.688782 156.0
124.748802 180.0
124.783371 116.0
124.824203 180.0
124.883202 180.0
124.904457 160.0
124.940048 216.0
125.01535 244.0
125.071342 180.0
125.13662 136.0
125.180267 160.0
125.209389 156.0
125.249481 164.0
125.27491 172.0
125.311455 156.0
125.331245 260.0
125.421051 148.0
125.442444 172.0
125.644051 212.0
125.713219 148.0
125.751411 140.0
125.809502 148.0
125.880074 220.0
125.95295 160.0
125.980621 184.0
126.00988 252.0
126.06179 176.0
126.233055 144.0
126.273972 180.0
126.363449 100.0
126.423866 152.0
126.461914 160.0
126.53215 244.0
126.667915 148.0
126.74633 196.0
126.786667 144.0
126.887535 160.0
126.963776 176.0
127.017662 148.0
127.062859 116.0
127.147736 156.0
127.190384 176.0
127.268959 204.0
127.331833 228.0
127.3498 152.0
127.459045 208.0
127.509995 148.0
127.6577 188.0
127.706696 464.0
127.729675 148.0
127.752167 188.0
127.808411 152.0
127.857918 140.0
127.886185 136.0
127.906479 132.0
127.946762 164.0
128.022064 164.0
128.076309 180.0
128.134888 156.0
128.173187 152.0
128.192032 132.0
128.222763 300.0
128.294891 208.0
128.423431 164.0
128.454956 148.0
128.58136 232.0
128.667389 148.0
128.716019 160.0
128.748428 164.0
128.795868 164.0
128.854279 172.0
128.913345 184.0
128.996201 280.0
129.05368 140.0
129.076614 196.0
129.157639 148.0
129.232483 180.0
129.372498 188.0
129.401932 152.0
129.42807 208.0
129.571793 148.0
129.864868 180.0
129.908951 216.0
129.97084 192.0
130.03508 180.0
130.052536 152.0
130.102478 160.0
130.125336 168.0
130.156967 176.0
130.188751 160.0
130.229645 224.0
130.288696 176.0
130.318939 176.0
130.379593 216.0
130.402313 328.0
130.444061 192.0
130.554642 168.0
130.581924 184.0
130.597656 160.0
130.680328 236.0
130.815811 204.0
130.900543 152.0
131.023834 152.0
131.057709 140.0
131.095688 180.0
131.139755 212.0
131.192184 176.0
131.261749 180.0
131.349533 168.0
131.413406 260.0
131.465881 224.0
131.513809 324.0
131.588272 156.0
131.634811 184.0
131.664505 148.0
131.820587 124.0
131.838135 420.0
131.938705 140.0
132.01416 144.0
132.048462 172.0
132.134125 180.0
132.286423 180.0
132.324814 208.0
132.355759 216.0
132.384888 152.0
132.403198 160.0
132.419235 156.0
132.510864 148.0
132.541641 248.0
132.572739 160.0
132.633514 144.0
132.655884 188.0
132.707016 212.0
132.763 188.0
133.050278 536.0
133.075546 156.0
133.176117 152.0
133.225571 184.0
133.272614 192.0
133.318283 192.0
133.454193 184.0
133.492813 156.0
133.549911 160.0
133.648163 180.0
133.688812 144.0
133.723343 144.0
133.800323 208.0
133.830994 220.0
133.881714 152.0
133.926682 332.0
133.951294 144.0
133.978531 184.0
134.060699 1120.0
134.110291 184.0
134.131332 188.0
134.163467 220.0
134.233536 192.0
134.256622 108.0
134.320114 156.0
134.347794 188.0
134.403229 168.0
134.472397 144.0
134.513947 184.0
134.6147 188.0
134.636322 152.0
134.714981 176.0
134.773041 216.0
134.846649 100.0
134.943649 152.0
135.000397 140.0
135.00708 148.0
135.016922 204.0
135.068588 15988.0
135.212723 164.0
135.238174 232.0
135.51384 132.0
135.549728 152.0
135.706238 232.0
135.966904 120.0
136.011124 204.0
136.071304 1164.0
136.157898 200.0
136.191772 240.0
136.262421 296.0
136.294876 124.0
136.34729 184.0
136.382019 224.0
136.491058 240.0
136.533722 168.0
136.754791 192.0
136.864838 140.0
136.904419 152.0
136.970963 140.0
136.998154 148.0
137.046509 148.0
137.078094 248.0
137.11409 384.0
137.16304 168.0
137.198898 156.0
137.249832 172.0
137.335587 204.0
137.379898 164.0
137.620285 160.0
137.651764 128.0
137.691986 124.0
137.720703 204.0
137.797806 180.0
137.883667 156.0
137.984772 148.0
138.115738 236.0
138.267654 224.0
138.467163 188.0
138.579254 156.0
138.60379 220.0
138.639343 144.0
138.710495 180.0
138.791519 144.0
138.846497 152.0
138.869949 216.0
138.902588 140.0
139.011765 212.0
139.050598 160.0
139.068314 208.0
139.169205 212.0
139.210236 148.0
139.306534 156.0
139.339432 264.0
139.377029 192.0
139.453552 140.0
139.47934 128.0
139.5233 132.0
139.581528 216.0
139.663055 196.0
139.736771 176.0
139.867203 112.0
139.88739 160.0
139.979004 136.0
140.030151 684.0
140.084488 160.0
140.111099 176.0
140.129959 192.0
140.181793 188.0
140.200653 224.0
140.226685 164.0
140.342087 152.0
140.393951 140.0
140.493027 144.0
140.516998 172.0
140.632248 240.0
140.89476 216.0
140.993607 152.0
141.018478 244.0
141.09259 160.0
141.1922 140.0
141.439026 352.0
141.457199 156.0
141.47377 144.0
141.532959 156.0
141.644272 200.0
141.662994 192.0
141.743179 144.0
141.768906 212.0
141.7854 144.0
141.883621 172.0
141.911179 140.0
141.942886 216.0
141.979111 192.0
142.006409 4164.0
142.04248 1016.0
142.069458 232.0
142.142151 152.0
142.229416 288.0
142.264954 140.0
142.302155 136.0
142.384293 140.0
142.40329 160.0
142.483505 192.0
142.564835 168.0
142.782822 168.0
142.881088 144.0
142.902496 372.0
142.940567 184.0
143.009354 504.0
143.038559 188.0
143.081558 3544.0
143.192627 228.0
143.216736 156.0
143.252472 160.0
143.290222 188.0
143.501404 140.0
143.716705 160.0
143.800354 160.0
143.910706 304.0
143.948822 104.0
144.002167 1576.0
144.041367 348.0
144.086014 668.0
144.111328 236.0
144.132843 152.0
144.225464 152.0
144.274597 116.0
144.333618 204.0
144.375305 140.0
144.444901 152.0
144.534546 212.0
144.578705 124.0
144.763275 112.0
144.819443 168.0
144.862549 156.0
144.989548 168.0
145.009155 152.0
145.051865 212.0
145.08519 164.0
145.168213 152.0
145.190933 144.0
145.243698 160.0
145.268875 128.0
145.321259 156.0
145.507675 184.0
145.652084 320.0
145.782043 176.0
145.809097 136.0
145.87764 188.0
145.909683 156.0
145.947357 152.0
146.028595 148.0
146.057022 332.0
146.09166 152.0
146.141617 168.0
146.194626 136.0
146.303436 168.0
146.334732 180.0
146.399475 172.0
146.456879 200.0
146.645493 144.0
146.66478 152.0
146.686462 152.0
146.70816 164.0
146.725037 172.0
146.979889 232.0
147.054245 152.0
147.118271 140.0
147.16391 224.0
147.231766 140.0
147.260742 188.0
147.407394 188.0
147.437592 140.0
147.562805 196.0
147.589401 184.0
147.674927 132.0
147.746613 168.0
147.804688 176.0
147.860336 200.0
148.073868 124.0
148.201462 148.0
148.242981 152.0
148.4272 160.0
148.481812 188.0
148.536346 164.0
148.590454 156.0
148.650375 176.0
148.725616 160.0
148.820145 192.0
148.82962 180.0
148.900497 144.0
148.934433 164.0
148.970871 160.0
149.044281 148.0
149.123947 304.0
149.143387 140.0
149.281876 112.0
149.313965 208.0
149.481445 216.0
149.525955 156.0
149.605576 260.0
149.678787 176.0
149.730087 236.0
149.833221 160.0
149.937744 140.0
149.989075 112.0
150.007065 256.0
150.151382 200.0
150.185532 332.0
150.322006 128.0
150.361206 216.0
150.427109 228.0
150.590698 180.0
150.607803 184.0
150.728027 172.0
150.760391 152.0
150.903503 172.0
150.984192 192.0
151.018433 232.0
151.136795 188.0
151.209274 188.0
151.22641 196.0
151.33902 188.0
151.424728 220.0
151.456573 144.0
151.488403 164.0
151.525162 180.0
151.578552 172.0
151.610916 140.0
151.645233 140.0
151.76767 152.0
151.802139 204.0
151.883072 152.0
151.904282 180.0
152.003281 180.0
152.026215 1744.0
152.055023 200.0
152.089539 380.0
152.1315 116.0
152.180008 152.0
152.211929 140.0
152.250565 180.0
152.290527 168.0
152.334732 184.0
152.442841 172.0
152.510345 216.0
152.632721 116.0
152.739227 196.0
152.788513 240.0
153.033524 340.0
153.067657 160.0
153.122299 260.0
153.166016 188.0
153.210526 172.0
153.245087 136.0
153.331253 212.0
153.368225 284.0
153.474243 208.0
153.508759 144.0
153.580276 180.0
153.637009 152.0
153.708572 172.0
153.737259 140.0
153.818237 156.0
153.871475 148.0
153.950928 276.0
154.022522 452.0
154.078934 236.0
154.122574 96.0
154.196869 132.0
154.256866 144.0
154.40303 140.0
154.464584 180.0
154.554947 220.0
154.66748 172.0
154.916275 136.0
154.979523 212.0
155.011688 176.0
155.212524 144.0
155.239807 144.0
155.334045 184.0
155.383667 140.0
155.439896 172.0
155.549942 192.0
155.569794 172.0
155.626892 144.0
155.649246 140.0
155.705231 140.0
155.747208 244.0
155.796417 172.0
155.842407 208.0
155.863663 124.0
155.892685 176.0
155.925705 112.0
156.019196 492.0
156.092285 148.0
156.194794 152.0
156.219208 184.0
156.262802 160.0
156.298248 172.0
156.3965 160.0
156.46228 144.0
156.524536 144.0
156.676468 144.0
156.742813 108.0
156.903244 148.0
156.955612 164.0
157.024429 380.0
157.195084 152.0
157.490921 216.0
157.607086 152.0
157.667068 224.0
157.789551 152.0
157.809555 144.0
157.985794 196.0
158.016739 444.0
158.135818 152.0
158.177307 180.0
158.314651 136.0
158.347565 144.0
158.390518 180.0
158.420212 172.0
158.474457 144.0
158.548004 164.0
158.685867 216.0
158.784164 256.0
158.938446 120.0
158.970367 160.0
159.01622 208.0
159.052017 176.0
159.086044 156.0
159.28064 156.0
159.323181 200.0
159.348465 188.0
159.391174 164.0
159.423843 196.0
159.680283 192.0
159.707031 176.0
159.751022 160.0
159.780899 176.0
159.836258 252.0
159.888077 208.0
160.156311 124.0
160.196289 168.0
160.324783 188.0
160.357544 172.0
160.418045 240.0
160.44606 172.0
160.474304 220.0
160.511475 200.0
160.564285 144.0
160.603439 152.0
160.854446 168.0
160.88475 196.0
160.914337 172.0
161.236923 168.0
161.279022 144.0
161.326447 216.0
161.357407 176.0
161.383148 148.0
161.4375 144.0
161.47261 228.0
161.518112 144.0
161.576736 212.0
161.626907 124.0
161.69664 296.0
161.731567 220.0
161.810043 188.0
161.873566 156.0
162.001038 196.0
162.054993 6940.0
162.1772 188.0
162.250885 144.0
162.313034 156.0
162.359909 144.0
162.395416 160.0
162.41571 172.0
162.611542 156.0
162.687225 140.0
162.708176 232.0
162.767441 116.0
162.786255 212.0
162.816727 240.0
162.878128 116.0
162.942062 140.0
162.997086 152.0
163.058838 1244.0
163.246948 188.0
163.269104 176.0
163.358124 196.0
163.417648 172.0
163.452759 144.0
163.542419 260.0
163.578064 176.0
163.650635 132.0
163.703674 204.0
163.788803 124.0
163.978287 136.0
164.055313 200.0
164.135269 260.0
164.211426 148.0
164.230988 144.0
164.287949 180.0
164.346161 220.0
164.404617 204.0
164.537079 200.0
164.561172 140.0
164.64119 144.0
164.677124 200.0
164.719376 176.0
164.763626 184.0
164.848007 128.0
164.912598 184.0
164.941879 152.0
164.962128 184.0
165.049057 200.0
165.082306 156.0
165.10788 140.0
165.28183 188.0
165.301437 184.0
165.386749 192.0
165.422256 184.0
165.477707 144.0
165.572662 164.0
165.620163 200.0
165.668427 276.0
165.690201 160.0
165.713379 148.0
165.814484 264.0
165.851837 224.0
165.924713 160.0
165.986252 164.0
166.078568 164.0
166.188354 116.0
166.318008 140.0
166.34494 188.0
166.402267 220.0
166.422455 224.0
166.491791 152.0
166.586105 216.0
166.625351 152.0
166.668228 164.0
166.788818 224.0
166.835983 96.0
166.925659 144.0
167.017151 184.0
167.070358 176.0
167.119003 160.0
167.199036 116.0
167.33548 224.0
167.358383 176.0
167.406876 168.0
167.577301 288.0
167.724197 192.0
167.788437 148.0
167.907257 204.0
167.985718 192.0
168.022598 404.0
168.136871 156.0
168.17923 200.0
168.229797 160.0
168.271103 132.0
168.324371 172.0
168.427307 168.0
168.464798 140.0
168.631409 108.0
168.677338 120.0
168.756836 156.0
168.886139 264.0
168.90834 124.0
168.961166 160.0
168.99054 204.0
169.029053 1328.0
169.074524 188.0
169.141525 156.0
169.226669 196.0
169.279526 176.0
169.332428 128.0
169.375351 372.0
169.416794 232.0
169.483139 172.0
169.512787 184.0
169.541534 172.0
169.593338 160.0
169.626007 352.0
169.647537 104.0
169.679565 216.0
169.727081 256.0
169.757004 156.0
169.777451 252.0
169.797043 224.0
169.820847 164.0
169.862808 152.0
169.888046 164.0
169.94313 640.0
170.001602 142516.0
170.037689 67036.0
170.109818 144.0
170.171509 348.0
170.234863 208.0
170.26268 288.0
170.326416 108.0
170.384094 168.0
170.427017 244.0
170.462097 412.0
170.482178 232.0
170.608032 264.0
170.639221 220.0
170.683884 208.0
170.707886 232.0
170.741776 168.0
170.769791 176.0
170.8414 196.0
170.877228 152.0
170.928619 244.0
171.003723 9544.0
171.040207 5648.0
171.156601 180.0
171.214752 244.0
171.304077 156.0
171.368851 228.0
171.413528 180.0
171.477341 228.0
171.503448 236.0
171.545776 164.0
171.575699 144.0
171.649277 176.0
171.6875 192.0
171.745941 144.0
171.832031 160.0
171.86554 436.0
171.888443 136.0
171.932114 236.0
171.963013 232.0
171.998566 36464.0
172.034744 14916.0
172.133469 148.0
172.172012 176.0
172.204956 176.0
172.231812 192.0
172.252274 188.0
172.335251 212.0
172.367523 180.0
172.403656 256.0
172.436295 232.0
172.48233 204.0
172.513321 160.0
172.572845 112.0
172.649612 156.0
172.691467 184.0
172.85025 184.0
172.886597 116.0
172.907196 172.0
172.966492 180.0
173.001083 2156.0
173.036545 1216.0
173.139954 100.0
173.360046 180.0
173.391205 120.0
173.446732 272.0
173.725128 176.0
173.793259 124.0
173.829346 248.0
173.894073 148.0
173.937592 156.0
173.97731 192.0
174.068604 116.0
174.08847 200.0
174.144073 148.0
174.166321 140.0
174.244415 136.0
174.365952 132.0
174.411514 156.0
174.446304 184.0
174.480179 176.0
174.51535 152.0
174.728363 168.0
174.756393 128.0
174.867706 308.0
174.961304 236.0
175.136505 180.0
175.177246 176.0
175.22142 208.0
175.254456 340.0
175.522507 224.0
175.564697 168.0
175.627991 196.0
175.699844 204.0
176.044998 232.0
176.095459 152.0
176.119934 140.0
176.21817 192.0
176.227203 176.0
176.298141 228.0
176.450638 140.0
176.484665 124.0
176.705811 132.0
176.730408 176.0
176.769318 200.0
176.791107 184.0
176.830185 216.0
176.909454 144.0
176.978439 152.0
177.028748 344.0
177.063171 380.0
177.087372 172.0
177.16803 160.0
177.203568 192.0
177.268723 156.0
177.339828 180.0
177.361801 260.0
177.455475 144.0
177.502808 156.0
177.663925 156.0
177.705841 136.0
177.914841 148.0
177.962128 204.0
178.002457 168.0
178.187881 164.0
178.276596 204.0
178.403152 144.0
178.458984 156.0
178.509415 152.0
178.540512 164.0
178.631851 184.0
178.65033 148.0
178.871338 156.0
178.91394 160.0
178.937439 208.0
178.980499 176.0
179.009796 144.0
179.072815 180.0
179.252197 140.0
179.281509 180.0
179.313492 232.0
179.337082 108.0
179.357468 128.0
179.436417 156.0
179.462784 160.0
179.636124 168.0
179.6548 180.0
179.729507 148.0
179.839676 200.0
179.862946 144.0
179.916336 140.0
180.021301 10732.0
180.060806 176.0
180.093933 156.0
180.170319 104.0
180.234161 144.0
180.268997 108.0
180.31694 152.0
180.341034 276.0
180.399872 188.0
180.53891 244.0
180.683273 224.0
180.726151 156.0
180.752914 152.0
181.022751 1272.0
181.103622 168.0
181.130417 172.0
181.205414 240.0
181.318665 124.0
181.345871 108.0
181.44931 252.0
181.508301 180.0
181.538895 168.0
181.563644 176.0
181.667236 140.0
182.018219 2012.0
182.113556 128.0
182.294815 204.0
182.339005 136.0
182.441223 212.0
182.489853 248.0
182.512558 212.0
182.694763 128.0
182.776154 160.0
182.875732 160.0
182.92688 200.0
182.955917 188.0
183.022995 436.0
183.291519 164.0
183.38765 180.0
183.449097 140.0
183.476379 180.0
183.591507 148.0
183.802795 196.0
184.052917 876.0
184.164551 156.0
184.252472 172.0
184.353668 168.0
184.423935 144.0
184.607834 208.0
184.637527 140.0
184.74649 128.0
184.862076 128.0
184.896545 212.0
185.010086 176.0
185.05336 108.0
185.306137 156.0
185.38472 156.0
185.647675 160.0
185.745316 152.0
185.764313 160.0
185.786011 148.0
185.92215 160.0
186.049652 328.0
186.135498 220.0
186.233902 140.0
186.413223 236.0
186.573578 152.0
186.600906 156.0
186.62796 176.0
186.810181 208.0
186.859146 176.0
186.880371 160.0
186.923355 140.0
186.9543 132.0
187.032379 188.0
187.212997 184.0
187.236145 124.0
187.328659 168.0
187.515411 160.0
187.551468 220.0
187.611481 228.0
187.694748 144.0
187.736237 156.0
187.835541 156.0
187.899323 172.0
187.995209 168.0
188.089127 164.0
188.22113 164.0
188.290344 112.0
188.462341 180.0
188.495316 116.0
188.538849 164.0
188.585312 164.0
188.614609 128.0
188.711212 220.0
188.752075 156.0
188.8013 188.0
188.893341 156.0
189.022888 304.0
189.077621 160.0
189.096771 156.0
189.129623 196.0
189.15152 184.0
189.175049 108.0
189.411652 148.0
189.444534 160.0
189.647308 196.0
189.707611 144.0
189.896805 152.0
190.135498 184.0
190.253525 188.0
190.596848 164.0
190.684784 204.0
190.740891 156.0
190.824982 164.0
191.077484 144.0
191.15506 160.0
191.300934 160.0
191.477158 192.0
191.628418 140.0
191.755417 312.0
191.788498 144.0
191.970459 160.0
191.992523 196.0
192.185608 204.0
192.235291 224.0
192.394745 140.0
192.41832 128.0
192.613525 148.0
192.664825 168.0
192.737854 164.0
192.856689 244.0
192.937836 124.0
192.957031 124.0
193.07518 148.0
193.165207 104.0
193.20787 160.0
193.313019 140.0
193.332397 192.0
193.370438 96.0
193.501236 188.0
193.520615 140.0
193.578766 208.0
193.672363 192.0
193.738495 128.0
193.828979 184.0
193.954071 112.0
193.978394 184.0
194.059525 136.0
194.100784 328.0
194.135773 144.0
194.263367 140.0
194.379898 148.0
194.565857 164.0
194.660065 176.0
194.710251 156.0
194.837524 112.0
195.082581 208.0
195.152313 196.0
195.236282 100.0
195.307816 172.0
195.36261 184.0
195.427444 180.0
195.464966 148.0
195.575424 136.0
195.612793 120.0
195.654846 204.0
195.683502 216.0
195.803238 204.0
195.855835 208.0
195.914658 156.0
195.975952 164.0
196.020538 176.0
196.074844 140.0
196.276993 156.0
196.352097 116.0
196.411819 140.0
196.605713 248.0
196.625702 164.0
196.692688 204.0
196.829483 152.0
196.854614 332.0
196.875427 204.0
196.940811 140.0
196.956863 328.0
197.023712 312.0
197.064911 188.0
197.093887 160.0
197.124283 268.0
197.170502 112.0
197.207458 316.0
197.237717 168.0
197.272385 156.0
197.313217 180.0
197.346954 164.0
197.380386 292.0
197.442719 108.0
197.478027 176.0
197.528717 232.0
197.608566 236.0
197.632523 408.0
197.69165 152.0
197.728073 260.0
197.764679 424.0
197.838608 348.0
197.862366 232.0
197.903442 528.0
197.950241 400.0
197.973251 780.0
197.998688 772.0
198.033569 381668.0
198.121964 264.0
198.145645 276.0
198.189133 116.0
198.224365 104.0
198.282425 448.0
198.327316 380.0
198.355652 104.0
198.422958 240.0
198.461884 216.0
198.493546 6476.0
198.526932 536.0
198.568924 148.0
198.650177 352.0
198.669128 304.0
198.724014 168.0
198.750443 120.0
198.80481 280.0
198.84404 160.0
198.868469 108.0
198.895447 252.0
198.948959 112.0
198.978958 388.0
199.035324 56804.0
199.098602 104.0
199.122864 116.0
199.146118 144.0
199.169418 248.0
199.177704 132.0
199.188049 380.0
199.322632 96.0
199.344238 252.0
199.409058 332.0
199.435425 188.0
199.471649 132.0
199.522491 224.0
199.557053 176.0
199.605011 168.0
199.640945 260.0
199.664841 196.0
199.743973 180.0
199.782501 180.0
199.839249 148.0
199.907288 260.0
199.945374 416.0
199.967468 288.0
199.974747 140.0
199.995346 212.0
200.029984 150620.0
200.198959 140.0
200.235779 280.0
200.287338 212.0
200.296616 276.0
200.393326 304.0
200.43161 308.0
200.463303 184.0
200.516556 324.0
200.550735 188.0
200.5811 316.0
200.636932 232.0
200.677246 200.0
200.704391 172.0
200.742722 164.0
200.786713 200.0
200.843475 248.0
200.865585 148.0
200.9552 132.0
201.032761 10108.0
201.146561 140.0
201.27211 128.0
201.32019 104.0
201.41423 176.0
201.435822 176.0
201.47908 148.0
201.540573 96.0
201.715317 144.0
201.983719 144.0
202.037445 528.0
202.151917 96.0
202.186371 132.0
202.209976 100.0
202.24144 164.0
202.280243 96.0
202.32486 128.0
202.363068 116.0
202.400574 96.0
202.475327 160.0
202.5345 172.0
202.619431 100.0
202.666122 100.0
202.803711 148.0
202.82901 128.0
202.872864 132.0
202.913361 208.0
202.944016 212.0
202.97406 120.0
203.107376 192.0
203.513351 148.0
203.784149 160.0
203.866562 140.0
203.965347 112.0
204.044632 204.0
204.792725 164.0
204.985138 220.0
205.130157 188.0
205.235764 156.0
205.38269 176.0
205.689377 172.0
205.975647 144.0
206.042358 140.0
206.104324 164.0
206.209229 156.0
206.500854 148.0
207.23436 156.0
207.465836 140.0
207.955154 164.0
208.112823 1908.0
208.619568 192.0
208.680923 108.0
208.759277 168.0
208.783783 176.0
208.898834 176.0
209.118729 228.0
209.391037 164.0
209.790543 140.0
210.068405 164.0
210.335938 128.0
210.38353 160.0
210.440689 144.0
210.627701 180.0
210.853775 256.0
211.06311 288.0
211.776733 196.0
212.066467 348.0
212.111526 176.0
212.283966 148.0
212.405716 284.0
212.495651 184.0
212.68718 252.0
212.953033 132.0
213.035309 208.0
213.063583 272.0
213.178024 176.0
213.237732 124.0
213.307251 120.0
213.86438 164.0
214.306183 124.0
214.872665 152.0
215.058517 528.0
215.224701 104.0
215.272552 204.0
215.330963 148.0
215.731888 192.0
215.856094 144.0
216.082291 296.0
216.106873 176.0
216.811325 156.0
216.883514 140.0
217.050995 132.0
217.166687 116.0
217.292221 144.0
217.726654 148.0
219.533615 148.0
219.751892 156.0
220.351242 264.0
220.371918 176.0
220.514786 116.0
220.602448 152.0
220.69632 144.0
221.30954 148.0
221.433914 168.0
221.813171 148.0
222.459854 184.0
222.492508 156.0
222.542984 148.0
223.021271 160.0
223.11937 180.0
223.279938 168.0
223.654831 148.0
223.928757 204.0
224.113449 156.0
224.656067 156.0
224.876877 164.0
225.091827 160.0
225.140533 344.0
225.921326 128.0
226.072327 148.0
226.12619 156.0
226.828094 120.0
227.054962 168.0
227.078949 152.0
227.832382 156.0
227.952576 224.0
228.040466 148.0
228.343399 200.0
228.508835 172.0
229.05072 148.0
229.520874 152.0
229.563095 220.0
229.641495 160.0
230.284378 156.0
231.474213 140.0
231.830368 148.0
232.030411 212.0
232.194168 140.0
232.682709 152.0
233.521408 148.0
233.88652 188.0
233.956543 172.0
234.105743 204.0
234.376846 176.0
234.41037 168.0
234.697006 152.0
234.995804 160.0
235.646133 152.0
235.80809 180.0
235.836365 144.0
236.327957 204.0
236.698334 156.0
237.072052 192.0
237.427444 212.0
237.633194 160.0
237.817322 264.0
237.900208 144.0
238.222824 144.0
238.496124 176.0
239.403748 172.0
240.084808 196.0
240.211273 160.0
240.337753 152.0
240.989258 156.0
241.33812 152.0
241.40036 244.0
241.774689 140.0
242.056549 160.0
242.232925 208.0
242.332062 144.0
242.363052 204.0
242.89444 136.0
243.004868 152.0
243.085556 216.0
243.777252 188.0
243.868179 244.0
244.110672 136.0
244.341629 284.0
244.89183 164.0
245.038239 152.0
245.109894 156.0
245.683594 152.0
246.52655 160.0
246.729797 164.0
246.840332 148.0
246.904907 180.0
247.07225 144.0
247.137634 140.0
247.596542 260.0
248.148056 204.0
248.629562 116.0
248.973328 156.0
249.839737 268.0
250.897827 200.0
251.05983 152.0
251.119949 908.0
251.227005 196.0
251.855179 168.0
251.95311 220.0
252.05838 496.0
252.123734 212.0
252.19249 212.0
252.392441 140.0
252.980911 144.0
253.061386 200.0
253.085388 172.0
253.122757 180.0
253.438812 160.0
253.538376 180.0
254.010803 180.0
254.053436 308.0
254.23822 184.0
254.28685 144.0
254.486847 160.0
254.512238 168.0
254.775864 208.0
255.092041 160.0
255.204926 184.0
255.653442 212.0
255.95636 148.0
256.104767 220.0
256.329498 192.0
256.376343 196.0
256.398651 140.0
256.532532 172.0
257.548523 160.0
257.585571 184.0
257.69101 140.0
257.727631 276.0
258.097717 148.0
258.807281 140.0
259.108337 196.0
259.379211 120.0
259.467285 160.0
259.678925 172.0
259.710999 168.0
260.404297 164.0
260.614838 140.0
260.821991 172.0
261.056702 148.0
261.217499 144.0
261.478149 148.0
261.819397 156.0
262.412323 160.0
262.589661 196.0
262.76062 140.0
262.971283 172.0
263.147919 200.0
263.296478 156.0
263.325531 176.0
263.409515 148.0
263.980164 172.0
265.484192 184.0
265.730713 168.0
265.89621 180.0
265.967438 152.0
266.19812 192.0
266.329803 124.0
266.422241 164.0
266.584686 140.0
266.713745 220.0
266.749115 136.0
267.033356 184.0
267.407501 204.0
268.189209 144.0
268.808838 164.0
269.002228 144.0
269.196136 132.0
269.27066 108.0
269.837738 148.0
270.175842 160.0
270.341034 120.0
270.475677 144.0
271.571381 96.0
271.724243 148.0
272.00769 132.0
272.125336 172.0
272.538116 136.0
272.921204 168.0
273.015137 148.0
274.49704 144.0
274.698242 164.0
275.149628 168.0
275.619354 212.0
275.67395 104.0
276.125153 172.0
276.23761 148.0
276.348999 356.0
276.502319 188.0
276.591675 144.0
276.863159 184.0
277.532532 140.0
277.787048 196.0
277.811127 156.0
277.914001 148.0
278.077393 184.0
278.186127 144.0
278.401947 152.0
279.242767 140.0
279.394348 164.0
279.429077 144.0
279.935822 160.0
280.089478 3572.0
280.334747 180.0
280.468079 188.0
280.604736 152.0
280.655212 132.0
281.096741 804.0
281.486328 260.0
281.575806 156.0
281.702728 148.0
282.087708 1208.0
282.230774 168.0
282.558563 140.0
283.295074 140.0
283.569824 168.0
283.663971 180.0
283.750854 140.0
283.824615 156.0
284.160034 192.0
284.441925 168.0
284.485565 220.0
284.861664 144.0
284.905334 148.0
284.975891 184.0
285.749207 176.0
286.800812 144.0
286.836945 192.0
287.012268 152.0
287.228119 172.0
287.379913 160.0
287.476471 164.0
287.646759 116.0
287.737671 164.0
287.808594 180.0
288.068634 152.0
288.109192 164.0
288.234192 184.0
288.531616 148.0
288.578949 192.0
289.003754 100.0
289.089722 244.0
289.147247 240.0
289.617889 148.0
289.651764 208.0
289.702576 152.0
290.125092 148.0
290.77066 184.0
290.89624 168.0
291.222229 164.0
291.358093 208.0
291.959747 224.0
292.133362 176.0
292.323761 152.0
292.664856 132.0
293.216003 204.0
293.546692 152.0
293.710724 124.0
294.266632 196.0
294.63208 140.0
294.763336 100.0
295.055878 144.0
295.240509 148.0
295.360229 144.0
295.622253 108.0
295.752808 152.0
295.887207 176.0
296.287933 184.0
297.083282 152.0
297.296021 200.0
297.467621 144.0
297.669281 164.0
297.722137 128.0
297.910614 152.0
298.350952 236.0
298.391754 212.0
298.526794 160.0
298.671356 164.0
298.776947 140.0
298.849182 152.0
298.993713 184.0
299.510162 140.0
300.097748 124.0
300.233948 188.0
300.278809 224.0
300.327087 248.0
300.461487 200.0
300.554779 312.0
300.635956 144.0
301.263977 236.0
301.580444 140.0
301.784424 144.0
301.829376 156.0
301.960785 280.0
302.019592 180.0
302.604431 204.0
302.63559 208.0
302.832825 144.0
302.887909 144.0
304.216125 140.0
304.468628 164.0
305.02417 128.0
305.644958 160.0
305.744415 152.0
306.076691 328.0
306.121857 156.0
306.201965 168.0
306.613068 164.0
306.650452 132.0
306.738831 104.0
307.091705 200.0
307.387268 180.0
307.568726 148.0
307.628082 156.0
307.690918 152.0
307.928375 172.0
308.182465 216.0
308.235809 172.0
308.316162 236.0
308.6203 164.0
308.77066 144.0
308.935059 168.0
309.071503 176.0
309.152008 144.0
309.435516 164.0
309.904846 152.0
310.448181 200.0
310.928802 140.0
311.016541 204.0
311.1008 148.0
312.077484 140.0
312.540222 172.0
312.729858 344.0
312.883179 168.0
313.112061 164.0
313.224304 188.0
313.763947 164.0
314.370636 176.0
314.809601 184.0
314.870819 164.0
315.384247 144.0
315.479706 172.0
315.861603 176.0
316.003113 164.0
316.034973 160.0
316.470337 140.0
316.785004 136.0
316.950562 228.0
317.664673 164.0
318.026611 216.0
318.321259 152.0
318.385193 160.0
318.566345 176.0
318.985657 188.0
319.497742 152.0
319.833618 240.0
320.177338 100.0
320.273773 172.0
320.371704 124.0
320.469727 172.0
320.526733 156.0
320.857971 188.0
320.979431 140.0
321.164886 148.0
321.4039 140.0
321.689423 156.0
321.73941 172.0
322.015259 156.0
322.389496 152.0
322.719788 120.0
322.929321 152.0
323.068848 192.0
323.165436 160.0
323.559143 232.0
323.734589 152.0
324.07489 176.0
324.522034 152.0
324.548004 176.0
324.870789 144.0
324.989197 164.0
325.423492 216.0
325.554047 120.0
326.321716 212.0
327.077179 212.0
327.131165 148.0
327.239197 196.0
327.502075 156.0
327.862366 196.0
328.16156 172.0
328.309387 148.0
328.962463 152.0
329.159271 180.0
329.58728 180.0
329.745636 156.0
329.869019 264.0
330.016113 124.0
330.179321 180.0
330.791626 172.0
331.15863 176.0
331.288574 152.0
332.350006 188.0
332.422577 220.0
332.84729 200.0
332.966766 160.0
333.141479 168.0
333.203247 216.0
333.526672 140.0
333.593719 144.0
333.668457 196.0
333.842987 156.0
334.289032 168.0
334.392334 152.0
334.949432 176.0
335.142517 172.0
335.209015 204.0
335.58728 164.0
335.795044 148.0
336.301056 152.0
336.34964 168.0
336.963165 144.0
337.014313 148.0
337.192413 260.0
337.493134 204.0
337.763763 148.0
338.018951 144.0
338.898651 100.0
339.194244 128.0
339.481506 168.0
339.830078 140.0
340.215332 248.0
340.577118 144.0
341.111664 156.0
341.225525 152.0
341.563965 276.0
341.743622 172.0
341.880371 144.0
342.365326 196.0
342.981628 172.0
343.062531 156.0
343.137115 180.0
343.954102 136.0
344.195404 160.0
344.280334 188.0
344.527802 140.0
344.564758 148.0
344.76059 256.0
344.96756 140.0
345.026733 156.0
345.113739 172.0
345.207886 168.0
345.910858 168.0
346.047852 152.0
346.540436 160.0
346.633087 156.0
347.218811 160.0
347.28186 184.0
348.083496 188.0
348.859497 144.0
350.48645 144.0
350.538483 112.0
350.661591 148.0
350.720093 156.0
350.857574 132.0
350.971008 168.0
351.060516 176.0
351.927765 164.0
352.512665 168.0
352.815399 200.0
354.031464 156.0
354.125092 196.0
354.195343 116.0
354.301147 156.0
354.496002 140.0
354.853546 176.0
356.074677 148.0
356.132172 172.0
356.324463 120.0
356.388123 144.0
356.454834 180.0
356.57132 164.0
356.642731 208.0
356.87207 176.0
357.698242 148.0
357.878662 144.0
358.204315 184.0
358.949982 128.0
358.992035 152.0
359.086334 168.0
359.788177 152.0
359.924103 252.0
360.381134 204.0
360.619232 240.0
360.942383 124.0
360.978363 180.0
361.502411 144.0
361.810791 180.0
361.859985 148.0
361.984955 140.0
362.250061 176.0
362.594879 156.0
362.955017 168.0
363.744141 192.0
364.068298 160.0
364.120056 176.0
364.222595 180.0
364.440918 136.0
364.809448 156.0
365.092468 348.0
365.182343 96.0
365.214661 156.0
365.321167 184.0
366.029083 152.0
366.074799 184.0
366.893036 128.0
367.001404 160.0
367.72937 156.0
368.99762 216.0
369.060547 208.0
369.119965 144.0
369.219391 204.0
369.315002 152.0
369.395325 176.0
369.448883 244.0
369.604187 116.0
370.026306 112.0
370.072723 140.0
370.316833 152.0
370.808472 184.0
371.022888 140.0
371.072723 160.0
371.58667 172.0
371.617371 140.0
371.893677 152.0
372.00882 216.0
372.162933 144.0
372.276581 136.0
372.315979 168.0
372.678894 144.0
373.042175 144.0
373.242096 196.0
373.557495 152.0
373.62674 156.0
373.787537 116.0
373.830658 192.0
373.919159 140.0
374.061584 188.0
374.244019 124.0
374.302277 132.0
374.381165 188.0
374.539062 140.0
374.667175 284.0
374.824158 192.0
374.862701 156.0
374.901215 184.0
375.068512 148.0
375.41394 176.0
376.476776 196.0
376.552429 176.0
376.747375 120.0
376.917389 128.0
377.165192 96.0
377.305939 184.0
378.26535 256.0
378.482147 164.0
378.803619 200.0
379.187195 188.0
379.445465 148.0
379.854126 152.0
379.920074 176.0
381.251617 124.0
381.281555 272.0
381.508423 144.0
382.936493 148.0
383.407898 144.0
383.840607 188.0
383.910797 132.0
384.195526 156.0
384.441345 192.0
384.762146 160.0
384.890778 184.0
385.112885 172.0
385.334656 140.0
385.576996 152.0
385.659882 104.0
385.901337 136.0
386.15921 152.0
386.191071 136.0
386.414612 184.0
386.449829 172.0
386.69397 176.0
386.743347 156.0
386.941254 204.0
387.224915 184.0
387.304932 188.0
387.662323 164.0
387.709534 196.0
388.500824 176.0
388.797058 160.0
388.879486 392.0
389.016876 140.0
389.291718 212.0
389.739502 156.0
389.884918 148.0
390.357666 184.0
390.557098 120.0
390.935974 196.0
391.119904 192.0
391.218323 148.0
391.378876 144.0
392.051788 212.0
392.262238 156.0
392.546112 156.0
392.828979 144.0
392.96817 156.0
392.995789 172.0
393.336151 148.0
393.43985 100.0
393.502319 96.0
394.038116 196.0
394.524231 280.0
394.719757 176.0
395.275726 200.0
395.31134 172.0
395.707153 144.0
395.960602 124.0
396.012085 184.0
396.194153 124.0
396.416168 200.0
396.701538 168.0
396.94339 216.0
397.033661 152.0
397.170471 116.0
397.243103 200.0
397.276215 176.0
398.014771 120.0
398.082275 148.0
398.589905 204.0
398.682159 248.0
398.93045 212.0
398.957336 172.0
399.230774 172.0
399.266541 140.0
399.307922 148.0
399.767822 212.0
399.83548 160.0
400.189758 176.0
400.249481 160.0
400.325134 184.0
400.607941 156.0
401.636383 204.0
401.787964 148.0
402.067261 260.0
402.12439 156.0
402.157715 660.0
402.234924 156.0
402.414551 180.0
402.504333 116.0
402.773987 176.0
402.921783 160.0
403.057648 176.0
403.096344 168.0
403.15683 156.0
403.233459 176.0
404.155334 244.0
404.514648 200.0
404.66156 140.0
404.790161 196.0
405.526825 112.0
405.653534 160.0
405.789795 180.0
406.122437 196.0
407.026459 144.0
407.26416 196.0
407.332458 168.0
407.384674 184.0
407.858856 156.0
408.302124 96.0
408.487396 232.0
408.8573 132.0
409.037445 148.0
409.150146 140.0
409.228546 144.0
409.351471 168.0
409.777954 132.0
410.148102 208.0
410.158844 152.0
410.221741 140.0
410.719574 144.0
410.754028 180.0
410.919434 148.0
411.31662 104.0
411.969116 176.0
412.04184 140.0
412.294281 152.0
412.59552 156.0
412.979675 196.0
413.153595 160.0
413.465179 184.0
414.121063 164.0
414.244568 156.0
414.430084 128.0
414.890991 156.0
414.99234 168.0
415.557953 284.0
415.71759 156.0
416.148682 140.0
416.193359 164.0
416.366364 192.0
416.449188 180.0
416.955414 148.0
416.985504 140.0
417.026154 172.0
417.105469 172.0
417.149536 236.0
417.223022 112.0
417.583191 188.0
417.814575 140.0
417.879395 344.0
418.038208 200.0
418.116852 140.0
418.372589 172.0
418.522675 144.0
418.706482 144.0
418.874512 156.0
418.925751 120.0
419.114471 128.0
419.191986 184.0
419.235016 240.0
419.401611 96.0
419.462769 160.0
419.632233 156.0
419.970551 196.0
420.016479 148.0
420.072174 276.0
420.111847 168.0
420.216125 152.0
420.311615 152.0
420.347778 124.0
420.412811 100.0
420.450317 120.0
420.486389 332.0
420.577209 184.0
420.662628 244.0
420.733246 392.0
420.770844 140.0
420.815491 264.0
420.850372 348.0
420.893219 120.0
420.926544 248.0
420.971863 292.0
421.00531 288.0
421.05661 352.0
421.101776 204.0
421.168732 320.0
421.177887 264.0
421.257172 328.0
421.327911 332.0
421.392059 132.0
421.429779 524.0
421.473724 340.0
421.510986 388.0
421.609589 140.0
421.685455 736.0
421.738129 300.0
421.784393 372.0
421.840698 296.0
421.909332 324.0
421.958679 292.0
421.988068 992.0
422.001862 568.0
422.019958 756.0
422.111786 896.0
422.167145 221332.0
422.290649 148.0
422.320618 252.0
422.447937 276.0
422.526306 308.0
422.557098 600.0
422.60202 492.0
422.64325 248.0
422.709473 276.0
422.781281 524.0
422.840881 5272.0
422.902679 528.0
422.982208 224.0
423.058197 620.0
423.168762 116704.0
423.275177 184.0
423.287811 196.0
423.407837 260.0
423.51947 328.0
423.55365 336.0
423.609406 256.0
423.640869 164.0
423.683258 184.0
423.721954 128.0
423.754852 312.0
423.789398 364.0
423.849579 252.0
423.896667 148.0
423.974182 312.0
424.009186 260.0
424.163483 141288.0
424.301514 116.0
424.421356 128.0
424.456329 184.0
424.603516 180.0
424.701355 172.0
424.735931 244.0
424.778656 340.0
424.839447 600.0
424.998779 192.0
425.075836 360.0
425.165344 27496.0
425.29541 236.0
425.366364 156.0
425.419739 208.0
425.472015 228.0
425.54129 132.0
425.578705 164.0
425.672913 236.0
425.725922 184.0
425.7677 184.0
425.842896 160.0
425.886475 260.0
425.949707 276.0
425.964813 296.0
426.039703 168.0
426.108978 316.0
426.170685 1696.0
426.259338 256.0
426.804779 292.0
426.861542 316.0
426.935699 156.0
427.010284 284.0
427.058228 180.0
427.18927 136.0
427.231506 124.0
427.433105 164.0
427.487762 124.0
427.561981 196.0
427.606201 108.0
427.684143 260.0
427.787689 140.0
427.852264 248.0
427.942444 132.0
428.068329 104.0
428.179688 104.0
428.468231 208.0
428.795227 100.0
428.842255 100.0
428.919678 100.0
429.003632 260.0
429.604004 116.0
430.561401 104.0
436.58725 112.0
437.549011 112.0
440.048401 124.0
440.294098 152.0
441.584229 96.0
443.599579 152.0
448.547272 160.0
462.47998 152.0
484.847321 184.0
498.162079 100.0
508.209412 164.0
529.901306 144.0
542.589661 144.0
551.441589 140.0
560.854309 140.0
575.943604 184.0
584.254272 108.0
595.217896 144.0
617.863159 144.0
649.926514 192.0
658.790466 140.0
673.288452 120.0
949.330261 140.0
960.511719 184.0
1047.14209 236.0
1062.747437 164.0
1120.225952 160.0
1157.509521 168.0
1183.288452 148.0
1199.542725 184.0
1223.157227 140.0
1236.887695 188.0
1247.262085 224.0
1251.602783 196.0
1266.525391 188.0
1268.091309 176.0
1294.415161 208.0
1295.991089 156.0
1328.681396 240.0
1337.248657 168.0
1350.608521 168.0
1355.411133 236.0
1359.988892 212.0
1360.170898 140.0
1360.758179 176.0
1368.161621 152.0
1369.074585 164.0
1371.063721 172.0
1375.585083 140.0
1379.226807 152.0
1382.162842 236.0
1385.688965 168.0
1390.410767 176.0
1392.556396 204.0
1394.376709 144.0
1412.487793 192.0
1413.969238 232.0
1414.672852 168.0
1415.893311 192.0
1422.604126 180.0
1427.19458 168.0
1436.782471 240.0
1442.521851 196.0
1444.873779 220.0
1444.987183 164.0
1448.227173 172.0
1451.159912 148.0
1453.86792 144.0
1466.264404 236.0
1466.660767 168.0
1468.414429 252.0
1479.746826 140.0
1482.558105 160.0
1485.84375 176.0
1487.121338 160.0
1490.538818 164.0
1495.183716 148.0
1496.261353 172.0
1497.947876 192.0
1501.470337 152.0
1503.545654 180.0
1511.427856 148.0
1511.586792 232.0
1512.333252 180.0
1513.68811 148.0
1513.966919 140.0
1514.400635 140.0
1519.58667 164.0
1522.373413 200.0
1524.906006 140.0
1525.450195 148.0
1526.966431 152.0
1527.121948 240.0
1528.102051 152.0
1528.182617 176.0
1531.43396 148.0
1533.132324 176.0
1534.153442 140.0
1534.748779 228.0
1538.084961 204.0
1538.241089 152.0
1539.96521 168.0
1540.130737 196.0
1543.395508 96.0
1544.124756 168.0
1545.438965 172.0
1547.043335 144.0
1548.578125 180.0
1549.161987 304.0
1550.55249 192.0
1551.696899 232.0
1553.006592 212.0
1560.631958 164.0
1561.520508 144.0
1567.795166 156.0
1573.695557 180.0
1575.32251 156.0
1575.606934 152.0
1577.645874 216.0
1580.746338 192.0
1582.487671 164.0
1582.946899 144.0
1583.12915 192.0
1583.564697 156.0
1584.380615 192.0
1584.80835 256.0
1587.075317 176.0
1588.391846 160.0
1588.843994 160.0
1588.955078 216.0
1590.470825 164.0
1594.656616 160.0
1594.736084 152.0
1595.960327 196.0
1597.272583 160.0
1598.672852 144.0
1599.190186 192.0
1602.144409 140.0
1602.447144 164.0
1602.741943 148.0
1604.057007 192.0
1604.941895 184.0
1606.018555 188.0
1607.909424 140.0
1609.521973 168.0
1609.91333 140.0
1610.352539 188.0
1610.959595 176.0
1612.525757 140.0
1613.484985 176.0
1613.956787 180.0
1615.180298 156.0
1618.075073 160.0
1619.895142 152.0
1625.435303 148.0
1628.534058 172.0
1628.702759 220.0
1632.166626 184.0
1634.290039 148.0
1635.223511 156.0
1635.287964 156.0
1635.819214 168.0
1637.139648 160.0
1637.679199 152.0
1638.807129 144.0
1642.104126 148.0
1645.751709 172.0
1646.761108 188.0
1647.399292 204.0
1647.665894 232.0
1648.425415 244.0
1648.869873 196.0
1649.144653 208.0
1649.459961 300.0
1649.637817 184.0
1651.83728 196.0
1654.054443 144.0
1654.370239 180.0
1659.158081 176.0
1661.193604 152.0
1662.856934 164.0
1663.043701 184.0
1663.360229 156.0
1665.974976 188.0
1666.909424 144.0
1667.502686 164.0
1669.624634 148.0
1669.901123 248.0
1670.600708 160.0
1673.571289 204.0
1675.354858 228.0
1675.526001 176.0
1676.357056 160.0
1677.881348 240.0
1678.207397 204.0
1678.419434 140.0
1680.279053 148.0
1683.64209 148.0
1684.712158 164.0
1685.835571 112.0
1687.499023 140.0
1687.999146 124.0
1689.216431 244.0
1689.34729 188.0
1689.429077 148.0
1691.936279 240.0
1692.121704 144.0
1694.603271 168.0
1694.718018 152.0
1695.611206 156.0
1696.439087 180.0
1697.939575 180.0
1698.718872 156.0
1701.747192 236.0
1702.855713 144.0
1704.827515 148.0
1705.02478 220.0
1705.15625 144.0
1707.81189 140.0
1709.951172 168.0
1710.11853 224.0
1710.947144 248.0
1711.111816 188.0
1712.684692 160.0
1713.047119 164.0
1714.052246 188.0
1714.785767 148.0
1716.216553 128.0
1717.184937 148.0
1717.836548 216.0
1719.107178 164.0
1720.386597 184.0
1720.452637 184.0
1721.53418 204.0
1723.376343 200.0
1726.327271 188.0
1728.080933 212.0
1728.618774 184.0
1729.090454 152.0
1729.164917 216.0
1730.116821 180.0
1730.48938 144.0
1730.646729 140.0
1731.897217 196.0
1732.187134 160.0
1734.705322 176.0
1736.403442 116.0
1737.907593 148.0
1738.695923 204.0
1739.085938 160.0
1740.164185 172.0
1740.895874 144.0
1741.552002 172.0
1743.09729 164.0
1745.491089 164.0
1745.649292 172.0
1745.707397 168.0
1745.932007 164.0
1747.529053 192.0
1749.010376 192.0
1750.900391 180.0
1751.150269 188.0
1751.558472 164.0
1752.283203 156.0
1752.716431 172.0
1753.747437 164.0
1754.016602 164.0
1754.333374 192.0
1757.76123 220.0
1760.643799 220.0
1761.877563 204.0
1762.245117 268.0
1762.403931 236.0
1763.172729 192.0
1763.665894 212.0
1763.924927 212.0
1764.033691 212.0
1765.036865 148.0
1765.756104 212.0
1765.990234 236.0
1766.600952 204.0
1767.914551 192.0
1767.981445 148.0
1771.490845 180.0
1771.581909 172.0
1772.455078 200.0
1773.637451 176.0
1774.83374 204.0
1777.266235 152.0
1778.248169 204.0
1778.734985 216.0
1778.818848 164.0
1780.288208 220.0
1780.656494 164.0
1783.043823 144.0
1784.548462 160.0
1786.070679 192.0
1790.3125 152.0
1790.413574 216.0
1791.651855 220.0
1791.955078 164.0
1792.165771 168.0
1793.497314 164.0
1795.891846 256.0
1796.549805 184.0
1796.878906 148.0
1797.300781 216.0
1799.056274 184.0
1799.96814 224.0
1801.758667 180.0
1802.338623 184.0
1804.437866 156.0
1805.871704 152.0
1806.552124 144.0
1806.712891 220.0
1807.156372 132.0
1808.68457 196.0
1809.06543 176.0
1809.344849 140.0
1809.920532 204.0
1810.216919 180.0
1812.156738 252.0
1812.393921 140.0
1812.783691 160.0
1813.478638 216.0
1813.758423 180.0
1814.724854 160.0
1815.572754 144.0
1815.818726 184.0
1816.539673 180.0
1816.862061 192.0
1816.980835 204.0
1818.482788 212.0
1818.932739 188.0
1819.382568 220.0
1820.025757 180.0
1820.911011 140.0
1821.182861 140.0
1822.372192 236.0
1822.771484 140.0
1824.080322 192.0
1824.854004 164.0
1824.939087 180.0
1826.163574 196.0
1826.384766 180.0
1826.767578 176.0
1827.490723 192.0
1827.567261 180.0
1827.865112 196.0
1828.767212 196.0
1829.31189 160.0
1829.414062 156.0
1829.839722 148.0
1831.381104 176.0
1834.661865 208.0
1835.369507 172.0
1836.776611 160.0
1837.143433 244.0
1840.113403 140.0
1840.642822 144.0
1841.300415 140.0
1841.388184 188.0
1841.488281 168.0
1841.932373 156.0
1842.017822 144.0
1842.684204 168.0
1843.37793 168.0
1843.70105 184.0
1844.918335 216.0
1846.317139 144.0
1847.702759 148.0
1847.848267 216.0
1848.10498 148.0
1848.233276 152.0
1849.599121 160.0
1850.210327 176.0
1850.561401 144.0
1850.886719 192.0
1852.753906 152.0
1853.49939 164.0
1855.00769 160.0
1855.127808 196.0
1856.345215 160.0
1856.465332 156.0
1857.81189 156.0
1858.815796 172.0
1860.231934 192.0
1860.523804 184.0
1861.193481 200.0
1861.648682 164.0
1861.940674 148.0
1863.065796 160.0
1863.28064 220.0
1863.34082 148.0
1864.002319 208.0
1864.904785 140.0
1865.936279 148.0
1866.134033 172.0
1866.288818 216.0
1866.787598 160.0
1868.34436 164.0
1868.89502 196.0
1870.702393 192.0
1870.77124 160.0
1872.321167 196.0
1872.872314 220.0
1873.35376 152.0
1874.586792 312.0
1874.854004 152.0
1875.19873 156.0
1875.414185 224.0
1876.132812 164.0
1876.267578 224.0
1876.94873 152.0
1877.302246 192.0
1878.920532 156.0
1879.372559 148.0
1880.373535 152.0
1881.694214 168.0
1884.733154 144.0
1884.812378 152.0
1885.036987 212.0
1886.151855 140.0
1886.904053 172.0
1887.171997 140.0
1887.26709 184.0
1887.483276 204.0
1887.664917 184.0
1887.786011 168.0
1888.356689 196.0
1889.239014 164.0
1889.59375 176.0
1891.68811 268.0
1891.839844 176.0
1892.389282 160.0
1892.5625 152.0
1893.965454 172.0
1895.299561 148.0
1895.880249 200.0
1896.850952 160.0
1897.094116 152.0
1897.284424 140.0
1900.432739 148.0
1900.771118 148.0
1900.875244 164.0
1901.213623 172.0
1901.864624 152.0
1902.333374 172.0
1903.184204 196.0
1904.000488 160.0
1904.156738 148.0
1904.452026 140.0
1904.530273 180.0
1904.62561 164.0
1904.772095 128.0
1904.981934 228.0
1905.199097 180.0
1905.763794 168.0
1906.380859 220.0
1908.345337 156.0
1908.884399 160.0
1909.675781 176.0
1910.279785 200.0
1911.354858 204.0
1911.641479 152.0
1911.903076 168.0
1913.31311 152.0
1913.539551 236.0
1913.757202 140.0
1915.115723 184.0
1915.350952 208.0
1915.411865 176.0
1917.375366 200.0
1917.703491 152.0
1917.91272 144.0
1918.383423 152.0
1920.517212 152.0
1921.278687 264.0
1923.115479 168.0
1924.502563 264.0
1925.058105 140.0
1926.219727 148.0
1926.315796 156.0
1926.658203 160.0
1927.25061 136.0
1928.133545 212.0
1928.587646 148.0
1929.059692 148.0
1929.356934 192.0
1931.280762 140.0
1931.473145 152.0
1932.855469 144.0
1933.380493 144.0
1933.888184 176.0
1934.739258 156.0
1934.903564 168.0
1935.612793 140.0
1936.22583 212.0
1936.527222 224.0
1937.688599 144.0
1938.450928 172.0
1939.169556 140.0
1939.800171 156.0
1940.580933 212.0
1940.688721 188.0
1940.879028 152.0
1941.011108 176.0
1941.273682 232.0
1941.852417 172.0
1942.685791 176.0
1942.764771 144.0
1943.220947 208.0
1944.097046 200.0
1945.186768 180.0
1945.283325 200.0
1949.253174 228.0
1949.639771 184.0
1952.347534 140.0
1952.963135 208.0
1954.080444 152.0
1954.546753 140.0
1954.901611 252.0
1955.039551 164.0
1955.611572 184.0
1956.14856 192.0
1956.735107 160.0
1957.389893 180.0
1958.411499 184.0
1962.227173 144.0
1962.913452 164.0
1963.03894 140.0
1963.179565 152.0
1963.752808 228.0
1964.079102 192.0
1964.193848 192.0
1964.590698 152.0
1964.986084 172.0
1965.211182 196.0
1965.949585 172.0
1966.25293 168.0
1966.328857 172.0
1968.456665 176.0
1969.092529 200.0
1969.163086 160.0
1969.400391 140.0
1970.046387 152.0
1970.435181 184.0
1971.852905 160.0
1972.688721 144.0
1973.210327 148.0
1973.614746 172.0
1974.934692 140.0
1975.485962 152.0
1975.695435 196.0
1976.270508 176.0
1976.881104 152.0
1977.311646 196.0
1978.934692 164.0
1979.138306 228.0
1981.910034 144.0
1982.983032 144.0
1983.984741 240.0
1984.046753 284.0
1985.030884 160.0
1985.483154 164.0
1985.846802 144.0
1987.807495 260.0
1988.029297 156.0
1988.206787 148.0
1988.783691 204.0
1989.067749 200.0
1989.502686 156.0
1989.786865 156.0
1990.17749 180.0
1990.976685 196.0
1991.847168 216.0
1992.842163 244.0
1993.05542 208.0
1994.744019 140.0
1995.268433 160.0
1995.419556 140.0
1995.80188 164.0
1996.886841 164.0
1997.104736 204.0
1997.242676 160.0
1998.758789 172.0
1999.039795 188.0
1999.235596 152.0
1999.360229 244.0
1999.502563 200.0
1999.84082 316.0
2000.098877 180.0
2000.67749 216.0
2000.739868 244.0
2001.282959 228.0
2001.603516 176.0
2001.79187 132.0
2001.879517 176.0
2002.654419 144.0
2003.046265 176.0
