>compound MLS002153353-01!3-Tropanylindole-3-carboxylate methiodide
>formula C18H22N2O2
>ionization [M+H]+
>parentmass 299.176514
#inchi InChI=1S/C18H22N2O2/c1-20(2)12-7-8-13(20)10-14(9-12)22-18(21)16-11-19-17-6-4-3-5-15(16)17/h3-6,11-14H,7-10H2,1-2H3
#inchikey KVDHVTQKKLVMJD
#origInchi InChI=1S/C18H22N2O2.HI/c1-20(2)12-7-8-13(20)10-14(9-12)22-18(21)16-11-19-17-6-4-3-5-15(16)17;/h3-6,11-14H,7-10H2,1-2H3;1H
#Ion_Source LC-ESI
#Instrument qTof
#Compound_Source NIH Pharmacologically Active Library
#PI Dorrestein
#Data_Collector VP/LMS
#Scan -1
#Precursor_MZ 299.177
#ExactMass 299.176
#Charge 1
#CAS_Number N/A
#Pubmed_ID N/A
#Smiles C[N+]1(C)C2CCC1CC(C2)OC(=O)c3c[nH]c4ccccc34.[I-]
#INCHI_AUX N/A
#Library_Class 1
#SpectrumID CCMSLIB00000084752
#IonMode Positive
#UpdateWorkflowName UPDATE-SINGLE-ANNOTATED-GOLD
#LibraryQualityString Gold
#TaskID d252d724072548979f1f6f1ced849daf
##Scan# 1421
#SpectrumFile p3-A03_GA3_01_18225.mzXML
#LibraryName Pharm_Active_Library.mgf
#MQScore -1
#Organism Pharm_Active_Library
#TIC_Query 0
#RT_Query -1
#MZErrorPPM -1
#SharedPeaks 0
#MassDiff 0
#LibMZ -1
#SpecMZ 299.177
#SpecCharge 0
#internalFilename spec-00000.mgf

>collision 10
44.900452 132.0
45.088764 160.0
45.188992 132.0
45.418072 204.0
45.443729 160.0
45.495907 64.0
45.512016 76.0
45.595306 176.0
45.830803 128.0
45.868538 160.0
45.883369 184.0
45.948105 92.0
46.219688 124.0
46.231865 172.0
46.429661 160.0
46.524647 140.0
46.542294 228.0
46.555874 156.0
46.872841 48.0
46.971001 144.0
47.216862 152.0
47.229172 184.0
47.282532 148.0
47.353725 180.0
47.382492 148.0
47.407158 72.0
47.618435 180.0
47.717377 176.0
47.86047 172.0
48.108643 156.0
48.472401 196.0
48.825012 164.0
48.932159 184.0
48.962795 192.0
48.994835 196.0
49.040817 192.0
49.162155 160.0
49.312992 164.0
49.367516 196.0
49.3829 172.0
49.4445 148.0
49.459858 164.0
49.534073 156.0
49.550884 120.0
49.657421 176.0
49.66864 240.0
49.707924 192.0
49.717747 168.0
49.796371 172.0
49.832893 232.0
50.050911 224.0
50.145298 236.0
50.18195 216.0
50.503933 132.0
50.536472 200.0
50.660717 232.0
50.697899 172.0
50.717743 176.0
51.41674 240.0
51.490337 180.0
51.639721 172.0
51.684345 208.0
51.909218 212.0
52.100552 140.0
52.166656 64.0
52.181034 148.0
52.27309 212.0
52.470421 200.0
52.493492 208.0
52.524204 176.0
53.053047 168.0
53.190861 184.0
53.283802 220.0
53.295425 172.0
53.344841 144.0
53.379734 188.0
53.631603 192.0
53.905979 168.0
53.926441 196.0
54.11515 144.0
54.339397 116.0
54.540588 216.0
54.559696 184.0
54.681789 140.0
54.796032 124.0
54.870342 128.0
54.92638 188.0
55.144909 132.0
55.165604 148.0
55.227711 172.0
55.261734 96.0
55.331295 132.0
55.347584 172.0
55.362392 60.0
55.400902 48.0
55.623341 188.0
55.707985 228.0
55.737911 112.0
55.751076 168.0
55.83284 180.0
55.98315 200.0
56.001022 148.0
56.017826 184.0
56.100857 132.0
56.321709 136.0
56.433792 244.0
56.468185 204.0
56.510075 148.0
56.59988 136.0
56.688259 108.0
56.875736 200.0
56.977852 224.0
57.030445 112.0
57.176636 100.0
57.20945 140.0
57.24107 132.0
57.381199 204.0
57.467167 180.0
57.47773 148.0
57.488293 144.0
57.523006 212.0
57.586426 208.0
57.935852 164.0
57.966156 164.0
58.014656 196.0
58.032848 108.0
58.433823 112.0
58.785805 132.0
59.141907 160.0
59.160927 160.0
59.218464 196.0
59.380928 112.0
59.393196 160.0
59.555901 96.0
59.582489 168.0
59.60199 180.0
59.655632 164.0
59.757286 148.0
59.868114 252.0
59.948219 48.0
60.042736 208.0
60.066055 156.0
60.157986 136.0
60.184231 124.0
60.281548 192.0
60.468674 176.0
60.505825 64.0
60.567097 192.0
60.628193 192.0
60.656094 144.0
60.847916 160.0
60.891392 228.0
60.972729 176.0
61.049683 160.0
61.101791 132.0
61.118904 192.0
61.174934 44.0
61.190502 160.0
61.349411 248.0
61.397747 184.0
61.442982 180.0
61.455463 156.0
61.617844 164.0
61.800774 100.0
61.951073 176.0
62.035694 100.0
62.049805 112.0
62.212963 204.0
62.431366 132.0
62.585579 172.0
62.628101 48.0
62.699001 208.0
62.915096 164.0
62.954571 196.0
63.044617 224.0
63.055679 200.0
63.079391 192.0
63.114895 140.0
63.117737 188.0
63.262894 148.0
63.37851 164.0
63.481544 156.0
63.570377 232.0
63.610058 172.0
63.630695 164.0
63.676746 152.0
63.76413 152.0
63.950214 120.0
64.071236 164.0
64.182808 192.0
64.364708 200.0
64.489319 48.0
64.54847 160.0
64.566063 232.0
64.770935 168.0
64.968109 156.0
65.011429 192.0
65.07885 124.0
65.276489 172.0
65.313484 164.0
65.363358 180.0
65.509865 200.0
65.618103 176.0
65.646576 200.0
65.696869 160.0
65.717842 220.0
65.782394 168.0
66.146111 156.0
66.223831 112.0
66.259468 168.0
66.452408 144.0
66.475121 112.0
66.669998 180.0
67.023117 184.0
67.093201 156.0
67.176369 176.0
67.220421 140.0
67.406578 140.0
67.480133 180.0
67.588081 132.0
67.750168 132.0
67.817352 200.0
67.913055 196.0
67.989563 128.0
68.015823 64.0
68.129135 136.0
68.168564 136.0
68.250755 112.0
68.305031 108.0
68.398819 216.0
68.573555 188.0
68.794449 164.0
68.898491 132.0
68.929886 52.0
69.255798 124.0
69.419876 148.0
69.549278 76.0
69.904945 88.0
69.944885 152.0
70.043129 120.0
70.079819 172.0
70.138107 244.0
70.16478 76.0
70.766251 160.0
70.870094 192.0
70.901932 188.0
71.009232 188.0
71.101509 116.0
71.148506 204.0
71.208954 144.0
71.235832 264.0
71.33474 172.0
71.511597 148.0
71.589035 40.0
71.771027 176.0
72.149223 212.0
72.255768 176.0
72.360703 204.0
72.384407 216.0
72.626755 172.0
72.675949 216.0
72.718376 96.0
72.830437 140.0
72.876305 176.0
72.910294 112.0
72.939186 124.0
73.068428 148.0
73.233551 44.0
73.410217 200.0
73.465378 172.0
73.477318 216.0
73.75396 152.0
73.76593 188.0
74.173332 288.0
74.185333 248.0
74.348274 184.0
74.384315 196.0
74.516556 176.0
74.631714 176.0
74.664383 96.0
74.693626 180.0
74.734909 172.0
74.853683 136.0
74.896736 200.0
75.191574 156.0
75.222641 56.0
75.410912 160.0
75.549248 176.0
75.580391 188.0
75.644424 164.0
75.850563 156.0
75.925117 208.0
75.965012 132.0
76.024002 204.0
76.30983 280.0
76.461945 164.0
76.514168 164.0
76.552475 188.0
76.763329 108.0
77.016388 228.0
77.103752 228.0
77.15094 144.0
77.379089 208.0
77.427406 180.0
77.732437 68.0
77.858833 180.0
77.992363 156.0
78.022247 264.0
78.346062 196.0
78.543495 156.0
78.577011 184.0
78.645836 320.0
78.804771 180.0
78.864853 52.0
79.158531 204.0
79.465179 148.0
79.500671 112.0
79.549706 108.0
79.649803 48.0
80.167542 52.0
80.221016 200.0
80.328011 44.0
80.481491 128.0
80.613678 148.0
80.790688 220.0
80.966103 224.0
81.075378 176.0
81.148872 228.0
81.286987 160.0
81.44857 116.0
81.518639 200.0
81.727226 80.0
81.765388 232.0
82.114532 176.0
82.164185 236.0
82.325684 156.0
82.416 124.0
82.533493 216.0
82.551575 172.0
82.64563 152.0
82.670967 156.0
82.982521 136.0
83.022415 36.0
83.049614 192.0
83.154854 152.0
83.209305 132.0
83.269234 216.0
83.292847 112.0
83.434586 152.0
83.50914 156.0
83.548401 200.0
83.591011 192.0
83.65107 228.0
83.680199 128.0
83.725723 192.0
84.075752 236.0
84.092178 160.0
84.26017 72.0
84.351547 168.0
84.395424 116.0
84.450287 136.0
84.505165 136.0
84.697388 72.0
84.741348 248.0
84.985207 148.0
85.130219 140.0
85.144913 188.0
85.194504 60.0
85.242271 160.0
85.352562 200.0
85.523659 160.0
85.95121 200.0
86.074883 160.0
86.100739 180.0
86.13768 152.0
86.217125 136.0
86.235611 72.0
86.329895 168.0
86.385384 136.0
86.416832 136.0
86.505669 164.0
86.566849 176.0
86.598251 148.0
86.657524 168.0
86.687172 132.0
86.86702 208.0
87.063759 88.0
87.175224 236.0
87.261986 212.0
87.335114 188.0
87.452332 168.0
87.785812 160.0
87.873482 152.0
87.897736 168.0
87.929459 128.0
88.037392 216.0
88.097511 160.0
88.512718 216.0
88.791939 172.0
88.814445 184.0
89.079117 136.0
89.141113 192.0
89.447678 168.0
89.517342 128.0
89.761635 156.0
89.932098 132.0
90.294861 256.0
90.338364 104.0
90.463257 236.0
90.734161 140.0
90.849846 84.0
90.967499 208.0
91.00972 204.0
91.055183 4056.0
91.092834 156.0
91.117531 68.0
91.261978 36.0
91.293388 92.0
91.376091 240.0
91.452209 132.0
91.51313 128.0
91.764626 48.0
91.863792 236.0
92.058434 316.0
92.209396 208.0
92.270569 36.0
92.356621 60.0
92.421661 172.0
92.532669 180.0
92.572884 152.0
92.592033 152.0
92.687813 256.0
92.735725 68.0
92.848846 136.0
92.9179 188.0
92.962029 136.0
93.007118 276.0
93.070618 6252.0
93.111771 72.0
93.136742 152.0
93.265472 64.0
93.278931 96.0
93.319305 156.0
93.390457 52.0
93.60215 116.0
93.615631 68.0
93.71965 236.0
93.777458 180.0
93.981873 164.0
94.032532 192.0
94.068085 1376.0
94.116989 60.0
94.142792 232.0
94.198097 28.0
94.348831 176.0
94.404907 128.0
94.579033 132.0
94.861839 128.0
94.920006 152.0
95.022804 132.0
95.085625 3740.0
95.139244 284.0
95.176132 148.0
95.196411 76.0
95.230507 128.0
95.654396 204.0
95.695274 104.0
95.763435 128.0
95.890076 56.0
96.004074 160.0
96.055809 120.0
96.086212 444.0
96.417015 76.0
96.448288 140.0
96.489342 132.0
96.608635 124.0
96.677116 108.0
96.763245 48.0
96.865074 128.0
97.063019 192.0
97.082634 172.0
97.237617 168.0
97.55162 204.0
97.724953 116.0
97.738731 64.0
97.803673 168.0
97.829262 336.0
97.870605 116.0
97.900146 92.0
97.941505 152.0
98.128716 168.0
98.207596 116.0
98.409447 224.0
98.477997 196.0
98.63607 196.0
98.7369 136.0
98.776459 44.0
98.819984 152.0
99.044891 216.0
99.136803 220.0
99.198242 148.0
99.231949 132.0
99.350937 200.0
99.688477 184.0
100.341339 196.0
100.39518 124.0
100.412437 208.0
100.502899 176.0
100.594704 168.0
100.698532 196.0
100.750465 188.0
100.924347 136.0
100.986336 216.0
101.026344 112.0
101.143593 240.0
101.168427 128.0
101.218483 148.0
101.24852 188.0
101.661491 216.0
101.78997 224.0
102.350983 176.0
102.413406 184.0
102.552986 160.0
102.699623 104.0
102.846916 156.0
103.202461 164.0
103.299538 192.0
103.520149 136.0
103.572807 136.0
103.664673 236.0
104.203705 180.0
104.252472 80.0
104.321579 104.0
104.555489 184.0
104.828377 204.0
104.877289 204.0
104.964951 168.0
105.073051 156.0
105.091408 200.0
105.324135 188.0
105.514183 148.0
105.91732 176.0
105.941902 224.0
105.958298 192.0
105.978783 188.0
106.068954 140.0
106.150963 132.0
106.185829 188.0
106.405388 160.0
106.59024 184.0
106.756752 140.0
106.917213 220.0
107.3787 204.0
107.442642 184.0
107.818443 136.0
107.839111 236.0
107.902969 188.0
107.923866 132.0
108.033478 164.0
108.080605 1020.0
108.104156 176.0
108.132797 96.0
108.489075 124.0
108.779495 300.0
108.872925 220.0
109.089355 840.0
109.15554 176.0
109.255379 104.0
109.278259 44.0
109.39064 156.0
109.438522 180.0
109.746895 216.0
109.76149 128.0
109.784431 36.0
109.911674 180.0
110.098007 540.0
110.237427 148.0
110.344025 180.0
110.369118 116.0
110.542732 96.0
110.712296 156.0
110.817032 72.0
111.045525 60.0
111.100708 220.0
111.301544 56.0
111.326744 52.0
111.488503 116.0
111.524231 52.0
111.968163 92.0
112.005127 232.0
112.084023 144.0
112.112663 352.0
112.218918 76.0
112.275848 164.0
112.385544 168.0
112.446739 168.0
112.478401 196.0
112.930573 164.0
112.964417 180.0
113.036346 156.0
113.188751 136.0
113.226875 140.0
113.320076 200.0
113.436638 168.0
113.593552 56.0
113.635986 128.0
114.252098 92.0
114.439384 148.0
114.61132 160.0
114.910408 200.0
115.036324 64.0
115.087563 200.0
115.106773 40.0
115.207161 148.0
115.228523 180.0
115.281944 132.0
115.551353 100.0
115.57489 220.0
116.050545 852.0
116.140457 244.0
116.286354 104.0
116.518265 180.0
116.623566 168.0
116.647209 208.0
116.715271 176.0
116.969124 208.0
117.003319 208.0
117.034454 176.0
117.081825 140.0
117.122749 180.0
117.200302 132.0
117.24987 48.0
117.437439 136.0
117.459007 160.0
117.579834 260.0
118.037811 224.0
118.06443 168.0
118.08773 188.0
118.388374 96.0
118.453346 100.0
118.703239 268.0
118.973793 168.0
119.067162 176.0
119.101913 168.0
119.269226 192.0
119.310081 136.0
119.610725 276.0
119.815796 164.0
119.946175 156.0
120.057693 212.0
120.094444 88.0
120.25808 48.0
120.804352 200.0
120.861839 156.0
120.994743 32.0
121.056053 148.0
121.118515 268.0
121.586571 188.0
121.680954 64.0
121.885223 168.0
121.948952 60.0
121.970932 112.0
122.054253 200.0
122.094437 752.0
122.204041 96.0
122.459396 152.0
122.595985 160.0
122.651085 176.0
122.710609 160.0
122.981941 60.0
123.105972 1000.0
123.348602 180.0
123.377342 60.0
123.40387 140.0
123.467995 200.0
123.932854 168.0
124.103859 216.0
124.269875 180.0
124.349815 160.0
124.40303 80.0
124.431892 120.0
124.474075 172.0
124.698448 172.0
124.842957 40.0
124.882988 148.0
125.065437 76.0
125.386154 152.0
125.401756 152.0
125.618042 116.0
126.301567 152.0
126.626106 140.0
126.971245 156.0
127.148483 176.0
127.175415 152.0
127.276436 180.0
127.386482 168.0
127.429169 148.0
127.467361 196.0
127.705666 152.0
128.081558 124.0
128.408371 232.0
128.55275 208.0
128.719788 296.0
128.909546 196.0
128.938919 204.0
129.002213 168.0
129.060989 224.0
129.174072 104.0
129.468307 116.0
129.524933 40.0
129.82637 196.0
129.892136 172.0
130.078201 172.0
130.196274 180.0
130.300766 172.0
130.596268 172.0
130.974106 124.0
131.002686 128.0
131.147278 196.0
131.496231 188.0
132.042267 172.0
132.074295 180.0
132.775131 96.0
132.980438 224.0
133.071152 200.0
133.457138 44.0
133.595139 176.0
133.615845 136.0
133.779236 32.0
134.080063 208.0
134.12706 180.0
134.16626 72.0
134.223892 168.0
134.323196 208.0
134.35997 220.0
134.449966 176.0
134.597702 184.0
134.648499 148.0
134.706253 180.0
134.750137 176.0
134.98822 168.0
135.096924 152.0
135.240387 136.0
135.289001 244.0
135.407089 180.0
135.506683 188.0
135.675873 164.0
135.877808 172.0
135.995056 260.0
136.060974 112.0
136.112411 604.0
136.149216 148.0
136.184052 212.0
136.26535 104.0
136.376892 60.0
136.672241 104.0
136.751358 184.0
136.782303 192.0
136.960907 132.0
137.007507 240.0
137.04245 172.0
137.113907 168.0
137.133331 160.0
137.151978 204.0
137.333847 184.0
137.532166 104.0
137.56485 124.0
137.5952 112.0
137.646561 120.0
137.664413 188.0
137.686264 52.0
137.73999 312.0
137.767273 240.0
137.837173 180.0
137.861481 60.0
137.891647 184.0
137.919128 248.0
137.948914 384.0
137.976379 100.0
137.992371 212.0
138.015076 180.0
138.045105 164.0
138.071106 252.0
138.129349 97452.0
138.17778 144.0
138.196213 76.0
138.227646 272.0
138.246246 52.0
138.25592 48.0
138.272827 76.0
138.303497 76.0
138.341293 184.0
138.362335 232.0
138.384964 140.0
138.411194 60.0
138.449448 120.0
138.468475 104.0
138.490814 84.0
138.513947 492.0
138.550552 64.0
138.567291 216.0
138.596237 100.0
138.614609 88.0
138.634903 128.0
138.656174 160.0
138.691315 84.0
138.725143 80.0
138.789642 196.0
138.817963 96.0
138.854095 72.0
138.894974 64.0
138.929153 64.0
138.950424 60.0
138.989456 148.0
139.015961 64.0
139.040466 56.0
139.071625 56.0
139.085922 204.0
139.131912 8664.0
139.182632 76.0
139.21315 48.0
139.238785 84.0
139.261078 128.0
139.297714 56.0
139.321198 140.0
139.361145 56.0
139.403442 88.0
139.452682 84.0
139.487244 188.0
139.516251 68.0
139.586792 140.0
139.63147 192.0
139.698395 88.0
139.718506 84.0
139.909119 156.0
139.946793 84.0
139.984467 52.0
140.005661 80.0
140.023712 112.0
140.052765 56.0
140.094147 120.0
140.134476 528.0
140.163956 260.0
140.197327 144.0
140.218781 112.0
140.265732 104.0
140.299866 132.0
140.326126 80.0
140.436951 56.0
140.516373 72.0
140.78389 60.0
140.918533 92.0
141.060318 96.0
141.143066 60.0
141.165802 144.0
141.199829 36.0
141.514542 136.0
141.540588 44.0
141.834351 232.0
141.917328 52.0
142.344437 68.0
143.522278 144.0
143.808548 132.0
143.947006 116.0
144.045578 6560.0
144.10704 28.0
144.12616 136.0
144.169174 76.0
144.379547 56.0
144.465652 52.0
144.635544 72.0
144.678635 68.0
144.91333 48.0
145.049225 1084.0
145.105072 96.0
145.136246 132.0
145.328125 104.0
145.491333 124.0
145.647415 100.0
146.050247 148.0
146.075272 112.0
146.16188 116.0
146.241302 144.0
146.337585 120.0
146.361664 140.0
146.426682 28.0
146.532684 80.0
146.645935 88.0
146.805054 124.0
146.990799 100.0
147.278076 164.0
147.352966 68.0
147.430298 140.0
147.686569 60.0
148.243393 44.0
148.643509 136.0
148.881409 152.0
149.605972 80.0
149.939667 124.0
150.385986 136.0
150.649704 60.0
151.952103 196.0
152.445648 204.0
152.487427 116.0
152.521835 140.0
152.558701 128.0
153.213318 84.0
153.356232 48.0
153.773056 216.0
154.121246 176.0
155.364105 256.0
156.096802 232.0
156.139542 2052.0
156.268433 52.0
156.285843 124.0
157.033173 148.0
157.098038 128.0
157.142944 176.0
157.597351 148.0
159.064911 200.0
160.594742 100.0
160.662857 192.0
160.990982 160.0
162.057022 188.0
162.557938 60.0
163.063309 184.0
166.782181 88.0
167.083054 44.0
167.693329 76.0
168.70517 132.0
174.86644 112.0
175.171875 112.0
177.165527 92.0
177.423401 36.0
177.616974 168.0
178.044281 124.0
178.081467 140.0
178.905777 68.0
181.215912 56.0
184.172363 160.0
187.482346 60.0
188.524811 96.0
191.413361 36.0
195.89183 204.0
197.119415 136.0
197.941803 124.0
198.965195 140.0
199.24321 144.0
202.110718 204.0
202.645462 48.0
202.679703 200.0
203.485199 100.0
205.343353 84.0
206.932144 92.0
209.62352 40.0
210.410934 152.0
211.289505 176.0
211.390762 168.0
211.442856 96.0
213.130569 112.0
213.182877 52.0
215.855972 140.0
216.128906 180.0
216.619843 204.0
218.245712 140.0
218.448639 60.0
218.469223 80.0
221.37944 156.0
221.583817 200.0
222.310272 84.0
222.71106 52.0
223.373917 84.0
224.213531 88.0
226.451263 108.0
227.14064 144.0
229.091537 132.0
229.990128 164.0
234.028137 56.0
234.640518 160.0
235.079742 92.0
236.115356 132.0
237.637756 204.0
240.080093 244.0
240.110931 128.0
242.076385 104.0
242.259125 148.0
244.037415 124.0
246.884323 68.0
247.801453 108.0
252.820679 64.0
254.341965 80.0
254.802429 64.0
255.415955 140.0
255.55275 248.0
256.50177 104.0
259.439484 140.0
259.481171 180.0
259.599792 52.0
261.427643 228.0
265.177124 80.0
267.926117 116.0
268.157471 52.0
273.055359 116.0
274.906799 124.0
275.157654 84.0
276.446747 80.0
277.443695 40.0
280.368683 268.0
282.328308 40.0
282.883728 144.0
285.302399 64.0
286.134125 140.0
287.856293 148.0
294.068939 156.0
295.155273 140.0
296.44577 44.0
296.510895 188.0
296.747406 84.0
296.973724 100.0
297.382019 132.0
297.560516 128.0
297.848969 144.0
297.921112 72.0
297.958923 120.0
298.492004 124.0
298.536346 104.0
298.701447 268.0
298.786499 192.0
298.870026 104.0
298.925812 300.0
298.997345 120.0
299.044556 172.0
299.104126 132.0
299.176514 22288.0
299.231049 144.0
299.265839 96.0
299.386353 84.0
299.448334 120.0
299.47052 56.0
299.577057 172.0
299.699829 116.0
299.83075 60.0
299.878265 56.0
299.903137 84.0
299.978973 112.0
300.177765 4892.0
300.237549 168.0
300.292725 60.0
300.514191 60.0
300.786133 44.0
300.831024 88.0
301.05545 56.0
301.141785 60.0
301.181396 880.0
301.252319 112.0
301.276489 92.0
301.393219 76.0
301.459625 44.0
301.52182 56.0
301.604767 40.0
301.881348 84.0
301.9505 88.0
301.97818 84.0
302.047363 64.0
302.088867 124.0
302.135742 132.0
302.160461 224.0
302.173218 156.0
302.254944 72.0
302.299927 60.0
302.362213 72.0
302.891937 40.0
302.919647 48.0
303.141388 48.0
303.984039 104.0
304.101166 80.0
304.591614 72.0
304.834808 52.0
311.486969 60.0
312.228577 136.0
312.39389 116.0
312.689453 128.0
316.551514 40.0
316.88092 56.0
318.804108 64.0
322.439148 116.0
324.01355 104.0
324.221375 48.0
325.214813 156.0
356.044128 48.0
358.821075 72.0
358.847473 132.0
382.965729 48.0
387.105408 68.0
390.496124 56.0
400.171448 104.0
408.443329 60.0
409.159607 68.0
409.31665 56.0
426.838989 56.0
435.816803 92.0
443.231415 72.0
487.866791 92.0
511.232605 56.0
515.570862 72.0
520.213379 100.0
539.402954 104.0
559.391907 80.0
591.099548 108.0
608.181396 68.0
614.307617 88.0
618.775085 156.0
633.250916 44.0
643.009583 60.0
649.698853 208.0
669.732239 176.0
684.02356 160.0
697.955627 44.0
701.799316 88.0
729.876221 176.0
730.613647 72.0
746.787476 92.0
755.285339 216.0
755.776245 76.0
764.287903 140.0
764.733643 156.0
765.449341 68.0
789.198425 176.0
793.666504 208.0
795.254089 44.0
801.090698 204.0
817.635437 176.0
820.990906 64.0
821.954956 188.0
822.594177 248.0
824.604736 188.0
826.491821 188.0
827.556458 96.0
830.008789 196.0
835.55127 172.0
837.84259 232.0
840.408203 80.0
844.047058 200.0
846.286316 180.0
848.644409 128.0
850.947815 32.0
857.509399 140.0
861.079956 184.0
861.780945 144.0
865.80542 128.0
866.162659 108.0
886.90387 136.0
888.694824 128.0
889.780884 164.0
889.970886 64.0
890.077759 160.0
893.745178 148.0
905.834656 72.0
912.231445 80.0
913.740906 136.0
913.939453 208.0
914.059814 112.0
914.336609 76.0
914.523193 140.0
915.673157 136.0
919.43512 260.0
923.87616 112.0
925.691895 196.0
928.249084 224.0
939.531555 80.0
940.752075 228.0
942.682129 216.0
945.935852 176.0
952.497009 64.0
952.669006 156.0
952.841003 192.0
956.056824 268.0
959.691162 204.0
962.801147 64.0
965.749207 160.0
970.294434 224.0
973.775513 176.0
978.46405 140.0
979.01825 72.0
979.385681 184.0
980.613098 212.0
982.951721 84.0
983.594482 188.0
986.686707 156.0
987.243225 180.0
992.641113 196.0
994.862183 132.0
995.9422 184.0
996.463623 128.0
998.758118 120.0
998.934265 160.0
998.997131 148.0
999.796204 108.0
1000.280884 56.0
1003.978394 140.0
1004.155884 116.0
1005.121033 180.0
1005.695312 96.0
1006.257141 208.0
1006.755981 220.0
1009.302551 164.0
1009.517578 160.0
1011.567444 176.0
1013.4104 104.0
1013.473755 156.0
1016.092224 152.0
1018.313965 144.0
1021.396606 228.0
1021.771912 220.0
1022.770996 164.0
1023.853333 136.0
1024.229126 168.0
1024.388428 244.0
1028.048096 164.0
1028.099121 188.0
1029.61853 152.0
1030.314697 136.0
1030.608643 168.0
1032.193848 188.0
1034.983643 160.0
1037.116943 208.0
1039.252441 184.0
1039.393555 200.0
1040.0354 160.0
1040.54895 208.0
1041.589233 228.0
1041.897583 152.0
1043.632812 128.0
1043.735718 200.0
1047.526489 120.0
1051.207886 116.0
1054.701782 176.0
1056.111328 136.0
1057.923218 124.0
1058.810181 188.0
1059.172974 144.0
1061.752441 232.0
1063.731445 168.0
1067.350098 160.0
1067.662231 136.0
1069.403931 180.0
1070.427979 144.0
1070.538696 224.0
1070.929443 148.0
1073.288452 88.0
1075.49353 180.0
1077.544678 184.0
1077.746582 220.0
1078.13208 128.0
1078.373901 232.0
1080.446777 188.0
1083.477905 120.0
1084.736084 156.0
1087.175903 72.0
1087.221802 200.0
1087.287476 180.0
1087.536865 204.0
1088.213013 148.0
1091.28125 212.0
1094.241943 112.0
1095.374634 152.0
1099.132568 148.0
1099.647339 108.0
1100.72998 80.0
1102.480469 180.0
1103.723267 220.0
1104.01416 200.0
1104.245728 40.0
1105.284302 192.0
1114.81311 164.0
1116.275635 200.0
1116.60144 124.0
1116.880859 124.0
1118.531006 176.0
1120.781982 92.0
1125.998535 228.0
1127.167603 156.0
1127.214478 40.0
1130.056152 176.0
1130.303711 36.0
1131.300903 164.0
1131.72937 184.0
1131.890137 208.0
1132.633545 188.0
1133.310059 208.0
1133.417358 140.0
1135.039429 220.0
1138.146118 184.0
1138.535645 180.0
1142.185181 180.0
1143.335693 208.0
1143.416382 224.0
1147.69397 124.0
1149.616455 204.0
1150.966431 224.0
1156.6521 224.0
1157.776001 196.0
1158.114624 56.0
1158.819092 156.0
1159.259521 188.0
1160.445801 192.0
1160.594971 120.0
1160.683105 148.0
1160.744141 84.0
1162.446777 180.0
1164.510498 164.0
1164.829712 140.0
1164.897705 188.0
1166.5625 112.0
1166.888916 224.0
1167.065674 236.0
1168.507568 236.0
1168.71167 180.0
1169.426147 168.0
1170.038818 168.0
1170.474609 116.0
1171.339478 152.0
1171.482544 224.0
1175.225464 124.0
1175.286865 132.0
1175.655273 184.0
1175.812256 160.0
1178.024536 152.0
1178.632568 140.0
1180.067871 164.0
1181.011597 160.0
1181.168945 152.0
1181.606689 164.0
1182.359375 132.0
1184.749023 52.0
1185.235474 156.0
1186.894287 192.0
1188.535889 196.0
1189.480713 160.0
1190.174072 232.0
1190.593018 52.0
1191.321045 84.0
1191.953125 176.0
1193.850342 192.0
1193.946655 100.0
1194.944092 156.0
1195.36377 228.0
1195.673462 144.0
1196.07959 96.0
1198.662109 104.0
1198.786255 104.0
1199.820068 176.0
1201.233765 192.0
1203.462891 252.0
1203.566406 164.0
1204.063721 100.0
1206.288452 196.0
1208.383911 148.0
1209.920288 64.0
1214.674194 228.0
1215.839966 156.0
1216.166016 148.0
1217.867065 212.0
1218.110229 176.0
1219.117676 68.0
1220.716553 136.0
1221.488525 164.0
1222.16333 164.0
1226.181396 128.0
1226.439209 136.0
1226.606567 56.0
1226.655273 92.0
1227.003906 176.0
1228.380493 264.0
1231.14856 140.0
1231.721313 216.0
1232.231201 116.0
1233.153564 196.0
1236.370728 204.0
1238.12085 152.0
1238.800293 144.0
1238.968384 52.0
1240.566284 152.0
1242.249268 76.0
1244.108887 48.0
1244.340576 216.0
1245.23938 180.0
1248.050293 148.0
1248.943359 132.0
1251.012207 260.0
1252.061279 164.0
1252.772705 184.0
1254.055176 192.0
1255.265869 208.0
1255.486328 100.0
1257.334717 64.0
1259.862427 180.0
1260.872925 200.0
1262.626221 172.0
1262.73938 104.0
1262.873657 148.0
1263.849976 128.0
1265.01062 200.0
1265.562866 156.0
1266.533081 76.0
1267.80835 112.0
1268.127197 180.0
1269.190552 124.0
1272.802246 192.0
1273.569214 208.0
1273.824951 164.0
1275.73645 148.0
1276.091919 72.0
1277.400513 208.0
1277.670776 188.0
1277.990967 136.0
1278.503296 112.0
1279.563843 144.0
1279.756104 232.0
1280.119263 240.0
1280.254517 164.0
1280.63916 192.0
1282.42749 40.0
1283.475464 192.0
1285.187256 108.0
1285.679688 180.0
1286.207764 144.0
1286.607544 44.0
1286.83606 180.0
1286.985962 164.0
1287.043091 144.0
1287.371582 44.0
1289.178955 184.0
1289.264648 184.0
1290.386841 180.0
1290.551392 132.0
1291.295044 152.0
1291.695557 120.0
1292.768799 232.0
1293.305542 176.0
1294.050049 48.0
1294.973755 120.0
1295.095581 148.0
1295.890747 172.0
1296.37085 188.0
1299.726685 120.0
1299.855835 116.0
1300.731445 212.0
1301.363159 232.0
1305.523682 52.0
1305.573975 64.0
1306.775269 224.0
1308.480957 156.0
1308.531372 248.0
1309.863647 132.0
1310.17334 176.0
1311.657837 56.0
1312.530151 144.0
1312.674316 92.0
1313.193604 216.0
1313.361328 220.0
1314.26123 228.0
1315.091187 156.0
1316.513428 152.0
1316.571167 180.0
1317.459595 176.0
1318.304932 192.0
1319.757935 92.0
1321.076294 204.0
1321.443115 72.0
1321.609497 48.0
1323.151123 116.0
1323.288696 160.0
1324.259033 180.0
1328.085938 196.0
1328.73877 180.0
1329.63855 188.0
1330.074097 212.0
1330.865356 64.0
1331.635132 168.0
1331.773071 204.0
1333.807617 224.0
1335.770874 228.0
1337.218872 156.0
1337.844849 172.0
1338.805908 212.0
1339.869385 172.0
1343.448853 212.0
1346.105591 132.0
1346.29541 164.0
1348.041382 224.0
1349.23999 288.0
1349.656738 32.0
1350.036987 204.0
1350.826904 184.0
1352.539185 124.0
1353.330933 164.0
1353.659302 36.0
1354.171997 176.0
1355.094971 192.0
1356.010986 120.0
1356.538696 176.0
1356.648682 208.0
1356.897949 60.0
1357.191162 160.0
1357.917114 248.0
1360.037598 212.0
1360.764282 156.0
1361.241577 168.0
1362.328613 200.0
1362.54895 200.0
1364.812744 204.0
1365.702515 248.0
1367.65979 172.0
1367.748047 208.0
1368.071899 128.0
1369.110107 144.0
1369.669922 160.0
1370.097168 148.0
1370.657104 176.0
1371.747803 192.0
1372.249146 204.0
1372.389282 164.0
1372.588257 44.0
1373.524902 156.0
1374.048706 104.0
1374.461914 188.0
1374.638916 140.0
1374.749634 176.0
1375.539429 108.0
1377.141724 164.0
1378.574951 144.0
1379.313965 140.0
1380.630005 176.0
1383.456421 196.0
1383.856201 184.0
1385.530029 240.0
1385.796753 192.0
1386.115356 184.0
1386.21167 140.0
1386.411743 148.0
1386.797119 168.0
1387.545898 156.0
1388.079712 140.0
1388.902954 204.0
1388.991943 196.0
1391.158691 108.0
1391.916016 72.0
1392.057129 48.0
1392.265015 180.0
1392.822021 148.0
1393.520386 120.0
1396.419434 88.0
1396.927612 260.0
1397.721313 108.0
1398.688843 188.0
1399.395996 144.0
1403.702759 36.0
1404.33667 152.0
1404.515747 200.0
1404.620117 176.0
1405.142334 148.0
1406.64978 152.0
1407.403809 144.0
1407.635254 124.0
1407.695068 196.0
1408.875122 180.0
1409.988403 152.0
1412.126709 92.0
1412.635254 104.0
1413.46582 160.0
1413.884888 244.0
1415.674072 236.0
1415.921143 196.0
1419.983276 144.0
1421.048462 172.0
1421.491089 172.0
1421.971436 144.0
1422.309204 136.0
1422.872192 112.0
1423.952026 200.0
1424.426636 84.0
1424.682129 164.0
1425.065186 80.0
1426.989258 208.0
1427.124634 228.0
1427.906738 184.0
1428.628784 132.0
1428.989868 196.0
1429.245728 184.0
1429.764893 92.0
1429.981689 160.0
1430.163818 168.0
1431.669556 160.0
1432.068726 136.0
1432.724121 184.0
1433.922119 180.0
1434.871948 140.0
1435.188599 164.0
1436.168945 128.0
1436.266968 200.0
1437.44397 128.0
1438.077881 64.0
1439.70105 200.0
1440.086182 180.0
1440.758545 176.0
1441.000244 116.0
1442.609985 104.0
1442.957764 176.0
1444.893799 136.0
1445.726196 196.0
1446.384644 152.0
1446.490601 180.0
1448.239746 152.0
1449.57312 84.0
1449.656372 152.0
1451.748657 268.0
1452.00647 60.0
1453.19751 104.0
1453.796875 152.0
1453.918335 136.0
1455.186035 208.0
1457.373413 140.0
1457.669678 108.0
1457.852173 148.0
1459.12146 132.0
1459.767822 240.0
1460.946655 224.0
1462.301147 156.0
1462.361938 72.0
1463.785645 80.0
1463.892212 44.0
1465.468872 176.0
1466.177612 60.0
1466.970337 160.0
1467.976685 136.0
1468.762207 208.0
1468.952393 156.0
1469.311523 184.0
1469.754028 224.0
1470.883545 52.0
1471.547607 156.0
1473.273682 120.0
1473.441772 244.0
1473.647949 172.0
1474.564941 164.0
1475.382935 160.0
1475.749878 152.0
1476.063354 152.0
1476.614014 40.0
1478.717896 108.0
1479.437378 144.0
1479.559937 172.0
1480.187744 32.0
1480.953613 188.0
1481.18335 168.0
1481.351929 192.0
1482.915039 196.0
1487.44043 184.0
1487.662964 228.0
1491.680542 244.0
1491.942017 196.0
1492.334106 196.0
1493.32605 228.0
1493.426025 192.0
1494.626099 104.0
1494.703125 112.0
1494.756958 220.0
1495.218628 208.0
1495.849854 128.0
1496.950806 212.0
1497.112549 68.0
1497.666992 188.0
1498.329468 196.0
1499.832153 168.0
1500.649292 120.0
1500.81897 168.0
1501.458984 152.0
1501.744385 168.0
1502.301025 232.0
1502.841064 152.0
1503.446899 232.0
1503.812134 40.0
