>compound MLS000069729-01!603-50-9
>formula C22H19NO4
>ionization [M+H]+
>parentmass 362.137146
#inchi InChI=1S/C22H19NO4/c1-15(24)26-19-10-6-17(7-11-19)22(21-5-3-4-14-23-21)18-8-12-20(13-9-18)27-16(2)25/h3-14,22H,1-2H3
#inchikey KHOITXIGCFIULA
#Ion_Source LC-ESI
#Instrument qTof
#Compound_Source NIH Pharmacologically Active Library
#PI Dorrestein
#Data_Collector VP/LMS
#Scan -1
#Precursor_MZ 362.138
#ExactMass 361.131
#Charge 1
#CAS_Number N/A
#Pubmed_ID N/A
#Smiles CC(=O)Oc1ccc(cc1)C(c2ccc(OC(=O)C)cc2)c3ccccn3
#INCHI_AUX N/A
#Library_Class 1
#SpectrumID CCMSLIB00000085931
#IonMode Positive
#UpdateWorkflowName UPDATE-SINGLE-ANNOTATED-GOLD
#LibraryQualityString Gold
#TaskID d252d724072548979f1f6f1ced849daf
##Scan# 1817
#SpectrumFile p4-H03_GH3_01_18411.mzXML
#LibraryName Pharm_Active_Library.mgf
#MQScore -1
#Organism Pharm_Active_Library
#TIC_Query 0
#RT_Query -1
#MZErrorPPM -1
#SharedPeaks 0
#MassDiff 0
#LibMZ -1
#SpecMZ 362.138
#SpecCharge 0
#internalFilename spec-00000.mgf

>collision 10
44.902779 92.0
44.92012 152.0
44.94165 168.0
44.96093 164.0
45.009007 248.0
45.036255 132.0
45.053619 144.0
45.080345 112.0
45.09861 180.0
45.115097 100.0
45.144512 216.0
45.163292 96.0
45.177952 132.0
45.205235 360.0
45.250889 352.0
45.282364 156.0
45.294834 168.0
45.309155 132.0
45.318531 344.0
45.338013 236.0
45.350304 96.0
45.370258 228.0
45.397621 64.0
45.416397 196.0
45.441353 180.0
45.462399 112.0
45.503544 64.0
45.518398 144.0
45.538544 160.0
45.55735 172.0
45.600349 176.0
45.615036 108.0
45.646122 296.0
45.673748 116.0
45.715168 140.0
45.740238 148.0
45.749664 148.0
45.772552 128.0
45.796795 116.0
45.811001 144.0
45.828289 116.0
45.840034 468.0
45.848263 140.0
45.87495 212.0
45.890354 160.0
45.915401 204.0
45.964279 156.0
45.974766 120.0
45.994362 100.0
46.01141 136.0
46.02961 172.0
46.036007 220.0
46.057526 364.0
46.087578 204.0
46.095448 236.0
46.107117 180.0
46.130508 144.0
46.145325 76.0
46.15543 168.0
46.192486 192.0
46.21579 200.0
46.234249 188.0
46.258614 172.0
46.269444 128.0
46.303558 164.0
46.318222 136.0
46.34478 180.0
46.348923 112.0
46.352829 256.0
46.368328 152.0
46.38221 188.0
46.39468 148.0
46.406288 120.0
46.420116 100.0
46.441376 160.0
46.461895 96.0
46.475464 192.0
46.494923 164.0
46.509682 168.0
46.544689 368.0
46.578026 188.0
46.606522 152.0
46.616405 212.0
46.636227 308.0
46.650818 180.0
46.661545 188.0
46.673782 208.0
46.687382 200.0
46.698261 212.0
46.730911 200.0
46.763237 268.0
46.820503 216.0
46.842548 124.0
46.85743 156.0
46.860611 124.0
46.870682 160.0
46.89978 92.0
46.932545 124.0
46.947498 360.0
46.96114 152.0
46.97287 180.0
47.007496 196.0
47.034138 176.0
47.068993 168.0
47.085468 216.0
47.1003 164.0
47.115395 116.0
47.124958 176.0
47.137424 160.0
47.161945 124.0
47.189198 264.0
47.200138 184.0
47.21278 180.0
47.235695 156.0
47.247337 112.0
47.265884 140.0
47.287514 152.0
47.297977 164.0
47.328861 244.0
47.362411 100.0
47.393993 148.0
47.40937 128.0
47.430511 176.0
47.447315 160.0
47.465794 276.0
47.491814 156.0
47.52066 156.0
47.54879 56.0
47.564575 164.0
47.575558 128.0
47.612633 152.0
47.624992 172.0
47.658028 180.0
47.670334 120.0
47.680405 280.0
47.693699 104.0
47.707413 164.0
47.711464 160.0
47.731724 164.0
47.748695 116.0
47.777077 172.0
47.807854 140.0
47.818867 108.0
47.840889 216.0
47.850529 112.0
47.860165 144.0
47.878757 136.0
47.928787 132.0
47.933937 108.0
47.957981 128.0
47.989689 128.0
48.022785 148.0
48.040443 248.0
48.06712 332.0
48.087635 196.0
48.104198 80.0
48.127285 316.0
48.152325 192.0
48.180882 160.0
48.211971 244.0
48.228523 108.0
48.247875 112.0
48.267662 116.0
48.2859 160.0
48.300426 136.0
48.310108 144.0
48.322559 160.0
48.346085 108.0
48.366711 164.0
48.390381 172.0
48.413475 136.0
48.425003 264.0
48.440498 192.0
48.44342 188.0
48.455719 184.0
48.470718 128.0
48.495667 184.0
48.535698 180.0
48.549026 164.0
48.560833 160.0
48.577477 200.0
48.62645 164.0
48.647797 220.0
48.659359 152.0
48.676479 216.0
48.695736 168.0
48.709137 228.0
48.739922 256.0
48.760769 140.0
48.776184 132.0
48.787178 136.0
48.803864 136.0
48.827503 208.0
48.854481 204.0
48.867348 56.0
48.877789 136.0
48.899853 156.0
48.943462 296.0
48.97504 132.0
48.987579 292.0
49.005688 140.0
49.016838 180.0
49.029381 176.0
49.048893 164.0
49.084019 188.0
49.12001 52.0
49.144287 148.0
49.160007 144.0
49.164829 132.0
49.168846 160.0
49.191071 156.0
49.209328 120.0
49.221382 152.0
49.234428 152.0
49.243267 212.0
49.267239 224.0
49.279167 144.0
49.29258 140.0
49.307114 188.0
49.340519 196.0
49.363037 164.0
49.379818 260.0
49.403759 208.0
49.421787 148.0
49.445576 148.0
49.481209 300.0
49.491772 156.0
49.51054 160.0
49.528187 140.0
49.540794 112.0
49.550602 184.0
49.573021 172.0
49.58984 112.0
49.601051 52.0
49.628311 172.0
49.65028 184.0
49.673973 136.0
49.70063 212.0
49.729488 156.0
49.754951 216.0
49.765198 224.0
49.787666 240.0
49.8013 344.0
49.818241 156.0
49.842041 376.0
49.858421 300.0
49.879028 156.0
49.895863 192.0
49.904995 160.0
49.919769 176.0
49.97683 176.0
49.999538 188.0
50.018257 184.0
50.057678 176.0
50.077255 160.0
50.081581 144.0
50.110783 216.0
50.121349 160.0
50.138489 176.0
50.154892 56.0
50.176296 132.0
50.212704 172.0
50.226807 152.0
50.269135 152.0
50.280426 96.0
50.292446 172.0
50.327011 156.0
50.356735 84.0
50.369381 152.0
50.379993 156.0
50.399048 144.0
50.421516 160.0
50.424839 144.0
50.4291 196.0
50.447102 212.0
50.456997 76.0
50.482452 100.0
50.496593 140.0
50.511253 332.0
50.530544 108.0
50.5429 160.0
50.556496 176.0
50.574413 100.0
50.5914 188.0
50.61972 212.0
50.632965 260.0
50.657063 164.0
50.670494 156.0
50.689907 300.0
50.704952 148.0
50.738361 212.0
50.799725 76.0
50.823483 172.0
50.848129 176.0
50.890518 140.0
50.908134 212.0
50.923431 320.0
50.941685 128.0
50.95528 148.0
50.960697 84.0
50.965069 96.0
51.003773 156.0
51.03801 176.0
51.064606 76.0
51.07531 140.0
51.093594 136.0
51.097729 116.0
51.139339 164.0
51.185696 152.0
51.197716 60.0
51.234097 180.0
51.247112 292.0
51.256641 168.0
51.271797 160.0
51.285725 192.0
51.31144 148.0
51.333927 200.0
51.363052 172.0
51.381836 168.0
51.413845 528.0
51.43277 280.0
51.449429 160.0
51.474377 128.0
51.490372 160.0
51.501511 92.0
51.528656 108.0
51.548428 148.0
51.589298 268.0
51.610126 120.0
51.627285 156.0
51.637913 112.0
51.661133 356.0
51.674492 144.0
51.68737 168.0
51.707405 132.0
51.727604 320.0
51.741325 132.0
51.751591 100.0
51.770397 168.0
51.794693 108.0
51.813156 80.0
51.829132 80.0
51.847321 224.0
51.874905 240.0
51.886147 200.0
51.932873 188.0
51.951 160.0
51.981323 180.0
52.004704 132.0
52.010452 56.0
52.016903 156.0
52.021637 200.0
52.037666 292.0
52.093124 268.0
52.109203 208.0
52.138695 196.0
52.171913 160.0
52.191589 128.0
52.2038 144.0
52.226757 108.0
52.267826 140.0
52.287731 176.0
52.301636 132.0
52.325748 160.0
52.345898 156.0
52.36499 64.0
52.391651 236.0
52.39769 120.0
52.401581 200.0
52.432705 140.0
52.452263 176.0
52.468742 172.0
52.50605 156.0
52.552647 208.0
52.568405 128.0
52.601326 164.0
52.650593 320.0
52.672226 152.0
52.690834 168.0
52.71117 176.0
52.724373 132.0
52.76268 204.0
52.773354 152.0
52.777222 148.0
52.783051 100.0
52.788628 216.0
52.826904 288.0
52.84182 232.0
52.861015 208.0
52.87067 172.0
52.90575 224.0
52.921856 132.0
52.977573 364.0
53.000088 156.0
53.037403 168.0
53.05862 88.0
53.074902 296.0
53.095325 128.0
53.125298 172.0
53.129028 168.0
53.150085 132.0
53.190163 196.0
53.210732 152.0
53.231289 216.0
53.276558 144.0
53.30909 144.0
53.318386 164.0
53.354237 104.0
53.370789 212.0
53.398418 148.0
53.468586 160.0
53.490604 136.0
53.517433 220.0
53.522762 172.0
53.545177 288.0
53.558937 348.0
53.57782 176.0
53.596992 140.0
53.617355 168.0
53.632324 224.0
53.691166 72.0
53.707573 160.0
53.720337 320.0
53.74514 116.0
53.758274 140.0
53.778706 124.0
53.79829 164.0
53.807621 144.0
53.832726 40.0
53.84441 60.0
53.861027 72.0
53.867451 88.0
53.87151 196.0
53.894077 196.0
53.906403 188.0
53.932076 176.0
53.944935 156.0
53.978146 248.0
54.003723 128.0
54.026989 168.0
54.037445 240.0
54.041485 128.0
54.066639 32.0
54.079811 172.0
54.093288 152.0
54.112926 232.0
54.129585 284.0
54.141304 168.0
54.166595 232.0
54.196968 120.0
54.225174 196.0
54.246933 132.0
54.281013 224.0
54.29311 192.0
54.315723 132.0
54.333328 120.0
54.358273 288.0
54.367638 212.0
54.399612 192.0
54.410667 312.0
54.434605 156.0
54.461864 264.0
54.489582 180.0
54.522751 100.0
54.541328 188.0
54.566853 132.0
54.57814 244.0
54.618683 148.0
54.630093 140.0
54.646183 208.0
54.659519 84.0
54.680122 84.0
54.69379 180.0
54.735786 192.0
54.742783 128.0
54.761459 180.0
54.780251 280.0
54.818558 276.0
54.850674 172.0
54.86425 176.0
54.904064 136.0
54.933563 228.0
54.952919 168.0
54.994064 224.0
55.009033 172.0
55.0546 152.0
55.06789 184.0
55.085033 192.0
55.126781 260.0
55.155483 100.0
55.173477 204.0
55.203861 164.0
55.222527 316.0
55.254646 192.0
55.283566 164.0
55.311401 96.0
55.323093 168.0
55.347401 144.0
55.381298 180.0
55.406647 148.0
55.417019 164.0
55.428871 120.0
55.447819 112.0
55.461475 116.0
55.485916 144.0
55.505554 336.0
55.546665 196.0
55.577156 196.0
55.612774 140.0
55.626133 128.0
55.645164 200.0
55.66325 88.0
55.678101 184.0
55.707882 160.0
55.731583 144.0
55.743469 312.0
55.768024 168.0
55.799171 180.0
55.807274 104.0
55.813198 100.0
55.847492 128.0
55.864666 156.0
55.883244 396.0
55.902588 120.0
55.913822 212.0
55.917442 204.0
55.922398 296.0
55.93837 200.0
55.971066 132.0
55.985352 188.0
56.003319 256.0
56.015747 76.0
56.027863 180.0
56.044052 144.0
56.064915 216.0
56.092575 144.0
56.10854 184.0
56.132 136.0
56.153442 212.0
56.171444 188.0
56.193798 372.0
56.22348 212.0
56.236435 156.0
56.252968 164.0
56.30584 136.0
56.348434 272.0
56.360107 212.0
56.38015 176.0
56.396942 148.0
56.417492 156.0
56.457558 80.0
56.494953 132.0
56.512905 220.0
56.528664 188.0
56.532391 192.0
56.548294 316.0
56.583252 148.0
56.599773 152.0
56.63892 208.0
56.652145 232.0
56.691101 152.0
56.712856 132.0
56.736584 244.0
56.759541 208.0
56.765396 136.0
56.815556 212.0
56.848827 208.0
56.867405 84.0
56.888309 144.0
56.905739 184.0
56.917099 220.0
56.932636 180.0
56.946156 116.0
56.960457 196.0
56.982208 168.0
56.997234 160.0
57.009254 112.0
57.031799 316.0
57.057354 160.0
57.067879 200.0
57.104908 180.0
57.134747 156.0
57.144588 216.0
57.156628 116.0
57.174686 184.0
57.203285 172.0
57.214905 200.0
57.232273 268.0
57.24659 192.0
57.254982 108.0
57.280567 272.0
57.312019 344.0
57.328297 232.0
57.349098 220.0
57.375801 132.0
57.420837 200.0
57.443478 188.0
57.46978 168.0
57.48061 144.0
57.492683 108.0
57.519852 188.0
57.530418 120.0
57.542496 40.0
57.572834 176.0
57.588394 172.0
57.602905 144.0
57.626934 128.0
57.632706 116.0
57.635315 212.0
57.647789 164.0
57.703445 192.0
57.7146 232.0
57.724461 448.0
57.748016 164.0
57.760788 144.0
57.788578 236.0
57.813072 172.0
57.826397 184.0
57.841831 172.0
57.877373 128.0
57.893311 80.0
57.912476 104.0
57.947559 64.0
57.979485 200.0
57.990135 176.0
58.023354 180.0
58.044853 36.0
58.060017 220.0
58.102352 132.0
58.134354 148.0
58.158638 104.0
58.194553 152.0
58.20874 180.0
58.226181 124.0
58.256672 344.0
58.267979 264.0
58.318127 204.0
58.330288 96.0
58.35157 208.0
58.378883 208.0
58.396431 184.0
58.414448 116.0
58.465656 148.0
58.480732 124.0
58.496101 60.0
58.51646 156.0
58.531166 124.0
58.541779 168.0
58.563099 160.0
58.576809 68.0
58.605755 180.0
58.653412 208.0
58.657986 148.0
58.673847 172.0
58.711456 308.0
58.72797 48.0
58.752125 140.0
58.779591 200.0
58.806519 372.0
58.818958 176.0
58.844341 228.0
58.860493 196.0
58.878819 200.0
58.889511 192.0
58.913696 120.0
58.947655 216.0
58.976604 140.0
58.991699 128.0
59.030117 132.0
59.047874 72.0
59.051193 128.0
59.092758 168.0
59.105377 140.0
59.118309 228.0
59.136127 240.0
59.152195 208.0
59.18314 116.0
59.193855 176.0
59.221569 168.0
59.24287 88.0
59.262787 164.0
59.289288 260.0
59.29884 160.0
59.315804 292.0
59.341305 352.0
59.365414 160.0
59.369797 124.0
59.383896 184.0
59.3937 124.0
59.406906 152.0
59.432606 160.0
59.4468 108.0
59.479031 108.0
59.500523 96.0
59.530415 316.0
59.568779 108.0
59.60437 164.0
59.632801 172.0
59.645664 152.0
59.683365 132.0
59.696663 228.0
59.732578 300.0
59.763351 164.0
59.801487 128.0
59.843082 180.0
59.848843 140.0
59.872364 240.0
59.900372 220.0
59.915184 208.0
59.934265 164.0
59.951218 384.0
60.0005 320.0
60.069763 172.0
60.086914 184.0
60.099133 152.0
60.119316 192.0
60.143139 184.0
60.147797 168.0
60.168713 104.0
60.207314 176.0
60.221214 288.0
60.231823 60.0
60.253548 344.0
60.301361 156.0
60.317017 176.0
60.335567 296.0
60.356976 232.0
60.370571 176.0
60.389061 88.0
60.398483 164.0
60.415775 172.0
60.438816 404.0
60.456905 244.0
60.471699 168.0
60.491821 220.0
60.50885 104.0
60.531658 208.0
60.535542 152.0
60.558403 144.0
60.572346 312.0
60.595585 200.0
60.615726 572.0
60.628124 152.0
60.659126 120.0
60.691074 184.0
60.730427 224.0
60.735779 148.0
60.742153 140.0
60.757633 200.0
60.804817 164.0
60.831318 352.0
60.852375 160.0
60.873711 132.0
60.878231 168.0
60.904301 256.0
60.950169 128.0
60.96386 224.0
60.977898 120.0
61.006863 324.0
61.033939 212.0
61.051956 108.0
61.072174 100.0
61.093952 64.0
61.153893 112.0
61.173321 52.0
61.232491 124.0
61.245525 152.0
61.262085 164.0
61.275543 160.0
61.297428 180.0
61.357155 68.0
61.372746 180.0
61.414169 128.0
61.434864 164.0
61.464775 108.0
61.480827 296.0
61.50211 176.0
61.52565 168.0
61.558937 264.0
61.572495 132.0
61.58551 204.0
61.609985 148.0
61.630295 168.0
61.661549 36.0
61.69125 140.0
61.719391 148.0
61.736595 340.0
61.753799 204.0
61.766991 92.0
61.78075 148.0
61.791862 144.0
61.843884 200.0
61.860203 104.0
61.880413 88.0
61.89465 148.0
61.920292 92.0
61.949619 288.0
61.968266 84.0
61.980629 144.0
61.992077 208.0
62.003563 136.0
62.049767 416.0
62.066418 136.0
62.095245 84.0
62.108494 188.0
62.139168 160.0
62.156013 76.0
62.161549 164.0
62.186245 184.0
62.203472 316.0
62.222637 176.0
62.252186 112.0
62.27103 140.0
62.316452 232.0
62.342743 516.0
62.355057 192.0
62.367447 144.0
62.391342 128.0
62.403862 164.0
62.433849 188.0
62.459652 148.0
62.48151 152.0
62.505363 148.0
62.518963 128.0
62.530457 256.0
62.560368 152.0
62.588482 140.0
62.612328 252.0
62.623352 132.0
62.633942 156.0
62.673767 48.0
62.68795 148.0
62.733246 216.0
62.765282 140.0
62.78569 108.0
62.803837 380.0
62.83617 140.0
62.847214 128.0
62.883511 176.0
62.895195 408.0
62.960365 248.0
62.980965 164.0
63.005936 296.0
63.019321 76.0
63.050709 172.0
63.08923 120.0
63.103092 188.0
63.129974 124.0
63.157337 120.0
63.177242 204.0
63.212238 156.0
63.242538 164.0
63.268578 168.0
63.294155 224.0
63.323059 104.0
63.338898 204.0
63.372803 180.0
63.397217 208.0
63.418591 164.0
63.454109 80.0
63.468857 236.0
63.489471 124.0
63.51009 136.0
63.521046 84.0
63.543407 140.0
63.571968 140.0
63.624348 92.0
63.65134 156.0
63.662457 184.0
63.675163 156.0
63.68787 96.0
63.725998 172.0
63.753838 100.0
63.773674 204.0
63.807625 156.0
63.829315 192.0
63.845219 192.0
63.868824 152.0
63.884335 244.0
63.905666 112.0
63.923172 144.0
63.939976 136.0
63.958187 260.0
64.020973 156.0
64.037796 288.0
64.052818 356.0
64.087006 108.0
64.092628 96.0
64.097305 148.0
64.116104 192.0
64.131531 116.0
64.171661 160.0
64.197174 168.0
64.211998 108.0
64.239037 180.0
64.276939 88.0
64.293823 172.0
64.315239 144.0
64.336578 216.0
64.368797 140.0
64.407852 220.0
64.443954 268.0
64.470001 152.0
64.488586 172.0
64.511726 312.0
64.526115 100.0
64.546684 176.0
64.580574 144.0
64.597427 192.0
64.616081 160.0
64.64608 72.0
64.663063 340.0
64.684494 136.0
64.714699 88.0
64.732529 188.0
64.782738 284.0
64.867226 176.0
64.914337 144.0
64.931549 408.0
64.957199 160.0
64.987396 132.0
65.012375 192.0
65.036545 112.0
65.064438 148.0
65.088524 208.0
65.110596 140.0
65.131798 296.0
65.155983 36.0
65.185257 156.0
65.207405 244.0
65.234734 140.0
65.251312 140.0
65.347702 200.0
65.368233 160.0
65.387543 104.0
65.398811 48.0
65.422958 264.0
65.445694 160.0
65.459824 116.0
65.478447 252.0
65.509827 244.0
65.54567 136.0
65.600906 332.0
65.632812 160.0
65.663193 184.0
65.684998 408.0
65.708221 128.0
65.742867 220.0
65.749245 104.0
65.755585 160.0
65.770401 136.0
65.776436 192.0
65.790321 288.0
65.819588 100.0
65.85997 152.0
65.880371 228.0
65.892532 152.0
65.910789 192.0
65.969704 168.0
66.008659 132.0
66.101425 160.0
66.120285 104.0
66.152657 336.0
66.172638 124.0
66.19799 160.0
66.219048 140.0
66.232002 108.0
66.249863 152.0
66.26226 352.0
66.274124 148.0
66.300255 160.0
66.33651 196.0
66.400536 188.0
66.425072 192.0
66.452278 160.0
66.480072 108.0
66.512398 144.0
66.548248 108.0
66.564995 204.0
66.583656 144.0
66.594765 132.0
66.606857 136.0
66.610359 180.0
66.626205 128.0
66.639206 160.0
66.655899 116.0
66.695045 356.0
66.707466 224.0
66.736427 196.0
66.754616 156.0
66.772507 96.0
66.785515 160.0
66.803413 152.0
66.824562 188.0
66.835953 184.0
66.8685 76.0
66.886398 176.0
66.920593 192.0
66.945374 128.0
66.976738 368.0
67.012146 344.0
67.040565 196.0
67.052544 372.0
67.076988 120.0
67.11396 172.0
67.128456 248.0
67.148125 224.0
67.170731 144.0
67.200935 104.0
67.221191 132.0
67.245003 268.0
67.25705 188.0
67.277649 112.0
67.289078 136.0
67.30555 164.0
67.343025 148.0
67.363068 236.0
67.380142 216.0
67.393425 144.0
67.414177 164.0
67.425713 292.0
67.437737 136.0
67.476967 96.0
67.505127 200.0
67.521729 324.0
67.546883 308.0
67.57222 100.0
67.588188 164.0
67.599602 144.0
67.601799 140.0
67.630745 264.0
67.66185 176.0
67.681496 48.0
67.710968 132.0
67.724075 156.0
67.74865 180.0
67.76358 152.0
67.776497 120.0
67.794525 112.0
67.833862 120.0
67.855179 184.0
67.898643 252.0
67.920105 180.0
67.940903 104.0
67.946625 100.0
67.952507 152.0
67.973251 148.0
68.011024 132.0
68.02636 176.0
68.048271 168.0
68.080292 192.0
68.104614 160.0
68.11776 136.0
68.144653 216.0
68.158836 128.0
68.178795 192.0
68.210114 372.0
68.224579 104.0
68.243988 164.0
68.263237 168.0
68.278839 116.0
68.296936 88.0
68.310089 224.0
68.34668 168.0
68.397308 116.0
68.418289 140.0
68.440109 164.0
68.455948 200.0
68.469757 160.0
68.522469 192.0
68.535652 48.0
68.568214 140.0
68.581245 108.0
68.594452 160.0
68.613937 160.0
68.629028 172.0
68.6474 96.0
68.664154 340.0
68.693832 216.0
68.705925 176.0
68.730225 136.0
68.754974 228.0
68.804497 232.0
68.82431 104.0
68.835869 144.0
68.860641 136.0
68.874916 224.0
68.878319 108.0
68.932083 132.0
68.951515 220.0
68.970497 132.0
69.020027 176.0
69.062294 112.0
69.11129 168.0
69.137352 164.0
69.17894 168.0
69.196335 36.0
69.211235 168.0
69.248398 160.0
69.261169 320.0
69.277489 148.0
69.300682 176.0
69.345428 188.0
69.360344 48.0
69.373604 168.0
69.39019 112.0
69.40345 48.0
69.423347 132.0
69.448837 164.0
69.478416 240.0
69.507843 180.0
69.525826 224.0
69.547409 160.0
69.551514 212.0
69.569366 284.0
69.584305 248.0
69.610634 164.0
69.634125 184.0
69.656242 240.0
69.663254 172.0
69.683266 364.0
69.705566 136.0
69.717194 124.0
69.728828 128.0
69.742126 164.0
69.778847 184.0
69.830032 148.0
69.875168 192.0
69.930084 244.0
69.963814 136.0
69.975899 168.0
69.993912 164.0
70.023888 236.0
70.045189 156.0
70.10244 196.0
70.141464 164.0
70.183304 156.0
70.199982 144.0
70.224022 180.0
70.250565 128.0
70.267944 156.0
70.28672 192.0
70.302223 224.0
70.320099 116.0
70.333458 216.0
70.378464 196.0
70.41861 292.0
70.448219 128.0
70.473183 156.0
70.493073 224.0
70.511955 152.0
70.567062 192.0
70.585732 132.0
70.610817 88.0
70.649292 124.0
70.671043 76.0
70.703102 204.0
70.719086 136.0
70.740944 256.0
70.774818 156.0
70.786545 116.0
70.808487 192.0
70.821602 124.0
70.838463 160.0
70.857002 124.0
70.888733 60.0
70.902138 400.0
70.931068 236.0
70.950783 180.0
70.96492 168.0
70.984283 124.0
71.014961 316.0
71.031013 144.0
71.053055 196.0
71.06604 272.0
71.08049 136.0
71.103561 164.0
71.158791 124.0
71.209167 164.0
71.238785 248.0
71.253311 244.0
71.27301 128.0
71.287437 164.0
71.307777 116.0
71.34024 172.0
71.369026 160.0
71.405884 96.0
71.434135 160.0
71.441673 88.0
71.447174 212.0
71.461334 176.0
71.484886 128.0
71.500038 180.0
71.526962 164.0
71.614525 128.0
71.640656 152.0
71.657173 240.0
71.679298 212.0
71.694885 144.0
71.729614 212.0
71.754074 188.0
71.776367 372.0
71.810287 224.0
71.83535 196.0
71.854965 204.0
71.899223 132.0
71.904091 124.0
71.956856 132.0
72.00161 164.0
72.026009 148.0
72.054817 44.0
72.077797 184.0
72.118011 152.0
72.139427 128.0
72.16021 112.0
72.172646 180.0
72.186607 128.0
72.221199 172.0
72.239098 96.0
72.264473 172.0
72.279701 152.0
72.294182 108.0
72.351646 196.0
72.424843 152.0
72.446564 292.0
72.460876 188.0
72.48394 332.0
72.490303 164.0
72.494072 208.0
72.510452 172.0
72.531677 200.0
72.548386 132.0
72.560875 128.0
72.606377 260.0
72.639748 156.0
72.7239 156.0
72.74749 84.0
72.766167 148.0
72.810966 136.0
72.828293 144.0
72.83828 156.0
72.862892 152.0
72.87188 196.0
72.896957 176.0
72.913956 96.0
72.92585 152.0
72.94455 176.0
72.969719 176.0
72.988983 120.0
73.007462 196.0
73.01918 148.0
73.036377 188.0
73.071205 76.0
73.089516 164.0
73.132027 56.0
73.14698 168.0
73.172661 148.0
73.209373 156.0
73.237228 128.0
73.249153 124.0
73.267838 120.0
73.284935 196.0
73.311638 292.0
73.350037 80.0
73.37323 144.0
73.407349 140.0
73.443062 180.0
73.458939 320.0
73.479309 136.0
73.492958 196.0
73.510017 160.0
73.523674 176.0
73.538986 144.0
73.559517 116.0
73.589233 216.0
73.612442 76.0
73.641228 136.0
73.660271 80.0
73.701668 172.0
73.704987 208.0
73.72007 72.0
73.738869 164.0
73.779518 200.0
73.800117 180.0
73.825356 252.0
73.855637 220.0
73.920151 80.0
73.952667 152.0
73.974922 132.0
74.00425 348.0
74.016014 136.0
74.043411 116.0
74.067062 332.0
74.15992 112.0
74.189499 188.0
74.251434 160.0
74.28273 308.0
74.30999 228.0
74.326904 208.0
74.346619 168.0
74.37188 168.0
74.393211 324.0
74.406052 168.0
74.431023 344.0
74.453308 44.0
74.469994 212.0
74.526604 120.0
74.540878 156.0
74.582176 88.0
74.612724 140.0
74.645782 208.0
74.668816 144.0
74.690025 216.0
74.695312 156.0
74.70842 164.0
74.803169 124.0
74.827118 156.0
74.842644 280.0
74.867233 100.0
74.889389 236.0
74.920425 192.0
74.944534 108.0
74.972878 228.0
74.988342 164.0
75.014244 148.0
75.041 376.0
75.051491 152.0
75.079536 208.0
75.093559 168.0
75.125031 192.0
75.131165 152.0
75.162567 168.0
75.183792 108.0
75.202263 284.0
75.307297 168.0
75.330528 100.0
75.352104 156.0
75.372772 208.0
75.39743 164.0
75.416443 164.0
75.464935 152.0
75.492371 120.0
75.526901 204.0
75.542114 248.0
75.56636 168.0
75.587708 140.0
75.616753 212.0
75.636124 160.0
75.649895 192.0
75.677719 136.0
75.707108 156.0
75.726158 92.0
75.738289 80.0
75.754745 144.0
75.78318 232.0
75.81279 240.0
75.824921 104.0
75.849884 216.0
75.863968 156.0
75.872414 80.0
75.879105 108.0
75.909866 112.0
75.926346 160.0
75.953728 236.0
75.970932 176.0
76.019478 152.0
76.039474 192.0
76.065544 204.0
76.085114 124.0
76.109428 388.0
76.128784 152.0
76.175423 88.0
76.198006 148.0
76.210167 144.0
76.234985 200.0
76.262306 184.0
76.286644 100.0
76.301399 168.0
76.3162 168.0
76.345764 244.0
76.359108 172.0
76.395622 192.0
76.417084 136.0
76.439705 184.0
76.455658 164.0
76.470459 160.0
76.475929 108.0
76.480125 140.0
76.502815 168.0
76.513985 112.0
76.520432 168.0
76.573753 92.0
76.599716 212.0
76.61657 256.0
76.634727 164.0
76.658981 352.0
76.674805 148.0
76.714348 76.0
76.747154 180.0
76.75824 132.0
76.78688 200.0
76.839424 168.0
76.866638 76.0
76.878853 160.0
76.901543 172.0
76.922569 176.0
76.94693 164.0
76.984924 216.0
76.991356 164.0
76.995094 124.0
77.015884 132.0
77.05957 376.0
77.104149 228.0
77.128967 376.0
77.151596 140.0
77.184753 148.0
77.215271 172.0
77.23703 132.0
77.26152 224.0
77.298264 172.0
77.322769 52.0
77.363029 92.0
77.401649 132.0
77.421463 168.0
77.455841 120.0
77.487709 332.0
77.500977 168.0
77.513657 108.0
77.538193 88.0
77.582985 220.0
77.617081 72.0
77.660927 164.0
77.697418 184.0
77.714005 356.0
77.738121 148.0
77.758179 140.0
77.762863 164.0
77.784195 96.0
77.802696 172.0
77.901413 528.0
77.940025 244.0
77.972946 152.0
77.987518 136.0
78.003769 164.0
78.021904 200.0
78.050804 96.0
78.075424 116.0
78.10807 136.0
78.128197 184.0
78.148087 300.0
78.173943 204.0
78.19986 160.0
78.222198 116.0
78.236923 164.0
78.267616 152.0
78.311272 180.0
78.355309 168.0
78.378212 400.0
78.402885 140.0
78.42894 128.0
78.44603 484.0
78.46714 204.0
78.499107 324.0
78.534416 156.0
78.609177 148.0
78.640205 144.0
78.667419 140.0
78.690422 132.0
78.709839 188.0
78.735016 156.0
78.746002 76.0
78.777351 108.0
78.826431 240.0
78.856476 144.0
78.888908 196.0
78.927147 172.0
78.967796 404.0
79.001472 100.0
79.019043 176.0
79.033936 252.0
79.047478 204.0
79.091415 296.0
79.109085 168.0
79.121361 108.0
79.167778 252.0
79.19442 208.0
79.229042 228.0
79.265289 172.0
79.28923 196.0
79.338226 212.0
79.364555 128.0
79.390503 200.0
79.419167 156.0
79.455009 92.0
79.484863 168.0
79.513474 144.0
79.519753 116.0
79.526741 200.0
79.546906 112.0
79.572151 176.0
79.587471 292.0
79.626785 224.0
79.65329 64.0
79.689377 92.0
79.726692 104.0
79.763176 152.0
79.796364 168.0
79.812019 520.0
79.833359 144.0
79.859055 320.0
79.874268 128.0
79.894753 256.0
79.909851 164.0
79.933022 192.0
79.952553 116.0
79.979256 64.0
79.998833 112.0
80.019592 248.0
80.046043 164.0
80.062248 156.0
80.090134 256.0
80.150467 148.0
80.16983 136.0
80.202713 212.0
80.2285 188.0
80.233002 172.0
80.301552 104.0
80.308662 92.0
80.31514 184.0
80.338921 140.0
80.38427 164.0
80.407028 188.0
80.424873 488.0
80.439156 200.0
80.472679 416.0
80.489143 56.0
80.507004 200.0
80.546295 192.0
80.573097 108.0
80.601685 100.0
80.629379 184.0
80.695244 384.0
80.713837 124.0
80.716705 92.0
80.7257 64.0
80.751854 128.0
80.773323 128.0
80.839478 164.0
80.861481 132.0
80.880875 188.0
80.914696 216.0
80.933807 172.0
80.954094 144.0
80.968987 440.0
80.991707 136.0
81.02726 184.0
81.047241 48.0
81.085609 204.0
81.105911 136.0
81.127892 172.0
81.14193 324.0
81.219353 152.0
81.24469 128.0
81.253265 124.0
81.257889 240.0
81.283127 212.0
81.301514 168.0
81.344963 188.0
81.357529 104.0
81.379135 116.0
81.406006 156.0
81.430977 328.0
81.445518 116.0
81.468872 228.0
81.490562 176.0
81.515175 360.0
81.539772 144.0
81.565918 188.0
81.58799 172.0
81.605644 80.0
81.649597 376.0
81.693596 44.0
81.721825 116.0
81.742172 92.0
81.780891 132.0
81.796036 164.0
81.819572 92.0
81.835777 168.0
81.862785 208.0
81.886147 396.0
81.917786 164.0
81.940239 172.0
81.954659 108.0
81.977264 164.0
82.005402 172.0
82.022629 100.0
82.036636 164.0
82.051987 128.0
82.084442 180.0
82.137344 252.0
82.154785 184.0
82.195045 192.0
82.232094 304.0
82.246819 152.0
82.26487 184.0
82.297691 160.0
82.326363 204.0
82.356873 164.0
82.378738 148.0
82.412964 148.0
82.432846 212.0
82.452721 96.0
82.476883 228.0
82.509308 184.0
82.523224 148.0
82.547745 148.0
82.561279 88.0
82.615807 200.0
82.646217 124.0
82.689606 148.0
82.700386 168.0
82.724045 164.0
82.740089 176.0
82.754822 108.0
82.777328 252.0
82.800415 136.0
82.825455 200.0
82.840958 136.0
82.863617 124.0
82.894165 160.0
82.928734 116.0
82.966316 208.0
82.986748 196.0
83.0084 352.0
83.053848 132.0
83.065826 188.0
83.086853 248.0
83.105301 196.0
83.13179 100.0
83.187141 132.0
83.190514 192.0
83.210938 128.0
83.225395 152.0
83.244568 188.0
83.273476 140.0
83.303467 148.0
83.319496 36.0
83.347961 104.0
83.367615 176.0
83.416389 188.0
83.442802 244.0
83.459061 200.0
83.475204 88.0
83.493393 136.0
83.547096 216.0
83.569794 120.0
83.589813 168.0
83.602547 172.0
83.622566 192.0
83.638824 116.0
83.686821 176.0
83.695183 180.0
83.735451 200.0
83.75103 124.0
83.781105 132.0
83.870285 172.0
83.912216 168.0
83.928627 172.0
83.96241 76.0
83.975014 216.0
84.023468 232.0
84.057961 208.0
84.090988 232.0
84.116547 228.0
84.162338 236.0
84.181686 328.0
84.206017 72.0
84.223701 188.0
84.244255 256.0
84.263298 180.0
84.278481 180.0
84.322754 148.0
84.372307 192.0
84.397499 164.0
84.41436 180.0
84.427162 132.0
84.449104 228.0
84.478935 184.0
84.533073 188.0
84.554016 248.0
84.589218 112.0
84.637787 124.0
84.653015 260.0
84.671181 24.0
84.691872 172.0
84.70414 160.0
84.718193 132.0
84.745674 196.0
84.766495 256.0
84.795868 192.0
84.813484 112.0
84.828148 196.0
84.86972 160.0
84.902946 172.0
84.942108 196.0
84.984764 264.0
85.015236 128.0
85.034203 160.0
85.052696 224.0
85.067192 136.0
85.089615 148.0
85.111526 264.0
85.13298 224.0
85.152931 212.0
85.18544 212.0
85.233765 52.0
85.289032 112.0
85.307281 164.0
85.321083 380.0
85.357269 196.0
85.389702 168.0
85.408264 184.0
85.440804 200.0
85.466713 148.0
85.487534 76.0
85.509621 136.0
85.524345 136.0
85.574051 152.0
85.639427 136.0
85.654144 168.0
85.680183 100.0
85.686775 200.0
85.702988 100.0
85.771255 192.0
85.826485 132.0
85.848618 352.0
85.876282 152.0
85.898415 180.0
85.924194 164.0
85.947052 140.0
85.980774 156.0
86.010979 68.0
86.028282 192.0
86.068115 156.0
86.136543 168.0
86.187294 120.0
86.212303 184.0
86.228935 168.0
86.257507 128.0
86.283669 144.0
86.310272 200.0
86.345276 196.0
86.369087 140.0
86.386795 180.0
86.416771 188.0
86.432358 100.0
86.454567 32.0
86.491585 144.0
86.515755 144.0
86.541176 168.0
86.566742 128.0
86.58416 108.0
86.608238 184.0
86.645142 304.0
86.682823 116.0
86.745842 172.0
86.76355 188.0
86.789017 184.0
86.820213 152.0
86.848381 144.0
86.871468 112.0
86.895584 128.0
86.91671 188.0
86.931076 212.0
86.957726 132.0
86.990234 136.0
87.004402 152.0
87.009651 96.0
87.017174 196.0
87.034447 180.0
87.068222 80.0
87.089005 212.0
87.107231 76.0
87.127197 144.0
87.132202 108.0
87.139626 192.0
87.173805 144.0
87.198273 92.0
87.214668 220.0
87.231186 200.0
87.243355 144.0
87.28434 184.0
87.308701 152.0
87.324707 168.0
87.36377 68.0
87.379227 188.0
87.393539 100.0
87.40773 256.0
87.41922 184.0
87.455391 132.0
87.499634 132.0
87.516388 148.0
87.531937 216.0
87.587868 116.0
87.626228 172.0
87.68428 196.0
87.707024 208.0
87.720352 96.0
87.799637 124.0
87.815804 128.0
87.839561 180.0
87.86306 52.0
87.919418 132.0
87.952637 172.0
87.979958 208.0
87.999702 164.0
88.028549 224.0
88.069939 132.0
88.148743 280.0
88.170746 176.0
88.174576 136.0
88.196632 212.0
88.226738 192.0
88.275864 84.0
88.309525 96.0
88.328232 188.0
88.376099 212.0
88.39933 128.0
88.414299 144.0
88.445953 180.0
88.500626 176.0
88.524506 288.0
88.537865 140.0
88.577194 284.0
88.605751 148.0
88.637154 140.0
88.6679 232.0
88.687752 116.0
88.702751 48.0
88.734512 140.0
88.755241 144.0
88.773994 96.0
88.796501 104.0
88.817062 312.0
88.832138 144.0
88.852776 292.0
88.874672 120.0
88.893791 116.0
88.903732 132.0
88.939102 160.0
88.977798 72.0
88.9972 116.0
89.034714 132.0
89.082619 160.0
89.096848 136.0
89.113335 160.0
89.128914 184.0
89.168518 372.0
89.214378 148.0
89.23217 176.0
89.245331 116.0
89.263725 148.0
89.279793 196.0
89.297729 148.0
89.318474 152.0
89.341248 156.0
89.354416 136.0
89.378876 176.0
89.401459 184.0
89.427765 164.0
89.452278 148.0
89.476753 100.0
89.491302 160.0
89.512527 176.0
89.565262 212.0
89.578453 152.0
89.596924 204.0
89.615501 396.0
89.640106 160.0
89.657425 196.0
89.683975 132.0
89.699059 152.0
89.716019 160.0
89.740532 96.0
89.768814 160.0
89.783905 200.0
89.806229 172.0
89.812721 144.0
89.838531 108.0
89.854126 156.0
89.874191 200.0
89.921631 180.0
89.9431 172.0
89.97863 116.0
89.996979 184.0
90.01889 116.0
90.032211 140.0
90.048134 96.0
90.078354 48.0
90.096375 196.0
90.132469 336.0
90.150078 196.0
90.191734 168.0
90.21386 204.0
90.24984 196.0
90.282921 192.0
90.308708 204.0
90.313828 176.0
90.32132 128.0
90.334076 192.0
90.365936 176.0
90.40387 176.0
90.462242 164.0
90.511467 80.0
90.524719 116.0
90.537979 56.0
90.564278 176.0
90.602325 128.0
90.60611 124.0
90.645485 244.0
90.659721 168.0
90.677567 124.0
90.691177 220.0
90.710709 176.0
90.731255 172.0
90.765388 120.0
90.788139 184.0
90.803383 116.0
90.835075 140.0
90.854401 116.0
90.868393 104.0
90.915779 216.0
90.951317 152.0
90.964073 280.0
90.97789 160.0
91.000671 48.0
91.02346 156.0
91.045021 200.0
91.156433 240.0
91.181137 204.0
91.227623 176.0
91.264572 204.0
91.291618 180.0
91.323738 124.0
91.34417 172.0
91.369392 56.0
91.398026 172.0
91.420815 184.0
91.458832 44.0
91.472534 424.0
91.504822 128.0
91.531448 304.0
91.55545 156.0
91.577316 212.0
91.592125 156.0
91.611176 332.0
91.634041 140.0
91.653038 152.0
91.677864 76.0
91.694481 212.0
91.720619 176.0
91.750298 84.0
91.765549 84.0
91.790337 140.0
91.821716 300.0
91.843987 184.0
91.873039 208.0
91.891846 332.0
91.917717 196.0
91.930717 368.0
91.960953 112.0
91.976143 124.0
91.999283 148.0
92.016212 128.0
92.029411 228.0
92.054436 212.0
92.070869 268.0
92.105049 268.0
92.119041 308.0
92.137726 196.0
92.162567 132.0
92.194466 208.0
92.211678 172.0
92.24794 244.0
92.27932 144.0
92.315491 188.0
92.32888 216.0
92.368195 108.0
92.381096 200.0
92.402451 176.0
92.440887 124.0
92.475624 268.0
92.503845 180.0
92.524055 124.0
92.581497 232.0
92.608398 92.0
92.625183 124.0
92.654518 236.0
92.702194 268.0
92.718971 180.0
92.723839 136.0
92.74395 152.0
92.76313 192.0
92.800934 172.0
92.808762 196.0
92.83979 160.0
92.870911 180.0
92.888176 108.0
92.91375 132.0
92.928642 168.0
92.953407 164.0
92.977112 168.0
93.013863 48.0
93.071037 288.0
93.086075 108.0
93.139641 264.0
93.173553 196.0
93.191589 196.0
93.221481 120.0
93.243393 96.0
93.27137 152.0
93.302986 44.0
93.343361 204.0
93.378128 160.0
93.413391 208.0
93.457458 292.0
93.508247 144.0
93.529984 136.0
93.578033 196.0
93.598389 108.0
93.631874 128.0
93.638458 108.0
93.646172 164.0
93.672279 112.0
93.736069 204.0
93.763985 164.0
93.809235 112.0
93.835693 188.0
93.855774 160.0
93.898003 100.0
93.913437 164.0
93.961494 136.0
93.974434 116.0
93.98172 192.0
94.009171 200.0
94.06781 140.0
94.096764 100.0
94.116074 144.0
94.163925 232.0
94.193779 188.0
94.2229 156.0
94.280273 240.0
94.307335 184.0
94.344063 124.0
94.370392 168.0
94.41156 180.0
94.471786 180.0
94.489113 172.0
94.513199 276.0
94.537483 172.0
94.558777 96.0
94.574257 132.0
94.59742 112.0
94.625641 96.0
94.664902 208.0
94.679939 172.0
94.70369 204.0
94.706779 100.0
94.716354 304.0
94.765984 108.0
94.782173 284.0
94.800865 104.0
94.836441 156.0
94.873497 364.0
94.910683 252.0
94.957367 160.0
94.97924 104.0
95.009499 100.0
95.013641 60.0
95.036255 184.0
95.062614 160.0
95.087898 172.0
95.107704 156.0
95.116364 156.0
95.122566 172.0
95.163162 140.0
95.178757 144.0
95.185387 184.0
95.219101 256.0
95.233513 80.0
95.260712 144.0
95.289856 72.0
95.319794 196.0
95.351997 204.0
95.425903 108.0
95.459167 112.0
95.484245 136.0
95.51342 136.0
95.531517 148.0
95.587189 188.0
95.616547 148.0
95.634621 140.0
95.656349 112.0
95.683167 232.0
95.711166 172.0
95.741142 220.0
95.760941 140.0
95.805428 216.0
95.826103 196.0
95.848289 112.0
95.863876 160.0
95.899948 148.0
95.92321 200.0
95.987206 136.0
96.028793 204.0
96.068611 156.0
96.084213 448.0
96.117561 132.0
96.142647 148.0
96.145485 140.0
96.156708 240.0
96.174988 160.0
96.203262 52.0
96.21888 52.0
96.285278 140.0
96.314369 116.0
96.359894 160.0
96.39077 156.0
96.409805 108.0
96.429855 112.0
96.458748 164.0
96.496323 160.0
96.51001 180.0
96.524437 148.0
96.554321 164.0
96.578453 164.0
96.592148 232.0
96.62104 208.0
96.65345 324.0
96.688622 292.0
96.739334 168.0
96.788727 200.0
96.811363 120.0
96.827034 172.0
96.894417 180.0
96.931374 76.0
96.949684 132.0
96.977898 132.0
97.001579 144.0
97.028862 188.0
97.075424 156.0
97.107376 228.0
97.128334 328.0
97.155426 132.0
97.187737 232.0
97.203438 128.0
97.22213 152.0
97.260292 128.0
97.289902 160.0
97.331032 224.0
97.351013 176.0
97.400299 148.0
97.421425 356.0
97.442986 208.0
97.456741 84.0
97.475006 216.0
97.505875 244.0
97.52449 156.0
97.543221 136.0
97.580605 172.0
97.603683 148.0
97.617928 164.0
97.635628 140.0
97.651367 180.0
97.684807 136.0
97.724152 136.0
97.743828 160.0
97.78244 92.0
97.824524 128.0
97.852905 144.0
97.907227 32.0
97.921013 136.0
97.976257 336.0
98.008331 160.0
98.041191 60.0
98.076584 184.0
98.112717 84.0
98.137779 136.0
98.163414 252.0
98.193871 100.0
98.240341 80.0
98.280205 176.0
98.302162 180.0
98.321243 152.0
98.33506 144.0
98.37059 108.0
98.40612 232.0
98.424118 176.0
98.445786 188.0
98.49128 268.0
98.50444 148.0
98.52858 136.0
98.54438 64.0
98.604881 240.0
98.621948 112.0
98.663658 160.0
98.72229 156.0
98.740089 128.0
98.764397 140.0
98.81031 156.0
98.827133 68.0
98.884521 136.0
98.910248 96.0
98.926086 152.0
98.944939 192.0
98.9655 128.0
98.992256 244.0
99.038826 344.0
99.130379 140.0
99.159042 112.0
99.187576 100.0
99.209381 64.0
99.249031 180.0
99.276794 156.0
99.309952 168.0
99.322937 152.0
99.342842 188.0
99.370026 292.0
99.388878 120.0
99.401398 316.0
99.415665 128.0
99.475967 168.0
99.50753 216.0
99.523163 340.0
99.540733 104.0
99.555458 164.0
99.572197 164.0
99.597038 284.0
99.644485 204.0
99.66716 180.0
99.706757 204.0
99.728439 148.0
99.763725 160.0
99.793091 184.0
99.830872 128.0
99.865822 132.0
99.886559 160.0
99.914413 156.0
99.938286 128.0
99.965347 180.0
99.986046 184.0
100.008171 104.0
100.027847 224.0
100.046799 292.0
100.073639 40.0
100.087578 244.0
100.109482 80.0
100.130928 124.0
100.147324 220.0
100.161842 124.0
100.203957 260.0
100.230087 228.0
100.250107 156.0
100.27552 140.0
100.310112 264.0
100.317894 60.0
100.358139 204.0
100.379631 156.0
100.39904 188.0
100.426369 160.0
100.445091 176.0
100.539192 132.0
100.570038 164.0
100.59346 56.0
100.611954 160.0
100.62793 324.0
100.674828 148.0
100.689835 104.0
100.725204 152.0
100.733482 108.0
100.738068 136.0
100.793716 124.0
100.819695 184.0
100.843674 132.0
100.877663 152.0
100.897758 216.0
100.930687 328.0
100.96331 148.0
101.031647 160.0
101.060143 164.0
101.075668 100.0
101.091103 84.0
101.115692 84.0
101.143906 168.0
101.167336 424.0
101.201103 168.0
101.217789 140.0
101.240005 256.0
101.275871 224.0
101.298927 180.0
101.31752 172.0
101.325478 136.0
101.341187 352.0
101.363541 216.0
101.382057 184.0
101.400093 88.0
101.418137 148.0
101.454216 92.0
101.473015 128.0
101.498329 144.0
101.524399 68.0
101.545303 132.0
101.668404 184.0
101.715004 180.0
101.729057 104.0
101.753151 140.0
101.782295 272.0
101.795464 108.0
101.807686 176.0
101.855568 124.0
101.889908 172.0
101.923332 176.0
101.945984 172.0
101.960052 172.0
101.983261 168.0
102.01194 152.0
102.034431 284.0
102.04995 144.0
102.093224 392.0
102.109619 256.0
102.113495 100.0
102.12706 124.0
102.149063 124.0
102.194946 104.0
102.236565 204.0
102.300659 144.0
102.354347 148.0
102.377731 228.0
102.408081 228.0
102.455055 168.0
102.47319 356.0
102.494362 236.0
102.52034 260.0
102.546112 260.0
102.583694 188.0
102.636459 184.0
102.66069 152.0
102.677902 116.0
102.700996 100.0
102.729233 108.0
102.758286 168.0
102.775703 224.0
102.791122 164.0
102.820038 120.0
102.846275 108.0
102.887627 132.0
102.927933 152.0
102.949242 144.0
102.96434 176.0
102.981339 148.0
103.027679 156.0
103.057381 180.0
103.084557 204.0
103.114906 100.0
103.151291 176.0
103.169487 72.0
103.191727 92.0
103.220032 148.0
103.234192 180.0
103.267563 384.0
103.292847 300.0
103.309212 132.0
103.345444 160.0
103.385674 236.0
103.401703 120.0
103.438721 184.0
103.46627 144.0
103.487129 264.0
103.531403 116.0
103.549828 308.0
103.570168 144.0
103.624863 156.0
103.642838 156.0
103.649353 136.0
103.653618 168.0
103.683563 204.0
103.720116 248.0
103.734306 164.0
103.756599 164.0
103.77282 176.0
103.808624 116.0
103.827446 180.0
103.843803 408.0
103.860023 328.0
103.87867 168.0
103.913017 100.0
103.935089 116.0
103.962891 116.0
103.978493 176.0
103.995972 72.0
104.024391 144.0
104.089859 212.0
104.109673 156.0
104.12941 168.0
104.150612 204.0
104.166 120.0
104.188774 136.0
104.219841 204.0
104.256485 316.0
104.280647 156.0
104.296593 108.0
104.311974 156.0
104.373116 188.0
104.389542 156.0
104.416679 132.0
104.464928 164.0
104.494705 212.0
104.509636 196.0
104.55999 140.0
104.57869 64.0
104.603752 128.0
104.638367 104.0
104.68145 176.0
104.710724 428.0
104.772499 116.0
104.795197 112.0
104.85437 96.0
104.876251 160.0
104.901756 140.0
104.937874 208.0
104.962341 148.0
104.990135 184.0
105.014778 140.0
105.037804 80.0
105.069305 116.0
105.114532 56.0
105.15271 140.0
105.190399 332.0
105.229637 124.0
105.264954 136.0
105.281242 104.0
105.287651 176.0
105.321449 188.0
105.374657 232.0
105.425735 196.0
105.457825 160.0
105.465668 112.0
105.486687 172.0
105.535202 92.0
105.57444 136.0
105.623077 136.0
105.677605 164.0
105.694427 92.0
105.699242 140.0
105.729561 200.0
105.757072 140.0
105.771149 132.0
105.80825 108.0
105.823738 240.0
105.85701 180.0
105.866943 116.0
105.929344 92.0
105.975563 272.0
106.049126 164.0
106.086868 144.0
106.105324 164.0
106.166496 240.0
106.200417 176.0
106.218765 292.0
106.269936 324.0
106.309944 328.0
106.316055 120.0
106.342896 148.0
106.361755 80.0
106.389641 152.0
106.404869 228.0
106.45137 156.0
106.516922 196.0
106.554794 152.0
106.587318 208.0
106.615143 152.0
106.674194 164.0
106.696381 188.0
106.729507 136.0
106.75679 224.0
106.794395 208.0
106.811638 120.0
106.884399 80.0
106.937286 112.0
106.96302 176.0
106.978462 132.0
107.009277 136.0
107.024506 208.0
107.048889 404.0
107.088203 176.0
107.233788 84.0
107.238434 96.0
107.281296 216.0
107.310127 284.0
107.336288 348.0
107.370605 128.0
107.391525 176.0
107.427711 468.0
107.452469 144.0
107.498421 148.0
107.52446 416.0
107.568039 344.0
107.581505 192.0
107.599617 204.0
107.650124 308.0
107.683929 96.0
107.708862 228.0
107.725616 132.0
107.751343 116.0
107.770439 72.0
107.801437 172.0
107.81797 188.0
107.831482 140.0
107.876999 152.0
107.90979 152.0
107.93364 172.0
108.007431 152.0
108.016403 132.0
108.050423 204.0
108.07328 164.0
108.107498 136.0
108.129456 112.0
108.191475 148.0
108.207596 224.0
108.231705 196.0
108.246201 128.0
108.271965 232.0
108.286865 252.0
108.320915 168.0
108.348846 388.0
108.384987 164.0
108.440948 124.0
108.459602 176.0
108.486549 136.0
108.510094 180.0
108.543159 132.0
108.5923 116.0
108.609024 192.0
108.635864 204.0
108.679222 120.0
108.731316 132.0
108.745842 164.0
108.793243 196.0
108.84095 128.0
108.891121 340.0
108.946411 160.0
108.970123 100.0
109.012901 240.0
109.06044 104.0
109.08548 236.0
109.103386 132.0
109.138428 152.0
109.144325 148.0
109.150421 124.0
109.175911 180.0
109.210266 268.0
109.247406 276.0
109.281998 308.0
109.300728 176.0
109.346512 112.0
109.404716 100.0
109.427696 352.0
109.470581 128.0
109.501694 192.0
109.541283 196.0
109.569328 76.0
109.652679 188.0
109.679771 192.0
109.704788 236.0
109.721466 112.0
109.769424 144.0
109.832344 308.0
109.904541 160.0
109.927887 208.0
109.954918 144.0
109.982231 152.0
110.088715 124.0
110.127319 148.0
110.152611 284.0
110.17981 216.0
110.185143 132.0
110.222237 144.0
110.241219 32.0
110.276314 156.0
110.305168 228.0
110.329628 376.0
110.346519 180.0
110.365334 192.0
110.384956 284.0
110.4077 132.0
110.427284 60.0
110.464935 168.0
110.532295 164.0
110.557793 136.0
110.583771 172.0
110.602776 152.0
110.609619 116.0
110.616257 168.0
110.664177 80.0
110.704933 168.0
110.718903 168.0
110.743408 120.0
110.76638 180.0
110.801178 236.0
110.828041 148.0
110.850189 116.0
110.865906 176.0
110.908875 112.0
110.927734 132.0
110.942413 140.0
110.971085 160.0
110.979218 108.0
110.98629 112.0
111.022774 196.0
111.072609 188.0
111.105995 128.0
111.126976 124.0
111.152153 236.0
111.183632 116.0
111.216995 152.0
111.23719 144.0
111.263145 132.0
111.276306 136.0
111.301613 120.0
111.328911 140.0
111.354561 184.0
111.372597 312.0
111.406212 140.0
111.465042 144.0
111.504967 256.0
111.524178 224.0
111.547005 172.0
111.580643 132.0
111.617912 160.0
111.668968 196.0
111.684593 132.0
111.736282 212.0
111.763634 132.0
111.779472 144.0
111.804169 168.0
111.845711 236.0
111.865845 220.0
111.897789 304.0
111.921822 348.0
111.944664 212.0
111.961365 168.0
111.97805 136.0
112.005745 112.0
112.029823 168.0
112.045769 104.0
112.074028 172.0
112.111092 236.0
112.130058 172.0
112.151398 356.0
112.212006 316.0
112.253502 172.0
112.269211 84.0
112.363914 276.0
112.391396 124.0
112.404778 152.0
112.437988 156.0
112.454872 184.0
112.486481 164.0
112.510941 200.0
112.528 112.0
112.533806 184.0
112.579437 52.0
112.596329 140.0
112.617645 316.0
112.651253 164.0
112.677658 224.0
112.724716 156.0
112.752678 108.0
112.773811 200.0
112.79129 164.0
112.811859 212.0
112.833 180.0
112.872246 164.0
112.917587 156.0
112.947197 108.0
112.96624 284.0
112.98806 216.0
113.042877 136.0
113.096283 140.0
113.131302 132.0
113.153687 244.0
113.186356 180.0
113.220238 152.0
113.242805 216.0
113.28833 136.0
113.302849 192.0
113.335312 124.0
113.368538 152.0
113.398209 212.0
113.412331 292.0
113.444839 156.0
113.487244 304.0
113.521751 100.0
113.555107 132.0
113.574196 276.0
113.588669 188.0
113.625183 216.0
113.652107 160.0
113.692535 216.0
113.729607 180.0
113.763054 32.0
113.795906 148.0
113.816414 152.0
113.842545 172.0
113.892593 136.0
113.907921 348.0
113.930832 240.0
113.945702 88.0
113.991409 312.0
114.006561 216.0
114.026451 128.0
114.058472 124.0
114.077461 156.0
114.095238 188.0
114.179298 296.0
114.209015 176.0
114.242928 224.0
114.275635 276.0
114.298012 232.0
114.354973 188.0
114.383797 112.0
114.401886 176.0
114.42318 200.0
114.46032 180.0
114.496727 152.0
114.505829 216.0
114.522003 224.0
114.554153 72.0
114.577591 260.0
114.628677 232.0
114.642792 160.0
114.658562 140.0
114.682823 156.0
114.709717 160.0
114.745132 124.0
114.773781 136.0
114.79287 120.0
114.826996 84.0
114.873917 104.0
114.897903 116.0
114.940063 108.0
114.98027 76.0
115.006218 176.0
115.027565 164.0
115.053986 444.0
115.114731 184.0
115.142868 232.0
115.166077 60.0
115.186798 148.0
115.219193 120.0
115.253815 120.0
115.259514 220.0
115.283737 132.0
115.323158 168.0
115.377922 176.0
115.404198 220.0
115.434357 196.0
115.503777 136.0
115.534042 180.0
115.550018 164.0
115.573898 188.0
115.607628 212.0
115.644615 164.0
115.660301 136.0
115.677162 152.0
115.700974 252.0
115.752129 72.0
115.775917 132.0
115.803764 96.0
115.818756 132.0
115.835892 64.0
115.884476 236.0
115.905655 328.0
115.910042 184.0
115.917915 256.0
115.95639 220.0
115.965424 160.0
115.991852 108.0
116.025108 164.0
116.058784 100.0
116.080231 52.0
116.13385 56.0
116.167305 248.0
116.19548 148.0
116.211884 128.0
116.230392 148.0
116.258286 112.0
116.273308 144.0
116.296921 148.0
116.369553 240.0
116.398552 188.0
116.436272 256.0
116.477287 112.0
116.492325 216.0
116.513031 132.0
116.518677 180.0
116.554634 120.0
116.58532 288.0
116.625107 172.0
116.656433 132.0
116.683601 220.0
116.731682 176.0
116.763161 100.0
116.794502 164.0
116.819626 160.0
116.847054 132.0
116.877182 216.0
116.895454 124.0
116.928871 180.0
116.948196 240.0
117.021851 132.0
117.03862 112.0
117.058533 184.0
117.089951 228.0
117.117226 184.0
117.169434 136.0
117.191551 128.0
117.217407 136.0
117.234184 224.0
117.240326 176.0
117.275597 168.0
117.294998 168.0
117.337135 176.0
117.361832 216.0
117.43898 124.0
117.471474 172.0
117.484306 168.0
117.504189 128.0
117.5495 132.0
117.564606 120.0
117.58326 208.0
117.609932 144.0
117.644104 188.0
117.707954 148.0
117.749382 336.0
117.774033 180.0
117.791313 140.0
117.832359 140.0
117.87558 164.0
117.925285 108.0
117.95295 152.0
117.980049 180.0
117.998787 200.0
118.036926 204.0
118.050514 104.0
118.059059 128.0
118.064484 220.0
118.073006 124.0
118.083626 136.0
118.111237 204.0
118.130707 164.0
118.144508 148.0
118.15358 56.0
118.162483 180.0
118.178871 152.0
118.20916 160.0
118.279884 188.0
118.287781 176.0
118.295746 160.0
118.318192 184.0
118.341148 188.0
118.381561 236.0
118.441452 128.0
118.475914 164.0
118.507423 284.0
118.545776 188.0
118.57135 104.0
118.636803 160.0
118.694633 248.0
118.722023 168.0
118.740021 404.0
118.76757 80.0
118.806618 144.0
118.838333 136.0
118.885002 264.0
118.910774 232.0
118.962341 148.0
118.993179 176.0
119.022575 124.0
119.086647 124.0
119.112709 484.0
119.140953 344.0
119.172394 144.0
119.199615 100.0
119.245255 92.0
119.27623 300.0
119.333572 160.0
119.430069 44.0
119.469231 188.0
119.496567 208.0
119.539635 200.0
119.569321 140.0
119.593262 180.0
119.609398 156.0
119.625916 120.0
119.660019 324.0
119.665688 180.0
119.687805 76.0
119.70372 196.0
119.721306 168.0
119.730667 112.0
119.793602 152.0
119.811089 140.0
119.827148 168.0
119.861229 196.0
119.896011 128.0
119.93306 104.0
119.970123 80.0
120.020264 180.0
120.066063 128.0
120.083511 132.0
120.11969 68.0
120.146767 52.0
120.210045 176.0
120.243874 120.0
120.279892 168.0
120.306084 180.0
120.336403 164.0
120.34288 136.0
120.363838 160.0
120.395607 272.0
120.413078 136.0
120.464088 136.0
120.495445 392.0
120.539795 300.0
120.587326 208.0
120.608688 184.0
120.641426 192.0
120.660011 108.0
120.687073 148.0
120.716858 160.0
120.767166 152.0
120.79908 164.0
120.816536 176.0
120.849609 140.0
120.86911 260.0
120.898438 160.0
120.929832 208.0
120.965782 236.0
120.992561 200.0
121.022888 244.0
121.026581 208.0
121.035225 148.0
121.091103 136.0
121.132721 120.0
121.154968 128.0
121.16996 200.0
121.228241 256.0
121.251038 188.0
121.314323 124.0
121.33313 196.0
121.383698 180.0
121.411087 140.0
121.451813 176.0
121.498825 116.0
121.51857 168.0
121.544746 172.0
121.552254 160.0
121.556725 176.0
121.727104 252.0
121.745728 208.0
121.777611 132.0
121.797379 180.0
121.830544 208.0
121.867638 196.0
121.881561 152.0
121.905525 200.0
121.92659 184.0
121.950516 124.0
121.958199 192.0
121.974876 124.0
122.021988 136.0
122.055 184.0
122.091904 120.0
122.118301 196.0
122.138092 128.0
122.177689 172.0
122.209244 256.0
122.252502 328.0
122.274513 152.0
122.300926 80.0
122.319847 160.0
122.335197 200.0
122.384186 204.0
122.414291 228.0
122.447372 244.0
122.46386 120.0
122.490959 200.0
122.530846 200.0
122.570686 264.0
122.615891 112.0
122.635803 120.0
122.646011 48.0
122.654869 152.0
122.673203 312.0
122.693695 276.0
122.721825 144.0
122.743752 212.0
122.770218 52.0
122.817963 192.0
122.895416 196.0
122.901741 148.0
122.908951 288.0
122.948898 476.0
122.973198 268.0
123.001892 132.0
123.07254 88.0
123.090202 168.0
123.122223 88.0
123.147491 184.0
123.172325 176.0
123.201065 208.0
123.244827 200.0
123.275764 380.0
123.29174 140.0
123.347527 172.0
123.370621 152.0
123.392044 132.0
123.413055 132.0
123.457047 140.0
123.481369 168.0
123.524521 324.0
123.547729 228.0
123.598274 356.0
123.617928 160.0
123.6446 144.0
123.665016 148.0
123.689362 156.0
123.739372 212.0
123.760574 192.0
123.783844 220.0
123.822212 112.0
123.84436 132.0
123.874771 176.0
123.91082 192.0
123.938232 140.0
123.978889 156.0
124.023842 168.0
124.079681 276.0
124.116234 148.0
124.150223 128.0
124.174812 136.0
124.213806 48.0
124.243385 120.0
124.293083 120.0
124.332222 104.0
124.377586 164.0
124.393295 176.0
124.431145 120.0
124.456451 116.0
124.477386 244.0
124.512848 132.0
124.550774 252.0
124.598701 148.0
124.645264 156.0
124.710648 152.0
124.735939 208.0
124.764427 228.0
124.787521 144.0
124.831467 152.0
124.8787 112.0
124.90094 44.0
124.923271 104.0
124.934212 176.0
124.941772 272.0
124.98735 124.0
125.020905 192.0
125.038971 240.0
125.118645 140.0
125.142769 380.0
125.161331 164.0
125.233299 204.0
125.289948 140.0
125.331795 152.0
125.340431 80.0
125.349823 104.0
125.386337 96.0
125.415512 132.0
125.47525 120.0
125.498543 168.0
125.569328 156.0
125.59021 264.0
125.61499 124.0
125.643066 248.0
125.652771 116.0
125.671875 196.0
125.706871 44.0
125.728333 152.0
125.749886 228.0
125.79229 332.0
125.81739 148.0
125.842598 180.0
125.864449 164.0
125.886253 148.0
125.915749 180.0
125.933434 200.0
125.968712 172.0
125.999985 60.0
126.020042 176.0
126.062553 124.0
126.095123 132.0
126.122894 120.0
126.147484 180.0
126.162071 172.0
126.183388 140.0
126.237694 208.0
126.261658 188.0
126.286926 100.0
126.317444 64.0
126.368896 212.0
126.391273 120.0
126.409172 192.0
126.429314 152.0
126.473518 160.0
126.498703 156.0
126.529846 188.0
126.537743 164.0
126.568665 164.0
126.607155 128.0
126.633057 156.0
126.676033 212.0
126.727776 176.0
126.775612 140.0
126.801094 152.0
126.83696 120.0
126.869011 240.0
126.941597 220.0
126.976913 316.0
126.99482 208.0
127.05909 224.0
127.115067 48.0
127.142105 268.0
127.164436 48.0
127.211143 144.0
127.237831 156.0
127.26709 160.0
127.282646 196.0
127.311638 164.0
127.333595 164.0
127.355293 116.0
127.371017 108.0
127.391235 148.0
127.421677 184.0
127.464584 136.0
127.483551 188.0
127.515617 136.0
127.549927 168.0
127.562973 180.0
127.582253 100.0
127.610046 396.0
127.651962 148.0
127.667702 184.0
127.705101 376.0
127.72168 152.0
127.754311 284.0
127.784668 180.0
127.81842 180.0
127.834175 64.0
127.875298 192.0
127.917122 124.0
127.953476 60.0
127.991753 136.0
128.062073 1360.0
128.10437 212.0
128.120132 180.0
128.169708 156.0
128.189987 176.0
128.21994 124.0
128.239563 200.0
128.26445 196.0
128.293243 172.0
128.320724 124.0
128.347214 236.0
128.385529 184.0
128.413177 120.0
128.433472 168.0
128.451523 200.0
128.512436 192.0
128.591049 196.0
128.607574 364.0
128.62587 124.0
128.668167 140.0
128.71611 280.0
128.738174 100.0
128.779999 292.0
128.831726 276.0
128.85112 156.0
128.869186 140.0
128.892166 204.0
128.912125 128.0
128.943665 360.0
128.980927 136.0
128.995468 200.0
129.021317 240.0
129.068008 2260.0
129.117844 104.0
129.161728 312.0
129.189514 396.0
129.236496 124.0
129.262634 292.0
129.307907 124.0
129.370941 188.0
129.379593 160.0
129.397522 332.0
129.469467 152.0
129.508331 168.0
129.544235 280.0
129.563782 140.0
129.579636 168.0
129.611359 160.0
129.641296 248.0
129.661224 128.0
129.684906 136.0
129.713348 296.0
129.731491 316.0
129.767761 184.0
129.79776 212.0
129.817535 128.0
129.842667 184.0
129.877319 192.0
129.928787 180.0
129.946945 184.0
129.985306 212.0
130.028931 124.0
130.068665 276.0
130.101273 112.0
130.117172 128.0
130.133057 228.0
130.166367 72.0
130.193878 164.0
130.217087 144.0
130.237534 152.0
130.274155 196.0
130.303406 40.0
130.333847 212.0
130.360214 192.0
130.38356 160.0
130.399734 188.0
130.439911 236.0
130.457947 184.0
130.514099 144.0
130.552689 144.0
130.573914 144.0
130.634338 184.0
130.662628 92.0
130.705612 156.0
130.709656 132.0
130.738251 136.0
130.765091 168.0
130.79007 188.0
130.830307 112.0
130.867477 152.0
130.922134 96.0
130.956284 92.0
131.000397 100.0
131.022354 184.0
131.066666 176.0
131.088028 136.0
131.12178 176.0
131.174057 148.0
131.189529 152.0
131.219818 156.0
131.287109 160.0
131.348938 236.0
131.419556 172.0
131.482697 136.0
131.505493 156.0
131.545563 172.0
131.588928 112.0
131.645172 160.0
131.680237 140.0
131.70311 212.0
131.734253 156.0
131.755173 212.0
131.780273 84.0
131.797272 152.0
131.832382 100.0
131.852951 268.0
131.890091 144.0
131.956528 156.0
131.971298 156.0
132.008408 228.0
132.047791 292.0
132.093048 260.0
132.108353 156.0
132.144669 184.0
132.19043 168.0
132.227356 160.0
132.253525 148.0
132.271423 164.0
132.291702 148.0
132.395172 224.0
132.426208 188.0
132.451721 324.0
132.518875 344.0
132.547394 176.0
132.603073 252.0
132.633453 128.0
132.651245 188.0
132.672424 116.0
132.73204 172.0
132.774094 216.0
132.789261 508.0
132.810013 136.0
132.856049 120.0
132.8806 172.0
132.897949 180.0
132.979813 168.0
133.028015 140.0
133.063202 184.0
133.10022 192.0
133.123169 148.0
133.144455 192.0
133.217789 148.0
133.271774 156.0
133.333786 164.0
133.365601 192.0
133.390976 148.0
133.41626 84.0
133.436386 208.0
133.454071 152.0
133.524338 128.0
133.568039 116.0
133.60025 184.0
133.623459 136.0
133.662369 56.0
133.689987 160.0
133.752121 220.0
133.784042 208.0
133.821198 112.0
133.839615 164.0
133.872635 176.0
133.892578 236.0
133.907547 156.0
133.933136 228.0
133.968521 136.0
133.996246 104.0
134.01236 168.0
134.044632 128.0
134.083054 268.0
134.120529 176.0
134.15065 100.0
134.196274 168.0
134.224243 148.0
134.241592 264.0
134.272858 104.0
134.295929 84.0
134.320633 296.0
134.359299 332.0
134.379944 144.0
134.39592 116.0
134.425522 392.0
134.456604 180.0
134.479691 124.0
134.498108 160.0
134.5336 132.0
134.562943 124.0
134.605179 160.0
134.621353 40.0
134.661987 368.0
134.677734 268.0
134.70607 200.0
134.73082 160.0
134.78833 196.0
134.819183 276.0
134.836807 168.0
134.858185 204.0
134.884216 320.0
134.912628 284.0
134.945724 208.0
134.965652 212.0
135.017929 364.0
135.044235 388.0
135.080719 192.0
135.121521 216.0
135.17067 160.0
135.199371 148.0
135.226547 320.0
135.271057 112.0
135.335663 428.0
135.355392 140.0
135.415497 148.0
135.443848 168.0
135.476898 140.0
135.509598 188.0
135.536652 236.0
135.560577 192.0
135.595673 152.0
135.616882 216.0
135.65097 76.0
135.676361 88.0
135.69986 184.0
135.748352 144.0
135.764587 124.0
135.780823 124.0
135.821625 148.0
135.826355 108.0
135.836487 384.0
135.868958 192.0
135.916626 52.0
135.987305 120.0
136.019806 380.0
136.038864 136.0
136.054626 208.0
136.087128 172.0
136.122879 232.0
136.164246 136.0
136.192886 224.0
136.224304 228.0
136.25116 720.0
136.271606 160.0
136.312866 160.0
136.351959 132.0
136.382172 284.0
136.398453 88.0
136.449707 76.0
136.479813 204.0
136.502167 248.0
136.534485 144.0
136.55809 116.0
136.575165 148.0
136.590103 116.0
136.662445 240.0
136.703125 120.0
136.725327 176.0
136.751999 532.0
136.779938 136.0
136.82106 240.0
136.853714 156.0
136.874054 104.0
136.902359 208.0
136.932968 164.0
137.001175 236.0
137.019363 204.0
137.07106 168.0
137.102036 208.0
137.148071 180.0
137.191849 400.0
137.218933 128.0
137.237885 128.0
137.276215 100.0
137.342819 200.0
137.369507 204.0
137.408569 280.0
137.430161 156.0
137.455246 208.0
137.479172 100.0
137.497833 172.0
137.51651 124.0
137.539856 164.0
137.565536 280.0
137.587967 112.0
137.623108 248.0
137.642868 128.0
137.663589 180.0
137.705261 128.0
137.709671 104.0
137.778046 40.0
137.803741 116.0
137.829453 116.0
137.847504 160.0
137.864502 144.0
137.896774 168.0
137.939301 332.0
137.967346 164.0
138.011063 212.0
138.026489 164.0
138.051529 136.0
138.090332 176.0
138.103836 164.0
138.120956 176.0
138.182114 184.0
138.217621 112.0
138.233994 56.0
138.254028 164.0
138.28804 256.0
138.351303 140.0
138.441742 156.0
138.451431 100.0
138.477478 176.0
138.50325 48.0
138.531128 160.0
138.582901 148.0
138.605377 128.0
138.654892 124.0
138.678101 320.0
138.699493 192.0
138.730545 116.0
138.753998 148.0
138.770401 212.0
138.808929 56.0
138.829819 288.0
138.847458 148.0
138.878937 128.0
138.921585 96.0
138.965088 372.0
138.983856 68.0
139.023743 124.0
139.054123 1984.0
139.089142 188.0
139.133163 228.0
139.173981 216.0
139.20137 212.0
139.224533 212.0
139.246078 292.0
139.259659 160.0
139.285492 176.0
139.350143 168.0
139.392441 76.0
139.421738 148.0
139.445633 180.0
139.473755 208.0
139.502914 132.0
139.538177 184.0
139.556992 180.0
139.578705 204.0
139.597961 132.0
139.625015 116.0
139.670883 152.0
139.725204 176.0
139.73175 92.0
139.742615 204.0
139.7491 112.0
139.775742 72.0
139.808685 348.0
139.85347 136.0
139.871429 164.0
139.889282 116.0
139.896286 92.0
139.903595 136.0
139.938156 128.0
139.995239 296.0
140.023727 188.0
140.052872 732.0
140.089035 188.0
140.154099 324.0
140.179382 196.0
140.201981 76.0
140.229019 128.0
140.279343 156.0
140.30806 140.0
140.331635 144.0
140.351746 144.0
140.382568 152.0
140.447189 144.0
140.464996 132.0
140.489655 172.0
140.52504 216.0
140.55336 212.0
140.639374 116.0
140.675308 216.0
140.692612 88.0
140.725662 180.0
140.789078 188.0
140.821793 108.0
140.873886 116.0
140.894745 156.0
140.938065 180.0
140.977661 124.0
141.00206 148.0
141.058502 944.0
141.098969 128.0
141.115524 208.0
141.14006 148.0
141.184097 304.0
141.219788 160.0
141.24086 104.0
141.266891 240.0
141.295074 160.0
141.329605 236.0
141.368927 164.0
141.401764 96.0
141.438446 228.0
141.471558 160.0
141.544556 328.0
141.568939 156.0
141.591171 128.0
141.607742 72.0
141.674072 40.0
141.726196 164.0
141.753586 236.0
141.770248 116.0
141.797287 148.0
141.84726 136.0
141.876617 152.0
141.913635 156.0
141.965622 104.0
141.996155 144.0
142.032028 124.0
142.06218 272.0
142.091339 228.0
142.126923 204.0
142.159866 248.0
142.190216 144.0
142.215179 240.0
142.243225 144.0
142.280914 128.0
142.321915 164.0
142.350067 200.0
142.372375 140.0
142.395187 76.0
142.418945 232.0
142.441238 220.0
142.466263 148.0
142.475021 112.0
142.504456 60.0
142.544861 72.0
142.571121 160.0
142.592392 128.0
142.609024 236.0
142.630417 104.0
142.670837 164.0
142.700714 232.0
142.716766 124.0
142.739792 152.0
142.758469 164.0
142.805679 192.0
142.837769 160.0
142.868225 92.0
142.939987 176.0
142.977188 176.0
143.022903 124.0
143.043259 196.0
143.081757 500.0
143.132782 236.0
143.158615 140.0
143.177673 176.0
143.222916 160.0
143.268387 280.0
143.301147 124.0
143.33223 372.0
143.364792 176.0
143.387329 120.0
143.419891 180.0
143.433441 184.0
143.459381 192.0
143.493011 144.0
143.527786 148.0
143.544662 260.0
143.570908 112.0
143.604568 68.0
143.621811 236.0
143.694946 80.0
143.768921 112.0
143.802322 112.0
143.82309 160.0
143.852356 196.0
143.882477 140.0
143.91214 156.0
143.969482 156.0
144.012115 176.0
144.047073 260.0
144.067673 232.0
144.087799 236.0
144.128479 196.0
144.220322 116.0
144.255753 212.0
144.307373 204.0
144.341309 372.0
144.383118 164.0
144.400238 144.0
144.433594 104.0
144.466629 328.0
144.486786 168.0
144.509689 176.0
144.528824 140.0
144.569519 264.0
144.586258 176.0
144.644836 128.0
144.652802 60.0
144.659653 176.0
144.686264 124.0
144.701172 192.0
144.717926 240.0
144.74968 200.0
144.768219 144.0
144.797699 116.0
144.827744 140.0
144.880905 296.0
144.897491 136.0
144.943085 60.0
144.993408 176.0
145.014984 184.0
145.040329 312.0
145.067184 164.0
145.129425 184.0
145.154907 244.0
145.185211 144.0
145.214264 104.0
145.255371 160.0
145.29776 148.0
145.314743 204.0
145.336334 64.0
145.362732 152.0
145.397079 128.0
145.41156 220.0
145.434219 148.0
145.440201 116.0
145.449982 180.0
145.502853 160.0
145.533157 168.0
145.552368 168.0
145.578781 176.0
145.611496 148.0
145.631027 96.0
145.674866 80.0
145.694077 140.0
145.7258 160.0
145.75415 56.0
145.81781 384.0
145.851028 180.0
145.879135 132.0
145.909348 268.0
145.981155 212.0
146.004166 204.0
146.031143 164.0
146.057083 136.0
146.082947 148.0
146.128326 204.0
146.146088 136.0
146.173218 88.0
146.244766 292.0
146.27124 300.0
146.355499 128.0
146.407242 288.0
146.457962 208.0
146.495712 132.0
146.537689 256.0
146.555435 320.0
146.594391 172.0
146.651825 176.0
146.673599 120.0
146.697632 320.0
146.753082 112.0
146.77092 180.0
146.794388 152.0
146.832657 60.0
146.887024 340.0
146.928284 192.0
146.96051 108.0
146.979813 72.0
147.019897 256.0
147.026443 200.0
147.045868 144.0
147.088425 144.0
147.106934 132.0
147.150482 332.0
147.171249 260.0
147.191635 148.0
147.223633 168.0
147.239365 164.0
147.284012 144.0
147.313004 136.0
147.347076 192.0
147.395142 148.0
147.425079 144.0
147.460403 156.0
147.485474 156.0
147.511292 152.0
147.562119 148.0
147.619965 184.0
147.653824 172.0
147.687546 136.0
147.72821 212.0
147.7444 144.0
147.764404 184.0
147.798264 552.0
147.840775 276.0
147.958267 260.0
147.974991 116.0
147.989899 136.0
148.012924 192.0
148.077377 136.0
148.100388 160.0
148.148636 208.0
148.174271 92.0
148.191223 208.0
148.220306 208.0
148.242111 124.0
148.264252 148.0
148.377853 152.0
148.423859 144.0
148.450714 156.0
148.467575 252.0
148.501526 116.0
148.543243 180.0
148.581573 144.0
148.620392 188.0
148.667725 152.0
148.718933 396.0
148.757187 324.0
148.787659 176.0
148.819443 148.0
148.836761 360.0
148.870422 132.0
148.891617 188.0
148.972397 216.0
148.97847 116.0
148.996735 140.0
149.029404 164.0
149.092422 284.0
149.120667 76.0
149.154694 108.0
149.267685 144.0
149.328125 196.0
149.357529 188.0
149.387619 128.0
149.421127 232.0
149.446533 204.0
149.468445 52.0
149.492767 148.0
149.521973 140.0
149.55632 224.0
149.598862 136.0
149.641251 132.0
149.67778 60.0
149.71431 60.0
149.731354 212.0
149.754288 252.0
149.792252 132.0
149.831497 184.0
149.863647 144.0
149.943329 368.0
149.98172 184.0
150.014008 108.0
150.047836 444.0
150.095901 176.0
150.140808 108.0
150.178467 72.0
150.209824 256.0
150.239426 252.0
150.265213 164.0
150.295059 136.0
150.33252 276.0
150.371353 188.0
150.403503 256.0
150.42984 184.0
150.508118 124.0
150.54924 56.0
150.56546 100.0
150.632385 200.0
150.667847 216.0
150.69249 52.0
150.716919 188.0
150.764038 128.0
150.822159 204.0
150.874435 204.0
150.894012 204.0
150.924683 152.0
150.949417 140.0
150.988861 252.0
151.024963 76.0
151.051407 176.0
151.068985 148.0
151.127716 204.0
151.16716 168.0
151.208466 160.0
151.228699 136.0
151.253494 324.0
151.286789 176.0
151.306381 264.0
151.348221 224.0
151.374939 244.0
151.399429 156.0
151.420547 180.0
151.458206 116.0
151.477615 148.0
151.494965 216.0
151.52681 140.0
151.546402 220.0
151.572693 196.0
151.584167 108.0
151.640671 172.0
151.703094 116.0
151.737289 100.0
151.782608 200.0
151.816055 176.0
151.853546 112.0
151.895218 168.0
151.934448 316.0
151.971802 196.0
152.015808 232.0
152.040939 248.0
152.087814 204.0
152.109833 164.0
152.118988 120.0
152.184143 156.0
152.212067 192.0
152.238266 184.0
152.265182 176.0
152.291077 140.0
152.31839 132.0
152.372437 144.0
152.395935 164.0
152.40979 60.0
152.434235 312.0
152.468719 440.0
152.502472 84.0
152.530548 152.0
152.573486 264.0
152.598969 168.0
152.626419 160.0
152.648422 152.0
152.683533 200.0
152.808441 344.0
152.824692 256.0
152.86705 176.0
152.886444 292.0
152.924103 136.0
152.946259 316.0
152.978348 116.0
152.996429 176.0
153.022568 68.0
153.060577 148.0
153.093979 196.0
153.112656 96.0
153.143234 184.0
153.162949 88.0
153.187119 216.0
153.215988 220.0
153.23439 108.0
153.277802 116.0
153.306488 200.0
153.351059 140.0
153.419235 140.0
153.447052 168.0
153.46608 80.0
153.493195 116.0
153.520325 92.0
153.544876 172.0
153.595703 164.0
153.612717 172.0
153.663528 152.0
153.709625 344.0
153.731827 140.0
153.77356 216.0
153.837433 132.0
153.88382 156.0
153.931381 140.0
153.957413 180.0
153.978592 380.0
153.999741 364.0
154.033066 156.0
154.06514 10232.0
154.135239 132.0
154.165894 176.0
154.196167 276.0
154.213684 72.0
154.256393 88.0
154.274338 284.0
154.310501 264.0
154.331924 108.0
154.376663 164.0
154.403412 272.0
154.457306 196.0
154.487946 236.0
154.542374 188.0
154.567749 108.0
154.598999 228.0
154.611237 56.0
154.617111 76.0
154.621811 128.0
154.633148 240.0
154.678253 160.0
154.711304 200.0
154.729584 388.0
154.76329 132.0
154.781128 172.0
154.798904 136.0
154.822723 208.0
154.903625 164.0
154.934189 108.0
154.965134 156.0
154.986221 236.0
155.030289 276.0
155.070602 3988.0
155.107269 276.0
155.137711 128.0
155.157715 312.0
155.19989 244.0
155.261856 212.0
155.282333 200.0
155.355652 100.0
155.375488 92.0
155.397827 164.0
155.424255 400.0
155.463089 120.0
155.487167 208.0
155.511978 92.0
155.557541 196.0
155.577499 172.0
155.623856 188.0
155.652054 180.0
155.67572 168.0
155.686035 152.0
155.693649 184.0
155.723022 196.0
155.773407 100.0
155.813614 188.0
155.823303 88.0
155.8349 132.0
155.852676 192.0
155.87706 108.0
155.898026 184.0
155.929245 176.0
155.969742 128.0
156.021225 148.0
156.080978 18844.0
156.13063 48.0
156.180191 156.0
156.205078 124.0
156.235107 172.0
156.264954 168.0
156.288559 140.0
156.325272 84.0
156.352631 52.0
156.390808 112.0
156.450592 116.0
156.507721 152.0
156.531296 124.0
156.551224 132.0
156.573639 64.0
156.593552 132.0
156.614197 180.0
156.648682 152.0
156.690155 144.0
156.693909 112.0
156.714355 188.0
156.762207 128.0
156.780411 144.0
156.799759 136.0
156.845154 172.0
156.919693 136.0
156.956665 216.0
157.000656 140.0
157.02951 92.0
157.08432 1740.0
157.126877 72.0
157.146973 224.0
157.165802 132.0
157.184402 60.0
157.203735 284.0
157.252487 144.0
157.264038 172.0
157.271317 156.0
157.298706 116.0
157.305084 92.0
157.318481 148.0
157.377594 152.0
157.401855 404.0
157.439041 116.0
157.476501 136.0
157.495667 256.0
157.521469 228.0
157.560699 264.0
157.620422 164.0
157.648895 108.0
157.683319 212.0
157.720444 172.0
157.737274 220.0
157.76857 136.0
157.774658 252.0
157.815536 180.0
157.838791 216.0
157.85437 172.0
157.900879 280.0
157.969162 88.0
158.004608 232.0
158.037766 148.0
158.089981 320.0
158.144104 312.0
158.174988 188.0
158.211151 184.0
158.244232 52.0
158.277679 224.0
158.303162 120.0
158.331879 144.0
158.359924 532.0
158.376541 168.0
158.400513 168.0
158.462143 124.0
158.483459 220.0
158.522278 88.0
158.571564 216.0
158.624649 200.0
158.669846 156.0
158.717941 144.0
158.757919 76.0
158.784317 152.0
158.853241 252.0
158.881821 468.0
158.919769 100.0
158.954788 152.0
158.978699 164.0
159.002426 308.0
159.02095 124.0
159.048965 120.0
159.066544 208.0
159.114243 60.0
159.141098 224.0
159.169479 144.0
159.18956 200.0
159.227234 172.0
159.282928 264.0
159.307877 120.0
159.342789 144.0
159.369125 108.0
159.423203 200.0
159.445816 184.0
159.496094 136.0
159.521225 208.0
159.538818 76.0
159.614258 164.0
159.64946 116.0
159.700211 176.0
159.740005 116.0
159.76265 124.0
159.785339 180.0
159.825546 336.0
159.853226 72.0
159.890976 140.0
159.913452 180.0
160.01712 148.0
160.054611 240.0
160.085526 188.0
160.111267 96.0
160.129608 220.0
160.160736 264.0
160.263672 96.0
160.296432 468.0
160.319092 184.0
160.382126 132.0
160.416733 148.0
160.449783 284.0
160.48175 360.0
160.517136 160.0
160.599106 148.0
160.638382 180.0
160.669739 244.0
160.730103 156.0
160.784286 188.0
160.85788 192.0
160.87915 132.0
160.954819 228.0
160.980194 180.0
161.010376 228.0
161.044983 164.0
161.096481 228.0
161.127472 212.0
161.179642 212.0
161.226685 208.0
161.252274 80.0
161.274826 96.0
161.281738 160.0
161.312225 164.0
161.344269 148.0
161.382294 204.0
161.417038 140.0
161.480789 168.0
161.524551 208.0
161.548782 56.0
161.621262 136.0
161.625717 88.0
161.645035 92.0
161.667694 224.0
161.684174 180.0
161.740845 160.0
161.75798 140.0
161.768204 164.0
161.842087 148.0
161.882111 144.0
161.942535 200.0
161.969788 180.0
161.99472 204.0
162.021042 148.0
162.053009 180.0
162.085434 100.0
162.173767 148.0
162.228958 232.0
162.257889 136.0
162.290863 132.0
162.336197 196.0
162.371109 412.0
162.411224 112.0
162.434982 340.0
162.501373 108.0
162.525452 216.0
162.565613 200.0
162.611359 164.0
162.628952 164.0
162.686646 152.0
162.706955 68.0
162.734131 216.0
162.76709 176.0
162.785599 236.0
162.819763 324.0
162.844894 184.0
162.877106 128.0
162.894897 160.0
162.935532 148.0
162.970657 160.0
163.004135 196.0
163.027008 120.0
163.0448 128.0
163.090546 116.0
163.110886 192.0
163.133774 88.0
163.172409 160.0
163.190796 164.0
163.213028 68.0
163.290634 228.0
163.314758 272.0
163.355011 236.0
163.393829 172.0
163.410706 216.0
163.433884 180.0
163.486923 156.0
163.538223 156.0
163.561127 128.0
163.630676 276.0
163.660416 208.0
163.687347 236.0
163.749557 168.0
163.769501 120.0
163.805588 132.0
163.844971 304.0
163.910049 152.0
163.94809 216.0
164.008041 196.0
164.054321 236.0
164.10759 208.0
164.149933 188.0
164.197968 188.0
164.233292 192.0
164.273972 300.0
164.329056 136.0
164.363953 172.0
164.391541 128.0
164.424362 136.0
164.444717 156.0
164.491364 52.0
164.522766 176.0
164.565598 124.0
164.614105 108.0
164.635498 80.0
164.66774 172.0
164.703506 188.0
164.72139 380.0
164.743439 196.0
164.779831 64.0
164.800674 180.0
164.832169 88.0
164.8638 168.0
164.910477 188.0
164.938583 196.0
164.962845 176.0
164.994125 160.0
165.004257 116.0
165.013474 124.0
165.057007 340.0
165.091293 216.0
165.121796 356.0
165.160233 280.0
165.196121 180.0
165.265945 240.0
165.291534 140.0
165.318146 100.0
165.338593 152.0
165.401657 144.0
165.417374 192.0
165.457901 200.0
165.480942 68.0
165.500366 144.0
165.553772 164.0
165.580826 132.0
165.603867 180.0
165.634613 132.0
165.674042 132.0
165.701218 96.0
165.720612 140.0
165.757019 216.0
165.793808 176.0
165.837585 148.0
165.843414 156.0
165.854385 192.0
165.864777 112.0
165.8759 124.0
165.908737 212.0
165.967789 136.0
166.003113 108.0
166.065094 6952.0
166.135834 168.0
166.168732 244.0
166.193512 76.0
166.25708 188.0
166.28746 164.0
166.324112 184.0
166.375214 192.0
166.445557 192.0
166.487991 456.0
166.526688 184.0
166.585953 164.0
166.633575 132.0
166.679733 168.0
166.722198 148.0
166.745438 216.0
166.78273 328.0
166.806686 196.0
166.851974 76.0
166.887955 352.0
166.931366 228.0
166.966019 100.0
167.012787 232.0
167.038986 380.0
167.073975 120836.0
167.158905 68.0
167.1978 108.0
167.227539 160.0
167.281036 220.0
167.311218 60.0
167.326645 160.0
167.347427 160.0
167.366989 612.0
167.388229 156.0
167.424149 184.0
167.434418 84.0
167.440704 180.0
167.496735 568.0
167.520599 68.0
167.572876 148.0
167.592987 216.0
167.620132 124.0
167.657333 320.0
167.688095 256.0
167.705338 92.0
167.72966 228.0
167.796051 196.0
167.845657 68.0
167.878922 140.0
167.917542 96.0
167.951874 256.0
167.970322 108.0
167.992554 160.0
168.027756 252.0
168.076004 15116.0
168.173599 176.0
168.224686 40.0
168.263458 220.0
168.288712 68.0
168.308395 268.0
168.327347 112.0
168.36116 140.0
168.37088 196.0
168.41983 392.0
168.469498 152.0
168.492752 68.0
168.517624 160.0
168.538834 48.0
168.558105 136.0
168.59787 200.0
168.642639 196.0
168.662506 152.0
168.715012 120.0
168.733109 148.0
168.756378 52.0
168.784378 300.0
168.809113 164.0
168.853561 256.0
168.889572 140.0
168.905014 76.0
168.913635 124.0
168.952942 112.0
168.972717 320.0
168.993408 220.0
169.050751 172.0
169.078522 564.0
169.1315 112.0
169.176376 124.0
169.208817 232.0
169.220352 88.0
169.270447 120.0
169.311417 208.0
169.348679 168.0
169.377823 172.0
169.408218 420.0
169.436478 240.0
169.464325 152.0
169.498184 164.0
169.537964 220.0
169.571838 168.0
169.598862 188.0
169.625443 176.0
169.650726 180.0
169.71402 156.0
169.754623 252.0
169.798111 220.0
169.84053 244.0
169.879761 204.0
169.943405 172.0
169.968613 36.0
170.006134 340.0
170.060165 1944.0
170.101486 144.0
170.136459 96.0
170.174042 56.0
170.19577 108.0
170.222214 168.0
170.263962 156.0
170.340576 152.0
170.358932 220.0
170.388168 68.0
170.408188 128.0
170.444992 124.0
170.479828 144.0
170.498016 280.0
170.520401 280.0
170.600906 132.0
170.682953 164.0
170.707642 152.0
170.736191 68.0
170.747757 96.0
170.805145 184.0
170.833084 184.0
170.905502 136.0
170.946426 212.0
170.976929 152.0
171.008667 124.0
171.033142 288.0
171.065002 328.0
171.106003 156.0
171.130966 160.0
171.161758 160.0
171.193008 132.0
171.245224 160.0
171.274765 296.0
171.297195 96.0
171.325119 292.0
171.370132 200.0
171.402374 184.0
171.4431 204.0
171.484802 88.0
171.503052 152.0
171.526505 136.0
171.555283 104.0
171.605759 180.0
171.632065 220.0
171.643448 108.0
171.647659 204.0
171.682953 184.0
171.729141 196.0
171.7612 104.0
171.784668 64.0
171.828308 164.0
171.849136 200.0
171.912521 188.0
171.941223 108.0
171.972549 340.0
172.011703 132.0
172.075623 380.0
172.118744 108.0
172.178329 192.0
172.207718 124.0
172.236267 220.0
172.26239 268.0
172.298965 164.0
172.338165 112.0
172.375824 204.0
172.419983 312.0
172.502747 140.0
172.559433 244.0
172.588455 196.0
172.623093 112.0
172.644012 148.0
172.679413 144.0
172.738174 92.0
172.761719 128.0
172.795731 192.0
172.837585 160.0
172.868988 96.0
172.893082 232.0
172.914642 344.0
172.963211 324.0
172.980392 184.0
173.024933 200.0
173.088882 152.0
173.158524 224.0
173.183167 48.0
173.274857 160.0
173.311539 144.0
173.32988 108.0
173.350845 100.0
173.389282 156.0
173.472672 168.0
173.502869 60.0
173.571808 164.0
173.620865 164.0
173.6707 164.0
173.726715 136.0
173.731583 172.0
173.754639 120.0
173.775635 152.0
173.85817 212.0
173.889587 124.0
173.919968 116.0
173.946228 164.0
173.975098 132.0
174.008896 192.0
174.038116 180.0
174.085373 184.0
174.136444 332.0
174.166794 196.0
174.225037 168.0
174.262726 252.0
174.34848 264.0
174.398651 168.0
174.43013 168.0
174.473877 196.0
174.50528 40.0
174.539993 192.0
174.582687 136.0
174.662323 148.0
174.710953 128.0
174.731995 164.0
174.750412 148.0
174.789886 148.0
174.837265 144.0
174.892532 172.0
174.948181 28.0
174.98204 144.0
175.026978 172.0
175.105377 100.0
175.152176 104.0
175.18483 100.0
175.22171 192.0
175.282318 100.0
175.300751 180.0
175.324478 152.0
175.35611 112.0
175.376511 312.0
175.417313 164.0
175.458908 116.0
175.490555 140.0
175.511017 84.0
175.559113 96.0
175.584473 168.0
175.618286 184.0
175.656693 76.0
175.683075 188.0
175.740555 112.0
175.760162 188.0
175.771469 128.0
175.781479 124.0
175.810959 312.0
175.84668 48.0
175.893539 268.0
175.917953 144.0
175.948715 172.0
175.99202 148.0
176.036774 44.0
176.068466 116.0
176.089584 156.0
176.108078 160.0
176.152985 156.0
176.19455 156.0
176.207809 96.0
176.272583 196.0
176.303589 144.0
176.325287 116.0
176.344482 208.0
176.369659 148.0
176.433105 144.0
176.470123 40.0
176.503525 76.0
176.554749 132.0
176.573257 360.0
176.604736 148.0
176.632767 80.0
176.671951 168.0
176.700882 180.0
176.734894 364.0
176.803375 240.0
176.840027 180.0
176.865265 136.0
176.93721 104.0
177.015213 72.0
177.043259 184.0
177.066025 108.0
177.134399 172.0
177.159515 84.0
177.179443 80.0
177.221085 204.0
177.277283 160.0
177.311935 124.0
177.333893 168.0
177.378204 184.0
177.402222 184.0
177.440063 120.0
177.510773 116.0
177.575851 148.0
177.619507 124.0
177.651337 196.0
177.699097 168.0
177.722229 172.0
177.802368 148.0
177.841705 228.0
177.944809 104.0
177.992538 188.0
178.027725 144.0
178.078766 176.0
178.109512 136.0
178.131836 80.0
178.153091 192.0
178.171692 192.0
178.198257 212.0
178.236923 204.0
178.279221 324.0
178.332275 316.0
178.394928 208.0
178.421509 128.0
178.451813 180.0
178.492874 176.0
178.510483 216.0
178.554459 184.0
178.575745 44.0
178.609863 256.0
178.655716 124.0
178.742126 212.0
178.785919 208.0
178.812546 80.0
178.833252 188.0
178.942841 168.0
179.028183 116.0
179.0495 216.0
179.09552 244.0
179.148666 140.0
179.269836 272.0
179.293594 116.0
179.34137 292.0
179.371902 72.0
179.393219 116.0
179.421005 104.0
179.457291 128.0
179.478546 344.0
179.52121 512.0
179.539688 164.0
179.645065 156.0
179.685791 108.0
179.715515 100.0
179.777313 104.0
179.803314 140.0
179.833359 228.0
179.851334 196.0
179.877579 148.0
179.913086 180.0
179.948151 108.0
180.030777 140.0
180.056396 104.0
180.08168 180.0
180.13118 156.0
180.184647 184.0
180.27449 116.0
180.312485 124.0
180.330032 260.0
180.399017 264.0
180.442429 204.0
180.495911 208.0
180.543915 168.0
180.583649 184.0
180.613663 132.0
180.652618 68.0
180.69577 288.0
180.736465 172.0
180.740311 132.0
180.754883 364.0
180.803192 88.0
180.830322 116.0
180.871155 284.0
180.90741 240.0
180.940079 148.0
180.965485 172.0
180.987396 160.0
181.019226 128.0
181.028687 156.0
181.056931 268.0
181.106659 184.0
181.151047 172.0
181.201736 252.0
181.22435 116.0
181.238129 188.0
181.259796 212.0
181.317383 168.0
181.353165 116.0
181.37674 148.0
181.419632 296.0
181.443756 200.0
181.478622 432.0
181.511566 240.0
181.535004 156.0
181.562103 204.0
181.590454 148.0
181.628799 196.0
181.693176 160.0
181.713379 312.0
181.723877 164.0
181.731201 188.0
181.75676 104.0
181.761902 72.0
181.78035 148.0
181.814819 156.0
181.838089 116.0
181.858322 304.0
181.880783 128.0
181.889557 116.0
181.895035 148.0
181.929352 196.0
182.001877 276.0
182.023239 340.0
182.058243 1856.0
182.093063 136.0
182.126221 116.0
182.132401 124.0
182.162994 128.0
182.19577 160.0
182.223831 56.0
182.258331 132.0
182.293549 228.0
182.319717 328.0
182.329041 40.0
182.35553 292.0
182.414337 252.0
182.456131 204.0
182.484268 156.0
182.51004 92.0
182.540497 184.0
182.545532 232.0
182.570206 112.0
182.594406 56.0
182.626465 124.0
182.65387 172.0
182.671768 324.0
182.702255 180.0
182.722809 136.0
182.732635 140.0
182.751266 276.0
182.775909 188.0
182.825516 132.0
182.848038 188.0
182.866089 368.0
182.901566 296.0
182.928055 200.0
182.946716 168.0
182.981293 476.0
183.011459 596.0
183.068665 133656.0
183.151062 208.0
183.17662 180.0
183.200516 412.0
183.219238 144.0
183.238449 248.0
183.251999 208.0
183.286026 148.0
183.316772 372.0
183.342606 236.0
183.385132 348.0
183.410126 292.0
183.428421 200.0
183.447998 612.0
183.509521 992.0
183.552429 692.0
183.584763 348.0
183.605087 604.0
183.63063 652.0
183.661255 328.0
183.67128 160.0
183.679779 296.0
183.701355 516.0
183.706146 312.0
183.750137 184.0
183.758575 268.0
183.769043 448.0
183.798248 420.0
183.820969 604.0
183.844437 608.0
183.889603 472.0
183.899551 360.0
183.911255 784.0
183.919662 364.0
183.961639 1164.0
184.019653 1548.0
184.077744 484084.0
184.175644 456.0
184.210785 72.0
184.260345 664.0
184.267288 384.0
184.299454 204.0
184.327438 1652.0
184.355148 664.0
184.373062 676.0
184.392365 316.0
184.413116 404.0
184.450546 316.0
184.488312 1144.0
184.5233 18464.0
184.581451 468.0
184.617249 248.0
184.655045 96.0
184.683182 292.0
184.719406 64.0
184.741196 320.0
184.774323 336.0
184.789658 368.0
184.824982 152.0
184.862045 148.0
184.8974 248.0
184.918274 228.0
184.942657 536.0
184.965637 632.0
185.005997 284.0
185.024521 356.0
185.079742 128680.0
185.142761 132.0
185.180695 140.0
185.222748 268.0
185.24559 128.0
185.264343 300.0
185.291672 128.0
185.315231 316.0
185.344742 116.0
185.350357 196.0
185.372528 236.0
185.409439 408.0
185.450897 300.0
185.474945 388.0
185.531967 292.0
185.582245 164.0
185.625595 220.0
185.659225 96.0
185.703949 108.0
185.741348 56.0
185.763275 192.0
185.825745 128.0
185.833069 148.0
185.853638 176.0
185.876938 48.0
185.928284 212.0
185.961365 228.0
185.989243 116.0
186.020157 164.0
186.046051 304.0
186.081635 8916.0
186.142349 304.0
186.162476 216.0
186.182755 284.0
186.219391 344.0
186.257233 232.0
186.284271 184.0
186.301285 552.0
186.333282 584.0
186.352036 456.0
186.407242 288.0
186.444199 416.0
186.468369 368.0
186.507233 720.0
186.534943 344.0
186.545242 304.0
186.553864 288.0
186.572235 452.0
186.595703 356.0
186.620514 256.0
186.642563 304.0
186.663162 332.0
186.683441 152.0
186.724609 88.0
186.766571 76.0
186.791626 52.0
186.84845 84.0
186.87648 100.0
186.90033 140.0
186.925781 116.0
186.934662 156.0
186.968063 152.0
186.98996 40.0
187.006409 96.0
187.015549 72.0
187.085724 368.0
187.113846 144.0
187.157471 184.0
187.203644 76.0
187.225967 56.0
187.255936 76.0
187.292328 144.0
187.318146 96.0
187.347153 116.0
187.391235 136.0
187.409851 176.0
187.431992 88.0
187.46756 60.0
187.479492 148.0
187.502808 140.0
187.540176 148.0
187.566116 128.0
187.626205 108.0
187.644226 204.0
187.664154 48.0
187.703125 132.0
187.734253 248.0
187.763458 96.0
187.801636 48.0
187.848007 56.0
187.887878 52.0
187.927979 64.0
187.950256 76.0
187.987167 48.0
188.037476 128.0
188.101791 32.0
188.143845 48.0
188.246506 112.0
188.27655 64.0
188.295425 220.0
188.353607 132.0
188.441299 64.0
188.497818 92.0
188.529861 52.0
188.555923 124.0
188.596008 52.0
188.620819 56.0
188.719238 60.0
188.983749 68.0
189.036209 64.0
189.063904 76.0
189.170654 80.0
189.261002 96.0
189.37056 68.0
189.414383 56.0
189.446289 80.0
189.570557 28.0
189.726791 52.0
189.789856 144.0
189.828949 80.0
189.894058 76.0
189.913254 128.0
189.942856 76.0
189.973602 52.0
190.028473 96.0
190.055923 28.0
190.187653 76.0
190.212357 56.0
190.283737 104.0
190.38533 80.0
190.410049 60.0
190.530914 28.0
190.563889 48.0
190.594116 96.0
190.629837 52.0
190.715027 52.0
190.742523 68.0
190.764511 40.0
190.863495 128.0
190.923141 52.0
190.979004 244.0
191.083893 92.0
191.153549 108.0
191.199112 56.0
191.345001 152.0
191.409103 72.0
191.474426 92.0
191.579102 68.0
191.653488 100.0
191.690475 76.0
191.879501 56.0
192.15329 60.0
192.186996 140.0
192.218765 64.0
192.240845 84.0
192.315659 112.0
192.399826 168.0
192.472733 128.0
192.544525 96.0
192.668839 76.0
192.732376 28.0
192.768295 84.0
192.815277 48.0
192.87056 68.0
192.914795 84.0
192.978378 40.0
193.014954 88.0
193.073792 128.0
193.110641 80.0
193.171982 136.0
193.261978 124.0
193.393341 52.0
193.540802 112.0
193.587341 92.0
193.648911 80.0
193.68132 56.0
193.714554 68.0
193.757446 92.0
193.789368 28.0
193.902985 88.0
193.94455 128.0
193.974121 108.0
194.065613 72.0
194.103973 96.0
194.136703 92.0
194.247498 48.0
194.282867 168.0
194.377213 52.0
194.452133 168.0
194.529861 36.0
194.563171 84.0
194.638611 120.0
194.677994 148.0
194.724228 48.0
194.798691 104.0
194.867996 96.0
194.935379 76.0
194.989243 52.0
195.029861 120.0
195.071884 140.0
195.135513 56.0
195.177643 108.0
195.224487 132.0
195.263062 92.0
195.272324 80.0
195.280838 108.0
195.315186 104.0
195.352432 48.0
195.403488 92.0
195.426941 72.0
195.469299 32.0
195.567673 104.0
195.655777 68.0
195.675278 52.0
195.739319 100.0
195.7677 132.0
195.795013 32.0
195.912003 28.0
195.959366 68.0
196.006729 80.0
196.115417 148.0
196.281448 80.0
196.299484 192.0
196.355209 96.0
196.408203 68.0
196.433304 44.0
196.466782 164.0
196.534973 100.0
196.595139 180.0
196.69841 40.0
196.717957 56.0
196.776581 60.0
196.79892 92.0
196.824051 96.0
196.854767 44.0
196.912506 148.0
196.972061 128.0
197.0 96.0
197.036316 164.0
197.103378 124.0
197.122635 36.0
197.217133 108.0
197.284088 116.0
197.317627 92.0
197.43045 44.0
197.45842 80.0
197.494781 136.0
197.547928 44.0
197.577637 232.0
197.623474 184.0
197.673843 104.0
197.693436 64.0
197.713013 60.0
197.744949 76.0
197.858856 80.0
197.895981 112.0
197.936981 92.0
198.059601 188.0
198.108124 116.0
198.169464 48.0
198.362839 44.0
198.416107 72.0
198.592773 140.0
198.628723 88.0
198.653091 88.0
198.710602 92.0
198.767944 164.0
198.793243 48.0
198.839676 72.0
198.988464 76.0
199.033386 56.0
199.075684 1976.0
199.123245 140.0
199.151337 48.0
199.171005 32.0
199.193481 32.0
199.274948 104.0
199.449188 96.0
199.496979 72.0
199.589752 120.0
199.617874 52.0
199.797897 92.0
199.820404 48.0
199.907623 52.0
200.080917 280.0
200.175064 48.0
200.358154 88.0
200.431412 96.0
200.522385 56.0
200.631516 76.0
200.809174 36.0
200.924835 64.0
200.947403 128.0
201.048981 52.0
201.077209 316.0
201.128021 136.0
201.26918 100.0
201.336945 76.0
201.35672 80.0
201.384964 128.0
201.479202 100.0
201.718399 132.0
201.862595 40.0
201.902191 44.0
202.156799 56.0
202.26152 124.0
202.547516 92.0
202.629684 76.0
203.347122 68.0
203.568573 68.0
203.849808 72.0
204.077209 176.0
204.162521 48.0
204.279144 112.0
204.390106 36.0
204.95105 108.0
205.227539 92.0
205.455719 56.0
205.589828 140.0
205.789642 68.0
205.866745 112.0
206.098129 80.0
206.132416 80.0
206.575592 60.0
206.70433 52.0
206.867477 32.0
207.027817 72.0
207.056458 248.0
207.21402 152.0
207.337234 96.0
207.520691 48.0
207.784561 56.0
207.804657 52.0
207.913696 88.0
208.117508 160.0
208.172073 140.0
208.281204 84.0
208.387512 56.0
208.5858 56.0
208.626053 88.0
208.847473 116.0
208.890625 72.0
209.085114 108.0
209.207184 108.0
209.57872 40.0
210.342987 104.0
210.470016 120.0
210.602875 128.0
211.074921 216.0
211.235916 92.0
211.380585 144.0
211.800385 160.0
212.165527 180.0
212.5784 104.0
212.716721 92.0
213.036163 56.0
213.443069 160.0
213.521576 36.0
213.888199 156.0
214.052017 104.0
214.118225 68.0
214.266785 160.0
214.327972 100.0
214.587387 60.0
214.62529 184.0
215.089172 96.0
215.299393 32.0
215.875107 84.0
216.214478 132.0
216.387177 72.0
216.592178 112.0
216.779694 100.0
217.090591 148.0
217.448364 60.0
217.574585 64.0
217.680283 136.0
217.80365 60.0
217.956421 72.0
218.095642 148.0
218.512131 92.0
218.669815 48.0
219.059723 176.0
219.207779 64.0
219.457596 132.0
220.094955 80.0
220.186493 64.0
220.304657 132.0
220.90181 168.0
221.079346 128.0
221.517548 72.0
221.757568 40.0
221.890961 80.0
222.340668 84.0
222.751602 72.0
223.09079 144.0
223.155792 84.0
223.209305 72.0
223.328278 36.0
223.441315 172.0
223.706192 48.0
223.777634 160.0
224.054626 76.0
224.221497 72.0
224.457001 132.0
225.023941 160.0
225.149353 96.0
225.238953 132.0
225.370407 44.0
225.483963 88.0
225.708786 180.0
225.728699 256.0
225.91156 156.0
225.970047 132.0
226.086624 13764.0
226.153946 56.0
226.213821 28.0
226.300644 48.0
226.504288 64.0
226.669632 172.0
226.711029 80.0
226.815933 28.0
226.839905 72.0
226.860901 72.0
226.881882 76.0
227.026917 76.0
227.089645 2660.0
227.526917 40.0
227.680054 52.0
227.854279 56.0
227.929398 104.0
227.98349 56.0
228.085617 192.0
228.091965 176.0
228.225479 136.0
228.254044 168.0
228.338242 104.0
228.675217 100.0
228.719467 84.0
228.84079 40.0
228.876923 292.0
229.006424 60.0
229.096786 36.0
229.175125 48.0
229.283615 272.0
229.331833 60.0
229.389114 52.0
229.48558 56.0
229.533829 160.0
230.146378 40.0
230.291336 40.0
230.400085 144.0
230.832321 48.0
231.113632 144.0
231.237717 48.0
231.298248 104.0
231.376953 104.0
232.107178 88.0
232.222412 156.0
232.25882 44.0
232.808167 76.0
233.081573 112.0
233.107315 136.0
233.294327 60.0
233.607559 112.0
233.781006 44.0
233.829697 140.0
234.009293 96.0
234.18898 48.0
234.301682 92.0
234.474136 108.0
234.566818 172.0
234.905304 176.0
235.02124 76.0
235.106689 148.0
235.295944 92.0
235.341736 100.0
235.413559 52.0
235.705231 84.0
236.095047 168.0
236.518768 48.0
236.950562 76.0
237.103775 92.0
237.226395 88.0
237.364365 136.0
237.622009 92.0
237.974976 116.0
238.085526 120.0
238.891846 160.0
239.155487 80.0
239.330963 104.0
240.650665 100.0
240.944077 84.0
241.090057 196.0
241.265488 108.0
241.850159 56.0
242.09201 136.0
243.10112 204.0
243.217117 144.0
243.741989 180.0
244.099472 136.0
244.528793 108.0
244.877518 28.0
245.719193 128.0
245.97821 76.0
246.093735 72.0
246.190536 80.0
246.434189 84.0
247.403732 48.0
247.785828 60.0
248.488129 152.0
248.86792 36.0
249.068909 76.0
249.672379 100.0
250.116028 136.0
250.138062 64.0
250.402557 148.0
251.12442 132.0
251.357788 80.0
251.420898 152.0
252.05249 72.0
252.393875 72.0
252.669052 64.0
253.311722 120.0
253.707855 108.0
255.123779 108.0
255.19371 132.0
255.41951 172.0
255.731354 100.0
256.447998 92.0
256.734955 164.0
256.900818 52.0
257.564789 124.0
257.839569 48.0
258.087219 208.0
259.101898 356.0
259.741516 60.0
260.10553 424.0
260.865448 68.0
261.095917 148.0
261.102081 160.0
261.338226 80.0
261.753448 96.0
262.085236 188.0
263.088562 156.0
264.099762 128.0
264.14505 124.0
264.174164 104.0
265.126099 116.0
265.430847 40.0
265.800629 216.0
266.151215 60.0
266.729523 36.0
267.327972 32.0
267.415833 84.0
267.53302 112.0
267.744659 72.0
268.213867 68.0
268.308411 64.0
269.107758 76.0
269.199188 68.0
269.661224 84.0
270.032562 96.0
271.562134 132.0
271.923065 60.0
272.244812 84.0
272.744202 136.0
272.829681 84.0
273.378998 52.0
273.64563 64.0
275.51236 56.0
275.872589 84.0
276.10614 380.0
276.401764 68.0
276.530853 76.0
276.663239 36.0
277.097717 304.0
277.637421 64.0
277.766785 108.0
278.035553 44.0
278.113007 364.0
278.164978 48.0
278.377472 44.0
278.480438 64.0
278.583405 52.0
278.613312 60.0
278.666473 96.0
278.752869 32.0
278.982208 140.0
279.032074 108.0
279.116577 136.0
279.155121 76.0
280.483551 100.0
280.820343 72.0
282.166107 28.0
282.222931 48.0
283.732971 60.0
284.407257 88.0
284.588531 108.0
284.632202 84.0
284.816925 56.0
285.112579 76.0
285.240295 32.0
285.452118 52.0
285.822144 72.0
286.158752 136.0
286.233948 84.0
286.546082 100.0
286.734772 36.0
286.815155 76.0
286.833649 96.0
287.439606 88.0
287.770416 84.0
287.800812 64.0
287.885223 92.0
288.615143 80.0
289.318878 68.0
289.660919 80.0
289.77951 56.0
290.165894 152.0
291.527039 116.0
291.724182 68.0
292.220734 36.0
292.465759 104.0
292.5849 112.0
292.646179 56.0
292.966339 32.0
294.866974 48.0
295.037872 112.0
295.595398 60.0
295.780212 36.0
296.037018 100.0
296.084961 88.0
296.513214 68.0
296.629761 108.0
297.615204 120.0
297.755219 100.0
297.940704 88.0
298.012848 44.0
298.373749 56.0
298.628204 108.0
299.878052 108.0
300.057312 60.0
300.313812 64.0
300.467743 72.0
300.516052 72.0
300.647186 96.0
300.674774 56.0
300.82666 36.0
301.838989 28.0
302.119141 320.0
303.417877 100.0
303.684906 92.0
304.243591 108.0
304.476227 152.0
304.858398 72.0
305.077362 92.0
305.112152 108.0
305.32077 60.0
305.592102 40.0
305.658234 28.0
305.950592 52.0
306.239624 104.0
306.622864 76.0
306.647278 52.0
306.961029 80.0
307.104034 140.0
307.243561 120.0
307.299377 104.0
307.927765 72.0
308.315552 36.0
308.902985 80.0
309.319397 40.0
310.13205 96.0
310.549316 52.0
310.819458 52.0
310.87912 56.0
311.423309 72.0
313.157349 100.0
314.243103 84.0
314.370148 32.0
314.596039 88.0
315.079895 188.0
315.564087 56.0
315.645416 68.0
316.055756 68.0
316.703613 80.0
316.760803 108.0
316.863037 168.0
317.213867 100.0
317.348602 84.0
318.072327 56.0
318.115509 124.0
319.131042 152.0
319.369324 56.0
319.419098 120.0
319.451141 52.0
319.589874 60.0
319.885284 128.0
319.924438 116.0
319.967163 200.0
320.045502 44.0
320.127136 3652.0
320.330414 88.0
320.373169 72.0
320.622589 196.0
320.651093 56.0
321.021881 80.0
321.046844 136.0
321.131409 676.0
321.207336 44.0
321.57486 200.0
321.603424 60.0
321.692657 60.0
321.735504 92.0
321.985474 68.0
322.060455 56.0
322.135468 92.0
322.317688 44.0
322.582184 112.0
322.714447 36.0
323.272491 48.0
323.301117 156.0
323.344055 68.0
323.397736 84.0
323.444275 52.0
324.149841 48.0
324.422241 104.0
324.619446 68.0
324.924347 116.0
325.121704 68.0
325.14682 116.0
326.005157 84.0
326.138153 120.0
326.245972 40.0
326.606415 88.0
327.56311 60.0
328.467896 56.0
329.128357 72.0
329.558197 48.0
329.597961 108.0
330.324646 84.0
331.838501 68.0
332.143127 128.0
332.212036 92.0
332.353546 112.0
332.393463 60.0
332.437012 60.0
332.825409 92.0
333.497528 124.0
334.163544 56.0
334.832825 68.0
334.902039 92.0
335.073242 64.0
335.361115 108.0
335.426727 100.0
335.612671 140.0
335.641846 52.0
335.878906 68.0
336.108765 84.0
337.493134 28.0
338.213867 76.0
338.389587 132.0
338.67157 92.0
338.89505 100.0
340.296173 84.0
340.571594 56.0
340.729553 124.0
340.872864 40.0
341.251465 124.0
341.549347 68.0
341.70755 124.0
342.524353 64.0
343.077606 72.0
343.27301 124.0
344.262024 64.0
344.380219 40.0
344.9086 160.0
345.019501 44.0
345.082367 56.0
345.433685 56.0
345.555786 76.0
346.059143 116.0
346.336914 40.0
346.700012 72.0
347.05957 68.0
347.28952 96.0
347.879517 100.0
347.976044 68.0
348.395721 48.0
348.930908 72.0
349.046173 92.0
349.09079 92.0
349.433014 120.0
350.490479 76.0
352.016174 76.0
352.498047 92.0
352.556396 92.0
352.58139 108.0
352.845673 48.0
355.310059 48.0
355.591492 108.0
355.869293 96.0
356.188507 40.0
356.541718 116.0
356.688293 104.0
356.755951 28.0
356.789795 64.0
357.350189 56.0
357.500702 88.0
357.530823 136.0
358.325348 52.0
359.79248 48.0
360.188995 60.0
360.521484 76.0
360.597076 52.0
360.789856 108.0
361.228546 184.0
361.633423 100.0
361.769684 72.0
362.061249 180.0
362.137146 6600.0
362.258209 32.0
362.398407 184.0
362.508301 56.0
362.682617 36.0
362.838043 64.0
363.084534 60.0
363.138397 628.0
363.44873 76.0
363.554962 40.0
363.647675 104.0
363.96875 32.0
364.150024 296.0
364.19281 68.0
364.318176 68.0
364.386566 60.0
365.089783 44.0
365.42453 104.0
365.75943 64.0
365.961212 112.0
366.189697 64.0
366.40683 80.0
366.547821 44.0
366.742188 84.0
366.818024 120.0
367.012848 112.0
367.301544 132.0
368.245514 84.0
368.348633 80.0
368.990692 92.0
370.238129 80.0
370.920166 32.0
371.257568 72.0
371.978912 64.0
372.236145 96.0
372.927673 48.0
373.523682 56.0
373.843048 68.0
374.023926 140.0
374.898224 88.0
375.229736 64.0
376.52243 104.0
376.846924 80.0
377.523407 120.0
378.804565 120.0
380.14798 188.0
381.478333 92.0
382.123932 56.0
382.19397 96.0
383.354401 88.0
383.779297 112.0
383.833893 100.0
385.653168 64.0
387.139923 84.0
387.519867 84.0
388.323517 48.0
389.639313 64.0
390.652863 76.0
390.888947 52.0
391.203827 48.0
391.286499 96.0
392.720917 64.0
393.368073 72.0
393.845856 120.0
393.948578 60.0
395.55014 84.0
396.124359 88.0
397.174805 72.0
398.643829 104.0
399.196411 76.0
399.339569 160.0
400.896271 72.0
403.231018 52.0
405.035553 80.0
405.51239 60.0
406.543121 76.0
407.478729 112.0
407.667572 48.0
408.330933 76.0
408.962616 72.0
409.228333 48.0
410.92923 84.0
411.328766 28.0
412.742828 68.0
412.88031 36.0
413.572205 60.0
415.132019 116.0
417.16217 36.0
417.772186 60.0
418.223877 72.0
418.301208 72.0
421.319 48.0
423.413361 48.0
423.470703 84.0
424.191864 72.0
425.8414 112.0
426.515289 56.0
427.4487 92.0
428.140503 64.0
428.643066 76.0
429.971008 64.0
431.214172 40.0
432.864868 112.0
433.158936 104.0
433.341217 68.0
433.506989 32.0
434.971069 104.0
435.710297 48.0
437.207245 72.0
437.727631 80.0
438.002502 56.0
438.573364 40.0
441.981262 72.0
442.324463 36.0
443.85788 60.0
444.226959 36.0
445.183929 64.0
446.612946 64.0
446.646576 64.0
446.72229 56.0
451.146149 60.0
451.526703 88.0
451.66629 56.0
452.978546 48.0
453.783752 60.0
453.949127 88.0
454.292694 76.0
457.118195 72.0
457.292694 48.0
457.93988 148.0
459.052216 108.0
460.37088 96.0
460.434967 84.0
460.759613 64.0
465.634399 92.0
465.840576 80.0
466.459381 72.0
467.762817 96.0
471.022858 72.0
471.372833 108.0
471.830994 68.0
472.890808 56.0
473.42334 84.0
473.522949 96.0
474.667084 68.0
474.92511 52.0
474.975006 56.0
475.994934 40.0
476.594391 64.0
476.78125 28.0
477.842255 60.0
478.542999 124.0
478.691071 56.0
480.177185 104.0
480.369507 88.0
481.320557 60.0
481.722382 120.0
482.675171 116.0
485.127075 80.0
489.72348 60.0
490.622437 72.0
490.886963 48.0
491.107483 108.0
491.394257 72.0
498.670105 64.0
499.3237 36.0
500.004395 84.0
500.939484 44.0
501.327118 40.0
502.874695 72.0
505.614471 48.0
506.850464 88.0
510.329193 52.0
510.760925 80.0
511.363861 76.0
511.922119 56.0
512.395081 124.0
512.86377 32.0
513.14325 56.0
513.228943 68.0
515.698364 60.0
518.450134 96.0
518.518127 48.0
520.586914 44.0
522.650696 116.0
522.819092 104.0
522.910095 60.0
523.852661 36.0
523.889099 84.0
524.408569 60.0
524.750488 88.0
525.690125 72.0
525.786011 52.0
527.645142 52.0
530.818298 64.0
530.932922 40.0
533.908936 76.0
534.074524 72.0
534.484009 88.0
534.990295 88.0
539.257141 68.0
539.400452 64.0
543.248718 120.0
543.545654 52.0
545.64978 52.0
546.165955 140.0
546.510193 88.0
547.739319 68.0
550.500427 60.0
551.752686 64.0
552.360657 88.0
553.217041 56.0
553.905396 144.0
558.891418 32.0
559.272583 100.0
559.644531 56.0
560.709167 128.0
562.322205 44.0
562.548767 112.0
567.535461 72.0
568.389282 48.0
570.531372 76.0
574.832458 108.0
576.738098 60.0
577.531799 40.0
578.235168 92.0
579.068237 68.0
579.480225 44.0
579.858826 76.0
580.084106 52.0
580.616333 72.0
581.27356 64.0
586.448425 56.0
589.174927 60.0
589.720947 40.0
596.886414 88.0
597.40686 64.0
599.310547 64.0
599.559082 52.0
601.45636 112.0
603.034058 72.0
603.464294 40.0
605.446106 60.0
608.231079 68.0
609.011841 128.0
611.775391 108.0
612.898376 48.0
615.251038 28.0
617.029663 60.0
617.801147 164.0
619.528931 100.0
621.124084 72.0
621.571716 36.0
623.354431 96.0
625.657349 44.0
626.518982 128.0
626.877686 52.0
628.159119 80.0
628.291687 132.0
629.092285 44.0
629.147217 52.0
629.281982 136.0
629.326965 116.0
629.666504 48.0
631.190735 92.0
641.19104 76.0
641.584229 104.0
643.395447 68.0
644.875488 40.0
645.780579 112.0
647.172241 132.0
659.534851 80.0
660.818481 64.0
662.02655 92.0
662.292847 48.0
664.076599 88.0
664.507507 52.0
667.764404 96.0
668.582458 56.0
669.550354 72.0
673.692322 84.0
674.803528 52.0
675.47583 48.0
678.515747 96.0
681.126099 68.0
681.697632 104.0
683.861206 128.0
692.691101 136.0
696.289368 140.0
698.981018 88.0
699.328369 44.0
702.310669 236.0
705.595337 76.0
708.908936 88.0
710.122986 40.0
711.598267 72.0
714.739624 72.0
718.725403 108.0
718.768127 36.0
726.783875 60.0
733.404236 92.0
734.040405 108.0
737.490295 48.0
739.37793 112.0
742.308777 84.0
743.279785 76.0
757.61969 88.0
759.516418 56.0
760.432739 56.0
760.619324 68.0
762.723206 28.0
763.168518 72.0
765.419067 56.0
765.479614 84.0
770.515625 32.0
770.692444 64.0
771.648621 40.0
775.152466 52.0
775.884094 48.0
779.464172 44.0
780.392456 76.0
781.115417 68.0
786.682556 56.0
793.261353 60.0
796.667725 104.0
798.376465 48.0
803.338867 56.0
806.467163 72.0
808.288269 84.0
809.578979 52.0
809.624268 76.0
812.679688 76.0
814.439636 116.0
821.002075 84.0
829.86554 68.0
832.620056 52.0
837.560791 76.0
839.549255 148.0
841.338013 68.0
849.938904 108.0
851.721252 92.0
853.924194 60.0
854.814331 40.0
859.155212 52.0
861.122375 92.0
861.169128 128.0
864.934753 152.0
865.274292 160.0
866.170288 56.0
869.717896 88.0
870.575134 80.0
877.465637 180.0
878.462341 200.0
879.7547 72.0
880.008606 116.0
881.479431 28.0
881.828125 176.0
887.552856 160.0
900.311584 296.0
912.04303 208.0
913.341858 128.0
915.394226 144.0
915.851929 160.0
916.436279 68.0
916.809937 176.0
918.938538 128.0
920.677063 80.0
922.71344 88.0
922.906921 44.0
923.251587 64.0
926.780823 112.0
930.844971 64.0
933.40332 124.0
934.029724 104.0
936.04425 52.0
936.555847 72.0
937.207764 96.0
938.048828 184.0
940.15918 136.0
945.788391 64.0
946.376099 196.0
947.086487 184.0
948.600037 124.0
949.734497 40.0
951.440491 152.0
952.883789 200.0
954.322021 120.0
955.964417 204.0
956.37677 96.0
960.061157 108.0
962.103577 112.0
962.56665 60.0
962.924866 204.0
964.463379 88.0
966.405273 68.0
966.652771 144.0
967.352173 132.0
970.679382 116.0
971.374023 156.0
971.473267 140.0
974.981506 180.0
976.604248 44.0
976.989929 188.0
979.26825 168.0
980.208984 200.0
980.495667 56.0
980.963135 88.0
983.720459 136.0
985.394226 172.0
986.66925 144.0
986.925598 108.0
987.344543 208.0
987.774963 108.0
990.079529 128.0
992.924866 92.0
995.353577 240.0
997.766357 152.0
998.564941 188.0
999.470886 184.0
1000.018372 156.0
1001.2146 204.0
1001.321716 152.0
1001.548462 204.0
1001.857117 80.0
1005.03479 248.0
1006.499268 100.0
1007.907898 124.0
1008.05957 116.0
1008.501953 160.0
1009.039307 276.0
1010.108093 48.0
1011.348328 124.0
1011.671143 192.0
1012.374023 140.0
1012.532349 60.0
1013.089722 160.0
1015.181458 68.0
1015.308289 68.0
1015.801758 120.0
1017.954651 100.0
1018.342041 128.0
1018.748596 144.0
1018.831177 156.0
1020.814331 204.0
1021.176819 92.0
1021.641174 204.0
1022.182007 224.0
1022.245667 156.0
1022.493835 104.0
1023.926392 284.0
1024.684448 196.0
1026.054688 60.0
1028.025757 212.0
1029.670166 172.0
1029.826172 40.0
1031.289307 140.0
1033.169434 176.0
1034.071655 148.0
1035.806885 188.0
1037.178223 92.0
1037.312866 56.0
1037.498779 140.0
1037.633423 136.0
1039.974854 136.0
1040.244507 128.0
1041.477417 84.0
1042.171265 160.0
1042.460327 108.0
1042.69812 192.0
1044.209106 160.0
1044.318481 124.0
1045.553711 108.0
1045.984985 204.0
1048.258545 200.0
1049.883179 144.0
1049.947632 80.0
1052.180298 180.0
1053.316895 72.0
1053.775635 76.0
1055.01001 152.0
1055.462646 60.0
1055.850586 76.0
1056.982788 116.0
1057.092773 168.0
1057.416382 120.0
1057.532837 84.0
1057.675293 132.0
1057.882446 112.0
1058.756592 128.0
1060.155884 88.0
1060.862427 168.0
1063.139038 40.0
1065.125854 172.0
1065.554688 132.0
1065.756104 68.0
1066.048462 184.0
1066.730957 108.0
1067.478638 68.0
1067.556763 148.0
1067.937134 184.0
1069.866577 140.0
1070.218262 164.0
1070.289795 164.0
1071.143066 204.0
1071.494751 116.0
1071.820557 112.0
1071.924805 72.0
1073.085083 84.0
1074.317749 140.0
1075.557617 196.0
1076.093018 132.0
1076.230103 192.0
1077.850098 180.0
1078.915405 196.0
1079.072388 160.0
1081.407715 212.0
1082.304688 168.0
1082.769653 140.0
1083.994629 108.0
1086.092651 96.0
1086.560669 200.0
1087.352539 168.0
1089.401123 120.0
1091.01123 180.0
1091.241455 100.0
1091.300537 76.0
1092.109497 48.0
1092.846313 204.0
1093.043701 76.0
1093.162109 40.0
1093.57019 184.0
1093.813721 152.0
1094.67627 152.0
1096.006836 100.0
1097.753784 212.0
1098.591431 84.0
1099.158813 288.0
1100.049927 164.0
1100.165771 208.0
1100.351562 148.0
1100.498779 48.0
1101.509277 52.0
1101.77356 72.0
1101.97168 168.0
1103.505127 80.0
1103.948242 176.0
1104.378052 204.0
1105.7146 156.0
1105.820557 220.0
1106.350098 176.0
1106.667847 176.0
1107.541992 132.0
1108.105103 156.0
1108.509399 200.0
1108.933472 140.0
1109.370972 172.0
1109.430664 168.0
1109.477051 80.0
1109.63623 108.0
1110.292725 160.0
1111.593018 56.0
1112.17041 156.0
1112.449219 268.0
1112.548706 32.0
1112.900635 160.0
1113.803833 228.0
1114.082886 144.0
1117.02124 172.0
1117.51355 132.0
1118.352051 152.0
1120.249878 132.0
1120.762817 264.0
1122.202637 184.0
1123.47644 128.0
1124.984741 64.0
1125.158325 188.0
1126.440552 152.0
1126.78125 76.0
1126.901489 252.0
1127.342529 88.0
1127.629883 172.0
1128.010864 120.0
1128.077759 148.0
1128.258301 84.0
1129.261353 88.0
1129.855469 176.0
1130.064087 188.0
1130.445557 92.0
1130.786865 128.0
1130.859375 200.0
1131.299438 96.0
1131.489746 128.0
1131.596436 116.0
1132.420532 80.0
1133.391968 108.0
1133.894531 124.0
1134.953735 104.0
1135.01416 132.0
1136.134155 136.0
1136.234863 200.0
1136.637451 216.0
1136.724609 132.0
1136.879028 116.0
1137.409302 48.0
1138.389526 84.0
1138.980591 68.0
1139.081299 108.0
1139.215698 208.0
1139.464233 108.0
1140.243774 100.0
1140.378174 64.0
1142.08606 236.0
1142.90686 124.0
1143.324097 168.0
1143.57312 152.0
1143.674072 140.0
1143.983643 116.0
1144.468384 176.0
1145.162109 68.0
1145.579712 124.0
1146.543335 180.0
1147.055542 72.0
1147.17688 100.0
1148.269287 36.0
1148.56604 92.0
1148.775146 68.0
1148.849365 148.0
1148.970825 228.0
1149.699585 148.0
1150.577026 112.0
1150.7323 176.0
1151.171265 184.0
1151.691284 164.0
1152.339844 168.0
1152.731812 148.0
1152.839844 80.0
1153.502319 148.0
1153.549561 144.0
1153.603638 136.0
1153.989014 160.0
1154.117554 116.0
1155.416138 164.0
1155.984497 160.0
1157.555054 140.0
1158.52356 156.0
1159.45874 132.0
1159.689087 208.0
1160.238281 164.0
1160.367065 88.0
1160.834961 176.0
1161.201172 132.0
1161.682739 96.0
1163.44043 40.0
1163.501587 36.0
1164.031128 180.0
1164.275635 44.0
1164.656006 168.0
1165.607178 48.0
1166.429565 116.0
1167.19458 184.0
1167.7146 96.0
1167.775879 132.0
1168.163574 168.0
1168.578613 136.0
1168.769165 168.0
1169.374756 108.0
1169.429199 44.0
1169.510864 144.0
1171.063354 132.0
1171.138306 284.0
1172.937256 180.0
1173.039429 180.0
1173.564453 140.0
1173.714478 56.0
1173.782593 160.0
1174.478271 200.0
1175.83606 184.0
1175.952148 212.0
1176.375366 144.0
1177.447388 100.0
1178.089478 92.0
1178.615479 136.0
1179.312622 220.0
1179.374146 132.0
1179.55188 92.0
1179.852661 188.0
1180.864746 208.0
1181.179321 40.0
1182.97229 168.0
1183.170776 156.0
1183.766479 140.0
1184.088379 212.0
1184.197998 84.0
1184.266479 32.0
1184.574707 76.0
1184.650024 100.0
1185.657349 124.0
1186.520996 256.0
1187.549683 176.0
1188.448364 196.0
1188.571899 232.0
1188.619873 52.0
1189.354248 100.0
1189.498413 140.0
1190.068237 152.0
1190.130005 212.0
1191.263306 40.0
1191.51062 208.0
1191.709839 100.0
1191.990479 216.0
1193.297607 144.0
1193.710083 208.0
1194.033325 108.0
1194.404785 116.0
1194.514893 116.0
1194.673096 60.0
1194.941406 140.0
1196.276611 188.0
1196.662109 212.0
1197.192261 204.0
1197.254272 192.0
1197.702026 164.0
1198.204834 52.0
1198.315186 40.0
1198.494263 116.0
1199.438477 164.0
1199.528076 140.0
1199.590088 156.0
1199.831421 212.0
1200.376099 168.0
1202.825439 32.0
1203.060181 176.0
1203.522705 228.0
1203.605591 40.0
1203.840332 80.0
1204.088989 176.0
1204.987061 72.0
1205.15979 128.0
1205.954468 176.0
1206.00293 80.0
1206.258667 140.0
1206.417603 36.0
1206.874023 196.0
1207.702026 224.0
1208.042847 232.0
1208.118896 164.0
1208.610107 180.0
1208.734741 140.0
1209.233032 176.0
1209.58606 132.0
1209.669067 100.0
1209.724487 104.0
1210.202148 60.0
1210.299072 132.0
1210.47229 272.0
1211.500366 136.0
1211.795288 64.0
1212.03772 164.0
1212.904053 140.0
1213.332275 172.0
1214.374023 128.0
1214.568359 80.0
1215.660767 152.0
1215.757446 212.0
1215.851929 172.0
1216.025391 180.0
1216.677979 44.0
1216.94873 68.0
1217.72644 164.0
1217.921021 112.0
1218.06897 92.0
1218.150269 40.0
1218.504517 160.0
1218.664307 152.0
1219.477417 140.0
1220.172607 200.0
1221.716553 68.0
1222.363647 124.0
1222.457764 128.0
1222.509766 60.0
1222.809082 76.0
1222.969116 180.0
1223.045654 220.0
1223.365845 128.0
1224.250244 296.0
1224.33374 124.0
1224.593506 164.0
1225.176636 108.0
1225.329834 148.0
1225.796753 212.0
1226.884766 168.0
1227.274536 128.0
1227.567383 124.0
1227.727783 204.0
1228.223022 128.0
1228.446167 204.0
1229.339355 64.0
1229.416138 188.0
1229.471924 156.0
1230.295532 124.0
1230.546875 48.0
1230.903076 164.0
1231.007812 164.0
1231.217285 180.0
1231.45105 236.0
1231.622437 188.0
1231.755127 188.0
1232.132324 92.0
1232.363647 196.0
1232.914917 72.0
1233.837646 112.0
1233.893555 160.0
1234.103394 132.0
1235.096436 196.0
1235.341309 104.0
1235.443848 168.0
1235.59314 220.0
1235.74707 244.0
1235.838013 196.0
1237.209839 52.0
1237.937988 164.0
1238.071045 160.0
1238.554321 112.0
1239.086792 208.0
1239.261963 96.0
1239.4021 136.0
1240.508179 168.0
1241.112427 140.0
1241.325317 192.0
1242.045166 100.0
1242.901123 132.0
1243.448486 172.0
1243.726807 148.0
1243.960938 180.0
1244.115356 232.0
1244.515503 196.0
1244.69812 80.0
1244.866699 148.0
1244.979004 136.0
1245.175659 156.0
1245.484741 220.0
1245.618164 216.0
1245.892212 144.0
1246.517456 184.0
1247.248413 188.0
1247.487427 128.0
1247.796753 156.0
1248.14502 136.0
1248.985229 192.0
1249.469971 160.0
1249.984375 84.0
1250.076904 128.0
1250.343262 204.0
1250.406616 116.0
1251.525879 188.0
1251.694946 92.0
1251.878052 152.0
1252.117432 152.0
1252.223145 144.0
1252.730225 160.0
1254.005737 168.0
1254.414551 124.0
1255.105469 200.0
1255.176025 216.0
1255.387573 164.0
1255.465088 208.0
1255.782471 76.0
1255.874146 136.0
1255.937622 112.0
1256.008179 160.0
1256.110107 128.0
1256.18457 208.0
1256.918335 196.0
1257.094727 164.0
1257.701782 132.0
1258.181763 60.0
1258.238281 48.0
1258.393555 180.0
1258.690186 104.0
1259.361572 220.0
1259.587036 76.0
1260.095703 104.0
1260.286499 104.0
1260.569214 60.0
1260.929565 176.0
1261.304199 96.0
1261.502197 200.0
1261.742554 128.0
1262.159668 116.0
1262.272827 80.0
1263.072021 132.0
1263.836182 276.0
1263.928101 204.0
1264.034302 148.0
1264.260742 136.0
1264.444702 164.0
1264.56604 112.0
1264.940186 188.0
1265.103027 160.0
1265.277344 180.0
1265.38623 124.0
1265.598633 144.0
1265.803955 192.0
1266.08728 100.0
1266.214722 108.0
1266.469727 156.0
1266.880615 80.0
1266.958496 168.0
1267.794678 208.0
1267.908081 148.0
1268.049805 204.0
1268.347534 108.0
1268.581421 104.0
1268.645264 180.0
1269.325928 160.0
1269.439331 136.0
1269.801025 100.0
1270.581299 224.0
1270.630981 172.0
1270.93396 104.0
1271.049683 100.0
1271.638672 96.0
1271.80896 92.0
1272.057495 124.0
1272.284668 132.0
1272.746094 96.0
1273.214844 132.0
1273.364014 108.0
1274.379883 208.0
1274.63562 96.0
1275.147339 152.0
1276.377197 196.0
1276.434082 96.0
1276.512329 108.0
1276.711426 216.0
1276.832397 136.0
1277.131104 128.0
1277.600586 140.0
1277.830444 132.0
1278.027466 168.0
1278.305054 176.0
1278.504272 72.0
1278.632324 148.0
1279.082397 144.0
1279.244507 136.0
1279.308594 176.0
1279.600464 124.0
1280.02063 188.0
1280.170166 168.0
1281.096069 72.0
1281.965332 44.0
1282.136475 180.0
1282.492798 196.0
1282.74585 112.0
1282.970459 148.0
1283.533691 72.0
1283.940186 192.0
1284.011475 100.0
1284.307617 188.0
1284.93396 176.0
1285.181396 256.0
1285.345581 140.0
1285.40979 144.0
1285.638184 100.0
1286.130615 144.0
1286.187744 132.0
1286.344727 168.0
1286.444702 40.0
1286.758789 156.0
1286.849609 196.0
1287.251465 156.0
1287.380127 116.0
1287.72998 164.0
1288.408691 148.0
1288.580078 188.0
1289.451904 148.0
1289.569824 156.0
1289.809326 244.0
1289.883179 272.0
1290.130981 48.0
1290.392578 176.0
1290.960449 160.0
1291.425293 104.0
1291.518311 120.0
1291.632812 124.0
1291.728638 220.0
1292.276611 92.0
1292.491333 144.0
1292.548584 112.0
1292.79187 136.0
1293.037476 188.0
1293.994385 128.0
1294.538574 148.0
1294.903809 140.0
1294.989868 160.0
1295.075806 156.0
1296.60437 224.0
1296.875366 216.0
1297.297241 120.0
1297.752075 208.0
1297.999878 124.0
1298.214966 200.0
1298.272339 120.0
1298.422974 132.0
1298.630981 108.0
1298.853271 140.0
1299.025513 128.0
1299.369873 112.0
1299.463135 228.0
1299.513306 200.0
1299.929565 176.0
1300.151978 132.0
1300.8302 124.0
1301.070801 152.0
1301.365112 128.0
1301.75293 136.0
1301.810425 172.0
1302.046143 168.0
1302.37561 132.0
1302.485474 156.0
1303.117676 256.0
1303.24707 76.0
1303.55603 40.0
1304.569458 152.0
1304.885864 136.0
1305.151855 124.0
1305.331665 28.0
1306.057983 152.0
1306.58313 112.0
1306.993286 40.0
1307.317139 72.0
1307.367554 44.0
1307.49707 164.0
1307.849731 80.0
1308.015259 136.0
1308.18811 192.0
1308.504883 220.0
1308.619995 124.0
1308.814453 196.0
1309.023315 168.0
1309.289673 148.0
1309.693237 144.0
1309.90918 160.0
1310.089233 104.0
1310.182983 148.0
1310.495239 212.0
1311.175171 172.0
1311.314331 208.0
1311.451172 140.0
1311.63147 196.0
1311.927002 128.0
1312.309082 176.0
1312.510986 68.0
1312.727295 120.0
1313.023071 188.0
1313.600098 176.0
1313.693848 220.0
1314.220581 196.0
1314.278198 100.0
1314.415405 52.0
1314.610229 84.0
1315.057617 236.0
1315.844482 72.0
1316.118896 244.0
1316.290039 196.0
1316.754395 88.0
1317.693481 168.0
1317.881348 188.0
1317.946411 144.0
1318.401611 176.0
1318.669067 208.0
1318.777466 88.0
1318.943726 128.0
1319.225708 152.0
1319.59436 156.0
1319.710083 156.0
1319.869141 160.0
1319.941406 160.0
1320.187378 60.0
1320.324707 124.0
1320.527222 140.0
1320.671875 36.0
1320.802124 52.0
1320.932373 236.0
1320.990234 156.0
1321.192749 172.0
1321.366333 152.0
1322.053833 64.0
1322.357788 120.0
1322.509766 188.0
1322.586182 140.0
1322.643188 316.0
1323.161255 248.0
1323.212036 168.0
1323.313354 80.0
1323.443726 108.0
1324.052002 52.0
1324.312744 192.0
1324.508545 100.0
1324.595215 168.0
1324.819824 72.0
1324.886963 192.0
1325.261719 100.0
1325.428467 132.0
1325.50061 136.0
1325.544922 172.0
1325.921265 168.0
1326.537354 216.0
1326.588013 248.0
1326.928833 196.0
1327.095581 212.0
1327.233398 88.0
1327.298584 144.0
1327.371094 108.0
1327.675659 92.0
1327.814209 40.0
1327.958618 164.0
1328.357544 156.0
1328.713013 188.0
1328.865356 188.0
1329.278931 216.0
1329.975708 192.0
1330.055542 188.0
1330.404053 44.0
1330.459106 204.0
1330.614502 52.0
1330.878662 216.0
1331.122803 172.0
1331.609375 144.0
1332.451172 156.0
1332.670044 132.0
1332.902588 176.0
1334.283569 168.0
1334.378052 76.0
1334.683472 160.0
1334.858032 80.0
1334.996216 132.0
1335.252075 208.0
1336.130859 64.0
1336.232788 160.0
1336.349121 208.0
1337.135132 108.0
1337.520874 104.0
1337.768433 164.0
1338.008667 160.0
1338.627563 116.0
1338.707642 152.0
1339.210205 152.0
1339.623291 176.0
1339.712769 112.0
1339.800293 140.0
1340.222778 152.0
1340.550781 84.0
1341.126465 192.0
1341.206665 124.0
1341.644043 216.0
1341.830322 116.0
1341.978149 180.0
1342.074219 104.0
1342.161743 40.0
1342.786743 164.0
1342.869141 136.0
1343.277588 156.0
1343.350586 188.0
1343.715332 116.0
1344.116699 144.0
1344.175049 132.0
1344.386719 236.0
1344.737061 304.0
1344.926758 152.0
1345.021729 172.0
1345.490112 300.0
1345.558472 128.0
1346.014648 164.0
1346.292114 156.0
1346.628052 176.0
1346.738892 160.0
1346.861816 144.0
1347.00061 116.0
1347.172974 152.0
1347.256348 96.0
1347.928467 44.0
1348.79248 172.0
1349.0979 124.0
1349.741333 76.0
1350.143555 52.0
1350.275269 280.0
1350.341064 140.0
1350.831177 152.0
1351.167603 152.0
1351.252686 236.0
1351.32312 132.0
1351.409058 112.0
1351.4823 92.0
1351.640015 188.0
1351.7677 176.0
1351.818848 76.0
1351.970459 180.0
1352.118896 84.0
1352.258057 104.0
1352.323853 124.0
1353.217041 84.0
1354.154297 44.0
1354.278809 188.0
1354.38147 152.0
1354.646362 104.0
1354.747681 172.0
1355.092041 76.0
1355.31189 100.0
1355.546387 140.0
1355.802856 88.0
1355.905396 188.0
1356.052002 176.0
1356.286743 136.0
1356.371216 124.0
1356.521118 224.0
1356.638428 236.0
1356.733765 100.0
1356.881836 156.0
1357.386353 132.0
1357.503662 60.0
1357.642944 168.0
1357.892334 140.0
1358.024414 144.0
1358.222412 128.0
1358.303101 104.0
1358.39502 160.0
1358.515869 172.0
1358.633179 180.0
1358.809326 148.0
1359.190796 152.0
1359.325928 140.0
1359.557739 172.0
1359.667847 132.0
1359.939453 124.0
1360.122925 164.0
1360.535889 208.0
1361.070068 188.0
1361.136108 200.0
1361.208374 172.0
1361.400513 64.0
1361.778564 160.0
1362.465576 168.0
1362.715332 112.0
1362.796143 156.0
1362.987183 264.0
1363.398804 180.0
1363.523682 108.0
1363.589844 104.0
1364.327148 104.0
1364.622192 28.0
1365.045532 152.0
1365.295532 208.0
1365.376465 204.0
1365.52356 164.0
1365.777466 184.0
1365.950195 204.0
1366.089966 216.0
1366.259155 188.0
1366.340088 152.0
1366.443115 148.0
1366.663818 96.0
1367.024414 128.0
1367.230469 132.0
1367.304077 316.0
1367.414429 36.0
1367.469238 168.0
1367.694092 124.0
1367.750977 156.0
1368.381592 116.0
1368.60437 216.0
1369.313965 236.0
1369.660156 148.0
1370.54834 108.0
1370.567139 188.0
1370.627319 176.0
1370.816895 168.0
1371.052734 116.0
1371.299438 172.0
1371.568726 124.0
1371.69397 148.0
1371.760376 140.0
1371.812012 112.0
1371.915161 204.0
1372.136353 136.0
1372.451294 236.0
1372.792603 188.0
1372.883057 160.0
1372.915039 112.0
1372.993774 128.0
1373.488037 212.0
1373.674805 176.0
1373.935913 52.0
1374.068726 232.0
1374.141235 144.0
1374.555664 160.0
1374.666382 156.0
1374.880371 152.0
1375.493042 128.0
1375.72522 176.0
1375.987671 140.0
1376.218628 84.0
1376.452881 232.0
1376.816406 104.0
1376.918091 144.0
1377.257812 172.0
1377.335083 164.0
1377.435181 204.0
1377.553345 124.0
1377.678955 80.0
1377.738037 132.0
1377.841431 120.0
1378.026123 184.0
1378.129639 120.0
1378.309326 212.0
1378.816895 136.0
1378.905518 88.0
1378.964722 140.0
1379.03125 92.0
1379.312134 160.0
1379.814819 168.0
1379.881348 132.0
1379.94043 168.0
1380.125366 180.0
1380.4729 160.0
1380.739136 156.0
1380.946167 120.0
1381.160767 76.0
1381.380615 160.0
1381.456665 140.0
1381.531128 164.0
1381.663818 108.0
1381.900513 120.0
1382.055908 28.0
1382.107666 176.0
1382.226074 136.0
1382.38147 184.0
1382.551758 88.0
1382.66272 168.0
1382.851074 44.0
1383.062378 188.0
1383.158691 164.0
1383.254883 96.0
1383.314087 144.0
1383.832275 124.0
1384.054443 112.0
1384.313599 200.0
1384.832031 92.0
1384.883911 40.0
1384.935791 160.0
1385.166748 136.0
1385.298706 296.0
1385.424683 144.0
1385.51355 164.0
1386.276733 140.0
1386.447266 204.0
1386.862305 100.0
1387.017944 44.0
1387.121704 144.0
1387.210693 136.0
1387.483887 132.0
1387.72229 64.0
1387.903809 204.0
1388.018799 188.0
1388.167114 220.0
1388.241333 180.0
1388.515747 124.0
1388.901367 168.0
1389.178711 208.0
1389.264893 180.0
1389.324219 204.0
1389.383667 180.0
1389.5177 232.0
1389.635864 120.0
1389.843628 68.0
1389.954956 140.0
1390.07373 164.0
1390.533813 48.0
1390.686768 116.0
1390.93457 136.0
1391.101562 148.0
1391.194458 144.0
1391.365234 200.0
1391.446899 100.0
1391.818115 136.0
1391.877563 80.0
1392.122559 396.0
1392.408936 216.0
1392.508789 156.0
1392.583008 112.0
1392.642456 132.0
1392.791016 188.0
1393.563721 164.0
1394.106079 128.0
1394.641235 132.0
1395.014893 220.0
1395.102173 96.0
1395.325195 104.0
1395.734131 176.0
1396.187744 144.0
1396.336548 156.0
1396.477783 112.0
1396.656372 156.0
1396.745605 80.0
1396.970947 172.0
1397.139893 112.0
1397.519287 196.0
1397.59375 124.0
1397.687988 176.0
1397.973267 88.0
1398.032715 180.0
1398.188477 144.0
1398.242432 160.0
1398.322998 156.0
1398.4198 116.0
1398.524048 40.0
1398.7771 160.0
1399.033813 132.0
1399.089722 108.0
1399.19397 128.0
1399.418579 224.0
1399.484375 200.0
1399.698975 176.0
1399.834351 96.0
1399.901367 144.0
1399.977173 204.0
1400.087524 84.0
1400.154541 76.0
1400.355713 172.0
1400.757935 56.0
1400.944092 28.0
1401.048462 416.0
1401.103394 112.0
1401.197388 196.0
1401.309204 156.0
1401.458252 92.0
1401.637085 72.0
1402.136353 120.0
1402.210938 204.0
1402.292847 152.0
1402.598511 116.0
1402.72522 236.0
1402.886475 132.0
1403.135254 44.0
1403.279541 204.0
1403.35437 176.0
1403.724243 156.0
1403.977905 140.0
1404.134521 156.0
1404.30603 120.0
1404.373169 196.0
1404.470093 140.0
1404.738647 104.0
1404.850586 116.0
1405.104248 96.0
1405.202271 136.0
1405.305664 120.0
1405.842896 108.0
1405.954834 104.0
1406.432617 76.0
1406.718872 244.0
1406.873047 168.0
1407.052124 112.0
1407.164185 152.0
1407.288086 172.0
1407.454712 192.0
1407.474365 176.0
1407.59729 272.0
1407.783936 44.0
1407.895996 172.0
1408.064941 180.0
1408.194702 124.0
1408.351562 152.0
1408.570923 156.0
1408.604492 116.0
1408.629517 148.0
1408.725098 112.0
1408.8927 188.0
1409.023926 228.0
1409.098633 184.0
1409.322754 148.0
1409.449829 144.0
1409.56189 200.0
1409.883179 92.0
1409.980347 156.0
1410.040161 168.0
1410.309204 156.0
1410.398926 120.0
1410.473755 152.0
1410.602661 196.0
1410.705444 172.0
1410.85791 80.0
1411.348389 96.0
1411.575317 216.0
1411.759766 188.0
1411.827026 136.0
1412.133667 92.0
1412.320679 148.0
1412.55249 176.0
1413.203491 160.0
1413.555176 132.0
1413.659912 112.0
1413.929321 88.0
1414.266113 180.0
1414.475708 136.0
1414.535645 156.0
1414.724487 284.0
1414.797607 164.0
1415.026489 128.0
1415.143677 212.0
1415.560425 92.0
1415.995728 32.0
1416.295288 144.0
1416.432617 144.0
1416.594971 168.0
1416.684814 168.0
1416.853516 220.0
1416.924561 220.0
1417.149414 84.0
1417.284302 136.0
1417.56897 104.0
1417.651489 124.0
1417.726318 172.0
1417.85376 144.0
1417.996216 136.0
1418.116089 172.0
1418.62854 140.0
1419.098145 180.0
1419.383057 108.0
1419.440918 360.0
1419.503052 124.0
1419.570557 208.0
1420.050537 108.0
1420.185547 120.0
1420.403076 112.0
1420.553101 52.0
1421.573608 208.0
1421.641113 124.0
1421.798096 156.0
1422.061401 104.0
1422.151489 196.0
1422.24353 152.0
1423.231812 200.0
1423.34375 188.0
1423.420288 168.0
1424.351562 60.0
1424.486816 132.0
1424.565552 220.0
1424.712158 220.0
1424.772217 156.0
1424.824829 128.0
1425.059204 164.0
1425.119995 56.0
1425.268188 156.0
1425.334106 180.0
1425.379761 84.0
1425.390991 128.0
1425.590332 156.0
1425.681519 164.0
1425.921997 260.0
1426.109863 136.0
1426.200073 148.0
1426.463135 212.0
1426.543457 172.0
1426.703735 144.0
1426.914307 164.0
1426.966919 104.0
1427.079712 172.0
1427.342896 36.0
1427.418091 132.0
1428.125 164.0
1428.223511 156.0
1428.380737 96.0
1428.440918 80.0
1429.118042 228.0
1429.170654 220.0
1429.230957 188.0
1429.501831 156.0
1429.870605 96.0
1430.329712 200.0
1430.600708 224.0
1430.826538 184.0
1430.977173 132.0
1431.208496 188.0
1432.023926 88.0
1432.332764 240.0
1433.051636 140.0
1433.372437 108.0
1433.432739 132.0
1433.67395 32.0
1433.817139 124.0
1433.922607 148.0
1434.627441 176.0
1435.03833 84.0
1435.131836 188.0
1435.339966 144.0
1435.475586 184.0
1435.943237 176.0
1436.18457 180.0
1436.237427 92.0
1436.290161 176.0
1436.658447 136.0
1436.863525 76.0
1436.92395 240.0
1437.182617 56.0
1437.572876 200.0
1437.738892 72.0
1437.881104 132.0
1437.990601 244.0
1438.146362 124.0
1438.206787 168.0
1438.591797 172.0
1438.644653 224.0
1438.735229 204.0
1438.916382 188.0
1438.980835 136.0
1439.040039 88.0
1439.377075 132.0
1439.505371 172.0
1439.74707 112.0
1439.822632 136.0
1439.966064 164.0
1440.050293 132.0
1440.275757 148.0
1440.483521 160.0
1440.834839 100.0
1440.963257 76.0
1441.395386 180.0
1441.473633 224.0
1441.581909 140.0
1441.681152 156.0
1441.764282 116.0
1441.824707 132.0
1441.922974 160.0
1441.97583 168.0
1442.089233 80.0
1442.792236 240.0
1442.928345 224.0
1443.064453 208.0
1443.397095 76.0
1443.636353 156.0
1443.873535 172.0
1443.970825 148.0
1444.080933 184.0
1444.244141 160.0
1444.342529 164.0
1444.894775 140.0
1445.197388 104.0
1445.484985 180.0
1445.938965 184.0
1446.037476 152.0
1446.283203 228.0
1446.521851 260.0
1446.673218 136.0
1446.808838 140.0
1446.991211 92.0
1447.135132 148.0
1447.192261 208.0
1447.278931 168.0
1447.400146 124.0
1447.513672 216.0
1447.69397 196.0
1447.839355 200.0
1448.127197 168.0
1448.230103 116.0
1448.566528 136.0
1448.695312 124.0
1448.801392 156.0
1449.074097 120.0
1449.202881 68.0
1449.286255 44.0
1449.574219 136.0
1449.831909 120.0
1449.958618 172.0
1450.184814 204.0
1450.286621 204.0
1450.40625 164.0
1450.504761 196.0
1450.855103 136.0
1450.935059 348.0
1450.994263 140.0
1451.211548 112.0
1451.264526 196.0
1451.423828 192.0
1451.549072 100.0
1451.643677 192.0
1451.734741 168.0
1452.050049 152.0
1452.12146 120.0
1452.379395 132.0
1452.432495 276.0
1452.542603 148.0
1452.834595 128.0
1453.06897 160.0
1453.251831 44.0
1453.456787 172.0
1453.525024 60.0
1453.699585 160.0
1453.836182 172.0
1454.025879 216.0
1454.266602 168.0
1454.286377 248.0
1454.579956 124.0
1454.708984 96.0
1454.807739 140.0
1454.9823 144.0
1455.194946 112.0
1455.377197 184.0
1455.483521 132.0
1455.810059 216.0
1456.349243 112.0
1456.49231 84.0
1456.618164 120.0
1456.736694 164.0
1456.835449 196.0
1456.967285 132.0
1457.076172 140.0
1457.298462 152.0
1457.428101 108.0
1457.597656 176.0
1457.648438 220.0
1457.762451 204.0
1457.845947 144.0
1458.10437 268.0
1458.233643 144.0
1458.347656 152.0
1458.42688 104.0
1458.471069 224.0
1458.644043 192.0
1458.69458 120.0
1458.788452 128.0
1458.927734 208.0
1459.054565 240.0
1459.138184 148.0
1459.38916 168.0
1459.594482 248.0
1459.736694 124.0
1459.936646 164.0
1460.354004 172.0
1460.644043 152.0
1460.735229 128.0
1460.87146 128.0
1461.12085 196.0
1461.239868 192.0
1461.343872 228.0
1461.49585 160.0
1461.572144 160.0
1461.686279 168.0
1461.861328 120.0
1462.074463 160.0
1462.127686 148.0
1462.226685 152.0
1462.279907 216.0
1462.432129 164.0
1462.493042 192.0
1462.645264 120.0
1462.722656 164.0
1462.87793 144.0
1462.995483 156.0
1463.155396 136.0
1463.208618 176.0
1463.300049 280.0
1463.591553 152.0
1463.821411 136.0
1464.038574 156.0
1464.27478 208.0
1464.350952 144.0
1464.815552 176.0
1464.900757 168.0
1465.024292 152.0
1465.463135 164.0
1465.653564 132.0
1465.981323 164.0
1466.088013 128.0
1466.3479 160.0
1466.447144 136.0
1466.720581 96.0
1466.954468 160.0
1467.246582 168.0
1467.315186 128.0
1467.388184 104.0
1467.59729 252.0
1467.645996 116.0
1467.732178 192.0
1467.82605 140.0
1467.963379 104.0
1468.029419 212.0
1468.138794 152.0
1468.199829 132.0
1468.690063 168.0
1468.922119 192.0
1469.038818 60.0
1469.244751 112.0
1469.298218 96.0
1469.412231 152.0
1469.7146 148.0
1469.817017 88.0
1470.061279 168.0
1470.122314 124.0
1470.366455 156.0
1470.442871 100.0
1470.542114 292.0
1470.801636 152.0
1470.949585 204.0
1471.083984 176.0
1471.1604 180.0
1471.221436 208.0
1471.30542 92.0
1471.557373 108.0
1472.015503 156.0
1472.126709 160.0
1472.305664 140.0
1472.405029 184.0
1472.477173 80.0
1472.687622 148.0
1472.810425 164.0
1472.870972 152.0
1472.985474 192.0
1473.176514 132.0
1474.150513 136.0
1474.314941 96.0
1474.475464 120.0
1474.536621 84.0
1474.747314 232.0
1475.010498 132.0
1475.248291 124.0
1475.384521 104.0
1475.591553 216.0
1475.748779 212.0
1475.977173 244.0
1476.103882 108.0
1476.287354 40.0
1476.417358 172.0
1476.600952 288.0
1476.685059 88.0
1476.865845 64.0
1476.952759 152.0
1477.006348 68.0
1477.067505 112.0
1477.166992 84.0
1477.580078 36.0
1478.039185 112.0
1478.153931 172.0
1478.291748 104.0
1478.429443 120.0
1478.506714 176.0
1478.573364 204.0
1478.750977 204.0
1478.841553 200.0
1478.917725 136.0
1479.355591 180.0
1479.4552 208.0
1479.723145 152.0
1479.815063 136.0
1480.044678 148.0
1480.495605 168.0
1480.660889 140.0
1481.161621 164.0
1481.325562 164.0
1481.377319 204.0
1481.46167 100.0
1481.561279 116.0
1481.690063 132.0
1481.798706 196.0
1481.907104 244.0
1482.051636 176.0
1482.212524 220.0
1482.565063 144.0
1482.639771 200.0
1482.710693 204.0
1482.782715 128.0
1483.009521 84.0
1483.339111 116.0
1483.484863 152.0
1483.546143 44.0
1483.599854 164.0
1483.730103 160.0
1483.994385 140.0
1484.090454 84.0
1484.366577 108.0
1484.596558 200.0
1484.84668 196.0
1484.964722 152.0
1485.075928 200.0
1485.228271 44.0
1485.302246 144.0
1485.478638 164.0
1485.655151 152.0
1485.762573 112.0
1485.837524 184.0
1485.949097 168.0
1486.307251 156.0
1486.444824 200.0
1486.501465 172.0
1486.552856 328.0
1486.652588 160.0
1486.706299 92.0
1487.139404 112.0
1487.340088 232.0
1487.420166 164.0
1487.496948 132.0
1487.742554 172.0
1488.072754 248.0
1488.310791 144.0
1488.436035 176.0
1488.587158 184.0
1488.66394 128.0
1488.891479 152.0
1489.055664 144.0
1489.124756 104.0
1489.393555 164.0
1489.578003 224.0
1489.639404 100.0
1489.723877 100.0
1490.069702 104.0
1490.180908 164.0
1490.2771 160.0
1490.499878 104.0
1490.74585 108.0
1490.822754 136.0
1491.076294 176.0
1491.317383 204.0
1491.422241 88.0
1491.575928 172.0
1491.783447 116.0
1492.2771 160.0
1492.539429 124.0
1492.684937 160.0
1492.752319 128.0
1492.829224 64.0
1492.983032 108.0
1493.067627 120.0
1493.194702 176.0
1493.302002 332.0
1493.452148 220.0
1493.536743 128.0
1493.636719 148.0
1493.813721 148.0
1493.890625 176.0
1493.952148 104.0
1494.075195 208.0
1494.167603 108.0
1494.467651 136.0
1494.64624 216.0
1495.046387 204.0
1495.229492 132.0
1495.319336 276.0
1495.406494 176.0
1495.537354 140.0
1495.660522 244.0
1495.745239 60.0
1495.809814 192.0
1495.92688 180.0
1495.995117 184.0
1496.345703 80.0
1496.654785 108.0
1496.780273 148.0
1496.884644 72.0
1497.21582 44.0
1497.29187 232.0
1497.400635 184.0
1497.516235 108.0
1497.662598 172.0
1497.733765 224.0
1497.885986 96.0
1498.001465 92.0
1498.456055 76.0
1498.741089 120.0
1498.856689 136.0
1498.995361 124.0
1499.057007 168.0
1499.140137 128.0
1499.226562 204.0
1499.320679 140.0
1499.450073 116.0
1499.573486 160.0
1499.646729 140.0
1499.802124 144.0
1499.912598 136.0
1500.290283 120.0
1500.498535 128.0
1500.560181 296.0
1500.629517 160.0
1500.830078 136.0
1500.884033 156.0
1500.958618 344.0
1501.092163 104.0
1501.174927 176.0
1501.300415 208.0
1501.377563 108.0
1501.505249 312.0
1501.716919 160.0
1501.824951 320.0
1502.141113 188.0
1502.411133 76.0
1502.74292 164.0
1502.796997 152.0
1503.09021 152.0
1503.182739 52.0
1503.258301 152.0
1503.387695 124.0
1503.460571 344.0
1503.553223 84.0
1503.864868 200.0
1504.101196 120.0
1504.30957 184.0
1504.410034 152.0
1504.772827 168.0
1504.87561 64.0
1504.892944 72.0
1505.012207 144.0
1505.089478 216.0
1505.367432 152.0
