>compound MLS002154238-01!Mefexamide hydrochloride3413-64-7
>formula C15H24N2O3
>ionization [M+H]+
>parentmass 281.1859690800905
#inchi InChI=1S/C15H24N2O3/c1-4-17(5-2)11-10-16-15(18)12-20-14-8-6-13(19-3)7-9-14/h6-9H,4-5,10-12H2,1-3H3,(H,16,18)
#inchikey HUNIPYLVUPMFCZ
#origInchi InChI=1S/C15H24N2O3.ClH/c1-4-17(5-2)11-10-16-15(18)12-20-14-8-6-13(19-3)7-9-14;/h6-9H,4-5,10-12H2,1-3H3,(H,16,18);1H
#Ion_Source LC-ESI
#Instrument qTof
#Compound_Source NIH Pharmacologically Active Library
#PI Dorrestein
#Data_Collector VP/LMS
#Scan -1
#Precursor_MZ 281.188
#ExactMass 280.179
#Charge 1
#CAS_Number N/A
#Pubmed_ID N/A
#Smiles CCN(CC)CCNC(=O)COc1ccc(OC)cc1.Cl
#INCHI_AUX N/A
#Library_Class 1
#SpectrumID CCMSLIB00000085180
#IonMode Positive
#UpdateWorkflowName UPDATE-SINGLE-ANNOTATED-GOLD
#LibraryQualityString Gold
#TaskID d252d724072548979f1f6f1ced849daf
##Scan# 1310
#SpectrumFile p3-F08_GF8_01_18289.mzXML
#LibraryName Pharm_Active_Library.mgf
#MQScore -1
#Organism Pharm_Active_Library
#TIC_Query 0
#RT_Query -1
#MZErrorPPM -1
#SharedPeaks 0
#MassDiff 0
#LibMZ -1
#SpecMZ 281.188
#SpecCharge 0
#internalFilename spec-00000.mgf

>collision 10
44.939175 32.0
44.953854 104.0
44.971203 236.0
45.013927 180.0
45.164959 152.0
45.271557 244.0
45.286774 88.0
45.353771 220.0
45.416798 148.0
45.439606 136.0
45.650505 148.0
45.716427 176.0
45.791824 192.0
45.817421 116.0
45.983292 108.0
46.106201 216.0
46.145405 60.0
46.215168 104.0
46.306446 184.0
46.542431 160.0
46.736816 192.0
46.758591 108.0
46.803421 112.0
46.847103 160.0
47.025223 188.0
47.069435 164.0
47.115875 160.0
47.201889 212.0
47.297768 148.0
47.348431 184.0
47.486866 52.0
47.552727 136.0
47.581436 184.0
47.701084 64.0
47.80975 172.0
47.838654 200.0
48.107491 196.0
48.187599 192.0
48.265007 184.0
48.31065 184.0
48.381233 40.0
48.404774 188.0
48.460182 204.0
48.52533 172.0
48.662533 236.0
48.696026 148.0
48.943581 116.0
48.957508 156.0
48.968651 192.0
49.014626 140.0
49.056442 200.0
49.112221 144.0
49.229465 220.0
49.320286 204.0
49.388805 140.0
49.443375 148.0
49.483971 212.0
49.497974 48.0
49.547001 88.0
49.556808 84.0
49.685802 160.0
50.056896 152.0
50.079205 172.0
50.08849 252.0
50.111835 184.0
50.323414 180.0
50.378498 168.0
50.389801 240.0
50.449162 136.0
50.498657 160.0
50.626038 172.0
50.664284 200.0
50.743656 140.0
50.83728 140.0
50.925308 204.0
51.029053 200.0
51.040428 340.0
51.142868 192.0
51.356609 68.0
51.397984 236.0
51.463646 176.0
51.487926 208.0
51.716702 196.0
51.953156 160.0
51.9632 208.0
51.991898 224.0
52.037834 168.0
52.067993 172.0
52.088104 148.0
52.135521 220.0
52.283657 52.0
52.537273 200.0
52.593555 132.0
52.636868 164.0
52.665756 228.0
52.704765 116.0
52.748123 144.0
52.77993 176.0
52.891846 160.0
52.898266 56.0
52.90237 148.0
53.015903 52.0
53.084042 124.0
53.142067 220.0
53.158028 200.0
53.229164 100.0
53.261116 92.0
53.333775 200.0
53.410843 148.0
53.423935 120.0
53.512718 180.0
53.524368 192.0
53.79995 184.0
53.862747 168.0
53.900734 188.0
53.979675 176.0
54.030872 140.0
54.156773 136.0
54.175816 72.0
54.228569 280.0
54.432503 180.0
54.478817 136.0
54.555931 144.0
54.623581 192.0
54.882801 132.0
54.975739 132.0
55.055134 144.0
55.074665 152.0
55.151505 188.0
55.221317 112.0
55.283142 160.0
55.300903 140.0
55.318665 140.0
55.523155 260.0
55.75774 176.0
55.838993 204.0
55.863319 188.0
55.959778 224.0
56.052414 56.0
56.086697 176.0
56.179153 164.0
56.352348 156.0
56.419609 56.0
56.470451 120.0
56.495884 140.0
56.512535 184.0
56.668064 120.0
56.711525 192.0
56.74662 180.0
56.872028 168.0
56.882534 120.0
57.071388 132.0
57.091396 168.0
57.162102 196.0
57.21328 88.0
57.40163 180.0
57.431797 64.0
57.578209 156.0
57.741444 140.0
57.75808 172.0
57.774723 208.0
57.800446 160.0
57.915512 108.0
57.939751 80.0
57.96854 108.0
58.258358 136.0
58.319118 160.0
58.475811 220.0
58.507782 232.0
58.533665 68.0
58.693672 144.0
58.757736 148.0
58.892078 64.0
58.951668 120.0
58.985294 112.0
59.083172 192.0
59.116837 196.0
59.357353 132.0
59.368088 204.0
59.45554 76.0
59.496986 64.0
59.721352 204.0
59.796749 192.0
59.856792 176.0
59.987759 68.0
60.200695 196.0
60.319668 60.0
60.471264 192.0
60.537838 160.0
60.632343 152.0
60.671097 188.0
60.703659 132.0
60.714516 184.0
60.802952 168.0
60.865051 156.0
60.997471 140.0
61.028214 56.0
61.283489 204.0
61.56741 96.0
61.583027 176.0
61.645523 104.0
61.794079 204.0
61.999222 60.0
62.187435 180.0
62.225113 52.0
62.289505 160.0
62.343601 84.0
62.460854 192.0
62.542683 176.0
62.555275 168.0
62.872105 164.0
62.976315 96.0
63.01107 116.0
63.218853 200.0
63.232464 168.0
63.436806 192.0
63.482792 48.0
63.530376 156.0
63.589092 40.0
63.700245 48.0
63.716133 168.0
63.924438 184.0
64.38678 156.0
64.59938 48.0
64.645782 184.0
64.668663 160.0
64.690598 192.0
64.83316 140.0
64.909309 152.0
65.051308 200.0
65.207123 44.0
65.443611 140.0
65.532204 164.0
65.616013 248.0
65.699883 108.0
65.714401 152.0
65.745064 180.0
65.775734 36.0
65.877472 136.0
66.076332 192.0
66.131355 80.0
66.244713 96.0
66.301422 212.0
66.4636 124.0
66.474953 196.0
66.498055 208.0
66.612968 132.0
66.673088 196.0
66.713257 164.0
66.740692 336.0
66.81131 188.0
66.861755 212.0
66.882912 136.0
66.903206 208.0
66.941528 164.0
67.005058 140.0
67.089806 100.0
67.136955 140.0
67.194191 160.0
67.264366 148.0
67.413002 144.0
67.445694 188.0
67.466942 200.0
67.621521 196.0
67.671463 180.0
67.895897 360.0
67.953384 160.0
68.079788 220.0
68.117569 156.0
68.555244 100.0
68.588211 196.0
68.71685 64.0
68.79277 188.0
68.81588 72.0
68.853867 172.0
68.910034 52.0
69.0522 164.0
69.388374 180.0
69.407532 196.0
69.444763 208.0
69.474617 148.0
69.487648 240.0
69.605743 132.0
69.653915 40.0
69.748634 168.0
69.875031 204.0
69.953247 208.0
69.984886 160.0
70.003014 156.0
70.048172 152.0
70.104828 128.0
70.168167 140.0
70.180962 132.0
70.196518 104.0
70.223198 116.0
70.264908 108.0
70.283264 192.0
70.31163 80.0
70.323318 168.0
70.36171 160.0
70.4235 164.0
70.520416 168.0
70.553848 148.0
70.577255 160.0
70.590637 176.0
70.602341 88.0
70.657547 180.0
70.796478 148.0
71.032822 164.0
71.099937 144.0
71.150299 84.0
71.217468 240.0
71.311569 140.0
71.363686 48.0
71.639709 192.0
71.673409 208.0
71.734085 212.0
71.798157 120.0
71.879135 172.0
72.034477 76.0
72.118965 164.0
72.186592 68.0
72.20858 188.0
72.333801 56.0
72.360886 184.0
72.501488 140.0
72.521828 164.0
72.664284 60.0
72.735558 180.0
72.86335 196.0
72.907112 204.0
73.01252 60.0
73.198021 324.0
73.313873 168.0
73.390579 176.0
73.404228 120.0
73.42469 156.0
73.496338 52.0
73.59201 164.0
73.685875 172.0
73.788422 216.0
73.870514 68.0
73.932114 132.0
74.009094 116.0
74.086227 100.0
74.204491 188.0
74.367462 184.0
74.386345 140.0
74.434425 60.0
74.539215 140.0
74.556396 220.0
74.673309 148.0
74.788597 172.0
74.852303 168.0
74.922188 188.0
75.033226 84.0
75.059608 228.0
75.109108 144.0
75.14016 248.0
75.18158 124.0
75.364624 156.0
75.383766 208.0
75.425117 212.0
75.549629 60.0
75.568665 184.0
75.592888 136.0
75.733131 100.0
75.982765 152.0
76.000122 192.0
76.215439 180.0
76.250198 156.0
76.810883 168.0
76.953995 84.0
77.072769 72.0
77.240616 152.0
77.279106 192.0
77.436661 228.0
77.50499 140.0
77.603149 184.0
77.650497 208.0
77.778595 212.0
77.933144 200.0
77.968292 236.0
78.006958 232.0
78.022781 240.0
78.045639 212.0
78.174057 188.0
78.216301 148.0
78.586411 176.0
78.8955 248.0
78.952087 224.0
79.00338 40.0
79.304428 236.0
79.376358 140.0
79.636238 176.0
79.746071 212.0
79.794403 72.0
79.806847 116.0
79.933144 176.0
79.988319 180.0
80.006126 192.0
80.095169 200.0
80.132584 160.0
80.418564 220.0
80.523262 184.0
80.580429 288.0
80.667999 192.0
80.732376 164.0
80.812874 204.0
80.905945 172.0
80.950706 120.0
81.042068 160.0
81.30748 136.0
81.431366 92.0
81.478073 196.0
81.656036 228.0
81.699211 124.0
81.854004 128.0
81.872017 164.0
81.890022 108.0
82.007149 184.0
82.144196 96.0
82.274132 128.0
82.357201 204.0
82.39875 148.0
82.612091 116.0
82.648277 112.0
82.724297 412.0
82.89093 172.0
82.956184 268.0
82.976128 204.0
82.996071 40.0
83.206551 60.0
83.362762 120.0
83.404572 236.0
83.630821 168.0
83.65197 176.0
84.06208 128.0
84.108444 200.0
84.253075 180.0
84.454895 208.0
84.528076 216.0
84.64341 116.0
84.698357 152.0
84.727661 176.0
84.740494 172.0
84.824799 176.0
84.838646 260.0
84.91098 40.0
84.953171 172.0
85.008217 176.0
85.047874 164.0
85.18679 204.0
85.204689 100.0
85.267166 68.0
85.416107 184.0
85.432663 184.0
85.567024 212.0
85.662788 224.0
85.729126 108.0
85.773361 148.0
85.806541 188.0
85.860023 128.0
85.878464 60.0
86.044556 76.0
86.066681 172.0
86.092613 144.0
86.125809 44.0
86.246445 152.0
86.523415 208.0
86.55304 164.0
86.654922 76.0
86.797958 168.0
86.959053 272.0
86.976311 256.0
87.181931 168.0
87.206093 200.0
87.379997 264.0
87.446037 140.0
87.556595 272.0
87.969841 116.0
87.996437 196.0
88.025856 152.0
88.429688 140.0
88.504578 164.0
88.538284 136.0
88.746292 184.0
88.789429 148.0
89.01651 220.0
89.148018 172.0
89.17057 116.0
89.189369 176.0
89.314301 168.0
89.356743 188.0
89.448959 140.0
89.511093 236.0
89.622238 164.0
89.769272 56.0
89.786247 152.0
89.85038 44.0
89.948517 120.0
89.991943 212.0
90.110939 144.0
90.432426 168.0
90.54982 76.0
90.631279 152.0
90.775352 144.0
90.790527 208.0
90.887276 208.0
90.921432 172.0
90.980278 60.0
91.01825 156.0
91.052139 308.0
91.067635 280.0
91.088524 176.0
91.348701 200.0
91.392731 132.0
91.625023 204.0
91.720306 196.0
91.82518 208.0
91.882408 120.0
91.907211 204.0
91.966377 252.0
92.025856 208.0
92.042747 160.0
92.14756 160.0
92.553314 228.0
92.626091 116.0
92.688332 148.0
92.777489 164.0
92.794746 164.0
92.85611 188.0
92.898308 152.0
92.915581 132.0
92.930923 116.0
92.952034 92.0
92.996178 140.0
93.059303 172.0
93.174774 248.0
93.259331 132.0
93.384308 124.0
93.434326 112.0
93.526703 132.0
93.592697 216.0
93.622971 204.0
93.750122 100.0
93.797653 188.0
93.908226 108.0
94.040512 948.0
94.137894 144.0
94.476158 168.0
94.696838 148.0
94.74527 104.0
94.784019 128.0
95.048058 4348.0
95.088554 152.0
95.177803 120.0
95.236069 160.0
95.391525 40.0
95.494591 156.0
95.522278 68.0
95.572403 152.0
95.640526 44.0
95.730087 144.0
95.866455 136.0
95.89959 80.0
96.002922 136.0
96.05101 184.0
96.110214 188.0
96.147293 204.0
96.297638 212.0
96.606491 228.0
96.624405 180.0
96.661278 56.0
96.688675 132.0
96.738922 192.0
96.799644 212.0
96.85511 140.0
96.923683 132.0
96.962875 124.0
97.017761 84.0
97.160934 180.0
97.461349 256.0
97.524239 176.0
97.655975 44.0
97.683517 188.0
97.697289 160.0
97.915787 76.0
98.229202 144.0
98.284447 88.0
98.517426 100.0
98.539162 160.0
98.592514 160.0
98.748711 172.0
98.819931 48.0
98.86544 188.0
98.89315 156.0
98.956505 152.0
98.976303 188.0
99.011948 52.0
99.039734 448.0
99.06147 164.0
99.10128 376.0
99.151581 140.0
99.297356 92.0
99.317192 44.0
99.390594 168.0
99.622902 136.0
99.652702 156.0
99.734184 180.0
99.93306 144.0
100.00016 184.0
100.053452 264.0
100.111244 2172.0
100.185921 40.0
100.283562 200.0
100.311897 236.0
100.381256 132.0
100.403198 140.0
100.449074 92.0
100.482986 180.0
100.502945 68.0
100.520905 116.0
100.694595 176.0
100.960793 168.0
101.022423 148.0
101.114807 304.0
101.156502 136.0
101.216934 196.0
101.364807 112.0
101.533211 44.0
101.57132 80.0
101.66964 168.0
101.689705 152.0
101.735878 40.0
101.820213 144.0
101.952812 124.0
102.091537 212.0
102.218277 220.0
102.24041 204.0
102.306839 176.0
102.365234 256.0
102.431534 180.0
102.461914 152.0
102.609047 240.0
102.66954 100.0
102.719971 48.0
102.787437 184.0
102.94603 112.0
102.960167 196.0
103.049911 808.0
103.075325 144.0
103.097549 136.0
103.427238 192.0
103.692589 132.0
103.737183 200.0
103.755424 64.0
103.889282 120.0
104.047127 292.0
104.144424 140.0
104.256813 208.0
104.317787 200.0
104.667 328.0
104.704407 216.0
104.843964 40.0
104.914536 164.0
105.033043 1868.0
105.065567 160.0
105.103981 72.0
105.135437 144.0
105.171326 180.0
105.351036 100.0
105.379639 108.0
105.39502 136.0
105.5084 152.0
105.590195 164.0
105.821442 136.0
106.039978 1004.0
106.065239 260.0
106.352417 156.0
106.555725 128.0
106.707825 132.0
106.769516 124.0
106.783913 204.0
106.956757 184.0
106.973221 184.0
107.004105 188.0
107.04702 2052.0
107.234833 148.0
107.378906 192.0
107.471992 140.0
107.647461 56.0
108.020599 188.0
108.050537 560.0
108.071228 144.0
108.087776 148.0
108.120895 172.0
108.17057 200.0
108.301025 136.0
108.371468 236.0
108.528999 204.0
108.607811 140.0
108.723999 188.0
108.885941 204.0
108.946182 104.0
109.027298 1104.0
109.062958 9236.0
109.194366 164.0
109.216431 52.0
109.399872 132.0
109.451614 104.0
109.522423 40.0
109.56617 68.0
109.591171 144.0
109.674538 172.0
109.807892 176.0
109.895599 244.0
109.947769 64.0
109.995781 72.0
110.030434 488.0
110.066101 972.0
110.154488 228.0
110.198364 72.0
110.231796 168.0
110.246429 152.0
110.385162 232.0
110.558479 76.0
110.58316 144.0
110.696213 148.0
110.718475 184.0
110.752762 152.0
110.779999 132.0
110.865906 132.0
110.886864 80.0
110.99588 144.0
111.039925 156.0
111.188629 164.0
111.283356 60.0
111.592224 116.0
111.646896 124.0
111.718414 112.0
111.752083 204.0
111.785751 92.0
111.832054 200.0
112.460182 164.0
112.498184 188.0
112.78759 164.0
112.910233 180.0
112.960159 252.0
113.079491 144.0
113.175911 224.0
113.236176 112.0
113.2743 76.0
113.303963 128.0
113.395081 144.0
113.675034 204.0
113.817261 124.0
113.921341 156.0
114.050964 136.0
114.118996 152.0
114.222046 212.0
114.448807 156.0
114.531868 116.0
114.69326 184.0
114.806824 64.0
114.904945 140.0
114.928413 52.0
115.055145 160.0
115.161118 188.0
115.276489 156.0
115.295723 128.0
115.680748 204.0
115.787811 68.0
115.833206 104.0
115.997803 204.0
116.259483 172.0
116.306702 128.0
116.321732 220.0
116.376068 232.0
116.523605 200.0
116.600967 184.0
116.624611 172.0
117.01947 192.0
117.05542 392.0
117.218628 180.0
117.242332 180.0
117.347961 44.0
117.38031 164.0
117.604683 40.0
117.738548 212.0
117.762314 112.0
117.792549 236.0
117.891945 156.0
118.041107 144.0
118.06179 352.0
118.229324 152.0
118.383034 156.0
118.404694 188.0
118.764496 132.0
118.781853 200.0
118.807884 176.0
118.875145 180.0
119.041634 356.0
119.072479 368.0
119.178055 180.0
119.270439 100.0
119.287834 60.0
119.44223 104.0
119.707764 220.0
119.736076 200.0
119.898941 208.0
119.92128 156.0
120.046989 376.0
120.078529 352.0
120.206985 180.0
120.521439 132.0
120.613228 200.0
120.641647 64.0
120.685379 72.0
120.801292 156.0
120.891006 92.0
120.941345 268.0
121.027382 228.0
121.063965 968.0
121.120903 192.0
121.31813 32.0
121.548439 192.0
121.686722 196.0
121.816299 108.0
121.849258 212.0
121.950348 212.0
121.967926 156.0
121.983315 200.0
122.035751 468.0
122.057808 176.0
122.212051 128.0
122.306686 164.0
122.458618 164.0
122.477646 156.0
122.562164 100.0
122.663544 216.0
122.771591 148.0
122.787025 148.0
122.811287 188.0
122.879677 52.0
122.912148 168.0
122.91925 120.0
122.927177 160.0
122.959122 160.0
122.992722 232.0
123.019554 284.0
123.042877 21280.0
123.087166 116.0
123.115005 320.0
123.223465 108.0
123.250633 128.0
123.266098 108.0
123.282951 64.0
123.323097 76.0
123.375626 44.0
123.418625 40.0
123.449585 88.0
123.467278 128.0
123.48497 96.0
123.540276 156.0
123.575676 112.0
123.619934 196.0
123.650917 28.0
123.721748 64.0
123.737251 180.0
123.823616 56.0
123.872345 100.0
123.940308 160.0
124.049599 4544.0
124.080666 132.0
124.109497 28.0
124.133888 132.0
124.233696 124.0
124.278076 272.0
124.329117 60.0
124.676781 184.0
124.753372 252.0
124.815628 100.0
124.883461 128.0
124.946861 120.0
125.053001 492.0
125.081703 136.0
125.336517 88.0
125.486305 100.0
125.842865 136.0
126.023788 68.0
126.055588 156.0
126.144478 48.0
126.417358 116.0
126.632286 136.0
126.78688 192.0
126.811539 80.0
126.842918 108.0
127.035843 144.0
127.08065 60.0
127.165932 64.0
127.410698 44.0
127.471367 144.0
127.503448 176.0
127.69619 120.0
127.76593 180.0
127.982002 104.0
128.047318 212.0
128.1194 176.0
128.159958 192.0
128.207275 104.0
128.353806 140.0
128.369598 188.0
128.525238 144.0
128.703568 232.0
128.845871 224.0
128.909134 172.0
129.053818 164.0
129.099869 336.0
129.151062 56.0
129.255127 52.0
129.587997 132.0
129.660507 144.0
129.703568 196.0
129.75798 224.0
129.780655 252.0
130.038834 220.0
130.045166 176.0
130.062103 856.0
130.10585 260.0
130.127823 60.0
130.168686 44.0
130.407242 160.0
130.523193 148.0
130.839462 136.0
131.045807 248.0
131.072617 1580.0
131.23819 172.0
131.288361 180.0
131.304321 120.0
131.327133 76.0
131.40242 52.0
131.619263 148.0
131.877426 76.0
131.950577 92.0
132.04364 644.0
132.074921 516.0
132.197617 156.0
132.275452 176.0
132.309784 188.0
132.403671 76.0
132.791016 184.0
132.909164 224.0
133.028015 1216.0
133.051331 1948.0
133.082474 164.0
133.13298 144.0
133.443207 76.0
133.466202 60.0
133.500702 216.0
133.799835 40.0
133.820831 132.0
133.852798 40.0
133.889633 128.0
133.914978 176.0
134.036072 168.0
134.058746 1004.0
134.099304 168.0
134.145401 228.0
134.205353 96.0
134.35527 160.0
134.477585 164.0
134.787048 152.0
134.911118 192.0
135.052277 360.0
135.081406 632.0
135.103821 144.0
135.130005 176.0
135.21489 176.0
135.326004 52.0
135.534485 196.0
135.668915 168.0
135.724564 132.0
135.863724 144.0
135.884598 204.0
135.949585 132.0
136.048004 244.0
136.072479 1280.0
136.112869 224.0
136.200333 176.0
136.304886 112.0
136.356018 88.0
136.41716 196.0
136.446671 48.0
136.521088 176.0
136.590866 120.0
136.649033 36.0
136.722092 100.0
136.83165 160.0
136.869278 152.0
136.909744 300.0
136.933029 112.0
136.962738 176.0
137.002762 372.0
137.058777 76348.0
137.103439 228.0
137.138153 80.0
137.158142 80.0
137.173035 128.0
137.202179 72.0
137.226532 68.0
137.286591 268.0
137.324387 84.0
137.343277 164.0
137.379974 288.0
137.401596 108.0
137.422592 76.0
137.442551 232.0
137.497269 36.0
137.524017 112.0
137.539078 92.0
137.560287 88.0
137.585968 72.0
137.618652 52.0
137.68631 80.0
137.730759 72.0
137.786819 44.0
137.819534 160.0
137.835892 180.0
137.90834 160.0
137.940247 136.0
137.997177 80.0
138.032257 56.0
138.061615 7088.0
138.116959 56.0
138.142181 32.0
138.193665 24.0
138.268539 276.0
138.298187 108.0
138.322388 56.0
138.406662 132.0
138.502686 36.0
138.582352 64.0
138.665573 140.0
138.722961 44.0
138.826141 104.0
138.851929 120.0
138.898849 72.0
138.954163 200.0
138.971573 112.0
139.006775 108.0
139.031158 68.0
139.062332 408.0
139.088928 184.0
139.121597 96.0
139.185181 124.0
139.203964 108.0
139.229797 148.0
139.356659 68.0
139.467117 88.0
139.50473 40.0
139.638763 32.0
139.664627 132.0
139.949402 44.0
140.015335 120.0
140.699188 204.0
141.536194 172.0
141.882141 188.0
142.126434 148.0
142.188141 144.0
142.411331 56.0
143.088669 208.0
143.339188 288.0
144.045425 212.0
144.119492 184.0
144.162506 48.0
144.392029 72.0
144.712692 176.0
144.815674 56.0
144.83963 56.0
144.937851 40.0
145.061752 1320.0
145.211151 124.0
145.323914 48.0
145.427109 216.0
145.542343 80.0
145.705673 88.0
145.998932 68.0
146.060577 700.0
146.499603 92.0
146.571884 172.0
146.702042 124.0
146.899796 192.0
147.018021 144.0
147.066452 6788.0
147.109741 40.0
147.452759 60.0
147.559113 48.0
147.630295 68.0
147.728409 96.0
147.975281 40.0
148.016434 208.0
148.050888 556.0
148.074127 2824.0
148.13028 56.0
148.171463 144.0
148.253845 156.0
148.4478 72.0
148.472046 180.0
148.510849 168.0
148.538879 196.0
148.755936 116.0
148.797211 192.0
148.831207 108.0
149.008987 164.0
149.047165 1668.0
149.078018 444.0
149.137314 60.0
149.185944 64.0
149.468079 220.0
149.49971 32.0
149.526489 112.0
150.01123 148.0
150.05014 188.0
150.116074 64.0
150.281937 60.0
150.391769 76.0
150.653061 100.0
150.675049 144.0
150.728806 60.0
150.821671 244.0
151.012405 168.0
151.072586 208.0
151.154297 120.0
151.379517 128.0
151.791214 192.0
151.918762 132.0
152.075806 188.0
152.5327 144.0
152.579407 104.0
152.702362 152.0
153.310486 124.0
153.897598 188.0
154.334961 224.0
154.568192 180.0
154.594696 108.0
155.055359 152.0
155.114838 132.0
155.769974 180.0
155.854446 204.0
156.242325 60.0
156.394135 216.0
156.603287 44.0
156.735321 156.0
156.952194 196.0
157.046967 144.0
157.951218 212.0
158.052551 192.0
158.136505 256.0
158.6474 164.0
158.685013 76.0
158.933334 160.0
159.067001 312.0
159.096481 172.0
159.13916 48.0
160.044373 148.0
160.06955 136.0
160.109848 168.0
160.90416 140.0
161.061569 164.0
161.083481 436.0
161.837158 216.0
161.882736 276.0
161.996719 172.0
162.052505 1240.0
162.090637 6652.0
162.259644 140.0
162.305939 56.0
162.346512 48.0
162.389633 84.0
162.432755 156.0
162.546921 92.0
162.742386 100.0
162.805862 68.0
163.028824 288.0
163.061325 2064.0
163.091248 476.0
163.148911 40.0
163.199753 132.0
163.220093 168.0
163.367615 64.0
163.415955 68.0
163.604294 28.0
163.688324 92.0
163.858994 88.0
163.907394 68.0
163.948181 52.0
163.97876 196.0
164.06752 956.0
164.148682 92.0
164.213333 32.0
164.330673 60.0
164.41745 260.0
164.458282 156.0
164.703415 208.0
164.969177 228.0
165.053558 148.0
165.073441 232.0
165.212143 64.0
165.398956 108.0
166.072861 176.0
166.319199 52.0
166.601685 196.0
166.858688 40.0
166.987259 152.0
167.159637 164.0
167.759781 116.0
169.090073 116.0
169.175507 168.0
170.080078 144.0
170.204849 72.0
170.729782 152.0
171.424881 128.0
172.664978 128.0
172.751297 188.0
172.999924 76.0
173.056015 452.0
173.078064 128.0
173.136078 124.0
173.177994 152.0
173.864929 148.0
174.056564 212.0
174.0802 140.0
174.398102 88.0
174.442795 148.0
174.897888 52.0
175.05809 784.0
175.490646 68.0
175.899582 152.0
176.068542 2012.0
176.118759 156.0
176.417374 220.0
177.077026 884.0
177.595779 204.0
178.082199 312.0
178.283432 48.0
178.932495 160.0
179.0177 140.0
179.390732 184.0
180.099396 1212.0
180.274216 68.0
180.758255 52.0
181.052734 160.0
181.098267 196.0
181.964478 52.0
182.276062 128.0
182.445389 184.0
183.14238 228.0
183.290558 236.0
185.108566 184.0
185.81604 176.0
186.513992 164.0
186.660812 156.0
188.913757 120.0
190.084915 1964.0
190.155075 64.0
190.256638 72.0
190.591736 68.0
191.082596 188.0
191.227005 144.0
191.67041 120.0
192.061264 196.0
192.092255 164.0
192.197769 276.0
192.301956 52.0
192.683044 140.0
192.960495 144.0
193.071472 2424.0
193.166855 44.0
193.230484 212.0
193.321808 164.0
193.828583 60.0
194.074402 328.0
194.294403 40.0
194.641357 44.0
197.254791 52.0
197.274353 156.0
197.551224 116.0
198.885101 148.0
199.297943 120.0
199.415985 196.0
199.845474 220.0
200.56723 196.0
200.883072 200.0
201.704834 196.0
202.0952 156.0
202.112701 152.0
202.582092 132.0
202.788956 116.0
202.936371 32.0
203.012939 192.0
203.100861 164.0
205.290909 72.0
205.3508 148.0
205.464905 204.0
205.930222 64.0
206.173065 200.0
206.373169 176.0
206.490417 52.0
207.158707 104.0
207.337906 140.0
207.699173 152.0
207.843735 208.0
207.893539 200.0
207.945938 132.0
207.971771 184.0
207.998291 200.0
208.043884 308.0
208.09581 41040.0
208.169312 100.0
208.211411 52.0
208.241684 48.0
208.297577 156.0
208.32579 160.0
208.410065 88.0
208.417145 160.0
208.479858 40.0
208.484299 72.0
208.528687 88.0
208.658371 40.0
208.68425 36.0
208.704376 140.0
208.757034 76.0
208.786682 64.0
208.879807 108.0
208.945984 68.0
209.028809 168.0
209.099503 3716.0
209.231873 84.0
209.315765 68.0
209.363937 140.0
209.916687 76.0
209.939758 60.0
210.036469 136.0
210.096817 380.0
210.127258 60.0
210.309067 52.0
210.330811 60.0
210.43898 72.0
210.493851 96.0
210.52272 108.0
210.55983 144.0
210.715683 160.0
210.794281 152.0
210.872314 132.0
210.961914 116.0
210.989243 64.0
211.601303 80.0
211.734512 48.0
212.203964 128.0
212.232956 52.0
212.839417 56.0
216.121658 120.0
220.893845 152.0
221.098007 40.0
221.533279 108.0
224.535522 48.0
225.174225 72.0
226.334579 104.0
226.954849 72.0
227.143799 116.0
228.125793 60.0
229.703796 84.0
233.137405 88.0
234.647232 52.0
245.389923 120.0
251.709641 80.0
253.341721 52.0
253.535004 136.0
255.88887 48.0
256.13092 112.0
260.793121 92.0
268.228668 88.0
271.354095 92.0
272.164551 132.0
275.857941 160.0
281.180908 564.0
281.21936 108.0
282.193726 500.0
286.716644 80.0
297.136169 72.0
300.628815 56.0
301.976227 96.0
308.867004 88.0
309.178406 120.0
309.472443 68.0
316.546875 120.0
324.220703 116.0
324.303162 76.0
330.790771 116.0
331.225311 188.0
346.114197 48.0
347.897583 72.0
354.196228 108.0
364.85376 140.0
367.313934 92.0
371.023468 60.0
379.870544 104.0
384.532196 56.0
388.468719 92.0
402.308533 92.0
404.659393 32.0
432.47226 100.0
439.491638 96.0
465.000122 68.0
468.220428 72.0
489.082123 76.0
496.966461 84.0
501.605164 108.0
516.283569 140.0
530.11908 124.0
546.535889 84.0
566.590271 124.0
584.804199 84.0
592.065857 100.0
603.008118 108.0
615.121277 72.0
626.079346 52.0
680.102661 92.0
704.992554 248.0
714.611877 56.0
755.381104 172.0
771.17395 160.0
785.595276 80.0
785.946777 116.0
803.76886 220.0
807.780334 176.0
808.623474 176.0
810.883362 152.0
816.407593 212.0
829.872925 72.0
843.552429 136.0
847.482239 172.0
848.473389 164.0
863.304504 160.0
863.40979 244.0
871.611328 232.0
877.014038 156.0
881.43457 168.0
883.965576 200.0
887.97052 128.0
897.068359 40.0
901.162598 148.0
902.310181 212.0
906.931763 48.0
909.397034 144.0
909.457031 172.0
909.499084 64.0
911.607239 72.0
915.216553 88.0
918.754517 208.0
930.313904 20.0
931.510254 172.0
932.616211 120.0
939.875793 184.0
944.451782 164.0
947.77002 176.0
951.118652 56.0
952.758362 132.0
953.704712 196.0
955.242004 64.0
958.733215 124.0
961.286377 256.0
962.113525 144.0
962.755676 184.0
967.640808 136.0
970.311218 204.0
975.973938 108.0
978.437866 168.0
979.010742 212.0
979.776917 164.0
980.281616 212.0
981.409912 140.0
981.528381 172.0
982.931946 176.0
989.532715 192.0
991.336731 76.0
1000.029053 124.0
1002.491638 172.0
1004.774292 184.0
1005.253174 184.0
1009.954529 168.0
1012.777649 136.0
1014.824646 148.0
1016.569092 168.0
1018.785095 80.0
1019.935303 56.0
1022.326782 160.0
1023.797424 168.0
1025.428467 124.0
1032.138184 140.0
1033.609497 132.0
1033.807861 212.0
1035.639526 140.0
1044.130615 224.0
1045.230713 152.0
1045.86145 140.0
1048.57959 148.0
1048.66333 168.0
1052.043579 60.0
1056.509277 92.0
1057.078735 188.0
1059.396729 180.0
1059.532837 188.0
1062.301025 180.0
1063.780762 232.0
1066.255493 144.0
1066.912109 48.0
1067.920044 48.0
1070.920654 192.0
1073.032104 180.0
1077.00647 280.0
1077.783936 156.0
1080.543213 192.0
1081.452881 228.0
1083.509155 184.0
1084.214844 200.0
1086.675903 216.0
1094.794312 148.0
1095.005005 160.0
1095.775757 44.0
1098.61731 136.0
1101.647583 52.0
1102.777588 216.0
1103.134521 124.0
1105.932617 160.0
1108.469238 240.0
1113.983032 172.0
1114.062744 104.0
1114.880005 264.0
1116.608643 240.0
1118.331909 240.0
1120.356323 144.0
1120.442871 220.0
1121.869141 60.0
1124.143677 40.0
1125.144897 240.0
1125.285156 136.0
1125.452026 48.0
1126.220093 108.0
1127.957397 160.0
1130.171143 212.0
1132.494263 112.0
1133.070435 180.0
1133.11731 104.0
1133.519287 140.0
1136.442993 196.0
1138.188232 176.0
1141.817261 36.0
1142.617676 164.0
1145.094971 192.0
1148.512329 88.0
1150.3479 236.0
1150.97583 188.0
1153.191772 232.0
1157.12207 208.0
1163.841553 232.0
1164.398438 192.0
1165.838745 212.0
1167.171143 72.0
1167.239258 80.0
1169.552368 168.0
1170.103882 196.0
1170.777954 96.0
1171.350098 172.0
1172.842529 160.0
1174.103882 160.0
1174.670044 200.0
1174.799561 152.0
1176.908569 236.0
1179.012695 140.0
1181.255371 208.0
1183.212769 140.0
1185.295044 144.0
1185.541748 144.0
1187.845581 180.0
1188.415039 204.0
1188.469849 156.0
1189.231689 92.0
1189.430664 160.0
1189.547363 236.0
1192.838013 164.0
1193.663086 132.0
1195.527344 180.0
1195.78894 220.0
1196.821533 188.0
1197.186523 116.0
1197.544678 20.0
1197.918945 184.0
1200.218628 80.0
1200.563477 184.0
1200.859985 188.0
1201.177368 144.0
1201.301514 136.0
1204.580688 140.0
1204.635864 92.0
1204.912231 168.0
1205.686157 148.0
1205.831299 140.0
1205.997192 180.0
1207.220947 52.0
1208.230835 44.0
1211.685669 176.0
1216.582153 160.0
1218.221069 84.0
1219.444092 52.0
1221.683228 144.0
1221.787598 212.0
1222.824463 176.0
1222.928833 144.0
1222.998413 104.0
1223.075073 116.0
1223.854736 76.0
1223.945312 220.0
1224.223877 100.0
1224.544189 220.0
1224.739258 152.0
1224.80896 184.0
1227.129639 168.0
1227.450439 120.0
1227.506226 148.0
1229.655029 132.0
1230.771973 176.0
1233.182251 128.0
1233.640747 176.0
1234.167969 220.0
1235.196045 156.0
1235.391968 152.0
1236.189575 224.0
1237.015503 184.0
1237.694702 148.0
1237.778687 176.0
1239.319824 164.0
1240.749634 88.0
1240.819702 140.0
1242.250488 128.0
1246.062622 216.0
1248.192505 124.0
1249.683716 136.0
1251.105469 36.0
1252.147583 176.0
1254.755005 196.0
1255.417847 96.0
1257.329712 216.0
1257.908569 216.0
1259.391479 80.0
1260.316895 84.0
1262.699341 192.0
1263.045898 184.0
1265.983276 152.0
1266.117798 120.0
1266.372803 180.0
1266.592407 28.0
1268.115845 192.0
1268.243408 164.0
1269.292725 124.0
1269.767822 68.0
1271.165527 208.0
1272.237305 236.0
1272.705933 108.0
1273.796631 192.0
1273.955933 176.0
1274.0625 204.0
1276.009888 176.0
1276.6427 104.0
1276.848999 128.0
1279.467651 156.0
1280.37207 212.0
1282.074829 172.0
1282.452515 220.0
1283.264893 168.0
1283.457764 208.0
1284.634644 144.0
1284.777344 232.0
1286.040405 128.0
1286.34021 120.0
1287.604004 236.0
1288.054077 152.0
1293.624878 128.0
1294.584351 188.0
1294.648804 192.0
1295.386475 168.0
1296.016968 168.0
1296.275024 164.0
1296.511475 212.0
1297.192383 180.0
1297.701416 220.0
1298.282349 68.0
1298.454468 52.0
1299.071289 164.0
1299.731445 100.0
1299.953857 84.0
1300.183472 116.0
1301.102295 184.0
1301.181274 152.0
1302.473999 172.0
1302.876343 204.0
1303.307373 132.0
1303.652344 156.0
1303.839233 156.0
1304.162598 112.0
1304.565186 200.0
1306.413452 160.0
1306.571655 200.0
1307.147339 168.0
1308.130615 144.0
1309.386353 196.0
1309.696045 144.0
1310.20752 188.0
1311.274048 108.0
1311.432617 160.0
1313.776245 228.0
1314.476196 104.0
1315.075195 156.0
1315.536987 184.0
1316.620239 244.0
1317.075317 56.0
1317.234253 116.0
1317.407593 204.0
1317.472656 68.0
1318.375854 136.0
1319.171021 196.0
1319.662598 156.0
1321.31897 132.0
1322.43335 204.0
1323.73291 164.0
1324.265259 200.0
1326.301392 108.0
1326.518799 52.0
1326.990112 192.0
1327.417969 168.0
1327.658936 236.0
1329.507202 176.0
1331.285889 80.0
1331.663574 156.0
1332.28833 220.0
1333.7854 192.0
1334.207031 200.0
1334.454224 196.0
1335.195923 60.0
1336.301636 164.0
1337.05127 176.0
1338.223267 112.0
1338.616455 128.0
1338.915039 128.0
1339.592407 188.0
1340.517822 176.0
1340.73645 200.0
1341.217529 100.0
1342.384033 164.0
1343.565674 160.0
1343.790894 220.0
1343.894043 208.0
1344.966919 108.0
1346.200806 232.0
1346.923828 188.0
1348.005249 44.0
1348.876709 88.0
1349.825439 120.0
1350.125366 80.0
1351.09082 140.0
1351.3396 140.0
1351.778687 172.0
1352.276367 168.0
1352.408081 176.0
1353.718628 216.0
1354.700195 272.0
1355.77002 288.0
1355.90918 52.0
1356.664185 196.0
1357.368164 104.0
1358.585693 244.0
1359.033203 156.0
1359.265991 168.0
1360.332275 68.0
1360.493896 188.0
1361.176758 196.0
1361.683472 192.0
1362.050659 192.0
1362.866211 140.0
1363.59375 76.0
1363.983276 144.0
1364.328857 164.0
1364.777344 220.0
1365.630493 48.0
1367.74231 132.0
1368.132446 156.0
1368.647827 232.0
1369.465332 92.0
1369.619995 64.0
1373.12854 108.0
1373.453125 236.0
1374.618896 216.0
1375.142822 152.0
1377.867798 168.0
1377.92688 28.0
1378.05249 196.0
1378.259399 120.0
1378.599365 180.0
1379.863403 132.0
1381.320312 164.0
1381.786377 136.0
1381.927002 180.0
1382.311768 164.0
1383.0 268.0
1383.999512 208.0
1384.84375 164.0
1387.274292 168.0
1387.452271 40.0
1387.667236 196.0
1388.312378 164.0
1389.113525 244.0
1389.580933 164.0
1390.345215 196.0
1391.094971 220.0
1391.250854 172.0
1391.525513 232.0
1392.847412 256.0
1393.129761 148.0
1393.605225 124.0
1393.939697 160.0
1394.667969 68.0
1395.062012 172.0
1395.225586 256.0
1396.802124 36.0
1398.290405 248.0
1399.168701 156.0
1399.287842 112.0
1399.727173 128.0
1400.613525 116.0
1401.045532 216.0
1401.105225 188.0
1401.425537 160.0
1401.693848 156.0
1403.192017 168.0
1403.467896 108.0
1403.796021 172.0
1404.989502 204.0
1405.676025 156.0
1405.728149 28.0
1406.176025 148.0
1406.437256 216.0
1406.683594 84.0
1407.37793 192.0
1407.497437 44.0
1407.87085 132.0
1408.63269 184.0
1409.671265 180.0
1410.299072 128.0
1410.717651 224.0
1411.270996 188.0
1411.786987 68.0
1413.036133 124.0
1413.784424 120.0
1414.577881 248.0
1415.79834 176.0
1416.47998 212.0
1416.869507 168.0
1419.410522 56.0
1419.807983 140.0
1420.250488 104.0
1421.083252 208.0
1421.841187 220.0
1422.261475 124.0
1422.877075 84.0
1423.019775 136.0
1423.184937 140.0
1423.598022 160.0
1423.695557 156.0
1425.739136 128.0
1426.047241 140.0
1427.152344 92.0
1427.408081 204.0
1427.814209 168.0
1428.265503 144.0
1429.49939 176.0
1430.018677 160.0
1431.366333 212.0
1431.629883 176.0
1436.536865 120.0
1437.336548 136.0
1437.925293 160.0
1438.227173 184.0
1439.16333 120.0
1440.265991 184.0
1440.545532 168.0
1441.308594 128.0
1441.48291 264.0
1441.928223 144.0
1442.858032 80.0
1443.236084 168.0
1443.372192 240.0
1444.332764 124.0
1445.14978 72.0
1446.07312 88.0
1448.261353 48.0
1448.632568 180.0
1449.072021 144.0
1450.034424 148.0
1452.498779 124.0
1453.082886 164.0
1453.151123 228.0
1453.280151 148.0
1454.084595 120.0
1454.676636 180.0
1455.77002 196.0
1456.408081 132.0
1456.552368 184.0
1457.448853 140.0
1457.973267 156.0
1458.208862 176.0
1458.29248 68.0
1458.740967 156.0
1459.098267 204.0
1459.411743 172.0
1459.683716 144.0
1460.543213 196.0
1462.818481 168.0
1462.925049 144.0
1463.062134 156.0
1463.655151 172.0
1464.867065 168.0
1465.407959 164.0
1465.956543 108.0
1466.078491 92.0
1466.848389 168.0
1467.946289 248.0
1468.103271 104.0
1468.831055 168.0
1468.937866 188.0
1469.189575 216.0
1469.288818 152.0
1470.578491 156.0
1471.357056 196.0
1471.44104 184.0
1472.410889 132.0
1473.037231 148.0
1473.106079 124.0
1473.274048 160.0
1473.449829 164.0
1474.1604 148.0
1474.909424 160.0
1475.566895 156.0
1475.93396 124.0
1476.018066 140.0
1476.16333 192.0
1476.255127 48.0
1477.157715 208.0
1478.64209 160.0
1478.894775 136.0
1478.955933 164.0
1479.08606 152.0
1480.257568 156.0
1480.786011 92.0
1480.923828 156.0
1482.318237 156.0
1482.386353 176.0
1482.839355 252.0
1483.168945 148.0
1483.759277 160.0
1483.874268 128.0
1483.927979 144.0
1486.351807 180.0
1486.512939 140.0
1487.234375 164.0
1488.585693 160.0
1489.61499 176.0
1490.098999 152.0
1490.344849 164.0
1490.959595 128.0
1492.374023 188.0
1492.896973 240.0
1493.250732 88.0
1494.712524 172.0
1495.066528 204.0
1495.52832 168.0
1496.359741 200.0
1497.052734 260.0
1498.439331 152.0
1498.66272 204.0
1498.97876 192.0
1499.125122 204.0
1500.019287 148.0
1502.425415 188.0
1503.428467 200.0
1503.737183 176.0
1504.007324 204.0
1504.262085 156.0
