>compound MLS001075542-01!
>formula C20H22N2O3
>ionization [M+H]+
>parentmass 339.171265
#inchi InChI=1S/C20H22N2O3/c1-25-17-7-5-14(6-8-17)10-20(24)21-11-15-9-16(13-21)18-3-2-4-19(23)22(18)12-15/h2-8,15-16H,9-13H2,1H3/t15-,16+/m1/s1
#inchikey OIENWKZQEIDMSJ
#Ion_Source LC-ESI
#Instrument qTof
#Compound_Source NIH Natural Product Library
#PI Dorrestein
#Data_Collector VVP/LMS
#Scan -1
#Precursor_MZ 339.171
#ExactMass 338.163
#Charge 1
#CAS_Number N/A
#Pubmed_ID N/A
#Smiles COc1ccc(CC(=O)N2C[C@H]3C[C@@H](C2)c4cccc(=O)n4C3)cc1
#INCHI_AUX N/A
#Library_Class 1
#SpectrumID CCMSLIB00000080500
#IonMode Positive
#UpdateWorkflowName UPDATE-SINGLE-ANNOTATED-GOLD
#LibraryQualityString Gold
#TaskID b1d8e8f6646f4e71acdff9ca3d919d08
##Scan# 1562
#SpectrumFile p2-H09_GH9_01_18069.mzXML
#LibraryName NIH_Natural_Products_Library.mgf
#MQScore -1
#Organism NIH_Natural_Products_Library
#TIC_Query 0
#RT_Query -1
#MZErrorPPM -1
#SharedPeaks 0
#MassDiff 0
#LibMZ -1
#SpecMZ 339.171
#SpecCharge 0
#internalFilename spec-00000.mgf

>collision 10
95.108269 212.0
95.186852 188.0
95.263618 160.0
95.300529 200.0
95.492989 104.0
95.524109 140.0
95.5494 112.0
95.623344 144.0
95.703163 220.0
95.734314 36.0
95.91243 100.0
96.044212 148.0
96.057861 276.0
96.079323 212.0
96.174942 184.0
96.262802 160.0
96.393684 192.0
96.44059 164.0
96.600929 144.0
96.642014 200.0
96.685066 160.0
96.726173 208.0
96.834145 168.0
96.849533 128.0
96.890671 184.0
96.908302 148.0
96.945534 172.0
96.959251 152.0
96.974937 212.0
96.995499 144.0
97.118065 236.0
97.202431 196.0
97.381081 56.0
97.398758 208.0
97.520584 160.0
97.752655 140.0
97.827446 220.0
97.916054 168.0
97.95742 200.0
98.048058 176.0
98.077621 152.0
98.097336 120.0
98.12162 224.0
98.140709 176.0
98.219597 252.0
98.23735 144.0
98.294563 204.0
98.351799 56.0
98.407074 240.0
98.466316 192.0
98.539406 144.0
98.65799 68.0
98.681717 164.0
98.788513 164.0
98.802361 140.0
98.885468 204.0
98.931 64.0
98.970596 132.0
99.128761 156.0
99.167709 184.0
99.307495 172.0
99.452339 112.0
99.507927 128.0
99.659508 164.0
99.772163 56.0
99.788071 192.0
99.835793 196.0
100.074585 220.0
100.210304 140.0
100.307678 140.0
100.371475 124.0
100.429314 152.0
100.451256 64.0
100.509109 168.0
100.640854 144.0
100.792656 172.0
100.834625 192.0
100.926582 48.0
100.940582 152.0
101.020584 216.0
101.090614 144.0
101.116631 192.0
101.147919 228.0
101.230743 184.0
101.34893 176.0
101.461174 164.0
101.519318 156.0
101.79023 88.0
101.910751 120.0
101.946922 120.0
101.969032 116.0
102.038223 232.0
102.107758 152.0
102.22847 140.0
102.331123 120.0
102.40966 228.0
102.520477 28.0
102.732185 112.0
102.755333 164.0
102.849228 164.0
102.944122 128.0
103.055084 308.0
103.140099 80.0
103.269508 52.0
103.291756 196.0
103.401016 132.0
103.465797 168.0
103.577171 200.0
103.721046 164.0
103.74334 136.0
103.787949 136.0
103.826477 184.0
103.840675 192.0
103.917763 112.0
103.966461 228.0
103.996483 212.0
104.029381 104.0
104.05217 176.0
104.177628 260.0
104.285332 208.0
104.325058 188.0
104.386978 176.0
104.450027 148.0
104.488686 56.0
104.739082 160.0
104.765564 128.0
104.779823 136.0
104.820572 132.0
105.034645 160.0
105.06913 360.0
105.189735 112.0
105.361275 132.0
105.447098 216.0
105.52478 160.0
105.549316 28.0
105.57795 188.0
105.655678 124.0
105.781784 116.0
105.91156 36.0
106.011955 156.0
106.041237 712.0
106.064247 440.0
106.264168 112.0
106.360626 144.0
106.391418 132.0
106.424263 156.0
106.52285 116.0
106.546799 200.0
106.767441 148.0
106.937943 184.0
106.98555 180.0
107.046425 312.0
107.076157 132.0
107.111168 192.0
107.216248 204.0
107.234802 124.0
107.44101 164.0
107.459579 140.0
107.579277 148.0
107.597862 88.0
107.711441 152.0
107.783752 188.0
107.810616 184.0
107.87056 208.0
108.043434 208.0
108.079445 208.0
108.325821 172.0
108.566254 112.0
108.638847 192.0
108.77166 144.0
108.809029 184.0
108.852631 92.0
108.89209 168.0
108.981422 172.0
109.046852 176.0
109.095673 156.0
109.114441 180.0
109.174744 172.0
109.312042 136.0
109.362213 184.0
109.401772 180.0
109.513985 100.0
109.595238 144.0
109.616074 196.0
109.716614 136.0
109.795357 104.0
109.828163 236.0
109.868462 172.0
109.885056 280.0
109.939308 140.0
109.976875 76.0
109.993576 152.0
110.037415 128.0
110.058022 244.0
110.077087 168.0
110.219131 160.0
110.233757 132.0
110.252571 68.0
110.411461 124.0
110.482574 196.0
110.497223 176.0
110.624886 96.0
110.656288 60.0
110.81337 172.0
110.916061 140.0
110.938423 176.0
111.062843 248.0
111.197128 56.0
111.251701 152.0
111.396606 260.0
111.476448 168.0
111.702446 212.0
111.766632 164.0
111.984734 160.0
112.00032 36.0
112.021385 228.0
112.101456 288.0
112.130959 204.0
112.206848 120.0
112.280647 76.0
112.474762 164.0
112.538094 156.0
112.62468 164.0
112.772591 128.0
112.842354 220.0
112.871956 132.0
112.910019 208.0
113.068695 88.0
113.130081 220.0
113.295265 104.0
113.411812 200.0
113.486015 224.0
113.753326 212.0
114.042213 160.0
114.169785 152.0
114.537994 248.0
114.561432 168.0
114.682892 156.0
114.708466 132.0
114.757828 132.0
114.830009 328.0
114.868401 148.0
114.896133 184.0
115.002831 164.0
115.024178 128.0
115.05513 248.0
115.074471 144.0
115.148018 172.0
115.222786 76.0
115.252701 180.0
115.445084 172.0
115.579857 184.0
115.641914 224.0
115.70768 196.0
115.755386 200.0
115.851768 176.0
115.905334 136.0
115.984627 136.0
116.184059 140.0
116.25058 152.0
116.31926 192.0
116.387962 172.0
116.411583 156.0
116.695221 48.0
116.712425 176.0
116.839325 152.0
116.894829 156.0
116.912994 184.0
116.943405 228.0
117.057091 1092.0
117.307663 180.0
117.32605 132.0
117.565475 172.0
117.612961 156.0
117.673401 128.0
117.920082 188.0
117.978035 76.0
118.063889 504.0
118.170517 68.0
118.19648 148.0
118.391312 160.0
118.432465 144.0
118.482285 152.0
118.579796 276.0
118.73156 172.0
118.787956 144.0
118.853043 224.0
119.02887 212.0
119.066933 176.0
119.152847 208.0
119.180923 176.0
119.300461 160.0
119.374382 212.0
119.420059 88.0
119.513603 196.0
119.552773 84.0
119.657257 100.0
119.718224 396.0
119.785744 40.0
119.896866 116.0
119.929558 164.0
120.050613 92.0
120.080383 1708.0
120.132355 264.0
120.300011 92.0
120.389915 68.0
120.431412 180.0
120.477287 52.0
120.518799 176.0
120.535164 128.0
120.571243 36.0
120.58654 84.0
120.619331 336.0
120.663651 176.0
120.743958 68.0
120.763641 112.0
120.796455 88.0
120.829826 204.0
120.874046 216.0
120.921539 192.0
120.947441 152.0
120.962769 148.0
121.010429 192.0
121.024147 172.0
121.065445 82376.0
121.115242 228.0
121.13459 112.0
121.171364 192.0
121.197441 180.0
121.226257 100.0
121.266602 160.0
121.287621 384.0
121.311073 292.0
121.358612 88.0
121.37188 224.0
121.401329 148.0
121.425247 848.0
121.461746 152.0
121.480148 80.0
121.486145 72.0
121.493828 96.0
121.513863 60.0
121.554527 28.0
121.571358 60.0
121.600616 44.0
121.624191 92.0
121.650436 120.0
121.682404 140.0
121.727951 56.0
121.743324 124.0
121.771873 52.0
121.818001 60.0
121.844223 64.0
121.870728 56.0
121.943253 44.0
122.067825 7600.0
122.134544 52.0
122.176338 76.0
122.208199 100.0
122.242348 68.0
122.301773 36.0
122.345795 80.0
122.392036 48.0
122.508766 108.0
122.524185 52.0
122.557236 28.0
122.617912 64.0
122.702705 108.0
122.71814 196.0
122.786499 132.0
122.817375 120.0
122.840569 144.0
122.859291 76.0
122.892693 172.0
122.950653 132.0
122.96962 104.0
123.018463 216.0
123.071991 516.0
123.129784 192.0
123.181595 64.0
123.20369 184.0
123.219154 224.0
123.273659 144.0
123.727837 88.0
123.758835 32.0
123.815216 164.0
123.842987 108.0
123.862923 464.0
123.965538 76.0
124.026894 40.0
124.064583 220.0
124.542862 172.0
124.583885 160.0
124.694992 96.0
124.944038 176.0
125.253479 60.0
125.298035 120.0
125.330582 236.0
125.752945 192.0
125.856339 216.0
125.938263 80.0
126.167435 228.0
126.21315 192.0
126.316025 128.0
126.428429 136.0
126.452522 116.0
126.5746 180.0
126.613716 188.0
126.788467 164.0
126.922974 216.0
127.027046 184.0
127.214645 244.0
127.261787 156.0
127.389809 148.0
127.470688 196.0
127.493164 72.0
127.511139 116.0
127.871002 168.0
127.89576 180.0
128.048859 92.0
128.107437 212.0
128.197556 208.0
128.238129 136.0
128.366394 188.0
128.407227 80.0
128.468124 204.0
128.522278 164.0
128.687042 120.0
129.021423 140.0
129.315491 52.0
129.358505 84.0
129.428696 164.0
129.453934 188.0
129.729401 188.0
129.906906 132.0
130.038513 168.0
130.066132 1012.0
130.184921 176.0
130.304214 140.0
130.338287 192.0
130.395111 176.0
130.583817 116.0
130.611115 80.0
130.627029 200.0
130.720322 80.0
130.784042 108.0
130.818192 204.0
130.85347 96.0
130.938873 120.0
130.957092 148.0
131.0466 272.0
131.069351 412.0
131.207748 124.0
131.440399 132.0
131.636719 68.0
131.712448 128.0
131.762344 168.0
131.794327 76.0
131.924606 232.0
131.940613 44.0
132.045029 360.0
132.079315 660.0
132.107559 132.0
132.295212 60.0
132.386795 52.0
132.414276 164.0
132.501328 176.0
132.634247 152.0
132.684677 64.0
132.838333 148.0
132.930115 228.0
132.946167 228.0
132.966827 188.0
132.998962 108.0
133.051666 1392.0
133.274551 240.0
133.345795 140.0
133.383438 84.0
133.405548 36.0
133.49292 180.0
133.544846 104.0
133.582626 144.0
133.76442 176.0
133.787445 84.0
133.985397 468.0
134.058533 940.0
134.089844 160.0
134.137085 152.0
134.17218 144.0
134.326691 68.0
134.435135 160.0
134.721436 136.0
134.764694 100.0
134.934067 120.0
135.033493 152.0
135.06395 224.0
135.081665 684.0
135.105209 100.0
135.130264 116.0
135.163055 96.0
135.197754 204.0
135.31813 260.0
135.399185 136.0
135.43161 168.0
135.56134 128.0
135.73288 128.0
135.797821 164.0
135.872055 144.0
135.924667 184.0
136.007645 204.0
136.057724 184.0
136.077103 208.0
136.150604 152.0
136.459656 212.0
136.538712 36.0
136.607178 296.0
136.624786 160.0
136.766739 212.0
136.969315 108.0
137.053192 200.0
137.097458 188.0
137.160385 180.0
137.202347 188.0
137.269974 144.0
137.287354 176.0
137.321274 100.0
137.384262 168.0
137.528946 144.0
137.671356 72.0
137.70639 148.0
137.729752 188.0
137.965775 48.0
138.073334 176.0
138.138824 108.0
138.341827 144.0
138.52742 216.0
138.569595 48.0
138.609421 156.0
138.728958 40.0
138.801636 156.0
138.827438 156.0
138.883728 176.0
139.045624 96.0
139.165344 104.0
139.188828 184.0
139.315659 92.0
139.585953 264.0
139.745895 164.0
139.828262 148.0
140.006149 264.0
140.047226 224.0
140.584778 48.0
140.660309 188.0
140.901184 196.0
140.993332 76.0
141.089401 156.0
141.319672 240.0
141.414322 184.0
141.598999 204.0
141.700867 176.0
141.729294 188.0
141.847794 164.0
141.880981 204.0
142.065292 604.0
142.089691 168.0
142.141891 172.0
142.44342 216.0
142.460052 216.0
142.5242 128.0
142.57399 180.0
142.621643 128.0
143.072159 328.0
143.109329 156.0
143.168854 96.0
143.366592 160.0
143.399963 120.0
143.478622 244.0
143.500076 216.0
143.559006 164.0
143.989273 132.0
144.080399 496.0
144.130219 164.0
144.175629 168.0
144.431458 28.0
144.488861 200.0
144.953384 40.0
144.994446 148.0
145.005386 160.0
145.058884 224.0
145.41864 44.0
145.460419 168.0
145.663559 164.0
145.822144 168.0
145.9207 128.0
146.060425 2072.0
146.091019 108.0
146.09729 188.0
146.308487 156.0
146.459763 192.0
146.551315 92.0
146.645294 212.0
146.666992 264.0
146.698318 208.0
146.751358 116.0
147.016708 216.0
147.033493 192.0
147.068527 908.0
147.09935 176.0
147.134979 244.0
147.156708 120.0
147.341827 204.0
147.371674 108.0
147.417587 140.0
147.456253 128.0
147.523941 188.0
147.557938 184.0
147.623077 80.0
147.669022 32.0
147.695633 244.0
147.756104 140.0
147.793106 204.0
147.823853 132.0
147.862579 252.0
147.882584 212.0
147.903732 64.0
147.928329 96.0
147.973862 152.0
147.999741 176.0
148.003983 120.0
148.017242 180.0
148.024918 208.0
148.076035 63808.0
148.122574 192.0
148.163132 100.0
148.19696 48.0
148.230484 100.0
148.253433 52.0
148.262695 76.0
148.292267 68.0
148.325211 44.0
148.354294 96.0
148.381912 92.0
148.427032 56.0
148.451279 92.0
148.477585 204.0
148.5289 152.0
148.555573 88.0
148.572556 172.0
148.601669 60.0
148.622116 60.0
148.645355 44.0
148.676895 76.0
148.723007 44.0
148.742432 76.0
148.804459 152.0
148.875977 92.0
148.924545 52.0
148.980408 144.0
149.078201 7428.0
149.146973 148.0
149.177261 44.0
149.230743 44.0
149.281815 36.0
149.332886 104.0
149.437485 80.0
149.479126 72.0
149.620026 32.0
149.63707 52.0
149.684235 32.0
149.727158 72.0
149.771011 152.0
149.861145 164.0
149.936691 64.0
150.081299 668.0
150.104935 232.0
150.180496 28.0
150.238754 100.0
150.273209 120.0
150.298904 188.0
150.322006 112.0
150.407425 56.0
150.542938 96.0
150.579834 92.0
150.773788 84.0
150.849564 44.0
150.949814 116.0
151.02536 108.0
151.075043 80.0
151.843689 64.0
152.162704 228.0
152.70578 124.0
152.777115 160.0
152.860764 216.0
152.89769 144.0
153.190689 216.0
153.304031 196.0
154.007187 100.0
154.118362 140.0
154.521378 48.0
154.541168 112.0
154.778793 128.0
154.929871 80.0
155.071121 132.0
155.197556 124.0
155.239716 164.0
155.477875 124.0
155.527512 124.0
155.793213 76.0
155.81604 168.0
156.006943 204.0
156.079041 176.0
156.248169 184.0
156.322815 192.0
156.402466 204.0
156.708771 116.0
156.776062 192.0
156.810944 104.0
157.070267 172.0
157.334793 56.0
157.357254 124.0
157.492111 56.0
157.947037 224.0
158.057114 124.0
158.099655 160.0
158.16571 196.0
158.427673 76.0
158.999374 116.0
159.066437 368.0
159.396164 156.0
159.614853 176.0
159.788406 220.0
159.957016 216.0
160.075089 5236.0
160.203812 128.0
160.244125 60.0
160.319717 72.0
160.430618 56.0
160.829178 164.0
160.940262 180.0
161.079117 484.0
161.27121 96.0
161.860672 124.0
161.898666 40.0
161.989853 200.0
162.090439 2588.0
162.138489 192.0
162.164688 36.0
162.202713 36.0
162.266083 48.0
162.319336 192.0
162.674545 116.0
162.730392 188.0
163.087738 144.0
163.09407 128.0
163.101791 308.0
163.383575 64.0
163.406464 96.0
163.64827 112.0
163.668625 196.0
163.946304 160.0
164.102997 244.0
164.379822 120.0
164.68364 244.0
164.982605 144.0
165.074661 52.0
165.344711 228.0
165.609543 180.0
165.660782 176.0
165.901672 148.0
166.001678 184.0
166.684494 68.0
167.131927 48.0
167.420242 128.0
167.597977 140.0
167.69075 136.0
169.556808 136.0
169.582733 216.0
170.654877 92.0
170.686081 104.0
171.245605 76.0
171.576553 136.0
171.806046 52.0
172.163651 40.0
172.963715 148.0
173.042252 88.0
173.078903 116.0
173.107101 276.0
173.186279 132.0
173.283203 136.0
173.304169 160.0
174.090118 1188.0
174.143646 32.0
174.317032 112.0
174.964081 64.0
175.108917 48.0
175.332855 148.0
176.103378 184.0
176.253845 64.0
176.41507 116.0
176.515549 244.0
176.653076 104.0
176.968018 200.0
177.036865 92.0
177.174606 112.0
177.50061 188.0
177.55896 64.0
178.084473 100.0
178.142914 76.0
178.164169 116.0
178.366135 92.0
178.642685 48.0
178.730484 124.0
178.871536 108.0
178.908813 136.0
179.449646 180.0
179.526978 184.0
179.703033 176.0
179.911209 240.0
179.96727 60.0
180.172928 80.0
180.565872 244.0
180.782578 180.0
180.876251 160.0
181.106537 188.0
181.334274 104.0
181.398605 144.0
181.672134 44.0
181.728485 176.0
181.779465 48.0
182.032852 92.0
182.606918 168.0
182.789856 44.0
182.905594 148.0
183.765274 140.0
183.794968 204.0
184.17688 112.0
184.474823 52.0
184.621582 124.0
184.744629 164.0
184.865051 116.0
184.957077 136.0
185.078903 144.0
185.376877 176.0
185.455475 212.0
185.886688 164.0
186.212463 224.0
186.315689 116.0
187.164291 200.0
187.357666 184.0
187.796555 172.0
187.851105 160.0
188.146286 172.0
188.194977 252.0
188.268707 52.0
188.364304 208.0
188.651245 76.0
188.74147 128.0
188.787949 156.0
188.837189 72.0
189.056046 84.0
189.104813 144.0
189.250412 148.0
189.286011 60.0
189.392807 192.0
189.414734 128.0
189.813889 56.0
190.11293 184.0
190.267593 152.0
190.297806 112.0
190.413132 104.0
190.594452 116.0
190.621918 192.0
190.643906 56.0
190.690628 168.0
190.759354 76.0
190.778595 176.0
190.797836 60.0
190.830154 196.0
190.841156 148.0
190.874817 184.0
190.926819 168.0
190.960083 144.0
190.997986 464.0
191.028198 220.0
191.076294 288.0
191.118713 79688.0
191.170456 96.0
191.177277 92.0
191.190201 104.0
191.201538 128.0
191.282013 28.0
191.315048 44.0
191.34166 168.0
191.368622 104.0
191.402557 92.0
191.422272 72.0
191.441391 56.0
191.450821 64.0
191.463425 72.0
191.475586 40.0
191.497269 336.0
191.570175 72.0
191.612488 148.0
191.6483 76.0
191.701859 128.0
191.790802 96.0
191.92569 88.0
191.984604 104.0
192.020462 32.0
192.121445 8684.0
192.208054 44.0
192.298096 116.0
192.346664 72.0
192.373657 52.0
192.446915 112.0
192.492371 44.0
192.522751 48.0
192.575226 212.0
192.613892 56.0
192.655334 116.0
192.682968 76.0
192.774567 80.0
192.895752 52.0
192.939987 52.0
193.028473 72.0
193.056122 68.0
193.082855 60.0
193.122787 924.0
193.150894 212.0
193.207596 136.0
193.288498 88.0
193.32309 104.0
193.34938 120.0
193.41304 60.0
193.442932 80.0
193.473434 240.0
193.52182 136.0
193.587662 112.0
193.638855 120.0
193.644302 152.0
193.673309 96.0
193.692703 68.0
193.73819 84.0
193.767502 88.0
194.125076 80.0
194.255432 112.0
194.405258 108.0
194.441895 128.0
194.463547 100.0
194.582901 100.0
194.752304 88.0
195.113556 84.0
195.213654 80.0
195.355515 152.0
195.569778 84.0
195.614319 72.0
196.352692 68.0
196.882965 52.0
197.74408 196.0
197.836441 60.0
198.567795 196.0
199.157211 124.0
199.626556 112.0
200.100769 144.0
200.254166 44.0
200.510559 60.0
201.481247 184.0
201.806274 60.0
202.270233 72.0
202.493927 72.0
202.618561 68.0
203.316116 108.0
203.543213 68.0
204.185471 160.0
204.569611 36.0
205.042435 104.0
205.122253 196.0
206.793228 84.0
207.056641 100.0
207.647034 76.0
209.676834 60.0
210.282516 116.0
210.343124 136.0
211.438583 228.0
213.184448 88.0
214.351379 168.0
214.867462 116.0
216.513168 76.0
217.092117 152.0
217.234222 112.0
217.789017 96.0
217.856583 72.0
219.554947 136.0
220.3815 100.0
220.476059 100.0
220.703674 88.0
222.31218 136.0
222.983368 136.0
224.379471 240.0
224.439102 132.0
224.791092 204.0
225.836746 124.0
226.132965 220.0
226.917816 132.0
228.109665 92.0
228.741379 120.0
228.867828 96.0
229.847458 92.0
230.016479 64.0
230.56015 52.0
230.83223 144.0
233.926971 44.0
235.11264 132.0
235.955719 96.0
238.389481 44.0
239.281509 88.0
239.675751 176.0
240.835342 152.0
244.28894 40.0
244.600128 120.0
247.48172 72.0
248.701218 124.0
251.644669 72.0
258.478729 68.0
260.675354 60.0
262.026764 40.0
263.01355 128.0
263.569031 148.0
264.995972 120.0
265.397888 144.0
265.699524 128.0
267.975403 48.0
268.125275 84.0
268.748138 96.0
269.361908 120.0
269.410919 72.0
269.629822 188.0
271.545135 40.0
271.604156 164.0
272.332855 216.0
273.394806 56.0
275.082367 76.0
275.505066 136.0
275.534821 92.0
275.885132 176.0
278.705627 164.0
278.875122 88.0
279.147736 124.0
280.94635 132.0
284.138 136.0
284.614594 112.0
285.653107 144.0
286.29599 140.0
286.932831 80.0
287.280212 124.0
288.922058 208.0
290.789154 112.0
295.187378 84.0
296.118225 284.0
296.375153 156.0
296.889374 36.0
296.916809 148.0
297.132904 120.0
297.541321 184.0
298.606567 164.0
299.25351 124.0
301.820648 164.0
302.038513 224.0
302.412231 148.0
305.072784 64.0
305.420532 188.0
305.503998 152.0
306.029541 248.0
306.450989 152.0
307.252899 60.0
307.354065 80.0
307.563477 100.0
308.080292 164.0
309.612335 216.0
311.179779 136.0
313.582428 164.0
314.605377 36.0
315.874023 60.0
318.415436 140.0
321.160065 264.0
323.249603 104.0
324.829651 172.0
327.93277 80.0
330.79718 160.0
331.746307 140.0
332.087158 140.0
335.439728 76.0
335.581909 144.0
336.296906 68.0
336.837311 28.0
336.895782 72.0
337.180786 32.0
337.367188 136.0
337.678009 68.0
338.128021 64.0
338.340332 116.0
338.373291 116.0
338.578339 120.0
338.626465 88.0
339.045013 276.0
339.083923 100.0
339.171265 22692.0
339.24823 148.0
339.285339 76.0
339.329529 52.0
339.431671 72.0
339.549561 76.0
339.604584 56.0
339.664825 84.0
339.742279 148.0
339.774048 80.0
339.828339 136.0
339.868713 168.0
339.898071 76.0
339.923737 72.0
339.966644 104.0
339.977203 64.0
340.022827 52.0
340.070557 196.0
340.173187 3820.0
340.257751 68.0
340.305481 44.0
340.334869 76.0
340.411987 120.0
340.812378 68.0
340.929962 92.0
341.177917 1052.0
341.304901 44.0
341.617523 44.0
341.734039 84.0
342.136444 56.0
342.184296 140.0
342.210052 176.0
342.305817 140.0
342.337158 76.0
342.364716 80.0
342.397858 144.0
342.499146 48.0
342.604156 128.0
342.674133 144.0
342.762573 44.0
342.799438 104.0
343.039001 108.0
343.444611 108.0
343.494598 80.0
343.625366 84.0
343.942749 64.0
344.759003 40.0
345.010345 60.0
345.990723 68.0
350.376831 68.0
357.393341 100.0
358.112396 64.0
359.303589 84.0
360.889893 52.0
362.142517 128.0
362.729828 48.0
371.907562 116.0
375.798248 80.0
378.825409 136.0
379.907013 48.0
381.57309 92.0
382.062439 92.0
394.839203 116.0
401.670929 32.0
415.72525 108.0
416.500732 40.0
422.378662 100.0
427.346771 140.0
435.079651 40.0
439.462219 124.0
445.12561 80.0
460.772614 88.0
465.097809 64.0
468.529419 40.0
488.869019 84.0
490.868988 36.0
501.469177 40.0
515.204956 100.0
518.480957 48.0
529.117249 96.0
530.583313 28.0
534.087097 120.0
561.079773 124.0
570.805115 72.0
570.890747 104.0
574.138611 28.0
574.615662 44.0
575.135803 104.0
575.403137 28.0
576.625977 72.0
601.536621 124.0
601.697754 76.0
608.763367 68.0
615.307251 144.0
617.21936 88.0
629.558228 60.0
637.171875 92.0
676.537292 84.0
684.835266 80.0
690.503418 60.0
697.986877 68.0
704.93457 108.0
745.200867 56.0
748.616882 100.0
752.324524 40.0
764.888977 192.0
770.033325 172.0
784.042114 224.0
787.797302 176.0
788.831116 72.0
819.790405 168.0
830.280823 172.0
831.009338 224.0
835.784058 176.0
838.242859 68.0
862.578918 188.0
883.307373 80.0
885.68103 136.0
899.864319 172.0
904.329834 180.0
905.17395 160.0
906.407898 236.0
909.09436 148.0
918.932556 236.0
931.549255 160.0
931.950195 116.0
933.792175 68.0
941.41626 100.0
942.583008 128.0
944.111267 104.0
944.845276 84.0
946.473328 44.0
948.078308 164.0
962.516113 140.0
967.443726 228.0
970.361694 236.0
971.782043 204.0
973.352356 56.0
974.352356 188.0
980.531311 168.0
981.965332 148.0
988.155823 176.0
990.873047 224.0
992.78479 216.0
993.173645 156.0
1002.232788 216.0
1007.709473 68.0
1011.700134 72.0
1014.069153 132.0
1014.753784 148.0
1015.324524 128.0
1017.786682 64.0
1018.891785 208.0
1023.738647 56.0
1031.356323 120.0
1033.19165 164.0
1034.394775 124.0
1034.59314 192.0
1038.271118 188.0
1040.356445 156.0
1040.510498 52.0
1045.279663 232.0
1046.348145 192.0
1046.63147 84.0
1050.311401 168.0
1051.905151 136.0
1052.402344 164.0
1053.099731 256.0
1055.565186 216.0
1059.251099 28.0
1068.352295 88.0
1070.278809 108.0
1070.474121 36.0
1074.567505 140.0
1077.923706 148.0
1086.717407 44.0
1087.078247 160.0
1088.588135 196.0
1089.021606 164.0
1092.623901 136.0
1093.11731 120.0
1094.16333 136.0
1095.085815 136.0
1095.869751 212.0
1096.383667 188.0
1099.074097 100.0
1100.711182 136.0
1102.726074 144.0
1105.814819 120.0
1105.867676 20.0
1107.052734 200.0
1108.536621 60.0
1108.834839 196.0
1111.527344 192.0
1111.726318 144.0
1111.985229 76.0
1114.681396 220.0
1115.000488 88.0
1116.735718 156.0
1119.45105 116.0
1120.530029 176.0
1120.796631 204.0
1122.769775 200.0
1124.237427 108.0
1128.044556 60.0
1130.65979 200.0
1130.981079 176.0
1131.396118 216.0
1131.730835 152.0
1132.855957 216.0
1133.800659 88.0
1137.321899 40.0
1139.921021 140.0
1141.144287 188.0
1142.348145 156.0
1142.523071 120.0
1145.516846 132.0
1149.010742 136.0
1149.388672 68.0
1152.231201 188.0
1152.987915 152.0
1156.498169 224.0
1156.809448 208.0
1162.808228 132.0
1164.240723 232.0
1168.237305 148.0
1168.603394 124.0
1170.061157 220.0
1170.980469 176.0
1173.18811 244.0
1174.804077 240.0
1175.186401 124.0
1175.711914 132.0
1177.630371 152.0
1179.215454 72.0
1179.311157 52.0
1180.275024 120.0
1180.911011 104.0
1182.744751 192.0
1182.909058 164.0
1182.963745 140.0
1183.936035 164.0
1184.89502 144.0
1185.086914 256.0
1185.450073 220.0
1186.203979 160.0
1187.547852 168.0
1187.808594 188.0
1190.444092 132.0
1191.900269 128.0
1192.010254 196.0
1192.724976 220.0
1193.06189 124.0
1193.976318 112.0
1194.966919 192.0
1195.386597 52.0
1198.340576 44.0
1198.685059 32.0
1200.201538 168.0
1200.573975 144.0
1200.829102 132.0
1202.547119 236.0
1203.596436 68.0
1203.838135 180.0
1205.772461 176.0
1205.876099 52.0
1206.22168 156.0
1206.933838 128.0
1208.358643 180.0
1209.175171 132.0
1209.81189 140.0
1210.635864 108.0
1211.952026 184.0
1213.657104 60.0
1214.25354 76.0
1216.258667 64.0
1216.307251 72.0
1216.557129 120.0
1217.258423 256.0
1219.029785 164.0
1219.161865 124.0
1220.253174 76.0
1221.595337 180.0
1222.472046 240.0
1223.676147 88.0
1223.968628 200.0
1225.445312 152.0
1225.870361 136.0
1226.999512 188.0
1228.812744 172.0
1229.308228 132.0
1229.580322 168.0
1229.677612 168.0
1232.471436 112.0
1233.995117 192.0
1235.519775 172.0
1239.328491 88.0
1239.531616 52.0
1240.25354 148.0
1242.651855 104.0
1244.020386 156.0
1244.118652 144.0
1245.712769 88.0
1246.408325 212.0
1247.251709 128.0
1248.615723 204.0
1250.409668 168.0
1251.866943 184.0
1252.233154 132.0
1253.029175 232.0
1253.353271 88.0
1254.4104 164.0
1254.685425 180.0
1254.826416 156.0
1254.995605 168.0
1255.334106 168.0
1256.540161 168.0
1256.80127 180.0
1257.570435 152.0
1257.69751 164.0
1259.363892 164.0
1259.709961 132.0
1260.904053 140.0
1261.865479 208.0
1261.921997 152.0
1264.574707 112.0
1266.741455 200.0
1267.612915 180.0
1268.888794 144.0
1269.136963 180.0
1269.534058 140.0
1270.221924 204.0
1270.434814 64.0
1272.088257 152.0
1273.955933 244.0
1274.51001 200.0
1276.927002 136.0
1278.549194 196.0
1279.182617 228.0
1281.746582 164.0
1282.189575 120.0
1282.466309 80.0
1283.742432 232.0
1284.013428 72.0
1284.555542 164.0
1284.705322 100.0
1284.983643 28.0
1285.261841 112.0
1285.797119 140.0
1286.625122 140.0
1287.14624 132.0
1287.553345 156.0
1289.332275 48.0
1289.553833 148.0
1290.132812 192.0
1290.468872 100.0
1291.462769 132.0
1292.922363 148.0
1292.986816 244.0
1294.046143 192.0
1295.141846 196.0
1295.349609 192.0
1295.5 176.0
1296.954712 188.0
1298.008545 200.0
1298.531982 196.0
1298.991089 236.0
1299.816162 156.0
1300.14624 244.0
1300.849609 132.0
1302.328857 188.0
1306.03772 224.0
1306.627563 132.0
1307.03772 156.0
1307.483887 172.0
1308.210815 128.0
1308.837158 136.0
1308.930786 152.0
1309.859863 204.0
1310.270508 108.0
1311.769409 140.0
1313.298096 220.0
1314.44519 156.0
1316.545898 132.0
1318.49646 172.0
1318.771118 176.0
1319.573486 224.0
1319.783081 180.0
1320.021729 132.0
1322.850708 176.0
1323.437134 200.0
1325.414551 148.0
1325.842041 136.0
1326.472656 48.0
1327.306396 108.0
1328.981934 184.0
1329.301147 204.0
1329.424561 192.0
1329.671265 168.0
1329.736572 184.0
1329.874512 140.0
1330.244751 152.0
1330.665771 180.0
1333.578735 200.0
1333.684326 176.0
1334.094849 168.0
1334.560181 224.0
1334.734619 176.0
1336.000122 212.0
1336.662231 180.0
1337.047974 144.0
1338.350952 144.0
1339.290405 228.0
1341.286865 180.0
1341.47644 96.0
1341.789917 164.0
1344.299072 84.0
1344.51062 260.0
1346.98584 120.0
1347.928223 188.0
1349.156128 140.0
1349.770386 128.0
1350.377319 76.0
1351.094116 276.0
1351.22583 212.0
1351.437988 136.0
1352.901733 84.0
1353.099487 188.0
1354.161255 312.0
1355.135498 184.0
1355.355347 176.0
1356.298584 232.0
1356.359375 168.0
1356.593872 172.0
1358.595947 48.0
1359.439697 156.0
1359.535156 288.0
1359.601196 148.0
1360.342529 64.0
1360.841675 108.0
1361.326294 84.0
1362.068115 180.0
1362.971802 48.0
1364.338867 92.0
1365.251221 224.0
1365.62561 156.0
1367.229492 184.0
1367.700562 228.0
1368.326294 168.0
1368.591309 160.0
1369.003662 180.0
1369.337769 164.0
1369.703369 156.0
1370.204346 160.0
1370.44751 180.0
1371.368652 164.0
1371.493896 180.0
1371.560303 188.0
1372.046753 176.0
1372.872559 120.0
1375.078491 160.0
1375.550903 184.0
1376.32605 160.0
1376.49585 216.0
1377.869751 280.0
1377.943604 176.0
1379.133301 168.0
1379.510376 172.0
1379.584229 220.0
1380.7229 156.0
1381.713379 164.0
1382.387451 128.0
1383.075684 236.0
1383.912231 156.0
1384.20105 192.0
1384.326904 64.0
1385.593506 216.0
1385.897339 152.0
1386.126953 132.0
1387.831787 184.0
1388.343506 120.0
1389.567383 188.0
1390.539429 168.0
1392.165283 128.0
1393.123413 180.0
1393.970459 132.0
1394.215698 220.0
1394.297485 188.0
1394.438599 28.0
1395.167114 228.0
1395.27124 164.0
1395.353027 168.0
1396.081665 168.0
1396.423828 224.0
1396.99646 148.0
1397.093262 156.0
1398.700562 204.0
1399.028076 160.0
1399.214233 188.0
1399.958862 164.0
1400.360962 224.0
1401.396484 156.0
1402.588867 216.0
1402.805054 136.0
1403.036133 128.0
1404.646851 160.0
1406.549683 144.0
1407.079712 176.0
1408.461182 168.0
1408.767456 212.0
1409.11853 296.0
1409.613892 216.0
1410.08252 212.0
1412.198364 80.0
1413.485107 176.0
1413.889282 152.0
1414.128784 164.0
1414.188599 100.0
1414.45813 196.0
1414.517944 172.0
1414.676025 176.0
1415.22168 188.0
1416.277588 220.0
1416.861938 168.0
1417.693604 116.0
1418.645508 204.0
1418.855469 252.0
1418.975342 200.0
1419.245361 56.0
1419.860229 168.0
1419.95459 48.0
1420.220215 160.0
1420.580322 152.0
1420.707764 180.0
1420.908936 64.0
1420.962891 180.0
1421.142944 60.0
1421.360596 64.0
1421.728271 132.0
1421.803345 164.0
1422.936768 172.0
1423.646973 164.0
1426.061646 196.0
1426.114258 124.0
1426.790161 212.0
1428.189575 144.0
1428.746216 112.0
1428.911743 172.0
1429.42334 132.0
1430.078125 116.0
1430.303833 232.0
1430.371582 160.0
1430.484497 184.0
1430.672729 128.0
1431.372925 124.0
1432.781372 168.0
1434.363892 40.0
1434.439331 124.0
1435.004761 176.0
1436.141235 180.0
1436.799683 196.0
1437.003418 36.0
1437.154297 220.0
1438.180664 124.0
1438.452393 188.0
1438.641113 144.0
1438.701416 140.0
1438.769409 152.0
1439.290405 172.0
1439.562256 120.0
1439.757935 220.0
1440.528931 152.0
1441.821045 168.0
1442.697754 88.0
1442.939697 156.0
1443.295044 156.0
1443.499268 108.0
1443.824463 192.0
1443.975708 232.0
1444.089111 188.0
1444.172363 224.0
1444.44043 116.0
1445.594604 152.0
1445.692993 80.0
1445.920044 124.0
1446.192505 160.0
1447.184204 176.0
1447.267456 128.0
1447.555298 192.0
1448.539795 184.0
1449.850586 160.0
1451.101318 168.0
1453.255371 80.0
1454.01416 48.0
1454.13562 228.0
1454.560669 168.0
1455.380615 216.0
1455.53064 176.0
1458.328125 144.0
1458.449707 192.0
1460.145142 136.0
1461.697144 136.0
1461.887329 192.0
1462.031982 100.0
1463.56958 184.0
1463.698975 224.0
1463.84375 76.0
1463.896973 108.0
1464.468262 216.0
1465.016602 160.0
1465.077637 144.0
1465.283325 144.0
1465.435669 128.0
1465.748047 168.0
1466.365356 120.0
1466.799805 156.0
1467.859497 72.0
1468.164551 156.0
1468.568726 140.0
1468.919678 188.0
1469.499512 228.0
1469.674927 180.0
1469.926758 164.0
1470.584106 148.0
1470.949463 160.0
1471.018188 220.0
1471.55249 152.0
1472.300903 184.0
1472.766724 52.0
1473.590942 176.0
1475.296021 184.0
1475.525391 192.0
1475.861816 140.0
1476.358887 148.0
1476.442993 156.0
1476.771851 184.0
1477.291992 92.0
1477.467896 288.0
1477.590332 96.0
1477.911743 192.0
1478.363159 212.0
1479.07959 196.0
1479.848145 132.0
1480.238647 136.0
1481.004517 200.0
1481.226562 60.0
1481.47937 168.0
1482.227173 256.0
1482.682373 120.0
1483.333862 144.0
1484.391846 228.0
1484.545288 184.0
1484.685791 188.0
1484.959351 172.0
1485.741821 68.0
1485.803223 192.0
1486.202148 132.0
1486.294189 144.0
1486.562744 68.0
1487.783203 148.0
1489.411133 116.0
1490.087158 228.0
1490.356079 176.0
1490.800537 80.0
1490.893921 128.0
1491.847046 44.0
1492.984985 56.0
1493.42334 156.0
1493.761841 232.0
1494.084961 176.0
1495.393066 160.0
1495.477661 60.0
1495.931885 124.0
1496.324463 188.0
1497.672119 100.0
1497.787598 88.0
1498.504028 156.0
1498.665894 164.0
1500.199585 204.0
1500.25354 116.0
1500.515625 152.0
1501.194214 136.0
1502.166016 136.0
1502.232788 288.0
1502.381958 104.0
1502.536255 180.0
1502.651978 192.0
1503.083862 168.0
1503.925293 176.0
1504.041016 148.0
