>compound MLS001142776-01!(2S)-3-methyl-2-[[1-[(2S)-4-methyl-2-[(4-methylphenyl)sulfonylamino]pentanoyl]piperidine-4-carbonyl]amino]butanoic acid
>formula C24H37N3O6S
>ionization [M+H]+
>parentmass 496.248
#inchi InChI=1S/C24H37N3O6S/c1-15(2)14-20(26-34(32,33)19-8-6-17(5)7-9-19)23(29)27-12-10-18(11-13-27)22(28)25-21(16(3)4)24(30)31/h6-9,15-16,18,20-21,26H,10-14H2,1-5H3,(H,25,28)(H,30,31)/t20-,21-/m0/s1
#inchikey ZSJOCPIPUNPVFO
#Ion_Source LC-ESI
#Instrument qTof
#Compound_Source NIH Natural Product Library
#PI Dorrestein
#Data_Collector VVP/LMS
#Scan -1
#Precursor_MZ 496.248
#ExactMass 495.24
#Charge 1
#CAS_Number N/A
#Pubmed_ID N/A
#Smiles CC(C)C[C@H](NS(=O)(=O)c1ccc(C)cc1)C(=O)N2CCC(CC2)C(=O)N[C@@H](C(C)C)C(=O)O
#INCHI_AUX N/A
#Library_Class 1
#SpectrumID CCMSLIB00000079862
#IonMode Positive
#UpdateWorkflowName UPDATE-SINGLE-ANNOTATED-GOLD
#LibraryQualityString Gold
#TaskID b1d8e8f6646f4e71acdff9ca3d919d08
##Scan# 2035
#SpectrumFile p1-B12_GB12_01_17896.mzXML
#LibraryName NIH_Natural_Products_Library.mgf
#MQScore -1
#Organism NIH_Natural_Products_Library
#TIC_Query 0
#RT_Query -1
#MZErrorPPM -1
#SharedPeaks 0
#MassDiff 0
#LibMZ -1
#SpecMZ 496.248
#SpecCharge 0
#internalFilename spec-00000.mgf

>collision 10
95.050819 232.0
95.107101 168.0
95.386803 140.0
95.405441 204.0
95.445129 48.0
95.770119 176.0
95.812729 252.0
95.922104 132.0
96.007889 160.0
96.053658 160.0
96.08786 212.0
96.230331 208.0
96.390495 88.0
96.656425 180.0
96.683823 96.0
96.771904 108.0
96.813026 128.0
97.012871 156.0
97.06385 156.0
97.081497 136.0
97.914742 192.0
98.119667 148.0
98.289284 88.0
98.314941 132.0
98.344543 220.0
98.385994 160.0
98.582985 256.0
98.708038 160.0
98.842545 164.0
98.901917 116.0
99.046463 136.0
99.115799 176.0
99.224808 160.0
99.415222 60.0
99.760811 288.0
99.786659 200.0
99.94577 112.0
100.105011 116.0
100.180695 100.0
100.334145 128.0
100.35009 232.0
100.765221 52.0
100.825165 232.0
100.865135 156.0
101.065125 144.0
101.099136 172.0
101.283333 84.0
101.337418 172.0
101.846954 124.0
102.549149 92.0
102.579384 96.0
102.631798 188.0
102.779037 132.0
103.013229 120.0
103.083939 232.0
103.172874 184.0
103.379181 84.0
103.399414 164.0
103.628235 196.0
103.757942 180.0
103.881645 236.0
104.271484 92.0
104.625404 172.0
105.006439 200.0
105.065598 64.0
105.283997 220.0
105.414734 172.0
105.600769 156.0
105.879105 196.0
106.609421 160.0
106.646416 140.0
106.82325 216.0
106.961113 132.0
107.072296 224.0
107.29483 84.0
107.373184 140.0
107.432999 44.0
107.470139 216.0
107.490768 156.0
107.600159 184.0
108.092072 240.0
108.21833 140.0
108.6017 196.0
108.931732 92.0
108.998215 144.0
109.764214 216.0
109.954048 164.0
110.057983 436.0
110.271492 48.0
110.434578 172.0
110.650108 160.0
110.706642 172.0
110.76947 164.0
111.041946 196.0
111.737228 180.0
111.754059 156.0
111.796143 240.0
111.85112 164.0
111.884544 144.0
111.90139 140.0
112.045181 116.0
112.07608 27416.0
112.123085 96.0
112.198441 64.0
112.213196 84.0
112.312912 140.0
112.3545 156.0
112.36805 44.0
112.396393 112.0
112.424126 36.0
112.452972 60.0
112.504333 48.0
112.525444 56.0
112.542336 36.0
112.607796 76.0
112.759911 148.0
112.882523 44.0
112.966507 264.0
112.994629 208.0
113.079826 2532.0
113.127205 160.0
113.354568 104.0
113.373642 32.0
113.454185 188.0
113.68325 100.0
113.727112 168.0
113.755409 72.0
113.816284 184.0
113.853081 120.0
113.876442 84.0
113.891312 48.0
113.916794 68.0
113.95668 124.0
114.012405 92.0
114.083733 180.0
114.374374 188.0
114.657234 44.0
114.738228 164.0
114.795799 96.0
115.077454 96.0
115.100937 132.0
115.278229 80.0
115.346626 132.0
115.984489 96.0
116.074532 68.0
117.116829 132.0
117.159912 136.0
117.193199 160.0
117.478958 104.0
117.843803 176.0
117.973473 204.0
118.059959 132.0
118.085999 100.0
118.625053 164.0
118.763824 120.0
118.961288 64.0
119.064583 228.0
119.846115 140.0
120.062225 156.0
120.092758 136.0
120.330612 196.0
120.586189 128.0
120.634277 196.0
120.730476 68.0
120.813591 204.0
121.079643 268.0
121.547546 32.0
121.622162 76.0
121.718758 108.0
121.795624 200.0
121.815392 92.0
121.999985 48.0
122.103325 352.0
122.790451 208.0
122.920609 148.0
123.008888 136.0
123.02655 188.0
123.101616 192.0
123.455185 232.0
124.335419 220.0
124.565575 132.0
125.09481 72.0
125.266273 172.0
125.431168 184.0
125.736725 160.0
126.105232 44.0
126.192413 188.0
126.539192 124.0
126.693718 144.0
126.958199 184.0
127.403786 252.0
127.703819 140.0
128.070679 208.0
128.284744 140.0
129.55928 168.0
130.088882 192.0
130.9608 188.0
130.993454 132.0
131.455505 124.0
131.489746 168.0
132.099792 156.0
132.191315 224.0
133.255219 220.0
133.436783 180.0
133.62767 160.0
134.279556 96.0
135.500046 168.0
135.84082 128.0
136.567841 188.0
136.907639 136.0
136.94722 176.0
137.516113 208.0
137.73793 180.0
137.840714 132.0
137.861755 156.0
137.934204 184.0
138.058121 176.0
138.095963 172.0
138.137634 172.0
138.594162 136.0
138.779327 172.0
138.978683 220.0
139.018387 156.0
139.048782 220.0
139.088409 164.0
139.124191 108.0
139.584686 48.0
139.7164 168.0
140.020035 104.0
140.142532 196.0
140.258011 208.0
140.921967 136.0
141.077103 240.0
141.14093 244.0
141.375122 144.0
141.543182 96.0
142.021896 180.0
142.168991 196.0
142.275803 152.0
142.363647 204.0
142.442032 36.0
143.091232 96.0
143.110275 176.0
143.362778 152.0
143.551086 128.0
143.672729 56.0
143.751465 168.0
143.815903 132.0
144.08812 116.0
144.188477 244.0
144.403656 60.0
144.618988 152.0
145.155609 144.0
146.586609 180.0
146.711182 32.0
146.781097 132.0
146.901688 80.0
146.942703 160.0
147.534378 212.0
147.560974 120.0
147.889954 200.0
148.367157 152.0
148.408371 120.0
148.820831 112.0
148.925262 152.0
149.005417 188.0
149.056442 144.0
149.778992 208.0
150.0056 132.0
150.029984 232.0
150.15921 156.0
150.58876 140.0
150.982239 168.0
151.104538 188.0
151.292969 164.0
152.303253 156.0
153.144424 208.0
153.489746 224.0
153.59549 188.0
154.032379 168.0
154.094147 28.0
154.40065 84.0
154.462479 76.0
154.479797 124.0
154.534225 144.0
154.618362 200.0
154.841171 200.0
154.894897 348.0
154.950165 164.0
155.016281 37480.0
155.193039 80.0
155.210403 64.0
155.240158 140.0
155.31456 80.0
155.424805 36.0
155.455978 108.0
155.624756 44.0
155.79364 84.0
155.873138 48.0
155.947693 72.0
156.019043 4148.0
156.059799 208.0
156.076279 72.0
156.104324 64.0
156.124207 40.0
156.151566 164.0
156.198822 104.0
156.310776 84.0
156.522354 44.0
156.788895 76.0
156.916031 96.0
157.012817 1576.0
157.077835 172.0
157.091629 100.0
157.123016 84.0
157.275238 100.0
157.292709 96.0
157.477478 96.0
157.58989 104.0
157.624878 120.0
157.669846 44.0
158.016693 264.0
158.087479 132.0
158.170074 72.0
158.312775 60.0
158.350342 72.0
158.498138 52.0
158.540741 76.0
158.610916 44.0
159.095047 168.0
159.167862 84.0
159.25827 96.0
159.361267 192.0
159.677994 52.0
159.851562 76.0
160.130997 204.0
160.403122 136.0
161.764648 212.0
161.891235 192.0
162.13443 232.0
162.314407 72.0
162.398102 68.0
163.014999 76.0
163.442184 60.0
163.974411 180.0
163.994797 200.0
164.048325 88.0
164.865067 256.0
165.13829 312.0
165.701782 168.0
165.829895 128.0
166.092224 220.0
166.120972 368.0
166.648483 116.0
166.740997 52.0
167.126724 120.0
167.484558 108.0
167.649445 128.0
167.690674 184.0
168.098129 176.0
168.20137 48.0
168.380966 136.0
168.743851 196.0
169.111176 52.0
169.463364 80.0
170.360992 76.0
170.972 188.0
171.709274 172.0
172.03804 144.0
172.095474 168.0
172.887497 252.0
173.020981 124.0
174.590057 100.0
174.697891 112.0
175.166458 112.0
175.370529 160.0
177.09993 192.0
177.518661 164.0
179.145248 104.0
180.132233 128.0
180.586624 208.0
181.13501 172.0
181.22908 140.0
181.363083 120.0
181.57756 140.0
181.717056 96.0
181.937119 224.0
182.305084 176.0
182.606186 108.0
182.915604 36.0
182.969437 148.0
183.069061 164.0
183.148453 3260.0
183.183578 192.0
183.370789 144.0
183.915604 188.0
183.945297 140.0
184.04184 4860.0
184.153122 552.0
184.282867 108.0
184.320694 48.0
184.409866 100.0
184.609924 112.0
184.774918 96.0
185.048187 756.0
185.164703 132.0
185.267639 52.0
185.516953 152.0
185.682343 120.0
186.040894 148.0
187.034485 156.0
187.073502 104.0
187.114334 64.0
187.473877 140.0
187.49295 116.0
187.648315 124.0
187.836487 124.0
189.763641 48.0
189.896072 152.0
192.113083 124.0
193.128052 316.0
197.169327 116.0
198.057587 460.0
198.235535 44.0
198.294373 80.0
199.065857 184.0
199.28775 136.0
200.052704 148.0
200.788101 216.0
200.884003 68.0
200.934784 40.0
201.352539 20.0
202.061874 148.0
202.393173 140.0
203.893768 84.0
204.092758 88.0
205.44841 132.0
208.57254 112.0
208.995285 72.0
209.126343 740.0
209.588409 124.0
209.654694 68.0
209.790161 164.0
210.113144 212.0
210.131989 144.0
210.318024 160.0
210.713638 144.0
210.733871 148.0
211.095169 144.0
211.144623 860.0
211.358398 52.0
211.442307 172.0
212.13121 156.0
212.13765 136.0
213.089325 48.0
213.153244 164.0
213.889038 60.0
215.075348 208.0
215.288483 136.0
216.59581 136.0
217.314026 108.0
217.821899 176.0
217.865967 132.0
218.215698 152.0
219.254761 88.0
219.803253 236.0
221.032455 180.0
221.766891 224.0
222.125656 148.0
222.906479 92.0
224.092514 176.0
224.168167 176.0
225.104355 184.0
225.382614 92.0
226.1362 184.0
227.076447 144.0
227.137878 168.0
227.187927 184.0
228.130859 56.0
228.443604 84.0
228.594971 156.0
228.642181 112.0
228.810745 160.0
228.901077 64.0
229.040115 196.0
229.07106 136.0
229.153778 10708.0
229.222031 224.0
229.283646 72.0
229.304749 72.0
229.333878 108.0
229.37709 44.0
229.491638 40.0
229.576767 208.0
229.621307 36.0
229.66655 64.0
229.734283 44.0
229.775146 88.0
229.877731 60.0
229.959213 152.0
230.034668 64.0
230.079956 72.0
230.157639 2016.0
230.194687 112.0
230.268265 44.0
230.312469 160.0
230.345688 44.0
230.69017 136.0
230.729477 112.0
231.161865 224.0
231.287827 88.0
231.50708 92.0
231.652466 140.0
231.773651 96.0
231.797882 140.0
232.140427 96.0
232.325439 44.0
233.078369 48.0
233.09964 164.0
233.281998 40.0
235.888306 176.0
236.071747 152.0
236.154312 120.0
237.100342 168.0
237.121796 140.0
237.160263 204.0
237.235199 140.0
237.827209 84.0
238.09201 144.0
238.89653 176.0
239.136124 212.0
239.752472 152.0
239.91275 168.0
240.008331 152.0
240.037888 188.0
240.104797 17568.0
240.206772 76.0
240.316757 64.0
240.392365 112.0
240.45253 68.0
240.579086 52.0
240.640686 84.0
240.804489 116.0
241.10704 2392.0
241.243256 48.0
241.268753 84.0
241.682419 72.0
242.098907 908.0
242.224182 56.0
242.314026 48.0
242.596039 104.0
242.620834 72.0
242.775864 164.0
242.844086 92.0
242.937149 80.0
243.097488 176.0
243.266083 76.0
243.430634 48.0
244.500015 48.0
244.57782 60.0
245.652832 40.0
246.608292 136.0
247.863205 84.0
250.1754 224.0
250.625107 128.0
251.190384 144.0
251.224121 156.0
251.299835 56.0
251.681747 60.0
252.835526 88.0
253.012787 184.0
253.75412 100.0
254.153748 172.0
254.458435 52.0
254.766495 36.0
255.087448 80.0
255.134796 116.0
259.659698 60.0
261.96106 76.0
266.088928 180.0
267.117706 152.0
268.190308 172.0
269.187836 192.0
270.514618 60.0
271.29425 84.0
277.485565 188.0
278.770111 108.0
279.205597 304.0
280.201782 292.0
280.222961 236.0
290.169281 120.0
290.491455 140.0
294.070984 140.0
294.217926 84.0
295.020569 144.0
296.218658 168.0
297.207306 320.0
297.242676 184.0
297.322266 36.0
298.239258 136.0
298.308014 120.0
303.524689 132.0
305.170471 104.0
309.062927 108.0
309.087402 152.0
312.075806 156.0
315.19162 200.0
319.990479 84.0
325.212402 228.0
325.525452 68.0
325.848724 44.0
326.222473 144.0
326.341095 96.0
326.621613 32.0
326.805084 96.0
327.211761 208.0
330.619171 76.0
333.161743 244.0
336.48584 116.0
336.569824 192.0
337.194458 48.0
340.947266 136.0
341.006073 88.0
349.701385 152.0
351.128326 60.0
351.171539 1192.0
351.232758 128.0
351.460297 80.0
351.631958 96.0
351.799927 44.0
352.177399 568.0
353.088989 72.0
353.165344 136.0
356.564331 44.0
357.056824 128.0
358.208557 200.0
362.239044 152.0
364.583801 132.0
365.001953 168.0
365.161682 128.0
366.143555 192.0
366.170227 100.0
366.749329 52.0
368.264069 68.0
372.043396 136.0
373.299774 80.0
379.166931 680.0
380.169891 236.0
380.226379 132.0
381.131165 80.0
381.166138 180.0
381.473175 56.0
381.601471 72.0
391.887268 36.0
397.18158 344.0
398.19101 304.0
400.459686 140.0
400.658844 100.0
404.208282 96.0
404.240265 132.0
405.279144 72.0
407.323334 140.0
411.150299 168.0
412.153717 128.0
412.780243 132.0
413.083557 80.0
413.269653 112.0
414.646454 84.0
424.450562 60.0
425.225891 120.0
429.294556 184.0
432.226471 388.0
438.889832 124.0
439.048279 224.0
441.290588 184.0
450.239319 2048.0
450.298737 120.0
450.908386 84.0
451.243439 692.0
451.394531 124.0
452.237183 432.0
453.244293 236.0
453.863129 72.0
454.062439 60.0
466.599365 140.0
472.516418 152.0
474.300568 96.0
478.239166 152.0
480.239929 124.0
482.38382 64.0
496.193909 140.0
496.236969 388.0
497.231873 128.0
499.155396 72.0
500.338898 148.0
507.554474 96.0
517.236023 52.0
525.114624 120.0
552.437927 84.0
609.305969 80.0
643.650391 84.0
668.33667 140.0
678.900146 112.0
692.82196 132.0
701.239685 188.0
722.741882 64.0
748.277161 108.0
759.128601 108.0
763.351379 100.0
768.661438 100.0
782.134094 68.0
833.548157 112.0
841.658325 132.0
841.744934 176.0
859.769653 208.0
863.233765 88.0
865.703186 244.0
871.809937 132.0
873.703186 164.0
874.120911 172.0
875.592651 152.0
879.159241 164.0
900.997986 180.0
902.737305 136.0
906.940063 132.0
914.188904 132.0
917.182129 168.0
922.6875 132.0
924.042175 72.0
924.689636 76.0
934.130737 212.0
938.802185 76.0
939.442566 60.0
952.917114 236.0
956.693176 220.0
958.682556 92.0
968.629639 68.0
969.174805 156.0
973.268494 124.0
974.249756 192.0
974.610107 128.0
982.292419 132.0
988.671509 184.0
991.483398 160.0
1001.277527 180.0
1006.094788 264.0
1014.476807 164.0
1015.947998 80.0
1019.363831 172.0
1022.950867 244.0
1028.842773 56.0
1036.650513 176.0
1037.163208 160.0
1038.830444 144.0
1041.423584 132.0
1050.39624 168.0
1053.714355 196.0
1053.901733 180.0
1062.973267 132.0
1064.985718 132.0
1076.565186 164.0
1077.963135 104.0
1078.054688 188.0
1081.075806 120.0
1081.887451 144.0
1089.001831 128.0
1095.19104 168.0
1096.950317 188.0
1097.708496 340.0
1099.317993 76.0
1100.651367 168.0
1101.358032 152.0
1102.395264 164.0
1103.684204 116.0
1107.078857 244.0
1107.244385 120.0
1113.338989 180.0
1117.96582 180.0
1121.462158 104.0
1123.495972 192.0
1127.134644 168.0
1129.374146 160.0
1136.233521 168.0
1138.226929 116.0
1140.497559 120.0
1142.01709 180.0
1143.598267 240.0
1143.934814 148.0
1146.164062 188.0
1146.595337 132.0
1150.554688 216.0
1151.837769 196.0
1157.911377 56.0
1162.324463 176.0
1168.670654 184.0
1170.624146 192.0
1170.991943 68.0
1176.883667 116.0
1182.324829 164.0
1182.523315 172.0
1193.292969 128.0
1195.748657 204.0
1196.285522 144.0
1205.016235 172.0
1206.363892 208.0
1208.867554 164.0
1209.192749 228.0
1211.04834 228.0
1212.620972 240.0
1213.827271 148.0
1217.144043 140.0
1217.338379 208.0
1219.116821 96.0
1219.603271 168.0
1220.214966 208.0
1222.607788 76.0
1225.358154 232.0
1226.145508 96.0
1226.396484 156.0
1227.456055 152.0
1228.397583 208.0
1232.831055 116.0
1233.040771 96.0
1233.655762 148.0
1234.089233 144.0
1236.414062 224.0
1238.876221 116.0
1239.023315 212.0
1241.167969 112.0
1242.907471 96.0
1243.897095 120.0
1244.655273 104.0
1247.282715 164.0
1247.894287 36.0
1248.703003 204.0
1249.300903 160.0
1251.682739 208.0
1252.313477 184.0
1255.985718 144.0
1259.641968 88.0
1260.023438 96.0
1263.61499 212.0
1263.735229 216.0
1266.255249 208.0
1267.927246 156.0
1270.891235 176.0
1273.191162 216.0
1273.48938 92.0
1274.704224 252.0
1276.637695 68.0
1278.508667 180.0
1281.705933 132.0
1281.753296 188.0
1283.644775 204.0
1285.449463 196.0
1288.812622 144.0
1289.241333 124.0
1294.885864 160.0
1296.519287 184.0
1300.815552 152.0
1309.933472 164.0
1311.36731 120.0
1312.477417 92.0
1313.018311 112.0
1313.249023 128.0
1316.337036 184.0
1318.29541 180.0
1320.56543 204.0
1321.274292 132.0
1321.976196 132.0
1322.526123 164.0
1322.743286 212.0
1324.872314 56.0
1325.53064 172.0
1326.111328 192.0
1327.191528 212.0
1329.062866 176.0
1330.724854 124.0
1332.220947 200.0
1332.671387 196.0
1334.415649 144.0
1334.713745 132.0
1335.630127 196.0
1335.688232 164.0
1337.369019 132.0
1339.709717 268.0
1340.034302 124.0
1340.427734 164.0
1340.937866 164.0
1341.994873 80.0
1342.075073 152.0
1342.140625 192.0
1343.942261 196.0
1344.029785 52.0
1347.052246 160.0
1349.734375 200.0
1350.641235 240.0
1354.073853 132.0
1356.6604 144.0
1356.975586 176.0
1357.877563 204.0
1359.763062 156.0
1360.232788 176.0
1362.692871 140.0
1363.317505 164.0
1363.699585 264.0
1364.861084 136.0
1365.221436 192.0
1365.706787 216.0
1369.379517 188.0
1369.482544 148.0
1375.329468 152.0
1375.410645 208.0
1377.448608 180.0
1377.574219 168.0
1377.795776 92.0
1377.847534 116.0
1379.465942 124.0
1379.702515 104.0
1380.072144 60.0
1381.876831 52.0
1383.586304 180.0
1386.993896 172.0
1388.143066 184.0
1391.363159 184.0
1393.702637 140.0
1395.070068 136.0
1395.895386 196.0
1397.234131 184.0
1402.424316 168.0
1403.512695 88.0
1403.796021 200.0
1405.571289 164.0
1409.222412 180.0
1409.379395 220.0
1410.231323 216.0
1412.466919 204.0
1416.111938 120.0
1418.862061 164.0
1418.937012 156.0
1419.214355 212.0
1420.556763 160.0
1422.064941 180.0
1422.898193 224.0
1426.571777 140.0
1426.729614 148.0
1426.789795 148.0
1426.902466 172.0
1428.052979 200.0
1428.489258 108.0
1429.572632 216.0
1429.655396 220.0
1429.768311 192.0
1435.448242 64.0
1437.266113 192.0
1437.598145 84.0
1439.440063 76.0
1442.817261 96.0
1444.238892 168.0
1445.071045 152.0
1446.667847 252.0
1446.78894 192.0
1449.273071 204.0
1450.500732 156.0
1453.20813 84.0
1455.334961 212.0
1455.811646 212.0
1463.316406 200.0
1464.214966 216.0
1465.692749 160.0
1466.210938 144.0
1467.926147 140.0
1469.581299 196.0
1470.176514 116.0
1473.25354 164.0
1477.687622 192.0
1478.161987 196.0
1479.983643 28.0
1480.389526 192.0
1481.990356 44.0
1482.634033 204.0
1483.615112 216.0
1484.121094 88.0
1486.084595 208.0
1492.421143 220.0
1492.790161 200.0
1493.051636 104.0
1495.844604 40.0
1495.959961 220.0
1497.538452 64.0
1498.640015 120.0
1499.094727 148.0
1499.395264 208.0
1503.945679 212.0
