>compound Nilotinib (AMN-107)
>formula C28H22F3N7O
>ionization [M+H]+
>parentmass 530.190979
#inchi InChI=1S/C28H22F3N7O/c1-17-5-6-19(10-25(17)37-27-33-9-7-24(36-27)20-4-3-8-32-14-20)26(39)35-22-11-21(28(29,30)31)12-23(13-22)38-15-18(2)34-16-38/h3-16H,1-2H3,(H,35,39)(H,33,36,37)
#inchikey HHZIURLSWUIHRB
#Ion_Source LC-ESI
#Instrument qTof
#Compound_Source Commercial
#PI Dorrestein
#Data_Collector Garg_Neha
#Scan -1
#Precursor_MZ 530.191
#ExactMass 529.184
#Charge 1
#CAS_Number 641571-10-0
#Pubmed_ID N/A
#Smiles C1(=CC=C(C(=C1)NC2=NC=CC(=N2)C3=CN=CC=C3)C)C(=O)NC4=CC(=CC(=C4)N5C=C(N=C5)C)C(F)(F)F
#INCHI_AUX N/A
#Library_Class 1
#SpectrumID CCMSLIB00000078007
#IonMode Positive
#UpdateWorkflowName UPDATE-SINGLE-ANNOTATED-GOLD
#LibraryQualityString Gold
#TaskID 77f51c88eb8b467eb4a01dd2d0cb90d2
##Scan# 1197
#SpectrumFile Plate1_1_20_GG1_01_16488.mzXML
#LibraryName FDALibrary_2_04302014.mgf
#MQScore -1
#Organism FDALibrary_2_04302014
#TIC_Query 0
#RT_Query -1
#MZErrorPPM -1
#SharedPeaks 0
#MassDiff 0
#LibMZ -1
#SpecMZ 530.191
#SpecCharge 0
#internalFilename spec-00000.mgf

>collision 10
45.730373 184.0
46.254105 156.0
46.523796 136.0
46.59314 192.0
47.391323 152.0
47.444775 184.0
47.487286 160.0
48.306889 172.0
49.777378 156.0
50.076935 200.0
50.414131 264.0
51.468201 196.0
51.767071 144.0
52.065369 172.0
52.269508 216.0
52.472603 148.0
53.579914 156.0
54.291786 140.0
54.82251 264.0
55.231491 276.0
55.303997 160.0
56.779079 188.0
56.963707 176.0
58.817268 148.0
59.23167 152.0
59.752102 240.0
60.047871 228.0
60.494438 172.0
61.109032 156.0
61.428413 152.0
61.850334 148.0
62.182629 204.0
62.396267 180.0
62.998306 208.0
63.54134 180.0
64.844193 164.0
66.362793 148.0
67.519005 240.0
67.613899 176.0
67.64827 204.0
67.759636 256.0
67.904701 204.0
68.122208 168.0
69.002281 144.0
69.14785 152.0
69.295235 184.0
69.826447 232.0
70.024513 216.0
70.827774 204.0
71.195259 176.0
71.620789 156.0
71.681442 148.0
71.863556 172.0
74.480324 176.0
75.855652 168.0
76.770226 152.0
77.334557 176.0
77.709579 156.0
77.992325 140.0
78.032761 200.0
78.684662 164.0
78.698784 216.0
79.921844 148.0
80.631607 196.0
81.360664 140.0
82.234146 188.0
83.926353 160.0
84.311531 200.0
84.538307 140.0
85.595703 140.0
85.890587 212.0
88.499977 184.0
89.040054 144.0
92.007431 176.0
92.188896 180.0
93.137299 148.0
93.325638 228.0
93.772263 184.0
94.171722 120.0
94.372643 256.0
95.048668 200.0
96.093559 152.0
96.425537 180.0
96.767876 196.0
97.05983 140.0
97.240318 160.0
98.480766 196.0
99.308128 176.0
101.269241 140.0
101.943588 176.0
102.404312 140.0
102.64817 144.0
103.543457 240.0
105.170067 224.0
106.595528 356.0
106.887535 180.0
106.922516 180.0
107.338661 164.0
107.402596 204.0
107.594521 152.0
108.237564 176.0
109.785759 184.0
110.163559 208.0
110.261765 140.0
110.789078 144.0
112.064392 252.0
112.23513 204.0
112.767136 200.0
113.104568 356.0
114.370697 144.0
114.517616 172.0
114.673157 152.0
114.882126 140.0
114.911377 180.0
115.204491 140.0
115.249359 188.0
116.221489 256.0
116.569359 168.0
116.871284 196.0
116.896233 240.0
117.553505 168.0
117.752396 160.0
118.977768 152.0
119.173241 144.0
120.438995 204.0
121.843231 196.0
122.741264 144.0
123.105385 140.0
123.24234 204.0
123.744431 188.0
123.934921 152.0
124.469505 204.0
124.705002 148.0
125.227875 184.0
125.401672 200.0
125.664818 148.0
125.72953 144.0
126.603676 216.0
127.056473 168.0
128.399399 184.0
129.622452 168.0
130.123734 156.0
131.058578 180.0
131.136063 140.0
131.532959 184.0
131.889297 208.0
132.062225 176.0
133.717392 144.0
134.076675 140.0
134.136612 148.0
134.579575 200.0
134.898407 160.0
135.11348 148.0
135.926773 152.0
136.361053 200.0
136.889175 184.0
137.258698 208.0
138.596771 208.0
138.730362 140.0
140.388062 156.0
140.414001 140.0
141.138077 872.0
142.138626 172.0
143.687637 156.0
144.430588 140.0
144.751297 164.0
145.041199 144.0
146.196487 160.0
147.013474 196.0
147.631927 240.0
148.462601 176.0
148.928604 172.0
149.448456 196.0
149.660629 156.0
149.748291 180.0
150.116302 216.0
150.30658 160.0
152.749313 168.0
153.128372 140.0
154.439026 196.0
156.143005 240.0
157.065735 148.0
158.075226 120.0
158.134033 180.0
158.334335 184.0
159.050751 148.0
159.425674 152.0
159.938766 156.0
161.632248 144.0
161.814484 220.0
163.133743 184.0
163.271057 172.0
163.43895 188.0
163.871826 200.0
164.499207 172.0
164.97438 156.0
165.396469 184.0
166.838181 148.0
167.082504 172.0
167.15712 188.0
168.340378 196.0
169.095291 180.0
169.722229 176.0
171.075882 172.0
171.167007 160.0
171.33371 172.0
172.66954 172.0
172.811478 172.0
172.840256 156.0
173.704865 176.0
174.090698 172.0
174.140594 180.0
175.038437 164.0
175.084808 172.0
177.821198 180.0
178.565201 156.0
178.607758 172.0
179.77475 216.0
179.889526 176.0
179.913559 144.0
180.731903 200.0
181.384903 148.0
181.899948 156.0
182.06105 236.0
182.415726 140.0
182.485626 168.0
183.076431 128.0
183.929642 188.0
184.072739 192.0
185.071426 512.0
186.076477 212.0
188.65744 216.0
188.790512 200.0
189.053146 168.0
189.524155 144.0
190.28392 172.0
190.803192 160.0
191.292892 148.0
192.838852 204.0
192.992416 168.0
193.19986 144.0
194.039032 264.0
194.100037 160.0
194.247025 152.0
194.652252 204.0
194.871689 260.0
195.069016 152.0
195.233063 188.0
197.296494 196.0
198.525726 160.0
198.598648 172.0
198.912918 196.0
199.306122 172.0
201.611282 160.0
201.843094 160.0
201.956207 160.0
201.981674 224.0
202.256149 180.0
203.26796 196.0
204.3022 164.0
205.051102 148.0
206.355698 144.0
206.847778 160.0
206.933655 168.0
207.217209 164.0
208.189636 184.0
208.913986 160.0
209.371658 148.0
210.091385 168.0
210.196152 140.0
211.103226 152.0
212.444305 200.0
212.836136 140.0
214.065445 172.0
214.17395 220.0
215.972031 196.0
217.363678 228.0
219.076019 136.0
220.095398 140.0
220.721848 236.0
221.10347 184.0
221.74913 144.0
222.73085 140.0
225.064987 180.0
225.514343 156.0
225.971893 164.0
226.232269 164.0
227.359314 172.0
227.410339 244.0
227.512405 184.0
227.896851 196.0
228.083176 156.0
228.648651 148.0
228.769058 176.0
229.178665 160.0
229.36853 176.0
229.667053 228.0
229.82695 176.0
229.992935 160.0
230.116714 204.0
230.270721 160.0
230.993149 140.0
231.707626 140.0
231.750046 148.0
232.056168 208.0
232.128952 228.0
233.089401 152.0
233.745041 156.0
233.854599 180.0
233.891129 140.0
234.100861 820.0
234.509476 144.0
235.094513 356.0
235.785263 172.0
236.146042 268.0
236.874557 140.0
237.073059 168.0
237.263763 172.0
237.647156 188.0
237.889618 232.0
238.482468 176.0
240.080734 152.0
240.246964 172.0
240.481491 140.0
241.088989 152.0
241.256851 220.0
242.063858 176.0
242.086975 240.0
242.916763 156.0
243.072296 436.0
243.546906 144.0
243.767502 176.0
244.044159 232.0
244.077866 184.0
244.258743 144.0
244.470322 160.0
245.086853 552.0
245.420425 176.0
245.885239 148.0
246.091187 400.0
246.309891 184.0
246.428604 140.0
247.094574 256.0
248.212799 156.0
249.2267 152.0
249.758011 204.0
250.308777 160.0
250.450516 168.0
250.885391 184.0
251.484741 176.0
251.964752 212.0
252.220718 152.0
252.264984 232.0
252.549576 140.0
252.913467 228.0
253.081253 220.0
253.794189 148.0
255.506165 172.0
255.611176 180.0
255.913559 152.0
256.241638 180.0
256.611359 220.0
257.051544 148.0
257.121765 220.0
257.616699 164.0
258.059998 216.0
258.261993 180.0
258.43515 172.0
258.572784 156.0
259.033844 152.0
259.097198 7180.0
259.71344 148.0
259.844971 184.0
259.966888 180.0
260.052002 268.0
260.105865 18604.0
260.546661 168.0
260.647675 176.0
260.676605 256.0
260.713654 228.0
260.776245 208.0
260.800934 140.0
260.868164 156.0
261.112701 29044.0
261.693085 280.0
262.052612 220.0
262.114136 4580.0
262.229431 196.0
262.360016 156.0
262.437408 176.0
262.928802 204.0
263.125427 1372.0
263.1604 248.0
263.212433 228.0
263.29425 168.0
263.651184 144.0
263.972015 180.0
264.130981 256.0
265.595612 824.0
266.098877 192.0
266.613342 196.0
267.778107 140.0
268.069763 632.0
270.327911 160.0
271.235138 184.0
271.281036 144.0
272.078735 208.0
272.370514 168.0
272.4198 164.0
272.84375 152.0
273.099365 176.0
273.20224 172.0
273.997437 120.0
275.1698 168.0
275.579376 172.0
276.725677 128.0
278.074646 324.0
279.082916 156.0
279.425507 148.0
281.208374 152.0
281.695892 156.0
283.150909 176.0
284.062653 156.0
284.139801 220.0
284.418335 160.0
284.670166 168.0
285.069916 140.0
286.095825 140.0
286.516785 336.0
287.920044 164.0
288.110443 348.0
288.633118 180.0
288.771759 188.0
288.952667 136.0
288.985748 140.0
289.030304 164.0
289.10849 75488.0
289.194366 244.0
289.376129 156.0
289.412231 172.0
289.434235 208.0
289.519104 196.0
289.681732 204.0
289.931671 116.0
290.008118 112.0
290.110596 17092.0
290.221191 148.0
290.257782 208.0
290.2836 140.0
290.418671 212.0
290.808105 140.0
291.016693 136.0
291.11145 1584.0
291.346863 116.0
291.746552 168.0
291.996063 188.0
292.083496 216.0
292.12207 164.0
292.667908 164.0
294.110687 204.0
296.526031 224.0
297.082703 96.0
299.55188 180.0
300.772614 160.0
302.715698 160.0
306.589264 144.0
306.665924 160.0
306.791412 180.0
307.000641 144.0
307.063171 228.0
307.118317 11876.0
307.237793 308.0
307.841675 144.0
308.121704 3124.0
308.177795 200.0
309.125092 364.0
309.173645 164.0
309.457184 180.0
310.133331 144.0
310.55899 152.0
311.009369 160.0
311.083954 192.0
314.293823 144.0
318.096954 180.0
318.173065 176.0
319.100647 160.0
322.083282 168.0
325.332733 220.0
326.218628 144.0
330.098267 148.0
330.575775 160.0
331.952362 164.0
333.455383 224.0
334.124481 192.0
334.477478 152.0
336.515442 148.0
337.088104 124.0
337.425201 172.0
337.54953 156.0
337.714111 140.0
338.109344 308.0
340.679688 192.0
341.113312 148.0
342.437988 184.0
343.234039 192.0
345.209686 156.0
350.112152 148.0
352.103729 176.0
353.06424 200.0
354.430634 156.0
355.25174 176.0
358.119873 224.0
359.126282 152.0
359.179077 188.0
359.896149 176.0
361.862335 172.0
362.722321 172.0
363.389771 144.0
363.515015 188.0
364.137634 144.0
366.907928 164.0
369.983429 188.0
370.091675 148.0
370.163391 168.0
371.021667 248.0
372.284088 216.0
372.4646 152.0
372.683594 204.0
373.317871 156.0
373.983459 140.0
374.823059 140.0
378.810364 168.0
381.88858 144.0
382.994019 264.0
383.321289 140.0
386.452972 140.0
388.572693 148.0
388.702179 160.0
389.581665 188.0
390.025726 140.0
390.253754 172.0
390.477905 220.0
391.772949 164.0
395.081299 244.0
395.215851 180.0
395.738312 184.0
396.015533 160.0
397.113464 172.0
397.299896 144.0
399.266144 156.0
400.138245 172.0
402.621887 148.0
407.870758 220.0
408.04361 232.0
408.51416 140.0
411.936737 152.0
412.154907 144.0
413.161682 144.0
413.347809 152.0
417.449097 148.0
418.828827 160.0
419.403381 184.0
419.709137 148.0
422.760681 144.0
422.883453 180.0
423.722961 216.0
423.854065 140.0
424.313141 160.0
426.151917 192.0
426.887695 168.0
427.595337 184.0
428.064667 140.0
428.121368 384.0
428.427124 160.0
431.0513 188.0
432.999847 216.0
434.878082 216.0
437.347107 160.0
437.996674 184.0
440.520874 124.0
440.63327 144.0
440.688141 180.0
441.289032 264.0
442.163757 180.0
443.17627 220.0
443.449585 140.0
443.701111 148.0
446.905823 156.0
450.257172 204.0
450.506409 172.0
451.664703 152.0
453.269287 144.0
454.117218 148.0
454.541443 140.0
454.762146 172.0
455.150116 176.0
455.224915 140.0
457.657257 224.0
458.807648 168.0
459.50708 176.0
460.518829 184.0
461.44397 224.0
462.515686 140.0
463.19458 104.0
464.024719 216.0
464.671326 148.0
465.315125 196.0
470.168945 556.0
470.462708 108.0
471.171051 288.0
471.920319 148.0
472.170166 144.0
472.919647 172.0
473.413208 316.0
474.314423 244.0
475.155426 148.0
477.001465 188.0
477.297119 140.0
481.223083 152.0
482.136047 148.0
482.258423 176.0
482.367706 148.0
483.17923 164.0
483.457886 196.0
483.955841 148.0
484.393799 168.0
485.30542 148.0
486.090607 180.0
486.162048 172.0
489.083618 156.0
489.294922 196.0
490.175049 396.0
491.15802 156.0
491.190979 196.0
492.399353 180.0
493.009033 184.0
494.893494 160.0
495.186829 120.0
495.230072 144.0
495.278809 140.0
495.358521 160.0
495.549042 152.0
496.998962 156.0
497.225281 172.0
497.358459 160.0
497.678101 180.0
497.97995 124.0
498.486542 168.0
498.788788 144.0
500.39035 212.0
502.650238 160.0
504.056885 180.0
504.575378 144.0
509.206146 136.0
510.180878 1244.0
510.975586 164.0
511.18042 264.0
511.376099 180.0
512.10553 140.0
512.174561 696.0
512.97522 172.0
513.179749 592.0
515.154846 140.0
515.66095 152.0
516.859436 148.0
517.388977 168.0
518.458008 140.0
518.521423 188.0
518.648315 196.0
518.702759 140.0
519.541687 156.0
520.436462 116.0
520.803711 156.0
521.012634 156.0
521.080811 144.0
521.45343 144.0
521.653442 188.0
522.303711 188.0
524.740173 176.0
525.337646 140.0
525.743713 172.0
526.226624 200.0
526.314331 160.0
526.789368 168.0
527.878052 160.0
527.984253 116.0
528.303955 116.0
528.372803 180.0
528.407776 208.0
528.444336 164.0
528.48938 144.0
528.523132 132.0
528.693665 176.0
528.762085 148.0
528.892883 160.0
528.93219 288.0
529.077087 248.0
529.158386 156.0
529.215759 112.0
529.240234 144.0
529.382385 108.0
529.394836 100.0
529.410645 172.0
529.479187 444.0
529.535339 204.0
529.61261 120.0
529.664429 120.0
529.733521 336.0
529.77655 132.0
529.810181 240.0
529.86377 180.0
529.944092 384.0
529.990845 352.0
530.063782 256.0
530.190979 141480.0
530.379944 132.0
530.503784 136.0
530.537781 260.0
530.61908 128.0
530.658813 144.0
530.728455 284.0
530.943726 284.0
530.991211 344.0
531.119934 168.0
531.193481 42784.0
531.374512 228.0
531.612793 252.0
531.722656 100.0
531.837891 116.0
531.987122 132.0
532.058777 192.0
532.19519 6436.0
532.433899 104.0
532.628967 144.0
532.983032 100.0
533.092346 196.0
533.196594 936.0
533.280273 216.0
533.348633 276.0
533.600769 256.0
533.754272 208.0
533.852051 236.0
533.971741 116.0
534.04364 256.0
534.158447 212.0
534.187866 208.0
534.296997 144.0
534.400391 228.0
534.454651 132.0
534.510254 116.0
534.56189 220.0
534.720581 140.0
534.834656 108.0
535.039795 144.0
535.115967 132.0
535.893188 100.0
536.106995 128.0
536.219055 144.0
545.936951 144.0
551.16272 140.0
575.292786 100.0
578.397034 144.0
596.846741 180.0
658.778076 144.0
785.399292 204.0
803.452026 176.0
1233.714355 200.0
1362.334229 184.0
1531.188965 160.0
1549.750244 144.0
1789.516602 148.0
1945.142944 172.0
