>compound MLS001048901-01!5-(1-methylpiperidin-2-yl)-2-pyridin-3-ylpyridine
>formula C16H19N3
>ionization [M+H]+
>parentmass 254.164062
#inchi InChI=1S/C16H19N3/c1-19-10-3-2-6-16(19)14-7-8-15(18-12-14)13-5-4-9-17-11-13/h4-5,7-9,11-12,16H,2-3,6,10H2,1H3
#inchikey TZRDBHMKTWECOV
#origInchi InChI=1S/C16H19N3.ClH/c1-19-10-3-2-6-16(19)14-7-8-15(18-12-14)13-5-4-9-17-11-13;/h4-5,7-9,11-12,16H,2-3,6,10H2,1H3;1H
#Ion_Source LC-ESI
#Instrument qTof
#Compound_Source NIH Natural Product Library
#PI Dorrestein
#Data_Collector VVP/LMS
#Scan -1
#Precursor_MZ 254.166
#ExactMass 253.158
#Charge 1
#CAS_Number N/A
#Pubmed_ID N/A
#Smiles CN1CCCCC1c2ccc(nc2)c3cccnc3.Cl
#INCHI_AUX N/A
#Library_Class 1
#SpectrumID CCMSLIB00000080486
#IonMode Positive
#UpdateWorkflowName UPDATE-SINGLE-ANNOTATED-GOLD
#LibraryQualityString Gold
#TaskID b1d8e8f6646f4e71acdff9ca3d919d08
##Scan# 1122
#SpectrumFile p2-F09_GF9_01_18045.mzXML
#LibraryName NIH_Natural_Products_Library.mgf
#MQScore -1
#Organism NIH_Natural_Products_Library
#TIC_Query 0
#RT_Query -1
#MZErrorPPM -1
#SharedPeaks 0
#MassDiff 0
#LibMZ -1
#SpecMZ 254.166
#SpecCharge 0
#internalFilename spec-00000.mgf

>collision 10
95.791397 196.0
95.923904 144.0
96.441177 196.0
96.468544 128.0
96.501778 48.0
96.812912 212.0
96.93045 124.0
97.301155 172.0
97.566383 160.0
97.719788 148.0
98.096016 324.0
98.19651 32.0
98.415558 136.0
98.709976 172.0
98.842514 52.0
99.099922 144.0
99.48468 204.0
99.812508 156.0
99.856255 40.0
100.384018 192.0
100.741287 128.0
100.933159 152.0
101.023155 104.0
101.662323 144.0
102.04599 348.0
103.052597 284.0
103.187157 128.0
103.63649 200.0
103.991379 188.0
104.247269 144.0
104.405838 192.0
104.534004 160.0
104.711121 172.0
105.051521 240.0
105.492622 96.0
105.664413 188.0
105.8302 152.0
106.061691 176.0
106.262665 104.0
106.763878 44.0
106.815292 200.0
106.934639 172.0
107.159096 196.0
108.604126 156.0
108.786728 52.0
108.840714 44.0
109.510353 124.0
111.216545 176.0
111.43705 220.0
113.026886 136.0
113.433525 196.0
114.270935 204.0
114.568329 192.0
114.679138 184.0
114.924385 112.0
114.988403 164.0
115.051155 596.0
115.2062 176.0
115.736618 52.0
115.828705 156.0
116.050697 388.0
116.478668 184.0
117.057129 1256.0
117.136902 156.0
117.320076 72.0
117.887741 176.0
117.907196 196.0
117.961227 140.0
118.056183 656.0
118.153702 180.0
118.461113 208.0
118.667 180.0
118.703857 136.0
118.792786 52.0
119.738312 148.0
119.775337 140.0
120.08049 408.0
120.200478 168.0
120.604507 28.0
120.915092 152.0
120.930412 172.0
121.153763 120.0
121.504539 172.0
122.02726 60.0
122.110817 144.0
122.264824 120.0
122.908302 144.0
124.282394 68.0
124.85775 176.0
124.9356 100.0
125.04686 140.0
125.450035 116.0
126.043716 176.0
126.061592 128.0
126.095116 176.0
126.222542 192.0
126.372406 184.0
126.578339 116.0
127.307144 140.0
127.878197 208.0
128.049301 132.0
129.177902 180.0
129.39064 184.0
129.523727 244.0
130.065643 1484.0
130.870972 184.0
131.069916 396.0
131.340439 164.0
132.000473 92.0
132.072128 196.0
132.423859 176.0
132.46846 144.0
132.614029 60.0
132.701141 196.0
133.079727 196.0
133.764832 64.0
133.863831 156.0
134.055038 160.0
134.096512 200.0
134.682571 112.0
134.865112 88.0
134.999207 236.0
135.09404 120.0
135.272232 176.0
135.418106 184.0
137.074554 156.0
137.244705 212.0
137.314667 164.0
138.846573 192.0
139.049881 176.0
139.142242 168.0
139.379471 52.0
139.689804 156.0
140.146545 172.0
140.509644 128.0
140.861389 40.0
141.058884 440.0
141.499924 140.0
141.909805 188.0
142.064133 3004.0
142.097916 204.0
142.130386 144.0
142.441406 40.0
142.728973 156.0
142.795563 204.0
143.068481 848.0
143.395554 176.0
143.629211 192.0
143.657837 80.0
143.727036 208.0
144.080704 908.0
144.510757 228.0
144.534683 212.0
145.02562 116.0
145.051987 84.0
145.087265 56.0
145.287003 176.0
145.726364 128.0
145.875366 92.0
146.903641 236.0
147.376846 228.0
147.517014 32.0
147.964996 208.0
148.504959 136.0
148.648102 140.0
149.274841 228.0
149.666168 180.0
149.92482 232.0
150.116989 188.0
150.566452 236.0
150.593307 88.0
151.047958 176.0
151.304901 152.0
151.552277 100.0
151.701782 148.0
152.025543 176.0
152.280869 140.0
152.77742 120.0
152.814316 196.0
153.95314 132.0
153.980301 156.0
154.064453 436.0
154.106293 240.0
154.538986 136.0
154.595901 84.0
155.056915 344.0
155.073212 452.0
155.101151 128.0
155.321838 160.0
155.728912 68.0
155.907791 80.0
156.069504 424.0
156.315628 176.0
156.355453 164.0
156.442566 244.0
156.888489 48.0
157.076004 2992.0
157.132904 232.0
157.237717 180.0
157.310089 52.0
157.429947 68.0
157.547333 56.0
157.994843 32.0
158.075684 872.0
158.748764 116.0
159.055908 152.0
159.086319 160.0
159.180389 132.0
159.401443 116.0
159.499466 128.0
159.939651 124.0
161.456024 168.0
161.579971 112.0
161.952087 136.0
162.360153 132.0
163.612854 180.0
165.072327 152.0
165.335815 132.0
165.494522 172.0
165.989059 224.0
166.058151 128.0
166.450958 60.0
166.471497 116.0
167.073135 1072.0
167.142426 92.0
167.585312 76.0
167.742508 80.0
167.946213 176.0
168.021027 40.0
168.077805 1232.0
168.565842 168.0
168.630447 160.0
168.700241 196.0
169.028702 52.0
169.075882 5164.0
169.152939 44.0
169.282394 160.0
169.479263 128.0
169.577744 140.0
169.598465 76.0
169.811646 56.0
169.834427 84.0
169.927353 156.0
170.047455 156.0
170.084213 3204.0
170.164001 108.0
170.210739 180.0
170.244492 44.0
170.295761 124.0
170.326828 76.0
170.351212 96.0
170.405548 56.0
170.482956 116.0
170.504959 124.0
170.626465 180.0
170.769485 160.0
170.821503 108.0
170.881348 200.0
170.959412 52.0
171.091187 5836.0
171.126938 100.0
171.185883 48.0
171.224945 108.0
171.503738 104.0
171.530975 64.0
171.709717 80.0
171.806229 176.0
172.094193 784.0
172.124649 144.0
172.148148 92.0
172.297043 64.0
172.383255 128.0
172.935089 132.0
174.191086 212.0
174.269897 204.0
175.006363 64.0
175.915939 160.0
176.663803 68.0
177.198593 124.0
177.548492 220.0
177.612152 156.0
177.864227 124.0
177.904053 224.0
178.06514 352.0
178.257294 148.0
178.469955 92.0
179.068985 160.0
179.417786 116.0
180.083328 912.0
180.119629 52.0
180.488449 36.0
180.555298 152.0
181.075912 344.0
181.197723 248.0
181.452347 124.0
181.715179 68.0
182.069504 140.0
182.090073 176.0
182.488708 180.0
182.569382 164.0
182.830338 80.0
183.054855 120.0
183.091721 3192.0
183.174973 56.0
183.193832 84.0
183.215378 32.0
183.293518 84.0
183.495667 48.0
184.000183 48.0
184.095306 864.0
184.200027 68.0
184.724457 180.0
184.816437 120.0
184.986938 40.0
185.10997 148.0
185.488083 212.0
186.81871 64.0
187.404068 176.0
187.987595 188.0
188.055206 676.0
189.058075 212.0
189.625763 156.0
189.680588 192.0
191.067413 184.0
191.196732 256.0
191.604263 116.0
191.857819 156.0
192.059784 180.0
192.077713 172.0
192.246735 56.0
192.456512 204.0
192.998093 196.0
193.075546 1440.0
193.504425 168.0
193.86174 128.0
193.897766 184.0
193.989243 104.0
194.083344 2496.0
194.502426 48.0
194.980164 196.0
195.005173 52.0
195.090744 5748.0
195.180313 68.0
195.277649 48.0
195.35553 72.0
195.383347 232.0
195.461258 68.0
195.759109 60.0
195.800888 132.0
196.096741 632.0
196.210495 72.0
196.369446 64.0
196.74057 32.0
196.857834 88.0
196.927658 96.0
196.955597 100.0
197.106857 1392.0
197.296509 80.0
197.44191 96.0
197.531418 72.0
198.106995 236.0
198.220169 100.0
198.466827 144.0
199.053284 60.0
199.952896 28.0
200.829132 52.0
203.188385 208.0
203.722107 132.0
203.884079 100.0
204.085907 196.0
204.717621 48.0
205.478668 64.0
205.99826 208.0
206.078247 208.0
207.09169 3064.0
207.259964 44.0
207.328735 36.0
207.87648 72.0
207.951096 96.0
208.096222 1200.0
208.223846 208.0
208.430695 60.0
209.046066 64.0
209.106552 1864.0
209.495224 80.0
209.691162 56.0
209.774765 88.0
209.820892 72.0
209.881439 56.0
210.104401 616.0
210.496063 60.0
211.126312 732.0
212.126144 592.0
212.71962 92.0
213.132034 152.0
216.943756 112.0
218.874069 172.0
218.947693 160.0
219.012482 84.0
219.719986 44.0
220.102081 136.0
221.108521 1032.0
221.144302 68.0
221.74852 60.0
222.11055 160.0
223.123718 2644.0
223.652405 92.0
223.810196 120.0
223.976974 120.0
224.125778 344.0
224.573105 68.0
224.593979 36.0
224.72525 48.0
225.118912 168.0
225.513626 88.0
226.142746 212.0
227.154526 128.0
234.950836 140.0
235.961548 220.0
236.025757 132.0
236.947052 120.0
238.131378 144.0
239.148605 164.0
243.073776 192.0
245.151062 232.0
251.375977 116.0
251.603226 160.0
252.304581 112.0
254.164062 2892.0
254.271667 156.0
254.433563 132.0
254.575012 68.0
255.166962 648.0
256.157196 120.0
256.189056 32.0
256.692627 56.0
257.03714 120.0
257.110535 88.0
295.323425 112.0
301.311768 72.0
312.81012 56.0
314.055084 64.0
326.247101 72.0
327.776764 88.0
333.458527 80.0
335.205353 40.0
338.980194 68.0
356.895569 96.0
385.450592 100.0
413.858795 88.0
435.272797 72.0
436.698242 108.0
445.652771 52.0
467.644348 68.0
484.594055 48.0
509.930145 96.0
512.184326 52.0
533.104858 96.0
548.121399 76.0
566.487549 92.0
572.324463 68.0
589.111023 68.0
618.467224 112.0
688.168274 20.0
695.675781 112.0
732.649475 152.0
738.019592 84.0
833.478027 216.0
954.332153 204.0
1037.660034 176.0
1061.342407 212.0
1106.044067 140.0
1121.300537 172.0
1122.187134 56.0
1145.091675 148.0
1147.73999 172.0
1150.175415 128.0
1155.89978 120.0
1171.079712 160.0
1188.889526 216.0
1194.02832 164.0
1207.096558 132.0
1213.293335 124.0
1223.798096 108.0
1225.288574 96.0
1232.992065 152.0
1236.845825 108.0
1247.845581 148.0
1249.674316 76.0
1253.617432 136.0
1256.197998 168.0
1260.759033 200.0
1269.72168 144.0
1274.371216 240.0
1274.627075 140.0
1292.424683 96.0
1295.453003 140.0
1314.491577 140.0
1317.415649 112.0
1320.957764 104.0
1323.664551 208.0
1332.905884 168.0
1344.112183 156.0
1345.075562 160.0
1355.585327 140.0
1364.047485 176.0
1365.42981 184.0
1366.185791 176.0
1372.602417 148.0
1380.348389 104.0
1381.753784 204.0
1407.253906 104.0
1411.340942 168.0
1414.722534 72.0
1415.574829 124.0
1425.094727 64.0
1442.934448 188.0
1451.755615 240.0
1456.521851 184.0
1458.033813 216.0
1458.702759 144.0
1466.146484 136.0
1466.542725 128.0
1471.852417 172.0
1472.784058 172.0
1481.397217 208.0
1484.715942 184.0
1485.053467 136.0
1489.674316 148.0
1494.710083 44.0
1496.934692 208.0
1499.862305 104.0
1502.507324 68.0
