>compound Linagliptin (BI-1356)
>formula C25H28N8O2
>ionization [M+H]+
>parentmass 473.24173
#inchi InChI=1S/C25H28N8O2/c1-4-5-13-32-21-22(29-24(32)31-12-8-9-17(26)14-31)30(3)25(35)33(23(21)34)15-20-27-16(2)18-10-6-7-11-19(18)28-20/h6-7,10-11,17H,8-9,12-15,26H2,1-3H3/t17-/m1/s1
#inchikey LTXREWYXXSTFRX
#Ion_Source LC-ESI
#Instrument qTof
#Compound_Source Commercial
#PI Dorrestein
#Data_Collector Garg_Neha
#Scan -1
#Precursor_MZ 473.241
#ExactMass 472.234
#Charge 1
#CAS_Number 668270-12-0
#Pubmed_ID N/A
#Smiles C1=CC=C2C(=C1)N=C(N=C2C)CN3C(N(C4=C(C3=O)N(C(=N4)N5C[C@@H](CCC5)N)CC#CC)C)=O
#INCHI_AUX N/A
#Library_Class 1
#SpectrumID CCMSLIB00000078546
#IonMode Positive
#UpdateWorkflowName UPDATE-SINGLE-ANNOTATED-GOLD
#LibraryQualityString Gold
#TaskID 77f51c88eb8b467eb4a01dd2d0cb90d2
##Scan# 1085
#SpectrumFile Plate9_1_20_GC4_01_15750.mzXML
#LibraryName FDALibrary_2_04302014.mgf
#MQScore -1
#Organism FDALibrary_2_04302014
#TIC_Query 0
#RT_Query -1
#MZErrorPPM -1
#SharedPeaks 0
#MassDiff 0
#LibMZ -1
#SpecMZ 473.241
#SpecCharge 0
#internalFilename spec-00000.mgf

>collision 10
47.809334 184.0
51.163563 180.0
52.861607 156.0
56.279617 212.0
63.495506 152.0
67.376846 208.0
77.619843 168.0
77.811096 144.0
78.14679 164.0
94.060715 180.0
96.436287 156.0
97.243233 188.0
102.455467 140.0
104.797577 144.0
105.520088 220.0
109.144936 180.0
109.19693 176.0
110.072197 188.0
111.08728 196.0
113.328369 156.0
116.0438 168.0
117.060143 168.0
117.648758 200.0
118.050644 180.0
121.073448 152.0
123.070137 160.0
125.08316 180.0
126.42231 152.0
133.04129 152.0
137.081314 180.0
138.10231 228.0
139.03009 156.0
139.068604 108.0
140.977661 140.0
142.114258 152.0
145.08017 176.0
147.061569 188.0
148.078796 140.0
149.071198 468.0
150.075272 156.0
151.060547 144.0
152.066681 204.0
153.076889 312.0
153.112518 136.0
154.081909 156.0
157.077621 296.0
158.082901 1380.0
159.08786 156.0
159.539948 152.0
161.097336 232.0
162.058716 176.0
162.63945 140.0
163.776031 212.0
164.10141 204.0
164.632965 164.0
165.077362 328.0
165.133881 164.0
166.122604 172.0
166.220093 156.0
167.067963 280.0
167.088791 208.0
169.039185 164.0
171.077988 144.0
171.579422 240.0
172.082962 196.0
174.11293 180.0
175.091324 148.0
176.061188 176.0
176.106873 188.0
177.113922 816.0
178.121796 340.0
179.06041 180.0
179.090012 244.0
179.124939 144.0
180.469696 228.0
180.729141 148.0
181.656113 184.0
182.069458 148.0
182.24675 204.0
184.091919 144.0
185.124924 160.0
188.081604 168.0
191.091919 520.0
191.830048 172.0
192.133408 172.0
194.065018 200.0
194.098724 196.0
194.139847 288.0
195.145111 380.0
196.824066 140.0
197.685028 180.0
198.068481 96.0
199.072357 276.0
199.392914 156.0
200.082687 596.0
200.113037 256.0
200.938828 144.0
201.089798 112.0
201.113602 188.0
202.836395 196.0
204.100845 528.0
205.107391 2308.0
206.069275 200.0
206.104462 384.0
208.083191 672.0
212.797516 188.0
214.10112 224.0
214.135162 180.0
217.07515 144.0
218.087997 152.0
219.598434 220.0
220.081329 116.0
220.120789 356.0
220.141464 156.0
221.078873 156.0
221.122299 184.0
222.134247 568.0
225.2052 144.0
227.08847 168.0
228.104248 196.0
228.61702 168.0
229.070068 152.0
229.106964 268.0
229.141907 252.0
232.084808 152.0
232.114746 156.0
234.095566 288.0
236.114578 360.0
236.661362 152.0
241.1064 144.0
245.101196 180.0
246.100922 1580.0
247.098099 580.0
247.1642 152.0
247.308151 144.0
248.665283 176.0
252.10437 164.0
253.082321 172.0
253.107147 172.0
256.697876 144.0
257.029602 164.0
257.139465 404.0
260.12088 136.0
260.233612 172.0
261.809235 144.0
261.967041 192.0
262.289307 176.0
262.527863 164.0
263.124817 2380.0
263.580231 160.0
263.867889 164.0
264.128754 420.0
264.165405 168.0
264.317474 152.0
270.105316 176.0
271.100616 156.0
272.114166 204.0
273.096741 160.0
273.85376 144.0
275.159576 144.0
276.081482 140.0
277.140747 152.0
279.138977 144.0
281.144379 156.0
284.117188 288.0
285.116241 148.0
286.903564 184.0
289.979584 140.0
290.128723 180.0
293.146027 132.0
297.137238 140.0
298.129486 136.0
302.631134 148.0
305.083984 164.0
305.13266 148.0
306.138245 140.0
308.93399 168.0
311.155884 176.0
311.721375 148.0
317.113892 204.0
320.153473 172.0
321.134003 128.0
322.120026 308.0
322.248901 156.0
323.125244 412.0
324.126404 296.0
326.022095 160.0
326.730438 156.0
331.123383 144.0
332.138 116.0
333.185455 100.0
334.134583 176.0
334.205353 164.0
335.124634 460.0
336.133606 1800.0
336.187653 188.0
337.129852 2004.0
337.202911 152.0
338.132294 704.0
338.182953 172.0
339.109772 148.0
339.137177 224.0
342.969055 168.0
343.090698 144.0
345.136108 152.0
348.146545 640.0
349.140656 584.0
350.136871 5588.0
350.213379 120.0
350.889618 144.0
351.057861 172.0
351.142151 6620.0
351.223846 108.0
352.143463 1324.0
353.155518 468.0
354.089752 172.0
354.168396 164.0
355.728302 196.0
360.163422 204.0
362.13681 316.0
363.146057 1380.0
363.484314 156.0
363.748199 112.0
364.15152 10748.0
364.617371 108.0
365.154633 3588.0
365.28775 164.0
365.323181 168.0
365.702698 240.0
366.15918 396.0
367.090454 152.0
368.01767 148.0
368.646881 132.0
370.381073 148.0
373.146545 300.0
374.13916 744.0
375.142822 1932.0
375.284149 164.0
376.150208 1668.0
377.157684 652.0
378.16449 276.0
379.172241 180.0
379.576782 156.0
380.162506 148.0
382.129883 116.0
382.163666 148.0
383.145813 276.0
385.147949 204.0
385.310028 144.0
386.151367 208.0
387.151093 380.0
388.157837 388.0
390.167358 856.0
391.166565 224.0
392.19342 240.0
393.186249 744.0
393.301453 140.0
394.194763 624.0
397.156158 288.0
398.15155 152.0
399.196167 128.0
402.163513 1416.0
402.987061 132.0
403.174438 5644.0
403.307098 152.0
404.110901 148.0
404.180908 4764.0
405.184021 1472.0
406.190582 160.0
407.165436 160.0
412.168701 176.0
415.902649 144.0
416.771698 152.0
417.235046 288.0
419.190796 696.0
419.657501 160.0
420.201538 8252.0
421.068207 136.0
421.201691 1640.0
422.202393 292.0
423.182678 228.0
432.545258 160.0
433.207825 144.0
435.119629 152.0
435.167358 140.0
436.029327 168.0
441.18103 140.0
443.186005 176.0
444.767029 172.0
448.814148 152.0
454.112976 148.0
456.215729 584.0
457.230072 132.0
461.51001 140.0
463.53894 148.0
466.152252 216.0
466.938965 140.0
470.226227 156.0
470.485229 140.0
471.844116 144.0
472.204987 336.0
472.466644 172.0
472.602966 148.0
472.744141 216.0
472.807159 128.0
472.908569 136.0
473.051117 236.0
473.182251 332.0
473.24173 60500.0
473.370636 104.0
473.459747 152.0
473.582825 220.0
473.614746 196.0
473.938354 244.0
474.031311 144.0
474.169739 288.0
474.243164 16656.0
474.49118 196.0
474.601501 164.0
474.68985 200.0
474.726929 120.0
474.888763 168.0
475.184113 128.0
475.245697 2212.0
475.315186 144.0
475.69873 112.0
476.241791 196.0
476.507294 120.0
476.665588 120.0
476.816742 140.0
477.062561 132.0
477.146942 100.0
477.264923 212.0
477.322052 156.0
478.178162 140.0
478.340332 164.0
478.704285 120.0
487.230865 144.0
1239.94751 172.0
1584.938721 160.0
1675.357788 160.0
1816.779175 164.0
