>compound Sibutramine hydrochloride
>formula C17H26ClN
>ionization [M+H]+
>parentmass 280.184479
#inchi InChI=1S/C17H26ClN/c1-13(2)12-16(19(3)4)17(10-5-11-17)14-6-8-15(18)9-7-14/h6-9,13,16H,5,10-12H2,1-4H3
#inchikey UNAANXDKBXWMLN
#Ion_Source LC-ESI
#Instrument qTof
#Compound_Source Commercial
#PI Dorrestein
#Data_Collector Garg_Neha
#Scan -1
#Precursor_MZ 280.183
#ExactMass 279.175
#Charge 1
#CAS_Number N/A
#Pubmed_ID N/A
#Smiles CC(C)CC(N(C)C)C1(CCC1)c2ccc(Cl)cc2
#INCHI_AUX N/A
#Library_Class 1
#SpectrumID CCMSLIB00000079232
#IonMode Positive
#UpdateWorkflowName UPDATE-SINGLE-ANNOTATED-GOLD
#LibraryQualityString Gold
#TaskID 278b19f5865741e282cec7349aa7e7a1
##Scan# 1251
#SpectrumFile NCP003672_A27B27C27D27_BE4_01_15740.mzXML
#LibraryName NIHcollectionI_05062014.mgf
#MQScore -1
#Organism NIHcollectionI_05062014
#TIC_Query 0
#RT_Query -1
#MZErrorPPM -1
#SharedPeaks 0
#MassDiff 0
#LibMZ -1
#SpecMZ 280.183
#SpecCharge 0
#internalFilename spec-00000.mgf

>collision 10
45.033112 160.0
45.091896 196.0
45.192192 152.0
45.520596 184.0
45.559849 152.0
45.648254 288.0
45.664394 188.0
45.798988 168.0
45.848839 196.0
45.924339 160.0
45.966164 140.0
46.032879 180.0
46.496868 176.0
46.526512 152.0
46.915596 260.0
46.926506 208.0
47.274822 164.0
47.395325 140.0
47.698627 144.0
47.777012 188.0
47.787323 160.0
48.034618 160.0
48.182606 180.0
48.330269 188.0
48.34549 192.0
48.542202 152.0
48.590748 188.0
48.73521 172.0
48.922901 140.0
49.067791 148.0
49.236629 148.0
49.349819 208.0
49.418354 160.0
49.57238 176.0
49.603214 148.0
49.632656 160.0
49.742088 140.0
49.930367 164.0
50.028862 144.0
50.065472 164.0
50.142956 184.0
50.188023 136.0
50.36306 140.0
50.401146 192.0
50.416748 208.0
50.493092 176.0
50.993568 156.0
51.016312 180.0
51.147182 164.0
51.245445 152.0
51.282497 188.0
51.729584 224.0
51.890038 152.0
52.073715 140.0
52.083771 248.0
52.101009 328.0
52.123997 140.0
52.190117 224.0
52.200184 148.0
52.230385 148.0
52.370003 140.0
52.597824 336.0
52.810226 152.0
52.982487 252.0
53.319122 144.0
53.33802 152.0
53.441273 188.0
53.667034 172.0
53.748718 192.0
53.776443 232.0
53.789722 164.0
53.960506 280.0
54.074604 160.0
54.105343 160.0
54.141949 140.0
54.166851 148.0
54.291058 204.0
54.395603 148.0
54.419094 184.0
54.513103 160.0
54.595425 148.0
54.617485 164.0
54.722649 244.0
54.738167 148.0
54.779797 196.0
55.052475 172.0
55.173428 144.0
55.219269 144.0
55.407913 172.0
55.835979 180.0
55.881893 236.0
55.947842 148.0
56.092342 148.0
56.172863 180.0
56.221386 152.0
56.26091 144.0
56.283306 152.0
56.744144 144.0
56.871811 152.0
56.889668 144.0
56.991795 156.0
57.253536 164.0
57.395187 220.0
57.450211 124.0
57.473621 160.0
57.558151 232.0
57.654831 152.0
57.683548 200.0
57.922634 192.0
57.960506 204.0
58.429379 188.0
58.45097 208.0
58.520988 252.0
58.557533 192.0
58.718132 196.0
58.749596 200.0
58.845745 224.0
59.129623 152.0
59.307735 156.0
59.459576 216.0
59.481064 188.0
59.603928 164.0
59.871445 164.0
59.977905 172.0
59.994862 312.0
60.087395 144.0
60.107452 160.0
60.173824 172.0
60.226601 316.0
60.294308 132.0
60.627041 196.0
60.706104 172.0
60.720062 168.0
60.833332 244.0
60.853512 196.0
60.923401 180.0
60.952919 172.0
61.019756 144.0
61.172215 160.0
61.466427 176.0
61.521408 288.0
61.735466 160.0
61.882553 152.0
62.015705 156.0
62.059601 164.0
62.180389 204.0
62.205326 176.0
62.530869 144.0
62.648869 132.0
62.759125 156.0
62.797134 140.0
63.315525 212.0
63.359879 160.0
63.420479 148.0
63.594566 260.0
63.666008 172.0
63.748615 192.0
64.202316 184.0
64.280487 196.0
64.381058 140.0
64.534462 200.0
64.581665 100.0
64.619225 172.0
64.681641 140.0
64.774513 168.0
64.845016 144.0
65.069588 156.0
65.092545 148.0
65.138641 160.0
65.418701 152.0
65.523911 136.0
65.573082 276.0
65.860275 216.0
65.968536 152.0
66.000877 144.0
66.313316 156.0
66.387886 172.0
66.480354 200.0
66.563148 148.0
66.712624 208.0
66.740257 144.0
66.850876 240.0
66.889069 136.0
67.056068 156.0
67.116386 172.0
67.186523 216.0
67.262787 196.0
67.364464 148.0
67.439629 156.0
67.478859 196.0
67.562263 184.0
67.581902 148.0
67.62281 156.0
67.825912 220.0
68.0047 192.0
68.01783 172.0
68.159065 204.0
68.305389 148.0
68.362122 132.0
68.516098 172.0
68.671051 192.0
68.734673 120.0
68.767334 112.0
68.887283 148.0
69.30751 184.0
69.614388 172.0
70.106743 128.0
70.420441 160.0
70.497292 160.0
70.669975 164.0
70.959274 160.0
71.049843 216.0
71.337006 148.0
71.709 148.0
71.840523 148.0
71.911392 144.0
72.012695 172.0
72.046478 140.0
72.061684 160.0
72.108643 188.0
72.271339 324.0
72.510109 164.0
72.747574 152.0
73.16748 156.0
73.34166 176.0
73.493011 144.0
73.520317 184.0
73.62104 168.0
73.744049 148.0
73.889397 140.0
74.604538 156.0
74.668159 156.0
74.709442 204.0
74.99012 156.0
75.033211 148.0
75.090706 140.0
75.114265 140.0
75.257507 184.0
75.906593 128.0
75.942795 152.0
75.980957 140.0
76.340508 160.0
76.451843 144.0
76.884033 140.0
76.913704 164.0
77.13205 156.0
77.305191 208.0
77.422485 168.0
77.790688 148.0
77.892532 188.0
77.922401 176.0
78.136894 140.0
78.432739 196.0
78.518791 164.0
78.63028 152.0
78.642632 144.0
78.750198 156.0
78.799797 160.0
78.826302 160.0
78.89257 164.0
79.162407 152.0
79.320084 188.0
79.589752 148.0
79.609283 220.0
79.666122 204.0
79.714096 148.0
79.888336 144.0
79.968407 160.0
80.100166 268.0
80.898384 180.0
80.934189 144.0
80.990242 148.0
81.217346 160.0
81.451874 188.0
81.595963 148.0
81.720352 160.0
81.757393 176.0
81.822937 172.0
81.905777 200.0
82.118462 176.0
82.170776 152.0
82.421745 172.0
82.450661 140.0
82.506691 156.0
82.521156 148.0
82.571785 164.0
83.440361 144.0
83.826233 140.0
83.935608 188.0
83.986671 172.0
84.540253 180.0
84.650085 164.0
84.836967 188.0
85.34185 164.0
85.667603 156.0
85.722878 192.0
85.735779 140.0
85.951454 192.0
85.982903 192.0
86.049355 176.0
86.064125 156.0
86.195274 188.0
86.291382 180.0
86.491173 204.0
86.570786 172.0
86.709732 160.0
86.765343 144.0
86.7808 228.0
86.935982 160.0
87.2313 140.0
87.383797 140.0
87.458229 172.0
87.489876 168.0
87.760025 168.0
88.036186 168.0
88.062332 144.0
88.103432 184.0
88.204338 148.0
88.651649 144.0
88.713501 228.0
88.84478 180.0
88.908569 164.0
88.938599 160.0
89.039864 504.0
89.075676 140.0
89.214737 140.0
89.55909 148.0
89.628792 188.0
89.792801 168.0
90.045685 232.0
90.217651 180.0
90.421936 180.0
90.897598 152.0
90.9925 148.0
91.050262 148.0
91.081749 144.0
91.258492 216.0
91.382118 180.0
91.51535 152.0
91.542007 140.0
91.740158 148.0
91.871742 148.0
92.100807 156.0
92.363182 180.0
92.456421 140.0
92.487045 148.0
92.659393 152.0
93.012245 192.0
93.354233 144.0
93.446556 176.0
93.625572 156.0
93.926247 160.0
93.978333 140.0
94.007278 184.0
94.028503 204.0
94.071014 152.0
94.092857 148.0
94.144333 156.0
94.431297 132.0
94.527092 188.0
94.782692 212.0
94.855354 108.0
95.086395 1268.0
95.190041 212.0
96.081123 152.0
96.295837 172.0
96.406097 160.0
96.626564 152.0
96.716576 232.0
96.851685 160.0
96.914375 204.0
97.101357 5528.0
97.145714 144.0
97.160835 184.0
97.247749 140.0
97.310562 332.0
97.416618 156.0
97.693794 192.0
97.711502 216.0
97.766594 156.0
97.794151 164.0
97.991074 148.0
98.024567 152.0
98.05117 140.0
98.104172 580.0
98.169495 144.0
98.237503 140.0
98.257225 140.0
98.999184 1208.0
99.147026 176.0
99.187035 108.0
99.255394 168.0
99.355225 192.0
99.62323 148.0
99.907509 180.0
100.106544 152.0
100.196175 188.0
100.449348 156.0
100.828712 172.0
100.99369 212.0
101.012665 176.0
101.036667 216.0
101.069641 184.0
101.116707 144.0
101.178757 208.0
101.270607 152.0
101.346329 156.0
101.487305 184.0
101.776237 180.0
102.047447 252.0
102.097748 188.0
102.137978 180.0
102.19632 172.0
102.226082 136.0
102.246628 156.0
102.2892 156.0
102.349289 164.0
102.835129 148.0
102.96434 156.0
102.994637 144.0
103.054718 6628.0
103.354485 160.0
103.55085 168.0
103.567055 184.0
103.661324 196.0
104.058372 636.0
104.275154 160.0
104.466286 168.0
104.526733 152.0
104.82666 160.0
104.9245 180.0
105.02034 180.0
105.061287 108.0
105.121361 240.0
105.17598 100.0
105.255028 172.0
105.41436 148.0
105.485893 144.0
105.584038 232.0
105.618805 144.0
106.030342 140.0
106.147186 156.0
106.194038 180.0
106.38633 140.0
107.172218 148.0
107.405838 156.0
107.534622 136.0
107.802238 164.0
107.975891 172.0
108.914795 148.0
108.983353 272.0
109.029808 180.0
109.101395 14024.0
109.257011 96.0
109.33062 148.0
109.620079 152.0
109.693024 144.0
109.82856 248.0
109.934959 156.0
110.104149 796.0
110.26284 160.0
110.333908 188.0
110.6875 268.0
110.780029 112.0
111.079422 148.0
111.107597 120.0
111.19062 156.0
111.36068 224.0
111.427902 200.0
111.665436 208.0
111.811089 156.0
112.137047 200.0
112.200287 208.0
112.594864 264.0
112.673019 176.0
112.757866 132.0
112.831528 144.0
113.010307 120.0
113.043037 176.0
113.305588 172.0
113.347961 148.0
113.572685 156.0
113.625717 144.0
113.881584 156.0
114.401405 168.0
114.629044 164.0
114.900085 180.0
114.966232 196.0
115.054352 2636.0
115.128479 176.0
115.254509 160.0
115.534592 152.0
115.612152 160.0
115.671547 152.0
115.975471 184.0
116.062263 2656.0
116.134377 160.0
116.215889 152.0
116.41552 208.0
116.629051 168.0
116.761513 224.0
116.907005 172.0
117.01265 192.0
117.052032 140.0
117.06926 316.0
117.127411 196.0
117.161873 184.0
117.240768 160.0
117.276085 152.0
117.429161 148.0
117.612564 196.0
117.869087 164.0
117.961113 244.0
118.041573 152.0
118.068436 168.0
118.124672 140.0
118.239349 248.0
118.302116 212.0
118.557701 144.0
118.869972 176.0
119.029732 204.0
119.061005 180.0
119.635025 180.0
119.85936 220.0
119.957436 148.0
120.16243 144.0
120.299919 156.0
120.411278 144.0
120.452156 184.0
120.487724 256.0
120.971024 180.0
121.041084 152.0
121.104591 232.0
121.308372 172.0
121.376343 164.0
121.529877 236.0
121.578156 216.0
121.758179 164.0
121.824066 188.0
121.839447 176.0
122.334251 152.0
122.437737 152.0
122.458466 156.0
122.640434 160.0
122.655861 144.0
122.724205 240.0
122.863152 168.0
122.982307 148.0
123.117302 3308.0
123.159431 128.0
123.300346 152.0
123.527008 188.0
123.811394 156.0
123.884491 148.0
123.915504 152.0
124.116615 408.0
124.199257 204.0
124.346146 156.0
124.552177 184.0
124.697655 212.0
124.754395 168.0
124.798859 144.0
124.819458 196.0
124.837135 132.0
124.862343 248.0
124.902596 124.0
124.92186 144.0
124.942192 272.0
124.966377 336.0
125.016258 149704.0
125.096024 196.0
125.125702 132.0
125.156609 112.0
125.174667 132.0
125.191895 228.0
125.223083 208.0
125.249214 120.0
125.313995 96.0
125.381493 1040.0
125.490463 212.0
125.644585 192.0
125.731491 248.0
125.779961 112.0
125.907089 176.0
126.019203 13672.0
126.048698 444.0
126.454094 176.0
126.563148 280.0
126.686378 112.0
126.75071 256.0
126.824402 240.0
126.843079 148.0
126.894569 112.0
126.901192 104.0
126.929024 140.0
126.950768 212.0
127.012802 47672.0
127.084618 184.0
127.131729 120.0
127.483475 156.0
127.518364 192.0
127.557343 176.0
127.685211 156.0
127.706047 216.0
127.841034 264.0
128.0159 1720.0
128.061737 1340.0
128.181061 148.0
128.289246 176.0
128.702652 180.0
128.896378 104.0
128.926758 180.0
129.069824 1544.0
129.113388 188.0
129.314743 188.0
130.040009 152.0
130.077362 1852.0
130.114929 148.0
130.167145 140.0
130.442947 152.0
130.535263 168.0
130.883408 160.0
131.060074 156.0
131.080536 156.0
131.273331 104.0
131.651886 164.0
131.670151 140.0
131.729538 200.0
131.896347 140.0
132.134171 168.0
132.208374 140.0
132.390533 180.0
132.580673 152.0
132.800766 168.0
132.883347 228.0
133.070694 128.0
133.20015 160.0
133.424515 172.0
133.512741 148.0
133.722092 152.0
133.851608 140.0
133.970779 180.0
134.330399 160.0
134.545013 140.0
135.055695 180.0
135.096725 200.0
135.125092 180.0
135.274078 128.0
135.303299 148.0
136.172852 148.0
136.409851 164.0
136.507507 152.0
136.68895 172.0
136.864716 132.0
137.020462 460.0
137.831528 168.0
138.04892 156.0
138.065292 152.0
138.084 176.0
138.236053 152.0
138.437378 172.0
138.709152 148.0
138.737747 120.0
138.769501 108.0
138.817001 172.0
138.871384 148.0
138.934219 156.0
138.967468 208.0
139.031876 113908.0
139.108612 164.0
139.278702 104.0
139.293976 192.0
139.342499 96.0
139.417465 932.0
139.490936 152.0
139.627197 176.0
140.034882 11772.0
140.0728 176.0
140.332886 104.0
140.443024 104.0
140.545914 152.0
140.805573 156.0
140.822418 152.0
140.886398 148.0
140.983032 236.0
141.02858 32520.0
141.072861 400.0
141.112839 140.0
141.1707 140.0
141.294876 140.0
141.383636 100.0
141.660522 140.0
141.874741 184.0
141.959183 104.0
142.031296 2564.0
142.076736 540.0
142.841599 164.0
143.05722 272.0
143.083984 788.0
143.109985 144.0
143.606186 184.0
144.092758 976.0
144.143494 124.0
144.265228 180.0
144.703033 196.0
145.01712 132.0
145.097137 304.0
145.302185 188.0
145.621445 204.0
146.358398 160.0
147.38623 168.0
148.07428 176.0
149.000488 144.0
149.032486 140.0
149.44339 180.0
149.470154 240.0
149.876785 148.0
150.025085 328.0
150.987488 144.0
151.030914 12968.0
151.957001 156.0
152.035446 1008.0
152.335571 180.0
152.577484 192.0
152.716568 140.0
152.736252 188.0
152.778061 144.0
152.970016 188.0
153.04718 52940.0
153.122177 204.0
153.173126 96.0
153.253723 100.0
153.325531 152.0
153.411469 96.0
153.477722 196.0
153.970444 144.0
154.049469 5492.0
154.198349 140.0
154.962982 160.0
155.04422 13360.0
155.139175 172.0
155.180099 280.0
155.266632 120.0
156.045776 1040.0
156.236603 180.0
156.435684 180.0
157.096054 164.0
158.112381 216.0
158.428482 172.0
158.538467 116.0
159.072952 140.0
159.396637 160.0
160.358276 176.0
160.58519 148.0
160.903137 144.0
161.547562 180.0
162.026031 228.0
162.467148 144.0
163.026703 164.0
164.034546 188.0
164.07695 184.0
164.23761 156.0
164.449387 204.0
164.551483 172.0
164.671509 164.0
164.881012 204.0
165.046814 11188.0
165.100861 140.0
165.877502 144.0
166.049438 648.0
167.059616 3204.0
167.265289 124.0
167.704208 152.0
168.045471 380.0
168.065414 248.0
168.586853 156.0
169.059875 1308.0
169.145508 176.0
169.601379 204.0
170.364288 168.0
171.092438 172.0
171.122086 124.0
171.44928 192.0
174.117767 144.0
174.874954 220.0
175.72348 148.0
176.443253 120.0
177.05101 200.0
177.994049 128.0
178.055542 160.0
178.499344 228.0
178.621674 172.0
178.972977 148.0
179.062561 26364.0
179.241394 124.0
179.708618 144.0
180.065475 2128.0
180.702515 164.0
181.018356 184.0
181.05983 8684.0
181.321075 144.0
182.064484 648.0
182.824997 140.0
183.892242 168.0
184.87056 216.0
187.657486 180.0
188.345184 168.0
191.059219 148.0
192.771255 140.0
193.078751 2340.0
194.082382 400.0
194.832687 140.0
195.072586 516.0
196.078003 116.0
196.637039 240.0
196.85759 140.0
197.184235 156.0
197.869843 160.0
198.063004 156.0
198.161041 192.0
201.127884 156.0
201.868088 140.0
201.924652 152.0
202.04628 164.0
203.031998 164.0
204.486603 156.0
205.415482 144.0
205.880707 144.0
206.600998 152.0
207.574799 152.0
208.723389 140.0
209.572495 176.0
209.94722 172.0
211.510284 152.0
212.130173 196.0
213.67514 168.0
214.449722 192.0
214.732529 240.0
214.995407 152.0
215.500259 164.0
216.565079 156.0
216.884445 148.0
217.223129 112.0
217.39769 164.0
219.388657 128.0
219.987778 148.0
222.810028 156.0
223.223175 184.0
223.431366 152.0
224.20256 180.0
226.015091 188.0
226.335434 144.0
228.725159 160.0
231.832977 160.0
234.083954 140.0
235.124283 3576.0
235.364655 192.0
235.688431 148.0
236.125305 908.0
237.122986 1640.0
237.160416 224.0
237.307571 236.0
237.608124 148.0
237.976425 180.0
238.125137 168.0
238.935333 152.0
239.29541 180.0
239.346451 104.0
240.77861 140.0
241.489456 148.0
243.25563 196.0
244.134903 204.0
244.287308 144.0
244.489548 140.0
247.026184 148.0
248.6147 148.0
250.904556 176.0
252.147507 140.0
252.189316 264.0
252.319992 152.0
253.436157 160.0
254.724182 152.0
254.968842 156.0
255.458496 156.0
257.054718 148.0
258.588684 212.0
259.072174 148.0
259.094604 208.0
262.298492 164.0
262.567841 104.0
263.595886 152.0
264.116394 148.0
264.511169 168.0
265.801056 148.0
265.976288 152.0
266.378937 176.0
266.905426 168.0
266.957458 184.0
267.432465 192.0
269.398682 144.0
270.831421 140.0
271.129578 164.0
272.327057 180.0
275.766815 144.0
275.793274 144.0
276.961243 144.0
277.438416 260.0
278.076447 128.0
278.17395 176.0
278.462463 104.0
278.510559 128.0
278.610107 156.0
278.831146 164.0
278.876617 128.0
278.940491 108.0
278.992401 124.0
279.05191 112.0
279.095062 160.0
279.281372 212.0
279.436798 116.0
279.458771 124.0
279.520905 216.0
279.551453 220.0
279.607971 300.0
279.653412 200.0
279.757202 260.0
279.879242 148.0
279.922211 100.0
279.985962 232.0
280.015442 280.0
280.061127 132.0
280.085449 124.0
280.184479 143408.0
280.302399 172.0
280.377075 296.0
280.427979 192.0
280.493713 348.0
280.535278 236.0
280.603241 200.0
280.685394 204.0
280.731842 2288.0
280.776337 424.0
280.895508 204.0
280.938263 200.0
281.00354 136.0
281.071106 188.0
281.100739 144.0
281.187164 30920.0
281.53302 240.0
281.612518 108.0
281.649323 152.0
281.717377 104.0
281.768646 168.0
281.804535 168.0
281.910065 148.0
282.073059 188.0
282.115723 160.0
282.181244 56468.0
282.288605 164.0
282.433777 136.0
282.471619 132.0
282.50824 264.0
282.585907 152.0
282.634705 204.0
282.692017 132.0
282.72583 168.0
282.791687 136.0
282.863281 96.0
282.948395 128.0
282.981567 96.0
283.030792 212.0
283.064545 224.0
283.109619 128.0
283.182831 5536.0
283.289398 120.0
283.384979 140.0
283.414886 156.0
283.771271 124.0
283.85556 116.0
284.141357 144.0
284.18692 172.0
285.028656 216.0
285.145844 144.0
285.183289 144.0
285.335999 116.0
285.678162 128.0
286.247406 124.0
290.395905 140.0
291.163879 100.0
293.541656 148.0
520.303162 152.0
753.104492 140.0
845.291077 176.0
896.949768 220.0
936.642883 152.0
944.516968 232.0
976.318237 156.0
977.487732 248.0
995.308899 152.0
1022.816589 140.0
1027.768311 192.0
1051.505859 192.0
1052.984253 156.0
1070.357544 260.0
1092.604492 164.0
1092.874268 196.0
1096.001831 240.0
1106.106201 140.0
1114.688232 168.0
1135.838867 196.0
1152.615967 160.0
1153.744751 156.0
1154.265381 168.0
1159.742188 152.0
1168.209717 180.0
1196.404541 240.0
1198.429443 204.0
1226.754517 168.0
1227.779419 196.0
1228.448975 148.0
1230.088867 316.0
1233.490723 144.0
1235.770508 140.0
1239.558594 192.0
1240.098267 248.0
1256.997559 152.0
1258.797607 180.0
1262.47937 200.0
1272.243042 172.0
1274.26001 248.0
1274.480225 176.0
1277.943848 152.0
1280.099609 164.0
1284.768066 172.0
1294.932617 164.0
1296.365356 160.0
1297.02478 244.0
1302.478027 152.0
1307.043213 156.0
1322.371094 152.0
1322.950195 188.0
1330.540405 208.0
1332.595825 248.0
1333.097168 184.0
1346.121948 208.0
1348.350098 156.0
1348.620483 144.0
1364.050049 168.0
1365.880981 164.0
1369.605469 168.0
1370.850586 184.0
1376.99585 152.0
1416.574707 236.0
1416.664673 144.0
1417.099121 152.0
1420.420166 140.0
1424.308472 144.0
1430.120605 220.0
1430.316284 168.0
1434.677856 168.0
1440.208984 156.0
1447.8479 172.0
1448.484009 144.0
1451.280518 144.0
1455.567627 168.0
1459.982666 144.0
1467.902466 220.0
1476.310059 148.0
1485.163574 188.0
1486.007324 144.0
1486.651855 160.0
1487.365723 184.0
1489.246826 152.0
1490.914062 148.0
1494.989868 152.0
1498.593506 140.0
1499.371826 248.0
1503.436035 248.0
1509.515503 148.0
1511.495728 184.0
1513.725098 216.0
1515.119263 160.0
1518.258423 164.0
1520.624756 188.0
1521.68042 152.0
1522.821899 148.0
1523.109253 168.0
1523.334595 208.0
1529.423096 208.0
1532.841919 156.0
1534.806274 236.0
1536.686035 208.0
1537.630127 200.0
1538.894775 140.0
1542.519653 224.0
1548.152954 156.0
1549.092773 192.0
1549.766602 140.0
1552.815918 156.0
1554.840088 140.0
1558.931519 344.0
1561.635986 172.0
1561.816895 168.0
1564.854492 160.0
1566.618042 188.0
1568.974976 180.0
1572.066772 172.0
1573.384888 148.0
1576.165039 144.0
1578.022583 156.0
1580.616821 172.0
1582.682739 152.0
1583.127075 180.0
1583.807373 140.0
1584.044922 140.0
1584.274658 212.0
1585.502808 172.0
1588.277832 204.0
1588.341309 144.0
1591.428345 168.0
1592.953125 172.0
1593.782715 172.0
1594.001831 140.0
1598.924438 200.0
1600.190063 184.0
1601.376587 144.0
1605.382812 128.0
1612.714233 140.0
1613.049927 192.0
1617.985718 172.0
1618.978638 168.0
1620.772949 180.0
1621.959106 184.0
1623.602661 156.0
1625.873047 176.0
1626.153931 228.0
1627.791626 156.0
1627.960327 200.0
1632.098633 164.0
1632.532837 180.0
1637.884888 152.0
1638.23938 148.0
1638.867798 200.0
1640.350586 148.0
1641.971313 176.0
1648.962891 176.0
1650.280518 144.0
1650.56543 120.0
1654.074707 160.0
1655.15564 224.0
1655.807373 164.0
1656.7146 144.0
1660.491821 140.0
1662.199829 160.0
1666.425781 216.0
1666.880737 140.0
1669.904907 172.0
1670.474365 156.0
1671.485474 196.0
1672.777222 152.0
1673.119141 144.0
1673.436646 212.0
1673.916992 144.0
1674.079956 148.0
1677.990967 156.0
1679.03479 156.0
1680.480103 152.0
1680.601807 160.0
1681.172119 152.0
1681.849487 232.0
1685.45105 140.0
1686.570679 168.0
1687.208252 152.0
1688.418457 148.0
1691.363892 200.0
1692.516235 200.0
1695.327881 168.0
1697.901001 164.0
1699.397461 156.0
1699.67395 160.0
1701.249756 140.0
1704.822632 180.0
1706.992798 144.0
1709.361816 188.0
1710.382324 160.0
1711.946655 200.0
1715.110352 140.0
1715.860474 144.0
1716.511841 204.0
1716.676758 140.0
1717.856201 208.0
1720.183228 160.0
1721.463013 172.0
1722.867065 264.0
1723.293457 172.0
1724.124512 180.0
1726.123535 216.0
1728.340332 160.0
1728.53894 168.0
1730.50061 208.0
1731.461182 176.0
1734.44397 148.0
1734.800415 168.0
1734.966187 148.0
1737.868896 164.0
1739.337769 160.0
1739.770264 196.0
1741.27478 196.0
1742.86731 256.0
1743.897827 144.0
1744.77063 168.0
1745.843262 160.0
1746.580933 236.0
1746.849609 156.0
1747.891968 168.0
1748.264038 176.0
1749.254517 144.0
1752.835815 168.0
1755.803467 172.0
1756.712646 156.0
1759.683594 184.0
1759.967529 180.0
1760.829346 152.0
1761.39563 168.0
1762.523438 172.0
1762.682129 172.0
1765.415649 220.0
1766.252075 152.0
1767.105347 140.0
1769.205933 176.0
1769.339966 188.0
1769.582764 168.0
1769.766846 180.0
1775.758545 228.0
1776.312134 168.0
1777.881104 160.0
1779.131714 160.0
1779.635498 160.0
1780.105713 172.0
1780.903564 172.0
1781.432739 188.0
1781.962036 200.0
1784.954224 164.0
1786.429199 196.0
1788.975952 156.0
1789.422119 188.0
1790.904175 188.0
1791.485352 184.0
1792.125732 260.0
1793.684814 216.0
1795.615601 156.0
1795.683105 160.0
1796.830322 156.0
1796.914673 140.0
1797.412476 208.0
1797.505249 192.0
1798.357666 200.0
1799.517212 188.0
1799.843384 164.0
1802.774536 160.0
1804.380493 148.0
1809.626099 188.0
1811.108032 156.0
1812.150024 180.0
1813.175293 140.0
1813.870361 216.0
1815.67627 140.0
1818.195923 212.0
1820.471069 160.0
1821.481812 148.0
1822.033936 184.0
1822.739136 204.0
1824.124512 148.0
1824.20105 188.0
1824.438965 200.0
1825.289185 180.0
1827.322021 168.0
1827.517822 152.0
1828.02832 224.0
1828.955933 208.0
1831.408203 188.0
1831.800049 164.0
1834.75708 204.0
1835.225952 200.0
1836.104248 164.0
1841.797119 152.0
1841.925293 208.0
1843.044434 220.0
1845.830933 228.0
1847.02832 192.0
1847.156616 156.0
1848.782227 140.0
1850.348633 144.0
1851.59021 188.0
1852.15686 180.0
1852.69519 196.0
1853.11499 208.0
1853.560547 248.0
1854.182251 188.0
1857.237305 160.0
1858.121948 196.0
1860.851196 152.0
1860.914673 120.0
1861.005737 156.0
1861.183716 168.0
1861.769897 172.0
1865.782593 160.0
1865.988892 168.0
1867.261597 160.0
1867.519531 152.0
1869.274536 152.0
1869.472534 160.0
1873.062744 148.0
1874.105103 144.0
1874.794556 192.0
1875.485474 224.0
1876.087769 200.0
1876.863281 204.0
1877.294434 160.0
1877.906738 156.0
1878.924683 268.0
1880.262085 208.0
1880.473999 160.0
1881.151123 204.0
1881.306519 144.0
1882.593872 176.0
1883.283936 176.0
1885.875977 176.0
1886.420532 140.0
1886.989624 224.0
1887.181396 144.0
1888.314209 188.0
1888.988892 188.0
1889.931885 196.0
1892.407227 180.0
1893.896729 168.0
1894.407837 152.0
1894.667725 140.0
1895.109619 148.0
1895.302612 196.0
1896.548096 144.0
1896.842773 212.0
1897.258911 140.0
1899.019165 204.0
1899.574341 148.0
1899.860596 204.0
1900.502563 152.0
1901.127319 224.0
1901.804321 164.0
1902.327271 160.0
1903.159424 128.0
1903.323608 148.0
1906.546387 248.0
1908.8573 128.0
1909.38916 156.0
1910.024048 164.0
1910.093628 164.0
1910.171997 176.0
1911.372559 144.0
1912.93042 140.0
1914.018677 196.0
1914.619629 168.0
1915.717041 184.0
1916.788696 148.0
1917.564331 148.0
1919.76123 152.0
1924.481934 172.0
1926.377075 152.0
1926.516846 228.0
1926.82251 188.0
1927.958496 176.0
1931.394409 220.0
1932.330444 144.0
1934.106934 164.0
1934.291504 240.0
1934.912354 200.0
1936.803833 184.0
1939.301025 152.0
1939.616455 196.0
1940.422974 236.0
1940.668457 184.0
1940.914062 156.0
1941.06311 144.0
1941.34375 156.0
1941.536621 144.0
1942.518921 164.0
1943.238281 180.0
1946.292725 220.0
1950.175659 152.0
1953.19165 180.0
1953.622681 152.0
1953.892212 168.0
1954.824585 152.0
1956.71167 164.0
1958.833984 176.0
1959.195068 148.0
1959.868774 152.0
1960.005737 196.0
1960.58728 176.0
1960.772339 168.0
1960.93103 236.0
1961.239502 144.0
1961.415771 172.0
1961.724243 148.0
1962.328003 236.0
1962.950195 200.0
1963.884644 176.0
1964.899048 168.0
1965.057861 220.0
1965.384399 188.0
1967.025879 164.0
1968.21521 152.0
1970.063599 144.0
1971.185669 140.0
1973.059448 156.0
1974.836792 220.0
1977.712402 156.0
1978.28772 252.0
1978.447144 156.0
1979.500732 168.0
1979.562744 140.0
1980.6698 184.0
1982.258057 148.0
1982.565796 148.0
1983.130493 152.0
1983.212769 148.0
1983.838013 180.0
1984.78186 176.0
1985.85498 152.0
1987.815552 140.0
1988.143921 156.0
1989.333252 240.0
1989.7771 176.0
1990.824829 148.0
1993.48291 96.0
1993.649902 176.0
1993.880981 196.0
1994.58313 184.0
1996.447876 188.0
1996.734741 164.0
1997.204224 200.0
2000.783325 212.0
2001.219604 168.0
2001.923096 160.0
2003.286377 132.0
