>compound MLS001148136-01!
>formula C24H33FO6
>ionization [M+H]+
>parentmass 437.233612
#inchi InChI=1S/C24H33FO6/c1-21(2)30-19-9-14-13-8-16(25)15-7-12(27)5-6-22(15,3)20(13)17(28)10-23(14,4)24(19,31-21)18(29)11-26/h7,13-14,16-17,19-20,26,28H,5-6,8-11H2,1-4H3/t13-,14-,16-,17-,19+,20+,22-,23-,24+/m0/s1
#inchikey POPFMWWJOGLOIF
#Ion_Source LC-ESI
#Instrument qTof
#Compound_Source NIH Pharmacologically Active Library
#PI Dorrestein
#Data_Collector VP/LMS
#Scan -1
#Precursor_MZ 437.235
#ExactMass 436.226
#Charge 1
#CAS_Number N/A
#Pubmed_ID N/A
#Smiles CC1(C)O[C@@H]2C[C@H]3[C@@H]4C[C@H](F)C5=CC(=O)CC[C@]5(C)[C@H]4[C@@H](O)C[C@]3(C)[C@@]2(O1)C(=O)CO
#INCHI_AUX N/A
#Library_Class 1
#SpectrumID CCMSLIB00000085404
#IonMode Positive
#UpdateWorkflowName UPDATE-SINGLE-ANNOTATED-GOLD
#LibraryQualityString Gold
#TaskID d252d724072548979f1f6f1ced849daf
##Scan# 1883
#SpectrumFile p4-A06_GA6_01_18331.mzXML
#LibraryName Pharm_Active_Library.mgf
#MQScore -1
#Organism Pharm_Active_Library
#TIC_Query 0
#RT_Query -1
#MZErrorPPM -1
#SharedPeaks 0
#MassDiff 0
#LibMZ -1
#SpecMZ 437.235
#SpecCharge 0
#internalFilename spec-00000.mgf

>collision 10
44.98737 172.0
45.114277 144.0
45.14637 160.0
45.158405 96.0
45.233334 108.0
45.394108 144.0
45.629864 172.0
45.645218 100.0
45.686913 48.0
45.767666 184.0
45.840405 184.0
45.852531 116.0
45.9132 144.0
46.022503 108.0
46.037357 52.0
46.148159 176.0
46.163033 44.0
46.223904 192.0
46.360676 76.0
46.53973 148.0
46.689209 140.0
46.915234 116.0
46.934322 220.0
47.00798 212.0
47.470348 136.0
47.57325 152.0
47.648781 204.0
47.735344 168.0
47.786266 112.0
47.830307 172.0
47.850956 144.0
48.050797 140.0
48.202679 180.0
48.222027 156.0
48.291157 124.0
48.374176 56.0
48.410175 72.0
48.526569 104.0
48.558163 148.0
48.582043 44.0
48.59869 128.0
48.852936 160.0
48.933651 136.0
48.955933 156.0
48.983788 112.0
49.067402 192.0
49.095623 184.0
49.254398 104.0
49.303299 160.0
49.353622 188.0
49.43895 104.0
49.588806 136.0
49.602821 224.0
49.859673 128.0
49.989052 100.0
50.079155 140.0
50.111553 172.0
50.122826 188.0
50.450851 116.0
50.471474 44.0
50.502586 156.0
50.612972 184.0
50.791538 80.0
50.831264 136.0
50.875263 192.0
50.976105 48.0
51.183784 136.0
51.349094 172.0
51.420429 44.0
51.501812 120.0
51.819389 168.0
51.883884 140.0
51.94268 208.0
51.982849 168.0
52.001507 136.0
52.06324 196.0
52.169567 248.0
52.214142 136.0
52.404152 132.0
52.458767 116.0
52.608944 232.0
52.621937 300.0
52.681431 184.0
52.720161 36.0
52.795334 88.0
52.828602 144.0
52.886482 140.0
53.054516 44.0
53.068306 164.0
53.160397 164.0
53.260574 176.0
53.279457 164.0
53.323395 168.0
53.410286 152.0
53.499054 120.0
53.749737 208.0
53.765789 276.0
53.854851 108.0
54.020023 52.0
54.041969 180.0
54.053673 160.0
54.118076 196.0
54.248466 184.0
54.276321 100.0
54.398094 124.0
54.531761 144.0
54.55822 152.0
54.571449 176.0
54.617039 196.0
54.642048 148.0
54.832001 28.0
54.893917 200.0
54.983906 160.0
55.054768 140.0
55.069538 112.0
55.082832 240.0
55.236561 156.0
55.291306 220.0
55.626282 144.0
55.655975 120.0
56.009922 228.0
56.051636 108.0
56.109768 136.0
56.135113 164.0
56.175385 176.0
56.275375 184.0
56.314201 200.0
56.53397 128.0
56.569893 160.0
56.592346 76.0
56.644764 160.0
56.755669 208.0
56.779659 128.0
56.872681 132.0
57.089027 172.0
57.158222 144.0
57.180798 192.0
57.222946 204.0
57.279984 160.0
57.403755 160.0
57.426376 108.0
57.464397 188.0
57.678532 204.0
57.96154 36.0
58.037327 196.0
58.067657 48.0
58.301456 188.0
58.376823 208.0
58.441353 184.0
58.473309 224.0
58.534203 188.0
58.614937 188.0
58.683525 168.0
58.701824 68.0
58.985798 224.0
59.31797 220.0
59.393105 236.0
59.479034 144.0
59.545692 192.0
59.674301 148.0
59.692585 100.0
59.783344 192.0
59.828781 216.0
59.906151 184.0
59.983418 164.0
60.002068 236.0
60.023655 44.0
60.059124 172.0
60.108494 208.0
60.255173 168.0
60.474758 280.0
60.532036 172.0
60.685436 148.0
60.739716 224.0
60.849895 156.0
60.879398 204.0
60.962414 164.0
60.989708 232.0
61.053452 100.0
61.107895 160.0
61.247944 112.0
61.372673 152.0
61.399185 140.0
61.427258 176.0
61.477184 132.0
61.538063 144.0
61.672409 120.0
61.791256 200.0
61.805336 112.0
61.898613 244.0
62.027721 176.0
62.093575 168.0
62.176727 144.0
62.237949 136.0
62.24894 184.0
62.314911 40.0
62.472122 240.0
62.907059 100.0
63.058136 176.0
63.150394 172.0
63.19627 60.0
63.247509 180.0
63.317104 204.0
63.345085 176.0
63.44809 200.0
63.802464 188.0
63.946869 152.0
64.037621 112.0
64.212936 140.0
64.235268 128.0
64.342194 124.0
64.358154 56.0
64.378914 236.0
64.438988 164.0
64.495544 192.0
64.601082 204.0
64.63308 244.0
64.727516 140.0
64.753143 144.0
65.022484 152.0
65.179863 164.0
65.210396 48.0
65.226311 204.0
65.27858 228.0
65.322952 212.0
65.517738 100.0
65.670876 136.0
65.816864 192.0
65.874252 172.0
65.917877 56.0
66.010017 224.0
66.07148 148.0
66.116783 144.0
66.137825 152.0
66.42614 180.0
66.593437 156.0
66.645424 148.0
67.039207 108.0
67.06691 180.0
67.278969 180.0
67.305092 176.0
67.399834 156.0
67.437416 128.0
67.476654 156.0
67.563332 196.0
67.653336 156.0
67.741768 216.0
67.756508 96.0
67.846649 140.0
67.908958 156.0
67.923721 84.0
67.971207 144.0
68.035309 124.0
68.132202 148.0
68.165062 188.0
68.196289 180.0
68.500694 176.0
68.731506 216.0
68.822289 156.0
68.840454 104.0
69.06356 136.0
69.133049 136.0
69.224098 80.0
69.3815 76.0
69.399742 240.0
69.44783 192.0
69.517509 124.0
69.547386 192.0
69.661957 192.0
69.951302 184.0
70.036224 124.0
70.066208 168.0
70.131195 216.0
70.19455 144.0
70.378098 64.0
70.433205 140.0
70.607025 216.0
70.660553 224.0
70.765999 200.0
70.869843 160.0
71.064331 216.0
71.134819 196.0
71.148247 176.0
71.178467 104.0
71.198624 180.0
71.28598 124.0
71.472626 168.0
71.56015 140.0
71.617409 40.0
71.740417 160.0
72.094864 184.0
72.152336 188.0
72.221664 188.0
72.307953 128.0
72.324875 36.0
72.340111 192.0
72.379051 64.0
72.43325 212.0
72.46035 124.0
72.589172 220.0
72.62365 216.0
72.831085 212.0
72.87603 48.0
73.052841 228.0
73.095375 144.0
73.148132 144.0
73.185585 188.0
73.333794 112.0
73.459976 196.0
73.53846 156.0
73.608459 212.0
73.620407 128.0
73.851135 196.0
73.871658 156.0
73.893898 140.0
73.962349 132.0
73.97776 128.0
73.991455 128.0
74.18161 60.0
74.210754 164.0
74.233047 48.0
74.31881 168.0
74.342834 160.0
74.53344 188.0
74.56781 180.0
74.78624 144.0
74.817223 144.0
74.841331 248.0
74.856827 140.0
74.994652 200.0
75.206802 168.0
75.275856 208.0
75.415794 200.0
75.600845 96.0
75.728958 132.0
75.75148 136.0
75.877983 132.0
75.914398 64.0
75.968163 148.0
76.028893 104.0
76.101799 208.0
76.14695 264.0
76.185165 276.0
76.21122 52.0
76.225121 92.0
76.324203 124.0
76.496445 160.0
76.670616 148.0
76.733368 184.0
76.804863 48.0
77.057991 132.0
77.196075 152.0
77.215317 216.0
77.287033 180.0
77.407814 132.0
77.448097 168.0
77.516579 136.0
77.719826 124.0
77.814598 188.0
77.844452 148.0
77.869041 220.0
77.905922 224.0
78.179642 172.0
78.197815 132.0
78.213654 160.0
78.264343 136.0
78.405632 148.0
78.439117 208.0
78.530807 184.0
78.557266 152.0
78.656082 52.0
78.71788 136.0
78.850372 248.0
78.977669 128.0
79.044159 124.0
79.353096 160.0
79.667221 176.0
79.852081 200.0
80.015785 128.0
80.031815 192.0
80.227791 116.0
80.268799 232.0
80.381172 180.0
80.411514 104.0
80.600807 184.0
80.615105 152.0
80.645485 204.0
80.798492 228.0
80.813583 144.0
80.856529 108.0
80.956779 148.0
81.004852 200.0
81.048134 180.0
81.14492 200.0
81.205894 156.0
81.268677 144.0
81.353027 128.0
81.397911 124.0
81.428444 84.0
81.590164 152.0
81.617134 136.0
81.63871 160.0
81.793442 40.0
81.849251 136.0
81.95224 180.0
82.078087 208.0
82.206161 140.0
82.265724 84.0
82.375877 124.0
82.436348 248.0
82.505989 132.0
82.813606 144.0
82.840782 204.0
82.867958 164.0
83.20166 72.0
83.214371 264.0
83.294273 120.0
83.328789 112.0
83.443291 204.0
83.728973 128.0
83.779976 132.0
83.880203 204.0
84.062584 148.0
84.113686 124.0
84.210457 256.0
84.325562 160.0
84.343842 200.0
84.47184 100.0
84.523064 196.0
84.599937 132.0
84.63472 164.0
84.71347 56.0
84.733627 268.0
84.761108 164.0
84.783096 48.0
84.823418 128.0
85.069939 108.0
85.164711 196.0
85.229012 140.0
85.374229 108.0
85.411011 188.0
85.458839 220.0
85.598732 116.0
85.64846 128.0
85.816986 268.0
86.037552 164.0
86.196388 152.0
86.349831 168.0
86.455276 196.0
86.47934 128.0
86.527466 148.0
86.549683 148.0
86.810959 196.0
87.119064 160.0
87.210114 160.0
87.258446 156.0
87.273323 188.0
87.353294 216.0
87.387413 184.0
87.464935 168.0
87.526375 280.0
87.541267 200.0
87.697762 48.0
87.790985 100.0
87.832016 184.0
87.901039 148.0
87.957031 156.0
88.308304 176.0
88.368164 192.0
88.457993 164.0
88.650902 188.0
88.842148 204.0
88.864662 152.0
88.885307 204.0
88.934097 220.0
89.370079 128.0
89.515022 136.0
89.55146 148.0
89.596008 48.0
89.652733 152.0
89.726044 204.0
89.818451 208.0
89.912186 200.0
89.996788 92.0
90.020393 64.0
90.125374 180.0
90.203659 244.0
90.256592 192.0
90.302132 148.0
90.326569 160.0
90.397751 160.0
90.841812 168.0
90.885445 148.0
91.055534 740.0
91.213997 232.0
91.331886 196.0
91.515404 212.0
91.531715 128.0
91.561584 140.0
91.697449 332.0
91.888138 104.0
91.935844 144.0
91.960655 152.0
92.08857 148.0
92.111496 184.0
92.17263 164.0
92.212509 152.0
92.3619 160.0
92.555191 172.0
92.66555 208.0
92.745033 244.0
92.800446 104.0
92.820702 184.0
92.907845 164.0
93.069038 468.0
93.22081 108.0
93.409225 188.0
93.437347 168.0
93.565102 156.0
93.863739 124.0
94.037369 144.0
94.068253 180.0
94.099136 224.0
94.186035 172.0
94.388962 100.0
94.503082 152.0
94.528595 196.0
94.588234 80.0
94.696663 60.0
94.724098 220.0
94.832291 56.0
94.863304 140.0
94.962189 116.0
95.049294 324.0
95.088242 212.0
95.152359 176.0
95.216438 144.0
95.37381 40.0
95.408798 104.0
95.490471 148.0
95.507973 164.0
95.616928 136.0
95.803856 192.0
95.944168 112.0
96.230652 152.0
96.373543 152.0
96.792122 192.0
96.882217 136.0
96.984116 192.0
97.026901 164.0
97.065063 848.0
97.095123 252.0
97.364738 144.0
97.397194 156.0
97.490463 236.0
97.545494 48.0
97.61628 188.0
97.645775 88.0
97.684647 168.0
97.74807 136.0
97.872078 132.0
97.956764 120.0
98.286003 92.0
98.362976 164.0
98.398506 156.0
98.420227 52.0
98.605919 68.0
98.665222 140.0
98.706741 172.0
98.89666 64.0
99.044212 644.0
99.06205 168.0
99.136299 156.0
99.177917 140.0
99.469498 136.0
99.500565 148.0
99.697441 188.0
99.704582 144.0
99.747398 204.0
100.020103 152.0
100.075851 204.0
100.105713 40.0
100.123642 164.0
100.229218 128.0
100.336845 160.0
100.374725 44.0
100.426582 172.0
100.458496 148.0
100.472458 144.0
100.73597 152.0
100.883118 260.0
100.989822 96.0
101.023193 676.0
101.041702 312.0
101.193069 240.0
101.227982 244.0
101.292068 172.0
101.366196 272.0
101.467476 196.0
101.508522 128.0
101.624855 112.0
101.638901 132.0
101.725204 224.0
101.781418 36.0
101.915993 168.0
102.030556 180.0
102.22364 72.0
102.424973 140.0
102.491455 104.0
102.523697 172.0
102.570053 168.0
102.597847 152.0
102.717255 144.0
102.784378 176.0
103.055214 644.0
103.127144 168.0
103.167572 240.0
103.345543 132.0
103.39006 184.0
103.416374 248.0
103.446732 176.0
103.750603 116.0
103.776955 172.0
103.837791 144.0
103.927048 260.0
103.956436 188.0
104.041382 240.0
104.47094 192.0
104.628235 56.0
104.925674 108.0
104.980728 184.0
105.003159 156.0
105.048035 192.0
105.070618 4036.0
105.152092 76.0
105.184753 328.0
105.20108 164.0
105.299095 212.0
105.781639 240.0
105.812347 108.0
105.949562 128.0
105.992584 144.0
106.062218 180.0
106.080711 208.0
106.353523 124.0
106.391296 180.0
106.417168 52.0
106.474663 256.0
106.667801 172.0
106.71714 48.0
106.815849 156.0
106.840538 224.0
106.90432 184.0
107.051765 600.0
107.08609 884.0
107.142548 40.0
107.188492 160.0
107.240013 48.0
107.285362 88.0
107.376373 172.0
107.398773 204.0
107.481293 112.0
107.8675 184.0
107.948128 28.0
108.003967 172.0
108.053619 348.0
108.09346 204.0
108.312386 156.0
108.343452 240.0
108.511322 100.0
108.567307 188.0
108.749878 96.0
109.04425 464.0
109.065605 1132.0
109.107162 232.0
109.377594 132.0
109.562927 176.0
109.585846 176.0
109.625435 168.0
109.779701 124.0
109.838501 124.0
109.929893 80.0
110.048874 104.0
110.068855 176.0
110.209702 196.0
110.335098 196.0
110.682419 160.0
110.78318 72.0
110.824844 188.0
111.003014 156.0
111.040764 156.0
111.058182 252.0
111.079834 512.0
111.11628 60.0
111.135162 80.0
111.18972 136.0
111.313576 104.0
111.357681 160.0
111.469025 140.0
111.506851 196.0
111.658218 172.0
111.681358 200.0
111.824432 172.0
111.913521 124.0
111.971802 164.0
112.010948 144.0
112.041313 96.0
112.064491 132.0
112.081345 144.0
112.190208 160.0
112.296371 172.0
112.363876 120.0
112.49894 76.0
112.547501 168.0
112.691124 132.0
112.735497 124.0
112.773537 212.0
112.868668 332.0
112.970184 76.0
113.080215 164.0
113.162773 56.0
113.25589 136.0
113.400032 68.0
113.416985 184.0
113.535713 100.0
113.716049 212.0
114.094147 184.0
114.172821 172.0
114.238754 188.0
114.332375 196.0
114.372818 104.0
114.481392 184.0
114.53038 200.0
114.662476 152.0
114.828773 176.0
115.053864 580.0
115.185219 196.0
115.242897 156.0
115.309143 196.0
115.426476 212.0
115.450241 160.0
115.57859 232.0
115.749832 136.0
115.938339 180.0
116.061401 352.0
116.076057 180.0
116.176338 116.0
116.309387 156.0
116.324409 168.0
116.381775 128.0
116.457535 180.0
116.491905 176.0
116.541321 216.0
116.603828 264.0
116.674568 184.0
116.801445 212.0
116.857376 44.0
116.881042 152.0
116.984352 156.0
117.070686 1268.0
117.244972 132.0
117.370003 44.0
117.454109 136.0
117.520981 220.0
117.68718 200.0
117.758438 208.0
117.855652 112.0
117.894547 184.0
117.972359 208.0
117.99398 136.0
118.029915 212.0
118.048035 200.0
118.072647 168.0
118.091286 168.0
118.160507 144.0
118.24057 72.0
118.307671 156.0
118.322823 180.0
118.337975 152.0
118.413773 204.0
118.454926 96.0
118.67923 156.0
118.851662 120.0
118.984062 136.0
119.020966 80.0
119.052528 120.0
119.086021 2128.0
119.19474 192.0
119.316452 52.0
119.440407 116.0
119.481735 124.0
119.507843 152.0
119.664551 72.0
119.807297 200.0
119.849686 60.0
119.956474 176.0
120.010979 164.0
120.088554 96.0
120.216019 68.0
120.268402 176.0
120.346046 204.0
120.399399 180.0
120.419052 160.0
120.46492 136.0
120.489319 180.0
120.784065 160.0
121.013847 116.0
121.06456 3256.0
121.102814 608.0
121.125534 132.0
121.16497 88.0
121.272339 196.0
121.293816 176.0
121.375374 196.0
121.429787 148.0
121.528915 248.0
121.592552 48.0
121.673767 192.0
121.755013 164.0
121.829697 56.0
122.068581 172.0
122.113251 124.0
122.181435 140.0
122.223244 148.0
122.240845 180.0
122.546906 128.0
122.738045 156.0
122.754723 156.0
122.787178 152.0
122.824677 180.0
122.85997 64.0
123.023277 220.0
123.042488 264.0
123.060257 472.0
123.080612 576.0
123.202156 224.0
123.575783 120.0
123.624458 116.0
123.666512 52.0
123.786057 88.0
123.887939 148.0
124.088982 168.0
124.178513 180.0
124.342491 108.0
124.413521 224.0
124.503632 240.0
124.917969 128.0
125.058273 636.0
125.111572 56.0
125.165207 136.0
125.285278 148.0
125.309784 168.0
125.418983 196.0
125.57505 112.0
125.592896 180.0
125.635277 200.0
125.853996 92.0
125.974129 172.0
126.041626 192.0
126.066948 192.0
126.222679 172.0
126.374779 128.0
126.453102 48.0
126.501289 136.0
126.560555 176.0
126.638931 56.0
126.771111 192.0
126.869736 164.0
126.934753 168.0
126.95269 180.0
126.975121 148.0
127.055389 932.0
127.177048 100.0
127.226425 60.0
127.269089 172.0
127.41507 180.0
127.485313 200.0
127.646576 208.0
127.761284 152.0
127.792786 36.0
127.829124 132.0
127.930534 192.0
128.063614 2536.0
128.171051 52.0
128.274719 228.0
128.484451 224.0
128.646927 176.0
128.816299 156.0
128.845657 196.0
128.865997 116.0
128.899887 124.0
128.92926 152.0
128.965424 124.0
129.012894 120.0
129.04454 152.0
129.070557 2156.0
129.102356 92.0
129.196136 128.0
129.329575 112.0
129.662521 68.0
129.732788 32.0
129.889252 40.0
129.939209 164.0
129.964584 76.0
129.991348 160.0
130.074402 712.0
130.17749 44.0
130.252426 136.0
130.314392 192.0
130.352402 76.0
130.385391 168.0
130.568359 124.0
130.607025 120.0
130.63887 108.0
130.684372 116.0
130.775406 48.0
130.816376 244.0
130.946152 164.0
130.978043 40.0
131.051239 184.0
131.085785 3172.0
131.115204 220.0
131.196808 68.0
131.294846 156.0
131.313095 196.0
131.422592 168.0
131.493332 36.0
131.623459 192.0
131.653137 156.0
131.694244 164.0
132.057877 168.0
132.088409 552.0
132.206375 152.0
132.526947 140.0
132.678207 204.0
132.708008 144.0
132.941986 164.0
133.013138 100.0
133.066177 2292.0
133.101883 1336.0
133.183044 72.0
133.254257 108.0
133.380661 240.0
133.422028 40.0
133.44043 56.0
133.566162 212.0
133.60141 132.0
133.847672 164.0
134.022736 128.0
134.072556 336.0
134.103607 172.0
134.280914 140.0
134.442413 124.0
134.539352 136.0
134.555511 120.0
134.580917 84.0
134.638641 160.0
135.046432 412.0
135.08168 672.0
135.119461 168.0
135.221237 136.0
135.309357 60.0
135.466675 124.0
135.482895 104.0
135.531555 188.0
135.744797 160.0
135.842209 152.0
135.89093 160.0
135.946625 144.0
135.988388 132.0
136.062668 104.0
136.083969 176.0
136.224457 144.0
136.262405 76.0
136.371628 208.0
136.455307 228.0
136.763184 184.0
136.871796 76.0
137.009201 84.0
137.065689 192.0
137.097092 192.0
137.195633 192.0
137.365875 224.0
137.515198 112.0
137.588058 132.0
137.685638 164.0
137.762711 116.0
137.940308 128.0
138.059555 48.0
138.082916 396.0
138.359055 216.0
138.43309 84.0
138.537033 212.0
138.808914 164.0
138.846436 232.0
139.008301 76.0
139.055695 4600.0
139.182007 96.0
139.27124 128.0
139.311172 48.0
139.337784 160.0
139.358154 48.0
139.565567 132.0
139.60968 192.0
139.635544 212.0
139.689636 144.0
139.85849 212.0
139.903778 52.0
140.03801 176.0
140.060654 656.0
140.099243 176.0
140.181717 132.0
140.235916 40.0
140.292038 104.0
140.38208 76.0
140.880096 204.0
140.906876 180.0
140.984055 112.0
141.019501 272.0
141.071701 3080.0
141.181595 144.0
141.383728 44.0
141.41449 180.0
141.437485 128.0
141.622849 176.0
142.00206 188.0
142.05188 156.0
142.076706 1840.0
142.168823 180.0
142.191864 112.0
142.590866 76.0
142.619385 68.0
142.655045 172.0
142.907135 80.0
142.954712 168.0
142.978516 140.0
143.044769 148.0
143.086151 5556.0
143.172272 52.0
143.222519 168.0
143.246414 148.0
143.516876 76.0
143.574097 48.0
143.636108 212.0
143.705292 100.0
143.745865 64.0
143.963089 116.0
144.05571 472.0
144.090485 1428.0
144.276093 96.0
144.335861 144.0
144.41478 52.0
144.450668 176.0
144.469803 148.0
144.625336 32.0
144.692947 132.0
144.718704 204.0
144.752228 168.0
144.821671 140.0
145.001358 148.0
145.065292 1884.0
145.101089 5216.0
145.195557 112.0
145.22673 184.0
145.260315 44.0
145.358688 236.0
145.385086 32.0
145.447479 52.0
145.471481 124.0
145.505096 284.0
145.596344 40.0
145.716446 220.0
146.004883 124.0
146.068817 436.0
146.106155 472.0
146.264908 168.0
146.414017 188.0
146.580231 36.0
146.611145 188.0
146.886414 144.0
146.925018 100.0
147.056381 172.0
147.080902 3080.0
147.118851 624.0
147.155624 240.0
147.255707 40.0
147.32576 92.0
147.394211 108.0
147.412735 84.0
147.429657 76.0
147.44899 96.0
147.465912 40.0
147.604813 156.0
147.768173 112.0
147.787537 152.0
147.966629 60.0
148.079559 368.0
148.121719 276.0
148.664703 176.0
148.82663 244.0
149.066696 204.0
149.095795 1436.0
149.172333 256.0
149.199066 76.0
149.318207 228.0
149.675934 44.0
150.07399 184.0
150.098801 200.0
150.195038 172.0
150.470795 120.0
150.778564 128.0
150.881226 164.0
150.90686 232.0
151.008377 88.0
151.042618 344.0
151.090256 564.0
151.113953 232.0
151.245712 192.0
151.304474 152.0
151.363235 176.0
151.395065 160.0
151.526764 188.0
151.716034 144.0
151.819016 84.0
151.921112 212.0
151.990738 160.0
152.064651 392.0
152.090775 336.0
152.120804 176.0
152.153412 172.0
152.270584 156.0
152.287781 144.0
152.521194 164.0
152.649033 176.0
152.887665 208.0
152.956573 36.0
153.020584 124.0
153.070786 864.0
153.109222 188.0
153.234848 128.0
153.293991 92.0
153.362991 132.0
153.412292 208.0
153.546371 84.0
153.5849 148.0
153.893372 40.0
154.039078 120.0
154.078735 532.0
154.19722 128.0
154.367798 208.0
154.753174 176.0
154.994049 164.0
155.08606 2476.0
155.141998 156.0
155.248505 128.0
155.349396 100.0
155.390762 92.0
155.492508 180.0
155.606689 44.0
155.641449 100.0
155.723404 28.0
155.760651 192.0
155.785492 40.0
155.897308 36.0
156.014114 208.0
156.062195 224.0
156.093277 1164.0
156.215546 168.0
156.367325 44.0
156.443253 120.0
156.566498 180.0
156.720932 60.0
156.805664 160.0
157.037537 116.0
157.06485 516.0
157.101837 3172.0
157.202194 192.0
157.324493 80.0
157.539246 216.0
157.736664 156.0
157.786667 188.0
157.974228 200.0
158.075424 356.0
158.103973 564.0
158.157852 136.0
158.17691 176.0
158.317749 208.0
158.527557 116.0
158.718338 180.0
158.756271 128.0
159.055862 368.0
159.082077 2212.0
159.116531 1424.0
159.194824 32.0
159.262634 96.0
159.340515 76.0
159.390762 60.0
159.493805 168.0
159.566696 60.0
159.586823 64.0
159.845886 148.0
159.908813 56.0
159.926422 136.0
160.042221 112.0
160.066101 156.0
160.088516 1016.0
160.124588 488.0
160.238678 76.0
160.301666 180.0
160.324356 208.0
160.522354 184.0
160.659698 40.0
160.846436 128.0
160.992874 108.0
161.095398 2544.0
161.134521 200.0
161.35672 60.0
161.442703 136.0
161.581818 136.0
161.602051 56.0
161.695679 160.0
161.994461 48.0
162.102722 476.0
162.138885 128.0
162.278305 72.0
162.519257 204.0
162.567459 164.0
162.608063 168.0
162.910233 172.0
162.930557 160.0
163.022018 88.0
163.076492 804.0
163.084106 624.0
163.091202 556.0
163.131317 180.0
163.34491 156.0
163.59938 48.0
163.655396 88.0
164.098404 256.0
164.106995 148.0
164.274689 136.0
164.377487 164.0
164.4431 128.0
164.460968 140.0
164.746964 192.0
164.818497 148.0
164.849152 116.0
165.070847 1292.0
165.105942 452.0
165.309448 164.0
165.414383 220.0
165.675583 184.0
165.816513 28.0
166.079407 360.0
166.119781 204.0
166.237091 96.0
166.373123 36.0
166.409073 100.0
166.604263 152.0
166.781555 112.0
166.928101 132.0
166.969254 108.0
167.085587 1424.0
167.151901 236.0
167.239395 116.0
167.299561 204.0
167.541534 84.0
167.924744 128.0
167.967407 200.0
168.061462 260.0
168.093491 1100.0
168.193085 168.0
168.62442 168.0
168.683868 192.0
168.916595 176.0
168.973511 132.0
169.059937 316.0
169.101929 4376.0
169.144302 28.0
169.25563 28.0
169.276337 84.0
169.31459 52.0
169.338501 64.0
169.359207 180.0
169.978821 172.0
170.071182 320.0
170.106674 1440.0
170.176086 232.0
170.282547 160.0
170.321518 316.0
170.360474 188.0
170.381256 72.0
170.690552 204.0
170.942871 116.0
171.036575 156.0
171.080902 2352.0
171.117874 1884.0
171.372513 136.0
171.661835 52.0
171.716599 260.0
172.085495 1056.0
172.125229 744.0
172.452881 156.0
172.868698 136.0
172.921036 104.0
173.09552 3076.0
173.131683 236.0
173.185486 48.0
173.219528 168.0
173.271408 196.0
173.278687 48.0
173.285492 136.0
173.316467 72.0
173.423904 44.0
173.476334 128.0
173.79892 112.0
173.882889 100.0
174.003647 136.0
174.067383 232.0
174.100662 928.0
174.140182 356.0
174.321457 64.0
174.592224 172.0
174.65535 144.0
175.080322 616.0
175.109436 784.0
175.44046 104.0
175.495422 144.0
175.577164 200.0
175.603546 56.0
175.870026 128.0
175.893784 60.0
176.036346 52.0
176.06012 152.0
176.091812 308.0
176.118225 116.0
176.144638 104.0
176.25824 164.0
176.345444 36.0
176.439362 68.0
176.720947 60.0
176.760651 148.0
176.850616 216.0
177.02536 172.0
177.069199 216.0
177.102921 632.0
177.173676 68.0
177.322067 104.0
177.459915 60.0
177.47847 100.0
177.725143 80.0
177.756989 200.0
178.030411 36.0
178.07782 604.0
178.113129 112.0
178.309357 116.0
178.596497 112.0
178.761444 224.0
178.804031 184.0
178.862579 216.0
179.085785 1500.0
179.110504 152.0
179.143356 164.0
179.26207 64.0
179.355347 148.0
179.560654 180.0
179.963593 128.0
179.984955 216.0
180.008987 76.0
180.092316 1564.0
180.177261 172.0
180.230698 180.0
180.583572 84.0
180.95285 72.0
180.998367 120.0
181.064392 320.0
181.101456 8824.0
181.167984 156.0
181.301071 148.0
181.516632 224.0
181.620117 128.0
181.748886 56.0
182.019989 124.0
182.072403 312.0
182.106415 1812.0
182.133835 228.0
182.197769 168.0
182.344299 232.0
182.556305 116.0
182.815674 204.0
182.888336 108.0
183.004089 152.0
183.044479 132.0
183.079315 1048.0
183.11557 3928.0
183.200958 164.0
183.249191 132.0
183.365051 92.0
183.452789 168.0
183.596909 132.0
183.664337 176.0
183.764145 204.0
183.858597 88.0
183.955765 96.0
183.988159 172.0
184.054047 200.0
184.083542 276.0
184.119644 464.0
184.163681 184.0
184.221893 124.0
184.24472 60.0
184.266327 104.0
184.712372 56.0
184.87471 132.0
184.893661 72.0
185.020874 144.0
185.094391 1500.0
185.130341 1260.0
185.29982 88.0
185.855652 140.0
186.098328 488.0
186.137314 384.0
186.548187 184.0
186.599838 164.0
186.991547 244.0
187.11087 1144.0
187.154877 116.0
187.208511 184.0
187.374512 120.0
187.571701 124.0
187.607147 72.0
187.9617 180.0
188.082199 288.0
188.112305 404.0
188.201904 116.0
188.341171 144.0
188.382156 172.0
188.639023 108.0
188.666351 284.0
189.065704 124.0
189.10936 280.0
189.133209 368.0
189.166977 156.0
189.438065 236.0
189.476425 156.0
189.586029 148.0
189.750488 144.0
190.02475 112.0
190.096939 152.0
190.131927 136.0
190.249786 36.0
190.275681 128.0
190.32666 108.0
190.362366 160.0
190.485962 116.0
190.510681 172.0
190.661804 100.0
190.686539 244.0
190.862473 192.0
191.054993 156.0
191.086349 688.0
191.113846 372.0
191.997009 44.0
192.092926 780.0
192.192856 44.0
192.554489 148.0
192.855637 148.0
193.021515 232.0
193.101074 2340.0
193.306427 80.0
193.383911 104.0
193.505722 56.0
193.605408 192.0
193.80484 188.0
193.851944 76.0
193.915695 116.0
194.072464 120.0
194.106644 1272.0
194.213593 108.0
194.823044 112.0
194.950851 44.0
195.079147 572.0
195.116699 2272.0
195.189926 52.0
195.351227 76.0
195.420776 32.0
195.451385 172.0
195.509827 68.0
195.540436 64.0
196.084869 1132.0
196.119965 876.0
196.236847 52.0
196.493423 140.0
196.515747 172.0
196.610626 48.0
196.797653 68.0
197.040634 140.0
197.094299 2056.0
197.132538 1732.0
197.239044 68.0
197.283768 40.0
197.477325 164.0
197.510269 164.0
197.558838 144.0
197.781677 124.0
197.840469 64.0
197.960861 116.0
198.100815 768.0
198.138229 544.0
198.255005 40.0
198.473648 92.0
198.695221 40.0
198.720474 136.0
198.88324 48.0
199.075806 616.0
199.110565 1512.0
199.146454 628.0
199.211777 96.0
199.416885 76.0
199.695236 124.0
200.001923 56.0
200.117081 416.0
200.156601 136.0
200.384903 40.0
200.47226 76.0
200.720856 168.0
200.881073 152.0
200.9216 152.0
201.060913 168.0
201.09436 340.0
201.126877 704.0
201.287491 100.0
201.40892 96.0
201.479553 116.0
201.569962 92.0
201.637787 40.0
201.937469 144.0
202.078293 164.0
202.101654 196.0
202.135834 200.0
202.237381 40.0
202.327957 240.0
202.378922 108.0
202.551682 92.0
202.78685 32.0
202.818024 176.0
202.880386 48.0
202.951263 48.0
202.971115 76.0
203.088577 436.0
203.109451 468.0
203.139862 104.0
203.163986 332.0
203.189514 64.0
203.359772 132.0
203.46196 80.0
203.64653 72.0
204.096268 492.0
204.269028 236.0
204.397049 84.0
204.547882 64.0
204.903854 296.0
204.946594 56.0
204.997879 244.0
205.066284 240.0
205.101791 1024.0
205.130951 592.0
205.291504 140.0
205.365646 80.0
205.536819 180.0
205.600296 160.0
206.071381 188.0
206.109833 944.0
206.330826 48.0
206.396591 140.0
206.712753 164.0
206.825714 136.0
207.01181 132.0
207.085709 256.0
207.115967 3900.0
207.238098 148.0
207.53331 116.0
207.762756 60.0
207.958923 160.0
208.006668 36.0
208.087601 440.0
208.122574 1640.0
208.480576 116.0
208.589783 48.0
208.79393 184.0
208.915222 116.0
209.095627 1820.0
209.131821 1264.0
209.222656 68.0
209.445999 164.0
209.490479 172.0
209.571136 104.0
209.615494 148.0
209.651825 76.0
209.712341 60.0
209.816116 104.0
209.953415 156.0
210.052094 164.0
210.101547 680.0
210.139343 708.0
210.271881 64.0
210.303619 128.0
210.586578 52.0
210.785904 44.0
210.979553 72.0
211.0634 340.0
211.110703 1832.0
211.146271 1016.0
211.286102 192.0
211.407623 104.0
211.607346 124.0
211.859314 68.0
211.9897 120.0
212.070847 92.0
212.117188 1200.0
212.151718 276.0
212.198395 76.0
212.218689 188.0
213.019669 188.0
213.089249 340.0
213.123566 740.0
213.158783 360.0
213.192551 104.0
213.252121 120.0
213.377121 36.0
213.458527 144.0
213.481796 112.0
213.603958 124.0
213.667953 140.0
213.717407 56.0
213.883286 144.0
214.105255 336.0
214.127823 144.0
214.16864 168.0
214.355087 44.0
214.570786 184.0
214.602844 56.0
214.877014 80.0
214.973297 28.0
215.029358 228.0
215.086563 516.0
215.110275 476.0
215.135941 308.0
215.215576 52.0
215.560242 56.0
215.708145 104.0
215.776535 100.0
215.819305 140.0
215.992935 136.0
216.08873 268.0
216.100128 640.0
216.294327 172.0
217.100449 1240.0
217.133987 312.0
217.173355 92.0
217.428604 92.0
217.866104 128.0
218.068817 148.0
218.111313 1048.0
218.145279 192.0
219.117691 1728.0
219.149414 176.0
219.176529 96.0
219.213654 124.0
219.355133 148.0
219.375763 104.0
219.456604 104.0
219.617554 116.0
219.806366 136.0
219.888992 220.0
220.087204 588.0
220.120544 652.0
220.169464 172.0
220.861053 68.0
220.911346 248.0
220.932053 124.0
221.095474 1044.0
221.133804 3284.0
221.239822 40.0
221.331604 176.0
221.461899 40.0
221.550766 128.0
221.630768 96.0
221.716705 80.0
221.746338 40.0
221.817474 60.0
221.903442 52.0
222.101273 912.0
222.141266 752.0
222.217819 84.0
222.372131 200.0
222.473053 64.0
222.499771 176.0
222.538376 76.0
222.882919 144.0
222.912628 124.0
222.989899 172.0
223.028534 176.0
223.079071 420.0
223.110397 1500.0
223.147888 1528.0
223.230698 144.0
223.266388 80.0
223.452591 120.0
223.516266 128.0
223.566849 140.0
224.028351 60.0
224.082657 228.0
224.115707 596.0
224.152451 308.0
224.624542 52.0
224.648407 44.0
224.851303 60.0
225.127396 4196.0
225.164291 252.0
225.236465 64.0
225.439621 44.0
225.83725 196.0
225.944946 40.0
226.07959 168.0
226.132263 2324.0
226.190323 220.0
226.220261 48.0
226.346008 88.0
226.771408 152.0
226.840347 136.0
226.994583 224.0
227.032227 188.0
227.114044 576.0
227.142014 1720.0
227.182205 132.0
227.344223 72.0
227.500305 200.0
227.86969 176.0
227.989883 140.0
228.087433 104.0
228.110107 380.0
228.147705 200.0
228.185257 204.0
228.669571 56.0
228.850189 184.0
228.907394 116.0
229.097168 664.0
229.131805 468.0
229.208618 204.0
229.309311 68.0
229.769424 132.0
229.841827 60.0
230.062149 68.0
230.113434 556.0
230.237274 220.0
230.270493 44.0
230.31279 36.0
230.388306 40.0
230.642136 100.0
230.775146 96.0
231.01709 128.0
231.084152 368.0
231.117416 832.0
231.18956 32.0
231.477142 32.0
231.540726 76.0
231.749741 48.0
232.092056 300.0
232.122528 748.0
232.165024 208.0
232.425903 40.0
233.133392 2000.0
233.165237 316.0
233.628647 156.0
233.662506 88.0
233.878555 140.0
234.106689 484.0
234.137451 344.0
234.169052 224.0
234.292694 44.0
234.332306 72.0
234.762085 180.0
234.884079 56.0
235.068527 124.0
235.112 1128.0
235.148636 1624.0
235.346985 76.0
235.409027 72.0
235.534241 112.0
235.641159 52.0
235.708389 32.0
235.812286 44.0
235.873413 156.0
235.940674 132.0
235.986526 124.0
236.073822 256.0
236.117905 816.0
236.151581 484.0
236.240372 76.0
236.283203 60.0
236.996567 204.0
237.089981 424.0
237.125443 2284.0
237.161346 680.0
237.606689 168.0
237.70488 104.0
237.833771 48.0
238.135437 1028.0
238.170837 372.0
238.306702 36.0
238.577148 136.0
238.618057 184.0
238.654007 60.0
239.107468 768.0
239.142258 2608.0
239.185013 172.0
239.266266 92.0
239.629684 176.0
239.928635 52.0
240.005707 56.0
240.053757 124.0
240.092056 144.0
240.118149 248.0
240.148788 924.0
240.382034 176.0
240.459183 180.0
240.659836 32.0
240.72467 48.0
240.851303 88.0
240.879089 88.0
240.984131 252.0
241.052109 104.0
241.125519 392.0
241.15567 1128.0
241.491104 100.0
241.63649 144.0
241.797394 40.0
241.853104 52.0
242.108231 352.0
242.136673 256.0
242.163681 416.0
242.832001 64.0
243.055542 164.0
243.077271 196.0
243.11644 304.0
243.155914 712.0
243.322464 136.0
243.455994 148.0
243.651672 92.0
243.943787 56.0
244.12265 592.0
244.178467 136.0
244.226746 100.0
244.410294 84.0
244.690414 80.0
244.874146 68.0
245.134354 1556.0
245.725128 60.0
246.101074 452.0
246.140625 816.0
246.433868 156.0
246.940277 112.0
247.112503 1008.0
247.149811 4012.0
247.18898 172.0
247.278168 32.0
247.303207 32.0
248.026749 56.0
248.080032 136.0
248.117752 604.0
248.14917 644.0
248.211716 56.0
248.302658 64.0
248.613235 48.0
248.84552 76.0
248.908325 88.0
249.127243 1324.0
249.164139 572.0
249.675079 52.0
249.797745 136.0
249.910995 56.0
249.948761 60.0
250.096664 140.0
250.132858 952.0
250.172531 180.0
250.235184 144.0
250.556427 188.0
250.632034 144.0
251.082825 140.0
251.140533 1224.0
251.237381 176.0
251.499283 84.0
251.773956 224.0
251.903458 136.0
252.108932 116.0
252.147736 560.0
252.197327 44.0
252.538788 52.0
252.713699 152.0
252.801376 84.0
252.867844 64.0
252.902649 188.0
253.054611 156.0
253.091812 168.0
253.124878 1104.0
253.156494 976.0
253.596298 32.0
253.624817 112.0
253.764313 180.0
253.789673 92.0
254.008499 64.0
254.123047 184.0
254.157791 264.0
254.541672 96.0
254.827545 40.0
254.992783 76.0
255.046814 64.0
255.136719 1132.0
255.530182 188.0
255.682922 76.0
256.024475 164.0
256.128204 304.0
256.160706 128.0
256.18573 240.0
257.131592 1272.0
257.733368 68.0
257.816437 96.0
257.934692 132.0
258.11026 316.0
258.138 508.0
258.497589 156.0
258.660797 124.0
258.859314 68.0
258.964996 84.0
259.045074 260.0
259.070679 188.0
259.146515 1168.0
259.256531 56.0
259.375122 64.0
259.452057 64.0
259.880432 112.0
260.112885 484.0
260.153717 624.0
260.421112 56.0
260.519379 68.0
260.674927 120.0
260.71991 48.0
260.809906 80.0
260.861328 96.0
261.041382 124.0
261.073517 140.0
261.130096 340.0
261.166107 1056.0
261.858795 228.0
261.907104 32.0
262.098083 188.0
262.134369 824.0
262.166595 312.0
262.342133 112.0
262.364685 132.0
262.532349 96.0
262.56781 48.0
262.809753 84.0
263.107971 540.0
263.14093 1940.0
263.319794 44.0
263.568542 72.0
263.662262 180.0
263.971191 120.0
264.15274 832.0
265.117676 832.0
265.158325 2528.0
265.283844 80.0
265.617859 92.0
265.851471 40.0
265.909882 64.0
266.097473 196.0
266.103485 148.0
266.160522 732.0
266.455414 64.0
267.079529 96.0
267.160095 796.0
267.343079 52.0
267.518829 64.0
267.574158 52.0
267.626251 128.0
267.707672 44.0
267.789093 132.0
267.984528 92.0
268.098602 140.0
268.141113 580.0
268.180603 100.0
268.812744 88.0
269.137085 712.0
269.887421 124.0
270.086914 152.0
270.145142 636.0
270.279907 32.0
270.319183 168.0
270.420624 156.0
270.669434 120.0
271.107544 252.0
271.146027 280.0
271.181244 228.0
271.223083 44.0
271.570648 44.0
272.119812 284.0
272.1427 296.0
272.181061 228.0
272.276276 72.0
273.078217 36.0
273.12796 488.0
273.167084 532.0
273.5224 124.0
273.575073 56.0
273.835175 100.0
273.963654 84.0
274.134033 168.0
274.19101 356.0
275.145294 316.0
275.207001 32.0
276.113617 180.0
276.137817 124.0
276.188904 132.0
276.674957 60.0
277.116913 276.0
277.158875 860.0
277.370605 132.0
277.400421 68.0
277.443542 28.0
277.466736 60.0
277.576141 152.0
277.66568 72.0
277.702179 64.0
277.818268 108.0
277.96756 132.0
278.043884 184.0
278.100311 36.0
278.161926 284.0
278.897461 124.0
279.136597 368.0
280.012054 136.0
280.152435 336.0
280.418518 188.0
280.778595 56.0
281.151733 312.0
282.159149 440.0
283.027527 132.0
283.165344 1516.0
284.164124 280.0
284.37854 36.0
284.49939 76.0
285.164429 4268.0
285.224945 124.0
285.517456 44.0
285.826965 56.0
285.988495 52.0
286.012054 80.0
286.165955 760.0
286.197205 156.0
286.608124 88.0
286.844055 48.0
286.901367 120.0
287.142365 488.0
287.174774 324.0
287.319519 44.0
287.46463 64.0
287.77179 116.0
288.152557 328.0
288.278442 112.0
288.670563 44.0
288.903961 72.0
289.07312 36.0
289.133026 216.0
289.156403 248.0
289.343903 76.0
289.377747 84.0
289.61142 200.0
289.665619 44.0
289.875671 56.0
290.02478 92.0
290.085785 84.0
290.127899 132.0
290.170563 132.0
290.194275 116.0
291.090057 148.0
291.129333 312.0
291.161377 120.0
292.041626 96.0
292.130676 124.0
292.174286 140.0
293.056091 120.0
293.113831 148.0
293.154907 336.0
293.192383 200.0
293.390076 160.0
293.434387 208.0
293.598083 36.0
293.898254 124.0
294.099609 204.0
294.125458 140.0
294.158051 228.0
294.201996 124.0
294.950348 108.0
294.977448 148.0
295.166779 1220.0
295.254395 48.0
295.429413 72.0
295.490417 40.0
295.651245 76.0
296.12793 152.0
296.171478 888.0
296.863953 156.0
297.110901 112.0
297.156769 848.0
297.234406 32.0
297.448334 144.0
297.759644 52.0
298.158997 400.0
298.464111 108.0
299.158569 280.0
299.248596 216.0
299.300232 72.0
300.044434 76.0
300.092712 48.0
300.156372 304.0
300.240997 220.0
300.378937 164.0
300.437592 72.0
301.114136 116.0
301.158539 484.0
301.867493 80.0
302.03006 76.0
302.16745 532.0
303.172058 2432.0
303.304291 40.0
304.129791 136.0
304.180756 312.0
304.688873 60.0
304.886932 176.0
305.15387 632.0
305.340363 104.0
306.156494 340.0
306.686279 28.0
307.118622 104.0
307.159698 176.0
308.143372 240.0
308.546875 56.0
309.141632 180.0
310.141754 144.0
311.156555 436.0
312.158295 192.0
312.182922 124.0
313.171814 900.0
314.12616 140.0
314.138611 104.0
314.149597 168.0
314.483459 184.0
314.571716 76.0
314.808258 128.0
314.914215 100.0
315.125671 148.0
315.172668 1464.0
316.109131 112.0
316.176208 340.0
316.225922 108.0
317.154572 296.0
317.458801 88.0
317.522614 76.0
318.155548 216.0
318.191467 132.0
319.126007 132.0
319.16861 260.0
321.191437 468.0
322.417084 136.0
323.039948 80.0
323.10434 220.0
323.161743 2464.0
323.562439 40.0
324.171906 692.0
325.006836 84.0
325.15918 516.0
325.462677 52.0
326.15863 260.0
326.74939 72.0
327.16684 140.0
327.192047 128.0
327.393677 120.0
327.505341 28.0
327.905273 64.0
328.153229 168.0
329.174347 132.0
329.677246 92.0
330.429321 36.0
330.47998 68.0
330.979492 200.0
331.162354 408.0
332.178345 184.0
333.141052 108.0
333.184448 600.0
333.693451 96.0
334.12262 72.0
334.178711 248.0
335.19693 128.0
336.148438 52.0
336.61499 108.0
336.933441 72.0
337.262329 152.0
337.317139 116.0
339.935822 100.0
340.29187 40.0
340.72525 148.0
340.765656 112.0
340.989807 40.0
341.171814 1416.0
341.425354 144.0
341.666382 188.0
341.83197 52.0
341.990204 60.0
342.173584 484.0
342.325226 148.0
342.774628 144.0
342.833588 92.0
343.168121 1600.0
343.471436 128.0
343.618988 40.0
343.733368 52.0
343.785034 44.0
343.973267 48.0
344.002777 84.0
344.043396 56.0
344.184052 204.0
344.782135 40.0
345.183105 204.0
345.277527 68.0
345.403259 28.0
346.084229 88.0
346.16568 84.0
346.691711 64.0
348.844421 68.0
349.186523 184.0
349.517609 48.0
350.452179 80.0
351.186005 172.0
351.272339 88.0
352.201782 112.0
355.175781 188.0
357.187103 136.0
357.913452 72.0
359.183411 180.0
360.179993 172.0
360.338684 104.0
361.177368 1784.0
361.385956 32.0
361.779572 84.0
362.180817 256.0
362.305939 88.0
364.236816 124.0
364.373566 100.0
365.023499 68.0
365.103363 104.0
365.426697 136.0
365.47995 172.0
366.199463 232.0
368.713684 28.0
368.904785 84.0
369.080658 52.0
371.232666 144.0
373.194824 188.0
379.174316 108.0
379.205322 132.0
381.203949 136.0
382.401764 44.0
385.252136 104.0
393.997101 112.0
399.218445 308.0
400.259796 96.0
402.211823 152.0
410.155426 52.0
413.924774 80.0
417.23291 128.0
418.228027 152.0
418.238373 148.0
419.221802 564.0
420.23465 268.0
421.114868 104.0
421.21698 116.0
423.450226 56.0
428.548096 52.0
433.688934 160.0
435.680725 64.0
436.104584 56.0
436.649231 120.0
436.7948 120.0
437.233612 1492.0
437.910309 48.0
438.022766 76.0
438.23822 528.0
438.281738 148.0
438.460236 72.0
438.560272 64.0
438.956329 68.0
439.18988 96.0
439.243378 324.0
440.237427 264.0
440.864044 76.0
442.633514 48.0
447.07901 64.0
447.693634 52.0
448.776581 112.0
450.735077 64.0
455.22522 80.0
467.051086 72.0
467.56308 108.0
470.049561 72.0
470.148834 72.0
475.493622 116.0
483.158295 200.0
485.234192 80.0
489.126404 104.0
496.159119 72.0
504.680725 68.0
513.789062 64.0
516.594421 80.0
521.450684 108.0
524.372559 88.0
527.156372 164.0
529.054504 52.0
539.710083 60.0
542.575989 36.0
556.080322 52.0
557.315369 132.0
570.344604 44.0
601.243896 132.0
601.649048 76.0
604.757935 88.0
607.580444 88.0
612.762268 84.0
612.87561 56.0
621.935486 64.0
622.203552 120.0
622.258179 92.0
630.182251 60.0
656.29834 52.0
660.670166 60.0
661.877991 124.0
695.899414 68.0
711.224731 44.0
750.456299 56.0
760.275085 28.0
767.216553 116.0
777.399292 140.0
782.240234 152.0
788.805786 120.0
816.627319 92.0
816.70697 92.0
819.826904 72.0
821.121033 68.0
830.420654 180.0
860.775452 140.0
867.937622 268.0
868.125244 52.0
869.181152 80.0
888.777222 168.0
900.468872 48.0
918.191833 152.0
919.887329 180.0
920.09259 36.0
933.179077 88.0
941.966919 216.0
952.951355 216.0
962.825684 108.0
964.815308 236.0
966.646057 44.0
971.956482 156.0
981.785095 184.0
983.313538 172.0
987.66217 164.0
1000.904175 172.0
1007.994202 136.0
1008.721008 96.0
1012.57428 148.0
1014.646362 72.0
1022.726624 172.0
1034.452515 104.0
1034.618896 188.0
1040.099854 164.0
1040.497803 156.0
1043.941772 76.0
1046.934204 176.0
1050.769409 216.0
1055.342163 148.0
1063.679932 104.0
1066.524902 76.0
1069.490967 468.0
1070.584717 148.0
1071.802856 108.0
1078.14563 152.0
1078.394043 180.0
1089.481079 52.0
1091.143799 192.0
1091.36084 156.0
1092.406494 48.0
1095.62561 80.0
1098.44043 200.0
1099.852539 188.0
1100.142944 168.0
1101.496704 64.0
1102.329224 56.0
1103.525513 52.0
1107.05896 172.0
1108.629028 172.0
1109.895142 148.0
1112.774658 196.0
1116.469238 120.0
1124.957764 128.0
1127.308716 104.0
1128.953247 144.0
1129.688965 148.0
1137.965698 172.0
1141.943848 48.0
1144.386597 80.0
1145.403564 200.0
1153.115601 116.0
1153.487305 124.0
1156.876465 160.0
1161.070557 96.0
1165.048096 164.0
1165.775146 120.0
1168.739868 160.0
1168.828369 264.0
1174.503296 188.0
1175.158203 148.0
1175.670776 72.0
1175.751953 196.0
1177.581665 164.0
1180.157837 84.0
1184.489868 60.0
1184.866699 120.0
1192.462891 132.0
1192.779053 52.0
1193.858398 156.0
1196.769165 196.0
1202.394165 172.0
1203.236328 52.0
1205.508789 120.0
1207.700317 232.0
1211.091919 136.0
1211.902466 68.0
1212.851807 180.0
1216.792114 112.0
1220.571777 184.0
1223.396484 68.0
1225.179321 144.0
1228.218628 176.0
1231.142944 216.0
1232.009033 128.0
1233.609375 148.0
1234.140747 120.0
1234.448364 156.0
1234.574219 192.0
1235.973267 172.0
1236.386108 236.0
1236.736084 108.0
1243.976929 128.0
1244.047119 128.0
1245.170654 220.0
1245.873047 196.0
1250.014282 148.0
1250.373169 92.0
1250.689941 152.0
1251.26709 152.0
1256.073242 176.0
1256.348389 160.0
1256.623535 104.0
1258.628052 204.0
1259.899292 180.0
1260.196045 92.0
1262.196411 240.0
1269.206421 176.0
1270.979614 176.0
1272.058472 160.0
1275.460938 124.0
1278.198975 144.0
1278.312866 96.0
1278.668701 132.0
1279.950073 176.0
1282.742798 236.0
1284.974976 164.0
1285.624268 68.0
1286.530762 268.0
1288.101807 152.0
1289.966797 92.0
1297.290039 192.0
1298.774292 156.0
1299.891602 176.0
1300.259521 196.0
1301.408081 160.0
1303.433594 124.0
1307.27356 180.0
1308.295654 120.0
1309.562866 184.0
1311.328125 132.0
1312.546387 180.0
1313.42627 200.0
1315.822144 172.0
1317.121948 192.0
1318.668213 224.0
1319.130859 212.0
1319.680298 196.0
1320.049072 188.0
1322.132446 144.0
1323.182007 48.0
1324.224731 48.0
1325.093994 228.0
1326.144775 112.0
1327.31189 200.0
1331.201416 156.0
1332.421631 96.0
1333.606079 136.0
1334.187622 156.0
1334.405762 188.0
1334.703857 64.0
1337.264526 140.0
1341.65686 152.0
1342.138062 184.0
1344.599243 156.0
1347.955688 128.0
1348.006836 120.0
1350.293823 160.0
1350.514526 104.0
1351.041138 212.0
1351.882568 52.0
1355.177612 192.0
1356.914673 84.0
1359.415894 184.0
1363.14624 160.0
1363.27124 140.0
1363.388794 108.0
1363.645996 136.0
1365.59436 112.0
1369.348022 188.0
1370.615112 60.0
1370.924561 212.0
1372.649536 176.0
1372.959229 104.0
1373.224731 136.0
1373.807495 104.0
1376.530884 224.0
1378.547607 156.0
1380.491821 132.0
1381.223999 88.0
1382.54834 172.0
1383.799316 152.0
1385.273071 172.0
1386.147339 112.0
1390.98291 112.0
1391.19812 152.0
1392.326782 180.0
1394.695679 160.0
1398.177612 144.0
1399.763306 164.0
1400.984741 168.0
1404.421143 132.0
1407.943848 176.0
1409.116577 92.0
1409.295898 164.0
1409.990845 92.0
1410.64856 156.0
1411.515869 216.0
1414.965088 60.0
1415.107422 116.0
1415.189697 136.0
1415.339478 136.0
1415.489258 212.0
1415.976074 148.0
1418.748413 188.0
1419.59668 188.0
1420.023193 48.0
1420.150635 252.0
1420.495728 144.0
1421.380981 156.0
1421.448608 216.0
1421.516113 168.0
1422.003906 176.0
1422.649414 144.0
1424.924927 168.0
1425.165405 192.0
1427.773804 128.0
1432.9375 136.0
1433.238892 160.0
1434.97998 156.0
1436.186646 128.0
1436.888184 160.0
1437.212524 192.0
1437.454102 180.0
1437.770996 164.0
1439.409058 84.0
1443.043457 96.0
1443.905518 132.0
1444.389648 196.0
1444.911621 172.0
1447.12915 164.0
1449.075562 120.0
1451.561768 188.0
1452.676636 176.0
1452.820801 168.0
1452.889038 68.0
1453.253174 240.0
1456.19104 164.0
1458.006714 132.0
1458.759277 148.0
1458.873291 132.0
1459.025269 60.0
1459.344604 184.0
1459.534668 192.0
1459.914917 180.0
1460.127808 220.0
1464.367065 120.0
1464.786011 184.0
1469.871216 172.0
1470.893921 124.0
1471.855835 184.0
1473.727173 192.0
1474.13208 128.0
1474.659424 188.0
1476.280273 176.0
1476.356689 132.0
1476.540283 64.0
1477.695312 236.0
1479.218262 228.0
1479.784668 216.0
1481.93689 188.0
1482.327637 72.0
1482.956055 172.0
1483.048096 196.0
1483.853027 212.0
1484.397339 76.0
1485.647583 128.0
1486.65271 96.0
1487.458618 216.0
1487.55835 172.0
1488.157227 176.0
1488.955811 140.0
1489.355225 116.0
1490.292358 180.0
1491.529663 104.0
1492.106201 180.0
1492.236938 128.0
1492.644409 224.0
1494.952148 72.0
1497.2771 128.0
1499.927612 220.0
1500.266724 188.0
1501.199707 88.0
1501.315308 88.0
1501.963257 112.0
1502.125244 84.0
1502.811768 148.0
1503.776367 216.0
1504.038818 220.0
1504.177734 156.0
1505.28186 192.0
