>compound MLS001140956-01!
>formula C31H37N5O3
>ionization [M+H]+
>parentmass 528.297974
#inchi InChI=1S/C31H37N5O3/c1-20(2)26(28(37)32-22-13-16-34(17-14-22)19-21-9-5-4-6-10-21)36-29(38)31(3)27-24(15-18-35(31)30(36)39)23-11-7-8-12-25(23)33-27/h4-12,20,22,26,33H,13-19H2,1-3H3,(H,32,37)/t26-,31-/m0/s1
#inchikey MREAXUVKIBLUJE
#Ion_Source LC-ESI
#Instrument qTof
#Compound_Source NIH Natural Product Library
#PI Dorrestein
#Data_Collector VVP/LMS
#Scan -1
#Precursor_MZ 528.297
#ExactMass 527.29
#Charge 1
#CAS_Number N/A
#Pubmed_ID N/A
#Smiles CC(C)[C@H](N1C(=O)N2CCc3c([nH]c4ccccc34)[C@@]2(C)C1=O)C(=O)NC5CCN(Cc6ccccc6)CC5
#INCHI_AUX N/A
#Library_Class 1
#SpectrumID CCMSLIB00000079569
#IonMode Positive
#UpdateWorkflowName UPDATE-SINGLE-ANNOTATED-GOLD
#LibraryQualityString Gold
#TaskID b1d8e8f6646f4e71acdff9ca3d919d08
##Scan# 1928
#SpectrumFile p1-C08_GC8_01_17904.mzXML
#LibraryName NIH_Natural_Products_Library.mgf
#MQScore -1
#Organism NIH_Natural_Products_Library
#TIC_Query 0
#RT_Query -1
#MZErrorPPM -1
#SharedPeaks 0
#MassDiff 0
#LibMZ -1
#SpecMZ 528.297
#SpecCharge 0
#internalFilename spec-00000.mgf

>collision 10
95.089119 160.0
95.124168 276.0
95.146164 228.0
95.192009 264.0
95.213371 156.0
95.236679 108.0
95.254158 60.0
95.339645 116.0
95.396011 160.0
95.417397 196.0
95.556236 92.0
95.69561 72.0
95.738441 72.0
95.771553 64.0
95.802597 188.0
95.843178 188.0
95.931335 124.0
95.95134 168.0
96.011269 200.0
96.085175 396.0
96.157593 112.0
96.210289 172.0
96.231766 172.0
96.276436 196.0
96.402611 180.0
96.427971 172.0
96.524849 168.0
96.569832 152.0
96.620331 176.0
96.640251 152.0
96.69796 224.0
96.76355 172.0
96.79834 208.0
96.912399 168.0
97.137848 164.0
97.153542 116.0
97.199974 156.0
97.326248 148.0
97.353745 144.0
97.381233 68.0
97.394989 188.0
97.410698 76.0
97.458611 144.0
97.497147 136.0
97.581673 156.0
97.61116 36.0
97.626015 168.0
97.648529 128.0
97.689835 196.0
97.709503 92.0
97.816635 132.0
97.853172 68.0
97.904366 168.0
97.943756 192.0
97.961487 140.0
97.979218 128.0
98.014679 44.0
98.059929 808.0
98.089569 184.0
98.121109 132.0
98.144768 156.0
98.166458 176.0
98.192093 124.0
98.224953 164.0
98.272972 72.0
98.432045 128.0
98.474319 132.0
98.491333 156.0
98.513824 140.0
98.547523 140.0
98.569145 104.0
98.598785 252.0
98.619209 168.0
98.665993 124.0
98.79631 156.0
98.842018 124.0
98.895447 148.0
98.92514 116.0
98.944939 176.0
98.980576 192.0
99.006767 140.0
99.029419 168.0
99.047905 188.0
99.065735 332.0
99.087524 124.0
99.117249 132.0
99.17868 112.0
99.202469 128.0
99.238152 148.0
99.275826 200.0
99.303589 100.0
99.337845 208.0
99.363098 60.0
99.390877 120.0
99.408737 136.0
99.468277 124.0
99.511948 72.0
99.595352 176.0
99.673492 60.0
99.702255 104.0
99.725288 192.0
99.794075 168.0
99.833839 136.0
99.868675 296.0
99.95916 52.0
99.988365 172.0
100.040764 160.0
100.105278 148.0
100.134346 112.0
100.150276 184.0
100.244675 220.0
100.270874 136.0
100.305695 32.0
100.333603 160.0
100.387436 224.0
100.401398 160.0
100.41935 184.0
100.441284 184.0
100.465225 148.0
100.592934 112.0
100.666855 168.0
100.696762 172.0
100.718735 168.0
100.745178 184.0
100.811775 168.0
100.840614 172.0
100.869308 156.0
100.954567 128.0
101.00856 124.0
101.080589 184.0
101.107269 476.0
101.170647 48.0
101.208687 84.0
101.242729 84.0
101.282784 108.0
101.296806 168.0
101.318558 140.0
101.338875 180.0
101.491203 208.0
101.555374 224.0
101.68779 168.0
101.723923 264.0
101.80323 160.0
101.842392 108.0
101.956909 136.0
101.992233 180.0
102.057159 188.0
102.11171 164.0
102.153946 140.0
102.170036 160.0
102.205971 172.0
102.234421 144.0
102.296928 148.0
102.375336 268.0
102.453888 136.0
102.498215 116.0
102.519302 172.0
102.531029 112.0
102.669556 128.0
102.689728 88.0
102.709892 172.0
102.756294 216.0
102.778488 120.0
102.791779 116.0
102.885452 80.0
102.994492 220.0
103.024796 160.0
103.055099 188.0
103.093491 148.0
103.12178 120.0
103.191963 152.0
103.314072 204.0
103.384689 144.0
103.469704 116.0
103.520325 136.0
103.609444 116.0
103.710754 152.0
103.757378 208.0
103.804016 180.0
103.858772 140.0
103.901367 144.0
103.935226 128.0
103.988625 136.0
104.029221 96.0
104.043427 168.0
104.065758 220.0
104.096756 256.0
104.137863 144.0
104.203865 36.0
104.220123 48.0
104.274986 180.0
104.315636 120.0
104.3685 44.0
104.401031 104.0
104.441704 224.0
104.513939 168.0
104.592278 144.0
104.613159 232.0
104.632988 108.0
104.665565 164.0
104.699379 112.0
104.778404 168.0
104.782616 68.0
104.790794 132.0
104.8489 108.0
104.934509 160.0
104.948784 176.0
104.999268 200.0
105.015312 168.0
105.034431 80.0
105.073578 348.0
105.171143 176.0
105.198013 120.0
105.271179 172.0
105.35083 156.0
105.396263 168.0
105.413147 104.0
105.490883 172.0
105.716812 120.0
105.802773 160.0
105.847816 144.0
105.87307 132.0
105.899017 92.0
105.939903 176.0
105.972763 44.0
106.007591 192.0
106.026039 168.0
106.065025 384.0
106.138931 108.0
106.202354 196.0
106.249977 148.0
106.309036 228.0
106.325455 140.0
106.360977 156.0
106.395241 172.0
106.456833 112.0
106.537979 168.0
106.58419 156.0
106.77948 184.0
106.847359 156.0
106.876808 140.0
106.977005 96.0
106.995537 152.0
107.034248 144.0
107.131454 236.0
107.145874 128.0
107.209747 100.0
107.393234 172.0
107.436546 104.0
107.513359 140.0
107.706314 140.0
107.736855 204.0
107.781334 224.0
107.822662 136.0
107.837128 164.0
107.909477 208.0
108.045647 176.0
108.108177 192.0
108.1269 164.0
108.170135 92.0
108.209473 96.0
108.273659 124.0
108.306801 116.0
108.337868 80.0
108.353851 196.0
108.37516 96.0
108.391136 180.0
108.491219 208.0
108.536835 116.0
108.572083 176.0
108.64164 188.0
108.721451 120.0
108.773338 152.0
108.79409 92.0
108.831467 132.0
108.864685 160.0
108.956078 164.0
108.974777 132.0
109.005943 136.0
109.028801 172.0
109.052368 164.0
109.071899 184.0
109.159462 192.0
109.163216 164.0
109.265839 144.0
109.378212 120.0
109.41214 188.0
109.457954 172.0
109.507301 172.0
109.573196 164.0
109.623192 88.0
109.688576 148.0
109.769882 116.0
109.793701 256.0
109.861649 120.0
109.915894 140.0
109.934677 208.0
109.95137 64.0
109.970154 176.0
109.997284 168.0
110.112122 120.0
110.155983 136.0
110.170609 124.0
110.239555 228.0
110.438164 152.0
110.5616 120.0
110.902977 148.0
110.919746 168.0
110.942802 188.0
110.962494 204.0
110.980537 136.0
110.997314 104.0
111.039253 244.0
111.095718 100.0
111.158829 140.0
111.196602 132.0
111.238579 112.0
111.255371 124.0
111.297363 192.0
111.339363 108.0
111.370865 188.0
111.404472 172.0
111.433884 100.0
111.450691 116.0
111.478981 156.0
111.483612 72.0
111.491982 204.0
111.536858 136.0
111.559975 104.0
111.664017 200.0
111.732422 144.0
111.78923 208.0
111.82711 176.0
111.858681 136.0
111.93026 112.0
111.947105 124.0
112.098076 60.0
112.143036 108.0
112.269524 188.0
112.284286 164.0
112.311707 160.0
112.345459 140.0
112.434074 96.0
112.480507 144.0
112.539619 164.0
112.562607 216.0
112.615639 224.0
112.700142 160.0
112.78904 120.0
112.855438 160.0
112.95594 120.0
112.985558 144.0
113.036331 152.0
113.091354 36.0
113.125221 84.0
113.184502 52.0
113.226852 92.0
113.260742 116.0
113.300041 108.0
113.343422 164.0
113.364555 148.0
113.410919 164.0
113.479012 104.0
113.543686 200.0
113.752678 156.0
113.799385 40.0
113.909813 164.0
113.967171 140.0
114.028793 172.0
114.081932 232.0
114.27121 220.0
114.313156 140.0
114.320686 188.0
114.408478 104.0
114.423187 136.0
114.452118 76.0
114.469154 156.0
114.492577 228.0
114.588432 228.0
114.61187 188.0
114.726952 192.0
114.805847 108.0
114.85611 168.0
114.882629 140.0
114.910362 168.0
114.959435 248.0
115.013107 164.0
115.052933 636.0
115.086586 288.0
115.103043 232.0
115.125946 48.0
115.153709 160.0
115.172928 172.0
115.230606 188.0
115.377441 136.0
115.418686 172.0
115.54274 72.0
115.703247 132.0
115.803886 156.0
115.825302 236.0
115.888191 124.0
115.987579 156.0
116.032219 172.0
116.056503 140.0
116.059982 284.0
116.217613 104.0
116.271263 64.0
116.290573 136.0
116.342094 176.0
116.370003 176.0
116.447304 188.0
116.475227 220.0
116.572212 168.0
116.61274 200.0
116.637054 140.0
116.660027 60.0
116.709473 120.0
116.745491 192.0
116.841469 32.0
116.888 112.0
116.920212 128.0
116.980545 176.0
117.070366 1748.0
117.157288 160.0
117.262703 148.0
117.556 196.0
117.606354 72.0
117.64843 160.0
117.724373 104.0
117.752449 96.0
117.776619 168.0
117.80645 184.0
117.831314 200.0
117.862617 184.0
117.923126 196.0
117.991386 208.0
118.033379 136.0
118.068001 468.0
118.100418 40.0
118.137192 164.0
118.297325 136.0
118.338455 336.0
118.409912 108.0
118.472794 128.0
118.582672 184.0
118.615746 164.0
118.641609 172.0
118.659103 164.0
118.689453 164.0
118.717644 124.0
118.732826 208.0
118.808739 196.0
118.85923 148.0
118.887215 192.0
118.925919 240.0
118.96933 88.0
119.056488 112.0
119.074699 124.0
119.138718 172.0
119.177818 140.0
119.239471 204.0
119.314384 172.0
119.329399 140.0
119.440865 92.0
119.590996 156.0
119.651947 168.0
119.691269 208.0
119.785362 180.0
119.802574 240.0
119.908974 112.0
119.932953 180.0
119.948212 176.0
119.978729 200.0
120.081314 2128.0
120.12458 68.0
120.201195 104.0
120.231743 100.0
120.30159 44.0
120.321236 124.0
120.504738 168.0
120.523048 208.0
120.574615 160.0
120.592094 168.0
120.613953 124.0
120.640182 56.0
120.655487 192.0
120.714523 208.0
120.732018 204.0
120.762634 104.0
120.827919 208.0
120.854271 216.0
120.92672 144.0
120.969498 160.0
121.001144 144.0
121.038368 156.0
121.065826 160.0
121.081612 368.0
121.125969 188.0
121.211411 172.0
121.231133 176.0
121.26181 68.0
121.415276 204.0
121.461594 168.0
121.492043 68.0
121.549088 160.0
121.610535 164.0
121.679222 124.0
121.70932 68.0
121.762024 132.0
121.81366 212.0
121.894676 172.0
121.922401 180.0
122.001526 224.0
122.021309 116.0
122.097588 168.0
122.129059 156.0
122.151054 108.0
122.189384 180.0
122.223656 172.0
122.344704 116.0
122.377724 124.0
122.416008 104.0
122.443787 104.0
122.500191 316.0
122.555191 188.0
122.580368 120.0
122.63546 96.0
122.682693 168.0
122.792 248.0
122.853653 172.0
122.968498 100.0
123.001602 324.0
123.20034 128.0
123.313034 124.0
123.419197 156.0
123.447884 224.0
123.494331 116.0
123.560692 80.0
123.622643 164.0
123.719795 188.0
123.751022 52.0
123.797523 44.0
123.813026 192.0
123.91935 88.0
123.950363 108.0
123.965874 156.0
123.996902 108.0
124.074753 1568.0
124.116425 144.0
124.152084 156.0
124.203094 32.0
124.240707 176.0
124.248833 168.0
124.282959 172.0
124.358551 128.0
124.436104 208.0
124.478287 180.0
124.547356 160.0
124.564903 176.0
124.667107 188.0
124.751564 188.0
124.767128 132.0
124.809372 108.0
124.843384 216.0
124.913895 144.0
124.973961 200.0
125.072945 92.0
125.191582 172.0
125.207687 160.0
125.232185 128.0
125.337105 164.0
125.417114 144.0
125.477303 132.0
125.573189 200.0
125.59549 120.0
125.67408 192.0
125.731628 220.0
125.756134 56.0
125.836494 200.0
125.867752 120.0
125.930283 36.0
126.002655 220.0
126.039604 320.0
126.06295 152.0
126.081383 152.0
126.09697 112.0
126.149254 92.0
126.18502 164.0
126.243156 144.0
126.267761 192.0
126.299072 60.0
126.321442 164.0
126.399742 120.0
126.428833 180.0
126.453453 40.0
126.485672 212.0
126.510788 188.0
126.661674 92.0
126.711723 164.0
126.735603 196.0
126.849899 128.0
126.883522 60.0
127.048943 280.0
127.086937 292.0
127.121277 32.0
127.161667 200.0
127.231209 196.0
127.267174 156.0
127.28933 212.0
127.392944 88.0
127.413162 52.0
127.442368 144.0
127.527756 148.0
127.635666 164.0
127.65815 112.0
127.745865 156.0
127.766113 88.0
127.786362 176.0
127.880867 72.0
127.929932 176.0
127.971298 152.0
127.998749 188.0
128.046463 200.0
128.092514 188.0
128.152481 104.0
128.187149 188.0
128.225449 212.0
128.305847 192.0
128.353943 88.0
128.384262 180.0
128.393661 176.0
128.462204 164.0
128.489273 36.0
128.523117 56.0
128.541168 96.0
128.626923 228.0
128.692398 164.0
128.821442 168.0
128.981552 124.0
129.01593 156.0
129.070587 800.0
129.107101 152.0
129.180542 192.0
129.341202 180.0
129.361572 160.0
129.446503 132.0
129.464645 144.0
129.492905 180.0
129.530029 112.0
129.558578 136.0
129.637878 104.0
129.663101 160.0
129.680267 204.0
129.728546 144.0
129.762543 132.0
129.80336 192.0
129.835114 212.0
129.907684 120.0
129.928101 132.0
129.959869 108.0
130.007523 160.0
130.037018 168.0
130.064774 1388.0
130.114197 68.0
130.134628 168.0
130.170959 124.0
130.195938 184.0
130.239365 164.0
130.320877 208.0
130.382233 108.0
130.398132 164.0
130.440186 96.0
130.493607 76.0
130.524445 164.0
130.562531 216.0
130.611862 180.0
130.682373 148.0
130.70285 80.0
130.766571 160.0
130.791611 124.0
130.829865 164.0
130.83783 132.0
130.847046 204.0
130.86673 192.0
130.891785 164.0
130.916824 156.0
131.001099 204.0
131.086533 328.0
131.146927 156.0
131.255035 172.0
131.299683 212.0
131.32933 92.0
131.358978 156.0
131.438828 100.0
131.489029 60.0
131.562073 52.0
131.614594 44.0
131.669388 100.0
131.705933 108.0
131.76532 184.0
131.854446 156.0
131.895584 136.0
131.960602 136.0
131.991592 196.0
132.081497 316.0
132.183746 184.0
132.245529 132.0
132.387466 192.0
132.499084 176.0
132.515747 188.0
132.552399 132.0
132.577606 68.0
132.76329 76.0
132.795395 116.0
132.822922 172.0
132.850449 212.0
132.891739 308.0
132.97435 100.0
133.008789 132.0
133.135056 196.0
133.15802 152.0
133.200562 184.0
133.341812 120.0
133.422272 128.0
133.445251 152.0
133.470551 164.0
133.528046 132.0
133.564835 28.0
133.587845 88.0
133.623169 156.0
133.675262 244.0
133.697159 132.0
133.776535 160.0
133.815674 32.0
133.923904 144.0
133.981491 144.0
134.098999 220.0
134.152023 68.0
134.218872 152.0
134.258072 128.0
134.309677 96.0
134.375717 148.0
134.488785 124.0
134.576508 196.0
134.599594 192.0
134.754349 120.0
134.890701 208.0
134.970352 88.0
135.038681 156.0
135.081009 172.0
135.10112 76.0
135.131195 140.0
135.154343 64.0
135.19368 136.0
135.226074 204.0
135.307098 40.0
135.358032 84.0
135.378586 144.0
135.406662 160.0
135.441406 156.0
135.46225 164.0
135.483093 180.0
135.546997 220.0
135.562759 208.0
135.638351 92.0
135.696304 208.0
135.749634 92.0
135.781799 156.0
135.858643 208.0
135.888809 108.0
135.928619 200.0
135.949127 40.0
136.165039 164.0
136.209167 136.0
136.260269 112.0
136.420624 152.0
136.499664 180.0
136.562637 208.0
136.632248 184.0
136.653183 64.0
136.691727 196.0
136.792816 192.0
136.839371 176.0
136.904572 148.0
136.934311 248.0
136.960464 228.0
137.016373 152.0
137.043411 132.0
137.092453 184.0
137.131058 144.0
137.156189 96.0
137.235443 52.0
137.295761 92.0
137.312988 248.0
137.454697 160.0
137.480362 76.0
137.571793 316.0
137.591751 200.0
137.655441 76.0
137.874954 128.0
138.00827 160.0
138.034042 164.0
138.078415 168.0
138.136887 264.0
138.190704 168.0
138.214096 88.0
138.286636 76.0
138.320267 152.0
138.359207 160.0
138.45755 156.0
138.509079 112.0
138.560608 176.0
138.595932 160.0
138.614502 60.0
138.649643 72.0
138.689499 152.0
138.722305 64.0
138.748093 128.0
138.773712 168.0
138.874725 160.0
138.902863 180.0
139.083542 208.0
139.168045 116.0
139.188782 140.0
139.269028 180.0
139.353012 356.0
139.421738 216.0
139.442886 216.0
139.46875 152.0
139.532211 160.0
139.591782 72.0
139.612152 152.0
139.666245 108.0
139.725693 396.0
139.746231 128.0
139.887436 64.0
139.925095 148.0
139.948639 72.0
140.012222 80.0
140.082886 204.0
140.132355 144.0
140.17775 212.0
140.198334 160.0
140.224258 220.0
140.298996 124.0
140.332687 168.0
140.359314 124.0
140.389282 172.0
140.436447 168.0
140.471298 124.0
140.540237 148.0
140.565048 136.0
140.819611 172.0
140.866028 128.0
141.005432 128.0
141.063721 304.0
141.09053 132.0
141.107071 152.0
141.140488 152.0
141.189835 128.0
141.225311 196.0
141.274979 108.0
141.428787 120.0
141.498856 200.0
141.5159 68.0
141.523132 136.0
141.608734 128.0
141.628464 168.0
141.660843 80.0
141.694 76.0
141.717697 216.0
141.762726 124.0
141.867004 120.0
141.904343 112.0
141.995041 144.0
142.026627 88.0
142.066269 408.0
142.153992 140.0
142.244171 60.0
142.263168 152.0
142.456726 140.0
142.512527 160.0
142.52916 164.0
142.576691 160.0
142.618637 80.0
142.645615 176.0
142.79541 120.0
142.908524 160.0
143.026199 124.0
143.049225 172.0
143.072525 1164.0
143.102402 168.0
143.147614 232.0
143.183334 156.0
143.259552 176.0
143.287247 168.0
143.332458 120.0
143.357239 172.0
143.419205 248.0
143.438263 88.0
143.477631 188.0
143.58847 200.0
143.631409 208.0
143.665924 196.0
143.793655 116.0
143.819901 72.0
143.866989 236.0
143.90921 184.0
143.917786 76.0
143.92395 184.0
143.963089 184.0
143.971695 180.0
144.015686 348.0
144.045792 200.0
144.081543 55724.0
144.167297 200.0
144.205963 84.0
144.244598 140.0
144.255066 88.0
144.292877 48.0
144.32077 72.0
144.363266 100.0
144.409805 156.0
144.440475 100.0
144.461319 184.0
144.471039 64.0
144.475449 116.0
144.507904 44.0
144.536835 32.0
144.555313 72.0
144.577011 244.0
144.616409 144.0
144.651718 192.0
144.701462 164.0
144.738693 124.0
144.764328 104.0
144.791458 200.0
144.833694 68.0
144.877441 228.0
145.006195 172.0
145.084686 6204.0
145.150177 68.0
145.194092 108.0
145.22438 84.0
145.320328 88.0
145.346054 196.0
145.38031 104.0
145.398285 156.0
145.424683 132.0
145.464325 144.0
145.532715 196.0
145.560349 136.0
145.585587 188.0
145.626862 144.0
145.717865 128.0
145.766922 224.0
145.795761 164.0
145.820328 164.0
145.863068 56.0
145.880737 192.0
145.923157 136.0
145.983276 128.0
146.006134 136.0
146.054855 204.0
146.096725 1716.0
146.134811 164.0
146.162445 308.0
146.193359 96.0
146.231064 144.0
146.24791 108.0
146.305679 116.0
146.339386 88.0
146.358643 124.0
146.493515 96.0
146.512787 152.0
146.532059 148.0
146.55011 128.0
146.589371 168.0
146.789963 164.0
146.833359 40.0
146.874359 160.0
146.94191 76.0
146.973282 52.0
147.02066 144.0
147.09877 152.0
147.156708 124.0
147.219879 52.0
147.241226 108.0
147.393402 120.0
147.427246 44.0
147.473206 196.0
147.606125 80.0
147.642395 216.0
147.681091 148.0
147.714951 180.0
147.828659 148.0
147.891586 156.0
147.942825 168.0
147.975479 128.0
148.005356 108.0
148.094971 232.0
148.12645 68.0
148.351807 144.0
148.409988 144.0
148.426971 92.0
148.45607 164.0
148.610321 112.0
148.679245 92.0
148.696243 84.0
148.744781 188.0
148.790909 240.0
148.868607 168.0
148.885605 68.0
148.92688 76.0
148.94632 148.0
148.975464 168.0
149.072647 172.0
149.206329 104.0
149.23793 164.0
149.352234 80.0
149.393585 180.0
149.567322 180.0
149.609299 124.0
149.636948 160.0
149.658859 192.0
149.683212 148.0
149.702682 224.0
149.905045 164.0
149.956055 176.0
150.000244 212.0
150.082703 176.0
150.216949 152.0
150.275497 204.0
150.309647 140.0
150.351135 192.0
150.408005 120.0
150.423859 176.0
150.509796 236.0
150.535187 152.0
150.582306 168.0
150.722305 40.0
150.788284 164.0
150.812729 128.0
150.834381 144.0
150.864059 92.0
150.95697 104.0
151.071838 132.0
151.099579 208.0
151.133331 180.0
151.151764 176.0
151.179565 104.0
151.262787 116.0
151.314407 136.0
151.350922 148.0
151.400909 212.0
151.431732 128.0
151.495148 184.0
151.512558 172.0
151.61792 168.0
151.66449 196.0
151.708618 152.0
151.777252 68.0
151.821396 160.0
151.926865 56.0
151.948944 124.0
152.012268 152.0
152.06926 128.0
152.1082 184.0
152.154541 128.0
152.21521 224.0
152.41655 44.0
152.474411 232.0
152.49408 128.0
152.545685 140.0
152.619446 160.0
152.641571 184.0
152.774384 148.0
152.982162 184.0
153.008179 140.0
153.059875 204.0
153.102249 292.0
153.1978 136.0
153.222427 100.0
153.306198 168.0
153.357956 232.0
153.376678 168.0
153.446701 96.0
153.463959 172.0
153.552734 120.0
153.592194 152.0
153.656326 156.0
153.875763 176.0
153.95993 112.0
154.034134 184.0
154.069809 312.0
154.207092 160.0
154.226761 132.0
154.446808 176.0
154.481445 88.0
154.498764 220.0
154.647232 156.0
154.681885 136.0
154.753677 160.0
154.848907 136.0
154.978577 164.0
155.051376 88.0
155.08313 156.0
155.104263 240.0
155.154938 200.0
155.231888 112.0
155.326126 108.0
155.353409 36.0
155.37822 104.0
155.482376 156.0
155.512665 88.0
155.653717 44.0
155.710831 152.0
155.782867 108.0
155.812683 180.0
155.857391 132.0
155.877274 80.0
156.009003 180.0
156.036346 84.0
156.053757 140.0
156.080322 688.0
156.118393 144.0
156.15242 252.0
156.173111 160.0
156.250229 236.0
156.3302 216.0
156.358856 140.0
156.453445 140.0
156.479187 136.0
156.613663 172.0
156.646942 188.0
156.819534 148.0
156.850372 108.0
156.938889 176.0
156.977509 200.0
157.01741 40.0
157.049667 176.0
157.098312 304.0
157.216995 220.0
157.29187 132.0
157.394226 76.0
157.491623 92.0
157.531586 164.0
157.591537 148.0
157.658447 140.0
157.711121 136.0
157.8013 112.0
157.8815 80.0
157.901505 152.0
157.951523 48.0
157.999054 188.0
158.019073 100.0
158.100952 464.0
158.156387 156.0
158.167221 160.0
158.174591 188.0
158.209274 140.0
158.269363 132.0
158.504807 56.0
158.577026 156.0
158.616211 228.0
158.655182 176.0
158.783066 92.0
159.006348 132.0
159.034485 188.0
159.126831 156.0
159.15947 112.0
159.252472 116.0
159.383011 32.0
159.418198 156.0
159.512543 192.0
159.566498 136.0
159.626831 252.0
159.64444 144.0
159.672104 116.0
159.709824 148.0
159.872665 176.0
159.882217 92.0
160.030792 184.0
160.263657 176.0
160.339249 68.0
160.372009 176.0
160.53653 172.0
160.593887 232.0
160.675827 124.0
160.694794 100.0
160.789551 116.0
160.864441 196.0
160.932037 196.0
161.012833 88.0
161.122574 180.0
161.164398 112.0
161.209885 152.0
161.230103 116.0
161.265488 132.0
161.288223 224.0
161.413513 172.0
161.467743 52.0
161.548676 140.0
161.587921 176.0
161.619278 172.0
161.627045 156.0
161.66507 136.0
161.706375 136.0
161.716293 180.0
161.751694 192.0
161.78656 152.0
161.842255 124.0
161.95874 116.0
162.06514 100.0
162.100616 112.0
162.135376 172.0
162.224808 212.0
162.275497 112.0
162.480927 132.0
162.515503 172.0
162.592575 208.0
162.640793 168.0
162.711868 272.0
162.732193 208.0
162.785507 140.0
162.817947 208.0
162.85408 152.0
162.976013 180.0
163.247986 176.0
163.291519 172.0
163.375168 176.0
163.400604 112.0
163.428589 156.0
163.512558 140.0
163.810104 172.0
163.853775 96.0
163.949783 144.0
164.038971 136.0
164.176132 140.0
164.287155 104.0
164.325424 132.0
164.350937 176.0
164.371353 152.0
164.424942 132.0
164.478882 172.0
164.531464 60.0
164.562775 216.0
164.613846 144.0
164.733887 80.0
164.802643 196.0
164.879303 196.0
164.943985 160.0
164.977951 228.0
165.089142 140.0
165.186325 116.0
165.275879 160.0
165.314255 236.0
165.455032 196.0
165.549759 156.0
165.682953 160.0
165.744446 164.0
165.814194 164.0
165.867447 44.0
165.895645 208.0
165.931534 192.0
166.072342 132.0
166.126434 72.0
166.168396 152.0
166.295425 140.0
166.329163 100.0
166.365097 204.0
166.415451 196.0
166.449814 176.0
166.490997 112.0
166.557678 160.0
166.621338 180.0
166.665573 156.0
166.736282 152.0
166.793732 132.0
166.96376 100.0
166.999771 184.0
167.022583 156.0
167.080383 312.0
167.205597 136.0
167.303406 192.0
167.367767 196.0
167.470779 196.0
167.517136 124.0
167.542892 144.0
167.573807 228.0
167.834122 100.0
167.926971 172.0
167.960495 124.0
167.996613 132.0
168.080536 2244.0
168.149139 136.0
168.16304 144.0
168.25209 48.0
168.303726 192.0
168.345032 120.0
168.41095 176.0
168.468231 192.0
168.520676 100.0
168.54393 92.0
168.572357 132.0
168.636963 216.0
168.680344 128.0
168.820526 208.0
168.851517 140.0
168.950455 144.0
168.984711 168.0
169.02858 184.0
169.080811 464.0
169.131989 356.0
169.234528 152.0
169.327744 180.0
169.347137 140.0
169.356384 68.0
169.365372 144.0
169.42099 128.0
169.48317 232.0
169.516861 192.0
169.675751 172.0
169.853897 40.0
169.872055 160.0
169.900589 20.0
169.97583 124.0
170.057632 84.0
170.079117 296.0
170.142563 164.0
170.243195 168.0
170.278854 164.0
170.370468 72.0
170.399048 152.0
170.453598 124.0
170.510773 128.0
170.549759 204.0
170.585571 108.0
170.595642 104.0
170.742157 120.0
170.84082 168.0
170.898224 124.0
170.942459 104.0
170.989304 164.0
171.04657 116.0
171.089783 556.0
171.174133 136.0
171.218674 176.0
171.280914 140.0
171.322586 168.0
171.366623 212.0
171.424194 56.0
171.456635 216.0
171.494568 80.0
171.515411 132.0
171.541489 124.0
171.59285 160.0
171.61969 308.0
171.690094 108.0
171.919662 160.0
171.977081 232.0
172.008408 108.0
172.05278 216.0
172.074478 168.0
172.111954 5672.0
172.231323 96.0
172.334183 176.0
172.366196 36.0
172.384491 48.0
172.419327 108.0
172.466583 168.0
172.596466 168.0
172.674667 156.0
172.732208 88.0
172.772552 132.0
172.794983 192.0
172.815918 80.0
172.835098 60.0
172.869995 192.0
172.899658 92.0
172.959854 168.0
172.985809 96.0
173.04805 144.0
173.114624 1064.0
173.160431 212.0
173.213837 208.0
173.25798 136.0
173.282928 192.0
173.31601 124.0
173.373657 212.0
173.42749 156.0
173.495758 232.0
173.546661 172.0
173.591232 128.0
173.633194 108.0
173.656799 124.0
173.700241 128.0
173.745987 88.0
173.766968 120.0
173.800995 132.0
173.843063 156.0
173.880798 380.0
173.901413 152.0
173.91124 180.0
173.946472 140.0
173.97197 224.0
173.995102 208.0
174.006622 152.0
174.031662 160.0
174.047409 292.0
174.053558 188.0
174.064667 288.0
174.085114 496.0
174.128433 137820.0
174.187378 360.0
174.21553 116.0
174.252457 160.0
174.282562 204.0
174.317825 248.0
174.367477 136.0
174.410889 76.0
174.429611 120.0
174.463303 156.0
174.528641 200.0
174.560913 440.0
174.591827 236.0
174.641708 116.0
174.666763 168.0
174.694763 48.0
174.740356 72.0
174.777359 92.0
174.840088 40.0
174.880127 208.0
174.936417 128.0
174.989456 108.0
175.012772 96.0
175.038666 168.0
175.092636 196.0
175.130951 18436.0
175.244537 64.0
175.291153 68.0
175.318176 76.0
175.366165 52.0
175.404297 48.0
175.428528 192.0
175.462097 88.0
175.483856 64.0
175.5159 172.0
175.54364 76.0
175.574036 72.0
175.623962 88.0
175.72113 68.0
175.768051 124.0
175.808823 52.0
175.843124 32.0
175.861603 128.0
175.888 84.0
175.917694 112.0
175.972275 156.0
175.982895 76.0
175.988464 156.0
176.027924 48.0
176.061127 104.0
176.065582 184.0
176.078094 140.0
176.086655 184.0
176.133041 1284.0
176.160233 204.0
176.180725 152.0
176.203369 244.0
176.223373 92.0
176.257721 144.0
176.275864 88.0
176.296738 136.0
176.318176 96.0
176.36554 256.0
176.396072 288.0
176.433395 188.0
176.462662 120.0
176.484055 112.0
176.541855 320.0
176.586197 120.0
176.614624 104.0
176.664871 64.0
176.715149 96.0
176.757477 92.0
176.805115 168.0
176.823639 144.0
176.874252 160.0
176.90033 164.0
176.926865 148.0
176.97316 140.0
177.049545 72.0
177.101624 136.0
177.133423 228.0
177.154602 140.0
177.226135 44.0
177.280975 208.0
177.316238 224.0
177.369766 164.0
177.395599 484.0
177.430206 40.0
177.49649 40.0
177.520355 164.0
177.546875 56.0
177.57605 72.0
177.618484 128.0
177.788284 80.0
177.828094 120.0
177.878525 96.0
177.91304 168.0
177.944901 116.0
178.000656 56.0
178.059082 136.0
178.082977 28.0
178.133438 244.0
178.178604 204.0
178.20517 188.0
178.343353 232.0
178.423096 124.0
178.485443 224.0
178.508179 200.0
178.529449 124.0
178.579987 132.0
178.614563 116.0
178.691711 88.0
178.736938 80.0
178.77153 140.0
178.800812 128.0
178.925903 132.0
179.040405 124.0
179.069702 116.0
179.11232 160.0
179.133621 328.0
179.274826 64.0
179.378769 124.0
179.434753 184.0
179.536087 88.0
179.57608 80.0
179.621429 180.0
179.64212 196.0
179.701462 176.0
179.749481 108.0
179.78418 60.0
179.925644 124.0
179.975372 304.0
180.083176 236.0
180.101883 124.0
180.121536 168.0
180.155304 156.0
180.264908 172.0
180.286224 68.0
180.403824 184.0
180.505417 156.0
180.6017 196.0
180.732773 260.0
180.818405 196.0
180.876221 180.0
180.917755 176.0
180.960281 124.0
181.064713 124.0
181.097092 452.0
181.504181 176.0
181.557816 104.0
181.750946 112.0
181.795197 172.0
181.863663 108.0
181.890503 132.0
181.971039 112.0
181.992523 140.0
182.059647 364.0
182.10025 128.0
182.121414 128.0
182.212753 40.0
182.301422 140.0
182.36412 176.0
182.392792 52.0
182.516464 252.0
182.718262 100.0
182.75853 156.0
182.798889 156.0
182.901154 136.0
183.027695 176.0
183.093445 1540.0
183.191971 172.0
183.235077 92.0
183.256622 108.0
183.431793 40.0
183.47493 108.0
183.534241 48.0
183.649521 176.0
183.787781 120.0
183.866043 172.0
183.941605 60.0
184.004898 108.0
184.090485 312.0
184.283661 224.0
184.322403 120.0
184.416534 120.0
184.495377 148.0
184.519714 48.0
184.578461 212.0
184.644089 92.0
184.687363 164.0
184.716507 128.0
184.738419 188.0
184.800415 152.0
184.841736 128.0
184.882904 88.0
184.935165 192.0
184.955231 52.0
185.004959 180.0
185.049637 124.0
185.058853 392.0
185.108276 56800.0
185.185562 104.0
185.198914 76.0
185.270447 128.0
185.30365 200.0
185.323441 116.0
185.384171 188.0
185.450287 196.0
185.47258 168.0
185.491547 124.0
185.531464 156.0
185.55159 164.0
185.572876 96.0
185.598953 52.0
185.675201 76.0
185.726776 144.0
185.762711 80.0
185.786118 140.0
185.835968 148.0
185.896408 72.0
185.968765 260.0
186.016617 84.0
186.071747 204.0
186.110306 6332.0
186.159973 176.0
186.197769 56.0
186.235016 68.0
186.260971 36.0
186.340958 112.0
186.370834 44.0
186.442841 80.0
186.48497 104.0
186.502792 60.0
186.574677 68.0
186.609741 192.0
186.624664 72.0
186.699753 144.0
186.773178 48.0
186.800385 76.0
186.846619 64.0
186.873825 48.0
186.897751 76.0
186.963623 216.0
187.00444 92.0
187.05072 60.0
187.088318 176.0
187.113373 568.0
187.145996 88.0
187.172256 56.0
187.200455 40.0
187.226685 76.0
187.295776 76.0
187.372055 136.0
187.395691 196.0
187.427216 164.0
187.485794 140.0
187.511017 176.0
187.543762 260.0
187.617325 56.0
187.63913 96.0
187.688217 88.0
187.712753 56.0
187.743378 172.0
187.843658 76.0
187.954971 160.0
188.02919 152.0
188.048294 44.0
188.067398 112.0
188.105621 40.0
188.198441 52.0
188.22847 124.0
188.446976 64.0
188.520752 108.0
188.625061 196.0
188.766098 112.0
188.958237 148.0
189.089584 200.0
189.135635 300.0
189.242874 68.0
189.317657 128.0
189.414658 88.0
189.465988 120.0
189.66748 172.0
189.716827 52.0
189.752472 208.0
189.831985 96.0
190.098068 140.0
190.249023 128.0
190.364334 100.0
190.485184 84.0
190.553848 44.0
190.606064 56.0
190.680252 44.0
190.776459 108.0
190.823776 208.0
190.869934 208.0
190.924927 100.0
191.087219 192.0
191.155243 1932.0
191.191772 76.0
191.695724 160.0
191.756348 172.0
191.861526 176.0
192.040329 124.0
192.10376 140.0
192.153137 288.0
192.181015 204.0
192.205841 164.0
192.291397 192.0
192.316238 200.0
192.463593 276.0
192.584045 188.0
192.625488 160.0
192.647583 152.0
192.67244 108.0
192.697311 128.0
192.735992 136.0
192.874161 260.0
192.951569 96.0
193.087921 212.0
193.109848 200.0
193.131302 120.0
193.153442 236.0
193.275162 144.0
193.377548 116.0
193.565796 80.0
193.646103 32.0
193.770752 164.0
193.83725 128.0
194.022949 168.0
194.063156 280.0
194.093536 96.0
194.167145 124.0
194.241409 200.0
194.278091 128.0
194.516434 188.0
194.583359 84.0
194.738861 108.0
194.800644 124.0
194.819412 188.0
194.877747 136.0
194.924988 72.0
194.994461 136.0
195.030594 140.0
195.069107 168.0
195.099487 204.0
195.202957 108.0
195.275269 192.0
195.614716 136.0
195.64534 96.0
195.698227 76.0
195.772797 72.0
195.831894 116.0
195.870895 56.0
195.940536 168.0
196.010193 168.0
196.043625 140.0
196.074112 336.0
196.101715 316.0
196.182983 76.0
196.403275 172.0
196.425583 84.0
196.559494 136.0
196.696243 112.0
196.936371 84.0
196.975479 80.0
197.105255 456.0
197.207397 132.0
197.26329 76.0
197.37056 164.0
197.5681 240.0
197.607269 188.0
197.748581 112.0
197.923538 144.0
197.987946 144.0
198.010345 176.0
198.069168 52.0
198.126816 1672.0
198.223251 212.0
198.307327 128.0
198.333908 144.0
198.478333 104.0
198.601715 200.0
198.643799 156.0
198.737518 108.0
198.755081 132.0
198.798111 68.0
198.871078 184.0
198.946854 136.0
199.088257 240.0
199.127609 108.0
199.19397 388.0
199.24173 132.0
199.269821 152.0
199.356918 172.0
199.433533 156.0
199.503494 228.0
199.713974 128.0
199.742096 136.0
199.793655 244.0
199.842468 124.0
200.099487 172.0
200.137329 308.0
200.23465 20.0
200.259995 184.0
200.338867 236.0
200.409302 40.0
200.434647 152.0
200.465652 160.0
200.491013 196.0
200.51355 160.0
200.598114 108.0
201.074783 180.0
201.122757 104.0
201.148163 196.0
201.201797 208.0
201.403076 244.0
201.543549 180.0
201.679184 104.0
201.730072 96.0
201.847031 172.0
201.944962 144.0
202.0383 128.0
202.165817 180.0
202.188263 128.0
202.30072 164.0
202.383591 112.0
202.460037 196.0
202.587494 184.0
202.62149 64.0
202.721436 132.0
203.151611 128.0
203.22821 72.0
203.304825 132.0
203.336044 120.0
203.367264 52.0
203.406998 92.0
203.455261 160.0
203.483643 60.0
203.505539 128.0
203.583023 220.0
203.654022 52.0
203.761963 124.0
203.821182 124.0
204.029114 68.0
204.078827 188.0
204.228165 224.0
204.262299 88.0
204.324875 140.0
204.43869 108.0
204.458603 112.0
204.529755 268.0
204.558228 172.0
204.695419 168.0
204.717667 60.0
204.768921 124.0
204.83728 144.0
205.022476 176.0
205.053818 100.0
205.088608 232.0
205.184937 132.0
205.373138 96.0
205.483444 112.0
205.615662 136.0
205.635635 148.0
205.801193 184.0
205.824036 112.0
205.881149 152.0
205.993774 148.0
206.106812 92.0
206.161102 104.0
206.206833 196.0
206.375488 112.0
206.615723 156.0
206.793137 136.0
206.96489 140.0
207.050797 132.0
207.071884 188.0
207.130997 76.0
207.474869 156.0
207.638306 56.0
207.710007 116.0
207.804672 68.0
207.973984 152.0
208.071579 172.0
208.10994 132.0
208.384995 124.0
208.439224 36.0
208.499557 164.0
208.565674 220.0
208.649033 168.0
208.718033 84.0
208.798553 152.0
208.903656 132.0
208.953613 204.0
208.991272 68.0
209.09436 160.0
209.105423 132.0
209.128708 312.0
209.302139 160.0
209.408676 132.0
209.437485 92.0
209.633392 164.0
209.843796 136.0
209.875519 172.0
209.906631 192.0
210.03125 132.0
210.08316 332.0
210.126999 324.0
210.244736 124.0
210.325546 200.0
210.461243 148.0
210.490112 104.0
210.513214 168.0
210.556534 128.0
210.747177 180.0
210.810745 168.0
210.856979 108.0
210.911896 112.0
210.952362 180.0
211.022705 192.0
211.049164 200.0
211.086563 6184.0
211.189468 76.0
211.270462 132.0
211.29071 52.0
211.33989 52.0
211.397766 76.0
211.49733 96.0
211.638382 160.0
211.89624 76.0
211.924759 152.0
211.965317 136.0
212.043564 168.0
212.089447 1172.0
212.131104 176.0
212.258087 76.0
212.301575 132.0
212.339279 136.0
212.437897 112.0
212.472702 188.0
212.530731 104.0
212.594574 104.0
212.661316 76.0
212.791946 84.0
212.861633 168.0
212.960373 104.0
213.011978 104.0
213.041702 140.0
213.102432 4384.0
213.184067 132.0
213.274155 32.0
213.326477 68.0
213.349731 76.0
213.428238 244.0
213.486389 116.0
213.514618 68.0
213.54747 108.0
213.596909 320.0
213.63472 232.0
213.698639 132.0
213.709549 128.0
213.937363 200.0
213.966476 68.0
214.020828 180.0
214.062561 92.0
214.10405 1172.0
214.166443 180.0
214.205276 84.0
214.225662 160.0
214.278107 108.0
214.321808 48.0
214.394653 148.0
214.447632 204.0
214.680344 180.0
214.878677 156.0
214.916611 144.0
215.103271 220.0
215.150085 136.0
215.252274 116.0
215.380768 196.0
215.447968 124.0
215.608658 120.0
215.684647 96.0
215.795746 128.0
215.865906 136.0
215.918549 208.0
215.9478 80.0
216.000443 120.0
216.105759 160.0
216.313538 164.0
216.410156 104.0
216.530212 32.0
216.64444 72.0
216.78801 244.0
216.902313 164.0
217.054749 164.0
217.097519 48.0
217.177917 184.0
217.221924 184.0
217.330475 144.0
217.368607 92.0
217.421432 136.0
217.629852 140.0
217.700317 176.0
217.794296 128.0
217.982315 180.0
218.094086 480.0
218.135147 256.0
218.196884 136.0
218.314484 44.0
218.379196 292.0
218.429199 160.0
218.705185 100.0
218.829422 168.0
218.973709 152.0
219.014938 132.0
219.102295 964.0
219.162231 168.0
219.223129 80.0
219.350845 140.0
219.43338 160.0
219.477112 120.0
219.625061 96.0
219.662704 168.0
219.782013 156.0
219.985046 108.0
220.052948 156.0
220.111252 1360.0
220.156296 136.0
220.2892 116.0
220.377838 148.0
220.42511 120.0
220.605392 148.0
220.626083 168.0
220.762085 216.0
220.804672 100.0
220.836029 156.0
221.111969 720.0
221.259171 160.0
221.478302 108.0
221.517822 140.0
221.599747 132.0
221.650116 300.0
221.802917 180.0
221.946533 208.0
222.065155 140.0
222.088135 144.0
222.099747 108.0
222.129684 172.0
222.199387 156.0
222.231262 104.0
222.362946 180.0
222.441971 172.0
222.51619 112.0
222.578537 60.0
222.611206 228.0
223.039215 180.0
223.092514 108.0
223.125214 140.0
223.294708 136.0
223.362167 164.0
223.449387 212.0
223.491043 152.0
223.583282 96.0
223.675552 112.0
223.726151 112.0
223.830353 104.0
223.886932 272.0
224.056442 132.0
224.11351 128.0
224.267593 160.0
224.29213 32.0
224.396454 196.0
224.590286 200.0
224.66188 116.0
224.790176 124.0
225.056107 196.0
225.102646 200.0
225.151382 196.0
225.172287 92.0
225.243973 180.0
225.596573 208.0
225.623474 312.0
225.764008 196.0
225.799057 156.0
225.823654 144.0
225.943466 120.0
226.012802 164.0
226.036224 120.0
226.102051 132.0
226.154068 560.0
226.203827 180.0
226.230759 132.0
226.263687 112.0
226.353516 124.0
226.509247 196.0
226.61409 116.0
226.745941 112.0
226.895813 120.0
226.922791 196.0
227.080856 220.0
227.114716 236.0
227.15535 136.0
227.387741 168.0
227.465775 168.0
227.669937 172.0
227.883209 168.0
228.039459 40.0
228.072189 140.0
228.115021 824.0
228.307037 120.0
228.328079 100.0
228.373199 48.0
228.397263 152.0
228.487503 136.0
228.553696 236.0
228.632385 156.0
228.770386 236.0
228.806503 252.0
228.978134 144.0
229.029343 36.0
229.05043 288.0
229.104782 324.0
229.138916 128.0
229.360779 144.0
229.398895 168.0
229.610367 148.0
229.643936 136.0
229.725647 48.0
229.752792 160.0
229.79805 64.0
230.133057 132.0
230.172302 140.0
230.293106 192.0
230.338882 128.0
230.377686 200.0
230.416962 56.0
230.465302 132.0
230.688934 68.0
230.734283 124.0
230.767532 104.0
230.818939 44.0
230.867325 88.0
230.921753 100.0
231.063919 132.0
231.112335 184.0
231.21521 60.0
231.345367 140.0
231.442245 96.0
231.53006 196.0
231.561142 124.0
231.639099 148.0
231.687561 152.0
231.739075 176.0
231.800278 256.0
231.863312 132.0
231.963333 156.0
232.110397 1708.0
232.181625 120.0
232.239243 124.0
232.296875 56.0
232.336319 176.0
232.36969 140.0
232.442505 52.0
232.569962 168.0
232.603363 136.0
232.824997 192.0
232.88269 76.0
232.929169 40.0
233.03154 128.0
233.113663 284.0
233.174362 148.0
233.229065 124.0
233.312485 164.0
233.36586 136.0
233.408432 148.0
233.52095 120.0
233.560318 144.0
233.714523 120.0
233.946945 236.0
234.048813 164.0
234.067017 136.0
234.08699 172.0
234.128021 25900.0
234.199677 104.0
234.231216 80.0
234.321518 104.0
234.39299 80.0
234.430527 136.0
234.476929 84.0
234.501312 40.0
234.547028 40.0
234.638474 80.0
234.665909 68.0
234.719696 212.0
234.778732 64.0
234.800079 80.0
234.824478 252.0
234.862228 148.0
234.882431 292.0
234.924042 52.0
234.961746 128.0
235.000153 132.0
235.034973 244.0
235.131088 5360.0
235.192963 52.0
235.249542 52.0
235.418167 112.0
235.483017 140.0
235.494461 108.0
235.506348 88.0
235.519714 56.0
235.5784 32.0
235.639496 64.0
235.70137 148.0
235.940323 188.0
235.993942 148.0
236.036835 152.0
236.061295 220.0
236.13327 576.0
236.174454 120.0
236.241745 68.0
236.287643 116.0
236.403915 72.0
236.537369 68.0
236.556931 132.0
236.630417 108.0
236.661026 92.0
236.695251 292.0
236.75885 72.0
236.786575 120.0
236.813751 224.0
236.85289 160.0
236.927475 188.0
236.970688 152.0
237.126831 192.0
237.160934 192.0
237.497635 120.0
237.525238 68.0
237.580444 108.0
237.623398 204.0
237.675552 44.0
237.709305 164.0
237.80751 104.0
237.841278 92.0
237.957932 92.0
238.006882 148.0
238.065399 164.0
238.097443 232.0
238.298828 44.0
238.325027 168.0
238.357208 256.0
238.477066 88.0
238.54776 96.0
238.572357 52.0
238.784515 80.0
238.864487 132.0
238.92601 148.0
239.081482 3056.0
239.123703 112.0
239.157349 516.0
239.193726 52.0
239.233749 40.0
239.27684 112.0
239.372284 128.0
239.396927 164.0
239.480072 152.0
239.520111 124.0
239.578644 160.0
239.615616 120.0
239.689468 136.0
239.726532 160.0
239.760437 148.0
239.831314 52.0
239.88063 96.0
239.951538 228.0
240.080002 884.0
240.112518 2664.0
240.154922 248.0
240.408035 156.0
240.556183 160.0
240.797012 144.0
240.871155 316.0
240.92984 68.0
240.957642 56.0
241.028702 84.0
241.083282 1044.0
241.118271 508.0
241.121826 488.0
241.195587 48.0
241.229584 116.0
241.32637 136.0
241.372925 176.0
241.396545 152.0
241.436737 180.0
241.475296 112.0
241.563553 152.0
241.606857 64.0
241.681122 116.0
241.761566 132.0
241.804886 60.0
241.885361 56.0
241.965851 188.0
242.078491 264.0
242.150238 176.0
242.185715 124.0
242.297226 116.0
242.560776 88.0
242.617569 196.0
242.762146 40.0
242.867279 116.0
242.914124 104.0
242.973068 120.0
243.072342 64.0
243.218216 244.0
243.323761 116.0
243.395157 56.0
243.423111 48.0
243.447952 104.0
243.485214 156.0
243.522491 132.0
243.565964 124.0
243.845596 128.0
243.915115 132.0
244.029007 128.0
244.158066 244.0
244.573395 208.0
244.666779 96.0
244.956375 148.0
245.048157 164.0
245.227463 44.0
245.267975 60.0
245.476852 116.0
245.53299 132.0
245.561066 124.0
245.582886 108.0
245.885529 236.0
245.979156 116.0
246.125885 92.0
246.157104 40.0
246.191467 184.0
246.250793 184.0
246.294632 120.0
246.322632 332.0
246.363251 172.0
246.516342 192.0
246.71637 132.0
247.000931 132.0
247.207428 216.0
247.332611 152.0
247.523575 52.0
247.620651 136.0
247.724014 212.0
247.758469 144.0
247.927673 144.0
247.974686 40.0
248.100067 120.0
248.253693 152.0
248.332092 136.0
248.369736 196.0
248.391693 96.0
248.478424 148.0
248.579926 128.0
248.636414 96.0
248.658386 128.0
248.721161 152.0
248.787079 120.0
248.841736 168.0
248.925079 252.0
249.07283 124.0
249.132095 120.0
249.242477 128.0
249.384857 176.0
249.575653 172.0
249.619675 32.0
249.647964 80.0
249.704575 128.0
249.736023 100.0
249.901825 200.0
250.022324 116.0
250.060089 116.0
250.36232 172.0
250.472549 68.0
250.599487 176.0
250.768723 104.0
250.875885 132.0
250.910568 92.0
250.995697 136.0
251.061523 188.0
251.128082 204.0
251.153381 64.0
251.25116 140.0
251.456268 204.0
251.500443 148.0
251.967804 148.0
252.07782 304.0
252.119308 168.0
252.204803 56.0
252.369186 208.0
252.435577 148.0
252.478607 152.0
252.552597 168.0
252.688614 136.0
252.778198 140.0
252.859497 112.0
252.929504 164.0
253.071579 236.0
253.128052 148.0
253.225754 128.0
253.386185 144.0
253.415833 156.0
253.577515 184.0
253.667877 160.0
253.860565 140.0
253.898621 164.0
254.012802 100.0
254.09552 592.0
254.125214 176.0
254.180939 236.0
254.242233 176.0
254.464218 192.0
254.815948 136.0
254.857254 112.0
254.879501 172.0
254.965302 164.0
255.09465 144.0
255.133484 184.0
255.15918 200.0
255.235489 172.0
255.292725 244.0
255.518555 104.0
255.547195 88.0
255.677658 60.0
255.81134 156.0
255.833618 104.0
255.941864 108.0
256.048859 268.0
256.108582 12652.0
256.187103 40.0
256.225983 216.0
256.257172 168.0
256.378265 124.0
256.401672 160.0
256.554504 68.0
256.588074 136.0
256.674713 204.0
256.735291 56.0
256.84375 40.0
256.971344 76.0
257.001312 204.0
257.110474 2524.0
257.197906 116.0
257.259979 208.0
257.395844 204.0
257.466095 168.0
257.515564 148.0
257.586731 160.0
257.680115 180.0
257.744019 92.0
257.827087 144.0
257.881439 184.0
257.924438 184.0
258.038055 84.0
258.066833 100.0
258.115875 376.0
258.214539 124.0
258.252319 128.0
258.428253 160.0
258.492249 64.0
258.524231 40.0
258.556244 160.0
258.671478 184.0
258.770111 132.0
258.879578 152.0
258.962738 136.0
259.023682 112.0
259.126465 308.0
259.19046 156.0
259.235138 44.0
259.271057 156.0
259.388977 144.0
259.465912 68.0
259.578125 172.0
259.60379 124.0
259.760956 72.0
259.87323 152.0
260.065857 136.0
260.131531 136.0
260.197632 144.0
260.235901 148.0
260.279449 136.0
260.483185 156.0
260.518524 192.0
260.547424 100.0
260.595612 60.0
260.913788 160.0
260.974884 124.0
261.031494 112.0
261.10672 92.0
261.137665 120.0
261.17746 164.0
261.206421 176.0
261.232147 188.0
261.257904 136.0
261.311218 312.0
261.399445 92.0
261.573242 212.0
261.666595 172.0
261.940338 116.0
262.10141 180.0
262.177948 144.0
262.217407 52.0
262.346344 116.0
262.478149 100.0
262.54303 48.0
262.675262 168.0
262.830109 136.0
262.917236 160.0
262.949524 112.0
262.978577 184.0
263.036652 184.0
263.139954 80.0
263.201294 48.0
263.307861 220.0
263.406464 120.0
263.524292 140.0
263.566284 80.0
263.744049 136.0
263.81839 92.0
263.844238 148.0
263.999451 168.0
264.077057 120.0
264.144989 372.0
264.225861 116.0
264.333405 152.0
264.361755 112.0
264.465332 108.0
264.7146 144.0
264.840912 40.0
264.890961 116.0
264.967224 156.0
264.993164 124.0
265.133575 252.0
265.4599 132.0
265.677216 108.0
265.712891 132.0
265.759186 164.0
265.871887 140.0
265.969238 108.0
266.056885 184.0
266.131317 308.0
266.170654 612.0
266.222473 168.0
266.547302 224.0
266.635071 168.0
266.87561 92.0
267.104492 136.0
267.150604 1076.0
267.239868 156.0
267.282166 104.0
267.383057 120.0
267.506744 128.0
267.649353 84.0
267.705353 208.0
267.760712 144.0
267.969177 120.0
268.108765 700.0
268.149933 304.0
268.423676 260.0
268.539612 60.0
268.562469 44.0
268.653778 84.0
268.738617 164.0
268.856079 256.0
268.882202 244.0
268.91156 84.0
268.947968 156.0
269.118073 208.0
269.352356 56.0
269.423645 96.0
269.450348 92.0
269.525482 104.0
269.747711 176.0
269.842529 72.0
270.084503 152.0
270.118958 212.0
270.251343 72.0
270.382233 76.0
270.533142 188.0
270.627747 112.0
270.765289 172.0
270.870087 156.0
270.895935 112.0
271.024048 164.0
271.086182 100.0
271.183197 172.0
271.282959 108.0
271.551544 108.0
271.765076 44.0
271.948822 68.0
272.306702 172.0
272.332977 92.0
272.53006 236.0
272.812317 140.0
273.102661 112.0
273.13797 312.0
273.200745 168.0
273.299438 208.0
273.474365 152.0
273.542969 232.0
273.661499 200.0
274.012512 160.0
274.069916 216.0
274.150848 284.0
274.221497 164.0
274.294006 128.0
274.544586 112.0
274.67514 116.0
274.73587 84.0
274.811768 108.0
274.887634 208.0
275.079071 180.0
275.11676 204.0
275.154236 7924.0
275.228119 80.0
275.320099 76.0
275.346497 200.0
275.369629 28.0
275.425781 36.0
275.548004 84.0
275.633911 80.0
275.666962 80.0
275.846985 84.0
275.977661 112.0
276.027252 112.0
276.116547 160.0
276.156952 2928.0
276.288544 100.0
276.401031 224.0
276.444031 132.0
276.967133 84.0
277.046631 176.0
277.118896 396.0
277.158997 200.0
277.477448 76.0
277.532867 152.0
277.726807 188.0
277.769287 104.0
277.921875 152.0
277.965027 72.0
278.001526 148.0
278.063629 100.0
278.082092 100.0
278.10968 128.0
278.16745 148.0
278.190704 60.0
278.273682 132.0
278.467651 212.0
278.490295 124.0
278.615753 128.0
278.725067 192.0
278.761963 116.0
278.839264 120.0
278.934784 124.0
278.961365 112.0
278.98465 92.0
279.007904 48.0
279.041168 100.0
279.22403 56.0
279.277252 204.0
279.363739 136.0
279.443115 84.0
279.500153 116.0
279.538361 164.0
279.669861 72.0
279.782562 136.0
279.832977 40.0
279.876251 116.0
279.972839 152.0
280.14682 856.0
280.252625 124.0
280.422577 72.0
280.482574 168.0
280.609253 56.0
280.732635 84.0
280.822662 164.0
281.01947 328.0
281.062866 120.0
281.122162 180.0
281.147461 236.0
281.254303 192.0
281.299805 208.0
281.37027 144.0
281.419983 96.0
281.532257 220.0
281.557861 96.0
281.600311 112.0
281.75061 140.0
281.776276 160.0
281.827454 164.0
281.903687 148.0
281.947754 92.0
281.972839 124.0
282.009521 168.0
282.120758 508.0
282.160339 59888.0
282.249817 264.0
282.294281 240.0
282.345581 120.0
282.379517 56.0
282.429199 144.0
282.451141 64.0
282.48407 304.0
282.514496 136.0
282.566345 116.0
282.625732 112.0
282.674683 84.0
282.711487 168.0
282.810303 124.0
282.899414 144.0
282.921814 56.0
282.97403 64.0
283.015717 248.0
283.050598 124.0
283.105255 180.0
283.163666 11984.0
283.264191 156.0
283.319122 56.0
283.368561 184.0
283.450287 260.0
283.487122 64.0
283.513947 48.0
283.550812 44.0
283.575348 100.0
283.610931 64.0
283.639832 120.0
283.708344 92.0
283.731812 112.0
283.768677 52.0
283.805573 68.0
283.829041 44.0
283.958405 124.0
284.073853 60.0
284.164703 1188.0
284.291931 76.0
284.362427 44.0
284.409393 48.0
284.510101 108.0
284.574432 76.0
284.61084 124.0
284.672638 156.0
284.749481 152.0
284.782104 44.0
284.811157 148.0
284.904633 100.0
284.942169 244.0
284.98526 84.0
285.010529 144.0
285.055725 168.0
285.107971 80.0
285.148499 208.0
285.19873 68.0
285.232819 108.0
285.272675 120.0
285.346619 192.0
285.415802 132.0
285.454224 120.0
285.527527 120.0
285.595123 152.0
285.599731 136.0
285.683197 48.0
285.775848 192.0
285.844421 72.0
285.931915 208.0
286.005951 172.0
286.034882 208.0
286.122498 192.0
286.148773 60.0
286.181946 256.0
286.265198 64.0
286.30426 168.0
286.372559 168.0
286.396545 60.0
286.447052 136.0
286.487488 92.0
286.527893 60.0
286.568329 72.0
286.635712 112.0
286.767151 72.0
286.945557 56.0
286.972778 92.0
287.0672 112.0
287.144623 104.0
287.202087 80.0
287.269562 40.0
287.482117 48.0
287.522614 148.0
287.839905 172.0
287.920959 140.0
288.181641 320.0
288.762482 164.0
288.829803 88.0
288.921448 36.0
288.999268 80.0
289.182007 172.0
289.280151 88.0
289.310638 116.0
289.415588 176.0
289.486694 192.0
289.578125 128.0
289.879639 116.0
289.983093 120.0
290.05249 104.0
290.082977 180.0
290.12027 160.0
290.1474 112.0
290.554352 220.0
290.849579 136.0
291.01593 48.0
291.039673 36.0
291.134766 40.0
291.19342 152.0
291.491455 52.0
291.578461 168.0
291.615814 148.0
291.69165 144.0
291.783752 72.0
291.810944 184.0
291.953766 160.0
292.011566 104.0
292.03537 156.0
292.144562 1588.0
292.198639 60.0
292.382385 76.0
292.491302 96.0
292.685364 200.0
292.763672 128.0
292.814758 96.0
292.927155 104.0
292.954407 88.0
292.9953 84.0
293.144287 592.0
293.182678 136.0
293.216766 68.0
293.25766 108.0
293.455383 52.0
293.963593 168.0
294.028442 72.0
294.120239 1468.0
294.229828 88.0
294.276123 172.0
294.342499 68.0
294.444946 156.0
294.567902 76.0
294.625977 212.0
294.690887 164.0
294.739716 96.0
294.800995 88.0
294.96048 160.0
295.029236 76.0
295.130035 3124.0
295.173309 204.0
295.277893 176.0
295.422485 132.0
295.44986 128.0
295.480652 164.0
295.55249 76.0
295.596985 200.0
295.716766 176.0
295.984131 116.0
296.06015 132.0
296.135956 432.0
296.185822 92.0
296.257751 160.0
296.298859 164.0
296.363953 156.0
296.394806 72.0
296.483887 84.0
296.566162 80.0
296.638123 200.0
296.713531 148.0
296.778687 64.0
296.905548 160.0
296.929565 188.0
297.102844 148.0
297.150879 136.0
297.181671 136.0
297.358429 140.0
297.426758 208.0
297.470978 176.0
297.68454 136.0
297.749786 136.0
297.930084 128.0
297.962769 120.0
298.024597 128.0
298.091675 216.0
298.144867 116.0
298.479065 36.0
298.629608 92.0
298.75 224.0
298.784393 152.0
298.849762 76.0
298.884186 144.0
298.925476 104.0
298.972198 168.0
299.10788 192.0
299.166382 180.0
299.283447 88.0
299.555511 32.0
299.744995 112.0
299.776001 188.0
300.041412 112.0
300.1138 180.0
300.231049 176.0
300.427216 180.0
300.496307 156.0
300.675323 128.0
300.766846 216.0
300.872833 104.0
301.130859 1040.0
301.176697 124.0
301.304504 172.0
301.567139 204.0
301.819489 48.0
301.999298 68.0
302.13092 356.0
302.362579 56.0
302.542572 88.0
302.587555 168.0
302.681061 140.0
302.70874 132.0
302.795319 160.0
302.84729 128.0
303.075928 124.0
303.150452 936.0
303.355438 204.0
303.432892 44.0
303.457184 132.0
303.488373 108.0
303.55426 52.0
303.602814 136.0
303.807434 28.0
303.842133 84.0
303.963562 152.0
304.027313 108.0
304.150696 288.0
304.161804 384.0
304.303711 52.0
304.442596 100.0
304.470398 216.0
304.564148 172.0
304.616272 192.0
304.68573 40.0
304.71701 144.0
304.78302 168.0
304.877136 136.0
304.925507 180.0
304.98111 84.0
305.005432 104.0
305.029755 72.0
305.120148 124.0
305.165344 312.0
305.353119 128.0
305.394745 120.0
305.467896 208.0
305.492249 264.0
305.540955 80.0
305.572266 96.0
305.659515 100.0
305.774078 144.0
305.875031 156.0
306.136139 120.0
306.285889 84.0
306.359039 108.0
306.460083 132.0
306.519318 180.0
306.989899 104.0
307.017792 128.0
307.127136 276.0
307.237518 192.0
307.261963 112.0
307.307312 96.0
307.335236 228.0
307.383972 164.0
307.397156 160.0
307.467834 124.0
307.673767 176.0
307.791473 228.0
307.890228 56.0
308.002014 48.0
308.139191 4912.0
308.256073 144.0
308.379364 112.0
308.589081 132.0
308.803192 52.0
308.89682 72.0
308.950745 204.0
309.052063 224.0
309.146362 1740.0
309.191071 340.0
309.25473 168.0
309.305634 172.0
309.332031 108.0
309.403717 132.0
309.448853 140.0
309.514343 196.0
309.570312 140.0
309.638855 240.0
309.687775 136.0
309.756836 152.0
309.791809 48.0
309.820007 92.0
309.872162 336.0
309.926086 264.0
309.955811 100.0
310.012848 192.0
310.075958 248.0
310.155334 140772.0
310.253784 88.0
310.278961 212.0
310.314362 220.0
310.366638 120.0
310.408478 128.0
310.479401 152.0
310.528687 136.0
310.593933 120.0
310.666504 264.0
310.699646 236.0
310.733551 208.0
310.763611 124.0
310.800201 96.0
310.81134 76.0
310.837616 208.0
310.860931 152.0
310.871643 140.0
310.909424 108.0
310.966492 120.0
311.000671 244.0
311.063263 172.0
311.158295 23296.0
311.224854 224.0
311.280029 36.0
311.307983 96.0
311.352875 188.0
311.410614 64.0
311.452118 168.0
311.495392 112.0
311.546356 72.0
311.58075 80.0
311.644073 56.0
311.684387 132.0
311.715607 32.0
311.760376 148.0
311.80899 152.0
311.849152 40.0
311.911926 48.0
311.984467 48.0
312.034424 112.0
312.089752 60.0
312.160065 3196.0
312.23938 40.0
312.288635 120.0
312.336884 128.0
312.397217 64.0
312.472717 132.0
312.513184 48.0
312.563019 28.0
312.587646 84.0
312.66507 80.0
312.700256 56.0
312.733704 104.0
312.793091 132.0
312.812195 144.0
312.84317 148.0
312.88205 204.0
312.913452 64.0
313.032867 96.0
313.068848 116.0
313.11792 304.0
313.165741 444.0
313.229431 124.0
313.289062 184.0
313.337128 60.0
313.385864 108.0
313.446045 108.0
313.474365 84.0
313.491577 40.0
313.504791 72.0
313.612457 60.0
313.640656 48.0
313.667542 128.0
313.783813 72.0
313.825806 84.0
313.864014 56.0
313.957977 176.0
314.005127 96.0
314.100555 112.0
314.141357 184.0
314.188141 292.0
314.264374 112.0
314.313904 84.0
314.323822 56.0
314.333557 144.0
314.384827 36.0
314.465057 168.0
314.509674 80.0
314.589539 68.0
314.698975 60.0
314.766815 216.0
314.798889 104.0
314.85434 60.0
315.034485 48.0
315.091003 68.0
315.133392 56.0
315.158112 88.0
315.227753 176.0
315.303009 76.0
315.360992 108.0
315.398438 72.0
315.529236 52.0
315.589325 180.0
315.638824 176.0
315.670654 44.0
315.713074 120.0
315.822723 64.0
315.923981 100.0
315.978363 100.0
316.135254 200.0
316.198242 1048.0
316.279144 184.0
316.332245 84.0
316.395966 44.0
316.523438 48.0
316.558838 48.0
316.66153 68.0
317.096527 108.0
317.136292 108.0
317.164642 40.0
317.203705 248.0
317.345459 48.0
317.480194 52.0
317.547577 144.0
317.593689 156.0
317.6185 52.0
317.82782 92.0
317.875031 92.0
318.02301 156.0
318.133026 120.0
318.161652 236.0
318.203857 80.0
318.278595 52.0
318.449036 84.0
318.694153 56.0
319.04599 128.0
319.087524 136.0
319.122528 168.0
319.152649 172.0
319.181122 120.0
319.476288 112.0
319.632843 32.0
319.746704 64.0
319.953156 68.0
320.010132 200.0
320.209534 44.0
320.893707 124.0
320.968567 52.0
321.004242 284.0
321.126007 324.0
321.35022 64.0
321.42157 84.0
321.705688 116.0
321.792786 148.0
321.939178 136.0
322.01416 120.0
322.107025 128.0
322.153168 3872.0
322.239197 132.0
322.307098 68.0
322.589417 112.0
322.71814 132.0
322.900482 116.0
323.064423 72.0
323.158813 844.0
323.215302 100.0
323.268982 60.0
323.376343 112.0
323.412109 116.0
323.480133 112.0
323.558899 52.0
323.748657 116.0
323.80954 108.0
324.042358 148.0
324.127289 176.0
324.167908 144.0
324.202057 232.0
324.283051 220.0
324.364899 164.0
324.486786 136.0
324.554901 76.0
324.583588 128.0
324.666046 104.0
324.809509 88.0
324.95816 92.0
325.003235 176.0
325.045654 68.0
325.103729 48.0
325.139587 276.0
325.227173 80.0
325.293945 116.0
325.344177 132.0
325.617065 48.0
325.936798 96.0
325.997864 172.0
326.224304 80.0
326.267456 40.0
326.316986 144.0
326.364532 112.0
326.431793 204.0
326.458008 120.0
326.493958 160.0
326.637848 56.0
326.817719 128.0
326.958038 40.0
327.091217 96.0
327.264008 128.0
327.506531 152.0
327.643982 104.0
327.73584 68.0
328.156067 208.0
328.381104 40.0
328.49292 216.0
328.55426 104.0
328.88623 92.0
328.951202 72.0
328.985352 132.0
329.034241 68.0
329.129547 628.0
329.198212 344.0
329.449524 28.0
329.478424 72.0
329.510956 168.0
329.590424 256.0
329.706055 72.0
329.796417 116.0
329.850647 64.0
330.123474 212.0
330.161316 480.0
330.364105 108.0
330.425629 44.0
330.465637 136.0
330.606537 92.0
330.631866 96.0
330.699066 100.0
330.841797 156.0
331.062653 160.0
331.129242 340.0
331.182159 148.0
331.406769 124.0
331.50824 116.0
331.55896 44.0
331.635071 156.0
331.693054 152.0
331.740173 112.0
331.830811 136.0
331.931519 72.0
332.02301 56.0
332.124847 144.0
332.184662 144.0
332.280518 124.0
332.338593 100.0
332.385742 164.0
332.759583 84.0
332.788635 72.0
332.886688 60.0
333.039215 48.0
333.334045 128.0
333.435211 120.0
333.562439 212.0
333.911469 80.0
334.053345 88.0
334.10791 80.0
334.147919 160.0
334.198853 164.0
334.2789 40.0
334.500916 96.0
334.591919 104.0
334.901428 84.0
335.149292 824.0
335.384552 180.0
335.440704 112.0
335.484436 76.0
335.535492 188.0
335.647614 116.0
336.149078 332.0
336.192017 52.0
336.538788 172.0
336.593567 132.0
336.90036 80.0
337.093994 184.0
337.165649 2812.0
337.232849 152.0
337.320587 28.0
337.368988 164.0
337.437561 200.0
337.480713 100.0
337.536285 40.0
337.799591 148.0
337.858124 124.0
337.88739 252.0
337.964233 172.0
338.15451 572.0
338.424103 136.0
338.628845 72.0
338.650909 96.0
338.71106 80.0
338.905212 104.0
339.044464 68.0
339.150513 528.0
339.231384 92.0
339.418365 128.0
339.473358 160.0
339.546692 124.0
339.609039 60.0
339.69342 92.0
339.744781 96.0
340.063995 44.0
340.165649 392.0
340.251221 136.0
340.401733 196.0
340.475189 148.0
340.53891 104.0
340.567017 76.0
340.842529 128.0
340.904999 124.0
340.982178 32.0
341.147125 168.0
341.202728 140.0
341.504242 112.0
341.651367 120.0
341.953094 68.0
342.157043 148.0
342.457489 212.0
342.612213 36.0
342.836975 72.0
342.929962 172.0
342.973328 76.0
343.255341 156.0
343.286682 36.0
343.349396 92.0
343.474792 108.0
343.530121 96.0
343.585449 164.0
343.725647 96.0
343.820404 172.0
343.862183 72.0
344.083679 184.0
344.11319 124.0
344.175964 112.0
344.597015 164.0
344.648743 128.0
344.815033 100.0
344.944397 128.0
345.062683 148.0
345.105286 124.0
345.150726 144.0
345.177307 164.0
345.30304 152.0
345.473206 40.0
345.913544 172.0
345.994995 148.0
346.155426 1104.0
346.294922 40.0
347.157501 132.0
347.225159 112.0
347.317902 88.0
347.432892 160.0
347.469971 60.0
347.543579 224.0
347.94873 116.0
347.974701 160.0
348.175232 140.0
348.227203 116.0
348.401794 40.0
348.498383 140.0
348.569 104.0
348.743652 108.0
348.864227 128.0
349.165283 448.0
349.213623 108.0
349.256744 68.0
349.455261 144.0
349.692078 176.0
350.105316 160.0
350.1633 520.0
350.284088 76.0
350.611938 104.0
350.712585 108.0
350.746124 96.0
350.917603 220.0
350.977264 52.0
351.208466 168.0
351.248108 156.0
351.428558 92.0
351.742035 188.0
351.812958 160.0
351.861511 144.0
352.033264 140.0
352.324585 112.0
352.567444 128.0
352.649658 76.0
352.683319 116.0
352.769287 140.0
352.918823 176.0
353.161652 128.0
353.266632 104.0
353.369781 196.0
353.666992 192.0
353.936554 124.0
354.037659 44.0
354.20993 104.0
354.386017 188.0
354.55838 92.0
354.61084 116.0
354.951965 136.0
355.079468 184.0
355.178497 520.0
355.293274 168.0
355.548431 116.0
355.623474 44.0
355.841217 236.0
356.18222 280.0
356.35199 148.0
356.912018 104.0
357.145172 88.0
357.191772 276.0
357.26178 88.0
357.37088 72.0
357.596649 116.0
357.799927 88.0
357.860168 220.0
357.909119 56.0
357.958069 192.0
358.14978 212.0
358.214172 112.0
358.266907 168.0
358.436432 124.0
358.531372 104.0
358.956604 124.0
359.164032 144.0
359.571503 56.0
359.677185 116.0
359.723755 120.0
359.979218 180.0
360.315369 116.0
360.504303 136.0
360.549652 204.0
360.574493 188.0
360.802887 88.0
360.931427 172.0
360.988159 236.0
361.506409 200.0
361.653992 144.0
361.714539 60.0
361.775116 116.0
361.854614 140.0
362.006073 56.0
362.138611 84.0
362.176483 168.0
362.293915 100.0
362.661469 124.0
362.782776 156.0
363.309875 176.0
363.704529 52.0
363.943695 132.0
364.056915 88.0
364.190521 108.0
364.220917 60.0
364.331085 92.0
364.384247 172.0
364.486847 100.0
364.581848 144.0
364.695862 108.0
364.741486 128.0
364.920135 120.0
365.140045 164.0
365.201538 200.0
365.460205 140.0
365.600098 148.0
365.726593 128.0
365.791748 148.0
365.958801 188.0
366.142639 132.0
366.202362 96.0
366.312988 92.0
366.431091 56.0
366.694 100.0
366.850281 120.0
366.922699 124.0
367.162476 272.0
367.197266 128.0
367.319305 36.0
367.761902 200.0
367.906952 124.0
368.161499 120.0
368.361389 132.0
368.426331 160.0
368.552399 140.0
368.976654 188.0
369.603882 116.0
369.810547 32.0
370.001923 152.0
370.051697 112.0
370.089996 100.0
370.216339 80.0
370.285278 40.0
370.319733 120.0
370.88681 120.0
370.967285 44.0
371.227997 160.0
371.254852 124.0
371.541199 152.0
371.73053 124.0
371.903229 96.0
372.010681 92.0
372.074982 140.0
372.20636 7336.0
372.288635 124.0
372.410034 204.0
372.43692 104.0
372.483002 120.0
372.559845 40.0
372.590576 48.0
372.666199 64.0
372.729126 124.0
372.821106 80.0
372.894135 128.0
373.070923 208.0
373.11322 52.0
373.210724 2172.0
373.305481 40.0
373.37085 116.0
373.509308 112.0
373.690094 112.0
373.894043 80.0
373.98587 144.0
374.165039 100.0
374.215546 420.0
374.278992 132.0
374.338013 160.0
374.417603 92.0
374.494629 124.0
374.737335 160.0
374.845215 124.0
374.933838 132.0
375.05719 60.0
375.111145 72.0
375.182343 144.0
375.21759 104.0
375.531403 120.0
375.585419 100.0
375.639404 108.0
375.739716 68.0
375.766724 164.0
375.878601 108.0
376.009827 124.0
376.197968 320.0
376.2771 132.0
376.492371 36.0
376.597565 104.0
376.681641 92.0
376.829834 132.0
376.959808 80.0
377.19455 288.0
377.346313 160.0
377.392731 100.0
377.617004 112.0
377.658813 104.0
377.75238 76.0
377.818726 132.0
377.891632 80.0
377.969025 136.0
378.207031 84.0
378.243805 164.0
378.367676 148.0
378.514801 120.0
378.689056 60.0
379.211273 200.0
379.479584 128.0
379.88678 168.0
380.063751 188.0
380.542633 116.0
380.709595 136.0
380.923218 120.0
381.180817 144.0
381.626617 184.0
381.828827 140.0
382.007751 196.0
382.182373 536.0
382.287872 152.0
382.354034 192.0
382.396851 200.0
382.525269 220.0
382.571991 108.0
383.178131 212.0
383.209747 116.0
383.651062 108.0
383.720245 124.0
383.881104 168.0
383.935699 72.0
384.142426 100.0
384.20874 176.0
384.579437 88.0
384.653595 200.0
384.805847 140.0
385.059662 112.0
385.186554 156.0
385.253815 136.0
385.645691 188.0
385.903687 56.0
386.032715 152.0
386.167938 160.0
386.221924 192.0
386.28302 124.0
386.486481 76.0
386.517761 56.0
386.576477 136.0
386.748657 80.0
387.038361 140.0
387.144073 116.0
387.183655 184.0
387.249817 148.0
387.371246 80.0
387.484863 68.0
387.527954 88.0
387.578888 120.0
387.755219 180.0
387.833618 88.0
387.955109 56.0
388.080566 156.0
388.151154 100.0
388.206055 100.0
388.676758 60.0
388.95105 172.0
389.097748 152.0
389.179169 144.0
389.222351 112.0
389.30481 84.0
389.548309 160.0
389.705475 140.0
390.479858 92.0
390.694855 108.0
390.896851 68.0
391.15802 176.0
391.213226 232.0
391.306183 88.0
391.483368 92.0
391.526703 116.0
391.603424 132.0
391.889099 164.0
391.967896 76.0
392.216156 136.0
392.279236 68.0
392.314728 96.0
392.602539 64.0
392.634094 92.0
392.697205 152.0
393.194794 92.0
393.379791 88.0
393.763641 116.0
393.912872 88.0
393.999786 68.0
394.0867 84.0
394.149933 208.0
394.204926 160.0
394.280334 148.0
394.343567 68.0
394.402863 156.0
394.513519 156.0
394.643982 48.0
394.748871 160.0
394.825897 156.0
395.204865 228.0
395.237274 112.0
395.276855 100.0
395.553894 72.0
395.926056 128.0
395.957733 96.0
396.14389 208.0
396.171631 60.0
396.27066 144.0
396.430969 108.0
396.492554 144.0
396.718475 32.0
397.222107 64.0
397.300446 112.0
397.591095 96.0
398.202454 152.0
398.242188 148.0
398.269989 84.0
398.552032 192.0
398.595764 96.0
398.6474 60.0
398.822266 116.0
398.945496 184.0
398.989227 60.0
399.080658 156.0
399.186523 152.0
399.219849 60.0
399.255615 160.0
399.378906 148.0
399.428406 100.0
399.629547 132.0
399.701141 84.0
399.744537 84.0
399.790894 120.0
399.836456 88.0
399.880219 112.0
399.941864 468.0
399.991669 132.0
400.03894 160.0
400.082153 148.0
400.110809 116.0
400.201874 28660.0
400.292267 136.0
400.356293 76.0
400.426392 164.0
400.491119 156.0
400.546661 52.0
400.620544 112.0
400.65976 52.0
400.721375 268.0
400.746185 120.0
400.851227 92.0
400.878906 96.0
400.943573 52.0
401.027252 40.0
401.06189 140.0
401.123535 76.0
401.202911 9220.0
401.302307 60.0
401.371643 104.0
401.439148 76.0
401.521637 44.0
401.584412 92.0
401.649261 176.0
401.717072 116.0
401.784882 64.0
401.820801 100.0
401.888611 116.0
401.974731 48.0
402.016296 140.0
402.05835 164.0
402.152008 64.0
402.20694 1552.0
402.435425 136.0
402.475342 96.0
402.507294 144.0
402.613739 76.0
402.679016 52.0
402.766876 56.0
402.806824 56.0
402.854767 100.0
402.882721 52.0
402.914673 88.0
402.958618 76.0
403.002563 52.0
403.038544 208.0
403.20578 216.0
403.334259 96.0
403.398956 176.0
403.590118 76.0
403.634094 100.0
403.730072 80.0
403.786072 132.0
403.835785 140.0
403.870056 68.0
404.046051 32.0
404.094055 48.0
404.15152 220.0
404.218109 132.0
404.258118 132.0
404.37561 148.0
404.406189 84.0
404.526276 112.0
404.642365 32.0
404.674377 164.0
404.790497 144.0
404.846558 32.0
404.907501 128.0
405.199036 80.0
405.25647 216.0
405.507599 112.0
405.595764 92.0
405.647888 40.0
405.773651 96.0
405.924713 152.0
405.980652 164.0
406.072876 160.0
406.172028 144.0
406.466034 36.0
406.538269 120.0
406.578369 152.0
407.027985 60.0
407.120331 116.0
407.160492 108.0
407.232788 144.0
407.276978 100.0
407.354675 168.0
407.851532 100.0
408.140991 64.0
408.34494 128.0
409.086426 228.0
409.799225 88.0
409.972504 128.0
410.00351 156.0
410.081329 124.0
410.157898 92.0
410.222382 96.0
410.262054 124.0
410.476379 56.0
410.835327 136.0
411.053192 148.0
411.547363 112.0
411.642548 44.0
411.695038 52.0
411.779846 172.0
411.864655 128.0
412.09494 160.0
412.462036 124.0
412.474945 104.0
412.685028 80.0
412.713318 100.0
412.802277 152.0
412.830597 108.0
412.915497 100.0
412.984253 116.0
413.05896 196.0
413.174377 100.0
413.20517 164.0
413.259338 124.0
413.449524 36.0
413.510223 80.0
413.724762 128.0
413.781433 44.0
413.898834 120.0
414.555054 88.0
415.033356 148.0
415.134735 72.0
415.195557 120.0
415.288849 40.0
415.593079 96.0
415.79599 124.0
415.921814 144.0
416.132904 136.0
416.161316 164.0
416.189728 48.0
416.685242 44.0
416.733978 76.0
416.815247 72.0
417.185089 72.0
417.445312 204.0
417.485962 100.0
417.970032 60.0
418.140961 136.0
418.169434 104.0
418.389252 116.0
418.725952 132.0
418.861603 60.0
418.938995 28.0
419.138641 60.0
419.211731 188.0
419.41983 92.0
420.04776 48.0
420.092651 152.0
420.206879 108.0
420.288483 96.0
420.521423 228.0
420.596588 128.0
420.782318 152.0
420.93338 52.0
421.074585 160.0
421.224304 4056.0
421.309143 176.0
421.505249 44.0
421.584625 104.0
421.631744 172.0
421.680969 108.0
421.725922 20.0
421.762726 88.0
421.7995 64.0
421.920227 188.0
422.222321 1256.0
422.355591 124.0
422.392395 108.0
422.539978 56.0
422.666504 68.0
422.69516 184.0
422.89978 192.0
422.989807 92.0
423.138916 76.0
423.221161 564.0
423.272308 148.0
423.440918 112.0
423.784302 128.0
423.87854 104.0
424.038361 180.0
424.161316 92.0
424.244781 120.0
424.718964 92.0
424.887146 192.0
424.981506 212.0
425.022522 124.0
425.125122 168.0
425.203094 140.0
425.242767 48.0
425.338531 32.0
425.535583 96.0
425.726929 84.0
425.773743 44.0
425.864075 152.0
426.028381 164.0
426.287231 124.0
426.394073 156.0
426.566711 216.0
426.690033 136.0
426.805389 68.0
426.833923 108.0
427.105347 120.0
427.214569 428.0
427.327515 204.0
427.520905 120.0
427.720459 140.0
427.936615 144.0
428.010742 108.0
428.199249 348.0
429.07373 128.0
429.11908 92.0
429.205353 108.0
429.210327 228.0
429.354095 60.0
429.527313 128.0
429.630463 76.0
429.828491 204.0
429.948151 56.0
430.100861 100.0
430.129761 156.0
430.211578 112.0
430.249481 124.0
430.439392 64.0
430.530243 32.0
430.612823 88.0
430.976959 188.0
431.194214 172.0
431.240845 156.0
431.282166 160.0
431.368958 100.0
432.067841 212.0
432.220917 136.0
432.28299 116.0
432.444366 60.0
432.485779 60.0
432.891479 84.0
433.098572 116.0
433.338837 80.0
433.591583 96.0
433.773956 48.0
434.155396 56.0
434.204834 152.0
434.619965 72.0
434.686371 40.0
434.931213 136.0
435.2052 128.0
435.645447 180.0
435.699432 72.0
435.774231 132.0
435.982635 100.0
436.090027 88.0
436.23056 896.0
436.401794 148.0
437.142181 84.0
437.240082 612.0
437.291992 96.0
437.371094 44.0
437.704132 164.0
437.762421 128.0
438.024811 136.0
438.174774 132.0
438.22876 116.0
438.270599 144.0
438.549805 128.0
438.595673 88.0
438.634216 224.0
439.258636 132.0
439.308685 208.0
439.433838 116.0
440.230103 84.0
440.268677 152.0
440.398132 112.0
440.757416 68.0
441.100098 116.0
441.200439 164.0
441.484741 132.0
441.52655 148.0
441.652039 96.0
441.856995 192.0
442.162476 48.0
442.698303 108.0
442.761475 88.0
442.811371 92.0
443.045959 148.0
443.125549 160.0
443.213531 132.0
443.4758 172.0
443.854828 136.0
443.951294 148.0
444.262695 96.0
444.353943 32.0
444.584717 128.0
444.853333 92.0
445.01593 88.0
445.215027 168.0
445.482605 136.0
445.810944 136.0
445.970642 148.0
446.21817 140.0
446.462524 52.0
446.609741 136.0
446.807434 76.0
447.106171 40.0
447.628174 84.0
447.760376 152.0
447.842957 132.0
448.003021 152.0
448.061981 180.0
448.508667 156.0
448.63092 160.0
448.736298 132.0
448.845917 120.0
448.900757 132.0
448.989319 164.0
449.326752 136.0
449.390045 124.0
449.444885 208.0
450.2258 112.0
450.255371 148.0
450.724243 80.0
450.977814 124.0
451.256287 96.0
451.404785 128.0
451.688141 192.0
451.730469 132.0
451.911255 56.0
452.022369 96.0
452.23822 224.0
452.289001 36.0
452.452454 144.0
452.585327 116.0
452.775879 52.0
453.496124 140.0
453.572418 224.0
454.140564 96.0
454.170258 132.0
454.424805 92.0
454.8237 124.0
454.917084 124.0
455.095367 132.0
455.171814 124.0
455.246552 180.0
455.316193 40.0
455.558289 104.0
455.66449 128.0
455.766479 172.0
456.046936 96.0
456.085205 52.0
456.242462 188.0
456.289246 148.0
456.348755 120.0
456.484833 128.0
456.561371 52.0
456.693207 152.0
457.034302 112.0
457.782684 156.0
458.239319 116.0
458.617706 108.0
458.711456 104.0
458.881989 124.0
459.052551 48.0
459.235931 64.0
459.295624 40.0
459.880188 52.0
459.969818 108.0
460.294281 132.0
460.379669 128.0
460.439453 76.0
460.567596 124.0
460.648743 104.0
460.934998 44.0
461.311096 80.0
461.375214 152.0
461.409424 100.0
461.580444 96.0
461.815643 104.0
462.277679 120.0
462.495941 152.0
462.829865 124.0
462.881226 80.0
463.009705 124.0
463.138184 108.0
463.179169 104.0
463.249573 180.0
463.285614 208.0
463.399506 168.0
463.450928 100.0
463.480896 104.0
463.635162 96.0
464.140991 188.0
464.312531 144.0
464.372559 140.0
464.411163 136.0
464.544128 92.0
464.591309 100.0
464.832886 140.0
464.865906 188.0
464.904022 132.0
465.046173 88.0
465.076202 136.0
465.261169 92.0
465.303711 88.0
465.380981 132.0
465.548462 140.0
465.673004 84.0
465.737427 176.0
465.784668 116.0
465.823334 188.0
466.1026 56.0
466.257294 104.0
466.833344 136.0
467.009674 168.0
467.284973 100.0
467.388214 108.0
467.603394 52.0
467.900391 144.0
468.038177 156.0
468.115692 204.0
468.193176 148.0
468.32608 136.0
468.477448 172.0
468.576538 164.0
468.744568 96.0
468.968689 116.0
469.231628 164.0
469.343719 120.0
469.451538 120.0
469.7146 92.0
470.158997 120.0
470.210785 132.0
470.836792 152.0
471.255768 160.0
471.506409 56.0
471.601471 56.0
471.713867 28.0
471.78302 72.0
471.813293 36.0
472.21109 96.0
472.678314 164.0
472.834076 44.0
473.570099 84.0
473.613403 108.0
473.765015 220.0
474.150635 108.0
474.44104 132.0
474.935394 92.0
475.208679 116.0
475.243378 124.0
475.312805 132.0
475.855347 112.0
476.033386 56.0
476.234253 172.0
476.411224 112.0
476.485077 108.0
476.715363 88.0
476.932678 196.0
477.232635 96.0
477.397858 172.0
477.606598 176.0
477.667511 160.0
477.863281 132.0
478.063416 52.0
478.154816 100.0
479.457886 56.0
480.058533 164.0
480.119598 112.0
480.186554 124.0
480.673584 128.0
481.223541 112.0
481.668976 168.0
481.944214 160.0
481.983551 140.0
482.088409 112.0
482.210785 124.0
482.263214 112.0
484.100647 32.0
484.170715 116.0
484.302124 136.0
484.95932 136.0
484.998779 104.0
485.112732 80.0
485.200409 136.0
485.836304 108.0
485.998627 108.0
486.060059 120.0
486.147827 108.0
486.31897 128.0
486.402374 124.0
486.481384 148.0
486.678955 124.0
486.806274 36.0
486.889709 104.0
486.933655 188.0
487.153259 88.0
487.214752 128.0
487.32019 136.0
487.737671 128.0
488.010223 108.0
488.10257 144.0
488.177307 124.0
488.419189 152.0
488.610474 224.0
489.127625 128.0
489.220062 132.0
489.614899 120.0
490.02597 40.0
490.197815 104.0
490.256866 180.0
490.352051 116.0
490.649628 164.0
490.836975 76.0
491.397125 112.0
491.626556 44.0
491.679535 112.0
491.789856 132.0
491.825165 180.0
491.962006 116.0
492.456543 128.0
492.544891 204.0
492.712738 164.0
492.765747 120.0
493.044128 40.0
493.397736 148.0
493.55249 44.0
493.6763 140.0
493.778015 172.0
493.937225 180.0
494.078796 88.0
494.220367 200.0
494.300018 76.0
494.357544 60.0
494.623077 184.0
494.897552 120.0
495.575195 108.0
495.697113 164.0
495.99176 116.0
496.058258 152.0
496.292053 152.0
496.34201 68.0
496.710083 172.0
496.75 136.0
497.002899 124.0
497.162628 84.0
497.366791 84.0
497.637573 120.0
497.739685 72.0
498.543701 164.0
498.641479 172.0
498.734833 176.0
499.206055 128.0
499.335022 160.0
499.508484 64.0
499.627991 148.0
499.677551 136.0
499.922272 224.0
500.394073 220.0
501.285675 160.0
501.338379 220.0
501.668182 204.0
501.775177 116.0
501.97348 140.0
502.125305 168.0
502.419586 120.0
502.577972 72.0
502.649384 176.0
502.774323 152.0
502.818176 184.0
503.149261 136.0
503.23407 104.0
503.711914 136.0
503.877197 160.0
504.208893 192.0
504.252563 100.0
504.359375 124.0
504.717468 44.0
504.873962 124.0
506.288086 40.0
506.332886 168.0
506.62851 148.0
506.874908 136.0
507.063141 64.0
507.596588 52.0
508.119781 124.0
508.300842 116.0
508.421997 88.0
508.481384 132.0
508.736176 44.0
509.041473 148.0
509.369324 56.0
509.602936 92.0
509.715271 140.0
510.115234 120.0
510.276154 116.0
510.286987 176.0
510.305511 176.0
510.376007 88.0
510.551361 140.0
510.671753 156.0
510.753754 64.0
510.942688 112.0
511.077667 124.0
511.212646 52.0
511.268036 448.0
511.721283 56.0
511.752777 60.0
511.946411 56.0
512.085999 156.0
512.126526 180.0
512.265259 184.0
512.674255 120.0
513.000671 56.0
513.05481 40.0
513.270142 1236.0
513.379456 188.0
513.460632 100.0
514.276733 540.0
514.399109 176.0
514.737671 52.0
514.850586 48.0
514.993225 76.0
515.026123 160.0
515.2724 140.0
515.930481 132.0
516.088684 164.0
516.170105 108.0
516.296692 132.0
516.726379 80.0
517.260376 64.0
517.319214 184.0
517.382629 140.0
517.541077 108.0
517.6297 96.0
517.731262 152.0
517.839966 84.0
517.935059 280.0
518.057373 132.0
518.365479 80.0
518.465149 160.0
518.682922 168.0
518.84137 120.0
518.900269 56.0
518.968323 100.0
519.317444 168.0
519.390015 44.0
519.567444 140.0
520.261292 96.0
520.33844 100.0
520.724426 168.0
521.21051 192.0
521.312195 160.0
521.47406 64.0
521.528625 148.0
521.560425 192.0
521.664978 68.0
521.705872 56.0
521.779968 84.0
521.819519 196.0
521.905945 108.0
522.046875 180.0
522.110535 84.0
522.29248 164.0
522.471558 88.0
522.592712 172.0
522.633667 144.0
522.706482 28.0
522.792908 156.0
522.83844 96.0
522.970398 96.0
523.061462 108.0
523.111511 116.0
523.141052 80.0
523.184326 36.0
523.322998 136.0
523.393921 112.0
523.694336 112.0
523.762634 88.0
523.940308 160.0
524.046326 88.0
524.104309 52.0
524.247681 72.0
524.391418 180.0
524.448059 140.0
524.555481 64.0
524.605652 80.0
524.801697 128.0
524.892883 112.0
524.947815 76.0
525.034241 104.0
525.102417 76.0
525.148254 88.0
525.224854 100.0
525.312073 144.0
525.380737 184.0
525.431091 140.0
525.48584 112.0
525.56427 184.0
525.634338 80.0
525.755005 152.0
525.864197 48.0
525.916138 92.0
525.954346 72.0
526.018127 160.0
526.088196 172.0
526.129333 132.0
526.209106 80.0
526.250732 156.0
526.309631 124.0
526.373718 52.0
526.382629 92.0
526.408752 244.0
526.501282 180.0
526.520325 44.0
526.532104 176.0
526.58783 160.0
526.639038 284.0
526.706787 96.0
526.788391 172.0
526.836853 132.0
526.891968 200.0
526.940979 184.0
526.960327 236.0
527.013916 64.0
527.050293 132.0
527.078796 240.0
527.114807 104.0
527.154968 164.0
527.176208 156.0
527.224915 180.0
527.261536 332.0
527.308411 316.0
527.368164 92.0
527.43573 248.0
527.474182 192.0
527.514709 76.0
527.614197 128.0
527.668091 300.0
527.705261 116.0
527.738098 176.0
527.799866 540.0
527.882751 172.0
527.923035 208.0
527.991394 228.0
528.058777 224.0
528.128113 472.0
528.136963 124.0
528.297974 198496.0
528.38678 184.0
528.455322 220.0
528.53302 104.0
528.596924 304.0
528.635742 120.0
528.679077 368.0
528.723389 420.0
528.757446 80.0
528.774658 224.0
528.806091 280.0
528.814453 136.0
528.902893 276.0
529.006714 240.0
529.053345 1000.0
529.090149 228.0
529.132751 304.0
529.192383 168.0
529.209412 212.0
529.299988 87432.0
529.406189 132.0
529.451355 308.0
529.535828 184.0
529.61853 164.0
529.713928 180.0
529.759033 104.0
529.799438 180.0
529.854492 208.0
529.90686 104.0
529.940735 104.0
529.978455 416.0
530.067749 144.0
530.112854 68.0
530.163391 176.0
530.217957 192.0
530.301758 11592.0
530.477539 136.0
530.551331 128.0
530.60498 136.0
530.658752 136.0
530.695618 144.0
530.776794 40.0
530.811157 136.0
530.848145 200.0
530.878845 84.0
530.911926 104.0
530.952942 148.0
531.00415 276.0
531.132812 60.0
531.210144 180.0
531.304626 1388.0
531.381104 112.0
531.413452 80.0
531.464355 48.0
531.510193 140.0
531.55188 52.0
531.616577 96.0
531.663391 52.0
531.70282 136.0
531.797668 172.0
531.835327 52.0
531.874146 68.0
531.989319 276.0
532.038208 136.0
532.095642 116.0
532.159607 228.0
532.237061 128.0
532.287598 228.0
532.324036 316.0
532.378113 112.0
532.427002 204.0
532.486633 208.0
532.539673 332.0
532.577576 108.0
532.621887 204.0
532.677307 136.0
532.714478 136.0
532.804993 176.0
532.87146 180.0
532.992188 108.0
533.02478 128.0
533.086609 80.0
533.133423 64.0
533.164062 236.0
533.236755 104.0
533.291443 120.0
533.31073 52.0
533.363281 124.0
533.384033 128.0
533.454285 196.0
533.512085 136.0
533.547974 148.0
533.586243 128.0
533.651978 48.0
533.686646 120.0
533.705444 64.0
533.725525 48.0
533.803711 88.0
533.865723 100.0
533.924377 132.0
533.981506 100.0
534.057922 44.0
534.125671 164.0
534.171631 60.0
534.218689 52.0
534.278198 48.0
534.332642 44.0
534.403381 64.0
534.431335 116.0
534.489075 72.0
534.522888 144.0
534.55658 48.0
534.583862 80.0
534.631714 52.0
534.719177 104.0
534.768372 92.0
534.851746 60.0
534.976929 44.0
535.028625 52.0
535.064392 40.0
535.138062 104.0
535.276184 84.0
535.427673 72.0
535.44342 64.0
535.457581 92.0
535.473267 100.0
535.491882 72.0
535.603149 200.0
535.71637 112.0
535.815735 56.0
535.850891 52.0
535.962524 56.0
536.025574 60.0
536.203186 160.0
536.294312 104.0
536.386475 52.0
536.4776 68.0
536.52478 52.0
536.557068 40.0
536.774109 100.0
536.902893 100.0
537.022766 32.0
537.225403 60.0
537.341064 112.0
537.373352 60.0
537.698914 80.0
537.880981 56.0
537.961182 76.0
538.010254 64.0
538.056396 96.0
538.384216 92.0
538.481201 60.0
538.537537 64.0
538.70752 48.0
538.828796 132.0
538.947754 68.0
539.035583 32.0
539.086426 32.0
539.197327 56.0
539.50238 48.0
539.687317 44.0
539.758789 156.0
539.841553 88.0
540.445862 84.0
540.779053 64.0
540.890137 96.0
541.004395 64.0
541.181763 32.0
541.386353 64.0
541.431824 92.0
541.667786 76.0
541.723633 60.0
541.857727 88.0
542.539185 52.0
542.599487 112.0
542.641174 72.0
542.720032 60.0
543.471375 92.0
543.574341 44.0
543.647705 80.0
543.689453 80.0
543.824097 68.0
544.195435 52.0
544.395081 128.0
544.47406 108.0
544.673767 32.0
544.854919 48.0
545.017517 100.0
545.268494 88.0
545.747253 108.0
545.88208 44.0
545.947205 48.0
546.09137 84.0
546.156494 40.0
546.463501 48.0
546.55658 76.0
546.654297 80.0
546.747375 68.0
546.839661 124.0
547.580688 140.0
547.613281 84.0
547.846191 68.0
547.944031 108.0
548.060486 76.0
548.666382 56.0
548.7099 120.0
549.239929 124.0
549.435852 72.0
549.599182 72.0
549.65979 156.0
549.851135 48.0
550.019165 112.0
550.233887 68.0
550.299255 56.0
550.415955 100.0
551.177368 72.0
551.312866 56.0
551.359619 48.0
551.990662 108.0
553.235168 88.0
553.605042 52.0
554.199951 60.0
554.918884 124.0
555.001465 52.0
555.13739 112.0
555.629883 68.0
557.240234 48.0
559.21991 84.0
559.370544 48.0
560.439575 92.0
560.74115 112.0
560.847168 20.0
561.495483 112.0
561.764343 56.0
562.613708 44.0
563.251221 52.0
563.435425 48.0
563.813477 64.0
564.20575 76.0
564.295593 112.0
564.498901 64.0
565.326721 96.0
565.47345 112.0
565.729004 28.0
567.164307 164.0
568.383057 128.0
569.289734 72.0
569.588928 140.0
570.01178 64.0
570.905457 68.0
571.56189 100.0
572.042542 72.0
572.747253 52.0
573.018799 132.0
573.114075 68.0
575.904785 56.0
577.147278 48.0
577.180725 44.0
577.434204 60.0
578.788452 100.0
583.28363 68.0
586.388123 120.0
588.471985 60.0
588.597534 116.0
589.051453 60.0
589.520142 116.0
590.864258 124.0
590.951355 68.0
591.241699 92.0
592.234192 52.0
594.745789 84.0
597.486389 88.0
601.687317 116.0
601.975342 40.0
602.229309 40.0
602.502869 68.0
602.629883 72.0
602.996399 52.0
604.546631 76.0
605.276001 100.0
605.893127 108.0
606.113586 112.0
607.003296 116.0
611.038147 80.0
611.072571 100.0
611.254639 124.0
612.74646 44.0
614.713745 60.0
617.277466 96.0
617.534607 36.0
620.079407 72.0
620.40155 96.0
621.100769 104.0
621.70105 148.0
621.979004 52.0
624.060486 80.0
624.488159 52.0
627.231567 112.0
628.827637 68.0
630.630615 40.0
631.825745 60.0
633.16217 48.0
634.600281 84.0
636.376404 88.0
636.411499 72.0
638.994873 52.0
639.2052 100.0
640.84259 96.0
643.677246 144.0
643.995422 144.0
646.310669 92.0
646.700317 100.0
647.885254 44.0
649.319702 88.0
649.913147 48.0
651.92395 84.0
658.019409 136.0
660.156738 112.0
660.535156 108.0
664.510498 96.0
664.654114 76.0
666.158386 84.0
667.756897 60.0
667.84436 80.0
668.471985 108.0
668.672668 56.0
669.80542 96.0
670.490662 100.0
670.526733 88.0
670.567932 76.0
671.047363 76.0
672.171753 80.0
673.152527 140.0
675.173035 68.0
676.466553 88.0
677.191467 80.0
677.761292 40.0
678.067017 52.0
679.461853 112.0
679.560425 96.0
679.856201 88.0
683.743408 68.0
683.844604 108.0
684.930481 64.0
685.691162 96.0
685.868347 96.0
686.436584 104.0
689.093323 44.0
689.150818 120.0
691.870361 72.0
694.605774 72.0
694.647705 52.0
695.125122 156.0
696.132996 140.0
696.957703 116.0
698.324463 88.0
701.088379 60.0
701.272827 52.0
703.102905 96.0
703.176758 32.0
703.921143 80.0
704.391174 92.0
705.056885 56.0
705.331726 136.0
705.828674 60.0
705.923828 212.0
706.727844 116.0
711.933105 76.0
712.134949 96.0
714.154602 108.0
714.271606 76.0
717.253418 148.0
717.679932 64.0
718.986816 64.0
719.093506 72.0
719.563293 252.0
720.022461 136.0
721.967712 44.0
724.451172 76.0
726.933594 40.0
727.770935 80.0
728.818298 60.0
731.733337 44.0
733.953125 180.0
734.805298 56.0
735.657959 80.0
736.322083 88.0
738.024292 124.0
738.283813 88.0
738.949158 100.0
739.284607 64.0
739.571472 176.0
741.307922 56.0
742.76825 64.0
745.553467 48.0
746.042664 72.0
748.207825 180.0
748.795898 88.0
749.193542 40.0
749.367859 48.0
750.26709 68.0
753.208313 80.0
753.443237 88.0
753.967773 48.0
755.203308 88.0
755.515137 144.0
755.624512 72.0
756.425964 36.0
756.467285 196.0
756.89978 108.0
758.488525 244.0
759.075134 104.0
759.343872 120.0
761.500732 84.0
762.929382 84.0
767.410767 92.0
769.231262 68.0
769.893799 52.0
770.059509 216.0
770.650574 52.0
770.788696 128.0
771.827881 100.0
773.620422 160.0
774.290344 68.0
774.938477 48.0
775.714294 60.0
776.019226 112.0
776.224365 72.0
776.862183 64.0
777.638977 60.0
778.216309 152.0
779.804993 108.0
782.230103 76.0
782.909363 40.0
784.006775 212.0
784.201843 184.0
784.820618 52.0
786.572327 188.0
786.979858 64.0
787.247864 220.0
787.767334 188.0
788.16394 68.0
789.29303 52.0
790.031311 188.0
792.052063 44.0
792.70752 100.0
793.62677 160.0
797.039429 128.0
798.894714 52.0
801.540833 132.0
802.583618 76.0
802.679443 152.0
804.507446 124.0
805.529541 56.0
807.298523 112.0
807.756653 116.0
809.38092 32.0
810.134155 120.0
811.33551 100.0
813.50415 72.0
813.848877 52.0
814.604187 48.0
814.899597 64.0
816.929138 52.0
817.680176 212.0
817.913574 188.0
820.801941 72.0
821.725891 32.0
822.559082 84.0
823.626831 84.0
824.283813 44.0
824.43811 148.0
826.64624 124.0
827.229187 172.0
827.492554 88.0
827.796021 40.0
827.853271 72.0
828.162537 164.0
829.440247 160.0
830.397766 52.0
831.21814 68.0
831.694458 104.0
835.803406 68.0
836.839417 40.0
837.196411 48.0
837.257324 76.0
838.203308 96.0
838.464905 84.0
838.550293 188.0
839.939819 88.0
843.340637 120.0
846.279297 52.0
847.090088 64.0
847.136414 44.0
847.262085 64.0
847.385559 64.0
847.475586 96.0
848.231628 64.0
848.463501 36.0
850.209351 88.0
850.331238 48.0
850.59906 196.0
851.591125 188.0
852.973999 124.0
853.189026 156.0
853.363464 68.0
853.689087 156.0
855.61499 72.0
856.983582 160.0
857.653748 84.0
858.895691 128.0
859.356567 160.0
859.922607 168.0
860.156067 80.0
860.325317 204.0
861.802917 140.0
862.469116 48.0
863.053711 156.0
865.680969 116.0
867.467896 140.0
868.617249 76.0
869.479675 60.0
870.706665 136.0
871.77478 108.0
872.351807 128.0
872.722229 108.0
872.875061 104.0
873.033875 160.0
873.36322 160.0
874.351624 68.0
874.863708 160.0
875.393555 116.0
878.080811 48.0
879.555847 212.0
880.500549 108.0
880.571411 44.0
881.227051 140.0
881.658447 68.0
882.054382 172.0
882.290894 140.0
882.922424 108.0
883.574158 172.0
883.763489 28.0
884.331604 76.0
884.680847 180.0
885.865173 160.0
886.001404 132.0
887.008789 84.0
888.520935 128.0
890.230347 96.0
892.280273 164.0
892.68457 136.0
893.505371 132.0
896.19043 152.0
896.404968 56.0
897.299011 188.0
898.992981 56.0
899.72113 240.0
900.736267 144.0
901.15448 76.0
901.279907 168.0
901.82373 160.0
902.570984 48.0
903.456116 108.0
904.389587 132.0
904.491394 76.0
904.922363 156.0
906.281982 92.0
906.323914 120.0
906.791321 124.0
907.085022 220.0
908.548157 160.0
908.878174 92.0
909.094177 136.0
909.400269 44.0
909.70636 52.0
910.324768 64.0
911.688416 184.0
912.956848 204.0
913.828979 108.0
913.973389 164.0
914.665466 88.0
915.092896 88.0
916.586609 128.0
916.89624 136.0
917.056702 172.0
918.491699 128.0
920.04248 88.0
920.459106 224.0
920.809326 192.0
921.208008 128.0
921.721497 68.0
921.878601 140.0
922.591858 172.0
923.402039 80.0
923.94043 52.0
924.146118 52.0
924.212646 116.0
925.223389 68.0
925.459473 124.0
928.277039 188.0
930.212402 144.0
930.267029 72.0
930.570557 76.0
931.384338 100.0
931.900696 168.0
933.207397 132.0
933.347229 128.0
933.687805 148.0
935.080933 104.0
936.121948 80.0
936.724915 144.0
936.767517 284.0
940.737305 160.0
941.213501 156.0
941.604309 216.0
942.92395 28.0
942.972839 60.0
944.366821 176.0
944.458557 180.0
944.868408 100.0
944.917358 180.0
945.988281 120.0
948.230042 140.0
950.683105 156.0
951.738892 228.0
951.800293 248.0
952.279297 188.0
952.831482 200.0
953.465027 156.0
954.589966 136.0
955.604858 52.0
955.91864 188.0
956.078674 180.0
956.644897 192.0
956.792664 176.0
956.903442 112.0
957.2052 184.0
957.550049 148.0
958.098206 184.0
958.190613 56.0
960.274109 208.0
960.958801 192.0
962.927979 144.0
963.335632 144.0
963.557983 92.0
964.095581 120.0
964.528198 72.0
965.449402 208.0
965.585449 172.0
965.785278 104.0
967.608826 136.0
968.036072 156.0
968.531494 56.0
969.280457 180.0
969.764465 112.0
970.874207 280.0
971.413818 248.0
973.021118 60.0
973.958801 56.0
975.5495 80.0
975.636536 68.0
976.214783 68.0
976.768311 200.0
977.122864 208.0
977.309509 164.0
978.890503 144.0
979.214355 176.0
979.600525 160.0
980.179932 132.0
982.636475 192.0
983.978333 64.0
984.59021 172.0
985.777161 120.0
986.958557 124.0
988.678711 148.0
988.860229 156.0
989.229492 144.0
989.342163 180.0
990.864014 136.0
991.008057 180.0
992.512329 116.0
992.970093 88.0
993.427979 224.0
994.224854 148.0
996.441345 168.0
996.485291 128.0
997.861694 44.0
998.616272 112.0
999.503296 108.0
1001.845337 92.0
1003.212769 144.0
1003.900024 84.0
1005.742249 76.0
1006.763794 84.0
1007.143921 180.0
1009.684631 124.0
1010.791687 172.0
1011.437195 180.0
1013.127869 128.0
1014.198792 128.0
1015.105347 132.0
1016.139221 72.0
1016.697571 160.0
1018.545166 104.0
1020.260864 184.0
1021.685364 132.0
1025.21167 176.0
1025.531372 152.0
1026.519531 184.0
1027.565552 124.0
1028.133423 148.0
1028.267456 204.0
1028.956909 160.0
1029.256958 140.0
1029.359131 96.0
1030.253296 48.0
1030.438477 48.0
1030.764404 164.0
1031.850952 52.0
1032.017212 112.0
1032.579834 52.0
1032.720581 188.0
1034.179321 108.0
1034.480225 92.0
1034.825928 68.0
1034.877075 192.0
1035.145996 60.0
1035.27417 76.0
1036.88208 156.0
1037.664062 144.0
1038.869751 44.0
1039.902832 148.0
1041.013428 240.0
1042.156738 164.0
1042.960083 52.0
1043.310181 96.0
1045.127197 44.0
1045.588867 200.0
1046.189209 132.0
1046.382324 132.0
1047.200073 72.0
1048.868896 196.0
1049.068726 228.0
1049.455444 148.0
1050.668823 144.0
1051.803711 44.0
1052.074829 116.0
1052.856079 140.0
1053.417969 188.0
1053.467529 220.0
1054.606934 88.0
1054.841309 124.0
1055.240356 132.0
1055.292114 116.0
1057.141968 208.0
1057.342651 108.0
1060.994873 144.0
1061.747925 76.0
1062.22876 152.0
1063.635986 128.0
1063.928101 208.0
1064.213745 180.0
1064.382568 204.0
1064.785156 144.0
1065.356812 124.0
1065.70105 184.0
1065.766113 164.0
1065.973999 84.0
1066.090942 112.0
1066.570068 160.0
1066.786377 168.0
1067.82019 144.0
1067.917725 132.0
1070.794434 140.0
1071.172241 152.0
1072.221191 208.0
1072.292847 84.0
1072.56665 196.0
1073.009888 228.0
1073.577148 172.0
1074.040283 168.0
1075.945679 180.0
1077.36084 192.0
1078.506348 188.0
1078.702393 172.0
1079.094604 56.0
1079.199219 188.0
1079.5 244.0
1079.984009 116.0
1081.554321 72.0
1082.50354 176.0
1082.575562 188.0
1083.001343 80.0
1083.178101 204.0
1084.016724 164.0
1084.154419 40.0
1084.89502 40.0
1087.518799 144.0
1087.597534 220.0
1087.807617 56.0
1088.109497 156.0
1088.31311 44.0
1091.439819 284.0
1092.486328 160.0
1093.631226 156.0
1093.736572 92.0
1093.802368 36.0
1097.093628 180.0
1097.313599 160.0
1098.098267 140.0
1099.807129 188.0
1099.945679 116.0
1100.348389 176.0
1101.530518 104.0
1102.025879 160.0
1102.40918 160.0
1102.567749 176.0
1103.373169 136.0
1104.518188 32.0
1104.815796 80.0
1105.133423 236.0
1105.391479 112.0
1105.649536 144.0
1106.053223 124.0
1106.470337 176.0
1107.384155 176.0
1107.470215 128.0
1107.523193 196.0
1107.920654 80.0
1108.033203 80.0
1109.650391 120.0
1109.875732 152.0
1110.492554 96.0
1111.188965 148.0
1113.100586 196.0
1113.220093 184.0
1113.273193 220.0
1113.452515 196.0
1114.110107 68.0
1114.71228 216.0
1115.445679 124.0
1116.143799 108.0
1116.376465 172.0
1116.629272 72.0
1118.139404 72.0
1119.390991 116.0
1120.09021 236.0
1120.196777 64.0
1122.782837 172.0
1124.364014 164.0
1126.23999 176.0
1126.433716 84.0
1127.055054 108.0
1127.141846 152.0
1127.268921 184.0
1127.48938 48.0
1127.656494 160.0
1127.963867 120.0
1129.374756 180.0
1129.588745 124.0
1131.522827 184.0
1132.232544 168.0
1132.466919 108.0
1132.902344 384.0
1134.51062 136.0
1135.603638 72.0
1136.281128 212.0
1136.945435 124.0
1138.126831 68.0
1138.462524 260.0
1138.522949 140.0
1139.624634 132.0
1139.8396 172.0
1140.498169 164.0
1140.874634 164.0
1142.932617 120.0
1143.020142 108.0
1143.598877 168.0
1143.713257 112.0
1144.305664 200.0
1144.783691 48.0
1144.851074 140.0
1144.918457 180.0
1145.457153 108.0
1146.245483 72.0
1147.060913 196.0
1147.606934 152.0
1147.674438 156.0
1148.213867 152.0
1152.466553 132.0
1152.811157 148.0
1153.331543 152.0
1153.960205 132.0
1155.039429 212.0
1155.772827 156.0
1156.334473 160.0
1157.349854 32.0
1157.437866 136.0
1157.654663 180.0
1158.115479 72.0
1158.643433 172.0
1158.778931 132.0
1160.059814 188.0
1160.215698 92.0
1160.459961 120.0
1161.090454 168.0
1161.190186 152.0
1161.700806 168.0
1162.501465 124.0
1163.343018 168.0
1163.526367 68.0
1164.497314 104.0
1166.392944 184.0
1166.60376 208.0
1166.74646 60.0
1167.371948 196.0
1167.494385 128.0
1168.011353 172.0
1168.113281 116.0
1169.140747 204.0
1169.5354 192.0
1169.862183 164.0
1170.454468 136.0
1171.258057 36.0
1172.341309 52.0
1173.697754 76.0
1174.025146 168.0
1174.529785 212.0
1174.727661 64.0
1176.256104 172.0
1176.522339 100.0
1176.611084 164.0
1177.25293 228.0
1177.498779 40.0
1178.509766 116.0
1179.862915 180.0
1180.409912 188.0
1181.251099 52.0
1181.75061 168.0
1182.154297 148.0
1182.578613 44.0
1182.726929 112.0
1184.146362 92.0
1184.434082 192.0
1186.085449 144.0
1186.380127 148.0
1187.031494 180.0
1187.244019 96.0
1188.581665 96.0
1188.676392 136.0
1190.541626 148.0
1190.785278 52.0
1191.121826 40.0
1191.925659 196.0
1192.365356 140.0
1192.592163 184.0
1192.681519 76.0
1192.956543 68.0
1193.107788 60.0
1193.939697 120.0
1194.228638 32.0
1194.331787 228.0
1196.712769 152.0
1197.952393 152.0
1198.276123 176.0
1199.158203 124.0
1200.006104 44.0
1201.116333 104.0
1201.247437 156.0
1201.447388 136.0
1201.937256 164.0
1202.454834 148.0
1202.772339 188.0
1203.372925 220.0
1203.635254 220.0
1203.892334 220.0
1204.263672 172.0
1204.581421 76.0
1204.809448 136.0
1204.87854 144.0
1205.037354 124.0
1205.59021 152.0
1205.742188 212.0
1206.350464 144.0
1206.925781 184.0
1207.11792 48.0
1207.435913 160.0
1207.622681 176.0
1209.573853 124.0
1210.723145 148.0
1211.233032 228.0
1211.568237 172.0
1212.143311 160.0
1212.690796 172.0
1212.919434 160.0
1213.467163 124.0
1213.578003 104.0
1213.723633 128.0
1214.250732 184.0
1214.673706 76.0
1214.95813 68.0
1215.22876 156.0
1215.418579 216.0
1215.478516 108.0
1215.686646 68.0
1216.401611 224.0
1216.630615 208.0
1216.963867 200.0
1217.422119 156.0
1217.706909 100.0
1217.894409 60.0
1218.012451 160.0
1218.477905 196.0
1218.637695 124.0
1218.769775 216.0
1220.111084 148.0
1220.507446 192.0
1220.597778 144.0
1221.376709 28.0
1221.738403 52.0
1222.079346 168.0
1222.740356 124.0
1223.617432 56.0
1223.888916 104.0
1224.062988 76.0
1224.125732 92.0
1224.94751 204.0
1225.142578 132.0
1225.393311 104.0
1225.776611 176.0
1226.472656 240.0
1226.710449 68.0
1226.898682 120.0
1227.092163 80.0
1227.282104 144.0
1227.665649 212.0
1228.06311 176.0
1228.153809 188.0
1228.258423 196.0
1229.940063 56.0
1230.051758 76.0
1230.268066 164.0
1230.463623 76.0
1231.622803 52.0
1231.720581 56.0
1232.062866 92.0
1232.111816 132.0
1232.349243 168.0
1234.593018 196.0
1235.09668 96.0
1235.894165 220.0
1235.943115 192.0
1236.369995 204.0
1236.581787 88.0
1236.824829 112.0
1237.020874 172.0
1237.083862 164.0
1237.37793 204.0
1237.762939 76.0
1237.952026 152.0
1238.379272 240.0
1238.505371 140.0
1238.68042 160.0
1239.437012 136.0
1240.207886 188.0
1240.523315 128.0
1240.859863 156.0
1241.715332 176.0
1242.108032 96.0
1242.444824 128.0
1242.732422 148.0
1243.062256 152.0
1243.434204 124.0
1243.504272 108.0
1243.770996 180.0
1245.076904 112.0
1245.406982 64.0
1245.67395 164.0
1246.629395 144.0
1249.505127 188.0
1249.821777 132.0
1250.574707 128.0
1251.292725 52.0
1251.947632 160.0
1252.292725 120.0
1252.567383 180.0
1252.644897 188.0
1253.074585 192.0
1253.475464 188.0
1253.687622 136.0
1254.709595 264.0
1256.310425 216.0
1256.663208 172.0
1258.124023 184.0
1258.420532 48.0
1259.049072 200.0
1259.154907 160.0
1259.642334 156.0
1259.825928 48.0
1259.988403 224.0
1260.581909 48.0
1263.997314 104.0
1264.641235 208.0
1265.165039 164.0
1265.2146 88.0
1265.745605 80.0
1266.198853 144.0
1266.312134 108.0
1267.303955 28.0
1268.140381 216.0
1268.877319 148.0
1270.692871 164.0
1271.026367 260.0
1272.140625 132.0
1272.203125 164.0
1272.396118 116.0
1272.857666 224.0
1273.716919 180.0
1273.789795 188.0
1274.4729 120.0
1275.116699 176.0
1275.669189 164.0
1276.460205 64.0
1276.97937 192.0
1279.434204 164.0
1280.603516 132.0
1281.342773 44.0
1281.784546 156.0
1281.849243 220.0
1282.019775 136.0
1282.126587 56.0
1282.739624 140.0
1283.837524 176.0
1284.493652 184.0
1284.743408 92.0
1285.135742 56.0
1285.392578 172.0
1285.571045 256.0
1285.735107 56.0
1286.206177 84.0
1287.091431 192.0
1287.684082 92.0
1288.112671 160.0
1289.79895 140.0
1290.206421 68.0
1291.028687 96.0
1291.665283 160.0
1292.445068 232.0
1293.567139 112.0
1295.817261 236.0
1296.046509 136.0
1296.494019 140.0
1296.698608 132.0
1297.236206 84.0
1297.372437 180.0
1298.792236 108.0
1299.029541 176.0
1299.667358 68.0
1300.069214 72.0
1300.205566 176.0
1300.722412 28.0
1300.786987 144.0
1300.858765 192.0
1301.109985 196.0
1301.339722 92.0
1301.569458 108.0
1302.029053 132.0
1302.39624 140.0
1302.697021 192.0
1303.623901 156.0
1304.19165 148.0
1304.996704 172.0
1305.334717 96.0
1305.478516 152.0
1305.528809 160.0
1307.003418 148.0
1307.658325 140.0
1308.039795 116.0
1308.09021 60.0
1308.264526 184.0
1309.04541 112.0
1309.198975 52.0
1309.278198 136.0
1309.472656 196.0
1309.609497 132.0
1309.991211 180.0
1310.092041 56.0
1310.524292 100.0
1310.574707 160.0
1311.187256 108.0
1311.417847 188.0
1313.07605 88.0
1313.891235 136.0
1314.475586 156.0
1314.656006 216.0
1315.991333 56.0
1316.186279 152.0
1316.691772 80.0
1316.836182 56.0
1317.168457 128.0
1317.887817 168.0
1318.223267 72.0
1318.620728 64.0
1318.700195 196.0
1318.801392 136.0
1320.551147 92.0
1322.656616 232.0
1322.82312 124.0
1322.917114 144.0
1322.989624 124.0
1324.232544 248.0
1324.372559 52.0
1324.589844 216.0
1325.749146 32.0
1325.995483 184.0
1327.003052 192.0
1327.960327 152.0
1328.141602 168.0
1328.328125 128.0
1328.653442 240.0
1328.946777 120.0
1330.565308 112.0
1330.891968 212.0
1331.029907 208.0
1332.671509 48.0
1332.838623 116.0
1332.918457 160.0
1333.187378 160.0
1333.34729 160.0
1333.732422 152.0
1333.797852 36.0
1333.899658 104.0
1334.154053 168.0
1334.415771 148.0
1334.837524 160.0
1335.208374 176.0
1337.107178 100.0
1337.187256 204.0
1337.973389 124.0
1338.264526 140.0
1338.679565 44.0
1339.014526 112.0
1339.509888 48.0
1339.779419 204.0
1340.311279 40.0
1340.580811 60.0
1340.806763 184.0
1342.279297 148.0
1342.775146 112.0
1343.89856 156.0
1345.000488 180.0
1345.956787 164.0
1346.102905 68.0
1346.19043 248.0
1346.57019 120.0
1346.993896 184.0
1347.256836 144.0
1347.388306 172.0
1347.505249 112.0
1348.205811 168.0
1348.703613 160.0
1349.888062 140.0
1350.100098 160.0
1350.311523 224.0
1350.787598 220.0
1351.0802 60.0
1351.270386 128.0
1351.533813 248.0
1351.870361 164.0
1352.960938 176.0
1353.305054 92.0
1354.564697 188.0
1354.659912 172.0
1354.845947 148.0
1355.115356 96.0
1355.832153 124.0
1356.110718 176.0
1356.763062 188.0
1356.924316 172.0
1358.618408 140.0
1358.757812 208.0
1360.137329 168.0
1360.372314 192.0
1361.378174 164.0
1361.862793 116.0
1362.839844 156.0
1363.038208 132.0
1364.280273 136.0
1365.97168 152.0
1366.486572 116.0
1366.583862 192.0
1366.714722 108.0
1367.730225 120.0
1368.14978 60.0
1368.286743 200.0
1368.466431 256.0
1368.827148 108.0
1370.499146 76.0
1370.557983 176.0
1370.926514 144.0
1371.1698 64.0
1371.390869 188.0
1372.02478 220.0
1372.194336 200.0
1373.315186 196.0
1373.588135 80.0
1374.023315 168.0
1374.082397 176.0
1375.425415 128.0
1375.654175 92.0
1376.008545 200.0
1377.116211 152.0
1377.175293 128.0
1377.530884 136.0
1377.817993 68.0
1378.202148 212.0
1378.253906 124.0
1378.527222 156.0
1379.362061 148.0
1380.109131 172.0
1380.811523 132.0
1382.690674 44.0
1383.060791 240.0
1383.719604 140.0
1383.919434 40.0
1384.44519 156.0
1384.701904 188.0
1384.874756 120.0
1385.971191 116.0
1386.408325 168.0
1386.667725 164.0
1387.371826 68.0
1387.764771 184.0
1388.23938 184.0
1389.871216 152.0
1390.24231 160.0
1390.494629 144.0
1390.650391 76.0
1390.895386 56.0
1391.103271 144.0
1391.17749 112.0
1391.42981 200.0
1391.979248 164.0
1392.090698 100.0
1393.123047 132.0
1393.680298 136.0
1393.786133 216.0
1394.326782 136.0
1394.668579 168.0
1395.035034 204.0
1395.181519 212.0
1395.441772 212.0
1396.378662 144.0
1397.039795 176.0
1397.211792 32.0
1397.390259 148.0
1397.873901 208.0
1398.380005 208.0
1398.484131 200.0
1398.997803 192.0
1399.049927 204.0
1399.228516 212.0
1399.615723 56.0
1399.705078 224.0
1399.943359 168.0
1400.077393 116.0
1400.26355 168.0
1400.509399 112.0
1400.673218 132.0
1401.328735 100.0
1401.380981 120.0
1401.462891 204.0
1402.588135 96.0
1403.154663 216.0
1403.505127 176.0
1403.781006 168.0
1404.094238 136.0
1404.780396 160.0
1405.526489 212.0
1405.89209 68.0
1406.004028 128.0
1406.205566 208.0
1406.319458 184.0
1406.451904 80.0
1407.29541 136.0
1407.885254 152.0
1408.154175 264.0
1408.333374 116.0
1408.512695 64.0
1408.953369 168.0
1410.552612 192.0
1411.292725 244.0
1411.823608 172.0
1412.511719 136.0
1413.334595 84.0
1414.052979 112.0
1414.409546 208.0
1414.51709 164.0
1415.100952 80.0
1415.774902 176.0
1415.909668 44.0
1416.366577 144.0
1416.905884 232.0
1417.138062 96.0
1417.681763 280.0
1418.244385 148.0
1418.861816 132.0
1419.266724 108.0
1419.469238 124.0
1420.166626 84.0
1420.309082 240.0
1420.556641 172.0
1420.954224 52.0
1421.231812 180.0
1422.950562 196.0
1423.37854 140.0
1423.986816 224.0
1424.422485 160.0
1424.587769 40.0
1424.805542 220.0
1424.948364 96.0
1425.737305 156.0
1426.466309 144.0
1426.924927 100.0
1427.323364 176.0
1427.646729 152.0
1427.887329 156.0
1429.685425 232.0
1430.159546 116.0
1430.279907 152.0
1430.603638 132.0
1430.716553 100.0
1431.371582 136.0
1431.496582 252.0
1431.981567 188.0
1433.156738 144.0
1433.412842 168.0
1433.495728 164.0
1433.69165 164.0
1433.947876 144.0
1434.294678 236.0
1434.369995 124.0
1434.876465 156.0
1434.965576 116.0
1436.187134 252.0
1436.783081 136.0
1438.224365 204.0
1438.307373 156.0
1439.167969 124.0
1439.74939 100.0
1440.013794 180.0
1440.489624 156.0
1440.5802 96.0
1440.655762 172.0
1441.894897 124.0
1442.303101 192.0
1442.484497 188.0
1443.301025 64.0
1443.709351 132.0
1443.777344 124.0
1444.155518 120.0
1444.533691 188.0
1444.700073 196.0
1445.025391 108.0
1446.289185 172.0
1446.584351 128.0
1446.819092 112.0
1447.53833 152.0
1448.250244 176.0
1448.848633 200.0
1449.00769 204.0
1449.578735 184.0
1450.038208 172.0
1450.280762 168.0
1450.404541 184.0
1450.834106 148.0
1450.887207 140.0
1451.24353 172.0
1451.508911 136.0
1451.857666 172.0
1452.252075 116.0
1452.774658 196.0
1453.154785 140.0
1453.450684 160.0
1454.186768 160.0
1454.412354 180.0
1454.695312 136.0
1454.786377 192.0
1454.945801 124.0
1455.950439 196.0
1456.221436 44.0
1456.39624 148.0
1456.456909 88.0
1456.510132 160.0
1456.943115 100.0
1457.389893 104.0
1457.528076 188.0
1458.13501 180.0
1458.706055 160.0
1459.131836 192.0
1459.82373 204.0
1459.89209 60.0
1460.371216 284.0
1460.645142 128.0
1461.002563 128.0
1461.664551 140.0
1461.887573 192.0
1462.113525 172.0
1462.166748 148.0
1462.455933 156.0
1462.524414 176.0
1462.684326 140.0
1463.011597 168.0
1464.024292 80.0
1464.077637 176.0
1464.245117 116.0
1464.519287 168.0
1464.801147 88.0
1465.288696 192.0
1466.088745 112.0
1466.332642 140.0
1466.576538 136.0
1467.102417 132.0
1467.346436 140.0
1467.994507 248.0
1468.208008 168.0
1468.337646 160.0
1468.955444 108.0
1469.581055 144.0
1469.672607 160.0
1469.878662 152.0
1470.092285 108.0
1470.656982 156.0
1471.008179 112.0
1471.595947 212.0
1472.947632 44.0
1473.008789 128.0
1473.826172 144.0
1473.963745 172.0
1474.338135 160.0
1474.567383 188.0
1474.796753 184.0
1475.293579 188.0
1476.160278 188.0
1476.264526 128.0
1476.873901 172.0
1477.396606 204.0
1477.779053 216.0
1477.855591 164.0
1478.077515 180.0
1478.230469 156.0
1478.647705 144.0
1478.988159 180.0
1479.592896 136.0
1480.366211 156.0
1480.526978 160.0
1481.223999 164.0
1482.35791 180.0
1482.564819 64.0
1482.695068 204.0
1483.223877 152.0
1483.499878 172.0
1483.668457 164.0
1484.27417 120.0
1484.619263 180.0
1484.764893 124.0
1484.994995 160.0
1485.248169 96.0
1486.253052 140.0
1486.767212 176.0
1486.836304 132.0
1487.227661 124.0
1487.442627 136.0
1487.857178 148.0
1488.508545 132.0
1488.85437 136.0
1489.323853 208.0
1489.408325 152.0
1489.492798 196.0
1489.687988 164.0
1489.938354 344.0
1490.353271 164.0
1490.737427 144.0
1491.160034 140.0
1491.459839 136.0
1491.828735 112.0
1492.816895 132.0
1493.005127 224.0
1493.258911 168.0
1493.712769 72.0
1493.789673 240.0
1494.85144 128.0
1495.459351 228.0
1495.682617 144.0
1495.921143 156.0
1496.144409 248.0
1496.583252 96.0
1496.860474 176.0
1496.960571 84.0
1497.052979 36.0
1497.230103 164.0
1497.360962 208.0
1497.653687 164.0
1498.077271 164.0
1498.254517 184.0
1498.601196 148.0
1498.87085 108.0
1499.209961 100.0
1499.410278 156.0
1499.572144 172.0
1500.242676 148.0
1500.404663 124.0
1500.905762 76.0
1501.252808 128.0
1501.376099 176.0
1501.515015 184.0
1501.700073 212.0
1501.815796 92.0
1502.155151 132.0
1502.374146 196.0
1502.448242 192.0
1502.610229 188.0
1502.725952 180.0
1503.307007 216.0
1503.486206 152.0
1503.667358 152.0
1504.087036 196.0
1504.169067 112.0
