>compound Clotrimazole (Canesten)
>formula C22H17ClN2
>ionization [M+H]+
>parentmass 345.115
#inchi InChI=1S/C22H17ClN2/c23-21-14-8-7-13-20(21)22(25-16-15-24-17-25,18-9-3-1-4-10-18)19-11-5-2-6-12-19/h1-17H
#inchikey VNFPBHJOKIVQEB
#Ion_Source LC-ESI
#Instrument qTof
#Compound_Source Commercial
#PI Dorrestein
#Data_Collector Garg_Neha
#Scan -1
#Precursor_MZ 345.115
#ExactMass 344.108
#Charge 1
#CAS_Number 23593-75-1
#Pubmed_ID N/A
#Smiles C1=CC=CC(=C1)C(C2=C(C=CC=C2)Cl)(C3=CC=CC=C3)N4C=NC=C4
#INCHI_AUX N/A
#Library_Class 1
#SpectrumID CCMSLIB00000078197
#IonMode Positive
#UpdateWorkflowName UPDATE-SINGLE-ANNOTATED-GOLD
#LibraryQualityString Gold
#TaskID 77f51c88eb8b467eb4a01dd2d0cb90d2
##Scan# 1258
#SpectrumFile Plate3_41_60_GG11_01_16500.mzXML
#LibraryName FDALibrary_2_04302014.mgf
#MQScore -1
#Organism FDALibrary_2_04302014
#TIC_Query 0
#RT_Query -1
#MZErrorPPM -1
#SharedPeaks 0
#MassDiff 0
#LibMZ -1
#SpecMZ 345.115
#SpecCharge 0
#internalFilename spec-00000.mgf

>collision 10
45.256485 164.0
45.492443 140.0
45.642918 200.0
45.74786 200.0
45.854271 144.0
46.045849 140.0
46.197235 140.0
46.32584 156.0
46.430206 232.0
46.468185 156.0
46.733128 176.0
46.742653 196.0
46.861111 148.0
46.919716 200.0
47.141624 172.0
47.469364 184.0
47.533836 152.0
48.030495 180.0
48.084305 172.0
48.225182 160.0
48.243149 160.0
48.286015 220.0
48.431339 180.0
48.459045 144.0
48.538052 196.0
48.66848 152.0
48.710144 152.0
48.726814 200.0
49.291111 160.0
49.331642 160.0
49.558365 172.0
49.621437 140.0
49.767353 204.0
50.443588 164.0
50.53875 208.0
50.587082 164.0
51.067482 188.0
51.342354 256.0
51.379436 176.0
51.435093 168.0
51.525059 140.0
51.835541 196.0
51.92012 176.0
52.169956 148.0
52.227474 152.0
52.466515 220.0
52.486702 172.0
52.881084 236.0
52.905689 212.0
52.995483 200.0
53.053455 180.0
53.170944 200.0
53.351059 164.0
53.369957 220.0
53.425224 152.0
53.639561 212.0
53.780773 156.0
53.865463 160.0
54.052601 184.0
54.251789 160.0
54.342716 168.0
54.373531 144.0
54.817654 216.0
54.838287 228.0
54.93708 188.0
54.968063 148.0
54.982822 140.0
55.195541 188.0
55.211811 140.0
55.254707 212.0
55.675671 172.0
55.732117 180.0
55.936226 148.0
56.537354 140.0
56.625523 184.0
56.799549 228.0
56.979691 140.0
57.078236 156.0
57.204582 152.0
57.226349 152.0
57.390579 196.0
57.527065 168.0
57.541454 228.0
58.464569 144.0
58.691544 180.0
58.805954 156.0
59.021355 144.0
59.129967 168.0
59.209579 148.0
59.468681 164.0
59.639172 200.0
60.45039 144.0
60.489536 204.0
60.760277 304.0
61.038296 188.0
61.421413 180.0
61.499432 220.0
61.732212 148.0
61.885559 164.0
62.039093 164.0
62.202236 140.0
62.26347 160.0
62.274464 172.0
62.315308 176.0
62.409611 160.0
62.738659 168.0
62.991146 160.0
63.112839 156.0
63.150791 164.0
63.366077 168.0
63.397766 160.0
63.6754 304.0
63.746887 176.0
63.781261 256.0
64.010948 164.0
64.325027 152.0
64.390495 152.0
64.807228 148.0
64.929832 228.0
64.947479 188.0
65.034119 196.0
65.329788 192.0
65.711601 188.0
65.847198 152.0
65.903732 140.0
65.933388 160.0
66.05867 196.0
66.091293 160.0
66.271019 176.0
66.298569 140.0
66.314774 188.0
66.337463 220.0
66.584984 184.0
66.75473 220.0
66.915817 148.0
66.94838 224.0
67.314926 176.0
67.378998 152.0
67.467247 148.0
67.712685 196.0
67.899521 168.0
68.15889 164.0
68.369377 152.0
68.948235 160.0
69.077202 148.0
69.103477 136.0
69.198013 236.0
69.521233 196.0
69.609215 160.0
69.657379 148.0
69.732155 192.0
69.755424 224.0
69.918419 184.0
70.013313 172.0
70.026634 208.0
70.431946 160.0
70.487076 140.0
70.577339 176.0
70.609108 168.0
70.741295 200.0
70.897057 140.0
70.922195 260.0
70.98423 208.0
71.142815 160.0
71.363708 148.0
71.634659 144.0
71.77623 144.0
72.118935 144.0
72.235924 148.0
72.306671 172.0
72.567535 208.0
73.054955 164.0
73.197914 240.0
73.46209 184.0
75.050232 144.0
75.136467 148.0
75.300453 188.0
75.326355 212.0
75.396317 216.0
75.502655 192.0
75.675697 148.0
75.774414 148.0
75.857597 156.0
75.98423 224.0
76.10569 168.0
76.482933 148.0
76.676262 140.0
76.92569 148.0
76.965843 160.0
77.324203 204.0
77.425751 164.0
77.878242 184.0
77.946754 216.0
78.09713 172.0
78.390198 212.0
78.735962 156.0
78.799507 160.0
78.833122 144.0
79.171005 164.0
79.266228 128.0
79.424454 156.0
79.665871 148.0
79.681854 240.0
79.875626 160.0
79.955696 184.0
79.97171 148.0
80.16227 176.0
80.199692 160.0
80.535133 168.0
80.636978 172.0
80.907074 184.0
80.944672 200.0
81.048569 164.0
81.129219 168.0
81.428871 148.0
81.552841 212.0
81.579803 160.0
81.612167 180.0
81.851479 160.0
81.972168 196.0
82.181328 160.0
82.607697 172.0
82.780083 160.0
83.427902 176.0
83.540115 164.0
83.698448 140.0
84.459473 144.0
84.609528 168.0
84.959557 160.0
85.001755 168.0
85.108223 168.0
85.163315 192.0
85.201889 316.0
85.299286 156.0
85.517616 188.0
85.542099 188.0
86.217155 176.0
86.402061 140.0
86.546425 224.0
87.069359 180.0
87.113937 160.0
87.167816 188.0
87.191971 204.0
87.50634 200.0
87.545441 152.0
87.769012 208.0
87.987343 148.0
88.179893 148.0
88.756325 168.0
88.851982 216.0
89.041565 168.0
89.310333 156.0
89.331024 156.0
89.442047 152.0
89.801926 176.0
89.915123 188.0
89.939659 144.0
90.130402 248.0
90.253265 172.0
90.309998 188.0
90.345932 148.0
90.393234 168.0
90.612877 204.0
90.686775 160.0
90.722794 152.0
90.798637 160.0
90.942833 232.0
91.051048 160.0
91.066246 188.0
91.343758 168.0
91.376091 148.0
91.531204 176.0
91.575974 152.0
91.717812 180.0
92.163528 144.0
92.18837 236.0
92.343224 168.0
92.428925 156.0
92.542244 152.0
92.563301 156.0
92.75489 160.0
92.834702 208.0
93.119446 164.0
93.175156 160.0
93.378906 156.0
93.492416 288.0
93.565559 196.0
93.773598 140.0
93.981865 144.0
94.033966 196.0
94.12204 116.0
94.885086 156.0
95.054626 352.0
95.296547 256.0
95.401489 172.0
95.492882 172.0
95.704994 164.0
95.81601 140.0
95.838455 152.0
95.874466 140.0
96.063591 196.0
96.098709 144.0
96.391594 220.0
96.571449 148.0
96.690796 168.0
96.71624 140.0
96.845467 176.0
97.039474 152.0
97.06926 188.0
97.170876 236.0
97.361275 180.0
97.555115 184.0
97.62265 140.0
97.783966 180.0
97.915871 168.0
98.0597 208.0
98.073494 156.0
98.170265 192.0
98.400955 144.0
98.468094 208.0
98.786324 300.0
98.871407 152.0
99.023849 160.0
99.156593 168.0
99.225967 184.0
99.702774 212.0
99.736145 176.0
99.903183 204.0
99.982635 176.0
100.874329 192.0
100.966309 200.0
101.128365 188.0
101.230461 180.0
101.381058 228.0
101.410767 172.0
101.454865 140.0
101.488953 224.0
101.523041 148.0
101.757805 152.0
102.413658 168.0
102.53627 152.0
102.731857 196.0
103.071045 216.0
103.127632 192.0
103.952698 320.0
104.002625 160.0
104.056885 148.0
104.127029 176.0
104.18132 184.0
104.262596 216.0
104.289017 160.0
104.413261 180.0
104.716286 168.0
104.932281 140.0
105.070969 140.0
105.130142 152.0
105.813545 244.0
105.972588 152.0
106.08326 144.0
106.393028 196.0
106.462837 192.0
106.481323 144.0
106.501862 176.0
106.55938 192.0
106.999504 164.0
107.061272 168.0
107.110703 248.0
107.172508 188.0
107.316788 144.0
107.843193 140.0
108.10585 152.0
108.19278 164.0
108.211411 188.0
108.350174 204.0
108.44342 156.0
108.484879 268.0
108.530487 220.0
109.099358 180.0
109.468918 188.0
109.930405 152.0
110.364883 144.0
110.423431 192.0
110.471542 172.0
110.52803 156.0
111.041275 152.0
111.183937 168.0
111.398102 148.0
111.616676 140.0
111.690285 164.0
111.726044 172.0
111.778648 176.0
111.839676 148.0
112.088181 200.0
112.119797 160.0
112.239952 176.0
112.288452 148.0
112.364395 176.0
112.924171 144.0
113.082855 156.0
113.265762 204.0
113.392067 180.0
113.47686 208.0
113.578651 200.0
113.716568 160.0
113.860939 152.0
113.892792 152.0
114.045776 148.0
114.386108 140.0
115.053459 240.0
115.099007 196.0
115.260521 204.0
115.572701 176.0
115.660439 160.0
115.902443 220.0
115.990311 164.0
116.058914 168.0
116.415115 184.0
116.905251 348.0
117.130402 228.0
117.537209 132.0
117.830261 244.0
117.975052 180.0
118.063705 140.0
118.236778 172.0
118.314697 172.0
118.353668 220.0
118.470627 160.0
118.598473 200.0
118.745903 164.0
118.808807 156.0
118.880409 144.0
119.160515 220.0
119.186584 172.0
119.438774 176.0
119.769623 268.0
119.937401 184.0
119.99408 152.0
120.087845 144.0
120.214378 184.0
120.36937 156.0
120.490746 176.0
120.75399 144.0
121.071327 160.0
121.843422 220.0
121.865395 184.0
121.911537 196.0
122.162186 172.0
122.472321 188.0
122.690712 144.0
122.706146 184.0
122.944366 144.0
123.0877 172.0
123.239372 188.0
123.302139 200.0
123.330872 224.0
123.453018 112.0
123.598465 160.0
124.085739 180.0
124.183304 152.0
124.215813 144.0
124.44516 172.0
124.51622 148.0
124.88961 212.0
124.943993 144.0
125.014824 2128.0
125.350456 156.0
125.379425 164.0
125.483582 172.0
125.727951 156.0
125.816071 116.0
126.297043 156.0
126.3666 176.0
126.446953 148.0
126.632782 144.0
126.697739 144.0
127.011322 504.0
127.051949 188.0
127.121506 152.0
127.341515 164.0
127.440353 140.0
127.694374 176.0
127.775352 200.0
127.802353 164.0
128.193527 200.0
128.444412 160.0
128.661377 168.0
128.788269 200.0
129.057297 188.0
129.103912 156.0
129.393539 148.0
129.430771 168.0
129.532623 204.0
129.645584 220.0
129.878479 140.0
129.94397 152.0
129.980576 208.0
130.073624 156.0
130.289352 144.0
130.443893 140.0
130.53093 196.0
131.015076 168.0
131.131287 144.0
131.185989 152.0
131.341049 164.0
131.772507 168.0
132.186203 116.0
133.174454 152.0
133.335281 184.0
133.809128 164.0
133.908142 152.0
133.957703 156.0
133.994629 176.0
134.260757 244.0
134.736252 144.0
134.918823 152.0
134.969681 152.0
135.756516 176.0
135.882248 216.0
135.903137 156.0
135.921692 156.0
136.200287 160.0
136.24675 168.0
136.631927 252.0
136.679199 176.0
136.737366 164.0
137.0401 192.0
137.252197 180.0
137.352478 172.0
137.378143 208.0
137.466797 224.0
137.501801 172.0
137.595169 172.0
138.376053 140.0
138.816559 172.0
138.865799 184.0
139.008911 160.0
139.058792 188.0
139.100433 140.0
139.209183 204.0
139.389313 188.0
140.064529 184.0
140.144623 192.0
140.182327 140.0
140.295456 212.0
140.609177 140.0
140.784149 172.0
141.064667 152.0
141.590302 164.0
141.649521 188.0
141.727707 140.0
142.026398 176.0
142.22438 156.0
142.425171 168.0
142.475052 196.0
142.559128 228.0
142.712723 156.0
142.781677 140.0
143.453125 144.0
143.538956 144.0
143.801376 212.0
143.888199 216.0
144.17395 216.0
144.384323 180.0
144.487183 208.0
144.508713 140.0
144.817886 180.0
144.894165 200.0
145.083496 152.0
145.534546 252.0
145.717072 156.0
145.791565 188.0
145.832428 144.0
145.988693 188.0
146.133011 168.0
146.378525 176.0
146.537659 188.0
146.935303 164.0
147.425461 248.0
147.539062 232.0
147.855927 148.0
148.6707 156.0
148.794006 140.0
148.968857 188.0
149.016907 896.0
149.041733 140.0
149.06604 156.0
149.102493 144.0
149.394272 180.0
149.501328 232.0
149.929016 180.0
150.015244 196.0
150.051804 144.0
150.172745 208.0
150.195694 140.0
150.253571 176.0
150.425125 160.0
150.486832 236.0
150.554459 308.0
150.796326 172.0
150.894104 188.0
150.938126 208.0
151.022141 168.0
151.223358 168.0
151.283096 160.0
151.324829 168.0
151.652969 156.0
151.724045 208.0
152.394073 208.0
152.95723 224.0
153.018784 176.0
153.104965 192.0
153.203491 140.0
153.324081 144.0
153.548569 148.0
153.75087 216.0
153.918732 208.0
154.054565 176.0
154.232483 188.0
154.301697 220.0
154.36351 160.0
154.766846 172.0
154.967468 140.0
155.059158 208.0
155.859528 160.0
156.133469 176.0
156.645599 148.0
156.801361 156.0
156.842072 180.0
156.866165 180.0
157.417557 160.0
157.480164 116.0
157.569916 192.0
157.594894 204.0
157.874863 148.0
158.26355 144.0
158.485641 160.0
158.661072 168.0
158.834106 188.0
158.964569 172.0
159.055054 148.0
159.263321 140.0
159.336166 212.0
159.414062 180.0
159.569901 188.0
159.647858 144.0
160.234329 176.0
160.516632 144.0
160.657333 152.0
160.950638 140.0
161.450974 152.0
161.554688 204.0
161.833069 164.0
161.942032 140.0
162.040756 180.0
162.114243 184.0
162.26503 244.0
162.375366 148.0
162.413406 156.0
162.438766 160.0
162.796631 216.0
162.863892 188.0
162.89061 212.0
162.961746 140.0
163.053391 468.0
163.096436 148.0
163.335449 164.0
163.416855 188.0
163.508453 148.0
163.533905 176.0
163.610275 212.0
163.763062 156.0
163.829285 220.0
163.862396 216.0
164.06041 504.0
164.209076 208.0
164.265198 208.0
164.357666 164.0
164.438705 156.0
164.590683 240.0
164.627197 144.0
164.717255 172.0
164.843781 144.0
164.872864 148.0
164.903534 316.0
164.942352 172.0
164.992752 148.0
165.013107 164.0
165.071075 108612.0
165.134918 100.0
165.206253 124.0
165.258774 168.0
165.315277 156.0
165.440689 156.0
165.667587 148.0
165.696548 164.0
165.906937 176.0
166.034317 112.0
166.073975 14576.0
166.340073 196.0
166.427765 140.0
166.530487 184.0
166.608292 192.0
166.887146 96.0
167.076874 272.0
167.143616 144.0
167.349442 180.0
167.42215 296.0
167.508118 160.0
167.703735 200.0
168.056366 356.0
168.077225 208.0
168.3797 160.0
168.480438 168.0
169.020798 156.0
169.064789 172.0
169.095856 216.0
169.349579 176.0
169.463562 236.0
169.517975 156.0
169.603302 204.0
170.197586 160.0
170.231339 172.0
170.262512 152.0
170.662689 172.0
170.905228 160.0
171.175293 168.0
171.240387 148.0
171.369278 176.0
171.529007 208.0
172.022629 172.0
172.113998 140.0
172.654922 200.0
172.77002 144.0
172.879913 196.0
173.180984 216.0
173.424652 152.0
173.48494 152.0
174.527237 184.0
175.143051 140.0
175.172028 168.0
175.238037 132.0
175.264236 204.0
175.332748 188.0
175.36174 200.0
175.54628 200.0
175.58847 228.0
175.704529 152.0
176.660858 168.0
177.257767 132.0
177.860229 136.0
178.278229 268.0
178.46962 144.0
179.039078 180.0
179.5961 148.0
179.686798 148.0
180.354401 144.0
180.389145 208.0
180.92952 148.0
181.015198 204.0
181.623566 232.0
181.649826 168.0
181.89859 156.0
181.993912 232.0
182.10939 144.0
182.2034 196.0
182.676544 152.0
183.390106 176.0
183.433655 128.0
183.46019 188.0
183.566238 168.0
184.253601 144.0
184.399521 248.0
184.492538 156.0
184.521164 252.0
184.57254 144.0
184.594162 236.0
184.986481 160.0
185.642151 140.0
185.959564 148.0
186.114304 152.0
186.239212 180.0
186.527237 204.0
186.978745 168.0
187.632477 188.0
188.255035 172.0
188.363831 168.0
188.81665 180.0
188.99263 312.0
189.113037 188.0
189.247177 156.0
189.693726 204.0
189.773239 144.0
191.427383 156.0
191.644989 172.0
191.69458 164.0
192.486267 140.0
193.531464 164.0
193.81398 192.0
193.995544 100.0
194.035721 200.0
194.493439 224.0
194.612808 160.0
194.676193 232.0
195.274185 180.0
195.402145 184.0
195.496246 180.0
195.57251 124.0
195.663742 180.0
195.715302 116.0
195.775131 164.0
195.97847 168.0
196.048126 236.0
196.081573 176.0
196.594711 172.0
196.670074 156.0
197.047058 168.0
197.320953 196.0
198.084946 192.0
198.74791 276.0
198.962677 156.0
198.990875 188.0
199.031296 14964.0
199.20549 104.0
199.246323 140.0
199.547043 168.0
200.035278 1860.0
200.109741 204.0
200.960922 160.0
201.029556 3536.0
201.10202 184.0
201.240341 164.0
201.419556 156.0
201.474762 152.0
201.92984 168.0
202.001007 152.0
202.031204 888.0
202.142868 132.0
202.532715 148.0
202.651688 160.0
202.767868 168.0
202.844406 128.0
202.87558 224.0
203.037201 184.0
203.078461 120.0
203.584915 212.0
203.656952 168.0
203.925842 220.0
204.150436 184.0
206.040207 196.0
206.088776 160.0
206.674911 160.0
206.855209 200.0
206.964005 152.0
207.350739 156.0
207.468246 164.0
207.895615 152.0
208.711426 164.0
209.341599 208.0
209.629669 148.0
209.844864 200.0
210.151566 148.0
210.18042 164.0
210.298737 180.0
210.538376 140.0
210.902405 148.0
211.368011 264.0
211.396957 224.0
211.599564 244.0
211.779099 176.0
211.799377 144.0
212.038223 160.0
212.537384 148.0
212.672134 140.0
213.049622 200.0
213.076538 224.0
214.221207 136.0
214.350174 152.0
214.554199 260.0
214.641663 204.0
214.886673 152.0
215.085587 1524.0
215.178528 164.0
216.092377 372.0
216.137207 192.0
216.486664 156.0
217.095093 144.0
217.30629 140.0
218.346146 160.0
219.076111 148.0
219.282379 144.0
219.636185 148.0
220.77475 192.0
221.720612 180.0
222.236572 156.0
222.465088 140.0
223.071091 148.0
224.029312 140.0
224.825409 180.0
225.778397 188.0
226.029678 140.0
226.075684 776.0
226.685455 168.0
226.727417 160.0
227.015198 156.0
227.082611 540.0
227.219162 184.0
227.774521 168.0
228.090439 452.0
228.85881 228.0
228.899338 224.0
229.10228 260.0
229.343964 176.0
229.476181 232.0
229.872986 196.0
230.051056 184.0
230.156113 188.0
230.288559 176.0
231.033203 172.0
231.90831 184.0
232.584702 184.0
232.612015 204.0
233.140503 180.0
233.514435 220.0
233.980011 180.0
234.118195 208.0
234.152588 160.0
234.296494 200.0
234.525284 168.0
234.872879 184.0
234.921677 160.0
235.014252 212.0
235.098648 152.0
235.593781 200.0
236.022858 288.0
236.238312 268.0
236.458618 200.0
236.924042 152.0
236.973068 156.0
237.058548 240.0
237.328598 168.0
237.793976 176.0
238.073273 100.0
238.369156 180.0
238.56279 196.0
238.965668 188.0
239.086441 2224.0
239.442795 228.0
239.584488 160.0
239.763199 196.0
239.784775 152.0
239.837173 160.0
240.093018 2520.0
240.14859 164.0
240.284317 176.0
240.679382 152.0
240.719986 160.0
240.830856 152.0
240.888199 168.0
240.94191 312.0
240.982071 208.0
241.023148 220.0
241.050049 208.0
241.1017 36300.0
241.206497 192.0
241.239334 164.0
241.267807 132.0
241.29332 204.0
241.389114 208.0
241.620071 320.0
241.739624 224.0
241.779449 124.0
242.068649 164.0
242.109146 36552.0
242.174988 160.0
242.465591 104.0
242.508392 164.0
242.638763 192.0
242.720474 180.0
243.112885 5404.0
243.313416 112.0
243.637787 260.0
243.783203 172.0
243.916794 208.0
244.046158 128.0
244.114868 468.0
244.331192 116.0
245.018463 140.0
245.118622 112.0
245.292404 124.0
245.582687 172.0
245.779221 196.0
245.86235 112.0
245.944626 228.0
246.1819 140.0
247.461761 192.0
247.69252 188.0
247.949448 180.0
248.504471 160.0
248.909378 160.0
248.997299 236.0
249.045258 1108.0
249.509491 148.0
249.669846 172.0
249.817673 140.0
249.861725 180.0
250.046432 332.0
250.525986 160.0
250.948288 188.0
251.043091 348.0
252.043533 204.0
253.046173 176.0
253.087341 180.0
253.644913 140.0
253.863678 144.0
253.942963 148.0
254.552277 176.0
255.750839 232.0
256.534424 176.0
257.520416 176.0
257.990112 212.0
258.015717 244.0
258.788116 204.0
259.440552 168.0
259.975952 156.0
260.746735 228.0
260.958893 152.0
261.029602 228.0
261.303009 168.0
261.534698 176.0
262.053589 1824.0
262.385132 156.0
262.511292 156.0
263.061493 444.0
263.576111 148.0
263.601959 164.0
264.049622 408.0
264.167786 180.0
265.544373 164.0
265.719543 184.0
265.785614 160.0
266.053833 184.0
266.086273 224.0
266.275787 192.0
266.964203 104.0
267.753418 160.0
268.63443 156.0
268.686646 300.0
268.745361 180.0
270.762268 176.0
271.473419 160.0
271.922852 212.0
271.976318 168.0
272.358643 148.0
273.191193 164.0
273.58609 148.0
273.7211 148.0
274.136139 304.0
274.261383 156.0
274.333893 144.0
274.541626 140.0
275.056274 332.0
275.132233 140.0
275.340271 180.0
275.627747 136.0
275.885468 172.0
275.9086 160.0
275.954895 276.0
276.043396 200.0
276.076111 412.0
276.154938 104.0
276.272369 180.0
276.325317 148.0
276.362732 176.0
276.441101 168.0
276.473907 264.0
276.519897 144.0
276.563568 184.0
276.659851 132.0
276.705902 156.0
276.799225 160.0
276.826172 388.0
276.903809 396.0
276.952942 412.0
277.002716 244.0
277.079407 173000.0
277.185669 336.0
277.254486 212.0
277.285248 112.0
277.31308 256.0
277.400055 140.0
277.474365 388.0
277.517548 180.0
277.563782 228.0
277.62439 984.0
277.698914 184.0
277.740936 120.0
277.821686 172.0
277.959412 228.0
278.024445 180.0
278.082123 31592.0
278.175812 128.0
278.237061 140.0
278.322845 200.0
278.375458 272.0
278.435791 140.0
278.584625 184.0
278.667816 112.0
278.763489 168.0
278.812775 196.0
278.970459 132.0
279.001251 268.0
279.076141 54768.0
279.221436 404.0
279.404083 148.0
279.583771 120.0
279.685974 96.0
279.716675 168.0
279.737854 276.0
279.806213 160.0
279.856415 212.0
279.939697 116.0
280.03833 180.0
280.078949 7272.0
280.125488 152.0
280.205597 136.0
280.26712 148.0
280.423035 152.0
280.454468 96.0
280.537323 180.0
280.945648 120.0
281.073334 172.0
281.447174 156.0
281.729248 96.0
282.197601 100.0
285.326355 104.0
289.86673 144.0
292.396698 160.0
292.975555 160.0
293.793732 160.0
297.177338 156.0
297.733429 148.0
345.134735 148.0
345.186523 176.0
416.603333 140.0
427.491608 144.0
487.615295 160.0
530.110046 152.0
657.331055 144.0
812.341492 172.0
1140.447266 144.0
1141.765015 152.0
1168.177979 224.0
1187.878906 160.0
1255.328247 184.0
1343.132446 156.0
1390.443481 148.0
1405.527588 144.0
1432.615967 180.0
1452.640991 196.0
1457.773438 152.0
1474.264282 176.0
1489.818237 184.0
1512.984863 172.0
1513.379761 176.0
1528.601196 184.0
1538.296753 168.0
1539.491333 184.0
1543.265503 152.0
1558.730347 160.0
1566.164917 164.0
1570.925903 196.0
1571.257324 148.0
1576.302612 156.0
1585.545654 172.0
1592.233521 188.0
1597.208984 152.0
1608.061035 200.0
1612.309814 152.0
1620.06311 196.0
1628.05188 148.0
1630.421753 180.0
1635.488647 192.0
1636.897583 156.0
1646.986694 172.0
1654.620361 244.0
1660.373535 160.0
1666.095947 144.0
1670.737915 188.0
1671.901489 160.0
1673.464355 160.0
1675.125732 152.0
1677.317749 164.0
1680.375854 148.0
1684.18811 224.0
1689.558716 144.0
1693.733521 160.0
1697.347778 152.0
1698.110352 228.0
1701.92627 148.0
1706.733032 188.0
1709.003174 160.0
1713.267822 200.0
1713.918701 164.0
1721.43335 144.0
1727.28479 220.0
1729.287109 176.0
1730.057007 220.0
1731.166504 216.0
1732.052612 228.0
1738.312134 188.0
1754.522827 144.0
1761.064941 228.0
1762.902832 156.0
1763.003174 240.0
1768.69043 160.0
1769.845703 152.0
1770.993042 188.0
1772.299805 192.0
1776.894409 184.0
1784.537354 196.0
1785.568604 120.0
1790.444458 172.0
1792.01123 212.0
1806.159912 164.0
1816.833374 192.0
1818.386108 184.0
1818.768066 208.0
1826.976807 168.0
1827.487183 184.0
1828.159424 180.0
1838.607422 144.0
1840.135376 168.0
1842.244873 140.0
1844.859741 144.0
1851.293945 196.0
1851.816406 172.0
1853.079956 184.0
1855.586792 156.0
1867.196289 160.0
1875.746094 176.0
1878.246704 164.0
1880.800781 168.0
1883.468872 156.0
1885.248657 148.0
1889.26062 164.0
1892.281006 208.0
1892.531982 160.0
1901.096191 160.0
1901.512817 176.0
1903.327148 176.0
1911.010742 232.0
1919.947876 264.0
1924.625122 176.0
1926.11853 160.0
1928.993408 228.0
1939.199341 160.0
1941.847168 176.0
1944.040405 168.0
1946.937378 172.0
1948.685425 240.0
1949.124756 196.0
1950.495728 224.0
1951.849609 184.0
1953.467896 224.0
1957.534058 168.0
1958.538086 184.0
1958.864014 160.0
1965.608521 196.0
1969.696167 160.0
1970.827026 180.0
1975.114624 212.0
1977.981567 156.0
1980.885986 188.0
1986.089233 180.0
1986.195679 140.0
1989.674194 168.0
1991.405762 232.0
1991.64563 144.0
1992.196289 188.0
1994.071167 168.0
1996.151489 192.0
1999.968018 148.0
2001.258911 172.0
