>compound SDM25N
>formula C26H26N2O3
>ionization [M+H]+
>parentmass 415.2016191440905
#inchi InChI=1S/C26H26N2O3/c1-14(2)13-28-10-9-25-21-15-7-8-19(29)23(21)31-24(25)22-17(12-26(25,30)20(28)11-15)16-5-3-4-6-18(16)27-22/h3-8,20,24,27,29-30H,1,9-13H2,2H3/t20?,24-,25-,26+/m0/s1
#inchikey ZFMVWAWSKLAVOE
#Ion_Source LC-ESI
#Instrument qTof
#Compound_Source Commercial
#PI Dorrestein
#Data_Collector Garg_Neha
#Scan -1
#Precursor_MZ 415.202
#ExactMass 414.194
#Charge 1
#CAS_Number N/A
#Pubmed_ID N/A
#Smiles CC(=C)CN1CC[C@]23[C@H]4Oc5c3c(CC1[C@]2(O)Cc6c4[nH]c7ccccc67)ccc5O
#INCHI_AUX N/A
#Library_Class 1
#SpectrumID CCMSLIB00000079211
#IonMode Positive
#UpdateWorkflowName UPDATE-SINGLE-ANNOTATED-GOLD
#LibraryQualityString Gold
#TaskID 278b19f5865741e282cec7349aa7e7a1
##Scan# 1097
#SpectrumFile NCP003672_A27B27C27D27_BE4_01_15740.mzXML
#LibraryName NIHcollectionI_05062014.mgf
#MQScore -1
#Organism NIHcollectionI_05062014
#TIC_Query 0
#RT_Query -1
#MZErrorPPM -1
#SharedPeaks 0
#MassDiff 0
#LibMZ -1
#SpecMZ 415.202
#SpecCharge 0
#internalFilename spec-00000.mgf

>collision 10
44.890331 160.0
45.051315 184.0
45.350235 180.0
45.423981 152.0
45.619343 208.0
45.695354 184.0
45.737072 176.0
45.829994 156.0
45.968884 172.0
46.110683 156.0
46.473602 152.0
47.413162 172.0
47.92297 176.0
48.271851 208.0
48.356586 200.0
49.084545 172.0
49.158474 164.0
49.491158 172.0
49.768784 188.0
49.80249 180.0
49.865715 192.0
50.219112 152.0
50.272724 192.0
50.552532 160.0
50.89415 176.0
50.943638 128.0
51.124432 152.0
52.020611 164.0
52.322655 156.0
52.424774 180.0
52.594959 144.0
52.862331 144.0
52.966175 160.0
53.120228 148.0
53.239246 140.0
53.310429 164.0
53.335136 172.0
53.688931 164.0
53.893295 140.0
54.158085 180.0
54.396881 136.0
54.67342 156.0
54.913567 152.0
55.56147 164.0
55.626766 144.0
55.894287 228.0
55.916607 160.0
56.695732 140.0
57.441963 224.0
57.580826 152.0
57.742542 340.0
58.072716 184.0
58.14706 188.0
58.358212 144.0
58.810658 164.0
59.189796 156.0
59.447327 160.0
59.843906 148.0
59.971767 160.0
60.014931 196.0
60.186203 156.0
60.405663 176.0
60.615189 224.0
60.737148 144.0
60.910999 164.0
61.373219 184.0
61.384132 140.0
62.241642 156.0
62.372341 124.0
62.680321 172.0
62.822533 96.0
62.838177 196.0
63.252224 192.0
63.505699 148.0
63.542229 156.0
63.592934 172.0
63.915611 196.0
64.089172 232.0
64.432198 144.0
64.721062 172.0
64.808189 140.0
64.987762 164.0
65.050133 124.0
65.161163 160.0
65.602119 152.0
65.928162 176.0
66.170792 148.0
66.342522 156.0
66.407379 160.0
66.511223 140.0
66.668945 164.0
66.907867 140.0
66.979118 128.0
67.088699 172.0
67.547577 180.0
67.998161 140.0
68.147598 148.0
68.733772 156.0
68.796486 152.0
69.187325 164.0
69.335335 140.0
69.489929 220.0
69.902 140.0
70.647453 96.0
70.689636 148.0
70.818542 196.0
71.031418 188.0
71.611313 160.0
71.669609 112.0
71.732628 140.0
72.110718 152.0
72.42543 144.0
72.520309 156.0
72.662758 176.0
72.679726 148.0
72.81723 140.0
72.8461 140.0
73.307182 164.0
73.627899 144.0
74.01609 164.0
74.048622 152.0
74.108513 100.0
74.170273 236.0
74.18399 176.0
74.197701 160.0
74.587387 144.0
75.46833 140.0
75.537506 184.0
75.909203 216.0
76.087372 176.0
76.264038 140.0
76.35421 172.0
76.397934 208.0
76.492516 148.0
77.091881 152.0
77.12159 156.0
77.147812 160.0
77.273735 156.0
77.955818 144.0
78.007248 108.0
78.16684 144.0
78.356995 180.0
78.393997 176.0
78.475082 140.0
78.656792 168.0
78.859917 152.0
79.006683 280.0
79.043839 168.0
79.886589 176.0
80.023628 164.0
80.057457 164.0
80.367622 196.0
80.571152 144.0
80.830406 152.0
80.937263 132.0
81.298119 200.0
81.359146 140.0
81.387871 204.0
81.408394 252.0
81.810974 120.0
82.116814 184.0
82.414551 152.0
82.765457 272.0
82.863258 180.0
83.3041 180.0
83.648354 176.0
83.700584 188.0
83.81073 128.0
83.895531 144.0
83.990356 240.0
84.415161 220.0
84.53846 152.0
84.727463 144.0
85.27282 164.0
85.366882 128.0
85.593819 148.0
86.171288 184.0
86.237816 180.0
86.433846 148.0
86.809296 140.0
86.82505 228.0
87.419189 148.0
87.543915 176.0
87.629593 172.0
88.030624 184.0
88.079185 200.0
88.258598 168.0
88.831688 164.0
88.944275 164.0
89.216652 216.0
89.432976 168.0
89.559242 136.0
89.80793 140.0
89.841881 224.0
89.911697 184.0
90.002304 156.0
90.122147 144.0
90.183662 156.0
90.200676 160.0
90.259285 204.0
90.397369 160.0
90.440407 200.0
91.026718 180.0
91.2034 220.0
91.54776 140.0
91.595375 288.0
91.623947 176.0
91.870903 132.0
92.190308 160.0
92.215485 140.0
92.244156 160.0
92.301514 180.0
92.617287 156.0
92.651772 140.0
93.061455 124.0
93.156082 172.0
93.203674 116.0
93.258148 168.0
93.48893 156.0
94.061668 100.0
94.103828 148.0
94.165627 296.0
94.248047 312.0
94.447815 200.0
94.904312 168.0
94.94751 176.0
95.087196 144.0
95.469917 176.0
95.545776 208.0
95.744316 140.0
95.779373 140.0
95.956711 228.0
96.02301 188.0
96.082695 300.0
96.112747 212.0
96.159363 160.0
96.503387 160.0
96.517075 144.0
96.603386 184.0
96.767517 156.0
96.957527 192.0
97.041817 216.0
97.289017 188.0
97.540459 224.0
97.571465 124.0
97.629967 160.0
97.782387 140.0
97.825684 160.0
98.00885 140.0
98.065796 156.0
98.096817 24452.0
98.136734 152.0
98.260254 196.0
98.509964 156.0
98.652245 188.0
98.6707 120.0
98.909401 160.0
98.974678 136.0
99.016319 140.0
99.09935 2028.0
99.153023 152.0
99.261887 96.0
99.295761 152.0
99.551773 232.0
99.666321 216.0
99.705482 108.0
99.806908 132.0
99.98629 224.0
100.042877 184.0
100.150406 152.0
100.236069 176.0
100.387566 208.0
100.514374 196.0
100.734123 140.0
100.772812 204.0
101.926926 140.0
102.150093 152.0
102.54071 184.0
102.643524 184.0
102.875542 176.0
102.891693 180.0
102.913902 168.0
103.07473 180.0
103.452972 144.0
103.737312 140.0
104.399216 144.0
104.732994 152.0
105.281624 156.0
105.308174 156.0
105.456268 264.0
105.769249 152.0
105.919205 136.0
105.979004 104.0
106.061134 336.0
106.157494 176.0
106.954636 220.0
107.074669 364.0
108.082703 472.0
108.408272 120.0
108.664246 128.0
108.908615 224.0
108.986839 104.0
109.030289 176.0
109.144325 160.0
109.192429 116.0
109.23912 160.0
109.338989 148.0
109.528458 148.0
109.772301 188.0
110.096596 544.0
110.575676 136.0
110.595436 192.0
110.951546 156.0
110.974609 160.0
111.358635 224.0
111.654968 156.0
112.094948 160.0
112.189796 144.0
112.45768 160.0
112.699066 132.0
112.799866 200.0
113.437027 176.0
113.504875 260.0
113.528198 216.0
113.710648 176.0
114.130859 148.0
114.214203 152.0
114.389549 148.0
114.454689 152.0
114.486282 148.0
114.548393 256.0
114.605141 216.0
114.836143 152.0
115.054825 176.0
115.325081 220.0
115.483307 172.0
115.571457 96.0
115.603111 140.0
115.819344 200.0
116.027206 192.0
116.15802 172.0
116.267441 196.0
116.531563 180.0
116.65406 196.0
116.684158 152.0
116.828247 156.0
117.017632 140.0
117.227272 132.0
117.581177 140.0
117.733521 204.0
117.822792 316.0
117.988487 140.0
118.060806 276.0
118.157173 144.0
118.646622 256.0
118.987236 196.0
119.068634 168.0
119.445763 148.0
119.893608 208.0
120.081772 152.0
120.642944 148.0
120.743523 148.0
120.874779 212.0
120.982025 148.0
121.065231 144.0
121.090363 176.0
121.128746 248.0
121.144081 152.0
121.33474 160.0
121.565041 148.0
122.054893 156.0
122.097855 376.0
122.14946 212.0
122.237465 192.0
122.673553 148.0
123.053001 176.0
123.104927 140.0
123.150169 160.0
123.795952 152.0
123.902267 148.0
124.113632 240.0
124.392357 140.0
124.423439 168.0
124.671547 120.0
124.947929 156.0
124.972404 168.0
125.224548 120.0
125.490791 172.0
125.828255 160.0
125.87291 164.0
126.002113 104.0
126.217018 140.0
126.308716 148.0
127.056923 140.0
127.157898 140.0
127.306068 152.0
127.674347 164.0
127.710602 260.0
127.77359 164.0
127.82209 144.0
128.059158 228.0
128.232956 188.0
128.311859 168.0
128.544479 116.0
128.914505 156.0
129.071106 232.0
129.244644 168.0
129.41214 168.0
129.493668 172.0
129.518585 148.0
129.69191 120.0
129.708923 164.0
129.817749 180.0
130.042343 144.0
130.065247 3408.0
130.126328 144.0
130.786865 128.0
131.026962 180.0
131.050293 228.0
131.071564 952.0
131.359787 176.0
131.686188 188.0
131.729599 148.0
132.082687 196.0
132.198303 200.0
132.250305 116.0
132.278397 204.0
132.424942 184.0
132.565918 128.0
132.947662 156.0
133.011917 152.0
133.028 232.0
133.048767 164.0
133.089981 168.0
133.376465 160.0
133.392227 136.0
133.685333 156.0
133.913254 176.0
134.094559 316.0
135.04364 376.0
135.127472 152.0
135.159866 180.0
135.650848 172.0
135.813156 176.0
136.047531 144.0
136.110748 140.0
136.138077 140.0
136.406891 120.0
136.602402 140.0
136.7146 152.0
136.83905 148.0
136.89444 144.0
136.935776 144.0
137.034958 124.0
137.056961 196.0
137.075546 140.0
137.124496 144.0
137.166443 176.0
137.359985 164.0
137.422974 172.0
137.768707 136.0
137.79303 160.0
138.030273 140.0
138.056 180.0
138.128494 224.0
138.371399 136.0
138.65062 192.0
138.713898 160.0
139.058701 180.0
139.363983 192.0
139.459641 136.0
139.723709 184.0
139.871658 160.0
140.108902 660.0
140.265335 156.0
140.314835 164.0
140.687576 176.0
141.069809 172.0
141.231064 164.0
141.95578 228.0
142.073441 164.0
142.120422 276.0
142.853561 144.0
142.94873 152.0
143.07457 356.0
143.184708 124.0
143.607986 116.0
143.670654 148.0
143.778992 100.0
143.985733 152.0
144.04306 288.0
144.080688 1828.0
144.509232 176.0
145.069595 236.0
145.083755 596.0
145.203903 96.0
145.780075 168.0
145.837158 212.0
146.068848 188.0
146.513931 224.0
146.559708 152.0
146.735657 192.0
146.870697 148.0
146.965469 156.0
147.020279 184.0
147.044693 532.0
147.081589 280.0
147.336197 124.0
147.996857 180.0
148.050583 360.0
148.108261 160.0
148.133896 128.0
148.753265 140.0
148.779968 140.0
149.059113 184.0
149.116043 220.0
149.533493 160.0
149.938538 168.0
150.076721 176.0
150.14209 176.0
150.264526 216.0
150.388977 148.0
150.718658 164.0
150.817169 116.0
150.93132 140.0
151.12944 144.0
151.680237 132.0
151.860184 120.0
152.109726 184.0
152.287735 152.0
153.105499 140.0
153.605835 144.0
153.80603 152.0
153.879456 160.0
154.06485 872.0
154.287399 196.0
154.385712 100.0
155.07283 792.0
155.158844 156.0
155.295227 152.0
155.421753 180.0
155.564407 116.0
155.632721 152.0
155.92337 156.0
156.041504 184.0
156.080872 2056.0
156.137177 156.0
156.306335 192.0
156.453674 120.0
156.532852 200.0
156.757034 212.0
157.018799 172.0
157.05986 164.0
157.084656 284.0
157.290359 148.0
157.562347 164.0
158.017975 208.0
158.097748 268.0
158.120575 304.0
158.296753 160.0
158.348404 160.0
158.56543 160.0
159.055466 184.0
159.079376 132.0
159.261566 144.0
159.74649 156.0
160.109833 144.0
160.234879 140.0
160.590302 168.0
160.735077 104.0
160.853882 172.0
161.055038 664.0
161.424072 136.0
161.524567 100.0
161.600204 200.0
161.681732 144.0
161.969391 124.0
162.055405 564.0
162.09198 456.0
162.122757 136.0
162.170532 152.0
162.861481 100.0
163.051224 160.0
163.216919 156.0
163.287659 164.0
163.358887 148.0
163.574051 144.0
164.03624 280.0
164.074478 396.0
165.100937 176.0
165.242798 96.0
165.851089 152.0
166.066116 116.0
166.077682 224.0
166.29451 100.0
166.441757 216.0
166.556122 336.0
166.759689 192.0
167.073502 984.0
167.53421 148.0
167.881744 192.0
168.052277 148.0
168.080231 1556.0
168.238113 160.0
168.459152 168.0
169.067307 416.0
169.083435 488.0
169.197357 140.0
169.445984 212.0
169.479385 148.0
169.855576 144.0
169.930801 144.0
170.061935 396.0
170.095154 256.0
170.187759 148.0
170.211014 160.0
170.382538 148.0
170.442932 116.0
170.725647 176.0
171.040146 132.0
171.046387 116.0
171.081436 232.0
171.196671 144.0
171.275314 144.0
171.497299 112.0
171.564056 152.0
171.605759 172.0
171.887466 160.0
171.94487 212.0
171.99968 144.0
172.08403 144.0
172.69278 200.0
173.059341 364.0
173.304657 164.0
173.596039 200.0
174.055878 308.0
174.090714 276.0
174.661911 196.0
175.056671 556.0
175.876862 208.0
175.942612 180.0
176.073181 256.0
176.211639 152.0
176.5186 188.0
176.547684 220.0
176.875534 96.0
176.95517 168.0
177.108292 132.0
177.42572 184.0
177.453888 240.0
177.983932 156.0
178.086014 144.0
178.446243 160.0
178.776077 192.0
179.135849 156.0
179.179367 164.0
179.593979 156.0
179.694565 164.0
179.903519 152.0
180.081024 3144.0
180.287613 276.0
180.796249 200.0
181.088715 304.0
181.223312 148.0
182.058578 596.0
182.094604 2048.0
182.136795 156.0
182.389374 172.0
182.558151 160.0
182.61792 160.0
182.677094 160.0
182.752426 140.0
182.911209 184.0
183.070053 448.0
183.100769 708.0
183.454468 164.0
183.568588 268.0
183.707138 140.0
184.07753 340.0
184.112747 380.0
184.173126 212.0
184.300476 172.0
184.491074 176.0
184.534256 168.0
184.603973 172.0
184.951553 232.0
185.058212 472.0
185.081635 172.0
185.115112 156.0
185.168106 160.0
185.188873 124.0
185.396011 156.0
185.442078 188.0
185.720184 100.0
185.904739 152.0
185.979111 152.0
186.061539 112.0
186.095367 204.0
186.123901 168.0
186.249298 156.0
186.482605 120.0
186.762955 140.0
186.856842 252.0
186.92215 164.0
187.073029 296.0
187.229767 200.0
187.371399 144.0
187.90303 160.0
187.938507 164.0
188.070755 560.0
188.106628 148.0
188.240036 172.0
188.265289 140.0
188.503723 208.0
188.673187 176.0
188.79538 352.0
188.873474 180.0
188.957611 152.0
189.073914 208.0
189.093079 252.0
189.198456 160.0
189.239517 140.0
189.569305 120.0
189.641663 220.0
189.994278 212.0
190.042587 156.0
190.090591 136.0
190.098862 156.0
190.152344 152.0
190.288345 140.0
190.652176 168.0
190.957336 216.0
190.976593 160.0
191.070801 412.0
191.193939 212.0
191.354218 140.0
191.739227 184.0
191.97908 184.0
192.080215 392.0
192.139053 204.0
192.647018 220.0
192.677399 148.0
192.746475 140.0
192.806931 128.0
193.093033 128.0
193.239746 120.0
193.892136 208.0
193.98082 212.0
194.059174 292.0
194.096176 4192.0
194.166595 164.0
194.330536 120.0
194.570053 208.0
194.689194 208.0
194.726395 144.0
194.985443 152.0
195.076324 180.0
195.101257 972.0
195.145828 168.0
195.405472 152.0
195.432312 180.0
195.689362 236.0
195.797958 172.0
195.940018 148.0
196.072998 228.0
196.10553 188.0
196.251251 216.0
196.528305 176.0
196.586899 168.0
196.766586 192.0
196.804626 160.0
196.902359 196.0
197.060638 688.0
197.097672 236.0
197.23764 156.0
197.412643 216.0
197.508865 172.0
197.529144 144.0
197.603439 104.0
197.660812 128.0
197.747375 248.0
197.924576 148.0
197.984665 152.0
198.055939 552.0
198.125946 152.0
198.334885 168.0
198.492004 168.0
198.687088 100.0
198.834122 184.0
198.859375 164.0
198.983521 180.0
199.013779 144.0
199.061752 492.0
199.100601 152.0
199.491379 152.0
199.752899 160.0
199.785446 196.0
199.881653 172.0
199.975189 156.0
200.068497 396.0
200.106155 356.0
200.141281 144.0
200.310257 180.0
200.544113 156.0
200.597672 196.0
200.6315 292.0
200.936081 204.0
201.02356 192.0
201.065552 140.0
201.09137 592.0
201.127869 204.0
201.214783 112.0
201.513458 96.0
202.085434 456.0
202.122772 188.0
202.180679 120.0
202.352036 148.0
202.50972 192.0
202.578354 96.0
202.657913 216.0
202.680588 160.0
202.751419 184.0
202.893158 140.0
203.0009 236.0
203.025742 152.0
203.084915 148.0
203.667831 100.0
203.826935 140.0
203.909348 144.0
204.054321 156.0
204.079468 284.0
204.103699 584.0
204.202179 140.0
204.271439 160.0
204.424088 264.0
204.823822 108.0
204.852295 180.0
205.087845 444.0
205.395599 156.0
205.541107 168.0
206.010162 152.0
206.085861 384.0
206.1828 152.0
206.386581 144.0
206.411148 196.0
206.455215 168.0
206.487442 200.0
206.551498 156.0
206.884399 140.0
207.088593 332.0
207.389633 136.0
207.531876 164.0
207.563416 144.0
208.048294 148.0
208.07579 284.0
208.111618 588.0
208.567169 164.0
208.593414 168.0
208.719498 156.0
209.065079 176.0
209.101074 108.0
209.45433 160.0
209.599045 252.0
209.656921 180.0
209.883881 140.0
209.931427 180.0
209.957184 180.0
210.056107 2184.0
210.088821 292.0
210.111145 356.0
210.131073 120.0
210.25827 132.0
210.429199 156.0
210.819138 144.0
211.063782 1964.0
211.096222 188.0
211.123474 112.0
211.31842 208.0
211.582458 156.0
211.926407 140.0
212.068939 860.0
212.108521 400.0
212.146255 148.0
212.267212 188.0
212.530487 160.0
212.620453 148.0
212.765579 176.0
213.018219 168.0
213.076828 244.0
213.138672 148.0
213.50943 144.0
213.553055 196.0
213.774155 148.0
213.821411 368.0
214.085434 696.0
214.117844 144.0
214.511292 132.0
214.744293 148.0
214.814285 156.0
214.972458 96.0
215.090332 260.0
215.176163 140.0
215.319321 156.0
215.57048 112.0
215.592819 240.0
215.996353 96.0
216.101532 2212.0
216.186066 152.0
216.287018 156.0
216.518311 184.0
216.562241 152.0
217.061432 132.0
217.102051 348.0
217.139633 172.0
217.168961 156.0
217.23349 168.0
217.369247 176.0
217.451141 168.0
217.651917 160.0
217.835266 168.0
217.95311 108.0
218.088181 624.0
218.182022 144.0
218.414337 168.0
218.437866 144.0
218.640884 180.0
218.870499 236.0
218.972366 144.0
219.092804 1872.0
219.179779 144.0
219.453888 180.0
219.513596 260.0
219.566208 140.0
219.610184 176.0
219.679535 96.0
219.781296 176.0
219.846207 144.0
219.893951 136.0
220.015564 160.0
220.104065 240.0
220.599838 152.0
220.652588 140.0
221.103546 268.0
221.149551 220.0
221.226273 156.0
221.295563 172.0
221.428192 176.0
221.531525 200.0
221.682632 156.0
221.815994 140.0
222.047272 176.0
222.105972 276.0
222.171844 168.0
222.237778 144.0
222.313934 144.0
222.360168 120.0
222.566589 156.0
222.975769 140.0
223.079544 164.0
223.123489 436.0
223.303558 140.0
223.764801 168.0
223.81839 164.0
223.892471 132.0
224.061432 156.0
224.104645 124.0
224.144333 932.0
224.192856 180.0
224.410446 116.0
224.455276 124.0
224.506439 132.0
224.581299 196.0
224.61557 196.0
224.703278 148.0
224.85878 168.0
225.079407 388.0
225.148956 432.0
225.187195 140.0
225.369415 148.0
225.591263 156.0
225.778946 172.0
225.871658 176.0
226.086853 372.0
226.120651 948.0
226.194824 184.0
226.545609 168.0
226.612808 168.0
227.021744 184.0
227.08252 196.0
227.122818 576.0
227.198715 184.0
227.512222 136.0
227.912109 192.0
228.072769 136.0
228.101227 552.0
228.226379 192.0
228.561386 160.0
228.601868 156.0
228.69516 148.0
228.785461 188.0
228.984192 320.0
229.096863 128.0
229.953827 132.0
230.047821 128.0
230.114334 1124.0
230.565063 164.0
230.589188 188.0
230.600739 184.0
230.850204 112.0
231.100677 324.0
231.296036 176.0
231.412048 144.0
231.505905 160.0
231.576523 140.0
231.620224 172.0
232.066223 120.0
232.106705 120.0
232.248428 204.0
232.39801 132.0
232.463837 144.0
232.576126 140.0
232.611359 152.0
232.641266 224.0
232.940506 184.0
232.976959 156.0
233.080887 152.0
233.107773 340.0
233.426788 224.0
233.920715 116.0
233.95874 148.0
234.052872 132.0
234.090271 468.0
234.127365 736.0
234.561462 196.0
234.638611 204.0
234.775818 192.0
234.897812 208.0
234.986282 180.0
235.133789 352.0
235.307907 148.0
235.482056 200.0
235.531723 184.0
235.560211 144.0
235.670197 164.0
235.716736 164.0
236.069382 192.0
236.106522 1348.0
236.130768 344.0
236.69487 152.0
237.085861 332.0
237.115326 284.0
237.139114 960.0
237.238007 136.0
237.424194 152.0
237.601334 176.0
237.761658 172.0
238.086838 396.0
238.123734 696.0
238.504913 144.0
238.547958 148.0
238.606613 208.0
238.646332 152.0
238.864685 188.0
239.056778 128.0
239.097809 272.0
239.120331 380.0
239.249344 380.0
239.397141 148.0
239.460388 148.0
239.539291 96.0
239.629456 244.0
239.779205 212.0
239.874695 184.0
240.100906 496.0
240.204636 204.0
240.266327 164.0
240.451279 128.0
240.6297 184.0
240.957886 240.0
241.090378 280.0
241.157288 132.0
241.214371 148.0
241.662018 128.0
241.738297 176.0
241.95372 200.0
241.99707 152.0
242.031967 192.0
242.097031 1840.0
242.200195 176.0
242.285095 144.0
242.542297 148.0
242.82518 184.0
243.103378 704.0
243.209167 156.0
243.258835 140.0
243.286774 168.0
243.569351 140.0
243.603531 172.0
243.914261 144.0
244.035507 140.0
244.110229 1052.0
244.268753 184.0
244.306076 196.0
244.439865 152.0
244.6017 148.0
244.934875 160.0
245.000305 156.0
245.117889 240.0
245.202835 144.0
245.754776 164.0
245.888962 204.0
246.099335 164.0
246.16127 160.0
246.229568 124.0
246.435364 120.0
246.518097 132.0
246.5448 192.0
246.671387 200.0
246.710449 204.0
246.816757 176.0
246.980621 212.0
247.098099 408.0
247.210892 152.0
247.25444 184.0
247.307907 148.0
247.73175 124.0
247.893555 192.0
247.987579 176.0
248.069229 308.0
248.10762 632.0
248.893417 176.0
248.953415 104.0
249.078629 172.0
249.114075 376.0
249.138077 408.0
249.658524 136.0
249.774155 144.0
250.088242 592.0
250.14415 340.0
250.246201 164.0
250.494415 128.0
250.624161 164.0
250.680344 108.0
250.728149 208.0
250.921738 136.0
251.094116 1360.0
251.611618 236.0
251.675674 108.0
251.755325 228.0
251.856491 136.0
252.101456 1048.0
252.132858 488.0
252.270844 116.0
252.471115 124.0
252.594147 180.0
252.625793 152.0
252.663742 168.0
252.696671 128.0
253.104523 1076.0
253.151184 152.0
253.214523 140.0
253.480621 224.0
253.536453 148.0
253.625626 160.0
253.712006 240.0
253.758408 132.0
253.818466 200.0
253.867371 168.0
253.989212 144.0
254.096924 22532.0
254.287186 132.0
254.382278 164.0
254.629013 232.0
254.954315 160.0
255.10199 3368.0
255.208694 124.0
255.480881 156.0
255.526276 176.0
255.687698 180.0
255.716217 104.0
255.753357 152.0
255.90416 148.0
256.068512 176.0
256.107727 1488.0
256.173676 164.0
256.600464 144.0
256.824188 176.0
256.922119 224.0
257.08374 736.0
257.1203 384.0
257.294189 164.0
257.346558 260.0
257.537872 136.0
257.62146 124.0
257.720001 136.0
257.764893 108.0
257.824432 152.0
258.090668 632.0
258.127197 140.0
258.629456 220.0
258.747894 160.0
258.876923 172.0
259.094391 388.0
259.122009 500.0
259.331848 184.0
259.415192 180.0
259.472046 256.0
259.606964 188.0
259.649261 204.0
259.683533 124.0
259.977722 104.0
260.069031 200.0
260.102814 240.0
260.134521 448.0
260.202942 232.0
260.32959 144.0
260.605286 116.0
260.763306 160.0
260.819824 184.0
261.014038 164.0
261.075592 360.0
261.138092 1128.0
261.200592 172.0
261.599579 148.0
262.091736 252.0
262.141113 872.0
262.282867 100.0
262.40683 176.0
262.63797 148.0
262.950134 184.0
263.072266 152.0
263.120667 256.0
263.151306 112.0
263.211609 164.0
263.37384 104.0
263.618561 176.0
263.716858 284.0
264.097748 292.0
264.275024 196.0
264.488617 176.0
264.637207 152.0
264.74115 148.0
264.805939 184.0
265.019592 180.0
265.109009 1904.0
265.230377 196.0
265.623291 164.0
265.761169 148.0
265.816406 140.0
265.95694 208.0
265.986145 248.0
266.117401 8868.0
266.27124 124.0
266.349823 196.0
266.642242 356.0
266.81073 120.0
267.042145 152.0
267.122681 2888.0
267.188507 176.0
267.632202 208.0
267.821289 208.0
268.012787 120.0
268.11319 4168.0
268.177521 200.0
268.358948 128.0
268.414581 164.0
268.547882 156.0
268.582764 144.0
268.621887 188.0
269.088806 516.0
269.118622 1556.0
269.176727 160.0
269.250305 120.0
269.311462 248.0
269.454346 144.0
269.60025 164.0
269.64386 160.0
269.692902 224.0
270.046021 144.0
270.090973 4144.0
270.124603 1228.0
270.362579 184.0
270.638336 156.0
270.740082 172.0
270.76651 152.0
270.842041 176.0
270.906738 172.0
271.051056 172.0
271.096466 2392.0
271.189575 116.0
271.406036 196.0
271.519806 156.0
271.681488 176.0
271.867554 200.0
272.108124 3240.0
272.433441 148.0
272.606232 124.0
272.757294 200.0
272.790497 144.0
272.923065 200.0
273.019928 144.0
273.082306 896.0
273.106934 760.0
273.136902 1856.0
273.227875 156.0
273.311768 152.0
273.342224 164.0
273.498993 152.0
273.603058 156.0
273.710205 116.0
273.895721 128.0
274.050964 248.0
274.086456 2044.0
274.139099 532.0
274.61264 244.0
274.644348 204.0
274.746613 152.0
275.091187 824.0
275.1521 1808.0
275.268097 176.0
275.341522 204.0
275.486603 100.0
275.579865 156.0
275.621521 204.0
275.655579 144.0
275.891266 224.0
276.100769 1040.0
276.155914 692.0
276.2883 168.0
276.578247 164.0
276.617615 180.0
276.828918 172.0
277.104156 468.0
277.158081 136.0
277.235107 240.0
277.284729 196.0
277.378265 196.0
277.473785 184.0
277.616455 140.0
277.826569 164.0
278.027649 140.0
278.094788 800.0
278.16748 164.0
278.34433 156.0
278.543579 160.0
279.059784 172.0
279.103882 2460.0
279.181732 140.0
279.271851 124.0
279.329834 184.0
279.368469 140.0
279.473419 140.0
279.536926 136.0
279.729187 140.0
279.961914 144.0
280.03595 228.0
280.112244 28108.0
280.322998 120.0
280.464691 112.0
280.663544 144.0
280.81134 148.0
280.962921 156.0
281.115784 6012.0
281.380066 228.0
281.421631 152.0
281.501862 104.0
281.554321 140.0
281.613617 160.0
281.668762 224.0
281.765594 160.0
281.86319 168.0
281.920929 184.0
281.971405 260.0
282.01413 240.0
282.092377 87236.0
282.126221 1628.0
282.179474 320.0
282.280151 160.0
282.35022 272.0
282.399475 120.0
282.50235 180.0
282.538483 220.0
282.608704 164.0
282.634857 404.0
282.678864 216.0
282.809723 148.0
282.93338 180.0
283.026733 216.0
283.095581 18908.0
283.182129 136.0
283.397034 208.0
283.49585 104.0
283.536987 96.0
283.574158 268.0
283.637756 192.0
283.728149 264.0
283.825348 176.0
283.910522 200.0
283.975159 232.0
284.102875 3128.0
284.262756 144.0
284.470825 148.0
284.664642 144.0
284.695251 100.0
284.758667 116.0
284.837738 180.0
284.870453 172.0
284.900085 136.0
285.000793 160.0
285.040436 232.0
285.079102 1292.0
285.110748 1960.0
285.196075 168.0
285.256226 100.0
285.298706 184.0
285.651367 116.0
285.754272 124.0
285.791626 160.0
285.950897 228.0
286.085663 6948.0
286.11734 1056.0
286.20224 156.0
286.417786 200.0
286.51825 112.0
286.631531 144.0
286.670471 156.0
286.872681 140.0
287.055542 104.0
287.094849 5884.0
287.154999 456.0
287.204834 120.0
287.830872 192.0
288.100708 6776.0
288.157776 528.0
288.217926 136.0
288.509979 140.0
288.66275 192.0
288.737732 168.0
288.988647 112.0
289.10733 1272.0
289.159912 136.0
289.26001 128.0
289.347046 112.0
289.390656 152.0
289.438293 220.0
290.014526 100.0
290.059723 208.0
290.098633 1720.0
290.158691 160.0
290.189178 188.0
290.242035 116.0
290.522247 192.0
290.626709 164.0
290.674225 196.0
290.710052 124.0
290.738708 160.0
290.776031 152.0
291.028442 156.0
291.104584 12024.0
291.236725 132.0
291.325256 96.0
291.407623 144.0
291.647614 180.0
291.69989 232.0
292.00415 140.0
292.108215 1932.0
292.21875 176.0
292.276459 132.0
292.560547 156.0
292.608215 164.0
292.906189 112.0
293.109039 464.0
293.158478 264.0
293.332336 100.0
293.379883 152.0
293.454163 112.0
293.922943 208.0
294.089996 1348.0
294.126221 412.0
294.210541 140.0
294.299286 148.0
294.55249 144.0
294.777252 112.0
294.890564 144.0
295.121185 1744.0
295.195496 216.0
295.432465 96.0
295.507233 96.0
295.605927 168.0
295.889771 144.0
296.053467 320.0
296.106506 6536.0
296.209961 116.0
296.238434 136.0
296.424805 156.0
296.985687 140.0
297.03714 168.0
297.112457 2488.0
297.328766 148.0
297.656616 104.0
297.778534 184.0
298.015564 180.0
298.089478 2856.0
298.121185 4784.0
298.251587 128.0
298.342743 160.0
298.637421 120.0
298.749847 192.0
298.839142 96.0
298.926483 176.0
299.050018 108.0
299.094391 15032.0
299.304382 240.0
299.398132 292.0
299.531342 152.0
299.616394 148.0
299.657501 244.0
299.698944 140.0
299.743958 204.0
299.779724 108.0
299.788422 144.0
299.828369 176.0
299.92691 144.0
300.004181 160.0
300.050446 220.0
300.103149 133068.0
300.203888 176.0
300.265137 164.0
300.369019 216.0
300.407623 204.0
300.431763 268.0
300.494171 204.0
300.524323 156.0
300.617523 208.0
300.668518 144.0
300.717529 272.0
300.886414 172.0
300.947235 128.0
301.005127 148.0
301.105682 27500.0
301.413757 156.0
301.583832 120.0
301.844116 136.0
301.951416 120.0
302.06839 156.0
302.110657 3996.0
302.320587 200.0
302.403259 208.0
302.581085 136.0
302.680969 140.0
302.730042 164.0
302.796753 144.0
303.118835 884.0
303.228149 152.0
303.29187 196.0
303.32077 188.0
303.353973 128.0
303.3974 108.0
303.618042 144.0
303.658661 140.0
303.715149 156.0
303.894745 176.0
304.037811 152.0
304.120361 228.0
304.371948 156.0
304.501495 100.0
304.596802 148.0
305.115387 360.0
305.163239 504.0
305.443146 132.0
305.660645 368.0
305.748627 288.0
305.914703 164.0
306.030701 128.0
306.090332 968.0
306.177917 128.0
306.384857 160.0
306.437103 144.0
306.903168 164.0
306.971741 140.0
307.047119 164.0
307.09964 6812.0
307.437744 148.0
307.515472 116.0
307.64151 100.0
307.814331 136.0
307.880035 216.0
307.989716 168.0
308.049713 216.0
308.107269 50904.0
308.180328 252.0
308.221405 124.0
308.292084 124.0
308.35791 168.0
308.420868 164.0
308.722626 144.0
308.767761 112.0
308.827209 112.0
308.930878 184.0
309.013184 164.0
309.053192 112.0
309.109955 11640.0
309.214874 116.0
309.254517 124.0
309.288422 172.0
309.382172 148.0
309.754547 104.0
309.872742 104.0
309.994141 236.0
310.022186 160.0
310.08963 1672.0
310.121796 3788.0
310.234833 172.0
310.283722 124.0
310.315399 104.0
310.369202 104.0
310.428833 200.0
310.571136 152.0
310.797729 144.0
310.872925 120.0
310.921478 164.0
311.093506 952.0
311.124054 1232.0
311.205139 256.0
311.252136 192.0
311.364716 160.0
311.517853 112.0
311.721924 140.0
311.854187 180.0
311.934906 136.0
311.98175 136.0
312.101288 6020.0
312.191681 216.0
312.380798 132.0
312.92569 112.0
313.011597 192.0
313.062134 180.0
313.107971 13236.0
313.187103 96.0
313.239563 104.0
313.409271 120.0
313.446716 264.0
313.615417 272.0
313.747955 184.0
313.800842 244.0
313.863464 180.0
313.955994 140.0
314.116211 14476.0
314.177765 300.0
314.338348 116.0
314.582611 140.0
314.774689 144.0
314.820587 148.0
315.120728 5012.0
315.193542 288.0
315.222382 108.0
315.36969 104.0
315.509583 368.0
315.826538 140.0
315.896545 144.0
316.078369 172.0
316.131531 2384.0
316.427124 104.0
316.632416 124.0
316.739716 128.0
316.907562 232.0
317.095398 148.0
317.132904 488.0
317.356812 112.0
317.428131 172.0
317.656311 140.0
317.739258 144.0
317.790405 184.0
318.046509 168.0
318.098602 172.0
318.147827 276.0
318.361908 168.0
318.763306 156.0
318.93988 100.0
319.089203 140.0
319.135223 268.0
319.321442 152.0
319.426178 228.0
319.470856 152.0
319.52066 140.0
319.591797 144.0
319.702118 152.0
319.885895 184.0
320.065216 152.0
320.105682 284.0
320.142792 132.0
320.234863 144.0
320.784882 152.0
321.034454 144.0
321.11731 376.0
321.331604 184.0
321.354706 260.0
321.384186 160.0
321.456879 144.0
321.524292 144.0
321.678192 320.0
321.743439 236.0
321.812317 140.0
321.998016 152.0
322.088623 1092.0
322.12326 824.0
322.371643 144.0
322.551819 256.0
322.774506 180.0
322.855743 152.0
322.909363 144.0
323.1185 3200.0
323.180664 244.0
323.244598 108.0
323.614105 204.0
324.105682 1568.0
324.28244 128.0
324.377411 144.0
324.662018 356.0
324.879425 140.0
325.113007 5792.0
325.295715 308.0
325.421356 204.0
325.505463 116.0
325.74707 224.0
325.904633 108.0
326.006866 188.0
326.117889 24004.0
326.437103 116.0
326.511505 168.0
326.571686 144.0
326.667816 96.0
326.759155 124.0
326.962006 160.0
327.02771 300.0
327.057037 120.0
327.116608 12360.0
327.305664 200.0
327.348633 160.0
327.499908 156.0
327.692627 128.0
327.886505 208.0
327.925049 156.0
328.129486 5872.0
328.286285 100.0
328.331116 164.0
328.536102 124.0
328.62088 156.0
328.698395 108.0
328.934387 148.0
329.137207 1768.0
329.225647 120.0
329.368011 148.0
329.658386 204.0
329.792267 132.0
329.899475 208.0
329.970367 112.0
330.142151 284.0
330.467285 164.0
330.812836 176.0
330.977631 184.0
331.024719 184.0
331.065521 152.0
331.138214 220.0
331.21521 100.0
331.536011 164.0
331.868958 168.0
331.926514 120.0
332.10965 196.0
332.182526 236.0
332.260681 184.0
332.398529 148.0
332.745422 196.0
333.109222 128.0
333.190063 160.0
333.227814 136.0
333.267273 144.0
333.400818 156.0
333.782318 168.0
333.990173 112.0
334.123779 532.0
334.155548 288.0
334.541534 160.0
334.633911 140.0
334.706726 140.0
334.819092 196.0
334.856049 152.0
335.127228 384.0
335.159576 328.0
335.676392 304.0
335.763519 156.0
336.137024 1260.0
336.281586 140.0
336.350952 180.0
336.434906 220.0
336.906006 148.0
337.011566 120.0
337.10141 264.0
337.142578 380.0
337.205627 152.0
337.391907 100.0
337.972412 216.0
338.117432 340.0
338.188446 200.0
338.570251 152.0
338.597656 176.0
338.993561 144.0
339.116333 768.0
339.204102 176.0
339.35376 148.0
339.571472 164.0
339.629425 172.0
339.698181 184.0
339.752197 180.0
339.876526 124.0
340.069733 156.0
340.131317 1080.0
340.198212 108.0
340.275299 144.0
340.325287 176.0
340.359741 144.0
340.552155 152.0
340.760101 216.0
340.79718 124.0
340.918976 152.0
340.986572 204.0
341.128326 18280.0
341.214386 256.0
341.407471 132.0
341.468292 108.0
341.501953 128.0
341.667419 348.0
341.805603 212.0
341.940704 264.0
342.038147 240.0
342.136169 28372.0
342.220581 136.0
342.305389 164.0
342.412964 112.0
342.444855 160.0
342.503174 96.0
342.541168 164.0
342.606537 148.0
342.663757 232.0
342.713013 152.0
342.962952 236.0
343.06546 268.0
343.141052 5688.0
343.257111 208.0
343.292053 160.0
343.476166 100.0
343.50766 180.0
343.788757 144.0
343.851471 140.0
344.077576 104.0
344.145325 1036.0
344.250458 124.0
344.290222 188.0
344.516968 96.0
344.589508 176.0
344.910706 100.0
345.113403 120.0
345.15799 308.0
345.185791 136.0
345.227539 144.0
345.307037 124.0
345.470001 232.0
345.727509 136.0
346.126373 252.0
346.137573 156.0
346.149658 436.0
346.279877 160.0
346.417755 132.0
346.492371 112.0
346.694641 156.0
346.786163 140.0
346.910004 100.0
347.012787 116.0
347.12915 252.0
347.35849 224.0
347.405396 156.0
347.521851 156.0
347.996979 148.0
348.125854 164.0
348.18631 336.0
348.361084 144.0
348.685089 204.0
348.775604 176.0
348.853668 156.0
348.948669 168.0
348.990173 128.0
349.129303 304.0
349.167694 332.0
349.2276 184.0
349.320435 116.0
349.493347 140.0
349.679413 204.0
349.808868 160.0
350.003296 152.0
350.118958 340.0
350.156067 404.0
350.347443 128.0
350.657745 132.0
350.764465 128.0
351.128021 256.0
351.17392 456.0
351.483093 168.0
351.688354 144.0
352.013153 196.0
352.046753 180.0
352.121338 244.0
352.179626 252.0
353.13266 468.0
353.184448 820.0
353.279694 124.0
353.313416 144.0
353.427673 140.0
353.494171 160.0
353.690582 452.0
353.856506 272.0
353.917053 164.0
354.047546 132.0
354.146454 1548.0
354.203094 260.0
354.62442 188.0
354.864197 108.0
355.14859 1016.0
355.260651 160.0
355.516052 328.0
355.591644 104.0
355.925018 116.0
356.076385 168.0
356.150696 568.0
356.260437 216.0
356.454346 144.0
356.685059 152.0
356.923279 160.0
357.150818 124.0
357.707001 124.0
357.996643 164.0
358.046417 388.0
358.12616 144.0
358.163818 136.0
358.176147 132.0
358.316162 156.0
358.423767 204.0
358.680054 144.0
358.951508 208.0
359.145081 132.0
360.128967 176.0
360.155396 196.0
360.888519 284.0
361.122986 172.0
361.169556 192.0
361.422943 192.0
361.614838 148.0
361.686829 176.0
361.898743 172.0
362.149353 268.0
362.191956 1480.0
362.280518 184.0
362.508606 148.0
362.59198 208.0
362.626068 144.0
362.693237 984.0
363.046906 240.0
363.154755 420.0
363.201385 384.0
363.850037 176.0
364.159637 252.0
364.390594 156.0
364.478088 144.0
364.675598 160.0
365.171997 376.0
365.373688 148.0
365.458954 140.0
365.776733 112.0
366.160339 204.0
366.681335 312.0
366.841858 108.0
366.982483 148.0
367.144348 248.0
367.173401 264.0
367.43396 140.0
368.157593 840.0
368.965729 136.0
369.194611 1096.0
369.239288 272.0
369.292816 168.0
369.661682 124.0
369.847626 168.0
370.073486 196.0
370.133057 128.0
370.194 276.0
370.525421 172.0
371.107971 140.0
371.206909 120.0
371.39447 156.0
371.468475 232.0
371.690979 160.0
371.909729 272.0
372.009552 188.0
372.151459 136.0
372.351257 160.0
372.422302 112.0
372.932922 144.0
372.986664 128.0
373.177429 112.0
373.20871 156.0
373.272522 176.0
373.438538 120.0
373.973755 148.0
374.054138 144.0
374.123322 380.0
374.195831 312.0
375.056061 176.0
375.126434 140.0
375.175568 140.0
375.205109 148.0
375.266907 156.0
375.56781 128.0
375.642181 156.0
375.680756 164.0
376.165161 108.0
376.234375 112.0
376.524048 184.0
376.653503 156.0
376.702911 188.0
376.847961 144.0
377.10144 112.0
377.165833 244.0
377.469299 148.0
377.550171 156.0
377.826447 256.0
378.181305 156.0
378.265961 152.0
378.471161 208.0
378.888367 100.0
379.177887 1336.0
379.249817 164.0
379.416077 108.0
380.118286 128.0
380.164398 760.0
380.350861 152.0
380.456207 196.0
380.878998 100.0
380.949371 164.0
381.162598 1228.0
382.059998 152.0
382.165894 948.0
382.223053 288.0
382.679993 164.0
382.753998 144.0
382.907715 140.0
383.19516 4088.0
383.624695 116.0
383.696747 2172.0
384.151184 112.0
384.20047 452.0
384.63446 116.0
384.702148 300.0
384.933716 200.0
385.093842 184.0
385.14978 172.0
385.203217 196.0
385.238678 152.0
385.336029 140.0
385.399811 136.0
385.531403 160.0
385.579468 152.0
385.866669 100.0
385.916656 180.0
385.998657 104.0
386.11203 100.0
386.438568 156.0
387.102478 428.0
387.577942 168.0
387.605377 156.0
387.883636 144.0
388.071808 152.0
388.117279 140.0
388.36734 168.0
388.631775 136.0
388.734711 172.0
388.789642 140.0
388.980103 152.0
389.046417 96.0
389.181641 140.0
389.41571 148.0
389.507294 128.0
389.661346 184.0
390.154816 260.0
390.181519 124.0
390.701477 156.0
390.925842 136.0
390.970734 156.0
391.169006 168.0
391.403748 176.0
391.572235 148.0
391.707001 220.0
391.865204 260.0
391.980286 124.0
392.022186 208.0
392.058167 124.0
392.200958 3748.0
392.367554 100.0
392.517517 140.0
392.608856 172.0
392.703186 1408.0
392.779175 180.0
392.978333 100.0
393.146088 212.0
393.207214 652.0
393.289795 128.0
393.497406 144.0
393.644409 136.0
393.720154 184.0
393.998962 152.0
394.164764 108.0
394.214264 172.0
394.403473 208.0
394.574768 120.0
394.619446 168.0
394.835571 116.0
395.132233 152.0
395.174561 1932.0
395.344635 144.0
395.529602 116.0
395.568909 200.0
395.721344 160.0
395.874512 124.0
395.918121 156.0
395.954712 236.0
396.029633 216.0
396.072754 216.0
396.109497 160.0
396.180908 884.0
396.246094 188.0
396.300385 148.0
396.348083 272.0
396.429932 152.0
396.475189 148.0
396.587372 132.0
396.647644 240.0
396.743286 292.0
396.780609 340.0
396.835144 212.0
396.8685 148.0
396.934174 308.0
396.98703 272.0
397.029236 268.0
397.13327 384.0
397.192383 216300.0
397.296539 568.0
397.391785 144.0
397.46582 104.0
397.543915 268.0
397.620514 108.0
397.690643 200.0
397.786469 204.0
397.845947 636.0
397.918243 148.0
398.003479 256.0
398.057373 216.0
398.136841 368.0
398.194794 60952.0
398.312561 156.0
398.540741 164.0
398.699066 268.0
398.76416 168.0
398.89267 164.0
399.077454 144.0
399.196899 8768.0
399.267883 148.0
399.486542 124.0
399.532196 108.0
399.759491 180.0
399.806 172.0
399.876556 108.0
399.938873 172.0
400.13266 160.0
400.197723 976.0
400.264984 112.0
400.335541 132.0
400.399323 276.0
400.46286 144.0
400.495972 252.0
400.551941 240.0
400.589355 296.0
400.645844 204.0
400.720367 268.0
400.785248 184.0
400.829559 388.0
400.882538 196.0
400.952545 228.0
400.987122 164.0
401.053375 108.0
401.082245 304.0
401.164246 208.0
401.202576 188.0
401.233826 144.0
401.324036 128.0
401.355499 136.0
401.417603 116.0
401.582611 96.0
401.688873 192.0
401.728973 112.0
401.777161 164.0
402.221558 416.0
402.7117 120.0
402.782166 192.0
402.927002 124.0
402.966278 128.0
403.177704 176.0
403.47348 184.0
403.661407 216.0
403.71579 188.0
403.761383 148.0
403.803284 160.0
404.202454 488.0
404.244171 128.0
404.523376 108.0
404.601654 144.0
404.69989 584.0
404.801849 140.0
405.062195 252.0
405.208282 220.0
405.388824 152.0
405.46582 168.0
405.631195 188.0
405.696777 160.0
405.792114 104.0
406.177704 96.0
406.288849 180.0
406.36908 232.0
406.401184 156.0
406.57373 164.0
406.655731 176.0
407.141876 100.0
407.196503 288.0
407.380768 140.0
407.508545 100.0
407.554108 144.0
407.866028 212.0
408.077423 200.0
408.578339 132.0
408.614227 172.0
408.718842 200.0
408.830902 184.0
408.972595 124.0
409.021423 172.0
409.055939 104.0
409.261749 196.0
409.440155 176.0
409.542053 120.0
409.83075 124.0
410.037628 144.0
410.187622 108.0
410.218018 324.0
410.27356 200.0
410.513458 180.0
410.920837 96.0
411.159363 144.0
411.212189 176.0
411.258453 156.0
411.318512 132.0
411.391663 244.0
411.426544 216.0
411.620056 104.0
411.770416 156.0
411.93866 144.0
412.074188 96.0
412.152466 192.0
412.193909 332.0
412.237152 140.0
412.278442 232.0
412.33078 96.0
412.365845 168.0
412.508728 196.0
412.601349 128.0
412.662567 240.0
412.705963 320.0
412.825867 148.0
412.939728 124.0
412.985077 120.0
413.053162 284.0
413.147858 256.0
413.207977 23696.0
413.326477 176.0
413.382294 276.0
413.436401 180.0
413.472992 112.0
413.496552 144.0
413.549072 100.0
413.624573 256.0
413.70932 16480.0
413.818146 120.0
413.866608 304.0
413.902588 172.0
413.958618 120.0
413.989471 308.0
414.023132 440.0
414.072693 260.0
414.117004 564.0
414.210297 4176.0
414.289154 240.0
414.332855 148.0
414.371124 328.0
414.405914 496.0
414.437897 276.0
414.486877 220.0
414.527893 188.0
414.585114 360.0
414.630981 524.0
414.663391 392.0
414.712006 1388.0
414.806091 388.0
414.870758 432.0
414.927795 276.0
414.95639 752.0
415.037811 948.0
415.11557 1012.0
415.149231 1476.0
415.205322 236720.0
415.346252 172.0
415.487122 312.0
415.581543 3400.0
415.6409 512.0
415.71109 836.0
415.761993 544.0
415.820831 1780.0
415.881317 11432.0
416.02597 340.0
416.077454 444.0
416.152313 264.0
416.207214 208256.0
416.477203 192.0
416.501801 540.0
416.583344 968.0
416.707397 228.0
416.831177 188.0
416.876129 4864.0
416.917938 396.0
417.030365 240.0
417.067444 164.0
417.207794 47564.0
417.515747 388.0
417.568665 268.0
417.610107 300.0
417.688385 140.0
417.821106 280.0
417.878113 236.0
417.924011 200.0
418.041962 112.0
418.071899 156.0
418.113251 312.0
418.210632 4240.0
418.283722 152.0
418.361542 232.0
418.421814 268.0
418.439178 188.0
418.508698 360.0
418.517883 440.0
418.55307 288.0
418.636353 412.0
418.66803 480.0
418.739746 280.0
418.788391 488.0
418.842072 636.0
418.877289 396.0
418.889801 408.0
418.936554 368.0
418.978851 376.0
419.037201 180.0
419.087677 312.0
419.12027 192.0
419.163177 192.0
419.222626 100.0
419.294128 232.0
419.353424 172.0
419.409668 124.0
419.55188 160.0
419.703247 172.0
419.821533 284.0
419.868408 232.0
419.919067 320.0
419.99649 240.0
420.050507 212.0
420.179382 196.0
420.281311 124.0
420.483582 196.0
420.715973 108.0
420.841949 184.0
420.974915 136.0
421.7099 116.0
421.750061 144.0
423.163849 200.0
425.315826 116.0
426.562286 148.0
426.694885 112.0
426.921936 168.0
427.21994 120.0
428.750366 136.0
429.449097 100.0
429.617798 140.0
429.97464 108.0
430.164825 108.0
430.693054 100.0
430.826355 112.0
430.893951 136.0
431.163269 248.0
431.584686 100.0
432.176727 224.0
432.685242 100.0
433.177032 152.0
433.252716 148.0
433.691803 108.0
433.928741 104.0
434.223297 172.0
434.540863 104.0
435.067169 96.0
435.200867 156.0
435.259003 168.0
436.215179 300.0
437.203247 180.0
438.168335 140.0
440.52597 100.0
448.20105 180.0
448.515717 96.0
448.736359 152.0
451.201935 176.0
451.256897 168.0
453.161469 148.0
456.199432 100.0
458.230103 152.0
459.166016 128.0
460.166412 116.0
460.695984 148.0
460.819855 140.0
464.192749 140.0
467.173462 168.0
468.245239 144.0
473.245758 192.0
474.218842 184.0
475.230835 164.0
476.175568 196.0
476.222137 148.0
476.280457 164.0
477.207031 324.0
477.238281 128.0
478.216278 252.0
478.250244 252.0
486.016968 132.0
487.596436 128.0
492.221619 96.0
495.248199 224.0
496.23822 152.0
500.199097 140.0
501.134888 96.0
501.23233 160.0
502.195282 152.0
504.19989 152.0
504.234772 164.0
504.284821 176.0
506.242676 272.0
507.225525 204.0
512.27179 140.0
514.284729 144.0
514.43219 100.0
516.213379 188.0
518.216431 120.0
518.301392 100.0
519.271179 168.0
521.259888 164.0
524.237793 168.0
525.248657 100.0
526.199158 156.0
526.261108 156.0
527.304565 140.0
528.751099 112.0
530.269226 132.0
531.811584 96.0
532.210754 152.0
533.267334 160.0
535.20636 144.0
540.277893 116.0
543.835022 144.0
544.28772 216.0
547.214539 140.0
549.174011 108.0
550.2099 116.0
551.258606 172.0
556.380737 116.0
565.035828 100.0
565.314575 176.0
568.241272 152.0
569.320374 188.0
571.966064 128.0
573.040039 140.0
575.224243 140.0
578.278076 120.0
580.24054 108.0
581.726318 132.0
586.212036 104.0
592.672729 184.0
593.280762 140.0
594.264954 116.0
605.299744 128.0
640.641296 96.0
644.383423 112.0
669.423218 144.0
675.218567 144.0
722.522461 116.0
723.368835 144.0
744.729614 112.0
769.175842 132.0
801.417236 144.0
851.482788 236.0
870.5401 104.0
884.304626 144.0
897.999573 200.0
907.264954 128.0
926.195679 144.0
927.449951 188.0
947.333252 176.0
962.759216 144.0
999.514465 164.0
1021.347168 140.0
1129.522827 140.0
1130.660522 100.0
1137.369263 200.0
1241.613159 144.0
1268.795776 148.0
1274.082886 204.0
1295.778442 240.0
1322.646729 148.0
1341.730225 152.0
1354.174438 160.0
1368.703979 136.0
1380.070557 164.0
1395.730469 228.0
1397.151001 204.0
1403.287842 140.0
1414.588379 136.0
1424.526855 180.0
1434.987671 172.0
1442.363159 168.0
1443.028442 188.0
1455.856812 148.0
1459.541016 252.0
1464.938354 164.0
1465.364868 152.0
1471.809937 140.0
1480.749512 168.0
1484.282227 140.0
1485.141235 140.0
1489.378052 160.0
1498.648071 172.0
1502.371826 156.0
1514.119507 124.0
1520.400391 140.0
1534.089722 200.0
1535.025269 144.0
1539.77002 168.0
1550.198242 176.0
1559.411621 188.0
1559.90686 160.0
1568.337158 140.0
1575.454712 156.0
1575.938843 112.0
1577.074585 148.0
1587.192017 148.0
1591.222656 184.0
1599.362915 152.0
1603.921143 180.0
1604.110352 196.0
1608.465576 152.0
1609.974609 184.0
1621.062134 164.0
1626.941284 140.0
1632.284302 160.0
1633.42627 140.0
1635.42981 140.0
1639.303589 172.0
1641.770386 168.0
1678.472778 144.0
1680.544556 156.0
1687.380737 216.0
1702.367188 196.0
1704.798706 196.0
1709.019653 196.0
1713.652466 176.0
1718.541748 164.0
1729.897095 216.0
1737.316772 212.0
1740.118896 204.0
1764.304443 184.0
1776.178711 164.0
1778.074951 156.0
1782.828247 196.0
1784.660767 144.0
1789.860718 244.0
1814.201782 184.0
1828.803589 180.0
1840.8927 188.0
1843.626343 264.0
1843.788696 168.0
1849.014038 236.0
1849.322144 168.0
1852.944458 180.0
1857.223022 180.0
1865.405151 152.0
1869.593872 180.0
1872.305664 164.0
1874.43335 160.0
1901.588135 144.0
1902.664551 156.0
1903.645752 184.0
1911.068848 144.0
1925.731567 156.0
1950.123779 144.0
1951.28418 144.0
1953.931396 208.0
1957.927612 172.0
1960.35022 172.0
1962.739014 144.0
1963.065308 160.0
1972.008423 164.0
1972.38855 148.0
1975.41272 144.0
1976.677856 164.0
1978.076172 156.0
1980.404907 144.0
1980.812378 160.0
1996.540039 152.0
1998.265625 148.0
1999.689453 200.0
