>compound MLS001139227-01!(2S)-1-(4,5-dimethoxy-3-oxo-1H-2-benzofuran-1-yl)-5-oxo-N-(oxolan-2-ylmethyl)pyrrolidine-2-carboxamide
>formula C20H24N2O7
>ionization [M+H]+
>parentmass 405.166
#inchi InChI=1S/C20H24N2O7/c1-26-14-7-5-12-16(17(14)27-2)20(25)29-19(12)22-13(6-8-15(22)23)18(24)21-10-11-4-3-9-28-11/h5,7,11,13,19H,3-4,6,8-10H2,1-2H3,(H,21,24)/t11?,13-,19?/m0/s1
#inchikey UZARRKIDXRIWGF
#Ion_Source LC-ESI
#Instrument qTof
#Compound_Source NIH Natural Product Library
#PI Dorrestein
#Data_Collector VVP/LMS
#Scan -1
#Precursor_MZ 405.166
#ExactMass 404.158
#Charge 1
#CAS_Number N/A
#Pubmed_ID N/A
#Smiles COc1ccc2C(OC(=O)c2c1OC)N3[C@@H](CCC3=O)C(=O)NCC4CCCO4
#INCHI_AUX N/A
#Library_Class 1
#SpectrumID CCMSLIB00000079925
#IonMode Positive
#UpdateWorkflowName UPDATE-SINGLE-ANNOTATED-GOLD
#LibraryQualityString Gold
#TaskID b1d8e8f6646f4e71acdff9ca3d919d08
##Scan# 1499
#SpectrumFile p1-H12_GH12_01_17968.mzXML
#LibraryName NIH_Natural_Products_Library.mgf
#MQScore -1
#Organism NIH_Natural_Products_Library
#TIC_Query 0
#RT_Query -1
#MZErrorPPM -1
#SharedPeaks 0
#MassDiff 0
#LibMZ -1
#SpecMZ 405.166
#SpecCharge 0
#internalFilename spec-00000.mgf

>collision 10
95.208649 128.0
95.286346 156.0
95.406845 148.0
95.500183 132.0
95.635414 204.0
95.67337 116.0
95.989006 180.0
96.018257 148.0
96.12751 164.0
96.492767 248.0
96.929253 88.0
97.088036 192.0
97.107651 228.0
97.14492 120.0
97.162575 120.0
97.209663 176.0
97.252159 196.0
97.272476 172.0
97.352974 224.0
97.400108 168.0
97.417786 132.0
97.531761 76.0
97.567146 152.0
97.643829 108.0
97.687103 188.0
97.700874 76.0
97.765808 148.0
97.820923 140.0
97.83667 124.0
97.909523 160.0
98.076996 180.0
98.165718 152.0
98.181488 176.0
98.285057 160.0
98.30719 240.0
98.412369 128.0
98.605965 160.0
98.619797 76.0
98.649445 220.0
99.00956 200.0
99.25132 40.0
99.370331 224.0
99.384216 132.0
99.406044 168.0
99.465591 184.0
99.50132 172.0
99.759583 160.0
99.787415 176.0
99.837128 180.0
99.878899 156.0
99.892822 168.0
100.161552 104.0
100.287086 72.0
100.336922 144.0
100.442612 240.0
100.532394 44.0
100.616226 208.0
100.709595 212.0
100.861938 196.0
100.96991 180.0
101.003914 152.0
101.073784 156.0
101.11396 192.0
101.184021 224.0
101.362282 88.0
101.416397 196.0
101.462502 180.0
101.608902 148.0
101.707603 152.0
101.861855 136.0
101.94825 184.0
102.010559 208.0
102.169426 160.0
102.334465 184.0
102.370705 212.0
102.386818 200.0
102.4412 208.0
102.549591 96.0
102.624603 188.0
102.666946 80.0
102.703247 180.0
102.723938 156.0
102.89698 196.0
102.927269 204.0
103.016838 524.0
103.264755 156.0
103.388168 172.0
103.479256 180.0
103.532196 168.0
103.850105 180.0
103.953568 224.0
103.984009 232.0
104.022141 220.0
104.051003 144.0
104.605995 184.0
104.624313 88.0
104.73835 40.0
104.834114 164.0
105.030869 208.0
105.145599 192.0
105.407532 192.0
105.534264 100.0
105.560844 164.0
105.593567 180.0
105.654938 140.0
105.749062 72.0
105.783859 184.0
105.978424 132.0
106.003014 116.0
106.033752 448.0
106.054245 140.0
106.331139 84.0
106.389145 216.0
106.524147 140.0
106.598114 112.0
106.628937 88.0
106.82428 168.0
106.898346 208.0
107.010918 556.0
107.0495 2728.0
107.116585 212.0
107.163971 152.0
107.260834 176.0
107.291756 108.0
107.327385 212.0
107.3433 80.0
107.475319 176.0
107.673492 148.0
107.762314 128.0
107.818108 164.0
107.894592 116.0
107.969032 152.0
108.021477 360.0
108.051575 364.0
108.23391 164.0
108.28775 192.0
108.304321 52.0
108.424492 116.0
108.453506 112.0
108.49704 132.0
108.604874 180.0
108.660881 128.0
108.692009 36.0
108.762573 88.0
108.909996 176.0
109.005562 80.0
109.028244 4212.0
109.063271 408.0
109.097015 40.0
109.221786 164.0
109.396576 172.0
109.713234 52.0
109.74659 116.0
109.827927 152.0
109.951027 136.0
110.030952 588.0
110.095078 28.0
110.115959 172.0
110.129684 208.0
110.147293 100.0
110.199516 168.0
110.262207 248.0
110.598946 120.0
110.756981 144.0
110.887993 116.0
110.944588 176.0
111.066216 164.0
111.091385 140.0
111.10817 152.0
111.137543 168.0
111.313866 100.0
111.436668 60.0
111.629074 156.0
111.929985 200.0
112.130119 164.0
112.312744 212.0
112.366295 68.0
112.414825 124.0
112.495026 100.0
112.528809 208.0
112.573151 144.0
112.761169 192.0
112.809792 132.0
113.188507 164.0
113.311356 116.0
113.436394 252.0
113.459709 296.0
113.597557 204.0
113.629379 124.0
113.697281 168.0
113.822128 236.0
113.905357 72.0
113.99884 184.0
114.056229 188.0
114.288033 180.0
114.41787 168.0
114.53286 112.0
114.596771 140.0
114.615944 60.0
114.724648 156.0
114.812065 64.0
114.908058 196.0
115.016891 152.0
115.108696 88.0
115.142868 156.0
115.164223 144.0
115.279594 148.0
115.333023 120.0
115.392876 204.0
115.435646 92.0
115.578964 88.0
115.739502 132.0
115.872292 296.0
115.973015 160.0
116.030891 76.0
116.058762 176.0
116.116669 96.0
116.176727 184.0
116.215347 164.0
116.241096 164.0
116.280937 120.0
116.954613 212.0
117.036644 344.0
117.195816 116.0
117.47393 184.0
117.53434 196.0
117.586136 208.0
117.63578 216.0
117.862556 144.0
117.882004 196.0
117.899292 132.0
118.031158 144.0
118.321083 180.0
118.734962 144.0
118.754478 216.0
118.980156 132.0
119.004044 280.0
119.04847 224.0
119.071358 204.0
119.108284 100.0
119.316902 36.0
119.403885 56.0
119.432159 228.0
119.499985 180.0
119.553993 180.0
119.741226 220.0
119.976562 156.0
120.018372 228.0
120.386765 172.0
120.412308 184.0
120.445732 128.0
120.535309 212.0
120.651154 204.0
120.909264 120.0
120.974922 148.0
120.992218 156.0
121.028168 5432.0
121.06797 260.0
121.172028 52.0
121.21299 144.0
121.30352 44.0
121.498695 240.0
121.639145 88.0
121.713181 144.0
121.907097 140.0
121.97303 136.0
122.036339 5624.0
122.07637 168.0
122.122551 236.0
122.316185 172.0
122.347 52.0
122.380028 104.0
122.763443 56.0
122.783295 172.0
122.811966 172.0
122.873734 80.0
122.904617 148.0
122.953171 132.0
123.004288 508.0
123.039589 608.0
123.063545 192.0
123.308746 44.0
123.45105 196.0
123.582954 56.0
123.625 116.0
123.706894 120.0
123.740105 200.0
123.764458 84.0
123.779961 144.0
123.859688 112.0
123.93428 196.0
124.013672 308.0
124.041389 44.0
124.076859 192.0
124.152252 88.0
124.325294 196.0
124.380775 132.0
124.562866 144.0
124.622849 152.0
124.829567 88.0
125.025482 152.0
125.068352 244.0
125.105469 104.0
125.203438 52.0
125.303673 100.0
125.577866 96.0
125.696106 32.0
125.785378 136.0
125.890869 160.0
125.932747 112.0
125.988594 196.0
126.062325 112.0
126.115417 148.0
126.326157 184.0
126.576828 216.0
126.612656 124.0
126.819016 156.0
126.852409 168.0
126.907547 148.0
127.078918 180.0
127.099113 136.0
127.2248 224.0
127.366272 216.0
127.402214 188.0
127.46962 256.0
127.498833 164.0
127.613472 148.0
127.757416 120.0
127.806908 176.0
127.856415 204.0
127.962212 100.0
128.007248 184.0
128.13916 164.0
128.340744 144.0
128.381332 220.0
128.505386 168.0
128.647583 160.0
128.846313 160.0
128.939972 228.0
129.343826 100.0
129.504593 116.0
129.57254 140.0
129.649582 44.0
129.853638 188.0
129.874039 140.0
129.892197 164.0
129.937561 188.0
130.162262 136.0
130.53949 192.0
130.632736 232.0
131.012909 128.0
131.186111 152.0
131.254501 132.0
131.393631 112.0
131.51915 216.0
131.850327 212.0
131.966904 104.0
132.020615 624.0
132.431458 104.0
132.580139 184.0
132.642258 136.0
132.672073 56.0
132.825714 220.0
132.846359 180.0
133.027954 752.0
133.08963 52.0
133.12178 160.0
133.340027 52.0
133.551559 168.0
133.839233 52.0
133.87146 212.0
133.917526 196.0
133.984329 112.0
134.035843 684.0
134.106461 228.0
134.131821 176.0
134.332428 192.0
134.544739 168.0
134.567841 100.0
134.685608 64.0
134.75029 220.0
134.82193 180.0
134.861221 116.0
134.882019 104.0
135.006729 1072.0
135.043396 8444.0
135.08551 124.0
135.143356 188.0
135.173431 176.0
135.217407 148.0
135.247498 68.0
135.28685 132.0
135.347046 56.0
135.381775 40.0
135.4142 136.0
135.472107 44.0
135.539291 72.0
135.611145 48.0
135.863892 196.0
135.965988 176.0
136.013016 312.0
136.046722 1208.0
136.091339 52.0
136.198166 140.0
136.228363 188.0
136.285767 96.0
136.402649 76.0
136.853989 212.0
136.902893 180.0
136.965775 128.0
136.98674 80.0
137.022675 2584.0
137.059509 992.0
137.117218 48.0
137.140533 36.0
137.292068 64.0
137.36438 44.0
137.404037 140.0
137.431259 84.0
137.781219 168.0
137.903763 44.0
137.931808 100.0
137.971558 152.0
138.023087 152.0
138.048706 172.0
138.065079 156.0
138.08847 104.0
138.324799 168.0
138.409073 140.0
138.51915 144.0
138.875443 168.0
138.920013 168.0
139.004471 124.0
139.039673 108.0
139.079758 160.0
139.441284 108.0
139.73053 148.0
139.885849 68.0
139.935287 28.0
140.076584 136.0
140.167114 132.0
140.203827 216.0
140.302826 172.0
140.35704 196.0
140.661392 156.0
140.687363 172.0
140.758194 72.0
141.006241 180.0
141.072433 116.0
141.212219 240.0
141.235596 188.0
141.282898 128.0
141.344421 88.0
141.692474 144.0
141.850555 272.0
141.993515 188.0
142.152466 160.0
142.19519 76.0
142.242661 248.0
142.418427 172.0
142.446869 220.0
142.490448 164.0
142.534775 156.0
142.570419 104.0
142.603699 132.0
142.624084 232.0
142.677383 64.0
142.717804 188.0
142.958054 176.0
143.0009 212.0
143.193756 156.0
143.229477 140.0
143.327164 152.0
143.684799 112.0
143.818436 140.0
143.835144 160.0
143.977356 100.0
144.05484 52.0
144.109787 260.0
144.169525 164.0
144.186249 188.0
144.21254 180.0
144.229279 112.0
144.249298 160.0
144.609589 168.0
144.667023 108.0
145.025665 372.0
145.076675 184.0
145.122238 168.0
145.364502 176.0
145.645401 148.0
146.102707 200.0
146.260956 168.0
146.359665 116.0
146.51622 136.0
146.607788 256.0
146.750534 144.0
146.778931 240.0
147.039505 184.0
147.075272 164.0
147.425888 152.0
147.474228 148.0
147.98465 116.0
148.049194 328.0
148.071838 192.0
148.09227 88.0
148.335938 148.0
148.423218 148.0
148.466873 176.0
148.568741 184.0
148.651245 188.0
148.770172 168.0
148.789597 176.0
148.928009 84.0
148.966873 120.0
148.986313 172.0
149.02269 8548.0
149.060318 148.0
149.089569 192.0
149.136963 84.0
149.370392 40.0
149.450684 56.0
149.535858 132.0
149.608887 232.0
149.650269 212.0
149.75499 184.0
149.820938 52.0
149.849991 156.0
149.903595 112.0
149.920654 152.0
149.975479 212.0
150.030334 7744.0
150.088852 112.0
150.123001 160.0
150.164459 192.0
150.296188 60.0
150.318146 60.0
150.34256 52.0
150.43042 60.0
150.613556 28.0
150.637985 156.0
150.762604 136.0
150.838364 168.0
150.928833 40.0
150.999741 296.0
151.033401 1108.0
151.148972 160.0
151.631409 128.0
151.692688 56.0
151.8815 52.0
151.937927 132.0
152.034851 272.0
152.092514 160.0
152.119522 152.0
152.156342 48.0
152.18335 204.0
152.207916 172.0
152.37001 196.0
152.534668 140.0
152.652679 184.0
152.824875 188.0
152.854401 204.0
152.992981 156.0
153.017029 372.0
153.050949 184.0
153.083328 180.0
153.255753 140.0
153.366653 236.0
153.401169 140.0
153.507187 124.0
153.650238 164.0
153.904465 164.0
154.025116 776.0
154.077347 36.0
154.144073 128.0
154.191025 92.0
154.364075 172.0
154.56691 184.0
154.782272 52.0
154.831787 148.0
154.876373 164.0
154.93335 132.0
155.035339 200.0
155.129135 88.0
155.148956 148.0
155.208466 136.0
155.401932 116.0
155.478867 144.0
155.620346 168.0
155.64447 224.0
155.665054 188.0
155.806625 212.0
156.211838 164.0
156.261597 124.0
156.306381 204.0
156.33873 116.0
156.503021 160.0
156.555313 88.0
156.664917 164.0
156.829376 160.0
157.565536 132.0
157.867981 132.0
157.932999 160.0
158.108139 140.0
158.130661 200.0
158.188232 128.0
158.253326 260.0
158.503815 316.0
158.651688 120.0
158.726898 172.0
158.889938 204.0
158.988144 144.0
159.100754 252.0
159.191147 76.0
159.238861 240.0
159.384567 84.0
159.563019 196.0
159.85228 36.0
159.980637 140.0
160.014023 168.0
160.129196 136.0
160.214844 136.0
160.260193 104.0
160.301941 152.0
160.569199 220.0
160.666122 192.0
160.732834 136.0
160.830612 152.0
160.878098 180.0
160.913452 212.0
160.958893 196.0
160.984146 140.0
161.033234 544.0
161.07254 200.0
161.10791 60.0
161.150864 148.0
161.299973 92.0
161.378342 132.0
161.403625 60.0
161.532608 116.0
161.608505 236.0
161.719849 88.0
161.945206 200.0
162.024414 188.0
162.066803 164.0
162.196045 76.0
162.345642 200.0
162.421036 204.0
162.437363 144.0
162.442673 172.0
162.515594 176.0
162.548584 204.0
162.580536 108.0
162.619644 148.0
162.706284 128.0
162.78212 204.0
162.817673 128.0
162.837982 148.0
162.924362 100.0
162.965012 176.0
163.002426 148.0
163.039062 23556.0
163.08699 56.0
163.112854 160.0
163.229538 172.0
163.290848 88.0
163.343811 140.0
163.371796 192.0
163.40741 48.0
163.468185 212.0
163.542282 56.0
163.656845 60.0
163.697586 88.0
163.786713 76.0
163.814743 80.0
163.852951 44.0
164.041733 2580.0
164.184326 68.0
164.372971 156.0
164.382614 148.0
164.421585 116.0
164.449661 56.0
164.470078 56.0
164.544113 92.0
164.638596 76.0
164.712662 116.0
164.917068 200.0
164.984131 192.0
165.019043 1776.0
165.052155 1228.0
165.129288 52.0
165.177933 128.0
165.203476 136.0
165.226746 120.0
165.257202 152.0
165.344208 272.0
165.370758 128.0
165.415863 104.0
165.541321 128.0
165.628403 208.0
165.741135 136.0
165.952362 176.0
165.98465 100.0
166.007065 124.0
166.024658 232.0
166.056152 400.0
166.17189 164.0
166.295059 92.0
166.397736 56.0
166.51329 144.0
166.711121 96.0
166.73259 172.0
166.826782 136.0
166.9142 164.0
166.955338 92.0
166.978485 132.0
167.125122 164.0
167.263123 64.0
167.385101 156.0
167.446899 144.0
167.627243 192.0
167.650436 224.0
167.681351 180.0
167.947739 176.0
168.016571 112.0
168.127533 208.0
168.148178 172.0
168.199799 92.0
168.254013 120.0
168.354706 136.0
168.605301 192.0
168.788849 136.0
168.817291 156.0
168.918167 84.0
169.044937 216.0
169.101868 160.0
169.156235 160.0
169.215775 100.0
169.316757 144.0
169.448868 96.0
169.524017 200.0
169.710648 80.0
169.957062 80.0
170.310135 156.0
170.330902 152.0
170.356888 140.0
170.538773 128.0
170.796188 128.0
171.280624 172.0
171.322037 104.0
171.423645 132.0
171.50705 44.0
171.629578 156.0
171.650436 136.0
171.713028 96.0
171.765198 188.0
172.237656 196.0
172.627075 208.0
172.68985 132.0
173.027664 204.0
173.247406 144.0
173.459671 188.0
173.519958 92.0
173.593384 164.0
173.66156 224.0
173.682556 232.0
173.703537 216.0
173.721893 152.0
173.947571 152.0
174.046921 200.0
174.504532 172.0
174.538712 44.0
174.733353 136.0
174.814911 176.0
174.835968 204.0
174.943878 172.0
174.980743 56.0
175.039993 692.0
175.146652 248.0
175.51825 124.0
175.869125 136.0
175.900803 144.0
176.039749 376.0
176.193924 104.0
176.331345 172.0
176.377304 244.0
176.484665 232.0
176.642654 200.0
176.820618 52.0
176.841248 152.0
176.913269 224.0
176.931793 208.0
177.018234 668.0
177.056244 116.0
177.207245 96.0
177.249634 196.0
177.427216 172.0
177.45903 68.0
177.626114 104.0
177.750809 176.0
177.830429 144.0
177.981735 172.0
178.025482 6472.0
178.093277 36.0
178.115631 68.0
178.165009 92.0
178.188919 84.0
178.210175 176.0
178.489258 80.0
178.515854 96.0
178.585007 208.0
178.813812 76.0
178.917633 188.0
179.026993 612.0
179.061707 380.0
179.18396 112.0
179.431824 156.0
179.51181 108.0
179.674515 136.0
179.722534 204.0
179.829285 44.0
179.869644 132.0
180.077591 148.0
180.275299 132.0
180.411606 112.0
180.462402 212.0
180.62822 32.0
180.646942 280.0
180.852982 104.0
180.895813 120.0
180.946671 116.0
181.043076 48.0
181.093964 156.0
181.195755 188.0
181.233261 212.0
181.304276 20.0
181.327057 192.0
181.4021 152.0
181.615112 184.0
181.834854 196.0
182.078262 168.0
182.172272 120.0
182.653458 52.0
183.038315 116.0
183.116409 144.0
183.259186 196.0
183.372375 128.0
183.391235 132.0
183.898315 64.0
184.032166 164.0
184.111603 160.0
184.146713 128.0
184.198029 144.0
184.330414 52.0
184.66835 96.0
184.708923 160.0
185.152817 108.0
185.331604 240.0
186.039474 180.0
186.172516 160.0
186.207825 152.0
186.275726 92.0
186.302887 124.0
186.365387 180.0
186.520294 184.0
186.740524 124.0
186.94458 116.0
187.039841 176.0
187.110611 128.0
187.274002 172.0
187.554657 160.0
187.778229 124.0
188.075638 256.0
188.163773 140.0
188.43338 148.0
188.572739 156.0
188.662949 156.0
188.695755 104.0
188.758636 128.0
188.83522 164.0
188.947372 112.0
188.974731 124.0
189.081451 140.0
189.322372 48.0
189.643616 172.0
189.670334 156.0
189.738861 168.0
189.859512 112.0
190.065247 48.0
190.223099 328.0
190.332504 252.0
190.383682 196.0
190.44136 144.0
190.504532 56.0
190.548492 168.0
190.845337 64.0
190.980087 84.0
191.007584 56.0
191.036209 148.0
191.401154 212.0
191.431442 56.0
191.527832 164.0
191.624252 68.0
191.695892 156.0
191.72345 112.0
191.868515 180.0
191.908142 88.0
192.031982 288.0
192.06427 328.0
192.10672 284.0
192.172012 168.0
192.211166 144.0
192.239151 72.0
192.269501 176.0
192.296463 380.0
192.366669 80.0
192.428177 184.0
192.451706 72.0
192.471024 244.0
192.492325 240.0
192.517975 84.0
192.604507 156.0
192.627441 176.0
192.69751 76.0
192.71962 236.0
192.750839 184.0
192.784927 88.0
192.818649 180.0
192.855026 336.0
192.901367 148.0
192.926483 108.0
192.945099 192.0
192.957077 184.0
192.982574 224.0
193.009583 628.0
193.049622 153344.0
193.115005 80.0
193.152161 124.0
193.177948 64.0
193.187653 56.0
193.234497 96.0
193.264481 68.0
193.296417 140.0
193.310669 112.0
193.31839 168.0
193.34198 196.0
193.404816 164.0
193.435165 44.0
193.443939 112.0
193.477875 76.0
193.504837 812.0
193.545609 88.0
193.572739 80.0
193.606277 160.0
193.615448 52.0
193.648193 72.0
193.661789 52.0
193.686295 60.0
193.710861 96.0
193.741745 284.0
193.771011 176.0
193.801895 144.0
193.821838 156.0
193.863037 76.0
193.907837 176.0
193.941437 24.0
193.984756 200.0
194.052307 16668.0
194.106186 108.0
194.114487 48.0
194.125381 52.0
194.133286 92.0
194.160156 112.0
194.171036 68.0
194.223114 140.0
194.312744 140.0
194.356033 68.0
194.406982 108.0
194.439285 60.0
194.501602 144.0
194.562805 80.0
194.589905 108.0
194.611404 104.0
194.690353 120.0
194.72438 64.0
194.758591 80.0
194.790131 56.0
194.840164 164.0
194.864151 60.0
194.916946 84.0
194.949142 40.0
194.986191 96.0
195.012436 88.0
195.056 1656.0
195.12262 96.0
195.144867 60.0
195.196854 184.0
195.235504 76.0
195.255219 176.0
195.276245 212.0
195.321808 120.0
195.353683 104.0
195.375702 80.0
195.435226 176.0
195.468277 128.0
195.506836 220.0
195.541656 100.0
195.570953 120.0
195.640091 124.0
195.670715 68.0
195.757034 68.0
195.798141 68.0
195.823868 140.0
195.887939 116.0
195.910217 44.0
195.935287 84.0
196.021667 68.0
196.056 232.0
196.152664 80.0
196.233505 32.0
196.286285 56.0
196.375626 104.0
196.400833 36.0
196.464996 172.0
196.495682 44.0
196.534744 80.0
196.583694 140.0
196.649155 172.0
196.668701 36.0
196.710571 84.0
196.822235 56.0
196.927383 80.0
197.333237 68.0
197.534927 80.0
197.576889 52.0
197.666412 80.0
197.725189 88.0
198.240479 36.0
198.731201 52.0
198.874313 84.0
199.315231 56.0
199.497925 64.0
200.477417 96.0
201.047089 180.0
201.114822 96.0
202.098282 44.0
202.120911 172.0
202.253937 68.0
202.576736 80.0
202.684402 80.0
203.069946 132.0
203.277054 76.0
203.453033 68.0
203.958679 56.0
204.064102 144.0
204.106506 128.0
204.143478 108.0
204.18898 76.0
204.436493 60.0
204.852188 100.0
205.074448 188.0
206.081238 536.0
206.238998 100.0
206.430542 36.0
207.143204 48.0
207.570251 104.0
207.705048 36.0
209.042114 328.0
209.467133 44.0
209.527634 100.0
209.622711 60.0
209.714935 64.0
209.801407 68.0
210.632507 76.0
211.499985 64.0
212.816147 56.0
213.813217 80.0
215.054825 224.0
215.089844 184.0
215.326355 112.0
216.004471 64.0
216.226837 48.0
216.54303 136.0
217.072556 216.0
217.094009 140.0
217.129837 72.0
220.095749 160.0
220.990158 108.0
221.100632 120.0
224.681213 68.0
225.036377 184.0
226.543701 72.0
227.053268 188.0
228.233429 124.0
228.880371 88.0
231.386429 96.0
232.052963 220.0
232.097946 1236.0
232.125748 136.0
232.198517 108.0
232.286484 96.0
232.920914 84.0
233.093491 164.0
233.101135 288.0
234.110123 148.0
234.457901 128.0
234.78363 96.0
244.575623 196.0
245.270248 84.0
246.106323 128.0
248.121246 164.0
249.666138 56.0
255.050598 172.0
257.727631 60.0
258.395874 64.0
262.923462 84.0
269.074768 168.0
271.407623 72.0
271.565033 116.0
276.121155 2168.0
276.470795 52.0
276.801819 36.0
277.053558 144.0
277.125427 192.0
277.47113 56.0
277.912231 60.0
278.360352 64.0
278.40686 84.0
294.104462 160.0
296.677917 44.0
297.840149 92.0
300.021881 84.0
300.121857 68.0
301.786133 64.0
303.21579 56.0
306.653137 136.0
307.759003 48.0
311.717194 36.0
312.110901 112.0
314.037231 204.0
316.266785 84.0
321.694794 96.0
324.112518 72.0
324.202118 68.0
327.309448 68.0
329.444611 76.0
338.091309 68.0
340.86734 68.0
341.227539 140.0
342.243042 164.0
343.153137 44.0
345.875793 108.0
350.432526 84.0
356.889099 48.0
357.058319 88.0
362.115753 104.0
362.615845 76.0
375.323486 84.0
377.625153 108.0
382.230072 48.0
383.000946 92.0
384.240601 116.0
384.740662 132.0
389.474548 124.0
390.421753 104.0
391.606384 100.0
395.566833 104.0
401.522949 104.0
402.209198 92.0
403.207733 152.0
417.984192 80.0
421.65036 120.0
425.718475 112.0
426.556641 60.0
426.939026 68.0
437.877594 64.0
454.835571 108.0
465.002747 60.0
481.114502 48.0
481.236755 48.0
489.480225 84.0
495.549225 92.0
503.735168 72.0
505.989105 136.0
532.275574 48.0
570.623657 60.0
572.84613 92.0
577.734497 40.0
578.825806 28.0
582.759033 108.0
584.27832 36.0
586.483826 56.0
602.155945 40.0
652.159485 132.0
655.289124 152.0
655.997498 92.0
661.944702 100.0
724.873596 176.0
745.124146 104.0
746.738586 168.0
758.006653 104.0
760.644714 248.0
779.139343 60.0
799.571838 244.0
804.385315 44.0
813.539062 68.0
870.817017 204.0
873.715027 196.0
882.774902 120.0
882.893188 56.0
888.419495 180.0
895.385925 144.0
896.160339 132.0
911.923035 188.0
912.608337 64.0
957.61969 196.0
959.875305 112.0
975.471313 224.0
977.175293 208.0
996.564087 76.0
998.984619 136.0
999.789978 176.0
1006.996155 172.0
1007.918518 60.0
1021.674561 196.0
1030.187744 152.0
1030.404907 60.0
1034.190674 256.0
1035.067749 168.0
1040.106812 200.0
1040.318726 48.0
1041.577271 160.0
1042.155518 164.0
1043.601685 196.0
1047.785156 160.0
1051.757568 64.0
1061.488037 228.0
1063.940552 128.0
1066.110107 128.0
1068.450806 176.0
1069.537598 208.0
1071.048218 224.0
1071.921265 164.0
1082.438354 152.0
1088.766602 160.0
1090.113281 196.0
1092.204102 132.0
1096.062012 88.0
1099.39209 128.0
1099.603271 144.0
1111.070801 172.0
1114.676147 184.0
1124.445801 124.0
1127.310791 232.0
1128.85498 152.0
1129.196045 144.0
1134.593262 88.0
1141.313965 168.0
1146.504028 200.0
1148.533447 220.0
1152.361206 144.0
1154.287598 192.0
1155.105957 76.0
1160.808716 204.0
1162.395996 128.0
1162.599609 124.0
1167.626953 168.0
1168.518066 232.0
1168.626953 148.0
1169.07605 172.0
1171.213867 112.0
1175.161011 176.0
1175.747925 64.0
1180.447998 208.0
1188.133057 140.0
1188.544678 228.0
1190.329346 180.0
1192.520874 124.0
1193.682739 136.0
1194.081665 136.0
1196.923828 268.0
1199.63147 148.0
1200.617432 180.0
1201.127808 136.0
1205.864502 132.0
1208.589233 156.0
1209.142822 228.0
1218.858398 160.0
1226.332764 48.0
1230.797485 120.0
1230.87439 112.0
1241.209595 108.0
1244.725098 176.0
1245.799683 176.0
1246.24939 140.0
1246.93103 144.0
1247.507324 272.0
1249.174072 148.0
1250.546143 148.0
1253.264404 104.0
1255.5625 176.0
1257.523804 128.0
1257.912109 180.0
1258.293335 124.0
1262.327881 132.0
1263.388794 76.0
1264.273315 216.0
1264.697998 208.0
1265.873169 112.0
1266.312256 196.0
1272.566895 140.0
1274.08667 156.0
1277.933105 264.0
1279.441895 116.0
1279.632568 196.0
1279.819214 108.0
1283.495972 192.0
1284.943848 188.0
1285.614624 204.0
1286.713867 180.0
1290.000122 20.0
1290.321777 68.0
1292.610596 200.0
1292.846802 212.0
1293.276245 184.0
1294.779785 220.0
1297.395142 188.0
1298.069092 108.0
1299.4104 160.0
1301.082642 68.0
1302.87085 128.0
1303.862427 172.0
1305.077393 148.0
1306.429443 148.0
1309.114136 160.0
1309.553467 128.0
1312.241455 104.0
1313.027466 48.0
1313.654907 76.0
1317.206543 156.0
1318.066284 232.0
1318.232544 44.0
1319.258789 132.0
1320.480835 220.0
1321.442993 200.0
1321.609375 164.0
1322.557373 168.0
1322.767334 184.0
1323.940918 168.0
1327.687012 136.0
1328.296265 156.0
1328.368774 84.0
1330.001465 216.0
1330.335449 168.0
1330.836426 156.0
1331.715088 120.0
1332.44873 164.0
1333.771362 220.0
1337.430054 152.0
1341.851929 168.0
1342.442627 216.0
1349.788818 172.0
1350.000854 188.0
1353.476807 148.0
1354.73645 88.0
1355.000244 160.0
1355.403198 176.0
1355.601074 196.0
1356.971802 76.0
1359.38501 132.0
1361.476318 168.0
1362.351318 156.0
1364.578125 164.0
1364.93103 240.0
1367.771851 152.0
1368.860474 164.0
1369.449707 168.0
1371.615967 148.0
1373.820801 152.0
1373.96106 200.0
1377.105713 88.0
1378.87146 184.0
1379.263184 164.0
1379.314941 140.0
1379.474854 240.0
1380.283447 60.0
1380.364014 168.0
1380.42395 132.0
1381.67395 136.0
1383.605591 144.0
1384.020264 184.0
1386.012695 88.0
1387.546997 192.0
1389.082153 152.0
1392.585571 144.0
1392.949585 128.0
1393.670166 132.0
1395.409424 164.0
1395.870483 172.0
1398.429688 152.0
1398.60083 208.0
1398.853882 76.0
1400.924194 60.0
1401.922607 168.0
1402.481567 48.0
1403.174805 176.0
1404.062134 328.0
1404.830444 132.0
1411.552368 208.0
1411.716919 104.0
1412.292847 276.0
1414.649902 144.0
1417.173828 176.0
1417.248779 108.0
1417.68335 100.0
1418.627808 84.0
1418.680298 200.0
1419.002563 124.0
1420.029907 168.0
1422.438599 76.0
1423.159302 156.0
1423.226807 52.0
1423.39209 164.0
1423.985352 160.0
1424.165527 240.0
1425.262451 104.0
1427.103882 112.0
1429.932495 160.0
1430.798096 180.0
1432.251465 164.0
1432.665771 116.0
1435.424438 116.0
1435.982422 84.0
1436.171021 232.0
1436.895142 160.0
1437.114014 140.0
1437.393188 164.0
1439.204834 56.0
1440.639771 48.0
1441.463257 248.0
1442.128418 132.0
1442.226685 108.0
1442.566772 72.0
1442.808716 164.0
1445.138184 124.0
1445.758667 128.0
1446.780518 140.0
1446.90918 140.0
1448.620728 160.0
1448.71167 164.0
1449.984619 156.0
1451.01355 196.0
1451.660034 96.0
1452.130249 136.0
1453.548828 184.0
1453.647461 84.0
1454.095215 164.0
1455.013794 160.0
1456.000854 136.0
1456.525024 152.0
1458.173706 140.0
1459.230347 228.0
1459.473633 188.0
1459.57251 52.0
1461.542603 80.0
1461.679565 216.0
1463.049561 144.0
1464.123169 144.0
1465.974487 152.0
1467.941162 156.0
1469.726196 144.0
1473.154175 224.0
1475.339844 248.0
1475.806152 128.0
1477.374023 48.0
1478.422241 108.0
1479.325439 144.0
1482.27417 168.0
1485.617065 116.0
1485.732178 176.0
1488.50293 64.0
1489.40918 248.0
1490.108276 132.0
1491.36853 176.0
1493.43689 180.0
1495.421997 176.0
1495.768311 192.0
1497.516235 116.0
1498.895142 180.0
1499.889404 192.0
1500.444458 188.0
1501.269531 180.0
1501.54248 212.0
1502.326172 152.0
1502.387939 164.0
1502.449585 164.0
1502.603882 160.0
1502.758179 128.0
1502.912476 164.0
