>compound MLS000860041-01!2-Phenylaminoadenosine
>formula C16H18N6O4
>ionization [M+H]+
>parentmass 359.1462295080905
#inchi InChI=1S/C16H18N6O4/c17-13-10-14(21-16(20-13)19-8-4-2-1-3-5-8)22(7-18-10)15-12(25)11(24)9(6-23)26-15/h1-5,7,9,11-12,15,23-25H,6H2,(H3,17,19,20,21)/t9-,11-,12-,15-/m1/s1
#inchikey SCNILGOVBBRMBK
#Ion_Source LC-ESI
#Instrument qTof
#Compound_Source NIH Pharmacologically Active Library
#PI Dorrestein
#Data_Collector VP/LMS
#Scan -1
#Precursor_MZ 359.151
#ExactMass 358.139
#Charge 1
#CAS_Number N/A
#Pubmed_ID N/A
#Smiles Nc1nc(Nc2ccccc2)nc3n(cnc13)[C@@H]4O[C@H](CO)[C@@H](O)[C@H]4O
#INCHI_AUX N/A
#Library_Class 1
#SpectrumID CCMSLIB00000085643
#IonMode Positive
#UpdateWorkflowName UPDATE-SINGLE-ANNOTATED-GOLD
#LibraryQualityString Gold
#TaskID d252d724072548979f1f6f1ced849daf
##Scan# 1245
#SpectrumFile p4-D09_GD9_01_18369.mzXML
#LibraryName Pharm_Active_Library.mgf
#MQScore -1
#Organism Pharm_Active_Library
#TIC_Query 0
#RT_Query -1
#MZErrorPPM -1
#SharedPeaks 0
#MassDiff 0
#LibMZ -1
#SpecMZ 359.151
#SpecCharge 0
#internalFilename spec-00000.mgf

>collision 10
45.108749 164.0
45.120781 164.0
45.258591 188.0
45.475765 172.0
45.751331 96.0
45.85775 156.0
45.962936 140.0
46.478481 156.0
46.633301 136.0
47.201794 128.0
47.277031 128.0
47.304405 132.0
47.676109 192.0
47.751724 48.0
48.104469 220.0
48.154179 156.0
48.939083 112.0
48.983646 212.0
49.010117 116.0
49.202591 84.0
49.482208 192.0
49.507416 192.0
49.662983 192.0
49.914371 188.0
50.315933 168.0
50.341347 108.0
50.740368 176.0
50.768726 164.0
50.923424 160.0
51.096848 76.0
51.306202 176.0
51.483135 108.0
51.958355 168.0
52.391087 152.0
52.565548 104.0
52.659386 172.0
52.683945 168.0
52.786564 128.0
52.950092 120.0
53.096313 180.0
53.404381 152.0
53.55867 92.0
53.678177 88.0
53.732143 108.0
53.778843 112.0
54.116535 160.0
54.208817 156.0
54.314377 180.0
54.43766 176.0
54.456753 72.0
54.591961 64.0
55.039932 136.0
55.346016 132.0
55.547573 224.0
55.704926 144.0
55.780708 56.0
55.942856 156.0
56.233521 52.0
56.355976 152.0
56.396324 168.0
56.439678 132.0
56.465103 188.0
56.958225 120.0
57.084473 184.0
57.189785 240.0
57.430862 168.0
57.569714 144.0
57.642223 172.0
57.675472 164.0
58.252808 224.0
58.325748 132.0
58.339428 152.0
58.468719 188.0
58.639294 44.0
59.166382 212.0
59.337883 184.0
59.538898 164.0
60.051407 52.0
60.522747 76.0
60.693192 248.0
61.453793 36.0
61.553688 176.0
61.667732 56.0
61.85387 60.0
62.104576 148.0
62.360504 132.0
62.550831 124.0
62.706764 84.0
63.318195 140.0
63.525837 152.0
63.652809 200.0
63.886448 148.0
64.095016 232.0
64.161964 168.0
64.225746 148.0
64.484406 136.0
64.633133 132.0
64.910248 164.0
65.083549 168.0
65.125305 164.0
65.300491 116.0
66.013321 144.0
66.466888 196.0
66.726768 128.0
66.752785 160.0
67.192566 136.0
67.836456 160.0
68.283531 156.0
68.327942 76.0
68.421753 156.0
68.706863 224.0
68.913239 164.0
69.263962 184.0
69.335205 204.0
69.660416 224.0
69.682014 56.0
70.523567 132.0
70.602142 228.0
70.761887 152.0
71.096359 40.0
71.326454 112.0
71.49633 108.0
71.615868 188.0
72.056152 180.0
72.238739 152.0
72.347046 72.0
72.765793 236.0
72.78447 228.0
72.838821 112.0
73.01899 56.0
73.664993 116.0
73.774361 264.0
74.294975 240.0
74.35675 200.0
75.284691 176.0
75.422905 160.0
75.661636 176.0
75.91114 204.0
76.176689 92.0
76.491432 76.0
77.030266 128.0
77.353767 96.0
77.77446 216.0
77.804306 148.0
77.883324 176.0
78.356537 168.0
78.587502 124.0
78.71283 216.0
78.751678 84.0
79.124802 184.0
80.236977 180.0
80.365387 228.0
80.695816 160.0
80.724426 48.0
82.00808 216.0
82.13858 160.0
82.210068 132.0
82.260605 132.0
82.540649 68.0
82.774078 188.0
83.116669 144.0
83.216499 132.0
83.307304 184.0
83.78212 208.0
84.464851 196.0
84.495956 132.0
84.952126 52.0
85.45919 192.0
85.709602 132.0
85.788857 196.0
86.050827 156.0
86.505615 124.0
86.66674 196.0
86.750145 200.0
86.943039 104.0
87.16217 264.0
87.281136 200.0
87.348083 140.0
87.701874 132.0
87.899559 196.0
87.983551 200.0
88.151649 148.0
88.640053 168.0
89.391182 188.0
89.577576 128.0
89.615257 156.0
89.669907 100.0
90.100136 144.0
90.794823 124.0
90.846031 132.0
90.994064 192.0
91.328522 100.0
91.940102 116.0
92.026001 188.0
92.045097 100.0
92.364258 112.0
93.061844 128.0
93.259712 56.0
93.448166 224.0
93.505898 36.0
93.683044 216.0
93.933647 224.0
94.068726 176.0
94.296654 204.0
95.317078 160.0
95.395691 216.0
95.508476 176.0
95.777084 132.0
95.905685 160.0
96.362328 64.0
96.73391 136.0
97.025803 148.0
97.39669 128.0
97.461517 204.0
97.8293 192.0
98.03611 128.0
98.381287 92.0
98.428673 116.0
98.507668 176.0
98.988281 144.0
99.073448 152.0
99.333138 172.0
100.744537 164.0
100.99041 228.0
101.020416 208.0
101.178513 248.0
101.529167 156.0
101.978889 220.0
102.328918 196.0
102.367172 48.0
102.754173 156.0
102.790497 172.0
102.923721 132.0
103.593163 180.0
103.66407 132.0
103.692444 180.0
103.735008 108.0
103.775558 72.0
104.049454 1164.0
104.067734 52.0
104.455894 140.0
104.761246 188.0
105.052414 164.0
105.093567 108.0
105.22419 188.0
105.684059 96.0
105.839622 88.0
106.060883 140.0
106.146988 168.0
106.785675 92.0
106.931755 192.0
107.034897 636.0
107.3974 188.0
107.963303 208.0
108.42704 156.0
108.453979 152.0
108.66758 192.0
109.050591 1452.0
109.253662 164.0
109.555321 144.0
109.653252 152.0
110.052071 176.0
110.216698 116.0
110.243866 144.0
111.471878 184.0
112.210678 124.0
112.276047 164.0
112.708801 160.0
112.75106 180.0
113.131798 176.0
113.475006 92.0
113.519531 140.0
113.646805 120.0
113.769897 192.0
113.935547 136.0
114.30764 140.0
114.388512 168.0
114.473679 160.0
114.522659 152.0
115.196709 196.0
115.592247 180.0
115.647888 180.0
116.548599 120.0
117.042923 520.0
117.140236 80.0
117.996994 168.0
118.053215 212.0
118.661667 136.0
119.062576 420.0
119.576187 176.0
120.057663 80.0
120.072929 92.0
120.398109 116.0
120.454895 120.0
120.570702 180.0
120.732475 48.0
120.793716 28.0
121.170258 156.0
121.459633 204.0
122.056992 76.0
122.841057 132.0
123.116951 148.0
123.14566 44.0
123.225189 108.0
123.39537 40.0
124.301292 108.0
124.426636 184.0
124.647697 124.0
124.952309 148.0
125.32859 84.0
125.41996 120.0
125.703201 152.0
126.586182 88.0
126.814697 156.0
129.044067 284.0
129.063675 148.0
129.262726 212.0
130.571701 200.0
130.630844 272.0
131.070251 240.0
131.172806 112.0
131.245758 104.0
131.578873 192.0
131.967285 172.0
132.025742 412.0
132.058746 80.0
132.397476 220.0
132.42038 152.0
132.709122 44.0
132.927032 192.0
132.984406 112.0
133.005066 84.0
133.301331 160.0
133.641647 152.0
133.881042 128.0
133.982391 148.0
134.012344 48.0
134.046127 264.0
134.295883 124.0
134.312027 188.0
134.390472 208.0
134.58667 196.0
134.89856 80.0
135.053482 124.0
135.264053 132.0
135.328873 168.0
135.646255 164.0
135.868881 60.0
135.931534 160.0
136.196198 128.0
136.340256 104.0
136.36116 144.0
136.5681 140.0
136.959137 100.0
137.227127 132.0
137.500046 148.0
137.906448 92.0
137.964874 192.0
138.156647 172.0
138.617905 124.0
139.115128 100.0
140.458786 212.0
140.480026 144.0
140.638123 120.0
140.968765 156.0
141.051483 220.0
141.138947 148.0
141.61937 152.0
141.692795 72.0
141.901367 128.0
142.046021 164.0
142.09584 56.0
142.380692 60.0
142.611145 156.0
142.677704 252.0
142.932205 48.0
143.055969 188.0
143.136917 148.0
144.051529 196.0
144.069473 84.0
144.463928 140.0
144.887665 140.0
144.952347 148.0
145.242447 232.0
145.537628 84.0
145.960526 156.0
146.119278 172.0
146.81781 220.0
146.926437 132.0
148.690353 168.0
149.040039 40.0
149.127533 64.0
149.872192 160.0
150.281219 208.0
150.435577 152.0
150.81665 80.0
151.283859 136.0
151.67334 148.0
151.741989 188.0
151.88913 100.0
152.842361 104.0
153.031769 176.0
153.803497 144.0
153.931885 152.0
154.056656 184.0
154.21846 64.0
154.58696 152.0
154.658737 124.0
154.80481 148.0
155.3228 168.0
156.010651 168.0
156.05484 156.0
156.401199 96.0
156.512283 180.0
156.5979 104.0
156.862015 200.0
156.939301 172.0
156.981705 84.0
157.054016 220.0
158.0681 168.0
158.626846 120.0
158.644394 120.0
158.99556 216.0
159.472748 156.0
159.653763 144.0
159.890244 172.0
160.325928 132.0
160.699127 160.0
161.105606 188.0
161.125809 68.0
161.866898 172.0
162.183578 188.0
162.79248 88.0
163.01857 204.0
163.059235 172.0
163.127853 104.0
163.613754 184.0
164.003494 40.0
164.16922 164.0
164.53154 140.0
164.884048 96.0
165.072311 196.0
165.5159 140.0
165.743881 160.0
166.064331 200.0
166.775543 152.0
166.803818 152.0
166.850098 152.0
167.073837 164.0
167.449661 188.0
167.498596 208.0
167.624832 240.0
167.944519 128.0
167.970306 76.0
168.056931 164.0
168.156082 132.0
168.207718 108.0
168.308395 68.0
168.442688 200.0
168.814865 240.0
169.054672 200.0
169.081329 180.0
169.192642 144.0
169.650757 96.0
169.843079 116.0
170.068817 180.0
170.603928 56.0
170.944641 164.0
171.530655 104.0
172.073288 196.0
172.284821 108.0
172.415466 236.0
172.61676 120.0
172.710907 164.0
172.831253 144.0
172.998749 132.0
173.339249 156.0
173.398666 100.0
173.446701 208.0
173.85701 208.0
174.339066 128.0
174.491516 176.0
175.481461 64.0
175.755768 216.0
176.897507 156.0
177.072266 168.0
177.090805 148.0
177.392868 168.0
178.13855 72.0
178.73143 156.0
179.050873 180.0
179.181396 176.0
179.490585 100.0
179.71463 108.0
179.778671 152.0
179.856079 184.0
180.077682 208.0
180.312805 80.0
180.65506 164.0
180.986923 216.0
181.327148 236.0
181.56575 168.0
181.605988 144.0
181.777679 48.0
182.051498 148.0
182.099838 232.0
182.218033 100.0
182.452789 264.0
182.95224 136.0
183.066559 368.0
183.375137 52.0
183.434433 172.0
183.463211 184.0
183.628571 128.0
183.798538 140.0
184.077087 124.0
184.57106 152.0
184.882156 136.0
184.917328 108.0
184.966049 164.0
184.985001 160.0
185.079636 808.0
185.415665 68.0
186.087326 288.0
186.571991 172.0
187.031723 168.0
187.058945 204.0
187.396637 116.0
188.373322 148.0
188.460739 84.0
188.868073 84.0
189.070541 72.0
189.601837 188.0
189.856796 108.0
189.950058 148.0
189.977493 104.0
190.048813 200.0
190.251907 96.0
190.402939 176.0
190.490829 144.0
190.61171 144.0
191.740005 152.0
191.764816 156.0
191.861298 76.0
192.302643 136.0
192.468277 208.0
192.855042 172.0
192.937973 132.0
193.055573 148.0
193.299072 152.0
193.350113 64.0
193.801498 132.0
194.037079 136.0
194.411545 148.0
194.547546 208.0
194.783585 48.0
194.903046 72.0
194.922501 248.0
194.953064 212.0
195.150421 168.0
195.420212 180.0
195.48143 196.0
195.578842 136.0
195.98822 188.0
196.085754 184.0
196.191681 48.0
196.303207 124.0
196.987 164.0
197.090378 252.0
197.17981 148.0
197.425827 148.0
197.63562 252.0
197.893127 136.0
198.344162 192.0
198.781677 112.0
199.289917 160.0
200.004227 208.0
200.084167 212.0
200.638046 156.0
200.728271 208.0
200.880569 196.0
200.996246 128.0
201.309586 292.0
201.671204 148.0
202.596527 108.0
202.624847 260.0
202.715515 120.0
203.0784 36.0
203.506912 216.0
204.194611 44.0
204.251495 88.0
204.36528 156.0
204.385208 168.0
204.769516 124.0
205.11998 140.0
205.182693 184.0
206.050308 220.0
206.4133 200.0
206.436188 136.0
206.805237 204.0
207.289246 168.0
207.452606 200.0
207.725037 192.0
208.632492 140.0
208.707245 32.0
208.738876 128.0
208.773392 252.0
209.01503 44.0
209.308624 176.0
209.412308 92.0
209.491547 180.0
209.546921 104.0
209.6716 140.0
209.714828 96.0
209.848953 160.0
209.905823 176.0
209.942596 188.0
209.965668 116.0
210.008728 172.0
210.014114 160.0
210.037384 300.0
210.07663 35980.0
210.163208 100.0
210.183136 260.0
210.234116 156.0
210.287262 128.0
210.317657 48.0
210.357849 52.0
210.404266 140.0
210.468018 48.0
210.527344 32.0
210.615509 52.0
210.669952 92.0
210.698837 48.0
210.752655 128.0
210.80864 88.0
210.842422 168.0
210.927139 124.0
210.950256 36.0
210.983704 184.0
211.07872 5824.0
211.176468 240.0
211.256256 64.0
211.319473 48.0
211.363846 56.0
211.410141 48.0
211.482498 40.0
211.676468 44.0
211.725693 44.0
211.769135 140.0
211.858932 92.0
211.977737 124.0
212.079742 484.0
212.128448 44.0
212.232819 92.0
212.29512 88.0
212.395218 108.0
212.415527 76.0
212.44133 116.0
212.482254 88.0
212.547211 196.0
212.604553 80.0
212.634399 148.0
212.662155 108.0
212.766968 152.0
212.871185 52.0
213.091949 172.0
213.283737 68.0
213.318619 128.0
213.356415 212.0
213.597778 96.0
213.639847 104.0
213.909134 192.0
213.97319 72.0
213.99939 196.0
214.054718 152.0
214.267334 120.0
214.550034 100.0
214.80957 192.0
215.435349 120.0
215.551147 116.0
215.691437 152.0
215.989685 36.0
216.320358 128.0
216.750885 104.0
216.871033 40.0
217.093857 116.0
217.170105 244.0
217.478195 188.0
217.739502 144.0
218.050919 52.0
218.668549 132.0
218.730362 132.0
218.753906 144.0
219.225159 48.0
219.446228 156.0
219.478668 224.0
219.897568 208.0
220.113083 180.0
220.523712 168.0
221.778687 160.0
221.888367 208.0
222.024765 172.0
222.552963 80.0
223.078827 128.0
223.828583 152.0
224.063873 112.0
224.09584 176.0
224.659683 108.0
224.667908 92.0
224.845123 204.0
224.988403 180.0
225.084686 272.0
226.019531 172.0
226.136246 216.0
226.22905 132.0
226.360779 192.0
226.42067 112.0
226.450623 136.0
226.531494 240.0
226.612381 64.0
226.681442 172.0
226.705276 108.0
226.726257 204.0
226.798187 116.0
226.819168 208.0
226.873123 148.0
226.923828 92.0
226.97438 168.0
226.994263 184.0
227.056946 124.0
227.064636 272.0
227.103546 51292.0
227.181808 120.0
227.211823 188.0
227.245316 40.0
227.267456 100.0
227.316925 128.0
227.350037 68.0
227.396301 76.0
227.409882 64.0
227.41481 108.0
227.438431 156.0
227.472305 60.0
227.502258 148.0
227.561081 52.0
227.6008 32.0
227.667114 168.0
227.699799 36.0
227.758362 84.0
227.801956 140.0
227.832001 88.0
227.897659 76.0
227.932617 52.0
227.982132 152.0
228.055832 52.0
228.106079 6308.0
228.145172 116.0
228.188095 168.0
228.211197 76.0
228.268158 88.0
228.335205 100.0
228.561066 48.0
228.731491 76.0
228.83168 44.0
229.051788 88.0
229.105865 1388.0
229.195923 76.0
229.226532 108.0
229.295853 44.0
229.322968 116.0
229.351456 80.0
229.514725 124.0
229.567169 100.0
229.615433 48.0
229.660675 108.0
229.686661 64.0
229.73909 144.0
229.767212 128.0
229.838654 96.0
229.865814 60.0
229.899017 100.0
230.012817 136.0
230.120056 140.0
230.167679 64.0
230.212967 48.0
230.315659 140.0
230.354919 72.0
230.578522 80.0
230.602692 64.0
230.623856 72.0
230.711517 84.0
230.738724 48.0
230.911087 96.0
230.932251 96.0
231.307465 96.0
231.679932 136.0
232.040573 72.0
232.389374 76.0
232.474335 52.0
232.808258 52.0
233.136353 56.0
233.227539 52.0
233.285294 68.0
234.170746 68.0
234.844345 96.0
236.705505 40.0
237.74472 60.0
238.503326 96.0
239.103836 164.0
239.284698 64.0
240.718475 68.0
241.120087 284.0
244.886627 64.0
245.238708 76.0
245.993576 60.0
246.056015 68.0
249.288498 68.0
251.748825 156.0
252.084961 188.0
253.770798 60.0
266.312775 80.0
268.115234 92.0
269.111877 256.0
270.114868 196.0
271.639923 72.0
273.881714 52.0
273.987122 132.0
278.535767 76.0
279.895996 96.0
280.065857 184.0
280.255737 108.0
293.114685 136.0
299.111664 164.0
300.479767 96.0
304.971191 44.0
305.371033 100.0
306.788239 148.0
310.452576 108.0
311.119232 112.0
314.805725 56.0
314.883423 36.0
317.988434 100.0
318.158813 76.0
342.25296 168.0
351.270142 32.0
358.050659 76.0
359.144073 792.0
360.151459 164.0
362.269775 48.0
364.409485 68.0
366.136475 112.0
369.709808 88.0
373.388947 56.0
400.254089 136.0
411.775818 136.0
414.802399 112.0
416.811371 56.0
421.562775 104.0
425.031158 88.0
443.289948 68.0
465.086487 28.0
475.896484 56.0
476.969513 80.0
477.252106 128.0
481.575134 80.0
482.191162 88.0
490.235596 56.0
505.668854 64.0
507.115509 36.0
516.309143 52.0
528.258057 104.0
537.271362 56.0
541.737122 140.0
550.005066 72.0
554.992126 60.0
577.487549 92.0
592.40979 92.0
594.266663 64.0
609.279907 48.0
620.428528 92.0
672.103455 48.0
712.75116 56.0
723.27887 76.0
781.275269 88.0
803.759888 84.0
818.275757 100.0
884.124451 104.0
974.701111 72.0
993.456787 208.0
1016.606934 40.0
1037.098877 52.0
1103.983643 164.0
1130.634521 120.0
1139.26416 60.0
1142.033569 52.0
1186.768066 64.0
1189.265259 228.0
1192.768311 60.0
1196.868652 44.0
1229.205811 64.0
1241.791504 112.0
1249.068359 144.0
1253.362915 60.0
1255.089844 204.0
1255.943115 132.0
1257.227295 148.0
1262.518555 184.0
1266.559937 60.0
1275.052856 232.0
1283.481445 100.0
1290.521729 64.0
1338.878662 80.0
1341.837036 144.0
1358.320801 200.0
1362.211304 192.0
1378.745483 120.0
1387.998901 160.0
1402.019043 148.0
1404.442139 44.0
1416.454224 176.0
1434.39856 204.0
1436.238403 144.0
1436.321411 128.0
1442.445435 160.0
1446.999634 164.0
1450.226685 108.0
1454.86145 136.0
1462.721802 136.0
1467.376465 136.0
1472.527344 68.0
1475.958618 184.0
1482.39624 116.0
1491.875366 136.0
1498.463135 112.0
1502.688232 52.0
