>compound MLS000028463-01!CIS-THIOTHIXENE
>formula C23H29N3O2S2
>ionization [M+H]+
>parentmass 444.177063
#inchi InChI=1S/C23H29N3O2S2/c1-24(2)30(27,28)18-10-11-23-21(17-18)19(20-7-4-5-9-22(20)29-23)8-6-12-26-15-13-25(3)14-16-26/h4-5,7-11,17H,6,12-16H2,1-3H3/b19-8-
#inchikey GFBKORZTTCHDGY
#Ion_Source LC-ESI
#Instrument qTof
#Compound_Source NIH Pharmacologically Active Library
#PI Dorrestein
#Data_Collector VP/LMS
#Scan -1
#Precursor_MZ 444.182
#ExactMass 443.17
#Charge 1
#CAS_Number N/A
#Pubmed_ID N/A
#Smiles CN(C)S(=O)(=O)c1ccc2Sc3ccccc3/C(=C/CCN4CCN(C)CC4)/c2c1
#INCHI_AUX N/A
#Library_Class 1
#SpectrumID CCMSLIB00000085866
#IonMode Positive
#UpdateWorkflowName UPDATE-SINGLE-ANNOTATED-GOLD
#LibraryQualityString Gold
#TaskID d252d724072548979f1f6f1ced849daf
##Scan# 1718
#SpectrumFile p4-G05_GG5_01_18401.mzXML
#LibraryName Pharm_Active_Library.mgf
#MQScore -1
#Organism Pharm_Active_Library
#TIC_Query 0
#RT_Query -1
#MZErrorPPM -1
#SharedPeaks 0
#MassDiff 0
#LibMZ -1
#SpecMZ 444.182
#SpecCharge 0
#internalFilename spec-00000.mgf

>collision 10
44.891674 136.0
44.931721 220.0
44.944 124.0
45.037155 196.0
45.059864 72.0
45.074562 172.0
45.237549 112.0
45.259163 252.0
45.315418 200.0
45.390484 164.0
45.418648 160.0
45.468292 188.0
45.555573 180.0
45.590511 64.0
45.632183 108.0
45.645626 176.0
45.720966 156.0
45.758286 188.0
45.786339 172.0
45.815674 264.0
45.851604 52.0
45.870476 112.0
45.885307 140.0
45.898788 132.0
45.923065 144.0
45.937904 164.0
45.968937 248.0
45.983784 188.0
46.013161 168.0
46.048592 152.0
46.059399 240.0
46.081013 200.0
46.091824 156.0
46.101284 164.0
46.159859 252.0
46.21014 184.0
46.309498 192.0
46.334023 380.0
46.350285 72.0
46.361126 172.0
46.381454 152.0
46.407894 264.0
46.462826 108.0
46.507607 152.0
46.517109 116.0
46.526611 124.0
46.595879 152.0
46.625774 164.0
46.65432 184.0
46.682873 220.0
46.700554 76.0
46.718929 236.0
46.754978 112.0
46.778984 140.0
46.790371 396.0
46.848068 132.0
46.859833 152.0
46.892765 172.0
46.94162 56.0
46.959091 196.0
46.987499 220.0
47.013924 52.0
47.038494 128.0
47.094479 148.0
47.166901 252.0
47.226097 164.0
47.277004 200.0
47.311497 212.0
47.374908 48.0
47.440689 156.0
47.462627 64.0
47.477715 112.0
47.494171 120.0
47.507889 180.0
47.531216 116.0
47.555401 148.0
47.572266 132.0
47.607407 96.0
47.750557 188.0
47.78817 124.0
47.818108 180.0
47.859745 220.0
47.895554 148.0
47.918976 96.0
47.934002 168.0
47.958939 244.0
47.97686 248.0
47.987041 180.0
48.01823 188.0
48.027885 132.0
48.059616 196.0
48.072033 140.0
48.118965 28.0
48.152111 36.0
48.161777 156.0
48.20089 156.0
48.239162 176.0
48.250221 64.0
48.26326 160.0
48.29171 88.0
48.306927 112.0
48.327679 188.0
48.41489 168.0
48.428741 68.0
48.474461 168.0
48.488319 128.0
48.541 108.0
48.606201 208.0
48.625629 96.0
48.640896 164.0
48.660336 108.0
48.732559 148.0
48.756184 164.0
48.923103 48.0
48.950993 276.0
48.971302 124.0
48.987137 192.0
49.02618 128.0
49.040115 80.0
49.049873 164.0
49.090309 140.0
49.148422 164.0
49.183788 112.0
49.228466 56.0
49.247799 248.0
49.267578 136.0
49.322079 140.0
49.33606 96.0
49.369617 124.0
49.386402 140.0
49.433971 68.0
49.475964 92.0
49.499763 192.0
49.523575 212.0
49.554394 40.0
49.586624 192.0
49.635693 152.0
49.703026 108.0
49.726883 96.0
49.759079 120.0
49.899673 128.0
49.979851 168.0
50.022072 156.0
50.040375 120.0
50.079807 204.0
50.091076 108.0
50.118462 164.0
50.131935 192.0
50.195374 140.0
50.210888 104.0
50.250385 64.0
50.264496 104.0
50.293552 204.0
50.322807 180.0
50.356262 96.0
50.377449 176.0
50.400055 120.0
50.419842 60.0
50.438217 216.0
50.448112 200.0
50.483459 152.0
50.523067 124.0
50.561272 148.0
50.616486 112.0
50.634895 204.0
50.645535 156.0
50.658974 144.0
50.670307 196.0
50.685894 208.0
50.724163 168.0
50.75819 156.0
50.79081 168.0
50.803577 168.0
50.834793 144.0
50.848988 160.0
50.863182 184.0
50.907196 228.0
50.934772 192.0
51.052151 220.0
51.084866 208.0
51.096249 124.0
51.114746 192.0
51.203011 84.0
51.226742 176.0
51.247173 120.0
51.275673 108.0
51.290684 204.0
51.302757 156.0
51.332661 140.0
51.368359 180.0
51.380215 220.0
51.401176 224.0
51.448277 216.0
51.459698 212.0
51.523266 176.0
51.546833 100.0
51.581135 120.0
51.594002 152.0
51.615448 132.0
51.648342 196.0
51.661217 136.0
51.701283 88.0
51.722752 188.0
51.74902 184.0
51.808678 172.0
51.844498 52.0
51.891804 128.0
51.907578 156.0
51.931957 92.0
51.952042 72.0
52.000832 152.0
52.016621 160.0
52.087223 96.0
52.10997 188.0
52.122902 200.0
52.151646 56.0
52.2071 196.0
52.233608 192.0
52.296925 176.0
52.314865 380.0
52.335796 92.0
52.376122 168.0
52.394848 60.0
52.419342 88.0
52.436638 140.0
52.453194 132.0
52.471233 184.0
52.514496 140.0
52.562996 180.0
52.57798 84.0
52.591919 244.0
52.632839 144.0
52.665325 152.0
52.683949 176.0
52.693779 272.0
52.833748 160.0
52.880054 48.0
52.900318 52.0
52.965485 172.0
52.993011 152.0
53.01656 136.0
53.028114 160.0
53.043255 400.0
53.106087 216.0
53.120594 176.0
53.135101 136.0
53.164124 88.0
53.196056 188.0
53.252686 160.0
53.277382 228.0
53.410713 156.0
53.468399 232.0
53.585823 84.0
53.617882 192.0
53.632458 36.0
53.752666 124.0
53.770271 240.0
53.817741 132.0
53.887852 76.0
53.953621 72.0
53.97263 140.0
54.085281 180.0
54.097958 188.0
54.123348 148.0
54.140923 128.0
54.176075 144.0
54.215637 156.0
54.227364 120.0
54.271385 140.0
54.296444 172.0
54.349087 128.0
54.365227 172.0
54.387245 168.0
54.401947 244.0
54.451851 156.0
54.473885 152.0
54.492981 160.0
54.529667 380.0
54.573822 180.0
54.616474 148.0
54.70771 156.0
54.71949 176.0
54.768089 136.0
54.796078 188.0
54.816708 152.0
54.902214 152.0
54.925812 148.0
54.947147 112.0
54.958271 192.0
54.977455 220.0
55.071945 196.0
55.15765 252.0
55.191654 84.0
55.218273 140.0
55.230106 132.0
55.274494 168.0
55.280853 148.0
55.285297 212.0
55.298172 132.0
55.348507 124.0
55.381088 176.0
55.408108 268.0
55.471481 132.0
55.564915 144.0
55.612968 136.0
55.631699 144.0
55.708672 188.0
55.756474 132.0
55.793636 88.0
55.862045 184.0
55.902218 196.0
55.929008 84.0
55.960274 152.0
55.976654 132.0
55.991547 108.0
56.006439 288.0
56.069019 224.0
56.106285 144.0
56.130142 56.0
56.23494 164.0
56.251476 136.0
56.261444 176.0
56.273388 148.0
56.319683 208.0
56.430275 116.0
56.482658 152.0
56.527504 84.0
56.610249 160.0
56.643463 232.0
56.686241 292.0
56.746201 144.0
56.760345 92.0
56.774693 200.0
56.801689 128.0
56.815193 144.0
56.911251 148.0
56.962315 116.0
56.997692 160.0
57.007389 268.0
57.063007 84.0
57.126175 152.0
57.144226 152.0
57.155113 136.0
57.245083 108.0
57.267673 128.0
57.287254 120.0
57.302322 136.0
57.318897 184.0
57.370144 112.0
57.383713 152.0
57.415379 112.0
57.425938 32.0
57.439453 196.0
57.487797 136.0
57.546104 128.0
57.569317 156.0
57.605568 160.0
57.629742 104.0
57.660179 168.0
57.706829 120.0
57.717411 200.0
57.735558 184.0
57.7854 152.0
57.929306 156.0
58.058147 64.0
58.109722 204.0
58.123379 72.0
58.179539 188.0
58.205349 208.0
58.261547 164.0
58.287376 204.0
58.322334 148.0
58.426464 160.0
58.454655 136.0
58.471321 172.0
58.514015 128.0
58.539902 120.0
58.615929 212.0
58.638931 56.0
58.655701 136.0
58.707539 128.0
58.75898 164.0
58.794193 60.0
58.835716 160.0
58.858616 108.0
58.884579 180.0
58.907494 152.0
58.94569 116.0
58.956387 152.0
58.974728 152.0
59.000717 192.0
59.046227 184.0
59.067116 128.0
59.153702 148.0
59.181049 196.0
59.196571 156.0
59.26857 108.0
59.343678 104.0
59.417297 180.0
59.457195 220.0
59.475616 120.0
59.509388 228.0
59.546246 108.0
59.569286 152.0
59.612309 44.0
59.639973 148.0
59.653809 96.0
59.666107 112.0
59.683022 156.0
59.693787 176.0
59.725597 152.0
59.743004 256.0
59.810715 112.0
59.850876 188.0
59.880005 172.0
59.943172 108.0
59.955498 124.0
59.973995 184.0
59.991135 168.0
60.048004 140.0
60.189369 120.0
60.29504 164.0
60.307484 152.0
60.36306 136.0
60.384712 124.0
60.418747 176.0
60.496128 144.0
60.564262 128.0
60.627789 180.0
60.664989 108.0
60.675842 104.0
60.736202 204.0
60.745308 116.0
60.776661 160.0
60.823559 128.0
60.92416 124.0
60.950573 212.0
60.966114 120.0
60.976994 168.0
60.992538 168.0
61.005672 196.0
61.02985 168.0
61.04229 172.0
61.118511 216.0
61.155865 216.0
61.180771 172.0
61.191669 152.0
61.228149 216.0
61.26487 100.0
61.364616 116.0
61.523758 68.0
61.534687 160.0
61.583099 116.0
61.639339 116.0
61.681213 172.0
61.708118 64.0
61.755032 132.0
61.866875 144.0
61.892754 176.0
61.942871 112.0
61.966373 144.0
61.98204 164.0
62.021225 136.0
62.033764 56.0
62.069237 140.0
62.090214 176.0
62.121929 164.0
62.149391 116.0
62.196907 184.0
62.234589 120.0
62.281704 52.0
62.297413 124.0
62.350838 120.0
62.410576 228.0
62.453037 28.0
62.477703 188.0
62.512341 52.0
62.543041 160.0
62.640358 208.0
62.68605 152.0
62.742794 112.0
62.790104 48.0
62.803509 152.0
62.82954 128.0
62.868713 184.0
62.881615 196.0
62.936146 236.0
62.960556 200.0
62.990566 136.0
63.001625 124.0
63.074318 100.0
63.088547 184.0
63.123329 120.0
63.162872 208.0
63.254654 108.0
63.265736 108.0
63.308487 120.0
63.336998 96.0
63.365513 88.0
63.390865 176.0
63.404308 108.0
63.432076 72.0
63.497116 212.0
63.574825 112.0
63.631973 112.0
63.654202 152.0
63.692711 212.0
63.735218 128.0
63.760086 364.0
63.873535 300.0
63.918083 148.0
63.945141 112.0
64.051826 144.0
64.078903 96.0
64.096436 152.0
64.112236 192.0
64.216003 156.0
64.248306 160.0
64.272293 168.0
64.342072 104.0
64.447487 196.0
64.458672 260.0
64.477852 276.0
64.514618 72.0
64.532204 52.0
64.548195 116.0
64.574219 320.0
64.618576 172.0
64.668182 232.0
64.683746 260.0
64.695396 184.0
64.713005 176.0
64.738129 264.0
64.769058 40.0
64.817123 168.0
64.85527 140.0
64.876724 208.0
64.903572 112.0
64.906952 104.0
64.92218 244.0
64.963028 136.0
65.027214 136.0
65.084763 184.0
65.158897 148.0
65.227997 144.0
65.262566 144.0
65.304031 140.0
65.321266 220.0
65.355057 184.0
65.388847 168.0
65.401619 176.0
65.416046 88.0
65.433968 148.0
65.498276 96.0
65.55957 92.0
65.586967 164.0
65.602348 148.0
65.614372 204.0
65.625664 104.0
65.665977 88.0
65.677269 152.0
65.715988 160.0
65.727409 160.0
65.741806 152.0
65.769241 52.0
65.827026 152.0
65.864517 228.0
65.917831 160.0
65.942268 168.0
66.000275 112.0
66.014824 168.0
66.040672 192.0
66.197304 216.0
66.212273 160.0
66.303001 152.0
66.314438 208.0
66.333801 168.0
66.361359 164.0
66.385681 104.0
66.401901 156.0
66.478149 136.0
66.497627 336.0
66.548492 120.0
66.643784 148.0
66.668159 44.0
66.722855 296.0
66.744568 100.0
66.795151 164.0
66.817917 164.0
66.865891 264.0
66.894249 148.0
67.003365 256.0
67.016403 108.0
67.031067 108.0
67.047363 72.0
67.120728 136.0
67.156151 116.0
67.178658 96.0
67.19902 156.0
67.213707 136.0
67.239815 220.0
67.287498 356.0
67.350113 156.0
67.375351 104.0
67.406395 124.0
67.427643 252.0
67.452156 152.0
67.537193 200.0
67.555183 148.0
67.633736 160.0
67.698059 152.0
67.720512 92.0
67.73362 164.0
67.790215 200.0
67.815552 160.0
67.83358 112.0
67.868011 68.0
67.906372 184.0
67.936897 100.0
68.038651 148.0
68.051788 116.0
68.102692 132.0
68.120689 92.0
68.142746 220.0
68.221008 120.0
68.235809 144.0
68.250603 144.0
68.293617 184.0
68.360817 120.0
68.416786 192.0
68.438187 132.0
68.458405 160.0
68.48101 68.0
68.505714 48.0
68.522194 120.0
68.553497 160.0
68.598 124.0
68.629326 172.0
68.720047 88.0
68.743149 100.0
68.766258 80.0
68.795967 120.0
68.820732 196.0
68.867905 156.0
68.895699 124.0
68.957848 224.0
68.978012 164.0
69.005791 116.0
69.030594 244.0
69.060837 160.0
69.083679 200.0
69.100067 76.0
69.129738 116.0
69.192757 80.0
69.206001 184.0
69.21759 112.0
69.229179 148.0
69.2855 68.0
69.302948 204.0
69.323608 180.0
69.336868 112.0
69.366707 144.0
69.383286 104.0
69.414024 356.0
69.467224 52.0
69.496902 112.0
69.530922 104.0
69.559792 112.0
69.725235 120.0
69.768456 212.0
69.806229 156.0
69.854935 136.0
69.914833 176.0
70.011398 160.0
70.028053 164.0
70.056526 180.0
70.096069 160.0
70.151855 204.0
70.174706 72.0
70.201385 52.0
70.244751 120.0
70.281456 256.0
70.329857 212.0
70.366585 128.0
70.391624 184.0
70.491859 180.0
70.540329 208.0
70.555374 92.0
70.645477 160.0
70.677475 72.0
70.714638 136.0
70.75782 196.0
70.787956 132.0
70.804703 160.0
70.845276 184.0
70.856636 140.0
70.874306 168.0
70.9002 196.0
70.933723 196.0
70.955521 148.0
70.99073 168.0
71.044411 140.0
71.119926 212.0
71.173645 156.0
71.198837 112.0
71.212273 188.0
71.241135 144.0
71.288918 168.0
71.308044 132.0
71.378654 156.0
71.397156 116.0
71.43248 100.0
71.444252 92.0
71.467812 132.0
71.522339 192.0
71.543549 136.0
71.601242 152.0
71.615677 168.0
71.644592 128.0
71.66481 108.0
71.735603 160.0
71.769318 180.0
71.791245 220.0
71.904282 136.0
72.020782 176.0
72.088364 144.0
72.157669 212.0
72.188103 40.0
72.211044 192.0
72.265915 120.0
72.279457 80.0
72.33461 144.0
72.344498 140.0
72.365784 104.0
72.458939 392.0
72.538589 120.0
72.557236 176.0
72.574196 96.0
72.644012 192.0
72.693153 168.0
72.740463 100.0
72.776115 164.0
72.80838 108.0
72.832161 144.0
72.851471 140.0
72.891624 140.0
72.927315 148.0
72.949409 104.0
72.974915 136.0
73.00042 240.0
73.04464 152.0
73.078667 96.0
73.106438 176.0
73.158661 120.0
73.185905 44.0
73.206978 172.0
73.218262 152.0
73.315369 88.0
73.354568 60.0
73.378441 164.0
73.438126 136.0
73.454575 200.0
73.491013 120.0
73.513199 48.0
73.656616 132.0
73.677116 172.0
73.702744 136.0
73.72496 116.0
73.762566 116.0
73.807678 204.0
73.837799 164.0
73.8703 88.0
73.933609 108.0
73.955856 168.0
73.971268 180.0
73.990097 140.0
74.01236 124.0
74.068878 108.0
74.086967 200.0
74.106567 196.0
74.137291 116.0
74.164833 140.0
74.359413 196.0
74.415306 156.0
74.446693 172.0
74.478844 152.0
74.599136 32.0
74.611168 156.0
74.63385 252.0
74.659317 156.0
74.702011 180.0
74.805573 204.0
74.833122 36.0
74.848618 128.0
74.879616 96.0
74.903671 112.0
74.976379 196.0
75.015045 252.0
75.278008 208.0
75.295273 156.0
75.35228 144.0
75.444771 156.0
75.504402 156.0
75.519096 172.0
75.585709 160.0
75.628983 96.0
75.671349 128.0
75.73307 212.0
75.757126 164.0
75.779648 184.0
75.818634 120.0
75.854172 180.0
75.874969 176.0
75.932198 184.0
75.956482 44.0
76.00795 152.0
76.055389 112.0
76.112686 148.0
76.135262 96.0
76.163048 92.0
76.19606 144.0
76.255142 120.0
76.28643 112.0
76.372475 192.0
76.420349 124.0
76.433968 184.0
76.477776 152.0
76.543007 164.0
76.557869 160.0
76.574432 196.0
76.610863 208.0
76.629288 140.0
76.655983 176.0
76.683846 172.0
76.755714 128.0
76.794899 160.0
76.812347 116.0
76.859451 120.0
76.880394 140.0
76.89959 56.0
76.953712 164.0
76.997368 144.0
77.089279 328.0
77.110931 156.0
77.140648 148.0
77.175613 140.0
77.207092 220.0
77.255173 172.0
77.270554 216.0
77.326065 60.0
77.350571 132.0
77.450386 80.0
77.467072 144.0
77.481918 132.0
77.50119 164.0
77.541496 184.0
77.554878 304.0
77.580063 88.0
77.63266 232.0
77.697563 164.0
77.744942 140.0
77.837982 144.0
77.885406 116.0
77.902969 32.0
77.934593 152.0
78.042213 176.0
78.078751 160.0
78.094574 148.0
78.113503 236.0
78.138557 116.0
78.166031 156.0
78.309311 160.0
78.343597 164.0
78.373222 168.0
78.503952 104.0
78.579033 152.0
78.64962 148.0
78.672569 160.0
78.700821 120.0
78.815636 80.0
78.89164 128.0
78.909317 144.0
78.981827 156.0
79.043747 104.0
79.091537 164.0
79.144646 192.0
79.263329 132.0
79.366142 108.0
79.396286 148.0
79.43354 144.0
79.532463 256.0
79.578293 164.0
79.63945 224.0
79.653656 136.0
79.66787 84.0
79.680618 160.0
79.714066 176.0
79.767387 136.0
79.779831 204.0
79.806503 140.0
79.82962 144.0
79.87764 128.0
79.920341 112.0
79.955933 204.0
80.036041 108.0
80.056282 152.0
80.125099 124.0
80.174995 96.0
80.19104 148.0
80.217773 88.0
80.251648 88.0
80.270798 124.0
80.333687 108.0
80.403282 100.0
80.437195 92.0
80.485397 144.0
80.526474 128.0
80.556839 164.0
80.601509 164.0
80.7034 224.0
80.780304 116.0
80.798195 172.0
80.853661 160.0
80.879532 124.0
80.907364 124.0
80.921692 84.0
81.000488 168.0
81.082909 88.0
81.120552 148.0
81.229897 148.0
81.253265 80.0
81.280182 232.0
81.299919 48.0
81.326843 144.0
81.344795 68.0
81.357361 72.0
81.374268 184.0
81.405838 108.0
81.445358 68.0
81.482559 248.0
81.499252 120.0
81.5298 68.0
81.586113 184.0
81.605301 200.0
81.662849 140.0
81.737358 164.0
81.768173 116.0
81.822716 140.0
81.892059 104.0
81.986931 156.0
82.02227 180.0
82.048218 196.0
82.113136 168.0
82.134781 80.0
82.251045 204.0
82.277344 144.0
82.30262 144.0
82.353188 56.0
82.40197 180.0
82.41642 164.0
82.479675 128.0
82.497063 168.0
82.526138 200.0
82.585327 160.0
82.620735 368.0
82.641525 204.0
82.6567 164.0
82.687683 124.0
82.705788 140.0
82.791176 172.0
82.812622 84.0
82.854286 116.0
82.89415 172.0
83.00901 336.0
83.048256 148.0
83.117195 152.0
83.180717 76.0
83.21521 248.0
83.304207 132.0
83.338722 176.0
83.447784 112.0
83.462326 116.0
83.487785 164.0
83.553268 108.0
83.701096 148.0
83.722557 180.0
83.767647 228.0
83.791588 192.0
83.833687 100.0
83.888367 116.0
83.930305 140.0
84.081718 224.0
84.094498 232.0
84.110924 136.0
84.154739 120.0
84.171173 200.0
84.236923 148.0
84.257065 164.0
84.2826 284.0
84.322807 132.0
84.344788 168.0
84.383133 192.0
84.454453 168.0
84.557632 132.0
84.59639 228.0
84.626442 168.0
84.667114 148.0
84.740044 124.0
84.756538 136.0
84.800522 144.0
84.819427 164.0
84.850014 156.0
84.905212 120.0
84.961891 212.0
84.985542 112.0
85.01532 168.0
85.070168 164.0
85.08992 348.0
85.103218 192.0
85.147995 208.0
85.166733 124.0
85.198013 224.0
85.257523 116.0
85.320023 152.0
85.353119 156.0
85.367828 92.0
85.380699 132.0
85.439568 168.0
85.491089 172.0
85.597862 52.0
85.645004 100.0
85.732346 204.0
85.749565 244.0
85.771049 152.0
85.807922 144.0
85.8946 164.0
85.913048 120.0
85.937721 160.0
85.975121 212.0
85.999275 148.0
86.071777 156.0
86.103172 172.0
86.151199 104.0
86.184456 140.0
86.214027 204.0
86.254684 116.0
86.28653 160.0
86.31015 124.0
86.339745 112.0
86.352692 204.0
86.393387 172.0
86.415588 136.0
86.446457 200.0
86.493317 164.0
86.511826 76.0
86.537743 176.0
86.554413 196.0
86.5896 88.0
86.614914 160.0
86.658142 160.0
86.68779 184.0
86.703842 152.0
86.709846 80.0
86.716713 204.0
86.763786 120.0
86.797157 100.0
86.81385 168.0
86.837959 216.0
87.006927 156.0
87.077393 160.0
87.107117 120.0
87.168427 120.0
87.201881 148.0
87.233482 136.0
87.404594 84.0
87.424599 144.0
87.482765 172.0
87.505104 128.0
87.56765 180.0
87.613129 168.0
87.635483 220.0
87.655983 144.0
87.688286 204.0
87.730537 100.0
87.747322 156.0
87.759575 192.0
87.80513 172.0
87.84803 124.0
87.937599 148.0
87.953598 168.0
88.001068 232.0
88.048775 168.0
88.128082 156.0
88.186012 144.0
88.288849 228.0
88.309418 44.0
88.343094 116.0
88.368988 152.0
88.38987 168.0
88.431038 196.0
88.446014 356.0
88.511543 180.0
88.528397 120.0
88.558365 208.0
88.608948 144.0
88.623932 136.0
88.6408 168.0
88.753273 144.0
88.775703 112.0
88.854553 184.0
88.908974 144.0
88.929619 160.0
88.957069 148.0
88.989693 172.0
89.044151 136.0
89.094872 156.0
89.120338 184.0
89.279327 124.0
89.327988 140.0
89.385254 160.0
89.473526 156.0
89.502121 136.0
89.535034 140.0
89.559525 156.0
89.632996 184.0
89.685768 176.0
89.70462 164.0
89.725357 168.0
89.765297 156.0
89.818741 160.0
89.851723 40.0
89.893234 200.0
89.908333 88.0
89.944511 168.0
89.968735 180.0
90.034012 168.0
90.048042 164.0
90.064217 100.0
90.09214 140.0
90.115196 136.0
90.161407 84.0
90.229454 100.0
90.255928 96.0
90.281105 140.0
90.301315 148.0
90.334213 188.0
90.435654 160.0
90.467743 184.0
90.546783 196.0
90.590935 120.0
90.629463 184.0
90.668625 108.0
90.723595 192.0
90.740654 152.0
90.781464 292.0
90.799438 96.0
90.814613 36.0
90.845032 112.0
90.87532 184.0
90.956932 144.0
90.975914 148.0
91.000595 140.0
91.032875 172.0
91.078461 120.0
91.157051 196.0
91.205772 168.0
91.255203 152.0
91.308403 164.0
91.390251 136.0
91.414986 192.0
91.470184 128.0
91.493027 72.0
91.515877 204.0
91.580627 100.0
91.62825 144.0
91.702568 148.0
91.752136 300.0
91.775009 128.0
91.792175 164.0
91.830315 56.0
91.895454 208.0
91.918076 124.0
91.981262 112.0
91.994728 200.0
92.017334 132.0
92.066978 148.0
92.105179 128.0
92.13002 184.0
92.143387 96.0
92.160583 188.0
92.224846 132.0
92.277184 172.0
92.3116 44.0
92.336464 56.0
92.378548 92.0
92.461533 184.0
92.528275 220.0
92.545052 108.0
92.613998 136.0
92.707321 192.0
92.784554 112.0
92.822899 148.0
92.849754 160.0
92.906799 184.0
93.026283 160.0
93.043564 176.0
93.060844 224.0
93.134644 140.0
93.15303 280.0
93.191452 176.0
93.237572 120.0
93.266403 144.0
93.283707 204.0
93.327477 172.0
93.365387 160.0
93.391388 48.0
93.426018 192.0
93.479492 252.0
93.502983 120.0
93.564491 164.0
93.6185 120.0
93.689316 204.0
93.716743 76.0
93.730232 144.0
93.764923 172.0
93.791908 68.0
93.828537 140.0
93.869026 168.0
93.886063 168.0
93.936058 180.0
93.96933 160.0
94.008667 156.0
94.066246 592.0
94.139198 204.0
94.216461 176.0
94.233757 164.0
94.280228 140.0
94.359177 152.0
94.382683 208.0
94.400085 92.0
94.485199 376.0
94.504547 120.0
94.541313 332.0
94.568405 176.0
94.661339 132.0
94.711693 108.0
94.73494 56.0
94.807373 84.0
94.866722 236.0
95.026993 176.0
95.043831 208.0
95.064636 168.0
95.188812 116.0
95.215996 160.0
95.247078 112.0
95.262619 148.0
95.27816 72.0
95.328682 112.0
95.359772 256.0
95.373383 172.0
95.398651 116.0
95.420036 172.0
95.460869 196.0
95.503662 180.0
95.534782 180.0
95.556183 76.0
95.589264 96.0
95.672958 56.0
95.805389 132.0
95.87661 160.0
95.929779 232.0
95.963264 120.0
95.990562 176.0
96.017387 164.0
96.02346 124.0
96.044983 252.0
96.080452 4248.0
96.138824 36.0
96.171165 84.0
96.19696 148.0
96.214951 184.0
96.228195 148.0
96.255028 120.0
96.273529 40.0
96.306732 188.0
96.320404 396.0
96.332718 172.0
96.361435 120.0
96.375114 228.0
96.414192 160.0
96.439606 176.0
96.468925 88.0
96.548882 148.0
96.590172 180.0
96.648865 84.0
96.674301 152.0
96.689957 132.0
96.703659 120.0
96.721275 124.0
96.793716 72.0
96.88382 144.0
96.931175 200.0
96.951813 132.0
96.989639 236.0
97.013161 156.0
97.075691 9644.0
97.135399 152.0
97.175949 172.0
97.195572 172.0
97.217155 76.0
97.350647 208.0
97.390625 216.0
97.413506 188.0
97.444939 208.0
97.482269 188.0
97.500473 184.0
97.537346 108.0
97.568031 140.0
97.590385 104.0
97.610054 116.0
97.624527 188.0
97.648148 216.0
97.665123 188.0
97.687927 240.0
97.717003 192.0
97.742546 136.0
97.764565 192.0
97.784218 212.0
97.806793 156.0
97.841713 152.0
97.863892 200.0
97.881615 172.0
97.927872 100.0
97.962761 164.0
98.007683 60.0
98.027 268.0
98.041183 216.0
98.083954 25220.0
98.126938 340.0
98.189049 336.0
98.228493 40.0
98.256241 176.0
98.283737 44.0
98.315315 96.0
98.348869 192.0
98.384399 52.0
98.412231 208.0
98.435738 144.0
98.45092 196.0
98.483139 68.0
98.502892 212.0
98.528572 72.0
98.621452 68.0
98.649124 128.0
98.677185 220.0
98.706383 196.0
98.744041 64.0
98.800453 308.0
98.835045 60.0
98.852852 256.0
98.866707 124.0
98.895866 164.0
98.926872 136.0
98.993408 176.0
99.027588 140.0
99.050842 128.0
99.087395 2364.0
99.126137 220.0
99.1782 104.0
99.197487 220.0
99.22921 80.0
99.262917 140.0
99.284729 264.0
99.304565 128.0
99.338455 188.0
99.372017 56.0
99.47522 52.0
99.498703 212.0
99.612236 212.0
99.649986 172.0
99.673676 104.0
99.719543 60.0
99.765228 140.0
99.797073 68.0
99.826775 124.0
99.85347 184.0
99.884399 136.0
99.906364 128.0
99.910439 124.0
99.986053 136.0
100.098892 372.0
100.117455 260.0
100.149323 184.0
100.223038 184.0
100.250938 136.0
100.296776 40.0
100.32914 172.0
100.360573 152.0
100.414421 84.0
100.440346 148.0
100.46212 136.0
100.559952 264.0
100.603989 176.0
100.621956 152.0
100.675774 164.0
100.730652 112.0
100.803726 160.0
100.851692 56.0
100.879135 228.0
100.901077 176.0
100.927658 124.0
100.948914 148.0
100.96566 112.0
101.039673 124.0
101.053673 176.0
101.107109 436.0
101.132927 160.0
101.243843 164.0
101.267883 160.0
101.32135 224.0
101.374062 72.0
101.458252 200.0
101.526428 124.0
101.552902 140.0
101.576569 100.0
101.607483 196.0
101.636765 188.0
101.662849 132.0
101.694962 148.0
101.713028 200.0
101.733101 148.0
101.803062 148.0
101.853592 132.0
101.887741 176.0
101.935966 140.0
101.958076 164.0
102.018372 148.0
102.0606 80.0
102.100815 172.0
102.143059 112.0
102.273849 172.0
102.304802 204.0
102.380562 116.0
102.402718 32.0
102.482353 148.0
102.49942 160.0
102.534416 196.0
102.565933 116.0
102.594154 224.0
102.626411 188.0
102.672791 196.0
102.688927 36.0
102.812004 148.0
102.850349 84.0
102.875473 144.0
102.900543 148.0
102.955345 300.0
103.056511 148.0
103.13002 124.0
103.164787 168.0
103.21199 224.0
103.252434 136.0
103.309074 72.0
103.328163 128.0
103.353584 152.0
103.420372 112.0
103.545906 212.0
103.607765 148.0
103.6549 200.0
103.684959 76.0
103.756653 104.0
103.813423 132.0
103.83168 148.0
103.884415 212.0
103.929054 48.0
103.969643 140.0
104.03038 212.0
104.052864 156.0
104.077232 128.0
104.111755 92.0
104.132065 132.0
104.2127 156.0
104.255997 136.0
104.306808 164.0
104.355141 300.0
104.396271 236.0
104.430168 152.0
104.572823 200.0
104.601776 168.0
104.813591 236.0
104.908417 160.0
104.944389 168.0
105.001205 152.0
105.021988 92.0
105.029045 136.0
105.066422 340.0
105.109955 204.0
105.141922 108.0
105.323647 168.0
105.341095 176.0
105.384933 236.0
105.4795 132.0
105.556641 164.0
105.575043 284.0
105.66716 128.0
105.712112 148.0
105.734627 32.0
105.772919 192.0
105.812408 120.0
105.843124 228.0
106.103348 152.0
106.129997 264.0
106.414009 180.0
106.455856 176.0
106.524055 52.0
106.573364 160.0
106.598022 132.0
106.626183 200.0
106.705833 188.0
106.762489 132.0
106.80497 196.0
106.842522 128.0
106.918846 324.0
107.003242 160.0
107.040985 208.0
107.073257 148.0
107.114456 124.0
107.163902 144.0
107.221603 228.0
107.24221 96.0
107.260765 104.0
107.295807 128.0
107.330864 284.0
107.361816 244.0
107.389763 136.0
107.419548 112.0
107.477318 100.0
107.510338 108.0
107.566063 76.0
107.590836 188.0
107.607353 132.0
107.733337 104.0
107.766396 212.0
107.803589 124.0
107.863533 104.0
107.913147 48.0
107.950371 144.0
108.011719 744.0
108.078407 528.0
108.105522 268.0
108.130363 176.0
108.157272 144.0
108.180038 196.0
108.200745 204.0
108.251572 204.0
108.295471 156.0
108.329147 92.0
108.349861 156.0
108.457626 196.0
108.486649 88.0
108.521889 124.0
108.551613 108.0
108.5924 148.0
108.633888 228.0
108.649727 164.0
108.671234 240.0
108.731842 156.0
108.877083 172.0
108.900826 164.0
108.930748 124.0
108.957756 156.0
108.991966 232.0
109.05127 48.0
109.077484 396.0
109.171257 208.0
109.255058 96.0
109.306053 220.0
109.352066 136.0
109.390327 120.0
109.413231 184.0
109.436981 164.0
109.461411 172.0
109.507881 188.0
109.531937 252.0
109.584015 124.0
109.621529 172.0
109.641922 168.0
109.647858 132.0
109.687737 172.0
109.701965 176.0
109.752853 156.0
109.79039 160.0
109.846809 168.0
109.953125 196.0
110.003769 212.0
110.029488 180.0
110.046524 124.0
110.081345 544.0
110.099472 536.0
110.191177 148.0
110.232971 136.0
110.270592 132.0
110.287315 156.0
110.301941 140.0
110.405746 192.0
110.444138 68.0
110.46804 156.0
110.500618 192.0
110.552933 160.0
110.588516 204.0
110.633461 176.0
110.786613 140.0
110.83564 416.0
110.88356 148.0
110.92157 104.0
110.965599 60.0
110.982368 168.0
111.028503 116.0
111.066261 148.0
111.090904 12852.0
111.143883 132.0
111.318352 72.0
111.347519 124.0
111.364044 152.0
111.406105 220.0
111.43042 52.0
111.511406 72.0
111.572365 120.0
111.614418 48.0
111.677505 200.0
111.692131 168.0
111.793411 92.0
111.812164 112.0
111.871109 96.0
111.900581 156.0
111.944801 136.0
111.995346 180.0
112.050117 192.0
112.098442 3232.0
112.163925 52.0
112.227173 104.0
112.258553 172.0
112.285446 120.0
112.324188 120.0
112.341064 100.0
112.406471 188.0
112.426178 200.0
112.46199 156.0
112.498482 128.0
112.531006 180.0
112.554237 180.0
112.58802 168.0
112.6465 104.0
112.674141 208.0
112.732826 220.0
112.754448 216.0
112.816231 168.0
112.869087 84.0
112.955803 52.0
112.976654 168.0
113.064049 176.0
113.106461 4580.0
113.148384 136.0
113.230972 120.0
113.245796 148.0
113.269096 152.0
113.333549 76.0
113.368683 128.0
113.419548 52.0
113.454369 108.0
113.48951 188.0
113.510719 156.0
113.597679 68.0
113.67157 184.0
113.758965 88.0
113.799301 52.0
113.832436 104.0
113.854897 88.0
113.893822 164.0
113.930984 152.0
114.011726 52.0
114.062561 144.0
114.111076 152.0
114.152039 184.0
114.181816 228.0
114.196701 56.0
114.258392 164.0
114.354149 140.0
114.373306 144.0
114.400986 108.0
114.444656 180.0
114.453285 92.0
114.461327 140.0
114.53727 76.0
114.554314 128.0
114.594795 104.0
114.635841 152.0
114.66938 124.0
114.827866 132.0
114.931694 100.0
114.950897 104.0
114.965836 168.0
114.985039 200.0
115.016403 156.0
115.051582 324.0
115.104591 184.0
115.120941 128.0
115.145172 144.0
115.183617 112.0
115.207115 168.0
115.273354 148.0
115.29686 108.0
115.380524 204.0
115.41201 148.0
115.456833 180.0
115.505775 136.0
115.535904 228.0
115.557747 84.0
115.634789 40.0
115.699005 40.0
115.735405 88.0
115.750397 208.0
115.776093 48.0
115.973541 180.0
115.982216 140.0
115.988914 208.0
116.03109 120.0
116.054672 148.0
116.069687 132.0
116.088989 220.0
116.114723 56.0
116.146896 112.0
116.249878 184.0
116.325302 204.0
116.415184 180.0
116.438805 180.0
116.471024 212.0
116.537628 92.0
116.598854 228.0
116.670883 112.0
116.690231 108.0
116.716034 208.0
116.763344 172.0
116.808517 68.0
116.875435 192.0
116.89743 124.0
116.939774 176.0
116.964836 136.0
116.995743 72.0
117.049576 100.0
117.067963 108.0
117.10955 132.0
117.135727 52.0
117.241302 196.0
117.338303 168.0
117.394371 144.0
117.450447 108.0
117.510849 120.0
117.590698 112.0
117.681366 152.0
117.819595 96.0
117.84819 136.0
117.990334 168.0
118.057365 228.0
118.191879 88.0
118.208801 200.0
118.330017 116.0
118.345169 164.0
118.414345 140.0
118.462128 148.0
118.483788 84.0
118.507622 108.0
118.544464 144.0
118.635498 144.0
118.654007 156.0
118.683197 192.0
118.785133 172.0
118.837196 64.0
118.856728 120.0
118.906647 96.0
118.980446 48.0
119.091202 148.0
119.125954 160.0
119.152023 140.0
119.201515 180.0
119.307953 172.0
119.321495 144.0
119.343292 84.0
119.393936 180.0
119.422531 172.0
119.463074 168.0
119.547775 224.0
119.563011 152.0
119.766312 128.0
119.793816 68.0
119.813423 180.0
119.921448 84.0
119.932915 120.0
119.952896 148.0
120.08242 340.0
120.142632 136.0
120.169815 168.0
120.234276 108.0
120.25798 228.0
120.299759 128.0
120.362 160.0
120.413307 136.0
120.441704 68.0
120.520355 136.0
120.601212 104.0
120.730209 164.0
120.765205 124.0
120.80677 224.0
120.955574 120.0
120.973091 112.0
120.988411 172.0
121.005928 432.0
121.073753 148.0
121.092957 200.0
121.139854 312.0
121.157051 124.0
121.176765 60.0
121.206703 180.0
121.224976 252.0
121.273712 236.0
121.317032 172.0
121.352112 48.0
121.377182 168.0
121.4179 168.0
121.459251 136.0
121.483704 156.0
121.503448 148.0
121.536362 132.0
121.564888 156.0
121.608788 180.0
121.657082 72.0
121.700989 124.0
121.720161 152.0
121.758087 152.0
121.810799 148.0
121.834442 168.0
121.861336 64.0
121.938316 124.0
122.019585 144.0
122.093521 276.0
122.116341 164.0
122.156502 172.0
122.224144 184.0
122.254059 144.0
122.285759 120.0
122.358307 180.0
122.366753 172.0
122.472923 56.0
122.508163 60.0
122.52359 152.0
122.563248 232.0
122.611732 204.0
122.646996 88.0
122.705597 200.0
122.748413 164.0
122.796936 120.0
122.816788 148.0
122.882965 220.0
122.943192 124.0
122.995522 140.0
123.022148 128.0
123.063957 108.0
123.091629 312.0
123.142357 128.0
123.216011 176.0
123.262764 120.0
123.287071 264.0
123.324646 60.0
123.373276 128.0
123.432976 156.0
123.459511 184.0
123.512596 152.0
123.530296 152.0
123.559052 144.0
123.598877 144.0
123.62986 200.0
123.651993 384.0
123.700691 116.0
123.736115 160.0
123.876053 172.0
123.931023 128.0
124.026321 68.0
124.046272 204.0
124.066223 188.0
124.098572 2640.0
124.134964 168.0
124.222626 88.0
124.341286 88.0
124.389061 176.0
124.401787 124.0
124.441177 84.0
124.507797 216.0
124.523216 140.0
124.543335 96.0
124.567772 128.0
124.621094 144.0
124.687759 108.0
124.732216 64.0
124.844902 176.0
124.876854 168.0
124.959061 316.0
124.98185 132.0
125.017189 288.0
125.040459 256.0
125.10601 2628.0
125.282135 176.0
125.337585 136.0
125.402214 156.0
125.453484 124.0
125.591743 80.0
125.660904 112.0
125.73008 112.0
125.794304 320.0
125.868828 132.0
125.895287 112.0
125.987663 112.0
126.038254 140.0
126.087837 172.0
126.109688 424.0
126.183548 232.0
126.246155 168.0
126.277466 192.0
126.302071 144.0
126.347725 108.0
126.389328 192.0
126.425133 180.0
126.476608 152.0
126.50795 188.0
126.561684 96.0
126.604233 76.0
126.619911 76.0
126.65799 100.0
126.71489 120.0
126.743118 180.0
126.76329 120.0
126.795044 432.0
126.812592 176.0
126.846222 136.0
126.902267 156.0
126.954323 188.0
127.014404 104.0
127.061516 156.0
127.122826 804.0
127.144539 128.0
127.171471 160.0
127.213715 132.0
127.245552 136.0
127.276993 140.0
127.313469 164.0
127.335381 164.0
127.394112 192.0
127.416245 116.0
127.458939 132.0
127.558289 176.0
127.811981 192.0
127.900291 168.0
127.971077 232.0
128.061691 888.0
128.111435 148.0
128.1539 236.0
128.192551 176.0
128.21283 172.0
128.296234 76.0
128.3526 104.0
128.388687 92.0
128.427032 56.0
128.535324 132.0
128.634628 148.0
128.813324 128.0
128.883072 156.0
129.063553 184.0
129.091568 168.0
129.115906 128.0
129.15889 72.0
129.19191 228.0
129.222229 140.0
129.238068 132.0
129.294647 108.0
129.348129 152.0
129.389755 220.0
129.414627 124.0
129.444061 144.0
129.462173 144.0
129.487091 152.0
129.609421 56.0
129.645676 192.0
129.67514 128.0
129.69101 152.0
129.797562 144.0
129.908707 172.0
129.949539 192.0
129.995819 92.0
130.031235 104.0
130.067429 672.0
130.101608 204.0
130.181915 108.0
130.2742 108.0
130.369644 136.0
130.499207 164.0
130.524216 168.0
130.626572 128.0
130.701645 32.0
130.886032 176.0
130.906525 132.0
130.94841 168.0
130.986252 28.0
131.027252 188.0
131.078598 172.0
131.111557 232.0
131.168549 140.0
131.202744 100.0
131.271561 176.0
131.355545 184.0
131.371506 176.0
131.405884 228.0
131.471909 204.0
131.49472 168.0
131.528961 144.0
131.595169 164.0
131.718491 160.0
131.764191 284.0
131.811325 152.0
131.979034 208.0
132.00737 224.0
132.032272 200.0
132.079285 192.0
132.12085 100.0
132.178406 128.0
132.24791 84.0
132.254044 176.0
132.272812 128.0
132.312439 140.0
132.33371 176.0
132.443634 212.0
132.569641 128.0
132.590271 120.0
132.617767 276.0
132.695724 104.0
132.748383 216.0
132.794327 152.0
132.810379 116.0
132.881088 180.0
132.909988 268.0
132.957565 192.0
132.993668 128.0
133.026093 192.0
133.087891 148.0
133.115631 48.0
133.244263 128.0
133.278732 120.0
133.294815 128.0
133.324142 168.0
133.356476 192.0
133.413788 220.0
133.437332 172.0
133.481018 60.0
133.517807 196.0
133.570038 288.0
133.630524 172.0
133.761703 212.0
133.933395 280.0
133.96666 132.0
134.146423 52.0
134.171783 160.0
134.234039 132.0
134.250183 116.0
134.297699 204.0
134.464737 116.0
134.497055 160.0
134.513214 96.0
134.608154 200.0
134.640198 216.0
134.716431 48.0
134.76915 196.0
134.799606 148.0
134.850449 172.0
134.903625 88.0
134.931931 148.0
134.972977 132.0
135.026993 340.0
135.084579 68.0
135.114075 180.0
135.192749 224.0
135.223053 172.0
135.25061 40.0
135.266815 68.0
135.325317 164.0
135.357117 48.0
135.421967 160.0
135.469193 144.0
135.506363 120.0
135.581833 60.0
135.605011 96.0
135.64209 112.0
135.762665 364.0
135.802094 176.0
135.827606 160.0
135.968826 176.0
136.013794 152.0
136.101349 160.0
136.130981 292.0
136.157196 176.0
136.189713 104.0
136.21991 148.0
136.240829 92.0
136.268707 28.0
136.296585 164.0
136.422104 104.0
136.501144 180.0
136.689575 100.0
136.720627 140.0
136.745438 136.0
136.78035 148.0
136.798965 52.0
136.858398 140.0
136.973618 128.0
137.109039 420.0
137.146057 160.0
137.171707 120.0
137.20433 152.0
137.23465 144.0
137.276627 152.0
137.313354 176.0
137.342346 316.0
137.395584 88.0
137.411911 272.0
137.428253 60.0
137.470245 160.0
137.516922 52.0
137.570618 280.0
137.61113 204.0
137.682693 120.0
137.701385 168.0
137.726654 180.0
137.811172 80.0
137.855576 224.0
137.909332 152.0
137.929138 320.0
138.021545 128.0
138.037918 136.0
138.079819 144.0
138.112381 496.0
138.197754 244.0
138.221558 120.0
138.306976 132.0
138.328049 104.0
138.360825 136.0
138.494308 128.0
138.517731 140.0
138.572678 196.0
138.653625 204.0
138.674728 160.0
138.7005 92.0
138.721603 132.0
138.752075 96.0
138.854523 192.0
138.902176 168.0
138.972549 136.0
139.03598 136.0
139.061401 196.0
139.122452 17176.0
139.162674 120.0
139.197388 216.0
139.298904 140.0
139.317474 84.0
139.335709 228.0
139.374084 68.0
139.42038 272.0
139.476974 180.0
139.503922 228.0
139.550369 212.0
139.625626 156.0
139.696182 80.0
139.742508 116.0
139.766769 148.0
139.802063 152.0
139.872681 44.0
139.938812 92.0
139.971573 48.0
139.999832 180.0
140.092072 200.0
140.128265 7232.0
140.16272 184.0
140.179199 228.0
140.209503 44.0
140.232742 168.0
140.257828 144.0
140.299072 84.0
140.317932 84.0
140.347168 144.0
140.398117 44.0
140.509583 140.0
140.539658 104.0
140.584488 144.0
140.671814 88.0
140.699738 160.0
140.7332 28.0
140.766266 164.0
140.846573 44.0
140.91095 80.0
140.970932 144.0
141.002518 120.0
141.075485 284.0
141.108063 80.0
141.132492 544.0
141.18219 84.0
141.234222 72.0
141.305206 52.0
141.338333 160.0
141.376968 132.0
141.404587 28.0
141.492172 228.0
141.520584 56.0
141.539536 148.0
141.579788 212.0
141.67691 172.0
141.778793 124.0
141.800125 164.0
141.866501 156.0
141.911545 172.0
141.932892 100.0
141.975571 172.0
142.07045 132.0
142.089432 124.0
142.132614 212.0
142.17012 168.0
142.236572 168.0
142.260925 156.0
142.371918 336.0
142.398041 152.0
142.419418 132.0
142.495438 188.0
142.519196 124.0
142.571472 128.0
142.602829 188.0
142.685577 132.0
142.8806 44.0
142.937698 32.0
142.991272 148.0
143.076767 132.0
143.113846 68.0
143.156708 136.0
143.218643 144.0
143.32048 300.0
143.464081 128.0
143.495087 112.0
143.54039 204.0
143.573776 124.0
143.631012 100.0
143.654877 180.0
143.700851 180.0
143.747925 152.0
143.838623 148.0
143.881592 160.0
143.916656 152.0
143.965836 144.0
144.034439 100.0
144.080536 332.0
144.125214 72.0
144.151505 144.0
144.180191 72.0
144.24472 116.0
144.266235 80.0
144.318832 128.0
144.381012 104.0
144.397751 128.0
144.455154 128.0
144.529327 168.0
144.596344 136.0
144.672943 132.0
144.783081 192.0
144.79985 136.0
144.840622 176.0
144.900452 128.0
145.079849 188.0
145.130554 140.0
145.29126 168.0
145.328247 164.0
145.353638 224.0
145.396835 64.0
145.452042 132.0
145.473648 48.0
145.49765 52.0
145.653748 164.0
145.764267 108.0
145.886856 92.0
145.983032 180.0
146.021515 100.0
146.042709 384.0
146.088791 116.0
146.134583 120.0
146.153824 180.0
146.254913 216.0
146.303055 112.0
146.348801 192.0
146.507767 116.0
146.539078 92.0
146.560776 144.0
146.727081 124.0
146.77771 64.0
146.801834 100.0
146.862732 144.0
147.024124 604.0
147.077835 132.0
147.102142 148.0
147.125168 172.0
147.14447 168.0
147.228989 168.0
147.260391 56.0
147.282135 232.0
147.342529 204.0
147.54071 148.0
147.569916 144.0
147.615662 84.0
147.659195 124.0
147.702728 228.0
147.728928 164.0
147.838943 136.0
147.879364 180.0
147.91568 148.0
147.951996 204.0
148.02037 168.0
148.134491 200.0
148.177017 140.0
148.218262 124.0
148.314728 92.0
148.362061 136.0
148.399826 172.0
148.494141 132.0
148.543304 180.0
148.59668 208.0
148.623367 116.0
148.685791 156.0
148.72287 176.0
148.82132 124.0
148.960846 152.0
148.994858 204.0
149.014297 168.0
149.048309 156.0
149.082336 96.0
149.111496 136.0
149.242767 136.0
149.276825 152.0
149.313293 188.0
149.357086 176.0
149.376541 140.0
149.539566 208.0
149.580948 216.0
149.653992 140.0
149.671036 196.0
149.688919 100.0
149.724609 80.0
149.750534 236.0
149.80986 148.0
149.863464 124.0
149.92926 148.0
149.94632 268.0
149.975571 116.0
150.068207 104.0
150.107224 120.0
150.170639 152.0
150.326782 176.0
150.368271 144.0
150.425308 184.0
150.470795 176.0
150.492767 108.0
150.514175 136.0
150.561325 108.0
150.607559 124.0
150.629532 148.0
150.65152 180.0
150.69664 120.0
150.731812 168.0
150.885284 236.0
150.903259 64.0
150.957047 228.0
151.005966 92.0
151.114853 188.0
151.147858 148.0
151.233521 168.0
151.27269 180.0
151.289825 140.0
151.306961 44.0
151.356903 152.0
151.382874 200.0
151.400009 140.0
151.528824 176.0
151.568756 104.0
151.591095 52.0
151.689133 164.0
151.777405 64.0
151.963821 100.0
152.016479 168.0
152.060471 524.0
152.147903 188.0
152.193237 92.0
152.270676 192.0
152.295242 88.0
152.341919 132.0
152.402359 152.0
152.506546 184.0
152.55864 192.0
152.595047 144.0
152.661453 80.0
152.70079 140.0
152.781967 176.0
152.823807 112.0
152.841019 192.0
152.860718 228.0
152.895172 176.0
153.020706 156.0
153.042862 32.0
153.071136 224.0
153.097046 168.0
153.12413 72.0
153.222672 168.0
153.239914 152.0
153.392014 212.0
153.461746 104.0
153.479004 152.0
153.506134 124.0
153.524719 172.0
153.582001 232.0
153.721924 156.0
153.750366 124.0
153.775055 220.0
153.807144 132.0
153.829361 128.0
153.873795 168.0
153.925644 184.0
153.945404 128.0
154.062912 176.0
154.189835 128.0
154.212234 128.0
154.236954 160.0
154.25798 172.0
154.281448 116.0
154.313583 156.0
154.400497 140.0
154.479294 156.0
154.5065 172.0
154.546097 136.0
154.578262 44.0
154.627075 188.0
154.684616 148.0
154.692322 144.0
154.732819 208.0
154.897186 168.0
154.906509 112.0
155.021927 208.0
155.048798 200.0
155.079346 196.0
155.105804 140.0
155.130966 108.0
155.240234 92.0
155.259064 104.0
155.296738 160.0
155.453049 144.0
155.552322 48.0
155.589569 144.0
155.609421 124.0
155.659088 136.0
155.721176 184.0
155.763397 68.0
155.785767 40.0
155.832962 184.0
156.001968 140.0
156.077957 248.0
156.131744 180.0
156.163605 84.0
156.213348 128.0
156.302917 144.0
156.34024 116.0
156.360153 48.0
156.432343 216.0
156.494583 140.0
156.61412 128.0
156.721252 192.0
156.775635 208.0
156.793518 128.0
156.828415 148.0
157.022903 168.0
157.13765 220.0
157.259933 128.0
157.284882 148.0
157.364777 184.0
157.566269 200.0
157.604568 112.0
157.672043 164.0
157.692032 204.0
157.719528 272.0
157.73703 100.0
158.02713 160.0
158.093979 604.0
158.197327 92.0
158.265915 112.0
158.444504 160.0
158.560532 152.0
158.583084 140.0
158.613495 124.0
158.64827 128.0
158.720978 160.0
158.738525 44.0
158.793121 156.0
158.936707 96.0
158.96431 188.0
159.021179 208.0
159.067215 152.0
159.129974 136.0
159.16011 48.0
159.23204 144.0
159.28569 176.0
159.30629 180.0
159.373611 192.0
159.391205 40.0
159.411316 144.0
159.466599 164.0
159.496765 196.0
159.516876 148.0
159.562134 172.0
159.653656 180.0
159.823715 224.0
159.916687 140.0
159.965378 224.0
160.02005 172.0
160.037674 128.0
160.060013 156.0
160.112534 148.0
160.203903 120.0
160.282974 228.0
160.308624 128.0
160.337448 128.0
160.355087 180.0
160.377777 64.0
160.433228 112.0
160.476089 164.0
160.505295 152.0
160.62236 132.0
160.662735 112.0
160.695526 40.0
160.728073 160.0
160.770737 184.0
160.809097 124.0
160.841904 164.0
161.04129 356.0
161.102005 160.0
161.128067 140.0
161.347153 96.0
161.369919 120.0
161.461258 128.0
161.648163 128.0
161.675995 68.0
161.957031 148.0
162.014145 368.0
162.035568 184.0
162.108231 444.0
162.166595 124.0
162.195221 100.0
162.262253 164.0
162.375259 164.0
162.467636 124.0
162.54332 160.0
162.595993 184.0
162.638657 168.0
162.647354 136.0
162.652634 200.0
162.695618 304.0
162.73053 80.0
162.763535 140.0
162.827026 168.0
162.870209 88.0
162.892273 248.0
162.931168 128.0
163.016693 180.0
163.042358 164.0
163.088867 316.0
163.125015 188.0
163.163162 176.0
163.248901 48.0
163.309204 164.0
163.335388 116.0
163.383713 136.0
163.411713 72.0
163.42952 100.0
163.47023 112.0
163.541489 120.0
163.818924 160.0
163.849625 164.0
163.926071 144.0
164.035675 184.0
164.058609 136.0
164.221817 144.0
164.341721 48.0
164.377441 120.0
164.404968 212.0
164.43869 132.0
164.500275 156.0
164.614853 92.0
164.682632 200.0
164.742569 216.0
164.796219 108.0
164.888214 208.0
165.005798 124.0
165.067719 700.0
165.317871 108.0
165.346024 220.0
165.374176 60.0
165.421478 192.0
165.458649 176.0
165.550842 156.0
165.589249 104.0
165.612305 124.0
165.728867 112.0
165.766022 88.0
165.883926 92.0
165.948029 124.0
166.07164 160.0
166.104462 168.0
166.135254 104.0
166.166046 100.0
166.189133 100.0
166.227295 220.0
166.253281 100.0
166.376495 232.0
166.435547 128.0
166.461227 96.0
166.612778 156.0
166.669296 148.0
166.730972 108.0
166.993225 216.0
167.044678 352.0
167.091751 188.0
167.183609 116.0
167.213913 88.0
167.271133 108.0
167.314896 196.0
167.348358 176.0
167.387314 128.0
167.45137 84.0
167.509323 120.0
167.608658 156.0
167.72966 124.0
167.806992 356.0
167.912399 160.0
167.938522 124.0
167.990112 128.0
168.070358 80.0
168.217209 180.0
168.240768 96.0
168.266266 80.0
168.475311 136.0
168.555557 152.0
168.573639 88.0
168.664108 144.0
168.757721 172.0
168.783035 40.0
168.83992 76.0
168.869324 304.0
168.956329 176.0
168.984787 200.0
169.008072 104.0
169.052063 168.0
169.088837 368.0
169.142654 52.0
169.181488 112.0
169.244217 140.0
169.301636 168.0
169.331207 156.0
169.394241 156.0
169.511642 184.0
169.668549 136.0
169.694473 124.0
169.723434 96.0
169.791321 248.0
169.824142 188.0
169.860458 132.0
169.927902 80.0
169.948669 132.0
170.010941 128.0
170.087967 172.0
170.097321 116.0
170.102905 204.0
170.148514 108.0
170.416046 188.0
170.558975 184.0
170.732941 176.0
170.917892 100.0
171.024445 332.0
171.050629 76.0
171.081253 208.0
171.128723 184.0
171.165176 216.0
171.18602 100.0
171.253723 168.0
171.361633 172.0
171.404831 204.0
171.490845 128.0
171.558609 144.0
171.576859 132.0
171.631622 112.0
171.675949 64.0
171.735733 228.0
171.772461 260.0
171.942062 56.0
171.96788 112.0
172.031235 188.0
172.053696 204.0
172.097931 208.0
172.127411 116.0
172.169205 124.0
172.199036 124.0
172.247559 184.0
172.271072 116.0
172.378189 120.0
172.42009 120.0
172.459213 96.0
172.550705 80.0
172.576859 192.0
172.618698 116.0
172.642227 88.0
172.716446 132.0
172.837418 176.0
172.877686 128.0
173.019028 188.0
173.036392 268.0
173.058304 172.0
173.079254 128.0
173.104263 204.0
173.147339 128.0
173.218063 144.0
173.267838 156.0
173.338593 148.0
173.522064 148.0
173.557571 192.0
173.633575 148.0
173.666306 156.0
173.718765 136.0
173.765991 92.0
173.873993 128.0
173.919647 128.0
173.939194 220.0
174.035339 148.0
174.10199 72.0
174.259598 172.0
174.440948 196.0
174.569778 104.0
174.625015 168.0
174.738129 68.0
174.803909 124.0
174.877609 40.0
174.935974 184.0
174.956573 128.0
175.017136 60.0
175.035568 84.0
175.05658 176.0
175.22258 200.0
175.26474 144.0
175.312164 196.0
175.349075 136.0
175.539658 136.0
175.56456 120.0
175.596909 172.0
175.662857 168.0
175.6866 176.0
175.732529 136.0
175.789017 152.0
175.839645 116.0
175.89772 140.0
175.918839 160.0
175.947876 164.0
175.966354 320.0
176.053268 140.0
176.07991 128.0
176.111603 116.0
176.132736 264.0
176.209351 224.0
176.248978 152.0
176.418137 128.0
176.436646 156.0
176.510681 140.0
176.582077 88.0
176.703766 36.0
176.727585 128.0
176.833282 176.0
176.867844 248.0
176.941971 112.0
176.981689 104.0
177.013458 188.0
177.066437 136.0
177.134628 328.0
177.159149 240.0
177.204254 144.0
177.32608 196.0
177.358719 204.0
177.465179 160.0
177.485703 172.0
177.538177 80.0
177.585922 48.0
177.615097 216.0
177.68187 144.0
177.734497 144.0
177.776947 204.0
177.867188 80.0
177.891083 164.0
178.007904 152.0
178.072968 964.0
178.143372 72.0
178.233704 172.0
178.289505 112.0
178.329376 112.0
178.393173 112.0
178.476212 160.0
178.544739 156.0
178.589951 236.0
178.611237 164.0
178.725632 64.0
178.749588 160.0
178.781525 144.0
178.857956 172.0
178.986496 120.0
179.081482 128.0
179.117004 128.0
179.148972 180.0
179.220901 176.0
179.26088 176.0
179.306183 36.0
179.372818 272.0
179.444305 108.0
179.46347 216.0
179.570145 192.0
179.684845 216.0
179.852966 88.0
179.906357 160.0
179.962769 156.0
179.988205 184.0
180.013168 72.0
180.050552 140.0
180.111984 112.0
180.141373 44.0
180.312378 148.0
180.3311 152.0
180.419312 148.0
180.451385 184.0
180.496841 48.0
180.542313 216.0
180.622559 188.0
180.697464 60.0
180.788437 128.0
180.820557 180.0
180.915451 188.0
181.04277 108.0
181.083633 188.0
181.105606 148.0
181.139191 120.0
181.176605 116.0
181.380371 220.0
181.409851 116.0
181.446854 120.0
181.492966 104.0
181.550049 184.0
181.599106 264.0
181.691452 184.0
181.750488 112.0
181.793411 136.0
181.825623 164.0
181.967896 208.0
181.997437 216.0
182.045761 224.0
182.06456 180.0
182.09581 220.0
182.212311 116.0
182.295609 188.0
182.352051 156.0
182.397736 132.0
182.41925 112.0
182.481079 184.0
182.510666 188.0
182.627853 180.0
182.653671 116.0
182.685486 128.0
182.760818 188.0
182.785034 72.0
182.816559 240.0
182.908539 180.0
182.954605 64.0
182.976135 136.0
182.994995 76.0
183.021912 168.0
183.096039 84.0
183.143112 96.0
183.293976 180.0
183.317322 224.0
183.434052 128.0
183.647156 80.0
183.676834 128.0
183.755066 188.0
183.888794 140.0
183.935883 88.0
183.983383 356.0
184.032639 1056.0
184.095184 60.0
184.11409 108.0
184.151901 176.0
184.18895 212.0
184.199814 152.0
184.309769 180.0
184.354523 136.0
184.376144 76.0
184.500488 92.0
184.638397 188.0
184.67897 160.0
184.719543 164.0
184.84726 140.0
184.954971 40.0
184.998276 228.0
185.037323 588.0
185.073349 160.0
185.116165 172.0
185.166168 120.0
185.201385 180.0
185.323288 140.0
185.437103 68.0
185.458801 88.0
185.520096 176.0
185.582169 152.0
185.613327 196.0
185.713669 164.0
185.746231 180.0
185.767929 212.0
185.786926 116.0
185.852036 220.0
185.869125 152.0
185.903595 156.0
185.925308 232.0
185.960587 172.0
186.039307 156.0
186.112625 120.0
186.223969 60.0
186.270142 136.0
186.335342 144.0
186.446762 164.0
186.50383 172.0
186.526459 136.0
186.56636 128.0
186.618011 196.0
186.645615 188.0
186.683273 60.0
186.764877 72.0
186.846481 148.0
186.938995 160.0
187.027588 168.0
187.064865 132.0
187.117935 136.0
187.162216 128.0
187.189453 168.0
187.228363 180.0
187.350159 136.0
187.735733 244.0
187.816299 104.0
187.843582 136.0
187.958176 120.0
188.056076 124.0
188.083115 164.0
188.113754 204.0
188.13559 96.0
188.157425 184.0
188.182007 132.0
188.201111 152.0
188.266647 160.0
188.346512 204.0
188.391907 112.0
188.455139 164.0
188.567184 84.0
188.657394 92.0
188.750351 112.0
188.802307 104.0
188.917191 60.0
188.976486 212.0
189.006439 64.0
189.070984 268.0
189.144333 152.0
189.257843 148.0
189.319565 108.0
189.407211 132.0
189.596268 124.0
189.749771 36.0
189.832031 84.0
189.875916 152.0
189.909882 156.0
189.941742 136.0
190.070679 396.0
190.122833 112.0
190.158508 260.0
190.216156 100.0
190.256973 120.0
190.29303 88.0
190.391891 112.0
190.427597 116.0
190.465378 116.0
190.492554 204.0
190.696487 176.0
190.757324 188.0
190.776291 116.0
190.859055 64.0
190.889313 124.0
191.006195 160.0
191.084442 960.0
191.15065 44.0
191.205902 152.0
191.249725 104.0
191.285507 160.0
191.398392 176.0
191.423172 188.0
191.442459 156.0
191.566406 140.0
191.604965 232.0
191.726212 184.0
191.808899 108.0
191.84198 156.0
191.875061 172.0
192.089203 408.0
192.119904 160.0
192.181229 124.0
192.225372 300.0
192.249146 64.0
192.286163 140.0
192.355103 124.0
192.3965 188.0
192.44516 200.0
192.5401 176.0
192.569153 140.0
192.703079 180.0
192.781342 148.0
192.802551 148.0
193.054138 76.0
193.101028 416.0
193.227737 100.0
193.262756 148.0
193.325256 220.0
193.361237 80.0
193.38736 192.0
193.422394 124.0
193.502411 88.0
193.574402 92.0
193.649185 156.0
193.671341 68.0
193.767715 172.0
193.881912 152.0
193.989395 160.0
194.038513 140.0
194.070419 88.0
194.12262 204.0
194.16832 144.0
194.247925 124.0
194.325607 92.0
194.38942 184.0
194.505997 116.0
194.600388 108.0
194.686462 76.0
194.705902 104.0
194.830902 104.0
194.893158 216.0
195.028534 348.0
195.074493 136.0
195.13324 128.0
195.21727 180.0
195.23674 204.0
195.304932 116.0
195.364685 160.0
195.414093 180.0
195.439819 108.0
195.461624 124.0
195.492691 140.0
195.513351 156.0
195.631851 84.0
195.804504 128.0
195.850586 244.0
195.891266 160.0
195.914352 128.0
196.03302 4532.0
196.098114 204.0
196.202972 160.0
196.269897 144.0
196.328461 244.0
196.417007 152.0
196.493027 200.0
196.604645 48.0
196.629776 164.0
196.672104 168.0
196.699554 40.0
196.761169 112.0
196.808441 140.0
196.855911 192.0
196.883835 152.0
196.936905 52.0
196.964828 136.0
196.997391 128.0
197.041168 24840.0
197.082886 144.0
197.102936 132.0
197.153427 80.0
197.174393 68.0
197.258255 172.0
197.287552 168.0
197.311661 116.0
197.347717 192.0
197.370865 72.0
197.391434 44.0
197.442795 68.0
197.513123 148.0
197.557968 116.0
197.599442 128.0
197.647827 152.0
197.686188 212.0
197.728165 148.0
197.749634 292.0
197.789749 84.0
197.820541 176.0
197.842941 124.0
197.862534 96.0
197.894073 60.0
197.943161 196.0
197.985748 176.0
198.044907 4572.0
198.109482 112.0
198.173431 44.0
198.230484 88.0
198.285522 172.0
198.397278 120.0
198.438492 120.0
198.493851 64.0
198.543457 176.0
198.568695 116.0
198.622314 172.0
198.650558 132.0
198.809982 56.0
198.843658 300.0
198.89035 164.0
198.950333 180.0
198.969986 148.0
198.990601 292.0
199.037216 664.0
199.116302 112.0
199.158127 132.0
199.24762 140.0
199.411011 276.0
199.453171 180.0
199.48584 104.0
199.515015 112.0
199.619064 56.0
199.658432 192.0
199.751251 144.0
199.796265 80.0
199.85817 184.0
199.880676 96.0
199.903183 212.0
199.975616 60.0
200.040344 176.0
200.125565 148.0
200.150909 140.0
200.286087 196.0
200.455139 76.0
200.480499 144.0
200.548141 120.0
200.650955 196.0
200.656494 92.0
200.667572 144.0
200.725769 40.0
200.750839 184.0
200.872421 192.0
200.917557 148.0
200.976822 48.0
201.042343 324.0
201.061859 136.0
201.073349 116.0
201.079819 292.0
201.126389 72.0
201.15744 32.0
201.273712 156.0
201.343811 48.0
201.374878 160.0
201.463654 80.0
201.558502 216.0
201.578293 116.0
201.651764 68.0
201.677765 140.0
201.719604 176.0
201.781799 176.0
201.827042 132.0
201.866638 176.0
201.926025 80.0
201.951279 116.0
201.960892 172.0
201.999496 168.0
202.032059 148.0
202.078461 6776.0
202.128067 164.0
202.160843 296.0
202.183487 236.0
202.211792 76.0
202.254242 140.0
202.272629 136.0
202.32869 176.0
202.352493 188.0
202.37355 140.0
202.451172 224.0
202.514755 388.0
202.535995 152.0
202.557236 180.0
202.586899 144.0
202.614899 216.0
202.644455 168.0
202.720398 96.0
202.738571 136.0
202.795258 148.0
202.82077 164.0
202.840622 268.0
202.860458 148.0
202.894485 60.0
202.939178 96.0
202.971664 140.0
203.006638 108.0
203.084869 17000.0
203.128189 52.0
203.160706 120.0
203.22348 28.0
203.253082 112.0
203.285919 84.0
203.319092 104.0
203.34552 132.0
203.42215 248.0
203.450546 116.0
203.511749 172.0
203.519455 236.0
203.547089 112.0
203.620926 136.0
203.728867 68.0
203.755905 180.0
203.808411 132.0
203.890823 204.0
203.913559 232.0
203.953354 192.0
204.00737 104.0
204.039566 172.0
204.089584 5532.0
204.151123 140.0
204.197891 160.0
204.328751 140.0
204.452713 184.0
204.560928 136.0
204.630432 72.0
204.672546 164.0
204.698776 176.0
204.798462 72.0
204.87822 68.0
204.906708 148.0
204.949448 176.0
205.000748 128.0
205.030853 64.0
205.037552 96.0
205.094986 944.0
205.154663 184.0
205.191727 180.0
205.212357 172.0
205.238876 120.0
205.282974 132.0
205.302933 48.0
205.374237 44.0
205.414169 60.0
205.442703 284.0
205.491211 104.0
205.584564 56.0
205.625336 160.0
205.644409 152.0
205.708115 88.0
205.730942 40.0
205.805176 80.0
205.882278 172.0
205.925125 120.0
205.997665 272.0
206.043289 176.0
206.067963 304.0
206.099533 192.0
206.150833 140.0
206.176544 160.0
206.276596 120.0
206.320831 128.0
206.38855 148.0
206.425262 132.0
206.459579 132.0
206.502487 164.0
206.528229 240.0
206.586655 300.0
206.618622 180.0
206.691895 160.0
206.754257 112.0
206.883072 168.0
206.917419 148.0
207.077347 260.0
207.198105 28.0
207.288147 188.0
207.49617 220.0
207.570724 112.0
207.669937 196.0
207.699234 164.0
207.707443 132.0
207.737076 164.0
207.763672 164.0
207.862549 236.0
207.958038 132.0
207.978134 88.0
208.033676 892.0
208.08876 164.0
208.095703 88.0
208.107315 160.0
208.167618 200.0
208.225052 128.0
208.278412 132.0
208.319855 176.0
208.42453 156.0
208.506622 256.0
208.635971 192.0
208.702103 144.0
208.745239 176.0
208.81282 136.0
208.955215 124.0
209.039993 1600.0
209.091736 156.0
209.118164 276.0
209.240158 156.0
209.303497 216.0
209.407181 116.0
209.626129 40.0
209.660721 100.0
209.885574 136.0
209.957672 36.0
209.996429 236.0
210.048523 9240.0
210.098358 164.0
210.135117 124.0
210.177948 168.0
210.312561 48.0
210.432617 136.0
210.488663 136.0
210.592636 60.0
210.635971 104.0
210.663437 160.0
210.699524 144.0
210.719742 112.0
210.763092 96.0
210.79776 148.0
210.860748 116.0
210.873093 64.0
210.914642 164.0
210.989182 216.0
211.056442 4864.0
211.09552 164.0
211.117676 176.0
211.196747 384.0
211.252823 52.0
211.277756 44.0
211.298004 140.0
211.387695 112.0
211.429596 92.0
211.558472 216.0
211.659805 112.0
211.723526 248.0
211.79303 88.0
211.813309 80.0
211.856766 36.0
211.955276 48.0
212.028244 736.0
212.051849 352.0
212.09288 196.0
212.129181 128.0
212.279953 136.0
212.364059 32.0
212.452011 112.0
212.477188 124.0
212.512009 120.0
212.558441 124.0
212.59761 128.0
212.712265 156.0
212.763382 168.0
212.819351 184.0
212.86615 160.0
212.914764 108.0
212.981491 140.0
213.036118 20272.0
213.105667 156.0
213.138153 88.0
213.160339 160.0
213.316498 140.0
213.371735 72.0
213.397675 84.0
213.470596 120.0
213.511307 44.0
213.551483 64.0
213.595657 168.0
213.720764 176.0
213.76442 200.0
213.802246 148.0
213.841141 176.0
213.872101 76.0
213.912735 200.0
213.959442 104.0
214.002731 240.0
214.038727 2508.0
214.099213 136.0
214.139984 100.0
214.19783 144.0
214.221542 176.0
214.441101 184.0
214.473816 160.0
214.512955 148.0
214.541534 100.0
214.570068 116.0
214.696655 72.0
214.763794 196.0
214.774063 156.0
214.959213 200.0
214.988403 112.0
215.032806 940.0
215.078873 52.0
215.140182 112.0
215.248215 44.0
215.335831 128.0
215.365036 108.0
215.422592 160.0
215.478973 104.0
215.543243 44.0
215.575546 80.0
215.651382 184.0
215.677689 52.0
215.70108 48.0
215.724319 160.0
215.750778 156.0
215.782928 140.0
215.804688 132.0
215.891129 144.0
215.934998 216.0
215.9935 136.0
216.026398 212.0
216.072479 116.0
216.264359 148.0
216.289047 144.0
216.332962 168.0
216.400299 172.0
216.436569 196.0
216.482285 68.0
216.558426 168.0
216.593582 132.0
216.616196 156.0
216.625916 112.0
216.632538 160.0
216.737137 140.0
216.788254 200.0
216.948166 280.0
217.006805 140.0
217.033951 220.0
217.068893 156.0
217.112381 132.0
217.270767 120.0
217.315643 232.0
217.358795 84.0
217.42923 148.0
217.531967 128.0
217.571747 152.0
217.643539 76.0
217.693451 152.0
217.714005 184.0
217.752197 60.0
217.790375 132.0
217.916702 116.0
217.999832 264.0
218.068848 280.0
218.088074 128.0
218.112366 124.0
218.190033 140.0
218.224213 212.0
218.271545 216.0
218.319992 204.0
218.390015 104.0
218.437073 136.0
218.457306 128.0
218.487091 100.0
218.533752 144.0
218.704849 200.0
218.828491 56.0
218.894745 160.0
219.010712 208.0
219.114685 144.0
219.155441 108.0
219.215118 80.0
219.243851 128.0
219.264282 124.0
219.30574 40.0
219.343704 200.0
219.398529 160.0
219.436722 168.0
219.463318 112.0
219.547516 64.0
219.621246 48.0
219.798584 140.0
219.824814 60.0
219.848434 104.0
219.874985 52.0
219.90451 96.0
219.978302 156.0
220.029663 336.0
220.049149 240.0
220.0867 256.0
220.196808 100.0
220.232254 128.0
220.356323 132.0
220.38588 96.0
220.430786 204.0
220.518112 268.0
220.585083 268.0
220.616409 156.0
220.646713 144.0
220.687363 164.0
220.727921 148.0
220.771088 128.0
220.816345 260.0
220.86058 176.0
220.885529 216.0
220.907791 280.0
220.944397 276.0
220.979156 160.0
221.041885 83452.0
221.108459 168.0
221.119064 56.0
221.151764 108.0
221.199097 72.0
221.218506 84.0
221.22522 112.0
221.239868 100.0
221.247223 56.0
221.294189 92.0
221.322067 160.0
221.359085 140.0
221.383163 60.0
221.4077 168.0
221.432266 56.0
221.470734 160.0
221.498291 152.0
221.528854 588.0
221.575989 88.0
221.616348 180.0
221.641525 160.0
221.660248 108.0
221.680603 172.0
221.748474 116.0
221.804489 120.0
221.850372 64.0
221.894775 56.0
221.918243 148.0
221.956589 352.0
222.010422 76.0
222.045883 21224.0
222.098328 196.0
222.126724 44.0
222.147491 60.0
222.170517 52.0
222.23056 32.0
222.282166 124.0
222.322556 76.0
222.387115 48.0
222.435349 68.0
222.47084 88.0
222.554108 76.0
222.592972 136.0
222.628342 36.0
222.649124 128.0
222.721024 112.0
222.767944 32.0
222.805084 116.0
222.880127 180.0
222.941971 84.0
222.978912 32.0
223.044617 3680.0
223.114288 148.0
223.148361 68.0
223.189987 116.0
223.243515 124.0
223.311127 60.0
223.34761 116.0
223.395203 44.0
223.421692 140.0
223.430099 132.0
223.484467 224.0
223.526825 136.0
223.556473 120.0
223.57869 280.0
223.601517 96.0
223.627426 104.0
223.679794 140.0
223.706039 136.0
223.729446 168.0
223.791046 56.0
223.844986 100.0
223.907181 100.0
223.944199 188.0
224.051498 616.0
224.062637 1568.0
224.119629 196.0
224.163391 68.0
224.202133 104.0
224.271332 224.0
224.350967 220.0
224.392914 136.0
224.436172 228.0
224.522522 88.0
224.560623 84.0
224.602768 120.0
224.635681 120.0
224.667206 120.0
224.712051 148.0
224.750839 96.0
224.780685 36.0
224.805161 140.0
224.848694 160.0
224.882156 84.0
224.929916 60.0
225.043945 444.0
225.070221 1056.0
225.112457 116.0
225.144821 148.0
225.156754 144.0
225.201645 104.0
225.239716 100.0
225.264374 60.0
225.348022 104.0
225.48848 140.0
225.539291 48.0
225.569183 112.0
225.678543 132.0
225.70578 140.0
225.775497 124.0
225.82933 104.0
225.862244 48.0
225.896027 152.0
226.03714 252.0
226.072052 260.0
226.121277 140.0
226.152481 152.0
226.308167 244.0
226.332108 164.0
226.430939 128.0
226.454895 92.0
226.571732 120.0
226.700577 44.0
226.838913 132.0
226.970367 72.0
227.01535 104.0
227.051727 1620.0
227.132324 140.0
227.282333 240.0
227.380081 56.0
227.401627 128.0
227.429398 184.0
227.48024 64.0
227.560287 180.0
227.61853 120.0
227.66185 116.0
227.837891 136.0
227.864838 388.0
227.894882 152.0
228.023636 5088.0
228.100815 188.0
228.141342 80.0
228.213501 132.0
228.298843 168.0
228.366165 260.0
228.404358 104.0
228.597626 172.0
228.688828 180.0
228.708389 140.0
228.762192 128.0
228.904556 140.0
228.935715 104.0
229.026703 440.0
229.073166 132.0
229.128494 140.0
229.225708 136.0
229.297241 44.0
229.339432 56.0
229.425934 92.0
229.487152 120.0
229.514297 96.0
229.562546 160.0
229.652176 156.0
229.659378 112.0
229.669113 168.0
229.758606 64.0
229.822906 128.0
229.849121 188.0
229.937149 180.0
229.966827 44.0
230.017044 236.0
230.08757 164.0
230.154602 120.0
230.52005 192.0
230.545639 168.0
230.679703 180.0
230.746216 128.0
230.844376 148.0
231.018417 152.0
231.072876 84.0
231.09787 260.0
231.260498 96.0
231.330124 172.0
231.384613 36.0
231.545105 120.0
231.735947 132.0
231.766251 60.0
231.891785 132.0
231.910431 132.0
232.035202 356.0
232.117889 240.0
232.15303 196.0
232.201767 200.0
232.290756 128.0
232.360535 184.0
232.481918 172.0
232.608246 228.0
232.806763 116.0
232.843201 204.0
232.873062 312.0
232.916092 176.0
232.982925 76.0
233.004196 124.0
233.039307 680.0
233.128784 92.0
233.18956 224.0
233.253937 136.0
233.292923 132.0
233.320282 192.0
233.371964 136.0
233.438873 44.0
233.487534 104.0
233.514893 92.0
233.593155 192.0
233.657867 48.0
233.724808 188.0
233.76825 88.0
233.788712 156.0
233.849594 180.0
233.884476 156.0
233.934814 128.0
233.965271 176.0
234.006454 140.0
234.0495 17580.0
234.154068 412.0
234.233261 132.0
234.297989 176.0
234.344879 104.0
234.400131 52.0
234.432159 212.0
234.48616 128.0
234.538757 172.0
234.569305 172.0
234.613892 80.0
234.643921 128.0
234.688599 128.0
234.750626 188.0
234.766449 120.0
234.776199 160.0
234.805908 96.0
234.859009 180.0
234.905258 108.0
234.930374 180.0
234.955765 484.0
234.995728 384.0
235.057251 77404.0
235.145111 72.0
235.171173 68.0
235.197327 52.0
235.250275 88.0
235.27153 120.0
235.295563 96.0
235.319901 52.0
235.341736 148.0
235.396164 128.0
235.446808 148.0
235.484253 196.0
235.514633 160.0
235.560501 272.0
235.640579 80.0
235.697922 64.0
235.704514 164.0
235.766571 136.0
235.800964 128.0
235.841248 316.0
235.860977 116.0
235.936279 256.0
235.964142 124.0
236.006393 208.0
236.063812 57056.0
236.148666 68.0
236.171906 120.0
236.220261 104.0
236.246109 76.0
236.286987 172.0
236.346344 84.0
236.391953 280.0
236.428101 108.0
236.46051 76.0
236.511246 84.0
236.539139 252.0
236.566772 200.0
236.600021 60.0
236.632843 256.0
236.674942 60.0
236.700226 152.0
236.7052 80.0
236.726822 156.0
236.777634 64.0
236.838272 128.0
236.880402 180.0
236.908737 80.0
236.939987 68.0
236.964493 200.0
237.069962 23596.0
237.157623 124.0
237.195251 68.0
237.255997 108.0
237.335693 232.0
237.390579 144.0
237.428833 80.0
237.464172 72.0
237.491791 44.0
237.534943 172.0
237.585571 56.0
237.625229 80.0
237.660522 116.0
237.683533 124.0
237.71904 164.0
237.77951 152.0
237.81572 168.0
237.873428 108.0
237.885941 80.0
237.909546 84.0
237.947083 188.0
237.971222 152.0
238.070053 2576.0
238.11496 132.0
238.277679 60.0
238.310501 172.0
238.374695 76.0
238.420532 180.0
238.485107 188.0
238.505844 224.0
238.557037 168.0
238.618546 264.0
238.649139 80.0
238.702591 196.0
238.729538 168.0
238.754135 100.0
238.843338 84.0
238.914093 136.0
238.972549 64.0
239.00824 160.0
239.017929 96.0
239.061234 1352.0
239.078918 1052.0
239.138718 56.0
239.200287 156.0
239.240311 196.0
239.283417 56.0
239.332169 72.0
239.388107 64.0
239.449692 84.0
239.546539 76.0
239.636261 108.0
239.674591 60.0
239.715744 112.0
239.768784 120.0
239.781723 68.0
239.794281 124.0
239.914993 156.0
239.952942 168.0
240.082809 408.0
240.152451 72.0
240.201797 132.0
240.269669 44.0
240.294357 60.0
240.369568 128.0
240.448639 152.0
240.476425 84.0
240.553589 132.0
240.615341 48.0
240.683273 132.0
240.754288 216.0
240.779007 148.0
240.823547 132.0
240.874756 148.0
240.955078 68.0
240.9767 180.0
241.038025 104.0
241.070847 424.0
241.369263 132.0
241.434204 60.0
241.573395 156.0
241.625992 156.0
241.675491 104.0
241.780716 68.0
242.037186 556.0
242.090302 172.0
242.269958 64.0
242.497437 68.0
242.573654 44.0
242.626358 108.0
242.685272 164.0
242.752075 96.0
242.905472 160.0
242.99234 176.0
243.026474 124.0
243.078888 76.0
243.110245 200.0
243.144394 36.0
243.194046 88.0
243.319672 188.0
243.438858 108.0
243.516968 44.0
243.622589 104.0
243.771729 168.0
243.855637 124.0
243.914703 148.0
243.967545 120.0
243.996872 188.0
244.04216 260.0
244.063934 88.0
244.108643 824.0
244.169662 104.0
244.213211 92.0
244.294083 128.0
244.353851 192.0
244.384308 72.0
244.505676 132.0
244.575195 72.0
244.757843 100.0
244.807663 164.0
245.007111 564.0
245.115143 372.0
245.200211 72.0
245.278137 132.0
245.334259 48.0
245.540054 52.0
245.593491 152.0
245.711624 160.0
245.823959 124.0
245.892609 40.0
246.011627 128.0
246.050186 88.0
246.086166 104.0
246.116089 236.0
246.167343 108.0
246.345383 104.0
246.42662 208.0
246.544266 136.0
246.617249 68.0
246.73291 76.0
246.786072 136.0
246.883011 48.0
246.92366 212.0
247.064423 276.0
247.098846 96.0
247.129868 328.0
247.330429 68.0
247.398575 156.0
247.48204 140.0
247.51828 124.0
247.678009 88.0
247.750061 132.0
247.784515 196.0
247.862854 68.0
247.891052 80.0
247.922394 64.0
247.947464 152.0
247.976578 124.0
248.010391 104.0
248.053452 540.0
248.141815 192.0
248.215271 160.0
248.252075 172.0
248.301361 264.0
248.337845 188.0
248.486832 164.0
248.518204 84.0
248.571548 116.0
248.696365 156.0
248.967102 140.0
249.059021 624.0
249.143005 76.0
249.18071 124.0
249.205841 72.0
249.237259 104.0
249.619202 88.0
249.765442 96.0
249.822067 92.0
249.857971 92.0
249.884995 88.0
249.93219 140.0
249.988831 88.0
250.067795 6412.0
250.161957 152.0
250.206024 36.0
250.237503 160.0
250.281586 108.0
250.328827 112.0
250.489456 56.0
250.558762 128.0
250.637543 152.0
250.766754 48.0
250.839249 52.0
250.926208 172.0
250.996567 116.0
251.052353 2644.0
251.08284 1596.0
251.203827 56.0
251.226639 76.0
251.234833 64.0
251.285187 80.0
251.356506 116.0
251.396469 72.0
251.482742 48.0
251.555344 112.0
251.577438 140.0
251.634277 72.0
251.764603 192.0
251.845856 124.0
251.8806 36.0
251.97287 124.0
252.025833 408.0
252.056137 1096.0
252.272461 148.0
252.411575 60.0
252.443207 88.0
252.607681 200.0
252.661453 100.0
252.819672 68.0
253.005569 612.0
253.066788 14536.0
253.144653 128.0
253.190536 188.0
253.235947 92.0
253.28511 184.0
253.307724 144.0
253.352402 216.0
253.386002 52.0
253.432358 92.0
253.482025 156.0
253.538589 76.0
253.596481 164.0
253.649521 180.0
253.687561 160.0
253.763657 48.0
253.827072 144.0
253.868301 148.0
253.933319 64.0
254.028473 168.0
254.068863 2612.0
254.163315 108.0
254.21521 180.0
254.271667 56.0
254.401352 64.0
254.472229 136.0
254.582352 196.0
254.62442 208.0
254.783844 128.0
254.826935 88.0
254.927856 148.0
254.963577 228.0
254.992188 136.0
255.066299 784.0
255.243332 84.0
255.329208 52.0
255.354645 72.0
255.391327 60.0
255.440536 40.0
255.485077 104.0
255.526428 128.0
255.561432 56.0
255.653717 84.0
255.707809 148.0
255.736465 108.0
255.789719 148.0
255.838333 52.0
255.879715 96.0
255.935532 144.0
255.975235 84.0
256.012726 160.0
256.0578 228.0
256.08252 148.0
256.163147 188.0
256.309723 80.0
256.411713 104.0
256.532837 100.0
256.602966 120.0
256.634857 100.0
256.727325 80.0
256.909149 140.0
257.014435 124.0
257.071869 172.0
257.244232 120.0
257.295807 204.0
257.483704 152.0
257.541779 108.0
257.662598 152.0
257.742462 92.0
257.847931 224.0
257.905457 232.0
257.93103 92.0
258.042938 104.0
258.078094 128.0
258.127686 520.0
258.375549 76.0
258.426758 196.0
258.513153 104.0
258.535553 112.0
258.641174 96.0
258.823669 120.0
258.858887 104.0
258.990204 72.0
259.022247 96.0
259.044647 128.0
259.067078 184.0
259.129395 616.0
259.243317 40.0
259.304199 80.0
259.538239 44.0
259.608795 112.0
259.695374 108.0
259.8237 68.0
259.849365 76.0
259.923157 124.0
260.066681 312.0
260.136719 392.0
260.179932 100.0
260.468964 140.0
260.671387 156.0
260.735657 188.0
260.857788 148.0
260.896362 80.0
260.931732 148.0
261.00238 3864.0
261.070587 516.0
261.130493 80.0
261.388489 28.0
261.642761 176.0
261.892883 156.0
262.005157 764.0
262.065521 748.0
262.320129 124.0
262.364441 72.0
262.712738 76.0
262.777283 116.0
262.877319 180.0
262.94809 120.0
262.998383 264.0
263.072937 712.0
263.203339 140.0
263.232391 116.0
263.335754 104.0
263.435883 104.0
263.48111 180.0
263.581299 160.0
263.670349 216.0
263.726715 84.0
263.771973 136.0
263.8237 108.0
263.914215 100.0
263.998291 112.0
264.081696 2252.0
264.215027 124.0
264.321808 136.0
264.473907 172.0
264.56131 84.0
264.596924 80.0
264.629303 56.0
264.696625 152.0
264.736176 72.0
264.768555 28.0
264.89978 124.0
265.016266 120.0
265.087646 644.0
265.184296 176.0
265.416931 160.0
265.606567 140.0
265.637238 180.0
265.695618 152.0
265.718353 204.0
265.779999 84.0
265.894623 148.0
266.005859 148.0
266.040436 828.0
266.095154 500.0
266.124054 116.0
266.582092 132.0
266.9104 100.0
266.962433 116.0
267.047028 832.0
267.098969 144.0
267.177124 56.0
267.421173 92.0
267.578278 124.0
267.613251 68.0
267.653656 128.0
267.684906 136.0
267.909637 96.0
267.938965 140.0
267.984589 188.0
268.054901 10028.0
268.136719 168.0
268.242035 172.0
268.313751 68.0
268.336578 108.0
268.362671 144.0
268.410339 156.0
268.470276 84.0
268.553558 108.0
268.594238 48.0
268.697205 128.0
268.722687 212.0
268.80957 44.0
268.838776 172.0
268.90094 76.0
268.953156 72.0
269.006775 304.0
269.057404 2824.0
269.184967 120.0
269.214355 52.0
269.237213 68.0
269.335205 56.0
269.443024 56.0
269.565765 72.0
269.601501 64.0
269.671753 184.0
269.717529 116.0
269.785431 196.0
269.962738 132.0
270.005249 172.0
270.053345 840.0
270.1492 76.0
270.316071 52.0
270.469879 160.0
270.512451 140.0
270.735077 148.0
270.838989 180.0
270.961121 104.0
271.015381 252.0
271.050842 156.0
271.085449 148.0
271.138062 108.0
271.24295 112.0
271.292114 132.0
271.488861 272.0
271.705353 56.0
271.908813 48.0
272.050354 168.0
272.082794 132.0
272.141876 156.0
272.25354 52.0
272.338928 28.0
272.565613 52.0
273.00824 180.0
273.096893 128.0
273.135712 196.0
273.223236 168.0
273.318634 128.0
273.496368 216.0
273.710358 104.0
273.792694 112.0
274.018494 88.0
274.064056 244.0
274.170135 344.0
274.359467 40.0
274.402313 68.0
274.626556 204.0
274.936707 80.0
275.020386 288.0
275.075623 848.0
275.157867 128.0
275.180969 56.0
275.382416 76.0
275.557495 104.0
275.867065 216.0
276.081512 2416.0
276.157227 176.0
276.245178 52.0
276.301422 112.0
276.341125 96.0
276.384125 36.0
276.47348 160.0
276.638977 132.0
276.821106 104.0
276.897278 152.0
276.940338 32.0
277.084442 616.0
277.447327 140.0
277.473877 72.0
277.543488 92.0
277.60318 148.0
277.715942 200.0
278.098724 2944.0
278.280121 36.0
278.309998 52.0
278.452789 176.0
278.476044 132.0
278.519928 76.0
278.701965 52.0
278.804962 124.0
278.868103 144.0
278.961182 56.0
279.027679 164.0
279.098969 996.0
279.157379 156.0
279.393524 84.0
279.69635 48.0
279.722992 232.0
279.892792 320.0
280.005585 148.0
280.116302 888.0
280.302521 120.0
280.374207 148.0
280.432495 88.0
280.48584 116.0
280.622528 176.0
280.722565 32.0
280.813477 152.0
280.976074 168.0
281.010529 164.0
281.084137 112.0
281.107727 96.0
281.209656 84.0
281.396606 152.0
281.463379 56.0
281.520142 108.0
281.606995 100.0
281.820801 148.0
281.870911 68.0
282.022705 228.0
282.109711 224.0
282.129303 144.0
282.161713 140.0
282.197998 108.0
282.432587 84.0
282.57309 140.0
282.606567 172.0
282.891052 88.0
282.93457 112.0
282.989441 176.0
283.022339 132.0
283.088593 160.0
283.396759 104.0
283.507355 100.0
283.747925 188.0
283.77887 180.0
283.882843 36.0
284.023895 420.0
284.131042 188.0
284.241791 112.0
284.412933 196.0
284.463287 116.0
284.490143 108.0
285.010742 116.0
285.043457 120.0
285.104828 172.0
285.188873 184.0
285.303162 60.0
285.343506 124.0
285.518372 124.0
285.666382 144.0
285.945648 144.0
285.996155 108.0
286.033295 112.0
286.130798 96.0
286.174561 140.0
286.423798 40.0
286.662994 100.0
286.804565 124.0
286.94278 140.0
287.020996 112.0
287.067535 72.0
287.113556 108.0
287.155243 80.0
287.256409 140.0
287.624237 204.0
287.759277 72.0
287.799805 44.0
287.894348 112.0
287.955139 160.0
288.07782 88.0
288.516083 168.0
288.664856 52.0
288.971558 240.0
289.063446 180.0
289.089386 244.0
289.196045 156.0
289.26712 60.0
289.378845 116.0
289.600616 116.0
289.89035 56.0
290.023865 160.0
290.097931 964.0
290.195404 172.0
290.385315 136.0
290.490479 40.0
290.755157 108.0
290.806061 192.0
291.019928 148.0
291.047089 212.0
291.098267 1020.0
291.162567 148.0
291.203308 148.0
291.269989 120.0
291.376556 52.0
291.434326 100.0
291.665436 68.0
291.80481 140.0
291.85141 228.0
292.012238 84.0
292.039978 316.0
292.113556 7792.0
292.188293 96.0
292.225311 152.0
292.287811 160.0
292.338867 164.0
292.376282 108.0
292.430756 68.0
292.621399 116.0
292.661316 148.0
292.696289 128.0
292.790314 132.0
292.852966 64.0
292.876801 96.0
292.900635 40.0
292.931305 104.0
293.04715 92.0
293.112244 6644.0
293.183441 88.0
293.248199 96.0
293.29129 56.0
293.322266 132.0
293.442535 44.0
293.524353 48.0
293.641357 132.0
293.759705 60.0
293.848389 120.0
293.906403 148.0
293.974762 208.0
294.024719 208.0
294.115601 2604.0
294.251373 56.0
294.305786 48.0
294.377472 44.0
294.401398 180.0
294.435547 172.0
294.565338 104.0
294.626831 208.0
294.657593 40.0
294.684906 72.0
294.814758 164.0
294.883118 48.0
294.948059 44.0
295.013031 112.0
295.036957 168.0
295.075623 148.0
295.112274 484.0
295.234283 124.0
295.358398 100.0
295.484985 60.0
295.676605 52.0
295.707428 64.0
295.762177 48.0
296.025818 36.0
296.11142 108.0
296.135406 180.0
296.179932 36.0
296.203918 124.0
296.245026 68.0
296.286133 76.0
296.381714 148.0
296.447174 52.0
296.532867 76.0
296.724823 96.0
296.862 124.0
296.974121 92.0
297.036926 120.0
297.09137 144.0
297.136414 168.0
297.184448 128.0
297.620361 192.0
297.737122 52.0
297.905426 208.0
298.029114 116.0
298.390015 44.0
298.472534 116.0
298.744263 128.0
298.81308 152.0
299.018097 280.0
299.126251 120.0
299.181335 84.0
299.350037 132.0
299.377594 64.0
299.515381 140.0
299.563599 128.0
299.598053 104.0
299.846161 336.0
299.956451 40.0
299.980591 92.0
300.0047 64.0
300.032288 112.0
300.090912 108.0
300.190918 168.0
300.266785 148.0
300.463409 192.0
300.722229 144.0
301.031189 528.0
301.117279 124.0
301.178772 264.0
301.229828 164.0
301.267822 100.0
301.447479 188.0
301.537354 96.0
301.634125 104.0
301.883057 76.0
302.03775 324.0
302.090607 152.0
302.187775 132.0
302.367432 172.0
302.498962 104.0
302.530121 160.0
302.588959 68.0
302.779419 100.0
302.810608 52.0
302.91684 136.0
302.981262 136.0
303.041077 164.0
303.066956 152.0
303.105835 160.0
303.146637 160.0
303.187012 148.0
303.284729 124.0
303.389282 152.0
303.517578 148.0
303.604279 60.0
303.666687 180.0
303.697906 184.0
303.724396 180.0
303.770355 160.0
303.782135 144.0
303.850739 152.0
303.88382 88.0
303.907654 272.0
303.944244 124.0
304.046021 55452.0
304.113586 796.0
304.161682 208.0
304.203339 104.0
304.235657 116.0
304.24173 56.0
304.257568 44.0
304.291351 88.0
304.343414 68.0
304.378754 148.0
304.425781 56.0
304.461487 92.0
304.514984 132.0
304.565704 92.0
304.616211 140.0
304.683868 140.0
304.746704 200.0
304.768982 132.0
304.783356 80.0
304.806335 120.0
304.885345 152.0
304.958344 116.0
305.006897 132.0
305.047852 9548.0
305.112366 652.0
305.17984 100.0
305.23645 104.0
305.265717 104.0
305.357727 188.0
305.36972 164.0
305.412018 100.0
305.486877 52.0
305.533478 112.0
305.583649 64.0
305.617035 100.0
305.646942 76.0
305.675995 148.0
305.737427 60.0
305.766022 220.0
305.820953 36.0
305.870605 76.0
305.939301 56.0
306.04248 5132.0
306.11911 988.0
306.217865 92.0
306.28833 160.0
306.404938 40.0
306.493103 100.0
306.520477 56.0
306.546051 84.0
306.573242 36.0
306.615082 112.0
306.655701 64.0
306.789764 88.0
306.83078 136.0
306.871368 200.0
306.88501 204.0
306.98114 76.0
307.044983 628.0
307.126556 1132.0
307.190399 88.0
307.225159 104.0
307.269684 160.0
307.302368 212.0
307.473053 160.0
307.535858 64.0
307.603821 132.0
307.709045 76.0
307.898987 180.0
308.035278 392.0
308.077118 52.0
308.128265 356.0
308.192413 72.0
308.325226 124.0
308.468536 144.0
308.49649 64.0
308.733185 128.0
308.975616 60.0
309.046844 152.0
309.129242 168.0
309.217072 76.0
309.409607 32.0
309.61972 60.0
309.7388 52.0
309.822876 76.0
309.942139 112.0
309.973541 60.0
310.005096 220.0
310.076233 308.0
310.103027 80.0
310.118988 168.0
310.235992 64.0
310.394196 68.0
310.418762 60.0
310.461945 172.0
310.516937 68.0
310.545013 56.0
310.737946 116.0
310.846741 108.0
311.03775 176.0
311.115509 180.0
311.155609 160.0
311.313629 192.0
311.436554 104.0
311.483551 264.0
311.714111 76.0
311.868744 96.0
312.0867 148.0
312.496918 52.0
312.691803 128.0
312.783325 120.0
312.920624 128.0
313.022736 104.0
313.050903 224.0
313.163605 180.0
313.649872 104.0
313.727417 32.0
313.879028 148.0
314.013062 132.0
314.521149 132.0
314.567047 128.0
314.980194 108.0
315.075592 120.0
315.397186 128.0
315.428986 92.0
315.552734 112.0
315.764893 100.0
316.065613 244.0
316.331055 88.0
316.387695 160.0
316.614319 96.0
316.646179 140.0
317.058777 236.0
317.899414 180.0
317.940277 160.0
318.007721 160.0
318.061615 1560.0
318.117432 140.0
318.497711 40.0
318.632721 192.0
318.682465 184.0
318.806824 164.0
318.870789 128.0
319.064331 448.0
319.099487 196.0
319.129547 200.0
319.226318 52.0
319.475311 136.0
319.681671 76.0
319.888123 168.0
320.058777 368.0
320.131775 1600.0
320.22641 128.0
320.329681 28.0
320.4245 92.0
320.507843 52.0
320.536346 152.0
320.611176 48.0
320.72879 84.0
320.882111 140.0
320.946289 212.0
320.989075 108.0
321.063965 76.0
321.139404 388.0
321.263702 92.0
321.360046 136.0
321.427826 112.0
321.745514 160.0
321.838348 40.0
322.066895 156.0
322.137085 344.0
322.213379 192.0
322.449219 60.0
322.62796 64.0
322.699463 180.0
322.745941 176.0
322.778137 148.0
322.821045 80.0
322.874695 108.0
323.146515 180.0
323.22171 48.0
323.246735 116.0
323.454346 208.0
323.547424 248.0
323.661987 92.0
323.704956 208.0
323.762268 120.0
324.034515 144.0
324.292511 64.0
324.407227 164.0
324.432312 64.0
324.539886 48.0
324.765808 192.0
325.022339 60.0
325.146149 168.0
325.361511 76.0
325.472839 188.0
325.519501 172.0
325.623657 68.0
325.699097 164.0
326.058411 116.0
326.438202 168.0
326.447876 108.0
326.612122 184.0
326.849579 176.0
326.997131 76.0
327.371552 140.0
327.504822 164.0
327.771423 208.0
327.811066 128.0
327.847107 48.0
327.881012 116.0
328.048157 400.0
328.113831 80.0
328.196777 120.0
328.337402 88.0
328.506927 164.0
328.63681 72.0
328.687347 140.0
328.84613 128.0
329.05127 512.0
329.13855 52.0
329.286621 160.0
329.600922 124.0
329.629852 132.0
329.835846 200.0
329.91394 160.0
329.946014 68.0
330.066071 400.0
330.349365 120.0
330.385529 44.0
330.772766 132.0
331.060455 216.0
331.232635 140.0
332.074646 420.0
332.153381 100.0
332.311554 80.0
332.534393 140.0
332.565155 100.0
332.766724 32.0
332.879272 52.0
332.922852 80.0
332.999146 244.0
333.074005 248.0
333.133636 300.0
333.193481 80.0
333.39151 60.0
333.544189 132.0
333.660522 100.0
333.845947 96.0
334.005981 144.0
334.048706 140.0
334.147217 2056.0
334.286133 144.0
334.32254 124.0
334.500885 160.0
334.733917 136.0
334.813049 164.0
334.850433 100.0
334.934235 160.0
334.999786 168.0
335.027313 100.0
335.156769 15600.0
335.218414 92.0
335.29129 64.0
335.33139 124.0
335.360535 48.0
335.426147 56.0
335.452728 124.0
335.582916 112.0
335.648285 108.0
335.689575 112.0
335.721497 48.0
335.747009 68.0
335.860107 64.0
335.914825 52.0
335.958588 60.0
335.991425 76.0
336.071686 44.0
336.159363 3888.0
336.265106 76.0
336.297943 136.0
336.360016 52.0
336.385559 44.0
336.432556 64.0
336.464966 48.0
336.535248 48.0
336.900635 108.0
336.962585 48.0
337.160492 1908.0
337.496246 76.0
337.587646 68.0
337.715668 44.0
337.913208 56.0
338.067871 352.0
338.158173 140.0
338.213318 80.0
338.268219 152.0
338.418335 92.0
338.456268 120.0
338.55014 96.0
338.660034 116.0
338.703979 76.0
338.768768 44.0
338.854187 52.0
338.97876 80.0
339.024017 172.0
339.08139 68.0
339.118042 108.0
339.173035 148.0
339.235138 136.0
339.422333 116.0
339.594696 116.0
339.657043 80.0
339.686401 136.0
339.895538 36.0
340.023987 96.0
340.082703 72.0
340.391113 92.0
340.604126 92.0
340.637177 84.0
340.989929 108.0
341.055939 264.0
341.254608 184.0
341.383331 132.0
341.640808 176.0
341.729095 128.0
342.056213 1052.0
342.108185 184.0
342.167084 156.0
342.383942 72.0
342.424866 128.0
342.454315 160.0
342.513245 88.0
342.55542 172.0
342.760101 120.0
342.826447 128.0
342.922272 104.0
343.068146 312.0
343.165558 304.0
343.198761 84.0
343.243011 76.0
343.328918 80.0
343.490112 120.0
343.527008 204.0
343.623383 168.0
343.696716 68.0
343.740997 120.0
343.817474 160.0
343.84549 244.0
343.87265 96.0
343.889954 100.0
343.896912 132.0
343.932861 160.0
343.956909 88.0
343.964294 280.0
344.076538 42456.0
344.163086 128.0
344.217224 64.0
344.25415 28.0
344.302155 108.0
344.362762 100.0
344.391785 104.0
344.446747 220.0
344.493408 144.0
344.563324 148.0
344.622162 76.0
344.684479 136.0
344.721405 140.0
344.780853 116.0
344.863251 204.0
344.939423 128.0
344.963196 160.0
345.004211 116.0
345.078522 10040.0
345.148529 156.0
345.184296 116.0
345.199036 76.0
345.234253 112.0
345.26059 80.0
345.312866 60.0
345.338104 60.0
345.425812 100.0
345.489441 100.0
345.547882 44.0
345.661591 72.0
345.687592 196.0
345.766235 160.0
345.827576 68.0
345.861237 120.0
345.977966 180.0
346.082245 4780.0
346.186127 48.0
346.251251 136.0
346.280853 80.0
346.323914 80.0
346.366058 52.0
346.399414 148.0
346.449707 104.0
346.504822 96.0
346.593048 92.0
346.692596 60.0
346.740295 76.0
346.887512 240.0
346.931152 132.0
346.97049 140.0
347.087341 1588.0
347.151825 136.0
347.185181 64.0
347.235382 136.0
347.415161 160.0
347.438843 136.0
347.522766 80.0
347.593262 60.0
347.66748 84.0
347.719452 52.0
347.778839 136.0
347.80481 104.0
347.90506 68.0
347.938477 32.0
347.997864 116.0
348.027557 52.0
348.085571 624.0
348.147339 96.0
348.276398 160.0
348.315033 120.0
348.36554 116.0
348.410126 128.0
348.457245 76.0
348.547607 64.0
348.59964 160.0
348.703705 120.0
348.852386 56.0
349.002258 116.0
349.084412 144.0
349.116394 64.0
349.157288 72.0
349.194489 48.0
349.227966 132.0
349.253998 80.0
349.415283 124.0
349.488373 104.0
349.685608 128.0
350.054199 120.0
350.082367 120.0
350.162201 72.0
350.237854 64.0
350.275879 100.0
350.978333 72.0
351.030548 76.0
351.067841 64.0
351.15097 224.0
351.336395 84.0
351.481934 172.0
351.638672 60.0
352.1427 128.0
352.258514 132.0
352.374329 60.0
352.456543 80.0
352.50885 76.0
353.077087 128.0
354.155029 104.0
355.658661 72.0
355.725189 84.0
356.072754 328.0
356.210663 68.0
357.022552 68.0
357.080566 172.0
358.049988 144.0
358.095184 148.0
358.973328 88.0
359.066528 128.0
359.079742 92.0
359.087891 148.0
359.233582 76.0
359.278839 64.0
360.041321 44.0
360.097992 200.0
360.139526 224.0
361.076904 164.0
361.144989 52.0
361.203033 128.0
361.349274 132.0
361.443848 92.0
361.886719 80.0
362.10257 104.0
362.132874 120.0
362.604492 68.0
362.736877 120.0
362.947693 152.0
363.057678 124.0
363.100525 120.0
363.125946 184.0
363.163849 32.0
363.368713 64.0
363.482544 160.0
363.543274 44.0
363.865906 96.0
364.329254 64.0
364.561035 76.0
364.747284 124.0
364.773895 92.0
365.679199 100.0
365.93045 132.0
366.07135 152.0
366.395111 80.0
366.688538 156.0
366.880798 152.0
367.001129 60.0
369.273407 100.0
369.48761 72.0
369.977509 156.0
370.456207 60.0
370.670776 44.0
370.778076 96.0
371.065582 68.0
371.107758 128.0
371.334015 100.0
371.656281 140.0
371.694641 264.0
371.982513 172.0
372.088928 128.0
372.59314 112.0
373.096588 168.0
373.838959 112.0
374.146912 168.0
375.115356 120.0
375.433899 192.0
375.49176 48.0
375.703918 164.0
375.76178 124.0
376.116821 152.0
377.476807 104.0
378.502289 92.0
378.683838 132.0
378.750153 156.0
378.893494 52.0
378.982605 92.0
379.668762 120.0
380.514679 64.0
380.673889 160.0
380.891388 132.0
380.957428 164.0
381.054565 100.0
381.097626 184.0
381.793152 72.0
382.107422 196.0
382.637543 128.0
382.762146 80.0
383.035553 116.0
383.112701 104.0
383.206207 84.0
383.451691 52.0
383.962463 104.0
384.088287 292.0
384.637482 172.0
384.957642 160.0
385.637451 176.0
385.774261 68.0
385.828979 92.0
386.161377 108.0
386.255249 104.0
386.607391 108.0
386.846161 80.0
386.979279 120.0
387.113098 476.0
387.169922 188.0
387.241669 172.0
387.539917 144.0
388.114716 420.0
388.233246 36.0
388.319519 88.0
388.468567 80.0
389.010132 84.0
389.10437 136.0
389.245728 192.0
389.273193 108.0
390.023621 168.0
390.121918 120.0
391.333679 100.0
391.57785 124.0
391.680267 60.0
391.857544 68.0
392.097931 140.0
392.547363 76.0
392.701172 60.0
392.765778 116.0
393.379883 124.0
393.553589 124.0
393.683289 152.0
394.160004 108.0
394.454376 176.0
394.493927 120.0
395.146484 100.0
395.190002 32.0
395.257263 92.0
395.364105 148.0
395.748108 176.0
395.946106 200.0
396.049072 44.0
396.199615 172.0
396.409607 148.0
396.714813 76.0
397.404938 48.0
397.599365 84.0
398.079742 92.0
398.20285 168.0
398.504791 40.0
399.116394 772.0
399.224274 120.0
399.582275 76.0
399.614105 120.0
399.777252 128.0
400.118683 456.0
400.669189 176.0
400.78476 164.0
400.880371 176.0
400.924225 136.0
401.132294 5084.0
401.207245 112.0
401.338806 144.0
401.402618 36.0
401.446472 32.0
401.478394 72.0
401.583862 72.0
401.702545 60.0
401.817444 48.0
401.914246 108.0
401.966339 140.0
402.135223 1508.0
402.192566 72.0
402.264435 68.0
402.372223 60.0
402.651733 100.0
402.679718 96.0
402.767578 136.0
402.815521 164.0
402.902008 52.0
403.133759 420.0
403.470917 36.0
403.618866 32.0
404.042847 64.0
404.147339 140.0
404.262909 76.0
404.371826 112.0
404.723267 40.0
404.771332 84.0
405.086548 108.0
405.316101 76.0
405.472412 132.0
405.877289 108.0
405.937439 72.0
406.402771 72.0
407.028259 116.0
407.426605 36.0
407.50293 48.0
407.752106 144.0
407.927277 48.0
408.097809 72.0
408.395416 164.0
409.30899 96.0
409.707733 40.0
410.17926 84.0
410.267944 60.0
410.513885 120.0
410.586487 76.0
411.514618 88.0
411.571167 136.0
411.664032 160.0
411.765015 204.0
412.169006 44.0
412.597443 64.0
412.686401 52.0
412.908813 180.0
413.137726 152.0
413.236481 112.0
413.280975 132.0
413.418579 212.0
413.902313 120.0
414.025848 140.0
414.131134 96.0
414.281036 124.0
414.727234 108.0
415.022736 140.0
415.076324 132.0
415.10907 152.0
415.151093 228.0
415.290405 108.0
415.554993 144.0
415.813812 192.0
415.939362 64.0
416.053314 40.0
416.149323 548.0
416.670624 132.0
416.768158 96.0
417.147095 168.0
417.190826 96.0
417.329071 108.0
418.036865 124.0
418.106049 128.0
418.134552 192.0
418.57016 76.0
418.989685 100.0
419.156738 84.0
419.327911 144.0
419.446106 184.0
419.478729 96.0
419.784515 104.0
419.890564 156.0
420.408691 156.0
421.674774 140.0
421.956848 76.0
422.645355 80.0
423.679901 44.0
423.716766 164.0
424.696533 40.0
425.160156 164.0
425.685638 220.0
425.878693 128.0
425.932068 180.0
426.17038 156.0
426.626587 124.0
427.169434 80.0
427.202332 108.0
427.445099 56.0
427.576782 80.0
427.646759 80.0
427.901978 124.0
428.138123 184.0
428.235535 56.0
428.330292 60.0
428.532166 152.0
428.655762 52.0
428.927795 48.0
428.964905 176.0
429.072083 104.0
429.151703 9732.0
429.23526 112.0
429.305328 64.0
429.401978 208.0
429.458038 52.0
429.736359 76.0
429.870514 68.0
430.152893 2232.0
430.293335 92.0
430.462616 52.0
430.541107 64.0
430.603058 52.0
430.858215 88.0
430.954193 68.0
430.999634 104.0
431.068298 144.0
431.15094 1036.0
431.243469 108.0
431.279755 160.0
431.322021 344.0
431.454285 108.0
431.536987 64.0
431.661041 44.0
431.768555 128.0
431.826477 64.0
432.150696 216.0
432.231903 160.0
432.484344 32.0
432.563019 76.0
432.600281 156.0
432.683075 132.0
432.819702 60.0
432.852844 96.0
433.026764 88.0
433.117889 48.0
433.163452 80.0
433.221466 136.0
433.536377 36.0
433.635834 104.0
433.681427 108.0
433.785065 72.0
434.046265 92.0
434.378082 160.0
434.830353 68.0
434.971497 56.0
435.000549 120.0
435.457306 28.0
436.223053 184.0
436.475494 72.0
436.995453 132.0
437.037048 104.0
437.166046 192.0
437.394958 120.0
437.698883 96.0
437.936279 48.0
438.373749 116.0
438.994904 88.0
439.462097 172.0
439.570587 36.0
439.674927 124.0
439.703674 200.0
439.816833 44.0
439.886414 180.0
439.950409 64.0
440.05481 128.0
440.20929 120.0
440.251068 80.0
440.60611 104.0
440.75235 232.0
440.785797 76.0
440.815033 92.0
441.099243 44.0
441.27066 56.0
441.31665 164.0
441.400269 108.0
441.605225 108.0
441.651215 36.0
441.721466 100.0
441.887817 124.0
441.993408 132.0
442.031586 96.0
442.094727 144.0
442.161774 496.0
442.370972 188.0
442.433777 152.0
442.528564 156.0
442.559387 108.0
442.605438 128.0
442.73526 140.0
442.789703 72.0
442.849945 52.0
442.89917 188.0
442.946686 100.0
442.999146 156.0
443.070557 92.0
443.164886 600.0
443.242523 140.0
443.288239 36.0
443.378479 204.0
443.422363 140.0
443.506195 32.0
443.606049 156.0
443.644531 348.0
443.724182 108.0
443.845764 80.0
443.87912 76.0
444.020905 208.0
444.177063 82252.0
444.308655 132.0
444.36441 56.0
444.415771 108.0
444.432556 36.0
444.477631 108.0
444.511627 84.0
444.557343 240.0
444.619873 76.0
444.664337 168.0
444.764008 176.0
444.816345 168.0
444.865082 260.0
444.933258 96.0
444.969055 412.0
445.008148 124.0
445.077026 232.0
445.09256 192.0
445.179993 21440.0
445.298248 68.0
445.353363 128.0
445.396912 48.0
445.425812 76.0
445.468048 60.0
445.502777 88.0
445.568024 96.0
445.637848 120.0
445.710022 76.0
445.760986 176.0
445.817169 120.0
445.870239 68.0
445.929749 80.0
445.961365 84.0
446.007935 64.0
446.0401 160.0
446.071198 160.0
446.176392 8420.0
446.283539 72.0
446.35144 40.0
446.430084 60.0
446.530823 112.0
446.578583 108.0
446.619171 112.0
446.649414 116.0
446.722809 96.0
446.75647 40.0
446.801788 104.0
446.863525 64.0
446.923126 92.0
446.975281 56.0
447.05127 132.0
447.115417 92.0
447.173462 2276.0
447.292694 540.0
447.357452 340.0
447.507507 104.0
447.542358 72.0
447.585449 112.0
447.705719 236.0
447.76297 112.0
447.855194 132.0
447.918365 76.0
447.967102 120.0
448.041412 96.0
448.167542 472.0
448.283264 144.0
448.431244 84.0
448.5336 48.0
448.596832 52.0
448.626343 80.0
448.689575 168.0
448.731201 64.0
448.830505 108.0
448.923279 124.0
448.977783 92.0
449.010071 116.0
449.077545 132.0
449.212524 104.0
449.315948 72.0
449.376312 68.0
449.431915 56.0
449.550079 36.0
449.710449 80.0
449.883514 92.0
449.942627 56.0
450.035522 56.0
450.065094 116.0
450.127899 64.0
450.212891 76.0
450.293121 76.0
450.343811 104.0
450.529694 64.0
450.593048 64.0
450.931122 84.0
450.969147 116.0
451.041016 76.0
451.12558 52.0
451.353882 48.0
451.958771 68.0
453.004547 64.0
453.072327 44.0
453.428284 160.0
453.975189 88.0
454.280579 104.0
454.666687 60.0
455.193115 60.0
455.622131 84.0
455.838837 44.0
456.476471 92.0
456.667877 64.0
456.918854 80.0
457.161407 52.0
458.05127 28.0
458.635071 104.0
458.754425 52.0
458.814087 28.0
458.869537 112.0
459.927521 124.0
461.119232 48.0
461.874237 60.0
462.012939 120.0
462.171265 60.0
462.436584 52.0
463.991608 244.0
464.398987 112.0
465.051208 40.0
465.321655 100.0
465.824127 48.0
465.9487 40.0
466.112 64.0
468.047729 108.0
468.237213 60.0
469.254211 72.0
469.5 100.0
470.337036 80.0
471.062531 52.0
471.170532 72.0
473.121063 112.0
473.697021 40.0
474.533478 96.0
476.673431 56.0
477.582092 44.0
478.147736 148.0
478.818237 40.0
478.996796 48.0
479.624298 76.0
479.667908 92.0
485.171844 44.0
485.921814 76.0
486.540649 52.0
486.856812 28.0
487.274109 124.0
487.366394 80.0
487.638855 176.0
491.858643 72.0
494.391266 96.0
494.585999 60.0
495.786316 44.0
496.109894 120.0
496.225159 80.0
496.832764 88.0
497.693848 76.0
498.497864 84.0
499.854187 68.0
500.994049 108.0
503.03653 32.0
503.362488 44.0
503.465179 36.0
505.414276 148.0
505.767822 92.0
507.434357 44.0
509.957275 128.0
510.069641 44.0
510.343903 52.0
510.933105 96.0
512.770325 96.0
512.87854 56.0
514.024109 108.0
514.814087 68.0
517.753784 32.0
518.011963 80.0
518.072998 40.0
518.519409 52.0
520.3703 120.0
520.470154 120.0
522.165283 48.0
523.257446 60.0
524.792908 52.0
525.153198 84.0
525.376709 84.0
525.801086 60.0
526.563538 40.0
528.968689 68.0
532.600464 56.0
532.770447 68.0
534.030029 88.0
535.125305 100.0
535.991272 28.0
536.747253 108.0
536.940918 72.0
540.225159 60.0
546.153625 40.0
549.843872 60.0
552.05835 32.0
552.137817 32.0
553.363892 92.0
554.310059 80.0
554.689697 140.0
556.77771 124.0
558.803772 36.0
560.838196 64.0
561.154053 72.0
561.554932 72.0
562.545837 60.0
563.381714 140.0
564.317566 48.0
564.922913 128.0
565.869446 76.0
568.106445 56.0
568.267761 104.0
570.756775 96.0
573.232117 148.0
578.194092 124.0
580.397766 144.0
585.519775 120.0
586.156555 80.0
590.491882 84.0
590.733765 96.0
591.677429 92.0
592.403931 64.0
595.658997 96.0
596.976196 60.0
599.473572 76.0
600.507141 36.0
603.632812 136.0
606.776428 64.0
608.650757 92.0
609.923218 80.0
611.664612 28.0
616.671204 76.0
618.019592 124.0
618.739014 32.0
619.130188 60.0
619.680054 100.0
622.800537 76.0
623.426514 28.0
624.013123 132.0
625.50061 88.0
626.202698 36.0
627.054688 48.0
630.843384 88.0
630.893372 68.0
631.31842 60.0
631.44342 96.0
634.703674 72.0
635.621643 76.0
636.013062 88.0
636.203857 40.0
636.710999 36.0
637.323914 44.0
641.332397 52.0
642.338379 92.0
643.569885 84.0
645.77832 88.0
649.227417 112.0
649.765137 76.0
649.907166 64.0
651.120483 84.0
651.166199 92.0
653.570801 56.0
656.112366 52.0
657.055908 60.0
657.336548 128.0
658.127747 120.0
661.758118 128.0
662.470032 144.0
667.304626 40.0
669.414368 36.0
671.671875 100.0
671.898865 76.0
673.628357 40.0
674.243225 96.0
675.003174 56.0
679.125732 64.0
682.246643 92.0
682.553406 76.0
683.292053 104.0
686.448608 52.0
687.904297 72.0
688.013916 92.0
689.936523 72.0
691.830383 28.0
694.943665 56.0
696.340027 120.0
696.476624 76.0
703.047546 48.0
703.364258 36.0
704.16156 68.0
704.526001 56.0
706.508606 84.0
706.741394 52.0
711.378906 44.0
716.724182 68.0
724.267944 48.0
726.175598 84.0
727.249268 100.0
728.31781 52.0
728.892639 124.0
730.166748 52.0
733.208679 72.0
735.063843 116.0
737.213196 48.0
738.397217 76.0
740.015259 72.0
740.318481 40.0
742.404968 32.0
750.682068 60.0
752.040588 76.0
752.537354 88.0
753.520508 124.0
754.274719 88.0
756.079712 80.0
756.61615 56.0
758.336243 80.0
761.079285 84.0
762.249329 44.0
763.381775 72.0
763.887756 208.0
764.299622 140.0
770.260315 84.0
770.713379 192.0
772.360901 172.0
772.460449 236.0
774.04895 64.0
774.985107 184.0
775.2677 40.0
775.411804 44.0
775.810913 124.0
776.88678 56.0
778.063354 36.0
781.826599 68.0
783.747803 196.0
789.016785 108.0
789.178955 68.0
789.464111 56.0
791.277161 56.0
791.476013 92.0
793.630432 40.0
796.020874 68.0
797.414185 52.0
798.139404 172.0
800.333923 132.0
800.638 120.0
802.40741 104.0
803.287231 140.0
809.430908 40.0
814.376404 100.0
818.271851 100.0
819.057739 108.0
823.295593 184.0
825.74176 88.0
827.813538 68.0
830.369629 48.0
831.25885 192.0
832.17157 136.0
835.92511 108.0
836.402832 28.0
841.810974 144.0
844.851318 220.0
850.542114 100.0
850.826538 196.0
851.215576 160.0
852.133362 104.0
853.32489 60.0
853.869873 72.0
855.413452 264.0
859.639648 48.0
859.732544 64.0
861.145447 148.0
864.401917 40.0
865.33844 160.0
869.929016 188.0
870.944946 60.0
871.438416 104.0
871.567688 92.0
874.17865 108.0
874.225708 64.0
875.220581 196.0
878.757202 52.0
880.965271 40.0
884.54303 48.0
884.655518 124.0
886.047302 136.0
886.177612 48.0
886.823608 104.0
889.000244 60.0
891.548035 164.0
895.844055 164.0
896.618713 136.0
899.004272 164.0
899.690674 212.0
901.112122 44.0
901.207764 44.0
901.996643 184.0
904.826355 40.0
906.763367 204.0
908.24823 152.0
912.397949 160.0
913.703064 148.0
914.876648 152.0
917.889282 228.0
919.403503 164.0
921.311584 92.0
923.693481 124.0
923.893127 140.0
926.326782 192.0
926.920532 192.0
928.320862 120.0
928.878906 72.0
930.347473 88.0
930.767761 92.0
931.637512 172.0
936.221313 128.0
936.982788 136.0
937.366638 148.0
937.598206 48.0
938.329712 108.0
938.707764 68.0
939.323792 52.0
940.190247 104.0
941.826538 136.0
944.16748 144.0
948.429016 156.0
949.397766 176.0
949.636963 148.0
949.968201 140.0
950.060181 176.0
950.710632 84.0
951.035889 76.0
953.52533 188.0
955.79895 128.0
956.943848 52.0
957.208618 188.0
958.126343 88.0
958.711731 104.0
959.735046 120.0
959.950867 156.0
960.092712 144.0
960.752747 216.0
961.178467 136.0
961.31427 176.0
962.715637 56.0
964.74231 228.0
965.267883 196.0
965.836914 156.0
966.201904 180.0
969.037537 164.0
969.483704 148.0
971.362427 108.0
971.43689 164.0
971.697449 180.0
972.280762 132.0
972.473145 136.0
975.349121 132.0
976.039185 224.0
976.151123 108.0
978.372437 164.0
980.889282 112.0
981.157349 140.0
981.200989 96.0
981.444153 176.0
987.264221 144.0
987.464417 116.0
987.808411 176.0
987.870972 108.0
987.933533 72.0
988.578003 208.0
989.310364 196.0
991.164307 124.0
991.289673 92.0
994.331299 128.0
995.486511 192.0
995.605835 180.0
996.560669 160.0
996.786865 120.0
997.72345 96.0
1002.828674 56.0
1003.749146 108.0
1004.632202 100.0
1005.54718 188.0
1005.837524 84.0
1007.561584 200.0
1009.843628 192.0
1011.166016 172.0
1012.134583 40.0
1013.097351 188.0
1013.325439 112.0
1013.445801 180.0
1013.692932 48.0
1014.447205 224.0
1014.821289 212.0
1015.690125 184.0
1016.451477 156.0
1019.42981 112.0
1019.747559 152.0
1020.167114 156.0
1020.268799 76.0
1021.286316 180.0
1022.406128 196.0
1022.832581 152.0
1022.934448 128.0
1023.284546 144.0
1023.940491 104.0
1024.564697 224.0
1024.794067 180.0
1029.125122 224.0
1029.425171 192.0
1029.501831 52.0
1029.655151 176.0
1033.059204 164.0
1034.726074 44.0
1035.315186 88.0
1035.398438 92.0
1035.597046 120.0
1037.647705 68.0
1037.776001 136.0
1038.545532 80.0
1040.650513 220.0
1040.894531 164.0
1041.106445 116.0
1043.104736 64.0
1044.442261 112.0
1045.111328 40.0
1046.340698 128.0
1047.435547 148.0
1048.150635 72.0
1048.240845 144.0
1048.982056 172.0
1049.046509 240.0
1049.297974 40.0
1049.575195 144.0
1050.542725 168.0
1054.074463 184.0
1054.547607 164.0
1055.238037 184.0
1055.660278 208.0
1058.350342 40.0
1058.635254 200.0
1058.75769 240.0
1059.561523 64.0
1060.177124 124.0
1060.293701 96.0
1060.754028 156.0
1062.135254 152.0
1064.608154 168.0
1066.206299 180.0
1066.251831 132.0
1066.394775 152.0
1066.48584 156.0
1067.389526 144.0
1068.430176 172.0
1068.579834 184.0
1068.69043 36.0
1070.291748 180.0
1070.356812 200.0
1070.597778 128.0
1072.115723 128.0
1072.493774 132.0
1072.793579 80.0
1073.713013 36.0
1074.815552 160.0
1077.70166 140.0
1078.080688 164.0
1078.734375 132.0
1078.910889 172.0
1079.551636 188.0
1081.887573 132.0
1082.679932 136.0
1082.771606 160.0
1084.140869 148.0
1085.104492 92.0
1085.648804 92.0
1088.293335 188.0
1088.437744 140.0
1092.887939 116.0
1095.15918 220.0
1095.640015 56.0
1095.765259 200.0
1096.384644 112.0
1096.938354 56.0
1097.676758 244.0
1098.217651 148.0
1099.141235 40.0
1099.292969 116.0
1099.557007 168.0
1100.408569 228.0
1100.771729 44.0
1101.339722 92.0
1102.106079 176.0
1102.608398 148.0
1103.196655 132.0
1103.547729 112.0
1103.606567 152.0
1104.129028 188.0
1104.439819 172.0
1105.048462 168.0
1105.286743 216.0
1106.114014 196.0
1107.146973 132.0
1107.444946 148.0
1108.750244 164.0
1109.245972 80.0
1110.057495 144.0
1111.893921 148.0
1112.756958 196.0
1112.902954 196.0
1113.620239 116.0
1113.958984 148.0
1115.560547 116.0
1116.099121 64.0
1116.225464 120.0
1117.189941 188.0
1118.02832 144.0
1118.254639 176.0
1118.893677 188.0
1119.479614 52.0
1119.539551 228.0
1120.252319 168.0
1121.376587 288.0
1121.785034 132.0
1122.885254 120.0
1123.772461 92.0
1123.99939 116.0
1125.361084 140.0
1125.741699 144.0
1126.222534 156.0
1127.338379 208.0
1127.97998 192.0
1128.320923 124.0
1128.641846 164.0
1129.946167 128.0
1131.104004 232.0
1131.472168 184.0
1131.652954 208.0
1132.510132 76.0
1132.925537 84.0
1133.240356 112.0
1133.54187 184.0
1134.145142 132.0
1135.01001 132.0
1135.445923 64.0
1136.002686 136.0
1136.606445 88.0
1137.257446 152.0
1137.304443 168.0
1137.666992 160.0
1137.861694 120.0
1141.268188 268.0
1142.169434 96.0
1142.707642 136.0
1143.245972 140.0
1143.447876 168.0
1144.531738 176.0
1145.306274 160.0
1147.543701 164.0
1147.981934 48.0
1148.066772 168.0
1148.481079 196.0
1148.568726 124.0
1148.825073 208.0
1149.547119 136.0
1149.904785 188.0
1150.114014 196.0
1150.944458 156.0
1151.538696 188.0
1152.349365 184.0
1154.072998 256.0
1154.194702 156.0
1154.343506 204.0
1155.466309 204.0
1155.524048 192.0
1155.784302 184.0
1156.494873 160.0
1156.623535 40.0
1156.731812 68.0
1157.368286 204.0
1159.210815 64.0
1160.641113 144.0
1161.387207 104.0
1161.970581 52.0
1163.402588 112.0
1163.72168 220.0
1163.87793 60.0
1164.2854 120.0
1164.455078 100.0
1164.658936 240.0
1165.2771 180.0
1166.106201 216.0
1166.54126 124.0
1167.5 268.0
1168.003296 152.0
1168.084961 152.0
1170.021362 148.0
1170.255981 200.0
1170.684937 48.0
1171.843018 80.0
1172.054199 112.0
1172.803833 216.0
1173.219727 112.0
1173.656128 212.0
1173.949341 80.0
1175.197632 184.0
1175.661621 124.0
1175.962036 120.0
1176.508057 100.0
1177.061157 52.0
1177.425537 120.0
1178.05835 208.0
1178.522949 156.0
1178.577637 136.0
1178.87146 136.0
1180.423218 200.0
1180.683105 64.0
1181.333008 140.0
1181.716064 212.0
1183.235596 200.0
1183.372437 124.0
1183.639526 180.0
1184.20105 180.0
1184.262695 156.0
1185.365845 116.0
1185.4823 144.0
1185.866089 44.0
1186.263672 196.0
1186.373413 224.0
1186.9198 168.0
1187.257935 152.0
1189.199585 184.0
1190.785645 152.0
1191.170288 204.0
1191.692505 132.0
1192.633911 60.0
1194.215454 176.0
1194.414917 212.0
1194.807007 184.0
1195.694702 176.0
1196.204102 188.0
1196.286743 128.0
1198.359741 144.0
1199.028198 160.0
1199.17981 128.0
1200.020874 64.0
1200.269165 208.0
1200.420776 124.0
1201.220947 76.0
1201.338135 196.0
1203.539917 236.0
1205.087158 168.0
1206.103027 156.0
1207.084839 160.0
1207.402954 104.0
1207.824829 148.0
1208.897339 196.0
1210.018677 168.0
1212.332275 148.0
1212.436279 152.0
1213.912842 60.0
1214.266602 168.0
1214.911743 184.0
1215.026367 188.0
1215.876221 164.0
1216.382935 180.0
1217.000854 300.0
1218.264893 108.0
1218.403809 124.0
1219.328003 84.0
1219.522705 188.0
1220.051025 140.0
1220.662842 64.0
1221.462646 164.0
1221.824463 144.0
1222.061035 120.0
1222.304565 132.0
1223.285889 188.0
1223.745483 148.0
1224.619873 192.0
1225.382202 180.0
1229.105713 156.0
1229.691895 100.0
1230.082764 168.0
1230.753052 72.0
1230.948608 84.0
1231.325684 52.0
1232.219849 184.0
1233.261108 72.0
1233.393921 132.0
1233.813354 164.0
1234.009155 196.0
1234.072144 176.0
1234.862305 244.0
1234.960205 40.0
1235.128174 136.0
1235.268066 156.0
1235.841797 220.0
1236.814575 212.0
1237.248535 136.0
1237.983765 196.0
1238.333984 188.0
1239.36377 220.0
1239.79834 184.0
1240.761597 180.0
1241.705322 116.0
1243.290894 168.0
1244.006836 196.0
1244.428101 148.0
1245.769531 128.0
1246.233276 100.0
1246.282471 56.0
1246.682983 124.0
1246.80249 36.0
1247.020386 228.0
1247.406982 136.0
1247.505371 156.0
1248.2229 152.0
1249.333862 136.0
1249.580078 192.0
1249.854492 168.0
1250.213379 72.0
1250.727173 80.0
1251.163696 100.0
1251.438232 224.0
1251.698853 220.0
1253.135742 120.0
1254.35498 132.0
1255.596069 140.0
1256.640015 144.0
1256.88623 220.0
1257.18335 80.0
1257.797485 136.0
1259.294434 164.0
1259.492188 120.0
1260.59436 160.0
1260.728638 208.0
1261.082031 156.0
1261.371826 216.0
1261.739502 64.0
1261.965698 168.0
1262.481934 164.0
1262.856812 112.0
1263.910889 196.0
1264.307251 136.0
1264.547852 244.0
1265.850586 52.0
1266.480835 196.0
1266.73584 168.0
1267.472778 204.0
1267.642822 76.0
1267.890869 204.0
1268.145996 60.0
1268.762695 76.0
1269.195312 104.0
1269.471802 176.0
1270.060547 180.0
1270.195312 172.0
1270.379761 120.0
1272.494629 164.0
1272.636719 152.0
1273.382324 236.0
1273.780151 128.0
1275.364746 204.0
1275.471436 176.0
1275.833984 120.0
1276.559204 104.0
1276.644531 104.0
1277.057007 100.0
1277.249146 88.0
1278.366211 124.0
1278.899902 136.0
1279.540649 156.0
1280.28125 152.0
1280.494873 140.0
1280.957886 168.0
1281.656128 212.0
1281.805786 180.0
1282.33313 152.0
1282.554077 156.0
1282.73938 180.0
1283.103027 176.0
1283.181396 160.0
1283.951538 88.0
1284.222656 160.0
1285.385498 32.0
1285.456909 200.0
1286.391968 220.0
1287.284424 76.0
1287.484375 60.0
1289.270508 160.0
1289.720703 44.0
1289.899414 128.0
1290.235474 116.0
1290.628662 148.0
1290.778931 136.0
1290.986206 56.0
1291.064941 204.0
1292.309692 200.0
1292.538574 144.0
1293.805542 136.0
1294.328247 120.0
1294.679077 188.0
1295.560181 172.0
1295.825195 228.0
1296.204956 128.0
1296.563354 172.0
1296.692383 140.0
1297.022095 132.0
1297.079346 212.0
1297.201294 72.0
1297.301636 144.0
1299.08728 188.0
1299.532104 156.0
1299.690063 68.0
1299.783325 168.0
1300.314331 192.0
1300.500977 176.0
1300.687622 160.0
1301.104004 220.0
1301.477295 148.0
1302.2229 180.0
1302.56897 184.0
1303.064697 44.0
1303.11499 112.0
1303.287476 288.0
1303.574951 28.0
1304.825684 156.0
1305.494385 164.0
1306.321533 96.0
1306.695679 116.0
1307.156128 140.0
1307.206543 164.0
1308.019897 144.0
1308.178223 188.0
1308.876587 68.0
1310.490112 180.0
1311.155029 120.0
1311.4198 168.0
1311.845093 196.0
1312.191162 124.0
1312.255981 208.0
1312.652588 136.0
1312.760864 116.0
1312.948364 128.0
1313.489258 120.0
1313.835571 168.0
1314.037598 132.0
1314.701416 84.0
1315.278809 140.0
1315.762573 160.0
1316.593018 148.0
1316.715698 184.0
1317.445312 184.0
1317.618652 84.0
1318.045044 156.0
1318.326782 132.0
1318.464111 156.0
1318.991821 168.0
1320.11438 232.0
1320.264404 140.0
1320.430664 232.0
1320.712769 112.0
1321.190186 136.0
1322.572388 160.0
1323.137085 64.0
1323.187744 216.0
1323.412231 28.0
1323.557007 128.0
1323.803223 144.0
1324.498535 116.0
1325.034668 120.0
1325.44043 136.0
1325.723022 136.0
1326.87561 116.0
1327.201904 168.0
1327.325195 148.0
1327.390381 112.0
1327.448486 80.0
1327.542725 200.0
1327.869019 196.0
1328.006836 124.0
1328.275269 148.0
1328.928223 204.0
1329.407104 204.0
1329.857178 72.0
1330.639648 168.0
1332.892944 68.0
1333.786865 68.0
1334.215698 112.0
1335.102905 192.0
1335.233765 80.0
1336.026611 64.0
1337.154541 176.0
1337.292847 164.0
1338.166504 188.0
1338.545044 160.0
1338.639771 88.0
1338.749023 128.0
1339.608521 212.0
1339.768799 180.0
1340.366211 172.0
1340.635864 192.0
1340.701416 120.0
1341.29187 168.0
1341.568848 128.0
1343.012695 32.0
1343.085693 124.0
1343.348267 172.0
1344.537598 96.0
1344.785767 40.0
1345.953857 156.0
1346.793823 144.0
1347.984741 136.0
1348.269653 76.0
1349.088379 152.0
1349.161499 160.0
1349.295288 156.0
1350.134033 124.0
1351.560547 136.0
1351.611816 156.0
1351.99231 140.0
1352.438721 96.0
1353.309937 140.0
1353.434448 112.0
1353.932373 160.0
1355.668701 104.0
1355.873901 196.0
1356.189087 128.0
1356.335693 164.0
1357.27417 184.0
1358.088257 208.0
1359.731812 196.0
1360.260254 32.0
1360.509888 100.0
1361.08252 136.0
1361.675537 200.0
1361.897827 144.0
1362.125488 116.0
1362.331177 104.0
1362.492798 184.0
1363.470093 68.0
1363.712646 196.0
1363.881714 164.0
1363.984619 180.0
1364.719849 148.0
1364.81543 152.0
1365.947998 84.0
1366.212891 160.0
1366.498047 192.0
1366.610229 96.0
1367.051758 160.0
1368.730103 120.0
1368.987915 120.0
1369.120483 100.0
1369.32312 144.0
1369.768555 76.0
1372.134277 144.0
1374.5979 140.0
1376.495117 68.0
1376.746216 112.0
1376.849609 180.0
1377.026855 192.0
1377.374023 240.0
1378.053711 52.0
1379.086914 168.0
1379.82019 172.0
1380.204712 180.0
1380.278687 188.0
1381.173584 192.0
1381.632202 144.0
1382.172363 128.0
1383.371338 136.0
1384.267334 104.0
1384.430176 52.0
1386.326782 168.0
1386.630615 108.0
1386.875244 136.0
1387.20874 44.0
1387.675903 136.0
1387.927979 192.0
1388.513794 48.0
1389.270508 204.0
1389.493042 200.0
1390.947632 140.0
1390.999512 172.0
1391.281616 60.0
1391.578613 216.0
1391.838501 60.0
1392.224731 132.0
1392.618286 172.0
1393.208984 192.0
1393.546997 116.0
1394.661743 100.0
1394.98877 144.0
1395.234131 132.0
1395.576172 152.0
1395.910767 180.0
1396.022339 108.0
1398.269165 124.0
1398.611572 184.0
1398.764526 128.0
1399.512329 224.0
1399.693848 196.0
1400.882812 148.0
1402.790527 60.0
1404.252075 76.0
1404.401245 144.0
1405.124878 120.0
1406.609985 120.0
1407.222168 52.0
1407.812134 152.0
1408.192993 108.0
1408.3125 220.0
1408.387207 176.0
1408.671021 148.0
1409.014771 36.0
1409.440674 100.0
1409.530273 160.0
1409.956299 200.0
1410.382324 168.0
1410.756104 192.0
1410.965454 164.0
1411.399048 144.0
1411.630859 160.0
1412.483521 256.0
1413.321533 168.0
1414.504028 148.0
1414.563843 112.0
1415.776855 120.0
1416.60083 176.0
1417.275146 144.0
1417.335083 88.0
1417.64856 160.0
1417.912109 164.0
1418.024536 84.0
1418.466797 248.0
1419.014038 132.0
1419.681519 144.0
1420.716553 192.0
1420.829102 140.0
1421.887207 196.0
1421.96228 148.0
1422.149902 104.0
1423.095825 184.0
1423.486328 28.0
1423.568848 176.0
1423.93689 156.0
1424.139648 136.0
1425.672363 124.0
1426.521729 176.0
1426.604492 160.0
1427.288696 60.0
1427.529297 212.0
1427.634644 172.0
1428.22876 188.0
1428.386719 104.0
1428.800537 184.0
1429.191772 160.0
1430.373413 168.0
1430.648193 184.0
1431.043457 184.0
1431.706055 140.0
1432.02063 220.0
1432.504517 160.0
1433.333252 156.0
1434.31311 32.0
1434.705078 40.0
1434.931274 172.0
1435.338501 160.0
1435.594849 128.0
1436.726318 144.0
1437.405396 128.0
1438.967896 140.0
1439.043335 148.0
1439.164185 216.0
1439.277466 220.0
1439.813599 164.0
1439.88916 168.0
1440.312134 36.0
1441.317017 136.0
1442.63208 204.0
1442.692627 176.0
1444.121826 160.0
1444.250366 196.0
1445.08252 196.0
1446.401123 140.0
1446.611328 108.0
1447.277588 204.0
1448.375732 200.0
1448.868164 160.0
1449.360718 208.0
1449.777466 144.0
1449.838135 188.0
1449.936646 152.0
1450.186768 156.0
1450.603638 108.0
1450.762817 144.0
1451.141968 164.0
1451.23291 164.0
1451.832031 60.0
1451.915405 176.0
1452.370483 120.0
1452.628418 148.0
1452.931885 156.0
1453.265747 148.0
1453.675537 88.0
1453.751465 140.0
1454.123291 136.0
1455.72522 132.0
1456.142944 148.0
1456.348022 132.0
1456.454346 168.0
1457.236816 172.0
1458.019531 104.0
1458.262817 124.0
1458.423828 152.0
1458.680786 96.0
1459.494385 156.0
1459.889771 132.0
1460.026733 32.0
1460.337036 216.0
1460.924194 160.0
1461.296997 152.0
1461.395996 72.0
1461.525269 144.0
1462.17981 176.0
1462.613647 256.0
1462.777222 140.0
1462.826782 188.0
1463.329224 152.0
1463.968872 192.0
1464.936279 116.0
1465.682983 132.0
1465.957275 196.0
1466.025879 236.0
1466.132568 156.0
1466.505981 204.0
1466.83374 96.0
1467.222534 44.0
1467.298828 160.0
1467.451294 128.0
1468.213867 164.0
1468.709717 56.0
1468.976685 200.0
1469.365723 144.0
1469.93042 180.0
1470.113525 124.0
1470.785156 148.0
1471.31958 168.0
1471.915161 44.0
1472.510864 172.0
1472.587158 112.0
1472.648315 184.0
1473.343506 144.0
1474.099976 120.0
1474.871826 176.0
1474.978882 120.0
1475.988037 248.0
1476.508179 36.0
1477.823853 144.0
1478.091675 116.0
1480.013062 180.0
1480.487793 136.0
1480.640991 196.0
1480.702271 48.0
1480.863159 152.0
1482.640625 52.0
1482.801636 92.0
1482.970215 156.0
1483.759766 196.0
1484.795044 160.0
1485.738525 136.0
1486.237305 172.0
1486.459839 100.0
1487.527466 152.0
1488.378906 144.0
1489.822876 32.0
1490.860229 100.0
1492.966675 144.0
1493.55127 112.0
1493.859009 48.0
1494.05896 160.0
1495.752075 164.0
1495.890625 248.0
1496.697876 156.0
1497.784912 192.0
1498.077637 104.0
1499.025391 172.0
1499.364502 220.0
1499.665039 152.0
1501.399902 148.0
1502.294678 156.0
1502.618652 160.0
1503.112549 192.0
1503.614136 64.0
1503.675903 156.0
1503.938354 88.0
1504.123535 208.0
1504.200806 156.0
1504.355103 180.0
1504.463257 80.0
1505.034546 104.0
1505.37439 68.0
