>compound METYRAPONE
>formula C14H14N2O 
>ionization [M+H]+
>parentmass 227.119705
#inchi InChI=1S/C14H14N2O/c1-14(2,12-6-4-8-16-10-12)13(17)11-5-3-7-15-9-11/h3-10H,1-2H3
#inchikey FJLBFSROUSIWMA
#Ion_Source LC-ESI
#Instrument qTof
#Compound_Source Commercial
#PI Dorrestein
#Data_Collector Garg_Neha
#Scan -1
#Precursor_MZ 227.12
#ExactMass 226.111
#Charge 1
#CAS_Number N/A
#Pubmed_ID N/A
#Smiles N/A
#INCHI_AUX N/A
#Library_Class 1
#SpectrumID CCMSLIB00000077012
#IonMode Positive
#UpdateWorkflowName UPDATE-SINGLE-ANNOTATED-GOLD
#LibraryQualityString Gold
#TaskID 48f7f52fc6d249b5abbcc6e7b3df5969
##Scan# 1027
#SpectrumFile NCP002928_G2_H11_BA5_01_15699.mzXML
#LibraryName NIH_Clinical_Collection_2.mgf
#MQScore -1
#Organism NIHcollection2_04212014_2_mgf
#TIC_Query 0
#RT_Query -1
#MZErrorPPM -1
#SharedPeaks 0
#MassDiff 0
#LibMZ -1
#SpecMZ 227.12
#SpecCharge 0
#internalFilename spec-00000.mgf

>collision 10
45.713943 208.0
46.538513 296.0
46.884029 168.0
47.524002 236.0
47.567245 128.0
47.615978 176.0
47.626965 240.0
47.672302 244.0
47.74929 248.0
47.873905 144.0
47.99028 196.0
48.835041 152.0
48.935234 192.0
50.217499 140.0
50.596207 244.0
50.756313 196.0
51.064484 208.0
51.52634 172.0
51.63784 168.0
51.915684 208.0
52.138203 180.0
52.319443 240.0
52.456299 200.0
52.675808 140.0
52.704536 172.0
52.896889 168.0
53.049259 176.0
53.136009 140.0
53.159225 164.0
53.929661 204.0
54.726254 172.0
55.319756 140.0
55.599899 148.0
56.250343 148.0
56.452045 224.0
56.471485 144.0
56.670589 140.0
56.780018 140.0
56.895561 144.0
57.030758 164.0
57.148056 184.0
57.478043 144.0
57.896786 180.0
58.44479 152.0
58.505669 152.0
58.831913 144.0
59.209595 212.0
59.333714 224.0
59.411926 152.0
59.586948 156.0
60.08115 156.0
60.872078 176.0
60.951302 140.0
61.582184 192.0
61.808933 220.0
61.879368 144.0
62.693039 192.0
62.816021 180.0
62.907547 148.0
63.171452 200.0
63.515198 168.0
63.845558 144.0
64.408188 160.0
65.169151 164.0
65.274017 180.0
65.337975 228.0
65.424873 160.0
65.723045 168.0
65.734344 140.0
65.847351 160.0
66.043625 184.0
66.924126 160.0
67.04467 152.0
67.550827 160.0
68.277451 248.0
69.825531 156.0
70.091843 160.0
70.628601 112.0
70.689659 200.0
70.718109 148.0
70.920776 148.0
70.967712 140.0
72.449188 176.0
72.48307 180.0
72.534172 132.0
74.336922 156.0
74.475868 136.0
75.016083 160.0
75.145424 232.0
75.240349 212.0
76.842285 148.0
77.137428 152.0
77.182884 144.0
77.478676 152.0
78.057892 152.0
78.572205 140.0
78.833527 156.0
78.934288 176.0
79.176735 184.0
79.27417 160.0
79.418015 208.0
79.568611 180.0
79.772919 236.0
80.096779 148.0
80.432014 152.0
80.482002 144.0
80.692833 212.0
80.939751 208.0
81.049019 140.0
81.691765 148.0
82.349686 160.0
82.720367 184.0
82.82177 180.0
82.990311 208.0
83.041084 164.0
83.546066 148.0
84.132881 140.0
84.58075 180.0
84.765732 160.0
85.662331 144.0
85.678909 144.0
85.756302 200.0
85.99054 148.0
86.151184 148.0
86.167816 196.0
86.63588 144.0
86.795273 144.0
87.194397 144.0
88.064491 144.0
88.184067 164.0
88.238274 184.0
88.283104 144.0
88.417854 144.0
88.616341 156.0
89.126701 224.0
90.62677 176.0
90.793579 172.0
91.397667 160.0
91.664604 140.0
92.054108 184.0
92.143173 204.0
92.330505 164.0
92.562057 176.0
93.057503 976.0
93.433449 144.0
94.245155 148.0
94.303131 152.0
94.961014 188.0
95.124657 160.0
95.886887 204.0
95.980461 184.0
96.560455 160.0
97.515282 164.0
97.679237 140.0
98.05455 284.0
98.123856 128.0
98.470848 200.0
98.551842 196.0
98.704041 180.0
98.828651 160.0
99.286247 176.0
99.375511 188.0
99.73098 148.0
99.945763 148.0
99.971634 268.0
100.507668 180.0
100.653381 168.0
100.823181 160.0
101.437653 140.0
101.782738 148.0
102.440407 172.0
102.648003 196.0
102.666153 172.0
102.740784 188.0
102.767006 176.0
102.962814 164.0
103.055901 200.0
103.29834 172.0
103.581741 228.0
104.050323 128.0
104.584831 144.0
105.047386 176.0
105.353592 176.0
105.868629 160.0
105.965309 184.0
106.065536 22368.0
106.279015 192.0
107.067444 1680.0
107.14048 148.0
107.521942 164.0
108.38221 156.0
108.516937 140.0
109.000565 164.0
110.822166 196.0
110.95211 176.0
111.548309 164.0
112.011253 180.0
112.093422 148.0
112.152435 156.0
112.361198 148.0
112.726486 148.0
112.876572 180.0
113.210922 208.0
113.518196 140.0
113.730354 152.0
114.210564 164.0
114.342476 164.0
114.8517 188.0
114.900764 200.0
115.116341 172.0
115.240234 172.0
115.680794 164.0
116.315308 160.0
116.517166 164.0
116.654709 144.0
117.173355 276.0
117.248138 176.0
117.928268 144.0
118.063438 212.0
118.584442 176.0
118.623451 140.0
118.818634 180.0
119.06826 148.0
119.594414 228.0
119.915421 280.0
119.967438 196.0
120.033287 188.0
120.081451 34676.0
120.503281 176.0
120.519272 152.0
120.746338 104.0
120.814232 196.0
120.965988 164.0
121.012962 184.0
121.053711 116.0
121.089005 62208.0
121.14473 144.0
121.179649 240.0
121.540619 96.0
121.85186 176.0
121.966286 104.0
122.091179 5200.0
122.143021 216.0
122.511215 156.0
123.095764 608.0
123.652802 240.0
124.122452 188.0
124.917557 148.0
125.17627 200.0
125.927292 168.0
126.307274 180.0
126.428856 140.0
126.497475 208.0
127.751907 144.0
128.328461 152.0
128.655594 168.0
128.828995 112.0
129.143143 100.0
129.64856 228.0
130.324783 192.0
130.83197 148.0
131.569046 124.0
131.618561 196.0
132.385666 112.0
132.966919 156.0
133.088577 184.0
133.29071 156.0
133.78981 172.0
134.340591 188.0
134.548294 140.0
135.38765 192.0
137.42627 168.0
139.195847 180.0
139.590637 196.0
140.05426 196.0
140.102509 208.0
140.842087 200.0
141.774277 176.0
141.854858 200.0
142.400604 220.0
142.807022 156.0
143.044968 152.0
143.166397 140.0
143.709885 156.0
144.00351 148.0
144.175537 156.0
145.927032 264.0
146.043228 148.0
146.307922 176.0
146.566681 160.0
147.009323 164.0
148.252335 204.0
148.642761 188.0
149.087158 180.0
149.150345 168.0
150.509766 148.0
150.565933 216.0
150.842026 168.0
151.0401 144.0
152.056915 152.0
152.61702 176.0
153.088013 136.0
153.138718 184.0
153.755096 152.0
155.055969 180.0
155.432922 184.0
155.693573 168.0
156.135941 160.0
156.621277 152.0
156.904861 160.0
157.354446 216.0
158.873581 168.0
160.682449 268.0
161.000488 228.0
161.154587 204.0
163.603058 200.0
163.935684 140.0
164.747055 196.0
164.91571 160.0
166.845947 152.0
167.069687 144.0
167.66449 176.0
168.012589 148.0
168.973663 184.0
169.07457 148.0
169.462997 196.0
170.14769 148.0
170.345062 144.0
171.056122 136.0
171.242447 152.0
172.659622 176.0
172.98407 180.0
174.047546 144.0
174.127274 192.0
174.495163 148.0
176.063004 180.0
176.144882 188.0
177.529114 140.0
179.849106 144.0
180.479584 180.0
180.993317 152.0
181.475616 168.0
181.980042 140.0
182.329254 148.0
182.66803 164.0
182.707901 136.0
183.047516 140.0
183.090607 436.0
183.114838 144.0
183.233368 168.0
183.311508 184.0
183.691666 156.0
183.772598 188.0
184.101669 176.0
184.266693 160.0
184.969803 204.0
186.244247 208.0
186.434418 176.0
186.475189 192.0
187.242416 172.0
188.974289 228.0
189.063385 168.0
189.265961 144.0
189.315247 184.0
189.454941 176.0
189.693359 144.0
190.233765 188.0
190.285919 212.0
192.311996 160.0
192.372726 144.0
192.422409 140.0
193.057938 148.0
193.308655 176.0
195.724686 172.0
196.061752 168.0
197.440521 152.0
197.97821 184.0
198.00061 196.0
198.213516 144.0
198.58638 144.0
198.757507 164.0
198.852921 192.0
199.121857 632.0
200.405212 204.0
200.512283 140.0
200.956726 204.0
201.197723 188.0
201.237259 204.0
202.506973 188.0
202.863998 172.0
203.596039 180.0
203.672729 160.0
203.885818 156.0
205.737259 192.0
207.364853 156.0
207.516785 192.0
207.838028 192.0
207.915512 160.0
208.576111 164.0
209.108215 160.0
209.508469 148.0
210.050415 144.0
211.088058 608.0
212.093887 328.0
212.721329 160.0
212.92749 176.0
213.016449 204.0
213.486801 172.0
213.576843 296.0
213.610535 176.0
213.92482 228.0
213.988861 164.0
214.102432 160.0
215.856949 192.0
215.990814 188.0
220.294373 184.0
221.085251 1148.0
221.293991 168.0
221.591354 188.0
221.999207 180.0
223.898209 144.0
225.067169 188.0
225.416656 148.0
225.485382 148.0
225.5121 172.0
225.557114 284.0
225.876617 156.0
225.971863 104.0
226.044617 152.0
226.13739 176.0
226.16243 172.0
226.18663 116.0
226.236176 164.0
226.354675 124.0
226.44487 176.0
226.616531 412.0
226.646484 156.0
226.672226 244.0
226.715408 148.0
226.761139 304.0
226.810699 120.0
226.842239 164.0
226.891006 124.0
226.917068 180.0
226.989594 228.0
227.055038 280.0
227.083466 376.0
227.119705 174224.0
227.203262 160.0
227.331772 272.0
227.39711 584.0
227.445206 272.0
227.48378 184.0
227.515442 120.0
227.548218 100.0
227.580246 284.0
227.612869 4288.0
227.685165 140.0
227.709641 128.0
227.740448 116.0
227.826019 168.0
227.877502 212.0
227.932404 268.0
227.987778 200.0
228.0186 256.0
228.068802 128.0
228.121521 42504.0
228.344666 228.0
228.385651 388.0
228.644379 144.0
228.783676 96.0
228.884018 116.0
229.091827 208.0
229.125 4712.0
229.231613 120.0
229.273361 228.0
229.310425 132.0
229.34642 140.0
229.417953 140.0
229.488586 156.0
229.509933 184.0
229.579559 164.0
229.607376 132.0
229.638412 148.0
229.690536 348.0
229.780731 124.0
229.823181 176.0
229.845383 104.0
229.933105 128.0
229.985352 140.0
230.094955 164.0
230.129669 128.0
230.58873 236.0
230.78653 116.0
230.813141 120.0
231.048233 108.0
234.486053 180.0
234.979721 176.0
236.088516 160.0
239.019852 140.0
271.080475 220.0
276.63028 140.0
280.266937 144.0
371.3508 168.0
908.663086 160.0
1030.526245 156.0
1033.160278 140.0
1136.108154 152.0
1141.003052 140.0
1230.181763 156.0
1289.626709 176.0
1339.153687 140.0
1355.305786 184.0
1358.649048 160.0
1374.467773 140.0
1375.811157 164.0
1401.659302 160.0
1403.821045 184.0
1412.335205 164.0
1413.883911 160.0
1433.371338 140.0
1440.229126 156.0
1440.825928 156.0
1443.123535 176.0
1450.93689 208.0
1459.501221 176.0
1471.02832 144.0
1479.223022 156.0
1490.873535 164.0
1494.026123 172.0
1536.996582 148.0
1543.706665 200.0
1545.529297 140.0
1560.278564 208.0
1566.672607 168.0
1573.044434 172.0
1574.560425 180.0
1599.273926 172.0
1607.091675 156.0
1611.714722 140.0
1618.88208 172.0
1620.299805 200.0
1621.886475 172.0
1622.038818 212.0
1644.496338 192.0
1657.727417 172.0
1668.230103 164.0
1669.758667 168.0
1670.157227 176.0
1673.819458 196.0
1684.716064 140.0
1686.709961 144.0
1688.639648 208.0
1695.279175 148.0
1706.05603 220.0
1708.967529 188.0
1713.083984 168.0
1725.586914 184.0
1742.079102 168.0
1745.203979 168.0
1756.22998 176.0
1757.464722 156.0
1768.822266 192.0
1773.035278 156.0
1776.473022 196.0
1790.493164 196.0
1790.85144 184.0
1799.043091 216.0
1803.613037 140.0
1819.123169 168.0
1819.539062 208.0
1821.3479 148.0
1823.217163 192.0
1825.427368 236.0
1830.013672 172.0
1834.452393 264.0
1836.311157 140.0
1838.640381 172.0
1845.012451 192.0
1846.987915 144.0
1848.459351 164.0
1848.733276 140.0
1850.821899 156.0
1851.310059 172.0
1853.905762 148.0
1854.47998 180.0
1854.925659 168.0
1856.580444 160.0
1856.786255 144.0
1857.746948 164.0
1861.2229 144.0
1862.794556 224.0
1875.805664 248.0
1884.911011 216.0
1894.904663 176.0
1895.017212 176.0
1896.516479 160.0
1899.967773 156.0
1906.505981 152.0
1920.061035 172.0
1927.891968 192.0
1930.260986 160.0
1931.196777 184.0
1935.169678 180.0
1936.290527 144.0
1941.689331 180.0
1946.164673 196.0
1946.867188 180.0
1950.675049 248.0
1951.040894 192.0
1953.116211 160.0
1966.438354 160.0
1968.9104 204.0
1974.063721 164.0
1976.521729 176.0
1977.654541 196.0
1978.25647 220.0
1978.876099 148.0
1985.983276 220.0
1988.290039 184.0
1996.294434 216.0
1999.071045 184.0
2000.182373 200.0
2000.841187 164.0
