>compound Fleroxacin (Quinodis)
>formula C17H18F3N3O3
>ionization [M+H]+
>parentmass 370.137024
#inchi InChI=1S/C17H18F3N3O3/c1-21-4-6-22(7-5-21)15-12(19)8-10-14(13(15)20)23(3-2-18)9-11(16(10)24)17(25)26/h8-9H,2-7H2,1H3,(H,25,26)
#inchikey XBJBPGROQZJDOJ
#Ion_Source LC-ESI
#Instrument qTof
#Compound_Source Commercial
#PI Dorrestein
#Data_Collector Garg_Neha
#Scan -1
#Precursor_MZ 370.137
#ExactMass 369.13
#Charge 1
#CAS_Number 79660-72-3
#Pubmed_ID N/A
#Smiles C1(=CN(C2=C(C1=O)C=C(C(=C2F)N3CCN(CC3)C)F)CCF)C(=O)O
#INCHI_AUX N/A
#Library_Class 1
#SpectrumID CCMSLIB00000078478
#IonMode Positive
#UpdateWorkflowName UPDATE-SINGLE-ANNOTATED-GOLD
#LibraryQualityString Gold
#TaskID 77f51c88eb8b467eb4a01dd2d0cb90d2
##Scan# 1028
#SpectrumFile Plate7_61_80_GD5_01_15771.mzXML
#LibraryName FDALibrary_2_04302014.mgf
#MQScore -1
#Organism FDALibrary_2_04302014
#TIC_Query 0
#RT_Query -1
#MZErrorPPM -1
#SharedPeaks 0
#MassDiff 0
#LibMZ -1
#SpecMZ 370.137
#SpecCharge 0
#internalFilename spec-00000.mgf

>collision 10
65.17038 140.0
65.666214 176.0
66.757805 164.0
68.931618 220.0
81.230034 164.0
88.627693 160.0
102.682716 156.0
103.385788 160.0
104.550705 152.0
109.64003 140.0
121.139107 156.0
122.032249 184.0
133.970657 204.0
134.517212 156.0
134.718109 168.0
135.11113 168.0
138.215027 156.0
139.935532 212.0
141.837311 196.0
146.006271 180.0
147.054337 156.0
147.876114 156.0
155.062714 180.0
155.687927 164.0
158.381622 148.0
159.031052 164.0
162.035782 156.0
165.593246 216.0
166.041763 168.0
167.058945 228.0
170.773575 192.0
173.049179 160.0
176.025772 180.0
179.451416 172.0
180.257538 160.0
182.036285 140.0
183.063553 144.0
183.341034 168.0
187.057236 164.0
190.362839 204.0
193.044205 176.0
194.037735 164.0
194.062637 696.0
195.04483 200.0
198.031631 200.0
201.083542 132.0
202.050323 508.0
203.059464 596.0
203.085495 140.0
204.070923 160.0
205.02739 144.0
207.032928 180.0
207.07016 248.0
208.056412 180.0
209.054276 124.0
212.063416 312.0
213.058624 580.0
214.012726 156.0
215.030945 240.0
216.087967 144.0
216.298676 236.0
221.045944 168.0
222.060211 3004.0
222.106735 244.0
223.067078 2000.0
223.10347 192.0
223.602341 180.0
224.070007 320.0
224.128387 176.0
227.056458 108.0
229.071899 364.0
230.071091 176.0
231.075195 148.0
237.081512 144.0
241.069534 692.0
243.121475 208.0
244.086746 176.0
244.117264 144.0
245.548721 164.0
246.664581 172.0
248.063339 168.0
249.039749 144.0
249.082932 848.0
249.589722 392.0
250.090775 332.0
251.126572 188.0
253.052643 140.0
254.058945 140.0
254.338196 152.0
254.922592 188.0
255.074829 980.0
255.275452 152.0
256.032867 200.0
256.071259 164.0
258.090729 144.0
259.107697 168.0
263.08783 224.0
268.050873 196.0
269.088928 15776.0
270.09259 2088.0
270.967743 168.0
271.091309 220.0
271.118469 180.0
273.943359 148.0
276.122803 156.0
277.096375 144.0
277.543488 160.0
279.117249 1028.0
280.118347 124.0
281.086609 644.0
282.079865 152.0
283.070374 156.0
283.102661 224.0
284.075562 124.0
292.525818 176.0
296.103363 152.0
296.655945 144.0
297.091583 288.0
297.122345 164.0
297.688721 140.0
304.091675 180.0
304.125366 140.0
305.129822 132.0
306.141541 200.0
309.110809 132.0
310.112122 100.0
312.142395 144.0
313.082001 144.0
313.360291 160.0
315.530884 184.0
324.129303 456.0
325.142273 152.0
325.989319 268.0
326.147644 10032.0
326.73877 156.0
327.150085 2184.0
328.162476 100.0
332.114136 124.0
342.596893 156.0
350.287598 152.0
352.127747 484.0
355.905121 148.0
358.139008 156.0
369.696503 152.0
369.891693 300.0
369.978882 160.0
370.053497 248.0
370.137024 31596.0
370.226807 200.0
370.33493 112.0
371.087006 212.0
371.139404 5580.0
372.144257 788.0
372.199738 140.0
372.88739 144.0
373.314117 224.0
378.969238 216.0
416.27417 140.0
512.112671 144.0
1064.752808 140.0
1873.818848 180.0
