>compound Rimcazole
>formula C21H27N3
>ionization [M+H]+
>parentmass 322.2277743160906
#inchi InChI=1S/C21H27N3/c1-16-14-23(15-17(2)22-16)12-7-13-24-20-10-5-3-8-18(20)19-9-4-6-11-21(19)24/h3-6,8-11,16-17,22H,7,12-15H2,1-2H3/t16-,17+
#inchikey GUDVQJXODNJRIJ
#Ion_Source LC-ESI
#Instrument qTof
#Compound_Source Commercial
#PI Dorrestein
#Data_Collector Garg_Neha
#Scan -1
#Precursor_MZ 322.228
#ExactMass 321.22
#Charge 1
#CAS_Number N/A
#Pubmed_ID N/A
#Smiles C[C@H]1CN(CCCn2c3ccccc3c4ccccc24)C[C@@H](C)N1
#INCHI_AUX N/A
#Library_Class 1
#SpectrumID CCMSLIB00000079096
#IonMode Positive
#UpdateWorkflowName UPDATE-SINGLE-ANNOTATED-GOLD
#LibraryQualityString Gold
#TaskID 278b19f5865741e282cec7349aa7e7a1
##Scan# 1109
#SpectrumFile NCP003432_G2_H11_BD3_01_15725.mzXML
#LibraryName NIHcollectionI_05062014.mgf
#MQScore -1
#Organism NIHcollectionI_05062014
#TIC_Query 0
#RT_Query -1
#MZErrorPPM -1
#SharedPeaks 0
#MassDiff 0
#LibMZ -1
#SpecMZ 322.228
#SpecCharge 0
#internalFilename spec-00000.mgf

>collision 10
44.991005 124.0
45.33147 192.0
45.477264 232.0
45.653263 224.0
45.665367 152.0
46.501701 160.0
47.412754 144.0
47.49913 176.0
47.860577 168.0
48.651417 148.0
49.590195 140.0
50.84119 160.0
51.226505 228.0
52.01442 164.0
53.259121 140.0
55.189243 168.0
57.790451 148.0
59.095921 156.0
59.108162 148.0
61.894573 240.0
63.129852 156.0
63.278591 228.0
63.690903 208.0
64.005791 160.0
64.142807 168.0
66.780373 156.0
66.925201 152.0
68.860291 156.0
70.26796 248.0
70.853111 180.0
71.149956 168.0
71.243996 184.0
72.390015 124.0
73.208458 164.0
73.245422 148.0
73.490707 156.0
74.051414 172.0
74.258797 184.0
74.5644 152.0
74.612526 148.0
75.907494 140.0
76.13829 148.0
76.508652 172.0
76.583534 204.0
76.661926 188.0
76.803146 148.0
77.374573 152.0
77.563766 160.0
78.000847 152.0
78.880447 184.0
78.917572 244.0
80.21534 152.0
80.84761 176.0
81.008751 164.0
81.829468 144.0
82.677849 148.0
83.100052 148.0
84.046188 168.0
84.077209 152.0
85.851219 232.0
85.89917 192.0
86.546005 188.0
86.851784 180.0
87.463104 180.0
89.355057 232.0
90.495018 160.0
91.947311 164.0
93.347702 204.0
95.430206 188.0
96.079353 332.0
96.592514 160.0
97.811066 160.0
98.045441 160.0
98.096497 452.0
98.21106 208.0
98.530846 172.0
101.741272 188.0
102.223656 196.0
103.19548 204.0
104.811539 152.0
105.861488 160.0
107.198799 172.0
107.943993 152.0
108.113625 208.0
108.903526 212.0
110.095825 148.0
110.20134 352.0
110.5317 220.0
111.085762 140.0
111.515251 160.0
112.100212 2388.0
112.136131 188.0
112.708015 144.0
113.104904 128.0
113.582367 160.0
114.111145 152.0
114.69017 140.0
114.965294 188.0
117.240646 160.0
118.43541 156.0
119.055687 184.0
119.422981 140.0
119.505646 192.0
121.178085 200.0
121.318344 156.0
121.349037 376.0
121.594719 180.0
122.756889 156.0
124.318047 204.0
124.437912 172.0
124.926834 176.0
125.109314 152.0
125.452377 168.0
125.876289 156.0
126.146629 164.0
126.672493 140.0
127.12365 10196.0
127.245003 204.0
127.595947 144.0
128.020081 196.0
128.125931 896.0
129.039978 204.0
129.137009 344.0
129.159836 140.0
129.209595 176.0
129.345383 204.0
129.775803 156.0
129.875595 188.0
129.989029 188.0
130.009445 192.0
130.147919 140.0
130.465988 152.0
130.732101 168.0
132.279556 164.0
132.414642 244.0
133.100311 168.0
134.992157 208.0
136.772598 160.0
137.356476 156.0
138.131989 148.0
138.703339 188.0
138.930801 168.0
138.99649 144.0
139.052811 140.0
139.12323 148.0
140.13298 436.0
141.03125 172.0
141.135254 172.0
143.647537 164.0
144.579773 160.0
145.37059 168.0
145.947083 208.0
146.840485 152.0
147.040741 252.0
148.115311 152.0
149.179504 148.0
149.734268 140.0
149.909683 144.0
150.047501 148.0
150.253464 176.0
151.055466 340.0
151.561447 144.0
151.885117 164.0
152.061813 1800.0
152.422775 156.0
152.476837 200.0
153.071152 620.0
153.137909 364.0
153.593674 184.0
153.727875 180.0
154.007111 188.0
154.067184 140.0
154.553192 152.0
154.981537 220.0
155.047241 280.0
155.088409 160.0
155.155289 7284.0
156.159149 1140.0
156.240295 240.0
156.43689 148.0
157.159836 148.0
158.885956 180.0
159.013931 200.0
159.455948 144.0
163.248108 144.0
165.232529 244.0
165.744598 224.0
166.067612 140.0
167.071365 392.0
167.594604 172.0
168.081909 340.0
168.699203 204.0
169.058716 148.0
169.594818 188.0
170.087631 160.0
170.929672 156.0
171.502625 172.0
171.672073 148.0
171.771194 160.0
171.812927 168.0
173.012451 204.0
173.19838 148.0
174.160995 176.0
174.308121 144.0
175.479401 156.0
175.941086 148.0
176.927505 160.0
176.966888 140.0
179.01944 144.0
179.07019 420.0
179.152618 268.0
179.33847 160.0
179.405441 124.0
179.446671 212.0
179.627106 180.0
179.771179 148.0
179.874207 176.0
179.923874 192.0
179.952148 156.0
180.000977 196.0
180.082275 98948.0
180.19603 220.0
180.402527 116.0
180.446075 104.0
180.482544 108.0
180.523209 112.0
180.637833 128.0
181.049011 180.0
181.084427 12100.0
182.040939 108.0
182.092407 812.0
182.222595 176.0
182.275269 96.0
182.323303 152.0
182.371613 116.0
182.452316 176.0
182.474564 132.0
182.493896 156.0
182.613663 152.0
183.101944 256.0
183.527679 96.0
183.631729 176.0
183.925827 244.0
184.006805 192.0
184.113449 672.0
184.59314 148.0
185.114563 288.0
185.474579 196.0
187.724121 144.0
188.975143 152.0
191.14827 164.0
192.093262 196.0
192.753113 144.0
193.035065 164.0
193.089355 528.0
193.821182 144.0
194.098282 264.0
194.262009 160.0
195.103439 160.0
195.654266 224.0
196.080444 212.0
197.08783 156.0
198.669662 144.0
198.910995 180.0
199.287308 144.0
200.319794 156.0
202.647675 148.0
202.854553 248.0
204.912064 176.0
205.087906 280.0
206.096786 360.0
206.324768 148.0
206.47345 176.0
207.104492 132.0
207.601776 368.0
208.009186 156.0
208.111969 6712.0
208.199661 176.0
208.359528 172.0
209.116043 1280.0
209.156082 176.0
210.121277 256.0
210.415833 260.0
213.039627 164.0
214.110001 176.0
214.16243 148.0
214.999176 152.0
216.346619 152.0
216.955963 144.0
217.123093 164.0
217.252151 264.0
217.516251 156.0
217.654236 164.0
218.895111 140.0
220.117432 176.0
221.858551 200.0
222.130707 140.0
222.704239 184.0
226.737991 200.0
229.606079 196.0
231.867447 156.0
232.574127 148.0
233.960266 148.0
234.618286 160.0
235.918777 144.0
236.141983 144.0
237.143158 184.0
237.25351 144.0
239.693878 168.0
240.551254 152.0
241.23703 176.0
241.663818 176.0
242.692108 140.0
243.011581 140.0
243.157425 192.0
247.462296 144.0
248.505997 228.0
249.252304 156.0
250.080353 152.0
250.889893 172.0
253.161667 216.0
254.474396 164.0
254.51886 140.0
254.817413 184.0
257.132385 160.0
259.089294 176.0
259.579681 160.0
261.642395 196.0
262.144867 156.0
262.860748 148.0
263.141235 120.0
264.0625 152.0
265.171082 1068.0
265.318848 200.0
266.081238 204.0
266.173859 484.0
268.818604 208.0
270.413391 168.0
272.130371 212.0
272.413544 204.0
274.371582 152.0
275.242615 156.0
275.354889 168.0
275.830658 152.0
276.330017 200.0
277.966827 140.0
278.33197 176.0
278.720581 172.0
279.174255 176.0
285.072937 140.0
285.163666 200.0
286.071869 264.0
287.77774 260.0
288.08844 144.0
291.863983 176.0
298.535461 236.0
300.426361 184.0
300.578186 160.0
301.320496 204.0
302.243652 264.0
306.061798 184.0
306.198792 312.0
310.804993 256.0
310.829559 224.0
310.906738 172.0
313.798157 144.0
313.946228 168.0
316.157684 156.0
316.320496 148.0
317.940247 148.0
319.450317 140.0
319.791901 144.0
320.217285 680.0
320.391357 148.0
320.50412 148.0
320.752136 224.0
320.873322 144.0
320.985321 144.0
321.090302 148.0
321.138367 224.0
321.206146 156.0
321.247925 216.0
321.349792 140.0
321.431213 220.0
321.509705 96.0
321.566132 164.0
321.609131 160.0
321.686829 128.0
321.711884 264.0
321.829529 332.0
321.908295 276.0
321.997925 196.0
322.048401 328.0
322.127014 248.0
322.230743 201432.0
322.362549 136.0
322.508606 132.0
322.534149 276.0
322.564484 132.0
322.607758 200.0
322.620789 224.0
322.66571 220.0
322.721161 160.0
322.749481 332.0
322.781158 160.0
322.818054 2120.0
322.864136 240.0
322.918152 176.0
323.008636 272.0
323.127899 196.0
323.232941 46832.0
323.334808 180.0
323.399933 176.0
323.453491 116.0
323.506958 268.0
323.667725 192.0
323.821503 112.0
323.891144 128.0
323.934998 116.0
324.105347 112.0
324.1521 448.0
324.236023 6360.0
324.426788 108.0
324.936737 212.0
325.022919 188.0
325.070831 184.0
325.152283 236.0
325.233765 348.0
325.370453 144.0
325.434448 280.0
325.473938 172.0
325.51297 160.0
325.599487 124.0
325.735962 124.0
326.123901 332.0
326.203156 120.0
326.411285 136.0
326.871521 120.0
327.034027 112.0
327.528107 140.0
328.095245 140.0
328.268311 144.0
372.138062 168.0
625.396423 140.0
959.86908 204.0
1091.622192 156.0
1113.509888 164.0
1252.010498 156.0
1299.301636 192.0
1299.760864 160.0
1439.970703 176.0
1506.875244 156.0
1509.12439 180.0
1516.19165 164.0
1516.842773 160.0
1522.716309 156.0
1531.832153 148.0
1535.940186 188.0
1556.161743 172.0
1571.525269 144.0
1608.276123 144.0
1610.535767 208.0
1625.153564 172.0
1632.704468 164.0
1659.30249 188.0
1734.363403 172.0
1746.486084 152.0
1786.949951 212.0
1790.729492 152.0
1815.084839 196.0
1831.239868 152.0
1831.760376 204.0
1838.162231 160.0
1840.569336 200.0
1850.11084 204.0
1884.970459 200.0
1885.143311 220.0
1885.540894 164.0
1901.155273 144.0
1908.930054 164.0
1920.016968 136.0
1938.15332 136.0
1955.058472 224.0
1958.632935 256.0
1959.355347 192.0
1976.236084 148.0
