>compound MLS001146964-01!
>formula C17H22N4O
>ionization [M+H]+
>parentmass 299.1866377760905
#inchi InChI=1S/C17H22N4O/c1-14-13-16(15-5-3-2-4-6-15)19-20-17(14)18-7-8-21-9-11-22-12-10-21/h2-6,13H,7-12H2,1H3,(H,18,20)
#inchikey LDMWSLGGVTVJPG
#origInchi InChI=1S/C17H22N4O.ClH/c1-14-13-16(15-5-3-2-4-6-15)19-20-17(14)18-7-8-21-9-11-22-12-10-21;/h2-6,13H,7-12H2,1H3,(H,18,20);1H
#Ion_Source LC-ESI
#Instrument qTof
#Compound_Source NIH Pharmacologically Active Library
#PI Dorrestein
#Data_Collector VP/LMS
#Scan -1
#Precursor_MZ 299.189
#ExactMass 298.179
#Charge 1
#CAS_Number N/A
#Pubmed_ID N/A
#Smiles Cc1cc(nnc1NCCN2CCOCC2)c3ccccc3.Cl
#INCHI_AUX N/A
#Library_Class 1
#SpectrumID CCMSLIB00000085762
#IonMode Positive
#UpdateWorkflowName UPDATE-SINGLE-ANNOTATED-GOLD
#LibraryQualityString Gold
#TaskID d252d724072548979f1f6f1ced849daf
##Scan# 1179
#SpectrumFile p4-F03_GF3_01_18387.mzXML
#LibraryName Pharm_Active_Library.mgf
#MQScore -1
#Organism Pharm_Active_Library
#TIC_Query 0
#RT_Query -1
#MZErrorPPM -1
#SharedPeaks 0
#MassDiff 0
#LibMZ -1
#SpecMZ 299.189
#SpecCharge 0
#internalFilename spec-00000.mgf

>collision 10
45.147034 204.0
45.24873 176.0
45.266136 148.0
45.278191 192.0
45.302299 96.0
45.326416 184.0
45.349201 184.0
45.37199 104.0
45.526299 112.0
45.612289 140.0
45.828968 60.0
45.966511 112.0
46.015102 168.0
46.06102 148.0
46.089394 92.0
46.121826 68.0
46.170502 252.0
46.374947 200.0
46.422398 176.0
46.456306 116.0
46.471233 28.0
46.62468 180.0
46.670902 44.0
46.747078 120.0
46.865547 144.0
47.01828 184.0
47.045582 188.0
47.06255 112.0
47.090645 148.0
47.100204 132.0
47.189037 212.0
47.273846 160.0
47.409424 132.0
47.901318 188.0
48.023998 192.0
48.167557 180.0
48.233887 260.0
48.325161 200.0
48.412369 112.0
48.581474 40.0
48.728638 268.0
48.752262 180.0
48.765747 148.0
48.781448 160.0
48.952587 160.0
49.068298 200.0
49.084972 144.0
49.147747 204.0
49.522415 184.0
49.533619 244.0
49.563042 48.0
49.728527 212.0
49.836662 72.0
49.868984 100.0
49.892879 40.0
49.912567 120.0
50.061729 164.0
50.164589 184.0
50.225224 132.0
50.350845 176.0
50.424313 188.0
50.548767 168.0
50.631039 172.0
50.653538 132.0
50.717304 120.0
50.771183 176.0
50.829346 32.0
50.874763 104.0
50.971348 136.0
51.1534 196.0
51.537052 156.0
51.615669 208.0
51.745876 168.0
51.761627 212.0
51.808895 136.0
52.012531 144.0
52.134613 36.0
52.153297 128.0
52.182053 136.0
52.256844 152.0
52.275551 176.0
52.665436 200.0
52.692268 164.0
52.706718 124.0
52.930931 80.0
52.961872 176.0
53.070038 120.0
53.13966 200.0
53.218037 136.0
53.334259 116.0
53.500095 200.0
53.520481 156.0
53.664734 144.0
53.80188 116.0
53.879494 168.0
54.018166 40.0
54.137276 148.0
54.493176 176.0
54.506397 72.0
54.519627 156.0
54.649029 156.0
54.709373 152.0
54.918625 164.0
55.068207 208.0
55.113499 200.0
55.177055 196.0
55.206627 128.0
55.227333 256.0
55.25692 224.0
55.274677 128.0
55.4109 168.0
55.453876 220.0
55.728416 216.0
55.781921 176.0
55.798275 192.0
55.929188 116.0
55.991722 216.0
56.039391 168.0
56.093044 128.0
56.118389 136.0
56.28252 112.0
56.523186 80.0
56.589046 116.0
56.705894 136.0
56.728378 168.0
56.929436 184.0
56.941452 48.0
57.075203 52.0
57.19556 192.0
57.230186 128.0
57.294952 156.0
57.36277 92.0
57.53928 124.0
57.620834 180.0
57.663147 48.0
57.768993 172.0
57.946129 128.0
58.023426 124.0
58.128086 208.0
58.229801 148.0
58.441109 132.0
58.485245 132.0
58.52026 148.0
58.858765 172.0
58.960415 160.0
58.970287 216.0
59.152313 168.0
59.251858 176.0
59.385227 132.0
59.461941 136.0
59.687771 228.0
59.741604 212.0
59.800079 196.0
60.029633 164.0
60.069736 32.0
60.095963 204.0
60.120655 228.0
60.307537 184.0
60.350822 144.0
60.527222 128.0
60.631016 264.0
60.672867 112.0
60.764374 220.0
60.776787 208.0
60.86216 48.0
60.991108 188.0
61.003544 268.0
61.389687 100.0
61.516632 100.0
61.766098 156.0
61.8978 80.0
61.93359 136.0
61.961788 208.0
61.988422 204.0
62.043285 212.0
62.063667 236.0
62.134247 52.0
62.153076 104.0
62.190742 172.0
62.215858 160.0
62.284584 68.0
62.313232 92.0
62.393387 188.0
62.412254 92.0
62.448425 200.0
62.656219 96.0
62.779167 96.0
62.861202 196.0
62.87225 84.0
63.147156 176.0
63.337097 224.0
63.643185 96.0
63.819557 156.0
63.942051 204.0
64.069435 164.0
64.461952 80.0
64.597862 176.0
64.80439 104.0
65.05619 212.0
65.096329 144.0
65.112389 200.0
65.273094 168.0
65.403412 180.0
65.425949 116.0
65.524193 116.0
65.556839 140.0
65.617676 148.0
65.716057 152.0
65.824211 180.0
65.854897 64.0
66.157288 164.0
66.273895 172.0
66.317657 160.0
66.457123 144.0
66.475929 204.0
66.522041 168.0
66.598358 204.0
66.686104 148.0
66.741379 140.0
67.048462 224.0
67.166451 172.0
67.200706 188.0
67.377037 80.0
67.393379 192.0
67.442406 204.0
67.599411 116.0
67.718925 172.0
68.007507 204.0
68.303276 140.0
68.378967 80.0
68.426704 164.0
68.476105 108.0
68.574966 228.0
68.594749 116.0
68.614532 140.0
68.664001 156.0
68.683792 124.0
68.718437 156.0
68.89344 172.0
68.906662 120.0
69.041687 140.0
69.131546 124.0
69.318672 96.0
69.452965 124.0
69.47287 172.0
69.715294 88.0
69.984779 116.0
70.049728 188.0
70.224754 56.0
70.374947 188.0
70.398331 188.0
70.451775 104.0
70.548706 80.0
70.602211 212.0
70.618942 108.0
70.86335 196.0
70.937096 124.0
71.046097 236.0
71.086365 180.0
71.195488 220.0
71.382027 68.0
71.417343 144.0
71.476227 200.0
71.713692 152.0
71.794617 164.0
71.833412 120.0
71.997139 112.0
72.047813 216.0
72.090057 136.0
72.108643 140.0
72.262535 160.0
72.365776 148.0
72.510544 220.0
72.565399 220.0
72.606407 160.0
72.859329 172.0
72.961304 228.0
73.095673 152.0
73.257423 40.0
73.271049 88.0
73.444931 120.0
73.496117 144.0
73.525124 140.0
73.595116 148.0
73.661301 144.0
73.736908 52.0
74.190521 132.0
74.221382 184.0
74.350044 92.0
74.542389 92.0
74.740143 200.0
74.769394 124.0
74.957108 148.0
75.027779 52.0
75.119179 204.0
75.300423 104.0
75.391991 176.0
75.44384 64.0
75.533768 156.0
75.589134 180.0
75.653175 40.0
75.911339 108.0
75.975517 180.0
76.133476 120.0
76.147369 144.0
76.382027 148.0
76.425514 108.0
76.509064 148.0
76.759964 196.0
76.862885 216.0
76.913498 160.0
77.035736 168.0
77.112617 148.0
77.866013 196.0
78.066368 148.0
78.082191 76.0
78.120888 116.0
78.196556 104.0
78.233521 184.0
78.328613 192.0
78.661903 120.0
78.785004 124.0
78.857971 124.0
79.436996 132.0
79.600288 120.0
79.651794 168.0
79.701538 184.0
79.893562 144.0
80.002121 40.0
80.018143 140.0
80.256897 136.0
80.285637 208.0
80.832085 116.0
80.903679 52.0
81.021881 164.0
81.18679 196.0
81.210823 160.0
81.36982 196.0
81.393158 184.0
81.457817 220.0
81.488121 92.0
81.646545 136.0
81.734695 152.0
81.804886 172.0
81.866104 136.0
81.889519 148.0
82.001228 116.0
82.205025 152.0
82.224876 164.0
82.291664 124.0
82.325974 96.0
82.430756 104.0
82.510284 172.0
82.752731 136.0
83.017288 212.0
83.184212 192.0
83.434914 140.0
83.576782 152.0
83.594986 168.0
83.68782 212.0
83.769775 88.0
83.844482 112.0
83.864532 164.0
83.953865 224.0
84.004936 136.0
84.083397 160.0
84.141815 204.0
84.514679 72.0
84.571411 180.0
84.609856 160.0
84.657463 128.0
84.683098 204.0
84.697754 160.0
85.106728 180.0
85.189377 136.0
85.220612 148.0
85.409973 116.0
85.487244 220.0
85.573662 156.0
85.627159 228.0
85.71006 152.0
85.977463 140.0
86.010681 136.0
86.16581 212.0
86.23233 156.0
86.24527 152.0
86.306282 188.0
86.398758 128.0
86.415413 48.0
86.543121 124.0
86.828506 108.0
86.965805 96.0
87.0215 144.0
87.106041 152.0
87.512367 152.0
88.118546 160.0
88.278458 116.0
88.324188 116.0
88.369087 440.0
88.443939 212.0
88.884369 172.0
88.944214 152.0
89.019043 200.0
89.233742 56.0
89.293915 140.0
89.407616 208.0
89.534821 96.0
89.796799 140.0
89.839241 184.0
89.913773 164.0
89.945862 120.0
90.193314 176.0
90.26516 176.0
90.362587 260.0
90.490326 200.0
90.620148 192.0
90.655128 112.0
90.702507 188.0
90.795418 160.0
90.8694 224.0
91.053734 380.0
91.15612 188.0
91.205536 36.0
91.237854 144.0
91.422356 144.0
91.485168 248.0
91.54039 112.0
91.608955 228.0
91.629913 200.0
91.851051 72.0
91.877762 148.0
91.925461 148.0
91.976997 160.0
92.00116 188.0
92.029305 220.0
92.049759 328.0
92.104935 232.0
92.189003 208.0
92.332382 140.0
92.351509 72.0
92.615662 156.0
92.69014 196.0
92.730621 196.0
93.051575 312.0
93.075943 256.0
93.229729 148.0
93.252686 172.0
93.45076 228.0
93.506569 112.0
93.756943 172.0
93.839828 228.0
93.868752 168.0
93.934334 188.0
93.999931 160.0
94.243233 56.0
94.266426 148.0
94.407547 108.0
94.657181 144.0
94.826401 208.0
94.909096 180.0
94.961456 176.0
95.058678 340.0
95.077866 268.0
95.227364 224.0
95.254555 124.0
95.478081 196.0
95.515038 148.0
95.633736 180.0
95.83432 192.0
95.949318 84.0
96.007812 220.0
96.113152 148.0
96.275383 192.0
96.438873 184.0
96.519455 168.0
96.623116 164.0
96.644638 68.0
96.787529 192.0
96.889381 128.0
96.946205 40.0
97.267868 128.0
97.348366 136.0
97.369972 200.0
97.617592 124.0
97.794662 140.0
97.887192 212.0
98.030998 200.0
98.068443 180.0
98.099983 220.0
98.184776 176.0
98.267624 124.0
98.581589 136.0
98.779305 140.0
98.915848 80.0
98.939606 120.0
98.953468 228.0
99.04258 56.0
99.209038 184.0
99.449066 92.0
99.556274 64.0
99.852402 88.0
100.071304 196.0
100.085236 176.0
100.140999 220.0
100.300407 84.0
100.400101 132.0
100.453957 64.0
100.627579 112.0
100.955292 240.0
101.035301 168.0
101.149368 56.0
101.177399 92.0
101.217445 136.0
101.36367 240.0
101.95166 112.0
102.046143 140.0
102.162788 184.0
102.305679 140.0
102.390251 352.0
102.406364 132.0
102.573608 200.0
102.658287 196.0
102.734932 116.0
102.791428 164.0
102.874184 212.0
103.027664 224.0
103.051277 284.0
103.211594 184.0
103.274284 120.0
103.373466 172.0
103.519173 168.0
103.628563 228.0
103.75219 248.0
103.936768 196.0
103.99765 260.0
104.048119 380.0
104.092422 176.0
104.13369 200.0
104.15197 176.0
104.176346 88.0
104.332825 80.0
104.410095 96.0
104.491463 160.0
104.542336 104.0
104.702705 88.0
104.723534 220.0
104.931396 180.0
104.988487 140.0
105.052551 296.0
105.072121 164.0
105.276245 152.0
105.310066 168.0
105.466255 196.0
105.533714 140.0
105.57666 136.0
105.668709 144.0
105.799698 116.0
105.910278 168.0
106.05719 232.0
106.123413 120.0
106.154167 168.0
106.279297 324.0
106.449677 164.0
106.466103 164.0
106.507179 156.0
106.622246 28.0
106.67543 160.0
107.033684 240.0
107.06279 208.0
107.169632 180.0
107.205475 132.0
107.340721 108.0
107.355156 56.0
107.381966 224.0
107.51194 76.0
107.55529 188.0
107.623413 164.0
107.728752 76.0
107.753876 196.0
107.7742 128.0
107.966507 152.0
107.995407 184.0
108.042984 244.0
108.090576 116.0
108.320389 64.0
108.37426 160.0
108.645866 108.0
108.670761 244.0
108.699814 152.0
109.077515 1124.0
109.115234 72.0
109.15609 216.0
109.402336 204.0
109.491875 176.0
109.548119 176.0
109.650215 48.0
109.750282 156.0
109.825363 80.0
110.078651 304.0
110.111305 160.0
110.18409 128.0
110.209496 196.0
110.259644 188.0
110.330719 164.0
110.753433 168.0
110.793236 244.0
110.970222 184.0
111.025902 148.0
111.197945 144.0
111.263016 44.0
111.317612 124.0
111.342812 192.0
111.7621 92.0
111.782188 176.0
112.072166 208.0
112.302567 64.0
112.353195 160.0
112.443932 116.0
112.530479 192.0
112.627625 208.0
112.676216 152.0
112.79245 192.0
112.90451 144.0
113.160553 76.0
113.213493 120.0
113.247383 152.0
113.433853 232.0
113.595016 144.0
113.622597 140.0
113.650177 216.0
113.732948 136.0
113.786018 172.0
114.055817 244.0
114.090553 4932.0
114.174881 32.0
114.191895 56.0
114.579323 40.0
114.839394 128.0
114.892723 196.0
114.916191 188.0
114.967407 52.0
115.02504 152.0
115.05275 888.0
115.092995 620.0
115.17878 132.0
115.233826 68.0
115.259254 120.0
115.285614 96.0
115.469475 48.0
115.679169 68.0
115.779808 160.0
115.961922 116.0
115.979065 160.0
116.045387 312.0
116.048813 172.0
116.058777 296.0
116.07769 124.0
116.09967 192.0
116.122726 108.0
116.16777 212.0
116.290077 144.0
116.406013 140.0
116.640205 120.0
116.917664 148.0
116.945641 188.0
117.056694 424.0
117.475739 208.0
117.538307 224.0
117.670395 164.0
117.866531 176.0
118.041626 188.0
118.063881 708.0
118.293457 112.0
118.400864 272.0
118.533012 128.0
118.764992 236.0
118.927734 112.0
119.05957 528.0
119.120987 108.0
119.226517 184.0
119.521034 148.0
119.542793 160.0
119.575439 52.0
119.664696 144.0
119.693001 144.0
119.804077 168.0
119.86351 160.0
119.950089 164.0
120.063301 664.0
120.078583 720.0
120.495674 184.0
120.563416 96.0
120.634048 216.0
120.679276 52.0
120.860825 124.0
121.064407 188.0
121.084984 392.0
121.915611 180.0
122.0541 152.0
122.082687 128.0
122.348938 92.0
122.420067 196.0
122.595459 152.0
122.838173 112.0
122.957321 140.0
123.08757 52.0
123.109657 172.0
123.228935 84.0
123.691154 184.0
123.870522 68.0
123.954712 124.0
124.289551 180.0
124.384979 164.0
124.551521 88.0
124.76931 132.0
124.793762 164.0
124.898285 124.0
125.149773 160.0
125.341331 116.0
125.515205 96.0
125.573189 92.0
125.695892 172.0
125.803024 144.0
125.986153 212.0
126.147049 196.0
126.267799 168.0
126.339378 96.0
126.415451 188.0
126.605743 192.0
126.871315 140.0
126.899292 88.0
127.05629 192.0
127.092194 76.0
127.285233 200.0
127.643692 200.0
127.777481 84.0
127.928268 200.0
128.056427 180.0
128.176025 160.0
128.205322 148.0
128.511993 96.0
128.708374 176.0
128.825821 108.0
128.868744 96.0
128.904907 232.0
129.038269 212.0
129.065399 296.0
129.149078 68.0
129.316513 196.0
129.386688 204.0
129.810394 132.0
130.06575 748.0
130.143967 56.0
130.441589 140.0
130.5439 60.0
130.580292 56.0
130.600769 176.0
130.794174 196.0
130.835144 140.0
130.962677 260.0
131.062088 200.0
131.126724 184.0
131.445999 196.0
131.578384 108.0
131.772522 120.0
131.809082 164.0
131.985092 112.0
132.0354 176.0
132.081741 184.0
132.403885 184.0
132.424484 160.0
132.596329 88.0
132.736176 68.0
132.848557 44.0
133.183716 176.0
133.385925 124.0
133.556076 208.0
133.945099 260.0
134.120224 136.0
134.343903 172.0
134.452347 140.0
134.602417 44.0
134.780273 144.0
134.900467 184.0
135.078293 364.0
135.198837 112.0
135.541565 180.0
135.664413 160.0
135.875458 180.0
136.083496 296.0
136.270157 100.0
136.370087 144.0
136.635178 156.0
136.951782 168.0
136.99736 152.0
137.089233 196.0
137.243088 80.0
137.266403 172.0
137.616425 100.0
137.712173 116.0
137.833649 128.0
137.880386 140.0
137.917786 52.0
138.622253 188.0
138.713669 160.0
138.910645 148.0
139.004501 220.0
139.241608 92.0
139.617645 120.0
139.756439 180.0
139.779968 136.0
140.048157 176.0
140.331146 184.0
140.350021 176.0
141.067856 640.0
141.576477 52.0
141.832581 168.0
141.879776 192.0
141.967499 220.0
142.000702 180.0
142.017303 288.0
142.038666 224.0
142.064606 12024.0
142.13356 84.0
142.195267 64.0
142.240356 52.0
142.280273 64.0
142.313965 236.0
142.40657 52.0
142.544373 144.0
142.620544 148.0
142.848709 148.0
142.886765 108.0
142.941498 136.0
142.979568 156.0
143.06926 2484.0
143.111328 256.0
143.134308 124.0
143.189087 260.0
143.212906 76.0
143.284363 184.0
143.301041 156.0
143.351089 28.0
143.420197 64.0
143.491714 132.0
143.563248 176.0
143.718307 56.0
143.735016 156.0
143.770813 156.0
144.053711 108.0
144.078003 1016.0
144.150513 68.0
144.215042 168.0
144.255676 228.0
144.433868 116.0
144.530731 128.0
144.552261 156.0
144.569016 132.0
144.662369 164.0
144.722443 208.0
145.077606 564.0
145.143936 196.0
145.401642 124.0
145.55188 148.0
145.758453 168.0
145.929123 232.0
145.953156 64.0
146.006073 256.0
146.054169 136.0
146.10228 164.0
146.547699 44.0
146.576614 72.0
146.72847 64.0
147.003433 200.0
147.143448 104.0
147.208633 160.0
147.326538 108.0
147.609787 76.0
147.682587 156.0
147.725876 152.0
147.849274 136.0
147.90979 52.0
148.610184 108.0
148.879639 204.0
148.901489 48.0
148.947647 148.0
149.044815 204.0
149.239273 92.0
149.575012 128.0
149.631012 212.0
149.706497 180.0
149.913559 104.0
150.218338 172.0
150.235413 96.0
150.264694 128.0
150.867935 280.0
150.889938 96.0
151.061127 244.0
151.105164 96.0
151.145355 180.0
151.170258 220.0
151.34433 236.0
151.460144 152.0
151.543442 148.0
151.670868 136.0
151.842514 100.0
151.947983 104.0
152.066086 220.0
152.178711 148.0
152.2229 160.0
152.303955 120.0
152.45874 112.0
152.557053 192.0
152.657867 184.0
152.714432 272.0
152.743958 184.0
152.8116 172.0
152.83252 220.0
153.005997 100.0
153.056519 96.0
153.2043 124.0
153.273285 164.0
153.502533 132.0
153.529663 56.0
153.588852 116.0
153.768982 144.0
153.803528 216.0
154.067398 836.0
154.089996 156.0
154.505356 204.0
154.557312 220.0
154.652451 196.0
154.676117 200.0
154.777618 120.0
155.06282 212.0
155.270782 172.0
155.293106 132.0
155.317902 44.0
155.511444 180.0
155.695175 196.0
155.901367 84.0
155.978424 148.0
156.035599 120.0
156.079697 712.0
156.242035 208.0
156.371429 136.0
156.426193 116.0
156.513321 212.0
156.602982 124.0
156.715088 196.0
156.735016 68.0
156.984299 180.0
157.084244 484.0
157.465973 256.0
157.61087 60.0
157.635849 188.0
157.768326 128.0
157.793335 184.0
158.090164 360.0
158.461594 180.0
158.702209 136.0
158.719757 104.0
158.73732 144.0
159.096771 172.0
159.274414 108.0
159.329681 156.0
159.347275 120.0
159.503082 44.0
159.648911 88.0
160.023849 220.0
160.071686 128.0
160.096878 120.0
160.164871 116.0
160.568161 248.0
160.742233 256.0
160.844513 144.0
160.876007 140.0
160.987091 128.0
161.057816 208.0
161.10582 128.0
161.174026 180.0
161.469803 200.0
162.125534 112.0
163.232361 72.0
163.252716 88.0
163.861069 136.0
163.91713 212.0
164.166962 184.0
164.240921 120.0
164.628876 56.0
164.748917 212.0
164.920135 228.0
165.285843 144.0
165.5345 176.0
165.562317 180.0
165.593063 100.0
165.733963 264.0
166.05954 80.0
166.210892 112.0
166.30072 200.0
166.452637 200.0
167.070984 428.0
167.341873 248.0
167.43457 116.0
167.45517 128.0
167.511841 32.0
167.529877 80.0
167.656128 100.0
167.6819 132.0
167.743774 68.0
167.805649 140.0
167.957794 192.0
168.009567 120.0
168.079315 1144.0
168.288132 160.0
168.54126 140.0
168.633743 92.0
168.639084 132.0
168.756912 128.0
168.899643 148.0
169.074997 9500.0
169.120575 88.0
169.174927 28.0
169.205994 52.0
169.255188 56.0
169.319931 88.0
169.384689 148.0
169.433914 76.0
169.485733 104.0
169.66716 108.0
169.768295 104.0
169.830536 68.0
169.853882 216.0
170.079468 1028.0
170.196457 76.0
170.261383 192.0
170.3508 216.0
170.445831 92.0
170.632965 360.0
170.684967 192.0
170.766647 108.0
170.804611 176.0
170.88266 220.0
170.939896 180.0
170.97374 92.0
171.002365 212.0
171.04921 144.0
171.089874 1780.0
171.210648 36.0
171.24971 100.0
171.757996 172.0
172.021561 164.0
172.063324 176.0
172.107361 180.0
172.28009 144.0
172.368927 88.0
172.957382 232.0
173.085663 144.0
173.111862 172.0
173.130188 196.0
173.151138 220.0
173.172089 156.0
173.518005 148.0
174.054779 180.0
174.226624 68.0
174.389542 148.0
174.526245 224.0
174.59462 128.0
174.613022 196.0
174.939316 128.0
175.0578 60.0
175.384491 132.0
175.453033 124.0
175.595428 128.0
175.753708 88.0
176.429855 164.0
176.543564 124.0
176.93782 52.0
177.32988 108.0
177.366989 164.0
177.40535 144.0
177.442352 204.0
177.520767 84.0
177.682571 136.0
177.947983 72.0
178.10997 204.0
178.189667 168.0
178.694839 204.0
178.827896 208.0
178.875809 148.0
179.062195 136.0
179.219376 164.0
179.685974 148.0
180.065033 144.0
180.142487 108.0
180.313507 176.0
180.669144 164.0
180.693222 208.0
180.7173 176.0
180.757446 164.0
180.792236 164.0
180.901978 104.0
181.073349 248.0
181.14299 92.0
181.169769 132.0
181.657684 88.0
182.028076 200.0
182.070984 364.0
182.337021 140.0
182.444534 136.0
182.985321 180.0
183.090073 2588.0
183.157669 80.0
183.274597 140.0
183.305847 80.0
183.618576 180.0
183.656342 44.0
183.712982 160.0
183.979263 112.0
184.097473 2296.0
184.209702 176.0
184.271851 96.0
184.515091 100.0
184.923569 136.0
184.950638 80.0
185.042679 152.0
185.105377 6132.0
185.145584 184.0
185.29509 208.0
185.356888 28.0
185.554749 40.0
185.687622 208.0
185.953522 212.0
185.9888 40.0
186.100952 2408.0
186.265778 80.0
186.292938 60.0
186.32283 124.0
186.347275 48.0
186.396194 104.0
186.498291 140.0
186.540237 188.0
186.820343 76.0
186.885635 204.0
187.062546 124.0
187.10437 264.0
187.155106 60.0
187.334869 180.0
187.397522 128.0
187.569214 120.0
187.623749 212.0
187.708267 164.0
187.735535 204.0
188.035645 136.0
188.229477 120.0
188.292282 120.0
188.344177 76.0
188.551834 140.0
188.658432 108.0
188.737732 172.0
188.77327 92.0
189.128952 136.0
189.24202 172.0
189.259277 132.0
189.638412 80.0
189.668564 76.0
190.379181 156.0
190.434113 132.0
190.750107 228.0
190.783096 152.0
191.129654 136.0
191.385651 168.0
191.54538 84.0
191.717438 168.0
191.820953 128.0
192.179474 92.0
192.408844 156.0
192.86438 120.0
193.077271 112.0
193.157486 144.0
193.268143 140.0
193.93512 148.0
194.088058 112.0
194.193436 192.0
194.382095 76.0
194.615265 196.0
195.09108 1372.0
195.460281 56.0
195.613358 144.0
195.63562 160.0
195.805481 208.0
196.057846 192.0
196.086334 1712.0
196.171478 272.0
196.569351 84.0
196.608414 164.0
196.689362 196.0
196.909943 44.0
197.052414 64.0
197.092819 872.0
197.245239 72.0
197.446564 124.0
197.578033 64.0
197.687149 180.0
197.905487 64.0
197.972702 160.0
198.096207 272.0
198.177185 204.0
198.252853 128.0
198.404205 228.0
198.521973 184.0
198.558441 100.0
199.101898 244.0
199.125977 168.0
199.485046 40.0
199.582047 160.0
199.816895 152.0
199.906937 40.0
200.116547 152.0
200.16864 204.0
200.320831 164.0
200.752075 168.0
200.864899 192.0
200.884644 136.0
200.918503 76.0
201.116028 176.0
201.805344 172.0
201.986343 140.0
202.467514 192.0
202.699814 204.0
202.71965 152.0
203.045685 132.0
203.451462 160.0
203.538391 136.0
203.610474 152.0
203.735458 128.0
203.877518 164.0
203.942902 196.0
204.611404 104.0
204.659805 124.0
204.826752 136.0
205.369431 228.0
205.629074 180.0
205.723267 156.0
206.429001 204.0
207.001343 180.0
207.23909 168.0
208.022049 100.0
208.560776 228.0
208.593719 144.0
208.645462 164.0
208.725967 140.0
208.809372 128.0
208.930176 136.0
209.143127 140.0
209.220856 136.0
209.621216 64.0
209.791275 108.0
209.888947 164.0
210.010437 164.0
210.045044 188.0
210.104843 572.0
210.252792 28.0
210.402893 160.0
210.431763 228.0
210.493958 104.0
210.576157 76.0
210.681747 172.0
210.735031 112.0
210.853516 160.0
210.934448 124.0
210.983597 152.0
211.110931 396.0
211.204666 152.0
211.255432 204.0
211.295944 88.0
211.322815 140.0
211.350922 96.0
211.440628 180.0
211.518784 160.0
211.541931 164.0
211.576675 220.0
211.604645 176.0
211.656998 276.0
211.730728 196.0
211.782272 212.0
211.816269 136.0
211.84166 208.0
211.86084 200.0
211.919159 160.0
211.939545 184.0
212.008621 500.0
212.039429 228.0
212.048599 196.0
212.07135 392.0
212.117828 145508.0
212.18103 180.0
212.204025 156.0
212.242462 56.0
212.260803 76.0
212.31131 68.0
212.349731 180.0
212.405197 96.0
212.436768 148.0
212.478012 68.0
212.523087 160.0
212.552185 192.0
212.595352 752.0
212.620361 172.0
212.653244 136.0
212.664856 52.0
212.673416 156.0
212.70488 104.0
212.78566 48.0
212.831207 140.0
212.867889 260.0
212.946625 168.0
212.9711 120.0
213.008179 160.0
213.063461 188.0
213.119568 15700.0
213.17392 120.0
213.225845 64.0
213.250458 96.0
213.270798 80.0
213.294052 52.0
213.32312 160.0
213.352203 68.0
213.374084 68.0
213.399582 104.0
213.444016 76.0
213.483215 68.0
213.550003 184.0
213.586212 68.0
213.609863 80.0
213.683746 88.0
213.749374 116.0
213.782303 60.0
213.827026 84.0
213.858063 40.0
213.91658 48.0
213.951508 48.0
213.998093 60.0
214.031265 172.0
214.067978 64.0
214.123322 1388.0
214.206329 72.0
214.228592 92.0
214.253052 52.0
214.273697 192.0
214.314316 184.0
214.359497 56.0
214.426926 60.0
214.465958 120.0
214.485809 68.0
214.556244 140.0
214.593994 116.0
214.615799 196.0
214.642044 96.0
214.68277 116.0
214.690887 248.0
214.703156 88.0
214.76593 84.0
214.797455 168.0
214.837952 84.0
214.866638 64.0
214.898727 48.0
214.945419 80.0
215.082596 36.0
215.11142 32.0
215.134125 144.0
215.236847 72.0
215.29866 68.0
215.402618 100.0
215.611252 32.0
215.675552 60.0
215.72728 92.0
215.787399 124.0
215.830505 108.0
215.862671 48.0
215.894836 84.0
216.108383 44.0
216.155197 88.0
216.313248 124.0
216.436218 60.0
216.717407 60.0
216.790665 64.0
216.875671 60.0
217.130753 96.0
217.503387 44.0
217.676605 72.0
218.049713 68.0
218.367249 84.0
218.755661 40.0
220.032196 60.0
220.380707 296.0
220.404343 68.0
220.871475 92.0
221.137772 76.0
222.459824 128.0
223.497086 76.0
223.657791 144.0
224.247543 68.0
224.280334 76.0
224.328033 80.0
224.736633 124.0
224.790344 88.0
225.797119 84.0
226.126236 80.0
226.422638 68.0
227.001038 112.0
228.187103 44.0
229.147217 40.0
229.539078 32.0
229.59938 60.0
229.952377 96.0
233.360413 76.0
243.759796 88.0
248.656738 80.0
251.59996 112.0
252.424637 44.0
254.900406 92.0
259.25647 76.0
265.90033 140.0
275.016083 124.0
279.786346 100.0
289.0065 68.0
289.737854 124.0
290.422607 80.0
292.859711 84.0
295.984619 64.0
299.180481 364.0
303.371765 48.0
305.437988 52.0
308.269073 132.0
308.57666 36.0
316.044037 76.0
323.171173 68.0
324.342255 76.0
326.216095 104.0
336.53833 60.0
341.669586 76.0
342.538391 84.0
342.689178 116.0
344.190674 84.0
358.052887 72.0
361.132721 40.0
367.545624 104.0
376.046265 104.0
376.94223 72.0
382.286041 92.0
392.455353 104.0
398.443787 92.0
409.943939 88.0
434.836761 88.0
442.25177 48.0
453.799164 132.0
454.25296 60.0
454.81308 52.0
460.155823 80.0
472.365631 68.0
478.628448 92.0
484.380432 48.0
505.089233 124.0
510.894135 92.0
522.676208 52.0
527.844543 28.0
533.976074 64.0
545.001831 68.0
554.306458 96.0
554.747009 104.0
554.779846 104.0
570.629272 48.0
576.095764 128.0
594.683594 148.0
596.636414 92.0
597.015686 32.0
627.309204 116.0
655.541443 76.0
686.004944 44.0
718.973755 112.0
721.307861 80.0
722.987366 96.0
723.715393 96.0
764.541138 64.0
785.206726 72.0
787.997864 64.0
796.429077 84.0
807.917725 80.0
812.115295 80.0
831.658325 64.0
855.271179 64.0
865.101562 72.0
883.397949 220.0
920.806763 92.0
927.165466 148.0
931.667847 44.0
956.422729 148.0
962.168213 172.0
979.028259 80.0
998.60553 172.0
1005.706604 268.0
1013.035583 152.0
1013.485413 60.0
1050.789062 96.0
1051.485962 48.0
1052.370361 172.0
1053.558716 156.0
1061.682251 152.0
1070.950439 252.0
1086.338257 144.0
1091.408569 172.0
1104.86377 156.0
1106.571411 132.0
1107.571411 80.0
1148.069702 164.0
1148.460938 76.0
1160.268188 76.0
1168.057495 120.0
1168.220825 168.0
1169.724731 72.0
1171.447632 144.0
1171.856445 248.0
1189.384521 148.0
1191.86377 108.0
1193.719849 176.0
1195.831909 160.0
1196.905884 204.0
1200.020386 148.0
1203.705078 160.0
1204.796387 112.0
1205.224731 72.0
1205.660034 176.0
1209.083496 136.0
1209.471069 88.0
1210.945923 156.0
1224.51062 52.0
1227.625977 176.0
1229.097778 208.0
1231.268921 168.0
1231.702026 192.0
1234.280884 128.0
1237.947754 204.0
1243.528442 72.0
1244.167236 216.0
1244.36377 100.0
1254.819092 160.0
1255.481934 180.0
1262.62207 212.0
1263.060669 152.0
1264.886353 180.0
1266.883301 152.0
1273.821289 152.0
1276.216431 68.0
1278.037354 180.0
1285.990601 176.0
1289.933594 108.0
1293.138062 112.0
1294.569946 188.0
1294.913696 208.0
1297.256836 188.0
1299.300781 192.0
1303.314453 156.0
1303.580322 144.0
1305.384644 156.0
1305.715454 64.0
1310.71167 140.0
1313.025757 92.0
1317.754028 192.0
1320.493774 56.0
1321.07251 112.0
1328.838989 112.0
1329.99292 140.0
1331.314331 144.0
1337.960327 228.0
1340.334839 96.0
1340.429565 136.0
1340.925171 128.0
1354.017822 104.0
1354.567261 180.0
1366.276489 72.0
1370.605835 112.0
1374.853516 140.0
1378.871216 176.0
1378.989502 216.0
1380.586426 172.0
1382.51001 76.0
1392.59314 92.0
1395.260864 136.0
1397.484741 148.0
1397.7229 120.0
1400.879761 60.0
1402.452026 208.0
1404.427979 160.0
1407.891113 144.0
1408.817383 176.0
1412.734741 96.0
1418.725952 116.0
1418.883301 180.0
1419.445679 148.0
1424.31665 200.0
1425.18811 136.0
1427.428223 208.0
1427.766602 92.0
1429.015259 116.0
1431.875854 164.0
1432.177124 92.0
1434.882568 268.0
1435.033325 144.0
1435.644165 84.0
1437.492432 260.0
1442.12207 224.0
1444.564453 172.0
1447.054443 36.0
1447.872192 168.0
1451.150513 180.0
1452.328857 212.0
1454.947021 188.0
1455.949341 200.0
1456.275879 244.0
1456.541748 184.0
1458.623901 160.0
1459.56665 168.0
1461.681274 288.0
1461.993286 148.0
1462.510864 136.0
1478.125977 152.0
1483.456665 172.0
1484.507202 124.0
1487.353638 168.0
1488.052246 180.0
1490.44873 236.0
1493.200928 184.0
1493.662354 68.0
1498.057983 80.0
1505.053345 208.0
