>compound MLS001140698-01!(2S)-1-[(2S)-2-[[(2S)-2-(2,4-dioxo-1H-quinazolin-3-yl)-3-phenylpropanoyl]amino]-4-methylpentanoyl]pyrrolidine-2-carboxylic acid
>formula C28H32N4O6
>ionization [M+H]+
>parentmass 521.24
#inchi InChI=1S/C28H32N4O6/c1-17(2)15-21(26(35)31-14-8-13-22(31)27(36)37)29-24(33)23(16-18-9-4-3-5-10-18)32-25(34)19-11-6-7-12-20(19)30-28(32)38/h3-7,9-12,17,21-23H,8,13-16H2,1-2H3,(H,29,33)(H,30,38)(H,36,37)/t21-,22-,23-/m0/s1
#inchikey QPHKNVHDBDNKLQ
#Ion_Source LC-ESI
#Instrument qTof
#Compound_Source NIH Natural Product Library
#PI Dorrestein
#Data_Collector VVP/LMS
#Scan -1
#Precursor_MZ 521.24
#ExactMass 520.232
#Charge 1
#CAS_Number N/A
#Pubmed_ID N/A
#Smiles CC(C)C[C@H](NC(=O)[C@H](Cc1ccccc1)n2c(=O)[nH]c3ccccc3c2=O)C(=O)N4CCC[C@H]4C(=O)O
#INCHI_AUX N/A
#Library_Class 1
#SpectrumID CCMSLIB00000079603
#IonMode Positive
#UpdateWorkflowName UPDATE-SINGLE-ANNOTATED-GOLD
#LibraryQualityString Gold
#TaskID b1d8e8f6646f4e71acdff9ca3d919d08
##Scan# 2026
#SpectrumFile p1-F08_GF8_01_17940.mzXML
#LibraryName NIH_Natural_Products_Library.mgf
#MQScore -1
#Organism NIH_Natural_Products_Library
#TIC_Query 0
#RT_Query -1
#MZErrorPPM -1
#SharedPeaks 0
#MassDiff 0
#LibMZ -1
#SpecMZ 521.24
#SpecCharge 0
#internalFilename spec-00000.mgf

>collision 10
95.114326 184.0
95.436821 104.0
95.489326 112.0
95.787125 204.0
95.980064 180.0
95.995667 120.0
96.116608 148.0
96.159538 56.0
96.475975 236.0
96.560051 140.0
96.697006 136.0
97.008446 128.0
97.135902 124.0
97.483414 96.0
98.669991 180.0
99.139099 208.0
99.232262 120.0
100.028893 180.0
102.04258 140.0
102.605164 148.0
103.053391 1732.0
103.180542 72.0
103.322113 52.0
103.735237 140.0
104.054512 200.0
104.822578 64.0
105.033272 216.0
105.261147 144.0
105.283615 148.0
105.304039 156.0
106.977226 176.0
108.040009 72.0
108.162102 188.0
108.32634 140.0
108.393883 188.0
109.284836 108.0
109.320206 164.0
109.476334 144.0
110.239845 112.0
110.306725 56.0
110.461464 120.0
110.788033 116.0
111.745369 176.0
111.802177 184.0
112.035896 164.0
112.080147 144.0
112.263535 128.0
112.64344 124.0
112.751198 160.0
112.890724 164.0
113.521782 184.0
113.740311 144.0
114.39502 168.0
114.435471 92.0
114.701759 144.0
115.04734 172.0
115.538864 112.0
115.592354 188.0
115.660843 180.0
115.78054 212.0
115.941414 108.0
115.969276 188.0
116.070107 2932.0
116.370422 176.0
116.41552 196.0
116.516472 36.0
116.819458 132.0
116.929321 40.0
117.074936 520.0
117.491714 156.0
117.817703 192.0
118.068436 100.0
118.382233 184.0
119.271751 140.0
120.043953 384.0
120.411278 140.0
120.778465 76.0
121.045464 176.0
121.067368 172.0
121.084885 96.0
121.808693 80.0
122.191208 176.0
122.312241 152.0
122.486198 136.0
122.752869 176.0
122.796982 112.0
123.055161 188.0
123.108154 212.0
123.203133 136.0
123.390984 160.0
123.508186 120.0
123.676346 148.0
123.795898 132.0
124.092819 108.0
124.126076 148.0
124.148247 208.0
124.99015 120.0
125.980064 212.0
126.000168 140.0
126.317612 104.0
126.460815 156.0
126.637695 116.0
126.669052 188.0
126.758667 104.0
127.748795 212.0
127.823044 72.0
128.453873 136.0
128.701874 176.0
128.898651 196.0
128.914459 136.0
128.970963 152.0
130.078613 172.0
130.337524 160.0
130.733185 200.0
131.048279 236.0
131.072479 196.0
131.145401 208.0
131.195557 164.0
131.414505 164.0
132.051834 160.0
132.963684 164.0
133.069275 140.0
133.193283 200.0
133.250717 152.0
133.287476 216.0
133.821091 144.0
134.3927 212.0
135.384354 104.0
135.690216 208.0
135.774414 64.0
136.170563 144.0
136.233276 176.0
136.775085 72.0
137.719406 184.0
137.990479 104.0
139.791901 204.0
139.97316 116.0
140.376099 156.0
141.619217 160.0
143.053421 236.0
143.184372 360.0
143.358276 184.0
144.071686 176.0
145.042282 152.0
145.172699 140.0
145.23027 48.0
145.635895 216.0
145.669525 220.0
145.746414 168.0
146.023819 7628.0
146.059158 132.0
146.09021 88.0
146.224243 68.0
146.419968 84.0
146.480179 208.0
146.576553 212.0
146.600647 200.0
147.026596 988.0
147.054047 40.0
147.073349 188.0
147.264099 136.0
147.307571 192.0
147.941147 180.0
147.979889 128.0
148.02832 204.0
148.270569 136.0
148.736252 80.0
149.886581 68.0
150.967972 64.0
151.117188 128.0
151.455017 172.0
151.513809 128.0
151.57016 336.0
154.312119 100.0
154.38382 104.0
154.858994 68.0
155.498672 180.0
155.578094 156.0
156.296371 184.0
156.742081 180.0
156.896606 56.0
158.11055 180.0
158.245728 156.0
158.784485 180.0
159.115707 44.0
159.193542 152.0
159.432205 152.0
160.212204 176.0
160.489441 160.0
160.64328 148.0
161.049683 160.0
161.352905 120.0
161.671616 184.0
162.583939 140.0
162.959747 116.0
163.049423 2460.0
163.091904 28.0
163.407578 176.0
163.593002 80.0
163.636292 164.0
163.987823 208.0
164.051239 164.0
164.125488 196.0
164.42395 40.0
164.707352 100.0
165.070267 144.0
165.123962 144.0
166.852249 172.0
168.26149 188.0
169.104187 244.0
170.117676 156.0
170.457916 132.0
170.686661 128.0
172.464645 184.0
172.577057 136.0
172.822922 248.0
173.485535 100.0
173.708435 156.0
174.7435 144.0
176.196182 164.0
176.777878 116.0
177.803467 192.0
178.068954 172.0
178.132706 104.0
178.151291 44.0
179.95697 208.0
181.080093 104.0
182.029434 68.0
182.698685 220.0
183.681931 164.0
184.686737 60.0
187.387817 112.0
188.075027 132.0
188.689667 160.0
189.614883 20.0
190.048141 80.0
190.207321 96.0
190.355576 224.0
191.009689 64.0
191.180267 188.0
192.470352 132.0
192.904099 160.0
193.244263 164.0
193.299606 116.0
193.773071 176.0
194.095444 260.0
194.347 156.0
195.010712 264.0
195.099655 112.0
195.13858 180.0
195.302643 164.0
195.338806 60.0
195.505753 196.0
196.026489 144.0
196.299683 144.0
196.651199 128.0
196.746094 140.0
196.87175 72.0
198.094009 148.0
200.741577 100.0
201.215607 132.0
202.79689 208.0
202.864929 80.0
202.918793 132.0
202.98967 116.0
203.080429 124.0
203.466339 116.0
203.622528 52.0
204.114151 152.0
204.387222 140.0
204.734512 192.0
205.156204 196.0
205.915207 164.0
207.030563 128.0
207.059204 128.0
207.305573 196.0
207.689743 208.0
208.564423 204.0
209.587143 124.0
209.668106 208.0
209.94458 160.0
210.204208 48.0
210.507309 132.0
211.02742 108.0
211.429489 196.0
211.701614 132.0
212.292786 112.0
213.169464 144.0
215.974106 136.0
217.52124 180.0
217.773758 76.0
218.117538 148.0
218.288055 288.0
218.376282 172.0
220.079056 180.0
220.676422 100.0
221.173416 220.0
222.089142 300.0
222.136444 160.0
222.433182 80.0
223.096313 376.0
224.047928 96.0
225.647583 172.0
225.749237 104.0
225.931686 136.0
226.305801 120.0
226.48848 168.0
226.548386 148.0
228.144897 212.0
228.235092 164.0
229.157135 212.0
229.189255 168.0
230.172577 164.0
230.707352 68.0
231.085403 104.0
231.654556 144.0
231.757553 140.0
231.830276 184.0
231.866653 112.0
232.042465 136.0
232.094009 124.0
232.451935 160.0
232.546005 148.0
233.89859 140.0
235.081116 140.0
236.973846 168.0
237.108673 192.0
237.496887 168.0
238.053558 184.0
238.102692 140.0
238.76651 80.0
238.883392 188.0
239.061844 156.0
239.391235 76.0
240.195648 160.0
241.208466 132.0
241.479309 160.0
241.746613 112.0
243.10083 156.0
244.1073 112.0
245.433807 160.0
245.549179 232.0
245.789383 156.0
247.084747 700.0
248.006668 124.0
248.074875 320.0
248.089935 348.0
248.15715 116.0
248.288849 56.0
248.36412 160.0
249.45372 152.0
249.48201 136.0
249.998566 68.0
250.123734 144.0
250.174103 120.0
251.05632 76.0
251.605347 108.0
252.765305 176.0
252.964706 116.0
253.553833 196.0
253.645752 116.0
253.781677 164.0
253.915253 224.0
255.697571 184.0
257.594727 204.0
257.875916 136.0
258.285156 152.0
258.749176 176.0
258.877258 264.0
260.262512 60.0
260.61261 148.0
261.60025 220.0
263.224884 44.0
263.383148 48.0
263.483276 40.0
263.551147 160.0
263.696564 80.0
263.751495 76.0
263.783813 52.0
263.832306 140.0
264.012939 152.0
264.097473 64.0
264.327179 196.0
264.42038 180.0
264.466217 88.0
264.500793 112.0
264.54248 160.0
264.565094 172.0
264.591339 176.0
264.683228 136.0
264.715607 120.0
264.762024 240.0
264.904968 192.0
264.929382 60.0
264.955292 148.0
265.031891 176.0
265.096924 53336.0
265.225494 52.0
265.233002 52.0
265.324738 184.0
265.397186 124.0
265.425262 76.0
265.465485 80.0
265.50415 124.0
265.545258 84.0
265.567963 48.0
265.590668 136.0
265.628296 60.0
265.649902 240.0
265.675812 80.0
265.699066 128.0
265.735352 92.0
265.767883 76.0
265.846954 196.0
265.911865 60.0
265.954071 72.0
266.018982 88.0
266.100098 8128.0
266.187805 60.0
266.282837 168.0
266.344208 52.0
266.495209 88.0
266.603607 112.0
266.632874 48.0
266.769379 156.0
266.795227 84.0
266.866913 108.0
266.905945 48.0
267.063934 96.0
267.101624 800.0
267.169373 48.0
267.224976 92.0
267.302765 112.0
267.325562 52.0
267.364594 80.0
267.432953 68.0
267.506531 92.0
267.570953 112.0
267.609558 96.0
267.638031 32.0
267.670593 88.0
267.703156 100.0
267.729218 116.0
267.776978 124.0
267.789825 124.0
267.828064 104.0
267.879059 96.0
268.012634 128.0
268.043884 108.0
268.105743 256.0
268.165771 116.0
268.204895 188.0
268.299438 80.0
268.335297 60.0
268.455933 68.0
268.520081 60.0
268.667938 92.0
268.762573 56.0
268.814758 92.0
268.866974 48.0
268.902893 120.0
269.131409 96.0
269.167297 60.0
269.265289 88.0
269.59198 44.0
269.693298 64.0
269.784821 92.0
270.30484 76.0
270.596161 40.0
270.700928 60.0
270.809021 48.0
271.03833 36.0
272.823761 112.0
273.547485 64.0
274.113983 164.0
274.288635 68.0
274.318298 48.0
275.080261 808.0
275.265198 60.0
275.427032 36.0
275.569092 156.0
276.077728 240.0
276.157501 68.0
277.095581 124.0
277.738586 68.0
278.421112 36.0
278.64035 84.0
278.898712 116.0
279.071686 180.0
279.13559 48.0
279.178833 164.0
279.202118 84.0
279.38504 104.0
282.818756 64.0
283.093292 96.0
284.139069 172.0
285.459076 156.0
286.057953 76.0
289.92865 112.0
290.898712 36.0
291.068451 116.0
291.15271 128.0
292.074432 164.0
292.108429 172.0
292.632538 92.0
292.772156 56.0
292.966278 128.0
292.999451 228.0
293.091095 6156.0
293.193176 68.0
293.216858 52.0
293.327515 36.0
293.480927 44.0
293.515015 124.0
293.58606 72.0
293.699188 52.0
294.036957 208.0
294.094208 1964.0
294.149597 32.0
294.180298 32.0
294.272217 52.0
294.412476 72.0
295.101044 296.0
295.34552 96.0
295.581573 80.0
295.759552 52.0
295.954681 64.0
296.053986 108.0
297.061646 60.0
298.744904 64.0
299.436768 40.0
302.160309 88.0
302.890747 132.0
305.205536 32.0
306.615387 92.0
308.266052 104.0
308.643555 108.0
310.818756 84.0
317.120789 44.0
319.517731 148.0
321.020813 148.0
331.960297 104.0
336.154572 148.0
338.095032 112.0
339.054535 144.0
340.801239 60.0
343.5625 120.0
345.23938 128.0
360.821289 52.0
377.964996 68.0
382.050476 188.0
384.087769 200.0
397.404816 96.0
401.912903 96.0
403.222717 164.0
405.443878 72.0
407.144867 128.0
409.042633 112.0
414.280151 116.0
419.485748 144.0
428.126923 164.0
429.087006 60.0
435.131531 184.0
442.109253 140.0
443.353027 76.0
444.711884 48.0
451.499237 148.0
452.032257 156.0
453.103455 128.0
456.116425 136.0
462.146667 104.0
477.869598 68.0
477.934845 44.0
479.25415 128.0
482.938629 116.0
483.201111 188.0
483.638702 72.0
490.129578 124.0
505.113586 28.0
507.397461 56.0
515.219238 184.0
519.20697 168.0
529.319153 148.0
536.634155 92.0
536.970764 104.0
542.737366 84.0
548.464844 68.0
550.648438 68.0
565.955566 116.0
566.931335 132.0
577.197632 236.0
588.225464 88.0
592.510132 88.0
612.968384 80.0
637.939514 76.0
641.947266 76.0
642.729126 104.0
650.309998 36.0
681.981934 52.0
704.874084 88.0
705.926025 84.0
720.8797 56.0
773.518921 80.0
798.578369 48.0
816.473083 76.0
835.307983 68.0
841.682129 56.0
846.452576 76.0
854.607849 64.0
891.91217 152.0
940.49469 152.0
949.985352 180.0
955.809753 124.0
1035.444214 36.0
1107.46875 128.0
1133.048706 140.0
1149.555664 108.0
1189.631958 20.0
1194.614014 72.0
1204.077759 232.0
1228.412842 52.0
1242.382935 64.0
1242.726685 64.0
1269.737061 184.0
1274.642456 236.0
1310.346924 120.0
1318.348999 104.0
1332.318604 204.0
1341.371338 108.0
1342.705566 144.0
1348.224854 208.0
1348.283325 96.0
1367.241089 120.0
1377.053833 168.0
1386.42749 152.0
1403.502441 244.0
1409.122559 60.0
1409.94458 148.0
1416.191772 180.0
1431.271484 212.0
1443.177979 128.0
1448.051392 144.0
1460.346802 208.0
1464.083618 184.0
1488.547119 176.0
1496.043457 80.0
1496.09729 76.0
1497.190674 240.0
1504.222412 56.0
