>compound Ezetimibe
>formula C24H21F2NO3 
>ionization [M+H]+
>parentmass 410.156
#inchi InChI=1S/C24H21F2NO3/c25-17-5-1-15(2-6-17)22(29)14-13-21-23(16-3-11-20(28)12-4-16)27(24(21)30)19-9-7-18(26)8-10-19/h1-12,21-23,28-29H,13-14H2/t21-,22+,23-/m1/s1
#inchikey OLNTVTPDXPETLC
#Ion_Source LC-ESI
#Instrument qTof
#Compound_Source Isolated
#PI Sirenas
#Data_Collector Ed Esquenazi 
#Scan -1
#Precursor_MZ 410.156
#ExactMass 0.0
#Charge 1
#CAS_Number N/A
#Pubmed_ID N/A
#Smiles N/A
#INCHI_AUX N/A
#Library_Class 3
#SpectrumID CCMSLIB00000006303
#IonMode Positive
#UpdateWorkflowName UPDATE-SINGLE-ANNOTATED-BRONZE
#LibraryQualityString Bronze
#TaskID d19310cd93df49b68e9fcbec27720eb5
##Scan# 5
#SpectrumFile Ezetimibe.mgf
#LibraryName fda_library.mgf
#MQScore -1
#Organism fda_library
#TIC_Query 0
#RT_Query -1
#MZErrorPPM -1
#SharedPeaks 0
#MassDiff 0
#LibMZ -1
#SpecMZ 410.156
#SpecCharge 0
#internalFilename spec-00000.mgf

>collision 10
107.050751 66.801918
112.055595 69.675583
115.051018 36.77515
115.055412 99.358383
120.506172 19.063061
132.356079 17.111839
133.065491 1528.969971
133.097717 12.16667
133.146423 18.445511
133.348755 21.346701
133.647018 17.67816
133.703247 21.710501
134.335724 14.67738
135.060623 2762.199951
135.110931 11.90972
135.12886 14.79321
135.225021 35.88298
135.312469 21.026779
135.349655 22.003201
135.604675 12.14286
135.681671 19.29977
145.062668 72.977943
147.043716 101.9664
149.054901 39.860001
151.054001 33.03141
159.057159 49.795212
160.533386 10.00417
161.05867 370.394012
175.056168 12.14405
193.065033 25.185261
201.068497 149.197296
203.810211 11.92628
216.079605 155.188797
244.087158 32.840279
252.080582 23.13225
269.864624 12.17647
271.092163 56.668652
271.11554 39.483212
299.107666 26.268749
361.920044 10.17361
364.147736 119.385002
392.082031 22.367649
392.144806 413.132904
