>compound (8R,9S,10R,13S,14S,17R)-13-ethyl-17-ethynyl-17-hydroxy-1,2,6,7,8,9,10,11,12,14,15,16-dodecahydrocyclopenta[a]phenanthren-3-one
>formula C21H28O2
>ionization [M+H]+
>parentmass 313.217102
#inchi InChI=1S/C21H28O2/c1-3-20-11-9-17-16-8-6-15(22)13-14(16)5-7-18(17)19(20)10-12-21(20,23)4-2/h2,13,16-19,23H,3,5-12H2,1H3/t16-,17+,18+,19-,20-,21-/m0/s1
#inchikey WWYNJERNGUHSAO
#Ion_Source LC-ESI
#Instrument qTof
#Compound_Source Commercial
#PI Dorrestein
#Data_Collector Garg_Neha
#Scan -1
#Precursor_MZ 313.216
#ExactMass 312.209
#Charge 1
#CAS_Number N/A
#Pubmed_ID N/A
#Smiles CC[C@@]12CC[C@H]3[C@@H](CCC4=CC(=O)CC[C@H]34)[C@@H]2CC[C@@]1(O)C#C
#INCHI_AUX N/A
#Library_Class 1
#SpectrumID CCMSLIB00000079025
#IonMode Positive
#UpdateWorkflowName UPDATE-SINGLE-ANNOTATED-GOLD
#LibraryQualityString Gold
#TaskID 278b19f5865741e282cec7349aa7e7a1
##Scan# 1693
#SpectrumFile NCP003352_G2_H11_BC7_01_15721.mzXML
#LibraryName NIHcollectionI_05062014.mgf
#MQScore -1
#Organism NIHcollectionI_05062014
#TIC_Query 0
#RT_Query -1
#MZErrorPPM -1
#SharedPeaks 0
#MassDiff 0
#LibMZ -1
#SpecMZ 313.216
#SpecCharge 0
#internalFilename spec-00000.mgf

>collision 10
46.420322 236.0
46.803516 140.0
49.201344 168.0
53.021202 168.0
54.683277 188.0
54.88805 152.0
57.590752 168.0
59.969738 140.0
60.789406 156.0
61.563091 316.0
61.816334 236.0
62.574463 144.0
63.24696 156.0
63.386326 192.0
66.645477 168.0
66.967575 152.0
69.814926 168.0
69.956352 140.0
71.260834 168.0
73.054604 148.0
73.454918 156.0
75.395119 168.0
75.763672 172.0
76.357307 160.0
76.498245 152.0
78.046593 280.0
80.112022 284.0
81.137817 176.0
84.537773 192.0
86.336952 164.0
87.024414 164.0
87.104271 224.0
89.368263 148.0
91.057716 364.0
91.432793 168.0
92.308411 176.0
93.077515 216.0
95.047615 160.0
95.084991 432.0
95.53138 180.0
96.923424 156.0
99.078896 176.0
99.261246 188.0
100.08387 156.0
100.312981 164.0
101.448433 188.0
102.592285 164.0
103.037354 144.0
103.053467 172.0
104.059036 160.0
105.069633 1212.0
105.374725 196.0
106.075981 120.0
107.049927 684.0
107.085739 672.0
107.331856 156.0
107.588669 192.0
108.053665 148.0
108.088844 152.0
109.064751 3040.0
109.101295 1068.0
110.067879 332.0
111.073997 136.0
112.062431 152.0
112.349152 152.0
112.473656 172.0
113.046402 192.0
115.052605 368.0
115.829117 156.0
116.061867 284.0
117.068695 676.0
117.637558 188.0
118.077293 228.0
119.084854 1100.0
119.123077 216.0
120.089279 140.0
121.06337 464.0
121.100586 572.0
121.708931 232.0
122.586601 180.0
123.079918 992.0
123.117989 296.0
123.50502 152.0
124.086418 188.0
125.099442 320.0
125.787048 168.0
126.668068 140.0
126.988594 148.0
128.06218 432.0
129.069305 576.0
129.463165 232.0
130.074677 276.0
130.650253 144.0
131.044113 152.0
131.085114 2936.0
131.36557 176.0
131.760498 164.0
132.053467 124.0
132.088196 232.0
132.178909 148.0
132.730957 228.0
133.064758 368.0
133.100098 1760.0
133.251968 148.0
134.107483 192.0
134.41011 140.0
135.080063 1688.0
135.116028 348.0
136.079758 152.0
136.118118 316.0
137.097382 636.0
137.13237 304.0
137.365875 140.0
137.832794 148.0
138.708435 136.0
139.113907 168.0
139.536774 236.0
141.067749 692.0
142.037628 220.0
142.076706 400.0
142.144394 164.0
143.085907 768.0
143.133224 184.0
143.185623 152.0
144.095947 132.0
145.067352 160.0
145.100769 1640.0
146.067398 140.0
146.101044 156.0
146.342026 172.0
147.079514 228.0
147.116364 488.0
147.145874 116.0
148.120712 100.0
148.827316 184.0
149.097321 1120.0
149.134476 256.0
150.096832 224.0
151.109772 268.0
151.458694 144.0
152.112564 164.0
153.071854 156.0
154.072983 416.0
154.197159 168.0
155.083817 656.0
155.291489 180.0
156.091736 292.0
156.723373 164.0
157.063065 400.0
157.100754 2236.0
157.526703 180.0
158.103622 344.0
158.896072 168.0
159.078323 1172.0
159.118134 1368.0
160.078964 168.0
160.119095 528.0
160.917053 220.0
161.095016 1432.0
161.133026 280.0
162.099075 252.0
162.132706 140.0
162.95842 160.0
163.113556 892.0
164.042557 168.0
164.120148 156.0
165.084259 152.0
166.073013 292.0
167.085632 604.0
168.091415 292.0
169.100311 704.0
170.109161 336.0
171.115845 1436.0
172.12149 164.0
172.525955 168.0
173.015152 156.0
173.035873 140.0
173.095642 508.0
173.131088 1060.0
175.111832 956.0
175.148987 420.0
176.114349 324.0
176.461639 160.0
176.52774 236.0
177.124115 416.0
177.152359 168.0
178.081863 132.0
179.087067 364.0
180.093506 164.0
181.100342 488.0
181.121414 184.0
182.074158 160.0
182.110352 684.0
182.656784 216.0
183.079346 144.0
183.115494 1436.0
184.088425 124.0
184.115372 208.0
184.766327 172.0
185.097061 476.0
185.133133 1512.0
185.199432 160.0
186.100632 312.0
186.135437 528.0
186.773727 208.0
187.113876 372.0
187.1465 1564.0
187.40802 184.0
188.12233 416.0
188.143494 128.0
189.126328 1152.0
190.135254 272.0
190.705597 212.0
191.085068 200.0
191.145523 368.0
192.093491 156.0
193.099579 444.0
194.112778 352.0
195.116394 448.0
195.697403 104.0
196.130341 192.0
197.094223 296.0
197.132568 908.0
198.136124 148.0
199.113037 272.0
199.147141 1456.0
200.113586 368.0
200.153595 176.0
201.123962 588.0
201.167328 284.0
201.439774 212.0
202.137009 212.0
202.169235 152.0
202.491974 148.0
203.13913 284.0
203.176971 248.0
204.091034 148.0
205.101028 188.0
205.123047 220.0
205.156128 140.0
206.101929 356.0
207.119522 648.0
207.177673 184.0
208.128571 212.0
208.161453 156.0
209.133896 544.0
210.505447 168.0
211.112671 444.0
211.150787 140.0
211.223389 156.0
211.78952 168.0
211.945953 180.0
212.148834 196.0
213.12709 576.0
213.162354 580.0
214.141861 120.0
215.139999 280.0
215.16925 312.0
216.150635 152.0
217.156479 152.0
217.892242 148.0
218.16716 176.0
219.116119 160.0
219.369568 176.0
220.121902 268.0
220.349335 224.0
220.80751 208.0
220.990906 152.0
221.129486 728.0
222.135269 112.0
223.114212 120.0
223.14772 336.0
223.48024 144.0
225.1241 432.0
225.162018 476.0
226.136795 192.0
226.169479 136.0
227.141739 304.0
227.177689 676.0
227.214096 220.0
228.148849 188.0
228.181717 252.0
228.675232 172.0
229.160141 180.0
229.187302 184.0
231.234589 164.0
232.896088 156.0
233.130875 316.0
233.18988 148.0
234.191803 148.0
235.147507 828.0
235.915833 160.0
236.151031 252.0
237.032944 152.0
237.125717 304.0
237.162796 1272.0
238.165283 460.0
238.893494 176.0
239.143539 196.0
239.1772 604.0
240.14743 316.0
240.1819 200.0
241.159103 376.0
241.192123 128.0
241.936279 192.0
242.157043 176.0
242.593018 236.0
242.726334 156.0
243.127151 192.0
243.171234 524.0
244.180191 144.0
244.599136 108.0
245.190201 6040.0
245.394104 140.0
246.19545 1188.0
247.141678 156.0
247.200562 176.0
247.230789 172.0
248.160675 244.0
248.590836 168.0
249.165176 380.0
249.901108 144.0
250.169907 156.0
251.138565 156.0
251.175873 168.0
252.008698 104.0
252.146286 280.0
252.182114 132.0
253.079468 224.0
253.16069 656.0
253.198959 244.0
254.141266 140.0
254.181091 152.0
254.411026 164.0
255.001831 212.0
255.1763 344.0
256.174133 160.0
257.16925 152.0
257.192749 212.0
260.822235 168.0
262.328705 156.0
266.162415 180.0
266.966919 168.0
267.174683 832.0
267.213196 400.0
268.178467 200.0
269.189209 288.0
271.196167 148.0
272.850739 160.0
273.38028 152.0
274.444244 192.0
275.123871 148.0
275.933289 180.0
276.181305 164.0
277.195984 1548.0
278.197662 648.0
279.462189 144.0
279.552032 176.0
279.575317 184.0
280.237946 216.0
282.919769 148.0
285.08316 172.0
285.21524 184.0
286.223633 148.0
286.890594 148.0
290.464905 144.0
291.459625 140.0
292.061371 148.0
293.186157 224.0
295.206024 5808.0
295.671082 140.0
296.207794 1372.0
296.30246 132.0
297.216431 272.0
299.444153 152.0
300.723267 180.0
300.909668 140.0
302.787292 160.0
303.119843 164.0
311.159637 264.0
311.211975 140.0
311.864929 128.0
312.125854 152.0
312.166718 200.0
312.193909 124.0
312.382568 156.0
312.573608 108.0
312.736328 136.0
312.771576 132.0
312.829498 164.0
312.984406 180.0
313.110657 188.0
313.156708 384.0
313.217102 111536.0
313.310059 128.0
313.390289 136.0
313.46814 136.0
313.525269 132.0
313.584778 196.0
313.655457 124.0
313.726379 216.0
313.79657 548.0
313.838837 96.0
313.875793 100.0
313.915527 96.0
314.004608 232.0
314.066315 160.0
314.219788 24696.0
314.447815 156.0
314.651123 140.0
314.801453 108.0
315.043549 144.0
315.144592 228.0
315.221466 2948.0
315.553833 124.0
316.177307 96.0
316.22168 484.0
316.290955 132.0
316.412567 104.0
316.488922 180.0
316.57962 132.0
317.140686 188.0
319.289093 108.0
323.283722 96.0
325.989838 140.0
328.281158 124.0
329.524567 152.0
354.243683 180.0
363.051514 176.0
448.003601 160.0
1205.603394 224.0
1308.537476 156.0
1464.735962 148.0
1477.828491 184.0
1492.01709 228.0
1511.182373 184.0
1533.952515 208.0
1538.851685 144.0
1546.395142 152.0
1565.29126 156.0
1593.886353 180.0
1600.520142 152.0
1615.340454 184.0
1631.491089 180.0
1632.866089 200.0
1701.302368 148.0
1719.344727 228.0
1742.662842 208.0
1808.071533 148.0
1834.384888 244.0
1839.067749 140.0
1855.063232 236.0
1864.203857 160.0
1879.565918 216.0
1958.387329 256.0
1977.891968 152.0
1980.751953 164.0
1984.553833 140.0
1989.477783 220.0
1998.73877 276.0
