>compound Everolimus (RAD001)
>formula C53H83NO14
>ionization [M+Na]+
>parentmass 980.568665
#inchi InChI=1S/C53H83NO14/c1-32-16-12-11-13-17-33(2)44(63-8)30-40-21-19-38(7)53(62,68-40)50(59)51(60)54-23-15-14-18-41(54)52(61)67-45(35(4)28-39-20-22-43(66-25-24-55)46(29-39)64-9)31-42(56)34(3)27-37(6)48(58)49(65-10)47(57)36(5)26-32/h11-13,16-17,27,32,34-36,38-41,43-46,48-49,55,58,62H,14-15,18-26,28-31H2,1-10H3/b13-11+,16-12+,33-17+,37-27+/t32-,34-,35+,36-,38-,39+,40+,41+,43-,44+,45+,46-,48+,49+,53-/m1/s1
#inchikey HKVAMNSJSFKALM
#Ion_Source LC-ESI
#Instrument qTof
#Compound_Source Commercial
#PI Dorrestein
#Data_Collector Garg_Neha
#Scan -1
#Precursor_MZ 980.571
#ExactMass 957.581
#Charge 1
#CAS_Number 159351-69-6, 1245613-55-1
#Pubmed_ID N/A
#Smiles C(O)CO[C@H]1[C@@H](C[C@@H](CC1)C[C@@H]([C@H]2OC(=O)[C@@H]3CCCCN3C(=O)C([C@]4([C@@H](CC[C@H](O4)C[C@@H](/C(=C/C=C/C=C/[C@H](C[C@H](C([C@@H]([C@@H](O)/C(=C/[C@H](C(C2)=O)C)C)OC)=O)C)C)C)OC)C)O)=O)C)OC
#INCHI_AUX N/A
#Library_Class 1
#SpectrumID CCMSLIB00000078018
#IonMode Positive
#UpdateWorkflowName UPDATE-SINGLE-ANNOTATED-GOLD
#LibraryQualityString Gold
#TaskID 77f51c88eb8b467eb4a01dd2d0cb90d2
##Scan# 3035
#SpectrumFile Plate1_1_20_GG1_01_16488.mzXML
#LibraryName FDALibrary_2_04302014.mgf
#MQScore -1
#Organism FDALibrary_2_04302014
#TIC_Query 0
#RT_Query -1
#MZErrorPPM -1
#SharedPeaks 0
#MassDiff 0
#LibMZ -1
#SpecMZ 980.571
#SpecCharge 0
#internalFilename spec-00000.mgf

>collision 10
52.240692 228.0
65.079964 140.0
65.585129 196.0
66.71669 184.0
86.74115 176.0
87.063995 232.0
93.072945 240.0
94.196701 168.0
94.969048 180.0
95.086548 208.0
99.933838 204.0
102.476753 160.0
105.069984 152.0
106.696159 176.0
106.844238 140.0
107.085091 188.0
109.061119 188.0
109.668915 140.0
110.554474 248.0
113.061028 148.0
119.084076 380.0
123.083527 192.0
123.584969 148.0
123.826271 204.0
125.096397 160.0
129.864929 144.0
130.086533 744.0
131.058014 260.0
131.085815 184.0
133.101044 164.0
134.104233 164.0
135.083298 220.0
135.114105 376.0
137.126694 152.0
145.10022 300.0
147.119553 692.0
147.204071 168.0
148.124435 304.0
149.032333 188.0
149.064545 144.0
149.102203 248.0
149.135025 228.0
151.08345 160.0
151.112808 172.0
155.112427 172.0
157.0979 340.0
157.134323 160.0
159.058838 164.0
159.078918 244.0
161.099487 440.0
161.13652 304.0
162.833786 140.0
165.125488 188.0
167.082855 192.0
171.117401 164.0
173.143509 180.0
175.110825 552.0
175.137344 176.0
177.121109 208.0
179.110718 184.0
179.132034 160.0
184.126602 140.0
185.097061 176.0
185.132675 316.0
185.433411 284.0
186.134811 208.0
187.117661 172.0
187.142273 180.0
188.11821 192.0
189.124161 196.0
190.135544 156.0
192.152603 220.0
193.122253 196.0
195.127365 200.0
197.129547 320.0
198.497528 144.0
199.140991 144.0
200.116257 140.0
200.158279 176.0
201.124664 164.0
203.100403 140.0
203.147507 412.0
205.011047 144.0
205.122742 148.0
208.094711 168.0
209.039993 164.0
211.104431 264.0
211.146912 200.0
212.177322 140.0
213.123535 152.0
213.16713 168.0
215.09816 176.0
215.141342 156.0
217.117081 176.0
217.158279 160.0
218.127136 284.0
219.136597 156.0
221.132889 156.0
222.431183 144.0
223.611237 216.0
225.089935 212.0
225.128265 468.0
226.120026 168.0
227.18811 188.0
228.823059 172.0
229.079056 144.0
229.12561 264.0
230.119553 196.0
232.866257 148.0
234.137573 152.0
237.125641 164.0
237.160522 184.0
241.148468 192.0
241.188065 164.0
242.201141 156.0
243.087219 212.0
243.67099 180.0
244.146591 228.0
245.114761 152.0
245.183319 204.0
247.135056 176.0
248.215744 180.0
251.118622 148.0
251.185989 156.0
252.207886 176.0
253.084229 188.0
253.157059 176.0
253.660843 144.0
254.123871 144.0
255.176315 384.0
259.1586 164.0
260.146423 192.0
263.1987 144.0
265.149445 288.0
267.17569 192.0
269.192841 204.0
269.631104 156.0
269.794525 208.0
270.219696 184.0
273.181824 240.0
274.188202 224.0
274.222839 196.0
275.688202 208.0
277.14151 136.0
277.190613 140.0
280.152405 180.0
281.164917 156.0
282.685333 208.0
283.200928 192.0
284.196625 128.0
284.622925 152.0
286.958099 164.0
287.167175 164.0
289.15387 176.0
290.197235 160.0
291.184204 148.0
293.156281 244.0
293.190216 464.0
294.164215 188.0
296.164642 188.0
299.186615 156.0
303.179657 160.0
303.793396 156.0
305.200867 152.0
306.170959 140.0
306.206451 144.0
307.206085 292.0
310.168152 164.0
311.192474 164.0
312.197571 152.0
313.179535 144.0
315.247009 168.0
317.18335 96.0
318.183075 188.0
319.181671 180.0
320.106049 256.0
321.072937 232.0
321.183441 124.0
321.222717 160.0
322.926575 164.0
323.205078 376.0
324.183258 152.0
325.220917 188.0
327.166351 140.0
330.185181 192.0
331.17038 212.0
332.147949 152.0
332.194 168.0
334.16922 260.0
335.201324 136.0
336.195648 232.0
336.223145 212.0
337.201965 144.0
339.193451 220.0
339.228088 160.0
340.201996 176.0
340.246338 148.0
344.206146 152.0
345.17984 140.0
346.182434 160.0
347.123962 148.0
347.248077 108.0
349.182922 268.0
349.21286 164.0
350.193817 144.0
352.163208 144.0
352.196838 192.0
353.202362 140.0
354.212158 176.0
357.214966 316.0
357.366669 244.0
361.203522 160.0
362.183929 164.0
363.190735 140.0
364.202972 172.0
367.229767 156.0
368.206451 140.0
370.209045 224.0
372.160919 148.0
373.033051 140.0
376.217926 128.0
377.205872 356.0
378.198242 156.0
378.225342 148.0
378.515717 212.0
380.139984 224.0
380.219696 164.0
381.235565 280.0
384.178406 204.0
385.24057 176.0
386.196869 260.0
386.245331 172.0
387.7724 192.0
388.352692 172.0
389.228882 1260.0
390.22049 348.0
391.223663 100.0
392.221893 156.0
395.216675 368.0
397.225922 140.0
400.26236 136.0
408.220215 168.0
409.23941 728.0
410.246033 176.0
412.281097 168.0
413.270599 260.0
420.296204 148.0
420.884003 144.0
421.258514 164.0
422.256653 368.0
423.124664 184.0
423.276154 180.0
426.225525 152.0
427.234283 300.0
428.250305 128.0
429.264465 136.0
431.261749 172.0
433.265442 144.0
435.268921 320.0
435.302368 132.0
435.351074 176.0
436.268494 232.0
439.265381 276.0
440.277863 152.0
441.263733 332.0
442.267731 320.0
443.21875 140.0
443.260651 164.0
444.262726 164.0
446.258789 108.0
448.274017 284.0
450.267242 96.0
451.273224 192.0
453.223724 704.0
454.247894 364.0
456.235443 136.0
457.256073 180.0
458.261719 152.0
459.274902 176.0
460.24942 144.0
461.250763 192.0
462.246002 172.0
463.292511 132.0
464.229126 172.0
464.285492 172.0
466.289886 140.0
468.20874 144.0
468.277649 140.0
468.310516 128.0
470.243774 144.0
471.247101 180.0
472.231293 160.0
473.217987 152.0
474.257538 112.0
475.276855 156.0
478.26239 268.0
479.309326 128.0
480.272095 180.0
481.257629 172.0
485.251068 168.0
486.248199 148.0
489.809784 160.0
489.875885 148.0
490.248108 96.0
492.274658 136.0
496.28537 420.0
498.281769 140.0
499.299713 176.0
501.294189 200.0
502.337524 148.0
503.281647 260.0
504.308289 140.0
505.541168 156.0
510.280396 132.0
510.341003 144.0
511.276337 104.0
516.279968 144.0
517.277954 148.0
518.296204 276.0
520.344604 164.0
523.336426 140.0
523.454773 176.0
524.295837 304.0
525.314758 196.0
529.345703 196.0
532.289734 196.0
538.271545 168.0
538.317749 276.0
542.267456 168.0
542.309814 400.0
543.315369 356.0
544.351868 156.0
546.266785 144.0
546.310547 148.0
546.359802 176.0
557.305359 160.0
560.292847 112.0
564.191345 140.0
564.282654 248.0
566.293396 236.0
568.331299 344.0
569.344055 292.0
570.320801 216.0
570.364136 144.0
574.955139 212.0
578.185974 176.0
580.389587 224.0
582.304077 832.0
583.309509 360.0
584.293945 260.0
587.334351 180.0
589.386108 160.0
593.403687 140.0
595.334961 140.0
596.31134 108.0
596.343384 172.0
597.32489 124.0
598.341614 108.0
601.958008 140.0
606.302246 140.0
609.408508 160.0
611.363708 124.0
614.32428 1152.0
615.318542 272.0
616.318359 156.0
625.36908 208.0
626.323547 148.0
639.386963 140.0
651.432983 820.0
651.594116 204.0
652.422058 308.0
653.579529 200.0
667.400757 188.0
669.946045 140.0
680.543579 192.0
686.372437 148.0
687.352112 172.0
692.444092 144.0
713.38269 148.0
714.90387 160.0
719.407898 148.0
722.454102 200.0
727.513184 160.0
746.416626 168.0
747.486572 416.0
757.476746 196.0
758.51239 148.0
764.458191 96.0
770.418884 136.0
775.483337 220.0
776.473816 192.0
777.498718 104.0
778.473755 132.0
779.49884 152.0
780.503235 156.0
781.469849 124.0
793.49292 156.0
794.485596 220.0
796.482056 116.0
798.438049 152.0
807.494141 436.0
808.516724 372.0
809.343689 104.0
811.879639 216.0
814.496216 348.0
815.470337 164.0
815.513306 144.0
819.446655 716.0
820.472351 260.0
820.665405 168.0
823.514526 164.0
823.924438 164.0
824.447632 172.0
824.489868 164.0
825.502075 284.0
825.550842 176.0
828.501526 108.0
831.586426 148.0
836.44928 140.0
837.467773 172.0
838.480225 404.0
839.479919 224.0
840.97998 168.0
841.488037 192.0
846.509705 148.0
851.491272 96.0
852.215027 208.0
856.473572 208.0
858.484375 144.0
864.504211 120.0
868.488098 148.0
869.474304 140.0
879.506836 164.0
881.514954 192.0
895.814392 252.0
902.514832 168.0
906.497559 148.0
909.513672 264.0
910.546692 164.0
912.496887 112.0
912.58429 152.0
913.547424 100.0
916.526917 160.0
917.555481 136.0
917.684204 164.0
927.559753 112.0
930.532043 624.0
930.828552 136.0
931.524231 532.0
932.562744 132.0
933.494812 152.0
934.593445 144.0
936.062866 184.0
936.559753 348.0
941.808044 160.0
944.555542 140.0
948.543884 1260.0
949.543762 644.0
950.544189 428.0
952.545898 144.0
953.08075 148.0
955.964844 144.0
956.38623 136.0
962.178101 164.0
962.568115 1136.0
963.569702 1092.0
963.737061 132.0
964.213013 124.0
964.270569 164.0
964.558716 120.0
965.527283 144.0
966.801758 192.0
971.790161 140.0
974.89502 184.0
977.087463 108.0
977.545044 176.0
978.340942 196.0
978.502808 168.0
978.594482 116.0
978.944397 144.0
979.611023 152.0
979.679077 120.0
980.019104 100.0
980.127625 116.0
980.286499 128.0
980.391418 172.0
980.568665 23460.0
980.869141 172.0
980.962341 112.0
980.983826 120.0
981.121521 108.0
981.181763 280.0
981.372437 112.0
981.572571 13224.0
981.774109 276.0
982.139526 128.0
982.364197 144.0
982.577026 4672.0
982.709106 200.0
982.952759 96.0
983.025085 184.0
983.269043 148.0
983.582886 1564.0
984.580505 284.0
984.666687 124.0
984.966125 104.0
985.576965 204.0
986.163391 148.0
986.294189 100.0
986.488464 168.0
987.335938 132.0
987.829834 120.0
1074.501343 172.0
1128.179199 140.0
1195.610229 184.0
1197.124878 160.0
1349.801758 148.0
1454.521484 152.0
1529.124512 180.0
1530.595825 192.0
1551.300781 252.0
1632.984985 172.0
1727.12207 224.0
1890.144531 148.0
1940.158569 172.0
1950.535034 192.0
1981.600342 196.0
