>compound MLS001077262-01!Glyburide10238-21-8
>formula C23H28ClN3O5S
>ionization [M+H]+
>parentmass 494.1510961280905
#inchi InChI=1S/C23H28ClN3O5S/c1-32-21-12-9-17(24)15-20(21)22(28)25-14-13-16-7-10-19(11-8-16)33(30,31)27-23(29)26-18-5-3-2-4-6-18/h7-12,15,18H,2-6,13-14H2,1H3,(H,25,28)(H2,26,27,29)
#inchikey ZNNLBTZKUZBEKO
#Ion_Source LC-ESI
#Instrument qTof
#Compound_Source NIH Pharmacologically Active Library
#PI Dorrestein
#Data_Collector VP/LMS
#Scan -1
#Precursor_MZ 494.156
#ExactMass 493.144
#Charge 1
#CAS_Number N/A
#Pubmed_ID N/A
#Smiles COc1ccc(Cl)cc1C(=O)NCCc2ccc(cc2)S(=O)(=O)NC(=O)NC3CCCCC3
#INCHI_AUX N/A
#Library_Class 1
#SpectrumID CCMSLIB00000084816
#IonMode Positive
#UpdateWorkflowName UPDATE-SINGLE-ANNOTATED-GOLD
#LibraryQualityString Gold
#TaskID d252d724072548979f1f6f1ced849daf
##Scan# 2332
#SpectrumFile p3-B02_GB2_01_18235.mzXML
#LibraryName Pharm_Active_Library.mgf
#MQScore -1
#Organism Pharm_Active_Library
#TIC_Query 0
#RT_Query -1
#MZErrorPPM -1
#SharedPeaks 0
#MassDiff 0
#LibMZ -1
#SpecMZ 494.156
#SpecCharge 0
#internalFilename spec-00000.mgf

>collision 10
44.885048 144.0
44.978436 148.0
45.035854 160.0
45.085289 108.0
45.133411 184.0
45.210999 172.0
45.265884 180.0
45.336884 128.0
45.347607 152.0
45.445503 112.0
45.487106 152.0
45.522015 96.0
45.587837 192.0
45.641609 140.0
45.714249 144.0
45.836788 160.0
45.889359 196.0
46.052647 144.0
46.089123 180.0
46.208107 148.0
46.24329 108.0
46.262241 156.0
46.278484 164.0
46.446533 200.0
46.560543 92.0
46.605373 36.0
46.617603 108.0
46.650223 248.0
46.808048 184.0
46.972961 136.0
47.063034 164.0
47.127232 176.0
47.205147 212.0
47.217453 164.0
47.229763 76.0
47.250282 204.0
47.262596 160.0
47.309132 168.0
47.411861 208.0
47.442017 152.0
47.50647 116.0
47.540661 148.0
47.60804 56.0
47.628643 196.0
47.807377 104.0
47.841789 192.0
47.86795 180.0
47.883099 152.0
47.95612 124.0
47.990585 176.0
48.029198 176.0
48.301315 176.0
48.341438 176.0
48.356663 180.0
48.382965 128.0
48.452209 132.0
48.495167 136.0
48.599174 140.0
48.743584 156.0
48.801964 180.0
48.813087 148.0
48.852032 128.0
48.872902 200.0
48.911869 196.0
48.963387 136.0
49.214394 172.0
49.254189 208.0
49.273422 124.0
49.377895 144.0
49.440472 204.0
49.517853 172.0
49.583702 120.0
49.639778 224.0
49.721146 144.0
49.737988 60.0
49.803982 168.0
49.854561 212.0
50.078259 172.0
50.128975 176.0
50.169849 136.0
50.287525 104.0
50.299633 152.0
50.354698 72.0
50.418274 108.0
50.479065 148.0
50.491791 176.0
50.542717 128.0
50.563946 164.0
50.578098 144.0
50.61491 148.0
50.688568 152.0
50.733921 208.0
50.819706 144.0
50.850239 132.0
50.899925 168.0
50.921227 228.0
51.029224 40.0
51.141609 300.0
51.172928 196.0
51.237015 160.0
51.24984 120.0
51.27549 136.0
51.313309 204.0
51.42239 44.0
51.608101 164.0
51.713963 176.0
51.725414 156.0
51.799877 84.0
51.941788 192.0
51.976219 56.0
51.989136 328.0
52.017841 168.0
52.321171 124.0
52.332687 192.0
52.416233 64.0
52.576302 240.0
52.616718 132.0
52.904472 200.0
52.929028 216.0
52.982616 48.0
53.227737 132.0
53.517094 152.0
53.559326 256.0
53.677376 172.0
53.703865 204.0
53.716755 144.0
53.740097 108.0
53.789715 68.0
53.972336 172.0
54.014751 208.0
54.033768 176.0
54.070351 120.0
54.16552 144.0
54.200684 208.0
54.298901 204.0
54.359051 204.0
54.382954 208.0
54.435383 212.0
54.500015 140.0
54.643867 248.0
54.682365 80.0
54.7015 172.0
54.841434 196.0
54.878288 96.0
54.935806 128.0
55.002209 216.0
55.104107 184.0
55.138096 212.0
55.340755 148.0
55.434074 164.0
55.459267 124.0
55.616493 212.0
55.75462 88.0
55.881012 164.0
55.915237 184.0
55.930122 204.0
55.96883 188.0
56.067146 168.0
56.110374 56.0
56.283451 156.0
56.29689 164.0
56.316841 388.0
56.343193 96.0
56.531593 128.0
56.631901 208.0
56.790779 28.0
56.879139 180.0
56.903324 180.0
56.987434 116.0
57.044685 128.0
57.064468 188.0
57.115215 140.0
57.148315 200.0
57.263939 168.0
57.2691 220.0
57.363674 136.0
57.374229 176.0
57.449631 188.0
57.461533 180.0
57.538673 108.0
57.670094 176.0
57.738129 148.0
57.799114 128.0
57.916725 140.0
58.136562 80.0
58.204876 176.0
58.283859 148.0
58.308174 200.0
58.437428 160.0
58.551598 48.0
58.618626 172.0
58.635391 136.0
58.7467 152.0
58.793999 128.0
58.89782 144.0
59.139408 36.0
59.170021 172.0
59.310959 104.0
59.330887 112.0
59.346218 176.0
59.460533 192.0
59.559532 124.0
59.590256 52.0
59.671715 144.0
59.699394 116.0
59.719387 168.0
59.743999 160.0
59.754768 128.0
59.819405 112.0
59.871754 172.0
60.17244 140.0
60.492451 128.0
60.636501 148.0
60.683002 164.0
60.720222 208.0
60.772964 156.0
60.793137 180.0
60.810677 212.0
60.904919 140.0
61.125683 184.0
61.200397 220.0
61.229984 84.0
61.302753 220.0
61.326584 52.0
61.427937 148.0
61.502834 120.0
61.618393 140.0
61.699665 164.0
61.715298 164.0
61.738754 132.0
61.749702 136.0
61.784115 176.0
61.940659 116.0
61.973557 236.0
62.008034 60.0
62.039383 152.0
62.089558 72.0
62.124065 68.0
62.178982 168.0
62.196247 156.0
62.226074 128.0
62.251198 196.0
62.293602 156.0
62.312454 172.0
62.468094 144.0
62.50428 136.0
62.538902 132.0
62.627075 120.0
62.786259 208.0
62.89986 224.0
62.934589 168.0
63.000923 136.0
63.221901 136.0
63.307774 36.0
63.412334 56.0
63.430843 224.0
63.529671 176.0
63.574097 160.0
63.689999 104.0
63.755138 180.0
63.968269 132.0
64.055847 212.0
64.121178 224.0
64.179283 160.0
64.234383 208.0
64.526627 136.0
64.539421 52.0
64.641129 164.0
64.699417 244.0
64.80191 148.0
64.902893 148.0
64.923737 148.0
64.9879 116.0
65.047279 192.0
65.113113 264.0
65.146843 212.0
65.349411 188.0
65.37355 168.0
65.391251 168.0
65.426666 192.0
65.516846 188.0
65.655472 96.0
65.731285 72.0
65.761948 136.0
65.789391 140.0
65.919106 168.0
65.95739 208.0
65.983253 124.0
66.153122 176.0
66.204933 148.0
66.285927 228.0
66.302818 180.0
66.456184 184.0
66.584427 160.0
66.696533 136.0
66.719292 176.0
66.74205 40.0
66.753433 216.0
66.803856 148.0
66.893356 148.0
66.981285 168.0
67.006935 172.0
67.030167 264.0
67.10025 108.0
67.114922 132.0
67.172005 176.0
67.204636 128.0
67.294403 132.0
67.457771 236.0
67.526451 152.0
67.863785 220.0
67.913246 148.0
67.935944 76.0
68.083672 216.0
68.095169 156.0
68.142807 76.0
68.175667 136.0
68.231552 180.0
68.364784 132.0
68.470146 104.0
68.498146 136.0
68.57724 180.0
68.630714 192.0
68.724007 52.0
68.740509 184.0
68.816437 120.0
68.884148 128.0
68.935364 216.0
69.008095 192.0
69.06266 176.0
69.240578 148.0
69.266258 152.0
69.35408 96.0
69.365685 196.0
69.42205 164.0
69.495041 144.0
69.546478 152.0
69.720871 176.0
69.755775 64.0
69.787361 140.0
69.827271 112.0
69.867195 64.0
69.882164 120.0
69.985359 212.0
70.016998 164.0
70.223663 208.0
70.25869 96.0
70.312088 184.0
70.363831 192.0
70.444305 148.0
70.63121 188.0
70.719894 120.0
70.87899 248.0
70.977882 160.0
71.096985 140.0
71.197716 148.0
71.466667 164.0
71.513786 216.0
71.650185 136.0
71.695679 180.0
71.732086 120.0
71.790085 140.0
71.913246 88.0
71.953758 196.0
72.024681 120.0
72.038193 172.0
72.104088 164.0
72.225822 128.0
72.337509 48.0
72.403542 144.0
72.491631 132.0
72.53231 148.0
72.691727 120.0
72.729065 116.0
72.819054 132.0
72.953293 124.0
73.04512 208.0
73.073273 204.0
73.174217 172.0
73.213615 140.0
73.252792 52.0
73.266418 160.0
73.295387 148.0
73.540955 164.0
73.643402 212.0
73.850212 112.0
73.942604 136.0
74.029915 188.0
74.069305 152.0
74.103569 136.0
74.117271 132.0
74.156693 164.0
74.341911 112.0
74.386536 176.0
74.420868 116.0
74.439758 96.0
74.462082 136.0
74.49987 84.0
74.558289 240.0
74.6838 48.0
74.702721 184.0
74.737129 156.0
74.768105 240.0
74.928238 132.0
75.007515 100.0
75.031647 136.0
75.107521 92.0
75.152374 136.0
75.17308 160.0
75.190338 40.0
75.22831 192.0
75.264565 116.0
75.345741 136.0
75.369934 72.0
75.511688 160.0
75.523796 76.0
75.578506 196.0
75.707245 176.0
75.823318 188.0
75.851051 268.0
75.9048 100.0
76.005402 164.0
76.050522 188.0
76.107811 136.0
76.262421 168.0
76.302406 132.0
76.380661 100.0
76.431114 44.0
76.453735 152.0
76.610435 128.0
76.636574 152.0
76.878952 160.0
76.900917 252.0
76.919525 172.0
76.952263 180.0
77.039581 40.0
77.076271 184.0
77.238861 164.0
77.289597 208.0
77.343811 180.0
77.373611 144.0
77.392868 116.0
77.421196 180.0
77.501381 176.0
77.554039 96.0
77.585587 164.0
77.614838 176.0
77.79435 156.0
77.82946 80.0
77.880386 172.0
77.940117 228.0
78.050858 100.0
78.108894 152.0
78.219749 192.0
78.397636 160.0
78.418785 176.0
78.494591 148.0
78.618073 60.0
78.68515 160.0
78.96788 204.0
79.003258 48.0
79.191689 88.0
79.28656 76.0
79.470978 188.0
79.625412 236.0
79.79422 112.0
79.808449 208.0
80.057564 180.0
80.146629 144.0
80.376648 80.0
80.535538 144.0
80.558754 140.0
80.750008 168.0
80.896736 192.0
81.007759 244.0
81.106316 60.0
81.142166 176.0
81.341293 96.0
81.409523 212.0
81.443642 164.0
81.846481 120.0
81.886101 208.0
81.914917 100.0
81.931129 200.0
82.11042 188.0
82.134636 188.0
82.318916 140.0
82.374908 176.0
82.559265 220.0
82.65152 120.0
82.675041 156.0
82.732964 180.0
82.827126 152.0
83.062767 160.0
83.168007 36.0
83.235184 188.0
83.258789 204.0
83.356888 184.0
83.378693 44.0
83.400505 172.0
83.458672 52.0
83.635139 128.0
83.76078 76.0
83.799034 44.0
83.966736 204.0
83.990448 56.0
84.015984 72.0
84.108002 160.0
84.14254 196.0
84.176598 96.0
84.249657 44.0
84.278893 96.0
84.375755 176.0
84.432442 168.0
84.47451 188.0
84.503784 292.0
84.524086 164.0
84.672188 80.0
84.712486 148.0
84.749123 160.0
84.859093 212.0
84.981064 144.0
85.013176 100.0
85.042534 176.0
85.266609 160.0
85.332779 196.0
85.411858 128.0
85.502007 88.0
85.535141 92.0
85.549866 176.0
85.592209 168.0
85.660355 60.0
85.77446 156.0
85.796722 132.0
85.818848 140.0
85.881546 196.0
85.918442 128.0
86.058708 148.0
86.086403 168.0
86.1903 196.0
86.304443 140.0
86.348824 236.0
86.530167 140.0
86.546829 160.0
86.559792 72.0
86.587685 196.0
86.674637 116.0
86.702431 140.0
86.782143 28.0
86.858177 160.0
86.945381 124.0
86.995438 144.0
87.014053 176.0
87.027054 156.0
87.142204 72.0
87.255577 124.0
87.359718 152.0
87.376465 172.0
87.472351 216.0
87.519775 64.0
87.618484 92.0
87.75827 172.0
87.778778 128.0
87.795792 164.0
87.842194 172.0
87.880905 144.0
87.948547 200.0
88.082993 152.0
88.206314 132.0
88.228752 164.0
88.357788 132.0
88.417671 228.0
88.443871 56.0
88.458847 176.0
88.490669 212.0
88.644264 196.0
88.878654 144.0
88.921814 68.0
89.060753 152.0
89.105835 52.0
89.517754 204.0
89.676003 108.0
89.721245 216.0
89.749573 160.0
89.847603 180.0
89.915527 72.0
90.023087 152.0
90.034691 168.0
90.162933 188.0
90.210182 224.0
90.246101 160.0
90.285812 104.0
90.357689 176.0
90.533722 196.0
90.554558 200.0
90.613281 140.0
90.72509 168.0
90.751633 216.0
90.922356 56.0
91.052452 136.0
91.142639 140.0
91.199646 40.0
91.342255 140.0
91.454521 180.0
91.582085 132.0
91.78791 160.0
91.934792 164.0
92.058876 60.0
92.11235 132.0
92.127632 100.0
92.156776 188.0
92.181129 132.0
92.207886 252.0
92.273132 152.0
92.332153 128.0
92.382332 172.0
92.423973 144.0
92.479469 244.0
92.494781 136.0
92.511948 120.0
92.552216 120.0
92.901031 144.0
92.9701 104.0
93.010406 168.0
93.027679 160.0
93.069916 228.0
93.116005 148.0
93.235123 36.0
93.269714 124.0
93.290863 164.0
93.425148 164.0
93.452408 136.0
93.494743 48.0
93.522675 148.0
93.693069 184.0
93.764359 140.0
93.878098 204.0
93.920532 180.0
94.086487 228.0
94.298965 172.0
94.447838 228.0
94.49427 156.0
94.50975 208.0
94.701401 240.0
94.744011 156.0
94.862221 160.0
95.038704 184.0
95.094986 204.0
95.242546 180.0
95.403831 104.0
95.660614 168.0
95.67424 188.0
95.726807 148.0
95.82225 76.0
95.848534 84.0
95.867065 156.0
95.888504 132.0
95.943085 156.0
96.103004 148.0
96.124466 196.0
96.151787 152.0
96.198631 148.0
96.220108 144.0
96.282593 192.0
96.309937 80.0
96.466255 80.0
96.513176 232.0
96.564018 220.0
96.64064 236.0
96.694901 268.0
96.757744 132.0
96.86554 180.0
96.906586 68.0
96.943817 120.0
96.998695 172.0
97.012421 132.0
97.232101 288.0
97.367561 184.0
97.402916 148.0
97.434349 156.0
97.491325 228.0
97.654503 168.0
97.817818 96.0
97.8946 176.0
97.95369 120.0
98.097534 188.0
98.15274 144.0
98.235573 96.0
98.269112 176.0
98.602829 60.0
98.636429 140.0
98.662125 128.0
98.824303 172.0
98.853981 140.0
99.028198 152.0
99.133194 184.0
99.160942 160.0
99.613335 152.0
99.627235 116.0
99.763496 120.0
100.018974 76.0
100.090645 204.0
100.112099 956.0
100.251999 176.0
100.395531 136.0
100.453369 148.0
100.545151 132.0
100.582726 184.0
100.630981 124.0
100.656944 288.0
100.702873 48.0
100.740822 208.0
100.756805 196.0
100.776787 184.0
100.79277 188.0
100.808754 200.0
100.9067 224.0
100.960686 116.0
100.978683 92.0
101.116287 180.0
101.29493 212.0
101.347023 160.0
101.428894 136.0
101.433151 180.0
101.669861 188.0
101.851051 164.0
101.874664 196.0
102.003273 168.0
102.049644 188.0
102.093742 164.0
102.200356 160.0
102.218468 172.0
102.260727 180.0
102.472168 212.0
102.536644 100.0
102.621307 224.0
102.671722 144.0
102.756195 200.0
102.841194 176.0
102.855324 196.0
102.938095 96.0
103.012825 168.0
103.055664 4608.0
103.075455 188.0
103.15023 76.0
103.166405 152.0
103.285713 120.0
103.303917 160.0
103.370682 152.0
103.385284 72.0
103.449615 48.0
103.541077 164.0
103.619728 116.0
103.654175 64.0
103.759521 176.0
103.968491 156.0
104.061356 504.0
104.212158 140.0
104.258896 248.0
104.328842 116.0
104.354431 124.0
104.370697 160.0
104.466286 64.0
104.565987 192.0
104.629089 312.0
104.897987 172.0
104.957115 124.0
104.9823 136.0
105.030533 156.0
105.070595 1580.0
105.114174 164.0
105.190491 132.0
105.291779 112.0
105.367355 128.0
105.434784 248.0
105.479752 204.0
105.63311 132.0
105.649475 120.0
105.721092 152.0
105.778397 156.0
105.81115 116.0
105.981148 184.0
106.040573 168.0
106.073364 192.0
106.204597 60.0
106.307175 152.0
106.35643 228.0
106.41391 100.0
106.594666 176.0
106.617264 176.0
106.64193 160.0
106.88871 144.0
106.931923 64.0
106.948387 152.0
106.995735 176.0
107.014267 100.0
107.05056 2908.0
107.076042 236.0
107.094574 56.0
107.248077 192.0
107.343941 224.0
107.661736 64.0
107.709236 160.0
107.766762 196.0
107.812546 84.0
107.829079 240.0
107.96759 184.0
108.054466 196.0
108.079292 184.0
108.203476 92.0
108.317375 172.0
108.470711 196.0
108.505951 104.0
108.549492 200.0
108.613785 196.0
108.727898 152.0
108.742424 160.0
108.763184 156.0
108.806778 176.0
108.846222 128.0
108.869064 116.0
108.883606 108.0
108.929298 160.0
109.15583 148.0
109.272308 144.0
109.39621 232.0
109.447144 132.0
109.474213 160.0
109.555443 188.0
109.603363 168.0
109.780548 108.0
109.811829 140.0
109.903618 268.0
109.966217 160.0
109.985001 160.0
110.024666 168.0
110.149963 140.0
110.226982 148.0
110.254425 148.0
110.325493 136.0
110.484428 200.0
110.540916 140.0
110.5765 136.0
110.662323 152.0
110.758652 32.0
110.836166 192.0
110.880173 220.0
110.927612 196.0
111.002625 716.0
111.047897 144.0
111.177971 128.0
111.219948 48.0
111.364822 148.0
111.415237 140.0
111.486954 152.0
111.526604 200.0
111.574951 176.0
111.997917 128.0
112.015305 236.0
112.151733 232.0
112.177025 220.0
112.380539 168.0
112.444901 196.0
112.550446 132.0
112.694794 176.0
112.721138 208.0
112.845406 120.0
112.920258 104.0
112.994911 808.0
113.015587 612.0
113.053543 108.0
113.214035 228.0
113.23349 136.0
113.286446 184.0
113.358475 140.0
113.388145 136.0
113.506416 152.0
113.629326 168.0
113.716881 164.0
113.780563 100.0
113.861252 232.0
114.021294 312.0
114.097107 124.0
114.184288 144.0
114.243843 208.0
114.294907 72.0
114.58873 112.0
114.644127 160.0
114.729385 160.0
114.76989 128.0
114.90213 196.0
114.944801 160.0
114.978943 172.0
114.997726 140.0
115.011322 636.0
115.024834 172.0
115.149734 164.0
115.248001 56.0
115.406677 184.0
115.474594 116.0
115.78064 148.0
115.979889 148.0
116.007751 108.0
116.067787 156.0
116.11496 172.0
116.194328 116.0
116.258698 32.0
116.376755 148.0
116.539993 136.0
116.81517 120.0
116.879715 172.0
116.935669 52.0
117.071014 148.0
117.116524 176.0
117.148834 32.0
117.360039 152.0
117.638344 172.0
117.662086 120.0
117.726868 120.0
117.767899 140.0
117.916977 124.0
118.063232 228.0
118.122383 240.0
118.286835 124.0
118.356117 124.0
118.403755 116.0
118.449242 112.0
118.473068 48.0
118.746185 180.0
118.874176 288.0
119.023956 76.0
119.050537 2752.0
119.09996 224.0
119.202072 196.0
119.339012 164.0
119.365669 168.0
119.391197 104.0
119.418503 108.0
119.560883 64.0
119.791679 216.0
119.882805 160.0
119.909416 212.0
119.970367 172.0
120.013969 120.0
120.061943 412.0
120.081825 276.0
120.153557 84.0
120.175369 196.0
120.745506 168.0
120.771751 116.0
120.955544 168.0
120.97744 108.0
121.02623 196.0
121.066299 460.0
121.163582 112.0
121.468292 200.0
121.56366 120.0
121.705307 56.0
121.72068 300.0
121.762405 160.0
121.830498 188.0
121.933769 148.0
122.060387 156.0
122.087654 148.0
122.290062 108.0
122.309868 196.0
122.361885 140.0
122.463997 172.0
122.633644 128.0
122.649078 128.0
122.673325 140.0
122.690956 64.0
122.77475 184.0
122.807831 156.0
122.896065 120.0
123.008621 104.0
123.183067 152.0
123.306801 136.0
123.512421 220.0
123.594276 180.0
123.665092 108.0
123.707146 64.0
123.744781 120.0
124.012817 132.0
124.041008 128.0
124.063805 148.0
124.27227 120.0
124.367699 104.0
124.563095 128.0
124.643074 140.0
124.680855 184.0
124.714188 116.0
124.913719 152.0
125.000122 140.0
125.017044 160.0
125.064178 124.0
125.132401 168.0
125.179153 68.0
125.219398 172.0
125.261559 192.0
125.347908 188.0
125.433136 156.0
125.47995 172.0
125.656143 220.0
125.671761 144.0
125.841385 152.0
125.953041 124.0
125.987251 2696.0
126.153648 176.0
126.248253 184.0
126.283844 148.0
126.374443 144.0
126.4785 120.0
126.507599 292.0
126.534462 164.0
126.715874 92.0
126.910866 176.0
126.990311 480.0
127.040939 164.0
127.085808 148.0
127.132935 144.0
127.202507 60.0
127.229446 172.0
127.287827 116.0
127.411354 104.0
127.427078 184.0
127.485504 180.0
127.510223 124.0
127.579903 176.0
127.762054 212.0
127.791306 128.0
127.847557 156.0
127.984276 1112.0
128.190414 224.0
128.291275 144.0
128.349884 52.0
128.453629 184.0
128.780914 152.0
128.855316 176.0
128.934662 160.0
128.9888 164.0
129.011475 176.0
129.047577 180.0
129.199295 212.0
129.2715 148.0
129.299454 160.0
129.441269 124.0
129.463913 136.0
129.520676 184.0
129.595291 160.0
129.846909 156.0
129.865067 132.0
129.97168 200.0
129.987564 116.0
130.023026 96.0
130.146454 124.0
130.276428 156.0
130.448608 180.0
130.496613 208.0
130.528183 156.0
130.6138 136.0
130.712433 184.0
130.894531 172.0
130.917297 196.0
130.953751 200.0
130.990189 188.0
131.010681 156.0
131.061905 1032.0
131.291046 176.0
131.359467 160.0
131.624207 88.0
131.698334 148.0
131.834366 152.0
131.898361 184.0
131.966934 80.0
132.060562 144.0
132.211685 192.0
132.227707 76.0
132.378799 228.0
132.479584 168.0
132.534561 252.0
132.685837 140.0
133.000107 120.0
133.023056 160.0
133.059738 188.0
133.252701 168.0
133.312439 192.0
133.342316 152.0
133.39978 132.0
133.471054 172.0
133.560745 112.0
133.634979 148.0
133.841507 140.0
133.954361 184.0
133.981995 148.0
134.037079 524.0
134.096893 784.0
134.147919 208.0
134.187103 156.0
134.31163 220.0
134.355469 96.0
134.424683 156.0
134.528549 180.0
134.570099 172.0
134.653229 132.0
134.822693 136.0
134.878891 228.0
134.907394 128.0
135.004501 112.0
135.04039 232.0
135.077133 160.0
135.094315 232.0
135.21843 272.0
135.245117 164.0
135.312241 196.0
135.388657 164.0
135.499832 140.0
135.548492 216.0
135.7556 144.0
135.854538 244.0
135.931091 112.0
136.074997 120.0
136.239899 156.0
136.258484 112.0
136.325867 144.0
136.414185 168.0
136.542068 124.0
136.558334 192.0
136.605774 156.0
136.714218 320.0
136.853882 136.0
136.922852 180.0
137.022614 392.0
137.051849 172.0
137.198685 128.0
137.235703 228.0
137.301285 60.0
137.59761 196.0
137.63031 124.0
137.674667 184.0
137.749405 288.0
137.805481 168.0
137.91777 160.0
138.022598 464.0
138.043884 184.0
138.160843 144.0
138.256775 124.0
138.345718 196.0
138.37381 176.0
138.483856 204.0
138.58963 236.0
138.62677 180.0
138.643173 96.0
138.70813 100.0
138.843109 140.0
138.938614 224.0
139.00061 648.0
139.028107 340.0
139.109314 184.0
139.22496 44.0
139.280014 136.0
139.342407 128.0
139.375305 112.0
139.4646 204.0
139.612717 72.0
139.932724 184.0
140.003372 140.0
140.018814 172.0
140.0858 140.0
140.168259 120.0
140.283752 180.0
140.606888 76.0
140.781204 148.0
140.835907 168.0
140.93985 96.0
141.007629 980.0
141.029892 420.0
141.285034 216.0
141.346542 184.0
141.39151 52.0
141.410431 164.0
141.637741 196.0
141.687485 128.0
141.725388 160.0
141.839142 188.0
141.964798 192.0
142.01326 168.0
142.420471 120.0
142.517868 184.0
142.551132 204.0
142.94075 208.0
143.008148 332.0
143.110107 156.0
143.179169 136.0
143.617691 212.0
143.665405 196.0
143.925552 100.0
144.009125 152.0
144.0569 184.0
144.341309 356.0
144.391525 148.0
144.413055 164.0
144.448929 240.0
144.525482 144.0
144.641388 148.0
144.803177 32.0
144.922943 164.0
144.949295 124.0
145.049957 152.0
145.316147 140.0
145.380936 112.0
145.459869 180.0
145.858871 108.0
145.94783 224.0
146.152267 124.0
146.229279 188.0
146.267792 172.0
146.525452 164.0
146.566422 152.0
146.672455 32.0
146.732727 152.0
146.792999 160.0
146.824356 84.0
147.070435 116.0
147.099899 176.0
147.142853 40.0
147.379547 148.0
147.396469 176.0
147.456879 176.0
147.524551 184.0
147.558395 164.0
147.587418 128.0
147.788162 200.0
147.805099 56.0
147.926117 76.0
147.998749 152.0
148.027802 224.0
148.129517 108.0
148.192505 44.0
148.226425 224.0
148.245819 152.0
148.454285 124.0
148.553726 108.0
148.577988 164.0
148.643494 132.0
148.774551 144.0
148.79155 232.0
148.886246 172.0
149.004227 200.0
149.238663 128.0
149.304245 148.0
149.384506 248.0
149.557266 196.0
149.581604 128.0
149.915283 140.0
149.96402 180.0
150.012772 168.0
150.054733 152.0
150.120041 176.0
150.141998 108.0
150.256638 112.0
150.29567 72.0
150.37059 240.0
150.403046 196.0
150.473846 80.0
150.681442 92.0
150.808502 204.0
150.852509 160.0
150.969864 148.0
150.991867 136.0
151.02536 184.0
151.052795 172.0
151.187576 204.0
151.358932 32.0
151.429947 80.0
151.527939 172.0
151.797546 176.0
151.878479 172.0
151.981522 132.0
152.0625 180.0
152.239258 244.0
152.273636 156.0
152.347321 168.0
152.430862 96.0
152.470184 144.0
152.642715 148.0
152.671768 216.0
152.880875 172.0
152.927628 204.0
153.011322 132.0
153.075333 192.0
153.146759 156.0
153.3069 100.0
153.356186 60.0
153.607681 148.0
153.644684 112.0
153.928528 144.0
153.983734 1580.0
154.020538 200.0
154.143433 56.0
154.237335 244.0
154.410416 104.0
154.477188 212.0
154.841034 204.0
154.900482 132.0
154.940125 172.0
154.988632 368.0
155.016235 396.0
155.070206 96.0
155.155731 216.0
155.263733 192.0
155.356598 104.0
155.6147 140.0
155.840714 104.0
155.900345 140.0
155.977844 680.0
156.012192 132.0
156.037064 100.0
156.104187 148.0
156.15506 228.0
156.303192 160.0
156.361801 180.0
156.499817 148.0
156.653259 156.0
156.686615 176.0
156.768845 140.0
156.87851 108.0
156.984207 340.0
157.001312 204.0
157.065521 120.0
157.169983 188.0
157.195251 148.0
157.482346 132.0
157.524811 148.0
157.569778 144.0
157.647232 140.0
157.667236 200.0
157.709717 176.0
157.784714 160.0
157.809708 124.0
157.989777 168.0
158.019806 128.0
158.062332 200.0
158.114883 120.0
158.199982 276.0
158.277603 92.0
158.352722 256.0
158.540619 172.0
158.568192 212.0
158.633362 188.0
158.663437 80.0
158.813889 188.0
158.831451 144.0
158.949356 220.0
158.999557 64.0
159.019623 180.0
159.044724 112.0
159.077362 204.0
159.215454 124.0
159.617523 160.0
159.811188 160.0
159.899261 128.0
159.947998 156.0
159.966431 176.0
160.022614 144.0
160.325546 180.0
160.693024 100.0
160.857056 76.0
160.877243 128.0
160.988342 68.0
161.046432 136.0
161.071686 112.0
161.144943 144.0
161.167679 112.0
161.233383 184.0
161.460907 72.0
161.58992 148.0
161.789841 164.0
161.8582 140.0
161.959503 156.0
161.979767 164.0
162.002563 200.0
162.05365 180.0
162.134323 104.0
162.277298 184.0
162.418274 236.0
162.443649 60.0
162.483475 188.0
162.570511 108.0
162.656799 156.0
162.692337 168.0
162.946106 212.0
163.032684 180.0
163.060364 184.0
163.096222 184.0
163.182648 200.0
163.243683 100.0
163.264023 176.0
163.515579 172.0
163.543884 96.0
163.874924 132.0
163.99469 236.0
164.147659 304.0
164.573776 176.0
164.985107 156.0
165.042099 192.0
165.071289 260.0
165.197357 168.0
165.258759 196.0
165.294571 192.0
165.447845 140.0
165.479248 132.0
165.568481 128.0
165.606903 48.0
165.655563 40.0
165.679688 240.0
165.824677 168.0
165.865677 120.0
165.886185 204.0
166.028137 1224.0
166.077301 192.0
166.191376 72.0
166.250397 120.0
166.301727 72.0
166.425385 164.0
166.45575 180.0
166.525085 160.0
166.620132 136.0
166.64325 56.0
166.769165 120.0
166.818008 184.0
166.944 84.0
166.989731 564.0
167.01564 4552.0
167.082596 248.0
167.248322 192.0
167.293304 144.0
167.378876 48.0
167.422226 148.0
167.481888 172.0
167.505066 116.0
167.523102 172.0
167.564316 36.0
167.697083 192.0
167.766617 136.0
167.824631 180.0
167.868454 88.0
167.89682 124.0
167.940674 220.0
168.021851 1176.0
168.098145 204.0
168.12384 68.0
168.167725 104.0
168.216202 148.0
168.252899 228.0
168.307114 144.0
168.351013 124.0
168.374252 64.0
168.392334 152.0
168.412994 168.0
168.451752 52.0
168.507874 184.0
168.555923 124.0
168.583511 280.0
168.603775 152.0
168.655869 80.0
168.673965 200.0
168.697144 124.0
168.728256 152.0
168.756699 152.0
168.777313 172.0
168.801727 272.0
168.842941 160.0
168.874817 212.0
168.923187 352.0
168.965561 480.0
169.00647 144028.0
169.089035 156.0
169.109985 56.0
169.11821 40.0
169.143661 144.0
169.161804 88.0
169.191757 84.0
169.249847 180.0
169.292236 100.0
169.314957 196.0
169.359009 96.0
169.377182 52.0
169.41069 104.0
169.432632 1132.0
169.479218 148.0
169.520142 124.0
169.565674 108.0
169.583282 148.0
169.612137 268.0
169.644821 72.0
169.669159 180.0
169.704575 88.0
169.756226 112.0
169.786377 68.0
169.817276 104.0
169.845032 204.0
169.895187 60.0
169.925415 168.0
169.949493 60.0
169.96611 192.0
170.009155 13508.0
170.07988 96.0
170.100266 184.0
170.133301 80.0
170.15416 88.0
170.18576 156.0
170.229309 132.0
170.264801 320.0
170.284897 92.0
170.320938 108.0
170.379959 36.0
170.459625 120.0
170.479156 176.0
170.509003 120.0
170.553192 48.0
170.625977 184.0
170.653519 88.0
170.697296 84.0
170.74231 68.0
170.783478 80.0
170.8358 204.0
170.862152 108.0
170.88446 144.0
170.945801 188.0
170.955566 120.0
171.003479 57212.0
171.043243 244.0
171.066711 140.0
171.093826 72.0
171.119247 120.0
171.150787 272.0
171.182144 236.0
171.214798 144.0
171.271057 276.0
171.330978 124.0
171.37793 52.0
171.432449 120.0
171.476837 128.0
171.499512 132.0
171.539719 56.0
171.557968 80.0
171.586639 80.0
171.619644 116.0
171.662247 236.0
171.705933 144.0
171.732666 52.0
171.774399 68.0
171.865707 36.0
171.897018 32.0
171.964874 44.0
172.005325 3500.0
172.044144 196.0
172.124115 80.0
172.163803 120.0
172.183426 84.0
172.2547 112.0
172.299103 76.0
172.333069 164.0
172.406235 60.0
172.450668 108.0
172.568298 36.0
172.730438 44.0
172.776138 144.0
172.865921 112.0
172.926483 112.0
172.947617 104.0
172.982986 148.0
172.992111 132.0
172.999084 204.0
173.016983 224.0
173.073273 256.0
173.138733 92.0
173.205566 132.0
173.319473 116.0
173.344574 132.0
173.398102 72.0
173.460999 72.0
173.576355 100.0
173.668137 92.0
173.820297 60.0
173.891159 76.0
173.912155 120.0
173.941025 32.0
173.991714 320.0
174.190475 68.0
174.253525 88.0
174.568939 84.0
174.603134 128.0
174.989929 72.0
175.079468 48.0
175.197983 56.0
175.714706 52.0
175.983902 88.0
176.012955 196.0
176.306168 208.0
176.848328 120.0
177.078674 164.0
177.972336 156.0
178.079437 280.0
178.184799 56.0
178.261856 124.0
178.344238 32.0
178.40538 40.0
178.485138 128.0
179.014664 164.0
179.084564 324.0
179.174484 128.0
179.283722 68.0
179.467072 92.0
179.958572 100.0
180.060043 144.0
180.091156 192.0
180.431458 104.0
180.52504 68.0
180.573181 132.0
180.677505 52.0
180.854111 120.0
180.878204 88.0
180.896942 156.0
181.059891 320.0
181.381775 136.0
181.856522 116.0
182.03653 160.0
182.071304 56.0
182.262024 72.0
182.38028 96.0
182.759445 44.0
182.891312 40.0
183.023224 128.0
183.079773 108.0
183.117477 152.0
183.370728 100.0
183.478546 44.0
183.548645 124.0
183.904755 88.0
184.047516 376.0
184.096436 136.0
184.139648 88.0
184.59906 124.0
184.956177 116.0
185.025146 312.0
185.137573 152.0
185.259445 80.0
185.394928 132.0
185.861328 108.0
186.033234 624.0
186.189789 112.0
186.254974 60.0
186.363632 104.0
186.504944 32.0
186.804047 112.0
187.700073 104.0
188.035919 348.0
188.16391 72.0
188.223969 104.0
188.516251 140.0
188.559982 72.0
188.808762 172.0
188.948257 52.0
189.005722 312.0
189.024872 204.0
189.172668 92.0
189.948135 200.0
189.972824 164.0
190.81868 232.0
190.999817 156.0
191.352417 104.0
191.859329 156.0
192.016495 92.0
192.060623 128.0
192.364151 112.0
192.554657 68.0
192.764618 52.0
192.841995 168.0
193.047318 88.0
193.23465 40.0
193.727432 40.0
193.810547 32.0
194.07428 428.0
194.168137 208.0
194.481644 208.0
194.517731 100.0
195.078445 840.0
195.546143 176.0
195.718735 184.0
196.086441 868.0
196.298309 156.0
196.476822 168.0
196.616333 132.0
196.870377 156.0
197.096634 168.0
197.216797 148.0
197.527161 80.0
197.815384 152.0
198.031219 2888.0
198.266312 60.0
198.288742 76.0
199.03653 544.0
199.253998 36.0
199.296143 112.0
200.029861 988.0
200.184998 88.0
200.872681 100.0
200.979889 40.0
201.022217 144.0
201.061722 144.0
201.171799 196.0
201.270615 132.0
201.335556 104.0
202.018845 208.0
202.073303 56.0
202.112915 80.0
203.030243 144.0
203.442123 136.0
203.970474 176.0
204.022354 160.0
204.337326 176.0
205.012146 216.0
205.62529 84.0
205.967911 152.0
206.654007 156.0
206.877228 116.0
207.000336 224.0
207.086258 180.0
207.186508 140.0
207.602112 128.0
207.954987 116.0
208.090652 1124.0
208.135834 104.0
208.196136 128.0
208.230606 100.0
208.699005 204.0
209.060837 136.0
209.096893 788.0
209.306107 72.0
209.755539 180.0
209.885269 64.0
209.92276 40.0
210.027863 320.0
210.10408 1516.0
210.193909 48.0
210.216995 44.0
211.024689 152.0
211.10228 408.0
211.433609 40.0
211.931671 104.0
212.0289 172.0
213.007965 148.0
213.04863 160.0
213.159042 68.0
214.054962 96.0
214.77771 136.0
215.03067 132.0
215.038788 92.0
215.051773 176.0
215.077087 280.0
215.49292 116.0
215.537109 132.0
215.94017 92.0
216.200546 48.0
217.017792 164.0
217.042801 1148.0
217.08989 220.0
218.052094 148.0
218.060394 180.0
218.200974 156.0
219.013153 196.0
219.045013 176.0
219.169281 104.0
220.621338 240.0
221.0289 184.0
221.079544 144.0
222.060043 136.0
222.526276 188.0
222.924286 132.0
223.079193 500.0
223.840485 176.0
224.048965 192.0
224.084564 620.0
225.077362 128.0
225.09993 184.0
225.328812 144.0
225.582825 224.0
226.097275 136.0
226.633286 80.0
226.765137 144.0
226.950989 136.0
227.025955 36.0
227.049942 164.0
227.139923 108.0
228.032684 328.0
228.925156 84.0
229.015182 152.0
229.051651 136.0
229.078751 160.0
229.178177 124.0
229.374054 84.0
229.422287 48.0
229.539871 204.0
229.624725 116.0
230.050613 332.0
230.400055 204.0
231.060593 580.0
231.098434 188.0
231.128693 156.0
231.755447 212.0
231.952438 120.0
232.019135 144.0
232.048019 136.0
233.066254 160.0
233.281982 56.0
234.091293 148.0
234.219193 64.0
234.399536 224.0
234.572662 132.0
234.773895 176.0
234.850128 180.0
235.091141 212.0
235.931091 196.0
236.078903 148.0
237.078873 172.0
238.035965 156.0
238.083206 256.0
238.505997 148.0
239.087387 120.0
239.35817 148.0
240.489563 152.0
241.060898 180.0
241.144333 84.0
241.629807 92.0
242.058334 160.0
242.217972 144.0
242.856491 184.0
243.041321 328.0
243.067474 380.0
243.241241 48.0
244.052536 560.0
244.29776 68.0
244.599594 160.0
244.71167 116.0
245.043335 676.0
245.072327 948.0
245.269287 140.0
245.998947 512.0
246.045288 812.0
246.071609 464.0
246.108475 132.0
246.408295 136.0
247.03302 340.0
247.066605 252.0
247.130524 144.0
247.872589 56.0
247.999023 256.0
248.036743 224.0
248.070038 184.0
248.120193 172.0
248.192307 56.0
248.515366 84.0
248.665985 64.0
248.926559 88.0
249.649307 152.0
249.973312 96.0
250.042542 176.0
252.10611 496.0
252.427383 184.0
252.515991 124.0
253.106094 172.0
253.364304 112.0
253.893631 148.0
254.099808 164.0
255.039749 140.0
255.774506 116.0
255.905029 200.0
255.946411 64.0
256.019653 40.0
256.055908 152.0
256.108826 168.0
256.69043 184.0
256.730286 76.0
257.036316 124.0
257.063934 184.0
257.387634 188.0
257.687866 44.0
258.052216 256.0
258.089844 132.0
258.379608 116.0
258.644043 76.0
259.012177 128.0
259.051208 7700.0
259.116241 124.0
259.39679 104.0
259.659698 84.0
259.737671 132.0
259.999756 40.0
260.055756 1072.0
260.11441 188.0
260.157043 108.0
260.182709 44.0
260.441376 116.0
260.540466 156.0
260.712677 172.0
261.051331 2292.0
261.087433 504.0
261.223907 48.0
261.370209 48.0
261.445892 84.0
261.50061 148.0
261.58429 88.0
261.687317 96.0
261.729187 80.0
261.793579 52.0
261.816101 84.0
261.990051 92.0
262.062958 2388.0
262.122131 64.0
262.199493 104.0
262.22525 28.0
263.067078 712.0
263.39325 40.0
263.635559 56.0
263.738983 92.0
264.0625 1192.0
264.181976 108.0
264.868225 120.0
264.994568 108.0
265.026978 112.0
265.067322 184.0
265.409424 72.0
265.582886 132.0
265.967407 60.0
266.042084 148.0
267.075409 108.0
268.006439 80.0
268.410614 164.0
268.642181 104.0
268.815094 168.0
268.932587 116.0
270.067169 200.0
270.822388 60.0
271.052521 688.0
271.107422 136.0
271.490967 160.0
272.053894 492.0
272.837189 144.0
273.047943 416.0
273.083801 212.0
273.284454 144.0
273.702454 116.0
274.035126 212.0
274.077972 148.0
275.037628 128.0
275.364502 116.0
275.731201 128.0
276.243683 76.0
276.28009 96.0
276.859314 112.0
278.693665 124.0
279.012726 120.0
279.837799 184.0
280.347412 184.0
281.101624 140.0
281.14444 100.0
281.595123 112.0
282.3638 52.0
283.020203 132.0
284.881012 168.0
285.089325 168.0
285.425476 88.0
286.063049 380.0
286.45755 168.0
287.065216 116.0
287.751831 104.0
288.00354 172.0
288.079163 4784.0
288.215302 112.0
288.29071 36.0
288.314362 44.0
288.408997 64.0
288.547607 36.0
288.821503 56.0
289.010956 48.0
289.082184 692.0
289.183533 132.0
289.219604 76.0
289.315552 32.0
289.356171 68.0
289.50177 52.0
289.569519 28.0
289.6474 160.0
289.762573 76.0
290.076538 1552.0
290.335419 68.0
290.474487 56.0
290.508392 116.0
290.532135 48.0
290.671265 44.0
291.077972 348.0
291.160645 196.0
291.454803 152.0
291.533783 52.0
291.63913 48.0
291.809082 116.0
292.846954 52.0
292.993439 60.0
293.085419 96.0
293.497864 104.0
293.975403 84.0
294.077789 152.0
296.643127 180.0
297.140381 148.0
297.854401 152.0
298.369873 168.0
298.417999 152.0
298.500519 172.0
299.136993 196.0
299.787933 84.0
300.215393 56.0
301.527252 132.0
302.083923 84.0
302.173859 164.0
302.516479 132.0
303.067291 548.0
303.161621 60.0
303.452362 104.0
303.562805 196.0
303.659912 64.0
303.78653 164.0
303.899261 56.0
303.947815 172.0
304.073914 14508.0
304.149109 96.0
304.225464 64.0
304.365448 140.0
304.434967 156.0
304.492828 60.0
304.586609 80.0
304.621338 112.0
304.656586 84.0
304.712738 144.0
305.074799 3292.0
305.170441 44.0
305.194763 104.0
305.226074 88.0
305.459076 136.0
305.650421 80.0
305.709595 72.0
305.775696 72.0
305.86969 164.0
305.935822 68.0
306.070435 5584.0
306.183258 64.0
306.326324 56.0
306.357178 56.0
306.4617 68.0
306.486084 48.0
306.552277 44.0
306.597595 80.0
306.646393 68.0
306.681244 76.0
306.752472 120.0
306.876465 116.0
307.071106 552.0
307.260101 144.0
307.333344 128.0
307.52179 116.0
307.657928 72.0
307.808044 100.0
307.832489 40.0
308.072693 260.0
309.076874 136.0
309.304352 72.0
310.927124 84.0
311.829712 100.0
313.554199 148.0
313.818573 44.0
313.987823 184.0
314.312378 44.0
315.106781 72.0
315.739502 48.0
316.475525 56.0
319.271698 92.0
319.892914 172.0
320.067993 452.0
320.095917 136.0
320.574585 36.0
321.276978 80.0
322.401703 88.0
322.462433 120.0
322.830658 60.0
323.077454 196.0
323.360138 116.0
324.126465 84.0
324.940369 64.0
325.902557 56.0
327.733948 52.0
330.858002 168.0
332.91748 104.0
334.018707 124.0
335.056183 372.0
335.25293 104.0
335.825317 80.0
336.547852 132.0
337.040955 152.0
339.786896 100.0
342.080017 40.0
346.130066 132.0
347.727814 84.0
348.466766 224.0
351.049347 204.0
352.041016 952.0
353.041534 280.0
353.47049 72.0
353.691315 48.0
353.968323 128.0
354.039185 708.0
354.991333 44.0
355.046234 192.0
355.291382 80.0
355.550262 56.0
355.647858 56.0
356.019531 108.0
356.053345 60.0
356.376373 112.0
357.402832 136.0
357.572174 204.0
359.992401 96.0
360.680023 108.0
361.303955 32.0
361.818634 96.0
362.561035 76.0
363.057648 224.0
364.230408 136.0
365.325165 136.0
365.408844 48.0
368.791229 188.0
368.925018 132.0
368.991974 236.0
369.067413 7200.0
369.128937 120.0
369.158264 88.0
369.288269 196.0
369.349487 116.0
369.403015 52.0
369.674683 52.0
369.823914 68.0
369.9646 176.0
370.069885 1716.0
370.202942 156.0
370.275696 40.0
370.37146 48.0
370.501678 56.0
370.551483 64.0
370.984558 68.0
371.064789 2232.0
371.540588 88.0
372.063843 556.0
372.300262 48.0
372.896057 120.0
372.95755 72.0
373.052704 248.0
373.095917 92.0
373.218964 32.0
373.411224 44.0
374.057617 80.0
375.787964 40.0
379.974091 52.0
382.515564 136.0
383.446472 112.0
383.797302 56.0
383.902588 108.0
385.038208 64.0
385.52652 40.0
395.046112 944.0
395.140411 68.0
395.551941 80.0
396.050995 340.0
397.041443 120.0
397.597076 244.0
398.047729 168.0
398.136993 140.0
398.991272 84.0
399.040802 144.0
400.551178 68.0
402.417511 208.0
403.480225 160.0
404.132141 32.0
405.24118 96.0
409.865784 32.0
411.236908 100.0
417.13031 76.0
424.384827 76.0
424.950836 88.0
425.443329 52.0
427.156891 68.0
427.54776 48.0
429.150116 64.0
437.231781 76.0
451.195679 196.0
451.229492 48.0
452.608795 72.0
454.596802 144.0
454.796265 72.0
456.232025 200.0
457.316711 68.0
464.121887 44.0
467.790833 48.0
481.291473 80.0
487.788483 52.0
488.848419 92.0
493.263184 96.0
493.342743 48.0
497.262756 140.0
499.306427 104.0
503.857391 52.0
514.203064 108.0
524.489746 72.0
533.801819 56.0
534.114563 140.0
534.56543 56.0
537.786743 80.0
538.123779 180.0
552.938416 64.0
553.51886 80.0
555.689026 84.0
562.418335 128.0
565.921265 84.0
569.53009 96.0
591.496338 100.0
607.298096 92.0
630.96875 100.0
631.723877 28.0
637.158081 76.0
644.847473 96.0
661.024597 92.0
673.641479 56.0
682.732483 36.0
684.559021 64.0
691.915833 112.0
699.954224 68.0
710.572693 152.0
713.578674 124.0
741.481812 104.0
750.947205 48.0
766.038818 64.0
789.319641 72.0
793.816101 80.0
810.603149 48.0
818.54425 72.0
832.853088 196.0
855.520752 168.0
856.446594 88.0
871.569214 120.0
873.244568 72.0
874.321228 252.0
875.81073 136.0
892.36261 240.0
906.071472 100.0
907.054199 96.0
907.503845 204.0
932.325317 184.0
934.508301 68.0
935.54895 196.0
936.645081 224.0
938.278198 208.0
938.753784 136.0
939.077026 164.0
946.134583 208.0
949.271606 116.0
959.021973 72.0
960.470947 164.0
964.447327 140.0
968.122253 184.0
973.33728 208.0
974.362122 180.0
978.086975 132.0
981.949951 172.0
984.589844 176.0
992.292542 180.0
992.769226 196.0
997.389893 188.0
1009.760315 136.0
1017.94165 72.0
1020.317932 124.0
1021.004639 100.0
1023.785645 204.0
1027.399536 136.0
1033.532959 184.0
1038.356567 200.0
1038.799194 196.0
1044.509644 56.0
1045.088623 216.0
1045.294556 84.0
1051.390625 224.0
1054.089966 56.0
1059.544312 96.0
1061.313599 124.0
1062.571899 112.0
1064.980103 60.0
1065.759644 164.0
1067.839844 124.0
1068.945801 172.0
1069.069458 120.0
1076.788208 188.0
1079.61145 44.0
1079.918823 108.0
1081.731323 136.0
1084.351196 124.0
1087.131836 64.0
1087.584717 192.0
1088.09668 176.0
1088.490723 128.0
1097.050293 192.0
1099.263672 180.0
1101.537476 192.0
1101.947021 184.0
1102.700317 164.0
1105.345581 120.0
1106.417847 100.0
1112.530029 48.0
1115.027466 92.0
1117.155151 176.0
1118.166626 48.0
1120.730347 148.0
1121.656616 144.0
1126.387573 92.0
1126.748169 220.0
1128.646484 156.0
1130.057739 156.0
1132.199707 96.0
1133.808716 176.0
1135.470093 132.0
1135.919556 196.0
1140.740845 140.0
1140.942505 136.0
1141.836914 136.0
1145.680298 208.0
1153.765015 108.0
1158.590088 88.0
1159.423584 168.0
1160.901367 132.0
1161.681396 76.0
1162.027344 140.0
1162.543091 40.0
1164.715576 56.0
1166.720215 208.0
1167.080566 184.0
1167.719727 164.0
1176.994385 124.0
1182.374268 168.0
1185.519775 140.0
1187.066895 92.0
1196.438599 60.0
1196.486694 116.0
1197.691772 44.0
1209.353638 168.0
1209.42981 180.0
1210.828369 132.0
1217.756836 112.0
1220.745117 204.0
1221.092896 52.0
1221.89978 120.0
1222.122437 244.0
1226.154297 44.0
1233.986206 188.0
1238.815063 196.0
1239.78894 44.0
1242.158691 128.0
1242.839233 100.0
1242.902344 144.0
1243.169067 184.0
1245.647461 160.0
1245.949463 272.0
1249.014404 236.0
1250.499023 124.0
1250.87207 84.0
1251.392944 140.0
1252.681763 152.0
1252.921265 188.0
1254.372925 188.0
1255.317627 108.0
1256.044067 184.0
1258.132812 160.0
1261.453003 148.0
1263.192505 164.0
1265.287231 184.0
1267.886719 180.0
1268.404175 164.0
1269.807983 164.0
1274.088257 116.0
1275.431274 212.0
1275.836426 116.0
1276.767944 180.0
1277.770874 132.0
1278.347168 60.0
1279.557129 112.0
1280.967163 256.0
1284.859497 180.0
1285.423096 176.0
1286.60083 144.0
1287.364746 124.0
1287.986084 140.0
1290.480103 172.0
1291.345459 124.0
1296.550171 192.0
1298.729736 188.0
1298.837402 32.0
1299.2677 132.0
1300.013916 192.0
1301.815796 212.0
1303.697876 252.0
1304.855103 176.0
1304.970093 176.0
1305.372803 112.0
1306.653076 136.0
1307.329468 224.0
1307.696533 48.0
1309.064331 156.0
1309.626099 176.0
1310.353638 180.0
1310.649048 208.0
1310.994873 148.0
1311.124634 212.0
1312.140991 96.0
1313.323608 180.0
1313.770752 168.0
1313.936768 200.0
1316.441284 152.0
1317.669189 120.0
1318.377319 96.0
1318.767578 128.0
1321.009155 160.0
1321.862793 156.0
1323.853516 128.0
1324.469116 120.0
1327.716064 136.0
1328.90564 132.0
1329.667603 192.0
1333.662231 204.0
1334.011108 140.0
1339.883911 152.0
1340.131592 116.0
1341.217407 152.0
1344.718384 124.0
1345.192749 172.0
1346.857666 184.0
1346.908813 160.0
1347.449341 132.0
1348.742798 104.0
1349.29834 212.0
1350.051514 124.0
1350.227051 132.0
1351.426636 236.0
1353.388184 172.0
1353.446777 80.0
1353.505371 112.0
1355.578369 192.0
1356.428467 80.0
1357.711548 100.0
1357.880249 148.0
1358.67981 148.0
1359.927246 200.0
1362.188721 196.0
1362.284302 160.0
1362.636841 196.0
1363.944946 152.0
1364.430054 140.0
1366.342163 180.0
1368.84375 232.0
1371.563232 256.0
1372.234009 156.0
1372.329834 224.0
1374.129517 124.0
1375.117188 128.0
1377.91687 152.0
1378.884888 84.0
1380.807129 100.0
1381.080811 236.0
1385.359253 104.0
1385.411011 232.0
1385.863037 124.0
1387.226562 68.0
1387.953125 124.0
1388.027344 168.0
1389.213989 56.0
1390.423462 156.0
1391.893188 112.0
1392.576416 152.0
1393.672485 132.0
1394.44873 152.0
1396.477173 96.0
1396.746216 160.0
1397.102905 180.0
1397.490112 188.0
1397.616577 140.0
1398.130005 232.0
1401.726807 148.0
1402.829834 128.0
1403.150391 140.0
1404.586304 196.0
1406.126709 140.0
1406.246094 164.0
1406.746216 164.0
1409.008911 124.0
1410.226929 176.0
1410.765137 168.0
1412.724365 220.0
1412.806641 148.0
1413.061035 124.0
1413.712036 204.0
1414.011353 136.0
1414.13855 140.0
1416.182617 148.0
1418.362915 184.0
1418.797729 184.0
1420.567505 164.0
1423.742432 124.0
1424.080322 168.0
1425.154541 168.0
1426.590088 180.0
1426.988525 76.0
1428.740845 64.0
1432.052856 112.0
1432.293823 148.0
1433.989136 152.0
1435.421509 52.0
1437.391846 172.0
1440.923828 124.0
1441.89856 72.0
1443.100464 160.0
1443.554077 76.0
1444.628052 156.0
1445.467896 144.0
1445.884155 80.0
1447.875122 152.0
1448.03418 148.0
1448.32959 224.0
1448.549316 172.0
1450.299561 216.0
1452.331665 168.0
1454.31958 164.0
1454.775024 148.0
1457.372314 156.0
1458.481812 164.0
1462.28479 144.0
1463.160156 152.0
1463.8302 104.0
1464.942139 152.0
1467.159668 136.0
1467.79248 152.0
1467.868774 180.0
1468.501709 156.0
1468.852539 200.0
1469.4552 152.0
1471.309814 152.0
1474.548462 104.0
1476.352661 144.0
1476.979858 204.0
1478.020264 216.0
1478.976929 64.0
1480.224731 100.0
1480.959961 200.0
1482.323608 176.0
1482.676147 188.0
1483.971558 136.0
1485.198486 76.0
1486.402954 176.0
1486.763672 168.0
1486.825073 136.0
1487.400635 44.0
1488.836426 96.0
1490.680054 108.0
1491.940552 68.0
1492.263428 148.0
1492.747925 116.0
1493.801514 132.0
1494.532471 164.0
1494.663208 192.0
1495.602051 168.0
1495.717529 148.0
1495.894653 228.0
1497.334473 172.0
1497.68103 220.0
1497.773438 104.0
1498.120117 204.0
1498.197144 164.0
1499.468506 168.0
1499.676636 168.0
1500.4552 156.0
1501.195312 124.0
1501.25708 92.0
1502.892334 108.0
1503.424805 44.0
1503.787476 148.0
1504.188843 112.0
1504.41272 168.0
