>compound MLS001048954-01!
>formula C19H12O7
>ionization [M+H]+
>parentmass 353.064972
#inchi InChI=1S/C19H12O7/c1-23-16-6-11-7-17(19(22)26-15(11)9-13(16)20)24-12-4-2-10-3-5-18(21)25-14(10)8-12/h2-9,20H,1H3
#inchikey JRHMMVBOTXEHGJ
#Ion_Source LC-ESI
#Instrument qTof
#Compound_Source NIH Natural Product Library
#PI Dorrestein
#Data_Collector VVP/LMS
#Scan -1
#Precursor_MZ 353.066
#ExactMass 352.058
#Charge 1
#CAS_Number N/A
#Pubmed_ID N/A
#Smiles COc1cc2cc(Oc3ccc4ccc(=O)oc4c3)c(=O)oc2cc1O
#INCHI_AUX N/A
#Library_Class 1
#SpectrumID CCMSLIB00000079575
#IonMode Positive
#UpdateWorkflowName UPDATE-SINGLE-ANNOTATED-GOLD
#LibraryQualityString Gold
#TaskID b1d8e8f6646f4e71acdff9ca3d919d08
##Scan# 1664
#SpectrumFile p1-D08_GD8_01_17916.mzXML
#LibraryName NIH_Natural_Products_Library.mgf
#MQScore -1
#Organism NIH_Natural_Products_Library
#TIC_Query 0
#RT_Query -1
#MZErrorPPM -1
#SharedPeaks 0
#MassDiff 0
#LibMZ -1
#SpecMZ 353.066
#SpecCharge 0
#internalFilename spec-00000.mgf

>collision 10
95.0952 124.0
95.442932 140.0
95.563522 160.0
95.770836 40.0
97.540649 152.0
97.770767 236.0
98.227806 128.0
98.275215 236.0
98.664284 144.0
98.808647 160.0
99.353447 260.0
99.573776 120.0
99.949486 176.0
100.0271 176.0
100.138603 156.0
100.772942 64.0
100.792923 240.0
101.004837 228.0
101.202957 200.0
101.50351 56.0
101.794464 212.0
102.015472 172.0
102.047615 816.0
102.25885 188.0
102.512596 276.0
102.675888 204.0
102.83931 216.0
103.014977 180.0
103.052269 340.0
103.105896 136.0
103.304039 68.0
103.522629 184.0
103.832687 140.0
104.041679 144.0
104.191963 140.0
104.309822 200.0
104.393181 52.0
104.470467 20.0
104.48674 152.0
105.046959 144.0
106.042458 316.0
106.70163 160.0
106.964325 120.0
107.045242 168.0
107.206741 160.0
107.348152 160.0
107.362587 128.0
108.020386 384.0
108.499809 36.0
108.709778 136.0
108.732117 52.0
109.029099 144.0
109.193336 112.0
109.247414 104.0
109.743073 152.0
109.880722 144.0
109.982971 44.0
110.616318 132.0
111.003906 64.0
112.196037 112.0
113.975983 140.0
114.194939 32.0
114.211952 48.0
115.797775 176.0
115.836327 172.0
116.129974 84.0
116.327377 72.0
116.419701 132.0
116.557182 132.0
116.793655 128.0
116.828072 156.0
116.948578 92.0
117.030609 332.0
117.062675 136.0
117.170372 144.0
117.388062 148.0
117.534737 212.0
117.672874 92.0
117.860779 128.0
118.042168 1020.0
118.193764 68.0
118.245697 80.0
118.308464 100.0
118.713631 208.0
118.836449 264.0
119.047379 232.0
119.080391 136.0
119.767685 172.0
120.018028 544.0
120.081535 164.0
120.411087 188.0
120.902977 192.0
121.027847 756.0
121.073738 208.0
121.20517 96.0
121.448509 196.0
121.797501 128.0
122.030434 60.0
122.0942 116.0
122.276802 108.0
123.043884 188.0
124.086723 152.0
124.329895 212.0
124.51638 116.0
124.774132 164.0
124.871971 144.0
125.656059 152.0
126.008804 128.0
126.33297 148.0
126.870422 176.0
127.701225 188.0
128.014038 180.0
128.05986 196.0
128.077103 216.0
128.169464 136.0
128.374588 160.0
129.076859 140.0
129.185425 144.0
129.321182 136.0
129.547607 196.0
129.656372 164.0
129.794647 60.0
130.080505 100.0
130.191757 160.0
130.284882 148.0
131.12677 32.0
131.172363 164.0
131.628647 172.0
132.042267 148.0
132.671936 160.0
132.850815 184.0
132.889816 176.0
133.0298 120.0
133.284729 164.0
133.489304 156.0
134.036087 852.0
134.150085 88.0
134.283813 172.0
134.341476 44.0
134.433762 76.0
134.995102 208.0
135.043777 1496.0
135.187103 76.0
136.014954 848.0
136.046982 180.0
136.686127 88.0
136.87001 164.0
136.974808 176.0
137.023605 908.0
137.051682 172.0
137.261459 152.0
137.487747 152.0
137.765594 204.0
137.947861 96.0
138.015656 144.0
138.83522 140.0
139.051056 160.0
139.292892 168.0
139.323441 172.0
139.349274 152.0
140.054993 132.0
140.172791 200.0
140.450974 168.0
140.60434 176.0
141.53334 140.0
141.561752 172.0
141.59964 52.0
141.955109 172.0
142.054733 132.0
143.802994 240.0
144.300446 172.0
144.424789 80.0
144.506134 148.0
144.759842 188.0
144.862823 148.0
145.028198 444.0
145.332718 108.0
145.447906 208.0
145.505524 100.0
145.62558 160.0
145.959625 152.0
145.993286 124.0
146.036728 7032.0
146.162582 84.0
146.204987 64.0
146.260345 88.0
146.631256 48.0
147.007462 140.0
147.03978 552.0
147.077438 104.0
147.113647 180.0
147.210236 80.0
147.263351 76.0
147.328583 28.0
147.401062 92.0
147.43248 84.0
147.514648 180.0
147.577499 92.0
147.802444 152.0
147.877457 224.0
147.974289 80.0
148.013763 160.0
148.042084 72.0
148.073563 52.0
148.114746 40.0
148.148651 60.0
149.024826 604.0
149.571625 120.0
149.827316 84.0
150.007645 136.0
150.030762 812.0
150.163696 116.0
150.302734 188.0
150.344223 160.0
150.49556 96.0
151.040024 2324.0
151.131042 256.0
151.383163 68.0
151.515427 96.0
151.55217 56.0
151.731094 120.0
152.005783 136.0
152.047562 456.0
152.762497 56.0
153.015976 220.0
153.099686 164.0
153.516159 156.0
154.080429 212.0
154.474442 96.0
154.739243 180.0
155.004257 120.0
155.190155 136.0
155.525055 60.0
155.835464 104.0
156.049194 184.0
156.44725 188.0
157.165024 152.0
157.212433 188.0
157.359695 212.0
157.52951 248.0
157.95195 256.0
158.590439 68.0
158.936508 96.0
159.569443 144.0
159.725357 60.0
160.015472 124.0
160.052505 144.0
160.35733 168.0
160.380005 100.0
160.559021 156.0
160.914795 208.0
161.021286 320.0
161.185059 40.0
161.291199 68.0
161.460587 144.0
161.85788 152.0
162.030609 900.0
162.230316 180.0
163.039871 416.0
163.17215 52.0
163.515549 164.0
163.676392 196.0
163.815994 124.0
163.87204 36.0
163.94339 148.0
163.981613 200.0
164.009583 3000.0
164.048798 464.0
164.285049 112.0
164.348831 60.0
164.496841 40.0
165.01799 5020.0
165.048676 216.0
165.068588 440.0
165.085464 72.0
165.163757 72.0
165.575821 68.0
165.61937 40.0
165.639847 148.0
165.678284 108.0
165.865341 248.0
165.96019 124.0
165.988403 52.0
166.019302 332.0
166.124329 40.0
166.178207 84.0
166.196167 156.0
166.345016 40.0
167.020798 172.0
167.126266 92.0
167.285828 112.0
167.339905 44.0
167.522751 188.0
168.053497 176.0
168.324844 212.0
168.885635 188.0
168.911499 144.0
169.062088 156.0
169.434402 160.0
169.753204 180.0
170.074905 152.0
171.05484 176.0
171.583664 72.0
171.612335 140.0
172.053253 200.0
172.889648 160.0
173.020493 172.0
173.070267 220.0
174.026016 300.0
174.124435 40.0
174.971115 156.0
176.670654 148.0
176.691818 96.0
177.017303 1332.0
177.054443 100.0
177.147141 152.0
177.276962 172.0
177.40419 276.0
177.502289 40.0
177.536758 252.0
177.756927 100.0
177.802048 68.0
177.871048 164.0
177.982452 208.0
178.026123 10408.0
178.080048 140.0
178.117996 60.0
178.149063 120.0
178.30397 20.0
178.561859 28.0
178.618668 148.0
178.648941 108.0
178.750732 48.0
178.790649 44.0
178.849197 172.0
178.939713 148.0
179.033646 11300.0
179.072922 160.0
179.104813 64.0
179.139435 40.0
179.179398 80.0
179.35527 52.0
179.507233 128.0
179.557907 56.0
179.672592 92.0
179.75264 104.0
179.806015 100.0
179.85939 148.0
180.003555 56.0
180.035522 1180.0
180.107712 132.0
180.187851 140.0
180.254639 68.0
180.342834 40.0
180.484528 56.0
180.503235 60.0
180.583466 84.0
180.679764 60.0
181.038422 332.0
181.065201 304.0
181.094666 68.0
181.207169 120.0
181.258072 108.0
181.32077 192.0
181.380569 136.0
181.703156 176.0
181.783646 52.0
181.952744 160.0
182.033295 152.0
182.074448 160.0
182.097733 64.0
182.430923 128.0
182.820923 52.0
182.982422 100.0
183.559006 184.0
183.963699 184.0
184.049377 364.0
184.28508 72.0
185.001755 224.0
185.03154 176.0
185.058609 100.0
185.115463 124.0
185.532715 192.0
186.059006 112.0
187.010406 204.0
187.1819 192.0
188.011536 176.0
189.019684 1040.0
190.020905 260.0
190.282486 136.0
190.870453 176.0
190.980453 88.0
191.033417 1304.0
191.184036 108.0
191.586029 44.0
191.974655 224.0
192.04155 1324.0
192.087738 104.0
192.170502 132.0
192.656387 164.0
193.012283 2300.0
193.173325 80.0
193.275681 100.0
194.019028 160.0
194.084473 212.0
194.336868 128.0
195.020004 168.0
195.554016 100.0
196.03714 92.0
196.395432 144.0
196.811249 132.0
196.900604 196.0
197.053802 364.0
197.210724 156.0
197.593811 84.0
198.063156 188.0
199.037247 116.0
199.11026 260.0
199.467072 200.0
200.483109 180.0
201.05275 200.0
202.211456 140.0
202.826065 84.0
202.882767 88.0
203.214584 188.0
203.313889 228.0
205.225418 56.0
207.627396 152.0
207.788025 148.0
208.037827 1764.0
208.112335 52.0
209.038513 428.0
209.556168 80.0
209.79982 212.0
210.067123 448.0
210.305923 76.0
210.692856 68.0
211.042557 140.0
211.902161 200.0
212.04451 308.0
212.664795 132.0
212.976746 128.0
213.016129 100.0
213.052658 488.0
213.236954 188.0
213.696396 152.0
216.586441 164.0
216.794449 112.0
218.091644 172.0
218.782913 108.0
219.033203 184.0
219.714157 148.0
220.049484 148.0
220.608948 20.0
220.662155 128.0
220.789307 96.0
221.05867 312.0
221.085144 40.0
221.360443 224.0
223.075287 120.0
224.051361 208.0
225.046036 140.0
225.084518 148.0
225.746674 128.0
226.064056 488.0
227.031357 164.0
227.073349 152.0
227.103333 68.0
227.151321 172.0
227.187317 40.0
228.031067 148.0
228.079163 144.0
228.181366 188.0
228.545288 92.0
228.852295 112.0
229.240845 184.0
229.726257 204.0
231.970016 144.0
232.634338 176.0
232.682922 60.0
233.071671 140.0
233.91713 220.0
233.959747 160.0
234.249054 40.0
235.466034 112.0
236.045914 360.0
236.851532 132.0
237.055161 648.0
237.443069 196.0
238.059738 604.0
238.228821 148.0
238.268753 32.0
238.547928 196.0
239.031723 220.0
239.063431 144.0
239.200531 52.0
240.037323 424.0
240.106369 212.0
240.143372 132.0
240.22049 124.0
240.430298 120.0
241.050385 412.0
241.081894 156.0
241.489975 212.0
242.054916 160.0
242.428024 120.0
243.87735 88.0
244.037003 300.0
244.414749 104.0
245.483765 120.0
247.036011 72.0
247.536774 100.0
247.884476 120.0
249.052658 176.0
249.972656 112.0
252.066437 60.0
252.154907 164.0
253.049561 1408.0
253.097595 144.0
253.126099 164.0
253.461853 180.0
254.053635 564.0
254.629227 148.0
254.902435 52.0
255.070877 192.0
257.003937 52.0
258.016388 176.0
259.255066 104.0
260.098572 148.0
260.246246 128.0
260.695923 156.0
261.892731 128.0
262.35672 204.0
264.043915 316.0
264.223358 148.0
265.043671 688.0
265.149414 136.0
266.058746 168.0
267.025909 180.0
267.250366 144.0
267.728851 96.0
268.044586 120.0
268.286011 84.0
268.922089 188.0
269.044556 300.0
269.264893 64.0
269.375946 104.0
270.078705 152.0
271.051025 220.0
272.034912 120.0
272.603088 148.0
272.698395 28.0
272.741119 40.0
273.007446 56.0
274.964294 192.0
275.258087 192.0
276.878448 216.0
278.012238 96.0
278.065338 92.0
279.58078 96.0
279.763824 144.0
281.041962 1652.0
281.487549 48.0
281.530945 32.0
281.988647 48.0
282.051697 1204.0
283.047638 232.0
284.064941 180.0
285.246552 180.0
285.39447 260.0
285.878845 180.0
287.14032 156.0
288.185211 148.0
290.032928 200.0
291.030304 64.0
291.448059 56.0
291.849121 112.0
292.774689 128.0
292.951813 108.0
293.008667 196.0
293.04834 332.0
294.051086 740.0
294.531128 48.0
294.684845 40.0
295.050537 148.0
295.563568 200.0
296.026337 160.0
296.834351 36.0
297.041809 312.0
297.08609 140.0
298.121613 28.0
298.231598 84.0
298.98822 160.0
299.938812 168.0
300.483673 88.0
300.611328 88.0
301.962067 84.0
302.110809 128.0
302.197296 144.0
304.780365 180.0
306.579376 68.0
306.966309 144.0
307.409332 112.0
307.671112 72.0
308.065704 108.0
308.170532 64.0
308.547974 156.0
308.999115 28.0
309.036621 640.0
309.07486 1144.0
309.111084 240.0
309.377075 244.0
309.485626 152.0
309.6362 52.0
309.776276 52.0
309.962769 228.0
310.045929 4512.0
310.203796 56.0
310.526367 48.0
310.733337 48.0
311.053589 1008.0
311.47403 80.0
312.051636 292.0
312.215607 136.0
312.38446 52.0
312.637756 112.0
312.915833 68.0
313.081329 112.0
313.120056 116.0
314.283356 72.0
314.837524 60.0
316.619904 100.0
318.240417 72.0
320.025238 164.0
321.036072 584.0
321.379639 200.0
322.041046 72.0
323.982361 96.0
325.067657 148.0
325.45636 80.0
326.07782 180.0
326.286316 48.0
327.812408 92.0
330.032288 184.0
334.731171 36.0
334.916901 96.0
335.033478 144.0
335.05899 160.0
335.095398 108.0
336.641937 108.0
336.795319 116.0
336.879333 60.0
336.96701 176.0
337.035004 1828.0
337.379974 172.0
337.515259 92.0
337.555481 80.0
337.859039 68.0
337.947906 156.0
338.040985 9020.0
338.126495 128.0
338.290863 48.0
338.327484 148.0
338.360413 72.0
338.488586 84.0
339.045319 2140.0
339.184662 64.0
339.254303 80.0
339.422943 220.0
339.525635 96.0
340.054626 464.0
340.105316 172.0
340.219086 88.0
340.343933 36.0
340.417358 92.0
340.56427 68.0
340.799377 152.0
341.218353 68.0
341.36911 100.0
342.185944 112.0
342.410553 48.0
342.528412 60.0
342.749451 60.0
343.859436 128.0
344.221222 88.0
344.967529 84.0
346.833099 72.0
347.47464 192.0
348.688843 120.0
348.792908 96.0
350.732178 92.0
351.041595 292.0
351.198242 120.0
351.29895 88.0
352.191071 96.0
352.702972 136.0
352.852478 112.0
352.945953 152.0
353.064972 8448.0
353.132935 128.0
353.166046 136.0
353.329254 116.0
353.376068 44.0
353.471375 128.0
353.630524 48.0
353.724121 28.0
353.77652 172.0
353.959198 232.0
353.989929 136.0
354.067383 1740.0
354.420685 48.0
354.838989 92.0
355.071594 288.0
355.237976 28.0
355.28299 72.0
355.371002 84.0
355.643219 76.0
355.80838 76.0
355.858612 72.0
355.91925 40.0
355.988617 40.0
356.146332 96.0
356.289093 68.0
356.353455 148.0
356.559631 140.0
356.928009 92.0
357.977844 112.0
362.635925 108.0
362.69278 124.0
365.563934 56.0
365.883667 116.0
372.311188 40.0
376.068726 52.0
379.038757 100.0
389.301941 88.0
401.610474 44.0
439.802277 48.0
455.015961 148.0
488.22702 104.0
499.145172 80.0
506.491028 108.0
524.374634 104.0
524.93988 92.0
526.117065 84.0
549.395386 60.0
580.869934 108.0
618.733765 68.0
635.038269 104.0
638.936218 68.0
657.639893 20.0
702.408386 68.0
715.36438 72.0
718.775269 84.0
775.278564 44.0
778.285034 44.0
799.330078 92.0
819.783813 108.0
826.882324 144.0
826.945251 144.0
829.052795 76.0
831.955017 88.0
868.543335 172.0
873.583191 132.0
894.322998 160.0
924.602478 204.0
964.09198 56.0
1012.06665 172.0
1025.260132 140.0
1028.678711 148.0
1036.282593 176.0
1036.609375 144.0
1045.197144 84.0
1045.258789 72.0
1058.977051 132.0
1066.574829 148.0
1073.175781 172.0
1088.867676 176.0
1110.283325 96.0
1120.679565 108.0
1123.939941 136.0
1124.060059 64.0
1142.505127 128.0
1144.079834 156.0
1164.649902 188.0
1171.744873 108.0
1172.235474 168.0
1194.685791 112.0
1204.329102 172.0
1209.881714 208.0
1219.662598 196.0
1228.031616 152.0
1236.814209 184.0
1237.143188 128.0
1241.234863 156.0
1245.4104 212.0
1251.141235 112.0
1252.922974 60.0
1271.874268 124.0
1276.869019 208.0
1279.943237 128.0
1290.646118 156.0
1292.66394 204.0
1294.552979 76.0
1298.716797 88.0
1303.620239 88.0
1306.870361 128.0
1310.679199 176.0
1312.560425 192.0
1321.820679 104.0
1324.970215 96.0
1327.376465 168.0
1330.459961 136.0
1334.80481 96.0
1336.921509 164.0
1348.08606 176.0
1348.678101 164.0
1351.764282 200.0
1354.165527 172.0
1363.769531 124.0
1367.630859 156.0
1369.184326 184.0
1372.102173 152.0
1372.566772 80.0
1372.91333 48.0
1377.541016 188.0
1379.521362 44.0
1386.782715 208.0
1400.133301 168.0
1407.00061 184.0
1412.822144 168.0
1414.872681 164.0
1415.71875 104.0
1418.573364 228.0
1418.813232 172.0
1421.520874 196.0
1423.209717 168.0
1424.411377 160.0
1426.868652 180.0
1427.282104 56.0
1429.53125 104.0
1431.654053 48.0
1437.428345 136.0
1440.17627 216.0
1452.915894 164.0
1454.593018 64.0
1456.795166 148.0
1460.534912 168.0
1460.740356 156.0
1465.513672 64.0
1467.281738 192.0
1476.268555 192.0
1477.905518 184.0
1484.232178 92.0
1489.696533 136.0
1497.234131 220.0
