>compound MLS001142924-01!
>formula C23H28N4O3
>ionization [M+H]+
>parentmass 409.221893
#inchi InChI=1S/C23H28N4O3/c1-15-6-7-19(16(2)10-15)25-21(28)8-9-24-23(30)26-12-17-11-18(14-26)20-4-3-5-22(29)27(20)13-17/h3-7,10,17-18H,8-9,11-14H2,1-2H3,(H,24,30)(H,25,28)/t17-,18+/m1/s1
#inchikey ACRGNQCNIGRVMA
#Ion_Source LC-ESI
#Instrument qTof
#Compound_Source NIH Natural Product Library
#PI Dorrestein
#Data_Collector VVP/LMS
#Scan -1
#Precursor_MZ 409.224
#ExactMass 408.216
#Charge 1
#CAS_Number N/A
#Pubmed_ID N/A
#Smiles Cc1ccc(NC(=O)CCNC(=O)N2C[C@H]3C[C@@H](C2)c4cccc(=O)n4C3)c(C)c1
#INCHI_AUX N/A
#Library_Class 1
#SpectrumID CCMSLIB00000080130
#IonMode Positive
#UpdateWorkflowName UPDATE-SINGLE-ANNOTATED-GOLD
#LibraryQualityString Gold
#TaskID b1d8e8f6646f4e71acdff9ca3d919d08
##Scan# 1655
#SpectrumFile p2-E04_GE4_01_18028.mzXML
#LibraryName NIH_Natural_Products_Library.mgf
#MQScore -1
#Organism NIH_Natural_Products_Library
#TIC_Query 0
#RT_Query -1
#MZErrorPPM -1
#SharedPeaks 0
#MassDiff 0
#LibMZ -1
#SpecMZ 409.224
#SpecCharge 0
#internalFilename spec-00000.mgf

>collision 10
95.020508 104.0
95.152481 200.0
95.179665 136.0
95.22821 224.0
95.262802 168.0
95.317024 196.0
95.356445 60.0
95.420593 160.0
95.451698 204.0
95.492538 92.0
95.56646 160.0
95.68457 140.0
95.708549 144.0
95.758911 144.0
95.7845 104.0
95.821518 168.0
95.850746 160.0
95.901413 124.0
95.994995 52.0
96.042892 136.0
96.059357 120.0
96.164719 128.0
96.242805 240.0
96.335968 120.0
96.385399 144.0
96.47921 132.0
96.518318 176.0
96.533844 132.0
96.590675 176.0
96.639587 124.0
96.676765 108.0
96.743355 188.0
96.874756 228.0
96.947014 172.0
97.0411 264.0
97.227455 184.0
97.286339 168.0
97.370766 192.0
97.402191 156.0
97.433624 176.0
97.531883 172.0
97.58889 216.0
97.748215 128.0
97.773796 164.0
97.838753 112.0
97.874046 164.0
97.891914 144.0
97.970703 132.0
97.986458 136.0
98.021553 844.0
98.040047 164.0
98.072128 152.0
98.122452 140.0
98.262482 216.0
98.288589 132.0
98.301941 128.0
98.321678 140.0
98.392738 140.0
98.653511 104.0
98.712822 68.0
98.746346 160.0
98.972038 104.0
99.000366 144.0
99.008148 188.0
99.025513 176.0
99.043335 192.0
99.067871 104.0
99.113968 172.0
99.132492 176.0
99.146362 108.0
99.201859 124.0
99.235565 180.0
99.277702 208.0
99.320839 56.0
99.334724 80.0
99.354561 172.0
99.414085 56.0
99.491493 168.0
99.521278 200.0
99.54113 172.0
99.557014 104.0
99.636467 168.0
99.658325 112.0
99.690117 80.0
99.759682 148.0
99.773598 152.0
99.835236 148.0
99.920769 112.0
99.936684 144.0
99.974495 140.0
100.000969 172.0
100.024254 72.0
100.127304 152.0
100.187546 60.0
100.277206 168.0
100.305115 108.0
100.42276 156.0
100.436722 124.0
100.504547 156.0
100.572403 44.0
100.638283 164.0
100.65625 128.0
100.808067 120.0
100.840042 268.0
100.886017 32.0
100.928276 168.0
100.947998 176.0
100.997993 196.0
101.040009 212.0
101.162079 148.0
101.194115 204.0
101.22522 152.0
101.280228 196.0
101.382401 144.0
101.414467 336.0
101.446541 92.0
101.534767 92.0
101.580894 128.0
101.610992 40.0
101.850479 200.0
101.938278 136.0
102.014648 152.0
102.058777 152.0
102.095078 196.0
102.108337 168.0
102.139328 176.0
102.169502 116.0
102.214401 252.0
102.25473 112.0
102.344597 136.0
102.485596 232.0
102.519852 180.0
102.586365 156.0
102.632736 192.0
102.898842 252.0
102.971756 88.0
103.026299 164.0
103.054726 324.0
103.08287 124.0
103.232864 140.0
103.280998 192.0
103.380135 172.0
103.473244 72.0
103.497543 104.0
103.519569 168.0
103.60083 140.0
103.621094 128.0
103.655533 176.0
103.739243 212.0
103.816078 292.0
103.908333 112.0
103.945511 168.0
103.980003 188.0
104.008423 84.0
104.047066 168.0
104.112015 168.0
104.14991 188.0
104.327347 132.0
104.463593 260.0
104.540909 164.0
104.646759 160.0
104.724144 48.0
104.803589 152.0
104.821854 108.0
104.847527 200.0
104.85424 112.0
104.859406 184.0
104.883072 136.0
104.919762 52.0
105.007446 204.0
105.069771 1732.0
105.189041 160.0
105.221703 188.0
105.319725 300.0
105.342194 140.0
105.538391 216.0
105.556793 172.0
105.589516 152.0
105.70076 156.0
105.781128 204.0
105.818695 160.0
105.945671 188.0
105.963364 196.0
105.996895 136.0
106.067963 456.0
106.101425 132.0
106.183449 116.0
106.19986 152.0
106.372215 64.0
106.411224 92.0
106.439964 96.0
106.528282 48.0
106.58786 104.0
106.678429 156.0
106.766708 156.0
106.807846 184.0
106.906601 120.0
106.945702 180.0
107.046577 196.0
107.073418 1220.0
107.110428 204.0
107.129532 180.0
107.225807 200.0
107.297958 144.0
107.363991 164.0
107.438194 204.0
107.473267 124.0
107.609489 192.0
107.640465 88.0
107.754066 144.0
107.834656 68.0
107.933884 140.0
108.006271 92.0
108.040314 428.0
108.05423 240.0
108.075386 184.0
108.099365 52.0
108.126274 112.0
108.203529 168.0
108.364403 176.0
108.42662 180.0
108.453514 44.0
108.474243 212.0
108.528145 120.0
108.542664 180.0
108.629768 192.0
108.703148 184.0
108.727287 152.0
108.760498 136.0
108.78125 172.0
108.851845 68.0
108.916222 188.0
108.953621 184.0
108.997246 128.0
109.052345 152.0
109.144829 128.0
109.165627 128.0
109.184341 160.0
109.236343 200.0
109.271484 152.0
109.298752 140.0
109.357025 224.0
109.394493 168.0
109.441223 108.0
109.461113 236.0
109.492355 40.0
109.675705 168.0
109.717392 336.0
109.736404 168.0
109.798462 200.0
110.059029 284.0
110.076263 176.0
110.132652 180.0
110.155632 184.0
110.214127 160.0
110.265701 236.0
110.320717 164.0
110.427361 116.0
110.559166 188.0
110.701515 248.0
110.783203 176.0
110.799957 160.0
111.02005 52.0
111.038925 128.0
111.141716 108.0
111.217262 136.0
111.234055 196.0
111.259247 132.0
111.280243 124.0
111.492401 204.0
111.536537 144.0
111.551247 188.0
111.608017 176.0
111.652176 136.0
111.696342 168.0
111.805748 160.0
111.913109 160.0
111.988922 132.0
112.006752 232.0
112.149048 192.0
112.235481 188.0
112.385239 128.0
112.459106 120.0
112.503433 200.0
112.52243 140.0
112.583664 192.0
112.623795 208.0
112.696976 112.0
112.714638 164.0
112.729431 168.0
112.798843 228.0
112.953537 172.0
113.036049 384.0
113.077774 224.0
113.268753 232.0
113.319778 116.0
113.381233 196.0
113.470261 148.0
113.527512 132.0
113.56144 112.0
113.616592 108.0
113.673882 64.0
113.709961 84.0
113.773636 204.0
113.830963 152.0
113.869644 132.0
113.947784 212.0
114.051918 184.0
114.202881 212.0
114.388535 80.0
114.485939 156.0
114.589348 220.0
114.62014 192.0
114.654076 192.0
114.733109 56.0
114.775627 140.0
114.937859 120.0
114.957527 128.0
115.010422 216.0
115.053391 152.0
115.115028 116.0
115.157745 72.0
115.202599 200.0
115.305161 56.0
115.328674 200.0
115.388527 140.0
115.454819 140.0
115.480476 168.0
115.518982 236.0
115.578888 156.0
115.655533 216.0
115.743706 204.0
115.850792 60.0
115.870071 160.0
116.050804 196.0
116.088707 88.0
116.185226 108.0
116.2453 112.0
116.270805 176.0
116.337593 244.0
116.376236 100.0
116.588898 140.0
116.623283 104.0
116.638329 144.0
116.696373 164.0
116.765709 132.0
116.812508 236.0
116.872742 168.0
116.88781 152.0
116.966888 128.0
117.023415 68.0
117.054596 272.0
117.10524 188.0
117.176331 148.0
117.2108 200.0
117.232353 88.0
117.2733 416.0
117.402657 140.0
117.450104 148.0
117.549347 148.0
117.594666 104.0
117.704765 188.0
117.747955 196.0
117.782516 76.0
117.820427 124.0
117.851646 124.0
117.912155 212.0
117.955383 152.0
117.983482 168.0
118.008347 48.0
118.033211 180.0
118.064728 216.0
118.11972 236.0
118.154335 244.0
118.224777 144.0
118.253876 148.0
118.321106 204.0
118.414093 168.0
118.429253 212.0
118.461739 180.0
118.51033 84.0
118.550575 180.0
118.613426 112.0
118.650284 124.0
118.69519 196.0
118.768494 288.0
118.875854 108.0
118.946564 152.0
118.977875 240.0
118.992332 172.0
119.077629 208.0
119.142921 188.0
119.177681 232.0
119.221146 120.0
119.310501 160.0
119.368965 132.0
119.439812 196.0
119.476349 204.0
119.501648 176.0
119.523407 180.0
119.579987 52.0
119.608284 160.0
119.693192 84.0
119.717148 60.0
119.804268 108.0
119.839127 176.0
119.95681 160.0
120.000412 200.0
120.058311 152.0
120.08017 1424.0
120.17926 132.0
120.205444 116.0
120.22509 176.0
120.253456 140.0
120.292747 200.0
120.380531 136.0
120.467445 164.0
120.515213 148.0
120.537361 184.0
120.642273 156.0
120.665703 144.0
120.777847 96.0
120.910133 204.0
120.939766 164.0
121.044846 180.0
121.083694 320.0
121.10836 176.0
121.222282 172.0
121.277069 48.0
121.340645 100.0
121.502937 132.0
121.559982 28.0
121.588509 248.0
121.617043 192.0
121.772934 152.0
121.825142 464.0
121.85421 236.0
121.872612 160.0
121.968483 184.0
122.009682 216.0
122.030144 164.0
122.061981 184.0
122.096809 24340.0
122.125328 176.0
122.18399 76.0
122.205994 132.0
122.226868 172.0
122.287415 40.0
122.34024 84.0
122.382622 176.0
122.425056 92.0
122.554375 228.0
122.600151 132.0
122.628799 184.0
122.648636 204.0
122.718712 112.0
122.777191 172.0
122.796364 224.0
122.833862 140.0
122.849304 152.0
122.864746 188.0
122.935349 164.0
122.953003 140.0
122.97287 48.0
123.064201 196.0
123.10009 2476.0
123.144821 136.0
123.248909 56.0
123.278282 204.0
123.315208 72.0
123.390366 112.0
123.421318 168.0
123.456703 132.0
123.562874 156.0
123.744354 188.0
123.76207 152.0
123.79528 72.0
123.841507 156.0
123.877235 212.0
123.923759 144.0
123.947227 176.0
124.023483 156.0
124.043427 132.0
124.085716 160.0
124.106071 172.0
124.156509 84.0
124.178688 148.0
124.272964 184.0
124.397179 196.0
124.440536 76.0
124.493828 220.0
124.547134 136.0
124.564903 136.0
124.611214 160.0
124.633774 168.0
124.660439 208.0
124.73156 132.0
124.78936 148.0
124.81382 48.0
124.847176 172.0
125.074112 176.0
125.107498 152.0
125.203247 152.0
125.484009 208.0
125.509262 172.0
125.543289 116.0
125.577667 180.0
125.624512 64.0
125.662437 100.0
125.72715 116.0
125.800804 132.0
125.922218 160.0
125.957115 140.0
126.017433 108.0
126.086708 52.0
126.106819 116.0
126.149368 116.0
126.20742 144.0
126.265556 172.0
126.321205 164.0
126.567665 156.0
126.607971 220.0
126.637085 164.0
126.85614 200.0
126.937393 64.0
127.040565 168.0
127.134796 152.0
127.150505 172.0
127.19091 112.0
127.39975 48.0
127.419968 116.0
127.513428 76.0
127.584915 164.0
127.669464 192.0
127.707703 216.0
127.730194 72.0
127.763939 176.0
127.932724 164.0
128.053238 176.0
128.237442 216.0
128.27739 36.0
128.37207 128.0
128.448761 184.0
128.482605 172.0
128.514191 156.0
128.577362 124.0
128.622513 160.0
128.746689 248.0
128.794113 140.0
128.812195 176.0
128.911606 48.0
128.949356 152.0
129.009186 204.0
129.075104 288.0
129.221375 196.0
129.427338 188.0
129.465836 164.0
129.513397 120.0
129.651611 68.0
129.674271 52.0
129.715073 64.0
129.835236 116.0
129.898743 132.0
130.018997 72.0
130.06572 620.0
130.105255 212.0
130.214249 148.0
130.230148 176.0
130.277847 92.0
130.677917 180.0
130.746246 116.0
130.768997 132.0
130.891937 144.0
130.993637 196.0
131.076828 572.0
131.125946 160.0
131.176727 176.0
131.210922 100.0
131.320374 76.0
131.338623 92.0
131.432159 240.0
131.466385 220.0
131.489197 52.0
131.544891 340.0
131.64151 168.0
131.658142 156.0
131.685547 68.0
131.754074 180.0
131.849167 184.0
131.888901 84.0
131.923187 36.0
132.010071 132.0
132.043182 1284.0
132.078918 1004.0
132.188507 92.0
132.2686 168.0
132.314392 180.0
132.34874 144.0
132.541138 140.0
132.557175 220.0
132.623642 136.0
132.662613 40.0
132.67865 64.0
132.703873 160.0
132.807068 120.0
132.870636 180.0
132.900818 204.0
132.953903 212.0
132.979156 72.0
133.050186 1948.0
133.078003 332.0
133.1483 136.0
133.231735 160.0
133.250122 152.0
133.296066 144.0
133.544357 116.0
133.576553 200.0
133.607574 204.0
133.758347 128.0
133.910309 56.0
134.059464 1712.0
134.099945 472.0
134.258743 152.0
134.281372 132.0
134.325211 156.0
134.424408 152.0
134.463638 96.0
134.482101 160.0
134.505188 160.0
134.574448 132.0
134.62294 168.0
134.673752 240.0
134.713013 212.0
134.72879 140.0
134.860901 68.0
134.877075 140.0
134.922607 172.0
135.022736 172.0
135.061554 260.0
135.096802 300.0
135.242538 88.0
135.274948 244.0
135.343857 224.0
135.369873 132.0
135.399979 160.0
135.477676 176.0
135.515945 124.0
135.551743 164.0
135.652542 164.0
135.740631 172.0
135.803253 60.0
135.871216 108.0
135.922897 216.0
136.010422 168.0
136.116547 144.0
136.14209 156.0
136.176926 228.0
136.214096 208.0
136.235001 240.0
136.279144 144.0
136.309357 240.0
136.693039 120.0
136.718628 140.0
136.802429 232.0
136.860626 128.0
136.876923 212.0
136.977066 292.0
137.023666 140.0
137.058609 192.0
137.137375 156.0
137.331177 188.0
137.396683 208.0
137.422348 228.0
137.497482 244.0
137.515686 108.0
137.57872 132.0
137.632416 144.0
137.672119 172.0
137.739838 208.0
137.835632 100.0
137.915085 108.0
138.046021 48.0
138.111496 108.0
138.15361 116.0
138.186356 204.0
138.235489 120.0
138.254211 104.0
138.284637 120.0
138.30336 168.0
138.380615 156.0
138.408722 172.0
138.528152 152.0
138.600784 132.0
138.746109 144.0
138.795334 172.0
138.861008 212.0
138.919647 172.0
138.94545 48.0
139.065125 152.0
139.081558 180.0
139.102676 208.0
139.140244 204.0
139.177811 156.0
139.267044 100.0
139.309326 128.0
139.426804 128.0
139.498062 140.0
139.600769 164.0
139.682053 204.0
139.81485 180.0
139.838379 148.0
139.882401 240.0
139.899582 236.0
139.930191 184.0
139.986694 196.0
140.040863 68.0
140.161011 160.0
140.227005 156.0
140.375305 216.0
140.403824 88.0
140.460968 88.0
140.527924 76.0
140.592545 176.0
140.642471 272.0
140.720016 264.0
140.781403 132.0
140.835724 140.0
140.906601 172.0
140.977478 148.0
141.055161 180.0
141.086212 176.0
141.105118 172.0
141.124039 60.0
141.166595 172.0
141.209167 76.0
141.240891 204.0
141.263565 248.0
141.301422 120.0
141.443405 72.0
141.514252 156.0
141.528641 184.0
141.545212 256.0
141.592575 112.0
141.72049 84.0
141.763153 156.0
141.808182 244.0
141.967026 188.0
141.988358 156.0
142.028687 152.0
142.066895 196.0
142.249359 164.0
142.313461 172.0
142.572388 240.0
142.58902 244.0
142.679001 56.0
142.780472 184.0
142.826782 112.0
142.874359 156.0
142.891006 40.0
143.07312 2172.0
143.236191 156.0
143.302902 128.0
143.529327 160.0
143.603256 136.0
143.665283 204.0
143.717773 116.0
143.798904 228.0
143.920654 156.0
144.001846 228.0
144.047501 136.0
144.082321 472.0
144.173859 148.0
144.197754 180.0
144.3125 40.0
144.463898 184.0
144.54451 152.0
144.743195 48.0
144.853363 144.0
144.908463 188.0
144.939606 140.0
144.968369 140.0
144.99472 168.0
145.053223 316.0
145.079895 304.0
145.173965 172.0
145.24408 196.0
145.378433 132.0
145.448044 116.0
145.517654 52.0
145.546463 212.0
145.606796 164.0
145.704987 192.0
145.74823 224.0
145.781876 240.0
145.815521 72.0
145.856384 160.0
145.887634 44.0
145.904465 168.0
145.945328 188.0
146.019882 144.0
146.059952 7212.0
146.096375 4684.0
146.158325 64.0
146.173843 184.0
146.241623 200.0
146.276611 80.0
146.293243 144.0
146.340652 228.0
146.366623 192.0
146.395981 176.0
146.439148 252.0
146.472382 180.0
146.499527 60.0
146.520569 56.0
146.624176 220.0
146.653091 84.0
146.740479 196.0
146.804977 168.0
146.845978 156.0
146.870102 104.0
146.893204 76.0
146.920761 128.0
146.969528 224.0
147.015244 148.0
147.061768 900.0
147.095612 404.0
147.128296 40.0
147.145203 136.0
147.273193 108.0
147.377075 128.0
147.40123 56.0
147.455093 196.0
147.522079 60.0
147.555923 168.0
147.670868 216.0
147.698593 136.0
147.732468 108.0
147.766327 112.0
147.831665 68.0
147.860153 192.0
147.907608 272.0
147.937714 132.0
147.958527 184.0
148.010376 160.0
148.01915 156.0
148.07576 26540.0
148.110565 352.0
148.162292 228.0
148.193909 80.0
148.221527 188.0
148.247864 212.0
148.270004 44.0
148.350708 120.0
148.373566 300.0
148.405746 200.0
148.441544 168.0
148.448868 128.0
148.480911 196.0
148.551254 40.0
148.580368 148.0
148.61676 96.0
148.635712 148.0
148.68956 72.0
148.74054 60.0
148.774521 116.0
148.80365 56.0
148.823074 124.0
148.859634 136.0
148.910492 40.0
148.93721 148.0
148.970459 148.0
149.00766 208.0
149.0271 64.0
149.078369 2356.0
149.124298 156.0
149.167267 124.0
149.200562 96.0
149.272598 200.0
149.299347 152.0
149.347992 80.0
149.386917 132.0
149.474503 104.0
149.61998 176.0
149.67041 132.0
149.792679 244.0
149.815353 156.0
149.851898 28.0
149.900635 48.0
149.973755 52.0
150.020065 128.0
150.077896 216.0
150.102966 88.0
150.176117 136.0
150.202957 192.0
150.232224 100.0
150.317627 72.0
150.409897 148.0
150.453262 216.0
150.558624 160.0
150.691925 176.0
150.730301 84.0
150.749847 236.0
150.852493 76.0
150.903839 64.0
150.935623 144.0
150.960068 56.0
151.116516 176.0
151.162155 112.0
151.216949 116.0
151.243881 116.0
151.366287 100.0
151.415268 88.0
151.451355 168.0
151.486298 220.0
151.609207 144.0
151.663589 180.0
151.699493 148.0
151.758331 136.0
151.868683 36.0
151.957001 152.0
151.996246 188.0
152.052689 100.0
152.084595 72.0
152.214722 128.0
152.266281 136.0
152.487411 140.0
152.686554 168.0
152.767715 188.0
152.920273 152.0
152.97197 52.0
153.074356 200.0
153.12709 152.0
153.176346 76.0
153.203445 112.0
153.230545 124.0
153.484421 264.0
153.543594 160.0
153.674332 44.0
153.805023 96.0
153.903885 140.0
153.975494 160.0
154.074722 352.0
154.09407 176.0
154.12619 144.0
154.14595 176.0
154.182571 200.0
154.210205 112.0
154.269669 356.0
154.393524 108.0
154.420929 156.0
154.474777 156.0
154.548996 88.0
154.960007 240.0
155.055374 164.0
155.075851 168.0
155.101257 136.0
155.118607 60.0
155.135971 140.0
155.155792 132.0
155.259933 176.0
155.30954 184.0
155.349228 216.0
155.438553 112.0
155.562637 180.0
155.626541 112.0
155.679337 160.0
155.870621 156.0
155.923126 132.0
155.999847 164.0
156.079697 608.0
156.158997 44.0
156.218689 124.0
156.236099 136.0
156.285858 156.0
156.31572 128.0
156.360703 160.0
156.482483 176.0
156.504898 192.0
156.522324 160.0
156.542114 148.0
156.709137 288.0
156.731094 216.0
156.823761 156.0
156.863647 188.0
156.92099 124.0
156.942444 232.0
156.949982 140.0
156.956451 180.0
157.018234 152.0
157.056717 164.0
157.088074 160.0
157.24527 52.0
157.270233 156.0
157.300186 132.0
157.322647 188.0
157.345123 120.0
157.431732 192.0
157.472473 196.0
157.570511 180.0
157.630356 100.0
157.659851 48.0
157.694839 172.0
157.736115 140.0
157.80983 244.0
157.909912 164.0
158.028595 192.0
158.05986 3352.0
158.097107 9656.0
158.156219 180.0
158.190094 48.0
158.232651 180.0
158.283356 192.0
158.335327 108.0
158.352844 120.0
158.392929 28.0
158.422989 152.0
158.448044 40.0
158.465576 68.0
158.486099 104.0
158.508179 168.0
158.566055 208.0
158.615936 96.0
158.635986 112.0
158.656052 200.0
158.711212 156.0
158.771393 80.0
158.821548 36.0
158.866699 120.0
158.88678 136.0
158.911865 60.0
158.936951 120.0
158.99321 124.0
159.017258 48.0
159.066483 984.0
159.098984 1016.0
159.142776 104.0
159.172668 172.0
159.316071 164.0
159.376358 228.0
159.509567 160.0
159.540115 156.0
159.577438 148.0
159.624451 172.0
159.685562 100.0
159.713242 188.0
159.738388 76.0
159.761032 188.0
159.808823 200.0
159.826447 112.0
159.925659 200.0
159.94725 44.0
159.98468 188.0
160.010178 200.0
160.075729 16900.0
160.131332 248.0
160.251511 156.0
160.282196 48.0
160.307922 76.0
160.355286 96.0
160.37796 76.0
160.435944 136.0
160.481323 188.0
160.545151 152.0
160.572098 100.0
160.593689 140.0
160.612457 156.0
160.708328 124.0
160.892563 180.0
161.079636 2632.0
161.221786 236.0
161.299927 188.0
161.318649 144.0
161.440857 72.0
161.526855 216.0
161.582504 184.0
161.639542 200.0
161.696381 68.0
161.716629 168.0
161.764725 88.0
161.810287 40.0
161.90361 112.0
161.954636 76.0
161.972366 76.0
162.023026 44.0
162.086975 756.0
162.114243 100.0
162.136002 224.0
162.205475 120.0
162.224548 208.0
162.253647 44.0
162.314499 112.0
162.434296 168.0
162.509811 100.0
162.53772 132.0
162.565628 184.0
162.690002 124.0
162.917175 316.0
162.971909 88.0
163.052078 220.0
163.096008 188.0
163.14473 236.0
163.360886 112.0
163.460114 104.0
163.696854 180.0
163.727417 136.0
163.842026 156.0
164.11853 132.0
164.257553 104.0
164.349396 260.0
164.561249 112.0
164.704254 148.0
164.752792 196.0
164.773224 148.0
164.821777 220.0
165.039032 124.0
165.074829 176.0
165.348572 248.0
165.742798 160.0
165.781372 156.0
165.804428 128.0
165.84288 116.0
165.968491 148.0
166.024582 148.0
166.08902 160.0
166.142899 176.0
166.242966 136.0
166.355896 216.0
166.443192 32.0
166.548477 156.0
166.653809 144.0
166.761734 228.0
166.869705 148.0
166.944275 160.0
166.991211 112.0
167.039444 116.0
167.067734 160.0
167.098602 176.0
167.204102 68.0
167.242722 140.0
167.59552 144.0
167.708908 220.0
167.729538 136.0
167.822342 192.0
167.863602 128.0
167.933228 216.0
168.068146 180.0
168.185211 140.0
168.227386 40.0
168.252914 180.0
168.273865 56.0
168.322922 92.0
168.400391 60.0
168.547653 172.0
168.591583 92.0
168.627762 140.0
168.764771 80.0
168.819061 152.0
168.974258 96.0
169.076706 200.0
169.248611 128.0
169.38588 104.0
169.512833 176.0
169.582809 140.0
169.65538 172.0
169.795395 164.0
170.075607 192.0
170.192429 100.0
170.392426 136.0
170.501556 120.0
170.576935 144.0
170.667923 140.0
171.091217 172.0
171.18158 196.0
171.276901 220.0
171.420197 104.0
171.506775 216.0
171.555725 132.0
171.67305 204.0
171.842606 72.0
171.939148 136.0
171.973083 168.0
172.03833 100.0
172.075638 3144.0
172.150604 68.0
172.255081 180.0
172.415161 60.0
172.466736 64.0
172.511169 132.0
172.605286 156.0
172.639282 236.0
172.806686 240.0
172.838089 64.0
172.89566 104.0
173.0056 224.0
173.052719 240.0
173.077835 324.0
173.105087 152.0
173.123413 236.0
173.288437 84.0
173.545288 160.0
173.582001 156.0
173.689529 228.0
174.002335 100.0
174.059235 276.0
174.091873 9140.0
174.29335 156.0
174.314377 64.0
174.335403 48.0
174.406357 164.0
174.453674 36.0
174.472076 48.0
174.519409 108.0
174.550964 56.0
174.616699 144.0
174.644638 84.0
174.774536 152.0
174.837692 152.0
174.906128 88.0
174.958771 136.0
175.037766 80.0
175.09549 1532.0
175.126007 472.0
175.193161 120.0
175.303818 168.0
175.419785 160.0
175.461426 236.0
175.881409 176.0
175.939484 136.0
176.002838 100.0
176.026611 172.0
176.063583 200.0
176.107437 4884.0
176.190369 212.0
176.24585 152.0
176.296051 96.0
176.354202 196.0
176.391205 156.0
176.560425 96.0
176.660934 108.0
176.85939 212.0
176.904388 128.0
176.981766 156.0
177.109222 1120.0
177.198349 76.0
177.216904 320.0
177.312286 200.0
177.416901 172.0
177.532333 96.0
177.622513 164.0
177.664948 124.0
177.693069 160.0
177.820389 168.0
177.863983 164.0
177.943619 60.0
178.094986 128.0
178.170654 132.0
178.222504 224.0
178.26236 180.0
178.305191 68.0
178.405533 136.0
178.576065 180.0
178.682465 72.0
178.735672 188.0
178.772934 88.0
178.877945 216.0
178.898026 180.0
178.919327 36.0
178.975235 152.0
179.049805 208.0
179.13237 96.0
179.182983 64.0
179.257584 160.0
179.380188 180.0
179.422836 96.0
179.46228 152.0
179.556168 104.0
179.604172 136.0
179.646851 204.0
179.796661 192.0
179.908386 184.0
180.036545 304.0
180.167419 152.0
180.333099 144.0
180.450714 156.0
180.4935 196.0
180.603149 160.0
180.691422 160.0
180.833237 120.0
180.916229 124.0
180.959061 132.0
180.98851 188.0
181.079559 160.0
181.145309 196.0
181.184021 116.0
181.20546 156.0
181.248337 148.0
181.382324 136.0
181.419861 124.0
181.446671 156.0
181.631699 104.0
181.681213 144.0
181.822205 276.0
182.133652 60.0
182.276031 92.0
182.305603 148.0
182.332474 172.0
182.451218 200.0
182.47168 172.0
182.56636 160.0
182.607666 224.0
182.754654 112.0
182.968277 184.0
183.061203 104.0
183.174637 124.0
183.301254 84.0
183.411758 84.0
183.430618 128.0
183.541168 144.0
183.597794 208.0
183.638245 180.0
183.808197 164.0
183.926956 132.0
183.983643 112.0
184.122787 152.0
184.164566 112.0
184.207779 128.0
184.253708 160.0
184.362808 116.0
184.437454 112.0
184.484268 176.0
184.529373 140.0
184.575333 52.0
184.607788 176.0
184.750732 132.0
184.766403 168.0
184.807953 176.0
184.867477 172.0
184.886429 196.0
184.937851 164.0
185.094864 112.0
185.306458 164.0
185.379303 196.0
185.409103 196.0
185.468735 172.0
185.495834 284.0
185.550064 116.0
185.815842 128.0
185.916245 116.0
185.992233 68.0
186.058807 168.0
186.08223 180.0
186.107483 88.0
186.209442 108.0
186.312668 224.0
186.346848 208.0
186.36409 168.0
186.41864 228.0
186.587921 156.0
186.636093 164.0
186.668716 132.0
186.761185 148.0
186.782944 84.0
186.81015 168.0
186.932587 132.0
187.069641 268.0
187.212326 184.0
187.36824 100.0
187.414551 196.0
187.444519 192.0
187.49968 168.0
187.608917 204.0
187.66803 204.0
187.695297 216.0
187.798935 108.0
187.965012 164.0
188.070847 1144.0
188.180969 128.0
188.301132 116.0
188.425079 188.0
188.456833 68.0
188.486893 128.0
188.563416 196.0
188.585281 92.0
188.648712 152.0
188.743835 128.0
188.817673 128.0
188.969971 272.0
189.102966 13608.0
189.154205 228.0
189.299316 224.0
189.332428 88.0
189.418091 132.0
189.504745 60.0
189.553009 196.0
189.628067 156.0
189.682877 136.0
189.751328 128.0
189.813416 124.0
189.87207 48.0
189.891266 72.0
189.951614 128.0
190.00647 80.0
190.054214 252.0
190.107376 924.0
190.173859 60.0
190.198563 48.0
190.226013 68.0
190.286423 40.0
190.31662 152.0
190.382233 76.0
190.409988 200.0
190.445694 132.0
190.478653 100.0
190.497879 168.0
190.525345 144.0
190.606033 152.0
190.674881 156.0
190.695709 84.0
190.717697 120.0
190.736938 220.0
190.772675 152.0
190.808884 48.0
190.829544 176.0
190.869385 156.0
190.901901 124.0
190.95079 144.0
190.976166 100.0
191.006424 152.0
191.044174 160.0
191.076202 212.0
191.118607 73336.0
191.157639 336.0
191.198288 60.0
191.247681 76.0
191.277847 56.0
191.310272 88.0
191.339859 172.0
191.36882 140.0
191.430267 52.0
191.476593 164.0
191.489471 72.0
191.502686 80.0
191.531662 236.0
191.565399 120.0
191.627243 124.0
191.66716 68.0
191.694717 64.0
191.7388 36.0
191.760849 52.0
191.79393 148.0
191.83252 120.0
191.856979 248.0
191.917786 56.0
191.953827 80.0
191.983093 124.0
192.017258 48.0
192.055618 116.0
192.121918 6312.0
192.17337 44.0
192.220184 112.0
192.254517 96.0
192.293152 40.0
192.320755 64.0
192.389771 156.0
192.4505 112.0
192.486404 40.0
192.610672 36.0
192.701324 236.0
192.748184 164.0
192.772888 56.0
192.822327 180.0
192.886765 92.0
192.986526 68.0
193.033524 116.0
193.058426 96.0
193.12645 996.0
193.154449 128.0
193.165573 172.0
193.170578 152.0
193.210541 148.0
193.265884 36.0
193.332291 64.0
193.369995 160.0
193.398712 116.0
193.468597 148.0
193.497284 92.0
193.521332 164.0
193.547165 160.0
193.633499 140.0
193.685822 160.0
193.70607 124.0
193.742081 124.0
193.794724 132.0
193.827591 176.0
193.894485 160.0
193.934265 140.0
193.974869 216.0
194.021988 192.0
194.060806 76.0
194.091309 260.0
194.152313 120.0
194.196686 56.0
194.243835 80.0
194.264847 112.0
194.393661 48.0
194.668472 160.0
194.849014 184.0
194.890701 168.0
194.943497 120.0
194.979614 68.0
195.035202 140.0
195.054657 140.0
195.121384 52.0
195.17421 148.0
195.19368 120.0
195.563675 144.0
195.594681 144.0
195.7892 48.0
195.842117 76.0
196.168121 152.0
196.195114 88.0
196.274063 104.0
196.407928 96.0
196.622772 148.0
196.645096 112.0
196.686966 116.0
196.815384 128.0
196.910339 184.0
197.054321 176.0
197.086319 72.0
197.150589 120.0
197.313904 168.0
197.514053 32.0
197.553223 208.0
197.7379 292.0
197.757492 252.0
197.863861 80.0
198.121506 128.0
198.27002 144.0
198.497086 280.0
198.553162 184.0
198.747284 212.0
198.791626 184.0
198.84494 144.0
198.943192 52.0
198.9823 116.0
199.033035 152.0
199.058304 52.0
199.086075 340.0
199.223099 208.0
199.271774 96.0
199.452271 224.0
199.555634 148.0
199.620316 72.0
199.673737 208.0
199.744064 116.0
199.842804 80.0
199.887543 92.0
200.064865 220.0
200.084564 380.0
200.105621 136.0
200.222534 168.0
200.43663 84.0
200.529633 120.0
200.684677 152.0
200.828491 120.0
200.975189 184.0
201.023163 192.0
201.105072 872.0
201.128143 164.0
201.161453 124.0
201.260269 148.0
201.450989 196.0
201.539566 132.0
201.681198 128.0
201.77449 160.0
202.101013 404.0
202.223297 152.0
202.335449 156.0
202.382782 196.0
202.422424 104.0
202.541382 32.0
202.564041 76.0
202.620697 84.0
202.8134 144.0
202.850235 100.0
203.088425 136.0
203.121323 188.0
203.244461 148.0
203.383514 160.0
203.482025 200.0
203.724274 200.0
203.778244 176.0
203.980026 140.0
204.008453 120.0
204.031189 156.0
204.175873 168.0
204.267227 88.0
204.483459 76.0
204.554626 144.0
204.802353 40.0
205.033127 192.0
205.18924 136.0
205.232666 160.0
205.400925 204.0
205.509338 84.0
205.64061 176.0
205.697693 136.0
205.92041 104.0
206.014664 132.0
206.160385 228.0
206.572113 156.0
206.600708 212.0
206.629318 156.0
206.752365 124.0
206.938416 68.0
207.004272 128.0
207.075882 108.0
207.176132 160.0
207.273544 164.0
207.329193 124.0
207.600327 64.0
207.640488 96.0
207.838425 132.0
207.958954 128.0
208.050797 200.0
208.076385 184.0
208.358093 100.0
208.404068 176.0
208.567871 132.0
208.728867 116.0
209.059677 184.0
209.120117 204.0
209.220856 108.0
209.36351 96.0
209.40802 164.0
209.932541 48.0
209.978683 108.0
210.030609 200.0
210.310486 208.0
210.62233 132.0
210.677216 84.0
210.778336 76.0
210.885254 116.0
211.142578 172.0
211.272736 160.0
211.423203 140.0
211.44635 164.0
211.562134 200.0
211.675049 184.0
211.695312 156.0
211.715591 176.0
211.848831 132.0
212.04007 156.0
212.13591 120.0
212.196594 188.0
212.589951 208.0
212.707169 164.0
212.785553 116.0
213.003769 224.0
213.073074 100.0
213.166901 192.0
213.172363 232.0
213.323608 192.0
213.448013 156.0
213.474182 152.0
213.509079 180.0
213.72435 52.0
213.864029 192.0
213.893143 132.0
213.961899 148.0
214.032883 92.0
214.152283 132.0
214.411591 228.0
214.953995 160.0
215.004944 148.0
215.082413 176.0
215.132034 100.0
215.15831 68.0
215.234222 148.0
215.389008 136.0
215.540924 224.0
215.570541 148.0
215.707504 164.0
215.73259 124.0
215.806915 224.0
215.831436 124.0
215.967743 64.0
216.006165 148.0
216.040878 144.0
216.111343 504.0
216.150421 172.0
216.198883 64.0
216.22229 80.0
216.269119 148.0
216.298386 136.0
216.370132 300.0
216.424927 196.0
216.502625 208.0
216.547272 72.0
216.641006 176.0
216.70546 168.0
216.749298 160.0
216.793365 144.0
216.839615 220.0
216.882736 292.0
216.915192 276.0
216.959427 208.0
217.028687 188.0
217.040298 132.0
217.052032 260.0
217.098495 104588.0
217.19838 28.0
217.243423 56.0
217.274551 36.0
217.285431 84.0
217.301788 92.0
217.352951 48.0
217.398041 276.0
217.446762 80.0
217.484436 228.0
217.525238 120.0
217.552643 352.0
217.579865 288.0
217.61702 80.0
217.656189 292.0
217.72139 152.0
217.72789 88.0
217.755188 160.0
217.803879 172.0
217.814667 80.0
217.822327 128.0
217.860275 160.0
217.887817 100.0
217.93483 136.0
217.960007 76.0
218.025803 188.0
218.044724 164.0
218.100479 14332.0
218.158768 80.0
218.183609 108.0
218.226746 100.0
218.270706 128.0
218.304092 64.0
218.364014 180.0
218.408493 96.0
218.461075 168.0
218.493439 60.0
218.559143 72.0
218.581711 52.0
218.630157 60.0
218.652328 180.0
218.690598 100.0
218.720383 68.0
218.789139 176.0
218.816101 88.0
218.844757 164.0
218.896667 160.0
218.974228 120.0
219.030487 64.0
219.058197 252.0
219.112579 10412.0
219.196045 76.0
219.247238 192.0
219.28653 100.0
219.332703 100.0
219.365341 56.0
219.403458 56.0
219.442825 56.0
219.473312 168.0
219.553833 40.0
219.621277 140.0
219.662216 112.0
219.71077 200.0
219.740326 180.0
219.780121 136.0
219.811859 108.0
219.858444 116.0
219.896057 128.0
219.937378 108.0
220.001038 64.0
220.040695 152.0
220.116837 1228.0
220.176529 104.0
220.207016 100.0
220.262177 76.0
220.35672 32.0
220.401215 68.0
220.454224 68.0
220.501511 44.0
220.592133 140.0
220.622696 132.0
220.658417 48.0
220.788284 60.0
220.835602 36.0
220.875443 204.0
220.933212 132.0
220.9776 52.0
221.113068 240.0
221.143311 116.0
221.2854 68.0
221.34758 168.0
221.501587 48.0
221.557877 84.0
221.839401 88.0
221.943161 40.0
221.999512 56.0
222.141876 36.0
222.284286 164.0
222.453461 232.0
222.527679 112.0
222.603622 76.0
222.65239 136.0
222.907867 60.0
223.017822 96.0
223.080246 156.0
223.117218 192.0
223.72876 136.0
223.776398 168.0
224.02359 184.0
224.089127 164.0
224.336487 200.0
224.408035 108.0
224.476624 64.0
224.515747 168.0
224.583984 180.0
224.702713 80.0
225.001755 184.0
225.18689 72.0
225.273514 92.0
225.357162 112.0
225.527496 228.0
225.578308 160.0
225.623154 92.0
225.790604 140.0
226.074814 108.0
226.101746 64.0
226.925491 148.0
226.973465 132.0
227.210419 92.0
227.270416 120.0
227.420471 136.0
227.471497 72.0
227.816833 132.0
227.858902 40.0
228.021729 252.0
228.270676 116.0
228.312775 92.0
228.655746 116.0
228.724976 124.0
228.875504 68.0
228.896576 144.0
229.069183 128.0
229.152603 168.0
229.242996 196.0
229.307526 116.0
229.746521 96.0
229.885315 76.0
229.960754 152.0
230.129807 164.0
230.160004 160.0
230.18718 140.0
230.359329 212.0
230.425797 160.0
230.619186 72.0
230.649414 184.0
230.728012 108.0
230.85199 208.0
231.013901 188.0
231.057663 80.0
231.151459 180.0
231.208954 324.0
231.275543 212.0
231.410568 160.0
231.463242 100.0
231.544998 124.0
231.681305 252.0
231.769165 184.0
231.908569 116.0
231.993454 104.0
232.054077 60.0
232.135956 144.0
232.1875 64.0
232.284561 84.0
232.342194 132.0
232.427155 160.0
232.495789 136.0
232.531723 148.0
232.581924 168.0
232.87645 120.0
232.922012 120.0
233.019226 56.0
233.123489 144.0
233.259308 212.0
233.344421 180.0
233.383942 88.0
233.526871 48.0
233.56337 76.0
233.67897 124.0
233.721573 184.0
233.767212 72.0
233.788513 124.0
233.831131 148.0
233.867645 152.0
233.948761 168.0
233.983322 68.0
234.040573 252.0
234.124924 74664.0
234.203476 68.0
234.244751 152.0
234.268066 132.0
234.353333 100.0
234.386429 92.0
234.421188 280.0
234.457855 172.0
234.500061 104.0
234.535995 56.0
234.562225 96.0
234.610901 56.0
234.638336 288.0
234.666611 220.0
234.69931 144.0
234.721176 168.0
234.745514 196.0
234.784698 192.0
234.839096 48.0
234.888397 100.0
234.90921 92.0
234.949417 48.0
234.984314 236.0
235.025681 144.0
235.068329 148.0
235.111557 15436.0
235.171478 208.0
235.221268 96.0
235.273224 96.0
235.330902 100.0
235.375626 56.0
235.401169 184.0
235.438629 160.0
235.537048 124.0
235.587448 48.0
235.614944 120.0
235.676056 80.0
235.703552 104.0
235.744797 56.0
235.789108 56.0
235.831909 76.0
235.856354 140.0
235.923599 80.0
235.953445 292.0
236.020447 172.0
236.073425 208.0
236.11203 2344.0
236.208969 76.0
236.241653 48.0
236.327057 48.0
236.4077 88.0
236.449707 140.0
236.507858 64.0
236.537628 124.0
236.585815 92.0
236.636444 100.0
236.691559 100.0
236.775375 140.0
236.802567 100.0
236.826294 32.0
236.856934 104.0
236.881439 92.0
236.902878 72.0
236.936584 56.0
236.99173 64.0
237.084351 176.0
237.118484 724.0
237.143585 260.0
237.176987 88.0
237.243042 40.0
237.301285 124.0
237.386902 148.0
237.433136 36.0
237.463806 40.0
237.509827 44.0
237.561966 112.0
237.583435 84.0
237.61412 196.0
237.660141 152.0
237.69458 112.0
237.73439 144.0
237.81665 36.0
237.868881 216.0
237.933624 112.0
238.013123 84.0
238.102188 88.0
238.410599 92.0
238.615341 48.0
238.824448 68.0
238.941345 204.0
239.027496 184.0
239.076721 48.0
239.11673 64.0
239.159821 156.0
239.313751 72.0
239.406128 144.0
239.877533 140.0
240.287689 108.0
240.333969 48.0
240.386414 196.0
240.488266 152.0
240.85878 100.0
241.08432 128.0
241.371811 168.0
241.40274 40.0
241.467682 84.0
241.56665 148.0
241.795624 168.0
241.999924 32.0
242.21051 36.0
242.287964 232.0
242.740479 44.0
242.926575 56.0
242.960693 64.0
243.00412 96.0
243.401428 72.0
243.423157 144.0
243.522537 116.0
243.562912 88.0
243.740005 92.0
244.519348 76.0
244.598358 124.0
244.897278 108.0
244.959579 100.0
245.059265 176.0
245.122696 364.0
245.180801 136.0
245.32106 88.0
245.500778 100.0
245.508621 176.0
245.56427 88.0
245.591995 184.0
245.664078 52.0
245.765594 196.0
245.798248 80.0
245.88562 144.0
245.929321 132.0
245.969894 128.0
245.994858 128.0
246.047989 260.0
246.072906 192.0
246.125092 56956.0
246.217865 116.0
246.262894 208.0
246.343597 84.0
246.407089 52.0
246.449585 60.0
246.478714 52.0
246.55864 68.0
246.592422 52.0
246.613342 96.0
246.64772 40.0
246.735687 136.0
246.806351 156.0
246.87001 40.0
246.94162 84.0
246.972443 80.0
247.013565 184.0
247.035461 72.0
247.079269 136.0
247.127228 6900.0
247.216934 60.0
247.282654 44.0
247.334473 124.0
247.375519 60.0
247.417252 72.0
247.456055 92.0
247.48613 56.0
247.514313 80.0
247.544113 124.0
247.60701 48.0
247.661499 56.0
247.808746 64.0
247.898178 52.0
247.96228 100.0
248.097076 104.0
248.131714 636.0
248.272659 44.0
248.37616 120.0
248.425003 84.0
248.470276 52.0
248.53801 52.0
248.598907 140.0
248.639709 72.0
248.702484 56.0
248.740143 152.0
248.763214 92.0
248.828049 144.0
248.861313 148.0
248.91597 80.0
248.972488 64.0
249.000748 144.0
249.134369 276.0
249.255219 84.0
249.393494 68.0
249.440643 68.0
249.478363 72.0
249.616699 88.0
249.654434 144.0
249.767654 56.0
249.827423 112.0
249.871475 60.0
250.072861 56.0
250.20192 112.0
250.718491 52.0
250.765778 144.0
250.869797 64.0
250.891861 96.0
251.014816 104.0
251.207214 236.0
251.497513 80.0
251.639572 60.0
251.835358 60.0
251.933273 104.0
252.442139 116.0
253.008514 56.0
253.09082 224.0
253.166824 28.0
253.214325 156.0
253.290344 88.0
253.480438 108.0
253.756195 176.0
253.816437 116.0
253.984512 112.0
254.136795 116.0
254.314499 92.0
254.714584 192.0
254.794006 128.0
255.258041 48.0
256.14917 44.0
256.225647 84.0
256.939758 44.0
257.201447 124.0
257.325958 56.0
257.485596 44.0
258.217499 128.0
258.870331 108.0
259.171448 116.0
259.851166 176.0
260.101288 152.0
260.140106 804.0
260.457886 64.0
260.914215 92.0
261.136078 160.0
261.206848 84.0
261.477112 72.0
261.580109 164.0
263.266357 80.0
263.363251 172.0
263.482758 124.0
263.783295 60.0
263.893219 104.0
265.544739 52.0
265.875641 72.0
266.031433 140.0
266.369171 164.0
266.788361 28.0
266.817627 144.0
266.850128 192.0
267.116791 148.0
267.699402 124.0
268.246735 148.0
268.804443 144.0
269.607788 144.0
269.937958 200.0
271.034515 224.0
271.329498 64.0
271.847748 164.0
272.261383 108.0
272.787079 120.0
273.392273 196.0
273.695099 184.0
274.024475 208.0
275.4133 168.0
275.443024 160.0
276.352142 144.0
276.408386 44.0
276.719513 112.0
278.099121 136.0
278.543488 88.0
278.786011 48.0
279.191589 112.0
279.45105 48.0
282.349792 160.0
283.417664 192.0
283.655609 128.0
285.041718 96.0
285.083405 128.0
285.656952 84.0
285.734344 100.0
286.148285 120.0
286.515381 144.0
286.680481 104.0
287.112 68.0
287.311005 124.0
287.479706 88.0
287.513458 100.0
287.587067 128.0
287.746368 156.0
287.807159 40.0
287.874664 72.0
287.901703 160.0
287.94223 124.0
287.99939 156.0
288.01062 144.0
288.020752 192.0
288.050018 180.0
288.085907 244.0
288.13559 33912.0
288.247803 52.0
288.313843 56.0
288.356384 68.0
288.425385 84.0
288.455811 48.0
288.482849 68.0
288.546478 136.0
288.638367 80.0
288.705994 60.0
288.756714 60.0
288.844666 100.0
288.890198 100.0
288.976593 36.0
289.030731 60.0
289.088257 140.0
289.138 7124.0
289.216858 36.0
289.250732 88.0
289.34552 64.0
289.453857 56.0
289.484344 68.0
289.548676 76.0
289.575775 164.0
289.619812 96.0
289.714661 64.0
289.76886 76.0
289.803864 96.0
289.839996 168.0
289.921722 72.0
289.975555 148.0
290.080627 172.0
290.139923 1004.0
290.261871 48.0
290.395966 84.0
290.521484 48.0
290.742035 180.0
290.765778 92.0
290.913239 272.0
290.938904 64.0
290.969452 76.0
291.040741 84.0
291.118958 124.0
291.150391 124.0
291.247528 124.0
291.383789 116.0
291.415985 80.0
291.485718 48.0
291.526489 80.0
291.59787 68.0
291.971832 76.0
292.046661 144.0
292.080261 100.0
292.465179 52.0
292.625153 64.0
292.904419 96.0
293.275818 76.0
294.217285 180.0
296.255493 100.0
296.423401 72.0
296.707886 60.0
299.529205 44.0
299.865723 60.0
300.201263 96.0
301.447449 72.0
304.280762 48.0
305.010284 64.0
306.012177 84.0
306.510254 52.0
307.413391 72.0
308.538086 56.0
309.034729 176.0
309.724365 164.0
309.81543 80.0
311.790894 140.0
311.934998 92.0
311.991241 96.0
313.84314 136.0
314.065338 144.0
317.088287 116.0
317.15564 176.0
317.978485 68.0
321.17627 164.0
322.253448 168.0
323.489044 56.0
325.076813 124.0
329.043335 60.0
332.293365 80.0
336.146606 52.0
338.109009 112.0
340.782196 40.0
341.348267 60.0
342.231354 144.0
343.591339 36.0
347.594696 40.0
347.962158 96.0
352.581055 168.0
355.663483 28.0
357.106262 84.0
357.181488 36.0
357.960571 64.0
360.045959 100.0
360.180267 100.0
361.244141 64.0
361.304657 72.0
362.001099 100.0
362.861206 68.0
364.227356 108.0
364.253937 92.0
365.915802 100.0
368.849396 40.0
372.84314 120.0
373.66217 76.0
375.356903 108.0
376.611145 88.0
376.904755 136.0
379.110413 56.0
381.058289 56.0
381.765717 68.0
382.648987 96.0
384.820618 120.0
385.394775 108.0
385.844238 48.0
386.971008 44.0
387.413544 104.0
387.868103 88.0
391.200684 160.0
391.250793 144.0
392.097229 164.0
392.219421 188.0
393.221222 132.0
395.434479 80.0
396.579132 48.0
397.237335 80.0
397.896118 144.0
397.991394 60.0
398.224152 32.0
402.518738 40.0
403.281769 132.0
405.463013 104.0
406.786621 120.0
407.135925 112.0
407.380951 80.0
409.221893 584.0
410.223053 320.0
411.23465 140.0
412.846405 72.0
413.667725 56.0
415.365601 104.0
416.770264 72.0
417.388092 76.0
418.454102 88.0
419.024292 84.0
421.603088 68.0
422.412659 56.0
425.716095 48.0
426.977722 56.0
428.249481 116.0
431.158112 108.0
432.738251 44.0
433.856842 88.0
437.375275 88.0
438.258148 112.0
438.470673 120.0
440.07251 84.0
442.970673 104.0
443.444153 80.0
446.609924 132.0
447.165283 112.0
447.228424 112.0
451.52771 92.0
453.398956 116.0
454.543915 144.0
454.968353 84.0
456.162048 68.0
457.923584 48.0
458.072662 120.0
458.362366 112.0
463.095825 120.0
463.524231 40.0
465.196869 164.0
469.40033 152.0
471.010132 136.0
474.16861 72.0
480.922211 136.0
484.605194 68.0
485.302063 108.0
488.40686 84.0
499.749786 100.0
501.009735 48.0
503.51651 40.0
504.933228 60.0
507.862366 32.0
518.380371 80.0
519.35968 52.0
521.925537 76.0
531.017761 124.0
537.056702 92.0
539.545654 100.0
541.804077 92.0
544.522278 96.0
545.446899 88.0
552.577209 128.0
559.998779 92.0
566.280396 108.0
575.114441 40.0
576.652405 44.0
576.85791 80.0
577.747375 52.0
580.66449 56.0
582.920776 88.0
583.617737 124.0
589.706238 52.0
592.764771 48.0
604.764709 96.0
606.831909 32.0
610.244202 80.0
628.735901 64.0
634.042053 88.0
637.163086 132.0
647.544128 36.0
656.045044 68.0
662.719604 152.0
669.623657 256.0
673.791565 92.0
676.315063 176.0
679.081848 40.0
683.180115 72.0
683.409058 76.0
685.205261 68.0
697.581909 64.0
699.875732 240.0
702.384277 36.0
709.115051 52.0
723.111694 76.0
723.861206 92.0
738.196594 192.0
738.234436 56.0
743.244995 60.0
747.989441 44.0
752.459595 72.0
754.896545 128.0
756.592651 112.0
756.680298 28.0
765.074402 80.0
765.190002 56.0
766.25293 112.0
768.607239 80.0
771.191772 60.0
772.485596 136.0
772.800964 36.0
809.511108 96.0
813.633179 140.0
822.473572 124.0
822.661987 36.0
831.138 128.0
831.884094 108.0
834.831543 68.0
837.196716 196.0
845.081604 72.0
846.771912 124.0
848.150879 152.0
849.455505 112.0
851.568298 40.0
852.439697 64.0
853.991943 76.0
854.759827 132.0
859.345398 104.0
859.537903 100.0
861.119934 172.0
863.024963 124.0
867.644348 100.0
875.523804 112.0
881.286865 168.0
881.783203 52.0
882.013733 48.0
882.084656 100.0
883.628113 96.0
884.018677 156.0
884.521729 40.0
884.766052 72.0
896.328308 52.0
899.769775 52.0
905.737732 176.0
906.007263 284.0
907.0979 64.0
909.509216 56.0
910.968384 112.0
912.230286 60.0
926.974854 76.0
931.695251 80.0
935.794312 244.0
937.725342 76.0
941.2453 80.0
954.247009 204.0
961.626648 40.0
976.079468 112.0
978.549622 180.0
980.742371 52.0
981.739868 144.0
991.448364 184.0
993.191284 104.0
996.782288 200.0
1000.197266 84.0
1011.698547 180.0
1012.382324 220.0
1023.552063 196.0
1023.825867 128.0
1026.993408 116.0
1027.433472 192.0
1029.78894 208.0
1034.488525 176.0
1040.90625 128.0
1043.161377 232.0
1045.2323 132.0
1054.079102 188.0
1055.921509 84.0
1057.849609 72.0
1058.665405 104.0
1058.872681 48.0
1059.682373 84.0
1060.440552 196.0
1062.950195 148.0
1065.079712 212.0
1066.541626 136.0
1071.395996 84.0
1071.584961 92.0
1072.021484 168.0
1074.760132 120.0
1075.693359 248.0
1078.887817 136.0
1095.37854 96.0
1099.974609 112.0
1100.14624 124.0
1100.192383 148.0
1101.149902 120.0
1104.361938 208.0
1108.937012 72.0
1109.72583 160.0
1110.521606 156.0
1111.516602 92.0
1116.272705 168.0
1116.498779 152.0
1127.498779 208.0
1130.64856 192.0
1131.364746 88.0
1133.07251 168.0
1140.2052 164.0
1140.44043 128.0
1140.917725 104.0
1148.614624 80.0
1150.524292 180.0
1151.766724 72.0
1153.834595 76.0
1157.68457 244.0
1157.914795 160.0
1157.982544 148.0
1158.172119 116.0
1158.429565 136.0
1159.303589 200.0
1161.249268 124.0
1161.337402 248.0
1161.839355 48.0
1162.036133 92.0
1162.253296 128.0
1163.597046 176.0
1164.595337 100.0
1168.844238 188.0
1171.697021 172.0
1172.623657 164.0
1173.305298 156.0
1175.174072 180.0
1175.54248 176.0
1178.000366 104.0
1178.150635 184.0
1179.127686 108.0
1181.302002 176.0
1181.876709 96.0
1182.581543 52.0
1185.403076 188.0
1186.609375 140.0
1186.842529 112.0
1190.142822 176.0
1190.541138 136.0
1191.942383 92.0
1193.990967 124.0
1194.898926 196.0
1195.807251 140.0
1196.323486 120.0
1198.375732 60.0
1198.589355 180.0
1199.106201 128.0
1199.244019 148.0
1201.084961 136.0
1201.250488 140.0
1202.437256 176.0
1206.574829 188.0
1206.676514 140.0
1207.10022 204.0
1208.56665 220.0
1212.312744 156.0
1212.617676 140.0
1213.768433 200.0
1214.704712 204.0
1215.287476 28.0
1217.439209 40.0
1218.925781 180.0
1219.182861 96.0
1219.321899 132.0
1220.149048 140.0
1220.322876 208.0
1220.420166 180.0
1221.964233 188.0
1223.954834 152.0
1226.518555 48.0
1226.755493 140.0
1227.522461 176.0
1228.115234 160.0
1233.407837 128.0
1233.68042 160.0
1235.806519 188.0
1236.618164 136.0
1237.871338 140.0
1238.417603 176.0
1239.587524 196.0
1239.643555 148.0
1240.856201 176.0
1242.265747 148.0
1244.335938 176.0
1245.01001 204.0
1246.963135 148.0
1248.213623 200.0
1248.467529 184.0
1248.868408 100.0
1249.06543 212.0
1249.642212 152.0
1250.993408 88.0
1251.408813 168.0
1251.486206 116.0
1253.571167 196.0
1255.347534 164.0
1255.763672 108.0
1256.454956 172.0
1256.553711 200.0
1257.605103 244.0
1257.802734 164.0
1260.620728 136.0
1263.597412 124.0
1265.140259 228.0
1266.924805 136.0
1268.533447 188.0
1268.731934 200.0
1269.029663 144.0
1270.072144 124.0
1272.179565 96.0
1274.196411 120.0
1274.60144 244.0
1275.717285 204.0
1276.314453 220.0
1276.577515 184.0
1277.786743 136.0
1279.245605 160.0
1279.992798 192.0
1280.15686 76.0
1282.750244 76.0
1283.96228 172.0
1284.597168 176.0
1284.661377 176.0
1286.252563 104.0
1287.052124 52.0
1287.194946 124.0
1290.124268 164.0
1290.98938 180.0
1291.561523 180.0
1292.176758 180.0
1293.055054 176.0
1293.400391 216.0
1294.517334 152.0
1295.19043 284.0
1295.677612 188.0
1300.582397 104.0
1301.070557 100.0
1301.221313 84.0
1301.271606 216.0
1301.709595 148.0
1302.506714 148.0
1304.986084 188.0
1305.834595 132.0
1306.165405 180.0
1306.784058 60.0
1307.136597 192.0
1307.21582 132.0
1308.576172 132.0
1308.943359 160.0
1309.677979 128.0
1309.757202 56.0
1311.587402 164.0
1313.303345 224.0
1314.327759 76.0
1315.078247 136.0
1315.814575 128.0
1316.524658 116.0
1316.825439 152.0
1318.378784 68.0
1318.660645 216.0
1319.043701 168.0
1319.569702 164.0
1319.630493 120.0
1319.918457 132.0
1320.092041 112.0
1321.205811 100.0
1321.849731 128.0
1322.045166 176.0
1322.783325 172.0
1323.261108 132.0
1323.760742 156.0
1323.891113 124.0
1323.963501 200.0
1324.803711 36.0
1325.325317 148.0
1325.970215 148.0
1328.457275 172.0
1329.893921 164.0
1330.540039 256.0
1332.377319 216.0
1333.351074 164.0
1335.466553 180.0
1338.552368 192.0
1338.719849 104.0
1339.462646 172.0
1339.812378 140.0
1340.293213 228.0
1340.584717 128.0
1341.634155 200.0
1345.062744 200.0
1350.345215 188.0
1351.332764 36.0
1352.181641 168.0
1352.307861 220.0
1352.664673 272.0
1355.191162 128.0
1356.576294 176.0
1356.744873 180.0
1357.104126 196.0
1357.852173 160.0
1358.358154 152.0
1358.695679 112.0
1359.069824 184.0
1359.700928 216.0
1360.280762 220.0
1361.235107 112.0
1362.593994 164.0
1362.858521 140.0
1363.277344 176.0
1363.828491 104.0
1364.09314 48.0
1364.357788 160.0
1365.401855 164.0
1366.770142 216.0
1367.17334 104.0
1367.349731 188.0
1367.645874 216.0
1368.013916 128.0
1368.330444 168.0
1369.1698 104.0
1369.675049 176.0
1370.27478 128.0
1370.591553 140.0
1370.834717 176.0
1371.579102 116.0
1373.547852 144.0
1376.012573 96.0
1376.256226 156.0
1377.053711 192.0
1378.080444 164.0
1378.53125 140.0
1379.033813 192.0
1380.5271 144.0
1380.71936 188.0
1381.007812 128.0
1381.325928 228.0
1381.399902 212.0
1381.666138 48.0
1382.124878 164.0
1382.202271 148.0
1384.66394 92.0
1385.775146 136.0
1386.70874 144.0
1387.012695 120.0
1387.47229 188.0
1389.363281 168.0
1389.474609 136.0
1389.749146 56.0
1389.979126 200.0
1391.055298 76.0
1391.225952 108.0
1391.515503 208.0
1391.634277 156.0
1391.745728 156.0
1393.491089 104.0
1394.085571 168.0
1395.973633 164.0
1396.754517 220.0
1397.15625 132.0
1397.319946 132.0
1397.617554 152.0
1398.09375 188.0
1398.912476 148.0
1399.403809 160.0
1400.275024 72.0
1400.684692 144.0
1401.235962 136.0
1401.399902 220.0
1401.601074 144.0
1401.682983 180.0
1401.951294 192.0
1402.182251 172.0
1402.674194 160.0
1404.441406 252.0
1405.485718 244.0
1405.567871 180.0
1406.612671 184.0
1407.291992 180.0
1407.934204 168.0
1408.554077 140.0
1408.658691 52.0
1410.511841 48.0
1410.609009 68.0
1411.28186 80.0
1411.723022 172.0
1411.887451 80.0
1412.209106 160.0
1413.637939 176.0
1413.847534 236.0
1413.997192 128.0
1415.202393 140.0
1415.550781 168.0
1416.273193 168.0
1416.490479 196.0
1416.632935 168.0
1416.71521 96.0
1417.179688 120.0
1417.344482 128.0
1417.981445 172.0
1420.540527 144.0
1422.181519 40.0
1423.089844 172.0
1424.719604 124.0
1424.869873 156.0
1425.996948 84.0
1427.004272 160.0
1427.635864 204.0
1427.891479 92.0
1428.184814 192.0
1428.402954 200.0
1428.515869 184.0
1429.13269 160.0
1429.824951 164.0
1430.05835 204.0
1430.396973 108.0
1430.615356 112.0
1431.541382 196.0
1431.752197 104.0
1431.940552 128.0
1434.389282 84.0
1434.57019 208.0
1434.758667 168.0
1434.864136 208.0
1434.969727 164.0
1435.120483 216.0
1435.34668 112.0
1436.221558 80.0
1437.413452 260.0
1437.941772 144.0
1438.077637 68.0
1438.137939 180.0
1438.802246 124.0
1440.83374 156.0
1441.370117 124.0
1441.808472 192.0
1441.997437 128.0
1442.541626 152.0
1442.760864 76.0
1445.286865 136.0
1445.877075 144.0
1446.126831 132.0
1447.088257 176.0
1447.671265 144.0
1448.049927 140.0
1448.443726 192.0
1448.82251 184.0
1449.148315 172.0
1449.474121 172.0
1450.315308 72.0
1451.278076 108.0
1451.460083 36.0
1451.6875 44.0
1452.423218 120.0
1452.8479 164.0
1453.13623 160.0
1454.206177 112.0
1454.373169 160.0
1454.471802 180.0
1454.631226 128.0
1455.017456 164.0
1456.02832 144.0
1456.182251 172.0
1456.332031 124.0
1456.818237 144.0
1457.160034 160.0
1457.441162 76.0
1457.92749 156.0
1458.40625 164.0
1458.619141 132.0
1459.272949 156.0
1460.482056 192.0
1460.869873 88.0
1461.7677 148.0
1461.950317 168.0
1462.140625 88.0
1463.069214 140.0
1464.089478 80.0
1464.401733 208.0
1464.835938 196.0
1465.247192 180.0
1465.605347 60.0
1465.792603 212.0
1466.103882 200.0
1466.161621 136.0
1466.405518 192.0
1467.419312 132.0
1467.617554 160.0
1467.716675 148.0
1468.58606 148.0
1469.104736 160.0
1469.432739 200.0
1469.570068 164.0
1471.378906 196.0
1472.043091 84.0
1472.71521 152.0
1473.780518 140.0
1473.868652 208.0
1474.50293 88.0
1474.564087 152.0
1475.57312 172.0
1476.03186 80.0
1476.741211 180.0
1477.997559 112.0
1478.196533 172.0
1478.609741 104.0
1479.581909 212.0
1479.964722 196.0
1480.393555 140.0
1481.343262 84.0
1481.749268 132.0
1482.814331 180.0
1483.596191 60.0
1485.260132 184.0
1485.666626 132.0
1486.595093 172.0
1486.832886 112.0
1486.94043 84.0
1491.233643 196.0
1491.541016 124.0
1491.802368 184.0
1492.886475 192.0
1493.194092 168.0
1493.84021 108.0
1494.001709 212.0
1495.386719 180.0
1495.740845 212.0
1495.84082 204.0
1495.940918 148.0
1496.295044 116.0
1496.456665 196.0
1496.64917 136.0
1496.911011 148.0
1497.681152 160.0
1497.804321 132.0
1498.289673 180.0
1498.443726 132.0
1498.875244 164.0
1499.245117 48.0
1500.116089 116.0
1500.216309 160.0
1502.421753 124.0
1502.730347 76.0
1502.846069 84.0
1503.772095 144.0
1504.106934 252.0
