>compound Nebivolol (Bystolic)
>formula C22H25F2NO4
>ionization [M+H]+
>parentmass 406.1824411720906
#inchi InChI=1S/C22H25F2NO4/c23-15-3-7-19-13(9-15)1-5-21(28-19)17(26)11-25-12-18(27)22-6-2-14-10-16(24)4-8-20(14)29-22/h3-4,7-10,17-18,21-22,25-27H,1-2,5-6,11-12H2/t17-,18-,21-,22+/m1/s1
#inchikey KOHIRBRYDXPAMZ
#origInchi InChI=1S/C22H25F2NO4.ClH/c23-15-3-7-19-13(9-15)1-5-21(28-19)17(26)11-25-12-18(27)22-6-2-14-10-16(24)4-8-20(14)29-22;/h3-4,7-10,17-18,21-22,25-27H,1-2,5-6,11-12H2;1H/t17-,18-,21-,22+;/m1./s1
#Ion_Source LC-ESI
#Instrument qTof
#Compound_Source Commercial
#PI Dorrestein
#Data_Collector Garg_Neha
#Scan -1
#Precursor_MZ 406.182
#ExactMass 405.175
#Charge 1
#CAS_Number 152520-56-4, 118457-14-0 (free base)
#Pubmed_ID N/A
#Smiles C1(=C(C=C2C(=C1)O[C@](CC2)([C@@H](CNC[C@H]([C@@]3(CCC4=C(O3)C=CC(=C4)F)[H])O)O)[H])F).Cl
#INCHI_AUX N/A
#Library_Class 1
#SpectrumID CCMSLIB00000078185
#IonMode Positive
#UpdateWorkflowName UPDATE-SINGLE-ANNOTATED-GOLD
#LibraryQualityString Gold
#TaskID 77f51c88eb8b467eb4a01dd2d0cb90d2
##Scan# 1189
#SpectrumFile Plate3_21_40_GG10_01_16499.mzXML
#LibraryName FDALibrary_2_04302014.mgf
#MQScore -1
#Organism FDALibrary_2_04302014
#TIC_Query 0
#RT_Query -1
#MZErrorPPM -1
#SharedPeaks 0
#MassDiff 0
#LibMZ -1
#SpecMZ 406.182
#SpecCharge 0
#internalFilename spec-00000.mgf

>collision 10
44.925266 156.0
44.93594 224.0
44.995998 192.0
45.057434 200.0
45.097607 184.0
45.256714 156.0
45.441677 168.0
45.565563 188.0
45.632393 172.0
45.681595 116.0
45.858543 152.0
45.923622 224.0
45.942146 156.0
46.332848 208.0
46.509132 168.0
46.562084 236.0
46.628654 140.0
46.689835 144.0
47.141068 164.0
47.305195 172.0
47.383255 156.0
47.417908 168.0
47.433247 208.0
47.534077 236.0
47.560154 152.0
47.623009 216.0
47.641171 140.0
47.766575 160.0
47.806164 156.0
47.836445 196.0
48.030735 140.0
48.230953 140.0
48.248924 248.0
48.40527 196.0
48.51334 152.0
48.553551 152.0
48.570782 160.0
48.62014 180.0
48.718723 188.0
48.860527 160.0
49.061069 172.0
49.218727 228.0
49.274593 160.0
49.309952 148.0
49.347271 172.0
49.503986 164.0
49.836426 212.0
49.94186 144.0
49.969997 148.0
50.021061 168.0
50.138969 160.0
50.210873 216.0
50.233437 144.0
50.336468 176.0
50.433949 176.0
50.507473 140.0
50.546715 136.0
50.620697 208.0
50.649021 144.0
50.670269 176.0
50.833328 156.0
50.93129 152.0
51.035889 164.0
51.147163 156.0
51.245682 176.0
51.291283 180.0
51.392536 188.0
51.439632 164.0
51.478184 224.0
51.518173 288.0
51.67638 200.0
51.691174 240.0
51.706917 164.0
51.744133 192.0
51.811447 160.0
52.163033 152.0
52.407688 196.0
52.548134 196.0
52.668274 96.0
52.810455 204.0
52.968227 192.0
53.198792 236.0
53.575439 184.0
53.642475 160.0
53.680817 168.0
53.810242 176.0
53.908104 156.0
54.234474 144.0
54.255413 168.0
54.52446 172.0
54.835793 168.0
55.065777 164.0
55.077591 156.0
55.090885 180.0
55.204071 200.0
55.376366 164.0
55.40451 176.0
55.517159 272.0
55.622501 156.0
55.900425 148.0
56.179043 224.0
56.32085 164.0
56.441902 156.0
56.456856 228.0
56.579552 200.0
56.688892 140.0
56.709873 172.0
56.739853 156.0
57.093227 176.0
57.109257 140.0
57.219109 160.0
57.430077 228.0
57.448177 144.0
57.49646 224.0
57.531132 136.0
57.707729 144.0
57.780537 168.0
57.870564 140.0
57.93256 244.0
58.038013 164.0
58.080002 140.0
58.179111 160.0
58.248966 208.0
58.33102 196.0
58.440517 160.0
58.509007 184.0
58.55621 180.0
58.62447 184.0
58.655983 116.0
58.768101 176.0
58.836781 152.0
58.87648 148.0
59.188919 140.0
59.349323 160.0
59.499683 172.0
59.5135 192.0
59.800968 152.0
59.848694 148.0
59.87949 144.0
59.925705 160.0
59.979111 140.0
60.007389 152.0
60.075249 160.0
60.248146 172.0
60.376404 176.0
60.413563 168.0
60.49403 160.0
60.64312 108.0
60.656681 156.0
60.876995 192.0
61.662174 164.0
61.687183 196.0
61.759109 156.0
61.926586 164.0
61.981415 176.0
62.244938 184.0
62.512169 216.0
62.607506 128.0
62.646 176.0
62.790176 108.0
63.11948 216.0
63.196987 212.0
63.374317 160.0
63.618557 148.0
63.748798 144.0
63.806019 212.0
64.213661 156.0
64.23101 164.0
64.290237 164.0
64.385201 208.0
64.471191 440.0
64.533035 176.0
64.557518 156.0
64.711815 200.0
64.753868 224.0
64.769882 188.0
64.816345 236.0
64.829163 140.0
64.934975 156.0
64.981491 164.0
65.14846 168.0
65.21595 144.0
65.357468 164.0
65.468079 196.0
65.54908 184.0
65.610329 212.0
65.663544 152.0
65.724838 204.0
65.818459 156.0
65.842682 160.0
65.885933 124.0
65.899834 168.0
65.921844 164.0
65.937492 228.0
65.978416 148.0
66.007515 180.0
66.020454 152.0
66.072212 184.0
66.208176 152.0
66.242241 132.0
66.304749 112.0
66.319969 156.0
66.493515 168.0
66.51461 180.0
66.602295 148.0
66.648682 152.0
67.019142 204.0
67.05545 148.0
67.106773 164.0
67.128639 156.0
67.152435 240.0
67.193214 168.0
67.251122 132.0
67.271065 160.0
67.309921 104.0
67.345032 156.0
67.372803 156.0
67.519905 168.0
67.53463 144.0
67.684692 264.0
67.916267 168.0
68.050827 156.0
68.192101 432.0
68.31543 140.0
68.476738 152.0
68.561386 188.0
68.615944 148.0
68.666267 176.0
68.686066 152.0
68.704208 196.0
68.81974 180.0
68.980286 176.0
69.072586 164.0
69.165253 196.0
69.250389 188.0
69.272881 140.0
69.509674 156.0
69.544823 160.0
69.583 160.0
69.880501 192.0
69.938744 144.0
69.956474 172.0
70.035316 188.0
70.29039 152.0
70.320427 172.0
70.400566 148.0
70.431282 204.0
70.457352 200.0
70.501915 120.0
70.686417 164.0
70.734955 144.0
70.767868 224.0
70.820663 148.0
70.878983 176.0
70.947701 260.0
71.040237 112.0
71.118797 160.0
71.190994 156.0
71.320358 156.0
71.365746 180.0
71.421242 232.0
71.438065 220.0
71.564827 136.0
71.581123 144.0
71.606384 200.0
71.754387 292.0
71.832245 192.0
71.925056 176.0
71.93856 148.0
72.073669 284.0
72.119301 204.0
72.144333 148.0
72.427246 284.0
72.543663 188.0
72.635468 152.0
72.75824 212.0
72.778297 148.0
72.854721 152.0
72.8955 212.0
73.038307 200.0
73.082436 128.0
73.22213 168.0
73.298454 124.0
73.347382 164.0
73.375488 188.0
73.554611 140.0
73.582275 136.0
73.59729 220.0
73.805748 148.0
73.932327 324.0
74.012787 160.0
74.161598 120.0
74.304153 168.0
74.34362 224.0
74.367653 152.0
74.394348 268.0
74.967865 328.0
75.031639 256.0
75.050606 172.0
75.0644 224.0
75.147194 196.0
75.357834 140.0
75.689926 220.0
75.797325 180.0
75.932541 144.0
75.974174 164.0
76.107811 152.0
76.132118 172.0
76.170334 140.0
76.204224 204.0
76.316315 196.0
76.37178 196.0
76.431915 156.0
76.47509 148.0
76.572121 164.0
76.715431 160.0
76.809158 196.0
77.020805 196.0
77.116188 124.0
77.137444 160.0
77.207382 148.0
77.264969 148.0
77.377106 256.0
77.513725 152.0
77.533722 156.0
77.750465 192.0
77.792595 172.0
77.85405 148.0
77.880394 196.0
77.922554 176.0
77.994598 220.0
78.049103 180.0
78.096581 188.0
78.254959 144.0
78.485779 180.0
78.499886 148.0
78.544235 136.0
78.56514 204.0
78.752251 140.0
78.875938 144.0
79.035103 144.0
79.251122 140.0
79.345055 176.0
79.442596 184.0
79.46743 152.0
79.523468 180.0
79.611206 160.0
79.646729 168.0
79.659164 172.0
79.719574 148.0
79.847008 152.0
80.000595 144.0
80.086067 156.0
80.106239 308.0
80.128944 168.0
80.176933 140.0
80.258926 140.0
80.376656 240.0
80.397346 176.0
80.441299 144.0
80.578362 140.0
81.041809 192.0
81.216515 212.0
81.431831 124.0
81.755341 208.0
81.839287 176.0
81.920448 128.0
82.00502 176.0
82.032059 140.0
82.178711 228.0
82.346016 148.0
82.608109 172.0
82.680481 176.0
82.755241 140.0
83.038429 160.0
83.142616 144.0
83.235199 168.0
83.271706 152.0
83.373253 176.0
83.38961 156.0
83.478691 168.0
83.820915 160.0
83.855988 212.0
84.200363 188.0
84.46904 204.0
84.735435 136.0
84.845703 152.0
85.004021 184.0
85.048065 200.0
85.088058 112.0
85.119667 164.0
85.353027 168.0
85.393425 120.0
85.459709 176.0
85.513733 112.0
85.531487 140.0
85.650238 132.0
85.686256 176.0
85.809364 176.0
85.869629 168.0
85.91153 176.0
86.093819 172.0
86.174149 168.0
86.224983 164.0
86.243469 180.0
86.304474 176.0
86.382324 128.0
86.417297 168.0
86.462013 172.0
86.672813 176.0
87.105087 232.0
87.129837 148.0
87.210999 172.0
87.698654 188.0
87.724747 184.0
87.74382 156.0
88.019402 120.0
88.063797 176.0
88.137207 224.0
88.507561 200.0
88.571236 164.0
88.859932 192.0
88.916222 140.0
89.075821 156.0
89.098366 140.0
89.19677 120.0
89.43721 220.0
89.672287 260.0
89.728203 240.0
89.903351 148.0
90.09864 156.0
90.357742 140.0
90.43911 312.0
90.520523 180.0
90.583023 140.0
90.736519 180.0
90.903435 176.0
90.948982 220.0
91.07534 168.0
91.427933 212.0
91.532631 156.0
91.546516 164.0
91.631676 176.0
91.64756 212.0
91.675499 160.0
91.74221 288.0
91.820389 148.0
92.059113 160.0
92.123878 140.0
92.351944 96.0
92.430893 124.0
92.561859 296.0
92.577179 172.0
92.630806 160.0
93.287086 144.0
93.31015 144.0
93.329758 196.0
93.399605 220.0
93.477493 164.0
93.558334 184.0
93.68158 160.0
93.756721 144.0
93.876244 216.0
93.916748 172.0
93.978477 180.0
94.022865 176.0
94.064384 140.0
94.155022 176.0
94.206291 192.0
94.27198 172.0
94.316437 144.0
94.620148 224.0
94.641441 180.0
94.716972 184.0
94.733925 160.0
94.755714 152.0
94.886337 244.0
94.911606 252.0
95.031029 152.0
95.050095 160.0
95.112534 148.0
95.269829 156.0
95.540047 236.0
95.612038 200.0
95.663513 216.0
95.684059 236.0
95.711319 164.0
95.81649 160.0
95.947067 144.0
95.971985 216.0
96.031891 156.0
96.154297 128.0
96.177254 152.0
96.437027 160.0
96.47686 128.0
96.517181 144.0
96.530869 248.0
96.695198 144.0
96.8675 160.0
96.942932 144.0
97.024277 152.0
97.043884 184.0
97.179214 172.0
97.289124 160.0
97.340576 172.0
97.439598 308.0
97.511307 156.0
97.52877 152.0
97.587967 472.0
97.610733 168.0
97.77462 208.0
97.920303 148.0
98.178482 188.0
98.259354 176.0
98.322884 180.0
98.369865 164.0
98.427513 120.0
98.470566 148.0
98.560646 120.0
98.586922 152.0
98.693871 216.0
98.713646 148.0
98.988701 180.0
99.038216 152.0
99.056038 192.0
99.091698 168.0
99.264145 160.0
99.508194 144.0
99.682068 148.0
99.760506 148.0
99.81617 164.0
100.076538 468.0
100.098732 144.0
100.170433 176.0
100.259094 124.0
100.450912 172.0
100.489403 176.0
100.545998 144.0
100.68412 132.0
100.729523 188.0
100.945114 160.0
101.144402 100.0
101.176674 132.0
101.257011 168.0
101.334213 244.0
101.483444 160.0
101.550865 356.0
101.601776 216.0
101.684044 192.0
101.73423 172.0
101.840652 176.0
101.888863 168.0
101.918999 152.0
101.966423 168.0
101.991348 176.0
102.04554 288.0
102.204521 184.0
102.305153 176.0
102.371597 140.0
102.43 216.0
102.501297 176.0
102.667534 136.0
102.73439 252.0
102.839325 180.0
102.926132 172.0
102.948341 148.0
102.970558 244.0
103.008095 164.0
103.027115 148.0
103.054878 6480.0
103.144318 180.0
103.192841 152.0
103.21624 160.0
103.231255 200.0
103.259727 152.0
103.499329 100.0
103.666054 168.0
103.78405 140.0
103.9552 256.0
103.984886 180.0
104.056862 384.0
104.082642 364.0
104.214348 176.0
104.244041 144.0
104.283447 224.0
104.341225 216.0
104.370857 144.0
104.43187 148.0
104.467659 168.0
104.494926 144.0
104.749397 164.0
104.775078 172.0
104.946404 108.0
104.989906 144.0
105.018417 204.0
105.065689 156.0
105.103104 228.0
105.32093 168.0
105.394089 160.0
105.486053 152.0
105.502411 152.0
105.555565 144.0
105.610786 284.0
105.654732 124.0
105.786758 144.0
105.817467 184.0
105.942398 176.0
106.014107 156.0
106.087891 176.0
106.146965 128.0
106.16581 176.0
106.254005 148.0
106.354561 244.0
106.558685 180.0
106.605804 144.0
106.635948 184.0
106.705177 112.0
106.762108 120.0
106.878609 184.0
106.922935 108.0
107.01651 232.0
107.296707 144.0
107.465828 288.0
107.742485 152.0
107.92643 184.0
108.080963 152.0
108.140419 136.0
108.197998 172.0
108.236801 224.0
108.315506 188.0
108.360023 132.0
108.392159 236.0
108.461975 256.0
108.676224 180.0
108.692825 264.0
108.748856 164.0
108.840149 172.0
108.981445 164.0
109.044952 1076.0
109.309975 148.0
109.405716 172.0
109.505875 160.0
109.613998 208.0
109.650818 180.0
109.956001 180.0
109.973572 128.0
110.048653 448.0
110.175247 160.0
110.338959 288.0
110.359169 156.0
110.407265 168.0
110.426086 236.0
110.551605 172.0
110.904564 136.0
110.975372 144.0
111.067001 200.0
111.13623 140.0
111.277588 184.0
111.30835 168.0
111.463791 140.0
111.512772 144.0
111.577293 152.0
111.775002 164.0
111.791443 140.0
111.839607 172.0
111.928459 164.0
111.974991 192.0
112.01207 212.0
112.415833 180.0
112.440926 216.0
112.615967 176.0
112.741318 232.0
112.795761 200.0
112.879845 148.0
113.019302 228.0
113.055908 168.0
113.096123 144.0
113.125755 152.0
113.45623 140.0
113.720589 96.0
113.836029 260.0
113.925636 188.0
114.093277 328.0
114.135643 152.0
114.150528 168.0
114.237732 192.0
114.252617 192.0
114.273605 148.0
114.293045 152.0
114.334969 200.0
114.371788 144.0
114.407974 188.0
114.52935 180.0
114.671165 236.0
114.832008 172.0
115.051788 384.0
115.130791 204.0
115.290077 200.0
115.362846 132.0
115.478813 212.0
115.624672 144.0
115.746658 212.0
115.947395 136.0
115.967316 200.0
116.149567 144.0
116.168228 132.0
116.264839 160.0
116.280449 204.0
116.32338 176.0
116.392082 152.0
116.484612 144.0
116.57682 336.0
116.671791 128.0
116.716537 204.0
116.862801 144.0
116.895073 160.0
117.287048 148.0
117.335381 160.0
117.377594 148.0
117.668877 252.0
117.78981 220.0
117.848137 224.0
117.928093 152.0
117.989876 116.0
118.068489 124.0
118.144333 176.0
118.172455 176.0
118.202751 184.0
118.220062 140.0
118.270714 188.0
118.3507 96.0
118.410568 140.0
118.625076 164.0
118.695801 220.0
118.787796 104.0
118.806053 192.0
119.048424 204.0
119.069885 144.0
119.10804 180.0
119.156769 144.0
119.192757 236.0
119.287445 152.0
119.34893 204.0
119.428497 148.0
119.540375 136.0
119.578629 152.0
119.859879 132.0
119.936951 140.0
120.067078 152.0
120.155472 144.0
120.278282 192.0
120.417 188.0
120.691185 184.0
120.907318 184.0
120.934769 104.0
120.990921 212.0
121.045326 488.0
121.076317 140.0
121.170509 196.0
121.361191 384.0
121.81987 220.0
121.86615 184.0
121.920944 144.0
121.937088 232.0
121.980011 192.0
122.056892 172.0
122.29483 148.0
122.332253 148.0
122.376282 168.0
122.420319 148.0
122.492737 232.0
122.532097 284.0
122.552956 204.0
122.658264 176.0
122.700974 364.0
122.717789 164.0
122.931625 144.0
123.061073 22796.0
123.15448 280.0
123.172401 188.0
123.240997 156.0
123.30497 156.0
123.3983 180.0
123.459724 160.0
123.590691 332.0
123.607941 160.0
123.628937 112.0
123.663261 168.0
123.78775 196.0
123.921211 124.0
123.992035 108.0
124.064568 1588.0
124.181717 212.0
124.199463 180.0
124.32814 148.0
124.365875 160.0
124.443939 156.0
124.507965 148.0
124.542168 160.0
124.647919 152.0
124.717751 104.0
124.757851 156.0
124.878357 176.0
124.905815 200.0
124.941406 168.0
124.959946 180.0
125.004189 184.0
125.040588 4352.0
125.30043 120.0
125.393425 176.0
125.446922 316.0
125.482101 128.0
125.556702 144.0
125.739113 192.0
125.877525 152.0
125.973564 184.0
126.042175 924.0
126.062935 240.0
126.112099 172.0
126.132217 248.0
126.299919 276.0
126.485641 140.0
126.570717 148.0
126.61998 144.0
126.846283 156.0
127.05838 200.0
127.380875 184.0
127.796249 168.0
127.872757 160.0
128.064133 188.0
128.190292 196.0
128.379654 180.0
128.396759 120.0
128.422501 184.0
128.492432 188.0
128.603012 312.0
128.634949 108.0
128.758789 156.0
128.910156 160.0
129.06897 460.0
129.154312 180.0
129.199554 192.0
129.31012 156.0
129.396027 148.0
129.404236 120.0
129.412354 200.0
129.453415 180.0
129.48674 220.0
129.518738 180.0
129.641083 156.0
129.670547 140.0
129.706818 168.0
129.726044 216.0
129.773682 96.0
130.072998 120.0
130.134094 128.0
130.158279 152.0
130.259689 160.0
130.338074 208.0
130.407394 232.0
130.453568 128.0
130.480911 188.0
130.641846 184.0
130.682083 196.0
130.785736 164.0
130.826721 164.0
130.86087 204.0
130.883636 132.0
130.959961 140.0
130.977005 156.0
130.99295 208.0
131.046799 156.0
131.120544 140.0
131.209045 180.0
131.254761 128.0
131.341705 188.0
131.361481 144.0
131.39679 192.0
131.511948 124.0
131.600983 144.0
131.691757 188.0
131.748032 168.0
131.769119 296.0
131.798218 104.0
131.834854 168.0
131.984131 120.0
132.108261 104.0
132.182449 172.0
132.408905 268.0
132.661133 168.0
132.755127 164.0
132.777374 264.0
132.984253 180.0
133.045044 2200.0
133.166595 224.0
133.299179 144.0
133.471573 172.0
133.69931 160.0
133.793854 172.0
133.865067 164.0
134.033035 148.0
134.050018 96.0
134.076035 156.0
134.109268 192.0
134.434448 236.0
134.556793 172.0
134.656082 180.0
134.696274 160.0
134.852463 264.0
134.87558 144.0
135.058548 168.0
135.123016 148.0
135.159164 96.0
135.201691 144.0
135.462341 160.0
135.530518 148.0
135.571762 160.0
135.600037 172.0
135.651031 164.0
135.684479 168.0
135.850449 212.0
135.896851 172.0
135.933136 132.0
136.089493 224.0
136.442368 132.0
136.591476 160.0
136.828842 208.0
137.040131 3480.0
137.076126 404.0
137.496735 152.0
137.599014 160.0
137.635559 196.0
137.75 188.0
137.766357 144.0
137.795975 164.0
137.87149 140.0
137.892532 224.0
138.039246 296.0
138.073151 236.0
138.136292 160.0
138.233032 120.0
138.259705 220.0
138.30275 196.0
138.468063 140.0
138.524292 192.0
138.790375 200.0
138.911148 132.0
138.932175 152.0
138.976761 152.0
139.018997 144.0
139.056213 1936.0
139.136353 176.0
139.245392 120.0
139.571014 148.0
139.974487 136.0
140.056519 336.0
140.117065 200.0
140.149963 116.0
140.252518 116.0
140.343323 228.0
140.436646 168.0
140.458878 140.0
140.584488 152.0
140.687332 128.0
140.759003 192.0
140.798752 132.0
140.876694 144.0
140.895889 128.0
141.035019 192.0
141.06012 188.0
141.086502 156.0
141.106079 128.0
141.134308 144.0
141.212341 148.0
141.28804 184.0
141.309326 248.0
141.401627 160.0
141.531876 156.0
141.564072 308.0
141.723679 156.0
141.891312 192.0
141.932266 176.0
142.083023 120.0
142.419373 140.0
142.516159 200.0
142.535172 144.0
142.717377 128.0
142.762741 120.0
142.82045 168.0
142.908478 224.0
142.979187 128.0
142.998749 192.0
143.032684 184.0
143.157486 144.0
143.17984 168.0
143.264465 228.0
143.296219 112.0
143.351364 172.0
143.385635 164.0
143.477692 156.0
143.540695 104.0
143.790161 148.0
143.840286 224.0
143.907135 156.0
144.214508 144.0
144.233078 164.0
144.330048 204.0
144.38266 164.0
144.666306 136.0
144.72699 168.0
144.811066 164.0
144.914062 156.0
144.949326 156.0
145.0271 144.0
145.062881 172.0
145.157974 132.0
145.194519 164.0
145.237701 228.0
145.278473 144.0
145.333664 176.0
145.398453 204.0
145.676971 156.0
145.744247 152.0
145.846542 168.0
145.919693 172.0
146.054077 156.0
146.165039 208.0
146.381668 152.0
146.513153 164.0
146.562469 176.0
146.869843 108.0
146.897446 148.0
147.062515 672.0
147.137985 188.0
147.162918 148.0
147.345016 192.0
147.478653 168.0
147.718765 144.0
147.856674 172.0
147.95108 196.0
148.061432 168.0
148.119827 128.0
148.251419 184.0
148.273438 168.0
148.422272 124.0
148.518539 180.0
148.56662 168.0
148.691788 360.0
148.758682 224.0
148.860306 176.0
148.918594 148.0
148.959885 152.0
149.040329 3036.0
149.076492 2664.0
149.307449 192.0
149.494781 224.0
149.573135 144.0
149.592133 368.0
150.017029 168.0
150.044342 448.0
150.064087 280.0
150.079391 308.0
150.414368 180.0
150.434525 148.0
150.489288 192.0
150.533249 160.0
150.577087 172.0
150.601151 208.0
150.619644 228.0
150.750656 156.0
150.79953 144.0
150.81871 120.0
150.835434 144.0
150.858871 140.0
150.906937 180.0
150.935181 172.0
150.966324 284.0
151.011108 372.0
151.056503 173912.0
151.13588 116.0
151.156891 292.0
151.187225 100.0
151.203537 208.0
151.243362 176.0
151.29921 108.0
151.408539 108.0
151.45929 432.0
151.489212 232.0
151.529007 236.0
151.552597 144.0
151.609619 296.0
151.649567 152.0
151.680954 112.0
151.831116 240.0
152.023773 208.0
152.059555 10700.0
152.165497 96.0
152.217987 316.0
152.235168 140.0
152.348694 144.0
152.389175 184.0
152.613892 128.0
152.819321 224.0
153.013107 200.0
153.062057 1088.0
153.109039 140.0
153.204132 160.0
153.253265 268.0
153.353256 120.0
153.455261 156.0
153.47464 120.0
153.507416 148.0
153.643082 168.0
153.667755 156.0
153.713013 152.0
153.767258 148.0
153.853271 164.0
153.881424 160.0
153.937988 248.0
154.061371 172.0
154.114639 144.0
154.272812 152.0
154.50528 184.0
154.529617 272.0
154.56218 184.0
154.875534 168.0
154.929077 172.0
155.028305 232.0
155.18988 172.0
155.24321 108.0
155.283066 180.0
155.37326 204.0
155.511154 188.0
155.600937 240.0
155.660294 156.0
155.709961 196.0
155.796082 136.0
155.818863 156.0
155.863129 140.0
155.997147 96.0
156.055359 140.0
156.075546 168.0
156.150238 208.0
156.21701 204.0
156.418579 200.0
156.463379 208.0
156.580414 144.0
156.700867 148.0
156.762848 156.0
156.926193 100.0
156.96669 172.0
157.004395 332.0
157.268555 168.0
157.302185 168.0
157.420837 140.0
157.440826 212.0
157.588196 160.0
157.666458 112.0
158.067276 144.0
158.091705 164.0
158.118332 180.0
158.143356 192.0
158.175888 188.0
158.328629 260.0
158.423798 152.0
158.524673 140.0
158.609238 148.0
158.742111 264.0
158.769699 176.0
158.870544 192.0
159.058426 872.0
159.163681 156.0
159.294266 168.0
159.367126 180.0
159.38974 176.0
159.681351 168.0
159.978607 116.0
160.061844 144.0
160.270264 208.0
160.597275 176.0
160.681381 148.0
160.704086 196.0
160.776855 96.0
160.870239 152.0
160.918381 160.0
161.019638 144.0
161.079269 152.0
161.392853 180.0
161.730103 152.0
161.914917 168.0
162.047531 1740.0
162.201233 176.0
162.564331 120.0
162.787292 200.0
162.985901 240.0
163.057205 1368.0
163.254242 212.0
163.468567 224.0
163.555099 160.0
163.586838 188.0
163.672211 144.0
163.741791 136.0
164.050629 344.0
164.212463 244.0
164.322418 112.0
164.427872 152.0
164.627899 112.0
164.651428 156.0
164.878815 160.0
164.914886 140.0
164.937592 144.0
164.983612 160.0
165.037216 140.0
165.071671 5308.0
165.124237 148.0
165.14505 116.0
165.374969 188.0
165.629929 144.0
165.666885 144.0
165.805252 224.0
165.933411 144.0
165.965149 128.0
166.073822 756.0
166.118286 188.0
166.338745 172.0
166.416306 132.0
166.569855 248.0
166.64949 144.0
167.048172 892.0
167.090485 152.0
167.180222 140.0
167.26413 160.0
167.301208 148.0
167.701996 192.0
167.844772 136.0
168.034363 108.0
168.056366 200.0
168.16626 168.0
168.496796 152.0
168.814713 172.0
168.943665 164.0
169.019073 140.0
169.067398 332.0
169.119156 160.0
169.251633 176.0
169.274506 184.0
169.514145 148.0
169.56572 132.0
169.739243 132.0
169.840317 140.0
170.045288 152.0
170.365585 136.0
170.481247 108.0
170.671341 152.0
170.798782 152.0
170.829987 168.0
171.060471 224.0
171.69545 224.0
171.923004 128.0
172.101822 176.0
172.12355 136.0
172.275177 252.0
172.522446 164.0
172.804901 164.0
173.008026 104.0
173.048309 216.0
173.069244 180.0
173.219055 140.0
173.281403 152.0
173.375732 164.0
173.492661 196.0
173.583359 124.0
173.774384 120.0
173.813431 140.0
173.850403 152.0
173.953354 148.0
173.999405 256.0
174.069443 144.0
174.223236 172.0
174.257401 140.0
174.444092 172.0
174.666138 208.0
174.796417 144.0
174.836441 172.0
174.930634 148.0
175.053635 624.0
175.146561 144.0
175.178177 224.0
175.201889 152.0
175.270386 156.0
175.564835 308.0
175.592636 216.0
175.739716 156.0
175.816238 152.0
175.842636 148.0
175.890152 152.0
175.989838 168.0
176.034424 148.0
176.063553 476.0
176.09346 244.0
176.236572 332.0
176.310852 308.0
176.603271 112.0
176.656464 196.0
176.826111 172.0
176.865509 200.0
177.071838 7572.0
177.11705 160.0
177.25737 112.0
177.454941 112.0
177.530502 220.0
177.952408 200.0
177.992233 252.0
178.069443 2240.0
178.130676 160.0
178.290085 240.0
178.350891 192.0
178.40451 164.0
178.456879 184.0
178.584869 188.0
178.685959 140.0
178.749802 188.0
178.874893 244.0
179.001389 152.0
179.087479 1220.0
179.123001 152.0
179.354263 104.0
179.498322 140.0
179.542221 96.0
179.690369 148.0
179.754608 156.0
180.080841 280.0
180.243057 176.0
180.332672 224.0
180.462234 192.0
180.49147 176.0
180.502014 164.0
180.625122 128.0
180.813187 124.0
180.903015 252.0
180.949173 204.0
181.065384 208.0
181.102966 176.0
181.198257 140.0
181.270599 148.0
181.309494 148.0
181.519897 216.0
181.651306 160.0
181.676834 144.0
181.821198 112.0
181.848724 124.0
181.930145 168.0
182.181778 164.0
182.233871 184.0
182.552277 196.0
182.585022 168.0
182.776123 196.0
183.024643 120.0
183.075943 156.0
183.1315 112.0
183.152664 136.0
183.205093 184.0
183.36676 160.0
183.44754 124.0
183.671448 220.0
183.739655 196.0
183.986633 140.0
184.057373 140.0
184.096786 168.0
184.194351 116.0
184.515121 144.0
184.608612 152.0
184.635666 172.0
184.683838 128.0
184.733032 240.0
184.785721 228.0
184.897064 152.0
185.015762 144.0
185.133316 144.0
185.370209 224.0
185.419342 188.0
185.457214 108.0
185.494705 160.0
186.096527 108.0
186.125229 100.0
186.171265 180.0
186.414032 196.0
186.45752 476.0
186.506714 156.0
186.580994 112.0
186.611404 152.0
186.709137 324.0
186.975876 164.0
187.071167 188.0
187.278305 200.0
187.303696 208.0
187.335403 168.0
187.464432 148.0
187.829773 296.0
187.927979 192.0
188.04805 152.0
188.184326 200.0
188.250076 184.0
188.274658 180.0
188.323807 140.0
188.35112 144.0
188.478775 160.0
188.680801 112.0
188.848587 176.0
188.911499 216.0
188.930222 152.0
189.071854 176.0
189.278168 140.0
189.402695 172.0
189.647186 196.0
189.675491 156.0
189.874069 236.0
189.936432 196.0
190.092438 188.0
190.122559 180.0
190.218628 164.0
190.307541 132.0
190.641129 284.0
190.768021 176.0
191.059525 364.0
191.086044 364.0
191.124023 140.0
191.208191 148.0
191.23143 124.0
191.28656 136.0
191.333298 192.0
191.364426 148.0
191.389801 164.0
191.566559 176.0
191.598007 124.0
191.792542 144.0
191.964676 136.0
192.012894 176.0
192.050385 176.0
192.078995 452.0
192.202927 172.0
192.432022 148.0
192.467911 288.0
192.567093 196.0
192.798767 140.0
192.958588 108.0
193.062973 200.0
193.088623 312.0
193.220963 148.0
193.291626 156.0
193.341431 144.0
193.50853 120.0
193.553848 168.0
193.585052 160.0
193.63205 152.0
193.778946 244.0
194.097244 908.0
194.164246 188.0
194.205841 144.0
194.543365 248.0
194.654755 148.0
194.698532 116.0
194.840988 104.0
195.080002 1456.0
195.173248 172.0
195.322205 140.0
195.344696 152.0
195.433151 136.0
195.531128 176.0
195.631332 148.0
195.941635 256.0
196.004532 160.0
196.085266 144.0
196.114182 320.0
196.188492 224.0
196.254837 120.0
196.418839 132.0
196.584549 224.0
196.858124 200.0
196.919556 148.0
196.99498 156.0
197.084793 160.0
197.292984 120.0
197.446442 132.0
197.504379 168.0
197.533554 168.0
197.67717 152.0
197.905075 132.0
198.066406 284.0
198.102753 140.0
198.137421 128.0
198.198883 164.0
198.438431 144.0
198.50914 244.0
198.533173 236.0
198.68074 112.0
198.745224 148.0
198.823334 168.0
198.897018 128.0
199.081619 160.0
199.165131 152.0
199.250137 148.0
199.479141 164.0
199.608536 204.0
199.654907 152.0
199.919342 140.0
200.032257 176.0
200.09198 96.0
200.150772 132.0
200.459366 120.0
200.632767 180.0
200.6866 304.0
200.741928 140.0
200.913971 144.0
201.063522 188.0
201.103027 168.0
201.176422 164.0
201.337372 180.0
201.621414 148.0
201.710327 176.0
201.732941 144.0
201.797958 184.0
201.847702 148.0
201.908234 304.0
202.018463 120.0
202.083618 144.0
202.220917 124.0
202.304276 132.0
202.346832 168.0
202.375153 188.0
202.455902 164.0
202.713425 132.0
202.751892 156.0
202.950317 180.0
203.082382 204.0
203.197083 180.0
203.246964 144.0
203.285446 140.0
203.630249 140.0
203.926865 152.0
203.97052 156.0
204.089233 212.0
204.128723 180.0
204.207108 176.0
204.313599 144.0
204.45871 188.0
204.574387 168.0
204.615677 164.0
204.645859 188.0
204.733109 208.0
204.780426 156.0
204.89151 156.0
204.998062 160.0
205.072174 220.0
205.122345 184.0
205.153702 152.0
205.221207 100.0
205.252029 156.0
205.363678 176.0
205.464554 140.0
205.668152 160.0
206.097656 2576.0
206.154449 216.0
206.175537 184.0
206.222855 144.0
206.269852 168.0
206.315384 164.0
206.420654 156.0
206.452835 160.0
206.520889 176.0
206.603516 188.0
206.927826 188.0
207.018677 148.0
207.097183 524.0
207.21962 100.0
207.371841 368.0
207.44577 172.0
207.576416 100.0
207.601196 180.0
207.625214 160.0
207.833115 164.0
207.899536 172.0
207.925369 180.0
207.951202 152.0
207.985641 160.0
208.07663 172.0
208.11348 4204.0
208.238312 156.0
208.327347 160.0
208.583099 180.0
208.63092 164.0
208.902298 168.0
209.009827 120.0
209.038727 220.0
209.115417 696.0
209.143997 168.0
209.169907 148.0
209.18866 148.0
209.322495 152.0
209.364975 176.0
209.460556 124.0
209.659546 280.0
209.711411 208.0
209.845261 128.0
210.080917 140.0
210.120667 160.0
210.223007 168.0
210.484573 172.0
210.510559 160.0
210.543762 136.0
210.59256 172.0
210.850067 192.0
210.897171 156.0
210.955505 156.0
210.991547 160.0
211.230774 144.0
211.302536 152.0
211.333206 140.0
211.412277 224.0
211.705902 192.0
211.765686 384.0
211.864182 164.0
211.890259 148.0
212.020645 184.0
212.108002 1328.0
212.171371 144.0
212.203415 152.0
212.287354 232.0
212.323212 208.0
212.827072 160.0
212.908371 144.0
212.975174 156.0
213.038162 164.0
213.111969 424.0
213.161118 212.0
213.242599 96.0
213.472794 156.0
213.527405 184.0
213.852783 120.0
213.941437 176.0
214.252808 192.0
214.301727 268.0
214.333771 148.0
214.521149 156.0
214.629715 144.0
215.078903 200.0
215.123657 96.0
215.17067 124.0
215.209152 152.0
215.365585 140.0
215.452423 292.0
215.614853 208.0
215.673645 104.0
215.727356 188.0
215.778549 172.0
215.845795 160.0
215.966629 152.0
216.215698 144.0
216.338486 220.0
216.501282 148.0
216.618439 148.0
216.86322 108.0
216.906479 208.0
216.959351 168.0
217.091995 140.0
217.213501 232.0
217.274506 176.0
217.436935 156.0
217.594452 172.0
217.697769 164.0
217.759445 188.0
217.882812 160.0
218.029739 228.0
218.063217 184.0
218.110123 260.0
218.167969 136.0
218.274048 144.0
218.344299 140.0
218.395935 124.0
218.473724 192.0
218.501877 148.0
218.641006 108.0
218.735626 140.0
218.826782 212.0
218.962341 172.0
219.086594 196.0
219.109619 156.0
219.2789 108.0
219.361298 248.0
219.439713 144.0
219.498688 148.0
219.622543 148.0
219.875946 180.0
219.938263 180.0
220.01796 176.0
220.111603 264.0
220.369415 140.0
220.732986 172.0
220.767181 248.0
220.870056 104.0
221.052261 128.0
221.108261 168.0
221.321579 208.0
221.570602 260.0
221.619492 136.0
221.698013 252.0
221.760254 212.0
221.798782 188.0
221.882858 300.0
222.004074 188.0
222.099457 160.0
222.240662 260.0
222.310272 136.0
222.334702 208.0
222.519653 212.0
222.570984 176.0
222.610153 200.0
222.810699 176.0
222.88681 160.0
223.04126 116.0
223.169128 308.0
223.286301 160.0
223.539169 200.0
223.623901 144.0
223.647781 160.0
223.691513 128.0
223.74556 108.0
223.814926 200.0
223.838165 180.0
224.0186 96.0
224.048309 200.0
224.108582 2840.0
224.194305 160.0
224.380844 180.0
224.466309 164.0
224.498383 144.0
224.59137 180.0
224.647507 248.0
224.704193 156.0
224.757904 208.0
224.98175 168.0
225.038025 132.0
225.109589 776.0
225.162399 132.0
225.284607 116.0
225.390671 144.0
225.46637 160.0
225.667404 136.0
225.724014 156.0
225.935074 172.0
225.962006 140.0
226.093658 152.0
226.122513 284.0
226.180771 116.0
226.329849 152.0
226.373566 248.0
226.556015 188.0
226.737549 192.0
226.892548 148.0
226.950668 124.0
227.121323 184.0
227.185059 144.0
227.258026 112.0
227.359634 176.0
227.565079 124.0
227.632904 112.0
227.713165 128.0
227.769669 164.0
227.798172 148.0
227.849457 128.0
227.894379 172.0
228.031067 184.0
228.107239 188.0
228.171188 144.0
228.306046 104.0
228.393875 132.0
228.452042 176.0
228.502319 112.0
228.680801 140.0
228.740356 296.0
228.816315 172.0
228.92157 384.0
229.008896 148.0
229.057098 144.0
229.129395 140.0
229.239075 160.0
229.346359 148.0
229.422653 104.0
229.611679 148.0
229.674362 128.0
229.895264 204.0
230.295609 132.0
230.33287 136.0
230.472229 168.0
230.589874 164.0
230.855911 356.0
230.945251 128.0
231.032684 156.0
231.076721 192.0
231.134857 152.0
231.334747 184.0
231.390442 132.0
231.439926 144.0
231.464142 148.0
231.725479 212.0
231.896011 208.0
231.964035 152.0
232.054993 280.0
232.329987 184.0
232.724243 128.0
232.75589 140.0
232.828766 180.0
232.860519 96.0
232.935074 140.0
232.969421 220.0
233.159378 136.0
233.345367 212.0
233.485199 248.0
233.532394 132.0
233.634491 152.0
233.738098 120.0
234.080063 144.0
234.12735 184.0
234.212616 192.0
234.313156 164.0
234.446777 172.0
234.502441 164.0
234.694946 120.0
234.781982 240.0
234.864914 200.0
235.011337 152.0
235.053925 172.0
235.10289 176.0
235.13208 120.0
235.192978 200.0
235.270767 180.0
235.462311 164.0
235.511993 176.0
235.536438 220.0
235.574356 148.0
235.631561 172.0
235.662354 184.0
235.828979 160.0
236.010132 172.0
236.101761 128.0
236.22435 196.0
236.312927 200.0
236.347122 136.0
236.547745 228.0
236.612778 268.0
236.672806 256.0
236.947006 152.0
237.231384 120.0
237.592209 164.0
237.713226 136.0
237.79689 136.0
237.959518 184.0
238.047821 288.0
238.123581 2800.0
238.179184 244.0
238.216461 196.0
238.278107 160.0
238.367294 124.0
238.391876 140.0
238.551697 164.0
238.57756 164.0
238.657303 96.0
238.711578 148.0
238.742126 308.0
238.778229 232.0
238.930893 144.0
238.986023 108.0
239.07457 208.0
239.096115 164.0
239.128342 156.0
239.17836 172.0
239.231552 180.0
239.397675 96.0
239.416565 152.0
239.450165 144.0
239.500244 152.0
239.593018 192.0
239.668884 316.0
239.704514 104.0
239.756195 128.0
239.795227 172.0
239.910339 116.0
239.979401 156.0
240.054184 184.0
240.078857 204.0
240.199142 172.0
240.220734 168.0
240.365738 168.0
240.46759 152.0
240.489182 208.0
240.52623 176.0
240.62355 160.0
240.702209 220.0
240.836655 120.0
241.001816 176.0
241.305801 188.0
241.342896 112.0
241.370865 112.0
241.400574 144.0
241.536652 224.0
241.923462 168.0
242.080276 136.0
242.291321 148.0
242.442856 136.0
242.479355 240.0
242.529572 156.0
242.588608 112.0
242.642181 140.0
242.704193 176.0
243.01329 196.0
243.127869 104.0
243.178833 204.0
243.250229 144.0
243.281265 180.0
243.333359 108.0
243.478485 120.0
243.563461 96.0
243.67215 144.0
243.740936 152.0
243.800446 264.0
243.827667 136.0
244.010162 224.0
244.058533 156.0
244.082642 148.0
244.161331 160.0
244.191696 144.0
244.275681 192.0
244.479156 100.0
244.691696 176.0
244.784897 104.0
244.820358 160.0
245.059052 184.0
245.265884 164.0
245.366257 240.0
245.497406 148.0
245.551285 156.0
245.63382 252.0
245.678375 184.0
245.75267 128.0
245.845215 96.0
245.901718 112.0
245.943802 152.0
245.967712 148.0
246.098831 176.0
246.138138 352.0
246.244675 108.0
246.551605 156.0
246.614426 160.0
246.79422 108.0
246.824844 124.0
246.934937 172.0
246.970718 120.0
247.027023 176.0
247.067688 152.0
247.180328 168.0
247.555969 156.0
247.630432 164.0
247.684052 152.0
247.813751 160.0
247.932968 280.0
248.123093 224.0
248.283005 292.0
248.399063 176.0
248.437637 268.0
248.464935 180.0
248.61145 156.0
248.735153 152.0
248.84613 148.0
248.947372 160.0
249.081024 156.0
249.163681 156.0
249.520172 200.0
249.608215 168.0
249.708847 408.0
249.745667 164.0
249.784027 156.0
249.963669 164.0
250.116959 288.0
250.328568 104.0
250.524094 144.0
250.665634 104.0
250.725403 120.0
250.761948 280.0
250.994675 156.0
251.017792 144.0
251.098755 132.0
251.128479 216.0
251.261795 152.0
251.567902 152.0
251.788925 160.0
251.833145 156.0
251.857635 196.0
252.00058 216.0
252.104538 124.0
252.444748 176.0
252.520706 148.0
252.587036 196.0
252.734116 180.0
253.136108 152.0
253.307816 168.0
253.366348 116.0
253.411682 148.0
253.502075 164.0
253.527435 196.0
253.560623 164.0
253.592316 156.0
253.707077 176.0
253.757141 192.0
254.026718 172.0
254.11554 296.0
254.159958 176.0
254.19487 160.0
254.43927 140.0
254.572617 216.0
254.654968 168.0
254.763855 96.0
254.910629 168.0
255.030106 160.0
255.065079 152.0
255.096863 188.0
255.169266 176.0
255.209564 152.0
255.260834 160.0
255.303284 156.0
255.330063 144.0
255.502548 140.0
255.580505 112.0
255.803055 180.0
255.99408 180.0
256.032288 164.0
256.200287 156.0
256.500916 156.0
256.794983 144.0
256.857788 180.0
256.982117 120.0
257.100281 140.0
257.170502 164.0
257.213379 184.0
257.247101 148.0
257.288605 204.0
257.717163 108.0
257.780212 236.0
257.842865 104.0
257.887634 180.0
257.960541 120.0
258.371002 116.0
258.461578 160.0
258.618988 196.0
258.681519 128.0
258.809967 100.0
258.864899 144.0
258.909729 160.0
258.983398 164.0
259.069885 192.0
259.280762 148.0
259.367889 164.0
259.442566 152.0
259.822906 108.0
259.925415 172.0
259.96933 192.0
260.01535 144.0
260.044678 164.0
260.067139 280.0
260.179047 144.0
260.436249 96.0
260.576385 144.0
260.619049 172.0
260.924591 160.0
260.982544 152.0
261.065918 140.0
261.267548 152.0
261.324249 172.0
261.614899 108.0
261.680878 196.0
261.852875 192.0
261.951416 152.0
262.084625 152.0
262.256439 108.0
262.440948 160.0
262.573486 172.0
262.648834 112.0
262.721863 156.0
262.887024 108.0
263.001404 152.0
263.079224 172.0
263.131958 180.0
263.191925 284.0
263.225372 168.0
263.432068 188.0
263.454681 188.0
263.788757 176.0
263.942719 184.0
264.139282 1816.0
264.211151 156.0
264.265045 156.0
264.334106 172.0
264.379303 132.0
264.408539 280.0
264.473755 188.0
264.547668 104.0
264.5914 132.0
264.711151 152.0
264.75235 164.0
264.909576 128.0
265.13916 160.0
265.290466 128.0
265.42572 220.0
265.526245 112.0
265.592346 148.0
265.764038 156.0
265.890656 172.0
266.085266 148.0
266.522858 140.0
266.617096 148.0
266.652832 204.0
266.682983 160.0
266.897949 120.0
267.00412 200.0
267.185455 280.0
267.352264 120.0
267.425171 144.0
267.500397 144.0
267.5289 148.0
267.624329 136.0
267.786835 168.0
267.824158 360.0
267.898315 172.0
268.065216 168.0
268.322723 144.0
268.363312 216.0
268.436859 180.0
268.47995 128.0
268.659576 140.0
268.813904 108.0
268.860413 140.0
268.909882 152.0
269.037201 140.0
269.139282 132.0
269.190643 140.0
269.451935 140.0
269.668945 132.0
269.733002 168.0
269.904053 124.0
270.097473 120.0
270.330688 204.0
270.354401 140.0
270.443268 188.0
270.524628 140.0
270.580261 188.0
270.770416 116.0
270.99295 140.0
271.015869 172.0
271.070526 148.0
271.363281 156.0
271.56485 172.0
271.589569 168.0
271.662598 212.0
271.701111 200.0
271.760162 144.0
271.791168 144.0
271.835632 244.0
271.918701 160.0
272.013306 144.0
272.094055 132.0
272.255829 156.0
272.452393 128.0
272.504364 120.0
272.53833 180.0
272.614868 200.0
272.638428 300.0
272.719055 176.0
272.758026 192.0
272.826141 104.0
272.881561 140.0
272.965637 160.0
273.001587 188.0
273.120209 140.0
273.258362 152.0
273.315338 140.0
273.389984 148.0
273.565887 152.0
273.617615 128.0
273.668121 100.0
273.733826 188.0
273.88385 144.0
274.061127 148.0
274.216614 172.0
274.332611 172.0
274.519928 160.0
274.61026 132.0
274.754608 204.0
274.839874 144.0
274.89267 200.0
274.942169 184.0
275.11261 220.0
275.183136 152.0
275.41806 276.0
275.573303 160.0
275.804199 200.0
275.846222 192.0
275.917908 216.0
275.953613 180.0
276.133728 336.0
276.312836 148.0
276.538483 144.0
276.723053 100.0
276.749542 148.0
276.90564 140.0
276.982178 140.0
277.137878 144.0
277.18515 280.0
277.229553 108.0
277.286987 332.0
277.366028 180.0
277.399689 172.0
277.706909 196.0
277.880554 152.0
278.044708 144.0
278.080353 152.0
278.144501 180.0
278.172607 172.0
278.366211 216.0
278.636841 156.0
278.813049 156.0
278.864288 180.0
278.902405 152.0
279.139404 208.0
279.166016 172.0
279.352264 172.0
279.414215 156.0
279.581848 140.0
279.752808 176.0
279.779663 232.0
279.92395 188.0
280.058014 208.0
280.337677 108.0
280.417786 172.0
280.45517 132.0
280.483826 256.0
280.816467 228.0
280.88324 140.0
280.921295 140.0
281.024689 184.0
281.058075 160.0
281.131073 232.0
281.326202 176.0
281.425232 176.0
281.545441 228.0
281.782074 360.0
281.958191 220.0
282.005035 160.0
282.150696 2720.0
282.276917 112.0
282.3125 112.0
282.341309 136.0
282.425476 212.0
282.481293 144.0
282.511414 220.0
282.573029 104.0
282.606842 180.0
282.693878 216.0
282.764221 180.0
282.820801 148.0
282.910797 104.0
282.95874 108.0
282.9953 164.0
283.036865 144.0
283.100494 148.0
283.150543 616.0
283.276398 144.0
283.385193 156.0
283.458923 204.0
283.532806 164.0
283.81076 256.0
283.936859 268.0
284.022858 152.0
284.115265 124.0
284.16153 176.0
284.263702 164.0
284.404663 144.0
284.52887 168.0
284.565796 156.0
284.643036 184.0
284.665771 136.0
284.821228 140.0
284.920685 120.0
285.029449 156.0
285.120056 172.0
285.170471 204.0
285.265808 164.0
285.435242 116.0
285.617645 152.0
285.701752 144.0
286.012482 232.0
286.112061 108.0
286.176941 172.0
286.295959 180.0
286.321075 184.0
286.394104 124.0
286.495361 212.0
286.552429 156.0
286.598389 132.0
286.972412 96.0
287.008514 236.0
287.065857 160.0
287.194 204.0
287.23111 180.0
287.274963 172.0
287.35257 140.0
287.443665 252.0
287.579102 124.0
287.649811 144.0
287.724213 136.0
287.755096 120.0
287.939911 168.0
288.166229 176.0
288.221252 156.0
288.274353 192.0
288.368988 228.0
288.454102 132.0
288.613983 176.0
288.669861 172.0
288.866028 152.0
288.928436 116.0
288.961151 140.0
289.035187 248.0
289.157013 188.0
289.28891 120.0
289.372406 216.0
289.732666 160.0
289.768677 108.0
289.810577 148.0
289.915741 112.0
290.111237 140.0
290.403992 160.0
290.620331 160.0
290.66156 140.0
290.80246 164.0
290.933655 116.0
291.106323 164.0
291.258301 124.0
291.473419 132.0
291.502625 160.0
291.658661 168.0
291.73114 136.0
291.99472 264.0
292.115784 204.0
292.197418 140.0
292.257019 184.0
292.417267 144.0
292.541138 148.0
292.620178 128.0
292.684143 152.0
292.990143 180.0
293.191956 152.0
293.265961 136.0
293.425903 152.0
293.478027 172.0
293.623138 204.0
293.670197 132.0
293.722107 184.0
293.791809 176.0
293.885559 176.0
294.066254 148.0
294.228638 140.0
294.355255 176.0
294.385681 176.0
294.537903 104.0
294.668182 160.0
294.727295 152.0
294.904999 160.0
294.938141 124.0
295.021118 256.0
295.448669 144.0
295.698456 184.0
296.177826 140.0
296.325104 164.0
296.38678 244.0
296.570465 148.0
296.637878 196.0
296.676849 120.0
296.746674 152.0
296.774109 172.0
296.816986 188.0
296.84613 144.0
296.973022 172.0
297.019562 160.0
297.062195 144.0
297.113373 148.0
297.252808 160.0
297.618164 164.0
297.731506 176.0
297.76239 152.0
297.803619 180.0
297.872314 176.0
297.958984 124.0
298.040649 232.0
298.230804 196.0
298.33902 108.0
298.367157 168.0
298.438416 100.0
298.689117 96.0
298.745056 168.0
298.811981 132.0
299.04483 164.0
299.110229 176.0
299.331177 204.0
299.379089 168.0
299.418793 156.0
299.726685 144.0
299.768921 200.0
299.812042 200.0
299.912781 176.0
300.008484 120.0
300.042694 192.0
300.164459 152.0
300.223083 160.0
300.279419 188.0
300.602539 160.0
300.661194 188.0
300.704926 96.0
300.753571 108.0
300.875214 144.0
300.901611 148.0
300.951172 156.0
301.011383 156.0
301.524597 184.0
301.711243 272.0
301.802307 180.0
302.176178 144.0
302.225739 116.0
302.352356 184.0
302.442383 192.0
302.534607 212.0
302.867035 140.0
302.946411 124.0
302.974304 136.0
303.040924 140.0
303.133453 124.0
303.34671 212.0
303.420898 116.0
303.446594 148.0
303.683685 308.0
303.754395 152.0
303.782135 168.0
303.98056 152.0
304.12735 108.0
304.200317 184.0
304.233276 152.0
304.262787 152.0
304.358276 312.0
304.424377 112.0
304.490479 108.0
304.533356 228.0
304.604858 152.0
304.764648 256.0
304.999115 152.0
305.073975 156.0
305.297882 140.0
305.465668 160.0
305.541809 156.0
305.585876 140.0
305.790436 160.0
305.84079 100.0
305.869476 124.0
306.023193 128.0
306.09613 96.0
306.392212 124.0
306.513428 124.0
306.567139 168.0
306.605469 144.0
306.645721 124.0
306.781952 120.0
307.113373 100.0
307.168915 140.0
307.249512 160.0
307.519165 204.0
307.557617 152.0
307.662354 168.0
308.184906 112.0
308.277069 252.0
308.435242 208.0
308.514771 200.0
308.577698 136.0
308.6651 152.0
308.77002 216.0
308.817963 168.0
308.859985 116.0
308.906433 144.0
308.984833 128.0
309.039062 136.0
309.076721 136.0
309.145752 168.0
309.249329 140.0
309.308838 160.0
309.48877 268.0
309.672974 272.0
309.781555 156.0
309.902985 164.0
310.004791 112.0
310.05835 144.0
310.338806 188.0
310.491821 208.0
311.088867 176.0
311.124115 224.0
311.175415 196.0
311.259644 208.0
311.489899 152.0
311.672577 160.0
311.772461 180.0
311.841278 160.0
311.876099 224.0
311.932648 248.0
312.319824 152.0
312.715424 176.0
312.808533 168.0
312.896545 148.0
312.965851 196.0
313.126678 96.0
313.209961 140.0
313.411438 152.0
313.495605 116.0
313.530579 180.0
313.861938 148.0
314.142761 168.0
314.186432 212.0
314.267578 164.0
314.292267 192.0
314.326996 100.0
314.460876 264.0
314.500488 168.0
314.582977 152.0
314.615417 128.0
314.727417 124.0
314.847382 140.0
314.883575 240.0
315.003052 136.0
315.037231 156.0
315.115692 208.0
315.227905 148.0
315.270416 200.0
315.341095 172.0
315.418854 196.0
315.628479 152.0
315.744141 176.0
315.798981 136.0
315.857056 140.0
316.14389 160.0
316.500305 164.0
316.61142 140.0
316.873322 128.0
316.912292 212.0
316.951263 172.0
317.032013 132.0
317.074066 104.0
317.193726 144.0
317.432098 304.0
317.996124 164.0
318.209534 112.0
318.274323 148.0
318.309845 164.0
318.352448 144.0
318.45929 240.0
318.50827 164.0
318.682709 152.0
318.916901 160.0
318.975586 104.0
319.051666 304.0
319.18396 224.0
319.223389 144.0
319.746033 144.0
320.077087 148.0
320.103333 140.0
320.160553 148.0
320.213287 212.0
320.248047 244.0
320.50238 152.0
320.641083 188.0
320.678711 152.0
320.861389 128.0
320.930756 96.0
321.007141 156.0
321.032104 184.0
321.18103 116.0
321.460175 148.0
321.546722 164.0
321.647583 140.0
321.731293 104.0
321.781403 144.0
321.84433 180.0
322.056366 152.0
322.15802 164.0
322.281006 168.0
322.515167 200.0
322.696045 160.0
322.853394 172.0
322.910614 96.0
322.94278 176.0
322.985718 160.0
323.14032 204.0
323.302734 164.0
323.361816 176.0
323.543945 192.0
323.744476 292.0
323.791016 148.0
323.822235 156.0
324.088348 212.0
324.131134 136.0
324.18869 160.0
324.224518 216.0
324.280609 140.0
324.382446 244.0
324.432404 184.0
324.570648 172.0
324.618835 144.0
324.722839 164.0
324.810577 96.0
324.859161 200.0
324.897888 100.0
325.343628 140.0
325.719147 160.0
325.810486 184.0
325.956146 176.0
326.119507 204.0
326.349579 172.0
326.378357 140.0
326.50061 220.0
326.534088 144.0
326.627319 160.0
326.705627 132.0
327.16861 156.0
327.346283 144.0
327.455963 108.0
327.719727 160.0
327.779449 148.0
328.030212 116.0
328.058533 304.0
328.136536 176.0
328.380219 196.0
328.410339 112.0
328.564575 168.0
328.664398 184.0
329.257599 164.0
329.450745 128.0
329.613403 144.0
329.733368 164.0
329.800751 120.0
329.843048 124.0
329.944153 196.0
330.02478 240.0
330.22049 104.0
330.284058 200.0
330.346924 116.0
330.427063 188.0
330.563232 168.0
330.696533 200.0
330.859436 200.0
331.139954 136.0
331.399078 148.0
331.547974 196.0
331.747009 140.0
331.823761 184.0
332.018066 148.0
332.10202 160.0
332.21283 120.0
332.341248 224.0
332.502319 100.0
332.628479 140.0
332.690186 152.0
332.899017 188.0
333.016998 164.0
333.143219 144.0
333.352142 96.0
333.71109 172.0
334.002106 140.0
334.100891 196.0
334.192474 212.0
334.300354 140.0
334.325806 164.0
334.380402 168.0
334.729889 212.0
334.876709 192.0
334.994019 224.0
335.041565 160.0
335.080933 128.0
335.239594 152.0
335.357422 140.0
335.814453 160.0
335.899597 148.0
336.010956 136.0
336.052002 200.0
336.124481 164.0
336.264648 152.0
336.377808 228.0
336.417664 140.0
336.460541 200.0
336.49588 304.0
336.622437 168.0
336.688171 156.0
336.837921 188.0
337.082703 152.0
337.232544 252.0
337.267334 184.0
337.327576 212.0
337.401611 304.0
337.432526 264.0
337.506714 164.0
338.013458 140.0
338.0401 180.0
338.102448 164.0
338.17984 208.0
338.315277 140.0
338.498322 152.0
338.691406 128.0
338.846283 176.0
339.000183 140.0
339.195038 100.0
339.422821 108.0
339.57486 244.0
339.693146 164.0
339.737152 204.0
339.84787 136.0
339.933258 124.0
339.959869 128.0
340.020874 112.0
340.056396 152.0
340.260223 168.0
340.348114 156.0
340.383118 144.0
340.428986 204.0
340.558044 108.0
340.637451 192.0
340.967224 180.0
341.070129 160.0
341.139984 184.0
341.19046 168.0
341.243378 164.0
341.326996 164.0
341.57962 172.0
341.739441 160.0
342.066986 272.0
342.116882 200.0
342.181091 140.0
342.222443 172.0
342.325439 180.0
342.417847 192.0
342.470703 124.0
342.600952 192.0
342.712585 236.0
342.854767 216.0
343.026917 104.0
343.114136 160.0
343.20108 272.0
343.281525 116.0
343.354156 140.0
343.405182 112.0
343.580566 132.0
343.809845 120.0
343.921906 192.0
344.046234 136.0
344.087189 144.0
344.460724 204.0
344.52887 200.0
344.600555 180.0
344.64859 172.0
344.696625 260.0
344.763306 168.0
344.83139 268.0
345.029266 148.0
345.081024 208.0
345.14389 196.0
345.252808 104.0
345.295502 180.0
345.32666 196.0
345.372162 164.0
345.447144 116.0
345.602539 172.0
345.672943 144.0
345.802368 164.0
345.90979 184.0
346.428131 148.0
346.50415 100.0
346.577759 172.0
346.787567 144.0
347.108521 108.0
347.14563 164.0
347.24408 212.0
347.289612 224.0
347.339111 112.0
347.410522 192.0
347.450012 148.0
347.662811 172.0
347.784393 200.0
347.82074 232.0
347.930054 164.0
347.984833 128.0
348.112 144.0
348.410187 156.0
348.491699 160.0
348.539185 168.0
348.680389 208.0
348.923157 144.0
349.042938 144.0
349.1521 284.0
349.22583 184.0
349.368286 156.0
349.445648 160.0
349.820465 144.0
349.913757 140.0
349.9534 196.0
350.177582 136.0
350.345337 148.0
350.448578 96.0
350.504456 168.0
350.625977 180.0
350.919006 160.0
350.98468 160.0
351.056549 208.0
351.087982 120.0
351.282776 116.0
351.659912 132.0
351.798035 156.0
352.156494 172.0
352.313385 156.0
352.455353 180.0
352.660767 136.0
352.694519 148.0
352.818634 160.0
352.87677 96.0
353.014282 136.0
353.029785 184.0
353.114807 188.0
353.235077 192.0
353.305176 180.0
353.410431 172.0
353.546204 196.0
353.607147 172.0
353.659546 160.0
353.730865 144.0
353.848358 256.0
353.899139 256.0
353.934296 164.0
354.153778 148.0
354.30603 116.0
354.342896 132.0
354.412262 176.0
354.484985 128.0
354.659607 244.0
354.855621 128.0
354.925781 160.0
355.006836 248.0
355.060791 196.0
355.36087 148.0
355.521637 164.0
355.804718 156.0
355.851013 176.0
355.890076 192.0
355.998993 152.0
356.309082 108.0
356.338715 224.0
356.5047 248.0
356.607452 164.0
356.663971 164.0
356.702576 236.0
356.807465 168.0
356.871399 160.0
356.91449 156.0
357.031036 152.0
357.104034 216.0
357.235535 152.0
357.272919 180.0
357.363464 148.0
357.521179 212.0
357.59848 324.0
357.814545 140.0
357.969482 152.0
358.003357 152.0
358.123871 164.0
358.150238 160.0
358.325195 224.0
358.40918 120.0
358.502289 156.0
358.603027 116.0
358.697845 332.0
358.750488 192.0
358.810577 208.0
359.336853 124.0
359.4245 140.0
359.458435 172.0
359.779266 176.0
359.885864 176.0
360.002045 168.0
360.133514 108.0
360.338196 148.0
360.391113 144.0
360.657898 256.0
360.759491 152.0
360.927246 152.0
361.44812 156.0
361.619049 188.0
361.716522 204.0
361.790466 152.0
361.882568 172.0
361.950134 184.0
362.1091 148.0
362.263824 164.0
362.35498 136.0
362.388855 224.0
362.525269 220.0
362.596527 204.0
362.991516 184.0
363.12616 120.0
363.211487 256.0
363.283936 124.0
363.315247 240.0
363.357727 176.0
363.458984 184.0
363.804169 172.0
363.870422 144.0
364.27774 156.0
364.334473 116.0
364.38623 148.0
364.422516 160.0
364.513702 144.0
364.589691 164.0
364.655975 212.0
364.793091 144.0
364.859589 164.0
364.988525 136.0
365.285492 96.0
365.393433 96.0
365.46051 152.0
365.528992 188.0
365.579651 116.0
365.781982 176.0
365.921021 212.0
365.973419 116.0
366.040253 168.0
366.164734 164.0
366.366608 152.0
366.413605 180.0
366.530457 172.0
366.800995 176.0
367.164581 228.0
367.193756 160.0
367.476044 144.0
367.59433 160.0
367.73172 144.0
367.848328 108.0
368.174164 292.0
368.254791 172.0
368.303772 164.0
368.410339 188.0
368.44577 184.0
368.717072 144.0
368.862305 168.0
368.927307 208.0
369.0177 228.0
369.171997 216.0
369.220703 164.0
369.428253 196.0
369.500702 192.0
369.627197 156.0
369.720154 252.0
369.849182 168.0
369.887451 196.0
370.009949 220.0
370.047241 136.0
370.155945 272.0
370.205536 108.0
370.251678 128.0
370.300995 204.0
370.413849 280.0
370.510132 120.0
370.616791 108.0
370.795227 160.0
371.107666 148.0
371.170898 252.0
371.277985 104.0
371.424011 188.0
371.638611 128.0
371.795898 116.0
371.978973 140.0
372.183716 144.0
372.262695 152.0
372.433502 164.0
372.482117 184.0
372.527527 100.0
372.626923 180.0
372.660858 108.0
372.699799 112.0
372.780273 156.0
372.919281 148.0
373.000793 132.0
373.059845 160.0
373.159821 300.0
373.215302 148.0
373.407532 132.0
373.494385 148.0
373.639587 120.0
373.722839 176.0
373.836792 184.0
374.111969 108.0
374.395294 144.0
374.568298 164.0
374.744568 168.0
374.871948 152.0
374.914001 212.0
374.961304 184.0
374.988281 180.0
375.062653 192.0
375.109863 164.0
375.20871 196.0
375.377655 144.0
375.416748 120.0
375.519531 112.0
375.557526 100.0
375.837372 112.0
375.904663 176.0
375.939087 140.0
376.03186 340.0
376.059937 196.0
376.199463 144.0
376.272827 212.0
376.728516 172.0
376.771027 156.0
376.927063 204.0
377.103333 160.0
377.175232 140.0
377.275299 120.0
377.310791 200.0
377.389221 96.0
377.471924 140.0
377.783875 172.0
378.257507 128.0
378.403442 292.0
378.591187 148.0
378.707825 156.0
378.770966 264.0
378.836823 176.0
378.980164 144.0
379.088684 144.0
379.162292 140.0
379.375488 176.0
379.445282 164.0
379.550903 168.0
379.617432 120.0
379.797638 176.0
380.051514 180.0
380.217194 152.0
380.243134 176.0
380.302582 144.0
380.336487 168.0
380.378021 236.0
380.601196 108.0
380.677704 256.0
380.719269 144.0
380.873352 148.0
381.036621 120.0
381.289062 196.0
381.373535 164.0
381.632904 132.0
381.698486 232.0
381.868347 192.0
382.121216 184.0
382.19986 132.0
382.245728 140.0
382.271301 168.0
382.315826 328.0
382.434753 168.0
382.619385 220.0
382.685089 164.0
382.810028 116.0
382.856201 292.0
383.006348 156.0
383.406189 104.0
383.553101 144.0
383.710236 160.0
383.851105 184.0
384.178223 160.0
384.218781 132.0
384.270477 148.0
384.64563 164.0
384.701141 192.0
384.75531 224.0
384.829987 184.0
384.923676 160.0
385.00531 128.0
385.111145 304.0
385.152954 116.0
385.625122 180.0
385.701385 124.0
385.791046 232.0
385.859467 128.0
385.94101 152.0
386.299408 228.0
386.334625 160.0
386.364075 144.0
386.557648 152.0
386.597717 184.0
386.70636 184.0
386.964722 216.0
387.031097 176.0
387.318329 124.0
387.383759 188.0
387.457764 108.0
387.686462 140.0
387.720734 188.0
387.813751 152.0
387.882812 324.0
387.939514 176.0
388.027802 176.0
388.171783 5088.0
388.235107 208.0
388.314331 108.0
388.355865 228.0
388.400513 220.0
388.561066 168.0
388.717194 152.0
388.797607 108.0
389.080261 172.0
389.17691 1112.0
389.55307 152.0
389.871307 180.0
389.916382 164.0
389.965546 320.0
390.175232 328.0
390.303741 168.0
390.3367 240.0
390.773041 212.0
390.907379 112.0
390.982697 140.0
391.026001 164.0
391.243164 116.0
391.551178 152.0
391.604279 232.0
391.694305 188.0
391.741241 192.0
391.794525 108.0
391.941437 116.0
392.024597 192.0
392.097168 140.0
392.209778 100.0
392.237701 148.0
392.274567 304.0
392.324585 100.0
392.518402 156.0
392.670471 228.0
392.77063 152.0
392.95166 184.0
393.13324 124.0
393.22226 116.0
393.363831 188.0
393.402313 236.0
393.439911 140.0
393.54895 136.0
393.85849 232.0
393.996704 200.0
394.261505 196.0
394.344482 152.0
394.622284 116.0
394.755066 136.0
395.000854 148.0
395.167908 104.0
395.372772 140.0
395.602325 188.0
395.679657 128.0
395.785461 128.0
395.827637 108.0
396.098877 144.0
396.312408 152.0
396.36377 112.0
396.423096 168.0
396.457092 228.0
396.571594 132.0
396.650238 132.0
396.782898 144.0
396.846344 152.0
396.962524 120.0
397.006805 112.0
397.114868 100.0
397.227051 196.0
397.406738 136.0
397.777893 108.0
397.941406 208.0
398.150421 168.0
398.265808 104.0
398.366333 148.0
398.515686 104.0
398.582367 232.0
398.675476 144.0
398.780579 152.0
398.898193 128.0
398.966522 128.0
399.075836 160.0
399.159027 160.0
399.30719 216.0
399.400909 148.0
399.434479 192.0
399.562927 188.0
399.940979 228.0
399.976807 112.0
400.064667 204.0
400.111389 116.0
400.271759 220.0
400.349152 200.0
400.403687 260.0
400.465027 176.0
400.582794 132.0
400.670898 108.0
400.702515 172.0
400.751953 112.0
400.840546 164.0
401.029663 192.0
401.094177 108.0
401.147461 200.0
401.259094 184.0
401.352631 328.0
401.498322 204.0
401.557404 232.0
401.62439 252.0
401.721069 196.0
401.781982 116.0
401.901917 144.0
401.978302 332.0
402.013031 244.0
402.083618 192.0
402.13736 292.0
402.242218 316.0
402.302399 112.0
402.342529 96.0
402.403259 168.0
402.453094 132.0
402.569489 208.0
402.630005 236.0
402.700287 108.0
402.784393 252.0
402.873627 292.0
402.908295 204.0
402.976227 320.0
403.046143 128.0
403.086792 132.0
403.139343 148.0
403.245941 272.0
403.315491 192.0
403.357788 172.0
403.390747 268.0
403.494446 152.0
403.520355 292.0
403.583344 124.0
403.642395 196.0
403.703888 396.0
403.743866 396.0
403.823334 320.0
403.86795 200.0
403.91394 268.0
403.990234 204.0
404.056335 200.0
404.117188 296.0
404.149872 364.0
404.18692 200.0
404.226135 420.0
404.298706 152.0
404.379761 168.0
404.448456 156.0
404.505646 108.0
404.53302 180.0
404.58844 408.0
404.639008 556.0
404.671326 256.0
404.716736 196.0
404.759949 272.0
404.822906 420.0
404.885529 788.0
404.918396 396.0
405.00116 176.0
405.085175 528.0
405.15741 332.0
405.233917 308.0
405.259247 208.0
405.278687 460.0
405.367767 552.0
405.447113 392.0
405.490601 228.0
405.558441 348.0
405.606018 308.0
405.64621 356.0
405.690948 752.0
405.736359 764.0
405.776642 492.0
405.826324 632.0
405.88559 780.0
405.940094 776.0
405.970825 932.0
406.013916 1016.0
406.125702 1168.0
406.184784 261500.0
406.320679 96.0
406.461609 436.0
406.509186 264.0
406.556763 2256.0
406.636292 972.0
406.687866 1252.0
406.734924 732.0
406.792603 1808.0
406.860626 14684.0
406.945404 788.0
407.021057 284.0
407.063782 212.0
407.079224 316.0
407.18808 192680.0
407.289185 216.0
407.384216 144.0
407.470245 988.0
407.557678 488.0
407.664124 288.0
407.804871 296.0
407.850464 4216.0
407.890045 576.0
407.940399 360.0
408.037842 184.0
408.09671 240.0
408.188782 42068.0
408.359131 196.0
408.46698 328.0
408.516174 216.0
408.595367 132.0
408.688049 152.0
408.735107 96.0
408.807465 364.0
408.887451 220.0
408.935577 192.0
408.994934 148.0
409.031097 144.0
409.062195 212.0
409.099945 428.0
409.137451 328.0
409.191406 2284.0
409.282318 220.0
409.378815 424.0
409.447327 588.0
409.496826 272.0
409.529449 324.0
409.568329 272.0
409.639526 496.0
409.67215 320.0
409.729218 460.0
409.771667 376.0
409.803925 336.0
409.837006 508.0
409.9133 356.0
409.942474 296.0
409.977325 332.0
410.02713 196.0
410.157166 200.0
410.187408 268.0
410.278595 164.0
410.404053 140.0
410.474213 108.0
410.532562 112.0
410.604492 140.0
410.694702 224.0
410.778595 224.0
410.838562 136.0
410.938629 100.0
411.050476 120.0
411.094238 324.0
411.277039 108.0
411.435303 140.0
411.771301 136.0
411.848236 100.0
411.889679 228.0
412.064056 116.0
412.119354 112.0
412.202271 236.0
412.663849 120.0
414.2341 128.0
414.360107 96.0
416.757019 104.0
417.138763 164.0
417.514252 108.0
417.953278 108.0
418.600342 104.0
418.81189 112.0
419.868835 116.0
420.528046 180.0
420.951874 108.0
421.411285 96.0
421.468842 96.0
422.191101 100.0
422.257416 96.0
422.610809 108.0
423.076752 164.0
423.229828 100.0
423.32901 200.0
423.77771 140.0
423.806702 100.0
426.180267 128.0
427.091095 96.0
431.957947 148.0
439.974213 140.0
440.834625 180.0
458.594543 148.0
458.839722 104.0
460.621338 144.0
473.099457 120.0
478.928375 140.0
483.60025 144.0
518.568787 156.0
521.605347 140.0
532.544189 144.0
536.958008 152.0
546.928894 180.0
594.385803 96.0
601.979492 100.0
604.337524 148.0
605.914001 160.0
610.385376 180.0
611.28241 144.0
643.386597 160.0
668.438721 160.0
687.076111 144.0
730.571533 112.0
745.166931 188.0
765.521973 104.0
945.086304 208.0
995.836975 148.0
1067.0271 196.0
1096.859619 144.0
1114.557251 168.0
1124.712524 180.0
1182.588257 192.0
1191.887451 208.0
1201.632812 268.0
1232.451172 192.0
1235.919189 212.0
1244.273682 180.0
1267.953613 156.0
1273.899536 216.0
1284.891357 244.0
1293.652832 200.0
1308.455933 248.0
1314.842407 144.0
1315.037231 148.0
1323.683594 228.0
1324.328125 252.0
1331.842407 140.0
1332.605225 156.0
1338.241943 188.0
1349.989868 180.0
1354.18335 196.0
1357.048706 200.0
1357.151245 224.0
1385.489868 192.0
1399.891846 144.0
1400.927124 188.0
1409.918091 216.0
1413.194946 116.0
1413.55249 168.0
1414.308472 204.0
1415.326538 168.0
1416.861938 220.0
1421.45813 240.0
1425.700928 188.0
1434.182983 140.0
1439.569702 156.0
1440.619629 212.0
1441.110596 148.0
1441.458252 208.0
1441.979614 172.0
1451.548584 152.0
1452.921387 176.0
1458.099976 144.0
1460.350464 176.0
1461.613281 176.0
1461.833984 192.0
1463.139038 120.0
1464.620483 188.0
1465.283203 192.0
1466.692993 192.0
1467.074097 176.0
1468.347534 180.0
1479.518799 208.0
1479.710205 176.0
1480.070068 152.0
1480.284424 144.0
1481.448608 200.0
1481.977295 168.0
1490.817017 228.0
1495.138916 196.0
1495.369873 260.0
1498.742798 192.0
1509.804565 140.0
1511.150513 144.0
1513.851929 216.0
1521.885254 200.0
1523.407471 196.0
1524.224976 168.0
1524.394165 172.0
1525.622192 152.0
1527.021851 152.0
1530.547119 148.0
1531.52832 188.0
1535.06665 148.0
1537.96106 168.0
1541.709839 200.0
1550.384644 132.0
1552.819092 176.0
1553.219116 176.0
1554.599854 140.0
1555.635986 188.0
1556.036377 156.0
1557.198486 152.0
1560.601074 176.0
1569.932129 152.0
1575.820679 160.0
1578.879761 164.0
1582.757324 140.0
1585.783447 184.0
1586.734741 176.0
1587.281738 204.0
1587.559326 160.0
1601.029419 168.0
1603.052856 100.0
1604.148193 120.0
1604.28833 160.0
1609.761597 164.0
1610.009155 172.0
1613.157227 160.0
1618.653687 184.0
1620.351685 172.0
1620.928589 188.0
1624.199585 148.0
1625.242554 236.0
1631.386475 160.0
1633.581787 148.0
1634.772583 148.0
1635.311768 156.0
1639.241821 204.0
1639.459473 212.0
1640.120361 156.0
1642.837769 192.0
1646.93042 152.0
1647.738159 204.0
1648.861328 184.0
1652.411255 160.0
1654.199707 180.0
1655.025513 192.0
1656.904541 184.0
1657.649902 196.0
1658.849487 160.0
1659.741211 172.0
1661.37146 228.0
1664.341919 176.0
1669.583252 180.0
1670.128174 192.0
1672.268066 172.0
1674.311523 208.0
1679.315674 240.0
1680.686157 176.0
1684.564209 180.0
1684.817383 224.0
1685.495483 160.0
1687.759766 148.0
1688.307617 156.0
1688.86377 188.0
1689.550903 208.0
1691.883179 188.0
1694.413818 184.0
1696.59375 212.0
1701.204224 180.0
1701.647461 152.0
1706.716919 184.0
1711.489258 156.0
1711.703369 140.0
1712.856445 176.0
1713.709717 184.0
1717.958984 172.0
1720.220093 152.0
1725.895874 164.0
1727.34314 140.0
1732.028198 236.0
1732.88147 168.0
1734.265381 188.0
1740.462402 140.0
1741.816162 220.0
1741.874268 160.0
1744.284058 172.0
1744.533447 156.0
1749.150269 148.0
1750.523926 248.0
1750.807129 148.0
1751.165161 156.0
1752.906372 180.0
1754.531616 208.0
1757.025269 216.0
1770.675293 144.0
1771.19458 140.0
1771.63855 180.0
1772.928833 212.0
1774.018555 232.0
1774.228027 160.0
1778.548218 140.0
1780.255371 132.0
1780.672363 236.0
1782.352539 164.0
1786.539551 212.0
1786.800293 232.0
1787.574341 140.0
1788.054077 144.0
1788.155029 148.0
1791.775879 208.0
1792.938721 152.0
1793.907959 140.0
1800.007935 172.0
1804.731323 264.0
1805.137207 148.0
1813.306641 304.0
1816.969727 176.0
1817.665527 176.0
1818.34436 200.0
1819.303589 164.0
1819.762085 188.0
1821.596436 152.0
1822.114624 216.0
1823.312744 196.0
1824.035156 220.0
1824.919312 156.0
1828.849487 212.0
1829.598633 164.0
1832.502808 164.0
1834.241333 160.0
1837.925537 216.0
1838.204102 180.0
1838.574097 168.0
1839.487305 212.0
1839.734863 140.0
1839.973877 168.0
1843.091431 156.0
1844.97168 176.0
1845.048584 180.0
1847.246338 144.0
1847.708374 236.0
1848.974731 176.0
1849.376953 172.0
1849.702271 204.0
1850.167969 356.0
1850.772461 180.0
1851.106323 188.0
1853.016479 236.0
1854.593262 200.0
1855.681885 192.0
1856.47937 212.0
1858.151978 184.0
1858.45459 148.0
1858.735474 240.0
1859.7052 192.0
1859.773804 200.0
1860.452026 140.0
1861.08728 152.0
1861.937378 216.0
1862.555786 204.0
1865.338135 196.0
1865.589233 160.0
1865.993286 164.0
1867.025146 180.0
1867.257324 176.0
1867.566895 180.0
1867.833618 148.0
1869.287598 176.0
1869.571533 180.0
1872.705322 144.0
1873.299683 156.0
1875.876221 176.0
1877.022949 184.0
1878.08374 140.0
1878.22168 164.0
1878.282104 152.0
1879.39502 148.0
1880.266479 172.0
1882.018921 152.0
1882.804688 228.0
1883.71167 180.0
1884.523682 192.0
1885.297729 208.0
1885.569336 248.0
1886.027344 216.0
1886.900513 204.0
1887.246338 168.0
1889.53833 208.0
1894.204346 152.0
1894.420898 140.0
1895.411621 148.0
1896.04126 140.0
1897.783569 164.0
1899.275146 220.0
1904.13562 204.0
1904.795776 156.0
1906.568237 220.0
1909.958984 200.0
1910.437378 180.0
1910.889771 228.0
1911.768677 164.0
1912.047119 164.0
1912.238647 172.0
1916.819336 208.0
1917.603638 164.0
1918.178955 168.0
1920.193115 180.0
1922.670776 148.0
1923.849121 172.0
1928.36377 120.0
1928.688477 164.0
1928.87207 176.0
1930.323364 152.0
1932.746338 156.0
1933.8927 228.0
1936.27417 180.0
1936.501831 184.0
1937.956055 228.0
1939.077759 224.0
1941.513916 108.0
1944.436401 164.0
1945.867188 228.0
1948.747925 160.0
1949.503662 188.0
1950.830811 172.0
1952.589355 180.0
1953.319458 180.0
1953.803223 180.0
1955.378296 216.0
1956.041626 208.0
1957.006836 176.0
1957.693604 164.0
1958.354126 196.0
1958.591187 140.0
1959.508179 148.0
1960.380493 140.0
1962.454834 132.0
1963.624756 192.0
1963.783447 176.0
1964.101074 140.0
1964.727295 156.0
1966.99353 208.0
1967.833984 172.0
1968.407837 152.0
1969.52063 216.0
1969.946289 160.0
1976.354248 164.0
1976.435181 164.0
1978.442993 188.0
1978.752808 176.0
1979.461182 152.0
1980.568237 180.0
1980.789673 156.0
1981.347778 144.0
1985.691162 144.0
1986.870972 176.0
1988.574707 268.0
1990.012695 184.0
1990.20813 180.0
1990.474487 156.0
1991.726685 156.0
1993.183716 140.0
1993.610229 196.0
1993.939087 164.0
1995.147949 292.0
1995.236816 148.0
1997.646851 148.0
1997.975952 160.0
1998.180542 204.0
1998.358521 156.0
