>compound MLS002154248-01!PINACIDIL
>formula C13H19N5
>ionization [M+H]+
>parentmass 246.172455
#inchi InChI=1S/C13H19N5/c1-10(13(2,3)4)17-12(16-9-14)18-11-5-7-15-8-6-11/h5-8,10H,1-4H3,(H2,15,16,17,18)
#inchikey IVVNZDGDKPTYHK
#Ion_Source LC-ESI
#Instrument qTof
#Compound_Source NIH Pharmacologically Active Library
#PI Dorrestein
#Data_Collector VP/LMS
#Scan -1
#Precursor_MZ 246.174
#ExactMass 245.164
#Charge 1
#CAS_Number N/A
#Pubmed_ID N/A
#Smiles CC(N=C(NC#N)Nc1ccncc1)C(C)(C)C
#INCHI_AUX N/A
#Library_Class 1
#SpectrumID CCMSLIB00000084794
#IonMode Positive
#UpdateWorkflowName UPDATE-SINGLE-ANNOTATED-GOLD
#LibraryQualityString Gold
#TaskID d252d724072548979f1f6f1ced849daf
##Scan# 1386
#SpectrumFile p3-A09_GA9_01_18230.mzXML
#LibraryName Pharm_Active_Library.mgf
#MQScore -1
#Organism Pharm_Active_Library
#TIC_Query 0
#RT_Query -1
#MZErrorPPM -1
#SharedPeaks 0
#MassDiff 0
#LibMZ -1
#SpecMZ 246.174
#SpecCharge 0
#internalFilename spec-00000.mgf

>collision 10
44.911907 204.0
44.970615 196.0
44.983963 168.0
45.221893 176.0
45.244648 52.0
45.270088 116.0
45.293125 200.0
45.312954 164.0
45.38131 172.0
45.425327 112.0
45.448372 124.0
45.530258 72.0
45.553093 160.0
45.565186 156.0
45.593403 168.0
45.604156 136.0
45.753471 148.0
45.792522 188.0
45.919216 124.0
46.051487 172.0
46.147434 136.0
46.416889 216.0
46.513214 112.0
46.84774 144.0
47.064594 192.0
47.074154 132.0
47.164326 176.0
47.176628 144.0
47.228592 180.0
47.295639 36.0
47.379173 140.0
47.586269 52.0
47.615105 208.0
47.752209 164.0
47.775928 248.0
47.832352 136.0
47.942535 148.0
48.034199 208.0
48.163288 72.0
48.215794 100.0
48.264175 164.0
48.363785 204.0
48.439941 140.0
48.503685 176.0
48.589664 104.0
48.684208 36.0
48.699329 52.0
48.741009 244.0
48.753513 196.0
48.778534 176.0
48.813019 164.0
48.900936 224.0
48.910229 172.0
49.102959 136.0
49.122486 168.0
49.181095 176.0
49.253704 184.0
49.336151 240.0
49.462051 168.0
49.561485 144.0
49.579704 160.0
49.606335 152.0
49.698898 232.0
49.721352 188.0
49.791546 168.0
49.84774 168.0
49.866009 176.0
49.884285 188.0
50.022141 204.0
50.165829 120.0
50.179928 128.0
50.239162 160.0
50.312454 188.0
50.391636 152.0
50.401527 216.0
50.470787 96.0
50.755989 404.0
50.806458 160.0
50.840515 168.0
50.912914 176.0
50.93848 52.0
50.99662 188.0
51.143242 160.0
51.175987 144.0
51.204468 152.0
51.27285 180.0
51.382462 152.0
51.448299 148.0
51.469715 152.0
51.501133 204.0
51.516846 272.0
51.585442 156.0
51.605457 184.0
51.685555 112.0
51.727058 252.0
51.757126 148.0
51.840206 184.0
51.903282 244.0
51.992908 152.0
52.009445 112.0
52.270908 228.0
52.2854 152.0
52.451038 148.0
52.541889 68.0
52.577965 32.0
52.683369 128.0
52.70504 176.0
52.731052 136.0
52.974941 128.0
53.001011 220.0
53.045151 152.0
53.36018 160.0
53.55518 180.0
53.613457 176.0
53.651295 204.0
53.841042 184.0
53.890709 196.0
54.098385 244.0
54.173069 84.0
54.224354 220.0
54.23901 152.0
54.299126 120.0
54.3358 156.0
54.701725 136.0
54.818081 116.0
54.909485 164.0
54.990631 180.0
55.098427 176.0
55.173798 148.0
55.293613 116.0
55.378006 204.0
55.545498 204.0
55.555882 104.0
55.769714 180.0
55.857441 108.0
55.873806 132.0
55.966084 120.0
56.036751 144.0
56.053967 156.0
56.108753 196.0
56.318031 124.0
56.449551 140.0
56.471981 168.0
56.50639 120.0
56.64262 172.0
56.732533 92.0
56.873539 120.0
56.906563 128.0
57.007202 176.0
57.020729 128.0
57.153065 188.0
57.231335 172.0
57.356377 236.0
57.537399 168.0
57.550987 160.0
57.5676 228.0
57.60989 232.0
57.679401 124.0
57.75803 144.0
57.860935 176.0
57.885162 204.0
57.969994 156.0
58.003334 84.0
58.046021 156.0
58.274986 156.0
58.419415 204.0
58.501591 200.0
58.515293 104.0
58.583824 164.0
58.69051 128.0
58.922508 128.0
58.945427 168.0
59.024258 140.0
59.150967 184.0
59.202423 204.0
59.225395 148.0
59.246841 180.0
59.264881 176.0
59.390938 184.0
59.495567 152.0
59.539814 124.0
59.565926 180.0
59.707329 128.0
59.753475 124.0
59.788868 280.0
59.907429 196.0
59.947487 68.0
60.018394 144.0
60.035358 124.0
60.104774 60.0
60.160336 136.0
60.39212 212.0
60.458649 160.0
60.484962 112.0
60.495796 92.0
60.508183 96.0
60.525211 208.0
60.632103 40.0
60.656902 172.0
60.729778 160.0
60.930027 108.0
61.015503 176.0
61.07304 124.0
61.172626 152.0
61.256718 136.0
61.43755 48.0
61.452446 212.0
61.474998 68.0
61.554611 176.0
61.592094 128.0
61.604591 168.0
61.906456 156.0
61.937782 180.0
62.042774 192.0
62.075699 208.0
62.119614 156.0
62.212204 144.0
62.254597 72.0
62.273441 192.0
62.325283 96.0
62.460487 116.0
62.491951 92.0
62.710842 252.0
62.825951 100.0
62.891762 176.0
62.956959 172.0
63.118141 224.0
63.255787 188.0
63.309616 160.0
63.387241 52.0
63.417351 124.0
63.441845 160.0
63.510899 124.0
63.556908 136.0
63.571186 160.0
63.621979 44.0
63.698204 176.0
63.791958 84.0
63.803089 164.0
63.842838 156.0
63.857151 172.0
64.003555 184.0
64.029037 204.0
64.048149 240.0
64.266556 152.0
64.464561 236.0
64.496521 164.0
64.563675 240.0
64.581268 232.0
64.710129 244.0
64.789368 168.0
64.856667 228.0
64.871094 144.0
64.882317 196.0
64.973732 124.0
65.014236 196.0
65.145508 36.0
65.194359 276.0
65.235497 144.0
65.286949 176.0
65.338417 132.0
65.352898 104.0
65.418884 136.0
65.478462 156.0
65.563477 172.0
65.620262 144.0
65.742859 120.0
65.826797 64.0
65.844566 112.0
65.945808 216.0
66.038506 156.0
66.112457 164.0
66.205208 180.0
66.227882 40.0
66.24408 148.0
66.276482 200.0
66.339691 152.0
66.385086 176.0
66.406174 172.0
66.430504 144.0
66.477554 212.0
66.693558 124.0
66.802505 124.0
66.822029 224.0
66.896889 108.0
66.945732 216.0
67.076073 228.0
67.177177 140.0
67.198387 112.0
67.275093 228.0
67.293053 120.0
67.446609 180.0
67.706757 96.0
67.744431 216.0
67.806694 128.0
67.916542 124.0
67.931305 264.0
68.239037 84.0
68.261429 248.0
68.300903 156.0
68.338737 184.0
68.353546 184.0
68.381523 160.0
68.419388 216.0
68.476639 224.0
68.572578 176.0
68.84314 100.0
68.904251 208.0
68.953827 200.0
68.991844 180.0
69.153954 160.0
69.168846 112.0
69.205215 128.0
69.404099 148.0
69.427315 144.0
69.470436 172.0
69.565025 116.0
69.626465 156.0
69.732796 188.0
69.761047 100.0
69.776009 192.0
69.824234 180.0
69.855591 160.0
69.887444 196.0
69.945694 108.0
70.003967 136.0
70.075592 160.0
70.122253 128.0
70.167259 116.0
70.227287 192.0
70.310707 128.0
70.49942 200.0
70.561264 180.0
70.668304 184.0
70.731903 244.0
70.927879 188.0
70.949677 60.0
71.05365 236.0
71.068756 220.0
71.080498 184.0
71.166267 204.0
71.230415 216.0
71.257462 172.0
71.297127 232.0
71.335785 140.0
71.468651 120.0
71.677437 232.0
71.765091 132.0
71.965874 168.0
72.087494 180.0
72.143265 160.0
72.173698 184.0
72.22274 144.0
72.246422 256.0
72.268417 136.0
72.280266 176.0
72.420334 184.0
72.493629 200.0
72.586861 148.0
72.603821 204.0
72.664879 232.0
72.788483 200.0
72.802376 152.0
72.934448 212.0
73.031815 168.0
73.089653 168.0
73.137306 124.0
73.169647 232.0
73.184975 168.0
73.247986 60.0
73.261612 124.0
73.290573 200.0
73.420128 164.0
73.445709 232.0
73.502014 92.0
73.873528 212.0
73.970291 124.0
74.073036 132.0
74.34565 188.0
74.383408 228.0
74.434914 200.0
74.721954 132.0
74.770134 224.0
74.875153 136.0
75.097481 220.0
75.214813 196.0
75.301147 68.0
75.371971 228.0
75.418953 152.0
75.465309 188.0
75.61898 144.0
75.650421 140.0
75.858299 168.0
75.941528 196.0
75.955406 124.0
76.059517 152.0
76.128967 76.0
76.229721 220.0
76.28186 192.0
76.299248 164.0
76.313156 156.0
76.339233 120.0
76.360634 196.0
76.401848 152.0
76.502785 136.0
76.542831 152.0
76.649086 172.0
76.807739 140.0
77.104553 180.0
77.195457 152.0
77.243797 276.0
77.319664 84.0
77.436966 124.0
77.657806 136.0
77.745522 140.0
77.810074 176.0
77.981461 140.0
78.067009 240.0
78.149681 152.0
78.188393 84.0
78.283455 48.0
78.364479 120.0
78.389153 156.0
78.590164 188.0
78.658997 48.0
78.757874 156.0
78.904549 240.0
78.978821 140.0
79.049583 180.0
79.109764 196.0
79.313469 172.0
79.469528 104.0
79.490822 144.0
79.558266 172.0
79.616859 328.0
79.655937 184.0
79.673698 172.0
79.691467 148.0
79.739449 296.0
79.890587 192.0
79.915497 104.0
79.967102 108.0
80.043648 196.0
80.095299 80.0
80.154091 112.0
80.195076 116.0
80.266388 148.0
80.548088 200.0
80.668854 236.0
80.691338 116.0
80.714577 200.0
80.78849 184.0
80.845161 76.0
80.950783 120.0
81.010231 168.0
81.060577 136.0
81.095894 184.0
81.108444 144.0
81.137123 204.0
81.149673 176.0
81.250107 180.0
81.298553 344.0
81.406265 172.0
81.63089 128.0
81.643478 160.0
81.666817 172.0
81.881035 184.0
81.947685 144.0
82.147797 200.0
82.207336 132.0
82.227188 248.0
82.317451 184.0
82.396927 84.0
82.409569 104.0
82.436089 196.0
82.612053 172.0
82.707962 152.0
82.755028 208.0
82.803925 84.0
83.066742 188.0
83.113876 204.0
83.151497 236.0
83.210106 168.0
83.319077 176.0
83.359047 216.0
83.429932 80.0
83.738251 196.0
83.806671 144.0
83.841293 152.0
83.901443 116.0
83.91967 168.0
83.965263 180.0
83.987999 188.0
84.118523 140.0
84.176224 232.0
84.262794 140.0
84.377937 56.0
84.461479 216.0
84.484009 72.0
84.573669 140.0
84.736649 212.0
84.826447 200.0
84.850281 92.0
84.912621 120.0
84.98233 108.0
85.053902 160.0
85.108978 200.0
85.145706 140.0
85.182442 144.0
85.353355 56.0
85.366234 344.0
85.463722 200.0
85.548378 116.0
85.568634 64.0
85.747307 176.0
85.784172 148.0
85.8358 168.0
85.865303 56.0
85.889282 160.0
85.942528 148.0
85.990761 180.0
86.159966 240.0
86.214226 240.0
86.314049 180.0
86.341782 160.0
86.386703 196.0
86.482399 180.0
86.565704 44.0
86.578667 152.0
86.649055 180.0
86.691673 168.0
86.738007 248.0
86.95462 252.0
87.049698 68.0
87.183449 168.0
87.218758 140.0
87.237167 164.0
87.280113 224.0
87.42334 180.0
87.54052 224.0
87.583458 104.0
87.624443 168.0
87.674751 100.0
87.719482 172.0
87.835091 192.0
87.892929 112.0
87.975044 164.0
88.216324 108.0
88.253418 192.0
88.305779 388.0
88.582802 48.0
88.728973 256.0
88.788979 136.0
88.828362 84.0
88.858383 132.0
88.890282 180.0
88.918427 104.0
88.933441 192.0
89.012291 184.0
89.079903 176.0
89.166336 100.0
89.288536 204.0
89.454117 84.0
89.472939 148.0
89.491768 120.0
89.606651 196.0
89.640572 168.0
89.740471 140.0
89.817787 196.0
89.836655 120.0
89.872498 68.0
89.991409 120.0
90.206779 176.0
90.286186 112.0
90.376984 156.0
90.465935 152.0
90.568192 196.0
90.66671 184.0
90.765282 184.0
90.803207 176.0
90.880989 156.0
90.918938 368.0
91.036636 128.0
91.397804 228.0
91.414932 160.0
91.478233 240.0
91.69297 176.0
91.710121 148.0
91.778755 172.0
91.986702 148.0
92.088898 204.0
92.10318 144.0
92.187546 204.0
92.340187 200.0
92.414787 188.0
92.54686 208.0
92.569832 392.0
92.596649 176.0
92.7267 168.0
92.974327 140.0
93.045395 1588.0
93.07338 200.0
93.13176 180.0
93.170174 200.0
93.210526 120.0
93.356621 76.0
93.377769 132.0
93.437401 164.0
93.874634 156.0
93.934425 148.0
94.047722 184.0
94.142868 204.0
94.195015 160.0
94.428894 68.0
94.521751 136.0
94.566261 84.0
94.593353 148.0
94.63401 148.0
94.850983 164.0
94.934357 168.0
94.96228 340.0
94.981926 188.0
94.998436 188.0
95.032425 204.0
95.061256 32048.0
95.125641 148.0
95.16526 104.0
95.182426 248.0
95.204048 164.0
95.208488 92.0
95.235168 172.0
95.266693 176.0
95.291504 52.0
95.371735 196.0
95.480057 128.0
95.520905 160.0
95.561752 76.0
95.64933 44.0
95.664902 196.0
95.680473 68.0
95.727203 100.0
95.793427 184.0
95.988319 48.0
96.064499 2472.0
96.141052 176.0
96.161949 144.0
96.211937 184.0
96.22876 160.0
96.249794 80.0
96.296661 152.0
96.388481 56.0
96.41584 108.0
96.448128 184.0
96.560509 156.0
96.722908 116.0
96.895233 188.0
96.963814 100.0
96.988014 196.0
97.076515 236.0
97.093208 68.0
97.246239 136.0
97.64901 136.0
97.772949 80.0
97.788696 76.0
97.869408 124.0
97.893036 176.0
98.007286 104.0
98.026543 212.0
98.143288 60.0
98.310951 76.0
98.391884 212.0
98.457039 100.0
98.499626 164.0
98.729759 124.0
98.779205 240.0
98.816795 128.0
99.072182 80.0
99.45092 152.0
99.911934 232.0
100.039299 232.0
100.113251 560.0
100.236473 204.0
100.423866 120.0
100.519806 180.0
100.617424 236.0
100.741241 160.0
100.779198 72.0
100.884521 172.0
100.905113 160.0
101.107147 136.0
101.151176 156.0
101.337418 144.0
101.41758 196.0
101.48774 60.0
101.602066 156.0
101.822861 172.0
102.025803 184.0
102.092155 124.0
102.180656 140.0
102.426254 216.0
102.450432 144.0
102.526993 112.0
102.748795 240.0
102.982956 128.0
103.026817 224.0
103.047592 112.0
103.302322 164.0
103.340759 160.0
103.429802 152.0
103.608002 136.0
103.968918 140.0
104.184151 176.0
104.523682 80.0
104.655991 176.0
104.790413 148.0
104.827087 76.0
105.053406 332.0
105.286087 208.0
105.306511 56.0
105.466629 152.0
105.623322 80.0
105.690834 72.0
105.752228 148.0
105.950851 120.0
106.026665 140.0
106.15992 156.0
106.297356 120.0
106.517029 52.0
106.634148 76.0
106.889153 236.0
107.319641 212.0
107.371193 168.0
107.486717 172.0
107.525223 200.0
107.558952 180.0
107.62088 212.0
107.641533 292.0
107.833656 152.0
108.072708 220.0
108.483597 144.0
108.610085 168.0
108.717972 60.0
108.755333 200.0
108.771935 104.0
108.867439 168.0
108.960411 208.0
108.994156 196.0
109.041946 188.0
109.745552 168.0
109.819191 192.0
110.002159 124.0
110.050171 208.0
110.108643 144.0
110.267426 148.0
110.399132 244.0
110.438866 160.0
110.660683 152.0
110.725601 128.0
110.784248 164.0
111.054649 164.0
111.1008 44.0
111.344276 144.0
111.516556 200.0
111.578743 220.0
111.683083 200.0
111.707642 196.0
111.895195 56.0
111.952049 148.0
112.016594 192.0
112.05526 172.0
112.107933 52.0
112.255501 148.0
112.289238 192.0
112.337753 120.0
112.407379 196.0
112.472496 140.0
112.489685 156.0
112.531914 48.0
112.60582 40.0
113.007454 184.0
113.269966 40.0
113.297501 156.0
113.424644 244.0
113.543381 164.0
113.655807 140.0
113.79377 68.0
114.040184 176.0
114.072067 176.0
114.342194 96.0
114.482697 172.0
114.533813 172.0
114.96875 124.0
115.145943 148.0
115.483627 200.0
115.588455 160.0
115.611992 224.0
116.023239 80.0
116.094002 156.0
116.14547 116.0
116.188377 184.0
116.415894 56.0
116.501801 144.0
116.534027 144.0
116.708122 200.0
116.72963 172.0
116.755432 172.0
116.826416 92.0
116.869438 76.0
116.933998 220.0
117.132088 184.0
117.261322 216.0
117.440315 68.0
117.563286 188.0
117.623718 140.0
117.893692 248.0
118.040688 172.0
118.062317 164.0
118.209412 96.0
118.313309 200.0
118.369598 208.0
118.627419 184.0
118.669807 188.0
118.785713 132.0
119.04921 368.0
119.0896 144.0
119.180023 128.0
119.243858 48.0
119.310043 156.0
119.3395 176.0
119.385162 156.0
119.406914 100.0
119.498276 48.0
119.533089 144.0
119.578789 72.0
119.665863 196.0
119.709412 132.0
119.73336 84.0
119.766029 144.0
119.783554 176.0
119.803062 220.0
119.828415 148.0
119.860497 100.0
119.890221 372.0
119.904022 256.0
119.943626 224.0
119.973694 120.0
119.98037 108.0
120.000725 452.0
120.004593 144.0
120.008202 320.0
120.057152 94352.0
120.117432 112.0
120.144669 120.0
120.180351 72.0
120.202301 140.0
120.218025 172.0
120.233223 136.0
120.254715 192.0
120.289291 104.0
120.333519 104.0
120.350433 200.0
120.368462 116.0
120.391869 172.0
120.415276 836.0
120.43576 76.0
120.453415 180.0
120.470596 104.0
120.496811 32.0
120.542694 164.0
120.563507 44.0
120.595146 72.0
120.621376 76.0
120.644371 108.0
120.685715 128.0
120.719765 64.0
120.752563 64.0
120.791298 96.0
120.831314 64.0
120.851006 112.0
120.904556 76.0
120.942917 68.0
120.960426 72.0
120.982315 68.0
120.997643 108.0
121.023666 140.0
121.059128 7040.0
121.090187 196.0
121.134933 52.0
121.1558 92.0
121.211983 116.0
121.215355 100.0
121.257401 136.0
121.332832 144.0
121.373756 72.0
121.394226 32.0
121.409576 28.0
121.444664 40.0
121.478569 44.0
121.494156 84.0
121.537758 52.0
121.618629 56.0
121.642143 72.0
121.703621 100.0
121.7379 144.0
121.773888 56.0
121.82872 108.0
121.850769 92.0
121.870544 92.0
121.939529 112.0
121.953247 120.0
121.988228 68.0
122.030991 192.0
122.053596 184.0
122.073318 216.0
122.119148 88.0
122.136551 136.0
122.187141 176.0
122.216324 76.0
122.245117 92.0
122.290565 40.0
122.354401 116.0
122.369812 52.0
122.625336 68.0
122.656197 144.0
122.812744 80.0
122.954552 132.0
123.055489 56.0
123.192413 156.0
123.210083 124.0
123.262238 152.0
123.406784 204.0
123.982307 192.0
124.465889 80.0
124.572495 132.0
124.743599 72.0
125.012718 116.0
125.088394 204.0
125.175217 76.0
125.672279 168.0
125.795021 232.0
126.284363 188.0
126.306732 124.0
127.117752 168.0
127.162636 148.0
127.298897 184.0
127.596169 80.0
127.620895 152.0
127.641136 176.0
128.073227 108.0
128.470963 72.0
128.506042 168.0
128.785965 172.0
128.987061 164.0
129.009674 128.0
129.10463 56.0
129.387466 136.0
129.910965 180.0
130.262817 164.0
130.401413 120.0
130.760757 124.0
130.835876 192.0
131.218613 180.0
131.314392 116.0
131.352737 156.0
131.478653 108.0
131.531143 84.0
131.732086 84.0
131.958344 60.0
132.193924 88.0
132.253433 48.0
132.422867 56.0
132.461807 256.0
133.126923 180.0
133.322189 232.0
133.391144 128.0
133.802917 120.0
134.06781 164.0
134.125427 92.0
134.771591 132.0
134.926453 204.0
134.998123 148.0
135.072617 172.0
135.458694 228.0
136.019852 164.0
136.050171 200.0
136.456589 168.0
136.498444 220.0
136.540298 72.0
136.810211 176.0
137.124664 188.0
137.222565 188.0
137.311172 160.0
137.378815 148.0
137.714935 156.0
137.894852 224.0
137.976654 80.0
138.168427 184.0
138.315857 208.0
138.892273 168.0
140.548477 140.0
140.845932 116.0
141.21228 148.0
141.295074 192.0
141.38736 100.0
142.083984 168.0
142.487579 176.0
142.64679 184.0
142.913147 192.0
143.182144 164.0
143.878387 172.0
143.983459 48.0
144.363434 76.0
144.499771 120.0
144.523697 124.0
144.588303 156.0
144.710373 152.0
144.737885 172.0
144.782288 136.0
144.857529 200.0
144.881424 168.0
144.95665 240.0
144.993042 132.0
145.051849 58032.0
145.097382 128.0
145.119873 176.0
145.14328 112.0
145.165634 32.0
145.191452 84.0
145.242386 88.0
145.260422 200.0
145.278763 96.0
145.321548 56.0
145.386337 64.0
145.417542 132.0
145.473938 112.0
145.556778 96.0
145.610199 96.0
145.686462 36.0
145.703278 64.0
145.77536 80.0
145.813812 160.0
145.900345 72.0
145.929596 204.0
145.96286 112.0
146.019516 148.0
146.054108 3792.0
146.167313 32.0
146.205826 72.0
146.232285 60.0
146.280426 64.0
146.37674 120.0
146.410446 60.0
146.485107 88.0
146.632095 56.0
146.648956 56.0
146.772705 84.0
146.839432 60.0
146.885254 100.0
146.931091 80.0
146.947983 124.0
146.969696 64.0
147.054489 448.0
147.077194 88.0
147.162781 104.0
147.189346 140.0
147.258606 112.0
147.28685 148.0
147.294052 56.0
147.302048 168.0
147.387405 100.0
147.655731 72.0
148.576172 76.0
149.076355 184.0
149.156555 60.0
150.393906 224.0
151.07077 88.0
151.587372 128.0
151.989502 72.0
152.114136 160.0
152.613388 80.0
152.785538 128.0
153.827942 108.0
153.896713 120.0
153.948914 124.0
154.898651 48.0
156.074997 232.0
156.092407 52.0
157.071167 80.0
157.747864 92.0
159.482422 56.0
159.575439 112.0
161.085434 180.0
161.595642 120.0
162.078522 4452.0
162.134995 56.0
162.314972 56.0
162.337799 60.0
162.391052 48.0
162.434174 80.0
162.578796 56.0
163.078613 332.0
163.399506 164.0
163.544556 64.0
163.674393 60.0
164.089691 152.0
164.13559 112.0
168.80394 76.0
168.863419 48.0
171.251205 76.0
173.912872 160.0
174.078262 92.0
177.042328 36.0
185.103134 144.0
185.58815 152.0
185.775284 112.0
187.147736 144.0
188.092804 216.0
188.126465 172.0
195.931213 120.0
195.959076 120.0
201.440903 128.0
201.808289 52.0
201.944016 28.0
202.133698 664.0
203.139328 116.0
203.24147 68.0
207.141541 100.0
210.665375 64.0
217.323715 92.0
226.646194 36.0
236.430634 96.0
237.211655 176.0
241.856705 72.0
246.172455 384.0
246.228149 68.0
246.574936 92.0
247.167648 104.0
247.194122 172.0
248.183929 216.0
249.238556 128.0
250.941315 172.0
253.105637 84.0
256.705841 88.0
269.71759 76.0
276.076172 40.0
291.409241 132.0
306.884705 40.0
315.581696 64.0
323.934357 88.0
348.070801 72.0
348.156189 164.0
352.096283 52.0
370.878754 112.0
371.929718 64.0
372.728516 136.0
375.299683 124.0
376.588562 52.0
376.90921 64.0
382.793579 112.0
395.541718 40.0
415.260223 184.0
450.618561 64.0
451.163727 52.0
519.249695 32.0
520.792786 68.0
534.733276 128.0
542.419006 76.0
585.815308 180.0
589.395081 68.0
641.286926 108.0
664.547424 80.0
698.709717 76.0
719.297729 200.0
730.136719 96.0
734.030151 152.0
741.289795 200.0
743.643433 132.0
764.905945 236.0
782.972473 200.0
784.426697 220.0
791.309204 144.0
799.870239 176.0
801.289307 168.0
807.300598 124.0
808.68103 156.0
814.049744 32.0
818.018188 160.0
819.561523 76.0
821.819397 124.0
821.899292 148.0
822.047607 180.0
823.520508 84.0
831.272034 192.0
833.948242 104.0
841.292419 136.0
851.192871 112.0
854.657104 124.0
862.781433 128.0
864.290405 184.0
865.519592 192.0
866.381836 200.0
868.713684 128.0
880.662659 140.0
883.358032 212.0
884.991394 140.0
888.066223 196.0
889.437561 140.0
890.470703 84.0
896.014526 216.0
896.753418 68.0
897.850403 76.0
900.219543 128.0
914.536072 120.0
917.113953 220.0
922.220154 228.0
924.439636 156.0
925.159912 208.0
928.177124 180.0
928.328674 136.0
929.153564 160.0
933.192322 180.0
935.735474 120.0
936.277405 152.0
936.673279 176.0
938.696716 140.0
938.751587 172.0
939.477356 136.0
942.371155 180.0
943.899231 192.0
945.912048 144.0
946.236511 240.0
947.933105 196.0
948.129211 192.0
949.888855 176.0
955.171509 84.0
957.40564 204.0
958.514465 172.0
959.087585 132.0
959.340332 144.0
961.388062 168.0
961.474426 160.0
963.759216 64.0
964.537842 220.0
965.966248 36.0
967.042847 104.0
967.117126 168.0
968.479309 144.0
969.226196 268.0
969.805237 164.0
975.043396 128.0
975.217468 56.0
977.842102 184.0
978.791321 180.0
982.103699 184.0
983.395203 176.0
984.256714 152.0
985.668396 148.0
986.0 232.0
987.931641 204.0
988.603821 176.0
989.458618 136.0
990.47937 128.0
990.523193 104.0
991.212341 104.0
992.296692 96.0
992.616455 128.0
993.205933 56.0
996.049377 180.0
997.526062 208.0
997.601501 132.0
997.959839 140.0
999.658142 148.0
999.721069 264.0
1000.935974 160.0
1003.141052 132.0
1004.585083 236.0
1005.657776 232.0
1010.004822 144.0
1010.397034 184.0
1012.764465 188.0
1015.807007 160.0
1018.295105 144.0
1018.42218 132.0
1019.247986 124.0
1020.372986 208.0
1020.525574 32.0
1021.562195 168.0
1022.669373 220.0
1024.968384 36.0
1025.854248 180.0
1026.35144 68.0
1026.402466 144.0
1026.804199 176.0
1027.397461 68.0
1029.656982 204.0
1030.851562 180.0
1031.676147 180.0
1032.724731 88.0
1033.780396 172.0
1033.882812 128.0
1034.138794 200.0
1035.816284 112.0
1037.822266 220.0
1038.405762 36.0
1038.765015 176.0
1039.830078 200.0
1040.37561 160.0
1040.825073 184.0
1042.675171 172.0
1042.771606 120.0
1045.910278 164.0
1046.032593 232.0
1046.399536 160.0
1046.921021 168.0
1049.1698 108.0
1051.091797 164.0
1052.589233 272.0
1052.705444 184.0
1056.176025 76.0
1056.593018 140.0
1057.114136 148.0
1057.774292 100.0
1060.877197 140.0
1062.368652 140.0
1062.595703 216.0
1063.595093 120.0
1064.033936 204.0
1065.0625 172.0
1068.293091 184.0
1071.040039 176.0
1071.391846 196.0
1071.691528 140.0
1073.203613 208.0
1076.427002 212.0
1077.5896 180.0
1078.020874 132.0
1078.713623 168.0
1079.046997 164.0
1079.13855 224.0
1080.69519 128.0
1080.989624 232.0
1081.480469 232.0
1083.143555 176.0
1084.670288 224.0
1085.024292 40.0
1088.258789 128.0
1088.672485 156.0
1088.921997 160.0
1089.500122 160.0
1090.735474 160.0
1091.024658 220.0
1091.780884 204.0
1092.241211 192.0
1092.853027 220.0
1094.307617 164.0
1094.90686 192.0
1095.736816 180.0
1095.960815 184.0
1097.09436 56.0
1099.541504 156.0
1099.845093 176.0
1099.983643 116.0
1100.749512 164.0
1100.993896 192.0
1101.244751 144.0
1101.568481 156.0
1103.108154 212.0
1103.491577 136.0
1104.23877 236.0
1106.667358 152.0
1108.237061 116.0
1108.508789 140.0
1108.674438 80.0
1109.50293 120.0
1109.675293 152.0
1109.85437 172.0
1110.375488 196.0
1112.302368 184.0
1113.636963 180.0
1114.081909 176.0
1114.407471 160.0
1114.467285 196.0
1115.610352 212.0
1115.736694 184.0
1117.352783 116.0
1119.702393 132.0
1120.694946 176.0
1122.254639 140.0
1122.407959 176.0
1125.103394 164.0
1125.597534 232.0
1127.521362 136.0
1128.738037 156.0
1129.145996 164.0
1130.028931 236.0
1130.751587 160.0
1131.521362 168.0
1131.876221 136.0
1132.780396 92.0
1134.670166 196.0
1136.179199 176.0
1136.286499 120.0
1136.621948 212.0
1139.509033 152.0
1140.335571 60.0
1141.765503 168.0
1142.285522 212.0
1144.950806 236.0
1145.604126 156.0
1145.961182 144.0
1151.891113 188.0
1152.661255 156.0
1152.837036 156.0
1152.972168 168.0
1154.222778 160.0
1155.710815 244.0
1156.820679 200.0
1157.518066 92.0
1157.782104 180.0
1159.238647 88.0
1160.119751 88.0
1162.38501 224.0
1163.891846 164.0
1164.679688 140.0
1165.685181 140.0
1166.432739 160.0
1168.003418 224.0
1168.717773 124.0
1169.337036 48.0
1169.582031 192.0
1172.047363 212.0
1173.185547 240.0
1173.880981 164.0
1175.832031 128.0
1177.538818 132.0
1179.082764 252.0
1180.381714 180.0
1183.844238 160.0
1184.57019 144.0
1184.816772 56.0
1185.186768 164.0
1185.337524 164.0
1187.058105 68.0
1189.026855 148.0
1189.912354 176.0
1190.008545 164.0
1190.104614 160.0
1190.908081 160.0
1191.952271 132.0
1192.65332 164.0
1193.100098 120.0
1193.732666 180.0
1194.175049 212.0
1194.619873 132.0
1194.925171 124.0
1195.135864 164.0
1195.266602 76.0
1196.078613 152.0
1197.772583 192.0
1198.571655 120.0
1199.054077 168.0
1199.40564 168.0
1200.129395 184.0
1200.18457 144.0
1200.991455 176.0
1201.281128 124.0
1202.115967 160.0
1203.116821 132.0
1203.841797 68.0
1204.532349 188.0
1205.271606 196.0
1206.253052 176.0
1206.391235 188.0
1207.173828 176.0
1207.352295 128.0
1207.504517 116.0
1207.760376 208.0
1208.071655 152.0
1209.919434 204.0
1210.099365 112.0
1210.431763 184.0
1211.138062 244.0
1211.671509 264.0
1211.803101 36.0
1212.59314 52.0
1214.035156 48.0
1214.832764 176.0
1215.727783 140.0
1216.213623 164.0
1216.755005 164.0
1217.650757 164.0
1219.280396 176.0
1219.429321 180.0
1219.589233 80.0
1221.230103 128.0
1221.403931 156.0
1222.565918 196.0
1222.642456 196.0
1222.774658 164.0
1223.442871 148.0
1223.637817 212.0
1225.734253 180.0
1225.852783 152.0
1226.382446 56.0
1226.730957 132.0
1227.093384 220.0
1227.170166 184.0
1227.23291 124.0
1227.888306 200.0
1227.95813 212.0
1228.062744 160.0
1228.488159 160.0
1229.513916 156.0
1230.295654 172.0
1231.349976 216.0
1232.251099 120.0
1232.56543 224.0
1234.557739 136.0
1235.77478 184.0
1236.530518 188.0
1237.405518 204.0
1237.475586 160.0
1240.733276 144.0
1241.371338 160.0
1242.935669 160.0
1243.42688 212.0
1244.114746 96.0
1244.542969 160.0
1245.013428 164.0
1246.017822 144.0
1246.242676 192.0
1246.411377 128.0
1247.542847 112.0
1248.26001 148.0
1248.625732 192.0
1249.118042 180.0
1250.095947 136.0
1250.583252 232.0
1251.102417 160.0
1252.496704 204.0
1252.672852 80.0
1253.94812 72.0
1254.716431 172.0
1254.927979 184.0
1255.78833 172.0
1255.992798 148.0
1256.902954 232.0
1257.008789 180.0
1257.227539 168.0
1258.123901 172.0
1259.896484 196.0
1261.140137 156.0
1261.422852 132.0
1262.851196 132.0
1263.983032 76.0
1264.548828 156.0
1264.825195 124.0
1265.455322 160.0
1266.552979 228.0
1267.52356 172.0
1267.799927 212.0
1268.140015 160.0
1268.572388 200.0
1269.387817 156.0
1269.565063 148.0
1271.615356 148.0
1271.840576 200.0
1272.502686 60.0
1273.546509 164.0
1274.484253 116.0
1275.6427 200.0
1275.749268 136.0
1275.919922 232.0
1276.161621 196.0
1276.879883 104.0
1278.160278 92.0
1279.477051 108.0
1279.783203 44.0
1280.260254 136.0
1281.335815 196.0
1283.495361 188.0
1283.687866 168.0
1283.78772 208.0
1284.408203 104.0
1284.822021 64.0
1285.813843 180.0
1286.163574 248.0
1286.213501 120.0
1286.908936 220.0
1287.684326 124.0
1287.841431 172.0
1288.412842 176.0
1288.827271 152.0
1290.807251 68.0
1290.943115 144.0
1291.372192 216.0
1294.241821 168.0
1294.714478 68.0
1296.018188 212.0
1296.233154 144.0
1296.935425 160.0
1297.207764 168.0
1298.584473 228.0
1298.857056 108.0
1299.337646 164.0
1300.019287 96.0
1300.370972 208.0
1300.866211 120.0
1301.404663 148.0
1301.734985 204.0
1301.907349 108.0
1302.431641 160.0
1303.782349 124.0
1304.134521 128.0
1304.486694 196.0
1304.716675 156.0
1305.212769 320.0
1306.946289 212.0
1308.00415 188.0
1308.220093 64.0
1308.882568 208.0
1309.235352 184.0
1309.487427 220.0
1310.150146 212.0
1310.301392 180.0
1310.848999 152.0
1311.793091 136.0
1313.112671 160.0
1313.235229 160.0
1314.027832 160.0
1314.223511 148.0
1314.454468 284.0
1315.12561 248.0
1315.630859 36.0
1316.634521 196.0
1317.869751 152.0
1318.418945 196.0
1318.555908 184.0
1318.671875 204.0
1319.336914 140.0
1319.430786 184.0
1320.269531 80.0
1320.855469 148.0
1321.30603 196.0
1321.455811 80.0
1322.30249 216.0
1323.605591 208.0
1325.40918 164.0
1326.264282 180.0
1326.539673 132.0
1327.910156 112.0
1328.323608 152.0
1329.35376 216.0
1330.297363 188.0
1331.016113 144.0
1332.22168 164.0
1332.759277 200.0
1333.609619 188.0
1334.009399 48.0
1334.787231 116.0
1335.73999 136.0
1336.401978 176.0
1336.693115 180.0
1337.839478 184.0
1339.262939 236.0
1339.691772 96.0
1339.853027 168.0
1340.027832 208.0
1340.209961 156.0
1340.581665 172.0
1340.647217 176.0
1341.405151 168.0
1341.813477 96.0
1341.864502 148.0
1342.746826 164.0
1343.322998 264.0
1346.041382 112.0
1347.148071 172.0
1347.476807 288.0
1347.776367 200.0
1349.472046 156.0
1350.049805 160.0
1350.795776 172.0
1350.861572 172.0
1352.281128 164.0
1353.210815 68.0
1353.401123 116.0
1353.928345 208.0
1354.206665 212.0
1354.602173 76.0
1354.71936 196.0
1354.983154 128.0
1356.228882 236.0
1356.324219 164.0
1356.778687 180.0
1357.181885 64.0
1358.817505 188.0
1358.971558 112.0
1359.389771 136.0
1360.417358 124.0
1360.710938 84.0
1361.31311 56.0
1362.231079 188.0
1362.554321 108.0
1363.017212 156.0
1363.083374 136.0
1363.443481 176.0
1363.796265 128.0
1363.913818 200.0
1364.34021 200.0
1364.406372 216.0
1364.472534 164.0
1365.391602 156.0
1366.141846 152.0
1366.723145 176.0
1366.936523 176.0
1367.512695 180.0
1367.620972 220.0
1367.86377 156.0
1368.312866 156.0
1368.460083 104.0
1368.519043 224.0
1368.607422 120.0
1368.688354 164.0
1369.144897 120.0
1369.660522 212.0
1369.756226 140.0
1369.910889 180.0
1370.028809 168.0
1370.271851 128.0
1370.741211 236.0
1371.207764 172.0
1371.893188 152.0
1372.365112 104.0
1372.682129 156.0
1373.980225 276.0
1374.880371 160.0
1375.77356 200.0
1376.105713 156.0
1376.690796 156.0
1377.412842 176.0
1377.981689 188.0
1378.085083 172.0
1378.861084 204.0
1380.250854 192.0
1380.871948 136.0
1381.204834 208.0
1381.345337 156.0
1381.907593 184.0
1382.085205 164.0
1382.359009 76.0
1382.580444 176.0
1382.921875 136.0
1383.210083 124.0
1383.809692 232.0
1384.157715 92.0
1384.920532 196.0
1386.150269 180.0
1386.320679 164.0
1387.284302 96.0
1387.417725 224.0
1387.6698 216.0
1388.804321 100.0
1389.019409 164.0
1389.798462 40.0
1389.946777 204.0
1390.251099 132.0
1390.473633 68.0
1391.67627 184.0
1392.552734 120.0
1392.879272 116.0
1393.384399 156.0
1393.657471 168.0
1393.770752 112.0
1394.402466 136.0
1394.982178 180.0
1395.480347 72.0
1395.762817 172.0
1396.768555 68.0
1397.61499 184.0
1398.098633 256.0
1398.790771 192.0
1399.043945 188.0
1399.83728 208.0
1400.086304 208.0
1400.45874 136.0
1402.202148 252.0
1404.699951 208.0
1405.445923 156.0
1405.677246 228.0
1405.905518 128.0
1406.244385 152.0
1408.723389 76.0
1409.119385 184.0
1409.79187 164.0
1410.427124 196.0
1410.516846 136.0
1411.384033 88.0
1411.443848 224.0
1411.630737 136.0
1411.765381 204.0
1411.989746 204.0
1412.595581 112.0
1412.752686 152.0
1413.455933 168.0
1414.125 176.0
1414.398926 160.0
1415.199951 264.0
1416.795166 176.0
1417.686768 200.0
1418.024048 216.0
1418.114014 60.0
1419.515869 172.0
1420.070801 144.0
1420.393433 176.0
1420.543457 204.0
1420.873535 184.0
1421.046021 168.0
1421.901489 164.0
1422.366821 140.0
1422.742188 176.0
1423.286987 160.0
1423.770874 128.0
1424.018677 220.0
1424.176392 168.0
1424.476807 176.0
1424.672119 168.0
1426.418823 176.0
1426.623169 208.0
1427.152222 156.0
1427.994507 212.0
1428.160034 124.0
1428.325439 124.0
1428.618774 204.0
1428.709106 128.0
1428.814453 212.0
1428.867065 164.0
1429.01001 176.0
1429.837769 152.0
1430.424805 204.0
1430.598022 160.0
1430.665771 156.0
1431.358398 176.0
1431.471313 196.0
1431.73938 188.0
1431.840332 164.0
1432.021118 164.0
1432.616211 136.0
1432.721558 172.0
1433.211304 204.0
1433.84436 196.0
1434.258911 192.0
1434.341797 156.0
1434.575439 232.0
1435.057983 48.0
1435.20874 116.0
1435.299194 156.0
1435.397217 144.0
1435.480225 236.0
1436.490845 136.0
1436.709595 152.0
1437.31311 152.0
1437.811157 124.0
1438.693481 184.0
1439.581787 160.0
1440.162964 160.0
1441.61731 140.0
1442.478882 244.0
1444.845947 140.0
1445.390625 132.0
1445.927979 248.0
1446.541016 140.0
1446.745361 176.0
1446.889282 148.0
1446.964966 260.0
1447.22998 124.0
1448.108398 256.0
1448.934082 148.0
1449.064331 188.0
1449.130981 132.0
1449.540161 180.0
1449.994873 48.0
1451.890137 192.0
1452.20874 148.0
1452.413452 196.0
1452.550049 172.0
1454.378662 60.0
1454.689941 156.0
1454.81897 140.0
1455.479492 120.0
1456.178101 224.0
1459.02002 200.0
1459.240479 120.0
1459.719482 156.0
1459.787964 164.0
1460.670166 148.0
1460.829834 228.0
1460.974487 64.0
1462.625732 144.0
1463.00293 240.0
1463.287964 140.0
1463.584961 72.0
1463.744873 152.0
1464.03418 188.0
1465.092896 116.0
1465.755737 164.0
1465.961548 168.0
1466.426392 132.0
1466.54834 192.0
1467.455444 224.0
1468.027344 156.0
1468.401001 164.0
1468.492554 164.0
1468.561157 44.0
1469.14856 188.0
1469.430786 188.0
1469.613892 172.0
1469.936646 120.0
1470.04126 168.0
1470.315918 136.0
1470.552612 136.0
1470.781494 48.0
1471.079224 212.0
1471.13269 104.0
1472.132812 188.0
1473.668213 112.0
1475.242554 216.0
1475.32312 160.0
1475.609497 116.0
1477.62085 100.0
1477.682129 184.0
1478.317139 136.0
1478.477905 136.0
1478.791626 116.0
1478.952393 224.0
1479.159058 140.0
1479.296875 160.0
1479.49585 188.0
1479.733154 144.0
1480.381226 216.0
1480.58313 232.0
1481.019653 224.0
1481.655518 68.0
1481.862305 160.0
1482.337402 168.0
1482.82019 168.0
1483.019531 160.0
1483.809082 168.0
1484.131104 200.0
1484.913208 152.0
1486.163574 72.0
1486.332397 236.0
1486.639404 40.0
1487.698608 136.0
1487.829102 168.0
1488.259033 176.0
1488.320435 256.0
1488.48938 188.0
1488.712036 144.0
1489.241943 80.0
1489.841064 160.0
1490.324219 176.0
1490.593994 152.0
1491.093506 160.0
1491.301025 60.0
1491.677734 136.0
1491.739258 68.0
1492.577271 132.0
1492.7771 192.0
1493.023193 184.0
1493.338501 160.0
1493.569336 204.0
1493.838501 184.0
1494.977173 216.0
1495.038818 72.0
1495.369751 192.0
1495.600586 196.0
1495.869995 176.0
1495.947021 140.0
1496.20874 176.0
1496.632812 180.0
1496.972046 184.0
1497.348389 64.0
1497.92749 224.0
1499.23584 168.0
1500.068237 92.0
1501.687378 104.0
1503.122314 196.0
1503.593018 100.0
1503.793701 144.0
1503.894043 148.0
1504.442139 128.0
