>compound MLS001076484-01!PHENTOLAMINE MESYLATE
>formula C17H19N3O
>ionization [M+H]+
>parentmass 282.159454
#inchi InChI=1S/C17H19N3O/c1-13-5-7-14(8-6-13)20(12-17-18-9-10-19-17)15-3-2-4-16(21)11-15/h2-8,11,21H,9-10,12H2,1H3,(H,18,19)
#inchikey MRBDMNSDAVCSSF
#origInchi InChI=1S/C17H19N3O.CH4O3S/c1-13-5-7-14(8-6-13)20(12-17-18-9-10-19-17)15-3-2-4-16(21)11-15;1-5(2,3)4/h2-8,11,21H,9-10,12H2,1H3,(H,18,19);1H3,(H,2,3,4)
#Ion_Source LC-ESI
#Instrument qTof
#Compound_Source NIH Pharmacologically Active Library
#PI Dorrestein
#Data_Collector VP/LMS
#Scan -1
#Precursor_MZ 282.162
#ExactMass 281.153
#Charge 1
#CAS_Number N/A
#Pubmed_ID N/A
#Smiles Cc1ccc(cc1)N(CC2=NCCN2)c3cccc(O)c3.CS(=O)(=O)O
#INCHI_AUX N/A
#Library_Class 1
#SpectrumID CCMSLIB00000085903
#IonMode Positive
#UpdateWorkflowName UPDATE-SINGLE-ANNOTATED-GOLD
#LibraryQualityString Gold
#TaskID d252d724072548979f1f6f1ced849daf
##Scan# 1487
#SpectrumFile p4-G09_GG9_01_18405.mzXML
#LibraryName Pharm_Active_Library.mgf
#MQScore -1
#Organism Pharm_Active_Library
#TIC_Query 0
#RT_Query -1
#MZErrorPPM -1
#SharedPeaks 0
#MassDiff 0
#LibMZ -1
#SpecMZ 282.162
#SpecCharge 0
#internalFilename spec-00000.mgf

>collision 10
44.899529 124.0
44.935547 164.0
44.96032 184.0
44.964699 104.0
44.970913 168.0
44.97543 140.0
44.979443 196.0
45.009922 200.0
45.018929 216.0
45.057781 160.0
45.091789 148.0
45.120495 160.0
45.133232 148.0
45.162113 148.0
45.191002 128.0
45.205467 128.0
45.214836 68.0
45.224205 124.0
45.234676 156.0
45.279831 132.0
45.300533 400.0
45.325729 164.0
45.363453 164.0
45.379505 248.0
45.419731 232.0
45.458996 176.0
45.468845 188.0
45.531246 144.0
45.54805 188.0
45.593048 188.0
45.613842 196.0
45.640099 140.0
45.653412 120.0
45.671032 140.0
45.711159 180.0
45.742352 112.0
45.774666 160.0
45.792171 44.0
45.805641 76.0
45.859543 184.0
45.889202 156.0
45.914822 216.0
45.946037 172.0
45.960442 152.0
45.976883 52.0
45.997822 180.0
46.072758 284.0
46.090321 68.0
46.115997 188.0
46.147861 344.0
46.166023 172.0
46.188717 180.0
46.200817 188.0
46.205132 136.0
46.209618 176.0
46.224918 160.0
46.24585 172.0
46.262093 196.0
46.271572 188.0
46.287819 120.0
46.316441 180.0
46.323387 168.0
46.328476 224.0
46.332012 172.0
46.356907 112.0
46.375072 208.0
46.412388 112.0
46.461361 172.0
46.473526 168.0
46.496597 144.0
46.51815 168.0
46.521935 156.0
46.526367 116.0
46.531708 148.0
46.553616 148.0
46.57399 160.0
46.595726 156.0
46.613392 112.0
46.636494 116.0
46.675922 288.0
46.697128 164.0
46.714005 156.0
46.732143 120.0
46.750019 172.0
46.7719 176.0
46.851597 176.0
46.86359 140.0
46.882847 132.0
46.904625 180.0
46.926834 260.0
46.93874 144.0
46.986481 120.0
47.004883 172.0
47.034245 172.0
47.058697 196.0
47.074493 308.0
47.12233 96.0
47.133263 184.0
47.18092 152.0
47.192722 144.0
47.222809 36.0
47.244694 152.0
47.257008 144.0
47.30965 164.0
47.34325 136.0
47.354843 156.0
47.371609 216.0
47.389824 92.0
47.406269 140.0
47.42379 148.0
47.505665 252.0
47.531059 232.0
47.56636 172.0
47.585964 156.0
47.599697 192.0
47.620033 168.0
47.651894 144.0
47.697247 252.0
47.712368 216.0
47.737938 248.0
47.75087 144.0
47.781136 80.0
47.816914 128.0
47.834808 56.0
47.851326 336.0
47.864456 112.0
47.880245 224.0
47.927437 172.0
47.943363 172.0
47.952679 328.0
47.962399 172.0
47.977142 88.0
47.999172 108.0
48.011177 76.0
48.051178 52.0
48.069962 196.0
48.091198 212.0
48.109146 192.0
48.123379 168.0
48.153332 156.0
48.174965 212.0
48.196678 96.0
48.205551 176.0
48.251446 116.0
48.266655 88.0
48.280087 244.0
48.293732 104.0
48.298759 132.0
48.316452 232.0
48.342075 216.0
48.370422 56.0
48.4016 332.0
48.425812 136.0
48.448151 204.0
48.462303 176.0
48.474735 140.0
48.49509 168.0
48.508953 108.0
48.518658 336.0
48.536114 244.0
48.556099 144.0
48.573135 184.0
48.629635 76.0
48.664341 140.0
48.721981 156.0
48.727341 156.0
48.749073 36.0
48.774094 116.0
48.793835 160.0
48.809395 204.0
48.845306 236.0
48.89941 196.0
48.912502 224.0
48.936867 188.0
48.957752 184.0
48.978962 176.0
49.000015 188.0
49.041782 188.0
49.085964 184.0
49.095306 344.0
49.109028 64.0
49.147339 100.0
49.217133 240.0
49.236168 216.0
49.267414 160.0
49.278591 168.0
49.288879 120.0
49.317722 76.0
49.330303 124.0
49.340092 208.0
49.365261 188.0
49.409378 188.0
49.419815 212.0
49.431358 128.0
49.445004 116.0
49.4758 60.0
49.489799 220.0
49.522011 136.0
49.537617 200.0
49.558949 164.0
49.580856 200.0
49.603283 232.0
49.628521 136.0
49.653603 160.0
49.679314 260.0
49.712658 200.0
49.757088 184.0
49.771614 184.0
49.792709 96.0
49.802116 228.0
49.813782 108.0
49.872841 144.0
49.90279 108.0
49.933262 388.0
49.948605 132.0
49.970425 128.0
50.012054 104.0
50.021908 92.0
50.044769 184.0
50.079643 104.0
50.097847 160.0
50.102333 148.0
50.106632 176.0
50.153641 136.0
50.171238 144.0
50.189194 60.0
50.214706 184.0
50.263763 288.0
50.274208 136.0
50.356956 92.0
50.425713 192.0
50.430656 52.0
50.436073 180.0
50.529976 136.0
50.551483 200.0
50.571014 144.0
50.584255 136.0
50.600742 168.0
50.639641 196.0
50.695648 140.0
50.713051 216.0
50.728752 192.0
50.751472 232.0
50.767952 156.0
50.795925 288.0
50.806938 148.0
50.819019 84.0
50.831345 140.0
50.84127 100.0
50.864433 176.0
50.880783 180.0
50.92123 316.0
50.934013 48.0
50.965271 224.0
50.985687 196.0
51.00211 152.0
51.041676 160.0
51.054195 200.0
51.05682 180.0
51.068832 52.0
51.088966 148.0
51.128391 204.0
51.153008 68.0
51.168667 68.0
51.225636 68.0
51.259449 148.0
51.267654 220.0
51.280682 232.0
51.29261 164.0
51.306091 168.0
51.318272 112.0
51.333958 52.0
51.355469 196.0
51.403034 152.0
51.454372 152.0
51.490948 156.0
51.509296 156.0
51.536659 124.0
51.556667 160.0
51.571445 188.0
51.594582 320.0
51.623859 128.0
51.647591 344.0
51.659618 196.0
51.679405 140.0
51.718288 140.0
51.777843 128.0
51.780556 164.0
51.802631 160.0
51.831432 136.0
51.841461 124.0
51.883102 160.0
51.894501 348.0
51.930687 172.0
51.949131 132.0
51.994251 224.0
52.008305 232.0
52.061829 180.0
52.079632 60.0
52.093998 192.0
52.124474 188.0
52.151474 200.0
52.168724 140.0
52.194912 188.0
52.22337 164.0
52.240486 168.0
52.266529 40.0
52.288116 224.0
52.304813 180.0
52.321224 124.0
52.40332 164.0
52.436649 320.0
52.456215 400.0
52.475388 100.0
52.491249 84.0
52.512882 180.0
52.540291 344.0
52.551834 200.0
52.577808 156.0
52.592857 160.0
52.602013 292.0
52.611866 256.0
52.678886 152.0
52.688999 116.0
52.725212 128.0
52.824203 96.0
52.836468 172.0
52.871792 204.0
52.899254 188.0
52.913174 124.0
52.983395 116.0
52.997185 156.0
53.028851 216.0
53.04211 144.0
53.05661 208.0
53.083149 184.0
53.136379 148.0
53.177216 256.0
53.184036 140.0
53.186398 188.0
53.216206 152.0
53.227821 112.0
53.284473 164.0
53.304352 188.0
53.309811 128.0
53.314888 116.0
53.32206 120.0
53.327274 220.0
53.348083 208.0
53.384769 196.0
53.436981 112.0
53.463329 336.0
53.474316 168.0
53.478958 92.0
53.486576 144.0
53.491135 232.0
53.497604 168.0
53.518196 180.0
53.533211 156.0
53.5536 180.0
53.565254 140.0
53.591476 112.0
53.608963 132.0
53.627911 188.0
53.64999 164.0
53.661003 156.0
53.689148 124.0
53.715401 176.0
53.733795 184.0
53.755489 252.0
53.789059 164.0
53.808094 156.0
53.824867 132.0
53.838634 172.0
53.851154 56.0
53.89352 184.0
53.906048 216.0
53.919655 172.0
53.975319 304.0
53.995853 32.0
54.010479 160.0
54.027676 164.0
54.044704 296.0
54.064613 136.0
54.092426 180.0
54.123173 240.0
54.17297 172.0
54.184139 160.0
54.215462 128.0
54.234516 132.0
54.278183 168.0
54.291698 160.0
54.320972 184.0
54.350376 180.0
54.370571 168.0
54.395874 156.0
54.415119 184.0
54.429642 156.0
54.44286 84.0
54.500015 220.0
54.505909 200.0
54.519451 180.0
54.548851 148.0
54.560413 176.0
54.585407 140.0
54.604809 188.0
54.635418 160.0
54.673676 104.0
54.723728 144.0
54.756126 140.0
54.767586 172.0
54.78931 144.0
54.806213 292.0
54.837669 116.0
54.868286 176.0
54.879299 212.0
54.889965 152.0
54.912357 156.0
54.944809 192.0
54.96476 208.0
54.977844 176.0
55.006794 132.0
55.023361 240.0
55.0924 128.0
55.106853 208.0
55.124863 128.0
55.148602 224.0
55.211437 216.0
55.24324 216.0
55.253597 192.0
55.306873 136.0
55.330021 220.0
55.346542 164.0
55.352146 124.0
55.357235 268.0
55.374985 128.0
55.394241 52.0
55.412018 116.0
55.42239 144.0
55.459263 176.0
55.480194 116.0
55.492054 148.0
55.503918 184.0
55.51572 296.0
55.542984 164.0
55.558361 240.0
55.578148 192.0
55.589958 140.0
55.604797 216.0
55.640587 184.0
55.651878 112.0
55.656311 80.0
55.679031 212.0
55.711197 120.0
55.733543 144.0
55.751125 360.0
55.815212 160.0
55.844013 192.0
55.86335 136.0
55.910248 224.0
55.937759 204.0
55.955624 196.0
56.007748 112.0
56.039032 168.0
56.05378 156.0
56.069527 172.0
56.088802 172.0
56.123993 124.0
56.153645 172.0
56.164597 196.0
56.179176 136.0
56.192009 200.0
56.217972 204.0
56.22842 136.0
56.268188 100.0
56.288612 200.0
56.312031 72.0
56.322487 188.0
56.38961 156.0
56.431496 260.0
56.47015 140.0
56.4944 144.0
56.520069 128.0
56.540787 156.0
56.556206 172.0
56.56773 136.0
56.596107 176.0
56.621288 104.0
56.663231 172.0
56.693115 108.0
56.71088 200.0
56.723476 252.0
56.751087 156.0
56.774506 100.0
56.795506 176.0
56.836853 300.0
56.880184 168.0
56.909561 152.0
56.920074 292.0
56.936592 136.0
56.953053 156.0
56.970909 180.0
57.014717 224.0
57.037262 96.0
57.067181 144.0
57.089886 176.0
57.128551 188.0
57.167545 200.0
57.204239 108.0
57.241882 164.0
57.269951 232.0
57.280651 216.0
57.302135 188.0
57.330765 68.0
57.356388 176.0
57.391064 148.0
57.42424 216.0
57.437119 116.0
57.454552 212.0
57.46648 128.0
57.4781 160.0
57.494476 148.0
57.533192 236.0
57.565548 216.0
57.574055 184.0
57.59771 220.0
57.631062 140.0
57.644665 176.0
57.658722 212.0
57.700592 168.0
57.78075 192.0
57.800419 160.0
57.817066 40.0
57.834709 232.0
57.8591 104.0
57.864792 144.0
57.870354 180.0
57.883678 132.0
57.920979 204.0
57.951843 144.0
57.971016 184.0
58.038723 240.0
58.056438 232.0
58.074638 380.0
58.086773 120.0
58.10043 148.0
58.125809 128.0
58.141094 160.0
58.156574 116.0
58.185421 124.0
58.212749 96.0
58.22794 88.0
58.241608 148.0
58.269932 180.0
58.303768 180.0
58.381439 172.0
58.433159 84.0
58.457504 176.0
58.471203 172.0
58.532509 148.0
58.544281 144.0
58.554939 212.0
58.566044 124.0
58.612103 144.0
58.627258 156.0
58.73175 180.0
58.748531 172.0
58.786285 140.0
58.817204 244.0
58.84808 284.0
58.884388 56.0
58.895081 204.0
58.919231 168.0
58.924015 136.0
58.961327 204.0
59.008167 44.0
59.020401 112.0
59.042446 184.0
59.054047 164.0
59.065647 204.0
59.084641 192.0
59.101471 76.0
59.116467 140.0
59.132076 72.0
59.152897 92.0
59.174942 76.0
59.200974 212.0
59.234669 52.0
59.263779 124.0
59.287464 184.0
59.302094 128.0
59.33353 132.0
59.420174 136.0
59.434757 224.0
59.458862 208.0
59.481655 176.0
59.498447 148.0
59.515335 36.0
59.537876 136.0
59.561409 144.0
59.594833 180.0
59.600498 136.0
59.630554 148.0
59.65316 136.0
59.687439 140.0
59.702816 156.0
59.758194 124.0
59.781364 140.0
59.804661 392.0
59.808613 168.0
59.81435 336.0
59.839771 208.0
59.885971 116.0
59.898293 60.0
59.941433 168.0
59.953762 140.0
59.969398 192.0
59.996922 156.0
60.007713 180.0
60.02005 156.0
60.036964 260.0
60.054485 292.0
60.078659 40.0
60.089462 144.0
60.118713 188.0
60.138153 152.0
60.179653 300.0
60.196926 260.0
60.21759 156.0
60.228401 120.0
60.260845 124.0
60.30566 120.0
60.340839 328.0
60.369942 132.0
60.391811 156.0
60.415066 160.0
60.420662 120.0
60.434021 168.0
60.45639 140.0
60.480927 220.0
60.526894 232.0
60.550125 196.0
60.581104 176.0
60.603516 180.0
60.619839 136.0
60.643631 228.0
60.732662 204.0
60.766464 172.0
60.792057 156.0
60.805946 112.0
60.835728 108.0
60.854069 180.0
60.865513 108.0
60.886276 200.0
60.902214 172.0
60.912678 168.0
60.931564 152.0
60.943207 176.0
60.955425 112.0
60.984566 172.0
60.99794 172.0
61.011639 216.0
61.026985 208.0
61.05764 172.0
61.115658 136.0
61.144669 124.0
61.164803 124.0
61.174763 148.0
61.212612 408.0
61.225727 156.0
61.239937 164.0
61.277134 108.0
61.303623 164.0
61.357597 236.0
61.375149 136.0
61.416409 212.0
61.427349 148.0
61.447083 144.0
61.479851 180.0
61.502872 144.0
61.520435 48.0
61.563393 168.0
61.619579 108.0
61.635738 180.0
61.655727 280.0
61.667934 236.0
61.693844 340.0
61.706352 128.0
61.721989 160.0
61.779076 232.0
61.805965 196.0
61.833134 176.0
61.862804 140.0
61.898178 108.0
61.916042 116.0
61.936405 136.0
61.947369 120.0
61.960667 172.0
62.031994 188.0
62.061153 200.0
62.108829 180.0
62.124557 156.0
62.148052 220.0
62.1763 220.0
62.201248 188.0
62.229671 28.0
62.271111 176.0
62.287781 84.0
62.314487 112.0
62.337685 168.0
62.388359 156.0
62.41037 180.0
62.473282 204.0
62.517338 88.0
62.534653 200.0
62.567711 144.0
62.594479 148.0
62.613377 172.0
62.639668 156.0
62.65519 184.0
62.661453 100.0
62.665779 136.0
62.687817 160.0
62.694042 40.0
62.699654 168.0
62.774124 200.0
62.786743 116.0
62.803776 160.0
62.834064 80.0
62.882984 92.0
62.899113 148.0
62.944656 128.0
62.979301 172.0
62.99773 84.0
63.020916 164.0
63.077274 88.0
63.091499 176.0
63.108311 228.0
63.146156 176.0
63.168762 192.0
63.199051 176.0
63.214878 136.0
63.225956 96.0
63.250214 116.0
63.276611 336.0
63.314613 48.0
63.332039 156.0
63.365307 268.0
63.393829 124.0
63.412846 132.0
63.431866 200.0
63.462173 104.0
63.473091 208.0
63.487362 108.0
63.523846 204.0
63.555576 168.0
63.568272 132.0
63.601601 160.0
63.634941 180.0
63.649605 204.0
63.690525 128.0
63.722588 200.0
63.768383 148.0
63.781097 188.0
63.803352 236.0
63.826435 116.0
63.844696 116.0
63.865417 140.0
63.882874 112.0
63.89719 136.0
63.914692 224.0
63.940155 88.0
63.967216 164.0
63.984726 176.0
63.995872 300.0
64.016571 208.0
64.048477 132.0
64.129692 148.0
64.167313 180.0
64.193466 112.0
64.206223 180.0
64.240173 168.0
64.256752 136.0
64.273918 176.0
64.29557 144.0
64.312592 84.0
64.345055 144.0
64.436089 220.0
64.448738 96.0
64.501617 224.0
64.535057 144.0
64.584763 176.0
64.595963 116.0
64.610359 164.0
64.629562 140.0
64.654877 132.0
64.670456 116.0
64.681122 148.0
64.711197 148.0
64.735214 204.0
64.776855 252.0
64.811272 236.0
64.826523 68.0
64.840645 168.0
64.860184 176.0
64.87677 128.0
64.921112 60.0
64.935547 116.0
64.969231 152.0
64.993301 116.0
65.043358 168.0
65.069496 212.0
65.088989 164.0
65.128983 304.0
65.185257 348.0
65.226852 276.0
65.25029 52.0
65.286522 136.0
65.30658 132.0
65.326149 192.0
65.365112 208.0
65.397247 160.0
65.425659 176.0
65.436928 104.0
65.455078 44.0
65.486855 104.0
65.502373 164.0
65.52903 132.0
65.596428 168.0
65.610298 172.0
65.635124 164.0
65.651802 228.0
65.673416 204.0
65.703171 216.0
65.754501 112.0
65.809387 112.0
65.903076 200.0
65.9188 180.0
65.962875 140.0
66.00502 296.0
66.040489 224.0
66.061516 132.0
66.080933 176.0
66.116737 156.0
66.142433 188.0
66.20945 112.0
66.245392 172.0
66.27037 164.0
66.365234 160.0
66.405304 172.0
66.431755 328.0
66.450798 176.0
66.477936 96.0
66.514442 160.0
66.537994 264.0
66.561363 112.0
66.581841 148.0
66.619194 120.0
66.63382 148.0
66.653679 72.0
66.674644 204.0
66.694031 216.0
66.732964 60.0
66.750854 172.0
66.762238 136.0
66.776871 196.0
66.796394 208.0
66.824051 212.0
66.871513 120.0
66.886986 232.0
66.920731 140.0
66.939621 168.0
66.968941 188.0
66.98571 296.0
67.040627 128.0
67.052788 388.0
67.073227 56.0
67.100899 160.0
67.141068 328.0
67.179222 160.0
67.200432 200.0
67.237267 216.0
67.272575 196.0
67.286934 168.0
67.32309 384.0
67.344093 180.0
67.358795 96.0
67.373497 212.0
67.400604 196.0
67.417557 112.0
67.440979 204.0
67.485382 132.0
67.511673 92.0
67.539078 148.0
67.558792 196.0
67.597504 152.0
67.64566 104.0
67.685425 124.0
67.714157 188.0
67.732193 152.0
67.748138 160.0
67.769104 156.0
67.778061 168.0
67.853035 128.0
67.874344 96.0
67.893188 172.0
67.910431 56.0
67.943237 176.0
67.974411 184.0
67.991104 164.0
68.003952 120.0
68.01873 120.0
68.04171 264.0
68.063324 172.0
68.115616 108.0
68.132042 404.0
68.16819 160.0
68.1912 76.0
68.229103 136.0
68.252029 196.0
68.288208 112.0
68.311234 136.0
68.334267 28.0
68.352371 200.0
68.381989 200.0
68.396805 92.0
68.429588 188.0
68.447845 200.0
68.517479 104.0
68.548332 148.0
68.576347 168.0
68.589539 208.0
68.623589 128.0
68.634712 140.0
68.662331 108.0
68.683525 80.0
68.716522 168.0
68.73632 184.0
68.780304 148.0
68.837158 144.0
68.888634 284.0
68.903091 108.0
68.919617 124.0
69.003914 204.0
69.025406 88.0
69.038261 124.0
69.070061 184.0
69.099838 204.0
69.148705 180.0
69.16935 132.0
69.195839 212.0
69.207428 124.0
69.222328 148.0
69.238731 164.0
69.280304 136.0
69.294502 260.0
69.323593 128.0
69.363167 152.0
69.437782 88.0
69.461754 168.0
69.479248 136.0
69.517845 248.0
69.539589 148.0
69.557251 164.0
69.595436 136.0
69.608719 48.0
69.632065 136.0
69.66021 112.0
69.678482 272.0
69.709778 144.0
69.748283 200.0
69.775612 220.0
69.808136 172.0
69.833008 180.0
69.871346 148.0
69.914772 40.0
69.948524 148.0
69.964546 108.0
69.97953 124.0
69.991188 36.0
70.011169 144.0
70.022827 156.0
70.036148 148.0
70.084145 228.0
70.088196 300.0
70.102798 156.0
70.136063 100.0
70.162048 168.0
70.191147 100.0
70.222832 172.0
70.237846 132.0
70.255447 180.0
70.267059 188.0
70.315933 160.0
70.332962 156.0
70.34465 176.0
70.389725 212.0
70.407158 200.0
70.425591 172.0
70.44442 176.0
70.495934 160.0
70.526855 52.0
70.54911 92.0
70.563507 208.0
70.585243 124.0
70.606979 172.0
70.620201 164.0
70.624252 148.0
70.63723 148.0
70.683937 84.0
70.70195 168.0
70.74527 124.0
70.765182 172.0
70.776924 176.0
70.81147 160.0
70.82872 240.0
70.867584 184.0
70.873375 124.0
70.879829 200.0
70.906319 168.0
70.918411 220.0
70.946594 152.0
70.991402 156.0
71.005592 144.0
71.027443 152.0
71.045853 112.0
71.077644 160.0
71.124725 92.0
71.154106 120.0
71.218758 108.0
71.246651 152.0
71.262436 172.0
71.297729 136.0
71.309494 144.0
71.321815 332.0
71.348152 200.0
71.37941 204.0
71.397484 132.0
71.462524 208.0
71.519745 100.0
71.544998 104.0
71.561836 128.0
71.602577 144.0
71.620644 152.0
71.668205 160.0
71.691902 188.0
71.706711 164.0
71.738739 164.0
71.750534 176.0
71.807869 200.0
71.82811 120.0
71.860733 180.0
71.877045 180.0
71.910248 184.0
71.937805 148.0
71.956024 292.0
72.013794 128.0
72.029839 280.0
72.050957 188.0
72.087753 164.0
72.114952 156.0
72.127357 172.0
72.155739 200.0
72.176033 68.0
72.198013 180.0
72.214928 232.0
72.232613 212.0
72.262215 160.0
72.307991 180.0
72.323219 124.0
72.341843 116.0
72.365547 236.0
72.379715 108.0
72.415405 180.0
72.436676 120.0
72.458702 124.0
72.470558 124.0
72.502754 76.0
72.533264 196.0
72.558693 176.0
72.599396 128.0
72.624901 160.0
72.651978 160.0
72.674034 48.0
72.696091 260.0
72.73513 176.0
72.769081 180.0
72.796249 176.0
72.896881 152.0
72.913841 112.0
72.934303 188.0
72.949173 112.0
73.012787 116.0
73.048897 236.0
73.066521 48.0
73.092041 88.0
73.156715 96.0
73.178848 72.0
73.19191 132.0
73.226532 328.0
73.240158 96.0
73.253792 124.0
73.278259 188.0
73.304695 132.0
73.319405 244.0
73.344101 116.0
73.378899 176.0
73.398659 148.0
73.43618 136.0
73.44944 160.0
73.466888 116.0
73.478828 164.0
73.490776 172.0
73.53685 36.0
73.58123 180.0
73.605141 92.0
73.622215 176.0
73.637589 164.0
73.663208 136.0
73.678581 108.0
73.690544 60.0
73.717888 156.0
73.745232 204.0
73.77388 168.0
73.810196 100.0
73.823235 212.0
73.842262 120.0
73.864929 184.0
73.892296 140.0
73.919678 164.0
73.981293 116.0
74.078911 196.0
74.096039 144.0
74.114197 128.0
74.197159 100.0
74.221169 216.0
74.243462 100.0
74.262329 184.0
74.287384 200.0
74.303497 204.0
74.324089 140.0
74.357918 168.0
74.370316 304.0
74.409813 144.0
74.432068 124.0
74.454559 104.0
74.511246 36.0
74.550537 236.0
74.58342 148.0
74.601219 124.0
74.617805 220.0
74.639145 184.0
74.654694 140.0
74.674553 84.0
74.741714 200.0
74.770302 252.0
74.817375 104.0
74.845505 120.0
74.859772 180.0
74.875679 168.0
74.89315 180.0
74.956894 212.0
75.009605 192.0
75.048256 144.0
75.089317 168.0
75.112068 104.0
75.166924 156.0
75.194893 120.0
75.264763 76.0
75.286392 148.0
75.298485 292.0
75.319214 136.0
75.341667 308.0
75.412521 140.0
75.43499 96.0
75.526848 136.0
75.558937 208.0
75.651573 244.0
75.684135 204.0
75.720497 148.0
75.74894 184.0
75.765541 116.0
75.788361 140.0
75.808342 152.0
75.820992 44.0
75.838318 172.0
75.860855 308.0
75.926285 236.0
75.959702 136.0
75.971848 80.0
75.986458 284.0
76.015678 240.0
76.04126 220.0
76.075974 188.0
76.131783 140.0
76.147842 328.0
76.168015 156.0
76.213181 172.0
76.233109 228.0
76.252472 400.0
76.268799 172.0
76.284439 188.0
76.299095 192.0
76.335487 212.0
76.363373 132.0
76.382759 104.0
76.414879 160.0
76.4375 124.0
76.451424 108.0
76.467087 212.0
76.485985 200.0
76.510216 224.0
76.547424 180.0
76.568069 124.0
76.5924 132.0
76.618584 152.0
76.641235 120.0
76.662148 288.0
76.702232 160.0
76.733612 164.0
76.749306 116.0
76.766747 176.0
76.780655 172.0
76.819069 140.0
76.837677 144.0
76.885376 108.0
76.904579 204.0
76.956039 184.0
76.999855 168.0
77.02681 80.0
77.075729 104.0
77.152634 148.0
77.168037 232.0
77.196594 196.0
77.258209 120.0
77.289612 140.0
77.309227 244.0
77.345062 128.0
77.371323 164.0
77.401093 96.0
77.413857 224.0
77.425606 172.0
77.451042 240.0
77.464142 136.0
77.476402 148.0
77.500938 100.0
77.559204 144.0
77.578049 144.0
77.611984 204.0
77.64859 176.0
77.667526 192.0
77.699066 184.0
77.716606 164.0
77.728889 212.0
77.755219 192.0
77.769257 164.0
77.790321 152.0
77.804367 116.0
77.820168 152.0
77.837357 264.0
77.862114 104.0
77.868172 156.0
77.881638 256.0
77.893929 80.0
77.90799 128.0
77.953667 188.0
77.965973 152.0
78.004639 164.0
78.022224 236.0
78.045807 328.0
78.112907 432.0
78.143578 180.0
78.16597 188.0
78.199081 140.0
78.226295 412.0
78.247421 192.0
78.272072 156.0
78.293205 204.0
78.344292 132.0
78.395386 132.0
78.434753 124.0
78.467102 204.0
78.487053 172.0
78.505821 156.0
78.539963 188.0
78.584068 132.0
78.628181 172.0
78.66156 176.0
78.695038 124.0
78.740952 336.0
78.815376 124.0
78.841698 152.0
78.84864 136.0
78.88784 160.0
78.934387 124.0
78.967834 324.0
78.99041 156.0
79.004562 172.0
79.039948 152.0
79.053123 144.0
79.076996 176.0
79.100128 304.0
79.117378 204.0
79.164398 160.0
79.199287 200.0
79.225861 196.0
79.247124 208.0
79.297043 188.0
79.323334 176.0
79.358208 208.0
79.364716 140.0
79.37114 116.0
79.392479 152.0
79.427956 188.0
79.457718 160.0
79.478935 356.0
79.541527 184.0
79.566376 132.0
79.578804 76.0
79.623199 276.0
79.635635 148.0
79.653397 220.0
79.681824 136.0
79.704926 124.0
79.745331 184.0
79.783661 120.0
79.79557 352.0
79.82769 128.0
79.902077 168.0
79.937874 124.0
79.966354 168.0
79.985931 124.0
80.005669 140.0
80.034004 152.0
80.049644 148.0
80.076744 48.0
80.099899 112.0
80.140671 104.0
80.188499 188.0
80.208595 152.0
80.22821 176.0
80.25737 180.0
80.299164 224.0
80.31398 160.0
80.34935 160.0
80.400063 104.0
80.463707 192.0
80.511925 192.0
80.528168 168.0
80.585159 48.0
80.60482 132.0
80.617325 132.0
80.642349 116.0
80.677132 176.0
80.747841 168.0
80.772881 200.0
80.788979 140.0
80.845581 316.0
80.891479 180.0
80.941116 232.0
80.963081 152.0
80.9841 156.0
81.014557 200.0
81.031181 172.0
81.04261 140.0
81.062935 264.0
81.084518 188.0
81.09127 128.0
81.097382 164.0
81.140007 188.0
81.172287 128.0
81.188309 184.0
81.280258 208.0
81.351418 124.0
81.361183 144.0
81.373253 180.0
81.391212 256.0
81.405579 120.0
81.459457 116.0
81.479332 200.0
81.502579 164.0
81.518753 196.0
81.530281 96.0
81.563606 184.0
81.604721 208.0
81.611481 96.0
81.628273 156.0
81.641289 172.0
81.657188 108.0
81.684166 188.0
81.738319 164.0
81.757698 208.0
81.838669 104.0
81.844879 148.0
81.883026 168.0
81.911888 108.0
81.935173 172.0
81.976624 176.0
81.993874 68.0
82.01722 176.0
82.039742 200.0
82.090469 336.0
82.11467 144.0
82.130791 132.0
82.150749 164.0
82.168785 152.0
82.229179 232.0
82.269852 204.0
82.282494 108.0
82.309715 240.0
82.340523 148.0
82.360146 120.0
82.398087 132.0
82.422417 164.0
82.481216 144.0
82.507759 176.0
82.548111 104.0
82.598755 212.0
82.615036 80.0
82.658463 76.0
82.681984 128.0
82.700089 172.0
82.730858 152.0
82.770317 168.0
82.798843 280.0
82.844955 124.0
82.860092 252.0
82.877563 164.0
82.893875 120.0
82.908279 152.0
82.935562 184.0
82.967415 196.0
82.982567 176.0
83.020775 152.0
83.053764 192.0
83.075188 180.0
83.093994 132.0
83.124184 180.0
83.152603 224.0
83.178627 136.0
83.202232 240.0
83.227646 80.0
83.283783 44.0
83.323914 132.0
83.340271 156.0
83.378738 400.0
83.403877 64.0
83.450142 88.0
83.475365 176.0
83.50206 200.0
83.517921 260.0
83.549934 176.0
83.574829 84.0
83.604897 140.0
83.620331 148.0
83.65934 176.0
83.703247 132.0
83.729568 188.0
83.769051 160.0
83.782394 168.0
83.81337 148.0
83.828659 164.0
83.847992 152.0
83.869865 140.0
83.896019 184.0
83.924057 204.0
83.944618 148.0
83.957382 172.0
83.977448 92.0
83.993866 120.0
84.008453 152.0
84.052246 236.0
84.100731 204.0
84.179344 96.0
84.198296 156.0
84.223862 212.0
84.23848 76.0
84.290298 180.0
84.302429 220.0
84.324356 160.0
84.382858 120.0
84.405258 112.0
84.432808 140.0
84.454865 160.0
84.477959 124.0
84.493408 156.0
84.544281 212.0
84.568039 176.0
84.589592 144.0
84.602402 152.0
84.639023 148.0
84.706787 156.0
84.726944 128.0
84.791527 228.0
84.87159 148.0
84.897125 228.0
84.917587 248.0
84.960182 108.0
84.980118 184.0
84.999374 124.0
85.016663 164.0
85.049477 168.0
85.062759 276.0
85.095535 120.0
85.102432 116.0
85.127769 132.0
85.143341 156.0
85.169518 188.0
85.185585 164.0
85.198654 176.0
85.227844 132.0
85.260918 184.0
85.281624 152.0
85.310547 172.0
85.339966 168.0
85.354675 160.0
85.420891 148.0
85.455841 244.0
85.477928 100.0
85.500008 212.0
85.527176 216.0
85.549706 140.0
85.584694 168.0
85.608627 124.0
85.62336 52.0
85.665398 156.0
85.732063 84.0
85.756065 156.0
85.777641 396.0
85.822388 156.0
85.899849 176.0
85.916451 160.0
85.969963 240.0
86.005035 144.0
86.045647 156.0
86.065727 160.0
86.099701 192.0
86.150917 100.0
86.177864 212.0
86.206352 56.0
86.241753 160.0
86.314621 168.0
86.355103 156.0
86.389442 164.0
86.404449 212.0
86.422707 52.0
86.493034 172.0
86.542831 160.0
86.578751 204.0
86.592247 144.0
86.618279 188.0
86.638107 164.0
86.711601 152.0
86.734543 148.0
86.773224 156.0
86.859932 200.0
86.872925 304.0
86.887527 216.0
86.898369 196.0
86.928581 96.0
86.943428 192.0
86.963348 152.0
86.981064 160.0
87.012115 144.0
87.045746 140.0
87.093826 148.0
87.140266 156.0
87.168495 232.0
87.19326 124.0
87.24044 156.0
87.256584 196.0
87.274002 164.0
87.311455 180.0
87.330681 216.0
87.349373 152.0
87.394218 152.0
87.436897 264.0
87.480614 144.0
87.560684 116.0
87.58812 148.0
87.627403 196.0
87.657562 148.0
87.674126 108.0
87.711609 224.0
87.732117 76.0
87.747032 116.0
87.777229 144.0
87.808571 104.0
87.834946 172.0
87.869453 232.0
87.882835 84.0
87.903717 228.0
87.95224 100.0
88.028793 196.0
88.049332 112.0
88.103325 204.0
88.125923 188.0
88.142746 164.0
88.177505 140.0
88.256767 156.0
88.275467 152.0
88.297256 240.0
88.318481 132.0
88.358772 328.0
88.382095 164.0
88.430748 204.0
88.447601 128.0
88.46257 164.0
88.48317 172.0
88.509384 88.0
88.529984 152.0
88.561821 104.0
88.625519 228.0
88.646278 152.0
88.667831 160.0
88.698608 40.0
88.711731 104.0
88.728607 88.0
88.743607 160.0
88.767982 256.0
88.859894 332.0
88.884285 372.0
88.900742 132.0
88.918068 200.0
88.949974 140.0
88.991783 180.0
89.021599 108.0
89.047577 204.0
89.098335 56.0
89.139671 184.0
89.15847 136.0
89.1735 176.0
89.211853 200.0
89.226135 168.0
89.242104 212.0
89.286316 196.0
89.312645 132.0
89.355888 176.0
89.382256 168.0
89.401047 164.0
89.444366 164.0
89.470718 144.0
89.495193 92.0
89.528526 200.0
89.551468 168.0
89.574295 120.0
89.588081 216.0
89.603485 244.0
89.615997 180.0
89.641655 176.0
89.664742 160.0
89.683647 140.0
89.733742 192.0
89.770317 196.0
89.813721 200.0
89.840111 144.0
89.875954 108.0
89.902374 128.0
89.940269 312.0
89.957115 144.0
89.994873 196.0
90.009979 200.0
90.051529 128.0
90.070694 148.0
90.098999 156.0
90.116333 340.0
90.128983 204.0
90.155441 44.0
90.183792 192.0
90.224312 208.0
90.369904 272.0
90.405327 180.0
90.444122 180.0
90.477005 184.0
90.501617 136.0
90.520073 236.0
90.545174 180.0
90.577377 200.0
90.598213 156.0
90.646034 184.0
90.681595 128.0
90.720795 176.0
90.734673 164.0
90.755524 200.0
90.799141 152.0
90.826859 164.0
90.840874 284.0
90.856049 184.0
90.877296 184.0
90.913643 148.0
90.921478 92.0
90.929146 192.0
90.95993 200.0
90.973717 392.0
91.007645 244.0
91.034264 208.0
91.054291 24152.0
91.095749 248.0
91.110229 240.0
91.130119 148.0
91.13855 132.0
91.184464 212.0
91.220123 400.0
91.233986 120.0
91.258316 140.0
91.292931 132.0
91.311951 160.0
91.336403 132.0
91.368469 152.0
91.393684 228.0
91.431816 108.0
91.485413 204.0
91.506836 176.0
91.532715 116.0
91.585701 204.0
91.626045 176.0
91.639381 72.0
91.66835 236.0
91.673622 136.0
91.682137 320.0
91.781578 100.0
91.805222 184.0
91.881523 212.0
91.913399 124.0
91.934753 116.0
91.943542 168.0
91.947495 200.0
91.991562 152.0
92.021805 160.0
92.056694 2336.0
92.097237 188.0
92.12207 184.0
92.136574 196.0
92.162323 176.0
92.211243 128.0
92.222206 208.0
92.269234 144.0
92.30365 240.0
92.326599 52.0
92.372757 152.0
92.410767 120.0
92.445404 80.0
92.462433 52.0
92.553558 180.0
92.584969 164.0
92.611328 152.0
92.693398 120.0
92.719986 160.0
92.74025 200.0
92.76017 136.0
92.773338 176.0
92.788605 168.0
92.807259 196.0
92.820679 132.0
92.845612 176.0
92.864388 152.0
92.876793 140.0
92.899323 452.0
92.924988 176.0
92.940056 208.0
92.955185 136.0
92.972237 156.0
92.997513 232.0
93.013504 108.0
93.034019 16080.0
93.067375 512.0
93.109665 212.0
93.131592 132.0
93.165916 180.0
93.193069 212.0
93.233421 132.0
93.249588 52.0
93.293015 132.0
93.335312 172.0
93.350693 68.0
93.368004 192.0
93.38147 160.0
93.411713 116.0
93.446877 48.0
93.465454 232.0
93.509056 196.0
93.537323 216.0
93.595551 296.0
93.614342 212.0
93.67646 240.0
93.70488 216.0
93.733826 160.0
93.78997 52.0
93.824371 144.0
93.85881 200.0
93.928513 224.0
93.951492 140.0
93.972885 180.0
93.99025 180.0
94.015533 160.0
94.037613 1804.0
94.061813 196.0
94.088684 40.0
94.107994 216.0
94.148544 156.0
94.165932 156.0
94.204559 100.0
94.274124 204.0
94.306534 192.0
94.312256 148.0
94.361107 68.0
94.376572 140.0
94.395912 160.0
94.410126 192.0
94.428261 212.0
94.4431 200.0
94.487442 212.0
94.52552 32.0
94.568817 172.0
94.57988 184.0
94.629486 152.0
94.675766 164.0
94.68071 196.0
94.711388 80.0
94.757523 172.0
94.782028 104.0
94.798706 176.0
94.819893 156.0
94.834641 92.0
94.848686 168.0
94.88192 152.0
94.918762 124.0
94.946472 180.0
94.973068 128.0
95.02092 144.0
95.048172 920.0
95.09919 148.0
95.118744 160.0
95.138016 60.0
95.180275 120.0
95.223167 328.0
95.264427 160.0
95.296722 224.0
95.371124 76.0
95.394455 88.0
95.423615 136.0
95.454727 176.0
95.482498 312.0
95.503349 188.0
95.5187 184.0
95.645393 132.0
95.694061 228.0
95.723274 156.0
95.752487 172.0
95.809769 108.0
95.846046 152.0
95.877174 60.0
95.929802 164.0
95.953201 160.0
96.022415 356.0
96.053566 348.0
96.091721 180.0
96.134605 180.0
96.152008 332.0
96.173637 184.0
96.195114 216.0
96.224396 588.0
96.237862 192.0
96.281029 328.0
96.312141 172.0
96.374794 184.0
96.417786 308.0
96.452972 148.0
96.529221 152.0
96.544014 120.0
96.556602 180.0
96.583984 204.0
96.608902 184.0
96.624023 248.0
96.68573 68.0
96.710716 188.0
96.75032 124.0
96.785568 188.0
96.804985 140.0
96.833588 180.0
96.873703 160.0
96.981476 184.0
97.008995 216.0
97.031456 244.0
97.061859 136.0
97.083435 80.0
97.110893 148.0
97.132782 184.0
97.157967 136.0
97.192123 208.0
97.207024 92.0
97.234055 160.0
97.273758 188.0
97.322838 152.0
97.346405 136.0
97.38765 188.0
97.406136 272.0
97.434792 100.0
97.477089 228.0
97.509468 148.0
97.526421 128.0
97.564507 188.0
97.613663 64.0
97.690369 128.0
97.755302 272.0
97.790726 216.0
97.828133 116.0
97.84388 180.0
97.875381 36.0
97.896896 52.0
97.908226 148.0
97.958107 116.0
97.9767 72.0
98.007362 152.0
98.038887 116.0
98.109848 224.0
98.192139 104.0
98.212395 160.0
98.303558 96.0
98.350189 176.0
98.379189 184.0
98.415665 192.0
98.455162 184.0
98.472916 164.0
98.506516 108.0
98.529076 192.0
98.542892 136.0
98.569023 176.0
98.60257 144.0
98.619156 180.0
98.634964 132.0
98.656799 184.0
98.690323 192.0
98.71801 176.0
98.743668 296.0
98.793114 148.0
98.833534 184.0
98.87001 168.0
98.892937 144.0
98.913506 188.0
98.9515 148.0
98.975258 64.0
99.018829 136.0
99.104012 152.0
99.131752 220.0
99.148468 152.0
99.161484 240.0
99.189232 140.0
99.21302 172.0
99.260452 100.0
99.288376 156.0
99.33506 200.0
99.379623 152.0
99.405418 88.0
99.421295 144.0
99.441147 116.0
99.486801 56.0
99.507462 164.0
99.66465 152.0
99.6894 180.0
99.713249 168.0
99.73114 100.0
99.788795 156.0
99.802711 144.0
99.817177 212.0
99.876297 136.0
99.908066 132.0
99.943321 168.0
99.972511 168.0
99.991699 136.0
100.009613 132.0
100.029518 168.0
100.1231 92.0
100.141029 48.0
100.164932 172.0
100.182861 148.0
100.208763 168.0
100.227692 216.0
100.264557 136.0
100.337067 64.0
100.404221 156.0
100.435181 168.0
100.449997 160.0
100.499687 132.0
100.519829 164.0
100.535431 176.0
100.541389 144.0
100.546364 148.0
100.599609 144.0
100.651573 48.0
100.676682 196.0
100.751976 180.0
100.77742 68.0
100.805023 152.0
100.879929 192.0
100.920357 148.0
100.932884 344.0
100.953331 112.0
100.99733 144.0
101.017204 188.0
101.037338 124.0
101.069351 116.0
101.107376 60.0
101.13726 172.0
101.160622 240.0
101.181442 168.0
101.269554 196.0
101.351692 128.0
101.365715 140.0
101.449898 140.0
101.46666 212.0
101.493843 144.0
101.514061 148.0
101.53936 312.0
101.588272 176.0
101.661728 112.0
101.690613 368.0
101.723915 264.0
101.744812 216.0
101.780952 116.0
101.79702 156.0
101.813087 164.0
101.855263 164.0
101.880089 324.0
101.919617 144.0
101.95018 316.0
101.99794 104.0
102.017853 168.0
102.052223 136.0
102.134987 164.0
102.149437 260.0
102.17617 160.0
102.237289 128.0
102.262512 136.0
102.287605 148.0
102.305725 192.0
102.321831 244.0
102.346825 224.0
102.353882 284.0
102.442673 120.0
102.458786 88.0
102.505127 96.0
102.521255 192.0
102.542191 196.0
102.581718 72.0
102.599861 208.0
102.618469 176.0
102.656326 192.0
102.701691 136.0
102.722885 48.0
102.779419 176.0
102.857559 184.0
102.890388 160.0
102.933708 192.0
102.982407 296.0
103.006065 128.0
103.031761 248.0
103.05545 276.0
103.114616 180.0
103.146957 76.0
103.169189 72.0
103.185364 108.0
103.205582 108.0
103.221764 116.0
103.23996 164.0
103.283936 200.0
103.326523 192.0
103.345863 176.0
103.361343 144.0
103.398979 180.0
103.446793 164.0
103.482788 148.0
103.503609 172.0
103.533417 124.0
103.553665 116.0
103.575951 88.0
103.597351 240.0
103.650909 32.0
103.666138 144.0
103.723877 220.0
103.752258 256.0
103.766449 92.0
103.78875 192.0
103.841484 124.0
103.867851 188.0
103.896248 164.0
103.93277 128.0
103.953773 160.0
103.979446 376.0
103.993652 152.0
104.050575 340.0
104.097198 204.0
104.133751 156.0
104.186569 144.0
104.238541 304.0
104.290207 188.0
104.381699 64.0
104.406097 156.0
104.428474 140.0
104.446777 160.0
104.497643 48.0
104.523018 156.0
104.565918 212.0
104.623825 248.0
104.64917 116.0
104.68026 224.0
104.770569 216.0
104.795784 196.0
104.823051 168.0
104.839745 136.0
104.858353 184.0
104.927391 172.0
104.943703 188.0
104.964096 148.0
104.988564 204.0
105.029358 196.0
105.069572 1320.0
105.133415 172.0
105.164032 236.0
105.195442 124.0
105.239563 72.0
105.301918 176.0
105.353943 132.0
105.382545 56.0
105.433479 156.0
105.496399 192.0
105.518204 172.0
105.538681 204.0
105.556297 260.0
105.574699 204.0
105.601662 152.0
105.619377 128.0
105.624069 204.0
105.641663 184.0
105.664703 272.0
105.724655 188.0
105.796738 140.0
105.827881 160.0
105.888748 152.0
105.930374 208.0
106.015144 112.0
106.064209 744.0
106.166565 128.0
106.239212 144.0
106.276024 164.0
106.295807 180.0
106.314278 164.0
106.344162 204.0
106.390221 64.0
106.421021 132.0
106.457985 168.0
106.472359 236.0
106.515335 104.0
106.55442 152.0
106.664589 220.0
106.694283 144.0
106.739517 84.0
106.776741 40.0
106.856766 216.0
106.949745 332.0
106.969955 180.0
106.991821 180.0
107.000175 112.0
107.007469 144.0
107.028664 148.0
107.04863 3172.0
107.068848 424.0
107.089256 128.0
107.127335 180.0
107.169731 116.0
107.194756 172.0
107.210945 160.0
107.297523 200.0
107.312325 112.0
107.425385 144.0
107.476967 156.0
107.490379 136.0
107.546516 80.0
107.574364 168.0
107.637978 68.0
107.664825 148.0
107.697868 64.0
107.712326 76.0
107.828041 192.0
107.857597 84.0
107.871445 152.0
107.896255 104.0
107.94381 204.0
107.965996 176.0
107.985176 184.0
108.021301 348.0
108.050148 616.0
108.078926 220.0
108.177612 148.0
108.200386 172.0
108.237656 248.0
108.269287 172.0
108.285294 100.0
108.363182 252.0
108.442757 144.0
108.479431 104.0
108.507019 220.0
108.552521 140.0
108.58123 168.0
108.606567 204.0
108.653099 148.0
108.694359 152.0
108.726059 152.0
108.766342 160.0
108.780556 156.0
108.786659 132.0
108.814301 200.0
108.888077 172.0
108.906105 156.0
108.951653 136.0
108.980255 184.0
109.026688 640.0
109.063858 564.0
109.108246 188.0
109.124245 204.0
109.153358 144.0
109.223495 120.0
109.260941 96.0
109.287567 164.0
109.301933 120.0
109.337936 112.0
109.354584 116.0
109.373505 176.0
109.3983 144.0
109.435776 156.0
109.469093 164.0
109.490623 224.0
109.546158 116.0
109.569077 88.0
109.61515 248.0
109.642685 160.0
109.677437 144.0
109.718971 156.0
109.723381 168.0
109.745041 132.0
109.767448 116.0
109.791359 188.0
109.840088 136.0
109.860954 244.0
109.884598 132.0
109.897034 176.0
109.937149 216.0
110.001816 180.0
110.011505 188.0
110.030571 112.0
110.065498 376.0
110.086632 200.0
110.132324 260.0
110.168564 120.0
110.198135 192.0
110.224251 148.0
110.295311 160.0
110.333565 148.0
110.337601 192.0
110.362213 112.0
110.376846 204.0
110.42495 216.0
110.443657 144.0
110.464691 120.0
110.516998 92.0
110.537926 132.0
110.565399 216.0
110.632111 112.0
110.654884 184.0
110.670227 176.0
110.711449 144.0
110.76651 172.0
110.7808 308.0
110.819077 164.0
110.875092 192.0
110.898148 116.0
110.914917 36.0
110.944855 300.0
111.045082 1500.0
111.076385 104.0
111.145256 160.0
111.168442 128.0
111.213005 148.0
111.270706 188.0
111.292206 192.0
111.298904 160.0
111.305542 196.0
111.33403 144.0
111.354164 284.0
111.420677 128.0
111.43959 156.0
111.519447 88.0
111.590919 188.0
111.609848 108.0
111.645523 172.0
111.669785 168.0
111.69397 332.0
111.725525 152.0
111.747887 196.0
111.76873 172.0
111.774834 92.0
111.785072 120.0
111.806816 196.0
111.856003 152.0
111.893898 140.0
111.923378 96.0
111.950752 204.0
111.976883 344.0
112.030792 108.0
112.046631 276.0
112.087677 36.0
112.125618 124.0
112.1548 176.0
112.197281 140.0
112.224693 144.0
112.279526 80.0
112.304634 172.0
112.347168 312.0
112.384537 164.0
112.424553 172.0
112.454643 156.0
112.492638 184.0
112.517975 52.0
112.585541 340.0
112.610657 148.0
112.636238 100.0
112.682716 136.0
112.699615 64.0
112.731316 80.0
112.754562 100.0
112.801064 144.0
112.875061 156.0
112.917358 164.0
112.959663 164.0
112.988579 192.0
113.050781 124.0
113.082771 164.0
113.166695 68.0
113.194641 192.0
113.21154 160.0
113.258141 124.0
113.312836 200.0
113.338646 72.0
113.378242 228.0
113.400101 456.0
113.423416 124.0
113.450981 176.0
113.510345 80.0
113.533676 120.0
113.56337 256.0
113.601547 176.0
113.631248 116.0
113.66732 156.0
113.689957 84.0
113.714012 132.0
113.741608 88.0
113.760712 124.0
113.786186 160.0
113.842293 188.0
113.869011 104.0
113.900612 100.0
113.947609 164.0
113.990105 164.0
114.017998 156.0
114.043823 188.0
114.111267 156.0
114.134476 192.0
114.1623 112.0
114.19207 124.0
114.217598 224.0
114.252342 280.0
114.263962 136.0
114.268036 164.0
114.283813 140.0
114.315254 160.0
114.381447 136.0
114.401321 204.0
114.436806 116.0
114.455963 152.0
114.504028 180.0
114.53051 348.0
114.55394 76.0
114.592285 260.0
114.626381 120.0
114.671135 208.0
114.710281 220.0
114.730644 192.0
114.73896 176.0
114.743507 160.0
114.769203 184.0
114.823647 188.0
114.834793 200.0
114.86731 132.0
114.909973 200.0
114.928009 136.0
114.946884 188.0
115.053848 1144.0
115.091408 120.0
115.110626 160.0
115.150726 36.0
115.164574 168.0
115.225967 188.0
115.266563 116.0
115.285797 92.0
115.314278 184.0
115.339233 80.0
115.375572 200.0
115.426895 104.0
115.467125 236.0
115.489517 184.0
115.50753 160.0
115.521782 220.0
115.564804 296.0
115.630127 116.0
115.647255 196.0
115.689941 140.0
115.706123 172.0
115.747879 188.0
115.769287 220.0
115.828926 152.0
115.859253 140.0
116.011414 176.0
116.052177 308.0
116.085335 236.0
116.135826 236.0
116.16153 108.0
116.204254 188.0
116.222832 392.0
116.275253 128.0
116.29924 136.0
116.340942 156.0
116.406212 116.0
116.42321 140.0
116.447235 160.0
116.464203 160.0
116.495819 184.0
116.515762 184.0
116.532944 168.0
116.582375 168.0
116.628517 304.0
116.683403 156.0
116.707054 152.0
116.742943 180.0
116.750961 124.0
116.756516 108.0
116.810287 156.0
116.849007 108.0
116.896347 48.0
116.91787 160.0
116.967377 212.0
116.986748 160.0
117.006126 164.0
117.03627 96.0
117.063576 316.0
117.163406 284.0
117.19297 192.0
117.242897 196.0
117.271095 68.0
117.299118 160.0
117.32283 92.0
117.373283 200.0
117.400452 168.0
117.422417 132.0
117.443588 40.0
117.480263 128.0
117.546875 180.0
117.570885 240.0
117.588158 64.0
117.605423 156.0
117.62178 152.0
117.651802 64.0
117.670341 164.0
117.701744 260.0
117.708298 160.0
117.717178 204.0
117.760887 168.0
117.788963 176.0
117.837326 324.0
117.879822 152.0
117.900627 212.0
117.92942 120.0
117.958519 104.0
117.966705 48.0
117.985924 124.0
118.012947 312.0
118.03212 208.0
118.065338 86472.0
118.107368 108.0
118.116188 148.0
118.1213 184.0
118.144943 72.0
118.170006 180.0
118.199394 136.0
118.216476 220.0
118.250916 144.0
118.273338 112.0
118.294991 72.0
118.319916 140.0
118.344788 200.0
118.384674 148.0
118.420052 696.0
118.440018 240.0
118.461258 144.0
118.481461 156.0
118.513412 176.0
118.560272 76.0
118.580017 112.0
118.609093 76.0
118.646454 172.0
118.705734 140.0
118.739189 140.0
118.756264 188.0
118.79776 120.0
118.849831 144.0
118.891716 132.0
118.919273 136.0
118.934471 48.0
118.9692 120.0
118.997307 72.0
119.06797 8660.0
119.089546 228.0
119.127739 140.0
119.154289 72.0
119.191956 144.0
119.218994 168.0
119.266563 140.0
119.28952 180.0
119.317787 116.0
119.34388 196.0
119.373161 188.0
119.411819 168.0
119.455193 216.0
119.501686 224.0
119.516571 152.0
119.551735 156.0
119.576294 252.0
119.599617 152.0
119.618034 196.0
119.643158 172.0
119.660461 152.0
119.690109 156.0
119.743217 148.0
119.785049 52.0
119.822021 188.0
119.866608 244.0
119.905739 596.0
119.930794 104.0
119.954178 252.0
119.98526 376.0
120.016945 240.0
120.021835 332.0
120.044777 110972.0
120.077736 444.0
120.081635 328.0
120.116898 52.0
120.123276 136.0
120.163742 84.0
120.177887 116.0
120.21064 220.0
120.242172 80.0
120.264984 160.0
120.284348 100.0
120.304344 88.0
120.33255 460.0
120.362541 332.0
120.402405 1268.0
120.438911 84.0
120.459984 120.0
120.480766 64.0
120.512268 56.0
120.537796 144.0
120.607292 108.0
120.614716 168.0
120.657654 136.0
120.676491 156.0
120.679832 140.0
120.738823 192.0
120.770561 108.0
120.784317 248.0
120.826065 52.0
120.854507 44.0
120.904839 108.0
120.920967 144.0
120.960152 184.0
120.990204 76.0
121.046341 8760.0
121.076775 312.0
121.111267 240.0
121.13324 256.0
121.166145 192.0
121.189262 184.0
121.220726 132.0
121.239708 332.0
121.258606 76.0
121.283752 44.0
121.318832 172.0
121.380424 136.0
121.406212 136.0
121.448212 288.0
121.494324 184.0
121.514023 164.0
121.55352 36.0
121.57766 36.0
121.595322 168.0
121.623749 60.0
121.639114 52.0
121.654488 68.0
121.681435 408.0
121.715065 216.0
121.723373 128.0
121.747742 220.0
121.773003 148.0
121.805931 164.0
121.840057 232.0
121.855515 244.0
121.884575 116.0
121.912148 156.0
121.9524 212.0
121.967003 188.0
121.986603 176.0
122.016891 92.0
122.048286 1008.0
122.109016 108.0
122.144539 352.0
122.186333 124.0
122.227127 156.0
122.249626 152.0
122.275047 128.0
122.305168 140.0
122.323502 156.0
122.341461 140.0
122.397636 40.0
122.441681 168.0
122.481285 188.0
122.514374 44.0
122.569458 152.0
122.621834 256.0
122.645798 188.0
122.72596 164.0
122.741394 160.0
122.78109 52.0
122.803146 100.0
122.844177 160.0
122.848183 96.0
122.87455 152.0
122.895805 188.0
122.911247 104.0
122.939941 56.0
122.98629 152.0
123.004738 180.0
123.043228 192.0
123.063095 152.0
123.094467 52.0
123.118759 180.0
123.15683 188.0
123.176193 160.0
123.216599 152.0
123.238373 192.0
123.271194 112.0
123.313187 160.0
123.336151 248.0
123.405258 216.0
123.441414 136.0
123.456894 196.0
123.483437 76.0
123.514404 136.0
123.534309 172.0
123.56971 68.0
123.658226 80.0
123.690071 160.0
123.706261 292.0
123.742065 156.0
123.81263 152.0
123.837578 152.0
123.870445 124.0
123.980408 128.0
124.009727 92.0
124.035835 128.0
124.094429 124.0
124.108124 160.0
124.147285 108.0
124.267647 216.0
124.316467 172.0
124.340881 176.0
124.385269 132.0
124.440239 216.0
124.476303 44.0
124.516273 164.0
124.535751 104.0
124.56292 100.0
124.579758 152.0
124.605133 176.0
124.62513 172.0
124.656235 120.0
124.674019 112.0
124.70192 72.0
124.74292 344.0
124.805176 196.0
124.825188 300.0
124.846672 140.0
124.949745 112.0
124.969772 112.0
125.023178 156.0
125.038757 44.0
125.077522 176.0
125.096634 84.0
125.121124 212.0
125.15007 252.0
125.288834 92.0
125.323807 180.0
125.401802 36.0
125.542267 128.0
125.635429 172.0
125.676109 100.0
125.702888 152.0
125.751572 108.0
125.774307 144.0
125.832352 132.0
125.91227 208.0
125.96196 120.0
125.986458 156.0
126.046783 140.0
126.06913 172.0
126.08815 192.0
126.149597 200.0
126.180412 148.0
126.259163 132.0
126.286003 120.0
126.359825 168.0
126.391151 52.0
126.420242 168.0
126.48291 132.0
126.541016 180.0
126.597534 144.0
126.627083 144.0
126.66877 192.0
126.686691 116.0
126.718056 164.0
126.744949 148.0
126.777557 196.0
126.793732 156.0
126.841316 172.0
126.868217 88.0
126.885696 156.0
126.926514 120.0
127.031013 156.0
127.053665 332.0
127.103729 400.0
127.189011 112.0
127.229424 152.0
127.2631 196.0
127.296783 124.0
127.37764 200.0
127.402351 112.0
127.463707 208.0
127.489983 88.0
127.513077 152.0
127.541679 144.0
127.559662 52.0
127.620361 224.0
127.694572 172.0
127.744064 108.0
127.793556 180.0
127.852066 132.0
127.89933 208.0
127.939857 152.0
127.955612 204.0
127.971375 48.0
128.009659 152.0
128.060852 1064.0
128.086227 356.0
128.109055 184.0
128.138351 148.0
128.162277 160.0
128.191299 164.0
128.216919 144.0
128.23848 156.0
128.300323 132.0
128.349472 160.0
128.417587 128.0
128.44014 172.0
128.478485 104.0
128.498398 160.0
128.536987 160.0
128.584549 116.0
128.636459 148.0
128.677094 148.0
128.72226 132.0
128.765167 52.0
128.783234 272.0
128.817123 52.0
128.839706 168.0
128.88942 136.0
128.915665 176.0
128.950272 208.0
129.040863 144.0
129.066284 804.0
129.13147 176.0
129.196915 128.0
129.271591 140.0
129.291962 384.0
129.337219 184.0
129.353073 124.0
129.373444 132.0
129.391556 140.0
129.428696 200.0
129.47081 96.0
129.531967 144.0
129.577271 72.0
129.597672 84.0
129.674713 132.0
129.692856 140.0
129.724594 204.0
129.779007 220.0
129.844467 184.0
129.878784 192.0
129.937775 64.0
130.035858 144.0
130.068649 288.0
130.101181 104.0
130.180649 92.0
130.205627 116.0
130.226074 100.0
130.37236 136.0
130.408112 140.0
130.449677 208.0
130.512421 156.0
130.592606 184.0
130.658569 172.0
130.708054 96.0
130.723984 132.0
130.744461 40.0
130.760391 112.0
130.83551 132.0
130.882309 160.0
130.91066 96.0
130.956207 144.0
130.988098 172.0
131.011871 128.0
131.045609 212.0
131.071487 144.0
131.146484 148.0
131.17952 116.0
131.202316 104.0
131.220551 36.0
131.242371 212.0
131.259918 152.0
131.289337 192.0
131.345016 148.0
131.361954 152.0
131.387039 60.0
131.462341 148.0
131.528534 104.0
131.546478 264.0
131.69751 108.0
131.715775 152.0
131.750046 216.0
131.772903 168.0
131.845016 160.0
131.876312 360.0
131.905441 144.0
131.948135 116.0
131.983185 104.0
132.052124 400.0
132.08136 432.0
132.150162 140.0
132.184479 144.0
132.214233 128.0
132.250107 172.0
132.285187 144.0
132.351593 168.0
132.398651 204.0
132.466095 92.0
132.542053 188.0
132.592392 136.0
132.656311 156.0
132.676941 176.0
132.702164 228.0
132.729675 100.0
132.751129 224.0
132.798477 120.0
132.865005 128.0
132.897842 368.0
132.93927 164.0
132.96138 188.0
132.979736 44.0
133.00499 200.0
133.023361 168.0
133.053238 396.0
133.114044 120.0
133.140457 232.0
133.160172 156.0
133.181793 96.0
133.220856 120.0
133.244705 136.0
133.263153 208.0
133.295868 192.0
133.347305 124.0
133.365616 148.0
133.387833 272.0
133.411591 180.0
133.56337 160.0
133.600174 72.0
133.625488 112.0
133.667999 140.0
133.729919 264.0
133.765869 56.0
133.795807 184.0
133.829636 184.0
133.870346 128.0
133.880737 144.0
133.917343 200.0
134.057037 156.0
134.106796 76.0
134.185165 100.0
134.201309 48.0
134.411224 140.0
134.448135 48.0
134.533554 196.0
134.60704 236.0
134.826904 92.0
134.859421 164.0
134.88237 176.0
134.958572 272.0
135.028046 252.0
135.0634 184.0
135.117081 204.0
135.185318 188.0
135.206192 272.0
135.221344 196.0
135.25943 136.0
135.346893 180.0
135.446991 108.0
135.650299 224.0
135.681061 220.0
135.70192 168.0
135.785416 188.0
135.842133 188.0
135.875885 184.0
135.950134 64.0
136.017441 208.0
136.03833 108.0
136.082443 96.0
136.154434 172.0
136.232254 80.0
136.291489 128.0
136.38446 164.0
136.419327 96.0
136.486755 92.0
136.545151 140.0
136.641647 176.0
136.74791 264.0
136.78688 164.0
136.838104 196.0
136.889328 160.0
136.954544 176.0
136.987152 164.0
137.112976 52.0
137.14328 136.0
137.178238 148.0
137.194565 208.0
137.273544 188.0
137.301819 156.0
137.341476 200.0
137.363602 164.0
137.390472 128.0
137.467468 148.0
137.489044 212.0
137.536865 180.0
137.602341 184.0
137.654587 128.0
137.709457 160.0
137.716385 104.0
137.741013 196.0
137.761353 216.0
137.794373 116.0
137.820068 156.0
137.851669 140.0
137.917007 176.0
137.993042 116.0
138.011749 232.0
138.063187 212.0
138.175537 148.0
138.194183 352.0
138.231628 124.0
138.262054 92.0
138.294815 168.0
138.422531 168.0
138.45871 108.0
138.594589 136.0
138.878571 120.0
138.945618 252.0
138.976791 148.0
139.00647 264.0
139.053894 140.0
139.105881 112.0
139.12851 180.0
139.246765 144.0
139.281998 56.0
139.439423 148.0
139.526398 40.0
139.568726 180.0
139.611053 112.0
139.632217 160.0
139.704163 128.0
139.742783 92.0
139.824265 172.0
139.848679 112.0
139.924561 120.0
139.946457 60.0
140.020569 228.0
140.04747 116.0
140.129456 140.0
140.167892 180.0
140.198685 172.0
140.21611 56.0
140.296265 128.0
140.348129 76.0
140.371948 80.0
140.377258 136.0
140.414169 228.0
140.463699 172.0
140.482574 132.0
140.522675 144.0
140.595825 252.0
140.635162 144.0
140.709137 184.0
140.734299 292.0
140.787064 120.0
140.815979 164.0
140.83786 164.0
140.945328 160.0
140.968964 156.0
141.035141 196.0
141.070892 1108.0
141.200653 172.0
141.238495 128.0
141.257416 124.0
141.285812 124.0
141.387558 148.0
141.4207 240.0
141.449097 132.0
141.499252 196.0
141.548538 56.0
141.586426 140.0
141.604843 124.0
141.650391 268.0
141.690659 152.0
141.71579 184.0
141.767761 148.0
141.797287 292.0
141.913452 204.0
141.935974 84.0
141.954849 44.0
141.998825 228.0
142.020432 180.0
142.073578 1576.0
142.096939 156.0
142.102203 76.0
142.134048 192.0
142.274094 108.0
142.363129 160.0
142.447449 72.0
142.473587 140.0
142.50209 220.0
142.518723 148.0
142.535355 136.0
142.566254 112.0
142.619034 176.0
142.682724 224.0
142.713638 152.0
142.735031 188.0
142.751678 140.0
142.804001 64.0
142.847687 164.0
142.956268 160.0
143.084366 652.0
143.116928 164.0
143.190826 92.0
143.213409 112.0
143.229416 164.0
143.24675 144.0
143.284866 108.0
143.315842 128.0
143.366623 208.0
143.384964 32.0
143.425476 80.0
143.518448 44.0
143.551834 292.0
143.56987 172.0
143.591919 164.0
143.599686 64.0
143.655029 136.0
143.675873 140.0
143.71405 168.0
143.737915 160.0
143.785645 88.0
143.826035 156.0
143.860779 152.0
143.88829 208.0
143.945251 168.0
143.993118 156.0
144.052109 484.0
144.078888 1608.0
144.119965 168.0
144.147186 124.0
144.191666 136.0
144.277359 212.0
144.297531 168.0
144.423584 168.0
144.483398 212.0
144.500137 124.0
144.539948 208.0
144.576721 148.0
144.605438 124.0
144.622192 80.0
144.679031 268.0
144.732315 176.0
144.763382 136.0
144.799377 60.0
144.820923 148.0
144.899979 152.0
144.931137 248.0
145.038757 320.0
145.064026 464.0
145.131348 168.0
145.171936 132.0
145.281189 152.0
145.316086 176.0
145.341171 120.0
145.357971 36.0
145.379562 148.0
145.434769 120.0
145.458145 184.0
145.485184 168.0
145.530792 328.0
145.600433 220.0
145.642517 116.0
145.742172 44.0
145.796875 204.0
145.826279 100.0
145.847916 52.0
145.864746 144.0
145.900208 128.0
145.947601 160.0
145.968124 184.0
145.992172 164.0
146.013824 48.0
146.040283 152.0
146.06633 216.0
146.218323 136.0
146.266678 232.0
146.288132 188.0
146.336288 120.0
146.362762 36.0
146.478378 56.0
146.49614 216.0
146.644775 184.0
146.667603 68.0
146.685226 220.0
146.701447 148.0
146.726593 40.0
146.778671 136.0
146.839935 180.0
146.905243 164.0
146.958145 116.0
147.027222 204.0
147.060394 140.0
147.084381 220.0
147.170547 88.0
147.189865 108.0
147.242996 128.0
147.303391 192.0
147.342041 152.0
147.385529 72.0
147.416946 308.0
147.465286 140.0
147.509689 164.0
147.545059 168.0
147.644196 132.0
147.690155 196.0
147.745789 188.0
147.815964 112.0
147.843506 156.0
147.878891 156.0
147.924881 96.0
147.978134 68.0
148.012039 92.0
148.072586 148.0
148.104065 148.0
148.122025 260.0
148.144272 128.0
148.150833 184.0
148.176743 96.0
148.220352 96.0
148.256714 128.0
148.276093 128.0
148.305191 200.0
148.342957 192.0
148.375488 92.0
148.392456 144.0
148.438354 108.0
148.574509 196.0
148.654434 164.0
148.751511 148.0
148.785507 132.0
148.819504 72.0
148.843781 204.0
148.875351 56.0
148.921494 140.0
148.945786 196.0
148.962784 132.0
148.99382 176.0
149.040543 72.0
149.081848 268.0
149.140182 156.0
149.186371 56.0
149.229843 204.0
149.29335 184.0
149.310379 104.0
149.327408 196.0
149.35173 224.0
149.383148 144.0
149.461212 132.0
149.651062 88.0
149.802063 160.0
149.853851 152.0
149.9702 152.0
149.999451 232.0
150.043335 164.0
150.077469 184.0
150.109177 168.0
150.129669 188.0
150.170151 120.0
150.401947 100.0
150.421478 84.0
150.487396 124.0
150.602173 156.0
150.670578 172.0
150.702332 128.0
150.768311 100.0
150.807419 92.0
150.861206 128.0
150.900314 228.0
150.934555 76.0
150.956558 224.0
150.97612 96.0
151.056 352.0
151.072662 204.0
151.100876 72.0
151.142471 156.0
151.260818 204.0
151.27562 120.0
151.328506 112.0
151.399521 176.0
151.419113 164.0
151.465546 196.0
151.526886 92.0
151.546494 336.0
151.614288 204.0
151.730072 164.0
151.743668 268.0
151.780029 132.0
151.821045 140.0
151.93634 128.0
151.977905 208.0
152.061172 4180.0
152.096405 232.0
152.125305 208.0
152.186676 168.0
152.23465 112.0
152.252365 236.0
152.276199 132.0
152.33609 160.0
152.393005 104.0
152.434784 168.0
152.458313 216.0
152.484848 184.0
152.508514 152.0
152.525711 140.0
152.557678 176.0
152.58226 96.0
152.604965 120.0
152.645218 212.0
152.691971 156.0
152.791321 156.0
152.838058 48.0
152.870712 196.0
152.893433 168.0
152.924194 152.0
152.999176 192.0
153.026016 212.0
153.06485 1784.0
153.098999 124.0
153.165512 292.0
153.192612 128.0
153.318268 124.0
153.355759 96.0
153.382355 144.0
153.404541 148.0
153.490082 104.0
153.546417 136.0
153.588699 100.0
153.608154 168.0
153.658569 128.0
153.74408 152.0
153.816223 140.0
153.836914 152.0
153.885635 316.0
153.939957 156.0
153.979477 60.0
154.011581 84.0
154.064102 520.0
154.106705 176.0
154.173019 236.0
154.23262 160.0
154.261169 176.0
154.278473 332.0
154.330399 60.0
154.37114 84.0
154.422958 224.0
154.451569 96.0
154.476318 144.0
154.497955 96.0
154.525787 300.0
154.577759 100.0
154.595078 200.0
154.619232 148.0
154.65448 180.0
154.703995 152.0
154.738647 128.0
154.825684 160.0
154.862473 212.0
154.892639 72.0
154.929352 136.0
154.96167 144.0
154.993774 160.0
155.009964 112.0
155.043869 244.0
155.072464 672.0
155.137527 84.0
155.167282 52.0
155.199509 152.0
155.229263 48.0
155.271423 48.0
155.34584 240.0
155.383057 104.0
155.405853 148.0
155.437103 184.0
155.512375 180.0
155.544373 136.0
155.574158 184.0
155.598984 124.0
155.633743 52.0
155.67099 192.0
155.723145 140.0
155.790222 192.0
155.810089 136.0
155.839905 156.0
155.906998 104.0
155.984055 136.0
156.016861 184.0
156.049484 200.0
156.079987 1360.0
156.138214 152.0
156.170547 60.0
156.203125 216.0
156.240204 144.0
156.265091 96.0
156.304901 112.0
156.327286 120.0
156.351547 212.0
156.543869 84.0
156.577393 96.0
156.608627 172.0
156.645996 124.0
156.670166 148.0
156.690292 184.0
156.726334 164.0
156.822922 128.0
156.850235 184.0
156.882736 188.0
156.933365 144.0
156.94812 216.0
157.024872 204.0
157.065964 424.0
157.090042 620.0
157.14212 148.0
157.219482 132.0
157.284378 100.0
157.314331 144.0
157.36676 136.0
157.443649 148.0
157.493134 292.0
157.534088 96.0
157.576569 80.0
157.641541 176.0
157.691849 184.0
157.801514 248.0
157.82402 68.0
157.876526 136.0
157.981583 144.0
158.057022 644.0
158.073929 300.0
158.089539 388.0
158.119217 92.0
158.158981 212.0
158.24939 100.0
158.276794 72.0
158.317001 176.0
158.354568 52.0
158.419693 212.0
158.590088 168.0
158.607635 160.0
158.672821 128.0
158.711716 320.0
158.784851 172.0
158.790848 116.0
158.799088 180.0
158.875961 204.0
158.950867 136.0
158.994095 100.0
159.029358 156.0
159.047165 180.0
159.066116 264.0
159.101837 148.0
159.119415 144.0
159.167114 128.0
159.244965 156.0
159.275116 156.0
159.350479 124.0
159.393204 112.0
159.418488 184.0
159.491211 172.0
159.519333 172.0
159.571655 196.0
159.594284 184.0
159.638977 208.0
159.693634 136.0
159.717529 60.0
159.737366 144.0
159.755264 156.0
159.810196 48.0
159.838287 132.0
159.858414 36.0
159.916306 188.0
159.951538 172.0
159.974197 188.0
159.991821 168.0
160.019424 220.0
160.070251 260.0
160.112686 152.0
160.190781 128.0
160.251236 96.0
160.392365 168.0
160.417587 292.0
160.445312 40.0
160.47052 140.0
160.520782 112.0
160.573914 124.0
160.599136 124.0
160.649597 176.0
160.695007 160.0
160.72023 36.0
160.765656 108.0
160.829987 180.0
160.888123 256.0
160.928436 188.0
161.001877 220.0
161.044647 88.0
161.102158 104.0
161.1259 356.0
161.151337 108.0
161.181549 116.0
161.199707 136.0
161.250565 156.0
161.30365 208.0
161.359268 112.0
161.394669 88.0
161.473068 136.0
161.571716 60.0
161.708939 212.0
161.728622 56.0
161.804565 40.0
161.832413 48.0
161.909363 56.0
161.946381 172.0
162.009705 116.0
162.049255 144.0
162.12085 208.0
162.149078 248.0
162.183777 116.0
162.225998 188.0
162.283432 152.0
162.334137 128.0
162.378021 80.0
162.420853 108.0
162.478134 172.0
162.549774 136.0
162.595459 52.0
162.676682 120.0
162.773163 168.0
162.789993 128.0
162.818878 120.0
162.844269 48.0
162.889999 116.0
162.994156 192.0
163.038757 176.0
163.058441 136.0
163.088196 48.0
163.146667 212.0
163.172089 176.0
163.205139 72.0
163.246811 260.0
163.296692 76.0
163.346237 260.0
163.385727 440.0
163.520599 228.0
163.538406 144.0
163.558777 152.0
163.617325 128.0
163.646667 124.0
163.701355 144.0
163.737015 200.0
163.772675 136.0
163.790497 168.0
163.813431 116.0
164.078018 204.0
164.085938 168.0
164.167725 176.0
164.208527 128.0
164.25946 132.0
164.306595 188.0
164.326981 240.0
164.389664 144.0
164.429047 132.0
164.453476 76.0
164.471329 148.0
164.511734 168.0
164.550476 148.0
164.652618 76.0
164.695969 152.0
164.770126 168.0
164.78801 112.0
164.811005 120.0
164.859558 92.0
164.89534 148.0
164.997589 140.0
165.04361 116.0
165.069305 3200.0
165.124771 76.0
165.132568 56.0
165.1595 128.0
165.178253 112.0
165.224854 200.0
165.250793 188.0
165.271271 236.0
165.303619 120.0
165.399231 112.0
165.4534 152.0
165.483719 112.0
165.51445 124.0
165.537491 148.0
165.605804 192.0
165.691177 56.0
165.725693 196.0
165.929535 152.0
165.960297 136.0
165.996201 160.0
166.037231 160.0
166.076538 1984.0
166.105209 104.0
166.13295 228.0
166.166946 204.0
166.203979 152.0
166.260437 104.0
166.359268 200.0
166.425812 172.0
166.460678 28.0
166.512909 196.0
166.581573 692.0
166.612228 172.0
166.63829 192.0
166.658478 52.0
166.704727 84.0
166.740707 92.0
166.807541 124.0
166.833252 188.0
166.851242 188.0
166.889969 132.0
166.979813 144.0
167.043884 128.0
167.084457 5644.0
167.111435 292.0
167.141891 136.0
167.170197 40.0
167.219101 180.0
167.26326 136.0
167.314346 124.0
167.463699 108.0
167.486893 356.0
167.513306 156.0
167.598953 132.0
167.6492 44.0
167.729309 264.0
167.750809 172.0
167.867569 136.0
167.927658 200.0
167.979248 156.0
168.028259 180.0
168.081329 2876.0
168.125885 192.0
168.19342 40.0
168.255386 212.0
168.280228 256.0
168.360687 92.0
168.389664 196.0
168.412857 184.0
168.521072 152.0
168.540298 168.0
168.588593 208.0
168.65062 116.0
168.681641 164.0
168.759201 92.0
168.778061 124.0
168.862656 168.0
168.911789 128.0
168.939758 212.0
168.968994 180.0
168.993423 164.0
169.023041 116.0
169.064133 1240.0
169.087891 1612.0
169.137268 60.0
169.181717 144.0
169.208801 68.0
169.380341 100.0
169.406998 136.0
169.447693 156.0
169.476196 152.0
169.552521 176.0
169.61615 156.0
169.680954 220.0
169.704285 136.0
169.735413 32.0
169.771713 144.0
169.789871 132.0
169.861893 312.0
169.891022 128.0
169.911789 192.0
169.963684 372.0
170.005203 144.0
170.072113 940.0
170.097641 1336.0
170.235199 208.0
170.276367 196.0
170.330963 224.0
170.413712 88.0
170.51944 60.0
170.549347 180.0
170.60762 104.0
170.685135 216.0
170.73262 204.0
170.798019 172.0
170.83223 124.0
170.883499 144.0
170.900146 100.0
170.979782 152.0
171.031845 128.0
171.082382 796.0
171.182846 52.0
171.214096 160.0
171.287033 120.0
171.386032 140.0
171.422516 56.0
171.472031 36.0
171.500702 120.0
171.55545 128.0
171.60498 92.0
171.727554 112.0
171.748413 164.0
171.771896 132.0
171.843719 196.0
171.872757 176.0
171.899734 164.0
171.94191 200.0
172.029465 120.0
172.07962 536.0
172.189285 168.0
172.246994 172.0
172.287918 108.0
172.348877 120.0
172.401154 152.0
172.479553 148.0
172.6091 172.0
172.65213 52.0
172.759369 132.0
172.806458 196.0
172.882797 164.0
172.908524 136.0
172.939651 112.0
172.994904 292.0
173.030807 244.0
173.088287 228.0
173.1185 304.0
173.221268 100.0
173.30658 136.0
173.330521 144.0
173.353745 124.0
173.400909 148.0
173.461197 152.0
173.482254 128.0
173.512177 208.0
173.57132 100.0
173.629013 140.0
173.655243 100.0
173.700653 128.0
173.720825 228.0
173.854645 344.0
173.875641 148.0
173.90976 68.0
173.967514 188.0
174.059402 192.0
174.094727 160.0
174.120316 164.0
174.181763 212.0
174.202316 232.0
174.302353 148.0
174.408829 160.0
174.43512 184.0
174.519241 112.0
174.598145 188.0
174.642853 152.0
174.703354 224.0
174.774399 164.0
174.792816 244.0
174.882294 148.0
174.970657 176.0
175.054398 168.0
175.082397 148.0
175.10083 212.0
175.2724 128.0
175.3116 196.0
175.401215 216.0
175.422302 244.0
175.616684 296.0
175.667557 136.0
175.712616 48.0
175.836426 96.0
175.971054 64.0
176.034164 200.0
176.059128 416.0
176.091904 216.0
176.124237 156.0
176.163849 204.0
176.301254 124.0
176.375259 128.0
176.492279 212.0
176.554108 156.0
176.657913 144.0
176.771988 60.0
176.802658 188.0
176.875214 104.0
176.909622 108.0
176.946686 40.0
176.985031 192.0
177.069199 1324.0
177.131577 240.0
177.185059 28.0
177.214203 180.0
177.264542 172.0
177.327103 152.0
177.386475 128.0
177.463348 144.0
177.57663 184.0
177.595947 224.0
177.664917 84.0
177.702072 196.0
177.932983 284.0
178.009064 196.0
178.025848 160.0
178.074997 776.0
178.105591 304.0
178.166702 132.0
178.195923 128.0
178.238358 144.0
178.270325 188.0
178.311966 48.0
178.343582 128.0
178.368591 140.0
178.397903 136.0
178.4245 140.0
178.448425 96.0
178.496277 228.0
178.534775 160.0
178.641098 180.0
178.741013 212.0
178.778275 120.0
178.832855 144.0
178.858124 40.0
178.900711 216.0
178.953964 196.0
178.983917 156.0
179.043777 220.0
179.073471 952.0
179.124405 180.0
179.249634 196.0
179.300751 220.0
179.379089 112.0
179.40155 188.0
179.465546 140.0
179.497543 172.0
179.525406 148.0
179.545547 184.0
179.596222 136.0
179.713608 132.0
179.750961 148.0
179.772308 100.0
179.887085 300.0
179.941757 176.0
179.983917 152.0
180.079269 2804.0
180.127426 44.0
180.170166 208.0
180.211548 164.0
180.24765 152.0
180.271713 148.0
180.362915 156.0
180.469513 160.0
180.547134 148.0
180.573807 160.0
180.675461 172.0
180.694199 144.0
180.715591 68.0
180.742355 180.0
180.815216 140.0
180.849411 52.0
180.873489 48.0
180.914719 160.0
181.082611 792.0
181.154678 44.0
181.173431 120.0
181.209946 184.0
181.253815 56.0
181.355652 324.0
181.37709 124.0
181.414627 172.0
181.448441 248.0
181.485596 208.0
181.551376 96.0
181.62648 56.0
181.73378 160.0
181.819962 144.0
181.867966 156.0
181.921661 232.0
181.940445 36.0
181.959244 88.0
181.987656 164.0
182.023682 120.0
182.065781 168.0
182.095261 1748.0
182.125641 204.0
182.170166 96.0
182.222839 224.0
182.277771 184.0
182.365173 76.0
182.445526 148.0
182.55748 76.0
182.606873 64.0
182.636459 64.0
182.711792 60.0
182.738693 200.0
182.757416 196.0
182.919006 212.0
182.951218 156.0
183.013245 248.0
183.034775 120.0
183.070892 3084.0
183.226013 148.0
183.25296 120.0
183.27182 176.0
183.325714 96.0
183.358337 196.0
183.38501 72.0
183.403885 160.0
183.430832 236.0
183.455093 92.0
183.492844 140.0
183.54332 144.0
183.571045 100.0
183.591415 156.0
183.635941 128.0
183.678925 148.0
183.726242 104.0
183.819107 96.0
183.845245 228.0
183.932587 112.0
183.981171 228.0
184.021667 60.0
184.087173 15088.0
184.155228 176.0
184.165207 80.0
184.173721 188.0
184.22377 156.0
184.241379 220.0
184.267456 216.0
184.347565 124.0
184.392639 148.0
184.429596 92.0
184.459335 92.0
184.537857 180.0
184.559174 164.0
184.591827 132.0
184.707657 116.0
184.751404 188.0
184.773041 180.0
184.825623 148.0
184.877014 104.0
184.920258 100.0
184.959778 124.0
185.022842 148.0
185.054535 48.0
185.093796 2728.0
185.171371 84.0
185.206192 144.0
185.254944 72.0
185.304352 256.0
185.363327 188.0
185.405151 212.0
185.444641 192.0
185.489166 152.0
185.515106 52.0
185.559814 140.0
185.630112 136.0
185.671356 168.0
185.733337 380.0
185.776779 148.0
185.838791 116.0
185.894852 72.0
185.919266 60.0
185.97084 136.0
185.992157 236.0
186.019699 228.0
186.049561 60.0
186.090271 424.0
186.13916 152.0
186.193802 168.0
186.222229 348.0
186.246613 156.0
186.314194 100.0
186.345001 128.0
186.431305 208.0
186.471512 168.0
186.497787 68.0
186.527695 152.0
186.573837 176.0
186.614685 84.0
186.693619 148.0
186.75882 64.0
186.822144 196.0
186.866425 124.0
186.973236 184.0
186.992813 96.0
187.048187 200.0
187.096802 160.0
187.134048 132.0
187.210617 160.0
187.240585 88.0
187.267822 160.0
187.358841 260.0
187.390411 52.0
187.475769 200.0
187.545746 180.0
187.64389 172.0
187.671143 120.0
187.695694 184.0
187.862061 72.0
187.912598 104.0
187.958603 168.0
187.990311 100.0
188.029846 172.0
188.088562 176.0
188.201324 252.0
188.23053 260.0
188.263306 256.0
188.366394 200.0
188.391678 188.0
188.462723 68.0
188.500977 172.0
188.533768 128.0
188.572037 96.0
188.755203 80.0
188.834518 152.0
188.891953 156.0
188.930252 104.0
189.083496 80.0
189.11087 148.0
189.209412 220.0
189.294296 292.0
189.360031 128.0
189.43399 212.0
189.46138 116.0
189.562759 168.0
189.61026 216.0
189.662598 160.0
189.718994 108.0
189.740921 152.0
189.76976 148.0
189.812225 160.0
189.858841 84.0
189.879379 112.0
189.92627 164.0
189.957581 228.0
189.979446 136.0
190.026169 124.0
190.0616 164.0
190.068298 124.0
190.077332 276.0
190.100266 172.0
190.207932 192.0
190.264954 56.0
190.361053 140.0
190.421478 188.0
190.457596 160.0
190.486481 192.0
190.535629 180.0
190.546524 100.0
190.554001 132.0
190.601288 132.0
190.645126 108.0
190.680618 164.0
190.70723 176.0
190.726471 132.0
190.75946 144.0
190.786438 236.0
190.819946 168.0
190.84697 160.0
190.876236 252.0
191.014984 248.0
191.045456 152.0
191.075745 412.0
191.111374 184.0
191.158279 128.0
191.250565 244.0
191.319611 64.0
191.389511 40.0
191.454025 164.0
191.571289 124.0
191.596069 180.0
191.68782 148.0
191.70845 200.0
191.739655 180.0
191.882706 148.0
191.993011 248.0
192.059036 160.0
192.083344 768.0
192.14473 80.0
192.164032 172.0
192.21228 224.0
192.26709 208.0
192.321335 172.0
192.540054 116.0
192.57695 216.0
192.607941 192.0
192.628464 364.0
192.81575 164.0
192.857208 164.0
192.88208 168.0
192.901093 160.0
192.909653 92.0
192.919861 204.0
192.970551 180.0
193.086594 1248.0
193.151672 324.0
193.238846 168.0
193.371674 56.0
193.429794 32.0
193.457321 144.0
193.617615 216.0
193.719299 148.0
193.737564 200.0
193.759354 344.0
193.826508 152.0
193.925629 288.0
193.968018 136.0
193.978851 40.0
193.988617 144.0
194.006012 224.0
194.024353 156.0
194.09494 6260.0
194.204514 124.0
194.248398 120.0
194.316635 180.0
194.475952 88.0
194.517761 176.0
194.608078 120.0
194.630295 120.0
194.660843 64.0
194.691193 232.0
194.723389 76.0
194.789993 160.0
194.869171 184.0
194.951065 212.0
195.041031 100.0
195.07988 4208.0
195.163803 76.0
195.211075 72.0
195.259796 116.0
195.328003 136.0
195.39743 168.0
195.416916 152.0
195.436386 184.0
195.475342 88.0
195.533783 164.0
195.578323 76.0
195.60228 184.0
195.662979 192.0
195.71196 96.0
195.815002 92.0
195.859558 152.0
195.890198 132.0
195.94429 280.0
195.986664 316.0
195.994186 168.0
196.005127 288.0
196.016037 204.0
196.033691 256.0
196.075668 31844.0
196.144516 336.0
196.168884 32.0
196.199539 212.0
196.219055 60.0
196.297134 112.0
196.358887 200.0
196.381638 188.0
196.402145 92.0
196.435013 68.0
196.470154 140.0
196.536163 180.0
196.556015 68.0
196.584473 100.0
196.618866 272.0
196.672882 308.0
196.710068 52.0
196.746216 196.0
196.818954 180.0
196.875748 224.0
196.943588 148.0
196.978149 36.0
197.007263 152.0
197.081512 16740.0
197.175934 168.0
197.221268 108.0
197.240829 48.0
197.291153 68.0
197.313522 40.0
197.364487 160.0
197.384644 56.0
197.405792 144.0
197.450531 36.0
197.486893 132.0
197.540039 64.0
197.579849 148.0
197.604401 88.0
197.63237 88.0
197.671555 180.0
197.693939 124.0
197.733765 140.0
197.808701 80.0
197.863159 256.0
197.884277 104.0
197.912277 144.0
197.976685 64.0
198.013107 112.0
198.046646 212.0
198.088272 3236.0
198.136108 92.0
198.167175 156.0
198.192398 72.0
198.227097 136.0
198.273666 96.0
198.312973 100.0
198.346542 60.0
198.385788 120.0
198.423416 132.0
198.474274 136.0
198.506348 108.0
198.563431 160.0
198.65126 364.0
198.684647 332.0
198.711121 76.0
198.765228 172.0
198.784073 124.0
198.821152 152.0
198.84581 96.0
198.897293 164.0
198.918335 220.0
198.949677 80.0
198.975494 184.0
199.011444 160.0
199.056366 56.0
199.097626 3104.0
199.188385 172.0
199.213669 168.0
199.24176 80.0
199.286713 156.0
199.318939 280.0
199.34938 132.0
199.399216 124.0
199.45253 168.0
199.491882 76.0
199.556015 212.0
199.587479 108.0
199.60997 184.0
199.645432 196.0
199.682999 120.0
199.698624 244.0
199.730911 64.0
199.795609 32.0
199.818115 108.0
199.837814 120.0
199.860321 136.0
199.901276 160.0
199.947556 60.0
199.99823 116.0
200.017929 176.0
200.100876 448.0
200.237549 36.0
200.314178 168.0
200.344589 76.0
200.367142 156.0
200.456924 212.0
200.550308 144.0
200.577011 160.0
200.620789 136.0
200.67717 216.0
200.747665 128.0
200.792786 84.0
200.820999 84.0
200.884216 116.0
200.914078 140.0
200.973343 72.0
201.067719 180.0
201.100372 252.0
201.208496 164.0
201.269714 48.0
201.316025 180.0
201.388336 128.0
201.408112 96.0
201.444519 208.0
201.535355 200.0
201.685028 156.0
201.733307 100.0
201.798111 136.0
201.831879 140.0
201.881409 164.0
201.914047 156.0
201.959305 132.0
202.040771 256.0
202.07341 732.0
202.117737 156.0
202.187637 264.0
202.225281 156.0
202.245087 164.0
202.349838 76.0
202.423462 44.0
202.542419 28.0
202.562241 152.0
202.620361 116.0
202.653885 208.0
202.703247 172.0
202.842789 80.0
202.956192 56.0
203.056549 180.0
203.085342 144.0
203.337341 108.0
203.384583 56.0
203.512344 80.0
203.552094 132.0
203.60321 140.0
203.715546 212.0
203.756607 172.0
203.878799 116.0
203.937775 168.0
204.030167 188.0
204.085556 168.0
204.123505 148.0
204.191528 268.0
204.217133 136.0
204.325226 136.0
204.390671 64.0
204.447586 108.0
204.475143 128.0
204.518738 208.0
204.550049 172.0
204.604141 148.0
204.644012 80.0
204.695267 168.0
204.777847 120.0
204.806335 72.0
204.841919 100.0
204.86615 160.0
204.946793 160.0
205.008621 96.0
205.078323 336.0
205.151138 92.0
205.192062 228.0
205.316528 52.0
205.3479 140.0
205.384979 140.0
205.433472 156.0
205.50766 132.0
205.55957 132.0
205.604675 72.0
205.674606 88.0
205.701721 160.0
205.76738 88.0
205.794281 124.0
205.86882 92.0
205.915878 96.0
205.973007 164.0
206.015854 160.0
206.069168 428.0
206.090698 284.0
206.124329 116.0
206.234741 236.0
206.275909 36.0
206.310211 112.0
206.364548 160.0
206.387421 100.0
206.418869 112.0
206.451462 204.0
206.520187 132.0
206.58374 112.0
206.653427 116.0
206.693161 208.0
206.805099 160.0
206.836594 236.0
206.859497 128.0
207.071396 456.0
207.1091 236.0
207.183105 44.0
207.228943 212.0
207.248337 140.0
207.283813 188.0
207.360764 124.0
207.383698 180.0
207.429276 120.0
207.438156 108.0
207.495499 36.0
207.598724 132.0
207.621674 156.0
207.641739 88.0
207.699753 168.0
207.765701 408.0
207.802383 116.0
207.833954 256.0
207.927811 244.0
207.957352 144.0
208.013931 188.0
208.043472 60.0
208.075058 156.0
208.098999 268.0
208.152573 132.0
208.23587 324.0
208.323608 164.0
208.333008 240.0
208.416855 124.0
208.468582 172.0
208.557678 100.0
208.603668 164.0
208.629547 64.0
208.649658 172.0
208.693039 184.0
208.744553 52.0
208.767563 76.0
208.834915 228.0
208.869995 324.0
208.919418 188.0
208.943024 244.0
208.97052 172.0
208.998886 192.0
209.047745 304.0
209.081818 204.0
209.107758 464.0
209.196289 60.0
209.222198 112.0
209.24234 172.0
209.262497 76.0
209.406494 60.0
209.429535 232.0
209.469864 144.0
209.541885 132.0
209.590866 36.0
209.666824 324.0
209.706543 116.0
209.734741 148.0
209.763794 156.0
209.801086 188.0
209.8116 144.0
209.853165 52.0
209.885712 56.0
209.972107 236.0
210.00856 236.0
210.015778 352.0
210.090073 14440.0
210.176224 204.0
210.19931 160.0
210.223572 128.0
210.249985 100.0
210.334229 172.0
210.360291 204.0
210.393616 152.0
210.419174 136.0
210.499527 360.0
210.574097 112.0
210.627502 412.0
210.659592 256.0
210.695023 312.0
210.727417 148.0
210.770554 68.0
210.778915 56.0
210.789795 108.0
210.85408 488.0
210.890213 88.0
210.921356 152.0
210.957245 116.0
211.00563 332.0
211.033676 136.0
211.064438 244.0
211.094864 3320.0
211.126999 304.0
211.161346 132.0
211.193024 228.0
211.24852 268.0
211.273041 236.0
211.303986 320.0
211.334122 344.0
211.368927 304.0
211.41185 260.0
211.448196 408.0
211.477448 128.0
211.512939 156.0
211.555695 260.0
211.591583 468.0
211.623611 144.0
211.633759 260.0
211.645905 184.0
211.652115 128.0
211.681503 296.0
211.689743 104.0
211.701218 136.0
211.726059 148.0
211.76152 528.0
211.803299 284.0
211.859695 292.0
211.884995 292.0
211.912369 168.0
211.97467 404.0
211.979523 404.0
211.994812 616.0
212.029129 648.0
212.061035 864.0
212.107895 367252.0
212.177078 124.0
212.198624 164.0
212.221451 180.0
212.263 280.0
212.298843 200.0
212.338852 196.0
212.376007 584.0
212.392517 452.0
212.426392 136.0
212.434631 344.0
212.463791 284.0
212.500992 168.0
212.511536 236.0
212.551392 572.0
212.58461 10596.0
212.611526 204.0
212.616226 248.0
212.659775 312.0
212.686935 192.0
212.723175 300.0
212.750092 104.0
212.785065 212.0
212.827606 124.0
212.860519 488.0
212.885422 180.0
212.89032 164.0
212.901871 248.0
212.931213 248.0
212.986557 120.0
213.019073 216.0
213.058395 204.0
213.109924 102260.0
213.186325 40.0
213.19696 104.0
213.229782 88.0
213.25676 64.0
213.27771 64.0
213.296616 208.0
213.342834 232.0
213.368607 132.0
213.403427 120.0
213.440369 96.0
213.461426 168.0
213.499084 236.0
213.523438 88.0
213.536484 100.0
213.54805 180.0
213.555542 180.0
213.585754 228.0
213.615494 108.0
213.676102 60.0
213.702026 60.0
213.746582 192.0
213.778976 140.0
213.802612 176.0
213.850784 80.0
213.879517 132.0
213.917542 52.0
213.944901 104.0
213.966415 228.0
213.997513 188.0
214.034119 80.0
214.074158 268.0
214.111343 5892.0
214.174438 148.0
214.196304 140.0
214.233307 88.0
214.258881 188.0
214.284637 40.0
214.310135 184.0
214.363495 212.0
214.369797 164.0
214.40831 316.0
214.441528 236.0
214.485703 252.0
214.537247 224.0
214.582474 284.0
214.625412 220.0
214.663666 168.0
214.737808 160.0
214.776489 260.0
214.80162 128.0
214.82196 380.0
214.864655 228.0
214.925507 112.0
214.951782 236.0
215.046326 44.0
215.081558 400.0
215.110733 244.0
215.135742 172.0
215.19426 68.0
215.21434 56.0
215.25029 88.0
215.300049 284.0
215.323441 144.0
215.381851 72.0
215.451965 108.0
215.513321 40.0
215.538162 96.0
215.559952 92.0
215.59346 104.0
215.614502 104.0
215.633698 148.0
215.662201 124.0
215.699203 172.0
215.738739 64.0
215.791245 152.0
215.827744 92.0
215.860916 100.0
215.916748 60.0
215.947739 120.0
215.972321 60.0
216.085464 100.0
216.150787 60.0
216.1931 88.0
216.319336 124.0
216.374466 72.0
216.411301 52.0
216.446442 44.0
216.605972 76.0
216.637238 220.0
216.777451 52.0
216.810974 156.0
216.874176 80.0
216.930115 48.0
217.038345 36.0
217.09108 212.0
217.120468 28.0
217.176193 56.0
217.199661 88.0
217.255386 80.0
217.325806 76.0
217.352219 32.0
217.39624 52.0
217.4608 44.0
217.516571 112.0
217.610519 156.0
217.819031 36.0
217.842545 40.0
218.045288 120.0
218.068756 200.0
218.097946 424.0
218.245193 108.0
218.277542 36.0
218.298126 44.0
218.345169 40.0
218.409882 84.0
218.468719 48.0
218.824844 44.0
218.845444 92.0
219.030991 80.0
219.08197 668.0
219.127502 100.0
219.166504 60.0
219.694275 44.0
219.720825 96.0
219.838852 76.0
220.024811 52.0
220.045486 212.0
220.083847 536.0
220.216766 40.0
220.32016 52.0
220.355606 68.0
220.46199 100.0
220.583176 84.0
220.78952 112.0
220.828598 92.0
221.081223 1084.0
221.225113 104.0
221.251755 80.0
221.361313 44.0
221.405731 128.0
221.437408 104.0
221.539032 68.0
221.568665 124.0
221.701843 72.0
221.818695 108.0
221.9095 96.0
222.086609 840.0
222.197205 72.0
222.223907 56.0
222.318863 72.0
222.346359 76.0
222.372284 56.0
222.46994 80.0
222.529617 56.0
222.580093 44.0
222.606827 64.0
222.639496 48.0
222.666214 208.0
222.71077 64.0
222.743454 68.0
222.799896 72.0
222.841492 68.0
222.862289 96.0
222.937698 96.0
222.994385 116.0
223.043579 116.0
223.095795 1748.0
223.189255 112.0
223.230881 100.0
223.379608 100.0
223.433151 68.0
223.456955 160.0
223.492661 140.0
223.516464 268.0
223.590866 68.0
223.613083 224.0
223.677185 116.0
223.712906 60.0
223.787338 164.0
223.814133 88.0
223.906448 88.0
223.983902 104.0
224.097275 564.0
224.216309 64.0
224.246109 56.0
224.296783 92.0
224.469711 72.0
224.523392 60.0
224.577072 96.0
224.789749 112.0
224.914261 88.0
225.009781 32.0
225.084595 148.0
225.106689 176.0
225.293518 64.0
225.32637 88.0
225.359238 96.0
225.407043 132.0
225.436935 68.0
225.562469 56.0
225.646179 48.0
225.708679 136.0
225.744858 44.0
225.822617 88.0
225.966202 76.0
226.052979 92.0
226.262177 36.0
226.32225 84.0
226.382278 68.0
226.46315 128.0
226.588959 96.0
226.60994 64.0
226.678864 44.0
226.765762 68.0
226.872437 128.0
226.910034 32.0
226.936646 76.0
226.957642 44.0
227.00351 80.0
227.055466 148.0
227.119583 88.0
227.179581 52.0
227.209579 88.0
227.36261 72.0
227.623795 100.0
227.807007 80.0
227.936203 164.0
227.969269 48.0
228.014343 108.0
228.375153 52.0
228.427628 36.0
228.489456 40.0
228.944 28.0
229.037369 92.0
229.166901 100.0
229.188004 80.0
229.215118 88.0
229.441177 72.0
229.564804 56.0
229.625122 96.0
229.670364 72.0
229.766907 56.0
229.824234 56.0
230.177399 96.0
230.52179 72.0
230.957153 68.0
231.017654 52.0
231.090271 108.0
231.374771 80.0
231.395966 52.0
231.444412 52.0
231.465607 72.0
231.910965 80.0
232.104996 104.0
232.472046 92.0
232.742218 60.0
232.763474 32.0
232.848511 176.0
232.933563 156.0
233.07988 152.0
233.359039 56.0
233.614517 124.0
233.879257 52.0
234.083008 148.0
234.110657 132.0
234.150253 84.0
234.18985 124.0
234.308655 48.0
234.482346 28.0
234.759781 100.0
234.872635 52.0
235.103683 328.0
235.463425 164.0
235.843658 84.0
236.106293 1176.0
236.186127 164.0
236.235062 32.0
236.296249 48.0
236.32991 36.0
236.639053 72.0
236.737045 32.0
236.776855 200.0
236.923889 32.0
237.102249 752.0
237.144531 164.0
237.435791 64.0
237.457275 76.0
237.647461 40.0
238.031158 56.0
238.064941 144.0
238.107773 2268.0
238.187805 28.0
238.261536 56.0
238.335266 36.0
238.399811 44.0
238.596527 52.0
238.688766 100.0
238.774887 80.0
239.116501 3548.0
239.527649 100.0
239.698456 56.0
239.797073 40.0
239.935791 116.0
240.120636 424.0
240.165207 112.0
240.312073 160.0
240.821457 48.0
240.941925 180.0
241.062439 144.0
241.114975 172.0
242.389999 56.0
242.470581 36.0
243.010162 108.0
243.463379 52.0
243.705673 96.0
244.305725 60.0
244.817764 56.0
245.146423 64.0
245.645309 100.0
246.850922 112.0
247.11055 124.0
247.533127 48.0
248.028152 56.0
248.102859 200.0
249.101807 252.0
250.107834 60.0
250.400436 48.0
250.564255 64.0
250.828964 156.0
251.00238 48.0
251.030762 180.0
251.115906 136.0
252.100952 104.0
253.224091 100.0
253.44252 80.0
254.371948 80.0
255.423782 44.0
255.840668 80.0
256.069946 96.0
256.378998 76.0
256.860443 72.0
257.32959 48.0
258.086853 124.0
259.155945 44.0
259.306549 72.0
260.018585 88.0
260.140564 96.0
262.021942 96.0
264.120331 156.0
264.903717 68.0
265.135773 372.0
265.587708 88.0
266.138489 168.0
267.579834 84.0
268.769531 92.0
269.8703 124.0
270.475555 88.0
270.852112 28.0
271.025757 76.0
272.558167 68.0
272.68631 52.0
273.446106 112.0
273.56131 84.0
274.091583 92.0
274.582794 60.0
275.355103 100.0
276.95929 48.0
277.181274 32.0
277.791321 52.0
278.468475 44.0
278.814026 60.0
279.965149 60.0
280.160126 236.0
280.308258 52.0
281.168671 48.0
281.612732 84.0
282.159454 1224.0
282.237701 128.0
282.582214 88.0
283.08432 88.0
283.161346 112.0
283.208252 52.0
283.258484 108.0
284.016052 44.0
284.163666 152.0
285.063568 92.0
285.181213 92.0
285.204742 164.0
285.923889 104.0
286.126495 140.0
286.537384 44.0
288.295441 108.0
289.107086 92.0
291.378998 76.0
291.477539 84.0
292.995087 48.0
294.608795 128.0
295.01889 80.0
295.135132 76.0
295.419006 88.0
297.173157 60.0
297.725861 100.0
298.636658 68.0
298.743286 92.0
301.038849 76.0
302.563751 52.0
303.124878 52.0
303.391754 96.0
304.02652 64.0
304.290344 148.0
305.252838 108.0
308.145996 72.0
308.22287 76.0
308.488495 84.0
308.568909 68.0
308.736755 60.0
309.958527 120.0
310.12323 84.0
310.58609 80.0
310.880798 48.0
312.352966 68.0
312.740051 36.0
312.859741 64.0
313.162567 76.0
314.382477 56.0
315.173492 108.0
315.247681 108.0
318.418518 128.0
319.790955 60.0
319.879944 72.0
323.274323 140.0
324.151672 128.0
324.750397 48.0
325.317383 84.0
325.421509 84.0
326.255035 64.0
327.619019 96.0
328.491425 52.0
328.941467 136.0
329.661285 88.0
330.865784 88.0
331.724396 48.0
331.815033 88.0
331.869415 64.0
332.14505 96.0
332.667603 64.0
334.070374 68.0
334.984131 56.0
335.188171 60.0
335.705811 76.0
336.169128 56.0
336.851898 120.0
336.983429 64.0
337.374481 84.0
338.713867 60.0
339.072937 84.0
339.142578 56.0
339.751312 76.0
341.492523 68.0
341.952454 100.0
344.496796 88.0
344.640869 92.0
344.777618 92.0
345.432068 88.0
345.476471 40.0
347.922485 112.0
348.104401 96.0
349.729126 124.0
351.148743 108.0
351.193512 60.0
351.301666 92.0
351.353912 116.0
352.234955 40.0
352.339539 76.0
352.436676 100.0
353.221802 72.0
353.667114 48.0
355.300995 76.0
356.171936 60.0
357.348633 44.0
357.600769 92.0
357.668518 88.0
358.779846 100.0
359.915527 72.0
360.553955 76.0
360.595551 52.0
360.70517 128.0
361.893127 76.0
363.921692 124.0
364.590271 116.0
368.610809 132.0
368.687225 52.0
369.142151 116.0
371.466064 108.0
371.628204 56.0
372.146362 76.0
373.495331 124.0
374.176483 52.0
374.253479 112.0
374.342041 44.0
377.746307 88.0
378.206818 92.0
378.706299 108.0
379.310791 100.0
379.372803 108.0
379.520142 68.0
379.826538 60.0
380.284393 92.0
380.373688 52.0
380.447449 52.0
380.897919 76.0
381.570251 60.0
384.324005 116.0
385.831635 120.0
386.512207 36.0
389.20517 100.0
390.970245 64.0
391.950836 40.0
395.161011 44.0
395.445923 132.0
396.868134 72.0
399.306488 132.0
400.034668 64.0
401.879974 84.0
402.039581 120.0
402.510651 76.0
404.249573 76.0
404.509735 92.0
405.2146 76.0
406.907166 100.0
407.686462 148.0
408.233185 52.0
409.247253 108.0
411.977753 44.0
413.220764 80.0
417.039062 76.0
418.092468 116.0
418.666534 116.0
418.923126 92.0
420.889038 36.0
421.80011 44.0
422.597626 84.0
423.252533 48.0
424.760773 60.0
429.98233 60.0
431.899506 44.0
433.137177 120.0
435.817291 56.0
438.76413 80.0
439.485687 48.0
439.986542 48.0
440.379089 72.0
440.638092 52.0
441.704163 72.0
442.063965 60.0
442.930664 76.0
443.341278 88.0
444.553284 88.0
445.086395 92.0
445.502197 128.0
448.814606 48.0
448.898926 52.0
451.238251 56.0
452.397461 80.0
452.977631 76.0
454.011871 156.0
454.605804 68.0
456.18161 64.0
456.509003 136.0
458.139221 100.0
459.239044 32.0
460.63913 52.0
463.95578 64.0
464.00296 76.0
464.234497 92.0
464.414642 96.0
466.230804 100.0
467.146667 68.0
468.244293 40.0
468.601837 72.0
469.800415 28.0
470.275085 40.0
471.778351 108.0
473.24939 68.0
473.608856 88.0
473.951111 48.0
474.003113 60.0
474.046448 96.0
475.885651 68.0
483.820892 48.0
484.578583 68.0
487.38678 36.0
488.697113 76.0
488.899536 124.0
489.78891 84.0
489.8638 96.0
489.929901 56.0
493.504913 40.0
495.70047 72.0
495.842285 84.0
499.376526 76.0
500.155212 44.0
500.551453 64.0
502.369965 28.0
506.953064 76.0
507.625061 80.0
509.735382 84.0
512.426208 96.0
518.798767 68.0
518.912109 36.0
520.459351 112.0
522.914307 124.0
523.738403 104.0
524.102905 104.0
524.294312 48.0
527.78656 60.0
528.065552 60.0
530.162415 76.0
530.593323 124.0
532.070618 52.0
538.522278 80.0
538.859497 124.0
539.012024 44.0
539.39563 68.0
539.53894 64.0
542.237671 72.0
544.371765 48.0
546.040222 52.0
546.980103 92.0
547.059265 68.0
553.764771 104.0
553.905334 100.0
557.245667 64.0
560.902344 80.0
561.43988 104.0
561.916321 100.0
563.516907 72.0
564.712952 52.0
564.798096 44.0
569.861267 68.0
571.282837 88.0
572.663269 36.0
578.718811 112.0
579.408508 100.0
582.997742 112.0
583.382263 92.0
584.8302 44.0
586.651062 28.0
590.272339 120.0
590.383545 36.0
595.166504 72.0
596.322754 56.0
596.390808 44.0
599.0672 84.0
600.412537 100.0
602.29657 96.0
607.41687 64.0
608.565308 60.0
609.243042 40.0
624.100525 44.0
624.264648 88.0
627.406555 64.0
627.536194 80.0
627.910217 88.0
632.652344 88.0
634.601257 164.0
635.413818 72.0
637.69873 116.0
638.146118 56.0
641.973145 96.0
646.9198 88.0
647.329956 100.0
650.067444 36.0
651.108154 136.0
651.656799 84.0
657.793762 108.0
658.39624 88.0
660.773254 112.0
661.868591 92.0
666.074158 100.0
667.636719 140.0
670.978638 68.0
671.87085 104.0
672.190796 48.0
674.277161 64.0
674.587341 48.0
677.853271 56.0
677.936218 100.0
681.932556 112.0
685.554932 128.0
685.935364 188.0
686.055298 68.0
689.68335 108.0
697.861755 68.0
700.798828 52.0
701.810852 108.0
703.92688 72.0
704.159241 44.0
706.141296 148.0
708.465088 180.0
709.70343 56.0
712.013794 108.0
712.41217 80.0
712.481201 72.0
714.858032 144.0
715.656494 116.0
717.670654 52.0
722.306396 84.0
727.241516 84.0
727.654846 200.0
728.825806 100.0
736.016907 52.0
736.83252 116.0
742.744263 44.0
743.368164 176.0
747.503662 96.0
747.982605 148.0
749.812805 100.0
752.174561 272.0
754.135559 244.0
757.763794 44.0
759.660767 148.0
764.418945 164.0
766.825684 84.0
768.253906 176.0
769.026428 196.0
769.142334 48.0
770.235718 72.0
771.832947 148.0
777.228271 140.0
777.483521 152.0
777.533447 156.0
777.61676 184.0
777.960876 44.0
779.35498 96.0
782.052246 80.0
784.335999 48.0
785.147888 152.0
785.774841 160.0
787.192627 168.0
790.31604 128.0
791.784119 124.0
792.064209 120.0
792.249023 116.0
794.076477 204.0
794.884338 120.0
799.346191 140.0
805.328003 180.0
805.616089 152.0
810.107971 164.0
813.686584 244.0
815.92511 72.0
816.101379 84.0
822.413635 196.0
822.836121 192.0
823.845032 188.0
824.549805 96.0
825.78479 100.0
829.243103 240.0
830.034241 108.0
831.405334 200.0
831.990845 184.0
833.248596 84.0
833.392273 148.0
833.633606 128.0
833.679565 80.0
834.881104 136.0
835.795776 132.0
837.828308 60.0
838.986694 108.0
839.234619 192.0
840.151672 40.0
843.032959 56.0
843.241028 164.0
843.576294 60.0
845.097351 136.0
845.236267 152.0
845.328857 56.0
847.679993 72.0
848.074097 44.0
848.679993 148.0
849.703613 104.0
849.999573 136.0
850.202698 196.0
851.21283 76.0
852.973267 156.0
853.205811 116.0
853.519775 92.0
854.811157 160.0
856.237488 100.0
856.75592 168.0
857.00647 132.0
860.214172 56.0
861.119263 120.0
861.598267 204.0
863.217407 156.0
863.948547 80.0
866.301941 120.0
866.436707 220.0
867.36853 52.0
868.171753 132.0
868.465027 116.0
868.740723 104.0
869.063416 92.0
869.890991 176.0
870.155151 224.0
870.801147 120.0
873.540344 216.0
875.677063 184.0
875.765442 232.0
875.947998 160.0
880.354004 124.0
881.535522 176.0
882.664612 184.0
882.989868 84.0
884.38623 72.0
885.902222 144.0
886.358398 172.0
886.785156 160.0
886.986633 72.0
888.878662 144.0
889.258484 160.0
890.160889 116.0
891.022156 132.0
891.289551 180.0
891.473755 172.0
892.198914 148.0
895.829224 140.0
896.139038 88.0
896.776672 204.0
898.380737 164.0
899.568359 208.0
901.049438 96.0
901.384033 52.0
902.406189 72.0
902.824768 152.0
903.189636 148.0
903.89563 184.0
907.035217 216.0
907.303772 172.0
908.287292 56.0
908.617249 116.0
908.857239 168.0
909.589417 116.0
910.261902 176.0
910.706299 112.0
911.198914 32.0
911.926086 180.0
912.010193 132.0
912.635437 156.0
913.104492 84.0
913.675964 360.0
915.192749 128.0
916.493835 168.0
917.150696 116.0
918.441101 100.0
919.967834 140.0
920.221436 104.0
920.674316 208.0
921.193787 40.0
921.501892 144.0
921.943054 72.0
922.221069 72.0
922.747009 128.0
922.849792 152.0
923.067444 204.0
923.811401 100.0
924.822021 200.0
924.870422 160.0
925.524292 140.0
925.627197 144.0
927.408386 156.0
928.129883 156.0
928.954712 68.0
929.191345 208.0
929.585754 212.0
929.90741 108.0
930.247314 116.0
930.799805 104.0
931.097412 112.0
932.78656 192.0
933.266907 148.0
933.552673 172.0
934.471191 164.0
935.431702 152.0
936.480164 48.0
936.754272 60.0
937.387939 44.0
937.906006 140.0
938.0401 76.0
938.143738 64.0
938.759583 120.0
940.272583 156.0
941.047852 204.0
941.774597 132.0
942.287781 200.0
942.544373 184.0
942.715515 148.0
943.938965 144.0
945.25946 188.0
947.261597 100.0
947.365723 164.0
947.61084 76.0
948.162354 144.0
948.276855 152.0
949.063477 188.0
949.118652 124.0
949.511169 72.0
949.667053 72.0
949.823975 148.0
950.406799 252.0
950.468201 172.0
951.545288 136.0
952.598694 168.0
952.93042 64.0
954.694641 184.0
956.515869 184.0
958.357361 172.0
958.94281 148.0
959.318848 152.0
960.231445 80.0
960.502808 164.0
960.737244 164.0
961.446838 224.0
961.959167 164.0
962.249329 192.0
962.545715 180.0
964.621704 224.0
965.444031 160.0
967.269348 152.0
967.411743 144.0
967.529358 152.0
967.659363 208.0
967.851318 160.0
968.328186 160.0
968.464417 136.0
969.901978 116.0
970.577454 140.0
971.148376 104.0
971.985901 124.0
972.240356 164.0
972.383057 144.0
972.937256 200.0
973.817322 108.0
975.5448 72.0
977.012512 128.0
977.697021 140.0
977.952148 144.0
979.353149 156.0
980.050903 44.0
980.219177 56.0
980.904785 148.0
981.316223 72.0
981.522034 168.0
981.890503 228.0
982.919312 176.0
983.28125 180.0
984.935913 176.0
985.498169 232.0
985.554443 148.0
985.848145 68.0
987.185974 120.0
987.479919 124.0
987.661316 52.0
987.723877 144.0
988.480896 164.0
989.0755 112.0
989.732849 196.0
990.892822 216.0
991.02948 200.0
991.186157 164.0
991.819153 124.0
991.888062 196.0
991.931946 172.0
993.98291 140.0
994.139771 132.0
994.510071 132.0
995.370178 188.0
996.431763 160.0
997.028687 124.0
997.104675 228.0
997.28009 140.0
997.669861 80.0
998.021973 88.0
998.175903 312.0
998.411865 212.0
998.487305 112.0
998.890747 148.0
999.10376 144.0
999.374329 128.0
999.531616 188.0
999.884033 100.0
1000.752808 76.0
1000.979492 120.0
1001.225098 132.0
1001.710083 36.0
1002.006165 160.0
1003.216248 184.0
1003.764771 104.0
1003.878296 172.0
1004.464844 180.0
1004.654114 88.0
1004.830811 128.0
1004.919128 172.0
1005.114746 172.0
1005.285095 72.0
1005.493347 276.0
1005.983398 76.0
1006.396118 156.0
1006.610779 148.0
1007.283997 136.0
1007.520386 108.0
1009.169983 180.0
1009.606323 148.0
1010.66272 148.0
1010.751343 176.0
1010.896912 164.0
1010.979126 124.0
1011.113647 220.0
1011.80835 200.0
1012.397278 248.0
1013.867065 116.0
1014.228333 152.0
1015.978577 188.0
1016.245056 100.0
1016.892395 120.0
1016.936829 152.0
1018.492493 120.0
1018.69574 104.0
1019.102356 184.0
1019.229431 216.0
1019.40741 144.0
1019.8078 164.0
1019.858643 132.0
1020.290894 44.0
1020.812439 168.0
1022.472778 220.0
1022.956543 56.0
1023.268494 32.0
1023.389465 108.0
1023.725525 232.0
1024.341309 172.0
1026.186646 112.0
1026.869019 200.0
1027.42395 116.0
1027.698364 140.0
1027.953613 248.0
1028.068481 180.0
1028.362061 92.0
1028.642944 216.0
1029.32605 172.0
1029.575073 168.0
1029.920044 136.0
1030.62915 56.0
1030.820923 156.0
1030.955078 148.0
1031.351318 192.0
1031.830811 144.0
1032.45752 152.0
1032.841187 32.0
1032.956421 180.0
1033.225098 136.0
1033.545044 72.0
1033.95459 232.0
1034.114624 160.0
1034.460205 152.0
1034.901978 64.0
1035.862671 128.0
1035.997192 148.0
1036.112549 76.0
1036.900757 228.0
1037.682739 164.0
1037.926392 172.0
1037.990601 84.0
1038.953003 68.0
1039.061768 104.0
1039.446777 92.0
1039.799683 124.0
1040.268311 100.0
1040.428833 120.0
1041.109497 100.0
1042.227173 168.0
1043.943604 80.0
1044.284424 172.0
1044.979248 140.0
1045.494019 116.0
1045.616333 100.0
1045.835083 120.0
1046.266479 176.0
1046.884644 196.0
1047.251709 136.0
1047.651123 148.0
1048.4823 96.0
1049.094727 116.0
1049.294556 156.0
1049.512329 376.0
1049.733032 220.0
1050.345703 52.0
1050.842529 88.0
1051.094116 172.0
1051.268433 152.0
1051.4104 124.0
1051.64917 196.0
1051.913818 188.0
1052.02356 128.0
1052.501343 180.0
1053.431396 136.0
1054.523438 96.0
1056.301636 60.0
1057.065186 164.0
1057.660522 48.0
1057.738281 172.0
1057.822388 136.0
1057.919556 112.0
1058.592896 120.0
1058.890869 60.0
1059.350708 128.0
1059.525635 52.0
1060.082886 148.0
1060.348633 124.0
1060.61438 280.0
1060.996826 184.0
1061.638794 104.0
1061.943604 176.0
1062.735107 204.0
1063.22876 160.0
1064.234497 224.0
1064.390259 176.0
1065.799927 124.0
1066.206665 268.0
1067.385986 40.0
1067.483521 148.0
1067.529053 108.0
1068.186035 156.0
1068.257568 232.0
1068.836548 220.0
1068.927734 152.0
1069.109863 200.0
1069.240112 112.0
1069.389771 156.0
1069.500488 108.0
1069.917114 228.0
1070.711548 136.0
1071.499756 168.0
1071.708252 160.0
1072.588013 196.0
1072.894409 144.0
1072.972656 160.0
1073.148682 160.0
1073.416016 68.0
1073.761719 184.0
1073.887207 144.0
1074.635864 124.0
1074.831665 148.0
1074.955566 124.0
1075.060059 164.0
1075.425537 160.0
1077.278198 160.0
1077.69165 128.0
1077.946533 192.0
1078.181763 172.0
1078.613159 232.0
1078.900757 48.0
1079.482666 196.0
1079.548096 148.0
1080.025635 68.0
1080.071411 144.0
1080.660156 232.0
1081.307983 72.0
1081.838257 240.0
1082.309692 136.0
1082.525757 108.0
1082.974609 264.0
1083.379883 156.0
1083.698242 188.0
1083.835938 172.0
1084.576416 160.0
1084.858398 116.0
1085.776367 60.0
1086.340454 144.0
1086.878418 92.0
1087.83667 192.0
1088.07959 68.0
1088.61145 148.0
1088.920166 168.0
1089.143555 204.0
1089.853027 208.0
1089.95813 128.0
1090.687744 120.0
1090.976929 100.0
1091.719971 152.0
1091.85144 208.0
1092.417236 40.0
1093.154053 172.0
1094.101929 228.0
1094.299438 140.0
1094.536499 152.0
1095.297119 224.0
1095.820923 248.0
1096.354736 128.0
1096.634399 164.0
1096.697388 276.0
1096.81604 176.0
1097.000732 80.0
1097.191895 84.0
1097.310547 184.0
1098.009521 188.0
1098.647827 152.0
1098.832031 164.0
1099.324341 168.0
1099.678833 184.0
1099.863647 128.0
1100.754883 204.0
1101.019043 176.0
1101.106079 144.0
1101.151245 200.0
1101.428589 188.0
1101.7854 184.0
1102.241211 56.0
1102.783203 136.0
1103.245972 212.0
1103.30542 120.0
1104.079102 192.0
1104.797363 172.0
1105.428711 248.0
1105.779419 128.0
1106.732666 120.0
1107.156494 228.0
1107.255859 160.0
1107.805664 108.0
1107.898438 148.0
1108.368896 156.0
1108.673706 308.0
1108.779785 112.0
1108.932129 164.0
1109.104492 132.0
1109.223877 60.0
1109.442627 124.0
1109.926636 180.0
1110.244873 136.0
1110.417358 64.0
1110.822021 164.0
1111.054199 140.0
1111.293091 84.0
1111.724365 112.0
1111.803955 276.0
1111.857056 88.0
1112.036255 120.0
1112.315063 168.0
1112.421265 108.0
1112.540771 76.0
1112.872803 152.0
1113.231323 212.0
1113.935425 136.0
1114.062378 176.0
1114.254272 184.0
1114.540039 164.0
1114.632568 164.0
1114.985229 100.0
1115.078369 228.0
1115.430542 208.0
1116.348145 168.0
1116.647461 72.0
1116.707275 228.0
1116.760498 192.0
1117.286011 252.0
1117.638672 80.0
1117.816284 220.0
1118.03186 100.0
1118.310791 168.0
1118.517212 120.0
1118.630371 124.0
1118.936646 144.0
1119.17627 132.0
1119.38269 148.0
1119.62915 148.0
1119.895508 132.0
1120.175293 172.0
1120.235229 168.0
1121.334717 124.0
1121.401367 132.0
1121.514526 152.0
1121.634644 208.0
1122.047974 180.0
1122.341431 192.0
1122.428101 208.0
1122.568115 184.0
1123.001587 252.0
1124.376099 56.0
1124.682251 132.0
1124.776611 248.0
1125.19043 144.0
1125.27063 104.0
1125.531006 152.0
1126.145386 204.0
1126.332397 116.0
1126.412598 64.0
1126.532837 92.0
1126.733276 172.0
1126.960449 84.0
1127.314575 132.0
1127.421509 156.0
1127.755737 192.0
1127.842651 124.0
1127.902832 164.0
1128.560791 152.0
1128.939087 80.0
1129.313721 124.0
1129.420654 128.0
1129.750854 132.0
1130.367432 156.0
1130.698608 40.0
1130.825806 288.0
1130.919556 220.0
1131.015625 156.0
1131.133789 104.0
1131.294434 176.0
1131.709473 64.0
1132.02832 156.0
1132.2854 288.0
1132.419434 200.0
1132.660522 144.0
1133.042358 220.0
1133.585083 176.0
1133.712402 132.0
1133.782349 128.0
1133.886719 160.0
1135.303833 172.0
1135.421997 84.0
1136.106201 200.0
1136.381348 96.0
1136.448486 128.0
1136.515503 152.0
1136.87793 56.0
1136.942871 208.0
1137.428223 112.0
1137.542358 148.0
1138.126465 136.0
1138.312134 208.0
1138.526855 204.0
1138.717529 208.0
1138.884155 212.0
1138.999634 136.0
1139.389282 188.0
1139.449707 172.0
1139.584106 76.0
1139.846191 192.0
1139.973877 36.0
1140.840942 124.0
1141.042603 124.0
1141.123291 84.0
1141.190552 80.0
1141.277954 244.0
1141.412476 200.0
1141.829346 104.0
1141.910034 92.0
1142.004272 112.0
1142.293457 132.0
1142.50061 156.0
1142.596191 164.0
1142.717285 208.0
1142.771118 128.0
1143.154785 232.0
1143.518188 44.0
1143.639282 204.0
1143.787354 140.0
1143.841309 148.0
1144.797363 200.0
1145.235107 112.0
1145.431152 200.0
1145.780762 52.0
1145.955933 220.0
1146.360229 108.0
1146.501831 208.0
1146.771362 160.0
1146.919678 104.0
1147.162354 164.0
1147.762451 184.0
1147.958008 220.0
1148.275024 84.0
1148.787598 216.0
1149.273438 164.0
1149.334106 188.0
1149.860474 112.0
1150.076538 120.0
1150.285767 140.0
1150.333008 220.0
1150.468018 64.0
1150.636841 168.0
1150.704346 120.0
1150.758301 204.0
1150.940674 196.0
1151.203979 136.0
1151.643066 204.0
1151.805176 172.0
1152.122681 104.0
1152.169922 160.0
1152.230713 176.0
1152.494263 116.0
1152.845703 40.0
1154.573486 196.0
1155.009277 144.0
1155.056641 156.0
1155.178345 120.0
1155.415161 252.0
1155.524658 192.0
1155.665527 132.0
1156.315186 148.0
1156.761963 112.0
1156.937866 112.0
1157.007568 168.0
1157.066528 104.0
1157.418701 44.0
1157.554077 80.0
1157.887939 164.0
1158.075562 136.0
1158.265259 164.0
1158.48877 132.0
1158.965332 180.0
1159.227295 116.0
1159.817017 124.0
1160.264404 164.0
1160.379639 192.0
1160.833984 148.0
1160.942505 104.0
1161.078125 148.0
1161.247681 80.0
1161.86499 160.0
1161.966797 176.0
1162.048218 124.0
1162.421631 132.0
1163.059326 136.0
1163.358032 112.0
1163.51416 180.0
1163.962402 164.0
1164.736572 120.0
1164.838501 204.0
1165.008301 160.0
1165.130615 104.0
1165.39563 172.0
1165.613037 112.0
1165.687744 104.0
1165.884888 108.0
1166.20874 148.0
1166.458374 152.0
1166.838379 164.0
1166.924927 104.0
1167.224121 156.0
1167.332886 220.0
1167.434937 168.0
1167.945068 84.0
1168.768188 180.0
1168.863525 180.0
1168.938354 128.0
1169.054077 168.0
1169.516846 144.0
1170.188843 212.0
1170.538086 156.0
1170.762817 192.0
1170.871826 124.0
1171.723267 72.0
1172.389404 200.0
1172.725098 124.0
1172.772827 32.0
1172.902344 44.0
1173.113647 132.0
1173.563599 192.0
1173.775024 168.0
1174.08667 224.0
1174.170532 128.0
1174.39563 120.0
1174.804932 156.0
1175.043701 252.0
1175.17334 124.0
1175.268799 164.0
1175.453125 144.0
1175.9104 148.0
1175.968628 156.0
1176.483765 216.0
1176.729736 152.0
1177.20752 152.0
1177.999878 88.0
1178.061279 40.0
1178.171265 188.0
1178.648926 132.0
1179.031616 156.0
1179.120483 120.0
1179.209351 100.0
1179.383545 204.0
1179.810913 176.0
1179.996582 152.0
1180.227905 136.0
1180.583496 156.0
1180.925537 224.0
1181.123901 196.0
1181.335938 76.0
1181.479614 188.0
1181.575317 208.0
1181.794312 108.0
1181.95166 80.0
1182.040649 256.0
1182.163696 188.0
1182.369873 160.0
1182.499146 136.0
1183.224854 144.0
1183.745239 180.0
1183.95752 120.0
1184.162964 188.0
1184.290161 128.0
1184.334229 228.0
1184.484863 72.0
1184.539673 132.0
1186.72583 164.0
1186.815186 92.0
1186.994141 180.0
1187.88501 36.0
1188.001709 84.0
1188.138916 212.0
1188.282959 60.0
1188.475098 116.0
1188.543701 120.0
1189.092773 176.0
1189.600708 64.0
1189.971436 156.0
1190.500122 200.0
1190.58252 164.0
1190.671875 152.0
1191.283203 76.0
1191.400024 140.0
1192.190186 176.0
1192.279541 140.0
1192.410156 136.0
1192.513184 212.0
1193.131836 164.0
1193.372559 168.0
1193.977661 152.0
1194.169922 212.0
1194.982056 136.0
1195.408691 164.0
1195.621948 72.0
1195.752808 196.0
1196.02124 180.0
1196.468628 248.0
1196.585693 132.0
1196.709595 196.0
1197.040161 168.0
1197.327026 164.0
1197.584229 204.0
1198.031982 52.0
1198.290771 168.0
1198.411011 236.0
1198.473022 124.0
1198.920898 176.0
1199.237915 128.0
1199.672241 188.0
1199.947998 196.0
1200.182495 204.0
1200.53418 120.0
1200.761719 128.0
1201.837891 244.0
1202.010376 196.0
1203.715454 176.0
1204.088379 180.0
1204.205811 324.0
1204.385498 100.0
1204.433838 120.0
1204.834473 240.0
1205.020996 152.0
1205.083252 168.0
1206.050781 132.0
1206.596802 116.0
1206.997925 96.0
1207.053223 228.0
1207.239868 152.0
1207.447388 140.0
1207.523438 188.0
1207.627197 172.0
1207.765625 176.0
1207.896973 124.0
1208.13916 56.0
1208.24292 124.0
1208.408936 148.0
1209.084595 56.0
1209.246338 240.0
1209.364014 60.0
1209.56543 148.0
1210.104736 144.0
1210.402466 116.0
1210.603271 164.0
1210.672485 160.0
1210.956543 68.0
1211.018799 152.0
1212.085815 156.0
1212.173706 204.0
1212.252075 60.0
1212.557007 172.0
1212.744141 148.0
1212.848145 176.0
1213.326416 132.0
1213.659302 132.0
1213.874268 156.0
1214.057617 156.0
1214.616333 200.0
1214.685791 164.0
1214.866089 132.0
1215.08374 76.0
1215.157471 180.0
1215.252197 196.0
1215.393433 136.0
1215.756958 212.0
1215.830566 68.0
1216.413696 168.0
1216.483032 148.0
1216.726074 240.0
1216.809326 112.0
1216.934326 48.0
1217.17041 88.0
1217.3927 132.0
1217.587158 148.0
1218.073364 116.0
1218.413696 104.0
1218.552734 148.0
1218.62793 120.0
1218.747314 60.0
1218.927979 136.0
1219.087769 56.0
1219.609009 144.0
1219.748047 88.0
1219.894043 112.0
1220.436401 180.0
1220.589355 136.0
1220.937012 156.0
1221.027466 148.0
1221.14563 136.0
1221.204956 192.0
1221.736938 196.0
1221.859863 212.0
1222.133545 160.0
1222.634644 176.0
1223.066162 188.0
1223.156616 296.0
1223.261108 236.0
1223.428101 112.0
1223.574341 164.0
1223.804077 204.0
1223.922485 40.0
1224.152222 140.0
1224.486572 128.0
1224.939331 144.0
1225.24585 168.0
1225.626099 212.0
1226.36084 184.0
1226.694946 160.0
1227.044067 156.0
1227.42749 116.0
1227.518188 156.0
1227.608887 148.0
1227.765259 176.0
1227.818115 208.0
1228.187744 116.0
1228.396973 244.0
1228.543457 208.0
1228.648193 60.0
1228.759766 164.0
1228.98999 184.0
1229.090698 260.0
1229.499512 148.0
1229.597168 44.0
1230.490723 152.0
1230.574463 120.0
1230.797974 140.0
1231.370605 116.0
1231.468384 112.0
1232.121826 148.0
1232.243774 160.0
1232.460449 148.0
1232.509277 140.0
1232.59314 128.0
1233.303345 144.0
1233.459839 108.0
1233.921265 156.0
1234.354736 176.0
1234.634521 80.0
1235.571777 160.0
1235.634766 212.0
1236.397583 212.0
1236.474487 140.0
1236.642456 192.0
1236.733521 132.0
1236.929443 148.0
1237.027466 136.0
1237.188477 28.0
1237.272461 152.0
1237.475586 144.0
1237.615601 164.0
1238.573853 180.0
1238.594238 148.0
1238.743164 56.0
1238.806274 104.0
1238.960327 136.0
1239.373779 144.0
1239.759155 204.0
1240.256836 80.0
1240.6073 136.0
1240.726562 192.0
1240.796631 316.0
1240.852661 40.0
1241.027954 168.0
1241.099609 164.0
1241.168213 112.0
1241.567993 184.0
1241.71521 164.0
1242.262329 208.0
1242.409668 144.0
1242.620239 84.0
1242.71582 176.0
1242.879761 132.0
1243.321899 148.0
1243.481079 112.0
1243.9021 120.0
1244.087036 56.0
1244.199341 228.0
1244.346802 160.0
1244.648682 288.0
1244.943604 172.0
1245.500488 204.0
1245.582764 160.0
1245.716431 172.0
1245.961182 200.0
1246.20105 200.0
1246.404785 92.0
1246.868652 164.0
1247.583618 304.0
1247.797485 188.0
1247.993408 76.0
1248.2677 224.0
1248.443481 64.0
1248.823242 240.0
1248.949951 132.0
1249.139893 120.0
1249.245361 156.0
1249.35791 36.0
1249.477905 140.0
1249.765991 88.0
1249.815308 136.0
1249.924561 172.0
1249.991211 68.0
1250.673462 188.0
1251.018799 108.0
1251.122437 160.0
1251.539795 144.0
1251.744019 188.0
1252.307495 56.0
1252.849854 120.0
1252.941406 172.0
1253.321899 36.0
1253.631958 220.0
1253.714233 184.0
1253.836426 76.0
1254.252197 100.0
1254.37915 176.0
1254.809204 112.0
1254.900879 76.0
1255.119385 180.0
1255.394409 136.0
1255.570801 140.0
1255.717773 176.0
1255.852905 160.0
1255.916382 140.0
1256.023315 164.0
1256.120972 172.0
1256.177368 148.0
1256.34668 208.0
1256.424316 68.0
1257.144043 148.0
1257.285156 116.0
1257.69458 136.0
1257.750977 160.0
1258.322876 124.0
1258.471069 156.0
1258.718262 148.0
1258.859497 68.0
1259.064331 116.0
1259.219727 128.0
1259.353882 144.0
1259.586914 168.0
1259.926025 112.0
1260.017944 188.0
1260.745728 236.0
1261.077881 92.0
1261.629272 104.0
1261.692993 148.0
1261.749512 212.0
1261.912109 96.0
1262.074707 232.0
1262.435425 152.0
1262.796143 132.0
1263.425659 92.0
1263.597046 204.0
1263.956299 212.0
1264.005859 152.0
1264.203979 124.0
1264.338501 172.0
1264.45166 88.0
1264.529541 172.0
1264.579102 188.0
1264.656982 180.0
1265.152466 284.0
1265.322388 140.0
1265.50647 192.0
1266.297974 172.0
1266.412964 188.0
1266.915894 208.0
1267.298584 176.0
1268.177246 80.0
1268.312012 152.0
1268.439575 60.0
1268.666382 192.0
1268.737305 52.0
1268.98584 148.0
1269.049316 180.0
1269.15564 196.0
1269.212402 176.0
1269.382568 168.0
1269.432251 136.0
1269.609497 92.0
1270.377686 160.0
1270.680664 148.0
1270.897095 164.0
1271.092163 96.0
1271.205688 172.0
1271.482544 196.0
1271.830322 180.0
1272.15686 132.0
1272.226318 156.0
1272.321777 188.0
1272.476318 152.0
1272.653809 168.0
1272.774536 216.0
1273.051514 172.0
1273.250366 136.0
1273.623047 328.0
1273.635132 156.0
1273.663818 200.0
1273.789429 228.0
1274.024658 192.0
1274.35144 228.0
1274.415405 152.0
1274.61438 168.0
1274.785645 164.0
1275.076294 128.0
1275.381958 164.0
1275.68042 200.0
1275.978027 172.0
1276.213745 144.0
1276.263428 52.0
1276.384399 132.0
1276.932007 184.0
1277.067139 180.0
1277.491577 256.0
1277.991943 156.0
1278.061157 176.0
1278.589722 144.0
1278.984863 168.0
1279.322876 52.0
1279.686035 296.0
1279.788818 196.0
1279.985107 176.0
1280.56189 132.0
1280.661621 136.0
1280.918091 112.0
1280.99646 148.0
1281.324097 52.0
1281.392578 184.0
1281.44812 212.0
1281.602051 152.0
1281.716064 144.0
1281.986816 140.0
1282.221069 180.0
1282.321777 272.0
1283.013306 136.0
1283.227173 148.0
1283.291382 184.0
1283.469604 196.0
1283.697754 144.0
1284.403931 144.0
1284.453857 188.0
1284.61792 132.0
1284.846191 80.0
1285.017456 208.0
1285.174438 212.0
1285.238647 140.0
1285.552612 192.0
1285.973633 132.0
1286.28064 132.0
1286.42334 184.0
1286.808105 180.0
1287.051636 76.0
1287.365845 156.0
1288.065796 140.0
1288.265869 92.0
1288.644531 112.0
1288.737427 220.0
1288.894653 176.0
1289.024048 148.0
1289.312012 220.0
1289.883423 124.0
1290.266968 176.0
1290.574463 212.0
1290.660278 152.0
1291.053589 156.0
1291.189453 68.0
1291.897583 160.0
1292.03833 140.0
1292.342163 120.0
1292.577271 64.0
1292.741943 184.0
1292.992432 240.0
1293.04248 100.0
1293.34314 236.0
1293.421875 28.0
1293.658081 148.0
1293.715332 76.0
1293.973145 68.0
1294.30957 192.0
1294.579834 192.0
1295.08313 36.0
1295.276489 212.0
1295.333862 180.0
1295.491455 140.0
1295.734985 164.0
1296.279541 228.0
1296.587769 116.0
1296.659424 124.0
1296.731079 204.0
1296.831421 112.0
1297.364258 144.0
1297.584106 112.0
1297.641479 76.0
1297.69165 164.0
1297.759155 208.0
1297.949829 116.0
1298.480591 176.0
1298.624023 404.0
1298.882202 192.0
1298.939575 156.0
1299.011353 156.0
1299.212158 148.0
1299.279297 128.0
1299.51355 156.0
1299.578125 192.0
1300.094849 228.0
1300.310059 140.0
1300.381836 180.0
1300.539795 132.0
1300.728882 156.0
1301.006348 132.0
1301.173828 152.0
1301.810547 120.0
1302.079834 152.0
1302.136719 164.0
1302.334839 156.0
1303.053345 112.0
1303.125122 120.0
1303.283203 184.0
1303.355103 132.0
1303.556274 164.0
1303.606567 160.0
1303.692871 160.0
1303.78125 236.0
1304.14563 136.0
1304.636841 132.0
1305.375 164.0
1305.871338 188.0
1306.06543 136.0
1306.154053 144.0
1306.302856 144.0
1306.410767 52.0
1306.828125 72.0
1307.036743 128.0
1307.216675 156.0
1307.295776 116.0
1308.188721 196.0
1309.029907 136.0
1309.275635 192.0
1309.736572 112.0
1309.839355 272.0
1310.269653 152.0
1310.435425 180.0
1310.863892 156.0
1311.141602 116.0
1311.314575 128.0
1311.566895 168.0
1311.869629 148.0
1311.941772 124.0
1312.0354 84.0
1312.107544 216.0
1312.215698 168.0
1312.31665 140.0
1312.56897 152.0
1312.69165 176.0
1313.167603 220.0
1313.463379 156.0
1313.650879 188.0
1313.727295 128.0
1313.795166 124.0
1313.852905 196.0
1313.997192 160.0
1314.415649 176.0
1314.603271 176.0
1314.682739 172.0
1314.740479 160.0
1314.883667 184.0
1314.971436 144.0
1315.036377 68.0
1315.115723 176.0
1315.412964 160.0
1315.55603 212.0
1315.817017 220.0
1315.925049 196.0
1316.003906 152.0
1316.104858 148.0
1316.19873 192.0
1316.270874 172.0
1316.386475 40.0
1316.697021 192.0
1317.000366 176.0
1317.310913 152.0
1317.361572 232.0
1317.643311 172.0
1318.098511 128.0
1318.402222 148.0
1318.474243 164.0
1318.705566 208.0
1318.922363 148.0
1319.182617 268.0
1319.377808 132.0
1319.544189 132.0
1319.652588 184.0
1320.006958 172.0
1320.086426 124.0
1320.231445 164.0
1320.44519 240.0
1320.622559 192.0
1320.80249 156.0
1321.177856 176.0
1321.323364 112.0
1321.562134 96.0
1321.663452 164.0
1321.84436 232.0
1322.26416 116.0
1322.42334 168.0
1322.698364 120.0
1322.922852 120.0
1322.973511 196.0
1323.538208 64.0
1323.632324 32.0
1323.735474 164.0
1323.842407 48.0
1323.943726 132.0
1324.081421 112.0
1324.530518 176.0
1325.008545 216.0
1325.247681 108.0
1325.32019 116.0
1325.443359 48.0
1326.240601 120.0
1326.781738 160.0
1327.016235 140.0
1327.378784 268.0
1327.494873 100.0
1327.574585 100.0
1327.930054 140.0
1328.771484 204.0
1329.668335 128.0
1329.743896 188.0
1330.236938 208.0
1330.600464 136.0
1330.818359 148.0
1331.00708 168.0
1331.246704 160.0
1331.518433 180.0
1331.588501 144.0
1331.737793 208.0
1332.408936 160.0
1332.517944 152.0
1332.612427 132.0
1332.706909 56.0
1333.039551 112.0
1333.266357 120.0
1333.738892 68.0
1334.058716 104.0
1334.305908 160.0
1334.676758 120.0
1335.098511 148.0
1335.440308 188.0
1335.960938 180.0
1336.225952 96.0
1336.371582 148.0
1336.669922 180.0
1337.463135 184.0
1337.563232 188.0
1337.645386 148.0
1338.205688 180.0
1338.409668 224.0
1338.526123 184.0
1339.338867 164.0
1339.421997 156.0
1339.713379 240.0
1340.033936 168.0
1340.179688 132.0
1340.28894 160.0
1340.405518 48.0
1340.497437 160.0
1340.546875 156.0
1341.082642 120.0
1341.163574 72.0
1341.287476 164.0
1341.389526 136.0
1341.95813 88.0
1342.060303 76.0
1342.359253 148.0
1342.415771 180.0
1342.483154 116.0
1342.760376 96.0
1343.125 36.0
1343.205322 180.0
1343.482544 116.0
1343.898315 132.0
1344.073486 164.0
1344.474854 176.0
1344.825195 208.0
1344.931152 180.0
1345.139038 80.0
1345.482178 136.0
1345.591675 124.0
1345.883789 112.0
1345.971436 100.0
1346.088257 160.0
1346.153931 32.0
1346.21228 132.0
1346.270874 180.0
1346.39502 152.0
1346.533691 152.0
1346.796631 168.0
1347.067017 144.0
1347.290283 120.0
1347.588623 120.0
1348.094727 120.0
1348.550293 80.0
1348.660034 204.0
1349.018188 204.0
1349.556152 236.0
1349.646973 104.0
1349.727417 152.0
1349.851685 124.0
1350.473389 108.0
1350.92688 204.0
1351.102417 120.0
1351.322021 160.0
1351.475586 204.0
1351.669312 224.0
1351.797607 152.0
1352.068359 136.0
1352.15625 120.0
1352.28064 200.0
1352.667969 236.0
1352.983398 144.0
1353.107788 112.0
1353.285278 220.0
1353.752197 168.0
1353.869385 92.0
1353.953979 168.0
1354.030518 104.0
1354.184326 172.0
1354.543213 220.0
1354.654297 168.0
1355.283203 112.0
1355.393188 148.0
1355.818237 204.0
1356.023438 164.0
1356.147949 108.0
1356.404541 116.0
1356.492554 176.0
1356.565796 184.0
1356.815063 184.0
1357.21106 184.0
1357.328369 204.0
1357.445679 104.0
1357.599731 140.0
1357.827026 164.0
1358.08374 68.0
1358.351196 196.0
1358.509277 88.0
1358.910034 176.0
1359.11084 184.0
1359.213623 160.0
1359.925415 156.0
1360.329224 172.0
1360.458496 192.0
1360.710938 148.0
1360.768311 212.0
1360.903076 188.0
1361.122192 148.0
1361.195557 188.0
1361.269043 216.0
1361.333496 204.0
1361.614258 156.0
1361.819214 152.0
1362.128418 284.0
1362.201782 124.0
1362.319336 44.0
1362.613281 136.0
1362.752808 324.0
1363.05127 116.0
1363.171631 172.0
1363.223145 192.0
1363.284668 244.0
1363.446655 172.0
1363.664062 164.0
1363.796875 112.0
1363.921387 256.0
1364.244873 208.0
1364.347778 148.0
1364.752075 184.0
1365.428711 172.0
1366.463623 176.0
1366.848511 104.0
1367.834839 228.0
1368.158691 148.0
1368.211182 152.0
1368.607788 60.0
1368.976074 184.0
1369.152832 256.0
1369.403198 112.0
1369.528442 180.0
1370.31604 148.0
1370.4198 152.0
1370.499146 212.0
1370.788208 156.0
1371.112549 124.0
1371.584229 80.0
1371.753784 144.0
1371.901245 148.0
1371.974976 104.0
1372.225708 188.0
1372.328857 144.0
1372.837646 156.0
1373.221191 180.0
1373.494141 144.0
1373.589966 196.0
1373.82605 60.0
1373.892456 164.0
1374.180176 180.0
1374.608154 164.0
1374.800049 136.0
1374.92627 152.0
1375.051025 140.0
1375.191284 112.0
1375.273438 152.0
1375.353638 128.0
1375.58252 300.0
1375.678467 144.0
1376.054932 104.0
1376.782959 228.0
1377.228027 208.0
1377.332642 204.0
1377.687134 148.0
1377.871826 136.0
1378.178467 136.0
1378.573853 160.0
1378.746338 164.0
1379.032104 136.0
1379.161621 192.0
1379.26123 212.0
1379.512573 144.0
1379.837891 236.0
1380.177979 128.0
1380.229736 112.0
1380.555176 164.0
1380.880493 140.0
1381.117188 196.0
1381.2948 216.0
1381.410767 176.0
1381.516846 188.0
1381.999146 220.0
1382.176514 140.0
1382.560059 176.0
1382.737671 228.0
1382.811646 216.0
1382.878296 148.0
1383.085571 196.0
1383.211426 124.0
1383.514893 144.0
1383.935303 148.0
1384.316406 160.0
1384.432373 132.0
1384.618286 56.0
1384.677246 140.0
1385.418213 192.0
1385.796143 68.0
1385.966187 100.0
1386.141357 152.0
1386.334106 220.0
1386.707642 168.0
1386.952148 132.0
1387.218872 196.0
1387.337646 112.0
1387.475342 180.0
1387.612061 220.0
1387.909058 136.0
1388.271973 164.0
1388.383179 72.0
1388.531128 168.0
1388.85791 72.0
1388.924683 176.0
1389.072998 152.0
1389.236206 48.0
1389.473633 156.0
1389.562622 116.0
1389.777832 68.0
1389.985596 40.0
1390.059814 188.0
1390.186035 164.0
1390.423462 164.0
1390.772339 160.0
1391.084106 164.0
1391.254883 148.0
1391.343872 224.0
1391.447876 152.0
1391.559204 160.0
1391.730225 176.0
1391.819092 156.0
1391.952759 100.0
1392.108765 140.0
1392.296265 188.0
1392.636108 108.0
1392.72522 124.0
1392.821777 176.0
1393.037231 100.0
1393.185791 108.0
1393.293823 232.0
1393.505249 164.0
1393.720703 172.0
1394.121948 148.0
1394.501831 184.0
1395.283936 228.0
1395.385742 192.0
1395.44519 164.0
1395.720337 52.0
1395.906128 192.0
1396.136719 204.0
1396.285522 156.0
1396.426758 144.0
1396.776367 168.0
1397.252563 48.0
1397.468262 204.0
1397.654297 44.0
1397.713867 232.0
1397.765869 132.0
1397.996582 192.0
1398.056152 212.0
1398.242188 172.0
1398.378784 148.0
1398.541748 204.0
1398.582642 92.0
1398.740967 116.0
1398.82373 128.0
1399.09082 116.0
1399.299316 184.0
1399.373779 144.0
1399.485474 104.0
1399.716309 152.0
1399.820557 84.0
1400.334351 132.0
1400.471558 116.0
1400.52063 172.0
1400.647217 92.0
1401.004761 180.0
1401.474243 200.0
1401.578491 148.0
1401.660522 148.0
1401.898926 116.0
1402.301392 132.0
1402.484985 184.0
1402.845581 128.0
1402.957397 136.0
1403.039429 176.0
1403.352539 124.0
1403.44519 164.0
1403.859619 124.0
1403.993896 128.0
1404.366821 112.0
1404.58313 192.0
1404.695068 148.0
1404.966309 172.0
1405.304688 220.0
1405.597778 88.0
1405.844116 136.0
1405.926147 60.0
1406.165039 124.0
1406.276978 116.0
1406.3479 112.0
1406.851685 80.0
1406.971191 156.0
1407.075684 140.0
1407.32959 168.0
1408.143555 176.0
1408.457275 232.0
1408.508667 156.0
1408.626831 376.0
1408.711304 76.0
1408.80835 248.0
1409.025024 264.0
1409.256714 100.0
1409.510742 164.0
1409.592896 120.0
1409.772827 200.0
1410.026367 160.0
1410.160889 140.0
1410.73645 272.0
1411.267334 236.0
1411.626221 196.0
1411.745972 172.0
1411.932861 144.0
1412.134888 64.0
1412.38916 164.0
1412.606079 112.0
1412.782593 228.0
1412.838013 200.0
1413.2948 200.0
1413.5177 180.0
1413.601685 184.0
1413.810791 124.0
1413.900146 184.0
1414.050293 420.0
1414.110107 160.0
1414.432007 176.0
1414.716431 96.0
1415.030884 160.0
1415.173218 192.0
1415.322998 160.0
1415.451416 184.0
1415.577515 116.0
1415.772217 152.0
1415.993896 180.0
1416.212158 264.0
1416.356445 72.0
1416.648682 152.0
1416.866577 176.0
1417.08313 200.0
1417.173096 96.0
1417.322998 248.0
1417.375366 184.0
1417.540283 208.0
1417.65271 180.0
1417.893066 168.0
1417.985962 228.0
1418.132324 208.0
1418.432129 128.0
1418.566284 152.0
1418.606201 172.0
1419.155029 148.0
1419.285767 156.0
1419.616821 168.0
1419.856812 168.0
1419.939331 144.0
1420.524414 200.0
1421.289673 104.0
1421.357178 116.0
1421.572632 160.0
1422.475464 140.0
1422.648193 156.0
1422.738281 72.0
1422.840698 192.0
1423.354004 124.0
1423.526733 148.0
1423.706909 132.0
1423.872192 128.0
1424.121704 144.0
1424.240234 144.0
1424.450562 140.0
1424.51062 160.0
1424.729248 232.0
1425.194336 52.0
1425.540039 88.0
1425.780518 204.0
1426.102417 232.0
1427.329102 164.0
1427.381714 96.0
1427.539673 132.0
1427.660034 92.0
1427.780273 44.0
1428.359497 76.0
1428.464844 136.0
1428.848511 156.0
1429.206421 164.0
1429.588257 180.0
1429.721436 120.0
1429.980103 184.0
1430.082642 320.0
1430.617065 188.0
1430.823242 108.0
1431.12915 140.0
1431.430298 96.0
1431.852051 164.0
1432.273804 172.0
1432.424438 200.0
1432.642944 128.0
1432.72583 116.0
1432.890503 188.0
1433.004639 176.0
1433.268311 44.0
1433.328613 100.0
1433.408569 212.0
1433.660156 176.0
1433.878784 132.0
1434.082275 64.0
1434.202026 156.0
1434.383789 188.0
1434.511963 160.0
1434.783325 124.0
1434.888916 60.0
1435.047241 184.0
1435.114502 208.0
1435.19043 104.0
1435.363892 156.0
1435.630371 156.0
1435.748535 180.0
1435.887817 188.0
1436.12561 136.0
1436.910156 124.0
1437.076172 116.0
1437.489258 188.0
1437.785522 100.0
1437.921387 112.0
1438.336548 196.0
1438.608276 144.0
1438.854004 192.0
1439.038696 28.0
1439.355835 200.0
1439.691528 180.0
1439.820679 112.0
1439.914673 176.0
1440.418823 196.0
1440.758911 136.0
1440.919312 176.0
1441.145996 132.0
1441.75061 212.0
1441.87146 120.0
1442.052856 188.0
1442.370361 160.0
1442.446777 148.0
1442.627319 152.0
1443.012939 140.0
1443.171753 112.0
1443.247314 208.0
1443.31543 124.0
1443.602783 216.0
1443.70105 168.0
1443.875 68.0
1444.149048 156.0
1444.291016 56.0
1444.956787 160.0
1445.147217 160.0
1445.269043 192.0
1445.572876 196.0
1445.804321 160.0
1446.001099 144.0
1446.190308 152.0
1446.252075 152.0
1446.431885 160.0
1446.629272 204.0
1447.083618 144.0
1447.204712 116.0
1447.537964 160.0
1447.742432 172.0
1447.999878 136.0
1448.398193 180.0
1448.475342 84.0
1448.651367 180.0
1448.734619 60.0
1449.03772 204.0
1449.090698 124.0
1449.161499 140.0
1449.348389 220.0
1449.507446 280.0
1449.825806 216.0
1449.947021 128.0
1450.075317 164.0
1450.257812 140.0
1450.424561 184.0
1450.492798 192.0
1450.598877 192.0
1450.682373 180.0
1451.055664 164.0
1451.425293 204.0
1451.827271 144.0
1452.009277 84.0
1452.109863 76.0
1452.305054 160.0
1452.570557 84.0
1452.684326 176.0
1452.782959 148.0
1452.919556 164.0
1452.995483 152.0
1453.113647 188.0
1453.276123 88.0
1453.390015 140.0
1453.489868 196.0
1453.632812 132.0
1453.890869 44.0
1454.080566 148.0
1454.18689 184.0
1454.665039 136.0
1454.957642 352.0
1455.037109 144.0
1455.175781 144.0
1455.242065 196.0
1455.317993 224.0
1455.614136 120.0
1455.667236 136.0
1455.750854 168.0
1455.834351 192.0
1456.236938 232.0
1456.388794 144.0
1456.457153 196.0
1456.593872 156.0
1456.897827 176.0
1457.133301 160.0
1457.287354 240.0
1457.961548 304.0
1458.121216 228.0
1458.470825 136.0
1458.911743 144.0
1458.995361 108.0
1459.063721 160.0
1459.208252 144.0
1459.824219 108.0
1459.968628 196.0
1460.242432 40.0
1460.514771 236.0
1461.079224 120.0
1461.185791 76.0
1461.390259 372.0
1461.490112 116.0
1461.59668 160.0
1461.687988 112.0
1462.273926 176.0
1462.456665 140.0
1462.624023 128.0
1463.141724 128.0
1463.952393 228.0
1464.108765 284.0
1464.25354 44.0
1464.680054 140.0
1464.817139 96.0
1465.236206 144.0
1465.289551 168.0
1465.655273 204.0
1465.800049 120.0
1466.082031 108.0
1466.309448 104.0
1467.171997 180.0
1467.233032 224.0
1467.393188 152.0
1467.453979 364.0
1467.560913 208.0
1467.629517 168.0
1467.995483 124.0
1468.154785 160.0
1468.247192 64.0
1468.361572 132.0
1468.453125 140.0
1468.600098 168.0
1468.720093 36.0
1468.86499 332.0
1469.071045 92.0
1469.429565 176.0
1469.503418 252.0
1469.864502 56.0
1470.429321 172.0
1470.757446 184.0
1470.818604 124.0
1471.154419 220.0
1471.238403 108.0
1471.383423 368.0
1471.635376 140.0
1472.248901 220.0
1472.444946 216.0
1472.559448 148.0
1472.682983 172.0
1472.773315 112.0
1472.979614 184.0
1473.256958 128.0
1473.384521 208.0
1473.483765 112.0
1474.446655 204.0
1474.53833 60.0
1474.729492 140.0
1474.905273 184.0
1475.098389 224.0
1475.234009 116.0
1475.310425 196.0
1475.463379 132.0
1475.89917 40.0
1475.952637 44.0
1476.185791 184.0
1476.776123 132.0
1477.418457 124.0
1477.711914 176.0
1478.301147 152.0
1478.385864 128.0
1478.535034 188.0
1479.028076 132.0
1479.242554 160.0
1479.342163 164.0
1479.440918 120.0
1479.696655 172.0
1480.008179 144.0
1480.283936 192.0
1480.383423 108.0
1480.751099 204.0
1480.843018 176.0
1480.919556 168.0
1481.116333 152.0
1481.47876 132.0
1481.639648 188.0
1481.785278 124.0
1482.237305 152.0
1482.382935 144.0
1482.704834 144.0
1483.121826 200.0
1483.279663 144.0
1483.693604 72.0
1483.770264 108.0
1484.123047 180.0
1484.255615 160.0
1484.537109 128.0
1484.65979 292.0
1484.989624 120.0
1485.265747 168.0
1485.557251 140.0
1485.626221 176.0
1485.803955 216.0
1485.956177 168.0
1486.009888 180.0
1486.063599 192.0
1486.692871 196.0
1487.061279 172.0
1487.207031 136.0
1487.352905 136.0
1487.429688 224.0
1487.865356 188.0
1488.028442 32.0
1488.23584 180.0
1488.412476 84.0
1488.466187 132.0
1488.72522 120.0
1488.894043 168.0
1488.988403 156.0
1489.095947 360.0
1489.247437 160.0
1489.426147 120.0
1489.47998 128.0
1489.695068 208.0
1490.163696 232.0
1490.23291 192.0
1490.341919 228.0
1490.47876 48.0
1490.686279 148.0
1490.794434 156.0
1490.962891 124.0
1491.08313 168.0
1491.17041 100.0
1491.534302 168.0
1491.731567 152.0
1491.966797 140.0
1492.277466 104.0
1492.807983 160.0
1493.369385 136.0
1493.60791 188.0
1493.79248 80.0
1493.914185 172.0
1494.231323 188.0
1494.339478 156.0
1494.414185 140.0
1494.537354 128.0
1494.623413 220.0
1494.727783 224.0
1494.946655 172.0
1495.077515 124.0
1495.160645 104.0
1495.269897 148.0
1495.385376 352.0
1495.45459 160.0
1495.60083 48.0
1495.762573 112.0
1495.824097 132.0
1496.247559 92.0
1496.37439 176.0
1496.440063 144.0
1496.642822 60.0
1496.767212 136.0
1497.016724 224.0
1497.044678 200.0
1497.179321 180.0
1497.271729 120.0
1497.448853 188.0
1497.579712 176.0
1497.654053 156.0
1497.705078 136.0
1498.473389 152.0
1498.595825 168.0
1498.835571 176.0
1498.951172 176.0
1499.26709 100.0
1499.336426 120.0
1499.431763 200.0
1499.511475 128.0
1499.58313 80.0
1499.845215 312.0
1499.983887 260.0
1500.037842 204.0
1500.246094 72.0
1500.42334 196.0
1500.477295 164.0
1500.708618 140.0
1501.125 140.0
1501.448975 184.0
1501.78833 144.0
1501.873169 104.0
1502.482544 180.0
1502.552002 168.0
1502.768066 136.0
1503.033447 248.0
1503.107544 40.0
1503.393066 76.0
1503.485718 208.0
1503.60144 200.0
1503.822144 184.0
1504.149536 168.0
1504.342529 140.0
1504.685791 176.0
1505.095703 188.0
1505.269043 188.0
1505.344238 232.0
