>compound Deflazacort
>formula C25H31NO6 
>ionization [M+H]+
>parentmass 442.222351
#inchi InChI=1S/C25H31NO6/c1-13-26-25(20(30)12-31-14(2)27)21(32-13)10-18-17-6-5-15-9-16(28)7-8-23(15,3)22(17)19(29)11-24(18,25)4/h7-9,17-19,21-22,29H,5-6,10-12H2,1-4H3/t17-,18-,19-,21+,22+,23-,24-,25+/m0/s1
#inchikey FBHSPRKOSMHSIF
#Ion_Source LC-ESI
#Instrument qTof
#Compound_Source Isolated
#PI Sirenas
#Data_Collector Ed Esquenazi 
#Scan -1
#Precursor_MZ 442.223
#ExactMass 0.0
#Charge 1
#CAS_Number N/A
#Pubmed_ID N/A
#Smiles N/A
#INCHI_AUX N/A
#Library_Class 3
#SpectrumID CCMSLIB00000005300
#IonMode Positive
#UpdateWorkflowName UPDATE-SINGLE-ANNOTATED-BRONZE
#LibraryQualityString Bronze
#TaskID d19310cd93df49b68e9fcbec27720eb5
##Scan# 2
#SpectrumFile Deflazacort.mgf
#LibraryName fda_library.mgf
#MQScore -1
#Organism fda_library
#TIC_Query 0
#RT_Query -1
#MZErrorPPM -1
#SharedPeaks 0
#MassDiff 0
#LibMZ -1
#SpecMZ 442.223
#SpecCharge 0
#internalFilename spec-00000.mgf

>collision 10
121.060905 53.785332
124.041016 58.38068
133.062485 112.2976
133.119766 5.5
135.076202 76.379311
141.165161 11.71607
147.077835 240.849594
147.127228 4.8125
147.239944 6.446429
184.056992 48.95454
197.232574 10.51815
197.358246 8.125
211.108612 41.452911
225.133667 90.181587
240.149353 72.555199
248.115265 76.8125
248.166702 3.03125
283.163361 41.988972
287.140808 77.66777
312.198181 23.525
321.543365 16.04545
322.175781 7.142857
340.189758 24.6875
365.145477 17.26042
383.210663 51.862068
400.210358 51.93655
400.730682 8.7025
424.204254 20.80179
439.456268 44.598572
439.861633 15.24493
440.496674 10.5625
440.963562 11.50169
441.131622 19.582991
441.585419 10.5625
442.222351 1955.602051
442.308777 3.525
442.410645 30.587749
442.482452 34.083328
442.520416 9.520833
442.550507 4.5625
442.753937 11.16667
442.951385 22.012501
443.135925 7.011364
443.670685 11.0
443.868561 5.504807
444.171387 17.92061
445.042053 17.62981
