>compound MLS001142928-01!1-[(2S)-2-amino-4-methylsulfanylbutanoyl]-N-[(2S)-1-[(4-methoxyphenyl)methylamino]-3-methyl-1-oxobutan-2-yl]piperidine-4-carboxamide
>formula C24H38N4O4S
>ionization [M+H]+
>parentmass 479.270264
#inchi InChI=1S/C24H38N4O4S/c1-16(2)21(23(30)26-15-17-5-7-19(32-3)8-6-17)27-22(29)18-9-12-28(13-10-18)24(31)20(25)11-14-33-4/h5-8,16,18,20-21H,9-15,25H2,1-4H3,(H,26,30)(H,27,29)/t20-,21-/m0/s1
#inchikey BJDRRNWYCYYLQV
#Ion_Source LC-ESI
#Instrument qTof
#Compound_Source NIH Natural Product Library
#PI Dorrestein
#Data_Collector VVP/LMS
#Scan -1
#Precursor_MZ 479.269
#ExactMass 478.261
#Charge 1
#CAS_Number N/A
#Pubmed_ID N/A
#Smiles COc1ccc(CNC(=O)[C@@H](NC(=O)C2CCN(CC2)C(=O)[C@@H](N)CCSC)C(C)C)cc1
#INCHI_AUX N/A
#Library_Class 1
#SpectrumID CCMSLIB00000079565
#IonMode Positive
#UpdateWorkflowName UPDATE-SINGLE-ANNOTATED-GOLD
#LibraryQualityString Gold
#TaskID b1d8e8f6646f4e71acdff9ca3d919d08
##Scan# 1620
#SpectrumFile p1-C08_GC8_01_17904.mzXML
#LibraryName NIH_Natural_Products_Library.mgf
#MQScore -1
#Organism NIH_Natural_Products_Library
#TIC_Query 0
#RT_Query -1
#MZErrorPPM -1
#SharedPeaks 0
#MassDiff 0
#LibMZ -1
#SpecMZ 479.269
#SpecCharge 0
#internalFilename spec-00000.mgf

>collision 10
95.015419 52.0
95.069748 108.0
95.14933 96.0
95.17263 200.0
95.26973 140.0
95.407707 256.0
95.434929 192.0
95.469925 160.0
95.568924 192.0
95.674042 128.0
95.707321 136.0
95.87484 176.0
95.974258 144.0
96.009354 108.0
96.028862 180.0
96.048363 172.0
96.069817 176.0
96.136154 108.0
96.235703 176.0
96.333351 156.0
96.4076 196.0
96.446686 208.0
96.483826 304.0
96.72052 216.0
96.783165 152.0
97.030029 52.0
97.143768 156.0
97.186928 164.0
97.406807 140.0
97.450241 184.0
97.467705 168.0
97.493256 156.0
97.53846 172.0
97.58564 160.0
97.735115 156.0
97.766602 104.0
97.815804 156.0
97.945763 232.0
97.959549 68.0
98.061211 168.0
98.081718 136.0
98.242317 144.0
98.32431 72.0
98.383522 172.0
98.490158 228.0
98.695679 232.0
98.7827 88.0
98.948929 112.0
99.013504 176.0
99.036057 76.0
99.069733 180.0
99.14106 140.0
99.162857 176.0
99.236206 148.0
99.367104 180.0
99.506027 144.0
99.639091 68.0
99.694725 132.0
99.857742 192.0
99.909454 252.0
100.106499 156.0
100.162262 80.0
100.478622 212.0
100.730751 132.0
100.844643 156.0
101.11264 52.0
101.182701 180.0
101.401031 196.0
101.443123 116.0
101.509285 204.0
101.541374 60.0
101.563431 228.0
101.75206 176.0
101.77816 188.0
101.798241 168.0
101.842422 128.0
101.924789 184.0
102.049408 140.0
102.113754 172.0
102.16404 176.0
102.230438 184.0
102.27874 180.0
102.562737 160.0
102.66153 104.0
102.69178 180.0
102.784576 184.0
102.869339 76.0
102.913757 80.0
103.034935 224.0
103.05442 348.0
103.125862 228.0
103.146072 228.0
103.164268 136.0
103.184486 156.0
103.221642 212.0
103.293541 172.0
103.465691 156.0
103.485939 172.0
103.540611 148.0
103.568962 128.0
103.672287 180.0
103.862862 128.0
103.895317 124.0
104.00045 148.0
104.022949 188.0
104.053223 5644.0
104.074883 212.0
104.132462 188.0
104.17749 140.0
104.203903 72.0
104.242508 120.0
104.310699 116.0
104.343437 172.0
104.358368 104.0
104.385429 168.0
104.447845 180.0
104.492599 180.0
104.517014 64.0
104.612671 172.0
104.730766 44.0
104.757248 52.0
104.854797 96.0
104.871918 116.0
105.012032 48.0
105.058968 532.0
105.087509 208.0
105.204857 40.0
105.359039 100.0
105.375381 208.0
105.391724 152.0
105.448944 72.0
105.474747 192.0
105.71505 132.0
105.749596 112.0
105.876526 152.0
105.909294 208.0
106.003532 120.0
106.045822 384.0
106.110115 240.0
106.138817 112.0
106.163422 44.0
106.196236 36.0
106.276237 228.0
106.497948 148.0
106.524651 132.0
106.569847 156.0
106.637657 56.0
106.713715 200.0
106.773346 128.0
106.806252 112.0
106.890602 228.0
106.981163 184.0
107.050346 168.0
107.069695 192.0
107.215965 56.0
107.310783 176.0
107.3479 180.0
107.387077 92.0
107.451027 100.0
107.561737 284.0
107.624397 176.0
107.67189 116.0
107.742119 124.0
107.762779 196.0
107.781372 112.0
107.960243 200.0
108.002571 248.0
108.077049 192.0
108.151543 192.0
108.342049 44.0
108.356552 160.0
108.439438 92.0
108.545166 160.0
108.814896 116.0
108.912491 208.0
108.951958 184.0
109.082878 144.0
109.295006 84.0
109.355026 152.0
109.39698 180.0
109.461525 128.0
109.523682 244.0
109.569832 148.0
109.601082 208.0
109.657349 112.0
109.674019 248.0
109.695908 256.0
109.742813 124.0
110.045341 104.0
110.059952 324.0
110.100197 460.0
110.137222 160.0
110.270943 68.0
110.306473 140.0
110.40683 132.0
110.532639 168.0
110.791954 128.0
110.825974 220.0
110.903015 236.0
111.060265 136.0
111.095924 228.0
111.133018 200.0
111.189438 212.0
111.251213 208.0
111.349899 256.0
111.417114 180.0
111.467545 140.0
111.53479 188.0
111.60627 180.0
111.634048 208.0
111.726151 92.0
111.762695 172.0
111.782959 132.0
111.827148 140.0
111.853607 168.0
111.885345 148.0
111.930305 104.0
111.949257 180.0
111.971748 164.0
112.004013 192.0
112.03569 212.0
112.077148 45476.0
112.10833 176.0
112.158218 152.0
112.214043 156.0
112.245766 56.0
112.290657 48.0
112.347603 68.0
112.372925 344.0
112.405205 120.0
112.423218 448.0
112.480545 40.0
112.504166 64.0
112.626244 92.0
112.670601 60.0
112.689613 96.0
112.867157 232.0
112.888298 48.0
112.922691 76.0
113.023682 228.0
113.079445 2816.0
113.114677 200.0
113.135849 228.0
113.195129 44.0
113.277344 44.0
113.296959 52.0
113.330688 180.0
113.476936 144.0
113.546906 144.0
113.60672 20.0
113.633881 100.0
113.657219 60.0
113.677589 108.0
113.701775 68.0
113.733612 188.0
113.773949 108.0
113.82399 112.0
113.93322 56.0
113.965088 128.0
113.992706 60.0
114.015175 140.0
114.080841 380.0
114.102425 220.0
114.249969 132.0
114.558647 84.0
114.654526 196.0
114.684364 268.0
114.730423 164.0
114.918938 104.0
114.936005 60.0
114.950943 88.0
115.021759 132.0
115.30159 100.0
115.367416 120.0
115.504272 92.0
115.761093 164.0
115.968903 84.0
116.007484 128.0
116.234818 136.0
116.432312 168.0
116.473122 40.0
116.614929 116.0
116.784782 156.0
116.894493 220.0
116.974129 60.0
117.019333 104.0
117.122704 148.0
117.38131 176.0
117.774086 156.0
117.830254 128.0
118.00531 160.0
118.06369 156.0
118.106949 116.0
118.260567 76.0
118.371025 164.0
118.535599 80.0
118.581108 160.0
118.787094 92.0
118.910767 120.0
119.04319 144.0
119.177864 112.0
119.193069 116.0
119.284348 172.0
119.410461 144.0
119.436562 64.0
119.47789 136.0
119.534454 152.0
119.815323 164.0
119.850182 164.0
120.079071 128.0
120.137962 156.0
120.203415 148.0
120.229607 48.0
120.362167 88.0
120.404251 236.0
120.498924 128.0
120.531471 84.0
120.563728 164.0
120.591301 104.0
120.631485 236.0
120.703629 216.0
120.727936 176.0
120.808609 140.0
120.847992 252.0
120.876434 136.0
120.925995 216.0
120.955116 172.0
120.96946 212.0
120.984718 160.0
121.009163 344.0
121.025642 240.0
121.066177 78936.0
121.114662 80.0
121.118294 84.0
121.133835 56.0
121.1651 216.0
121.184753 64.0
121.214195 48.0
121.253639 64.0
121.294487 72.0
121.311951 192.0
121.327614 100.0
121.346542 164.0
121.368256 52.0
121.401962 176.0
121.426384 1276.0
121.448036 96.0
121.486954 152.0
121.502457 44.0
121.510735 88.0
121.543053 52.0
121.595909 76.0
121.639046 132.0
121.662895 72.0
121.69619 60.0
121.71595 84.0
121.768654 28.0
121.788422 124.0
121.803795 104.0
121.821373 124.0
121.868431 76.0
121.935623 76.0
121.997169 48.0
122.069527 10116.0
122.104912 132.0
122.137901 44.0
122.155502 40.0
122.199165 156.0
122.232796 60.0
122.309525 92.0
122.340988 116.0
122.399788 160.0
122.419609 40.0
122.562782 60.0
122.640984 124.0
122.695023 88.0
122.721939 96.0
122.744843 184.0
122.774399 120.0
122.816307 176.0
122.838242 72.0
122.86483 88.0
122.891304 160.0
122.910545 100.0
122.959709 192.0
122.977371 80.0
122.997566 132.0
123.02079 116.0
123.036476 180.0
123.070572 1004.0
123.151794 68.0
123.169464 100.0
123.209221 76.0
123.571793 60.0
123.658096 72.0
123.779854 44.0
123.797562 172.0
123.81971 76.0
123.877296 132.0
123.897232 72.0
124.075424 180.0
124.234192 52.0
124.421394 196.0
124.55162 28.0
124.587166 172.0
124.644928 120.0
124.873901 84.0
124.967331 68.0
124.994026 172.0
125.022957 60.0
125.14093 124.0
125.557617 136.0
126.856667 140.0
126.937378 216.0
127.011391 160.0
127.089684 400.0
127.721169 128.0
127.748161 144.0
127.889915 36.0
128.037628 160.0
128.200714 40.0
128.399094 208.0
128.478043 156.0
128.509628 128.0
128.538956 116.0
128.800842 156.0
129.102432 380.0
129.642471 40.0
129.742188 116.0
130.030258 200.0
130.068848 56.0
130.086578 404.0
130.166473 60.0
130.211884 208.0
130.773453 68.0
131.092285 172.0
131.156097 176.0
131.361313 40.0
131.402374 56.0
131.717407 92.0
132.076263 184.0
132.151749 48.0
132.19751 52.0
132.793152 76.0
132.822968 84.0
132.875732 124.0
134.050659 208.0
134.077393 192.0
134.325012 132.0
134.481918 120.0
134.673553 192.0
134.768265 100.0
134.789047 40.0
135.027161 56.0
135.080505 380.0
135.550339 132.0
135.608276 132.0
135.751999 164.0
135.793747 84.0
136.053635 240.0
136.074203 332.0
136.095413 236.0
137.060211 176.0
137.125931 76.0
137.942856 220.0
138.093246 476.0
138.223511 40.0
138.26329 64.0
138.338181 160.0
138.50209 144.0
138.717667 140.0
138.799728 120.0
138.88649 212.0
139.048386 156.0
139.087692 644.0
139.280823 40.0
139.393585 140.0
139.675705 76.0
139.962814 128.0
139.979309 132.0
140.082932 196.0
140.151245 140.0
140.170105 160.0
140.552094 132.0
140.653564 72.0
141.104767 148.0
141.940552 188.0
142.063873 148.0
143.035767 100.0
143.135757 40.0
143.278656 216.0
143.736435 124.0
143.798477 140.0
144.692459 176.0
144.855301 44.0
145.490768 140.0
145.577209 148.0
145.817444 48.0
146.168549 228.0
146.621262 232.0
146.775543 204.0
147.190567 88.0
148.624985 52.0
149.065414 140.0
149.110489 300.0
149.425262 140.0
150.088593 228.0
150.800552 212.0
151.076187 160.0
152.101135 112.0
152.558029 156.0
152.818726 160.0
153.059937 176.0
153.094406 184.0
153.695862 56.0
153.930359 148.0
154.177383 108.0
154.234222 160.0
154.637375 76.0
156.086014 144.0
156.124969 136.0
156.168198 176.0
156.357269 176.0
156.541489 156.0
157.052383 88.0
157.079819 224.0
157.134705 208.0
157.314392 260.0
157.499161 204.0
157.586594 192.0
157.716553 140.0
157.813812 172.0
158.100052 1248.0
158.162918 200.0
158.236862 116.0
159.021454 116.0
159.102341 140.0
159.496155 64.0
160.093811 144.0
160.112762 452.0
161.121506 172.0
161.854965 124.0
162.346558 104.0
163.047226 148.0
163.12529 212.0
163.176849 120.0
163.298904 92.0
164.07045 120.0
164.107208 232.0
164.542404 168.0
165.107895 180.0
165.13652 300.0
165.83931 176.0
166.052124 156.0
166.086639 588.0
166.12558 188.0
166.143753 220.0
166.175247 36.0
166.560303 164.0
166.662704 144.0
167.081512 480.0
167.118698 992.0
167.156754 228.0
167.215942 224.0
167.290588 48.0
167.380692 124.0
167.67952 208.0
168.058578 136.0
168.088882 184.0
168.118301 192.0
168.59079 216.0
169.030106 84.0
169.06842 184.0
169.454727 216.0
169.859146 108.0
170.069321 200.0
170.482254 192.0
170.557617 164.0
170.591415 64.0
171.075256 100.0
171.692764 116.0
171.789276 224.0
172.402832 184.0
172.421127 208.0
172.7061 104.0
172.87355 116.0
173.098663 156.0
173.347519 172.0
173.368469 48.0
173.405167 152.0
174.252731 148.0
174.641769 192.0
174.668076 168.0
175.321014 128.0
175.576736 168.0
176.285172 176.0
177.102081 344.0
177.165268 80.0
177.615906 136.0
177.78569 176.0
177.809586 160.0
177.897171 68.0
178.085938 136.0
178.133514 116.0
179.424149 208.0
179.456146 116.0
180.003128 160.0
180.101944 144.0
181.069473 280.0
181.133286 1092.0
182.075821 156.0
182.108047 164.0
182.172516 48.0
182.47995 212.0
182.554169 200.0
183.025055 148.0
183.150009 15508.0
183.242462 100.0
183.275558 64.0
183.302505 48.0
183.345612 100.0
183.391434 40.0
183.448029 116.0
183.496567 36.0
184.00647 60.0
184.078186 156.0
184.153229 972.0
184.241409 108.0
184.468414 120.0
184.565857 128.0
184.838928 52.0
185.090027 120.0
185.136688 88.0
185.19899 148.0
185.307343 56.0
185.338074 116.0
185.415726 36.0
185.526855 224.0
185.62175 136.0
185.654297 56.0
186.072144 132.0
186.118301 68.0
186.406219 144.0
186.868454 84.0
187.15152 104.0
187.421158 108.0
188.985657 188.0
189.048599 128.0
189.086914 172.0
189.557938 204.0
189.626434 132.0
190.076172 48.0
190.562164 212.0
191.200104 116.0
191.376266 96.0
192.062454 136.0
193.034576 208.0
193.129517 172.0
193.510483 104.0
193.579712 232.0
193.707108 140.0
193.917694 160.0
194.130951 108.0
194.169983 68.0
194.292023 120.0
194.328094 176.0
194.38913 184.0
194.472382 152.0
194.997314 124.0
195.039001 132.0
195.091812 112.0
195.115875 296.0
195.148102 372.0
195.495102 132.0
196.127304 160.0
196.601425 56.0
196.788437 248.0
196.925278 168.0
196.986725 56.0
198.764496 80.0
199.106979 220.0
199.199661 56.0
200.443176 192.0
200.564362 192.0
200.993011 120.0
201.159531 64.0
202.570572 196.0
202.732071 204.0
203.492233 100.0
204.208328 224.0
204.299347 132.0
205.088089 84.0
205.821259 200.0
206.896255 176.0
207.025101 152.0
207.045151 152.0
207.125336 164.0
207.153992 56.0
207.234207 172.0
207.383209 112.0
207.566681 144.0
207.865005 164.0
208.146301 132.0
209.125839 492.0
209.558548 220.0
209.659393 104.0
210.139542 132.0
210.15863 188.0
210.262131 128.0
210.573349 240.0
210.724136 76.0
211.033859 172.0
211.044373 200.0
211.055817 132.0
211.064468 224.0
211.144455 15776.0
211.225876 64.0
211.258972 60.0
211.323639 68.0
211.360229 64.0
211.49913 48.0
211.525192 128.0
211.56572 72.0
211.632294 144.0
211.669937 80.0
211.82634 108.0
212.008865 224.0
212.066818 68.0
212.098709 36.0
212.146896 1088.0
212.263962 56.0
212.379959 84.0
212.490189 132.0
212.588837 60.0
212.832672 88.0
212.867508 68.0
213.015625 52.0
213.099884 188.0
213.118805 144.0
213.154358 192.0
213.480652 68.0
213.547546 104.0
213.799759 132.0
213.826843 100.0
213.949097 140.0
214.351013 116.0
214.607513 56.0
214.887512 64.0
215.07135 68.0
215.111572 108.0
215.118988 124.0
215.127808 188.0
216.117538 176.0
217.227859 156.0
217.459656 80.0
217.656342 172.0
218.082321 152.0
218.661713 104.0
219.191772 184.0
219.483582 60.0
219.5672 180.0
219.707733 192.0
220.071594 224.0
220.135696 192.0
221.16452 116.0
222.041504 124.0
222.10675 180.0
222.166077 104.0
222.810272 80.0
223.143356 220.0
223.473267 216.0
223.601212 64.0
223.657761 88.0
223.815552 84.0
224.140213 92.0
224.441269 124.0
224.823074 200.0
225.438248 64.0
225.551819 40.0
225.847824 100.0
226.08548 148.0
226.155487 596.0
226.44043 100.0
227.009827 124.0
227.096802 100.0
227.156784 192.0
227.225784 104.0
228.170181 156.0
229.080627 140.0
229.104721 152.0
229.177032 172.0
230.163544 172.0
230.716217 160.0
230.785751 220.0
231.064011 112.0
231.197144 108.0
232.027069 116.0
232.071655 176.0
232.133606 144.0
232.342468 180.0
233.095428 172.0
233.142929 172.0
233.566391 216.0
234.16626 136.0
235.14595 520.0
236.143875 144.0
237.159134 3980.0
237.42717 44.0
237.491577 88.0
237.651093 56.0
238.157547 1260.0
238.29277 72.0
238.394165 100.0
238.775375 136.0
238.818436 144.0
238.961639 72.0
239.147171 292.0
239.18457 56.0
239.252304 80.0
239.344666 156.0
239.58168 260.0
239.671158 116.0
239.70813 84.0
239.920792 80.0
240.124298 60.0
240.168442 760.0
240.374176 104.0
241.076569 216.0
241.418274 64.0
241.668823 72.0
241.705948 44.0
242.130829 480.0
242.563248 220.0
242.573807 180.0
242.580612 260.0
242.690918 64.0
243.04451 144.0
243.119492 536.0
243.976242 96.0
244.122375 64.0
244.697998 152.0
245.081085 152.0
245.109131 148.0
245.882492 48.0
246.0448 140.0
246.194672 144.0
248.172134 156.0
248.4953 116.0
248.589478 248.0
248.919022 56.0
249.156448 176.0
249.184097 288.0
249.292831 176.0
249.846207 148.0
250.044434 164.0
250.13887 112.0
250.255341 80.0
250.907501 112.0
250.995789 168.0
251.180359 172.0
251.367996 92.0
251.535263 112.0
252.174835 140.0
252.413528 96.0
252.786789 172.0
254.854172 108.0
255.152924 132.0
255.744583 84.0
256.45166 112.0
256.633362 52.0
259.042999 120.0
261.058563 108.0
261.126556 308.0
264.167725 176.0
264.303589 64.0
265.090454 104.0
265.158508 184.0
265.680542 64.0
265.813568 48.0
265.993469 156.0
266.141388 284.0
266.186157 7304.0
266.290771 36.0
266.449951 180.0
266.527924 40.0
267.077332 52.0
267.119598 152.0
267.189575 1276.0
267.347351 80.0
267.486694 44.0
267.65332 44.0
268.190491 272.0
268.317993 88.0
268.360382 72.0
268.634308 48.0
268.741974 100.0
269.019379 52.0
269.122894 204.0
269.15976 180.0
269.391632 224.0
270.068268 148.0
270.091156 184.0
271.099518 112.0
271.597839 212.0
271.670013 128.0
273.13504 84.0
273.654999 40.0
274.930634 20.0
275.217834 152.0
275.663727 64.0
276.990417 32.0
277.75943 120.0
277.872223 60.0
277.905396 48.0
278.160919 188.0
279.194214 180.0
280.129456 136.0
280.169434 224.0
281.199768 148.0
283.080994 148.0
283.142181 52.0
284.063904 160.0
285.353455 80.0
287.853516 172.0
288.062927 168.0
288.789642 252.0
291.651276 96.0
292.194702 192.0
292.749268 140.0
293.118042 192.0
293.414581 180.0
294.008057 168.0
294.179138 516.0
294.75592 84.0
294.820831 128.0
295.181091 516.0
295.55603 56.0
296.274994 136.0
296.90567 84.0
297.162872 660.0
297.626282 44.0
298.169312 140.0
299.156158 192.0
299.183716 192.0
299.676208 156.0
301.080109 120.0
303.162659 148.0
306.003937 120.0
307.27951 228.0
307.394653 68.0
309.141846 144.0
309.992767 92.0
310.280182 108.0
311.208282 2444.0
311.301208 204.0
312.028534 68.0
312.134003 164.0
312.209381 364.0
312.781342 32.0
312.950317 36.0
313.115814 124.0
313.151031 156.0
313.570282 104.0
313.746521 52.0
313.965118 196.0
314.088562 136.0
314.188812 4012.0
314.388458 76.0
314.568451 92.0
315.076965 144.0
315.192444 480.0
315.264252 116.0
315.296051 100.0
315.638947 104.0
316.188538 296.0
316.5448 68.0
316.941498 56.0
317.161224 124.0
317.480316 88.0
317.785339 52.0
318.225433 52.0
318.683624 216.0
319.108398 176.0
321.796448 156.0
321.978577 64.0
323.029358 80.0
323.215424 136.0
323.351379 40.0
325.152588 136.0
325.18277 144.0
326.166901 96.0
327.102142 132.0
327.177734 96.0
327.217316 92.0
327.768402 60.0
328.031464 140.0
328.377625 88.0
329.101471 216.0
330.440216 140.0
330.480011 40.0
331.17868 64.0
331.214874 92.0
331.461243 196.0
331.544586 188.0
332.204468 156.0
333.638885 104.0
334.59903 260.0
336.725128 140.0
338.590302 136.0
339.290161 176.0
339.414795 76.0
340.053101 208.0
340.155884 100.0
340.530396 144.0
340.798553 172.0
342.183899 2348.0
342.306641 76.0
342.630737 60.0
343.1875 508.0
343.913971 40.0
344.178192 628.0
344.224091 36.0
344.722778 120.0
345.059113 60.0
345.187073 292.0
346.094238 196.0
346.206146 108.0
346.358002 48.0
346.724792 44.0
346.948608 104.0
347.054718 72.0
347.112915 144.0
347.206757 176.0
347.374725 164.0
347.444122 52.0
347.689026 228.0
347.818909 228.0
347.852325 108.0
348.037964 104.0
348.078796 92.0
348.133301 188.0
348.167908 116.0
348.227478 9864.0
348.292511 132.0
348.352539 96.0
348.416779 52.0
348.513367 124.0
348.561676 60.0
348.639191 56.0
348.706757 108.0
348.779327 64.0
348.915649 216.0
348.977966 104.0
349.08139 192.0
349.167297 120.0
349.233002 2448.0
349.413116 52.0
349.688477 40.0
349.748016 32.0
349.87085 116.0
349.949036 68.0
350.07193 88.0
350.138947 108.0
350.231079 228.0
350.723877 68.0
350.837708 120.0
351.246948 340.0
351.324219 60.0
351.391388 56.0
351.940033 36.0
352.134216 176.0
352.190247 40.0
352.279877 60.0
353.221863 76.0
354.198822 136.0
354.314941 112.0
354.386139 68.0
355.439728 144.0
355.860107 72.0
359.220734 60.0
361.21521 120.0
365.262512 116.0
365.734344 180.0
366.541718 56.0
371.197449 136.0
376.979248 176.0
378.100739 136.0
379.115356 120.0
385.950745 104.0
386.177551 144.0
386.24057 164.0
390.185089 36.0
396.227234 148.0
396.678986 148.0
396.932709 244.0
397.063599 56.0
397.131012 124.0
398.440948 120.0
401.254608 112.0
403.230499 140.0
405.107056 112.0
408.181335 140.0
408.764587 116.0
411.691162 76.0
412.232452 188.0
413.178558 44.0
414.248993 132.0
415.224091 312.0
420.240143 232.0
420.280457 124.0
421.162231 52.0
422.257568 100.0
422.50708 20.0
425.248383 168.0
426.102478 68.0
426.842316 92.0
428.612244 160.0
430.786469 172.0
430.9104 80.0
431.264862 3612.0
431.37326 48.0
431.526215 100.0
431.563416 44.0
431.652618 84.0
431.753632 52.0
431.819794 80.0
431.894257 224.0
432.039032 184.0
432.267426 1268.0
432.386597 60.0
433.049011 52.0
433.123566 120.0
433.272675 208.0
433.301697 56.0
433.658051 44.0
435.209503 32.0
436.913513 56.0
437.333771 44.0
437.621002 40.0
438.13327 68.0
443.226257 40.0
443.289124 64.0
444.354095 36.0
446.252441 204.0
447.243744 124.0
448.243317 132.0
448.399231 92.0
448.968384 96.0
450.690613 224.0
462.245636 376.0
462.419067 48.0
462.624512 52.0
463.15976 184.0
463.2453 236.0
464.14975 108.0
464.213684 136.0
464.230225 124.0
471.173859 124.0
471.208405 168.0
477.89389 120.0
478.165955 508.0
478.712189 224.0
479.189728 172.0
479.270264 1024.0
479.361267 176.0
479.596588 104.0
479.705566 168.0
479.801453 60.0
480.273865 560.0
481.257935 232.0
481.848267 92.0
482.280884 48.0
483.207916 80.0
485.375977 60.0
496.166321 148.0
496.200287 88.0
517.464294 36.0
518.211609 52.0
518.719116 116.0
523.935974 32.0
528.615845 92.0
529.829163 60.0
531.181519 64.0
550.467529 260.0
558.349731 64.0
580.825439 116.0
592.932068 216.0
605.721863 116.0
615.459351 64.0
621.666565 124.0
621.72113 52.0
625.792114 112.0
628.533447 76.0
628.902771 40.0
633.513 228.0
637.436401 108.0
644.652405 96.0
657.337219 116.0
658.828064 88.0
663.725952 40.0
666.554199 144.0
670.985718 56.0
671.042419 56.0
678.710022 132.0
681.581177 108.0
693.588745 80.0
703.625671 76.0
708.337463 208.0
713.67627 116.0
771.070801 68.0
776.185791 36.0
798.934387 28.0
801.383362 100.0
807.100891 80.0
831.643066 80.0
836.361938 132.0
836.430969 176.0
873.898804 100.0
878.499939 120.0
879.92218 136.0
896.595947 152.0
901.101013 152.0
904.820923 200.0
906.300232 144.0
909.610657 160.0
920.417175 204.0
924.285583 188.0
929.915344 148.0
933.542175 88.0
937.980469 200.0
951.837463 176.0
957.26709 108.0
957.815186 132.0
958.3573 208.0
960.515015 52.0
962.959167 164.0
967.225403 200.0
972.419312 160.0
974.077148 48.0
984.478149 84.0
989.63678 120.0
991.553589 164.0
992.130249 224.0
994.671387 192.0
995.373962 132.0
999.031738 132.0
1002.822327 128.0
1012.368225 68.0
1015.359375 204.0
1015.936584 36.0
1017.567566 192.0
1020.324768 184.0
1025.780273 48.0
1025.869629 160.0
1026.800537 160.0
1027.062012 176.0
1027.183105 124.0
1028.018921 108.0
1028.140137 76.0
1028.855103 172.0
1032.900024 200.0
1033.379883 72.0
1034.282104 200.0
1035.216797 248.0
1035.697144 204.0
1041.283569 168.0
1042.25354 200.0
1043.68689 132.0
1044.94104 20.0
1050.984497 140.0
1054.516724 168.0
1057.899658 120.0
1058.449951 228.0
1059.220581 128.0
1060.633179 92.0
1062.695312 172.0
1064.181641 204.0
1068.204346 184.0
1070.059082 48.0
1074.281982 124.0
1076.794922 172.0
1078.094971 156.0
1080.8479 140.0
1082.170044 172.0
1084.24646 112.0
1084.29895 160.0
1086.101929 188.0
1086.790771 124.0
1089.114624 152.0
1089.535034 184.0
1092.0 104.0
1093.276245 196.0
1094.724487 128.0
1094.935181 84.0
1096.773438 192.0
1097.709595 144.0
1099.0354 68.0
1099.404907 192.0
1101.068481 40.0
1102.125488 172.0
1102.508667 216.0
1102.845703 172.0
1103.824219 52.0
1104.458984 148.0
1106.311768 140.0
1107.603027 76.0
1110.313843 128.0
1110.519409 116.0
1110.678589 200.0
1110.731689 120.0
1111.162842 140.0
1116.755981 196.0
1119.384644 128.0
1120.050659 176.0
1123.496948 128.0
1124.671387 200.0
1125.23877 200.0
1125.292236 124.0
1128.024536 160.0
1128.465698 112.0
1128.980591 176.0
1130.699829 196.0
1130.887207 128.0
1132.04541 100.0
1132.668335 204.0
1135.241821 184.0
1137.422363 72.0
1137.610229 136.0
1138.351196 180.0
1141.049805 144.0
1142.832153 228.0
1142.919556 224.0
1143.188721 88.0
1146.191895 144.0
1146.825439 192.0
1148.140137 172.0
1149.023682 136.0
1149.131592 120.0
1151.541504 160.0
1151.919678 108.0
1152.270996 204.0
1154.42041 200.0
1155.089966 140.0
1155.286133 160.0
1157.370605 204.0
1157.729492 164.0
1158.122314 124.0
1161.375732 48.0
1162.026855 124.0
1165.122681 164.0
1166.352661 140.0
1166.461426 240.0
1166.556519 48.0
1168.555908 240.0
1168.671631 172.0
1169.944214 244.0
1170.829346 124.0
1170.931519 160.0
1174.223267 164.0
1177.027954 172.0
1177.44458 132.0
1178.209595 128.0
1178.557983 188.0
1179.80188 156.0
1180.738647 188.0
1181.080566 192.0
1183.229248 212.0
1185.53064 144.0
1185.976196 152.0
1187.62854 104.0
1188.355713 180.0
1188.527222 184.0
1189.490356 148.0
1189.645874 56.0
1190.222534 104.0
1190.923096 144.0
1191.328369 184.0
1192.063477 200.0
1192.283325 208.0
1192.606323 112.0
1192.695679 196.0
1192.846924 128.0
1194.070801 160.0
1194.786133 176.0
1195.680664 148.0
1196.499756 188.0
1197.808105 224.0
1199.392944 164.0
1199.999634 132.0
1201.32373 188.0
1203.628784 144.0
1204.277954 164.0
1206.323242 136.0
1207.941284 200.0
1208.487793 184.0
1208.570801 164.0
1212.95459 132.0
1213.016968 144.0
1213.626953 172.0
1216.499146 96.0
1217.755981 212.0
1218.047607 176.0
1218.575562 108.0
1220.14624 176.0
1220.723389 144.0
1221.279785 200.0
1221.481445 56.0
1221.94751 156.0
1223.179321 140.0
1223.360229 92.0
1223.422852 168.0
1223.61084 240.0
1224.105225 184.0
1224.836426 228.0
1224.892212 72.0
1225.031494 148.0
1226.864258 116.0
1227.219849 164.0
1228.056641 56.0
1228.356567 212.0
1228.523926 232.0
1228.858887 164.0
1229.193726 64.0
1230.959717 140.0
1232.608276 152.0
1233.558716 260.0
1234.792969 76.0
1235.572754 132.0
1236.214966 204.0
1236.926514 204.0
1237.014282 164.0
1238.519775 104.0
1238.575806 156.0
1239.045166 172.0
1240.29248 236.0
1241.147705 164.0
1242.164673 156.0
1242.241821 56.0
1242.65564 176.0
1243.259155 176.0
1243.427612 172.0
1244.002197 160.0
1244.845581 152.0
1245.934326 132.0
1246.018555 152.0
1246.215332 48.0
1247.768555 200.0
1248.774048 224.0
1248.84436 280.0
1248.921753 132.0
1249.414185 172.0
1249.604126 176.0
1249.913696 200.0
1251.168945 248.0
1252.201538 192.0
1252.898926 100.0
1253.300537 148.0
1253.448486 196.0
1254.139038 156.0
1254.554932 160.0
1254.660767 204.0
1254.963867 256.0
1255.831177 168.0
1256.078125 184.0
1256.17688 124.0
1256.402588 152.0
1256.790649 196.0
1259.134155 112.0
1259.254272 152.0
1260.087769 156.0
1260.236206 160.0
1261.246704 92.0
1262.064819 172.0
1262.399048 120.0
1262.788086 248.0
1263.141724 132.0
1264.153442 184.0
1264.960205 140.0
1265.137207 128.0
1265.38501 48.0
1265.845215 224.0
1266.09314 176.0
1266.879272 140.0
1268.138184 204.0
1269.927246 392.0
1271.019653 128.0
1271.069336 64.0
1271.211304 116.0
1271.74353 292.0
1275.415649 184.0
1276.140747 124.0
1277.079346 172.0
1277.6698 180.0
1277.833374 144.0
1279.391968 164.0
1280.068359 264.0
1281.591675 144.0
1282.397827 180.0
1282.590332 228.0
1283.096436 164.0
1285.328857 152.0
1285.950806 164.0
1286.270874 236.0
1286.335083 152.0
1286.606445 164.0
1287.191895 176.0
1288.234619 180.0
1290.593018 140.0
1291.601318 176.0
1291.751587 52.0
1293.067505 200.0
1293.927002 232.0
1294.292114 140.0
1294.95813 148.0
1295.746094 128.0
1296.039795 108.0
1296.276245 84.0
1297.179321 116.0
1297.372925 136.0
1297.53064 184.0
1298.603271 204.0
1300.320923 76.0
1300.493164 100.0
1301.533081 144.0
1302.826782 236.0
1302.877075 152.0
1304.414917 148.0
1304.846191 92.0
1305.148193 260.0
1305.924805 124.0
1306.147827 124.0
1307.673218 160.0
1307.766724 128.0
1307.953857 160.0
1308.140991 192.0
1308.436157 64.0
1310.279785 128.0
1310.668823 180.0
1311.432739 116.0
1312.456421 148.0
1312.51416 132.0
1313.199219 180.0
1314.237915 152.0
1314.490479 156.0
1314.591553 184.0
1314.721436 88.0
1314.995605 172.0
1315.999023 184.0
1316.179565 44.0
1316.331177 164.0
1316.540649 172.0
1317.436157 112.0
1317.508423 128.0
1319.235596 76.0
1319.611572 160.0
1319.674683 56.0
1320.21167 176.0
1320.399658 184.0
1320.573608 224.0
1321.31189 152.0
1321.549805 212.0
1322.80188 188.0
1323.055786 180.0
1323.14209 168.0
1323.243408 124.0
1323.504028 168.0
1323.554688 48.0
1323.612671 180.0
1323.855469 120.0
1324.076172 180.0
1324.213745 152.0
1324.293457 180.0
1324.474487 200.0
1325.872803 176.0
1326.619385 184.0
1326.713623 176.0
1326.952759 40.0
1327.373291 156.0
1327.90271 160.0
1328.171021 108.0
1328.432251 140.0
1328.969116 184.0
1330.224609 168.0
1330.311646 148.0
1331.13208 172.0
1331.262573 192.0
1331.473389 168.0
1331.771118 176.0
1332.475708 112.0
1332.584717 116.0
1333.325928 184.0
1333.42041 236.0
1336.394531 128.0
1336.7146 168.0
1337.238647 216.0
1337.551636 192.0
1338.578125 188.0
1339.087891 248.0
1339.495728 224.0
1341.084229 200.0
1343.074707 144.0
1343.753052 152.0
1344.920654 160.0
1345.33667 128.0
1346.189087 56.0
1347.776001 192.0
1348.207153 140.0
1348.711426 156.0
1348.952637 232.0
1349.413208 196.0
1349.508301 180.0
1351.007446 84.0
1352.994385 60.0
1353.173706 48.0
1354.748291 216.0
1354.9021 64.0
1354.953369 232.0
1355.400269 192.0
1355.927856 192.0
1356.140503 148.0
1356.367676 164.0
1357.284058 156.0
1357.628662 236.0
1357.775391 132.0
1358.684937 144.0
1360.930664 188.0
1361.297852 196.0
1361.576904 172.0
1363.134277 144.0
1363.28125 180.0
1363.89856 308.0
1364.163208 204.0
1364.508667 156.0
1365.935303 76.0
1366.075073 180.0
1366.54187 232.0
1366.781372 152.0
1368.37854 132.0
1368.776123 84.0
1370.367065 192.0
1370.480713 212.0
1371.022827 212.0
1371.140747 200.0
1371.442871 168.0
1371.509277 184.0
1372.393921 164.0
1373.345215 160.0
1374.746948 120.0
1375.056885 84.0
1375.713745 132.0
1376.119873 132.0
1376.53186 160.0
1377.449097 224.0
1377.877563 152.0
1378.261719 128.0
1378.372559 124.0
1378.63855 184.0
1380.900757 200.0
1381.581299 188.0
1382.26062 200.0
1383.127808 260.0
1383.42395 212.0
1383.631226 52.0
1384.179077 172.0
1384.727173 180.0
1384.941895 184.0
1385.490112 152.0
1385.638184 140.0
1385.964233 52.0
1386.401367 104.0
1387.172241 236.0
1387.36499 176.0
1389.359863 176.0
1389.70105 160.0
1390.027588 144.0
1390.710327 240.0
1391.608521 156.0
1392.024292 116.0
1392.28418 140.0
1392.685303 180.0
1393.004639 176.0
1393.056641 116.0
1393.272095 196.0
1393.383545 112.0
1393.509888 256.0
1394.98877 180.0
1395.642944 120.0
1397.234497 196.0
1397.331299 192.0
1397.673462 144.0
1397.87439 124.0
1398.134888 116.0
1398.469727 72.0
1398.87915 168.0
1399.117432 120.0
1399.296021 112.0
1399.936401 112.0
1401.246582 204.0
1401.79126 148.0
1403.147705 104.0
1403.378906 108.0
1403.579224 132.0
1403.867065 348.0
1405.504639 156.0
1405.728394 192.0
1406.079224 184.0
1406.355347 168.0
1406.713623 196.0
1406.795776 152.0
1406.859253 116.0
1407.482544 148.0
1407.967896 156.0
1408.090942 168.0
1408.31897 188.0
1408.909058 212.0
1409.671143 144.0
1410.322998 128.0
1411.061401 188.0
1411.345459 172.0
1411.457642 128.0
1411.838989 144.0
1411.988647 128.0
1412.841309 156.0
1413.589478 204.0
1414.689697 112.0
1415.932617 96.0
1417.400879 196.0
1418.187744 184.0
1418.682495 104.0
1418.772461 204.0
1419.559692 208.0
1420.472046 176.0
1421.404907 232.0
1421.600098 160.0
1422.185425 180.0
1423.258911 108.0
1424.588257 84.0
1425.046509 84.0
1425.542358 136.0
1425.662598 200.0
1426.091064 276.0
1426.481812 52.0
1427.135864 84.0
1427.36145 128.0
1428.075928 176.0
1428.286499 168.0
1429.798828 180.0
1430.227783 196.0
1431.003174 128.0
1431.357056 164.0
1431.530151 128.0
1431.710938 76.0
1431.882812 176.0
1432.027222 52.0
1433.353149 108.0
1434.008667 208.0
1434.144409 240.0
1435.569214 104.0
1436.19519 164.0
1436.549683 136.0
1436.677979 168.0
1436.866577 144.0
1437.40979 96.0
1437.756958 132.0
1437.824829 52.0
1438.202271 192.0
1439.077881 216.0
1439.23645 216.0
1439.591309 192.0
1440.429688 188.0
1440.920654 72.0
1441.126587 180.0
1441.383179 176.0
1441.872803 160.0
1442.008789 208.0
1442.318726 176.0
1442.409424 192.0
1442.67395 212.0
1443.044434 108.0
1443.119995 168.0
1443.27124 188.0
1443.520752 144.0
1444.942749 192.0
1446.683228 208.0
1447.62207 68.0
1448.137085 120.0
1448.212769 164.0
1450.031128 156.0
1450.32019 148.0
1450.682983 160.0
1450.758789 104.0
1451.152832 140.0
1452.282959 168.0
1452.662231 140.0
1452.715332 148.0
1453.064209 84.0
1453.132568 236.0
1454.149292 120.0
1454.323853 212.0
1455.075439 192.0
1455.166504 148.0
1455.265259 112.0
1455.455078 208.0
1455.600098 152.0
1455.948608 204.0
1456.229614 140.0
1457.156372 144.0
1457.786987 212.0
1458.212524 184.0
1458.372192 168.0
1459.383179 160.0
1459.96106 180.0
1461.626953 160.0
1461.946533 208.0
1462.040161 204.0
1462.243408 140.0
1462.578247 188.0
1462.700073 180.0
1462.753296 176.0
1463.050171 212.0
1463.994385 72.0
1464.527466 160.0
1465.174927 132.0
1465.380615 92.0
1466.782837 152.0
1466.973389 116.0
1467.217285 200.0
1469.009399 144.0
1469.146729 168.0
1469.230591 172.0
1469.390869 88.0
1469.619751 144.0
1469.755371 144.0
1470.062256 156.0
1470.352295 200.0
1470.772095 196.0
1470.863647 188.0
1472.459351 168.0
1472.596802 112.0
1473.360718 152.0
1474.327393 116.0
1474.728516 116.0
1475.179443 156.0
1476.226929 152.0
1476.70105 116.0
1476.854004 148.0
1476.945801 112.0
1477.894409 152.0
1478.024414 132.0
1478.284546 164.0
1479.164795 200.0
1479.447998 172.0
1479.899658 144.0
1480.535156 152.0
1480.634766 176.0
1480.772583 124.0
1481.025391 228.0
1481.653442 164.0
1481.791382 192.0
1481.844971 128.0
1481.94458 96.0
1482.435059 140.0
1482.504028 152.0
1482.557617 148.0
1482.657227 184.0
1483.891357 172.0
1485.179565 44.0
1485.494141 184.0
1486.844482 128.0
1486.997925 120.0
1487.24353 176.0
1487.542969 104.0
1487.673462 152.0
1487.803955 204.0
1488.433472 164.0
1488.771362 168.0
1489.667969 236.0
1490.35376 160.0
1490.691772 200.0
1490.82251 136.0
1490.899292 176.0
1491.698608 160.0
1492.582764 196.0
1493.636353 196.0
1493.882446 156.0
1494.205566 180.0
1494.336426 204.0
1495.875488 76.0
1496.214233 176.0
1496.707031 148.0
1499.904053 196.0
1500.042847 240.0
1500.351196 200.0
1501.045044 128.0
1502.140259 208.0
1502.417969 196.0
1502.495117 108.0
1502.672485 136.0
1502.849976 164.0
1502.996582 188.0
1503.783691 160.0
1503.93811 172.0
