>compound Phenylbutazone
>formula C19H20N2O2 
>ionization [M+H]+
>parentmass 309.159912
#inchi InChI=1S/C19H20N2O2/c1-2-3-14-17-18(22)20(15-10-6-4-7-11-15)21(19(17)23)16-12-8-5-9-13-16/h4-13,17H,2-3,14H2,1H3
#inchikey VYMDGNCVAMGZFE
#Ion_Source LC-ESI
#Instrument qTof
#Compound_Source Isolated
#PI Sirenas
#Data_Collector Ed Esquenazi 
#Scan -1
#Precursor_MZ 309.16
#ExactMass 0.0
#Charge 1
#CAS_Number N/A
#Pubmed_ID N/A
#Smiles N/A
#INCHI_AUX N/A
#Library_Class 3
#SpectrumID CCMSLIB00000006294
#IonMode Positive
#UpdateWorkflowName UPDATE-SINGLE-ANNOTATED-BRONZE
#LibraryQualityString Bronze
#TaskID d19310cd93df49b68e9fcbec27720eb5
##Scan# 2
#SpectrumFile Phenylbutazone.mgf
#LibraryName fda_library.mgf
#MQScore -1
#Organism fda_library
#TIC_Query 0
#RT_Query -1
#MZErrorPPM -1
#SharedPeaks 0
#MassDiff 0
#LibMZ -1
#SpecMZ 309.16
#SpecCharge 0
#internalFilename spec-00000.mgf

>collision 10
105.035233 38.55254
106.061699 80.890747
106.419342 19.28125
107.04921 37.61319
118.063171 33.21312
119.033043 22.646099
120.044334 1075.543945
120.10495 10.67708
120.139549 16.156389
120.158615 10.41182
120.185997 11.29643
120.26667 10.5625
120.326752 12.97961
120.371223 23.504499
120.498245 19.669121
125.058327 19.70476
131.069977 53.064041
132.043442 308.194397
133.052094 117.186096
137.148178 18.706141
143.072189 67.794868
145.105545 27.29167
145.354675 14.00926
146.060455 20.66667
148.111557 38.833328
160.062317 115.357597
160.111893 541.796814
160.541702 17.03858
160.599854 24.62674
162.053024 69.829903
162.126266 231.548401
168.079529 68.09919
172.109985 130.266693
174.052719 30.04932
186.092667 19.672621
187.252991 35.972019
188.106262 370.832611
189.236404 31.67952
190.122574 465.40921
190.510498 16.6586
190.838669 14.0947
194.061798 34.687679
211.086746 377.667694
212.574738 15.8648
216.099182 157.196396
249.102829 37.192619
253.089981 29.123461
253.955994 11.5375
263.15152 15.69048
281.159119 23.02244
309.159912 287.016205
309.881012 17.68627
314.595764 18.478411
377.350281 22.335529
