>compound DEHYDROEPIANDROSTERONE
>formula C19H28O2
>ionization [M+H]+
>parentmass 289.21620658809053
#inchi InChI=1S/C19H28O2/c1-18-9-7-13(20)11-12(18)3-4-14-15-5-6-17(21)19(15,2)10-8-16(14)18/h3,13-16,20H,4-11H2,1-2H3/t13-,14-,15-,16-,18-,19-/m0/s1
#inchikey FMGSKLZLMKYGDP
#Ion_Source LC-ESI
#Instrument qTof
#Compound_Source Commercial
#PI Dorrestein
#Data_Collector Garg_Neha
#Scan -1
#Precursor_MZ 289.216
#ExactMass 288.209
#Charge 1
#CAS_Number N/A
#Pubmed_ID N/A
#Smiles C[C@@]12CC[C@H]3[C@@H](CC=C4C[C@@H](O)CC[C@]34C)[C@@H]2CCC1=O
#INCHI_AUX N/A
#Library_Class 1
#SpectrumID CCMSLIB00000079233
#IonMode Positive
#UpdateWorkflowName UPDATE-SINGLE-ANNOTATED-GOLD
#LibraryQualityString Gold
#TaskID 278b19f5865741e282cec7349aa7e7a1
##Scan# 1383
#SpectrumFile NCP003672_A27B27C27D27_BE4_01_15740.mzXML
#LibraryName NIHcollectionI_05062014.mgf
#MQScore -1
#Organism NIHcollectionI_05062014
#TIC_Query 0
#RT_Query -1
#MZErrorPPM -1
#SharedPeaks 0
#MassDiff 0
#LibMZ -1
#SpecMZ 289.216
#SpecCharge 0
#internalFilename spec-00000.mgf

>collision 10
45.28458 188.0
45.890648 164.0
46.068794 156.0
46.557762 152.0
47.049313 144.0
47.961555 208.0
50.050003 220.0
51.994774 180.0
52.871014 192.0
53.322052 184.0
53.737068 140.0
53.769169 224.0
54.002937 144.0
54.934216 148.0
56.473122 148.0
57.334911 140.0
57.51741 168.0
57.58989 144.0
58.783188 184.0
59.247997 156.0
60.906338 180.0
62.603313 156.0
62.682079 148.0
63.128815 152.0
63.567616 140.0
64.325203 148.0
65.629234 152.0
66.777695 160.0
69.739014 240.0
71.651741 144.0
71.901299 168.0
72.683113 140.0
73.64669 160.0
76.535431 160.0
78.964226 172.0
79.277588 172.0
79.78878 148.0
81.147438 168.0
81.233521 184.0
82.192459 180.0
83.442215 188.0
84.606178 176.0
85.811386 164.0
86.143074 148.0
86.859955 160.0
89.333244 156.0
89.44239 176.0
90.977348 240.0
91.054352 164.0
91.155884 164.0
91.307968 192.0
91.380257 156.0
93.069702 148.0
93.33889 148.0
95.085457 184.0
95.427139 236.0
95.524376 268.0
96.593346 208.0
96.744026 144.0
96.896782 200.0
97.065399 8644.0
97.10215 104.0
97.236015 172.0
98.068268 1160.0
98.125801 212.0
98.672012 148.0
99.067574 164.0
99.778282 152.0
101.780296 140.0
103.688667 148.0
104.252846 176.0
105.070244 680.0
105.745705 232.0
106.069328 152.0
106.11853 140.0
107.045975 328.0
107.087578 368.0
107.150269 180.0
108.141457 248.0
108.821396 180.0
108.993271 192.0
109.041588 156.0
109.065033 13420.0
109.102715 204.0
109.600418 184.0
109.688423 104.0
110.06926 1092.0
111.272537 156.0
112.810432 144.0
114.446167 156.0
114.7743 232.0
114.855339 140.0
115.830055 184.0
116.604622 220.0
117.072655 216.0
118.702995 152.0
119.087082 340.0
119.678619 204.0
120.105759 180.0
120.173386 152.0
121.064171 692.0
121.101173 816.0
121.264587 156.0
122.103767 176.0
122.878647 176.0
123.079735 2728.0
124.088226 132.0
127.083839 140.0
127.153404 156.0
127.317291 216.0
128.86705 176.0
128.984573 148.0
129.070129 364.0
130.073425 172.0
130.226242 184.0
131.083557 476.0
133.101318 752.0
134.109451 128.0
134.427353 192.0
135.11528 312.0
136.082352 148.0
137.094238 360.0
137.131485 164.0
138.435089 168.0
139.077484 188.0
139.850769 208.0
141.041916 220.0
141.072632 288.0
142.304565 168.0
142.546844 236.0
143.085297 404.0
143.182022 224.0
143.563324 176.0
143.878281 164.0
145.100876 736.0
145.247086 152.0
145.443832 164.0
146.106888 152.0
147.117401 1088.0
147.162689 152.0
147.735474 148.0
148.096146 176.0
148.117035 320.0
148.639191 156.0
148.695007 184.0
148.966949 148.0
149.095718 344.0
149.128418 160.0
150.099136 204.0
151.075607 172.0
151.108902 264.0
151.158798 180.0
151.496674 144.0
152.117432 144.0
152.198105 188.0
153.019318 168.0
153.452927 144.0
153.494843 156.0
154.66835 184.0
155.088776 228.0
155.203476 156.0
155.563202 176.0
156.515411 156.0
156.943985 144.0
157.101166 760.0
157.320709 184.0
158.107727 152.0
158.611481 180.0
159.115433 1004.0
159.256332 164.0
159.912552 176.0
160.121353 180.0
161.100189 328.0
161.132065 1000.0
162.038773 144.0
163.116013 300.0
163.145905 224.0
164.154694 168.0
165.039566 168.0
168.532654 140.0
169.099747 452.0
169.782944 160.0
170.808868 196.0
171.118866 488.0
172.125397 176.0
173.133606 1076.0
174.545761 148.0
175.009659 172.0
175.109879 336.0
175.148346 1468.0
175.180481 200.0
175.74202 184.0
177.127441 892.0
178.126434 328.0
178.789383 160.0
179.139496 140.0
179.802078 144.0
180.951233 124.0
182.117996 156.0
183.119583 104.0
183.503876 152.0
183.544312 188.0
184.124496 216.0
184.576965 156.0
184.905823 216.0
185.13681 492.0
186.134613 172.0
186.737152 152.0
187.109955 176.0
187.148224 1176.0
188.14592 264.0
188.533783 164.0
189.088959 204.0
189.126709 332.0
189.165909 580.0
190.139481 180.0
190.166031 192.0
191.140457 212.0
193.801086 120.0
194.279297 196.0
195.519562 224.0
197.136139 548.0
198.133331 140.0
198.618073 176.0
198.803253 148.0
199.146011 412.0
199.875778 196.0
201.163605 496.0
202.170868 148.0
203.144562 440.0
203.380432 164.0
203.835449 144.0
204.95372 240.0
205.287216 140.0
206.29509 160.0
207.359879 152.0
208.091354 220.0
208.703339 144.0
208.809738 192.0
209.132355 124.0
209.572586 176.0
210.602463 148.0
211.148041 568.0
211.507477 176.0
212.826538 160.0
213.16626 456.0
214.163132 160.0
215.147644 156.0
215.187836 176.0
215.74585 196.0
217.160934 704.0
218.026245 160.0
218.440811 228.0
218.720352 148.0
219.170044 144.0
220.277267 180.0
220.862534 204.0
224.146042 148.0
225.157318 148.0
227.178162 408.0
227.237701 252.0
227.450775 200.0
228.183762 284.0
229.160416 280.0
229.197144 256.0
229.82222 144.0
229.93689 176.0
230.160278 384.0
230.75853 172.0
230.789108 172.0
230.858307 164.0
231.174637 160.0
231.375702 176.0
232.017975 152.0
235.201294 124.0
236.361221 176.0
238.126999 200.0
240.059677 140.0
241.689285 164.0
242.012543 168.0
242.622894 164.0
243.180634 144.0
244.208817 120.0
244.306076 148.0
244.931763 148.0
245.185074 332.0
249.474594 196.0
251.715546 152.0
253.194809 2860.0
254.197006 844.0
254.508347 204.0
255.201218 292.0
255.77681 184.0
256.174835 160.0
256.401062 184.0
256.630676 128.0
256.701691 176.0
260.949738 208.0
262.550079 240.0
263.101837 196.0
263.211609 180.0
269.964264 152.0
271.204865 5172.0
272.208801 1192.0
273.139038 140.0
273.216583 176.0
274.175964 132.0
274.443176 140.0
275.621521 236.0
276.292694 184.0
277.163452 172.0
278.015686 176.0
279.560944 184.0
281.921997 140.0
284.086823 108.0
284.303009 172.0
284.618561 184.0
285.902649 172.0
286.670471 160.0
287.874756 148.0
287.926636 100.0
288.116669 300.0
288.212555 300.0
288.284485 204.0
288.360291 212.0
288.425171 100.0
288.487915 176.0
288.525513 120.0
288.680328 156.0
288.814148 408.0
288.929565 236.0
288.98938 176.0
289.043365 188.0
289.072479 304.0
289.102692 232.0
289.139191 264.0
289.166046 288.0
289.176086 356.0
289.218506 130284.0
289.298523 204.0
289.378357 112.0
289.470673 180.0
289.501862 100.0
289.562164 120.0
289.774261 1276.0
290.034851 136.0
290.059265 164.0
290.113007 316.0
290.181152 268.0
290.220337 26032.0
290.334656 212.0
290.530243 108.0
290.561523 260.0
290.778656 196.0
291.052032 132.0
291.093536 160.0
291.152863 224.0
291.223755 3456.0
291.559174 128.0
291.674072 180.0
291.805969 196.0
291.906708 136.0
291.99115 248.0
292.027008 148.0
292.079193 208.0
292.154083 156.0
292.231049 572.0
292.281769 292.0
292.349976 240.0
292.426819 108.0
292.966705 128.0
293.183868 144.0
293.477264 148.0
293.606598 140.0
294.637909 112.0
307.228485 340.0
307.67868 152.0
308.234161 104.0
330.232147 148.0
333.375366 144.0
372.147736 176.0
421.227722 120.0
421.276062 188.0
488.182404 156.0
705.685364 180.0
1193.522339 152.0
1252.218384 272.0
1321.43103 168.0
1340.811768 220.0
1385.199219 180.0
1411.463623 156.0
1415.24231 148.0
1480.466064 148.0
1488.187744 140.0
1488.418091 168.0
1507.035034 212.0
1530.443481 200.0
1539.949585 184.0
1541.566772 196.0
1542.059204 156.0
1544.788086 184.0
1558.170044 216.0
1587.025513 188.0
1591.389282 220.0
1601.544556 192.0
1605.138794 188.0
1606.901489 148.0
1608.050537 148.0
1608.824829 164.0
1626.010132 160.0
1648.874756 152.0
1649.295044 140.0
1651.106079 204.0
1655.208862 188.0
1663.705811 148.0
1680.560913 188.0
1690.038818 192.0
1709.255615 164.0
1721.505005 152.0
1728.523193 164.0
1729.37561 160.0
1742.809937 272.0
1763.526978 140.0
1776.623291 140.0
1808.915771 236.0
1810.778442 180.0
1821.966797 176.0
1822.077271 180.0
1842.33606 144.0
1842.780273 144.0
1844.173218 168.0
1860.053589 140.0
1868.698853 164.0
1887.545288 156.0
1890.460449 188.0
1900.893921 176.0
1905.669556 164.0
1908.981201 176.0
1910.207642 160.0
1926.028442 204.0
1928.579834 140.0
1929.620117 164.0
1944.318481 148.0
1945.65271 184.0
1983.187012 140.0
1998.986328 196.0
2002.60083 184.0
