>compound HALOMETASONE MONOHYDRATE
>formula C22H27ClF2O5
>ionization [M+H]+
>parentmass 445.160339
#inchi InChI=1S/C22H27ClF2O5/c1-10-4-11-12-5-15(24)13-6-16(27)14(23)7-19(13,2)21(12,25)17(28)8-20(11,3)22(10,30)18(29)9-26/h6-7,10-12,15,17,26,28,30H,4-5,8-9H2,1-3H3/t10-,11+,12+,15+,17+,19+,20+,21+,22+/m1/s1
#inchikey GGXMRPUKBWXVHE
#Ion_Source LC-ESI
#Instrument qTof
#Compound_Source Commercial
#PI Dorrestein
#Data_Collector Garg_Neha
#Scan -1
#Precursor_MZ 445.159
#ExactMass 444.152
#Charge 1
#CAS_Number N/A
#Pubmed_ID N/A
#Smiles C[C@@H]1C[C@H]2[C@@H]3C[C@H](F)C4=CC(=O)C(=C[C@]4(C)[C@@]3(F)[C@@H](O)C[C@]2(C)[C@@]1(O)C(=O)CO)Cl
#INCHI_AUX N/A
#Library_Class 1
#SpectrumID CCMSLIB00000078983
#IonMode Positive
#UpdateWorkflowName UPDATE-SINGLE-ANNOTATED-GOLD
#LibraryQualityString Gold
#TaskID 278b19f5865741e282cec7349aa7e7a1
##Scan# 1378
#SpectrumFile NCP003352_A2_B11_BC4_01_15718.mzXML
#LibraryName NIHcollectionI_05062014.mgf
#MQScore -1
#Organism NIHcollectionI_05062014
#TIC_Query 0
#RT_Query -1
#MZErrorPPM -1
#SharedPeaks 0
#MassDiff 0
#LibMZ -1
#SpecMZ 445.159
#SpecCharge 0
#internalFilename spec-00000.mgf

>collision 10
47.248653 196.0
48.343933 160.0
58.831791 176.0
60.420883 180.0
75.288315 192.0
76.890732 184.0
91.054832 140.0
94.286728 172.0
97.323959 180.0
101.06031 172.0
102.540291 176.0
104.543221 152.0
105.064835 180.0
107.085152 140.0
109.628014 156.0
111.358177 140.0
117.066383 176.0
119.092285 164.0
119.728218 176.0
121.062546 184.0
121.101967 208.0
123.063538 168.0
125.065361 200.0
127.858574 172.0
129.067688 140.0
131.093201 184.0
133.066483 276.0
133.102142 276.0
134.071701 160.0
135.083054 148.0
137.035385 188.0
137.096603 300.0
138.102203 164.0
138.19577 252.0
139.027618 172.0
139.056427 144.0
139.092163 200.0
139.937302 200.0
141.062607 172.0
143.059998 156.0
143.084671 176.0
144.06636 160.0
144.085464 148.0
145.105621 312.0
147.077148 188.0
148.088272 212.0
149.077728 128.0
151.062759 140.0
151.09169 184.0
153.090744 404.0
155.024994 3344.0
155.123505 208.0
156.030594 132.0
157.026413 472.0
159.057327 160.0
160.062943 164.0
161.096451 140.0
164.09166 164.0
165.04657 168.0
165.06958 164.0
165.08992 184.0
167.085983 156.0
168.018188 172.0
169.039764 1020.0
170.045959 144.0
171.035995 188.0
171.095581 176.0
173.09906 196.0
175.08931 200.0
177.070312 164.0
178.076141 184.0
179.023163 408.0
179.086945 196.0
181.041718 280.0
181.101395 184.0
183.037628 240.0
183.075165 232.0
183.109634 160.0
184.085953 160.0
185.053955 184.0
187.068359 176.0
189.088181 140.0
189.106583 288.0
191.019821 140.0
191.10701 348.0
192.022415 156.0
193.038528 264.0
193.10231 148.0
195.015366 160.0
195.063599 184.0
195.09848 160.0
196.08667 188.0
197.098618 132.0
199.092743 272.0
201.096039 172.0
203.099335 200.0
205.024124 164.0
205.103317 132.0
208.05101 204.0
208.121964 128.0
209.050552 152.0
209.098953 328.0
211.090607 212.0
215.088242 152.0
215.113983 188.0
216.046188 184.0
217.046326 140.0
217.121841 152.0
221.034958 188.0
221.099457 316.0
222.09874 100.0
223.032349 312.0
223.109909 204.0
224.118591 296.0
225.048904 184.0
225.093689 148.0
225.12355 140.0
226.056671 160.0
227.107788 408.0
229.049515 204.0
233.12793 176.0
235.113403 196.0
236.069489 144.0
236.119751 276.0
239.029846 220.0
239.108749 336.0
241.123764 156.0
242.1185 196.0
243.056564 148.0
243.118927 164.0
244.056274 172.0
245.049149 168.0
245.124741 168.0
246.086899 164.0
247.049622 200.0
247.090683 368.0
247.119141 320.0
248.118225 156.0
249.078476 176.0
252.109711 156.0
253.077316 260.0
255.056046 104.0
256.061676 292.0
256.130585 156.0
257.077301 268.0
257.858521 176.0
258.137421 168.0
259.092072 220.0
260.104736 124.0
261.076813 152.0
261.127808 136.0
262.129944 176.0
264.115143 160.0
264.151031 140.0
265.09967 180.0
266.118164 152.0
267.063812 164.0
269.018921 156.0
269.07312 272.0
270.079498 448.0
271.088531 296.0
273.089081 240.0
274.06311 128.0
274.098328 200.0
274.135925 164.0
275.061066 140.0
275.110565 236.0
275.140381 268.0
276.080902 184.0
276.118286 196.0
276.149597 264.0
277.084534 164.0
277.11264 148.0
283.089569 316.0
285.077728 176.0
287.084686 1800.0
287.961395 176.0
288.089966 252.0
288.149689 276.0
289.086945 236.0
290.805389 164.0
291.100555 144.0
292.109039 256.0
293.093689 180.0
293.153137 120.0
295.08786 212.0
299.119354 200.0
299.166443 144.0
301.073181 340.0
301.134735 156.0
303.079498 148.0
304.738007 196.0
307.091064 1560.0
308.088562 264.0
309.092346 356.0
310.106842 420.0
311.06842 128.0
311.118958 644.0
312.108978 304.0
313.091309 148.0
313.117157 372.0
315.097046 184.0
315.135101 168.0
316.145111 96.0
317.090546 152.0
317.133087 216.0
319.113892 172.0
321.096588 172.0
321.157959 192.0
323.12088 204.0
323.701782 176.0
324.121826 208.0
326.124115 168.0
327.106079 264.0
327.151642 168.0
328.115997 256.0
329.073059 136.0
329.12851 428.0
330.126038 308.0
331.129425 660.0
332.119659 140.0
333.113892 148.0
333.142914 220.0
335.101532 156.0
337.106873 180.0
339.116425 140.0
341.124054 232.0
342.130493 268.0
343.129089 536.0
344.127655 184.0
345.119873 136.0
347.120697 276.0
349.136108 492.0
349.815704 148.0
350.131592 316.0
351.093689 152.0
351.130157 244.0
353.105438 400.0
359.119965 128.0
361.133118 112.0
363.144958 212.0
365.102753 128.0
365.12735 156.0
366.14267 176.0
367.132599 272.0
368.70636 168.0
369.127594 528.0
370.126801 168.0
370.560303 104.0
371.124817 668.0
372.127472 140.0
372.91452 144.0
376.501343 204.0
377.135406 388.0
378.125092 228.0
379.139374 120.0
380.12085 172.0
381.145905 164.0
385.143463 332.0
387.131317 532.0
388.132965 248.0
389.133545 784.0
390.13266 96.0
391.13092 292.0
395.142059 140.0
397.142151 144.0
398.923248 144.0
399.141663 128.0
400.180389 196.0
401.144379 152.0
405.15094 260.0
407.138672 316.0
408.14328 144.0
409.139557 356.0
410.151611 160.0
411.133667 136.0
415.152832 144.0
425.161041 188.0
425.997559 212.0
426.145477 116.0
427.145203 828.0
428.151794 280.0
429.147949 508.0
430.156982 188.0
443.324799 160.0
445.160339 108.0
446.166199 124.0
447.158539 288.0
448.089691 152.0
465.435242 168.0
709.388367 156.0
740.42395 140.0
1944.108765 192.0
