>compound Meloxicam (Mobic)
>formula C14H13N3O4S2
>ionization [M+H]+
>parentmass 352.042725
#inchi InChI=1S/C14H13N3O4S2/c1-8-7-15-14(22-8)16-13(19)11-12(18)9-5-3-4-6-10(9)23(20,21)17(11)2/h3-7,18H,1-2H3,(H,15,16,19)
#inchikey ZRVUJXDFFKFLMG
#Ion_Source LC-ESI
#Instrument qTof
#Compound_Source Commercial
#PI Dorrestein
#Data_Collector Garg_Neha
#Scan -1
#Precursor_MZ 352.042
#ExactMass 351.035
#Charge 1
#CAS_Number 71125-38-7
#Pubmed_ID N/A
#Smiles C1(N(S(C2=C(C=1O)C=CC=C2)(=O)=O)C)C(=O)NC3=NC=C(S3)C
#INCHI_AUX N/A
#Library_Class 1
#SpectrumID CCMSLIB00000078263
#IonMode Positive
#UpdateWorkflowName UPDATE-SINGLE-ANNOTATED-GOLD
#LibraryQualityString Gold
#TaskID 77f51c88eb8b467eb4a01dd2d0cb90d2
##Scan# 1418
#SpectrumFile Plate4_41_60_GH4_01_16505.mzXML
#LibraryName FDALibrary_2_04302014.mgf
#MQScore -1
#Organism FDALibrary_2_04302014
#TIC_Query 0
#RT_Query -1
#MZErrorPPM -1
#SharedPeaks 0
#MassDiff 0
#LibMZ -1
#SpecMZ 352.042
#SpecCharge 0
#internalFilename spec-00000.mgf

>collision 10
44.91011 188.0
45.050266 172.0
45.134968 208.0
45.528439 180.0
45.55933 156.0
45.574112 216.0
45.675747 292.0
45.750294 168.0
45.765163 184.0
45.825714 184.0
45.855362 160.0
45.90659 200.0
46.156403 160.0
46.293076 168.0
46.322872 168.0
46.352676 152.0
46.606419 172.0
46.655346 148.0
46.756001 224.0
46.93309 180.0
47.112736 204.0
47.192513 216.0
47.214394 172.0
47.366508 144.0
47.570866 192.0
47.727257 156.0
47.763012 200.0
47.790527 196.0
48.082664 152.0
48.097847 188.0
48.229725 176.0
48.37154 156.0
48.383999 148.0
48.460171 144.0
48.485115 224.0
48.529472 152.0
48.623802 176.0
48.743229 156.0
49.081474 184.0
49.31601 236.0
49.374729 204.0
49.391514 188.0
49.446079 184.0
49.465675 160.0
49.475475 140.0
49.819057 224.0
50.010292 176.0
50.131172 236.0
50.441914 176.0
51.052998 148.0
51.292191 172.0
51.46624 156.0
51.606262 188.0
51.914124 156.0
52.316429 192.0
52.385555 140.0
52.430222 188.0
52.57732 184.0
52.636505 144.0
52.737392 192.0
52.842102 148.0
53.031452 156.0
53.468616 140.0
53.733818 236.0
53.805328 184.0
53.860821 168.0
53.895271 124.0
54.017227 192.0
54.187046 156.0
54.295517 216.0
54.355663 144.0
54.458359 260.0
54.473114 140.0
54.487804 164.0
54.537769 144.0
54.614227 140.0
54.659832 200.0
54.673077 212.0
54.72435 120.0
54.776142 192.0
54.828827 216.0
55.111031 140.0
55.337326 144.0
55.363979 176.0
55.470657 180.0
55.593758 184.0
55.928158 208.0
56.122093 220.0
56.214306 180.0
56.424908 152.0
56.508663 184.0
56.68235 148.0
56.770794 148.0
56.880745 196.0
57.023125 204.0
57.220062 192.0
57.305912 224.0
57.779984 152.0
58.043526 200.0
58.462788 188.0
58.701954 144.0
58.806107 148.0
59.036385 164.0
59.138889 148.0
59.35643 160.0
59.645058 352.0
59.880466 184.0
59.898949 168.0
60.143177 196.0
60.215145 228.0
60.301662 184.0
60.659214 216.0
60.775528 172.0
60.852448 192.0
60.899723 152.0
61.086246 152.0
61.199856 184.0
61.310455 328.0
61.673786 156.0
61.802341 156.0
61.915047 164.0
61.943241 144.0
61.963608 188.0
62.085869 148.0
62.169014 184.0
62.20467 256.0
62.344898 168.0
62.432934 184.0
62.735245 172.0
62.798317 228.0
62.87878 156.0
63.047764 140.0
63.123646 212.0
63.215393 208.0
63.25338 172.0
63.522762 172.0
63.784767 156.0
63.800667 256.0
63.91518 156.0
64.055283 144.0
64.209358 220.0
64.390228 192.0
64.49424 200.0
64.510071 212.0
64.633217 184.0
64.86544 176.0
65.159111 152.0
65.651657 168.0
65.888931 196.0
66.13311 180.0
66.280479 200.0
66.410172 244.0
66.596825 184.0
66.73333 168.0
67.065422 140.0
67.148895 164.0
67.393028 252.0
67.856628 168.0
67.877937 156.0
68.250679 192.0
68.331268 144.0
68.360886 172.0
68.672256 168.0
68.871971 184.0
68.933098 188.0
68.974419 220.0
69.401543 216.0
69.42807 300.0
69.461243 176.0
69.512672 188.0
69.562469 156.0
69.808365 196.0
69.931473 140.0
70.086349 192.0
70.184692 164.0
70.196358 160.0
70.221375 224.0
70.233055 176.0
70.704208 188.0
70.808006 168.0
70.994026 164.0
71.332214 152.0
71.565346 140.0
71.823189 148.0
72.108536 144.0
72.140648 204.0
72.231964 180.0
72.489304 216.0
72.545235 164.0
72.862587 208.0
72.891472 168.0
72.942459 200.0
73.093819 168.0
73.184036 140.0
73.197655 188.0
73.480598 176.0
73.629105 156.0
73.700844 144.0
73.894051 220.0
74.104645 164.0
74.161194 152.0
74.258919 180.0
74.397308 332.0
74.640167 176.0
74.745094 176.0
74.929321 144.0
75.017212 224.0
75.120674 168.0
75.303642 216.0
75.476456 180.0
75.68409 248.0
75.706604 192.0
75.794945 144.0
76.058556 152.0
76.230492 160.0
76.249611 168.0
76.306976 180.0
76.435684 168.0
76.597595 188.0
76.879326 204.0
77.087852 168.0
77.152527 144.0
77.386963 168.0
77.480721 164.0
77.669106 180.0
78.004494 176.0
78.042648 188.0
78.08889 316.0
78.271912 148.0
78.762192 172.0
78.808121 144.0
79.036217 192.0
79.055679 144.0
79.09993 232.0
79.174286 176.0
79.275269 300.0
79.43306 208.0
79.550179 144.0
79.583908 188.0
79.644287 160.0
79.855797 340.0
79.893158 176.0
79.919838 208.0
80.010612 160.0
80.117462 144.0
80.159286 312.0
80.2547 220.0
80.343872 196.0
80.629562 144.0
80.942619 196.0
81.042931 204.0
81.078766 176.0
81.137917 148.0
81.593925 196.0
81.658661 164.0
81.746811 168.0
81.824211 156.0
82.294571 208.0
82.761261 156.0
82.79567 148.0
82.819313 152.0
83.588974 168.0
83.718224 164.0
83.743721 208.0
84.03904 248.0
84.124817 164.0
84.152199 204.0
84.278221 152.0
84.327568 200.0
84.51165 216.0
84.609261 168.0
84.678848 192.0
84.86026 188.0
84.966637 156.0
85.15387 152.0
85.282478 172.0
85.499817 164.0
85.672447 164.0
85.786835 184.0
85.882721 152.0
85.965744 176.0
85.997116 168.0
86.388847 200.0
86.777763 184.0
87.035667 176.0
87.180565 252.0
87.273506 176.0
87.379517 208.0
87.452095 236.0
87.886299 204.0
87.953484 164.0
88.026863 144.0
88.112213 216.0
88.134636 192.0
88.20565 192.0
88.383316 168.0
88.954933 164.0
89.594315 152.0
89.658379 160.0
89.735664 184.0
90.073463 156.0
90.237877 160.0
90.305954 188.0
90.686516 160.0
90.843903 160.0
92.620499 176.0
92.783386 148.0
93.098061 144.0
93.132629 160.0
93.20948 212.0
93.290199 184.0
94.037567 196.0
94.238403 212.0
94.514893 156.0
95.039993 164.0
95.523743 172.0
95.836105 196.0
95.936577 144.0
96.256554 228.0
96.307327 212.0
96.395302 132.0
96.4226 200.0
96.528168 216.0
96.541855 144.0
96.61618 268.0
96.839333 152.0
97.010803 144.0
97.441551 152.0
97.569298 184.0
97.843956 212.0
98.002289 188.0
98.140259 228.0
98.278305 180.0
98.317795 160.0
98.463882 164.0
98.647644 152.0
98.908752 184.0
99.005768 172.0
99.239319 236.0
99.275284 160.0
99.531265 208.0
99.620636 160.0
99.916885 208.0
100.810112 176.0
100.85009 152.0
101.110092 148.0
101.174141 188.0
101.237991 180.0
101.336365 144.0
102.567299 232.0
102.644875 224.0
102.991997 184.0
103.094048 172.0
103.574532 140.0
103.691933 136.0
103.728531 148.0
103.882645 184.0
104.075447 204.0
104.447357 196.0
104.730278 152.0
104.750648 184.0
105.056427 172.0
105.070709 156.0
105.101311 160.0
105.136002 156.0
105.26461 164.0
105.335144 156.0
105.464821 152.0
105.565002 164.0
106.193726 184.0
106.236801 188.0
106.398926 140.0
106.524193 180.0
106.661873 144.0
107.205215 152.0
107.495979 148.0
107.667328 196.0
107.754082 144.0
107.824333 180.0
107.851204 140.0
108.086967 156.0
108.211151 152.0
108.396957 176.0
108.453529 160.0
108.642311 196.0
108.702393 196.0
109.00959 316.0
109.321648 140.0
109.800804 204.0
109.81749 196.0
109.936409 212.0
110.260101 156.0
110.294502 192.0
110.448097 184.0
110.496391 220.0
110.511032 156.0
110.707748 168.0
110.715973 164.0
110.978104 144.0
111.070641 196.0
111.234055 236.0
111.355835 144.0
111.378937 176.0
112.023705 180.0
112.250237 236.0
112.296631 200.0
112.360451 256.0
112.484421 164.0
112.894302 140.0
112.953529 164.0
113.016327 332.0
113.165367 156.0
113.191551 172.0
113.294342 156.0
113.362144 176.0
113.410889 248.0
113.487206 148.0
113.60173 192.0
114.000137 384.0
114.032768 200.0
114.164581 156.0
114.187973 176.0
114.390106 152.0
114.4263 164.0
114.466751 212.0
114.494438 152.0
114.647827 144.0
114.696846 180.0
114.728821 184.0
114.758667 404.0
114.79438 144.0
114.821472 180.0
114.857773 160.0
114.90699 384.0
114.924706 236.0
114.963219 228.0
114.992508 256.0
115.032593 124288.0
115.164528 128.0
115.248215 136.0
115.30574 168.0
115.384064 384.0
115.526131 180.0
115.779488 116.0
115.799355 140.0
115.831482 212.0
115.933899 164.0
115.974289 192.0
116.034309 4392.0
116.085487 148.0
116.401405 152.0
116.42627 128.0
116.472847 148.0
116.542938 140.0
116.576744 144.0
116.7565 172.0
116.843071 144.0
116.879707 212.0
116.954338 116.0
117.005997 108.0
117.027885 3420.0
117.069435 144.0
117.989929 144.0
118.029404 248.0
118.206223 164.0
118.995193 172.0
119.010391 148.0
119.889198 152.0
120.497978 144.0
120.830292 220.0
121.022896 196.0
121.076683 164.0
121.393211 176.0
121.476555 220.0
121.724632 120.0
122.256538 204.0
123.419044 216.0
123.443367 192.0
123.589355 140.0
123.631401 172.0
123.825142 148.0
124.196358 216.0
125.296722 164.0
125.706985 156.0
126.17289 108.0
126.57206 164.0
127.031525 464.0
127.579437 212.0
127.732353 140.0
129.191864 208.0
129.801117 176.0
130.839462 152.0
130.939651 168.0
131.589539 140.0
132.151779 188.0
132.538727 140.0
132.637283 196.0
132.849152 184.0
133.086929 224.0
134.149826 208.0
134.16597 140.0
134.477371 180.0
135.295654 140.0
135.545792 168.0
135.682541 140.0
136.018906 172.0
136.274368 240.0
137.004425 588.0
137.098083 152.0
137.527222 208.0
137.749405 208.0
137.856522 252.0
138.268112 172.0
138.535049 160.0
138.574875 168.0
138.654541 164.0
138.738922 180.0
138.999268 172.0
139.022095 192.0
139.899429 208.0
140.169357 132.0
140.262207 192.0
140.375366 176.0
140.604202 144.0
140.623077 288.0
140.667923 160.0
140.710419 160.0
140.726944 220.0
140.756393 124.0
140.833206 348.0
140.859253 180.0
140.906448 176.0
140.932434 144.0
140.975082 384.0
141.0112 68596.0
141.313705 124.0
141.474731 160.0
141.507172 128.0
141.54863 252.0
141.880661 160.0
141.900467 172.0
141.962112 176.0
142.014313 3744.0
142.130539 196.0
142.372482 164.0
142.858444 104.0
142.918091 124.0
142.947952 200.0
143.00676 2732.0
144.006638 152.0
144.092438 168.0
144.118729 248.0
145.51268 180.0
145.608719 144.0
146.05954 120.0
147.575073 176.0
148.060715 156.0
148.774323 156.0
149.005035 176.0
149.0755 208.0
149.26268 156.0
149.474304 208.0
149.535141 148.0
150.0112 144.0
150.036926 204.0
151.557129 176.0
152.212051 224.0
152.654358 164.0
152.851151 156.0
152.99881 2480.0
153.425018 244.0
154.004517 256.0
154.064194 180.0
154.905273 184.0
155.000626 140.0
155.254745 152.0
155.840561 148.0
156.061676 144.0
158.279984 160.0
161.648041 148.0
161.693588 160.0
162.001923 164.0
162.501938 200.0
163.126678 176.0
163.319916 172.0
163.363159 144.0
163.395218 172.0
163.97171 160.0
164.015686 768.0
164.175659 188.0
165.005524 196.0
166.045624 148.0
166.068222 160.0
167.016006 204.0
168.033554 152.0
168.992599 1824.0
169.397491 148.0
169.608429 180.0
169.678421 144.0
169.919617 196.0
169.994858 208.0
170.376541 148.0
170.990189 316.0
172.145081 208.0
172.675583 192.0
175.00058 176.0
175.069046 160.0
176.742615 180.0
177.017365 216.0
178.036224 216.0
178.264679 144.0
178.644882 148.0
178.736847 176.0
178.769928 160.0
180.977448 148.0
182.035583 340.0
183.370972 180.0
183.519226 140.0
183.764664 200.0
183.913086 184.0
184.054245 8324.0
185.021393 160.0
185.054199 928.0
185.083679 164.0
186.049484 432.0
187.051956 172.0
187.825836 152.0
189.863449 180.0
190.417831 196.0
191.050034 140.0
191.098373 148.0
191.810303 188.0
192.975067 148.0
193.309753 180.0
193.705673 168.0
193.813721 192.0
193.954468 172.0
194.028336 1756.0
195.00145 196.0
195.030624 176.0
195.24054 160.0
195.74144 144.0
197.256378 172.0
198.028641 208.0
198.813644 184.0
200.053162 140.0
202.444641 144.0
203.087982 152.0
207.304596 204.0
209.001648 160.0
209.249176 168.0
209.30101 228.0
209.949371 220.0
210.020142 1364.0
210.07988 180.0
210.717178 148.0
211.023407 196.0
211.257797 140.0
211.85704 180.0
212.040436 432.0
212.622513 160.0
213.090027 224.0
214.067337 176.0
214.230438 140.0
215.154892 212.0
216.426712 148.0
216.699097 148.0
218.799011 160.0
219.229034 152.0
219.680145 152.0
219.715546 148.0
221.021454 160.0
221.056976 184.0
221.998886 128.0
222.868713 192.0
222.895462 172.0
224.076691 204.0
224.687866 140.0
225.503052 160.0
226.25087 188.0
226.847015 152.0
226.971405 184.0
228.222031 156.0
228.582977 172.0
229.555954 144.0
230.316498 180.0
231.865585 148.0
232.587448 204.0
232.832993 160.0
234.3909 140.0
234.573761 160.0
236.617493 168.0
236.828781 172.0
237.696381 152.0
240.60498 188.0
241.17955 164.0
244.084427 268.0
246.278412 144.0
247.789322 196.0
248.852554 208.0
249.013626 924.0
249.971542 176.0
250.204453 152.0
250.601288 196.0
251.00473 144.0
251.02681 164.0
251.541077 176.0
253.828491 140.0
259.690125 144.0
259.98526 168.0
260.8396 148.0
261.573029 144.0
262.281677 164.0
263.527344 188.0
263.84729 148.0
264.215973 192.0
264.905518 160.0
265.009979 1380.0
266.478943 220.0
266.93399 160.0
267.005554 144.0
267.239746 144.0
268.164581 192.0
270.048462 224.0
270.161102 120.0
271.115753 216.0
271.978333 180.0
272.280396 184.0
272.996796 148.0
273.480438 160.0
274.135803 164.0
275.379547 164.0
277.018585 192.0
278.207367 184.0
280.289398 160.0
280.676056 176.0
282.610016 152.0
283.440399 140.0
283.839264 184.0
283.97113 152.0
284.335754 188.0
284.933472 180.0
285.272888 180.0
288.083344 148.0
288.330017 152.0
288.891296 208.0
288.982635 192.0
289.581451 196.0
289.79184 188.0
290.690369 176.0
291.087524 164.0
291.175842 144.0
291.940491 160.0
292.563141 180.0
293.974213 172.0
294.020447 168.0
294.520447 168.0
295.498138 180.0
297.036316 204.0
297.108368 188.0
297.468689 196.0
298.953461 168.0
299.662781 144.0
299.869537 164.0
301.591827 164.0
302.958679 188.0
303.176941 224.0
303.901672 216.0
304.113342 176.0
304.394562 184.0
306.038147 264.0
306.729034 160.0
308.041077 256.0
309.548462 172.0
310.0354 172.0
310.954254 172.0
312.218994 172.0
312.869965 216.0
312.965027 168.0
313.232666 172.0
315.084717 156.0
315.908417 140.0
316.016113 152.0
316.092377 204.0
316.889069 140.0
316.995361 200.0
317.297516 156.0
317.871216 144.0
318.627502 152.0
319.196198 188.0
320.388428 152.0
320.994415 236.0
321.211975 152.0
321.679443 208.0
322.007935 176.0
324.064819 204.0
324.25473 152.0
325.442108 152.0
326.570496 156.0
328.093658 160.0
329.855316 164.0
332.343323 196.0
332.455811 160.0
333.134766 144.0
333.418182 152.0
334.028687 1600.0
335.029999 256.0
335.398132 180.0
336.017212 172.0
337.044769 176.0
338.547485 172.0
339.650665 148.0
341.980164 184.0
343.641022 216.0
343.977966 144.0
344.059174 188.0
344.797913 164.0
345.933441 168.0
346.507446 176.0
347.909302 184.0
348.28064 152.0
348.637299 144.0
348.78598 184.0
348.908661 168.0
349.29364 132.0
349.664703 228.0
350.182556 184.0
350.561249 140.0
350.807739 180.0
350.853271 188.0
350.93399 144.0
350.986877 172.0
351.029572 152.0
351.254089 216.0
351.333618 160.0
351.484222 136.0
351.550446 212.0
351.651001 184.0
351.73175 124.0
351.788879 256.0
351.856812 176.0
351.940155 236.0
351.972443 336.0
352.042725 117976.0
352.141724 156.0
352.203613 152.0
352.267914 164.0
352.325165 108.0
352.42334 136.0
352.473236 220.0
352.49942 184.0
352.656982 484.0
352.70578 136.0
352.79599 124.0
352.870728 104.0
352.922272 300.0
352.945435 224.0
353.045013 15140.0
353.17392 104.0
353.21756 176.0
353.337128 100.0
353.394196 100.0
353.426086 184.0
353.544647 120.0
353.642761 216.0
353.870697 204.0
353.976318 132.0
354.039764 7724.0
354.311401 172.0
354.593658 172.0
354.942505 116.0
355.039307 1300.0
355.190155 260.0
355.24527 168.0
355.352203 176.0
355.437836 112.0
355.510376 196.0
376.79953 144.0
480.974518 160.0
922.756897 140.0
930.123291 200.0
1161.692993 160.0
1163.077271 240.0
1177.866699 184.0
1194.840088 204.0
1200.577759 148.0
1209.469604 144.0
1216.067993 188.0
1225.37915 224.0
1245.098022 152.0
1253.751587 116.0
1264.627441 204.0
1269.636353 164.0
1276.766479 140.0
1278.587646 200.0
1283.388794 168.0
1286.370972 252.0
1299.1875 140.0
1334.329712 232.0
1336.744507 144.0
1339.299927 148.0
1352.193848 148.0
1355.67981 184.0
1357.109131 160.0
1358.524536 176.0
1367.569946 200.0
1375.596924 148.0
1378.972534 212.0
1388.782715 204.0
1391.758545 220.0
1400.936035 156.0
1428.153076 164.0
1434.96814 220.0
1436.755493 220.0
1442.071411 180.0
1447.798584 148.0
1451.610229 176.0
1451.989502 184.0
1454.197266 148.0
1455.039795 140.0
1466.991089 148.0
1471.30896 188.0
1472.07251 152.0
1478.922485 192.0
1481.817139 148.0
1484.216064 144.0
1486.248779 168.0
1489.857178 168.0
1490.802246 144.0
1496.235718 192.0
1499.429199 256.0
1503.408569 176.0
1505.075928 144.0
1518.874512 148.0
1519.479614 184.0
1519.782227 180.0
1521.613892 148.0
1522.11084 148.0
1522.817505 156.0
1526.096802 168.0
1529.854492 168.0
1533.382935 232.0
1533.577759 148.0
1545.737305 192.0
1549.432861 192.0
1556.350342 196.0
1556.460327 200.0
1561.080811 152.0
1562.181885 256.0
1562.323486 176.0
1562.708984 200.0
1570.334229 204.0
1570.949463 156.0
1575.09375 148.0
1578.167847 144.0
1578.602783 184.0
1580.540771 176.0
1582.179077 148.0
1582.408691 172.0
1586.837524 236.0
1590.43103 144.0
1592.463623 152.0
1592.844849 140.0
1596.174927 160.0
1597.049683 152.0
1600.646851 208.0
1601.140503 172.0
1602.983154 168.0
1606.744019 152.0
1607.581909 176.0
1610.42395 140.0
1614.359375 204.0
1615.32373 144.0
1615.803711 176.0
1616.315796 196.0
1617.180054 172.0
1617.900513 180.0
1618.180664 152.0
1619.213623 172.0
1622.675293 164.0
1624.062622 204.0
1625.691162 216.0
1626.301147 140.0
1627.898804 152.0
1628.870605 184.0
1629.223999 144.0
1629.296265 140.0
1641.643311 148.0
1643.676025 188.0
1644.418457 152.0
1645.370972 168.0
1646.46106 172.0
1647.761475 184.0
1647.890747 160.0
1648.254395 192.0
1651.79541 160.0
1651.884399 188.0
1653.567383 160.0
1655.545044 164.0
1656.644287 192.0
1658.183716 204.0
1658.726807 220.0
1659.124023 168.0
1662.238525 164.0
1664.974243 156.0
1665.567139 216.0
1666.249512 148.0
1666.907593 184.0
1667.452148 160.0
1667.679688 172.0
1668.39502 176.0
1668.939697 188.0
1671.208984 228.0
1671.379883 148.0
1671.599609 164.0
1673.22583 232.0
1673.927612 164.0
1676.423584 176.0
1678.295044 164.0
1678.890381 176.0
1683.247925 204.0
1684.53833 164.0
1685.567749 208.0
1685.960083 148.0
1692.561401 200.0
1694.265015 224.0
1694.772949 168.0
1696.321899 196.0
1696.379272 192.0
1697.066528 172.0
1704.906982 208.0
1704.972778 160.0
1705.983765 204.0
1706.78125 164.0
1706.896362 144.0
1707.22522 148.0
1707.998413 140.0
1710.466919 160.0
1711.034912 144.0
1711.312256 156.0
1713.059448 184.0
1715.813232 164.0
1716.711914 200.0
1719.822266 180.0
1721.275146 184.0
1722.287964 204.0
1723.860718 140.0
1724.430908 176.0
1725.869385 196.0
1728.193481 180.0
1729.525879 180.0
1731.446655 236.0
1731.869019 200.0
1732.780273 188.0
1733.509399 184.0
1734.661499 140.0
1735.581665 164.0
1735.996338 144.0
1737.422974 192.0
1740.186523 184.0
1742.254517 172.0
1742.753052 168.0
1744.564819 176.0
1747.554199 204.0
1751.962891 164.0
1757.648926 140.0
1760.537109 156.0
1760.629028 164.0
1761.230347 192.0
1761.614624 252.0
1762.266235 216.0
1763.385986 192.0
1765.258545 140.0
1766.730591 180.0
1767.341431 156.0
1771.276123 188.0
1771.803833 160.0
1772.859619 144.0
1773.328857 148.0
1776.146118 160.0
1777.454834 164.0
1777.664673 144.0
1778.814453 144.0
1782.190552 140.0
1782.24939 272.0
1782.509888 164.0
1783.71167 196.0
1785.670776 204.0
1788.135864 224.0
1789.592163 220.0
1791.950317 208.0
1793.281738 152.0
1793.391357 184.0
1794.158447 160.0
1795.659302 176.0
1796.393188 164.0
1797.101807 140.0
1799.144165 152.0
1801.559448 160.0
1802.547974 212.0
1802.860596 140.0
1804.145386 164.0
1804.745605 224.0
1804.914673 176.0
1805.489746 192.0
1806.817749 200.0
1806.927734 180.0
1808.366211 200.0
1808.628662 192.0
1808.764038 176.0
1812.397217 220.0
1812.888672 196.0
1814.897583 172.0
1818.392578 164.0
1819.411133 216.0
1821.168945 160.0
1827.706299 184.0
1828.489136 156.0
1829.680908 240.0
1829.970337 168.0
1831.562988 180.0
1832.849243 196.0
1833.957031 156.0
1837.828735 180.0
1838.067627 196.0
1841.072388 144.0
1849.050659 204.0
1849.690552 140.0
1850.032959 156.0
1850.812134 168.0
1850.966187 204.0
1852.893311 172.0
1853.767334 188.0
1855.138672 168.0
1856.510498 208.0
1856.741943 168.0
1858.354614 168.0
1859.418701 204.0
1865.749146 192.0
1869.241211 152.0
1871.573853 232.0
1874.243896 164.0
1874.390381 188.0
1874.536987 192.0
1874.735107 196.0
1875.933105 180.0
1876.010742 176.0
1877.692139 144.0
1879.270752 220.0
1881.022583 140.0
1881.393799 180.0
1882.619873 168.0
1885.652222 208.0
1886.127563 228.0
1886.585693 208.0
1889.540405 152.0
1890.244141 144.0
1890.607666 240.0
1890.797974 224.0
1891.42981 140.0
1892.771729 228.0
1895.084351 188.0
1896.011597 188.0
1896.652954 180.0
1902.838013 156.0
1904.227417 164.0
1904.60083 164.0
1905.269775 216.0
1909.024536 156.0
1910.250854 176.0
1911.9823 184.0
1912.539429 160.0
1912.89624 196.0
1913.60022 152.0
1914.689819 168.0
1915.37793 160.0
1915.656616 176.0
1915.979004 168.0
1916.859009 144.0
1916.97229 152.0
1917.547485 176.0
1917.651978 144.0
1918.497559 192.0
1919.194946 176.0
1920.241455 180.0
1922.596924 196.0
1924.13855 192.0
1928.885376 204.0
1930.494141 176.0
1931.141235 216.0
1931.421143 220.0
1933.564819 204.0
1935.033447 192.0
1935.674438 172.0
1936.32251 196.0
1936.523926 228.0
1938.083252 152.0
1938.170898 152.0
1939.18335 188.0
1939.462402 184.0
1939.941284 188.0
1940.195435 172.0
1940.554932 152.0
1940.853027 232.0
1943.036865 176.0
1943.124634 196.0
1944.230225 160.0
1945.57312 156.0
1949.938721 172.0
1950.193604 180.0
1950.958374 164.0
1952.031006 152.0
1952.162842 212.0
1953.279785 148.0
1958.697754 120.0
1958.93103 172.0
1960.02356 196.0
1960.737305 152.0
1962.23584 228.0
1962.491455 184.0
1962.897095 188.0
1963.011719 144.0
1963.329224 196.0
1964.28125 208.0
1964.616943 160.0
1967.246704 192.0
1967.37915 188.0
1967.776367 180.0
1974.438965 208.0
1975.323364 180.0
1975.956543 132.0
1976.597412 180.0
1977.638916 168.0
1978.482544 160.0
1979.491943 172.0
1981.316528 204.0
1981.768311 220.0
1982.849365 148.0
1983.549561 164.0
1983.629395 232.0
1983.877563 160.0
1984.852905 152.0
1985.899292 212.0
1988.046265 208.0
1988.445557 172.0
1990.753784 164.0
1991.881714 176.0
1993.463135 144.0
1993.569824 196.0
1996.672363 156.0
1997.552979 152.0
1997.810913 228.0
1997.917603 228.0
1998.015503 144.0
1998.131226 188.0
1998.991333 196.0
2000.703125 164.0
2000.827759 192.0
2001.878418 180.0
2002.769043 172.0
