>compound MLS000863578-01!7-[(E)-3-methyl-4-(4-methyl-5-oxo-2H-furan-2-yl)but-2-enoxy]chromen-2-one
>formula C19H18O5
>ionization [M+H]+
>parentmass 327.123
#inchi InChI=1S/C19H18O5/c1-12(9-16-10-13(2)19(21)23-16)7-8-22-15-5-3-14-4-6-18(20)24-17(14)11-15/h3-7,10-11,16H,8-9H2,1-2H3/b12-7+
#inchikey CFNMUZCFSDMZPQ
#Ion_Source LC-ESI
#Instrument qTof
#Compound_Source NIH Natural Product Library
#PI Dorrestein
#Data_Collector VVP/LMS
#Scan -1
#Precursor_MZ 327.123
#ExactMass 326.115
#Charge 1
#CAS_Number N/A
#Pubmed_ID N/A
#Smiles C/C(=C\COc1ccc2ccc(=O)oc2c1)/CC3OC(=O)C(=C3)C
#INCHI_AUX N/A
#Library_Class 3
#SpectrumID CCMSLIB00000080528
#IonMode Positive
#UpdateWorkflowName UPDATE-SINGLE-ANNOTATED-BRONZE
#LibraryQualityString Bronze
#TaskID b1d8e8f6646f4e71acdff9ca3d919d08
##Scan# 2162
#SpectrumFile p2-C10_GC10_01_18010.mzXML
#LibraryName NIH_Natural_Products_Library.mgf
#MQScore -1
#Organism NIH_Natural_Products_Library
#TIC_Query 0
#RT_Query -1
#MZErrorPPM -1
#SharedPeaks 0
#MassDiff 0
#LibMZ -1
#SpecMZ 327.123
#SpecCharge 0
#internalFilename spec-00000.mgf

>collision 10
95.357643 48.0
96.392448 68.0
97.030174 392.0
97.839935 124.0
98.765419 116.0
99.284317 100.0
101.495804 148.0
103.711388 168.0
104.061188 320.0
104.635666 240.0
105.067719 112.0
106.077934 208.0
107.050629 1208.0
107.084747 140.0
107.398033 60.0
107.633301 188.0
108.057007 232.0
108.307487 116.0
109.062759 164.0
109.101738 660.0
109.583 152.0
110.574883 216.0
111.468239 200.0
111.514473 176.0
112.578377 288.0
112.673431 148.0
115.158768 184.0
117.071419 308.0
118.075294 164.0
118.417252 116.0
118.811752 40.0
118.963661 152.0
119.049828 824.0
119.085854 788.0
119.183014 56.0
120.090797 96.0
120.348297 196.0
120.896957 28.0
121.028297 220.0
121.104317 200.0
122.253159 200.0
124.728043 200.0
125.567436 144.0
125.609818 244.0
126.179268 176.0
126.248581 100.0
128.091248 84.0
129.070709 448.0
131.045395 132.0
131.981201 144.0
132.058319 160.0
134.958817 44.0
135.050659 184.0
136.038422 108.0
137.09903 52.0
138.313507 116.0
143.055939 192.0
144.241501 92.0
146.552567 192.0
147.010712 216.0
147.046921 164.0
147.081589 592.0
147.3246 160.0
148.067154 192.0
148.084961 352.0
149.285416 96.0
157.061203 120.0
158.10054 148.0
159.04303 144.0
159.439713 196.0
161.044586 148.0
162.218658 236.0
162.738724 144.0
162.847916 180.0
162.997803 236.0
163.040176 6028.0
163.109634 52.0
163.356277 96.0
163.526764 44.0
163.799194 216.0
163.880722 56.0
164.043808 792.0
164.347321 96.0
165.089554 152.0
165.274811 120.0
166.210052 80.0
175.038849 448.0
175.94841 76.0
176.76178 28.0
185.01384 84.0
185.783478 128.0
191.028534 100.0
195.085297 172.0
197.105911 204.0
203.037323 84.0
207.041397 140.0
209.373322 124.0
212.567673 156.0
213.020584 168.0
215.012131 168.0
215.07634 204.0
217.376663 72.0
218.560837 148.0
221.038925 164.0
232.080887 120.0
236.565475 176.0
240.7686 116.0
241.034271 172.0
243.776627 56.0
246.050369 124.0
246.09407 76.0
250.569641 84.0
265.073669 116.0
276.053284 72.0
287.060059 152.0
288.153656 160.0
289.066589 384.0
325.096344 116.0
325.168121 136.0
327.094635 156.0
329.237823 128.0
330.483337 88.0
335.090698 44.0
336.987885 140.0
343.105896 144.0
407.108398 188.0
690.410767 108.0
761.281128 48.0
804.913757 188.0
904.161499 56.0
968.406555 216.0
970.284119 60.0
973.237305 180.0
1027.742676 116.0
1028.348877 148.0
1030.053711 196.0
1110.589722 180.0
1118.872559 20.0
1122.993896 188.0
1149.621216 208.0
1151.538452 144.0
1175.331909 116.0
1239.797852 184.0
1250.754028 108.0
1253.246948 100.0
1254.564819 108.0
1278.013916 84.0
1285.609741 176.0
1287.280029 224.0
1289.173096 164.0
1294.430664 80.0
1303.619507 236.0
1323.339722 196.0
1324.759155 156.0
1335.407227 152.0
1342.369263 160.0
1358.877441 212.0
1361.879761 200.0
1367.960571 176.0
1371.459351 176.0
1398.865601 168.0
1403.723145 152.0
1429.33313 164.0
1449.478882 132.0
1453.535278 164.0
1481.653809 216.0
1483.546631 128.0
1502.009155 100.0
