>compound Pyrazinecarboxamide, 3,5-diamino-N-(aminoiminomethyl)-6-chloro- [CAS]
>formula C6H8ClN7O
>ionization [M+H]+
>parentmass 230.055939
#inchi InChI=1S/C6H8ClN7O/c7-2-4(9)13-3(8)1(12-2)5(15)14-6(10)11/h(H4,8,9,13)(H4,10,11,14,15)
#inchikey XSDQTOBWRPYKKA
#Ion_Source LC-ESI
#Instrument qTof
#Compound_Source Commercial
#PI Dorrestein
#Data_Collector Garg_Neha
#Scan -1
#Precursor_MZ 230.055
#ExactMass 229.048
#Charge 1
#CAS_Number N/A
#Pubmed_ID N/A
#Smiles NC(=N)NC(=O)c1nc(Cl)c(N)nc1N
#INCHI_AUX N/A
#Library_Class 1
#SpectrumID CCMSLIB00000079156
#IonMode Positive
#UpdateWorkflowName UPDATE-SINGLE-ANNOTATED-GOLD
#LibraryQualityString Gold
#TaskID 278b19f5865741e282cec7349aa7e7a1
##Scan# 971
#SpectrumFile NCP003592_A2_B11_BD8_01_15734.mzXML
#LibraryName NIHcollectionI_05062014.mgf
#MQScore -1
#Organism NIHcollectionI_05062014
#TIC_Query 0
#RT_Query -1
#MZErrorPPM -1
#SharedPeaks 0
#MassDiff 0
#LibMZ -1
#SpecMZ 230.055
#SpecCharge 0
#internalFilename spec-00000.mgf

>collision 10
45.65324 236.0
46.652454 144.0
49.851212 232.0
50.669594 144.0
53.523781 152.0
59.74025 140.0
61.383575 156.0
62.062202 188.0
65.273087 152.0
81.214851 184.0
82.62896 204.0
88.780243 172.0
90.987915 212.0
91.261505 152.0
93.363045 164.0
94.781876 148.0
98.141991 208.0
99.316681 160.0
100.989792 188.0
105.405281 160.0
107.033958 164.0
107.153419 156.0
108.043045 768.0
114.973778 164.0
116.001999 2868.0
116.07917 116.0
117.831818 140.0
117.997726 468.0
119.753761 160.0
119.952042 148.0
123.564629 192.0
123.613312 168.0
124.054054 140.0
129.281952 152.0
129.943588 232.0
134.163208 160.0
142.308029 140.0
143.011871 1716.0
144.013092 144.0
145.009216 384.0
145.932373 264.0
153.932861 168.0
160.909332 156.0
161.023483 1856.0
163.019165 808.0
164.025192 144.0
170.027863 156.0
170.75531 204.0
171.007126 12844.0
171.703293 160.0
172.008377 864.0
173.003571 3452.0
173.40155 160.0
174.009155 180.0
183.111481 176.0
186.621262 184.0
187.942261 152.0
188.032211 544.0
189.016739 2600.0
190.02002 344.0
190.790634 232.0
191.015472 648.0
192.015945 164.0
194.603271 184.0
195.997696 188.0
200.204224 172.0
201.044312 144.0
205.507858 196.0
213.027191 460.0
213.868256 172.0
213.923569 176.0
214.029831 296.0
215.024796 148.0
218.535919 164.0
228.232819 164.0
229.313522 148.0
229.823166 276.0
230.004227 244.0
230.055939 24116.0
230.15033 152.0
230.582886 108.0
231.056564 1804.0
232.052689 5292.0
232.17688 244.0
232.353226 152.0
232.55278 160.0
232.690796 120.0
233.053177 316.0
233.087265 172.0
324.191223 156.0
1558.611694 156.0
1604.598022 140.0
1693.609131 160.0
1736.211548 200.0
1830.183105 176.0
1869.551025 152.0
1893.672607 200.0
1917.46936 160.0
1948.146729 148.0
1965.102783 196.0
1993.339478 176.0
2000.855225 148.0
