>compound Anonain
>formula C17H15NO2
>ionization [M+H]+
>parentmass 266.11755517209053
#inchi InChI=1S/C17H15NO2/c1-2-4-12-10(3-1)7-13-15-11(5-6-18-13)8-14-17(16(12)15)20-9-19-14/h1-4,8,13,18H,5-7,9H2/t13-/m1/s1
#inchikey VZTUKBKUWSHDFM
#Ion_Source DI-ESI
#Instrument qTof
#Compound_Source Isolated
#PI Norberto Lopes
#Data_Collector Denise Silva
#Scan -1
#Precursor_MZ 266.058
#ExactMass 265.11
#Charge 1
#CAS_Number 1862-41-5
#Pubmed_ID N/A
#Smiles [H][C@@]1(NCC2)CC3=CC=CC=C3C4=C1C2=CC5=C4OCO5
#INCHI_AUX N/A
#Library_Class 3
#SpectrumID CCMSLIB00000081693
#IonMode Positive
#UpdateWorkflowName UPDATE-SINGLE-ANNOTATED-BRONZE
#LibraryQualityString Bronze
#TaskID 52bd5f0db6314c93924d5ce5c86348eb
##Scan# 1
#SpectrumFile gnps_Anonain_pos_MplusH.mgf
#LibraryName gnps_library.mgf
#MQScore -1
#Organism batch_27_05_V02
#TIC_Query 0
#RT_Query -1
#MZErrorPPM -1
#SharedPeaks 0
#MassDiff 0
#LibMZ -1
#SpecMZ 266.058
#SpecCharge 0
#internalFilename spec-00000.mgf

>collision 10
152.047134 4758.0
165.054016 34229.0
166.058533 3368.0
176.045746 3260.0
177.052002 4131.0
178.060379 55889.0
179.064407 9896.0
189.051315 98300.0
190.058578 154343.0
191.066864 358206.0
192.070435 40154.0
193.083023 12783.0
200.044266 10023.0
201.052322 30288.0
202.057648 45318.0
203.06398 27523.0
204.069366 3485.0
205.043945 9295.0
206.052216 3650.0
218.051804 13395.0
219.058746 90486.0
220.064331 12388.0
221.052567 4296.0
222.04715 2719.0
229.052795 50094.0
230.054855 6969.0
231.058243 7834.0
232.064194 2576.0
247.051117 4443.0
248.059174 2900.0
249.068985 23473.0
250.069321 3228.0
266.058197 1987.0
