>compound Granisetron HCl
>formula C18H24N4O
>ionization [M+H]+
>parentmass 313.2022878400905
#inchi InChI=1S/C18H24N4O/c1-21-13-6-5-7-14(21)11-12(10-13)19-18(23)17-15-8-3-4-9-16(15)22(2)20-17/h3-4,8-9,12-14H,5-7,10-11H2,1-2H3,(H,19,23)
#inchikey MFWNKCLOYSRHCJ
#origInchi InChI=1S/C18H24N4O.ClH/c1-21-13-6-5-7-14(21)11-12(10-13)19-18(23)17-15-8-3-4-9-16(15)22(2)20-17;/h3-4,8-9,12-14H,5-7,10-11H2,1-2H3,(H,19,23);1H
#Ion_Source LC-ESI
#Instrument qTof
#Compound_Source Commercial
#PI Dorrestein
#Data_Collector Garg_Neha
#Scan -1
#Precursor_MZ 313.202
#ExactMass 312.195
#Charge 1
#CAS_Number 107007-99-8, 109889-09-0 (free base)
#Pubmed_ID N/A
#Smiles C1(=C2C(=CC=C1)N(N=C2C(=O)NC3CC4CCCC(C3)N4C)C).Cl
#INCHI_AUX N/A
#Library_Class 1
#SpectrumID CCMSLIB00000078109
#IonMode Positive
#UpdateWorkflowName UPDATE-SINGLE-ANNOTATED-GOLD
#LibraryQualityString Gold
#TaskID 77f51c88eb8b467eb4a01dd2d0cb90d2
##Scan# 1069
#SpectrumFile Plate2_21_40_GG6_01_16494.mzXML
#LibraryName FDALibrary_2_04302014.mgf
#MQScore -1
#Organism FDALibrary_2_04302014
#TIC_Query 0
#RT_Query -1
#MZErrorPPM -1
#SharedPeaks 0
#MassDiff 0
#LibMZ -1
#SpecMZ 313.202
#SpecCharge 0
#internalFilename spec-00000.mgf

>collision 10
44.916004 160.0
44.960033 148.0
45.06419 168.0
45.081562 180.0
45.100929 260.0
45.129498 296.0
45.221989 172.0
45.244209 220.0
45.300144 152.0
45.347889 220.0
45.446106 184.0
45.49276 164.0
45.520954 140.0
45.539757 144.0
45.573341 232.0
45.606827 148.0
45.645924 144.0
45.666828 236.0
45.73769 184.0
45.768723 140.0
45.78923 148.0
45.833031 164.0
45.982044 188.0
46.012417 192.0
46.056702 116.0
46.066723 188.0
46.162399 140.0
46.219212 140.0
46.235451 196.0
46.256737 160.0
46.332943 144.0
46.366821 152.0
46.425117 492.0
46.467026 316.0
46.577126 156.0
46.640991 156.0
46.673618 212.0
46.786549 208.0
46.838593 164.0
46.853802 136.0
46.91597 148.0
46.94733 156.0
46.972656 176.0
46.988251 204.0
47.103958 180.0
47.123417 156.0
47.138447 172.0
47.164413 140.0
47.193123 140.0
47.28204 236.0
47.403923 140.0
47.434227 180.0
47.461052 100.0
47.584984 164.0
47.652283 140.0
47.706665 224.0
47.733379 184.0
47.754417 188.0
47.793903 208.0
47.806286 140.0
47.855843 140.0
47.866856 144.0
47.932976 172.0
47.950127 160.0
47.967014 132.0
47.982838 228.0
48.010174 168.0
48.04604 196.0
48.164757 152.0
48.199417 228.0
48.230053 204.0
48.29192 176.0
48.325123 160.0
48.363869 224.0
48.398479 144.0
48.480209 144.0
48.515553 224.0
48.53635 160.0
48.557846 148.0
48.6064 176.0
48.645264 160.0
48.709141 160.0
48.723309 140.0
48.741985 156.0
48.805035 144.0
48.818771 164.0
48.831455 184.0
48.882931 184.0
48.958103 144.0
48.984566 188.0
49.020794 192.0
49.03194 160.0
49.069576 140.0
49.098862 164.0
49.115074 128.0
49.131886 148.0
49.162113 200.0
49.174202 152.0
49.224777 140.0
49.317123 164.0
49.350216 176.0
49.389881 168.0
49.426395 164.0
49.440041 168.0
49.492935 144.0
49.515343 164.0
49.53257 160.0
49.544758 308.0
49.590958 128.0
49.652691 184.0
49.780399 184.0
49.804001 164.0
49.867851 176.0
50.037071 144.0
50.184242 148.0
50.212509 176.0
50.236759 168.0
50.271149 244.0
50.292435 208.0
50.346119 352.0
50.360641 236.0
50.390308 156.0
50.401905 96.0
50.472721 172.0
50.50132 144.0
50.551193 164.0
50.563492 152.0
50.622284 148.0
50.67918 216.0
50.705868 168.0
50.76461 156.0
50.876083 168.0
50.891701 176.0
50.920139 160.0
50.959877 180.0
50.996326 148.0
51.025101 220.0
51.109173 152.0
51.184288 140.0
51.213097 212.0
51.239338 124.0
51.302643 176.0
51.365566 172.0
51.44553 152.0
51.57695 148.0
51.609833 224.0
51.647015 172.0
51.724285 200.0
51.793015 160.0
51.89571 164.0
51.929916 152.0
51.962173 148.0
52.024826 116.0
52.042389 176.0
52.066963 196.0
52.081326 160.0
52.091381 140.0
52.158916 160.0
52.280506 144.0
52.350273 160.0
52.379078 184.0
52.447533 156.0
52.47131 172.0
52.580936 176.0
52.739109 164.0
52.752823 156.0
52.849747 256.0
52.914856 176.0
52.959747 196.0
53.024387 236.0
53.073334 180.0
53.169979 168.0
53.183731 160.0
53.198177 128.0
53.245472 164.0
53.279522 172.0
53.312302 324.0
53.323929 140.0
53.424259 140.0
53.492657 184.0
53.503304 184.0
53.568962 228.0
53.605125 108.0
53.692272 140.0
53.71426 160.0
53.758579 176.0
53.77272 200.0
53.854279 180.0
53.964718 188.0
53.985004 152.0
54.018829 176.0
54.072128 168.0
54.195141 168.0
54.212723 148.0
54.256695 160.0
54.331188 252.0
54.3535 204.0
54.379917 140.0
54.394592 188.0
54.434235 412.0
54.582905 184.0
54.6147 348.0
54.7136 188.0
54.735683 216.0
54.771324 180.0
54.814358 176.0
54.865341 164.0
54.922295 148.0
54.965679 144.0
54.983585 124.0
55.042397 168.0
55.101479 156.0
55.132507 192.0
55.149017 236.0
55.197552 180.0
55.227131 380.0
55.250801 148.0
55.371113 100.0
55.421066 208.0
55.480869 228.0
55.543106 212.0
55.577694 252.0
55.688934 212.0
55.734146 328.0
55.813702 176.0
55.891762 144.0
55.912594 232.0
55.924614 160.0
55.954273 156.0
56.009373 180.0
56.030479 164.0
56.052578 188.0
56.133076 144.0
56.15097 208.0
56.168278 212.0
56.188808 120.0
56.260986 236.0
56.272514 152.0
56.319561 172.0
56.407791 196.0
56.437542 116.0
56.472088 220.0
56.492611 144.0
56.512379 180.0
56.538399 112.0
56.554935 108.0
56.615589 172.0
56.641712 272.0
56.696354 136.0
56.706955 120.0
56.818733 220.0
56.830124 180.0
56.897022 160.0
56.962238 196.0
56.987778 160.0
57.006809 216.0
57.059975 216.0
57.085972 116.0
57.102024 152.0
57.126091 160.0
57.235222 220.0
57.270599 140.0
57.330864 148.0
57.512604 184.0
57.57526 152.0
57.640217 168.0
57.69614 184.0
57.712017 184.0
57.752094 160.0
57.813549 200.0
57.832287 204.0
57.855103 164.0
57.872391 164.0
57.991322 184.0
58.032253 144.0
58.053123 136.0
58.098495 136.0
58.219887 172.0
58.252449 164.0
58.338303 252.0
58.43655 128.0
58.494095 140.0
58.527592 144.0
58.546757 164.0
58.614712 180.0
58.746307 136.0
58.761673 388.0
58.887039 196.0
58.973747 176.0
59.046444 256.0
59.064304 224.0
59.101513 188.0
59.233997 164.0
59.311325 224.0
59.366314 148.0
59.409466 152.0
59.430946 212.0
59.444756 144.0
59.514496 188.0
59.564346 148.0
59.621361 160.0
59.666306 168.0
59.721298 184.0
59.775143 240.0
59.867508 168.0
59.942196 128.0
59.95686 196.0
59.998478 176.0
60.017899 148.0
60.055534 144.0
60.084846 176.0
60.168007 104.0
60.185169 168.0
60.253128 172.0
60.263943 140.0
60.310856 168.0
60.381081 304.0
60.402027 176.0
60.43557 152.0
60.46497 144.0
60.481922 168.0
60.541695 172.0
60.588367 268.0
60.633785 184.0
60.669434 160.0
60.692692 184.0
60.833397 204.0
60.983795 148.0
61.068779 172.0
61.128925 168.0
61.161869 144.0
61.183662 192.0
61.199234 188.0
61.239723 148.0
61.264778 236.0
61.294247 196.0
61.383099 172.0
61.43457 168.0
61.486061 160.0
61.559437 264.0
61.601109 152.0
61.616959 184.0
61.639103 148.0
61.653168 228.0
61.684429 192.0
61.736023 160.0
61.865891 152.0
61.947323 188.0
62.002934 196.0
62.050098 152.0
62.068005 180.0
62.142639 224.0
62.174679 148.0
62.24218 196.0
62.275158 160.0
62.303436 168.0
62.385155 152.0
62.42289 156.0
62.50626 168.0
62.524868 136.0
62.535271 120.0
62.596775 152.0
62.629059 148.0
62.671597 156.0
62.690273 256.0
62.709415 136.0
62.74725 168.0
62.815586 248.0
62.841881 224.0
62.895538 144.0
63.00766 144.0
63.032211 160.0
63.064548 172.0
63.145184 176.0
63.191444 184.0
63.203411 188.0
63.216373 144.0
63.227451 168.0
63.257526 172.0
63.325615 160.0
63.394924 172.0
63.414341 176.0
63.434944 148.0
63.531681 160.0
63.652306 152.0
63.667271 212.0
63.68248 288.0
63.744442 300.0
63.842747 224.0
63.896908 108.0
63.971924 152.0
63.999416 204.0
64.031288 180.0
64.049911 156.0
64.077461 136.0
64.127983 196.0
64.172623 148.0
64.214081 208.0
64.263535 196.0
64.38485 280.0
64.443642 144.0
64.49791 152.0
64.533531 176.0
64.56443 208.0
64.583038 172.0
64.619431 192.0
64.698967 340.0
64.817619 144.0
64.968666 120.0
65.011703 280.0
65.092072 168.0
65.191025 144.0
65.216385 176.0
65.274261 164.0
65.285522 160.0
65.343781 216.0
65.438385 184.0
65.550713 188.0
65.577522 224.0
65.608101 300.0
65.670883 144.0
65.712051 376.0
65.76265 160.0
65.785973 120.0
65.798462 132.0
65.831314 188.0
65.860901 148.0
65.894821 164.0
65.91098 412.0
65.92701 148.0
65.946533 172.0
65.996841 204.0
66.025757 160.0
66.054871 164.0
66.069084 192.0
66.093918 148.0
66.113754 244.0
66.182724 180.0
66.236168 164.0
66.265137 152.0
66.285027 228.0
66.35257 304.0
66.386902 164.0
66.48748 184.0
66.523193 164.0
66.548203 148.0
66.597794 140.0
66.700256 288.0
66.792648 112.0
66.825478 144.0
66.896248 148.0
66.909538 148.0
66.926651 204.0
66.949188 264.0
67.024788 204.0
67.087196 164.0
67.126251 164.0
67.141495 156.0
67.177376 144.0
67.239677 156.0
67.294884 188.0
67.484032 120.0
67.576012 148.0
67.625153 128.0
67.672447 156.0
67.742996 332.0
67.818588 152.0
67.887512 140.0
67.989265 164.0
68.003227 120.0
68.152702 172.0
68.25135 168.0
68.334023 144.0
68.378113 116.0
68.428658 128.0
68.581291 156.0
68.642036 156.0
68.656876 168.0
68.722656 196.0
68.846664 168.0
68.886307 148.0
68.912865 156.0
69.000336 148.0
69.020729 96.0
69.058212 156.0
69.119423 192.0
69.364647 124.0
69.424232 152.0
69.452049 212.0
69.482063 148.0
69.567825 120.0
69.602753 124.0
69.657539 136.0
69.711426 180.0
69.772926 300.0
69.816154 228.0
69.839439 144.0
69.871048 240.0
70.070892 116.0
70.116127 152.0
70.140823 192.0
70.165077 168.0
70.218567 288.0
70.24334 176.0
70.264229 188.0
70.280914 164.0
70.328049 180.0
70.486603 132.0
70.531425 164.0
70.549812 184.0
70.569038 176.0
70.657066 120.0
70.693657 248.0
70.72818 172.0
70.760612 172.0
70.877708 140.0
70.913048 160.0
70.989372 152.0
71.016998 168.0
71.031395 156.0
71.054436 156.0
71.094177 176.0
71.132782 144.0
71.158279 128.0
71.260414 188.0
71.383232 132.0
71.423439 144.0
71.540375 312.0
71.557335 192.0
71.585365 152.0
71.619255 220.0
71.72995 144.0
71.741753 148.0
71.790649 156.0
71.920204 132.0
71.998222 160.0
72.055817 124.0
72.10128 140.0
72.145226 164.0
72.173965 152.0
72.185806 168.0
72.199333 164.0
72.266998 180.0
72.309303 152.0
72.357544 128.0
72.371323 204.0
72.38887 144.0
72.423111 128.0
72.466789 164.0
72.723625 168.0
72.841721 168.0
72.91787 132.0
73.062714 260.0
73.081429 312.0
73.096924 260.0
73.132011 168.0
73.255081 140.0
73.308449 140.0
73.502304 212.0
73.543259 168.0
73.558624 180.0
73.587784 144.0
73.63578 128.0
73.715752 208.0
73.775574 152.0
73.898766 136.0
73.926094 176.0
73.968269 204.0
74.191582 140.0
74.243568 200.0
74.262115 284.0
74.326797 212.0
74.457542 144.0
74.476547 384.0
74.497047 252.0
74.518196 260.0
74.546875 144.0
74.567108 176.0
74.586746 164.0
74.651741 164.0
74.736031 140.0
74.776466 176.0
74.820366 180.0
74.837578 160.0
74.858437 216.0
74.963326 172.0
75.044342 152.0
75.05986 156.0
75.282867 104.0
75.355446 192.0
75.37748 168.0
75.424141 148.0
75.437035 200.0
75.450073 152.0
75.470818 140.0
75.517815 204.0
75.572823 140.0
75.655945 160.0
75.672157 132.0
75.699226 152.0
75.777176 140.0
75.829163 156.0
75.856895 172.0
75.874229 144.0
75.954002 148.0
75.997375 156.0
76.054001 108.0
76.108459 156.0
76.141457 180.0
76.20343 148.0
76.237541 312.0
76.350098 160.0
76.37088 268.0
76.410889 168.0
76.47876 140.0
76.526962 272.0
76.546875 156.0
76.696487 188.0
76.710426 188.0
76.870888 344.0
76.916519 140.0
77.03569 440.0
77.07869 256.0
77.16259 160.0
77.181068 132.0
77.275925 160.0
77.358528 204.0
77.442749 208.0
77.467934 160.0
77.521767 120.0
77.551208 140.0
77.627838 124.0
77.718597 200.0
77.735062 188.0
77.799767 184.0
77.886345 232.0
77.981224 192.0
78.032776 172.0
78.116035 144.0
78.144768 144.0
78.188225 184.0
78.210693 148.0
78.259178 144.0
78.304962 156.0
78.327858 148.0
78.499817 296.0
78.519928 132.0
78.548203 200.0
78.560547 220.0
78.66114 164.0
78.69278 164.0
78.75544 168.0
78.772385 220.0
78.898727 160.0
78.927917 148.0
78.97036 192.0
79.062607 144.0
79.094215 212.0
79.210747 104.0
79.24054 276.0
79.334206 124.0
79.364128 124.0
79.410301 156.0
79.423698 144.0
79.444733 180.0
79.465126 176.0
79.489716 152.0
79.542686 156.0
79.641571 128.0
79.677155 144.0
79.722076 160.0
79.799622 172.0
79.842964 152.0
79.915894 192.0
79.946144 168.0
79.959824 184.0
79.986542 236.0
80.015564 140.0
80.063133 168.0
80.177666 220.0
80.202003 116.0
80.262123 232.0
80.372765 148.0
80.471268 124.0
80.544182 164.0
80.56665 152.0
80.601646 156.0
80.664024 112.0
80.69175 184.0
80.737823 152.0
80.786537 156.0
80.820534 168.0
80.910019 188.0
80.960564 176.0
81.006729 220.0
81.02285 156.0
81.062454 196.0
81.133774 124.0
81.179718 232.0
81.192604 108.0
81.212868 140.0
81.272064 140.0
81.349243 148.0
81.365395 164.0
81.5131 136.0
81.528854 164.0
81.594887 228.0
81.639626 220.0
81.69088 108.0
81.793243 192.0
81.861664 152.0
81.876068 224.0
81.928963 216.0
81.945564 104.0
81.964081 112.0
82.048233 132.0
82.07486 192.0
82.112892 136.0
82.162674 152.0
82.299843 192.0
82.381111 292.0
82.423386 272.0
82.457512 172.0
82.49942 164.0
82.556725 176.0
82.603462 148.0
82.719154 120.0
82.746033 216.0
82.835693 180.0
82.940269 148.0
82.98674 252.0
83.025444 164.0
83.099861 208.0
83.112373 192.0
83.245964 212.0
83.278755 124.0
83.314095 228.0
83.334702 116.0
83.354065 240.0
83.437675 252.0
83.452217 180.0
83.471855 180.0
83.528099 188.0
83.581985 160.0
83.610748 136.0
83.686035 316.0
83.737923 208.0
83.750671 248.0
83.771347 148.0
83.856346 156.0
83.878906 160.0
83.901917 152.0
83.971214 200.0
84.025993 132.0
84.05233 180.0
84.213959 156.0
84.266937 268.0
84.372192 156.0
84.420479 152.0
84.479012 148.0
84.539131 172.0
84.564095 96.0
84.59613 192.0
84.6194 180.0
84.684021 140.0
84.762543 144.0
84.851212 168.0
84.870369 140.0
84.877518 96.0
84.929634 148.0
84.942474 148.0
84.995674 144.0
85.039719 192.0
85.091118 196.0
85.159065 140.0
85.262566 180.0
85.315254 148.0
85.418236 196.0
85.431114 164.0
85.493294 156.0
85.539688 148.0
85.583878 196.0
85.653023 164.0
85.706001 132.0
85.740509 176.0
85.782852 200.0
85.822144 152.0
85.839928 192.0
85.862602 212.0
85.90126 188.0
86.054047 160.0
86.309029 184.0
86.346146 168.0
86.360809 168.0
86.386703 176.0
86.403023 176.0
86.423454 144.0
86.46479 220.0
86.511749 196.0
86.53595 168.0
86.694061 156.0
86.755959 132.0
86.784119 184.0
86.812614 176.0
86.860832 152.0
86.984596 212.0
87.245331 200.0
87.293678 192.0
87.318115 144.0
87.459259 208.0
87.474724 208.0
87.492767 212.0
87.50766 212.0
87.586533 228.0
87.613815 144.0
87.709869 140.0
87.741455 132.0
87.859909 248.0
87.905266 204.0
87.928947 156.0
88.006165 132.0
88.05777 200.0
88.117546 320.0
88.132919 196.0
88.151604 196.0
88.200737 248.0
88.219788 192.0
88.263344 280.0
88.318497 220.0
88.379158 244.0
88.434494 172.0
88.444893 184.0
88.500237 116.0
88.527657 304.0
88.545921 164.0
88.574013 196.0
88.726158 148.0
88.768929 144.0
88.791435 148.0
88.806442 228.0
88.900246 140.0
88.928398 308.0
88.957161 160.0
88.97908 188.0
89.073921 132.0
89.102943 164.0
89.158691 240.0
89.197311 312.0
89.279732 192.0
89.347321 160.0
89.366257 152.0
89.380516 192.0
89.403267 252.0
89.577324 180.0
89.746735 148.0
89.771248 204.0
89.786331 148.0
89.830391 168.0
89.866364 160.0
89.975029 188.0
90.060005 148.0
90.088341 180.0
90.153488 224.0
90.230209 168.0
90.462379 232.0
90.542297 172.0
90.574234 156.0
90.651314 176.0
90.719353 108.0
90.753616 148.0
90.767807 144.0
90.787529 180.0
90.819016 144.0
91.05455 904.0
91.084755 152.0
91.133369 156.0
91.151253 188.0
91.173622 192.0
91.195999 212.0
91.224243 140.0
91.240463 180.0
91.27211 116.0
91.29763 216.0
91.328995 292.0
91.418709 136.0
91.609779 216.0
91.630737 204.0
91.65065 136.0
91.677879 124.0
91.695053 160.0
91.721298 184.0
91.741272 204.0
91.816429 164.0
91.831947 116.0
91.840111 144.0
91.862503 224.0
91.951096 144.0
92.040817 144.0
92.109131 244.0
92.136726 224.0
92.207794 128.0
92.329376 172.0
92.365013 152.0
92.384682 140.0
92.555183 224.0
92.689003 144.0
92.729515 180.0
92.783188 152.0
92.86319 172.0
92.896332 200.0
93.028748 228.0
93.044106 188.0
93.100403 100.0
93.188148 220.0
93.262108 264.0
93.29081 168.0
93.380386 184.0
93.426506 168.0
93.657547 160.0
93.757736 352.0
93.795364 152.0
93.851036 200.0
93.886078 196.0
93.910255 220.0
93.944771 212.0
94.012299 204.0
94.064514 336.0
94.104637 216.0
94.129356 188.0
94.145508 160.0
94.168678 164.0
94.187996 204.0
94.247887 176.0
94.269142 196.0
94.295479 172.0
94.326736 220.0
94.410805 236.0
94.425735 160.0
94.450882 168.0
94.519745 216.0
94.591644 204.0
94.641983 204.0
94.681206 144.0
94.710632 104.0
94.790916 152.0
94.960289 168.0
94.990608 140.0
95.012665 196.0
95.06913 204.0
95.087479 412.0
95.187927 204.0
95.289452 176.0
95.432182 228.0
95.461349 232.0
95.505592 160.0
95.531372 208.0
95.544991 152.0
95.566391 176.0
95.611145 148.0
95.644699 184.0
95.687347 136.0
95.730911 276.0
95.791527 112.0
95.835922 132.0
95.876472 152.0
95.891602 172.0
95.918884 160.0
95.990891 180.0
96.006622 160.0
96.033928 168.0
96.082008 4660.0
96.310051 140.0
96.328705 180.0
96.367455 160.0
96.392799 244.0
96.467422 152.0
96.490631 228.0
96.537094 176.0
96.606262 152.0
96.719765 216.0
96.865021 176.0
96.890747 140.0
96.953262 196.0
96.974457 144.0
97.051971 168.0
97.088364 3236.0
97.223473 144.0
97.254372 188.0
97.280396 180.0
97.380539 152.0
97.400787 168.0
97.453773 144.0
97.47023 160.0
97.657669 356.0
97.70916 160.0
97.724899 136.0
97.783592 144.0
97.830948 184.0
97.918625 244.0
97.966713 176.0
98.026718 192.0
98.044624 156.0
98.093216 496.0
98.177986 172.0
98.237778 168.0
98.283379 344.0
98.374924 140.0
98.394669 268.0
98.442055 160.0
98.633705 188.0
98.674377 216.0
98.705025 372.0
98.783989 272.0
98.83345 152.0
98.906326 228.0
98.940323 144.0
99.041321 276.0
99.056854 296.0
99.13662 160.0
99.152275 140.0
99.166145 156.0
99.194557 192.0
99.243866 136.0
99.277954 192.0
99.374367 172.0
99.461685 184.0
99.555771 124.0
99.727066 132.0
99.770859 164.0
99.80899 152.0
99.881577 192.0
99.900848 216.0
99.948601 152.0
100.016266 144.0
100.053474 208.0
100.072006 204.0
100.085945 192.0
100.371742 144.0
100.45665 256.0
100.503357 204.0
100.541313 184.0
100.5588 144.0
100.616211 180.0
100.644371 136.0
100.725777 156.0
100.76609 144.0
100.792809 172.0
100.843643 188.0
100.888191 124.0
100.903992 148.0
100.963982 140.0
101.00547 188.0
101.247803 176.0
101.274208 156.0
101.332298 180.0
101.368362 164.0
101.594002 164.0
101.622276 172.0
101.760399 160.0
101.779579 292.0
101.835815 172.0
101.87442 164.0
101.892731 96.0
102.019699 360.0
102.109596 132.0
102.125244 336.0
102.225838 160.0
102.25943 208.0
102.331673 164.0
102.350639 156.0
102.400986 152.0
102.417099 232.0
102.435226 236.0
102.486076 152.0
102.507866 316.0
102.638786 176.0
102.680923 112.0
102.723495 148.0
102.831642 188.0
102.933395 248.0
102.977043 216.0
103.005005 148.0
103.147835 172.0
103.183586 136.0
103.202042 160.0
103.249413 212.0
103.321472 208.0
103.44014 172.0
103.486061 148.0
103.519829 232.0
103.541306 132.0
103.675819 256.0
103.695 180.0
103.760948 140.0
103.835976 164.0
103.852486 288.0
104.047012 312.0
104.146515 140.0
104.221062 144.0
104.290779 204.0
104.332993 188.0
104.380798 244.0
104.433784 180.0
104.459549 160.0
104.516518 316.0
104.565361 172.0
104.603058 256.0
104.618279 168.0
104.671219 172.0
104.737961 208.0
104.789146 156.0
104.827797 148.0
104.917755 184.0
105.071251 1004.0
105.106644 164.0
105.193153 204.0
105.266663 196.0
105.301071 160.0
105.417824 148.0
105.4785 192.0
105.505714 252.0
105.544563 156.0
105.564896 140.0
105.603867 176.0
105.634552 144.0
105.663193 228.0
105.700867 184.0
105.806458 212.0
105.82975 232.0
105.884827 176.0
105.907631 284.0
105.962105 176.0
106.00782 180.0
106.044075 228.0
106.070724 152.0
106.136612 116.0
106.167084 164.0
106.190437 128.0
106.261246 204.0
106.27877 144.0
106.313652 180.0
106.334213 116.0
106.349686 212.0
106.424721 176.0
106.445671 324.0
106.47287 152.0
106.520302 176.0
106.590508 228.0
106.637894 212.0
106.690651 128.0
106.750961 176.0
106.81929 148.0
106.933296 144.0
106.97831 256.0
107.021873 148.0
107.086372 2468.0
107.159142 172.0
107.290871 180.0
107.314507 280.0
107.337189 140.0
107.405251 164.0
107.492699 196.0
107.519722 156.0
107.568626 104.0
107.804642 148.0
107.825783 160.0
107.940155 184.0
107.969109 140.0
108.00013 184.0
108.087845 788.0
108.134621 192.0
108.252625 176.0
108.279068 172.0
108.347427 208.0
108.41835 144.0
108.472572 100.0
108.528221 172.0
108.563103 336.0
108.595558 136.0
108.617882 120.0
108.686775 156.0
108.725464 264.0
108.76265 256.0
108.803566 176.0
108.818695 184.0
108.836632 144.0
108.901764 164.0
108.952209 140.0
109.050301 96.0
109.102234 716.0
109.198982 172.0
109.374031 184.0
109.421638 196.0
109.487244 156.0
109.52063 164.0
109.555443 244.0
109.615349 144.0
109.657448 120.0
109.677193 160.0
109.745499 192.0
109.804779 180.0
109.875984 212.0
109.891594 124.0
109.93441 200.0
109.994934 168.0
110.029221 188.0
110.067146 204.0
110.096199 1484.0
110.159271 212.0
110.190346 156.0
110.208252 140.0
110.274826 144.0
110.314545 188.0
110.383537 156.0
110.462334 160.0
110.577248 256.0
110.60112 180.0
110.716049 112.0
110.774734 136.0
110.793915 180.0
110.83149 224.0
110.95108 132.0
111.024345 140.0
111.043221 168.0
111.097542 156.0
111.23938 132.0
111.299248 192.0
111.337044 184.0
111.417389 160.0
111.442078 140.0
111.533142 192.0
111.561867 188.0
111.595512 152.0
111.661789 224.0
111.708359 152.0
111.826736 96.0
111.887955 168.0
111.941788 140.0
111.96376 140.0
112.083839 164.0
112.112541 8520.0
112.231255 196.0
112.385551 176.0
112.435143 196.0
112.482445 272.0
112.593857 120.0
112.624474 112.0
112.730484 164.0
112.797188 332.0
112.838928 220.0
112.942345 148.0
113.084854 200.0
113.115356 740.0
113.219017 108.0
113.293243 204.0
113.355385 184.0
113.437096 176.0
113.495834 232.0
113.537842 136.0
113.563698 232.0
113.587029 160.0
113.605896 152.0
113.627335 204.0
113.646523 184.0
113.670403 148.0
113.687393 212.0
113.750427 164.0
113.813194 120.0
113.93187 172.0
113.94606 184.0
114.115929 176.0
114.129082 276.0
114.16127 260.0
114.21994 176.0
114.267906 176.0
114.289757 172.0
114.307716 132.0
114.337059 176.0
114.354088 164.0
114.385963 172.0
114.512253 224.0
114.689995 172.0
114.740059 208.0
114.908989 132.0
114.930008 96.0
114.993492 208.0
115.062111 304.0
115.10878 192.0
115.17659 192.0
115.230843 164.0
115.251892 140.0
115.381691 148.0
115.408531 316.0
115.429314 196.0
115.445198 164.0
115.495613 152.0
115.514862 160.0
115.546951 164.0
115.673218 160.0
115.705475 176.0
115.817268 176.0
115.884163 316.0
115.952843 116.0
116.013824 152.0
116.069748 192.0
116.136055 164.0
116.16394 152.0
116.202141 144.0
116.236938 184.0
116.267075 180.0
116.302841 164.0
116.342056 184.0
116.414955 168.0
116.477341 188.0
116.500862 156.0
116.543945 148.0
116.580528 160.0
116.609215 172.0
116.622902 248.0
116.646103 112.0
116.70401 140.0
116.749741 152.0
116.844948 160.0
116.872925 144.0
116.9095 172.0
116.936577 200.0
116.97287 100.0
117.004211 144.0
117.030159 156.0
117.077423 180.0
117.150658 216.0
117.199852 244.0
117.229179 180.0
117.270073 100.0
117.297188 156.0
117.386055 204.0
117.541313 168.0
117.576271 164.0
117.624046 196.0
117.656189 184.0
117.676888 176.0
117.69632 148.0
117.800323 128.0
117.847565 172.0
117.884247 144.0
117.910408 300.0
118.094353 132.0
118.138733 180.0
118.264893 192.0
118.335342 96.0
118.357979 156.0
118.383965 164.0
118.433838 144.0
118.451111 176.0
118.540802 168.0
118.594177 156.0
118.656509 164.0
118.689507 180.0
118.745888 228.0
118.832611 160.0
118.878174 284.0
118.914528 232.0
119.017159 164.0
119.050415 176.0
119.108704 208.0
119.127922 200.0
119.152374 204.0
119.262642 180.0
119.289734 164.0
119.334381 200.0
119.353378 176.0
119.382553 184.0
119.405899 180.0
119.432243 144.0
119.476624 140.0
119.507301 336.0
119.590866 180.0
119.678162 164.0
119.787056 148.0
119.848862 272.0
119.878563 252.0
119.972954 104.0
120.120575 196.0
120.211372 204.0
120.249313 144.0
120.282051 152.0
120.325798 200.0
120.399956 128.0
120.553719 312.0
120.612419 132.0
120.629379 180.0
120.729958 168.0
120.768127 220.0
120.804321 212.0
120.884895 116.0
120.942177 144.0
121.013794 224.0
121.069168 220.0
121.112877 184.0
121.183075 140.0
121.225365 120.0
121.256142 116.0
121.321144 152.0
121.361671 428.0
121.415428 172.0
121.448936 288.0
121.495216 160.0
121.553635 144.0
121.702896 156.0
121.731995 128.0
121.770309 376.0
121.853569 120.0
121.920448 116.0
121.950127 144.0
121.99118 208.0
122.090591 184.0
122.106697 276.0
122.228638 160.0
122.32637 136.0
122.466003 160.0
122.626846 144.0
122.690773 140.0
122.745499 156.0
122.773041 180.0
122.864998 144.0
122.928986 176.0
123.120079 184.0
123.140923 148.0
123.222656 164.0
123.247658 304.0
123.33094 260.0
123.388412 164.0
123.50341 184.0
123.525528 160.0
123.640457 144.0
123.784477 184.0
123.813263 164.0
123.889992 188.0
123.925636 176.0
124.02153 160.0
124.065865 144.0
124.192261 148.0
124.364952 208.0
124.42527 172.0
124.449219 132.0
124.52742 200.0
124.544632 208.0
124.591835 140.0
124.607384 160.0
124.638016 148.0
124.655205 156.0
124.699005 228.0
124.776299 156.0
124.86747 148.0
124.892563 128.0
124.927528 152.0
124.978355 184.0
125.034378 192.0
125.096657 252.0
125.130959 196.0
125.19017 164.0
125.221703 124.0
125.251808 172.0
125.334961 340.0
125.423309 236.0
125.464233 188.0
125.520775 144.0
125.557556 180.0
125.620338 152.0
125.667191 140.0
125.881477 148.0
125.902977 176.0
125.930855 108.0
125.956619 136.0
126.066711 208.0
126.106209 316.0
126.170227 184.0
126.2752 244.0
126.332962 152.0
126.381088 164.0
126.46051 180.0
126.706131 244.0
126.780777 200.0
126.803185 156.0
126.819672 304.0
126.856331 124.0
126.877159 164.0
126.933212 180.0
127.004105 184.0
127.011604 172.0
127.043114 232.0
127.236435 168.0
127.278778 152.0
127.332169 196.0
127.348976 156.0
127.386581 176.0
127.430267 224.0
127.532639 200.0
127.582092 184.0
127.599869 168.0
127.624809 176.0
127.642799 160.0
127.674286 144.0
127.69722 264.0
127.754761 200.0
127.937546 172.0
127.985512 184.0
128.128662 172.0
128.147079 304.0
128.226761 160.0
128.329559 164.0
128.394333 128.0
128.429672 244.0
128.505493 156.0
128.528595 264.0
128.572433 144.0
128.613815 172.0
128.672501 164.0
128.731216 200.0
128.864304 100.0
128.915863 200.0
128.945831 144.0
129.044464 172.0
129.077393 184.0
129.119995 128.0
129.160233 160.0
129.230759 152.0
129.254517 152.0
129.291855 176.0
129.33989 144.0
129.366562 152.0
129.444748 352.0
129.462509 284.0
129.49826 144.0
129.563583 256.0
129.581711 144.0
129.656479 140.0
129.696213 208.0
129.722214 144.0
129.801331 152.0
129.826157 128.0
129.871872 152.0
129.969971 200.0
130.004211 168.0
130.02388 184.0
130.115921 236.0
130.13739 168.0
130.320358 184.0
130.342911 124.0
130.453369 172.0
130.487289 176.0
130.524612 200.0
130.606232 164.0
130.634354 120.0
130.676056 180.0
130.69574 164.0
130.801224 144.0
130.827972 144.0
130.864975 176.0
130.886719 160.0
130.937836 260.0
130.977234 148.0
131.01683 124.0
131.063675 572.0
131.088486 164.0
131.180496 300.0
131.22496 148.0
131.288803 188.0
131.39888 156.0
131.503265 212.0
131.532104 144.0
131.55069 180.0
131.651718 176.0
131.681351 188.0
131.881912 160.0
131.96701 288.0
132.025284 296.0
132.058472 144.0
132.101944 208.0
132.168289 156.0
132.184311 316.0
132.243256 200.0
132.267624 168.0
132.298752 144.0
132.373459 280.0
132.391327 224.0
132.454468 176.0
132.503983 136.0
132.53096 164.0
132.620056 196.0
132.640076 192.0
132.667587 148.0
132.725876 140.0
132.760849 208.0
132.805161 200.0
132.851044 168.0
132.885452 140.0
132.923203 168.0
132.965775 180.0
133.011185 112.0
133.041626 164.0
133.076874 1080.0
133.177002 140.0
133.211136 224.0
133.218658 164.0
133.267807 140.0
133.352081 100.0
133.394989 236.0
133.436676 184.0
133.471649 128.0
133.514145 168.0
133.625275 152.0
133.694305 160.0
133.717957 188.0
133.777161 180.0
133.826355 132.0
133.870544 180.0
133.93103 180.0
133.995987 236.0
134.057831 140.0
134.125458 184.0
134.198425 292.0
134.24028 152.0
134.297928 284.0
134.332535 204.0
134.432205 192.0
134.581787 188.0
134.64183 164.0
134.664917 152.0
134.696701 200.0
134.74115 148.0
134.802368 188.0
135.069427 172.0
135.168259 200.0
135.303513 176.0
135.349457 140.0
135.447083 152.0
135.47081 232.0
135.495377 188.0
135.538452 152.0
135.562576 172.0
135.629776 156.0
135.648331 172.0
135.724838 192.0
135.822784 188.0
135.852402 188.0
135.899918 316.0
135.956802 160.0
136.007874 140.0
136.110336 788.0
136.142532 164.0
136.180054 128.0
136.260315 232.0
136.309784 176.0
136.339233 160.0
136.36792 156.0
136.401642 140.0
136.440247 192.0
136.510757 196.0
136.543655 156.0
136.622711 280.0
136.646942 232.0
136.693115 176.0
136.738724 188.0
136.815079 160.0
136.847107 148.0
136.89296 208.0
137.092316 148.0
137.138306 156.0
137.164383 188.0
137.219009 204.0
137.323334 168.0
137.389236 124.0
137.413071 208.0
137.434052 180.0
137.50058 228.0
137.568588 184.0
137.613174 504.0
137.633133 184.0
137.656174 108.0
137.696426 344.0
137.743942 144.0
137.766708 144.0
137.784683 188.0
137.828461 204.0
137.853912 128.0
137.880005 188.0
137.914841 404.0
137.951904 496.0
137.975891 208.0
138.019547 268.0
138.053986 388.0
138.074234 268.0
138.128937 200884.0
138.189346 156.0
138.217468 256.0
138.249756 132.0
138.281815 120.0
138.336014 132.0
138.388794 204.0
138.415741 96.0
138.478821 120.0
138.512985 1028.0
138.594223 212.0
138.700729 268.0
138.788101 96.0
138.807541 308.0
138.833328 128.0
138.866165 184.0
138.917496 160.0
138.966171 176.0
139.036682 124.0
139.069702 240.0
139.098465 224.0
139.131104 18700.0
139.218903 152.0
139.577805 160.0
139.638885 156.0
139.717255 140.0
139.77533 156.0
139.844482 104.0
139.861984 188.0
139.953583 212.0
139.97937 156.0
140.014969 124.0
140.057159 96.0
140.087555 432.0
140.105743 144.0
140.134644 1000.0
140.160019 132.0
140.230438 144.0
140.270798 256.0
140.300568 140.0
140.365402 312.0
140.396271 116.0
140.439697 168.0
140.496307 204.0
140.551575 208.0
140.660522 160.0
140.7276 160.0
140.747559 168.0
140.779251 128.0
140.94812 112.0
140.996902 172.0
141.041809 160.0
141.084274 128.0
141.139282 380.0
141.163086 148.0
141.1884 148.0
141.302673 140.0
141.354767 328.0
141.404205 148.0
141.424988 152.0
141.464478 252.0
141.638092 164.0
141.746613 164.0
141.822922 220.0
141.90329 268.0
141.957382 140.0
141.974655 256.0
142.022263 108.0
142.061707 108.0
142.083771 176.0
142.205353 176.0
142.332977 152.0
142.389969 144.0
142.446976 176.0
142.480698 208.0
142.511124 140.0
142.532761 188.0
142.716629 112.0
142.745453 144.0
142.776474 204.0
142.846344 188.0
142.895035 196.0
142.939133 168.0
143.193863 188.0
143.251907 152.0
143.281006 148.0
143.43689 184.0
143.483566 184.0
143.566925 172.0
143.585388 164.0
143.787521 168.0
143.864624 136.0
143.994141 184.0
144.052032 148.0
144.180069 132.0
144.254272 184.0
144.437408 156.0
144.456345 180.0
144.491257 124.0
144.594986 168.0
144.746155 232.0
144.76442 204.0
144.837357 148.0
145.080887 136.0
145.364609 140.0
145.479813 248.0
145.575851 292.0
145.591751 228.0
145.609482 180.0
145.669525 176.0
145.751221 152.0
145.792374 128.0
145.906158 172.0
145.96756 220.0
146.048126 272.0
146.286148 220.0
146.339859 132.0
146.368759 216.0
146.421906 240.0
146.45285 164.0
146.566208 200.0
146.762177 188.0
146.795929 164.0
147.234406 152.0
147.300354 156.0
147.445328 144.0
147.578293 192.0
147.603012 192.0
147.711304 152.0
147.731567 104.0
147.7742 232.0
148.028351 148.0
148.057419 160.0
148.142197 180.0
148.289215 224.0
148.433029 196.0
148.491241 168.0
148.575684 184.0
148.635284 180.0
148.680771 100.0
148.72081 136.0
148.881363 112.0
149.044739 140.0
149.074814 180.0
149.315552 148.0
149.338898 216.0
149.445068 224.0
149.488785 120.0
149.522324 224.0
149.592224 108.0
149.735611 144.0
149.759979 168.0
149.786758 144.0
149.93959 144.0
150.021927 200.0
150.084763 188.0
150.355972 124.0
150.384247 108.0
150.466736 164.0
150.59169 156.0
150.853149 152.0
150.87149 152.0
150.901123 180.0
150.936996 180.0
151.168671 160.0
151.207825 160.0
151.294006 172.0
151.366943 184.0
151.478622 192.0
151.510742 124.0
151.620163 144.0
151.70752 180.0
151.777435 100.0
151.918411 156.0
151.96257 184.0
152.110733 204.0
152.163834 188.0
152.195755 156.0
152.21785 96.0
152.328369 180.0
152.479279 164.0
152.667557 184.0
152.762772 168.0
152.813629 188.0
152.859436 176.0
153.030365 172.0
153.172119 144.0
153.191818 152.0
153.260559 200.0
153.307617 144.0
153.337204 156.0
153.45607 164.0
153.497894 152.0
153.593628 168.0
153.635559 180.0
153.692307 164.0
153.807877 192.0
153.907898 128.0
154.045959 132.0
154.096924 160.0
154.119476 144.0
154.210907 172.0
154.275177 180.0
154.321503 168.0
154.419342 148.0
154.477966 164.0
154.528671 176.0
154.551239 116.0
154.594254 232.0
154.690781 152.0
154.76506 140.0
154.783783 176.0
154.949463 96.0
154.986588 200.0
155.007797 148.0
155.040024 148.0
155.074722 212.0
155.175476 180.0
155.332443 132.0
155.687927 120.0
155.771973 160.0
155.836563 160.0
155.886322 136.0
155.962738 204.0
156.010529 172.0
156.056274 120.0
156.157242 184.0
156.254257 268.0
156.271469 152.0
156.350525 184.0
156.39859 140.0
156.439468 132.0
156.463318 176.0
156.484665 160.0
156.560425 176.0
156.59404 160.0
156.641388 168.0
156.784637 184.0
156.916748 332.0
156.969116 152.0
157.067886 172.0
157.097839 176.0
157.166565 256.0
157.236038 172.0
157.266449 176.0
157.418289 164.0
157.484329 124.0
157.602859 180.0
157.630753 152.0
157.678101 248.0
157.69809 176.0
157.818085 180.0
157.90062 156.0
157.920624 232.0
158.071243 804.0
158.200882 176.0
158.324219 340.0
158.349106 164.0
158.387497 152.0
158.441132 172.0
158.496857 272.0
158.65567 192.0
158.685272 116.0
158.767609 264.0
158.823486 104.0
158.854034 204.0
158.893219 204.0
158.922684 284.0
158.941635 184.0
158.975235 236.0
159.014648 144.0
159.055954 123372.0
159.222809 136.0
159.254715 132.0
159.29895 196.0
159.350571 224.0
159.366135 176.0
159.430862 276.0
159.468903 160.0
159.562119 148.0
159.769363 144.0
159.824112 148.0
159.961182 148.0
160.058395 12044.0
160.217499 144.0
160.258575 196.0
160.469345 176.0
160.551102 124.0
160.648575 148.0
160.673508 104.0
160.699036 220.0
160.860474 128.0
160.937622 160.0
160.957748 324.0
160.99408 296.0
161.039642 152.0
161.063919 1240.0
161.08873 220.0
161.145538 100.0
161.172897 104.0
161.197998 152.0
161.272705 152.0
161.292068 316.0
161.324478 124.0
161.384628 156.0
161.476669 96.0
161.550507 152.0
161.588394 164.0
161.66684 192.0
161.730225 144.0
161.913773 128.0
162.08374 164.0
162.158813 124.0
162.241806 172.0
162.352509 200.0
162.390625 140.0
162.46608 120.0
162.515717 160.0
162.577957 204.0
162.658463 164.0
162.899246 296.0
162.932556 468.0
163.021851 176.0
163.092712 100.0
163.322601 196.0
163.565323 156.0
163.611145 156.0
163.631454 192.0
163.723175 152.0
163.835251 208.0
163.889786 148.0
163.924423 180.0
164.062057 288.0
164.159683 180.0
164.421722 184.0
164.501724 240.0
164.564728 172.0
164.625946 156.0
164.674896 144.0
164.837982 156.0
164.857193 172.0
165.119186 200.0
165.157562 148.0
165.237198 148.0
165.459518 156.0
165.482559 268.0
165.654144 160.0
165.77713 204.0
165.923233 204.0
165.997894 136.0
166.130966 140.0
166.173752 108.0
166.308029 140.0
166.33403 120.0
166.559662 192.0
166.590485 380.0
166.667145 148.0
166.684891 108.0
166.772156 360.0
166.796066 152.0
167.019775 172.0
167.048065 244.0
167.179047 132.0
167.2771 152.0
167.307983 212.0
167.340057 100.0
167.410492 128.0
167.627106 156.0
167.791946 164.0
167.989548 160.0
168.042831 160.0
168.188309 136.0
168.392807 172.0
168.584702 156.0
168.662643 148.0
168.967148 204.0
169.070953 180.0
169.197937 132.0
169.303955 308.0
169.360931 188.0
170.073608 112.0
170.181 144.0
170.258102 96.0
170.367416 148.0
170.433685 196.0
170.493195 128.0
170.540131 164.0
170.614304 276.0
170.767395 184.0
171.035721 200.0
171.082581 164.0
171.217972 140.0
171.275284 148.0
171.31575 164.0
171.519424 256.0
171.67955 108.0
171.716751 128.0
171.760529 152.0
171.971466 152.0
171.997559 172.0
172.087494 116.0
172.535706 176.0
172.59668 148.0
172.747528 156.0
173.252777 272.0
173.378555 140.0
173.40213 144.0
173.436203 212.0
173.538452 144.0
173.765884 180.0
173.781433 112.0
173.853226 160.0
173.931961 144.0
174.096649 232.0
174.217651 152.0
174.23909 200.0
174.276001 140.0
174.310165 152.0
174.418533 236.0
174.604599 176.0
174.660248 172.0
174.772949 160.0
174.846634 160.0
174.907669 236.0
175.012482 180.0
175.094116 204.0
175.133621 144.0
175.327545 320.0
175.418198 156.0
175.470932 148.0
175.562408 156.0
175.688324 100.0
175.727676 116.0
175.762405 196.0
175.793152 176.0
175.849869 104.0
175.961655 172.0
176.025024 140.0
176.081924 3880.0
176.177231 160.0
176.249557 144.0
176.397552 176.0
176.598526 168.0
176.702515 160.0
176.762543 148.0
176.783417 236.0
176.908112 152.0
177.0681 636.0
177.414108 148.0
177.626251 252.0
177.750946 148.0
177.883652 176.0
177.912857 156.0
177.938263 168.0
178.037643 232.0
178.068787 540.0
178.137604 164.0
178.183121 136.0
178.242203 144.0
178.333817 336.0
178.454849 228.0
178.583969 288.0
178.629929 96.0
178.861877 260.0
178.915115 152.0
178.983932 156.0
179.31398 136.0
179.363663 336.0
179.411835 148.0
179.514252 144.0
179.682663 168.0
179.907837 108.0
180.091766 112.0
180.148529 128.0
180.218185 132.0
180.387283 132.0
180.593582 144.0
180.892776 168.0
180.924866 180.0
180.984299 152.0
181.032501 188.0
181.091431 140.0
181.132202 692.0
181.217331 152.0
181.26889 184.0
181.289688 152.0
181.324524 188.0
181.41893 144.0
181.557388 116.0
181.644302 136.0
181.673096 156.0
181.725037 256.0
181.767441 176.0
181.844833 144.0
181.877945 144.0
181.914246 192.0
181.99382 144.0
182.047638 168.0
182.126404 148.0
182.140961 180.0
182.273651 160.0
182.335297 176.0
182.435791 140.0
182.527206 140.0
182.668564 196.0
182.701462 152.0
182.734009 176.0
182.785233 104.0
182.805618 152.0
182.854889 168.0
182.95314 152.0
182.99791 100.0
183.087173 188.0
183.132721 188.0
183.326706 176.0
183.474854 164.0
183.536957 180.0
183.696091 192.0
183.71965 124.0
183.874374 164.0
183.939468 104.0
184.046936 164.0
184.159866 132.0
184.264801 176.0
184.403534 168.0
184.532318 168.0
184.561417 168.0
184.584656 208.0
184.615585 220.0
184.825409 140.0
184.86058 144.0
184.925537 148.0
185.052765 236.0
185.148956 176.0
185.177338 148.0
185.23027 144.0
185.250473 156.0
185.361557 168.0
185.38916 204.0
185.569336 180.0
185.608231 180.0
185.731216 160.0
185.762817 156.0
185.859421 232.0
185.881241 160.0
185.91748 164.0
185.987686 152.0
186.118362 176.0
186.225586 132.0
186.335648 160.0
186.547623 152.0
186.618317 244.0
186.862732 120.0
187.16394 128.0
187.286942 228.0
187.537903 120.0
187.569824 124.0
187.708557 152.0
187.909592 196.0
187.961166 200.0
188.042068 124.0
188.078186 208.0
188.148727 100.0
188.225937 180.0
188.274826 124.0
188.310104 152.0
188.606949 128.0
188.810364 268.0
188.870117 108.0
188.905014 144.0
188.963943 188.0
189.197052 156.0
189.251328 184.0
189.317047 180.0
189.378815 152.0
189.448517 160.0
189.473679 108.0
189.560852 192.0
189.755463 176.0
189.876114 172.0
190.059921 148.0
190.091003 220.0
190.265762 180.0
190.369934 372.0
190.448776 124.0
190.489075 140.0
190.650314 152.0
190.746521 204.0
191.115036 140.0
191.161819 160.0
191.241638 156.0
191.294952 140.0
191.360992 224.0
191.489426 300.0
191.547272 144.0
191.647797 104.0
191.674438 152.0
191.712814 104.0
191.742905 152.0
191.764954 160.0
191.798019 164.0
191.83844 284.0
191.979584 108.0
192.059525 144.0
192.20343 144.0
192.674011 208.0
192.860718 140.0
192.913239 140.0
192.939819 156.0
193.002823 140.0
193.053268 148.0
193.084061 108.0
193.115601 176.0
193.232834 168.0
193.462357 128.0
193.503036 148.0
193.632324 164.0
193.676971 144.0
193.732162 100.0
193.771164 228.0
193.859909 144.0
193.898041 168.0
194.045547 156.0
194.073746 164.0
194.259094 156.0
194.358978 184.0
194.422806 164.0
194.461456 112.0
194.599442 160.0
194.678207 156.0
194.752792 140.0
195.000473 168.0
195.021561 152.0
195.080307 100.0
195.28685 204.0
195.320236 156.0
195.412033 156.0
195.514999 140.0
195.704285 200.0
195.763641 152.0
196.12793 200.0
196.186279 156.0
196.253189 140.0
196.275497 180.0
196.314529 144.0
196.497559 240.0
196.597549 268.0
196.775711 360.0
196.800232 264.0
196.88942 148.0
196.930557 176.0
196.99556 144.0
197.070007 176.0
197.112915 160.0
197.135269 196.0
197.220337 168.0
197.448044 132.0
197.564651 144.0
197.588242 144.0
197.686172 144.0
197.742142 172.0
197.770844 172.0
197.928116 196.0
197.965881 148.0
197.991318 160.0
198.046768 120.0
198.298096 100.0
198.345032 148.0
198.448074 176.0
198.577072 168.0
199.028885 168.0
199.071945 156.0
199.101379 108.0
199.180542 176.0
199.262009 200.0
199.431046 184.0
199.551498 216.0
199.608856 96.0
199.633041 208.0
199.658356 188.0
199.72023 248.0
199.835571 260.0
200.032104 96.0
200.090256 244.0
200.119843 168.0
200.14801 160.0
200.185638 200.0
200.221039 120.0
200.345154 148.0
200.421234 172.0
200.457855 172.0
200.496078 204.0
200.570602 176.0
200.643417 128.0
200.748764 164.0
200.858215 152.0
200.96669 160.0
201.063644 104.0
201.11499 180.0
201.13829 172.0
201.405823 280.0
201.462311 140.0
201.48851 176.0
201.515991 140.0
201.666046 120.0
201.778839 140.0
201.866501 140.0
201.935333 164.0
202.095016 404.0
202.125824 208.0
202.208817 140.0
202.249344 236.0
202.486649 148.0
202.575836 124.0
202.673233 152.0
202.695557 240.0
202.726349 156.0
202.780884 228.0
202.899445 188.0
202.968033 184.0
203.185837 152.0
203.213165 104.0
203.302765 132.0
203.558258 252.0
203.650131 180.0
203.872421 132.0
204.103836 172.0
204.297241 184.0
204.3358 196.0
204.561203 156.0
204.855209 152.0
204.991974 208.0
205.074615 172.0
205.115021 160.0
205.259918 164.0
205.285675 136.0
205.38826 264.0
205.61554 116.0
205.653625 232.0
205.673599 140.0
205.771713 152.0
205.846741 224.0
205.910583 196.0
206.067703 168.0
206.090561 200.0
206.20137 252.0
206.233994 312.0
206.38797 152.0
206.95723 212.0
207.006363 100.0
207.188843 152.0
207.372604 152.0
207.613434 144.0
207.682266 156.0
207.818985 128.0
208.050049 192.0
208.129974 276.0
208.43158 144.0
208.514114 144.0
208.558289 176.0
208.644272 296.0
208.739151 244.0
208.774155 140.0
208.975006 140.0
209.056549 176.0
209.231171 180.0
209.295609 188.0
209.542206 160.0
209.637299 228.0
209.70903 164.0
209.810242 168.0
209.846146 124.0
209.925568 164.0
209.974411 124.0
210.057312 172.0
210.085144 260.0
210.260223 160.0
210.391235 124.0
210.411148 188.0
210.496948 168.0
210.53595 132.0
210.567947 116.0
210.678909 212.0
210.79509 208.0
210.958191 100.0
211.026672 148.0
211.316711 112.0
211.404648 148.0
211.44516 160.0
211.49437 200.0
211.699936 152.0
212.134537 180.0
212.207016 156.0
212.273712 144.0
212.328552 176.0
212.491257 188.0
212.533035 140.0
212.830841 216.0
212.944092 140.0
213.106781 188.0
213.144547 288.0
213.183777 168.0
213.667908 184.0
213.726105 184.0
213.815781 160.0
213.895584 152.0
213.933365 160.0
213.964767 148.0
214.037552 160.0
214.102127 172.0
214.253082 232.0
214.312607 196.0
214.421387 164.0
214.459991 260.0
214.570755 144.0
214.620804 216.0
214.672806 272.0
214.718292 108.0
214.876999 140.0
214.958557 164.0
215.063629 128.0
215.196716 124.0
215.383301 156.0
215.50473 160.0
215.622406 148.0
215.812805 172.0
215.868378 148.0
215.970856 160.0
216.005478 172.0
216.206772 192.0
216.271744 308.0
216.47435 120.0
216.593018 384.0
216.622314 152.0
216.686752 156.0
216.754486 376.0
216.786377 204.0
216.943054 160.0
217.047272 224.0
217.09343 216.0
217.197418 104.0
217.233505 192.0
217.334335 148.0
217.377121 152.0
217.632767 104.0
217.693939 172.0
218.127686 252.0
218.364899 148.0
218.399246 204.0
218.509995 156.0
218.725693 204.0
218.92868 100.0
219.148911 176.0
219.187637 164.0
219.26088 148.0
219.903839 164.0
220.075058 140.0
220.340881 156.0
220.363907 176.0
220.417694 168.0
220.597992 148.0
220.831589 224.0
220.985413 152.0
221.02388 152.0
221.075775 148.0
221.222809 144.0
221.284348 148.0
221.359009 128.0
221.402786 188.0
221.497574 152.0
221.640549 152.0
221.684601 176.0
221.85614 188.0
221.89447 168.0
221.992523 160.0
222.038055 192.0
222.062317 228.0
222.139938 120.0
222.239609 136.0
222.262466 208.0
222.299713 240.0
222.442444 168.0
222.522888 152.0
222.580368 160.0
222.652832 148.0
222.801926 156.0
222.883499 136.0
222.940689 172.0
223.078384 128.0
223.179123 172.0
223.249557 152.0
223.36055 180.0
223.651093 160.0
223.809509 208.0
223.861725 192.0
224.067245 156.0
224.134613 152.0
224.185608 300.0
224.32309 156.0
224.405746 140.0
224.436844 140.0
224.510193 100.0
224.689667 160.0
224.9888 192.0
225.087326 156.0
225.117188 164.0
225.176926 176.0
225.222839 156.0
225.37056 176.0
225.412933 176.0
225.460434 168.0
225.535461 140.0
225.710815 172.0
225.776962 212.0
225.879333 156.0
225.990036 156.0
226.073822 148.0
226.103745 140.0
226.29274 236.0
226.558884 184.0
226.591827 168.0
226.652725 160.0
226.798599 144.0
227.076019 160.0
227.266449 180.0
227.323456 156.0
227.368912 184.0
227.605621 244.0
227.766998 196.0
227.830887 176.0
227.878952 164.0
228.001434 148.0
228.11676 156.0
228.290756 172.0
228.978653 112.0
229.061584 164.0
229.362595 176.0
229.472977 192.0
229.610962 192.0
229.681854 164.0
229.757645 152.0
229.791534 172.0
229.949295 132.0
230.089615 156.0
230.240112 148.0
230.291946 164.0
230.508911 132.0
230.594086 240.0
230.690811 228.0
230.751266 176.0
230.777344 180.0
230.90596 196.0
231.036057 192.0
231.080948 164.0
231.332138 144.0
231.448471 160.0
231.563156 148.0
231.607697 208.0
231.713715 152.0
231.770157 128.0
231.864624 140.0
232.00769 140.0
232.051895 204.0
232.300232 180.0
232.36557 204.0
232.669052 152.0
232.808182 196.0
232.8396 112.0
232.883392 244.0
232.915039 156.0
233.106384 204.0
233.265045 220.0
233.406967 176.0
233.452988 216.0
233.614197 156.0
233.853043 148.0
233.898529 164.0
233.979385 236.0
234.01593 156.0
234.134689 316.0
234.286987 224.0
234.313034 168.0
234.402771 144.0
234.427139 288.0
234.498703 192.0
234.600876 140.0
234.649658 160.0
234.78688 176.0
234.844818 168.0
234.872284 140.0
235.000412 156.0
235.22319 140.0
235.262878 152.0
235.32222 112.0
235.449142 436.0
235.525894 112.0
235.635468 148.0
235.717972 180.0
235.928864 156.0
235.95694 132.0
236.093033 168.0
236.136826 216.0
236.181442 168.0
236.767258 156.0
236.853027 164.0
236.984985 164.0
237.138763 480.0
237.196213 144.0
237.248337 156.0
237.351761 136.0
237.398575 160.0
237.498795 200.0
237.708405 160.0
237.743637 224.0
237.855728 172.0
237.930069 144.0
237.953964 160.0
238.017822 100.0
238.085999 176.0
238.110565 224.0
238.350189 172.0
238.438766 136.0
238.632965 140.0
238.823624 140.0
238.939163 172.0
239.107849 276.0
239.155869 172.0
239.330017 124.0
239.41864 148.0
239.445358 160.0
239.491364 188.0
239.528519 156.0
239.590134 144.0
239.685165 184.0
239.756516 152.0
239.907333 276.0
239.975372 212.0
240.115356 240.0
240.15181 172.0
240.260712 132.0
240.446838 144.0
240.464798 116.0
240.533768 176.0
240.654175 200.0
240.686447 160.0
240.767395 128.0
240.845642 148.0
240.976852 160.0
241.035461 164.0
241.104065 260.0
241.322891 180.0
241.435577 156.0
241.662735 220.0
241.84256 184.0
241.937241 168.0
242.13118 124.0
242.209747 184.0
242.240723 204.0
242.293381 176.0
242.331848 144.0
242.374954 232.0
242.413742 128.0
242.6436 236.0
242.784195 128.0
242.817932 144.0
242.847366 180.0
242.965271 172.0
243.093155 120.0
243.241119 112.0
243.292938 200.0
243.481415 180.0
243.518677 184.0
243.566193 176.0
243.719574 144.0
243.757904 172.0
243.843277 116.0
244.149597 172.0
244.184967 132.0
244.295776 156.0
244.348343 116.0
244.426453 160.0
244.730133 164.0
244.912979 116.0
244.951126 100.0
245.069168 176.0
245.11618 168.0
245.183182 200.0
245.249832 224.0
245.298981 120.0
245.402374 176.0
245.597855 296.0
245.622818 172.0
245.647766 188.0
245.707047 152.0
245.76535 116.0
245.84433 208.0
245.869308 176.0
246.101624 160.0
246.22113 156.0
246.262695 140.0
246.450134 156.0
246.750183 148.0
246.814209 156.0
246.938965 176.0
247.032211 152.0
247.089493 284.0
247.119568 152.0
247.184952 192.0
247.208603 148.0
247.247543 184.0
247.348999 128.0
247.435349 172.0
247.503189 180.0
247.629501 152.0
247.702652 292.0
247.77359 156.0
248.026108 264.0
248.143417 156.0
248.173691 176.0
248.279282 184.0
248.44136 152.0
248.490128 256.0
248.526062 140.0
248.66629 296.0
248.816559 144.0
248.877609 160.0
249.037781 144.0
249.13829 176.0
249.160294 144.0
249.19075 184.0
249.461624 216.0
249.530853 220.0
249.540833 144.0
249.800446 192.0
250.011948 108.0
250.093277 196.0
250.176086 252.0
250.337509 180.0
250.460098 168.0
250.576065 148.0
250.661652 132.0
250.765137 140.0
250.850235 172.0
251.062805 108.0
251.119064 316.0
251.373184 124.0
251.509567 120.0
251.544235 156.0
251.670776 140.0
251.894745 208.0
252.109589 164.0
252.157806 224.0
252.217056 140.0
252.362473 148.0
252.47316 212.0
252.859131 160.0
253.06546 112.0
253.139374 256.0
253.323349 168.0
253.414688 172.0
253.567703 132.0
253.592178 160.0
253.704865 140.0
253.808594 140.0
254.026306 144.0
254.088608 172.0
254.120346 176.0
254.285355 188.0
254.307571 260.0
254.396454 192.0
254.651917 124.0
254.683853 140.0
254.837906 200.0
254.914154 160.0
255.149948 128.0
255.314713 240.0
255.374161 324.0
255.619492 144.0
256.061157 216.0
256.158173 160.0
256.231445 144.0
256.41626 180.0
256.454773 160.0
256.615448 116.0
256.655365 160.0
256.703186 168.0
256.743073 152.0
256.813293 164.0
256.891388 324.0
256.958374 280.0
257.117584 152.0
257.153015 148.0
257.241455 120.0
257.344574 244.0
257.378998 164.0
257.413635 156.0
257.574921 148.0
257.702301 152.0
257.770233 168.0
257.841583 164.0
257.905487 204.0
257.963104 152.0
258.037872 196.0
258.156189 172.0
258.184967 184.0
258.268127 148.0
258.396088 196.0
258.440887 180.0
258.620087 208.0
258.661713 144.0
258.69516 152.0
258.748138 164.0
258.838684 176.0
258.895447 148.0
258.927826 104.0
258.975494 180.0
259.017151 140.0
259.107697 120.0
259.350403 284.0
259.552368 148.0
259.573914 192.0
259.697784 172.0
259.85498 128.0
259.925049 256.0
260.096313 176.0
260.1716 176.0
260.291748 128.0
260.313507 120.0
260.378174 156.0
260.427643 200.0
260.467255 184.0
260.510101 108.0
260.558441 160.0
260.616302 112.0
260.681702 152.0
260.846222 184.0
261.106659 140.0
261.142761 156.0
261.495941 192.0
261.598969 164.0
261.685883 200.0
261.792145 144.0
261.84491 104.0
261.927399 152.0
261.953186 144.0
262.012787 168.0
262.075562 156.0
262.169281 164.0
262.252014 136.0
262.37677 160.0
262.426941 192.0
262.475311 228.0
262.604309 228.0
262.639771 192.0
262.668823 140.0
262.710754 144.0
262.825104 136.0
262.863342 216.0
262.92276 164.0
263.059265 156.0
263.113953 228.0
263.324036 168.0
263.372498 140.0
263.453705 256.0
263.64389 212.0
263.674988 192.0
263.718231 204.0
263.815186 156.0
263.846771 140.0
263.897369 152.0
264.075317 216.0
264.14566 660.0
264.330841 112.0
264.425232 168.0
264.54306 188.0
264.664276 268.0
264.785919 208.0
264.824768 160.0
264.950195 180.0
265.080719 328.0
265.143585 212.0
265.200439 128.0
265.284912 152.0
265.502655 152.0
265.907684 168.0
266.040222 192.0
266.090118 244.0
266.170654 168.0
266.192352 156.0
266.242096 156.0
266.441071 140.0
266.521912 148.0
266.581848 152.0
266.628693 232.0
266.729462 144.0
266.769714 136.0
266.828186 172.0
266.927612 148.0
266.973297 260.0
267.038361 148.0
267.10083 176.0
267.166931 136.0
267.198212 172.0
267.222229 160.0
267.329102 184.0
267.417206 220.0
267.568756 140.0
267.669708 192.0
267.842316 272.0
268.003387 144.0
268.072723 144.0
268.145325 296.0
268.171417 176.0
268.223572 200.0
268.42569 188.0
268.551025 168.0
268.589844 108.0
268.766541 148.0
268.807373 152.0
268.862823 180.0
268.956512 108.0
268.989349 164.0
269.269379 204.0
269.330139 156.0
269.550354 196.0
269.649689 156.0
269.726807 116.0
269.921783 128.0
270.006287 164.0
270.078247 168.0
270.13266 120.0
270.332336 152.0
270.403809 180.0
270.547546 164.0
270.599915 136.0
270.664062 140.0
270.722382 136.0
270.823608 128.0
270.996796 172.0
271.044342 128.0
271.090942 180.0
271.125946 160.0
271.216736 140.0
271.658997 112.0
271.966522 168.0
272.170532 236.0
272.50415 188.0
272.530426 244.0
272.6586 176.0
272.8237 160.0
272.847961 180.0
273.059692 164.0
273.323547 164.0
273.470978 204.0
273.497314 316.0
273.518677 148.0
273.624756 140.0
273.879791 144.0
274.028778 176.0
274.05423 144.0
274.130249 216.0
274.221924 160.0
274.247467 228.0
274.330688 152.0
274.374847 184.0
274.439484 236.0
274.543732 184.0
274.611969 212.0
274.690155 336.0
274.716522 192.0
274.929657 196.0
275.023407 148.0
275.169525 168.0
275.200043 136.0
275.254517 148.0
275.376892 200.0
275.468872 244.0
275.493256 208.0
275.693878 152.0
275.726929 140.0
275.806244 188.0
275.852509 156.0
275.978149 160.0
276.012939 176.0
276.226196 196.0
276.370148 172.0
276.82193 140.0
276.921295 188.0
276.951782 160.0
277.052795 120.0
277.117676 156.0
277.153198 176.0
277.234589 120.0
277.269165 144.0
277.315582 212.0
277.385193 236.0
277.428284 148.0
277.537689 168.0
277.663696 208.0
277.783112 148.0
277.812744 164.0
278.030823 208.0
278.118256 144.0
278.149292 208.0
278.201233 200.0
278.25769 168.0
278.337372 156.0
278.526123 224.0
278.696106 184.0
278.78833 188.0
278.975891 180.0
279.045105 372.0
279.121674 128.0
279.159943 148.0
279.331085 136.0
279.390991 172.0
279.41922 132.0
279.530731 140.0
279.657715 148.0
279.69046 152.0
279.826233 148.0
280.046753 188.0
280.093262 116.0
280.273285 208.0
280.31662 224.0
280.403259 140.0
280.528229 212.0
280.613251 140.0
280.704651 168.0
280.826691 200.0
280.948181 144.0
281.050201 120.0
281.106384 176.0
281.159576 160.0
281.199097 116.0
281.2276 152.0
281.268555 112.0
281.293823 196.0
281.373962 152.0
281.409363 172.0
281.494171 204.0
281.538818 148.0
281.659149 176.0
281.69455 152.0
281.732666 116.0
281.801941 188.0
282.159729 7244.0
282.301147 164.0
282.336853 272.0
282.391235 160.0
282.460052 248.0
282.641632 144.0
282.675659 180.0
282.713593 160.0
282.876495 152.0
282.913879 156.0
283.042389 136.0
283.159515 1572.0
283.206085 160.0
283.280182 172.0
283.351318 180.0
283.403717 460.0
283.430939 160.0
283.588287 160.0
283.63382 172.0
283.70578 180.0
283.806 148.0
284.167511 224.0
284.296112 192.0
284.346466 248.0
284.371765 176.0
284.487427 180.0
284.580383 116.0
284.664124 124.0
284.719116 152.0
284.772858 192.0
284.87677 132.0
285.223053 168.0
285.391205 168.0
285.535797 144.0
285.697266 152.0
285.885803 208.0
285.909241 336.0
285.963959 152.0
286.039581 236.0
286.123627 232.0
286.266083 140.0
286.368225 120.0
286.39743 188.0
286.523224 136.0
286.549011 204.0
286.616425 152.0
286.771423 140.0
286.926025 172.0
287.041138 144.0
287.162537 160.0
287.323029 152.0
287.464691 128.0
287.594788 192.0
287.70282 140.0
287.79361 148.0
287.852631 148.0
287.894531 188.0
287.986084 236.0
288.255402 184.0
288.330719 156.0
288.577484 180.0
288.760101 228.0
288.848022 248.0
289.096527 216.0
289.188843 132.0
289.273193 316.0
289.364197 356.0
289.416595 296.0
289.459259 208.0
289.511414 164.0
289.596069 160.0
289.74173 184.0
289.844177 144.0
289.873901 180.0
289.94165 164.0
290.031006 100.0
290.309296 288.0
290.386749 272.0
290.497742 164.0
290.629608 148.0
291.037354 240.0
291.129059 152.0
291.210571 148.0
291.346436 180.0
291.388336 168.0
291.448364 188.0
291.604675 200.0
291.630157 112.0
291.676056 204.0
291.749359 244.0
291.923126 180.0
292.101776 144.0
292.158936 180.0
292.189575 172.0
292.271454 184.0
292.302734 184.0
292.356506 200.0
292.389648 200.0
292.516266 164.0
292.547699 204.0
292.67627 176.0
292.747803 148.0
292.813324 148.0
292.857574 156.0
292.989624 164.0
293.395172 232.0
293.483826 188.0
293.686462 180.0
293.74054 264.0
293.829712 136.0
294.159454 124.0
294.241272 148.0
294.272003 196.0
294.481995 236.0
294.569122 184.0
294.613525 172.0
294.681854 156.0
294.851868 148.0
294.992859 176.0
295.198334 404.0
295.258972 144.0
295.398743 144.0
295.432739 152.0
295.4534 288.0
295.553741 216.0
295.728912 192.0
295.971344 148.0
296.132294 148.0
296.295624 176.0
296.330994 180.0
296.402954 172.0
296.440643 156.0
296.471466 156.0
296.543457 152.0
296.57431 168.0
296.630493 152.0
296.713135 144.0
296.848572 164.0
297.020996 148.0
297.073059 176.0
297.112671 204.0
297.165253 124.0
297.311707 148.0
297.492004 112.0
297.607544 196.0
297.706665 156.0
297.802643 140.0
297.849182 160.0
297.919434 352.0
297.943481 140.0
298.261292 184.0
298.373077 156.0
298.484985 184.0
298.539612 112.0
298.589722 208.0
298.64035 156.0
298.679138 140.0
299.004791 112.0
299.067963 140.0
299.102386 160.0
299.207245 228.0
299.266998 176.0
299.474243 144.0
299.577606 200.0
299.766846 156.0
299.813232 140.0
300.049286 148.0
300.095337 196.0
300.301147 156.0
300.361938 256.0
300.451324 164.0
300.635162 128.0
300.811768 320.0
300.884827 156.0
301.002045 176.0
301.06778 100.0
301.121094 168.0
301.174805 164.0
301.213989 164.0
301.500671 224.0
301.702393 160.0
301.729767 180.0
301.771698 144.0
301.903961 156.0
301.951019 212.0
302.128815 184.0
302.156494 160.0
302.346802 156.0
302.500946 140.0
302.757599 236.0
302.791107 192.0
302.859711 112.0
303.122467 176.0
303.177948 156.0
303.26059 128.0
303.30658 120.0
303.408051 128.0
303.510071 200.0
303.96167 200.0
304.039856 352.0
304.13736 208.0
304.301849 184.0
304.42337 216.0
304.545776 216.0
304.644653 128.0
304.697784 212.0
305.201141 156.0
305.473022 264.0
305.500854 152.0
305.549011 156.0
305.59024 156.0
305.615662 144.0
305.801422 180.0
305.852325 140.0
306.043793 184.0
306.252747 196.0
306.343323 180.0
306.571228 192.0
306.761475 152.0
306.792847 168.0
306.935822 184.0
306.98114 216.0
307.084198 116.0
307.128143 156.0
307.162903 212.0
307.242737 140.0
307.316254 116.0
307.368256 140.0
307.542847 320.0
307.731354 164.0
307.785034 160.0
307.818634 188.0
307.878143 204.0
308.304352 164.0
308.344452 164.0
308.414948 136.0
308.59436 164.0
308.672791 200.0
308.779694 268.0
308.821655 224.0
308.925812 112.0
309.259949 188.0
309.287018 160.0
309.338257 296.0
309.503265 232.0
309.55191 104.0
309.670929 156.0
309.753998 124.0
309.779083 184.0
309.866333 160.0
309.926025 96.0
309.968353 96.0
310.256592 144.0
310.302948 164.0
310.418762 132.0
310.482056 108.0
310.555328 144.0
310.593628 156.0
310.675568 128.0
310.733429 108.0
310.757721 240.0
310.811279 192.0
310.847076 260.0
310.878418 208.0
310.929901 280.0
310.977142 272.0
311.02475 260.0
311.066223 240.0
311.113159 132.0
311.190002 112.0
311.203491 240.0
311.258575 168.0
311.331512 116.0
311.426605 536.0
311.474182 112.0
311.534607 232.0
311.582886 208.0
311.669037 96.0
311.71048 324.0
311.763794 116.0
311.810822 132.0
311.837372 284.0
311.877319 160.0
311.949524 456.0
312.013092 312.0
312.135437 264.0
312.150879 272.0
312.210449 340.0
312.265717 412.0
312.316101 212.0
312.380402 152.0
312.390778 496.0
312.406586 660.0
312.437775 344.0
312.487274 496.0
312.510834 408.0
312.517303 356.0
312.569031 368.0
312.59549 728.0
312.625183 576.0
312.672058 264.0
312.700714 504.0
312.740784 524.0
312.746613 624.0
312.794708 348.0
312.821106 664.0
312.834625 492.0
312.855621 932.0
312.88681 1000.0
312.922729 592.0
312.97226 616.0
313.032196 916.0
313.041809 776.0
313.062622 692.0
313.083435 700.0
313.146454 1644.0
313.20462 257880.0
313.336975 192.0
313.448792 568.0
313.532166 1580.0
313.58963 940.0
313.646393 1448.0
313.687866 544.0
313.739288 1324.0
313.796326 9996.0
313.874695 348.0
313.88443 292.0
313.917938 332.0
313.965942 136.0
314.056 388.0
314.102203 252.0
314.113098 608.0
314.148773 588.0
314.206421 136796.0
314.336029 184.0
314.37851 188.0
314.434937 160.0
314.472229 96.0
314.542969 216.0
314.633789 336.0
314.734192 156.0
314.804108 244.0
314.87088 116.0
314.926666 236.0
315.10849 136.0
315.20871 13736.0
315.300049 136.0
315.35025 144.0
315.486298 164.0
315.556244 96.0
315.594177 140.0
315.623352 160.0
315.67804 176.0
315.73114 224.0
315.790222 248.0
315.827332 196.0
315.862457 136.0
315.964142 176.0
316.016785 188.0
316.041443 160.0
316.068298 376.0
316.112366 240.0
316.150269 216.0
316.210114 660.0
316.278687 560.0
316.325806 240.0
316.350952 416.0
316.389923 348.0
316.426971 556.0
316.468811 448.0
316.513702 288.0
316.568848 348.0
316.651459 100.0
316.709686 100.0
316.748688 168.0
316.878418 180.0
317.024902 124.0
317.11261 140.0
317.199585 192.0
317.360809 192.0
317.436218 200.0
317.532196 132.0
317.582458 104.0
317.774323 100.0
317.884827 104.0
318.031494 128.0
318.115662 120.0
318.330872 104.0
318.440674 128.0
318.981537 128.0
319.500153 100.0
320.495453 100.0
322.650391 120.0
323.36795 184.0
323.445007 120.0
323.849274 100.0
324.180939 152.0
324.731506 140.0
324.959045 140.0
325.300995 112.0
325.490692 132.0
325.577789 160.0
325.666229 100.0
325.724945 116.0
326.830292 144.0
327.19812 140.0
327.957428 128.0
328.087738 152.0
328.201019 116.0
328.702545 104.0
328.788818 136.0
329.439056 116.0
330.349365 120.0
330.682587 100.0
330.936188 100.0
330.996552 156.0
331.213837 508.0
332.203461 204.0
348.570801 120.0
354.224823 336.0
362.589691 156.0
362.667267 144.0
390.201935 152.0
410.676056 140.0
414.91803 140.0
428.425385 140.0
439.436523 116.0
441.182831 140.0
442.36496 124.0
454.657776 152.0
464.840179 140.0
474.434082 116.0
490.912903 140.0
494.283417 172.0
495.434601 140.0
503.635986 120.0
529.40094 192.0
545.094971 148.0
562.218262 100.0
565.615967 128.0
623.757996 96.0
666.551941 140.0
670.261963 204.0
693.955872 100.0
842.807861 148.0
958.317139 140.0
1033.13623 196.0
1063.137207 208.0
1072.033569 152.0
1078.802124 184.0
1087.579834 204.0
1089.858643 152.0
1102.477783 204.0
1106.466431 144.0
1116.57251 164.0
1117.144531 168.0
1120.919556 184.0
1125.862793 160.0
1131.205078 144.0
1144.215576 248.0
1157.591553 196.0
1160.328979 168.0
1171.018066 160.0
1172.442017 168.0
1172.891846 188.0
1181.037964 172.0
1188.615112 188.0
1189.376831 152.0
1191.446777 160.0
1200.067627 180.0
1210.508423 196.0
1210.806274 160.0
1211.069458 216.0
1212.90564 168.0
1220.825195 188.0
1221.717896 212.0
1226.620361 144.0
1227.62439 164.0
1229.089233 236.0
1235.258301 184.0
1238.030029 224.0
1253.026855 140.0
1254.351685 168.0
1255.938232 140.0
1264.388428 144.0
1264.728149 144.0
1277.529541 232.0
1283.768921 144.0
1286.380371 140.0
1290.323853 260.0
1298.87439 148.0
1300.819092 188.0
1303.74231 156.0
1306.79126 148.0
1307.712402 172.0
1311.119019 184.0
1317.952759 140.0
1324.253784 156.0
1326.753784 148.0
1328.327393 168.0
1330.765869 220.0
1335.453125 160.0
1337.15564 220.0
1340.177734 148.0
1342.619751 148.0
1342.743774 176.0
1344.304932 148.0
1345.837891 164.0
1348.263062 212.0
1350.493042 144.0
1351.70752 164.0
1352.168457 176.0
1354.892456 148.0
1355.896362 180.0
1357.714478 256.0
1360.098999 224.0
1365.337646 236.0
1365.955566 196.0
1367.353516 148.0
1368.33252 184.0
1375.933716 152.0
1384.333374 216.0
1386.867188 148.0
1389.35144 164.0
1389.789062 192.0
1391.384888 152.0
1394.883789 184.0
1400.472046 148.0
1402.752075 184.0
1406.511719 180.0
1407.736084 168.0
1410.623779 164.0
1412.09314 152.0
1412.729004 168.0
1414.075806 192.0
1414.809448 152.0
1421.089966 144.0
1421.405151 184.0
1422.035522 152.0
1422.673584 160.0
1424.768799 156.0
1425.302246 144.0
1425.655518 168.0
1425.828369 152.0
1426.66272 228.0
1426.918335 184.0
1429.031738 184.0
1433.534546 172.0
1437.57666 252.0
1438.414429 176.0
1440.574097 196.0
1442.720337 140.0
1446.230225 228.0
1447.320435 168.0
1447.812622 160.0
1448.0625 196.0
1449.479248 180.0
1449.691406 200.0
1451.707886 312.0
1452.967041 256.0
1459.688965 164.0
1463.516357 160.0
1463.813354 200.0
1463.991699 180.0
1471.163452 160.0
1472.041504 260.0
1473.362793 268.0
1473.874756 248.0
1475.472168 144.0
1476.091553 208.0
1478.876221 240.0
1480.828735 140.0
1482.521851 188.0
1485.151611 220.0
1485.581177 152.0
1486.624634 148.0
1491.609253 172.0
1491.839844 188.0
1496.240356 180.0
1496.994995 140.0
1499.159668 164.0
1502.544678 164.0
1504.705688 144.0
1505.678589 168.0
1506.358765 136.0
1507.086182 256.0
1509.542603 212.0
1512.219482 192.0
1513.589722 164.0
1513.651611 168.0
1515.874878 140.0
1517.138184 164.0
1520.990723 164.0
1521.249756 184.0
1523.58728 144.0
1524.294434 180.0
1524.354736 104.0
1524.776245 172.0
1525.724487 248.0
1526.752441 228.0
1527.513184 196.0
1530.3927 156.0
1532.54248 208.0
1532.620361 200.0
1532.71814 204.0
1533.843872 168.0
1535.145996 144.0
1535.200562 196.0
1538.173218 140.0
1538.828979 232.0
1541.445679 156.0
1542.46167 200.0
1545.80481 132.0
1547.570312 160.0
1549.120972 152.0
1550.52356 164.0
1553.683594 152.0
1553.769897 156.0
1554.256348 180.0
1554.491699 152.0
1555.009644 188.0
1556.930908 176.0
1558.370728 176.0
1560.099731 144.0
1562.356812 232.0
1564.961914 172.0
1565.528809 220.0
1568.514893 204.0
1571.117188 240.0
1571.566895 152.0
1573.84021 172.0
1575.638916 188.0
1576.178223 168.0
1576.834106 148.0
1577.324219 188.0
1580.851685 208.0
1581.128662 192.0
1585.254639 164.0
1586.340454 168.0
1587.255371 156.0
1587.995605 180.0
1588.116699 244.0
1589.981201 172.0
1591.036865 164.0
1592.228027 164.0
1593.490967 204.0
1593.7771 216.0
1597.553589 204.0
1597.991089 208.0
1598.834595 164.0
1600.864624 144.0
1601.007935 156.0
1601.262817 216.0
1601.461914 200.0
1603.222656 148.0
1606.305054 244.0
1608.055786 144.0
1609.903931 244.0
1610.458984 156.0
1610.736084 208.0
1612.680298 148.0
1613.455688 192.0
1613.583618 176.0
1613.711548 172.0
1614.983032 156.0
1615.390991 176.0
1617.511475 200.0
1617.631592 164.0
1618.015869 160.0
1618.095947 188.0
1619.112915 200.0
1622.296753 144.0
1622.810425 164.0
1626.553467 228.0
1629.974854 140.0
1630.633789 160.0
1630.963379 180.0
1631.091919 148.0
1631.915405 256.0
1632.113037 220.0
1633.890503 140.0
1633.987061 164.0
1634.049438 148.0
1634.58252 168.0
1634.671021 148.0
1635.387207 156.0
1635.620728 184.0
1637.263184 184.0
1637.545044 156.0
1637.988037 208.0
1641.445557 152.0
1643.502563 188.0
1645.355469 152.0
1645.964478 216.0
1646.360107 224.0
1647.212891 132.0
1647.854492 168.0
1650.327759 140.0
1654.737305 172.0
1655.344604 148.0
1655.522705 216.0
1656.437988 188.0
1659.306763 188.0
1659.501343 176.0
1659.574341 168.0
1660.847534 184.0
1660.994507 180.0
1661.593872 160.0
1661.996948 216.0
1662.137573 164.0
1662.299805 140.0
1663.030273 244.0
1663.103271 208.0
1664.751465 184.0
1667.212891 156.0
1667.489258 160.0
1669.521729 176.0
1671.156738 172.0
1671.262573 144.0
1674.404785 204.0
1674.502563 180.0
1674.779419 156.0
1674.885376 144.0
1675.284424 144.0
1676.082886 180.0
1678.838257 140.0
1679.066528 156.0
1679.401001 176.0
1680.706299 144.0
1681.269287 180.0
1681.93042 176.0
1683.551636 240.0
1684.004395 144.0
1685.556519 180.0
1685.662842 216.0
1687.248535 156.0
1687.624634 176.0
1688.221558 224.0
1688.981689 140.0
1689.996582 148.0
1691.507935 184.0
1692.220581 256.0
1692.476685 144.0
1693.044556 128.0
1693.344727 180.0
1695.302734 224.0
1696.892944 260.0
1697.655518 148.0
1698.221436 160.0
1698.574097 188.0
1700.059204 220.0
1700.174072 208.0
1700.28894 140.0
1700.453125 156.0
1701.45459 168.0
1701.65979 200.0
1701.971802 176.0
1702.259277 144.0
1704.074585 148.0
1704.674316 152.0
1705.331787 160.0
1707.083008 140.0
1707.272095 156.0
1708.686035 140.0
1710.332764 180.0
1711.427734 160.0
1711.954712 224.0
1712.053589 336.0
1712.300659 208.0
1712.47998 164.0
1714.261353 168.0
1715.942871 148.0
1716.371582 192.0
1716.487061 156.0
1718.136597 140.0
1718.895752 192.0
1719.415649 180.0
1720.051147 156.0
1720.893188 168.0
1721.487793 172.0
1724.131348 224.0
1725.073608 156.0
1725.18103 168.0
1726.016113 144.0
1726.619873 312.0
1727.071777 200.0
1731.461426 156.0
1731.580322 232.0
1731.759521 172.0
1732.712158 172.0
1733.665039 232.0
1734.858643 144.0
1735.223389 160.0
1735.339478 156.0
1735.726562 168.0
1736.251587 172.0
1736.64978 148.0
1737.039551 220.0
1738.516479 180.0
1739.877686 164.0
1741.480347 152.0
1743.407837 184.0
1745.44458 140.0
1747.108032 160.0
1749.346558 152.0
1750.46228 172.0
1751.753174 196.0
1752.1698 232.0
1752.23645 148.0
1753.436401 152.0
1755.58728 152.0
1756.029297 172.0
1756.437988 176.0
1758.039917 152.0
1759.617554 180.0
1759.930298 156.0
1763.896484 196.0
1764.24585 212.0
1765.859741 172.0
1768.595703 272.0
1769.167358 248.0
1769.231934 168.0
1769.376953 188.0
1769.499878 152.0
1769.658936 196.0
1770.647095 148.0
1770.998779 272.0
1771.166382 188.0
1771.702515 152.0
1772.012451 144.0
1775.004761 212.0
1775.885376 172.0
1775.952515 204.0
1777.588501 156.0
1777.974487 148.0
1778.410889 140.0
1779.001465 172.0
1779.502197 164.0
1781.219116 152.0
1781.91272 216.0
1782.433594 188.0
1782.685791 172.0
1784.03894 156.0
1785.778564 168.0
1785.863647 156.0
1786.570312 176.0
1787.016235 140.0
1790.939209 172.0
1791.730957 228.0
1792.084839 204.0
1792.487305 152.0
1792.708374 148.0
1793.129761 212.0
1793.424805 156.0
1793.778809 176.0
1794.889038 140.0
1795.819336 368.0
1796.342407 184.0
1797.160645 224.0
1797.228149 256.0
1797.582642 160.0
1799.194702 188.0
1799.735107 156.0
1799.988403 156.0
1800.19104 216.0
1801.331299 184.0
1802.792969 140.0
1803.004272 144.0
1803.629761 192.0
1807.198486 176.0
1807.7948 184.0
1811.202881 172.0
1811.348267 212.0
1812.210938 176.0
1814.126343 140.0
1814.261963 176.0
1814.928345 188.0
1817.026733 168.0
1818.138306 140.0
1818.664551 200.0
1819.318237 248.0
1821.025024 180.0
1821.763916 164.0
1822.239746 168.0
1823.250977 188.0
1826.379761 180.0
1826.719971 148.0
1827.000732 340.0
1828.609009 144.0
1828.949463 148.0
1829.911377 156.0
1830.192383 220.0
1832.526123 244.0
1832.798828 192.0
1833.088501 220.0
1833.259033 192.0
1834.571655 156.0
1836.891113 172.0
1837.095825 168.0
1837.402954 204.0
1838.773438 200.0
1839.391357 224.0
1839.946289 156.0
1841.432129 196.0
1841.901855 156.0
1842.616333 204.0
1843.422607 148.0
1843.696045 160.0
1843.858521 156.0
1845.374268 192.0
1845.769409 180.0
1846.987793 156.0
1848.117065 156.0
1848.447632 228.0
1849.53772 328.0
1849.959473 192.0
1851.703979 208.0
1852.670654 120.0
1853.451538 180.0
1854.839966 208.0
1855.251465 152.0
1856.220337 176.0
1856.340332 152.0
1856.554688 172.0
1857.455322 140.0
1858.501953 176.0
1858.665039 152.0
1858.742188 196.0
1859.694824 212.0
1860.175537 148.0
1860.493164 212.0
1861.119873 148.0
1861.61792 216.0
1862.473755 172.0
1863.060913 156.0
1863.318726 144.0
1863.640625 200.0
1864.805298 168.0
1865.501587 200.0
1867.324463 152.0
1867.6427 164.0
1867.875 156.0
1868.683594 152.0
1871.171021 152.0
1874.237183 252.0
1875.262695 200.0
1875.495483 156.0
1875.65918 188.0
1877.530273 172.0
1879.169189 192.0
1879.359009 140.0
1879.471191 160.0
1882.634155 220.0
1882.967407 180.0
1883.511597 160.0
1883.779297 196.0
1884.107666 184.0
1884.332275 180.0
1884.9552 192.0
1885.818604 160.0
1886.052002 188.0
1886.319946 208.0
1887.089355 168.0
1888.568115 168.0
1889.035278 192.0
1889.839844 144.0
1890.177246 140.0
1890.376343 220.0
1890.627319 160.0
1891.752441 164.0
1892.462402 172.0
1894.80957 196.0
1896.993408 152.0
1897.062866 152.0
1897.148682 136.0
1898.510742 164.0
1898.727661 220.0
1899.048462 188.0
1902.493408 140.0
1903.544067 144.0
1904.047729 180.0
1905.267822 164.0
1905.741699 200.0
1905.819824 260.0
1906.345947 148.0
1907.210327 140.0
1907.366821 188.0
1907.445068 232.0
1907.936279 156.0
1908.28833 156.0
1908.723022 220.0
1909.366577 200.0
1910.888916 156.0
1910.97583 204.0
1912.559692 156.0
1915.23291 212.0
1915.624878 156.0
1917.114746 192.0
1918.143188 172.0
1918.430908 140.0
1918.50061 168.0
1921.422241 244.0
1921.666504 256.0
1922.469238 144.0
1923.237305 176.0
1923.944336 188.0
1924.223755 236.0
1924.590454 140.0
1924.765137 192.0
1926.739014 216.0
1927.962402 208.0
1928.373169 200.0
1928.845093 180.0
1929.279541 104.0
1931.827026 172.0
1932.404419 164.0
1932.56189 184.0
1932.736938 160.0
1933.970825 144.0
1934.846313 228.0
1935.689453 120.0
1936.342285 256.0
1936.466309 156.0
1937.508667 176.0
1939.638184 140.0
1940.431641 140.0
1941.049683 148.0
1941.195435 168.0
1941.917847 140.0
1942.948486 180.0
1943.417969 188.0
1943.657104 160.0
1943.809204 176.0
1944.488525 196.0
1945.638428 144.0
1945.770142 184.0
1946.19165 140.0
1946.489624 144.0
1947.207153 224.0
1947.860229 188.0
1949.696655 172.0
1951.428345 196.0
1952.28125 148.0
1952.958496 180.0
1954.216431 204.0
1955.457275 184.0
1955.571655 188.0
1955.668457 148.0
1956.716064 208.0
1956.839233 148.0
1957.235474 188.0
1958.045654 160.0
1958.433228 140.0
1958.620972 220.0
1958.873657 168.0
1959.146729 144.0
1960.424316 220.0
1960.732788 200.0
1960.794434 164.0
1961.111816 160.0
1961.314453 180.0
1961.57019 172.0
1962.672119 168.0
1962.963135 200.0
1963.46582 164.0
1963.554077 164.0
1963.668701 164.0
1963.809814 144.0
1964.303711 144.0
1965.106567 280.0
1965.7948 312.0
1966.756836 184.0
1966.957275 140.0
1967.162842 160.0
1968.522583 160.0
1968.699219 144.0
1969.139038 104.0
1969.617676 172.0
1969.750244 152.0
1969.838623 164.0
1970.907593 316.0
1971.208008 140.0
1973.400146 184.0
1974.045654 160.0
1974.240234 168.0
1974.470093 164.0
1974.788574 192.0
1975.292725 140.0
1976.619751 188.0
1978.19519 348.0
1978.540527 172.0
1979.293091 220.0
1981.321289 140.0
1981.640259 176.0
1981.897217 164.0
1982.792236 188.0
1983.084717 208.0
1984.911011 184.0
1985.051514 200.0
1985.292358 248.0
1987.101807 260.0
1987.175781 220.0
1988.965454 140.0
1989.080811 372.0
1989.986328 156.0
1990.092896 184.0
1990.652344 196.0
1990.989746 188.0
1991.114136 172.0
1992.215576 152.0
1992.695312 172.0
1993.351196 252.0
1993.885986 184.0
1994.303833 172.0
1994.641602 160.0
1994.934937 140.0
1995.139404 140.0
1995.397217 208.0
1997.744995 172.0
1998.029785 164.0
1998.305542 220.0
1998.588135 196.0
1999.36377 164.0
2000.904419 140.0
2000.994873 188.0
2001.349609 216.0
2002.388794 160.0
2002.792236 172.0
2003.469238 192.0
