>compound MLS001401432-01!Loxapine
>formula C18H18ClN3O
>ionization [M+H]+
>parentmass 328.120819
#inchi InChI=1S/C18H18ClN3O/c1-21-8-10-22(11-9-21)18-14-12-13(19)6-7-16(14)23-17-5-3-2-4-15(17)20-18/h2-7,12H,8-11H2,1H3
#inchikey XJGVXQDUIWGIRW
#origInchi InChI=1S/C18H18ClN3O.C4H6O4/c1-21-8-10-22(11-9-21)18-14-12-13(19)6-7-16(14)23-17-5-3-2-4-15(17)20-18;5-3(6)1-2-4(7)8/h2-7,12H,8-11H2,1H3;1-2H2,(H,5,6)(H,7,8)
#Ion_Source LC-ESI
#Instrument qTof
#Compound_Source NIH Pharmacologically Active Library
#PI Dorrestein
#Data_Collector VP/LMS
#Scan -1
#Precursor_MZ 328.126
#ExactMass 327.114
#Charge 1
#CAS_Number N/A
#Pubmed_ID N/A
#Smiles CN1CCN(CC1)C2=Nc3ccccc3Oc4ccc(Cl)cc24.OC(=O)CCC(=O)O
#INCHI_AUX N/A
#Library_Class 1
#SpectrumID CCMSLIB00000085628
#IonMode Positive
#UpdateWorkflowName UPDATE-SINGLE-ANNOTATED-GOLD
#LibraryQualityString Gold
#TaskID d252d724072548979f1f6f1ced849daf
##Scan# 1673
#SpectrumFile p4-D07_GD7_01_18367.mzXML
#LibraryName Pharm_Active_Library.mgf
#MQScore -1
#Organism Pharm_Active_Library
#TIC_Query 0
#RT_Query -1
#MZErrorPPM -1
#SharedPeaks 0
#MassDiff 0
#LibMZ -1
#SpecMZ 328.126
#SpecCharge 0
#internalFilename spec-00000.mgf

>collision 10
44.97897 136.0
45.000328 32.0
45.099186 52.0
45.109879 120.0
45.147015 160.0
45.429935 140.0
45.533291 156.0
45.556126 56.0
45.658279 136.0
45.86832 180.0
45.907421 32.0
45.92765 220.0
46.251942 60.0
46.471485 248.0
46.504055 176.0
46.597752 180.0
46.720112 184.0
46.868515 180.0
46.894409 124.0
46.999416 192.0
47.067665 196.0
47.103172 180.0
47.128178 212.0
47.271339 176.0
47.638012 232.0
47.850582 184.0
47.875366 116.0
47.97044 96.0
48.047665 88.0
48.254833 188.0
48.318371 136.0
48.447205 132.0
48.474915 40.0
48.645512 92.0
48.831703 156.0
48.884571 132.0
48.938858 200.0
48.991779 168.0
49.039158 180.0
49.138165 172.0
49.40081 164.0
49.428795 196.0
49.453983 224.0
49.60947 232.0
49.65995 140.0
49.856506 164.0
49.939453 204.0
50.012619 116.0
50.171646 148.0
50.384903 204.0
50.547504 224.0
50.605537 216.0
50.771328 256.0
50.859295 164.0
50.964386 128.0
51.115108 116.0
51.243259 116.0
51.294563 132.0
51.508606 148.0
51.522892 108.0
51.558247 196.0
51.674438 136.0
51.731686 112.0
51.756023 136.0
51.846272 160.0
51.87207 112.0
52.07008 160.0
52.281414 120.0
52.432632 168.0
52.47155 96.0
52.533566 100.0
52.686588 72.0
52.765575 180.0
52.781982 184.0
52.836945 136.0
53.084629 112.0
53.194893 232.0
53.234097 144.0
53.283482 152.0
53.338703 128.0
53.367779 152.0
53.392502 152.0
53.501633 188.0
53.528458 136.0
53.558422 200.0
53.680847 124.0
53.696888 172.0
53.73473 136.0
53.885197 140.0
53.958271 156.0
53.984592 136.0
54.110428 220.0
54.245209 44.0
54.45797 184.0
54.485882 148.0
54.525555 152.0
54.594654 140.0
54.623558 240.0
54.650875 200.0
54.697643 64.0
54.721199 64.0
54.784527 140.0
54.834625 144.0
54.849365 112.0
54.912766 112.0
55.11797 176.0
55.30135 124.0
55.343002 144.0
55.639324 256.0
55.652687 64.0
55.692783 164.0
55.707638 112.0
55.764103 240.0
55.9039 224.0
56.081131 128.0
56.091564 204.0
56.148224 176.0
56.251175 144.0
56.279541 164.0
56.405033 92.0
56.764355 164.0
56.789852 172.0
56.96397 144.0
57.04211 140.0
57.093231 204.0
57.166946 176.0
57.222641 140.0
57.246731 172.0
57.418533 40.0
57.43211 172.0
57.510571 156.0
57.64045 96.0
57.691837 164.0
57.722076 220.0
57.784088 60.0
57.823433 164.0
58.216087 228.0
58.260849 144.0
58.424324 80.0
58.704578 120.0
58.724407 176.0
58.761017 56.0
58.776276 104.0
58.79306 48.0
58.925907 196.0
58.961052 156.0
59.09256 180.0
59.117043 144.0
59.247189 128.0
59.474461 172.0
59.489491 148.0
59.555519 176.0
59.578564 112.0
59.670773 136.0
59.712292 256.0
59.835396 92.0
59.876972 56.0
59.980202 196.0
59.994076 72.0
60.006409 148.0
60.077354 160.0
60.094322 132.0
60.207008 152.0
60.257984 136.0
60.276741 144.0
60.454357 236.0
60.496151 56.0
60.596813 84.0
60.651054 180.0
60.761158 200.0
60.809261 32.0
60.824783 96.0
60.910187 132.0
61.012749 232.0
61.162086 128.0
61.209846 124.0
61.225922 52.0
61.249287 124.0
61.397354 136.0
61.42075 192.0
61.500324 112.0
61.681519 184.0
61.759701 28.0
61.801941 124.0
61.830105 184.0
61.969471 192.0
62.035294 132.0
62.079197 176.0
62.140835 216.0
62.190586 160.0
62.264381 240.0
62.325645 208.0
62.336643 188.0
62.462421 48.0
62.577305 144.0
62.596199 204.0
62.640301 136.0
62.744308 284.0
62.786884 120.0
62.99839 160.0
63.078983 48.0
63.188103 152.0
63.378235 140.0
63.411381 136.0
63.439911 128.0
63.689102 212.0
63.927525 232.0
64.270119 184.0
64.319595 180.0
64.61364 200.0
64.671242 136.0
64.704865 168.0
64.730179 360.0
64.950043 92.0
64.985336 144.0
65.009674 188.0
65.223015 68.0
65.324326 140.0
65.343628 128.0
65.406387 332.0
65.432144 140.0
65.474014 172.0
65.585182 180.0
65.667412 84.0
65.681931 132.0
65.715805 148.0
65.791664 144.0
66.052536 212.0
66.074486 192.0
66.119789 136.0
66.137596 232.0
66.197495 196.0
66.212074 168.0
66.30928 160.0
66.499039 148.0
66.75898 116.0
66.837059 124.0
66.876122 200.0
66.952644 140.0
66.988472 128.0
67.094398 124.0
67.322838 72.0
67.447006 60.0
67.569656 116.0
67.610565 132.0
67.85955 148.0
67.8825 144.0
67.931709 304.0
68.041664 132.0
68.095848 192.0
68.107346 88.0
68.122131 140.0
68.253616 148.0
68.345726 152.0
68.378639 112.0
68.493896 108.0
68.744499 128.0
68.873276 184.0
68.96196 216.0
69.106369 124.0
69.188171 244.0
69.215614 180.0
69.324944 140.0
69.414459 184.0
69.518967 144.0
69.668404 184.0
69.703293 268.0
69.729881 148.0
69.779755 120.0
69.82798 180.0
69.842949 72.0
69.899513 168.0
70.00605 132.0
70.2127 44.0
70.282761 212.0
70.401283 116.0
70.417984 160.0
70.453056 128.0
70.47979 164.0
70.596802 196.0
70.744041 112.0
70.776665 132.0
70.794273 104.0
70.861725 120.0
70.89814 176.0
70.918251 76.0
71.010468 132.0
71.195076 168.0
71.302597 124.0
71.440475 192.0
71.489273 188.0
71.501053 304.0
71.512833 184.0
72.025414 112.0
72.125107 120.0
72.211342 152.0
72.27224 168.0
72.307777 164.0
72.427994 220.0
72.487289 52.0
72.526268 124.0
72.648361 116.0
72.689079 132.0
72.768852 156.0
72.841881 100.0
72.891151 132.0
72.998245 56.0
73.393204 148.0
73.502464 112.0
73.531471 192.0
73.575851 192.0
73.816772 176.0
73.840714 148.0
73.878342 104.0
74.09919 56.0
74.12661 148.0
74.191734 460.0
74.239746 140.0
74.258614 240.0
74.340958 140.0
74.480026 188.0
74.504074 120.0
74.68457 84.0
74.729301 136.0
74.746506 144.0
74.846344 228.0
74.868729 152.0
74.93074 152.0
75.020355 136.0
75.087967 152.0
75.232544 96.0
75.346527 56.0
75.462326 144.0
75.727089 52.0
75.813713 172.0
75.831039 116.0
75.848373 208.0
75.870911 228.0
75.96109 164.0
76.051315 88.0
76.096451 164.0
76.148544 92.0
76.29451 128.0
76.322327 124.0
76.369286 176.0
76.637375 212.0
76.668739 192.0
76.693138 44.0
76.830902 88.0
76.909424 144.0
76.944336 160.0
77.001961 48.0
77.022926 136.0
77.082321 128.0
77.15049 132.0
77.209938 184.0
77.286911 116.0
77.4795 124.0
77.588158 124.0
77.654793 60.0
77.668823 64.0
77.716194 164.0
77.795166 104.0
77.877701 100.0
77.986633 212.0
78.077538 104.0
78.289246 128.0
78.372032 176.0
78.386833 180.0
78.44429 136.0
78.543037 184.0
78.610085 76.0
78.728363 108.0
78.786652 100.0
78.867935 196.0
78.92981 136.0
78.943954 228.0
79.032402 156.0
79.255058 80.0
79.473595 136.0
79.533936 148.0
79.571213 116.0
79.674744 164.0
79.7453 36.0
79.82972 140.0
80.001442 152.0
80.067322 56.0
80.163528 148.0
80.246857 192.0
80.297234 44.0
80.322205 152.0
80.365021 104.0
80.513176 152.0
80.584633 100.0
80.629303 176.0
80.647179 128.0
80.691864 140.0
80.840332 80.0
80.858223 116.0
80.920876 112.0
81.025711 160.0
81.239883 116.0
81.273972 164.0
81.320633 188.0
81.336784 116.0
81.426559 156.0
81.883385 100.0
81.933823 200.0
82.056374 48.0
82.108665 164.0
82.189842 224.0
82.254814 156.0
82.547501 196.0
82.572823 208.0
82.590904 184.0
82.637939 76.0
82.659653 200.0
82.688606 232.0
82.750153 204.0
82.808105 152.0
82.837082 156.0
82.887817 176.0
82.925873 76.0
83.366882 148.0
83.403229 204.0
83.481407 148.0
84.000488 168.0
84.153793 116.0
84.183006 136.0
84.204918 156.0
84.230492 128.0
84.298088 180.0
84.415085 68.0
84.559608 172.0
84.583405 196.0
84.718918 140.0
84.905876 112.0
84.981087 184.0
85.114609 156.0
85.311668 224.0
85.353951 164.0
85.510323 168.0
85.554497 224.0
85.61158 124.0
85.668678 160.0
85.786613 192.0
85.812424 80.0
85.840088 216.0
86.074432 148.0
86.105827 128.0
86.140923 136.0
86.26104 160.0
86.288765 124.0
86.305405 100.0
86.334991 244.0
86.401581 164.0
86.454147 168.0
86.531136 176.0
86.60891 176.0
86.742325 188.0
86.81649 92.0
86.842453 112.0
86.899963 136.0
86.976051 128.0
87.039169 120.0
87.078171 128.0
87.128326 200.0
87.208229 184.0
87.233597 204.0
87.34024 124.0
87.356987 220.0
87.420242 92.0
87.464912 172.0
87.490974 160.0
87.544968 164.0
87.675377 128.0
87.705086 196.0
87.751801 68.0
87.845047 148.0
88.0485 220.0
88.09333 104.0
88.143593 168.0
88.190491 56.0
88.293327 48.0
88.375633 64.0
88.441132 84.0
88.665886 160.0
88.733368 152.0
88.924706 152.0
88.982895 244.0
89.069283 160.0
89.095581 112.0
89.140671 212.0
89.210213 144.0
89.251579 172.0
89.277901 136.0
89.409592 220.0
89.507484 64.0
89.526314 148.0
89.58847 212.0
89.626152 160.0
89.776955 196.0
89.839195 160.0
90.029839 100.0
90.128067 196.0
90.171524 180.0
90.301987 112.0
90.409821 136.0
90.426857 192.0
90.616219 104.0
90.731827 152.0
90.756477 100.0
90.769753 116.0
90.798195 128.0
90.864586 216.0
90.893181 168.0
90.965164 228.0
91.060104 356.0
91.154984 136.0
91.413712 104.0
91.506981 120.0
91.705093 108.0
91.74131 72.0
91.880531 132.0
91.909149 196.0
91.927567 208.0
91.97422 208.0
91.998848 172.0
92.157372 220.0
92.276131 144.0
92.317932 152.0
92.354271 156.0
92.432709 188.0
92.626076 128.0
92.794724 224.0
92.92514 144.0
92.952003 116.0
93.092133 172.0
93.144821 168.0
93.2612 188.0
93.285446 176.0
93.30349 164.0
93.330406 196.0
93.3703 164.0
93.391953 80.0
93.488144 196.0
93.724998 144.0
93.740417 32.0
93.800163 124.0
93.831009 104.0
93.925499 172.0
93.989166 176.0
94.029686 44.0
94.099182 144.0
94.19381 204.0
94.220856 212.0
94.338737 168.0
94.373543 44.0
94.51474 108.0
94.698654 260.0
94.773193 48.0
94.9991 44.0
95.237854 96.0
95.325279 228.0
95.491608 108.0
95.565651 188.0
95.597527 116.0
95.64035 224.0
95.766907 156.0
95.887703 220.0
95.934486 160.0
95.950081 152.0
96.064529 204.0
96.30719 140.0
96.416603 112.0
96.803947 208.0
96.84507 72.0
96.995949 252.0
97.048882 76.0
97.064568 180.0
97.190346 200.0
97.239166 116.0
97.325539 108.0
97.378563 188.0
97.400169 96.0
97.441422 164.0
97.465004 52.0
97.531822 128.0
97.55043 196.0
97.649788 108.0
97.903671 164.0
97.92775 176.0
97.99231 192.0
98.057343 156.0
98.077255 152.0
98.191841 164.0
98.297096 132.0
98.398598 164.0
98.465004 208.0
98.563507 144.0
98.696945 48.0
98.918533 124.0
98.987823 176.0
99.033379 168.0
99.088615 220.0
99.203789 168.0
99.362801 176.0
99.811317 204.0
99.849106 156.0
99.970459 112.0
100.030998 240.0
100.091888 128.0
100.37883 140.0
100.436668 128.0
100.564362 128.0
100.697136 136.0
100.782036 232.0
100.802017 200.0
100.963943 228.0
101.057961 60.0
101.109985 188.0
101.292191 88.0
101.340271 148.0
101.379753 188.0
101.456512 84.0
101.521057 224.0
101.582855 164.0
101.602913 112.0
101.691208 168.0
101.745407 144.0
101.783554 152.0
101.928177 196.0
101.946266 156.0
102.000534 196.0
102.07563 216.0
102.149338 144.0
102.419067 68.0
102.457939 268.0
102.543983 88.0
102.611702 108.0
102.769958 144.0
102.874786 180.0
103.127281 212.0
103.143456 136.0
103.183884 108.0
103.266792 64.0
103.369972 184.0
103.40033 144.0
103.473198 128.0
103.708183 144.0
103.791306 128.0
103.846054 144.0
103.864311 132.0
103.959648 188.0
104.006348 116.0
104.026649 172.0
104.04995 1316.0
104.085526 132.0
104.11599 228.0
104.140358 128.0
104.203331 188.0
104.489998 144.0
104.536797 240.0
104.642647 144.0
104.656898 176.0
104.675224 144.0
104.705772 76.0
104.752617 68.0
104.77095 144.0
104.906509 208.0
105.275688 240.0
105.313553 168.0
105.419792 176.0
105.501549 88.0
105.732689 136.0
105.828896 44.0
105.882141 196.0
105.972267 184.0
106.060097 180.0
106.160851 156.0
106.444038 100.0
106.561119 152.0
106.581665 220.0
106.65976 160.0
106.762558 164.0
106.820152 144.0
106.840721 228.0
106.972427 224.0
107.001251 144.0
107.019775 48.0
107.083954 172.0
107.128929 196.0
107.143356 120.0
107.227837 168.0
107.434036 236.0
107.475296 196.0
107.524826 132.0
107.603264 108.0
107.847023 152.0
107.895386 160.0
107.971077 140.0
108.041405 280.0
108.082779 244.0
108.151077 184.0
108.180054 96.0
108.204903 156.0
108.312584 200.0
108.341583 148.0
108.5924 120.0
109.031418 96.0
109.049171 156.0
109.221397 184.0
109.344505 156.0
109.396545 152.0
109.596481 148.0
109.617317 68.0
109.777832 148.0
109.792427 120.0
109.899147 204.0
109.950989 192.0
110.042831 204.0
110.061623 156.0
110.151428 56.0
110.262169 160.0
110.333237 56.0
110.846031 160.0
110.906807 172.0
111.139595 172.0
111.305412 184.0
111.35582 60.0
111.378922 148.0
111.429337 172.0
111.488174 88.0
111.793106 144.0
112.224922 160.0
112.353577 132.0
112.393661 196.0
112.421097 144.0
112.480629 136.0
112.547752 176.0
112.668137 136.0
112.69268 220.0
112.718842 176.0
112.763222 132.0
112.832977 212.0
112.966209 220.0
113.116455 88.0
113.313408 184.0
113.387573 144.0
113.667503 164.0
113.731171 140.0
113.779991 164.0
113.805473 44.0
113.905289 176.0
113.998772 172.0
114.047653 164.0
114.134811 180.0
114.275192 112.0
114.473152 48.0
114.673409 172.0
114.743752 228.0
114.775734 204.0
114.87384 92.0
115.053101 152.0
115.194046 168.0
115.270958 104.0
115.304329 156.0
115.335075 248.0
115.433418 184.0
115.463364 128.0
115.568176 80.0
115.630768 180.0
115.73085 136.0
115.797234 136.0
115.98793 160.0
116.058189 160.0
116.088692 172.0
116.200233 76.0
116.466423 152.0
116.788841 32.0
116.840469 188.0
116.885651 120.0
116.932991 308.0
117.055435 192.0
117.085854 128.0
117.16555 408.0
117.368149 232.0
117.598984 160.0
117.61409 280.0
117.719879 60.0
117.764618 196.0
117.832199 88.0
117.879738 244.0
117.90567 112.0
117.985641 100.0
118.065002 1816.0
118.26902 92.0
118.299324 176.0
118.321716 164.0
118.466072 140.0
118.528908 128.0
118.671959 156.0
118.706657 100.0
118.747864 88.0
118.776054 220.0
118.862839 156.0
118.970558 196.0
119.045181 136.0
119.072693 1680.0
119.180855 160.0
119.260269 92.0
119.290695 168.0
119.329826 144.0
119.362442 88.0
119.534286 236.0
119.637314 216.0
119.695374 232.0
119.902321 92.0
119.930656 88.0
119.982979 44.0
120.05275 112.0
120.087646 156.0
120.109459 92.0
120.128189 160.0
120.216362 88.0
120.391006 80.0
120.624786 136.0
120.730042 144.0
120.885056 36.0
120.906937 120.0
120.935394 148.0
121.016655 164.0
121.042664 180.0
121.180656 148.0
121.195992 204.0
121.305573 68.0
121.338455 164.0
121.361076 164.0
121.472229 180.0
121.55999 200.0
121.702667 136.0
121.91851 216.0
121.950912 144.0
122.069626 208.0
122.126808 140.0
122.250015 120.0
122.562698 172.0
122.58033 196.0
122.794167 160.0
122.955223 140.0
123.019234 108.0
123.043518 92.0
123.100929 208.0
123.222412 152.0
123.496529 204.0
123.570465 92.0
123.669106 148.0
123.806374 168.0
123.852882 160.0
123.888329 156.0
123.961441 100.0
124.087784 52.0
124.154213 236.0
124.227501 84.0
124.318474 108.0
124.491623 172.0
124.598244 64.0
124.736023 60.0
124.782707 80.0
124.945061 180.0
124.967308 128.0
125.018799 172.0
125.105293 164.0
125.209946 176.0
125.486259 128.0
125.547661 152.0
125.62899 116.0
125.820915 144.0
125.914482 160.0
125.988083 216.0
126.093437 188.0
126.236511 112.0
126.274529 156.0
126.381905 152.0
126.435616 164.0
126.520668 152.0
126.549774 128.0
126.652794 120.0
126.885849 128.0
127.53685 196.0
127.682991 100.0
127.712227 96.0
127.815254 196.0
127.941757 140.0
127.980682 220.0
128.047592 176.0
128.063354 188.0
128.201111 136.0
128.345367 144.0
128.39241 116.0
128.552582 72.0
128.771561 220.0
128.800934 68.0
128.889038 176.0
128.934235 148.0
128.954575 208.0
128.973206 228.0
129.046097 172.0
129.115097 252.0
129.20784 156.0
129.241776 216.0
129.262131 100.0
129.412704 224.0
129.452988 64.0
129.490784 100.0
129.549683 124.0
129.58139 168.0
129.606323 48.0
129.640305 200.0
129.812286 148.0
129.964569 136.0
129.987259 168.0
130.061325 332.0
130.134811 208.0
130.191574 168.0
130.337814 152.0
130.364227 248.0
130.432404 192.0
130.516525 128.0
130.664368 216.0
130.703049 132.0
130.718979 204.0
130.84758 272.0
130.902725 200.0
131.115219 220.0
131.153961 28.0
131.275131 136.0
131.293045 88.0
131.44133 168.0
131.505219 108.0
131.683304 160.0
131.78093 180.0
131.907227 120.0
132.037277 160.0
132.062714 152.0
132.282379 152.0
132.424347 164.0
132.529724 116.0
132.548065 132.0
132.57785 196.0
132.614517 48.0
132.795654 224.0
132.848404 332.0
133.050354 180.0
133.09169 180.0
133.110062 132.0
133.268539 136.0
133.293823 168.0
133.454727 196.0
133.475418 132.0
133.597321 100.0
133.772202 168.0
133.885025 200.0
133.988678 168.0
134.062851 172.0
134.288345 204.0
134.339096 168.0
134.53064 196.0
134.630936 144.0
134.844772 56.0
134.896652 244.0
135.069061 148.0
135.175476 240.0
135.203247 160.0
135.330566 204.0
135.545975 172.0
135.650269 128.0
135.845062 168.0
136.146805 108.0
136.361923 108.0
136.425629 140.0
136.513977 100.0
136.676804 92.0
136.730331 140.0
136.762909 128.0
136.855469 148.0
137.037704 180.0
137.273132 208.0
137.298782 188.0
137.459747 204.0
137.634811 84.0
137.684998 120.0
137.777283 140.0
137.826355 184.0
137.847382 52.0
137.894119 144.0
137.954895 200.0
137.982956 172.0
138.007004 180.0
138.045624 124.0
138.074142 188.0
138.144318 212.0
138.174728 144.0
138.31279 188.0
138.343231 196.0
138.439224 152.0
138.4767 116.0
138.64772 156.0
138.957245 64.0
139.046631 180.0
139.112137 68.0
139.206055 200.0
139.266632 216.0
139.284042 136.0
139.321136 192.0
139.520905 60.0
139.584381 80.0
139.666702 196.0
139.812576 132.0
139.930267 208.0
139.975006 136.0
139.992615 192.0
140.046936 144.0
140.113968 172.0
140.135178 188.0
140.2173 220.0
140.280487 216.0
140.337875 188.0
140.353958 156.0
140.42276 188.0
140.44635 156.0
140.545425 208.0
140.842896 160.0
140.875961 44.0
140.918488 120.0
140.98938 32.0
141.062653 380.0
141.135941 144.0
141.339355 124.0
141.372482 136.0
141.467163 152.0
141.495575 152.0
141.578445 188.0
141.725311 104.0
141.834335 188.0
141.926788 140.0
141.978958 124.0
142.190109 176.0
142.235199 152.0
142.486923 172.0
142.634262 100.0
142.681808 180.0
142.753143 52.0
142.807831 240.0
142.886337 152.0
142.929169 172.0
142.96962 96.0
143.026733 144.0
143.05954 436.0
143.079117 172.0
143.33873 184.0
143.429291 40.0
143.517502 168.0
143.636749 112.0
143.849121 128.0
143.904022 124.0
144.074783 144.0
144.30542 224.0
144.539825 156.0
144.621185 180.0
144.786392 144.0
144.922928 124.0
144.939713 128.0
145.047546 128.0
145.071518 160.0
145.234589 68.0
145.49614 84.0
145.536957 180.0
145.64743 152.0
145.69548 188.0
145.846863 104.0
145.99353 184.0
146.093597 200.0
146.121017 172.0
146.231705 96.0
146.275024 212.0
146.317307 192.0
146.402634 136.0
146.448395 220.0
146.752029 156.0
146.826782 140.0
146.891907 312.0
146.99324 100.0
147.1091 160.0
147.188766 208.0
147.280533 184.0
147.302277 100.0
147.355927 136.0
147.473831 136.0
147.564392 156.0
147.643082 112.0
147.705963 72.0
147.773697 132.0
147.991531 228.0
148.122299 104.0
148.151382 160.0
148.272522 136.0
148.306458 160.0
148.417984 160.0
148.434952 108.0
148.459198 88.0
148.534393 176.0
148.609589 132.0
148.689667 140.0
148.876602 192.0
148.902054 156.0
149.017822 344.0
149.080673 52.0
149.14386 152.0
149.503815 164.0
149.537888 48.0
149.983612 152.0
150.014801 312.0
150.322617 148.0
150.400711 160.0
150.735306 168.0
151.01889 192.0
151.059753 176.0
151.275818 268.0
151.41539 136.0
151.55011 136.0
151.598526 132.0
151.768265 184.0
152.006134 152.0
152.027054 120.0
152.03186 192.0
152.041214 148.0
152.065094 300.0
152.090134 176.0
152.266418 192.0
152.340103 204.0
152.359756 196.0
152.389236 188.0
152.411346 128.0
152.443298 156.0
152.541611 192.0
152.711273 112.0
152.730942 136.0
152.839188 140.0
152.890869 184.0
153.004089 144.0
153.043488 220.0
153.07254 236.0
153.270096 120.0
153.302124 52.0
153.422913 140.0
153.501801 160.0
153.617722 136.0
153.85463 104.0
153.871918 152.0
153.97316 124.0
154.001923 372.0
154.025024 316.0
154.066254 128.0
154.076981 140.0
154.155975 132.0
154.23259 172.0
154.2845 128.0
154.316635 124.0
154.576355 176.0
154.734756 176.0
154.796661 172.0
154.90564 128.0
154.992355 148.0
155.031998 144.0
155.067841 212.0
155.121231 108.0
155.19313 144.0
155.230316 140.0
155.299759 96.0
155.463501 140.0
156.0 308.0
156.069611 116.0
156.196442 140.0
156.41481 136.0
156.46521 180.0
156.495087 136.0
156.542389 196.0
156.624573 172.0
156.694336 48.0
156.78653 168.0
156.906174 176.0
157.027054 128.0
157.073257 160.0
157.158081 160.0
157.202103 228.0
157.407684 108.0
157.625015 92.0
157.712479 144.0
157.814972 108.0
157.931091 128.0
158.040085 136.0
158.060104 32.0
158.090637 140.0
158.237808 108.0
158.342987 172.0
158.410614 88.0
158.528366 132.0
158.555939 156.0
158.592926 184.0
158.651184 124.0
158.806656 172.0
158.944641 212.0
158.989807 56.0
159.061172 148.0
159.08519 212.0
159.132767 168.0
159.198166 192.0
159.30011 164.0
159.403656 180.0
159.45694 164.0
159.736633 184.0
159.778793 164.0
159.800522 216.0
159.884476 108.0
159.947403 76.0
160.06282 156.0
160.138763 168.0
160.29747 152.0
160.395767 196.0
160.451233 196.0
160.49913 184.0
160.526871 144.0
160.594971 184.0
160.842239 128.0
160.930603 140.0
160.978577 208.0
161.246368 172.0
161.314606 192.0
161.360107 188.0
161.387405 156.0
161.501724 60.0
161.52449 144.0
161.605438 212.0
161.785141 172.0
161.876282 132.0
161.970001 220.0
162.015594 184.0
162.072998 188.0
162.141312 124.0
162.218323 160.0
162.239304 216.0
162.271561 212.0
162.383133 60.0
162.402039 204.0
162.456696 80.0
162.492218 276.0
162.619095 32.0
162.677475 136.0
162.733337 148.0
162.864639 192.0
162.939056 32.0
163.012741 128.0
163.503845 104.0
163.613007 100.0
163.99765 184.0
164.020493 156.0
164.048706 4372.0
164.112366 180.0
164.141068 236.0
164.219467 136.0
164.382614 80.0
164.413376 36.0
164.437637 244.0
164.486221 176.0
164.551208 96.0
164.638031 164.0
164.760635 72.0
164.806625 152.0
165.021759 188.0
165.055084 796.0
165.113373 148.0
165.179993 172.0
165.208023 72.0
165.282211 72.0
165.535629 148.0
165.658569 196.0
165.745682 236.0
166.013458 200.0
166.031128 228.0
166.060822 432.0
166.140518 72.0
166.238022 264.0
166.297043 112.0
166.343246 128.0
166.45108 72.0
166.56665 124.0
166.628311 108.0
166.900757 164.0
167.013901 144.0
167.069778 628.0
167.111664 128.0
167.23439 180.0
167.381927 140.0
167.572525 100.0
167.647263 108.0
167.680756 176.0
167.794174 88.0
168.033966 156.0
168.037567 152.0
168.050201 60.0
168.05928 168.0
168.090805 124.0
168.250824 108.0
168.36702 64.0
168.444504 140.0
168.47551 216.0
168.522003 48.0
168.752045 184.0
168.811508 160.0
168.837372 72.0
168.87616 264.0
169.043854 176.0
169.067932 196.0
169.194443 168.0
169.228104 208.0
169.27536 132.0
169.354996 164.0
169.518219 200.0
169.642624 96.0
169.779404 176.0
169.912338 148.0
170.060242 116.0
170.099182 172.0
170.236786 112.0
170.384842 188.0
170.458176 140.0
170.603134 156.0
170.769562 104.0
170.824173 68.0
171.074005 160.0
171.097427 168.0
171.131271 132.0
171.303162 144.0
171.33963 68.0
171.386536 128.0
171.50119 172.0
171.695801 224.0
171.746292 140.0
171.832382 128.0
171.928925 176.0
172.009842 128.0
172.409454 64.0
172.705185 172.0
172.916824 76.0
173.01297 928.0
173.052933 108.0
173.115784 76.0
173.282944 176.0
173.320099 48.0
173.354172 168.0
173.427551 200.0
173.576981 240.0
173.67926 112.0
173.750092 216.0
173.795456 208.0
173.815689 144.0
173.939041 252.0
173.965286 68.0
174.012497 436.0
174.304092 96.0
174.346146 160.0
174.461792 72.0
174.509109 128.0
174.532776 76.0
174.653748 192.0
174.877411 152.0
174.985336 192.0
175.014297 348.0
175.19986 172.0
175.253983 200.0
175.831482 68.0
175.934433 164.0
176.006622 184.0
176.224945 88.0
176.259293 164.0
176.383514 188.0
176.409943 144.0
176.483978 176.0
176.602982 280.0
176.684982 164.0
177.02652 204.0
177.059143 244.0
177.12442 132.0
177.256882 196.0
177.426514 48.0
177.458328 68.0
177.537888 184.0
177.665192 120.0
177.720917 176.0
177.763367 124.0
178.03363 140.0
178.063751 212.0
178.097031 188.0
178.198837 212.0
178.544403 172.0
178.573654 160.0
178.650787 124.0
178.863678 156.0
178.927567 72.0
179.063248 616.0
179.228531 68.0
179.35379 76.0
179.612427 100.0
179.64978 144.0
179.775177 36.0
179.868591 236.0
179.938004 200.0
180.078751 992.0
180.167679 172.0
180.234482 232.0
180.301285 168.0
180.322662 188.0
180.376114 140.0
180.400177 136.0
180.472366 168.0
180.616455 100.0
180.643524 172.0
180.683655 104.0
180.856598 128.0
180.975388 68.0
181.088379 688.0
181.162857 92.0
181.294144 156.0
181.412079 64.0
181.55687 120.0
181.688309 184.0
181.712448 156.0
181.814423 204.0
182.00769 136.0
182.044144 196.0
182.069656 168.0
182.082809 156.0
182.090881 168.0
182.141983 112.0
182.230957 160.0
182.290695 144.0
182.416061 120.0
182.65538 92.0
182.749542 144.0
182.806046 156.0
183.005249 156.0
183.089264 240.0
183.131805 124.0
183.226089 168.0
183.328476 88.0
183.452469 160.0
183.473511 184.0
183.576492 152.0
183.649307 136.0
183.732941 152.0
183.761246 308.0
183.955475 156.0
184.067337 152.0
184.071045 208.0
184.172943 40.0
184.283707 120.0
184.426926 164.0
184.499908 176.0
184.648636 128.0
184.821762 216.0
184.913834 212.0
184.989563 172.0
185.030167 144.0
185.059204 188.0
185.08432 176.0
185.146606 132.0
185.165558 140.0
185.195358 180.0
185.214325 200.0
185.235992 56.0
185.311844 52.0
185.381165 212.0
185.493423 36.0
185.731445 116.0
185.794434 144.0
185.85141 168.0
185.873108 176.0
185.965378 140.0
185.992523 192.0
186.136414 76.0
186.188019 164.0
186.397186 220.0
186.424362 108.0
186.557541 124.0
186.579285 280.0
186.856689 136.0
186.962814 156.0
187.010529 136.0
187.049911 244.0
187.079544 172.0
187.169708 108.0
187.19693 128.0
187.248672 104.0
187.305878 180.0
187.409393 72.0
187.641479 240.0
187.717422 116.0
187.822128 180.0
187.905624 112.0
188.07692 192.0
188.334213 144.0
188.470795 188.0
188.569183 148.0
188.749603 168.0
188.8508 208.0
188.875412 160.0
188.993042 64.0
189.097031 180.0
189.294144 144.0
189.329742 112.0
189.351654 188.0
189.510544 200.0
189.569504 116.0
189.795593 156.0
190.034409 176.0
190.066528 176.0
190.363617 52.0
190.487213 168.0
190.550385 64.0
190.903336 172.0
191.070404 208.0
191.152557 152.0
191.226852 104.0
191.258224 172.0
191.287415 156.0
191.34523 112.0
191.381012 36.0
191.414062 104.0
191.479172 180.0
191.763931 160.0
191.926575 184.0
192.044708 1340.0
192.153976 184.0
192.301758 180.0
192.439789 176.0
192.461868 116.0
192.483017 176.0
192.536438 36.0
192.616531 120.0
192.677307 260.0
192.708832 88.0
192.74086 148.0
192.837738 132.0
192.897507 204.0
192.923264 120.0
192.99231 496.0
193.052597 45396.0
193.117447 232.0
193.137634 100.0
193.178757 72.0
193.235291 296.0
193.259506 132.0
193.396286 80.0
193.415649 40.0
193.477737 224.0
193.519257 76.0
193.539001 120.0
193.547485 52.0
193.590088 80.0
193.615005 52.0
193.670395 488.0
193.706406 196.0
193.745193 40.0
193.775665 92.0
193.864151 60.0
193.933624 32.0
193.994598 176.0
194.055389 5676.0
194.093292 148.0
194.131668 64.0
194.152206 176.0
194.230896 152.0
194.25502 136.0
194.29689 84.0
194.404373 356.0
194.45903 88.0
194.585526 88.0
194.649384 164.0
194.6716 112.0
194.718811 52.0
194.76532 220.0
194.796585 260.0
194.907715 28.0
194.971619 32.0
195.026566 132.0
195.057343 504.0
195.092957 300.0
195.190887 64.0
195.269104 72.0
195.302475 164.0
195.324738 112.0
195.349762 100.0
195.388718 136.0
195.466614 60.0
195.508102 84.0
195.525436 100.0
195.552002 100.0
195.583511 60.0
195.605774 116.0
195.717133 40.0
195.797897 136.0
195.903732 236.0
196.04126 676.0
196.06839 164.0
196.096008 136.0
196.260483 180.0
196.48082 40.0
196.556152 124.0
196.660141 152.0
196.838074 32.0
196.913483 148.0
197.047638 156.0
197.128586 188.0
197.248764 180.0
197.349411 144.0
197.500427 44.0
197.749451 152.0
197.85582 128.0
198.004227 152.0
198.035034 200.0
198.110657 212.0
198.43576 76.0
198.472214 140.0
198.570358 192.0
198.896576 60.0
199.033417 428.0
199.193481 80.0
199.314285 144.0
199.522278 264.0
199.658478 172.0
199.730362 148.0
199.918869 76.0
199.952637 168.0
200.026886 5116.0
200.068054 112.0
200.189117 140.0
200.211655 192.0
200.317856 164.0
200.383469 116.0
200.449127 176.0
200.589279 156.0
200.648407 100.0
200.716064 172.0
200.778107 44.0
200.930435 224.0
201.029022 1064.0
201.204178 212.0
201.300186 176.0
201.432922 176.0
201.49791 48.0
201.656143 144.0
201.893631 104.0
201.931107 160.0
202.021729 1424.0
202.050934 140.0
202.117111 148.0
202.148239 64.0
202.179703 136.0
202.301071 100.0
202.337875 300.0
202.904495 168.0
203.029465 628.0
203.085983 92.0
203.239166 160.0
203.281738 136.0
203.571289 156.0
203.634537 148.0
203.72467 88.0
203.821259 124.0
204.02063 164.0
204.040298 340.0
204.085602 180.0
204.376648 160.0
204.421249 128.0
204.589188 180.0
204.611954 60.0
204.6586 116.0
204.705917 120.0
205.024979 144.0
205.075638 176.0
205.106033 184.0
205.164658 108.0
205.193161 100.0
205.230225 104.0
205.250183 48.0
205.387177 120.0
205.429871 172.0
205.554993 196.0
205.615326 60.0
205.672409 148.0
205.692398 80.0
205.800873 44.0
205.823715 72.0
205.975082 136.0
206.056335 456.0
206.061874 300.0
206.084106 1208.0
206.189377 168.0
206.259445 156.0
206.271835 80.0
206.282104 144.0
206.31514 64.0
206.494217 192.0
206.664062 68.0
206.752777 120.0
206.789978 124.0
206.816284 148.0
207.089905 1668.0
207.196594 64.0
207.261322 88.0
207.29837 124.0
207.489685 176.0
207.620819 172.0
207.721207 124.0
207.767105 152.0
207.922058 196.0
207.959366 52.0
207.985199 48.0
208.013901 160.0
208.039749 172.0
208.072388 368.0
208.098557 2096.0
208.332657 188.0
208.421722 164.0
208.46196 40.0
208.516556 172.0
208.709167 136.0
208.907608 184.0
208.933502 180.0
209.042831 68.0
209.083206 1196.0
209.175232 60.0
209.250076 92.0
209.358795 164.0
209.468826 96.0
209.609161 132.0
209.751282 224.0
209.82341 52.0
210.010849 80.0
210.053986 348.0
210.074814 596.0
210.19548 128.0
210.241653 172.0
210.334015 212.0
210.400406 116.0
210.449493 116.0
210.966644 180.0
211.035782 140.0
211.076248 268.0
211.083298 344.0
211.357086 116.0
211.382202 240.0
211.469955 160.0
211.768173 152.0
211.800034 120.0
211.863754 164.0
211.921707 288.0
211.99704 108.0
212.042831 40.0
212.06604 144.0
212.264557 168.0
212.347839 124.0
212.422516 144.0
212.527695 52.0
212.635056 124.0
212.666992 48.0
212.687302 44.0
212.835373 108.0
212.876022 76.0
212.94281 156.0
213.027054 196.0
213.059006 40.0
213.169418 108.0
213.419403 196.0
213.524078 128.0
213.55899 152.0
214.038986 1000.0
214.295486 144.0
214.359589 36.0
214.723999 48.0
215.034622 160.0
215.14032 84.0
215.158783 112.0
215.658295 144.0
215.731369 48.0
215.797775 224.0
215.851242 84.0
215.883408 144.0
215.903885 84.0
216.031967 520.0
216.057846 672.0
216.12912 32.0
216.222763 104.0
216.316437 176.0
216.497955 128.0
216.735016 164.0
216.773331 28.0
216.963852 228.0
217.021957 296.0
217.026794 128.0
217.046219 292.0
217.084061 116.0
217.20137 132.0
217.389145 124.0
217.777527 176.0
217.853043 204.0
218.03476 172.0
218.052368 72.0
218.057098 144.0
218.082596 268.0
218.349792 104.0
218.455688 196.0
218.605743 156.0
218.688141 36.0
218.779404 120.0
218.953125 144.0
219.032654 260.0
219.069305 948.0
219.156387 160.0
219.250671 184.0
219.359726 184.0
219.577927 204.0
219.636917 192.0
219.859207 176.0
219.893616 152.0
220.049881 840.0
220.073685 612.0
220.244965 112.0
220.478378 112.0
220.540436 92.0
220.685287 48.0
221.042953 224.0
221.07373 444.0
221.108307 124.0
221.238541 96.0
221.407318 168.0
221.431015 112.0
221.534683 124.0
221.703568 164.0
221.970367 100.0
221.997055 168.0
222.066711 172.0
222.078461 136.0
222.118652 132.0
222.169083 68.0
222.204681 164.0
222.406479 152.0
222.489594 76.0
222.546005 152.0
222.691513 116.0
223.027267 124.0
223.074829 92.0
223.181854 120.0
223.248077 180.0
223.390045 120.0
223.446564 164.0
223.58345 28.0
223.696548 140.0
223.732269 108.0
223.946671 216.0
224.185013 200.0
224.307205 208.0
224.38472 120.0
224.447327 180.0
224.647156 208.0
224.772461 176.0
225.014236 184.0
225.045181 152.0
225.390564 68.0
225.450333 92.0
225.501144 152.0
225.584839 148.0
225.880875 172.0
225.934723 148.0
226.040527 228.0
226.150177 140.0
226.305847 48.0
226.5065 156.0
226.656296 112.0
226.719223 168.0
226.97702 56.0
227.013184 328.0
227.051727 428.0
227.209671 148.0
227.442032 92.0
227.481064 88.0
227.523087 36.0
227.55011 180.0
227.577133 248.0
227.712265 204.0
227.823395 120.0
227.862457 164.0
227.897003 112.0
227.9496 128.0
227.973633 212.0
228.020798 21164.0
228.129532 248.0
228.175018 140.0
228.214111 68.0
228.241165 152.0
228.293701 120.0
228.317505 156.0
228.367477 44.0
228.426239 172.0
228.466736 244.0
228.490814 172.0
228.532928 160.0
228.553986 164.0
228.627365 240.0
228.694641 168.0
228.85498 44.0
228.898453 240.0
229.026031 2916.0
229.097305 140.0
229.126053 136.0
229.252609 104.0
229.291779 64.0
229.427414 208.0
229.447052 172.0
229.521896 120.0
229.593262 120.0
229.638504 64.0
229.662628 64.0
229.70433 116.0
229.725967 76.0
229.768829 96.0
229.782776 92.0
229.858719 76.0
229.891922 44.0
229.961334 140.0
230.01796 6100.0
230.071533 204.0
230.141205 164.0
230.229599 56.0
230.250046 128.0
230.365952 216.0
230.577454 52.0
230.619766 112.0
230.687531 192.0
230.761856 36.0
230.796951 112.0
230.846512 120.0
230.920654 140.0
230.961441 176.0
231.02449 596.0
231.090988 136.0
231.112701 132.0
231.167175 268.0
231.503372 132.0
231.675842 172.0
231.706131 148.0
231.803085 144.0
231.942505 64.0
232.031906 628.0
232.096054 316.0
232.182022 132.0
232.206284 120.0
232.285156 140.0
232.391327 212.0
232.603775 52.0
232.734314 60.0
232.791763 144.0
232.880081 112.0
232.965134 272.0
233.032745 140.0
233.070221 400.0
233.105576 764.0
233.216537 136.0
233.375427 108.0
233.472733 140.0
233.618729 160.0
233.679581 128.0
233.798248 120.0
233.834763 128.0
234.014374 124.0
234.078094 396.0
234.112701 704.0
234.458359 148.0
234.548691 152.0
234.617599 156.0
234.748718 184.0
234.855453 128.0
234.904266 60.0
234.996719 156.0
235.087204 4948.0
235.258255 92.0
235.325409 32.0
235.512512 196.0
235.578003 164.0
235.713333 136.0
235.780563 192.0
235.921173 184.0
235.931992 52.0
235.943314 148.0
235.985367 200.0
236.037354 240.0
236.092194 2332.0
236.275925 116.0
236.484009 52.0
236.508484 116.0
236.552521 232.0
236.600327 96.0
236.66156 180.0
236.731979 40.0
236.774857 72.0
236.891251 148.0
236.940262 60.0
236.983154 96.0
237.054764 196.0
237.093231 280.0
237.148636 136.0
237.289658 160.0
237.482315 156.0
237.568726 68.0
237.614746 140.0
237.709869 100.0
237.820358 180.0
237.84491 124.0
238.044891 200.0
238.081314 172.0
238.102814 88.0
238.253326 160.0
238.646729 140.0
238.712677 108.0
238.917374 40.0
238.969666 188.0
239.036606 212.0
239.083527 340.0
239.486847 116.0
239.745636 92.0
239.887421 88.0
239.912079 116.0
240.017288 124.0
240.044052 168.0
240.07576 196.0
240.124847 60.0
240.211212 112.0
240.640182 84.0
240.726639 148.0
240.763702 124.0
240.992279 72.0
241.044815 512.0
241.224075 220.0
241.295166 112.0
241.391022 136.0
241.415756 240.0
241.576599 196.0
241.685394 120.0
242.057663 952.0
242.149231 208.0
242.211182 32.0
242.332001 76.0
242.369171 172.0
242.510773 208.0
242.545822 116.0
243.02948 256.0
243.066299 1392.0
243.200302 48.0
243.292389 72.0
243.544952 96.0
243.631927 124.0
243.861877 104.0
243.89296 180.0
244.051971 1156.0
244.231873 64.0
244.362534 72.0
244.418533 60.0
244.519455 112.0
244.648849 112.0
244.698669 112.0
245.059952 864.0
245.098251 180.0
245.458923 88.0
245.555603 56.0
245.596146 56.0
245.845749 188.0
245.920654 112.0
246.035965 1128.0
246.132935 220.0
246.172165 192.0
246.248474 64.0
246.532776 180.0
246.60466 152.0
246.751587 136.0
246.820374 88.0
247.037506 140.0
247.042984 568.0
247.089676 356.0
247.158096 132.0
247.208252 92.0
247.953598 48.0
248.005554 200.0
248.027649 172.0
248.110321 48.0
248.486664 96.0
248.785187 136.0
249.574783 188.0
249.591049 124.0
249.73378 184.0
249.7621 188.0
249.887924 188.0
250.253021 256.0
250.649902 144.0
250.694016 76.0
250.779114 172.0
250.886292 64.0
251.053406 100.0
251.097549 188.0
251.220566 152.0
251.397263 60.0
251.438278 112.0
251.671875 220.0
251.776093 56.0
251.823456 120.0
251.899277 28.0
252.047134 140.0
252.107803 220.0
252.471359 168.0
252.703079 172.0
252.860489 88.0
253.053741 624.0
253.192917 116.0
253.218246 200.0
253.493866 44.0
253.604782 52.0
253.665009 124.0
253.744263 132.0
253.791824 172.0
254.033264 2168.0
254.150238 64.0
254.397797 60.0
254.464462 48.0
255.031784 784.0
255.144348 168.0
255.585739 144.0
255.678741 44.0
255.755127 136.0
256.034973 684.0
256.22641 116.0
256.255096 148.0
256.325195 68.0
256.377533 112.0
256.573792 188.0
256.626068 160.0
256.749176 160.0
256.844849 124.0
256.8927 100.0
257.042786 556.0
257.080505 168.0
257.400177 76.0
257.515137 156.0
257.620544 60.0
257.687653 196.0
257.713196 92.0
257.77298 176.0
257.796295 220.0
258.028717 188.0
258.034973 136.0
258.056183 200.0
258.179901 176.0
258.243866 116.0
258.455017 128.0
258.483795 48.0
258.509399 84.0
258.538208 160.0
258.701447 136.0
259.039398 256.0
259.06131 148.0
259.095337 224.0
259.181854 124.0
259.242737 184.0
259.393372 160.0
259.441467 156.0
259.726868 64.0
259.810272 168.0
260.050934 148.0
260.09906 140.0
260.230682 176.0
260.298126 136.0
260.355927 128.0
260.445862 172.0
260.603271 224.0
260.728607 108.0
261.023376 212.0
261.10257 664.0
261.172272 156.0
261.210876 40.0
261.233398 48.0
261.307404 40.0
261.622772 128.0
261.748352 92.0
262.018921 148.0
262.047913 44.0
262.107544 260.0
262.292816 112.0
262.421783 144.0
262.521729 108.0
262.663635 136.0
262.802368 44.0
262.876587 32.0
262.937897 204.0
263.377014 164.0
263.499756 168.0
263.561157 212.0
263.735657 76.0
263.855255 144.0
263.945801 44.0
264.110748 48.0
264.143097 116.0
264.272491 112.0
264.45047 176.0
264.476379 92.0
264.667358 136.0
264.758057 84.0
264.894073 64.0
264.929718 92.0
265.192169 40.0
265.668854 156.0
265.824188 132.0
266.04126 200.0
266.053497 152.0
266.15567 100.0
266.922546 92.0
267.066406 144.0
267.088409 96.0
267.111176 76.0
267.319397 100.0
267.351929 76.0
267.501648 192.0
267.524445 204.0
267.765411 140.0
267.840302 116.0
267.876129 132.0
268.03241 264.0
268.045013 120.0
268.050873 224.0
268.080536 416.0
268.127045 156.0
268.179169 100.0
268.270447 160.0
268.42041 68.0
268.61145 188.0
268.991364 156.0
269.047821 1344.0
269.078094 436.0
269.084198 424.0
269.125214 52.0
269.174194 188.0
269.575989 168.0
269.626617 116.0
269.716522 52.0
269.857117 120.0
269.9552 120.0
270.051971 436.0
270.139008 120.0
270.172913 100.0
270.203796 344.0
270.248749 104.0
270.3172 92.0
270.344482 248.0
270.395111 256.0
270.442932 368.0
270.492798 116.0
270.526459 140.0
270.566101 136.0
270.60434 188.0
270.679749 168.0
270.756775 132.0
270.76416 124.0
270.774017 156.0
270.806458 152.0
270.867645 220.0
270.878265 152.0
270.889374 256.0
270.924774 148.0
270.946564 500.0
270.968536 124.0
271.063904 151416.0
271.17453 524.0
271.279327 272.0
271.303711 228.0
271.338654 124.0
271.367432 168.0
271.434601 72.0
271.44043 132.0
271.474304 216.0
271.53656 108.0
271.559448 52.0
271.603943 568.0
271.690674 80.0
271.742401 136.0
271.749451 84.0
271.764923 116.0
271.842102 120.0
271.865051 72.0
271.889282 188.0
271.925812 148.0
271.977722 92.0
272.065735 18736.0
272.133698 140.0
272.202209 148.0
272.282013 324.0
272.317322 72.0
272.379486 260.0
272.419952 48.0
272.461456 76.0
272.495514 84.0
272.550354 64.0
272.567352 60.0
272.573975 64.0
272.600464 64.0
272.635345 112.0
272.648315 72.0
272.692688 72.0
272.72821 104.0
272.792236 168.0
272.842682 512.0
272.878693 144.0
272.901306 120.0
272.9328 180.0
273.011871 212.0
273.060364 35840.0
273.155701 212.0
273.183044 72.0
273.223175 48.0
273.274048 168.0
273.29776 36.0
273.353699 92.0
273.418488 124.0
273.481476 68.0
273.514282 152.0
273.571838 124.0
273.637878 60.0
273.699768 88.0
273.750946 112.0
273.804718 104.0
273.838074 120.0
273.875732 36.0
273.922028 216.0
273.954712 52.0
273.975586 192.0
274.060822 3852.0
274.10733 176.0
274.120178 152.0
274.181885 144.0
274.238464 164.0
274.266296 64.0
274.310333 96.0
274.334686 104.0
274.345795 132.0
274.401123 80.0
274.500061 76.0
274.529724 60.0
274.582489 80.0
274.61792 76.0
274.6521 112.0
274.724335 92.0
274.767212 64.0
274.826599 60.0
274.897156 116.0
274.985016 92.0
275.031219 88.0
275.070831 180.0
275.114166 116.0
275.157867 164.0
275.216095 68.0
275.267822 84.0
275.321747 148.0
275.429688 124.0
275.473694 36.0
275.52124 72.0
275.614563 100.0
275.671936 28.0
275.731293 104.0
275.797516 156.0
275.866943 80.0
275.906616 40.0
275.947174 44.0
276.040771 104.0
276.081024 264.0
276.149689 252.0
276.306763 80.0
276.333252 96.0
276.444092 112.0
276.483612 180.0
276.558258 132.0
276.657593 28.0
276.73703 88.0
276.80658 112.0
276.948975 176.0
277.1875 28.0
277.323395 72.0
277.472565 56.0
277.532227 80.0
277.568726 52.0
277.671509 128.0
278.102844 168.0
278.228973 60.0
278.305328 180.0
278.351837 100.0
278.487976 80.0
279.07431 260.0
279.279663 88.0
279.418762 56.0
279.778198 64.0
279.854767 72.0
280.055389 116.0
280.64444 36.0
281.046356 500.0
281.10141 144.0
281.655609 172.0
281.882812 88.0
282.003113 72.0
282.05307 1316.0
282.789093 48.0
283.059204 204.0
283.88797 76.0
284.054657 488.0
284.089203 44.0
284.126129 44.0
284.196564 92.0
284.267029 60.0
284.421417 152.0
284.548981 52.0
284.730316 136.0
284.800842 216.0
284.931854 44.0
284.985626 36.0
285.079742 420.0
285.237671 100.0
285.536926 60.0
285.567169 52.0
286.018066 136.0
286.641113 56.0
286.678162 64.0
286.725342 68.0
286.991669 104.0
287.024994 148.0
287.076691 160.0
287.288452 104.0
287.335693 52.0
287.528015 84.0
287.679901 88.0
288.081787 176.0
288.32843 92.0
288.382507 76.0
288.439972 76.0
288.987823 188.0
289.01828 196.0
289.810577 160.0
289.966461 48.0
290.322449 28.0
290.352966 120.0
290.559875 100.0
290.661682 56.0
291.045227 64.0
291.653351 44.0
291.95343 108.0
292.524139 132.0
293.041779 168.0
293.130371 64.0
293.82254 84.0
294.061401 176.0
294.214996 56.0
294.303772 136.0
294.617981 44.0
294.914764 232.0
295.05954 584.0
295.541107 84.0
295.99292 116.0
296.066864 332.0
296.1539 152.0
296.31488 80.0
296.585602 200.0
296.746735 96.0
296.887329 132.0
297.078766 19536.0
297.137207 132.0
297.149353 112.0
297.160889 64.0
297.175446 44.0
297.208923 152.0
297.240173 172.0
297.323029 132.0
297.407257 176.0
297.432831 92.0
297.473602 64.0
297.573608 84.0
297.693115 144.0
297.773346 96.0
297.813965 124.0
297.88269 108.0
297.959045 68.0
297.990021 96.0
298.081055 3188.0
298.218201 80.0
298.253784 104.0
298.312225 188.0
298.3638 32.0
298.456635 36.0
298.680176 72.0
298.828094 112.0
298.939331 64.0
298.989807 168.0
299.017365 148.0
299.076202 4700.0
299.122314 316.0
299.161926 172.0
299.275543 68.0
299.316864 64.0
299.52005 116.0
299.591492 144.0
299.691071 124.0
299.786835 120.0
299.847382 68.0
299.926636 68.0
299.963593 128.0
300.080017 648.0
300.123138 164.0
300.154175 56.0
300.30246 148.0
300.392151 68.0
300.475433 56.0
300.619873 104.0
301.09137 288.0
301.711334 72.0
301.946472 108.0
302.223206 40.0
302.361633 88.0
303.009155 52.0
303.043793 40.0
303.099243 96.0
304.028595 100.0
304.108429 48.0
304.907227 52.0
305.070587 112.0
305.919403 104.0
307.320435 60.0
308.721161 96.0
309.046478 96.0
309.074493 36.0
310.209229 60.0
310.608978 68.0
311.033539 108.0
313.090363 116.0
313.643524 128.0
316.076843 84.0
316.459106 104.0
317.178284 76.0
317.483185 108.0
318.857117 108.0
319.845886 88.0
324.360931 64.0
326.087555 152.0
328.120819 3508.0
328.305115 40.0
328.359222 220.0
329.117188 284.0
329.358978 96.0
329.854034 224.0
330.118195 916.0
330.43988 80.0
331.033508 72.0
331.116608 376.0
331.207336 148.0
332.686859 92.0
333.85318 136.0
334.650085 44.0
339.821869 60.0
341.449188 48.0
342.848145 124.0
344.157684 48.0
346.939911 44.0
349.260803 60.0
349.513763 52.0
350.522858 116.0
351.052216 104.0
351.686432 76.0
357.179565 96.0
359.043945 84.0
360.096924 72.0
362.317352 48.0
365.206116 32.0
365.320221 132.0
368.136902 44.0
369.019592 100.0
369.061646 68.0
369.773163 136.0
375.544067 120.0
375.655914 52.0
375.75238 92.0
376.377655 32.0
383.223663 76.0
383.738159 80.0
384.615906 120.0
385.088348 88.0
386.120148 108.0
388.591888 60.0
392.438507 104.0
394.250336 108.0
394.357056 48.0
395.773285 60.0
396.966003 72.0
399.376709 48.0
400.256226 64.0
400.463318 32.0
401.555389 92.0
409.974609 92.0
412.105194 108.0
413.168488 96.0
414.686981 44.0
415.136993 96.0
415.396576 80.0
416.919159 60.0
417.528992 80.0
419.776917 136.0
420.686768 84.0
423.000519 76.0
424.959442 68.0
431.082428 88.0
436.745728 68.0
436.895508 112.0
438.302765 92.0
440.221619 80.0
442.496246 112.0
448.510315 80.0
448.752258 44.0
453.821777 32.0
455.362183 116.0
456.284302 108.0
456.509644 44.0
456.637238 100.0
459.768616 52.0
464.968445 72.0
467.0867 128.0
468.30481 92.0
470.232056 80.0
472.180573 36.0
477.971954 84.0
479.953857 96.0
483.501007 48.0
486.670319 100.0
486.885498 124.0
487.847748 116.0
490.334686 100.0
492.929565 128.0
496.462158 104.0
497.9711 72.0
498.317596 124.0
502.217255 52.0
504.00296 92.0
506.338104 76.0
507.391113 44.0
508.027924 84.0
512.848389 48.0
520.68927 92.0
530.490356 40.0
534.168579 84.0
537.084412 152.0
537.541138 56.0
549.092712 72.0
558.756348 48.0
563.650513 68.0
564.865601 68.0
569.007446 124.0
570.20929 132.0
570.703674 64.0
577.226685 104.0
581.068054 44.0
593.366638 96.0
594.856018 40.0
595.156982 72.0
605.955688 40.0
606.754578 52.0
613.785583 20.0
620.04895 52.0
621.745056 48.0
637.918518 116.0
640.394165 60.0
646.761169 32.0
652.218994 84.0
656.001099 64.0
676.498535 108.0
677.347839 44.0
681.820312 52.0
690.411926 64.0
693.988403 80.0
694.544312 96.0
700.57373 88.0
709.971619 88.0
711.674988 36.0
733.265869 92.0
737.57843 76.0
741.177368 64.0
767.932983 36.0
771.002625 84.0
784.133728 44.0
790.74646 108.0
792.011841 72.0
800.31781 120.0
822.433411 60.0
840.771118 72.0
846.204712 72.0
852.713257 120.0
855.55188 136.0
858.745117 296.0
865.787659 60.0
868.706543 56.0
887.953491 84.0
891.913757 48.0
896.228394 88.0
909.114807 128.0
928.068054 84.0
933.18042 84.0
934.427246 112.0
947.09436 28.0
949.766785 52.0
954.29895 92.0
960.364746 64.0
968.783875 80.0
970.184448 108.0
974.416992 108.0
981.680969 184.0
988.971863 160.0
993.872559 124.0
999.282349 96.0
1000.075256 208.0
1002.60083 212.0
1008.520935 140.0
1010.152344 72.0
1017.567078 68.0
1035.088867 48.0
1046.093384 124.0
1050.972168 128.0
1052.786011 176.0
1056.936035 160.0
1067.171387 60.0
1075.412109 56.0
1076.65918 144.0
1080.496094 64.0
1086.484131 156.0
1087.816284 80.0
1102.577026 84.0
1107.009399 36.0
1115.953979 44.0
1117.210938 168.0
1122.139282 160.0
1123.122925 40.0
1127.967407 236.0
1128.067627 80.0
1135.466431 44.0
1137.177368 116.0
1140.77771 52.0
1141.234863 68.0
1151.673706 92.0
1153.052002 48.0
1155.378052 216.0
1159.440796 228.0
1161.705444 100.0
1167.390381 160.0
1174.105103 64.0
1175.264771 116.0
1178.726685 68.0
1178.952271 68.0
1180.7229 280.0
1188.429321 100.0
1190.241455 52.0
1194.69519 92.0
1224.257812 232.0
1231.022095 192.0
1234.551147 84.0
1236.909058 108.0
1237.049072 104.0
1240.65686 224.0
1241.133545 40.0
1242.157471 76.0
1244.677124 216.0
1248.162354 108.0
1248.471802 144.0
1248.941772 116.0
1250.047607 56.0
1253.216187 132.0
1253.568481 32.0
1255.479004 184.0
1259.311279 204.0
1259.551392 136.0
1261.339111 164.0
1265.824707 176.0
1266.001709 180.0
1272.064941 172.0
1274.620605 116.0
1276.269653 192.0
1276.746094 176.0
1277.827393 204.0
1283.20459 144.0
1284.459717 100.0
1291.338135 236.0
1292.325439 120.0
1293.792603 72.0
1299.224854 236.0
1300.157593 152.0
1303.834595 84.0
1306.027588 84.0
1306.343994 132.0
1306.955566 100.0
1307.005981 128.0
1308.107056 160.0
1310.63501 196.0
1312.393677 168.0
1315.589844 68.0
1317.185791 192.0
1319.19458 116.0
1324.926147 136.0
1326.636475 180.0
1327.289062 200.0
1335.429932 136.0
1337.598267 116.0
1338.654053 188.0
1342.961182 72.0
1347.991333 116.0
1351.552368 140.0
1352.781982 64.0
1352.97229 232.0
1358.065186 196.0
1359.033447 132.0
1360.831787 212.0
1363.160156 152.0
1363.674683 48.0
1372.862671 168.0
1375.636963 112.0
1376.308716 124.0
1376.485962 96.0
1382.155518 96.0
1383.480347 148.0
1383.598877 152.0
1386.754395 188.0
1391.709961 120.0
1392.786743 148.0
1395.714844 168.0
1395.937988 44.0
1396.845337 176.0
1398.623779 160.0
1399.077881 44.0
1403.533325 232.0
1403.921021 168.0
1404.419678 112.0
1406.629395 204.0
1408.84729 172.0
1413.041504 120.0
1417.069458 168.0
1418.53833 156.0
1420.953125 160.0
1422.611694 128.0
1422.972046 136.0
1426.638306 120.0
1426.984131 172.0
1428.962158 172.0
1429.112671 156.0
1435.756714 240.0
1448.363647 52.0
1450.985596 212.0
1454.277832 192.0
1455.363403 172.0
1458.189331 236.0
1460.280151 184.0
1461.261475 124.0
1464.862427 148.0
1470.184448 56.0
1472.299072 160.0
1476.762451 104.0
1479.027222 168.0
1480.642822 180.0
1483.784424 148.0
1485.571289 96.0
1487.129028 132.0
1489.463257 124.0
1490.07019 164.0
1491.484131 40.0
1492.08374 176.0
1494.014038 188.0
1495.091309 120.0
1495.276001 164.0
1496.653931 76.0
1496.854126 120.0
1497.162231 128.0
1498.032593 128.0
1498.209717 164.0
1498.440918 184.0
1498.633545 176.0
1500.968994 28.0
1501.917603 176.0
1503.684448 148.0
1504.402344 216.0
