>compound MLS001142426-01!
>formula C25H25N3O4
>ionization [M+H]+
>parentmass 432.1917827320906
#inchi InChI=1S/C25H25N3O4/c1-30-15-9-10-22(31-2)19(12-15)24-23-18(17-7-3-4-8-20(17)27-23)13-21(28-24)25(29)26-14-16-6-5-11-32-16/h3-4,7-10,12-13,16,28H,5-6,11,14H2,1-2H3,(H,26,29)
#inchikey CXAAMKKGUZWBKP
#Ion_Source LC-ESI
#Instrument qTof
#Compound_Source NIH Natural Product Library
#PI Dorrestein
#Data_Collector VVP/LMS
#Scan -1
#Precursor_MZ 432.192
#ExactMass 431.185
#Charge 1
#CAS_Number N/A
#Pubmed_ID N/A
#Smiles COc1ccc(OC)c(c1)c2[nH]c(cc3c4ccccc4nc23)C(=O)NCC5CCCO5
#INCHI_AUX N/A
#Library_Class 1
#SpectrumID CCMSLIB00000080580
#IonMode Positive
#UpdateWorkflowName UPDATE-SINGLE-ANNOTATED-GOLD
#LibraryQualityString Gold
#TaskID b1d8e8f6646f4e71acdff9ca3d919d08
##Scan# 2324
#SpectrumFile p2-H10_GH10_01_18070.mzXML
#LibraryName NIH_Natural_Products_Library.mgf
#MQScore -1
#Organism NIH_Natural_Products_Library
#TIC_Query 0
#RT_Query -1
#MZErrorPPM -1
#SharedPeaks 0
#MassDiff 0
#LibMZ -1
#SpecMZ 432.192
#SpecCharge 0
#internalFilename spec-00000.mgf

>collision 10
94.955872 280.0
94.975693 120.0
94.99073 156.0
95.006622 140.0
95.028023 292.0
95.051003 200.0
95.066986 304.0
95.090103 160.0
95.113106 152.0
95.120995 156.0
95.14138 128.0
95.171188 96.0
95.188576 300.0
95.194496 124.0
95.216599 304.0
95.235855 56.0
95.268913 60.0
95.329468 160.0
95.335983 144.0
95.349632 268.0
95.362099 180.0
95.383614 164.0
95.396812 124.0
95.445297 128.0
95.459076 84.0
95.464935 92.0
95.503578 324.0
95.531433 140.0
95.564819 232.0
95.59375 132.0
95.615547 64.0
95.642014 180.0
95.664207 56.0
95.709915 300.0
95.749573 200.0
95.785431 132.0
95.803017 144.0
95.822052 84.0
95.849274 344.0
95.894409 112.0
95.946693 120.0
95.968109 340.0
95.985985 136.0
95.999817 184.0
96.020691 160.0
96.036186 152.0
96.0625 144.0
96.089851 248.0
96.105293 240.0
96.137383 400.0
96.161545 168.0
96.187988 188.0
96.213799 220.0
96.234734 360.0
96.254166 48.0
96.266434 240.0
96.293617 156.0
96.298653 164.0
96.31395 176.0
96.332634 148.0
96.357491 260.0
96.373192 108.0
96.380417 128.0
96.422104 124.0
96.436211 200.0
96.447311 176.0
96.467812 128.0
96.496506 80.0
96.512672 188.0
96.54541 116.0
96.559425 300.0
96.578423 136.0
96.601868 136.0
96.622849 76.0
96.644806 120.0
96.664017 176.0
96.683571 200.0
96.701874 128.0
96.722244 164.0
96.735825 128.0
96.765816 516.0
96.785034 380.0
96.801331 324.0
96.815346 116.0
96.833267 324.0
96.856102 132.0
96.87851 208.0
96.921356 156.0
96.957397 136.0
96.995499 128.0
97.007355 88.0
97.015831 124.0
97.032326 184.0
97.072296 240.0
97.089218 148.0
97.115639 468.0
97.144585 160.0
97.157883 160.0
97.178513 44.0
97.198822 228.0
97.216156 68.0
97.239861 268.0
97.252525 124.0
97.272285 60.0
97.284904 312.0
97.297935 132.0
97.333939 108.0
97.354553 64.0
97.374451 152.0
97.395874 164.0
97.424721 256.0
97.444138 232.0
97.466599 104.0
97.493057 228.0
97.510742 156.0
97.534401 112.0
97.581886 152.0
97.6035 152.0
97.631325 168.0
97.64801 256.0
97.68177 184.0
97.733002 128.0
97.750572 80.0
97.765007 168.0
97.792885 116.0
97.808685 168.0
97.841156 316.0
97.860901 104.0
97.878761 56.0
97.883026 136.0
97.904091 120.0
97.92218 196.0
97.957405 204.0
97.980728 88.0
97.999397 152.0
98.020454 48.0
98.03521 188.0
98.080658 76.0
98.115211 268.0
98.138725 36.0
98.159538 124.0
98.180946 132.0
98.200348 144.0
98.220352 164.0
98.252602 164.0
98.268478 308.0
98.297508 492.0
98.316971 144.0
98.331192 212.0
98.372314 144.0
98.396202 72.0
98.424835 80.0
98.455627 148.0
98.463203 76.0
98.498505 148.0
98.517891 112.0
98.549271 196.0
98.599098 148.0
98.625137 128.0
98.651405 192.0
98.674744 108.0
98.691063 136.0
98.722565 160.0
98.745758 296.0
98.759758 152.0
98.784538 60.0
98.81044 172.0
98.83493 196.0
98.850868 276.0
98.858131 144.0
98.863342 160.0
98.888817 276.0
98.908546 204.0
98.929001 64.0
98.968437 144.0
98.978172 92.0
98.985085 136.0
99.00341 160.0
99.040878 264.0
99.069138 220.0
99.082436 88.0
99.103546 124.0
99.120781 224.0
99.154816 140.0
99.174507 96.0
99.182472 84.0
99.189705 172.0
99.237915 160.0
99.255653 208.0
99.2686 132.0
99.275108 136.0
99.295578 116.0
99.316887 192.0
99.338829 268.0
99.369812 76.0
99.38485 84.0
99.408516 272.0
99.469147 344.0
99.490707 204.0
99.499359 156.0
99.525444 164.0
99.554504 204.0
99.591339 620.0
99.611343 144.0
99.635017 52.0
99.662834 164.0
99.681152 92.0
99.703209 196.0
99.722473 320.0
99.735962 228.0
99.767906 68.0
99.776993 160.0
99.797997 100.0
99.839333 168.0
99.855423 196.0
99.858452 272.0
99.868355 112.0
99.895805 160.0
99.917786 292.0
99.948792 380.0
99.976692 164.0
99.998283 148.0
100.014359 316.0
100.03569 200.0
100.056931 136.0
100.084114 212.0
100.101021 160.0
100.129463 188.0
100.165619 328.0
100.219673 268.0
100.226433 132.0
100.235748 192.0
100.24292 228.0
100.284409 72.0
100.316551 96.0
100.335571 36.0
100.377014 284.0
100.39502 200.0
100.415268 212.0
100.460136 148.0
100.476334 156.0
100.508217 136.0
100.524963 80.0
100.553307 92.0
100.586571 112.0
100.590012 140.0
100.642281 168.0
100.675613 116.0
100.687973 324.0
100.726463 96.0
100.755127 180.0
100.775009 144.0
100.806549 168.0
100.826508 388.0
100.866104 344.0
100.887581 176.0
100.906792 188.0
100.95015 228.0
100.980568 104.0
101.018318 304.0
101.038338 300.0
101.095894 112.0
101.127243 156.0
101.152863 144.0
101.178932 160.0
101.19635 168.0
101.222916 252.0
101.250572 300.0
101.253036 204.0
101.280457 128.0
101.29303 356.0
101.305153 204.0
101.325928 84.0
101.361946 88.0
101.38279 140.0
101.403503 272.0
101.416733 180.0
101.460052 332.0
101.49929 412.0
101.543999 204.0
101.550781 156.0
101.574799 80.0
101.612885 80.0
101.630836 240.0
101.659492 208.0
101.682587 156.0
101.73024 348.0
101.739594 112.0
101.745728 168.0
101.777275 152.0
101.804085 128.0
101.824875 172.0
101.843216 124.0
101.868027 124.0
101.890007 164.0
101.924805 112.0
101.953796 80.0
101.971359 156.0
102.0028 288.0
102.022598 140.0
102.05249 184.0
102.081596 88.0
102.09568 180.0
102.116653 140.0
102.136429 152.0
102.149826 456.0
102.185822 220.0
102.220306 156.0
102.241821 228.0
102.288574 232.0
102.312126 408.0
102.342735 148.0
102.392899 360.0
102.421738 132.0
102.448471 176.0
102.490631 504.0
102.506523 168.0
102.52449 104.0
102.560844 256.0
102.588165 132.0
102.604187 268.0
102.6213 164.0
102.650673 108.0
102.668175 216.0
102.69841 220.0
102.723366 120.0
102.737274 324.0
102.755722 312.0
102.788071 168.0
102.802055 312.0
102.832176 196.0
102.857018 232.0
102.883682 108.0
102.89505 136.0
102.898674 136.0
102.930351 144.0
102.962395 312.0
102.985977 120.0
103.00676 200.0
103.050323 164.0
103.079117 112.0
103.095619 120.0
103.121895 136.0
103.143814 52.0
103.167336 100.0
103.194817 108.0
103.231636 156.0
103.25544 148.0
103.283394 156.0
103.297348 88.0
103.305847 152.0
103.313225 84.0
103.331444 192.0
103.354263 232.0
103.370117 132.0
103.40139 56.0
103.418861 184.0
103.434738 84.0
103.487312 176.0
103.512146 312.0
103.552429 136.0
103.571945 148.0
103.591881 188.0
103.613403 292.0
103.649384 216.0
103.664284 176.0
103.68856 188.0
103.694466 228.0
103.729752 160.0
103.756355 384.0
103.800476 152.0
103.81208 44.0
103.823853 308.0
103.854797 136.0
103.859886 260.0
103.885536 228.0
103.917747 56.0
103.966988 376.0
103.996689 280.0
104.041229 100.0
104.073196 316.0
104.09536 196.0
104.112 340.0
104.140373 156.0
104.15686 188.0
104.179092 160.0
104.2033 168.0
104.234337 88.0
104.249939 108.0
104.285606 168.0
104.315804 120.0
104.341217 152.0
104.37883 288.0
104.410408 156.0
104.424973 128.0
104.441879 152.0
104.459305 356.0
104.477425 232.0
104.500626 300.0
104.517624 280.0
104.543228 236.0
104.572708 228.0
104.601768 132.0
104.625885 140.0
104.662148 104.0
104.688942 204.0
104.705605 140.0
104.712967 172.0
104.73381 276.0
104.781639 276.0
104.80426 128.0
104.826675 148.0
104.863167 124.0
104.885162 172.0
104.909027 148.0
104.925949 192.0
104.958862 156.0
104.964127 140.0
104.983337 80.0
105.011612 140.0
105.026993 136.0
105.057961 68.0
105.071861 192.0
105.0867 52.0
105.112236 124.0
105.138931 136.0
105.16629 300.0
105.183296 108.0
105.196526 344.0
105.221657 56.0
105.225327 100.0
105.248154 132.0
105.270348 124.0
105.276123 88.0
105.284439 144.0
105.303986 104.0
105.311913 148.0
105.328651 184.0
105.341858 192.0
105.36721 440.0
105.383904 196.0
105.407135 152.0
105.432983 164.0
105.455261 76.0
105.477745 156.0
105.521637 336.0
105.53653 164.0
105.568298 144.0
105.592247 160.0
105.627747 400.0
105.646309 168.0
105.667778 204.0
105.683685 212.0
105.707954 244.0
105.747742 72.0
105.763741 108.0
105.784172 172.0
105.814148 128.0
105.846466 332.0
105.867218 164.0
105.898834 340.0
105.913498 160.0
105.921196 152.0
105.924728 268.0
105.950089 192.0
105.974754 136.0
105.989601 120.0
105.99633 84.0
106.002815 124.0
106.02993 148.0
106.045708 252.0
106.070152 212.0
106.112465 304.0
106.128181 228.0
106.153542 108.0
106.169434 204.0
106.177124 152.0
106.183144 156.0
106.215935 428.0
106.23954 100.0
106.254448 240.0
106.276695 180.0
106.293823 100.0
106.317909 156.0
106.335976 92.0
106.352402 136.0
106.377029 56.0
106.398254 240.0
106.428726 156.0
106.448051 204.0
106.483307 164.0
106.499428 152.0
106.538109 168.0
106.576248 72.0
106.600822 196.0
106.625984 100.0
106.662964 104.0
106.696358 256.0
106.711136 176.0
106.733788 200.0
106.755089 100.0
106.796997 124.0
106.812584 176.0
106.830597 304.0
106.849709 84.0
106.866165 164.0
106.886093 216.0
106.890068 176.0
106.894096 112.0
106.89769 176.0
106.923058 108.0
106.949341 164.0
106.977806 264.0
107.011482 180.0
107.017487 108.0
107.027939 128.0
107.035179 184.0
107.048599 200.0
107.081345 144.0
107.109344 200.0
107.132462 140.0
107.167427 256.0
107.172958 144.0
107.17997 120.0
107.212486 156.0
107.230667 68.0
107.254295 116.0
107.287766 232.0
107.310448 256.0
107.331062 84.0
107.347824 188.0
107.414772 124.0
107.432739 124.0
107.451309 108.0
107.484642 180.0
107.504211 44.0
107.524345 316.0
107.547028 220.0
107.572929 164.0
107.588715 176.0
107.606102 160.0
107.628113 192.0
107.663452 88.0
107.684853 60.0
107.704155 100.0
107.734154 184.0
107.759598 164.0
107.780121 32.0
107.801338 380.0
107.818756 284.0
107.831543 192.0
107.875694 212.0
107.901848 108.0
107.944603 200.0
107.968636 200.0
107.99321 244.0
108.020058 132.0
108.03894 104.0
108.051437 136.0
108.071152 348.0
108.112541 124.0
108.149864 208.0
108.164688 252.0
108.177498 88.0
108.193138 200.0
108.212936 148.0
108.228142 268.0
108.28051 60.0
108.298241 132.0
108.329758 292.0
108.360222 164.0
108.377602 200.0
108.391472 92.0
108.413498 148.0
108.434326 128.0
108.45195 176.0
108.468307 120.0
108.474541 160.0
108.498779 196.0
108.536583 196.0
108.556686 192.0
108.593071 196.0
108.611252 108.0
108.632614 160.0
108.676865 180.0
108.721123 152.0
108.729614 120.0
108.772743 144.0
108.790619 288.0
108.817871 60.0
108.850662 136.0
108.868233 216.0
108.887566 188.0
108.910042 240.0
108.928543 72.0
108.954391 216.0
108.974525 152.0
109.000801 172.0
109.01754 92.0
109.049667 352.0
109.087158 308.0
109.109764 152.0
109.131058 176.0
109.153839 180.0
109.197311 144.0
109.223526 152.0
109.276291 300.0
109.326195 116.0
109.35157 124.0
109.371719 176.0
109.401054 316.0
109.414383 92.0
109.434067 152.0
109.45472 116.0
109.47419 92.0
109.484047 52.0
109.506615 336.0
109.53376 64.0
109.554443 176.0
109.581802 236.0
109.617348 188.0
109.643616 152.0
109.666611 188.0
109.707764 48.0
109.737694 124.0
109.7724 60.0
109.790535 92.0
109.81691 224.0
109.830437 208.0
109.881386 48.0
109.904427 124.0
109.926826 144.0
109.956932 224.0
109.983368 276.0
110.005081 156.0
110.012627 164.0
110.036537 252.0
110.063095 200.0
110.08873 184.0
110.118073 172.0
110.143288 364.0
110.176842 172.0
110.198227 116.0
110.223045 100.0
110.228943 228.0
110.235603 180.0
110.272934 112.0
110.29921 248.0
110.338715 164.0
110.354317 176.0
110.359535 68.0
110.388435 136.0
110.411896 92.0
110.42115 104.0
110.445206 136.0
110.481094 252.0
110.511475 132.0
110.520447 76.0
110.535858 144.0
110.560966 140.0
110.574631 136.0
110.59462 184.0
110.609764 112.0
110.62487 244.0
110.646393 64.0
110.666023 152.0
110.699394 180.0
110.723755 344.0
110.749802 260.0
110.772949 116.0
110.791077 120.0
110.812141 76.0
110.826439 212.0
110.858185 132.0
110.880966 172.0
110.904396 188.0
110.952286 56.0
110.974045 104.0
110.989662 104.0
111.015549 184.0
111.044861 168.0
111.072662 188.0
111.090416 148.0
111.108658 104.0
111.130684 104.0
111.13694 308.0
111.169357 160.0
111.188271 152.0
111.218102 160.0
111.236488 100.0
111.272682 64.0
111.289474 152.0
111.315117 180.0
111.331009 360.0
111.375175 144.0
111.395302 124.0
111.413582 180.0
111.442757 312.0
111.455765 280.0
111.472389 104.0
111.521088 48.0
111.552536 288.0
111.581985 292.0
111.605087 160.0
111.625313 292.0
111.643349 260.0
111.662659 144.0
111.698959 244.0
111.724541 164.0
111.756393 144.0
111.780899 152.0
111.805321 72.0
111.831863 36.0
111.838173 120.0
111.848076 148.0
111.851517 224.0
111.87059 80.0
111.901329 160.0
111.917763 184.0
111.949829 244.0
111.978271 268.0
112.023476 60.0
112.042274 156.0
112.061989 216.0
112.094482 72.0
112.09832 192.0
112.128838 100.0
112.15126 368.0
112.182434 84.0
112.207634 240.0
112.242676 48.0
112.273399 208.0
112.289474 216.0
112.337059 196.0
112.350594 212.0
112.365822 88.0
112.383492 100.0
112.417259 192.0
112.443443 148.0
112.467697 124.0
112.515472 220.0
112.536896 64.0
112.564781 56.0
112.577827 68.0
112.585777 164.0
112.605751 92.0
112.638878 132.0
112.676971 176.0
112.703239 232.0
112.721794 184.0
112.737518 176.0
112.771904 164.0
112.805511 152.0
112.826691 120.0
112.850677 148.0
112.88488 132.0
112.910629 216.0
112.934502 144.0
112.952042 64.0
112.967026 188.0
113.005791 212.0
113.035568 136.0
113.058098 88.0
113.096291 308.0
113.112778 284.0
113.127945 200.0
113.142555 172.0
113.159355 460.0
113.189507 108.0
113.228325 128.0
113.254997 108.0
113.273476 144.0
113.301537 108.0
113.321556 200.0
113.34272 112.0
113.371437 180.0
113.40377 144.0
113.420052 76.0
113.443192 148.0
113.472519 280.0
113.49704 160.0
113.540886 100.0
113.564461 68.0
113.616318 100.0
113.637489 132.0
113.655685 52.0
113.680138 244.0
113.726425 124.0
113.746819 204.0
113.770454 124.0
113.803825 152.0
113.832642 56.0
113.859039 136.0
113.891708 320.0
113.923912 60.0
113.939575 144.0
113.947449 68.0
113.957077 220.0
113.991409 120.0
113.997627 184.0
114.018646 96.0
114.032333 336.0
114.055389 196.0
114.087021 48.0
114.112175 240.0
114.131752 200.0
114.169716 296.0
114.201668 40.0
114.259224 132.0
114.270775 148.0
114.274742 160.0
114.297401 192.0
114.326675 148.0
114.365562 152.0
114.400002 72.0
114.428406 168.0
114.465172 108.0
114.495567 140.0
114.519943 180.0
114.54995 156.0
114.567848 100.0
114.609306 128.0
114.646751 80.0
114.668076 200.0
114.682121 128.0
114.685745 116.0
114.695114 184.0
114.702202 112.0
114.721039 184.0
114.780502 136.0
114.785072 128.0
114.792526 148.0
114.803551 120.0
114.838112 432.0
114.858215 172.0
114.878952 164.0
114.898788 96.0
114.922577 80.0
114.952637 172.0
114.996414 80.0
115.015625 100.0
115.049423 72.0
115.083176 156.0
115.108063 272.0
115.114716 192.0
115.121269 208.0
115.165459 164.0
115.193275 184.0
115.227226 72.0
115.256042 84.0
115.281158 208.0
115.327148 128.0
115.340355 184.0
115.388069 316.0
115.400101 132.0
115.406395 124.0
115.428551 132.0
115.46254 496.0
115.499268 200.0
115.52121 252.0
115.540718 140.0
115.572655 108.0
115.590462 108.0
115.61631 152.0
115.648247 192.0
115.667305 120.0
115.674995 104.0
115.679108 168.0
115.704132 160.0
115.727531 208.0
115.767349 100.0
115.801376 124.0
115.82476 60.0
115.860031 416.0
115.878777 124.0
115.905121 176.0
115.934395 56.0
115.956627 132.0
116.017792 300.0
116.044937 180.0
116.067917 156.0
116.081635 192.0
116.115402 88.0
116.160446 260.0
116.187675 280.0
116.222252 364.0
116.244019 316.0
116.267113 212.0
116.298492 300.0
116.333611 152.0
116.350067 156.0
116.373154 220.0
116.401703 168.0
116.421532 192.0
116.445038 116.0
116.45237 188.0
116.457451 132.0
116.472427 168.0
116.529465 140.0
116.535194 220.0
116.565239 88.0
116.601265 120.0
116.629105 144.0
116.669487 224.0
116.698242 112.0
116.717216 68.0
116.739212 184.0
116.77301 88.0
116.795868 144.0
116.838844 364.0
116.877281 168.0
116.908752 140.0
116.935875 196.0
116.986137 176.0
117.00132 168.0
117.022247 52.0
117.057831 624.0
117.082329 40.0
117.10379 384.0
117.116386 292.0
117.175201 512.0
117.195999 120.0
117.226646 172.0
117.246841 92.0
117.283554 136.0
117.308327 112.0
117.336769 200.0
117.364532 220.0
117.379936 116.0
117.422173 148.0
117.473358 152.0
117.489716 128.0
117.523582 108.0
117.554886 276.0
117.591606 172.0
117.610786 128.0
117.627411 176.0
117.642647 132.0
117.666077 288.0
117.674995 172.0
117.710403 84.0
117.733109 76.0
117.746628 172.0
117.777557 136.0
117.795868 172.0
117.814171 204.0
117.829567 324.0
117.848335 148.0
117.875603 168.0
117.898132 96.0
117.917358 68.0
117.951309 204.0
117.982979 352.0
118.03421 208.0
118.056763 352.0
118.086205 152.0
118.112022 164.0
118.155357 144.0
118.192139 152.0
118.223259 192.0
118.247787 84.0
118.277626 152.0
118.284958 72.0
118.295364 144.0
118.29895 80.0
118.332397 100.0
118.378014 60.0
118.397789 92.0
118.418587 188.0
118.45726 140.0
118.486725 140.0
118.518799 160.0
118.54702 76.0
118.575562 148.0
118.609756 188.0
118.627213 68.0
118.656815 136.0
118.676033 60.0
118.700989 184.0
118.722649 316.0
118.770081 208.0
118.805817 116.0
118.828407 252.0
118.840607 148.0
118.872299 332.0
118.897774 164.0
118.936127 236.0
118.945587 68.0
118.951683 172.0
118.969902 80.0
118.975632 156.0
118.990959 556.0
119.01561 164.0
119.018639 148.0
119.051613 120.0
119.082993 112.0
119.096672 188.0
119.137451 76.0
119.166618 156.0
119.200462 76.0
119.219193 136.0
119.238617 72.0
119.262405 232.0
119.284332 184.0
119.299561 152.0
119.329796 200.0
119.37793 88.0
119.405563 160.0
119.427673 396.0
119.456909 336.0
119.494293 176.0
119.522293 148.0
119.538094 124.0
119.564857 224.0
119.586472 160.0
119.602455 120.0
119.608994 100.0
119.614807 204.0
119.63459 100.0
119.661591 120.0
119.681519 148.0
119.70356 252.0
119.724739 156.0
119.747002 240.0
119.762749 320.0
119.792763 336.0
119.807381 144.0
119.838013 240.0
119.85154 232.0
119.88723 256.0
119.903076 164.0
119.916084 136.0
119.92614 192.0
119.93248 308.0
119.957077 108.0
119.983803 72.0
120.007195 200.0
120.016327 124.0
120.026611 176.0
120.049698 72.0
120.06382 164.0
120.079758 112.0
120.086212 116.0
120.092224 136.0
120.102509 72.0
120.109436 116.0
120.115616 172.0
120.133621 152.0
120.149796 120.0
120.172401 144.0
120.195557 160.0
120.224243 100.0
120.247147 304.0
120.279091 164.0
120.317146 128.0
120.36657 260.0
120.411781 176.0
120.42746 196.0
120.463646 204.0
120.484467 200.0
120.509216 148.0
120.541801 216.0
120.562103 228.0
120.605927 164.0
120.630814 152.0
120.638359 84.0
120.646294 128.0
120.660851 164.0
120.680801 128.0
120.705841 264.0
120.722343 124.0
120.757065 112.0
120.783478 108.0
120.801971 80.0
120.860435 276.0
120.890877 124.0
120.92189 168.0
120.946915 120.0
120.951393 128.0
120.992668 96.0
120.996941 168.0
121.016953 196.0
121.063881 1776.0
121.102028 112.0
121.128258 124.0
121.14283 136.0
121.193672 228.0
121.223213 144.0
121.239906 268.0
121.256256 56.0
121.286736 124.0
121.327499 88.0
121.351341 160.0
121.37439 100.0
121.398193 200.0
121.432938 96.0
121.454887 88.0
121.478401 144.0
121.51429 96.0
121.541023 136.0
121.58963 216.0
121.624207 292.0
121.661926 196.0
121.685059 152.0
121.724602 176.0
121.758133 112.0
121.783844 140.0
121.82238 160.0
121.838638 124.0
121.854813 176.0
121.871048 208.0
121.888596 132.0
121.911293 292.0
121.955948 112.0
122.004761 280.0
122.035561 88.0
122.064941 288.0
122.101311 140.0
122.113121 300.0
122.149925 124.0
122.187225 176.0
122.193924 152.0
122.204773 176.0
122.211105 232.0
122.26973 176.0
122.293419 56.0
122.321564 144.0
122.339172 176.0
122.369324 120.0
122.390015 212.0
122.394676 172.0
122.443993 232.0
122.4599 136.0
122.496567 144.0
122.52066 200.0
122.541115 104.0
122.550537 124.0
122.556023 96.0
122.592148 240.0
122.638237 148.0
122.675262 96.0
122.708549 188.0
122.727806 112.0
122.752388 52.0
122.770561 440.0
122.795303 180.0
122.812714 148.0
122.832802 128.0
122.854858 180.0
122.872513 148.0
122.891891 92.0
122.910019 240.0
122.927734 440.0
122.963593 116.0
122.968292 204.0
123.004883 220.0
123.025894 160.0
123.044624 1440.0
123.107803 144.0
123.129051 240.0
123.155785 308.0
123.171455 164.0
123.197411 48.0
123.216896 200.0
123.246613 156.0
123.267746 124.0
123.292747 232.0
123.323647 164.0
123.347488 152.0
123.369812 204.0
123.408073 132.0
123.42997 208.0
123.465523 100.0
123.487503 120.0
123.504311 52.0
123.521873 64.0
123.538872 148.0
123.558945 180.0
123.588249 136.0
123.618515 244.0
123.665054 132.0
123.689873 172.0
123.707893 60.0
123.726532 252.0
123.760117 324.0
123.785072 224.0
123.825768 256.0
123.84642 320.0
123.866783 212.0
123.926254 80.0
123.94384 216.0
123.959694 128.0
123.976402 232.0
123.994652 252.0
124.045601 376.0
124.065071 152.0
124.080757 148.0
124.087685 84.0
124.117645 136.0
124.13253 184.0
124.157692 164.0
124.177101 80.0
124.207954 188.0
124.242096 228.0
124.268936 160.0
124.307846 236.0
124.341972 172.0
124.374313 76.0
124.389168 332.0
124.406311 168.0
124.421486 336.0
124.453262 228.0
124.487206 284.0
124.496552 192.0
124.504906 180.0
124.549492 476.0
124.601242 268.0
124.632912 220.0
124.650452 272.0
124.675682 112.0
124.684669 152.0
124.692451 236.0
124.72641 56.0
124.760452 120.0
124.779442 52.0
124.814751 164.0
124.818924 212.0
124.829895 180.0
124.8349 384.0
124.866104 164.0
124.873581 152.0
124.903236 152.0
124.926392 164.0
124.952438 128.0
124.97818 204.0
125.002632 248.0
125.017586 168.0
125.049988 136.0
125.056557 164.0
125.088676 184.0
125.104263 72.0
125.119843 60.0
125.145248 200.0
125.194839 172.0
125.198807 104.0
125.20977 156.0
125.216705 112.0
125.224022 148.0
125.251236 120.0
125.268547 176.0
125.286469 132.0
125.294319 200.0
125.326981 52.0
125.368011 92.0
125.412582 112.0
125.427269 84.0
125.444183 156.0
125.478722 344.0
125.506119 208.0
125.53299 168.0
125.558968 176.0
125.582611 96.0
125.604347 120.0
125.629799 120.0
125.658882 112.0
125.6782 140.0
125.698318 264.0
125.723335 108.0
125.742363 60.0
125.74984 144.0
125.764267 352.0
125.789368 160.0
125.819252 56.0
125.843292 136.0
125.864548 352.0
125.885994 168.0
125.907906 144.0
125.933693 100.0
125.962311 140.0
125.987106 124.0
126.006157 108.0
126.02314 108.0
126.04142 88.0
126.097397 176.0
126.138199 132.0
126.165504 144.0
126.182358 360.0
126.221199 92.0
126.250069 116.0
126.274628 48.0
126.30336 104.0
126.342201 120.0
126.362389 104.0
126.383728 280.0
126.407578 352.0
126.448586 80.0
126.472649 336.0
126.504852 144.0
126.521988 96.0
126.55687 116.0
126.60331 156.0
126.63102 144.0
126.63829 188.0
126.655991 200.0
126.684494 172.0
126.733162 208.0
126.764389 76.0
126.796486 184.0
126.804214 124.0
126.809814 120.0
126.840981 276.0
126.871468 108.0
126.902534 184.0
126.932861 144.0
126.956589 236.0
126.980972 204.0
127.00145 108.0
127.034897 192.0
127.042625 144.0
127.069954 52.0
127.077881 124.0
127.086189 124.0
127.105133 264.0
127.135941 156.0
127.155983 128.0
127.175018 120.0
127.199928 176.0
127.25573 156.0
127.279739 156.0
127.301422 140.0
127.310364 144.0
127.315247 108.0
127.332512 104.0
127.349876 272.0
127.371819 76.0
127.396225 236.0
127.437531 300.0
127.45472 148.0
127.487267 268.0
127.518379 88.0
127.535774 168.0
127.552933 60.0
127.559608 56.0
127.573967 96.0
127.581009 88.0
127.597786 268.0
127.624603 92.0
127.670326 300.0
127.699539 60.0
127.705254 152.0
127.74395 176.0
127.75338 136.0
127.763741 140.0
127.768501 184.0
127.789886 208.0
127.802399 376.0
127.819221 116.0
127.843124 148.0
127.86573 96.0
127.889069 344.0
127.925003 172.0
127.967079 64.0
127.992279 236.0
128.049255 5372.0
128.115585 136.0
128.144348 304.0
128.159271 132.0
128.186279 108.0
128.205368 68.0
128.210068 64.0
128.218948 128.0
128.234131 240.0
128.261627 188.0
128.31604 300.0
128.323853 352.0
128.332794 180.0
128.367157 512.0
128.392548 64.0
128.398666 132.0
128.415482 144.0
128.477905 128.0
128.504211 88.0
128.537369 148.0
128.584015 88.0
128.604111 180.0
128.626648 156.0
128.654221 216.0
128.696579 208.0
128.720474 216.0
128.760193 60.0
128.790543 112.0
128.817535 332.0
128.835449 156.0
128.841431 88.0
128.860474 232.0
128.879684 148.0
128.903229 196.0
128.9272 312.0
128.953323 244.0
128.96199 56.0
128.967422 232.0
129.009842 336.0
129.048279 544.0
129.098022 104.0
129.10173 92.0
129.1315 272.0
129.17572 68.0
129.20401 128.0
129.231308 300.0
129.248718 184.0
129.291962 144.0
129.319138 208.0
129.342728 144.0
129.381226 204.0
129.399643 152.0
129.423721 196.0
129.45224 300.0
129.473969 100.0
129.508072 64.0
129.52832 116.0
129.547729 240.0
129.579071 368.0
129.597427 176.0
129.622726 108.0
129.635452 100.0
129.663376 212.0
129.687958 232.0
129.724243 140.0
129.744476 168.0
129.762955 172.0
129.791229 116.0
129.807739 256.0
129.828705 80.0
129.843384 188.0
129.893463 108.0
129.910339 108.0
129.942413 184.0
129.971725 152.0
130.008514 152.0
130.017441 192.0
130.06514 1444.0
130.110901 188.0
130.16217 144.0
130.189453 164.0
130.227386 168.0
130.238129 48.0
130.253265 228.0
130.283737 96.0
130.338562 316.0
130.410263 160.0
130.429214 404.0
130.445938 264.0
130.481461 48.0
130.514435 256.0
130.537109 128.0
130.568604 220.0
130.587418 276.0
130.645584 424.0
130.684753 180.0
130.710632 256.0
130.746094 356.0
130.776978 200.0
130.800247 136.0
130.834106 60.0
130.852142 180.0
130.872391 232.0
130.888229 52.0
130.899429 52.0
130.916992 296.0
130.941696 184.0
130.978867 148.0
131.003693 136.0
131.048141 612.0
131.089371 276.0
131.115814 208.0
131.147018 128.0
131.164566 200.0
131.187103 116.0
131.214569 132.0
131.243439 268.0
131.275726 100.0
131.311798 320.0
131.361023 136.0
131.377792 348.0
131.383087 144.0
131.391556 316.0
131.426559 112.0
131.435257 208.0
131.443802 144.0
131.45015 180.0
131.481583 76.0
131.518265 188.0
131.540802 104.0
131.55719 272.0
131.574707 132.0
131.614517 112.0
131.651474 196.0
131.658661 52.0
131.668808 136.0
131.699707 136.0
131.714355 216.0
131.729233 152.0
131.750412 112.0
131.797348 232.0
131.844818 164.0
131.8508 100.0
131.860168 220.0
131.875381 392.0
131.892593 132.0
131.927338 80.0
131.959442 148.0
131.991577 100.0
132.049866 148.0
132.121857 124.0
132.137955 236.0
132.168427 228.0
132.201202 64.0
132.209137 60.0
132.213516 88.0
132.235565 80.0
132.261368 336.0
132.277206 176.0
132.294662 104.0
132.314941 180.0
132.360352 236.0
132.395233 168.0
132.444321 136.0
132.46553 148.0
132.497421 188.0
132.518875 60.0
132.555664 244.0
132.581863 308.0
132.62645 160.0
132.658936 256.0
132.685242 152.0
132.720398 180.0
132.743729 232.0
132.7845 88.0
132.80011 384.0
132.841965 108.0
132.864822 152.0
132.890564 176.0
132.91861 264.0
132.937851 84.0
132.971802 92.0
132.99147 196.0
133.040207 228.0
133.058975 252.0
133.086029 208.0
133.107773 180.0
133.157959 124.0
133.185822 328.0
133.223389 184.0
133.232086 136.0
133.254868 368.0
133.291214 184.0
133.317322 164.0
133.339447 48.0
133.386154 120.0
133.425339 124.0
133.453384 84.0
133.470032 156.0
133.486588 168.0
133.51561 132.0
133.531876 104.0
133.558899 144.0
133.571945 120.0
133.618744 96.0
133.660309 188.0
133.685867 112.0
133.699448 244.0
133.732498 168.0
133.75473 120.0
133.758209 128.0
133.783066 76.0
133.813568 324.0
133.835495 196.0
133.860733 224.0
133.888397 80.0
133.906082 184.0
133.932281 156.0
133.962906 96.0
133.975113 116.0
134.008133 192.0
134.023956 80.0
134.070511 332.0
134.119461 248.0
134.140228 164.0
134.149887 164.0
134.155182 180.0
134.167053 92.0
134.176147 104.0
134.203964 140.0
134.238571 276.0
134.259094 280.0
134.287949 132.0
134.337921 376.0
134.363052 88.0
134.389877 152.0
134.415085 176.0
134.44075 272.0
134.460495 60.0
134.504044 212.0
134.540283 156.0
134.561111 192.0
134.59433 136.0
134.623306 184.0
134.630188 60.0
134.636978 172.0
134.680511 316.0
134.722748 132.0
134.747147 148.0
134.769943 92.0
134.78714 284.0
134.802917 176.0
134.861832 220.0
134.88385 308.0
134.908905 296.0
134.928909 304.0
134.950653 184.0
134.968521 284.0
134.984818 160.0
134.999969 188.0
135.017853 176.0
135.040955 172.0
135.063766 216.0
135.085861 160.0
135.125854 144.0
135.151459 200.0
135.173553 132.0
135.193115 88.0
135.20932 168.0
135.242416 104.0
135.313705 224.0
135.332947 128.0
135.354828 128.0
135.397736 152.0
135.404877 196.0
135.43158 96.0
135.453903 164.0
135.483063 144.0
135.50946 244.0
135.542297 76.0
135.566559 204.0
135.596268 160.0
135.608551 96.0
135.618179 168.0
135.633987 308.0
135.659714 200.0
135.694321 124.0
135.741592 276.0
135.800232 168.0
135.822083 180.0
135.829224 168.0
135.839462 104.0
135.848892 164.0
135.868484 372.0
135.898834 276.0
135.935333 328.0
135.98027 268.0
135.987976 200.0
136.007675 644.0
136.027527 160.0
136.046158 228.0
136.075378 176.0
136.080551 100.0
136.105911 120.0
136.135849 176.0
136.170746 200.0
136.205185 180.0
136.27066 164.0
136.276794 152.0
136.286346 252.0
136.328079 176.0
136.352707 156.0
136.385544 228.0
136.407761 140.0
136.463577 328.0
136.503159 172.0
136.523987 184.0
136.54599 208.0
136.573593 52.0
136.606094 244.0
136.639557 248.0
136.669083 192.0
136.71286 168.0
136.721405 116.0
136.727982 144.0
136.753204 124.0
136.769943 312.0
136.79718 132.0
136.831894 180.0
136.853836 124.0
136.878784 232.0
136.909561 148.0
136.94368 72.0
137.009811 224.0
137.052643 108.0
137.059464 372.0
137.084106 232.0
137.104172 172.0
137.145767 228.0
137.191315 208.0
137.210754 280.0
137.246826 192.0
137.281052 200.0
137.301773 416.0
137.338943 260.0
137.365753 160.0
137.387543 240.0
137.422943 160.0
137.455612 116.0
137.496246 164.0
137.52037 228.0
137.545258 168.0
137.584442 240.0
137.597198 76.0
137.613968 180.0
137.624069 116.0
137.662033 196.0
137.684357 332.0
137.713806 240.0
137.72171 100.0
137.732605 328.0
137.757477 164.0
137.781006 276.0
137.820633 176.0
137.853378 196.0
137.876709 180.0
137.889709 228.0
137.910461 336.0
137.924683 180.0
137.953156 140.0
137.978363 176.0
138.005493 112.0
138.032669 180.0
138.048996 208.0
138.069122 412.0
138.112213 324.0
138.153595 180.0
138.179306 180.0
138.197571 104.0
138.222427 128.0
138.240295 124.0
138.268951 116.0
138.29245 224.0
138.322845 276.0
138.383942 124.0
138.41774 104.0
138.453323 160.0
138.470627 272.0
138.519791 180.0
138.571915 176.0
138.593063 164.0
138.615311 172.0
138.64888 176.0
138.69281 220.0
138.713333 536.0
138.744873 100.0
138.770294 132.0
138.796692 128.0
138.821915 144.0
138.841309 148.0
138.844788 136.0
138.870483 164.0
138.902466 224.0
138.919617 208.0
138.93718 340.0
138.973969 92.0
139.001389 148.0
139.054718 140.0
139.073288 140.0
139.108368 168.0
139.131683 164.0
139.151642 240.0
139.171295 132.0
139.201477 212.0
139.211151 240.0
139.216568 68.0
139.254074 176.0
139.291458 212.0
139.30928 96.0
139.371201 136.0
139.401642 112.0
139.408783 68.0
139.428757 160.0
139.447998 336.0
139.470978 76.0
139.508331 280.0
139.533798 144.0
139.551712 204.0
139.568298 80.0
139.626587 152.0
139.667633 148.0
139.689301 84.0
139.724701 136.0
139.749649 100.0
139.769409 272.0
139.797836 148.0
139.836563 136.0
139.878296 60.0
139.902054 360.0
139.922897 132.0
139.961349 176.0
139.991394 160.0
140.016052 188.0
140.046356 304.0
140.118164 160.0
140.152634 240.0
140.184372 136.0
140.229355 168.0
140.256592 180.0
140.280487 168.0
140.312332 332.0
140.33667 384.0
140.363007 60.0
140.384949 128.0
140.4077 84.0
140.430283 76.0
140.473816 200.0
140.4935 180.0
140.528122 84.0
140.555466 296.0
140.581055 68.0
140.610718 272.0
140.658432 184.0
140.727356 108.0
140.769547 184.0
140.783813 192.0
140.814789 144.0
140.838882 240.0
140.882736 160.0
140.910202 148.0
140.935013 160.0
140.967194 72.0
140.989151 120.0
141.01178 148.0
141.047134 148.0
141.066147 180.0
141.090103 520.0
141.116241 92.0
141.154556 168.0
141.181519 448.0
141.203735 92.0
141.224518 56.0
141.243362 176.0
141.283417 140.0
141.304733 156.0
141.326752 68.0
141.3694 308.0
141.403183 40.0
141.434799 116.0
141.451263 76.0
141.479767 252.0
141.535675 276.0
141.571152 180.0
141.6017 56.0
141.622528 252.0
141.656387 204.0
141.710251 136.0
141.752975 172.0
141.779999 272.0
141.80719 96.0
141.843033 112.0
141.888657 116.0
141.920227 136.0
141.929443 72.0
141.934174 220.0
141.959213 116.0
141.993607 104.0
142.027756 276.0
142.061493 348.0
142.101944 164.0
142.109558 168.0
142.116531 228.0
142.146896 116.0
142.186768 96.0
142.202499 160.0
142.212112 128.0
142.218262 212.0
142.244919 164.0
142.279541 132.0
142.310837 148.0
142.332306 136.0
142.364685 56.0
142.380219 80.0
142.395798 172.0
142.419693 196.0
142.455627 228.0
142.481766 244.0
142.517044 76.0
142.534927 280.0
142.549911 220.0
142.58226 200.0
142.60968 92.0
142.647064 176.0
142.669159 196.0
142.707352 236.0
142.728134 204.0
142.766037 132.0
142.791382 280.0
142.820221 84.0
142.868179 220.0
142.880112 156.0
142.8862 92.0
142.896835 88.0
142.905243 184.0
142.921097 56.0
142.951645 276.0
142.992966 184.0
143.028458 212.0
143.06723 304.0
143.097488 120.0
143.119843 132.0
143.125153 104.0
143.133804 112.0
143.179199 116.0
143.209793 176.0
143.251022 164.0
143.279297 116.0
143.301163 132.0
143.32312 240.0
143.343933 232.0
143.368912 236.0
143.37706 144.0
143.385727 120.0
143.3936 176.0
143.404312 100.0
143.424454 272.0
143.447617 128.0
143.473328 340.0
143.518036 172.0
143.539368 256.0
143.569931 400.0
143.594345 216.0
143.63237 64.0
143.641998 116.0
143.649002 116.0
143.675186 140.0
143.706024 136.0
143.737503 232.0
143.753952 264.0
143.786621 156.0
143.825012 124.0
143.849014 120.0
143.887619 92.0
143.907074 196.0
143.966202 216.0
144.012131 284.0
144.029114 128.0
144.050537 128.0
144.080353 416.0
144.109619 412.0
144.150284 256.0
144.167755 268.0
144.192062 104.0
144.20929 84.0
144.218155 200.0
144.243927 184.0
144.278152 160.0
144.30719 164.0
144.325302 116.0
144.356522 148.0
144.383957 352.0
144.40538 148.0
144.411453 56.0
144.420822 128.0
144.438019 204.0
144.482132 164.0
144.504074 188.0
144.535156 68.0
144.567261 288.0
144.599258 312.0
144.632431 80.0
144.669144 184.0
144.713196 332.0
144.74469 216.0
144.76387 160.0
144.780853 352.0
144.800034 112.0
144.836197 104.0
144.865906 280.0
144.913147 248.0
144.938858 92.0
144.98233 204.0
145.007339 152.0
145.028214 136.0
145.037399 240.0
145.074234 224.0
145.101746 132.0
145.117859 140.0
145.143524 252.0
145.193085 80.0
145.214294 152.0
145.222092 128.0
145.229874 164.0
145.246887 204.0
145.284897 124.0
145.302231 176.0
145.319351 76.0
145.346558 132.0
145.37088 148.0
145.390793 228.0
145.412857 208.0
145.420212 296.0
145.429001 272.0
145.471542 256.0
145.490112 92.0
145.496353 84.0
145.536591 108.0
145.55658 112.0
145.580643 248.0
145.618744 148.0
145.637985 168.0
145.661133 200.0
145.689011 296.0
145.706558 140.0
145.721588 168.0
145.756744 136.0
145.772217 120.0
145.798553 144.0
145.857285 172.0
145.883347 172.0
145.901093 244.0
145.918198 164.0
145.960846 188.0
145.984451 160.0
145.999619 68.0
146.035767 2548.0
146.061111 368.0
146.118271 152.0
146.148285 108.0
146.158401 168.0
146.199722 232.0
146.226089 140.0
146.24205 216.0
146.309891 96.0
146.347824 204.0
146.371277 160.0
146.405548 124.0
146.429016 308.0
146.45108 248.0
146.471786 116.0
146.490372 156.0
146.545609 252.0
146.576843 324.0
146.609177 96.0
146.619598 80.0
146.630783 280.0
146.666031 216.0
146.703659 196.0
146.71904 60.0
146.759613 148.0
146.7789 236.0
146.796967 204.0
146.813126 304.0
146.865051 80.0
146.895874 156.0
146.912582 172.0
146.941422 84.0
146.963593 44.0
146.998688 260.0
147.038635 780.0
147.067017 256.0
147.082855 96.0
147.091812 212.0
147.122849 252.0
147.145538 124.0
147.171371 240.0
147.201721 308.0
147.232544 452.0
147.251755 200.0
147.275391 160.0
147.281494 148.0
147.292282 112.0
147.298126 92.0
147.340164 176.0
147.388947 384.0
147.427521 136.0
147.451675 180.0
147.491409 112.0
147.520294 72.0
147.547806 140.0
147.564484 144.0
147.572159 180.0
147.581268 316.0
147.620941 188.0
147.660858 180.0
147.689941 208.0
147.730179 124.0
147.7948 104.0
147.811737 196.0
147.834091 324.0
147.866196 88.0
147.889694 96.0
147.923065 128.0
147.938583 52.0
147.984802 244.0
148.007111 140.0
148.016525 80.0
148.026642 108.0
148.047226 272.0
148.081116 168.0
148.099686 160.0
148.161301 128.0
148.175034 132.0
148.194946 232.0
148.206268 60.0
148.222107 136.0
148.257599 212.0
148.302948 208.0
148.338531 204.0
148.37117 128.0
148.395279 180.0
148.434814 196.0
148.479614 124.0
148.505966 140.0
148.51532 68.0
148.535706 200.0
148.573303 64.0
148.607285 252.0
148.647751 84.0
148.666946 220.0
148.710724 136.0
148.720154 152.0
148.75769 144.0
148.792282 192.0
148.804871 152.0
148.808334 180.0
148.872025 144.0
148.89537 148.0
148.926193 140.0
148.971054 132.0
148.99411 180.0
149.032928 336.0
149.05928 5600.0
149.112366 340.0
149.129669 148.0
149.150345 212.0
149.16713 108.0
149.191498 148.0
149.221603 160.0
149.243042 68.0
149.270447 112.0
149.302536 68.0
149.308823 136.0
149.351791 96.0
149.359039 156.0
149.366821 288.0
149.399368 204.0
149.445984 144.0
149.490997 236.0
149.508438 72.0
149.544403 216.0
149.565521 172.0
149.600388 352.0
149.638336 36.0
149.655212 108.0
149.681183 128.0
149.710007 104.0
149.715332 64.0
149.733154 232.0
149.762802 156.0
149.823761 96.0
149.843475 172.0
149.870712 204.0
149.879868 116.0
149.883804 204.0
149.922043 168.0
149.944061 124.0
149.997665 144.0
150.061417 776.0
150.102875 188.0
150.126907 108.0
150.176651 176.0
150.220642 88.0
150.227783 224.0
150.23819 128.0
150.248581 196.0
150.27298 240.0
150.31308 252.0
150.337631 396.0
150.362473 176.0
150.396988 192.0
150.433548 144.0
150.456024 148.0
150.471893 260.0
150.525253 104.0
150.544128 120.0
150.566513 120.0
150.582504 152.0
150.599487 284.0
150.638504 188.0
150.656158 240.0
150.692734 192.0
150.744446 244.0
150.766052 124.0
150.776123 104.0
150.781769 144.0
150.81192 168.0
150.842209 92.0
150.859909 192.0
150.888245 332.0
150.907486 336.0
150.953537 240.0
150.996033 172.0
151.0168 140.0
151.057892 184.0
151.08873 144.0
151.11647 112.0
151.155914 204.0
151.201599 120.0
151.241135 48.0
151.269241 92.0
151.278778 52.0
151.298004 76.0
151.344818 268.0
151.369995 124.0
151.421906 144.0
151.425705 136.0
151.43573 244.0
151.456955 140.0
151.511368 312.0
151.613922 140.0
151.664185 312.0
151.684174 236.0
151.70636 60.0
151.727356 88.0
151.747162 152.0
151.774185 228.0
151.79718 164.0
151.815552 156.0
151.843323 100.0
151.880844 228.0
151.901123 344.0
151.920624 252.0
151.933884 36.0
151.941025 124.0
151.968643 280.0
152.001602 272.0
152.018356 224.0
152.039352 340.0
152.058746 164.0
152.099747 44.0
152.123642 288.0
152.157761 108.0
152.179504 108.0
152.235092 180.0
152.274582 196.0
152.304108 156.0
152.324509 116.0
152.339371 232.0
152.396851 372.0
152.420197 120.0
152.451752 64.0
152.506882 304.0
152.534042 168.0
152.564911 104.0
152.583115 160.0
152.601303 204.0
152.646591 204.0
152.66394 120.0
152.689865 216.0
152.725784 172.0
152.750305 252.0
152.772171 160.0
152.826157 120.0
152.864639 156.0
152.882401 216.0
152.902588 136.0
152.920593 164.0
152.938232 248.0
152.959778 168.0
152.986694 96.0
153.04982 364.0
153.08046 256.0
153.128693 224.0
153.15657 152.0
153.165222 48.0
153.173584 196.0
153.245041 284.0
153.280792 152.0
153.299026 176.0
153.306107 268.0
153.339005 224.0
153.382889 64.0
153.405075 208.0
153.441162 144.0
153.481506 108.0
153.509018 320.0
153.531418 164.0
153.560516 208.0
153.583633 68.0
153.617889 228.0
153.643661 132.0
153.676758 176.0
153.705124 176.0
153.747177 328.0
153.759262 168.0
153.768677 260.0
153.809448 112.0
153.836121 120.0
153.854065 184.0
153.882263 160.0
153.905502 192.0
153.946106 208.0
153.982162 136.0
153.999603 124.0
154.019043 152.0
154.0466 224.0
154.066193 160.0
154.108444 308.0
154.126099 132.0
154.153076 224.0
154.174667 136.0
154.182404 108.0
154.191467 128.0
154.215805 328.0
154.265305 272.0
154.296188 300.0
154.300613 192.0
154.346756 192.0
154.381775 208.0
154.417984 132.0
154.429489 116.0
154.435959 164.0
154.457901 320.0
154.490036 228.0
154.517426 228.0
154.521927 284.0
154.556564 264.0
154.622314 296.0
154.655807 60.0
154.692551 304.0
154.720886 380.0
154.737396 264.0
154.795776 520.0
154.830536 200.0
154.851318 240.0
154.864456 252.0
154.924896 252.0
154.942413 276.0
154.965118 336.0
154.994049 644.0
155.026596 364.0
155.061142 208432.0
155.14212 172.0
155.156677 256.0
155.184219 88.0
155.203796 68.0
155.21106 204.0
155.231995 164.0
155.258209 144.0
155.276245 324.0
155.302521 116.0
155.321594 76.0
155.342484 116.0
155.349533 56.0
155.378708 144.0
155.4039 212.0
155.443497 352.0
155.467667 2180.0
155.497772 220.0
155.54277 256.0
155.559937 348.0
155.596588 64.0
155.627777 296.0
155.66832 132.0
155.698029 228.0
155.716812 132.0
155.744324 268.0
155.799271 144.0
155.838196 240.0
155.872635 256.0
155.901093 236.0
155.917877 156.0
155.941086 116.0
155.959183 272.0
156.008606 244.0
156.06337 29204.0
156.116531 180.0
156.144806 236.0
156.162079 224.0
156.204987 148.0
156.230591 140.0
156.238647 200.0
156.286713 184.0
156.307861 132.0
156.333405 232.0
156.383911 108.0
156.433975 104.0
156.480438 72.0
156.499054 172.0
156.585175 180.0
156.604721 116.0
156.619949 136.0
156.645889 140.0
156.66571 124.0
156.700684 84.0
156.708755 56.0
156.718216 44.0
156.743484 164.0
156.76564 140.0
156.806091 72.0
156.824554 128.0
156.855362 220.0
156.884109 188.0
156.92514 148.0
156.933487 148.0
156.990479 432.0
157.015732 228.0
157.03511 136.0
157.065933 1708.0
157.114471 152.0
157.146057 264.0
157.165161 260.0
157.186798 256.0
157.231979 152.0
157.257889 156.0
157.289642 256.0
157.307587 372.0
157.346329 228.0
157.369568 164.0
157.393112 208.0
157.43483 212.0
157.489395 420.0
157.530273 264.0
157.552444 172.0
157.580978 192.0
157.622894 212.0
157.637909 88.0
157.666733 120.0
157.710098 48.0
157.731384 220.0
157.734955 280.0
157.787506 200.0
157.873795 172.0
157.908356 196.0
157.937912 116.0
157.967621 144.0
158.008713 136.0
158.033951 532.0
158.058594 1016.0
158.104996 88.0
158.128006 144.0
158.156036 284.0
158.188553 340.0
158.230103 200.0
158.256287 68.0
158.28418 140.0
158.290619 196.0
158.308716 76.0
158.347977 124.0
158.383194 228.0
158.390518 180.0
158.419632 140.0
158.423859 176.0
158.457596 164.0
158.460999 192.0
158.475113 68.0
158.510208 80.0
158.537064 128.0
158.562668 100.0
158.601425 276.0
158.643173 136.0
158.674118 96.0
158.708359 100.0
158.732803 152.0
158.759354 84.0
158.782227 228.0
158.800034 156.0
158.824982 112.0
158.870316 208.0
158.890091 140.0
158.913651 224.0
158.942963 80.0
158.971039 112.0
158.993591 212.0
159.01944 60.0
159.058014 456.0
159.082474 492.0
159.105255 84.0
159.147186 292.0
159.185135 156.0
159.208313 120.0
159.252045 292.0
159.262238 96.0
159.272186 236.0
159.315948 148.0
159.351089 200.0
159.369675 112.0
159.422165 136.0
159.463867 164.0
159.471024 156.0
159.493118 140.0
159.515518 196.0
159.540527 108.0
159.574722 172.0
159.602264 52.0
159.634949 48.0
159.667023 248.0
159.705368 108.0
159.740463 152.0
159.757797 108.0
159.76796 100.0
159.791794 68.0
159.814285 136.0
159.823364 40.0
159.835587 172.0
159.841736 140.0
159.852859 200.0
159.856934 264.0
159.888977 200.0
159.928391 152.0
159.95665 384.0
160.007355 52.0
160.038773 164.0
160.083939 124.0
160.115829 168.0
160.134247 228.0
160.20668 244.0
160.24501 132.0
160.269852 420.0
160.290955 128.0
160.297501 160.0
160.333557 180.0
160.37001 108.0
160.376251 164.0
160.40625 152.0
160.454926 68.0
160.47168 244.0
160.493347 236.0
160.540771 156.0
160.561966 152.0
160.586853 220.0
160.596817 144.0
160.606247 196.0
160.654678 112.0
160.681549 192.0
160.69278 88.0
160.699677 336.0
160.729538 160.0
160.748154 124.0
160.783737 132.0
160.81781 104.0
160.846832 96.0
160.876846 36.0
160.895844 256.0
160.931213 196.0
160.956329 184.0
160.979874 108.0
161.00824 108.0
161.034668 72.0
161.062088 468.0
161.122604 120.0
161.155319 244.0
161.193283 256.0
161.227142 152.0
161.238907 152.0
161.274307 208.0
161.310211 156.0
161.349548 48.0
161.379898 152.0
161.407486 148.0
161.453415 156.0
161.485001 184.0
161.525177 232.0
161.550522 120.0
161.589279 232.0
161.635361 76.0
161.664886 128.0
161.697433 184.0
161.722321 168.0
161.745758 84.0
161.76384 184.0
161.781036 196.0
161.799286 272.0
161.809082 76.0
161.817474 400.0
161.833832 88.0
161.842133 160.0
161.866333 184.0
161.873993 104.0
161.884094 140.0
161.913834 176.0
161.977295 156.0
162.002731 216.0
162.029175 128.0
162.03923 144.0
162.061066 280.0
162.099213 136.0
162.11795 200.0
162.162537 300.0
162.207748 164.0
162.254791 116.0
162.281281 88.0
162.313828 252.0
162.348129 144.0
162.399872 312.0
162.445419 144.0
162.465149 160.0
162.507172 176.0
162.536102 292.0
162.585007 60.0
162.611267 124.0
162.636444 76.0
162.701843 504.0
162.719818 124.0
162.746246 160.0
162.788986 140.0
162.83049 80.0
162.900024 248.0
162.929871 236.0
162.951965 180.0
162.979691 228.0
162.996078 92.0
163.019806 72.0
163.041107 244.0
163.063019 148.0
163.077911 140.0
163.101273 292.0
163.149384 152.0
163.199814 132.0
163.225983 164.0
163.276031 144.0
163.310364 104.0
163.341629 176.0
163.366989 188.0
163.376251 92.0
163.386154 200.0
163.397751 96.0
163.443298 152.0
163.475586 248.0
163.513779 152.0
163.561935 220.0
163.582352 140.0
163.641724 192.0
163.654068 96.0
163.661179 192.0
163.694305 44.0
163.721741 124.0
163.752716 176.0
163.776627 172.0
163.815781 168.0
163.854218 168.0
163.902557 156.0
163.930984 148.0
163.98558 76.0
164.009995 140.0
164.047897 220.0
164.076279 120.0
164.105164 36.0
164.131638 236.0
164.166794 64.0
164.210464 220.0
164.228241 92.0
164.238892 52.0
164.24292 232.0
164.284576 288.0
164.301743 148.0
164.347916 340.0
164.39183 168.0
164.399109 120.0
164.421677 216.0
164.480804 156.0
164.504364 240.0
164.540604 132.0
164.567642 176.0
164.60498 320.0
164.615692 168.0
164.62088 244.0
164.638626 352.0
164.67395 296.0
164.696014 192.0
164.744919 324.0
164.765961 68.0
164.785309 316.0
164.827866 136.0
164.867569 60.0
164.90744 256.0
164.961456 152.0
164.992813 96.0
165.051407 232.0
165.098724 212.0
165.138565 300.0
165.174164 48.0
165.177841 136.0
165.198715 352.0
165.225952 100.0
165.284134 100.0
165.290359 196.0
165.318253 156.0
165.357391 84.0
165.385788 136.0
165.418259 116.0
165.449692 212.0
165.468475 136.0
165.501266 224.0
165.539886 124.0
165.568008 168.0
165.626343 92.0
165.654358 184.0
165.685928 204.0
165.702545 180.0
165.722244 188.0
165.752167 156.0
165.760513 176.0
165.804932 156.0
165.83757 176.0
165.862976 180.0
165.883713 44.0
165.889572 112.0
165.919937 176.0
165.93869 196.0
165.963242 116.0
166.038696 108.0
166.068985 348.0
166.093765 140.0
166.115891 108.0
166.146271 260.0
166.169083 176.0
166.196213 388.0
166.246872 156.0
166.294113 76.0
166.320511 216.0
166.350586 72.0
166.391953 276.0
166.421188 168.0
166.441177 56.0
166.458359 144.0
166.478058 136.0
166.49913 168.0
166.534622 152.0
166.571854 344.0
166.588104 304.0
166.620239 68.0
166.645935 132.0
166.674133 104.0
166.693466 228.0
166.723541 120.0
166.749466 124.0
166.775482 156.0
166.799484 96.0
166.823166 168.0
166.852432 472.0
166.868561 52.0
166.91069 60.0
166.935516 104.0
166.968597 184.0
166.988968 128.0
167.017883 272.0
167.039108 96.0
167.060089 816.0
167.103775 176.0
167.149231 152.0
167.197968 252.0
167.248444 132.0
167.268692 176.0
167.332916 204.0
167.360016 288.0
167.390823 68.0
167.433884 120.0
167.451599 192.0
167.479446 128.0
167.503998 128.0
167.525482 380.0
167.554153 160.0
167.582138 236.0
167.630783 192.0
167.650467 120.0
167.667145 172.0
167.703613 76.0
167.733673 140.0
167.76033 148.0
167.800354 196.0
167.826279 124.0
167.864655 364.0
167.907104 160.0
167.924301 108.0
167.9758 200.0
167.99942 112.0
168.016357 116.0
168.037155 296.0
168.070572 84.0
168.117737 128.0
168.137573 248.0
168.170471 104.0
168.194031 236.0
168.218597 192.0
168.227875 184.0
168.252213 48.0
168.262207 104.0
168.285767 304.0
168.331818 244.0
168.37616 372.0
168.410385 144.0
168.449829 236.0
168.514359 120.0
168.588776 68.0
168.610703 152.0
168.645996 176.0
168.670044 264.0
168.704773 128.0
168.727493 528.0
168.750748 96.0
168.781097 220.0
168.791412 228.0
168.817215 128.0
168.841873 348.0
168.876556 180.0
168.909515 176.0
168.937866 84.0
168.9785 108.0
169.008133 68.0
169.034912 108.0
169.074768 444.0
169.142593 140.0
169.163071 52.0
169.197006 176.0
169.238678 276.0
169.266876 124.0
169.294724 132.0
169.332932 140.0
169.348236 212.0
169.395798 124.0
169.435974 168.0
169.454941 40.0
169.473541 188.0
169.480057 132.0
169.525681 88.0
169.549362 160.0
169.567932 204.0
169.601654 192.0
169.626022 236.0
169.669189 260.0
169.694168 108.0
169.714523 156.0
169.735367 172.0
169.764893 132.0
169.79985 176.0
169.832458 196.0
169.844101 64.0
169.856491 184.0
169.878784 200.0
169.903 100.0
169.927597 104.0
169.949966 136.0
169.970825 100.0
170.003067 200.0
170.051407 260.0
170.070084 136.0
170.076309 256.0
170.124634 48.0
170.189514 172.0
170.226517 280.0
170.25618 200.0
170.272736 176.0
170.279495 352.0
170.303345 124.0
170.310287 116.0
170.322693 168.0
170.331406 148.0
170.338837 248.0
170.369141 56.0
170.400024 268.0
170.420486 216.0
170.482071 136.0
170.531448 68.0
170.562469 172.0
170.589859 100.0
170.633881 188.0
170.687164 216.0
170.709625 128.0
170.735458 412.0
170.769547 204.0
170.790085 64.0
170.824738 124.0
170.849136 108.0
170.864502 264.0
170.913269 172.0
170.944748 72.0
170.950974 76.0
170.960342 180.0
170.977417 328.0
170.998001 160.0
171.02562 364.0
171.057129 116.0
171.131821 244.0
171.161026 200.0
171.189377 276.0
171.21991 140.0
171.240738 124.0
171.277496 196.0
171.295334 252.0
171.330582 140.0
171.35611 140.0
171.387894 92.0
171.458435 80.0
171.475723 312.0
171.514679 272.0
171.539246 108.0
171.56366 176.0
171.585907 132.0
171.594009 124.0
171.618469 324.0
171.65921 56.0
171.680008 128.0
171.718781 148.0
171.759064 108.0
171.779938 84.0
171.80275 252.0
171.824005 136.0
171.852631 148.0
171.893173 100.0
171.938187 160.0
171.944321 164.0
171.986465 160.0
172.023987 92.0
172.080429 168.0
172.108536 124.0
172.144119 196.0
172.172485 152.0
172.208023 104.0
172.247437 176.0
172.265808 184.0
172.316437 48.0
172.322266 104.0
172.360199 128.0
172.41272 148.0
172.476212 160.0
172.500061 168.0
172.510941 208.0
172.523376 164.0
172.530716 320.0
172.566864 164.0
172.59375 120.0
172.6315 256.0
172.667358 252.0
172.671524 148.0
172.683105 276.0
172.732391 164.0
172.783112 236.0
172.801208 248.0
172.834518 212.0
172.85907 108.0
172.908936 288.0
172.933578 168.0
172.985199 500.0
173.008194 116.0
173.036987 156.0
173.065323 180.0
173.12468 152.0
173.143188 196.0
173.164536 148.0
173.187485 212.0
173.213608 348.0
173.247437 168.0
173.295731 476.0
173.318558 56.0
173.326111 108.0
173.348053 232.0
173.354874 204.0
173.364532 204.0
173.402908 256.0
173.425888 96.0
173.449341 168.0
173.484055 180.0
173.521515 160.0
173.542358 104.0
173.596024 208.0
173.626328 260.0
173.666443 140.0
173.705261 40.0
173.733856 116.0
173.763672 332.0
173.786591 76.0
173.822449 60.0
173.850845 144.0
173.885101 104.0
173.914276 92.0
173.947189 144.0
173.978439 204.0
174.003403 152.0
174.025894 424.0
174.056091 124.0
174.095337 140.0
174.113327 144.0
174.155075 180.0
174.191025 220.0
174.22374 208.0
174.247833 268.0
174.277023 128.0
174.296646 176.0
174.318787 284.0
174.337936 176.0
174.369568 124.0
174.400482 104.0
174.418091 224.0
174.454422 72.0
174.460663 116.0
174.48111 344.0
174.508896 44.0
174.545837 152.0
174.564499 388.0
174.58252 128.0
174.659134 188.0
174.684418 212.0
174.714279 172.0
174.742615 200.0
174.759079 288.0
174.783585 128.0
174.820572 164.0
174.859512 132.0
174.916519 136.0
174.952194 404.0
174.99263 108.0
175.014725 188.0
175.052689 152.0
175.081268 104.0
175.098358 196.0
175.125061 144.0
175.133377 264.0
175.144363 264.0
175.180008 136.0
175.248184 304.0
175.274689 104.0
175.291626 152.0
175.321609 104.0
175.336166 320.0
175.365219 124.0
175.393768 104.0
175.435135 240.0
175.439743 172.0
175.479858 264.0
175.5121 76.0
175.543365 96.0
175.600143 72.0
175.657379 180.0
175.693604 156.0
175.744217 140.0
175.783493 236.0
175.824738 160.0
175.865417 380.0
175.915543 236.0
175.962006 144.0
175.997971 288.0
176.069519 192.0
176.096527 192.0
176.13826 200.0
176.159836 216.0
176.190414 124.0
176.23172 76.0
176.271072 68.0
176.275543 240.0
176.310242 148.0
176.342712 352.0
176.395218 128.0
176.430206 60.0
176.44487 188.0
176.47702 228.0
176.485168 100.0
176.501892 228.0
176.557373 160.0
176.58876 104.0
176.641006 180.0
176.684418 140.0
176.719193 144.0
176.750259 200.0
176.792328 352.0
176.81955 320.0
176.839554 268.0
176.873947 364.0
176.935242 152.0
176.975418 124.0
177.018036 120.0
177.034744 136.0
177.063919 252.0
177.085587 148.0
177.090591 176.0
177.101364 200.0
177.139771 92.0
177.181534 180.0
177.238907 156.0
177.256989 192.0
177.266022 136.0
177.281082 240.0
177.309525 112.0
177.369446 160.0
177.412628 68.0
177.419235 140.0
177.437454 140.0
177.477951 280.0
177.505478 176.0
177.514069 252.0
177.52037 184.0
177.530243 152.0
177.550507 112.0
177.595001 140.0
177.611282 196.0
177.623566 120.0
177.64888 196.0
177.700912 128.0
177.728073 148.0
177.736145 148.0
177.749207 128.0
177.753036 244.0
177.775513 164.0
177.808868 176.0
177.837524 128.0
177.882645 64.0
177.921066 356.0
177.943512 160.0
177.989914 156.0
178.006424 168.0
178.05719 256.0
178.081787 92.0
178.100006 84.0
178.1241 80.0
178.153519 136.0
178.201508 136.0
178.235886 160.0
178.254486 176.0
178.283707 120.0
178.308502 208.0
178.352448 228.0
178.406326 124.0
178.453293 212.0
178.463974 168.0
178.48674 172.0
178.520111 148.0
178.589676 52.0
178.614929 132.0
178.643219 252.0
178.702499 228.0
178.751328 360.0
178.796997 168.0
178.819702 136.0
178.844894 128.0
178.862198 72.0
178.890503 308.0
178.926147 156.0
178.949326 116.0
178.9841 196.0
179.020248 204.0
179.026428 264.0
179.061371 2672.0
179.138443 284.0
179.16568 116.0
179.208572 200.0
179.24263 208.0
179.268372 156.0
179.293076 132.0
179.312256 180.0
179.346756 332.0
179.366272 192.0
179.386841 196.0
179.419891 128.0
179.441055 56.0
179.450745 96.0
179.47818 136.0
179.504791 120.0
179.537125 128.0
179.547165 104.0
179.593369 40.0
179.598373 108.0
179.60817 236.0
179.639709 104.0
179.660324 68.0
179.681671 80.0
179.734009 188.0
179.741379 116.0
179.751099 232.0
179.783066 128.0
179.815445 252.0
179.852402 204.0
179.883362 92.0
179.919052 76.0
179.940552 48.0
179.968491 112.0
179.99147 56.0
180.029175 84.0
180.067703 1352.0
180.124817 284.0
180.155396 180.0
180.177139 116.0
180.222641 188.0
180.259674 76.0
180.282364 140.0
180.318298 256.0
180.344559 424.0
180.375198 172.0
180.394714 132.0
180.44725 80.0
180.474152 96.0
180.500092 152.0
180.518509 168.0
180.542923 180.0
180.604065 168.0
180.629822 184.0
180.653793 112.0
180.687454 132.0
180.732529 92.0
180.774048 224.0
180.822845 260.0
180.853577 244.0
180.874893 40.0
180.909637 100.0
180.938248 296.0
180.954681 208.0
180.992752 180.0
181.048553 152.0
181.077225 772.0
181.118225 32.0
181.138168 132.0
181.161362 176.0
181.192642 220.0
181.240677 196.0
181.271576 156.0
181.305557 124.0
181.327209 236.0
181.349609 100.0
181.36763 116.0
181.429214 132.0
181.469421 160.0
181.511139 236.0
181.567932 180.0
181.591827 340.0
181.630798 132.0
181.660492 120.0
181.711349 148.0
181.727844 104.0
181.75882 176.0
181.786087 92.0
181.808334 136.0
181.850555 64.0
181.872391 164.0
181.926865 212.0
181.933151 256.0
181.9534 336.0
181.970978 284.0
181.995193 148.0
182.040421 128.0
182.081802 340.0
182.119217 272.0
182.165649 152.0
182.216492 104.0
182.249969 176.0
182.276093 244.0
182.291367 164.0
182.309998 92.0
182.3461 80.0
182.374908 100.0
182.398544 216.0
182.430328 144.0
182.453629 168.0
182.481735 116.0
182.536438 320.0
182.558029 208.0
182.595871 244.0
182.649933 300.0
182.687592 144.0
182.715286 188.0
182.75383 136.0
182.787949 408.0
182.824677 148.0
182.867874 144.0
182.909042 116.0
182.941528 156.0
183.000534 172.0
183.005554 252.0
183.05899 268.0
183.067856 172.0
183.090103 400.0
183.097107 112.0
183.127808 104.0
183.139633 56.0
183.143707 100.0
183.166534 188.0
183.187119 292.0
183.233017 128.0
183.25087 240.0
183.289307 288.0
183.32225 548.0
183.343185 92.0
183.361023 124.0
183.37973 156.0
183.425217 192.0
183.432159 172.0
183.465881 40.0
183.498062 268.0
183.519424 476.0
183.55954 164.0
183.569458 68.0
183.577332 244.0
183.634079 192.0
183.663437 124.0
183.698334 284.0
183.740036 552.0
183.770538 92.0
183.789169 116.0
183.826004 196.0
183.870346 144.0
183.892792 104.0
183.916382 144.0
183.943176 164.0
183.987427 100.0
184.026947 128.0
184.04364 160.0
184.079575 200.0
184.1064 168.0
184.127747 180.0
184.153992 48.0
184.180115 124.0
184.217163 156.0
184.226379 60.0
184.237106 316.0
184.276901 208.0
184.299316 116.0
184.32782 116.0
184.349442 84.0
184.371262 148.0
184.391006 220.0
184.435181 116.0
184.462494 232.0
184.482635 188.0
184.546951 168.0
184.571701 168.0
184.617004 84.0
184.688202 148.0
184.732956 248.0
184.792953 192.0
184.841125 72.0
184.884888 364.0
184.914093 76.0
184.947418 328.0
184.987671 140.0
185.016602 56.0
185.066071 340.0
185.101059 176.0
185.132935 164.0
185.139023 132.0
185.154526 256.0
185.158813 248.0
185.212402 156.0
185.232391 152.0
185.260345 108.0
185.296646 192.0
185.32663 204.0
185.346527 152.0
185.375458 304.0
185.404953 140.0
185.438995 184.0
185.449478 156.0
185.461075 160.0
185.480087 444.0
185.517532 124.0
185.550827 236.0
185.573486 132.0
185.622726 268.0
185.651901 216.0
185.693573 92.0
185.71022 236.0
185.738876 68.0
185.77626 208.0
185.796448 128.0
185.836533 84.0
185.861435 120.0
185.884079 128.0
185.940521 308.0
185.97496 268.0
186.054749 12032.0
186.101532 172.0
186.144958 160.0
186.156189 84.0
186.1651 172.0
186.214767 124.0
186.221848 204.0
186.250702 116.0
186.316849 124.0
186.323517 72.0
186.426468 188.0
186.462112 188.0
186.496674 84.0
186.519333 148.0
186.548553 144.0
186.583862 184.0
186.608124 256.0
186.641312 172.0
186.678391 152.0
186.734283 168.0
186.767303 116.0
186.77858 92.0
186.828979 128.0
186.864456 224.0
186.919952 176.0
186.950241 188.0
186.98732 208.0
187.057037 2012.0
187.092789 112.0
187.11998 264.0
187.162308 200.0
187.204269 236.0
187.235718 148.0
187.246643 32.0
187.256454 216.0
187.283722 116.0
187.30545 144.0
187.389542 116.0
187.416733 64.0
187.446152 224.0
187.49231 244.0
187.521149 88.0
187.550003 68.0
187.585297 224.0
187.60611 176.0
187.629181 172.0
187.638901 180.0
187.68927 172.0
187.713638 168.0
187.758972 172.0
187.792801 164.0
187.844498 348.0
187.874146 44.0
187.913864 260.0
187.937973 108.0
187.97113 104.0
187.998932 64.0
188.019958 368.0
188.060043 124.0
188.105286 160.0
188.130859 248.0
188.161453 280.0
188.182266 316.0
188.208023 136.0
188.216248 40.0
188.229202 140.0
188.246231 216.0
188.290176 124.0
188.328461 72.0
188.351562 104.0
188.360336 36.0
188.368958 124.0
188.38887 364.0
188.423492 176.0
188.457077 216.0
188.491272 168.0
188.499756 116.0
188.539429 180.0
188.559357 204.0
188.585129 132.0
188.628922 156.0
188.649765 68.0
188.676834 216.0
188.707657 136.0
188.748184 180.0
188.774124 84.0
188.792374 172.0
188.817581 176.0
188.827408 248.0
188.856781 296.0
188.888702 164.0
188.906799 192.0
188.937881 176.0
188.980957 112.0
189.007477 72.0
189.019669 56.0
189.030396 152.0
189.062775 244.0
189.068085 148.0
189.098999 92.0
189.119156 364.0
189.147659 216.0
189.168243 128.0
189.186203 116.0
189.209305 132.0
189.231216 32.0
189.265732 120.0
189.299133 268.0
189.34314 128.0
189.377197 72.0
189.427277 108.0
189.465164 188.0
189.512939 280.0
189.523239 204.0
189.531357 160.0
189.581497 128.0
189.61409 156.0
189.642502 180.0
189.671021 372.0
189.703506 112.0
189.73259 184.0
189.753433 160.0
189.806793 240.0
189.853516 120.0
189.892944 140.0
189.912888 192.0
189.939316 52.0
189.961075 216.0
189.997574 188.0
190.015396 224.0
190.065628 440.0
190.106339 296.0
190.118774 76.0
190.126999 356.0
190.153824 100.0
190.201218 184.0
190.234985 124.0
190.278809 132.0
190.319748 136.0
190.357056 220.0
190.404877 112.0
190.435669 176.0
190.454315 112.0
190.487274 140.0
190.558701 216.0
190.58252 72.0
190.60434 100.0
190.62468 368.0
190.643127 144.0
190.663116 48.0
190.72966 192.0
190.786606 208.0
190.819336 148.0
190.851349 112.0
190.888947 240.0
190.924988 160.0
190.936234 176.0
190.961121 72.0
191.005692 140.0
191.035385 72.0
191.068008 424.0
191.104797 280.0
191.142792 116.0
191.185226 380.0
191.22316 172.0
191.255142 212.0
191.280151 168.0
191.325485 112.0
191.355896 284.0
191.374176 172.0
191.401855 112.0
191.409317 144.0
191.436172 116.0
191.466263 264.0
191.501495 128.0
191.541626 140.0
191.564911 324.0
191.60434 360.0
191.664413 112.0
191.702667 184.0
191.736282 248.0
191.774551 384.0
191.794342 164.0
191.818726 132.0
191.848511 132.0
191.873047 204.0
191.905533 180.0
191.925949 140.0
191.957001 216.0
192.029037 188.0
192.04953 96.0
192.079987 1012.0
192.12999 240.0
192.145981 140.0
192.186539 240.0
192.221664 132.0
192.23851 104.0
192.265762 200.0
192.290131 80.0
192.316467 340.0
192.339066 200.0
192.386597 196.0
192.413742 128.0
192.461975 252.0
192.50737 264.0
192.570953 224.0
192.596649 152.0
192.621307 200.0
192.681595 268.0
192.750305 116.0
192.791122 284.0
192.816544 200.0
192.837952 168.0
192.880127 112.0
192.901077 60.0
192.943893 192.0
192.978668 116.0
193.006958 232.0
193.076965 508.0
193.124466 336.0
193.151566 200.0
193.238663 120.0
193.270676 448.0
193.304459 160.0
193.316132 164.0
193.323517 108.0
193.3741 172.0
193.426941 212.0
193.464462 160.0
193.483765 248.0
193.514557 164.0
193.537643 192.0
193.567001 116.0
193.610565 248.0
193.633682 180.0
193.662292 140.0
193.707031 204.0
193.764099 256.0
193.78511 176.0
193.810043 100.0
193.850113 272.0
193.894119 84.0
193.924667 72.0
193.946564 164.0
193.96637 128.0
194.004639 132.0
194.06871 252.0
194.105392 136.0
194.129044 104.0
194.181046 228.0
194.2034 192.0
194.233444 180.0
194.26001 336.0
194.307114 100.0
194.314987 92.0
194.333344 128.0
194.368057 176.0
194.377838 124.0
194.384506 128.0
194.417252 180.0
194.440689 160.0
194.457352 36.0
194.475815 148.0
194.498062 228.0
194.517746 148.0
194.522247 176.0
194.572021 244.0
194.603165 128.0
194.628555 112.0
194.675842 92.0
194.746582 152.0
194.755463 136.0
194.793945 80.0
194.817383 312.0
194.844498 328.0
194.875793 132.0
194.903046 252.0
194.912521 124.0
194.920242 192.0
194.949158 88.0
194.983292 404.0
195.004135 56.0
195.032639 244.0
195.036362 116.0
195.042114 104.0
195.056732 120.0
195.067139 168.0
195.080734 228.0
195.090714 96.0
195.101974 380.0
195.113617 128.0
195.123138 168.0
195.162521 84.0
195.200363 156.0
195.225922 288.0
195.264175 156.0
195.28595 292.0
195.318207 120.0
195.358261 104.0
195.382233 152.0
195.410507 180.0
195.463715 388.0
195.52533 96.0
195.55249 408.0
195.582565 168.0
195.61322 84.0
195.627701 44.0
195.638321 120.0
195.682495 308.0
195.691788 172.0
195.700027 60.0
195.761978 196.0
195.772476 108.0
195.780334 176.0
195.821228 208.0
195.897308 360.0
195.931564 152.0
195.985825 236.0
196.029541 132.0
196.05957 120.0
196.077927 176.0
196.119171 240.0
196.149948 96.0
196.158936 248.0
196.182327 112.0
196.218704 88.0
196.251633 160.0
196.271805 100.0
196.305893 176.0
196.342529 136.0
196.376709 84.0
196.424942 132.0
196.431702 120.0
196.439987 172.0
196.468307 148.0
196.51857 136.0
196.552689 252.0
196.585724 188.0
196.62529 200.0
196.643723 172.0
196.679123 136.0
196.754272 100.0
196.777802 136.0
196.800766 348.0
196.823105 84.0
196.855011 124.0
196.882675 124.0
196.912888 204.0
196.967224 180.0
196.988983 80.0
197.01413 164.0
197.032074 116.0
197.071609 296.0
197.107773 132.0
197.131165 108.0
197.166916 180.0
197.207809 200.0
197.256302 128.0
197.286697 144.0
197.305817 268.0
197.347488 248.0
197.367569 104.0
197.427994 160.0
197.458221 200.0
197.479431 152.0
197.522293 228.0
197.552322 220.0
197.578842 100.0
197.582565 96.0
197.622513 112.0
197.657181 196.0
197.664429 188.0
197.676056 168.0
197.680832 232.0
197.733612 88.0
197.773026 136.0
197.802368 220.0
197.846756 104.0
197.871765 224.0
197.881378 140.0
197.887924 232.0
197.92807 288.0
197.967728 156.0
197.972412 140.0
197.983536 96.0
198.019333 236.0
198.049774 84.0
198.078491 252.0
198.103027 152.0
198.12915 152.0
198.176849 244.0
198.210403 84.0
198.228912 196.0
198.248016 76.0
198.255325 172.0
198.301834 188.0
198.354965 304.0
198.402771 248.0
198.433167 176.0
198.481766 284.0
198.517288 116.0
198.538605 140.0
198.602188 208.0
198.621384 136.0
198.67308 164.0
198.709198 104.0
198.753876 180.0
198.781021 168.0
198.829269 136.0
198.83963 152.0
198.857117 188.0
198.905014 180.0
198.932144 244.0
198.975784 148.0
199.001968 156.0
199.018539 188.0
199.056213 160.0
199.088089 220.0
199.097305 152.0
199.107849 120.0
199.142166 296.0
199.162338 280.0
199.206604 88.0
199.260788 168.0
199.286972 200.0
199.317841 68.0
199.37352 68.0
199.44574 196.0
199.490067 232.0
199.494934 188.0
199.520355 216.0
199.554565 168.0
199.581543 156.0
199.607208 160.0
199.635742 192.0
199.649796 192.0
199.671051 116.0
199.713135 164.0
199.738434 276.0
199.786621 220.0
199.823639 108.0
199.844147 144.0
199.865646 136.0
199.910278 156.0
199.940598 200.0
199.975098 152.0
200.021805 156.0
200.054001 172.0
200.098129 488.0
200.161118 116.0
200.16954 112.0
200.200409 264.0
200.22879 148.0
200.265228 260.0
200.30484 40.0
200.324554 228.0
200.355225 236.0
200.363388 112.0
200.391861 72.0
200.404388 116.0
200.427979 152.0
200.473892 100.0
200.513794 272.0
200.538712 140.0
200.586441 176.0
200.657578 240.0
200.738876 72.0
200.764252 276.0
200.793106 176.0
200.802689 32.0
200.81221 132.0
200.857605 84.0
200.899643 68.0
200.922958 240.0
200.947769 168.0
200.968521 136.0
200.994507 144.0
201.019135 368.0
201.053207 384.0
201.096985 60.0
201.122574 288.0
201.146362 84.0
201.16745 164.0
201.186676 176.0
201.215729 128.0
201.264816 124.0
201.30806 172.0
201.327927 228.0
201.353134 200.0
201.38739 148.0
201.410187 200.0
201.422791 88.0
201.432617 176.0
201.485046 192.0
201.518494 280.0
201.552902 160.0
201.600906 144.0
201.621048 92.0
201.644958 76.0
201.667801 148.0
201.693466 292.0
201.702209 180.0
201.713943 148.0
201.728134 180.0
201.766159 132.0
201.789536 132.0
201.836472 52.0
201.856491 296.0
201.866989 264.0
201.90239 72.0
201.927841 288.0
201.967056 88.0
201.983047 124.0
202.012787 120.0
202.046799 76.0
202.080536 100.0
202.10556 256.0
202.114624 284.0
202.123444 308.0
202.162659 92.0
202.195206 144.0
202.221359 92.0
202.256317 52.0
202.296371 116.0
202.333466 116.0
202.354752 88.0
202.374954 156.0
202.394775 248.0
202.420929 152.0
202.458511 128.0
202.485397 304.0
202.52179 236.0
202.57724 164.0
202.599564 212.0
202.634003 296.0
202.66745 228.0
202.696518 136.0
202.738846 232.0
202.768723 152.0
202.790848 124.0
202.827652 144.0
202.834915 328.0
202.874741 104.0
202.902405 168.0
202.937653 176.0
203.003754 164.0
203.033493 236.0
203.075134 504.0
203.116653 152.0
203.157516 152.0
203.196198 124.0
203.224518 160.0
203.24501 344.0
203.25531 160.0
203.316086 216.0
203.361206 392.0
203.370163 276.0
203.425461 128.0
203.433487 256.0
203.468567 128.0
203.495087 328.0
203.536224 124.0
203.595551 352.0
203.67244 172.0
203.711975 112.0
203.761185 236.0
203.80542 328.0
203.847137 96.0
203.944916 144.0
203.999054 192.0
204.024536 116.0
204.080719 2252.0
204.155243 116.0
204.186005 136.0
204.219269 184.0
204.259811 172.0
204.286163 132.0
204.32373 156.0
204.347076 200.0
204.368713 152.0
204.395187 160.0
204.436554 180.0
204.475113 144.0
204.51265 276.0
204.535248 192.0
204.55304 84.0
204.582123 228.0
204.603271 72.0
204.632217 220.0
204.68248 92.0
204.714783 152.0
204.770477 252.0
204.823013 120.0
204.851501 296.0
204.880676 100.0
204.934128 248.0
204.981369 200.0
205.006683 184.0
205.032944 112.0
205.086777 2220.0
205.125076 56.0
205.151733 148.0
205.174744 168.0
205.221863 176.0
205.251572 108.0
205.294098 104.0
205.320419 132.0
205.344757 368.0
205.372543 76.0
205.400269 160.0
205.432007 132.0
205.456024 224.0
205.476395 168.0
205.528198 80.0
205.558945 144.0
205.585068 100.0
205.620285 196.0
205.67218 336.0
205.679291 96.0
205.722519 172.0
205.734299 200.0
205.743484 172.0
205.750824 148.0
205.799301 196.0
205.854996 216.0
205.859421 188.0
205.890884 80.0
205.915451 48.0
205.95108 152.0
205.980255 64.0
206.010925 132.0
206.084778 2004.0
206.129272 108.0
206.15683 108.0
206.182968 152.0
206.202805 188.0
206.237976 176.0
206.287064 140.0
206.337158 104.0
206.386429 84.0
206.430817 168.0
206.464188 152.0
206.503815 136.0
206.528809 228.0
206.571823 104.0
206.634964 204.0
206.690659 188.0
206.757065 192.0
206.789719 92.0
206.811264 180.0
206.843292 128.0
206.863815 48.0
206.897034 260.0
206.931808 220.0
206.9505 76.0
206.986221 264.0
207.020554 120.0
207.083267 584.0
207.119431 60.0
207.123306 300.0
207.169846 216.0
207.191437 280.0
207.253677 184.0
207.28653 392.0
207.326553 116.0
207.35675 420.0
207.395126 164.0
207.47496 204.0
207.513962 20.0
207.559464 340.0
207.592361 108.0
207.611252 248.0
207.629318 96.0
207.644424 180.0
207.674301 132.0
207.703445 160.0
207.734558 112.0
207.780991 136.0
207.812714 168.0
207.864365 340.0
207.929718 164.0
207.955048 88.0
207.991058 172.0
207.998535 280.0
208.027039 308.0
208.076904 248.0
208.108704 228.0
208.146255 116.0
208.178879 212.0
208.217072 144.0
208.246658 316.0
208.28273 148.0
208.334854 172.0
208.358032 132.0
208.410629 120.0
208.444122 140.0
208.475998 224.0
208.485641 156.0
208.497528 52.0
208.505814 148.0
208.562744 124.0
208.605133 88.0
208.627609 160.0
208.661285 160.0
208.710434 144.0
208.752243 104.0
208.783905 164.0
208.803024 120.0
208.834885 260.0
208.907333 292.0
208.931747 220.0
208.966003 100.0
208.991852 196.0
209.036072 212.0
209.042999 112.0
209.072983 200.0
209.166992 140.0
209.209213 172.0
209.258957 72.0
209.313477 96.0
209.336456 112.0
209.373138 156.0
209.378769 124.0
209.399689 64.0
209.41745 200.0
209.447495 136.0
209.493774 224.0
209.533783 104.0
209.566299 92.0
209.591843 248.0
209.627762 184.0
209.654083 380.0
209.683136 392.0
209.71698 80.0
209.748657 56.0
209.787643 116.0
209.798676 172.0
209.84079 256.0
209.865265 172.0
209.876846 140.0
209.91571 164.0
209.98819 116.0
210.019241 236.0
210.051544 412.0
210.112106 140.0
210.160385 168.0
210.18808 140.0
210.212234 96.0
210.242081 128.0
210.268051 72.0
210.327271 164.0
210.338257 172.0
210.344147 220.0
210.365448 216.0
210.449066 184.0
210.49263 188.0
210.512115 208.0
210.545715 68.0
210.588577 248.0
210.63855 380.0
210.660751 76.0
210.712402 136.0
210.744949 120.0
210.786942 224.0
210.810242 116.0
210.835007 208.0
210.85759 176.0
210.895721 256.0
210.913208 180.0
210.934692 80.0
210.938995 172.0
210.971405 192.0
211.009689 160.0
211.050537 288.0
211.058533 152.0
211.116394 156.0
211.162827 200.0
211.19487 372.0
211.234909 104.0
211.273331 160.0
211.320862 172.0
211.360428 260.0
211.394623 244.0
211.414581 56.0
211.448761 152.0
211.500565 144.0
211.532623 204.0
211.559326 160.0
211.581604 192.0
211.651413 128.0
211.699799 136.0
211.734512 72.0
211.756973 216.0
211.766174 92.0
211.778107 144.0
211.790817 144.0
211.804184 172.0
211.822159 116.0
211.858414 180.0
211.878693 84.0
211.913818 172.0
211.946472 116.0
211.994049 188.0
212.022339 160.0
212.066788 240.0
212.096039 72.0
212.126862 196.0
212.179169 260.0
212.20639 144.0
212.276184 188.0
212.300674 124.0
212.333786 108.0
212.373428 96.0
212.379822 124.0
212.40921 208.0
212.476135 168.0
212.531601 172.0
212.57106 224.0
212.613647 96.0
212.662277 240.0
212.698776 160.0
212.762146 136.0
212.800995 164.0
212.845322 256.0
212.879303 264.0
212.897247 120.0
212.939529 136.0
212.955582 96.0
212.978012 172.0
212.982986 132.0
213.022675 144.0
213.05722 160.0
213.088394 232.0
213.11055 352.0
213.143738 88.0
213.197784 188.0
213.239578 172.0
213.267517 64.0
213.292542 240.0
213.323059 408.0
213.367615 104.0
213.388153 136.0
213.431503 56.0
213.454773 192.0
213.480011 100.0
213.512238 268.0
213.564697 100.0
213.60112 120.0
213.624527 164.0
213.644516 256.0
213.67247 52.0
213.697266 120.0
213.736038 104.0
213.763123 148.0
213.788269 348.0
213.80864 356.0
213.855118 340.0
213.908142 116.0
213.951447 100.0
214.002777 60.0
214.056412 156.0
214.073044 244.0
214.094513 144.0
214.100815 112.0
214.158646 280.0
214.220947 140.0
214.254456 156.0
214.263931 116.0
214.270508 156.0
214.30011 96.0
214.339691 148.0
214.365814 120.0
214.390778 112.0
214.413025 232.0
214.435715 176.0
214.458862 212.0
214.492065 156.0
214.514221 244.0
214.542465 312.0
214.613693 88.0
214.657959 124.0
214.685867 204.0
214.724503 76.0
214.767899 132.0
214.795654 136.0
214.844101 84.0
214.904739 172.0
214.913406 164.0
214.970016 164.0
215.012009 272.0
215.07132 576.0
215.1091 248.0
215.139435 200.0
215.162201 80.0
215.207794 208.0
215.234192 92.0
215.252716 104.0
215.308273 204.0
215.347916 128.0
215.370117 144.0
215.398087 264.0
215.438004 128.0
215.467545 108.0
215.500748 164.0
215.541916 108.0
215.569534 80.0
215.604904 164.0
215.609879 328.0
215.63205 140.0
215.695694 220.0
215.746857 172.0
215.782364 120.0
215.831467 116.0
215.855911 132.0
215.894028 200.0
215.933838 144.0
215.954132 184.0
215.974594 96.0
216.006256 112.0
216.03653 300.0
216.080872 8336.0
216.112808 124.0
216.155991 172.0
216.183929 168.0
216.215271 168.0
216.242233 140.0
216.269608 160.0
216.318497 96.0
216.340164 92.0
216.36673 44.0
216.401993 184.0
216.433838 148.0
216.439072 136.0
216.469208 212.0
216.49704 136.0
216.537659 168.0
216.583725 428.0
216.65213 400.0
216.680527 196.0
216.748871 92.0
216.770935 148.0
216.796127 216.0
216.834564 356.0
216.887711 180.0
216.946793 188.0
216.982407 300.0
217.028244 288.0
217.087296 14608.0
217.160202 88.0
217.176987 52.0
217.199234 332.0
217.262314 348.0
217.295502 348.0
217.328079 56.0
217.350372 100.0
217.388596 172.0
217.415222 180.0
217.42601 152.0
217.473969 168.0
217.501343 52.0
217.537949 244.0
217.57637 216.0
217.628983 136.0
217.662979 128.0
217.695602 116.0
217.720901 44.0
217.763763 204.0
217.80986 144.0
217.843475 156.0
217.863434 164.0
217.926224 168.0
217.978867 120.0
218.016586 360.0
218.047409 216.0
218.092728 3272.0
218.134155 112.0
218.159073 160.0
218.17041 160.0
218.177628 140.0
218.210007 276.0
218.256271 52.0
218.292984 140.0
218.340454 96.0
218.384369 172.0
218.429672 208.0
218.456253 56.0
218.482742 108.0
218.516312 116.0
218.571823 72.0
218.618912 92.0
218.66362 108.0
218.708069 168.0
218.732056 72.0
218.744415 148.0
218.778564 180.0
218.805756 164.0
218.835297 152.0
218.878723 156.0
218.88913 228.0
218.929001 304.0
218.977585 296.0
219.032608 176.0
219.058273 592.0
219.090607 1868.0
219.153015 152.0
219.208588 92.0
219.254211 60.0
219.274841 220.0
219.294418 156.0
219.321198 180.0
219.368515 348.0
219.411041 184.0
219.424194 96.0
219.457733 300.0
219.495605 240.0
219.546524 132.0
219.576843 276.0
219.619812 156.0
219.642136 304.0
219.662064 220.0
219.708862 128.0
219.777023 124.0
219.837006 148.0
219.874649 172.0
219.914871 48.0
219.944199 176.0
219.977524 248.0
220.00444 100.0
220.07486 4276.0
220.140884 160.0
220.163574 224.0
220.212936 164.0
220.246262 204.0
220.270676 96.0
220.295609 204.0
220.351364 232.0
220.356842 188.0
220.37178 108.0
220.382156 124.0
220.394333 112.0
220.443634 104.0
220.465485 232.0
220.497375 116.0
220.51593 152.0
220.551392 160.0
220.581329 180.0
220.607758 160.0
220.652222 160.0
220.707901 152.0
220.731506 124.0
220.743805 76.0
220.779053 64.0
220.791122 232.0
220.83139 124.0
220.859543 252.0
220.908981 112.0
220.949982 56.0
220.974503 164.0
220.998627 176.0
221.021774 124.0
221.081131 932.0
221.145218 200.0
221.188843 64.0
221.21994 140.0
221.257263 204.0
221.299561 140.0
221.327499 336.0
221.352585 208.0
221.4095 144.0
221.461258 176.0
221.538269 60.0
221.593018 84.0
221.63829 132.0
221.677994 192.0
221.699326 136.0
221.744568 116.0
221.762238 96.0
221.783218 132.0
221.81636 224.0
221.830704 100.0
221.839767 40.0
221.867111 128.0
221.889481 276.0
221.914566 116.0
221.950867 152.0
221.976532 148.0
221.989578 136.0
222.001389 228.0
222.052841 336.0
222.091782 392.0
222.127792 444.0
222.160828 92.0
222.185623 328.0
222.210495 200.0
222.227829 48.0
222.2388 128.0
222.261032 248.0
222.2659 68.0
222.301239 220.0
222.334518 300.0
222.390228 232.0
222.441315 272.0
222.484314 64.0
222.537262 124.0
222.594162 64.0
222.61792 44.0
222.648819 172.0
222.697159 192.0
222.751572 52.0
222.784897 356.0
222.817413 188.0
222.85611 128.0
222.900131 180.0
222.925018 96.0
222.958603 120.0
222.989456 276.0
223.020462 180.0
223.025787 200.0
223.038528 148.0
223.060089 88.0
223.085129 116.0
223.117645 244.0
223.139343 92.0
223.170349 200.0
223.225327 192.0
223.263565 172.0
223.301468 128.0
223.340652 116.0
223.3694 136.0
223.432297 404.0
223.442963 304.0
223.481308 124.0
223.511063 132.0
223.550751 132.0
223.584106 76.0
223.616089 144.0
223.652496 184.0
223.65979 268.0
223.705246 92.0
223.729645 176.0
223.740875 164.0
223.806 120.0
223.846695 364.0
223.891495 112.0
223.942719 116.0
224.000076 200.0
224.037949 100.0
224.06987 404.0
224.144257 144.0
224.169098 92.0
224.198578 156.0
224.243973 220.0
224.267059 132.0
224.31192 140.0
224.33194 176.0
224.364822 120.0
224.388077 140.0
224.45723 288.0
224.496353 116.0
224.540466 84.0
224.560455 68.0
224.593842 232.0
224.659775 240.0
224.688614 132.0
224.736923 340.0
224.769897 224.0
224.799164 208.0
224.865662 136.0
224.903152 88.0
224.941162 136.0
224.977539 100.0
224.983383 156.0
224.996094 168.0
225.032181 108.0
225.049896 204.0
225.073242 68.0
225.110474 252.0
225.135712 168.0
225.158249 36.0
225.182144 60.0
225.203064 56.0
225.246353 268.0
225.304626 116.0
225.351547 352.0
225.387039 212.0
225.409195 104.0
225.430115 132.0
225.47168 176.0
225.538589 108.0
225.579559 196.0
225.61055 208.0
225.66243 144.0
225.72879 92.0
225.733963 100.0
225.784088 100.0
225.807175 124.0
225.846176 264.0
225.899536 160.0
225.920471 84.0
225.948196 120.0
225.98317 216.0
226.028137 152.0
226.076508 264.0
226.099075 308.0
226.143677 212.0
226.178864 172.0
226.226593 136.0
226.257004 80.0
226.289368 164.0
226.314468 104.0
226.353058 196.0
226.410828 196.0
226.474686 56.0
226.508362 344.0
226.535019 184.0
226.573502 348.0
226.621552 412.0
226.662292 160.0
226.705002 196.0
226.756882 220.0
226.780594 304.0
226.819794 316.0
226.854172 148.0
226.883484 132.0
226.889771 164.0
226.904648 264.0
226.95076 136.0
227.011993 276.0
227.033005 224.0
227.086288 144.0
227.12471 44.0
227.158752 224.0
227.179031 156.0
227.239761 228.0
227.273102 164.0
227.300995 156.0
227.335724 104.0
227.418015 412.0
227.451355 196.0
227.459854 112.0
227.469788 164.0
227.51181 84.0
227.543213 140.0
227.567047 252.0
227.602005 240.0
227.63298 168.0
227.681412 216.0
227.738815 252.0
227.777939 248.0
227.849716 168.0
227.888382 376.0
227.920013 132.0
227.963394 208.0
228.021851 136.0
228.074387 328.0
228.124435 108.0
228.150986 132.0
228.157013 100.0
228.168198 108.0
228.192734 112.0
228.212662 148.0
228.226517 100.0
228.236694 136.0
228.265121 372.0
228.287109 136.0
228.300415 124.0
228.312027 128.0
228.381058 264.0
228.399796 228.0
228.428391 96.0
228.452362 264.0
228.458939 256.0
228.494568 44.0
228.527756 168.0
228.586533 132.0
228.680847 108.0
228.690872 104.0
228.700607 60.0
228.723282 128.0
228.75267 152.0
228.773254 184.0
228.799957 200.0
228.821823 156.0
228.890366 332.0
228.920609 156.0
228.952728 136.0
228.984207 188.0
229.035477 88.0
229.076019 5552.0
229.118973 172.0
229.164261 180.0
229.188034 156.0
229.234756 200.0
229.271454 92.0
229.305084 176.0
229.314087 192.0
229.357971 200.0
229.384766 116.0
229.425903 84.0
229.436127 108.0
229.447357 156.0
229.46225 136.0
229.485123 516.0
229.529297 128.0
229.573547 192.0
229.619568 88.0
229.662415 196.0
229.707138 140.0
229.743927 148.0
229.760834 160.0
229.79776 156.0
229.85321 228.0
229.888031 308.0
229.925308 204.0
229.936646 320.0
229.999359 176.0
230.083618 1884.0
230.162659 196.0
230.215958 60.0
230.255936 132.0
230.277512 96.0
230.300095 140.0
230.340012 52.0
230.366745 76.0
230.401733 116.0
230.423645 196.0
230.468567 148.0
230.501755 180.0
230.523315 68.0
230.548035 52.0
230.608093 140.0
230.627975 164.0
230.649216 168.0
230.694977 136.0
230.700043 124.0
230.711853 140.0
230.724503 52.0
230.734451 160.0
230.787872 128.0
230.808701 156.0
230.859406 220.0
230.890259 220.0
230.951447 84.0
231.001343 192.0
231.091293 4036.0
231.1689 156.0
231.195206 204.0
231.226807 112.0
231.277252 184.0
231.299469 176.0
231.336517 176.0
231.394669 168.0
231.430267 216.0
231.455276 396.0
231.495483 180.0
231.515488 116.0
231.56192 240.0
231.606766 192.0
231.628906 172.0
231.680984 296.0
231.711288 148.0
231.74794 196.0
231.756699 220.0
231.769592 136.0
231.778748 252.0
231.803146 144.0
231.824356 100.0
231.876633 92.0
231.897858 92.0
231.935471 304.0
231.968781 180.0
231.990936 176.0
232.003479 52.0
232.010971 280.0
232.037766 256.0
232.098816 13928.0
232.143768 248.0
232.166168 56.0
232.200043 76.0
232.222153 84.0
232.229507 156.0
232.252289 124.0
232.308655 144.0
232.33989 328.0
232.39418 108.0
232.433792 228.0
232.444687 284.0
232.454346 252.0
232.494247 172.0
232.519302 172.0
232.557861 60.0
232.605545 64.0
232.63884 92.0
232.654999 136.0
232.678558 44.0
232.729675 520.0
232.770477 88.0
232.796814 124.0
232.826447 272.0
232.845383 124.0
232.861176 116.0
232.868637 88.0
232.925308 384.0
232.976547 116.0
233.022812 416.0
233.083801 29948.0
233.166992 228.0
233.206497 180.0
233.262024 396.0
233.310577 152.0
233.344208 148.0
233.386307 188.0
233.431107 120.0
233.464493 284.0
233.485443 40.0
233.506439 168.0
233.543533 84.0
233.575394 152.0
233.636673 148.0
233.66217 60.0
233.693573 84.0
233.727539 164.0
233.760635 120.0
233.79483 112.0
233.816422 152.0
233.870178 136.0
233.891617 192.0
233.955856 56.0
234.004059 152.0
234.086563 5088.0
234.165085 132.0
234.207275 240.0
234.257767 264.0
234.269257 180.0
234.282455 216.0
234.341476 176.0
234.360641 308.0
234.398956 188.0
234.418823 244.0
234.488617 332.0
234.507446 152.0
234.558685 192.0
234.60228 220.0
234.629303 300.0
234.669083 80.0
234.710098 88.0
234.733414 236.0
234.769196 84.0
234.799026 132.0
234.825104 68.0
234.932587 120.0
234.964035 272.0
234.986893 280.0
235.059509 508.0
235.094849 1212.0
235.155426 144.0
235.194168 316.0
235.24025 148.0
235.247131 116.0
235.269791 176.0
235.28299 172.0
235.290054 196.0
235.367477 148.0
235.402802 184.0
235.456635 192.0
235.486053 260.0
235.52095 216.0
235.570908 120.0
235.606354 228.0
235.636475 108.0
235.690567 132.0
235.740891 140.0
235.761169 88.0
235.784195 260.0
235.82489 132.0
235.860138 164.0
235.915192 184.0
235.955399 120.0
235.988602 308.0
236.022278 140.0
236.06366 644.0
236.131729 56.0
236.156189 136.0
236.18866 192.0
236.215546 232.0
236.257584 112.0
236.272278 124.0
236.282364 256.0
236.305939 100.0
236.325775 208.0
236.397812 272.0
236.447586 132.0
236.503265 92.0
236.531387 64.0
236.570129 76.0
236.578262 64.0
236.604141 84.0
236.647812 248.0
236.731827 208.0
236.748199 132.0
236.793015 144.0
236.849426 164.0
236.873276 368.0
236.934586 160.0
236.969788 192.0
237.015793 272.0
237.079178 392.0
237.103394 252.0
237.122131 164.0
237.135422 144.0
237.146286 180.0
237.197311 76.0
237.230316 256.0
237.245163 80.0
237.287109 188.0
237.29834 164.0
237.304916 276.0
237.349854 476.0
237.400955 216.0
237.451553 140.0
237.484009 376.0
237.503189 80.0
237.512909 200.0
237.54451 164.0
237.632553 52.0
237.665375 96.0
237.688553 220.0
237.741302 72.0
237.803375 192.0
237.837219 116.0
237.89003 120.0
237.917969 128.0
237.929047 156.0
237.939362 128.0
237.955307 188.0
237.968201 56.0
237.974808 256.0
237.998917 148.0
238.006912 128.0
238.045395 120.0
238.083618 456.0
238.149536 180.0
238.200119 160.0
238.231354 276.0
238.254425 216.0
238.301178 44.0
238.354614 188.0
238.378311 160.0
238.438629 144.0
238.475937 116.0
238.521118 264.0
238.543686 244.0
238.594254 128.0
238.634048 140.0
238.664581 104.0
238.694595 280.0
238.713867 308.0
238.741714 48.0
238.8004 180.0
238.834351 164.0
238.859329 68.0
238.896652 92.0
238.97966 264.0
239.027023 144.0
239.06041 44.0
239.094818 240.0
239.121399 76.0
239.171646 84.0
239.200455 176.0
239.240707 148.0
239.266083 48.0
239.29126 248.0
239.323013 284.0
239.341644 384.0
239.381912 292.0
239.422058 104.0
239.473221 140.0
239.508118 168.0
239.573013 188.0
239.599518 196.0
239.60936 148.0
239.626175 116.0
239.638367 96.0
239.67421 196.0
239.703735 540.0
239.734711 228.0
239.817902 268.0
239.849182 228.0
239.902847 180.0
239.927673 176.0
239.935318 72.0
239.951385 136.0
239.963913 72.0
239.974106 124.0
240.031311 112.0
240.068909 364.0
240.110107 44.0
240.11911 160.0
240.136948 308.0
240.208267 120.0
240.230774 140.0
240.251221 128.0
240.303055 176.0
240.328079 164.0
240.383484 192.0
240.428253 148.0
240.45993 156.0
240.488663 196.0
240.499985 148.0
240.508835 176.0
240.531357 224.0
240.572021 268.0
240.646042 124.0
240.722321 84.0
240.766159 304.0
240.788101 96.0
240.82695 444.0
240.853989 184.0
240.936844 168.0
240.991745 228.0
241.025757 244.0
241.074585 3244.0
241.16423 200.0
241.200089 52.0
241.218399 260.0
241.242081 300.0
241.264526 240.0
241.28949 192.0
241.303894 152.0
241.311325 128.0
241.360184 176.0
241.415955 296.0
241.468109 120.0
241.490219 196.0
241.521912 172.0
241.550018 96.0
241.585342 268.0
241.619629 244.0
241.64238 196.0
241.66333 208.0
241.703171 116.0
241.749908 156.0
241.780792 300.0
241.81311 140.0
241.871567 108.0
241.925217 84.0
241.943604 248.0
241.966827 204.0
242.007553 156.0
242.024353 304.0
242.083893 10688.0
242.182785 284.0
242.218796 112.0
242.27179 248.0
242.304993 188.0
242.331741 236.0
242.40976 104.0
242.455429 268.0
242.489502 100.0
242.545578 196.0
242.594604 152.0
242.634399 164.0
242.668167 176.0
242.711639 128.0
242.717911 292.0
242.751404 136.0
242.812271 176.0
242.837387 284.0
242.86908 152.0
242.907074 184.0
242.939575 160.0
243.000824 72.0
243.007935 184.0
243.018723 76.0
243.03035 304.0
243.091949 29608.0
243.14917 260.0
243.181152 92.0
243.238083 300.0
243.27771 92.0
243.305634 80.0
243.334061 196.0
243.375549 224.0
243.417389 372.0
243.465073 76.0
243.513016 176.0
243.585571 124.0
243.609909 296.0
243.664078 164.0
243.695221 220.0
243.731888 492.0
243.767349 116.0
243.817688 116.0
243.859375 88.0
243.913971 172.0
243.945343 232.0
243.979996 156.0
244.03392 332.0
244.095825 7868.0
244.151367 128.0
244.160202 200.0
244.223709 108.0
244.253983 120.0
244.299286 256.0
244.339172 164.0
244.384232 176.0
244.405182 324.0
244.448486 132.0
244.508118 176.0
244.542633 188.0
244.590897 312.0
244.649246 116.0
244.679642 148.0
244.733536 204.0
244.777374 136.0
244.839645 376.0
244.871658 112.0
244.883057 64.0
244.894516 144.0
244.918594 112.0
244.95285 228.0
244.978317 228.0
245.074112 9276.0
245.156708 96.0
245.192566 388.0
245.220764 132.0
245.25618 128.0
245.279007 244.0
245.31694 164.0
245.379196 152.0
245.433228 188.0
245.474731 176.0
245.506332 108.0
245.569778 128.0
245.60199 108.0
245.634094 212.0
245.65361 252.0
245.727188 184.0
245.779633 280.0
245.808426 92.0
245.874466 252.0
245.904205 436.0
245.95079 308.0
245.972916 120.0
246.00145 184.0
246.080353 2116.0
246.161331 160.0
246.193451 124.0
246.233643 196.0
246.256302 140.0
246.287033 60.0
246.311172 116.0
246.320068 84.0
246.332367 164.0
246.364883 152.0
246.375839 140.0
246.389755 136.0
246.402359 260.0
246.412888 360.0
246.473328 140.0
246.495743 100.0
246.524002 300.0
246.546143 112.0
246.553268 188.0
246.563797 188.0
246.621994 20.0
246.649002 152.0
246.670441 92.0
246.719223 104.0
246.772079 168.0
246.794876 248.0
246.837555 136.0
246.873703 136.0
246.908066 184.0
246.940292 204.0
246.984528 200.0
247.012802 88.0
247.098648 6728.0
247.154175 140.0
247.181183 128.0
247.239609 180.0
247.288483 240.0
247.356369 144.0
247.394257 104.0
247.431335 248.0
247.443481 160.0
247.457596 104.0
247.495178 320.0
247.527939 88.0
247.587204 132.0
247.643753 360.0
247.673965 120.0
247.68399 140.0
247.694641 116.0
247.734085 140.0
247.76532 272.0
247.795639 172.0
247.829132 220.0
247.857559 224.0
247.885864 120.0
247.915649 172.0
247.957535 40.0
247.995865 124.0
248.020126 244.0
248.072586 3520.0
248.107391 22296.0
248.167587 244.0
248.206451 140.0
248.239517 52.0
248.268738 120.0
248.304993 176.0
248.338547 244.0
248.361832 104.0
248.371017 124.0
248.473785 232.0
248.511124 392.0
248.549942 144.0
248.595398 96.0
248.634415 264.0
248.658813 120.0
248.691238 96.0
248.730835 176.0
248.808777 132.0
248.815536 84.0
248.829224 168.0
248.891663 232.0
248.943024 132.0
248.984207 56.0
249.033554 108.0
249.079727 1060.0
249.109711 3808.0
249.151749 120.0
249.181808 80.0
249.266174 196.0
249.326721 108.0
249.353882 180.0
249.37355 304.0
249.406693 124.0
249.493927 148.0
249.521957 444.0
249.564636 128.0
249.585236 76.0
249.622955 144.0
249.68663 212.0
249.727127 100.0
249.752579 84.0
249.799149 200.0
249.835449 276.0
249.872269 160.0
249.914246 228.0
249.987595 276.0
250.015579 280.0
250.045715 340.0
250.084015 2144.0
250.1492 116.0
250.183304 116.0
250.206024 160.0
250.233047 64.0
250.275665 68.0
250.345505 144.0
250.404465 76.0
250.428421 208.0
250.477493 176.0
250.485657 64.0
250.504974 132.0
250.562286 92.0
250.588989 80.0
250.625854 52.0
250.666428 160.0
250.686569 180.0
250.725906 224.0
250.782288 228.0
250.806564 164.0
250.832626 164.0
250.853333 180.0
250.898239 132.0
250.927765 176.0
250.981369 188.0
251.012192 156.0
251.036026 100.0
251.05954 200.0
251.091187 408.0
251.131744 136.0
251.148636 92.0
251.170807 196.0
251.196259 260.0
251.206375 152.0
251.263931 224.0
251.315887 76.0
251.342148 128.0
251.372162 124.0
251.399002 88.0
251.431564 120.0
251.470474 176.0
251.533371 128.0
251.542175 88.0
251.573242 192.0
251.608871 176.0
251.63533 160.0
251.665695 48.0
251.684494 84.0
251.719238 140.0
251.741928 232.0
251.784332 300.0
251.811279 120.0
251.816528 84.0
251.840012 148.0
251.851807 120.0
251.894928 76.0
251.940262 320.0
251.967957 228.0
252.021225 408.0
252.042236 292.0
252.087509 156.0
252.118927 136.0
252.143753 64.0
252.181961 224.0
252.238159 92.0
252.276505 80.0
252.350571 280.0
252.369781 152.0
252.387024 88.0
252.397934 148.0
252.426758 316.0
252.485199 68.0
252.510696 212.0
252.531693 80.0
252.539246 44.0
252.577957 132.0
252.638367 196.0
252.739059 128.0
252.776245 108.0
252.804001 108.0
252.843033 300.0
252.884476 340.0
252.918549 64.0
252.949158 120.0
252.98497 96.0
253.034256 224.0
253.080032 232.0
253.149078 144.0
253.201675 324.0
253.257462 132.0
253.280899 152.0
253.321274 196.0
253.390823 124.0
253.427048 180.0
253.462204 188.0
253.511322 136.0
253.567963 72.0
253.61322 188.0
253.664291 220.0
253.700867 168.0
253.739136 148.0
253.769653 160.0
253.77948 72.0
253.79335 168.0
253.854645 292.0
253.88356 132.0
253.938736 112.0
253.969925 176.0
253.979202 244.0
254.0009 148.0
254.059021 204.0
254.083878 352.0
254.123917 112.0
254.152664 96.0
254.180023 64.0
254.21608 224.0
254.251495 224.0
254.27475 52.0
254.297577 320.0
254.366394 152.0
254.405807 180.0
254.443466 164.0
254.478668 140.0
254.514343 200.0
254.543564 92.0
254.573074 92.0
254.624023 264.0
254.661743 132.0
254.689728 236.0
254.738647 292.0
254.760849 124.0
254.765213 156.0
254.799179 132.0
254.827774 72.0
254.893112 204.0
254.947037 256.0
254.959641 184.0
255.001511 172.0
255.006607 116.0
255.036804 136.0
255.042465 108.0
255.092804 900.0
255.150391 148.0
255.172073 492.0
255.205612 128.0
255.212997 160.0
255.25798 380.0
255.27832 92.0
255.335449 284.0
255.430435 296.0
255.468216 72.0
255.501801 176.0
255.532059 148.0
255.558426 144.0
255.588379 144.0
255.628433 120.0
255.675751 120.0
255.760788 180.0
255.794357 180.0
255.844696 176.0
255.886902 144.0
255.917969 504.0
255.953247 184.0
255.963547 220.0
256.012054 284.0
256.064178 3428.0
256.131317 156.0
256.177826 132.0
256.23703 256.0
256.266815 352.0
256.300537 300.0
256.312439 52.0
256.329163 224.0
256.364838 328.0
256.394348 132.0
256.461548 236.0
256.519745 56.0
256.570251 132.0
256.598175 164.0
256.64386 244.0
256.694 160.0
256.746796 100.0
256.751953 68.0
256.774689 124.0
256.818878 148.0
256.857422 140.0
256.890228 184.0
256.94046 216.0
256.961395 148.0
257.007507 124.0
257.070953 15776.0
257.154785 120.0
257.160706 184.0
257.189972 168.0
257.222656 204.0
257.257233 48.0
257.305145 124.0
257.347992 332.0
257.39566 44.0
257.450592 448.0
257.463623 388.0
257.476929 216.0
257.541718 104.0
257.587402 260.0
257.62619 276.0
257.679443 112.0
257.71582 292.0
257.756042 108.0
257.785461 208.0
257.816071 272.0
257.846313 208.0
257.888306 232.0
257.911896 104.0
257.932861 176.0
257.993561 112.0
258.018738 428.0
258.036469 116.0
258.078064 10908.0
258.145477 372.0
258.194794 84.0
258.226593 124.0
258.290527 132.0
258.336182 80.0
258.376801 52.0
258.470398 416.0
258.510193 76.0
258.529114 300.0
258.558502 280.0
258.621521 96.0
258.650391 156.0
258.656067 96.0
258.673187 96.0
258.691315 104.0
258.76181 152.0
258.772491 92.0
258.787659 168.0
258.809906 164.0
258.839691 340.0
258.844238 228.0
258.880676 168.0
258.894501 144.0
258.907593 184.0
258.938538 224.0
258.973846 300.0
258.999756 200.0
259.013916 52.0
259.086578 21892.0
259.191437 364.0
259.229309 140.0
259.255859 108.0
259.295288 148.0
259.306061 80.0
259.342255 232.0
259.382568 160.0
259.407532 200.0
259.433167 52.0
259.473816 200.0
259.534851 128.0
259.541504 96.0
259.602112 128.0
259.618713 128.0
259.624939 124.0
259.663025 268.0
259.702332 328.0
259.723267 228.0
259.778015 192.0
259.81485 276.0
259.83606 180.0
259.876678 204.0
259.954529 112.0
260.007812 276.0
260.094971 32460.0
260.175964 52.0
260.218323 280.0
260.263763 180.0
260.275757 148.0
260.283936 228.0
260.385345 140.0
260.401825 124.0
260.410736 124.0
260.452026 80.0
260.481079 172.0
260.507416 84.0
260.572906 164.0
260.606476 216.0
260.658997 104.0
260.693512 180.0
260.750244 188.0
260.770355 76.0
260.795898 144.0
260.817902 204.0
260.875458 124.0
260.956451 136.0
260.962982 100.0
260.977448 192.0
261.013367 280.0
261.08432 10048.0
261.158478 152.0
261.207916 168.0
261.230743 116.0
261.272003 96.0
261.313721 204.0
261.327362 208.0
261.367737 88.0
261.411163 92.0
261.445496 224.0
261.480591 168.0
261.511475 84.0
261.562134 152.0
261.592957 128.0
261.617645 176.0
261.647827 156.0
261.673431 112.0
261.709778 148.0
261.722107 160.0
261.743439 256.0
261.778015 132.0
261.807434 52.0
261.823334 140.0
261.848694 196.0
261.90155 172.0
261.928711 260.0
261.970428 160.0
261.997345 212.0
262.085754 4456.0
262.140472 244.0
262.173615 68.0
262.213409 120.0
262.2677 120.0
262.294647 152.0
262.332336 212.0
262.377747 224.0
262.432251 168.0
262.464142 108.0
262.506989 172.0
262.536652 180.0
262.584961 156.0
262.611969 152.0
262.638519 72.0
262.675201 104.0
262.714081 216.0
262.7612 188.0
262.808533 300.0
262.852051 88.0
262.89566 132.0
262.944611 232.0
262.973328 340.0
263.094727 38344.0
263.199371 104.0
263.227783 104.0
263.254089 120.0
263.281281 120.0
263.312988 240.0
263.339203 148.0
263.378357 212.0
263.408112 100.0
263.441772 104.0
263.464386 232.0
263.493561 160.0
263.504089 84.0
263.516266 128.0
263.562347 212.0
263.612274 132.0
263.645172 336.0
263.66507 140.0
263.673889 144.0
263.690826 120.0
263.757507 160.0
263.831451 140.0
263.885529 220.0
263.913513 124.0
263.992401 272.0
264.020081 116.0
264.097626 7800.0
264.159729 168.0
264.226562 120.0
264.269775 296.0
264.319214 128.0
264.354858 248.0
264.408203 132.0
264.448547 76.0
264.468719 156.0
264.543182 272.0
264.601044 264.0
264.680359 68.0
264.72995 184.0
264.783966 92.0
264.819489 224.0
264.847992 120.0
264.880829 320.0
264.890015 144.0
264.930176 136.0
264.984131 180.0
265.021179 136.0
265.101715 716.0
265.133301 292.0
265.186676 152.0
265.259888 144.0
265.324615 224.0
265.386017 188.0
265.414856 160.0
265.42215 344.0
265.477753 140.0
265.543396 132.0
265.568298 276.0
265.598541 188.0
265.642517 296.0
265.671997 180.0
265.725555 120.0
265.7659 252.0
265.809021 236.0
265.821472 148.0
265.829163 276.0
265.854218 104.0
265.884186 156.0
265.957153 200.0
266.003052 124.0
266.052185 332.0
266.083282 208.0
266.148224 92.0
266.179749 168.0
266.209473 308.0
266.251434 92.0
266.298584 100.0
266.32663 144.0
266.350403 124.0
266.388458 100.0
266.419464 160.0
266.453186 256.0
266.467316 72.0
266.480499 172.0
266.518127 148.0
266.568115 100.0
266.574341 100.0
266.633789 172.0
266.66333 412.0
266.69519 252.0
266.70755 312.0
266.733002 156.0
266.757141 180.0
266.801788 48.0
266.825867 188.0
266.869598 212.0
266.907318 68.0
266.927734 140.0
266.981415 296.0
267.029236 280.0
267.07196 152.0
267.122559 180.0
267.162048 228.0
267.199249 196.0
267.255768 120.0
267.279663 188.0
267.292603 64.0
267.305786 208.0
267.34314 80.0
267.362854 120.0
267.410767 96.0
267.444519 148.0
267.476013 60.0
267.522491 84.0
267.581879 172.0
267.631012 100.0
267.67395 212.0
267.697083 176.0
267.740814 76.0
267.772278 172.0
267.817932 224.0
267.868073 156.0
267.907898 288.0
267.974731 128.0
268.017822 124.0
268.069672 116.0
268.106659 152.0
268.138519 112.0
268.166504 144.0
268.200104 236.0
268.223389 188.0
268.282745 112.0
268.336182 188.0
268.361511 76.0
268.405609 100.0
268.431 96.0
268.493561 132.0
268.505066 112.0
268.552368 84.0
268.617401 204.0
268.628632 188.0
268.651062 108.0
268.674133 220.0
268.714539 320.0
268.752228 268.0
268.803436 108.0
268.848083 132.0
268.902863 244.0
268.943909 196.0
268.976013 96.0
268.987244 132.0
269.035309 196.0
269.074036 252.0
269.147949 160.0
269.186493 136.0
269.22348 120.0
269.255768 132.0
269.283142 172.0
269.317688 76.0
269.344238 136.0
269.37439 140.0
269.434143 132.0
269.483795 300.0
269.570831 400.0
269.59906 60.0
269.63855 120.0
269.679352 176.0
269.729187 312.0
269.81192 268.0
269.855072 48.0
269.884308 504.0
269.992676 268.0
270.0336 400.0
270.078949 15680.0
270.148132 140.0
270.192047 128.0
270.217102 232.0
270.244049 268.0
270.277802 316.0
270.313293 48.0
270.336182 48.0
270.384613 308.0
270.409698 164.0
270.436584 232.0
270.472412 84.0
270.495026 292.0
270.515106 412.0
270.547882 136.0
270.563599 136.0
270.600067 72.0
270.636261 180.0
270.666748 236.0
270.677826 128.0
270.692352 216.0
270.721985 128.0
270.732422 108.0
270.786621 88.0
270.820465 92.0
270.84198 312.0
270.891693 432.0
270.932648 352.0
271.038177 252.0
271.087097 67872.0
271.171326 36.0
271.203705 264.0
271.238922 76.0
271.281921 124.0
271.308258 52.0
271.343872 368.0
271.393066 176.0
271.456116 276.0
271.49472 184.0
271.525208 280.0
271.570099 132.0
271.63092 136.0
271.673126 160.0
271.680054 200.0
271.699493 256.0
271.736481 212.0
271.790466 292.0
271.823639 344.0
271.887085 404.0
271.923492 128.0
271.972168 328.0
272.023468 312.0
272.095184 144116.0
272.164673 208.0
272.188873 316.0
272.212677 680.0
272.232513 300.0
272.277374 332.0
272.313812 224.0
272.35498 104.0
272.404114 312.0
272.415527 220.0
272.447327 236.0
272.462982 340.0
272.517303 88.0
272.54245 296.0
272.597748 428.0
272.634399 608.0
272.657928 312.0
272.697235 424.0
272.730682 160.0
272.76825 232.0
272.810028 392.0
272.844147 224.0
272.850647 160.0
272.897186 528.0
273.013 996.0
273.067841 237568.0
273.16745 188.0
273.180054 104.0
273.219391 360.0
273.274597 180.0
273.315979 188.0
273.359528 344.0
273.374603 152.0
273.384888 196.0
273.412964 200.0
273.438507 236.0
273.470856 196.0
273.535187 212.0
273.566467 272.0
273.610443 1712.0
273.646576 464.0
273.698608 392.0
273.739838 356.0
273.762115 296.0
273.812683 140.0
273.876526 396.0
273.910553 220.0
273.967682 148.0
273.988586 280.0
274.000336 124.0
274.070282 47684.0
274.108521 13596.0
274.153412 328.0
274.180725 404.0
274.190247 328.0
274.22052 224.0
274.246521 184.0
274.301147 148.0
274.316223 184.0
274.364105 392.0
274.411926 252.0
274.502136 292.0
274.569305 236.0
274.575348 224.0
274.64444 192.0
274.677521 272.0
274.722351 164.0
274.735352 220.0
274.746674 176.0
274.780914 240.0
274.811066 124.0
274.834747 164.0
274.861572 296.0
274.895508 244.0
274.933105 384.0
274.977753 332.0
275.021118 172.0
275.075623 5996.0
275.117523 28756.0
275.230072 240.0
275.282928 400.0
275.346313 196.0
275.371796 164.0
275.41571 188.0
275.459595 452.0
275.469299 224.0
275.518402 248.0
275.563202 196.0
275.592163 144.0
275.631653 204.0
275.659515 92.0
275.690643 248.0
275.723053 248.0
275.731079 360.0
275.742981 388.0
275.769592 352.0
275.79715 132.0
275.830078 300.0
275.859344 152.0
275.898773 300.0
275.946808 432.0
275.975616 376.0
275.985474 216.0
276.017944 536.0
276.103333 115356.0
276.233185 512.0
276.260284 128.0
276.279572 60.0
276.316467 172.0
276.361084 152.0
276.412933 164.0
276.478424 148.0
276.510345 164.0
276.542664 184.0
276.556458 196.0
276.617035 124.0
276.660309 120.0
276.724426 172.0
276.758545 116.0
276.819305 144.0
276.857056 48.0
276.876801 224.0
276.905914 156.0
276.919098 148.0
276.995056 348.0
277.021729 136.0
277.051788 188.0
277.105255 26028.0
277.179474 96.0
277.227783 212.0
277.277008 208.0
277.326691 216.0
277.362762 236.0
277.394165 84.0
277.406006 80.0
277.444061 88.0
277.502258 112.0
277.556335 268.0
277.586761 272.0
277.632782 156.0
277.683533 124.0
277.713165 128.0
277.744934 124.0
277.825958 148.0
277.856018 300.0
277.908295 200.0
277.949677 204.0
277.987732 176.0
277.993988 108.0
278.008087 80.0
278.049896 188.0
278.107971 2292.0
278.177338 128.0
278.245178 168.0
278.27655 232.0
278.33432 160.0
278.393768 348.0
278.458496 176.0
278.492798 104.0
278.534637 52.0
278.586456 72.0
278.634094 100.0
278.663239 92.0
278.688171 284.0
278.743805 124.0
278.795441 160.0
278.827881 168.0
278.882446 220.0
278.908752 212.0
278.929047 88.0
278.975067 48.0
278.993713 268.0
279.023193 196.0
279.055481 488.0
279.110809 264.0
279.149017 244.0
279.173065 32.0
279.224854 60.0
279.267029 140.0
279.302826 196.0
279.358124 212.0
279.417755 108.0
279.465607 124.0
279.540924 188.0
279.614014 116.0
279.671692 60.0
279.688538 200.0
279.767029 84.0
279.803192 80.0
279.857208 124.0
279.89801 136.0
279.936279 132.0
279.948456 128.0
279.957947 176.0
279.994385 48.0
280.041107 452.0
280.067627 200.0
280.101746 152.0
280.131073 44.0
280.169617 152.0
280.220123 64.0
280.253693 184.0
280.286133 176.0
280.348694 280.0
280.398773 60.0
280.42691 100.0
280.452789 92.0
280.486115 60.0
280.512451 280.0
280.564117 140.0
280.599457 76.0
280.64679 80.0
280.696136 104.0
280.746185 56.0
280.843719 260.0
280.900269 180.0
280.946289 124.0
280.986267 208.0
281.022156 60.0
281.085571 124.0
281.12796 192.0
281.160675 160.0
281.205872 96.0
281.23468 124.0
281.279419 68.0
281.313538 172.0
281.373474 32.0
281.419739 196.0
281.449921 108.0
281.514374 164.0
281.541901 164.0
281.591766 120.0
281.667969 260.0
281.719849 192.0
281.757568 112.0
281.788361 72.0
281.815826 192.0
281.843018 248.0
281.878998 108.0
281.914612 100.0
281.937988 72.0
281.964355 208.0
282.001495 80.0
282.028381 304.0
282.104309 184.0
282.147552 116.0
282.174957 176.0
282.225861 168.0
282.250916 156.0
282.319305 68.0
282.344421 264.0
282.396606 252.0
282.486359 128.0
282.517639 260.0
282.560425 336.0
282.598236 100.0
282.668518 240.0
282.717224 284.0
282.743988 92.0
282.796906 200.0
282.83374 172.0
282.882416 112.0
282.926422 160.0
282.972443 96.0
283.01178 180.0
283.055969 208.0
283.091919 92.0
283.134308 116.0
283.144958 68.0
283.157776 168.0
283.203369 124.0
283.234589 252.0
283.319916 60.0
283.36969 168.0
283.440186 232.0
283.472321 200.0
283.497498 140.0
283.532043 212.0
283.574402 132.0
283.610107 168.0
283.654083 128.0
283.694153 84.0
283.733002 108.0
283.793121 172.0
283.832306 156.0
283.881073 48.0
283.923279 116.0
283.962189 112.0
283.995392 104.0
284.022247 164.0
284.100128 292.0
284.170807 160.0
284.230835 200.0
284.275513 172.0
284.315033 140.0
284.328186 64.0
284.341339 80.0
284.347656 172.0
284.373779 132.0
284.383514 152.0
284.394165 148.0
284.404968 128.0
284.422241 192.0
284.434692 284.0
284.512451 136.0
284.541565 140.0
284.572296 88.0
284.604492 144.0
284.631348 148.0
284.655151 96.0
284.702942 148.0
284.72995 128.0
284.823242 252.0
284.867371 248.0
284.950378 296.0
284.982025 180.0
285.025177 184.0
285.102539 16792.0
285.170288 148.0
285.234863 152.0
285.279694 260.0
285.305176 196.0
285.335571 68.0
285.400818 128.0
285.484314 96.0
285.523956 240.0
285.584686 44.0
285.619446 92.0
285.644989 60.0
285.679352 148.0
285.736298 260.0
285.786255 184.0
285.828125 236.0
285.871704 180.0
285.919189 196.0
285.984283 356.0
286.105438 7568.0
286.187439 268.0
286.225555 232.0
286.257538 60.0
286.274689 112.0
286.300049 180.0
286.329773 344.0
286.375488 124.0
286.419189 80.0
286.432098 84.0
286.443573 192.0
286.470459 148.0
286.485138 24.0
286.494141 152.0
286.533722 136.0
286.540833 48.0
286.557831 272.0
286.570068 132.0
286.610687 148.0
286.67627 152.0
286.719635 252.0
286.78653 288.0
286.811432 120.0
286.837128 352.0
286.87973 136.0
286.970123 104.0
287.013672 288.0
287.021271 384.0
287.084991 12196.0
287.177002 96.0
287.2005 76.0
287.232697 180.0
287.236969 224.0
287.265472 172.0
287.285217 152.0
287.29306 184.0
287.344269 240.0
287.401367 108.0
287.44928 116.0
287.485382 224.0
287.545593 68.0
287.572937 328.0
287.590363 384.0
287.62149 264.0
287.657562 172.0
287.673737 196.0
287.705048 328.0
287.735291 416.0
287.749359 204.0
287.76181 632.0
287.788361 188.0
287.821442 552.0
287.846313 204.0
287.860321 296.0
287.889282 184.0
287.916718 276.0
287.97406 420.0
288.010712 532.0
288.090942 241772.0
288.20993 368.0
288.255768 140.0
288.279236 108.0
288.325348 376.0
288.391418 320.0
288.414062 320.0
288.474945 260.0
288.51532 284.0
288.545898 136.0
288.551483 148.0
288.607178 76.0
288.647339 1960.0
288.699921 260.0
288.745117 148.0
288.794434 212.0
288.831757 172.0
288.858093 228.0
288.893829 352.0
288.966217 168.0
289.004303 140.0
289.027893 472.0
289.03833 380.0
289.094421 55172.0
289.146454 316.0
289.196014 248.0
289.246246 244.0
289.311523 284.0
289.34845 144.0
289.39325 196.0
289.426575 164.0
289.455048 88.0
289.524963 368.0
289.60733 224.0
289.661285 388.0
289.697479 164.0
289.733337 256.0
289.761627 44.0
289.803253 248.0
289.829071 164.0
289.861694 152.0
289.897461 180.0
289.913269 48.0
289.948853 176.0
289.997711 164.0
290.0354 128.0
290.096375 7996.0
290.14859 252.0
290.163818 232.0
290.204681 96.0
290.246704 308.0
290.317444 144.0
290.343903 164.0
290.393799 172.0
290.460419 212.0
290.493011 188.0
290.526031 228.0
290.550293 232.0
290.612396 268.0
290.678833 136.0
290.701019 208.0
290.768555 284.0
290.8461 344.0
290.889221 136.0
290.926819 228.0
290.954285 176.0
290.997009 120.0
291.034393 256.0
291.081024 1044.0
291.143402 348.0
291.175323 192.0
291.232361 300.0
291.270966 220.0
291.295776 244.0
291.338928 96.0
291.381775 228.0
291.425323 140.0
291.450378 156.0
291.488617 120.0
291.521362 152.0
291.559479 188.0
291.578979 184.0
291.623627 260.0
291.650421 96.0
291.680481 168.0
291.726227 132.0
291.734711 136.0
291.749054 100.0
291.823608 144.0
291.837311 128.0
291.849854 100.0
291.881317 56.0
291.949188 220.0
291.989929 132.0
292.021027 100.0
292.084442 588.0
292.137878 192.0
292.180023 136.0
292.221069 100.0
292.264069 132.0
292.315033 76.0
292.350739 300.0
292.373596 312.0
292.411835 188.0
292.461273 120.0
292.516296 92.0
292.554718 144.0
292.58194 76.0
292.625641 264.0
292.664734 104.0
292.70993 116.0
292.737152 112.0
292.788483 136.0
292.836884 244.0
292.900635 100.0
292.976959 136.0
293.017975 200.0
293.078583 236.0
293.102814 264.0
293.127533 100.0
293.133453 108.0
293.147858 136.0
293.197235 152.0
293.255005 208.0
293.277649 124.0
293.350037 100.0
293.384277 164.0
293.43866 136.0
293.489777 204.0
293.538818 80.0
293.578888 144.0
293.660736 32.0
293.693359 200.0
293.738129 204.0
293.773773 152.0
293.804016 76.0
293.834473 176.0
293.860901 172.0
293.892731 44.0
293.936462 168.0
293.995422 128.0
294.026978 220.0
294.059937 52.0
294.128479 192.0
294.154785 252.0
294.19574 92.0
294.237457 40.0
294.298798 172.0
294.391113 120.0
294.421204 236.0
294.464691 100.0
294.509979 84.0
294.551636 60.0
294.585114 40.0
294.614349 68.0
294.691711 92.0
294.734406 104.0
294.769073 208.0
294.81308 52.0
294.848877 52.0
294.913208 100.0
294.950134 128.0
294.98822 100.0
295.026642 124.0
295.055359 148.0
295.099609 92.0
295.125793 240.0
295.194275 132.0
295.245453 60.0
295.275208 292.0
295.31131 72.0
295.365173 172.0
295.413055 124.0
295.442261 68.0
295.467804 84.0
295.514038 180.0
295.555695 120.0
295.586975 72.0
295.628632 80.0
295.663055 128.0
295.693665 136.0
295.721252 116.0
295.746704 112.0
295.803192 96.0
295.853394 60.0
295.882904 168.0
295.934418 48.0
295.966125 208.0
296.010406 84.0
296.039429 160.0
296.072083 128.0
296.119202 404.0
296.183289 140.0
296.247192 164.0
296.286438 56.0
296.38269 176.0
296.442993 124.0
296.464233 180.0
296.48822 144.0
296.576111 124.0
296.602936 68.0
296.614227 120.0
296.632172 160.0
296.666046 108.0
296.711121 120.0
296.800171 72.0
296.831024 104.0
296.864655 212.0
296.894287 80.0
296.96463 104.0
297.03125 136.0
297.116211 108.0
297.165466 124.0
297.173462 48.0
297.213226 120.0
297.245026 108.0
297.251251 64.0
297.288269 136.0
297.316986 116.0
297.342194 72.0
297.411652 140.0
297.438599 316.0
297.527954 172.0
297.568756 172.0
297.59079 156.0
297.627106 88.0
297.658905 140.0
297.674805 96.0
297.683075 136.0
297.752014 200.0
297.818298 180.0
297.871826 156.0
297.96524 36.0
298.006866 132.0
298.049011 184.0
298.077515 256.0
298.15799 172.0
298.200012 120.0
298.224121 128.0
298.253326 128.0
298.282501 152.0
298.332092 164.0
298.382538 116.0
298.42691 176.0
298.479553 96.0
298.516083 148.0
298.523315 104.0
298.576874 252.0
298.604218 40.0
298.633179 160.0
298.68219 56.0
298.720032 68.0
298.777435 184.0
298.822296 156.0
298.849274 308.0
298.881744 60.0
298.964325 188.0
299.009796 128.0
299.038086 184.0
299.082977 136.0
299.124908 236.0
299.156067 124.0
299.180756 124.0
299.188904 88.0
299.227112 176.0
299.249817 380.0
299.317017 132.0
299.446655 192.0
299.49234 120.0
299.526062 140.0
299.572144 72.0
299.62326 144.0
299.679932 152.0
299.722443 152.0
299.751068 144.0
299.775146 324.0
299.820892 200.0
299.863556 40.0
299.897675 72.0
299.944153 124.0
299.992004 264.0
300.034912 252.0
300.077026 10572.0
300.172791 256.0
300.198975 172.0
300.252319 204.0
300.277893 116.0
300.312805 128.0
300.383423 256.0
300.448242 92.0
300.484833 180.0
300.514038 120.0
300.571899 96.0
300.604675 80.0
300.653625 88.0
300.70224 196.0
300.753174 112.0
300.809906 148.0
300.848785 116.0
300.887604 264.0
300.925568 164.0
300.960358 108.0
301.019928 120.0
301.083405 3028.0
301.177032 108.0
301.214691 228.0
301.302307 156.0
301.342194 108.0
301.348145 116.0
301.390625 176.0
301.424164 260.0
301.466644 112.0
301.475677 208.0
301.48941 288.0
301.543762 536.0
301.577454 216.0
301.60733 84.0
301.644043 136.0
301.689819 116.0
301.738983 276.0
301.800751 200.0
301.843628 276.0
301.924622 260.0
301.950012 460.0
301.979858 148.0
302.106018 21188.0
302.165436 324.0
302.197052 308.0
302.244965 328.0
302.282349 288.0
302.369263 380.0
302.454681 452.0
302.476501 200.0
302.490967 240.0
302.522461 276.0
302.534882 296.0
302.544922 264.0
302.584503 180.0
302.631775 440.0
302.670593 488.0
302.726837 396.0
302.77179 368.0
302.836731 564.0
302.852112 172.0
302.899658 536.0
302.944519 652.0
302.984314 772.0
303.115356 447768.0
303.240448 344.0
303.265564 140.0
303.32962 272.0
303.359253 356.0
303.40625 456.0
303.43457 576.0
303.497742 472.0
303.536957 240.0
303.542084 236.0
303.549225 428.0
303.597076 144.0
303.637817 188.0
303.686462 9372.0
303.718811 676.0
303.768677 344.0
303.803467 432.0
303.841248 248.0
303.890656 264.0
303.938721 516.0
303.962646 232.0
304.019897 472.0
304.050659 584.0
304.11731 158336.0
304.197205 124.0
304.218231 276.0
304.24884 192.0
304.304962 120.0
304.327301 144.0
304.367157 80.0
304.397217 204.0
304.421448 268.0
304.463226 168.0
304.502319 264.0
304.528595 236.0
304.557922 124.0
304.599915 188.0
304.649353 380.0
304.732635 292.0
304.740601 196.0
304.764374 252.0
304.814911 208.0
304.870392 116.0
304.936157 316.0
304.975891 156.0
305.00943 216.0
305.058746 276.0
305.119537 15480.0
305.205048 128.0
305.251007 188.0
305.264893 172.0
305.308929 172.0
305.34787 240.0
305.407227 348.0
305.482178 224.0
305.504608 404.0
305.549652 164.0
305.581604 72.0
305.621674 132.0
305.63385 104.0
305.645935 140.0
305.711121 60.0
305.739258 232.0
305.816132 216.0
305.847443 240.0
305.857361 368.0
305.896942 168.0
305.937836 356.0
305.955475 264.0
305.983643 428.0
306.015778 408.0
306.04834 296.0
306.124359 1632.0
306.16333 424.0
306.191772 256.0
306.226044 516.0
306.261261 612.0
306.268097 384.0
306.307648 248.0
306.346436 216.0
306.387848 180.0
306.430206 160.0
306.464722 200.0
306.474243 384.0
306.501587 96.0
306.514954 96.0
306.539734 152.0
306.553101 148.0
306.572754 60.0
306.609619 116.0
306.654663 196.0
306.681885 88.0
306.716858 92.0
306.766815 232.0
306.832581 96.0
306.890137 48.0
306.917236 124.0
306.963684 124.0
307.003998 372.0
307.03833 220.0
307.108429 456.0
307.154236 120.0
307.185364 348.0
307.21524 116.0
307.276794 236.0
307.307312 164.0
307.338287 120.0
307.379852 164.0
307.457062 128.0
307.490875 76.0
307.521057 28.0
307.55542 88.0
307.608215 156.0
307.639008 52.0
307.701447 72.0
307.762939 80.0
307.814941 108.0
307.847595 112.0
307.896545 176.0
307.955719 224.0
308.002563 104.0
308.039856 176.0
308.074371 264.0
308.116058 156.0
308.17334 124.0
308.220612 100.0
308.286407 76.0
308.310852 108.0
308.335327 60.0
308.380768 80.0
308.418579 100.0
308.476807 52.0
308.514435 100.0
308.563843 96.0
308.611481 32.0
308.667419 72.0
308.757202 144.0
308.828644 80.0
308.873779 48.0
308.926056 72.0
308.95932 160.0
308.968231 72.0
308.980652 160.0
309.075043 144.0
309.111694 92.0
309.149597 96.0
309.156738 64.0
309.198212 124.0
309.24469 148.0
309.343567 112.0
309.355103 80.0
309.368439 156.0
309.426361 216.0
309.491882 72.0
309.519592 68.0
309.559174 40.0
309.621399 100.0
309.648682 124.0
309.69635 56.0
309.746155 112.0
309.768524 60.0
309.854004 152.0
309.87851 72.0
309.925568 84.0
309.976624 92.0
310.069153 100.0
310.09787 64.0
310.134338 44.0
310.158875 48.0
310.226257 144.0
310.260315 64.0
310.292084 84.0
310.320129 76.0
310.441376 144.0
310.505981 176.0
310.592804 48.0
310.697174 56.0
310.792358 132.0
310.821594 120.0
310.900269 128.0
310.973267 112.0
311.049835 48.0
311.077942 164.0
311.106018 76.0
311.141113 84.0
311.197296 60.0
311.309662 44.0
311.355316 68.0
311.385162 100.0
311.463257 152.0
311.496033 68.0
311.598114 124.0
311.636993 196.0
311.665985 64.0
311.748779 92.0
311.786926 80.0
311.815552 188.0
311.892883 108.0
311.945618 100.0
312.029999 68.0
312.058105 72.0
312.153046 28.0
312.177673 52.0
312.258545 40.0
312.314819 128.0
312.351044 136.0
312.413147 148.0
312.484192 56.0
312.5224 56.0
312.554077 56.0
312.590729 76.0
312.63501 164.0
312.661865 88.0
312.703003 172.0
312.762878 108.0
312.818024 56.0
312.85675 128.0
312.886078 132.0
312.949463 36.0
313.057434 36.0
313.127869 52.0
313.159576 152.0
313.212402 56.0
313.27243 52.0
313.391449 88.0
313.448456 60.0
313.47937 52.0
313.486511 40.0
313.499634 84.0
313.54715 104.0
313.6987 40.0
313.726898 32.0
313.830841 116.0
313.927887 32.0
313.973724 52.0
314.011414 64.0
314.051331 60.0
314.095001 480.0
314.149048 256.0
314.227722 48.0
314.253296 80.0
314.29306 84.0
314.376862 120.0
314.418243 264.0
314.464813 64.0
314.654877 120.0
314.709869 128.0
314.762238 64.0
314.8172 188.0
314.845428 204.0
314.905487 108.0
314.958466 36.0
314.997314 40.0
315.044891 300.0
315.10022 7104.0
315.163361 84.0
315.20929 60.0
315.243378 112.0
315.279968 152.0
315.33316 120.0
315.368347 92.0
315.477936 108.0
315.520355 40.0
315.56366 244.0
315.59491 208.0
315.643341 152.0
315.684052 96.0
315.742889 128.0
315.769287 84.0
315.808685 104.0
315.851166 176.0
315.909698 244.0
315.992981 84.0
316.029663 96.0
316.095306 1940.0
316.196808 184.0
316.227814 216.0
316.263824 92.0
316.319977 120.0
316.355011 164.0
316.389069 80.0
316.410309 240.0
316.443756 160.0
316.484375 132.0
316.529999 180.0
316.64621 116.0
316.742157 104.0
316.787811 56.0
316.829803 52.0
316.882935 96.0
316.943176 116.0
316.977264 148.0
317.014069 108.0
317.091827 1148.0
317.168976 220.0
317.218079 36.0
317.276337 52.0
317.30011 96.0
317.327759 80.0
317.359344 108.0
317.405762 144.0
317.442169 68.0
317.481781 84.0
317.526123 208.0
317.559784 56.0
317.59549 40.0
317.645172 44.0
317.698059 44.0
317.743744 188.0
317.840302 148.0
317.886658 128.0
317.932556 128.0
317.971588 44.0
318.025879 120.0
318.090729 476.0
318.167786 88.0
318.227173 48.0
318.265167 192.0
318.351471 60.0
318.384583 196.0
318.438721 140.0
318.520355 40.0
318.572235 104.0
318.620636 100.0
318.685364 168.0
318.731567 36.0
318.802643 56.0
318.866608 196.0
318.909241 80.0
318.956482 268.0
319.033661 72.0
319.073608 696.0
319.124237 204.0
319.179443 64.0
319.216492 180.0
319.245239 168.0
319.290588 156.0
319.36792 128.0
319.399933 124.0
319.427643 76.0
319.463287 84.0
319.490387 140.0
319.551361 100.0
319.583405 84.0
319.596924 76.0
319.610992 112.0
319.672882 132.0
319.773285 108.0
319.826935 184.0
319.885498 116.0
319.919556 188.0
320.010712 128.0
320.097809 260.0
320.192474 120.0
320.23996 56.0
320.263428 68.0
320.313904 128.0
320.369415 136.0
320.396759 220.0
320.467438 132.0
320.507019 380.0
320.542084 208.0
320.60202 296.0
320.648621 184.0
320.674957 156.0
320.72522 204.0
320.78653 244.0
320.814423 188.0
320.841492 124.0
320.901978 224.0
320.92868 92.0
320.950623 336.0
320.997803 324.0
321.074646 504.0
321.125702 232508.0
321.235107 124.0
321.323212 132.0
321.346069 124.0
321.397583 200.0
321.442993 136.0
321.464874 68.0
321.528351 128.0
321.579498 108.0
321.61438 164.0
321.659943 120.0
321.71286 1772.0
321.743134 300.0
321.771881 252.0
321.805023 316.0
321.835052 124.0
321.892822 132.0
321.915375 356.0
321.98938 148.0
322.010773 288.0
322.066711 228.0
322.12796 55844.0
322.204498 56.0
322.253448 140.0
322.299347 196.0
322.348877 144.0
322.427368 192.0
322.458313 76.0
322.504181 260.0
322.521362 100.0
322.52948 80.0
322.575439 84.0
322.628082 116.0
322.679047 104.0
322.707672 128.0
322.736237 164.0
322.783936 80.0
322.795593 120.0
322.824036 112.0
322.85318 160.0
322.883911 56.0
322.917358 96.0
322.946472 128.0
322.968628 68.0
323.008057 64.0
323.016998 80.0
323.029541 64.0
323.072052 104.0
323.128662 6000.0
323.189423 128.0
323.232758 40.0
323.269562 68.0
323.323883 120.0
323.342621 48.0
323.356659 104.0
323.369019 160.0
323.408508 128.0
323.457397 280.0
323.525177 48.0
323.557159 92.0
323.614227 32.0
323.67807 132.0
323.71347 72.0
323.771667 124.0
323.806854 108.0
323.853699 160.0
323.881958 196.0
323.931091 80.0
323.970673 60.0
324.040192 132.0
324.086487 180.0
324.128418 664.0
324.166779 280.0
324.209045 112.0
324.247772 156.0
324.304779 132.0
324.342743 224.0
324.37323 320.0
324.416229 192.0
324.431671 104.0
324.440125 92.0
324.482727 200.0
324.512299 140.0
324.54895 120.0
324.58609 308.0
324.716858 56.0
324.766235 60.0
324.829224 272.0
324.907501 56.0
324.964417 284.0
325.007721 80.0
325.064789 128.0
325.092926 72.0
325.153778 104.0
325.21637 96.0
325.271027 176.0
325.341705 136.0
325.401398 48.0
325.436127 112.0
325.533081 116.0
325.589172 64.0
325.635529 76.0
325.675232 48.0
325.737793 64.0
325.768677 48.0
325.798737 112.0
325.824005 84.0
325.905945 144.0
325.947723 92.0
325.989288 140.0
326.074493 152.0
326.101501 36.0
326.159027 108.0
326.228302 160.0
326.285187 284.0
326.313934 68.0
326.341553 40.0
326.389923 72.0
326.416504 64.0
326.503082 48.0
326.564514 60.0
326.668823 68.0
326.694031 48.0
326.83432 88.0
326.862793 88.0
326.932648 112.0
326.971069 88.0
327.007629 52.0
327.032257 148.0
327.061707 168.0
327.091553 68.0
327.121521 156.0
327.215851 68.0
327.28067 76.0
327.352692 56.0
327.430664 116.0
327.521973 96.0
327.554382 56.0
327.583191 40.0
327.626434 76.0
327.682404 64.0
327.748932 56.0
327.784973 64.0
327.838684 88.0
327.852905 56.0
327.907227 52.0
327.963684 136.0
328.020508 56.0
328.110809 88.0
328.16156 100.0
328.242767 52.0
328.311279 44.0
328.351105 88.0
328.430481 80.0
328.457458 152.0
328.500031 148.0
328.62265 88.0
328.686462 72.0
328.758606 28.0
328.841614 68.0
328.917419 180.0
328.971252 132.0
329.045593 160.0
329.097443 120.0
329.108704 112.0
329.11795 176.0
329.202667 108.0
329.231537 80.0
329.265259 72.0
329.323914 112.0
329.403931 204.0
329.433807 84.0
329.473541 60.0
329.518677 68.0
329.55304 40.0
329.589172 164.0
329.643372 64.0
329.688721 160.0
329.749878 212.0
329.81189 64.0
329.87085 124.0
329.90332 100.0
329.948792 80.0
329.971893 72.0
329.994659 148.0
330.054443 212.0
330.06723 248.0
330.074036 276.0
330.124756 47856.0
330.189636 180.0
330.251251 88.0
330.313354 276.0
330.369781 232.0
330.448517 96.0
330.482269 140.0
330.532074 136.0
330.572754 108.0
330.601685 124.0
330.677979 88.0
330.70929 104.0
330.74646 40.0
330.78714 188.0
330.828552 136.0
330.859161 140.0
330.889313 140.0
330.927979 124.0
330.97818 112.0
331.016357 124.0
331.051849 292.0
331.10965 53240.0
331.218109 220.0
331.259033 64.0
331.322266 36.0
331.357544 92.0
331.369965 144.0
331.381836 72.0
331.400024 60.0
331.447479 144.0
331.47403 136.0
331.516663 88.0
331.553253 192.0
331.594147 64.0
331.672668 40.0
331.737579 120.0
331.789764 184.0
331.849121 140.0
331.888062 128.0
331.948975 44.0
332.008698 172.0
332.048584 96.0
332.112549 12504.0
332.173187 44.0
332.185974 32.0
332.264862 68.0
332.307495 96.0
332.397156 144.0
332.468079 56.0
332.558807 36.0
332.587952 72.0
332.624451 76.0
332.649841 128.0
332.663422 44.0
332.678406 84.0
332.722168 180.0
332.758209 60.0
332.802032 56.0
332.90506 96.0
332.938263 60.0
332.975922 140.0
332.989319 56.0
332.996521 108.0
333.03363 124.0
333.114746 1864.0
333.197205 40.0
333.240906 48.0
333.271484 60.0
333.305725 108.0
333.344391 72.0
333.406494 220.0
333.435944 56.0
333.498413 104.0
333.549286 116.0
333.579498 96.0
333.612213 40.0
333.659485 68.0
333.698883 96.0
333.743103 52.0
333.77948 40.0
333.824402 56.0
333.888947 80.0
333.916412 68.0
333.997986 92.0
334.058319 72.0
334.120789 320.0
334.200348 96.0
334.243774 88.0
334.256256 88.0
334.299316 44.0
334.387482 92.0
334.438995 136.0
334.503479 44.0
334.543518 196.0
334.845764 36.0
334.89151 128.0
334.960693 108.0
335.000031 124.0
335.103607 712.0
335.260834 172.0
335.364227 80.0
335.44696 48.0
335.514862 88.0
335.567261 52.0
335.603729 112.0
335.680298 36.0
335.731354 52.0
335.811584 32.0
335.88089 36.0
335.972107 136.0
336.008575 164.0
336.034119 68.0
336.107697 280.0
336.216583 96.0
336.327789 36.0
336.38446 72.0
336.442871 136.0
336.501282 96.0
336.534149 116.0
336.581635 48.0
336.654663 36.0
336.70578 108.0
336.808044 72.0
337.118622 112.0
337.173431 116.0
337.264801 48.0
337.348877 108.0
337.378113 36.0
337.403717 120.0
337.451233 80.0
337.549957 100.0
337.604828 108.0
337.738892 92.0
337.919403 76.0
337.945007 240.0
338.048553 48.0
338.089386 124.0
338.233154 76.0
338.302887 168.0
338.458618 76.0
338.671204 76.0
339.065552 84.0
339.101593 120.0
339.134796 112.0
339.188416 52.0
339.369812 68.0
339.729248 124.0
339.758606 192.0
339.833069 80.0
339.86499 72.0
339.945709 64.0
339.993439 88.0
340.063171 108.0
340.118225 100.0
340.187958 60.0
340.287079 68.0
340.349854 172.0
340.376831 96.0
340.415619 68.0
340.459686 72.0
340.716797 112.0
340.764557 112.0
340.790283 96.0
340.85672 100.0
341.02179 52.0
341.115479 240.0
341.446136 68.0
341.604187 84.0
341.691071 92.0
341.852112 52.0
341.915527 72.0
342.1185 124.0
342.16217 56.0
342.195282 184.0
342.316803 72.0
342.39035 88.0
342.508331 40.0
342.537781 64.0
342.932068 92.0
342.961548 152.0
343.147247 332.0
343.30072 56.0
343.658539 52.0
343.828278 68.0
343.942719 136.0
343.968536 76.0
344.018341 140.0
344.135986 544.0
344.300842 64.0
344.36734 36.0
344.428223 140.0
344.524628 96.0
344.734924 64.0
344.758392 212.0
344.785095 108.0
344.958527 124.0
344.999207 108.0
345.054657 84.0
345.116913 96.0
345.157288 116.0
345.283936 60.0
345.328308 68.0
345.359741 84.0
345.431885 136.0
345.472565 96.0
345.53067 148.0
345.576172 92.0
345.635376 64.0
345.750092 40.0
345.816711 100.0
345.96106 56.0
346.012909 76.0
346.119659 1984.0
346.253601 80.0
346.498077 44.0
346.561066 56.0
346.659698 168.0
346.924255 56.0
346.957642 44.0
347.12674 1308.0
347.176605 72.0
347.402649 140.0
347.499115 64.0
347.637543 116.0
347.680939 96.0
347.75296 128.0
347.783447 136.0
347.810852 116.0
347.844238 208.0
347.877655 64.0
347.940765 44.0
348.133392 1948.0
348.193268 40.0
348.33844 152.0
348.367859 152.0
348.39386 92.0
348.457031 88.0
348.520172 132.0
348.598877 176.0
348.702271 200.0
348.739929 124.0
348.824921 120.0
348.88443 108.0
348.910431 136.0
348.94928 156.0
348.999664 184.0
349.051727 224.0
349.120056 39892.0
349.188141 204.0
349.197571 128.0
349.211121 128.0
349.2229 168.0
349.29068 32.0
349.351532 92.0
349.424316 80.0
349.472046 212.0
349.51297 40.0
349.55957 108.0
349.598572 112.0
349.674408 92.0
349.710205 32.0
349.73764 168.0
349.766052 64.0
349.885284 156.0
349.915924 344.0
349.970825 56.0
350.004333 132.0
350.121399 9228.0
350.214844 40.0
350.250122 56.0
350.339539 32.0
350.377258 160.0
350.457428 136.0
350.566467 84.0
350.63092 168.0
350.659363 116.0
350.697266 40.0
350.812805 116.0
350.859772 92.0
350.872467 40.0
350.882019 128.0
350.928375 84.0
351.006683 52.0
351.12262 716.0
351.185699 72.0
351.28067 96.0
351.3461 40.0
351.425934 60.0
351.555298 100.0
351.638245 96.0
351.805145 52.0
351.838745 40.0
351.950287 144.0
352.040375 92.0
352.118164 72.0
352.124512 136.0
352.199097 112.0
352.252594 172.0
352.274414 60.0
352.327148 72.0
352.361603 76.0
352.410156 68.0
352.44278 160.0
352.484894 36.0
352.526672 136.0
352.539429 128.0
352.594269 208.0
352.660553 48.0
352.697937 140.0
352.784576 88.0
352.847473 76.0
352.882812 44.0
352.937195 80.0
352.970856 28.0
353.154083 56.0
353.225159 108.0
353.316528 120.0
353.391479 140.0
353.462402 68.0
353.531982 92.0
353.565643 96.0
353.674194 80.0
353.704132 72.0
353.740265 104.0
353.88385 44.0
353.928772 32.0
353.992432 72.0
354.044861 60.0
354.121979 204.0
354.168457 72.0
354.220886 156.0
354.412201 60.0
354.479401 120.0
354.629211 120.0
354.768005 80.0
354.850494 76.0
355.122681 116.0
355.206757 88.0
355.278046 212.0
355.304291 140.0
355.521942 92.0
355.563232 108.0
355.630768 108.0
355.710938 68.0
355.750885 72.0
355.904816 192.0
355.938629 68.0
356.10495 124.0
356.194 92.0
356.272888 52.0
356.460754 112.0
356.532166 100.0
356.60733 148.0
356.66748 32.0
356.938171 92.0
356.964478 96.0
357.128357 140.0
357.264771 124.0
357.520233 60.0
357.709442 32.0
357.856262 184.0
358.129211 84.0
358.255493 36.0
358.330841 44.0
358.621002 72.0
358.798157 180.0
358.918823 76.0
358.960297 40.0
359.05307 100.0
359.139648 268.0
359.175293 88.0
359.318634 132.0
359.345886 184.0
359.458252 44.0
359.548798 64.0
359.711121 40.0
359.748871 124.0
359.779053 144.0
359.96347 176.0
360.013153 28.0
360.077362 160.0
360.134247 148.0
360.217133 64.0
360.689484 200.0
360.729767 140.0
361.15094 140.0
361.218872 100.0
361.366425 72.0
361.442078 32.0
361.551819 72.0
361.611084 108.0
361.767578 56.0
361.843292 160.0
361.915222 116.0
362.006104 132.0
362.127319 148.0
362.153809 100.0
362.248505 132.0
362.354584 72.0
362.456055 200.0
362.638794 40.0
362.789032 132.0
362.84729 36.0
362.957245 48.0
363.057404 108.0
363.086182 176.0
363.203766 132.0
363.241699 96.0
363.26825 84.0
363.328949 76.0
363.46933 32.0
363.503479 108.0
363.590759 40.0
363.769165 88.0
363.875458 100.0
364.167877 68.0
364.202057 60.0
364.376801 36.0
364.467987 28.0
364.540192 164.0
364.821442 68.0
364.889893 32.0
364.94693 88.0
365.08609 164.0
365.144653 76.0
365.346252 68.0
365.48703 48.0
365.616425 144.0
365.745819 84.0
365.787689 192.0
366.080872 96.0
366.120636 208.0
366.158661 112.0
366.465607 32.0
366.747589 160.0
366.79715 76.0
366.949188 68.0
367.083099 120.0
367.127869 108.0
367.300507 48.0
367.422577 68.0
367.819458 56.0
367.987427 64.0
368.131653 88.0
368.26236 68.0
368.34259 52.0
368.522156 124.0
368.652069 32.0
368.942566 40.0
369.126099 84.0
369.152863 100.0
369.412933 60.0
369.451202 52.0
369.565979 160.0
369.860657 28.0
370.002289 128.0
370.141449 92.0
370.410736 100.0
370.584442 48.0
370.641937 88.0
370.887207 80.0
370.998383 36.0
371.063538 40.0
371.09845 40.0
371.155243 152.0
371.180939 244.0
371.577484 68.0
371.654205 116.0
371.692596 144.0
371.849915 56.0
371.906464 104.0
371.957397 44.0
372.044739 80.0
372.114807 40.0
372.162445 108.0
372.192352 144.0
372.233826 40.0
372.35672 40.0
372.48349 116.0
372.664032 104.0
372.852325 68.0
373.03299 92.0
373.063751 32.0
373.163696 120.0
373.388489 100.0
373.42807 96.0
373.479034 48.0
373.525208 160.0
373.956146 40.0
374.098572 104.0
374.150085 356.0
374.318024 340.0
374.379639 52.0
374.475922 92.0
374.599182 48.0
374.953674 60.0
375.069305 148.0
375.150146 120.0
375.188812 48.0
375.327606 48.0
375.412445 104.0
375.5513 60.0
375.628448 104.0
375.663147 120.0
375.752441 84.0
375.929382 48.0
376.010437 36.0
376.157104 72.0
376.195709 100.0
376.315399 64.0
376.485291 152.0
376.732483 116.0
376.817932 140.0
377.033875 48.0
377.064789 120.0
377.144501 116.0
377.331512 52.0
377.41272 84.0
378.010437 84.0
378.198059 152.0
378.325806 88.0
378.875732 100.0
379.116364 152.0
379.216736 116.0
379.360138 40.0
379.398926 68.0
379.468689 68.0
379.654816 128.0
379.794464 192.0
379.891418 84.0
380.120331 196.0
380.197968 88.0
380.384277 116.0
380.500732 64.0
380.920135 40.0
380.966766 64.0
381.025024 128.0
381.394226 32.0
381.49527 64.0
381.697449 52.0
381.934692 56.0
382.021057 60.0
382.448303 32.0
382.701355 116.0
382.973969 144.0
383.000793 112.0
383.262238 44.0
383.667603 104.0
383.85022 176.0
384.045837 116.0
384.169708 260.0
384.203735 320.0
384.240906 108.0
384.326721 56.0
384.373566 80.0
384.424286 136.0
384.486725 52.0
384.549164 112.0
384.975983 112.0
385.130951 148.0
385.162201 288.0
385.451294 36.0
385.556824 44.0
385.732697 144.0
386.033752 104.0
386.147308 108.0
386.278656 104.0
386.626007 100.0
386.651855 132.0
387.039429 40.0
387.145142 140.0
387.176483 132.0
387.395844 92.0
387.488373 84.0
387.529022 40.0
387.564301 40.0
387.84256 64.0
387.952301 56.0
388.06601 184.0
388.116974 84.0
388.164032 96.0
388.281677 172.0
388.348358 28.0
388.524872 68.0
388.560181 104.0
388.724976 92.0
388.756378 76.0
388.809021 68.0
388.929077 52.0
389.082153 56.0
389.176392 124.0
389.388458 36.0
389.518066 180.0
389.903137 72.0
390.14682 116.0
390.229401 48.0
390.429932 64.0
390.496796 120.0
390.547943 88.0
390.61087 40.0
391.021576 136.0
391.189331 152.0
391.386169 52.0
391.571259 72.0
391.874603 56.0
391.921875 40.0
392.292664 96.0
392.32782 40.0
392.690613 44.0
392.730042 192.0
392.950958 88.0
393.053558 140.0
393.266663 112.0
393.527222 92.0
393.582489 100.0
393.740448 148.0
394.103882 32.0
394.202667 100.0
394.340973 192.0
394.403992 72.0
394.708801 96.0
394.839142 76.0
395.321777 80.0
395.618652 108.0
395.689911 52.0
395.733459 60.0
395.769104 116.0
395.824188 376.0
396.161194 116.0
396.343445 68.0
396.398926 108.0
396.930084 48.0
396.993561 40.0
397.140289 140.0
397.421967 84.0
397.50528 76.0
397.699738 48.0
397.731506 80.0
397.939758 88.0
398.033234 48.0
398.158417 76.0
398.537689 140.0
398.58139 48.0
398.731079 108.0
399.070312 40.0
399.120392 112.0
399.1474 176.0
399.201538 60.0
399.290558 76.0
399.348663 60.0
399.41629 108.0
399.651031 36.0
400.076874 60.0
400.180389 72.0
400.240112 132.0
400.562714 116.0
400.686218 80.0
400.829651 60.0
400.945221 40.0
401.032898 92.0
401.152496 116.0
401.228241 68.0
401.268097 60.0
401.3638 80.0
401.43158 116.0
401.51532 48.0
401.61731 232.0
401.702789 48.0
401.778595 200.0
401.830444 52.0
401.894287 96.0
401.938202 28.0
402.057373 152.0
402.093842 44.0
402.14621 732.0
402.250977 180.0
402.389221 120.0
402.445129 48.0
402.505005 56.0
402.592865 116.0
402.736633 148.0
402.83252 104.0
402.972351 72.0
403.008301 28.0
403.164398 404.0
403.212097 64.0
403.383972 128.0
403.411957 84.0
403.5159 64.0
403.595886 164.0
403.623871 84.0
403.859802 60.0
403.91983 100.0
404.151093 188.0
404.415985 44.0
404.640167 180.0
404.676208 132.0
404.716248 88.0
404.76828 60.0
404.888428 44.0
404.944489 36.0
405.064667 64.0
405.104736 156.0
405.151093 168.0
405.260956 124.0
405.313049 136.0
405.389191 84.0
405.595734 68.0
405.673767 64.0
405.753937 52.0
406.118866 168.0
406.207123 128.0
406.33432 116.0
406.379639 88.0
406.520081 60.0
406.668549 88.0
406.72876 144.0
407.018127 112.0
407.088318 80.0
407.267975 112.0
407.594574 72.0
407.86554 100.0
408.243469 64.0
408.335968 76.0
408.408356 60.0
408.500885 80.0
408.566071 76.0
408.62558 80.0
408.967651 60.0
409.060242 28.0
409.100494 80.0
409.325958 88.0
409.446777 164.0
409.5112 72.0
409.543427 44.0
409.619965 40.0
409.853638 92.0
410.661926 120.0
410.708313 152.0
410.744629 84.0
410.861603 60.0
410.954407 124.0
411.031067 32.0
411.066254 100.0
411.107727 128.0
411.418549 72.0
411.475067 92.0
411.535614 68.0
411.612335 188.0
411.725403 44.0
412.238464 68.0
412.388 84.0
412.594177 64.0
412.638641 52.0
412.78421 176.0
413.057098 84.0
413.326233 164.0
413.354584 116.0
413.409393 124.0
413.60144 172.0
413.637878 48.0
413.771484 224.0
413.90509 100.0
414.018463 168.0
414.0625 120.0
414.181641 6460.0
414.31012 48.0
414.346588 124.0
414.443817 100.0
414.487366 48.0
414.549164 88.0
414.62616 160.0
414.69101 68.0
414.841003 44.0
414.873444 104.0
414.946411 124.0
415.13385 140.0
415.183502 2536.0
415.420898 104.0
415.457764 48.0
415.591309 128.0
415.867249 52.0
416.086456 160.0
416.114868 48.0
416.147369 92.0
416.189911 276.0
416.277313 72.0
416.415375 68.0
416.512848 48.0
416.610352 100.0
416.800049 260.0
416.854126 144.0
417.168152 1020.0
417.285004 88.0
417.321594 208.0
417.476105 32.0
417.716095 88.0
417.789307 32.0
418.007996 112.0
418.108734 100.0
418.169312 656.0
418.249146 92.0
418.334625 64.0
418.637543 100.0
418.872162 68.0
419.067719 92.0
419.124908 168.0
419.170288 324.0
419.29184 44.0
419.491547 40.0
419.613861 32.0
419.646484 100.0
419.838135 144.0
420.001282 52.0
420.144043 100.0
420.507233 88.0
420.881775 80.0
420.923615 68.0
421.054321 56.0
421.242188 140.0
421.278961 52.0
421.466888 40.0
421.687592 176.0
422.199829 136.0
422.489044 76.0
422.554504 136.0
422.628143 60.0
422.943268 84.0
423.164337 108.0
423.336304 100.0
423.520599 72.0
423.573853 144.0
423.668091 80.0
423.811493 112.0
423.983582 184.0
424.016388 56.0
424.233612 56.0
424.319702 48.0
424.356628 112.0
424.427002 72.0
424.61087 120.0
424.824158 52.0
424.89801 116.0
425.049805 140.0
425.131897 64.0
425.612152 76.0
425.78656 120.0
426.150238 172.0
426.359802 56.0
426.417358 124.0
426.710327 88.0
426.824341 104.0
426.935364 176.0
427.2052 132.0
427.379639 48.0
427.490723 76.0
427.523651 48.0
427.622437 64.0
427.653564 84.0
427.75415 60.0
427.791199 100.0
428.231781 76.0
428.408905 120.0
428.478943 136.0
428.627289 104.0
428.697327 56.0
428.763275 136.0
428.792114 88.0
428.886932 116.0
429.01059 100.0
429.198914 124.0
429.323944 112.0
429.394073 112.0
429.427063 40.0
429.464172 60.0
429.523865 100.0
429.554932 132.0
429.633301 140.0
429.666321 96.0
429.94278 48.0
430.012421 96.0
430.103729 60.0
430.27713 44.0
430.331909 192.0
430.409241 60.0
430.566162 72.0
430.599213 40.0
430.648773 84.0
430.685944 172.0
430.747925 48.0
430.866455 140.0
430.937958 112.0
430.989288 104.0
431.013641 152.0
431.079498 156.0
431.132172 292.0
431.221405 108.0
431.284271 164.0
431.442169 168.0
431.491791 40.0
431.564331 216.0
431.618256 116.0
431.67215 192.0
431.735168 116.0
431.770477 164.0
431.844208 108.0
431.882843 268.0
431.970703 168.0
432.013519 128.0
432.061584 188.0
432.105621 428.0
432.122345 164.0
432.193909 88972.0
432.32547 420.0
432.465363 136.0
432.477234 292.0
432.517456 348.0
432.618408 328.0
432.701935 56.0
432.729828 236.0
432.79126 56.0
432.823669 132.0
432.873688 228.0
432.911133 120.0
432.954468 132.0
433.0 144.0
433.118134 104.0
433.196472 23572.0
433.288361 160.0
433.394958 56.0
433.430389 60.0
433.480225 192.0
433.56192 152.0
433.592896 68.0
433.627106 76.0
433.676147 100.0
433.726074 84.0
433.768219 208.0
433.809387 64.0
433.854309 48.0
433.911163 76.0
433.95813 144.0
434.028107 120.0
434.10788 188.0
434.197723 5016.0
434.301239 84.0
434.392609 128.0
434.442139 72.0
434.527954 48.0
434.63382 80.0
434.812073 80.0
434.925995 108.0
434.9758 48.0
435.075439 76.0
435.120789 52.0
435.201691 540.0
435.269073 120.0
435.306793 104.0
435.358459 120.0
435.407623 240.0
435.440155 96.0
435.470886 88.0
435.520691 292.0
435.552368 52.0
435.598328 224.0
435.641632 72.0
435.710846 192.0
435.74411 60.0
435.772705 212.0
435.853943 164.0
435.920715 120.0
435.964325 108.0
436.024689 144.0
436.118103 32.0
436.216095 92.0
436.247803 92.0
436.330109 92.0
436.402954 48.0
436.44458 60.0
436.50058 76.0
436.574219 176.0
436.636383 152.0
436.671082 76.0
436.722931 56.0
436.775696 96.0
436.833313 48.0
436.873383 108.0
436.887146 68.0
436.902405 172.0
437.008057 60.0
437.045502 84.0
437.128723 92.0
437.170319 44.0
437.199463 148.0
437.302887 80.0
437.318451 68.0
437.39093 80.0
437.486664 92.0
437.532471 72.0
437.644867 92.0
437.961365 56.0
438.015533 76.0
438.079468 80.0
438.240509 92.0
438.325348 132.0
438.382172 108.0
438.411346 48.0
438.657257 52.0
438.765656 44.0
438.833649 116.0
439.040833 56.0
439.19516 56.0
439.357849 148.0
439.403748 44.0
439.453827 32.0
439.491364 60.0
439.6875 96.0
439.750885 84.0
439.841919 56.0
440.305389 52.0
440.656281 120.0
440.718964 52.0
441.078369 120.0
441.141052 80.0
441.299927 116.0
441.525757 52.0
441.642853 56.0
441.801819 68.0
441.843658 88.0
442.057037 144.0
442.303986 72.0
442.336334 44.0
442.421173 28.0
442.555176 48.0
442.676605 60.0
443.242096 80.0
443.501953 32.0
443.620605 116.0
443.71405 96.0
444.579834 64.0
444.613403 124.0
444.688934 56.0
444.728516 64.0
444.760284 92.0
445.05838 48.0
445.117157 84.0
445.467529 104.0
445.583374 44.0
445.978394 56.0
446.012024 60.0
446.175964 100.0
446.302094 44.0
446.440887 28.0
446.600708 28.0
447.450745 108.0
447.49704 40.0
447.577057 120.0
447.631805 76.0
448.133057 104.0
448.196259 40.0
448.554474 36.0
448.621918 104.0
448.727325 92.0
448.832733 48.0
448.927399 108.0
449.01828 72.0
449.056244 132.0
449.246063 60.0
449.31778 52.0
449.494995 100.0
449.621613 96.0
450.077515 92.0
450.178864 92.0
450.423828 64.0
450.537872 92.0
451.019623 76.0
451.049225 52.0
451.28595 100.0
451.594666 120.0
451.734253 92.0
451.865387 104.0
451.907715 60.0
452.043121 100.0
452.23465 116.0
452.393402 88.0
452.440979 68.0
452.69928 132.0
452.758545 140.0
452.788208 116.0
452.919495 52.0
453.016937 40.0
453.440643 116.0
453.601715 60.0
453.631409 72.0
453.979065 60.0
454.543274 28.0
454.721497 100.0
455.137543 60.0
455.247955 136.0
455.351044 88.0
455.98291 36.0
456.530457 132.0
456.78653 100.0
457.114136 56.0
457.182251 60.0
457.339722 44.0
457.995422 44.0
458.22287 92.0
458.502441 52.0
458.549347 104.0
458.79657 96.0
458.881836 40.0
459.188873 64.0
459.312561 84.0
459.756287 140.0
459.948669 112.0
460.008118 88.0
460.072144 92.0
460.504364 92.0
460.620667 80.0
460.75119 48.0
461.058838 52.0
461.375153 72.0
461.486298 148.0
461.529083 56.0
461.764282 44.0
462.102203 72.0
462.299042 32.0
462.722809 76.0
463.026855 40.0
463.729492 80.0
463.86145 56.0
463.90094 88.0
464.016693 84.0
464.346893 72.0
464.46698 48.0
464.541443 156.0
464.649414 44.0
464.788757 40.0
465.246948 100.0
465.333862 36.0
465.389679 44.0
465.497009 80.0
465.707458 68.0
465.78479 56.0
466.480927 44.0
466.64859 56.0
466.979706 60.0
467.057129 84.0
467.095856 84.0
467.246399 44.0
467.539001 96.0
467.668121 48.0
467.922119 88.0
468.55954 40.0
468.740479 72.0
468.930115 100.0
469.417267 36.0
469.447449 88.0
469.791168 104.0
469.852905 84.0
470.038452 72.0
470.068665 76.0
470.323273 68.0
470.422577 48.0
470.932098 56.0
471.269043 48.0
471.640717 80.0
472.207123 76.0
472.315247 76.0
472.817169 60.0
472.847443 32.0
473.111511 44.0
473.343506 96.0
473.531525 96.0
473.678802 44.0
473.743774 68.0
474.284393 76.0
474.406799 88.0
474.948853 32.0
475.664825 52.0
475.701721 32.0
476.48996 116.0
476.685486 76.0
477.173828 68.0
477.220123 84.0
477.363617 60.0
477.472351 56.0
477.694183 72.0
478.146698 96.0
478.181519 36.0
478.564575 44.0
478.843292 36.0
479.130798 88.0
479.318146 80.0
479.719116 60.0
480.172577 68.0
480.50412 112.0
480.731018 60.0
481.032166 64.0
481.219879 88.0
481.302856 40.0
481.352356 72.0
481.993011 100.0
482.215881 92.0
482.268341 48.0
482.460663 60.0
482.622437 36.0
482.76236 72.0
482.823608 92.0
483.52359 60.0
483.821259 56.0
484.127747 56.0
484.171539 76.0
484.443115 68.0
484.822113 112.0
485.021545 108.0
485.065369 76.0
485.205658 40.0
485.433655 96.0
485.600311 44.0
485.701202 44.0
485.894226 52.0
485.955658 84.0
486.109222 76.0
486.567963 88.0
486.794037 88.0
486.829163 28.0
486.886261 48.0
488.041962 48.0
488.143097 100.0
488.217865 124.0
488.301422 100.0
488.565369 80.0
488.692932 32.0
489.02298 48.0
489.718658 104.0
490.027039 80.0
490.569092 48.0
490.674896 80.0
491.12912 40.0
491.199707 108.0
491.415863 60.0
491.552643 48.0
491.93222 64.0
492.073486 80.0
492.585785 68.0
492.643219 32.0
493.186737 76.0
493.310486 40.0
493.438721 36.0
493.907471 76.0
494.168488 108.0
494.39859 56.0
494.495941 60.0
494.903229 40.0
494.951935 100.0
495.270782 56.0
495.3638 80.0
495.474579 40.0
495.629639 80.0
496.005371 108.0
496.06842 84.0
496.334412 44.0
496.795685 112.0
496.982025 60.0
497.168396 40.0
497.257141 40.0
497.904419 96.0
498.047485 48.0
498.6073 72.0
498.810303 72.0
498.927368 88.0
499.139038 112.0
499.327545 68.0
499.718994 72.0
499.968201 44.0
500.030518 116.0
500.889862 52.0
501.339844 92.0
501.451263 72.0
501.504761 108.0
501.879242 36.0
502.030853 128.0
502.160187 80.0
502.436737 140.0
502.75354 52.0
502.945465 44.0
503.083862 44.0
503.195465 52.0
503.338348 88.0
503.744781 80.0
504.034851 56.0
504.258636 96.0
504.309692 124.0
504.477661 88.0
504.620697 92.0
505.385559 136.0
505.629089 76.0
505.940521 92.0
506.961761 52.0
507.265228 68.0
507.378632 56.0
507.786682 40.0
507.822571 100.0
507.882294 164.0
507.959442 116.0
508.118622 76.0
508.172455 56.0
508.423767 124.0
508.87265 32.0
509.362946 68.0
509.496918 100.0
509.702362 132.0
509.713898 96.0
510.553223 40.0
510.787109 88.0
510.998535 28.0
511.070526 100.0
511.133514 40.0
511.232513 56.0
511.574615 44.0
511.637634 100.0
511.934814 48.0
512.05188 40.0
512.505676 148.0
512.592529 32.0
512.763733 76.0
513.273193 128.0
513.710632 72.0
513.814392 84.0
513.891113 80.0
513.958801 60.0
514.026489 64.0
515.588989 68.0
515.828552 96.0
516.066101 44.0
516.285217 76.0
516.778259 52.0
517.706238 48.0
517.851135 84.0
517.97345 76.0
518.335876 60.0
518.385742 60.0
518.610046 40.0
519.768799 72.0
519.895874 60.0
519.977539 48.0
520.358826 48.0
520.644958 84.0
520.931091 88.0
522.031006 84.0
522.126526 52.0
522.463074 56.0
522.5177 96.0
523.332397 80.0
523.537292 28.0
523.714905 68.0
523.935059 68.0
524.361938 108.0
524.854248 96.0
524.945435 84.0
525.100525 56.0
525.251038 48.0
525.342285 72.0
525.392456 104.0
525.501953 96.0
525.634277 60.0
525.762024 64.0
525.844177 64.0
526.186584 104.0
526.222595 108.0
526.309814 52.0
526.392029 40.0
527.118347 40.0
527.264587 48.0
527.360535 124.0
527.534241 80.0
527.758301 84.0
527.900024 52.0
528.041809 80.0
528.366577 88.0
528.421509 56.0
528.57251 96.0
528.856201 60.0
528.956909 56.0
529.222473 112.0
529.379211 136.0
529.785767 44.0
529.955322 100.0
530.541931 44.0
530.615295 48.0
530.661133 44.0
530.803284 64.0
531.005066 104.0
531.339966 32.0
531.509705 40.0
531.615234 48.0
532.533447 76.0
532.694214 96.0
532.979065 72.0
533.066406 40.0
533.36969 88.0
533.585754 80.0
533.654724 28.0
533.751282 112.0
534.045654 104.0
534.94751 144.0
535.081055 88.0
535.135986 68.0
535.246765 64.0
535.302063 96.0
535.452393 80.0
537.136414 76.0
537.939331 52.0
538.35022 100.0
538.43335 52.0
538.715149 64.0
538.904541 96.0
539.066284 80.0
539.144836 96.0
539.278625 72.0
539.42218 96.0
539.65332 56.0
539.805908 48.0
540.550659 36.0
541.13855 88.0
541.35614 84.0
541.536743 76.0
541.583069 44.0
541.657227 28.0
541.703552 112.0
542.162231 40.0
542.213196 40.0
542.305908 44.0
543.024536 88.0
543.61377 44.0
543.711182 84.0
543.873657 100.0
544.110413 120.0
545.378601 96.0
545.439026 56.0
545.569153 68.0
545.625 40.0
545.815613 60.0
546.141174 72.0
546.327209 60.0
546.54126 104.0
547.057861 120.0
547.434998 96.0
547.952026 64.0
548.03125 60.0
548.612976 88.0
548.744324 56.0
548.972839 84.0
549.049438 84.0
549.103394 56.0
549.7099 84.0
550.466125 84.0
550.568848 64.0
550.643555 60.0
550.947205 52.0
551.082703 72.0
551.176147 84.0
551.208862 128.0
551.372437 60.0
551.680908 40.0
551.830505 92.0
552.682251 84.0
553.557129 40.0
553.71167 88.0
553.795959 60.0
554.390991 76.0
554.536255 40.0
554.57373 68.0
554.714355 56.0
554.85968 80.0
555.117615 76.0
555.150391 72.0
555.774292 108.0
555.929138 48.0
556.376587 100.0
556.487732 64.0
556.854004 60.0
556.985535 48.0
557.121765 56.0
557.759705 48.0
557.883057 152.0
558.127563 108.0
558.640198 84.0
558.753113 140.0
558.80957 56.0
559.346069 56.0
559.444275 60.0
559.703857 44.0
560.154602 48.0
560.343262 96.0
560.617737 96.0
560.65387 132.0
561.183411 44.0
561.702148 80.0
561.838989 80.0
562.05127 64.0
562.08429 60.0
562.367493 72.0
562.433533 60.0
562.839539 64.0
563.34491 72.0
563.491394 72.0
563.529175 76.0
563.902466 52.0
564.01123 40.0
564.053772 44.0
564.246338 136.0
564.327942 56.0
564.465088 64.0
564.696777 64.0
565.787781 36.0
566.29657 56.0
567.547668 44.0
567.775269 64.0
567.808472 72.0
568.458435 48.0
568.648254 40.0
569.004272 48.0
569.213196 40.0
569.34613 48.0
569.479126 64.0
569.616882 40.0
570.272583 72.0
570.648132 68.0
571.047607 52.0
571.214111 108.0
571.543213 44.0
571.680359 60.0
571.713684 48.0
572.503906 88.0
572.627747 44.0
572.661072 36.0
572.813538 44.0
573.573486 92.0
573.895386 84.0
574.4104 56.0
575.350525 60.0
575.574951 88.0
576.071655 44.0
576.439575 76.0
576.764526 52.0
576.802795 96.0
576.931824 44.0
576.965332 64.0
577.237854 72.0
577.30957 64.0
577.438721 84.0
577.47699 40.0
577.639587 36.0
578.979797 96.0
579.238403 72.0
580.014709 48.0
580.163269 92.0
580.829834 100.0
580.930603 56.0
581.122498 60.0
581.472778 100.0
581.746399 72.0
581.88562 56.0
581.91925 44.0
582.442688 84.0
582.606018 80.0
582.690491 76.0
583.197083 32.0
583.394165 72.0
583.519165 100.0
583.985596 96.0
584.293457 36.0
584.80835 88.0
584.950256 48.0
585.058655 64.0
585.631714 76.0
585.670227 60.0
585.949646 84.0
586.1203 76.0
586.89917 68.0
587.171387 80.0
587.359253 108.0
587.868713 72.0
587.955566 48.0
588.056946 84.0
588.278992 56.0
588.351379 52.0
588.510742 36.0
589.041992 32.0
589.080627 60.0
589.167603 48.0
589.713623 68.0
589.892456 76.0
590.056824 80.0
590.579102 44.0
590.700012 92.0
591.116089 56.0
591.551697 60.0
591.682434 72.0
592.307129 40.0
592.428223 32.0
592.476685 48.0
592.568726 36.0
592.835205 64.0
592.951538 44.0
593.423035 88.0
593.639954 32.0
593.727234 92.0
594.01825 28.0
594.522827 56.0
594.566528 84.0
595.176025 72.0
595.74646 124.0
596.115723 68.0
596.499634 60.0
597.117188 92.0
597.16095 64.0
597.428467 96.0
598.119507 52.0
598.717102 92.0
598.991089 80.0
599.11853 124.0
600.151001 96.0
601.531677 72.0
601.775818 88.0
602.850403 28.0
603.56897 76.0
603.921082 120.0
604.121643 64.0
604.747986 56.0
605.46283 56.0
605.521606 96.0
606.055542 80.0
606.153564 44.0
606.276062 60.0
606.339783 56.0
606.472107 28.0
607.80603 52.0
607.938538 40.0
608.075989 52.0
608.296814 92.0
608.429382 52.0
608.974426 92.0
610.143982 32.0
610.630798 48.0
610.881653 60.0
611.59021 48.0
611.905273 72.0
612.456848 52.0
612.92981 68.0
614.305359 76.0
614.991211 72.0
615.326904 76.0
615.593567 104.0
615.850342 100.0
616.497559 40.0
616.917725 104.0
617.50116 48.0
618.099792 76.0
618.703613 48.0
618.797668 80.0
618.896729 112.0
619.074951 124.0
619.372131 64.0
619.832886 56.0
620.140137 72.0
620.640869 48.0
620.866882 68.0
621.097107 32.0
621.573364 60.0
621.995239 36.0
622.109436 88.0
622.45697 132.0
622.536438 48.0
622.983459 56.0
623.937622 44.0
624.012207 28.0
624.056946 52.0
624.151428 92.0
624.673645 76.0
625.40509 100.0
626.151917 120.0
627.502319 84.0
627.552185 108.0
628.253235 76.0
628.370178 32.0
628.789307 76.0
628.899109 76.0
628.934082 88.0
628.984009 84.0
629.073853 140.0
629.628052 88.0
629.817871 64.0
629.997681 48.0
630.147583 52.0
630.237488 68.0
630.412415 84.0
630.852234 80.0
631.127197 72.0
631.322266 56.0
631.712402 52.0
631.787415 84.0
631.942505 132.0
633.088806 112.0
633.314209 44.0
633.544617 64.0
633.75 64.0
634.16095 40.0
634.31134 68.0
634.503174 44.0
634.642212 96.0
634.91803 84.0
635.404602 100.0
635.841125 132.0
637.684387 88.0
638.358032 92.0
638.765442 76.0
640.90509 112.0
641.069275 80.0
642.463013 48.0
642.61438 104.0
643.108887 52.0
643.144226 76.0
644.144043 68.0
644.841309 76.0
644.962646 40.0
645.609802 84.0
646.110535 44.0
646.166199 52.0
646.591248 48.0
646.722839 116.0
646.791443 68.0
646.889893 84.0
646.930359 52.0
647.62323 92.0
647.963501 156.0
648.20166 72.0
648.844116 48.0
649.043091 48.0
649.251038 80.0
649.508423 80.0
650.214966 56.0
650.291077 108.0
650.331665 56.0
650.58551 68.0
651.103394 88.0
651.707886 44.0
651.880676 60.0
652.516052 32.0
652.597412 52.0
653.141541 68.0
653.792786 48.0
654.210144 72.0
654.378174 56.0
654.826294 92.0
654.927551 164.0
655.014771 108.0
655.254211 52.0
655.519165 72.0
655.641479 84.0
657.283508 44.0
657.589722 48.0
657.967468 28.0
658.551086 108.0
658.922485 80.0
658.968445 64.0
659.091125 32.0
659.407959 36.0
660.497009 64.0
660.84491 48.0
661.328064 48.0
661.658691 68.0
661.945374 52.0
663.759399 60.0
664.369751 92.0
664.934204 124.0
665.298645 64.0
665.918152 104.0
667.687927 52.0
668.716919 28.0
668.907349 40.0
669.576721 48.0
669.803345 44.0
670.081543 140.0
670.189758 124.0
670.22583 92.0
671.426941 80.0
672.742676 108.0
673.331299 84.0
673.568909 28.0
673.703247 48.0
673.749695 72.0
673.801392 60.0
674.545532 56.0
674.809204 44.0
675.145325 64.0
676.254211 60.0
676.376709 172.0
676.909668 64.0
677.526367 52.0
678.842896 72.0
679.081421 124.0
679.662476 60.0
679.740295 88.0
679.88562 68.0
680.243713 88.0
680.513672 48.0
680.570801 64.0
680.892761 76.0
681.25116 76.0
682.280151 28.0
683.544067 72.0
683.917847 92.0
684.194641 56.0
684.236328 52.0
684.564331 28.0
684.98291 76.0
685.517639 44.0
685.668762 56.0
685.726135 60.0
685.955444 68.0
686.471619 108.0
686.568665 72.0
687.370483 52.0
687.405396 92.0
687.744629 88.0
689.891541 60.0
690.445801 56.0
691.110168 120.0
691.162476 84.0
692.104675 136.0
692.837891 52.0
692.881653 76.0
693.157532 64.0
693.477173 92.0
693.859863 68.0
694.373779 116.0
694.420959 28.0
694.599304 88.0
695.94281 108.0
696.68335 32.0
697.508362 68.0
697.758179 92.0
697.802734 92.0
698.496948 92.0
698.612671 80.0
698.696838 60.0
699.523071 40.0
699.82843 52.0
700.307617 76.0
700.513062 40.0
701.119019 112.0
701.45105 60.0
701.572327 48.0
702.178711 48.0
704.517029 120.0
704.960876 116.0
705.452454 48.0
705.662598 60.0
705.748474 124.0
706.34082 60.0
708.977539 72.0
709.353882 80.0
710.165161 32.0
710.228821 80.0
710.653198 88.0
710.695618 88.0
711.736023 84.0
712.012146 28.0
712.336121 64.0
712.649597 44.0
713.260742 52.0
714.973389 44.0
715.079834 68.0
715.266113 44.0
715.963623 40.0
716.331116 76.0
716.549561 44.0
716.773315 104.0
717.604797 64.0
717.796753 56.0
718.527527 52.0
718.596863 56.0
719.408081 76.0
719.909973 92.0
721.176147 60.0
722.325806 68.0
723.497742 32.0
724.151001 72.0
724.375977 84.0
724.654541 76.0
725.24408 44.0
725.554993 100.0
726.128723 64.0
726.305725 40.0
727.663452 92.0
728.162842 68.0
728.39917 76.0
729.027771 60.0
729.53302 88.0
730.280457 56.0
732.487366 156.0
733.662109 140.0
734.58429 44.0
734.864807 96.0
735.636536 56.0
735.933472 96.0
736.592346 48.0
737.975891 80.0
738.684326 48.0
739.084656 28.0
739.1651 120.0
739.458069 104.0
740.952637 56.0
741.201843 44.0
741.429443 40.0
741.483643 84.0
741.619141 100.0
741.901062 40.0
742.589661 80.0
743.137573 32.0
743.512024 36.0
745.956177 44.0
746.222595 88.0
746.684814 84.0
746.804443 32.0
746.842529 48.0
747.821899 92.0
748.170288 92.0
748.230164 64.0
748.872742 48.0
749.079712 56.0
749.826233 60.0
750.175049 64.0
751.538513 52.0
751.89325 96.0
754.055969 56.0
754.307434 72.0
755.034607 120.0
755.264343 60.0
755.986511 52.0
756.610474 60.0
756.818542 44.0
756.895203 84.0
757.492188 52.0
757.755127 36.0
758.434692 56.0
759.125488 64.0
759.431091 148.0
761.194275 28.0
763.018982 40.0
763.480347 52.0
763.557312 44.0
766.028748 92.0
767.69873 164.0
767.952454 96.0
768.36615 100.0
768.807617 100.0
769.033875 68.0
769.608032 40.0
770.067749 96.0
770.502747 36.0
771.635742 196.0
771.812683 64.0
772.10022 76.0
772.548279 56.0
772.68103 44.0
772.946594 56.0
773.305115 56.0
773.566467 40.0
773.887573 68.0
774.541077 32.0
774.624146 76.0
774.851318 44.0
776.275818 60.0
776.541992 72.0
777.232239 104.0
777.3797 64.0
777.507385 40.0
777.99585 104.0
778.473328 208.0
778.601074 68.0
780.090149 100.0
780.195801 40.0
781.447144 60.0
782.081543 156.0
782.997986 48.0
783.117188 28.0
783.30658 84.0
783.373413 56.0
783.674255 36.0
783.913879 44.0
784.253845 80.0
785.12915 108.0
785.737122 40.0
786.423523 80.0
786.535156 48.0
787.459045 60.0
788.439758 44.0
790.469727 80.0
790.57605 32.0
791.477295 60.0
791.774109 64.0
793.275757 68.0
793.483154 56.0
793.81958 36.0
794.335571 120.0
794.795593 64.0
795.042542 68.0
795.166016 88.0
795.884521 108.0
796.867493 44.0
797.058533 64.0
797.822876 40.0
798.694519 60.0
798.839539 148.0
799.18396 60.0
799.485413 132.0
799.707336 28.0
799.983154 76.0
800.078857 88.0
800.416626 60.0
801.571411 84.0
802.642395 92.0
804.317993 84.0
805.46991 100.0
806.029236 92.0
806.407898 68.0
807.28418 36.0
807.962952 112.0
808.053467 52.0
808.296753 92.0
809.270325 52.0
810.318115 104.0
810.420105 28.0
810.850769 44.0
811.151184 116.0
811.428955 76.0
811.531006 88.0
812.001709 116.0
812.835632 64.0
813.335083 52.0
813.641602 80.0
814.101501 72.0
814.254883 56.0
814.8172 36.0
815.953918 60.0
816.920715 44.0
817.079956 48.0
817.734375 40.0
818.987 92.0
819.539551 96.0
820.035339 80.0
820.993164 60.0
821.574951 72.0
821.84314 64.0
822.430908 80.0
823.697693 112.0
823.824219 48.0
824.286987 40.0
824.452759 72.0
825.241577 96.0
825.338745 44.0
825.578918 52.0
825.830566 60.0
826.299683 92.0
826.786072 120.0
826.854736 64.0
827.266846 52.0
827.352722 36.0
827.553101 60.0
827.656189 76.0
829.202881 60.0
829.288879 64.0
829.346191 32.0
829.449341 64.0
830.613403 48.0
830.957581 32.0
831.123962 116.0
831.600281 76.0
831.7323 52.0
832.67395 124.0
834.00116 40.0
834.650818 48.0
836.129211 80.0
836.307678 52.0
836.440063 52.0
837.620483 208.0
838.271545 52.0
839.355225 52.0
839.533997 52.0
840.189026 64.0
841.686462 44.0
842.021362 44.0
842.391052 40.0
842.916809 64.0
844.362061 44.0
845.837463 48.0
847.47644 100.0
848.444336 104.0
849.087952 36.0
849.372131 52.0
849.470764 60.0
849.847839 64.0
851.647522 48.0
852.234253 88.0
853.478088 56.0
854.321411 108.0
856.714111 40.0
859.191772 84.0
859.547668 64.0
859.734375 72.0
859.862793 76.0
860.388123 60.0
861.41217 80.0
861.643799 36.0
865.545044 108.0
865.984253 40.0
866.045593 92.0
866.101379 60.0
866.183411 68.0
866.880615 172.0
867.513611 84.0
869.173401 96.0
869.989197 144.0
870.300415 32.0
870.576355 104.0
870.676208 72.0
870.80542 64.0
871.130798 116.0
871.193115 184.0
873.273987 48.0
873.432739 32.0
874.456543 120.0
874.780273 36.0
874.93335 68.0
875.164917 60.0
875.563416 48.0
877.148376 64.0
877.213928 64.0
877.791016 88.0
878.687561 56.0
878.852722 52.0
879.702576 92.0
880.230957 220.0
880.470215 60.0
880.771423 60.0
882.502991 96.0
882.89917 44.0
883.685913 52.0
884.017273 92.0
884.89917 44.0
887.790833 64.0
888.662781 112.0
888.977295 40.0
889.529297 68.0
890.817871 32.0
891.002014 48.0
891.049561 52.0
891.358521 60.0
891.869629 96.0
891.970703 40.0
892.041992 32.0
893.124268 52.0
893.647766 104.0
896.857605 124.0
897.04834 44.0
897.704163 64.0
898.008362 136.0
899.410522 64.0
899.917969 48.0
900.425537 160.0
900.795837 156.0
901.417236 136.0
902.283875 172.0
904.419495 100.0
905.173828 60.0
905.401367 84.0
908.188354 120.0
908.79425 60.0
909.082275 156.0
909.524536 88.0
909.790527 92.0
910.049133 52.0
910.198792 72.0
910.637207 60.0
911.700562 252.0
912.536133 100.0
912.578186 100.0
912.722534 172.0
913.666809 52.0
913.949585 140.0
914.08197 132.0
914.370789 56.0
917.322205 68.0
918.244751 44.0
918.99884 28.0
919.092957 80.0
920.302551 44.0
921.456177 48.0
922.2901 36.0
922.441223 36.0
923.130432 60.0
923.203003 48.0
923.426819 104.0
924.963684 140.0
925.750732 64.0
926.265564 96.0
926.392761 92.0
927.307739 148.0
928.302002 84.0
928.417175 56.0
929.430237 76.0
931.458008 76.0
932.466614 124.0
932.807007 104.0
934.217834 128.0
935.075745 36.0
935.19751 180.0
935.964539 72.0
936.664917 172.0
936.719788 56.0
937.670288 32.0
937.816589 92.0
939.853455 116.0
939.920532 68.0
940.21344 136.0
943.114563 60.0
943.450806 116.0
943.54248 88.0
944.875732 52.0
944.930786 92.0
945.053162 104.0
946.543335 116.0
946.675293 140.0
947.434814 72.0
947.667603 84.0
947.894287 76.0
947.967834 160.0
948.402954 72.0
948.740112 60.0
948.99762 164.0
950.003418 84.0
950.512695 116.0
951.071167 60.0
953.896729 48.0
954.191833 48.0
954.308655 128.0
955.335693 72.0
955.649475 68.0
956.258667 144.0
956.929688 124.0
957.921204 108.0
958.38324 44.0
959.030334 72.0
960.029114 52.0
960.257263 60.0
960.516357 84.0
961.176453 60.0
961.434143 64.0
962.054138 100.0
962.188721 40.0
962.850952 60.0
963.047058 256.0
963.78186 140.0
963.856384 100.0
964.944214 68.0
965.630615 88.0
966.960815 92.0
967.808899 60.0
969.772644 112.0
970.392578 80.0
970.987854 64.0
971.087097 128.0
971.75708 100.0
971.837708 92.0
972.191406 44.0
972.390015 36.0
972.805908 92.0
973.147339 56.0
973.871155 108.0
974.302551 96.0
974.364685 56.0
974.594543 56.0
975.210449 184.0
975.458435 72.0
976.241821 192.0
978.388428 148.0
978.625061 80.0
979.260193 92.0
979.989075 48.0
980.101196 164.0
980.188477 60.0
981.017395 52.0
981.129578 248.0
981.990112 64.0
982.146057 68.0
983.156799 68.0
983.30658 116.0
984.523987 52.0
984.761292 68.0
985.17981 212.0
985.41095 40.0
985.673401 72.0
986.092102 44.0
986.579651 76.0
986.923523 84.0
986.967285 176.0
987.35498 52.0
988.318359 104.0
988.65625 100.0
988.837769 68.0
988.925415 68.0
989.639038 52.0
990.020996 56.0
990.208923 64.0
991.355347 116.0
991.518311 100.0
992.941467 52.0
994.177368 156.0
995.341675 128.0
995.841064 32.0
996.255676 56.0
997.261047 160.0
997.411926 48.0
998.028015 44.0
998.178955 92.0
998.298401 72.0
999.990723 92.0
1000.368408 52.0
1000.532104 104.0
1000.884705 84.0
1001.457764 68.0
1001.684509 68.0
1002.402771 148.0
1005.177307 156.0
1006.219482 36.0
1006.439758 108.0
1006.704956 40.0
1006.875488 68.0
1007.911499 96.0
1008.195862 64.0
1008.303284 104.0
1008.511902 48.0
1010.567139 92.0
1011.617676 132.0
1012.877869 104.0
1013.112244 140.0
1014.088074 76.0
1014.284546 148.0
1015.178528 144.0
1015.349731 156.0
1015.787354 68.0
1017.902466 92.0
1018.085022 52.0
1018.377136 204.0
1018.891663 120.0
1018.987 72.0
1019.253845 76.0
1019.514404 160.0
1020.200867 140.0
1020.2771 176.0
1020.340698 124.0
1020.391541 40.0
1020.753967 168.0
1021.307312 44.0
1021.453613 92.0
1022.522522 156.0
1024.394531 52.0
1025.373169 140.0
1025.89209 40.0
1026.249146 60.0
1026.77832 48.0
1030.614868 84.0
1030.659668 224.0
1031.273193 96.0
1031.503296 140.0
1032.091431 156.0
1032.577393 56.0
1034.023315 48.0
1034.09375 52.0
1034.292114 128.0
1035.45752 64.0
1035.598389 44.0
1038.578857 72.0
1038.957275 124.0
1039.111206 40.0
1040.073853 76.0
1040.279297 108.0
1040.465454 44.0
1040.914917 132.0
1041.107544 36.0
1041.158936 172.0
1042.302368 48.0
1043.080078 72.0
1045.331055 52.0
1046.354492 44.0
1046.792358 68.0
1047.384888 128.0
1047.513672 44.0
1047.629639 128.0
1047.695801 72.0
1047.821167 176.0
1048.467285 36.0
1049.027954 48.0
1049.131104 32.0
1049.511597 68.0
1049.692139 80.0
1049.962891 188.0
1050.29187 40.0
1051.227417 68.0
1051.272583 60.0
1052.053589 100.0
1052.402222 84.0
1052.641113 60.0
1052.88916 152.0
1053.015625 48.0
1053.668091 52.0
1054.217285 108.0
1054.372437 80.0
1054.676147 56.0
1055.076904 100.0
1055.206299 64.0
1055.419556 36.0
1057.056152 164.0
1057.69043 108.0
1057.826294 60.0
1057.942871 96.0
1058.62915 60.0
1059.931152 60.0
1060.034912 28.0
1060.261719 136.0
1061.726929 180.0
1061.850098 72.0
1062.012207 60.0
1062.459839 200.0
1062.68042 52.0
1062.881592 32.0
1063.102173 92.0
1063.160645 76.0
1063.433228 152.0
1064.173218 152.0
1065.277222 40.0
1065.511108 224.0
1066.024414 80.0
1066.102417 56.0
1067.753662 116.0
1068.924683 196.0
1069.315186 160.0
1069.516968 52.0
1069.88147 124.0
1069.933594 72.0
1070.373413 100.0
1070.591187 124.0
1070.838623 40.0
1071.392334 68.0
1071.45752 68.0
1071.581299 112.0
1071.662354 164.0
1072.0896 36.0
1072.6604 144.0
1072.760864 68.0
1072.943359 76.0
1073.054199 72.0
1073.1521 64.0
1073.315063 96.0
1073.875854 116.0
1073.941162 60.0
1075.467896 28.0
1075.533203 52.0
1075.60498 112.0
1076.140259 72.0
1076.370117 256.0
1076.59082 52.0
1077.015381 184.0
1078.29187 156.0
1078.609741 60.0
1078.727417 116.0
1078.930054 52.0
1079.322388 96.0
1079.522705 136.0
1079.590454 116.0
1079.63623 88.0
1079.914185 104.0
1080.231445 52.0
1080.401489 104.0
1080.623901 64.0
1080.754761 68.0
1080.931519 128.0
1081.075439 108.0
1082.261597 76.0
1082.463257 60.0
1082.646606 60.0
1083.174561 200.0
1083.753662 28.0
1084.127197 56.0
1085.005493 60.0
1085.197266 64.0
1085.307129 108.0
1085.457886 68.0
1085.831665 72.0
1086.612305 64.0
1086.658203 52.0
1087.380005 140.0
1087.793579 48.0
1087.885498 60.0
1088.029907 168.0
1088.739014 92.0
1088.86377 76.0
1089.073975 204.0
1089.270996 92.0
1090.210571 80.0
1090.272949 120.0
1090.681885 76.0
1091.091309 68.0
1091.157104 44.0
1091.2229 64.0
1091.400391 80.0
1091.48584 48.0
1092.117188 36.0
1092.472412 60.0
1093.176392 60.0
1093.393555 88.0
1093.663452 48.0
1094.203247 92.0
1094.848511 68.0
1094.996094 116.0
1095.250244 156.0
1095.401855 76.0
1096.047485 80.0
1096.547729 132.0
1096.564941 120.0
1096.792114 68.0
1096.890991 76.0
1097.398682 28.0
1097.820679 64.0
1098.044922 188.0
1098.103027 84.0
1098.513184 80.0
1098.850098 60.0
1098.909058 112.0
1098.9552 124.0
1099.925415 84.0
1100.485474 80.0
1100.971191 160.0
1101.087402 48.0
1103.109253 52.0
1103.525757 120.0
1104.021729 168.0
1104.246582 164.0
1104.908081 80.0
1104.980835 148.0
1105.139648 44.0
1105.344727 44.0
1105.416626 92.0
1105.609497 60.0
1106.390503 56.0
1106.920166 140.0
1107.202148 164.0
1107.483154 60.0
1107.655273 72.0
1108.026367 52.0
1108.244995 80.0
1109.212524 144.0
1109.318604 60.0
1109.835693 60.0
1110.17395 72.0
1110.293213 48.0
1110.697876 172.0
1110.870361 72.0
1110.989746 112.0
1111.069336 64.0
1111.480713 192.0
1111.600098 116.0
1112.615601 56.0
1112.921021 48.0
1113.013184 96.0
1113.17334 64.0
1113.233154 104.0
1113.505493 88.0
1113.644897 164.0
1113.744507 68.0
1114.707886 40.0
1114.986938 108.0
1115.146484 104.0
1115.192993 148.0
1115.591797 72.0
1115.724854 56.0
1115.937622 108.0
1116.143677 84.0
1116.396362 64.0
1116.674316 56.0
1116.833374 56.0
1116.873535 136.0
1117.088135 64.0
1117.833252 80.0
1118.099487 140.0
1118.611938 116.0
1118.685181 68.0
1118.791748 84.0
1119.24292 52.0
1119.324341 72.0
1119.410889 88.0
1119.570679 48.0
1119.963745 104.0
1120.270142 108.0
1120.436646 100.0
1120.48999 28.0
1120.603271 52.0
1121.116333 48.0
1121.178345 164.0
1122.089478 60.0
1122.296143 64.0
1122.562012 156.0
1123.223145 32.0
1124.030396 104.0
1124.190552 44.0
1125.020264 156.0
1125.185181 100.0
1125.712646 72.0
1126.086548 144.0
1126.280273 52.0
1126.975098 164.0
1127.102051 112.0
1127.309204 204.0
1127.596558 164.0
1127.94104 60.0
1128.639404 36.0
1128.759766 76.0
1129.602417 100.0
1129.896851 76.0
1130.110962 72.0
1130.171143 140.0
1130.505737 80.0
1131.462891 124.0
1131.689941 48.0
1131.864624 56.0
1132.32666 68.0
1132.648193 152.0
1133.023315 128.0
1133.371704 48.0
1133.559326 52.0
1133.740234 152.0
1134.254028 164.0
1134.410522 132.0
1134.470825 72.0
1134.69873 96.0
1135.034058 64.0
1135.744873 96.0
1136.066895 48.0
1136.583496 116.0
1136.818359 80.0
1136.892212 204.0
1137.012939 64.0
1138.100464 92.0
1138.254883 72.0
1138.315308 184.0
1138.536987 64.0
1138.918335 72.0
1139.262329 72.0
1139.376587 80.0
1139.477295 44.0
1140.586182 152.0
1140.740723 168.0
1141.090332 60.0
1141.238281 92.0
1141.38623 84.0
1141.520752 88.0
1141.906006 68.0
1142.199951 100.0
1142.408447 40.0
1142.464966 76.0
1142.697754 104.0
1142.859253 140.0
1142.933228 64.0
1143.135132 80.0
1143.236084 200.0
1143.606201 144.0
1143.90918 156.0
1144.31311 80.0
1144.360229 116.0
1146.601562 128.0
1146.828491 100.0
1147.068481 116.0
1147.681885 60.0
1147.789795 48.0
1148.032593 80.0
1148.253662 180.0
1148.322632 52.0
1148.470947 28.0
1148.545166 152.0
1148.727295 44.0
1149.469482 36.0
1149.800171 80.0
1150.056641 68.0
1150.508911 48.0
1150.71814 88.0
1150.91394 120.0
1151.156982 100.0
1151.346069 52.0
1151.744629 104.0
1153.156738 108.0
1153.210815 140.0
1153.751587 108.0
1155.286743 316.0
1155.489746 92.0
1156.306274 124.0
1156.70105 112.0
1156.917725 72.0
1157.059814 36.0
1157.317139 28.0
1157.689575 36.0
1157.757324 56.0
1159.267944 104.0
1159.362793 68.0
1159.437378 124.0
1159.647461 116.0
1159.810181 116.0
1159.891479 92.0
1160.182983 40.0
1160.453979 156.0
1161.295044 80.0
1161.574463 60.0
1161.695312 76.0
1162.156616 32.0
1162.265137 44.0
1162.713013 104.0
1162.835205 28.0
1162.889526 52.0
1163.031982 100.0
1163.473267 60.0
1163.527588 44.0
1163.683716 136.0
1163.955322 156.0
1164.016479 64.0
1164.192993 76.0
1164.417114 72.0
1164.76355 40.0
1164.926514 80.0
1165.171143 100.0
1166.455444 56.0
1166.56604 128.0
1166.754639 36.0
1166.822632 56.0
1166.876953 48.0
1166.938232 168.0
1167.087769 84.0
1167.272949 68.0
1167.543335 72.0
1167.921631 116.0
1168.12146 52.0
1168.291504 92.0
1168.414062 184.0
1168.63855 36.0
1169.067261 32.0
1170.108643 88.0
1170.190308 64.0
1171.007568 68.0
1171.545654 32.0
1172.111084 64.0
1172.594971 148.0
1172.656372 92.0
1173.283447 120.0
1173.467529 108.0
1173.54248 48.0
1173.62439 40.0
1174.217651 48.0
1174.466431 80.0
1174.661011 68.0
1175.284912 132.0
1175.411499 84.0
1176.011963 116.0
1176.14856 92.0
1176.196289 228.0
1176.667358 100.0
1177.029175 44.0
1177.575562 68.0
1177.677979 68.0
1178.094604 88.0
1178.392334 156.0
1178.53186 148.0
1178.634399 152.0
1178.78479 80.0
1178.844971 204.0
1179.174316 108.0
1179.43396 168.0
1179.488647 56.0
1179.577515 64.0
1180.227051 104.0
1180.493652 188.0
1180.979248 148.0
1181.266602 72.0
1182.053345 48.0
1182.197021 32.0
1182.65564 72.0
1183.305908 144.0
1183.449707 44.0
1183.730469 48.0
1184.01123 100.0
1184.251831 152.0
1184.381104 32.0
1184.47937 172.0
1184.881226 44.0
1185.120972 48.0
1185.525269 92.0
1185.646484 64.0
1185.692383 72.0
1186.005005 104.0
1186.08728 52.0
1186.61084 72.0
1186.909912 56.0
1187.047119 116.0
1187.191162 40.0
1187.388672 108.0
1187.493164 208.0
1187.650635 112.0
1187.849487 108.0
1187.952393 52.0
1188.103394 32.0
1188.381714 68.0
1188.521851 52.0
1188.659058 52.0
1189.077759 80.0
1189.462158 56.0
1189.656494 84.0
1189.867065 120.0
1190.457642 60.0
1190.601807 72.0
1190.703003 144.0
1191.02771 88.0
1191.116943 28.0
1191.165039 40.0
1191.28186 112.0
1191.549805 56.0
1192.544067 80.0
1193.192383 112.0
1193.405518 88.0
1193.515503 76.0
1194.024414 192.0
1194.684692 104.0
1194.955078 100.0
1195.303955 56.0
1195.43811 196.0
1195.985229 176.0
1196.756226 64.0
1197.04541 64.0
1197.190063 40.0
1197.238281 48.0
1197.4104 108.0
1197.641602 136.0
1197.927856 72.0
1198.487549 68.0
1198.650513 96.0
1198.760742 72.0
1198.946777 36.0
1199.1604 156.0
1199.387939 168.0
1199.601562 256.0
1199.932495 84.0
1200.042847 84.0
1200.229004 60.0
1200.297974 44.0
1200.824829 148.0
1200.887329 152.0
1200.959961 124.0
1201.056519 64.0
1201.460571 56.0
1201.718872 64.0
1201.843018 92.0
1202.003662 188.0
1202.836792 52.0
1202.919678 140.0
1203.036987 112.0
1203.342285 88.0
1203.692871 96.0
1203.789551 64.0
1203.879395 236.0
1203.948364 48.0
1204.017456 224.0
1204.065796 184.0
1204.640015 92.0
1205.212524 108.0
1205.475098 48.0
1205.578735 132.0
1205.730835 40.0
1206.007324 32.0
1206.159302 76.0
1206.276855 64.0
1206.477295 72.0
1206.560303 64.0
1206.670898 148.0
1206.857544 56.0
1206.954346 36.0
1207.02356 104.0
1207.116455 116.0
1207.205078 160.0
1207.597534 108.0
1207.860352 168.0
1208.095581 56.0
1208.157837 60.0
1208.46228 60.0
1208.621338 192.0
1209.251099 56.0
1209.320312 124.0
1209.479492 48.0
1209.611084 72.0
1209.80481 52.0
1210.220215 196.0
1210.268677 88.0
1210.441895 32.0
1210.621826 32.0
1211.099731 92.0
1211.196777 132.0
1211.282715 124.0
1211.591553 196.0
1212.007324 32.0
1212.249878 128.0
1212.346802 56.0
1213.344971 120.0
1213.830322 208.0
1213.970947 184.0
1214.239502 136.0
1214.440552 120.0
1214.613037 56.0
1214.723511 140.0
1215.460083 96.0
1215.795166 148.0
1215.876831 64.0
1215.980835 104.0
1216.071167 28.0
1216.314087 68.0
1216.647217 128.0
1216.698486 108.0
1216.813843 44.0
1216.966675 56.0
1217.015259 60.0
1217.279053 56.0
1217.667969 84.0
1217.716553 64.0
1217.945801 216.0
1218.459839 44.0
1218.522339 152.0
1218.846313 120.0
1219.168579 132.0
1219.251953 68.0
1219.453613 96.0
1219.576294 104.0
1219.703735 84.0
1220.002686 64.0
1220.08606 48.0
1220.239014 80.0
1220.368408 80.0
1220.45459 116.0
1220.774414 88.0
1220.850952 52.0
1221.616089 56.0
1221.824707 88.0
1222.54834 68.0
1222.606934 68.0
1222.805908 52.0
1222.952026 108.0
1223.042603 84.0
1223.287598 100.0
1223.362793 96.0
1223.676025 48.0
1223.766602 104.0
1223.961548 128.0
1224.114746 48.0
1224.191284 204.0
1224.678833 68.0
1224.783325 140.0
1225.205811 212.0
1225.622192 144.0
1225.779541 116.0
1226.24646 152.0
1226.434692 124.0
1226.567139 92.0
1226.804077 52.0
1227.106079 64.0
1227.253052 72.0
1227.318237 60.0
1227.389771 208.0
1227.761719 228.0
1227.91272 44.0
1228.435913 40.0
1228.938232 96.0
1229.015015 148.0
1229.273193 60.0
1229.905029 168.0
1229.984985 196.0
1230.124634 100.0
1230.180542 176.0
1230.292236 116.0
1230.445801 72.0
1230.634277 84.0
1230.820923 108.0
1231.64917 108.0
1231.884399 32.0
1232.010132 72.0
1232.48291 80.0
1233.107178 48.0
1233.460693 56.0
1233.687378 60.0
1233.865234 136.0
1234.050903 52.0
1234.365479 164.0
1234.533325 76.0
1234.589355 64.0
1234.687256 84.0
1234.925049 88.0
1235.302734 52.0
1235.512573 68.0
1235.673462 92.0
1235.799438 48.0
1235.918335 48.0
1236.044312 48.0
1236.401245 108.0
1236.69519 44.0
1236.793213 152.0
1236.891235 52.0
1237.283203 32.0
1237.332153 56.0
1237.46521 104.0
1237.551636 84.0
1237.822266 96.0
1237.934326 44.0
1238.034546 80.0
1238.144409 48.0
1238.389526 76.0
1238.459595 92.0
1238.893433 56.0
1239.19519 40.0
1239.251221 40.0
1239.370361 144.0
1239.930908 116.0
1240.371338 92.0
1240.723022 44.0
1240.961426 60.0
1241.564453 40.0
1241.620605 44.0
1241.897949 44.0
1242.027344 84.0
1242.244751 116.0
1242.33606 124.0
1242.420166 132.0
1242.665771 84.0
1242.974487 76.0
1243.051636 80.0
1243.546387 64.0
1243.774536 28.0
1244.027222 144.0
1244.174683 72.0
1244.560791 124.0
1244.715332 144.0
1244.827637 56.0
1245.024292 36.0
1245.185791 56.0
1245.558105 60.0
1245.860107 76.0
1246.190308 124.0
1246.281616 104.0
1246.450317 44.0
1246.956299 116.0
1247.040649 72.0
1247.265503 36.0
1247.504517 176.0
1248.116211 128.0
1248.453735 120.0
1248.531128 68.0
1248.587402 48.0
1248.650635 68.0
1248.786987 72.0
1248.833496 120.0
1249.220459 48.0
1249.354004 68.0
1250.015381 68.0
1250.119385 104.0
1250.191406 120.0
1250.275757 40.0
1250.37439 36.0
1250.571411 72.0
1250.655884 68.0
1250.775513 44.0
1250.916138 132.0
1251.183838 76.0
1251.254272 136.0
1251.345703 264.0
1251.407227 120.0
1251.493652 68.0
1251.571045 56.0
1251.669678 72.0
1252.021729 148.0
1252.120361 48.0
1252.373901 68.0
1252.712036 44.0
1252.888062 92.0
1253.141724 112.0
1253.980347 60.0
1254.029663 68.0
1254.205811 92.0
1254.339844 80.0
1254.946045 156.0
1255.129395 104.0
1255.185791 88.0
1255.439697 76.0
1255.514771 248.0
1255.919312 108.0
1256.088501 100.0
1256.222534 68.0
1256.348389 212.0
1256.942261 80.0
1257.104492 56.0
1257.231567 216.0
1257.640869 44.0
1258.368042 80.0
1258.509155 68.0
1258.647217 176.0
1258.699829 76.0
1258.901733 100.0
1259.257812 60.0
1259.321289 40.0
1259.499146 204.0
1259.63208 44.0
1259.716919 88.0
1259.822876 68.0
1259.942993 160.0
1260.467163 148.0
1260.899048 128.0
1261.135498 120.0
1261.179565 168.0
1261.243164 120.0
1261.330566 188.0
1261.60376 44.0
1261.719116 168.0
1262.049072 148.0
1262.119873 136.0
1262.289551 172.0
1262.37439 204.0
1262.911865 72.0
1263.074585 76.0
1263.414062 32.0
1263.53833 92.0
1263.623901 136.0
1263.987183 100.0
1264.043823 132.0
1264.475464 48.0
1264.730347 100.0
1264.955444 144.0
1265.289551 40.0
1265.494873 80.0
1266.161133 48.0
1266.557129 152.0
1266.69165 76.0
1266.920532 108.0
1266.989258 76.0
1267.494385 176.0
1267.961304 108.0
1268.042358 104.0
1268.123047 120.0
1268.581177 124.0
1268.675903 200.0
1268.753906 48.0
1268.924072 48.0
1268.983643 172.0
1269.030396 172.0
1269.087158 260.0
1269.774902 92.0
1270.125488 80.0
1270.214722 136.0
1270.39917 44.0
1270.782227 124.0
1271.399658 224.0
1271.669312 160.0
1271.853882 96.0
1272.272705 128.0
1272.336548 68.0
1272.705688 88.0
1272.961426 108.0
1273.181519 168.0
1273.685791 188.0
1274.076538 68.0
1274.140381 60.0
1274.332275 64.0
1274.431763 180.0
1274.861816 84.0
1275.110229 92.0
1275.369751 152.0
1275.526123 92.0
1275.595947 44.0
1276.208618 188.0
1276.293945 44.0
1276.353027 184.0
1276.493042 44.0
1276.642456 60.0
1276.827271 80.0
1277.084717 124.0
1277.168701 68.0
1277.225586 136.0
1277.311035 68.0
1277.477051 80.0
1277.602661 152.0
1278.012329 124.0
1278.178955 252.0
1278.257202 128.0
1278.364014 156.0
1278.499146 144.0
1278.556152 136.0
1279.047241 56.0
1279.509888 40.0
1279.720459 140.0
1279.873047 80.0
1280.008301 88.0
1280.286011 124.0
1280.516968 64.0
1280.656372 36.0
1280.720459 44.0
1281.525513 360.0
1282.145386 56.0
1282.458984 76.0
1282.58728 128.0
1283.043579 108.0
1283.435669 44.0
1283.614014 112.0
1283.977661 164.0
1284.213013 48.0
1284.298584 56.0
1284.505493 60.0
1284.790771 184.0
1284.840698 40.0
1284.919189 36.0
1285.168945 216.0
1285.325928 156.0
1285.644775 180.0
1285.804077 64.0
1286.089478 60.0
1286.146606 184.0
1286.218018 56.0
1286.275146 96.0
1286.63208 60.0
1286.915039 152.0
1286.996216 76.0
1287.103271 28.0
1287.15332 112.0
1287.303223 116.0
1287.603149 84.0
1287.653198 164.0
1287.717407 124.0
1287.860229 148.0
1288.16748 132.0
1288.374634 28.0
1288.974731 56.0
1289.332031 44.0
1289.474976 120.0
1289.957153 136.0
1290.020874 120.0
1290.876221 168.0
1290.940552 100.0
1291.548462 36.0
1291.716309 136.0
1292.177979 152.0
1292.449951 44.0
1292.657349 152.0
1292.7146 40.0
1293.043823 92.0
1293.530518 68.0
1293.79541 76.0
1294.253662 80.0
1294.568726 52.0
1294.740601 148.0
1295.249146 48.0
1295.313599 44.0
1295.378052 112.0
1295.456909 132.0
1295.542847 124.0
1295.922485 168.0
1296.40979 140.0
1296.596069 96.0
1296.674927 80.0
1297.0979 140.0
1297.36792 148.0
1297.599609 64.0
1297.829102 140.0
1297.93103 184.0
1298.065674 108.0
1298.467285 92.0
1298.775757 56.0
1298.91748 116.0
1299.033936 52.0
1299.277832 140.0
1299.909302 148.0
1300.02771 152.0
1300.411621 100.0
1300.519287 116.0
1300.691528 208.0
1300.741821 128.0
1300.957642 200.0
1301.244385 96.0
1301.478027 68.0
1301.981567 60.0
1302.278442 104.0
1302.536987 48.0
1302.716553 212.0
1302.896118 28.0
1303.129517 124.0
1303.614624 60.0
1303.765625 116.0
1303.866211 96.0
1304.065674 160.0
1304.297485 56.0
1304.534668 48.0
1305.627563 60.0
1305.713867 88.0
1305.987183 56.0
1306.087891 152.0
1306.476318 92.0
1306.548218 164.0
1306.605835 112.0
1306.900391 136.0
1306.968262 148.0
1307.217407 100.0
1307.483643 72.0
1307.606079 72.0
1307.771606 72.0
1307.908325 40.0
1308.117065 88.0
1308.462646 76.0
1308.664185 32.0
1308.817383 172.0
1308.930664 100.0
1309.074585 168.0
1309.472778 132.0
1309.699585 124.0
1310.176636 60.0
1310.277466 116.0
1310.499756 76.0
1310.630615 88.0
1310.688232 60.0
1310.753052 68.0
1311.284302 152.0
1311.762085 120.0
1311.895874 68.0
1311.942261 184.0
1312.295532 44.0
1312.576782 68.0
1312.793091 60.0
1312.894043 64.0
1313.160889 64.0
1313.218628 132.0
1313.290649 164.0
1313.60083 112.0
1313.709106 32.0
1313.939941 92.0
1314.004883 68.0
1314.430542 64.0
1314.997314 96.0
1315.08728 60.0
1315.274902 96.0
1315.339966 84.0
1316.516724 148.0
1316.571289 80.0
1316.661255 72.0
1316.986206 96.0
1317.044067 72.0
1317.137939 84.0
1317.347412 84.0
1317.491821 76.0
1317.613892 92.0
1317.773682 84.0
1317.824219 68.0
1317.983154 128.0
1318.554077 128.0
1318.850342 60.0
1319.117798 52.0
1319.284058 140.0
1319.389282 88.0
1319.550659 128.0
1319.703369 64.0
1319.905884 112.0
1319.956543 48.0
1320.021606 152.0
1320.202393 72.0
1320.267456 128.0
1320.784424 68.0
1320.976318 56.0
1321.135376 32.0
1321.312378 168.0
1321.909546 64.0
1322.372803 136.0
1322.568237 52.0
1322.792603 56.0
1322.872192 48.0
1322.951782 148.0
1322.999512 104.0
1323.111084 72.0
1323.43689 92.0
1323.661377 68.0
1323.900391 40.0
1324.056396 96.0
1324.255249 140.0
1324.400024 92.0
1324.697021 72.0
1325.015869 60.0
1325.095459 60.0
1325.145386 36.0
1325.211426 196.0
1325.320068 72.0
1325.494019 120.0
1325.805664 124.0
1326.092529 200.0
1326.327515 172.0
1326.402832 100.0
1326.70105 136.0
1327.161133 68.0
1327.230469 144.0
1327.328003 92.0
1327.538208 168.0
1327.897583 180.0
1328.089478 108.0
1328.626221 60.0
1328.71521 196.0
1328.771362 64.0
1328.974487 124.0
1329.054321 36.0
1329.330078 172.0
1329.532349 160.0
1330.113892 136.0
1330.396973 168.0
1330.46228 136.0
1330.664917 84.0
1330.774536 172.0
1330.970581 148.0
1331.210205 176.0
1331.260986 84.0
1331.544189 76.0
1332.517578 292.0
1332.689697 64.0
1332.997192 124.0
1333.088379 88.0
1333.833008 56.0
1334.225464 168.0
1334.385498 52.0
1334.516357 64.0
1335.250732 40.0
1335.500122 100.0
1335.927246 116.0
1336.232788 80.0
1336.407349 48.0
1336.501953 132.0
1336.625732 132.0
1336.822144 72.0
1337.149658 220.0
1337.266113 60.0
1337.389648 164.0
1337.414795 160.0
1338.052246 100.0
1338.161499 108.0
1338.773071 64.0
1338.905151 92.0
1339.312012 160.0
1339.805908 236.0
1339.887573 80.0
1339.967651 84.0
1340.040527 180.0
1340.49231 80.0
1340.623535 84.0
1340.696411 84.0
1340.966064 108.0
1341.078003 128.0
1341.308594 160.0
1341.500488 188.0
1342.168091 112.0
1342.373047 56.0
1342.577271 108.0
1343.036743 104.0
1343.277466 36.0
1343.350342 92.0
1343.416016 52.0
1343.467041 120.0
1343.986694 92.0
1344.085083 152.0
1344.616455 84.0
1344.817017 44.0
1345.001953 156.0
1345.087036 76.0
1345.218506 28.0
1345.4375 192.0
1345.59082 132.0
1345.78064 120.0
1345.831787 32.0
1345.890137 136.0
1345.973877 104.0
1346.233398 100.0
1346.328247 96.0
1346.386719 72.0
1346.613159 88.0
1347.168213 88.0
1347.343628 80.0
1347.42395 136.0
1347.847778 120.0
1348.300781 80.0
1348.359253 212.0
1348.556641 220.0
1349.039062 212.0
1349.148682 208.0
1349.660522 64.0
1349.821289 56.0
1349.960327 36.0
1350.137695 136.0
1350.260132 40.0
1350.365601 144.0
1350.472168 104.0
1350.698975 236.0
1351.240601 88.0
1351.357422 60.0
1351.470825 164.0
1351.686646 40.0
1351.876953 80.0
1351.97937 60.0
1352.155029 124.0
1352.300781 92.0
1352.7771 68.0
1352.92334 240.0
1353.157837 56.0
1353.53125 136.0
1353.926636 156.0
1353.985229 72.0
1354.197632 148.0
1354.358765 52.0
1354.465942 172.0
1354.567383 56.0
1354.717773 128.0
1354.856934 52.0
1355.084106 120.0
1355.179321 164.0
1355.230591 40.0
1355.318481 172.0
1355.531006 220.0
1355.675293 204.0
1356.0 44.0
1356.081543 272.0
1356.193848 160.0
1356.513062 220.0
1356.945679 104.0
1357.04834 80.0
1357.238892 104.0
1357.370972 104.0
1357.678955 28.0
1357.850708 196.0
1358.030029 124.0
1358.162964 128.0
1358.383057 68.0
1358.44165 196.0
1358.617798 128.0
1358.779175 148.0
1358.859863 68.0
1359.094604 104.0
1359.15332 148.0
1359.21936 52.0
1359.490967 232.0
1359.894531 56.0
1359.975342 64.0
1360.312988 224.0
1360.702026 104.0
1361.406982 124.0
1361.568481 28.0
1361.645996 72.0
1361.778687 84.0
1361.930786 60.0
1362.001831 128.0
1362.104736 72.0
1362.155396 180.0
1362.333496 84.0
1362.62146 204.0
1363.031128 40.0
1363.98584 88.0
1364.037231 84.0
1364.369263 140.0
1364.50769 84.0
1364.588623 256.0
1364.80188 68.0
1364.978271 56.0
1365.515137 80.0
1365.82019 100.0
1366.12561 212.0
1366.35376 92.0
1366.515625 36.0
1366.622803 104.0
1366.773071 116.0
1366.979126 136.0
1367.17041 64.0
1367.310303 96.0
1367.648804 176.0
1367.788696 144.0
1367.980103 72.0
1368.08313 28.0
1368.392334 180.0
1368.554321 132.0
1368.738403 172.0
1368.848877 96.0
1368.98877 180.0
1369.180298 88.0
1369.250366 76.0
1369.349609 60.0
1369.436035 60.0
1369.555908 96.0
1369.880005 64.0
1369.990479 100.0
1370.056763 148.0
1370.51355 64.0
1370.64624 44.0
1370.786255 56.0
1370.996338 136.0
1371.714844 72.0
1371.95813 152.0
1372.116577 48.0
1372.223511 132.0
1372.280396 68.0
1372.555298 72.0
1372.975708 132.0
1373.314941 64.0
1373.521484 132.0
1373.732178 148.0
1374.163208 144.0
1374.303467 144.0
1374.539551 84.0
1374.709351 44.0
1375.196411 84.0
1375.314453 96.0
1375.880127 96.0
1375.956665 64.0
1376.141235 48.0
1376.377563 124.0
1376.576904 60.0
1376.709839 120.0
1376.85022 44.0
1376.931396 148.0
1377.175171 176.0
1377.637939 176.0
1377.692261 96.0
1377.862183 120.0
1378.014893 124.0
1378.261108 132.0
1378.349731 36.0
1378.423706 108.0
1378.534546 88.0
1378.687134 128.0
1378.752686 124.0
1379.008789 116.0
1379.351074 132.0
1379.532349 88.0
1379.768921 48.0
1380.476196 164.0
1380.560059 108.0
1380.641357 80.0
1380.826294 172.0
1381.026001 52.0
1381.343994 156.0
1381.440186 64.0
1381.52478 120.0
1381.632568 104.0
1381.758301 108.0
1381.861206 84.0
1381.95813 48.0
1382.009888 168.0
1382.779419 148.0
1382.897949 84.0
1382.971924 72.0
1383.068115 144.0
1383.142212 56.0
1383.359985 240.0
1383.5271 68.0
1383.675171 80.0
1383.760742 128.0
1383.815796 168.0
1383.897217 68.0
1384.067627 84.0
1384.267456 60.0
1384.385986 68.0
1384.460083 48.0
1384.615601 84.0
1384.674805 64.0
1384.752197 136.0
1384.882202 184.0
1385.008057 56.0
1385.119263 200.0
1385.32666 88.0
1385.711914 96.0
1385.822998 96.0
1385.902588 108.0
1386.008179 132.0
1386.104614 32.0
1386.415771 120.0
1386.578857 88.0
1386.652954 156.0
1387.186646 56.0
1387.275635 36.0
1387.920654 60.0
1388.008423 100.0
1388.588013 92.0
1388.870239 88.0
1389.055298 80.0
1389.303589 108.0
1389.582031 120.0
1389.878784 36.0
1389.982666 92.0
1390.034668 148.0
1390.227539 184.0
1390.450684 120.0
1390.917847 60.0
1391.533936 144.0
1392.169556 144.0
1392.229858 144.0
1392.313721 172.0
1392.536255 108.0
1392.633545 104.0
1392.689087 88.0
1392.718384 172.0
1392.826172 152.0
1393.056396 76.0
1393.346191 128.0
1393.561646 152.0
1393.673096 92.0
1395.598145 96.0
1395.96875 76.0
1396.118652 60.0
1396.574829 188.0
1396.944214 132.0
1397.093018 80.0
1397.170532 104.0
1397.251221 168.0
1397.353394 152.0
1398.421753 156.0
1398.663208 144.0
1398.73877 128.0
1399.027954 164.0
1399.124756 56.0
1399.675659 36.0
1400.070312 84.0
1400.153931 184.0
1400.226685 212.0
1400.800293 36.0
1401.067139 112.0
1401.368164 196.0
1401.515503 224.0
1401.9104 76.0
1402.148926 152.0
1402.20105 72.0
1402.417236 168.0
1402.536499 44.0
1402.642456 160.0
1402.722778 172.0
1402.834595 152.0
1402.893188 80.0
1403.058228 116.0
1403.22229 108.0
1403.396729 100.0
1403.587646 80.0
1404.19165 72.0
1404.271606 84.0
1404.53479 96.0
1404.745117 124.0
1405.124146 148.0
1405.292358 164.0
1405.944946 108.0
1406.026978 184.0
1406.407593 64.0
1406.534546 180.0
1406.668945 40.0
1406.78833 68.0
1406.848022 52.0
1407.09436 124.0
1407.258667 60.0
1407.378174 88.0
1407.646973 88.0
1407.766479 32.0
1407.998291 72.0
1408.109985 80.0
1408.266846 120.0
1408.356445 96.0
1408.453491 92.0
1408.95752 128.0
1409.163208 92.0
1409.290283 28.0
1409.402344 72.0
1409.469604 232.0
1410.366333 132.0
1410.590576 48.0
1410.657837 112.0
1411.054077 140.0
1411.106445 48.0
1411.335571 240.0
1411.547607 92.0
1411.906494 52.0
1412.018677 48.0
1412.175781 116.0
1412.235596 108.0
1412.467529 108.0
1412.58313 132.0
1412.677002 124.0
1412.908813 108.0
1413.155762 56.0
1413.267944 112.0
1413.507446 160.0
1413.952515 144.0
1414.083618 112.0
1414.22583 104.0
1414.338135 96.0
1414.405518 76.0
1414.555176 56.0
1414.630127 56.0
1414.719971 124.0
1414.847168 140.0
1415.071777 96.0
1415.213989 100.0
1415.708252 88.0
1416.03772 132.0
1416.109619 160.0
1416.269897 48.0
1416.362305 108.0
1416.74939 152.0
1416.809326 96.0
1417.004028 76.0
1417.460449 176.0
1417.606689 260.0
1417.820801 152.0
1418.075684 168.0
1418.195557 68.0
1418.363892 316.0
1418.622803 100.0
1418.825317 56.0
1418.990234 56.0
1419.117676 84.0
1419.565063 180.0
1419.653442 44.0
1419.890015 108.0
1420.070068 176.0
1420.154663 172.0
1420.272583 56.0
1420.484253 192.0
1420.715088 72.0
1420.850098 84.0
1420.977661 56.0
1421.097778 52.0
1421.16626 176.0
1421.249878 248.0
1421.491211 108.0
1421.578003 64.0
1422.020752 156.0
1422.103271 68.0
1422.190186 136.0
1422.797607 152.0
1422.996582 84.0
1423.169312 216.0
1423.22937 120.0
1423.379517 96.0
1423.513672 160.0
1423.568115 148.0
1423.62439 56.0
1423.73999 68.0
1423.833496 184.0
1425.420166 144.0
1426.06897 76.0
1426.978638 128.0
1427.061035 92.0
1427.309448 40.0
1427.418701 164.0
1427.893188 116.0
1428.016357 120.0
1428.06897 40.0
1428.241943 184.0
1428.317261 96.0
1428.369873 44.0
1428.4375 124.0
1428.520264 92.0
1428.62561 72.0
1428.733398 136.0
1428.813721 168.0
1428.922485 112.0
1429.114624 128.0
1429.216431 144.0
1429.315552 176.0
1429.513428 48.0
1429.581177 76.0
1429.633911 352.0
1429.829468 76.0
1429.9198 172.0
1430.123047 124.0
1430.244507 184.0
1430.431641 56.0
1430.501709 64.0
1430.612305 172.0
1431.064087 164.0
1431.207153 100.0
1431.53418 204.0
1431.719116 148.0
1431.786987 140.0
1431.990234 68.0
1432.163574 152.0
1432.412109 128.0
1432.699097 128.0
1432.811401 176.0
1433.014771 224.0
1433.08252 76.0
1433.218262 112.0
1433.549805 36.0
1433.753174 152.0
1433.828613 36.0
1433.919067 100.0
1434.122559 136.0
1434.190308 72.0
1434.28833 72.0
1434.408936 124.0
1434.77832 44.0
1434.981934 108.0
1435.034668 116.0
1435.140259 44.0
1435.260864 152.0
1435.690674 108.0
1435.841553 104.0
1435.909424 156.0
1435.962158 72.0
1436.037598 220.0
1436.226196 64.0
1436.505249 52.0
1436.64856 100.0
1436.962402 68.0
1437.146606 60.0
1437.199341 92.0
1437.418213 196.0
1437.48938 92.0
1437.86084 132.0
1438.014404 76.0
1438.082275 140.0
1438.157837 128.0
1438.225708 76.0
1438.339355 144.0
1438.467285 76.0
1438.829468 220.0
1439.199585 148.0
1439.290161 116.0
1439.418579 76.0
1439.482178 104.0
1439.544922 164.0
1439.730103 128.0
1439.823608 180.0
1440.04541 108.0
1440.361206 220.0
1440.547485 184.0
1440.8302 76.0
1441.29187 156.0
1441.480713 48.0
1441.714966 44.0
1441.778442 152.0
1441.963257 136.0
1442.123169 144.0
1442.449463 140.0
1442.553955 176.0
1442.635498 112.0
1442.735352 92.0
1442.818604 116.0
1442.959717 96.0
1443.098267 48.0
1443.168701 184.0
1443.29895 76.0
1443.461304 64.0
1443.51416 88.0
1443.619995 68.0
1443.854492 124.0
1443.915039 48.0
1444.070557 192.0
1444.240234 124.0
1444.346069 232.0
1444.456787 132.0
1444.618408 40.0
1445.051636 152.0
1445.21106 192.0
1445.367432 148.0
1445.435547 68.0
1445.533081 188.0
1445.916016 140.0
1446.003052 112.0
1446.093872 52.0
1446.181519 80.0
1446.331055 132.0
1446.411865 184.0
1446.517822 48.0
1446.631348 188.0
1446.767578 92.0
1447.09314 172.0
1447.259766 232.0
1447.496582 156.0
1447.600464 160.0
1447.714111 112.0
1447.979126 80.0
1448.092773 76.0
1448.221436 80.0
1448.30481 216.0
1448.463867 104.0
1448.529175 176.0
1449.103638 172.0
1449.217163 100.0
1449.274536 68.0
1449.509399 76.0
1449.678467 236.0
1449.865601 204.0
1450.158447 96.0
1450.290649 48.0
1450.64624 108.0
1450.744751 40.0
1450.9646 64.0
1451.025269 52.0
1451.395386 160.0
1451.477173 156.0
1451.631836 100.0
1451.776001 104.0
1451.850342 100.0
1452.026245 52.0
1452.296509 156.0
1452.481323 52.0
1452.775391 172.0
1452.966797 128.0
1453.179199 172.0
1453.251709 88.0
1453.384155 136.0
1453.490356 44.0
1453.543457 132.0
1453.708862 120.0
1453.778687 188.0
1453.884888 92.0
1454.029175 60.0
1454.082275 264.0
1454.150513 36.0
1454.264404 68.0
1454.408691 236.0
1454.476929 76.0
1454.621216 160.0
1454.803345 84.0
1454.947632 136.0
1455.038696 48.0
1455.342407 148.0
1455.479126 68.0
1455.623291 112.0
1455.756226 124.0
1455.881592 108.0
1455.980225 40.0
1456.158203 84.0
1456.271851 132.0
1456.390381 76.0
1456.5271 60.0
1456.679077 188.0
1456.859619 124.0
1457.112061 68.0
1457.38916 284.0
1457.467163 140.0
1457.71228 44.0
1457.909912 96.0
1457.970703 64.0
1458.039062 44.0
1458.122681 36.0
1458.200806 196.0
1458.362915 176.0
1458.555908 156.0
1458.618652 108.0
1458.761108 160.0
1458.826538 132.0
1458.882812 164.0
1458.958862 80.0
1459.027222 68.0
1459.126099 188.0
1459.18689 64.0
1459.407349 116.0
1459.564697 76.0
1459.673462 96.0
1459.779907 188.0
1459.947266 88.0
1460.160156 60.0
1460.251465 184.0
1460.335083 40.0
1460.555664 40.0
1460.677368 116.0
1460.90564 180.0
1460.974121 96.0
1461.476196 72.0
1461.62085 96.0
1461.742554 152.0
1462.300659 108.0
1462.541626 116.0
1462.85376 48.0
1463.135376 68.0
1463.203979 184.0
1463.295288 60.0
1463.769653 176.0
1464.026245 120.0
1464.155762 148.0
1464.239502 148.0
1464.361328 80.0
1464.582275 64.0
1464.711792 60.0
1464.902222 160.0
1464.970703 68.0
1465.10022 88.0
1465.504028 32.0
1465.587891 80.0
1465.900269 120.0
1465.968872 164.0
1466.380371 68.0
1466.563354 200.0
1466.776733 40.0
1466.852905 60.0
1467.058838 80.0
1467.386597 64.0
1467.563965 164.0
1467.752563 44.0
1467.805908 204.0
1467.887939 176.0
1468.156738 268.0
1468.22644 212.0
1468.35498 108.0
1468.652466 196.0
1469.251831 180.0
1469.30188 216.0
1469.361938 200.0
1469.415283 84.0
1469.510376 112.0
1469.659424 112.0
1469.781616 56.0
1469.842651 132.0
1469.908203 100.0
1470.109741 148.0
1470.23938 80.0
1470.323364 120.0
1470.582886 48.0
1470.804199 100.0
1470.964478 112.0
1471.170654 96.0
1471.689819 200.0
1471.842529 76.0
1472.060425 60.0
1472.319702 40.0
1472.685425 112.0
1472.850586 132.0
1472.942261 48.0
1473.021484 156.0
1473.30896 68.0
1473.446411 32.0
1473.614502 204.0
1473.667969 60.0
1474.068848 156.0
1474.242798 144.0
1474.33667 64.0
1474.913696 52.0
1475.068726 96.0
1475.227051 72.0
1475.463989 52.0
1475.602539 140.0
1476.045166 88.0
1476.15979 60.0
1476.318115 40.0
1476.519287 72.0
1476.939941 148.0
1476.993408 144.0
1477.169434 56.0
1477.25354 124.0
1477.366089 156.0
1477.528931 204.0
1477.953979 164.0
1478.132446 148.0
1478.278809 124.0
1478.60022 144.0
1478.719971 92.0
1478.768555 180.0
1478.822144 48.0
1478.906372 164.0
1479.036499 60.0
1479.258423 52.0
1479.393311 164.0
1479.565552 68.0
1479.651611 184.0
1479.809692 96.0
1480.039307 64.0
1480.100586 32.0
1480.303955 192.0
1480.368652 124.0
1480.723022 132.0
1480.782227 164.0
1480.881714 72.0
1481.080933 44.0
1481.276978 112.0
1481.321655 120.0
1481.463867 124.0
1481.819824 188.0
1482.099731 204.0
1482.241089 172.0
1482.34021 128.0
1482.398682 152.0
1482.459961 76.0
1482.59375 96.0
1482.78186 84.0
1482.835449 76.0
1483.004639 60.0
1483.195679 48.0
1483.295288 44.0
1483.450195 220.0
1483.751099 132.0
1483.88562 52.0
1484.03125 148.0
1484.406982 84.0
1484.468384 52.0
1484.52771 124.0
1484.943848 144.0
1485.020508 196.0
1485.115967 92.0
1485.332153 116.0
1485.519165 152.0
1485.664917 172.0
1485.772339 84.0
1485.987061 44.0
1486.340088 64.0
1486.409058 56.0
1486.708374 64.0
1486.956543 72.0
1487.015381 52.0
1487.069092 40.0
1487.138184 44.0
1487.230225 84.0
1487.314697 88.0
1487.483643 180.0
1487.658203 180.0
1487.899658 156.0
1488.186279 76.0
1488.366455 40.0
1488.420166 236.0
1488.745239 176.0
1488.85791 188.0
1489.172852 64.0
1489.587646 248.0
1489.656738 32.0
1489.71814 184.0
1489.810425 60.0
1490.23291 116.0
1490.386597 52.0
1490.44812 64.0
1490.755371 168.0
1490.824585 60.0
1490.932129 140.0
1491.001343 52.0
1491.337402 128.0
1491.575195 128.0
1491.731567 96.0
1491.7854 60.0
1492.100586 36.0
1492.185059 76.0
1492.308105 96.0
1492.408081 160.0
1492.573486 196.0
1492.723389 124.0
1492.907471 152.0
1492.921387 144.0
1493.038574 148.0
1493.138672 148.0
1493.29248 88.0
1493.392456 144.0
1493.497559 96.0
1493.677002 184.0
1493.741699 156.0
1493.81543 172.0
1494.13855 68.0
1494.313477 88.0
1494.365845 140.0
1494.458618 128.0
1494.569458 64.0
1494.985229 120.0
1495.06189 36.0
1495.138916 48.0
1495.312012 48.0
1495.408203 136.0
1495.973755 64.0
1496.139526 204.0
1496.278076 184.0
1496.493652 76.0
1496.693848 36.0
1496.780273 88.0
1496.924805 64.0
1497.017212 128.0
1497.155884 72.0
1497.282104 112.0
1498.126343 156.0
1498.249634 232.0
1498.431885 172.0
1498.547729 136.0
1498.876953 68.0
1498.95459 88.0
1499.050903 176.0
1499.151123 148.0
1499.256104 188.0
1499.390015 200.0
1499.513306 48.0
1499.615112 116.0
1499.709595 180.0
1500.08374 40.0
1500.147339 140.0
1500.846924 76.0
1500.954956 48.0
1501.008911 220.0
1501.209351 132.0
1501.656738 124.0
1501.769775 132.0
1501.949829 132.0
1502.026978 136.0
1502.227539 168.0
1502.289185 132.0
1502.387451 240.0
1502.571289 228.0
1502.667236 60.0
1502.759766 140.0
1502.844727 132.0
1503.068481 112.0
1503.238159 36.0
1503.497437 168.0
1503.871094 156.0
1503.959961 108.0
1504.053955 108.0
1504.1875 88.0
1504.341919 76.0
