>compound Cabazitaxel (Jevtana)
>formula C45H57NO14
>ionization [M+Na]+
>parentmass 858.368164
#inchi InChI=1S/C45H57NO14/c1-24-28(57-39(51)33(48)32(26-17-13-11-14-18-26)46-40(52)60-41(3,4)5)22-45(53)37(58-38(50)27-19-15-12-16-20-27)35-43(8,36(49)34(55-10)31(24)42(45,6)7)29(54-9)21-30-44(35,23-56-30)59-25(2)47/h11-20,28-30,32-35,37,48,53H,21-23H2,1-10H3,(H,46,52)/t28-,29+,30+,32-,33+,34+,35-,37+,43+,44-,45-/m0/s1
#inchikey BMQGVNUXMIRLCK
#Ion_Source LC-ESI
#Instrument qTof
#Compound_Source Commercial
#PI Dorrestein
#Data_Collector Garg_Neha
#Scan -1
#Precursor_MZ 858.367
#ExactMass 835.378
#Charge 1
#CAS_Number 183133-96-2, 890654-44-1
#Pubmed_ID N/A
#Smiles [C@@]12([C@@]([C@]3([C@@](C[C@H]1OC)(OC3)[H])OC(=O)C)([C@H]([C@]4(C[C@@H](C(=C([C@H](C2=O)OC)C4(C)C)C)OC([C@@H]([C@@H](NC(OC(C)(C)C)=O)C5=CC=CC=C5)O)=O)O)OC(=O)C6=CC=CC=C6)[H])C
#INCHI_AUX N/A
#Library_Class 1
#SpectrumID CCMSLIB00000078539
#IonMode Positive
#UpdateWorkflowName UPDATE-SINGLE-ANNOTATED-GOLD
#LibraryQualityString Gold
#TaskID 77f51c88eb8b467eb4a01dd2d0cb90d2
##Scan# 2455
#SpectrumFile Plate9_1_20_GC4_01_15750.mzXML
#LibraryName FDALibrary_2_04302014.mgf
#MQScore -1
#Organism FDALibrary_2_04302014
#TIC_Query 0
#RT_Query -1
#MZErrorPPM -1
#SharedPeaks 0
#MassDiff 0
#LibMZ -1
#SpecMZ 858.367
#SpecCharge 0
#internalFilename spec-00000.mgf

>collision 10
46.809914 164.0
46.890293 172.0
47.761108 196.0
52.516243 144.0
52.560963 188.0
53.100567 248.0
53.190529 144.0
56.051319 188.0
56.962467 144.0
57.212097 176.0
58.954941 192.0
63.704933 156.0
64.420204 176.0
65.877258 248.0
67.826767 144.0
68.688416 156.0
71.27404 160.0
73.661255 176.0
74.356422 216.0
74.916969 152.0
75.900398 216.0
85.853004 220.0
86.683029 152.0
87.88237 184.0
88.737122 160.0
89.142563 172.0
91.094299 172.0
91.118996 144.0
93.067177 304.0
93.120949 164.0
95.605316 144.0
97.065659 152.0
97.754059 160.0
98.469681 184.0
99.078934 212.0
99.938614 160.0
101.572815 248.0
102.709312 196.0
102.81826 180.0
103.053658 160.0
104.506264 188.0
104.573418 204.0
105.031975 800.0
105.069435 1340.0
105.091705 180.0
105.423866 192.0
106.569313 164.0
106.707024 140.0
107.046524 184.0
107.081535 144.0
107.198967 140.0
107.302025 144.0
111.045166 156.0
111.078728 164.0
113.055046 176.0
114.073128 244.0
114.867409 192.0
117.247391 144.0
118.812889 212.0
119.050652 160.0
119.083878 424.0
120.085419 144.0
121.063599 244.0
121.099556 160.0
122.070038 152.0
122.897797 140.0
123.080719 164.0
123.251083 208.0
123.374847 144.0
123.4058 160.0
123.801888 144.0
124.067772 240.0
125.058487 152.0
125.098557 152.0
126.067917 224.0
126.379608 140.0
127.08091 164.0
129.070587 172.0
131.084915 372.0
132.032913 168.0
132.227371 204.0
132.300613 176.0
133.06485 1896.0
133.102356 456.0
133.126053 208.0
134.068222 304.0
134.101761 256.0
134.588272 220.0
135.042511 148.0
135.0793 1012.0
135.119858 200.0
136.085663 168.0
137.063248 152.0
137.094269 728.0
137.78653 180.0
137.882339 140.0
138.097427 164.0
139.076828 164.0
140.238754 184.0
141.284195 180.0
142.092697 180.0
142.330048 196.0
143.087036 396.0
144.091522 252.0
144.159485 224.0
145.025864 328.0
145.063416 308.0
145.101318 320.0
145.510422 164.0
145.813095 140.0
146.048721 216.0
146.100021 388.0
146.335083 164.0
147.012421 220.0
147.074753 140.0
147.118622 340.0
148.047089 308.0
148.08168 128.0
148.791489 204.0
149.058701 1092.0
149.095062 252.0
150.063004 396.0
151.040726 148.0
151.079544 136.0
151.108612 416.0
151.163086 168.0
152.484924 188.0
153.067383 156.0
153.090454 528.0
154.077164 312.0
155.085541 156.0
156.360489 140.0
156.744003 216.0
157.06311 148.0
157.101593 472.0
158.069946 172.0
158.107483 288.0
159.079254 704.0
159.117645 292.0
159.167862 192.0
159.388901 192.0
159.994736 160.0
160.118439 148.0
160.483826 148.0
161.065613 180.0
161.093704 596.0
161.630569 156.0
162.068481 148.0
162.102234 380.0
162.126892 180.0
163.076004 764.0
163.111649 1120.0
163.381226 224.0
165.051117 252.0
165.089447 228.0
165.126221 1504.0
166.129044 244.0
167.085922 296.0
167.483566 168.0
167.89711 176.0
169.060242 156.0
169.096329 292.0
170.049652 140.0
170.06781 180.0
171.081589 148.0
171.114853 436.0
172.085464 136.0
172.153214 152.0
173.060562 140.0
173.092972 232.0
173.130844 152.0
173.783966 144.0
174.064819 172.0
174.096329 160.0
174.130478 176.0
175.069214 148.0
175.110092 632.0
176.116302 488.0
177.05368 1496.0
177.09198 180.0
177.126724 784.0
178.009995 180.0
178.058151 896.0
178.086624 168.0
178.134384 144.0
179.009842 164.0
179.080292 664.0
180.092621 320.0
181.085571 1156.0
182.089828 332.0
183.062805 284.0
183.077454 192.0
183.116959 724.0
184.064636 144.0
184.083542 140.0
184.116608 136.0
185.097321 124.0
185.132034 320.0
186.106918 164.0
187.076843 252.0
187.108765 424.0
189.050217 172.0
189.080322 112.0
189.126144 264.0
190.106567 160.0
190.896408 204.0
191.068954 296.0
191.1064 648.0
191.143982 160.0
191.876633 148.0
192.090744 376.0
192.795807 196.0
193.101761 1128.0
194.106125 308.0
195.113785 596.0
196.119751 352.0
197.094345 516.0
197.127457 484.0
197.649429 104.0
198.100204 440.0
199.072876 132.0
199.11145 652.0
199.8116 196.0
200.11142 392.0
200.512741 188.0
201.08696 168.0
201.124161 132.0
202.021957 112.0
203.074265 148.0
203.105698 300.0
203.143158 140.0
204.062546 2100.0
204.252167 140.0
205.077896 328.0
205.124359 152.0
205.900436 172.0
206.108566 404.0
207.113846 924.0
208.088531 480.0
208.123154 352.0
209.025177 140.0
209.080338 1140.0
209.130157 1896.0
209.376373 160.0
210.098267 308.0
210.135483 272.0
211.107803 656.0
211.145538 172.0
212.079056 164.0
212.114365 308.0
213.088623 436.0
213.127747 440.0
213.267807 144.0
214.103928 96.0
214.130524 144.0
214.158142 140.0
214.525299 204.0
214.848999 260.0
215.099609 132.0
215.142136 468.0
215.202148 160.0
216.118195 188.0
216.143326 156.0
217.095718 128.0
218.081375 416.0
218.993912 144.0
219.056519 168.0
219.09259 192.0
219.113174 316.0
220.123245 908.0
221.094894 284.0
221.129791 608.0
222.005493 152.0
222.099319 240.0
222.136078 252.0
223.109619 680.0
223.146698 260.0
224.120682 268.0
224.149261 304.0
225.087051 336.0
225.126266 1764.0
225.161133 348.0
226.098816 196.0
226.129639 332.0
227.096146 148.0
227.141464 380.0
227.907028 188.0
228.105316 184.0
228.147461 292.0
228.51738 236.0
229.121048 316.0
229.149536 204.0
229.870285 176.0
230.118027 256.0
231.100082 152.0
231.136398 144.0
232.123093 368.0
233.129868 456.0
234.044281 176.0
234.102142 176.0
234.138611 196.0
235.027008 152.0
235.056274 140.0
235.106659 212.0
235.148071 3044.0
236.120499 300.0
236.149551 980.0
237.075867 120.0
237.126678 2488.0
237.162201 1048.0
238.034698 176.0
238.130249 456.0
238.879898 140.0
239.104477 424.0
239.138245 516.0
239.182129 164.0
240.110641 504.0
240.152039 148.0
241.119934 384.0
241.162415 156.0
242.119934 292.0
243.101624 184.0
243.136993 208.0
244.147797 208.0
245.127747 276.0
245.165314 216.0
246.130905 192.0
247.114288 328.0
247.144043 440.0
247.837036 180.0
248.052475 10112.0
248.093109 216.0
248.120163 160.0
248.157547 224.0
248.55304 104.0
248.583328 172.0
249.053574 792.0
249.132233 300.0
249.159805 436.0
249.531906 148.0
250.057129 140.0
250.078613 424.0
250.131027 268.0
251.109955 456.0
251.142365 1036.0
251.175781 160.0
252.151413 268.0
252.970627 148.0
253.121674 532.0
253.158966 1136.0
253.746796 148.0
254.102005 184.0
254.160858 184.0
255.06105 152.0
255.135132 568.0
255.167725 168.0
256.137329 104.0
257.113068 272.0
257.150421 444.0
257.207184 148.0
258.164825 164.0
259.133362 140.0
259.164368 96.0
259.200409 144.0
261.129395 132.0
261.184448 188.0
261.960236 212.0
262.067932 1400.0
262.131073 144.0
263.069275 308.0
263.141449 1044.0
263.183807 104.0
264.112061 160.0
264.150116 828.0
265.125122 460.0
265.160248 1272.0
266.138214 152.0
266.163177 248.0
267.136078 316.0
267.173065 1712.0
268.149109 276.0
268.177612 460.0
269.117249 140.0
269.155212 776.0
269.184601 216.0
270.117798 436.0
270.169128 212.0
271.122375 136.0
271.169067 324.0
272.132507 148.0
272.17804 204.0
272.977936 240.0
273.144958 516.0
274.067474 180.0
274.136139 120.0
275.144287 340.0
276.107544 160.0
277.093201 104.0
277.138641 148.0
278.118652 232.0
278.163269 160.0
279.138123 588.0
279.176544 156.0
280.139923 200.0
281.154083 1972.0
282.119293 168.0
282.150635 228.0
283.132111 448.0
283.166077 332.0
284.137177 348.0
284.165985 224.0
285.09903 160.0
285.14328 520.0
285.182465 580.0
285.371307 152.0
286.153931 192.0
286.184631 176.0
286.948914 140.0
287.162415 532.0
288.557434 152.0
289.089905 268.0
290.101196 144.0
291.14093 704.0
292.149475 148.0
293.095428 164.0
293.1539 504.0
294.123138 116.0
294.15802 384.0
294.62735 168.0
295.16745 612.0
296.043457 168.0
296.167694 120.0
297.139954 268.0
297.185486 716.0
298.150726 236.0
298.188354 156.0
299.117706 160.0
299.165192 560.0
300.080841 204.0
300.132568 276.0
300.167053 172.0
301.12085 188.0
301.148773 220.0
303.137451 184.0
303.913116 184.0
304.114868 11900.0
305.118256 2480.0
305.4104 160.0
306.120514 288.0
306.628998 140.0
307.122589 240.0
307.162476 140.0
309.097107 256.0
309.148224 988.0
310.149811 96.0
310.509766 140.0
311.163757 1628.0
312.166656 888.0
313.180847 660.0
314.069153 160.0
314.183899 344.0
315.165283 388.0
316.159912 140.0
316.189056 168.0
317.177002 120.0
317.209137 276.0
318.127289 1428.0
319.134399 436.0
319.169159 216.0
320.13678 156.0
323.07428 156.0
323.163483 932.0
324.164032 316.0
325.166656 172.0
326.208496 176.0
327.154144 216.0
327.191284 256.0
328.163361 244.0
329.170135 440.0
329.206238 344.0
330.158356 148.0
330.171082 148.0
331.113342 252.0
331.140808 124.0
331.193451 316.0
332.19342 200.0
334.197601 184.0
335.151245 136.0
337.171631 132.0
338.178955 140.0
339.046967 152.0
341.173431 1368.0
342.173279 312.0
342.321808 196.0
342.787964 140.0
343.189697 2828.0
344.192261 1432.0
345.206787 724.0
346.123566 172.0
346.206635 156.0
347.175964 200.0
348.140839 164.0
351.189789 1324.0
351.965149 144.0
352.199219 624.0
353.102142 188.0
353.159943 152.0
353.200439 164.0
355.107056 132.0
355.190277 948.0
356.193939 468.0
358.202087 140.0
359.188202 496.0
359.219421 168.0
362.293243 172.0
363.209778 164.0
365.179077 140.0
366.140991 152.0
367.191956 316.0
369.171936 108.0
370.181366 176.0
370.733002 196.0
371.104828 148.0
371.152588 148.0
371.186981 392.0
372.181854 140.0
373.199249 2544.0
374.206726 608.0
375.199463 364.0
376.175629 168.0
377.496765 176.0
377.628265 224.0
378.130524 120.0
379.197052 144.0
381.159943 148.0
387.218353 180.0
387.257538 180.0
389.941162 220.0
390.853516 244.0
391.138336 228.0
391.211639 272.0
393.517975 156.0
395.181671 840.0
396.178467 540.0
397.126617 168.0
399.160339 164.0
399.952026 152.0
401.193359 388.0
401.258636 256.0
402.200684 384.0
403.710327 228.0
404.942963 152.0
405.167572 132.0
405.221222 324.0
406.232361 244.0
408.14563 108.0
408.177521 144.0
411.142395 208.0
411.182739 144.0
411.214844 132.0
413.123383 260.0
414.208496 152.0
415.131866 216.0
415.208344 184.0
417.214111 168.0
418.528259 168.0
419.104645 124.0
419.216644 240.0
420.111755 172.0
423.171814 124.0
423.522797 176.0
425.192139 156.0
427.199982 232.0
428.196838 156.0
428.489319 204.0
429.194122 180.0
430.147125 156.0
431.1875 428.0
433.221191 5860.0
433.46405 148.0
433.503784 136.0
434.225861 2320.0
435.224182 264.0
436.170898 148.0
436.235107 144.0
437.182617 276.0
440.176819 156.0
442.131622 172.0
443.197937 140.0
445.187927 136.0
447.147797 140.0
453.438202 180.0
454.125031 172.0
455.203186 2028.0
456.010162 152.0
456.202301 892.0
457.166931 180.0
457.204803 348.0
459.143646 184.0
463.211243 240.0
463.568268 168.0
465.219543 176.0
466.2547 180.0
469.220459 200.0
471.173584 116.0
473.228241 148.0
475.210602 112.0
477.230255 304.0
485.180664 272.0
487.205688 316.0
488.210663 112.0
489.175598 188.0
489.223145 216.0
489.583374 204.0
490.176331 212.0
492.220428 140.0
493.218292 532.0
494.22583 256.0
495.240234 320.0
498.217224 152.0
499.195587 108.0
500.227448 140.0
501.15976 236.0
501.228394 220.0
502.175903 140.0
502.228149 148.0
507.192505 124.0
517.216675 3308.0
518.218506 1304.0
519.219604 528.0
519.697021 144.0
520.155396 180.0
520.233093 132.0
523.228027 832.0
524.236511 372.0
525.242188 160.0
528.210815 176.0
529.221252 480.0
529.68573 140.0
530.220886 192.0
531.239685 176.0
535.141479 156.0
535.221252 256.0
535.279602 180.0
537.732178 164.0
545.210999 120.0
545.402283 152.0
546.208801 132.0
547.222351 612.0
547.384216 200.0
548.229675 212.0
549.244629 320.0
550.243164 544.0
554.977234 204.0
555.256592 1076.0
556.261841 252.0
558.278931 132.0
563.221191 532.0
563.401855 140.0
564.224365 380.0
565.198425 160.0
570.396301 180.0
572.475464 176.0
574.234009 144.0
575.476501 108.0
576.167236 148.0
576.864807 108.0
577.040161 104.0
577.078796 248.0
577.146667 160.0
577.240417 66032.0
577.37915 128.0
577.454712 164.0
577.53302 112.0
577.665955 288.0
577.842957 104.0
577.927551 108.0
577.982239 180.0
578.09906 96.0
578.159485 184.0
578.242798 15400.0
578.567383 124.0
579.030884 104.0
579.152222 136.0
579.245239 4028.0
579.522888 96.0
579.697266 120.0
580.145386 120.0
580.184937 164.0
580.251526 924.0
580.338562 124.0
580.816406 140.0
580.927063 136.0
581.05188 120.0
581.104553 104.0
581.249512 192.0
581.308228 232.0
581.50061 96.0
581.60144 124.0
581.64624 168.0
581.810547 144.0
582.267151 216.0
582.807739 144.0
585.985657 108.0
587.220459 104.0
589.186768 196.0
590.225891 184.0
593.232727 148.0
595.246948 1088.0
596.26239 236.0
596.489685 148.0
597.249329 128.0
601.206238 284.0
602.214539 364.0
609.185242 160.0
618.264648 488.0
619.268616 168.0
641.226807 140.0
651.310669 164.0
652.621826 184.0
664.671326 140.0
665.27179 164.0
670.770874 148.0
692.270752 184.0
696.251099 140.0
697.304321 144.0
716.206848 152.0
730.461365 156.0
734.140015 168.0
737.579163 208.0
752.287964 360.0
752.299133 132.0
752.780884 212.0
753.291443 276.0
755.283081 128.0
758.303101 128.0
769.809875 140.0
771.876587 152.0
774.26416 164.0
774.510925 176.0
787.487366 184.0
790.276855 172.0
792.292358 292.0
793.289856 148.0
794.736816 140.0
799.873413 144.0
802.047668 164.0
802.294189 508.0
802.304504 324.0
803.060669 104.0
803.313843 204.0
804.290283 116.0
804.34906 292.0
804.738586 144.0
805.252014 96.0
806.56897 168.0
810.598572 140.0
812.554688 156.0
812.968933 232.0
813.360535 144.0
819.872803 160.0
831.103699 164.0
840.701904 148.0
841.135071 152.0
851.142944 104.0
852.17865 140.0
852.259949 140.0
853.94281 108.0
854.478638 100.0
854.854553 116.0
855.433044 120.0
855.51709 128.0
855.856079 108.0
856.058777 116.0
856.440613 128.0
856.540039 216.0
856.618347 112.0
856.85376 104.0
857.044495 156.0
857.171387 116.0
857.221497 264.0
857.320251 156.0
857.526489 232.0
857.598633 96.0
857.671204 96.0
857.774963 96.0
857.873901 276.0
857.920105 324.0
858.048889 188.0
858.162537 232.0
858.259766 224.0
858.368164 83428.0
858.684631 204.0
858.877075 140.0
858.99353 148.0
859.064758 324.0
859.150024 240.0
859.212952 148.0
859.3703 35388.0
859.597656 152.0
859.669373 200.0
859.832581 164.0
859.927734 136.0
860.150513 120.0
860.20343 144.0
860.260498 152.0
860.369568 9576.0
860.552368 124.0
861.201843 112.0
861.272217 124.0
861.375732 2580.0
861.7677 128.0
861.89502 116.0
862.201233 124.0
862.379089 640.0
862.501404 148.0
862.86908 136.0
863.135437 120.0
863.296631 128.0
863.369324 256.0
863.516296 200.0
863.633362 232.0
863.80072 116.0
863.86145 192.0
863.904541 176.0
864.528564 208.0
864.709961 208.0
864.768799 148.0
864.82135 124.0
864.883057 100.0
865.033569 136.0
865.563843 124.0
865.920288 100.0
866.842651 100.0
869.463318 140.0
874.328857 660.0
875.33075 596.0
876.328247 404.0
876.422607 208.0
877.335144 176.0
878.346741 124.0
879.333069 160.0
887.318726 140.0
892.347412 152.0
921.86908 196.0
956.355652 104.0
1155.443237 108.0
1156.458618 96.0
1187.459351 164.0
1327.741943 224.0
1349.317383 188.0
1351.848145 164.0
1418.675903 148.0
1495.447388 156.0
1652.064453 148.0
1658.737183 172.0
1780.665649 208.0
1795.351562 144.0
1855.255249 152.0
1855.778198 160.0
1895.77478 140.0
1900.786865 164.0
1928.009033 168.0
1953.101929 228.0
1965.232666 152.0
2000.977783 180.0
