>compound Ethisterone
>formula C21H28O2
>ionization [M+H]+
>parentmass 313.216
#inchi InChI=1S/C21H28O2/c1-4-21(23)12-9-18-16-6-5-14-13-15(22)7-10-19(14,2)17(16)8-11-20(18,21)3/h1,13,16-18,23H,5-12H2,2-3H3/t16-,17-,18+,19+,20+,21-/m1/s1
#inchikey CHNXZKVNWQUJIB
#Ion_Source LC-ESI
#Instrument qTof
#Compound_Source Commercial
#PI Dorrestein
#Data_Collector Garg_Neha
#Scan -1
#Precursor_MZ 313.216
#ExactMass 312.209
#Charge 1
#CAS_Number 434-03-7
#Pubmed_ID N/A
#Smiles C1C(C=C2[C@](C1)([C@]3([C@@](CC2)([C@]4([C@](CC3)([C@@](CC4)(O)C#C)C)[H])[H])[H])C)=O
#INCHI_AUX N/A
#Library_Class 1
#SpectrumID CCMSLIB00000078531
#IonMode Positive
#UpdateWorkflowName UPDATE-SINGLE-ANNOTATED-GOLD
#LibraryQualityString Gold
#TaskID 77f51c88eb8b467eb4a01dd2d0cb90d2
##Scan# 1047
#SpectrumFile Plate8_61_80_GD1_01_15765.mzXML
#LibraryName FDALibrary_2_04302014.mgf
#MQScore -1
#Organism FDALibrary_2_04302014
#TIC_Query 0
#RT_Query -1
#MZErrorPPM -1
#SharedPeaks 0
#MassDiff 0
#LibMZ -1
#SpecMZ 313.216
#SpecCharge 0
#internalFilename spec-00000.mgf

>collision 10
45.041138 212.0
45.102051 152.0
45.183628 164.0
45.333595 148.0
45.357719 144.0
45.381851 196.0
45.659138 132.0
45.840878 216.0
45.906284 200.0
45.923817 224.0
46.043938 144.0
46.064201 168.0
46.26976 148.0
46.283302 160.0
46.355774 176.0
46.402538 156.0
46.46357 160.0
46.557938 144.0
46.705379 164.0
46.825157 180.0
46.904186 148.0
47.012638 192.0
47.074734 140.0
47.099316 168.0
47.167641 236.0
47.378387 144.0
47.547047 160.0
47.711884 180.0
47.736725 120.0
48.127983 156.0
48.191521 172.0
48.350548 188.0
48.693451 156.0
48.727726 176.0
48.780537 164.0
48.790268 164.0
48.816685 168.0
48.82642 224.0
48.83894 144.0
48.965599 216.0
49.213566 172.0
49.366879 204.0
49.444481 180.0
49.480877 316.0
49.650433 156.0
49.846973 264.0
50.135464 196.0
50.213005 140.0
50.528015 168.0
50.680931 204.0
50.936302 184.0
51.013039 188.0
51.219376 180.0
51.262119 172.0
51.500378 180.0
51.570393 140.0
51.590405 196.0
51.62043 196.0
51.772362 168.0
51.820827 216.0
52.054638 188.0
52.090546 232.0
52.142273 176.0
52.310562 152.0
52.3624 168.0
52.788139 188.0
52.84166 172.0
52.895206 160.0
52.969059 140.0
53.040707 192.0
53.102322 128.0
53.107292 120.0
53.292583 196.0
53.421978 252.0
53.558815 152.0
53.657417 188.0
53.676865 188.0
53.751259 172.0
53.927975 276.0
54.042042 172.0
54.137188 148.0
54.150372 180.0
54.274937 184.0
54.357082 144.0
54.37627 160.0
54.5686 184.0
54.640667 152.0
54.830624 148.0
54.849785 144.0
55.130219 140.0
55.198219 144.0
55.440998 168.0
55.492882 148.0
55.581879 144.0
55.761055 172.0
55.844833 160.0
55.889465 212.0
56.018993 240.0
56.072636 140.0
56.263573 172.0
56.323307 176.0
56.405491 204.0
56.934402 152.0
56.961437 220.0
57.339108 140.0
57.486904 144.0
57.541245 192.0
57.582016 188.0
57.658207 196.0
57.672672 204.0
57.7271 168.0
57.998108 140.0
58.049656 172.0
58.105778 172.0
58.183182 216.0
58.558781 176.0
58.785942 144.0
59.030994 132.0
59.367271 172.0
59.391811 168.0
59.487167 228.0
59.560658 160.0
59.677456 196.0
59.780518 220.0
59.794369 172.0
59.823616 148.0
59.86673 160.0
60.071724 168.0
60.095242 132.0
60.144253 144.0
60.513733 140.0
60.836208 200.0
60.851734 208.0
60.946251 296.0
61.125305 140.0
61.214287 124.0
61.288803 172.0
61.52737 180.0
61.707111 196.0
61.930161 172.0
62.178623 200.0
62.219437 180.0
62.288536 160.0
62.301102 148.0
62.514942 164.0
62.763836 164.0
62.913826 124.0
63.301102 196.0
63.384129 184.0
63.510307 148.0
63.642025 160.0
63.659492 168.0
63.777061 160.0
63.845432 188.0
63.864517 264.0
63.96954 172.0
64.50074 156.0
64.787193 188.0
64.870522 208.0
65.159401 196.0
65.31855 236.0
65.366821 148.0
65.39257 164.0
65.761665 176.0
65.801613 156.0
66.212761 164.0
66.421654 164.0
66.483505 148.0
66.561424 164.0
66.598137 252.0
66.717407 176.0
66.764557 188.0
66.835701 208.0
67.00547 168.0
67.137505 180.0
67.184807 144.0
67.277832 140.0
67.333344 164.0
67.401962 164.0
67.737358 172.0
67.913994 148.0
68.065956 364.0
68.198448 168.0
68.259277 184.0
68.275726 140.0
68.628128 140.0
69.206436 176.0
69.309135 144.0
69.426826 448.0
69.760574 140.0
70.071785 148.0
70.106781 164.0
70.248146 148.0
70.343437 176.0
70.550774 180.0
70.575851 144.0
70.768272 148.0
70.852013 192.0
71.048172 180.0
71.189163 140.0
71.263069 172.0
71.580986 180.0
71.597824 320.0
71.953621 156.0
72.168198 144.0
72.342461 156.0
72.485527 128.0
72.717758 108.0
72.886894 188.0
73.160728 160.0
73.317436 160.0
73.341301 152.0
73.511848 152.0
73.543335 132.0
73.664268 164.0
73.699684 172.0
73.8125 184.0
73.82618 176.0
74.591812 228.0
75.007454 180.0
75.093666 140.0
75.210999 156.0
75.274879 156.0
75.31633 164.0
75.482246 172.0
75.708946 160.0
75.922104 148.0
75.965469 140.0
76.028885 176.0
76.114731 144.0
76.194626 140.0
76.318031 200.0
76.415436 164.0
76.507675 180.0
76.558174 312.0
76.59446 120.0
76.908615 148.0
76.956436 156.0
77.037834 168.0
77.366615 140.0
77.482201 148.0
77.504982 176.0
77.554047 148.0
77.746979 156.0
77.955956 144.0
78.140587 184.0
78.195137 172.0
78.436447 164.0
78.464653 168.0
78.788948 192.0
78.996231 160.0
79.164383 196.0
79.190948 156.0
79.293709 172.0
79.483459 228.0
79.668114 148.0
80.014915 180.0
80.173447 172.0
80.392799 168.0
80.605309 148.0
80.683952 164.0
80.728653 140.0
80.972046 172.0
81.034744 168.0
81.114609 140.0
81.215805 252.0
81.484848 216.0
81.877228 192.0
81.921799 156.0
81.999504 152.0
82.141441 164.0
82.477577 180.0
82.743988 152.0
83.015785 140.0
83.062943 196.0
83.131882 140.0
83.387962 148.0
83.517052 192.0
83.711792 152.0
83.804695 188.0
83.866653 160.0
84.072746 156.0
84.087349 144.0
84.352203 216.0
84.461197 240.0
84.802773 156.0
85.004227 164.0
85.121712 192.0
85.178894 176.0
85.333023 176.0
85.62561 224.0
85.691925 176.0
85.846764 176.0
86.280678 292.0
86.552666 152.0
86.587845 140.0
86.645271 160.0
86.707298 148.0
86.821365 148.0
86.927109 152.0
87.139557 196.0
87.797745 140.0
87.814529 152.0
87.87236 180.0
88.305748 156.0
88.333801 192.0
88.462929 168.0
88.708328 144.0
88.850861 204.0
88.963913 200.0
89.130615 160.0
89.318626 144.0
90.144424 204.0
90.187889 160.0
90.532234 156.0
90.731186 164.0
90.869637 252.0
91.070869 180.0
91.329369 196.0
91.494926 140.0
91.529198 140.0
91.826492 144.0
92.047493 2020.0
92.12236 220.0
92.609413 200.0
92.861229 212.0
93.033157 1376.0
93.056366 2056.0
93.204865 204.0
93.243294 160.0
93.316345 156.0
93.676231 212.0
93.787994 244.0
93.91333 168.0
94.036812 176.0
94.064758 10468.0
94.164246 180.0
94.525757 168.0
94.719368 156.0
94.979118 152.0
95.049858 380.0
95.06678 1328.0
95.186783 160.0
95.244011 188.0
95.637825 176.0
95.657288 152.0
95.933914 140.0
96.059624 216.0
96.084801 196.0
96.191414 172.0
96.205078 188.0
96.253891 160.0
96.408218 200.0
96.584183 184.0
96.672226 140.0
96.732903 188.0
96.762268 140.0
96.899368 152.0
97.084839 184.0
97.139786 164.0
97.275902 176.0
97.30928 200.0
97.324219 184.0
97.781059 184.0
97.841019 148.0
98.009499 224.0
98.156853 196.0
98.36647 168.0
98.484947 376.0
98.598091 212.0
98.726074 180.0
98.751785 156.0
98.795158 164.0
98.953629 172.0
99.05661 196.0
99.098221 140.0
99.375801 156.0
99.570343 168.0
99.62397 184.0
99.872803 160.0
99.979889 144.0
100.455879 144.0
101.269653 164.0
101.458023 212.0
101.628502 152.0
101.829247 120.0
101.937737 156.0
102.116661 160.0
102.191093 152.0
102.575752 328.0
102.609863 196.0
102.902573 152.0
103.058372 148.0
103.112663 140.0
103.329025 148.0
103.492432 196.0
103.640839 160.0
103.792053 192.0
104.25367 156.0
104.414276 156.0
104.583153 220.0
104.743492 128.0
104.780685 176.0
104.998795 148.0
105.069862 304.0
105.358047 180.0
105.573174 196.0
106.002274 168.0
106.039055 164.0
106.06926 332.0
106.16391 188.0
106.326591 240.0
106.379707 164.0
106.402542 156.0
106.519661 124.0
106.55452 156.0
106.638771 156.0
106.749794 168.0
106.947296 200.0
107.072655 304.0
107.12645 200.0
107.149109 200.0
107.417114 180.0
107.590462 156.0
108.042374 608.0
108.065742 112.0
108.098061 168.0
108.132042 160.0
108.187927 164.0
108.409554 164.0
108.515274 196.0
108.59407 148.0
108.818192 184.0
109.075439 5612.0
109.273361 148.0
109.304314 160.0
109.548172 208.0
109.608597 144.0
109.698616 212.0
109.750885 168.0
109.956863 196.0
110.023659 144.0
110.05899 2484.0
110.077675 488.0
110.315201 180.0
110.49543 164.0
110.521095 196.0
110.967232 168.0
111.000778 152.0
111.043007 1256.0
111.078903 112.0
111.145515 180.0
111.30925 140.0
111.557175 172.0
111.592911 160.0
112.038544 660.0
112.114952 260.0
112.315254 220.0
112.383629 136.0
113.169044 140.0
113.188103 164.0
113.21563 168.0
113.40419 164.0
113.452942 148.0
113.495346 144.0
113.571693 144.0
113.635338 176.0
113.813629 256.0
114.002693 140.0
114.043068 164.0
114.477089 180.0
114.762627 204.0
114.965271 148.0
115.077721 124.0
115.225777 160.0
115.251419 224.0
115.428833 164.0
115.469467 148.0
115.934044 208.0
116.15274 176.0
116.567108 148.0
116.76059 148.0
116.844482 220.0
117.005898 168.0
118.024284 180.0
118.065491 324.0
118.23629 184.0
118.36834 144.0
118.407326 152.0
118.449211 140.0
118.539474 148.0
118.827858 156.0
119.001495 164.0
119.059357 3164.0
119.097046 140.0
119.716957 288.0
119.930412 172.0
120.009796 136.0
120.043991 66820.0
120.259766 188.0
120.382629 180.0
120.566658 140.0
120.617371 140.0
120.78418 156.0
120.900284 120.0
121.027802 1080.0
121.047218 4644.0
121.105942 164.0
121.252739 148.0
121.274658 252.0
121.656342 156.0
121.698059 156.0
121.816101 96.0
121.885414 148.0
121.932587 176.0
121.990257 184.0
122.054672 492.0
122.095764 2156.0
122.271805 148.0
122.765923 112.0
122.864548 184.0
122.983711 208.0
123.057312 236.0
123.079857 756.0
123.097107 320.0
123.132095 172.0
123.472 180.0
123.522873 148.0
123.564903 172.0
123.587029 180.0
124.038826 248.0
124.076904 136.0
124.233971 248.0
124.413727 144.0
124.469238 164.0
124.520317 148.0
124.849243 144.0
125.073074 204.0
125.191956 160.0
125.477173 156.0
125.666756 172.0
125.735931 168.0
125.886993 216.0
125.957542 284.0
126.0522 300.0
126.135742 164.0
126.330948 164.0
126.354904 144.0
126.39518 160.0
126.563057 160.0
127.052811 152.0
127.126541 148.0
127.170593 184.0
127.325508 164.0
127.386154 196.0
127.403534 188.0
127.748085 140.0
127.892395 152.0
128.067734 148.0
128.110519 276.0
128.399048 172.0
128.71492 156.0
128.864685 144.0
128.931854 220.0
129.042618 172.0
129.409149 100.0
129.431793 156.0
129.704391 148.0
130.064331 140.0
130.207367 140.0
130.24144 176.0
130.507339 220.0
130.652893 144.0
130.919205 160.0
131.11969 164.0
131.276993 164.0
131.368225 140.0
131.452652 140.0
131.623856 172.0
131.644409 148.0
131.690079 160.0
131.781464 148.0
131.847733 244.0
132.062653 156.0
132.243408 196.0
132.362442 212.0
132.550278 160.0
132.836945 144.0
132.903412 168.0
133.07605 1600.0
133.219559 120.0
133.928741 156.0
134.060104 1744.0
134.181168 116.0
134.754623 180.0
135.061996 296.0
135.086288 172.0
135.106033 216.0
135.42572 156.0
135.753372 196.0
135.963379 148.0
136.038025 168.0
136.074661 13444.0
136.478439 124.0
136.627197 112.0
136.696014 220.0
136.753601 168.0
136.781128 160.0
136.8181 272.0
136.853622 116.0
136.918228 220.0
136.971497 172.0
137.018478 284.0
137.045746 1788.0
137.070618 38132.0
137.220322 276.0
137.28627 196.0
137.309204 156.0
137.462082 208.0
137.971268 152.0
138.025284 160.0
138.054779 22120.0
138.090652 1560.0
138.206085 152.0
138.301804 108.0
138.37294 176.0
138.429291 160.0
138.907639 180.0
139.009857 136.0
139.04007 2388.0
139.055008 2200.0
139.073395 3460.0
139.111984 156.0
139.286255 208.0
139.323425 180.0
139.553848 156.0
139.590363 212.0
139.61499 208.0
139.631454 144.0
139.87851 140.0
139.937485 180.0
140.047318 364.0
140.070374 3652.0
140.103134 212.0
140.121384 188.0
140.187103 112.0
140.72113 124.0
140.749466 152.0
140.911453 156.0
141.071854 596.0
141.100922 172.0
141.339951 124.0
141.625885 144.0
141.855728 168.0
142.062042 160.0
142.408615 168.0
142.681229 156.0
142.741333 168.0
142.917358 148.0
143.405304 176.0
143.424622 188.0
144.0737 168.0
144.243362 152.0
144.516006 176.0
144.628479 160.0
144.853561 156.0
145.150757 168.0
146.095306 596.0
146.836578 152.0
147.094757 144.0
147.111649 176.0
147.133377 140.0
147.679428 124.0
147.906952 140.0
148.075729 444.0
148.138 260.0
148.330856 200.0
148.357529 152.0
148.410873 160.0
148.675278 140.0
148.692261 224.0
149.060394 432.0
149.158615 152.0
149.221832 184.0
149.684143 156.0
150.037262 120.0
150.205704 156.0
150.90416 176.0
151.084656 2280.0
151.364166 148.0
151.381302 172.0
151.805252 140.0
152.070831 660.0
152.153061 192.0
152.453354 204.0
152.620499 184.0
152.85173 220.0
152.94278 148.0
153.014175 148.0
153.139771 196.0
153.366455 140.0
153.494644 140.0
153.568634 144.0
153.664841 212.0
153.736404 164.0
153.778351 184.0
153.89566 116.0
153.981812 160.0
154.052917 140.0
154.085953 1204.0
154.252609 204.0
154.388596 196.0
154.546921 148.0
155.057053 144.0
155.081314 744.0
155.101654 320.0
155.510925 152.0
155.591568 172.0
155.749298 200.0
156.065948 740.0
156.091339 136.0
156.334106 164.0
156.717407 136.0
157.018677 144.0
157.043625 192.0
158.30072 196.0
158.413437 156.0
158.72673 144.0
158.766846 204.0
158.982605 144.0
159.743912 156.0
160.118958 144.0
160.232391 128.0
160.497269 132.0
161.069977 3328.0
161.170898 180.0
161.34079 204.0
161.378174 156.0
161.398392 164.0
161.73613 172.0
161.889313 268.0
162.054504 14308.0
162.193344 148.0
162.256729 140.0
162.289124 128.0
162.346909 160.0
162.563644 232.0
162.622009 176.0
163.05806 1428.0
163.257172 292.0
163.649033 148.0
163.949234 208.0
164.057449 348.0
164.105743 1632.0
164.133163 156.0
164.202026 176.0
164.352524 136.0
164.383148 148.0
164.58226 144.0
165.072876 164.0
165.105927 332.0
165.239136 164.0
165.303101 140.0
165.359406 220.0
165.376114 144.0
165.405472 140.0
165.562073 100.0
165.582962 200.0
165.697418 196.0
165.73967 124.0
165.813507 160.0
165.854706 224.0
165.940079 176.0
166.015198 152.0
166.059952 616.0
166.086426 235092.0
166.1716 256.0
166.231247 176.0
166.268219 100.0
166.352158 104.0
166.396255 112.0
166.439651 136.0
166.508057 940.0
166.626602 220.0
166.658066 184.0
166.708084 152.0
166.748184 108.0
166.797043 220.0
166.851898 96.0
166.885147 144.0
166.926956 180.0
167.088699 19656.0
167.191116 128.0
167.27359 136.0
167.341187 248.0
167.370834 116.0
167.390106 152.0
167.424576 124.0
167.50589 196.0
167.654556 116.0
167.924515 152.0
168.025375 164.0
168.090759 1432.0
168.139893 204.0
168.203506 188.0
168.258118 124.0
168.39003 236.0
168.439453 128.0
168.462006 220.0
168.503723 140.0
168.564514 148.0
168.706528 132.0
168.780945 152.0
169.090576 116.0
169.158676 152.0
169.29776 140.0
169.389023 112.0
169.879089 164.0
170.481476 196.0
170.777863 268.0
171.783325 160.0
171.865158 196.0
172.08345 164.0
172.349869 144.0
172.61911 224.0
172.745392 128.0
173.349472 196.0
173.544205 96.0
173.752213 160.0
174.988525 148.0
175.035919 160.0
175.832062 172.0
176.275742 180.0
176.30217 188.0
177.065704 172.0
177.286636 172.0
177.538483 168.0
178.0746 140.0
178.606186 156.0
178.729263 124.0
179.081009 19680.0
179.968018 140.0
180.03508 176.0
180.065353 7952.0
180.128357 208.0
180.157639 144.0
180.782028 184.0
180.898407 180.0
181.070663 564.0
181.310898 176.0
181.444916 200.0
181.664825 224.0
182.075912 376.0
182.290421 176.0
183.049011 180.0
183.111404 2516.0
183.763306 164.0
184.09668 1928.0
184.187149 192.0
185.09816 220.0
186.332718 156.0
187.892746 192.0
189.502823 188.0
189.604507 212.0
190.087769 260.0
190.617142 160.0
191.085159 132.0
192.308121 176.0
194.206207 184.0
195.076599 184.0
195.592743 140.0
196.096848 308.0
196.380798 112.0
196.892044 196.0
197.064713 280.0
197.272049 144.0
197.518127 148.0
198.072647 120.0
198.111588 176.0
198.290924 188.0
198.593735 140.0
199.127014 140.0
200.159103 168.0
200.27739 144.0
202.399918 164.0
202.973251 196.0
203.104004 144.0
204.513351 196.0
204.876816 216.0
205.362442 176.0
205.553589 164.0
205.92186 164.0
206.167572 164.0
206.833984 164.0
207.078613 192.0
207.110779 1680.0
207.154694 160.0
207.520142 148.0
207.543686 176.0
207.562057 168.0
207.64415 200.0
207.731186 168.0
207.754959 144.0
207.787582 144.0
207.850662 268.0
208.003525 348.0
208.046661 184.0
208.097183 154576.0
208.157227 256.0
208.247803 128.0
208.35022 180.0
208.371323 176.0
208.405487 132.0
208.453796 276.0
208.480286 212.0
208.567871 1096.0
208.614151 132.0
208.663055 96.0
208.727737 372.0
208.778671 192.0
208.846832 236.0
208.909485 112.0
208.949905 136.0
209.099167 16692.0
209.467575 168.0
209.596436 128.0
209.627441 128.0
209.730591 96.0
209.82605 100.0
210.043686 148.0
210.100555 2060.0
210.276474 108.0
210.367126 148.0
210.387466 184.0
210.437317 132.0
210.643784 268.0
210.689865 272.0
210.727631 136.0
210.900406 128.0
210.940674 140.0
211.102173 140.0
211.282944 204.0
211.362411 188.0
211.820038 124.0
211.969208 160.0
212.961395 144.0
214.98259 140.0
218.154037 164.0
218.252197 104.0
218.99855 232.0
219.405212 160.0
220.352234 100.0
222.452316 164.0
222.648285 148.0
222.739731 168.0
223.382446 148.0
223.9897 152.0
224.047272 112.0
224.284698 168.0
224.341034 156.0
224.662033 164.0
224.726074 208.0
224.875885 396.0
224.908112 200.0
224.939896 236.0
225.013306 284.0
225.027451 208.0
225.066208 188.0
225.089966 280.0
225.123688 147288.0
225.189423 128.0
225.212418 104.0
225.234863 160.0
225.312439 168.0
225.350555 184.0
225.417969 168.0
225.441528 352.0
225.492279 296.0
225.580032 108.0
225.614685 608.0
225.692444 104.0
225.830246 176.0
225.922318 180.0
226.050125 292.0
226.109268 16572.0
226.178101 208.0
226.273636 160.0
226.957809 124.0
227.109802 1832.0
227.469147 148.0
227.586334 120.0
227.683044 124.0
227.721222 192.0
227.746536 148.0
227.900909 136.0
228.018463 124.0
228.114548 552.0
229.932587 140.0
235.439911 168.0
236.923431 144.0
237.746155 152.0
238.115891 112.0
239.056351 116.0
239.119644 180.0
240.115952 160.0
242.773804 156.0
243.133789 28144.0
244.012741 228.0
244.136047 2768.0
244.214874 176.0
245.138443 460.0
245.878647 144.0
246.138809 308.0
249.120789 168.0
253.853897 140.0
270.097931 172.0
273.586243 140.0
279.56076 224.0
294.965637 152.0
295.910828 248.0
296.03653 160.0
296.18512 13352.0
296.319336 164.0
296.613129 144.0
296.743927 136.0
297.187378 2256.0
298.190216 544.0
299.428619 152.0
303.542114 140.0
305.904694 252.0
306.031891 112.0
311.190521 384.0
313.142487 292.0
313.21225 24620.0
313.718811 164.0
314.21814 4256.0
315.153259 156.0
315.214935 348.0
316.145538 104.0
316.281433 188.0
1118.665161 220.0
1119.923706 276.0
1135.402954 204.0
1169.489746 156.0
1187.041138 156.0
1191.859863 164.0
1192.265381 140.0
1204.350098 184.0
1228.451294 224.0
1235.252441 136.0
1237.207764 160.0
1244.745117 180.0
1254.27124 156.0
1259.45752 184.0
1261.959229 192.0
1268.919067 140.0
1272.480713 152.0
1282.58252 232.0
1287.891357 192.0
1296.297729 164.0
1310.727051 220.0
1323.179321 164.0
1332.143066 148.0
1336.345215 188.0
1337.007446 228.0
1350.088135 144.0
1350.295654 180.0
1350.446533 244.0
1365.68811 164.0
1369.24353 144.0
1371.446045 240.0
1388.673828 164.0
1392.800781 172.0
1393.045898 140.0
1396.814819 172.0
1417.915527 148.0
1427.464844 148.0
1430.278687 160.0
1432.590454 152.0
1435.002075 216.0
1437.098877 192.0
1456.130127 172.0
1459.489014 204.0
1461.071045 156.0
1467.034058 196.0
1471.878906 144.0
1472.528076 160.0
1477.359741 212.0
1485.103394 156.0
1487.796875 144.0
1489.639893 156.0
1494.721924 208.0
1507.986694 220.0
1508.574097 172.0
1509.061157 188.0
1511.536377 172.0
1513.897461 144.0
1514.01355 192.0
1521.527222 224.0
1529.487671 168.0
1529.884644 168.0
1533.374268 140.0
1534.629395 152.0
1538.374268 156.0
1539.069092 176.0
1548.907593 148.0
1552.763916 212.0
1554.380005 168.0
1554.513428 160.0
1560.59314 208.0
1560.78186 140.0
1560.844849 172.0
1564.519165 216.0
1566.291016 164.0
1568.702271 160.0
1570.247803 152.0
1573.104126 172.0
1582.148071 148.0
1586.180298 144.0
1591.567139 152.0
1592.996704 152.0
1594.689209 148.0
1603.181152 144.0
1603.885498 192.0
1604.209351 152.0
1609.21167 152.0
1625.011108 192.0
1626.054321 152.0
1627.643799 148.0
1632.593994 160.0
1635.611084 172.0
1637.430786 176.0
1639.855957 192.0
1642.936279 240.0
1646.907837 164.0
1648.976318 160.0
1655.351318 208.0
1655.488892 232.0
1656.225952 156.0
1656.590454 140.0
1657.319702 160.0
1666.1073 196.0
1666.39624 188.0
1666.71582 140.0
1668.317017 164.0
1672.221436 140.0
1673.646118 164.0
1674.696655 180.0
1674.778076 152.0
1675.820923 140.0
1678.543335 140.0
1680.908936 224.0
1688.293823 140.0
1693.048706 140.0
1694.514893 172.0
1694.891846 204.0
1698.490845 184.0
1699.11438 148.0
1705.840332 176.0
1708.875 144.0
1709.023071 144.0
1709.903564 152.0
1712.49707 160.0
1712.851318 148.0
1719.389771 148.0
1721.238892 196.0
1722.147339 164.0
1722.510864 180.0
1725.568604 184.0
1726.734497 172.0
1727.636108 172.0
1731.137329 176.0
1731.253296 224.0
1732.951416 192.0
1733.04248 140.0
1734.186157 164.0
1735.578857 180.0
1737.146362 144.0
1738.092163 176.0
1739.370361 156.0
1745.368652 180.0
1746.570801 144.0
1747.306641 192.0
1748.91272 196.0
1749.770142 152.0
1751.602295 192.0
1759.958862 176.0
1760.067505 200.0
1763.797241 200.0
1764.989136 176.0
1765.449097 172.0
1766.143188 200.0
1768.075928 164.0
1770.579224 140.0
1776.043945 188.0
1777.000244 256.0
1777.570801 144.0
1780.937378 152.0
1781.374268 140.0
1783.046265 144.0
1783.559082 156.0
1785.265747 176.0
1786.821899 188.0
1787.217407 188.0
1790.29834 172.0
1791.536499 196.0
1793.086914 180.0
1793.462036 120.0
1794.056274 152.0
1795.067993 140.0
1800.621094 208.0
1801.44043 164.0
1802.47583 152.0
1806.86792 164.0
1810.981934 180.0
1812.752686 172.0
1812.85437 156.0
1813.48999 208.0
1815.711304 160.0
1816.067505 192.0
1816.652832 152.0
1817.390991 184.0
1818.994995 196.0
1821.185791 164.0
1821.491577 144.0
1824.975952 144.0
1827.246948 148.0
1829.672485 160.0
1836.054688 148.0
1844.011841 152.0
1845.011963 144.0
1845.875488 148.0
1850.299194 148.0
1853.408325 140.0
1855.045288 196.0
1856.305664 156.0
1856.571411 160.0
1859.025024 180.0
1861.299805 140.0
1862.67395 164.0
1864.358032 192.0
1864.658813 156.0
1865.406616 168.0
1869.036011 160.0
1869.896606 184.0
1870.094604 168.0
1871.015625 156.0
1872.737915 228.0
1875.702026 140.0
1876.318848 160.0
1877.504028 184.0
1879.6521 172.0
1880.092163 196.0
1880.489258 164.0
1882.613037 140.0
1882.699341 192.0
1884.072754 208.0
1884.617065 188.0
1885.507202 164.0
1886.043091 160.0
1887.806763 164.0
1894.393555 176.0
1894.947998 144.0
1896.074463 192.0
1897.548096 160.0
1898.493286 160.0
1899.920776 196.0
1900.271484 180.0
1901.651245 148.0
1903.552612 184.0
1905.689331 144.0
1908.61853 180.0
1911.175903 164.0
1911.271606 168.0
1911.454346 184.0
1911.785034 148.0
1912.385498 188.0
1912.568359 272.0
1915.955811 144.0
1917.402222 144.0
1918.195435 160.0
1919.189331 196.0
1919.511963 188.0
1919.965454 184.0
1920.741699 188.0
1921.029541 164.0
1922.765991 220.0
1925.970215 148.0
1926.616699 208.0
1932.491943 140.0
1933.043213 176.0
1934.69751 164.0
1935.15271 200.0
1936.21228 208.0
1938.893188 172.0
1939.918701 144.0
1941.900391 196.0
1942.347778 200.0
1948.888184 216.0
1952.228638 180.0
1952.527588 180.0
1956.936279 156.0
1957.429321 188.0
1957.852051 144.0
1959.983887 172.0
1962.522461 140.0
1962.760498 152.0
1964.392212 164.0
1966.553955 152.0
1967.304321 200.0
1968.469849 156.0
1968.951172 104.0
1969.220459 168.0
1969.282349 264.0
1970.18335 160.0
1971.181763 148.0
1972.887573 140.0
1975.735229 264.0
1976.328003 140.0
1977.354614 176.0
1977.602417 188.0
1977.726318 224.0
1978.124634 152.0
1978.629272 140.0
1978.821655 248.0
1980.001831 208.0
1980.595215 140.0
1984.024658 220.0
1984.113281 224.0
1986.028809 188.0
1986.862671 156.0
1989.800293 152.0
1991.53186 188.0
1991.762817 152.0
1994.064209 200.0
1997.487427 232.0
1998.305908 208.0
1999.498291 176.0
1999.658569 160.0
2003.148926 140.0
