>compound NCGC00160303-01!17-Methylmorphinan-3-ol
>formula C17H23NO
>ionization [M+H]+
>parentmass 258.186035
#inchi InChI=1S/C17H23NO/c1-18-9-8-17-7-3-2-4-14(17)16(18)10-12-5-6-13(19)11-15(12)17/h5-6,11,14,16,19H,2-4,7-10H2,1H3/t14-,16?,17-/m0/s1
#inchikey JAQUASYNZVUNQP
#Ion_Source LC-ESI
#Instrument qTOF
#Compound_Source Prestwick Phytochem Lib
#PI Dorrestein
#Data_Collector VVP/LMS
#Scan -1
#Precursor_MZ 258.186
#ExactMass 257.178
#Charge 1
#CAS_Number N/A
#Pubmed_ID N/A
#Smiles CN1CC[C@@]23CCCC[C@H]2C1CC4=C3C=C(O)C=C4
#INCHI_AUX N/A
#Library_Class 1
#SpectrumID CCMSLIB00000078795
#IonMode Positive
#UpdateWorkflowName UPDATE-SINGLE-ANNOTATED-GOLD
#LibraryQualityString Gold
#TaskID 67c915c6594c435cadc1fe2b5358144d
##Scan# 1466
#SpectrumFile p1-C04_GC4_01_17900.mzXML
#LibraryName phytochem_lib.mgf
#MQScore -1
#Organism phytochem_lib
#TIC_Query 0
#RT_Query -1
#MZErrorPPM -1
#SharedPeaks 0
#MassDiff 0
#LibMZ -1
#SpecMZ 258.186
#SpecCharge 0
#internalFilename spec-00000.mgf

>collision 10
94.958252 212.0
94.998291 56.0
95.028755 132.0
95.042915 152.0
95.083885 172.0
95.112778 180.0
95.149658 112.0
95.203262 204.0
95.250641 232.0
95.275894 116.0
95.35965 152.0
95.450813 128.0
95.47506 264.0
95.522774 120.0
95.56752 152.0
95.592812 140.0
95.638504 104.0
95.66288 364.0
95.704376 216.0
95.721283 88.0
95.773865 72.0
95.795296 36.0
95.859589 208.0
95.877129 184.0
95.894669 128.0
95.951057 112.0
96.013588 132.0
96.027245 164.0
96.074982 176.0
96.08976 164.0
96.156006 136.0
96.212608 132.0
96.2285 204.0
96.275047 168.0
96.300484 128.0
96.323921 144.0
96.476341 76.0
96.501755 248.0
96.521309 176.0
96.560417 172.0
96.576065 180.0
96.607941 216.0
96.623009 52.0
96.643356 40.0
96.667625 172.0
96.762329 216.0
96.788795 316.0
96.808128 176.0
96.865974 144.0
96.899055 200.0
96.946083 152.0
96.987236 140.0
97.01664 144.0
97.036247 180.0
97.061737 164.0
97.100845 140.0
97.106842 132.0
97.138222 200.0
97.176208 220.0
97.276817 192.0
97.293251 144.0
97.34758 184.0
97.389038 212.0
97.42482 156.0
97.485733 156.0
97.550591 112.0
97.57811 124.0
97.634773 152.0
97.656769 184.0
97.684303 220.0
97.735458 244.0
97.755493 196.0
97.785797 228.0
97.806305 160.0
97.857483 144.0
97.871269 232.0
97.902283 160.0
97.944069 120.0
98.036728 208.0
98.0998 164.0
98.115379 124.0
98.129562 124.0
98.158943 132.0
98.218109 204.0
98.273636 192.0
98.413483 176.0
98.431252 264.0
98.445076 336.0
98.478645 76.0
98.520126 160.0
98.542969 236.0
98.726608 168.0
98.747437 48.0
98.802826 100.0
98.832504 196.0
98.86602 136.0
98.925514 120.0
98.944664 212.0
99.132317 176.0
99.14537 180.0
99.179062 148.0
99.202805 196.0
99.232582 232.0
99.298019 188.0
99.345627 96.0
99.399193 136.0
99.50042 156.0
99.52623 228.0
99.591759 176.0
99.623543 228.0
99.678291 172.0
99.695068 176.0
99.722893 180.0
99.758667 148.0
99.778854 156.0
99.832237 64.0
99.868195 192.0
99.905823 204.0
99.973473 136.0
100.053093 188.0
100.101913 156.0
100.154648 44.0
100.186516 120.0
100.210426 176.0
100.268211 212.0
100.300102 176.0
100.328766 368.0
100.411751 112.0
100.445663 116.0
100.459625 180.0
100.561386 148.0
100.599312 136.0
100.693153 132.0
100.755074 160.0
100.773056 128.0
100.831001 60.0
100.925812 272.0
100.937569 168.0
100.958572 120.0
100.996948 28.0
101.014954 156.0
101.030838 204.0
101.044083 156.0
101.082008 224.0
101.108398 176.0
101.13501 132.0
101.157028 212.0
101.179047 200.0
101.221092 152.0
101.261139 128.0
101.283173 80.0
101.301201 104.0
101.321236 164.0
101.359299 168.0
101.375336 176.0
101.437462 216.0
101.475914 156.0
101.548561 184.0
101.585854 132.0
101.605194 212.0
101.650055 152.0
101.688179 168.0
101.719078 152.0
101.746391 104.0
101.766472 124.0
101.798599 216.0
101.829597 128.0
101.929161 196.0
101.966339 188.0
102.046928 224.0
102.065849 152.0
102.140106 160.0
102.169785 188.0
102.232803 116.0
102.267014 148.0
102.291901 144.0
102.305862 148.0
102.375732 172.0
102.462379 200.0
102.498604 168.0
102.549873 148.0
102.636177 120.0
102.651802 124.0
102.693161 212.0
102.716339 80.0
102.742561 200.0
102.950455 172.0
102.978821 184.0
103.009026 152.0
103.032021 208.0
103.056282 1832.0
103.105171 144.0
103.143913 212.0
103.181229 208.0
103.243477 168.0
103.304153 60.0
103.320343 236.0
103.334503 128.0
103.391518 204.0
103.587555 148.0
103.628067 148.0
103.654411 212.0
103.668594 176.0
103.764977 200.0
103.790215 176.0
103.873604 172.0
103.936256 232.0
103.972786 184.0
103.997139 140.0
104.060112 360.0
104.102707 132.0
104.120987 76.0
104.256699 184.0
104.264671 148.0
104.26963 144.0
104.294624 180.0
104.374748 196.0
104.407532 184.0
104.53569 120.0
104.559258 204.0
104.609024 128.0
104.633385 144.0
104.647636 52.0
104.672073 260.0
104.735207 140.0
104.767799 92.0
104.827087 196.0
104.857452 100.0
104.877831 180.0
104.941025 132.0
105.070663 5692.0
105.09877 192.0
105.163376 188.0
105.181747 172.0
105.198074 80.0
105.214409 156.0
105.28109 252.0
105.326721 136.0
105.451675 128.0
105.477928 140.0
105.490768 128.0
105.510193 168.0
105.555611 136.0
105.582199 176.0
105.616966 84.0
105.643562 252.0
105.753883 48.0
105.776566 112.0
105.860512 112.0
105.917854 152.0
105.971115 120.0
106.026985 120.0
106.038803 132.0
106.07225 564.0
106.108566 184.0
106.155594 188.0
106.204811 184.0
106.21917 112.0
106.254044 204.0
106.274559 140.0
106.311493 204.0
106.397697 160.0
106.498009 212.0
106.533234 56.0
106.557892 172.0
106.617477 172.0
106.659401 252.0
106.741226 200.0
106.828041 204.0
106.954712 132.0
106.961075 128.0
107.028259 216.0
107.049911 8788.0
107.082016 40.0
107.10302 188.0
107.129646 216.0
107.185425 80.0
107.216339 172.0
107.283142 68.0
107.327652 172.0
107.385391 144.0
107.401894 184.0
107.441086 148.0
107.484413 40.0
107.500923 168.0
107.544258 136.0
107.583481 72.0
107.604118 212.0
107.624771 164.0
107.657806 116.0
107.752823 60.0
107.774605 204.0
107.825142 120.0
107.887154 36.0
107.918159 200.0
107.978127 144.0
108.002441 148.0
108.053024 600.0
108.071213 88.0
108.100182 144.0
108.135361 236.0
108.155258 144.0
108.171669 192.0
108.207817 32.0
108.367287 92.0
108.414948 188.0
108.522736 176.0
108.54554 160.0
108.703186 128.0
108.74054 84.0
108.761299 244.0
108.857948 144.0
108.901283 208.0
108.964806 104.0
109.061623 240.0
109.091156 140.0
109.114342 172.0
109.118797 164.0
109.180977 256.0
109.249611 168.0
109.282898 176.0
109.297462 144.0
109.330757 172.0
109.370216 200.0
109.426506 164.0
109.457008 240.0
109.511887 184.0
109.549377 212.0
109.563957 96.0
109.586876 100.0
109.666061 196.0
109.691078 200.0
109.722343 128.0
109.743195 108.0
109.809921 160.0
109.877884 128.0
109.99353 176.0
110.054077 68.0
110.068687 228.0
110.095833 132.0
110.145195 124.0
110.194008 168.0
110.217407 200.0
110.354942 204.0
110.490883 176.0
110.524353 164.0
110.547371 140.0
110.683434 104.0
110.69809 188.0
110.75045 156.0
110.830055 164.0
110.8666 172.0
110.941132 184.0
110.955803 160.0
110.970779 168.0
110.991447 124.0
111.050659 204.0
111.079529 164.0
111.094215 108.0
111.169746 208.0
111.209618 128.0
111.247406 148.0
111.2621 136.0
111.287292 120.0
111.33139 120.0
111.362892 168.0
111.406998 176.0
111.436409 260.0
111.451118 72.0
111.471359 164.0
111.549896 92.0
111.634445 148.0
111.67395 112.0
111.74337 156.0
111.764404 228.0
111.794037 200.0
111.848587 196.0
111.880165 164.0
111.901215 160.0
112.008713 168.0
112.092888 220.0
112.139244 168.0
112.227783 224.0
112.255196 188.0
112.32901 172.0
112.383865 40.0
112.48938 144.0
112.510338 224.0
112.582283 172.0
112.656204 92.0
112.68367 216.0
112.706497 144.0
112.768188 104.0
112.78299 120.0
112.829491 168.0
112.924644 128.0
112.979645 220.0
112.99868 128.0
113.028305 224.0
113.057686 104.0
113.182816 124.0
113.206108 72.0
113.243988 184.0
113.278244 212.0
113.348038 108.0
113.473083 48.0
113.526093 196.0
113.555786 124.0
113.58548 200.0
113.619423 176.0
113.683075 128.0
113.702171 128.0
113.740379 96.0
113.799706 156.0
113.831665 72.0
113.970177 172.0
114.022858 136.0
114.101501 108.0
114.152534 116.0
114.169548 132.0
114.288666 104.0
114.305687 172.0
114.347694 200.0
114.395309 184.0
114.422752 148.0
114.469589 180.0
114.484497 152.0
114.507927 196.0
114.540703 92.0
114.586739 92.0
114.650665 72.0
114.693291 188.0
114.770729 288.0
114.795624 100.0
114.861732 44.0
114.895866 208.0
114.917198 208.0
114.964142 212.0
114.988754 180.0
115.054001 2244.0
115.096832 124.0
115.126381 188.0
115.146698 156.0
115.245735 256.0
115.273521 164.0
115.288734 128.0
115.322929 56.0
115.438377 156.0
115.522186 216.0
115.594528 96.0
115.615929 224.0
115.648033 120.0
115.725098 80.0
115.817177 320.0
115.845024 180.0
115.911575 128.0
115.941444 176.0
115.985023 364.0
116.010033 208.0
116.061905 888.0
116.10437 156.0
116.130951 160.0
116.235222 168.0
116.293167 96.0
116.329659 144.0
116.383331 220.0
116.484261 40.0
116.535667 168.0
116.813148 184.0
116.830353 120.0
116.877686 268.0
116.965919 156.0
116.989601 68.0
117.013283 144.0
117.04023 200.0
117.06974 2412.0
117.109207 192.0
117.129639 248.0
117.146805 216.0
117.183067 160.0
117.2416 32.0
117.398972 88.0
117.41407 168.0
117.439949 160.0
117.472305 72.0
117.493874 192.0
117.50898 132.0
117.60508 180.0
117.675629 316.0
117.716187 132.0
117.761536 204.0
117.793938 152.0
117.921417 240.0
117.990585 188.0
118.014366 176.0
118.041832 160.0
118.072128 420.0
118.111687 136.0
118.185234 200.0
118.253334 256.0
118.280457 160.0
118.336746 152.0
118.40387 248.0
118.464516 128.0
118.489044 124.0
118.663895 208.0
118.67907 112.0
118.80703 276.0
118.889473 160.0
118.926369 192.0
119.032745 168.0
119.051262 392.0
119.083252 504.0
119.102242 184.0
119.119621 56.0
119.150032 56.0
119.195206 140.0
119.332588 36.0
119.382599 172.0
119.461349 308.0
119.495705 140.0
119.515289 240.0
119.567513 140.0
119.632812 104.0
119.65023 204.0
119.674179 148.0
119.693771 124.0
119.715843 176.0
119.756134 200.0
119.78434 308.0
119.913795 176.0
119.981369 140.0
120.003166 196.0
120.029335 268.0
120.12529 184.0
120.2453 208.0
120.26236 152.0
120.315147 140.0
120.354446 180.0
120.398964 228.0
120.441795 188.0
120.483299 204.0
120.509521 176.0
120.542297 168.0
120.590172 176.0
120.596931 160.0
120.623161 112.0
120.699677 116.0
120.729614 208.0
120.756302 112.0
120.857162 112.0
120.906929 424.0
120.937767 144.0
120.997292 156.0
121.02137 152.0
121.06559 3832.0
121.102341 260.0
121.135193 140.0
121.185585 164.0
121.25351 168.0
121.277618 136.0
121.303925 152.0
121.35215 188.0
121.375267 148.0
121.40657 44.0
121.490318 144.0
121.560524 168.0
121.624168 168.0
121.661491 148.0
121.679047 212.0
121.816124 172.0
121.872322 124.0
121.976181 216.0
122.023979 200.0
122.071373 184.0
122.095192 120.0
122.111931 180.0
122.127327 192.0
122.153725 140.0
122.185417 240.0
122.223236 188.0
122.293732 68.0
122.32756 80.0
122.411224 168.0
122.479492 68.0
122.521347 124.0
122.5588 292.0
122.609482 168.0
122.650391 160.0
122.717499 136.0
122.774826 88.0
122.845406 112.0
122.888794 204.0
123.024147 116.0
123.068901 192.0
123.086678 160.0
123.112465 124.0
123.138969 108.0
123.158844 168.0
123.197823 136.0
123.25605 116.0
123.278145 144.0
123.302452 116.0
123.344452 152.0
123.443939 60.0
123.534615 192.0
123.654099 312.0
123.722717 340.0
123.738213 52.0
123.762566 212.0
123.780281 136.0
123.844505 160.0
123.913177 152.0
123.944191 128.0
123.975212 76.0
124.001808 104.0
124.052788 280.0
124.117081 56.0
124.156998 80.0
124.303406 156.0
124.350006 144.0
124.397522 128.0
124.429916 164.0
124.447678 136.0
124.465446 180.0
124.505417 132.0
124.589081 132.0
124.640915 208.0
124.693748 176.0
124.734261 172.0
124.916595 184.0
124.952187 228.0
124.978889 136.0
124.994461 208.0
125.034515 164.0
125.080147 144.0
125.103516 188.0
125.174767 136.0
125.335136 160.0
125.379707 136.0
125.401993 284.0
125.486702 156.0
125.551361 176.0
125.566978 184.0
125.642815 164.0
125.698593 160.0
125.776703 140.0
125.874931 192.0
125.956078 336.0
126.000229 164.0
126.02459 120.0
126.045853 532.0
126.093857 64.0
126.140793 120.0
126.156441 168.0
126.18998 188.0
126.253845 156.0
126.295082 68.0
126.337578 144.0
126.418129 160.0
126.480789 136.0
126.500938 216.0
126.577362 228.0
126.615128 184.0
126.722649 196.0
126.789871 144.0
126.813515 172.0
126.93782 176.0
127.01329 200.0
127.054306 2440.0
127.130737 72.0
127.175621 156.0
127.198067 172.0
127.305832 156.0
127.351875 160.0
127.400169 160.0
127.472061 192.0
127.521507 160.0
127.582191 92.0
127.599289 232.0
127.624908 96.0
127.660889 228.0
127.723862 184.0
127.746353 136.0
127.87011 148.0
127.918335 188.0
127.935379 128.0
128.005814 272.0
128.06282 4776.0
128.09082 172.0
128.129059 160.0
128.152054 172.0
128.173584 152.0
128.207916 128.0
128.291306 88.0
128.3116 164.0
128.354568 148.0
128.460434 36.0
128.561966 140.0
128.625168 180.0
128.731277 212.0
128.782547 244.0
128.823868 140.0
128.850677 200.0
128.892624 140.0
129.038559 136.0
129.070572 8736.0
129.131271 68.0
129.151031 136.0
129.228546 44.0
129.270691 244.0
129.298691 60.0
129.395035 156.0
129.472122 144.0
129.536423 228.0
129.649719 92.0
129.691025 176.0
129.705688 132.0
129.772736 44.0
129.792526 144.0
129.8125 104.0
129.835602 164.0
129.907028 252.0
129.95192 244.0
129.976242 120.0
130.004517 228.0
130.030716 156.0
130.074905 788.0
130.10788 140.0
130.180542 104.0
130.212341 136.0
130.269913 180.0
130.371796 168.0
130.448639 168.0
130.535034 180.0
130.611465 216.0
130.666946 160.0
130.707901 148.0
130.805862 188.0
130.870392 124.0
130.89888 176.0
130.939682 176.0
131.049133 5296.0
131.085129 2888.0
131.107574 320.0
131.186188 112.0
131.208984 68.0
131.250961 212.0
131.297897 180.0
131.41423 148.0
131.453033 160.0
131.487259 164.0
131.593765 176.0
131.690445 152.0
131.722549 148.0
131.793655 228.0
131.82753 296.0
131.850372 36.0
131.898376 192.0
132.006638 56.0
132.054657 1100.0
132.092468 184.0
132.117889 136.0
132.175095 212.0
132.230011 72.0
132.293884 204.0
132.303162 184.0
132.475006 164.0
132.499908 124.0
132.525406 160.0
132.614777 144.0
132.642441 184.0
132.660629 140.0
132.67897 136.0
132.729401 132.0
132.759216 68.0
132.79361 192.0
132.809677 160.0
132.8349 156.0
132.869308 164.0
132.907486 332.0
132.940445 104.0
132.970276 60.0
132.988388 188.0
133.011765 344.0
133.065521 65936.0
133.098312 384.0
133.137283 80.0
133.14769 72.0
133.154587 100.0
133.198883 68.0
133.235336 180.0
133.272934 180.0
133.278595 164.0
133.340576 152.0
133.358978 196.0
133.367172 84.0
133.37471 156.0
133.415833 192.0
133.441666 116.0
133.477951 84.0
133.523956 208.0
133.549255 136.0
133.581451 200.0
133.653854 152.0
133.702347 96.0
133.734406 408.0
133.762207 152.0
133.804672 140.0
133.839203 52.0
133.91481 200.0
133.948349 72.0
133.999664 216.0
134.068405 4000.0
134.095978 120.0
134.115601 160.0
134.212479 164.0
134.235535 136.0
134.267822 128.0
134.3013 108.0
134.318558 148.0
134.337006 76.0
134.37854 60.0
134.401962 212.0
134.475937 172.0
134.496231 148.0
134.51239 144.0
134.565475 76.0
134.626816 156.0
134.69249 168.0
134.740997 64.0
134.795166 164.0
134.84729 144.0
134.865784 240.0
134.902771 88.0
134.923828 164.0
134.938034 208.0
134.994415 88.0
135.023346 180.0
135.041504 96.0
135.076553 416.0
135.103577 144.0
135.161896 96.0
135.22197 104.0
135.245102 128.0
135.349289 112.0
135.374756 128.0
135.400223 108.0
135.506775 156.0
135.532272 68.0
135.550812 152.0
135.594833 192.0
135.62265 140.0
135.652786 196.0
135.740875 52.0
135.790405 180.0
135.814697 232.0
135.866119 200.0
135.898605 124.0
135.982147 100.0
136.049454 232.0
136.08429 164.0
136.10054 140.0
136.214325 76.0
136.242203 140.0
136.314224 380.0
136.551346 148.0
136.607178 216.0
136.64296 188.0
136.717255 64.0
136.760147 92.0
136.858521 40.0
136.886841 248.0
136.979614 20.0
137.030869 172.0
137.089127 144.0
137.114761 172.0
137.21965 64.0
137.291931 180.0
137.315262 192.0
137.344437 184.0
137.374756 156.0
137.422562 176.0
137.438889 208.0
137.504227 180.0
137.527573 196.0
137.620941 208.0
137.700348 152.0
137.798721 204.0
137.822723 92.0
137.910202 180.0
137.943344 112.0
138.048553 176.0
138.095322 68.0
138.189331 192.0
138.291855 164.0
138.40564 192.0
138.467438 208.0
138.495544 176.0
138.516632 168.0
138.549423 148.0
138.622055 80.0
138.670776 132.0
138.725189 204.0
138.81427 256.0
138.867081 132.0
138.884628 136.0
138.968887 188.0
138.997238 148.0
139.05864 336.0
139.202286 204.0
139.281311 148.0
139.490433 56.0
139.532745 96.0
139.582123 144.0
139.669144 168.0
139.730301 136.0
139.76918 160.0
139.803024 212.0
139.87384 216.0
139.901047 192.0
139.961548 308.0
140.064575 192.0
140.227142 112.0
140.247116 184.0
140.269577 180.0
140.413391 172.0
140.453644 128.0
140.484161 168.0
140.532455 176.0
140.572556 172.0
140.714951 116.0
140.736786 244.0
140.755569 68.0
140.790985 128.0
140.847427 200.0
140.918549 172.0
140.982346 196.0
141.07106 2692.0
141.230576 160.0
141.276276 140.0
141.314713 240.0
141.334671 76.0
141.351242 156.0
141.443527 200.0
141.542969 144.0
141.572083 176.0
141.622086 220.0
141.713501 216.0
141.758652 148.0
141.83345 208.0
141.945786 96.0
142.022324 220.0
142.075958 1048.0
142.107071 156.0
142.14267 36.0
142.160126 112.0
142.185379 400.0
142.216232 140.0
142.232849 340.0
142.299316 136.0
142.325439 152.0
142.37767 112.0
142.532074 220.0
142.555222 56.0
142.596237 120.0
142.671585 132.0
142.700729 184.0
142.722229 108.0
142.753143 192.0
142.817352 140.0
142.853043 160.0
142.881577 168.0
142.914886 212.0
143.054733 296.0
143.085846 1164.0
143.141006 108.0
143.171967 28.0
143.224365 164.0
143.261566 52.0
143.302979 188.0
143.379227 52.0
143.39592 140.0
143.496033 180.0
143.527023 80.0
143.606323 160.0
143.772415 124.0
143.923111 220.0
143.956528 148.0
143.980423 120.0
144.056641 3128.0
144.098389 176.0
144.133301 56.0
144.165695 256.0
144.225479 160.0
144.250397 188.0
144.355606 180.0
144.403427 96.0
144.432129 80.0
144.468018 156.0
144.508682 152.0
144.56311 144.0
144.582855 168.0
144.640305 164.0
144.671417 68.0
144.709717 88.0
144.789429 180.0
144.897964 80.0
144.967285 200.0
145.007416 248.0
145.034668 200.0
145.065598 28812.0
145.114624 76.0
145.190445 172.0
145.223816 180.0
145.258514 160.0
145.288223 116.0
145.320892 128.0
145.380875 60.0
145.397675 192.0
145.419266 52.0
145.457535 424.0
145.539291 152.0
145.557281 156.0
145.608932 196.0
145.628143 104.0
145.652176 80.0
145.690598 80.0
145.707413 124.0
145.753128 180.0
145.834778 56.0
145.880447 36.0
145.92131 152.0
145.958084 232.0
145.972977 132.0
146.003754 156.0
146.068298 2392.0
146.109711 132.0
146.124725 104.0
146.202744 164.0
146.272202 260.0
146.313461 88.0
146.380875 144.0
146.462753 272.0
146.485245 112.0
146.521606 80.0
146.544662 184.0
146.585632 136.0
146.61937 72.0
146.653107 132.0
146.701309 124.0
146.740906 160.0
146.773636 148.0
146.79776 92.0
146.819458 116.0
146.889404 212.0
146.947205 196.0
146.973831 72.0
147.019684 52.0
147.080551 2520.0
147.142792 92.0
147.16452 144.0
147.191071 76.0
147.275604 88.0
147.350479 200.0
147.374649 88.0
147.442764 184.0
147.461639 60.0
147.51239 184.0
147.543106 188.0
147.584915 116.0
147.639389 152.0
147.720352 56.0
147.754227 152.0
147.783249 48.0
147.802612 56.0
147.840897 156.0
147.931015 144.0
147.969131 60.0
148.010773 168.0
148.047302 180.0
148.08252 332.0
148.151245 84.0
148.171539 84.0
148.193604 148.0
148.243317 96.0
148.33783 248.0
148.371765 112.0
148.42511 108.0
148.467819 224.0
148.519684 180.0
148.613419 188.0
148.665253 228.0
148.721069 356.0
148.932312 180.0
148.94931 100.0
148.973602 176.0
149.089401 188.0
149.124252 112.0
149.163147 156.0
149.204468 100.0
149.226349 140.0
149.334412 164.0
149.367889 296.0
149.385818 140.0
149.416046 92.0
149.433075 164.0
149.457413 32.0
149.549881 116.0
149.629959 156.0
149.682114 88.0
149.742218 168.0
149.922501 112.0
150.044373 160.0
150.124832 144.0
150.14679 164.0
150.29071 112.0
150.368591 148.0
150.46788 176.0
150.725327 56.0
150.860428 284.0
150.93309 96.0
150.950211 136.0
150.972214 100.0
151.009964 180.0
151.055374 160.0
151.087173 172.0
151.132217 312.0
151.180145 280.0
151.216858 104.0
151.266556 208.0
151.353943 200.0
151.584198 140.0
151.674881 112.0
151.706741 248.0
151.7901 184.0
151.917633 144.0
152.018219 256.0
152.037857 116.0
152.062164 480.0
152.143402 368.0
152.159561 168.0
152.180222 252.0
152.212143 128.0
152.300552 164.0
152.430756 208.0
152.460831 168.0
152.774963 80.0
152.794647 244.0
152.90538 56.0
153.011566 172.0
153.03981 268.0
153.048569 164.0
153.068283 1296.0
153.129715 200.0
153.206848 168.0
153.331436 184.0
153.399429 144.0
153.409836 84.0
153.41362 128.0
153.439896 44.0
153.47934 164.0
153.560715 264.0
153.605118 120.0
153.639648 168.0
153.679123 256.0
153.812393 128.0
153.838028 164.0
153.903732 88.0
153.95311 196.0
153.990158 124.0
154.017334 256.0
154.074219 212.0
154.133438 220.0
154.202637 164.0
154.306458 148.0
154.439987 64.0
154.477081 160.0
154.526566 220.0
154.542877 152.0
154.605743 120.0
154.689896 120.0
154.797729 180.0
154.873123 144.0
154.917648 160.0
154.944061 120.0
155.006912 184.0
155.060043 2200.0
155.239624 172.0
155.282074 212.0
155.318466 256.0
155.463181 184.0
155.562454 192.0
155.597214 80.0
155.614594 96.0
155.664017 168.0
155.700485 216.0
155.746201 36.0
155.77562 128.0
155.830658 364.0
155.905212 140.0
156.02948 144.0
156.063049 456.0
156.091827 388.0
156.14386 96.0
156.203552 200.0
156.220978 96.0
156.313019 180.0
156.372757 72.0
156.434616 164.0
156.464844 112.0
156.49971 68.0
156.581451 200.0
156.610641 156.0
156.628113 384.0
156.674042 76.0
156.706009 216.0
156.785767 104.0
156.829147 116.0
156.869659 280.0
156.897324 168.0
156.902298 88.0
156.912354 64.0
156.919724 220.0
156.938339 240.0
156.975555 492.0
157.06572 181704.0
157.142365 132.0
157.165878 148.0
157.213791 116.0
157.238846 156.0
157.257004 172.0
157.262894 136.0
157.299606 308.0
157.338913 156.0
157.364105 184.0
157.392517 132.0
157.439026 128.0
157.476181 944.0
157.500305 68.0
157.528549 132.0
157.54657 68.0
157.567154 40.0
157.607635 68.0
157.639954 128.0
157.677979 160.0
157.706573 172.0
157.74321 116.0
157.775772 188.0
157.837723 64.0
157.84668 48.0
157.85585 80.0
157.876434 128.0
157.907883 184.0
157.934616 68.0
157.97464 312.0
157.997299 144.0
158.034683 208.0
158.069138 17628.0
158.104828 120.0
158.131348 112.0
158.16803 56.0
158.191437 56.0
158.281372 196.0
158.313507 112.0
158.36348 80.0
158.41011 248.0
158.480515 76.0
158.510422 68.0
158.533813 152.0
158.568054 124.0
158.600647 48.0
158.62822 44.0
158.684235 92.0
158.70343 140.0
158.725998 136.0
158.809189 208.0
158.850357 176.0
158.884613 164.0
158.965942 232.0
158.992966 216.0
159.02739 196.0
159.080734 26680.0
159.163284 172.0
159.194077 104.0
159.220291 112.0
159.249619 128.0
159.258484 108.0
159.324875 168.0
159.334503 156.0
159.361557 128.0
159.399246 112.0
159.418121 104.0
159.46373 132.0
159.46756 172.0
159.488953 44.0
159.509277 208.0
159.534424 44.0
159.567108 168.0
159.60733 56.0
159.660141 56.0
159.705414 84.0
159.760742 88.0
159.785904 96.0
159.815018 56.0
159.873962 68.0
159.920975 136.0
160.083527 3312.0
160.117737 168.0
160.227631 200.0
160.320145 124.0
160.360031 232.0
160.423035 84.0
160.470932 52.0
160.518845 124.0
160.536499 48.0
160.617203 72.0
160.637375 88.0
160.766052 116.0
160.897308 104.0
160.925079 32.0
160.948456 108.0
161.093155 532.0
161.167542 108.0
161.369736 128.0
161.417786 72.0
161.453186 108.0
161.534119 40.0
161.569534 120.0
161.706177 176.0
161.728958 92.0
161.82515 76.0
161.926437 100.0
162.030289 52.0
162.103775 176.0
162.211807 140.0
162.309082 108.0
162.347122 100.0
162.382629 124.0
162.474701 268.0
162.643967 92.0
162.773438 100.0
162.844543 144.0
163.055405 72.0
163.096069 192.0
163.284225 76.0
163.414932 308.0
163.627731 136.0
163.693939 200.0
163.729584 104.0
163.854401 40.0
163.956314 156.0
164.007294 192.0
164.155151 204.0
164.252075 160.0
164.356659 48.0
164.382187 156.0
164.435776 112.0
164.461288 144.0
164.537872 152.0
164.614471 60.0
164.701309 156.0
164.861206 116.0
165.005402 224.0
165.036072 124.0
165.072586 1492.0
165.268829 64.0
165.337921 168.0
165.371185 64.0
165.517105 108.0
165.587845 196.0
165.650284 176.0
165.85527 148.0
165.911667 72.0
166.078568 1536.0
166.265625 116.0
166.447891 208.0
166.486404 116.0
166.57373 172.0
166.637955 36.0
166.676498 136.0
166.720184 108.0
166.78186 192.0
166.951324 92.0
166.95607 84.0
166.965591 156.0
166.987549 136.0
167.008118 36.0
167.082794 1084.0
167.17717 220.0
167.337646 76.0
167.381271 92.0
167.440506 60.0
167.476562 116.0
167.502319 160.0
167.55899 176.0
167.667221 156.0
167.770325 124.0
167.841049 168.0
167.863129 140.0
167.922455 104.0
168.059174 192.0
168.092712 148.0
168.144318 84.0
168.415421 68.0
168.451569 132.0
168.549744 180.0
168.596268 72.0
168.746185 88.0
168.777206 160.0
168.797897 68.0
168.872894 128.0
169.074692 768.0
169.102631 588.0
169.294724 148.0
169.365829 160.0
169.442368 60.0
169.507141 64.0
169.813049 168.0
169.859726 120.0
169.914215 112.0
169.945343 56.0
169.976471 100.0
170.071793 564.0
170.116623 156.0
170.139984 168.0
170.316574 208.0
170.360733 112.0
170.417877 152.0
170.542618 156.0
170.617996 116.0
170.703796 44.0
170.841644 48.0
171.000366 212.0
171.052429 104.0
171.080582 4724.0
171.116791 4688.0
171.166977 124.0
171.18721 52.0
171.214844 52.0
171.305008 56.0
171.357117 80.0
171.405319 128.0
171.449127 76.0
171.680328 180.0
171.711624 180.0
171.815002 120.0
171.822815 76.0
171.928146 128.0
171.993393 136.0
172.019501 128.0
172.050827 108.0
172.084198 772.0
172.120819 728.0
172.149673 240.0
172.1866 44.0
172.262344 188.0
172.32663 80.0
172.416504 404.0
172.505371 148.0
172.630859 80.0
172.876755 216.0
173.018097 124.0
173.065231 148.0
173.094269 1884.0
173.12294 196.0
173.411011 148.0
173.563049 224.0
173.581406 32.0
173.715164 40.0
173.812241 228.0
173.911957 60.0
174.037964 64.0
174.095856 340.0
174.140381 116.0
174.276978 144.0
174.408371 228.0
174.432037 160.0
174.652908 144.0
174.784439 128.0
174.837067 164.0
174.929184 256.0
174.950256 188.0
174.984467 164.0
175.245209 152.0
175.693405 52.0
175.796295 140.0
175.833252 168.0
175.90979 192.0
175.938828 228.0
176.065567 152.0
176.084045 148.0
176.2267 144.0
176.607361 180.0
176.639099 240.0
176.723755 176.0
176.816376 192.0
176.895782 68.0
177.041397 116.0
177.274506 140.0
177.502472 168.0
177.555511 136.0
177.576736 232.0
177.621826 224.0
177.701401 132.0
177.820816 40.0
177.855316 108.0
178.019928 128.0
178.083664 180.0
178.104904 176.0
178.144745 172.0
178.216476 156.0
178.301514 156.0
178.34935 168.0
178.418472 72.0
178.468979 160.0
178.49823 140.0
178.567368 88.0
178.591309 52.0
178.61525 240.0
178.671112 148.0
178.7323 56.0
178.788177 64.0
178.86821 172.0
178.889328 52.0
179.025116 148.0
179.08493 548.0
179.118332 44.0
179.147629 152.0
179.219559 84.0
179.360809 184.0
179.403839 140.0
179.470108 184.0
179.60611 176.0
179.656784 164.0
179.706085 176.0
179.736832 204.0
179.800369 84.0
179.838242 208.0
179.862259 144.0
179.96904 160.0
180.092255 396.0
180.308289 244.0
180.433914 56.0
180.492737 140.0
180.578308 52.0
180.647858 180.0
180.792343 152.0
180.853897 120.0
180.96701 220.0
181.073288 368.0
181.102142 1788.0
181.169861 40.0
181.284042 176.0
181.432495 192.0
181.467926 128.0
181.689941 56.0
181.770432 92.0
181.909988 36.0
182.030807 112.0
182.066391 176.0
182.104736 188.0
182.224197 140.0
182.275238 148.0
182.342422 132.0
182.396179 216.0
182.498337 172.0
183.029678 168.0
183.083221 624.0
183.111954 120.0
183.211533 144.0
183.305832 212.0
183.648209 224.0
183.702148 244.0
183.783081 156.0
183.812775 216.0
183.847855 140.0
183.926407 148.0
184.08696 704.0
184.113846 136.0
184.198837 176.0
184.288544 172.0
184.404617 200.0
184.560974 180.0
184.696182 76.0
184.801697 76.0
184.934235 192.0
184.972183 164.0
185.018204 156.0
185.044968 284.0
185.096634 6772.0
185.127853 152.0
185.1987 140.0
185.317505 192.0
185.378433 84.0
185.454315 116.0
185.523178 128.0
185.723999 172.0
185.828537 168.0
185.964218 44.0
186.102615 2580.0
186.17598 36.0
186.330795 44.0
186.366119 160.0
186.627045 160.0
186.953461 124.0
187.096527 156.0
187.109161 136.0
187.114761 184.0
187.225677 180.0
187.42453 116.0
187.446472 160.0
187.479034 132.0
187.604309 112.0
187.739624 180.0
187.87439 60.0
187.969879 72.0
188.2565 168.0
188.332962 280.0
188.387604 196.0
188.444977 160.0
188.573395 172.0
188.88237 40.0
189.717285 200.0
189.755936 228.0
189.797058 44.0
189.94516 152.0
190.389771 136.0
190.411743 72.0
190.439209 152.0
190.589157 220.0
190.623276 96.0
190.645264 96.0
190.730453 136.0
191.067474 144.0
191.115463 112.0
191.139893 164.0
191.145508 144.0
191.203522 36.0
191.289398 200.0
191.390701 188.0
191.82048 180.0
191.911453 172.0
192.119553 176.0
192.140366 148.0
192.228653 128.0
192.377701 132.0
192.504898 160.0
192.648315 176.0
192.827911 132.0
193.073975 288.0
193.336777 128.0
193.403198 172.0
193.531219 164.0
193.558228 108.0
193.649796 180.0
193.671768 136.0
193.752106 196.0
193.849075 204.0
193.940536 140.0
193.984879 152.0
194.403687 196.0
194.49527 132.0
194.531357 168.0
194.603531 116.0
194.675735 88.0
194.82016 188.0
195.022995 128.0
195.056351 40.0
195.095932 452.0
195.139755 200.0
195.17868 180.0
195.198135 180.0
195.376144 32.0
195.398407 192.0
195.54866 116.0
195.601547 164.0
195.757462 192.0
195.841003 84.0
196.086182 140.0
196.13913 116.0
196.214401 120.0
196.26738 92.0
196.300842 104.0
196.331512 140.0
196.440292 140.0
196.476547 140.0
196.613022 132.0
196.727707 48.0
196.948303 56.0
197.096344 1052.0
197.205353 140.0
197.468155 108.0
197.669586 200.0
197.765076 132.0
197.812317 232.0
197.885101 72.0
197.924301 160.0
197.977509 148.0
198.025116 100.0
198.104767 868.0
198.166809 220.0
198.23407 284.0
198.268845 84.0
198.302475 88.0
198.324905 152.0
198.403397 224.0
198.425812 92.0
198.452454 160.0
198.514191 176.0
198.551285 188.0
198.624924 132.0
198.650162 148.0
198.683823 56.0
198.722809 228.0
198.82515 96.0
198.855087 172.0
198.889069 144.0
198.922241 164.0
198.941681 136.0
198.992538 168.0
199.016281 168.0
199.070404 356.0
199.112518 102988.0
199.193634 300.0
199.22937 348.0
199.251587 132.0
199.292099 196.0
199.301697 56.0
199.345352 132.0
199.379837 100.0
199.423294 152.0
199.463211 116.0
199.495712 200.0
199.517151 136.0
199.550705 56.0
199.573776 164.0
199.616928 216.0
199.661301 204.0
199.683792 64.0
199.713562 56.0
199.737244 56.0
199.780441 100.0
199.816467 240.0
199.907318 44.0
199.970764 92.0
200.018219 28.0
200.040695 80.0
200.115051 11184.0
200.180481 168.0
200.217804 144.0
200.288925 84.0
200.328781 124.0
200.432602 48.0
200.46521 84.0
200.494598 52.0
200.526535 132.0
200.609879 124.0
200.655258 100.0
200.699234 188.0
200.739075 176.0
200.759583 124.0
200.792664 160.0
200.934402 164.0
200.941589 160.0
200.983582 88.0
201.042068 204.0
201.075867 72.0
201.083496 192.0
201.127823 56284.0
201.21756 192.0
201.245438 220.0
201.274078 164.0
201.310318 88.0
201.337296 172.0
201.354172 116.0
201.362717 184.0
201.407593 72.0
201.435547 88.0
201.484604 88.0
201.517059 124.0
201.564438 292.0
201.601135 184.0
201.646683 140.0
201.689346 100.0
201.711899 108.0
201.745743 44.0
201.787384 76.0
201.820633 64.0
201.841095 56.0
201.883514 28.0
201.913757 104.0
201.94574 60.0
201.966156 256.0
202.011108 36.0
202.082062 164.0
202.130508 6012.0
202.191864 288.0
202.218048 48.0
202.257095 88.0
202.319244 76.0
202.358871 64.0
202.431549 60.0
202.443542 40.0
202.448303 96.0
202.558884 264.0
202.64209 84.0
202.663605 96.0
202.701599 60.0
202.737015 112.0
202.814957 84.0
202.836823 56.0
202.855896 72.0
202.914169 64.0
202.945358 76.0
203.02475 56.0
203.055954 56.0
203.134171 692.0
203.199905 96.0
203.268707 88.0
203.3069 120.0
203.32547 208.0
203.373932 52.0
203.410614 192.0
203.433319 64.0
203.456039 40.0
203.484421 40.0
203.509155 96.0
203.555405 40.0
203.591644 84.0
203.64061 108.0
203.742859 168.0
203.791153 80.0
203.813889 88.0
203.973038 136.0
204.004166 84.0
204.14032 156.0
204.191971 32.0
204.243164 116.0
204.280136 136.0
204.30574 48.0
204.496384 76.0
204.553314 48.0
204.604553 96.0
204.667023 112.0
204.689682 196.0
204.764008 56.0
205.068863 164.0
205.317322 240.0
205.439545 80.0
205.48233 92.0
205.547958 40.0
205.573639 112.0
205.667816 52.0
205.824829 92.0
206.239059 48.0
206.399155 96.0
206.459198 140.0
206.524979 164.0
206.617996 108.0
206.771027 60.0
206.888382 200.0
207.140381 40.0
207.243515 208.0
207.426926 144.0
207.610428 88.0
207.814072 188.0
208.026443 160.0
208.060898 180.0
208.256149 60.0
208.350952 92.0
208.980576 108.0
209.049622 104.0
209.107178 1132.0
209.163803 172.0
209.205048 36.0
209.226425 112.0
209.244064 108.0
209.406601 64.0
209.45845 96.0
209.838837 144.0
209.931107 168.0
209.994019 108.0
210.046478 192.0
210.111053 372.0
210.288834 112.0
210.384094 196.0
210.502472 124.0
210.591995 28.0
210.72879 168.0
211.120865 144.0
211.233658 84.0
211.533783 140.0
211.609879 100.0
211.690948 52.0
211.763351 60.0
212.029877 96.0
212.131332 176.0
212.195099 144.0
212.235703 48.0
212.354599 120.0
212.606995 72.0
213.009766 88.0
213.077377 164.0
213.284103 268.0
213.405792 108.0
213.58609 28.0
213.612274 76.0
213.682083 172.0
213.783936 120.0
213.984772 172.0
214.127457 160.0
215.007889 80.0
215.140961 332.0
215.340714 132.0
215.504288 128.0
215.716553 68.0
215.890137 156.0
215.977875 140.0
216.106583 144.0
216.952972 208.0
217.580765 220.0
217.689407 144.0
218.100708 164.0
218.200653 84.0
218.232986 176.0
218.335907 180.0
218.530045 56.0
218.974548 200.0
219.832413 96.0
219.946442 220.0
220.192581 128.0
220.287094 156.0
220.31958 136.0
220.544159 108.0
220.94928 132.0
220.972946 160.0
221.023239 88.0
221.33403 72.0
221.399185 124.0
221.615417 96.0
221.754684 72.0
221.941452 164.0
222.045242 280.0
222.07193 152.0
222.971512 120.0
223.013123 160.0
223.423462 188.0
223.721817 204.0
224.167816 80.0
224.19165 76.0
224.468872 96.0
224.55835 200.0
224.677658 140.0
224.993988 68.0
225.123871 136.0
225.761887 164.0
225.806747 100.0
226.273544 144.0
227.144058 3376.0
227.187576 52.0
227.517685 64.0
227.538696 108.0
228.140945 400.0
228.274826 132.0
228.689987 116.0
228.765244 88.0
228.85556 48.0
229.283295 92.0
229.645081 84.0
229.853226 68.0
230.112808 140.0
230.155075 356.0
230.78656 172.0
230.850052 184.0
231.025482 140.0
231.219131 76.0
231.758133 100.0
231.981384 108.0
231.993515 72.0
232.218903 108.0
232.753006 160.0
233.345474 104.0
233.634384 228.0
233.75 64.0
233.78653 52.0
233.963058 128.0
234.392502 116.0
234.477829 64.0
234.895538 160.0
235.176239 208.0
235.539597 128.0
235.793182 156.0
235.988815 160.0
236.438477 76.0
236.77829 56.0
237.458664 148.0
237.946564 100.0
238.029449 88.0
238.146149 172.0
238.278244 48.0
238.674728 204.0
238.865402 196.0
239.191559 112.0
239.721283 148.0
239.776764 180.0
239.937042 116.0
240.174484 132.0
240.325638 140.0
240.501541 60.0
240.909134 108.0
241.048172 188.0
241.796539 72.0
241.818192 60.0
241.839859 84.0
242.028702 80.0
242.127792 96.0
242.409698 156.0
242.50267 112.0
242.547668 192.0
243.113617 132.0
243.188095 156.0
243.824783 80.0
243.927353 168.0
244.480957 152.0
244.518311 108.0
244.586777 128.0
245.234634 60.0
245.362427 112.0
246.942444 96.0
247.371109 228.0
247.693634 248.0
247.872208 132.0
247.96936 152.0
250.381104 284.0
250.479813 148.0
250.719254 152.0
250.927292 148.0
251.018723 76.0
251.110184 232.0
251.34993 176.0
251.514038 156.0
251.757141 172.0
251.81398 192.0
252.085663 140.0
252.866791 100.0
252.920593 60.0
252.958572 88.0
253.050385 128.0
253.462128 96.0
254.020111 140.0
254.086731 200.0
254.286636 156.0
254.629517 152.0
254.937668 108.0
255.038254 172.0
255.188782 80.0
255.290527 44.0
256.038361 160.0
256.162598 108.0
256.41748 100.0
256.497162 208.0
256.564117 80.0
256.60556 112.0
256.628815 108.0
256.701202 40.0
256.809631 152.0
256.851105 152.0
256.911713 112.0
256.94043 140.0
256.962769 132.0
257.016998 52.0
257.138245 120.0
257.181976 172.0
257.338959 224.0
257.431488 160.0
257.47348 228.0
257.500397 168.0
257.553314 200.0
257.580292 72.0
257.771118 152.0
257.831268 112.0
257.853638 76.0
257.903137 208.0
257.934601 220.0
257.944916 136.0
258.010956 300.0
258.051514 224.0
258.086182 280.0
258.116852 272.0
258.141113 348.0
258.186035 105352.0
258.272736 48.0
258.296356 104.0
258.352448 68.0
258.406372 64.0
258.438995 136.0
258.488342 224.0
258.555725 60.0
258.577972 156.0
258.616516 168.0
258.648773 112.0
258.670013 196.0
258.712982 380.0
258.773163 116.0
258.831451 96.0
258.88858 88.0
258.902374 104.0
258.978241 72.0
259.010101 152.0
259.051544 216.0
259.107971 164.0
259.13623 172.0
259.188477 14312.0
259.246368 148.0
259.290619 44.0
259.311371 40.0
259.3573 188.0
259.43515 124.0
259.468597 92.0
259.495758 40.0
259.540649 48.0
259.631226 48.0
259.66037 72.0
259.731018 88.0
259.770813 120.0
259.858185 44.0
259.925568 72.0
259.953217 116.0
260.026825 108.0
260.085602 60.0
260.090576 104.0
260.120422 140.0
260.191193 1224.0
260.264343 48.0
260.307526 52.0
260.397461 48.0
260.452057 96.0
260.51767 56.0
260.589478 128.0
260.621155 100.0
260.660889 144.0
260.689636 176.0
260.822937 56.0
260.893463 140.0
260.941925 120.0
260.980469 156.0
261.007782 108.0
261.046387 56.0
261.058441 112.0
261.147247 108.0
261.220276 72.0
261.252441 148.0
261.487335 84.0
261.699799 68.0
261.87915 52.0
261.915558 92.0
261.947784 56.0
261.97998 72.0
262.02832 88.0
262.131409 108.0
262.209351 64.0
262.286102 52.0
262.421509 80.0
262.463409 56.0
262.531128 64.0
262.753693 84.0
263.002167 76.0
263.189392 92.0
263.389618 36.0
263.819397 80.0
264.000458 76.0
264.246277 40.0
264.569916 104.0
264.854858 48.0
265.214508 112.0
265.636047 80.0
265.687958 80.0
267.227875 92.0
268.341736 52.0
268.384125 120.0
268.641754 52.0
268.726593 88.0
269.03009 128.0
269.431763 80.0
269.887634 100.0
270.131348 68.0
270.383759 84.0
270.713928 160.0
271.175842 48.0
271.313507 56.0
271.638153 112.0
272.294586 156.0
273.303772 32.0
273.340179 132.0
273.488068 112.0
274.614868 96.0
274.677551 56.0
274.959656 96.0
275.929108 100.0
276.147369 96.0
276.52121 44.0
277.896393 76.0
278.205048 92.0
280.663666 40.0
281.755035 108.0
282.199554 76.0
285.421692 76.0
286.310059 48.0
286.812073 88.0
288.719604 80.0
289.007141 92.0
289.338806 64.0
292.836304 68.0
293.180389 120.0
293.408783 60.0
295.218414 48.0
299.27771 36.0
299.963257 144.0
300.401215 68.0
300.708282 100.0
302.363739 92.0
304.759857 84.0
311.537598 60.0
313.645386 140.0
313.673584 72.0
315.085144 96.0
315.159332 52.0
315.452667 52.0
316.726501 76.0
318.262054 52.0
319.086334 60.0
320.684601 108.0
321.936829 44.0
322.558502 80.0
324.563324 108.0
324.839447 96.0
328.169617 76.0
328.256134 140.0
328.570374 68.0
329.790436 64.0
332.267303 44.0
332.877045 76.0
335.919678 96.0
336.313751 72.0
337.844788 92.0
338.368134 104.0
338.701355 88.0
341.810883 104.0
343.867188 68.0
346.325867 92.0
350.035889 56.0
352.722046 108.0
357.041229 68.0
357.549103 96.0
361.492645 80.0
363.884338 48.0
366.901245 64.0
366.969879 84.0
367.583954 104.0
370.99939 104.0
371.348328 64.0
374.538452 92.0
375.328461 68.0
378.353638 44.0
379.605103 44.0
382.993988 72.0
385.912994 92.0
386.718842 92.0
388.266357 84.0
388.419312 96.0
392.02063 52.0
393.08136 60.0
393.551056 68.0
395.666229 132.0
400.87735 112.0
403.175934 84.0
406.062408 64.0
406.732452 88.0
408.323486 116.0
408.689545 104.0
410.223969 116.0
412.205597 72.0
415.497314 92.0
415.61496 80.0
415.907166 72.0
422.046417 104.0
423.523743 56.0
435.198578 80.0
439.089325 64.0
442.515778 80.0
442.57019 68.0
443.659485 72.0
445.661377 108.0
446.417999 56.0
446.703979 64.0
451.076752 44.0
453.446991 80.0
454.833923 148.0
458.125153 96.0
458.755859 76.0
459.391235 100.0
459.70697 52.0
464.288574 136.0
464.897736 88.0
467.045868 32.0
467.540619 76.0
468.134705 88.0
471.16684 56.0
473.606567 96.0
474.863464 80.0
475.709564 60.0
477.16922 96.0
478.787903 36.0
480.928558 60.0
488.552185 104.0
489.820801 112.0
490.856476 96.0
494.279785 76.0
499.755096 100.0
500.974945 80.0
503.905945 88.0
508.765045 40.0
515.842041 60.0
521.430603 84.0
528.1922 56.0
532.119507 72.0
532.34906 52.0
533.295471 104.0
536.748169 92.0
536.789673 72.0
536.923401 116.0
538.935974 112.0
548.426086 32.0
550.259338 88.0
554.853516 116.0
565.309937 48.0
569.491394 52.0
571.050293 32.0
571.292847 108.0
578.14447 88.0
578.283203 48.0
580.38623 44.0
580.573242 56.0
582.704407 84.0
584.348633 104.0
597.371948 60.0
609.21167 68.0
609.275574 204.0
627.069519 52.0
627.363586 96.0
632.358582 80.0
633.906006 96.0
638.001526 48.0
643.285889 188.0
648.926636 64.0
655.753479 52.0
659.217529 92.0
669.107605 60.0
670.673584 52.0
674.291565 36.0
675.501465 72.0
677.598083 156.0
678.520569 76.0
681.047668 96.0
690.308594 168.0
698.369202 104.0
702.01886 192.0
709.113464 112.0
711.266846 168.0
712.801697 84.0
726.196045 40.0
728.622253 76.0
730.406982 76.0
730.557617 52.0
734.640869 184.0
744.301514 144.0
747.900391 68.0
752.801575 188.0
760.356262 176.0
766.427124 132.0
769.432983 152.0
779.091187 76.0
779.969177 172.0
782.812073 168.0
785.230713 168.0
792.760986 172.0
794.8526 144.0
797.149231 36.0
801.972229 64.0
805.013 128.0
806.493164 100.0
807.290344 196.0
810.879517 52.0
816.653564 72.0
817.751648 268.0
820.337585 148.0
825.767578 64.0
832.220032 36.0
832.375061 152.0
833.44342 76.0
833.58136 132.0
836.669922 136.0
837.015381 152.0
842.893127 152.0
848.913208 220.0
852.204346 108.0
855.158386 188.0
857.610413 88.0
860.655579 40.0
861.911377 68.0
862.186035 184.0
867.518127 104.0
867.781921 160.0
872.660889 188.0
877.423767 160.0
882.276489 168.0
882.684448 92.0
883.376404 48.0
887.130737 52.0
891.457458 96.0
892.598755 228.0
893.342224 132.0
895.258728 228.0
895.955566 136.0
896.319031 124.0
897.946411 156.0
899.882751 212.0
900.357483 156.0
901.803284 200.0
908.143799 52.0
909.805908 168.0
910.154114 120.0
912.220764 180.0
914.079163 104.0
923.514465 256.0
924.022583 176.0
926.201843 152.0
928.001648 60.0
928.147217 128.0
930.434509 204.0
933.977234 76.0
935.815002 48.0
936.591309 148.0
938.142212 196.0
943.086487 136.0
943.532715 172.0
943.710022 80.0
944.731323 156.0
945.416565 80.0
945.949097 132.0
947.767944 184.0
948.258179 216.0
949.515015 172.0
953.757507 156.0
955.768494 248.0
956.851746 96.0
961.703003 136.0
962.005432 156.0
962.110413 208.0
964.908997 96.0
965.075867 180.0
967.674438 72.0
968.250305 160.0
969.006042 160.0
970.115295 72.0
972.565491 68.0
973.751343 96.0
974.384888 176.0
976.522522 176.0
976.796875 48.0
977.16394 104.0
980.713379 120.0
985.980896 176.0
989.658997 216.0
989.834351 172.0
992.152527 48.0
993.042908 132.0
993.450623 56.0
994.027832 172.0
995.415039 152.0
1000.08606 60.0
1002.55481 100.0
1004.357971 72.0
1004.629211 152.0
1006.503662 100.0
1007.988037 152.0
1008.474609 108.0
1011.358765 76.0
1011.751221 156.0
1013.473877 156.0
1013.911133 60.0
1016.580933 148.0
1017.050537 156.0
1018.301331 120.0
1019.03186 116.0
1019.603699 168.0
1019.762573 32.0
1023.363037 148.0
1024.719604 136.0
1026.319458 68.0
1027.863037 156.0
1029.682373 156.0
1029.810059 56.0
1031.925171 172.0
1033.204346 160.0
1041.492676 128.0
1043.150513 188.0
1043.600464 232.0
1043.941284 220.0
1044.24353 136.0
1045.124756 140.0
1046.0 224.0
1049.846436 144.0
1050.542969 136.0
1050.639771 156.0
1051.769043 152.0
1052.763184 44.0
1053.325073 128.0
1053.912964 116.0
1054.592041 152.0
1054.863037 84.0
1055.699097 188.0
1056.228149 160.0
1059.709961 124.0
1059.974609 144.0
1060.260986 188.0
1061.103638 176.0
1061.375854 244.0
1061.894653 160.0
1062.342285 156.0
1062.874268 48.0
1063.06897 172.0
1064.925659 76.0
1070.974365 92.0
1072.577271 240.0
1072.753296 64.0
1074.077026 148.0
1074.605347 128.0
1074.925049 144.0
1076.171753 204.0
1077.634766 28.0
1077.817749 148.0
1078.516968 124.0
1078.915771 56.0
1079.903076 192.0
1080.400269 132.0
1082.98584 168.0
1083.977051 64.0
1084.387939 120.0
1084.754883 144.0
1085.128662 136.0
1085.66626 200.0
1086.026978 140.0
1086.164673 132.0
1087.234131 188.0
1088.501099 120.0
1088.684937 216.0
1089.046143 144.0
1089.125 116.0
1090.399536 176.0
1091.859131 104.0
1092.076172 140.0
1092.148438 100.0
1094.366211 176.0
1094.787598 96.0
1095.209106 188.0
1096.414795 184.0
1096.632202 116.0
1097.963989 140.0
1100.742188 60.0
1101.224243 196.0
1101.415771 112.0
1103.616455 164.0
1104.436401 240.0
1104.925903 76.0
1106.428223 80.0
1106.560669 104.0
1107.08374 76.0
1107.593628 104.0
1108.044067 196.0
1109.9198 64.0
1111.763916 120.0
1111.949707 164.0
1112.527222 104.0
1113.775513 212.0
1114.698975 168.0
1115.88208 248.0
1116.207886 44.0
1117.418457 140.0
1118.10376 152.0
1120.154419 136.0
1121.59375 176.0
1123.440796 208.0
1125.643311 212.0
1125.696655 152.0
1125.856934 76.0
1126.03064 68.0
1126.184204 172.0
1128.617554 96.0
1129.352295 104.0
1129.726929 124.0
1130.556519 188.0
1130.790771 168.0
1132.494873 200.0
1133.094238 140.0
1133.385132 196.0
1133.750854 164.0
1133.938599 136.0
1136.889282 180.0
1137.828979 232.0
1138.342407 128.0
1139.266113 148.0
1140.106079 196.0
1140.220337 184.0
1140.475708 124.0
1140.636963 168.0
1141.652222 120.0
1142.00647 172.0
1142.459351 132.0
1142.654419 336.0
1146.60022 192.0
1147.87439 176.0
1148.366577 172.0
1148.751099 132.0
1149.277344 100.0
1149.904907 204.0
1150.654175 148.0
1150.72168 172.0
1151.883179 116.0
1152.16687 92.0
1153.504883 140.0
1153.924072 148.0
1154.661133 192.0
1156.731445 180.0
1156.941406 140.0
1157.388184 128.0
1158.221191 140.0
1158.309204 80.0
1158.702148 104.0
1160.281128 68.0
1162.397339 160.0
1163.598633 180.0
1164.141846 180.0
1164.365967 172.0
1165.432495 92.0
1165.500366 216.0
1165.955688 192.0
1169.880249 92.0
1172.264038 152.0
1173.777344 148.0
1175.236938 168.0
1175.359741 152.0
1175.653198 160.0
1176.219727 140.0
1178.384399 184.0
1180.120483 168.0
1180.325562 380.0
1181.583984 196.0
1183.555176 152.0
1184.068726 128.0
1185.157959 80.0
1185.342896 108.0
1185.760986 108.0
1186.185913 116.0
1186.377808 200.0
1188.264648 160.0
1189.794189 92.0
1190.192383 28.0
1190.776123 100.0
1192.005737 144.0
1192.081299 76.0
1193.022949 124.0
1193.579834 200.0
1194.377563 208.0
1194.659668 132.0
1194.907227 164.0
1195.051758 200.0
1195.320068 212.0
1195.849976 232.0
1196.304321 220.0
1197.614624 196.0
1197.702148 176.0
1198.142944 112.0
1198.273926 180.0
1198.466797 108.0
1199.762451 56.0
1201.527954 184.0
1201.60376 132.0
1201.680054 176.0
1201.94873 108.0
1203.07373 168.0
1204.247559 40.0
1204.931519 160.0
1204.986694 180.0
1206.251343 36.0
1206.700684 192.0
1206.998047 144.0
1208.775757 184.0
1208.838013 152.0
1211.074097 224.0
1211.399658 116.0
1213.125122 176.0
1213.291504 144.0
1214.726929 52.0
1215.13623 64.0
1215.85791 204.0
1218.139038 192.0
1218.260254 168.0
1219.30249 208.0
1219.719482 160.0
1221.847412 176.0
1222.856445 148.0
1223.434082 56.0
1223.761353 212.0
1224.025879 64.0
1224.374146 236.0
1224.804565 144.0
1225.809082 164.0
1226.018188 160.0
1226.289917 96.0
1227.042847 248.0
1228.263184 148.0
1228.716553 152.0
1228.807251 40.0
1228.897949 192.0
1229.06543 152.0
1230.517212 160.0
1230.69873 196.0
1231.424927 36.0
1232.710327 180.0
1233.325317 152.0
1233.625977 40.0
1234.010376 152.0
1234.294434 188.0
1234.485962 100.0
1235.423096 100.0
1236.458618 88.0
1236.950317 172.0
1237.004639 144.0
1237.942749 176.0
1238.257935 156.0
1239.203613 140.0
1239.378662 172.0
1239.525879 164.0
1239.76416 184.0
1239.869263 208.0
1240.829468 216.0
1241.124023 92.0
1242.014648 176.0
1242.309204 208.0
1242.933594 156.0
1243.052979 168.0
1243.368774 168.0
1243.824951 148.0
1244.098755 224.0
1245.77002 68.0
1245.945679 164.0
1246.254761 192.0
1248.05542 192.0
1248.187744 160.0
1248.41272 136.0
1248.757324 164.0
1248.806519 68.0
1249.182739 220.0
1249.425537 92.0
1250.628784 140.0
1250.776611 204.0
1251.107422 184.0
1251.762207 188.0
1251.874878 224.0
1252.001709 148.0
1252.311523 156.0
1252.649658 172.0
1252.748291 124.0
1254.115234 208.0
1254.291504 148.0
1254.474731 176.0
1254.651001 132.0
1255.059937 144.0
1255.701538 144.0
1255.793335 144.0
1255.969604 180.0
1256.484619 140.0
1258.065308 180.0
1258.55249 228.0
1258.842041 160.0
1259.053833 168.0
1260.671631 180.0
1260.763428 128.0
1260.876465 184.0
1261.039062 128.0
1261.357178 124.0
1261.965088 88.0
1262.74292 248.0
1263.535156 152.0
1264.355957 200.0
1265.460205 64.0
1265.750488 148.0
1266.246216 220.0
1266.489502 176.0
1266.656982 136.0
1267.315796 44.0
1268.024414 180.0
1268.095337 188.0
1268.414307 32.0
1269.626709 156.0
1270.179932 156.0
1270.236572 140.0
1270.343018 164.0
1270.499146 68.0
1272.287476 272.0
1272.443604 172.0
1272.535889 92.0
1272.933472 140.0
1273.757324 144.0
1273.823242 176.0
1273.949097 124.0
1274.801758 92.0
1276.109619 168.0
1276.308716 196.0
1277.759644 64.0
1278.97644 192.0
1279.965942 160.0
1280.108398 132.0
1280.350464 236.0
1280.557007 164.0
1280.841919 188.0
1280.890869 128.0
1281.091309 140.0
1281.240845 176.0
1281.404663 176.0
1282.209961 112.0
1282.737305 192.0
1284.44873 224.0
1284.641235 128.0
1284.841064 140.0
1285.540283 192.0
1286.657471 180.0
1287.467651 116.0
1287.960449 140.0
1288.067627 156.0
1289.039185 112.0
1289.532349 144.0
1289.661011 200.0
1289.753906 80.0
1289.911133 256.0
1290.604614 88.0
1291.970581 148.0
1292.070801 180.0
1292.321167 176.0
1293.366699 192.0
1293.745361 148.0
1293.967285 100.0
1295.385254 64.0
1296.531616 140.0
1298.61792 172.0
1299.177368 164.0
1299.378174 92.0
1300.282349 48.0
1300.404297 84.0
1300.691406 148.0
1301.868896 160.0
1301.947876 124.0
1302.723633 164.0
1303.151978 164.0
1305.828735 136.0
1305.979736 184.0
1306.468872 180.0
1306.871704 68.0
1307.692139 192.0
1308.858276 156.0
1310.008545 184.0
1310.932861 156.0
1311.048096 80.0
1311.228271 76.0
1311.307617 104.0
1312.410522 164.0
1313.333618 116.0
1313.43457 100.0
1313.665405 168.0
1314.42041 236.0
1314.675415 120.0
1314.971313 184.0
1315.093994 188.0
1315.945801 212.0
1316.747437 188.0
1316.81958 220.0
1316.920776 172.0
1318.459595 160.0
1320.03064 228.0
1320.621582 176.0
1321.040771 132.0
1321.416992 192.0
1321.677368 180.0
1321.793213 116.0
1322.060913 144.0
1322.502441 148.0
1324.290771 36.0
1324.732544 128.0
1324.920898 88.0
1325.457031 180.0
1325.710693 180.0
1326.363037 188.0
1326.551392 176.0
1326.971924 216.0
1327.370728 192.0
1327.631714 176.0
1327.726074 284.0
1329.314697 124.0
1329.503418 196.0
1330.773682 168.0
1331.071289 64.0
1331.136719 204.0
1331.703125 64.0
1331.942871 160.0
1332.879272 188.0
1333.032593 224.0
1333.890137 176.0
1335.366211 168.0
1335.606201 128.0
1336.362793 196.0
1336.421021 180.0
1337.208862 128.0
1338.571899 140.0
1340.03418 144.0
1340.323608 140.0
1340.513062 80.0
1341.19812 224.0
1341.380371 212.0
1341.49707 236.0
1341.562622 128.0
1341.832397 208.0
1341.978149 164.0
1342.663574 220.0
1342.831299 56.0
1344.210083 168.0
1345.224609 184.0
1345.567749 184.0
1345.947388 120.0
1347.210815 188.0
1347.554199 236.0
1348.036499 248.0
1348.957397 196.0
1349.213257 96.0
1349.352051 216.0
1349.483765 204.0
1350.304199 220.0
1350.617188 104.0
1350.946411 220.0
1351.421875 172.0
1352.051147 156.0
1352.453735 116.0
1352.942383 164.0
1353.668945 164.0
1353.852051 164.0
1355.14856 140.0
1355.221802 168.0
1355.569092 252.0
1356.005859 192.0
1356.606934 128.0
1356.848877 52.0
1356.93689 156.0
1357.171509 132.0
1357.457397 144.0
1359.29126 148.0
1359.870972 168.0
1360.311401 268.0
1360.362793 120.0
1360.649048 124.0
1360.810547 84.0
1361.610962 152.0
1361.662354 196.0
1362.360229 84.0
1362.529175 124.0
1362.624634 148.0
1363.030518 120.0
1363.091553 312.0
1363.286011 152.0
1363.341675 172.0
1363.58728 128.0
1363.694458 176.0
1365.491455 144.0
1365.748779 228.0
1365.88855 84.0
1366.374146 168.0
1368.287598 140.0
1368.692505 204.0
1368.928101 224.0
1370.578125 196.0
1370.681274 156.0
1370.953857 184.0
1371.005493 156.0
1371.447754 132.0
1371.521362 88.0
1372.214355 184.0
1373.166748 208.0
1373.79248 116.0
1373.903198 180.0
1374.508179 132.0
1374.618896 224.0
1374.685303 48.0
1374.958252 80.0
1375.66687 156.0
1376.065552 128.0
1376.161499 60.0
1376.479004 84.0
1376.619263 184.0
1376.774414 112.0
1376.892578 152.0
1377.801025 120.0
1378.828125 192.0
1379.020264 196.0
1379.205078 104.0
1379.434204 188.0
1379.611572 148.0
1380.166138 252.0
1380.262207 72.0
1381.252319 168.0
1381.386353 144.0
1381.445557 252.0
1381.504761 148.0
1381.689697 108.0
1382.392578 192.0
1382.814453 216.0
1383.103027 144.0
1383.391724 124.0
1384.146851 204.0
1384.309814 176.0
1385.272583 176.0
1385.331909 220.0
1385.598633 200.0
1386.252441 196.0
1388.15564 168.0
1388.54126 200.0
1388.786011 136.0
1389.10498 160.0
1389.579834 216.0
1389.653931 196.0
1390.269897 116.0
1390.329224 120.0
1390.462769 192.0
1390.633545 108.0
1391.628174 200.0
1391.858398 192.0
1392.036499 200.0
1392.058594 196.0
1392.593628 124.0
1392.883301 144.0
1392.935181 240.0
1393.076416 76.0
1393.165527 108.0
1393.217529 188.0
1393.716187 256.0
1393.878784 148.0
1393.938232 172.0
1394.086792 164.0
1394.199707 156.0
1394.852295 84.0
1394.963867 140.0
1396.629395 184.0
1397.046021 184.0
1397.574219 196.0
1397.953735 172.0
1398.0802 48.0
1398.370483 160.0
1399.598755 144.0
1400.335938 92.0
1400.693481 136.0
1400.954224 176.0
1401.192627 208.0
1402.392334 224.0
1402.547241 208.0
1404.67395 148.0
1404.748535 28.0
1405.128906 276.0
1405.218506 76.0
1406.136353 100.0
1406.210571 160.0
1406.725952 40.0
1407.121582 116.0
1407.942993 456.0
1408.174438 124.0
1408.249146 160.0
1408.742188 268.0
1409.100708 144.0
1409.384644 48.0
1409.676025 160.0
1409.8479 172.0
1410.087036 160.0
1410.587891 192.0
1410.70752 168.0
1411.066284 204.0
1411.784058 120.0
1411.888794 40.0
1412.359985 176.0
1412.472168 352.0
1412.591919 140.0
1412.763916 200.0
1413.070679 164.0
1413.265137 128.0
1413.751587 172.0
1414.230469 172.0
1414.470093 152.0
1415.151245 164.0
1415.420776 176.0
1416.034912 124.0
1417.59314 180.0
1418.012817 244.0
1418.702393 80.0
1419.369629 64.0
1419.737793 128.0
1419.879517 300.0
1421.214844 108.0
1421.3573 124.0
1421.650024 104.0
1422.032715 60.0
1422.378052 172.0
1422.498047 180.0
1422.858398 108.0
1423.511597 240.0
1423.774536 72.0
1425.562378 148.0
1425.637573 212.0
1425.720215 84.0
1425.802856 196.0
1426.276367 128.0
1427.735596 180.0
1427.93042 196.0
1428.366699 180.0
1428.83313 188.0
1429.231812 116.0
1429.472656 144.0
1430.127319 84.0
1430.300537 140.0
1430.661743 136.0
1431.459839 108.0
1431.512573 320.0
1431.693359 124.0
1431.941895 160.0
1432.514282 120.0
1432.657349 144.0
1432.868286 132.0
1433.09436 184.0
1433.879272 188.0
1434.307861 236.0
1434.910767 176.0
1435.242432 72.0
1435.581787 120.0
1435.770264 160.0
1435.853271 76.0
1436.056885 188.0
1436.230347 208.0
1436.441528 140.0
1436.615112 176.0
1437.022461 128.0
1437.505371 128.0
1437.573242 212.0
1437.678955 96.0
1437.935547 168.0
1438.947021 32.0
1439.060303 156.0
1439.634155 52.0
1439.883301 132.0
1440.374268 56.0
1440.842651 188.0
1441.046631 128.0
1441.258179 176.0
1441.915527 108.0
1443.157715 172.0
1443.63916 188.0
1443.722412 172.0
1444.134521 116.0
1444.312134 176.0
1444.41394 208.0
1444.524048 148.0
1444.752563 96.0
1445.038574 92.0
1445.41687 152.0
1445.601562 412.0
1446.060059 164.0
1446.794312 220.0
1446.885132 156.0
1446.945679 216.0
1447.490845 136.0
1447.658936 144.0
1447.930054 252.0
1449.445068 108.0
1449.975586 140.0
1450.089233 108.0
1450.225708 164.0
1450.703247 144.0
1450.869995 124.0
1451.855713 120.0
1452.561035 204.0
1452.674805 188.0
1453.205811 272.0
1453.448608 140.0
1453.668701 184.0
1453.744629 208.0
1454.124023 132.0
1454.655396 208.0
1455.444946 156.0
1455.642334 220.0
1455.8573 176.0
1455.946045 180.0
1456.120728 208.0
1456.302979 60.0
1456.843262 168.0
1457.442505 144.0
1457.784424 200.0
1457.845215 168.0
1458.468384 176.0
1459.304688 184.0
1459.86731 124.0
1460.118286 44.0
1460.483276 136.0
1461.906006 212.0
1462.563721 196.0
1462.933472 144.0
1463.139038 220.0
1463.45813 172.0
1463.572998 148.0
1464.243164 196.0
1464.380249 188.0
1464.524902 196.0
1464.669678 168.0
1464.753418 156.0
1465.264282 196.0
1465.378052 152.0
1465.477173 148.0
1465.69458 136.0
1465.835205 200.0
1466.704102 196.0
1466.833618 120.0
1466.925171 252.0
1467.207153 144.0
1467.641724 196.0
1467.695068 180.0
1468.26709 168.0
1468.533936 164.0
1469.838501 132.0
1470.563477 52.0
1470.78479 160.0
1470.884033 152.0
1470.975586 164.0
1471.517578 156.0
1471.609253 244.0
1471.670288 172.0
1471.830688 212.0
1472.036865 184.0
1473.549194 176.0
1473.934814 152.0
1474.122192 292.0
1474.343872 68.0
1474.618896 228.0
1474.984985 152.0
1475.360352 236.0
1475.475098 52.0
1475.842041 156.0
1476.033203 132.0
1476.505615 92.0
1477.256836 96.0
1477.357056 152.0
1478.167358 148.0
1478.243774 224.0
1478.83313 144.0
1479.055054 200.0
1479.162231 176.0
1479.575562 108.0
1480.042603 132.0
1480.22644 184.0
1480.417847 172.0
1480.953979 48.0
1481.022827 144.0
1481.076416 120.0
1481.842529 68.0
1482.018677 152.0
1482.233276 180.0
1482.598877 276.0
1482.731323 120.0
1482.861694 128.0
1483.106934 152.0
1483.804443 48.0
1484.195557 116.0
1484.8396 176.0
1485.023682 208.0
1485.564941 192.0
1485.69104 164.0
1486.036255 136.0
1486.427612 132.0
1486.508423 152.0
1486.665527 140.0
1486.776611 192.0
1487.310181 40.0
1487.379272 324.0
1487.786133 156.0
1488.177612 96.0
1488.953125 168.0
1489.137451 132.0
1489.705933 128.0
1489.990112 176.0
1490.082275 188.0
1490.15918 148.0
1490.41272 140.0
1490.996704 112.0
1491.119629 168.0
1491.680786 152.0
1491.842529 152.0
1492.042114 164.0
1492.12146 228.0
1492.634033 264.0
1492.849365 116.0
1493.11084 176.0
1493.603027 132.0
1493.687744 236.0
1493.840942 200.0
1494.541626 144.0
1495.018677 156.0
1495.195679 228.0
1495.272705 156.0
1496.17749 176.0
1496.558228 220.0
1497.550171 108.0
1497.705566 60.0
1497.952148 48.0
1498.468262 116.0
1498.831055 132.0
1498.938232 200.0
1499.046997 184.0
1500.040283 176.0
1500.549072 180.0
1501.111938 60.0
1501.528442 160.0
1502.091431 108.0
1502.230347 172.0
1502.407715 148.0
1502.693115 128.0
1502.770386 60.0
1503.304443 168.0
1503.858398 184.0
1504.074463 196.0
