>compound MLS001141315-01!
>formula C29H32N4O4S
>ionization [M+H]+
>parentmass 533.222
#inchi InChI=1S/C29H32N4O4S/c1-38-14-12-23(27(34)30-16-17-7-6-13-37-17)32-28(35)24-15-21-18-8-4-5-11-22(18)31-25(21)26-19-9-2-3-10-20(19)29(36)33(24)26/h2-5,8-11,17,23-24,26,31H,6-7,12-16H2,1H3,(H,30,34)(H,32,35)/t17?,23-,24-,26?/m0/s1
#inchikey VFAWLHPUAWSITG
#Ion_Source LC-ESI
#Instrument qTof
#Compound_Source NIH Natural Product Library
#PI Dorrestein
#Data_Collector VVP/LMS
#Scan -1
#Precursor_MZ 533.222
#ExactMass 532.214
#Charge 1
#CAS_Number N/A
#Pubmed_ID N/A
#Smiles CSCC[C@H](NC(=O)[C@@H]1Cc2c([nH]c3ccccc23)C4N1C(=O)c5ccccc45)C(=O)NCC6CCCO6
#INCHI_AUX N/A
#Library_Class 1
#SpectrumID CCMSLIB00000080522
#IonMode Positive
#UpdateWorkflowName UPDATE-SINGLE-ANNOTATED-GOLD
#LibraryQualityString Gold
#TaskID b1d8e8f6646f4e71acdff9ca3d919d08
##Scan# 2073
#SpectrumFile p2-B10_GB10_01_17998.mzXML
#LibraryName NIH_Natural_Products_Library.mgf
#MQScore -1
#Organism NIH_Natural_Products_Library
#TIC_Query 0
#RT_Query -1
#MZErrorPPM -1
#SharedPeaks 0
#MassDiff 0
#LibMZ -1
#SpecMZ 533.222
#SpecCharge 0
#internalFilename spec-00000.mgf

>collision 10
95.225502 112.0
95.477577 200.0
95.579315 148.0
95.684418 120.0
95.92598 196.0
96.081993 196.0
96.140526 188.0
96.236176 128.0
96.341644 128.0
96.511147 252.0
96.597725 112.0
96.734703 108.0
97.318932 112.0
97.354279 104.0
97.452492 180.0
97.507515 152.0
97.633331 164.0
97.692429 188.0
97.781944 104.0
97.814346 132.0
97.8675 192.0
97.898788 216.0
97.954155 128.0
98.08815 116.0
98.180817 140.0
98.277473 148.0
98.581566 156.0
98.644814 180.0
98.739716 152.0
98.789169 176.0
98.909874 156.0
99.109894 188.0
99.137642 76.0
99.45298 136.0
99.500618 128.0
99.54232 140.0
99.814552 100.0
99.850342 168.0
99.90007 120.0
100.107063 140.0
100.234558 188.0
100.298332 92.0
100.463837 164.0
100.491768 196.0
100.529678 160.0
100.619499 128.0
100.659431 160.0
100.789268 196.0
100.953186 48.0
100.977188 124.0
101.011185 140.0
101.087212 200.0
101.105225 60.0
101.283417 148.0
101.403633 124.0
101.433701 164.0
101.614189 180.0
101.686424 76.0
101.740623 180.0
101.885216 128.0
102.091438 8484.0
102.15062 176.0
102.18782 124.0
102.247154 188.0
102.279358 228.0
102.345795 48.0
102.373985 140.0
102.45858 152.0
102.482758 76.0
102.561523 184.0
102.611748 160.0
102.769066 128.0
103.043648 172.0
103.067894 48.0
103.094704 612.0
103.235672 124.0
103.253876 68.0
103.391449 40.0
103.628365 124.0
103.654701 52.0
103.689156 104.0
103.770233 164.0
103.810791 96.0
103.857437 72.0
103.891922 80.0
103.938583 152.0
103.989319 108.0
104.051636 440.0
104.096916 164.0
104.137535 120.0
104.192383 156.0
104.206604 76.0
104.222855 100.0
104.536003 208.0
104.778297 64.0
104.880188 244.0
105.000481 148.0
105.035156 160.0
105.051476 160.0
105.159622 80.0
105.304581 144.0
105.410812 212.0
105.451683 108.0
105.660255 116.0
105.688904 128.0
105.828087 132.0
105.970169 224.0
105.993996 176.0
106.049332 48.0
106.073929 68.0
106.160034 136.0
106.235924 200.0
106.480186 40.0
106.521263 108.0
106.576736 224.0
106.619888 100.0
106.658936 144.0
106.683601 76.0
106.706223 148.0
107.010719 112.0
107.115746 140.0
107.224945 120.0
107.24144 192.0
107.297096 172.0
107.474464 192.0
107.505417 144.0
107.519867 180.0
107.730476 100.0
107.8834 80.0
108.057121 128.0
108.239258 144.0
108.284821 148.0
108.365608 156.0
108.475441 144.0
108.578217 248.0
108.728493 212.0
108.786606 140.0
108.96521 88.0
108.993416 148.0
109.051682 176.0
109.073273 168.0
109.187622 180.0
109.228699 60.0
109.340538 312.0
109.381126 152.0
109.420677 104.0
109.464401 168.0
109.495636 196.0
109.512299 148.0
109.63105 68.0
110.006485 260.0
110.165192 104.0
110.229958 160.0
110.401375 168.0
110.718597 124.0
110.840973 136.0
110.956253 168.0
111.071632 184.0
111.567169 72.0
111.630249 192.0
111.889046 108.0
112.291519 60.0
112.616554 156.0
112.72641 128.0
112.916672 180.0
113.037254 208.0
113.096512 92.0
113.181198 120.0
113.200256 36.0
113.33625 188.0
113.426949 208.0
113.60083 200.0
114.051003 112.0
114.104141 128.0
114.131783 88.0
114.161552 120.0
114.180695 92.0
114.546783 148.0
114.619225 108.0
114.819611 192.0
114.851601 212.0
115.051476 516.0
115.182449 144.0
115.263634 160.0
115.353394 84.0
115.567261 108.0
115.642159 56.0
115.687111 92.0
115.783463 140.0
115.980576 128.0
116.070618 180.0
116.115654 172.0
116.25724 160.0
116.293724 160.0
116.362419 236.0
116.697586 136.0
116.992332 148.0
117.080612 152.0
117.119377 96.0
117.136612 144.0
117.222786 208.0
117.246498 176.0
117.285294 200.0
117.324089 132.0
117.470734 180.0
117.566757 160.0
117.584343 128.0
117.608833 88.0
117.639053 180.0
117.65416 128.0
117.777252 176.0
117.818291 40.0
117.902565 140.0
118.03875 216.0
118.080643 184.0
118.168533 128.0
118.285393 68.0
118.304871 120.0
118.37632 148.0
118.430466 132.0
118.488953 172.0
118.588631 100.0
118.660172 128.0
118.907455 120.0
119.617134 128.0
119.812019 136.0
119.844704 176.0
119.868668 144.0
120.071411 112.0
120.115028 184.0
120.313614 132.0
121.046066 152.0
121.126152 248.0
121.195015 184.0
121.292648 128.0
121.396675 52.0
121.66436 192.0
121.699486 168.0
121.76976 188.0
121.802704 136.0
121.877838 180.0
121.910362 76.0
121.949921 136.0
121.98069 128.0
122.122833 224.0
122.147812 96.0
122.200607 156.0
122.295235 136.0
122.392097 72.0
122.535263 192.0
123.060181 128.0
123.493309 148.0
123.535332 136.0
123.584007 112.0
123.745575 116.0
123.798721 176.0
123.816437 88.0
123.940491 112.0
124.031349 148.0
124.11116 40.0
124.188774 160.0
124.430656 120.0
124.540314 220.0
124.90303 184.0
124.917778 164.0
124.946266 132.0
125.044174 128.0
125.162155 156.0
125.454018 112.0
125.511986 204.0
125.57666 120.0
125.61235 144.0
125.703819 196.0
125.777473 164.0
125.90802 72.0
126.101334 124.0
126.166161 92.0
126.185623 68.0
126.341507 236.0
126.58123 156.0
126.685349 104.0
126.732399 132.0
126.75032 76.0
126.777214 204.0
127.490845 124.0
127.544785 176.0
127.690933 232.0
127.879921 120.0
127.927193 180.0
128.075806 152.0
128.623734 168.0
129.073318 148.0
129.442154 148.0
129.69426 184.0
129.93399 48.0
130.029144 572.0
130.062897 332.0
130.09079 136.0
130.160965 200.0
130.4254 152.0
130.504074 96.0
130.642807 176.0
130.752014 72.0
131.01387 128.0
131.038254 216.0
131.06749 172.0
131.164276 108.0
131.278488 208.0
131.351242 64.0
131.39003 128.0
131.615982 112.0
131.721039 96.0
131.805573 100.0
131.826141 204.0
131.846085 208.0
131.871841 136.0
131.903839 104.0
132.047379 144.0
132.100494 96.0
132.118805 176.0
132.318802 184.0
132.377441 144.0
132.574448 116.0
132.647781 76.0
132.778488 184.0
132.803711 188.0
132.835815 152.0
132.881699 132.0
132.981201 144.0
133.125015 228.0
133.170944 136.0
133.320282 224.0
133.545578 112.0
133.734253 96.0
133.865906 128.0
134.054367 268.0
134.072815 148.0
134.10968 148.0
134.199585 72.0
134.323196 120.0
134.351807 176.0
134.524887 104.0
134.594147 164.0
134.700378 116.0
134.730408 92.0
134.802048 140.0
134.845947 180.0
134.873688 332.0
134.970779 60.0
135.049408 128.0
135.278488 108.0
135.417603 100.0
135.517029 176.0
135.565689 156.0
135.583206 136.0
135.720993 108.0
135.864792 44.0
136.087601 132.0
136.343109 180.0
136.377579 164.0
136.386795 136.0
136.397186 136.0
136.429123 172.0
136.577942 180.0
136.685211 180.0
136.78038 108.0
136.810638 128.0
137.220673 172.0
137.293762 104.0
137.542603 124.0
137.699036 100.0
137.745743 48.0
138.143143 160.0
138.166534 180.0
138.196945 32.0
138.384186 144.0
138.585617 152.0
138.662949 84.0
138.805954 144.0
138.855194 148.0
138.984222 144.0
139.120346 148.0
139.315262 176.0
139.759598 84.0
139.792542 212.0
139.82785 68.0
139.926712 76.0
139.957321 180.0
139.994995 172.0
140.018539 256.0
140.051178 164.0
140.086853 164.0
140.112762 152.0
140.306015 132.0
140.353165 48.0
140.46637 104.0
140.659866 140.0
140.735413 136.0
140.756668 180.0
140.820435 56.0
141.156006 192.0
141.193848 232.0
141.224594 176.0
141.331039 180.0
141.458847 116.0
141.532242 124.0
141.555923 176.0
141.790451 80.0
141.844955 256.0
141.880524 176.0
141.956741 188.0
141.996704 220.0
142.064484 224.0
142.089218 204.0
142.136673 140.0
142.193619 220.0
142.376434 132.0
142.480026 160.0
142.518951 80.0
142.718613 164.0
142.889862 112.0
142.930313 108.0
142.977905 120.0
143.064789 72.0
143.163589 148.0
143.294601 100.0
143.37561 140.0
143.855042 192.0
143.895615 144.0
144.043686 132.0
144.07814 360.0
144.139252 168.0
144.201385 116.0
144.31134 132.0
144.526611 160.0
144.782043 208.0
144.830643 112.0
144.861786 360.0
144.993561 200.0
145.081085 196.0
145.173355 168.0
145.40126 204.0
145.514084 180.0
145.545303 216.0
145.708618 176.0
145.933167 160.0
145.968201 136.0
146.006485 144.0
146.061996 136.0
146.372467 160.0
146.401367 160.0
146.642273 164.0
146.722015 132.0
146.741791 184.0
146.873749 196.0
146.900284 216.0
146.92923 76.0
146.960587 176.0
147.23819 100.0
147.38797 120.0
147.440155 228.0
147.574081 132.0
147.780518 180.0
147.815964 148.0
147.927292 184.0
147.987808 160.0
148.038666 164.0
148.070145 164.0
148.186417 144.0
148.273651 116.0
148.387589 128.0
148.416672 160.0
148.610718 116.0
148.81459 156.0
148.846161 204.0
148.933594 40.0
148.957336 144.0
148.982178 72.0
149.388138 188.0
149.529266 216.0
149.743515 148.0
149.853134 176.0
149.872635 128.0
150.050552 180.0
150.074936 168.0
150.235901 156.0
150.316406 228.0
150.830673 136.0
150.936859 132.0
150.961304 32.0
151.046906 144.0
151.147217 152.0
151.194656 124.0
151.270294 192.0
151.394455 160.0
151.504669 152.0
151.67131 124.0
151.759567 216.0
151.788986 188.0
151.867462 64.0
151.921432 108.0
152.505844 156.0
152.630524 212.0
152.72467 92.0
152.820618 152.0
152.997818 144.0
153.350067 152.0
153.36731 84.0
153.87796 60.0
153.907578 128.0
154.164474 28.0
154.295486 80.0
154.349884 156.0
154.379547 104.0
154.545059 172.0
154.634369 140.0
154.671494 108.0
154.763092 128.0
154.896835 196.0
154.951324 136.0
154.988495 120.0
155.059631 232.0
155.089203 144.0
155.204453 188.0
155.288452 136.0
155.365341 92.0
155.41745 132.0
155.454666 104.0
155.859131 172.0
156.04274 132.0
156.075668 136.0
156.252258 200.0
156.30574 120.0
156.531723 100.0
156.583328 112.0
156.653061 132.0
156.71286 180.0
157.054382 108.0
157.316391 152.0
157.346359 48.0
157.55864 128.0
157.65358 144.0
157.70607 132.0
157.75856 148.0
157.988632 148.0
158.096222 180.0
158.141266 232.0
158.281464 88.0
158.346573 68.0
158.38414 124.0
158.406677 176.0
158.644745 152.0
158.735001 104.0
158.762589 140.0
158.953247 120.0
158.998413 148.0
159.036057 120.0
159.087692 188.0
159.523361 116.0
159.583694 204.0
159.729553 100.0
159.805023 132.0
159.90065 140.0
159.963577 128.0
159.999191 108.0
160.079391 164.0
160.230515 88.0
160.263275 180.0
160.311142 168.0
160.3918 104.0
160.485077 72.0
160.593506 200.0
160.760025 100.0
160.802917 200.0
160.845825 136.0
160.945892 120.0
161.046097 208.0
161.070557 104.0
161.424393 200.0
161.730515 144.0
161.887482 84.0
161.948257 108.0
162.05719 208.0
162.145889 92.0
162.181366 172.0
162.385681 172.0
162.422241 264.0
162.457764 104.0
162.478058 88.0
162.536407 252.0
162.602386 172.0
162.625229 228.0
162.929947 208.0
163.014771 160.0
163.041748 240.0
163.05954 96.0
163.237488 208.0
163.400284 232.0
163.471527 220.0
163.632141 196.0
163.759201 56.0
163.871292 112.0
163.906952 176.0
164.206543 132.0
164.386353 120.0
164.496094 124.0
164.618912 196.0
164.754013 124.0
164.799652 116.0
164.904785 220.0
165.15535 52.0
165.216736 128.0
165.270462 172.0
165.48291 164.0
165.549484 152.0
165.664734 124.0
165.780029 160.0
165.815918 180.0
165.850677 220.0
165.928696 140.0
166.144135 152.0
166.45726 40.0
166.624207 84.0
166.652466 188.0
166.855515 104.0
167.05983 268.0
167.17189 136.0
167.434464 144.0
167.514313 104.0
167.550385 104.0
167.668915 60.0
167.743652 168.0
167.820999 120.0
168.004105 116.0
168.089249 156.0
168.386124 164.0
168.404205 164.0
168.435196 160.0
168.492035 100.0
168.672928 184.0
168.691025 108.0
168.895294 148.0
168.962555 140.0
169.075974 164.0
169.14888 132.0
169.299042 136.0
169.368973 192.0
169.389694 104.0
169.488144 236.0
169.506287 148.0
169.609955 160.0
169.664383 216.0
169.727982 120.0
169.749954 132.0
169.830353 136.0
169.890015 148.0
170.030121 128.0
170.061234 796.0
170.10112 124.0
170.188477 196.0
170.214432 176.0
170.419113 160.0
170.569794 180.0
170.62236 64.0
170.674362 132.0
170.692551 180.0
170.775772 144.0
170.942276 112.0
171.020355 140.0
171.063141 176.0
171.114059 60.0
171.275528 176.0
171.338043 84.0
171.431839 152.0
171.483963 80.0
171.530884 156.0
171.674286 124.0
171.723831 96.0
171.770782 136.0
171.819168 212.0
171.961258 196.0
172.034348 112.0
172.081329 132.0
172.117889 188.0
172.231903 228.0
172.347748 200.0
172.383026 20.0
172.616974 148.0
173.037094 128.0
173.047989 72.0
173.061707 108.0
173.068054 176.0
173.376144 216.0
173.518158 112.0
173.606827 152.0
173.845551 60.0
173.866547 100.0
174.244659 200.0
174.289322 156.0
174.544296 232.0
175.033722 160.0
175.531738 176.0
175.689987 108.0
175.961823 124.0
176.022552 160.0
176.101715 168.0
176.223297 120.0
176.368637 112.0
176.521973 128.0
176.553711 128.0
176.606613 128.0
176.662155 68.0
176.826202 108.0
177.355927 176.0
177.549469 148.0
177.642303 104.0
177.660873 224.0
178.059021 148.0
178.191833 96.0
178.29422 216.0
178.377869 152.0
178.433685 168.0
178.476227 96.0
178.630478 104.0
178.687881 132.0
178.715622 248.0
178.87529 176.0
179.056351 104.0
179.186874 128.0
179.373413 116.0
179.514725 168.0
179.800171 248.0
179.893585 172.0
179.930969 136.0
180.081314 184.0
180.12323 40.0
180.149948 184.0
180.350357 72.0
180.406494 68.0
180.454605 260.0
180.858551 164.0
180.922806 156.0
180.992416 144.0
181.098557 132.0
181.17453 192.0
181.289749 128.0
181.402313 140.0
181.632919 176.0
181.681213 156.0
181.726822 100.0
181.748291 148.0
181.839523 204.0
181.965683 168.0
182.005966 124.0
182.0298 128.0
182.103806 156.0
182.13295 120.0
182.261505 148.0
182.352509 112.0
182.704758 200.0
182.73436 176.0
182.760132 200.0
182.844681 332.0
183.059982 160.0
183.091293 132.0
183.213562 164.0
183.396805 148.0
183.518112 72.0
183.736572 188.0
183.766251 148.0
183.998352 184.0
184.127975 196.0
184.209 160.0
184.314362 152.0
184.376511 160.0
184.411652 148.0
184.657684 92.0
184.844345 120.0
184.971558 140.0
185.074173 296.0
185.124054 184.0
185.318192 92.0
185.559418 112.0
185.694275 180.0
185.833344 36.0
185.928314 148.0
185.969025 148.0
186.069458 160.0
186.124298 204.0
186.169937 176.0
186.303024 152.0
186.324753 88.0
186.425293 148.0
186.743378 128.0
187.048492 176.0
187.121613 104.0
187.186966 244.0
187.278366 156.0
187.360138 192.0
187.391251 40.0
187.415771 124.0
187.541122 112.0
187.661072 100.0
187.819244 164.0
187.90654 148.0
187.936554 120.0
187.991119 140.0
188.100296 188.0
188.223068 136.0
188.261383 196.0
188.406143 48.0
188.769669 240.0
188.829819 180.0
188.868118 192.0
189.004898 180.0
189.155426 156.0
189.423782 116.0
189.492264 116.0
189.766342 108.0
189.855576 184.0
190.087265 156.0
190.133911 160.0
190.175079 168.0
190.424927 132.0
190.479874 84.0
190.817886 88.0
190.853622 168.0
190.980133 232.0
191.021393 152.0
191.067673 160.0
191.202988 180.0
191.345413 216.0
191.403946 52.0
191.503082 128.0
191.533371 116.0
191.607758 148.0
191.665619 108.0
191.847519 176.0
191.88887 148.0
192.079147 140.0
192.134323 108.0
192.153641 136.0
192.230896 168.0
192.346817 180.0
192.736206 108.0
192.844315 168.0
192.921387 132.0
192.996033 232.0
193.029221 148.0
193.209 68.0
193.233887 168.0
193.305832 168.0
193.482971 108.0
193.507889 92.0
193.624191 156.0
193.779312 92.0
193.815338 156.0
193.885895 156.0
194.095291 180.0
194.168289 232.0
194.214539 108.0
194.267242 196.0
194.328278 168.0
194.791901 144.0
194.816895 128.0
194.878021 184.0
194.966934 120.0
195.092575 196.0
195.264404 104.0
195.329987 192.0
195.417404 140.0
195.606644 72.0
195.790405 136.0
195.873962 148.0
195.901825 124.0
195.946396 112.0
195.977036 136.0
196.075409 120.0
196.116379 120.0
196.239029 160.0
196.300385 196.0
196.623978 168.0
196.816589 216.0
196.883621 60.0
197.073105 356.0
197.115479 96.0
197.347473 140.0
197.381027 176.0
197.453735 124.0
197.492889 128.0
197.515274 160.0
197.546036 48.0
197.666336 48.0
197.688736 148.0
197.741302 188.0
197.786682 156.0
197.830856 144.0
197.918259 176.0
198.001892 128.0
198.383331 96.0
198.515121 148.0
198.694626 104.0
198.770386 160.0
198.851761 68.0
198.885452 184.0
199.048828 180.0
199.086349 668.0
199.138138 92.0
199.163712 196.0
199.312317 140.0
199.793091 136.0
199.824997 188.0
200.046356 152.0
200.330109 116.0
200.443481 128.0
200.846634 100.0
200.914337 168.0
200.970749 140.0
201.007431 140.0
201.075165 124.0
201.15419 120.0
201.216309 120.0
201.30101 128.0
201.575012 104.0
201.846375 108.0
201.917084 120.0
202.06134 172.0
202.154709 200.0
202.194336 196.0
202.355682 236.0
202.392487 112.0
202.53125 92.0
202.610565 144.0
202.653656 136.0
202.749405 200.0
202.794754 188.0
202.939331 164.0
203.001709 172.0
203.061264 156.0
203.08815 176.0
203.208771 168.0
203.302414 132.0
203.33931 168.0
203.373367 108.0
203.407425 60.0
203.441498 200.0
203.469879 72.0
203.628891 144.0
203.682861 104.0
203.836273 108.0
203.8647 172.0
203.90448 180.0
204.029556 216.0
204.089249 140.0
204.234283 240.0
204.333862 120.0
204.399292 176.0
204.42775 68.0
204.544449 180.0
204.678253 28.0
204.779343 240.0
205.365051 128.0
205.41069 184.0
205.610413 212.0
205.667496 132.0
206.315933 156.0
206.444595 180.0
206.823669 180.0
207.062759 44.0
207.108582 200.0
207.475372 156.0
207.613007 172.0
207.704773 92.0
207.88266 88.0
208.040512 120.0
208.077316 356.0
208.138138 152.0
208.181213 52.0
208.204178 236.0
208.247269 108.0
208.319077 172.0
208.750198 108.0
208.790451 144.0
208.885361 128.0
209.081024 128.0
209.213425 124.0
209.279633 196.0
209.331467 160.0
209.363358 164.0
209.66275 156.0
209.827057 32.0
209.988541 120.0
210.060638 196.0
210.274155 136.0
210.316055 144.0
210.340546 152.0
210.672623 140.0
210.727524 156.0
211.03389 176.0
211.081375 184.0
211.104355 268.0
211.181366 36.0
211.201614 156.0
211.517014 56.0
211.769699 176.0
211.944626 184.0
212.061539 136.0
212.186188 160.0
212.206482 196.0
212.351471 100.0
212.552536 136.0
212.664825 164.0
212.690948 164.0
213.067413 388.0
213.120758 104.0
213.175964 80.0
213.257339 208.0
213.306747 192.0
213.492828 116.0
213.568451 140.0
213.61499 240.0
213.652802 232.0
213.804108 168.0
213.940903 136.0
213.972931 196.0
214.057373 116.0
214.165131 148.0
214.657654 196.0
214.812225 152.0
214.975616 160.0
215.133224 224.0
215.222351 164.0
215.346375 140.0
215.422333 312.0
215.454468 68.0
215.575592 228.0
215.831497 164.0
216.179581 184.0
216.384476 120.0
216.428391 200.0
216.653915 180.0
216.958405 168.0
216.993866 72.0
217.080292 144.0
217.193283 88.0
217.375183 188.0
217.483765 172.0
217.563019 148.0
217.724518 116.0
217.750946 40.0
217.894882 76.0
217.93895 160.0
217.994781 172.0
218.035919 128.0
218.073471 160.0
218.096832 752.0
218.162308 220.0
218.206406 128.0
218.244629 128.0
218.356369 168.0
218.571121 148.0
218.60643 64.0
218.712387 140.0
218.909637 196.0
218.989319 144.0
219.07753 100.0
219.102905 220.0
219.133499 180.0
219.248413 96.0
219.658249 132.0
219.708389 152.0
219.847076 176.0
219.953323 180.0
219.973984 144.0
220.086166 144.0
220.162628 180.0
220.425858 88.0
220.47905 112.0
220.524887 156.0
220.665268 184.0
220.8013 136.0
220.89003 176.0
220.940323 208.0
221.046829 184.0
221.103058 184.0
221.13858 268.0
221.316193 116.0
221.449448 200.0
221.48204 160.0
221.766479 104.0
221.849472 148.0
222.015518 128.0
222.460571 152.0
222.487289 168.0
222.555573 168.0
222.800049 76.0
222.986313 168.0
223.037506 216.0
223.088715 464.0
223.310394 124.0
223.340134 144.0
223.390701 160.0
223.485901 52.0
223.619812 144.0
223.70018 112.0
223.762695 124.0
223.869339 172.0
224.000931 132.0
224.092621 160.0
224.214462 156.0
224.489731 200.0
224.543411 144.0
224.647797 216.0
224.68956 156.0
224.865616 60.0
225.069366 536.0
225.104126 148.0
225.176117 180.0
225.274689 108.0
225.498795 76.0
225.576508 96.0
225.658722 272.0
226.028107 92.0
226.067001 104.0
226.11171 192.0
226.266235 128.0
226.31546 140.0
226.456207 212.0
226.488876 136.0
226.49852 124.0
226.504669 152.0
226.561035 84.0
226.593994 132.0
226.642883 216.0
226.964859 136.0
226.985596 344.0
227.08078 508.0
227.301605 44.0
227.33461 140.0
227.478668 196.0
227.878098 132.0
227.926163 124.0
228.082275 400.0
228.20871 40.0
228.322968 140.0
228.417236 232.0
228.488403 108.0
228.605759 136.0
228.88002 72.0
229.039291 120.0
229.108582 184.0
229.263809 216.0
229.480927 204.0
229.566711 96.0
229.762772 136.0
229.895538 84.0
229.973999 128.0
230.019272 236.0
230.095001 936.0
230.134003 196.0
230.218552 128.0
230.312164 136.0
230.40184 140.0
230.451141 176.0
230.680817 188.0
230.813843 128.0
230.913635 60.0
231.098328 356.0
231.236984 160.0
231.435135 240.0
231.521942 124.0
231.558289 176.0
231.585541 204.0
231.761246 180.0
232.074631 476.0
232.246292 112.0
233.005203 144.0
233.078125 144.0
233.136078 112.0
233.267212 200.0
233.628418 100.0
233.70752 144.0
233.75621 156.0
233.914474 112.0
233.947952 64.0
234.002747 156.0
234.091049 128.0
234.176331 144.0
234.392624 196.0
234.612061 32.0
234.69133 148.0
234.727921 44.0
234.770615 72.0
234.913971 204.0
234.953629 48.0
235.143356 180.0
235.255753 52.0
235.358841 224.0
235.509125 176.0
235.520203 172.0
235.585556 152.0
235.921707 168.0
236.163116 156.0
236.288696 124.0
236.331528 168.0
236.515152 180.0
236.588608 136.0
236.701904 172.0
236.815216 180.0
236.836655 128.0
237.284058 136.0
237.31778 152.0
237.624481 184.0
238.084915 112.0
238.149414 176.0
238.312225 180.0
238.346024 112.0
238.610352 148.0
238.927109 76.0
238.957886 204.0
239.124054 52.0
239.201004 156.0
239.46579 160.0
239.55513 112.0
239.721497 64.0
239.833145 88.0
239.980423 88.0
240.153107 60.0
240.307358 136.0
240.470901 80.0
240.50177 60.0
240.767288 152.0
240.825958 92.0
240.863022 212.0
240.930984 180.0
241.002045 96.0
241.178192 148.0
241.212204 56.0
241.391235 180.0
241.518402 236.0
241.608017 124.0
241.707031 48.0
241.778198 116.0
241.997986 132.0
242.155914 228.0
242.335587 100.0
242.626907 180.0
242.667206 72.0
242.695114 128.0
242.797455 136.0
242.856369 184.0
243.00528 72.0
243.114807 172.0
243.177765 168.0
243.281479 176.0
243.347305 160.0
243.520584 200.0
243.610657 68.0
243.647934 120.0
243.846573 108.0
244.030212 144.0
244.078323 572.0
244.129715 48.0
244.313217 160.0
244.350555 96.0
244.450119 160.0
244.571503 164.0
244.677338 252.0
244.774734 212.0
244.798767 184.0
244.904663 124.0
244.991882 96.0
245.013687 128.0
245.072296 460.0
245.109406 7356.0
245.169479 244.0
245.250504 128.0
245.278564 140.0
245.372086 60.0
245.421967 120.0
245.478088 144.0
245.556061 264.0
245.581009 140.0
245.643387 188.0
245.691864 208.0
245.783783 208.0
245.805634 116.0
245.853378 176.0
245.893005 204.0
245.983521 28.0
246.039719 276.0
246.093826 3148.0
246.295776 148.0
246.355133 168.0
246.476974 168.0
246.683243 196.0
246.723892 108.0
246.779037 112.0
246.811432 152.0
246.833313 120.0
246.908371 152.0
246.967789 136.0
247.096375 956.0
247.241776 140.0
247.308838 192.0
247.340134 92.0
247.462234 212.0
247.484146 88.0
247.59375 160.0
247.76915 140.0
247.950897 92.0
247.982239 148.0
248.037048 180.0
248.063736 180.0
248.09201 168.0
248.160492 208.0
248.261261 128.0
248.321457 132.0
248.716171 144.0
248.741287 92.0
248.782104 192.0
248.895126 92.0
248.961075 124.0
249.058426 100.0
249.105545 192.0
249.262634 40.0
249.285507 216.0
249.388336 128.0
249.69017 104.0
249.743637 52.0
249.785233 168.0
249.998474 188.0
250.102325 148.0
250.171585 128.0
250.277512 192.0
250.316406 180.0
250.45813 172.0
250.558929 232.0
250.911911 152.0
250.984421 184.0
251.034882 232.0
251.105316 108.0
251.154724 128.0
251.261978 172.0
251.388184 44.0
251.49234 204.0
251.571243 136.0
251.662796 112.0
251.707001 188.0
251.880707 136.0
252.076584 108.0
252.168228 180.0
252.275711 304.0
252.380035 204.0
252.446442 96.0
252.493881 152.0
252.712143 112.0
252.838806 136.0
252.955826 148.0
253.285141 164.0
253.392853 164.0
253.415024 152.0
253.522766 120.0
253.671722 168.0
253.697083 100.0
253.798538 160.0
254.077637 156.0
254.137924 196.0
254.277542 200.0
254.354675 252.0
254.506104 228.0
254.639481 96.0
254.798309 124.0
254.839615 180.0
254.988968 180.0
255.018036 136.0
255.09256 3516.0
255.139847 120.0
255.26236 64.0
255.434586 132.0
255.542267 136.0
255.567719 116.0
255.666367 280.0
255.755478 112.0
255.854156 156.0
255.931824 192.0
256.100037 4628.0
256.206329 136.0
256.382904 196.0
256.667084 136.0
256.762268 124.0
256.835632 124.0
256.905792 92.0
257.007904 176.0
257.104614 1712.0
257.170654 100.0
257.213684 92.0
257.323883 44.0
257.375458 160.0
257.438843 104.0
257.537842 100.0
257.652832 96.0
257.684784 160.0
257.771057 80.0
257.883575 76.0
257.975586 96.0
258.022766 48.0
258.079163 292.0
258.112183 448.0
258.304962 132.0
258.475342 204.0
258.509735 160.0
258.736969 220.0
258.794617 168.0
258.817017 192.0
258.986755 56.0
259.090057 220.0
259.115387 128.0
259.137085 116.0
259.14798 172.0
259.185364 96.0
259.307159 88.0
259.335999 140.0
259.682281 136.0
259.852295 48.0
259.951752 188.0
260.08725 232.0
260.311279 208.0
260.381927 228.0
260.417267 116.0
260.799591 116.0
260.860687 116.0
261.043945 28.0
261.092773 132.0
261.162933 144.0
261.40744 60.0
261.436401 60.0
261.475006 212.0
261.52652 144.0
261.600555 60.0
261.623413 200.0
261.644653 68.0
261.703552 92.0
262.048187 244.0
262.179474 184.0
262.20932 140.0
262.405945 188.0
262.586517 156.0
262.928497 196.0
263.002655 176.0
263.022797 220.0
263.051147 168.0
263.076965 108.0
263.164154 188.0
263.59375 56.0
263.629272 48.0
263.810272 200.0
263.897583 224.0
263.920197 76.0
264.266296 124.0
264.654694 96.0
264.852966 176.0
264.877594 232.0
264.988281 172.0
265.147064 120.0
266.084503 152.0
266.142944 140.0
266.263092 220.0
266.354034 88.0
266.393005 48.0
266.634003 216.0
266.662689 176.0
266.877258 152.0
267.01709 60.0
267.166718 52.0
267.192719 124.0
267.254547 44.0
267.358673 140.0
267.430267 108.0
267.593048 84.0
267.7005 116.0
268.087494 156.0
268.124481 160.0
268.286469 204.0
268.332611 216.0
268.422577 200.0
268.580444 120.0
268.609802 164.0
268.648956 168.0
268.958954 156.0
268.998108 172.0
269.020966 92.0
269.066681 200.0
269.127014 148.0
269.203796 84.0
269.305054 168.0
269.403046 84.0
269.484711 144.0
269.661194 52.0
269.742889 196.0
269.804993 112.0
269.903076 160.0
269.952148 384.0
269.984833 144.0
270.073761 140.0
270.101196 224.0
270.13858 144.0
270.272705 192.0
270.492065 164.0
270.593445 148.0
270.632751 176.0
270.733124 164.0
270.77356 32.0
270.829224 72.0
270.914398 64.0
270.973358 104.0
271.023254 240.0
271.048218 128.0
271.088318 14916.0
271.145416 124.0
271.194977 128.0
271.2388 136.0
271.297363 124.0
271.376495 84.0
271.432251 68.0
271.465759 244.0
271.504395 124.0
271.557861 116.0
271.602783 84.0
271.632294 76.0
271.668945 92.0
271.70166 136.0
271.730072 260.0
271.786499 32.0
271.832245 152.0
271.844879 192.0
271.881653 148.0
271.911194 140.0
271.94104 44.0
272.023712 196.0
272.090942 6920.0
272.134583 164.0
272.197876 144.0
272.23056 28.0
272.261475 344.0
272.316711 188.0
272.360992 152.0
272.398346 172.0
272.421265 116.0
272.444641 288.0
272.474182 272.0
272.514526 284.0
272.55838 144.0
272.587311 108.0
272.600006 96.0
272.608734 180.0
272.618011 140.0
272.651184 212.0
272.693939 184.0
272.733093 324.0
272.76239 100.0
272.793243 400.0
272.839172 172.0
272.888 552.0
272.913666 144.0
272.92511 300.0
272.955444 420.0
272.994598 148.0
273.000824 476.0
273.104553 213144.0
273.174805 344.0
273.197449 300.0
273.225342 384.0
273.259277 196.0
273.290253 156.0
273.302032 84.0
273.31723 104.0
273.357117 232.0
273.366028 252.0
273.415619 288.0
273.444366 144.0
273.482208 128.0
273.508392 224.0
273.527405 96.0
273.53418 224.0
273.56369 176.0
273.569122 72.0
273.594788 208.0
273.647705 2124.0
273.694672 304.0
273.731598 216.0
273.755157 88.0
273.791473 160.0
273.839081 188.0
273.897156 236.0
273.937592 220.0
273.989014 124.0
274.106964 50004.0
274.169983 264.0
274.202118 200.0
274.232758 260.0
274.238007 120.0
274.250305 220.0
274.287445 92.0
274.317993 196.0
274.363708 268.0
274.402466 184.0
274.448059 220.0
274.471313 160.0
274.512299 104.0
274.552979 44.0
274.604095 88.0
274.625061 68.0
274.63858 100.0
274.666412 144.0
274.729309 116.0
274.789032 120.0
274.849854 72.0
274.888184 52.0
274.89447 52.0
274.916351 96.0
274.931519 80.0
274.943085 80.0
274.970459 100.0
275.023193 192.0
275.108978 6796.0
275.176086 76.0
275.206543 104.0
275.245483 84.0
275.264069 200.0
275.344116 84.0
275.389435 36.0
275.429718 104.0
275.489746 148.0
275.540741 96.0
275.588654 48.0
275.652039 112.0
275.673645 60.0
275.705414 136.0
275.748077 88.0
275.773041 152.0
275.799103 160.0
275.832703 196.0
275.840118 192.0
275.852112 152.0
275.8685 140.0
275.874939 96.0
275.919098 104.0
275.931671 96.0
275.95343 352.0
275.977692 140.0
276.028503 68.0
276.096924 404.0
276.174316 116.0
276.226776 108.0
276.252808 148.0
276.284485 240.0
276.314575 96.0
276.361176 140.0
276.441681 44.0
276.467651 104.0
276.548981 104.0
276.687988 116.0
276.770264 104.0
276.796753 92.0
276.84137 152.0
276.853424 112.0
276.862762 56.0
276.909668 88.0
276.939178 140.0
276.979584 84.0
277.01535 96.0
277.061737 136.0
277.136749 112.0
277.202118 100.0
277.359955 64.0
277.383179 112.0
277.422943 76.0
277.470551 168.0
277.577881 60.0
277.611938 36.0
277.661682 32.0
277.704803 100.0
277.747925 32.0
277.900513 272.0
277.933685 128.0
278.056488 80.0
278.113007 76.0
278.172638 92.0
278.206177 84.0
278.288849 84.0
278.417297 164.0
278.494751 76.0
278.92337 124.0
278.953278 92.0
279.275818 108.0
279.505371 76.0
279.641815 60.0
279.718353 76.0
279.768585 76.0
279.974731 84.0
280.504486 44.0
280.591156 76.0
280.881287 124.0
280.917969 168.0
281.031403 72.0
281.174896 48.0
281.478699 48.0
281.535461 68.0
281.655701 96.0
281.909607 164.0
282.093414 112.0
282.120178 76.0
282.4646 60.0
282.685425 76.0
282.722229 52.0
282.862793 56.0
283.010101 80.0
283.056976 80.0
283.08844 308.0
283.127289 104.0
283.200989 76.0
283.45224 104.0
283.673431 60.0
283.720367 48.0
283.759491 84.0
283.804199 52.0
283.928253 80.0
283.995331 204.0
284.095093 648.0
284.166412 112.0
284.230164 64.0
284.30954 136.0
284.35434 96.0
284.723633 48.0
284.769287 148.0
284.807617 124.0
284.931885 92.0
285.047241 184.0
285.103546 8412.0
285.175507 80.0
285.298218 68.0
285.403809 108.0
285.445374 88.0
285.492371 48.0
285.540314 140.0
285.605713 108.0
285.69809 88.0
285.717224 200.0
285.778931 60.0
285.866638 84.0
286.031555 104.0
286.106293 2552.0
286.145752 92.0
286.150757 212.0
286.270569 52.0
286.324463 60.0
286.570374 72.0
286.631012 100.0
286.677399 104.0
286.779297 44.0
286.890533 68.0
286.924255 48.0
287.018646 136.0
287.084198 140.0
287.112366 364.0
287.318817 108.0
287.362671 48.0
287.541534 36.0
287.659668 92.0
287.727173 104.0
287.943298 28.0
288.004089 60.0
288.041229 112.0
288.108643 92.0
288.113373 124.0
288.292206 56.0
288.524475 48.0
288.791595 88.0
289.109619 64.0
289.17392 124.0
289.695374 76.0
289.725861 196.0
289.949493 108.0
289.990173 88.0
290.125763 128.0
290.191864 40.0
290.363129 60.0
290.576813 60.0
290.682007 64.0
291.358124 60.0
291.429016 80.0
292.418579 60.0
292.6875 124.0
292.970184 124.0
293.976013 108.0
294.235413 240.0
295.096375 216.0
295.133972 176.0
295.455475 152.0
295.496521 124.0
296.098999 88.0
296.191467 64.0
296.556152 148.0
296.815216 156.0
297.336639 56.0
297.563171 40.0
297.700531 48.0
298.050903 188.0
298.11618 148.0
299.024109 152.0
299.083618 404.0
299.124146 128.0
299.313263 60.0
300.081909 392.0
300.117432 176.0
300.29541 52.0
300.768127 204.0
300.923462 168.0
301.096649 2340.0
301.559082 100.0
301.704254 60.0
301.922089 92.0
301.973969 148.0
302.100433 584.0
302.648773 168.0
303.101715 224.0
303.140625 48.0
303.431793 84.0
303.608643 192.0
303.795929 128.0
304.208893 52.0
304.40332 36.0
304.611694 100.0
304.907013 148.0
305.49118 204.0
306.135803 76.0
306.176849 100.0
306.410217 40.0
307.344635 64.0
307.473755 52.0
308.479675 104.0
309.56076 164.0
310.136658 352.0
310.433319 116.0
310.499969 72.0
311.118469 1332.0
311.401947 44.0
312.020386 172.0
312.126282 424.0
312.649994 156.0
313.092804 148.0
313.116119 136.0
313.122223 248.0
313.1922 40.0
314.140167 176.0
314.415619 172.0
315.088074 200.0
315.372742 64.0
316.579163 176.0
316.961731 124.0
318.078888 212.0
319.037994 124.0
319.116699 200.0
319.777863 32.0
319.884644 112.0
320.10733 336.0
320.15979 72.0
320.94986 128.0
321.110352 96.0
321.142456 156.0
321.856171 120.0
323.350433 76.0
324.858917 92.0
325.734802 176.0
327.594543 52.0
328.147064 1156.0
328.89267 56.0
329.09845 188.0
329.141144 440.0
330.1138 56.0
330.714355 56.0
331.08728 192.0
331.482117 60.0
332.439453 60.0
332.907745 112.0
332.944061 76.0
333.108185 892.0
333.143829 32.0
334.107025 272.0
334.172699 212.0
334.816986 116.0
335.111755 212.0
335.235931 92.0
335.615021 88.0
336.067291 132.0
336.10379 128.0
336.264343 116.0
336.417633 132.0
337.989197 120.0
338.121246 140.0
338.538269 120.0
339.00351 152.0
339.109802 96.0
340.448883 100.0
341.22049 72.0
342.118164 120.0
343.094391 160.0
343.123901 76.0
343.345123 84.0
344.138489 112.0
344.441315 68.0
344.729492 56.0
345.546631 88.0
347.510284 124.0
349.10379 156.0
355.15033 144.0
355.497803 208.0
356.084869 160.0
356.141479 6544.0
356.302734 84.0
357.081573 164.0
357.145142 2608.0
357.223785 52.0
357.268921 44.0
357.487152 100.0
357.566162 76.0
357.705444 44.0
358.137482 280.0
358.229187 44.0
358.530273 64.0
358.576263 100.0
358.61319 52.0
358.714966 68.0
358.761688 80.0
358.794128 80.0
358.850677 36.0
358.880829 100.0
359.123383 508.0
359.193848 52.0
359.220245 60.0
359.318329 52.0
359.420227 204.0
359.461731 108.0
359.639099 56.0
359.779877 204.0
360.130371 432.0
360.254578 108.0
360.55307 52.0
361.097504 88.0
361.430389 120.0
365.140411 124.0
366.175598 128.0
370.614502 96.0
372.532776 100.0
372.617279 72.0
373.874634 92.0
374.147919 76.0
375.643127 52.0
375.982666 36.0
377.145203 148.0
378.7742 76.0
379.115143 60.0
380.410583 44.0
383.436676 148.0
384.126801 84.0
384.630157 92.0
385.063538 124.0
385.934967 112.0
386.126587 304.0
387.077515 100.0
387.134399 160.0
389.54837 48.0
389.846985 84.0
392.101959 96.0
392.39035 120.0
394.102631 72.0
395.241364 100.0
395.387787 68.0
395.949951 140.0
398.194702 128.0
398.893982 84.0
400.780396 212.0
400.816254 60.0
400.864075 88.0
402.180145 116.0
402.755127 64.0
403.234589 96.0
403.610352 68.0
404.050293 152.0
404.143158 6288.0
404.338409 132.0
404.418457 64.0
404.570557 56.0
404.646606 132.0
404.718689 48.0
404.904907 40.0
405.053345 156.0
405.063843 88.0
405.081726 172.0
405.095703 200.0
405.148926 1908.0
405.196472 176.0
405.867767 220.0
405.896698 96.0
406.000977 120.0
406.143005 460.0
406.622803 88.0
407.025299 136.0
407.148743 96.0
407.482117 140.0
407.514252 132.0
407.747345 64.0
407.920166 136.0
408.269958 108.0
408.475067 56.0
408.635986 104.0
408.682617 56.0
409.086731 68.0
410.557373 96.0
412.729858 48.0
414.263733 48.0
415.127014 108.0
416.129242 92.0
417.331879 108.0
417.685669 44.0
420.705231 36.0
421.060455 84.0
421.276947 64.0
421.947144 92.0
422.949371 40.0
425.027161 112.0
425.515564 72.0
426.127533 132.0
427.760162 88.0
428.728058 88.0
429.433044 32.0
430.766266 76.0
431.03479 104.0
431.146393 124.0
432.589874 96.0
434.608185 68.0
435.197571 60.0
435.990967 44.0
436.722687 88.0
439.09668 104.0
439.188446 48.0
442.238556 48.0
443.708862 120.0
446.219452 60.0
447.271149 64.0
448.846771 104.0
449.188385 76.0
451.219635 76.0
451.684784 124.0
453.162231 72.0
453.200378 92.0
454.222076 64.0
457.749573 92.0
463.079254 60.0
466.443146 100.0
467.768036 36.0
470.773132 60.0
473.74884 96.0
475.960724 72.0
477.233826 76.0
481.840607 80.0
483.270294 120.0
485.224701 452.0
485.306946 56.0
485.670929 72.0
486.026276 76.0
486.237854 272.0
487.229248 180.0
487.813721 48.0
488.187439 76.0
488.653687 44.0
490.326965 36.0
490.688446 96.0
491.989868 48.0
492.639038 56.0
493.173706 88.0
493.783844 44.0
497.146332 96.0
499.318726 112.0
501.076965 52.0
501.839111 128.0
502.067688 136.0
505.175171 48.0
505.77478 124.0
507.759613 140.0
509.339478 48.0
512.763489 124.0
515.221802 152.0
517.221375 148.0
521.184998 60.0
524.065125 68.0
524.73053 76.0
526.880066 32.0
530.389893 52.0
531.545593 100.0
533.313721 192.0
534.210388 124.0
535.863098 76.0
537.555298 44.0
544.188171 124.0
544.977783 96.0
546.381836 40.0
551.235535 76.0
552.413696 52.0
553.012634 144.0
553.579102 148.0
555.195862 68.0
560.705688 44.0
563.470764 72.0
565.267517 140.0
568.760315 92.0
571.136047 72.0
571.193176 124.0
575.506042 52.0
576.150818 52.0
578.853149 80.0
579.744141 100.0
582.070679 96.0
582.868042 64.0
584.714661 88.0
586.462952 68.0
590.755615 56.0
601.577759 76.0
603.072388 76.0
606.400574 92.0
607.547974 96.0
607.592102 96.0
613.123779 88.0
626.482178 52.0
632.219055 40.0
643.670349 80.0
644.140015 48.0
648.587769 56.0
650.581299 72.0
650.77417 56.0
650.809753 128.0
655.153015 136.0
655.234558 148.0
659.745911 112.0
661.93573 52.0
666.511169 88.0
667.210144 96.0
672.572632 60.0
674.742249 128.0
678.977844 100.0
679.646973 88.0
693.461182 100.0
700.523132 40.0
701.487488 60.0
702.431335 108.0
703.370605 80.0
709.565186 52.0
714.19043 92.0
716.117188 92.0
718.442322 92.0
720.197388 72.0
726.578125 72.0
731.721313 36.0
736.347839 32.0
750.238647 112.0
762.499573 144.0
771.904236 60.0
773.569519 100.0
774.051208 88.0
778.326355 56.0
791.849487 52.0
807.993408 36.0
825.717957 72.0
833.284424 68.0
846.214966 52.0
852.700195 220.0
900.413391 72.0
919.999939 44.0
922.506897 104.0
926.361572 112.0
939.589783 108.0
941.390381 48.0
948.425964 212.0
956.650879 56.0
958.13501 64.0
964.509521 112.0
990.838867 116.0
992.361816 60.0
992.763123 36.0
993.534607 40.0
994.676697 128.0
996.642334 68.0
1025.378418 80.0
1026.38562 52.0
1029.869995 48.0
1034.595459 52.0
1038.119385 216.0
1039.036621 104.0
1041.642944 76.0
1056.456299 152.0
1057.659912 72.0
1061.981567 156.0
1065.785645 52.0
1067.73584 76.0
1071.029053 96.0
1083.099731 116.0
1085.616455 60.0
1096.074707 44.0
1103.976074 168.0
1107.894409 112.0
1120.663452 92.0
1127.416138 180.0
1130.171143 120.0
1137.610107 200.0
1141.009399 120.0
1145.67981 104.0
1154.94104 184.0
1158.040894 92.0
1161.558716 220.0
1169.026123 164.0
1169.324707 124.0
1177.683472 192.0
1183.126465 152.0
1185.448364 80.0
1188.383057 56.0
1188.520264 156.0
1198.710571 84.0
1201.109741 100.0
1213.682373 40.0
1229.863647 76.0
1231.050415 156.0
1238.953979 172.0
1241.526367 168.0
1253.018555 132.0
1253.800781 44.0
1270.366943 120.0
1274.015747 152.0
1286.741943 208.0
1287.17749 176.0
1291.737183 144.0
1293.46875 184.0
1296.340698 128.0
1305.859985 128.0
1321.173462 56.0
1322.345703 196.0
1328.185425 60.0
1331.059326 192.0
1333.710938 224.0
1334.234375 168.0
1353.100342 36.0
1353.942383 84.0
1377.618774 220.0
1385.415771 204.0
1390.806519 248.0
1391.133179 72.0
1392.759277 56.0
1393.026733 120.0
1397.82959 148.0
1401.716431 108.0
1403.095337 152.0
1407.026855 120.0
1407.377808 84.0
1411.434937 188.0
1416.501587 168.0
1417.520508 212.0
1421.044556 224.0
1421.644775 160.0
1426.962646 212.0
1433.940552 208.0
1436.745605 176.0
1440.39917 228.0
1447.364258 36.0
1456.821655 92.0
1464.641357 88.0
1465.494507 112.0
1471.870972 124.0
1476.991211 160.0
1483.116699 60.0
1490.184204 176.0
1490.929565 152.0
1491.00647 40.0
