>compound Meclizine dihydrochloride
>formula C25H27ClN2
>ionization [M+H]+
>parentmass 391.193054
#inchi InChI=1S/C25H27ClN2/c1-20-6-5-7-21(18-20)19-27-14-16-28(17-15-27)25(22-8-3-2-4-9-22)23-10-12-24(26)13-11-23/h2-13,18,25H,14-17,19H2,1H3
#inchikey OCJYIGYOJCODJL
#origInchi InChI=1S/C25H27ClN2.2ClH/c1-20-6-5-7-21(18-20)19-27-14-16-28(17-15-27)25(22-8-3-2-4-9-22)23-10-12-24(26)13-11-23;;/h2-13,18,25H,14-17,19H2,1H3;2*1H
#Ion_Source LC-ESI
#Instrument qTof
#Compound_Source Commercial
#PI Dorrestein
#Data_Collector Garg_Neha
#Scan -1
#Precursor_MZ 391.194
#ExactMass 390.186
#Charge 1
#CAS_Number 1104-22-9
#Pubmed_ID N/A
#Smiles C1(=CC=C(C=C1)C(N2CCN(CC2)CC3=CC=CC(=C3)C)C4=CC=CC=C4)Cl.Cl.Cl
#INCHI_AUX N/A
#Library_Class 1
#SpectrumID CCMSLIB00000078370
#IonMode Positive
#UpdateWorkflowName UPDATE-SINGLE-ANNOTATED-GOLD
#LibraryQualityString Gold
#TaskID 77f51c88eb8b467eb4a01dd2d0cb90d2
##Scan# 1564
#SpectrumFile Plate6_1_20_GD7_01_15774.mzXML
#LibraryName FDALibrary_2_04302014.mgf
#MQScore -1
#Organism FDALibrary_2_04302014
#TIC_Query 0
#RT_Query -1
#MZErrorPPM -1
#SharedPeaks 0
#MassDiff 0
#LibMZ -1
#SpecMZ 391.194
#SpecCharge 0
#internalFilename spec-00000.mgf

>collision 10
44.996399 160.0
45.01376 180.0
45.142048 172.0
45.175201 168.0
45.233032 140.0
45.261147 148.0
45.290611 168.0
45.72834 176.0
45.778156 176.0
45.861687 200.0
46.486542 144.0
46.580227 148.0
46.697124 144.0
46.736576 224.0
46.93692 156.0
47.044605 152.0
47.106014 124.0
47.521553 112.0
47.936165 168.0
48.024403 176.0
48.138954 152.0
48.515312 148.0
48.605576 156.0
48.685394 320.0
49.106308 176.0
49.180965 176.0
49.248676 164.0
49.26125 140.0
49.301769 180.0
49.318542 172.0
49.514427 184.0
49.558708 144.0
49.644768 204.0
49.686848 180.0
49.70509 144.0
50.227062 344.0
50.291706 128.0
50.393654 176.0
50.731911 224.0
50.788635 184.0
50.80566 292.0
50.922058 160.0
51.059925 164.0
51.135334 176.0
51.229313 200.0
51.303421 164.0
51.566074 220.0
51.686203 172.0
52.119255 144.0
52.340778 140.0
52.623432 160.0
52.70573 192.0
52.759209 172.0
52.844498 140.0
52.86335 148.0
52.942974 180.0
53.053097 140.0
53.109653 156.0
53.140118 176.0
53.182205 164.0
53.209785 172.0
53.263519 140.0
53.325489 148.0
53.395538 184.0
53.471447 152.0
53.75272 228.0
53.900208 172.0
53.977684 148.0
54.145981 196.0
54.250019 212.0
54.481895 172.0
54.505405 216.0
54.515659 184.0
54.571548 180.0
54.586689 176.0
54.648037 216.0
55.010681 136.0
55.053413 156.0
55.113979 156.0
55.316605 144.0
55.414349 260.0
55.445469 176.0
55.763084 180.0
55.795509 192.0
55.840401 140.0
56.017536 196.0
56.110828 204.0
56.259129 188.0
56.299442 228.0
56.320812 196.0
56.361885 160.0
56.410065 112.0
56.492264 156.0
56.607513 164.0
56.903912 144.0
56.943455 140.0
57.464321 140.0
57.577538 152.0
57.637966 148.0
57.76194 164.0
57.899681 144.0
58.606075 156.0
58.724388 112.0
58.824635 220.0
58.840157 180.0
58.94981 160.0
59.097744 156.0
59.394958 204.0
59.444054 192.0
59.620663 176.0
59.743675 144.0
59.762138 152.0
59.777527 152.0
59.865273 176.0
59.928432 140.0
59.945381 160.0
60.130352 128.0
60.19529 168.0
60.223091 144.0
60.35136 164.0
60.496796 196.0
60.555637 196.0
60.660904 120.0
60.96212 168.0
60.98077 180.0
61.150307 204.0
61.261189 168.0
61.49789 144.0
61.52755 180.0
61.608761 212.0
61.671001 212.0
62.031296 140.0
62.059517 164.0
62.221127 160.0
62.474155 200.0
62.721394 148.0
62.899643 164.0
62.984913 208.0
63.006855 144.0
63.021496 232.0
63.087631 252.0
63.261654 208.0
63.291737 172.0
63.427986 184.0
63.551689 156.0
63.697754 156.0
63.972866 140.0
64.130569 140.0
64.165642 168.0
64.282082 156.0
64.449631 164.0
64.627235 240.0
64.770706 280.0
64.832214 180.0
64.868767 124.0
64.885109 160.0
64.990967 180.0
65.007019 144.0
65.093704 140.0
65.346069 156.0
65.391991 140.0
65.677933 180.0
65.84903 168.0
66.117592 216.0
66.177109 164.0
66.325676 256.0
66.347427 172.0
66.584343 164.0
66.745232 168.0
66.85585 176.0
66.903053 192.0
66.937248 160.0
66.997238 212.0
67.397255 140.0
67.873589 152.0
67.906387 176.0
67.92115 156.0
67.969673 132.0
67.988426 152.0
68.032745 192.0
68.136208 168.0
68.261131 188.0
68.272644 180.0
68.371307 132.0
68.455765 176.0
68.567345 184.0
68.862518 168.0
69.203346 204.0
69.792389 148.0
69.880547 180.0
69.963768 144.0
70.013718 140.0
70.160355 232.0
70.196136 112.0
70.719971 216.0
70.964989 236.0
71.223007 196.0
71.382675 148.0
71.625031 176.0
71.710968 180.0
71.805389 184.0
71.945442 168.0
72.03495 180.0
72.156631 184.0
72.210747 144.0
72.260674 124.0
72.507034 168.0
72.547714 156.0
72.588409 172.0
72.601974 156.0
72.93306 156.0
73.029984 200.0
73.07251 188.0
73.130371 216.0
73.457542 180.0
73.616272 148.0
73.804245 160.0
73.882919 164.0
73.990746 160.0
74.156906 220.0
74.438271 172.0
74.529312 196.0
74.627289 140.0
75.074043 200.0
75.137108 220.0
75.183701 160.0
75.271744 152.0
75.373657 192.0
75.418594 180.0
75.562134 204.0
75.695976 148.0
76.122833 124.0
76.146324 412.0
76.243614 168.0
76.731018 204.0
76.938637 180.0
77.13604 236.0
77.157021 160.0
77.172752 168.0
77.323204 152.0
77.597076 176.0
78.06337 152.0
78.24733 168.0
78.383942 160.0
78.501465 152.0
78.561119 184.0
78.586723 332.0
78.885201 180.0
78.915253 152.0
79.04084 144.0
79.090393 172.0
79.150589 140.0
79.434166 160.0
79.501595 168.0
79.538864 144.0
79.764465 176.0
80.419968 164.0
80.605705 184.0
80.664688 184.0
80.705566 148.0
80.84713 172.0
81.085327 140.0
81.485497 148.0
81.528625 204.0
81.584351 156.0
81.667068 148.0
81.787621 164.0
81.848839 156.0
81.89566 112.0
81.951508 160.0
81.968605 156.0
82.167046 152.0
82.333939 180.0
82.423759 100.0
82.474869 176.0
82.529106 220.0
82.702782 232.0
82.86396 156.0
82.931007 168.0
83.018036 164.0
83.163177 140.0
83.188591 192.0
83.455666 144.0
83.521088 144.0
83.983803 164.0
84.096931 168.0
84.177261 160.0
84.526413 148.0
84.601456 180.0
84.631599 144.0
85.037735 204.0
85.184631 168.0
85.2173 164.0
85.346367 168.0
85.399704 204.0
85.83065 144.0
86.048378 160.0
86.103775 188.0
86.196144 140.0
86.257133 240.0
86.50872 156.0
86.534645 204.0
86.775513 172.0
86.979584 156.0
87.011948 156.0
87.226921 184.0
87.284279 220.0
87.421936 176.0
87.621178 204.0
87.790092 124.0
88.098785 212.0
88.117462 168.0
88.184738 224.0
88.246429 192.0
89.037231 168.0
89.091698 140.0
89.394424 168.0
89.568619 224.0
89.71463 144.0
89.799484 176.0
90.2584 196.0
90.29055 148.0
90.318924 152.0
90.339729 180.0
90.426773 172.0
90.493027 160.0
90.587723 160.0
90.683952 204.0
90.827232 116.0
90.864517 148.0
90.900566 168.0
90.932831 204.0
91.044846 148.0
91.115128 164.0
91.312828 168.0
91.366089 144.0
91.520256 140.0
91.536171 212.0
91.79084 140.0
91.81945 292.0
91.89003 152.0
91.996902 160.0
92.040398 200.0
92.272018 168.0
92.335701 172.0
92.587753 212.0
92.748695 160.0
92.959671 172.0
92.988174 160.0
93.047966 144.0
93.263939 208.0
93.339249 208.0
93.388107 180.0
93.445824 160.0
93.5382 140.0
93.692261 328.0
94.22084 164.0
94.307846 216.0
94.616508 136.0
95.036018 244.0
95.090355 148.0
95.237663 152.0
95.30397 212.0
95.348671 152.0
95.424477 200.0
95.51783 168.0
95.619011 148.0
95.649178 176.0
95.753349 324.0
96.209641 196.0
96.223312 148.0
96.62397 152.0
96.700294 148.0
96.774109 164.0
96.933342 140.0
97.297508 176.0
97.579132 164.0
97.683151 220.0
97.758133 196.0
97.873352 180.0
97.958961 148.0
98.039749 172.0
98.345459 176.0
98.382965 168.0
98.424423 140.0
98.62001 296.0
98.786118 232.0
98.873177 152.0
99.005821 152.0
99.0494 184.0
99.141159 204.0
99.161522 160.0
99.205948 156.0
99.346756 200.0
99.424141 196.0
99.490799 220.0
99.517441 160.0
99.565102 212.0
99.678093 164.0
99.923607 148.0
100.369438 176.0
100.420929 188.0
100.575546 204.0
100.724327 176.0
100.779816 160.0
100.966179 172.0
101.090218 180.0
101.144257 148.0
101.277542 176.0
101.334511 172.0
101.354546 176.0
101.619217 192.0
102.130859 188.0
102.234108 228.0
102.434151 252.0
102.455002 200.0
102.745918 156.0
102.856911 152.0
102.949791 164.0
103.118088 160.0
103.161949 168.0
103.481606 156.0
103.592995 168.0
103.651756 196.0
103.787567 140.0
104.020889 148.0
104.150848 160.0
104.268692 156.0
104.380196 156.0
104.494415 244.0
104.557495 200.0
104.834465 248.0
105.068832 1620.0
105.092522 160.0
105.119972 200.0
105.271034 224.0
105.385429 160.0
105.419083 136.0
105.451653 108.0
105.479828 168.0
105.56884 132.0
105.661446 148.0
105.786285 172.0
105.825951 128.0
105.946022 168.0
105.991478 216.0
106.114082 152.0
106.192009 192.0
106.538925 144.0
106.575905 156.0
106.64167 140.0
106.927559 180.0
107.106331 180.0
107.199898 220.0
107.333405 160.0
107.398933 176.0
107.816467 152.0
107.940506 192.0
107.99221 168.0
108.188126 160.0
108.480453 168.0
108.954071 172.0
109.112701 184.0
109.249062 112.0
109.28257 204.0
109.297134 168.0
109.463669 160.0
109.502472 120.0
109.736633 176.0
109.89933 212.0
109.928543 172.0
110.250153 144.0
110.503059 152.0
110.632927 172.0
110.691559 152.0
111.093987 152.0
111.144341 160.0
111.518158 140.0
111.570709 152.0
111.623482 124.0
111.731224 168.0
111.894714 140.0
111.929047 208.0
112.049545 140.0
112.341507 176.0
112.489227 180.0
112.556786 152.0
112.577904 140.0
112.651833 160.0
113.007019 192.0
113.146706 148.0
113.34581 148.0
113.445427 208.0
113.741226 100.0
114.150345 188.0
114.54409 156.0
114.603745 244.0
114.872375 216.0
114.92865 160.0
115.042892 164.0
115.271637 236.0
115.363548 172.0
115.614349 236.0
115.935951 208.0
115.99292 212.0
116.040085 156.0
116.250298 212.0
116.340446 188.0
116.783112 144.0
116.993996 140.0
117.084435 168.0
117.21244 112.0
117.476128 156.0
117.854568 160.0
117.908592 144.0
118.001541 276.0
118.083717 252.0
118.129143 200.0
118.362892 184.0
118.406204 176.0
118.547142 148.0
119.248032 160.0
119.432854 148.0
119.602577 152.0
119.865395 140.0
119.887894 200.0
119.927124 184.0
120.051399 164.0
120.081932 172.0
120.311058 152.0
120.38311 152.0
120.525101 164.0
120.570763 188.0
121.001923 184.0
121.104851 168.0
121.135521 160.0
121.569649 172.0
121.627892 224.0
121.692581 140.0
121.87928 152.0
122.004616 168.0
122.105713 168.0
122.517342 160.0
122.667198 144.0
122.72921 160.0
123.451027 196.0
123.523117 176.0
123.599236 156.0
123.643494 180.0
123.73204 140.0
123.878204 172.0
123.922516 156.0
124.220703 184.0
124.334976 156.0
124.35273 148.0
124.565895 140.0
124.639214 176.0
124.774803 164.0
124.821999 176.0
124.857079 192.0
125.077354 260.0
125.233223 208.0
125.384727 180.0
125.40033 152.0
125.652313 140.0
125.88446 192.0
125.98497 216.0
126.072113 176.0
126.101799 152.0
126.21965 156.0
126.451118 204.0
126.617996 156.0
126.813972 172.0
127.014725 160.0
127.553658 156.0
127.647003 164.0
127.677322 216.0
127.803299 152.0
127.942337 124.0
128.037415 152.0
128.670395 204.0
128.763641 200.0
128.865509 176.0
129.523636 160.0
129.553085 164.0
129.602936 180.0
129.675446 152.0
129.709442 284.0
129.760132 212.0
129.904465 144.0
130.002029 180.0
130.017929 212.0
130.077789 180.0
130.81189 208.0
130.972534 160.0
131.20076 180.0
131.347763 156.0
131.968445 164.0
132.025055 208.0
132.091385 196.0
132.225693 144.0
132.235214 216.0
132.324829 212.0
132.506897 188.0
132.542191 196.0
132.807953 132.0
132.854248 140.0
133.269806 172.0
133.290482 144.0
133.36499 128.0
133.552582 164.0
133.639999 192.0
133.667114 188.0
133.695221 160.0
133.751144 200.0
133.887161 164.0
134.08905 140.0
134.221954 192.0
134.520401 140.0
134.652008 196.0
134.742096 212.0
134.943176 160.0
135.183746 184.0
135.257812 196.0
135.385162 196.0
135.40831 192.0
135.630753 212.0
135.672485 144.0
136.250366 200.0
136.741959 148.0
136.764297 172.0
137.013458 204.0
137.083374 156.0
137.169601 168.0
137.359146 100.0
137.393478 164.0
137.412155 176.0
137.49382 164.0
137.532181 140.0
137.643234 188.0
137.673584 164.0
137.743652 164.0
137.767014 168.0
138.050491 172.0
138.080246 144.0
138.286133 160.0
138.558319 140.0
138.630325 112.0
138.69136 156.0
138.74527 240.0
139.051788 244.0
139.094818 160.0
139.118286 208.0
139.20047 172.0
139.915268 204.0
140.05603 160.0
140.195572 160.0
140.407745 180.0
140.523346 164.0
141.06842 948.0
141.125641 152.0
141.217865 176.0
141.534988 164.0
141.556305 176.0
141.69606 184.0
142.068634 156.0
142.267624 164.0
142.315109 156.0
142.555023 116.0
142.759735 148.0
142.873642 156.0
142.94931 180.0
143.085464 156.0
143.168808 144.0
143.604874 128.0
143.917587 164.0
144.223373 200.0
144.297546 144.0
144.34053 152.0
144.474472 156.0
144.764084 180.0
144.84552 168.0
145.056396 176.0
145.293823 148.0
145.483414 188.0
145.511627 180.0
145.88942 172.0
145.947266 192.0
145.987991 144.0
146.009644 188.0
146.101044 152.0
146.303207 168.0
146.52478 140.0
146.589828 212.0
146.926971 160.0
146.95636 164.0
147.190491 168.0
147.319458 224.0
147.357162 196.0
147.417572 140.0
147.453812 160.0
147.843201 144.0
148.107101 168.0
148.308228 208.0
148.388229 152.0
148.538589 180.0
149.089752 204.0
149.270248 160.0
149.342606 212.0
149.629761 140.0
149.700378 168.0
149.844635 108.0
150.0383 192.0
150.27565 188.0
150.375702 168.0
150.522186 184.0
150.580215 176.0
150.91069 144.0
150.93515 220.0
151.057434 168.0
151.260544 156.0
151.324203 156.0
151.684982 180.0
151.762787 152.0
151.860886 144.0
152.059769 524.0
152.176392 120.0
152.356735 204.0
152.582855 152.0
152.772217 160.0
152.811584 144.0
152.833023 180.0
153.052795 212.0
153.276962 188.0
153.488953 160.0
153.508682 152.0
153.651749 176.0
154.354904 188.0
154.59317 144.0
154.610504 204.0
154.858093 172.0
155.044754 176.0
155.071167 208.0
155.165375 148.0
155.368744 196.0
155.413528 156.0
155.522598 148.0
155.753525 164.0
155.842453 136.0
155.904434 108.0
155.943771 268.0
156.021713 148.0
156.153702 184.0
156.355225 164.0
156.549408 144.0
156.688904 144.0
156.766144 168.0
156.820984 188.0
157.141052 148.0
157.564011 148.0
157.587952 340.0
157.947113 144.0
158.115173 324.0
158.308365 192.0
158.405212 184.0
158.440277 144.0
158.558456 196.0
158.710968 208.0
158.934219 152.0
159.039612 212.0
159.165146 172.0
159.230438 160.0
159.446503 144.0
159.479187 184.0
159.660217 216.0
159.798569 168.0
159.821213 148.0
160.120895 184.0
160.307205 228.0
160.360138 144.0
160.570831 204.0
160.632462 172.0
160.922699 180.0
161.195786 172.0
161.38002 172.0
161.468536 152.0
161.498886 204.0
161.549469 156.0
162.002625 200.0
162.045242 268.0
162.084427 208.0
162.398071 180.0
162.471634 140.0
162.562973 176.0
163.053879 600.0
163.116669 152.0
163.165054 128.0
163.299744 152.0
163.360886 116.0
163.482925 232.0
163.778275 220.0
164.058136 372.0
164.143417 464.0
164.2677 168.0
164.321274 172.0
164.459076 172.0
164.719528 148.0
164.768875 420.0
164.843079 112.0
164.91629 164.0
164.934174 168.0
164.958344 124.0
165.008926 152.0
165.069351 67880.0
165.126923 156.0
165.196518 136.0
165.263687 128.0
165.351456 296.0
165.394348 280.0
165.477783 220.0
165.604721 136.0
165.666565 160.0
165.705261 396.0
165.794891 204.0
165.850555 188.0
165.897141 140.0
165.922333 296.0
165.965225 128.0
166.021851 252.0
166.077347 132268.0
166.143234 240.0
166.235184 304.0
166.286133 156.0
166.349014 292.0
166.507401 152.0
166.601746 140.0
166.640976 196.0
166.690186 128.0
166.806381 144.0
166.846878 248.0
166.918732 136.0
166.99884 244.0
167.041183 256.0
167.080597 18076.0
167.26947 212.0
167.32634 160.0
167.421097 128.0
167.497833 156.0
167.589294 240.0
167.705261 112.0
167.927155 192.0
168.040771 184.0
168.058578 268.0
168.081863 1240.0
168.159393 188.0
168.177765 160.0
168.340744 100.0
168.378708 132.0
168.398697 176.0
168.426926 112.0
168.499741 120.0
168.638168 204.0
168.767914 172.0
168.969284 196.0
169.063263 872.0
169.095978 148.0
169.176132 128.0
169.559586 208.0
170.070343 152.0
170.129822 148.0
170.487778 236.0
170.87355 220.0
170.97876 156.0
171.136429 172.0
171.391693 244.0
171.431198 176.0
171.931503 208.0
172.111618 148.0
172.506134 188.0
172.702255 140.0
173.101196 148.0
173.173401 160.0
173.233643 160.0
173.537491 216.0
173.624207 164.0
173.731995 124.0
173.768478 168.0
173.847198 220.0
173.97702 104.0
174.001297 124.0
174.080841 148.0
174.81955 156.0
174.874817 184.0
174.92952 148.0
175.279968 148.0
175.404266 260.0
175.722031 160.0
175.952133 112.0
176.029556 148.0
176.228668 148.0
176.256744 160.0
176.333374 156.0
176.373032 208.0
176.440552 192.0
176.711533 172.0
177.038345 112.0
177.180161 208.0
177.275543 148.0
177.349762 196.0
177.427597 176.0
177.499283 180.0
178.440842 156.0
178.480713 160.0
178.819839 160.0
179.321976 152.0
179.500595 180.0
179.700653 140.0
179.806244 140.0
179.868774 196.0
180.055679 168.0
180.143829 160.0
180.341568 152.0
180.879227 140.0
180.948822 140.0
181.079224 196.0
181.149353 164.0
181.224701 220.0
181.24881 196.0
181.348816 216.0
181.45253 172.0
181.787811 216.0
182.706589 124.0
182.787476 172.0
182.970505 176.0
183.079498 3144.0
183.700668 116.0
183.892441 172.0
184.083633 648.0
184.176712 140.0
184.200256 220.0
184.402908 160.0
184.448868 140.0
184.497528 160.0
184.656097 172.0
184.943878 160.0
185.008224 124.0
185.160477 176.0
185.187561 152.0
185.249863 188.0
185.347397 152.0
185.422333 216.0
185.960312 160.0
186.35408 180.0
186.443756 244.0
186.507828 160.0
186.941422 208.0
187.118362 168.0
187.140137 192.0
187.257233 212.0
187.294571 216.0
187.559692 156.0
187.807816 180.0
188.072495 144.0
188.113449 212.0
188.252686 168.0
188.373764 164.0
189.089264 304.0
189.137619 19928.0
189.905762 208.0
190.017517 124.0
190.140656 3172.0
190.34761 160.0
190.814728 148.0
191.065002 156.0
191.106277 164.0
191.145111 212.0
191.488571 156.0
191.603378 156.0
191.695557 196.0
191.888504 172.0
192.150513 156.0
192.19191 196.0
192.559067 144.0
192.586685 184.0
192.979111 156.0
193.003998 148.0
193.075333 7176.0
193.107529 420.0
193.540802 144.0
193.961914 176.0
194.034622 212.0
194.079376 1128.0
194.122726 156.0
194.766632 148.0
195.083572 144.0
195.28363 156.0
195.463684 184.0
195.819382 140.0
195.85144 208.0
196.049866 212.0
196.626572 148.0
196.676804 160.0
197.017502 160.0
197.059952 264.0
197.646591 180.0
197.70256 144.0
198.013321 160.0
198.187012 160.0
198.512177 140.0
198.736588 160.0
198.952698 228.0
199.028687 1600.0
199.089554 184.0
199.195679 304.0
199.416183 168.0
199.458893 104.0
199.593307 144.0
199.632675 176.0
199.731857 152.0
199.790192 144.0
199.810791 168.0
199.942139 152.0
200.032471 668.0
200.094147 148.0
200.203568 144.0
200.224274 160.0
200.257477 160.0
200.278824 144.0
200.365356 180.0
200.403152 168.0
200.428375 120.0
200.497528 136.0
200.534317 200.0
200.631073 156.0
200.668701 112.0
200.699661 248.0
200.728409 352.0
200.793045 196.0
200.834152 244.0
200.853119 244.0
200.873688 224.0
200.912506 384.0
200.937881 296.0
200.983368 508.0
201.047409 386064.0
201.147766 212.0
201.174469 168.0
201.217484 160.0
201.238617 188.0
201.278229 96.0
201.304535 224.0
201.356186 468.0
201.393066 140.0
201.424408 284.0
201.479523 636.0
201.510895 9248.0
201.554596 316.0
201.583008 180.0
201.608475 136.0
201.650101 104.0
201.679199 132.0
201.710892 108.0
201.7686 268.0
201.80719 140.0
201.854202 168.0
201.894684 272.0
201.925018 148.0
201.965942 228.0
201.977646 140.0
202.049896 102292.0
202.132965 216.0
202.198044 180.0
202.251266 176.0
202.278046 128.0
202.393433 244.0
202.420715 120.0
202.450211 156.0
202.473923 296.0
202.588623 112.0
202.625366 332.0
202.664017 256.0
202.7397 116.0
202.781296 132.0
202.820877 160.0
202.843033 196.0
202.882568 128.0
202.937576 264.0
202.9841 328.0
203.043823 199712.0
203.125824 140.0
203.181915 172.0
203.234344 100.0
203.264465 196.0
203.293167 148.0
203.323624 320.0
203.35614 224.0
203.401169 224.0
203.455933 208.0
203.51004 300.0
203.530045 308.0
203.577362 244.0
203.60759 316.0
203.63382 272.0
203.662674 132.0
203.683853 312.0
203.719254 180.0
203.811371 96.0
204.009216 196.0
204.046143 23288.0
204.116211 224.0
204.211258 116.0
204.243591 164.0
204.368896 100.0
204.418854 104.0
204.487915 100.0
204.555008 140.0
204.598007 208.0
204.629974 164.0
204.686798 148.0
204.947586 144.0
205.048126 744.0
205.20787 128.0
205.247696 104.0
205.335052 108.0
205.356613 192.0
205.387985 168.0
205.436447 188.0
205.447464 188.0
205.480789 128.0
205.546219 164.0
205.590775 108.0
205.624405 220.0
205.69162 136.0
205.823364 128.0
206.090286 148.0
206.484894 116.0
208.810822 140.0
209.812912 120.0
210.529816 116.0
211.077576 148.0
211.702652 148.0
212.103455 96.0
212.890442 104.0
214.934769 128.0
215.343475 124.0
215.413315 96.0
215.487091 140.0
216.506577 108.0
216.738724 96.0
216.993118 112.0
221.03569 176.0
221.343552 140.0
221.965836 152.0
225.063492 144.0
225.882385 140.0
230.881439 152.0
242.309219 180.0
244.604248 256.0
246.684952 144.0
251.80365 156.0
252.578049 184.0
254.212906 172.0
268.69397 212.0
269.997314 160.0
277.608307 140.0
277.817261 204.0
287.177185 232.0
287.41333 140.0
295.035156 140.0
305.352783 188.0
309.035126 140.0
312.327332 168.0
312.366028 160.0
313.133362 148.0
313.984222 136.0
324.738464 204.0
327.356018 148.0
331.147003 156.0
332.880554 140.0
339.929749 168.0
340.969055 156.0
341.064606 148.0
341.792816 144.0
345.81546 180.0
350.934662 172.0
353.036133 156.0
354.654419 140.0
355.217651 548.0
356.214355 500.0
356.252991 156.0
356.56488 180.0
356.681396 152.0
357.456299 108.0
364.356781 148.0
367.288055 208.0
371.842316 120.0
375.932343 164.0
380.795013 156.0
384.09964 180.0
384.657684 160.0
387.132629 148.0
389.753052 156.0
390.131775 168.0
390.256195 144.0
390.374969 152.0
390.525513 164.0
390.589294 120.0
390.684326 124.0
390.748138 100.0
390.917023 240.0
391.089386 176.0
391.193054 58524.0
391.35379 164.0
391.477325 132.0
391.719482 192.0
391.792877 132.0
391.9133 148.0
392.065918 208.0
392.113708 112.0
392.195862 16504.0
392.507141 116.0
392.537537 120.0
392.672607 176.0
392.784821 120.0
392.905426 152.0
393.190338 18888.0
393.519562 168.0
393.74765 160.0
394.192719 5276.0
394.278595 136.0
394.454376 116.0
394.65744 144.0
394.692108 180.0
394.830719 284.0
394.891937 116.0
395.017487 148.0
395.196655 236.0
396.840363 144.0
396.956787 108.0
406.23468 140.0
407.62973 104.0
434.531616 148.0
626.080444 172.0
1093.100342 148.0
1198.794312 152.0
1307.046997 212.0
1330.523315 144.0
1364.717651 164.0
1396.175781 168.0
1397.462769 160.0
1406.853516 148.0
1425.068115 172.0
1433.450562 268.0
1435.116455 148.0
1439.666748 244.0
1443.672119 180.0
1460.639038 144.0
1463.995605 236.0
1466.837524 180.0
1479.105591 144.0
1488.159668 156.0
1493.223877 216.0
1496.178833 144.0
1499.938232 160.0
1517.487549 184.0
1525.14978 144.0
1534.522827 180.0
1544.972778 168.0
1567.814819 152.0
1572.61792 152.0
1574.568115 148.0
1577.080688 204.0
1583.822266 192.0
1585.137451 176.0
1591.491211 236.0
1592.80957 144.0
1601.846313 168.0
1602.63501 184.0
1618.634644 168.0
1641.529053 144.0
1648.657349 144.0
1655.355713 152.0
1657.907593 176.0
1658.280396 184.0
1658.864014 148.0
1660.339722 140.0
1660.469482 144.0
1663.293213 196.0
1669.590088 176.0
1673.650757 164.0
1677.928467 148.0
1679.624634 140.0
1690.63855 148.0
1692.988159 140.0
1693.78418 224.0
1696.855835 140.0
1699.808716 160.0
1712.691895 140.0
1717.975952 160.0
1728.915894 272.0
1730.753662 176.0
1734.531616 176.0
1735.742065 184.0
1738.239014 180.0
1738.86145 176.0
1745.307983 172.0
1747.645264 152.0
1748.827026 164.0
1757.193848 208.0
1757.535889 156.0
1757.853027 168.0
1758.437256 212.0
1759.697754 224.0
1762.662964 176.0
1766.53418 192.0
1767.872925 168.0
1774.758667 152.0
1774.875977 204.0
1778.407959 176.0
1780.717041 180.0
1786.777832 152.0
1787.779175 156.0
1789.934204 164.0
1795.875854 164.0
1801.26123 140.0
1810.624634 140.0
1811.708862 172.0
1818.518066 156.0
1822.755981 148.0
1826.182129 152.0
1840.183472 152.0
1841.379028 240.0
1846.438721 240.0
1853.78418 176.0
1853.852783 228.0
1854.915527 224.0
1855.455688 184.0
1856.630371 152.0
1857.505249 220.0
1864.185181 160.0
1865.285278 152.0
1865.998901 152.0
1866.850098 232.0
1873.874146 168.0
1875.451294 208.0
1875.968384 196.0
1876.442627 160.0
1878.624634 192.0
1881.015015 144.0
1883.942505 296.0
1885.601562 144.0
1886.725342 168.0
1889.415039 168.0
1890.055298 160.0
1892.935791 204.0
1897.755615 140.0
1898.059204 148.0
1909.783569 200.0
1912.002197 164.0
1914.873169 144.0
1915.537354 212.0
1916.835571 140.0
1917.384521 180.0
1918.020874 140.0
1919.782104 160.0
1920.253052 184.0
1920.314087 224.0
1922.783203 236.0
1928.093262 208.0
1928.810059 148.0
1931.984375 152.0
1932.351929 176.0
1942.084595 180.0
1942.514526 208.0
1945.129517 144.0
1945.65625 180.0
1946.297241 184.0
1946.859253 156.0
1949.529907 180.0
1951.094482 140.0
1953.653687 144.0
1955.774536 316.0
1958.153687 200.0
1958.231079 148.0
1958.380859 144.0
1961.544189 172.0
1963.281128 184.0
1964.595459 184.0
1965.018921 160.0
1966.245483 152.0
1973.789917 184.0
1975.284668 156.0
1975.470459 148.0
1981.153931 144.0
1985.470703 164.0
1986.535034 212.0
1991.46167 172.0
1995.745117 192.0
1997.959717 172.0
1999.454712 152.0
2002.428345 144.0
