>compound Rosmarinic acid
>formula C18H16O8
>ionization [M+H]+
>parentmass 361.09
#inchi InChI=1S/C18H16O8/c19-12-4-1-10(7-14(12)21)3-6-17(23)26-16(18(24)25)9-11-2-5-13(20)15(22)8-11/h1-8,16,19-22H,9H2,(H,24,25)/b6-3+
#inchikey DOUMFZQKYFQNTF
#Ion_Source DI-ESI
#Instrument qTof
#Compound_Source Commercial
#PI Norberto Lopes
#Data_Collector Denise Silva
#Scan -1
#Precursor_MZ 361.09
#ExactMass 360.085
#Charge 1
#CAS_Number 20283-92-5
#Pubmed_ID  
#Smiles O=C(OC(C(O)=O)CC1=CC(O)=C(O)C=C1)/C=C/C2=CC(O)=C(O)C=C2
#INCHI_AUX  
#Library_Class 3
#SpectrumID CCMSLIB00000078853
#IonMode Positive
#UpdateWorkflowName UPDATE-SINGLE-ANNOTATED-BRONZE
#LibraryQualityString Bronze
#TaskID 64bd9a924f8a422395503fd448c6ec3d
##Scan# 1
#SpectrumFile rosmarinic_acid_pos_MSMS_361.mgf
#LibraryName gnps_library.mgf
#MQScore -1
#Organism gnps_library
#TIC_Query 0
#RT_Query -1
#MZErrorPPM -1
#SharedPeaks 0
#MassDiff 0
#LibMZ -1
#SpecMZ 361.09
#SpecCharge 0
#internalFilename spec-00000.mgf

>collision 10
117.03186 1356.0
135.040283 13722.0
136.044952 633.0
139.035843 3570.0
145.024246 4676.0
146.028961 238.0
158.054337 117.0
163.033997 30564.0
164.039963 1394.0
181.048737 223.0
186.052872 2978.0
187.052612 194.0
