>compound MLS001076073-01!
>formula C22H29FO4
>ionization [M+H]+
>parentmass 377.21226408009056
#inchi InChI=1S/C22H29FO4/c1-12-8-16-15-5-4-13-9-14(25)6-7-21(13,3)22(15,23)18(27)10-20(16,2)19(12)17(26)11-24/h6-7,9,12,15-16,18-19,24,27H,4-5,8,10-11H2,1-3H3/t12-,15+,16+,18+,19-,20+,21+,22+/m1/s1
#inchikey VWVSBHGCDBMOOT
#Ion_Source LC-ESI
#Instrument qTof
#Compound_Source NIH Pharmacologically Active Library
#PI Dorrestein
#Data_Collector VP/LMS
#Scan -1
#Precursor_MZ 377.206
#ExactMass 376.205
#Charge 1
#CAS_Number N/A
#Pubmed_ID N/A
#Smiles C[C@@H]1C[C@H]2[C@@H]3CCC4=CC(=O)C=C[C@]4(C)[C@@]3(F)[C@@H](O)C[C@]2(C)[C@H]1C(=O)CO
#INCHI_AUX N/A
#Library_Class 1
#SpectrumID CCMSLIB00000085331
#IonMode Positive
#UpdateWorkflowName UPDATE-SINGLE-ANNOTATED-GOLD
#LibraryQualityString Gold
#TaskID d252d724072548979f1f6f1ced849daf
##Scan# 1949
#SpectrumFile p3-H06_GH6_01_18311.mzXML
#LibraryName Pharm_Active_Library.mgf
#MQScore -1
#Organism Pharm_Active_Library
#TIC_Query 0
#RT_Query -1
#MZErrorPPM -1
#SharedPeaks 0
#MassDiff 0
#LibMZ -1
#SpecMZ 377.206
#SpecCharge 0
#internalFilename spec-00000.mgf

>collision 10
45.066135 200.0
45.112915 200.0
45.123611 200.0
45.713837 160.0
45.735371 212.0
45.825603 168.0
45.915924 192.0
45.991486 220.0
46.096836 112.0
46.110352 72.0
46.203659 232.0
46.237488 204.0
46.533016 248.0
46.547951 148.0
46.595493 96.0
46.863541 132.0
46.92218 180.0
47.051769 84.0
47.161057 248.0
47.255421 192.0
47.529472 200.0
47.635197 224.0
47.655804 104.0
47.910347 264.0
48.057877 116.0
48.086857 160.0
48.279495 216.0
48.463867 236.0
49.064865 60.0
49.370678 140.0
49.530243 148.0
49.625542 132.0
49.64658 88.0
49.678841 148.0
49.691467 144.0
50.314983 188.0
50.429413 240.0
50.926765 88.0
51.002075 184.0
51.150879 216.0
51.272514 192.0
51.416565 180.0
51.69239 196.0
51.890068 116.0
52.09243 228.0
52.128353 60.0
52.38591 88.0
52.465176 136.0
52.538727 136.0
52.586349 132.0
52.683102 148.0
53.152229 212.0
53.667171 96.0
53.849594 212.0
54.060131 192.0
54.312141 168.0
54.425148 108.0
54.567677 196.0
54.722172 116.0
54.769299 248.0
54.850346 116.0
55.056919 160.0
55.300877 116.0
55.491985 144.0
55.647778 204.0
56.092621 96.0
56.152267 68.0
56.240303 164.0
56.527264 48.0
56.66053 168.0
56.6875 52.0
56.703987 180.0
57.165062 148.0
57.189144 140.0
57.732307 124.0
57.838223 164.0
57.883644 136.0
57.944233 160.0
58.015465 200.0
58.144402 216.0
58.233986 108.0
58.398144 80.0
58.942421 136.0
59.121349 164.0
59.242313 116.0
59.318939 188.0
59.421696 32.0
59.541431 152.0
59.74754 204.0
59.801277 196.0
59.867481 176.0
60.012337 200.0
60.16663 160.0
60.212955 188.0
60.358227 112.0
60.729927 196.0
60.88203 156.0
61.642284 140.0
61.784573 156.0
61.801819 192.0
61.958359 164.0
62.12925 172.0
62.415115 176.0
62.974602 184.0
63.184853 160.0
63.630222 156.0
63.671509 208.0
63.720753 164.0
63.76366 188.0
63.795452 120.0
63.933838 116.0
64.029366 124.0
64.629616 144.0
64.90834 48.0
64.994965 140.0
65.11216 168.0
65.221336 152.0
65.356514 124.0
65.66906 36.0
66.119843 120.0
66.208893 116.0
66.476395 132.0
66.60466 184.0
66.679405 144.0
66.74118 120.0
67.014641 64.0
67.350716 108.0
68.053299 120.0
68.592934 140.0
68.942856 208.0
68.999062 96.0
69.819893 204.0
70.289688 92.0
70.323067 220.0
70.338097 216.0
70.401543 160.0
70.843132 156.0
71.00573 192.0
71.218895 140.0
71.423965 192.0
71.843437 164.0
72.166031 168.0
72.382622 188.0
72.492737 116.0
72.990128 164.0
73.017342 224.0
73.390289 208.0
73.786415 104.0
74.341415 168.0
75.101891 148.0
75.345299 72.0
75.404053 56.0
75.602943 168.0
75.641022 52.0
75.653145 124.0
75.845428 152.0
76.00499 228.0
76.206413 228.0
76.232483 100.0
76.512527 140.0
76.54213 164.0
76.644905 120.0
76.739029 140.0
76.798325 188.0
77.114365 180.0
77.336502 152.0
77.389023 76.0
77.466087 148.0
77.686974 104.0
77.785255 100.0
78.284599 120.0
78.355057 176.0
78.376205 128.0
78.395584 152.0
78.637215 172.0
79.001228 248.0
79.050774 148.0
80.417511 232.0
81.007614 176.0
81.095413 152.0
81.269371 140.0
82.250229 224.0
82.591751 152.0
82.72747 144.0
82.941231 136.0
83.019196 184.0
83.133492 136.0
83.598732 196.0
83.740738 108.0
84.183929 224.0
84.659416 172.0
85.119713 104.0
85.231773 144.0
85.310806 172.0
85.367805 152.0
85.802361 120.0
86.18074 128.0
86.421112 120.0
86.472931 104.0
86.508102 152.0
86.541428 192.0
86.632179 160.0
87.11824 120.0
87.614975 180.0
87.862938 224.0
88.322502 80.0
88.590195 200.0
88.933357 184.0
89.461586 92.0
89.62545 232.0
89.797005 124.0
90.184074 212.0
90.808914 128.0
91.054108 740.0
91.39785 156.0
91.445427 152.0
91.584427 232.0
92.055519 168.0
92.277176 168.0
92.425957 168.0
92.761543 196.0
92.822899 160.0
93.005165 84.0
93.067673 308.0
93.468346 80.0
93.512604 172.0
94.067757 156.0
94.173958 60.0
94.580025 164.0
94.940407 204.0
95.05278 748.0
95.075661 128.0
95.087303 324.0
95.351997 172.0
95.461052 212.0
95.653496 124.0
96.113457 180.0
96.447426 172.0
97.032768 124.0
97.066101 212.0
97.085716 196.0
97.234818 32.0
97.584488 132.0
97.647423 184.0
97.928879 152.0
97.984039 152.0
98.510796 176.0
98.619476 180.0
98.943909 108.0
99.197495 172.0
99.264908 56.0
99.407738 104.0
99.828896 248.0
99.92437 180.0
100.452324 208.0
100.510185 48.0
100.719818 160.0
100.801735 212.0
100.943665 40.0
100.991661 124.0
101.099709 60.0
101.307945 136.0
101.392105 132.0
101.430191 76.0
101.817444 120.0
101.833511 64.0
101.976166 44.0
102.042511 144.0
102.291977 176.0
102.925056 108.0
102.987663 164.0
103.054482 360.0
103.078583 224.0
103.181664 100.0
103.313126 112.0
103.363708 256.0
103.385971 36.0
103.572243 176.0
103.945297 240.0
104.37188 228.0
104.479675 136.0
104.728035 132.0
105.06739 1424.0
105.307312 56.0
105.554604 176.0
105.708023 208.0
106.071472 328.0
106.396736 36.0
106.910622 140.0
107.015602 160.0
107.042374 156.0
107.085342 1520.0
107.145363 44.0
107.714752 116.0
107.764336 180.0
107.840797 160.0
108.039322 224.0
108.091896 316.0
108.196609 108.0
108.856697 140.0
109.066895 196.0
109.100899 1376.0
109.359116 96.0
110.007401 76.0
110.070038 112.0
110.103447 148.0
110.473427 152.0
111.062065 56.0
111.080292 352.0
111.355927 124.0
112.174461 128.0
112.499344 132.0
112.938881 128.0
113.086998 248.0
113.298759 100.0
113.381401 100.0
113.449234 152.0
113.945854 240.0
114.058487 120.0
114.094627 112.0
115.05352 672.0
115.228485 80.0
115.326782 40.0
115.53849 228.0
116.05838 616.0
116.073975 76.0
116.325005 180.0
116.599945 136.0
116.9161 136.0
117.06736 664.0
117.088333 160.0
117.109871 188.0
117.137871 44.0
117.245605 228.0
117.560478 44.0
118.022758 128.0
118.071495 124.0
118.21096 52.0
118.661507 120.0
118.941368 192.0
119.036896 208.0
119.084953 1588.0
119.149841 120.0
119.295456 188.0
119.691444 136.0
120.087448 340.0
120.38076 196.0
120.756447 120.0
120.898659 164.0
120.999352 208.0
121.029999 88.0
121.064926 3568.0
121.100876 876.0
121.16851 68.0
121.791016 116.0
121.883293 52.0
121.922852 64.0
122.068115 272.0
122.103256 212.0
122.167053 68.0
122.715324 144.0
122.796921 172.0
122.889572 80.0
123.0242 184.0
123.078255 176.0
123.120323 196.0
123.306946 52.0
123.386528 36.0
124.077293 160.0
124.254723 192.0
124.625519 180.0
124.736641 128.0
124.8834 44.0
124.992416 68.0
125.059555 596.0
125.317513 176.0
125.596184 184.0
125.785858 52.0
125.946632 172.0
126.022591 116.0
126.065048 192.0
126.425102 140.0
126.516876 52.0
126.649002 36.0
126.982971 208.0
127.065971 116.0
127.375786 228.0
127.658981 84.0
127.883965 176.0
127.965012 72.0
128.061264 2536.0
128.092636 180.0
128.25563 208.0
128.366104 176.0
128.66394 188.0
128.682007 80.0
128.745239 132.0
129.069977 1168.0
129.145279 48.0
129.480255 88.0
129.650177 84.0
129.815674 168.0
129.86557 124.0
130.075974 504.0
130.167419 52.0
130.194672 164.0
131.050797 488.0
131.084991 1940.0
131.143433 176.0
131.325836 148.0
131.595123 64.0
131.695786 156.0
132.013306 156.0
132.054825 804.0
132.090714 332.0
132.113937 88.0
132.198608 144.0
132.503143 72.0
132.523773 68.0
133.062149 296.0
133.100342 452.0
133.169556 88.0
133.637375 56.0
133.664993 48.0
133.736343 196.0
133.784683 64.0
133.819214 52.0
133.865265 56.0
133.899811 144.0
133.994263 52.0
134.073593 188.0
134.106613 148.0
134.132538 192.0
134.314713 44.0
134.732544 112.0
134.829605 184.0
135.026123 64.0
135.046936 160.0
135.080307 1108.0
135.117584 136.0
135.139481 44.0
135.229721 36.0
135.461288 180.0
136.081863 248.0
136.857117 80.0
137.017822 144.0
137.082153 388.0
137.090302 228.0
137.096786 228.0
137.122696 80.0
137.488861 32.0
137.813446 196.0
137.944336 72.0
138.08696 148.0
138.196915 216.0
138.438019 168.0
138.888031 224.0
138.925568 160.0
139.074539 132.0
139.110962 144.0
139.19548 240.0
139.905563 112.0
140.060989 128.0
140.190582 108.0
140.612732 192.0
140.641052 176.0
140.917358 124.0
140.969345 48.0
141.069702 476.0
141.878281 212.0
142.030045 100.0
142.076538 948.0
142.359955 56.0
142.500107 76.0
142.737793 184.0
143.084915 2560.0
143.41394 176.0
143.545074 164.0
143.645248 68.0
143.871948 40.0
143.92926 196.0
143.95314 152.0
144.055084 596.0
144.090851 384.0
144.18248 148.0
144.244629 156.0
144.431152 60.0
144.883591 216.0
145.061859 1032.0
145.101318 748.0
145.620026 128.0
145.668076 168.0
146.050278 144.0
146.073364 344.0
146.102478 184.0
146.15062 220.0
146.30777 168.0
146.690811 144.0
146.787262 204.0
147.023682 144.0
147.050217 72.0
147.080414 7580.0
147.115143 172.0
147.141953 168.0
147.166092 108.0
147.202194 156.0
147.243378 68.0
147.306183 64.0
147.330338 32.0
147.491257 68.0
147.721344 224.0
147.826019 60.0
148.081268 836.0
148.123871 184.0
148.22316 32.0
148.247391 72.0
148.417084 56.0
148.914581 32.0
148.936447 44.0
148.972885 128.0
149.096466 436.0
149.240234 52.0
150.090042 184.0
150.241257 124.0
150.573227 52.0
151.037643 272.0
151.079102 228.0
151.112091 168.0
151.282349 136.0
151.537064 76.0
151.652237 156.0
151.679199 156.0
151.865555 120.0
151.936707 160.0
152.059372 448.0
152.268082 188.0
152.653931 144.0
152.7966 188.0
153.070099 172.0
153.893402 40.0
153.969955 148.0
153.999603 144.0
154.086243 156.0
154.118179 100.0
154.803391 144.0
154.937149 160.0
155.021393 108.0
155.042038 156.0
155.062057 344.0
155.086502 1328.0
155.222183 244.0
155.383423 148.0
155.557144 236.0
156.060959 212.0
156.090363 376.0
156.340088 96.0
156.444641 100.0
156.636383 164.0
157.066849 156.0
157.10025 1412.0
157.194885 196.0
158.071472 1012.0
158.09819 364.0
158.289795 100.0
158.467651 140.0
158.803574 128.0
158.954102 184.0
159.078476 2184.0
159.117813 1064.0
159.167465 100.0
159.340775 92.0
159.893997 88.0
160.007278 112.0
160.08606 612.0
160.118073 208.0
160.518784 136.0
160.692825 208.0
160.748337 160.0
160.861923 228.0
160.983109 216.0
161.041199 80.0
161.061417 144.0
161.096603 1684.0
161.230698 40.0
162.050583 180.0
162.098724 496.0
162.408035 156.0
163.073547 144.0
163.089539 332.0
163.113953 268.0
163.439499 136.0
163.533661 168.0
165.071045 380.0
165.094131 180.0
165.542938 172.0
165.637711 36.0
166.079727 348.0
166.376282 72.0
166.705063 196.0
167.100784 752.0
167.608307 240.0
167.850601 136.0
168.06012 296.0
168.108582 128.0
168.155029 108.0
168.223236 132.0
168.891418 220.0
169.064728 496.0
169.103424 804.0
169.280472 176.0
169.310715 72.0
169.432465 96.0
169.922485 140.0
170.071243 444.0
170.103561 160.0
170.176834 132.0
170.441788 112.0
170.670532 172.0
170.74855 128.0
170.863007 188.0
171.080673 8732.0
171.114304 164.0
171.214417 84.0
171.448883 92.0
171.540115 56.0
171.730469 184.0
171.97052 192.0
172.083099 1044.0
172.555679 148.0
173.026627 176.0
173.094681 2616.0
173.220428 60.0
173.44841 96.0
173.482483 128.0
173.511322 112.0
173.550644 164.0
173.610962 40.0
173.815582 220.0
174.001938 48.0
174.100616 1052.0
174.306641 132.0
174.601074 96.0
175.077271 212.0
175.1064 496.0
175.180161 36.0
175.749634 40.0
175.96608 200.0
176.055862 104.0
176.090195 200.0
176.119812 132.0
176.555344 44.0
177.095276 128.0
177.315186 240.0
177.978409 256.0
178.06604 164.0
178.379593 172.0
179.083786 976.0
179.101761 184.0
179.425842 136.0
179.98349 216.0
180.091156 416.0
180.223892 92.0
180.346817 72.0
180.453751 72.0
180.707855 48.0
181.064209 100.0
181.101822 736.0
181.946091 180.0
182.0159 68.0
182.074432 392.0
182.105392 236.0
182.792786 52.0
182.975815 60.0
183.032364 164.0
183.079544 536.0
183.115646 536.0
183.579391 188.0
184.087967 472.0
184.125961 252.0
184.451492 172.0
184.578568 184.0
184.721909 136.0
185.016891 188.0
185.096222 1488.0
185.480133 200.0
186.003662 160.0
186.10054 420.0
186.707397 92.0
186.954971 136.0
187.076981 300.0
187.110626 732.0
187.685028 164.0
188.077896 168.0
188.110657 192.0
188.915649 144.0
189.068451 376.0
189.091385 656.0
189.119324 256.0
189.730209 160.0
190.076523 272.0
190.114212 148.0
190.517853 160.0
190.71022 48.0
191.08548 588.0
191.13649 164.0
191.546722 40.0
191.844345 112.0
192.09375 696.0
192.78833 76.0
193.064789 192.0
193.100723 548.0
193.374664 120.0
193.409988 84.0
193.662628 56.0
193.74295 132.0
194.072708 152.0
194.108002 228.0
194.397324 80.0
195.030563 152.0
195.082047 376.0
195.117599 872.0
195.503387 204.0
196.013016 180.0
196.087631 368.0
196.114059 184.0
196.629333 160.0
196.685165 132.0
196.942047 44.0
197.042618 152.0
197.095398 636.0
197.131363 476.0
197.976898 120.0
198.100479 364.0
198.140076 216.0
198.447662 96.0
199.081848 172.0
199.10936 732.0
199.576416 220.0
199.989975 120.0
200.071609 108.0
200.116653 116.0
200.449036 52.0
200.516678 136.0
201.106155 96.0
201.112885 116.0
202.072647 132.0
202.098114 136.0
202.235397 156.0
203.083588 144.0
203.614746 172.0
204.09375 412.0
204.296951 48.0
205.101868 340.0
205.126907 136.0
206.078934 180.0
206.107605 504.0
206.962708 252.0
207.025711 40.0
207.082291 292.0
207.116348 636.0
207.392441 224.0
207.43544 88.0
207.923065 112.0
208.08902 576.0
208.115753 172.0
208.506088 172.0
208.891388 60.0
209.09729 1140.0
209.128693 144.0
210.103119 1600.0
210.136581 160.0
210.202332 100.0
211.037125 140.0
211.106674 728.0
211.146149 268.0
211.433273 132.0
212.115097 776.0
212.144501 180.0
212.180786 68.0
212.874283 152.0
213.129486 500.0
213.755096 96.0
213.798752 44.0
213.935562 100.0
213.979233 64.0
214.137817 140.0
215.101822 336.0
215.133743 48.0
215.504669 96.0
215.896378 220.0
216.089432 196.0
216.695511 80.0
217.097961 652.0
218.114929 164.0
218.215881 144.0
218.277634 104.0
219.083633 320.0
219.112946 384.0
220.042618 136.0
220.093811 148.0
220.126968 176.0
220.234558 164.0
220.500488 124.0
221.097443 380.0
221.131088 492.0
221.832489 68.0
221.921432 32.0
222.031158 188.0
222.102386 968.0
222.221008 216.0
222.811844 60.0
223.110153 2076.0
223.445114 60.0
223.736786 132.0
223.88269 124.0
224.118027 636.0
224.520462 192.0
225.12468 1420.0
225.194977 124.0
225.613342 84.0
225.984207 68.0
226.082947 76.0
226.134369 524.0
227.128403 220.0
228.402252 48.0
229.058472 112.0
229.103745 284.0
229.341721 144.0
229.498489 64.0
230.109589 676.0
231.077881 120.0
231.085342 108.0
231.114227 152.0
231.32634 76.0
231.977661 144.0
232.077713 136.0
232.123337 424.0
232.369431 112.0
232.426529 124.0
233.094681 500.0
233.134521 316.0
233.845779 96.0
234.102264 452.0
234.14415 184.0
234.765869 184.0
235.067886 164.0
235.112442 800.0
235.14418 320.0
235.193008 48.0
235.214386 156.0
235.498352 104.0
235.959793 76.0
236.094345 196.0
236.117401 628.0
236.15593 372.0
236.186096 160.0
236.320709 88.0
236.801331 132.0
237.070023 120.0
237.125183 1112.0
237.161896 164.0
237.490982 44.0
237.883759 156.0
237.932877 52.0
238.095001 180.0
238.130295 444.0
238.178558 84.0
238.415131 88.0
238.76561 176.0
238.971725 56.0
239.011719 128.0
239.07634 152.0
239.140244 1016.0
239.948074 28.0
240.077591 116.0
240.106995 232.0
240.145508 184.0
240.247238 124.0
241.089111 136.0
241.111832 116.0
242.101837 196.0
242.12352 164.0
243.116714 328.0
244.128143 588.0
245.095398 188.0
245.109497 344.0
245.131134 288.0
246.097855 396.0
246.140671 380.0
247.011169 76.0
247.111084 516.0
247.146118 308.0
247.507965 72.0
247.771072 96.0
248.085022 68.0
248.120651 428.0
248.407471 48.0
248.473358 108.0
248.743256 96.0
249.125854 308.0
249.168854 204.0
249.415482 72.0
250.13562 632.0
250.164169 124.0
250.397171 56.0
251.0401 88.0
251.084244 160.0
251.109482 188.0
251.141663 456.0
251.529144 68.0
251.772263 120.0
251.895447 68.0
252.141983 164.0
253.103607 264.0
253.142975 256.0
253.155334 192.0
253.163513 312.0
253.95929 156.0
254.104355 148.0
254.127426 144.0
255.118439 264.0
256.133484 180.0
257.128418 208.0
257.173004 140.0
258.048309 112.0
258.10141 268.0
258.12738 148.0
259.103973 528.0
259.139984 372.0
259.187805 96.0
259.742462 92.0
259.768127 104.0
260.112762 200.0
260.156067 184.0
260.227051 52.0
260.304108 44.0
260.811737 64.0
261.123596 864.0
261.160309 464.0
261.350311 172.0
262.133026 372.0
262.38916 132.0
262.821381 68.0
263.108643 156.0
263.144928 412.0
263.174469 460.0
264.108093 168.0
264.143616 404.0
264.182953 176.0
264.223633 68.0
265.007172 52.0
265.113678 176.0
265.156342 536.0
265.490173 40.0
266.156677 144.0
267.159729 164.0
270.130157 448.0
270.135681 144.0
271.141327 332.0
272.117737 164.0
273.130127 680.0
273.185852 156.0
274.129517 632.0
274.157196 228.0
275.143127 464.0
275.180176 100.0
275.612457 96.0
276.124878 40.0
276.161011 104.0
276.214172 184.0
277.121918 128.0
277.164154 484.0
277.369873 48.0
278.157043 388.0
279.172455 556.0
280.111359 184.0
280.15799 148.0
280.192383 172.0
280.767975 56.0
281.167938 104.0
281.29184 104.0
282.481476 68.0
283.167664 108.0
285.07663 136.0
285.164948 160.0
286.126099 268.0
286.152283 180.0
286.87738 112.0
287.142151 132.0
287.35968 100.0
288.144012 412.0
288.697327 48.0
288.893524 164.0
289.154053 292.0
289.254211 88.0
289.384247 68.0
289.451965 160.0
290.153351 132.0
291.178497 272.0
291.922424 68.0
292.148956 136.0
292.174133 380.0
293.011658 28.0
293.147949 56.0
293.187531 388.0
293.608185 36.0
294.174622 160.0
294.198517 160.0
295.163055 276.0
295.288574 96.0
295.969574 100.0
296.1922 140.0
297.158966 176.0
298.158234 156.0
299.148865 116.0
299.290039 152.0
299.848114 152.0
299.903259 140.0
302.76059 120.0
303.174072 668.0
304.164825 256.0
304.321045 100.0
306.163055 124.0
308.162903 152.0
309.187469 156.0
310.841614 52.0
313.207764 168.0
320.174805 176.0
321.187866 740.0
322.183258 124.0
325.079773 144.0
327.135681 56.0
335.169128 128.0
339.191315 416.0
340.19693 172.0
340.620514 80.0
342.500214 40.0
354.666229 64.0
355.097412 136.0
355.36377 108.0
357.761627 68.0
368.433899 124.0
390.768219 96.0
397.549042 68.0
412.893738 84.0
434.731689 136.0
443.414825 136.0
443.99762 64.0
448.610291 80.0
461.461914 36.0
471.292114 64.0
495.86203 44.0
523.690125 92.0
531.998962 72.0
595.095032 88.0
596.562256 60.0
650.591187 56.0
676.673035 112.0
711.754028 64.0
725.64856 132.0
728.702515 60.0
735.628479 112.0
776.534729 136.0
779.877319 92.0
785.138794 128.0
793.330505 96.0
835.927673 104.0
845.889709 180.0
853.670349 152.0
854.123962 144.0
878.016113 40.0
900.009155 140.0
942.47583 176.0
967.162598 176.0
968.407166 176.0
989.900269 240.0
990.645569 188.0
990.695679 32.0
1021.256226 192.0
1032.135742 168.0
1033.594116 208.0
1040.054321 164.0
1040.317505 160.0
1041.004639 100.0
1043.632812 140.0
1053.577759 132.0
1071.953491 108.0
1083.197876 48.0
1095.653687 28.0
1105.670898 256.0
1108.293335 188.0
1122.131958 156.0
1134.0448 164.0
1145.252441 188.0
1154.329956 52.0
1171.018555 176.0
1180.122192 56.0
1183.338013 48.0
1185.742432 240.0
1186.949097 180.0
1193.603027 116.0
1217.04895 280.0
1221.517822 164.0
1223.877197 140.0
1226.726807 188.0
1232.72937 180.0
1256.85791 220.0
1258.545044 208.0
1265.757568 176.0
1269.236938 180.0
1270.364624 240.0
1275.946777 236.0
1277.646484 184.0
1279.667847 132.0
1279.731934 140.0
1281.427124 228.0
1283.1875 204.0
1284.328613 228.0
1298.641479 168.0
1300.621826 200.0
1301.232056 160.0
1309.862061 172.0
1314.830078 208.0
1315.81897 164.0
1320.971924 232.0
1325.171021 132.0
1328.063477 268.0
1330.146118 148.0
1330.952026 172.0
1332.208496 232.0
1335.028687 256.0
1336.199829 208.0
1337.677246 140.0
1345.784424 216.0
1349.138062 192.0
1349.43042 184.0
1359.759521 192.0
1362.109131 220.0
1365.210815 180.0
1366.733643 156.0
1380.942383 140.0
1382.126099 196.0
1384.932007 156.0
1385.272705 164.0
1391.992554 116.0
1395.053833 156.0
1396.18396 40.0
1399.36145 176.0
1400.009277 148.0
1401.625854 216.0
1403.206055 144.0
1404.779663 172.0
1405.204956 176.0
1409.438599 20.0
1410.230835 132.0
1413.109985 116.0
1414.344727 228.0
1414.449585 160.0
1415.407837 216.0
1417.183105 292.0
1418.506592 128.0
1418.75708 216.0
1421.517334 152.0
1422.695801 192.0
1422.996094 204.0
1426.083618 172.0
1429.219727 232.0
1429.453003 108.0
1431.289673 220.0
1433.0448 160.0
1433.519531 216.0
1435.87915 176.0
1436.791992 248.0
1438.799561 184.0
1441.828613 184.0
1441.972168 232.0
1444.240479 116.0
1444.308594 132.0
1444.565796 132.0
1445.239136 164.0
1451.162354 116.0
1453.802124 80.0
1455.646851 136.0
1456.155762 196.0
1458.047485 112.0
1458.883667 160.0
1459.165039 136.0
1460.773682 180.0
1462.65686 48.0
1464.35022 176.0
1465.032837 156.0
1467.128662 128.0
1468.318237 128.0
1471.194946 168.0
1476.704468 192.0
1477.668335 160.0
1478.311035 168.0
1478.99231 156.0
1479.915283 244.0
1480.309082 96.0
1482.385132 132.0
1484.82312 156.0
1485.613159 140.0
1487.63916 172.0
1489.136597 60.0
1491.234131 96.0
1492.502686 192.0
1492.994751 204.0
1494.387085 172.0
1494.948853 132.0
1496.588501 176.0
1497.443359 136.0
1502.137573 124.0
1502.762573 136.0
1503.047974 40.0
1504.097656 108.0
1505.248047 204.0
1505.317505 112.0
