>compound Sarafloxacin HCl
>formula C20H17F2N3O3
>ionization [M+H]+
>parentmass 386.130981
#inchi InChI=1S/C20H17F2N3O3/c21-12-1-3-13(4-2-12)25-11-15(20(27)28)19(26)14-9-16(22)18(10-17(14)25)24-7-5-23-6-8-24/h1-4,9-11,23H,5-8H2,(H,27,28)
#inchikey XBHBWNFJWIASRO
#origInchi InChI=1S/C20H17F2N3O3.ClH/c21-12-1-3-13(4-2-12)25-11-15(20(27)28)19(26)14-9-16(22)18(10-17(14)25)24-7-5-23-6-8-24;/h1-4,9-11,23H,5-8H2,(H,27,28);1H
#Ion_Source LC-ESI
#Instrument qTof
#Compound_Source Commercial
#PI Dorrestein
#Data_Collector Garg_Neha
#Scan -1
#Precursor_MZ 386.131
#ExactMass 385.124
#Charge 1
#CAS_Number 91296-87-6
#Pubmed_ID N/A
#Smiles C1(=CN(C2=C(C1=O)C=C(C(=C2)N3CCNCC3)F)C4=CC=C(C=C4)F)C(=O)O.Cl
#INCHI_AUX N/A
#Library_Class 1
#SpectrumID CCMSLIB00000078367
#IonMode Positive
#UpdateWorkflowName UPDATE-SINGLE-ANNOTATED-GOLD
#LibraryQualityString Gold
#TaskID 77f51c88eb8b467eb4a01dd2d0cb90d2
##Scan# 1037
#SpectrumFile Plate6_1_20_GD7_01_15774.mzXML
#LibraryName FDALibrary_2_04302014.mgf
#MQScore -1
#Organism FDALibrary_2_04302014
#TIC_Query 0
#RT_Query -1
#MZErrorPPM -1
#SharedPeaks 0
#MassDiff 0
#LibMZ -1
#SpecMZ 386.131
#SpecCharge 0
#internalFilename spec-00000.mgf

>collision 10
47.34536 204.0
50.091663 184.0
50.819775 176.0
51.135262 208.0
53.608273 160.0
53.797894 172.0
55.389088 172.0
56.156086 144.0
60.01775 156.0
60.59428 160.0
61.446304 152.0
63.27898 196.0
68.157478 184.0
68.925362 208.0
72.442543 204.0
74.33345 140.0
74.713051 156.0
76.36869 256.0
76.403481 156.0
78.183075 144.0
79.679047 184.0
79.78035 148.0
82.259796 228.0
82.391632 140.0
84.160713 140.0
84.508003 164.0
94.92144 168.0
95.626221 140.0
96.277855 160.0
96.432198 152.0
102.151474 144.0
103.074898 164.0
103.382278 160.0
105.880333 200.0
107.523048 184.0
111.45916 148.0
111.751434 184.0
114.341652 164.0
114.629158 160.0
117.056274 152.0
118.510025 140.0
121.046455 176.0
121.444427 156.0
122.037369 164.0
122.16713 140.0
124.132919 180.0
124.419151 188.0
127.587204 160.0
128.06427 192.0
129.629944 160.0
130.081299 140.0
132.496414 200.0
133.759491 164.0
134.061218 160.0
135.269196 172.0
136.052841 248.0
137.058243 304.0
137.685074 156.0
138.101105 216.0
140.501907 228.0
141.17984 172.0
142.063324 168.0
142.084686 152.0
143.776535 204.0
144.051132 164.0
147.016479 184.0
147.671219 140.0
147.852676 168.0
148.053238 288.0
149.052338 168.0
149.999847 180.0
150.036423 176.0
151.564026 148.0
153.27182 220.0
153.422165 184.0
153.91069 160.0
155.058563 152.0
156.653809 144.0
158.039459 284.0
158.087006 244.0
158.475128 164.0
159.09462 164.0
162.035446 188.0
162.43335 180.0
162.925842 152.0
163.5336 148.0
164.583939 144.0
164.62735 168.0
165.863144 172.0
168.167847 156.0
168.384735 236.0
170.067703 144.0
171.090393 300.0
174.056778 172.0
175.06575 124.0
176.047806 188.0
176.616043 144.0
177.060715 180.0
177.80571 216.0
179.071274 208.0
180.274506 148.0
182.069443 144.0
183.058426 160.0
183.328506 144.0
184.062256 160.0
185.046646 132.0
188.055862 188.0
189.087097 172.0
192.07576 152.0
192.26062 248.0
192.498047 140.0
193.604233 184.0
195.058121 164.0
197.06752 180.0
199.073151 168.0
200.076965 168.0
201.122818 152.0
202.049728 152.0
203.057648 908.0
204.064331 116.0
207.641586 164.0
209.066025 144.0
209.089615 160.0
209.81839 184.0
210.068268 340.0
211.072266 440.0
212.076096 160.0
215.060425 176.0
215.083771 140.0
216.437393 140.0
217.804077 176.0
218.765671 184.0
219.06311 140.0
220.414398 176.0
221.074188 140.0
224.083313 216.0
225.083618 456.0
225.705627 172.0
226.055618 156.0
226.471771 180.0
228.062057 148.0
228.64856 192.0
229.006851 156.0
229.070312 484.0
233.918381 180.0
234.274689 164.0
234.905716 160.0
234.945374 148.0
235.084076 116.0
235.830948 144.0
237.077652 600.0
237.278915 180.0
238.065918 512.0
239.078949 212.0
240.064774 312.0
240.152298 148.0
240.811646 204.0
241.071167 156.0
242.079147 164.0
242.119934 160.0
243.073807 732.0
243.164764 164.0
243.220627 152.0
244.077393 620.0
244.684845 188.0
245.067749 132.0
246.066025 216.0
246.665848 144.0
247.078659 140.0
247.319611 148.0
248.93425 192.0
249.081436 172.0
250.089859 348.0
251.067947 212.0
251.093796 276.0
252.074783 232.0
252.102722 140.0
254.077835 132.0
255.082535 128.0
256.055847 712.0
256.646027 260.0
257.062134 1012.0
257.462982 216.0
257.792023 160.0
258.069946 1012.0
259.04306 140.0
259.073059 220.0
260.083923 180.0
261.074341 140.0
262.082367 168.0
263.098785 144.0
264.094238 172.0
265.08844 164.0
265.126465 200.0
266.074066 148.0
266.10022 108.0
267.0914 712.0
268.093781 156.0
268.132721 144.0
268.925293 172.0
269.088593 144.0
270.065826 372.0
270.099365 156.0
270.923279 200.0
271.075714 1400.0
272.074432 1784.0
273.081116 1836.0
274.086639 652.0
275.10318 152.0
276.108917 268.0
277.082794 200.0
277.614532 224.0
277.949585 152.0
278.076294 316.0
279.091125 2552.0
280.095947 912.0
280.930725 164.0
281.086639 1932.0
282.085541 468.0
282.537659 168.0
282.879028 196.0
283.068665 272.0
283.667358 132.0
283.810394 156.0
284.076538 248.0
285.082581 6424.0
286.08728 1792.0
287.092194 432.0
289.050995 932.0
290.057953 156.0
291.13327 184.0
291.340454 208.0
292.088135 772.0
292.129974 232.0
293.095428 1796.0
293.235809 208.0
294.101288 1416.0
295.110138 812.0
295.14917 148.0
297.081238 672.0
297.331299 136.0
297.525421 156.0
297.961609 144.0
298.081055 240.0
298.435913 160.0
298.579773 264.0
298.651398 132.0
298.837524 152.0
299.05069 244.0
299.098969 55280.0
299.227997 180.0
299.867798 140.0
299.980713 136.0
300.100128 8700.0
301.003021 144.0
301.101929 1396.0
301.897522 128.0
301.94162 100.0
302.100159 188.0
302.123688 280.0
302.187164 108.0
302.25824 120.0
303.952301 176.0
304.386108 188.0
305.113342 192.0
306.107422 248.0
307.105164 128.0
307.978241 180.0
308.127228 160.0
308.58847 156.0
309.571747 148.0
310.097626 120.0
310.651306 160.0
311.064606 164.0
311.097778 712.0
311.778412 164.0
312.096191 460.0
313.101868 720.0
314.100525 220.0
315.196716 148.0
316.138031 208.0
318.093872 188.0
320.081696 360.0
320.118774 348.0
321.088074 280.0
321.122864 296.0
321.792847 220.0
322.133148 3396.0
323.088623 152.0
323.135773 1040.0
324.135376 332.0
325.075439 708.0
325.112152 336.0
326.081482 408.0
326.113861 108.0
327.08078 160.0
327.602936 172.0
330.766327 152.0
334.08316 160.0
336.342529 168.0
338.023712 144.0
338.093414 132.0
338.437347 140.0
338.968506 156.0
339.51474 216.0
340.068726 140.0
340.12619 472.0
341.133392 324.0
341.384003 164.0
341.481384 160.0
341.836487 184.0
342.140991 24392.0
342.274536 196.0
342.34082 172.0
342.547089 176.0
342.647827 140.0
342.927185 104.0
343.090363 640.0
343.144257 6488.0
343.206818 184.0
343.58136 172.0
343.664185 192.0
343.944427 124.0
344.098694 124.0
344.145477 896.0
344.971588 148.0
345.106262 132.0
345.149902 272.0
345.531891 144.0
345.690491 156.0
346.251862 160.0
348.112335 1260.0
348.225006 188.0
348.427612 136.0
349.111786 316.0
350.106171 120.0
355.980774 152.0
356.196136 156.0
357.670197 156.0
358.427185 148.0
359.384949 240.0
366.128204 208.0
366.475494 184.0
367.129425 312.0
368.021118 216.0
368.119873 7412.0
368.25705 140.0
368.581787 212.0
368.619995 184.0
368.944885 152.0
369.123718 1796.0
369.299408 164.0
370.073547 172.0
370.121185 488.0
371.096588 148.0
371.136169 224.0
383.931396 164.0
385.082764 156.0
385.198425 164.0
385.431824 156.0
385.469513 144.0
385.594574 160.0
385.63266 140.0
385.70401 172.0
385.860046 248.0
385.915131 140.0
385.960999 208.0
386.013306 136.0
386.051727 168.0
386.130981 106256.0
386.240936 196.0
386.276642 216.0
386.41629 136.0
386.497314 252.0
386.532471 376.0
386.648285 164.0
386.706207 236.0
386.774811 184.0
386.927704 132.0
387.000641 160.0
387.13327 17564.0
387.513214 164.0
387.796112 156.0
387.917755 100.0
388.134796 1984.0
388.259796 160.0
389.13736 212.0
389.192322 104.0
389.260559 152.0
389.295837 236.0
389.402161 96.0
389.563843 156.0
389.608459 120.0
389.65918 124.0
389.715607 132.0
389.785492 136.0
390.017242 144.0
391.164459 140.0
393.307678 96.0
427.151184 324.0
428.158539 160.0
449.760345 156.0
464.539551 156.0
464.818451 140.0
492.6521 144.0
544.168762 136.0
