>compound MitoxantroneHCl
>formula C22H28N4O6 
>ionization [M+H]+
>parentmass 445.210083
#inchi InChI=1S/C22H28N4O6/c27-11-9-23-5-7-25-13-1-2-14(26-8-6-24-10-12-28)18-17(13)21(31)19-15(29)3-4-16(30)20(19)22(18)32/h1-4,23-30H,5-12H2
#inchikey KKZJGLLVHKMTCM
#Ion_Source LC-ESI
#Instrument qTof
#Compound_Source Isolated
#PI Sirenas
#Data_Collector Ed Esquenazi 
#Scan -1
#Precursor_MZ 445.21
#ExactMass 0.0
#Charge 1
#CAS_Number N/A
#Pubmed_ID N/A
#Smiles N/A
#INCHI_AUX N/A
#Library_Class 3
#SpectrumID CCMSLIB00000005212
#IonMode Positive
#UpdateWorkflowName UPDATE-SINGLE-ANNOTATED-BRONZE
#LibraryQualityString Bronze
#TaskID d19310cd93df49b68e9fcbec27720eb5
##Scan# 2
#SpectrumFile MitoxantroneHCl.mgf
#LibraryName fda_library.mgf
#MQScore -1
#Organism fda_library
#TIC_Query 0
#RT_Query -1
#MZErrorPPM -1
#SharedPeaks 0
#MassDiff 0
#LibMZ -1
#SpecMZ 445.21
#SpecCharge 0
#internalFilename spec-00000.mgf

>collision 10
121.764915 8.341666
131.117859 36.396469
168.080704 19.26667
194.680954 2.333333
196.364075 5.682971
200.919022 17.339911
207.381592 9.148809
213.062378 43.26321
218.041122 21.47349
219.068848 16.107269
223.08844 24.933821
223.644089 13.70379
225.057709 41.321468
236.070496 23.47007
242.737701 2.347222
247.357101 8.107456
251.073624 31.213329
252.061768 57.344051
252.272369 5.337121
253.694366 6.03592
255.074356 58.034771
256.063202 64.625
262.068604 29.67837
263.05545 47.2435
264.069824 87.697563
265.058105 15.28041
267.077606 216.610107
267.109283 21.20417
267.132996 6.208333
267.207001 6.692308
268.061157 174.917007
268.290863 16.492001
268.368378 4.002193
269.057526 162.537201
269.209412 13.63377
269.235321 5.013889
269.414764 16.355261
269.444061 21.53125
270.408539 8.680555
271.073303 516.72052
271.145294 16.023439
271.173981 15.375
271.188263 6.375
271.98996 4.013889
272.324066 18.477381
273.125214 10.51087
277.292053 12.19048
278.076141 227.113403
279.056091 22.343439
279.59668 5.720238
279.768311 3.916667
280.057922 172.499802
280.155334 1.666667
280.359283 7.560484
280.761322 7.380208
281.005829 17.597219
281.069244 134.411697
281.086731 66.261269
281.342468 1.666667
281.455444 9.852273
281.969299 7.017857
282.039368 4.682971
282.072113 87.146683
282.132874 10.66755
282.226379 5.016304
282.337006 3.010417
282.395874 9.334678
282.558105 13.11111
282.682404 7.337302
282.753937 23.171631
283.010132 39.008862
283.072021 1474.04895
283.144684 5.709559
283.191528 12.74423
283.279327 6.001984
283.380096 8.595239
283.423553 9.533334
283.455017 18.461439
283.734772 22.614771
283.818451 2.669872
283.849304 6.160088
283.888214 9.520061
284.078674 1044.463013
284.157837 9.552083
284.180634 16.67083
284.21109 15.0
284.32254 10.34205
284.339142 11.89744
284.363983 4.083333
284.412354 3.1875
284.428284 6.763889
284.510498 14.00962
284.892181 14.58468
285.052429 14.93426
285.138428 1.666667
285.27951 3.669444
285.336609 5.592949
286.16748 3.080128
286.184998 5.75
290.061646 23.96892
292.091339 46.373779
293.092957 72.594467
293.201538 18.04598
293.280243 6.075
293.523438 13.29493
294.066925 7.673611
294.092773 37.027901
294.233093 17.15243
294.671875 3.583333
295.073151 1483.395996
295.103912 90.746513
295.176697 7.35571
295.20816 5.414216
295.287292 3.916667
295.308197 9.363095
295.326141 8.334678
295.394928 51.573898
295.433777 3.0
295.465302 20.22283
295.481628 8.775537
295.503601 3.336538
295.548645 19.057619
295.714233 32.890259
295.803406 38.224621
295.840515 7.782407
296.017639 120.422302
296.237915 5.884804
296.36734 7.672619
296.63092 5.041667
296.774719 3.36218
296.885376 8.027778
296.900604 24.680149
297.087372 11051.910156
297.160095 91.110939
297.185211 83.13945
297.218384 7.383333
297.239746 95.581741
297.281433 102.529701
297.315247 28.811661
297.335236 37.270611
297.377197 111.055397
297.437988 16.063379
297.480957 43.35807
297.554199 35.92712
297.573212 13.44537
297.615234 17.069441
297.709076 24.37417
297.799377 13.54762
297.859039 13.57576
297.91394 17.480209
297.931091 40.543121
297.950562 16.179729
298.001892 26.345261
298.44928 32.523651
298.651886 10.19853
298.858154 6.688726
299.134155 34.731991
299.477814 17.0473
299.604218 10.5328
299.869232 4.333333
300.719299 4.453432
300.815308 3.733333
301.757843 16.40238
303.773438 4.760417
303.852386 6.458333
304.720215 7.921875
305.091858 544.512573
305.145447 1.720238
305.333862 12.00872
305.52179 5.034091
306.00293 9.070402
306.490906 7.111111
309.129059 5.1875
309.173309 5.013889
309.408081 5.734848
310.094452 99.16877
310.397217 14.33333
310.457642 15.30797
311.101959 613.867371
311.148621 8.002778
311.223938 9.190217
311.311615 6.640152
311.357117 3.736111
311.430786 11.67014
311.578217 16.080879
311.609802 1.777778
311.87912 14.03852
313.731812 6.001984
314.162628 6.422222
316.089783 18.864071
320.994537 8.370833
321.046478 5.510417
321.1492 25.792669
321.200745 3.761364
321.226105 14.2875
321.26059 50.81881
321.334839 7.367064
321.427032 23.148279
321.505829 12.33654
321.530548 12.67361
322.098633 99.382172
322.214203 23.7568
322.479858 4.166667
322.698364 16.76136
323.060577 39.087429
323.10318 5096.210938
323.174866 17.817739
323.30484 13.69928
323.332153 9.442307
323.368805 26.70187
323.386169 10.34248
323.465424 5.6875
323.483337 40.631008
323.50061 29.66852
323.54953 36.343521
323.586273 6.868333
323.636505 29.74048
323.734253 5.013889
323.798767 24.05102
323.899384 9.699275
323.945953 63.015572
324.018341 5.801667
324.889374 8.757883
325.058716 5.755435
325.209259 8.015151
325.385315 18.93833
327.182617 10.16329
327.20108 14.6832
327.90564 10.52006
328.278015 5.679598
331.475189 16.034611
333.541901 4.222222
334.458801 15.02778
336.053497 13.16346
337.967194 6.075
338.059937 7.125
338.114532 503.323212
338.434235 13.67432
338.753479 6.335318
339.247498 6.815476
339.402832 19.185261
340.127075 313.149506
340.166626 8.861111
340.857727 15.45268
341.134491 34.51313
341.223938 5.755435
341.275482 9.002192
342.113831 116.952904
342.929047 5.342593
343.889618 9.078431
346.34552 7.333333
347.933533 8.130208
349.112396 20.502979
352.200439 26.889811
352.425476 9.142858
352.647552 4.054824
353.014404 15.38782
353.765594 14.64844
353.883911 8.081897
353.975037 7.005952
354.144562 66.215569
354.200867 8.583333
354.243408 7.810714
354.264587 33.213322
354.331085 38.884781
354.662598 2.669444
354.878845 8.477381
355.028107 4.083333
355.462189 13.75111
355.76413 11.01136
355.815094 18.023251
355.869568 82.927887
355.888397 12.29825
355.913574 60.179169
355.957672 78.587959
356.008087 132.449097
356.081146 121.125702
356.124695 3168.979004
356.197418 115.020599
356.233521 50.791882
356.270874 39.525101
356.29892 86.373657
356.331421 68.704933
356.396027 112.491402
356.442383 62.662071
356.520935 95.340477
356.557892 11.08854
356.609558 23.335119
356.630798 4.0
356.768005 153.110199
356.847656 11.35111
356.886658 146.763199
356.985107 25.61021
357.051758 24.461349
357.258026 53.181438
357.358124 23.39119
357.484924 50.89122
357.580719 31.33654
358.053345 22.54957
358.091827 32.333328
358.141083 40638.179688
358.326477 184.0392
358.452942 71.626373
358.487488 135.131699
358.521606 118.095299
358.557983 111.615601
358.584351 28.394951
358.605652 48.002468
358.631714 74.405724
358.658386 79.275284
358.687866 64.832809
358.731476 75.685631
358.804016 31.21941
358.901123 27.622219
358.946167 124.574303
359.038544 35.900921
359.079315 80.288147
359.244904 104.795197
359.274109 12.44231
359.364777 56.117271
359.918549 15.28125
360.005951 7.625
360.05423 8.888888
360.166779 12.70833
360.201416 9.494048
360.299561 11.78667
360.758423 29.32353
360.954742 5.683333
361.098755 3.666667
361.654541 19.352131
361.806549 4.136111
361.852234 13.40412
361.91922 3.003788
362.33493 31.94659
362.572784 6.002778
362.687592 13.0336
362.786133 11.4359
362.913025 6.774123
363.179352 34.010159
363.230835 6.075617
363.434875 14.55833
363.556061 17.57992
365.521973 2.708333
366.145599 242.591202
366.261017 13.65333
366.446991 11.74898
367.126587 9.357558
367.886871 4.708333
369.964996 2.0
370.125732 9.352941
370.795319 20.00107
371.14975 134.771896
372.096039 34.666672
372.155701 249.934494
372.22345 2.003788
372.545685 5.335526
372.99942 5.422222
373.033844 7.080883
373.171814 7.708333
373.237518 6.430555
373.291412 5.480072
373.358917 10.10526
378.112854 4.844298
381.636139 48.975719
381.741791 11.40016
381.781342 15.48446
381.828918 7.346264
381.910492 3.333333
381.999573 4.094697
382.073669 6.75
382.304932 13.39394
382.327637 14.48016
382.427368 5.357143
382.488586 14.38792
382.529419 3.703704
382.714203 20.91667
383.012665 3.691667
383.400848 4.66886
383.801086 2.375
384.156342 6979.599121
384.240387 50.724251
384.266388 6.721491
384.307404 14.38844
384.379608 110.814697
384.423309 16.195351
384.450531 25.527269
384.480652 49.034199
384.505157 14.42178
384.540924 25.455811
384.564178 8.2
384.600616 6.506945
384.636108 12.00926
384.671417 22.927031
384.70639 59.2836
384.758972 40.10078
384.842621 47.830601
384.946442 81.543533
385.004242 20.037331
385.064758 7.880051
385.084473 15.78838
385.120941 27.931259
385.191101 20.066669
385.276184 50.978809
385.319489 22.28466
385.358124 4.034091
385.404144 17.092279
385.508026 25.741911
386.528015 21.6178
386.561249 6.005952
386.684357 5.724359
386.76767 21.104759
386.811798 14.74849
387.788513 12.15
388.074982 4.225
388.833649 2.408333
391.15036 5.427083
406.953003 9.668859
417.086304 3.686404
425.332733 7.347222
426.632416 10.00417
427.20047 715.561218
427.236816 18.0453
427.372803 6.013889
427.479004 21.6
427.926788 14.64477
428.237 16.51894
428.284393 5.787037
428.320068 18.78788
429.000214 2.016667
430.442047 9.057971
439.469147 22.09091
441.256287 5.675926
441.30014 8.20119
441.476776 6.898148
441.796692 13.90705
441.914215 10.36218
442.095032 46.1702
442.195801 10.17361
442.2388 30.025249
442.286957 22.04891
442.316284 12.46944
442.345276 67.753807
442.411957 90.436127
442.44519 86.629204
442.475922 118.574303
442.506897 16.397011
442.546387 81.842278
442.588074 52.004379
442.63327 80.487358
442.65686 67.685577
442.695404 53.578522
442.743591 39.023441
442.781189 87.909523
442.806488 27.98538
442.887482 1.675
442.99585 25.51683
443.019226 11.02315
443.128815 12.03592
443.319458 74.158493
443.87558 10.76667
443.907288 20.920641
444.052277 10.3375
444.267731 20.52433
444.815308 20.09375
445.064636 20.35606
445.108185 46.413078
445.210083 39992.929688
445.296356 389.226807
445.434631 29.54722
445.499878 252.683899
445.526794 22.371429
445.550842 222.479401
445.576965 142.662704
445.631073 176.217606
445.682831 107.968903
445.743927 226.1604
445.836761 42.555981
445.865204 12.88748
445.883057 144.830399
445.929962 138.977798
446.029236 35.48246
446.101318 145.621994
446.334961 75.532173
446.402954 70.858261
446.47168 83.833862
446.665344 25.335939
446.817596 35.472649
447.130341 55.448711
447.270294 44.914379
447.607361 15.075
447.697601 14.22778
447.797729 32.209011
447.9646 24.317181
448.005066 4.0
448.336487 5.666667
448.413818 3.0
448.56485 3.666667
448.756439 6.666667
450.593384 4.703703
450.983093 25.586809
451.20639 9.1875
451.953217 27.905479
452.02713 9.375
452.078918 2.722222
453.463196 14.05631
457.755127 9.213384
458.821014 8.818548
460.408844 11.67857
481.035919 20.85606
577.63092 7.388514
593.799011 10.27222
708.021667 11.60333
718.638 6.854167
791.242981 40.377731
908.886169 9.337121
1291.37561 12.82036
