>compound Erythratidinone
>formula C19H23NO4
>ionization [M+H]+
>parentmass 330.16998466809054
#inchi InChI=1S/C19H23NO4/c1-22-16-8-12-4-6-20-7-5-13-9-15(21)18(24-3)11-19(13,20)14(12)10-17(16)23-2/h8-10,18H,4-7,11H2,1-3H3
#inchikey GFSAAWPDCQHEAN
#Ion_Source DI-ESI
#Instrument Ion Trap
#Compound_Source Isolated
#PI Norberto Lopes
#Data_Collector Denise Silva
#Scan -1
#Precursor_MZ 298.1
#ExactMass 329.163
#Charge 1
#CAS_Number 41758-74-1
#Pubmed_ID  
#Smiles COC1CC23C4=CC(OC)=C(OC)C=C4CCN2CCC3=CC1=O
#INCHI_AUX  
#Library_Class 3
#SpectrumID CCMSLIB00000081233
#IonMode Positive
#UpdateWorkflowName UPDATE-SINGLE-ANNOTATED-BRONZE
#LibraryQualityString Bronze
#TaskID e3bb6bc597ed4ba5bc8bf3111adefa03
##Scan# 1
#SpectrumFile gnps_Erythratidinone_pos_MplusHminusCH3OH.mgf
#LibraryName gnps_library.mgf
#MQScore -1
#Organism gnps_library
#TIC_Query 0
#RT_Query -1
#MZErrorPPM -1
#SharedPeaks 0
#MassDiff 0
#LibMZ -1
#SpecMZ 298.1
#SpecCharge 0
#internalFilename spec-00000.mgf

>collision 10
150.039001 78890.0
165.039993 458513.0
175.992996 149439.0
189.046997 133556.0
203.065994 48999.0
207.996994 57650.0
212.093002 64849.0
213.904999 140062.0
213.904999 140062.0
214.054001 204990.0
222.022995 50774.0
223.070007 1759695.0
223.070007 1759695.0
223.070007 1759695.0
226.037003 95364.0
227.063004 846905.0
227.063004 846905.0
227.063004 846905.0
229.072998 3515019.0
229.072998 3515019.0
229.072998 3515019.0
237.070999 465650.0
237.070999 465650.0
237.070999 465650.0
239.065002 2310867.0
239.065002 2310867.0
239.065002 2310867.0
242.084 2498082.0
242.084 2498082.0
242.084 2498082.0
248.037003 60502.0
249.084 423280.0
249.084 423280.0
249.084 483538.0
252.080994 948926.0
252.080994 948926.0
252.080994 948926.0
254.093994 2763568.0
254.093994 2763568.0
254.095001 2814310.0
263.084991 48237.0
264.091003 225283.0
265.096008 949473.0
265.096008 949473.0
265.096008 949473.0
267.105011 4292829.0
267.105011 4292829.0
267.105011 4292829.0
269.091003 632591.0
270.125 4779200.0
270.125 4779200.0
270.125 4779200.0
280.110992 4562758.0
280.110992 4562758.0
280.110992 4562758.0
282.102997 1691117.0
283.083008 3353016.0
283.083008 3353016.0
283.083008 3353016.0
296.100006 348281.0
296.100006 348281.0
296.100006 348281.0
298.138 456023.0
