>compound MLS001076522-01!REV 5901
>formula C22H25NO2
>ionization [M+H]+
>parentmass 336.194397
#inchi InChI=1S/C22H25NO2/c1-2-3-4-12-22(24)18-9-7-10-20(15-18)25-16-19-14-13-17-8-5-6-11-21(17)23-19/h5-11,13-15,22,24H,2-4,12,16H2,1H3
#inchikey JRLOEMCOOZSCQP
#Ion_Source LC-ESI
#Instrument qTof
#Compound_Source NIH Pharmacologically Active Library
#PI Dorrestein
#Data_Collector VP/LMS
#Scan -1
#Precursor_MZ 336.201
#ExactMass 335.189
#Charge 1
#CAS_Number N/A
#Pubmed_ID N/A
#Smiles CCCCCC(O)c1cccc(OCc2ccc3ccccc3n2)c1
#INCHI_AUX N/A
#Library_Class 1
#SpectrumID CCMSLIB00000085761
#IonMode Positive
#UpdateWorkflowName UPDATE-SINGLE-ANNOTATED-GOLD
#LibraryQualityString Gold
#TaskID d252d724072548979f1f6f1ced849daf
##Scan# 2422
#SpectrumFile p4-F03_GF3_01_18387.mzXML
#LibraryName Pharm_Active_Library.mgf
#MQScore -1
#Organism Pharm_Active_Library
#TIC_Query 0
#RT_Query -1
#MZErrorPPM -1
#SharedPeaks 0
#MassDiff 0
#LibMZ -1
#SpecMZ 336.201
#SpecCharge 0
#internalFilename spec-00000.mgf

>collision 10
44.90033 328.0
44.914005 352.0
44.91721 116.0
44.930954 48.0
44.943203 220.0
44.96336 256.0
44.994144 188.0
45.009388 220.0
45.022125 404.0
45.036011 136.0
45.059139 340.0
45.067368 184.0
45.081913 424.0
45.092819 200.0
45.095631 116.0
45.108677 180.0
45.133644 292.0
45.15799 164.0
45.176167 236.0
45.192463 260.0
45.20565 268.0
45.222099 140.0
45.226551 132.0
45.236244 212.0
45.24147 160.0
45.256859 224.0
45.27243 268.0
45.293381 184.0
45.301338 172.0
45.319351 152.0
45.322945 296.0
45.348782 192.0
45.366535 152.0
45.396309 120.0
45.428154 196.0
45.445232 208.0
45.468407 172.0
45.472408 76.0
45.488682 180.0
45.490566 164.0
45.515205 192.0
45.533829 160.0
45.550571 104.0
45.566807 244.0
45.588863 248.0
45.605663 200.0
45.620888 396.0
45.635796 184.0
45.650833 580.0
45.673309 144.0
45.685005 60.0
45.703262 112.0
45.738636 412.0
45.769402 244.0
45.7911 84.0
45.811596 116.0
45.828354 68.0
45.833862 136.0
45.849117 132.0
45.867138 240.0
45.895767 140.0
45.905548 244.0
45.925243 192.0
45.946648 360.0
45.969307 188.0
45.978302 132.0
45.993927 80.0
45.998135 156.0
46.004753 336.0
46.010597 244.0
46.013073 160.0
46.030296 44.0
46.048321 288.0
46.060474 116.0
46.063969 72.0
46.068508 112.0
46.074627 148.0
46.079071 124.0
46.085327 296.0
46.110527 424.0
46.123795 156.0
46.129978 96.0
46.133236 152.0
46.147137 92.0
46.156105 156.0
46.175732 468.0
46.195454 316.0
46.221722 152.0
46.233688 260.0
46.24918 152.0
46.263569 192.0
46.278557 144.0
46.288242 356.0
46.311729 264.0
46.349228 84.0
46.357483 188.0
46.369186 124.0
46.38348 348.0
46.412445 196.0
46.422855 136.0
46.438587 196.0
46.454201 80.0
46.467228 172.0
46.48711 92.0
46.505257 72.0
46.529125 204.0
46.542515 180.0
46.553127 108.0
46.578796 176.0
46.596954 160.0
46.60611 240.0
46.628235 304.0
46.653713 264.0
46.674911 224.0
46.701233 156.0
46.711369 264.0
46.732956 176.0
46.756195 160.0
46.766232 228.0
46.779842 136.0
46.797543 160.0
46.823921 140.0
46.835854 104.0
46.863873 208.0
46.878441 360.0
46.928631 252.0
46.93903 364.0
46.967628 164.0
46.986832 316.0
47.005589 268.0
47.018112 116.0
47.042839 184.0
47.056095 216.0
47.072987 104.0
47.084904 208.0
47.107059 192.0
47.123528 196.0
47.133591 284.0
47.142925 556.0
47.180214 84.0
47.213638 244.0
47.219955 420.0
47.225574 124.0
47.228901 124.0
47.240219 124.0
47.251984 320.0
47.281372 144.0
47.29406 224.0
47.304192 124.0
47.310028 88.0
47.312973 132.0
47.324814 124.0
47.336727 116.0
47.345161 184.0
47.35535 104.0
47.366745 152.0
47.377045 224.0
47.387287 176.0
47.405735 404.0
47.421631 48.0
47.434364 128.0
47.456665 72.0
47.473717 84.0
47.490826 120.0
47.52367 232.0
47.545597 532.0
47.560108 172.0
47.579063 180.0
47.589867 260.0
47.6045 388.0
47.619324 180.0
47.636757 308.0
47.658932 80.0
47.66869 276.0
47.684601 168.0
47.690197 56.0
47.693291 168.0
47.709877 184.0
47.731953 344.0
47.73431 332.0
47.740162 196.0
47.757561 148.0
47.781612 316.0
47.796783 368.0
47.805767 264.0
47.828537 344.0
47.841698 272.0
47.858181 172.0
47.872192 256.0
47.882107 188.0
47.904343 132.0
47.91795 120.0
47.92878 200.0
47.941898 228.0
47.965988 196.0
47.969372 168.0
47.985397 248.0
47.991112 100.0
47.996849 284.0
48.017204 296.0
48.035877 208.0
48.046543 164.0
48.066605 256.0
48.07872 280.0
48.103333 124.0
48.121845 188.0
48.135307 400.0
48.150757 444.0
48.174862 316.0
48.199623 184.0
48.231731 228.0
48.261177 172.0
48.272163 176.0
48.281567 156.0
48.286766 112.0
48.291485 192.0
48.320312 104.0
48.322819 172.0
48.346214 172.0
48.367126 120.0
48.382008 148.0
48.393925 200.0
48.406765 252.0
48.429928 292.0
48.452103 164.0
48.467831 108.0
48.484974 320.0
48.501144 168.0
48.521206 220.0
48.525211 156.0
48.530689 184.0
48.542175 148.0
48.557011 136.0
48.572395 116.0
48.597977 156.0
48.603252 128.0
48.606968 140.0
48.624077 216.0
48.634426 188.0
48.689243 280.0
48.701447 180.0
48.721794 96.0
48.739658 140.0
48.743053 160.0
48.749584 68.0
48.754063 184.0
48.77354 368.0
48.783405 160.0
48.803799 120.0
48.823616 380.0
48.844593 288.0
48.864998 348.0
48.882172 152.0
48.896835 132.0
48.909214 140.0
48.933659 364.0
48.945728 280.0
48.962276 140.0
48.984921 260.0
49.000675 332.0
49.010761 160.0
49.035912 144.0
49.051617 192.0
49.076504 136.0
49.089642 168.0
49.098183 168.0
49.118549 156.0
49.128185 128.0
49.139248 332.0
49.149769 212.0
49.163624 160.0
49.202072 176.0
49.226952 336.0
49.259575 144.0
49.277702 140.0
49.287788 92.0
49.298965 460.0
49.312565 76.0
49.336246 88.0
49.347454 84.0
49.35043 120.0
49.364525 144.0
49.376331 168.0
49.391106 68.0
49.402058 164.0
49.419689 228.0
49.424431 64.0
49.43079 232.0
49.453907 48.0
49.464451 372.0
49.473282 240.0
49.482487 116.0
49.492531 136.0
49.518696 204.0
49.531742 236.0
49.545555 296.0
49.577618 224.0
49.587418 188.0
49.600193 168.0
49.616405 116.0
49.648056 180.0
49.667912 296.0
49.678352 164.0
49.703369 104.0
49.717289 200.0
49.730049 304.0
49.744534 340.0
49.759274 168.0
49.77533 76.0
49.808762 180.0
49.820332 180.0
49.839771 104.0
49.856621 300.0
49.870739 200.0
49.873901 160.0
49.879841 144.0
49.893459 296.0
49.897568 160.0
49.913345 208.0
49.940517 160.0
49.956112 140.0
49.975327 88.0
49.990395 228.0
50.008659 156.0
50.021255 184.0
50.053452 292.0
50.075386 332.0
50.085896 144.0
50.09103 248.0
50.106693 104.0
50.119564 196.0
50.154545 100.0
50.174519 304.0
50.18885 136.0
50.207783 400.0
50.232025 268.0
50.235573 292.0
50.240784 260.0
50.252712 348.0
50.266735 184.0
50.288918 356.0
50.315189 136.0
50.327431 76.0
50.341064 48.0
50.356457 236.0
50.371021 324.0
50.385464 120.0
50.40419 136.0
50.420414 192.0
50.433083 184.0
50.445621 108.0
50.461937 200.0
50.482067 180.0
50.509476 284.0
50.519726 160.0
50.524227 220.0
50.550556 148.0
50.562881 224.0
50.578335 176.0
50.601246 180.0
50.62315 68.0
50.644485 120.0
50.654476 252.0
50.662827 108.0
50.691437 172.0
50.709782 220.0
50.728176 128.0
50.74461 328.0
50.77161 264.0
50.787457 120.0
50.808903 192.0
50.825615 244.0
50.845169 228.0
50.867081 360.0
50.887177 128.0
50.903915 168.0
50.920132 132.0
50.940628 132.0
50.960739 148.0
50.972603 152.0
50.982323 148.0
50.985371 96.0
50.999477 336.0
51.01918 228.0
51.030682 196.0
51.039261 160.0
51.052128 176.0
51.074306 108.0
51.089951 188.0
51.107189 264.0
51.127335 124.0
51.144493 316.0
51.160625 112.0
51.173157 284.0
51.196655 216.0
51.212112 76.0
51.22691 292.0
51.241238 292.0
51.260246 320.0
51.267887 312.0
51.288025 252.0
51.299622 204.0
51.313763 328.0
51.317417 160.0
51.32291 284.0
51.333179 116.0
51.342144 72.0
51.351997 188.0
51.361412 100.0
51.371773 156.0
51.383644 208.0
51.394958 136.0
51.423038 136.0
51.432941 148.0
51.447956 220.0
51.467499 272.0
51.48859 164.0
51.502007 132.0
51.504814 156.0
51.523941 272.0
51.537518 492.0
51.555847 312.0
51.568954 132.0
51.578865 284.0
51.59882 268.0
51.6124 240.0
51.625851 184.0
51.653992 128.0
51.659637 168.0
51.668438 284.0
51.69516 364.0
51.73167 212.0
51.753147 120.0
51.767178 140.0
51.776428 124.0
51.791813 332.0
51.818943 232.0
51.834354 88.0
51.838959 128.0
51.843643 128.0
51.853592 132.0
51.878757 220.0
51.898529 164.0
51.932323 320.0
51.964306 404.0
51.993378 404.0
52.010246 192.0
52.021835 276.0
52.039742 172.0
52.045219 144.0
52.051701 288.0
52.075188 164.0
52.102165 160.0
52.108269 68.0
52.112499 180.0
52.128448 284.0
52.139347 276.0
52.169136 192.0
52.171078 128.0
52.189869 388.0
52.208878 400.0
52.22971 272.0
52.24522 176.0
52.25547 128.0
52.276894 176.0
52.298985 136.0
52.332397 288.0
52.342907 144.0
52.356403 216.0
52.399014 196.0
52.416092 164.0
52.432602 332.0
52.458241 120.0
52.467758 164.0
52.485977 116.0
52.512581 116.0
52.527802 176.0
52.537899 208.0
52.555069 240.0
52.565285 252.0
52.586964 152.0
52.602119 80.0
52.63118 152.0
52.643841 344.0
52.662865 144.0
52.6866 52.0
52.701668 84.0
52.72636 176.0
52.763924 192.0
52.768509 220.0
52.786236 120.0
52.810921 72.0
52.84433 244.0
52.85762 216.0
52.873943 308.0
52.900257 76.0
52.909878 220.0
52.930588 216.0
52.948517 120.0
52.969658 180.0
52.981026 220.0
52.986134 112.0
52.990021 156.0
53.006985 220.0
53.021252 164.0
53.038029 128.0
53.049561 152.0
53.059559 132.0
53.075947 212.0
53.08807 156.0
53.099911 128.0
53.132626 104.0
53.144314 180.0
53.151814 120.0
53.155277 140.0
53.170242 52.0
53.18634 112.0
53.198215 236.0
53.215797 84.0
53.227654 168.0
53.242256 200.0
53.256538 92.0
53.259624 172.0
53.26635 148.0
53.26997 200.0
53.302654 168.0
53.325054 252.0
53.333324 280.0
53.349777 176.0
53.370453 200.0
53.385639 184.0
53.416 224.0
53.430908 136.0
53.443771 184.0
53.457054 352.0
53.4748 88.0
53.494385 336.0
53.514858 140.0
53.537907 256.0
53.559128 164.0
53.577587 212.0
53.592785 184.0
53.617615 128.0
53.621529 212.0
53.648808 128.0
53.669456 220.0
53.693092 140.0
53.704708 156.0
53.720814 128.0
53.743835 304.0
53.758202 128.0
53.775631 136.0
53.787392 80.0
53.805676 84.0
53.826168 408.0
53.848671 240.0
53.852371 72.0
53.858105 132.0
53.870331 156.0
53.88604 124.0
53.902481 140.0
53.907585 96.0
53.91399 148.0
53.916687 196.0
53.926559 424.0
53.935356 164.0
53.941944 64.0
53.958019 372.0
53.973118 176.0
53.99789 132.0
54.012131 188.0
54.02206 144.0
54.025738 368.0
54.0373 120.0
54.058655 168.0
54.073318 260.0
54.105415 244.0
54.123444 136.0
54.149452 352.0
54.168957 180.0
54.188656 104.0
54.216202 320.0
54.233437 184.0
54.246899 104.0
54.259922 72.0
54.282722 124.0
54.294571 140.0
54.316319 132.0
54.335964 236.0
54.354649 136.0
54.370316 172.0
54.384296 256.0
54.404331 176.0
54.417297 324.0
54.433212 240.0
54.457016 156.0
54.480564 128.0
54.51292 144.0
54.523899 188.0
54.544136 140.0
54.554005 240.0
54.569813 232.0
54.581482 208.0
54.594353 176.0
54.605106 124.0
54.616661 340.0
54.63776 156.0
54.658405 176.0
54.671303 140.0
54.699272 132.0
54.727833 272.0
54.762829 308.0
54.773273 140.0
54.787888 176.0
54.801865 300.0
54.824379 132.0
54.834122 72.0
54.849354 204.0
54.854546 120.0
54.860455 228.0
54.877422 168.0
54.902241 196.0
54.921051 124.0
54.93158 188.0
54.950039 116.0
54.962997 136.0
54.983028 140.0
54.996944 300.0
55.022858 72.0
55.025661 88.0
55.040043 184.0
55.05983 108.0
55.08831 188.0
55.104797 120.0
55.116001 356.0
55.134701 208.0
55.162098 268.0
55.177784 212.0
55.188282 288.0
55.204231 208.0
55.222027 144.0
55.246475 152.0
55.261475 96.0
55.271832 208.0
55.283672 228.0
55.301434 180.0
55.322941 136.0
55.351841 160.0
55.369999 148.0
55.38126 92.0
55.394527 336.0
55.427414 408.0
55.445065 176.0
55.458439 148.0
55.478706 208.0
55.485863 104.0
55.491581 112.0
55.503716 380.0
55.530144 200.0
55.557156 100.0
55.58321 368.0
55.610752 192.0
55.634022 120.0
55.655571 212.0
55.658863 104.0
55.691063 288.0
55.708691 112.0
55.726627 304.0
55.738392 120.0
55.753639 224.0
55.784107 104.0
55.803898 224.0
55.818501 176.0
55.835567 80.0
55.8508 232.0
55.863918 272.0
55.875088 128.0
55.881611 84.0
55.886486 260.0
55.898544 164.0
55.904049 124.0
55.910019 280.0
55.933544 264.0
55.947094 244.0
55.958782 120.0
55.965004 324.0
55.979713 84.0
56.004467 176.0
56.015903 128.0
56.0471 268.0
56.057999 140.0
56.075027 320.0
56.098732 76.0
56.113125 276.0
56.134075 212.0
56.150684 180.0
56.167068 152.0
56.180538 236.0
56.19696 96.0
56.21801 152.0
56.229961 148.0
56.249546 240.0
56.261738 172.0
56.277229 212.0
56.293213 196.0
56.312405 172.0
56.315594 220.0
56.334377 148.0
56.339184 112.0
56.355831 112.0
56.369602 216.0
56.382015 176.0
56.399998 240.0
56.420898 284.0
56.440376 300.0
56.464001 200.0
56.478603 164.0
56.493382 148.0
56.506664 224.0
56.528713 372.0
56.546314 192.0
56.552219 112.0
56.558487 228.0
56.580498 176.0
56.599274 224.0
56.621567 176.0
56.627502 160.0
56.634308 272.0
56.638908 168.0
56.674305 172.0
56.709183 344.0
56.737949 252.0
56.758961 204.0
56.7645 212.0
56.786453 276.0
56.822067 344.0
56.848022 116.0
56.853668 80.0
56.858662 72.0
56.873337 120.0
56.899525 80.0
56.911537 84.0
56.928581 268.0
56.955582 208.0
56.978638 176.0
56.981106 88.0
57.001434 156.0
57.006584 132.0
57.012718 192.0
57.034615 156.0
57.069614 196.0
57.083672 152.0
57.094685 140.0
57.107494 132.0
57.139675 112.0
57.157883 148.0
57.177734 408.0
57.201923 324.0
57.225182 276.0
57.238346 168.0
57.268532 208.0
57.283676 276.0
57.298084 288.0
57.31918 148.0
57.332802 208.0
57.343933 132.0
57.358368 136.0
57.373196 200.0
57.383766 132.0
57.387527 152.0
57.417049 152.0
57.419979 136.0
57.435417 224.0
57.458092 124.0
57.472721 236.0
57.484085 132.0
57.505009 384.0
57.52092 116.0
57.549255 260.0
57.565392 212.0
57.585407 144.0
57.603333 252.0
57.620216 432.0
57.637032 188.0
57.654621 144.0
57.664059 512.0
57.680801 140.0
57.69775 128.0
57.709156 340.0
57.735565 96.0
57.75708 200.0
57.778194 188.0
57.790352 216.0
57.806393 88.0
57.809456 112.0
57.825306 276.0
57.869003 172.0
57.883587 76.0
57.906494 260.0
57.917007 196.0
57.922516 144.0
57.945206 180.0
57.951824 112.0
57.957191 144.0
57.984447 116.0
58.007996 124.0
58.022278 136.0
58.041435 256.0
58.060822 184.0
58.088097 156.0
58.118999 96.0
58.148201 92.0
58.168068 128.0
58.171043 252.0
58.191055 148.0
58.196697 100.0
58.200638 160.0
58.22081 156.0
58.235809 296.0
58.258537 196.0
58.270641 272.0
58.30238 180.0
58.328941 336.0
58.344082 184.0
58.360363 128.0
58.377033 236.0
58.388332 248.0
58.405869 240.0
58.428116 164.0
58.43895 48.0
58.454998 84.0
58.472973 108.0
58.48999 392.0
58.508202 112.0
58.52652 196.0
58.540176 64.0
58.562229 224.0
58.57431 232.0
58.598503 184.0
58.624218 236.0
58.67012 100.0
58.685173 288.0
58.692402 76.0
58.695282 260.0
58.712692 160.0
58.742279 168.0
58.757755 260.0
58.783649 292.0
58.79752 120.0
58.811226 164.0
58.830063 100.0
58.850788 340.0
58.86488 228.0
58.894211 180.0
58.910511 200.0
58.93277 196.0
58.963955 196.0
58.967182 172.0
59.002323 96.0
59.014439 124.0
59.017479 224.0
59.023354 232.0
59.044765 316.0
59.072533 316.0
59.086395 116.0
59.11692 180.0
59.141594 188.0
59.191975 240.0
59.217266 308.0
59.229004 188.0
59.251354 472.0
59.265491 276.0
59.282223 136.0
59.313622 152.0
59.327694 156.0
59.339344 64.0
59.353638 212.0
59.372044 196.0
59.382771 164.0
59.403687 108.0
59.409344 100.0
59.413658 140.0
59.429546 160.0
59.452858 308.0
59.476238 348.0
59.500214 344.0
59.524441 216.0
59.530319 184.0
59.543301 364.0
59.567455 132.0
59.57399 84.0
59.589756 264.0
59.610516 188.0
59.623165 300.0
59.639236 124.0
59.659985 52.0
59.671616 252.0
59.678364 100.0
59.68042 204.0
59.698853 128.0
59.719387 88.0
59.732719 264.0
59.753922 160.0
59.77441 188.0
59.792801 168.0
59.816139 204.0
59.838005 108.0
59.852604 148.0
59.867321 268.0
59.880268 196.0
59.900951 168.0
59.912552 168.0
59.925137 180.0
59.941109 352.0
59.968651 88.0
59.978474 228.0
60.000462 152.0
60.024387 280.0
60.047318 104.0
60.079735 156.0
60.090168 312.0
60.111134 176.0
60.118809 144.0
60.143517 208.0
60.16309 180.0
60.174606 92.0
60.181824 220.0
60.200943 216.0
60.221565 216.0
60.234966 140.0
60.250416 180.0
60.287487 148.0
60.302826 124.0
60.314861 164.0
60.337505 164.0
60.350891 176.0
60.388359 184.0
60.425056 92.0
60.440441 572.0
60.45409 140.0
60.472458 264.0
60.50563 216.0
60.528896 132.0
60.543194 156.0
60.578827 68.0
60.595024 156.0
60.605949 156.0
60.620033 156.0
60.640244 192.0
60.649696 236.0
60.674225 300.0
60.699215 184.0
60.707279 200.0
60.728313 396.0
60.750797 476.0
60.764252 100.0
60.77116 192.0
60.787659 200.0
60.805195 400.0
60.815964 224.0
60.829494 144.0
60.856594 120.0
60.870609 156.0
60.889648 256.0
60.90361 184.0
60.918663 224.0
60.934845 84.0
60.956512 204.0
60.966942 208.0
60.973015 188.0
60.990562 304.0
61.021816 192.0
61.04446 120.0
61.06374 192.0
61.071747 104.0
61.074135 140.0
61.103729 196.0
61.123856 244.0
61.141945 348.0
61.16695 104.0
61.198677 188.0
61.208355 108.0
61.232346 96.0
61.262089 192.0
61.283794 204.0
61.313118 244.0
61.338867 136.0
61.350899 96.0
61.368008 172.0
61.382393 184.0
61.405659 212.0
61.437172 244.0
61.456001 84.0
61.462242 112.0
61.479118 164.0
61.497047 144.0
61.512318 236.0
61.530079 72.0
61.532318 148.0
61.55159 136.0
61.572044 68.0
61.588345 232.0
61.608624 176.0
61.626045 204.0
61.66814 164.0
61.687881 472.0
61.703617 324.0
61.708782 292.0
61.714153 184.0
61.742767 284.0
61.753574 140.0
61.763744 136.0
61.777988 144.0
61.795506 456.0
61.814732 360.0
61.829193 232.0
61.853901 308.0
61.86599 148.0
61.875286 64.0
61.887695 300.0
61.905937 212.0
61.919472 152.0
61.936371 76.0
61.951691 252.0
61.987316 152.0
62.00296 220.0
62.023746 48.0
62.046658 324.0
62.067951 148.0
62.084801 132.0
62.107708 44.0
62.12397 164.0
62.141888 160.0
62.156273 88.0
62.172516 224.0
62.200527 380.0
62.225933 252.0
62.250412 208.0
62.280025 216.0
62.294411 64.0
62.30619 196.0
62.325443 408.0
62.360798 292.0
62.398895 276.0
62.421844 272.0
62.43465 384.0
62.445099 80.0
62.459785 144.0
62.475163 184.0
62.500366 236.0
62.522507 76.0
62.537613 120.0
62.548737 156.0
62.567631 144.0
62.574844 128.0
62.579525 176.0
62.587742 140.0
62.620846 104.0
62.647099 172.0
62.69701 312.0
62.723362 284.0
62.754665 152.0
62.783356 148.0
62.797409 224.0
62.819366 352.0
62.840996 144.0
62.87001 152.0
62.889534 144.0
62.90382 100.0
62.917629 284.0
62.928555 116.0
62.949734 100.0
62.976868 156.0
62.992847 108.0
63.008656 212.0
63.03307 356.0
63.064541 132.0
63.078835 448.0
63.089176 144.0
63.103798 144.0
63.125587 172.0
63.154118 252.0
63.183167 100.0
63.211933 124.0
63.229149 188.0
63.246971 120.0
63.277657 168.0
63.30043 164.0
63.325855 312.0
63.345928 260.0
63.362362 444.0
63.388237 184.0
63.409706 124.0
63.426884 200.0
63.443829 296.0
63.46228 192.0
63.481731 140.0
63.499485 120.0
63.513973 80.0
63.524544 268.0
63.561527 160.0
63.577072 192.0
63.589996 140.0
63.600876 180.0
63.619671 212.0
63.649353 268.0
63.659866 152.0
63.676079 168.0
63.706043 356.0
63.733723 96.0
63.752926 120.0
63.773766 36.0
63.784245 324.0
63.798649 176.0
63.808949 148.0
63.82478 100.0
63.842945 160.0
63.863361 208.0
63.883812 312.0
63.912514 300.0
63.946697 352.0
63.97678 272.0
64.000793 304.0
64.031342 100.0
64.049866 76.0
64.067451 320.0
64.091583 192.0
64.102715 160.0
64.107201 124.0
64.121086 196.0
64.134491 140.0
64.149651 504.0
64.166153 248.0
64.189949 340.0
64.20462 172.0
64.229958 172.0
64.246307 192.0
64.257256 184.0
64.261597 176.0
64.282982 300.0
64.309227 196.0
64.343681 316.0
64.366966 80.0
64.379021 88.0
64.396339 212.0
64.403419 236.0
64.411964 96.0
64.415649 296.0
64.43454 312.0
64.46476 196.0
64.485695 108.0
64.501328 124.0
64.512146 152.0
64.534676 220.0
64.569153 308.0
64.5868 332.0
64.597313 244.0
64.616554 224.0
64.642029 140.0
64.676453 292.0
64.689934 92.0
64.717964 392.0
64.729263 176.0
64.774948 148.0
64.804688 384.0
64.832718 216.0
64.853439 176.0
64.88913 260.0
64.910027 140.0
64.926971 228.0
64.944046 156.0
64.961845 220.0
64.975914 76.0
64.992615 164.0
65.003731 276.0
65.022011 140.0
65.032776 232.0
65.057236 184.0
65.077194 192.0
65.089149 324.0
65.109024 316.0
65.142799 312.0
65.16378 132.0
65.181732 92.0
65.197128 344.0
65.217583 248.0
65.25032 160.0
65.275421 212.0
65.280365 268.0
65.287346 252.0
65.29184 56.0
65.307892 204.0
65.340256 96.0
65.377953 180.0
65.409233 112.0
65.428215 100.0
65.433022 156.0
65.458473 104.0
65.472786 76.0
65.489929 264.0
65.511696 264.0
65.523987 112.0
65.529617 156.0
65.543602 104.0
65.556183 188.0
65.586815 212.0
65.61084 124.0
65.641861 184.0
65.660408 144.0
65.684242 288.0
65.689522 148.0
65.707924 152.0
65.726883 312.0
65.747185 180.0
65.765068 100.0
65.778305 124.0
65.802803 164.0
65.813919 320.0
65.827576 72.0
65.844604 228.0
65.880882 108.0
65.895973 148.0
65.911736 180.0
65.926125 160.0
65.942474 236.0
65.973366 168.0
66.002098 40.0
66.019417 164.0
66.037682 172.0
66.055992 184.0
66.067924 132.0
66.086662 624.0
66.112556 120.0
66.118103 224.0
66.152298 192.0
66.167267 280.0
66.197617 512.0
66.223816 72.0
66.240158 176.0
66.247276 116.0
66.252869 232.0
66.285339 184.0
66.291153 184.0
66.309692 180.0
66.338676 272.0
66.355637 208.0
66.380409 200.0
66.384354 152.0
66.402702 108.0
66.419945 120.0
66.438538 168.0
66.454903 228.0
66.473488 108.0
66.486992 188.0
66.505661 204.0
66.525665 60.0
66.545776 160.0
66.567436 124.0
66.58519 144.0
66.59877 216.0
66.629257 236.0
66.643158 164.0
66.679382 272.0
66.690094 268.0
66.698746 132.0
66.713875 108.0
66.754204 140.0
66.788261 172.0
66.799622 132.0
66.803864 132.0
66.826637 192.0
66.839417 304.0
66.8619 104.0
66.877098 176.0
66.884575 60.0
66.897034 164.0
66.930695 308.0
66.946838 276.0
66.965919 172.0
66.994179 220.0
67.010399 212.0
67.029961 140.0
67.043709 196.0
67.061859 140.0
67.077415 152.0
67.09272 176.0
67.11132 216.0
67.129906 228.0
67.140495 312.0
67.157936 236.0
67.17041 472.0
67.191444 188.0
67.22023 296.0
67.239731 80.0
67.249878 492.0
67.266212 156.0
67.290237 156.0
67.296761 184.0
67.318497 204.0
67.349411 116.0
67.361519 356.0
67.379631 192.0
67.402435 224.0
67.432144 252.0
67.437454 172.0
67.443726 280.0
67.457741 216.0
67.4711 172.0
67.491814 124.0
67.514153 448.0
67.536171 384.0
67.574844 160.0
67.590927 192.0
67.605492 212.0
67.617096 128.0
67.629013 128.0
67.648911 392.0
67.669182 172.0
67.725624 164.0
67.772499 364.0
67.78904 68.0
67.808197 172.0
67.846992 324.0
67.863564 196.0
67.876404 100.0
67.893036 252.0
67.904366 344.0
67.934578 128.0
67.963371 184.0
67.986916 192.0
68.00396 172.0
68.013008 324.0
68.025963 660.0
68.066017 200.0
68.091255 148.0
68.11026 196.0
68.148094 184.0
68.170341 132.0
68.192924 120.0
68.211044 228.0
68.222229 156.0
68.22892 132.0
68.245728 300.0
68.286888 228.0
68.312576 120.0
68.336327 120.0
68.352776 224.0
68.369583 108.0
68.399078 260.0
68.416542 184.0
68.42244 296.0
68.435509 124.0
68.468018 256.0
68.482361 212.0
68.488266 108.0
68.501015 368.0
68.518646 272.0
68.535988 260.0
68.539185 212.0
68.546127 240.0
68.579781 148.0
68.599365 308.0
68.617973 136.0
68.630379 168.0
68.647789 188.0
68.669792 220.0
68.693375 200.0
68.718346 320.0
68.73896 284.0
68.753738 120.0
68.765831 140.0
68.781601 128.0
68.797165 104.0
68.818352 152.0
68.8339 160.0
68.838707 248.0
68.846413 164.0
68.850388 184.0
68.866669 236.0
68.878067 212.0
68.900414 336.0
68.913788 140.0
68.942207 144.0
68.964409 188.0
68.983612 152.0
68.996727 156.0
69.011429 124.0
69.026039 176.0
69.045975 132.0
69.068306 196.0
69.081467 68.0
69.094444 220.0
69.122688 228.0
69.153107 324.0
69.172287 220.0
69.188255 184.0
69.202278 124.0
69.219978 108.0
69.238914 172.0
69.265129 132.0
69.277092 364.0
69.286049 124.0
69.293594 220.0
69.305214 96.0
69.309517 192.0
69.330673 388.0
69.348648 208.0
69.380035 176.0
69.403198 84.0
69.420578 292.0
69.443161 76.0
69.463264 168.0
69.474274 164.0
69.490044 308.0
69.526115 176.0
69.543976 168.0
69.556343 188.0
69.573936 160.0
69.607941 232.0
69.631653 224.0
69.657631 208.0
69.672508 244.0
69.699249 152.0
69.710457 332.0
69.726562 312.0
69.745178 180.0
69.758812 168.0
69.7714 108.0
69.786278 104.0
69.819244 360.0
69.835487 176.0
69.849884 152.0
69.868958 248.0
69.88382 196.0
69.899368 164.0
69.932877 180.0
69.952965 264.0
69.977959 132.0
69.995186 340.0
70.021469 148.0
70.034424 188.0
70.04657 280.0
70.077126 204.0
70.095825 252.0
70.117271 168.0
70.139977 232.0
70.169449 188.0
70.183479 268.0
70.196671 180.0
70.221046 128.0
70.237732 152.0
70.253258 156.0
70.275505 120.0
70.287796 172.0
70.29892 132.0
70.326347 140.0
70.359474 164.0
70.378883 212.0
70.392181 260.0
70.406975 180.0
70.429733 180.0
70.452789 168.0
70.476021 104.0
70.492523 108.0
70.508308 124.0
70.527611 232.0
70.548409 128.0
70.565437 48.0
70.578583 200.0
70.59127 180.0
70.604218 272.0
70.620834 328.0
70.631577 140.0
70.642189 400.0
70.657333 176.0
70.675545 380.0
70.691727 384.0
70.703651 96.0
70.722336 96.0
70.756927 216.0
70.768776 152.0
70.785469 196.0
70.801926 148.0
70.815826 324.0
70.837883 156.0
70.853493 252.0
70.865807 160.0
70.902145 200.0
70.923546 116.0
70.93483 436.0
70.970161 284.0
70.992287 144.0
71.007668 160.0
71.027794 64.0
71.048752 172.0
71.072647 316.0
71.091011 100.0
71.099983 256.0
71.117912 192.0
71.147072 160.0
71.167206 292.0
71.1782 52.0
71.186447 160.0
71.200851 172.0
71.214111 180.0
71.22654 120.0
71.245575 296.0
71.262833 212.0
71.283531 88.0
71.30365 152.0
71.327408 144.0
71.343506 128.0
71.364319 168.0
71.38279 176.0
71.42453 284.0
71.455864 152.0
71.468071 184.0
71.484947 256.0
71.492821 176.0
71.498383 208.0
71.516273 108.0
71.530029 192.0
71.535797 92.0
71.53904 156.0
71.544182 168.0
71.550621 200.0
71.572548 152.0
71.587044 120.0
71.599739 292.0
71.635681 136.0
71.651077 124.0
71.665619 232.0
71.69043 148.0
71.708786 152.0
71.722366 144.0
71.74015 284.0
71.762199 260.0
71.770416 268.0
71.781677 152.0
71.799416 236.0
71.840866 152.0
71.873489 96.0
71.888336 304.0
71.902542 272.0
71.925217 156.0
71.941521 148.0
71.95359 216.0
71.972984 176.0
71.979675 140.0
71.98362 128.0
72.004982 160.0
72.017555 184.0
72.031517 300.0
72.055061 304.0
72.068115 108.0
72.074501 156.0
72.087601 172.0
72.109558 168.0
72.147034 160.0
72.169655 164.0
72.191109 500.0
72.213875 160.0
72.249809 72.0
72.254807 168.0
72.274315 216.0
72.294479 188.0
72.317139 248.0
72.356796 304.0
72.37101 60.0
72.375015 120.0
72.39061 132.0
72.412331 260.0
72.43557 204.0
72.463051 140.0
72.481865 244.0
72.494247 112.0
72.497421 212.0
72.523712 116.0
72.545593 300.0
72.570358 136.0
72.574745 180.0
72.602379 256.0
72.628609 36.0
72.655754 364.0
72.67585 260.0
72.679611 200.0
72.709679 236.0
72.722755 132.0
72.735428 392.0
72.757385 172.0
72.77359 252.0
72.803619 120.0
72.821312 164.0
72.847366 180.0
72.858795 196.0
72.875488 248.0
72.88736 128.0
72.900375 180.0
72.911987 160.0
72.92511 180.0
72.945305 256.0
72.95285 128.0
72.957916 248.0
72.968788 152.0
72.991745 256.0
73.015289 176.0
73.021164 128.0
73.028992 112.0
73.034157 196.0
73.068466 200.0
73.07119 136.0
73.078171 160.0
73.086273 124.0
73.100227 240.0
73.124176 408.0
73.148193 180.0
73.173271 216.0
73.202995 268.0
73.224419 172.0
73.231644 256.0
73.252792 144.0
73.265717 200.0
73.284309 168.0
73.314728 236.0
73.328896 396.0
73.333633 104.0
73.352753 232.0
73.374611 256.0
73.386192 164.0
73.393326 136.0
73.408539 392.0
73.422371 200.0
73.445793 252.0
73.459793 240.0
73.479721 144.0
73.493477 344.0
73.516914 120.0
73.557709 208.0
73.580643 320.0
73.596779 104.0
73.62587 148.0
73.641037 332.0
73.652222 112.0
73.68322 136.0
73.705025 140.0
73.717567 168.0
73.738098 252.0
73.750557 76.0
73.76825 180.0
73.795135 208.0
73.81205 224.0
73.835762 180.0
73.862236 96.0
73.886322 120.0
73.899521 272.0
73.917503 288.0
73.932899 252.0
73.97393 328.0
73.996529 172.0
74.010155 220.0
74.028397 348.0
74.050163 148.0
74.065269 132.0
74.085648 144.0
74.08876 136.0
74.098984 184.0
74.113297 160.0
74.136108 148.0
74.165436 248.0
74.190887 112.0
74.207825 136.0
74.224365 80.0
74.242691 156.0
74.255585 136.0
74.279434 276.0
74.303711 84.0
74.325058 236.0
74.350548 220.0
74.363518 144.0
74.376892 292.0
74.410378 168.0
74.424667 160.0
74.445824 120.0
74.460655 200.0
74.482323 156.0
74.490181 92.0
74.49514 204.0
74.500801 176.0
74.523506 136.0
74.540085 284.0
74.544952 120.0
74.5513 184.0
74.572922 332.0
74.599266 56.0
74.627525 100.0
74.630829 156.0
74.652046 148.0
74.665764 184.0
74.684029 420.0
74.702446 200.0
74.717926 380.0
74.733765 316.0
74.777649 176.0
74.782181 196.0
74.80793 224.0
74.830528 76.0
74.847549 244.0
74.869217 152.0
74.89267 192.0
74.912163 68.0
74.931419 148.0
74.962265 172.0
74.980103 148.0
74.995941 136.0
75.022018 204.0
75.044266 212.0
75.061424 132.0
75.080566 160.0
75.097305 236.0
75.132095 356.0
75.136864 224.0
75.142776 184.0
75.159546 144.0
75.195572 184.0
75.212517 180.0
75.225716 124.0
75.239151 256.0
75.270218 160.0
75.286186 60.0
75.300362 360.0
75.319061 200.0
75.326042 140.0
75.332962 244.0
75.352974 168.0
75.372726 84.0
75.403481 216.0
75.428841 216.0
75.439369 112.0
75.454239 52.0
75.478584 112.0
75.50444 176.0
75.528732 168.0
75.550377 188.0
75.572998 192.0
75.603134 156.0
75.617393 240.0
75.632034 132.0
75.647987 208.0
75.66806 244.0
75.680542 184.0
75.687485 132.0
75.694672 144.0
75.698746 140.0
75.737244 116.0
75.753975 272.0
75.782715 148.0
75.797897 216.0
75.813156 172.0
75.852989 324.0
75.866341 388.0
75.900467 276.0
75.940475 188.0
75.964333 96.0
75.976097 164.0
75.993896 104.0
76.019783 128.0
76.036713 264.0
76.057617 164.0
76.078003 136.0
76.080292 128.0
76.10775 200.0
76.121925 324.0
76.153435 200.0
76.165604 364.0
76.193748 132.0
76.219131 208.0
76.232231 228.0
76.254288 152.0
76.260468 32.0
76.266594 152.0
76.299866 108.0
76.321487 324.0
76.34919 140.0
76.388969 80.0
76.417267 292.0
76.444008 252.0
76.462051 80.0
76.476662 100.0
76.501785 104.0
76.523254 172.0
76.537079 96.0
76.557198 152.0
76.577728 112.0
76.594551 148.0
76.608337 224.0
76.634056 152.0
76.65506 144.0
76.687515 128.0
76.703506 124.0
76.717384 296.0
76.746246 164.0
76.775002 144.0
76.813507 184.0
76.820992 116.0
76.827034 144.0
76.864349 220.0
76.887085 160.0
76.90731 112.0
76.930153 528.0
76.964798 196.0
76.977905 216.0
76.997696 152.0
77.012245 172.0
77.056992 108.0
77.072166 144.0
77.10125 140.0
77.12738 136.0
77.139565 240.0
77.164101 164.0
77.203079 140.0
77.230515 360.0
77.243271 64.0
77.259079 196.0
77.270088 208.0
77.297523 220.0
77.31916 180.0
77.331917 112.0
77.364059 280.0
77.382668 216.0
77.396927 76.0
77.402359 240.0
77.408043 224.0
77.423912 140.0
77.431122 76.0
77.437241 136.0
77.460243 188.0
77.466698 108.0
77.472832 216.0
77.499535 128.0
77.528511 276.0
77.548988 340.0
77.574127 272.0
77.593628 148.0
77.614243 272.0
77.636642 192.0
77.664085 136.0
77.682381 196.0
77.713448 184.0
77.73497 136.0
77.749367 420.0
77.785851 268.0
77.806061 120.0
77.819397 144.0
77.832619 168.0
77.847298 144.0
77.876389 108.0
77.900124 152.0
77.906029 172.0
77.921349 184.0
77.95816 56.0
77.973122 160.0
77.998703 188.0
78.004868 116.0
78.017792 116.0
78.036072 188.0
78.064949 120.0
78.094276 112.0
78.123291 188.0
78.162605 52.0
78.184776 172.0
78.200714 104.0
78.216553 252.0
78.231781 92.0
78.274178 168.0
78.293129 284.0
78.296753 204.0
78.29985 256.0
78.308723 164.0
78.335663 120.0
78.351143 180.0
78.364243 188.0
78.375221 156.0
78.387985 184.0
78.405289 152.0
78.412285 208.0
78.4282 124.0
78.440598 108.0
78.462715 408.0
78.484329 204.0
78.511879 168.0
78.540092 312.0
78.559181 80.0
78.578484 212.0
78.595001 80.0
78.612648 152.0
78.627815 128.0
78.639977 148.0
78.651474 292.0
78.670227 212.0
78.692604 108.0
78.7257 164.0
78.75898 128.0
78.77523 96.0
78.789474 176.0
78.809906 124.0
78.831795 184.0
78.85392 268.0
78.880127 136.0
78.898186 152.0
78.904594 284.0
78.93338 168.0
78.956192 172.0
78.972031 172.0
78.988098 188.0
79.004402 344.0
79.038147 112.0
79.041939 172.0
79.048141 296.0
79.091866 144.0
79.123573 164.0
79.138588 100.0
79.152916 128.0
79.156502 80.0
79.168152 124.0
79.191772 128.0
79.199547 168.0
79.22522 108.0
79.238602 216.0
79.262283 112.0
79.29068 248.0
79.305435 336.0
79.34687 144.0
79.374336 372.0
79.407143 208.0
79.422455 124.0
79.437988 72.0
79.45002 228.0
79.466957 156.0
79.48571 244.0
79.514755 88.0
79.532478 224.0
79.554237 168.0
79.575516 88.0
79.579605 172.0
79.584816 144.0
79.598358 308.0
79.624557 188.0
79.648514 148.0
79.677979 284.0
79.703484 356.0
79.719009 92.0
79.725266 124.0
79.737709 148.0
79.749687 200.0
79.776794 192.0
79.789368 232.0
79.807671 156.0
79.827209 212.0
79.834587 128.0
79.840561 180.0
79.874161 48.0
79.896133 180.0
79.909592 156.0
79.942337 172.0
79.9617 40.0
79.968063 232.0
79.998329 308.0
80.019409 80.0
80.037437 200.0
80.049957 124.0
80.054451 108.0
80.077629 192.0
80.098648 144.0
80.121513 156.0
80.127937 116.0
80.142265 196.0
80.163513 324.0
80.178268 220.0
80.20459 368.0
80.230988 260.0
80.234589 112.0
80.241844 392.0
80.25885 148.0
80.275909 156.0
80.288216 188.0
80.304672 176.0
80.334427 224.0
80.347588 168.0
80.36097 180.0
80.385689 88.0
80.392998 140.0
80.414627 176.0
80.46064 184.0
80.488899 252.0
80.500282 148.0
80.518501 72.0
80.540443 148.0
80.55397 112.0
80.567627 148.0
80.582504 168.0
80.596214 120.0
80.629723 116.0
80.63253 284.0
80.655739 300.0
80.662842 144.0
80.668259 312.0
80.687202 236.0
80.715462 284.0
80.730049 228.0
80.73455 156.0
80.741188 84.0
80.748886 128.0
80.760155 348.0
80.776237 448.0
80.801987 456.0
80.836853 124.0
80.871788 96.0
80.894104 144.0
80.924133 208.0
80.938873 100.0
80.943748 116.0
80.966148 240.0
80.986298 196.0
81.002113 156.0
81.025902 148.0
81.033394 132.0
81.043205 124.0
81.046684 144.0
81.059822 100.0
81.076561 404.0
81.113129 256.0
81.146881 208.0
81.168358 324.0
81.1894 284.0
81.207359 96.0
81.2202 164.0
81.254478 156.0
81.271233 280.0
81.291946 92.0
81.309525 88.0
81.328171 172.0
81.342247 200.0
81.364067 236.0
81.386246 312.0
81.401955 184.0
81.408813 148.0
81.423286 200.0
81.442833 116.0
81.459488 120.0
81.476364 188.0
81.495354 40.0
81.51458 152.0
81.522491 164.0
81.55265 164.0
81.572395 160.0
81.58622 124.0
81.618729 272.0
81.636635 304.0
81.649681 80.0
81.661293 256.0
81.674263 124.0
81.689888 112.0
81.716171 136.0
81.745422 168.0
81.764297 120.0
81.782326 452.0
81.807228 156.0
81.824181 116.0
81.851173 216.0
81.869614 164.0
81.889305 352.0
81.915939 208.0
81.944 268.0
81.985176 208.0
82.004303 168.0
82.019226 308.0
82.041054 308.0
82.06736 184.0
82.080833 268.0
82.109581 164.0
82.122871 120.0
82.138832 216.0
82.161743 132.0
82.174286 176.0
82.197975 60.0
82.219147 148.0
82.250145 300.0
82.256874 208.0
82.28373 196.0
82.317719 256.0
82.333405 268.0
82.350754 288.0
82.378159 332.0
82.40274 160.0
82.424408 164.0
82.441238 136.0
82.448776 132.0
82.455177 120.0
82.474304 136.0
82.492241 300.0
82.532204 144.0
82.563431 148.0
82.566895 196.0
82.594666 220.0
82.602089 164.0
82.628746 296.0
82.647842 256.0
82.665108 168.0
82.692551 332.0
82.702538 156.0
82.740311 180.0
82.763466 116.0
82.784325 176.0
82.82605 112.0
82.8498 120.0
82.869911 192.0
82.888451 140.0
82.904846 172.0
82.911385 164.0
82.938255 192.0
82.979095 336.0
82.992371 220.0
83.018082 264.0
83.033913 320.0
83.041199 136.0
83.064056 128.0
83.090118 184.0
83.105316 140.0
83.131096 256.0
83.146393 184.0
83.164284 196.0
83.167 152.0
83.174759 92.0
83.179985 204.0
83.199287 192.0
83.242142 104.0
83.264992 212.0
83.282845 144.0
83.294304 68.0
83.312141 160.0
83.333313 264.0
83.351585 152.0
83.38298 312.0
83.410263 164.0
83.418488 180.0
83.446381 256.0
83.478142 384.0
83.495132 236.0
83.508789 152.0
83.51387 224.0
83.536362 128.0
83.541512 168.0
83.549591 188.0
83.584473 348.0
83.60836 212.0
83.633148 192.0
83.646339 224.0
83.660683 96.0
83.666428 180.0
83.672859 256.0
83.686432 312.0
83.708023 76.0
83.732483 176.0
83.751884 296.0
83.783539 140.0
83.787201 204.0
83.795456 72.0
83.80378 176.0
83.808662 156.0
83.827087 108.0
83.874939 104.0
83.905464 216.0
83.92878 108.0
83.944244 192.0
83.980911 136.0
84.0215 356.0
84.039566 136.0
84.055389 240.0
84.074997 452.0
84.104301 328.0
84.117264 236.0
84.133904 316.0
84.137611 180.0
84.146553 136.0
84.164848 116.0
84.177139 184.0
84.203018 284.0
84.23317 216.0
84.276588 104.0
84.294899 264.0
84.317223 452.0
84.344704 340.0
84.356697 160.0
84.359718 380.0
84.376945 180.0
84.388771 348.0
84.410255 256.0
84.434334 180.0
84.451233 180.0
84.465088 100.0
84.467766 168.0
84.485779 316.0
84.511642 228.0
84.529274 324.0
84.568718 288.0
84.598053 96.0
84.627251 148.0
84.65229 152.0
84.677734 152.0
84.72216 224.0
84.744179 228.0
84.767334 140.0
84.779465 128.0
84.799667 140.0
84.826935 332.0
84.847565 80.0
84.856163 140.0
84.886711 172.0
84.915512 368.0
84.932091 396.0
84.960472 108.0
85.000648 144.0
85.019501 156.0
85.035858 232.0
85.056366 264.0
85.074974 228.0
85.112419 392.0
85.132004 120.0
85.157738 124.0
85.169853 264.0
85.178169 40.0
85.182655 264.0
85.201447 148.0
85.214615 156.0
85.234917 284.0
85.254723 172.0
85.27462 300.0
85.308716 304.0
85.32608 172.0
85.336998 272.0
85.369377 96.0
85.382538 172.0
85.399994 372.0
85.426628 180.0
85.43116 336.0
85.450447 144.0
85.470863 104.0
85.516037 88.0
85.523003 132.0
85.558228 308.0
85.5802 120.0
85.607155 156.0
85.624092 168.0
85.650711 116.0
85.659126 188.0
85.675774 204.0
85.691444 40.0
85.710663 176.0
85.757957 256.0
85.762535 96.0
85.780952 132.0
85.792175 88.0
85.825157 332.0
85.86264 96.0
85.883545 100.0
85.924652 240.0
85.938454 120.0
85.944916 164.0
85.967621 272.0
86.023735 160.0
86.056313 252.0
86.075035 364.0
86.102135 176.0
86.125137 140.0
86.153053 176.0
86.165985 204.0
86.180771 152.0
86.208427 156.0
86.23732 120.0
86.252907 256.0
86.268623 112.0
86.276321 200.0
86.297104 308.0
86.322845 404.0
86.335739 328.0
86.377861 600.0
86.397957 168.0
86.418312 148.0
86.43956 164.0
86.452293 188.0
86.484215 192.0
86.512657 156.0
86.525345 148.0
86.545929 372.0
86.558472 232.0
86.579536 156.0
86.599823 208.0
86.640205 220.0
86.664459 272.0
86.685501 96.0
86.714325 88.0
86.755981 172.0
86.796425 148.0
86.811325 128.0
86.844376 244.0
86.879234 172.0
86.911736 168.0
86.949471 80.0
86.971153 188.0
86.991211 168.0
87.017807 156.0
87.037292 176.0
87.060226 232.0
87.081635 164.0
87.0914 128.0
87.096443 156.0
87.116402 160.0
87.140549 64.0
87.169273 332.0
87.190659 508.0
87.203514 164.0
87.223747 584.0
87.238373 268.0
87.256889 168.0
87.270798 108.0
87.292938 216.0
87.328011 196.0
87.346687 280.0
87.358414 192.0
87.383003 120.0
87.40239 176.0
87.419167 128.0
87.447388 184.0
87.472206 104.0
87.48555 76.0
87.489624 64.0
87.497276 188.0
87.521126 224.0
87.541832 44.0
87.546143 100.0
87.575867 152.0
87.588905 164.0
87.611198 136.0
87.631615 164.0
87.662323 208.0
87.683121 168.0
87.701157 228.0
87.717484 204.0
87.742729 324.0
87.766869 196.0
87.79306 336.0
87.839317 168.0
87.852249 260.0
87.874191 148.0
87.890099 292.0
87.929108 148.0
87.958336 240.0
87.999352 184.0
88.020874 196.0
88.036819 156.0
88.054337 68.0
88.073189 152.0
88.092575 96.0
88.114601 364.0
88.144791 152.0
88.151863 240.0
88.158951 84.0
88.165016 104.0
88.172798 156.0
88.18013 144.0
88.204056 128.0
88.22628 124.0
88.258942 180.0
88.275742 112.0
88.292572 76.0
88.308746 136.0
88.332397 152.0
88.387047 152.0
88.404129 268.0
88.437088 184.0
88.460602 100.0
88.480247 108.0
88.504601 344.0
88.544136 244.0
88.569588 136.0
88.586937 172.0
88.627663 300.0
88.656525 184.0
88.669777 136.0
88.675735 160.0
88.700989 376.0
88.729431 380.0
88.771126 192.0
88.802452 288.0
88.831902 192.0
88.850372 116.0
88.887138 256.0
88.912704 128.0
88.925842 144.0
88.94532 160.0
88.960411 144.0
88.98391 404.0
89.019806 324.0
89.03772 1528.0
89.060455 148.0
89.087166 312.0
89.114624 172.0
89.134018 156.0
89.157364 156.0
89.181648 212.0
89.207558 232.0
89.228287 176.0
89.254128 156.0
89.269058 228.0
89.280037 192.0
89.305511 140.0
89.320435 188.0
89.337364 168.0
89.358406 252.0
89.373695 52.0
89.39193 164.0
89.414032 160.0
89.431129 144.0
89.447845 244.0
89.464577 152.0
89.490097 132.0
89.497986 164.0
89.505562 124.0
89.523651 152.0
89.54631 148.0
89.566612 272.0
89.594765 144.0
89.599052 104.0
89.614189 116.0
89.636909 180.0
89.662262 184.0
89.670616 168.0
89.688812 296.0
89.708641 144.0
89.728271 208.0
89.747574 260.0
89.768898 152.0
89.790352 216.0
89.829689 196.0
89.849312 292.0
89.880882 112.0
89.904266 396.0
89.929306 320.0
89.954628 308.0
89.98597 136.0
90.000168 132.0
90.041245 588.0
90.078232 208.0
90.104103 300.0
90.120071 168.0
90.151093 352.0
90.18129 236.0
90.206131 204.0
90.217148 316.0
90.232758 136.0
90.240036 104.0
90.245117 200.0
90.261063 216.0
90.287262 124.0
90.308159 100.0
90.336166 244.0
90.361412 304.0
90.381119 288.0
90.40509 124.0
90.412697 108.0
90.428993 156.0
90.4347 156.0
90.459877 268.0
90.502686 228.0
90.532608 140.0
90.576057 96.0
90.600456 168.0
90.608322 192.0
90.616722 148.0
90.643494 256.0
90.657715 132.0
90.677109 144.0
90.696632 140.0
90.715355 172.0
90.720482 84.0
90.729195 252.0
90.7416 100.0
90.763161 328.0
90.784996 176.0
90.809906 192.0
90.824059 100.0
90.838928 276.0
90.86171 184.0
90.87056 172.0
90.874741 140.0
90.903877 344.0
90.936172 120.0
90.958267 192.0
90.965965 76.0
90.973686 108.0
91.026344 260.0
91.053513 676.0
91.074959 240.0
91.11261 160.0
91.125603 148.0
91.141518 404.0
91.162682 140.0
91.201942 460.0
91.250191 120.0
91.272537 188.0
91.29805 100.0
91.319199 124.0
91.345596 144.0
91.36528 172.0
91.391006 300.0
91.408432 136.0
91.416382 100.0
91.420799 176.0
91.435257 192.0
91.44857 164.0
91.469162 204.0
91.484093 108.0
91.510651 228.0
91.526527 112.0
91.551224 136.0
91.554428 148.0
91.569542 212.0
91.588287 208.0
91.604042 164.0
91.63163 108.0
91.637383 212.0
91.648087 264.0
91.677162 164.0
91.684204 164.0
91.690872 72.0
91.710838 88.0
91.736259 284.0
91.76413 188.0
91.7864 84.0
91.809509 68.0
91.833801 192.0
91.851723 80.0
91.873573 372.0
91.889137 288.0
91.905457 332.0
91.918579 152.0
91.959579 212.0
91.964142 120.0
91.971367 156.0
91.980667 156.0
91.984657 140.0
92.010101 276.0
92.025764 296.0
92.044418 168.0
92.064423 180.0
92.092918 208.0
92.117027 140.0
92.137856 212.0
92.146461 44.0
92.150642 308.0
92.192589 180.0
92.21386 184.0
92.24337 208.0
92.259155 228.0
92.277687 376.0
92.292984 192.0
92.304611 168.0
92.324799 128.0
92.347458 188.0
92.390427 148.0
92.406418 400.0
92.425499 140.0
92.433395 80.0
92.450081 192.0
92.47863 96.0
92.482101 188.0
92.513428 164.0
92.533508 76.0
92.558319 100.0
92.569427 200.0
92.582672 148.0
92.598183 180.0
92.610794 156.0
92.634819 140.0
92.655991 336.0
92.674561 168.0
92.700325 124.0
92.715485 156.0
92.73378 132.0
92.758865 284.0
92.77169 320.0
92.815971 476.0
92.834648 172.0
92.858368 116.0
92.880722 156.0
92.904022 208.0
92.925117 124.0
92.964325 200.0
92.979156 232.0
93.005577 344.0
93.024628 336.0
93.04084 168.0
93.057472 324.0
93.092445 308.0
93.121201 232.0
93.148041 164.0
93.168114 140.0
93.180794 140.0
93.206253 336.0
93.236824 68.0
93.241989 108.0
93.276703 156.0
93.293907 128.0
93.318771 164.0
93.345718 252.0
93.369675 312.0
93.410942 352.0
93.422974 132.0
93.439827 56.0
93.461624 184.0
93.477608 160.0
93.506767 208.0
93.537422 268.0
93.576355 500.0
93.595322 140.0
93.620064 188.0
93.638954 160.0
93.654877 144.0
93.672058 324.0
93.675179 172.0
93.696693 168.0
93.719986 172.0
93.741821 212.0
93.788757 284.0
93.814255 120.0
93.819435 88.0
93.84581 80.0
93.880112 208.0
93.905678 212.0
93.936188 220.0
93.963051 168.0
93.985733 240.0
94.038246 96.0
94.071213 212.0
94.097321 104.0
94.114716 192.0
94.146805 328.0
94.175964 168.0
94.194504 172.0
94.221428 220.0
94.235992 92.0
94.262352 116.0
94.28788 88.0
94.316261 324.0
94.366531 328.0
94.379608 112.0
94.40863 304.0
94.427086 148.0
94.448502 160.0
94.457481 92.0
94.471809 116.0
94.487892 156.0
94.516457 100.0
94.5308 136.0
94.545944 384.0
94.549347 164.0
94.573822 324.0
94.594719 212.0
94.63736 188.0
94.653511 108.0
94.668999 208.0
94.690964 180.0
94.71994 76.0
94.753059 132.0
94.7939 160.0
94.808685 168.0
94.823296 268.0
94.839775 104.0
94.871277 192.0
94.890495 144.0
94.900383 200.0
94.926559 88.0
94.929192 152.0
94.976242 284.0
94.997215 108.0
95.029213 160.0
95.049515 944.0
95.081474 312.0
95.116226 288.0
95.122955 156.0
95.132103 168.0
95.138885 108.0
95.158966 384.0
95.195564 132.0
95.213333 184.0
95.234184 88.0
95.26548 268.0
95.28862 212.0
95.30899 200.0
95.31398 116.0
95.333656 300.0
95.350662 100.0
95.389717 132.0
95.41861 396.0
95.451347 188.0
95.468796 260.0
95.495171 164.0
95.52803 188.0
95.547165 140.0
95.577972 212.0
95.627312 224.0
95.634865 312.0
95.660393 136.0
95.680656 136.0
95.697701 180.0
95.720833 252.0
95.751045 200.0
95.774315 296.0
95.805191 504.0
95.835289 244.0
95.842964 220.0
95.849068 180.0
95.857315 208.0
95.883728 104.0
95.887924 228.0
95.89756 196.0
95.902855 100.0
95.941208 160.0
95.968262 248.0
95.992271 164.0
95.995033 152.0
96.009995 164.0
96.043602 228.0
96.085617 144.0
96.091431 152.0
96.11631 264.0
96.138016 176.0
96.153519 132.0
96.170639 176.0
96.191666 96.0
96.198685 156.0
96.205467 148.0
96.227867 84.0
96.256958 260.0
96.285149 244.0
96.319687 88.0
96.3489 300.0
96.372627 164.0
96.389297 132.0
96.415611 108.0
96.442123 140.0
96.468285 272.0
96.482826 324.0
96.503311 168.0
96.557938 144.0
96.587822 216.0
96.590363 260.0
96.621063 484.0
96.671692 144.0
96.693596 92.0
96.714226 176.0
96.740845 408.0
96.767509 268.0
96.771248 124.0
96.779465 160.0
96.787025 144.0
96.812683 180.0
96.859543 152.0
96.889297 172.0
96.903381 132.0
96.927345 220.0
96.955597 200.0
96.978882 164.0
97.001289 92.0
97.034378 228.0
97.049568 212.0
97.077354 272.0
97.102135 364.0
97.116325 96.0
97.119667 76.0
97.137375 172.0
97.165535 328.0
97.210388 380.0
97.262337 152.0
97.28437 40.0
97.299728 128.0
97.335808 80.0
97.371437 196.0
97.429665 152.0
97.459259 216.0
97.482277 148.0
97.500618 256.0
97.519676 224.0
97.558548 296.0
97.580437 184.0
97.60862 128.0
97.635254 192.0
97.665169 200.0
97.69043 108.0
97.719055 156.0
97.74408 148.0
97.767693 124.0
97.785927 180.0
97.807663 148.0
97.822182 284.0
97.851959 220.0
97.875664 188.0
97.895821 188.0
97.921471 332.0
97.964211 148.0
97.995735 316.0
98.022339 328.0
98.070625 124.0
98.107445 296.0
98.134552 308.0
98.147957 256.0
98.165787 148.0
98.183571 108.0
98.214073 160.0
98.246147 204.0
98.26577 124.0
98.283104 124.0
98.289536 168.0
98.319794 300.0
98.339073 360.0
98.370842 144.0
98.380638 204.0
98.385284 156.0
98.41555 400.0
98.440117 240.0
98.484642 232.0
98.504654 228.0
98.536125 156.0
98.551895 196.0
98.563866 248.0
98.590096 380.0
98.620415 160.0
98.645966 344.0
98.683876 160.0
98.712738 148.0
98.746941 340.0
98.769623 72.0
98.792061 164.0
98.816818 112.0
98.822617 112.0
98.828644 120.0
98.846161 292.0
98.878197 156.0
98.892632 192.0
98.92717 52.0
98.940933 156.0
98.958832 264.0
98.970543 184.0
98.986801 208.0
99.020103 300.0
99.035561 344.0
99.054489 304.0
99.077187 220.0
99.109489 296.0
99.149132 256.0
99.172401 136.0
99.181862 108.0
99.200699 180.0
99.204384 124.0
99.213661 124.0
99.234886 176.0
99.240547 132.0
99.26236 336.0
99.281174 252.0
99.297432 136.0
99.311012 192.0
99.324921 160.0
99.348068 92.0
99.363945 108.0
99.379814 108.0
99.394012 296.0
99.406967 88.0
99.425346 156.0
99.447388 160.0
99.472626 564.0
99.52269 148.0
99.539619 156.0
99.564323 136.0
99.566895 332.0
99.588882 180.0
99.621452 196.0
99.63958 192.0
99.662498 164.0
99.694046 436.0
99.71183 84.0
99.730598 104.0
99.770569 124.0
99.787712 232.0
99.81572 276.0
99.859383 204.0
99.876953 184.0
99.911957 140.0
99.932121 256.0
99.958023 376.0
99.98851 92.0
100.004936 212.0
100.036087 268.0
100.05658 112.0
100.07885 64.0
100.102715 280.0
100.128479 132.0
100.132446 80.0
100.140327 180.0
100.166336 196.0
100.169609 264.0
100.195816 184.0
100.204597 244.0
100.229736 276.0
100.267479 136.0
100.310242 164.0
100.314926 140.0
100.334793 224.0
100.354446 180.0
100.372269 128.0
100.379433 120.0
100.404297 80.0
100.42424 148.0
100.459084 156.0
100.495453 124.0
100.50354 152.0
100.5271 108.0
100.537697 196.0
100.569801 156.0
100.582428 260.0
100.604355 216.0
100.634506 196.0
100.653046 272.0
100.676895 472.0
100.710999 380.0
100.73098 132.0
100.746956 264.0
100.788788 232.0
100.807961 184.0
100.827171 352.0
100.850517 188.0
100.874039 196.0
100.893433 192.0
100.918152 200.0
100.937141 196.0
100.954323 88.0
100.96891 108.0
100.986 144.0
101.008469 116.0
101.036774 1680.0
101.069359 284.0
101.093468 116.0
101.100998 220.0
101.124802 220.0
101.143044 188.0
101.17215 188.0
101.190651 164.0
101.196228 200.0
101.205528 140.0
101.211334 228.0
101.239563 264.0
101.259583 164.0
101.283234 140.0
101.31826 140.0
101.340439 148.0
101.362495 104.0
101.377914 408.0
101.39283 172.0
101.422562 240.0
101.446815 276.0
101.453247 176.0
101.459328 364.0
101.485435 328.0
101.520981 88.0
101.539978 172.0
101.545143 68.0
101.590714 156.0
101.610275 276.0
101.646629 120.0
101.66684 396.0
101.685608 132.0
101.716011 204.0
101.739273 232.0
101.754799 184.0
101.770973 216.0
101.799011 132.0
101.832245 176.0
101.85125 96.0
101.880585 456.0
101.889732 368.0
101.925407 116.0
101.946228 320.0
101.964691 128.0
101.988052 64.0
102.001808 280.0
102.045395 1180.0
102.083015 156.0
102.119568 168.0
102.151588 160.0
102.171371 212.0
102.194305 132.0
102.232422 176.0
102.249084 304.0
102.275154 164.0
102.293602 304.0
102.297127 204.0
102.324722 408.0
102.348518 116.0
102.367416 572.0
102.400002 160.0
102.422729 212.0
102.444595 160.0
102.46759 176.0
102.488617 188.0
102.508713 276.0
102.537315 476.0
102.554276 120.0
102.581886 48.0
102.613289 308.0
102.635368 144.0
102.664551 156.0
102.683754 208.0
102.702911 208.0
102.726494 304.0
102.751869 164.0
102.792404 192.0
102.810852 240.0
102.830978 376.0
102.853264 136.0
102.884262 124.0
102.921188 328.0
102.967728 232.0
102.99276 52.0
103.015915 552.0
103.053909 916.0
103.096085 328.0
103.116074 328.0
103.145027 128.0
103.17868 216.0
103.193611 88.0
103.222061 164.0
103.246826 240.0
103.276283 168.0
103.306419 288.0
103.320915 72.0
103.328392 200.0
103.343834 196.0
103.365105 248.0
103.389824 148.0
103.419693 148.0
103.441521 156.0
103.445541 84.0
103.453133 116.0
103.468773 80.0
103.493591 140.0
103.52005 136.0
103.535255 72.0
103.560555 360.0
103.591637 104.0
103.618263 128.0
103.622971 156.0
103.646156 316.0
103.677177 308.0
103.702278 356.0
103.716057 352.0
103.758087 60.0
103.782516 164.0
103.79895 180.0
103.809074 124.0
103.820808 176.0
103.838943 208.0
103.849625 180.0
103.853554 348.0
103.866966 240.0
103.880219 212.0
103.898682 336.0
103.934067 72.0
103.960251 180.0
103.9804 132.0
104.006523 196.0
104.023247 300.0
104.050232 208.0
104.095795 360.0
104.1315 196.0
104.161179 56.0
104.179932 176.0
104.184334 116.0
104.212044 164.0
104.229172 40.0
104.231964 164.0
104.250908 380.0
104.27359 400.0
104.310684 164.0
104.32354 124.0
104.339554 316.0
104.363953 288.0
104.387268 132.0
104.41095 308.0
104.432297 188.0
104.453835 172.0
104.481606 248.0
104.504967 136.0
104.545349 256.0
104.56337 348.0
104.578941 264.0
104.594368 184.0
104.641594 268.0
104.666733 128.0
104.690727 304.0
104.735809 100.0
104.75544 236.0
104.777069 184.0
104.79454 180.0
104.824181 148.0
104.873299 152.0
104.909157 160.0
104.930328 184.0
104.952003 104.0
104.98201 356.0
105.006546 288.0
105.031281 440.0
105.052208 560.0
105.067818 872.0
105.098145 136.0
105.118706 144.0
105.139809 128.0
105.156441 132.0
105.168198 144.0
105.172684 284.0
105.192474 88.0
105.242096 240.0
105.265137 88.0
105.298775 156.0
105.335045 188.0
105.358032 124.0
105.372322 200.0
105.378494 200.0
105.385277 184.0
105.397163 244.0
105.412651 96.0
105.430885 184.0
105.469009 240.0
105.490112 92.0
105.498436 264.0
105.503807 220.0
105.51265 292.0
105.54493 96.0
105.569916 160.0
105.594978 300.0
105.621696 256.0
105.653748 160.0
105.673027 268.0
105.69558 168.0
105.744812 184.0
105.782944 164.0
105.812241 312.0
105.829094 144.0
105.833771 160.0
105.849327 188.0
105.862648 276.0
105.880341 116.0
105.895477 264.0
105.917564 160.0
105.938904 352.0
105.955345 112.0
105.984627 140.0
105.992371 104.0
106.001549 172.0
106.03643 200.0
106.067772 400.0
106.08783 112.0
106.108109 168.0
106.146393 92.0
106.163528 328.0
106.220963 192.0
106.24205 180.0
106.278732 52.0
106.315933 304.0
106.326248 204.0
106.331436 348.0
106.347244 248.0
106.363663 92.0
106.387642 356.0
106.401115 132.0
106.420082 152.0
106.436386 200.0
106.476067 124.0
106.514732 268.0
106.536728 160.0
106.563515 172.0
106.574097 152.0
106.591896 128.0
106.620911 132.0
106.63414 332.0
106.663445 180.0
106.684494 180.0
106.704453 140.0
106.722549 172.0
106.746559 132.0
106.755409 84.0
106.763626 188.0
106.768494 208.0
106.775505 192.0
106.812767 472.0
106.850578 228.0
106.871399 476.0
106.909088 360.0
106.940636 184.0
106.957886 172.0
106.986549 324.0
107.012001 344.0
107.048737 13852.0
107.082779 196.0
107.102753 244.0
107.123711 212.0
107.168266 156.0
107.199989 144.0
107.217735 484.0
107.272499 120.0
107.279449 332.0
107.305664 144.0
107.322235 164.0
107.339363 156.0
107.358032 140.0
107.366684 148.0
107.379456 184.0
107.398094 124.0
107.402489 180.0
107.431694 104.0
107.45565 236.0
107.49102 420.0
107.512924 208.0
107.526619 436.0
107.549835 212.0
107.561111 160.0
107.586006 156.0
107.614029 168.0
107.643234 188.0
107.666519 152.0
107.718575 184.0
107.72522 88.0
107.758934 232.0
107.777596 176.0
107.79718 224.0
107.815247 316.0
107.848381 136.0
107.860962 388.0
107.875648 312.0
107.900436 276.0
107.915985 148.0
107.948357 200.0
107.971321 180.0
107.980156 116.0
107.986923 132.0
108.005974 176.0
108.022522 176.0
108.051392 1184.0
108.073456 292.0
108.089195 112.0
108.122375 104.0
108.146538 116.0
108.16761 216.0
108.183815 64.0
108.209984 180.0
108.224083 124.0
108.265526 220.0
108.297371 252.0
108.336449 224.0
108.373863 244.0
108.400002 216.0
108.447968 192.0
108.487946 144.0
108.505119 148.0
108.52253 392.0
108.54287 224.0
108.568588 164.0
108.58239 192.0
108.600105 120.0
108.618935 316.0
108.650948 120.0
108.673798 136.0
108.689308 464.0
108.717819 188.0
108.743729 176.0
108.776833 64.0
108.818787 232.0
108.837044 224.0
108.865875 332.0
108.902946 120.0
108.935791 256.0
108.968033 188.0
109.006569 320.0
109.025208 284.0
109.046341 160.0
109.063789 140.0
109.097794 128.0
109.124786 116.0
109.143448 132.0
109.153816 144.0
109.16169 104.0
109.179924 148.0
109.188835 192.0
109.194305 140.0
109.211121 276.0
109.2397 244.0
109.258095 232.0
109.291801 348.0
109.335739 112.0
109.355721 252.0
109.391388 324.0
109.44178 324.0
109.471214 256.0
109.485046 208.0
109.515427 312.0
109.551277 52.0
109.577553 152.0
109.602112 104.0
109.629608 220.0
109.647583 160.0
109.656036 100.0
109.661972 128.0
109.677269 184.0
109.694221 256.0
109.715393 236.0
109.732536 476.0
109.759468 108.0
109.788292 172.0
109.816437 280.0
109.845467 264.0
109.874168 192.0
109.906952 212.0
109.924103 144.0
109.938255 136.0
109.977211 132.0
110.011887 160.0
110.030098 164.0
110.053314 168.0
110.082397 88.0
110.102669 196.0
110.118881 64.0
110.145531 304.0
110.183784 584.0
110.210945 116.0
110.242134 180.0
110.288445 216.0
110.306557 192.0
110.336823 160.0
110.361488 132.0
110.37867 280.0
110.403343 148.0
110.418434 124.0
110.445961 32.0
110.478264 208.0
110.493172 124.0
110.497505 44.0
110.503723 216.0
110.532585 348.0
110.541489 240.0
110.544868 300.0
110.563255 296.0
110.584007 160.0
110.618835 340.0
110.650627 220.0
110.663086 192.0
110.67733 160.0
110.698494 344.0
110.752846 224.0
110.775597 340.0
110.80394 56.0
110.834404 156.0
110.849586 424.0
110.853394 344.0
110.876976 160.0
110.912918 120.0
110.933876 160.0
110.961212 144.0
111.003731 128.0
111.02404 172.0
111.045082 252.0
111.054543 140.0
111.060226 188.0
111.075729 268.0
111.103745 400.0
111.122505 144.0
111.132179 148.0
111.13575 128.0
111.151802 124.0
111.168793 248.0
111.203186 176.0
111.221619 184.0
111.247734 184.0
111.271553 276.0
111.293343 312.0
111.308884 60.0
111.312431 104.0
111.327362 272.0
111.359818 176.0
111.381828 180.0
111.406792 188.0
111.426605 296.0
111.444107 72.0
111.468552 100.0
111.504745 112.0
111.520798 160.0
111.54393 200.0
111.557915 156.0
111.580261 132.0
111.612038 180.0
111.63765 188.0
111.652969 120.0
111.673286 96.0
111.698204 148.0
111.710602 240.0
111.717194 132.0
111.75235 164.0
111.771812 192.0
111.77713 140.0
111.825813 280.0
111.846512 168.0
111.872452 204.0
111.889404 124.0
111.90834 568.0
111.927002 152.0
111.956696 148.0
111.975143 208.0
112.001839 256.0
112.017372 168.0
112.06002 72.0
112.089973 236.0
112.113747 364.0
112.142403 112.0
112.170967 212.0
112.196129 116.0
112.202721 156.0
112.218742 164.0
112.253395 112.0
112.262032 96.0
112.27636 156.0
112.314056 156.0
112.34153 56.0
112.368591 172.0
112.380333 96.0
112.389061 244.0
112.409195 84.0
112.427284 160.0
112.452965 216.0
112.483887 296.0
112.504425 192.0
112.537666 96.0
112.544037 156.0
112.551895 272.0
112.591591 208.0
112.608147 156.0
112.623459 188.0
112.638145 196.0
112.671272 144.0
112.694031 336.0
112.712708 244.0
112.727104 144.0
112.774223 120.0
112.802498 128.0
112.832199 156.0
112.855225 240.0
112.895157 172.0
112.929108 288.0
112.956535 140.0
112.978195 188.0
112.996513 164.0
113.015678 220.0
113.036583 936.0
113.057976 240.0
113.082466 88.0
113.105751 68.0
113.128387 184.0
113.150627 100.0
113.178452 200.0
113.206146 104.0
113.227715 148.0
113.255997 256.0
113.275002 128.0
113.282722 168.0
113.288727 120.0
113.305641 184.0
113.323792 156.0
113.341278 184.0
113.367134 136.0
113.386108 296.0
113.398972 120.0
113.414871 316.0
113.458145 196.0
113.480904 268.0
113.499207 112.0
113.50621 216.0
113.544281 220.0
113.573059 120.0
113.586288 248.0
113.614449 228.0
113.658394 364.0
113.689369 164.0
113.71244 208.0
113.765625 268.0
113.800926 404.0
113.816811 184.0
113.825462 112.0
113.832901 180.0
113.837494 216.0
113.875229 312.0
113.903061 56.0
113.932404 192.0
113.949089 108.0
113.984535 184.0
114.011734 300.0
114.033295 468.0
114.046196 452.0
114.0756 408.0
114.106995 144.0
114.116982 284.0
114.136688 120.0
114.153854 176.0
114.176315 232.0
114.189209 168.0
114.217987 300.0
114.252937 260.0
114.280602 228.0
114.321243 164.0
114.352066 116.0
114.369316 232.0
114.398163 112.0
114.413811 164.0
114.442429 260.0
114.471962 156.0
114.502281 256.0
114.528725 148.0
114.53833 168.0
114.545517 140.0
114.578323 308.0
114.59304 160.0
114.602463 200.0
114.653343 268.0
114.672249 288.0
114.680466 92.0
114.71698 148.0
114.756393 492.0
114.781174 348.0
114.822624 200.0
114.857918 276.0
114.877274 228.0
114.920311 132.0
114.942604 228.0
114.947372 120.0
114.967514 360.0
115.000259 444.0
115.018166 484.0
115.054344 145008.0
115.110596 152.0
115.11853 80.0
115.135719 372.0
115.16346 56.0
115.20076 272.0
115.21759 232.0
115.233688 188.0
115.2575 140.0
115.271049 148.0
115.303986 296.0
115.327934 116.0
115.335777 56.0
115.34256 100.0
115.364014 200.0
115.404083 1744.0
115.432343 136.0
115.452103 324.0
115.477242 280.0
115.514511 68.0
115.531624 180.0
115.559616 220.0
115.604027 36.0
115.610466 192.0
115.624344 284.0
115.641876 248.0
115.653557 84.0
115.657921 324.0
115.689178 352.0
115.716957 112.0
115.724777 64.0
115.752449 248.0
115.767815 284.0
115.784592 164.0
115.803085 164.0
115.808502 112.0
115.83831 140.0
115.863106 468.0
115.908905 240.0
115.933472 52.0
115.946312 336.0
115.974602 164.0
116.000671 120.0
116.051262 45020.0
116.099892 132.0
116.116737 176.0
116.135376 296.0
116.155296 256.0
116.198555 220.0
116.215309 200.0
116.234016 168.0
116.252487 400.0
116.276375 144.0
116.283035 232.0
116.321762 176.0
116.346306 152.0
116.378128 104.0
116.397995 212.0
116.406853 172.0
116.414566 184.0
116.434204 300.0
116.466637 140.0
116.492081 188.0
116.517029 56.0
116.552071 172.0
116.554886 148.0
116.564392 196.0
116.575348 152.0
116.610268 112.0
116.639816 68.0
116.645737 152.0
116.656212 116.0
116.66468 112.0
116.673439 104.0
116.679054 168.0
116.688362 204.0
116.712685 148.0
116.725639 160.0
116.753822 188.0
116.774796 360.0
116.802216 192.0
116.829498 132.0
116.852959 132.0
116.869614 144.0
116.895905 192.0
116.903015 152.0
116.929466 176.0
116.936127 164.0
116.945206 184.0
116.954193 148.0
116.973076 128.0
116.977516 156.0
117.013702 108.0
117.055725 9680.0
117.104904 240.0
117.130058 172.0
117.136765 232.0
117.153465 152.0
117.167542 336.0
117.195335 236.0
117.243492 96.0
117.282249 192.0
117.314636 176.0
117.344627 268.0
117.36216 372.0
117.383003 156.0
117.406845 204.0
117.422295 164.0
117.451515 164.0
117.477669 152.0
117.505486 148.0
117.528145 136.0
117.55941 152.0
117.571587 204.0
117.61573 416.0
117.650726 168.0
117.683586 176.0
117.711761 100.0
117.718651 84.0
117.742149 168.0
117.757713 108.0
117.782928 84.0
117.789032 132.0
117.807076 108.0
117.814491 56.0
117.833153 64.0
117.85611 276.0
117.886543 216.0
117.903976 196.0
117.918587 192.0
117.93705 192.0
117.952339 168.0
117.975876 184.0
117.99958 280.0
118.030563 192.0
118.058167 836.0
118.112389 124.0
118.118866 60.0
118.12793 320.0
118.130859 224.0
118.155411 144.0
118.171829 352.0
118.206017 236.0
118.209717 68.0
118.236572 164.0
118.256233 184.0
118.280571 184.0
118.327209 280.0
118.358772 152.0
118.379379 212.0
118.40097 184.0
118.41687 236.0
118.43058 152.0
118.456917 168.0
118.483192 232.0
118.507721 76.0
118.539215 152.0
118.58094 212.0
118.604782 172.0
118.637924 272.0
118.661247 204.0
118.688393 92.0
118.733887 168.0
118.756508 244.0
118.786453 236.0
118.800301 148.0
118.822571 300.0
118.836243 176.0
118.867447 344.0
118.887611 132.0
118.919777 188.0
118.938377 132.0
118.978134 216.0
118.995934 204.0
119.011246 160.0
119.049599 256.0
119.068443 144.0
119.086266 276.0
119.109413 180.0
119.123825 168.0
119.15036 148.0
119.158173 120.0
119.165779 168.0
119.205528 328.0
119.224297 152.0
119.238579 248.0
119.253792 104.0
119.270981 88.0
119.294662 268.0
119.328049 172.0
119.363823 124.0
119.368217 76.0
119.39679 352.0
119.429146 172.0
119.449226 232.0
119.484116 332.0
119.512581 116.0
119.530861 168.0
119.574783 192.0
119.60537 164.0
119.62027 92.0
119.651459 164.0
119.689507 280.0
119.703857 184.0
119.73597 156.0
119.764648 184.0
119.803925 96.0
119.812027 188.0
119.837242 76.0
119.861275 200.0
119.8815 96.0
119.906548 132.0
119.93689 124.0
119.956726 164.0
119.997025 184.0
120.03537 76.0
120.054893 96.0
120.06086 136.0
120.068665 156.0
120.098618 148.0
120.113884 68.0
120.140961 184.0
120.159424 96.0
120.172104 76.0
120.185631 248.0
120.224495 164.0
120.2649 348.0
120.344116 300.0
120.357414 48.0
120.396034 196.0
120.419533 264.0
120.43412 340.0
120.456169 240.0
120.485863 336.0
120.512184 156.0
120.532471 144.0
120.555786 160.0
120.5746 264.0
120.594719 332.0
120.618019 120.0
120.654701 124.0
120.686882 208.0
120.715782 140.0
120.743538 88.0
120.762627 176.0
120.787018 124.0
120.803566 168.0
120.844337 228.0
120.88884 184.0
120.918137 160.0
120.952995 188.0
120.987961 152.0
121.003227 288.0
121.027748 324.0
121.065849 488.0
121.111603 120.0
121.13694 68.0
121.159653 220.0
121.207489 140.0
121.239372 160.0
121.257164 132.0
121.273895 88.0
121.294006 208.0
121.336693 108.0
121.363998 328.0
121.38797 200.0
121.411888 196.0
121.437714 108.0
121.475571 152.0
121.49192 164.0
121.514748 220.0
121.545914 140.0
121.58847 176.0
121.615913 112.0
121.635567 520.0
121.661552 184.0
121.69384 108.0
121.729271 196.0
121.746704 332.0
121.761078 240.0
121.791679 160.0
121.806725 284.0
121.824226 196.0
121.846207 168.0
121.876312 100.0
121.896194 132.0
121.912498 180.0
121.936592 260.0
121.974159 144.0
122.016479 316.0
122.036766 176.0
122.060471 164.0
122.08725 392.0
122.119278 424.0
122.12825 296.0
122.134277 340.0
122.15316 104.0
122.157036 140.0
122.195312 292.0
122.214142 156.0
122.23877 144.0
122.247261 168.0
122.257797 92.0
122.294716 232.0
122.324898 144.0
122.341286 156.0
122.357536 192.0
122.370941 132.0
122.392311 224.0
122.426422 324.0
122.447464 288.0
122.491058 248.0
122.512131 268.0
122.539688 328.0
122.562729 164.0
122.570801 304.0
122.594521 192.0
122.614182 152.0
122.635902 104.0
122.647858 76.0
122.655876 116.0
122.685577 208.0
122.738815 228.0
122.78093 228.0
122.813324 168.0
122.844452 140.0
122.882271 124.0
122.88549 108.0
122.917854 188.0
122.942619 156.0
122.965347 440.0
122.988457 436.0
123.008759 128.0
123.017342 272.0
123.040771 876.0
123.066658 68.0
123.085625 168.0
123.109383 232.0
123.148376 192.0
123.161514 252.0
123.194977 196.0
123.237968 148.0
123.265572 176.0
123.287292 96.0
123.308754 272.0
123.337303 384.0
123.361282 156.0
123.386459 156.0
123.408226 48.0
123.455841 272.0
123.481171 608.0
123.516594 148.0
123.536034 136.0
123.553513 104.0
123.570526 244.0
123.588188 200.0
123.638245 216.0
123.669792 204.0
123.69117 184.0
123.713867 192.0
123.740501 152.0
123.767372 204.0
123.785675 208.0
123.799904 244.0
123.825783 64.0
123.861969 120.0
123.88279 104.0
123.919716 136.0
123.960258 208.0
123.986 116.0
123.992882 372.0
124.015335 304.0
124.040451 204.0
124.066872 132.0
124.095589 180.0
124.115685 56.0
124.154419 124.0
124.168533 264.0
124.173851 208.0
124.206291 248.0
124.225166 172.0
124.229294 160.0
124.265732 240.0
124.306389 192.0
124.339157 152.0
124.370239 236.0
124.400681 164.0
124.450562 200.0
124.486511 196.0
124.511063 240.0
124.541489 204.0
124.578445 68.0
124.620659 84.0
124.642227 124.0
124.673889 196.0
124.692215 80.0
124.699219 136.0
124.709129 192.0
124.712486 112.0
124.745667 176.0
124.760674 208.0
124.785942 164.0
124.817001 156.0
124.8507 140.0
124.87619 296.0
124.916412 140.0
124.940376 164.0
124.94635 164.0
124.965546 176.0
124.998512 168.0
125.015388 148.0
125.022705 100.0
125.055862 180.0
125.081718 76.0
125.09787 316.0
125.113373 292.0
125.127647 144.0
125.169754 200.0
125.192345 116.0
125.215759 148.0
125.254303 196.0
125.277328 236.0
125.313477 200.0
125.352348 400.0
125.369247 108.0
125.375748 160.0
125.413658 156.0
125.450806 176.0
125.488708 168.0
125.512604 160.0
125.561554 168.0
125.584602 148.0
125.620148 104.0
125.648506 124.0
125.678467 272.0
125.723824 120.0
125.741852 184.0
125.778481 224.0
125.788658 104.0
125.821236 300.0
125.845703 76.0
125.872421 180.0
125.9328 56.0
125.957817 196.0
125.983749 196.0
125.987877 104.0
126.025284 272.0
126.059837 172.0
126.09848 84.0
126.131058 148.0
126.172234 276.0
126.212463 216.0
126.221848 108.0
126.24868 252.0
126.269073 116.0
126.313484 404.0
126.339775 136.0
126.359779 80.0
126.375443 144.0
126.39856 72.0
126.431442 340.0
126.465759 380.0
126.501892 140.0
126.547981 132.0
126.565697 164.0
126.587349 96.0
126.621445 132.0
126.638718 104.0
126.664619 228.0
126.710602 288.0
126.737373 224.0
126.75351 268.0
126.788307 252.0
126.825943 148.0
126.856049 140.0
126.877052 172.0
126.911079 116.0
126.933807 396.0
126.957031 152.0
127.02182 236.0
127.04361 464.0
127.09507 224.0
127.131279 84.0
127.147728 292.0
127.167191 188.0
127.188118 408.0
127.221748 204.0
127.262505 264.0
127.310272 284.0
127.338516 364.0
127.387138 136.0
127.418022 112.0
127.435684 172.0
127.456467 260.0
127.494606 48.0
127.523468 52.0
127.542557 164.0
127.573013 196.0
127.579514 84.0
127.621002 348.0
127.649261 128.0
127.664154 140.0
127.690018 212.0
127.713287 104.0
127.749977 104.0
127.771469 156.0
127.800056 132.0
127.823944 296.0
127.852219 168.0
127.895302 188.0
127.931648 160.0
127.988121 124.0
128.01712 292.0
128.048981 40348.0
128.108765 356.0
128.131653 208.0
128.183441 116.0
128.210999 168.0
128.234589 260.0
128.240936 140.0
128.247528 264.0
128.269745 240.0
128.2892 172.0
128.295929 152.0
128.310028 240.0
128.331436 160.0
128.352478 152.0
128.357635 108.0
128.378799 168.0
128.422897 236.0
128.441513 228.0
128.470047 128.0
128.500992 136.0
128.516083 268.0
128.53624 192.0
128.58493 220.0
128.616928 160.0
128.636658 332.0
128.657837 52.0
128.674973 216.0
128.718811 88.0
128.732574 108.0
128.762466 196.0
128.76947 196.0
128.785248 256.0
128.831741 168.0
128.853271 184.0
128.872086 180.0
128.920685 204.0
128.945709 176.0
128.979309 248.0
129.001801 48.0
129.051773 5032.0
129.0896 184.0
129.12587 168.0
129.173706 176.0
129.222519 48.0
129.277481 200.0
129.286148 216.0
129.309143 164.0
129.356598 88.0
129.388687 148.0
129.419586 264.0
129.44075 128.0
129.454361 104.0
129.461227 116.0
129.500046 132.0
129.562973 224.0
129.57901 80.0
129.604691 124.0
129.642059 116.0
129.680435 144.0
129.713181 148.0
129.739502 144.0
129.764893 236.0
129.806137 216.0
129.842911 240.0
129.893433 172.0
129.911682 324.0
129.92691 168.0
129.95871 288.0
129.990707 188.0
130.022461 340.0
130.064255 4256.0
130.11972 148.0
130.164505 116.0
130.170013 112.0
130.19368 244.0
130.21933 128.0
130.249481 380.0
130.277985 144.0
130.283875 180.0
130.339584 116.0
130.360428 140.0
130.400391 312.0
130.436951 212.0
130.472 188.0
130.491074 152.0
130.517822 244.0
130.538864 72.0
130.553848 176.0
130.58139 148.0
130.61618 256.0
130.678513 144.0
130.705185 108.0
130.722107 168.0
130.753937 164.0
130.807724 144.0
130.832581 32.0
130.87793 184.0
130.905106 180.0
130.951447 80.0
130.978073 444.0
130.993744 292.0
131.025787 316.0
131.048828 856.0
131.063614 640.0
131.104843 144.0
131.138397 108.0
131.163269 188.0
131.195389 40.0
131.215103 112.0
131.247818 320.0
131.268036 60.0
131.309402 148.0
131.331375 172.0
131.356918 160.0
131.361023 248.0
131.369537 320.0
131.39151 156.0
131.418854 236.0
131.446609 152.0
131.462692 440.0
131.493546 92.0
131.511871 92.0
131.533005 132.0
131.564926 252.0
131.611649 404.0
131.630142 228.0
131.644653 156.0
131.666336 112.0
131.686935 128.0
131.714218 124.0
131.759293 220.0
131.802505 56.0
131.827301 120.0
131.848068 96.0
131.874054 236.0
131.890213 448.0
131.919418 180.0
131.940659 176.0
131.973938 132.0
131.995148 208.0
132.027985 400.0
132.054565 308.0
132.079758 168.0
132.1129 116.0
132.116394 140.0
132.130676 208.0
132.178696 116.0
132.19986 152.0
132.203232 92.0
132.249191 172.0
132.274841 152.0
132.295578 96.0
132.326294 120.0
132.358353 196.0
132.373672 192.0
132.380356 132.0
132.435196 160.0
132.446304 80.0
132.471222 60.0
132.502289 292.0
132.519669 212.0
132.542267 268.0
132.576492 160.0
132.599457 176.0
132.621826 260.0
132.662323 144.0
132.678253 116.0
132.704636 136.0
132.731873 296.0
132.747314 76.0
132.778702 132.0
132.795197 84.0
132.815918 332.0
132.846344 196.0
132.861374 120.0
132.886948 184.0
132.914108 240.0
132.952087 148.0
132.977142 196.0
133.010651 384.0
133.031036 216.0
133.064316 5964.0
133.110733 236.0
133.153198 168.0
133.180374 220.0
133.219849 152.0
133.22937 168.0
133.236603 324.0
133.263397 196.0
133.279846 88.0
133.286682 120.0
133.308868 152.0
133.331039 32.0
133.34845 216.0
133.391144 196.0
133.409622 316.0
133.432831 436.0
133.491714 76.0
133.519287 132.0
133.559555 184.0
133.595459 172.0
133.601807 132.0
133.6241 152.0
133.643219 192.0
133.678223 240.0
133.704483 128.0
133.72937 356.0
133.749481 160.0
133.783188 196.0
133.811676 136.0
133.827225 132.0
133.845688 224.0
133.903183 164.0
133.926743 272.0
133.97406 428.0
134.012192 144.0
134.065994 424.0
134.095642 404.0
134.110107 244.0
134.148331 108.0
134.195114 288.0
134.217636 236.0
134.262604 232.0
134.295517 460.0
134.322983 144.0
134.331772 168.0
134.371414 376.0
134.401871 200.0
134.436829 104.0
134.456238 204.0
134.482315 144.0
134.524368 160.0
134.549942 104.0
134.588989 156.0
134.611832 92.0
134.635025 316.0
134.661819 212.0
134.692245 124.0
134.715271 188.0
134.741272 136.0
134.770035 192.0
134.792221 164.0
134.818115 284.0
134.861725 128.0
134.877029 324.0
134.897614 180.0
134.930511 128.0
134.951599 104.0
134.988602 224.0
135.003433 156.0
135.020035 108.0
135.034241 104.0
135.079315 416.0
135.106781 200.0
135.147049 380.0
135.181732 140.0
135.213898 188.0
135.246719 148.0
135.273514 204.0
135.289154 208.0
135.306732 188.0
135.335693 56.0
135.386642 204.0
135.431213 156.0
135.463089 124.0
135.483932 228.0
135.525635 80.0
135.547379 160.0
135.588608 92.0
135.643417 196.0
135.660202 164.0
135.699478 60.0
135.718552 264.0
135.748642 176.0
135.782852 116.0
135.788666 184.0
135.814362 96.0
135.851868 152.0
135.866806 208.0
135.887894 152.0
135.923843 120.0
135.953796 148.0
135.962646 116.0
135.979416 276.0
136.0401 208.0
136.047852 260.0
136.074234 184.0
136.11972 140.0
136.142624 164.0
136.202637 172.0
136.252594 288.0
136.2789 188.0
136.30545 116.0
136.348602 120.0
136.369354 136.0
136.382736 208.0
136.43483 212.0
136.47963 152.0
136.505219 132.0
136.530411 144.0
136.542084 172.0
136.579285 224.0
136.621201 152.0
136.646225 236.0
136.683136 148.0
136.720932 176.0
136.755859 164.0
136.78009 192.0
136.814255 200.0
136.826523 264.0
136.849976 188.0
136.875015 48.0
136.924118 364.0
136.94368 140.0
136.996307 376.0
137.013184 200.0
137.051331 180.0
137.073212 52.0
137.101181 116.0
137.134811 236.0
137.163177 392.0
137.18663 328.0
137.212006 276.0
137.244736 172.0
137.267395 176.0
137.290451 152.0
137.30867 160.0
137.333374 196.0
137.352097 104.0
137.385391 36.0
137.422806 160.0
137.448273 180.0
137.469513 140.0
137.524109 132.0
137.550903 172.0
137.578476 256.0
137.615845 156.0
137.620178 140.0
137.638245 288.0
137.655029 176.0
137.672012 88.0
137.711166 272.0
137.757217 200.0
137.782257 180.0
137.803558 128.0
137.842804 168.0
137.8909 140.0
137.910065 164.0
137.939804 188.0
137.970947 104.0
137.998978 160.0
138.024933 164.0
138.031921 92.0
138.055115 412.0
138.087799 84.0
138.094147 224.0
138.103363 148.0
138.110825 260.0
138.128128 276.0
138.150497 164.0
138.177963 180.0
138.21904 152.0
138.246399 152.0
138.282318 180.0
138.3078 108.0
138.328079 88.0
138.382553 172.0
138.417999 148.0
138.476227 176.0
138.485992 136.0
138.528824 68.0
138.545227 108.0
138.572372 180.0
138.595718 80.0
138.64241 168.0
138.657394 324.0
138.693481 188.0
138.736588 196.0
138.771851 324.0
138.81189 168.0
138.833542 204.0
138.869415 148.0
138.924805 228.0
138.928665 168.0
138.962555 72.0
138.993057 56.0
139.018814 200.0
139.04158 248.0
139.058685 116.0
139.084198 168.0
139.110413 164.0
139.131653 164.0
139.150314 128.0
139.184692 200.0
139.208832 352.0
139.229568 128.0
139.235245 228.0
139.27739 212.0
139.301987 124.0
139.325577 384.0
139.346252 152.0
139.354889 160.0
139.388641 316.0
139.454346 220.0
139.493484 128.0
139.535065 236.0
139.561096 296.0
139.603409 244.0
139.63176 228.0
139.646683 120.0
139.664307 184.0
139.691956 128.0
139.716171 168.0
139.731735 188.0
139.766968 420.0
139.789062 252.0
139.823959 84.0
139.848618 168.0
139.883194 216.0
139.891876 200.0
139.919632 112.0
139.96167 212.0
139.978577 192.0
140.012924 376.0
140.048798 86908.0
140.119705 220.0
140.129471 104.0
140.159927 128.0
140.179611 136.0
140.18512 216.0
140.194183 224.0
140.206116 180.0
140.210388 276.0
140.25119 180.0
140.265015 132.0
140.298203 408.0
140.30246 368.0
140.332413 304.0
140.371384 168.0
140.393723 172.0
140.414322 256.0
140.436371 372.0
140.45372 180.0
140.480774 188.0
140.487228 180.0
140.525848 204.0
140.560394 176.0
140.623138 220.0
140.662872 184.0
140.694351 196.0
140.720245 224.0
140.74585 108.0
140.771759 88.0
140.780457 100.0
140.810196 184.0
140.843094 228.0
140.86615 276.0
140.880676 216.0
140.892715 132.0
140.903473 152.0
140.933578 160.0
140.96434 168.0
140.983124 128.0
141.00235 340.0
141.053101 11080.0
141.097458 236.0
141.104355 276.0
141.134781 144.0
141.159134 500.0
141.187119 160.0
141.219482 368.0
141.260162 308.0
141.293167 172.0
141.324341 164.0
141.358856 108.0
141.387161 280.0
141.402298 152.0
141.434418 192.0
141.46875 196.0
141.476959 92.0
141.502274 344.0
141.519943 192.0
141.535263 224.0
141.539932 88.0
141.552811 220.0
141.556686 140.0
141.583557 356.0
141.599747 524.0
141.634674 148.0
141.665344 244.0
141.690903 436.0
141.720276 240.0
141.739822 380.0
141.776123 428.0
141.809692 228.0
141.814423 396.0
141.847824 184.0
141.876007 252.0
141.909683 420.0
141.930756 432.0
141.946518 504.0
141.981796 556.0
141.995865 740.0
142.016251 568.0
142.03717 1064.0
142.065384 401368.0
142.144867 272.0
142.156647 216.0
142.183517 108.0
142.209366 240.0
142.234329 356.0
142.285492 604.0
142.324524 380.0
142.357605 404.0
142.377777 296.0
142.427048 700.0
142.455658 4064.0
142.492645 496.0
142.511932 256.0
142.527527 160.0
142.535507 160.0
142.577515 256.0
142.59726 388.0
142.62175 744.0
142.649689 332.0
142.664322 256.0
142.668716 680.0
142.679794 288.0
142.689072 472.0
142.710831 332.0
142.736069 836.0
142.760925 308.0
142.797379 644.0
142.836395 612.0
142.852203 672.0
142.880768 404.0
142.916412 352.0
142.968445 712.0
143.008484 1488.0
143.073914 487028.0
143.148514 124.0
143.196991 124.0
143.234024 836.0
143.29216 1972.0
143.309677 588.0
143.335388 1152.0
143.36673 480.0
143.398132 1324.0
143.437393 1620.0
143.465393 19980.0
143.540878 356.0
143.580124 120.0
143.600296 148.0
143.651016 360.0
143.685425 276.0
143.724106 344.0
143.749054 392.0
143.775635 68.0
143.800827 332.0
143.817688 276.0
143.834961 904.0
143.852997 236.0
143.873245 340.0
143.881363 360.0
143.891647 160.0
143.896423 192.0
143.911148 280.0
143.943268 236.0
143.98967 508.0
144.020432 360.0
144.039734 988.0
144.075928 117868.0
144.136063 484.0
144.167923 140.0
144.18869 156.0
144.228943 312.0
144.234924 220.0
144.275162 688.0
144.316437 252.0
144.348724 356.0
144.355042 152.0
144.36525 220.0
144.416092 136.0
144.439667 216.0
144.464035 168.0
144.488297 172.0
144.510986 116.0
144.537384 124.0
144.572449 240.0
144.593399 188.0
144.612442 132.0
144.637299 280.0
144.674469 200.0
144.723404 152.0
144.745056 164.0
144.754227 104.0
144.788452 248.0
144.842987 296.0
144.897202 228.0
144.943466 260.0
144.963318 344.0
145.007797 332.0
145.030945 376.0
145.079208 4864.0
145.104004 280.0
145.131638 532.0
145.150024 488.0
145.182343 492.0
145.213181 456.0
145.219345 580.0
145.237442 296.0
145.24147 156.0
145.260056 248.0
145.280731 384.0
145.29686 400.0
145.314987 264.0
145.345932 232.0
145.375717 244.0
145.404999 200.0
145.420685 192.0
145.450897 152.0
145.456802 196.0
145.507477 52.0
145.552475 72.0
145.602188 192.0
145.626892 140.0
145.654694 152.0
145.71254 84.0
145.756638 68.0
145.774994 180.0
145.815231 200.0
145.835724 160.0
145.917801 48.0
145.923752 56.0
145.957611 172.0
145.976318 112.0
146.059311 4336.0
146.127365 120.0
146.16188 168.0
146.186752 140.0
146.223373 204.0
146.238953 60.0
146.242615 316.0
146.28418 44.0
146.312836 36.0
146.348511 156.0
146.385086 164.0
146.418808 132.0
146.453247 84.0
146.51799 96.0
146.548477 124.0
146.587692 76.0
146.605469 56.0
146.633484 76.0
146.678146 96.0
146.702362 92.0
146.723953 52.0
146.744186 112.0
146.781082 100.0
146.803513 36.0
146.840668 100.0
146.926529 76.0
146.96756 60.0
146.994095 56.0
147.018234 56.0
147.035126 64.0
147.068268 252.0
147.077316 484.0
147.116592 148.0
147.14032 60.0
147.16745 44.0
147.199997 116.0
147.216187 80.0
147.238953 104.0
147.315216 184.0
147.362152 132.0
147.393616 36.0
147.436035 200.0
147.463226 72.0
147.52829 80.0
147.569473 60.0
147.607117 52.0
147.648788 72.0
147.704422 64.0
147.832397 76.0
147.871368 36.0
147.902069 76.0
147.926102 164.0
147.960938 176.0
148.025696 168.0
148.064102 172.0
148.090149 164.0
148.120773 164.0
148.198853 80.0
148.227371 28.0
148.290298 112.0
148.314621 56.0
148.36795 32.0
148.429977 124.0
148.450394 176.0
148.495056 136.0
148.577011 100.0
148.607483 76.0
148.641907 144.0
148.650101 136.0
148.687637 76.0
148.741547 36.0
148.887222 36.0
148.971451 352.0
149.006256 68.0
149.045135 52.0
149.069427 160.0
149.172119 48.0
149.190964 52.0
149.214157 208.0
149.237152 52.0
149.326141 52.0
149.346588 36.0
149.375778 28.0
149.397675 28.0
149.417679 92.0
149.448776 64.0
149.490143 112.0
149.518066 144.0
149.541809 156.0
149.577362 196.0
149.65239 128.0
149.681961 148.0
149.75267 128.0
149.764206 56.0
149.787186 92.0
149.835907 40.0
149.924484 136.0
149.971466 140.0
150.051605 88.0
150.091827 76.0
150.108902 60.0
150.143036 112.0
150.169876 48.0
150.213776 160.0
150.235733 164.0
150.267441 68.0
150.304047 40.0
150.36113 144.0
150.380966 108.0
150.404114 76.0
150.440384 140.0
150.470795 64.0
150.500381 156.0
150.522873 136.0
150.5513 56.0
150.57373 68.0
150.597015 32.0
150.614105 116.0
150.658081 44.0
150.711517 156.0
150.743927 204.0
150.768784 136.0
150.804291 48.0
150.829147 96.0
150.848694 116.0
150.873138 32.0
150.933533 40.0
150.956284 52.0
150.997849 40.0
151.042847 80.0
151.06546 200.0
151.086197 68.0
151.12262 144.0
151.157516 156.0
151.205948 144.0
151.25618 76.0
151.286072 112.0
151.346695 124.0
151.367386 104.0
151.404892 116.0
151.446213 108.0
151.475159 60.0
151.522141 112.0
151.559036 84.0
151.601181 132.0
151.655792 140.0
151.707077 132.0
151.725128 144.0
151.758133 208.0
151.789917 104.0
151.821976 48.0
151.851562 64.0
151.880951 96.0
151.918869 32.0
151.938492 116.0
151.985107 72.0
152.017014 120.0
152.05806 148.0
152.115189 96.0
152.172073 164.0
152.222702 56.0
152.238174 52.0
152.297745 104.0
152.307297 136.0
152.356705 152.0
152.385345 72.0
152.447281 108.0
152.486099 68.0
152.522476 120.0
152.549088 96.0
152.572128 48.0
152.614609 52.0
152.636063 100.0
152.713547 148.0
152.748413 76.0
152.753738 52.0
152.785629 172.0
152.802887 136.0
152.830231 128.0
152.884521 36.0
152.923904 44.0
152.9646 112.0
152.987747 76.0
153.001984 240.0
153.025223 76.0
153.11348 124.0
153.135086 48.0
153.18132 72.0
153.216934 120.0
153.263748 148.0
153.311981 168.0
153.326141 188.0
153.359665 148.0
153.37442 120.0
153.400314 108.0
153.43692 184.0
153.454361 84.0
153.51416 48.0
153.529297 100.0
153.590515 192.0
153.65303 104.0
153.657227 48.0
153.73616 80.0
153.803864 64.0
153.877914 48.0
153.932236 40.0
153.951996 40.0
153.998917 88.0
154.021408 264.0
154.060104 260.0
154.097733 72.0
154.132324 56.0
154.161072 116.0
154.204681 232.0
154.226242 76.0
154.246017 148.0
154.28804 252.0
154.310959 60.0
154.346497 112.0
154.394363 56.0
154.424255 80.0
154.456955 108.0
154.491623 152.0
154.522583 72.0
154.576202 48.0
154.621979 228.0
154.65416 212.0
154.695419 60.0
154.723541 132.0
154.778442 80.0
154.79776 72.0
154.823959 136.0
154.867096 112.0
154.884491 212.0
154.914948 140.0
154.932465 72.0
154.955078 132.0
154.993454 176.0
155.014648 36.0
155.019348 96.0
155.054596 160.0
155.071335 160.0
155.092697 84.0
155.12619 72.0
155.177902 116.0
155.330627 48.0
155.362885 120.0
155.385208 68.0
155.43483 128.0
155.468781 112.0
155.497665 88.0
155.55014 132.0
155.650803 92.0
155.707916 152.0
155.728577 276.0
155.764908 116.0
155.824677 228.0
155.859451 56.0
155.904999 172.0
155.931519 92.0
155.970734 176.0
156.03096 224.0
156.050842 188.0
156.080292 944.0
156.16275 208.0
156.224945 28.0
156.242355 52.0
156.279678 36.0
156.314514 48.0
156.334427 88.0
156.353607 68.0
156.379089 152.0
156.412216 124.0
156.461365 40.0
156.47879 76.0
156.498718 40.0
156.605804 48.0
156.630051 152.0
156.653046 116.0
156.712921 76.0
156.755447 124.0
156.816345 136.0
156.86235 92.0
156.882401 140.0
156.928802 92.0
156.937073 56.0
156.945633 88.0
156.979645 52.0
157.019928 52.0
157.084045 112.0
157.132294 140.0
157.189194 200.0
157.234116 112.0
157.289017 80.0
157.31897 40.0
157.353928 168.0
157.392502 184.0
157.448822 112.0
157.47879 132.0
157.51033 128.0
157.556229 44.0
157.601196 116.0
157.620209 68.0
157.656174 52.0
157.673676 164.0
157.718658 64.0
157.7509 156.0
157.773666 96.0
157.806168 76.0
157.826172 40.0
157.882874 140.0
157.946213 80.0
157.967209 184.0
157.986237 48.0
158.059814 676.0
158.141388 40.0
158.213974 52.0
158.278763 64.0
158.379257 72.0
158.456909 36.0
158.479462 52.0
158.515274 68.0
158.572189 172.0
158.627335 56.0
158.659927 132.0
158.71759 108.0
158.775894 60.0
159.01207 76.0
159.060776 168.0
159.086838 116.0
159.105057 140.0
159.127625 204.0
159.171783 52.0
159.194382 64.0
159.220078 68.0
159.264694 92.0
159.288147 72.0
159.348862 60.0
159.377747 44.0
159.414429 108.0
159.463043 68.0
159.510574 68.0
159.56012 180.0
159.692001 144.0
159.717148 128.0
159.734756 52.0
159.775009 40.0
159.830368 48.0
159.847977 56.0
159.890579 156.0
159.914001 128.0
159.933548 64.0
159.975082 100.0
160.005585 72.0
160.041809 80.0
160.074982 34872.0
160.129364 120.0
160.175705 120.0
160.246994 156.0
160.325195 32.0
160.343658 68.0
160.390228 104.0
160.467621 104.0
160.513779 128.0
160.55336 44.0
160.572525 80.0
160.655319 76.0
160.719849 136.0
160.74762 48.0
160.79808 36.0
160.846039 48.0
160.871292 108.0
160.903244 200.0
160.992035 156.0
161.042374 128.0
161.078064 3712.0
161.13382 156.0
161.156677 36.0
161.245132 152.0
161.300735 92.0
161.320953 112.0
161.341125 168.0
161.379105 60.0
161.404388 244.0
161.452438 28.0
161.472672 56.0
161.504028 112.0
161.537842 220.0
161.581451 120.0
161.697845 88.0
161.787552 64.0
161.821899 44.0
161.908661 176.0
161.997559 132.0
162.052551 60.0
162.079391 244.0
162.130936 44.0
162.158813 240.0
162.225861 124.0
162.241745 196.0
162.278687 112.0
162.305847 60.0
162.33374 168.0
162.369247 36.0
162.460632 148.0
162.491013 84.0
162.589981 56.0
162.677948 84.0
162.711823 88.0
162.773163 100.0
162.818466 124.0
162.851486 156.0
162.920074 80.0
163.016632 28.0
163.042038 148.0
163.217453 68.0
163.240463 84.0
163.283569 64.0
163.494736 144.0
163.571411 32.0
163.61438 92.0
163.64238 80.0
163.67038 52.0
163.695847 68.0
163.731506 176.0
163.756973 112.0
163.80719 84.0
163.869064 48.0
163.899643 164.0
163.939835 196.0
164.006683 68.0
164.183365 108.0
164.231064 176.0
164.37648 124.0
164.478577 124.0
164.511765 120.0
164.573029 52.0
164.595169 120.0
164.662415 156.0
164.790146 60.0
164.859131 112.0
164.933258 172.0
164.977219 184.0
165.06279 204.0
165.130142 100.0
165.160828 36.0
165.232468 180.0
165.275955 36.0
165.45256 88.0
165.634109 108.0
165.706116 96.0
165.844498 112.0
165.908585 48.0
165.952179 168.0
166.023972 116.0
166.07045 168.0
166.113754 128.0
166.211243 200.0
166.291458 140.0
166.370377 84.0
166.408722 120.0
166.449966 44.0
166.493225 152.0
166.575821 100.0
166.641113 116.0
166.722275 112.0
166.760834 108.0
166.814804 52.0
166.853378 124.0
166.899658 108.0
166.943039 184.0
166.97937 128.0
167.005096 168.0
167.033386 44.0
167.07135 1476.0
167.164612 112.0
167.187775 56.0
167.216019 104.0
167.246964 68.0
167.308014 140.0
167.339645 72.0
167.406586 84.0
167.432343 172.0
167.470978 52.0
167.519928 124.0
167.689987 124.0
167.787949 92.0
167.838226 104.0
167.896255 108.0
167.962234 124.0
167.996841 132.0
168.043289 48.0
168.076965 708.0
168.1465 108.0
168.164566 40.0
168.223938 84.0
168.275574 84.0
168.365952 280.0
168.422775 180.0
168.443451 168.0
168.518372 136.0
168.539032 36.0
168.619141 196.0
168.911331 52.0
168.96048 128.0
169.027756 304.0
169.088638 260.0
169.12352 88.0
169.227066 100.0
169.245193 36.0
169.263321 60.0
169.361725 144.0
169.408356 104.0
169.436691 132.0
169.475723 124.0
169.528503 104.0
169.550873 116.0
169.607895 128.0
169.641586 212.0
169.742706 36.0
169.78656 44.0
169.812729 176.0
169.854233 116.0
169.945038 184.0
169.966888 208.0
170.060486 748.0
170.105225 344.0
170.154282 104.0
170.19162 128.0
170.243561 104.0
170.287704 136.0
170.333496 128.0
170.438385 96.0
170.487762 44.0
170.511154 56.0
170.531952 92.0
170.552734 44.0
170.589523 188.0
170.633331 144.0
170.760757 44.0
170.898621 44.0
170.997513 120.0
171.020935 156.0
171.063187 284.0
171.265701 52.0
171.360703 64.0
171.463715 84.0
171.49939 128.0
171.609131 164.0
171.648819 132.0
171.740097 84.0
171.797485 76.0
172.014084 72.0
172.06369 112.0
172.101883 152.0
172.149857 104.0
172.251724 128.0
172.335312 144.0
172.43985 116.0
172.484283 48.0
172.541794 148.0
172.700974 124.0
172.746033 124.0
172.7798 108.0
172.819046 124.0
173.114838 144.0
173.21698 136.0
173.244049 84.0
173.439804 132.0
173.497391 140.0
173.581299 36.0
173.608719 140.0
173.621948 96.0
173.670471 68.0
173.801636 136.0
173.864624 88.0
173.922363 188.0
174.100906 136.0
174.145554 140.0
174.184952 64.0
174.295303 148.0
174.358368 176.0
174.429337 100.0
174.492432 168.0
174.56868 80.0
174.594986 108.0
174.616028 128.0
174.676529 36.0
174.703049 148.0
174.852814 140.0
174.958099 88.0
175.015137 200.0
175.059067 692.0
175.108337 1268.0
175.19249 60.0
175.216202 100.0
175.279449 96.0
175.337021 80.0
175.369049 88.0
175.490311 148.0
175.511414 128.0
175.554214 156.0
175.711868 52.0
175.733765 148.0
175.775192 120.0
175.841171 140.0
175.903793 88.0
175.978439 152.0
176.022461 196.0
176.041809 92.0
176.071396 40.0
176.115799 248.0
176.213516 52.0
176.23201 168.0
176.255783 116.0
176.329788 36.0
176.475174 164.0
176.559799 212.0
176.629211 132.0
176.665604 152.0
176.750275 104.0
176.836777 128.0
176.948792 48.0
177.009689 184.0
177.117584 108.0
177.210999 208.0
177.279892 88.0
177.311096 164.0
177.388565 148.0
177.41243 116.0
177.584793 148.0
177.696198 92.0
177.743973 160.0
177.765198 128.0
177.895248 124.0
177.919144 128.0
177.937729 68.0
177.982864 220.0
178.068771 180.0
178.229904 64.0
178.25116 224.0
178.285706 40.0
178.35437 96.0
178.495712 60.0
178.548904 116.0
178.657959 68.0
178.705856 112.0
178.764389 176.0
178.833588 132.0
178.87352 44.0
178.904282 132.0
178.925201 116.0
178.982681 152.0
179.025284 132.0
179.086761 460.0
179.177109 108.0
179.203766 40.0
179.262375 116.0
179.291702 112.0
179.347672 120.0
179.483643 88.0
179.542831 140.0
179.643661 104.0
179.694351 124.0
179.797394 156.0
179.846466 76.0
179.873154 92.0
179.934555 64.0
179.975677 204.0
180.020004 156.0
180.077881 1188.0
180.169586 176.0
180.239059 108.0
180.321899 68.0
180.36467 68.0
180.48764 168.0
180.538452 52.0
180.648117 60.0
180.77655 196.0
180.817123 148.0
181.082581 392.0
181.132645 240.0
181.199631 68.0
181.306808 80.0
181.365768 132.0
181.389908 160.0
181.537369 64.0
181.558823 64.0
181.604416 108.0
181.668793 132.0
181.702621 184.0
181.820068 112.0
181.848587 40.0
181.891525 128.0
181.947906 56.0
182.020401 60.0
182.070053 320.0
182.094284 1388.0
182.18692 28.0
182.248718 132.0
182.288574 144.0
182.353531 80.0
182.377716 120.0
182.44223 88.0
182.493317 60.0
182.705795 172.0
182.794586 80.0
182.87648 232.0
182.939102 104.0
182.985703 120.0
183.096649 128.0
183.131119 288.0
183.241562 108.0
183.368225 112.0
183.387085 44.0
183.40596 164.0
183.538055 96.0
183.565018 104.0
183.602783 68.0
183.69989 168.0
183.834793 124.0
183.888763 108.0
184.078461 340.0
184.115555 172.0
184.185776 144.0
184.217072 220.0
184.337082 64.0
184.358704 184.0
184.472229 100.0
184.612823 156.0
184.742661 196.0
184.883362 132.0
184.934784 116.0
184.956436 148.0
185.085327 152.0
185.11618 220.0
185.370819 112.0
185.503632 212.0
185.696152 120.0
185.758545 52.0
185.886063 44.0
185.922516 120.0
186.012421 136.0
186.070633 28.0
186.098541 216.0
186.124313 148.0
186.26442 228.0
186.309082 100.0
186.336807 128.0
186.486267 120.0
186.508057 204.0
186.660263 112.0
186.790802 56.0
186.809845 176.0
186.954056 132.0
186.98317 212.0
187.133713 60.0
187.286224 120.0
187.34343 228.0
187.430618 168.0
187.463318 36.0
187.506927 176.0
187.596878 120.0
187.648666 116.0
187.697754 144.0
187.823212 164.0
187.965576 180.0
188.096085 52.0
188.147949 44.0
188.240784 56.0
188.292679 56.0
188.339111 56.0
188.434097 156.0
188.560425 116.0
188.623291 56.0
188.673035 164.0
188.759995 148.0
188.806488 160.0
188.880341 136.0
189.00293 124.0
189.131531 200.0
189.149673 112.0
189.252548 136.0
189.29837 144.0
189.54837 176.0
189.594955 56.0
189.614151 124.0
189.690903 64.0
189.806046 180.0
189.84993 124.0
189.950958 148.0
190.025482 240.0
190.063889 260.0
190.09819 40.0
190.132507 128.0
190.170929 40.0
190.223083 128.0
190.269745 144.0
190.338394 88.0
190.450989 100.0
190.495193 88.0
190.530655 184.0
190.70697 100.0
190.731003 168.0
190.805496 208.0
191.071106 620.0
191.221024 144.0
191.264908 104.0
191.377792 132.0
191.43837 144.0
191.496201 60.0
191.562317 84.0
191.589005 124.0
191.636703 160.0
191.672516 68.0
191.815842 88.0
191.851669 140.0
191.870361 108.0
191.920609 108.0
192.022644 40.0
192.07605 612.0
192.130219 52.0
192.218506 64.0
192.334427 60.0
192.425537 180.0
192.447617 48.0
192.522171 108.0
192.544266 40.0
192.607803 128.0
192.643707 48.0
192.696014 172.0
192.792923 180.0
192.823318 108.0
192.909012 156.0
192.980881 288.0
193.01683 108.0
193.086807 356.0
193.118683 188.0
193.171722 48.0
193.207687 108.0
193.408112 112.0
193.467834 72.0
193.496933 148.0
193.616745 128.0
193.789108 40.0
193.825119 164.0
193.899948 144.0
194.062088 160.0
194.095154 348.0
194.199387 64.0
194.227127 72.0
194.254868 96.0
194.302032 96.0
194.376953 80.0
194.449097 116.0
194.521271 88.0
194.590683 108.0
194.882309 60.0
194.938812 228.0
195.001816 80.0
195.085205 200.0
195.108002 120.0
195.31601 100.0
195.352173 128.0
195.385559 32.0
195.416168 96.0
195.544174 108.0
195.811462 212.0
195.842102 172.0
195.883881 56.0
195.92009 192.0
195.984177 136.0
196.074982 144.0
196.109879 184.0
196.255539 180.0
196.28244 176.0
196.357727 40.0
196.402359 144.0
196.424683 36.0
196.497208 232.0
196.541626 48.0
196.600449 128.0
196.678604 116.0
196.907562 168.0
197.027679 52.0
197.055618 160.0
197.07518 144.0
197.161804 88.0
197.205551 116.0
197.234467 56.0
197.315536 176.0
197.550461 144.0
197.607712 164.0
197.78833 112.0
197.925507 72.0
198.034729 148.0
198.079544 44.0
198.12236 164.0
198.149429 140.0
198.228043 68.0
198.33287 148.0
198.387802 144.0
198.513977 48.0
198.561661 64.0
198.668243 60.0
198.819763 124.0
198.840042 124.0
198.873093 60.0
198.98436 88.0
199.103333 36.0
199.137024 144.0
199.180786 152.0
199.210068 168.0
199.277496 96.0
199.324265 148.0
199.367661 136.0
199.401138 60.0
199.668228 76.0
199.803253 64.0
199.875168 100.0
199.921432 108.0
199.960831 116.0
200.166351 276.0
200.233932 108.0
200.38887 76.0
200.490311 80.0
200.574875 148.0
200.597427 104.0
200.698914 160.0
200.823013 124.0
200.975342 60.0
201.003571 164.0
201.076935 136.0
201.266083 88.0
201.361343 60.0
201.576736 168.0
201.618195 112.0
201.647461 44.0
201.768463 164.0
201.802292 140.0
201.87619 124.0
202.07431 140.0
202.173508 76.0
202.281738 204.0
202.388657 76.0
202.425827 92.0
202.490601 132.0
202.569916 72.0
202.64357 196.0
202.768265 108.0
202.816437 136.0
202.867462 92.0
202.906021 188.0
203.031921 144.0
203.082031 472.0
203.309952 152.0
203.375229 128.0
203.485947 132.0
203.593857 84.0
203.633621 228.0
203.65918 220.0
203.6819 140.0
203.718826 44.0
203.823959 128.0
203.843857 128.0
203.866577 140.0
203.92627 152.0
204.078705 2808.0
204.139496 44.0
204.190689 120.0
204.224823 184.0
204.318237 200.0
204.35498 208.0
204.417358 168.0
204.443893 68.0
204.480896 56.0
204.557739 76.0
204.594757 64.0
204.688721 40.0
204.74852 116.0
204.774155 216.0
204.85675 208.0
204.889481 72.0
205.086639 2684.0
205.145538 96.0
205.319427 144.0
205.364151 88.0
205.384125 68.0
205.435471 204.0
205.478256 88.0
205.580978 36.0
205.717987 52.0
205.763672 44.0
205.855042 128.0
205.975418 164.0
206.095306 2672.0
206.180969 92.0
206.21788 76.0
206.389404 136.0
206.440872 68.0
206.46376 72.0
206.485062 112.0
206.543839 92.0
206.572449 208.0
206.631851 188.0
206.666855 76.0
206.841446 184.0
207.04187 148.0
207.100464 420.0
207.130661 104.0
207.176498 76.0
207.201477 128.0
207.20639 92.0
207.220978 76.0
207.232147 132.0
207.32666 164.0
207.42868 100.0
207.451614 156.0
207.519714 148.0
207.554825 84.0
207.583496 124.0
207.769943 172.0
207.807236 144.0
207.861755 92.0
207.956467 80.0
207.985168 36.0
208.074371 256.0
208.106766 380.0
208.183273 44.0
208.206253 96.0
208.271667 88.0
208.44249 204.0
208.490677 36.0
208.556778 132.0
208.599899 120.0
208.660278 112.0
208.700531 120.0
208.72641 120.0
208.806351 100.0
208.890335 112.0
208.975357 80.0
209.083237 184.0
209.119476 144.0
209.146439 88.0
209.166595 132.0
209.564026 68.0
209.621658 64.0
209.664886 124.0
209.74559 68.0
210.097824 140.0
210.144363 168.0
210.183975 192.0
210.437973 96.0
210.466858 100.0
210.582367 68.0
210.634354 156.0
210.74704 144.0
210.937775 236.0
210.993942 84.0
211.053421 180.0
211.128616 260.0
211.177902 96.0
211.214462 128.0
211.267456 52.0
211.493164 108.0
211.549957 136.0
211.594482 108.0
211.649506 200.0
211.73349 200.0
211.805893 156.0
211.869629 136.0
211.901199 80.0
212.005814 144.0
212.141006 560.0
212.289917 72.0
212.388535 80.0
212.519073 116.0
212.610641 152.0
212.777405 224.0
212.867416 68.0
212.919678 64.0
213.047485 120.0
213.128845 140.0
213.320663 188.0
213.480576 172.0
213.50676 100.0
213.588196 140.0
213.620193 112.0
213.672562 68.0
213.838135 80.0
213.902466 44.0
214.077164 64.0
214.148392 220.0
214.351395 204.0
214.400543 60.0
214.505463 104.0
214.604584 124.0
214.682114 124.0
214.742294 184.0
214.849579 60.0
214.90033 152.0
214.921112 124.0
214.975052 120.0
215.014557 104.0
215.068069 356.0
215.073364 164.0
215.1064 160.0
215.138504 128.0
215.182297 52.0
215.275742 112.0
215.500671 72.0
215.605865 148.0
215.795868 92.0
215.918594 128.0
216.044464 196.0
216.073547 336.0
216.193695 144.0
216.212433 132.0
216.297623 136.0
216.325409 120.0
216.416168 144.0
216.480591 88.0
216.518661 56.0
216.568451 160.0
216.588959 104.0
216.794052 128.0
216.860519 100.0
216.924423 92.0
216.964066 108.0
217.005112 188.0
217.086243 3156.0
217.121643 200.0
217.160538 40.0
217.222137 44.0
217.330688 84.0
217.401108 44.0
217.451004 80.0
217.509705 144.0
217.536133 52.0
217.609528 44.0
217.688812 212.0
217.876434 160.0
217.934662 132.0
218.026657 80.0
218.095047 6536.0
218.138351 140.0
218.179504 36.0
218.264771 48.0
218.400055 124.0
218.434128 124.0
218.505966 56.0
218.555267 100.0
218.606003 128.0
218.667801 40.0
218.808365 48.0
218.960724 188.0
219.015244 208.0
219.101105 2976.0
219.141922 152.0
219.218536 52.0
219.249481 84.0
219.298111 136.0
219.335587 160.0
219.357071 92.0
219.418976 52.0
219.441864 116.0
219.510391 32.0
219.539337 44.0
219.612 132.0
219.660797 144.0
219.680786 140.0
219.686371 108.0
219.766922 136.0
219.800659 148.0
219.923431 48.0
219.952942 128.0
219.988373 272.0
220.017883 116.0
220.071777 580.0
220.110687 13720.0
220.192108 60.0
220.219391 136.0
220.257095 144.0
220.298447 68.0
220.331512 92.0
220.360489 140.0
220.381165 28.0
220.404816 76.0
220.430176 84.0
220.466873 64.0
220.500977 52.0
220.5755 148.0
220.625092 68.0
220.741806 48.0
220.772293 128.0
220.809814 52.0
220.851227 88.0
220.9048 180.0
220.965378 116.0
221.019852 88.0
221.051712 180.0
221.113495 1380.0
221.231247 128.0
221.264053 188.0
221.366196 132.0
221.40889 48.0
221.529099 72.0
221.555771 48.0
221.582428 32.0
221.647614 184.0
221.697998 84.0
221.795807 132.0
221.846191 80.0
221.929214 104.0
221.97963 72.0
222.021133 180.0
222.100449 204.0
222.22583 72.0
222.35936 44.0
222.394974 136.0
222.582306 40.0
222.614685 80.0
222.668137 216.0
222.703781 60.0
222.764023 244.0
222.798981 88.0
222.840439 144.0
222.861237 92.0
222.902832 60.0
222.935516 40.0
223.036575 132.0
223.131699 56.0
223.237411 192.0
223.313095 176.0
223.423172 120.0
223.622543 172.0
223.729706 80.0
223.819031 184.0
223.87561 84.0
224.143402 356.0
224.271866 64.0
224.32254 120.0
224.459686 120.0
224.495468 96.0
224.55513 84.0
224.689362 128.0
224.763947 44.0
224.850494 68.0
224.972153 132.0
225.116196 60.0
225.140091 144.0
225.202805 36.0
225.304382 152.0
225.420914 124.0
225.441833 128.0
225.462753 80.0
225.594269 28.0
225.618179 100.0
225.662369 212.0
225.722824 100.0
225.881348 144.0
225.905273 36.0
225.998032 88.0
226.159637 64.0
226.180588 148.0
226.222488 192.0
226.303329 76.0
226.423111 136.0
226.518967 88.0
226.620819 116.0
226.707718 116.0
226.869583 192.0
227.031494 184.0
227.072586 160.0
227.229477 80.0
227.280487 148.0
227.304489 104.0
227.388519 84.0
227.421539 96.0
227.523605 144.0
227.652725 192.0
227.736816 124.0
227.787872 172.0
227.947113 60.0
228.074982 204.0
228.27478 96.0
228.345428 196.0
228.566574 76.0
228.61171 168.0
228.765213 76.0
228.900711 164.0
228.927811 64.0
228.951004 112.0
229.009125 160.0
229.03624 72.0
229.083954 392.0
229.25618 64.0
229.406891 128.0
229.479248 64.0
229.539551 64.0
229.566696 180.0
229.789902 44.0
229.841629 112.0
229.880432 192.0
229.943817 48.0
229.973999 172.0
230.00116 112.0
230.095093 7868.0
230.170227 44.0
230.200424 188.0
230.242706 148.0
230.281967 52.0
230.309158 36.0
230.357895 180.0
230.414886 148.0
230.525284 104.0
230.562958 188.0
230.583313 136.0
230.614334 152.0
230.659668 52.0
230.916687 48.0
230.965088 76.0
231.101242 2468.0
231.165558 200.0
231.214447 56.0
231.349396 36.0
231.446289 48.0
231.509705 68.0
231.571884 184.0
231.637466 96.0
231.694321 228.0
231.755249 96.0
231.779495 176.0
231.85054 80.0
231.912842 40.0
232.000748 208.0
232.074707 816.0
232.109406 2404.0
232.15538 68.0
232.181244 136.0
232.216034 168.0
232.240311 176.0
232.319183 128.0
232.374435 188.0
232.430481 152.0
232.537659 184.0
232.589249 104.0
232.640854 132.0
232.673111 148.0
232.744095 144.0
232.801788 124.0
232.82608 112.0
232.908096 84.0
232.929352 112.0
232.984039 60.0
233.01442 52.0
233.041763 124.0
233.082642 15632.0
233.17244 268.0
233.34874 60.0
233.37915 56.0
233.446045 132.0
233.473419 92.0
233.522079 84.0
233.567703 208.0
233.698532 28.0
233.745132 76.0
233.775772 52.0
233.858292 72.0
234.018112 188.0
234.051056 108.0
234.087814 6036.0
234.127838 632.0
234.187744 84.0
234.233017 64.0
234.303711 52.0
234.346512 108.0
234.377548 56.0
234.41803 84.0
234.533264 84.0
234.795181 64.0
234.816528 76.0
234.841522 144.0
234.873535 116.0
234.975159 180.0
235.042282 200.0
235.097076 2460.0
235.14299 160.0
235.170471 204.0
235.262039 184.0
235.30014 100.0
235.393616 84.0
235.41777 92.0
235.497177 76.0
235.518555 92.0
235.567429 152.0
235.594543 64.0
235.614975 128.0
235.66214 84.0
235.683533 88.0
235.720459 184.0
235.771683 180.0
235.79512 132.0
235.876999 144.0
235.90358 120.0
235.999466 144.0
236.060852 184.0
236.106171 30056.0
236.196457 228.0
236.233322 56.0
236.271469 96.0
236.290726 68.0
236.35643 156.0
236.3862 76.0
236.447617 140.0
236.471588 116.0
236.507248 128.0
236.548721 96.0
236.625107 76.0
236.715408 108.0
236.737518 80.0
236.746277 136.0
236.846085 104.0
236.933853 148.0
237.010956 156.0
237.031128 172.0
237.107529 3952.0
237.213654 80.0
237.28125 80.0
237.303741 84.0
237.351776 124.0
237.382446 156.0
237.48671 56.0
237.514328 168.0
237.60022 72.0
237.646927 144.0
237.699722 112.0
237.721725 120.0
237.787399 48.0
237.884171 84.0
237.962387 56.0
237.996155 52.0
238.072922 72.0
238.112823 592.0
238.16629 60.0
238.2388 60.0
238.324814 36.0
238.370911 88.0
238.463104 72.0
238.484619 68.0
238.536209 144.0
238.569305 132.0
238.632187 40.0
238.653717 104.0
238.710403 92.0
238.79805 128.0
238.83493 108.0
238.881302 96.0
238.902832 76.0
238.925339 76.0
239.072067 52.0
239.113922 140.0
239.142853 160.0
239.250595 112.0
239.447662 84.0
239.552399 68.0
239.578659 152.0
239.614014 96.0
239.69104 84.0
239.728027 172.0
239.811874 140.0
239.857468 120.0
239.943787 124.0
240.023956 36.0
240.125732 76.0
240.178162 128.0
240.252197 128.0
240.323166 132.0
240.391052 32.0
240.573151 112.0
240.616379 112.0
241.048813 196.0
241.087769 104.0
241.156982 80.0
241.252808 116.0
241.317734 120.0
241.444519 68.0
241.53421 84.0
241.642487 48.0
241.667236 40.0
241.741516 44.0
241.879578 188.0
241.984161 92.0
242.094009 736.0
242.224777 184.0
242.391815 88.0
242.432098 68.0
242.599487 76.0
242.652191 48.0
242.697708 188.0
242.832047 116.0
242.887878 132.0
243.036789 32.0
243.102722 1056.0
243.266464 88.0
243.444214 144.0
243.490036 168.0
243.573898 136.0
243.648453 152.0
243.775848 156.0
243.949905 80.0
243.974777 104.0
244.036957 36.0
244.110168 1080.0
244.164459 28.0
244.217331 32.0
244.335541 184.0
244.357315 56.0
244.511581 112.0
244.556488 40.0
244.65921 84.0
244.70903 144.0
244.743271 168.0
244.786865 84.0
245.017365 172.0
245.08136 244.0
245.110886 128.0
245.151352 108.0
245.176285 92.0
245.320251 128.0
245.369553 76.0
245.437515 180.0
245.492798 148.0
245.544174 128.0
245.612793 128.0
245.701843 160.0
245.745819 100.0
245.806229 80.0
245.828064 124.0
245.96228 116.0
246.017761 160.0
246.04129 180.0
246.089676 22980.0
246.167557 148.0
246.185547 244.0
246.226486 84.0
246.311386 40.0
246.339172 52.0
246.405731 52.0
246.436981 376.0
246.480728 172.0
246.563904 52.0
246.636154 104.0
246.688858 76.0
246.724518 60.0
246.755783 160.0
246.777664 64.0
246.870743 68.0
246.879028 116.0
246.909897 140.0
246.965302 152.0
247.009644 160.0
247.096375 6900.0
247.251434 196.0
247.322021 88.0
247.382172 60.0
247.421326 136.0
247.454132 140.0
247.481674 52.0
247.549072 128.0
247.585022 132.0
247.692291 116.0
247.737869 120.0
247.783478 124.0
247.816833 88.0
247.874435 124.0
247.880692 136.0
247.913971 176.0
247.940643 148.0
247.967957 264.0
248.013458 140.0
248.019485 256.0
248.10614 69184.0
248.188858 116.0
248.228149 192.0
248.301346 148.0
248.323792 124.0
248.363647 104.0
248.402588 188.0
248.444443 88.0
248.487793 308.0
248.553955 144.0
248.588562 88.0
248.616974 24.0
248.679428 64.0
248.707474 104.0
248.767975 44.0
248.79863 108.0
248.845444 240.0
248.876999 124.0
248.901627 128.0
248.957413 112.0
249.002121 104.0
249.024063 148.0
249.111618 14208.0
249.195648 196.0
249.231949 108.0
249.277573 56.0
249.31311 156.0
249.372314 60.0
249.417374 56.0
249.473709 104.0
249.526932 136.0
249.570633 168.0
249.602859 48.0
249.634308 80.0
249.664612 88.0
249.695328 80.0
249.727982 56.0
249.787155 116.0
249.87468 48.0
249.916275 216.0
249.94162 104.0
249.998947 88.0
250.113617 2524.0
250.155212 176.0
250.260513 112.0
250.348679 48.0
250.380173 48.0
250.417969 96.0
250.460281 144.0
250.518768 88.0
250.603836 68.0
250.635345 36.0
250.673157 192.0
250.715744 140.0
250.765533 88.0
250.7883 64.0
250.826492 188.0
250.83168 244.0
250.869293 156.0
250.894318 72.0
250.914688 108.0
250.95076 104.0
250.959473 92.0
250.973404 140.0
251.006332 104.0
251.029373 136.0
251.055893 88.0
251.109818 292.0
251.117783 280.0
251.208099 84.0
251.258179 56.0
251.297501 180.0
251.328415 40.0
251.363754 64.0
251.385849 108.0
251.55629 52.0
251.637131 136.0
251.698364 80.0
251.739426 140.0
251.774689 48.0
251.784775 88.0
251.874222 164.0
251.927673 60.0
251.965714 112.0
252.045837 80.0
252.069595 100.0
252.165924 96.0
252.355606 56.0
252.38089 72.0
252.557999 40.0
252.735168 56.0
252.760483 172.0
252.985199 132.0
253.010529 56.0
253.077011 52.0
253.272141 104.0
253.343063 84.0
253.365234 32.0
253.479294 36.0
253.91362 80.0
254.138855 96.0
254.244385 124.0
254.278488 132.0
254.481644 112.0
254.589615 72.0
254.856461 60.0
254.910477 96.0
254.939072 120.0
254.967682 60.0
255.103638 96.0
255.301498 44.0
255.390549 80.0
255.505066 44.0
255.58461 52.0
255.686447 156.0
255.72464 152.0
255.7883 56.0
255.83287 112.0
255.896545 64.0
255.918839 108.0
256.001617 172.0
256.110565 1168.0
256.479523 68.0
256.635742 48.0
256.674011 64.0
256.731415 44.0
256.932373 48.0
256.967468 68.0
257.008942 112.0
257.119904 492.0
257.328125 68.0
257.453766 152.0
257.561249 72.0
257.634735 72.0
257.735321 140.0
257.77533 32.0
257.963898 80.0
258.002258 108.0
258.053406 92.0
258.097046 160.0
258.127136 356.0
258.235687 172.0
258.610046 72.0
258.699677 108.0
258.808533 44.0
258.830963 40.0
258.920624 148.0
259.093658 360.0
259.131195 168.0
259.234589 48.0
259.338135 156.0
259.369202 60.0
259.433289 204.0
259.556671 92.0
259.718689 180.0
259.744354 64.0
259.882324 152.0
260.033051 132.0
260.065247 56.0
260.105347 5908.0
260.216248 96.0
260.257874 48.0
260.280334 32.0
260.338135 52.0
260.465546 136.0
260.498749 60.0
260.595123 108.0
260.662598 192.0
260.691528 68.0
260.836151 132.0
260.874725 132.0
261.11142 1724.0
261.312134 36.0
261.392578 76.0
261.497284 96.0
261.52774 28.0
261.691925 80.0
261.733795 64.0
261.843262 100.0
262.042999 88.0
262.119965 2888.0
262.157318 216.0
262.310486 100.0
262.355621 52.0
262.391083 116.0
262.433014 32.0
262.481354 36.0
262.523285 92.0
262.578125 40.0
262.642609 40.0
262.697449 40.0
262.80069 44.0
262.907196 48.0
263.082245 52.0
263.12674 892.0
263.172241 76.0
263.326904 64.0
263.352753 144.0
263.411743 92.0
263.439972 156.0
263.478973 56.0
263.520721 120.0
263.598267 116.0
263.682312 76.0
263.726837 124.0
263.779266 116.0
263.806915 224.0
263.882721 36.0
263.918304 120.0
263.952881 144.0
263.989441 68.0
264.014221 48.0
264.099945 7296.0
264.16275 96.0
264.193207 48.0
264.26236 76.0
264.358215 92.0
264.385498 112.0
264.409302 92.0
264.438629 52.0
264.465027 100.0
264.590515 116.0
264.617188 40.0
264.665741 132.0
264.69812 48.0
264.782349 52.0
264.830933 64.0
265.011292 176.0
265.060944 36.0
265.106415 2368.0
265.174377 72.0
265.201935 56.0
265.284576 80.0
265.446686 76.0
265.475891 48.0
265.595886 60.0
265.901398 76.0
265.949554 100.0
265.98526 64.0
266.007996 88.0
266.103668 280.0
266.129944 236.0
266.155792 128.0
266.232025 200.0
266.371704 124.0
266.426941 148.0
266.478912 48.0
266.521149 88.0
266.543884 76.0
266.690155 188.0
266.769165 168.0
266.888458 44.0
266.955322 68.0
267.099365 252.0
267.168152 220.0
267.379669 100.0
267.425232 60.0
267.54895 48.0
267.877869 116.0
268.014709 176.0
268.086395 68.0
268.281952 48.0
268.391327 140.0
268.510223 40.0
268.764679 80.0
268.934357 100.0
269.048615 116.0
269.110657 68.0
269.587585 68.0
269.622314 120.0
269.695435 40.0
270.051819 104.0
270.130524 196.0
270.15979 80.0
270.185944 44.0
270.545959 136.0
270.729309 128.0
270.857056 132.0
270.932404 76.0
271.122437 88.0
271.148651 80.0
271.217499 100.0
271.256836 100.0
271.456848 68.0
271.494202 92.0
271.532257 36.0
271.640503 184.0
271.699554 120.0
271.722534 128.0
271.788147 72.0
271.850494 168.0
272.057281 152.0
272.104828 108.0
272.145233 288.0
272.172211 96.0
272.198822 76.0
272.4711 136.0
272.546661 192.0
272.687958 116.0
273.023315 212.0
273.11911 128.0
273.187775 180.0
273.283203 108.0
273.599152 84.0
273.645264 188.0
273.737457 112.0
273.793427 180.0
273.907349 68.0
274.024017 156.0
274.050385 32.0
274.076752 36.0
274.121704 6116.0
274.267883 144.0
274.396454 76.0
274.442627 48.0
274.518463 152.0
274.56134 48.0
274.587708 72.0
274.643799 48.0
274.874725 32.0
275.001495 88.0
275.12851 1952.0
275.243256 112.0
275.391541 148.0
275.456207 176.0
275.587982 32.0
275.997833 112.0
276.070587 176.0
276.134521 688.0
276.172119 104.0
276.216125 104.0
276.269043 80.0
276.318695 104.0
276.398102 52.0
276.480835 68.0
276.593353 164.0
276.765503 72.0
277.139496 360.0
277.172943 60.0
277.225952 64.0
277.434784 52.0
277.501099 76.0
277.686798 76.0
277.733795 48.0
277.816162 120.0
277.952209 108.0
278.117584 260.0
278.227692 72.0
278.299957 172.0
278.476746 64.0
278.50531 48.0
278.539856 64.0
278.762451 96.0
279.141418 204.0
279.20462 228.0
279.242249 88.0
279.613831 140.0
280.236572 40.0
280.476501 192.0
280.756592 88.0
280.823273 36.0
280.996765 40.0
281.036804 136.0
281.101746 168.0
281.183624 52.0
281.760193 96.0
281.915039 44.0
281.944733 176.0
281.995239 124.0
282.099487 152.0
282.138977 104.0
282.269379 48.0
282.965363 60.0
283.136139 132.0
283.209808 52.0
283.424225 68.0
283.575043 84.0
283.71582 124.0
283.809692 156.0
284.192078 132.0
284.306183 36.0
284.329681 36.0
284.498718 100.0
284.814545 136.0
284.967712 76.0
285.018097 196.0
285.088684 120.0
285.142456 64.0
285.202942 36.0
285.263458 96.0
285.300446 96.0
285.458466 72.0
285.508911 156.0
285.566101 188.0
286.126373 108.0
286.623199 152.0
286.882721 100.0
286.926544 92.0
286.970367 76.0
287.027679 96.0
287.058044 104.0
287.125488 224.0
287.233429 52.0
287.415619 152.0
287.595978 108.0
287.820679 68.0
288.057098 144.0
288.138611 1372.0
288.215881 52.0
288.317261 44.0
288.536987 144.0
288.655334 104.0
288.871796 28.0
288.966522 68.0
289.017273 36.0
289.09848 140.0
289.143127 1016.0
289.227112 200.0
289.606354 136.0
290.152161 416.0
290.18457 564.0
290.25705 84.0
290.417511 120.0
290.548737 152.0
290.575867 152.0
290.603027 184.0
290.687866 64.0
290.796448 60.0
290.860962 96.0
291.156555 112.0
291.190308 128.0
291.217468 140.0
291.319397 148.0
291.53244 120.0
291.60141 100.0
291.665985 160.0
291.859772 108.0
292.3172 104.0
292.4245 92.0
292.523224 120.0
292.560669 44.0
292.682098 112.0
292.812653 48.0
292.836487 32.0
292.945496 132.0
292.993195 92.0
293.109039 40.0
293.316925 260.0
293.548767 64.0
293.599945 124.0
293.722717 44.0
293.947906 28.0
294.040039 68.0
294.131195 152.0
294.664948 96.0
294.77771 64.0
295.047729 92.0
295.174255 44.0
295.492371 108.0
295.516327 76.0
296.060577 92.0
296.122223 80.0
296.317688 68.0
296.523102 64.0
297.061462 60.0
297.1026 132.0
297.138184 88.0
297.246735 152.0
297.27417 44.0
297.380554 76.0
297.414886 32.0
297.823517 160.0
297.868164 132.0
298.084625 36.0
298.160217 132.0
298.283966 32.0
298.352722 124.0
298.407715 84.0
298.455872 152.0
298.545258 88.0
298.634674 136.0
298.665649 92.0
298.799805 44.0
298.989075 40.0
299.044128 116.0
299.10611 64.0
299.244812 132.0
299.440094 84.0
299.574432 80.0
299.664001 92.0
300.129333 84.0
300.172028 816.0
300.270721 132.0
300.462494 60.0
300.55014 60.0
300.684723 52.0
300.781006 112.0
301.05069 188.0
301.181488 204.0
301.423767 120.0
301.727936 72.0
302.13446 104.0
302.167175 60.0
302.246765 76.0
302.395569 120.0
302.579041 140.0
302.800659 152.0
302.998108 148.0
303.036224 104.0
303.063141 104.0
303.157501 64.0
303.30307 32.0
303.33429 76.0
303.368958 72.0
303.524963 36.0
303.570038 156.0
304.069611 56.0
304.198059 76.0
304.305664 72.0
304.642548 48.0
305.000488 28.0
305.153442 44.0
305.428192 164.0
305.497772 108.0
305.737854 92.0
306.260101 244.0
306.312347 116.0
306.479584 120.0
306.716583 52.0
307.113617 124.0
307.155945 108.0
307.574677 48.0
307.623566 72.0
308.126923 212.0
308.192841 112.0
308.500397 96.0
308.710205 132.0
309.077484 128.0
309.8526 144.0
309.907349 160.0
309.95993 108.0
309.984436 76.0
310.02301 148.0
310.14917 108.0
310.250824 52.0
310.506805 76.0
311.802338 104.0
311.837494 176.0
311.96756 76.0
312.199615 136.0
312.424744 36.0
312.56546 72.0
312.597137 108.0
312.815369 124.0
312.942108 160.0
313.005493 60.0
313.125214 84.0
313.78772 116.0
314.207428 44.0
314.297455 176.0
314.482666 116.0
314.560333 112.0
314.867523 156.0
314.916962 92.0
315.333893 144.0
315.53186 144.0
315.970398 64.0
316.020874 120.0
316.167969 188.0
316.198151 100.0
316.29953 112.0
316.33493 124.0
316.373871 96.0
316.455292 120.0
316.607574 172.0
316.642975 76.0
316.809448 180.0
316.912201 104.0
316.994385 104.0
317.084167 84.0
317.178101 176.0
317.237274 172.0
317.33194 104.0
317.364777 176.0
317.37796 120.0
317.422638 92.0
317.474426 168.0
317.518402 112.0
317.550323 140.0
317.578705 72.0
317.663818 168.0
317.729706 108.0
317.755798 288.0
317.791534 68.0
317.834137 76.0
317.862518 72.0
317.897095 116.0
317.940582 40.0
317.993256 200.0
318.059967 380.0
318.085693 172.0
318.095825 332.0
318.184692 77932.0
318.244659 236.0
318.279419 240.0
318.318298 112.0
318.355652 144.0
318.38678 128.0
318.440247 104.0
318.450195 100.0
318.46521 100.0
318.479919 80.0
318.49704 180.0
318.503265 76.0
318.577087 140.0
318.627106 104.0
318.662811 180.0
318.694916 76.0
318.722626 160.0
318.770294 88.0
318.79248 132.0
318.833954 160.0
318.932678 56.0
319.006165 84.0
319.057343 92.0
319.108734 156.0
319.136078 188.0
319.186401 14760.0
319.23175 188.0
319.269287 216.0
319.294189 116.0
319.320679 80.0
319.384186 172.0
319.491364 56.0
319.550964 88.0
319.575226 56.0
319.642822 48.0
319.692657 112.0
319.767395 80.0
319.799408 64.0
319.827881 52.0
319.874176 48.0
319.906769 52.0
319.946564 120.0
319.988098 124.0
320.036163 36.0
320.066437 36.0
320.09491 100.0
320.119507 84.0
320.192291 1580.0
320.270935 104.0
320.322449 68.0
320.550873 60.0
320.622162 32.0
320.650665 100.0
320.68631 32.0
320.757599 92.0
320.817017 60.0
320.860992 104.0
320.932312 128.0
320.966766 224.0
321.043793 76.0
321.102051 60.0
321.135681 268.0
321.194427 112.0
321.202454 112.0
321.272797 172.0
321.287811 112.0
321.386139 84.0
321.417206 72.0
321.480988 108.0
321.490723 96.0
321.546204 136.0
321.592285 68.0
321.663666 48.0
321.727295 88.0
321.787292 96.0
321.940521 124.0
321.988586 200.0
322.463776 48.0
322.646088 60.0
322.692566 108.0
322.764099 32.0
322.940948 140.0
323.140503 84.0
323.626434 72.0
323.662231 52.0
323.698059 80.0
323.791168 104.0
323.844879 120.0
324.063416 48.0
324.400299 64.0
324.497101 44.0
325.0495 76.0
325.106903 128.0
325.13562 76.0
325.185852 48.0
325.835846 80.0
325.932861 40.0
326.152069 52.0
326.428925 100.0
326.583557 92.0
326.62674 40.0
326.972137 108.0
327.058533 60.0
327.188141 136.0
327.789642 48.0
327.883331 28.0
328.099609 48.0
328.575684 40.0
328.943787 116.0
329.720367 40.0
330.219513 80.0
330.309753 48.0
330.385712 88.0
330.411041 60.0
330.443604 48.0
330.711395 80.0
330.765686 28.0
330.981659 104.0
331.037231 60.0
331.182098 124.0
331.468323 56.0
331.548035 44.0
332.331329 76.0
332.538177 64.0
332.61441 148.0
332.792297 80.0
333.093719 132.0
333.304443 44.0
333.380768 112.0
333.598846 48.0
333.651978 164.0
333.762451 32.0
334.008636 116.0
334.118896 44.0
334.268097 56.0
334.322693 180.0
334.650299 104.0
334.697632 72.0
334.788666 112.0
334.916138 32.0
335.054565 188.0
335.163879 208.0
335.462738 144.0
335.517426 144.0
335.64505 108.0
335.688812 100.0
335.717987 240.0
335.749298 68.0
335.801849 120.0
335.860229 140.0
335.932068 156.0
335.966003 64.0
336.002502 68.0
336.038971 144.0
336.12973 176.0
336.194397 28032.0
336.256744 124.0
336.385834 48.0
336.42807 92.0
336.499969 80.0
336.619354 52.0
336.66684 64.0
336.692383 48.0
336.79895 228.0
336.9133 144.0
336.975342 76.0
337.08551 56.0
337.124115 92.0
337.196869 3232.0
337.249146 136.0
337.332153 88.0
337.3703 84.0
337.428223 44.0
337.499786 68.0
337.547546 80.0
337.587769 56.0
337.624329 40.0
337.657257 28.0
337.701416 56.0
337.902344 72.0
337.964539 28.0
338.01355 88.0
338.140198 180.0
338.195801 428.0
338.239044 28.0
338.359833 108.0
338.506317 60.0
338.671112 52.0
338.740723 100.0
338.791992 128.0
338.940155 64.0
338.997192 36.0
339.092468 144.0
339.21344 112.0
339.437073 104.0
339.481079 80.0
339.528778 48.0
339.66449 120.0
339.829559 152.0
340.091888 84.0
340.216278 88.0
340.365479 92.0
340.523376 68.0
340.585846 52.0
340.7034 44.0
340.791565 132.0
341.236298 72.0
341.482697 72.0
341.835876 40.0
342.192932 60.0
342.31076 44.0
342.763855 116.0
342.959167 72.0
343.438507 52.0
343.770569 100.0
343.870209 64.0
344.172943 76.0
344.357574 40.0
344.575531 96.0
344.623566 64.0
345.200226 52.0
345.320404 104.0
345.688538 104.0
345.877289 68.0
346.910828 64.0
347.111023 80.0
347.263092 80.0
348.190979 32.0
348.837494 84.0
349.034851 52.0
349.068024 68.0
349.213074 108.0
349.373016 60.0
349.745148 88.0
350.661438 96.0
350.829163 56.0
351.75061 128.0
352.194946 88.0
352.609711 44.0
352.942413 52.0
352.976074 100.0
353.035889 52.0
353.346375 188.0
353.934021 80.0
354.822021 40.0
355.155762 76.0
355.542236 76.0
355.654816 56.0
355.976227 92.0
356.221832 48.0
357.131531 52.0
357.364746 56.0
357.786285 72.0
357.989624 32.0
358.098846 40.0
358.144043 72.0
359.014679 100.0
359.535309 64.0
359.610779 80.0
360.082764 84.0
360.547455 104.0
361.44751 120.0
362.450958 60.0
362.553284 52.0
363.072662 92.0
363.827789 52.0
364.336273 72.0
364.633087 36.0
365.093109 52.0
365.176788 80.0
366.429199 76.0
366.894165 104.0
367.24881 72.0
367.611267 52.0
368.080811 80.0
368.397827 88.0
368.692017 76.0
368.944305 68.0
369.594513 148.0
370.950317 80.0
371.705902 56.0
372.270203 128.0
372.746552 108.0
373.450104 92.0
374.246735 68.0
376.054779 64.0
376.135834 80.0
377.240631 64.0
378.470978 88.0
378.955139 56.0
379.466766 52.0
379.687805 32.0
380.145569 44.0
380.572571 88.0
380.797821 52.0
381.400085 48.0
381.435059 56.0
382.921448 52.0
383.240875 88.0
384.32486 144.0
384.449738 252.0
385.910675 44.0
386.01236 68.0
386.200073 72.0
386.920105 76.0
387.108063 44.0
387.812286 96.0
387.923035 140.0
388.18573 108.0
388.287689 60.0
388.405365 44.0
388.613281 48.0
389.367004 64.0
390.593323 48.0
391.077332 60.0
391.51828 48.0
392.298462 76.0
393.568878 60.0
394.809723 84.0
395.141998 64.0
395.233002 112.0
395.462524 60.0
396.932343 60.0
399.16803 112.0
400.306152 40.0
401.039215 100.0
402.032318 48.0
402.370697 68.0
403.094574 72.0
404.194275 92.0
407.598724 92.0
407.755432 164.0
407.845642 64.0
407.948395 124.0
408.052917 96.0
408.414856 48.0
408.56369 52.0
409.775543 64.0
410.114075 60.0
410.37207 128.0
410.702759 80.0
410.791504 52.0
411.376648 52.0
412.160187 28.0
412.273346 64.0
412.414795 64.0
413.223602 40.0
413.429993 80.0
413.850983 120.0
414.35791 76.0
415.419434 60.0
415.451904 84.0
415.967285 80.0
416.478943 88.0
416.881165 44.0
417.608917 68.0
417.710602 80.0
417.796021 84.0
419.416779 92.0
420.375244 56.0
420.885498 44.0
421.722992 40.0
421.956024 60.0
423.658569 56.0
426.732605 84.0
427.217896 52.0
427.666443 28.0
429.347443 48.0
429.908508 52.0
430.796265 84.0
431.531921 68.0
431.680786 104.0
431.887573 84.0
432.446167 40.0
432.926422 92.0
433.083801 72.0
433.357208 56.0
434.804474 116.0
434.912384 40.0
435.07843 44.0
435.934082 36.0
437.102631 96.0
440.751312 64.0
441.039673 48.0
441.738007 68.0
441.920044 140.0
443.706329 44.0
444.536835 104.0
445.011169 52.0
445.275726 100.0
445.847107 88.0
446.99939 80.0
447.618195 80.0
448.01413 36.0
448.456573 68.0
448.831787 92.0
450.194824 32.0
450.921509 64.0
451.094788 52.0
451.995667 56.0
452.181885 48.0
453.26181 44.0
455.09848 56.0
455.14093 80.0
455.82486 64.0
456.135101 60.0
456.598572 84.0
456.738922 84.0
457.82428 88.0
459.426971 44.0
459.7854 52.0
460.553925 76.0
460.61499 68.0
460.823059 48.0
461.023895 68.0
461.626678 96.0
461.784912 88.0
462.14856 100.0
462.18277 60.0
462.302612 52.0
465.565063 112.0
467.439392 28.0
467.63736 108.0
469.343353 64.0
470.724213 84.0
470.810577 100.0
470.871063 76.0
471.471588 40.0
471.549377 60.0
472.872864 60.0
475.237366 136.0
475.373535 92.0
475.516754 48.0
475.777191 48.0
476.024689 80.0
476.250549 48.0
477.811157 104.0
477.976501 56.0
478.751373 56.0
479.213135 76.0
480.909546 92.0
481.153992 44.0
481.429077 68.0
481.520813 64.0
482.643921 36.0
482.875702 68.0
485.586823 60.0
486.165955 100.0
486.640045 52.0
486.72348 40.0
487.092377 76.0
487.650421 104.0
487.966949 72.0
489.445374 76.0
490.128113 48.0
491.268311 112.0
492.514893 88.0
492.722534 40.0
493.845367 60.0
493.911713 108.0
494.19043 32.0
495.713684 96.0
495.842194 112.0
496.693512 68.0
498.256165 68.0
499.416412 32.0
500.288605 72.0
501.625061 128.0
501.656281 108.0
502.775848 36.0
503.003479 40.0
503.326416 72.0
503.811768 60.0
504.129028 92.0
504.196075 64.0
505.945038 128.0
505.998779 80.0
507.71051 104.0
509.227509 60.0
510.099213 80.0
510.252075 36.0
510.593811 52.0
511.075165 128.0
511.241669 40.0
512.2052 36.0
512.687317 44.0
513.480774 112.0
514.947632 68.0
515.141907 76.0
515.336182 76.0
516.674438 36.0
516.810181 80.0
518.041687 40.0
518.168518 68.0
518.694214 112.0
518.839294 60.0
519.515015 60.0
519.800842 68.0
520.708801 44.0
521.740356 64.0
521.92218 64.0
522.449646 100.0
522.741028 76.0
524.499023 168.0
524.977783 108.0
525.401978 48.0
526.547729 56.0
527.955383 60.0
528.142883 64.0
528.961975 96.0
529.671753 48.0
530.588318 48.0
530.739624 52.0
530.776306 92.0
531.400085 116.0
531.927917 92.0
532.428345 60.0
533.61853 60.0
533.669128 84.0
534.82843 36.0
535.02179 88.0
536.283997 32.0
536.413025 104.0
536.685059 52.0
536.911011 64.0
537.815308 48.0
539.219482 80.0
539.261047 68.0
543.090271 72.0
543.145935 96.0
543.503174 152.0
544.961121 52.0
546.346619 84.0
547.766541 64.0
550.850037 64.0
552.514282 72.0
552.607849 68.0
552.640625 76.0
552.841858 68.0
553.567444 52.0
555.456299 48.0
555.587646 64.0
555.639221 72.0
555.930176 112.0
558.994141 56.0
559.125916 48.0
560.218384 96.0
561.269409 96.0
562.066589 48.0
562.25061 40.0
563.960388 72.0
564.021851 96.0
567.036926 48.0
568.29834 88.0
569.133728 56.0
569.290466 52.0
570.563904 92.0
570.896729 32.0
572.091064 52.0
574.306885 48.0
574.774414 76.0
576.240295 52.0
577.593262 32.0
578.416321 64.0
579.335754 60.0
579.910767 60.0
580.14563 28.0
581.320801 84.0
584.444275 56.0
584.656921 60.0
586.68866 124.0
587.899353 104.0
588.092407 84.0
589.135498 40.0
589.763672 52.0
592.231384 260.0
596.511292 72.0
597.196899 60.0
599.11969 92.0
600.304138 124.0
600.508972 124.0
600.869995 48.0
602.842651 60.0
603.307007 60.0
604.524963 76.0
607.616821 60.0
608.092834 44.0
608.377563 60.0
608.843994 104.0
612.084778 88.0
614.233643 88.0
616.781616 36.0
618.092224 72.0
618.26355 72.0
620.568909 52.0
621.9729 36.0
622.851807 64.0
623.164795 112.0
623.537476 56.0
624.283203 48.0
626.861938 60.0
627.00647 68.0
627.843994 56.0
628.66217 172.0
628.781982 120.0
630.480042 40.0
630.559998 68.0
630.759949 56.0
632.140381 52.0
633.812866 88.0
634.113586 64.0
634.680054 68.0
635.608032 168.0
636.252563 108.0
636.817932 164.0
636.898315 60.0
637.174622 36.0
639.316711 40.0
640.152405 200.0
640.444519 56.0
642.733337 72.0
642.79895 56.0
643.2229 140.0
643.37439 68.0
645.22345 44.0
645.587524 176.0
646.594299 72.0
647.039734 68.0
647.110657 52.0
648.524048 84.0
649.933899 40.0
651.20813 216.0
653.424561 52.0
654.427246 56.0
656.929688 68.0
658.946289 116.0
659.416382 96.0
660.0401 116.0
661.319092 208.0
663.414185 40.0
663.680847 40.0
664.152649 120.0
664.619507 120.0
664.860657 52.0
665.78479 112.0
666.041626 188.0
666.185425 48.0
668.689087 72.0
670.502563 76.0
671.069641 60.0
673.149109 76.0
677.136475 76.0
677.903198 148.0
680.574707 172.0
680.844727 112.0
681.359009 144.0
683.870667 52.0
684.026855 72.0
684.974609 84.0
685.954285 64.0
686.147156 184.0
686.616455 36.0
687.357239 96.0
687.884399 80.0
689.655212 80.0
690.073425 152.0
690.350586 152.0
690.889343 56.0
691.171875 60.0
691.250366 44.0
691.627197 112.0
691.951782 76.0
691.993652 36.0
692.166443 100.0
693.659668 52.0
693.963684 184.0
695.805298 52.0
696.382935 192.0
697.691406 52.0
699.227417 48.0
700.164551 140.0
700.290955 56.0
700.543823 196.0
700.585938 48.0
702.030212 104.0
702.737061 72.0
702.832031 224.0
703.96167 60.0
705.895813 40.0
707.223755 236.0
709.687195 56.0
709.931152 200.0
710.493408 76.0
711.597351 140.0
711.735352 132.0
715.111206 36.0
715.228333 76.0
715.510437 92.0
717.071228 160.0
717.668335 140.0
717.950928 136.0
718.308289 96.0
719.535767 208.0
720.49707 168.0
721.149048 40.0
721.608765 76.0
721.860107 64.0
722.421692 184.0
723.133362 148.0
723.315369 136.0
723.663391 180.0
724.006104 76.0
724.42926 144.0
725.442078 52.0
725.640442 120.0
726.283997 132.0
726.84729 232.0
727.121033 88.0
727.196167 120.0
727.345032 136.0
727.77594 204.0
729.135071 48.0
729.957581 52.0
730.049011 172.0
730.226501 48.0
730.436279 176.0
731.415588 68.0
731.770935 52.0
732.487183 80.0
733.079895 140.0
733.292175 192.0
734.292908 64.0
734.492493 28.0
734.551819 132.0
734.702881 116.0
735.05896 256.0
735.668884 172.0
736.613953 140.0
738.184448 84.0
739.073853 100.0
739.382324 176.0
740.167297 40.0
741.310303 60.0
744.130981 32.0
744.407898 84.0
744.679443 148.0
745.070557 192.0
745.325928 112.0
746.17926 152.0
746.358704 48.0
746.630615 212.0
747.582703 192.0
748.039856 68.0
748.088867 56.0
749.101807 112.0
749.401428 68.0
749.608521 88.0
750.180786 140.0
750.573364 40.0
751.080566 192.0
751.23877 56.0
751.489746 68.0
752.144653 212.0
752.570435 116.0
752.870789 80.0
753.236755 48.0
753.313232 48.0
753.723022 48.0
754.034485 144.0
755.073303 284.0
755.582031 120.0
755.6203 92.0
755.893921 164.0
758.024109 148.0
758.259766 120.0
758.577698 36.0
758.670898 160.0
758.912109 56.0
760.102417 168.0
760.832397 208.0
761.277161 128.0
762.200073 76.0
762.414368 140.0
762.535278 60.0
762.931091 224.0
763.288452 64.0
763.601929 184.0
763.656921 100.0
764.201538 28.0
764.342041 152.0
765.643799 184.0
767.50647 188.0
767.925598 140.0
767.99176 100.0
768.383423 212.0
769.122925 144.0
769.437622 156.0
769.52594 216.0
769.752319 136.0
770.384155 144.0
770.586426 184.0
770.779785 64.0
771.045044 76.0
772.045715 248.0
772.233765 160.0
772.466125 116.0
772.543579 136.0
773.235229 220.0
773.816467 48.0
774.608459 228.0
774.76001 188.0
775.206848 184.0
775.916321 112.0
776.703796 176.0
777.02002 112.0
777.541626 160.0
777.907959 204.0
778.16333 192.0
778.466431 152.0
779.135315 40.0
779.468689 172.0
780.182251 148.0
780.246826 168.0
781.019836 68.0
782.561401 152.0
784.516968 160.0
784.594971 156.0
784.650757 100.0
785.230713 156.0
785.27533 224.0
785.911255 112.0
786.07312 56.0
786.120911 220.0
786.324219 176.0
786.402405 80.0
786.899231 172.0
789.122925 112.0
790.034607 152.0
790.291931 72.0
792.806274 156.0
793.030457 132.0
793.31073 188.0
793.725647 92.0
793.953674 144.0
794.151855 144.0
794.696045 68.0
794.802612 172.0
794.999023 172.0
795.492981 256.0
795.537903 180.0
796.031982 164.0
796.279114 172.0
796.441956 88.0
797.048706 28.0
798.718506 60.0
799.05603 56.0
800.468872 104.0
800.930725 112.0
801.08844 168.0
801.571777 172.0
801.663147 112.0
801.781494 124.0
802.40155 184.0
803.016235 168.0
803.766541 48.0
803.828613 140.0
804.319641 196.0
804.398682 76.0
804.776978 120.0
805.612854 156.0
806.064819 184.0
806.121338 96.0
806.367798 224.0
806.635681 64.0
806.754395 200.0
807.22937 184.0
807.625244 116.0
807.825439 216.0
807.89679 164.0
808.338135 176.0
808.42865 64.0
809.311707 152.0
810.002686 88.0
811.578247 160.0
811.799377 116.0
812.406311 196.0
812.627563 144.0
812.684326 92.0
812.775085 60.0
812.928284 172.0
813.410767 92.0
813.887634 152.0
814.614624 96.0
814.694153 156.0
815.052124 148.0
815.535156 196.0
815.655701 100.0
815.711365 96.0
816.211731 172.0
816.552917 56.0
816.956787 152.0
817.086609 348.0
817.286804 120.0
817.349365 84.0
817.594788 232.0
818.01532 164.0
818.174683 144.0
818.406921 204.0
818.772583 164.0
818.960571 108.0
819.216858 152.0
819.461853 140.0
819.507446 120.0
819.621399 144.0
819.706909 32.0
819.872131 136.0
820.761475 148.0
821.092224 116.0
821.605591 48.0
822.193298 132.0
822.427307 152.0
822.63855 188.0
822.958252 172.0
823.055359 80.0
824.117737 196.0
824.494934 96.0
824.614929 136.0
824.946472 208.0
825.04364 60.0
825.123718 160.0
825.306702 124.0
825.622925 52.0
826.135986 136.0
826.233215 76.0
827.091614 144.0
827.297729 76.0
827.853149 140.0
828.013489 120.0
828.099426 188.0
828.280701 80.0
828.760864 172.0
828.855591 128.0
829.394348 164.0
829.904602 72.0
830.059387 52.0
830.55835 96.0
830.925537 232.0
831.086182 196.0
831.482178 56.0
831.5625 220.0
831.688782 180.0
832.423645 160.0
832.567261 208.0
832.647644 164.0
832.721069 152.0
833.37146 184.0
833.411682 208.0
833.595581 68.0
833.77948 188.0
834.009338 152.0
834.279541 156.0
834.808533 136.0
835.406738 124.0
835.562073 136.0
835.941833 88.0
836.051147 176.0
836.186401 112.0
836.72467 52.0
836.880127 224.0
838.565552 132.0
838.608337 108.0
839.467407 224.0
839.784607 144.0
840.5 128.0
840.759644 84.0
841.062805 204.0
841.758362 72.0
841.833435 232.0
842.411072 44.0
842.520813 104.0
843.231567 156.0
843.272034 136.0
843.532166 156.0
843.670898 52.0
844.150818 184.0
844.492004 48.0
844.55304 188.0
844.630859 52.0
844.752319 40.0
845.417725 168.0
845.568176 120.0
845.979187 132.0
846.164429 172.0
846.569763 156.0
846.952026 52.0
847.850098 48.0
848.08197 56.0
848.215271 140.0
848.406555 192.0
848.470337 48.0
848.663147 160.0
849.375 120.0
849.827515 76.0
849.885559 184.0
850.123474 152.0
850.204712 60.0
850.796814 124.0
851.174194 172.0
852.033813 128.0
852.161621 156.0
852.213928 176.0
852.487061 176.0
852.922974 196.0
853.417114 144.0
853.469482 120.0
853.649719 124.0
853.992859 144.0
854.190613 116.0
854.528076 72.0
855.028503 128.0
855.075073 104.0
855.808594 192.0
856.20459 132.0
856.373474 44.0
856.513245 100.0
857.043396 196.0
857.206604 156.0
857.32312 100.0
857.719482 52.0
858.465759 196.0
858.634888 184.0
859.200745 152.0
859.486633 172.0
860.02356 200.0
860.093567 156.0
860.782532 36.0
861.506775 164.0
861.60022 152.0
861.641174 48.0
861.722961 56.0
861.931519 156.0
861.9823 176.0
862.067688 208.0
862.312927 180.0
862.39502 148.0
862.435913 176.0
862.482666 92.0
863.102356 176.0
863.763245 184.0
864.067505 108.0
864.219604 80.0
864.365906 256.0
864.892639 172.0
865.360962 176.0
865.642029 60.0
866.25116 200.0
866.866394 124.0
867.08905 144.0
867.329407 120.0
867.616638 80.0
868.214722 244.0
868.255798 160.0
868.69574 196.0
869.118164 72.0
869.388062 60.0
869.495972 136.0
869.681519 88.0
869.828796 44.0
869.939819 68.0
870.010254 164.0
870.397766 208.0
870.464111 272.0
870.556335 224.0
870.91394 236.0
870.979248 144.0
871.061462 44.0
871.220093 204.0
871.443359 136.0
872.366028 84.0
872.995178 136.0
873.301025 188.0
873.512756 48.0
873.777527 112.0
873.871643 140.0
874.112915 164.0
874.901611 152.0
875.125366 192.0
875.519897 172.0
875.614136 120.0
875.720154 160.0
875.790833 120.0
875.90863 96.0
876.191406 60.0
876.533142 136.0
876.709961 104.0
876.863159 152.0
877.004639 116.0
877.122498 152.0
877.493958 184.0
877.847717 100.0
877.977478 172.0
878.343628 252.0
878.608643 160.0
878.697144 68.0
878.821045 124.0
878.992126 140.0
879.168823 68.0
879.346252 160.0
879.564636 112.0
880.521179 96.0
880.657043 148.0
881.271423 64.0
881.407349 144.0
881.501892 44.0
881.549133 136.0
881.738281 132.0
881.844666 240.0
882.122498 180.0
882.317566 236.0
882.453552 84.0
882.63092 80.0
882.796143 180.0
883.003479 128.0
883.139526 172.0
883.234192 88.0
883.334717 60.0
883.441223 184.0
883.535889 80.0
883.707458 60.0
884.308411 176.0
884.912231 116.0
885.068848 128.0
885.732178 144.0
885.779541 112.0
886.294983 188.0
886.336487 60.0
886.395752 124.0
887.130676 204.0
887.344116 164.0
887.388855 72.0
887.675842 68.0
887.886841 228.0
888.1922 164.0
888.328613 104.0
888.447266 296.0
888.491821 172.0
888.690491 40.0
889.005005 176.0
889.099976 172.0
890.031982 96.0
890.198242 148.0
890.257629 88.0
890.365295 124.0
890.447693 104.0
891.154602 188.0
891.231873 200.0
891.29126 148.0
891.760742 204.0
891.992615 104.0
892.224426 172.0
892.328979 200.0
892.87262 156.0
892.914246 172.0
892.985596 188.0
893.062927 152.0
893.913696 136.0
894.026733 112.0
894.151733 148.0
894.587524 152.0
894.6875 200.0
894.836304 176.0
894.880432 168.0
894.949463 128.0
895.134033 144.0
895.181702 172.0
895.288879 96.0
895.473511 156.0
895.562866 160.0
895.699829 196.0
895.765381 100.0
895.841125 180.0
896.003662 36.0
896.474426 108.0
896.706848 52.0
896.835693 148.0
897.052551 212.0
897.421692 144.0
897.559326 116.0
897.8396 196.0
897.970825 136.0
898.662842 180.0
898.716553 148.0
898.765991 140.0
898.925415 112.0
899.349121 144.0
899.6297 84.0
899.707336 68.0
899.778931 212.0
900.222107 168.0
900.429871 180.0
900.750488 200.0
901.080994 56.0
901.355835 136.0
901.756226 60.0
901.827942 128.0
901.90564 144.0
901.9953 140.0
902.312195 128.0
902.37793 140.0
902.635071 184.0
902.850342 136.0
902.963989 116.0
903.149414 132.0
903.197266 180.0
903.502319 192.0
903.58313 208.0
904.016907 84.0
904.148621 180.0
904.220398 40.0
904.290405 164.0
904.573547 48.0
904.861694 192.0
905.058533 188.0
905.855286 160.0
905.968933 188.0
906.705933 68.0
906.783875 124.0
906.933716 164.0
907.137512 148.0
907.383301 116.0
907.75647 136.0
907.833008 148.0
907.964966 120.0
908.396851 188.0
908.810791 164.0
909.032837 160.0
909.362915 156.0
909.578979 156.0
909.765076 144.0
909.938293 132.0
910.047302 40.0
910.155396 144.0
910.257446 40.0
910.341492 92.0
910.515686 100.0
910.671814 220.0
911.020264 92.0
911.441833 216.0
911.56488 180.0
911.711243 112.0
911.807434 120.0
911.86908 184.0
912.216125 96.0
912.63623 156.0
912.649963 184.0
912.697144 140.0
912.823425 112.0
912.985779 108.0
913.184265 168.0
913.358704 168.0
913.423828 48.0
913.600342 116.0
913.653442 28.0
913.960327 152.0
914.495911 224.0
914.55011 180.0
914.773438 204.0
914.861694 188.0
914.947388 180.0
915.188232 56.0
915.266541 44.0
915.513428 180.0
915.567627 116.0
915.85675 172.0
915.922974 164.0
915.986938 84.0
916.086243 156.0
916.13385 172.0
916.362793 92.0
916.411804 196.0
916.706238 80.0
916.965393 132.0
917.12207 64.0
917.230591 216.0
917.339111 56.0
917.41748 92.0
917.60437 80.0
917.708557 160.0
917.991516 172.0
918.098816 104.0
918.177246 144.0
918.563293 68.0
918.695984 128.0
919.033875 136.0
919.154541 60.0
919.220886 76.0
919.311462 160.0
919.393066 144.0
919.498535 144.0
919.860718 164.0
919.951233 152.0
920.198792 56.0
920.259155 136.0
920.325562 116.0
920.419617 112.0
920.850952 256.0
920.977783 172.0
921.050293 144.0
921.219421 308.0
921.285889 44.0
921.364441 116.0
921.606079 140.0
921.714844 136.0
921.980774 224.0
922.125793 48.0
922.186279 76.0
922.234619 44.0
922.301086 116.0
922.391785 116.0
922.481628 60.0
922.639648 88.0
922.724304 144.0
922.88147 132.0
922.980652 80.0
923.062866 136.0
923.322937 140.0
923.690552 180.0
923.778503 128.0
923.939941 164.0
923.9823 152.0
924.060913 84.0
924.163818 136.0
924.236572 152.0
924.668945 136.0
924.897644 304.0
924.998962 260.0
925.192688 96.0
925.295654 164.0
925.689209 128.0
925.864807 320.0
925.998047 108.0
926.57019 168.0
926.991638 168.0
927.052246 156.0
927.155273 128.0
927.324951 128.0
927.464417 132.0
927.57782 184.0
927.770264 96.0
927.822083 40.0
927.995422 196.0
928.348267 216.0
928.392029 208.0
928.567932 96.0
928.634644 136.0
928.90155 184.0
929.019165 216.0
929.0896 40.0
929.520081 172.0
929.641785 92.0
929.69635 132.0
929.796814 176.0
929.893677 196.0
930.036255 144.0
930.090881 64.0
930.184753 172.0
930.33374 92.0
930.429504 180.0
930.869263 192.0
931.00769 108.0
931.078735 144.0
931.220276 48.0
931.438293 148.0
931.499695 64.0
931.639404 88.0
931.724487 132.0
931.76532 148.0
931.906738 168.0
932.052551 172.0
932.119385 124.0
932.210571 304.0
932.629944 160.0
932.72113 92.0
932.801331 184.0
932.87915 160.0
933.031128 172.0
933.140564 176.0
933.225708 132.0
934.543579 244.0
934.630798 76.0
935.22113 84.0
935.470703 208.0
935.884705 84.0
935.969971 120.0
936.219604 132.0
936.341431 156.0
936.438904 176.0
936.542419 212.0
936.694702 108.0
936.792175 80.0
936.956665 52.0
937.316162 92.0
937.383179 140.0
937.438049 36.0
937.492859 104.0
937.692932 136.0
937.828125 136.0
938.190002 164.0
938.36969 148.0
938.498718 160.0
938.66333 180.0
939.041443 152.0
939.212219 112.0
939.505066 196.0
939.553833 168.0
939.730774 224.0
939.950439 52.0
939.999268 188.0
940.17627 84.0
940.426514 88.0
940.927063 140.0
941.250671 136.0
941.366272 184.0
941.458313 148.0
941.51825 176.0
941.720947 68.0
941.86145 108.0
942.295166 184.0
942.344055 180.0
942.417358 52.0
942.472351 88.0
942.539551 88.0
942.735107 52.0
942.918335 200.0
943.010132 96.0
943.101807 248.0
943.38916 156.0
943.431946 436.0
943.535889 44.0
943.608276 236.0
944.025024 76.0
944.336975 160.0
944.545288 132.0
944.673401 172.0
944.815247 192.0
944.858154 348.0
945.145874 88.0
945.199585 116.0
945.349731 164.0
945.413757 36.0
945.468811 104.0
945.642883 108.0
945.689148 44.0
945.793213 132.0
945.905762 104.0
945.946228 164.0
946.111572 104.0
946.188416 180.0
946.583008 68.0
946.650391 172.0
946.808533 92.0
946.895325 164.0
947.146484 140.0
947.348633 156.0
947.409912 108.0
947.6427 80.0
947.750488 236.0
947.875549 64.0
948.004211 132.0
948.212585 120.0
948.353577 156.0
948.739807 112.0
949.009521 180.0
949.230286 172.0
949.561462 136.0
949.800659 64.0
949.868164 92.0
949.941772 92.0
950.009094 148.0
950.110046 168.0
950.365112 208.0
950.426453 112.0
950.579895 132.0
950.653503 40.0
950.755005 200.0
951.008179 148.0
951.096436 172.0
951.230469 152.0
951.322571 104.0
951.377808 64.0
951.55011 124.0
951.881287 128.0
951.997925 116.0
952.305054 116.0
952.360291 36.0
952.497803 72.0
952.646484 164.0
952.864075 132.0
952.986938 40.0
953.109863 116.0
953.32843 64.0
953.564575 40.0
953.902649 104.0
954.048279 140.0
954.173157 68.0
954.247375 112.0
954.369934 252.0
954.480591 84.0
954.640503 48.0
954.738892 132.0
954.83728 160.0
955.009521 32.0
955.095642 148.0
955.218628 360.0
955.864868 132.0
955.987732 68.0
956.036987 344.0
956.086243 196.0
956.586731 76.0
956.82489 368.0
957.058838 64.0
957.132751 32.0
957.175842 188.0
957.262085 92.0
957.329834 44.0
957.385254 96.0
957.551514 184.0
957.645996 152.0
957.772583 76.0
957.982727 132.0
958.062805 140.0
958.265686 224.0
958.377014 184.0
958.60498 152.0
958.851501 80.0
959.036438 100.0
959.246033 216.0
959.295349 188.0
959.420654 228.0
959.480286 148.0
959.671387 128.0
959.888367 212.0
959.992065 104.0
960.053711 156.0
960.329285 324.0
960.522522 56.0
960.590332 164.0
960.676697 172.0
961.071594 128.0
961.31842 48.0
961.361633 108.0
961.447998 176.0
961.941772 92.0
962.148071 204.0
962.201111 132.0
962.244324 144.0
962.334656 176.0
962.552612 160.0
962.612671 208.0
962.815491 148.0
962.880371 72.0
963.0224 56.0
963.437195 132.0
963.498047 112.0
963.573242 200.0
963.695801 124.0
963.813171 100.0
963.893494 212.0
964.02948 72.0
964.48468 148.0
964.753174 144.0
964.836243 104.0
964.915894 88.0
965.065735 176.0
965.17926 88.0
965.27594 116.0
965.384949 180.0
965.4328 128.0
965.568848 256.0
965.677734 80.0
965.834839 92.0
965.927612 152.0
966.144165 88.0
966.496826 128.0
966.719604 112.0
966.818604 136.0
967.109497 124.0
967.177551 124.0
967.245667 176.0
967.409912 128.0
967.821472 164.0
967.914307 172.0
968.100769 144.0
968.199219 132.0
968.292114 128.0
968.535583 76.0
968.595581 244.0
968.725708 160.0
968.818604 92.0
968.979675 180.0
969.295715 72.0
969.355713 180.0
969.411011 184.0
969.704712 148.0
969.832886 260.0
969.858276 176.0
969.879517 220.0
969.938782 116.0
970.206848 132.0
970.262634 204.0
970.324646 132.0
970.386658 128.0
970.684265 48.0
970.814514 144.0
970.864136 64.0
970.944702 108.0
971.000549 152.0
971.064026 180.0
971.124573 156.0
971.292053 152.0
971.3479 100.0
971.416138 128.0
971.46814 184.0
971.608459 188.0
971.651917 220.0
971.73877 176.0
972.14209 48.0
972.197937 52.0
972.314331 160.0
972.358765 132.0
972.533081 156.0
972.657227 148.0
972.799988 184.0
973.079407 104.0
973.166321 176.0
973.222168 72.0
973.265686 124.0
973.383667 128.0
973.545105 160.0
973.607239 316.0
973.73761 100.0
973.781128 120.0
973.830811 60.0
974.010925 128.0
974.107239 112.0
974.209717 192.0
974.296692 108.0
974.365051 156.0
974.476868 92.0
974.551453 180.0
974.694336 160.0
974.741821 156.0
974.806213 132.0
974.889526 148.0
975.385803 192.0
975.483704 128.0
975.552063 120.0
975.701294 36.0
975.949951 172.0
976.068115 180.0
976.111633 56.0
976.215088 184.0
976.291992 136.0
976.360413 164.0
976.553223 68.0
976.638611 180.0
976.75647 172.0
976.882874 348.0
977.001099 96.0
977.08197 188.0
977.156616 84.0
977.200195 60.0
977.243713 148.0
977.293518 184.0
977.511292 152.0
977.673096 96.0
977.729126 40.0
977.884705 120.0
978.040344 144.0
978.127502 156.0
978.370239 120.0
978.569519 148.0
978.619324 100.0
978.79364 160.0
978.905762 216.0
978.999695 132.0
979.248291 80.0
979.547241 80.0
979.678101 116.0
979.771545 152.0
979.877441 80.0
979.927307 88.0
980.164062 140.0
980.263794 112.0
980.307373 184.0
980.351013 180.0
980.444519 196.0
980.531738 44.0
980.63147 224.0
980.749878 64.0
980.955627 156.0
981.045471 216.0
981.253235 148.0
981.538818 252.0
981.614014 200.0
981.812866 180.0
981.940796 128.0
981.996948 48.0
982.046875 36.0
982.177856 116.0
982.399658 108.0
982.496582 84.0
982.770508 44.0
982.951477 164.0
983.063782 184.0
983.199341 172.0
983.263489 152.0
983.422241 176.0
983.650513 104.0
983.719177 136.0
983.836975 124.0
983.854187 108.0
983.871704 192.0
984.047363 180.0
984.34729 140.0
984.360474 84.0
984.386902 200.0
984.41156 72.0
984.42865 192.0
984.509521 152.0
984.527527 180.0
984.637024 248.0
984.73645 232.0
984.793213 76.0
984.961853 200.0
985.511658 104.0
985.702209 128.0
985.780334 140.0
985.827515 160.0
985.955322 148.0
986.0 176.0
986.16156 132.0
986.749207 28.0
986.808899 196.0
987.055603 140.0
987.240906 100.0
987.374512 76.0
987.455811 84.0
987.530884 84.0
987.662231 144.0
987.756042 112.0
987.799866 148.0
987.956238 180.0
988.068848 236.0
988.152405 112.0
988.344177 76.0
988.61322 144.0
988.757202 52.0
988.877869 84.0
989.078674 212.0
989.143188 168.0
989.255981 76.0
989.369446 148.0
989.378784 240.0
989.483337 132.0
989.585083 48.0
989.75885 48.0
989.802673 120.0
989.980469 148.0
990.07196 180.0
990.128296 188.0
990.633301 168.0
990.798523 128.0
991.164307 192.0
991.314819 72.0
991.406372 140.0
991.575562 64.0
991.640991 128.0
991.682129 180.0
992.077026 188.0
992.364136 156.0
992.5849 144.0
992.65387 156.0
992.785583 112.0
992.867126 80.0
992.945068 176.0
993.146118 164.0
993.222107 244.0
993.268555 80.0
993.318726 176.0
993.510132 172.0
993.588196 88.0
993.646973 136.0
993.7453 304.0
993.858276 160.0
993.910706 172.0
993.971191 56.0
994.169495 196.0
994.30011 108.0
994.372864 120.0
994.423096 36.0
994.529785 168.0
994.705566 176.0
994.837402 216.0
994.91272 112.0
994.997192 124.0
995.188965 160.0
995.386902 100.0
995.473572 312.0
995.619751 160.0
995.809937 188.0
995.873474 172.0
996.024231 112.0
996.098083 164.0
996.357178 116.0
996.545654 196.0
996.658752 136.0
996.709045 52.0
996.79071 160.0
996.90863 200.0
996.998108 132.0
997.052795 120.0
997.201965 176.0
997.343811 232.0
997.444397 208.0
997.614136 144.0
997.777588 48.0
997.871887 104.0
997.966187 152.0
998.104553 108.0
998.14856 112.0
998.205139 256.0
998.330933 100.0
998.450378 60.0
998.607666 104.0
998.727173 184.0
998.808899 128.0
998.861328 180.0
998.94043 204.0
999.09198 44.0
999.205261 164.0
999.280762 64.0
999.512695 208.0
999.620544 100.0
999.809326 44.0
999.872253 136.0
1000.004456 200.0
1000.174377 148.0
1000.28772 136.0
1000.375854 88.0
1000.564697 48.0
1000.659119 88.0
1000.728394 68.0
1000.772461 108.0
1000.816528 32.0
1000.955078 172.0
1001.081604 88.0
1001.153198 140.0
1001.604614 120.0
1001.657166 84.0
1001.767578 116.0
1001.931396 160.0
1002.145935 72.0
1002.432373 164.0
1002.498474 176.0
1002.607178 184.0
1002.763184 148.0
1002.83252 144.0
1002.901855 128.0
1003.089722 144.0
1003.210693 176.0
1003.267456 120.0
1003.349304 192.0
1003.44397 136.0
1003.708801 132.0
1003.834961 144.0
1003.929504 56.0
1003.992615 96.0
1004.072205 204.0
1004.217834 168.0
1004.434082 72.0
1004.512207 208.0
1004.632202 180.0
1004.699036 148.0
1004.861694 108.0
1005.100525 212.0
1005.317444 120.0
1005.380554 112.0
1005.544617 196.0
1006.005432 100.0
1006.055908 64.0
1006.19281 76.0
1006.236145 180.0
1006.327393 140.0
1006.450562 60.0
1006.504211 44.0
1006.609436 108.0
1006.632568 160.0
1006.737854 104.0
1006.80542 120.0
1006.9021 148.0
1006.96521 208.0
1007.007507 104.0
1007.06366 172.0
1007.104187 236.0
1007.211548 152.0
1007.272461 224.0
1007.412537 320.0
1007.467834 176.0
1007.559021 184.0
1007.691711 116.0
1007.824402 120.0
1007.909851 204.0
1007.976013 188.0
1008.115051 176.0
1008.197205 96.0
1008.270325 192.0
1008.491943 120.0
1008.608032 72.0
1008.668396 80.0
1008.716736 120.0
1008.7901 240.0
1009.058105 152.0
1009.120117 204.0
1009.195984 80.0
1009.240295 152.0
1009.337891 128.0
1009.385681 96.0
1009.501953 156.0
1009.600708 164.0
1009.771484 188.0
1009.938477 148.0
1009.986511 108.0
1010.138367 172.0
1010.226929 224.0
1010.268494 144.0
1010.315491 84.0
1010.404053 76.0
1010.543274 128.0
1010.783691 216.0
1010.828003 44.0
1010.941895 68.0
1011.017822 268.0
1011.190369 176.0
1011.289978 176.0
1011.421631 216.0
1011.441345 88.0
1011.464539 208.0
1011.563599 232.0
1011.739441 148.0
1011.783752 184.0
1011.844666 156.0
1012.025208 176.0
1012.184448 140.0
1012.298218 156.0
1012.461121 136.0
1012.586853 204.0
1012.778015 156.0
1012.823853 136.0
1013.151733 120.0
1013.219116 164.0
1013.443176 52.0
1013.622925 188.0
1013.690308 80.0
1013.81073 104.0
1013.897522 92.0
1013.973938 132.0
1014.373169 124.0
1014.450928 148.0
1014.645386 136.0
1014.712219 92.0
1014.933594 212.0
1014.994202 148.0
1015.180054 60.0
1015.382996 148.0
1015.481445 124.0
1015.569397 72.0
1015.687439 48.0
1015.865112 236.0
1015.934875 140.0
1016.095581 172.0
1016.144226 168.0
1016.234619 164.0
1016.353638 56.0
1016.43811 340.0
1016.531311 112.0
1016.702637 120.0
1016.769531 268.0
1016.835938 220.0
1016.947815 140.0
1017.058105 100.0
1017.102539 140.0
1017.470703 128.0
1017.553223 104.0
1017.627136 112.0
1017.794556 76.0
1017.908813 68.0
1018.010437 72.0
1018.077332 120.0
1018.137451 124.0
1018.239075 140.0
1018.292297 188.0
1018.353394 80.0
1018.461365 216.0
1018.537598 96.0
1018.610046 100.0
1018.740906 164.0
1018.849915 148.0
1018.893372 188.0
1018.941345 120.0
1019.020447 108.0
1019.117737 200.0
1019.298828 156.0
1019.379089 124.0
1019.427124 140.0
1019.477966 148.0
1019.675171 124.0
1019.755676 196.0
1019.954651 48.0
1020.005493 72.0
1020.177124 136.0
1020.309631 100.0
1020.406006 80.0
1020.475952 104.0
1020.673035 140.0
1020.781128 104.0
1020.876526 132.0
1020.972839 144.0
1021.122803 200.0
1021.194519 28.0
1021.512573 176.0
1021.675476 192.0
1021.688721 116.0
1021.712585 156.0
1021.788818 172.0
1021.862488 128.0
1022.00885 32.0
1022.25946 168.0
1022.382385 132.0
1022.473389 320.0
1022.658691 72.0
1022.711182 424.0
1022.766174 144.0
1022.807556 104.0
1022.993958 128.0
1023.059021 40.0
1023.122681 72.0
1023.275452 64.0
1023.351868 36.0
1023.60553 124.0
1023.682983 156.0
1023.73877 132.0
1023.829468 104.0
1023.874023 84.0
1023.995056 80.0
1024.070312 64.0
1024.173462 164.0
1024.275269 152.0
1024.350464 184.0
1024.460083 116.0
1024.562012 76.0
1024.657593 176.0
1024.734009 212.0
1024.842285 176.0
1024.928833 92.0
1025.054932 228.0
1025.154541 340.0
1025.224731 64.0
1025.294067 208.0
1025.455078 56.0
1025.512573 120.0
1025.606445 120.0
1025.944946 192.0
1025.995239 184.0
1026.164551 212.0
1026.250977 116.0
1026.383789 252.0
1026.445557 116.0
1026.518799 92.0
1026.622925 136.0
1026.748413 88.0
1026.797852 128.0
1026.872437 260.0
1026.952515 148.0
1027.156616 116.0
1027.290527 68.0
1027.348022 108.0
1027.418213 204.0
1027.714844 108.0
1027.788208 48.0
1027.91626 132.0
1028.008789 164.0
1028.142944 100.0
1028.278687 168.0
1028.500122 96.0
1028.671143 168.0
1028.710449 112.0
1028.851318 208.0
1028.929932 144.0
1028.971436 160.0
1029.109497 168.0
1029.218018 188.0
1029.32019 164.0
1029.626709 52.0
1029.671509 44.0
1029.83313 276.0
1029.947021 300.0
1030.029175 96.0
1030.086182 176.0
1030.291138 136.0
1030.367798 132.0
1030.420776 188.0
1030.51355 92.0
1030.572266 64.0
1030.623291 232.0
1030.957153 188.0
1030.996826 368.0
1031.077026 88.0
1031.166992 168.0
1031.275146 104.0
1031.518066 188.0
1031.582031 76.0
1031.709839 108.0
1031.792969 148.0
1031.856934 216.0
1031.931396 116.0
1032.062012 56.0
1032.280762 168.0
1032.363281 220.0
1032.557739 160.0
1032.605835 100.0
1032.730713 180.0
1033.024048 196.0
1033.206055 192.0
1033.302368 184.0
1033.366333 144.0
1033.430298 140.0
1033.562988 196.0
1033.628662 84.0
1033.730225 144.0
1033.786743 52.0
1033.865479 112.0
1033.940796 136.0
1034.144043 108.0
1034.19397 84.0
1034.407959 168.0
1034.482544 176.0
1034.710449 88.0
1034.787231 84.0
1034.864136 164.0
1035.003418 160.0
1035.075439 80.0
1035.129028 204.0
1035.357178 132.0
1035.427612 52.0
1035.523682 60.0
1035.587769 72.0
1035.76709 76.0
1035.94104 188.0
1035.993652 92.0
1036.074585 180.0
1036.196289 100.0
1036.273193 168.0
1036.324463 116.0
1036.38855 132.0
1036.574341 160.0
1036.75769 232.0
1036.869141 132.0
1036.952515 56.0
1037.016602 188.0
1037.087036 140.0
1037.129395 60.0
1037.276733 88.0
1037.42688 172.0
1037.484497 128.0
1037.590088 192.0
1037.71106 160.0
1037.760254 72.0
1037.917847 124.0
1038.042358 64.0
1038.128052 176.0
1038.234741 124.0
1038.29248 60.0
1038.366333 212.0
1038.454834 124.0
1038.677734 120.0
1038.760742 180.0
1038.805664 304.0
1038.965942 152.0
1039.036621 140.0
1039.261108 144.0
1039.370239 228.0
1039.427979 136.0
1039.517822 68.0
1039.596924 128.0
1039.671875 136.0
1039.750977 72.0
1039.864746 124.0
1039.939453 160.0
1040.072144 176.0
1040.133911 88.0
1040.195068 176.0
1040.350098 132.0
1040.461304 100.0
1040.509155 148.0
1040.633057 180.0
1040.779907 204.0
1040.891602 96.0
1041.052124 116.0
1041.212646 112.0
1041.392456 116.0
1041.501709 224.0
1041.591553 96.0
1041.642944 92.0
1041.734741 132.0
1041.794556 124.0
1041.912842 356.0
1042.067017 212.0
1042.109253 120.0
1042.14856 220.0
1042.279053 152.0
1042.490234 164.0
1042.615479 160.0
1042.68396 92.0
1042.737427 100.0
1042.870361 48.0
1042.928223 64.0
1042.998901 116.0
1043.116577 192.0
1043.199463 228.0
1043.301025 40.0
1043.535278 136.0
1043.609619 72.0
1043.67749 136.0
1043.807739 264.0
1043.819458 64.0
1043.899536 92.0
1044.072632 176.0
1044.175537 72.0
1044.262695 200.0
1044.448364 176.0
1044.820679 172.0
1044.94104 92.0
1045.082642 152.0
1045.250244 120.0
1045.307129 104.0
1045.446655 172.0
1045.68103 172.0
1045.732544 180.0
1045.822632 72.0
1045.888672 176.0
1046.042603 212.0
1046.247559 176.0
1046.299072 236.0
1046.559448 152.0
1046.653198 156.0
1046.788452 48.0
1046.844604 72.0
1046.992676 144.0
1047.149048 52.0
1047.208252 128.0
1047.284302 128.0
1047.368042 144.0
1047.541992 56.0
1047.606445 56.0
1047.703003 200.0
1047.7677 172.0
1047.922119 32.0
1048.144897 288.0
1048.230225 140.0
1048.308716 176.0
1048.402588 192.0
1048.572998 168.0
1048.621704 148.0
1048.67395 60.0
1048.850098 132.0
1048.908081 164.0
1048.977051 52.0
1049.037109 200.0
1049.153076 80.0
1049.288452 32.0
1049.409546 168.0
1049.572144 196.0
1049.735107 164.0
1049.836548 156.0
1049.92981 188.0
1049.991333 192.0
1050.125244 92.0
1050.24292 76.0
1050.359009 44.0
1050.414917 152.0
1050.615356 148.0
1050.700928 144.0
1050.887573 52.0
1050.955566 140.0
1051.130127 184.0
1051.303467 108.0
1051.356812 80.0
1051.380493 52.0
1051.394287 96.0
1051.442993 132.0
1051.572144 116.0
1051.653809 116.0
1051.765747 132.0
1051.834595 84.0
1051.940063 224.0
1052.009033 184.0
1052.084595 92.0
1052.222412 140.0
1052.268921 172.0
1052.679443 148.0
1052.734253 156.0
1052.792358 124.0
1052.940918 76.0
1052.988403 96.0
1053.060913 128.0
1053.296143 60.0
1053.341309 88.0
1053.393066 64.0
1053.477051 288.0
1053.587036 152.0
1053.804321 60.0
1053.948608 72.0
1054.025879 144.0
1054.174805 120.0
1054.291138 144.0
1054.355713 100.0
1054.446289 116.0
1054.646851 128.0
1054.753662 148.0
1054.823364 136.0
1054.885742 96.0
1055.163818 192.0
1055.215454 100.0
1055.467651 96.0
1055.571167 72.0
1055.619019 244.0
1055.739258 64.0
1055.862183 148.0
1056.295532 52.0
1056.34729 68.0
1056.403442 148.0
1056.468994 156.0
1056.665649 192.0
1056.722534 208.0
1056.783691 152.0
1056.919189 112.0
1057.037598 196.0
1057.110718 84.0
1057.440796 60.0
1057.570312 96.0
1057.732788 232.0
1057.937134 172.0
1057.991089 104.0
1058.040894 144.0
1058.346558 48.0
1058.478271 192.0
1058.544434 180.0
1058.63208 48.0
1058.683838 248.0
1058.774658 112.0
1058.967407 128.0
1059.115601 92.0
1059.182617 104.0
1059.22876 68.0
1059.288208 192.0
1059.429443 152.0
1059.639526 176.0
1059.720337 148.0
1059.817505 180.0
1059.882324 68.0
1060.050781 128.0
1060.102661 64.0
1060.212158 176.0
1060.329468 228.0
1060.446167 68.0
1060.630737 144.0
1060.860962 100.0
1060.94165 160.0
1061.010132 156.0
1061.088013 172.0
1061.14624 152.0
1061.194946 352.0
1061.321289 164.0
1061.45105 72.0
1061.55249 72.0
1061.593628 140.0
1061.658569 152.0
1061.762329 108.0
1061.815674 152.0
1062.002319 296.0
1062.045044 168.0
1062.170898 72.0
1062.23584 76.0
1062.303223 172.0
1062.322021 140.0
1062.43042 172.0
1062.487427 208.0
1062.582275 20.0
1062.727051 116.0
1062.783325 152.0
1062.839111 156.0
1062.962402 272.0
1063.059082 188.0
1063.084717 168.0
1063.209229 180.0
1063.267456 300.0
1063.364868 108.0
1063.440186 176.0
1063.551636 76.0
1063.60498 120.0
1063.669922 420.0
1063.748535 144.0
1063.816528 200.0
1063.923096 184.0
1064.026978 72.0
1064.104858 76.0
1064.201904 140.0
1064.267212 120.0
1064.371094 76.0
1064.518188 128.0
1064.629395 156.0
1064.793213 84.0
1064.879517 144.0
1064.988037 192.0
1065.060181 148.0
1065.163452 188.0
1065.240479 180.0
1065.366943 188.0
1065.478516 128.0
1065.570923 132.0
1065.615356 184.0
1065.676392 156.0
1065.69458 188.0
1065.7323 332.0
1065.798096 148.0
1065.842651 100.0
1065.907715 224.0
1066.333008 116.0
1066.486816 208.0
1066.623535 96.0
1066.703491 164.0
1066.751587 220.0
1066.846558 200.0
1066.908325 276.0
1067.027344 228.0
1067.178101 144.0
1067.223633 184.0
1067.269165 104.0
1067.337158 176.0
1067.387329 164.0
1067.455688 136.0
1067.509766 136.0
1067.711792 112.0
1067.778931 132.0
1067.837402 348.0
1067.985962 188.0
1068.075073 160.0
1068.140625 176.0
1068.231567 140.0
1068.31897 168.0
1068.381348 64.0
1068.476685 156.0
1068.596069 168.0
1068.682861 180.0
1068.738525 144.0
1068.76416 176.0
1068.780518 124.0
1069.016479 124.0
1069.084106 64.0
1069.13208 180.0
1069.152954 68.0
1069.197876 80.0
1069.310547 80.0
1069.391602 136.0
1069.45105 136.0
1069.513672 160.0
1069.734985 152.0
1069.865234 100.0
1069.949829 104.0
1070.024292 356.0
1070.073486 180.0
1070.147949 128.0
1070.20813 88.0
1070.338623 172.0
1070.444702 120.0
1070.574951 68.0
1070.65625 196.0
1070.727783 144.0
1070.887573 116.0
1070.991821 88.0
1071.062622 64.0
1071.107178 204.0
1071.233398 228.0
1071.34436 152.0
1071.392822 100.0
1071.454346 68.0
1071.558228 84.0
1071.741333 220.0
1071.793091 172.0
1071.876953 148.0
1071.901733 304.0
1071.968994 128.0
1072.114258 208.0
1072.21228 208.0
1072.297241 168.0
1072.562134 52.0
1072.672974 44.0
1072.751221 112.0
1072.905151 76.0
1073.170654 224.0
1073.233643 140.0
1073.364014 48.0
1073.455322 128.0
1073.546021 76.0
1073.584961 160.0
1073.627686 120.0
1073.703125 192.0
1073.755615 112.0
1073.867554 196.0
1073.916748 152.0
1073.983643 172.0
1074.187988 128.0
1074.290283 152.0
1074.353516 148.0
1074.427368 220.0
1074.525146 112.0
1074.681641 188.0
1074.757324 160.0
1074.86438 192.0
1074.955444 88.0
1074.965088 84.0
1074.994507 124.0
1075.092163 128.0
1075.203735 68.0
1075.24939 132.0
1075.353882 196.0
1075.458252 208.0
1075.578247 252.0
1075.770264 204.0
1075.861816 180.0
1075.908691 112.0
1075.973999 140.0
1076.032715 148.0
1076.238159 132.0
1076.281616 192.0
1076.359253 72.0
1076.427124 136.0
1076.483276 180.0
1076.626953 80.0
1076.718384 48.0
1076.796753 132.0
1076.918701 176.0
1077.031982 120.0
1077.09729 128.0
1077.162598 68.0
1077.247559 96.0
1077.333984 180.0
1077.502319 60.0
1077.665649 100.0
1077.730957 88.0
1077.828979 76.0
1077.915649 172.0
1078.103516 132.0
1078.198364 132.0
1078.404053 32.0
1078.557983 152.0
1078.626343 44.0
1078.726807 148.0
1078.856812 76.0
1078.898315 140.0
1079.035034 92.0
1079.121704 52.0
1079.227783 96.0
1079.325928 96.0
1079.50061 172.0
1079.580933 96.0
1079.646362 104.0
1079.711792 44.0
1079.809814 72.0
1079.869629 188.0
1079.93042 204.0
1079.991577 148.0
1080.099976 200.0
1080.299927 148.0
1080.376221 132.0
1080.471313 72.0
1080.529419 116.0
1080.637451 124.0
1080.696289 116.0
1080.79541 208.0
1080.88269 220.0
1080.94165 304.0
1080.994019 144.0
1081.072998 104.0
1081.144531 136.0
1081.203369 120.0
1081.266846 116.0
1081.334351 128.0
1081.384277 184.0
1081.52417 112.0
1081.625732 128.0
1081.710083 128.0
1081.781738 244.0
1081.853271 240.0
1081.91687 152.0
1082.008545 240.0
1082.054321 128.0
1082.121826 108.0
1082.20813 292.0
1082.401367 200.0
1082.485474 192.0
1082.540283 224.0
1082.668091 184.0
1082.759888 340.0
1082.895264 136.0
1083.003906 104.0
1083.056396 44.0
1083.125 212.0
1083.224976 204.0
1083.279053 68.0
1083.331421 120.0
1083.43042 164.0
1083.619751 92.0
1083.747925 100.0
1083.815186 220.0
1083.888428 120.0
1083.966431 168.0
1084.042603 256.0
1084.203003 132.0
1084.266357 228.0
1084.339478 140.0
1084.361816 116.0
1084.381958 168.0
1084.543823 184.0
1084.629028 48.0
1084.786987 76.0
1084.838745 156.0
1085.078979 80.0
1085.205933 148.0
1085.312134 180.0
1085.386108 148.0
1085.56189 180.0
1085.664917 64.0
1085.782959 104.0
1085.835693 104.0
1085.927246 160.0
1086.005981 88.0
1086.07373 100.0
1086.222412 148.0
1086.272461 296.0
1086.38269 84.0
1086.452026 180.0
1086.621704 88.0
1086.701416 184.0
1086.786621 60.0
1086.898193 96.0
1086.986084 144.0
1087.101685 88.0
1087.202881 112.0
1087.231201 48.0
1087.245972 52.0
1087.458252 72.0
1087.561035 64.0
1087.679199 180.0
1087.771118 124.0
1087.889282 92.0
1087.935181 220.0
1088.103394 216.0
1088.322632 156.0
1088.403809 96.0
1088.523193 152.0
1088.572144 100.0
1088.644409 112.0
1088.780273 208.0
1088.8479 168.0
1088.935059 228.0
1089.104248 164.0
1089.218506 156.0
1089.393188 180.0
1089.493896 108.0
1089.614258 192.0
1089.668701 136.0
1089.737549 208.0
1089.822388 176.0
1089.960327 304.0
1090.009521 164.0
1090.083008 152.0
1090.201294 68.0
1090.326172 144.0
1090.39856 84.0
1090.464233 124.0
1090.519653 208.0
1090.635254 176.0
1090.726074 172.0
1090.759521 56.0
1090.790894 224.0
1090.802979 172.0
1090.82959 144.0
1090.884888 192.0
1090.983521 52.0
1091.119141 212.0
1091.187378 60.0
1091.245605 84.0
1091.358276 48.0
1091.41748 68.0
1091.470093 192.0
1091.535889 52.0
1091.618652 252.0
1091.711182 120.0
1091.781738 192.0
1091.94751 236.0
1092.029053 68.0
1092.15564 196.0
1092.206665 116.0
1092.27771 136.0
1092.341797 180.0
1092.407593 68.0
1092.469849 120.0
1092.547729 52.0
1092.594849 72.0
1092.651978 172.0
1092.733032 204.0
1092.868164 176.0
1093.062866 60.0
1093.25354 72.0
1093.376221 100.0
1093.41687 124.0
1093.54895 48.0
1093.704468 168.0
1093.879272 176.0
1093.971313 72.0
1094.056763 56.0
1094.178955 132.0
1094.246826 136.0
1094.358032 404.0
1094.490234 144.0
1094.63269 152.0
1094.695068 184.0
1094.898682 188.0
1095.000244 260.0
1095.071655 76.0
1095.095093 180.0
1095.177979 188.0
1095.247803 52.0
1095.339966 160.0
1095.432251 48.0
1095.491455 96.0
1095.62146 104.0
1095.715454 72.0
1095.796387 104.0
1095.893433 52.0
1095.979004 144.0
1096.067993 132.0
1096.112183 144.0
1096.249146 180.0
1096.32666 172.0
1096.472534 72.0
1096.516602 132.0
1096.608032 104.0
1096.697388 180.0
1096.796265 156.0
1096.895142 144.0
1096.954468 140.0
1097.020386 124.0
1097.185181 116.0
1097.448975 72.0
1097.561035 184.0
1097.675903 320.0
1097.725952 148.0
1097.834229 112.0
1097.923706 176.0
1097.983154 68.0
1098.035889 96.0
1098.126465 132.0
1098.149414 96.0
1098.170166 152.0
1098.324951 160.0
1098.35144 132.0
1098.36792 140.0
1098.396362 180.0
1098.517334 200.0
1098.675659 68.0
1098.824097 128.0
1098.924561 152.0
1099.015869 152.0
1099.071533 144.0
1099.220459 148.0
1099.282715 76.0
1099.403442 132.0
1099.717651 112.0
1099.856934 176.0
1100.008789 184.0
1100.05896 56.0
1100.239868 240.0
1100.404907 76.0
1100.54541 148.0
1100.603149 176.0
1100.662476 116.0
1100.724243 116.0
1100.868408 144.0
1100.953491 176.0
1101.081665 168.0
1101.352173 188.0
1101.364258 160.0
1101.494629 64.0
1101.567261 72.0
1101.675171 312.0
1101.732422 192.0
1101.877808 92.0
1101.92395 176.0
1102.052124 112.0
1102.109009 44.0
1102.188354 132.0
1102.27417 200.0
1102.366699 120.0
1102.450684 192.0
1102.508057 92.0
1102.624512 68.0
1102.68396 180.0
1102.763306 96.0
1102.935181 148.0
1102.991577 280.0
1103.052612 68.0
1103.094971 184.0
1103.18811 72.0
1103.273315 52.0
1103.457031 224.0
1103.553711 212.0
1103.667114 196.0
1103.71521 144.0
1103.80127 112.0
1103.854126 148.0
1103.973145 172.0
1104.063843 244.0
1104.178223 88.0
1104.224487 216.0
1104.280518 144.0
1104.375732 96.0
1104.420898 144.0
1104.502319 144.0
1104.551392 120.0
1104.614746 96.0
1104.665894 108.0
1104.745239 120.0
1104.879395 60.0
1104.932251 112.0
1104.991821 48.0
1105.09314 132.0
1105.148315 176.0
1105.203613 116.0
1105.301025 160.0
1105.369019 96.0
1105.530273 128.0
1105.610596 104.0
1105.689941 120.0
1105.820801 128.0
1106.090454 148.0
1106.17334 152.0
1106.255859 100.0
1106.335327 96.0
1106.38501 160.0
1106.407837 80.0
1106.448364 180.0
1106.553833 120.0
1106.719971 84.0
1106.869873 72.0
1106.917969 288.0
1107.138184 172.0
1107.189575 180.0
1107.288452 68.0
1107.324341 156.0
1107.384888 184.0
1107.46106 176.0
1107.533936 120.0
1107.613403 68.0
1107.677856 176.0
1107.739258 124.0
1107.839966 124.0
1107.924805 64.0
1108.021484 68.0
1108.08374 108.0
1108.236084 140.0
1108.258789 128.0
1108.371582 140.0
1108.439819 120.0
1108.51355 88.0
1108.587402 40.0
1108.644043 124.0
1108.820679 232.0
1108.911255 148.0
1108.998291 40.0
1109.097778 140.0
1109.161133 64.0
1109.217407 172.0
1109.306274 84.0
1109.356201 108.0
1109.426636 164.0
1109.54187 64.0
1109.588257 160.0
1109.710327 92.0
1109.800415 136.0
1109.859497 204.0
1109.901367 196.0
1110.048096 160.0
1110.118774 72.0
1110.213745 248.0
1110.351196 324.0
1110.439331 132.0
1110.494385 112.0
1110.569702 164.0
1110.619873 116.0
1110.709717 168.0
1110.799683 60.0
1110.827148 40.0
1110.852051 92.0
1110.941284 52.0
1111.040771 192.0
1111.173096 152.0
1111.325317 140.0
1111.442871 76.0
1111.604736 84.0
1111.68103 152.0
1111.764038 388.0
1111.921143 152.0
1111.986938 212.0
1112.066162 124.0
1112.142212 164.0
1112.234253 276.0
1112.28833 152.0
1112.341431 76.0
1112.430664 112.0
1112.600342 308.0
1112.696289 72.0
1112.737061 168.0
1112.786255 80.0
1112.832764 228.0
1113.0448 124.0
1113.117065 160.0
1113.290894 180.0
1113.373169 72.0
1113.450317 100.0
1113.515137 192.0
1113.616333 80.0
1113.742554 76.0
1113.830566 160.0
1113.935181 28.0
1114.008301 100.0
1114.094604 100.0
1114.147827 168.0
1114.27002 212.0
1114.360352 88.0
1114.40686 84.0
1114.493774 116.0
1114.593018 104.0
1114.692871 96.0
1114.74585 124.0
1114.84314 148.0
1114.935669 160.0
1115.075928 280.0
1115.177856 192.0
1115.225952 112.0
1115.342651 140.0
1115.559448 248.0
1115.636475 40.0
1115.709595 180.0
1115.802734 200.0
1115.866943 84.0
1115.958374 76.0
1116.043823 136.0
1116.117798 112.0
1116.185669 128.0
1116.224976 156.0
1116.434326 184.0
1116.547485 164.0
1116.611328 80.0
1116.653687 120.0
1116.74231 96.0
1117.118408 148.0
1117.161987 124.0
1117.281372 72.0
1117.35022 160.0
1117.45874 88.0
1117.643677 92.0
1117.7229 120.0
1117.760132 228.0
1117.826904 140.0
1117.891357 160.0
1117.977783 116.0
1118.024414 224.0
1118.071045 96.0
1118.244751 216.0
1118.33728 124.0
1118.381104 108.0
1118.543945 124.0
1118.623413 176.0
1118.761475 196.0
1118.852661 116.0
1118.932007 224.0
1119.010254 192.0
1119.069458 244.0
1119.158081 196.0
1119.215942 92.0
1119.411499 84.0
1119.474121 68.0
1119.51416 228.0
1119.695435 132.0
1119.805542 208.0
1119.961914 300.0
1120.031372 360.0
1120.132446 168.0
1120.22168 140.0
1120.307373 136.0
1120.379272 264.0
1120.443237 144.0
1120.514771 140.0
1120.594727 76.0
1120.702759 80.0
1120.824463 112.0
1120.97644 100.0
1121.038086 296.0
1121.214478 64.0
1121.304688 320.0
1121.466309 268.0
1121.57251 244.0
1121.591919 172.0
1121.766602 160.0
1121.855225 208.0
1122.034424 132.0
1122.081055 92.0
1122.252319 152.0
1122.34729 176.0
1122.39563 192.0
1122.447754 60.0
1122.51123 116.0
1122.593506 160.0
1122.681274 112.0
1122.749634 252.0
1122.845581 148.0
1122.954468 152.0
1123.099854 68.0
1123.127197 92.0
1123.214844 200.0
1123.288208 64.0
1123.428955 108.0
1123.519409 108.0
1123.629517 140.0
1123.664551 88.0
1123.682007 92.0
1123.755249 336.0
1123.811646 92.0
1123.895264 64.0
1124.012085 88.0
1124.115723 220.0
1124.239014 168.0
1124.325684 276.0
1124.40918 196.0
1124.58606 120.0
1124.682861 92.0
1124.739014 264.0
1124.766724 112.0
1124.792847 216.0
1124.843018 40.0
1124.90979 184.0
1125.017334 168.0
1125.138916 140.0
1125.183472 80.0
1125.301147 96.0
1125.36377 128.0
1125.430542 48.0
1125.51355 84.0
1125.59082 136.0
1125.692261 252.0
1125.75769 176.0
1125.809692 72.0
1125.863037 104.0
1125.945801 124.0
1126.048096 64.0
1126.111694 108.0
1126.251221 100.0
1126.310181 224.0
1126.362549 132.0
1126.619385 156.0
1126.846924 132.0
1126.949097 80.0
1126.989502 244.0
1127.105713 244.0
1127.207764 152.0
1127.308838 132.0
1127.350708 144.0
1127.561523 64.0
1127.641724 180.0
1127.699463 136.0
1127.825195 152.0
1127.878052 176.0
1127.948608 172.0
1128.026001 116.0
1128.177368 300.0
1128.463989 160.0
1128.562134 200.0
1128.707886 196.0
1128.805054 136.0
1128.902588 164.0
1129.108398 164.0
1129.179565 136.0
1129.271362 132.0
1129.348511 176.0
1129.466553 116.0
1129.530029 188.0
1129.5802 80.0
1129.655884 76.0
1129.699829 128.0
1129.775879 80.0
1129.871094 148.0
1130.000854 68.0
1130.086914 216.0
1130.176392 180.0
1130.231812 176.0
1130.343628 124.0
1130.464111 152.0
1130.508667 72.0
1130.523193 48.0
1130.578735 128.0
1130.638062 64.0
1130.684937 128.0
1130.747925 172.0
1130.829346 160.0
1130.950317 152.0
1131.064209 92.0
1131.148438 192.0
1131.327515 184.0
1131.441284 108.0
1131.511963 132.0
1131.615356 252.0
1131.729248 192.0
1131.789551 292.0
1131.910034 152.0
1132.032104 184.0
1132.135498 120.0
1132.250732 160.0
1132.266602 212.0
1132.405151 220.0
1132.491943 208.0
1132.614502 152.0
1132.741943 152.0
1132.794189 112.0
1132.861084 44.0
1132.928101 176.0
1133.05542 140.0
1133.115723 176.0
1133.215088 88.0
1133.296631 268.0
1133.373047 168.0
1133.490479 188.0
1133.581177 228.0
1133.71167 188.0
1133.779053 48.0
1133.859497 232.0
1133.904907 124.0
1133.953369 164.0
1134.057861 348.0
1134.203613 280.0
1134.281738 160.0
1134.389648 176.0
1134.49939 320.0
1134.585815 180.0
1134.66394 152.0
1134.764526 60.0
1134.888306 112.0
1135.026001 64.0
1135.16687 84.0
1135.238403 236.0
1135.374146 152.0
1135.458984 364.0
1135.552002 200.0
1135.637817 180.0
1135.758911 180.0
1135.817383 176.0
1135.893921 164.0
1135.919067 184.0
1135.945068 192.0
1136.015747 104.0
1136.108887 36.0
1136.253418 132.0
1136.300415 76.0
1136.443359 196.0
1136.616333 92.0
1136.682861 72.0
1136.756714 76.0
1136.869507 172.0
1136.919678 184.0
1137.011719 204.0
1137.075562 148.0
1137.114502 112.0
1137.297363 208.0
1137.473877 112.0
1137.591675 220.0
1137.644531 192.0
1137.695312 308.0
1137.753296 160.0
1137.840698 104.0
1137.914551 76.0
1137.992798 160.0
1138.065674 104.0
1138.14624 152.0
1138.199951 120.0
1138.465698 124.0
1138.521729 140.0
1138.614502 220.0
1138.736206 164.0
1138.90332 228.0
1139.026001 212.0
1139.151855 148.0
1139.234253 176.0
1139.288086 148.0
1139.377563 128.0
1139.449341 116.0
1139.493286 72.0
1139.615967 164.0
1139.716309 168.0
1139.832275 168.0
1139.944458 120.0
1140.011841 132.0
1140.10144 148.0
1140.188477 308.0
1140.242188 144.0
1140.356445 120.0
1140.450562 148.0
1140.551392 148.0
1140.608765 184.0
1140.672363 88.0
1140.786743 124.0
1140.887573 176.0
1140.998413 72.0
1141.066772 228.0
1141.125 172.0
1141.202637 192.0
1141.229736 156.0
1141.321655 272.0
1141.394043 164.0
1141.49939 160.0
1141.570312 260.0
1141.595459 160.0
1141.802002 76.0
1141.87207 180.0
1141.918579 60.0
1141.932373 96.0
1141.983643 144.0
1142.108643 120.0
1142.132324 144.0
1142.252686 184.0
1142.299805 92.0
1142.406006 232.0
1142.570435 104.0
1142.649658 136.0
1142.778076 176.0
1142.85144 96.0
1142.911499 168.0
1142.994995 184.0
1143.120605 196.0
1143.212036 184.0
1143.369629 168.0
1143.472534 188.0
1143.526611 200.0
1143.623413 208.0
1143.673706 304.0
1143.829834 116.0
1143.914795 204.0
1144.022827 116.0
1144.106445 120.0
1144.184082 84.0
1144.238037 52.0
1144.307007 220.0
1144.370239 92.0
1144.430298 176.0
1144.50061 132.0
1144.594849 132.0
1144.668335 256.0
1144.729492 124.0
1144.803589 44.0
1144.880615 228.0
1144.906982 184.0
1144.92627 152.0
1145.021973 132.0
1145.212524 156.0
1145.314819 76.0
1145.331055 100.0
1145.412354 128.0
1145.463623 88.0
1145.510864 152.0
1145.556396 52.0
1145.597168 216.0
1145.686035 192.0
1145.739746 184.0
1145.830566 60.0
1145.85498 120.0
1145.990967 220.0
1146.081665 300.0
1146.137451 168.0
1146.297729 80.0
1146.455688 384.0
1146.647339 232.0
1146.737183 152.0
1146.853149 196.0
1146.963501 160.0
1146.982544 92.0
1147.195557 100.0
1147.247681 224.0
1147.526123 324.0
1147.612061 76.0
1147.687744 52.0
1147.734985 196.0
1147.783936 120.0
1147.923706 172.0
1147.977661 60.0
1148.067017 80.0
1148.132446 308.0
1148.217285 100.0
1148.301392 136.0
1148.397827 216.0
1148.456421 188.0
1148.557739 64.0
1148.645386 176.0
1148.730225 172.0
1148.800537 72.0
1148.849731 228.0
1148.946899 128.0
1149.036743 52.0
1149.083984 140.0
1149.144897 164.0
1149.212158 64.0
1149.320068 164.0
1149.424683 88.0
1149.495117 180.0
1149.61438 152.0
1149.686646 124.0
1149.751953 148.0
1149.811157 172.0
1149.866699 132.0
1149.961182 208.0
1150.021973 160.0
1150.103027 80.0
1150.298706 124.0
1150.406738 92.0
1150.453979 176.0
1150.535034 64.0
1150.587646 132.0
1150.703857 176.0
1150.764526 60.0
1150.842651 328.0
1150.904419 172.0
1150.985474 136.0
1151.035278 180.0
1151.088623 360.0
1151.183228 128.0
1151.269165 164.0
1151.318237 64.0
1151.392578 132.0
1151.466553 176.0
1151.620117 156.0
1151.720581 72.0
1151.807495 132.0
1151.861206 136.0
1151.921509 156.0
1152.054932 272.0
1152.113281 112.0
1152.169434 168.0
1152.273071 96.0
1152.359741 208.0
1152.426147 76.0
1152.480225 76.0
1152.527466 208.0
1152.574829 44.0
1152.624023 144.0
1152.685669 188.0
1152.735352 148.0
1152.851685 204.0
1152.896851 104.0
1152.974854 272.0
1153.034302 172.0
1153.105835 148.0
1153.27771 136.0
1153.347168 196.0
1153.494019 44.0
1153.564453 144.0
1153.760498 208.0
1153.814453 80.0
1153.847778 140.0
1154.068604 160.0
1154.178101 160.0
1154.241699 120.0
1154.450562 192.0
1154.505859 160.0
1154.522461 152.0
1154.547241 220.0
1154.643433 68.0
1154.764282 144.0
1154.859009 184.0
1154.956299 232.0
1155.096558 212.0
1155.164307 188.0
1155.247192 168.0
1155.352661 100.0
1155.426514 164.0
1155.475464 168.0
1155.561768 160.0
1155.621094 244.0
1155.744263 180.0
1155.78894 192.0
1155.875244 188.0
1155.967529 144.0
1156.037109 72.0
1156.106323 92.0
1156.189209 144.0
1156.311401 108.0
1156.382202 112.0
1156.453369 160.0
1156.524414 188.0
1156.694946 184.0
1156.768066 60.0
1156.881714 228.0
1157.005005 40.0
1157.065918 104.0
1157.126953 100.0
1157.193481 164.0
1157.242798 312.0
1157.374268 308.0
1157.453613 180.0
1157.556396 132.0
1157.69165 80.0
1157.765259 120.0
1157.844727 92.0
1157.997559 176.0
1158.087891 176.0
1158.137695 236.0
1158.196899 92.0
1158.290649 156.0
1158.373047 108.0
1158.539185 160.0
1158.560791 128.0
1158.583252 136.0
1158.667847 220.0
1158.774902 152.0
1158.993896 200.0
1159.13501 148.0
1159.27771 84.0
1159.328369 184.0
1159.375854 176.0
1159.436768 212.0
1159.495361 160.0
1159.622803 288.0
1159.773926 248.0
1159.853149 132.0
1159.874512 56.0
1159.92688 204.0
1160.021851 128.0
1160.13501 200.0
1160.263794 68.0
1160.437134 224.0
1160.536865 104.0
1160.67395 120.0
1160.695435 116.0
1160.765503 176.0
1160.855225 168.0
1160.973755 172.0
1161.042725 224.0
1161.179199 180.0
1161.277588 72.0
1161.38269 112.0
1161.450562 60.0
1161.527222 276.0
1161.613403 124.0
1161.850708 388.0
1161.942139 276.0
1162.156128 128.0
1162.324097 100.0
1162.42749 84.0
1162.522583 132.0
1162.610718 164.0
1162.678589 120.0
1162.73291 208.0
1162.800781 144.0
1162.874023 264.0
1162.961792 352.0
1163.040527 176.0
1163.162109 180.0
1163.351807 140.0
1163.427368 104.0
1163.511719 180.0
1163.561035 116.0
1163.640869 188.0
1163.71167 192.0
1163.805542 104.0
1163.942871 164.0
1164.089844 64.0
1164.107178 112.0
1164.17627 232.0
1164.294434 100.0
1164.448242 148.0
1164.486938 168.0
1164.685303 168.0
1164.762573 52.0
1164.819092 192.0
1164.939697 100.0
1165.0177 132.0
1165.168823 224.0
1165.291748 152.0
1165.406006 204.0
1165.560913 172.0
1165.700684 104.0
1165.811279 92.0
1165.99292 164.0
1166.137085 184.0
1166.278442 44.0
1166.392944 152.0
1166.4552 128.0
1166.584717 76.0
1166.652344 132.0
1166.774048 372.0
1166.793091 128.0
1166.872803 156.0
1166.899048 68.0
1166.923462 176.0
1167.022583 292.0
1167.090698 280.0
1167.225586 104.0
1167.391479 220.0
1167.4021 156.0
1167.501465 160.0
1167.563477 188.0
1167.668213 76.0
1167.753906 68.0
1167.844238 188.0
1167.903564 76.0
1168.040527 356.0
1168.209595 180.0
1168.352539 60.0
1168.46814 72.0
1168.541626 136.0
1168.560303 108.0
1168.581421 168.0
1168.815186 244.0
1168.890869 180.0
1168.951294 156.0
1169.094238 148.0
1169.140747 144.0
1169.203125 212.0
1169.268555 128.0
1169.440308 140.0
1169.480957 296.0
1169.547729 164.0
1169.706787 168.0
1169.795288 68.0
1169.938354 120.0
1170.115112 160.0
1170.25647 172.0
1170.328247 340.0
1170.400146 248.0
1170.585083 160.0
1170.658447 200.0
1170.767456 208.0
1170.843872 220.0
1170.932373 60.0
1171.068604 64.0
1171.15918 164.0
1171.227173 112.0
1171.281982 124.0
1171.470093 132.0
1171.546021 168.0
1171.680664 184.0
1171.7771 132.0
1172.063232 60.0
1172.158691 160.0
1172.209717 244.0
1172.294922 112.0
1172.390381 68.0
1172.474854 120.0
1172.628906 68.0
1172.780396 144.0
1172.88562 180.0
1172.942505 340.0
1173.014282 196.0
1173.072021 124.0
1173.171021 208.0
1173.301025 224.0
1173.392334 56.0
1173.460571 212.0
1173.542358 76.0
1173.591797 152.0
1173.672974 116.0
1173.77417 112.0
1173.910645 128.0
1173.963501 160.0
1174.081055 44.0
1174.224365 68.0
1174.272095 120.0
1174.345459 192.0
1174.418457 156.0
1174.517456 212.0
1174.606323 192.0
1174.756348 180.0
1174.853149 64.0
1174.91333 196.0
1175.10437 116.0
1175.230103 168.0
1175.356567 144.0
1175.431885 172.0
1175.500122 96.0
1175.601685 248.0
1175.800415 88.0
1175.848145 160.0
1175.969727 196.0
1176.082642 200.0
1176.134766 136.0
1176.216675 152.0
1176.298706 132.0
1176.392944 148.0
1176.497803 176.0
1176.570923 324.0
1176.747314 188.0
1176.795898 148.0
1176.880371 352.0
1176.932251 308.0
1176.998535 136.0
1177.06543 208.0
1177.131592 116.0
1177.231201 188.0
1177.370483 132.0
1177.459473 128.0
1177.548706 100.0
1177.616577 148.0
1177.705811 168.0
1177.756104 176.0
1177.846191 168.0
1177.917114 120.0
1177.975708 68.0
1178.1698 256.0
1178.229736 196.0
1178.30188 96.0
1178.513794 316.0
1178.67688 380.0
1178.729492 48.0
1178.798462 144.0
1178.887939 176.0
1178.968018 164.0
1179.068115 160.0
1179.169067 144.0
1179.229004 48.0
1179.297363 120.0
1179.382812 164.0
1179.434082 232.0
1179.53125 144.0
1179.698608 344.0
1179.782715 132.0
1179.851074 84.0
1179.952148 148.0
1179.963745 176.0
1179.993042 88.0
1180.018188 156.0
1180.079956 152.0
1180.138184 108.0
1180.199829 44.0
1180.296753 108.0
1180.357056 88.0
1180.417236 176.0
1180.443237 140.0
1180.517822 200.0
1180.572998 48.0
1180.592041 76.0
1180.644287 264.0
1180.757324 140.0
1180.80957 288.0
1180.897339 92.0
1180.94519 216.0
1181.117432 212.0
1181.22583 140.0
1181.297485 152.0
1181.387695 364.0
1181.477783 176.0
1181.581543 156.0
1181.765137 132.0
1181.848999 108.0
1181.944092 124.0
1182.036011 184.0
1182.115112 136.0
1182.173584 188.0
1182.265625 204.0
1182.340942 44.0
1182.423096 144.0
1182.516479 104.0
1182.592651 156.0
1182.645874 168.0
1182.717407 160.0
1182.859009 144.0
1182.943237 132.0
1183.125122 92.0
1183.176025 92.0
1183.226074 220.0
1183.335205 276.0
1183.457642 128.0
1183.559448 60.0
1183.620117 356.0
1183.675903 128.0
1183.847046 304.0
1183.892578 144.0
1183.977539 136.0
1184.098755 360.0
1184.162109 296.0
1184.25769 96.0
1184.371704 128.0
1184.438477 332.0
1184.538818 152.0
1184.625244 264.0
1184.699219 88.0
1184.833496 68.0
1184.88855 104.0
1184.981079 216.0
1185.031006 172.0
1185.143677 100.0
1185.217163 60.0
1185.289062 372.0
1185.400635 172.0
1185.44519 72.0
1185.600952 80.0
1185.698975 180.0
1185.798828 128.0
1186.018066 240.0
1186.1698 148.0
1186.315186 124.0
1186.366455 72.0
1186.433472 180.0
1186.533569 172.0
1186.598022 156.0
1186.700317 156.0
1186.839722 100.0
1186.953247 152.0
1187.024414 204.0
1187.198242 148.0
1187.412476 196.0
1187.582397 112.0
1187.737183 52.0
1187.802246 128.0
1187.858643 172.0
1187.915527 116.0
1188.002563 124.0
1188.086792 144.0
1188.172363 164.0
1188.24585 284.0
1188.316406 132.0
1188.552856 132.0
1188.618286 180.0
1188.666382 152.0
1188.737549 136.0
1188.784546 156.0
1188.899658 104.0
1188.995361 132.0
1189.057495 192.0
1189.133057 172.0
1189.260376 72.0
1189.289062 108.0
1189.350342 204.0
1189.431885 148.0
1189.572266 288.0
1189.647827 216.0
1189.723389 92.0
1189.738037 208.0
1189.794189 192.0
1189.963623 256.0
1190.044556 112.0
1190.166626 128.0
1190.293091 144.0
1190.404541 84.0
1190.459595 172.0
1190.543457 140.0
1190.615967 152.0
1190.68396 156.0
1190.840942 252.0
1190.903564 244.0
1190.993774 64.0
1191.165527 160.0
1191.256714 336.0
1191.332642 184.0
1191.479736 60.0
1191.605591 148.0
1191.705322 152.0
1191.796509 100.0
1191.860596 184.0
1191.976196 92.0
1192.093018 72.0
1192.150635 124.0
1192.237427 148.0
1192.312988 132.0
1192.361084 176.0
1192.481445 140.0
1192.537231 204.0
1192.612183 68.0
1192.631958 116.0
1192.718506 76.0
1192.785767 220.0
1192.946899 120.0
1193.005127 44.0
1193.092163 124.0
1193.139526 132.0
1193.20459 148.0
1193.272461 164.0
1193.429321 184.0
1193.495361 28.0
1193.550415 80.0
1193.70166 236.0
1193.794678 144.0
1193.935425 120.0
1194.06311 324.0
1194.150391 160.0
1194.200806 148.0
1194.291748 304.0
1194.391357 196.0
1194.437134 116.0
1194.525391 172.0
1194.635132 168.0
1194.686279 92.0
1194.76062 192.0
1194.775269 184.0
1195.055786 112.0
1195.072266 140.0
1195.194946 96.0
1195.417725 84.0
1195.555176 120.0
1195.604126 196.0
1195.655518 76.0
1195.715454 96.0
1195.810303 40.0
1195.871948 140.0
1195.944092 64.0
1196.017212 108.0
1196.080566 104.0
1196.177124 216.0
1196.233521 152.0
1196.338257 264.0
1196.520264 188.0
1196.575928 160.0
1196.593262 116.0
1196.64502 192.0
1196.743164 188.0
1196.856201 196.0
1196.985352 136.0
1197.064209 44.0
1197.13623 100.0
1197.238892 92.0
1197.362915 96.0
1197.492432 196.0
1197.648193 124.0
1197.738159 272.0
1197.783447 376.0
1197.853271 164.0
1197.885498 124.0
1197.904053 284.0
1198.026733 152.0
1198.102173 208.0
1198.188477 56.0
1198.290771 120.0
1198.361694 228.0
1198.448608 168.0
1198.56604 248.0
1198.67688 116.0
1198.773926 264.0
1198.882446 156.0
1198.966675 56.0
1199.108276 148.0
1199.291138 136.0
1199.397339 168.0
1199.533325 144.0
1199.585449 100.0
1199.693359 140.0
1199.842773 72.0
1200.015991 140.0
1200.07959 68.0
1200.194214 60.0
1200.305542 312.0
1200.363159 160.0
1200.482666 152.0
1200.601929 192.0
1200.671021 48.0
1200.71936 212.0
1200.764648 160.0
1200.850342 52.0
1200.922485 116.0
1201.128296 68.0
1201.277344 224.0
1201.456055 196.0
1201.566895 228.0
1201.698853 132.0
1202.012939 132.0
1202.111084 184.0
1202.173462 88.0
1202.24292 48.0
1202.270996 128.0
1202.314331 148.0
1202.407471 176.0
1202.53186 136.0
1202.616699 68.0
1202.688843 220.0
1202.768433 200.0
1202.913574 100.0
1203.023315 160.0
1203.111816 184.0
1203.16687 356.0
1203.319702 144.0
1203.434326 124.0
1203.521118 212.0
1203.58374 184.0
1203.645142 160.0
1203.65564 148.0
1203.713379 264.0
1203.766113 160.0
1203.859497 64.0
1203.924561 160.0
1204.057129 64.0
1204.168701 332.0
1204.325439 156.0
1204.379395 148.0
1204.433228 116.0
1204.501831 56.0
1204.651733 96.0
1204.709839 336.0
1204.812744 336.0
1204.964722 324.0
1205.103638 316.0
1205.118164 152.0
1205.147583 196.0
1205.198486 284.0
1205.245483 100.0
1205.322144 132.0
1205.402832 244.0
1205.483765 224.0
1205.56897 216.0
1205.760742 208.0
1205.869995 396.0
1205.928223 244.0
1206.074219 184.0
1206.17688 88.0
1206.257568 168.0
1206.394531 76.0
1206.509033 124.0
1206.567749 144.0
1206.754883 248.0
1206.828003 120.0
1206.989868 40.0
1207.047241 112.0
1207.062256 96.0
1207.098267 124.0
1207.123413 180.0
1207.202148 360.0
1207.290039 180.0
1207.371338 148.0
1207.453247 188.0
1207.59729 224.0
1207.681519 116.0
1207.736816 248.0
1207.932983 364.0
1208.050659 164.0
1208.219482 192.0
1208.329346 136.0
1208.382935 280.0
1208.444946 192.0
1208.519653 180.0
1208.619751 72.0
1208.680786 180.0
1208.756226 296.0
1208.869141 92.0
1208.954346 168.0
1209.015991 64.0
1209.107056 280.0
1209.244873 172.0
1209.310059 148.0
1209.360474 108.0
1209.457153 196.0
1209.556763 48.0
1209.690674 144.0
1209.780273 172.0
1209.817383 172.0
1209.832397 136.0
1209.885498 244.0
1209.972046 64.0
1210.03833 236.0
1210.21814 44.0
1210.430786 200.0
1210.492432 184.0
1210.609131 56.0
1210.664551 32.0
1210.716431 212.0
1210.819824 140.0
1210.96582 276.0
1211.06897 208.0
1211.12439 160.0
1211.204712 108.0
1211.271362 196.0
1211.465576 216.0
1211.633179 104.0
1211.753662 100.0
1211.842163 112.0
1211.911377 156.0
1212.000244 128.0
1212.153198 100.0
1212.175293 192.0
1212.278687 152.0
1212.361816 36.0
1212.439941 120.0
1212.666748 192.0
1212.754883 160.0
1212.800415 280.0
1212.953491 176.0
1213.017822 276.0
1213.10437 168.0
1213.176514 88.0
1213.276855 124.0
1213.387451 136.0
1213.541992 172.0
1213.685547 164.0
1213.857422 148.0
1213.883423 108.0
1213.930786 160.0
1214.002441 84.0
1214.046509 136.0
1214.199463 172.0
1214.275391 100.0
1214.34436 152.0
1214.434937 200.0
1214.525024 196.0
1214.673218 344.0
1214.767822 72.0
1214.830322 124.0
1214.996826 120.0
1215.056152 92.0
1215.128662 312.0
1215.228516 140.0
1215.329834 208.0
1215.48938 160.0
1215.550171 112.0
1215.636841 260.0
1215.711426 128.0
1215.848511 64.0
1215.91626 136.0
1216.022217 160.0
1216.097534 140.0
1216.197144 140.0
1216.275269 140.0
1216.363892 156.0
1216.468018 320.0
1216.527588 212.0
1216.702881 160.0
1216.77356 80.0
1216.940796 116.0
1217.074829 260.0
1217.143555 212.0
1217.203979 148.0
1217.30127 208.0
1217.362793 180.0
1217.481812 148.0
1217.588379 148.0
1217.63562 156.0
1217.659058 92.0
1217.773438 88.0
1217.93103 172.0
1217.978638 196.0
1218.037476 508.0
1218.169189 80.0
1218.238892 156.0
1218.307495 96.0
1218.425171 216.0
1218.487793 164.0
1218.590942 144.0
1218.672485 288.0
1218.734375 192.0
1218.783936 108.0
1218.883789 288.0
1218.952515 176.0
1219.033936 164.0
1219.142212 108.0
1219.216919 96.0
1219.293091 208.0
1219.440186 240.0
1219.593994 172.0
1219.685059 120.0
1219.797607 236.0
1219.856323 192.0
1219.963867 56.0
1220.133423 92.0
1220.184326 144.0
1220.289185 216.0
1220.531616 380.0
1220.629883 36.0
1220.706299 160.0
1220.861694 156.0
1221.029541 308.0
1221.158447 108.0
1221.220947 148.0
1221.353149 228.0
1221.422729 164.0
1221.476318 40.0
1221.490356 88.0
1221.643799 200.0
1221.77002 112.0
1221.821777 320.0
1221.895386 232.0
1221.914307 120.0
1221.944092 212.0
1222.064941 136.0
1222.145386 100.0
1222.193848 172.0
1222.286987 344.0
1222.399902 160.0
1222.46936 252.0
1222.595581 140.0
1222.685791 184.0
1222.777466 160.0
1222.845459 200.0
1222.952637 188.0
1223.081543 132.0
1223.17627 160.0
1223.229126 116.0
1223.284302 140.0
1223.362915 144.0
1223.47937 104.0
1223.53418 148.0
1223.628784 76.0
1223.770264 148.0
1223.860474 148.0
1223.997803 104.0
1224.088379 84.0
1224.328247 292.0
1224.380859 112.0
1224.466431 320.0
1224.572144 68.0
1224.698608 104.0
1224.840576 164.0
1224.939941 132.0
1225.079224 76.0
1225.17981 196.0
1225.20459 200.0
1225.260864 124.0
1225.362427 260.0
1225.444214 112.0
1225.501831 76.0
1225.511597 140.0
1225.634766 192.0
1225.760254 144.0
1225.834839 160.0
1225.921509 228.0
1225.999023 228.0
1226.124146 200.0
1226.236084 84.0
1226.355347 132.0
1226.415405 116.0
1226.485107 56.0
1226.5896 132.0
1226.657959 200.0
1226.738892 200.0
1226.875488 144.0
1226.966064 100.0
1227.014893 72.0
1227.0802 296.0
1227.203369 96.0
1227.327148 288.0
1227.398315 144.0
1227.593628 156.0
1227.710815 104.0
1227.781982 100.0
1227.880249 152.0
1228.074829 44.0
1228.162842 116.0
1228.252686 160.0
1228.308716 68.0
1228.357544 168.0
1228.449097 124.0
1228.535278 60.0
1228.586182 200.0
1228.730347 140.0
1228.912354 176.0
1228.937256 72.0
1229.043823 40.0
1229.055664 88.0
1229.124512 148.0
1229.239624 72.0
1229.330688 128.0
1229.478638 80.0
1229.585815 132.0
1229.721558 56.0
1229.906738 232.0
1229.977417 156.0
1230.084473 100.0
1230.133301 64.0
1230.182251 64.0
1230.268921 112.0
1230.433594 88.0
1230.495117 148.0
1230.640869 144.0
1230.680908 120.0
1230.869873 116.0
1230.959961 188.0
1231.006104 284.0
1231.082886 116.0
1231.15979 112.0
1231.233276 408.0
1231.358154 148.0
1231.409424 180.0
1231.526733 200.0
1231.683594 48.0
1231.760498 84.0
1231.827271 156.0
1231.893188 96.0
1231.999146 108.0
1232.100708 236.0
1232.150513 200.0
1232.281372 304.0
1232.371582 100.0
1232.473022 144.0
1232.586426 204.0
1232.660522 280.0
1232.731567 68.0
1232.808472 136.0
1232.918701 196.0
1232.991577 208.0
1233.053101 100.0
1233.121704 196.0
1233.182251 184.0
1233.247803 200.0
1233.328735 156.0
1233.409546 96.0
1233.477417 164.0
1233.584473 140.0
1233.668213 112.0
1233.892212 120.0
1233.997559 168.0
1234.112671 140.0
1234.168945 212.0
1234.281372 116.0
1234.35083 148.0
1234.429199 228.0
1234.538574 176.0
1234.591187 180.0
1234.723633 120.0
1234.825806 184.0
1234.891968 60.0
1235.018921 152.0
1235.07959 116.0
1235.160645 184.0
1235.344849 128.0
1235.463623 176.0
1235.591919 196.0
1235.755981 192.0
1235.881592 132.0
1235.965698 100.0
1236.165283 160.0
1236.223999 72.0
1236.319214 48.0
1236.412842 176.0
1236.443604 108.0
1236.456665 152.0
1236.505249 200.0
1236.552002 184.0
1236.676147 60.0
1236.760132 92.0
1236.847656 192.0
1236.918701 188.0
1237.009399 268.0
1237.07959 232.0
1237.166138 84.0
1237.224487 156.0
1237.391479 344.0
1237.484009 100.0
1237.593262 100.0
1237.69397 196.0
1237.831299 152.0
1237.94812 212.0
1238.013428 220.0
1238.068359 156.0
1238.11499 160.0
1238.268677 160.0
1238.328613 216.0
1238.397095 304.0
1238.454224 64.0
1238.532593 96.0
1238.590576 320.0
1238.663452 84.0
1238.762817 248.0
1238.845337 184.0
1238.865601 144.0
1238.888794 168.0
1239.0354 76.0
1239.092163 160.0
1239.234619 140.0
1239.295288 216.0
1239.400757 164.0
1239.470459 92.0
1239.530029 136.0
1239.594238 92.0
1239.687744 96.0
1239.747681 64.0
1239.854736 196.0
1239.97168 172.0
1240.02417 188.0
1240.1427 76.0
1240.173828 120.0
1240.230347 144.0
1240.304565 184.0
1240.406006 148.0
1240.483276 224.0
1240.594482 232.0
1240.654053 184.0
1240.730957 68.0
1240.785767 56.0
1240.828491 260.0
1240.940918 188.0
1240.967651 148.0
1241.019531 268.0
1241.16687 140.0
1241.22998 60.0
1241.279053 40.0
1241.331665 136.0
1241.348389 68.0
1241.380737 128.0
1241.567749 240.0
1241.687744 168.0
1241.786865 24.0
1241.924438 148.0
1242.077271 164.0
1242.089722 108.0
1242.126831 96.0
1242.215454 300.0
1242.307739 296.0
1242.335205 196.0
1242.36084 140.0
1242.545166 148.0
1242.662842 116.0
1242.783569 140.0
1242.901245 96.0
1242.999634 112.0
1243.074829 120.0
1243.184937 172.0
1243.308105 236.0
1243.432739 180.0
1243.504272 156.0
1243.57605 116.0
1243.629272 68.0
1243.686646 300.0
1243.797119 236.0
1243.966309 92.0
1244.055298 172.0
1244.14917 312.0
1244.233032 96.0
1244.303223 44.0
1244.48584 220.0
1244.54895 108.0
1244.611084 160.0
1244.694336 240.0
1244.752686 76.0
1244.818359 188.0
1244.93103 184.0
1245.074585 196.0
1245.160522 136.0
1245.327026 104.0
1245.379272 236.0
1245.454956 144.0
1245.50415 148.0
1245.603882 220.0
1245.721924 124.0
1245.806152 60.0
1245.877441 164.0
1246.009644 108.0
1246.02832 104.0
1246.18689 192.0
1246.236572 188.0
1246.293945 176.0
1246.474487 180.0
1246.543945 124.0
1246.639282 140.0
1246.768555 172.0
1246.902832 132.0
1246.995361 152.0
1247.056885 236.0
1247.163208 176.0
1247.221313 116.0
1247.296021 168.0
1247.352173 172.0
1247.405029 156.0
1247.430542 80.0
1247.456177 168.0
1247.640503 60.0
1247.717773 84.0
1247.830322 116.0
1247.893555 144.0
1247.956787 104.0
1248.012207 164.0
1248.101929 44.0
1248.202881 172.0
1248.29541 80.0
1248.378784 172.0
1248.427979 148.0
1248.521606 168.0
1248.621948 152.0
1248.701782 108.0
1248.800781 148.0
1248.859619 172.0
1248.939697 208.0
1249.039917 220.0
1249.096191 52.0
1249.179199 128.0
1249.286133 240.0
1249.341187 168.0
1249.39978 180.0
1249.431885 116.0
1249.443115 128.0
1249.567139 96.0
1249.662598 116.0
1249.792725 144.0
1249.859619 192.0
1249.942871 240.0
1250.038818 196.0
1250.086792 248.0
1250.144531 40.0
1250.204224 112.0
1250.313477 72.0
1250.362671 160.0
1250.452759 176.0
1250.559814 204.0
1250.609009 188.0
1250.679688 168.0
1250.770874 124.0
1250.845093 140.0
1250.863525 76.0
1250.895386 152.0
1250.925171 180.0
1251.001953 220.0
1251.028564 180.0
1251.049683 148.0
1251.127075 144.0
1251.204224 80.0
1251.398926 152.0
1251.469849 116.0
1251.537354 112.0
1251.629883 96.0
1251.68103 148.0
1251.775757 188.0
1251.88269 124.0
1252.118408 396.0
1252.206299 208.0
1252.305908 276.0
1252.460205 180.0
1252.592651 92.0
1252.66687 288.0
1252.75061 296.0
1252.817017 204.0
1252.961426 216.0
1253.047852 100.0
1253.224121 180.0
1253.299316 192.0
1253.368896 288.0
1253.461304 100.0
1253.5177 152.0
1253.630859 228.0
1253.739746 104.0
1253.850952 164.0
1253.930054 176.0
1254.009644 204.0
1254.060547 360.0
1254.153198 196.0
1254.205078 220.0
1254.341675 124.0
1254.400024 180.0
1254.494995 160.0
1254.571045 268.0
1254.652588 60.0
1254.739258 232.0
1254.807617 108.0
1254.87793 148.0
1255.002686 92.0
1255.096558 220.0
1255.203369 220.0
1255.345703 40.0
1255.41687 160.0
1255.536011 312.0
1255.620361 188.0
1255.752563 72.0
1255.85022 132.0
1255.937134 192.0
1256.002197 164.0
1256.11853 152.0
1256.225342 252.0
1256.372192 96.0
1256.438232 268.0
1256.518677 176.0
1256.614868 188.0
1256.714844 220.0
1256.796021 136.0
1256.882935 96.0
1257.010498 188.0
1257.08606 136.0
1257.149536 180.0
1257.244263 160.0
1257.297729 176.0
1257.411377 120.0
1257.480225 80.0
1257.494995 92.0
1257.587158 84.0
1257.641968 184.0
1257.74939 224.0
1257.803467 228.0
1257.881714 100.0
1257.953247 212.0
1258.00708 144.0
1258.081177 204.0
1258.130615 124.0
1258.180054 220.0
1258.25708 104.0
1258.33667 176.0
1258.381836 76.0
1258.483643 56.0
1258.59668 100.0
1258.678955 100.0
1258.738037 148.0
1258.828125 128.0
1258.876953 140.0
1258.89856 204.0
1258.968872 124.0
1258.98584 160.0
1259.055664 196.0
1259.136108 152.0
1259.226929 180.0
1259.295288 300.0
1259.405396 92.0
1259.47876 316.0
1259.624512 128.0
1259.757568 152.0
1259.812012 844.0
1259.914429 72.0
1260.015137 192.0
1260.075684 148.0
1260.181152 180.0
1260.257935 164.0
1260.32019 76.0
1260.475586 152.0
1260.536743 92.0
1260.712036 104.0
1260.80481 268.0
1260.8573 96.0
1260.952271 368.0
1260.994873 68.0
1261.016968 168.0
1261.075684 128.0
1261.141479 132.0
1261.192627 212.0
1261.250977 152.0
1261.329346 92.0
1261.426025 160.0
1261.5448 176.0
1261.670166 72.0
1261.789673 180.0
1261.882202 124.0
1261.975708 156.0
1262.054077 276.0
1262.165039 176.0
1262.264526 296.0
1262.332275 156.0
1262.402344 196.0
1262.631836 132.0
1262.743896 132.0
1262.789917 92.0
1262.849854 284.0
1263.070679 168.0
1263.123169 276.0
1263.244873 72.0
1263.401489 172.0
1263.44043 360.0
1263.501831 76.0
1263.562378 212.0
1263.644409 220.0
1263.813232 236.0
1263.911133 224.0
1264.000977 240.0
1264.051392 128.0
1264.189697 140.0
1264.250977 196.0
1264.360474 228.0
1264.457764 140.0
1264.547607 160.0
1264.782959 260.0
1264.879883 260.0
1264.976196 184.0
1265.080078 208.0
1265.174805 96.0
1265.228149 128.0
1265.299561 64.0
1265.363281 100.0
1265.449341 152.0
1265.536743 268.0
1265.67041 156.0
1265.749512 164.0
1265.873047 124.0
1265.935303 128.0
1266.076172 240.0
1266.142212 60.0
1266.195679 144.0
1266.272461 144.0
1266.340576 144.0
1266.400635 324.0
1266.524658 232.0
1266.690674 156.0
1266.787231 172.0
1266.976562 252.0
1267.035156 156.0
1267.137085 244.0
1267.213989 120.0
1267.293335 72.0
1267.378418 144.0
1267.523682 108.0
1267.582153 140.0
1267.674683 232.0
1267.784424 140.0
1267.833496 160.0
1267.916992 72.0
1268.106079 156.0
1268.216675 56.0
1268.335815 160.0
1268.457764 100.0
1268.521118 224.0
1268.579712 36.0
1268.715698 88.0
1268.770752 140.0
1268.846558 204.0
1268.941284 148.0
1269.040527 304.0
1269.192383 164.0
1269.23999 160.0
1269.303223 84.0
1269.387939 104.0
1269.474854 140.0
1269.565308 148.0
1269.648315 220.0
1269.726074 172.0
1269.74939 104.0
1269.820557 116.0
1269.880615 80.0
1269.948975 124.0
1270.073486 68.0
1270.208008 216.0
1270.283936 156.0
1270.35376 152.0
1270.399902 108.0
1270.458618 152.0
1270.503906 352.0
1270.640869 184.0
1270.774048 152.0
1270.856323 216.0
1270.916504 164.0
1271.014038 72.0
1271.115479 256.0
1271.144653 176.0
1271.174927 180.0
1271.300415 160.0
1271.365967 96.0
1271.449829 172.0
1271.516357 44.0
1271.615723 132.0
1271.667847 192.0
1271.7146 120.0
1271.835693 128.0
1271.904541 148.0
1271.994995 156.0
1272.048706 72.0
1272.121216 144.0
1272.332397 116.0
1272.383789 156.0
1272.471924 280.0
1272.590088 152.0
1272.798218 304.0
1272.87915 124.0
1272.974976 156.0
1273.047974 108.0
1273.14209 112.0
1273.213135 56.0
1273.295532 132.0
1273.348022 100.0
1273.397827 120.0
1273.492432 184.0
1273.554443 252.0
1273.632202 204.0
1273.703979 180.0
1273.778564 164.0
1273.84021 124.0
1273.921021 252.0
1273.994507 128.0
1274.122314 76.0
1274.243652 172.0
1274.307129 176.0
1274.356812 76.0
1274.438965 92.0
1274.487061 360.0
1274.601196 72.0
1274.676636 236.0
1274.747681 168.0
1274.810913 128.0
1274.852417 212.0
1274.999023 160.0
1275.144165 140.0
1275.20166 140.0
1275.219116 188.0
1275.27356 40.0
1275.330444 84.0
1275.40271 196.0
1275.497803 80.0
1275.554688 372.0
1275.609131 40.0
1275.661987 176.0
1275.761597 132.0
1275.813232 148.0
1275.915405 168.0
1275.991699 188.0
1276.07605 72.0
1276.183594 96.0
1276.247314 124.0
1276.296631 128.0
1276.443237 276.0
1276.48645 100.0
1276.546143 188.0
1276.62439 196.0
1276.674194 80.0
1276.752686 248.0
1276.785034 164.0
1276.894653 120.0
1277.033691 176.0
1277.133179 132.0
1277.229004 180.0
1277.282593 184.0
1277.335693 204.0
1277.439697 220.0
1277.545288 148.0
1277.610229 128.0
1277.62439 76.0
1277.673096 64.0
1277.783813 120.0
1277.933228 172.0
1278.024292 56.0
1278.135864 324.0
1278.280884 140.0
1278.293701 152.0
1278.395874 172.0
1278.491699 148.0
1278.669678 128.0
1278.719849 156.0
1278.891357 372.0
1279.020996 144.0
1279.103149 240.0
1279.258789 148.0
1279.321167 428.0
1279.387207 100.0
1279.445801 140.0
1279.498901 116.0
1279.547363 56.0
1279.620117 76.0
1279.69751 124.0
1279.791016 112.0
1279.905396 148.0
1280.071777 196.0
1280.185791 120.0
1280.310913 136.0
1280.441895 132.0
1280.539795 216.0
1280.689941 56.0
1280.705566 144.0
1280.786743 184.0
1280.890869 196.0
1280.963989 104.0
1281.066162 132.0
1281.237915 292.0
1281.341675 192.0
1281.422119 96.0
1281.568359 172.0
1281.668579 160.0
1281.781128 188.0
1281.890015 228.0
1281.947876 192.0
1282.02063 64.0
1282.136353 308.0
1282.309082 112.0
1282.411255 188.0
1282.511841 140.0
1282.52356 128.0
1282.605103 204.0
1282.678955 132.0
1282.740601 84.0
1282.81189 76.0
1282.87915 116.0
1282.939941 160.0
1283.061401 168.0
1283.139771 156.0
1283.248901 188.0
1283.350952 176.0
1283.560547 160.0
1283.610352 64.0
1283.682373 176.0
1283.75415 52.0
1283.89856 68.0
1284.007935 200.0
1284.130981 88.0
1284.231079 256.0
1284.309814 160.0
1284.471802 108.0
1284.578491 132.0
1284.623169 176.0
1284.682129 196.0
1284.769531 108.0
1284.898804 160.0
1284.989868 140.0
1285.038818 192.0
1285.087402 136.0
1285.168701 88.0
1285.33667 88.0
1285.408691 184.0
1285.554688 96.0
1285.622559 208.0
1285.69165 76.0
1285.717896 132.0
1285.836548 120.0
1285.926758 160.0
1286.13916 160.0
1286.23938 140.0
1286.298828 84.0
1286.339966 276.0
1286.421509 48.0
1286.507202 56.0
1286.571533 160.0
1286.662476 140.0
1286.771362 160.0
1286.828491 96.0
1286.88562 124.0
1286.955444 152.0
1287.049805 52.0
1287.104736 224.0
1287.171265 252.0
1287.305054 224.0
1287.392334 108.0
1287.440918 164.0
1287.514038 212.0
1287.571167 100.0
1287.634033 160.0
1287.658203 128.0
1287.684937 184.0
1287.772705 356.0
1287.864014 220.0
1287.946655 272.0
1288.093506 148.0
1288.194702 224.0
1288.286621 172.0
1288.384399 164.0
1288.453735 168.0
1288.55957 244.0
1288.76416 52.0
1288.821289 112.0
1288.901123 164.0
1289.000488 168.0
1289.081055 116.0
1289.140381 112.0
1289.280884 244.0
1289.393066 216.0
1289.448608 132.0
1289.50415 132.0
1289.583496 204.0
1289.645752 176.0
1289.710815 160.0
1289.753784 212.0
1289.878662 196.0
1290.02478 332.0
1290.133789 160.0
1290.203003 208.0
1290.358032 96.0
1290.437866 152.0
1290.584473 172.0
1290.69873 56.0
1290.718628 148.0
1290.80957 160.0
1290.914673 100.0
1290.994507 116.0
1291.139771 224.0
1291.208496 160.0
1291.279541 84.0
1291.344971 108.0
1291.459351 52.0
1291.596313 148.0
1291.658569 132.0
1291.788452 52.0
1291.891235 136.0
1291.961304 264.0
1292.062378 416.0
1292.178467 212.0
1292.234375 240.0
1292.358276 160.0
1292.439453 160.0
1292.675659 152.0
1292.74939 324.0
1292.875977 136.0
1292.958008 136.0
1293.041138 164.0
1293.117554 132.0
1293.2052 76.0
1293.377686 128.0
1293.427734 372.0
1293.525513 296.0
1293.640137 188.0
1293.695679 92.0
1293.799316 160.0
1293.884888 160.0
1293.986328 248.0
1294.217896 208.0
1294.356934 88.0
1294.466553 248.0
1294.55835 208.0
1294.625854 140.0
1294.69397 88.0
1294.767822 184.0
1294.865967 312.0
1294.979492 216.0
1295.031006 160.0
1295.115845 196.0
1295.192993 160.0
1295.359009 144.0
1295.435303 92.0
1295.563721 304.0
1295.640015 100.0
1295.74353 212.0
1295.838013 132.0
1295.942139 156.0
1295.974731 180.0
1296.132568 164.0
1296.1521 116.0
1296.321167 60.0
1296.449707 56.0
1296.523804 208.0
1296.647949 132.0
1296.705933 228.0
1296.765015 160.0
1296.867798 144.0
1296.887573 76.0
1296.919922 272.0
1297.044556 336.0
1297.129395 96.0
1297.171021 56.0
1297.320801 136.0
1297.372192 240.0
1297.431641 44.0
1297.514893 172.0
1297.559326 136.0
1297.654541 184.0
1297.797363 232.0
1297.928101 152.0
1298.155884 92.0
1298.213257 60.0
1298.293213 180.0
1298.393677 352.0
1298.485718 120.0
1298.54248 128.0
1298.686157 152.0
1298.81897 268.0
1298.875854 364.0
1298.93457 156.0
1299.050659 168.0
1299.070557 160.0
1299.154053 92.0
1299.335327 244.0
1299.406494 60.0
1299.460571 152.0
1299.554688 160.0
1299.62793 132.0
1299.70105 108.0
1299.765869 120.0
1299.848877 72.0
1300.143555 152.0
1300.343994 172.0
1300.415771 144.0
1300.466064 148.0
1300.54248 252.0
1300.616821 136.0
1300.719482 156.0
1300.78894 232.0
1300.966797 152.0
1301.072632 112.0
1301.084106 172.0
1301.193481 228.0
1301.31189 140.0
1301.481689 320.0
1301.524048 120.0
1301.618774 176.0
1301.698853 144.0
1301.848145 160.0
1301.980835 332.0
1302.081543 92.0
1302.149292 176.0
1302.257324 68.0
1302.338867 120.0
1302.519653 68.0
1302.58606 104.0
1302.685791 136.0
1302.792725 208.0
1302.88855 68.0
1302.997681 76.0
1303.098145 252.0
1303.227173 508.0
1303.351929 124.0
1303.500244 148.0
1303.574707 240.0
1303.720459 276.0
1303.827393 124.0
1303.910645 88.0
1303.998291 144.0
1304.156006 208.0
1304.246094 192.0
1304.344849 84.0
1304.475464 184.0
1304.572754 240.0
1304.672607 256.0
1304.793213 140.0
1304.848145 116.0
1304.919067 144.0
1304.947144 120.0
1304.973877 116.0
1305.03772 112.0
1305.109253 168.0
1305.186035 68.0
1305.256836 80.0
1305.313599 100.0
1305.437744 68.0
1305.514526 84.0
1305.643066 224.0
1305.719238 140.0
1305.790161 172.0
1305.842773 220.0
1305.943115 112.0
1306.051636 168.0
1306.141113 332.0
1306.236084 120.0
1306.319458 164.0
1306.440674 200.0
1306.553223 148.0
1306.62561 120.0
1306.733032 364.0
1306.822021 332.0
1306.879517 132.0
1306.973145 160.0
1307.026611 252.0
1307.088745 216.0
1307.160278 160.0
1307.363281 224.0
1307.529053 360.0
1307.596069 88.0
1307.658936 104.0
1307.810791 120.0
1307.898682 184.0
1307.979736 268.0
1308.067505 120.0
1308.128662 104.0
1308.240601 188.0
1308.418335 188.0
1308.584473 280.0
1308.735718 140.0
1308.837158 180.0
1308.957397 172.0
1309.054199 144.0
1309.102417 192.0
1309.432007 128.0
1309.510132 184.0
1309.645142 312.0
1309.710571 24.0
1309.814209 124.0
1309.876953 148.0
1309.977295 132.0
1310.069092 184.0
1310.179443 232.0
1310.228882 152.0
1310.300781 288.0
1310.400757 200.0
1310.459595 68.0
1310.471191 144.0
1310.564697 68.0
1310.699951 148.0
1310.795288 168.0
1310.942993 252.0
1311.00708 168.0
1311.090698 52.0
1311.189941 124.0
1311.276489 340.0
1311.333984 120.0
1311.386963 192.0
1311.446045 124.0
1311.484253 48.0
1311.496948 116.0
1311.583374 160.0
1311.710571 88.0
1311.833374 92.0
1311.971924 196.0
1312.083862 128.0
1312.181885 176.0
1312.253296 152.0
1312.301514 252.0
1312.422729 120.0
1312.661865 96.0
1312.742065 112.0
1312.822021 120.0
1312.89978 100.0
1313.016968 148.0
1313.093384 256.0
1313.161865 208.0
1313.241943 268.0
1313.376587 144.0
1313.437866 104.0
1313.507568 268.0
1313.706543 116.0
1313.803955 216.0
1313.852295 180.0
1313.94458 160.0
1314.014893 48.0
1314.029297 60.0
1314.132202 392.0
1314.255249 168.0
1314.309814 164.0
1314.368286 192.0
1314.444214 176.0
1314.553223 280.0
1314.653687 248.0
1314.703369 124.0
1314.804932 148.0
1314.880371 244.0
1314.943604 336.0
1315.022705 160.0
1315.113647 160.0
1315.233398 384.0
1315.285156 112.0
1315.400146 260.0
1315.492432 84.0
1315.63562 280.0
1315.701172 108.0
1315.799438 176.0
1315.883789 136.0
1315.969482 124.0
1316.073364 260.0
1316.243286 104.0
1316.326538 124.0
1316.389893 108.0
1316.521484 228.0
1316.582275 264.0
1316.634766 248.0
1316.715942 92.0
1316.743652 100.0
1316.794556 148.0
1316.916016 116.0
1316.935181 204.0
1316.959717 284.0
1317.119507 132.0
1317.18042 240.0
1317.325806 112.0
1317.368042 176.0
1317.456421 88.0
1317.53418 196.0
1317.625854 172.0
1317.685181 164.0
1317.846069 248.0
1317.898315 180.0
1317.992065 264.0
1318.045776 124.0
1318.183594 240.0
1318.251221 168.0
1318.305908 164.0
1318.366211 172.0
1318.503418 136.0
1318.550659 316.0
1318.620117 144.0
1318.746826 136.0
1318.839844 200.0
1318.955322 76.0
1319.01355 192.0
1319.200806 324.0
1319.290039 160.0
1319.391602 96.0
1319.476929 144.0
1319.55835 196.0
1319.650391 280.0
1319.769531 216.0
1319.838501 112.0
1319.917114 160.0
1319.993896 176.0
1320.067749 164.0
1320.134888 84.0
1320.25061 212.0
1320.317993 128.0
1320.514038 440.0
1320.572021 192.0
1320.706299 52.0
1320.773315 172.0
1320.833374 216.0
1320.894409 188.0
1321.002563 256.0
1321.071533 248.0
1321.19104 124.0
1321.244263 160.0
1321.30481 168.0
1321.519043 268.0
1321.588867 120.0
1321.651001 240.0
1321.704102 184.0
1321.867554 144.0
1321.911133 148.0
1321.97522 52.0
1322.059326 176.0
1322.181763 108.0
1322.315918 280.0
1322.440796 264.0
1322.520142 100.0
1322.609863 104.0
1322.666382 240.0
1322.678711 212.0
1322.906006 268.0
1323.009277 124.0
1323.113525 148.0
1323.1698 88.0
1323.25061 420.0
1323.385498 136.0
1323.408081 144.0
1323.463623 64.0
1323.552856 76.0
1323.649902 152.0
1323.780151 208.0
1323.890869 156.0
1323.979248 204.0
1324.083252 172.0
1324.313843 252.0
1324.451294 356.0
1324.592163 92.0
1324.666504 184.0
1324.824097 120.0
1324.889038 180.0
1324.990601 156.0
1325.067505 176.0
1325.193848 212.0
1325.205322 184.0
1325.272217 232.0
1325.283569 160.0
1325.358276 396.0
1325.548218 160.0
1325.588379 148.0
1325.624634 88.0
1325.646729 152.0
1325.726074 268.0
1325.803467 176.0
1325.854248 104.0
1325.935669 132.0
1326.026245 76.0
1326.297241 72.0
1326.40979 176.0
1326.459106 276.0
1326.576904 208.0
1326.597656 184.0
1326.662231 144.0
1326.713379 188.0
1326.803833 148.0
1326.885986 72.0
1326.977783 144.0
1327.057495 108.0
1327.129517 208.0
1327.243652 96.0
1327.334717 72.0
1327.397339 196.0
1327.421875 168.0
1327.499878 144.0
1327.629272 128.0
1327.643799 108.0
1327.670044 112.0
1327.838135 180.0
1327.922852 156.0
1328.083252 196.0
1328.24646 56.0
1328.348511 164.0
1328.451172 204.0
1328.515381 68.0
1328.59082 208.0
1328.711182 212.0
1328.806396 164.0
1328.899536 212.0
1328.957397 124.0
1329.080811 192.0
1329.103149 168.0
1329.221802 172.0
1329.306152 124.0
1329.359741 100.0
1329.51416 208.0
1329.593262 116.0
1329.676392 108.0
1329.74646 164.0
1329.814209 96.0
1329.942871 116.0
1329.995728 156.0
1330.076538 176.0
1330.178345 100.0
1330.290161 128.0
1330.386719 376.0
1330.482056 408.0
1330.537354 264.0
1330.66626 264.0
1330.750732 60.0
1330.837891 104.0
1330.951538 128.0
1331.031372 268.0
1331.087524 292.0
1331.204956 36.0
1331.323486 184.0
1331.438843 104.0
1331.467773 160.0
1331.537231 120.0
1331.596313 172.0
1331.770264 172.0
1331.872925 100.0
1331.9552 104.0
1331.980225 40.0
1332.035889 328.0
1332.116089 60.0
1332.259644 192.0
1332.400757 44.0
1332.444946 196.0
1332.540161 308.0
1332.568481 168.0
1332.607056 48.0
1332.639648 176.0
1332.711792 244.0
1332.772583 176.0
1332.85376 156.0
1333.014771 64.0
1333.04126 132.0
1333.059814 108.0
1333.139282 164.0
1333.191406 72.0
1333.330444 260.0
1333.464111 116.0
1333.546265 172.0
1333.572632 220.0
1333.676758 212.0
1333.729248 160.0
1333.794678 196.0
1333.908447 80.0
1333.969482 240.0
1334.114624 200.0
1334.173462 172.0
1334.296387 104.0
1334.384155 168.0
1334.456299 96.0
1334.511841 136.0
1334.562378 136.0
1334.611816 156.0
1334.730835 128.0
1334.824341 124.0
1334.966064 40.0
1335.041748 188.0
1335.210205 180.0
1335.303589 284.0
1335.372559 84.0
1335.436523 244.0
1335.635254 100.0
1335.695435 308.0
1335.739868 236.0
1335.828979 160.0
1335.854126 244.0
1335.973755 380.0
1336.052734 120.0
1336.146851 56.0
1336.218872 208.0
1336.325684 168.0
1336.390991 152.0
1336.467407 64.0
1336.545044 164.0
1336.646973 312.0
1336.759033 56.0
1336.830688 92.0
1336.990356 192.0
1337.180664 196.0
1337.365845 108.0
1337.468872 220.0
1337.57019 328.0
1337.687866 104.0
1337.810547 172.0
1337.866943 56.0
1337.878418 176.0
1337.968872 128.0
1338.028076 164.0
1338.255493 108.0
1338.329102 180.0
1338.414551 108.0
1338.508911 128.0
1338.621216 144.0
1338.70459 104.0
1338.841675 92.0
1338.891113 152.0
1338.944214 136.0
1339.062744 88.0
1339.117432 224.0
1339.170532 168.0
1339.237549 140.0
1339.316162 60.0
1339.397827 212.0
1339.443604 136.0
1339.550171 180.0
1339.632446 76.0
1339.713501 124.0
1339.812134 408.0
1340.078491 180.0
1340.170044 176.0
1340.221069 48.0
1340.317505 348.0
1340.519775 196.0
1340.657959 264.0
1340.668579 204.0
1340.780518 196.0
1340.826172 176.0
1340.930664 168.0
1341.125977 96.0
1341.159546 140.0
1341.185303 204.0
1341.266846 144.0
1341.359619 244.0
1341.458008 180.0
1341.564697 192.0
1341.63501 124.0
1341.737061 84.0
1341.852173 68.0
1341.938354 144.0
1341.96582 232.0
1342.01709 184.0
1342.118286 128.0
1342.226074 136.0
1342.351685 136.0
1342.42981 160.0
1342.580811 108.0
1342.660156 192.0
1342.767822 148.0
1342.903809 144.0
1342.96167 108.0
1343.062378 248.0
1343.195312 116.0
1343.293335 212.0
1343.356079 200.0
1343.44873 168.0
1343.496582 140.0
1343.617188 196.0
1343.799316 160.0
1343.859741 268.0
1344.019531 184.0
1344.123047 144.0
1344.3479 64.0
1344.470337 172.0
1344.546753 180.0
1344.658569 136.0
1344.719116 196.0
1344.831665 116.0
1344.929688 84.0
1344.990723 84.0
1345.090942 176.0
1345.268066 68.0
1345.330078 172.0
1345.417725 144.0
1345.512085 168.0
1345.574707 160.0
1345.646484 240.0
1345.665161 144.0
1345.696533 184.0
1345.8302 180.0
1345.927002 32.0
1346.095703 216.0
1346.187622 92.0
1346.24646 140.0
1346.340088 128.0
1346.445923 140.0
1346.474243 44.0
1346.528931 440.0
1346.635986 172.0
1346.752197 132.0
1346.885498 84.0
1346.939697 184.0
1347.02417 204.0
1347.12439 84.0
1347.247192 216.0
1347.312988 168.0
1347.378662 68.0
1347.555298 312.0
1347.667725 236.0
1347.752075 184.0
1347.8302 156.0
1347.903687 272.0
1348.029053 112.0
1348.09021 164.0
1348.172729 96.0
1348.302002 264.0
1348.401855 164.0
1348.502563 200.0
1348.554077 316.0
1348.624756 340.0
1348.717285 216.0
1348.805542 180.0
1348.91333 112.0
1349.076538 328.0
1349.198242 144.0
1349.244019 108.0
1349.322754 168.0
1349.378174 56.0
1349.456543 248.0
1349.526367 132.0
1349.589966 88.0
1349.68103 56.0
1349.746826 256.0
1349.828491 196.0
1349.884277 252.0
1350.005005 224.0
1350.144897 92.0
1350.260742 188.0
1350.318604 124.0
1350.43335 180.0
1350.577515 224.0
1350.796387 252.0
1350.912964 164.0
1351.008179 136.0
1351.082764 236.0
1351.219727 280.0
1351.334106 152.0
1351.400391 152.0
1351.463501 256.0
1351.575562 228.0
1351.667114 196.0
1351.736694 272.0
1351.816895 200.0
1351.928955 224.0
1352.023926 204.0
1352.221924 136.0
1352.351318 184.0
1352.420044 208.0
1352.575562 176.0
1352.610229 96.0
1352.719849 304.0
1352.795654 180.0
1352.940186 152.0
1352.986572 272.0
1353.133423 116.0
1353.261963 132.0
1353.341309 52.0
1353.408569 200.0
1353.537354 96.0
1353.600708 152.0
1353.726196 116.0
1353.825195 64.0
1353.980591 144.0
1354.152344 160.0
1354.168823 204.0
1354.270508 40.0
1354.330688 212.0
1354.518799 148.0
1354.570068 176.0
1354.629761 152.0
1354.733521 192.0
1354.814087 240.0
1354.92981 152.0
1355.019165 52.0
1355.082886 176.0
1355.193115 204.0
1355.279175 156.0
1355.347534 240.0
1355.442383 172.0
1355.56897 96.0
1355.62146 72.0
1355.686279 220.0
1355.779053 144.0
1355.852295 160.0
1355.996826 200.0
1356.059814 156.0
1356.176147 152.0
1356.399902 96.0
1356.519165 196.0
1356.6073 92.0
1356.689941 236.0
1356.746582 204.0
1356.827271 88.0
1356.917603 208.0
1356.983765 200.0
1357.079956 152.0
1357.193848 132.0
1357.252441 136.0
1357.336792 216.0
1357.469238 156.0
1357.575684 316.0
1357.743896 164.0
1357.824463 124.0
1357.975464 188.0
1358.039795 280.0
1358.181396 152.0
1358.257324 136.0
1358.365845 116.0
1358.393188 92.0
1358.488037 208.0
1358.616699 152.0
1358.692261 136.0
1358.713867 168.0
1358.908813 160.0
1358.97168 76.0
1359.017334 156.0
1359.134521 312.0
1359.288696 136.0
1359.414307 176.0
1359.495972 68.0
1359.543579 232.0
1359.636353 180.0
1359.699707 68.0
1359.789673 128.0
1359.956055 100.0
1360.025635 72.0
1360.09021 56.0
1360.149048 84.0
1360.365845 204.0
1360.459717 200.0
1360.547363 192.0
1360.669556 272.0
1360.747192 304.0
1360.962769 148.0
1361.032959 164.0
1361.151001 200.0
1361.235229 156.0
1361.258179 92.0
1361.339844 68.0
1361.420654 68.0
1361.520508 100.0
1361.588135 136.0
1361.672852 304.0
1361.799194 164.0
1361.861328 132.0
1361.977417 104.0
1362.004761 84.0
1362.033447 148.0
1362.138062 240.0
1362.228638 52.0
1362.412354 168.0
1362.512939 156.0
1362.539917 108.0
1362.569336 196.0
1362.600708 180.0
1362.628052 132.0
1362.732178 176.0
1362.815552 148.0
1362.889893 128.0
1362.965576 156.0
1363.159424 136.0
1363.233521 136.0
1363.282593 276.0
1363.337158 312.0
1363.423462 220.0
1363.501953 424.0
1363.68689 140.0
1363.800171 112.0
1363.828735 96.0
1363.866333 184.0
1363.958374 136.0
1364.040405 116.0
1364.197998 176.0
1364.244873 144.0
1364.27356 196.0
1364.352539 72.0
1364.436523 568.0
1364.595337 148.0
1364.668701 104.0
1364.726562 100.0
1364.859863 148.0
1364.998291 304.0
1365.080444 152.0
1365.236572 160.0
1365.312378 136.0
1365.362793 92.0
1365.415771 216.0
1365.494995 96.0
1365.662109 120.0
1365.896484 216.0
1366.016235 88.0
1366.102783 52.0
1366.295288 196.0
1366.352783 156.0
1366.404785 164.0
1366.493652 176.0
1366.557129 228.0
1366.603271 148.0
1366.687012 352.0
1366.805542 256.0
1366.953735 80.0
1367.054932 240.0
1367.120605 132.0
1367.168335 144.0
1367.26416 152.0
1367.397827 124.0
1367.478394 320.0
1367.560547 172.0
1367.727173 120.0
1367.842651 212.0
1368.015381 196.0
1368.097168 112.0
1368.208008 140.0
1368.324707 316.0
1368.449463 156.0
1368.566406 92.0
1368.708862 260.0
1368.864502 200.0
1368.939331 276.0
1368.968018 156.0
1368.998047 128.0
1369.10437 164.0
1369.277466 164.0
1369.346313 180.0
1369.452148 56.0
1369.503662 88.0
1369.567871 284.0
1369.630371 164.0
1369.775513 200.0
1369.960327 104.0
1370.066895 168.0
1370.166626 220.0
1370.249512 132.0
1370.432251 292.0
1370.593628 164.0
1370.720093 136.0
1370.86377 176.0
1370.931274 84.0
1371.021973 96.0
1371.074341 212.0
1371.253296 252.0
1371.369507 192.0
1371.448975 104.0
1371.513306 156.0
1371.543213 116.0
1371.62793 136.0
1371.725586 104.0
1371.749878 184.0
1371.814453 124.0
1371.828979 100.0
1371.966553 260.0
1372.03772 144.0
1372.175659 136.0
1372.260986 104.0
1372.320801 236.0
1372.36792 184.0
1372.447876 148.0
1372.59668 176.0
1372.621094 128.0
1372.645264 220.0
1372.698853 172.0
1372.822754 136.0
1372.897705 156.0
1373.010498 168.0
1373.065063 252.0
1373.092285 100.0
1373.213623 200.0
1373.410034 204.0
1373.518066 124.0
1373.635376 264.0
1373.7146 140.0
1373.736084 124.0
1373.936157 404.0
1374.034424 160.0
1374.088989 236.0
1374.234497 112.0
1374.331055 212.0
1374.365967 180.0
1374.562134 176.0
1374.666748 268.0
1374.721924 348.0
1374.811035 136.0
1374.871216 152.0
1374.935425 216.0
1375.042725 108.0
1375.136841 140.0
1375.208008 144.0
1375.2771 140.0
1375.336182 76.0
1375.402588 168.0
1375.463989 140.0
1375.519531 208.0
1375.538818 176.0
1375.694824 188.0
1375.82959 168.0
1375.891479 236.0
1376.000977 260.0
1376.058716 276.0
1376.160522 164.0
1376.250977 108.0
1376.34021 88.0
1376.391968 152.0
1376.493164 212.0
1376.55835 112.0
1376.610107 204.0
1376.7323 120.0
1376.827637 328.0
1376.911255 140.0
1377.006958 140.0
1377.097168 336.0
1377.148315 212.0
1377.289795 172.0
1377.374756 96.0
1377.439697 88.0
1377.505005 176.0
1377.593994 84.0
1377.665771 212.0
1377.723999 220.0
1377.827881 164.0
1378.005249 296.0
1378.063232 164.0
1378.153076 384.0
1378.223755 224.0
1378.275513 132.0
1378.380493 104.0
1378.445435 184.0
1378.54895 216.0
1378.675293 180.0
1378.781128 184.0
1378.931763 200.0
1379.083252 208.0
1379.155029 72.0
1379.217163 288.0
1379.335938 108.0
1379.406372 300.0
1379.462036 140.0
1379.606079 156.0
1379.687256 148.0
1379.925659 440.0
1379.978027 184.0
1380.057251 128.0
1380.19458 236.0
1380.221558 336.0
1380.236084 296.0
1380.363037 124.0
1380.528931 172.0
1380.593018 188.0
1380.661621 304.0
1380.734863 128.0
1380.75769 300.0
1380.814087 340.0
1380.903564 148.0
1381.056885 152.0
1381.171265 132.0
1381.283447 432.0
1381.345581 232.0
1381.436523 156.0
1381.501221 184.0
1381.573608 136.0
1381.718262 116.0
1381.820435 124.0
1381.880737 116.0
1381.963379 108.0
1382.008057 172.0
1382.058594 156.0
1382.08728 140.0
1382.234131 132.0
1382.281738 192.0
1382.349854 228.0
1382.520264 100.0
1382.579468 196.0
1382.640625 284.0
1382.67041 184.0
1382.699463 116.0
1382.851685 184.0
1382.890991 84.0
1383.028687 292.0
1383.13916 208.0
1383.240479 144.0
1383.41272 308.0
1383.526978 176.0
1383.700684 320.0
1383.759033 92.0
1383.905762 72.0
1383.969238 152.0
1384.056396 204.0
1384.126221 136.0
1384.138306 120.0
1384.166138 196.0
1384.229614 132.0
1384.310059 244.0
1384.375 212.0
1384.43457 268.0
1384.49231 224.0
1384.616943 120.0
1384.746094 156.0
1384.875 100.0
1384.93396 160.0
1385.025635 156.0
1385.140259 108.0
1385.23877 316.0
1385.348755 124.0
1385.413452 220.0
1385.5 364.0
1385.618774 72.0
1385.672729 176.0
1385.739502 176.0
1385.859009 120.0
1385.919189 144.0
1386.018921 120.0
1386.11084 168.0
1386.276611 180.0
1386.352661 148.0
1386.403564 364.0
1386.519531 116.0
1386.578735 148.0
1386.6427 148.0
1386.719727 436.0
1386.829346 148.0
1386.88208 52.0
1386.901611 116.0
1386.984375 172.0
1387.137207 116.0
1387.207153 232.0
1387.282959 136.0
1387.386719 168.0
1387.4646 64.0
1387.61853 108.0
1387.713013 76.0
1387.800781 48.0
1387.877319 220.0
1388.002197 156.0
1388.063477 184.0
1388.150513 96.0
1388.219727 480.0
1388.328491 208.0
1388.453125 168.0
1388.55481 120.0
1388.632568 180.0
1388.740234 164.0
1388.798706 128.0
1388.871826 320.0
1388.933228 88.0
1388.984253 220.0
1389.088013 156.0
1389.22998 172.0
1389.351318 220.0
1389.467529 64.0
1389.517822 152.0
1389.596924 56.0
1389.689453 136.0
1389.828369 236.0
1389.879883 128.0
1389.995483 128.0
1390.160889 220.0
1390.272217 108.0
1390.35022 244.0
1390.424194 176.0
1390.519287 384.0
1390.596924 264.0
1390.708618 160.0
1390.796997 260.0
1390.848267 192.0
1390.928467 64.0
1390.990112 160.0
1391.082886 292.0
1391.190796 116.0
1391.280151 180.0
1391.326782 316.0
1391.471924 128.0
1391.644897 260.0
1391.773926 68.0
1391.942017 188.0
1391.997192 100.0
1392.131592 180.0
1392.22583 196.0
1392.328613 176.0
1392.419922 204.0
1392.508789 148.0
1392.585938 188.0
1392.655518 104.0
1392.859863 92.0
1392.938965 300.0
1392.987183 140.0
1393.064331 248.0
1393.167969 312.0
1393.226807 84.0
1393.303467 224.0
1393.402344 244.0
1393.421997 216.0
1393.516113 84.0
1393.685913 296.0
1393.765747 268.0
1393.821899 168.0
1393.902954 316.0
1393.966309 188.0
1393.998047 112.0
1394.027222 220.0
1394.133301 176.0
1394.193481 168.0
1394.27832 112.0
1394.378052 128.0
1394.546021 148.0
1394.611084 172.0
1394.728516 68.0
1394.778931 224.0
1394.85498 56.0
1394.968018 180.0
1395.12207 284.0
1395.248901 76.0
1395.335938 152.0
1395.438721 176.0
1395.497192 136.0
1395.678345 148.0
1395.771484 208.0
1395.889648 124.0
1395.942139 120.0
1396.052368 96.0
1396.224976 204.0
1396.408569 140.0
1396.494385 116.0
1396.614868 200.0
1396.676758 144.0
1396.795776 180.0
1396.874146 128.0
1396.921753 136.0
1396.998779 132.0
1397.085938 224.0
1397.255005 244.0
1397.312012 172.0
1397.413452 172.0
1397.496216 140.0
1397.526001 76.0
1397.550903 152.0
1397.606689 60.0
1397.706909 268.0
1397.814575 240.0
1397.837402 160.0
1397.926758 92.0
1398.052612 216.0
1398.14624 184.0
1398.295044 272.0
1398.376709 316.0
1398.479858 136.0
1398.560425 156.0
1398.62793 132.0
1398.729004 172.0
1398.877075 192.0
1398.978271 120.0
1399.064819 204.0
1399.119995 232.0
1399.215088 192.0
1399.394409 188.0
1399.492554 80.0
1399.593628 316.0
1399.685791 104.0
1399.771484 160.0
1399.822998 204.0
1399.897705 152.0
1399.940796 256.0
1400.061768 308.0
1400.130371 144.0
1400.182495 116.0
1400.240479 96.0
1400.35376 68.0
1400.450562 128.0
1400.561035 88.0
1400.579956 172.0
1400.678101 140.0
1400.774658 248.0
1400.88269 152.0
1400.96106 124.0
1401.091309 52.0
1401.209351 156.0
1401.329712 72.0
1401.459473 180.0
1401.510132 168.0
1401.600586 260.0
1401.702759 208.0
1401.902344 136.0
1401.957764 248.0
1402.07959 140.0
1402.16333 92.0
1402.269409 152.0
1402.350586 140.0
1402.421387 104.0
1402.482788 120.0
1402.596558 100.0
1402.82019 168.0
1403.016846 184.0
1403.092896 252.0
1403.252686 88.0
1403.329956 128.0
1403.407837 152.0
1403.483765 88.0
1403.539673 128.0
1403.592651 140.0
1403.650879 140.0
1403.735474 132.0
1403.920166 164.0
1403.983398 304.0
1404.057617 144.0
1404.125854 84.0
1404.186646 220.0
1404.304077 156.0
1404.371216 96.0
1404.457153 160.0
1404.525635 280.0
1404.639771 188.0
1404.721313 204.0
1404.734131 188.0
1404.773682 132.0
1404.828857 188.0
1404.921021 188.0
1405.000488 160.0
1405.018799 184.0
1405.145874 300.0
1405.194824 284.0
1405.248413 260.0
1405.31665 100.0
1405.362549 92.0
1405.464478 140.0
1405.567139 148.0
1405.699219 260.0
1405.79895 56.0
1405.919922 136.0
1405.990601 96.0
1406.023804 164.0
1406.081543 160.0
1406.158691 72.0
1406.227295 160.0
1406.293823 88.0
1406.388672 276.0
1406.518677 152.0
1406.598755 140.0
1406.691895 164.0
1406.756592 272.0
1406.911499 108.0
1407.038574 176.0
1407.143555 180.0
1407.251831 140.0
1407.432983 132.0
1407.507446 140.0
1407.587891 64.0
1407.695557 180.0
1407.81189 328.0
1407.875977 172.0
1407.994751 144.0
1408.160278 80.0
1408.229614 160.0
1408.429565 132.0
1408.448608 192.0
1408.480957 108.0
1408.509155 128.0
1408.588745 188.0
1408.645874 104.0
1408.780029 88.0
1408.826294 252.0
1408.94165 196.0
1409.13855 60.0
1409.203613 348.0
1409.415649 204.0
1409.538696 160.0
1409.624512 76.0
1409.714966 104.0
1409.806641 256.0
1409.918701 256.0
1409.987671 144.0
1410.078003 176.0
1410.162109 112.0
1410.255005 88.0
1410.355103 328.0
1410.517822 148.0
1410.583984 220.0
1410.700562 192.0
1410.802856 192.0
1411.002563 44.0
1411.168091 456.0
1411.232666 136.0
1411.246948 140.0
1411.364014 220.0
1411.474487 460.0
1411.558838 104.0
1411.630737 72.0
1411.690552 88.0
1411.755859 504.0
1411.810181 100.0
1411.897949 168.0
1411.958618 104.0
1411.980713 168.0
1412.001343 100.0
1412.050537 196.0
1412.189087 328.0
1412.299072 104.0
1412.408081 60.0
1412.483276 76.0
1412.583008 224.0
1412.646851 168.0
1412.65918 152.0
1412.672974 212.0
1412.806885 144.0
1412.979736 308.0
1413.076538 220.0
1413.159668 208.0
1413.231445 132.0
1413.298218 244.0
1413.411011 200.0
1413.57019 268.0
1413.665527 108.0
1413.822632 172.0
1413.919922 104.0
1414.00354 152.0
1414.126709 236.0
1414.209595 160.0
1414.233765 56.0
1414.325073 148.0
1414.545776 200.0
1414.574463 136.0
1414.604004 68.0
1414.629272 116.0
1414.75061 236.0
1414.807739 188.0
1414.906372 92.0
1415.111816 284.0
1415.226929 68.0
1415.347046 264.0
1415.389771 256.0
1415.474243 136.0
1415.529297 120.0
1415.602905 144.0
1415.671753 216.0
1415.764648 220.0
1415.91272 208.0
1415.963257 96.0
1415.982544 128.0
1416.010254 160.0
1416.097778 140.0
1416.155884 156.0
1416.284668 136.0
1416.413452 84.0
1416.495728 80.0
1416.635254 188.0
1416.705444 108.0
1416.840332 236.0
1416.961914 184.0
1417.087036 220.0
1417.212646 120.0
1417.240356 196.0
1417.385132 224.0
1417.477417 160.0
1417.536377 172.0
1417.602539 156.0
1417.713867 360.0
1417.801147 464.0
1417.88623 152.0
1417.97998 184.0
1418.139404 100.0
1418.171875 116.0
1418.262085 144.0
1418.375488 240.0
1418.479858 216.0
1418.613037 272.0
1418.666016 136.0
1418.687622 176.0
1418.708618 224.0
1418.750488 64.0
1418.765381 176.0
1418.85022 172.0
1419.077881 196.0
1419.169434 64.0
1419.302979 100.0
1419.388672 68.0
1419.444702 144.0
1419.520264 52.0
1419.598145 324.0
1419.845947 160.0
1419.939331 132.0
1420.057739 124.0
1420.146118 208.0
1420.249268 152.0
1420.416626 140.0
1420.55127 276.0
1420.714844 232.0
1420.819458 168.0
1421.008911 152.0
1421.148682 232.0
1421.203735 108.0
1421.236328 200.0
1421.296265 104.0
1421.459106 120.0
1421.567261 188.0
1421.676758 236.0
1421.757935 108.0
1421.829956 192.0
1421.853149 80.0
1421.875366 152.0
1421.946899 388.0
1422.013306 128.0
1422.071655 200.0
1422.13562 108.0
1422.163696 104.0
1422.329956 136.0
1422.436279 136.0
1422.509888 220.0
1422.642822 136.0
1422.769287 116.0
1422.859009 236.0
1422.928223 100.0
1422.980103 220.0
1423.080444 132.0
1423.140503 288.0
1423.245483 188.0
1423.343506 156.0
1423.434082 128.0
1423.631836 296.0
1423.720459 180.0
1423.808472 320.0
1423.895752 132.0
1423.996094 124.0
1424.052002 108.0
1424.103882 188.0
1424.130737 80.0
1424.408813 124.0
1424.435791 172.0
1424.555664 396.0
1424.626587 140.0
1424.64563 92.0
1424.712036 144.0
1424.777832 116.0
1424.853027 300.0
1425.108032 224.0
1425.207886 128.0
1425.315063 180.0
1425.346313 88.0
1425.41687 192.0
1425.571533 140.0
1425.647827 72.0
1425.696655 104.0
1425.802368 108.0
1425.87207 200.0
1425.949951 148.0
1425.959229 148.0
1426.011841 188.0
1426.095947 268.0
1426.20459 284.0
1426.336548 128.0
1426.463867 188.0
1426.48645 168.0
1426.520752 248.0
1426.739868 240.0
1426.87854 120.0
1426.926147 96.0
1427.103638 64.0
1427.1875 220.0
1427.235962 280.0
1427.37439 140.0
1427.502075 148.0
1427.528442 116.0
1427.548462 220.0
1427.622925 136.0
1427.68689 112.0
1427.748047 240.0
1427.801392 72.0
1427.939697 156.0
1428.0448 120.0
1428.137207 156.0
1428.183594 380.0
1428.2948 200.0
1428.40686 180.0
1428.509644 196.0
1428.627075 116.0
1428.678711 112.0
1428.851196 180.0
1428.950073 108.0
1428.986084 100.0
1429.001343 108.0
1429.110107 172.0
1429.230103 224.0
1429.297485 160.0
1429.33374 48.0
1429.37793 132.0
1429.413208 176.0
1429.427368 108.0
1429.495972 164.0
1429.728394 164.0
1429.79187 188.0
1429.837646 136.0
1430.018799 300.0
1430.143799 132.0
1430.211548 160.0
1430.357666 200.0
1430.461792 60.0
1430.505981 184.0
1430.574707 148.0
1430.727051 96.0
1430.842651 116.0
1430.899902 104.0
1431.008301 96.0
1431.092407 200.0
1431.127686 100.0
1431.223755 88.0
1431.288574 236.0
1431.38562 176.0
1431.525635 300.0
1431.603027 220.0
1431.667114 144.0
1431.811401 220.0
1431.872681 204.0
1431.944458 164.0
1431.982056 244.0
1432.078613 124.0
1432.146484 296.0
1432.246582 316.0
1432.27356 184.0
1432.2948 200.0
1432.40686 132.0
1432.547729 220.0
1432.597656 160.0
1432.619995 124.0
1432.676025 352.0
1432.752686 44.0
1432.815918 216.0
1432.891479 168.0
1432.95874 200.0
1433.02771 228.0
1433.227417 200.0
1433.305298 252.0
1433.390625 84.0
1433.425293 92.0
1433.448242 168.0
1433.500732 156.0
1433.618286 184.0
1433.756836 248.0
1433.882568 204.0
1434.063843 196.0
1434.14856 296.0
1434.221558 88.0
1434.233521 200.0
1434.37439 104.0
1434.455078 160.0
1434.4823 176.0
1434.495361 308.0
1434.560425 120.0
1434.671997 160.0
1434.765381 152.0
1434.869629 104.0
1434.938354 208.0
1435.032227 152.0
1435.087036 160.0
1435.290039 148.0
1435.38208 128.0
1435.407471 96.0
1435.440674 184.0
1435.525146 224.0
1435.59436 192.0
1435.647217 100.0
1435.715088 208.0
1435.828125 72.0
1435.887329 132.0
1435.956177 136.0
1436.046143 164.0
1436.142578 104.0
1436.257568 200.0
1436.474243 232.0
1436.562256 172.0
1436.682373 284.0
1436.76355 96.0
1436.84314 160.0
1436.880737 52.0
1436.954224 188.0
1436.983398 56.0
1437.002197 200.0
1437.061279 128.0
1437.155884 152.0
1437.266846 120.0
1437.393311 180.0
1437.42688 232.0
1437.451782 136.0
1437.467163 156.0
1437.620483 160.0
1437.697998 148.0
1437.782227 132.0
1437.862549 344.0
1437.956299 188.0
1438.026123 192.0
1438.056763 160.0
1438.134277 112.0
1438.158325 72.0
1438.255737 248.0
1438.324707 144.0
1438.378784 280.0
1438.446411 112.0
1438.554199 164.0
1438.682251 120.0
1438.752197 272.0
1438.853271 172.0
1439.000122 296.0
1439.118408 148.0
1439.224731 180.0
1439.36499 184.0
1439.432007 60.0
1439.628906 204.0
1439.68103 148.0
1439.794922 68.0
1439.840698 116.0
1439.930054 232.0
1440.019897 80.0
1440.085815 184.0
1440.190796 52.0
1440.258301 156.0
1440.339478 64.0
1440.391602 108.0
1440.493896 152.0
1440.625366 104.0
1440.675537 116.0
1440.852905 264.0
1440.865723 80.0
1440.905518 52.0
1441.029175 164.0
1441.085693 360.0
1441.142944 196.0
1441.234009 324.0
1441.516724 280.0
1441.573364 208.0
1441.70459 88.0
1441.811401 196.0
1441.883179 120.0
1442.031738 144.0
1442.102417 92.0
1442.215088 176.0
1442.232422 136.0
1442.440918 168.0
1442.501953 156.0
1442.554932 132.0
1442.604004 180.0
1442.6875 148.0
1442.769775 112.0
1442.885132 80.0
1442.974243 156.0
1443.040405 192.0
1443.128418 156.0
1443.173828 176.0
1443.21228 64.0
1443.273804 168.0
1443.425659 180.0
1443.579956 180.0
1443.714233 84.0
1443.856445 148.0
1443.909424 96.0
1444.065552 196.0
1444.209839 156.0
1444.269775 196.0
1444.395874 280.0
1444.477295 296.0
1444.581543 84.0
1444.723511 140.0
1444.799194 184.0
1444.880737 196.0
1444.980835 152.0
1445.057129 228.0
1445.130737 348.0
1445.227539 100.0
1445.292969 408.0
1445.396606 164.0
1445.467041 180.0
1445.585571 260.0
1445.645264 124.0
1445.77063 80.0
1445.823608 132.0
1445.952271 80.0
1446.029663 172.0
1446.099365 348.0
1446.171143 144.0
1446.260498 232.0
1446.313477 240.0
1446.433594 168.0
1446.604126 288.0
1446.721191 296.0
1446.819214 68.0
1446.967285 160.0
1447.042358 160.0
1447.124268 228.0
1447.216431 48.0
1447.282227 156.0
1447.294312 244.0
1447.333374 116.0
1447.362305 196.0
1447.44812 136.0
1447.52356 132.0
1447.625366 84.0
1447.719727 188.0
1447.743774 168.0
1447.767334 156.0
1447.857788 136.0
1448.061035 252.0
1448.133667 520.0
1448.193848 292.0
1448.29187 104.0
1448.397339 224.0
1448.534302 392.0
1448.592041 240.0
1448.65332 156.0
1448.760864 44.0
1448.893555 132.0
1449.108765 184.0
1449.178711 280.0
1449.249512 172.0
1449.309204 172.0
1449.450684 80.0
1449.540039 128.0
1449.615845 148.0
1449.722778 88.0
1449.776001 172.0
1449.907593 304.0
1450.06897 156.0
1450.103027 172.0
1450.201538 220.0
1450.305786 232.0
1450.365479 104.0
1450.461304 204.0
1450.53186 228.0
1450.610596 168.0
1450.691772 216.0
1450.782471 168.0
1450.940796 212.0
1451.042725 312.0
1451.164062 248.0
1451.262695 104.0
1451.336548 188.0
1451.356079 260.0
1451.471924 204.0
1451.549805 64.0
1451.651611 240.0
1451.706055 136.0
1451.766724 260.0
1451.851318 164.0
1451.894287 176.0
1451.955444 176.0
1452.01709 172.0
1452.078857 176.0
1452.165039 172.0
1452.277588 184.0
1452.328125 244.0
1452.418579 296.0
1452.482666 184.0
1452.563721 160.0
1452.604248 80.0
1452.633423 152.0
1452.691895 72.0
1452.834229 164.0
1452.899536 68.0
1452.930664 108.0
1453.044067 312.0
1453.079712 272.0
1453.132202 124.0
1453.200317 292.0
1453.277832 172.0
1453.427856 188.0
1453.511475 120.0
1453.61145 344.0
1453.716553 148.0
1453.789673 260.0
1453.879761 152.0
1454.04541 208.0
1454.147339 184.0
1454.209961 168.0
1454.354492 136.0
1454.505859 244.0
1454.613281 144.0
1454.810791 196.0
1454.890259 124.0
1454.922852 124.0
1454.988037 132.0
1455.023315 80.0
1455.09375 228.0
1455.190063 76.0
1455.217773 152.0
1455.240479 128.0
1455.382812 108.0
1455.521973 164.0
1455.596924 452.0
1455.669312 176.0
1455.684814 144.0
1455.773071 160.0
1455.927246 168.0
1455.997925 56.0
1456.104248 264.0
1456.155884 136.0
1456.213013 260.0
1456.31604 176.0
1456.499268 180.0
1456.611694 172.0
1456.69165 96.0
1456.820923 104.0
1456.879028 228.0
1457.018433 136.0
1457.05127 48.0
1457.099243 240.0
1457.158203 136.0
1457.35437 100.0
1457.40918 176.0
1457.499512 156.0
1457.586426 156.0
1457.611084 140.0
1457.683228 260.0
1457.803223 132.0
1457.859375 256.0
1457.963501 56.0
1458.071411 148.0
1458.191284 180.0
1458.271973 156.0
1458.406006 212.0
1458.457275 172.0
1458.639526 96.0
1458.709839 176.0
1458.780029 108.0
1458.911255 276.0
1458.960449 176.0
1458.984863 180.0
1459.090698 188.0
1459.252319 108.0
1459.321655 240.0
1459.443237 96.0
1459.539185 136.0
1459.640503 192.0
1459.777832 200.0
1459.891724 264.0
1459.951416 192.0
1460.005493 204.0
1460.061768 124.0
1460.117188 84.0
1460.193237 92.0
1460.257812 176.0
1460.332764 152.0
1460.461792 156.0
1460.565186 180.0
1460.675171 160.0
1460.751099 364.0
1460.822754 96.0
1460.834961 152.0
1460.966187 168.0
1461.12793 160.0
1461.25061 52.0
1461.331177 116.0
1461.42395 344.0
1461.485962 104.0
1461.539795 108.0
1461.614868 96.0
1461.731812 188.0
1461.792358 156.0
1461.846436 248.0
1461.925293 108.0
1462.013306 104.0
1462.112793 240.0
1462.186035 248.0
1462.335327 164.0
1462.437866 300.0
1462.526123 232.0
1462.6604 96.0
1462.721924 212.0
1462.888184 264.0
1462.989868 132.0
1463.079102 232.0
1463.24939 152.0
1463.318604 200.0
1463.387939 128.0
1463.416016 104.0
1463.453125 76.0
1463.509644 136.0
1463.629639 208.0
1463.710938 124.0
1463.810425 96.0
1463.888672 292.0
1464.042725 180.0
1464.095703 188.0
1464.153198 176.0
1464.238281 172.0
1464.318481 248.0
1464.368774 256.0
1464.454346 188.0
1464.537231 112.0
1464.64563 388.0
1464.753174 180.0
1464.835571 152.0
1465.045654 184.0
1465.163452 144.0
1465.282471 192.0
1465.4021 156.0
1465.474243 128.0
1465.594971 108.0
1465.644897 132.0
1465.675171 176.0
1465.733643 388.0
1465.912842 156.0
1466.006714 188.0
1466.121948 212.0
1466.263672 104.0
1466.434448 196.0
1466.543335 108.0
1466.627197 100.0
1466.729004 268.0
1466.837402 208.0
1466.947266 52.0
1467.114624 396.0
1467.22229 160.0
1467.334473 456.0
1467.43103 200.0
1467.724976 60.0
1467.890015 100.0
1468.030029 68.0
1468.14978 308.0
1468.320679 160.0
1468.370972 132.0
1468.461182 120.0
1468.492432 88.0
1468.64978 312.0
1468.718872 124.0
1468.749878 200.0
1468.837402 116.0
1468.897461 208.0
1468.925415 288.0
1468.966675 84.0
1468.978516 180.0
1469.093872 128.0
1469.179688 172.0
1469.216064 64.0
1469.249023 164.0
1469.277954 72.0
1469.303223 208.0
1469.358032 320.0
1469.481567 168.0
1469.570312 164.0
1469.787354 168.0
1469.83728 148.0
1469.900146 172.0
1469.967651 128.0
1470.016968 104.0
1470.075439 312.0
1470.13562 36.0
1470.219482 264.0
1470.376221 336.0
1470.477051 332.0
1470.558838 192.0
1470.740967 188.0
1470.795044 176.0
1470.825928 72.0
1470.848999 136.0
1470.978027 148.0
1471.12146 216.0
1471.201782 100.0
1471.267578 284.0
1471.373169 116.0
1471.421875 156.0
1471.501953 140.0
1471.570679 76.0
1471.646973 152.0
1471.748047 144.0
1471.819336 244.0
1471.890015 168.0
1471.944336 60.0
1472.114746 140.0
1472.219727 176.0
1472.293945 144.0
1472.403076 68.0
1472.493896 80.0
1472.54187 380.0
1472.665405 92.0
1472.74646 120.0
1472.817139 196.0
1472.895874 252.0
1472.999512 408.0
1473.073242 160.0
1473.089722 120.0
1473.165649 76.0
1473.234375 328.0
1473.345703 252.0
1473.434204 180.0
1473.499146 232.0
1473.617676 384.0
1473.692505 160.0
1473.778198 336.0
1473.839233 76.0
1473.8927 164.0
1473.976318 252.0
1474.050903 80.0
1474.132324 80.0
1474.226685 312.0
1474.250732 160.0
1474.271973 84.0
1474.352783 184.0
1474.549927 164.0
1474.611084 144.0
1474.726196 136.0
1474.884644 152.0
1475.019775 276.0
1475.097168 148.0
1475.268433 172.0
1475.368652 76.0
1475.527588 292.0
1475.637695 160.0
1475.694214 336.0
1475.764038 132.0
1475.812744 180.0
1475.937012 192.0
1475.976562 284.0
1476.032104 136.0
1476.098145 220.0
1476.165039 120.0
1476.262451 164.0
1476.497803 216.0
1476.671631 72.0
1476.756592 204.0
1476.902344 100.0
1477.065552 152.0
1477.187134 176.0
1477.356201 88.0
1477.498291 160.0
1477.651001 84.0
1477.719727 160.0
1477.828125 172.0
1477.923828 256.0
1478.065796 180.0
1478.09314 132.0
1478.119629 88.0
1478.150513 132.0
1478.225952 264.0
1478.304077 176.0
1478.355347 160.0
1478.485352 144.0
1478.553711 72.0
1478.74939 196.0
1478.803955 224.0
1478.927856 460.0
1479.027466 316.0
1479.133789 252.0
1479.239014 160.0
1479.386719 164.0
1479.450684 192.0
1479.53479 240.0
1479.635132 52.0
1479.708008 224.0
1479.889038 160.0
1479.950073 204.0
1480.02124 300.0
1480.105469 180.0
1480.207153 200.0
1480.240845 208.0
1480.289551 172.0
1480.375488 148.0
1480.491333 116.0
1480.63208 168.0
1480.678955 324.0
1480.795044 344.0
1480.910156 144.0
1481.045654 204.0
1481.17627 124.0
1481.252319 184.0
1481.278198 268.0
1481.360718 144.0
1481.480225 184.0
1481.578247 132.0
1481.712524 268.0
1481.786377 316.0
1481.914795 136.0
1481.980347 116.0
1482.109009 180.0
1482.208984 116.0
1482.228516 180.0
1482.262939 152.0
1482.410767 160.0
1482.490234 180.0
1482.598145 156.0
1482.655029 104.0
1482.769287 108.0
1482.780273 116.0
1482.907471 240.0
1483.049072 264.0
1483.136963 168.0
1483.219971 112.0
1483.297241 136.0
1483.369629 152.0
1483.39856 52.0
1483.471069 136.0
1483.574341 240.0
1483.711426 212.0
1483.76355 224.0
1483.880981 116.0
1484.019165 108.0
1484.066406 208.0
1484.17627 200.0
1484.245361 96.0
1484.331299 72.0
1484.39978 188.0
1484.454224 128.0
1484.467407 88.0
1484.550537 228.0
1484.613403 136.0
1484.695801 248.0
1484.812866 388.0
1484.841064 264.0
1484.932129 112.0
1485.065308 140.0
1485.140137 184.0
1485.188599 60.0
1485.259399 100.0
1485.291748 104.0
1485.325684 88.0
1485.395264 168.0
1485.411255 60.0
1485.488525 96.0
1485.511475 52.0
1485.537231 80.0
1485.672974 284.0
1485.737549 56.0
1485.801392 176.0
1485.885376 140.0
1485.942627 132.0
1486.082764 336.0
1486.226562 92.0
1486.378174 188.0
1486.467163 372.0
1486.525635 140.0
1486.612305 184.0
1486.724854 220.0
1486.740845 132.0
1486.800537 204.0
1486.965332 176.0
1487.067261 128.0
1487.083008 144.0
1487.113281 116.0
1487.195557 176.0
1487.272339 248.0
1487.32605 124.0
1487.456787 220.0
1487.677612 120.0
1487.740601 144.0
1487.804321 108.0
1487.902222 288.0
1488.025024 228.0
1488.079224 308.0
1488.137939 100.0
1488.200439 72.0
1488.267212 156.0
1488.359131 156.0
1488.391602 204.0
1488.440552 404.0
1488.591675 196.0
1488.703857 112.0
1488.773804 64.0
1488.873291 148.0
1488.967651 100.0
1489.022949 144.0
1489.128784 76.0
1489.171509 192.0
1489.249634 232.0
1489.434937 76.0
1489.544922 104.0
1489.645386 144.0
1489.728027 120.0
1489.855469 196.0
1489.879517 240.0
1490.050171 128.0
1490.13501 244.0
1490.22583 312.0
1490.333984 304.0
1490.520386 276.0
1490.693848 172.0
1490.838257 252.0
1490.932861 316.0
1490.951904 120.0
1490.994873 128.0
1491.083862 132.0
1491.265381 56.0
1491.408447 76.0
1491.540771 324.0
1491.649048 52.0
1491.730835 232.0
1491.801758 144.0
1491.86084 196.0
1491.996948 168.0
1492.116943 204.0
1492.194458 156.0
1492.356079 180.0
1492.479736 192.0
1492.572754 196.0
1492.648804 100.0
1492.726685 168.0
1492.795654 120.0
1492.844116 140.0
1492.917603 220.0
1493.061279 100.0
1493.124268 204.0
1493.236084 236.0
1493.35437 180.0
1493.461548 224.0
1493.54248 168.0
1493.626099 244.0
1493.727051 120.0
1493.788574 64.0
1493.918457 244.0
1493.991943 80.0
1494.114624 268.0
1494.314087 196.0
1494.394775 112.0
1494.526367 328.0
1494.657959 184.0
1494.788818 184.0
1494.858032 164.0
1494.993164 300.0
1495.040527 80.0
1495.066406 176.0
1495.084595 204.0
1495.126343 140.0
1495.165405 184.0
1495.273682 340.0
1495.341919 96.0
1495.406372 180.0
1495.503418 204.0
1495.668823 164.0
1495.751221 160.0
1495.879272 124.0
1495.971558 212.0
1496.10498 80.0
1496.22644 176.0
1496.247437 136.0
1496.413086 560.0
1496.543945 160.0
1496.68103 64.0
1496.694336 60.0
1496.778931 152.0
1496.909668 184.0
1496.999023 308.0
1497.067871 88.0
1497.167725 304.0
1497.320801 140.0
1497.437134 104.0
1497.55603 160.0
1497.644531 184.0
1497.734741 108.0
1497.797363 272.0
1497.811768 112.0
1497.841431 92.0
1497.865234 56.0
1497.956299 256.0
1498.039307 188.0
1498.101074 192.0
1498.170898 124.0
1498.291504 156.0
1498.352173 264.0
1498.479736 216.0
1498.543579 180.0
1498.637207 164.0
1498.797119 172.0
1498.862427 72.0
1498.979614 156.0
1499.062378 252.0
1499.139648 92.0
1499.226196 232.0
1499.307617 224.0
1499.409668 180.0
1499.502075 196.0
1499.597168 136.0
1499.66272 252.0
1499.773315 308.0
1499.842651 164.0
1499.979858 228.0
1500.183838 148.0
1500.264282 348.0
1500.376465 204.0
1500.47522 272.0
1500.49353 156.0
1500.532715 148.0
1500.547607 176.0
1500.616577 132.0
1500.706299 192.0
1500.777954 180.0
1500.857544 72.0
1500.974121 220.0
1501.078979 180.0
1501.202881 284.0
1501.282227 152.0
1501.364136 184.0
1501.483521 180.0
1501.666382 216.0
1501.713867 124.0
1501.73645 136.0
1501.788086 164.0
1501.876831 112.0
1502.007202 144.0
1502.029663 128.0
1502.112549 248.0
1502.198242 108.0
1502.372681 288.0
1502.501465 176.0
1502.643433 212.0
1502.713501 168.0
1502.771729 128.0
1502.846436 160.0
1502.930786 196.0
1503.104492 132.0
1503.228394 412.0
1503.327393 76.0
1503.396851 76.0
1503.496826 176.0
1503.52417 128.0
1503.54187 200.0
1503.672729 188.0
1503.738037 148.0
1503.94043 148.0
1504.03833 164.0
1504.109863 116.0
1504.159546 64.0
1504.189575 68.0
1504.234497 428.0
1504.326538 220.0
1504.439941 304.0
1504.508301 184.0
1504.619873 200.0
1504.674561 120.0
1504.726074 216.0
1504.876831 180.0
1504.955322 72.0
1505.030518 192.0
1505.119507 184.0
1505.195679 96.0
1505.28125 84.0
1505.382446 392.0
