>compound MLS000860069-01!(+/-)-DOI hydrochloride
>formula C11H16INO2
>ionization [M+H]+
>parentmass 322.0298532040905
#inchi InChI=1S/C11H16INO2/c1-7(13)4-8-5-11(15-3)9(12)6-10(8)14-2/h5-7H,4,13H2,1-3H3
#inchikey BGMZUEKZENQUJY
#origInchi InChI=1S/C11H16INO2.ClH/c1-7(13)4-8-5-11(15-3)9(12)6-10(8)14-2;/h5-7H,4,13H2,1-3H3;1H
#Ion_Source LC-ESI
#Instrument qTof
#Compound_Source NIH Pharmacologically Active Library
#PI Dorrestein
#Data_Collector VP/LMS
#Scan -1
#Precursor_MZ 322.034
#ExactMass 321.023
#Charge 1
#CAS_Number N/A
#Pubmed_ID N/A
#Smiles COc1cc(CC(C)N)c(OC)cc1I.Cl
#INCHI_AUX N/A
#Library_Class 1
#SpectrumID CCMSLIB00000085436
#IonMode Positive
#UpdateWorkflowName UPDATE-SINGLE-ANNOTATED-GOLD
#LibraryQualityString Gold
#TaskID d252d724072548979f1f6f1ced849daf
##Scan# 1518
#SpectrumFile p4-A10_GA10_01_18334.mzXML
#LibraryName Pharm_Active_Library.mgf
#MQScore -1
#Organism Pharm_Active_Library
#TIC_Query 0
#RT_Query -1
#MZErrorPPM -1
#SharedPeaks 0
#MassDiff 0
#LibMZ -1
#SpecMZ 322.034
#SpecCharge 0
#internalFilename spec-00000.mgf

>collision 10
44.904213 140.0
44.925556 200.0
44.93623 60.0
44.957092 264.0
44.980267 136.0
45.028336 96.0
45.0644 152.0
45.081772 116.0
45.106907 164.0
45.129894 132.0
45.150051 160.0
45.198109 200.0
45.218899 216.0
45.233986 352.0
45.243614 180.0
45.255665 136.0
45.264366 104.0
45.286465 136.0
45.298519 128.0
45.315136 336.0
45.349438 104.0
45.392338 208.0
45.414684 168.0
45.467308 176.0
45.471142 156.0
45.483566 180.0
45.525185 188.0
45.549362 68.0
45.560108 144.0
45.572201 192.0
45.594105 200.0
45.60445 148.0
45.640068 140.0
45.686478 92.0
45.717422 168.0
45.734921 220.0
45.764534 352.0
45.819756 60.0
45.834576 104.0
45.85614 188.0
45.866703 148.0
45.884743 236.0
45.90263 148.0
45.929993 232.0
45.951817 172.0
45.977757 204.0
45.999115 224.0
46.012012 180.0
46.022064 172.0
46.06123 180.0
46.105816 156.0
46.122032 104.0
46.149071 188.0
46.168423 320.0
46.219929 248.0
46.246471 128.0
46.310108 204.0
46.320942 280.0
46.331116 260.0
46.346684 160.0
46.372433 148.0
46.393459 288.0
46.404224 88.0
46.407043 188.0
46.422592 48.0
46.442871 164.0
46.472782 116.0
46.488216 256.0
46.51078 196.0
46.525711 156.0
46.542004 180.0
46.609921 140.0
46.631664 128.0
46.644726 136.0
46.659912 152.0
46.687572 160.0
46.710526 144.0
46.732475 256.0
46.758904 252.0
46.774185 180.0
46.805584 156.0
46.823494 136.0
46.850739 252.0
46.865421 216.0
46.877987 140.0
46.890251 140.0
46.906609 84.0
46.919804 136.0
46.935238 160.0
46.951603 148.0
46.997982 108.0
47.013813 120.0
47.032173 192.0
47.067387 208.0
47.086922 132.0
47.103104 128.0
47.115578 152.0
47.135891 136.0
47.182632 204.0
47.22065 200.0
47.234329 44.0
47.250557 116.0
47.271267 236.0
47.291798 64.0
47.331444 264.0
47.33736 256.0
47.353527 92.0
47.397243 128.0
47.422451 132.0
47.439732 240.0
47.449329 128.0
47.501442 92.0
47.51516 188.0
47.531624 84.0
47.592018 184.0
47.624977 148.0
47.644207 200.0
47.670315 176.0
47.686043 108.0
47.72942 164.0
47.758118 360.0
47.792694 212.0
47.803699 156.0
47.876526 296.0
47.893188 148.0
47.920898 208.0
47.938652 56.0
47.957947 144.0
47.998859 148.0
48.02137 152.0
48.0462 44.0
48.05724 56.0
48.084835 196.0
48.104481 172.0
48.144199 104.0
48.17873 104.0
48.228477 92.0
48.249214 56.0
48.263039 48.0
48.277435 132.0
48.297421 204.0
48.30154 176.0
48.315594 116.0
48.341885 136.0
48.383644 164.0
48.439777 204.0
48.456623 388.0
48.465637 204.0
48.510651 216.0
48.528881 152.0
48.542747 148.0
48.559387 108.0
48.576031 92.0
48.603149 132.0
48.621857 148.0
48.642639 244.0
48.746803 280.0
48.766258 40.0
48.787109 84.0
48.828716 156.0
48.843655 260.0
48.88308 120.0
48.919266 180.0
48.966911 164.0
48.983063 172.0
48.995396 192.0
49.005508 216.0
49.030926 168.0
49.050385 156.0
49.10598 144.0
49.126904 60.0
49.158993 216.0
49.170158 160.0
49.181324 136.0
49.195282 68.0
49.235771 120.0
49.245548 96.0
49.280472 152.0
49.299603 232.0
49.337772 184.0
49.395855 180.0
49.432884 148.0
49.453419 184.0
49.472073 136.0
49.501476 100.0
49.51968 140.0
49.546295 200.0
49.613876 336.0
49.63039 152.0
49.643009 132.0
49.659836 184.0
49.683685 316.0
49.695759 244.0
49.712734 176.0
49.72578 56.0
49.737007 40.0
49.750713 204.0
49.767895 132.0
49.820198 148.0
49.823383 188.0
49.849075 136.0
49.859734 232.0
49.885681 176.0
49.906994 148.0
49.932304 116.0
49.951996 84.0
49.964657 224.0
49.978401 156.0
49.989578 416.0
50.002651 112.0
50.032307 184.0
50.043262 160.0
50.057697 156.0
50.076088 124.0
50.102623 180.0
50.116467 160.0
50.120045 132.0
50.147717 172.0
50.158993 64.0
50.187187 200.0
50.200466 84.0
50.215214 128.0
50.243603 176.0
50.257339 212.0
50.271824 180.0
50.294403 76.0
50.314167 92.0
50.325462 120.0
50.353703 136.0
50.36359 156.0
50.384567 160.0
50.423527 180.0
50.437584 196.0
50.480232 240.0
50.495426 340.0
50.505283 196.0
50.557178 160.0
50.568604 164.0
50.58382 128.0
50.597763 240.0
50.628551 260.0
50.645061 260.0
50.65781 84.0
50.673225 136.0
50.727245 264.0
50.752037 164.0
50.767044 116.0
50.788219 188.0
50.826523 208.0
50.855824 192.0
50.891815 76.0
50.917374 132.0
50.928738 176.0
50.959991 92.0
50.99242 248.0
51.012573 116.0
51.069641 148.0
51.08083 296.0
51.130119 348.0
51.143795 168.0
51.162399 200.0
51.203194 136.0
51.234573 180.0
51.244545 52.0
51.261642 60.0
51.276432 204.0
51.312748 220.0
51.334187 136.0
51.339508 116.0
51.357162 72.0
51.387848 200.0
51.417755 196.0
51.451344 220.0
51.471222 308.0
51.492752 128.0
51.505344 284.0
51.593849 176.0
51.619942 112.0
51.655697 84.0
51.673767 272.0
51.704342 96.0
51.714363 96.0
51.754444 40.0
51.765778 232.0
51.782356 196.0
51.793819 192.0
51.808868 220.0
51.831791 84.0
51.844688 132.0
51.888229 224.0
51.936447 84.0
51.96484 308.0
51.991364 188.0
52.029114 208.0
52.046951 148.0
52.075672 160.0
52.090034 48.0
52.127388 40.0
52.191628 180.0
52.201672 160.0
52.212822 168.0
52.242413 192.0
52.255825 208.0
52.278381 140.0
52.307873 196.0
52.3302 184.0
52.347481 184.0
52.366199 160.0
52.383484 88.0
52.416622 148.0
52.432472 164.0
52.446888 108.0
52.46069 168.0
52.500076 148.0
52.504601 264.0
52.524418 208.0
52.594009 112.0
52.628254 100.0
52.669094 144.0
52.699429 192.0
52.723995 48.0
52.742783 144.0
52.758686 104.0
52.770252 108.0
52.780373 160.0
52.814407 120.0
52.857037 64.0
52.872955 148.0
52.89756 208.0
52.939545 108.0
53.014233 168.0
53.018723 104.0
53.032269 92.0
53.050827 260.0
53.09026 112.0
53.112015 128.0
53.126518 128.0
53.140568 220.0
53.177307 156.0
53.191822 64.0
53.210693 64.0
53.270233 124.0
53.28912 108.0
53.304996 164.0
53.310703 136.0
53.319675 152.0
53.35743 80.0
53.369228 208.0
53.428692 152.0
53.460701 192.0
53.515709 152.0
53.525425 224.0
53.541988 296.0
53.558609 160.0
53.578983 136.0
53.591236 136.0
53.615067 172.0
53.629642 132.0
53.642761 88.0
53.661713 184.0
53.687958 136.0
53.713272 196.0
53.736095 216.0
53.782791 60.0
53.793011 112.0
53.821644 248.0
53.834347 268.0
53.854336 188.0
53.873917 148.0
53.886475 160.0
53.905407 184.0
53.947853 52.0
53.965397 136.0
53.988617 132.0
54.010986 184.0
54.02536 172.0
54.041454 152.0
54.068783 160.0
54.080967 104.0
54.094139 212.0
54.114017 256.0
54.130184 200.0
54.170284 96.0
54.180538 104.0
54.208378 240.0
54.233818 172.0
54.249783 192.0
54.268475 120.0
54.280205 344.0
54.306602 208.0
54.381767 192.0
54.399044 32.0
54.41666 156.0
54.426861 148.0
54.462856 176.0
54.491566 216.0
54.547409 124.0
54.565048 136.0
54.60083 160.0
54.625343 136.0
54.637897 120.0
54.65477 80.0
54.666542 132.0
54.676632 112.0
54.704807 144.0
54.718056 176.0
54.729881 132.0
54.781055 164.0
54.803482 136.0
54.813797 216.0
54.824112 156.0
54.864052 296.0
54.899292 248.0
54.920952 152.0
54.981907 132.0
55.00676 284.0
55.041088 180.0
55.064583 148.0
55.082306 164.0
55.110897 204.0
55.129585 180.0
55.159443 100.0
55.178364 120.0
55.197586 132.0
55.222725 148.0
55.241955 144.0
55.329655 152.0
55.358879 224.0
55.406887 148.0
55.425034 176.0
55.443321 188.0
55.483341 236.0
55.514477 196.0
55.53524 68.0
55.545624 144.0
55.58865 156.0
55.606533 156.0
55.648022 124.0
55.670296 136.0
55.706978 112.0
55.720486 196.0
55.750511 164.0
55.763889 144.0
55.774292 176.0
55.79213 208.0
55.804024 116.0
55.829304 120.0
55.866486 180.0
55.883144 164.0
55.896244 160.0
55.954292 132.0
55.973648 328.0
56.017487 124.0
56.057064 172.0
56.08091 88.0
56.105988 180.0
56.129646 208.0
56.14502 188.0
56.183022 192.0
56.212147 140.0
56.228565 120.0
56.271732 148.0
56.287731 164.0
56.326302 252.0
56.345036 180.0
56.356659 164.0
56.400707 176.0
56.445175 216.0
56.469101 164.0
56.487228 180.0
56.49902 228.0
56.545036 212.0
56.561871 208.0
56.601742 240.0
56.616047 172.0
56.654713 308.0
56.704159 148.0
56.714649 100.0
56.741375 208.0
56.780846 292.0
56.793827 144.0
56.809303 164.0
56.833122 168.0
56.864635 76.0
56.882198 40.0
56.929192 120.0
56.952881 176.0
56.957241 136.0
56.990776 164.0
57.00787 160.0
57.032425 224.0
57.056908 132.0
57.085064 204.0
57.098125 292.0
57.111469 184.0
57.132832 148.0
57.151661 136.0
57.165203 80.0
57.25391 108.0
57.270588 148.0
57.29512 140.0
57.3139 96.0
57.338387 116.0
57.348938 128.0
57.359489 72.0
57.385059 216.0
57.409767 276.0
57.427341 112.0
57.440914 112.0
57.467209 112.0
57.506199 120.0
57.532967 92.0
57.545986 160.0
57.550056 100.0
57.584305 132.0
57.609985 208.0
57.620823 196.0
57.633095 216.0
57.649967 104.0
57.692875 160.0
57.709732 172.0
57.739975 128.0
57.753063 208.0
57.773151 120.0
57.817219 136.0
57.837749 128.0
57.842491 132.0
57.849358 96.0
57.873138 80.0
57.929173 180.0
57.988266 180.0
58.007973 152.0
58.073174 144.0
58.106686 172.0
58.139481 136.0
58.144543 96.0
58.147991 140.0
58.174835 188.0
58.203682 84.0
58.250763 108.0
58.261398 104.0
58.285873 236.0
58.321091 240.0
58.360184 168.0
58.419498 104.0
58.452969 160.0
58.465145 76.0
58.481884 116.0
58.515732 120.0
58.529079 124.0
58.54126 144.0
58.556488 140.0
58.57629 56.0
58.588478 176.0
58.637238 184.0
58.692471 240.0
58.707363 168.0
58.719566 212.0
58.738167 228.0
58.749119 96.0
58.762539 116.0
58.812634 328.0
58.824844 108.0
58.858433 188.0
58.870651 176.0
58.884396 176.0
58.904659 164.0
58.925636 124.0
58.946381 132.0
58.9562 192.0
58.969952 124.0
58.997616 192.0
59.021931 148.0
59.041809 152.0
59.1535 108.0
59.19215 180.0
59.207088 132.0
59.221638 152.0
59.237724 168.0
59.294415 176.0
59.306675 180.0
59.332737 196.0
59.364979 140.0
59.383339 196.0
59.417084 124.0
59.434601 112.0
59.449306 112.0
59.468372 180.0
59.481537 116.0
59.499958 316.0
59.510391 216.0
59.521362 404.0
59.581352 180.0
59.597317 144.0
59.614109 176.0
59.627548 312.0
59.659729 72.0
59.682468 152.0
59.707909 120.0
59.738159 96.0
59.766182 188.0
59.776623 80.0
59.84338 140.0
59.85796 176.0
59.873604 204.0
59.889008 336.0
59.923851 200.0
59.949089 112.0
59.967766 204.0
59.987915 168.0
60.013832 128.0
60.029652 216.0
60.052383 84.0
60.069351 104.0
60.083233 60.0
60.101749 128.0
60.125523 256.0
60.204304 256.0
60.22216 136.0
60.232803 108.0
60.256863 152.0
60.271385 204.0
60.293232 196.0
60.311775 196.0
60.340633 192.0
60.365887 148.0
60.387688 124.0
60.425137 144.0
60.44323 140.0
60.487812 144.0
60.514431 140.0
60.533009 68.0
60.559338 124.0
60.59 156.0
60.620132 132.0
60.646103 48.0
60.674007 240.0
60.690849 328.0
60.70377 164.0
60.726727 192.0
60.755932 208.0
60.779472 168.0
60.812775 288.0
60.824478 508.0
60.84621 152.0
60.86174 208.0
60.880989 348.0
60.897457 180.0
60.942505 204.0
60.963783 340.0
61.003117 148.0
61.024879 152.0
61.050457 268.0
61.07309 236.0
61.088787 132.0
61.119759 132.0
61.144657 180.0
61.160221 132.0
61.174232 92.0
61.189411 132.0
61.219383 140.0
61.236126 144.0
61.277016 172.0
61.310883 120.0
61.351822 148.0
61.372089 108.0
61.383785 112.0
61.404839 192.0
61.522034 136.0
61.5406 164.0
61.595303 136.0
61.61869 172.0
61.656193 176.0
61.679638 36.0
61.692142 64.0
61.719307 96.0
61.757816 68.0
61.794422 100.0
61.813034 108.0
61.82822 112.0
61.85857 184.0
61.917458 168.0
61.937817 148.0
61.966015 140.0
61.981827 348.0
62.005192 112.0
62.018532 84.0
62.03027 108.0
62.045944 316.0
62.070148 128.0
62.089676 180.0
62.124508 164.0
62.144753 112.0
62.160442 268.0
62.172359 236.0
62.205376 260.0
62.252514 184.0
62.267349 120.0
62.292717 120.0
62.314316 40.0
62.334885 180.0
62.367748 224.0
62.443214 88.0
62.46209 144.0
62.472301 136.0
62.497185 208.0
62.575397 236.0
62.60128 204.0
62.612854 188.0
62.627758 64.0
62.65414 160.0
62.696686 152.0
62.736088 136.0
62.784969 140.0
62.819668 116.0
62.845688 172.0
62.859112 188.0
62.882591 164.0
62.893585 180.0
62.917511 320.0
62.934875 100.0
62.949089 60.0
62.974358 124.0
62.988571 176.0
63.010761 176.0
63.024231 192.0
63.062519 160.0
63.066971 188.0
63.080078 176.0
63.091629 204.0
63.11142 256.0
63.151375 100.0
63.186176 196.0
63.200989 144.0
63.214657 168.0
63.253315 404.0
63.276138 236.0
63.307301 176.0
63.323891 140.0
63.344482 156.0
63.362576 200.0
63.388844 184.0
63.41737 180.0
63.461758 260.0
63.472855 104.0
63.485542 108.0
63.5014 168.0
63.529953 172.0
63.547405 140.0
63.564404 196.0
63.595009 176.0
63.610882 192.0
63.669632 236.0
63.694126 240.0
63.725227 172.0
63.748001 204.0
63.779861 176.0
63.798332 168.0
63.823772 64.0
63.8349 204.0
63.874371 248.0
63.885796 144.0
63.903954 176.0
63.921635 252.0
63.959892 180.0
64.003571 168.0
64.022682 180.0
64.100739 172.0
64.118263 132.0
64.145363 124.0
64.156525 112.0
64.167679 152.0
64.181343 204.0
64.195351 180.0
64.223518 132.0
64.246643 156.0
64.258591 164.0
64.282524 132.0
64.316971 192.0
64.376709 256.0
64.444374 220.0
64.493103 184.0
64.532425 168.0
64.555046 380.0
64.578072 140.0
64.593658 256.0
64.605263 100.0
64.635666 168.0
64.652267 32.0
64.664467 160.0
64.677788 100.0
64.68457 144.0
64.690399 180.0
64.766029 144.0
64.781357 140.0
64.796913 220.0
64.819809 180.0
64.866638 248.0
64.891937 100.0
64.934624 104.0
64.947189 168.0
64.968918 48.0
65.016464 152.0
65.031364 188.0
65.062637 176.0
65.080757 204.0
65.094109 108.0
65.106956 160.0
65.122391 184.0
65.180077 208.0
65.206566 156.0
65.218582 152.0
65.28373 264.0
65.29467 164.0
65.312675 100.0
65.323936 176.0
65.359367 200.0
65.409225 164.0
65.422104 164.0
65.443375 168.0
65.467186 124.0
65.478455 56.0
65.49456 124.0
65.515388 168.0
65.518089 152.0
65.559006 72.0
65.573509 236.0
65.596313 164.0
65.63903 236.0
65.669365 160.0
65.692833 200.0
65.707939 168.0
65.736389 44.0
65.779968 72.0
65.823563 228.0
65.842941 112.0
65.868736 156.0
65.915634 144.0
65.931229 148.0
65.94973 124.0
65.960884 208.0
65.973816 188.0
66.038498 252.0
66.049622 192.0
66.077324 108.0
66.090263 88.0
66.140434 192.0
66.177666 104.0
66.205193 172.0
66.218147 128.0
66.232727 240.0
66.258385 276.0
66.275421 288.0
66.302765 176.0
66.318604 132.0
66.334137 180.0
66.363647 168.0
66.3899 184.0
66.427238 104.0
66.440216 168.0
66.456444 168.0
66.471947 152.0
66.498634 232.0
66.527313 120.0
66.551003 436.0
66.606224 152.0
66.641197 172.0
66.654633 204.0
66.680565 144.0
66.711418 132.0
66.741264 200.0
66.770966 200.0
66.820381 172.0
66.836189 140.0
66.842636 100.0
66.84726 208.0
66.862869 212.0
66.885681 412.0
66.898499 100.0
66.914719 112.0
66.939201 180.0
66.960373 144.0
66.993439 212.0
67.011848 264.0
67.023903 120.0
67.106934 204.0
67.160843 132.0
67.183678 84.0
67.195099 140.0
67.213051 144.0
67.239159 120.0
67.255478 368.0
67.301186 108.0
67.322838 156.0
67.344955 176.0
67.402672 152.0
67.414879 272.0
67.428528 168.0
67.446587 188.0
67.466202 280.0
67.498901 168.0
67.515137 188.0
67.534798 80.0
67.547966 156.0
67.564323 68.0
67.622086 212.0
67.640892 96.0
67.656517 284.0
67.679283 232.0
67.703209 108.0
67.726379 236.0
67.754227 128.0
67.782082 120.0
67.80011 92.0
67.813217 252.0
67.866531 176.0
67.888634 156.0
67.967369 216.0
67.988701 144.0
68.016602 220.0
68.034019 184.0
68.077347 152.0
68.093773 104.0
68.111839 128.0
68.133194 148.0
68.161125 208.0
68.174271 184.0
68.192978 292.0
68.210434 128.0
68.236732 208.0
68.256462 128.0
68.286064 40.0
68.310738 300.0
68.346931 152.0
68.360092 172.0
68.391365 56.0
68.424286 216.0
68.439102 104.0
68.472038 112.0
68.504982 272.0
68.51722 140.0
68.549469 112.0
68.574188 252.0
68.591187 64.0
68.673111 124.0
68.699501 132.0
68.720947 148.0
68.73391 164.0
68.763962 184.0
68.776917 140.0
68.80677 220.0
68.82328 116.0
68.866219 64.0
68.880241 96.0
68.897194 176.0
68.920738 160.0
68.937683 124.0
68.973618 88.0
69.006683 156.0
69.030472 140.0
69.054298 116.0
69.092682 132.0
69.122742 184.0
69.178482 156.0
69.184959 132.0
69.215759 132.0
69.231979 224.0
69.258049 192.0
69.281197 156.0
69.309578 160.0
69.321175 200.0
69.34211 172.0
69.359291 140.0
69.371803 144.0
69.398476 164.0
69.457298 112.0
69.484207 380.0
69.505898 144.0
69.520164 108.0
69.608269 168.0
69.662956 164.0
69.697845 188.0
69.732742 128.0
69.770973 168.0
69.793526 128.0
69.817108 228.0
69.832497 132.0
69.846748 140.0
69.889061 308.0
69.930351 212.0
69.952301 104.0
69.970612 208.0
69.99987 168.0
70.021637 360.0
70.041931 184.0
70.052612 152.0
70.072205 124.0
70.095535 128.0
70.162201 132.0
70.199501 376.0
70.2239 88.0
70.245583 168.0
70.258141 180.0
70.270607 72.0
70.300499 92.0
70.3172 156.0
70.335686 112.0
70.359062 140.0
70.377426 212.0
70.392647 204.0
70.427147 160.0
70.454254 64.0
70.467613 156.0
70.496025 80.0
70.512733 164.0
70.545792 144.0
70.564949 168.0
70.597565 140.0
70.611374 120.0
70.624756 156.0
70.641479 116.0
70.705574 236.0
70.730545 176.0
70.790436 152.0
70.802162 152.0
70.823067 120.0
70.845711 204.0
70.867493 100.0
70.909386 172.0
70.961075 196.0
71.012253 168.0
71.040543 180.0
71.066833 112.0
71.120712 100.0
71.141777 160.0
71.165207 192.0
71.206612 200.0
71.228912 228.0
71.272697 168.0
71.291534 332.0
71.315552 200.0
71.341583 100.0
71.362831 156.0
71.418137 148.0
71.438301 168.0
71.475311 156.0
71.487236 136.0
71.508972 200.0
71.520752 88.0
71.54113 148.0
71.552734 176.0
71.568855 132.0
71.593147 180.0
71.655472 116.0
71.670631 124.0
71.702652 224.0
71.72625 156.0
71.758789 196.0
71.790771 176.0
71.820999 164.0
71.845978 132.0
71.866219 144.0
71.906715 112.0
71.923599 96.0
71.93541 128.0
72.035042 224.0
72.059174 168.0
72.095871 96.0
72.121262 164.0
72.148079 144.0
72.172516 116.0
72.190536 92.0
72.232124 400.0
72.259666 156.0
72.337685 148.0
72.351837 184.0
72.378365 180.0
72.396988 176.0
72.439331 40.0
72.478134 124.0
72.524422 184.0
72.535149 88.0
72.558044 156.0
72.635963 156.0
72.65123 160.0
72.675713 260.0
72.702133 216.0
72.715714 172.0
72.736076 160.0
72.755692 196.0
72.778519 124.0
72.824371 132.0
72.844757 156.0
72.863632 144.0
72.877037 52.0
72.928017 260.0
72.956909 108.0
72.985229 208.0
72.997719 208.0
73.018127 152.0
73.031731 132.0
73.058708 168.0
73.063698 172.0
73.075928 200.0
73.092972 160.0
73.131317 148.0
73.232071 108.0
73.259827 184.0
73.281975 88.0
73.316055 208.0
73.341621 148.0
73.364494 152.0
73.389832 212.0
73.402992 52.0
73.420044 40.0
73.450745 248.0
73.474121 148.0
73.508156 172.0
73.531273 184.0
73.551414 144.0
73.575317 120.0
73.606049 228.0
73.636787 148.0
73.655579 164.0
73.67392 148.0
73.688034 176.0
73.705124 144.0
73.723915 124.0
73.73745 96.0
73.793999 156.0
73.805969 152.0
73.826485 200.0
73.891487 92.0
73.903465 200.0
73.929131 120.0
73.972816 152.0
73.985687 288.0
74.036346 152.0
74.059723 128.0
74.099548 144.0
74.143196 64.0
74.178032 184.0
74.199837 188.0
74.221207 128.0
74.243515 216.0
74.259781 148.0
74.271782 96.0
74.311241 128.0
74.333542 92.0
74.352425 132.0
74.413147 128.0
74.434822 128.0
74.465736 144.0
74.525856 100.0
74.548195 124.0
74.588478 64.0
74.627266 192.0
74.644463 160.0
74.663376 120.0
74.686371 304.0
74.702187 92.0
74.718414 184.0
74.731743 188.0
74.736313 140.0
74.776924 108.0
74.819321 152.0
74.896484 100.0
74.910439 96.0
74.923286 116.0
74.966362 176.0
75.016342 144.0
75.046219 300.0
75.064621 160.0
75.143959 108.0
75.176743 204.0
75.239983 176.0
75.280319 148.0
75.307953 152.0
75.331619 120.0
75.341873 232.0
75.367386 188.0
75.392647 176.0
75.421783 200.0
75.436592 164.0
75.456566 140.0
75.473854 120.0
75.504982 236.0
75.520546 156.0
75.589745 292.0
75.617432 148.0
75.646858 40.0
75.680893 164.0
75.752487 300.0
75.78714 136.0
75.80793 60.0
75.845192 96.0
75.858353 88.0
75.92495 112.0
75.97612 52.0
76.000404 132.0
76.025314 204.0
76.0783 168.0
76.12886 140.0
76.153175 120.0
76.191383 112.0
76.204704 168.0
76.227875 132.0
76.250465 60.0
76.297363 220.0
76.332169 172.0
76.355423 152.0
76.36161 168.0
76.366859 148.0
76.39283 256.0
76.419144 152.0
76.448723 176.0
76.479179 160.0
76.507896 112.0
76.52401 472.0
76.558037 164.0
76.586258 136.0
76.631554 128.0
76.659431 140.0
76.68383 208.0
76.748329 188.0
76.793541 160.0
76.816345 164.0
76.854683 160.0
76.873924 164.0
76.887878 124.0
76.928101 492.0
76.962944 204.0
77.008347 200.0
77.036293 104.0
77.057327 196.0
77.083466 76.0
77.113403 152.0
77.151634 68.0
77.165581 208.0
77.185127 200.0
77.204086 160.0
77.240814 252.0
77.258308 48.0
77.281052 84.0
77.318832 232.0
77.372063 32.0
77.399017 164.0
77.422836 176.0
77.443855 108.0
77.544487 212.0
77.585915 168.0
77.626007 128.0
77.658966 164.0
77.692764 100.0
77.717331 112.0
77.740341 140.0
77.756828 100.0
77.791039 52.0
77.809372 228.0
77.842529 160.0
77.87532 128.0
77.889374 116.0
77.931488 156.0
77.95903 136.0
78.025436 84.0
78.045692 152.0
78.066887 212.0
78.105873 144.0
78.119652 132.0
78.135483 224.0
78.172432 148.0
78.228401 220.0
78.241074 224.0
78.260445 204.0
78.286858 288.0
78.309746 160.0
78.324501 192.0
78.343033 156.0
78.366013 140.0
78.377396 220.0
78.392227 176.0
78.417557 148.0
78.437012 176.0
78.496552 160.0
78.514191 56.0
78.526535 64.0
78.556343 120.0
78.560776 204.0
78.592628 168.0
78.624374 184.0
78.658257 184.0
78.692406 164.0
78.706535 156.0
78.730423 152.0
78.769211 120.0
78.782478 124.0
78.795898 232.0
78.879585 248.0
78.922096 184.0
78.934479 136.0
78.974442 144.0
79.015839 124.0
79.065544 220.0
79.098358 204.0
79.116714 200.0
79.132645 112.0
79.145042 152.0
79.178108 184.0
79.226509 104.0
79.251312 128.0
79.270805 124.0
79.288528 156.0
79.343475 132.0
79.359802 172.0
79.375389 152.0
79.38958 100.0
79.43676 176.0
79.460526 160.0
79.501335 40.0
79.569061 52.0
79.606667 120.0
79.631477 128.0
79.65403 28.0
79.682449 96.0
79.70578 184.0
79.746422 132.0
79.776642 300.0
79.796196 208.0
79.848785 104.0
79.881554 116.0
79.90815 156.0
79.938309 40.0
79.967209 172.0
80.018585 164.0
80.075569 120.0
80.102287 52.0
80.12841 168.0
80.150391 200.0
80.171547 156.0
80.220108 200.0
80.231247 196.0
80.246674 236.0
80.266251 144.0
80.280518 180.0
80.319756 260.0
80.357216 228.0
80.378624 160.0
80.391121 104.0
80.425842 184.0
80.447105 152.0
80.49308 204.0
80.525009 108.0
80.5588 144.0
80.591026 144.0
80.619698 100.0
80.657272 164.0
80.694771 196.0
80.718018 124.0
80.748413 116.0
80.811028 144.0
80.907669 132.0
80.923782 84.0
80.94706 112.0
80.968224 132.0
81.011536 132.0
81.038406 172.0
81.058914 200.0
81.090378 120.0
81.122643 60.0
81.140564 124.0
81.171883 164.0
81.195129 224.0
81.237404 164.0
81.258934 168.0
81.276878 96.0
81.296921 140.0
81.325333 120.0
81.339691 136.0
81.363029 128.0
81.382774 124.0
81.429344 120.0
81.478844 180.0
81.523758 172.0
81.545853 184.0
81.599052 180.0
81.616356 168.0
81.656815 200.0
81.681099 140.0
81.697289 172.0
81.72068 244.0
81.736153 96.0
81.758743 136.0
81.781372 148.0
81.79792 156.0
81.804115 144.0
81.844872 172.0
81.864395 152.0
81.891693 220.0
81.916908 380.0
81.974564 120.0
81.999794 216.0
82.029015 188.0
82.059502 164.0
82.097145 136.0
82.153061 120.0
82.176514 168.0
82.204536 240.0
82.234253 136.0
82.265213 128.0
82.287247 148.0
82.307182 140.0
82.326332 48.0
82.338974 160.0
82.36245 144.0
82.375092 228.0
82.403473 152.0
82.429298 372.0
82.449173 212.0
82.481865 136.0
82.503975 176.0
82.520905 112.0
82.543175 200.0
82.566681 188.0
82.581154 188.0
82.608284 160.0
82.638496 148.0
82.653442 104.0
82.67704 120.0
82.762115 108.0
82.781189 240.0
82.800148 148.0
82.818253 128.0
82.830933 248.0
82.844963 176.0
82.868752 96.0
82.890724 152.0
82.944374 152.0
82.972679 116.0
83.01619 176.0
83.035751 68.0
83.059647 160.0
83.083145 396.0
83.113449 240.0
83.129059 184.0
83.306198 192.0
83.369057 228.0
83.372841 124.0
83.395233 204.0
83.415672 136.0
83.431587 76.0
83.453407 388.0
83.475227 96.0
83.502502 160.0
83.533424 152.0
83.576035 200.0
83.607155 140.0
83.624405 108.0
83.641678 200.0
83.679016 164.0
83.710159 152.0
83.735306 92.0
83.771889 192.0
83.793755 108.0
83.821083 124.0
83.833839 124.0
83.870293 208.0
83.883049 156.0
83.912216 108.0
83.933083 108.0
83.993515 200.0
84.01693 156.0
84.051422 112.0
84.074554 184.0
84.111061 176.0
84.133377 300.0
84.185577 444.0
84.28273 160.0
84.317451 156.0
84.403305 120.0
84.456779 136.0
84.487503 172.0
84.500305 124.0
84.597809 144.0
84.650543 196.0
84.673569 228.0
84.694351 200.0
84.725288 144.0
84.73259 128.0
84.821556 136.0
84.840942 292.0
84.919792 164.0
84.949142 280.0
84.961983 152.0
84.978493 84.0
84.995003 76.0
85.008896 144.0
85.042717 232.0
85.057404 176.0
85.127167 172.0
85.169411 168.0
85.199722 136.0
85.216904 168.0
85.232986 132.0
85.259438 136.0
85.312737 100.0
85.331345 200.0
85.391808 52.0
85.418709 172.0
85.433228 100.0
85.483788 120.0
85.511398 160.0
85.527962 124.0
85.544525 260.0
85.561096 192.0
85.599762 140.0
85.614494 216.0
85.650444 96.0
85.669746 84.0
85.688171 140.0
85.71212 64.0
85.736076 192.0
85.783997 168.0
85.799461 176.0
85.812714 160.0
85.843002 112.0
85.859596 140.0
85.884598 180.0
85.931618 180.0
85.946297 144.0
85.990585 144.0
86.010887 192.0
86.023811 88.0
86.041679 176.0
86.082893 128.0
86.14164 148.0
86.172699 152.0
86.190735 184.0
86.21035 156.0
86.280045 204.0
86.304626 360.0
86.349304 172.0
86.364304 236.0
86.400284 288.0
86.44957 156.0
86.463707 180.0
86.53405 168.0
86.594048 180.0
86.608124 96.0
86.629692 176.0
86.64135 136.0
86.71003 228.0
86.735237 176.0
86.784172 176.0
86.799011 336.0
86.825638 188.0
86.848236 220.0
86.860512 188.0
86.886185 164.0
86.89917 136.0
86.938133 88.0
86.984535 100.0
87.069946 176.0
87.102013 196.0
87.116676 176.0
87.13681 144.0
87.19442 96.0
87.213005 100.0
87.237167 96.0
87.268776 384.0
87.305504 196.0
87.324562 136.0
87.346436 184.0
87.353615 116.0
87.410133 224.0
87.452942 76.0
87.473412 188.0
87.506989 108.0
87.53299 160.0
87.560921 192.0
87.589409 244.0
87.621773 108.0
87.646614 128.0
87.65966 84.0
87.685745 48.0
87.702118 148.0
87.709206 116.0
87.714569 216.0
87.735023 184.0
87.782684 128.0
87.804291 164.0
87.810738 96.0
87.818565 168.0
87.880814 160.0
87.902069 180.0
87.924828 144.0
87.950249 172.0
87.982941 196.0
88.015503 156.0
88.027138 204.0
88.045815 76.0
88.062622 172.0
88.099983 112.0
88.129875 100.0
88.191078 128.0
88.230797 112.0
88.251366 180.0
88.298111 184.0
88.338974 168.0
88.364922 152.0
88.401833 144.0
88.423462 128.0
88.464638 168.0
88.496468 36.0
88.518936 204.0
88.541405 144.0
88.582611 96.0
88.595726 120.0
88.629448 196.0
88.700668 124.0
88.718964 152.0
88.747536 180.0
88.762535 120.0
88.795677 172.0
88.801788 116.0
88.808228 164.0
88.833801 232.0
88.883324 196.0
88.908722 116.0
88.927681 148.0
88.974548 76.0
88.989571 188.0
89.002708 136.0
89.015854 100.0
89.039139 1652.0
89.066566 152.0
89.096321 100.0
89.10495 156.0
89.136078 72.0
89.149231 48.0
89.175537 196.0
89.204025 208.0
89.257912 176.0
89.261024 144.0
89.268433 244.0
89.2827 72.0
89.32032 152.0
89.347672 148.0
89.361176 200.0
89.393044 220.0
89.42569 228.0
89.515694 148.0
89.522453 120.0
89.528076 196.0
89.544296 204.0
89.563133 72.0
89.585426 216.0
89.611633 156.0
89.653564 176.0
89.690643 208.0
89.697456 140.0
89.719536 208.0
89.735878 384.0
89.749702 76.0
89.76667 72.0
89.781761 148.0
89.820206 272.0
89.840759 228.0
89.8591 120.0
89.874191 176.0
89.90155 136.0
89.932693 76.0
89.950523 168.0
90.021423 188.0
90.046349 1828.0
90.078087 140.0
90.161217 108.0
90.187675 156.0
90.202644 100.0
90.23288 92.0
90.252647 200.0
90.267082 36.0
90.30249 160.0
90.33078 224.0
90.369217 104.0
90.397606 308.0
90.412743 68.0
90.432716 120.0
90.461952 108.0
90.476318 184.0
90.493523 184.0
90.542221 184.0
90.583778 136.0
90.613739 80.0
90.625793 180.0
90.651901 152.0
90.670303 176.0
90.693047 152.0
90.740433 56.0
90.791634 136.0
90.825096 280.0
90.882622 116.0
90.903763 148.0
90.953049 256.0
90.990868 92.0
91.009941 172.0
91.055527 10044.0
91.097214 232.0
91.116211 128.0
91.139526 236.0
91.160774 168.0
91.213127 400.0
91.262802 184.0
91.295311 124.0
91.329163 164.0
91.348717 236.0
91.369064 48.0
91.419937 260.0
91.439468 312.0
91.471191 180.0
91.485153 56.0
91.531609 160.0
91.55632 148.0
91.569908 180.0
91.589508 232.0
91.641319 228.0
91.681335 212.0
91.74324 152.0
91.756775 116.0
91.807152 48.0
91.824318 168.0
91.839577 112.0
91.873161 180.0
91.891083 132.0
91.904434 176.0
91.936874 132.0
91.973137 132.0
91.99131 108.0
92.0075 188.0
92.021873 244.0
92.063255 992.0
92.103897 148.0
92.135857 152.0
92.154556 92.0
92.199509 132.0
92.22039 248.0
92.23864 64.0
92.264145 260.0
92.286438 96.0
92.300476 176.0
92.322769 292.0
92.341896 148.0
92.382774 184.0
92.445465 200.0
92.495239 136.0
92.527504 116.0
92.575813 244.0
92.589935 212.0
92.632828 96.0
92.653023 160.0
92.699615 84.0
92.727524 104.0
92.747803 160.0
92.788292 32.0
92.806351 156.0
92.860924 140.0
92.880104 188.0
92.897369 188.0
92.951569 128.0
92.974113 240.0
92.987549 156.0
93.029373 76.0
93.069923 660.0
93.145844 172.0
93.165588 144.0
93.171219 104.0
93.189774 224.0
93.204254 208.0
93.237213 132.0
93.262199 136.0
93.28714 148.0
93.2994 128.0
93.322937 164.0
93.346794 172.0
93.383965 196.0
93.439957 164.0
93.496841 92.0
93.538177 176.0
93.575333 72.0
93.600792 128.0
93.614525 120.0
93.643158 116.0
93.659111 156.0
93.663994 44.0
93.679695 200.0
93.714432 192.0
93.795372 140.0
93.815964 164.0
93.843498 168.0
93.912994 32.0
93.930237 132.0
93.959435 308.0
93.986298 56.0
94.042366 348.0
94.073212 196.0
94.098244 160.0
94.115616 208.0
94.134926 420.0
94.163895 124.0
94.181984 224.0
94.20253 116.0
94.226982 212.0
94.257889 152.0
94.283676 184.0
94.318466 168.0
94.36293 144.0
94.380333 268.0
94.40432 108.0
94.436409 132.0
94.453033 140.0
94.465424 204.0
94.484772 212.0
94.506523 164.0
94.53701 152.0
94.56604 128.0
94.606689 164.0
94.634079 164.0
94.660904 88.0
94.682205 212.0
94.778847 144.0
94.812004 64.0
94.871872 320.0
94.912804 128.0
94.957405 128.0
95.048981 300.0
95.069931 160.0
95.095329 348.0
95.112625 156.0
95.128159 128.0
95.178635 124.0
95.198326 56.0
95.218796 176.0
95.253578 68.0
95.279228 156.0
95.30088 192.0
95.328987 208.0
95.386513 100.0
95.442894 160.0
95.460243 156.0
95.520683 108.0
95.586029 156.0
95.591995 324.0
95.629646 144.0
95.643272 104.0
95.683929 140.0
95.736725 148.0
95.773727 144.0
95.797104 124.0
95.82209 92.0
95.902321 132.0
95.925713 184.0
95.955132 172.0
95.974335 136.0
96.013451 184.0
96.042709 192.0
96.068062 228.0
96.140259 148.0
96.174454 168.0
96.195801 148.0
96.240776 156.0
96.257385 112.0
96.277084 176.0
96.303513 316.0
96.345276 136.0
96.371773 176.0
96.38826 384.0
96.427765 212.0
96.450508 164.0
96.458168 140.0
96.489998 72.0
96.511398 192.0
96.529793 148.0
96.564201 136.0
96.613098 176.0
96.644402 192.0
96.656769 112.0
96.675232 200.0
96.707512 96.0
96.744217 132.0
96.820618 176.0
96.837349 156.0
96.879601 88.0
96.912819 180.0
96.919075 128.0
96.943993 160.0
96.979271 156.0
97.028893 140.0
97.068474 248.0
97.094948 144.0
97.108673 260.0
97.123383 136.0
97.142021 92.0
97.171799 220.0
97.210342 160.0
97.228348 80.0
97.24601 116.0
97.273491 132.0
97.30098 188.0
97.31472 192.0
97.328461 168.0
97.349327 160.0
97.389343 156.0
97.405052 156.0
97.471855 124.0
97.497398 128.0
97.511154 84.0
97.548714 184.0
97.657272 88.0
97.694023 84.0
97.836792 292.0
97.906593 160.0
97.943512 188.0
97.999176 160.0
98.016907 100.0
98.038582 116.0
98.062653 112.0
98.108025 208.0
98.148972 172.0
98.18644 204.0
98.210106 200.0
98.228195 188.0
98.242859 172.0
98.280594 324.0
98.302444 164.0
98.354141 160.0
98.367958 84.0
98.401291 136.0
98.425919 124.0
98.448914 168.0
98.473381 216.0
98.529892 256.0
98.543724 152.0
98.597076 148.0
98.626724 188.0
98.6623 128.0
98.686028 172.0
98.734474 176.0
98.751289 216.0
98.788864 188.0
98.838036 108.0
98.895721 144.0
98.909576 236.0
98.963028 224.0
98.98877 120.0
99.030357 96.0
99.123466 148.0
99.13932 192.0
99.153191 200.0
99.192833 244.0
99.230499 116.0
99.244377 116.0
99.266922 140.0
99.3237 128.0
99.347504 148.0
99.389267 164.0
99.428856 48.0
99.483559 172.0
99.565842 144.0
99.627419 188.0
99.673111 272.0
99.730743 320.0
99.7705 168.0
99.802307 56.0
99.840096 224.0
99.856003 92.0
99.974205 216.0
100.013351 140.0
100.037071 48.0
100.06295 52.0
100.07888 152.0
100.09481 152.0
100.123924 116.0
100.149612 308.0
100.170486 144.0
100.214317 100.0
100.300011 152.0
100.345856 228.0
100.389725 188.0
100.417648 128.0
100.461525 60.0
100.479485 48.0
100.529366 168.0
100.567657 216.0
100.59922 120.0
100.659119 120.0
100.706497 116.0
100.799904 108.0
100.846909 168.0
100.888885 160.0
100.911674 260.0
100.934868 152.0
100.962563 176.0
100.997635 176.0
101.024872 220.0
101.046875 148.0
101.064606 116.0
101.081535 148.0
101.096901 128.0
101.128922 124.0
101.164314 224.0
101.218407 228.0
101.275078 168.0
101.295982 156.0
101.318062 124.0
101.356285 212.0
101.389282 184.0
101.41552 132.0
101.487503 128.0
101.525604 132.0
101.549667 152.0
101.577751 76.0
101.604912 200.0
101.652054 328.0
101.696136 112.0
101.736374 88.0
101.756355 240.0
101.782021 128.0
101.808563 144.0
101.832664 124.0
101.850739 164.0
101.866806 124.0
101.892921 64.0
101.90699 92.0
101.949577 144.0
101.991386 120.0
102.007469 112.0
102.027573 148.0
102.047722 1532.0
102.105453 224.0
102.136162 96.0
102.158287 156.0
102.190475 156.0
102.206573 248.0
102.242607 168.0
102.247574 268.0
102.284393 148.0
102.307793 160.0
102.329353 204.0
102.398361 352.0
102.462273 140.0
102.50769 200.0
102.526283 208.0
102.558998 140.0
102.628227 224.0
102.67997 168.0
102.69812 284.0
102.712242 132.0
102.738464 116.0
102.762695 352.0
102.782852 68.0
102.800117 324.0
102.819176 88.0
102.83989 196.0
102.855507 132.0
102.873672 204.0
102.929398 148.0
102.960213 404.0
102.978424 248.0
102.99617 156.0
103.013527 264.0
103.028557 364.0
103.055252 23884.0
103.107185 100.0
103.155693 196.0
103.198936 124.0
103.239716 200.0
103.301292 72.0
103.325302 204.0
103.338028 88.0
103.344955 124.0
103.375267 136.0
103.463196 168.0
103.478745 188.0
103.512878 204.0
103.536308 176.0
103.553062 312.0
103.595604 60.0
103.656326 204.0
103.683037 156.0
103.702065 140.0
103.726654 196.0
103.798271 144.0
103.849403 188.0
103.875343 184.0
103.8936 124.0
103.911858 184.0
103.92762 156.0
103.953835 132.0
103.984909 152.0
104.016235 120.0
104.024055 168.0
104.059113 2632.0
104.120934 100.0
104.143272 104.0
104.162865 124.0
104.205971 176.0
104.232666 116.0
104.248512 156.0
104.323921 200.0
104.342621 160.0
104.385818 128.0
104.409515 120.0
104.427299 156.0
104.466721 160.0
104.485161 164.0
104.518166 136.0
104.553642 128.0
104.571388 156.0
104.577271 88.0
104.623909 220.0
104.676849 128.0
104.698502 152.0
104.722939 84.0
104.736 80.0
104.751457 148.0
104.78067 288.0
104.816589 308.0
104.866959 140.0
104.911659 284.0
104.93895 248.0
104.981972 152.0
104.986923 196.0
104.999672 164.0
105.003571 340.0
105.034889 32588.0
105.070908 40332.0
105.109337 76.0
105.127884 32.0
105.161301 56.0
105.1772 172.0
105.202972 48.0
105.222534 168.0
105.242088 104.0
105.264442 192.0
105.290443 156.0
105.327927 68.0
105.34507 40.0
105.381065 148.0
105.40609 216.0
105.430298 160.0
105.473114 284.0
105.487518 124.0
105.504463 48.0
105.523743 80.0
105.542953 68.0
105.577171 100.0
105.624504 120.0
105.646812 132.0
105.694672 168.0
105.717316 112.0
105.733559 164.0
105.749931 120.0
105.787216 300.0
105.803146 40.0
105.843376 176.0
105.858849 148.0
105.876106 108.0
105.918625 316.0
105.943016 148.0
105.964188 76.0
105.98748 124.0
106.013474 76.0
106.037811 2664.0
106.074333 2924.0
106.097679 156.0
106.128906 72.0
106.144234 84.0
106.16787 116.0
106.198631 176.0
106.231453 180.0
106.25444 200.0
106.26899 120.0
106.321732 160.0
106.336098 164.0
106.380249 188.0
106.417671 92.0
106.423523 68.0
106.479813 244.0
106.535675 180.0
106.596909 88.0
106.628929 48.0
106.686829 164.0
106.703789 116.0
106.741051 300.0
106.756432 192.0
106.774841 100.0
106.849915 76.0
106.864204 320.0
106.888214 132.0
106.907417 252.0
106.945747 308.0
106.961807 208.0
106.977394 388.0
107.007973 160.0
107.050133 6368.0
107.084213 844.0
107.133049 96.0
107.16069 168.0
107.193657 164.0
107.229431 144.0
107.255486 276.0
107.290527 172.0
107.308784 220.0
107.337944 84.0
107.375069 140.0
107.401878 92.0
107.416321 144.0
107.453453 92.0
107.484627 180.0
107.511162 128.0
107.534164 128.0
107.599396 196.0
107.624756 132.0
107.643341 36.0
107.657799 136.0
107.683922 160.0
107.732155 196.0
107.806488 192.0
107.813789 188.0
107.837532 220.0
107.897476 108.0
107.920433 156.0
107.955376 232.0
107.984497 192.0
108.021561 148.0
108.056519 660.0
108.084679 484.0
108.131218 112.0
108.146492 148.0
108.159653 212.0
108.193321 160.0
108.212624 208.0
108.253365 148.0
108.284424 148.0
108.30307 116.0
108.356926 168.0
108.377647 128.0
108.409416 240.0
108.448776 148.0
108.477119 64.0
108.5009 176.0
108.51651 172.0
108.533096 116.0
108.557983 112.0
108.579964 216.0
108.610756 144.0
108.630577 128.0
108.672066 172.0
108.688667 116.0
108.719788 292.0
108.740547 324.0
108.780884 304.0
108.833961 92.0
108.863815 116.0
108.882896 120.0
108.930931 144.0
108.950264 172.0
108.979347 208.0
109.00013 248.0
109.014351 200.0
109.062347 188.0
109.143555 72.0
109.186584 248.0
109.200615 236.0
109.230904 160.0
109.247002 172.0
109.276665 148.0
109.30397 364.0
109.370552 104.0
109.387527 148.0
109.438538 140.0
109.461182 204.0
109.482742 116.0
109.505188 144.0
109.557724 84.0
109.61647 184.0
109.670502 164.0
109.689003 188.0
109.736053 168.0
109.766144 120.0
109.787872 76.0
109.826622 128.0
109.876686 72.0
109.897552 192.0
109.965279 120.0
109.996017 176.0
110.028053 144.0
110.085388 216.0
110.118828 168.0
110.154716 192.0
110.188042 148.0
110.204475 116.0
110.250443 172.0
110.280838 172.0
110.317329 192.0
110.331963 112.0
110.352867 84.0
110.410423 168.0
110.451157 144.0
110.532745 112.0
110.58297 188.0
110.603905 56.0
110.689743 236.0
110.723244 148.0
110.78743 212.0
110.806755 180.0
110.830078 232.0
110.844749 96.0
110.859413 120.0
110.874084 68.0
110.901329 72.0
110.928581 208.0
110.966316 180.0
110.989197 136.0
111.021584 200.0
111.051033 160.0
111.067719 180.0
111.115219 100.0
111.142494 104.0
111.165581 152.0
111.180267 128.0
111.239037 96.0
111.257927 108.0
111.285225 212.0
111.325119 52.0
111.35582 200.0
111.394424 176.0
111.410706 80.0
111.446106 300.0
111.465858 268.0
111.505791 236.0
111.5205 136.0
111.554131 168.0
111.592621 108.0
111.640335 152.0
111.676086 212.0
111.696167 140.0
111.716057 180.0
111.802322 176.0
111.855103 200.0
111.869614 136.0
111.895874 152.0
111.925819 132.0
111.984512 268.0
112.002335 144.0
112.026695 188.0
112.090691 196.0
112.11821 140.0
112.134163 116.0
112.173012 152.0
112.201317 140.0
112.219391 80.0
112.242218 224.0
112.328026 180.0
112.358047 240.0
112.418785 172.0
112.438347 140.0
112.454178 160.0
112.497055 176.0
112.525314 72.0
112.555855 232.0
112.588661 128.0
112.62162 244.0
112.67041 124.0
112.744843 112.0
112.794029 180.0
112.820274 84.0
112.840111 48.0
112.865479 96.0
112.886627 128.0
112.931038 188.0
112.964882 132.0
112.979691 188.0
113.036819 116.0
113.085487 112.0
113.106659 52.0
113.136292 120.0
113.152489 96.0
113.170166 220.0
113.187103 200.0
113.209694 304.0
113.247528 128.0
113.305649 160.0
113.350204 124.0
113.366669 172.0
113.384483 160.0
113.409546 104.0
113.428627 176.0
113.447701 180.0
113.48056 96.0
113.497025 152.0
113.53186 172.0
113.554405 272.0
113.621597 160.0
113.636452 112.0
113.652321 100.0
113.683128 64.0
113.712845 148.0
113.744682 128.0
113.768028 56.0
113.816864 144.0
113.848717 120.0
113.875374 148.0
113.903938 84.0
113.918808 60.0
113.969933 188.0
114.044174 92.0
114.06543 300.0
114.099442 136.0
114.116447 80.0
114.229919 324.0
114.267342 152.0
114.336914 180.0
114.404655 128.0
114.444107 128.0
114.465401 92.0
114.498512 196.0
114.534691 180.0
114.568726 172.0
114.629906 192.0
114.739738 200.0
114.761009 188.0
114.798836 84.0
114.904472 200.0
114.951408 164.0
114.981384 260.0
114.994659 180.0
115.013306 156.0
115.032516 132.0
115.054626 3792.0
115.10083 124.0
115.125443 120.0
115.149948 56.0
115.169174 76.0
115.18924 172.0
115.216164 124.0
115.233261 128.0
115.294708 148.0
115.315491 248.0
115.354889 140.0
115.376091 120.0
115.395691 80.0
115.414276 208.0
115.457703 232.0
115.487312 104.0
115.51973 108.0
115.557747 176.0
115.592468 112.0
115.628281 208.0
115.65239 140.0
115.673798 100.0
115.71019 188.0
115.73629 148.0
115.796082 180.0
115.819405 128.0
115.858795 196.0
115.894905 148.0
115.919411 88.0
115.943138 224.0
115.98439 56.0
116.010117 188.0
116.06076 1128.0
116.098022 104.0
116.113037 160.0
116.145081 204.0
116.179527 168.0
116.205933 188.0
116.243179 96.0
116.258919 92.0
116.325447 180.0
116.354012 236.0
116.376976 208.0
116.400597 192.0
116.415627 200.0
116.475677 204.0
116.501541 180.0
116.546654 116.0
116.576736 140.0
116.608307 180.0
116.639069 172.0
116.654114 52.0
116.684212 172.0
116.712158 156.0
116.746567 128.0
116.772369 152.0
116.869339 160.0
116.894997 128.0
116.916519 144.0
116.93158 124.0
117.020691 244.0
117.070839 4216.0
117.151711 136.0
117.206703 124.0
117.263252 224.0
117.327065 200.0
117.355949 136.0
117.381821 148.0
117.405243 172.0
117.430435 184.0
117.452591 184.0
117.496132 112.0
117.511238 72.0
117.584602 108.0
117.636139 32.0
117.662308 212.0
117.716286 204.0
117.76812 68.0
117.810089 112.0
117.858856 152.0
117.896957 340.0
117.979233 252.0
118.043297 972.0
118.074463 672.0
118.125389 156.0
118.157219 132.0
118.183182 196.0
118.245132 376.0
118.270416 96.0
118.299614 208.0
118.317932 124.0
118.334686 124.0
118.374725 140.0
118.390656 208.0
118.427803 184.0
118.462463 144.0
118.502129 180.0
118.577301 48.0
118.602333 112.0
118.622818 212.0
118.694359 336.0
118.724724 96.0
118.750931 188.0
118.770264 132.0
118.802803 80.0
118.840065 92.0
118.867889 68.0
118.911293 152.0
118.938171 148.0
118.972069 172.0
118.991608 192.0
119.017715 172.0
119.049934 6852.0
119.087463 780.0
119.148529 316.0
119.200127 164.0
119.252281 44.0
119.282715 104.0
119.304184 132.0
119.343826 148.0
119.389244 120.0
119.434921 48.0
119.45015 168.0
119.478424 40.0
119.678658 136.0
119.694908 300.0
119.713493 176.0
119.74646 176.0
119.764954 148.0
119.790527 152.0
119.808937 176.0
119.817261 144.0
119.839836 160.0
119.854507 116.0
119.870651 140.0
119.890747 120.0
119.908607 292.0
119.935722 156.0
119.966232 160.0
120.017937 284.0
120.057838 42152.0
120.113701 96.0
120.162514 172.0
120.18869 56.0
120.221428 68.0
120.25634 148.0
120.273804 128.0
120.310913 288.0
120.341927 156.0
120.376068 140.0
120.422516 92.0
120.445251 128.0
120.462318 168.0
120.483437 168.0
120.518394 180.0
120.546387 168.0
120.573021 228.0
120.616737 196.0
120.645157 136.0
120.685974 244.0
120.706375 60.0
120.784294 108.0
120.813545 188.0
120.837608 164.0
120.901993 220.0
120.950844 172.0
121.029999 272.0
121.064262 11328.0
121.130722 148.0
121.154823 152.0
121.184464 188.0
121.231743 116.0
121.261482 112.0
121.32489 148.0
121.34861 88.0
121.364616 124.0
121.425789 336.0
121.466248 200.0
121.511276 172.0
121.602371 168.0
121.676125 80.0
121.69783 156.0
121.72049 148.0
121.749466 84.0
121.771423 88.0
121.820877 156.0
121.837822 176.0
121.860382 192.0
121.914223 116.0
121.950073 116.0
121.991661 156.0
122.008736 160.0
122.03672 336.0
122.072929 13016.0
122.188194 156.0
122.226479 180.0
122.242783 156.0
122.277946 120.0
122.32473 56.0
122.362938 152.0
122.39817 144.0
122.414185 132.0
122.459831 228.0
122.495491 136.0
122.598625 156.0
122.629478 136.0
122.645897 168.0
122.702225 92.0
122.785416 88.0
122.814316 168.0
122.838188 116.0
122.912933 120.0
122.931618 144.0
122.964714 104.0
123.019897 152.0
123.045052 780.0
123.075256 1112.0
123.163429 52.0
123.187729 172.0
123.288628 180.0
123.303497 176.0
123.333565 168.0
123.388832 188.0
123.42028 160.0
123.451874 164.0
123.460495 68.0
123.530365 176.0
123.56797 96.0
123.614655 80.0
123.652054 140.0
123.681435 176.0
123.705742 172.0
123.728043 248.0
123.801842 140.0
123.82621 172.0
123.888977 172.0
123.938454 284.0
123.989624 104.0
124.005501 68.0
124.026367 148.0
124.049103 140.0
124.076759 120.0
124.10849 272.0
124.186005 136.0
124.20153 64.0
124.253754 192.0
124.285835 164.0
124.321335 180.0
124.339088 96.0
124.361237 176.0
124.408775 172.0
124.472282 116.0
124.498932 120.0
124.543785 176.0
124.563339 180.0
124.71666 340.0
124.745712 220.0
124.770012 116.0
124.816704 120.0
124.856003 160.0
124.91935 156.0
124.983734 128.0
125.034706 80.0
125.085167 236.0
125.107819 52.0
125.114265 172.0
125.1371 136.0
125.248863 172.0
125.317505 224.0
125.337242 84.0
125.408875 128.0
125.455681 108.0
125.486893 84.0
125.50547 168.0
125.531487 240.0
125.566765 176.0
125.636314 140.0
125.667549 72.0
125.693695 128.0
125.747887 188.0
125.783592 120.0
125.812614 108.0
125.86248 84.0
125.884064 152.0
125.930962 156.0
125.951065 48.0
125.971169 104.0
126.002441 208.0
126.038193 168.0
126.092926 132.0
126.143234 364.0
126.160217 160.0
126.187134 92.0
126.232658 124.0
126.270676 164.0
126.306465 128.0
126.328178 172.0
126.389244 84.0
126.448563 196.0
126.492188 116.0
126.528008 136.0
126.55571 204.0
126.591766 176.0
126.608612 192.0
126.628769 96.0
126.700447 48.0
126.740776 256.0
126.832657 104.0
126.854912 260.0
126.905739 208.0
126.941544 92.0
126.991852 108.0
127.018768 136.0
127.050835 144.0
127.101776 108.0
127.143028 168.0
127.166855 168.0
127.193794 268.0
127.26046 184.0
127.337486 160.0
127.362198 140.0
127.378525 356.0
127.463295 132.0
127.480873 204.0
127.495216 212.0
127.528786 152.0
127.541298 124.0
127.62513 204.0
127.656609 240.0
127.674599 140.0
127.706085 196.0
127.751076 172.0
127.805069 72.0
127.836571 116.0
127.856911 212.0
127.897339 156.0
127.92263 220.0
127.93174 184.0
127.936981 144.0
127.961494 132.0
128.017349 168.0
128.039185 308.0
128.062073 236.0
128.142593 224.0
128.173401 124.0
128.221664 40.0
128.32933 272.0
128.354065 180.0
128.373428 148.0
128.411041 132.0
128.429092 196.0
128.478714 180.0
128.541885 152.0
128.575729 220.0
128.607117 128.0
128.627655 196.0
128.643448 136.0
128.663773 156.0
128.717957 32.0
128.74054 168.0
128.758606 232.0
128.776672 172.0
128.817322 76.0
128.912216 164.0
128.932556 224.0
128.975983 148.0
129.032013 200.0
129.055862 80.0
129.072662 976.0
129.114471 152.0
129.15126 136.0
129.15918 68.0
129.16687 152.0
129.174377 164.0
129.20163 172.0
129.222 128.0
129.254303 144.0
129.389465 244.0
129.42569 68.0
129.536667 96.0
129.552521 128.0
129.579712 160.0
129.674881 168.0
129.71579 220.0
129.804153 156.0
129.845703 184.0
129.872131 108.0
129.890289 96.0
129.92514 152.0
129.944733 172.0
129.978317 100.0
130.005081 140.0
130.040878 780.0
130.065002 176.0
130.085434 172.0
130.125824 116.0
130.155807 152.0
130.216644 172.0
130.236481 284.0
130.281738 232.0
130.335251 92.0
130.364792 156.0
130.3862 152.0
130.434204 184.0
130.471863 192.0
130.514816 148.0
130.573944 180.0
130.639908 160.0
130.712708 68.0
130.736893 160.0
130.760498 68.0
130.795486 172.0
130.836807 124.0
130.867493 116.0
130.899368 300.0
130.917877 156.0
130.935806 188.0
130.968719 168.0
130.994263 168.0
131.049347 6468.0
131.07814 240.0
131.110703 192.0
131.161179 148.0
131.184158 124.0
131.200119 52.0
131.24353 184.0
131.261673 32.0
131.279922 120.0
131.311844 124.0
131.327805 172.0
131.35965 92.0
131.389404 68.0
131.42894 172.0
131.472839 52.0
131.546021 324.0
131.571976 56.0
131.604156 164.0
131.657181 176.0
131.68425 168.0
131.711273 148.0
131.784378 124.0
131.832352 164.0
131.905502 96.0
131.942078 168.0
131.960358 184.0
131.982346 124.0
132.019592 328.0
132.055511 3032.0
132.078339 200.0
132.104904 136.0
132.125031 92.0
132.17308 184.0
132.219101 132.0
132.252182 248.0
132.290939 144.0
132.32338 228.0
132.332642 212.0
132.390533 52.0
132.408859 140.0
132.43634 120.0
132.516525 56.0
132.548599 120.0
132.564636 120.0
132.621933 76.0
132.637985 180.0
132.730606 188.0
132.780136 228.0
132.823715 92.0
132.840942 216.0
132.911591 268.0
132.942734 164.0
132.99411 184.0
133.028046 1464.0
133.06546 4424.0
133.126663 64.0
133.170303 80.0
133.193268 148.0
133.210617 128.0
133.259888 96.0
133.301819 176.0
133.346191 240.0
133.397781 164.0
133.435898 96.0
133.459854 272.0
133.480301 112.0
133.501236 176.0
133.541977 160.0
133.593246 312.0
133.634201 340.0
133.683594 196.0
133.726883 196.0
133.765823 152.0
133.785782 36.0
133.821213 144.0
133.851013 216.0
133.873978 172.0
133.89476 124.0
133.926132 116.0
133.998413 152.0
134.016846 164.0
134.035019 904.0
134.072845 708.0
134.135895 280.0
134.16301 164.0
134.215073 192.0
134.251968 128.0
134.281952 120.0
134.325775 248.0
134.348846 60.0
134.36499 100.0
134.399597 180.0
134.457245 208.0
134.503448 152.0
134.528839 176.0
134.544998 128.0
134.57753 168.0
134.62384 192.0
134.633377 160.0
134.688934 84.0
134.722824 136.0
134.787231 168.0
134.795639 156.0
134.835495 152.0
134.863297 464.0
134.895813 116.0
134.932602 584.0
134.967804 196.0
134.986633 208.0
135.016693 332.0
135.044968 4948.0
135.081757 109744.0
135.149445 188.0
135.181229 196.0
135.212082 140.0
135.265228 412.0
135.297073 244.0
135.318741 232.0
135.364807 140.0
135.414764 236.0
135.460938 684.0
135.49437 276.0
135.538712 128.0
135.592285 132.0
135.605499 124.0
135.625259 216.0
135.649933 88.0
135.676346 124.0
135.74202 124.0
135.763428 68.0
135.773422 40.0
135.799942 60.0
135.815399 132.0
135.841766 268.0
135.878036 60.0
135.933289 84.0
135.938812 104.0
135.944504 56.0
135.948898 156.0
135.957626 148.0
136.001251 124.0
136.021149 168.0
136.050629 1128.0
136.084167 12920.0
136.152237 340.0
136.186249 176.0
136.243973 64.0
136.257492 72.0
136.293213 88.0
136.318726 184.0
136.350922 180.0
136.372513 144.0
136.407516 68.0
136.507492 124.0
136.552185 72.0
136.579758 272.0
136.629089 100.0
136.709564 60.0
136.730484 56.0
136.740005 160.0
136.773178 100.0
136.804047 52.0
136.858337 144.0
136.882492 256.0
136.907013 140.0
136.916092 96.0
136.921997 196.0
136.975754 92.0
136.983551 96.0
137.004898 184.0
137.057388 644.0
137.085434 1084.0
137.13736 88.0
137.142593 120.0
137.161087 144.0
137.222748 84.0
137.231995 132.0
137.275452 172.0
137.309937 132.0
137.335907 152.0
137.363205 116.0
137.384354 116.0
137.447433 200.0
137.479431 120.0
137.509232 216.0
137.593002 192.0
137.693665 108.0
137.737366 256.0
137.782272 176.0
137.87709 116.0
137.953033 132.0
137.983414 100.0
138.027847 76.0
138.070969 304.0
138.097992 144.0
138.130753 116.0
138.163498 204.0
138.205658 200.0
138.250061 120.0
138.317947 84.0
138.343689 112.0
138.360077 160.0
138.448105 188.0
138.486526 68.0
138.514633 112.0
138.54628 140.0
138.563828 108.0
138.622406 72.0
138.721405 148.0
138.772415 112.0
138.791168 64.0
138.838074 160.0
138.985855 76.0
139.016098 180.0
139.039825 116.0
139.070343 64.0
139.136063 72.0
139.17897 44.0
139.238205 120.0
139.260513 68.0
139.302795 172.0
139.373276 116.0
139.413223 84.0
139.433716 196.0
139.477188 112.0
139.495483 156.0
139.530746 100.0
139.591827 164.0
139.702423 164.0
139.77301 128.0
139.822433 140.0
139.876556 124.0
139.979553 140.0
140.015472 176.0
140.047226 100.0
140.081421 192.0
140.147385 280.0
140.196869 100.0
140.251083 240.0
140.304214 192.0
140.331802 180.0
140.368958 56.0
140.439713 204.0
140.534073 276.0
140.555298 96.0
140.583618 156.0
140.611938 76.0
140.654572 124.0
140.71344 236.0
140.734497 144.0
140.778976 148.0
140.847015 184.0
140.874023 88.0
140.895844 156.0
140.919922 404.0
140.949631 140.0
140.973267 164.0
141.001617 48.0
141.06308 44.0
141.084351 172.0
141.110352 92.0
141.148743 168.0
141.169464 116.0
141.196457 160.0
141.256973 164.0
141.301926 112.0
141.362885 152.0
141.396576 176.0
141.488892 44.0
141.510193 184.0
141.550446 140.0
141.578873 148.0
141.594986 144.0
141.645187 148.0
141.68782 104.0
141.720337 160.0
141.74942 204.0
141.770111 176.0
141.810089 160.0
141.845551 196.0
141.950455 104.0
141.981049 260.0
142.005463 76.0
142.070587 88.0
142.122269 132.0
142.147797 88.0
142.183395 128.0
142.237991 88.0
142.299026 112.0
142.331116 176.0
142.351944 128.0
142.380142 160.0
142.387161 140.0
142.518219 160.0
142.566879 252.0
142.608521 236.0
142.667938 144.0
142.69426 224.0
142.739273 120.0
142.82489 136.0
142.870087 96.0
142.910522 200.0
142.934326 44.0
142.981918 132.0
143.014053 176.0
143.084274 120.0
143.27002 176.0
143.286697 96.0
143.334351 148.0
143.355652 188.0
143.382019 104.0
143.420303 172.0
143.439224 252.0
143.458282 140.0
143.49881 140.0
143.515503 160.0
143.606125 124.0
143.663376 132.0
143.684845 168.0
143.744492 68.0
143.788101 192.0
143.851898 104.0
143.879578 200.0
143.982239 144.0
144.057297 224.0
144.073654 60.0
144.105042 96.0
144.166962 160.0
144.217346 160.0
144.25798 52.0
144.29863 120.0
144.336884 156.0
144.361252 420.0
144.433701 188.0
144.451675 104.0
144.509094 164.0
144.583267 160.0
144.598526 120.0
144.664658 108.0
144.686203 132.0
144.71254 160.0
144.746063 180.0
144.76564 136.0
144.856232 196.0
144.876709 188.0
144.897995 168.0
144.95314 116.0
144.978424 88.0
145.00238 48.0
145.021774 136.0
145.064835 1320.0
145.095871 176.0
145.112656 48.0
145.141418 116.0
145.162994 144.0
145.220566 236.0
145.246948 36.0
145.263733 116.0
145.302124 208.0
145.514603 104.0
145.544525 48.0
145.597351 152.0
145.69104 28.0
145.748688 168.0
145.791122 116.0
145.897705 64.0
145.914536 176.0
145.936172 188.0
145.979645 100.0
146.003494 164.0
146.029953 132.0
146.072235 852.0
146.127548 168.0
146.263351 176.0
146.285004 176.0
146.366867 104.0
146.434296 132.0
146.475235 176.0
146.51619 168.0
146.559555 124.0
146.607758 136.0
146.651672 144.0
146.67041 180.0
146.7565 252.0
146.776169 148.0
146.85849 196.0
146.940506 188.0
146.996002 324.0
147.044479 4252.0
147.081177 16472.0
147.158707 68.0
147.178421 104.0
147.210846 64.0
147.254303 60.0
147.290543 56.0
147.334015 144.0
147.367935 116.0
147.423416 72.0
147.442749 64.0
147.462082 152.0
147.507126 120.0
147.534607 100.0
147.582962 164.0
147.611969 108.0
147.640991 240.0
147.667267 376.0
147.713547 196.0
147.777405 244.0
147.813416 160.0
147.847702 164.0
147.873901 88.0
147.889404 236.0
147.910431 120.0
147.982178 112.0
148.004593 168.0
148.05275 25128.0
148.085846 3276.0
148.111115 336.0
148.129211 84.0
148.151993 160.0
148.183807 64.0
148.248611 108.0
148.268005 36.0
148.31163 80.0
148.36496 96.0
148.400696 168.0
148.461273 172.0
148.486206 52.0
148.527435 88.0
148.561386 132.0
148.626846 120.0
148.646545 128.0
148.681946 216.0
148.70668 160.0
148.738525 64.0
148.75795 196.0
148.791931 160.0
148.828354 56.0
148.863907 112.0
148.917694 224.0
148.983841 360.0
149.012314 108.0
149.059921 12276.0
149.101105 256.0
149.118652 184.0
149.140213 64.0
149.161713 144.0
149.187836 112.0
149.246124 68.0
149.283768 288.0
149.304642 144.0
149.3517 80.0
149.401932 48.0
149.479172 48.0
149.523041 180.0
149.564972 72.0
149.618866 180.0
149.657471 160.0
149.689133 188.0
149.732956 168.0
149.767059 148.0
149.795074 104.0
149.877838 180.0
149.930298 176.0
149.96637 164.0
149.99054 380.0
150.018036 176.0
150.036942 212.0
150.06813 20144.0
150.132355 208.0
150.154678 148.0
150.192032 80.0
150.212875 248.0
150.21994 216.0
150.248581 184.0
150.300125 124.0
150.334808 164.0
150.375946 208.0
150.415283 100.0
150.442001 152.0
150.496216 72.0
150.628098 84.0
150.647629 136.0
150.69986 156.0
150.74292 104.0
150.766434 116.0
150.78801 168.0
150.850464 64.0
150.87941 100.0
150.919876 68.0
150.958038 32.0
151.022263 196.0
151.072632 1872.0
151.136597 160.0
151.165955 204.0
151.200226 152.0
151.23938 40.0
151.258804 128.0
151.283188 152.0
151.310379 116.0
151.356079 156.0
151.427902 156.0
151.444641 48.0
151.533936 132.0
151.555298 100.0
151.582245 44.0
151.650864 208.0
151.687637 84.0
151.721954 128.0
151.802856 84.0
151.903412 52.0
151.925491 76.0
151.969894 124.0
152.028549 104.0
152.078598 316.0
152.138992 208.0
152.156189 80.0
152.17337 120.0
152.251938 196.0
152.270981 200.0
152.310898 156.0
152.409164 120.0
152.533188 120.0
152.623001 96.0
152.704147 184.0
152.745972 124.0
152.76564 104.0
152.785324 160.0
152.8862 164.0
152.921204 320.0
152.989578 172.0
153.016663 188.0
153.045502 212.0
153.078827 208.0
153.129929 136.0
153.189041 124.0
153.223541 176.0
153.265427 188.0
153.373856 100.0
153.39357 48.0
153.48233 68.0
153.506989 188.0
153.526718 172.0
153.585907 56.0
153.640182 120.0
153.693512 200.0
153.765839 240.0
153.807465 192.0
153.868668 116.0
153.892929 148.0
153.980804 128.0
154.025269 116.0
154.096909 132.0
154.116669 148.0
154.133728 124.0
154.158676 180.0
154.17598 152.0
154.24765 124.0
154.282257 40.0
154.331711 152.0
154.401566 232.0
154.423203 36.0
154.447937 128.0
154.47287 100.0
154.497406 112.0
154.529297 144.0
154.57164 80.0
154.626083 128.0
154.663925 164.0
154.671188 212.0
154.69043 156.0
154.75975 76.0
154.79866 196.0
154.836517 140.0
154.868774 148.0
154.900375 836.0
154.949142 196.0
154.992584 108.0
155.049973 172.0
155.16983 124.0
155.189743 140.0
155.210709 136.0
155.239639 120.0
155.339676 220.0
155.402634 188.0
155.50592 108.0
155.575409 172.0
155.605209 136.0
155.657349 148.0
155.674728 160.0
155.774078 112.0
155.796432 148.0
155.873886 92.0
155.891632 140.0
155.93309 116.0
155.962921 112.0
156.017609 132.0
156.069824 132.0
156.144333 112.0
156.194168 236.0
156.245239 184.0
156.286209 108.0
156.306122 208.0
156.547577 92.0
156.565002 152.0
156.594757 148.0
156.63475 196.0
156.69606 176.0
156.719452 104.0
156.769287 184.0
156.853348 164.0
156.898895 204.0
156.928818 132.0
157.028564 164.0
157.086212 212.0
157.105881 148.0
157.170746 124.0
157.215668 76.0
157.252579 116.0
157.280563 104.0
157.303024 116.0
157.325485 120.0
157.36293 136.0
157.392899 88.0
157.424225 168.0
157.439102 184.0
157.477814 64.0
157.522491 184.0
157.620209 156.0
157.680176 268.0
157.712662 28.0
157.745163 148.0
157.775162 180.0
157.797668 60.0
157.915192 168.0
157.980225 108.0
158.010239 48.0
158.04277 192.0
158.082809 220.0
158.172409 184.0
158.210449 152.0
158.258026 144.0
158.289093 176.0
158.38324 176.0
158.498474 172.0
158.548599 152.0
158.636322 76.0
158.706512 80.0
158.784729 344.0
158.833069 312.0
158.944031 156.0
159.017715 148.0
159.069717 248.0
159.08786 152.0
159.110458 160.0
159.143097 140.0
159.160675 188.0
159.234436 188.0
159.349045 92.0
159.371658 148.0
159.40683 100.0
159.455811 220.0
159.479721 116.0
159.509872 244.0
159.571365 192.0
159.628036 88.0
159.663254 172.0
159.690918 100.0
159.722565 116.0
159.77713 132.0
159.806625 48.0
159.859467 32.0
160.012283 152.0
160.026489 168.0
160.093582 204.0
160.151505 216.0
160.479111 88.0
160.499283 108.0
160.529541 164.0
160.559799 108.0
160.658173 160.0
160.685928 188.0
160.707947 132.0
160.774231 156.0
160.817139 128.0
160.913071 96.0
160.968613 116.0
161.029221 72.0
161.059448 584.0
161.095413 156.0
161.158051 172.0
161.236389 132.0
161.294525 60.0
161.342545 140.0
161.431046 56.0
161.476562 116.0
161.504395 196.0
161.554977 88.0
161.617004 140.0
161.671371 116.0
161.734634 156.0
161.770081 284.0
161.884018 100.0
161.943161 256.0
161.982788 216.0
162.003052 136.0
162.06752 1676.0
162.139023 216.0
162.145782 156.0
162.259003 124.0
162.302109 192.0
162.343292 168.0
162.375656 140.0
162.395935 120.0
162.456818 76.0
162.482193 148.0
162.527451 148.0
162.578613 144.0
162.606903 132.0
162.660431 168.0
162.682663 232.0
162.702271 156.0
162.763138 196.0
162.780304 148.0
162.828476 292.0
162.870926 148.0
162.917099 216.0
162.956589 284.0
162.972961 204.0
163.000061 216.0
163.014069 524.0
163.035339 360.0
163.040573 292.0
163.076492 105992.0
163.122223 240.0
163.141327 292.0
163.17807 120.0
163.210083 156.0
163.237671 120.0
163.264328 52.0
163.284073 280.0
163.315598 104.0
163.338272 152.0
163.3694 236.0
163.417725 168.0
163.466064 52.0
163.493546 640.0
163.515045 92.0
163.542969 116.0
163.569046 196.0
163.609802 104.0
163.61879 136.0
163.687103 60.0
163.737289 52.0
163.774124 68.0
163.816833 56.0
163.881073 144.0
163.90184 76.0
163.921097 52.0
163.95697 136.0
163.987549 96.0
164.010483 40.0
164.046814 32.0
164.079407 8984.0
164.143051 60.0
164.232315 204.0
164.259201 236.0
164.292557 228.0
164.31395 152.0
164.333908 68.0
164.393738 148.0
164.436661 44.0
164.475998 120.0
164.502792 128.0
164.528702 160.0
164.57428 60.0
164.644333 64.0
164.68544 68.0
164.734253 56.0
164.75209 96.0
164.799866 112.0
164.845032 40.0
164.882095 192.0
164.914398 56.0
164.994385 120.0
165.015518 112.0
165.052078 104.0
165.080826 1600.0
165.110901 64.0
165.153549 148.0
165.200714 136.0
165.246918 136.0
165.297211 116.0
165.306335 80.0
165.318863 164.0
165.355377 172.0
165.389587 160.0
165.446091 56.0
165.471695 96.0
165.518768 52.0
165.585648 200.0
165.605881 100.0
165.75087 144.0
165.779053 68.0
165.924088 100.0
166.000488 232.0
166.04567 128.0
166.081589 92.0
166.119186 148.0
166.207291 224.0
166.232956 116.0
166.274002 176.0
166.308487 84.0
166.338181 32.0
166.366409 28.0
166.39209 96.0
166.420319 96.0
166.47168 40.0
166.496414 248.0
166.537491 96.0
166.636063 112.0
166.690033 160.0
166.764557 172.0
166.810822 160.0
166.846817 144.0
166.880234 68.0
166.916229 88.0
167.019104 120.0
167.042053 204.0
167.102997 248.0
167.160538 176.0
167.201767 120.0
167.273834 120.0
167.345932 148.0
167.366516 184.0
167.430893 40.0
167.536499 92.0
167.588028 176.0
167.606064 196.0
167.706573 108.0
167.735336 128.0
167.753616 128.0
167.794907 180.0
167.817429 144.0
167.969574 148.0
167.995377 156.0
168.095993 164.0
168.137283 132.0
168.199219 124.0
168.230209 140.0
168.287003 176.0
168.317978 172.0
168.478119 400.0
168.534958 160.0
168.723907 196.0
168.873596 140.0
168.997772 100.0
169.088333 108.0
169.1427 36.0
169.194733 160.0
169.220352 120.0
169.24855 184.0
169.318756 108.0
169.349838 92.0
169.378326 200.0
169.419022 180.0
169.479355 124.0
169.505157 96.0
169.559692 88.0
169.598572 144.0
169.624496 96.0
169.769684 116.0
169.793015 144.0
169.850082 112.0
169.898056 132.0
169.935684 152.0
169.966827 144.0
170.060242 164.0
170.195236 156.0
170.249771 220.0
170.366653 68.0
170.449799 192.0
170.467987 176.0
170.529282 116.0
170.586884 128.0
170.648865 116.0
170.82515 188.0
170.876205 48.0
170.932632 116.0
171.016724 40.0
171.042755 156.0
171.084396 76.0
171.144287 160.0
171.193283 156.0
171.225006 160.0
171.253662 52.0
171.2771 108.0
171.303146 136.0
171.321381 84.0
171.365967 140.0
171.495972 60.0
171.587204 188.0
171.631531 120.0
171.774963 148.0
171.948151 172.0
172.01503 244.0
172.056793 116.0
172.095963 128.0
172.150803 304.0
172.17691 116.0
172.223923 196.0
172.294449 200.0
172.338867 100.0
172.359146 168.0
172.432938 72.0
172.473282 196.0
172.539749 144.0
172.59079 136.0
172.609924 148.0
172.625275 56.0
172.655151 76.0
172.686539 68.0
172.728394 164.0
172.751938 124.0
172.853973 68.0
172.976974 104.0
173.076721 124.0
173.14978 140.0
173.178589 32.0
173.212646 60.0
173.24408 172.0
173.280762 132.0
173.314819 140.0
173.377701 96.0
173.409149 76.0
173.435364 92.0
173.503311 128.0
173.52417 132.0
173.547913 176.0
173.585693 192.0
173.666107 132.0
173.773605 128.0
173.889771 176.0
173.933731 168.0
173.99411 100.0
174.02037 136.0
174.037216 96.0
174.16217 344.0
174.19632 144.0
174.256744 96.0
174.290894 132.0
174.325455 132.0
174.387939 164.0
174.419678 104.0
174.519363 152.0
174.569534 128.0
174.684555 76.0
174.714188 68.0
174.755722 208.0
174.806274 152.0
174.877335 124.0
174.944672 240.0
174.979996 128.0
175.014221 76.0
175.193314 164.0
175.253357 184.0
175.283478 144.0
175.325058 128.0
175.372498 168.0
175.433121 164.0
175.471466 164.0
175.559677 92.0
175.593964 140.0
175.615067 96.0
175.649353 108.0
175.741684 100.0
175.815567 52.0
175.841965 92.0
175.881546 180.0
176.084854 180.0
176.153534 88.0
176.179092 136.0
176.198441 100.0
176.227493 164.0
176.253922 168.0
176.296204 56.0
176.335846 104.0
176.370209 176.0
176.388702 156.0
176.470657 96.0
176.497101 392.0
176.570465 124.0
176.581482 92.0
176.617645 124.0
176.642548 164.0
176.719269 132.0
176.79071 104.0
176.83342 180.0
176.862183 124.0
177.002487 204.0
177.031616 180.0
177.09082 2888.0
177.142853 80.0
177.20842 184.0
177.248825 128.0
177.272675 52.0
177.305237 140.0
177.376038 48.0
177.402542 172.0
177.439667 120.0
177.463531 96.0
177.482086 60.0
177.545288 192.0
177.576706 192.0
177.634766 196.0
177.684357 164.0
177.736725 108.0
177.758224 112.0
177.77652 172.0
177.838089 80.0
177.880035 112.0
177.900879 192.0
177.910202 164.0
177.918289 88.0
177.962326 388.0
178.00618 292.0
178.028625 120.0
178.061783 160.0
178.099701 82956.0
178.182327 48.0
178.206268 76.0
178.224274 84.0
178.236282 56.0
178.242264 92.0
178.273117 76.0
178.301514 148.0
178.311508 48.0
178.31633 120.0
178.347519 52.0
178.374451 124.0
178.44455 56.0
178.509705 52.0
178.537064 248.0
178.565186 60.0
178.618057 164.0
178.641418 92.0
178.667725 136.0
178.703873 32.0
178.733139 64.0
178.7771 64.0
178.802322 48.0
178.842255 52.0
178.877808 144.0
178.886276 52.0
178.904938 196.0
178.938583 560.0
178.962952 256.0
179.02861 96.0
179.059433 132.0
179.102158 6472.0
179.147736 144.0
179.17244 148.0
179.192551 72.0
179.275772 72.0
179.339676 132.0
179.385803 80.0
179.406967 40.0
179.53624 84.0
179.588287 340.0
179.611969 164.0
179.644012 76.0
179.684311 96.0
179.729675 68.0
179.873779 88.0
179.944916 68.0
179.951752 116.0
179.983246 60.0
180.009872 156.0
180.072708 72.0
180.105743 760.0
180.148834 156.0
180.207611 40.0
180.227722 136.0
180.247681 148.0
180.285095 52.0
180.306473 100.0
180.32785 192.0
180.349243 40.0
180.383987 112.0
180.425049 212.0
180.477554 180.0
180.499054 360.0
180.544571 132.0
180.568481 104.0
180.600571 60.0
180.632675 140.0
180.686172 104.0
180.707581 60.0
180.741364 140.0
180.846725 220.0
180.915024 248.0
180.969864 196.0
181.005829 136.0
181.109116 156.0
181.232346 136.0
181.269867 88.0
181.339539 152.0
181.454803 128.0
181.473572 140.0
181.497131 148.0
181.532562 176.0
181.637161 200.0
181.690216 128.0
181.862549 244.0
181.900131 88.0
181.99678 372.0
182.085388 196.0
182.353745 100.0
182.421127 84.0
182.44545 132.0
182.51535 48.0
182.566437 76.0
182.722443 132.0
182.865067 96.0
182.886597 140.0
183.005051 192.0
183.177399 144.0
183.27977 208.0
183.379486 104.0
183.519669 124.0
183.568192 172.0
183.724625 92.0
183.778595 172.0
183.827164 76.0
183.882614 248.0
183.904907 148.0
183.939835 160.0
183.983704 116.0
184.110611 212.0
184.191635 84.0
184.32402 108.0
184.369949 200.0
184.518616 116.0
184.645706 132.0
184.670044 28.0
184.705215 92.0
184.94873 144.0
185.255112 164.0
185.406448 172.0
185.444168 188.0
185.501312 216.0
185.55011 104.0
185.616348 196.0
185.663986 188.0
185.74939 136.0
185.78334 96.0
185.935287 108.0
185.963882 292.0
186.003784 100.0
186.035721 120.0
186.073715 100.0
186.187759 144.0
186.25708 108.0
186.288254 108.0
186.32901 168.0
186.394226 112.0
186.46759 128.0
186.505646 184.0
186.742188 136.0
186.796585 140.0
186.850998 176.0
186.905411 52.0
187.101379 120.0
187.123154 36.0
187.226196 128.0
187.251129 128.0
187.284027 160.0
187.471802 100.0
187.670792 160.0
187.711685 188.0
187.754227 160.0
187.856247 180.0
187.898651 132.0
187.968094 148.0
187.992661 116.0
188.022675 64.0
188.071808 148.0
188.172806 88.0
188.322998 92.0
188.454117 172.0
188.578156 184.0
188.724716 136.0
188.754791 172.0
188.80127 84.0
188.872391 112.0
188.921631 108.0
188.970871 128.0
189.009171 116.0
189.028336 76.0
189.135056 72.0
189.219925 112.0
189.27742 112.0
189.318497 148.0
189.502014 144.0
189.589706 76.0
189.647263 112.0
189.680145 240.0
189.707214 128.0
189.773361 116.0
189.800781 124.0
189.833679 44.0
189.858368 72.0
189.883041 144.0
189.904984 172.0
189.968079 92.0
190.000992 56.0
190.063339 188.0
190.088791 164.0
190.14917 132.0
190.215042 132.0
190.335846 124.0
190.371536 48.0
190.448441 160.0
190.539078 92.0
190.731445 40.0
190.811172 168.0
190.830414 132.0
190.933395 132.0
191.127457 132.0
191.196259 108.0
191.245789 252.0
191.336639 164.0
191.456207 132.0
191.72226 176.0
191.931763 112.0
191.956573 84.0
192.224136 164.0
192.280472 200.0
192.326248 148.0
192.353851 140.0
192.566467 60.0
192.652084 136.0
192.685242 152.0
192.754318 156.0
192.903564 128.0
192.953323 220.0
193.03212 120.0
193.058395 140.0
193.091583 84.0
193.301819 220.0
193.401459 140.0
193.441223 196.0
193.478958 220.0
193.573105 96.0
193.595245 128.0
193.661728 128.0
193.728027 132.0
193.737854 124.0
193.76976 180.0
193.834503 120.0
193.883362 132.0
193.919388 144.0
193.938797 232.0
193.988678 100.0
194.021957 52.0
194.155045 100.0
194.18158 184.0
194.226028 148.0
194.474106 116.0
194.621231 188.0
194.643448 92.0
194.771194 132.0
194.82991 232.0
194.873978 136.0
194.898987 40.0
194.927979 156.0
194.974014 180.0
195.01474 104.0
195.106674 116.0
195.135239 132.0
195.285156 140.0
195.324341 80.0
195.418915 96.0
195.494049 204.0
195.680542 132.0
195.744583 420.0
195.778 192.0
195.814209 232.0
195.861557 32.0
195.895874 132.0
196.053787 112.0
196.090027 100.0
196.129044 68.0
196.156921 128.0
196.221039 108.0
196.299103 144.0
196.346512 244.0
196.441345 160.0
196.48877 100.0
196.547363 44.0
196.583633 104.0
196.647827 88.0
196.706436 128.0
196.725983 220.0
196.860001 112.0
196.921432 92.0
196.940994 128.0
197.027588 180.0
197.077866 112.0
197.099686 124.0
197.189651 160.0
197.225983 100.0
197.311096 184.0
197.424484 124.0
197.483215 140.0
197.533569 84.0
197.567139 128.0
197.65947 220.0
197.679047 132.0
197.928177 52.0
197.978577 92.0
198.037399 120.0
198.079407 140.0
198.155045 132.0
198.247513 108.0
198.283493 148.0
198.505417 152.0
198.564301 200.0
198.653107 188.0
198.749451 68.0
198.791534 184.0
198.847656 148.0
198.889771 164.0
198.95433 88.0
199.018906 68.0
199.080673 136.0
199.117188 112.0
199.181778 48.0
199.236694 200.0
199.412186 132.0
199.448715 196.0
199.499313 92.0
199.639908 56.0
199.710205 104.0
199.786163 172.0
199.831177 212.0
199.864929 164.0
199.929657 88.0
199.995392 208.0
200.041168 188.0
200.092911 88.0
200.180191 164.0
200.257599 224.0
200.29567 148.0
200.453445 60.0
200.583344 132.0
200.79454 116.0
200.819931 76.0
200.848129 184.0
200.876343 104.0
200.924301 172.0
200.983551 112.0
201.006119 228.0
201.025879 160.0
201.237579 68.0
201.364639 112.0
201.395706 64.0
201.661301 148.0
201.766861 152.0
201.828094 140.0
201.856369 160.0
201.915756 152.0
202.11377 168.0
202.167343 116.0
202.235458 124.0
202.323212 68.0
202.480286 148.0
202.542252 124.0
202.609238 112.0
202.662186 128.0
202.728241 68.0
202.748077 140.0
202.892639 92.0
202.932327 180.0
202.972031 224.0
203.070084 152.0
203.128006 116.0
203.295395 144.0
203.447098 116.0
203.508286 88.0
203.533844 208.0
203.6772 100.0
203.820724 124.0
203.850067 148.0
203.877563 328.0
203.908829 104.0
203.94249 1076.0
203.972794 244.0
204.023041 132.0
204.056641 140.0
204.100555 192.0
204.139099 116.0
204.164688 152.0
204.227264 124.0
204.318283 116.0
204.395096 124.0
204.463394 184.0
204.493286 156.0
204.656891 160.0
204.696838 60.0
204.736694 92.0
204.78511 168.0
204.887665 48.0
204.949371 412.0
204.993088 120.0
205.043045 188.0
205.078583 128.0
205.158386 128.0
205.184052 80.0
205.223969 112.0
205.252472 104.0
205.275284 160.0
205.341003 96.0
205.37796 92.0
205.417892 160.0
205.460678 36.0
205.577667 96.0
205.613342 120.0
205.657578 92.0
205.826324 180.0
205.917389 128.0
205.954529 176.0
206.001648 140.0
206.054504 36.0
206.077362 172.0
206.156815 124.0
206.194519 132.0
206.260254 72.0
206.397476 148.0
206.623428 124.0
206.683731 156.0
206.732162 216.0
206.792267 144.0
206.820877 112.0
206.855225 164.0
206.898178 144.0
206.930298 404.0
206.97261 156.0
207.018433 172.0
207.10434 112.0
207.133102 100.0
207.167358 160.0
207.200409 120.0
207.396606 100.0
207.416672 104.0
207.51413 132.0
207.600159 112.0
207.737823 128.0
207.844482 160.0
207.953873 176.0
207.998947 112.0
208.037766 276.0
208.110916 100.0
208.236786 144.0
208.349289 92.0
208.385986 160.0
208.40538 260.0
208.513077 212.0
208.559052 140.0
208.610794 316.0
208.691391 116.0
208.722931 120.0
208.751678 124.0
208.820694 104.0
208.916809 576.0
209.043961 128.0
209.147507 232.0
209.235062 108.0
209.258087 100.0
209.317047 152.0
209.483597 92.0
209.586441 132.0
209.65271 108.0
209.773773 76.0
209.891968 144.0
209.915039 164.0
209.966949 100.0
210.050598 160.0
210.310287 116.0
210.399765 80.0
210.49794 196.0
210.535477 124.0
210.576553 124.0
210.648117 196.0
210.887939 40.0
210.911819 76.0
210.939606 184.0
210.994888 136.0
211.205994 156.0
211.534897 96.0
211.605942 76.0
211.62561 200.0
211.761703 92.0
211.805161 160.0
211.877579 96.0
211.921036 120.0
212.005066 64.0
212.054337 124.0
212.161575 48.0
212.202164 116.0
212.242767 188.0
212.350052 168.0
212.605362 172.0
212.68663 216.0
212.788223 72.0
212.85791 84.0
212.942123 184.0
212.974075 112.0
213.003128 124.0
213.03508 124.0
213.072845 112.0
213.093857 132.0
213.128052 120.0
213.282257 124.0
213.343109 116.0
213.375092 232.0
213.46814 152.0
213.61647 140.0
213.700607 160.0
213.778168 148.0
213.860886 92.0
213.919098 132.0
214.099625 192.0
214.14621 132.0
214.178253 48.0
214.201553 148.0
214.373459 124.0
214.396332 160.0
214.437561 120.0
214.536667 60.0
214.583313 96.0
214.644547 124.0
214.663712 144.0
214.787445 368.0
214.901337 104.0
214.924561 116.0
215.087997 156.0
215.12886 232.0
215.25441 156.0
215.412109 72.0
215.447647 124.0
215.546509 76.0
215.721863 188.0
215.766907 148.0
215.825638 164.0
215.876831 92.0
216.122528 92.0
216.175201 68.0
216.216171 140.0
216.368378 204.0
216.459152 76.0
216.52533 100.0
216.564575 152.0
216.784531 156.0
216.895676 108.0
216.95079 7268.0
217.019714 148.0
217.040833 116.0
217.112625 136.0
217.139023 40.0
217.317963 184.0
217.338501 48.0
217.364914 124.0
217.449524 144.0
217.491104 36.0
217.549805 180.0
217.723038 96.0
217.802338 420.0
217.837585 164.0
217.891129 144.0
217.955536 308.0
218.025635 176.0
218.149078 120.0
218.196121 124.0
218.246094 128.0
218.427719 232.0
218.468643 180.0
218.591125 120.0
218.618515 92.0
218.689819 156.0
218.728577 148.0
218.769775 140.0
218.813934 140.0
218.861053 212.0
218.9272 96.0
218.966965 940.0
219.05542 144.0
219.105499 184.0
219.126129 136.0
219.167374 84.0
219.235153 44.0
219.276413 128.0
219.317673 152.0
219.450333 92.0
219.493576 160.0
219.541733 88.0
219.639069 180.0
219.664368 180.0
219.695114 76.0
219.765915 72.0
219.848541 116.0
219.872147 48.0
219.935669 168.0
219.968887 248.0
220.025635 132.0
220.071747 148.0
220.11087 120.0
220.170319 120.0
220.20871 204.0
220.285507 56.0
220.323914 136.0
220.445267 216.0
220.48642 228.0
220.539322 120.0
220.575089 140.0
220.6017 132.0
220.684479 164.0
220.725876 136.0
220.81163 104.0
220.841202 144.0
220.888535 116.0
220.9422 728.0
220.995041 208.0
221.080841 80.0
221.148911 92.0
221.215988 188.0
221.28212 156.0
221.302856 112.0
221.525574 176.0
221.578293 100.0
221.615295 180.0
221.676071 148.0
221.724136 108.0
221.797577 180.0
221.880585 156.0
221.919342 108.0
222.034775 160.0
222.076294 100.0
222.352203 92.0
222.515472 52.0
222.598602 188.0
222.700455 164.0
222.949142 196.0
223.103699 136.0
223.294006 256.0
223.371338 196.0
223.399384 116.0
223.427856 104.0
223.573654 152.0
223.676849 140.0
223.716522 56.0
223.805832 112.0
223.904099 80.0
223.936859 76.0
224.070908 56.0
224.097717 144.0
224.207977 64.0
224.267578 160.0
224.303345 132.0
224.4375 144.0
224.493729 136.0
224.526962 80.0
224.622406 44.0
224.650894 160.0
224.71489 60.0
224.770157 168.0
224.861099 168.0
225.019318 136.0
225.040207 148.0
225.064102 332.0
225.207443 96.0
225.355988 160.0
225.363602 116.0
225.434494 108.0
225.470352 148.0
225.568985 160.0
225.63475 180.0
225.682587 60.0
225.808182 168.0
225.900909 256.0
225.930832 164.0
225.95372 92.0
226.08342 152.0
226.137299 328.0
226.157547 120.0
226.236069 168.0
226.340866 136.0
226.406738 144.0
226.463638 104.0
226.510696 152.0
226.540253 188.0
226.598434 92.0
226.688324 228.0
226.730286 144.0
226.757263 148.0
226.826202 156.0
226.952103 92.0
226.982086 92.0
227.282043 128.0
227.327988 172.0
227.429092 152.0
227.504135 140.0
227.591202 304.0
227.654266 180.0
227.726334 84.0
227.82547 136.0
227.873535 120.0
227.924606 184.0
227.975693 132.0
228.116959 176.0
228.276306 88.0
228.378555 112.0
228.483841 144.0
228.586136 120.0
228.796829 76.0
228.847168 144.0
228.905212 116.0
228.946274 176.0
229.076889 204.0
229.170273 152.0
229.288818 212.0
229.336029 116.0
229.411377 112.0
229.465652 108.0
229.504379 156.0
229.550064 160.0
229.577209 160.0
229.598312 128.0
229.673721 140.0
229.758179 88.0
229.799545 148.0
229.847076 208.0
229.949661 264.0
230.078445 200.0
230.238113 252.0
230.262695 144.0
230.289246 116.0
230.383087 180.0
230.410278 136.0
230.440491 60.0
230.564377 40.0
230.667145 320.0
230.709473 112.0
230.742722 72.0
230.86409 144.0
230.927734 160.0
230.978409 260.0
231.014893 196.0
231.036072 172.0
231.064316 152.0
231.120789 120.0
231.311447 200.0
231.378052 60.0
231.432541 220.0
231.453079 176.0
231.481522 152.0
231.568817 92.0
231.680893 104.0
231.702087 88.0
231.723297 172.0
231.768753 132.0
231.859055 140.0
231.938522 19300.0
232.002121 88.0
232.129456 156.0
232.167191 100.0
232.244705 44.0
232.28743 92.0
232.376816 80.0
232.414581 152.0
232.441895 28.0
232.469208 104.0
232.496521 68.0
232.534882 168.0
232.575424 132.0
232.627029 100.0
232.67009 108.0
232.718109 260.0
232.742401 348.0
232.812241 96.0
232.852249 248.0
232.900314 48.0
232.946259 11792.0
233.000565 176.0
233.085632 112.0
233.113068 152.0
233.150909 112.0
233.18895 72.0
233.310547 96.0
233.432159 52.0
233.581192 52.0
233.635941 124.0
233.694916 160.0
233.723862 80.0
233.767609 160.0
233.952042 2436.0
234.013321 92.0
234.055954 120.0
234.171677 128.0
234.19603 196.0
234.272186 176.0
234.333115 52.0
234.38797 44.0
234.43808 72.0
234.482437 100.0
234.515961 140.0
234.560959 188.0
234.607132 92.0
234.65123 128.0
234.759857 164.0
234.779831 44.0
234.866592 140.0
234.924744 220.0
234.957733 396.0
235.134033 232.0
235.183914 88.0
235.381592 128.0
235.432816 92.0
235.47702 164.0
235.498688 128.0
235.602264 84.0
235.641983 56.0
235.724472 144.0
235.842087 116.0
235.89563 56.0
235.933411 208.0
235.985474 188.0
236.028351 156.0
236.109665 156.0
236.152481 136.0
236.220535 160.0
236.363556 208.0
236.400284 160.0
236.498093 96.0
236.519638 200.0
236.544128 44.0
236.565552 224.0
236.688019 140.0
236.721695 64.0
236.762619 188.0
236.925323 100.0
237.067017 204.0
237.150604 104.0
237.187378 40.0
237.2211 176.0
237.390671 104.0
237.437424 188.0
237.481735 176.0
237.509338 128.0
237.561493 148.0
237.746262 196.0
237.93895 40.0
237.963516 140.0
238.178162 76.0
238.274109 124.0
238.30751 176.0
238.372025 152.0
238.408905 100.0
238.544144 156.0
238.654816 172.0
238.74707 132.0
238.771667 36.0
238.894699 88.0
238.950073 120.0
239.099792 140.0
239.131622 168.0
239.202087 144.0
239.425476 120.0
239.593521 168.0
239.744492 132.0
239.814148 100.0
239.870865 144.0
239.914017 56.0
239.969391 224.0
240.53096 112.0
240.774887 48.0
240.808853 168.0
240.852097 92.0
240.929321 160.0
241.044449 244.0
241.07251 104.0
241.198166 180.0
241.4888 100.0
241.563049 56.0
241.640381 108.0
241.662033 92.0
241.997849 136.0
242.095398 68.0
242.256454 128.0
242.389679 100.0
242.467148 152.0
242.504333 124.0
242.653137 136.0
242.792664 212.0
242.832977 124.0
242.871368 80.0
243.04393 120.0
243.074951 184.0
243.181534 152.0
243.222977 184.0
243.2798 124.0
243.369827 144.0
243.394669 32.0
243.537521 52.0
243.621399 120.0
243.68042 108.0
243.763062 208.0
243.804718 108.0
243.865616 168.0
243.888626 216.0
243.935257 88.0
244.01297 120.0
244.118683 112.0
244.180893 116.0
244.373749 108.0
244.395523 160.0
244.491364 160.0
244.647614 80.0
244.692947 164.0
244.722336 256.0
244.853119 124.0
244.878036 104.0
244.951797 484.0
245.014221 156.0
245.186478 60.0
245.220749 128.0
245.256332 116.0
245.281143 124.0
245.463913 84.0
245.490738 128.0
245.539368 124.0
245.591782 128.0
245.617798 128.0
245.657288 120.0
245.682236 88.0
245.746246 116.0
245.782074 72.0
245.820877 156.0
245.844482 156.0
245.912537 160.0
245.934906 144.0
246.056305 204.0
246.100449 228.0
246.159775 204.0
246.188446 132.0
246.213867 124.0
246.270752 124.0
246.347168 40.0
246.380753 80.0
246.425278 144.0
246.453384 112.0
246.495743 72.0
246.54216 332.0
246.580521 304.0
246.62767 172.0
246.638809 132.0
246.689987 296.0
246.735153 340.0
246.769363 132.0
246.806396 272.0
246.839523 328.0
246.887054 260.0
246.922058 440.0
246.962616 121096.0
247.019119 228.0
247.055176 152.0
247.077164 228.0
247.118896 140.0
247.164276 120.0
247.199677 144.0
247.224411 80.0
247.24971 128.0
247.27832 100.0
247.340698 196.0
247.39476 160.0
247.420258 140.0
247.475708 448.0
247.528259 152.0
247.554977 84.0
247.586929 140.0
247.609619 172.0
247.678421 164.0
247.729706 48.0
247.811295 172.0
247.858612 156.0
247.964645 9480.0
248.03418 120.0
248.074539 32.0
248.12709 236.0
248.159195 68.0
248.21402 88.0
248.240005 124.0
248.283524 196.0
248.327789 120.0
248.358932 92.0
248.391968 176.0
248.463043 68.0
248.502106 144.0
248.535568 144.0
248.609085 112.0
248.636887 152.0
248.727005 72.0
248.774094 80.0
248.940689 1648.0
248.976593 6024.0
249.022797 136.0
249.092392 76.0
249.180527 76.0
249.244385 168.0
249.262466 132.0
249.298615 100.0
249.336319 108.0
249.379868 112.0
249.426422 108.0
249.461517 120.0
249.494919 96.0
249.545822 80.0
249.591934 100.0
249.618073 128.0
249.65831 164.0
249.694717 168.0
249.724655 108.0
249.746613 80.0
249.787384 92.0
249.848801 240.0
249.879898 124.0
249.885956 116.0
249.943039 672.0
249.981888 396.0
250.075348 132.0
250.12262 152.0
250.1604 144.0
250.249603 272.0
250.328934 136.0
250.337936 72.0
250.521606 68.0
250.550888 84.0
250.588699 32.0
250.71463 120.0
250.754425 228.0
250.80928 100.0
250.840805 176.0
250.889053 144.0
250.941681 164.0
250.984711 132.0
251.023666 124.0
251.048889 92.0
251.13089 128.0
251.163391 184.0
251.209747 116.0
251.257065 132.0
251.417984 40.0
251.461273 140.0
251.547394 124.0
251.648422 316.0
251.730515 56.0
251.755783 188.0
251.799988 84.0
251.845367 208.0
252.01796 136.0
252.090637 92.0
252.144348 112.0
252.175964 52.0
252.207565 152.0
252.239166 236.0
252.264465 180.0
252.296082 68.0
252.615463 124.0
252.686615 180.0
252.754669 92.0
252.830627 44.0
252.908447 156.0
253.05275 92.0
253.197861 132.0
253.37207 100.0
253.42276 60.0
253.454453 132.0
253.517822 168.0
253.540009 92.0
253.644592 60.0
253.702148 128.0
253.72702 100.0
253.968018 44.0
254.209122 88.0
254.269424 160.0
254.332901 192.0
254.424957 180.0
254.516312 124.0
254.560181 136.0
254.609116 84.0
254.663559 140.0
254.688522 132.0
254.736176 140.0
255.111145 40.0
255.184265 196.0
255.235138 60.0
255.279648 36.0
255.311447 232.0
255.384598 152.0
255.7155 184.0
255.925598 84.0
255.98291 28.0
256.027496 112.0
256.37793 120.0
256.482697 188.0
256.537292 168.0
256.673767 168.0
256.709442 128.0
256.821075 32.0
256.945862 924.0
257.232697 140.0
257.286957 144.0
257.369965 68.0
257.654236 80.0
257.703827 168.0
257.778839 124.0
257.807587 140.0
257.845612 120.0
257.857666 212.0
257.862823 296.0
257.922638 84.0
257.951416 324.0
258.130463 40.0
258.166382 156.0
258.315948 112.0
258.37674 116.0
258.418335 152.0
258.485535 284.0
258.543121 148.0
258.63913 128.0
258.754364 184.0
258.963806 708.0
259.015594 84.0
259.041809 196.0
259.161133 92.0
259.244446 168.0
259.436768 180.0
259.504089 132.0
259.536133 140.0
259.760651 80.0
259.786285 96.0
259.83078 232.0
259.931519 304.0
259.961517 252.0
260.032196 144.0
260.235352 152.0
260.277039 88.0
260.366333 224.0
260.531158 136.0
260.585693 124.0
260.762421 68.0
260.800995 100.0
260.944183 192.0
260.981018 144.0
261.077484 88.0
261.131897 144.0
261.174347 228.0
261.199707 144.0
261.257599 116.0
261.325165 128.0
261.347687 100.0
261.392731 148.0
261.534332 148.0
261.688843 168.0
261.830536 116.0
261.947815 2300.0
262.00769 96.0
262.039917 72.0
262.117249 100.0
262.217133 112.0
262.255829 84.0
262.281616 92.0
262.3573 108.0
262.65564 72.0
262.71048 72.0
262.891144 120.0
262.955414 848.0
263.06543 88.0
263.184906 108.0
263.41095 100.0
263.562805 68.0
263.639221 160.0
263.704987 88.0
263.849121 224.0
263.963165 2004.0
264.037994 88.0
264.170624 120.0
264.415527 168.0
264.529816 84.0
264.623688 72.0
264.707886 124.0
264.911926 128.0
264.970276 2624.0
265.014709 192.0
265.096588 32.0
265.248932 108.0
265.333191 52.0
265.434265 120.0
265.521271 96.0
265.667236 96.0
265.905884 160.0
265.942963 140.0
265.978363 380.0
266.111847 144.0
266.154053 76.0
266.24823 160.0
266.290436 84.0
266.387878 144.0
266.410645 72.0
266.45285 152.0
266.501587 40.0
266.826019 156.0
266.982697 152.0
267.005463 96.0
267.06073 148.0
267.14856 140.0
267.190857 96.0
267.312836 180.0
267.379578 120.0
267.421906 152.0
267.509766 140.0
267.558594 48.0
267.714142 136.0
267.747467 164.0
268.008057 172.0
268.060181 184.0
268.154694 124.0
268.216644 128.0
268.242706 68.0
268.28183 172.0
268.568787 52.0
268.797302 80.0
268.804291 144.0
268.947266 192.0
269.045197 112.0
269.296631 116.0
269.355408 100.0
269.63736 152.0
269.675934 232.0
269.835266 148.0
270.009094 188.0
270.081055 100.0
270.143219 120.0
270.175415 104.0
270.203674 192.0
270.303528 180.0
270.385345 56.0
270.562103 108.0
270.60791 92.0
270.794586 56.0
270.843719 92.0
271.017334 88.0
271.104401 232.0
271.113861 132.0
271.127014 160.0
271.22052 60.0
271.289368 68.0
271.312286 92.0
271.368042 60.0
271.561523 244.0
271.634705 176.0
271.725525 148.0
272.080505 120.0
272.125916 180.0
272.152191 52.0
272.318176 148.0
272.40506 128.0
272.45105 120.0
272.579193 72.0
272.615356 152.0
272.6745 124.0
272.7659 188.0
272.78775 120.0
272.815826 136.0
272.978943 160.0
273.069031 80.0
273.128235 188.0
273.180847 136.0
273.228027 96.0
273.258179 136.0
273.309174 124.0
273.384277 160.0
273.417755 124.0
273.562592 120.0
273.591583 144.0
273.620483 136.0
273.71402 120.0
273.77002 156.0
273.813232 128.0
273.878693 148.0
273.911621 56.0
273.937988 80.0
273.981537 72.0
274.021759 300.0
274.086029 124.0
274.122498 72.0
274.159363 148.0
274.201569 112.0
274.235718 248.0
274.246674 88.0
274.256775 176.0
274.292969 132.0
274.311096 124.0
274.356415 156.0
274.40976 104.0
274.448822 188.0
274.478485 140.0
274.50882 196.0
274.581299 160.0
274.611755 116.0
274.626129 52.0
274.642609 104.0
274.647369 132.0
274.706055 148.0
274.737762 244.0
274.770294 272.0
274.810364 212.0
274.835846 160.0
274.88623 132.0
274.957611 132228.0
275.038788 132.0
275.051971 132.0
275.080994 272.0
275.146088 116.0
275.196075 312.0
275.255035 52.0
275.291351 272.0
275.303986 152.0
275.36261 120.0
275.418457 88.0
275.460052 72.0
275.502289 768.0
275.568024 136.0
275.629028 128.0
275.68692 264.0
275.746155 52.0
275.782501 88.0
275.812256 152.0
275.833954 64.0
275.868195 52.0
275.873657 76.0
275.903412 132.0
275.959778 11944.0
276.063324 88.0
276.098419 248.0
276.159637 340.0
276.25061 132.0
276.285126 96.0
276.347168 88.0
276.416656 196.0
276.442078 136.0
276.489014 276.0
276.516602 224.0
276.549744 236.0
276.590149 104.0
276.617432 188.0
276.660156 376.0
276.701569 144.0
276.740173 128.0
276.773712 528.0
276.859131 160.0
276.884918 136.0
276.930389 420.0
276.973022 120392.0
277.076691 96.0
277.110107 64.0
277.164185 156.0
277.187714 132.0
277.210144 116.0
277.284393 148.0
277.376129 132.0
277.41095 132.0
277.436401 68.0
277.483673 44.0
277.518921 584.0
277.576813 56.0
277.611877 192.0
277.653107 188.0
277.712982 148.0
277.741272 116.0
277.756287 104.0
277.811859 112.0
277.886414 188.0
277.924316 100.0
277.976105 8784.0
278.057587 120.0
278.100342 184.0
278.128296 140.0
278.190216 100.0
278.247253 64.0
278.337677 108.0
278.404449 168.0
278.450226 148.0
278.508118 84.0
278.552429 88.0
278.595764 52.0
278.631989 44.0
278.675293 72.0
278.736755 160.0
278.778503 124.0
278.831665 60.0
278.876007 164.0
278.917297 76.0
278.975861 704.0
279.025635 136.0
279.124207 56.0
279.173065 92.0
279.206848 108.0
279.272949 176.0
279.339661 48.0
279.361298 180.0
279.43399 140.0
279.458588 164.0
279.485809 196.0
279.536682 168.0
279.563293 160.0
279.636108 76.0
279.66925 148.0
279.678009 112.0
279.745789 116.0
279.792969 204.0
279.833893 156.0
279.892853 176.0
279.962891 168.0
280.022461 200.0
280.07077 84.0
280.11264 140.0
280.159271 60.0
280.256592 256.0
280.32785 104.0
280.40918 48.0
280.515839 128.0
280.559174 100.0
280.585846 28.0
280.682556 64.0
280.740601 108.0
280.869293 32.0
280.909332 100.0
281.00824 172.0
281.036102 68.0
281.062805 60.0
281.089508 56.0
281.182922 48.0
281.293091 92.0
281.443298 96.0
281.480042 72.0
281.525177 84.0
281.555176 128.0
281.697144 116.0
281.753906 132.0
281.834473 112.0
281.9711 76.0
282.402405 36.0
282.576355 156.0
282.629883 88.0
282.666687 228.0
283.048279 100.0
283.430145 136.0
283.741852 60.0
283.788788 96.0
283.854065 136.0
283.909485 144.0
283.983276 120.0
284.14093 148.0
284.208038 144.0
284.313263 112.0
284.344238 144.0
284.540314 72.0
284.684692 220.0
284.882843 64.0
284.906372 120.0
284.929901 48.0
284.963501 184.0
285.171844 68.0
285.252502 48.0
285.366791 116.0
285.524841 100.0
285.726654 100.0
285.767029 48.0
285.790588 92.0
285.975677 120.0
286.060974 236.0
286.191132 44.0
286.229736 172.0
286.271942 116.0
286.450439 136.0
286.760437 72.0
286.912109 76.0
287.077332 116.0
287.134644 120.0
287.25946 68.0
287.340424 144.0
287.414642 84.0
287.630646 228.0
287.765656 88.0
287.817535 88.0
287.856842 68.0
288.159943 92.0
288.168365 120.0
288.252045 124.0
288.353424 88.0
288.48288 136.0
288.532593 120.0
288.617096 76.0
288.694885 124.0
288.735931 84.0
288.902985 84.0
288.973724 396.0
289.03653 64.0
289.081818 236.0
289.197357 144.0
289.229431 168.0
289.254883 200.0
289.269531 104.0
289.281281 128.0
289.339569 168.0
289.403046 152.0
289.476593 36.0
289.527466 164.0
289.635742 104.0
289.665527 132.0
289.726501 112.0
289.734467 188.0
289.753357 240.0
289.83548 116.0
289.84024 268.0
289.872498 288.0
289.905365 176.0
289.98114 113412.0
290.086884 76.0
290.135101 224.0
290.192139 84.0
290.220612 152.0
290.258484 52.0
290.278931 88.0
290.349792 136.0
290.372589 144.0
290.408539 32.0
290.461914 52.0
290.49472 140.0
290.540314 244.0
290.587616 56.0
290.607849 176.0
290.671021 104.0
290.739838 44.0
290.804535 292.0
290.858093 184.0
290.914124 36.0
290.982727 7120.0
291.069214 132.0
291.102997 64.0
291.146729 104.0
291.244568 128.0
291.320557 76.0
291.326447 96.0
291.342224 64.0
291.351135 100.0
291.387299 148.0
291.46463 44.0
291.524475 40.0
291.575378 68.0
291.650208 132.0
291.715088 112.0
291.777771 64.0
291.853455 100.0
291.895172 64.0
291.982391 824.0
292.098602 124.0
292.127289 48.0
292.164703 84.0
292.19635 80.0
292.252594 48.0
292.322693 92.0
292.401031 196.0
292.423767 120.0
292.464478 88.0
292.544281 56.0
292.579895 76.0
292.649139 120.0
292.685455 180.0
292.70929 104.0
292.760559 132.0
292.807678 212.0
292.860718 120.0
292.869843 56.0
292.88147 128.0
292.906189 260.0
292.950531 120.0
292.963226 100.0
292.98526 152.0
293.017151 112.0
293.027313 108.0
293.039154 108.0
293.052246 92.0
293.136932 112.0
293.172546 84.0
293.269867 124.0
293.332764 92.0
293.435028 68.0
293.458893 84.0
293.714661 124.0
293.776062 88.0
293.834045 72.0
293.888641 120.0
293.946655 92.0
293.990448 224.0
294.039581 124.0
294.096802 100.0
294.168488 56.0
294.218109 164.0
294.2948 64.0
294.421143 28.0
294.520203 64.0
294.752502 60.0
294.7901 64.0
295.378143 88.0
295.518402 88.0
296.341675 88.0
296.398376 88.0
296.508026 108.0
296.962982 160.0
296.994873 136.0
297.135529 68.0
297.513184 80.0
297.743073 72.0
297.818634 48.0
298.512848 48.0
298.949738 68.0
299.039215 104.0
299.128693 104.0
299.378815 56.0
299.52124 92.0
299.572906 136.0
299.607361 84.0
299.717621 156.0
299.838226 108.0
299.948517 204.0
300.072632 112.0
300.207092 52.0
300.286407 68.0
300.517548 120.0
300.655548 56.0
300.734924 64.0
301.100922 60.0
301.190704 112.0
301.944183 40.0
302.117126 64.0
302.234741 40.0
302.522003 32.0
303.011169 176.0
303.145447 100.0
303.200897 132.0
303.259796 48.0
303.573029 104.0
303.617126 116.0
303.666962 120.0
303.793793 56.0
303.842346 104.0
303.960327 56.0
304.304657 136.0
304.35257 116.0
304.515778 84.0
304.585236 48.0
304.762421 200.0
304.832062 172.0
304.88559 192.0
304.95224 204.0
305.003998 29136.0
305.090057 132.0
305.137787 124.0
305.167114 64.0
305.211945 104.0
305.322876 92.0
305.374237 64.0
305.402069 112.0
305.436829 56.0
305.462219 96.0
305.492493 88.0
305.530762 56.0
305.599854 84.0
305.627808 76.0
305.697784 56.0
305.739532 92.0
305.798706 92.0
306.006683 2748.0
306.201752 68.0
306.285217 60.0
306.366272 96.0
306.425049 64.0
306.542603 124.0
306.624115 108.0
306.72171 96.0
306.965759 124.0
307.009613 432.0
307.190491 100.0
307.342468 68.0
307.380859 52.0
307.457611 152.0
307.586761 60.0
307.63913 80.0
307.72641 40.0
307.775269 48.0
307.820679 92.0
307.8591 80.0
308.096588 152.0
308.138519 104.0
308.250336 152.0
308.526459 52.0
309.800262 52.0
310.378571 64.0
310.72229 64.0
311.041626 52.0
312.045563 92.0
312.19751 48.0
312.549286 96.0
313.235809 88.0
313.51062 76.0
313.552887 68.0
314.01828 108.0
314.572235 28.0
314.794678 88.0
315.098419 68.0
315.250366 60.0
315.89032 120.0
316.860291 44.0
317.306854 108.0
317.799835 96.0
318.097931 144.0
318.563141 96.0
318.769196 100.0
319.978516 84.0
320.61969 68.0
321.373474 112.0
322.038574 564.0
322.289703 112.0
322.736481 52.0
322.833008 84.0
323.022583 164.0
323.133484 76.0
323.437653 80.0
324.236481 104.0
324.60202 96.0
325.315979 56.0
325.761261 96.0
326.070282 136.0
326.383026 112.0
327.354553 72.0
330.028351 48.0
330.632446 116.0
332.56781 52.0
333.363159 112.0
335.434052 100.0
335.802307 88.0
342.922455 108.0
343.154694 36.0
343.195251 128.0
345.370392 32.0
345.729279 76.0
346.762543 104.0
347.38916 152.0
347.47821 80.0
348.911743 76.0
351.291382 92.0
353.686615 60.0
353.73526 60.0
355.34671 100.0
356.702393 88.0
356.882843 32.0
358.814301 92.0
361.477112 48.0
361.632294 40.0
361.772339 76.0
361.848053 108.0
362.726929 112.0
364.913574 64.0
366.203583 52.0
366.302612 100.0
370.753784 120.0
370.784454 116.0
372.16156 72.0
372.272919 108.0
374.253204 44.0
376.655792 84.0
379.853119 68.0
379.938477 136.0
380.47403 56.0
384.85791 108.0
385.475067 64.0
385.928497 108.0
389.624359 88.0
392.615814 52.0
393.799805 56.0
395.741425 120.0
395.891907 84.0
397.683868 92.0
397.81485 52.0
398.366852 88.0
400.343567 76.0
401.279968 104.0
401.431488 100.0
401.595001 68.0
402.241394 100.0
402.468933 60.0
402.508881 116.0
403.663696 132.0
404.403809 68.0
404.856201 60.0
406.74057 52.0
408.713806 100.0
408.902954 68.0
409.361877 92.0
409.740509 76.0
411.147736 92.0
412.407806 100.0
415.075684 64.0
419.254578 72.0
420.098572 84.0
421.498932 60.0
422.337006 64.0
425.241943 60.0
425.38559 108.0
426.675537 36.0
427.506378 40.0
428.614075 60.0
429.075684 48.0
429.483948 128.0
429.554047 84.0
434.211365 60.0
435.25296 48.0
435.485504 108.0
435.576904 52.0
436.457947 48.0
443.123535 100.0
443.437836 164.0
448.532013 52.0
449.097015 96.0
449.887421 76.0
450.48999 48.0
450.815308 52.0
451.643951 100.0
452.634247 64.0
453.167938 72.0
453.273865 44.0
453.986023 64.0
457.19339 52.0
460.535889 64.0
461.647064 64.0
465.319122 32.0
467.029419 88.0
467.532806 100.0
468.816132 100.0
469.363586 88.0
472.516541 64.0
473.321594 84.0
474.417725 64.0
479.180847 72.0
480.519318 68.0
480.920776 84.0
483.783875 88.0
484.458282 40.0
486.207733 68.0
487.068298 124.0
487.09903 72.0
491.28537 72.0
491.475098 100.0
493.820801 60.0
494.183533 32.0
496.429291 148.0
497.463043 64.0
497.653961 36.0
499.79187 36.0
502.536499 68.0
503.264008 48.0
503.789124 104.0
504.57309 56.0
504.78772 52.0
505.431824 84.0
506.492859 92.0
508.111145 60.0
508.344452 72.0
512.161377 112.0
512.544312 52.0
514.84491 64.0
515.183655 84.0
516.019714 76.0
516.729797 48.0
517.779907 52.0
518.885559 108.0
519.674744 72.0
520.432678 92.0
521.995789 48.0
522.159485 52.0
522.200439 56.0
527.398193 88.0
530.043335 144.0
531.304199 84.0
531.629944 68.0
531.772217 116.0
535.546997 40.0
535.887878 76.0
537.829346 132.0
538.397217 80.0
538.72052 140.0
541.583801 76.0
542.403931 92.0
542.7099 64.0
546.062683 76.0
547.011902 52.0
549.710388 52.0
553.070679 36.0
558.94165 60.0
560.015015 92.0
561.471313 64.0
565.321472 108.0
566.742004 48.0
567.1922 60.0
568.619873 56.0
569.873474 36.0
570.633972 80.0
576.501587 60.0
576.797913 48.0
577.05603 68.0
579.11853 72.0
581.746216 48.0
582.135132 68.0
583.033447 44.0
583.518921 56.0
587.241211 40.0
593.222534 68.0
597.646851 44.0
598.91748 52.0
599.375427 116.0
600.701477 72.0
602.390442 104.0
606.123413 104.0
606.16748 68.0
607.246033 36.0
608.448242 96.0
611.697632 92.0
613.086548 96.0
613.899963 196.0
616.684387 80.0
618.069092 72.0
618.672852 32.0
619.26709 160.0
631.38092 88.0
632.621826 64.0
642.950867 52.0
650.238586 48.0
650.830139 216.0
651.30481 36.0
653.043091 36.0
655.573364 68.0
656.184998 96.0
657.225464 44.0
658.098267 92.0
660.305786 84.0
663.459961 112.0
664.029175 136.0
667.963562 156.0
669.167786 160.0
672.487549 96.0
675.272339 112.0
677.187317 56.0
677.570618 140.0
678.223572 220.0
684.645142 48.0
686.166687 220.0
687.387146 144.0
687.68988 152.0
691.656982 72.0
697.095642 80.0
698.720337 80.0
700.020386 188.0
704.202454 64.0
706.247925 160.0
709.568176 152.0
710.830505 44.0
713.326721 128.0
718.609619 124.0
720.985779 28.0
721.48822 76.0
723.301697 132.0
723.381958 48.0
723.483704 80.0
723.687134 68.0
724.833374 132.0
725.685608 120.0
727.762024 108.0
729.486511 228.0
730.631958 96.0
731.02478 32.0
734.931335 76.0
742.830017 124.0
744.55603 116.0
747.720093 64.0
751.643677 140.0
752.424194 172.0
754.970398 96.0
755.462708 144.0
757.909973 200.0
758.660767 60.0
760.410583 280.0
761.179138 148.0
762.799866 64.0
763.31665 168.0
764.99469 196.0
766.085022 104.0
766.663574 172.0
769.443542 84.0
770.343689 104.0
773.584229 188.0
775.201477 164.0
777.996887 124.0
778.968689 160.0
779.013123 172.0
781.197754 56.0
782.889771 36.0
784.427551 76.0
790.783936 72.0
790.901489 56.0
791.080566 204.0
793.96051 44.0
794.100769 184.0
794.628052 204.0
798.026001 56.0
798.093445 204.0
799.871216 144.0
802.50769 192.0
802.908081 144.0
803.771179 112.0
806.029785 212.0
807.635315 76.0
810.794556 192.0
812.382202 148.0
812.722595 108.0
815.437012 196.0
817.376221 164.0
817.905457 72.0
818.007935 160.0
818.298279 168.0
818.491821 108.0
818.765198 60.0
818.822144 236.0
818.992981 52.0
819.5 160.0
820.617126 44.0
820.848572 128.0
822.779358 124.0
824.030151 56.0
824.778748 140.0
824.881653 208.0
825.636353 176.0
826.625977 152.0
827.747925 212.0
830.602051 268.0
830.934753 172.0
832.961243 48.0
833.179504 88.0
833.70813 204.0
836.39978 192.0
837.050354 156.0
837.280701 120.0
838.398315 132.0
840.624268 136.0
841.091736 168.0
841.224487 60.0
841.836487 64.0
843.488892 168.0
843.546692 68.0
843.662292 180.0
843.725891 136.0
844.87677 180.0
845.623169 136.0
847.198181 144.0
847.545776 164.0
848.183289 52.0
849.122559 144.0
850.258667 212.0
850.665955 140.0
852.210754 176.0
853.379028 120.0
853.902344 156.0
854.111755 168.0
855.426819 52.0
856.748718 148.0
856.993408 116.0
858.847229 124.0
858.946411 192.0
859.144714 144.0
859.360596 116.0
860.90155 148.0
861.222778 128.0
861.567444 168.0
862.186768 80.0
865.333801 228.0
866.481689 160.0
867.923523 68.0
868.222595 84.0
868.328125 64.0
869.489746 152.0
870.740234 116.0
871.27478 148.0
871.880005 160.0
872.032776 48.0
872.207092 172.0
872.991089 116.0
873.326294 84.0
874.985718 212.0
875.056396 108.0
876.552429 56.0
877.695984 160.0
878.521667 184.0
879.093994 152.0
879.412659 212.0
879.684204 252.0
879.867188 160.0
880.646667 152.0
880.847473 160.0
881.225586 236.0
882.259827 124.0
882.318909 80.0
884.93988 212.0
885.407654 212.0
885.680115 180.0
886.201416 152.0
886.284363 132.0
887.007385 64.0
887.072571 124.0
887.345276 204.0
888.59668 172.0
889.795532 44.0
890.751648 108.0
890.900146 168.0
891.886536 132.0
892.082703 188.0
892.510803 152.0
893.17627 172.0
893.819397 152.0
893.920532 168.0
894.456177 196.0
895.879395 156.0
896.457275 156.0
896.558594 124.0
896.934082 176.0
896.993713 100.0
898.937988 124.0
901.350403 208.0
902.737244 188.0
903.167847 68.0
903.45105 156.0
903.538696 160.0
904.035339 164.0
905.388306 168.0
905.508057 148.0
908.433105 180.0
909.009094 64.0
910.023499 112.0
911.22467 172.0
911.495056 72.0
911.723389 72.0
911.879639 156.0
911.993835 220.0
912.480774 52.0
913.039978 180.0
913.563293 136.0
914.044556 132.0
914.959412 144.0
915.140076 152.0
915.489319 100.0
916.621765 108.0
918.27356 48.0
919.305176 116.0
919.57074 64.0
919.890625 152.0
920.005371 156.0
920.252869 148.0
920.911072 68.0
921.539368 148.0
923.358826 76.0
923.752014 76.0
923.83667 136.0
924.478027 180.0
924.804871 164.0
924.968262 72.0
925.379944 40.0
926.688171 104.0
927.045654 48.0
927.560852 144.0
928.324768 236.0
928.367188 80.0
929.429626 188.0
930.483765 164.0
930.563721 200.0
930.612305 152.0
931.007019 40.0
931.498962 164.0
931.796631 104.0
932.440735 80.0
933.103333 40.0
933.851257 156.0
934.550842 108.0
934.891602 136.0
935.031555 180.0
935.201965 188.0
935.475891 136.0
935.60376 100.0
936.401428 164.0
936.504944 68.0
937.272522 132.0
937.534546 132.0
937.869751 200.0
938.08313 172.0
938.430603 164.0
938.881836 92.0
939.247803 240.0
939.400269 136.0
940.162964 156.0
940.419312 176.0
941.328918 188.0
941.390015 48.0
941.713684 180.0
941.854126 136.0
942.813354 160.0
943.375671 108.0
943.516296 216.0
943.828125 116.0
944.017639 84.0
944.262268 140.0
944.305115 100.0
944.476379 152.0
945.008545 172.0
945.088135 124.0
945.779663 152.0
945.828613 168.0
946.281616 60.0
946.385681 116.0
947.328857 128.0
947.555542 160.0
947.708679 224.0
948.352112 164.0
949.196411 196.0
949.314636 172.0
950.253113 172.0
950.848328 160.0
951.130676 180.0
951.202087 184.0
951.296387 168.0
951.370056 72.0
951.7323 136.0
951.977905 100.0
952.113037 124.0
952.493835 136.0
952.782532 156.0
952.880859 104.0
953.384705 180.0
954.312866 148.0
955.032349 188.0
955.346069 160.0
955.67218 160.0
956.078308 172.0
956.416809 48.0
956.859985 116.0
956.909241 40.0
958.405945 200.0
958.498352 156.0
958.775635 124.0
958.818787 52.0
960.131958 172.0
961.785461 152.0
961.847168 196.0
962.118774 164.0
962.705322 232.0
963.051208 128.0
963.452698 204.0
963.53302 104.0
964.089111 88.0
964.478516 140.0
967.385742 188.0
967.552917 128.0
969.163208 132.0
969.243774 108.0
969.689941 180.0
970.415222 152.0
970.650818 156.0
970.925781 120.0
971.370239 180.0
971.543945 152.0
972.220276 192.0
972.431274 128.0
972.934082 160.0
973.039612 56.0
973.331421 120.0
974.791138 160.0
975.99707 132.0
976.06543 220.0
976.967285 64.0
977.44635 156.0
977.969116 156.0
979.79364 164.0
980.055298 136.0
980.853027 164.0
980.927795 140.0
981.251953 152.0
981.937866 196.0
982.068848 160.0
983.341675 220.0
983.578857 128.0
984.009583 160.0
984.084473 148.0
984.140686 200.0
984.415466 148.0
984.471619 132.0
984.540344 168.0
984.990051 176.0
985.508545 116.0
985.558533 188.0
986.189697 208.0
986.727295 188.0
987.49646 52.0
988.234558 128.0
988.416016 188.0
988.691406 224.0
990.125 124.0
990.569702 72.0
991.109924 160.0
991.782715 172.0
993.058105 60.0
993.691711 132.0
995.191711 184.0
995.304749 188.0
995.537109 100.0
995.631287 156.0
995.712952 116.0
996.231445 204.0
996.524536 136.0
996.636353 144.0
997.421936 260.0
997.465881 164.0
997.861938 112.0
998.151184 100.0
998.767517 168.0
998.968811 76.0
999.220459 176.0
1001.285095 164.0
1001.461426 44.0
1001.618896 212.0
1002.576538 168.0
1002.942078 96.0
1003.465332 128.0
1003.868896 160.0
1004.600525 148.0
1005.43335 192.0
1006.064575 140.0
1006.575989 136.0
1007.340149 128.0
1007.397034 132.0
1007.485474 152.0
1007.69397 172.0
1007.921387 76.0
1007.990906 200.0
1008.69873 124.0
1009.090698 96.0
1009.36261 40.0
1009.666138 176.0
1011.051575 128.0
1012.24115 88.0
1012.298706 128.0
1012.494995 172.0
1012.906677 200.0
1013.134766 196.0
1013.495911 152.0
1014.22467 180.0
1014.522583 140.0
1014.712769 140.0
1015.20105 120.0
1015.25177 168.0
1015.892395 120.0
1016.437988 48.0
1016.63562 164.0
1017.066284 76.0
1017.282104 220.0
1017.542358 140.0
1018.126587 128.0
1018.437744 220.0
1018.882446 92.0
1019.562317 128.0
1019.87146 124.0
1020.50946 172.0
1020.662048 200.0
1021.342529 112.0
1022.074097 228.0
1022.379578 156.0
1022.712952 136.0
1023.124268 132.0
1023.296143 128.0
1024.436157 112.0
1024.557129 136.0
1025.742432 156.0
1025.940063 132.0
1026.660522 196.0
1026.870972 140.0
1027.521606 176.0
1029.026733 152.0
1029.296387 164.0
1029.663452 256.0
1029.909058 164.0
1029.960205 180.0
1030.049683 140.0
1030.471313 28.0
1030.528809 132.0
1030.752441 92.0
1032.881348 112.0
1033.047607 148.0
1033.578613 64.0
1033.776611 168.0
1034.161011 208.0
1034.583496 148.0
1034.724365 152.0
1035.723267 148.0
1035.844971 144.0
1035.998779 192.0
1036.402344 172.0
1037.459839 156.0
1037.76123 176.0
1037.865723 336.0
1038.562744 164.0
1038.761597 172.0
1039.075928 156.0
1039.274902 232.0
1039.477661 236.0
1039.820312 112.0
1040.327393 84.0
1040.49353 124.0
1040.641968 160.0
1040.905273 128.0
1041.123535 144.0
1041.611694 168.0
1042.087036 92.0
1042.350586 128.0
1042.903198 164.0
1043.470825 148.0
1043.520386 40.0
1044.536377 172.0
1044.600708 160.0
1044.832397 184.0
1045.868408 220.0
1046.241699 144.0
1046.621582 152.0
1047.201172 44.0
1047.426636 76.0
1047.630371 140.0
1048.283447 204.0
1049.256714 120.0
1049.559814 148.0
1049.619751 176.0
1049.79834 104.0
1050.275635 228.0
1050.494873 32.0
1051.320801 192.0
1051.450317 116.0
1051.591797 124.0
1052.082397 104.0
1052.218018 120.0
1052.596313 136.0
1052.766846 196.0
1052.831421 160.0
1052.895996 144.0
1053.057495 156.0
1053.141357 188.0
1053.600098 172.0
1053.87146 128.0
1054.104004 188.0
1054.194458 72.0
1054.259155 184.0
1054.32373 132.0
1054.453003 100.0
1054.685669 176.0
1054.756714 140.0
1054.821411 172.0
1055.267456 180.0
1055.461426 176.0
1056.271851 152.0
1056.457397 128.0
1056.509155 52.0
1057.085083 40.0
1057.421509 184.0
1057.563965 80.0
1058.075317 56.0
1058.768188 132.0
1059.032593 192.0
1059.823975 168.0
1060.2323 84.0
1060.601685 148.0
1060.763794 152.0
1060.815552 184.0
1061.003662 136.0
1061.165649 128.0
1061.21106 144.0
1061.551514 236.0
1061.723389 236.0
1061.827148 164.0
1062.345947 124.0
1063.040283 256.0
1063.364746 80.0
1063.546509 132.0
1063.638794 92.0
1063.916504 108.0
1064.104736 172.0
1064.370972 180.0
1064.80603 152.0
1064.922974 112.0
1065.195679 128.0
1065.475098 68.0
1065.624512 84.0
1066.78125 84.0
1066.852783 204.0
1067.359985 164.0
1067.990723 108.0
1068.062256 72.0
1068.244385 88.0
1068.381104 52.0
1069.018677 56.0
1069.532837 160.0
1069.858276 136.0
1069.99231 148.0
1070.371094 212.0
1070.607056 104.0
1071.238892 180.0
1071.382202 40.0
1071.453857 172.0
1071.877319 108.0
1072.685547 68.0
1073.021729 212.0
1073.630859 88.0
1073.678711 140.0
1073.826538 76.0
1074.36792 112.0
1075.000854 132.0
1075.34021 244.0
1075.908081 144.0
1077.122681 184.0
1077.181519 192.0
1077.361694 188.0
1077.470581 144.0
1077.8479 124.0
1077.9198 76.0
1077.985107 320.0
1078.23999 104.0
1078.527588 32.0
1078.619019 204.0
1080.292969 256.0
1080.901489 112.0
1081.012695 84.0
1081.488037 140.0
1081.569092 100.0
1081.680298 168.0
1081.935669 140.0
1082.145142 220.0
1082.269531 136.0
1082.439819 96.0
1082.577271 140.0
1082.904785 140.0
1083.134033 148.0
1083.199463 192.0
1083.821899 156.0
1084.372314 104.0
1084.641113 204.0
1084.804932 132.0
1084.988525 168.0
1085.50647 148.0
1085.860596 176.0
1085.978638 156.0
1086.027344 188.0
1087.343262 144.0
1087.809326 164.0
1088.130981 92.0
1088.183594 76.0
1088.367432 152.0
1088.498657 152.0
1088.643188 108.0
1088.978149 144.0
1089.194824 108.0
1089.464233 132.0
1089.575928 268.0
1089.726929 104.0
1090.072754 108.0
1090.23291 56.0
1090.278931 148.0
1090.65625 108.0
1090.798218 220.0
1091.107178 164.0
1091.258301 136.0
1091.317505 156.0
1091.915894 136.0
1092.067261 104.0
1092.606567 188.0
1093.060547 104.0
1093.501465 132.0
1093.593628 96.0
1094.021484 172.0
1094.291382 104.0
1094.508667 180.0
1094.798462 88.0
1095.542725 156.0
1095.674438 204.0
1096.043457 188.0
1096.504761 120.0
1096.768311 132.0
1097.064941 144.0
1097.322144 156.0
1097.592407 108.0
1097.64624 180.0
1097.697998 164.0
1097.843018 144.0
1097.955078 188.0
1098.067261 168.0
1098.174805 168.0
1098.245361 96.0
1099.393311 192.0
1099.46582 108.0
1099.644043 256.0
1100.429565 144.0
1100.779541 76.0
1100.838989 160.0
1102.397949 176.0
1102.549927 160.0
1102.682129 132.0
1102.867188 124.0
1103.144775 124.0
1103.290283 92.0
1104.831177 200.0
1104.970093 140.0
1105.651611 72.0
1105.70459 200.0
1106.022217 68.0
1106.134766 136.0
1106.558472 72.0
1106.922607 164.0
1107.406128 144.0
1107.505371 96.0
1107.835449 184.0
1107.962524 120.0
1108.167847 96.0
1108.804077 40.0
1109.267944 132.0
1109.606079 144.0
1109.953125 176.0
1110.111328 164.0
1110.461548 108.0
1110.939087 208.0
1111.111572 152.0
1111.589233 96.0
1111.987427 136.0
1112.047241 136.0
1112.332642 172.0
1112.379028 192.0
1112.784058 188.0
1112.857056 128.0
1112.915283 136.0
1113.169189 228.0
1113.760864 132.0
1113.866455 216.0
1114.251831 56.0
1114.477661 148.0
1114.530884 140.0
1114.736816 176.0
1114.796631 132.0
1115.022583 184.0
1115.072388 156.0
1115.155518 132.0
1115.627441 116.0
1116.239136 136.0
1116.305664 92.0
1117.117065 52.0
1117.443726 120.0
1117.50293 132.0
1118.221558 108.0
1118.288086 132.0
1118.68335 212.0
1118.927124 172.0
1119.153564 220.0
1119.353271 160.0
1119.479858 256.0
1119.546387 140.0
1119.772827 144.0
1120.072632 168.0
1120.418945 108.0
1120.605835 204.0
1120.665527 136.0
1120.852051 120.0
1121.098633 84.0
1121.377808 120.0
1121.511841 160.0
1121.558472 148.0
1122.538452 168.0
1122.898193 140.0
1122.998657 148.0
1123.325439 136.0
1123.458862 104.0
1123.512329 140.0
1123.952637 164.0
1124.192871 180.0
1124.439819 96.0
1124.606689 152.0
1124.906982 200.0
1125.08728 132.0
1125.234131 164.0
1125.414429 64.0
1125.726196 228.0
1126.409424 180.0
1126.516357 156.0
1126.596558 128.0
1126.990723 164.0
1127.398315 92.0
1127.598755 188.0
1127.805908 184.0
1128.421021 152.0
1129.216675 152.0
1129.270264 96.0
1129.404053 112.0
1129.658203 172.0
1129.778564 184.0
1129.912354 128.0
1130.006104 152.0
1130.05957 188.0
1130.133179 124.0
1130.220215 104.0
1130.320557 160.0
1130.367432 192.0
1130.822388 64.0
1131.598999 228.0
1131.672607 176.0
1131.793091 128.0
1132.148071 164.0
1132.422607 208.0
1133.105835 88.0
1133.192993 124.0
1133.715576 152.0
1134.003784 164.0
1134.057373 124.0
1134.123047 136.0
1134.291992 208.0
1134.422607 164.0
1134.526611 176.0
1134.915527 124.0
1134.969116 156.0
1135.251221 160.0
1135.47876 144.0
1135.545898 176.0
1135.636353 216.0
1136.203247 172.0
1136.330688 128.0
1136.444702 164.0
1136.495361 232.0
1136.786987 184.0
1136.903809 140.0
1137.290283 108.0
1137.619263 212.0
1137.921265 156.0
1138.216675 96.0
1138.37793 112.0
1138.619629 388.0
1138.942871 164.0
1139.49292 76.0
1140.393311 188.0
1140.554688 124.0
1140.64209 108.0
1140.792847 208.0
1141.193359 156.0
1141.24707 144.0
1141.71106 172.0
1141.859009 132.0
1142.350098 72.0
1142.558594 124.0
1142.802734 212.0
1142.982422 208.0
1143.063232 140.0
1143.123779 132.0
1143.278564 124.0
1143.493896 216.0
1143.884277 156.0
1144.200684 260.0
1144.328613 96.0
1144.591187 212.0
1144.995239 176.0
1145.190552 224.0
1145.38562 124.0
1145.641846 68.0
1147.225464 236.0
1147.32666 124.0
1147.515381 144.0
1148.196411 176.0
1148.493164 164.0
1149.046387 212.0
1149.572632 96.0
1149.741333 120.0
1150.126099 164.0
1150.283691 212.0
1150.362305 164.0
1150.450073 132.0
1150.659424 144.0
1150.983398 48.0
1151.165771 60.0
1151.631714 248.0
1152.361328 176.0
1152.550537 60.0
1152.908691 160.0
1152.983032 116.0
1153.138428 116.0
1153.246582 132.0
1154.240356 112.0
1154.558228 104.0
1154.669189 172.0
1154.84021 252.0
1154.943726 92.0
1155.16687 68.0
1155.383423 204.0
1155.525513 96.0
1155.57959 168.0
1155.81958 196.0
1156.155884 168.0
1156.218994 56.0
1156.276611 160.0
1156.36792 152.0
1156.973755 136.0
1157.325806 152.0
1157.380005 152.0
1157.522217 160.0
1157.603394 116.0
1157.819458 148.0
1157.894653 84.0
1158.104614 204.0
1158.237061 156.0
1158.443237 80.0
1158.68042 200.0
1158.734619 100.0
1159.052979 168.0
1159.125854 188.0
1159.194946 140.0
1159.303711 128.0
1159.690063 164.0
1159.791748 136.0
1159.906982 192.0
1161.039185 180.0
1161.10022 96.0
1161.213745 124.0
1161.982056 168.0
1162.083862 92.0
1162.300903 172.0
1162.660645 184.0
1162.945679 220.0
1163.01062 168.0
1163.239014 148.0
1164.072632 176.0
1164.22876 228.0
1164.39856 148.0
1165.471924 128.0
1165.567017 136.0
1165.64856 152.0
1165.811646 164.0
1165.886353 96.0
1166.042725 132.0
1166.219482 168.0
1166.450562 108.0
1166.69519 232.0
1166.892456 120.0
1167.116821 212.0
1167.633545 128.0
1167.953247 116.0
1168.293335 120.0
1168.477051 56.0
1168.912476 164.0
1169.075806 160.0
1169.674805 112.0
1169.851807 152.0
1170.089966 148.0
1170.205811 212.0
1170.600708 204.0
1171.002441 164.0
1171.187988 324.0
1171.261353 208.0
1171.343018 148.0
1172.106079 160.0
1172.35144 164.0
1172.5354 88.0
1172.841797 192.0
1173.032959 180.0
1173.448853 96.0
1173.762451 184.0
1173.826172 224.0
1174.028442 156.0
1174.151123 124.0
1174.198853 132.0
1174.387695 180.0
1174.594482 104.0
1174.785522 76.0
1174.833252 196.0
1174.996948 160.0
1175.060913 172.0
1175.472534 160.0
1175.536987 132.0
1175.61792 100.0
1175.686157 40.0
1175.79248 200.0
1175.870361 108.0
1176.266113 164.0
1176.785156 72.0
1176.921631 252.0
1177.098022 112.0
1177.308716 172.0
1177.41333 132.0
1177.495239 168.0
1177.809448 176.0
1178.109985 136.0
1178.280884 176.0
1179.025635 200.0
1179.1427 188.0
1179.459961 200.0
1179.572388 220.0
1179.627075 192.0
1180.071411 188.0
1180.119263 148.0
1180.180908 64.0
1180.265747 156.0
1180.331299 36.0
1180.468018 184.0
1180.755249 164.0
1181.192993 152.0
1181.295654 96.0
1181.514526 44.0
1182.123413 112.0
1182.553955 172.0
1182.657227 252.0
1182.801025 144.0
1183.061157 108.0
1183.293945 172.0
1183.471924 136.0
1183.643066 392.0
1184.355347 176.0
1184.4375 164.0
1185.293945 184.0
1185.341919 148.0
1185.999756 152.0
1186.349365 164.0
1186.417969 124.0
1186.527588 204.0
1186.671631 112.0
1186.836182 120.0
1187.597412 144.0
1187.686523 176.0
1188.043213 144.0
1188.530396 148.0
1188.777344 140.0
1188.866577 184.0
1189.03125 128.0
1189.305786 160.0
1189.515503 216.0
1189.758911 120.0
1190.074707 136.0
1190.239502 128.0
1190.411133 60.0
1190.733887 168.0
1190.953735 168.0
1191.224854 108.0
1191.881104 168.0
1192.121582 192.0
1192.279663 168.0
1192.631104 164.0
1192.719604 152.0
1192.896362 216.0
1193.544556 140.0
1193.633911 120.0
1193.723267 104.0
1193.792114 164.0
1193.86084 156.0
1194.108398 128.0
1194.197876 120.0
1194.431763 152.0
1194.610596 56.0
1194.686279 124.0
1194.768799 164.0
1195.360474 128.0
1195.807861 168.0
1195.890381 144.0
1195.979858 208.0
1196.138184 208.0
1196.330933 188.0
1196.37915 132.0
1196.998779 176.0
1197.508423 168.0
1197.577271 116.0
1198.162842 144.0
1198.238525 72.0
1198.49353 156.0
1198.686401 60.0
1198.948242 220.0
1199.024048 128.0
1199.113647 140.0
1199.848877 92.0
1199.917114 188.0
1200.030518 152.0
1200.299438 156.0
1200.458008 148.0
1200.526978 224.0
1200.95459 228.0
1201.182251 220.0
1201.299438 168.0
1201.478882 136.0
1201.582275 152.0
1201.87207 152.0
1202.155029 172.0
1202.279175 204.0
1202.781738 244.0
1203.079834 156.0
1203.521729 148.0
1204.032715 76.0
1204.23999 176.0
1204.391846 168.0
1204.806396 104.0
1205.111938 136.0
1205.227783 132.0
1205.593994 132.0
1205.759888 148.0
1206.098511 164.0
1206.45105 184.0
1206.506348 160.0
1206.921265 364.0
1207.038818 144.0
1207.149414 232.0
1207.214233 148.0
1207.695801 160.0
1207.813354 104.0
1207.958008 204.0
1208.069336 156.0
1208.145386 160.0
1208.234619 272.0
1208.526245 164.0
1208.823486 128.0
1208.885742 164.0
1208.94104 172.0
1209.115845 176.0
1209.270264 148.0
1209.439331 152.0
1209.494751 132.0
1209.653931 176.0
1209.785522 208.0
1209.930908 192.0
1210.054321 188.0
1210.180176 204.0
1210.287476 112.0
1210.560913 152.0
1210.609375 52.0
1211.073486 136.0
1211.156616 152.0
1211.385132 172.0
1211.669189 196.0
1211.752319 172.0
1212.140381 152.0
1212.875 344.0
1213.582031 176.0
1213.845581 152.0
1213.942627 128.0
1214.046631 248.0
1214.303223 128.0
1214.483521 132.0
1214.532104 192.0
1214.69165 164.0
1215.211914 144.0
1215.336914 56.0
1215.538086 148.0
1215.775024 136.0
1215.968384 144.0
1216.051636 112.0
1216.12793 220.0
1216.287598 224.0
1216.49585 172.0
1216.58606 160.0
1216.68335 124.0
1216.738892 112.0
1216.843018 116.0
1217.17627 120.0
1217.780396 92.0
1217.912354 172.0
1218.523682 100.0
1218.829468 112.0
1219.003174 116.0
1219.069214 168.0
1219.247925 156.0
1219.40625 220.0
1219.50354 92.0
1219.642578 116.0
1219.69812 96.0
1219.79541 184.0
1219.906616 120.0
1219.983154 168.0
1220.22644 156.0
1220.344604 136.0
1220.532349 48.0
1220.636719 100.0
1220.727051 184.0
1220.845337 100.0
1221.429565 196.0
1221.568604 172.0
1221.738525 212.0
1222.006958 176.0
1222.242676 180.0
1222.487061 108.0
1222.939453 140.0
1223.002075 176.0
1223.370972 180.0
1223.461426 148.0
1223.77478 156.0
1223.865234 68.0
1224.145386 172.0
1224.485107 176.0
1224.666138 156.0
1225.146729 224.0
1225.975952 108.0
1226.233765 100.0
1226.394043 208.0
1226.456787 64.0
1226.716309 240.0
1226.951782 200.0
1227.230591 160.0
1227.474609 180.0
1227.641968 204.0
1227.697754 156.0
1227.851196 184.0
1228.053467 108.0
1228.388306 156.0
1228.667358 176.0
1228.960327 108.0
1229.030151 52.0
1229.211548 236.0
1229.455811 160.0
1229.518677 112.0
1229.602417 180.0
1229.741943 168.0
1230.049072 36.0
1230.215454 140.0
1230.335327 196.0
1230.614502 328.0
1230.733276 156.0
1230.942749 92.0
1231.033447 120.0
1231.585205 168.0
1231.920532 184.0
1232.151001 176.0
1232.206909 36.0
1232.675049 128.0
1233.016479 132.0
1233.075928 176.0
1233.178223 136.0
1233.43689 76.0
1233.653564 144.0
1233.737427 200.0
1233.933228 248.0
1234.080078 104.0
1234.268799 160.0
1234.429688 144.0
1234.506592 96.0
1234.609985 152.0
1234.996094 212.0
1235.230469 212.0
1235.302002 248.0
1235.443848 188.0
1236.178467 160.0
1236.745361 164.0
1236.878296 88.0
1236.955322 196.0
1237.860474 136.0
1237.984497 140.0
1238.110596 164.0
1238.271606 172.0
1238.48877 180.0
1239.138062 128.0
1239.357422 216.0
1239.413452 124.0
1240.168213 128.0
1240.555908 228.0
1241.127686 148.0
1241.249023 196.0
1241.481445 164.0
1241.670776 168.0
1241.874146 100.0
1242.091553 168.0
1242.147705 108.0
1242.258179 188.0
1242.453247 176.0
1242.519531 156.0
1242.779053 140.0
1242.975586 176.0
1243.073853 132.0
1243.326416 120.0
1243.529907 140.0
1243.65625 116.0
1243.803711 156.0
1244.098511 156.0
1244.407471 88.0
1244.484619 140.0
1244.94104 136.0
1245.116699 156.0
1245.250122 124.0
1245.362427 180.0
1245.840332 148.0
1246.577881 120.0
1246.851929 172.0
1247.730591 212.0
1247.800903 32.0
1248.271973 124.0
1248.960938 136.0
1249.326904 136.0
1249.704346 164.0
1250.079834 200.0
1250.234253 244.0
1250.368286 208.0
1250.530151 164.0
1250.614624 84.0
1251.191895 120.0
1251.346802 152.0
1251.417236 44.0
1251.910034 152.0
1252.163574 148.0
1252.339722 152.0
1252.663696 144.0
1252.790527 116.0
1252.839844 220.0
1253.248413 152.0
1253.325928 192.0
1253.544434 156.0
1253.70813 156.0
1253.946045 236.0
1254.143433 124.0
1254.297852 184.0
1254.467651 180.0
1254.728516 112.0
1254.848389 152.0
1254.911865 40.0
1255.556763 164.0
1255.609863 128.0
1255.701538 120.0
1255.758057 148.0
1256.040161 148.0
1256.135132 204.0
1256.236328 172.0
1256.378784 144.0
1256.483398 160.0
1256.498901 132.0
1256.52124 164.0
1256.84436 232.0
1257.034912 148.0
1257.126709 220.0
1257.349976 172.0
1257.698364 124.0
1257.867676 72.0
1258.008911 128.0
1258.155151 192.0
1258.357544 192.0
1258.432495 152.0
1258.884399 216.0
1258.990356 220.0
1259.209229 124.0
1259.272827 212.0
1259.322266 188.0
1259.562378 248.0
1260.123779 136.0
1260.389038 60.0
1260.629272 172.0
1260.685791 144.0
1261.166382 92.0
1261.286499 148.0
1261.621704 248.0
1261.745972 80.0
1261.844971 104.0
1261.94397 136.0
1262.205566 160.0
1262.375244 160.0
1262.629883 144.0
1262.757202 188.0
1262.884521 216.0
1262.94812 96.0
1263.221924 152.0
1263.372559 136.0
1263.492798 168.0
1263.87915 200.0
1263.927612 220.0
1264.252197 164.0
1264.334839 72.0
1264.47644 212.0
1265.263062 128.0
1265.354126 104.0
1265.75061 148.0
1265.934814 108.0
1266.005615 196.0
1266.069336 36.0
1266.210938 164.0
1266.480103 172.0
1266.933472 152.0
1267.103516 148.0
1267.514404 124.0
1267.692993 232.0
1268.138062 64.0
1268.30542 124.0
1268.478271 48.0
1268.542114 176.0
1268.824341 156.0
1269.116333 164.0
1269.251099 144.0
1269.633911 232.0
1269.740356 56.0
1269.844238 168.0
1269.960205 160.0
1270.05957 156.0
1270.265259 128.0
1270.54187 164.0
1270.740479 156.0
1271.045654 180.0
1271.286865 212.0
1271.407593 92.0
1271.535278 124.0
1271.641724 124.0
1271.932739 188.0
1272.010864 168.0
1272.273438 148.0
1272.502197 172.0
1272.742065 204.0
1272.827271 92.0
1273.153931 136.0
1273.285645 200.0
1273.466431 184.0
1273.516113 116.0
1273.867554 168.0
1274.162598 164.0
1274.261963 208.0
1274.35437 180.0
1274.453857 80.0
1274.674072 36.0
1274.823364 196.0
1274.873047 128.0
1275.144531 188.0
1275.306641 172.0
1275.44873 172.0
1275.713501 172.0
1275.925049 208.0
1276.074341 128.0
1276.28772 136.0
1276.415405 188.0
1276.735596 128.0
1276.792358 128.0
1276.970337 100.0
1277.345093 204.0
1277.411377 152.0
1277.738525 88.0
1278.538818 140.0
1278.670776 160.0
1279.043579 172.0
1279.197388 168.0
1279.843872 156.0
1279.937866 116.0
1280.009033 60.0
1280.160034 216.0
1280.372314 100.0
1280.436401 156.0
1280.542114 196.0
1280.835205 120.0
1281.495117 184.0
1281.825439 164.0
1282.096313 96.0
1282.210327 136.0
1282.604736 176.0
1282.809082 120.0
1283.030029 156.0
1283.18689 136.0
1283.329468 160.0
1283.393677 112.0
1283.798584 188.0
1284.021118 136.0
1284.484741 120.0
1284.556152 44.0
1285.33374 156.0
1285.719116 144.0
1286.318604 96.0
1286.743774 312.0
1286.846924 208.0
1286.961182 40.0
1287.032593 160.0
1287.244507 216.0
1287.432495 68.0
1287.603882 152.0
1287.760986 168.0
1287.853882 204.0
1287.911011 128.0
1287.998657 160.0
1288.189575 120.0
1288.618164 104.0
1288.883667 160.0
1289.272095 200.0
1289.482788 140.0
1289.597168 124.0
1289.904541 76.0
1290.004639 156.0
1290.09375 152.0
1290.283447 212.0
1290.440674 92.0
1290.490723 92.0
1290.540771 152.0
1290.61084 288.0
1290.822876 172.0
1290.998413 128.0
1291.374512 360.0
1291.63501 64.0
1291.971191 216.0
1292.071289 124.0
1292.314575 204.0
1292.49353 220.0
1292.908569 108.0
1293.07312 188.0
1293.302124 132.0
1293.481079 204.0
1293.867676 184.0
1293.98938 140.0
1294.039429 96.0
1294.111084 48.0
1294.223755 256.0
1294.400513 236.0
1294.510498 144.0
1294.633789 116.0
1294.994995 212.0
1295.142334 124.0
1295.213989 156.0
1295.500488 144.0
1295.837158 216.0
1296.016357 140.0
1296.159546 176.0
1296.675537 136.0
1296.761597 112.0
1296.990967 120.0
1297.213135 136.0
1297.290894 176.0
1297.858398 156.0
1298.016113 192.0
1298.248535 116.0
1298.331665 180.0
1298.417725 156.0
1298.4823 200.0
1298.532471 228.0
1298.819336 180.0
1299.414795 168.0
1299.701782 132.0
1299.881104 80.0
1300.161011 48.0
1300.570068 176.0
1300.630127 160.0
1300.77832 88.0
1300.8573 52.0
1300.952637 348.0
1301.143311 180.0
1301.266479 104.0
1301.31665 80.0
1301.381348 52.0
1301.453125 124.0
1301.515991 64.0
1301.71167 160.0
1302.221558 152.0
1302.343628 44.0
1302.393921 172.0
1302.580688 196.0
1303.336548 172.0
1303.404419 188.0
1303.465454 156.0
1303.548584 132.0
1303.665527 140.0
1303.766357 120.0
1303.885864 220.0
1303.913208 144.0
1304.010498 108.0
1304.05896 80.0
1304.118286 148.0
1304.513672 184.0
1304.628662 160.0
1304.8125 224.0
1304.880249 40.0
1304.944946 148.0
1305.457031 192.0
1305.678467 192.0
1305.901367 56.0
1306.476807 140.0
1306.62793 132.0
1306.764648 176.0
1306.836548 80.0
1307.052368 320.0
1307.131592 156.0
1307.217896 132.0
1307.383423 148.0
1307.448242 244.0
1307.577759 84.0
1307.707275 96.0
1307.872803 148.0
1308.081543 40.0
1308.203979 184.0
1308.470337 124.0
1308.539673 144.0
1309.017578 128.0
1309.226196 160.0
1309.291138 228.0
1309.982666 136.0
1310.249146 128.0
1310.364502 236.0
1310.695923 144.0
1311.063354 164.0
1311.456055 172.0
1311.546265 120.0
1311.632812 168.0
1311.712036 132.0
1311.856201 116.0
1312.086914 148.0
1312.209473 152.0
1312.377686 156.0
1312.476318 116.0
1312.671021 184.0
1312.930542 132.0
1313.11084 112.0
1313.47876 192.0
1313.615723 160.0
1313.66626 132.0
1313.88269 344.0
1314.070312 200.0
1314.12793 140.0
1314.535278 112.0
1314.683594 232.0
1314.741333 260.0
1314.813477 196.0
1315.022827 144.0
1315.109375 168.0
1315.232056 212.0
1315.556885 228.0
1315.662354 172.0
1315.865723 140.0
1316.42334 160.0
1316.704956 80.0
1316.950562 124.0
1317.058838 108.0
1317.2323 152.0
1318.004883 164.0
1318.084717 204.0
1318.197754 120.0
1318.294312 96.0
1318.532837 68.0
1318.778564 124.0
1319.18335 176.0
1319.49707 128.0
1319.754517 144.0
1320.06543 156.0
1320.123291 220.0
1320.364746 212.0
1320.622192 60.0
1320.954956 196.0
1321.027344 232.0
1321.656738 92.0
1321.924438 140.0
1322.228394 144.0
1322.409302 40.0
1322.908813 152.0
1323.22937 100.0
1323.418701 144.0
1323.683472 168.0
1324.233887 188.0
1324.365967 164.0
1324.465698 100.0
1324.52356 28.0
1324.835083 92.0
1325.045166 184.0
1325.139404 336.0
1325.197388 120.0
1325.313232 124.0
1325.545166 144.0
1325.929199 180.0
1326.168335 180.0
1326.385864 116.0
1326.532471 172.0
1326.740967 132.0
1326.813477 48.0
1326.885986 68.0
1326.973022 108.0
1327.045532 216.0
1327.458862 40.0
1327.538574 188.0
1327.596558 148.0
1327.647339 112.0
1327.938965 120.0
1328.205811 196.0
1328.300171 256.0
1328.662842 132.0
1328.771606 128.0
1328.829712 244.0
1328.89502 144.0
1329.163452 128.0
1329.366699 92.0
1329.475464 168.0
1329.606079 172.0
1329.780273 176.0
1329.86499 180.0
1330.11145 128.0
1330.165039 156.0
1330.469849 296.0
1330.920044 160.0
1330.996338 148.0
1331.070557 104.0
1331.181396 128.0
1331.406616 304.0
1331.4646 112.0
1331.769653 200.0
1332.016602 120.0
1332.161987 104.0
1332.256348 216.0
1332.517944 116.0
1332.764893 64.0
1332.866699 136.0
1332.924805 140.0
1333.179199 212.0
1333.309937 72.0
1333.529175 152.0
1333.833252 128.0
1334.182129 144.0
1334.400269 160.0
1334.519165 180.0
1334.654785 72.0
1334.894775 176.0
1335.298584 204.0
1335.541992 108.0
1335.982178 100.0
1336.034302 148.0
1336.902466 184.0
1336.989868 168.0
1337.106201 116.0
1337.186279 184.0
1337.352417 176.0
1337.713745 88.0
1338.169067 148.0
1338.219971 88.0
1338.416626 256.0
1338.824341 116.0
1338.882568 248.0
1339.195801 144.0
1339.471436 160.0
1339.589111 172.0
1339.793091 156.0
1339.930542 172.0
1340.522583 216.0
1340.660156 192.0
1340.8927 172.0
1341.294312 132.0
1341.37439 164.0
1341.527466 200.0
1341.862915 184.0
1342.373291 208.0
1342.861938 204.0
1342.912964 120.0
1343.000488 164.0
1343.131714 180.0
1343.365234 120.0
1343.715332 168.0
1343.773682 136.0
1343.890503 128.0
1344.041016 220.0
1344.088501 192.0
1344.182373 272.0
1344.525269 168.0
1344.831787 136.0
1345.654297 120.0
1345.904907 44.0
1346.022705 100.0
1346.175171 164.0
1346.255493 196.0
1346.374268 176.0
1346.518066 104.0
1346.766724 80.0
1347.000488 152.0
1347.11731 124.0
1347.358398 84.0
1347.421143 240.0
1347.533691 140.0
1347.73584 224.0
1347.862549 228.0
1348.012573 172.0
1348.096313 116.0
1348.205933 100.0
1348.30835 180.0
1348.461792 72.0
1348.558105 92.0
1348.643677 148.0
1348.805298 140.0
1348.914917 52.0
1349.075806 168.0
1349.134277 84.0
1349.331665 144.0
1349.426636 176.0
1349.529053 60.0
1349.644287 196.0
1349.758057 152.0
1349.940308 152.0
1350.135986 180.0
1350.428467 208.0
1350.496216 236.0
1350.589478 156.0
1350.677246 196.0
1350.933228 120.0
1351.306274 100.0
1351.562378 180.0
1351.672119 164.0
1351.825806 148.0
1351.884399 152.0
1352.246948 172.0
1352.314453 176.0
1352.440552 48.0
1352.513794 212.0
1352.711426 156.0
1352.865112 144.0
1353.322876 180.0
1353.38501 180.0
1353.575317 128.0
1353.824341 44.0
1353.963501 152.0
1354.073364 132.0
1354.131958 216.0
1354.329712 72.0
1354.640747 364.0
1354.834106 124.0
1355.411255 272.0
1355.692383 192.0
1355.806885 192.0
1355.919556 172.0
1356.161011 240.0
1356.835815 140.0
1357.393066 144.0
1357.448242 240.0
1357.759644 172.0
1357.811035 124.0
1358.114746 208.0
1358.390503 108.0
1358.852661 120.0
1358.93335 124.0
1359.06543 172.0
1359.116821 152.0
1359.358887 76.0
1359.490967 132.0
1359.637817 116.0
1359.708862 176.0
1359.821289 64.0
1360.045776 168.0
1360.16272 144.0
1360.262695 168.0
1360.371826 156.0
1360.588867 232.0
1360.75354 120.0
1361.230835 160.0
1361.340942 128.0
1361.502441 172.0
1362.108276 184.0
1362.192871 152.0
1362.464722 48.0
1362.685059 540.0
1362.744507 196.0
1362.927612 132.0
1362.986328 32.0
1363.258301 184.0
1363.588989 180.0
1363.699219 296.0
1363.927002 168.0
1363.993164 304.0
1364.265137 140.0
1364.610718 128.0
1364.782959 172.0
1365.007812 140.0
1365.118042 92.0
1365.19165 56.0
1365.478394 168.0
1366.003174 140.0
1366.081543 228.0
1366.206665 104.0
1366.84668 168.0
1366.938477 152.0
1367.280884 140.0
1367.391235 212.0
1367.501709 128.0
1367.727539 136.0
1368.009644 220.0
1368.068481 128.0
1368.319336 148.0
1368.393921 168.0
1368.620605 160.0
1369.00354 192.0
1369.239624 136.0
1369.526489 176.0
1369.644287 164.0
1369.709229 180.0
1369.938965 204.0
1369.990479 108.0
1370.358887 124.0
1370.845215 132.0
1370.948364 156.0
1371.0 164.0
1371.729614 144.0
1371.925903 192.0
1371.952759 120.0
1372.07605 164.0
1372.429932 124.0
1372.511108 172.0
1372.743042 156.0
1372.953491 132.0
1373.137939 104.0
1373.248535 148.0
1373.359131 196.0
1373.499268 192.0
1373.713257 60.0
1374.000977 100.0
1374.457031 108.0
1374.583862 164.0
1374.864258 200.0
1374.967529 192.0
1375.078247 160.0
1375.218506 104.0
1375.351318 148.0
1375.445923 164.0
1375.742554 180.0
1375.993652 176.0
1376.082153 132.0
1376.202026 180.0
1376.729004 224.0
1376.901855 196.0
1377.160278 56.0
1377.293335 152.0
1377.559204 124.0
1377.677368 192.0
1377.869507 208.0
1378.111084 116.0
1378.249878 180.0
1378.349731 72.0
1378.475342 80.0
1378.776367 196.0
1378.887695 152.0
1379.000122 164.0
1379.199585 160.0
1379.303101 176.0
1379.857544 224.0
1380.145874 160.0
1380.256836 224.0
1380.352905 164.0
1380.523071 84.0
1380.596924 212.0
1380.903809 276.0
1381.255249 148.0
1381.802612 92.0
1382.03064 192.0
1382.261353 132.0
1382.49585 280.0
1382.712769 132.0
1382.920044 312.0
1383.119873 100.0
1383.260498 96.0
1383.378906 96.0
1383.436279 176.0
1383.571411 192.0
1383.734253 144.0
1383.904541 176.0
1384.652466 164.0
1384.800049 160.0
1385.015381 180.0
1385.304321 132.0
1385.526611 220.0
1385.578369 112.0
1385.892212 172.0
1386.111938 176.0
1386.400879 220.0
1386.519409 152.0
1386.596191 196.0
1386.734375 136.0
1387.09314 176.0
1387.179077 204.0
1387.364502 176.0
1387.512695 144.0
1387.831543 104.0
1388.046509 148.0
1388.194824 196.0
1388.351807 176.0
1388.565674 132.0
1388.847534 168.0
1389.047729 184.0
1389.322266 68.0
1389.478027 156.0
1389.71167 124.0
1389.765137 212.0
1389.856445 148.0
1389.98999 156.0
1390.380981 164.0
1390.479736 192.0
1390.628174 152.0
1390.695068 132.0
1390.760254 136.0
1390.880615 92.0
1391.118164 116.0
1391.570923 176.0
1391.70459 116.0
1391.860596 108.0
1392.319946 172.0
1392.337158 148.0
1392.359985 200.0
1392.506592 168.0
1392.640259 108.0
1392.722046 144.0
1392.848267 136.0
1392.900269 144.0
1392.996826 216.0
1393.056274 128.0
1393.160278 88.0
1393.717529 120.0
1394.103882 164.0
1394.16333 148.0
1394.259888 148.0
1394.364014 136.0
1394.542358 176.0
1394.876831 168.0
1395.471558 104.0
1395.806152 152.0
1396.296997 248.0
1396.435913 184.0
1396.557251 204.0
1397.21936 172.0
1397.301147 136.0
1397.449951 188.0
1397.544312 128.0
1397.68811 128.0
1397.866699 132.0
1398.573608 236.0
1398.715088 144.0
1398.975586 84.0
1399.131958 56.0
1399.891479 140.0
1400.069824 184.0
1400.375488 228.0
1400.449951 316.0
1400.584106 52.0
1400.71814 48.0
1401.291748 176.0
1401.373657 140.0
1401.490234 240.0
1401.612183 120.0
1401.776123 124.0
1402.158081 156.0
1402.394653 160.0
1402.744751 180.0
1402.901489 156.0
1403.169922 124.0
1403.289185 104.0
1403.356323 152.0
1403.684326 152.0
1403.758911 164.0
1403.833496 136.0
1403.949585 200.0
1404.049805 208.0
1404.169067 120.0
1404.258545 148.0
1404.509155 212.0
1404.900024 148.0
1405.04187 128.0
1405.243286 148.0
1405.329468 144.0
1405.631226 48.0
1405.802856 136.0
1406.056641 148.0
1406.190918 152.0
1406.332764 112.0
1406.43335 156.0
1406.496948 136.0
1406.747681 224.0
1406.964478 184.0
1407.034424 176.0
1407.250977 160.0
1407.762207 116.0
1407.946655 208.0
1408.520508 96.0
1408.587769 148.0
1408.744629 212.0
1409.070557 196.0
1409.332153 296.0
1409.60376 156.0
1409.842896 152.0
1409.955078 164.0
1410.315308 140.0
1410.463257 60.0
1410.567871 88.0
1410.751099 176.0
1410.814575 124.0
1411.016479 104.0
1411.121094 128.0
1411.457642 160.0
1411.756714 104.0
1411.891357 180.0
1412.175537 148.0
1412.302612 144.0
1412.624268 172.0
1412.803833 136.0
1413.213257 156.0
1413.357422 128.0
1413.424805 132.0
1413.552002 184.0
1413.671753 128.0
1413.881348 104.0
1414.015991 160.0
1414.143188 148.0
1414.203125 104.0
1414.442627 172.0
1414.697144 208.0
1414.983887 188.0
1415.252808 148.0
1415.520752 120.0
1415.616699 180.0
1415.775391 252.0
1416.062134 156.0
1416.114868 156.0
1416.749023 360.0
1416.951294 88.0
1417.026245 172.0
1417.153564 188.0
1417.304199 124.0
1417.47583 156.0
1417.766846 120.0
1417.950928 180.0
1418.052856 208.0
1418.130005 316.0
1418.322632 172.0
1418.513916 148.0
1418.66748 48.0
1418.914917 156.0
1419.012329 148.0
1419.280273 132.0
1419.349731 124.0
1419.44104 140.0
1419.582153 112.0
1419.897217 128.0
1420.272217 204.0
1420.429688 188.0
1420.528076 188.0
1420.954834 136.0
1421.007324 224.0
1421.278564 196.0
1421.412476 220.0
1421.675171 136.0
1421.742676 144.0
1421.891479 220.0
1421.98291 192.0
1422.238037 104.0
1422.425659 168.0
1422.570312 200.0
1422.876099 76.0
1423.431763 96.0
1423.994995 144.0
1424.205322 156.0
1424.378052 156.0
1424.62207 80.0
1424.836304 128.0
1425.039185 152.0
1425.207275 176.0
1425.279541 136.0
1425.542603 144.0
1425.730469 188.0
1426.444458 148.0
1426.594849 120.0
1426.782715 212.0
1426.872925 192.0
1427.181274 192.0
1427.594849 188.0
1427.722656 152.0
1427.820435 140.0
1427.910645 216.0
1428.376953 156.0
1428.452148 108.0
1428.580078 184.0
1428.790771 56.0
1428.858398 140.0
1429.018433 164.0
1429.07666 152.0
1429.242188 160.0
1429.309814 72.0
1429.485352 100.0
1429.588257 140.0
1429.987183 136.0
1430.107544 112.0
1430.413574 228.0
1430.468872 144.0
1430.611938 200.0
1430.73584 196.0
1430.866211 112.0
1431.153931 124.0
1431.255615 184.0
1431.530518 140.0
1431.628418 236.0
1431.786499 244.0
1432.057617 216.0
1432.163086 68.0
1432.51709 144.0
1432.667847 184.0
1432.871216 332.0
1433.097168 156.0
1433.225342 168.0
1433.526733 132.0
1433.654785 160.0
1433.805542 176.0
1433.956299 216.0
1434.145752 228.0
1434.44751 112.0
1434.551758 60.0
1434.845703 132.0
1434.99353 292.0
1435.117188 148.0
1435.373535 72.0
1435.494141 192.0
1435.637451 76.0
1435.889771 300.0
1436.014526 188.0
1436.097534 112.0
1436.240845 92.0
1436.316284 144.0
1436.708496 152.0
1436.829224 100.0
1436.899048 168.0
1436.947266 124.0
1437.018188 188.0
1437.304565 128.0
1437.618286 168.0
1437.87915 188.0
1438.089355 208.0
1438.14978 48.0
1438.21521 176.0
1438.391357 160.0
1438.647949 164.0
1439.202881 208.0
1439.765503 188.0
1439.954224 196.0
1440.105347 124.0
1440.467896 136.0
1440.623047 140.0
1440.700195 180.0
1441.002563 204.0
1441.013916 160.0
1441.083618 176.0
1441.321533 176.0
1441.389648 144.0
1441.472656 168.0
1441.555786 88.0
1441.638916 312.0
1441.691895 64.0
1441.926147 76.0
1442.205811 116.0
1442.593994 228.0
1442.704712 180.0
1442.810547 256.0
1442.87854 184.0
1443.060059 136.0
1443.407837 172.0
1443.619507 208.0
1443.846436 132.0
1443.921997 164.0
1444.0625 188.0
1444.092041 236.0
1444.201904 116.0
1444.377686 148.0
1444.451538 196.0
1444.554199 132.0
1445.041626 144.0
1445.359375 92.0
1445.442627 80.0
1445.517456 204.0
1445.737671 160.0
1445.942017 116.0
1446.032837 156.0
1446.085815 180.0
1446.153931 240.0
1446.229614 104.0
1446.67627 124.0
1446.801636 100.0
1446.886963 160.0
1446.994263 200.0
1447.05481 136.0
1447.274414 152.0
1447.637817 152.0
1447.941406 148.0
1448.32373 148.0
1448.675415 172.0
1448.857666 160.0
1448.94812 192.0
1449.273926 160.0
1449.524048 72.0
1449.667969 192.0
1449.804443 152.0
1449.948364 68.0
1450.046875 132.0
1450.175781 148.0
1450.350098 128.0
1450.638184 224.0
1450.858032 100.0
1450.986816 56.0
1451.047485 144.0
1451.457275 180.0
1451.547974 148.0
1451.661621 172.0
1451.72998 204.0
1451.805786 156.0
1451.919556 148.0
1452.117554 184.0
1452.253174 188.0
1452.473145 116.0
1452.526245 140.0
1452.693115 192.0
1452.838745 264.0
1452.897949 100.0
1453.026978 156.0
1453.080078 160.0
1453.353149 144.0
1453.497314 112.0
1453.71582 168.0
1453.849976 128.0
1453.945068 168.0
1454.203125 160.0
1454.256226 112.0
1454.343506 184.0
1454.544678 124.0
1454.605469 156.0
1454.656616 136.0
1454.787598 156.0
1454.848389 120.0
1454.901489 168.0
1454.992554 140.0
1455.174805 168.0
1456.309937 176.0
1456.610107 204.0
1456.807617 88.0
1457.043091 184.0
1457.17981 168.0
1457.460938 188.0
1457.543579 124.0
1457.605347 168.0
1457.673706 40.0
1457.811523 144.0
1458.008057 140.0
1458.129639 100.0
1458.357666 216.0
1458.426147 32.0
1458.524902 160.0
1458.707397 144.0
1458.981079 176.0
1459.231934 164.0
1459.41748 164.0
1459.503784 136.0
1459.574097 212.0
1460.354004 172.0
1460.418213 136.0
1460.479004 240.0
1460.570312 72.0
1460.75293 168.0
1460.866943 204.0
1461.064819 172.0
1461.20166 176.0
1461.2854 216.0
1461.391968 136.0
1461.582153 144.0
1461.665894 168.0
1461.942383 176.0
1462.206177 156.0
1462.325562 340.0
1462.389648 152.0
1462.556274 136.0
1462.655151 184.0
1462.929199 144.0
1463.288086 132.0
1463.510742 200.0
1463.591553 56.0
1463.774414 176.0
1463.899414 264.0
1463.915894 224.0
1464.155151 64.0
1464.319946 188.0
1464.40918 176.0
1464.848267 108.0
1464.916748 180.0
1465.076782 148.0
1465.187256 188.0
1465.411987 144.0
1465.680542 164.0
1465.710571 204.0
1465.907227 156.0
1466.062866 228.0
1466.204468 176.0
1466.297119 236.0
1466.524536 104.0
1466.602417 116.0
1467.094971 236.0
1467.241089 184.0
1467.408813 192.0
1467.47229 148.0
1467.77478 220.0
1467.828247 152.0
1467.919678 64.0
1468.01123 172.0
1468.110352 136.0
1468.270508 136.0
1468.372681 204.0
1468.523682 156.0
1468.697632 152.0
1468.903564 180.0
1469.246826 148.0
1469.338379 160.0
1469.475708 192.0
1469.567261 168.0
1469.721558 220.0
1469.874146 204.0
1469.933472 128.0
1470.481934 140.0
1470.728271 112.0
1470.802734 220.0
1471.032593 40.0
1471.196655 208.0
1471.284424 92.0
1471.521118 120.0
1471.862061 204.0
1472.078491 104.0
1472.154907 152.0
1472.208374 176.0
1472.261841 68.0
1472.468018 196.0
1472.613159 124.0
1473.005005 132.0
1473.458984 228.0
1473.575562 152.0
1473.733154 156.0
1474.270996 188.0
1474.584351 112.0
1474.805908 124.0
1475.054199 156.0
1475.234009 124.0
1475.416138 156.0
1475.490601 140.0
1475.605835 144.0
1475.991943 184.0
1476.074951 140.0
1476.227539 156.0
1476.312012 52.0
1476.403809 180.0
1476.740356 140.0
1476.832153 184.0
1476.88562 76.0
1477.017822 172.0
1477.222168 120.0
1477.336914 136.0
1477.451782 200.0
1477.581787 188.0
1477.727173 168.0
1477.872559 140.0
1478.025513 172.0
1478.599487 224.0
1478.982178 200.0
1479.073975 96.0
1479.173462 128.0
1479.579224 144.0
1479.855347 196.0
1479.977417 152.0
1480.122803 188.0
1480.375488 160.0
1480.612915 144.0
1480.896362 152.0
1481.279297 124.0
1481.516479 124.0
1481.973511 212.0
1482.037964 192.0
1482.267578 140.0
1482.581787 116.0
1482.658447 192.0
1483.081787 188.0
1483.256226 148.0
1483.352417 276.0
1483.409546 156.0
1483.555176 116.0
1483.861938 172.0
1484.494995 132.0
1484.559692 344.0
1484.634644 144.0
1485.027466 112.0
1485.212402 76.0
1485.3573 56.0
1485.464722 168.0
1485.779175 132.0
1485.978638 160.0
1486.224243 152.0
1486.293213 260.0
1486.469727 240.0
1486.653931 172.0
1486.784424 292.0
1486.899536 140.0
1487.022339 140.0
1487.323608 120.0
1487.406006 192.0
1487.489136 156.0
1487.505615 128.0
1487.812866 244.0
1487.928101 124.0
1488.28894 200.0
1488.358032 60.0
1488.496216 108.0
1488.61145 128.0
1488.695923 144.0
1489.195068 168.0
1489.371704 172.0
1489.492676 240.0
1489.732788 172.0
1489.872559 196.0
1489.932495 152.0
1490.086182 104.0
1490.156738 156.0
1490.485718 176.0
1490.57019 148.0
1490.662476 156.0
1490.754639 120.0
1490.985229 236.0
1491.093018 188.0
1491.277222 148.0
1491.350342 280.0
1491.438599 228.0
1491.607788 172.0
1492.276611 84.0
1492.53833 180.0
1492.830688 168.0
1492.99939 148.0
1493.252808 148.0
1493.499268 152.0
1493.596924 172.0
1493.845459 292.0
1494.322388 112.0
1494.391602 60.0
1494.530151 120.0
1494.691772 140.0
1494.853271 184.0
1494.973022 204.0
1495.268921 124.0
1495.368896 148.0
1495.445923 148.0
1495.546021 164.0
1495.776855 376.0
1495.984741 144.0
1496.10791 156.0
1496.24646 172.0
1496.492798 216.0
1496.63147 92.0
1496.862427 76.0
1496.98938 216.0
1497.093506 104.0
1497.332153 172.0
1497.52478 136.0
1497.609497 112.0
1497.734375 128.0
1497.855957 144.0
1498.140991 152.0
1498.218018 144.0
1498.325806 168.0
1498.487671 184.0
1498.541504 156.0
1498.634033 80.0
1498.781738 136.0
1499.037476 180.0
1499.259888 116.0
1499.358398 120.0
1499.444092 136.0
1499.512451 216.0
1499.574219 164.0
1499.674316 196.0
1499.743774 188.0
1499.884521 152.0
1499.982666 164.0
1500.12146 148.0
1500.33728 304.0
1500.409546 152.0
1500.491455 172.0
1500.64563 216.0
1500.792114 132.0
1500.876953 156.0
1500.954102 48.0
1501.023438 136.0
1501.185425 184.0
1501.254761 180.0
1501.329346 240.0
1501.385864 144.0
1501.771484 116.0
1501.979736 108.0
1502.039673 152.0
1502.068115 116.0
1502.321411 184.0
1502.914185 232.0
1503.031372 160.0
1503.167847 76.0
1503.237305 140.0
1503.36084 220.0
1503.46936 120.0
1503.661743 68.0
1504.070923 180.0
1504.148071 144.0
1504.286987 164.0
1504.387329 88.0
1504.543945 128.0
1505.030151 168.0
1505.213501 156.0
