>compound MLS001401378-01!NELFINAVIR MESYLATE
>formula C32H45N3O4S
>ionization [M+H]+
>parentmass 568.319214
#inchi InChI=1S/C32H45N3O4S/c1-21-25(15-10-16-28(21)36)30(38)33-26(20-40-24-13-6-5-7-14-24)29(37)19-35-18-23-12-9-8-11-22(23)17-27(35)31(39)34-32(2,3)4/h5-7,10,13-16,22-23,26-27,29,36-37H,8-9,11-12,17-20H2,1-4H3,(H,33,38)(H,34,39)/t22-,23+,26-,27-,29+/m0/s1
#inchikey QAGYKUNXZHXKMR
#origInchi InChI=1S/C32H45N3O4S.CH4O3S/c1-21-25(15-10-16-28(21)36)30(38)33-26(20-40-24-13-6-5-7-14-24)29(37)19-35-18-23-12-9-8-11-22(23)17-27(35)31(39)34-32(2,3)4;1-5(2,3)4/h5-7,10,13-16,22-23,26-27,29,36-37H,8-9,11-12,17-20H2,1-4H3,(H,33,38)(H,34,39);1H3,(H,2,3,4)/t22-,23+,26-,27-,29+;/m0./s1
#Ion_Source LC-ESI
#Instrument qTof
#Compound_Source NIH Pharmacologically Active Library
#PI Dorrestein
#Data_Collector VP/LMS
#Scan -1
#Precursor_MZ 568.332
#ExactMass 567.313
#Charge 1
#CAS_Number N/A
#Pubmed_ID N/A
#Smiles Cc1c(O)cccc1C(=O)N[C@@H](CSc2ccccc2)[C@H](O)CN3C[C@H]4CCCC[C@H]4C[C@H]3C(=O)NC(C)(C)C.CS(=O)(=O)O
#INCHI_AUX N/A
#Library_Class 1
#SpectrumID CCMSLIB00000085543
#IonMode Positive
#UpdateWorkflowName UPDATE-SINGLE-ANNOTATED-GOLD
#LibraryQualityString Gold
#TaskID d252d724072548979f1f6f1ced849daf
##Scan# 1847
#SpectrumFile p4-C05_GC5_01_18353.mzXML
#LibraryName Pharm_Active_Library.mgf
#MQScore -1
#Organism Pharm_Active_Library
#TIC_Query 0
#RT_Query -1
#MZErrorPPM -1
#SharedPeaks 0
#MassDiff 0
#LibMZ -1
#SpecMZ 568.332
#SpecCharge 0
#internalFilename spec-00000.mgf

>collision 10
44.940411 240.0
45.005325 188.0
45.042717 132.0
45.052067 112.0
45.074783 176.0
45.116215 188.0
45.13092 128.0
45.191109 152.0
45.266846 240.0
45.385323 160.0
45.41214 156.0
45.515083 192.0
45.553078 64.0
45.582241 176.0
45.64806 340.0
45.663296 428.0
45.686882 156.0
45.71442 96.0
45.74403 164.0
45.83157 192.0
45.842346 184.0
45.855824 144.0
45.939423 224.0
45.982601 32.0
46.064964 180.0
46.112255 152.0
46.137115 184.0
46.162277 164.0
46.290829 212.0
46.422276 180.0
46.441261 228.0
46.498245 120.0
46.651733 176.0
46.703403 168.0
46.757828 176.0
46.768715 180.0
46.828621 120.0
46.846329 192.0
46.870205 160.0
46.945827 60.0
47.026318 260.0
47.108246 128.0
47.142403 108.0
47.153336 200.0
47.194344 164.0
47.288734 148.0
47.46957 104.0
47.512089 116.0
47.534042 188.0
47.556 148.0
47.568352 76.0
47.669987 52.0
47.698849 88.0
47.712597 204.0
47.753849 180.0
47.773106 288.0
47.800621 104.0
47.905258 168.0
47.947971 184.0
47.972782 52.0
48.130062 192.0
48.160442 168.0
48.20327 68.0
48.243889 124.0
48.27792 160.0
48.478645 148.0
48.607609 236.0
48.724239 164.0
48.74091 136.0
48.871613 212.0
48.91058 284.0
48.931461 184.0
48.969059 88.0
49.005276 192.0
49.047085 84.0
49.212242 164.0
49.232643 184.0
49.329048 196.0
49.627243 224.0
49.639862 88.0
49.726841 172.0
49.777382 168.0
49.819515 116.0
49.854641 76.0
49.905949 200.0
50.034683 76.0
50.136097 104.0
50.169926 236.0
50.246311 148.0
50.493275 236.0
50.504589 52.0
50.524395 56.0
50.552692 88.0
50.566666 192.0
50.631969 156.0
50.777683 132.0
50.887207 192.0
50.902184 256.0
50.912102 180.0
50.975269 100.0
50.985218 144.0
51.002274 68.0
51.109287 208.0
51.123161 116.0
51.202885 148.0
51.231373 128.0
51.266994 64.0
51.294071 192.0
51.351105 32.0
51.378208 124.0
51.431007 184.0
51.466694 172.0
51.500969 160.0
51.533825 208.0
51.56955 108.0
51.588135 128.0
51.616726 164.0
51.745499 192.0
51.779865 140.0
51.809948 148.0
51.828571 164.0
51.950436 116.0
52.450851 176.0
52.512852 160.0
52.559013 128.0
52.623966 116.0
52.67778 212.0
52.706295 80.0
52.752541 212.0
52.927601 136.0
52.969147 192.0
53.024658 220.0
53.055138 144.0
53.071323 104.0
53.172588 120.0
53.182747 212.0
53.229202 164.0
53.249031 208.0
53.387596 248.0
53.455677 180.0
53.581188 136.0
53.680302 156.0
53.711769 164.0
53.728432 172.0
53.741562 136.0
53.762722 168.0
53.786804 104.0
53.837902 144.0
53.861271 68.0
53.932869 164.0
53.9431 132.0
54.027916 156.0
54.089378 120.0
54.136227 176.0
54.171379 152.0
54.19199 116.0
54.253445 128.0
54.263706 144.0
54.326767 60.0
54.452999 184.0
54.513233 108.0
54.547035 172.0
54.564381 120.0
54.58379 140.0
54.683826 228.0
54.773643 220.0
54.804581 200.0
54.847317 108.0
54.887119 200.0
54.904816 168.0
55.005146 104.0
55.036148 152.0
55.061253 72.0
55.186855 140.0
55.382195 148.0
55.435532 116.0
55.513309 188.0
55.558594 108.0
55.598656 116.0
55.693676 116.0
55.730816 200.0
55.827435 172.0
56.099903 168.0
56.168499 92.0
56.219223 112.0
56.250568 208.0
56.370049 152.0
56.392464 176.0
56.416382 120.0
56.491154 128.0
56.527058 184.0
56.555496 100.0
56.603401 136.0
56.658817 304.0
56.726254 156.0
56.748741 140.0
56.766735 132.0
56.778732 120.0
56.793728 176.0
56.859745 120.0
56.88903 184.0
56.942352 168.0
56.970856 84.0
57.026455 160.0
57.080574 88.0
57.104637 148.0
57.16481 144.0
57.286766 96.0
57.316273 116.0
57.384724 144.0
57.507809 200.0
57.528046 184.0
57.556728 196.0
57.597504 120.0
57.608078 176.0
57.635273 116.0
57.663986 112.0
57.709335 180.0
57.735043 96.0
57.772854 148.0
57.784958 168.0
57.803116 204.0
57.924232 176.0
57.949554 56.0
58.066708 188.0
58.251884 208.0
58.295944 64.0
58.344582 140.0
58.441311 276.0
58.476917 128.0
58.502796 124.0
58.539337 144.0
58.560658 160.0
58.591122 64.0
58.606358 252.0
58.636833 136.0
58.674942 140.0
58.699337 160.0
58.819862 308.0
58.946625 120.0
58.981777 164.0
59.041477 204.0
59.180653 148.0
59.216007 136.0
59.314808 140.0
59.355328 108.0
59.474991 208.0
59.517975 184.0
59.597847 52.0
59.630116 132.0
59.777752 80.0
59.820847 236.0
59.882435 84.0
59.942516 104.0
59.974731 208.0
60.025757 84.0
60.137123 148.0
60.30518 200.0
60.373207 132.0
60.422703 196.0
60.44746 48.0
60.473766 160.0
60.544983 108.0
60.582157 240.0
60.593788 156.0
60.641041 168.0
60.681343 128.0
60.69854 132.0
60.709251 172.0
60.847469 152.0
60.904804 212.0
60.926552 164.0
61.07267 156.0
61.172256 156.0
61.192493 232.0
61.315552 92.0
61.359196 88.0
61.39048 188.0
61.420013 164.0
61.437172 144.0
61.449654 164.0
61.469936 148.0
61.549545 128.0
61.63702 204.0
61.72768 52.0
61.744881 168.0
61.788681 180.0
61.835621 252.0
61.877888 176.0
61.979965 208.0
62.003197 156.0
62.029842 152.0
62.040817 192.0
62.069038 148.0
62.144325 124.0
62.161587 144.0
62.191402 124.0
62.220215 204.0
62.356319 144.0
62.535614 80.0
62.557652 232.0
62.7262 200.0
62.753002 124.0
62.775078 200.0
62.949406 152.0
62.969185 144.0
62.986561 160.0
63.150944 116.0
63.185745 120.0
63.218517 112.0
63.282288 152.0
63.306038 192.0
63.321873 132.0
63.334545 260.0
63.454979 160.0
63.497829 188.0
63.521587 236.0
63.60886 224.0
63.745445 236.0
63.821743 148.0
63.848778 200.0
63.910816 136.0
63.99358 152.0
64.063652 64.0
64.149704 256.0
64.19754 216.0
64.227837 184.0
64.24379 60.0
64.374664 64.0
64.400223 164.0
64.415443 128.0
64.467323 144.0
64.520065 132.0
64.547249 144.0
64.614426 188.0
64.665627 68.0
64.71685 212.0
64.804947 104.0
64.817764 184.0
64.835388 204.0
64.907524 148.0
64.952431 132.0
64.965263 212.0
65.026237 48.0
65.124176 132.0
65.177193 48.0
65.194633 136.0
65.217369 200.0
65.228615 180.0
65.284889 172.0
65.381416 188.0
65.418434 80.0
65.468346 44.0
65.487671 64.0
65.515053 200.0
65.56823 72.0
65.602074 140.0
65.767242 212.0
65.863487 140.0
65.957199 44.0
65.987915 212.0
66.081917 132.0
66.096283 388.0
66.12056 136.0
66.154549 264.0
66.167503 168.0
66.230652 148.0
66.250092 144.0
66.365158 216.0
66.410263 172.0
66.475456 208.0
66.542007 120.0
66.636208 108.0
66.733727 36.0
66.8004 180.0
66.836197 192.0
66.893158 72.0
66.950142 164.0
66.971313 48.0
66.994118 156.0
67.029472 260.0
67.051147 140.0
67.075592 116.0
67.170166 88.0
67.194641 156.0
67.20932 68.0
67.239418 272.0
67.326141 192.0
67.362785 128.0
67.424873 156.0
67.560585 156.0
67.621132 160.0
67.645683 184.0
67.699715 188.0
67.840622 216.0
67.85865 104.0
67.952141 152.0
68.004646 228.0
68.039116 168.0
68.067032 132.0
68.090019 260.0
68.209961 112.0
68.237907 156.0
68.24942 152.0
68.267509 212.0
68.364563 204.0
68.3909 140.0
68.573715 184.0
68.593498 172.0
68.626366 128.0
68.649551 108.0
68.723778 140.0
68.753479 120.0
68.794746 212.0
68.81456 144.0
68.844276 48.0
68.907043 132.0
69.10379 192.0
69.141846 224.0
69.173294 196.0
69.208061 140.0
69.22628 52.0
69.239525 128.0
69.264366 164.0
69.284248 148.0
69.345558 124.0
69.509735 108.0
69.572807 172.0
69.620956 68.0
69.709 236.0
69.735588 136.0
69.757195 196.0
69.777634 232.0
69.792114 164.0
69.833687 172.0
69.99511 100.0
70.011765 168.0
70.023422 104.0
70.083389 288.0
70.148384 144.0
70.165054 156.0
70.278465 168.0
70.29055 132.0
70.378616 60.0
70.529594 160.0
70.577446 104.0
70.59082 224.0
70.653214 212.0
70.760864 204.0
70.779907 204.0
70.796654 92.0
70.911674 164.0
70.964218 168.0
71.007263 196.0
71.02626 220.0
71.140373 196.0
71.226006 132.0
71.273048 96.0
71.312645 188.0
71.322105 204.0
71.343636 216.0
71.37558 96.0
71.404167 132.0
71.426033 160.0
71.464729 140.0
71.501793 160.0
71.53878 160.0
71.636444 92.0
71.713959 52.0
71.737556 124.0
71.751045 196.0
71.76284 160.0
71.825241 52.0
71.85054 156.0
71.884285 208.0
71.941673 196.0
72.037926 60.0
72.14418 160.0
72.206955 40.0
72.27462 104.0
72.298309 180.0
72.345703 212.0
72.406784 212.0
72.471024 112.0
72.564247 136.0
72.587982 184.0
72.626991 108.0
72.679581 128.0
72.727097 68.0
72.754257 184.0
72.890129 92.0
72.976814 176.0
73.078865 144.0
73.182686 168.0
73.243797 208.0
73.336319 108.0
73.393967 176.0
73.499199 184.0
73.538963 176.0
73.569695 64.0
73.647415 188.0
73.716576 168.0
73.80204 128.0
73.936165 196.0
73.983391 180.0
74.014214 216.0
74.048462 148.0
74.079292 180.0
74.15126 156.0
74.207825 144.0
74.34333 88.0
74.422295 136.0
74.456635 188.0
74.560883 100.0
74.612999 68.0
74.654266 44.0
74.702423 120.0
74.719582 164.0
74.722595 160.0
74.745438 184.0
74.759201 44.0
74.871101 124.0
74.886597 40.0
75.045135 112.0
75.070999 164.0
75.119293 144.0
75.212074 172.0
75.319527 160.0
75.386909 140.0
75.481499 216.0
75.511383 136.0
75.532135 208.0
75.565002 132.0
75.69207 164.0
75.737175 148.0
75.743759 200.0
75.897552 228.0
75.979065 124.0
75.999748 200.0
76.123131 152.0
76.158386 192.0
76.190865 168.0
76.265587 120.0
76.302094 120.0
76.345558 200.0
76.389046 184.0
76.561348 152.0
76.583313 232.0
76.620575 148.0
76.648453 164.0
76.672844 224.0
76.693764 204.0
76.728622 96.0
76.751289 132.0
76.821999 192.0
76.89608 140.0
76.911789 196.0
77.019295 224.0
77.026215 128.0
77.031837 164.0
77.051491 240.0
77.43457 100.0
77.506393 48.0
77.569481 128.0
77.594025 188.0
77.63427 160.0
77.758331 156.0
77.815086 180.0
77.869522 192.0
77.925735 184.0
77.962631 264.0
78.004814 76.0
78.112076 132.0
78.12439 256.0
78.137878 204.0
78.284561 108.0
78.377914 72.0
78.393776 132.0
78.485435 152.0
78.552452 184.0
78.568329 156.0
78.599251 84.0
78.679512 208.0
78.702461 200.0
78.714821 184.0
78.759201 216.0
78.827873 184.0
78.870293 156.0
78.946312 164.0
79.002914 176.0
79.094933 80.0
79.119713 168.0
79.151581 148.0
79.245453 168.0
79.291527 156.0
79.346222 192.0
79.419182 156.0
79.465302 160.0
79.504341 140.0
79.554039 88.0
79.594872 92.0
79.658813 108.0
79.722771 116.0
79.767204 136.0
79.779648 156.0
79.811653 64.0
79.873894 204.0
79.931366 224.0
79.968193 248.0
79.993118 100.0
80.085709 144.0
80.13649 176.0
80.156967 84.0
80.195663 168.0
80.246086 192.0
80.342392 156.0
80.488747 168.0
80.660255 140.0
80.679916 192.0
80.715675 148.0
80.728188 140.0
80.858788 68.0
80.908905 92.0
80.932182 144.0
80.998444 148.0
81.012772 160.0
81.034271 176.0
81.096992 136.0
81.226089 168.0
81.261963 64.0
81.339371 180.0
81.383141 156.0
81.418129 172.0
81.484436 164.0
81.570854 180.0
81.67514 140.0
81.803818 196.0
81.835304 120.0
81.948776 128.0
82.121834 136.0
82.161514 164.0
82.187744 112.0
82.215645 100.0
82.25174 220.0
82.277016 72.0
82.385368 184.0
82.407051 120.0
82.428734 144.0
82.468491 208.0
82.510513 160.0
82.693314 224.0
82.924583 140.0
82.949959 184.0
82.982597 216.0
83.01886 136.0
83.040619 180.0
83.171127 164.0
83.242058 112.0
83.30381 188.0
83.456474 176.0
83.4692 140.0
83.574699 176.0
83.615608 168.0
83.671158 204.0
83.713036 152.0
83.730255 148.0
83.778603 204.0
83.791359 112.0
83.83873 116.0
83.878998 176.0
84.083107 132.0
84.176208 212.0
84.188995 172.0
84.305908 176.0
84.339523 112.0
84.411934 168.0
84.636131 220.0
84.658974 40.0
84.695602 212.0
84.717583 152.0
84.820198 176.0
84.8367 56.0
84.919212 224.0
84.996262 196.0
85.098427 164.0
85.130257 148.0
85.348099 212.0
85.455605 116.0
85.47139 148.0
85.494247 112.0
85.521851 176.0
85.545784 136.0
85.645218 184.0
85.669159 116.0
85.696793 168.0
85.722595 40.0
85.742867 116.0
85.801849 124.0
85.881142 156.0
85.97892 160.0
86.124779 148.0
86.142448 204.0
86.27076 128.0
86.292938 40.0
86.318825 76.0
86.368759 128.0
86.392807 184.0
86.44091 152.0
86.503838 220.0
86.572342 216.0
86.614342 200.0
86.689049 80.0
86.716484 164.0
86.750038 216.0
86.854454 240.0
86.862251 248.0
86.915268 200.0
86.937538 60.0
86.991364 180.0
87.157722 244.0
87.184525 72.0
87.214264 40.0
87.259552 132.0
87.363022 112.0
87.539841 192.0
87.586395 152.0
87.6269 232.0
87.703789 132.0
87.759796 176.0
87.869751 52.0
87.901474 188.0
88.013466 176.0
88.102119 172.0
88.127403 224.0
88.166641 160.0
88.280678 108.0
88.404144 112.0
88.602615 188.0
88.731926 72.0
88.776924 136.0
88.850075 136.0
88.870712 132.0
89.026512 224.0
89.077225 156.0
89.09037 196.0
89.12043 140.0
89.212006 160.0
89.231323 164.0
89.246361 160.0
89.447662 164.0
89.477318 240.0
89.498489 188.0
89.647301 136.0
89.677452 172.0
89.696304 192.0
89.773605 168.0
89.81321 220.0
89.958504 104.0
89.998146 216.0
90.028358 96.0
90.049133 204.0
90.249443 172.0
90.361031 156.0
90.459442 192.0
90.484047 104.0
90.523811 124.0
90.634804 228.0
90.652626 192.0
90.703796 128.0
90.718964 228.0
90.809975 56.0
90.828941 288.0
90.880165 172.0
90.965569 144.0
91.011131 68.0
91.05378 156.0
91.212502 192.0
91.355125 108.0
91.480721 116.0
91.547356 76.0
91.581635 364.0
91.600685 168.0
91.705482 216.0
91.722633 140.0
91.741699 164.0
91.783638 140.0
91.84848 148.0
91.970596 168.0
92.234192 176.0
92.310982 192.0
92.345085 124.0
92.396729 132.0
92.431175 80.0
92.45031 244.0
92.498154 212.0
92.524956 176.0
92.584312 172.0
92.609207 308.0
92.62645 192.0
92.660934 276.0
92.727997 140.0
92.752914 172.0
92.773361 168.0
92.781189 112.0
92.783966 140.0
92.904701 180.0
93.023384 196.0
93.077141 308.0
93.201431 220.0
93.244263 128.0
93.263489 232.0
93.282707 100.0
93.367867 192.0
93.432701 140.0
93.451942 140.0
93.473106 176.0
93.550095 52.0
93.706085 124.0
93.739853 156.0
93.787018 64.0
93.819794 172.0
93.850052 120.0
93.873779 192.0
93.977936 168.0
94.016525 168.0
94.044594 140.0
94.093735 84.0
94.151665 164.0
94.219269 236.0
94.270279 200.0
94.305176 176.0
94.329422 176.0
94.426094 172.0
94.524757 124.0
94.617661 152.0
94.704796 140.0
94.757103 232.0
94.881134 176.0
94.950577 108.0
95.013008 200.0
95.061516 156.0
95.11483 172.0
95.265381 136.0
95.346985 176.0
95.363602 156.0
95.387802 156.0
95.434456 168.0
95.556992 248.0
95.590065 172.0
95.621208 100.0
95.664024 68.0
95.766647 188.0
95.82177 228.0
95.880226 188.0
95.973961 140.0
96.016693 128.0
96.03035 236.0
96.088867 168.0
96.155212 204.0
96.205963 132.0
96.256721 212.0
96.403229 128.0
96.424728 184.0
96.545937 164.0
96.57991 216.0
96.618309 184.0
96.647652 112.0
96.667221 264.0
96.688744 124.0
96.753342 232.0
96.784668 188.0
96.817955 164.0
96.833626 232.0
96.868881 140.0
96.94725 164.0
97.009972 160.0
97.049179 164.0
97.084473 124.0
97.162933 112.0
97.204132 140.0
97.245346 108.0
97.282639 128.0
97.337616 64.0
97.394569 132.0
97.451538 168.0
97.467255 172.0
97.508522 84.0
97.610748 136.0
97.659912 40.0
97.732697 160.0
97.762215 164.0
97.870476 200.0
98.09507 184.0
98.154213 136.0
98.193657 96.0
98.35347 120.0
98.483788 140.0
98.517365 132.0
98.573006 124.0
98.612213 176.0
98.705124 156.0
98.760498 180.0
98.821823 188.0
98.934631 192.0
99.102974 76.0
99.130714 116.0
99.15995 196.0
99.253479 176.0
99.287323 124.0
99.325005 196.0
99.395302 200.0
99.440086 36.0
99.463905 136.0
99.511543 148.0
99.561188 124.0
99.624748 72.0
99.670891 88.0
99.716148 132.0
99.829468 160.0
99.853333 104.0
99.873222 164.0
99.897087 164.0
100.001884 180.0
100.031868 192.0
100.090141 188.0
100.110054 148.0
100.15387 180.0
100.174187 180.0
100.251488 176.0
100.335205 116.0
100.351151 212.0
100.387047 96.0
100.434387 152.0
100.588554 124.0
100.716255 180.0
100.744308 236.0
100.766289 108.0
100.912186 104.0
101.004173 268.0
101.018173 236.0
101.094208 188.0
101.118217 168.0
101.169632 152.0
101.212303 172.0
101.265373 296.0
101.302429 188.0
101.338493 164.0
101.400612 152.0
101.579063 184.0
101.667343 148.0
101.790535 184.0
101.982651 124.0
102.008781 232.0
102.077141 44.0
102.129425 228.0
102.294426 120.0
102.501869 152.0
102.548218 168.0
102.576439 160.0
102.59861 100.0
102.631927 136.0
102.707504 156.0
102.721626 104.0
102.778114 164.0
102.796272 36.0
102.832596 212.0
102.885078 88.0
102.921417 96.0
103.067101 168.0
103.236649 48.0
103.250801 172.0
103.337784 236.0
103.360039 148.0
103.404564 176.0
103.428848 228.0
103.47541 140.0
103.627304 64.0
103.649597 120.0
103.704308 220.0
103.773232 152.0
103.854347 236.0
103.882744 92.0
103.925346 112.0
103.9842 144.0
104.079605 224.0
104.099915 168.0
104.130379 196.0
104.146622 68.0
104.177094 156.0
104.256332 184.0
104.286453 200.0
104.3722 168.0
104.388466 216.0
104.490166 192.0
104.616341 112.0
104.766144 164.0
104.803711 212.0
104.831795 220.0
104.858727 192.0
104.909691 128.0
104.958618 176.0
104.98513 180.0
104.999405 144.0
105.042236 32.0
105.07074 152.0
105.097321 124.0
105.133698 164.0
105.205002 136.0
105.24836 140.0
105.266739 136.0
105.309624 156.0
105.426071 164.0
105.4506 184.0
105.532364 196.0
105.580269 172.0
105.644852 180.0
105.743065 132.0
105.773766 152.0
105.806519 156.0
105.898666 160.0
106.029785 216.0
106.070427 172.0
106.087173 84.0
106.21431 68.0
106.228668 164.0
106.306808 240.0
106.336273 136.0
106.415421 216.0
106.524269 124.0
106.538651 176.0
106.569466 180.0
106.624947 244.0
106.657829 224.0
106.674278 188.0
106.69278 240.0
106.762688 184.0
106.921089 108.0
106.954025 188.0
107.018845 164.0
107.049896 3784.0
107.26918 76.0
107.342445 380.0
107.368141 268.0
107.413521 136.0
107.446297 108.0
107.463028 56.0
107.578598 188.0
107.654991 144.0
107.71489 108.0
107.754143 180.0
107.788506 196.0
107.83886 132.0
107.861595 104.0
107.993927 120.0
108.029091 132.0
108.053864 372.0
108.089088 128.0
108.108841 220.0
108.196716 196.0
108.250549 464.0
108.339607 144.0
108.405914 88.0
108.459801 64.0
108.486748 132.0
108.536499 136.0
108.60556 216.0
108.6651 144.0
108.69207 104.0
108.723198 176.0
108.74395 76.0
108.775085 192.0
108.845673 144.0
108.872665 116.0
108.920433 184.0
108.957832 92.0
109.013077 148.0
109.065872 948.0
109.101471 380.0
109.132805 272.0
109.153198 112.0
109.176079 196.0
109.267593 148.0
109.296722 180.0
109.325859 72.0
109.377892 136.0
109.398705 152.0
109.512039 56.0
109.556969 168.0
109.578316 180.0
109.694504 200.0
109.734116 140.0
109.771645 160.0
109.894714 36.0
110.015831 112.0
110.065865 144.0
110.274765 140.0
110.29776 180.0
110.43576 136.0
110.53199 152.0
110.695267 188.0
110.774849 28.0
110.869133 96.0
110.96064 244.0
110.980232 224.0
111.02565 316.0
111.055725 84.0
111.091385 128.0
111.393669 236.0
111.526039 232.0
111.626953 120.0
111.677429 144.0
111.7742 172.0
111.816284 176.0
111.906799 104.0
112.050018 176.0
112.087944 32.0
112.157486 148.0
112.30719 160.0
112.355492 196.0
112.423225 148.0
112.519669 180.0
112.654305 156.0
112.756325 148.0
112.891266 100.0
113.015411 176.0
113.050858 112.0
113.16304 148.0
113.211739 172.0
113.271042 180.0
113.298584 72.0
113.315529 220.0
113.425728 164.0
113.440567 200.0
113.480843 164.0
113.508408 224.0
113.538101 148.0
113.582634 152.0
113.610214 160.0
113.71843 196.0
113.832161 160.0
113.886162 112.0
113.905281 152.0
113.963867 208.0
114.032761 128.0
114.075272 152.0
114.094406 196.0
114.190247 208.0
114.234764 44.0
114.268799 176.0
114.326248 192.0
114.343277 96.0
114.382652 104.0
114.411385 128.0
114.513596 148.0
114.645683 152.0
114.668457 268.0
114.701096 72.0
114.722412 144.0
114.903687 36.0
114.939957 196.0
114.95916 188.0
114.993736 80.0
115.016785 156.0
115.055206 260.0
115.121399 148.0
115.142754 140.0
115.172653 188.0
115.198288 148.0
115.21965 140.0
115.234604 44.0
115.255974 136.0
115.270927 64.0
115.314972 184.0
115.416283 172.0
115.44194 64.0
115.65374 168.0
115.700836 124.0
115.765068 156.0
115.829323 124.0
115.885017 116.0
115.954796 164.0
115.990028 104.0
116.060173 272.0
116.206619 176.0
116.245247 140.0
116.275284 184.0
116.339684 168.0
116.427711 56.0
116.464226 68.0
116.485703 84.0
116.528854 188.0
116.552307 192.0
116.661446 204.0
116.732864 128.0
116.765121 56.0
116.795235 148.0
116.811623 196.0
116.846863 184.0
116.907104 120.0
116.937233 68.0
116.987137 196.0
117.027649 136.0
117.073257 220.0
117.251671 196.0
117.38533 112.0
117.480225 148.0
117.732758 44.0
117.794006 112.0
117.881813 128.0
117.903427 176.0
117.929359 220.0
118.098434 160.0
118.134773 184.0
118.167229 180.0
118.201843 108.0
118.302017 184.0
118.320885 136.0
118.446487 144.0
118.548317 164.0
118.565651 132.0
118.663193 56.0
118.691383 152.0
118.73909 116.0
118.762947 132.0
118.830193 48.0
118.919159 108.0
118.969086 116.0
119.014465 240.0
119.086098 108.0
119.134132 160.0
119.184097 140.0
119.260162 188.0
119.37973 88.0
119.403656 108.0
119.471085 188.0
119.517624 248.0
119.586411 124.0
119.632118 108.0
119.68219 72.0
119.70179 84.0
119.738808 108.0
119.764946 244.0
119.782372 88.0
119.834656 140.0
119.934898 96.0
119.969772 192.0
120.009018 96.0
120.06353 84.0
120.207504 180.0
120.299171 148.0
120.377777 156.0
120.437813 140.0
120.552528 168.0
120.589684 116.0
120.620285 144.0
120.674934 124.0
120.777718 204.0
120.843346 124.0
120.914185 192.0
120.957138 204.0
121.000076 172.0
121.064003 388.0
121.12104 80.0
121.333923 184.0
121.382164 88.0
121.401901 196.0
121.478661 160.0
121.638107 212.0
121.678368 196.0
121.709106 132.0
121.788162 164.0
121.867523 188.0
121.933167 76.0
121.963936 72.0
122.040878 176.0
122.066757 156.0
122.111687 160.0
122.190437 204.0
122.21904 148.0
122.249847 196.0
122.289459 120.0
122.304871 136.0
122.320274 176.0
122.375168 184.0
122.399536 252.0
122.500839 164.0
122.536087 120.0
122.644066 164.0
122.6595 156.0
122.810966 184.0
122.894669 200.0
122.930771 160.0
123.026749 10920.0
123.115341 184.0
123.144913 160.0
123.167 108.0
123.193718 172.0
123.228859 72.0
123.253159 128.0
123.317245 128.0
123.434418 200.0
123.529518 212.0
123.582611 76.0
123.671127 200.0
123.691048 168.0
123.775177 172.0
124.029915 824.0
124.056549 144.0
124.0765 104.0
124.094948 212.0
124.134148 216.0
124.194031 108.0
124.220642 84.0
124.253922 140.0
124.307175 92.0
124.376724 180.0
124.455887 200.0
124.509186 164.0
124.59803 184.0
124.638023 92.0
124.65358 220.0
124.671356 116.0
124.700249 104.0
124.751373 188.0
124.795837 88.0
124.981522 140.0
125.021187 788.0
125.052185 284.0
125.127335 148.0
125.196899 248.0
125.314377 220.0
125.480247 88.0
125.50164 72.0
125.535088 148.0
125.635452 148.0
125.683769 220.0
125.719017 180.0
125.820686 180.0
125.983711 92.0
125.999344 128.0
126.041794 196.0
126.059731 168.0
126.102135 140.0
126.410751 144.0
126.527138 196.0
126.912498 176.0
126.968559 168.0
127.022385 400.0
127.049301 316.0
127.063889 180.0
127.082954 160.0
127.130325 180.0
127.148033 188.0
127.235573 140.0
127.280479 116.0
127.35009 120.0
127.401756 144.0
127.466911 160.0
127.502869 156.0
127.662483 156.0
127.708122 204.0
127.761444 140.0
127.828941 236.0
127.957237 212.0
127.973 136.0
128.061234 620.0
128.250076 200.0
128.297424 160.0
128.426239 220.0
128.481354 200.0
128.504898 120.0
128.541 148.0
128.565826 72.0
128.671921 140.0
128.699005 112.0
128.735138 100.0
128.762238 192.0
128.915863 136.0
128.931671 188.0
129.017563 176.0
129.033386 108.0
129.062683 180.0
129.153244 68.0
129.218842 164.0
129.250519 156.0
129.38858 116.0
129.413483 144.0
129.465561 144.0
129.565231 156.0
129.583359 184.0
129.680801 140.0
129.787338 212.0
129.853104 236.0
129.92569 196.0
129.950638 156.0
130.020981 48.0
130.068649 88.0
130.09816 52.0
130.125397 208.0
130.150375 144.0
130.235001 168.0
130.252579 52.0
130.309372 172.0
130.377533 144.0
130.463913 184.0
130.479828 64.0
130.550308 100.0
130.604889 84.0
130.63446 412.0
130.687775 220.0
130.852936 188.0
130.882538 208.0
130.925797 236.0
130.998688 208.0
131.08754 268.0
131.320068 64.0
131.406754 168.0
131.470642 140.0
131.549805 204.0
131.62587 48.0
131.654236 132.0
131.664032 56.0
131.668152 116.0
131.830353 140.0
131.859238 180.0
131.95488 124.0
131.998322 120.0
132.028061 76.0
132.053268 300.0
132.13327 336.0
132.211075 216.0
132.331558 208.0
132.352829 112.0
132.400238 196.0
132.59581 160.0
132.6577 132.0
132.710434 180.0
132.747116 64.0
132.776932 64.0
132.830551 212.0
132.997177 132.0
133.036209 196.0
133.062317 224.0
133.134933 204.0
133.151535 212.0
133.173981 148.0
133.268158 204.0
133.387665 144.0
133.456635 164.0
133.51413 164.0
133.553223 144.0
133.601532 176.0
133.626831 196.0
133.665955 92.0
133.686661 80.0
133.742432 340.0
133.778717 124.0
133.79483 180.0
133.822464 136.0
133.898453 228.0
133.914581 172.0
133.985428 132.0
134.060806 2876.0
134.096588 204.0
134.146606 184.0
134.196884 132.0
134.223373 272.0
134.251053 340.0
134.299454 192.0
134.347916 116.0
134.501923 212.0
134.537155 148.0
134.56134 252.0
134.583206 148.0
134.613342 184.0
134.631821 132.0
134.678497 152.0
134.697861 216.0
134.707458 128.0
134.71402 312.0
134.749817 140.0
134.781509 180.0
134.805069 240.0
134.840515 296.0
134.879776 152.0
134.905624 156.0
134.940567 168.0
134.961929 164.0
135.000931 388.0
135.045166 129480.0
135.104416 112.0
135.129517 48.0
135.145203 132.0
135.16983 76.0
135.219818 128.0
135.255951 84.0
135.282898 264.0
135.324081 84.0
135.356339 80.0
135.397949 84.0
135.42485 816.0
135.456161 48.0
135.471527 200.0
135.494629 168.0
135.526321 224.0
135.549469 52.0
135.581329 64.0
135.621475 84.0
135.63826 144.0
135.656021 108.0
135.662079 36.0
135.671722 92.0
135.680237 112.0
135.686295 72.0
135.696518 60.0
135.733307 40.0
135.751862 96.0
135.774094 68.0
135.823761 228.0
135.867828 48.0
135.887878 144.0
135.926193 52.0
135.942078 160.0
135.976883 140.0
136.048157 10624.0
136.072891 284.0
136.108688 176.0
136.137756 148.0
136.15712 108.0
136.176239 148.0
136.223007 148.0
136.248566 52.0
136.298264 264.0
136.32756 52.0
136.3508 60.0
136.369385 72.0
136.390305 76.0
136.413559 60.0
136.444443 60.0
136.527481 76.0
136.5616 168.0
136.641464 68.0
136.690323 100.0
136.715912 84.0
136.735016 156.0
136.757812 152.0
136.821701 152.0
136.858459 136.0
136.916122 124.0
136.937866 96.0
136.948303 88.0
136.955368 80.0
136.987595 204.0
137.020081 644.0
137.048355 1428.0
137.070251 180.0
137.089142 224.0
137.121948 188.0
137.162018 84.0
137.214661 296.0
137.250748 172.0
137.29599 148.0
137.312317 32.0
137.330963 52.0
137.418884 64.0
137.45462 180.0
137.470947 68.0
137.522293 136.0
137.543304 72.0
137.571304 48.0
137.59465 276.0
137.748779 180.0
137.804855 120.0
137.895981 44.0
137.922302 164.0
137.942734 208.0
137.999588 152.0
138.047882 176.0
138.057083 172.0
138.090744 136.0
138.128479 12444.0
138.254852 180.0
138.2854 168.0
138.321487 80.0
138.40361 64.0
138.504318 108.0
138.51915 88.0
138.548828 56.0
138.602707 152.0
138.66832 188.0
138.766785 208.0
138.785538 76.0
138.928604 104.0
139.038483 120.0
139.13179 1172.0
139.198502 180.0
139.276001 100.0
139.2995 172.0
139.36763 48.0
139.54155 124.0
139.581528 164.0
139.659134 44.0
139.727341 156.0
139.74617 52.0
139.762634 156.0
139.783813 156.0
139.849716 88.0
139.915619 72.0
139.946228 112.0
139.988617 140.0
140.026291 128.0
140.056915 44.0
140.128525 180.0
140.181778 60.0
140.217117 140.0
140.245407 52.0
140.266617 196.0
140.283127 104.0
140.370361 88.0
140.514236 180.0
140.724289 112.0
140.789185 116.0
140.837631 164.0
140.877182 140.0
140.979385 52.0
141.059738 128.0
141.130371 96.0
141.352112 168.0
141.376678 88.0
141.457153 128.0
141.506104 172.0
141.757935 172.0
141.774521 52.0
141.88356 96.0
141.907257 68.0
142.021088 76.0
142.061417 340.0
142.13588 156.0
142.213272 148.0
142.291611 40.0
142.353348 128.0
142.450714 132.0
142.469727 196.0
142.514862 80.0
142.583771 216.0
142.633682 140.0
142.65271 176.0
142.738297 172.0
142.921448 112.0
142.942154 176.0
142.947922 124.0
142.955917 140.0
142.978561 88.0
143.019012 60.0
143.126144 132.0
143.242844 32.0
143.409637 64.0
143.497833 48.0
143.53244 156.0
143.600372 228.0
143.642899 164.0
143.693405 136.0
143.811279 60.0
143.917755 116.0
144.039551 176.0
144.072998 196.0
144.21637 96.0
144.246002 220.0
144.291565 140.0
144.359802 84.0
144.520065 96.0
144.551178 76.0
144.632538 164.0
144.709152 76.0
144.790558 184.0
144.912735 104.0
145.064896 248.0
145.114059 128.0
145.150024 108.0
145.262741 132.0
145.305313 200.0
145.392303 172.0
145.430695 88.0
145.471512 144.0
145.519516 164.0
145.574753 120.0
145.605972 72.0
145.690033 208.0
145.735687 108.0
145.818512 196.0
145.906326 136.0
145.935165 200.0
146.066422 344.0
146.108337 180.0
146.267151 128.0
146.332153 32.0
146.447739 120.0
146.524826 44.0
146.758606 128.0
146.852661 92.0
146.912964 48.0
146.939499 80.0
146.958801 160.0
147.019485 184.0
147.078583 600.0
147.159119 148.0
147.231567 108.0
147.282288 152.0
147.386169 152.0
147.427246 128.0
147.489029 228.0
147.526337 100.0
147.591614 152.0
147.669006 168.0
147.707703 128.0
147.901276 76.0
148.044113 184.0
148.075012 336.0
148.108429 296.0
148.170074 188.0
148.233063 184.0
148.311325 176.0
148.477905 168.0
148.523987 136.0
148.562805 144.0
148.718094 172.0
148.747223 168.0
148.815201 196.0
148.878326 124.0
148.902618 152.0
148.987625 152.0
149.042435 1624.0
149.082886 176.0
149.104263 340.0
149.143143 52.0
149.162598 184.0
149.257416 140.0
149.490921 212.0
149.590042 172.0
149.644272 192.0
149.673492 212.0
149.86348 180.0
149.960953 220.0
150.009705 112.0
150.052368 176.0
150.12883 868.0
150.35849 136.0
150.404861 68.0
150.42749 104.0
150.517166 220.0
150.683243 152.0
150.705231 188.0
151.021805 1164.0
151.055969 756.0
151.133392 264.0
151.216324 112.0
151.309341 136.0
151.397491 68.0
151.702698 96.0
151.735626 216.0
151.784653 164.0
151.860687 192.0
152.022598 316.0
152.07077 4424.0
152.143021 3640.0
152.2509 36.0
152.304932 52.0
152.582123 140.0
152.764603 56.0
152.816254 68.0
152.836761 144.0
152.896317 132.0
152.919617 52.0
152.963455 232.0
153.014099 156.0
153.043716 116.0
153.053024 164.0
153.071838 344.0
153.14476 572.0
153.250854 132.0
153.409775 148.0
153.710678 64.0
153.794586 160.0
153.895798 168.0
153.967407 136.0
154.034088 136.0
154.07608 220.0
154.12056 68.0
154.156433 180.0
154.305923 108.0
154.352905 104.0
154.417206 72.0
154.677002 144.0
154.808212 176.0
154.892426 192.0
154.914719 56.0
155.026215 140.0
155.058426 184.0
155.099258 176.0
155.184845 148.0
155.375824 164.0
155.422958 104.0
155.552002 148.0
155.710922 116.0
155.976761 160.0
156.024002 148.0
156.07869 152.0
156.315002 44.0
156.367264 104.0
156.571243 176.0
156.87735 132.0
156.910278 88.0
156.930237 212.0
157.062408 212.0
157.114792 140.0
157.162186 156.0
157.341888 148.0
157.361862 152.0
157.464233 216.0
157.554169 180.0
157.574142 100.0
157.856598 136.0
157.896606 48.0
157.959137 132.0
158.081726 108.0
158.317032 152.0
158.389664 100.0
158.452301 136.0
158.514725 144.0
158.853394 168.0
159.033203 172.0
159.078583 420.0
159.373077 148.0
159.609344 156.0
159.707062 192.0
159.750183 88.0
159.999329 176.0
160.027023 200.0
160.080215 664.0
160.213379 268.0
160.283936 116.0
160.349457 104.0
160.389771 68.0
160.450272 84.0
160.472961 144.0
160.493134 76.0
160.66716 120.0
160.757996 108.0
160.831177 140.0
160.869049 152.0
160.929642 92.0
160.983963 156.0
161.04248 3576.0
161.111481 60.0
161.210007 88.0
161.240341 160.0
161.263092 128.0
161.311111 172.0
161.37178 152.0
161.414764 216.0
161.518463 236.0
161.541229 180.0
161.591827 176.0
161.611252 236.0
161.650009 84.0
161.733536 80.0
161.766434 116.0
161.863342 116.0
161.931015 196.0
161.948746 100.0
162.048355 780.0
162.247757 124.0
162.330353 132.0
162.422729 104.0
162.491226 164.0
162.62825 96.0
162.86438 172.0
163.046997 148.0
163.075272 120.0
163.129211 160.0
163.288834 48.0
163.339706 116.0
163.583984 36.0
163.887039 180.0
163.912521 120.0
164.07309 144.0
164.109299 160.0
164.145035 348.0
164.218445 108.0
164.269455 108.0
164.353638 248.0
164.427643 136.0
164.524643 36.0
164.731491 40.0
164.759583 148.0
164.850021 192.0
164.894135 152.0
165.073959 148.0
165.132782 160.0
165.19162 96.0
165.273636 196.0
165.299072 152.0
165.416794 36.0
165.453537 136.0
165.67543 64.0
165.693375 180.0
165.831741 164.0
165.974564 196.0
166.121124 664.0
166.14386 168.0
166.226685 168.0
166.267731 180.0
166.403778 88.0
166.529602 120.0
166.606674 120.0
166.660614 108.0
166.688889 176.0
166.77626 132.0
166.876526 108.0
166.920227 164.0
166.938232 116.0
167.002518 144.0
167.069397 92.0
167.118286 172.0
167.151733 116.0
167.682236 116.0
167.937469 96.0
167.960693 132.0
168.138718 136.0
168.412384 164.0
168.492462 124.0
168.737976 132.0
169.053604 172.0
169.084595 140.0
169.263214 96.0
169.343491 116.0
169.571487 128.0
169.794449 72.0
169.825577 176.0
169.918106 196.0
170.113586 44.0
170.235626 64.0
170.513596 100.0
170.573257 172.0
170.976517 144.0
171.038971 144.0
171.192581 44.0
171.252487 276.0
171.41922 84.0
171.471329 132.0
171.664246 196.0
171.708588 72.0
171.839005 160.0
171.935547 156.0
171.969482 96.0
171.992966 100.0
172.504944 168.0
172.729828 88.0
173.08313 228.0
173.125031 104.0
173.219315 128.0
173.494476 100.0
173.716827 208.0
173.763641 220.0
173.890549 144.0
173.990295 128.0
174.024429 176.0
174.042801 148.0
174.092728 1288.0
174.129379 276.0
174.203003 156.0
174.245041 292.0
174.313354 128.0
174.457901 184.0
174.484192 68.0
174.644608 72.0
175.02092 112.0
175.039352 112.0
175.063049 144.0
175.096756 432.0
175.200012 180.0
175.323853 148.0
175.352844 108.0
175.458282 248.0
175.636185 180.0
175.67981 128.0
175.83548 156.0
175.978027 136.0
176.070053 1384.0
176.110062 236.0
176.147034 164.0
176.168167 120.0
176.189301 152.0
176.239502 128.0
176.294998 188.0
176.390137 108.0
176.466812 164.0
176.524979 216.0
176.665146 212.0
176.68367 44.0
176.853027 208.0
176.874207 120.0
176.936111 164.0
176.969498 172.0
177.035706 132.0
177.075348 388.0
177.154892 132.0
177.255569 92.0
177.49678 144.0
177.560425 128.0
177.94783 84.0
177.96907 100.0
177.995636 128.0
178.069321 364.0
178.087753 436.0
178.125732 308.0
178.322388 104.0
178.410095 116.0
178.505814 248.0
178.5457 164.0
178.604218 124.0
178.66806 148.0
178.723938 176.0
178.769165 60.0
178.923019 144.0
179.008743 260.0
179.052841 5536.0
179.120605 208.0
179.154922 140.0
179.190842 96.0
179.336426 116.0
179.422287 76.0
179.532532 208.0
179.59639 176.0
179.701767 76.0
179.749786 200.0
179.787155 60.0
180.006042 76.0
180.056641 1180.0
180.133179 372.0
180.201035 200.0
180.356018 204.0
180.416779 164.0
180.431839 188.0
180.52713 168.0
180.56456 44.0
180.610031 68.0
180.63945 100.0
180.837463 224.0
180.866898 152.0
180.912399 100.0
181.049408 284.0
181.131989 176.0
181.172165 132.0
181.437469 100.0
181.493774 304.0
181.52327 160.0
181.544724 80.0
181.617142 172.0
181.724442 56.0
181.744858 256.0
181.885452 180.0
181.933777 140.0
181.957932 148.0
181.998215 172.0
182.054596 80.0
182.223816 168.0
182.288315 100.0
182.456024 100.0
182.508728 196.0
182.549057 84.0
182.573257 132.0
182.861115 216.0
182.906876 168.0
182.944565 168.0
183.148163 596.0
183.375534 252.0
183.437531 156.0
183.572327 104.0
183.599304 128.0
183.67482 192.0
184.072952 168.0
184.149994 484.0
184.254196 160.0
184.320053 148.0
184.528168 168.0
184.655258 168.0
184.741821 208.0
184.804047 52.0
184.901459 120.0
185.186737 192.0
185.321182 160.0
185.467514 164.0
185.605774 188.0
186.132172 148.0
186.316864 168.0
186.392944 124.0
186.558731 40.0
186.59407 140.0
186.697403 28.0
186.841553 152.0
186.895966 112.0
187.083755 220.0
187.258026 172.0
187.323395 184.0
187.369705 68.0
187.435333 140.0
187.634064 116.0
187.738449 156.0
187.794952 132.0
187.824951 76.0
187.874054 116.0
187.999557 140.0
188.141647 240.0
188.253433 220.0
188.28894 76.0
188.504745 120.0
188.838272 144.0
189.076294 140.0
189.127228 184.0
189.151443 820.0
189.191254 72.0
189.322678 180.0
189.437714 208.0
189.473328 180.0
189.519897 176.0
189.615005 164.0
189.656921 176.0
189.709 164.0
189.774796 152.0
189.829636 88.0
189.884491 100.0
189.903687 176.0
190.016159 112.0
190.043594 136.0
190.095718 384.0
190.158752 6180.0
190.252167 152.0
190.290604 68.0
190.317917 76.0
190.328125 72.0
190.363708 64.0
190.394943 148.0
190.455368 40.0
190.501144 132.0
190.532288 152.0
190.790619 60.0
190.824905 156.0
191.024353 152.0
191.089859 148.0
191.160538 1476.0
191.281815 128.0
191.310547 64.0
191.357346 188.0
191.500549 128.0
191.916656 60.0
191.963531 140.0
192.104187 212.0
192.131775 112.0
192.155151 68.0
192.321335 208.0
192.399475 68.0
192.467377 212.0
192.498871 208.0
192.838669 72.0
192.940948 168.0
193.065369 144.0
193.090256 168.0
193.173233 152.0
193.303268 108.0
193.552383 44.0
193.654861 152.0
193.704712 160.0
193.737686 164.0
193.782288 68.0
193.858337 232.0
194.037262 164.0
194.059433 136.0
194.223053 140.0
194.259109 156.0
194.356216 100.0
194.544937 140.0
194.589355 124.0
194.764297 132.0
194.800415 144.0
194.905991 128.0
194.942108 132.0
194.967117 180.0
195.114441 124.0
195.148254 608.0
195.26181 172.0
195.364731 96.0
195.523544 152.0
195.559509 120.0
195.74881 80.0
195.825348 112.0
196.07872 308.0
196.130463 220.0
196.150803 276.0
196.325653 140.0
196.359116 132.0
196.412109 152.0
196.476273 104.0
196.568344 52.0
196.649277 40.0
197.06105 1776.0
197.177124 116.0
197.38678 136.0
197.548996 140.0
197.935226 152.0
197.991226 48.0
198.067566 328.0
198.093246 208.0
198.130295 176.0
198.291 64.0
198.400314 124.0
198.419937 108.0
198.46199 132.0
198.529297 152.0
198.714417 76.0
198.73967 120.0
198.89682 156.0
199.003494 36.0
199.069 260.0
199.115814 92.0
199.247833 100.0
199.304031 120.0
199.604797 156.0
199.689163 128.0
200.035629 148.0
200.198547 152.0
200.319656 140.0
200.652191 168.0
200.731125 36.0
200.756516 136.0
200.776245 128.0
200.833527 172.0
200.90036 124.0
200.931381 140.0
201.04425 60.0
201.162796 156.0
201.216431 136.0
201.284195 132.0
201.383041 120.0
201.422577 188.0
201.570435 144.0
201.611877 180.0
201.702316 112.0
201.72493 228.0
201.83519 120.0
201.994354 72.0
202.039612 216.0
202.086182 7700.0
202.135025 232.0
202.214264 140.0
202.321823 140.0
202.372787 68.0
202.443573 140.0
202.477554 120.0
202.503052 44.0
202.528534 104.0
202.641846 172.0
202.66452 168.0
202.877075 188.0
202.947952 76.0
203.091705 1260.0
203.145432 184.0
203.189026 48.0
203.242935 116.0
203.279816 216.0
203.41037 120.0
203.444443 72.0
203.472824 88.0
203.586548 76.0
203.614807 80.0
203.794174 164.0
203.871262 136.0
203.896057 124.0
204.058075 108.0
204.101151 160.0
204.159363 136.0
204.208786 104.0
204.379471 48.0
204.592926 208.0
204.6698 188.0
204.703979 132.0
204.877716 196.0
205.054367 100.0
205.102554 164.0
205.169937 324.0
205.268188 180.0
205.318466 272.0
205.365143 176.0
205.385117 40.0
205.620926 228.0
205.65332 288.0
205.761795 68.0
205.856018 96.0
205.99025 140.0
206.107376 32.0
206.152283 484.0
206.21312 48.0
206.298859 156.0
206.344238 156.0
206.438965 220.0
206.461838 216.0
206.584824 104.0
206.690689 160.0
206.790848 104.0
206.836639 36.0
207.15239 448.0
207.211777 96.0
207.254761 144.0
207.458237 152.0
207.572922 156.0
207.63028 160.0
207.74501 44.0
207.879852 88.0
207.945862 108.0
208.080872 128.0
208.281799 100.0
208.436935 100.0
208.511642 60.0
208.718613 136.0
208.848038 136.0
208.974609 92.0
209.000504 136.0
209.03215 136.0
209.167282 528.0
209.340164 164.0
209.406403 32.0
209.55043 80.0
209.65416 176.0
209.766571 172.0
209.951096 136.0
210.017426 92.0
210.109009 144.0
210.242462 192.0
210.314606 76.0
210.349243 88.0
210.372345 76.0
210.4272 112.0
210.82869 128.0
210.854706 68.0
210.874939 208.0
210.898056 56.0
211.129349 68.0
211.334732 260.0
211.366547 104.0
211.424423 172.0
211.519943 116.0
211.540207 128.0
211.815292 48.0
212.03717 200.0
212.088852 224.0
212.426926 56.0
212.621323 212.0
212.801285 132.0
212.899338 188.0
213.210861 116.0
213.254456 128.0
213.428879 140.0
213.64119 76.0
213.938019 52.0
214.00206 92.0
214.101059 160.0
214.205917 152.0
214.243179 152.0
214.313705 56.0
214.334106 136.0
214.57019 192.0
214.657654 136.0
214.724731 40.0
214.963943 128.0
214.994934 220.0
215.235413 104.0
215.301056 168.0
215.328857 124.0
215.468491 164.0
215.583023 140.0
215.805176 96.0
216.079422 192.0
216.147598 168.0
216.229324 52.0
216.566025 96.0
216.645111 136.0
216.733002 116.0
216.987991 128.0
217.134827 160.0
217.196198 160.0
217.248993 144.0
217.627594 152.0
217.656952 100.0
217.742111 132.0
217.84491 36.0
217.894852 108.0
218.22403 108.0
218.268127 124.0
218.347519 156.0
218.524017 132.0
218.927277 196.0
218.986176 100.0
219.03331 188.0
219.089279 132.0
219.263123 76.0
219.410492 248.0
219.528442 100.0
219.622818 164.0
219.664108 68.0
220.098373 1216.0
220.165863 64.0
220.217422 152.0
220.268524 152.0
220.278915 116.0
220.37558 140.0
220.458313 96.0
220.554626 116.0
220.644531 68.0
220.674103 156.0
220.881104 76.0
220.91069 236.0
221.082291 172.0
221.104599 248.0
221.153412 132.0
221.194763 144.0
221.285309 116.0
221.315125 152.0
221.355148 116.0
221.437027 160.0
221.496796 124.0
221.633072 200.0
221.754562 164.0
221.982834 132.0
222.075027 180.0
222.111282 248.0
222.202316 52.0
222.457535 204.0
222.505035 248.0
222.525818 68.0
222.573334 144.0
222.644592 108.0
222.677261 64.0
223.00705 132.0
223.145859 172.0
223.379608 192.0
223.530457 120.0
223.640564 104.0
224.054474 96.0
224.125977 144.0
224.161743 108.0
224.38826 132.0
224.620865 88.0
224.64473 184.0
224.689484 48.0
224.784958 176.0
224.901825 176.0
224.934189 120.0
225.044647 112.0
225.167068 136.0
225.447891 68.0
225.633209 136.0
225.947235 60.0
226.141724 148.0
226.201599 216.0
226.282425 104.0
226.384232 200.0
226.428772 32.0
227.007523 204.0
227.055511 112.0
227.703033 232.0
227.775848 120.0
227.868973 164.0
227.977142 76.0
228.163498 176.0
228.250687 120.0
228.419098 172.0
228.461212 36.0
228.693863 184.0
228.747086 120.0
229.180756 128.0
229.304306 188.0
229.587708 140.0
229.690247 160.0
229.714874 144.0
230.057678 136.0
230.321106 196.0
230.517471 140.0
230.961884 92.0
231.007263 208.0
231.303802 52.0
231.461548 172.0
231.536942 168.0
231.691422 184.0
231.787567 136.0
231.861099 152.0
231.906555 128.0
232.003555 88.0
232.149094 176.0
232.176392 128.0
232.258286 104.0
232.476715 168.0
232.564728 164.0
232.637573 148.0
232.72258 136.0
232.759018 160.0
232.960876 156.0
233.105301 136.0
233.164368 444.0
233.226868 128.0
233.783432 80.0
233.813858 172.0
233.838211 164.0
233.880814 228.0
234.058472 360.0
234.163193 172.0
234.509872 188.0
234.596649 100.0
234.640656 120.0
234.669815 92.0
234.718597 160.0
234.86499 68.0
235.05719 92.0
235.118225 192.0
235.141602 188.0
235.176331 188.0
235.301361 172.0
235.396011 144.0
235.417389 88.0
235.594543 124.0
235.78093 132.0
235.976562 80.0
236.089691 60.0
236.150757 128.0
236.183075 128.0
236.61467 184.0
236.63559 140.0
236.903854 160.0
237.008011 176.0
237.060104 160.0
237.152039 180.0
237.210281 176.0
237.388107 124.0
237.427979 140.0
237.79306 148.0
238.216568 172.0
238.385757 160.0
238.441086 92.0
238.733124 60.0
238.788071 148.0
238.856155 76.0
238.899216 104.0
239.056137 80.0
239.1577 236.0
239.211349 3824.0
239.271591 188.0
239.339325 148.0
239.373199 148.0
239.437866 360.0
239.539505 120.0
239.594955 224.0
239.641174 164.0
239.671234 232.0
239.761337 60.0
239.913589 112.0
239.97403 136.0
240.014114 40.0
240.08812 160.0
240.125137 112.0
240.211319 1264.0
240.257767 80.0
240.30661 188.0
240.347244 124.0
240.408951 120.0
240.465744 140.0
240.489197 172.0
240.550934 56.0
240.967834 124.0
241.069794 120.0
241.094528 64.0
241.123016 200.0
241.216003 488.0
241.273788 64.0
241.499527 52.0
241.889389 84.0
242.022522 160.0
242.149475 92.0
242.406601 204.0
242.431396 28.0
242.487183 304.0
242.527466 60.0
242.722778 124.0
242.750687 100.0
242.861038 172.0
243.175705 64.0
243.238632 160.0
243.252731 44.0
243.261917 196.0
243.324707 288.0
243.344086 132.0
243.436478 188.0
243.573135 116.0
243.61351 184.0
243.635254 80.0
243.939804 124.0
244.073486 160.0
244.263199 212.0
244.331635 108.0
244.394394 92.0
244.501434 192.0
244.627274 116.0
244.661514 160.0
244.701981 156.0
244.767365 212.0
244.901276 108.0
245.465347 88.0
245.50589 140.0
245.605698 140.0
245.724228 208.0
245.861526 244.0
246.042023 160.0
246.095276 168.0
246.12999 92.0
246.423584 120.0
246.654831 156.0
246.808029 260.0
246.87056 104.0
246.892456 108.0
247.060394 156.0
247.133316 100.0
247.433762 204.0
247.559662 136.0
247.690552 148.0
247.734406 192.0
247.938065 144.0
248.04776 172.0
248.079117 128.0
248.160629 64.0
248.182571 208.0
248.521317 160.0
248.551361 92.0
248.640564 64.0
248.722168 144.0
248.775528 160.0
248.869705 104.0
249.212067 148.0
249.27002 224.0
249.378616 128.0
249.771637 116.0
249.869156 156.0
249.998169 208.0
250.081329 200.0
250.168121 108.0
250.322403 60.0
250.372787 88.0
250.426331 168.0
250.763443 96.0
250.798111 112.0
250.865311 240.0
251.033813 136.0
251.052505 156.0
251.154663 144.0
251.211243 704.0
251.665634 148.0
251.826691 124.0
251.848801 168.0
251.915131 148.0
252.065918 160.0
252.12999 72.0
252.174225 140.0
252.218811 172.0
252.256058 196.0
252.465088 128.0
252.794083 160.0
252.84317 164.0
252.90802 204.0
252.980392 120.0
253.063126 164.0
253.113785 84.0
253.192963 88.0
253.248154 56.0
253.48439 128.0
253.602676 136.0
253.882248 140.0
253.944077 60.0
253.982132 136.0
254.06778 52.0
254.258163 120.0
254.357819 100.0
254.584946 140.0
254.670898 96.0
254.96637 104.0
255.21431 72.0
255.36377 112.0
255.440109 184.0
255.790131 192.0
255.847427 36.0
255.923843 184.0
255.974792 176.0
256.312439 176.0
256.439911 36.0
256.49408 176.0
256.541901 148.0
256.586548 140.0
256.640747 152.0
256.918213 160.0
257.026672 116.0
257.176666 112.0
257.282013 144.0
257.320312 80.0
257.422485 112.0
257.741425 52.0
257.821808 124.0
258.087128 168.0
258.234222 180.0
258.33017 144.0
258.374969 200.0
258.496552 112.0
258.576569 140.0
258.603851 120.0
258.733398 48.0
259.050446 172.0
259.201019 176.0
259.332397 212.0
259.476654 116.0
259.515137 164.0
259.550385 136.0
259.579254 124.0
259.746033 128.0
259.929108 128.0
260.163177 188.0
260.346191 100.0
260.558197 156.0
260.976013 124.0
261.185028 124.0
261.43277 172.0
261.574097 184.0
261.609802 136.0
261.767548 188.0
261.912476 128.0
262.083221 128.0
262.124634 108.0
262.147949 124.0
262.241119 64.0
262.399078 124.0
262.476471 132.0
262.789337 172.0
262.847412 140.0
263.102386 148.0
263.137878 104.0
263.225067 168.0
263.376862 180.0
263.428528 188.0
263.599762 360.0
263.780762 176.0
263.826019 92.0
264.036194 116.0
264.123505 140.0
264.178497 148.0
264.204376 76.0
264.282043 204.0
264.404999 192.0
264.515045 152.0
264.615387 152.0
264.644531 52.0
264.686646 188.0
264.715759 184.0
264.774841 200.0
265.090729 224.0
265.224335 780.0
265.4935 224.0
265.791931 136.0
265.860077 208.0
265.895782 56.0
266.098297 144.0
266.139252 108.0
266.22699 124.0
266.301605 376.0
266.480286 144.0
266.538757 148.0
266.577759 128.0
266.691498 120.0
266.805267 88.0
266.860535 212.0
266.883301 156.0
266.912689 116.0
266.9646 156.0
267.07193 136.0
267.136963 96.0
267.189026 96.0
267.26059 108.0
267.317505 108.0
267.569794 168.0
267.700043 164.0
267.730621 148.0
267.957367 64.0
268.035553 144.0
268.061615 188.0
268.117004 124.0
268.17569 164.0
268.256256 176.0
268.681122 160.0
268.749634 208.0
268.831207 84.0
268.870361 72.0
268.95401 196.0
269.467926 156.0
269.709747 68.0
269.73587 172.0
269.889526 152.0
269.981079 156.0
270.092285 180.0
270.331116 96.0
270.769806 136.0
270.871338 164.0
271.182617 168.0
271.280945 116.0
271.330109 88.0
271.36618 212.0
271.490784 44.0
271.526855 116.0
271.772888 160.0
271.996033 100.0
272.025574 136.0
272.074829 160.0
272.122192 168.0
272.147217 164.0
272.182495 360.0
272.291992 140.0
272.321106 172.0
272.528046 196.0
272.567474 160.0
272.785858 160.0
272.846832 40.0
272.925751 188.0
272.991516 212.0
273.155975 172.0
273.304016 84.0
273.392853 240.0
273.71875 164.0
274.054718 112.0
274.15686 96.0
274.209412 220.0
274.367798 48.0
274.433746 160.0
274.905426 196.0
275.146393 116.0
275.327972 228.0
275.361023 184.0
275.387421 124.0
275.456787 144.0
275.552612 48.0
275.691376 56.0
275.757477 120.0
275.853333 100.0
275.879761 196.0
276.223694 180.0
276.279907 60.0
276.428802 100.0
276.475128 160.0
276.62738 164.0
276.71347 184.0
276.994934 140.0
277.018127 84.0
277.140717 196.0
277.256683 116.0
277.72583 144.0
277.773926 56.0
277.870117 192.0
277.976288 40.0
278.195343 116.0
278.238495 224.0
278.308228 160.0
278.348083 144.0
278.464294 60.0
278.572357 136.0
279.00592 216.0
279.108978 108.0
279.258636 240.0
279.311859 184.0
279.401672 120.0
279.574707 140.0
279.694519 76.0
280.167358 248.0
280.233978 72.0
280.340607 88.0
280.457275 132.0
280.537262 132.0
280.643951 140.0
280.716583 164.0
280.920746 96.0
281.094238 204.0
281.261108 168.0
281.468109 144.0
281.668488 92.0
281.885651 124.0
282.109558 116.0
282.166412 96.0
282.193146 160.0
282.26001 196.0
282.283417 176.0
282.581116 240.0
282.658081 108.0
282.735046 144.0
282.889008 148.0
282.955963 160.0
283.019562 84.0
283.066437 80.0
283.300903 88.0
283.458344 144.0
283.595764 72.0
283.662811 144.0
283.924316 184.0
284.02829 96.0
284.115509 152.0
284.145691 208.0
284.209442 160.0
284.341949 180.0
284.460114 44.0
284.521576 164.0
284.702881 152.0
284.830505 180.0
284.860748 112.0
284.887634 204.0
284.968262 28.0
285.062347 52.0
285.106018 196.0
285.15979 172.0
285.187042 180.0
285.321136 188.0
285.791992 184.0
285.872742 148.0
286.089844 256.0
286.171844 228.0
286.434998 56.0
286.660736 172.0
286.758453 128.0
286.994446 104.0
287.041626 64.0
287.094666 132.0
287.197815 144.0
287.25412 136.0
287.507172 152.0
287.55777 132.0
287.616882 156.0
287.642151 192.0
287.669159 108.0
287.760315 168.0
287.908905 188.0
287.998627 176.0
288.2771 32.0
288.368347 116.0
288.442719 124.0
288.581329 112.0
288.740265 296.0
288.787598 160.0
288.834961 132.0
288.892456 136.0
288.99057 104.0
289.092072 116.0
289.129303 84.0
289.268066 136.0
289.318848 120.0
289.55249 180.0
289.616852 116.0
289.708282 180.0
289.898041 108.0
290.172577 128.0
290.229248 408.0
290.26413 112.0
290.31839 156.0
290.3862 244.0
290.409943 60.0
290.569397 184.0
290.661011 96.0
290.884979 224.0
290.946106 228.0
290.986847 168.0
291.02417 148.0
291.112457 44.0
291.210938 32.0
291.404572 232.0
291.635651 120.0
291.764832 136.0
291.830353 132.0
291.898132 136.0
292.132111 48.0
292.196747 140.0
292.366852 160.0
292.898163 172.0
293.000183 148.0
293.107788 172.0
293.248932 212.0
293.426178 48.0
293.767212 228.0
293.835449 164.0
293.965118 204.0
294.016296 148.0
294.090576 184.0
294.183533 152.0
294.44986 84.0
294.526276 164.0
294.601379 168.0
294.76416 88.0
294.79718 144.0
294.911194 152.0
295.073547 184.0
295.205109 132.0
295.36972 132.0
295.629395 120.0
295.680634 52.0
295.7388 124.0
295.769623 156.0
295.872314 36.0
295.944214 84.0
295.971588 44.0
296.026398 188.0
296.094879 100.0
296.12912 116.0
296.473633 208.0
296.584808 216.0
296.622528 176.0
296.667084 124.0
296.831665 136.0
296.941406 108.0
297.055908 176.0
297.126617 128.0
297.164368 124.0
297.318787 160.0
297.486969 108.0
297.528137 88.0
297.642853 168.0
297.71701 248.0
297.789124 52.0
297.820038 120.0
297.919373 144.0
297.947113 124.0
298.087982 172.0
298.163696 1304.0
298.23233 136.0
298.541748 112.0
298.734375 212.0
298.820038 168.0
299.026825 112.0
299.068146 160.0
299.128937 204.0
299.13858 136.0
299.164337 320.0
299.260925 84.0
299.446869 132.0
299.497528 152.0
299.546265 196.0
299.7948 128.0
300.056763 156.0
300.087799 128.0
300.125732 128.0
300.17746 140.0
300.215393 84.0
300.294708 192.0
300.411987 76.0
300.512024 44.0
300.543091 164.0
301.002167 108.0
301.081573 108.0
301.18866 72.0
301.24884 132.0
301.313019 144.0
301.354462 152.0
301.465027 116.0
301.637848 216.0
301.793427 196.0
301.907532 116.0
301.945557 156.0
302.142731 200.0
302.232666 136.0
302.431244 168.0
302.537231 200.0
302.933746 156.0
303.14682 116.0
303.171082 276.0
303.313171 132.0
303.448395 108.0
303.500732 116.0
303.566284 108.0
303.868042 136.0
304.027649 100.0
304.093597 64.0
304.357422 64.0
304.406036 92.0
304.45813 204.0
304.815918 48.0
304.843719 136.0
304.868042 216.0
304.92746 160.0
305.017487 192.0
305.187836 188.0
305.389526 128.0
305.650452 132.0
305.800079 156.0
305.859253 152.0
305.956726 180.0
306.120361 96.0
306.275208 176.0
306.641602 176.0
306.883453 152.0
307.169434 228.0
307.214783 76.0
307.312439 140.0
307.371765 56.0
307.413635 132.0
307.598633 104.0
307.640503 132.0
307.794128 204.0
307.888397 204.0
308.038605 128.0
308.118958 196.0
308.167847 132.0
308.29364 192.0
308.475403 220.0
308.613556 144.0
308.804077 108.0
309.045441 136.0
309.199402 132.0
309.382416 228.0
309.454956 204.0
309.651031 188.0
309.766632 32.0
309.864716 152.0
309.892731 140.0
310.008362 144.0
310.067932 180.0
310.138031 124.0
310.180115 120.0
310.246704 156.0
310.513184 60.0
310.54126 144.0
310.605865 132.0
310.948242 128.0
311.11673 64.0
311.154938 140.0
311.18692 160.0
311.366028 160.0
311.432739 168.0
311.488953 112.0
311.527588 120.0
311.581482 104.0
311.611908 68.0
311.863586 160.0
311.871582 80.0
311.884155 204.0
311.969055 196.0
311.995758 124.0
312.104462 7076.0
312.169128 120.0
312.355591 188.0
312.43103 56.0
312.462708 44.0
312.522522 36.0
312.593964 144.0
312.699829 64.0
312.772369 128.0
312.863892 96.0
313.027649 140.0
313.053162 160.0
313.106628 1572.0
313.176361 100.0
313.320557 184.0
313.575409 96.0
313.661743 92.0
313.748138 140.0
313.802673 120.0
313.938538 100.0
314.005554 196.0
314.10556 540.0
314.154724 124.0
314.176056 188.0
314.245422 144.0
314.2948 44.0
314.495972 220.0
314.587738 60.0
314.661865 208.0
314.728943 88.0
314.965576 160.0
315.020111 128.0
315.097198 216.0
315.19519 92.0
315.23761 136.0
315.290619 124.0
315.325958 136.0
315.350708 96.0
315.509766 148.0
315.605225 68.0
315.642548 136.0
315.747833 60.0
315.852783 92.0
316.148193 144.0
316.174042 748.0
316.298615 88.0
316.411163 116.0
316.479156 168.0
316.585388 168.0
316.65976 156.0
316.756927 240.0
316.847504 48.0
316.932526 112.0
317.017578 164.0
317.17511 364.0
317.318848 44.0
317.369385 128.0
317.428772 124.0
317.467773 88.0
317.496155 160.0
317.584808 124.0
317.655762 152.0
317.737335 276.0
317.847351 96.0
317.872162 136.0
317.989288 172.0
318.052551 208.0
318.105804 164.0
318.145477 104.0
318.193054 176.0
318.343842 124.0
318.472137 124.0
318.505829 224.0
318.678192 184.0
319.076233 36.0
319.186462 136.0
319.319672 156.0
319.350037 72.0
319.638214 180.0
319.915802 120.0
320.07959 160.0
320.115204 156.0
320.25766 164.0
320.813507 168.0
320.927338 104.0
321.089264 72.0
321.155823 124.0
321.230743 144.0
321.377014 124.0
321.551849 88.0
321.698212 132.0
321.873138 136.0
322.012421 60.0
322.123138 184.0
322.280334 72.0
322.623444 48.0
322.834381 188.0
322.87619 196.0
323.04184 108.0
323.131256 156.0
323.156311 112.0
323.242188 176.0
323.299438 164.0
323.331635 120.0
323.421112 132.0
323.628754 104.0
323.714691 80.0
323.903412 116.0
323.929596 52.0
324.015564 196.0
324.27356 156.0
324.427673 152.0
324.488647 120.0
324.571106 136.0
324.621124 160.0
324.786285 184.0
324.89389 36.0
324.987152 56.0
325.190979 416.0
325.2276 176.0
325.331696 108.0
325.460938 216.0
325.522003 180.0
325.611755 76.0
326.060852 140.0
326.14563 116.0
326.175873 104.0
326.27652 168.0
326.413147 120.0
326.4599 108.0
326.506653 104.0
326.573547 216.0
326.644989 112.0
326.690063 120.0
326.794403 76.0
326.837585 160.0
326.999512 32.0
327.064972 64.0
327.211884 128.0
327.25946 212.0
327.461761 196.0
327.499664 92.0
327.522278 104.0
327.582825 80.0
327.798981 204.0
327.86145 132.0
327.957581 56.0
328.029297 196.0
328.173859 152.0
328.212372 112.0
328.285126 84.0
328.318085 200.0
328.36499 92.0
328.451172 76.0
328.471558 152.0
328.497589 168.0
328.509033 128.0
328.520813 160.0
328.556152 100.0
328.599976 140.0
328.637665 176.0
328.675201 108.0
328.751007 172.0
328.79068 176.0
328.877869 316.0
328.937073 36.0
328.970886 168.0
328.996643 136.0
329.06665 204.0
329.113068 284.0
329.17218 204.0
329.20874 356.0
329.272095 284.0
329.28537 228.0
329.33139 120.0
329.397247 252.0
329.436371 160.0
329.530518 96.0
329.55719 264.0
329.588257 120.0
329.61087 224.0
329.645905 316.0
329.683014 156.0
329.744232 144.0
329.78241 252.0
329.879913 180.0
329.927582 292.0
329.948334 388.0
329.985077 268.0
330.055145 716.0
330.116943 215716.0
330.22348 164.0
330.2565 196.0
330.283722 164.0
330.373566 180.0
330.435425 340.0
330.451996 200.0
330.462036 280.0
330.524506 216.0
330.561066 136.0
330.596558 100.0
330.62851 152.0
330.636871 260.0
330.713043 1204.0
330.758057 276.0
330.802887 212.0
330.814514 60.0
330.827423 144.0
330.853882 152.0
330.85907 116.0
330.881683 432.0
330.942841 260.0
330.974731 276.0
330.988464 272.0
331.012787 368.0
331.045471 244.0
331.119202 48168.0
331.206329 260.0
331.258453 156.0
331.287781 80.0
331.350006 72.0
331.419464 56.0
331.483826 152.0
331.535736 180.0
331.59314 152.0
331.607849 92.0
331.636047 104.0
331.670715 184.0
331.728088 132.0
331.77179 172.0
331.830414 128.0
331.878967 220.0
331.914856 100.0
331.955414 116.0
332.000427 300.0
332.049866 32.0
332.11441 12380.0
332.245941 112.0
332.298828 132.0
332.35141 192.0
332.37973 224.0
332.419983 64.0
332.458527 56.0
332.539337 104.0
332.569153 36.0
332.613708 204.0
332.640533 96.0
332.675842 116.0
332.710449 52.0
332.733398 112.0
332.783539 192.0
332.799591 56.0
332.843475 200.0
332.883789 60.0
332.898376 188.0
332.935913 224.0
332.991699 320.0
333.024414 200.0
333.060974 224.0
333.115326 1708.0
333.20285 296.0
333.319672 152.0
333.366089 252.0
333.39743 136.0
333.442017 172.0
333.479492 216.0
333.515015 296.0
333.558838 128.0
333.665985 68.0
333.724365 32.0
333.811615 72.0
333.837067 72.0
333.862518 88.0
333.891144 88.0
333.946167 220.0
334.001465 48.0
334.031982 68.0
334.124084 192.0
334.209961 240.0
334.259247 216.0
334.292633 92.0
334.350739 80.0
334.383698 204.0
334.447693 400.0
334.56842 148.0
334.601166 28.0
334.661377 88.0
334.695831 56.0
334.750458 52.0
334.797791 68.0
334.834198 40.0
334.894104 36.0
334.928894 56.0
334.972626 76.0
335.023254 120.0
335.085541 76.0
335.116211 96.0
335.191101 148.0
335.197449 140.0
335.271027 120.0
335.322418 60.0
335.417175 72.0
335.460907 64.0
335.508301 56.0
335.552063 76.0
335.624969 108.0
335.694244 32.0
335.727081 80.0
335.772614 64.0
335.806213 108.0
335.915375 68.0
336.07724 32.0
336.195557 76.0
336.369202 52.0
336.406677 120.0
336.46048 52.0
336.548096 224.0
336.573639 56.0
336.661285 64.0
336.832947 64.0
336.979065 76.0
337.04483 76.0
337.150818 84.0
337.487122 52.0
337.739441 44.0
337.779663 72.0
338.018768 136.0
338.134583 80.0
338.211456 36.0
338.295624 84.0
338.361542 120.0
338.460388 108.0
338.5849 92.0
338.698425 40.0
338.746033 120.0
338.800995 72.0
338.912445 144.0
339.017181 44.0
339.116119 84.0
339.215088 224.0
339.38739 52.0
339.497406 76.0
339.592743 36.0
339.796112 172.0
340.051361 56.0
340.198181 52.0
340.504883 84.0
340.855621 52.0
341.006287 84.0
341.059204 120.0
341.131256 72.0
341.305573 120.0
341.763824 132.0
341.969879 56.0
342.09137 160.0
342.315948 32.0
342.64743 48.0
343.045441 64.0
343.085999 52.0
343.181122 168.0
343.355164 48.0
343.62442 56.0
343.720367 36.0
343.808929 80.0
343.945496 88.0
344.026703 60.0
344.067291 40.0
344.10791 40.0
344.163605 96.0
344.174561 268.0
344.336853 152.0
344.751709 200.0
345.038727 172.0
345.090668 116.0
345.158478 96.0
345.2164 152.0
345.29126 164.0
345.375427 76.0
345.5271 52.0
345.597382 128.0
345.693939 172.0
345.730591 68.0
345.7565 120.0
345.860138 64.0
345.886047 80.0
345.999847 156.0
346.189636 36.0
346.252594 164.0
346.304443 48.0
346.400757 80.0
346.615631 128.0
346.667511 164.0
347.104919 124.0
347.160553 52.0
347.290344 88.0
347.524048 88.0
347.895172 172.0
347.936005 48.0
348.30365 40.0
348.545135 120.0
348.604584 84.0
348.697479 128.0
348.838715 80.0
349.002319 48.0
349.043213 204.0
349.102692 112.0
349.433746 92.0
350.289978 192.0
350.725922 100.0
351.632263 104.0
351.796478 76.0
351.856232 60.0
351.990631 56.0
352.065308 108.0
352.125061 152.0
352.184845 64.0
352.293152 128.0
352.323029 168.0
352.707947 44.0
352.891113 120.0
352.924774 56.0
352.962158 76.0
353.425964 124.0
353.452148 148.0
353.674835 112.0
353.908813 88.0
353.99118 80.0
354.575592 84.0
354.954193 200.0
355.140961 196.0
355.374298 32.0
355.723297 108.0
355.775879 92.0
356.188934 156.0
356.361725 104.0
356.812744 224.0
357.038361 160.0
357.213165 640.0
357.275299 32.0
357.851135 140.0
358.216675 232.0
358.314362 116.0
359.200256 92.0
359.234222 100.0
359.792725 152.0
360.215668 76.0
360.691772 44.0
360.880798 96.0
360.986664 36.0
361.081207 132.0
361.179535 104.0
361.281677 64.0
361.406525 68.0
361.52005 80.0
362.065186 96.0
362.29245 252.0
362.914001 156.0
363.152893 168.0
363.376709 96.0
363.672699 80.0
363.801758 56.0
364.378998 48.0
365.116425 160.0
365.751801 148.0
365.949738 64.0
366.099762 164.0
366.311554 160.0
366.410583 52.0
366.839233 208.0
367.623077 136.0
367.897888 124.0
367.936066 60.0
368.10788 136.0
369.005798 172.0
369.403534 204.0
369.621582 48.0
369.870361 96.0
370.414093 104.0
371.443634 156.0
372.958069 164.0
373.238708 112.0
373.354065 36.0
373.811829 96.0
374.373871 112.0
374.797577 96.0
375.125183 112.0
375.969849 200.0
376.510315 208.0
376.707306 144.0
377.576965 116.0
377.658173 124.0
377.766479 92.0
378.149536 164.0
378.823273 52.0
379.485992 124.0
379.644958 104.0
379.970764 68.0
380.273438 184.0
380.498596 188.0
380.704376 180.0
381.26767 116.0
381.37262 120.0
381.601959 144.0
382.270966 60.0
382.414978 68.0
382.457794 128.0
382.632965 88.0
382.703033 64.0
383.049652 204.0
383.275604 88.0
383.392517 124.0
383.614655 92.0
383.716034 144.0
383.875885 172.0
383.938293 188.0
384.121582 104.0
384.617157 144.0
385.206238 176.0
385.566223 96.0
386.21524 128.0
386.297394 148.0
387.095795 128.0
387.62854 116.0
387.722565 112.0
388.102814 140.0
388.691162 120.0
389.150391 204.0
390.824768 100.0
391.108093 132.0
391.22226 108.0
391.442749 64.0
392.100616 136.0
392.179443 48.0
392.262207 108.0
393.698364 92.0
394.053864 160.0
394.449036 100.0
394.820709 220.0
395.14505 92.0
395.184601 184.0
395.5289 164.0
396.063446 104.0
396.261536 80.0
396.844147 100.0
396.91153 216.0
396.947235 124.0
397.133606 100.0
397.193115 144.0
397.538269 108.0
398.244934 108.0
398.96814 124.0
399.246216 4184.0
399.322021 112.0
399.632324 96.0
399.664154 72.0
399.90097 132.0
400.066101 96.0
400.249969 1116.0
400.687378 40.0
400.870667 96.0
401.238831 248.0
401.500519 44.0
401.556335 120.0
401.628143 64.0
401.691956 64.0
401.823608 56.0
401.927338 176.0
402.09494 156.0
402.170776 100.0
402.233856 60.0
402.33844 124.0
402.542053 60.0
402.589966 104.0
403.628937 128.0
404.026398 128.0
404.050354 76.0
404.929504 160.0
405.141815 124.0
405.574585 220.0
405.658752 108.0
405.979492 104.0
406.075745 52.0
406.151947 148.0
406.300385 172.0
406.589294 156.0
407.701691 124.0
407.918732 136.0
408.067474 92.0
408.727112 108.0
408.839783 156.0
409.681274 132.0
409.749786 72.0
410.45108 104.0
410.781799 148.0
410.90686 80.0
411.34671 132.0
411.3992 92.0
411.556641 180.0
411.5849 128.0
411.899933 104.0
411.976685 132.0
412.017059 132.0
412.347748 120.0
412.42923 136.0
412.756714 88.0
412.902283 124.0
412.954865 44.0
413.561768 76.0
414.161011 160.0
414.408112 92.0
415.178284 72.0
415.575806 168.0
415.847687 136.0
416.090546 168.0
416.261749 120.0
416.58667 64.0
417.175903 168.0
417.274475 164.0
417.350739 164.0
417.54184 152.0
417.651672 148.0
417.766571 212.0
417.806244 84.0
418.160248 44.0
418.249786 160.0
418.709869 104.0
418.819824 92.0
419.276154 116.0
419.500305 124.0
419.712311 156.0
420.879272 36.0
420.928284 160.0
423.082947 132.0
424.074249 196.0
424.50061 152.0
424.906647 36.0
425.587952 44.0
425.71524 172.0
426.265717 156.0
426.372559 188.0
428.215668 128.0
428.833679 132.0
428.879028 100.0
429.146973 76.0
429.398499 60.0
429.736755 60.0
429.910065 56.0
430.157715 136.0
430.706879 148.0
431.368011 104.0
432.377228 120.0
432.511017 152.0
432.609009 56.0
432.657104 156.0
433.528503 168.0
433.565796 68.0
434.019775 136.0
434.179352 56.0
434.282776 268.0
434.341125 88.0
434.863892 120.0
435.187683 200.0
435.582214 140.0
435.802399 32.0
435.964447 52.0
436.296967 204.0
436.434174 140.0
437.982269 144.0
438.103088 80.0
438.294708 84.0
438.594788 40.0
438.632294 152.0
438.944977 132.0
439.145569 120.0
439.182678 76.0
439.253601 92.0
439.30365 152.0
439.391266 56.0
439.583191 104.0
439.867004 120.0
440.059021 176.0
440.117493 72.0
440.20517 136.0
440.284515 156.0
440.317932 56.0
440.397278 168.0
440.835938 160.0
441.015656 48.0
441.847778 112.0
442.359741 120.0
442.902069 136.0
443.200134 112.0
443.409637 200.0
444.294373 92.0
444.949066 156.0
445.306 88.0
445.356384 28.0
446.247284 48.0
446.39444 100.0
446.482758 148.0
446.533203 40.0
446.743988 144.0
446.815033 80.0
447.016998 128.0
447.294769 156.0
447.437897 216.0
447.821106 132.0
447.902924 176.0
448.031708 104.0
448.461517 72.0
448.621674 28.0
449.018036 56.0
449.233246 708.0
449.709961 64.0
449.925232 52.0
450.234131 128.0
450.512238 148.0
450.829132 140.0
451.21756 152.0
452.000458 76.0
452.41098 52.0
453.821777 60.0
454.012604 108.0
454.347687 112.0
454.457977 116.0
454.572571 104.0
454.78476 108.0
455.434387 92.0
455.757233 140.0
456.247986 100.0
457.054077 96.0
457.164734 192.0
457.288147 112.0
457.364746 120.0
458.126953 104.0
458.304474 320.0
458.70224 80.0
458.932465 112.0
459.248016 76.0
459.307739 136.0
459.388794 136.0
459.610626 184.0
459.755707 100.0
459.888031 116.0
460.131348 104.0
460.250885 196.0
460.451599 52.0
460.537018 124.0
460.789032 112.0
461.100983 116.0
461.16507 180.0
461.263397 92.0
461.297577 84.0
461.404449 64.0
462.114105 112.0
462.187134 48.0
462.3797 164.0
462.431061 176.0
463.017609 140.0
463.064728 104.0
463.167511 80.0
463.390259 72.0
463.463104 88.0
463.505951 100.0
463.668793 164.0
463.767365 144.0
463.904541 132.0
464.037445 104.0
464.101746 108.0
464.149933 84.0
464.303284 104.0
464.349243 184.0
464.530609 124.0
464.684296 68.0
464.775146 84.0
464.85025 232.0
464.899384 84.0
465.085815 92.0
465.122772 160.0
465.219635 384.0
465.350281 120.0
465.406097 144.0
465.436157 124.0
465.477783 104.0
465.605377 108.0
465.660858 172.0
465.702423 120.0
465.782166 64.0
465.832184 188.0
465.960724 272.0
465.993103 156.0
466.05835 108.0
466.09137 148.0
466.145844 128.0
466.206757 516.0
466.282684 144.0
466.364105 72.0
466.501648 120.0
466.559052 124.0
466.650909 104.0
466.684967 144.0
466.721313 200.0
466.802612 64.0
466.834229 148.0
466.899353 36.0
466.961731 212.0
467.015442 164.0
467.082916 208.0
467.119446 132.0
467.236542 101528.0
467.313263 276.0
467.379456 188.0
467.445984 132.0
467.480164 188.0
467.523163 112.0
467.598663 184.0
467.644409 112.0
467.67334 200.0
467.720734 108.0
467.778259 140.0
467.851013 128.0
467.896576 136.0
467.915497 72.0
467.94632 124.0
468.005157 288.0
468.115265 320.0
468.147095 176.0
468.240143 26108.0
468.378357 140.0
468.452576 96.0
468.488434 56.0
468.526642 120.0
468.536926 80.0
468.584534 124.0
468.626282 64.0
468.680756 88.0
468.70166 68.0
468.739197 176.0
468.802948 216.0
468.891357 292.0
468.94516 112.0
468.992737 88.0
469.047089 160.0
469.100861 112.0
469.14386 56.0
469.23761 6348.0
469.308868 204.0
469.406342 244.0
469.437988 44.0
469.472473 80.0
469.521118 72.0
469.552856 108.0
469.626312 92.0
469.672638 156.0
469.718323 32.0
469.86499 104.0
469.921082 56.0
469.97467 108.0
470.037567 52.0
470.087585 88.0
470.144745 144.0
470.241669 2148.0
470.338257 148.0
470.411072 104.0
470.521393 40.0
470.532043 64.0
470.583862 156.0
470.626373 68.0
470.672089 72.0
470.710938 112.0
470.78244 108.0
470.828949 132.0
470.859558 204.0
470.917969 124.0
470.96701 124.0
470.995972 368.0
471.056458 88.0
471.070618 196.0
471.121918 80.0
471.168457 120.0
471.184143 180.0
471.2164 124.0
471.280121 176.0
471.324615 116.0
471.406403 40.0
471.471252 48.0
471.542725 148.0
471.573608 116.0
471.643646 72.0
471.683014 148.0
471.73996 92.0
471.782654 84.0
471.868896 84.0
471.926483 88.0
471.966278 100.0
472.052155 104.0
472.138977 80.0
472.170105 104.0
472.23526 132.0
472.305664 100.0
472.361908 80.0
472.604156 68.0
472.63559 136.0
472.790222 88.0
472.889771 56.0
472.923737 112.0
472.997986 80.0
473.036316 156.0
473.080231 76.0
473.140839 92.0
473.28299 100.0
473.335663 52.0
473.413605 60.0
473.599854 56.0
473.765533 48.0
473.924744 72.0
473.989746 56.0
474.349457 100.0
474.436157 56.0
474.557556 48.0
474.869751 56.0
474.995544 100.0
475.585663 80.0
475.963348 56.0
476.128357 52.0
476.206543 124.0
476.497589 92.0
476.697449 76.0
477.2211 316.0
477.958466 68.0
478.267456 76.0
478.56781 72.0
478.811676 188.0
479.067108 112.0
479.234192 124.0
479.269073 68.0
479.944672 56.0
480.006073 92.0
480.025879 64.0
480.09729 28.0
480.149597 96.0
480.468018 52.0
480.50293 96.0
480.703644 188.0
480.865112 76.0
481.013519 72.0
481.406433 100.0
481.54184 68.0
481.843231 84.0
482.149109 44.0
482.411346 112.0
482.463806 108.0
482.83548 60.0
482.901062 76.0
483.476593 124.0
483.653625 164.0
484.358582 84.0
484.603912 136.0
485.498108 108.0
486.401917 52.0
486.463379 160.0
486.498505 88.0
486.801453 100.0
487.245056 40.0
488.291229 84.0
488.493561 132.0
488.546326 76.0
489.047974 64.0
489.303284 100.0
489.426544 124.0
489.888977 60.0
490.285522 76.0
490.378082 44.0
490.871826 148.0
490.933563 92.0
491.061462 92.0
492.261841 76.0
492.83606 108.0
493.24704 192.0
494.225159 48.0
494.644836 128.0
495.219025 136.0
496.231781 108.0
496.425873 68.0
496.833954 80.0
497.290985 60.0
498.214569 48.0
500.14447 76.0
500.865784 84.0
501.141998 68.0
501.560883 108.0
502.336761 96.0
502.479523 116.0
502.720459 40.0
504.252258 164.0
504.896057 120.0
505.482056 128.0
505.84906 96.0
507.10321 124.0
507.659119 72.0
507.838501 80.0
508.282623 84.0
508.385834 84.0
508.448669 84.0
509.674591 104.0
510.119507 140.0
511.450958 44.0
512.262695 192.0
512.752625 52.0
513.032043 40.0
513.258179 304.0
513.762634 56.0
514.243225 180.0
514.742004 28.0
515.125916 120.0
515.961914 76.0
516.178955 28.0
516.880066 136.0
519.503296 120.0
520.370117 92.0
521.983093 132.0
524.477905 84.0
526.485352 148.0
526.558472 152.0
527.006104 124.0
527.152344 52.0
528.075806 128.0
530.305542 56.0
530.452209 100.0
530.498047 116.0
532.03479 36.0
532.397522 124.0
533.592224 64.0
534.148682 44.0
534.282043 176.0
535.584778 40.0
536.257446 88.0
536.538269 96.0
537.437988 180.0
538.35199 52.0
539.488586 120.0
540.72821 80.0
542.112854 40.0
542.840637 44.0
543.480774 72.0
543.972717 88.0
544.678528 124.0
544.999084 136.0
546.69165 44.0
547.012817 140.0
547.245544 132.0
547.431824 72.0
547.748535 48.0
547.804443 40.0
548.661865 52.0
549.221436 112.0
549.799988 96.0
550.303162 260.0
550.46283 120.0
551.308655 212.0
551.443909 52.0
551.967468 108.0
552.252747 92.0
552.3078 156.0
552.36969 68.0
553.305603 148.0
553.366455 120.0
553.881592 92.0
554.42041 104.0
554.570374 144.0
555.203308 100.0
555.953918 92.0
556.747253 64.0
557.320312 184.0
557.390808 80.0
558.034729 84.0
558.166382 148.0
558.38269 172.0
558.770203 140.0
558.810791 84.0
559.563782 48.0
560.161865 100.0
560.548218 52.0
560.722595 100.0
560.845093 104.0
561.307129 60.0
561.906128 112.0
562.024109 40.0
562.793457 144.0
563.142883 168.0
563.577515 76.0
563.879944 80.0
564.901245 104.0
565.416992 48.0
565.497437 40.0
565.554199 88.0
565.748291 112.0
565.961365 84.0
566.022888 100.0
566.068787 156.0
566.131836 76.0
566.164978 204.0
566.34021 128.0
566.553345 72.0
566.676514 80.0
566.903992 44.0
566.960876 72.0
567.032776 116.0
567.150452 28.0
567.210327 108.0
567.273682 136.0
567.38269 136.0
567.553406 168.0
567.652954 100.0
567.847412 100.0
567.899536 100.0
567.949219 104.0
567.989319 52.0
568.075623 120.0
568.136719 116.0
568.170898 312.0
568.210571 300.0
568.319214 16608.0
568.487854 60.0
568.542236 164.0
568.67981 144.0
568.830444 292.0
568.974365 40.0
569.116333 108.0
569.217468 128.0
569.325134 5892.0
569.44104 112.0
569.499084 108.0
569.639648 80.0
569.735413 128.0
569.812561 40.0
569.898132 68.0
570.125061 84.0
570.176086 64.0
570.322815 1828.0
570.449402 28.0
570.51532 300.0
570.577759 44.0
570.647949 176.0
570.682312 56.0
570.734619 92.0
570.79126 88.0
570.872559 28.0
570.977173 44.0
571.088013 112.0
571.124573 124.0
571.316467 612.0
571.410034 52.0
571.467102 64.0
571.535461 84.0
571.593689 60.0
571.762146 40.0
572.000122 36.0
572.100098 116.0
572.152466 56.0
572.318909 276.0
572.585754 64.0
572.638123 64.0
572.68335 96.0
572.781006 44.0
572.914429 52.0
573.004944 68.0
573.200256 136.0
573.305115 128.0
573.375 120.0
573.490967 36.0
573.551758 80.0
573.920044 68.0
573.986755 112.0
574.077393 44.0
574.208191 48.0
574.349243 40.0
574.530457 84.0
574.673584 68.0
574.869263 76.0
575.184265 68.0
575.87677 108.0
578.420288 120.0
579.315735 56.0
579.699036 32.0
579.742188 76.0
579.879211 168.0
580.820923 40.0
581.363037 76.0
581.665405 104.0
583.66394 92.0
583.72168 64.0
584.462402 32.0
584.967773 108.0
585.9646 108.0
586.027222 68.0
586.677856 48.0
587.907776 44.0
588.858887 88.0
592.292908 168.0
592.559387 172.0
592.777405 136.0
592.927612 84.0
593.223267 100.0
593.47052 76.0
593.795471 40.0
594.484314 48.0
594.53772 124.0
594.926025 40.0
595.173584 44.0
596.154846 96.0
596.913147 88.0
598.869507 52.0
599.142334 76.0
600.1073 84.0
600.853455 60.0
603.314819 60.0
605.056396 76.0
612.008545 80.0
612.791626 72.0
613.432312 104.0
613.713318 80.0
613.777405 44.0
614.211426 32.0
615.380981 44.0
615.667358 92.0
616.833374 72.0
618.435974 28.0
620.362854 68.0
621.463806 48.0
626.226135 56.0
626.779114 64.0
628.798706 236.0
631.421631 100.0
632.772644 124.0
637.633301 52.0
638.975891 92.0
639.453918 112.0
639.564636 40.0
639.836487 48.0
640.662354 144.0
641.241821 100.0
641.418274 92.0
646.418152 48.0
647.253357 76.0
651.234314 124.0
652.682678 108.0
654.178406 88.0
655.100098 48.0
656.185608 84.0
657.37915 88.0
657.670044 56.0
658.073364 40.0
658.609558 92.0
660.224548 92.0
661.017456 72.0
661.319397 116.0
663.604126 44.0
664.198975 112.0
671.172607 84.0
671.822449 76.0
679.152222 80.0
679.624268 104.0
680.537781 60.0
680.581848 108.0
682.0755 120.0
682.111877 112.0
685.140503 100.0
686.646912 64.0
687.184204 72.0
687.40332 64.0
688.29071 104.0
689.565369 116.0
690.297241 92.0
691.118469 44.0
693.385925 88.0
694.250916 100.0
698.436768 116.0
700.816223 100.0
702.751221 44.0
703.500671 100.0
703.886047 68.0
709.21875 56.0
713.38562 56.0
715.667969 68.0
715.710571 132.0
716.454956 172.0
716.729797 228.0
716.957031 76.0
719.944458 80.0
720.136719 100.0
720.954163 136.0
722.087524 64.0
725.798584 116.0
726.109619 72.0
728.7453 60.0
729.379395 96.0
731.800232 48.0
732.214844 40.0
734.057861 72.0
734.877747 32.0
735.692688 96.0
736.443237 76.0
738.983948 180.0
741.908447 148.0
744.111084 172.0
747.698608 80.0
750.225952 52.0
750.307739 88.0
751.982361 92.0
752.042358 136.0
752.828552 168.0
764.74176 80.0
766.526062 68.0
769.653625 60.0
773.733887 200.0
774.96344 64.0
775.534241 84.0
781.52063 140.0
782.093872 52.0
786.977234 48.0
787.915527 60.0
789.430237 140.0
790.565857 112.0
791.181519 88.0
793.820496 76.0
795.223022 44.0
795.559814 296.0
800.586365 164.0
802.141418 56.0
804.646118 136.0
805.90564 152.0
807.77124 124.0
808.727478 56.0
809.327576 56.0
809.888184 88.0
810.596375 104.0
812.98938 64.0
814.755249 132.0
817.290955 136.0
817.72345 76.0
818.309753 112.0
818.788086 184.0
821.421326 76.0
822.591064 196.0
829.357849 124.0
829.908203 208.0
831.192993 68.0
833.265747 52.0
835.847351 152.0
836.117798 84.0
836.417053 132.0
838.006531 72.0
840.081909 64.0
840.45697 196.0
844.523865 100.0
847.180786 68.0
847.389343 40.0
851.420715 56.0
860.72052 108.0
868.539185 152.0
868.762085 100.0
871.950439 32.0
875.156372 148.0
877.872742 88.0
881.940491 60.0
883.128906 56.0
889.231445 152.0
890.436707 140.0
892.879272 60.0
893.289673 84.0
893.700195 36.0
894.586975 76.0
894.973938 80.0
896.981628 52.0
900.215271 56.0
904.065063 172.0
905.154541 120.0
906.184753 176.0
908.28894 108.0
914.188782 64.0
918.737793 112.0
921.774719 36.0
922.626953 64.0
923.310181 48.0
923.533997 144.0
924.955872 120.0
925.004333 60.0
925.409912 180.0
927.966736 96.0
929.750061 44.0
931.76593 64.0
933.175964 180.0
935.140808 212.0
938.27179 64.0
938.875427 236.0
941.878235 40.0
942.36084 164.0
944.27417 196.0
953.746948 96.0
953.974365 128.0
957.177185 200.0
957.419922 132.0
958.676636 196.0
958.744446 100.0
959.336121 40.0
961.47644 36.0
962.556702 96.0
967.775391 72.0
967.874451 68.0
971.270569 80.0
973.554504 40.0
974.063782 80.0
975.325195 128.0
977.663696 100.0
980.459839 112.0
980.578247 152.0
980.877441 52.0
982.074646 76.0
983.971619 136.0
984.36499 28.0
984.702209 92.0
986.75177 132.0
993.684875 136.0
995.2854 180.0
996.503845 180.0
998.446228 100.0
998.917908 28.0
1003.616089 68.0
1009.134399 60.0
1009.614929 124.0
1012.570435 44.0
1020.661377 240.0
1021.863525 80.0
1022.162537 128.0
1022.773499 156.0
1025.563354 112.0
1026.334717 216.0
1027.948486 204.0
1029.94043 52.0
1032.931885 204.0
1035.037354 244.0
1036.042969 228.0
1036.504272 132.0
1036.645142 124.0
1036.837402 168.0
1041.489014 64.0
1041.99646 160.0
1051.042603 100.0
1054.78833 192.0
1056.954834 92.0
1060.050049 84.0
1060.179688 204.0
1061.677124 72.0
1062.578735 52.0
1063.408325 208.0
1063.714478 100.0
1064.162354 152.0
1068.738037 152.0
1069.688232 136.0
1070.541138 68.0
1072.013306 296.0
1075.92688 192.0
1078.467896 164.0
1080.043579 208.0
1080.730347 140.0
1081.764526 188.0
1081.960938 224.0
1082.386475 176.0
1083.316528 80.0
1084.299316 188.0
1086.54187 52.0
1087.30957 152.0
1087.565552 132.0
1087.867554 144.0
1089.37793 88.0
1090.02832 216.0
1093.138672 224.0
1094.402466 164.0
1094.639526 172.0
1095.805298 140.0
1096.602661 188.0
1097.14978 84.0
1098.600586 96.0
1099.880737 180.0
1102.48291 112.0
1102.714233 76.0
1105.061768 68.0
1105.5448 136.0
1107.160034 40.0
1107.478027 108.0
1108.465088 152.0
1110.208496 132.0
1115.034912 164.0
1115.972168 136.0
1119.332275 180.0
1120.990967 136.0
1123.958252 144.0
1124.105103 156.0
1126.228027 124.0
1128.152466 208.0
1128.373169 100.0
1129.06189 164.0
1130.346191 140.0
1132.307739 92.0
1134.06311 84.0
1136.490601 200.0
1136.631592 128.0
1141.033325 156.0
1141.171997 188.0
1142.806396 132.0
1143.250488 188.0
1147.568237 64.0
1148.309937 172.0
1149.942749 76.0
1151.93457 76.0
1152.697998 224.0
1153.454956 180.0
1154.144531 204.0
1155.456665 120.0
1155.585205 32.0
1155.747559 96.0
1156.072388 100.0
1156.180664 200.0
1159.621094 128.0
1160.265015 172.0
1161.634888 188.0
1163.100586 184.0
1163.623291 160.0
1165.056274 256.0
1167.163208 172.0
1167.605225 184.0
1169.30603 136.0
1171.089844 152.0
1171.655151 164.0
1172.834106 200.0
1174.320435 204.0
1174.825195 44.0
1175.357422 140.0
1175.794067 160.0
1177.118408 148.0
1177.910645 184.0
1179.338745 60.0
1179.619019 108.0
1183.165039 212.0
1183.409058 128.0
1187.109131 80.0
1187.383423 52.0
1188.817261 56.0
1189.023193 168.0
1190.045898 140.0
1190.897461 168.0
1191.529419 124.0
1191.927979 144.0
1192.106567 164.0
1192.463989 148.0
1192.931396 100.0
1194.031494 36.0
1194.244751 104.0
1194.71936 128.0
1194.86377 96.0
1195.372925 120.0
1195.462402 212.0
1195.861572 132.0
1195.95105 172.0
1196.508667 168.0
1198.953857 132.0
1199.084839 164.0
1200.057007 128.0
1200.132568 136.0
1201.001465 156.0
1202.029419 132.0
1202.471069 160.0
1202.885254 196.0
1203.603271 72.0
1204.936279 164.0
1205.675659 120.0
1205.786133 160.0
1206.671021 104.0
1209.251099 128.0
1209.950317 120.0
1211.092896 52.0
1211.418457 200.0
1211.667847 188.0
1211.785645 112.0
1212.284424 224.0
1212.984497 140.0
1213.844116 52.0
1214.059082 152.0
1216.716675 216.0
1217.459595 192.0
1220.287598 100.0
1221.657715 60.0
1222.812744 44.0
1223.188599 68.0
1223.279053 192.0
1223.794189 40.0
1224.776123 192.0
1225.35437 184.0
1225.953613 48.0
1226.037231 144.0
1227.354736 120.0
1227.794067 160.0
1230.284912 84.0
1230.459473 180.0
1230.773682 56.0
1231.381226 60.0
1234.582031 92.0
1235.788452 208.0
1237.878052 148.0
1238.277222 160.0
1238.676392 128.0
1239.720337 216.0
1240.750732 168.0
1241.010132 168.0
1241.641235 108.0
1241.80957 120.0
1242.517944 180.0
1243.984741 204.0
1244.348999 196.0
1245.501465 160.0
1245.993164 144.0
1247.131592 204.0
1247.546265 192.0
1247.743164 188.0
1248.129761 116.0
1249.649048 208.0
1251.831055 164.0
1253.141235 52.0
1253.338501 184.0
1253.542847 196.0
1253.810669 176.0
1255.319214 224.0
1256.236084 180.0
1256.306641 136.0
1256.363037 104.0
1258.437988 124.0
1258.798096 168.0
1259.716309 72.0
1259.864624 136.0
1259.942261 164.0
1262.359619 52.0
1263.944092 204.0
1264.071411 124.0
1264.191772 68.0
1264.255493 156.0
1265.203857 56.0
1265.564941 104.0
1265.713623 100.0
1266.15271 144.0
1268.696411 224.0
1268.97998 124.0
1269.518921 216.0
1270.178467 124.0
1270.753052 192.0
1271.384644 176.0
1273.450562 168.0
1275.731445 260.0
1276.243408 204.0
1276.705566 180.0
1277.295898 44.0
1277.41687 152.0
1277.736938 196.0
1277.97168 164.0
1281.189697 180.0
1282.258545 172.0
1283.206665 244.0
1283.351074 172.0
1285.068115 120.0
1285.588989 172.0
1285.881592 176.0
1286.309814 68.0
1286.54541 52.0
1286.666748 156.0
1287.345093 136.0
1288.195068 160.0
1288.759399 204.0
1288.995239 164.0
1289.366821 184.0
1289.595459 140.0
1291.075439 216.0
1291.819214 44.0
1292.484619 192.0
1293.508057 56.0
1295.147705 232.0
1296.050415 136.0
1296.114868 92.0
1296.437378 148.0
1298.552246 160.0
1298.753052 120.0
1299.083008 112.0
1299.334106 196.0
1301.1427 84.0
1301.314941 136.0
1302.463989 180.0
1302.794434 92.0
1303.282959 140.0
1304.289062 212.0
1306.59021 68.0
1306.985962 196.0
1307.259399 156.0
1307.561646 188.0
1307.676758 176.0
1309.916016 172.0
1311.876099 156.0
1311.998657 136.0
1312.445679 160.0
1312.654785 60.0
1313.217285 100.0
1313.691895 140.0
1313.888062 44.0
1313.981934 168.0
1314.508667 184.0
1317.439941 132.0
1317.996216 160.0
1319.87561 200.0
1320.757812 204.0
1322.472656 208.0
1323.247192 36.0
1323.452759 204.0
1324.203125 160.0
1324.777222 216.0
1324.85498 196.0
1325.282471 140.0
1325.956421 156.0
1327.188721 184.0
1328.05896 116.0
1330.453491 100.0
1330.664062 144.0
1331.150513 260.0
1331.818726 260.0
1332.116455 216.0
1333.446167 152.0
1334.769287 136.0
1335.481934 56.0
1335.692871 68.0
1336.733276 196.0
1339.259399 168.0
1339.375977 120.0
1340.621826 140.0
1340.869629 128.0
1341.365234 208.0
1342.021362 64.0
1342.779785 164.0
1343.376099 256.0
1344.253418 92.0
1344.370117 48.0
1344.654785 120.0
1345.830078 44.0
1345.881104 88.0
1346.304688 168.0
1347.020386 192.0
1347.831421 208.0
1348.262573 48.0
1348.77417 152.0
1348.825317 136.0
1349.059204 104.0
1349.607544 224.0
1350.397339 88.0
1350.880127 100.0
1352.709473 176.0
1353.522095 92.0
1353.837036 132.0
1354.203247 104.0
1354.386353 144.0
1354.83313 228.0
1355.390015 160.0
1355.631836 232.0
1355.69043 176.0
1355.844238 176.0
1355.961426 196.0
1356.22937 132.0
1356.416016 240.0
1356.870483 176.0
1357.156372 184.0
1357.295776 172.0
1357.82373 136.0
1359.202881 68.0
1360.663452 208.0
1361.654785 136.0
1361.750244 204.0
1362.17627 120.0
1362.352539 136.0
1363.836914 152.0
1364.344116 188.0
1364.535156 140.0
1366.601929 124.0
1367.006592 180.0
1367.698364 80.0
1367.75 256.0
1368.059082 204.0
1368.118042 136.0
1369.664429 164.0
1370.032715 116.0
1371.115845 88.0
1371.749756 200.0
1372.022461 144.0
1372.656494 184.0
1372.759766 196.0
1374.242432 132.0
1374.788452 88.0
1375.172241 112.0
1375.327148 172.0
1376.384766 76.0
1376.840698 188.0
1378.835449 212.0
1379.167969 188.0
1379.508057 184.0
1379.606079 176.0
1380.439575 48.0
1381.304932 172.0
1381.401123 168.0
1381.660034 172.0
1381.99292 152.0
1382.133545 152.0
1382.185303 156.0
1382.237061 108.0
1383.043823 60.0
1383.362061 140.0
1383.62854 200.0
1384.057983 172.0
1385.057739 160.0
1385.472656 64.0
1385.605957 144.0
1385.80603 56.0
1385.872681 164.0
1386.630005 204.0
1386.806396 228.0
1386.858276 96.0
1387.332764 196.0
1389.921143 36.0
1390.314453 208.0
1390.376831 208.0
1390.5 148.0
1391.821289 208.0
1392.482178 188.0
1392.794189 148.0
1394.257812 128.0
1394.740967 160.0
1394.800415 176.0
1395.350464 180.0
1395.766846 148.0
1396.860107 80.0
1396.941895 76.0
1397.180054 44.0
1397.425537 148.0
1398.005859 120.0
1398.578979 380.0
1400.678711 136.0
1401.043701 116.0
1401.438599 140.0
1401.498169 92.0
1403.055908 168.0
1403.987915 192.0
1404.263916 192.0
1404.36084 120.0
1405.151611 212.0
1406.158936 168.0
1407.861084 76.0
1408.510864 180.0
1409.637939 136.0
1411.260986 208.0
1411.664795 196.0
1412.188232 204.0
1413.991333 52.0
1415.496094 208.0
1415.555908 180.0
1416.454712 268.0
1417.06897 136.0
1417.428589 140.0
1417.488525 156.0
1417.698364 164.0
1417.953247 164.0
1419.497559 132.0
1420.247437 120.0
1420.915161 136.0
1422.393433 136.0
1422.926392 92.0
1423.106689 144.0
1423.279297 176.0
1424.315674 36.0
1424.698853 204.0
1425.78833 180.0
1426.043823 108.0
1426.643677 136.0
1427.176392 212.0
1428.156616 96.0
1428.32959 184.0
1428.88623 168.0
1429.616089 156.0
1430.218262 120.0
1430.594116 136.0
1430.782837 192.0
1431.927368 184.0
1432.175903 224.0
1432.68811 128.0
1433.125122 148.0
1433.358643 136.0
1433.908813 148.0
1434.745483 144.0
1435.235474 216.0
1436.027344 212.0
1436.163086 76.0
1436.562866 144.0
1436.804321 148.0
1437.189087 156.0
1437.400391 96.0
1438.07959 168.0
1438.182495 208.0
1438.472046 140.0
1438.547485 72.0
1439.03064 176.0
1440.337158 148.0
1440.805542 424.0
1441.409912 188.0
1441.810425 56.0
1444.517212 100.0
1444.57019 148.0
1444.638306 168.0
1444.759277 196.0
1444.842529 48.0
1445.319214 160.0
1445.447876 132.0
1445.508423 172.0
1445.6521 164.0
1445.795898 160.0
1446.643677 112.0
1447.309937 192.0
1447.741455 160.0
1447.877808 216.0
1449.567139 164.0
1451.075439 168.0
1452.190186 48.0
1452.455688 120.0
1452.627197 148.0
1453.123169 196.0
1453.912354 160.0
1455.028198 132.0
1455.172363 108.0
1455.286255 148.0
1455.764648 224.0
1456.584961 44.0
1456.77478 108.0
1457.420654 164.0
1457.823364 104.0
1458.492188 152.0
1459.282715 196.0
1460.157227 180.0
1461.655884 156.0
1461.846069 120.0
1462.310303 116.0
1463.421753 152.0
1464.838257 188.0
1465.150513 104.0
1465.207031 176.0
1466.828857 172.0
1467.99353 36.0
1468.069824 240.0
1469.480957 64.0
1470.266846 128.0
1470.434692 184.0
1470.747681 140.0
1470.976685 176.0
1471.831787 148.0
1472.671753 116.0
1473.527344 172.0
1473.842163 192.0
1473.993408 176.0
1475.453247 200.0
1475.61377 60.0
1476.156616 160.0
1476.516113 200.0
1476.662354 128.0
1476.722534 276.0
1477.801147 52.0
1478.03833 140.0
1478.619995 136.0
1479.071533 60.0
1479.324097 80.0
1479.959595 172.0
1480.373047 164.0
1481.506592 128.0
1482.571655 192.0
1482.709595 200.0
1482.824585 212.0
1483.246094 52.0
1483.606445 240.0
1484.012695 36.0
1484.65686 176.0
1485.630981 208.0
1487.372803 160.0
1487.529785 212.0
1488.74707 244.0
1489.530518 164.0
1489.699463 148.0
1490.045166 76.0
1490.218872 212.0
1490.291138 180.0
1490.974976 116.0
1491.09021 76.0
1491.413086 136.0
1491.559082 176.0
1492.266357 164.0
1492.358643 124.0
1492.935303 168.0
1494.127563 188.0
1494.258301 108.0
1494.973877 44.0
1495.235596 116.0
1495.420288 180.0
1495.728149 152.0
1495.905151 300.0
1497.631348 132.0
1497.838013 140.0
1497.976685 208.0
1498.045898 188.0
1498.17688 124.0
1498.815552 144.0
1501.359863 152.0
1501.491333 136.0
1501.614746 116.0
1502.324341 180.0
1503.304199 128.0
1503.404541 44.0
1504.701294 128.0
