>compound 4'-Methylgenistein (Biochanin A)
>formula C16H12O5
>ionization [M+H]+
>parentmass 285.075287
#inchi InChI=1S/C16H12O5/c1-20-11-4-2-9(3-5-11)12-8-21-14-7-10(17)6-13(18)15(14)16(12)19/h2-8,17-18H,1H3
#inchikey WUADCCWRTIWANL
#Ion_Source DI-ESI
#Instrument qTof
#Compound_Source Isolated
#PI Norberto Lopes
#Data_Collector Denise Silva
#Scan -1
#Precursor_MZ 285.075
#ExactMass 284.069
#Charge 1
#CAS_Number 491-80-5
#Pubmed_ID  
#Smiles O=C1C2=C(O)C=C(O)C=C2OC=C1C3=CC=C(OC)C=C3
#INCHI_AUX  
#Library_Class 3
#SpectrumID CCMSLIB00000081279
#IonMode Positive
#UpdateWorkflowName UPDATE-SINGLE-ANNOTATED-BRONZE
#LibraryQualityString Bronze
#TaskID c0f86ef88a5048069cca0e030c6049e2
##Scan# 1
#SpectrumFile gnps_4_Methylgenistein_pos_MplusH.mgf
#LibraryName gnps_library.mgf
#MQScore -1
#Organism gnps_library
#TIC_Query 0
#RT_Query -1
#MZErrorPPM -1
#SharedPeaks 0
#MassDiff 0
#LibMZ -1
#SpecMZ 285.075
#SpecCharge 0
#internalFilename spec-00000.mgf

>collision 10
118.040703 1402.0
121.045059 377.0
123.042877 1529.0
124.014473 2165.0
133.063843 1359.0
139.040756 309.0
141.067245 395.0
144.056778 291.0
145.064896 723.0
149.022079 2658.0
152.009537 5085.0
153.016022 4371.0
158.034821 3192.0
159.039719 382.0
163.038345 315.0
168.056915 652.0
169.062149 676.0
170.019821 4686.0
171.039459 389.0
173.05925 277.0
179.033096 955.0
183.077713 409.0
184.050735 283.0
185.057632 1052.0
186.067184 1041.0
187.073593 335.0
196.051239 489.0
197.059616 2521.0
198.062683 400.0
200.045563 412.0
201.052292 512.0
211.073471 340.0
212.044846 293.0
213.054245 10729.0
214.059265 2527.0
215.066711 288.0
216.043015 579.0
224.045624 429.0
225.054001 1179.0
226.061768 356.0
229.085648 7006.0
230.088425 633.0
241.048233 3716.0
242.05629 14640.0
243.058426 1401.0
252.041 960.0
253.049347 6849.0
269.044067 7771.0
270.049225 11163.0
285.075287 15136.0
