>compound CORTISONE ACETATE
>formula C23H30O6 
>ionization [M+H]+
>parentmass 403.211975
#inchi InChI=1S/C23H30O6/c1-13(24)29-12-19(27)23(28)9-7-17-16-5-4-14-10-15(25)6-8-21(14,2)20(16)18(26)11-22(17,23)3/h10,16-17,20,28H,4-9,11-12H2,1-3H3/t16-,17-,20+,21-,22-,23-/m0/s1
#inchikey ITRJWOMZKQRYTA
#Ion_Source LC-ESI
#Instrument qTof
#Compound_Source Commercial
#PI Dorrestein
#Data_Collector Garg_Neha
#Scan -1
#Precursor_MZ 403.213
#ExactMass 402.204
#Charge 1
#CAS_Number N/A
#Pubmed_ID N/A
#Smiles N/A
#INCHI_AUX N/A
#Library_Class 1
#SpectrumID CCMSLIB00000077116
#IonMode Positive
#UpdateWorkflowName UPDATE-SINGLE-ANNOTATED-GOLD
#LibraryQualityString Gold
#TaskID 48f7f52fc6d249b5abbcc6e7b3df5969
##Scan# 1389
#SpectrumFile NCP003106_G2_H11_BB5_01_15708.mzXML
#LibraryName NIH_Clinical_Collection_2.mgf
#MQScore -1
#Organism NIHcollection2_04212014_2_mgf
#TIC_Query 0
#RT_Query -1
#MZErrorPPM -1
#SharedPeaks 0
#MassDiff 0
#LibMZ -1
#SpecMZ 403.213
#SpecCharge 0
#internalFilename spec-00000.mgf

>collision 10
51.636818 140.0
62.182243 164.0
63.25565 196.0
63.588509 164.0
63.640896 140.0
67.111809 148.0
74.187729 152.0
93.070267 204.0
96.936371 176.0
99.581978 216.0
101.345459 160.0
105.071823 164.0
105.588608 212.0
107.086945 368.0
108.104652 140.0
114.491364 172.0
119.084747 212.0
121.064461 536.0
121.098579 316.0
122.068596 156.0
123.084427 400.0
130.079193 168.0
133.062988 160.0
133.079056 228.0
135.081757 168.0
135.119064 160.0
136.085236 164.0
139.096832 180.0
143.087372 152.0
144.089035 180.0
145.06572 176.0
145.102219 460.0
147.081833 256.0
148.080627 164.0
149.004013 168.0
149.096344 336.0
150.475037 200.0
153.086426 196.0
155.740158 208.0
157.107086 176.0
159.086792 164.0
161.098404 352.0
163.069443 140.0
163.11084 2448.0
164.118286 300.0
164.986557 220.0
165.088501 152.0
169.099686 160.0
171.079071 156.0
171.114059 364.0
172.630051 212.0
173.095825 408.0
173.127258 164.0
174.110687 160.0
175.110092 148.0
175.149597 172.0
176.114975 180.0
177.092316 164.0
181.09697 148.0
182.105942 140.0
183.115128 316.0
185.091705 192.0
187.111084 124.0
187.380356 168.0
189.098267 180.0
189.120956 128.0
189.152695 212.0
190.098251 140.0
191.102448 132.0
195.111481 144.0
196.122162 172.0
198.136749 148.0
199.108231 140.0
200.108322 148.0
201.123169 188.0
203.106674 168.0
208.119247 172.0
209.133163 148.0
213.09465 152.0
213.171219 180.0
219.113342 168.0
219.139435 160.0
221.122604 132.0
223.115921 192.0
225.077637 172.0
225.131271 116.0
227.133575 140.0
228.079498 140.0
232.134155 156.0
234.112442 168.0
235.145706 156.0
237.121674 156.0
237.157806 288.0
239.099518 196.0
239.140198 128.0
240.165527 152.0
241.121933 156.0
241.153519 192.0
242.168625 168.0
243.172943 280.0
248.135941 144.0
251.098053 156.0
251.13591 144.0
254.163422 144.0
255.140274 140.0
255.16391 176.0
256.147247 164.0
257.147705 120.0
257.186737 152.0
258.160919 152.0
263.128754 260.0
265.156006 280.0
265.828217 144.0
266.124023 172.0
267.144165 148.0
267.172699 320.0
269.163361 192.0
269.844391 176.0
279.178467 420.0
280.188568 192.0
281.171326 160.0
283.172852 648.0
284.179626 176.0
285.036255 176.0
285.178345 296.0
285.362274 160.0
289.161163 96.0
290.071747 172.0
295.171173 144.0
297.194519 240.0
298.190826 248.0
299.113831 236.0
299.166901 212.0
300.167999 152.0
301.178223 468.0
307.17157 132.0
308.168091 400.0
313.179382 276.0
318.594086 140.0
325.176483 424.0
326.183502 136.0
339.196747 172.0
340.20697 140.0
342.181244 180.0
343.190674 1624.0
343.264435 200.0
344.193604 784.0
349.375763 152.0
357.204468 120.0
361.20282 516.0
361.896454 152.0
362.202332 488.0
363.203278 148.0
377.748993 140.0
383.246368 208.0
385.197021 452.0
386.200806 104.0
387.203491 148.0
401.185608 248.0
401.27536 172.0
402.36853 172.0
402.49231 148.0
403.211975 14524.0
403.272247 208.0
403.335754 176.0
403.52536 108.0
403.744904 96.0
404.015045 136.0
404.099182 100.0
404.218292 3676.0
404.280518 184.0
405.215668 1264.0
406.22287 156.0
406.882599 108.0
406.979614 180.0
445.350647 144.0
1958.966309 148.0
1973.713989 144.0
2001.727417 188.0
