>compound MLS001160036-01!
>formula C28H30N2O5
>ionization [M+H]+
>parentmass 475.223602
#inchi InChI=1S/C28H30N2O5/c1-16(2)15-34-24-9-8-21-17(3)22(28(33)35-27(21)18(24)4)11-26(32)29-12-19-10-20(14-29)23-6-5-7-25(31)30(23)13-19/h5-9,19-20H,1,10-15H2,2-4H3/t19-,20+/m1/s1
#inchikey RPCHMZHHNYOOEM
#Ion_Source LC-ESI
#Instrument qTof
#Compound_Source NIH Natural Product Library
#PI Dorrestein
#Data_Collector VVP/LMS
#Scan -1
#Precursor_MZ 475.223
#ExactMass 474.215
#Charge 1
#CAS_Number N/A
#Pubmed_ID N/A
#Smiles CC(=C)COc1ccc2c(C)c(CC(=O)N3C[C@H]4C[C@@H](C3)c5cccc(=O)n5C4)c(=O)oc2c1C
#INCHI_AUX N/A
#Library_Class 1
#SpectrumID CCMSLIB00000079953
#IonMode Positive
#UpdateWorkflowName UPDATE-SINGLE-ANNOTATED-GOLD
#LibraryQualityString Gold
#TaskID b1d8e8f6646f4e71acdff9ca3d919d08
##Scan# 2103
#SpectrumFile p2-C02_GC2_01_18002.mzXML
#LibraryName NIH_Natural_Products_Library.mgf
#MQScore -1
#Organism NIH_Natural_Products_Library
#TIC_Query 0
#RT_Query -1
#MZErrorPPM -1
#SharedPeaks 0
#MassDiff 0
#LibMZ -1
#SpecMZ 475.223
#SpecCharge 0
#internalFilename spec-00000.mgf

>collision 10
94.952873 180.0
94.975151 152.0
95.013008 148.0
95.04599 184.0
95.090622 200.0
95.10331 200.0
95.187691 148.0
95.207779 116.0
95.284805 180.0
95.325607 140.0
95.349411 176.0
95.40419 196.0
95.574501 88.0
95.5998 184.0
95.625099 184.0
95.640671 160.0
95.691284 116.0
95.728279 48.0
95.845154 160.0
95.885681 520.0
95.901154 312.0
96.010658 204.0
96.045952 400.0
96.079117 196.0
96.131798 152.0
96.317268 144.0
96.395416 232.0
96.414963 132.0
96.461868 112.0
96.497055 200.0
96.628098 88.0
96.651573 216.0
96.67897 100.0
96.817963 84.0
96.835587 148.0
96.87085 80.0
96.945297 124.0
97.006058 132.0
97.050812 140.0
97.10582 164.0
97.159019 108.0
97.302284 140.0
97.355301 228.0
97.382797 148.0
97.459412 116.0
97.563576 192.0
97.583229 176.0
97.624527 232.0
97.752388 168.0
97.770103 160.0
97.815369 164.0
97.848145 240.0
97.874428 148.0
97.900032 104.0
97.96109 164.0
98.006104 132.0
98.030045 136.0
98.087769 112.0
98.170494 196.0
98.195648 120.0
98.296257 188.0
98.408768 148.0
98.552948 236.0
98.752609 132.0
98.78228 152.0
98.938614 152.0
98.98613 164.0
99.045547 124.0
99.09507 168.0
99.211998 152.0
99.257599 164.0
99.277428 76.0
99.32106 116.0
99.356773 140.0
99.370659 244.0
99.401306 148.0
99.539368 152.0
99.567169 84.0
99.581078 152.0
99.612854 40.0
99.698288 184.0
99.757919 152.0
99.801659 92.0
100.077637 244.0
100.143936 144.0
100.213661 188.0
100.236397 204.0
100.261482 164.0
100.283409 200.0
100.305336 156.0
100.321281 96.0
100.584595 92.0
100.610542 272.0
100.638496 196.0
100.726364 180.0
100.744347 44.0
100.8647 140.0
100.914223 88.0
100.929901 172.0
100.990211 144.0
101.150284 140.0
101.222359 164.0
101.274429 168.0
101.494865 120.0
101.611198 168.0
101.713547 120.0
101.737549 188.0
101.81192 80.0
101.846069 108.0
101.902313 140.0
101.998779 168.0
102.081207 108.0
102.118454 152.0
102.139526 196.0
102.161659 300.0
102.217995 184.0
102.232079 96.0
102.332726 120.0
102.352859 100.0
102.375008 172.0
102.399178 144.0
102.477737 184.0
102.493858 180.0
102.572456 52.0
102.69545 256.0
102.747894 184.0
102.774124 244.0
102.796318 124.0
102.816498 144.0
102.88311 68.0
102.89724 120.0
102.984566 164.0
103.028511 116.0
103.056801 168.0
103.08094 156.0
103.153801 84.0
103.167953 132.0
103.218262 136.0
103.306274 152.0
103.345932 220.0
103.370209 36.0
103.396523 124.0
103.430023 160.0
103.447121 164.0
103.513931 144.0
103.568611 176.0
103.710449 184.0
103.730713 60.0
103.815872 140.0
103.865463 184.0
103.90715 116.0
103.949753 204.0
104.013863 136.0
104.037621 180.0
104.11216 148.0
104.134499 132.0
104.291145 164.0
104.408867 64.0
104.443443 164.0
104.528885 100.0
104.587906 100.0
104.65712 168.0
104.677483 120.0
104.742653 152.0
104.77729 148.0
104.81192 332.0
104.84993 292.0
104.873062 156.0
104.974998 144.0
105.034142 156.0
105.070862 164.0
105.103508 132.0
105.164726 52.0
105.18718 116.0
105.207596 180.0
105.225967 220.0
105.321945 188.0
105.364845 172.0
105.405708 228.0
105.495636 100.0
105.591736 56.0
105.61628 136.0
105.687881 120.0
105.777931 252.0
105.85778 48.0
106.017563 192.0
106.06675 144.0
106.093925 188.0
106.154907 124.0
106.175415 112.0
106.218491 176.0
106.308762 120.0
106.335442 172.0
106.363197 276.0
106.399078 184.0
106.499695 176.0
106.614746 212.0
106.682571 112.0
106.785385 140.0
106.991158 68.0
107.051064 164.0
107.067337 140.0
107.131195 124.0
107.256889 116.0
107.335236 144.0
107.382401 156.0
107.477554 152.0
107.539467 144.0
107.553917 140.0
107.58075 148.0
107.633652 244.0
107.696381 172.0
107.904282 152.0
108.018044 136.0
108.041595 28.0
108.097092 204.0
108.138847 152.0
108.244705 148.0
108.285843 44.0
108.401855 280.0
108.439163 232.0
108.467224 140.0
108.50135 120.0
108.560844 224.0
108.642365 148.0
108.735741 156.0
108.762726 92.0
108.777252 144.0
108.837456 144.0
108.862381 148.0
108.897682 108.0
109.049843 136.0
109.070625 240.0
109.211525 124.0
109.325951 144.0
109.402969 180.0
109.461266 244.0
109.486816 356.0
109.520493 264.0
109.588318 144.0
109.750145 200.0
109.809288 188.0
109.905243 108.0
110.060654 176.0
110.091026 164.0
110.105644 104.0
110.150124 148.0
110.203819 228.0
110.49234 188.0
110.513268 132.0
110.5886 32.0
110.628372 172.0
110.649307 124.0
110.911156 68.0
110.986633 156.0
111.018082 200.0
111.112076 168.0
111.139748 124.0
111.160728 104.0
111.175423 176.0
111.211098 64.0
111.429489 120.0
111.493881 124.0
111.509338 164.0
111.614449 276.0
111.633377 184.0
111.732124 160.0
111.784836 112.0
111.799568 56.0
111.818504 156.0
111.850075 176.0
111.911125 112.0
111.925865 132.0
111.963768 28.0
111.986938 104.0
112.125992 180.0
112.203979 108.0
112.233498 164.0
112.292549 80.0
112.351608 80.0
112.372704 136.0
112.433899 188.0
112.463448 164.0
112.61969 172.0
112.742226 132.0
112.778152 216.0
112.869064 104.0
112.885284 184.0
112.987503 68.0
113.002312 168.0
113.070023 152.0
113.177315 164.0
113.271172 212.0
113.328369 76.0
113.351677 144.0
113.372871 172.0
113.400421 152.0
113.487335 204.0
113.565796 204.0
113.587006 68.0
113.615814 228.0
113.85231 196.0
113.941521 140.0
113.994644 160.0
114.049896 212.0
114.075409 184.0
114.139191 112.0
114.28595 192.0
114.400879 172.0
114.415779 188.0
114.469009 100.0
114.503082 148.0
114.537163 168.0
114.590416 160.0
114.633034 32.0
114.684181 120.0
114.767319 60.0
114.809967 224.0
114.919922 212.0
115.057907 316.0
115.163589 200.0
115.213379 132.0
115.324554 144.0
115.52977 156.0
115.55024 176.0
115.672432 144.0
115.771637 116.0
115.922935 204.0
116.007324 120.0
116.033279 148.0
116.063217 340.0
116.097519 180.0
116.163864 180.0
116.213203 200.0
116.318359 184.0
116.391357 124.0
116.425713 96.0
116.623367 164.0
116.651314 44.0
116.720116 140.0
116.763481 168.0
116.809189 172.0
116.826668 148.0
116.850128 240.0
116.939537 208.0
116.958908 180.0
117.053642 168.0
117.06871 116.0
117.105324 180.0
117.163483 164.0
117.185028 132.0
117.286316 220.0
117.31218 52.0
117.327271 140.0
117.461746 300.0
117.504112 232.0
117.579636 92.0
117.601219 132.0
117.7286 168.0
117.833267 232.0
117.856987 156.0
118.000854 100.0
118.067886 124.0
118.121956 76.0
118.167389 144.0
118.277756 120.0
118.347473 116.0
118.444481 100.0
118.494308 172.0
118.528976 136.0
118.587486 52.0
118.77179 148.0
118.803307 128.0
118.83036 144.0
118.845543 180.0
118.865074 76.0
118.977936 236.0
119.049896 200.0
119.083267 348.0
119.110405 192.0
119.182091 132.0
119.358154 84.0
119.433647 152.0
119.460373 152.0
119.49736 180.0
119.62886 188.0
119.889305 184.0
119.947441 272.0
120.041901 124.0
120.059891 224.0
120.083397 148.0
120.133499 36.0
120.185867 228.0
120.205505 164.0
120.266609 204.0
120.303719 44.0
120.347382 204.0
120.374977 176.0
120.463127 188.0
120.502457 84.0
120.522118 148.0
120.611717 108.0
120.718849 140.0
120.749466 120.0
120.784462 48.0
120.8479 232.0
120.885101 120.0
120.906982 164.0
120.991638 160.0
121.065674 704.0
121.104027 140.0
121.139069 96.0
121.200417 128.0
121.220139 104.0
121.286758 180.0
121.307724 104.0
121.32534 156.0
121.474464 112.0
121.511757 104.0
121.643425 204.0
121.680748 208.0
121.744423 160.0
121.937752 132.0
122.023483 180.0
122.069656 120.0
122.091644 204.0
122.142235 52.0
122.168633 172.0
122.300659 144.0
122.340279 172.0
122.454781 148.0
122.562721 148.0
122.639854 92.0
122.703781 120.0
122.813065 172.0
122.89566 208.0
122.996193 232.0
123.032501 164.0
123.080978 96.0
123.136276 136.0
123.310593 120.0
123.390396 196.0
123.410934 180.0
123.450096 204.0
123.562897 152.0
123.739952 52.0
123.77095 120.0
123.788666 172.0
123.815239 212.0
123.8396 148.0
123.86618 212.0
123.899414 196.0
123.93486 224.0
124.057526 160.0
124.078918 112.0
124.107399 204.0
124.115837 172.0
124.16291 164.0
124.223068 180.0
124.271873 164.0
124.30072 140.0
124.323021 236.0
124.420578 136.0
124.54937 184.0
124.608543 176.0
124.720459 164.0
124.793823 52.0
124.809387 188.0
124.91391 144.0
124.96508 284.0
124.991783 132.0
125.01181 100.0
125.069672 140.0
125.141777 92.0
125.149628 188.0
125.15741 320.0
125.332458 140.0
125.414917 180.0
125.684753 220.0
125.709305 120.0
125.733849 112.0
125.798576 144.0
125.861092 220.0
125.890121 200.0
125.932549 148.0
126.021904 80.0
126.109062 168.0
126.182831 132.0
126.240959 132.0
126.290108 152.0
126.384125 200.0
126.44902 140.0
126.469162 176.0
126.507217 116.0
126.556465 128.0
126.639328 160.0
126.695328 352.0
126.7584 184.0
126.84771 116.0
126.874611 132.0
126.984482 188.0
127.000183 316.0
127.053581 152.0
127.305405 132.0
127.375031 128.0
127.413216 184.0
127.458153 188.0
127.496353 128.0
127.608749 204.0
127.642471 152.0
127.741432 148.0
127.779678 76.0
127.928207 92.0
127.991249 124.0
128.009262 176.0
128.062653 444.0
128.128632 168.0
128.171448 36.0
128.207504 216.0
128.254822 164.0
128.281555 224.0
128.374313 128.0
128.541245 160.0
128.663132 200.0
128.696991 240.0
128.796356 204.0
129.020523 180.0
129.068192 128.0
129.137024 116.0
129.257553 220.0
129.318649 160.0
129.4077 152.0
129.447693 48.0
129.50885 96.0
129.524704 96.0
129.597198 96.0
129.633453 148.0
129.67424 180.0
129.7173 148.0
129.745148 184.0
129.89418 184.0
129.94635 476.0
130.012161 136.0
130.073914 212.0
130.109756 176.0
130.255096 192.0
130.393692 140.0
130.418701 180.0
130.452789 128.0
130.507355 80.0
130.584671 108.0
130.614243 116.0
130.747177 160.0
130.789444 156.0
130.819962 148.0
130.881714 136.0
130.91011 204.0
130.987549 172.0
131.053619 180.0
131.084763 228.0
131.128998 148.0
131.181244 168.0
131.288406 48.0
131.388763 180.0
131.511246 212.0
131.555359 64.0
131.573624 152.0
131.612427 236.0
131.630692 184.0
131.708344 100.0
131.724335 172.0
131.813431 140.0
131.829437 252.0
131.859146 136.0
131.926865 128.0
131.976761 168.0
132.087784 156.0
132.158707 120.0
132.193436 244.0
132.2388 64.0
132.284576 172.0
132.300491 156.0
132.339523 128.0
132.580597 180.0
132.648743 172.0
132.676315 200.0
132.729034 132.0
132.786377 160.0
132.839127 88.0
132.907959 56.0
133.044128 192.0
133.105362 156.0
133.215363 152.0
133.277634 68.0
133.367249 132.0
133.397141 236.0
133.450012 68.0
133.470703 152.0
133.544296 192.0
133.631714 220.0
133.679611 240.0
133.730667 76.0
133.804321 140.0
133.866486 184.0
133.91716 140.0
133.937881 104.0
133.981659 152.0
134.06073 164.0
134.095963 172.0
134.124527 84.0
134.145264 200.0
134.212128 220.0
134.249542 72.0
134.371277 100.0
134.49588 160.0
134.555908 28.0
134.572067 200.0
134.687531 148.0
134.858521 184.0
134.909363 144.0
134.927856 120.0
134.987976 236.0
135.046875 176.0
135.182297 140.0
135.325806 192.0
135.346634 104.0
135.372116 68.0
135.527298 264.0
135.54454 164.0
135.601456 180.0
135.631592 132.0
135.675629 120.0
135.7827 160.0
135.807556 112.0
135.829483 136.0
135.868118 288.0
135.904358 168.0
135.911926 136.0
135.919388 164.0
135.972534 100.0
135.996902 208.0
136.018951 332.0
136.075867 164.0
136.107178 140.0
136.188461 128.0
136.247849 220.0
136.289566 208.0
136.361725 236.0
136.424057 164.0
136.444077 40.0
136.504532 112.0
136.55336 160.0
136.590576 112.0
136.630127 188.0
136.674332 240.0
136.766235 348.0
136.874512 172.0
137.037552 132.0
137.063309 224.0
137.086487 152.0
137.217667 156.0
137.41983 104.0
137.534271 172.0
137.614105 120.0
137.665009 180.0
137.68602 156.0
137.749084 168.0
137.865479 132.0
137.919662 236.0
137.93602 108.0
137.967972 152.0
138.045914 120.0
138.216675 108.0
138.333115 180.0
138.417969 164.0
138.453751 144.0
138.596268 204.0
138.628799 152.0
138.692078 160.0
138.717865 116.0
138.827667 120.0
138.867325 172.0
138.893723 128.0
139.011032 144.0
139.072052 180.0
139.189438 200.0
139.328003 220.0
139.36795 104.0
139.424347 160.0
139.440796 168.0
139.464294 216.0
139.520706 232.0
139.54187 152.0
139.577133 148.0
139.763748 36.0
139.887695 64.0
139.913589 144.0
139.941605 40.0
140.127899 128.0
140.184448 116.0
140.281082 224.0
140.307953 112.0
140.368317 148.0
140.469742 112.0
140.486252 148.0
140.558167 196.0
140.620743 144.0
140.639633 216.0
140.658508 144.0
140.823792 136.0
140.866302 196.0
141.017532 168.0
141.065979 492.0
141.104996 184.0
141.130997 144.0
141.244522 124.0
141.30365 52.0
141.358078 128.0
141.391205 116.0
141.670609 196.0
141.791443 76.0
141.92894 180.0
141.947906 180.0
141.969254 112.0
142.077118 612.0
142.258713 160.0
142.294327 160.0
142.334366 120.0
142.458191 128.0
142.48819 224.0
142.555603 148.0
142.580505 200.0
142.61264 168.0
142.669693 160.0
142.712479 192.0
142.809921 160.0
142.857559 136.0
142.926544 152.0
142.96701 108.0
143.05983 48.0
143.086823 1160.0
143.226517 96.0
143.309891 168.0
143.333725 140.0
143.460037 232.0
143.53363 152.0
143.542984 132.0
143.580032 196.0
143.657974 148.0
143.710449 112.0
143.774887 64.0
143.88945 248.0
143.912216 60.0
144.011246 124.0
144.052063 128.0
144.086731 416.0
144.149796 172.0
144.222778 92.0
144.336243 524.0
144.352982 96.0
144.40799 148.0
144.479752 152.0
144.625717 192.0
144.777298 180.0
144.874756 172.0
144.929855 160.0
144.994553 156.0
145.048187 160.0
145.068573 372.0
145.102798 664.0
145.133591 224.0
145.195938 32.0
145.23671 208.0
145.253693 264.0
145.284683 208.0
145.335068 92.0
145.462997 172.0
145.565506 184.0
145.630402 164.0
145.709625 132.0
145.74086 140.0
145.808136 112.0
145.865829 124.0
145.95845 136.0
146.060471 1100.0
146.180893 220.0
146.267532 232.0
146.322891 112.0
146.39032 108.0
146.424026 212.0
146.445709 176.0
146.479431 108.0
146.508331 56.0
146.544479 144.0
146.590256 156.0
146.669785 184.0
146.689072 128.0
146.768631 160.0
146.828918 120.0
147.014679 156.0
147.038803 368.0
147.077469 680.0
147.11235 144.0
147.14502 120.0
147.18364 64.0
147.207794 200.0
147.24884 148.0
147.29361 112.0
147.425201 192.0
147.468704 232.0
147.553314 164.0
147.589584 148.0
147.640366 52.0
147.790329 176.0
147.809448 204.0
147.839401 188.0
147.867767 176.0
147.916183 176.0
148.039658 164.0
148.07724 11008.0
148.106384 320.0
148.148041 112.0
148.184753 168.0
148.241898 88.0
148.337662 168.0
148.39769 132.0
148.478531 208.0
148.509827 60.0
148.542587 236.0
148.568848 80.0
148.633545 128.0
148.68396 160.0
148.706345 180.0
148.832581 176.0
148.857437 120.0
148.888428 244.0
148.956436 136.0
149.026886 160.0
149.063293 376.0
149.079834 1372.0
149.138672 120.0
149.228622 36.0
149.286987 160.0
149.321167 140.0
149.375839 172.0
149.411026 124.0
149.442657 120.0
149.474289 124.0
149.543655 152.0
149.608032 176.0
149.648422 108.0
149.810272 368.0
149.861435 180.0
149.892334 172.0
149.93454 76.0
150.036911 160.0
150.062317 164.0
150.088287 172.0
150.135254 228.0
150.200302 236.0
150.266953 160.0
150.307648 168.0
150.371094 180.0
150.419907 144.0
150.550674 200.0
150.737396 152.0
150.881607 152.0
150.906052 136.0
151.026489 160.0
151.073883 332.0
151.214279 104.0
151.238754 108.0
151.299942 120.0
151.410141 180.0
151.456665 128.0
151.517914 124.0
151.535065 140.0
151.604706 176.0
151.802231 96.0
151.843918 176.0
151.890518 140.0
151.983749 212.0
152.02301 188.0
152.075546 192.0
152.194839 192.0
152.224304 120.0
152.251312 208.0
152.312714 148.0
152.428192 120.0
152.537674 124.0
152.610077 160.0
152.634659 144.0
152.917847 176.0
152.989883 180.0
153.072479 108.0
153.156403 96.0
153.245377 132.0
153.314072 124.0
153.343643 164.0
153.395416 160.0
153.649414 112.0
153.713562 212.0
153.817215 108.0
154.071732 176.0
154.098755 40.0
154.137329 196.0
154.172882 36.0
154.192642 188.0
154.219833 64.0
154.296463 80.0
154.336029 164.0
154.479462 148.0
154.516571 128.0
154.637833 184.0
154.672485 96.0
154.729416 216.0
154.74675 132.0
154.94487 200.0
154.96965 204.0
155.051422 176.0
155.087036 540.0
155.125778 160.0
155.172348 240.0
155.197678 176.0
155.24231 40.0
155.27951 104.0
155.315659 184.0
155.375366 160.0
155.38797 212.0
155.497787 172.0
155.693298 208.0
155.912582 128.0
156.092545 544.0
156.19603 148.0
156.312958 112.0
156.367706 156.0
156.389801 196.0
156.424957 180.0
156.763672 172.0
156.865341 152.0
156.998001 132.0
157.064713 184.0
157.10466 448.0
157.172852 208.0
157.32486 260.0
157.342331 60.0
157.364807 176.0
157.508392 180.0
157.529633 40.0
157.559616 160.0
157.740814 92.0
157.759537 124.0
157.829544 152.0
157.859543 132.0
157.939499 124.0
157.984604 124.0
158.008484 148.0
158.051315 216.0
158.061264 144.0
158.079803 180.0
158.107666 608.0
158.137238 120.0
158.362579 92.0
158.398636 172.0
158.518799 156.0
158.565506 104.0
158.653244 56.0
158.827316 160.0
158.882996 352.0
158.967026 188.0
159.05127 148.0
159.081207 604.0
159.117737 1120.0
159.212784 156.0
159.25798 112.0
159.308762 216.0
159.338364 136.0
159.398666 72.0
159.42128 136.0
159.491653 160.0
159.509247 176.0
159.547089 164.0
159.567078 116.0
159.634964 116.0
159.657593 156.0
159.722992 112.0
159.785873 124.0
159.873947 116.0
159.916733 216.0
160.029053 168.0
160.055191 156.0
160.079315 664.0
160.125366 176.0
160.14299 208.0
160.18428 168.0
160.266312 132.0
160.342972 180.0
160.433105 92.0
160.644501 208.0
160.715576 112.0
160.829132 212.0
161.005859 200.0
161.061783 836.0
161.218079 156.0
161.290131 104.0
161.407654 140.0
161.468353 196.0
161.551437 132.0
161.583374 212.0
161.797302 188.0
161.831573 208.0
161.903641 152.0
162.016129 128.0
162.0896 416.0
162.21022 72.0
162.385178 136.0
162.405457 40.0
162.481567 196.0
162.524689 164.0
162.555145 132.0
162.608429 124.0
162.654129 132.0
162.740433 88.0
162.80899 224.0
162.85083 124.0
162.908051 164.0
163.017303 184.0
163.043655 152.0
163.067245 196.0
163.106262 204.0
163.185059 44.0
163.268982 156.0
163.302032 140.0
163.371033 132.0
163.480118 144.0
163.500488 172.0
163.541199 100.0
163.637939 88.0
163.719421 292.0
163.785141 164.0
163.984985 116.0
164.022614 140.0
164.060852 160.0
164.211288 248.0
164.269958 88.0
164.315872 168.0
164.359253 112.0
164.405228 244.0
164.459061 212.0
164.683456 72.0
164.875076 164.0
164.926193 112.0
164.944077 184.0
165.010544 160.0
165.027771 136.0
165.06311 360.0
165.197235 100.0
165.268875 188.0
165.327728 172.0
165.366119 168.0
165.491547 232.0
165.564804 164.0
165.619598 56.0
165.699005 112.0
165.788681 88.0
165.816879 160.0
165.834824 160.0
166.019409 200.0
166.075836 136.0
166.16304 148.0
166.224625 116.0
166.293915 116.0
166.327286 96.0
166.3862 164.0
166.461899 148.0
166.548111 116.0
166.571228 224.0
166.614899 176.0
166.658569 160.0
166.69873 196.0
166.730515 204.0
166.766495 232.0
167.008194 160.0
167.031342 160.0
167.088455 592.0
167.134247 52.0
167.152252 220.0
167.211441 164.0
167.247482 144.0
167.265503 88.0
167.31871 256.0
167.35817 160.0
167.448303 200.0
167.564224 164.0
167.615753 56.0
167.682755 140.0
167.705948 112.0
167.772614 144.0
167.865784 180.0
167.889648 176.0
167.951492 188.0
167.979263 160.0
168.01796 292.0
168.041183 92.0
168.067688 148.0
168.093643 508.0
168.276047 120.0
168.321625 220.0
168.343185 176.0
168.397415 112.0
168.44133 188.0
168.474915 352.0
168.526581 184.0
168.689392 220.0
168.787643 196.0
168.80574 176.0
168.953171 152.0
169.100571 3284.0
169.131714 152.0
169.188828 184.0
169.250809 216.0
169.30986 164.0
169.426926 216.0
169.452835 156.0
169.566849 148.0
169.616089 120.0
169.743118 188.0
169.914307 152.0
170.027054 168.0
170.103287 1136.0
170.147888 152.0
170.179031 160.0
170.389404 176.0
170.428375 136.0
170.449173 92.0
170.573914 108.0
170.602509 100.0
170.698715 144.0
170.716919 48.0
170.753326 120.0
170.885986 108.0
170.935425 124.0
170.96405 136.0
171.008286 120.0
171.080994 904.0
171.11734 792.0
171.159286 172.0
171.232193 108.0
171.341705 128.0
171.62471 128.0
171.670013 104.0
171.758682 44.0
171.782166 48.0
171.839554 76.0
171.949158 96.0
172.027466 84.0
172.088501 436.0
172.123047 544.0
172.202408 156.0
172.236359 128.0
172.291214 108.0
172.312119 228.0
172.337204 220.0
172.380051 116.0
172.453232 172.0
172.469757 156.0
172.526413 136.0
172.549515 124.0
172.616577 72.0
172.719925 68.0
172.738235 120.0
172.879517 168.0
172.900452 52.0
172.952805 92.0
172.982544 132.0
173.007767 172.0
173.032059 144.0
173.061005 14944.0
173.095703 456.0
173.133911 628.0
173.199966 232.0
173.208267 92.0
173.218628 192.0
173.345642 52.0
173.40329 168.0
173.460953 64.0
173.568451 264.0
173.599915 52.0
173.691711 164.0
173.762543 148.0
173.901611 80.0
173.93486 60.0
174.011871 256.0
174.065048 1732.0
174.088638 300.0
174.124771 116.0
174.156296 76.0
174.246506 100.0
174.319183 48.0
174.36911 120.0
174.387512 116.0
174.479507 96.0
174.511749 200.0
174.528198 108.0
174.553131 124.0
174.697784 96.0
174.745132 200.0
174.779343 120.0
174.879349 208.0
174.931992 144.0
174.976746 160.0
175.007111 196.0
175.032028 148.0
175.077164 6528.0
175.108917 248.0
175.148621 196.0
175.187424 76.0
175.279633 112.0
175.31517 164.0
175.366608 152.0
175.432495 96.0
175.511597 120.0
175.535324 152.0
175.577515 156.0
175.648727 104.0
175.708115 200.0
175.745468 268.0
175.813889 236.0
175.981247 36.0
176.078461 832.0
176.189896 132.0
176.218948 52.0
176.26915 124.0
176.335587 228.0
176.41716 196.0
176.448883 148.0
176.467392 76.0
176.488541 72.0
176.5811 136.0
176.644577 64.0
176.726044 176.0
176.750397 136.0
176.869492 192.0
177.028351 152.0
177.056046 1748.0
177.083954 100.0
177.102493 180.0
177.174866 176.0
177.356812 196.0
177.415176 136.0
177.452438 156.0
177.508621 164.0
177.550415 32.0
177.62468 176.0
177.643234 104.0
177.807739 140.0
177.866135 108.0
177.923019 160.0
177.97113 168.0
178.061829 168.0
178.102463 232.0
178.118927 160.0
178.19809 204.0
178.22731 212.0
178.397415 116.0
178.454651 248.0
178.548965 124.0
178.575562 124.0
178.676636 164.0
178.767105 148.0
178.905518 156.0
178.924149 268.0
178.993378 136.0
179.012009 112.0
179.082809 212.0
179.126541 152.0
179.187805 132.0
179.251755 128.0
179.374344 140.0
179.406342 160.0
179.494324 80.0
179.512985 140.0
179.538254 212.0
179.558319 156.0
179.649017 124.0
179.670349 132.0
179.697037 192.0
179.720932 180.0
179.745773 208.0
179.877304 124.0
180.028015 152.0
180.092392 448.0
180.1306 128.0
180.209656 48.0
180.239044 144.0
180.52774 84.0
180.551804 136.0
180.634018 168.0
180.685547 124.0
180.749756 108.0
180.795258 168.0
180.849915 180.0
180.894287 132.0
180.9505 136.0
181.00322 220.0
181.06601 332.0
181.099792 260.0
181.210297 120.0
181.274597 160.0
181.299896 64.0
181.346954 92.0
181.459549 64.0
181.483673 48.0
181.585571 120.0
181.616669 108.0
181.662628 160.0
181.700912 304.0
181.958557 148.0
182.001526 104.0
182.028366 160.0
182.071762 636.0
182.108307 172.0
182.138275 244.0
182.299683 172.0
182.463638 168.0
182.522797 168.0
182.568085 128.0
182.694702 196.0
182.762177 132.0
182.837524 164.0
182.869827 100.0
182.904816 268.0
182.969421 300.0
182.990967 136.0
183.036728 120.0
183.081863 300.0
183.118896 1552.0
183.173462 120.0
183.20755 200.0
183.297913 204.0
183.368088 136.0
183.43277 40.0
183.498001 204.0
183.594543 96.0
183.664658 136.0
183.697037 108.0
183.739029 136.0
183.807648 124.0
183.85083 96.0
183.966888 148.0
184.092361 136.0
184.119385 524.0
184.185043 152.0
184.201813 220.0
184.226135 148.0
184.263947 172.0
184.334198 132.0
184.407166 156.0
184.436905 112.0
184.509888 48.0
184.569 144.0
184.593704 164.0
184.618942 204.0
184.706177 136.0
184.780334 120.0
184.864212 148.0
185.045502 168.0
185.066711 168.0
185.097153 304.0
185.132263 676.0
185.189087 152.0
185.22348 40.0
185.265244 140.0
185.29744 128.0
185.403122 88.0
185.464264 212.0
185.506119 196.0
185.570206 144.0
185.635513 248.0
185.66066 76.0
185.747452 88.0
185.798111 172.0
185.869537 272.0
185.891251 124.0
185.96994 108.0
185.991653 112.0
186.066833 156.0
186.107605 240.0
186.139893 528.0
186.206696 136.0
186.31752 136.0
186.385452 144.0
186.477844 72.0
186.611038 172.0
186.662704 320.0
186.714371 48.0
186.779648 72.0
186.888458 132.0
186.942886 200.0
187.040665 164.0
187.076416 2488.0
187.112808 732.0
187.139999 260.0
187.324234 164.0
187.354019 60.0
187.45668 188.0
187.517517 148.0
187.536591 44.0
187.59549 164.0
187.626541 44.0
187.779984 88.0
188.080399 920.0
188.113327 152.0
188.202225 124.0
188.254105 140.0
188.554611 160.0
188.58194 240.0
188.699478 208.0
188.795135 200.0
188.869034 80.0
188.994873 96.0
189.054611 544.0
189.102631 488.0
189.175507 120.0
189.238464 136.0
189.301437 204.0
189.339783 68.0
189.380859 124.0
189.40004 112.0
189.424698 84.0
189.482224 132.0
189.501404 128.0
189.532913 176.0
189.798782 168.0
189.874191 140.0
189.893387 148.0
189.964706 128.0
190.054672 172.0
190.105774 260.0
190.189713 128.0
190.23912 120.0
190.381897 212.0
190.462341 124.0
190.483521 112.0
190.579681 312.0
190.612152 88.0
190.698944 176.0
190.763809 104.0
190.810547 240.0
190.84079 136.0
190.873779 116.0
190.912277 164.0
190.96196 128.0
191.012573 368.0
191.061539 196.0
191.086533 572.0
191.119278 48568.0
191.191818 76.0
191.234161 40.0
191.260315 160.0
191.272568 80.0
191.281754 192.0
191.325455 60.0
191.399643 36.0
191.448898 68.0
191.470932 72.0
191.511414 184.0
191.521057 148.0
191.569138 116.0
191.642273 120.0
191.700684 100.0
191.758133 284.0
191.783234 68.0
191.789444 172.0
191.839005 116.0
191.862213 44.0
191.911835 44.0
192.033173 144.0
192.071777 72.0
192.122345 5812.0
192.159363 160.0
192.220764 96.0
192.277435 52.0
192.287964 80.0
192.342194 40.0
192.380844 48.0
192.466431 184.0
192.491272 76.0
192.516129 88.0
192.632996 180.0
192.645157 56.0
192.650528 164.0
192.700806 200.0
192.741867 216.0
192.761978 240.0
192.880829 116.0
192.93335 44.0
192.952698 84.0
192.996933 64.0
193.103928 436.0
193.122131 640.0
193.256927 100.0
193.292435 24.0
193.320572 180.0
193.348251 120.0
193.400833 100.0
193.428833 104.0
193.517105 100.0
193.544785 264.0
193.603088 76.0
193.626709 68.0
193.647247 100.0
193.669403 108.0
193.694916 116.0
193.747604 176.0
193.816238 36.0
193.904907 80.0
193.961441 80.0
194.099747 280.0
194.126694 136.0
194.179382 196.0
194.232086 108.0
194.295883 140.0
194.407684 176.0
194.434616 60.0
194.556747 56.0
194.640045 172.0
194.681702 80.0
194.713394 124.0
194.759094 216.0
194.859467 180.0
195.009521 52.0
195.081055 148.0
195.116989 1508.0
195.179092 116.0
195.320938 156.0
195.471161 96.0
195.588058 168.0
195.632599 164.0
195.696625 180.0
195.71611 192.0
195.92778 68.0
196.090271 1240.0
196.126404 372.0
196.186951 148.0
196.256653 48.0
196.382141 72.0
196.457977 248.0
196.51326 144.0
196.724747 92.0
196.834244 44.0
196.886993 184.0
196.985062 204.0
197.01181 152.0
197.046509 48.0
197.097137 6292.0
197.183441 36.0
197.211823 52.0
197.265945 184.0
197.365143 52.0
197.50972 92.0
197.561615 204.0
197.622467 128.0
197.700806 172.0
197.773575 128.0
197.817627 124.0
197.913559 172.0
197.977951 136.0
198.100067 1224.0
198.150223 52.0
198.174042 188.0
198.209961 156.0
198.263702 236.0
198.319763 80.0
198.474411 96.0
198.549652 204.0
198.675873 104.0
198.729187 148.0
198.81015 140.0
198.865326 156.0
198.908783 188.0
198.928436 168.0
198.95932 76.0
199.070923 468.0
199.11113 188.0
199.198715 224.0
199.248581 108.0
199.287918 152.0
199.310394 56.0
199.341293 200.0
199.377838 84.0
199.400314 32.0
199.512756 88.0
199.578979 160.0
199.59935 152.0
199.646469 72.0
199.692719 96.0
199.712402 120.0
199.962799 208.0
200.027542 140.0
200.058334 200.0
200.081589 416.0
200.100739 196.0
200.12326 292.0
200.243134 204.0
200.322021 152.0
200.4375 248.0
200.487 216.0
200.582565 212.0
200.636017 144.0
200.681122 160.0
200.706497 164.0
200.744293 260.0
200.778275 152.0
200.816483 192.0
200.86055 128.0
200.868118 184.0
200.900192 148.0
200.909561 100.0
200.918945 148.0
200.938568 384.0
200.977509 196.0
201.006714 368.0
201.056473 68808.0
201.091537 1036.0
201.128738 2880.0
201.163239 108.0
201.193909 180.0
201.218018 92.0
201.249649 112.0
201.301895 136.0
201.332413 104.0
201.371857 176.0
201.400742 76.0
201.430161 176.0
201.45723 180.0
201.48082 92.0
201.522629 684.0
201.55864 152.0
201.584366 56.0
201.65657 88.0
201.718872 156.0
201.763046 56.0
201.807114 80.0
201.831863 72.0
201.854477 72.0
201.896591 88.0
201.90416 112.0
201.924561 212.0
201.949066 248.0
202.01413 232.0
202.059647 11216.0
202.132217 588.0
202.211029 172.0
202.249893 136.0
202.271622 64.0
202.304337 36.0
202.333908 60.0
202.365051 68.0
202.392639 172.0
202.4711 176.0
202.496658 76.0
202.525467 136.0
202.682983 48.0
202.727615 56.0
202.763672 52.0
202.885056 132.0
202.922012 124.0
202.960052 56.0
202.987595 128.0
203.071259 14156.0
203.125656 92.0
203.135773 100.0
203.175613 104.0
203.19754 120.0
203.234329 184.0
203.277756 52.0
203.304626 68.0
203.367142 160.0
203.390793 96.0
203.42012 124.0
203.443924 160.0
203.463837 156.0
203.490662 168.0
203.527542 124.0
203.564255 172.0
203.607056 136.0
203.631271 136.0
203.6483 152.0
203.672379 136.0
203.714981 100.0
203.740555 84.0
203.805435 124.0
203.837158 120.0
203.930939 48.0
203.97641 80.0
204.036789 140.0
204.074127 2400.0
204.246536 120.0
204.283524 88.0
204.389801 124.0
204.450119 152.0
204.516846 64.0
204.55101 156.0
204.592941 164.0
204.647797 68.0
204.699051 116.0
204.727524 140.0
204.774796 168.0
204.901581 136.0
204.997391 180.0
205.029495 80.0
205.071716 236.0
205.258087 148.0
205.365921 40.0
205.388748 80.0
205.502853 104.0
205.537094 80.0
205.591309 48.0
205.763992 128.0
205.825821 104.0
205.945328 148.0
205.971039 156.0
206.031021 116.0
206.073883 156.0
206.096741 64.0
206.225327 140.0
206.291077 208.0
206.331863 164.0
206.622803 156.0
206.757294 76.0
206.937622 152.0
206.971985 204.0
207.269882 264.0
207.619598 128.0
207.714249 64.0
207.777359 184.0
207.83699 240.0
207.920822 236.0
208.110291 212.0
208.150482 124.0
208.213654 128.0
208.314194 196.0
208.363022 160.0
208.580643 232.0
208.638916 84.0
208.995544 76.0
209.021439 72.0
209.058853 124.0
209.090515 104.0
209.400421 228.0
209.603104 36.0
209.871155 92.0
209.905762 96.0
209.951904 52.0
210.012466 64.0
210.041214 116.0
210.065475 148.0
210.089233 216.0
210.162476 56.0
210.214417 152.0
210.275787 176.0
210.467529 116.0
210.534851 108.0
210.624374 92.0
210.786163 96.0
210.812164 172.0
210.953796 68.0
211.043411 188.0
211.066635 120.0
211.11293 9424.0
211.156189 40.0
211.20903 60.0
211.240067 48.0
211.268997 204.0
211.428146 120.0
211.514969 72.0
211.552597 100.0
211.598923 48.0
211.633667 28.0
211.668411 40.0
211.688675 48.0
211.708954 132.0
211.752396 92.0
211.772659 32.0
211.844711 384.0
211.876938 192.0
211.897232 176.0
211.952271 52.0
212.027618 176.0
212.062393 100.0
212.118103 3000.0
212.245026 72.0
212.322937 60.0
212.445145 44.0
212.468353 104.0
212.590225 68.0
212.668579 40.0
212.697601 156.0
212.746948 152.0
212.778885 216.0
212.848572 168.0
212.868896 144.0
212.976349 68.0
213.047836 184.0
213.092255 448.0
213.127701 2236.0
213.39386 376.0
213.415161 244.0
213.490768 72.0
213.625656 224.0
213.657593 68.0
213.766159 304.0
213.9534 276.0
214.098236 1016.0
214.126862 408.0
214.237137 112.0
214.384476 76.0
214.404877 88.0
214.431107 40.0
214.524384 184.0
214.59726 72.0
214.652664 68.0
214.757645 116.0
214.790924 88.0
214.888916 128.0
214.961868 52.0
214.9823 72.0
215.071915 980.0
215.107971 11168.0
215.168213 140.0
215.204193 184.0
215.282974 92.0
215.367676 196.0
215.458023 152.0
215.557571 28.0
215.589706 40.0
215.633545 160.0
215.659851 64.0
215.712463 156.0
215.762161 220.0
215.829407 112.0
216.034134 224.0
216.075424 276.0
216.112839 1420.0
216.157959 136.0
216.22139 36.0
216.277008 80.0
216.397018 104.0
216.435089 180.0
216.485931 88.0
216.520004 100.0
216.552231 96.0
216.60202 180.0
216.628387 48.0
216.833481 100.0
216.871582 36.0
217.112823 664.0
217.16478 192.0
217.343735 92.0
217.387756 68.0
217.440567 176.0
217.513947 92.0
217.549179 192.0
217.657806 120.0
217.690109 80.0
217.76059 128.0
217.881027 44.0
217.901581 144.0
218.09639 276.0
218.412262 128.0
218.577835 168.0
218.695557 44.0
218.816254 124.0
219.031219 164.0
219.069519 328.0
219.120209 180.0
219.258087 68.0
219.439377 180.0
219.694473 172.0
219.741684 112.0
219.80954 156.0
219.865601 148.0
220.06633 52.0
220.146057 144.0
220.349869 60.0
220.526855 192.0
220.531219 108.0
220.577408 80.0
220.62767 36.0
220.696503 156.0
220.763672 76.0
220.944107 124.0
221.094162 528.0
221.168991 52.0
221.251877 92.0
221.328857 76.0
221.500626 68.0
221.604309 144.0
221.639877 144.0
221.77916 184.0
221.8918 152.0
221.915512 188.0
221.9422 128.0
222.102341 136.0
222.126083 160.0
222.161667 132.0
222.250671 160.0
222.27356 128.0
222.333771 176.0
222.600937 72.0
222.788055 124.0
222.97525 120.0
223.085968 176.0
223.35582 240.0
223.534332 160.0
223.577637 196.0
223.668243 76.0
223.745651 120.0
223.91835 208.0
224.084579 684.0
224.320602 252.0
224.386185 128.0
224.407043 68.0
224.442825 164.0
224.666519 192.0
224.702316 140.0
224.759003 148.0
224.804474 84.0
224.926132 160.0
225.00061 156.0
225.036591 56.0
225.087341 160.0
225.108246 64.0
225.320312 136.0
225.392014 68.0
225.458618 112.0
225.687927 136.0
225.771957 120.0
225.80455 76.0
225.855408 48.0
225.984039 92.0
226.091003 144.0
226.268356 140.0
226.366501 200.0
226.516922 112.0
226.690689 184.0
226.822556 176.0
226.936478 200.0
227.070969 440.0
227.110413 232.0
227.149399 92.0
227.1884 140.0
227.212402 116.0
227.458466 84.0
227.562866 180.0
227.611588 80.0
227.65062 48.0
227.686661 128.0
227.745102 148.0
227.836838 48.0
227.937347 144.0
228.002106 144.0
228.078949 304.0
228.120285 200.0
228.169617 60.0
228.257614 140.0
228.371902 188.0
228.414001 164.0
228.473389 124.0
228.543365 140.0
228.576462 88.0
228.694626 212.0
228.829742 136.0
228.883499 80.0
228.949738 148.0
229.009827 220.0
229.026184 136.0
229.038086 132.0
229.090317 292.0
229.123871 26784.0
229.209991 132.0
229.265533 136.0
229.317291 36.0
229.362503 56.0
229.386612 72.0
229.447968 160.0
229.456955 56.0
229.468674 164.0
229.516022 52.0
229.536301 136.0
229.576569 68.0
229.626968 168.0
229.694183 36.0
229.790726 56.0
229.845032 280.0
229.897736 172.0
229.929535 204.0
229.989899 200.0
230.058823 1228.0
230.126846 3960.0
230.259842 156.0
230.291824 176.0
230.312973 60.0
230.359299 212.0
230.427765 40.0
230.485168 56.0
230.518402 56.0
230.648361 68.0
230.839371 180.0
230.874207 200.0
230.935608 180.0
231.061996 800.0
231.129639 516.0
231.182968 68.0
231.259338 128.0
231.324203 84.0
231.359238 72.0
231.495483 136.0
231.559906 88.0
231.588028 200.0
231.725677 96.0
231.759018 216.0
231.783249 164.0
231.837799 116.0
231.895386 112.0
231.955994 108.0
231.987564 164.0
232.025726 124.0
232.073502 148.0
232.116684 68.0
232.19249 144.0
232.237991 56.0
232.286514 112.0
232.313828 136.0
232.344162 88.0
232.468552 64.0
232.566101 140.0
232.69194 188.0
232.908783 60.0
232.991135 176.0
233.097137 52.0
233.124481 104.0
233.659622 152.0
233.921341 152.0
234.045486 160.0
234.180161 148.0
234.265442 192.0
234.311142 152.0
234.423874 124.0
234.485535 224.0
234.545792 72.0
234.78746 164.0
234.930008 100.0
235.039841 108.0
235.114487 148.0
235.174118 208.0
235.268738 32.0
235.30307 196.0
235.736053 84.0
235.8078 176.0
236.075363 184.0
236.154877 184.0
236.255829 208.0
236.372086 44.0
236.42717 160.0
236.494507 180.0
236.659805 212.0
236.956894 168.0
236.993668 132.0
237.08252 128.0
237.263367 200.0
237.790955 116.0
238.220825 152.0
238.420547 120.0
238.506607 72.0
238.555786 168.0
238.598053 112.0
238.678757 100.0
238.721802 44.0
238.798691 176.0
238.909424 84.0
238.992493 44.0
239.038651 212.0
239.070862 128.0
239.108475 7544.0
239.198685 48.0
239.350601 164.0
239.547791 172.0
239.660645 80.0
239.703781 164.0
239.826233 120.0
240.111893 1552.0
240.160049 180.0
240.184723 144.0
240.23407 148.0
240.261841 148.0
240.292694 132.0
240.379089 52.0
240.707382 112.0
240.786575 148.0
240.888504 132.0
240.971909 116.0
241.039886 228.0
241.075912 116.0
241.115723 648.0
241.141876 72.0
241.477097 84.0
241.571655 184.0
241.686661 140.0
241.723267 56.0
241.884201 108.0
241.908966 100.0
242.091492 2124.0
242.134995 204.0
242.181442 132.0
242.203125 136.0
242.252686 128.0
242.333237 168.0
242.401413 132.0
242.499695 492.0
242.593567 308.0
242.653 164.0
242.774536 76.0
242.795105 116.0
242.829224 136.0
243.068085 72.0
243.099472 384.0
243.307083 156.0
243.369171 84.0
243.599274 220.0
243.695297 48.0
244.037186 36.0
244.111801 148.0
244.323303 244.0
244.550461 140.0
244.651047 268.0
244.743469 160.0
244.771957 132.0
244.796402 172.0
244.84935 136.0
244.890839 136.0
245.207626 176.0
245.238785 176.0
245.269958 152.0
245.420914 132.0
245.772049 200.0
245.973526 136.0
246.1716 200.0
246.465225 32.0
246.922211 168.0
247.081146 88.0
247.153107 168.0
247.234467 124.0
247.381577 156.0
247.434799 68.0
247.513062 96.0
247.788696 180.0
248.089554 152.0
248.152252 136.0
248.309036 184.0
248.469009 112.0
248.651001 132.0
248.779694 172.0
248.842484 124.0
248.895859 276.0
248.949249 124.0
248.977509 148.0
249.125137 56.0
249.191101 108.0
249.398514 148.0
249.458237 196.0
249.656311 280.0
249.716064 72.0
249.854462 144.0
249.898514 84.0
249.992905 124.0
250.046417 44.0
250.584869 116.0
250.729813 96.0
251.013535 212.0
251.101837 124.0
251.155457 184.0
251.339905 196.0
251.395233 104.0
251.565659 80.0
251.644592 100.0
251.733002 44.0
251.770889 140.0
251.88324 132.0
251.950928 184.0
252.089951 152.0
252.257462 128.0
252.52623 120.0
252.791977 112.0
252.861908 164.0
252.947052 196.0
253.010361 88.0
253.143341 116.0
253.241516 136.0
253.333221 160.0
253.429611 180.0
253.675613 176.0
253.742188 80.0
253.859512 180.0
253.920349 216.0
254.110092 108.0
254.167206 92.0
254.319534 40.0
254.595734 76.0
254.638947 112.0
254.827621 192.0
254.856216 212.0
254.913406 60.0
254.964249 92.0
255.065964 144.0
255.110458 184.0
255.164505 168.0
255.256714 180.0
255.317139 200.0
255.339401 128.0
255.387451 108.0
255.437988 76.0
255.479095 204.0
255.552521 96.0
255.59581 224.0
255.698898 68.0
255.749435 100.0
255.80394 124.0
255.859161 80.0
255.882751 144.0
255.924667 104.0
255.958786 140.0
255.999863 148.0
256.026794 208.0
256.109467 120.0
256.177582 236.0
256.218964 176.0
256.25296 80.0
256.278259 180.0
256.307953 140.0
256.340332 216.0
256.37085 52.0
256.432953 128.0
256.466461 180.0
256.501221 168.0
256.548248 128.0
256.589935 180.0
256.607666 148.0
256.641327 236.0
256.688416 116.0
256.746918 196.0
256.779083 80.0
256.824036 256.0
256.871796 184.0
256.945374 176.0
256.955597 364.0
256.970886 216.0
257.015472 380.0
257.028107 444.0
257.039276 380.0
257.119568 209200.0
257.204956 160.0
257.248535 176.0
257.331268 88.0
257.36026 84.0
257.403931 172.0
257.426422 224.0
257.473053 208.0
257.505615 100.0
257.531952 64.0
257.540924 48.0
257.559784 68.0
257.565155 52.0
257.591919 84.0
257.615204 72.0
257.64502 1672.0
257.683014 176.0
257.731598 92.0
257.752686 208.0
257.779602 180.0
257.805298 60.0
257.851288 156.0
257.87442 68.0
257.912567 144.0
257.958923 272.0
257.995056 88.0
258.017548 168.0
258.073669 236.0
258.122253 45580.0
258.19104 268.0
258.227875 208.0
258.252808 36.0
258.311401 196.0
258.359222 144.0
258.400055 96.0
258.417145 172.0
258.468597 52.0
258.52887 100.0
258.558441 160.0
258.586609 20.0
258.592987 60.0
258.643158 268.0
258.697815 128.0
258.732422 88.0
258.765808 56.0
258.778503 116.0
258.800049 188.0
258.818512 228.0
258.848877 136.0
258.934998 100.0
258.957794 168.0
258.999969 172.0
259.021942 104.0
259.080353 48.0
259.124207 3764.0
259.181366 128.0
259.205963 116.0
259.235809 84.0
259.269409 92.0
259.301453 80.0
259.3284 124.0
259.373932 52.0
259.39975 60.0
259.423004 120.0
259.454987 168.0
259.506592 56.0
259.574738 116.0
259.604187 212.0
259.656281 84.0
259.688995 120.0
259.72467 120.0
259.732208 136.0
259.746704 100.0
259.75589 60.0
259.837921 104.0
259.897064 120.0
259.948181 220.0
259.996674 156.0
260.028992 80.0
260.048737 124.0
260.072784 128.0
260.083221 64.0
260.126678 652.0
260.160126 204.0
260.199585 36.0
260.233612 68.0
260.31839 76.0
260.350494 48.0
260.374237 88.0
260.461761 132.0
260.501465 56.0
260.527161 68.0
260.565704 44.0
260.595856 104.0
260.752075 124.0
260.815002 180.0
260.871002 168.0
260.948181 56.0
260.982208 116.0
261.02533 88.0
261.133087 168.0
261.176483 64.0
261.212402 164.0
261.312317 212.0
261.404907 96.0
261.446747 76.0
261.524261 92.0
261.604462 60.0
261.65918 172.0
261.751404 108.0
261.900696 32.0
261.987671 56.0
262.045654 40.0
262.2229 80.0
262.300262 112.0
262.371155 184.0
262.606567 112.0
262.62915 108.0
263.481323 180.0
263.730164 72.0
263.817444 100.0
263.933807 76.0
264.01062 160.0
264.292847 76.0
264.940369 40.0
265.040802 44.0
265.125061 28.0
265.180145 88.0
266.273499 64.0
266.403442 56.0
266.78363 40.0
266.842163 40.0
267.484283 84.0
267.890076 84.0
268.033417 116.0
268.059479 124.0
268.382172 108.0
268.541992 64.0
268.786652 36.0
269.073883 140.0
269.322052 164.0
269.348175 116.0
269.612823 52.0
269.723938 120.0
269.795868 80.0
269.998596 48.0
270.037842 48.0
270.217743 48.0
270.499176 64.0
270.73819 80.0
271.055939 112.0
271.102325 76.0
271.373871 188.0
271.468964 52.0
271.669037 60.0
271.823242 36.0
271.931549 108.0
272.108795 44.0
272.355103 156.0
272.463501 136.0
273.459839 72.0
273.686981 68.0
273.887848 160.0
274.751526 52.0
274.847198 100.0
275.051819 124.0
276.708008 40.0
277.115387 108.0
278.130127 96.0
278.538544 56.0
279.003784 48.0
279.05365 104.0
280.041962 200.0
280.121918 92.0
280.688477 128.0
281.299011 80.0
282.020508 64.0
282.070648 64.0
282.328094 48.0
282.823242 228.0
283.05426 80.0
283.875214 196.0
283.979675 112.0
284.022797 84.0
284.059692 92.0
284.596649 208.0
284.868683 80.0
284.898895 164.0
284.935852 156.0
285.11319 16956.0
285.190582 20.0
285.271912 88.0
285.340851 32.0
285.429932 84.0
285.473663 48.0
285.497192 52.0
285.542389 88.0
285.614899 80.0
285.778381 88.0
285.860504 80.0
285.99176 60.0
286.118591 4664.0
286.160065 76.0
286.294769 180.0
286.358734 76.0
286.397858 56.0
286.459808 88.0
286.498383 132.0
286.665314 52.0
286.739441 72.0
286.847321 80.0
287.066467 144.0
287.122009 400.0
287.613007 96.0
287.663635 88.0
287.798676 88.0
287.883087 116.0
287.981018 124.0
288.124176 204.0
288.219818 64.0
288.729248 104.0
289.013794 88.0
289.215149 172.0
289.255768 104.0
289.939941 72.0
291.609711 92.0
291.76947 128.0
291.803467 108.0
293.635437 32.0
293.850342 100.0
294.307678 100.0
296.068726 68.0
297.835022 116.0
298.140808 176.0
300.430511 48.0
300.682373 48.0
301.013794 52.0
303.130768 132.0
303.792999 48.0
304.230255 32.0
304.931885 104.0
305.043121 80.0
305.498657 96.0
307.84082 84.0
308.127228 92.0
308.490662 168.0
310.840759 84.0
313.59436 196.0
316.154816 64.0
316.742554 124.0
317.082703 112.0
317.873505 60.0
318.874969 44.0
319.650208 48.0
320.312408 96.0
320.750702 64.0
321.289154 144.0
321.949493 108.0
322.721313 112.0
323.44754 88.0
324.540192 44.0
326.051605 1948.0
326.087372 32.0
326.168732 56.0
326.403717 128.0
326.484222 52.0
327.053467 288.0
327.62381 56.0
328.045563 124.0
328.121155 160.0
328.799286 76.0
328.932831 64.0
330.313141 56.0
331.435455 116.0
333.70755 96.0
335.721161 120.0
335.823273 132.0
336.033844 72.0
338.384888 52.0
338.945282 84.0
340.232635 112.0
343.168518 136.0
343.363953 116.0
344.063507 156.0
344.364105 60.0
344.530334 116.0
347.911438 52.0
348.104523 128.0
348.542816 72.0
349.126434 152.0
350.999512 108.0
352.077942 176.0
352.66452 68.0
353.128113 132.0
353.618256 68.0
356.468384 128.0
356.64502 52.0
356.723969 56.0
359.137573 60.0
360.009369 88.0
360.999451 52.0
362.904083 124.0
363.807007 48.0
364.015839 140.0
364.703461 80.0
366.202545 164.0
366.431091 40.0
367.052368 48.0
367.788666 124.0
368.330872 56.0
368.52951 172.0
368.747314 72.0
370.610931 32.0
371.247223 144.0
371.880249 60.0
372.064514 112.0
373.855652 108.0
373.917206 144.0
374.128906 116.0
374.167419 136.0
375.002014 40.0
376.021484 84.0
378.154907 128.0
378.913849 84.0
379.223846 32.0
380.205078 68.0
380.527252 32.0
380.554413 120.0
380.87674 84.0
381.230286 44.0
382.093475 52.0
382.922577 120.0
383.417358 84.0
384.583496 108.0
385.212158 44.0
387.062042 104.0
387.751495 124.0
390.704285 44.0
390.80658 96.0
392.393799 44.0
394.426819 80.0
395.81546 68.0
398.933868 52.0
399.124695 136.0
401.035553 132.0
402.158447 140.0
402.224182 56.0
403.174744 96.0
403.974396 124.0
404.326477 84.0
404.626709 80.0
404.93103 52.0
405.131287 120.0
405.231445 72.0
406.133423 132.0
406.634949 76.0
406.907898 100.0
407.65097 32.0
407.940338 36.0
408.807068 20.0
409.195496 52.0
409.276031 108.0
409.433075 144.0
410.097839 60.0
411.614685 32.0
411.909515 84.0
412.790558 56.0
414.05722 36.0
414.239471 96.0
416.876648 72.0
417.022949 88.0
417.518951 40.0
419.114258 164.0
420.113525 88.0
420.147888 252.0
420.173492 176.0
420.974701 176.0
421.040039 80.0
421.179565 168.0
422.016663 48.0
425.56485 104.0
426.554901 60.0
426.583679 64.0
426.781006 48.0
427.644897 40.0
430.869507 76.0
431.02652 72.0
431.981537 76.0
439.530457 96.0
439.584717 68.0
444.140686 140.0
446.126862 116.0
447.464661 164.0
449.863434 84.0
452.162781 144.0
453.755463 56.0
454.048035 76.0
454.302521 72.0
454.820221 68.0
454.977264 48.0
456.085968 128.0
456.349518 52.0
457.217285 168.0
457.434357 80.0
457.821808 56.0
459.189819 36.0
461.85495 100.0
462.565247 44.0
463.109039 140.0
464.201874 84.0
465.094208 60.0
465.764038 64.0
465.987427 60.0
467.118042 64.0
467.191193 116.0
468.004608 128.0
470.056305 104.0
471.645599 44.0
472.246613 88.0
472.584015 124.0
473.113251 340.0
473.363129 116.0
474.29892 132.0
474.654419 84.0
475.025879 136.0
475.10376 220.0
475.223602 4496.0
475.396179 52.0
475.76944 100.0
475.969177 48.0
476.029968 72.0
476.225372 2112.0
476.343536 40.0
476.585938 68.0
476.668518 104.0
477.103149 124.0
477.225464 544.0
477.516205 108.0
477.598846 44.0
478.225403 104.0
478.961243 44.0
479.179047 76.0
479.277985 68.0
479.85022 104.0
485.363647 108.0
486.390228 88.0
490.132751 100.0
491.579071 84.0
492.27652 56.0
492.846344 44.0
494.641846 88.0
495.733582 20.0
497.350128 60.0
498.615906 104.0
498.811493 108.0
499.186432 180.0
501.219177 116.0
501.709442 128.0
503.847076 132.0
505.045074 84.0
508.37381 92.0
510.849396 72.0
514.445435 96.0
516.171326 92.0
524.360779 104.0
526.33606 96.0
528.264709 60.0
529.321899 116.0
531.182617 148.0
531.476257 84.0
534.398438 32.0
537.586975 116.0
537.965454 60.0
542.063232 56.0
544.187561 108.0
546.827942 100.0
548.830994 72.0
563.266968 72.0
572.020325 92.0
574.33136 96.0
580.304138 60.0
581.047546 40.0
588.352966 88.0
591.103088 80.0
596.700317 64.0
601.654907 92.0
606.017395 112.0
608.92627 88.0
611.231873 88.0
614.315979 80.0
615.663452 48.0
621.896545 56.0
626.834839 152.0
629.378723 56.0
630.237793 104.0
630.962524 28.0
631.282532 56.0
632.843628 60.0
635.570251 64.0
639.172974 80.0
639.424561 48.0
646.585999 76.0
656.770264 20.0
675.666626 56.0
679.624878 44.0
681.197876 60.0
684.536865 60.0
691.788879 88.0
692.998596 96.0
705.587769 80.0
710.836609 80.0
714.609131 116.0
723.971558 108.0
724.217896 48.0
728.084778 84.0
731.692688 72.0
734.149719 44.0
741.23645 52.0
744.045959 52.0
750.945679 68.0
753.598694 112.0
754.030396 132.0
760.624817 72.0
762.591125 28.0
763.118835 108.0
763.399292 68.0
769.841187 32.0
777.308594 116.0
781.041931 68.0
791.556274 40.0
791.965088 28.0
801.205444 52.0
802.140869 80.0
805.775085 176.0
809.326965 72.0
810.153809 76.0
818.06427 60.0
825.704224 104.0
827.873169 84.0
829.047546 76.0
829.442993 36.0
830.11377 100.0
841.09082 68.0
844.349365 48.0
852.912781 116.0
854.290894 52.0
860.433228 108.0
868.057007 96.0
871.87854 156.0
897.433044 64.0
900.506226 152.0
910.892212 168.0
918.168884 164.0
920.389526 172.0
925.801453 80.0
934.274597 32.0
941.4729 44.0
952.755188 68.0
956.530884 104.0
957.220398 160.0
967.9151 72.0
968.144226 56.0
968.614929 176.0
972.403259 120.0
973.86853 164.0
980.949402 40.0
984.04364 84.0
987.799438 144.0
993.054565 160.0
999.927795 52.0
1000.821655 56.0
1001.942749 104.0
1003.493103 84.0
1008.992004 76.0
1011.610962 88.0
1025.719116 68.0
1030.805664 92.0
1039.719604 96.0
1049.722778 120.0
1055.611816 116.0
1057.649658 208.0
1066.795776 20.0
1072.680298 116.0
1074.910767 120.0
1078.587646 64.0
1085.638672 108.0
1093.647217 80.0
1095.444824 60.0
1098.615601 76.0
1100.199341 60.0
1102.550781 204.0
1102.881226 184.0
1105.553101 168.0
1107.466431 116.0
1107.612061 108.0
1108.78479 64.0
1115.900513 168.0
1117.723022 96.0
1120.286133 112.0
1124.293335 212.0
1130.461304 64.0
1141.065552 64.0
1157.528687 280.0
1164.785278 60.0
1167.055054 188.0
1167.39502 212.0
1178.362061 136.0
1184.32019 124.0
1187.445557 204.0
1195.930542 188.0
1202.091675 196.0
1205.682495 128.0
1206.401367 188.0
1210.393311 96.0
1212.422974 236.0
1213.462646 64.0
1215.002319 108.0
1216.230591 60.0
1216.292969 176.0
1219.133545 180.0
1223.02124 212.0
1227.291626 200.0
1232.638184 148.0
1241.47229 240.0
1243.233032 124.0
1256.404541 244.0
1258.062866 116.0
1259.595215 264.0
1260.11084 172.0
1261.036621 100.0
1265.30481 228.0
1268.588989 60.0
1274.735229 164.0
1278.97937 112.0
1280.518799 136.0
1281.109985 76.0
1281.793945 96.0
1281.957886 108.0
1284.424561 156.0
1285.894409 136.0
1292.146729 160.0
1293.334595 172.0
1293.549316 216.0
1294.544556 196.0
1295.977051 56.0
1298.844604 180.0
1302.304199 56.0
1303.855957 48.0
1305.818604 144.0
1306.091919 124.0
1309.597168 176.0
1309.90686 48.0
1310.375122 152.0
1313.611938 204.0
1314.275635 152.0
1314.369507 148.0
1316.477173 148.0
1322.275024 40.0
1325.40332 152.0
1325.97583 40.0
1327.171875 44.0
1330.05188 200.0
1330.443848 168.0
1332.775146 156.0
1333.414673 80.0
1334.694092 144.0
1335.217651 36.0
1335.464844 152.0
1336.476074 120.0
1336.825317 244.0
1338.521362 188.0
1339.337036 128.0
1340.422485 164.0
1340.786865 184.0
1341.056519 200.0
1343.615967 156.0
1344.798096 192.0
1344.86377 108.0
1344.936768 68.0
1348.135498 280.0
1351.484497 60.0
1352.867676 164.0
1353.504639 164.0
1354.954834 192.0
1356.954346 120.0
1360.175903 128.0
1362.422974 120.0
1363.165039 132.0
1363.664673 112.0
1364.539429 172.0
1368.921387 152.0
1369.20459 80.0
1369.337158 164.0
1369.491821 44.0
1371.916016 188.0
1372.203491 144.0
1373.25061 180.0
1377.502075 56.0
1378.558594 124.0
1379.312256 164.0
1379.393677 72.0
1380.28833 176.0
1382.759033 84.0
1386.217407 200.0
1387.262329 128.0
1387.929565 184.0
1388.334473 196.0
1388.915894 212.0
1396.51416 252.0
1397.585327 196.0
1397.964844 172.0
1398.694214 196.0
1402.947632 244.0
1403.156372 56.0
1404.282227 204.0
1411.989624 148.0
1413.62793 188.0
1420.760742 72.0
1420.858276 124.0
1421.428467 240.0
1423.492676 168.0
1424.791992 32.0
1426.084473 228.0
1426.903809 188.0
1430.296387 224.0
1431.169678 72.0
1431.373047 172.0
1435.140381 148.0
1436.422363 108.0
1436.527954 124.0
1437.041016 100.0
1438.167969 92.0
1440.030273 248.0
1440.098145 176.0
1440.218994 196.0
1440.694946 160.0
1443.324951 164.0
1444.603149 108.0
1446.00293 196.0
1446.790039 112.0
1447.759277 172.0
1449.175659 156.0
1449.653076 132.0
1453.0802 232.0
1454.112183 148.0
1454.939453 148.0
1456.684814 172.0
1457.392578 164.0
1458.046143 124.0
1458.365234 204.0
1459.809692 152.0
1461.901611 164.0
1463.248901 112.0
1463.911255 164.0
1465.74707 128.0
1466.006104 160.0
1467.927002 60.0
1468.506592 164.0
1470.223145 52.0
1476.388062 200.0
1478.262207 124.0
1479.7854 116.0
1481.86853 156.0
1487.23645 180.0
1488.887085 156.0
1491.606934 120.0
1494.48938 156.0
1495.737427 180.0
1497.292603 176.0
1497.74707 120.0
1498.2323 204.0
1498.617554 204.0
1499.103027 164.0
1499.295654 136.0
1500.706177 216.0
1501.168823 168.0
1502.017212 132.0
