>compound DOXYCYCLINE
>formula C22H24N2O8 
>ionization [M+H]+
>parentmass 445.162231
#inchi InChI=1S/C22H24N2O8/c1-7-8-5-4-6-9(25)11(8)16(26)12-10(7)17(27)14-15(24(2)3)18(28)13(21(23)31)20(30)22(14,32)19(12)29/h4-7,10,14-15,17,25-27,30,32H,1-3H3,(H2,23,31)/t7-,10+,14+,15-,17-,22-/m0/s1
#inchikey SGKRLCUYIXIAHR
#Ion_Source LC-ESI
#Instrument qTof
#Compound_Source Commercial
#PI Dorrestein
#Data_Collector Garg_Neha
#Scan -1
#Precursor_MZ 445.164
#ExactMass 444.153
#Charge 1
#CAS_Number N/A
#Pubmed_ID N/A
#Smiles N/A
#INCHI_AUX N/A
#Library_Class 1
#SpectrumID CCMSLIB00000077090
#IonMode Positive
#UpdateWorkflowName UPDATE-SINGLE-ANNOTATED-GOLD
#LibraryQualityString Gold
#TaskID 48f7f52fc6d249b5abbcc6e7b3df5969
##Scan# 1083
#SpectrumFile NCP003106_C2_D11_BB3_01_15706.mzXML
#LibraryName NIH_Clinical_Collection_2.mgf
#MQScore -1
#Organism NIHcollection2_04212014_2_mgf
#TIC_Query 0
#RT_Query -1
#MZErrorPPM -1
#SharedPeaks 0
#MassDiff 0
#LibMZ -1
#SpecMZ 445.164
#SpecCharge 0
#internalFilename spec-00000.mgf

>collision 10
45.764446 184.0
47.189137 156.0
47.763748 152.0
48.45261 152.0
49.665424 184.0
49.746815 184.0
51.160522 208.0
51.308685 268.0
51.714375 144.0
53.373463 148.0
53.826637 140.0
53.977146 208.0
54.428467 148.0
54.582756 196.0
55.643646 176.0
57.187881 168.0
57.578377 176.0
59.005245 152.0
62.064945 184.0
62.770973 144.0
64.95472 148.0
66.513504 148.0
67.474655 148.0
69.72641 176.0
71.883446 156.0
72.162148 176.0
72.800964 144.0
73.790962 200.0
74.241302 196.0
74.493614 152.0
76.473518 188.0
77.005508 164.0
79.246475 192.0
79.31382 176.0
80.370201 152.0
80.917122 140.0
82.1157 204.0
82.247414 172.0
82.909378 148.0
82.976448 240.0
83.377609 172.0
84.460625 204.0
85.210403 184.0
88.061378 212.0
89.360023 220.0
89.462097 144.0
91.101692 172.0
92.117043 188.0
92.82711 148.0
96.039566 180.0
98.060661 2084.0
98.686829 164.0
99.058823 216.0
100.077621 172.0
100.177292 152.0
101.091736 144.0
101.813431 188.0
102.308067 172.0
102.394653 172.0
104.597603 144.0
106.041687 224.0
106.084732 156.0
106.599892 184.0
107.013336 172.0
107.872551 192.0
108.045273 192.0
109.83387 152.0
110.172043 148.0
111.047005 156.0
112.040443 184.0
112.273636 168.0
113.173325 172.0
113.752098 164.0
114.057472 432.0
114.085617 180.0
117.449791 196.0
117.827568 244.0
120.22477 216.0
123.091759 144.0
123.253006 176.0
124.040092 608.0
125.022591 172.0
126.05545 2248.0
127.055634 128.0
127.693878 148.0
127.93914 200.0
128.074249 160.0
129.069611 152.0
129.612747 172.0
131.053314 284.0
131.404434 184.0
131.456909 292.0
134.013626 164.0
134.059723 200.0
135.390366 156.0
136.08252 176.0
136.434509 172.0
137.02182 340.0
137.046616 180.0
138.012924 156.0
138.051758 192.0
138.162613 164.0
139.027603 124.0
139.064774 144.0
139.562805 208.0
139.959686 160.0
140.074356 160.0
141.46199 204.0
142.011719 188.0
142.047928 260.0
142.085266 208.0
144.068039 148.0
144.647064 180.0
145.037506 180.0
145.064407 448.0
145.767105 144.0
146.06282 160.0
147.048279 148.0
147.077164 120.0
147.137589 204.0
147.282486 176.0
148.012848 140.0
148.05513 220.0
149.020889 288.0
149.058319 336.0
150.847244 140.0
151.71138 180.0
152.03656 676.0
152.066406 168.0
153.01918 144.0
153.039078 268.0
153.073074 216.0
153.254807 156.0
154.050217 6348.0
154.692169 176.0
155.053879 680.0
155.090378 152.0
155.291809 208.0
156.061325 164.0
156.472153 168.0
157.034409 204.0
157.065155 112.0
157.726944 164.0
158.06958 144.0
158.112122 188.0
158.4702 156.0
158.823669 180.0
159.045593 380.0
159.067078 192.0
160.06015 288.0
161.028534 140.0
161.059204 168.0
161.097046 160.0
161.180099 160.0
163.003067 588.0
163.035187 144.0
163.630264 188.0
164.006119 140.0
164.068512 244.0
165.020462 880.0
166.021942 328.0
166.052399 388.0
166.089218 140.0
166.288757 236.0
167.03389 188.0
167.093063 144.0
167.96637 164.0
168.063416 116.0
169.069611 204.0
169.743134 236.0
169.935074 168.0
169.981781 168.0
170.046631 204.0
170.081696 256.0
171.078659 592.0
171.784805 144.0
172.06665 180.0
173.031372 148.0
173.060745 956.0
173.098358 304.0
173.641922 200.0
174.066803 704.0
174.592621 160.0
175.003128 208.0
175.074844 1704.0
176.077911 444.0
176.909271 168.0
177.054901 140.0
177.614136 148.0
178.070175 184.0
178.74324 188.0
179.035339 176.0
179.08934 148.0
179.206543 152.0
180.062454 280.0
180.175018 256.0
180.263199 160.0
181.020233 456.0
181.071915 160.0
181.666153 160.0
182.045776 416.0
182.081375 1252.0
183.077393 440.0
185.060074 352.0
185.096146 344.0
185.292175 140.0
186.032532 160.0
186.070541 480.0
186.518768 160.0
187.03801 340.0
187.075363 1908.0
188.085052 420.0
191.001236 220.0
191.055832 132.0
191.090271 132.0
192.065048 1084.0
193.081039 200.0
194.04715 200.0
194.126923 204.0
194.870819 160.0
194.998642 168.0
195.080856 692.0
195.566025 204.0
196.057419 272.0
196.085495 340.0
197.069473 200.0
197.093277 264.0
198.073761 372.0
198.103638 160.0
199.043823 196.0
199.074539 620.0
200.040802 184.0
200.084122 144.0
200.396744 176.0
200.929611 220.0
200.986038 140.0
201.016174 264.0
201.05423 7588.0
201.088501 476.0
201.802322 264.0
202.057587 1300.0
202.414108 148.0
202.623093 196.0
202.665588 156.0
203.06665 292.0
204.033585 376.0
204.067566 240.0
205.05513 128.0
205.076233 100.0
206.017075 144.0
206.047791 348.0
207.052521 184.0
207.078918 148.0
208.063568 820.0
208.535797 144.0
208.892349 140.0
209.064087 400.0
209.097626 116.0
210.077438 1108.0
210.512131 172.0
211.077072 1732.0
212.042511 152.0
212.088913 320.0
212.622543 140.0
213.054764 556.0
213.089676 840.0
213.395233 152.0
214.012054 144.0
214.041168 192.0
214.096146 204.0
215.070816 376.0
216.072601 156.0
217.04425 140.0
217.587799 144.0
219.030319 120.0
219.068848 236.0
219.47081 220.0
219.694946 152.0
220.057083 136.0
220.604507 148.0
221.06871 148.0
221.088379 116.0
222.069138 328.0
223.075272 1188.0
223.255219 164.0
224.049194 160.0
224.075073 440.0
224.55072 140.0
225.052246 188.0
225.090561 980.0
225.335785 152.0
225.562912 248.0
226.062134 740.0
226.892059 204.0
227.071671 1224.0
228.074875 304.0
228.164978 164.0
228.947311 160.0
229.048798 708.0
229.08194 144.0
229.112976 148.0
229.146103 148.0
229.471619 160.0
229.755112 148.0
230.087082 148.0
230.624771 156.0
230.694305 180.0
231.065002 592.0
231.175201 156.0
232.060867 156.0
233.082565 264.0
234.512894 180.0
235.075928 636.0
236.07045 356.0
237.057953 120.0
237.089264 532.0
237.119965 160.0
237.423477 156.0
238.067734 372.0
238.193481 224.0
238.660995 212.0
239.033188 196.0
239.07045 2000.0
239.448914 100.0
240.04039 164.0
240.075806 820.0
240.857376 132.0
241.050354 128.0
241.086807 4508.0
241.408447 180.0
241.6064 164.0
242.054352 856.0
242.088745 688.0
242.96022 176.0
243.062042 284.0
243.099884 640.0
243.217789 144.0
244.057617 284.0
245.004013 240.0
246.262924 180.0
247.078232 372.0
248.052719 180.0
249.08873 340.0
250.067963 520.0
250.141022 220.0
251.070923 1396.0
251.667511 212.0
252.040771 1844.0
252.074982 384.0
252.116074 172.0
252.981476 144.0
253.042984 268.0
253.086029 1788.0
253.724014 208.0
254.052307 284.0
254.090134 348.0
255.066971 1344.0
256.069336 432.0
256.505615 168.0
256.760162 180.0
256.968018 140.0
257.081848 1184.0
258.081787 168.0
258.148041 148.0
259.094452 152.0
260.052368 132.0
261.054352 324.0
261.106323 184.0
262.066803 168.0
263.070007 660.0
264.038269 180.0
264.079254 472.0
264.110443 152.0
264.122009 216.0
265.085693 1464.0
266.095123 408.0
267.065796 12988.0
267.392059 156.0
267.776031 160.0
267.979767 128.0
268.040863 412.0
268.07016 2348.0
268.134491 412.0
268.212708 208.0
269.048553 324.0
269.080719 5816.0
269.728241 156.0
270.086487 1220.0
270.154938 108.0
271.067017 196.0
273.058472 176.0
273.250305 184.0
274.060272 156.0
275.074554 412.0
276.037354 120.0
276.073425 152.0
276.097107 140.0
276.35498 144.0
276.752563 172.0
276.774933 160.0
277.053558 232.0
277.087006 424.0
277.200073 152.0
278.05542 2304.0
278.122406 148.0
279.063293 1480.0
279.241028 148.0
280.071289 268.0
280.115479 128.0
280.959808 144.0
281.083008 1248.0
281.640808 188.0
282.05014 168.0
282.085419 388.0
282.143127 260.0
283.06015 768.0
283.089569 484.0
284.06778 172.0
284.102417 236.0
284.260071 152.0
285.076447 3140.0
285.258789 204.0
285.929047 200.0
286.08551 248.0
286.133392 164.0
286.983429 144.0
287.092682 612.0
287.152008 192.0
288.046143 160.0
288.18161 148.0
288.323547 184.0
288.818359 136.0
290.061829 180.0
290.114471 160.0
291.065948 1368.0
292.073639 300.0
292.138733 184.0
292.849457 152.0
293.079651 4380.0
293.955872 164.0
294.083771 636.0
294.149628 144.0
295.058716 424.0
295.093048 1132.0
296.029022 156.0
296.063171 136.0
296.128632 1560.0
296.782867 152.0
297.076385 1740.0
297.13382 276.0
298.079559 228.0
299.087646 148.0
301.05072 196.0
302.114319 232.0
303.065826 1172.0
303.501923 124.0
304.028595 140.0
304.06546 224.0
304.422699 144.0
304.898621 224.0
305.030426 100.0
305.091248 496.0
305.667145 176.0
306.054016 1764.0
306.115845 196.0
307.058472 420.0
307.091522 252.0
307.877258 176.0
308.063812 108.0
308.126648 488.0
309.072784 952.0
310.080963 284.0
310.142456 300.0
311.090851 856.0
312.054108 144.0
312.111603 136.0
313.119476 264.0
314.138519 984.0
315.132843 312.0
317.190674 240.0
318.064728 164.0
318.112671 484.0
318.201721 140.0
319.061401 1588.0
319.120758 184.0
319.815613 172.0
320.063599 480.0
320.131134 364.0
320.930664 188.0
321.076447 11652.0
321.158875 152.0
321.763031 120.0
322.080231 3124.0
322.147644 160.0
323.03418 140.0
323.083099 480.0
324.023926 128.0
324.084412 148.0
324.119171 520.0
324.187073 168.0
324.269501 100.0
324.850372 208.0
325.072083 116.0
325.14325 144.0
325.280975 160.0
326.013672 180.0
326.108917 172.0
327.087219 164.0
329.039703 116.0
331.056427 212.0
332.039459 176.0
332.096222 128.0
332.147339 228.0
333.075287 116.0
333.153381 192.0
334.048157 1916.0
334.103973 152.0
334.142242 156.0
335.053253 208.0
336.124481 684.0
337.071472 2592.0
337.125763 232.0
338.078949 388.0
338.137238 388.0
338.405151 152.0
339.087952 7352.0
339.14212 256.0
339.202881 148.0
339.564026 128.0
339.944641 152.0
339.978271 120.0
340.088287 1376.0
341.090149 452.0
342.133057 248.0
342.280762 132.0
342.393005 160.0
346.105133 100.0
347.053375 680.0
347.121216 120.0
348.059235 412.0
348.12793 124.0
348.600677 216.0
348.972382 144.0
348.998413 204.0
349.072021 2848.0
349.462006 104.0
350.073486 696.0
350.136597 124.0
350.695953 160.0
351.07251 176.0
351.118164 196.0
352.056366 100.0
352.107758 168.0
352.98819 144.0
353.071777 352.0
353.107849 208.0
354.136292 392.0
355.084564 348.0
356.087402 160.0
356.139038 128.0
357.075867 156.0
357.6026 240.0
358.090332 184.0
360.072083 152.0
360.14798 132.0
360.907227 260.0
361.319489 176.0
362.073822 168.0
363.619537 144.0
364.119415 1528.0
364.835052 204.0
365.068604 1084.0
365.124268 256.0
365.394104 208.0
366.06012 244.0
366.132751 524.0
367.080902 2236.0
367.207275 192.0
368.0849 836.0
368.382935 156.0
368.417297 164.0
368.97525 152.0
369.087494 240.0
369.858917 220.0
370.824127 200.0
371.054138 168.0
371.955627 140.0
373.097137 128.0
373.303101 236.0
374.106354 212.0
375.125305 208.0
377.086792 444.0
378.089966 192.0
378.188416 168.0
378.893188 208.0
379.121796 140.0
380.10675 280.0
380.374542 160.0
381.139648 144.0
382.124634 1488.0
382.195374 344.0
382.512482 164.0
382.994263 140.0
383.077026 292.0
383.127136 252.0
384.075012 280.0
384.143127 404.0
384.796967 168.0
385.0625 140.0
390.133759 196.0
392.114075 2796.0
392.160065 396.0
393.1138 584.0
393.299042 220.0
394.118683 216.0
395.119415 112.0
395.951508 112.0
397.764923 168.0
400.002869 180.0
400.098389 184.0
400.14389 612.0
400.588226 188.0
401.081329 96.0
401.397278 152.0
404.661713 180.0
405.194397 140.0
405.498932 144.0
408.124298 172.0
409.105988 140.0
409.464325 148.0
409.561005 160.0
410.123505 7124.0
411.12677 2284.0
411.206024 140.0
411.584656 232.0
411.654144 172.0
412.129456 440.0
413.124237 148.0
413.662781 104.0
418.508881 100.0
418.775696 188.0
421.999512 148.0
423.6073 148.0
423.662811 112.0
424.566956 144.0
424.747589 100.0
425.188934 112.0
425.554169 164.0
425.683441 120.0
425.86676 96.0
425.950958 96.0
425.997406 96.0
426.093384 184.0
426.176849 104.0
426.282898 220.0
426.538727 132.0
426.589844 176.0
426.765533 124.0
426.83374 156.0
426.872711 124.0
427.029266 204.0
427.150574 232.0
427.198425 108.0
427.308014 128.0
427.364044 160.0
427.46463 160.0
427.545654 120.0
427.593048 104.0
427.642548 100.0
427.736877 160.0
427.889893 232.0
427.991547 212.0
428.029907 264.0
428.136047 170004.0
428.251617 196.0
428.416992 312.0
428.455261 304.0
428.555511 148.0
428.583099 208.0
428.65918 232.0
428.757843 168.0
428.813629 696.0
428.924683 112.0
429.00061 104.0
429.059967 164.0
429.138916 44220.0
429.354095 124.0
429.476196 152.0
429.49942 108.0
429.575958 224.0
429.649292 168.0
429.697052 136.0
429.770294 180.0
429.862427 228.0
429.907776 176.0
429.975922 116.0
430.04538 104.0
430.140289 6488.0
430.225983 108.0
430.49411 156.0
430.572784 156.0
430.747833 160.0
430.994202 104.0
431.144623 1464.0
431.26123 144.0
431.373779 132.0
431.446442 132.0
431.486237 112.0
431.535522 208.0
431.613525 152.0
431.682648 136.0
431.755463 228.0
431.812073 248.0
431.900024 292.0
431.943848 156.0
432.037476 288.0
432.132629 108.0
432.344971 224.0
432.393188 104.0
432.839508 96.0
432.917053 112.0
433.739319 168.0
434.235413 184.0
440.465057 252.0
442.284821 324.0
442.55188 168.0
442.983246 156.0
443.110565 132.0
443.260254 100.0
443.568207 108.0
443.817261 200.0
444.167358 1224.0
444.351044 104.0
444.482605 288.0
444.887085 188.0
445.036133 160.0
445.083527 348.0
445.162231 72724.0
445.294312 200.0
445.327576 200.0
445.549866 108.0
445.703033 220.0
445.767273 132.0
445.850433 140.0
445.916016 96.0
446.073853 180.0
446.1651 16700.0
446.332214 108.0
446.595154 132.0
446.959137 140.0
447.018036 208.0
447.093109 152.0
447.167145 2808.0
447.746307 156.0
448.025757 112.0
448.176941 388.0
448.364227 96.0
448.405975 188.0
448.940491 128.0
448.979584 164.0
449.11264 112.0
449.152008 164.0
449.27002 160.0
449.739868 96.0
481.713654 180.0
547.289795 168.0
570.033813 144.0
672.031555 112.0
700.699524 172.0
727.03949 124.0
921.939453 208.0
1221.704468 232.0
1279.379517 152.0
1293.521118 216.0
1344.289062 220.0
1368.249878 144.0
1456.828247 144.0
1557.517822 140.0
1595.711426 292.0
1618.931274 140.0
1655.759766 148.0
1671.256348 192.0
1678.06543 152.0
1721.340454 188.0
1724.17395 176.0
1733.492188 144.0
1745.520386 140.0
1747.009155 228.0
1847.774536 140.0
1878.762939 148.0
1895.805054 144.0
1902.700684 196.0
1926.239746 184.0
1960.554688 156.0
