>compound MLS002153144-01!S-(4-Nitrobenzyl)-6-thioinosine38048-32-7
>formula C17H17N5O6S
>ionization [M+H]+
>parentmass 420.098
#inchi InChI=1S/C17H17N5O6S/c23-5-11-13(24)14(25)17(28-11)21-8-20-12-15(21)18-7-19-16(12)29-6-9-1-3-10(4-2-9)22(26)27/h1-4,7-8,11,13-14,17,23-25H,5-6H2/t11-,13-,14-,17-/m1/s1
#inchikey DYCJFJRCWPVDHY
#Ion_Source LC-ESI
#Instrument qTof
#Compound_Source NIH Pharmacologically Active Library
#PI Dorrestein
#Data_Collector VP/LMS
#Scan -1
#Precursor_MZ 420.098
#ExactMass 419.09
#Charge 1
#CAS_Number N/A
#Pubmed_ID N/A
#Smiles OC[C@H]1O[C@H]([C@H](O)[C@@H]1O)n2cnc3c(SCc4ccc(cc4)[N+](=O)[O-])ncnc23
#INCHI_AUX N/A
#Library_Class 1
#SpectrumID CCMSLIB00000084777
#IonMode Positive
#UpdateWorkflowName UPDATE-SINGLE-ANNOTATED-GOLD
#LibraryQualityString Gold
#TaskID d252d724072548979f1f6f1ced849daf
##Scan# 1729
#SpectrumFile p3-A07-2_GA7_01_18221.mzXML
#LibraryName Pharm_Active_Library.mgf
#MQScore -1
#Organism Pharm_Active_Library
#TIC_Query 0
#RT_Query -1
#MZErrorPPM -1
#SharedPeaks 0
#MassDiff 0
#LibMZ -1
#SpecMZ 420.098
#SpecCharge 0
#internalFilename spec-00000.mgf

>collision 10
95.128479 188.0
95.6436 136.0
98.407814 212.0
98.484833 132.0
99.800713 168.0
100.045425 116.0
101.103317 164.0
101.169365 140.0
101.287514 144.0
103.033646 164.0
103.231728 112.0
103.541359 108.0
105.946983 164.0
106.04248 2564.0
106.568626 152.0
107.046532 368.0
107.112144 184.0
107.146759 124.0
107.280716 152.0
107.524109 136.0
108.013794 144.0
108.477638 196.0
111.071716 124.0
111.203903 144.0
111.550484 164.0
111.78759 180.0
112.032387 152.0
113.06279 108.0
113.23851 156.0
116.454483 144.0
118.712357 112.0
119.037865 152.0
119.161781 160.0
119.540009 120.0
120.043587 632.0
120.337784 52.0
120.363983 68.0
121.044922 188.0
122.020424 168.0
123.027267 172.0
123.113335 204.0
123.301117 148.0
124.086937 72.0
124.117981 168.0
125.002953 796.0
125.282593 56.0
125.31601 204.0
125.480942 84.0
126.009636 352.0
126.141739 68.0
126.542191 124.0
126.629517 116.0
127.003822 168.0
127.228218 156.0
129.847977 148.0
130.547455 44.0
131.280731 184.0
131.961182 144.0
133.051773 168.0
133.79985 248.0
133.867966 196.0
134.05455 172.0
135.095856 136.0
135.225433 192.0
136.039658 3076.0
136.296829 140.0
137.043945 364.0
137.248825 96.0
137.610489 36.0
137.802002 108.0
137.991318 96.0
138.014694 112.0
138.042755 300.0
138.960938 172.0
139.155746 80.0
139.508148 104.0
139.538712 136.0
139.651581 108.0
140.226059 232.0
141.011993 120.0
141.063995 144.0
143.29718 176.0
144.304367 88.0
144.330658 132.0
146.093475 124.0
146.218582 144.0
146.820877 128.0
146.992157 76.0
147.584854 212.0
147.654068 76.0
148.285965 136.0
149.707184 144.0
150.153168 52.0
150.609573 44.0
150.834366 104.0
151.093582 172.0
151.49263 116.0
151.512222 124.0
151.602875 172.0
152.015793 5492.0
152.153229 64.0
152.255432 64.0
152.695358 64.0
153.016159 708.0
153.182709 100.0
153.325607 48.0
154.01297 288.0
154.169617 100.0
155.065506 108.0
157.766251 164.0
158.654968 112.0
158.687561 236.0
159.126633 84.0
159.350159 188.0
159.913437 136.0
160.0242 124.0
160.636597 176.0
164.012039 200.0
164.851303 148.0
165.023453 184.0
167.403763 64.0
168.012405 344.0
168.233978 60.0
169.213791 132.0
170.071838 156.0
170.191269 72.0
170.679749 32.0
172.685165 128.0
174.770706 128.0
176.474579 128.0
176.96405 208.0
177.639847 172.0
179.011276 156.0
180.233307 152.0
182.87178 44.0
183.0737 148.0
184.079544 136.0
186.528748 228.0
187.702164 148.0
188.034973 160.0
188.321655 180.0
189.297974 216.0
191.842194 108.0
192.714294 88.0
193.198105 140.0
195.131119 212.0
195.723755 136.0
196.069183 140.0
197.081268 208.0
197.409164 168.0
197.778473 204.0
198.093658 180.0
199.079346 148.0
200.333771 36.0
201.631714 108.0
203.041595 168.0
205.0858 172.0
206.430481 108.0
207.065796 112.0
207.839783 204.0
208.072784 1012.0
208.109589 124.0
208.353714 76.0
209.082199 2204.0
209.17041 36.0
209.677338 104.0
209.807037 212.0
209.907959 136.0
210.01178 68.0
210.087845 768.0
210.207947 56.0
210.378235 100.0
210.416626 68.0
210.750809 48.0
210.77681 56.0
211.016708 116.0
211.083206 212.0
211.117905 140.0
211.453506 36.0
211.786453 40.0
213.039566 160.0
213.376678 136.0
214.037155 184.0
215.05423 172.0
216.068558 216.0
216.487122 208.0
217.751099 76.0
219.991852 188.0
221.23938 100.0
224.092331 180.0
225.080719 184.0
225.101608 96.0
226.001328 176.0
226.076141 144.0
226.540222 156.0
226.836884 80.0
227.043762 192.0
227.8452 44.0
228.834671 160.0
228.964142 160.0
229.069809 176.0
229.114746 160.0
229.55481 160.0
230.309296 28.0
233.862869 124.0
235.429932 84.0
238.072769 188.0
238.601257 120.0
238.936478 208.0
240.02681 172.0
240.059799 268.0
240.603775 64.0
240.770508 52.0
241.05484 1584.0
241.088669 288.0
241.218521 36.0
241.24324 68.0
241.357635 76.0
241.441132 196.0
241.648376 208.0
241.755539 152.0
241.967163 172.0
242.062836 6308.0
242.177734 32.0
242.273758 96.0
242.345016 56.0
242.571243 52.0
242.732468 28.0
242.899933 116.0
243.011612 92.0
243.06459 1700.0
243.219543 92.0
243.666718 104.0
244.002365 56.0
244.054489 360.0
244.05925 196.0
244.733505 152.0
244.767761 124.0
245.0569 164.0
246.786545 92.0
249.331894 180.0
249.372757 200.0
253.469009 88.0
254.066422 488.0
254.166611 104.0
255.057861 188.0
255.1194 180.0
256.035767 56.0
256.089905 128.0
256.481812 100.0
257.045715 308.0
258.92923 32.0
260.048157 164.0
270.73764 188.0
271.053162 452.0
272.062653 192.0
272.091827 196.0
273.046387 80.0
273.989441 220.0
274.050751 980.0
275.056396 204.0
277.393219 52.0
280.084747 116.0
280.667969 192.0
284.428284 76.0
285.194122 52.0
286.065308 28.0
286.314453 128.0
286.357391 176.0
286.422241 64.0
287.248077 180.0
287.531494 160.0
287.568634 196.0
287.811676 204.0
287.852203 160.0
287.879211 176.0
287.923126 192.0
287.96167 288.0
287.997437 180.0
288.056061 9708.0
288.17984 56.0
288.402893 56.0
288.454834 108.0
288.588806 48.0
288.62262 92.0
288.649689 48.0
288.73761 108.0
288.768036 48.0
288.8526 92.0
288.876282 84.0
289.056702 1948.0
289.226074 88.0
289.326355 120.0
289.512573 48.0
289.668396 72.0
290.000458 76.0
290.050568 812.0
290.161133 64.0
290.644775 56.0
290.76355 100.0
290.793335 112.0
291.03891 152.0
291.069061 220.0
291.524261 84.0
291.605804 120.0
292.010406 128.0
293.952209 68.0
295.189606 200.0
295.65744 108.0
296.201843 104.0
300.198944 52.0
301.936005 36.0
307.072632 48.0
307.208649 120.0
312.224426 184.0
313.20639 144.0
321.154755 180.0
323.740753 80.0
331.225006 168.0
353.023193 100.0
358.153625 92.0
389.092987 108.0
413.539124 96.0
417.604553 56.0
424.002197 32.0
455.572266 92.0
457.000763 88.0
457.971344 104.0
500.15567 116.0
564.322388 76.0
618.434265 76.0
816.482422 136.0
825.94458 68.0
905.495667 80.0
984.25293 128.0
984.777466 120.0
1036.158936 240.0
1043.706787 172.0
1081.045654 196.0
1107.439453 184.0
1113.84021 184.0
1170.158569 216.0
1186.630981 168.0
1212.667725 164.0
1231.85144 196.0
1241.587402 72.0
1251.199829 164.0
1255.674194 148.0
1256.96521 148.0
1272.288574 192.0
1284.742554 128.0
1285.805786 176.0
1291.349854 160.0
1316.771118 120.0
1353.335083 132.0
1359.888672 208.0
1372.556763 196.0
1375.050171 160.0
1383.824707 188.0
1395.220337 160.0
1405.670166 124.0
1415.35022 200.0
1422.922852 176.0
1424.312134 68.0
1428.619507 196.0
1452.899902 176.0
1470.454468 156.0
1470.935303 180.0
1480.821777 244.0
