>compound SECOISOLARICIRESINOL
>formula C20H26O6
>ionization [M+H]+
>parentmass 363.18
#inchi InChI=1S/C20H26O6/c1-25-19-9-13(3-5-17(19)23)7-15(11-21)16(12-22)8-14-4-6-18(24)20(10-14)26-2/h3-6,9-10,15-16,21-24H,7-8,11-12H2,1-2H3/t15-,16-/m0/s1
#inchikey PUETUDUXMCLALY
#Ion_Source LC-ESI
#Instrument qTof
#Compound_Source Commercial
#PI Dorrestein
#Data_Collector Garg_Neha
#Scan -1
#Precursor_MZ 363.18
#ExactMass 362.173
#Charge 1
#CAS_Number N/A
#Pubmed_ID N/A
#Smiles COc1cc(C[C@@H](CO)[C@H](CO)Cc2ccc(O)c(OC)c2)ccc1O
#INCHI_AUX N/A
#Library_Class 1
#SpectrumID CCMSLIB00000079066
#IonMode Positive
#UpdateWorkflowName UPDATE-SINGLE-ANNOTATED-GOLD
#LibraryQualityString Gold
#TaskID 278b19f5865741e282cec7349aa7e7a1
##Scan# 1098
#SpectrumFile NCP003432_C2_D11_BD1_01_15723.mzXML
#LibraryName NIHcollectionI_05062014.mgf
#MQScore -1
#Organism NIHcollectionI_05062014
#TIC_Query 0
#RT_Query -1
#MZErrorPPM -1
#SharedPeaks 0
#MassDiff 0
#LibMZ -1
#SpecMZ 363.18
#SpecCharge 0
#internalFilename spec-00000.mgf

>collision 10
46.499031 164.0
89.897797 204.0
91.962669 188.0
92.771797 180.0
94.302078 180.0
109.331909 228.0
117.071678 140.0
121.067924 252.0
122.038361 276.0
123.045441 156.0
125.686676 172.0
129.071762 160.0
131.045441 404.0
133.065277 372.0
133.093552 140.0
134.066589 196.0
135.078812 356.0
136.685638 152.0
137.060226 4988.0
137.132767 156.0
138.063034 356.0
145.066299 144.0
146.101151 160.0
151.074814 800.0
155.060989 156.0
157.062485 148.0
163.077087 912.0
164.087051 256.0
171.084045 144.0
173.060135 136.0
174.093323 192.0
175.079391 184.0
176.070648 160.0
176.089127 176.0
177.09227 228.0
188.078979 156.0
189.089493 272.0
190.096008 168.0
191.098984 160.0
194.088867 156.0
201.075638 188.0
203.109421 152.0
204.089706 160.0
204.120728 132.0
205.11438 180.0
206.096313 160.0
207.11824 184.0
215.68866 176.0
217.104172 152.0
219.083817 152.0
220.122009 156.0
221.118256 344.0
226.966034 192.0
237.115799 176.0
245.098114 232.0
247.075134 184.0
253.089081 156.0
263.12738 112.0
273.117218 144.0
295.135742 1408.0
296.133759 356.0
305.968079 160.0
322.09198 192.0
325.142578 120.0
327.160553 944.0
328.162872 268.0
345.165741 172.0
361.199646 148.0
361.232239 156.0
362.077728 164.0
362.112091 252.0
1674.010864 172.0
1686.174316 208.0
1784.058594 200.0
1934.049194 208.0
1942.794434 172.0
1994.844238 196.0
