>compound MLS001148133-01!PROCHLORPERAZINE
>formula C20H24ClN3S
>ionization [M+H]+
>parentmass 374.144012
#inchi InChI=1S/C20H24ClN3S/c1-22-11-13-23(14-12-22)9-4-10-24-17-5-2-3-6-19(17)25-20-8-7-16(21)15-18(20)24/h2-3,5-8,15H,4,9-14H2,1H3
#inchikey WIKYUJGCLQQFNW
#origInchi InChI=1S/C20H24ClN3S.C2H6O6S2/c1-22-11-13-23(14-12-22)9-4-10-24-17-5-2-3-6-19(17)25-20-8-7-16(21)15-18(20)24;3-9(4,5)1-2-10(6,7)8/h2-3,5-8,15H,4,9-14H2,1H3;1-2H2,(H,3,4,5)(H,6,7,8)
#Ion_Source LC-ESI
#Instrument qTof
#Compound_Source NIH Pharmacologically Active Library
#PI Dorrestein
#Data_Collector VP/LMS
#Scan -1
#Precursor_MZ 374.152
#ExactMass 373.138
#Charge 1
#CAS_Number N/A
#Pubmed_ID N/A
#Smiles CN1CCN(CCCN2c3ccccc3Sc4ccc(Cl)cc24)CC1.O=S(CCS(=O)(O)=O)(O)=O
#INCHI_AUX N/A
#Library_Class 1
#SpectrumID CCMSLIB00000085636
#IonMode Positive
#UpdateWorkflowName UPDATE-SINGLE-ANNOTATED-GOLD
#LibraryQualityString Gold
#TaskID d252d724072548979f1f6f1ced849daf
##Scan# 1761
#SpectrumFile p4-D08_GD8_01_18368.mzXML
#LibraryName Pharm_Active_Library.mgf
#MQScore -1
#Organism Pharm_Active_Library
#TIC_Query 0
#RT_Query -1
#MZErrorPPM -1
#SharedPeaks 0
#MassDiff 0
#LibMZ -1
#SpecMZ 374.152
#SpecCharge 0
#internalFilename spec-00000.mgf

>collision 10
44.916367 424.0
44.928371 176.0
44.94038 188.0
45.095287 164.0
45.148766 128.0
45.172844 196.0
45.249126 180.0
45.258495 256.0
45.286621 176.0
45.322792 144.0
45.393837 188.0
45.41127 172.0
45.42334 176.0
45.46624 148.0
45.483727 200.0
45.542805 152.0
45.561962 184.0
45.599236 80.0
45.631821 200.0
45.67857 76.0
45.724316 180.0
45.766048 152.0
45.836056 164.0
45.854958 220.0
45.89959 224.0
45.91428 176.0
45.946651 128.0
45.962841 172.0
46.016834 176.0
46.062748 124.0
46.091122 176.0
46.220932 172.0
46.247997 156.0
46.258827 172.0
46.276428 128.0
46.296738 128.0
46.327892 144.0
46.348213 160.0
46.365833 108.0
46.406048 84.0
46.418045 240.0
46.462105 228.0
46.501457 160.0
46.520458 72.0
46.531322 172.0
46.551689 88.0
46.562553 184.0
46.650875 168.0
46.668549 112.0
46.739445 164.0
46.863186 140.0
46.950424 244.0
47.006355 52.0
47.052765 180.0
47.065052 112.0
47.126518 152.0
47.186657 172.0
47.197594 200.0
47.244095 140.0
47.259144 128.0
47.329655 160.0
47.437107 140.0
47.456379 164.0
47.486549 332.0
47.51947 196.0
47.534565 144.0
47.563385 240.0
47.577114 72.0
47.590843 212.0
47.605949 44.0
47.702126 172.0
47.71241 208.0
47.725498 112.0
47.801151 208.0
47.839691 84.0
47.851868 152.0
47.863094 136.0
47.875488 180.0
47.90028 164.0
48.163746 164.0
48.249424 140.0
48.308891 164.0
48.321342 180.0
48.404388 96.0
48.439014 192.0
48.555443 164.0
48.56752 164.0
48.69701 172.0
48.749802 160.0
48.863823 72.0
48.891651 140.0
48.982151 160.0
49.032314 112.0
49.106205 112.0
49.279305 336.0
49.307255 36.0
49.342201 112.0
49.39814 180.0
49.438713 128.0
49.449909 160.0
49.545132 196.0
49.567547 124.0
49.58857 80.0
49.674103 80.0
49.716194 200.0
49.74567 52.0
49.762516 160.0
49.807457 108.0
49.829231 160.0
49.858036 204.0
49.91708 180.0
49.966309 152.0
49.991634 132.0
50.032455 112.0
50.097237 48.0
50.122597 180.0
50.160648 164.0
50.173336 132.0
50.212818 124.0
50.332771 68.0
50.36808 152.0
50.411877 284.0
50.433075 168.0
50.45266 352.0
50.476757 192.0
50.517918 176.0
50.537727 160.0
50.564804 208.0
50.626907 136.0
50.682617 180.0
50.706242 192.0
50.72892 184.0
50.756905 152.0
50.804245 140.0
50.835297 80.0
50.857059 180.0
50.906277 136.0
50.939014 156.0
50.961674 48.0
50.974461 152.0
50.994358 196.0
51.012836 188.0
51.053978 184.0
51.068291 132.0
51.07967 192.0
51.12093 176.0
51.18214 316.0
51.263336 164.0
51.314651 140.0
51.341743 144.0
51.37027 76.0
51.591621 144.0
51.607346 216.0
51.630714 188.0
51.716068 136.0
51.752403 200.0
51.775181 140.0
51.819176 104.0
51.973499 152.0
52.002731 144.0
52.017082 188.0
52.028568 176.0
52.06303 84.0
52.096066 164.0
52.213928 184.0
52.29594 84.0
52.329048 72.0
52.366489 148.0
52.383774 160.0
52.42556 108.0
52.487545 152.0
52.554367 184.0
52.608738 180.0
52.620289 116.0
52.662167 144.0
52.675167 176.0
52.879478 332.0
52.90736 212.0
52.96447 192.0
53.00938 136.0
53.044167 156.0
53.122471 164.0
53.132626 128.0
53.164547 84.0
53.206642 172.0
53.23423 88.0
53.276352 192.0
53.334476 52.0
53.495941 196.0
53.543995 148.0
53.557102 244.0
53.596436 128.0
53.612465 72.0
53.688274 100.0
53.707233 132.0
53.726196 152.0
53.771431 144.0
53.86488 84.0
53.886791 156.0
53.986191 224.0
53.999352 164.0
54.012516 232.0
54.057873 100.0
54.126671 212.0
54.139851 140.0
54.163284 148.0
54.185261 220.0
54.198444 196.0
54.243877 144.0
54.254139 68.0
54.277599 132.0
54.306931 60.0
54.367081 152.0
54.390564 232.0
54.400841 148.0
54.418457 144.0
54.468391 216.0
54.527164 148.0
54.54829 220.0
54.603615 128.0
54.663933 188.0
54.700794 184.0
54.752258 56.0
54.780247 156.0
54.794975 144.0
54.806763 144.0
54.863865 104.0
54.932079 180.0
54.943882 184.0
54.992302 172.0
55.026531 300.0
55.038342 56.0
55.056557 288.0
55.07674 272.0
55.129459 176.0
55.18462 148.0
55.256832 180.0
55.270409 212.0
55.319252 132.0
55.329613 56.0
55.384403 284.0
55.433296 76.0
55.46442 116.0
55.474796 108.0
55.514828 204.0
55.541523 96.0
55.584549 144.0
55.654633 148.0
55.691441 140.0
55.837097 208.0
55.89809 96.0
56.008259 160.0
56.108589 124.0
56.120029 152.0
56.234898 156.0
56.511356 176.0
56.685051 156.0
56.727016 164.0
56.736832 184.0
56.827499 200.0
56.872005 164.0
56.887527 176.0
56.902542 192.0
56.962612 164.0
56.973129 152.0
57.033237 212.0
57.05278 200.0
57.06797 192.0
57.081013 200.0
57.114006 212.0
57.177624 116.0
57.246876 156.0
57.258923 160.0
57.27248 160.0
57.331238 180.0
57.411137 176.0
57.422096 196.0
57.45834 184.0
57.509205 136.0
57.531849 112.0
57.602821 120.0
57.623974 200.0
57.639084 192.0
57.654194 72.0
57.695007 188.0
57.725185 196.0
57.767593 172.0
57.865963 172.0
57.946236 144.0
57.967449 148.0
58.002308 120.0
58.014435 160.0
58.027214 168.0
58.06599 216.0
58.196495 156.0
58.252274 192.0
58.270916 220.0
58.284592 128.0
58.304348 172.0
58.336266 184.0
58.348427 104.0
58.363632 144.0
58.441204 192.0
58.494473 164.0
58.505127 152.0
58.617836 116.0
58.733707 72.0
58.744385 172.0
58.911434 252.0
59.008587 184.0
59.042229 204.0
59.089649 136.0
59.108009 308.0
59.157784 276.0
59.18121 112.0
59.186695 188.0
59.328564 116.0
59.347569 192.0
59.438992 172.0
59.451271 192.0
59.50346 164.0
59.518814 136.0
59.544724 188.0
59.660164 144.0
59.717056 188.0
59.783211 268.0
59.815533 152.0
59.830929 208.0
59.895603 124.0
59.940285 116.0
59.988064 164.0
60.054367 44.0
60.08313 136.0
60.116077 152.0
60.137543 172.0
60.215023 176.0
60.264317 144.0
60.293674 144.0
60.31377 120.0
60.348022 152.0
60.401905 192.0
60.434395 208.0
60.454575 192.0
60.62225 164.0
60.683445 156.0
60.691948 172.0
60.777393 152.0
60.855984 168.0
60.890148 112.0
60.955395 192.0
60.998913 140.0
61.129559 128.0
61.198048 140.0
61.300854 192.0
61.386593 164.0
61.452835 128.0
61.460648 84.0
61.568409 228.0
61.656666 160.0
61.673859 176.0
61.691051 192.0
61.744217 164.0
61.800529 128.0
61.838089 144.0
61.861568 148.0
61.922981 168.0
61.933598 120.0
61.950829 168.0
62.016644 76.0
62.04739 104.0
62.071514 184.0
62.0919 88.0
62.106014 52.0
62.126408 132.0
62.14994 188.0
62.192314 148.0
62.253136 216.0
62.262585 148.0
62.310223 188.0
62.383953 156.0
62.434269 180.0
62.503487 188.0
62.5145 136.0
62.588486 216.0
62.627174 176.0
62.657787 200.0
62.678268 168.0
62.753925 124.0
62.875389 212.0
62.889595 156.0
62.955902 172.0
63.10918 128.0
63.166115 180.0
63.305393 124.0
63.334957 120.0
63.364002 96.0
63.406784 196.0
63.431812 172.0
63.454338 128.0
63.525703 172.0
63.541569 100.0
63.62886 144.0
63.644737 164.0
63.676498 80.0
63.727329 120.0
63.754345 124.0
63.798439 172.0
63.840191 64.0
63.870407 156.0
63.911774 216.0
63.949966 112.0
63.961109 188.0
63.972252 160.0
64.032761 52.0
64.051872 164.0
64.090103 104.0
64.203285 104.0
64.217636 144.0
64.244759 152.0
64.279861 188.0
64.334122 208.0
64.40181 188.0
64.416443 284.0
64.434738 148.0
64.455475 172.0
64.535431 128.0
64.561012 184.0
64.652992 244.0
64.74826 36.0
64.813942 48.0
64.869484 164.0
64.950211 192.0
64.987106 148.0
65.048096 216.0
65.070564 132.0
65.159843 152.0
65.194252 80.0
65.218361 164.0
65.322876 168.0
65.338966 76.0
65.363029 188.0
65.417824 132.0
65.453239 248.0
65.465164 168.0
65.485939 132.0
65.567619 124.0
65.607918 184.0
65.672417 120.0
65.688545 240.0
65.748245 72.0
65.759544 124.0
65.794266 204.0
65.822502 124.0
65.833809 192.0
65.880646 120.0
65.89196 132.0
65.934685 172.0
65.964684 168.0
66.001869 168.0
66.04715 128.0
66.098923 84.0
66.129669 152.0
66.236534 212.0
66.309448 228.0
66.325653 204.0
66.346733 192.0
66.430122 192.0
66.504074 176.0
66.515442 164.0
66.577141 160.0
66.612869 152.0
66.642929 120.0
66.707123 196.0
66.741264 112.0
66.768906 164.0
66.793571 172.0
66.824211 48.0
66.934898 228.0
66.996788 144.0
67.075005 184.0
67.205475 228.0
67.285454 76.0
67.305046 220.0
67.337708 192.0
67.376617 204.0
67.401413 256.0
67.429199 224.0
67.450447 188.0
67.505081 220.0
67.636917 160.0
67.661476 80.0
67.678162 188.0
67.699135 132.0
67.805626 132.0
67.823875 148.0
67.859718 132.0
67.949928 148.0
67.994232 144.0
68.059891 144.0
68.110802 128.0
68.188026 192.0
68.238647 176.0
68.258347 212.0
68.263535 164.0
68.268883 200.0
68.312996 148.0
68.327797 160.0
68.441368 216.0
68.515114 144.0
68.524269 168.0
68.573158 144.0
68.624634 136.0
68.683624 152.0
68.741371 204.0
68.761177 156.0
68.795837 104.0
68.840416 140.0
69.000694 176.0
69.121559 160.0
69.210823 208.0
69.222412 112.0
69.235664 124.0
69.295296 76.0
69.313522 184.0
69.336723 128.0
69.383133 180.0
69.424583 168.0
69.550682 224.0
69.578896 152.0
69.590523 180.0
69.660271 200.0
69.686852 128.0
69.715103 260.0
69.778572 172.0
69.886375 156.0
69.933823 212.0
69.966263 136.0
70.012886 108.0
70.079521 244.0
70.117844 132.0
70.175255 172.0
70.282837 136.0
70.484978 164.0
70.565208 108.0
70.648834 124.0
70.772682 152.0
70.834595 116.0
70.866478 192.0
70.882713 192.0
70.940224 76.0
71.013321 188.0
71.035805 208.0
71.133133 184.0
71.193581 184.0
71.205338 96.0
71.282646 176.0
71.324631 120.0
71.407013 144.0
71.426506 156.0
71.445702 120.0
71.479355 212.0
71.514694 72.0
71.529846 100.0
71.597191 176.0
71.618004 260.0
71.674683 148.0
71.694908 156.0
71.792686 220.0
71.862869 132.0
71.885468 76.0
71.93441 124.0
71.976624 104.0
72.035736 156.0
72.079559 132.0
72.106697 180.0
72.199684 168.0
72.223366 108.0
72.253815 180.0
72.269043 176.0
72.302879 52.0
72.319809 212.0
72.351974 100.0
72.379059 124.0
72.394302 208.0
72.451889 188.0
72.49086 148.0
72.553436 96.0
72.625061 180.0
72.680779 156.0
72.920227 124.0
72.95932 148.0
73.029037 80.0
73.061363 112.0
73.090286 196.0
73.1856 112.0
73.22818 136.0
73.279282 156.0
73.328697 164.0
73.371315 172.0
73.474541 192.0
73.542091 144.0
73.591408 76.0
73.695595 200.0
73.758827 196.0
73.946976 224.0
74.034203 240.0
74.05439 184.0
74.061234 136.0
74.104515 152.0
74.209984 180.0
74.310486 152.0
74.32914 200.0
74.360023 152.0
74.390923 144.0
74.425415 176.0
74.468193 160.0
74.538628 164.0
74.591904 116.0
74.618393 128.0
74.63562 172.0
74.714005 200.0
74.774231 64.0
74.82415 160.0
74.94471 144.0
74.974007 160.0
74.987793 128.0
75.077446 168.0
75.120567 168.0
75.198494 196.0
75.229279 220.0
75.27935 204.0
75.296623 208.0
75.341782 196.0
75.433121 140.0
75.495369 208.0
75.509201 40.0
75.529961 164.0
75.543793 188.0
75.606087 284.0
75.660057 176.0
75.685715 100.0
75.761925 108.0
75.820831 172.0
75.848564 224.0
75.905418 136.0
75.950874 148.0
75.964745 192.0
75.976891 216.0
75.994667 164.0
76.022003 196.0
76.06192 276.0
76.084488 204.0
76.117477 168.0
76.129639 64.0
76.192169 156.0
76.317307 352.0
76.423401 84.0
76.473869 176.0
76.520874 160.0
76.560921 124.0
76.598686 164.0
76.628853 152.0
76.689178 240.0
76.724709 408.0
76.79097 200.0
76.883438 48.0
76.914734 224.0
76.935806 112.0
76.972466 136.0
77.051071 192.0
77.076859 236.0
77.171661 420.0
77.21888 132.0
77.245117 132.0
77.337852 328.0
77.386871 132.0
77.521751 168.0
77.623421 128.0
77.654991 192.0
77.742706 120.0
77.776878 164.0
77.811165 156.0
77.856819 48.0
78.000893 140.0
78.014954 156.0
78.057152 176.0
78.078255 220.0
78.096565 164.0
78.152138 44.0
78.393379 204.0
78.419815 168.0
78.439201 64.0
78.483131 192.0
78.543236 72.0
78.603226 104.0
78.680885 116.0
78.702072 184.0
78.725029 180.0
78.793915 52.0
78.850456 188.0
78.894646 120.0
78.908791 200.0
78.921165 152.0
78.967148 156.0
78.990143 180.0
79.023758 188.0
79.052063 160.0
79.069763 164.0
79.121094 72.0
79.133492 180.0
79.209412 248.0
79.331909 140.0
79.356735 164.0
79.429443 176.0
79.445412 132.0
79.546562 136.0
79.633568 140.0
79.692192 192.0
79.772163 40.0
79.90554 228.0
79.96312 180.0
80.008766 172.0
80.062592 176.0
80.088898 184.0
80.104935 204.0
80.161942 108.0
80.197586 244.0
80.229675 76.0
80.255852 188.0
80.28495 180.0
80.322403 116.0
80.37236 188.0
80.409836 176.0
80.42411 240.0
80.500885 152.0
80.515167 200.0
80.556252 132.0
80.581261 212.0
80.690285 200.0
80.7332 68.0
80.752869 100.0
80.785255 116.0
80.815483 172.0
80.86364 136.0
80.916245 200.0
81.193451 48.0
81.211388 136.0
81.23291 76.0
81.252647 176.0
81.31366 92.0
81.331604 148.0
81.38546 104.0
81.707184 216.0
81.71978 144.0
81.800766 52.0
81.825348 128.0
81.88179 136.0
81.964653 112.0
82.094444 64.0
82.11969 144.0
82.144943 128.0
82.179955 128.0
82.218925 172.0
82.329048 168.0
82.381424 208.0
82.403641 332.0
82.500702 144.0
82.603775 208.0
82.643578 100.0
82.676682 164.0
82.715965 188.0
82.728638 72.0
82.806503 92.0
82.819183 108.0
82.942268 176.0
83.022171 152.0
83.042122 196.0
83.085655 136.0
83.158234 196.0
83.201805 196.0
83.2817 132.0
83.309494 200.0
83.379814 200.0
83.423698 56.0
83.510719 80.0
83.530724 156.0
83.716377 176.0
83.765549 120.0
83.781944 104.0
83.809273 156.0
83.885818 132.0
83.986107 144.0
83.998878 200.0
84.044487 112.0
84.113838 124.0
84.245316 80.0
84.276375 120.0
84.301956 176.0
84.395187 76.0
84.479317 136.0
84.510414 128.0
84.534203 172.0
84.565315 208.0
84.677284 152.0
84.735619 124.0
84.851082 60.0
84.928101 48.0
84.947342 352.0
84.990471 120.0
85.025337 76.0
85.05838 80.0
85.13916 112.0
85.315559 156.0
85.333885 228.0
85.372559 152.0
85.385429 168.0
85.445793 240.0
85.528946 184.0
85.58049 132.0
85.597061 152.0
85.621002 160.0
85.665207 96.0
85.720482 228.0
85.772087 132.0
85.79052 148.0
85.85321 192.0
85.903008 192.0
85.973122 172.0
86.037727 180.0
86.076859 144.0
86.120819 72.0
86.161461 192.0
86.277893 172.0
86.329666 140.0
86.518394 148.0
86.690651 132.0
86.703621 188.0
86.809296 228.0
86.838966 188.0
86.877922 112.0
86.892761 208.0
86.96328 156.0
86.999336 200.0
87.031967 152.0
87.050529 184.0
87.078392 120.0
87.111824 40.0
87.176857 212.0
87.191719 144.0
87.267937 236.0
87.409302 216.0
87.480026 172.0
87.578712 164.0
87.59362 68.0
87.699936 136.0
87.742699 160.0
87.862061 184.0
88.013237 152.0
88.028175 148.0
88.087944 172.0
88.131447 196.0
88.177635 72.0
88.250534 236.0
88.319733 204.0
88.342178 176.0
88.383339 96.0
88.437607 96.0
88.619263 220.0
88.735466 44.0
88.750465 44.0
88.806725 144.0
89.012459 200.0
89.061989 188.0
89.133385 244.0
89.217957 40.0
89.310104 148.0
89.368423 164.0
89.415466 152.0
89.451225 104.0
89.470055 124.0
89.524658 160.0
89.554787 312.0
89.584213 168.0
89.605652 184.0
89.696106 132.0
89.728157 164.0
89.880936 220.0
89.908806 192.0
89.955673 180.0
89.986633 180.0
90.064491 156.0
90.139626 152.0
90.162308 160.0
90.200104 72.0
90.234955 184.0
90.275734 160.0
90.324905 196.0
90.394913 208.0
90.481979 256.0
90.499016 72.0
90.519844 144.0
90.550148 168.0
90.588028 180.0
90.663818 60.0
90.701729 120.0
90.751015 124.0
90.785149 108.0
90.798424 196.0
90.826874 224.0
90.851212 252.0
90.921738 156.0
90.958328 188.0
90.979797 160.0
91.031845 156.0
91.054634 264.0
91.143921 152.0
91.277908 76.0
91.389206 148.0
91.478653 164.0
91.509628 192.0
91.566055 124.0
91.589096 72.0
91.608147 176.0
91.674835 160.0
91.749207 204.0
91.804466 112.0
91.821625 220.0
91.878853 196.0
91.938004 156.0
92.006721 204.0
92.090736 72.0
92.125748 184.0
92.153778 168.0
92.21302 36.0
92.272278 188.0
92.303787 192.0
92.323906 236.0
92.360771 188.0
92.419548 192.0
92.438683 140.0
92.488441 52.0
92.522903 168.0
92.718277 248.0
92.747032 160.0
92.777702 128.0
92.793037 248.0
92.94648 160.0
93.10051 168.0
93.12886 32.0
93.17112 120.0
93.201149 108.0
93.217232 128.0
93.336411 176.0
93.355331 196.0
93.384491 152.0
93.565414 192.0
93.684776 168.0
93.746429 180.0
93.802322 160.0
93.827385 108.0
93.844742 116.0
93.873665 160.0
93.918022 116.0
93.958534 208.0
93.972038 80.0
94.072388 188.0
94.180191 208.0
94.252007 188.0
94.375328 120.0
94.47435 140.0
94.52272 68.0
94.549812 196.0
94.576904 176.0
94.602074 280.0
94.615623 120.0
94.71051 196.0
94.784126 192.0
94.836456 204.0
94.919815 208.0
94.937271 92.0
94.950844 132.0
95.001976 212.0
95.061424 156.0
95.098297 176.0
95.123535 148.0
95.146828 156.0
95.195374 208.0
95.230331 404.0
95.284721 124.0
95.346901 144.0
95.424652 132.0
95.640587 224.0
95.728195 172.0
95.77494 220.0
95.800262 160.0
95.967873 184.0
95.991272 180.0
96.010773 180.0
96.052887 296.0
96.072144 216.0
96.088799 316.0
96.131844 192.0
96.151283 172.0
96.217682 200.0
96.246895 64.0
96.307358 100.0
96.35041 76.0
96.383621 108.0
96.401207 220.0
96.4403 332.0
96.543915 52.0
96.571297 156.0
96.641098 272.0
96.720001 164.0
96.876656 96.0
96.990311 192.0
97.03344 180.0
97.074715 984.0
97.170776 164.0
97.275513 112.0
97.310081 128.0
97.34346 116.0
97.394524 124.0
97.447563 156.0
97.471138 136.0
97.518311 208.0
97.545822 244.0
97.675453 152.0
97.693314 48.0
97.756531 212.0
97.777924 216.0
97.87635 156.0
97.89695 56.0
97.961037 128.0
98.000443 104.0
98.017967 156.0
98.051674 188.0
98.084412 12376.0
98.130524 52.0
98.146637 64.0
98.164047 140.0
98.191658 120.0
98.2528 108.0
98.275002 176.0
98.330688 212.0
98.397415 176.0
98.489685 176.0
98.51339 104.0
98.537102 84.0
98.572662 64.0
98.629982 212.0
98.663918 212.0
98.679405 188.0
98.762459 184.0
98.845551 144.0
98.900963 64.0
98.914818 172.0
98.934616 92.0
99.013817 52.0
99.065315 68.0
99.087883 812.0
99.156464 180.0
99.27343 180.0
99.297981 148.0
99.388481 180.0
99.453972 164.0
99.555099 188.0
99.598923 224.0
99.624748 148.0
99.660507 60.0
99.722115 88.0
99.765846 156.0
99.799644 120.0
99.883171 192.0
99.91301 128.0
100.002556 100.0
100.097481 244.0
100.111931 328.0
100.155869 108.0
100.295349 272.0
100.480804 152.0
100.558632 96.0
100.604538 80.0
100.724358 136.0
100.824196 140.0
100.84024 200.0
100.957954 164.0
101.021759 216.0
101.106422 176.0
101.150276 168.0
101.200325 148.0
101.248383 108.0
101.309288 140.0
101.334518 52.0
101.368584 164.0
101.408661 96.0
101.476822 132.0
101.53698 124.0
101.565056 48.0
101.611198 136.0
101.629257 40.0
101.69548 240.0
101.836021 136.0
101.872177 156.0
101.896286 148.0
101.990738 160.0
102.083221 116.0
102.097298 40.0
102.119423 220.0
102.145569 40.0
102.197876 96.0
102.340782 200.0
102.358902 196.0
102.53051 152.0
102.574478 152.0
102.790283 128.0
102.834679 104.0
102.877068 156.0
102.893219 124.0
102.925934 220.0
103.054298 368.0
103.10733 176.0
103.144371 148.0
103.157867 200.0
103.29335 252.0
103.363274 100.0
103.515984 180.0
103.594971 116.0
103.736824 40.0
103.757095 116.0
103.828064 216.0
103.886887 144.0
103.99646 148.0
104.083755 136.0
104.110153 176.0
104.136559 104.0
104.18531 120.0
104.209686 128.0
104.378395 160.0
104.508575 156.0
104.58387 160.0
104.649017 140.0
104.718254 244.0
104.786461 248.0
104.850685 128.0
104.891449 196.0
104.947601 132.0
104.979118 80.0
105.001549 148.0
105.015823 144.0
105.040306 244.0
105.072662 176.0
105.144363 240.0
105.223969 60.0
105.295441 132.0
105.346504 164.0
105.393494 40.0
105.407799 128.0
105.465111 192.0
105.565201 164.0
105.786171 48.0
105.820976 184.0
105.911079 100.0
105.931564 220.0
105.950005 220.0
106.044258 188.0
106.0653 420.0
106.224701 196.0
106.295753 184.0
106.327293 120.0
106.413506 144.0
106.464844 156.0
106.479218 232.0
106.537292 236.0
106.657974 164.0
106.727867 188.0
106.766945 220.0
106.793678 124.0
106.898605 156.0
106.924561 180.0
106.991226 176.0
107.036522 100.0
107.18483 148.0
107.250778 204.0
107.277573 180.0
107.304375 148.0
107.331184 176.0
107.376549 180.0
107.487946 108.0
107.545738 156.0
107.611794 92.0
107.642769 176.0
107.743973 164.0
107.762566 180.0
107.85556 64.0
107.911377 212.0
107.941574 232.0
108.031807 140.0
108.074776 132.0
108.20517 216.0
108.234161 120.0
108.256935 164.0
108.321144 176.0
108.401947 144.0
108.501434 84.0
108.590446 212.0
108.621712 228.0
108.692253 224.0
108.723381 136.0
108.756592 156.0
108.807419 164.0
108.85347 140.0
108.869278 188.0
108.893623 116.0
108.943474 156.0
108.964249 92.0
109.080627 144.0
109.095177 144.0
109.142998 256.0
109.21579 140.0
109.234505 136.0
109.269875 168.0
109.371841 148.0
109.457199 180.0
109.586342 36.0
109.6595 112.0
109.680641 144.0
109.715561 116.0
109.730148 184.0
109.748917 192.0
109.7649 160.0
109.790619 140.0
109.849022 184.0
109.871971 148.0
109.899094 96.0
109.915787 176.0
110.093224 172.0
110.14753 108.0
110.197662 148.0
110.427612 92.0
110.458984 60.0
110.475723 236.0
110.511292 156.0
110.572556 188.0
110.668266 120.0
110.687111 124.0
110.703865 184.0
110.72332 152.0
110.758316 136.0
110.779266 132.0
110.821167 156.0
110.856789 152.0
110.888222 228.0
111.026596 164.0
111.066277 200.0
111.091125 956.0
111.188141 108.0
111.356613 160.0
111.388901 168.0
111.410713 160.0
111.532593 168.0
111.583046 164.0
111.604073 200.0
111.679779 172.0
111.700813 156.0
111.741226 296.0
111.797592 168.0
111.854424 148.0
111.907051 136.0
111.93502 184.0
111.966011 28.0
112.019966 148.0
112.035522 156.0
112.052376 84.0
112.071342 120.0
112.097923 504.0
112.214661 132.0
112.273705 228.0
112.354851 180.0
112.370735 188.0
112.4105 128.0
112.429817 128.0
112.45726 180.0
112.491508 176.0
112.550911 196.0
112.614059 236.0
112.635002 376.0
112.688126 184.0
112.725471 96.0
112.743187 312.0
112.784645 56.0
112.811493 160.0
112.835381 164.0
112.86261 132.0
112.896317 156.0
112.93129 236.0
112.96553 384.0
112.980354 200.0
113.016098 308.0
113.039139 652.0
113.05619 224.0
113.078323 160.0
113.108063 83420.0
113.139641 316.0
113.16967 140.0
113.190208 40.0
113.208107 52.0
113.231972 124.0
113.266479 252.0
113.27314 168.0
113.278992 156.0
113.299835 244.0
113.339119 272.0
113.369141 184.0
113.394218 52.0
113.435066 64.0
113.456261 820.0
113.500214 56.0
113.519135 52.0
113.544746 32.0
113.585045 144.0
113.599892 240.0
113.614746 176.0
113.635956 76.0
113.663795 68.0
113.710228 40.0
113.731453 44.0
113.759048 132.0
113.83223 60.0
113.856339 176.0
113.881271 200.0
113.9077 28.0
113.923744 144.0
113.946999 72.0
113.951836 36.0
113.962006 64.0
114.019577 128.0
114.033058 160.0
114.079414 176.0
114.110565 5720.0
114.147316 176.0
114.193756 124.0
114.221107 76.0
114.245216 176.0
114.294632 80.0
114.320168 112.0
114.366989 60.0
114.39679 44.0
114.458534 56.0
114.477699 180.0
114.601242 140.0
114.637466 72.0
114.66304 56.0
114.697914 276.0
114.713089 192.0
114.731255 64.0
114.773895 132.0
114.792542 140.0
114.820465 200.0
114.844269 136.0
114.867729 268.0
114.896721 136.0
114.91893 44.0
114.953217 60.0
114.979393 112.0
115.022537 168.0
115.030441 224.0
115.054405 316.0
115.09182 288.0
115.117264 328.0
115.138329 144.0
115.173309 128.0
115.213562 128.0
115.262703 36.0
115.341782 104.0
115.403778 152.0
115.467926 96.0
115.482903 188.0
115.564194 64.0
115.673225 160.0
115.733284 172.0
115.748268 88.0
115.851074 156.0
115.938927 244.0
115.975357 112.0
116.052536 144.0
116.071831 160.0
116.101852 224.0
116.238663 160.0
116.246902 124.0
116.352905 196.0
116.395851 76.0
116.496796 228.0
116.660118 184.0
116.763321 64.0
116.862274 152.0
116.922531 252.0
116.960358 216.0
117.069321 668.0
117.153641 144.0
117.189545 216.0
117.228333 56.0
117.27359 144.0
117.338264 116.0
117.390007 40.0
117.420204 156.0
117.559158 156.0
117.603592 120.0
117.620865 116.0
117.776329 160.0
117.838974 132.0
117.920273 148.0
117.975136 144.0
118.069275 156.0
118.319107 228.0
118.45771 108.0
118.581215 140.0
118.622398 172.0
118.772018 84.0
118.795883 120.0
118.952126 192.0
119.05851 96.0
119.149742 148.0
119.169296 176.0
119.223618 160.0
119.321434 136.0
119.364922 232.0
119.544762 196.0
119.581223 172.0
119.667366 120.0
119.684784 200.0
119.739227 216.0
119.761658 140.0
119.791504 184.0
119.883011 160.0
119.968018 136.0
119.991997 76.0
120.031242 56.0
120.046509 120.0
120.164299 120.0
120.245033 140.0
120.450279 128.0
120.504898 128.0
120.531113 156.0
120.62291 152.0
120.77816 40.0
120.896301 92.0
121.005745 244.0
121.025452 92.0
121.226974 132.0
121.244507 140.0
121.283958 224.0
121.308075 216.0
121.411125 232.0
121.463768 48.0
121.54055 56.0
121.729324 164.0
121.799606 192.0
121.834755 136.0
121.913857 100.0
121.953415 140.0
121.971001 64.0
122.039154 92.0
122.078728 116.0
122.131516 76.0
122.146912 144.0
122.179909 160.0
122.219513 168.0
122.349365 172.0
122.446251 108.0
122.46167 52.0
122.496918 44.0
122.638695 140.0
122.710686 92.0
122.793335 208.0
122.798271 100.0
122.806488 180.0
122.863258 200.0
122.964363 140.0
123.028374 160.0
123.063698 236.0
123.085777 156.0
123.154243 160.0
123.331009 92.0
123.395111 124.0
123.560989 108.0
123.729187 176.0
123.886421 92.0
123.966187 124.0
123.981697 176.0
124.041542 212.0
124.074799 108.0
124.108055 188.0
124.24556 148.0
124.3321 204.0
124.456413 172.0
124.505264 196.0
124.656326 148.0
124.758568 124.0
124.843063 168.0
125.025482 128.0
125.114517 144.0
125.270256 124.0
125.368439 136.0
125.392952 152.0
125.441994 188.0
125.457596 124.0
125.473198 236.0
125.491035 108.0
125.62262 80.0
125.682854 44.0
125.892982 152.0
126.042351 136.0
126.069168 160.0
126.120728 172.0
126.196579 128.0
126.310638 156.0
126.373276 96.0
126.393417 136.0
126.451599 72.0
126.623993 180.0
126.809952 68.0
126.825638 108.0
126.912437 212.0
127.03418 152.0
127.099838 272.0
127.124115 416.0
127.391113 136.0
127.416573 120.0
127.442787 112.0
127.62709 180.0
127.759277 136.0
128.009628 212.0
128.07402 196.0
128.095215 136.0
128.122238 172.0
128.232651 132.0
128.489716 156.0
128.638672 152.0
128.695114 176.0
128.986542 116.0
129.095062 144.0
129.316772 176.0
129.357513 176.0
129.482056 228.0
129.651962 168.0
129.942215 156.0
130.026169 168.0
130.066147 256.0
130.087463 164.0
130.200989 112.0
130.273361 148.0
130.392838 196.0
130.469101 128.0
130.498657 72.0
130.516403 204.0
130.566879 144.0
130.630569 168.0
130.748886 160.0
131.073334 356.0
131.142899 144.0
131.197617 164.0
131.222687 172.0
131.249359 200.0
131.457626 140.0
131.553497 116.0
131.599152 176.0
131.633408 132.0
131.684097 188.0
131.834427 192.0
131.896133 348.0
131.942886 148.0
132.082672 196.0
132.129395 124.0
132.23465 128.0
132.317062 52.0
132.445297 192.0
132.823502 232.0
132.873978 124.0
132.922165 56.0
133.009369 168.0
133.117279 188.0
133.142548 132.0
133.160278 232.0
133.197662 136.0
133.218338 156.0
133.266586 176.0
133.284973 172.0
133.333221 160.0
133.351608 72.0
133.432068 128.0
133.494156 72.0
133.581543 116.0
133.682861 112.0
133.738022 208.0
133.926819 136.0
133.970596 160.0
134.014359 212.0
134.150345 256.0
134.357895 120.0
134.600235 124.0
134.748962 196.0
134.889038 60.0
135.025452 212.0
135.043961 152.0
135.300812 52.0
135.530106 88.0
135.564865 208.0
135.590347 116.0
135.656387 184.0
135.731766 180.0
135.805969 196.0
135.954453 148.0
136.031052 148.0
136.063553 200.0
136.100708 136.0
136.14946 80.0
136.289062 212.0
136.312073 144.0
136.400391 152.0
136.530594 116.0
136.584091 152.0
136.723694 144.0
136.840088 144.0
136.875 152.0
137.081924 324.0
137.100967 136.0
137.294464 132.0
137.455429 232.0
137.537109 180.0
137.574463 212.0
137.7099 48.0
137.744934 188.0
138.014145 144.0
138.109573 224.0
138.163376 168.0
138.184433 184.0
138.203156 172.0
138.226547 156.0
138.390396 192.0
138.481735 132.0
138.678543 136.0
138.738312 136.0
138.765625 192.0
139.031418 216.0
139.051468 116.0
139.081314 276.0
139.122101 480.0
139.354385 168.0
139.44133 140.0
139.481293 176.0
139.572983 376.0
139.594147 176.0
139.798798 160.0
139.890594 48.0
139.956512 160.0
140.028412 136.0
140.128891 132.0
140.201508 108.0
140.239212 48.0
140.300507 144.0
140.432556 156.0
140.531021 184.0
140.637833 68.0
140.693085 120.0
140.710999 168.0
140.741699 136.0
140.775146 216.0
140.801376 104.0
140.821991 128.0
140.88063 232.0
140.910233 192.0
140.91774 68.0
140.929596 160.0
140.963394 180.0
140.993118 148.0
141.031525 76.0
141.050827 208.0
141.085617 148.0
141.108871 264.0
141.139389 87436.0
141.197784 104.0
141.227951 228.0
141.234375 68.0
141.244232 124.0
141.271774 68.0
141.302353 140.0
141.333084 120.0
141.355515 200.0
141.382309 64.0
141.410156 188.0
141.450684 104.0
141.497574 184.0
141.528656 512.0
141.598419 68.0
141.638016 116.0
141.661697 92.0
141.678284 52.0
141.69487 76.0
141.715805 260.0
141.739044 124.0
141.779282 64.0
141.804626 88.0
141.823441 200.0
141.91243 96.0
141.934265 52.0
141.962143 84.0
141.98204 188.0
142.005402 188.0
142.108566 72.0
142.141541 7772.0
142.207077 72.0
142.249802 148.0
142.27037 72.0
142.389893 36.0
142.408279 140.0
142.414917 104.0
142.473022 48.0
142.544312 164.0
142.560944 72.0
142.579025 156.0
142.605576 164.0
142.694046 76.0
142.717834 72.0
142.739227 88.0
142.784409 56.0
142.803436 44.0
142.827225 44.0
142.843872 40.0
142.86528 156.0
142.9319 48.0
142.974197 268.0
143.010437 56.0
143.043762 284.0
143.077682 128.0
143.107895 124.0
143.14476 204.0
143.194321 120.0
143.231232 132.0
143.277893 276.0
143.302109 184.0
143.329163 72.0
143.34729 108.0
143.435806 100.0
143.489258 36.0
143.58815 76.0
143.746857 36.0
143.820831 76.0
143.894836 204.0
143.916321 136.0
143.933044 64.0
144.001373 144.0
144.03096 164.0
144.05484 68.0
144.162369 132.0
144.202988 68.0
144.262756 72.0
144.298615 160.0
144.356003 112.0
144.399048 152.0
144.439713 128.0
144.571304 136.0
144.61438 44.0
144.73407 116.0
144.966721 164.0
144.992798 84.0
145.067093 148.0
145.083878 56.0
145.14621 40.0
145.174988 172.0
145.441299 112.0
145.458099 116.0
145.539734 148.0
145.683838 160.0
145.73909 52.0
145.81839 144.0
145.842422 132.0
145.917206 152.0
146.09491 244.0
146.124649 112.0
146.393372 152.0
146.680084 136.0
146.733124 160.0
147.324997 112.0
147.343719 192.0
147.483871 204.0
147.628174 176.0
147.679733 28.0
147.902328 148.0
147.933792 140.0
148.020691 144.0
148.02504 128.0
148.086349 112.0
148.115417 156.0
148.17598 116.0
148.389252 92.0
148.597839 128.0
148.719177 120.0
148.758011 236.0
148.929794 172.0
149.005722 152.0
149.037308 88.0
149.13208 164.0
149.183121 68.0
149.221069 212.0
149.248764 120.0
149.285248 68.0
149.304703 124.0
149.394699 116.0
149.428757 56.0
149.462814 96.0
149.484726 88.0
149.645874 212.0
149.686768 52.0
149.759827 156.0
149.80249 156.0
149.901123 128.0
149.937683 88.0
150.013245 160.0
150.144913 156.0
150.21077 84.0
150.240036 132.0
150.340073 100.0
150.769897 100.0
150.831497 116.0
150.946854 92.0
151.023239 180.0
151.060852 196.0
151.224792 180.0
151.343628 140.0
151.604401 180.0
151.646072 148.0
151.702454 148.0
151.827499 68.0
152.05835 120.0
152.200485 56.0
152.463333 152.0
152.512497 52.0
152.573944 32.0
152.62558 44.0
152.898636 196.0
153.06897 168.0
153.141281 180.0
153.194107 192.0
153.361664 160.0
153.465775 192.0
153.756287 108.0
153.820465 136.0
153.850082 108.0
153.968613 60.0
154.065552 160.0
154.141525 76.0
154.351639 168.0
154.514877 240.0
154.608917 176.0
154.628708 56.0
154.740097 168.0
154.774765 120.0
154.829254 136.0
154.950623 124.0
155.19104 84.0
155.225754 148.0
155.277832 120.0
155.481262 80.0
155.563171 76.0
155.645111 320.0
155.725204 220.0
156.396957 188.0
156.527847 132.0
156.714661 68.0
156.986359 344.0
157.253296 160.0
157.540466 152.0
157.66539 176.0
157.78537 152.0
157.977936 92.0
158.025467 52.0
158.078018 208.0
158.188141 44.0
158.285782 148.0
158.348389 228.0
158.481155 112.0
158.603958 128.0
158.839661 176.0
158.990204 184.0
159.022827 148.0
159.620743 164.0
159.982529 228.0
160.093826 60.0
160.423904 132.0
160.481888 128.0
160.582764 128.0
160.72403 160.0
160.784592 92.0
160.981506 136.0
161.201279 148.0
161.261932 96.0
161.542603 72.0
161.575485 48.0
161.950134 196.0
161.967865 200.0
162.010941 184.0
162.03154 148.0
162.099609 140.0
162.208588 136.0
162.370865 112.0
162.670273 168.0
162.883575 168.0
163.122437 224.0
163.234299 56.0
163.37674 180.0
163.720352 152.0
163.834976 144.0
163.880844 72.0
163.987869 180.0
164.028656 144.0
164.929703 116.0
164.983383 172.0
165.269836 152.0
165.374756 120.0
165.523239 108.0
165.666672 116.0
165.715347 208.0
165.766602 164.0
165.794785 184.0
165.825546 156.0
165.899872 80.0
165.93576 192.0
166.065643 520.0
166.166595 132.0
166.187119 56.0
166.317993 120.0
166.522949 156.0
166.993744 96.0
167.070648 820.0
167.269073 76.0
167.351456 200.0
167.750778 112.0
167.79718 48.0
168.000916 132.0
168.021561 144.0
168.073807 128.0
168.181549 140.0
168.351715 136.0
168.44751 52.0
168.506927 148.0
168.607712 104.0
168.770569 152.0
168.828918 120.0
169.086166 156.0
169.176758 104.0
169.236298 168.0
169.283829 152.0
169.604172 172.0
169.757141 128.0
169.97673 116.0
170.08403 212.0
170.265778 120.0
170.603561 156.0
170.697174 108.0
170.889648 168.0
170.980728 160.0
171.023636 196.0
171.079636 124.0
171.394775 208.0
171.446899 112.0
171.485992 224.0
171.78064 164.0
171.832809 168.0
171.861511 116.0
171.903259 120.0
171.945023 144.0
171.968506 404.0
172.002441 132.0
172.509201 104.0
172.713165 204.0
172.906784 84.0
172.956512 184.0
173.024582 300.0
173.215744 108.0
173.341507 164.0
173.407013 76.0
173.464691 152.0
173.524979 140.0
173.745285 136.0
173.96048 300.0
174.112 136.0
174.188934 136.0
174.619995 160.0
174.901535 168.0
175.238617 48.0
175.533829 140.0
175.589218 132.0
175.626129 120.0
175.961273 188.0
176.072174 164.0
176.26503 92.0
176.328445 128.0
176.450043 116.0
176.571686 56.0
176.783325 128.0
176.854782 132.0
176.944794 176.0
177.05542 328.0
177.130157 176.0
177.246735 156.0
177.466736 196.0
177.49855 132.0
178.013351 172.0
178.063721 512.0
178.130203 120.0
178.499634 128.0
178.589462 216.0
178.621979 40.0
178.810898 144.0
179.002563 92.0
179.069763 312.0
179.117096 156.0
179.17569 172.0
179.919769 132.0
180.077545 240.0
180.104019 176.0
180.218903 136.0
180.397964 136.0
180.478165 124.0
180.689468 152.0
180.866074 152.0
180.938354 160.0
180.984024 444.0
181.018692 140.0
181.184753 44.0
181.265137 124.0
181.424194 152.0
181.452759 148.0
181.501022 188.0
181.522461 200.0
181.65657 148.0
181.696808 132.0
181.718277 64.0
181.780624 200.0
181.81488 208.0
181.983231 128.0
181.98999 168.0
182.042374 156.0
182.141235 160.0
182.467606 156.0
182.502548 108.0
182.836121 72.0
182.933014 204.0
182.992081 196.0
183.064941 180.0
183.409805 152.0
183.48259 144.0
183.59314 104.0
183.70372 248.0
183.7388 136.0
183.865616 244.0
183.935791 228.0
183.984375 168.0
184.003281 168.0
184.030212 844.0
184.076187 144.0
184.181503 136.0
184.54364 144.0
184.749176 100.0
184.819534 152.0
184.865524 48.0
184.981918 180.0
185.037277 168.0
185.08876 188.0
185.184998 216.0
185.419464 140.0
185.618607 96.0
185.670532 184.0
185.80304 156.0
185.984482 144.0
186.593353 184.0
186.699402 160.0
186.751083 100.0
186.876205 172.0
187.142944 148.0
187.270935 168.0
187.546127 136.0
187.636093 120.0
187.693344 200.0
187.968857 180.0
188.037079 212.0
188.072556 148.0
188.162643 244.0
188.318298 108.0
188.364731 164.0
188.479477 168.0
188.555984 80.0
188.659866 196.0
188.766495 192.0
188.886826 208.0
188.997559 212.0
189.086563 196.0
189.390488 28.0
189.587738 108.0
189.727539 52.0
189.789566 160.0
189.859146 176.0
190.014236 192.0
190.075867 48.0
190.287216 100.0
190.457474 148.0
190.567352 236.0
191.001724 112.0
191.023727 228.0
191.073883 200.0
191.100754 144.0
191.260376 128.0
191.72583 120.0
191.848343 116.0
192.067719 144.0
192.114609 240.0
192.150467 120.0
192.305008 120.0
192.334229 244.0
192.586639 224.0
192.619781 144.0
192.849121 96.0
192.893341 68.0
193.205826 140.0
193.313736 184.0
193.468735 100.0
193.744141 148.0
193.798325 84.0
193.862045 88.0
194.216934 168.0
194.325119 168.0
194.350082 112.0
194.397903 144.0
194.724854 160.0
194.780411 160.0
194.822067 108.0
195.077744 228.0
195.230667 144.0
195.667511 160.0
195.725983 120.0
195.903015 184.0
195.996063 332.0
196.018112 192.0
196.076981 188.0
196.38089 176.0
196.537109 196.0
196.64595 80.0
196.88736 144.0
197.478546 180.0
197.696777 184.0
197.898315 204.0
197.990723 140.0
198.034088 1608.0
198.059036 152.0
198.064194 136.0
198.077927 180.0
198.192413 180.0
198.354965 160.0
198.455887 128.0
198.528793 168.0
198.587692 80.0
198.663422 140.0
198.75882 124.0
198.843002 132.0
199.042557 652.0
199.182739 36.0
199.219269 72.0
199.365372 204.0
199.432816 204.0
199.536835 156.0
199.894043 180.0
200.044617 480.0
200.124863 184.0
200.175552 172.0
200.220596 36.0
200.307922 56.0
200.392426 128.0
200.629166 172.0
200.750412 136.0
200.942215 116.0
201.03363 324.0
201.156311 148.0
201.828064 196.0
202.042923 176.0
202.072342 96.0
202.250626 212.0
202.304413 164.0
202.338379 188.0
202.414825 172.0
202.783112 128.0
203.034134 156.0
203.1716 188.0
203.228333 152.0
203.259552 72.0
203.557602 132.0
203.580322 176.0
203.637115 156.0
203.705292 120.0
203.725174 108.0
203.838821 128.0
203.918396 208.0
204.037781 156.0
204.081375 580.0
204.28804 212.0
204.455917 148.0
204.658035 128.0
204.717834 156.0
204.823212 172.0
204.879135 180.0
204.974213 128.0
205.083359 644.0
205.19986 48.0
205.313431 152.0
205.627258 180.0
205.821381 128.0
205.929901 196.0
205.952759 40.0
205.975601 112.0
205.997849 156.0
206.032745 112.0
206.064163 140.0
206.096863 1796.0
206.269928 128.0
206.388229 176.0
206.415741 232.0
206.438614 92.0
206.760117 156.0
206.979965 196.0
207.101669 508.0
207.131241 160.0
207.175034 180.0
207.265884 40.0
207.328934 224.0
207.383392 168.0
207.819275 200.0
207.951279 196.0
207.971375 228.0
208.106293 116.0
208.180954 60.0
208.206802 40.0
208.307327 236.0
208.715439 152.0
209.000198 76.0
209.03038 140.0
209.05722 172.0
209.377304 124.0
209.446426 68.0
209.53862 40.0
209.674042 60.0
209.898911 148.0
210.03746 2476.0
210.077728 152.0
210.123886 140.0
210.146957 48.0
210.285477 104.0
210.343201 156.0
210.380737 144.0
210.424042 176.0
210.491516 196.0
210.641205 180.0
210.675293 168.0
210.721512 268.0
210.753296 60.0
210.837097 144.0
210.88588 132.0
210.912247 136.0
210.943283 92.0
210.975845 104.0
211.045044 12948.0
211.100174 60.0
211.141525 188.0
211.203156 184.0
211.308426 32.0
211.341644 140.0
211.412598 92.0
211.482056 48.0
211.504272 160.0
211.592056 28.0
211.621017 144.0
211.647079 28.0
211.687607 120.0
211.803467 80.0
211.867188 32.0
211.928024 96.0
211.991776 112.0
212.04744 3016.0
212.172272 192.0
212.216431 72.0
212.333084 104.0
212.374466 44.0
212.394775 84.0
212.428452 72.0
212.478897 168.0
212.531128 60.0
212.626892 96.0
212.670425 108.0
212.70816 80.0
212.798157 76.0
212.818481 120.0
212.88237 136.0
212.923019 40.0
212.97821 168.0
213.035065 4256.0
213.197845 140.0
213.271667 68.0
213.355972 72.0
213.428665 72.0
213.457733 160.0
213.492416 160.0
213.515427 116.0
213.655518 148.0
213.701233 152.0
213.767914 172.0
213.779984 108.0
213.790146 148.0
213.898727 160.0
213.931366 112.0
213.979614 144.0
214.041992 47356.0
214.080643 336.0
214.125687 84.0
214.164932 120.0
214.226624 124.0
214.278549 84.0
214.342651 160.0
214.418411 68.0
214.447556 60.0
214.473801 36.0
214.536987 148.0
214.569992 144.0
214.63414 44.0
214.675583 76.0
214.73912 68.0
214.802582 132.0
214.939774 128.0
214.975433 48.0
215.04274 4768.0
215.095093 84.0
215.15033 52.0
215.176834 40.0
215.296555 212.0
215.3871 52.0
215.45137 64.0
215.493164 52.0
215.570343 216.0
215.618607 68.0
215.688065 96.0
215.811249 220.0
215.869339 140.0
215.904419 108.0
216.039047 11784.0
216.076675 36.0
216.086761 132.0
216.185272 44.0
216.23027 116.0
216.331619 136.0
216.431152 136.0
216.495575 124.0
216.516083 104.0
216.545731 128.0
216.576859 48.0
216.594254 116.0
216.650818 144.0
216.672943 152.0
216.712341 52.0
216.735779 88.0
216.77095 76.0
216.801651 84.0
216.882309 60.0
216.905762 96.0
216.939178 80.0
217.002502 60.0
217.043335 1688.0
217.297974 140.0
217.398651 76.0
217.548187 136.0
217.624527 56.0
217.706741 104.0
217.850662 100.0
217.96524 76.0
217.985809 80.0
218.041656 128.0
218.088669 84.0
218.213943 196.0
218.317993 80.0
218.415054 40.0
218.47554 92.0
218.567642 88.0
218.609238 120.0
218.835892 148.0
218.859436 160.0
218.995819 180.0
219.02002 188.0
219.04071 160.0
219.089172 44.0
219.289536 36.0
219.475266 180.0
219.772675 188.0
219.905975 120.0
219.962051 52.0
219.99939 136.0
220.062424 168.0
220.10376 200.0
220.250549 80.0
220.845535 88.0
220.869202 120.0
220.901749 84.0
220.990494 184.0
221.058548 236.0
221.08223 88.0
221.147339 140.0
221.330887 52.0
221.638931 108.0
221.991684 172.0
222.05011 200.0
222.285355 172.0
222.415939 36.0
222.642487 96.0
222.822784 52.0
223.042786 1132.0
223.090256 204.0
223.170532 136.0
223.280548 48.0
223.512589 60.0
223.64949 76.0
223.854919 40.0
224.050308 1708.0
224.090225 128.0
224.370377 92.0
224.561218 248.0
224.832718 180.0
225.026749 152.0
225.058151 308.0
225.39711 204.0
225.41803 84.0
225.923325 104.0
226.041763 152.0
226.072937 76.0
226.219589 80.0
226.315399 84.0
226.584946 144.0
226.677841 68.0
226.791718 60.0
226.929626 68.0
227.040573 136.0
227.061569 164.0
227.493637 128.0
227.902084 176.0
228.013412 184.0
228.058365 172.0
228.109467 40.0
228.250763 112.0
228.398132 40.0
228.590683 140.0
228.813416 40.0
229.251022 112.0
230.037994 608.0
230.137009 92.0
230.254776 64.0
230.529678 184.0
231.04483 260.0
231.083038 148.0
231.697632 168.0
231.861252 156.0
231.921875 40.0
231.996216 532.0
232.029709 160.0
232.091476 72.0
232.131058 120.0
232.155319 64.0
232.319107 140.0
232.50116 80.0
232.74704 40.0
232.783493 56.0
232.883713 180.0
233.006256 6048.0
233.141953 100.0
233.220978 76.0
233.245285 52.0
233.330414 40.0
233.400345 36.0
233.462067 188.0
233.528061 48.0
233.567612 92.0
233.792755 64.0
234.006332 1800.0
234.124588 224.0
234.161133 160.0
234.225098 88.0
234.252502 224.0
234.292114 228.0
234.44751 76.0
234.514557 76.0
234.602951 100.0
234.795044 136.0
234.843857 88.0
234.898758 44.0
235.002808 2512.0
235.090973 28.0
235.161163 36.0
235.237473 160.0
235.298538 36.0
235.378433 140.0
235.475647 160.0
235.51535 140.0
235.643646 132.0
235.692535 164.0
235.753647 76.0
235.814774 136.0
236.006332 280.0
236.239807 132.0
236.420334 40.0
236.652969 76.0
237.00827 180.0
237.060944 320.0
237.225876 72.0
237.473434 244.0
237.517181 108.0
237.588943 124.0
237.663086 172.0
237.993958 112.0
238.067245 2796.0
238.106491 220.0
238.169083 136.0
238.306152 40.0
238.367615 40.0
238.401413 72.0
238.465958 192.0
238.505905 144.0
238.54895 180.0
238.595062 168.0
238.631958 128.0
238.653473 172.0
238.695145 196.0
238.751877 76.0
238.804153 96.0
238.945236 176.0
238.976425 128.0
238.997971 200.0
239.033218 164.0
239.075546 21464.0
239.139526 240.0
239.20668 44.0
239.250336 44.0
239.293442 124.0
239.419037 112.0
239.442139 124.0
239.466919 64.0
239.575195 124.0
239.70311 148.0
239.733398 280.0
239.810974 60.0
239.888031 64.0
240.076828 3808.0
240.147034 160.0
240.236496 72.0
240.307449 96.0
240.350647 188.0
240.499008 112.0
240.597565 68.0
240.650055 92.0
240.717987 32.0
240.90329 208.0
240.928009 80.0
240.98671 60.0
241.008331 44.0
241.066299 2688.0
241.122681 52.0
241.178314 72.0
241.347092 172.0
241.385452 64.0
241.459671 36.0
241.543182 40.0
241.567932 52.0
241.639084 48.0
241.713333 76.0
241.744278 128.0
241.886658 96.0
242.06398 884.0
242.122894 168.0
242.149841 116.0
242.351196 56.0
242.406967 48.0
242.437958 68.0
242.558838 156.0
242.673538 144.0
242.738663 44.0
242.853409 188.0
242.91478 148.0
243.062164 580.0
243.09314 160.0
243.331299 68.0
243.626328 36.0
243.672928 80.0
243.753571 164.0
243.812759 84.0
243.850052 80.0
243.89357 128.0
243.996155 372.0
244.06575 240.0
244.171539 60.0
244.428497 100.0
244.500061 164.0
244.534302 196.0
244.7491 204.0
244.792694 64.0
244.820724 68.0
245.006485 412.0
245.272491 160.0
245.387833 124.0
245.437729 100.0
245.475143 124.0
245.514481 180.0
245.549988 128.0
245.586685 200.0
245.62796 84.0
245.659164 136.0
245.715317 140.0
245.751694 164.0
245.783951 208.0
245.818283 72.0
245.865082 164.0
245.889465 340.0
245.92215 244.0
245.965576 384.0
246.014084 42208.0
246.105209 188.0
246.155411 56.0
246.180389 124.0
246.204071 116.0
246.232529 108.0
246.292511 40.0
246.337662 124.0
246.394043 80.0
246.436539 48.0
246.527481 188.0
246.642792 48.0
246.705307 80.0
246.752197 44.0
246.774094 180.0
246.814743 44.0
246.846176 76.0
246.887543 156.0
246.927322 244.0
246.967972 80.0
247.016937 6668.0
247.074326 108.0
247.099365 92.0
247.203705 92.0
247.265594 132.0
247.337189 100.0
247.3591 76.0
247.44989 68.0
247.544403 44.0
247.678497 44.0
247.759949 80.0
247.807373 84.0
247.897812 36.0
247.966751 44.0
248.011398 13932.0
248.093307 160.0
248.129761 72.0
248.186203 68.0
248.223923 128.0
248.324677 76.0
248.361328 128.0
248.43396 124.0
248.502991 128.0
248.560944 104.0
248.661758 208.0
248.719528 152.0
248.747208 88.0
248.78891 76.0
248.849136 140.0
248.876495 108.0
248.904648 132.0
248.953247 144.0
249.013199 1500.0
249.061783 64.0
249.099472 40.0
249.140305 160.0
249.168579 100.0
249.357132 60.0
249.40741 88.0
249.495438 100.0
249.545731 168.0
249.641006 120.0
249.735687 148.0
249.825638 100.0
249.997162 124.0
250.036835 132.0
250.086807 52.0
250.168655 36.0
250.269409 48.0
250.338684 88.0
250.398514 56.0
250.57045 48.0
250.650528 36.0
250.685196 96.0
250.763992 100.0
250.801804 96.0
250.822433 96.0
250.946823 64.0
251.047729 124.0
251.314102 40.0
251.653564 88.0
251.801987 108.0
251.855682 32.0
252.067352 160.0
252.098953 64.0
252.655441 44.0
252.800995 60.0
253.076385 272.0
253.098557 116.0
253.16188 76.0
253.196716 48.0
253.301239 48.0
254.195312 88.0
254.242905 160.0
254.354004 52.0
254.525436 112.0
254.763641 96.0
256.214325 220.0
256.287598 96.0
257.777771 144.0
258.018005 300.0
258.103821 40.0
258.875 52.0
258.974274 196.0
259.018036 148.0
259.081848 96.0
259.743561 112.0
260.03064 288.0
260.228149 84.0
261.010712 164.0
261.034637 332.0
261.078064 104.0
262.04071 224.0
262.299927 176.0
263.510132 96.0
266.62738 132.0
266.75415 72.0
267.001251 48.0
267.974548 88.0
268.29068 156.0
268.724457 68.0
268.828857 92.0
269.544006 76.0
270.931274 80.0
270.990234 184.0
271.524567 200.0
272.027466 288.0
272.999115 160.0
273.03064 408.0
273.509064 36.0
273.815277 164.0
273.94043 164.0
274.044586 5844.0
274.253479 80.0
274.385345 40.0
274.606262 52.0
274.824005 32.0
275.045471 1080.0
275.190369 68.0
275.593323 44.0
276.040222 1576.0
276.317413 80.0
276.486145 212.0
276.959625 136.0
277.043396 416.0
277.125244 44.0
277.218048 92.0
277.818176 92.0
277.921021 72.0
278.485352 96.0
279.815521 44.0
280.061951 68.0
280.625122 84.0
281.332428 148.0
281.489349 100.0
281.729828 96.0
283.409332 88.0
284.187225 64.0
285.98175 192.0
288.731476 60.0
290.801544 44.0
291.253143 164.0
292.170959 40.0
292.644043 76.0
294.048492 52.0
294.352325 128.0
297.533142 44.0
298.202972 76.0
298.282043 180.0
299.72406 116.0
299.789551 188.0
301.200653 96.0
302.355469 92.0
302.407379 104.0
303.335663 100.0
303.887085 40.0
306.968903 104.0
308.938812 72.0
310.22052 112.0
313.098206 124.0
314.14151 132.0
314.197968 60.0
314.9534 92.0
314.992249 160.0
317.079834 124.0
317.920349 116.0
318.094238 140.0
318.133301 124.0
322.950989 56.0
323.383911 140.0
324.766937 208.0
325.089844 36.0
325.15802 156.0
326.739075 172.0
328.208588 28.0
328.681091 36.0
328.753265 236.0
329.088959 76.0
329.161194 172.0
329.591034 32.0
332.756653 36.0
333.06897 88.0
333.345093 172.0
333.835846 76.0
333.955872 144.0
334.494385 140.0
334.894897 60.0
335.477936 208.0
337.848022 204.0
341.170593 104.0
341.990875 120.0
343.483185 40.0
344.062561 88.0
345.052673 136.0
348.759705 120.0
348.915833 84.0
349.510925 124.0
349.559296 112.0
349.782623 72.0
352.29599 188.0
354.319916 184.0
354.953339 96.0
355.123016 100.0
357.233124 40.0
359.369263 44.0
360.815796 148.0
361.114532 116.0
365.279297 168.0
366.177582 140.0
368.176025 120.0
369.23465 112.0
369.762604 148.0
371.678711 96.0
372.133392 148.0
372.431152 156.0
372.546387 148.0
373.113556 208.0
373.184387 44.0
373.231323 112.0
373.511261 180.0
373.599731 116.0
373.661285 120.0
373.765167 156.0
374.026794 200.0
374.040619 196.0
374.144012 11736.0
374.215515 124.0
374.299347 52.0
374.423462 48.0
374.506012 184.0
374.621948 112.0
374.771637 72.0
374.905029 80.0
375.039917 136.0
375.145538 1548.0
375.232666 44.0
375.276794 72.0
375.483307 76.0
375.60672 72.0
375.633728 176.0
375.676147 68.0
375.718597 148.0
375.946259 84.0
376.027283 136.0
376.081757 352.0
376.142334 3696.0
376.200989 48.0
376.422119 44.0
376.536926 52.0
376.662781 48.0
376.77771 60.0
377.137909 736.0
377.256683 116.0
377.387054 84.0
377.55722 144.0
377.661621 72.0
378.002075 144.0
378.1474 148.0
379.163849 116.0
379.900574 108.0
380.071289 36.0
380.226501 64.0
380.758392 36.0
381.259552 136.0
382.243408 56.0
382.72998 56.0
382.81955 52.0
387.883057 92.0
388.353577 84.0
389.448669 160.0
389.892639 80.0
389.947662 88.0
390.545288 88.0
401.034088 56.0
403.113373 44.0
403.744995 48.0
406.914581 44.0
407.127411 152.0
407.786285 96.0
418.368225 36.0
420.414368 64.0
420.569458 68.0
424.14444 108.0
425.362701 164.0
434.221558 152.0
435.221649 132.0
438.991669 132.0
442.459686 56.0
442.983185 124.0
447.249481 40.0
447.90213 128.0
448.382446 120.0
448.774475 96.0
451.278259 88.0
455.54599 132.0
462.749176 84.0
464.09024 52.0
467.60849 116.0
468.904877 76.0
472.116882 52.0
479.684784 144.0
498.776581 56.0
499.843964 104.0
501.313477 116.0
501.594269 88.0
510.504059 52.0
510.733429 32.0
515.322632 56.0
518.032593 44.0
523.423645 60.0
534.47821 36.0
552.330872 48.0
557.004272 44.0
570.10614 48.0
570.320007 108.0
572.66095 68.0
583.619934 120.0
584.755249 84.0
591.304565 60.0
596.290405 88.0
611.698181 104.0
615.045166 112.0
616.477417 148.0
622.208252 92.0
628.409607 72.0
635.72522 124.0
656.414551 88.0
673.108582 56.0
674.999817 52.0
680.159973 36.0
688.563599 60.0
688.605408 104.0
695.768799 40.0
708.478638 92.0
724.809082 68.0
724.959106 44.0
728.366028 112.0
735.101318 164.0
751.019287 84.0
773.654053 84.0
779.611145 64.0
786.567627 212.0
797.838684 108.0
798.215393 44.0
804.514465 188.0
809.90918 48.0
811.405212 48.0
814.611572 56.0
819.02002 156.0
819.299194 156.0
823.971619 216.0
831.094177 80.0
833.844849 164.0
838.9505 136.0
839.060059 76.0
839.538635 108.0
844.077576 132.0
845.639526 80.0
847.266724 184.0
848.588074 56.0
851.553406 176.0
851.727661 52.0
853.081604 92.0
853.820068 72.0
855.315369 176.0
855.618042 156.0
856.025635 84.0
858.059143 72.0
858.799744 28.0
861.438171 52.0
862.735474 204.0
862.793945 68.0
865.696106 188.0
867.207642 116.0
869.712158 204.0
878.568359 72.0
880.144226 64.0
883.63739 136.0
885.478333 104.0
889.634949 124.0
890.620667 172.0
892.736511 40.0
899.218323 172.0
900.221313 96.0
902.127258 160.0
903.957458 192.0
911.687378 40.0
911.939819 192.0
912.883728 228.0
917.290894 160.0
920.72406 112.0
922.712097 160.0
927.6521 176.0
927.973389 220.0
929.635376 132.0
932.757202 48.0
933.000366 88.0
933.128052 184.0
933.188843 148.0
934.825073 200.0
941.250061 152.0
944.978577 148.0
945.241699 28.0
952.304138 124.0
954.006226 200.0
957.67981 160.0
959.799805 164.0
962.971802 116.0
965.357361 260.0
967.21344 52.0
968.916382 92.0
969.932739 172.0
971.054993 140.0
971.675293 172.0
975.811646 184.0
976.128784 212.0
977.111511 124.0
977.540833 200.0
977.758667 204.0
978.972656 228.0
979.40863 128.0
983.280518 156.0
985.666077 160.0
990.796631 168.0
991.517212 144.0
992.269409 188.0
992.325867 96.0
992.883911 156.0
993.015625 204.0
993.5802 96.0
993.82489 128.0
995.055054 68.0
996.015869 156.0
996.135254 128.0
998.806763 140.0
1001.759033 152.0
1005.946289 156.0
1006.438721 48.0
1007.120789 244.0
1007.392395 120.0
1007.872559 48.0
1009.939819 208.0
1010.243469 176.0
1011.021729 144.0
1011.578674 164.0
1013.142883 164.0
1014.739929 156.0
1015.031616 60.0
1015.868835 160.0
1015.957642 120.0
1017.366455 84.0
1017.41095 224.0
1018.306274 92.0
1018.59845 188.0
1018.649231 60.0
1019.958252 188.0
1020.431519 152.0
1020.747192 212.0
1020.899231 120.0
1021.168701 208.0
1021.280823 212.0
1022.725159 32.0
1025.993042 196.0
1026.362915 212.0
1026.809204 220.0
1028.06604 168.0
1028.793701 180.0
1029.080933 152.0
1029.470459 156.0
1030.288086 208.0
1030.997314 84.0
1031.150757 188.0
1032.250244 196.0
1032.410156 176.0
1035.302734 148.0
1035.763916 204.0
1036.109863 176.0
1036.628906 176.0
1037.481323 188.0
1041.485474 228.0
1041.986572 100.0
1043.940552 84.0
1044.345825 88.0
1044.397217 136.0
1048.814331 148.0
1050.813477 128.0
1050.923218 160.0
1051.284546 184.0
1053.525024 188.0
1054.481323 164.0
1055.056641 120.0
1055.431641 176.0
1056.666992 112.0
1056.71228 148.0
1057.126465 148.0
1057.789917 156.0
1058.544067 156.0
1058.589355 244.0
1059.165771 136.0
1059.535034 196.0
1059.586914 140.0
1062.179932 220.0
1063.925659 136.0
1064.529419 168.0
1065.796143 88.0
1066.166504 176.0
1067.076538 188.0
1068.266724 216.0
1069.314331 116.0
1069.822021 52.0
1070.290771 180.0
1070.753174 136.0
1073.992432 176.0
1074.181641 128.0
1075.760864 72.0
1076.152588 152.0
1076.746826 160.0
1079.00769 164.0
1080.407227 252.0
1081.244751 100.0
1083.399048 228.0
1083.955933 192.0
1084.689941 160.0
1085.981689 96.0
1087.700806 236.0
1088.002808 100.0
1088.377075 164.0
1088.521484 176.0
1089.85498 208.0
1091.261475 88.0
1093.116455 184.0
1093.373047 192.0
1093.702148 172.0
1096.072998 208.0
1096.778198 188.0
1096.942993 208.0
1097.18689 144.0
1097.279175 248.0
1097.701172 184.0
1098.288208 188.0
1099.54834 140.0
1100.168823 156.0
1100.248047 116.0
1100.531982 40.0
1100.941406 136.0
1102.018066 152.0
1102.467407 224.0
1103.194458 84.0
1104.411133 100.0
1105.138916 188.0
1105.873413 56.0
1107.012207 232.0
1107.343262 144.0
1107.859985 92.0
1108.337036 152.0
1108.827393 168.0
1110.483521 180.0
1112.17688 52.0
1113.205933 216.0
1113.444946 164.0
1113.90332 184.0
1114.766968 144.0
1115.2854 176.0
1115.531372 132.0
1115.690918 196.0
1117.067505 56.0
1117.426758 168.0
1117.550537 256.0
1118.797729 176.0
1121.06897 176.0
1121.522217 204.0
1121.728882 40.0
1123.376953 180.0
1124.83728 172.0
1125.411499 120.0
1126.687134 136.0
1127.388672 192.0
1127.863281 164.0
1129.615234 204.0
1129.849365 128.0
1130.009888 88.0
1130.163818 152.0
1130.973511 208.0
1131.381958 216.0
1132.091675 112.0
1132.526978 208.0
1132.687744 180.0
1132.794922 156.0
1133.009277 100.0
1133.545532 164.0
1134.637817 176.0
1135.026733 184.0
1136.435303 140.0
1137.18689 152.0
1137.636597 136.0
1139.033447 180.0
1139.134155 168.0
1139.698486 108.0
1139.846313 176.0
1140.343628 148.0
1140.511719 180.0
1142.098511 136.0
1142.502075 140.0
1143.107666 156.0
1143.390381 100.0
1143.705688 192.0
1143.881714 180.0
1146.569092 148.0
1148.308594 68.0
1150.332764 116.0
1151.021484 128.0
1151.102539 204.0
1151.910767 248.0
1152.960205 172.0
1153.676758 152.0
1153.994507 164.0
1154.616577 140.0
1154.724854 40.0
1155.320068 176.0
1155.753052 200.0
1155.888428 184.0
1156.091431 204.0
1156.138794 116.0
1156.362183 180.0
1157.37085 124.0
1158.473022 124.0
1159.096558 72.0
1161.342041 320.0
1161.498047 92.0
1161.586304 148.0
1161.776245 152.0
1162.088257 204.0
1162.162964 96.0
1162.423584 184.0
1162.665039 116.0
1166.760986 172.0
1167.202881 140.0
1167.733398 160.0
1168.318359 212.0
1168.42041 108.0
1168.672119 68.0
1169.400269 180.0
1170.237549 140.0
1171.517944 140.0
1171.728882 164.0
1173.208008 160.0
1173.351196 216.0
1174.094482 180.0
1175.247314 136.0
1176.619141 160.0
1176.905884 100.0
1176.994629 204.0
1177.062988 148.0
1177.541016 52.0
1177.814209 152.0
1177.90979 172.0
1178.975708 116.0
1179.433594 80.0
1180.021484 184.0
1180.342896 36.0
1180.54126 136.0
1180.595947 36.0
1180.992554 120.0
1181.532959 184.0
1181.758789 152.0
1182.881104 96.0
1183.127563 156.0
1183.476807 124.0
1184.106812 176.0
1184.182129 144.0
1184.236938 140.0
1184.702759 228.0
1186.463989 180.0
1186.703979 152.0
1187.485718 216.0
1187.821777 196.0
1188.123657 160.0
1188.995117 180.0
1189.249023 180.0
1189.327515 144.0
1190.223877 152.0
1190.635864 80.0
1191.096069 204.0
1191.187134 216.0
1191.886108 144.0
1192.169067 180.0
1193.0271 120.0
1194.471191 188.0
1195.262329 260.0
1196.6427 196.0
1197.155396 188.0
1197.795898 140.0
1198.009399 136.0
1199.167114 124.0
1199.339355 148.0
1201.815186 184.0
1202.180908 128.0
1202.450073 224.0
1202.995361 176.0
1203.768677 164.0
1204.113892 128.0
1204.880737 36.0
1204.957397 216.0
1205.018799 76.0
1205.552979 248.0
1206.262817 200.0
1206.338867 124.0
1207.49353 244.0
1207.583496 140.0
1207.846313 208.0
1210.171631 128.0
1210.358521 144.0
1210.711792 116.0
1210.884888 140.0
1212.249634 28.0
1212.31897 176.0
1212.512939 228.0
1212.589233 220.0
1212.700073 192.0
1212.901123 100.0
1213.129883 200.0
1214.253174 188.0
1214.981567 124.0
1215.543579 220.0
1215.980713 36.0
1217.640015 164.0
1218.834961 96.0
1219.425659 112.0
1220.81604 132.0
1221.455933 260.0
1221.504639 192.0
1221.615967 168.0
1221.789917 108.0
1223.188599 228.0
1223.258179 200.0
1223.9823 140.0
1224.184204 60.0
1224.337402 72.0
1224.497681 120.0
1225.117554 136.0
1225.702759 220.0
1225.981567 40.0
1227.089844 128.0
1227.584961 196.0
1227.898804 212.0
1228.917236 224.0
1229.056763 180.0
1229.252197 144.0
1229.866333 132.0
1230.103638 160.0
1230.403809 160.0
1231.786499 312.0
1231.856445 140.0
1232.06604 232.0
1232.5271 132.0
1232.583008 112.0
1233.407715 236.0
1233.757202 176.0
1235.568604 188.0
1235.659546 88.0
1235.708496 176.0
1236.205322 212.0
1236.611206 160.0
1236.723145 192.0
1236.821167 216.0
1237.13623 120.0
1237.41626 184.0
1238.515625 220.0
1238.852539 216.0
1239.062012 200.0
1239.286255 220.0
1239.814697 260.0
1241.136719 148.0
1241.732788 132.0
1241.922119 156.0
1242.259888 160.0
1242.511475 144.0
1242.560547 188.0
1243.367432 132.0
1243.620117 124.0
1244.062378 152.0
1244.230835 72.0
1244.322144 108.0
1244.96814 164.0
1245.256104 180.0
1245.403564 208.0
1246.569824 176.0
1246.661133 184.0
1247.040649 208.0
1247.163208 132.0
1247.919434 144.0
1248.102173 192.0
1248.330566 108.0
1248.397583 120.0
1249.030518 56.0
1249.825562 212.0
1250.015503 120.0
1250.170288 244.0
1250.726318 48.0
1251.90918 56.0
1253.162964 112.0
1253.776001 416.0
1255.185913 136.0
1255.341064 148.0
1255.404541 132.0
1255.517334 68.0
1255.566772 192.0
1256.032227 196.0
1256.490845 224.0
1256.907104 148.0
1257.274048 168.0
1257.549316 172.0
1257.916382 160.0
1258.050415 156.0
1258.121094 128.0
1259.788696 140.0
1259.907715 152.0
1260.211548 108.0
1260.776855 192.0
1260.946533 184.0
1261.017212 124.0
1261.434204 244.0
1261.486694 240.0
1261.64624 148.0
1261.771484 180.0
1262.109497 196.0
1262.671631 172.0
1263.251587 140.0
1263.421387 188.0
1265.537476 168.0
1265.72168 220.0
1266.44397 188.0
1266.727295 172.0
1266.869019 172.0
1267.783081 140.0
1267.938965 168.0
1268.555664 52.0
1268.76123 160.0
1269.470215 132.0
1270.328491 180.0
1271.321777 180.0
1271.39978 120.0
1271.726318 208.0
1272.24585 240.0
1272.898682 140.0
1273.038574 172.0
1273.629272 172.0
1273.693115 232.0
1273.835205 156.0
1274.844116 184.0
1275.789429 140.0
1276.009888 120.0
1276.315552 200.0
1276.415161 208.0
1276.820435 136.0
1277.268555 112.0
1277.446411 176.0
1277.64563 52.0
1277.866211 176.0
1278.07959 36.0
1279.125732 176.0
1280.065552 200.0
1280.200928 156.0
1280.881348 188.0
1282.195679 136.0
1282.552002 156.0
1282.844238 212.0
1283.24353 48.0
1283.692749 132.0
1284.598511 140.0
1284.677002 212.0
1285.0979 232.0
1285.333374 324.0
1286.189819 192.0
1286.703857 176.0
1287.167847 160.0
1287.446411 236.0
1287.832031 32.0
1288.239258 160.0
1288.732178 132.0
1289.196655 48.0
1291.784912 212.0
1292.092529 184.0
1293.380615 188.0
1293.595337 160.0
1293.838745 176.0
1293.917603 28.0
1294.175293 164.0
1294.225464 156.0
1294.411621 160.0
1294.60498 136.0
1294.862915 148.0
1295.944458 108.0
1296.539185 184.0
1296.761353 32.0
1297.184326 192.0
1297.736328 88.0
1297.822388 120.0
1298.611206 236.0
1298.668579 164.0
1298.912476 60.0
1299.249634 140.0
1299.924072 180.0
1300.053223 136.0
1300.727905 52.0
1300.778198 148.0
1301.137085 40.0
1302.638062 228.0
1302.961304 56.0
1303.083496 160.0
1303.572021 204.0
1303.622314 204.0
1303.730103 44.0
1303.964966 200.0
1304.743652 224.0
1305.088745 236.0
1305.390747 176.0
1305.779053 188.0
1306.915649 144.0
1306.966064 112.0
1307.54895 136.0
1307.800903 180.0
1308.024048 200.0
1308.225586 180.0
1308.643188 192.0
1309.809814 164.0
1309.953857 160.0
1310.004272 144.0
1310.443726 120.0
1311.748169 144.0
1311.870728 220.0
1312.526855 152.0
1312.663818 144.0
1313.284058 160.0
1313.80481 220.0
1313.955688 196.0
1314.12085 56.0
1314.257935 148.0
1314.755859 208.0
1315.051758 208.0
1315.712891 172.0
1315.948486 208.0
1316.466797 168.0
1316.734009 184.0
1316.856812 176.0
1317.196289 212.0
1317.564697 148.0
1317.723633 160.0
1318.005493 152.0
1318.84375 212.0
1318.916016 160.0
1319.313599 188.0
1319.494385 76.0
1319.841431 216.0
1320.109009 160.0
1320.195801 240.0
1320.564575 140.0
1320.636963 132.0
1320.946411 208.0
1321.237305 152.0
1321.46167 184.0
1321.91748 176.0
1322.706421 168.0
1323.075562 208.0
1323.336182 220.0
1324.465942 220.0
1324.676025 140.0
1324.886108 168.0
1324.936768 176.0
1325.11792 68.0
1325.451172 168.0
1325.835327 156.0
1326.560059 188.0
1327.045898 164.0
1327.401123 172.0
1327.937744 124.0
1328.510864 80.0
1329.983887 152.0
1330.266968 204.0
1331.595825 152.0
1331.719238 140.0
1332.075195 192.0
1332.314941 188.0
1332.699951 52.0
1332.816284 52.0
1332.976074 148.0
1333.404907 180.0
1333.557495 28.0
1334.218994 236.0
1334.793335 116.0
1335.200562 160.0
1335.287842 152.0
1335.462402 68.0
1336.138916 44.0
1336.386353 192.0
1337.012085 184.0
1337.434326 120.0
1337.765259 152.0
1338.038452 144.0
1338.337036 136.0
1338.410156 196.0
1338.504517 120.0
1338.781128 160.0
1341.163574 228.0
1341.43335 144.0
1341.827026 132.0
1342.140503 84.0
1342.344727 116.0
1342.439453 88.0
1343.387695 220.0
1343.715942 48.0
1344.394531 148.0
1345.058716 124.0
1345.182861 212.0
1346.073608 176.0
1346.811157 132.0
1346.860107 104.0
1348.243164 124.0
1349.15686 152.0
1349.281128 188.0
1349.639404 148.0
1350.480469 116.0
1350.560913 164.0
1351.189941 120.0
1351.848511 212.0
1352.075439 144.0
1352.221802 176.0
1352.507202 192.0
1352.997681 284.0
1353.356445 160.0
1354.271851 128.0
1354.645386 224.0
1354.986694 152.0
1355.898315 200.0
1356.316162 148.0
1356.92334 168.0
1357.437866 216.0
1357.767822 156.0
1358.141968 168.0
1360.027588 212.0
1360.196533 124.0
1360.29187 100.0
1360.585571 88.0
1360.937988 144.0
1361.855957 240.0
1362.039551 144.0
1363.171021 200.0
1363.310669 180.0
1365.670654 68.0
1365.972168 232.0
1366.465088 92.0
1366.965454 164.0
1368.003174 124.0
1368.949341 192.0
1369.453857 32.0
1369.792603 164.0
1369.917847 144.0
1370.08728 224.0
1370.293579 88.0
1370.765137 152.0
1370.890503 180.0
1370.942017 192.0
1371.531616 192.0
1371.686401 144.0
1371.774902 164.0
1372.3573 228.0
1372.593262 76.0
1372.726074 168.0
1373.183228 148.0
1373.271729 156.0
1374.179077 184.0
1374.607056 68.0
1375.374634 244.0
1375.536987 160.0
1376.349121 140.0
1376.688843 144.0
1376.762695 144.0
1376.814331 152.0
1377.826294 180.0
1377.900269 208.0
1378.714966 172.0
1378.831299 204.0
1379.319092 188.0
1380.52417 160.0
1380.886597 100.0
1381.019775 144.0
1381.315674 144.0
1381.604126 152.0
1382.469849 60.0
1383.143311 168.0
1383.506104 84.0
1383.957642 148.0
1384.276123 128.0
1384.379761 176.0
1384.498291 208.0
1384.564941 128.0
1384.846313 168.0
1385.268555 140.0
1385.987183 156.0
1386.454102 96.0
1386.609741 104.0
1386.676392 164.0
1387.01001 96.0
1387.855103 168.0
1388.188843 208.0
1388.262939 196.0
1389.056519 92.0
1389.635254 192.0
1390.065552 144.0
1390.792847 164.0
1391.238281 192.0
1391.46106 200.0
1391.706055 208.0
1391.824829 164.0
1392.426392 96.0
1392.664062 180.0
1392.953735 116.0
1394.053345 156.0
1394.528931 108.0
1394.811401 208.0
1395.145874 216.0
1395.279785 124.0
1395.383789 168.0
1395.592041 124.0
1395.978638 128.0
1396.990234 224.0
1398.046753 132.0
1398.577637 224.0
1398.820801 180.0
1399.274902 172.0
1399.535522 188.0
1399.758911 68.0
1400.18335 104.0
1400.846313 188.0
1401.7677 168.0
1401.782715 112.0
1402.120483 156.0
1402.903076 160.0
1403.246094 160.0
1403.33667 232.0
1403.909668 56.0
1404.029053 100.0
1404.37207 296.0
1404.458862 200.0
1405.595581 104.0
1406.192627 288.0
1406.326904 176.0
1406.476196 136.0
1406.879272 72.0
1407.312378 148.0
1407.782837 148.0
1408.484863 180.0
1409.291626 172.0
1409.493408 180.0
1409.856689 92.0
1410.03894 136.0
1410.621948 204.0
1410.726685 224.0
1411.137817 148.0
1411.421997 180.0
1411.870605 120.0
1412.124878 136.0
1413.666016 164.0
1414.20105 228.0
1414.571655 152.0
1414.878662 260.0
1415.30542 148.0
1415.82959 108.0
1416.155518 240.0
1416.25647 176.0
1416.878296 80.0
1417.6875 164.0
1418.452026 220.0
1418.991699 200.0
1419.381592 164.0
1419.606567 200.0
1419.996582 184.0
1420.064087 128.0
1420.214111 208.0
1420.469116 196.0
1421.421997 188.0
1421.63208 120.0
1421.939819 64.0
1422.0448 104.0
1422.232422 200.0
1423.035767 176.0
1423.125854 36.0
1423.373657 112.0
1423.636475 176.0
1424.004395 228.0
1424.77063 136.0
1425.401733 176.0
1426.010498 244.0
1426.540527 184.0
1426.702026 140.0
1427.544189 240.0
1427.717163 136.0
1428.175903 128.0
1428.454224 200.0
1428.709961 180.0
1429.748413 196.0
1430.026855 164.0
1430.124756 140.0
1430.576294 148.0
1430.65918 208.0
1430.741943 124.0
1430.900024 100.0
1431.269043 200.0
1431.525024 168.0
1431.811157 212.0
1431.879028 108.0
1431.946777 100.0
1432.278198 204.0
1432.709595 176.0
1432.782959 136.0
1432.84314 40.0
1433.543945 148.0
1434.945923 184.0
1435.134399 84.0
1435.918701 104.0
1436.167603 172.0
1436.220337 40.0
1437.714233 52.0
1438.650146 152.0
1438.703003 200.0
1439.02771 136.0
1439.103149 168.0
1439.707275 288.0
1440.031982 128.0
1441.218018 160.0
1441.308716 164.0
1442.072021 152.0
1442.442383 152.0
1442.895996 52.0
1443.092529 112.0
1443.221069 48.0
1443.659668 232.0
1444.294922 100.0
1444.605103 152.0
1444.97583 216.0
1445.626587 164.0
1446.307739 184.0
1446.466675 176.0
1446.851318 168.0
1447.163086 108.0
1447.223755 140.0
1447.715942 104.0
1447.875 152.0
1448.340576 172.0
1449.427856 192.0
1449.677979 132.0
1450.140259 140.0
1450.905884 76.0
1452.56665 96.0
1452.695679 104.0
1452.756348 76.0
1452.945923 128.0
1453.105347 136.0
1453.598511 176.0
1453.909668 196.0
1454.334595 92.0
1454.759766 152.0
1455.249634 212.0
1455.367065 164.0
1455.545776 212.0
1455.837891 180.0
1457.158325 172.0
1457.900757 356.0
1458.962524 176.0
1459.226929 144.0
1459.585327 228.0
1459.888428 164.0
1459.94165 172.0
1460.321899 156.0
1460.671753 200.0
1461.017456 200.0
1462.010864 124.0
1462.094604 172.0
1462.29248 112.0
1462.96228 208.0
1463.67041 156.0
1463.761719 144.0
1464.047974 212.0
1464.96521 112.0
1465.112427 160.0
1465.413086 228.0
1465.986206 136.0
1466.329102 28.0
1466.64917 96.0
1467.266724 48.0
1467.593994 108.0
1467.785156 216.0
1468.502075 204.0
1468.799438 212.0
1468.959717 160.0
1469.097046 180.0
1469.28772 316.0
1469.641479 164.0
1470.60791 124.0
1470.875 140.0
1471.852295 204.0
1471.997314 124.0
1472.638794 128.0
1472.753418 176.0
1473.119995 136.0
1473.540283 108.0
1473.83606 180.0
1474.013916 244.0
1474.075073 176.0
1474.915771 144.0
1475.168091 168.0
1475.397339 164.0
1475.771973 172.0
1476.09314 188.0
1476.605591 116.0
1477.751831 216.0
1477.844849 180.0
1477.928955 120.0
1478.020752 124.0
1478.832031 168.0
1478.939209 84.0
1479.222412 172.0
1479.474976 116.0
1479.651123 120.0
1480.650391 256.0
1480.707764 196.0
1480.860962 256.0
1480.960571 76.0
1481.121338 116.0
1481.305176 164.0
1481.458496 196.0
1481.734253 132.0
1482.01001 156.0
1482.27063 108.0
1482.722778 144.0
1482.921997 136.0
1483.412598 156.0
1483.504517 40.0
1483.716675 236.0
1483.803589 152.0
1483.941528 112.0
1484.286621 144.0
1484.600952 180.0
1485.031372 168.0
1485.099243 228.0
1485.194458 204.0
1485.888062 116.0
1486.07373 108.0
1486.54187 108.0
1487.325928 148.0
1487.44751 120.0
1487.894409 204.0
1487.949951 80.0
1488.829468 196.0
1489.013794 76.0
1489.321045 240.0
1489.533203 180.0
1489.865112 176.0
1490.043213 120.0
1490.135376 184.0
1490.573364 128.0
1490.988281 180.0
1491.995239 120.0
1492.289795 76.0
1492.994873 180.0
1493.094849 160.0
1493.563965 136.0
1493.687012 152.0
1493.977173 88.0
1494.325562 116.0
1494.585205 224.0
1494.75647 48.0
1494.871948 212.0
1495.148926 204.0
1496.141846 192.0
1496.611572 148.0
1496.85791 164.0
1497.435547 168.0
1498.020996 56.0
1498.452393 216.0
1498.853027 136.0
1498.937744 172.0
1499.122681 176.0
1500.749146 76.0
1500.818604 188.0
1501.269653 224.0
1501.582031 236.0
1501.751709 72.0
1502.075684 172.0
1502.22229 112.0
1502.376587 168.0
1502.615723 164.0
1502.870361 176.0
1502.932007 164.0
1503.101807 180.0
1503.916992 184.0
1504.274902 136.0
1504.521973 180.0
1504.684082 140.0
1505.046997 128.0
