>compound MLS000574941-01!
>formula C20H32O4
>ionization [M+H]+
>parentmass 337.238
#inchi InChI=1S/C20H32O4/c1-14-10-19(24)17-11-16(13-23)4-3-5-18(17)20(14,2)8-6-15(12-22)7-9-21/h4,7,14,17-18,21-23H,3,5-6,8-13H2,1-2H3/b15-7-/t14-,17+,18+,20+/m1/s1
#inchikey LDOZOWGJNHIECR
#Ion_Source LC-ESI
#Instrument qTof
#Compound_Source NIH Natural Product Library
#PI Dorrestein
#Data_Collector VVP/LMS
#Scan -1
#Precursor_MZ 337.238
#ExactMass 336.23
#Charge 1
#CAS_Number N/A
#Pubmed_ID N/A
#Smiles C[C@@H]1CC(=O)[C@H]2CC(=CCC[C@@H]2[C@@]1(C)CC/C(=C/CO)/CO)CO
#INCHI_AUX N/A
#Library_Class 1
#SpectrumID CCMSLIB00000080445
#IonMode Positive
#UpdateWorkflowName UPDATE-SINGLE-ANNOTATED-GOLD
#LibraryQualityString Gold
#TaskID b1d8e8f6646f4e71acdff9ca3d919d08
##Scan# 1609
#SpectrumFile p2-A09_GA9_01_17985.mzXML
#LibraryName NIH_Natural_Products_Library.mgf
#MQScore -1
#Organism NIH_Natural_Products_Library
#TIC_Query 0
#RT_Query -1
#MZErrorPPM -1
#SharedPeaks 0
#MassDiff 0
#LibMZ -1
#SpecMZ 337.238
#SpecCharge 0
#internalFilename spec-00000.mgf

>collision 10
95.029045 68.0
95.08519 292.0
95.135788 140.0
95.279503 48.0
95.713234 180.0
95.894409 152.0
96.015289 196.0
96.243607 88.0
96.92627 196.0
97.128204 120.0
97.141937 204.0
97.349991 184.0
97.475708 180.0
97.955772 92.0
98.206108 140.0
98.239647 52.0
98.279099 148.0
98.423195 124.0
98.818504 180.0
101.772461 80.0
102.079903 48.0
102.474419 204.0
102.607445 268.0
102.663902 148.0
103.059547 148.0
103.223282 124.0
103.370949 208.0
103.861244 200.0
104.011398 124.0
104.4198 128.0
105.032883 184.0
105.070938 2460.0
105.108376 132.0
105.576172 172.0
106.074326 328.0
106.882904 172.0
107.045525 136.0
107.084831 828.0
107.204147 40.0
107.298965 104.0
108.139717 44.0
108.533325 184.0
109.064796 176.0
109.093765 188.0
109.258186 172.0
110.104477 164.0
110.591629 180.0
110.981285 116.0
111.079857 164.0
112.247131 84.0
112.639694 152.0
113.009659 188.0
113.119713 168.0
114.582939 124.0
115.280678 184.0
115.82412 160.0
116.057716 132.0
116.87394 44.0
117.069702 348.0
117.119362 72.0
118.07856 196.0
118.998642 256.0
119.016014 176.0
119.050758 340.0
119.084587 1276.0
119.107231 200.0
119.163712 104.0
119.233246 232.0
120.085403 340.0
120.181313 176.0
121.098679 176.0
121.208221 84.0
121.313423 64.0
121.875275 164.0
122.070587 216.0
122.590431 192.0
122.698441 96.0
123.464653 204.0
123.925087 200.0
124.082451 104.0
124.413017 148.0
125.793243 140.0
126.226685 176.0
126.522026 184.0
127.050926 112.0
128.06279 508.0
128.897217 196.0
128.944672 260.0
129.07074 656.0
130.074738 404.0
130.8638 44.0
131.0867 892.0
131.372025 140.0
131.593414 160.0
131.942963 68.0
132.055023 68.0
132.088303 212.0
132.382294 220.0
132.560974 160.0
132.842987 44.0
133.065323 164.0
133.099579 908.0
133.141373 36.0
134.07312 148.0
134.945663 124.0
135.081619 184.0
135.11644 384.0
135.301971 144.0
136.085617 112.0
136.44574 140.0
137.446442 148.0
137.617676 172.0
138.14119 68.0
138.909546 216.0
139.071442 152.0
139.113708 184.0
139.971863 160.0
140.469162 108.0
141.071182 356.0
141.523224 52.0
142.077911 824.0
142.229691 104.0
142.500427 48.0
142.902237 164.0
142.980759 60.0
143.085098 1568.0
143.595444 108.0
144.056229 188.0
144.09256 520.0
144.560623 164.0
144.651566 164.0
144.744934 192.0
145.042023 260.0
145.066254 148.0
145.100815 1084.0
145.190674 40.0
146.103073 168.0
146.351334 96.0
147.082352 484.0
147.114899 300.0
147.627853 72.0
149.094635 112.0
149.135162 152.0
150.768814 216.0
151.118057 180.0
152.334503 160.0
152.38118 164.0
152.646652 180.0
153.075516 228.0
153.417313 160.0
154.077698 504.0
154.414886 188.0
154.508881 172.0
155.046219 128.0
155.085648 716.0
155.214783 176.0
155.237106 232.0
156.001831 140.0
156.093781 548.0
156.355042 220.0
157.052658 136.0
157.100769 1916.0
157.127502 144.0
158.072479 160.0
158.108032 180.0
158.482635 104.0
159.085464 388.0
159.116867 1168.0
159.179962 48.0
160.088974 188.0
160.115387 188.0
160.47583 124.0
161.098495 180.0
161.158188 104.0
161.377213 80.0
161.442947 72.0
162.103668 328.0
162.839386 216.0
163.112167 204.0
163.546234 40.0
164.116882 128.0
164.157684 48.0
165.072845 148.0
165.123032 136.0
165.271408 100.0
166.077805 180.0
167.08548 976.0
167.214035 48.0
167.711136 72.0
167.914825 124.0
167.9561 32.0
168.08754 460.0
168.34581 196.0
168.423294 60.0
168.549881 124.0
168.728226 76.0
169.103622 1088.0
169.543594 116.0
170.10733 652.0
171.078537 348.0
171.117554 1164.0
171.341721 44.0
172.090256 248.0
172.124359 184.0
172.171204 140.0
172.356674 124.0
173.097214 188.0
173.129776 564.0
173.170273 128.0
173.586975 172.0
174.06456 192.0
174.141495 216.0
175.115784 252.0
175.15155 408.0
175.356277 76.0
176.058044 92.0
177.113342 140.0
177.134537 136.0
177.818634 52.0
178.077423 196.0
179.086304 692.0
179.150818 164.0
180.028336 180.0
180.092758 764.0
180.141312 136.0
181.100235 744.0
181.234756 124.0
181.325867 48.0
182.107437 412.0
182.953659 68.0
183.114853 1072.0
183.282257 60.0
184.126236 364.0
184.677979 136.0
185.095703 308.0
185.13324 1104.0
186.100723 156.0
186.134674 156.0
187.11412 360.0
187.151962 180.0
188.129028 200.0
189.172272 184.0
192.090179 164.0
192.141373 200.0
193.097137 128.0
193.20224 100.0
194.108063 284.0
195.117172 1008.0
195.716827 152.0
196.076187 152.0
196.120239 400.0
196.54747 56.0
196.924347 100.0
197.099625 140.0
197.133438 464.0
198.09256 180.0
198.138077 500.0
199.111343 140.0
199.148331 384.0
199.350525 36.0
199.966431 60.0
200.121262 188.0
200.155884 136.0
201.124954 552.0
201.158752 128.0
202.167786 144.0
203.149445 140.0
203.818176 32.0
205.155869 128.0
206.111984 212.0
207.113998 164.0
208.125031 224.0
209.134048 492.0
210.134109 436.0
211.111023 160.0
211.145493 508.0
211.487137 124.0
212.428879 68.0
212.640686 156.0
213.12944 408.0
213.16066 452.0
213.332016 48.0
213.550095 192.0
214.165222 256.0
214.199188 136.0
215.142563 180.0
215.176147 164.0
216.158249 104.0
217.157242 148.0
218.161484 128.0
219.023697 168.0
219.928909 108.0
221.129807 508.0
222.139023 196.0
222.997467 104.0
223.086639 84.0
223.149689 656.0
224.14917 172.0
224.402527 56.0
224.718689 64.0
225.164261 404.0
226.136612 148.0
226.183044 148.0
226.869034 92.0
227.143524 316.0
229.161575 144.0
229.20134 200.0
235.14682 196.0
236.151428 268.0
237.136414 160.0
237.165527 140.0
239.14502 120.0
239.180374 160.0
239.292892 60.0
240.18042 248.0
241.149796 184.0
241.193222 296.0
241.214859 64.0
242.14621 124.0
242.192657 144.0
243.219009 156.0
245.184692 144.0
246.154892 52.0
250.176559 168.0
251.984711 184.0
252.190125 204.0
253.15506 124.0
253.193817 300.0
254.204956 176.0
254.807648 48.0
255.106384 196.0
255.172577 312.0
255.21553 312.0
257.186462 144.0
260.189178 184.0
264.991516 80.0
265.200012 276.0
265.244293 132.0
266.19165 52.0
268.176178 196.0
271.206848 188.0
271.967102 92.0
272.207153 100.0
274.506958 108.0
279.43576 164.0
282.69577 76.0
283.206696 564.0
283.264954 100.0
284.205231 336.0
286.853851 52.0
301.215393 176.0
302.2341 104.0
321.200592 80.0
324.942566 36.0
325.366058 20.0
331.226166 176.0
335.587219 72.0
352.28476 112.0
481.27301 124.0
493.625031 84.0
625.847717 180.0
749.22522 96.0
776.90625 216.0
777.205872 156.0
841.54541 136.0
853.824463 220.0
886.234863 152.0
965.138367 220.0
971.11438 68.0
972.684143 188.0
983.433716 108.0
988.833801 152.0
1011.043884 152.0
1017.69342 140.0
1028.739258 176.0
1040.704956 84.0
1053.566528 88.0
1070.859863 148.0
1073.668823 124.0
1083.309692 180.0
1083.957764 204.0
1085.728394 148.0
1093.71106 184.0
1097.176025 192.0
1115.985474 80.0
1137.772705 56.0
1141.474731 104.0
1151.198608 184.0
1156.133545 160.0
1160.665405 200.0
1169.102173 180.0
1180.515137 148.0
1180.699707 184.0
1193.956299 216.0
1197.349243 148.0
1200.491699 48.0
1210.712524 112.0
1211.044922 108.0
1216.411743 56.0
1218.856445 164.0
1219.878052 148.0
1225.173828 160.0
1229.671387 184.0
1239.707031 180.0
1245.172119 136.0
1251.543213 152.0
1265.06311 96.0
1276.414917 160.0
1294.325195 140.0
1306.080566 152.0
1314.466431 172.0
1320.288818 184.0
1322.039551 88.0
1322.770508 172.0
1332.175781 136.0
1332.778809 136.0
1336.53064 208.0
1343.904297 144.0
1344.415161 72.0
1353.845581 140.0
1371.286621 180.0
1382.275391 156.0
1385.918457 192.0
1387.37854 224.0
1401.819946 176.0
1406.091797 200.0
1409.386353 248.0
1412.892822 72.0
1421.861938 80.0
1428.263306 104.0
1443.422119 256.0
1448.030762 148.0
1455.507935 156.0
1483.952881 136.0
1492.636963 200.0
1498.748535 128.0
