>compound MLS002153959-01!Napelline5008-52-6
>formula C22H33NO3
>ionization [M+H]+
>parentmass 360.254395
#inchi InChI=1S/C22H33NO3/c1-4-23-10-20(3)6-5-17(25)22-15(20)7-13(18(22)23)21-9-12(11(2)19(21)26)14(24)8-16(21)22/h12-19,24-26H,2,4-10H2,1,3H3/t12-,13-,14-,15+,16+,17-,18?,19+,20-,21-,22-/m0/s1
#inchikey AZAZKLKDEOMJBJ
#Ion_Source LC-ESI
#Instrument qTof
#Compound_Source NIH Pharmacologically Active Library
#PI Dorrestein
#Data_Collector VP/LMS
#Scan -1
#Precursor_MZ 360.256
#ExactMass 359.246
#Charge 1
#CAS_Number N/A
#Pubmed_ID N/A
#Smiles CCN1C[C@]2(C)CC[C@H](O)[C@]3([C@@H]2C[C@H]4C13)[C@@H]5C[C@H](O)[C@H]6C[C@]45[C@H](O)C6=C
#INCHI_AUX N/A
#Library_Class 1
#SpectrumID CCMSLIB00000085411
#IonMode Positive
#UpdateWorkflowName UPDATE-SINGLE-ANNOTATED-GOLD
#LibraryQualityString Gold
#TaskID d252d724072548979f1f6f1ced849daf
##Scan# 1190
#SpectrumFile p4-A06_GA6_01_18331.mzXML
#LibraryName Pharm_Active_Library.mgf
#MQScore -1
#Organism Pharm_Active_Library
#TIC_Query 0
#RT_Query -1
#MZErrorPPM -1
#SharedPeaks 0
#MassDiff 0
#LibMZ -1
#SpecMZ 360.256
#SpecCharge 0
#internalFilename spec-00000.mgf

>collision 10
44.919415 152.0
44.952732 48.0
45.06356 196.0
45.107662 172.0
45.13649 192.0
45.198605 144.0
45.270889 148.0
45.304375 152.0
45.388813 92.0
45.607639 104.0
45.664112 196.0
45.682755 224.0
45.78793 144.0
45.805439 80.0
45.818913 176.0
45.915962 124.0
45.99287 32.0
46.037998 160.0
46.138763 124.0
46.186092 176.0
46.196911 140.0
46.209087 40.0
46.218559 168.0
46.229385 124.0
46.24229 224.0
46.370995 156.0
46.496361 160.0
46.52758 152.0
46.549305 124.0
46.576466 108.0
46.619942 168.0
46.640331 144.0
46.687916 104.0
46.698795 76.0
46.750641 184.0
46.803581 116.0
46.851254 160.0
47.048996 160.0
47.058552 160.0
47.091328 152.0
47.125481 112.0
47.155441 164.0
47.181515 156.0
47.208858 180.0
47.370365 164.0
47.432793 136.0
47.496475 228.0
47.556847 112.0
47.607643 140.0
47.64061 156.0
47.659843 128.0
47.751842 156.0
47.793217 132.0
47.885452 168.0
47.924023 180.0
47.973637 128.0
48.216129 164.0
48.221119 232.0
48.244213 200.0
48.263569 124.0
48.400436 144.0
48.438507 148.0
48.464268 144.0
48.575176 104.0
48.648724 168.0
48.666775 132.0
48.766796 132.0
48.776524 104.0
48.997791 208.0
49.053532 76.0
49.085598 168.0
49.106518 136.0
49.141392 104.0
49.159492 136.0
49.181862 152.0
49.201405 212.0
49.216717 120.0
49.317348 100.0
49.377953 300.0
49.443222 144.0
49.541237 184.0
49.57206 136.0
49.581154 104.0
49.601494 200.0
49.619717 152.0
49.685631 144.0
49.715099 168.0
49.752995 216.0
49.781078 144.0
49.818275 140.0
49.847099 124.0
50.004608 128.0
50.072186 48.0
50.105991 116.0
50.245564 156.0
50.313309 112.0
50.331661 148.0
50.538029 56.0
50.567745 188.0
50.617294 48.0
50.627205 156.0
50.6782 84.0
50.689537 164.0
50.699455 176.0
50.744816 196.0
50.757576 192.0
50.840649 180.0
50.889534 156.0
50.93782 148.0
51.077122 52.0
51.088501 108.0
51.10273 84.0
51.215191 144.0
51.285007 200.0
51.329205 188.0
51.362007 60.0
51.483322 112.0
51.522591 152.0
51.810871 136.0
51.876793 100.0
51.909767 120.0
51.982925 224.0
52.038906 148.0
52.135147 140.0
52.163895 168.0
52.17683 156.0
52.249443 204.0
52.320698 160.0
52.332214 164.0
52.388382 56.0
52.476295 180.0
52.562836 132.0
52.573475 172.0
52.623764 132.0
52.685562 148.0
52.7197 204.0
52.806984 176.0
52.843147 184.0
52.879322 120.0
52.89669 108.0
52.909721 116.0
52.969566 196.0
52.989376 160.0
53.053738 144.0
53.066193 192.0
53.082142 212.0
53.113892 184.0
53.201115 72.0
53.251938 160.0
53.345608 160.0
53.369644 124.0
53.439461 208.0
53.460022 184.0
53.471474 140.0
53.507866 188.0
53.553009 108.0
53.608368 100.0
53.641891 124.0
53.678341 32.0
53.757111 96.0
53.803818 144.0
53.833019 136.0
53.844704 364.0
53.983536 124.0
54.037136 168.0
54.066925 144.0
54.081558 164.0
54.132801 168.0
54.145378 204.0
54.192856 160.0
54.26907 164.0
54.2896 124.0
54.373222 148.0
54.395237 160.0
54.408451 204.0
54.499508 140.0
54.552418 104.0
54.631828 140.0
54.645069 196.0
54.678913 84.0
54.784931 28.0
54.798187 352.0
54.870407 160.0
54.944145 124.0
55.009079 76.0
55.037128 268.0
55.057804 132.0
55.07848 180.0
55.204105 200.0
55.233685 148.0
55.269192 120.0
55.343197 160.0
55.393551 168.0
55.440964 68.0
55.457706 148.0
55.504707 140.0
55.592228 64.0
55.687241 68.0
55.719135 136.0
55.752609 164.0
55.766598 204.0
55.831402 120.0
55.92067 180.0
55.957771 160.0
56.010006 144.0
56.04427 136.0
56.071091 148.0
56.120285 68.0
56.254555 184.0
56.279076 132.0
56.309803 164.0
56.362957 220.0
56.445793 40.0
56.474209 152.0
56.49754 208.0
56.580173 236.0
56.613396 108.0
56.688297 88.0
56.749752 128.0
56.808243 148.0
56.958351 132.0
56.970371 132.0
57.080086 72.0
57.140251 128.0
57.177868 80.0
57.20195 204.0
57.245613 184.0
57.25766 44.0
57.305866 108.0
57.378208 128.0
57.420429 100.0
57.434002 148.0
57.452106 108.0
57.510956 104.0
57.584938 156.0
57.604572 116.0
57.647076 216.0
57.687687 52.0
57.713387 196.0
57.806801 228.0
57.893459 284.0
58.022781 196.0
58.146637 136.0
58.160294 140.0
58.219505 148.0
58.239346 252.0
58.325859 224.0
58.363865 192.0
58.374512 112.0
58.385155 180.0
58.596737 72.0
58.621117 32.0
58.6455 84.0
58.671413 120.0
58.735462 132.0
58.790386 40.0
58.831596 176.0
58.88657 128.0
58.956844 152.0
58.982681 168.0
59.06081 204.0
59.106518 164.0
59.181709 184.0
59.221523 164.0
59.24297 204.0
59.256756 156.0
59.307327 216.0
59.354851 124.0
59.38092 176.0
59.420807 96.0
59.443821 192.0
59.486794 148.0
59.720356 152.0
59.736107 148.0
59.754196 308.0
59.800362 144.0
59.848083 112.0
60.042248 96.0
60.053043 128.0
60.079266 128.0
60.105495 200.0
60.149532 284.0
60.18576 148.0
60.445442 200.0
60.584785 144.0
60.617325 156.0
60.64212 168.0
60.670021 144.0
60.693279 136.0
60.910549 184.0
60.929192 40.0
60.972698 180.0
61.053539 140.0
61.140659 164.0
61.199814 196.0
61.223171 152.0
61.252762 92.0
61.265224 140.0
61.31197 128.0
61.450748 188.0
61.513172 136.0
61.54752 160.0
61.691257 188.0
61.724239 124.0
61.792908 180.0
61.868031 152.0
61.930668 140.0
61.971397 92.0
61.991112 48.0
62.029381 204.0
62.085827 116.0
62.104645 164.0
62.150715 212.0
62.321285 176.0
62.373146 204.0
62.467495 168.0
62.593712 204.0
62.612705 140.0
62.65168 148.0
62.866112 32.0
62.894089 160.0
62.989262 104.0
63.106209 168.0
63.138268 292.0
63.226429 180.0
63.257156 164.0
63.282898 172.0
63.30875 176.0
63.337257 64.0
63.418068 100.0
63.448441 124.0
63.663975 192.0
63.772011 188.0
63.808571 208.0
63.900818 128.0
64.018608 172.0
64.149513 196.0
64.203468 152.0
64.232178 176.0
64.277565 208.0
64.291206 196.0
64.478058 148.0
64.516418 168.0
64.527611 216.0
64.605972 164.0
64.724411 136.0
64.758942 148.0
64.846161 236.0
64.946976 128.0
64.971237 92.0
65.019371 100.0
65.11731 136.0
65.133369 156.0
65.184776 188.0
65.253891 68.0
65.352005 72.0
65.41964 164.0
65.437309 232.0
65.471123 120.0
65.500114 80.0
65.513 220.0
65.535553 168.0
65.574234 284.0
65.608078 180.0
65.709686 88.0
65.733887 124.0
65.772621 180.0
65.795219 144.0
65.811363 48.0
65.901093 188.0
65.934135 52.0
65.955147 204.0
66.05378 96.0
66.084518 44.0
66.137924 120.0
66.283676 240.0
66.371208 184.0
66.418236 136.0
66.484756 96.0
66.530205 108.0
66.591911 196.0
66.609779 208.0
66.713776 248.0
66.795082 52.0
66.812981 164.0
66.861794 216.0
66.985718 184.0
67.029526 156.0
67.192574 140.0
67.249687 204.0
67.293762 196.0
67.344383 84.0
67.376472 156.0
67.424438 136.0
67.50618 180.0
67.556885 148.0
67.571609 36.0
67.588676 224.0
67.74514 188.0
67.812691 180.0
67.841309 172.0
67.853302 168.0
67.865845 184.0
67.909058 148.0
68.106018 124.0
68.221039 132.0
68.449738 208.0
68.528801 160.0
68.555161 104.0
68.734123 212.0
68.77758 168.0
68.810829 104.0
68.845505 200.0
69.004135 176.0
69.116608 116.0
69.145615 136.0
69.172325 216.0
69.187775 136.0
69.20433 140.0
69.311989 96.0
69.34845 140.0
69.388237 108.0
69.408134 268.0
69.433006 152.0
69.484428 152.0
69.512634 160.0
69.532547 96.0
69.577362 184.0
69.667007 184.0
69.72686 196.0
69.809982 136.0
69.916451 128.0
69.941795 164.0
69.970695 120.0
70.023003 164.0
70.151299 148.0
70.172974 160.0
70.221336 264.0
70.274712 108.0
70.371521 348.0
70.391556 204.0
70.409927 156.0
70.433311 184.0
70.478416 196.0
70.490112 152.0
70.540253 148.0
70.565331 136.0
70.582047 120.0
70.635567 180.0
70.658989 200.0
70.700821 152.0
70.761078 44.0
70.786194 128.0
70.870621 244.0
70.965477 172.0
71.039268 152.0
71.092964 156.0
71.134926 128.0
71.158424 136.0
71.17627 192.0
71.22728 28.0
71.259193 148.0
71.304565 192.0
71.346588 144.0
71.405441 160.0
71.460953 200.0
71.500526 116.0
71.58046 168.0
71.612457 164.0
71.629303 184.0
71.662071 160.0
71.684898 96.0
71.720642 116.0
71.754005 152.0
71.774239 180.0
71.852722 188.0
71.870384 200.0
71.899071 176.0
72.005432 56.0
72.034142 120.0
72.074692 144.0
72.171036 140.0
72.187943 144.0
72.291138 108.0
72.343315 140.0
72.483543 96.0
72.519768 164.0
72.548584 184.0
72.587578 180.0
72.612732 168.0
72.681732 216.0
72.752502 176.0
72.770828 272.0
72.843857 80.0
72.932213 148.0
73.022331 152.0
73.2453 52.0
73.279373 164.0
73.337311 56.0
73.552223 176.0
73.576126 152.0
73.599739 220.0
73.636887 116.0
73.745232 148.0
73.764038 128.0
73.859795 144.0
73.955612 48.0
74.116592 88.0
74.149147 140.0
74.200577 224.0
74.296616 172.0
74.308624 148.0
74.380699 120.0
74.396149 160.0
74.490601 184.0
74.595421 148.0
74.626366 164.0
74.720955 136.0
74.755371 152.0
74.800117 144.0
74.850044 124.0
74.936447 124.0
74.949951 208.0
74.9758 144.0
75.039581 108.0
75.136162 112.0
75.155136 112.0
75.196556 192.0
75.384521 200.0
75.422821 136.0
75.452202 132.0
75.575005 96.0
75.604416 44.0
75.681107 132.0
75.722145 172.0
75.791298 196.0
75.815697 200.0
75.902374 228.0
75.916245 108.0
76.084549 148.0
76.119278 76.0
76.140045 104.0
76.198318 220.0
76.242615 132.0
76.254776 136.0
76.327789 188.0
76.343445 104.0
76.375435 172.0
76.395622 228.0
76.500038 132.0
76.524406 136.0
76.548782 96.0
76.599289 164.0
76.611488 164.0
76.660271 140.0
76.679443 128.0
76.697006 152.0
76.801491 160.0
76.883492 188.0
76.934105 124.0
77.099831 228.0
77.227669 176.0
77.323898 68.0
77.353653 196.0
77.439453 160.0
77.458717 232.0
77.483246 196.0
77.499008 168.0
77.604172 80.0
77.625214 196.0
77.700638 136.0
77.736427 212.0
77.755035 48.0
77.856857 112.0
77.912094 204.0
77.944695 108.0
77.962265 60.0
78.118744 172.0
78.143379 188.0
78.208488 188.0
78.227112 256.0
78.270103 100.0
78.310608 96.0
78.357208 160.0
78.486839 100.0
78.535812 88.0
78.569733 124.0
78.629723 112.0
78.670319 176.0
78.695587 168.0
78.825745 144.0
78.875229 124.0
78.947723 180.0
78.976021 176.0
79.041473 132.0
79.075096 152.0
79.246872 196.0
79.26104 132.0
79.273445 216.0
79.337257 176.0
79.395203 200.0
79.432297 148.0
79.482948 164.0
79.694328 172.0
79.715309 176.0
79.766846 244.0
79.795296 196.0
79.829079 92.0
79.873543 156.0
79.928688 176.0
79.989014 152.0
80.039047 140.0
80.056854 100.0
80.118378 164.0
80.220779 180.0
80.263565 160.0
80.288528 112.0
80.304581 100.0
80.409843 168.0
80.540184 188.0
80.591988 152.0
80.709961 148.0
80.75351 148.0
80.881706 120.0
80.92646 136.0
80.940781 144.0
80.974808 132.0
81.026756 152.0
81.311867 180.0
81.362122 160.0
81.410248 260.0
81.533737 140.0
81.550735 208.0
81.615456 180.0
81.637032 136.0
81.825966 152.0
81.840363 104.0
81.865578 152.0
81.879982 200.0
81.906998 120.0
81.950233 164.0
82.029533 120.0
82.06559 144.0
82.184631 156.0
82.24688 140.0
82.276672 148.0
82.307098 132.0
82.432007 212.0
82.504303 108.0
82.522385 140.0
82.641754 184.0
82.686996 168.0
82.763023 200.0
82.782944 100.0
82.89344 224.0
83.018852 156.0
83.043915 164.0
83.261703 140.0
83.298027 216.0
83.323463 228.0
83.339813 60.0
83.576187 100.0
83.727272 168.0
83.754593 172.0
83.783745 164.0
83.825645 224.0
83.896729 152.0
83.945015 116.0
84.020744 48.0
84.059059 100.0
84.088257 60.0
84.111946 220.0
84.132065 188.0
84.203278 208.0
84.231461 232.0
84.307411 108.0
84.382355 128.0
84.40612 112.0
84.422577 36.0
84.497574 132.0
84.562721 120.0
84.579926 176.0
84.607323 236.0
84.801552 200.0
84.834579 212.0
84.955574 140.0
85.087708 124.0
85.188713 184.0
85.219948 164.0
85.250694 164.0
85.265884 180.0
85.372513 76.0
85.390907 132.0
85.411133 192.0
85.536263 100.0
85.584129 204.0
85.641846 188.0
85.664024 188.0
85.740707 104.0
85.83461 136.0
85.895584 32.0
86.002602 72.0
86.076447 208.0
86.094772 156.0
86.102097 144.0
86.242714 92.0
86.324066 132.0
86.375847 116.0
86.422096 52.0
86.473915 88.0
86.518341 132.0
86.553513 112.0
86.71283 108.0
86.740631 96.0
86.78804 180.0
86.877861 196.0
86.894554 196.0
86.920532 156.0
87.048615 188.0
87.128479 104.0
87.160065 156.0
87.238815 172.0
87.277168 168.0
87.350594 232.0
87.471046 172.0
87.491127 160.0
87.528175 196.0
87.623352 136.0
87.751953 140.0
87.819084 104.0
87.882515 136.0
87.912369 112.0
87.98143 116.0
88.028107 156.0
88.102814 156.0
88.123367 112.0
88.151398 140.0
88.168152 124.0
88.209335 184.0
88.224411 124.0
88.252335 192.0
88.265419 132.0
88.28038 112.0
88.334618 112.0
88.451035 132.0
88.50634 180.0
88.534889 96.0
88.711014 156.0
88.757881 88.0
88.772881 156.0
88.842285 196.0
88.919212 56.0
88.962387 48.0
88.984909 184.0
89.026222 152.0
89.050636 108.0
89.279587 136.0
89.330704 352.0
89.384888 220.0
89.417259 116.0
89.473724 356.0
89.54422 184.0
89.584839 156.0
89.619865 216.0
89.66774 104.0
89.726181 140.0
89.754463 228.0
89.780861 96.0
89.899712 120.0
89.98465 180.0
90.026192 108.0
90.068542 132.0
90.150955 180.0
90.180565 168.0
90.215843 140.0
90.275635 156.0
90.294548 80.0
90.341835 108.0
90.406166 172.0
90.419411 140.0
90.483772 112.0
90.591713 172.0
90.804008 152.0
90.872299 152.0
90.950104 124.0
90.963387 164.0
90.999886 144.0
91.029839 132.0
91.055 1540.0
91.102013 140.0
91.11721 172.0
91.166618 172.0
91.274971 160.0
91.316803 176.0
91.377678 144.0
91.448082 120.0
91.493767 128.0
91.52314 160.0
91.560417 156.0
91.576622 196.0
91.642326 68.0
91.689964 196.0
91.716644 300.0
91.754768 164.0
91.893784 220.0
92.002777 52.0
92.02951 180.0
92.056244 316.0
92.071434 176.0
92.124046 144.0
92.307289 96.0
92.356293 96.0
92.406029 224.0
92.522774 116.0
92.616608 96.0
92.762238 124.0
92.775658 216.0
92.804413 156.0
92.825508 72.0
92.934837 76.0
93.038734 180.0
93.071053 1436.0
93.169067 192.0
93.184433 128.0
93.217102 56.0
93.305519 124.0
93.451843 148.0
93.482475 128.0
93.586418 188.0
93.644188 160.0
93.709679 116.0
93.745308 220.0
93.79895 136.0
93.83667 148.0
93.861954 176.0
93.881233 184.0
93.981544 156.0
94.016273 224.0
94.029785 212.0
94.070229 168.0
94.195831 136.0
94.228676 108.0
94.323364 236.0
94.389099 124.0
94.505157 144.0
94.526443 132.0
94.551598 160.0
94.642578 48.0
94.661942 136.0
94.677437 156.0
94.791725 104.0
94.840179 208.0
94.9216 184.0
94.943756 160.0
95.001122 232.0
95.054565 168.0
95.087326 1220.0
95.104897 156.0
95.138908 152.0
95.154442 52.0
95.209526 136.0
95.230171 144.0
95.494713 148.0
95.564529 100.0
95.684311 140.0
95.762146 148.0
95.794258 116.0
95.823479 136.0
95.858551 160.0
95.994843 148.0
96.051559 216.0
96.070358 164.0
96.085236 540.0
96.205719 132.0
96.291634 136.0
96.358055 104.0
96.414154 208.0
96.444038 100.0
96.469444 112.0
96.514412 136.0
96.538506 124.0
96.586769 116.0
96.659157 132.0
96.684601 196.0
96.719826 128.0
96.73745 244.0
96.75898 164.0
96.813805 28.0
96.851021 176.0
96.864731 172.0
96.880402 128.0
96.901947 76.0
96.958778 152.0
97.013657 120.0
97.067467 144.0
97.088165 344.0
97.156815 140.0
97.29998 160.0
97.321358 172.0
97.429047 180.0
97.58889 136.0
97.717087 180.0
97.832848 216.0
97.96479 148.0
98.043602 156.0
98.097984 5500.0
98.19738 116.0
98.223595 164.0
98.250641 164.0
98.2892 172.0
98.317726 104.0
98.341408 220.0
98.385849 132.0
98.426292 204.0
98.48082 204.0
98.542831 200.0
98.564568 76.0
98.700951 80.0
98.73259 128.0
98.766212 68.0
98.795883 188.0
98.841393 196.0
98.875275 164.0
98.912636 136.0
98.989853 104.0
99.097763 396.0
99.147446 196.0
99.194908 136.0
99.269257 108.0
99.519279 144.0
99.568924 148.0
99.586792 44.0
99.692696 144.0
99.700584 44.0
99.70488 156.0
99.731842 152.0
99.760948 56.0
99.791473 140.0
99.809654 392.0
99.857101 36.0
99.948608 144.0
99.980446 88.0
100.03701 124.0
100.056084 52.0
100.072014 108.0
100.10965 300.0
100.181549 156.0
100.430717 140.0
100.487518 128.0
100.558411 80.0
100.604736 276.0
100.666214 120.0
100.68618 104.0
100.762085 168.0
100.800049 168.0
100.82003 192.0
100.915985 116.0
100.959785 128.0
100.995972 204.0
101.106499 164.0
101.146042 108.0
101.258163 200.0
101.274193 172.0
101.346306 132.0
101.378372 92.0
101.398407 164.0
101.412735 136.0
101.528725 44.0
101.580872 180.0
101.596916 116.0
101.817711 192.0
101.833313 120.0
101.851852 76.0
102.048859 136.0
102.074936 140.0
102.093033 144.0
102.156075 188.0
102.177513 88.0
102.195625 128.0
102.229828 56.0
102.3647 144.0
102.386856 224.0
102.445267 168.0
102.471458 76.0
102.543999 172.0
102.564156 168.0
102.646812 292.0
102.691177 212.0
102.864708 152.0
102.915176 112.0
102.931068 132.0
102.971107 132.0
103.028282 192.0
103.054962 496.0
103.082832 100.0
103.131332 144.0
103.214218 156.0
103.315346 216.0
103.404381 168.0
103.436768 212.0
103.469154 124.0
103.513695 108.0
103.540024 148.0
103.582558 132.0
103.694 124.0
103.766975 92.0
103.793327 164.0
103.860252 76.0
103.890686 100.0
103.947495 248.0
104.004318 100.0
104.05304 140.0
104.124107 156.0
104.176918 224.0
104.416763 128.0
104.454575 132.0
104.477791 116.0
104.589706 116.0
104.656891 192.0
104.726128 228.0
104.750572 72.0
104.770943 52.0
104.785202 236.0
104.799461 224.0
104.842255 112.0
104.893295 96.0
104.909515 224.0
104.964569 100.0
105.002693 184.0
105.070923 6932.0
105.139999 164.0
105.209755 140.0
105.260445 164.0
105.282043 92.0
105.309456 52.0
105.32988 136.0
105.356438 136.0
105.397301 168.0
105.493355 72.0
105.523697 100.0
105.577675 156.0
105.628319 144.0
105.690628 148.0
105.710159 84.0
105.947662 132.0
105.994789 132.0
106.073486 692.0
106.119019 164.0
106.179283 144.0
106.302338 224.0
106.421425 164.0
106.491249 360.0
106.55954 164.0
106.584831 36.0
106.622734 172.0
106.734863 184.0
106.762535 176.0
106.853035 172.0
106.896622 132.0
106.964165 104.0
106.980629 188.0
107.047874 584.0
107.086731 10508.0
107.130234 192.0
107.233986 36.0
107.275215 40.0
107.29348 144.0
107.320564 60.0
107.367996 80.0
107.382431 192.0
107.5383 176.0
107.652786 168.0
107.674011 160.0
107.702347 120.0
107.760193 108.0
107.811852 276.0
107.840782 168.0
107.915207 188.0
107.942085 88.0
107.976845 148.0
108.089424 796.0
108.285889 180.0
108.304253 148.0
108.333473 188.0
108.443077 272.0
108.492821 108.0
108.577835 128.0
108.639458 192.0
108.656662 164.0
108.67852 112.0
108.712685 180.0
108.866302 196.0
108.907837 192.0
108.950447 156.0
109.028343 292.0
109.068077 812.0
109.100113 504.0
109.136436 132.0
109.157227 200.0
109.271622 96.0
109.323006 216.0
109.36319 156.0
109.390244 224.0
109.434662 132.0
109.519348 144.0
109.586006 128.0
109.68187 120.0
109.721481 40.0
109.84243 156.0
109.870804 140.0
109.896667 208.0
109.915451 92.0
109.932144 120.0
109.992668 192.0
110.013542 160.0
110.049034 88.0
110.071716 176.0
110.097618 2184.0
110.138832 96.0
110.211952 196.0
110.253746 64.0
110.278824 200.0
110.326904 240.0
110.368538 168.0
110.433548 132.0
110.519318 160.0
110.580559 164.0
110.71064 120.0
110.749596 96.0
110.764259 116.0
110.858536 108.0
110.938179 124.0
111.059799 188.0
111.099258 400.0
111.173096 160.0
111.44397 216.0
111.4888 120.0
111.519623 48.0
111.63253 232.0
111.656281 100.0
111.680328 204.0
111.698349 48.0
111.837219 148.0
111.86248 144.0
111.877213 128.0
111.902481 104.0
111.921432 156.0
111.976181 140.0
112.049904 132.0
112.11216 588.0
112.191109 196.0
112.294426 176.0
112.313408 96.0
112.357712 76.0
112.404129 196.0
112.437897 44.0
112.454781 168.0
112.475883 116.0
112.503326 156.0
112.520218 112.0
112.611015 128.0
112.735016 92.0
112.741081 64.0
112.749397 128.0
112.773705 80.0
112.805412 128.0
112.842361 144.0
112.875175 96.0
113.076149 180.0
113.115128 248.0
113.155693 152.0
113.179878 148.0
113.237053 160.0
113.256119 204.0
113.478271 120.0
113.501953 104.0
113.530991 164.0
113.550728 120.0
113.570496 200.0
113.635574 164.0
113.654671 132.0
113.699234 52.0
113.745926 160.0
113.760788 188.0
113.828728 132.0
113.883942 168.0
113.90731 196.0
113.956024 176.0
114.005043 140.0
114.100693 164.0
114.134712 136.0
114.17086 156.0
114.190002 116.0
114.247437 96.0
114.26445 320.0
114.294243 228.0
114.311264 44.0
114.332542 116.0
114.358086 128.0
114.375107 180.0
114.460266 112.0
114.487953 136.0
114.590195 160.0
114.632812 208.0
114.692482 100.0
114.745773 120.0
114.83107 196.0
114.867332 120.0
114.888664 184.0
114.950539 152.0
114.980415 180.0
115.054413 956.0
115.082878 60.0
115.097824 164.0
115.123451 148.0
115.170433 88.0
115.223839 120.0
115.247345 96.0
115.305038 236.0
115.37558 136.0
115.40551 208.0
115.43544 124.0
115.499603 144.0
115.541176 148.0
115.589462 96.0
115.662224 228.0
115.702896 144.0
116.015671 48.0
116.061752 1180.0
116.114311 168.0
116.189384 136.0
116.219421 168.0
116.337463 104.0
116.379387 116.0
116.395279 116.0
116.431938 156.0
116.453415 192.0
116.473564 136.0
116.575867 76.0
116.674744 156.0
116.761826 144.0
116.89843 80.0
117.070686 6332.0
117.152199 116.0
117.24514 160.0
117.262383 128.0
117.305496 40.0
117.322647 200.0
117.327911 80.0
117.437027 148.0
117.464241 168.0
117.486633 212.0
117.505013 108.0
117.565102 196.0
117.603477 188.0
117.803978 172.0
117.821922 156.0
117.853668 140.0
117.92498 44.0
117.997307 104.0
118.075813 328.0
118.113091 172.0
118.130394 48.0
118.158516 36.0
118.216934 184.0
118.258057 104.0
118.277534 148.0
118.312172 52.0
118.384651 204.0
118.552597 104.0
118.56926 180.0
118.574898 124.0
118.747902 92.0
118.910431 104.0
118.953842 164.0
118.999428 156.0
119.051544 172.0
119.085495 3596.0
119.123909 112.0
119.140594 40.0
119.181877 228.0
119.255157 200.0
119.294891 180.0
119.356392 152.0
119.431885 80.0
119.486267 148.0
119.590714 64.0
119.636429 144.0
119.732231 184.0
119.788864 104.0
119.828079 116.0
119.934853 88.0
119.987175 140.0
120.058151 128.0
120.089996 420.0
120.191307 188.0
120.214012 152.0
120.261436 176.0
120.329109 192.0
120.386467 200.0
120.445442 144.0
120.550308 128.0
120.591835 44.0
120.696762 240.0
120.775497 164.0
120.812683 180.0
120.854248 156.0
120.874985 168.0
120.914261 104.0
120.954918 156.0
120.978996 96.0
120.998703 40.0
121.065338 424.0
121.103462 192.0
121.226494 92.0
121.248413 92.0
121.268135 160.0
121.295609 184.0
121.390648 172.0
121.425995 48.0
121.445732 176.0
121.494629 204.0
121.616875 144.0
121.71698 80.0
121.730476 188.0
121.772758 136.0
121.867218 156.0
121.882599 168.0
121.955124 128.0
122.049652 228.0
122.07164 304.0
122.09771 828.0
122.216217 116.0
122.318054 128.0
122.428085 160.0
122.450165 200.0
122.474388 140.0
122.544884 240.0
122.642876 128.0
122.666092 152.0
122.736641 184.0
122.769722 212.0
122.805008 128.0
122.853531 172.0
122.979591 124.0
123.044777 176.0
123.080276 628.0
123.113777 128.0
123.329361 160.0
123.376915 160.0
123.500748 188.0
123.573753 160.0
123.629066 196.0
123.761887 104.0
123.854897 156.0
123.881477 156.0
123.972321 120.0
124.047676 188.0
124.084114 320.0
124.111954 744.0
124.203308 108.0
124.227295 32.0
124.296074 128.0
124.313828 92.0
124.343086 176.0
124.398163 132.0
124.442566 120.0
124.500298 56.0
124.549164 140.0
124.65802 136.0
124.775826 148.0
124.858101 160.0
124.953751 124.0
124.993797 216.0
125.042755 148.0
125.062057 208.0
125.119102 240.0
125.165192 172.0
125.232002 112.0
125.254272 160.0
125.338936 144.0
125.410248 64.0
125.439224 160.0
125.461517 240.0
125.494957 144.0
125.552933 208.0
125.58416 156.0
125.626541 156.0
125.738106 120.0
125.833099 144.0
125.893059 184.0
125.965851 160.0
126.052979 48.0
126.095444 164.0
126.124077 128.0
126.189384 312.0
126.227341 180.0
126.26088 40.0
126.363777 92.0
126.439857 296.0
126.569695 132.0
126.659279 84.0
126.757851 188.0
126.834053 132.0
126.899467 132.0
126.974998 180.0
127.003372 148.0
127.029137 92.0
127.054802 140.0
127.070312 204.0
127.127853 188.0
127.177231 84.0
127.379318 184.0
127.693054 220.0
127.718735 120.0
127.982033 132.0
127.997795 96.0
128.024826 164.0
128.061996 1588.0
128.139694 148.0
128.155472 168.0
128.225327 40.0
128.280609 128.0
128.306473 124.0
128.344803 124.0
128.389893 180.0
128.428238 96.0
128.466583 204.0
128.490906 184.0
128.552322 140.0
128.60762 168.0
128.701309 124.0
128.750977 172.0
128.775818 112.0
128.904602 120.0
129.013824 148.0
129.018631 176.0
129.070068 2652.0
129.128403 136.0
129.191742 120.0
129.227737 140.0
129.257355 156.0
129.295822 260.0
129.319611 236.0
129.372772 124.0
129.472412 148.0
129.490524 128.0
129.551682 52.0
129.667236 112.0
129.683105 108.0
129.94162 144.0
129.98703 220.0
130.031158 156.0
130.077209 1212.0
130.125458 72.0
130.164047 192.0
130.21402 68.0
130.254898 176.0
130.304871 152.0
130.429855 140.0
130.44577 128.0
130.664093 148.0
130.68457 72.0
130.808319 148.0
130.861755 192.0
130.954041 224.0
130.978241 204.0
131.007843 196.0
131.049683 176.0
131.086334 4860.0
131.165085 80.0
131.299606 88.0
131.342941 240.0
131.396057 168.0
131.443314 168.0
131.48587 192.0
131.543747 44.0
131.668015 140.0
131.703583 112.0
131.728699 168.0
131.829041 96.0
131.85437 132.0
131.932083 92.0
132.090317 812.0
132.213425 176.0
132.244568 152.0
132.270798 116.0
132.293533 68.0
132.35701 116.0
132.417191 80.0
132.490616 140.0
132.517975 192.0
132.589005 168.0
132.607346 92.0
132.648605 280.0
132.671524 108.0
132.740311 180.0
132.758652 172.0
132.837234 184.0
132.857285 124.0
132.949066 116.0
133.064667 916.0
133.102676 2776.0
133.148636 60.0
133.201614 72.0
133.240677 72.0
133.309601 168.0
133.332581 76.0
133.360168 140.0
133.406143 156.0
133.476608 184.0
133.498108 112.0
133.608505 188.0
133.631516 52.0
133.666031 164.0
133.851379 144.0
133.875504 124.0
133.905823 48.0
133.937698 44.0
134.065948 188.0
134.102509 876.0
134.149689 172.0
134.31572 168.0
134.445389 116.0
134.532623 144.0
134.574188 36.0
134.613434 200.0
134.663513 176.0
134.696884 212.0
134.758957 160.0
134.777435 72.0
134.800552 176.0
134.830582 160.0
134.851395 152.0
134.969284 124.0
134.987793 164.0
135.013855 148.0
135.081451 5864.0
135.117264 816.0
135.176651 148.0
135.256165 168.0
135.309402 244.0
135.327927 44.0
135.367294 160.0
135.390442 164.0
135.45993 104.0
135.480774 184.0
135.596634 128.0
135.633713 224.0
135.656891 200.0
135.675446 124.0
135.714859 124.0
135.830811 96.0
135.946823 164.0
135.974274 176.0
136.080673 316.0
136.113495 216.0
136.213821 128.0
136.232407 48.0
136.288498 224.0
136.320694 152.0
136.429932 136.0
136.467133 156.0
136.572632 208.0
136.720612 124.0
136.743958 192.0
136.769562 204.0
136.839386 148.0
136.902771 116.0
136.925552 64.0
136.957077 120.0
136.976791 116.0
136.995422 84.0
137.076981 152.0
137.098373 392.0
137.119965 320.0
137.137573 96.0
137.207504 120.0
137.234451 136.0
137.256454 68.0
137.35907 140.0
137.375412 152.0
137.403397 112.0
137.439102 184.0
137.541077 188.0
137.695175 224.0
137.74086 224.0
137.781601 172.0
137.872726 180.0
138.090164 112.0
138.130341 748.0
138.1884 112.0
138.277328 80.0
138.469315 84.0
138.529617 112.0
138.640335 112.0
138.68721 168.0
138.729401 188.0
138.755188 204.0
138.773941 64.0
138.790359 108.0
138.841629 148.0
138.909958 148.0
138.963913 168.0
138.985031 108.0
139.109421 80.0
139.132614 164.0
139.189255 120.0
139.214951 148.0
139.279388 116.0
139.340164 172.0
139.374817 180.0
139.5746 284.0
139.598114 128.0
139.631042 104.0
139.675735 128.0
139.743958 220.0
139.767487 156.0
139.826309 164.0
140.108063 128.0
140.141861 132.0
140.18898 244.0
140.323334 172.0
140.356354 136.0
140.458237 156.0
140.572876 216.0
140.622925 132.0
140.700195 240.0
140.776382 104.0
140.809433 168.0
140.856674 240.0
140.915741 92.0
140.991348 212.0
141.017349 144.0
141.070831 1976.0
141.154358 160.0
141.199402 128.0
141.286911 36.0
141.36499 56.0
141.393387 112.0
141.461533 152.0
141.625427 156.0
141.736771 132.0
141.766953 200.0
141.85289 88.0
141.957214 156.0
141.978622 144.0
142.007019 132.0
142.076782 1272.0
142.144608 132.0
142.172485 188.0
142.241913 112.0
142.272339 64.0
142.360626 180.0
142.410507 48.0
142.488892 148.0
142.54718 188.0
142.598206 60.0
142.643356 116.0
142.708282 116.0
142.72818 112.0
142.755112 132.0
142.774124 168.0
142.885925 160.0
142.922729 120.0
142.967743 196.0
143.039185 180.0
143.086395 4876.0
143.128693 348.0
143.206558 104.0
143.260971 164.0
143.300186 48.0
143.354996 72.0
143.426498 40.0
143.521851 120.0
143.540924 180.0
143.593384 172.0
143.612473 64.0
143.719818 160.0
143.789032 140.0
143.85817 120.0
143.865952 156.0
144.018234 140.0
144.058701 136.0
144.091507 864.0
144.142456 144.0
144.180695 144.0
144.209381 96.0
144.240448 148.0
144.312164 156.0
144.336075 180.0
144.381516 84.0
144.40303 108.0
144.467621 176.0
144.529816 80.0
144.630341 152.0
144.661453 124.0
144.733276 76.0
144.754822 224.0
144.831467 124.0
144.848236 180.0
144.874588 164.0
144.899826 172.0
144.958435 236.0
145.041779 212.0
145.064377 792.0
145.100967 8912.0
145.181381 148.0
145.279724 136.0
145.303711 80.0
145.348541 120.0
145.4021 168.0
145.450089 108.0
145.52211 112.0
145.56369 192.0
145.618729 188.0
145.656601 164.0
145.786865 180.0
145.935364 188.0
145.953201 180.0
146.044006 180.0
146.099625 1724.0
146.209595 144.0
146.23082 132.0
146.291428 128.0
146.363663 64.0
146.431091 56.0
146.505753 148.0
146.549118 184.0
146.569412 208.0
146.640686 212.0
146.749176 176.0
146.768921 148.0
146.799805 160.0
146.828751 100.0
146.893875 56.0
147.045883 116.0
147.080826 388.0
147.117249 8128.0
147.168991 28.0
147.19313 108.0
147.226135 72.0
147.248672 124.0
147.265579 104.0
147.296982 372.0
147.314926 48.0
147.439545 164.0
147.603638 144.0
147.690048 176.0
147.729691 176.0
147.865189 148.0
147.992615 236.0
148.078232 192.0
148.116104 712.0
148.288635 200.0
148.412659 180.0
148.565445 192.0
148.599411 164.0
148.698898 176.0
148.810562 104.0
148.861557 96.0
148.93927 112.0
149.055374 188.0
149.094711 392.0
149.128799 404.0
149.164581 136.0
149.186676 108.0
149.250946 60.0
149.362213 144.0
149.381668 192.0
149.401138 108.0
149.534958 136.0
149.573914 164.0
149.644501 204.0
149.668854 212.0
149.700516 204.0
149.729736 156.0
149.780884 220.0
149.822296 156.0
150.12677 500.0
150.180618 56.0
150.269043 372.0
150.292847 84.0
150.353775 132.0
150.360092 128.0
150.369522 76.0
150.430252 172.0
150.463684 136.0
150.480774 120.0
150.590668 196.0
150.622421 172.0
150.668839 148.0
150.742126 68.0
150.766571 128.0
150.792786 148.0
150.859451 48.0
150.892654 164.0
150.976212 196.0
151.003708 140.0
151.053986 172.0
151.077133 2524.0
151.128464 152.0
151.251862 172.0
151.282654 232.0
151.331619 112.0
151.35611 32.0
151.419769 160.0
151.468765 40.0
151.485901 140.0
151.555542 132.0
151.586365 76.0
151.686844 232.0
151.757935 196.0
151.787933 204.0
151.819244 96.0
151.865845 52.0
151.937897 112.0
152.041473 164.0
152.061783 460.0
152.070129 168.0
152.077591 336.0
152.108749 104.0
152.202042 188.0
152.231522 88.0
152.275726 132.0
152.305191 280.0
152.447693 144.0
152.691071 240.0
152.750107 64.0
152.789459 144.0
152.806686 156.0
152.853424 204.0
152.89035 220.0
152.95433 36.0
152.989746 188.0
153.03746 240.0
153.06955 680.0
153.097717 120.0
153.15625 164.0
153.257248 156.0
153.315216 168.0
153.395264 244.0
153.525482 176.0
153.587585 112.0
153.641861 128.0
153.703537 124.0
153.737183 184.0
153.960266 92.0
154.079056 752.0
154.123306 108.0
154.251816 244.0
154.279007 164.0
154.303726 92.0
154.343292 120.0
154.576324 136.0
154.734222 208.0
154.791168 172.0
154.820877 84.0
154.929871 112.0
155.000671 172.0
155.057602 196.0
155.086777 3944.0
155.142914 140.0
155.180176 104.0
155.219849 84.0
155.237213 136.0
155.293137 80.0
155.435654 104.0
155.495209 80.0
155.564713 176.0
155.659058 176.0
155.942261 104.0
156.014343 68.0
156.093216 880.0
156.143646 144.0
156.203339 184.0
156.290421 188.0
156.357605 128.0
156.447205 168.0
156.467133 160.0
156.544312 120.0
156.646423 84.0
156.793442 196.0
156.918076 156.0
157.027786 164.0
157.059021 160.0
157.101883 5988.0
157.17746 204.0
157.238281 76.0
157.414597 200.0
157.519897 148.0
157.556976 92.0
157.581955 200.0
157.608185 40.0
157.654419 136.0
157.699402 172.0
157.721893 192.0
157.760452 208.0
157.859406 364.0
157.95694 72.0
158.001785 164.0
158.04451 132.0
158.073715 196.0
158.103821 896.0
158.184174 188.0
158.211716 188.0
158.237228 152.0
158.269775 60.0
158.427567 56.0
158.447601 176.0
158.477661 140.0
158.535294 164.0
158.587936 124.0
158.618011 76.0
158.700745 208.0
158.750168 152.0
158.777634 48.0
158.901764 212.0
158.976135 172.0
159.056976 292.0
159.081528 804.0
159.118027 5832.0
159.162415 92.0
159.18251 100.0
159.222687 144.0
159.240265 108.0
159.287003 132.0
159.371735 88.0
159.411102 120.0
159.444321 324.0
159.539276 200.0
159.624771 84.0
159.692673 64.0
159.811447 236.0
159.861221 148.0
159.886383 228.0
160.007217 104.0
160.083725 256.0
160.117035 976.0
160.186005 168.0
160.203644 140.0
160.234909 108.0
160.496002 224.0
160.609482 72.0
160.685165 144.0
160.72049 208.0
160.844589 160.0
160.975433 184.0
160.99585 96.0
161.043625 80.0
161.097565 580.0
161.13266 1512.0
161.162354 92.0
161.218826 68.0
161.26091 148.0
161.306396 228.0
161.344315 156.0
161.473282 168.0
161.564346 100.0
161.645309 112.0
161.674408 104.0
161.711594 164.0
161.761734 152.0
161.781982 172.0
161.842743 36.0
161.877518 164.0
161.959229 36.0
162.037766 136.0
162.100998 180.0
162.131409 728.0
162.179672 180.0
162.215164 228.0
162.41217 132.0
162.532181 188.0
162.552475 112.0
162.590546 168.0
162.733566 128.0
162.783478 112.0
162.824112 28.0
162.854584 84.0
162.896545 300.0
162.928253 212.0
163.041809 144.0
163.079422 128.0
163.113831 292.0
163.133667 696.0
163.197647 108.0
163.222488 188.0
163.287476 100.0
163.337524 136.0
163.366318 220.0
163.398575 72.0
163.439285 160.0
163.459641 200.0
163.482544 36.0
163.538528 92.0
163.625076 140.0
163.724396 180.0
163.856842 140.0
163.920547 156.0
163.97406 208.0
164.019943 176.0
164.045425 84.0
164.112885 208.0
164.138214 652.0
164.179337 148.0
164.216263 156.0
164.259628 152.0
164.300446 136.0
164.328506 184.0
164.569946 208.0
164.708878 76.0
164.826401 316.0
164.949081 52.0
164.998428 144.0
165.072052 1140.0
165.128922 292.0
165.302017 128.0
165.373398 224.0
165.401825 80.0
165.50679 160.0
165.550797 132.0
165.757812 140.0
165.796249 148.0
165.873154 196.0
165.891083 236.0
165.923676 208.0
166.034668 100.0
166.077164 708.0
166.129578 100.0
166.167175 196.0
166.247604 84.0
166.288666 76.0
166.339996 192.0
166.37851 104.0
166.399048 152.0
166.465805 64.0
166.540283 104.0
166.607071 52.0
166.698807 116.0
166.776672 136.0
166.864075 76.0
166.902634 104.0
166.948914 220.0
167.040527 104.0
167.086212 2268.0
167.139282 256.0
167.209396 176.0
167.249939 160.0
167.278259 124.0
167.327164 52.0
167.383804 92.0
167.515533 136.0
167.574417 140.0
167.615631 48.0
167.662018 144.0
167.692947 152.0
167.790909 104.0
167.814102 192.0
167.83989 44.0
167.868256 152.0
167.943039 36.0
167.973999 304.0
168.054398 168.0
168.092255 956.0
168.130722 188.0
168.164932 120.0
168.193329 224.0
168.226883 108.0
168.42572 176.0
168.454132 108.0
168.599411 176.0
168.618668 100.0
168.743774 152.0
168.927185 36.0
168.991867 228.0
169.068573 192.0
169.100815 5320.0
169.136047 196.0
169.209137 160.0
169.248108 92.0
169.419037 60.0
169.442352 88.0
169.566742 412.0
169.603027 68.0
169.630005 204.0
169.786102 52.0
169.890854 88.0
170.025787 68.0
170.051727 204.0
170.072495 260.0
170.105667 716.0
170.139984 140.0
170.206528 128.0
170.272415 160.0
170.356812 184.0
170.513138 164.0
170.576416 228.0
170.612808 96.0
170.685608 244.0
170.786774 200.0
170.844254 164.0
170.905762 100.0
170.915192 136.0
170.982162 136.0
171.079666 280.0
171.116898 3944.0
171.224274 52.0
171.289124 236.0
171.349319 48.0
171.443893 148.0
171.487427 64.0
171.523911 184.0
171.5578 120.0
171.581268 48.0
171.651657 92.0
171.722076 68.0
171.789886 128.0
171.81076 60.0
171.839462 124.0
171.903641 120.0
172.009094 84.0
172.058685 168.0
172.121262 1848.0
172.207535 92.0
172.242416 56.0
172.293732 148.0
172.366547 244.0
172.597763 208.0
172.628281 160.0
172.649216 140.0
172.677979 100.0
172.722443 148.0
172.740753 40.0
172.876801 192.0
172.950089 132.0
172.971024 160.0
173.012909 212.0
173.097061 568.0
173.132217 1792.0
173.253845 96.0
173.309677 168.0
173.335724 212.0
173.392715 152.0
173.56311 116.0
173.65921 180.0
173.730957 132.0
173.801804 184.0
173.862152 112.0
173.933014 156.0
173.964523 60.0
174.074783 180.0
174.101059 540.0
174.13031 796.0
174.228897 136.0
174.332855 172.0
174.338211 116.0
174.374268 104.0
174.442612 148.0
174.51622 304.0
174.545151 188.0
174.655609 72.0
174.710846 164.0
174.868729 96.0
174.949265 148.0
174.997711 164.0
175.073822 248.0
175.111404 1168.0
175.139557 432.0
175.213684 60.0
175.242661 116.0
175.411316 92.0
175.429779 36.0
175.459244 112.0
175.495682 44.0
175.569519 132.0
175.603806 108.0
175.622269 128.0
175.640732 236.0
175.717224 112.0
175.735703 176.0
175.820694 208.0
175.875565 144.0
175.909882 180.0
176.039246 120.0
176.073578 108.0
176.112534 112.0
176.145523 788.0
176.195084 168.0
176.25322 124.0
176.360443 132.0
176.39592 192.0
176.459381 88.0
176.586304 188.0
176.758255 76.0
176.779434 180.0
176.856171 116.0
176.903824 116.0
177.099762 244.0
177.154968 176.0
177.205734 136.0
177.322327 76.0
177.385941 48.0
177.460114 168.0
177.680298 104.0
177.775818 192.0
177.807663 72.0
177.831558 296.0
177.879333 172.0
177.919144 60.0
177.958969 104.0
178.018707 316.0
178.078613 492.0
178.123657 344.0
178.160812 140.0
178.26976 208.0
178.325562 100.0
178.370743 128.0
178.50235 176.0
178.615387 156.0
178.657944 144.0
178.697845 156.0
178.727112 44.0
178.745743 156.0
178.798965 160.0
178.87616 52.0
178.916428 184.0
179.018829 156.0
179.086288 1820.0
179.129272 136.0
179.150436 152.0
179.280991 100.0
179.318298 92.0
179.470245 140.0
179.547577 104.0
179.74498 80.0
179.822372 84.0
179.862411 312.0
179.891769 136.0
179.929153 36.0
179.95311 152.0
179.998566 136.0
180.043961 52.0
180.094772 1456.0
180.137451 324.0
180.182861 148.0
180.222946 184.0
180.313797 80.0
180.343201 112.0
180.374695 316.0
180.420715 256.0
180.474182 124.0
180.519287 176.0
180.554413 36.0
180.738983 200.0
180.848709 180.0
180.937042 120.0
181.046829 160.0
181.101532 2920.0
181.14325 228.0
181.223618 120.0
181.277206 64.0
181.301331 136.0
181.346893 152.0
181.368332 116.0
181.515778 148.0
181.553329 60.0
181.706223 160.0
181.725006 192.0
181.797455 164.0
181.880646 136.0
182.00145 180.0
182.022934 196.0
182.073959 120.0
182.105423 1188.0
182.132721 132.0
182.176025 84.0
182.318298 80.0
182.380249 128.0
182.401749 172.0
182.447449 108.0
182.500137 136.0
182.568451 152.0
182.867065 108.0
182.90744 108.0
182.94783 108.0
183.00975 144.0
183.031281 264.0
183.05014 168.0
183.077057 136.0
183.117493 2996.0
183.184799 92.0
183.219818 180.0
183.276398 172.0
183.322205 172.0
183.37027 48.0
183.405762 112.0
183.461334 188.0
183.532135 232.0
183.616058 180.0
183.651123 108.0
183.686188 108.0
183.759018 84.0
183.781952 176.0
183.964127 152.0
184.023529 120.0
184.120987 784.0
184.196365 108.0
184.234177 196.0
184.2612 152.0
184.301727 184.0
184.363876 160.0
184.49675 180.0
184.572021 56.0
184.616226 172.0
184.639618 140.0
184.780273 164.0
184.866867 144.0
184.907455 144.0
184.931824 116.0
184.958878 304.0
185.095993 1220.0
185.131027 1332.0
185.213959 120.0
185.24321 156.0
185.267593 104.0
185.416611 176.0
185.511475 36.0
185.552139 108.0
185.638916 152.0
185.673965 160.0
185.774521 148.0
185.869476 200.0
185.9319 44.0
185.953613 136.0
186.040466 72.0
186.099091 156.0
186.133896 912.0
186.216965 28.0
186.279434 128.0
186.32019 184.0
186.350067 36.0
186.498322 188.0
186.574295 144.0
186.594681 116.0
186.708878 320.0
186.755112 124.0
186.785034 124.0
186.812866 364.0
186.885696 144.0
186.915634 104.0
186.964615 172.0
187.041687 276.0
187.112289 960.0
187.133133 388.0
187.139175 308.0
187.182388 192.0
187.315842 172.0
187.381226 116.0
187.410019 148.0
187.446609 68.0
187.47113 80.0
187.512009 40.0
187.533813 124.0
187.55835 56.0
187.5979 140.0
187.648315 120.0
187.68103 88.0
187.732834 156.0
187.760117 176.0
187.841934 152.0
187.874664 164.0
187.961975 188.0
187.989258 120.0
188.04834 216.0
188.110687 108.0
188.142624 1884.0
188.25679 68.0
188.311279 160.0
188.346924 200.0
188.404282 64.0
188.439041 188.0
188.467117 88.0
188.557297 192.0
188.609222 60.0
188.694382 132.0
188.953796 232.0
188.972946 128.0
189.151581 2528.0
189.264297 84.0
189.306885 180.0
189.358521 168.0
189.435608 236.0
189.465744 152.0
189.646591 68.0
189.78093 88.0
189.824799 224.0
189.915298 152.0
189.959183 160.0
190.016037 188.0
190.099106 204.0
190.126251 644.0
190.159515 1956.0
190.197296 176.0
190.23085 112.0
190.376373 132.0
190.434052 164.0
190.516388 164.0
190.631851 252.0
190.752777 88.0
190.794022 188.0
190.81601 152.0
190.898499 108.0
191.087997 656.0
191.135056 160.0
191.159927 424.0
191.225876 64.0
191.269913 100.0
191.316711 36.0
191.369019 84.0
191.454376 180.0
191.510269 96.0
191.536575 176.0
191.613876 168.0
191.641693 80.0
191.707825 152.0
191.760193 120.0
191.873199 104.0
192.063477 136.0
192.091339 1480.0
192.139023 392.0
192.171692 472.0
192.240051 152.0
192.259369 196.0
192.317322 160.0
192.394623 120.0
192.419464 236.0
192.452591 124.0
192.512115 188.0
192.574661 196.0
192.621063 40.0
192.64592 156.0
192.668015 112.0
192.692886 228.0
192.71489 112.0
192.825516 148.0
192.846909 76.0
192.878036 68.0
192.913971 108.0
192.99968 32.0
193.103073 2212.0
193.144684 176.0
193.256912 164.0
193.320541 128.0
193.342682 52.0
193.486618 200.0
193.575226 108.0
193.627838 144.0
193.70816 136.0
193.749725 104.0
194.107162 632.0
194.151627 220.0
194.198776 96.0
194.240387 144.0
194.280991 244.0
194.379349 132.0
194.418411 96.0
194.531754 92.0
194.576172 60.0
194.71167 200.0
194.815002 92.0
194.849945 104.0
194.93811 168.0
195.042862 152.0
195.077606 144.0
195.116501 4352.0
195.165176 40.0
195.256943 72.0
195.30423 276.0
195.336304 204.0
195.365433 196.0
195.409943 116.0
195.43219 112.0
195.549545 140.0
195.579697 124.0
195.689331 108.0
195.79129 100.0
196.030869 212.0
196.061523 156.0
196.091461 220.0
196.123093 1480.0
196.435135 100.0
196.541153 180.0
196.634201 184.0
196.661148 208.0
196.694641 116.0
196.806305 164.0
196.906067 160.0
196.959915 116.0
197.093399 268.0
197.131317 1960.0
197.194611 156.0
197.312012 152.0
197.362335 168.0
197.403946 132.0
197.424332 140.0
197.546921 136.0
197.577698 52.0
197.622452 104.0
197.663452 276.0
197.684021 80.0
197.73439 176.0
197.767975 188.0
197.820297 52.0
197.87149 172.0
198.056381 140.0
198.139481 556.0
198.188049 144.0
198.30574 112.0
198.378616 100.0
198.409454 176.0
198.451508 52.0
198.479553 124.0
198.538437 128.0
198.698318 116.0
198.734787 96.0
198.771271 192.0
198.838623 88.0
198.905975 76.0
198.990204 40.0
199.060394 124.0
199.11351 628.0
199.141663 628.0
199.217682 172.0
199.397141 208.0
199.442474 180.0
199.734909 160.0
199.771469 104.0
199.864319 152.0
199.898331 136.0
199.929886 160.0
199.990952 44.0
200.019104 144.0
200.095108 104.0
200.144333 436.0
200.204926 152.0
200.260147 92.0
200.416183 132.0
200.528915 148.0
200.636032 60.0
200.734711 100.0
200.855988 160.0
200.8983 200.0
201.0168 36.0
201.054855 304.0
201.091293 120.0
201.128174 920.0
201.148087 576.0
201.194611 112.0
201.318848 120.0
201.382523 92.0
201.448761 292.0
201.502441 196.0
201.556122 104.0
201.592865 104.0
201.615875 236.0
201.92363 116.0
202.042435 344.0
202.078445 164.0
202.130829 304.0
202.164764 368.0
202.24617 104.0
202.345245 32.0
202.469833 132.0
202.534973 160.0
202.588806 32.0
202.645462 120.0
202.770142 128.0
202.863678 132.0
202.909042 204.0
202.946365 120.0
202.982758 164.0
203.011108 136.0
203.045151 140.0
203.083145 252.0
203.141373 552.0
203.163971 184.0
203.388458 144.0
203.442383 208.0
203.553116 60.0
203.661041 164.0
203.915726 168.0
203.937897 108.0
203.967911 104.0
204.004868 96.0
204.036133 120.0
204.097626 348.0
204.133972 184.0
204.169586 120.0
204.176208 136.0
204.317688 32.0
204.475861 168.0
204.503708 160.0
204.531113 304.0
204.639282 148.0
204.716965 272.0
204.753189 76.0
204.790207 192.0
204.992477 40.0
205.029526 128.0
205.10173 1028.0
205.137833 108.0
205.180603 112.0
205.206253 104.0
205.274689 116.0
205.314621 192.0
205.502884 120.0
205.545685 100.0
205.651276 136.0
205.718292 292.0
205.742615 116.0
205.827698 180.0
205.85968 168.0
205.950958 100.0
206.019623 136.0
206.073914 92.0
206.110046 1512.0
206.171066 124.0
206.283417 116.0
206.34256 316.0
206.371155 180.0
206.405472 208.0
206.505554 148.0
206.54274 40.0
206.597092 160.0
206.725845 172.0
206.820297 104.0
206.851776 116.0
206.906174 164.0
207.040741 116.0
207.069382 200.0
207.114212 1448.0
207.198288 48.0
207.226929 112.0
207.314194 176.0
207.350159 48.0
207.414276 108.0
207.45047 208.0
207.510605 148.0
207.539352 56.0
207.599564 208.0
207.668396 208.0
207.714294 180.0
207.76326 220.0
207.801788 208.0
207.913132 196.0
208.029938 116.0
208.064392 152.0
208.091568 180.0
208.123154 1528.0
208.239548 244.0
208.361206 160.0
208.400421 180.0
208.638962 84.0
208.684967 252.0
208.834503 212.0
208.903534 88.0
209.00032 124.0
209.038757 128.0
209.093323 296.0
209.130341 1748.0
209.163879 40.0
209.188416 48.0
209.248871 48.0
209.32515 180.0
209.466553 104.0
209.600327 100.0
209.646362 160.0
209.672714 172.0
209.735718 152.0
209.871216 64.0
209.931763 136.0
209.992325 220.0
210.015396 52.0
210.090393 124.0
210.136673 660.0
210.176956 148.0
210.5811 56.0
210.627319 72.0
210.711029 160.0
210.73999 108.0
210.786209 80.0
210.818008 156.0
210.867126 140.0
210.950958 128.0
211.014557 132.0
211.083313 144.0
211.112869 716.0
211.147873 1828.0
211.345306 132.0
211.370316 112.0
211.431091 172.0
211.503448 180.0
211.541077 36.0
211.584503 168.0
211.613449 108.0
211.665573 124.0
211.706116 60.0
211.7901 156.0
212.059555 108.0
212.079849 184.0
212.121109 608.0
212.147568 472.0
212.213196 100.0
212.253784 160.0
212.39299 124.0
212.420883 156.0
212.484375 112.0
212.509033 140.0
212.538055 132.0
212.596085 92.0
212.625107 240.0
212.706375 88.0
212.816696 148.0
212.851532 120.0
212.927032 232.0
212.993835 152.0
213.014175 128.0
213.084595 184.0
213.129333 436.0
213.160233 572.0
213.232086 60.0
213.317139 184.0
213.357086 120.0
213.403336 176.0
213.432678 128.0
213.57518 108.0
213.790466 112.0
213.857407 212.0
213.944733 112.0
214.086746 172.0
214.12149 252.0
214.133057 136.0
214.155945 604.0
214.262177 136.0
214.454498 72.0
214.509872 180.0
214.618042 192.0
214.654007 140.0
214.772308 172.0
214.804398 80.0
214.973618 144.0
215.067001 44.0
215.102844 188.0
215.147675 364.0
215.16626 256.0
215.243469 224.0
215.484589 44.0
215.718384 216.0
215.771011 88.0
215.893463 132.0
215.957077 140.0
216.007889 128.0
216.051758 116.0
216.110794 196.0
216.139297 340.0
216.174545 748.0
216.215622 44.0
216.239029 96.0
216.373688 36.0
216.517166 168.0
216.657761 68.0
216.681198 152.0
216.728073 128.0
216.930298 124.0
216.994797 212.0
217.027039 100.0
217.099457 680.0
217.152222 212.0
217.18071 516.0
217.408371 160.0
217.495285 124.0
217.63147 156.0
217.716629 148.0
217.813553 132.0
217.837051 172.0
217.857513 120.0
218.03978 220.0
218.108826 516.0
218.149841 476.0
218.189346 700.0
218.257309 136.0
218.589706 84.0
218.792786 96.0
218.834 192.0
218.907623 96.0
218.928238 164.0
218.975357 56.0
219.007751 56.0
219.057831 196.0
219.115463 1228.0
219.172729 200.0
219.205139 108.0
219.228714 28.0
219.275864 128.0
219.343658 180.0
219.390823 104.0
219.443893 212.0
219.488113 132.0
219.522736 216.0
219.555939 124.0
219.68277 208.0
219.732925 52.0
219.803741 140.0
219.921783 108.0
220.01329 112.0
220.054626 100.0
220.123077 1052.0
220.176056 316.0
220.211136 40.0
220.29628 116.0
220.539093 36.0
220.618057 240.0
220.622955 172.0
220.808136 224.0
220.870255 92.0
220.896866 116.0
220.941254 156.0
220.988586 188.0
221.098068 268.0
221.133102 2132.0
221.210236 156.0
221.297318 128.0
221.337845 148.0
221.358582 152.0
221.435577 136.0
221.518509 124.0
221.562943 52.0
221.598495 84.0
221.761475 120.0
221.785187 112.0
221.838547 176.0
221.897842 132.0
221.992722 124.0
222.101166 276.0
222.138 1156.0
222.220688 136.0
222.28688 124.0
222.354645 112.0
222.408081 128.0
222.526825 36.0
222.559479 128.0
222.693329 56.0
222.743607 164.0
222.811935 148.0
222.838669 52.0
222.939697 132.0
222.975357 148.0
223.046616 152.0
223.07019 168.0
223.113754 664.0
223.147385 2276.0
223.281586 124.0
223.498734 240.0
223.621078 176.0
223.861893 148.0
223.906555 204.0
223.948257 140.0
224.001877 92.0
224.118942 68.0
224.15271 832.0
224.201492 68.0
224.284943 120.0
224.335617 84.0
224.511536 100.0
224.615921 72.0
224.774048 120.0
224.812836 104.0
224.929245 180.0
225.003876 188.0
225.030731 68.0
225.126038 376.0
225.163391 1596.0
225.333176 228.0
225.619293 168.0
225.795715 160.0
225.930313 64.0
226.066605 196.0
226.093475 188.0
226.129333 164.0
226.166718 676.0
226.215378 200.0
226.400238 48.0
226.436172 128.0
226.515945 108.0
226.552994 60.0
226.644592 56.0
226.752106 204.0
226.807709 124.0
226.909622 132.0
226.969589 32.0
227.008575 188.0
227.148254 312.0
227.15654 144.0
227.178925 552.0
227.308548 184.0
227.503632 52.0
227.54866 132.0
227.575684 116.0
227.707809 176.0
227.74086 48.0
227.909637 176.0
227.990219 168.0
228.015976 132.0
228.174881 396.0
228.215729 192.0
228.353989 124.0
228.495377 104.0
228.522446 108.0
228.555542 212.0
228.733109 132.0
228.874603 100.0
228.961929 140.0
229.124939 140.0
229.184799 296.0
229.398819 156.0
229.519424 168.0
229.543549 32.0
229.706406 136.0
229.843903 120.0
229.919052 200.0
230.146378 132.0
230.172684 128.0
230.194641 276.0
230.231583 168.0
230.253143 140.0
230.364471 148.0
230.467194 180.0
230.551804 164.0
230.730133 128.0
230.867325 112.0
230.894928 216.0
231.026505 156.0
231.114349 288.0
231.156342 140.0
231.198975 168.0
231.241348 96.0
231.295822 216.0
231.371506 176.0
231.43811 196.0
231.562271 48.0
231.783417 68.0
231.831894 92.0
231.916763 60.0
231.989502 116.0
232.013763 164.0
232.119614 468.0
232.1698 144.0
232.222992 136.0
232.347351 156.0
232.529419 36.0
232.602264 116.0
232.650833 128.0
232.678162 176.0
232.83606 56.0
233.130508 960.0
233.191757 152.0
233.23407 140.0
233.554199 112.0
233.59288 232.0
233.824112 180.0
233.891083 128.0
233.96109 180.0
234.067657 104.0
234.137741 644.0
234.210785 172.0
234.248825 156.0
234.369202 208.0
234.399673 132.0
234.759384 152.0
234.792923 140.0
234.905167 140.0
234.9487 232.0
235.036972 96.0
235.058319 176.0
235.112305 128.0
235.149826 3320.0
235.186508 160.0
235.271973 104.0
235.296402 160.0
235.348297 48.0
235.424637 144.0
235.458237 88.0
235.59874 32.0
235.959366 308.0
236.026627 104.0
236.054138 48.0
236.090836 228.0
236.124435 228.0
236.152054 952.0
236.323318 132.0
236.369217 168.0
236.391708 136.0
236.51918 188.0
236.632446 124.0
236.699799 68.0
236.80748 176.0
236.892746 208.0
236.954117 132.0
237.015305 132.0
237.094971 156.0
237.163223 5200.0
237.242538 168.0
237.300354 180.0
237.337143 104.0
237.367798 172.0
237.441406 172.0
237.524597 64.0
237.557953 64.0
237.625458 124.0
237.674545 152.0
237.702164 120.0
237.729782 108.0
237.821854 164.0
237.86438 112.0
238.015259 124.0
238.084167 100.0
238.114471 180.0
238.137878 324.0
238.169357 2772.0
238.240479 48.0
238.322403 44.0
238.462204 116.0
238.497223 172.0
238.533569 152.0
238.546127 212.0
238.611313 232.0
238.638992 104.0
238.660507 180.0
238.81427 136.0
238.851181 128.0
238.903473 80.0
239.069626 36.0
239.145462 876.0
239.177872 1232.0
239.243805 156.0
239.280716 76.0
239.355911 100.0
239.407181 184.0
239.60231 144.0
239.700897 100.0
239.888901 88.0
240.066467 108.0
240.147583 264.0
240.180161 408.0
240.240448 76.0
240.285568 96.0
240.450272 136.0
240.540726 180.0
240.564758 128.0
240.703415 208.0
240.765167 140.0
240.846268 140.0
240.8918 172.0
240.912445 100.0
241.024658 56.0
241.086456 168.0
241.161453 204.0
241.200317 160.0
241.339935 164.0
241.44603 128.0
241.522385 116.0
241.81633 68.0
241.856018 160.0
242.126999 160.0
242.155304 384.0
242.192245 184.0
242.306107 116.0
242.395584 236.0
242.44812 72.0
242.786026 36.0
242.875961 72.0
242.903885 136.0
242.98764 136.0
243.022125 144.0
243.124176 168.0
243.154099 180.0
243.198654 132.0
243.230881 168.0
243.319717 140.0
243.549515 72.0
243.645813 228.0
243.71727 144.0
243.79657 108.0
243.951355 176.0
244.000107 212.0
244.065399 164.0
244.175522 188.0
244.258209 132.0
244.354156 176.0
244.460449 176.0
244.488449 160.0
244.516464 80.0
244.62851 152.0
244.827789 148.0
244.91188 68.0
244.952362 132.0
244.989746 144.0
245.02066 152.0
245.076981 40.0
245.129959 180.0
245.167023 156.0
245.273315 180.0
245.416718 84.0
245.519623 196.0
245.703659 200.0
245.725494 120.0
246.062561 64.0
246.140839 380.0
246.183533 476.0
246.492264 124.0
246.556091 136.0
246.581085 204.0
246.640472 136.0
246.674866 68.0
246.699875 152.0
246.799911 80.0
246.840561 124.0
246.871841 212.0
246.973755 116.0
247.109558 128.0
247.149017 280.0
247.190567 256.0
247.237854 168.0
247.25975 92.0
247.292236 180.0
247.325485 172.0
247.406158 176.0
247.528976 124.0
247.58847 172.0
247.635452 72.0
247.666779 208.0
247.895477 128.0
248.028 180.0
248.155151 380.0
248.22287 156.0
248.24971 32.0
248.422211 172.0
248.591644 136.0
248.666962 60.0
248.713333 160.0
248.736008 180.0
248.770538 160.0
248.800934 100.0
248.84903 148.0
248.89299 140.0
249.034302 108.0
249.16507 388.0
249.335907 216.0
249.445923 184.0
249.785522 132.0
249.867325 116.0
249.927094 48.0
249.958572 100.0
250.056122 212.0
250.138947 256.0
250.169067 264.0
250.232407 200.0
250.361496 168.0
250.39299 100.0
250.522675 116.0
250.67337 148.0
250.878235 112.0
251.03273 216.0
251.07373 156.0
251.141769 408.0
251.180817 1092.0
251.239136 116.0
251.291382 120.0
251.313461 264.0
251.360886 136.0
251.480713 68.0
251.505966 152.0
251.559631 136.0
251.717392 260.0
251.774323 176.0
251.932251 132.0
252.090317 156.0
252.121841 148.0
252.185211 616.0
252.222977 64.0
252.257751 44.0
252.31781 176.0
252.362076 96.0
252.603455 232.0
252.73703 144.0
252.779602 136.0
252.859924 180.0
252.97612 176.0
253.115128 96.0
253.155945 172.0
253.19397 440.0
253.241806 76.0
253.320999 136.0
253.350418 208.0
253.400192 36.0
253.442764 172.0
253.476242 112.0
253.536453 52.0
253.577652 148.0
253.739319 152.0
253.815414 56.0
253.847122 188.0
254.073471 188.0
254.128693 176.0
254.138748 136.0
254.19046 204.0
254.322998 88.0
254.399185 188.0
254.516647 132.0
254.570633 36.0
254.630966 180.0
254.843796 168.0
254.897812 84.0
254.939133 172.0
254.972687 136.0
255.117126 160.0
255.148911 204.0
255.173965 204.0
255.199783 104.0
255.263382 44.0
255.374451 108.0
255.412857 96.0
255.584641 100.0
255.711929 116.0
255.80191 164.0
255.972977 160.0
256.017548 176.0
256.132233 148.0
256.172241 412.0
256.266022 36.0
256.573517 156.0
256.628723 60.0
256.709076 84.0
256.743469 128.0
256.778229 216.0
257.178131 188.0
257.245087 164.0
257.283386 168.0
257.567139 112.0
257.609131 104.0
257.637878 164.0
257.701782 180.0
257.839172 144.0
257.864746 104.0
257.944672 152.0
258.021698 168.0
258.088531 140.0
258.190491 488.0
258.376373 52.0
258.414764 148.0
258.47876 204.0
258.507568 84.0
258.529968 136.0
258.587555 168.0
258.632385 52.0
258.757233 120.0
258.862885 160.0
258.986053 112.0
259.090302 204.0
259.11911 224.0
259.145172 120.0
259.176544 280.0
259.188507 268.0
259.285736 244.0
259.337036 36.0
259.388306 140.0
259.42038 176.0
259.664062 120.0
259.955994 128.0
260.016968 172.0
260.093628 180.0
260.164246 176.0
260.198914 176.0
260.260925 44.0
260.360535 100.0
260.4729 72.0
260.517853 132.0
260.63031 176.0
260.762054 128.0
260.919586 144.0
261.09964 136.0
261.158661 328.0
261.202576 212.0
261.257263 328.0
261.411682 204.0
261.672394 64.0
261.707825 160.0
261.924225 120.0
261.949371 148.0
262.130219 180.0
262.163727 412.0
262.212769 196.0
262.242584 168.0
262.375793 184.0
262.468231 32.0
262.490814 120.0
262.58432 180.0
262.810944 192.0
263.178406 1196.0
263.281433 224.0
263.339569 72.0
263.377014 128.0
263.539856 108.0
263.565704 56.0
263.833954 88.0
263.962982 168.0
264.120514 208.0
264.152771 120.0
264.180023 208.0
264.354706 144.0
264.403229 92.0
264.480927 128.0
264.519745 208.0
264.552124 120.0
264.610413 108.0
264.794983 56.0
264.820892 136.0
264.982849 212.0
265.007416 284.0
265.179657 308.0
265.332886 196.0
265.434662 216.0
265.832367 92.0
265.864838 120.0
265.942719 136.0
265.97934 112.0
266.121277 72.0
266.192139 568.0
266.234924 116.0
266.27063 168.0
266.303101 248.0
266.572754 188.0
266.637756 176.0
266.823029 124.0
266.904327 152.0
266.936829 132.0
266.959595 292.0
267.008392 148.0
267.086426 100.0
267.173737 1540.0
267.278381 136.0
267.34671 116.0
267.65921 112.0
267.685272 144.0
267.916504 92.0
267.958862 40.0
268.072906 224.0
268.177643 272.0
268.281494 184.0
268.336945 116.0
268.359741 188.0
268.513763 156.0
268.558685 48.0
268.702209 28.0
268.728302 164.0
268.793579 112.0
268.97287 136.0
269.090576 168.0
269.177734 292.0
269.21991 216.0
269.330383 168.0
269.409302 160.0
269.549438 132.0
269.812622 124.0
269.842041 188.0
269.886566 128.0
269.927032 208.0
269.985901 120.0
270.097107 140.0
270.183868 380.0
270.217468 116.0
270.273773 124.0
270.32724 144.0
270.352295 208.0
270.512695 52.0
270.656738 88.0
270.762939 196.0
270.784454 184.0
270.853241 116.0
271.026855 248.0
271.152588 172.0
271.203827 144.0
271.230042 208.0
271.43988 148.0
271.541534 108.0
271.577606 80.0
271.672729 160.0
271.771149 164.0
271.987762 164.0
272.023865 152.0
272.059967 136.0
272.1604 196.0
272.188263 156.0
272.230713 196.0
272.28653 148.0
272.316101 152.0
272.352234 36.0
272.467194 132.0
272.490204 72.0
272.565765 188.0
272.621613 156.0
272.940491 140.0
273.032562 116.0
273.121368 160.0
273.147675 312.0
273.305603 156.0
273.328613 248.0
273.381287 128.0
273.476715 136.0
273.587219 148.0
273.917938 148.0
273.944275 96.0
274.006866 32.0
274.082672 56.0
274.129364 160.0
274.159454 172.0
274.207886 176.0
274.313354 144.0
274.362823 120.0
274.417786 172.0
274.501282 88.0
274.649567 188.0
274.692566 112.0
274.751556 200.0
274.788239 128.0
274.81134 124.0
274.916931 140.0
275.006042 104.0
275.042053 140.0
275.121582 88.0
275.204102 44.0
275.275513 128.0
275.365631 240.0
275.402252 120.0
275.425385 192.0
275.759094 84.0
275.937592 116.0
276.033478 124.0
276.142609 84.0
276.177673 140.0
276.254913 172.0
276.342194 240.0
276.374176 128.0
276.585114 140.0
276.927002 148.0
276.953522 188.0
276.980011 128.0
277.152039 228.0
277.195343 276.0
277.354431 188.0
277.377625 100.0
277.652832 204.0
277.750793 152.0
277.792145 104.0
277.952667 208.0
278.04837 196.0
278.194031 108.0
278.243469 248.0
278.273346 80.0
278.390045 188.0
278.432739 224.0
278.515778 196.0
278.582184 160.0
278.725067 52.0
278.828064 144.0
278.941071 96.0
279.074066 184.0
279.123932 112.0
279.173462 1488.0
279.370056 184.0
279.423279 180.0
279.526428 108.0
279.650055 160.0
279.692841 208.0
279.845978 140.0
279.905914 124.0
279.965851 188.0
279.987305 136.0
280.148621 132.0
280.204498 760.0
280.292297 128.0
280.392273 152.0
280.438934 168.0
280.54892 52.0
280.592285 172.0
280.615601 160.0
280.805115 144.0
280.879059 192.0
280.905731 148.0
280.96051 200.0
281.049194 112.0
281.11261 100.0
281.151062 144.0
281.189606 1852.0
281.25946 176.0
281.533234 112.0
281.649384 144.0
281.836029 208.0
281.984222 184.0
282.054413 112.0
282.196075 944.0
282.208527 348.0
282.219543 540.0
282.286774 176.0
282.327179 44.0
282.378754 200.0
282.445648 136.0
282.542664 104.0
282.587341 68.0
282.636322 128.0
282.736725 48.0
282.810364 204.0
282.974396 40.0
283.041351 168.0
283.187927 464.0
283.224792 252.0
283.557159 152.0
283.691315 88.0
283.731537 108.0
283.822083 128.0
283.959564 144.0
284.200531 384.0
284.241364 136.0
284.274902 140.0
284.346283 76.0
284.916229 212.0
285.040527 164.0
285.07077 156.0
285.181427 100.0
285.206543 252.0
285.289246 128.0
285.457367 176.0
285.561615 92.0
285.630005 216.0
285.694824 160.0
285.773529 68.0
285.967865 156.0
285.980774 116.0
285.996643 108.0
286.006653 148.0
286.052856 164.0
286.186768 88.0
286.221191 116.0
286.297028 176.0
286.355896 60.0
286.442139 172.0
286.473785 184.0
286.653625 268.0
286.706268 72.0
286.760193 64.0
286.865906 180.0
286.996185 140.0
287.046753 164.0
287.138977 220.0
287.232239 136.0
287.276093 160.0
287.350311 188.0
287.424561 180.0
287.552795 80.0
287.71817 156.0
287.863373 128.0
287.944427 112.0
288.01535 52.0
288.207916 224.0
288.305908 172.0
288.45462 176.0
288.647339 144.0
288.772461 228.0
288.816437 132.0
288.941498 152.0
289.066772 120.0
289.097229 108.0
289.212311 56.0
289.334167 108.0
289.408661 40.0
289.59491 132.0
289.693146 180.0
289.825256 156.0
290.065887 136.0
290.147247 156.0
290.192322 324.0
290.32016 140.0
290.372498 204.0
290.455139 232.0
290.527069 120.0
290.700104 168.0
290.869812 132.0
290.965271 100.0
291.148224 148.0
291.20517 120.0
291.33844 176.0
291.416565 160.0
291.456116 100.0
291.749634 188.0
291.810822 160.0
291.948242 96.0
292.014862 56.0
292.07608 68.0
292.188324 164.0
292.419708 132.0
292.538849 200.0
292.634186 36.0
292.681854 64.0
292.746552 180.0
292.93045 132.0
292.961121 168.0
293.117859 160.0
293.175293 232.0
293.328522 176.0
293.537109 184.0
293.56781 132.0
293.591675 152.0
293.659882 120.0
293.878204 196.0
293.936218 212.0
294.190613 316.0
294.308289 76.0
294.376556 144.0
294.479034 100.0
294.513184 136.0
294.581482 128.0
294.663483 168.0
294.759155 136.0
294.933594 196.0
295.111206 332.0
295.203522 380.0
295.278778 96.0
295.333496 128.0
295.364288 156.0
295.511383 148.0
295.612274 124.0
295.788574 176.0
295.881012 104.0
296.124115 212.0
296.203064 1144.0
296.234863 356.0
296.339935 220.0
296.432465 44.0
296.627808 172.0
296.668335 44.0
296.737518 180.0
296.761505 180.0
296.984406 136.0
297.009827 76.0
297.155945 156.0
297.206146 384.0
297.23822 252.0
297.348083 124.0
297.574646 172.0
297.821167 128.0
297.916595 196.0
298.119293 208.0
298.174408 120.0
298.218811 768.0
298.347656 140.0
298.423279 40.0
298.493134 140.0
298.536774 132.0
298.705292 104.0
298.760315 144.0
298.866974 192.0
299.019989 156.0
299.104034 100.0
299.180176 28.0
299.214722 436.0
299.281616 140.0
299.536682 188.0
299.658875 52.0
299.697144 172.0
299.865631 184.0
299.917328 64.0
300.075897 104.0
300.197784 544.0
300.348358 184.0
300.38974 204.0
300.565674 116.0
300.607361 156.0
300.649445 120.0
300.76239 184.0
300.822327 84.0
300.852142 148.0
301.162933 144.0
301.199951 324.0
301.249268 152.0
301.601746 140.0
301.653595 36.0
301.782379 156.0
301.881775 108.0
301.926727 168.0
301.964783 160.0
302.158478 128.0
302.189087 180.0
302.218201 424.0
302.281036 124.0
302.324585 192.0
302.393799 412.0
302.483795 88.0
302.791931 212.0
303.014648 216.0
303.117584 192.0
303.156982 284.0
303.211151 216.0
303.315125 104.0
303.387909 132.0
303.419128 128.0
303.467651 224.0
303.67572 176.0
303.84021 208.0
303.925507 64.0
304.032562 136.0
304.234375 76.0
304.275177 120.0
304.477448 160.0
304.553833 112.0
304.703217 180.0
304.755341 148.0
304.878296 236.0
305.012512 92.0
305.153961 232.0
305.273254 164.0
305.420959 212.0
305.474976 176.0
305.558472 36.0
305.586304 84.0
305.781189 208.0
305.906494 184.0
306.099426 152.0
306.223053 520.0
306.258179 120.0
306.332001 140.0
306.470673 172.0
306.540344 112.0
306.711121 152.0
306.766907 116.0
306.881958 176.0
306.983063 112.0
307.09671 96.0
307.109772 144.0
307.192322 140.0
307.225159 168.0
307.352814 164.0
307.527313 128.0
307.71582 144.0
307.7612 160.0
307.831024 52.0
307.865967 236.0
308.138397 128.0
308.193451 404.0
308.617249 140.0
308.656219 160.0
308.722137 120.0
308.764099 140.0
308.97049 140.0
309.141937 200.0
309.20752 200.0
309.260925 100.0
309.351929 76.0
309.428955 116.0
309.523468 152.0
309.567261 104.0
309.768646 64.0
309.899933 220.0
309.978851 192.0
310.041931 116.0
310.086639 212.0
310.157593 160.0
310.205597 132.0
310.323853 140.0
310.374939 132.0
310.469635 152.0
310.536255 192.0
310.57486 108.0
310.606415 184.0
310.63797 196.0
310.70816 200.0
310.849731 340.0
310.932709 140.0
310.971313 128.0
311.055573 176.0
311.118744 196.0
311.245148 128.0
311.44278 176.0
311.543671 128.0
311.652588 160.0
311.754486 96.0
311.979431 120.0
312.053253 104.0
312.077881 176.0
312.115204 124.0
312.169312 140.0
312.200256 216.0
312.233276 204.0
312.373291 56.0
312.429565 44.0
312.478821 44.0
312.616058 152.0
312.742767 124.0
312.94342 136.0
313.186401 92.0
313.229767 216.0
313.262085 116.0
313.299133 56.0
313.3414 100.0
313.380157 216.0
313.48233 192.0
313.707916 164.0
313.848938 128.0
313.915924 144.0
313.982941 152.0
314.21283 496.0
314.247833 148.0
314.356873 80.0
314.526276 148.0
314.614532 128.0
314.653351 156.0
314.725494 212.0
314.882172 176.0
315.172546 136.0
315.214722 240.0
315.240936 160.0
315.303314 72.0
315.377533 156.0
315.430542 180.0
315.501251 160.0
315.526001 76.0
315.5578 120.0
315.706329 136.0
315.745209 136.0
315.812408 96.0
315.846161 140.0
315.886688 120.0
315.946838 128.0
316.010529 40.0
316.042358 132.0
316.211212 124.0
316.27594 180.0
316.332581 148.0
316.36203 120.0
316.523743 84.0
316.647705 104.0
316.743317 80.0
316.785828 120.0
316.819366 188.0
316.860229 168.0
316.916931 116.0
316.966522 68.0
317.019684 156.0
317.145874 172.0
317.223969 264.0
317.381256 60.0
317.615295 108.0
317.675598 172.0
317.852997 136.0
318.055298 168.0
318.09433 172.0
318.136932 136.0
318.193726 160.0
318.268311 220.0
318.362579 132.0
318.403229 244.0
318.428101 156.0
318.575836 216.0
318.612793 156.0
318.683868 120.0
318.861542 108.0
318.886414 72.0
318.950409 180.0
319.007263 128.0
319.074829 144.0
319.288177 280.0
319.437561 176.0
319.571045 152.0
319.615448 148.0
319.675934 132.0
319.83963 152.0
319.974915 224.0
320.017639 28.0
320.149017 112.0
320.249115 144.0
320.290192 188.0
320.328918 148.0
320.404388 136.0
320.494904 100.0
320.526581 216.0
320.93689 168.0
320.979675 136.0
321.182953 52.0
321.218628 164.0
321.532623 80.0
321.557587 132.0
321.918152 144.0
321.9646 104.0
321.989594 84.0
322.059937 184.0
322.204407 228.0
322.361115 164.0
322.411163 40.0
322.518372 144.0
322.648865 132.0
322.693542 132.0
322.747162 96.0
322.78125 188.0
322.818695 88.0
322.965302 88.0
323.003204 132.0
323.070404 180.0
323.108398 136.0
323.162079 132.0
323.205017 156.0
323.351715 84.0
323.401825 184.0
323.449371 192.0
323.530701 188.0
323.590393 188.0
323.620209 96.0
323.67392 88.0
323.770599 108.0
323.894745 164.0
323.947205 184.0
323.999634 144.0
324.084564 68.0
324.132416 104.0
324.191254 388.0
324.232117 5900.0
324.330994 116.0
324.4263 44.0
324.459656 132.0
324.490845 124.0
324.752594 60.0
324.845856 148.0
324.89389 52.0
324.921204 56.0
325.000122 36.0
325.050354 196.0
325.236938 1276.0
325.301605 100.0
325.348267 64.0
325.376984 132.0
325.517029 116.0
325.811554 152.0
325.843872 240.0
325.966034 56.0
326.127747 152.0
326.156525 148.0
326.199646 52.0
326.238617 340.0
326.293121 164.0
326.318268 40.0
326.509216 124.0
326.706696 136.0
326.764252 88.0
326.811035 200.0
326.854218 140.0
326.886597 120.0
327.124115 64.0
327.192535 160.0
327.235321 136.0
327.433777 144.0
327.471497 204.0
327.505829 116.0
327.570648 152.0
327.657104 172.0
327.703949 128.0
327.783203 112.0
327.830048 132.0
328.092133 136.0
328.230194 148.0
328.303223 140.0
328.457397 148.0
328.51709 180.0
328.796539 92.0
328.879547 196.0
328.948151 120.0
329.060059 124.0
329.085327 176.0
329.327271 136.0
329.388672 112.0
329.442871 312.0
329.487091 168.0
329.551239 116.0
329.636353 288.0
329.746399 84.0
329.851196 168.0
329.927124 104.0
330.02475 200.0
330.086212 164.0
330.111511 132.0
330.209167 128.0
330.473236 88.0
330.607117 88.0
330.639679 88.0
330.665009 208.0
330.759125 104.0
330.943756 160.0
330.974579 196.0
331.001678 76.0
331.25882 116.0
331.319397 136.0
331.519714 116.0
331.697723 240.0
331.92569 76.0
331.983704 160.0
332.444427 152.0
332.556946 124.0
332.618652 96.0
332.847351 136.0
332.941772 144.0
333.010773 116.0
333.076172 84.0
333.127014 96.0
333.177887 136.0
333.221466 184.0
333.266479 104.0
333.43222 172.0
333.632141 92.0
333.723022 124.0
333.944855 128.0
334.003052 92.0
334.070465 124.0
334.112183 104.0
334.410553 144.0
334.534332 132.0
334.760437 160.0
334.772858 148.0
334.784698 236.0
334.87973 144.0
334.913025 120.0
335.033234 100.0
335.153473 132.0
335.255493 108.0
335.382324 140.0
335.617981 144.0
335.676788 156.0
335.722107 156.0
335.831512 32.0
335.885315 296.0
336.298553 176.0
336.339081 148.0
336.411713 40.0
336.437256 136.0
336.511932 220.0
336.538116 128.0
336.751282 52.0
336.926636 196.0
337.000702 144.0
337.207977 184.0
337.274658 168.0
337.328613 36.0
337.674072 148.0
337.716187 132.0
337.800323 116.0
337.856506 192.0
337.908539 120.0
338.052277 204.0
338.124878 348.0
338.29068 128.0
338.426147 120.0
338.462738 196.0
338.492035 144.0
338.572601 52.0
338.601898 60.0
338.631195 132.0
338.755737 224.0
338.796051 188.0
338.839996 144.0
338.887634 48.0
338.916534 328.0
338.979248 168.0
339.119202 84.0
339.14975 68.0
339.250458 52.0
339.283447 48.0
339.331909 200.0
339.364105 176.0
339.409241 144.0
339.441101 168.0
339.496124 80.0
339.530151 128.0
339.598358 160.0
339.675842 84.0
339.747925 104.0
339.763428 68.0
339.771667 96.0
339.902283 100.0
339.914093 72.0
339.923737 168.0
339.950989 164.0
339.976685 100.0
340.013916 112.0
340.054535 152.0
340.147522 96.0
340.230286 692.0
340.297272 184.0
340.322357 72.0
340.381042 136.0
340.430267 108.0
340.464935 160.0
340.53302 104.0
340.575836 148.0
340.627502 200.0
340.655945 180.0
340.682739 220.0
340.735382 160.0
340.813721 76.0
340.85434 60.0
340.908539 112.0
340.919861 164.0
340.967834 88.0
341.044708 140.0
341.057861 104.0
341.079773 220.0
341.13269 212.0
341.220795 164.0
341.278046 160.0
341.311371 308.0
341.345886 116.0
341.361511 148.0
341.370575 184.0
341.409424 92.0
341.436981 248.0
341.535065 288.0
341.593628 300.0
341.637482 368.0
341.684387 172.0
341.746094 392.0
341.78241 380.0
341.812744 228.0
341.82431 196.0
341.879578 280.0
341.920502 384.0
341.966644 688.0
342.043121 392.0
342.128662 752.0
342.188538 672.0
342.244385 280836.0
342.330811 136.0
342.340057 164.0
342.376373 276.0
342.454803 192.0
342.494629 272.0
342.587891 204.0
342.613556 260.0
342.642029 168.0
342.647766 212.0
342.689697 296.0
342.722992 164.0
342.791626 276.0
342.852722 2296.0
342.891724 548.0
342.904968 348.0
342.946075 268.0
342.970947 132.0
342.991333 132.0
343.047516 336.0
343.056427 212.0
343.12851 212.0
343.161438 316.0
343.246979 75388.0
343.37735 216.0
343.406708 120.0
343.446686 340.0
343.479828 360.0
343.5336 64.0
343.597168 136.0
343.636841 40.0
343.670654 60.0
343.708038 152.0
343.762787 132.0
343.773376 80.0
343.853607 152.0
343.884583 236.0
343.934387 96.0
343.9953 156.0
344.050537 132.0
344.096893 232.0
344.172607 116.0
344.249451 6728.0
344.319305 204.0
344.40509 108.0
344.433258 156.0
344.472626 188.0
344.499573 200.0
344.587982 184.0
344.614258 160.0
344.649597 84.0
344.698242 72.0
344.732269 132.0
344.79245 204.0
344.858032 112.0
344.897888 80.0
344.962036 52.0
345.017578 280.0
345.078857 332.0
345.106964 76.0
345.1138 68.0
345.128571 204.0
345.170654 128.0
345.176208 128.0
345.250183 796.0
345.324066 140.0
345.367981 288.0
345.400146 360.0
345.427155 228.0
345.460602 360.0
345.496246 192.0
345.522827 244.0
345.560455 168.0
345.606232 148.0
345.644165 200.0
345.686676 204.0
345.729248 140.0
345.745148 176.0
345.801025 140.0
345.845947 56.0
345.860382 60.0
345.891663 212.0
345.944336 148.0
345.994507 68.0
346.059296 88.0
346.102386 160.0
346.112915 72.0
346.124084 152.0
346.165039 124.0
346.206268 68.0
346.244843 148.0
346.312531 132.0
346.349976 96.0
346.399963 200.0
346.450836 84.0
346.4599 136.0
346.499268 112.0
346.508026 124.0
346.52594 156.0
346.58609 112.0
346.636017 232.0
346.641083 160.0
346.658142 64.0
346.669098 84.0
346.720581 80.0
346.803406 88.0
346.841248 188.0
346.968872 116.0
347.00769 36.0
347.046936 52.0
347.133362 56.0
347.192688 64.0
347.240479 76.0
347.273071 124.0
347.357941 60.0
347.385559 36.0
347.482025 36.0
347.556213 88.0
347.588226 80.0
347.627747 132.0
347.676453 60.0
347.733429 144.0
347.77359 56.0
347.796448 120.0
348.020172 36.0
348.07959 48.0
348.111633 248.0
348.157562 56.0
348.287567 60.0
348.361847 32.0
348.47525 84.0
348.550171 116.0
348.610779 60.0
348.701172 236.0
348.755737 64.0
348.854065 112.0
348.926727 168.0
348.967621 44.0
349.137146 68.0
349.201904 36.0
349.261414 132.0
349.309753 64.0
349.339233 52.0
349.602142 144.0
349.823303 92.0
349.916351 144.0
350.363281 136.0
350.419159 168.0
350.448975 60.0
350.56076 84.0
351.179626 40.0
351.460297 168.0
351.511627 108.0
351.694519 116.0
351.970276 92.0
351.984039 80.0
352.006256 192.0
352.056641 84.0
352.120148 176.0
352.217255 148.0
352.344269 112.0
352.684326 120.0
352.73291 72.0
352.845062 48.0
352.946014 60.0
352.987152 40.0
353.15918 52.0
353.260162 156.0
353.349945 148.0
353.59317 32.0
353.653046 220.0
353.742889 120.0
353.883423 148.0
354.098602 84.0
354.398285 68.0
354.510681 108.0
354.631592 108.0
354.773071 60.0
354.80304 48.0
354.844299 204.0
354.956787 132.0
355.005524 128.0
355.094696 152.0
355.170532 44.0
355.521606 148.0
355.588196 116.0
355.759674 32.0
355.853973 100.0
356.022522 140.0
356.063812 164.0
356.187775 204.0
356.289185 96.0
356.383118 40.0
356.462036 144.0
356.505188 164.0
356.764191 92.0
356.808716 136.0
356.978455 104.0
357.055725 108.0
357.168823 112.0
357.240295 108.0
357.27298 128.0
357.38327 80.0
357.428406 188.0
357.454742 88.0
357.481079 76.0
357.592194 124.0
357.635406 68.0
357.680573 92.0
357.752075 128.0
357.816101 76.0
357.861267 128.0
357.906464 56.0
357.974213 80.0
358.004364 68.0
358.064606 236.0
358.134583 132.0
358.192657 84.0
358.246796 192.0
358.361725 188.0
358.449921 132.0
358.476624 76.0
358.556396 112.0
358.592072 52.0
358.637299 40.0
358.728821 128.0
358.825775 140.0
358.871033 92.0
358.981659 76.0
359.073486 244.0
359.142548 84.0
359.168945 84.0
359.197906 208.0
359.247467 176.0
359.348083 156.0
359.402832 136.0
359.460999 156.0
359.537079 188.0
359.564392 108.0
359.607208 156.0
359.650146 124.0
359.700226 208.0
359.769379 100.0
359.812286 164.0
359.855621 116.0
359.880249 216.0
359.918823 80.0
359.942596 180.0
359.975067 140.0
359.983398 104.0
360.000854 132.0
360.01123 160.0
360.054321 164.0
360.068787 96.0
360.077576 108.0
360.112091 160.0
360.153351 296.0
360.167664 200.0
360.254395 112596.0
360.350952 148.0
360.383026 240.0
360.468262 76.0
360.526123 120.0
360.590637 80.0
360.606476 104.0
360.685974 184.0
360.73819 144.0
360.746552 252.0
360.786591 328.0
360.825623 112.0
360.877747 468.0
360.917847 40.0
360.96225 100.0
360.99353 172.0
361.065521 112.0
361.106232 140.0
361.111176 204.0
361.145233 148.0
361.200958 100.0
361.256683 22420.0
361.361267 60.0
361.390533 60.0
361.437347 100.0
361.46286 112.0
361.499573 144.0
361.512909 92.0
361.527435 84.0
361.574249 140.0
361.603363 144.0
361.654755 36.0
361.70816 72.0
361.749207 332.0
361.779053 88.0
361.845276 52.0
361.897675 64.0
361.946686 160.0
362.049255 44.0
362.091919 136.0
362.185486 68.0
362.259308 2984.0
362.33252 48.0
362.380676 48.0
362.408478 88.0
362.469391 84.0
362.50351 72.0
362.600769 60.0
362.665375 140.0
362.699982 76.0
362.735291 52.0
362.833252 92.0
362.909088 96.0
362.943848 72.0
362.996307 52.0
363.073212 100.0
363.129028 76.0
363.16864 72.0
363.257294 160.0
363.310059 96.0
363.343903 124.0
363.417969 192.0
363.482086 184.0
363.539825 128.0
363.567749 88.0
363.598328 128.0
363.64859 188.0
363.7164 284.0
363.77652 68.0
363.817719 96.0
363.851349 136.0
363.891754 104.0
364.01001 56.0
364.041443 84.0
364.085419 84.0
364.123383 88.0
364.202728 104.0
364.24115 68.0
364.434875 120.0
364.461487 104.0
364.510895 56.0
364.552673 48.0
364.611755 124.0
364.664246 124.0
364.704712 32.0
364.733307 92.0
364.798126 108.0
364.843628 80.0
364.940399 80.0
365.065887 56.0
365.15921 88.0
365.252228 56.0
365.322601 96.0
365.499512 44.0
365.567535 92.0
365.636505 56.0
365.754517 72.0
365.861084 88.0
366.009583 56.0
366.249512 48.0
366.470459 40.0
366.522705 56.0
366.744843 64.0
366.82489 36.0
367.007874 28.0
367.419769 96.0
367.456543 76.0
367.667816 60.0
367.725037 76.0
367.996094 48.0
368.125916 52.0
368.160278 56.0
368.274841 60.0
368.305389 28.0
368.496399 68.0
368.607208 96.0
368.664551 44.0
368.77536 52.0
368.855621 56.0
369.226501 68.0
369.360382 100.0
369.394806 64.0
369.585815 56.0
370.390045 96.0
370.539429 36.0
370.888153 140.0
370.922668 40.0
371.194855 96.0
371.417633 48.0
371.566925 92.0
371.593781 60.0
372.761017 56.0
373.03775 76.0
373.48764 88.0
373.672302 152.0
373.94165 108.0
374.636017 132.0
375.023926 52.0
375.536743 104.0
375.737305 44.0
375.779755 72.0
376.466827 132.0
377.154541 64.0
377.398071 60.0
377.541138 80.0
377.823517 44.0
378.05954 80.0
378.214355 96.0
378.992737 116.0
379.461731 76.0
379.554779 80.0
380.026215 104.0
381.324982 56.0
382.340057 52.0
382.402313 68.0
383.266846 80.0
383.89444 112.0
384.503021 104.0
384.670837 100.0
385.725525 80.0
386.625092 116.0
386.903015 112.0
387.090942 84.0
387.901947 76.0
387.960754 92.0
388.552917 32.0
388.666718 84.0
389.601135 48.0
389.660065 44.0
389.986206 60.0
390.202423 100.0
391.307953 120.0
392.738434 68.0
395.377655 44.0
395.413269 92.0
395.793274 92.0
398.832153 112.0
399.384827 60.0
399.611572 96.0
399.890137 96.0
400.033447 164.0
401.001343 120.0
401.308289 88.0
402.605133 56.0
404.932739 104.0
405.056885 40.0
405.838379 84.0
407.054169 116.0
407.09433 68.0
407.516083 108.0
408.195374 72.0
408.380371 60.0
408.448761 52.0
408.557373 128.0
408.686096 116.0
410.47049 64.0
414.091431 40.0
414.986969 124.0
416.058044 84.0
417.195557 56.0
419.291779 28.0
422.619843 132.0
422.767151 32.0
423.528656 44.0
427.951508 100.0
428.215057 172.0
429.760925 68.0
431.061615 100.0
432.235962 108.0
432.322845 60.0
432.819611 132.0
433.88855 104.0
433.938293 72.0
434.377899 96.0
435.743683 80.0
436.911926 140.0
437.952606 96.0
442.123444 60.0
444.306488 84.0
444.3862 76.0
445.166931 124.0
446.743073 68.0
447.580597 48.0
449.810822 96.0
452.842499 84.0
453.503448 72.0
453.908936 68.0
455.179199 100.0
455.289581 112.0
456.190369 100.0
457.134583 60.0
459.384186 100.0
462.340881 164.0
462.52063 76.0
463.090088 116.0
463.428528 60.0
464.19577 64.0
465.255554 60.0
467.034546 68.0
467.391632 112.0
468.511047 108.0
469.416168 60.0
471.380249 64.0
471.419128 56.0
473.61261 44.0
473.733917 88.0
475.073425 44.0
477.941803 92.0
478.245483 104.0
480.153809 60.0
480.454773 52.0
481.15741 44.0
489.584991 56.0
491.352539 112.0
492.230865 84.0
492.950897 80.0
494.042969 68.0
494.215515 64.0
494.724487 52.0
495.641266 84.0
495.960358 132.0
496.554474 92.0
497.21109 108.0
501.525269 116.0
503.171326 88.0
503.841217 108.0
504.265717 104.0
504.927399 60.0
506.959869 88.0
508.816833 76.0
509.858917 36.0
510.303925 72.0
510.339905 68.0
510.411835 96.0
511.010071 124.0
515.69989 48.0
516.034424 96.0
518.016602 80.0
518.070984 100.0
518.102661 32.0
518.759766 56.0
519.344727 44.0
520.147888 92.0
523.079773 76.0
525.577209 32.0
527.458801 132.0
527.6828 48.0
528.336792 112.0
529.430725 112.0
530.970581 84.0
531.030212 40.0
531.631226 36.0
531.879028 48.0
532.67804 68.0
533.739685 60.0
534.972656 76.0
536.345398 40.0
539.017517 40.0
539.812561 156.0
539.96521 84.0
540.020691 120.0
542.511902 120.0
542.734436 112.0
543.077576 96.0
545.445618 112.0
546.240784 68.0
547.227356 136.0
548.405945 116.0
550.108521 76.0
550.603394 92.0
551.210693 44.0
551.589111 120.0
551.692139 124.0
552.145691 52.0
552.276611 76.0
554.402161 68.0
555.536804 32.0
556.64447 72.0
557.466553 128.0
558.251587 60.0
559.051331 120.0
559.922241 80.0
560.36499 80.0
560.574036 104.0
563.275757 52.0
564.476196 40.0
565.971436 40.0
566.355042 80.0
566.805115 76.0
568.512207 96.0
572.676941 76.0
574.807922 128.0
576.226013 104.0
579.019531 160.0
580.716125 128.0
583.232056 80.0
585.536682 80.0
586.018433 56.0
587.493652 68.0
588.241638 52.0
590.652893 100.0
591.18512 60.0
591.422241 80.0
591.494873 112.0
591.809509 56.0
594.567688 80.0
595.087097 44.0
595.315308 44.0
596.55426 124.0
599.055542 52.0
599.318604 56.0
599.908325 60.0
599.991211 60.0
600.542236 44.0
601.40094 120.0
601.605957 44.0
602.343323 80.0
603.2229 96.0
603.702087 76.0
603.936829 44.0
605.713623 72.0
608.135803 52.0
608.764221 108.0
609.663208 76.0
612.807495 92.0
615.219177 92.0
616.068542 96.0
618.471741 96.0
620.68335 132.0
621.117737 68.0
622.000977 76.0
623.605286 72.0
634.773132 68.0
635.432861 60.0
635.791504 52.0
635.84668 136.0
636.906067 44.0
638.836365 60.0
640.542847 84.0
641.984253 56.0
642.135559 92.0
644.048462 112.0
644.321228 68.0
645.979675 80.0
647.447205 84.0
650.098572 88.0
652.841736 96.0
655.799683 36.0
658.304626 76.0
659.893738 76.0
666.885925 52.0
667.888611 44.0
669.144226 108.0
670.277344 44.0
670.699951 76.0
670.828796 32.0
671.148499 68.0
672.319458 112.0
673.09375 52.0
679.59491 116.0
687.566956 68.0
687.807007 88.0
687.947937 56.0
688.208984 72.0
692.580933 80.0
693.235779 68.0
696.866821 32.0
697.991638 160.0
699.601624 72.0
699.949097 84.0
700.560059 80.0
702.099121 60.0
705.970093 40.0
708.002197 40.0
710.28125 116.0
713.015625 116.0
714.568359 48.0
716.175964 136.0
716.717163 176.0
721.92926 48.0
724.552002 64.0
733.316223 60.0
734.621094 48.0
737.877563 64.0
739.094543 36.0
739.462524 104.0
743.044312 60.0
745.590942 68.0
747.597656 56.0
754.404602 132.0
755.093567 28.0
755.71167 68.0
758.554016 44.0
761.269836 48.0
763.440491 44.0
763.550476 84.0
769.799866 52.0
771.413147 96.0
773.028137 36.0
778.627258 136.0
779.127197 60.0
779.299438 28.0
782.102234 40.0
783.951233 232.0
786.455383 40.0
786.706543 56.0
792.932068 40.0
793.386108 36.0
794.793884 128.0
795.018311 160.0
797.090454 40.0
800.386658 52.0
801.552673 104.0
803.94928 152.0
804.045227 80.0
807.746033 96.0
809.557129 96.0
816.008728 76.0
817.220154 120.0
818.842529 92.0
819.207031 76.0
824.553467 160.0
827.93457 40.0
831.299622 144.0
831.466064 104.0
832.568298 64.0
833.320801 168.0
833.504639 144.0
837.001953 104.0
837.145874 116.0
840.852783 60.0
842.943298 80.0
854.051331 152.0
858.040222 80.0
862.278076 100.0
863.336243 84.0
865.237915 84.0
874.094788 124.0
875.790283 68.0
875.902222 180.0
877.257507 124.0
878.572632 148.0
881.76709 68.0
887.135681 68.0
887.325378 56.0
888.980286 96.0
894.716003 96.0
895.865356 48.0
896.431396 188.0
897.122742 36.0
905.529968 156.0
907.243713 64.0
909.691284 84.0
910.651978 32.0
915.818542 128.0
917.976074 48.0
922.546631 32.0
927.334595 224.0
929.020325 60.0
930.349304 172.0
930.920044 64.0
937.374207 236.0
938.001953 76.0
939.056824 136.0
939.111694 52.0
945.514587 184.0
946.285889 60.0
946.959473 48.0
947.1922 64.0
951.423462 116.0
955.350403 124.0
959.994446 232.0
961.110962 184.0
964.056458 88.0
964.421082 76.0
966.8703 184.0
967.074524 88.0
967.92395 204.0
969.619995 60.0
971.970337 80.0
973.373169 40.0
975.205811 120.0
975.864746 68.0
976.24408 40.0
977.158447 48.0
978.608582 52.0
982.890625 128.0
984.469971 188.0
989.603638 220.0
990.29248 164.0
993.671204 92.0
993.909668 128.0
995.560547 152.0
995.711304 128.0
1003.419617 160.0
1007.686035 128.0
1009.57605 120.0
1012.322449 40.0
1014.869751 216.0
1015.770325 68.0
1015.840088 220.0
1019.1922 44.0
1020.22821 48.0
1020.279053 208.0
1021.105652 220.0
1022.670837 64.0
1023.89325 196.0
1025.339355 172.0
1027.59668 152.0
1027.902954 92.0
1028.860352 148.0
1029.792725 116.0
1030.629517 168.0
1036.362549 232.0
1038.401001 104.0
1041.912231 68.0
1042.4198 144.0
1043.049683 176.0
1043.178223 32.0
1045.416504 176.0
1046.124512 156.0
1047.109619 40.0
1047.174072 184.0
1051.138794 100.0
1051.939087 56.0
1053.359619 180.0
1054.542114 140.0
1057.232544 172.0
1058.578979 116.0
1058.825073 104.0
1059.835693 108.0
1059.991211 164.0
1061.520996 132.0
1062.416016 156.0
1062.649658 72.0
1063.220581 136.0
1067.553711 248.0
1067.833374 160.0
1068.399292 80.0
1068.444824 164.0
1073.055786 148.0
1074.399048 180.0
1074.803833 100.0
1075.051758 192.0
1076.638184 196.0
1077.356567 116.0
1077.977295 152.0
1078.859619 176.0
1079.22583 96.0
1082.039185 56.0
1083.244141 116.0
1083.506226 192.0
1085.446289 192.0
1086.449707 64.0
1086.777832 88.0
1087.827881 96.0
1089.167358 48.0
1091.303223 148.0
1092.164673 88.0
1093.289795 228.0
1095.376831 168.0
1097.287964 192.0
1101.855103 52.0
1103.408203 108.0
1104.07605 88.0
1104.195068 60.0
1105.918579 136.0
1105.994629 116.0
1107.557373 80.0
1108.777466 176.0
1109.876831 144.0
1110.307861 76.0
1110.884888 208.0
1110.984375 176.0
1111.528442 128.0
1113.453613 204.0
1113.845459 56.0
1114.489868 236.0
1115.154419 188.0
1115.300659 168.0
1115.66626 52.0
1117.408691 184.0
1118.127319 128.0
1118.327026 108.0
1118.613281 156.0
1122.464111 52.0
1125.179688 164.0
1126.328247 80.0
1127.270264 208.0
1127.845093 192.0
1132.528809 52.0
1134.110107 112.0
1134.177124 176.0
1134.270996 256.0
1134.398315 132.0
1135.404053 164.0
1135.45105 144.0
1136.658447 128.0
1138.517944 104.0
1139.572632 160.0
1139.67334 56.0
1140.80249 64.0
1144.516235 164.0
1145.849854 96.0
1145.917236 144.0
1146.348389 108.0
1146.47644 132.0
1146.591064 76.0
1146.847168 144.0
1147.029175 84.0
1148.033691 104.0
1151.711914 148.0
1158.225708 56.0
1158.862427 140.0
1160.678955 120.0
1161.099487 76.0
1163.576172 68.0
1163.827393 212.0
1163.874878 108.0
1165.240112 180.0
1165.817627 244.0
1166.973145 172.0
1167.557983 64.0
1168.14978 192.0
1169.394897 56.0
1169.558228 108.0
1170.341187 96.0
1170.640747 76.0
1171.478516 300.0
1172.357422 96.0
1173.734375 208.0
1177.234985 140.0
1177.282837 92.0
1178.785767 104.0
1179.742554 128.0
1180.200684 156.0
1180.269043 116.0
1180.911865 60.0
1181.418091 160.0
1185.217896 120.0
1187.80249 172.0
1188.522827 156.0
1189.058105 156.0
1189.531616 64.0
1190.712646 212.0
1191.159058 140.0
1192.478394 128.0
1194.190308 144.0
1195.820923 88.0
1196.46106 204.0
1198.368896 220.0
1198.796021 132.0
1201.429932 92.0
1203.162109 204.0
1203.562622 120.0
1203.776611 212.0
1203.928589 164.0
1204.101196 164.0
1204.508667 116.0
1205.621094 176.0
1206.913696 152.0
1209.037354 208.0
1209.833374 100.0
1210.574219 188.0
1211.675537 112.0
1212.500122 152.0
1213.526001 168.0
1214.212524 208.0
1214.559326 192.0
1215.021973 180.0
1216.655029 44.0
1217.064575 168.0
1217.279907 128.0
1217.661865 124.0
1217.842407 136.0
1218.842773 172.0
1220.997803 84.0
1221.853394 80.0
1222.556152 204.0
1223.293945 148.0
1223.802124 144.0
1226.38147 180.0
1229.364624 60.0
1230.223145 160.0
1230.544312 88.0
1231.012085 76.0
1231.968994 208.0
1232.178589 88.0
1232.898193 104.0
1233.177856 144.0
1233.485352 100.0
1233.646118 60.0
1234.436157 56.0
1237.724976 212.0
1240.583496 256.0
1241.137451 112.0
1242.147339 156.0
1242.61731 140.0
1242.890991 148.0
1243.697998 152.0
1244.96875 168.0
1246.865601 228.0
1248.363037 144.0
1251.65625 132.0
1252.120972 148.0
1253.015625 116.0
1253.529907 216.0
1253.790649 172.0
1255.96228 140.0
1256.971069 180.0
1258.13562 212.0
1259.152466 140.0
1260.9823 104.0
1261.342773 208.0
1261.851807 144.0
1262.021484 220.0
1262.198242 160.0
1262.311401 132.0
1262.675903 220.0
1263.088623 200.0
1263.315674 120.0
1263.790039 156.0
1264.886597 52.0
1265.254761 172.0
1265.941528 160.0
1266.274414 92.0
1266.6073 88.0
1267.088989 124.0
1267.684204 204.0
1268.038574 44.0
1269.208252 208.0
1269.562744 200.0
1269.881958 76.0
1270.148315 208.0
1270.194092 244.0
1270.442261 204.0
1272.124146 204.0
1272.472046 136.0
1274.496216 164.0
1274.716553 56.0
1275.73999 200.0
1277.845093 176.0
1278.058594 148.0
1278.208008 108.0
1279.425049 156.0
1279.781006 132.0
1280.521606 228.0
1280.927612 132.0
1282.780396 164.0
1282.97998 248.0
1284.92688 176.0
1285.404907 204.0
1286.546875 100.0
1286.803955 76.0
1292.078369 120.0
1292.536255 52.0
1294.268433 192.0
1294.648071 40.0
1296.052002 164.0
1297.019531 156.0
1297.14856 176.0
1297.213013 136.0
1297.449585 112.0
1298.145142 144.0
1298.231201 68.0
1300.218384 188.0
1300.519775 192.0
1300.627441 192.0
1301.589478 180.0
1301.783325 88.0
1302.451294 140.0
1303.263062 68.0
1305.25415 160.0
1306.304199 104.0
1306.786133 124.0
1307.419434 204.0
1307.520142 100.0
1308.160767 168.0
1309.039062 168.0
1309.478394 124.0
1310.515747 148.0
1311.322876 152.0
1311.91394 208.0
1313.839355 144.0
1313.962036 140.0
1314.12793 124.0
1315.167114 216.0
1316.358398 148.0
1316.445068 136.0
1316.907227 80.0
1318.019775 52.0
1318.482178 128.0
1319.154419 232.0
1319.450806 204.0
1320.171387 184.0
1320.759766 144.0
1320.926025 92.0
1321.121338 100.0
1321.381836 144.0
1321.606079 224.0
1321.982422 228.0
1322.05481 64.0
1322.365967 100.0
1325.088745 204.0
1327.195068 72.0
1327.625732 168.0
1328.126099 212.0
1330.600708 60.0
1331.580933 196.0
1332.176514 52.0
1333.629883 88.0
1335.003906 136.0
1337.7323 124.0
1338.460449 176.0
1339.414429 188.0
1339.552856 120.0
1339.603882 156.0
1340.448975 136.0
1340.747803 196.0
1341.629761 100.0
1342.293213 140.0
1342.759888 40.0
1343.109985 200.0
1343.175659 108.0
1344.145996 132.0
1344.532715 136.0
1345.014526 152.0
1345.649536 128.0
1346.971436 128.0
1348.060059 212.0
1348.32312 96.0
1348.805542 172.0
1349.543823 136.0
1350.121582 176.0
1350.216553 232.0
1351.840698 152.0
1352.140747 208.0
1354.293213 156.0
1354.886597 64.0
1355.64856 52.0
1356.901978 204.0
1358.390747 164.0
1359.682129 168.0
1360.122437 364.0
1360.981323 160.0
1361.194336 28.0
1362.016846 136.0
1362.259277 216.0
1363.677368 128.0
1363.85376 144.0
1364.096436 68.0
1364.633057 80.0
1364.868286 116.0
1365.324219 168.0
1365.942139 128.0
1366.744019 132.0
1367.766968 164.0
1368.672485 36.0
1369.099609 108.0
1369.180542 104.0
1369.725586 200.0
1370.292847 196.0
1370.432861 192.0
1371.103394 152.0
1372.091187 56.0
1373.514404 216.0
1373.947266 208.0
1374.613647 104.0
1375.624878 132.0
1375.971802 88.0
1377.175415 164.0
1377.463501 152.0
1377.759033 48.0
1377.899414 180.0
1378.6604 104.0
1378.993042 128.0
1379.118652 168.0
1379.702637 164.0
1380.619507 212.0
1380.708252 148.0
1381.322144 212.0
1381.950928 148.0
1382.328369 124.0
1382.380127 184.0
1382.90564 40.0
1383.342285 76.0
1383.630981 76.0
1383.905029 212.0
1385.04541 120.0
1385.401001 204.0
1385.712158 144.0
1388.18042 72.0
1389.396851 208.0
1391.794189 168.0
1393.001221 180.0
1393.257324 44.0
1393.487549 164.0
1394.21582 140.0
1396.451294 188.0
1396.565186 144.0
1397.219849 180.0
1399.06543 172.0
1399.772705 128.0
1400.659058 44.0
1401.031494 88.0
1401.232666 92.0
1401.79895 172.0
1401.918091 208.0
1402.544189 184.0
1404.758789 52.0
1404.967651 176.0
1405.960083 136.0
1407.221558 164.0
1407.669556 80.0
1408.140137 172.0
1408.431396 136.0
1409.402588 192.0
1409.454834 72.0
1409.813599 96.0
1410.142456 132.0
1411.697388 196.0
1413.028809 176.0
1414.181274 188.0
1414.233643 188.0
1414.315918 204.0
1414.757568 160.0
1417.648682 176.0
1419.395386 172.0
1419.530273 116.0
1421.465698 84.0
1422.06604 168.0
1423.69519 172.0
1423.905518 132.0
1424.55896 76.0
1425.152466 108.0
1425.483032 264.0
1426.38501 160.0
1427.264526 240.0
1428.460327 252.0
1429.506104 160.0
1430.070557 120.0
1431.500977 176.0
1432.186401 140.0
1432.630737 140.0
1432.721191 156.0
1433.037598 52.0
1433.881592 192.0
1434.529785 144.0
1435.457153 156.0
1436.784668 136.0
1438.30896 172.0
1439.667969 144.0
1439.81897 104.0
1442.040161 132.0
1442.909546 80.0
1443.514404 136.0
1443.681641 180.0
1443.739746 100.0
1443.832031 128.0
1444.1875 52.0
1444.482544 116.0
1445.019653 160.0
1445.458496 108.0
1446.32312 196.0
1446.50293 100.0
1446.563477 108.0
1447.100952 64.0
1447.252441 132.0
1447.479492 120.0
1447.843018 164.0
1450.320557 56.0
1451.700317 112.0
1452.087158 248.0
1453.308472 168.0
1453.847168 152.0
1455.486938 116.0
1456.140015 188.0
1456.653442 212.0
1457.051514 124.0
1458.404175 220.0
1459.027466 100.0
1459.453247 160.0
1460.206055 124.0
1460.670044 52.0
1461.369873 120.0
1462.343994 56.0
1462.557129 184.0
1462.663696 232.0
1462.755005 80.0
1463.84375 140.0
1464.620605 184.0
1465.062378 180.0
1465.313721 196.0
1465.481445 132.0
1466.12146 160.0
1466.243408 148.0
1467.112305 144.0
1467.226685 144.0
1467.447754 228.0
1467.592651 172.0
1467.981567 184.0
1468.477295 184.0
1470.666992 168.0
1470.949463 112.0
1472.132812 180.0
1472.575806 140.0
1473.156372 188.0
1474.608154 148.0
1476.65564 192.0
1477.05481 148.0
1477.192505 120.0
1478.33252 140.0
1479.495972 272.0
1479.695068 140.0
1481.90918 132.0
1482.981323 60.0
1483.157593 96.0
1484.069824 148.0
1484.399536 80.0
1484.514526 104.0
1485.112793 48.0
1485.580688 88.0
1485.661133 260.0
1485.864502 148.0
1486.393921 196.0
1486.647217 44.0
1486.954224 176.0
1487.675659 104.0
1488.074951 152.0
1491.201782 152.0
1491.501099 136.0
1491.993164 64.0
1493.277222 172.0
1494.592773 72.0
1495.108276 172.0
1495.816406 172.0
1496.216675 88.0
1496.601685 164.0
1498.658203 168.0
1498.712158 188.0
1499.791016 160.0
1500.939697 236.0
1502.351074 168.0
