>compound Piperin
>formula C17H19NO3
>ionization [M+H]+
>parentmass 286.1437699200905
#inchi InChI=1S/C17H19NO3/c19-17(18-10-4-1-5-11-18)7-3-2-6-14-8-9-15-16(12-14)21-13-20-15/h2-3,6-9,12H,1,4-5,10-11,13H2/b6-2+,7-3+
#inchikey MXXWOMGUGJBKIW
#Ion_Source DI-ESI
#Instrument qTof
#Compound_Source Isolated
#PI Norberto Lopes
#Data_Collector Denise Silva
#Scan -1
#Precursor_MZ 286.117
#ExactMass 285.137
#Charge 1
#CAS_Number 94-62-2
#Pubmed_ID N/A
#Smiles O=C(/C=C/C=C/C1=CC=C(OCO2)C2=C1)N3CCCCC3
#INCHI_AUX N/A
#Library_Class 3
#SpectrumID CCMSLIB00000081712
#IonMode Positive
#UpdateWorkflowName UPDATE-SINGLE-ANNOTATED-BRONZE
#LibraryQualityString Bronze
#TaskID 52bd5f0db6314c93924d5ce5c86348eb
##Scan# 1
#SpectrumFile gnps_Piperin_pos_MplusH.mgf
#LibraryName gnps_library.mgf
#MQScore -1
#Organism batch_27_05_V02
#TIC_Query 0
#RT_Query -1
#MZErrorPPM -1
#SharedPeaks 0
#MassDiff 0
#LibMZ -1
#SpecMZ 286.117
#SpecCharge 0
#internalFilename spec-00000.mgf

>collision 10
115.043518 63311.0
116.047508 4184.0
117.058113 2086.0
122.084412 986.0
127.042664 929.0
131.037109 1227.0
135.029816 77115.0
136.034515 3939.0
143.03476 85198.0
144.039291 5554.0
145.049576 2877.0
150.076477 2152.0
151.084015 8484.0
155.046326 2357.0
159.03009 21529.0
160.033127 1473.0
161.043625 1441.0
171.028061 70666.0
172.032166 5572.0
173.042984 23742.0
174.045822 1946.0
185.077469 1184.0
189.036987 976.0
201.035934 165895.0
202.038406 13097.0
218.097382 867.0
286.117432 1708.0
