>compound Caramboxin
>formula C11H13NO6
>ionization [M+H]+
>parentmass 256.082
#inchi InChI=1S/C11H13NO6/c1-18-6-2-5(3-7(12)10(14)15)9(11(16)17)8(13)4-6/h2,4,7,13H,3,12H2,1H3,(H,14,15)(H,16,17)/t7-/m0/s1
#inchikey DYJIDGJHOLTGBO
#Ion_Source DI-ESI
#Instrument qTof
#Compound_Source Isolated
#PI Norberto Lopes
#Data_Collector Norberto Lopes
#Scan -1
#Precursor_MZ 256.082
#ExactMass 255.074
#Charge 1
#CAS_Number 1531600-36-8
#Pubmed_ID N/A
#Smiles OC1=CC(OC)=CC(C[C@@H](C(O)=O)N)=C1C(O)=O
#INCHI_AUX N/A
#Library_Class 3
#SpectrumID CCMSLIB00000081720
#IonMode Positive
#UpdateWorkflowName UPDATE-SINGLE-ANNOTATED-BRONZE
#LibraryQualityString Bronze
#TaskID 52bd5f0db6314c93924d5ce5c86348eb
##Scan# 1
#SpectrumFile gnps_Caramboxin_pos_MplusH.mgf
#LibraryName gnps_library.mgf
#MQScore -1
#Organism batch_27_05_V02
#TIC_Query 0
#RT_Query -1
#MZErrorPPM -1
#SharedPeaks 0
#MassDiff 0
#LibMZ -1
#SpecMZ 256.082
#SpecCharge 0
#internalFilename spec-00000.mgf

>collision 10
121.059578 9805.0
134.055084 5030.0
139.06958 25213.0
146.055527 5520.0
149.051544 36504.0
153.048752 4693.0
160.033615 19318.0
164.064789 7657.0
165.050308 11739.0
166.081345 284596.0
167.083664 18294.0
174.050323 15810.0
176.064087 12000.0
177.044785 34441.0
178.047043 6717.0
192.060654 931267.0
193.064056 78319.0
194.074936 5027.0
195.06015 6817.0
210.071533 6695.0
212.086166 25705.0
220.056366 23685.0
238.063583 591238.0
239.06926 53910.0
256.077362 1759.0
