>compound MLS001401409-01!Amlodipine
>formula C20H25ClN2O5
>ionization [M+H]+
>parentmass 409.15247603209053
#inchi InChI=1S/C20H25ClN2O5/c1-4-28-20(25)18-15(11-27-10-9-22)23-12(2)16(19(24)26-3)17(18)13-7-5-6-8-14(13)21/h5-8,17,25H,4,9-11,22H2,1-3H3/b20-18+
#inchikey VNTNQZVUQJROCO
#Ion_Source LC-ESI
#Instrument qTof
#Compound_Source NIH Pharmacologically Active Library
#PI Dorrestein
#Data_Collector VP/LMS
#Scan -1
#Precursor_MZ 409.147
#ExactMass 408.145
#Charge 1
#CAS_Number N/A
#Pubmed_ID N/A
#Smiles CCO/C(=C\1/C(C(=C(C)N=C1COCCN)C(=O)OC)c2ccccc2Cl)/O
#INCHI_AUX N/A
#Library_Class 1
#SpectrumID CCMSLIB00000085294
#IonMode Positive
#UpdateWorkflowName UPDATE-SINGLE-ANNOTATED-GOLD
#LibraryQualityString Gold
#TaskID d252d724072548979f1f6f1ced849daf
##Scan# 1785
#SpectrumFile p3-G11_GG11_01_18304.mzXML
#LibraryName Pharm_Active_Library.mgf
#MQScore -1
#Organism Pharm_Active_Library
#TIC_Query 0
#RT_Query -1
#MZErrorPPM -1
#SharedPeaks 0
#MassDiff 0
#LibMZ -1
#SpecMZ 409.147
#SpecCharge 0
#internalFilename spec-00000.mgf

>collision 10
44.918972 140.0
45.000385 128.0
45.196884 132.0
45.320076 120.0
45.491756 88.0
45.60191 184.0
45.61132 152.0
45.915634 176.0
45.931824 200.0
45.953598 228.0
45.970951 120.0
46.020199 208.0
46.210136 152.0
46.287292 176.0
46.383492 212.0
46.409252 128.0
46.612873 64.0
46.648212 132.0
46.842823 216.0
46.857807 112.0
46.959175 240.0
46.998253 76.0
47.200428 108.0
47.249668 132.0
47.282513 124.0
47.545666 124.0
47.555275 100.0
47.595089 216.0
47.641788 200.0
47.717529 148.0
47.790283 136.0
48.121098 136.0
48.159767 108.0
48.245449 176.0
48.300766 132.0
48.347813 132.0
48.381035 140.0
48.480766 172.0
48.491856 168.0
48.519581 124.0
48.555637 264.0
48.586155 176.0
48.81813 140.0
49.141315 100.0
49.205067 172.0
49.297718 108.0
49.310295 200.0
49.482365 224.0
49.506172 212.0
49.515976 172.0
49.558002 140.0
49.587433 156.0
49.618275 72.0
49.716469 148.0
49.758583 256.0
49.785263 120.0
49.80352 148.0
49.886433 160.0
49.939873 212.0
50.055935 208.0
50.309086 44.0
50.368401 144.0
50.464504 168.0
50.487129 68.0
50.508347 108.0
50.539474 172.0
50.603172 172.0
50.648491 144.0
50.688164 220.0
50.733521 144.0
50.764713 52.0
50.912315 192.0
51.121304 172.0
51.178246 48.0
51.245193 128.0
51.287949 196.0
51.40205 100.0
51.818165 32.0
51.855427 176.0
52.039055 56.0
52.090759 212.0
52.105564 144.0
52.244587 60.0
52.338146 288.0
52.486572 216.0
52.518299 312.0
52.794174 140.0
52.862514 240.0
53.300125 48.0
53.591152 124.0
53.621132 176.0
53.712162 100.0
53.753017 60.0
53.830387 200.0
53.858139 208.0
53.891743 100.0
54.035034 88.0
54.065765 72.0
54.081867 148.0
54.11554 168.0
54.226879 156.0
54.244186 104.0
54.294323 104.0
54.398506 204.0
54.413189 40.0
54.563053 160.0
54.610115 152.0
54.676323 144.0
54.713127 116.0
54.729198 260.0
54.740139 232.0
54.934193 132.0
55.081821 64.0
55.106937 184.0
55.142406 80.0
55.238522 100.0
55.305111 152.0
55.395275 140.0
55.444344 180.0
55.472507 184.0
56.181904 136.0
56.249062 88.0
56.370045 148.0
56.416382 164.0
56.512104 144.0
56.571976 172.0
56.648354 112.0
56.765266 212.0
56.877796 184.0
57.440609 124.0
57.574947 220.0
57.641422 196.0
57.688278 160.0
57.706421 112.0
57.757839 108.0
58.4147 204.0
58.449696 164.0
58.467957 136.0
58.565407 140.0
58.598923 56.0
58.64769 164.0
58.714779 36.0
58.847546 228.0
58.911694 220.0
59.130363 292.0
59.20079 152.0
59.245331 52.0
59.267616 180.0
59.435341 200.0
59.539734 268.0
59.570454 396.0
59.590427 100.0
59.681118 92.0
59.719566 160.0
59.813431 124.0
59.834984 176.0
60.007553 116.0
60.044563 212.0
60.089302 196.0
60.118618 180.0
60.180367 184.0
60.334877 188.0
60.45089 120.0
60.508163 160.0
60.53566 148.0
60.567013 36.0
60.580463 176.0
60.596451 204.0
60.832191 204.0
61.049728 96.0
61.278561 172.0
61.353374 144.0
61.448513 208.0
61.465679 168.0
61.498455 84.0
61.648392 92.0
61.690598 172.0
61.828251 120.0
62.143234 128.0
62.190315 132.0
62.202873 248.0
62.217003 128.0
62.306526 168.0
62.377247 148.0
62.58493 244.0
62.640053 216.0
62.758011 176.0
62.763203 148.0
62.768108 196.0
62.796112 120.0
62.816616 164.0
63.051895 160.0
63.132526 136.0
63.165741 56.0
63.197384 104.0
63.222515 168.0
63.371563 108.0
63.463497 188.0
63.539631 184.0
63.5555 164.0
63.617397 152.0
63.649155 168.0
63.717457 112.0
63.730167 172.0
63.936905 144.0
64.174271 164.0
64.321045 120.0
64.461601 192.0
64.554321 152.0
64.682327 168.0
64.711143 140.0
64.817139 208.0
65.110451 268.0
65.140968 144.0
65.16507 172.0
65.229355 192.0
65.485207 212.0
65.525482 160.0
65.568848 216.0
65.635094 148.0
65.789986 176.0
65.954765 168.0
66.01944 224.0
66.033997 40.0
66.255775 160.0
66.378967 140.0
66.524994 116.0
66.547729 152.0
66.593201 160.0
66.666313 124.0
66.798019 160.0
67.05204 244.0
67.073227 168.0
67.166176 192.0
67.458992 208.0
67.474838 104.0
67.51899 68.0
67.695747 116.0
67.751434 180.0
67.830101 116.0
67.972794 152.0
68.028603 132.0
68.247124 160.0
68.266853 164.0
68.42318 172.0
68.45282 96.0
68.650581 204.0
68.69841 72.0
68.785881 36.0
68.829216 352.0
68.84697 256.0
68.974197 48.0
69.220726 196.0
69.338356 60.0
69.399963 196.0
69.49424 108.0
69.720085 136.0
69.889709 124.0
69.92466 176.0
69.949631 248.0
70.343056 288.0
70.358078 116.0
70.403168 88.0
70.431557 64.0
70.476669 180.0
70.515106 124.0
70.548538 136.0
70.637177 200.0
70.767715 160.0
70.807907 120.0
70.935257 180.0
71.040909 96.0
71.141609 60.0
71.274467 200.0
71.294464 108.0
71.306229 188.0
71.385246 80.0
71.444122 60.0
71.472725 180.0
71.914284 176.0
72.037552 152.0
72.160927 184.0
72.179527 196.0
72.238731 244.0
72.270874 184.0
72.670761 192.0
72.790047 252.0
72.883018 248.0
73.051338 184.0
73.088776 172.0
73.148346 156.0
73.213043 208.0
73.245407 156.0
73.395393 132.0
73.543823 192.0
73.634315 196.0
73.70607 132.0
73.743668 84.0
73.801796 184.0
73.903091 164.0
73.940369 56.0
73.955772 36.0
73.972893 92.0
74.022545 212.0
74.13047 192.0
74.253914 152.0
74.362007 76.0
74.478767 192.0
74.490791 108.0
74.557808 176.0
74.647202 176.0
74.80722 164.0
74.82444 168.0
74.900215 184.0
75.00016 216.0
75.107071 204.0
75.15538 204.0
75.168549 236.0
75.245132 128.0
75.442093 212.0
75.504341 112.0
75.604691 116.0
75.641037 36.0
75.721642 124.0
75.736282 168.0
75.822914 148.0
75.885323 28.0
75.933876 44.0
76.050133 184.0
76.110893 72.0
76.175163 148.0
76.239449 148.0
76.521255 56.0
76.545639 216.0
76.644928 148.0
76.660614 88.0
76.691986 228.0
76.749519 108.0
76.814972 144.0
76.854179 96.0
76.887337 188.0
76.92923 132.0
77.039253 120.0
77.089928 172.0
77.275284 44.0
77.298035 212.0
77.31028 132.0
77.329536 148.0
77.511673 204.0
77.620361 196.0
77.664207 184.0
77.7379 84.0
78.200134 284.0
78.547264 104.0
78.586082 104.0
78.713173 220.0
78.748497 132.0
79.020439 140.0
79.038437 88.0
79.376785 56.0
79.657219 60.0
79.795845 96.0
79.897224 200.0
80.00045 204.0
80.061295 140.0
80.110863 104.0
80.157196 248.0
80.205315 108.0
80.271286 80.0
80.298889 192.0
80.347984 64.0
80.380104 168.0
80.630127 140.0
80.651581 188.0
80.669456 136.0
81.17617 164.0
81.335854 168.0
81.360992 176.0
81.393608 144.0
81.590958 144.0
81.679077 192.0
81.886086 80.0
82.032043 188.0
82.0681 108.0
82.421898 84.0
82.559288 60.0
82.604507 112.0
82.794571 200.0
82.854347 168.0
82.92321 168.0
83.02655 156.0
83.200752 112.0
83.287926 168.0
83.418762 160.0
83.691673 200.0
83.718994 148.0
83.855637 192.0
83.915794 200.0
84.094582 184.0
84.180077 208.0
84.215088 152.0
84.291824 188.0
84.525719 208.0
84.75663 176.0
84.800613 208.0
84.864777 132.0
85.077614 108.0
85.162086 160.0
85.313416 160.0
85.37529 160.0
85.412071 92.0
85.426788 168.0
85.461746 196.0
85.474632 116.0
85.61454 176.0
85.680855 224.0
85.767471 88.0
85.929764 148.0
86.158707 104.0
86.204903 204.0
86.352806 164.0
86.445312 104.0
86.502693 116.0
86.523056 104.0
86.65641 92.0
86.684204 44.0
86.702736 128.0
86.723129 208.0
86.817688 140.0
86.843651 128.0
86.903015 132.0
86.917862 128.0
86.962402 256.0
87.094238 172.0
87.172272 108.0
87.205727 156.0
87.328445 176.0
87.345192 148.0
87.471733 120.0
87.736275 112.0
87.769836 216.0
88.044167 268.0
88.087128 108.0
88.11702 48.0
88.303963 92.0
88.397507 172.0
88.455528 164.0
88.491096 180.0
88.504204 136.0
88.570747 208.0
88.807816 240.0
89.098793 164.0
89.177719 156.0
89.303696 168.0
89.591713 108.0
89.701019 216.0
89.719872 136.0
89.785873 124.0
89.880196 128.0
90.129456 88.0
90.193718 184.0
90.297714 180.0
90.360138 132.0
90.40966 236.0
90.428268 176.0
90.466125 176.0
90.581642 188.0
90.733261 124.0
90.767387 136.0
90.909668 144.0
91.002686 120.0
91.166054 36.0
91.339073 80.0
91.622734 156.0
91.685616 128.0
91.952637 172.0
92.030907 112.0
92.051361 356.0
92.113029 140.0
92.172256 36.0
92.207848 196.0
92.27739 128.0
92.315636 160.0
92.361542 120.0
92.665939 192.0
92.750259 96.0
92.765602 180.0
92.79052 248.0
92.851883 244.0
92.961243 116.0
93.009224 140.0
93.087944 184.0
93.122513 228.0
93.328148 252.0
93.71801 172.0
93.884689 176.0
93.940628 144.0
93.973427 56.0
93.998512 144.0
94.015877 196.0
94.06472 148.0
94.218628 132.0
94.35199 68.0
94.456421 264.0
94.469963 88.0
94.483505 144.0
94.690636 212.0
94.919319 152.0
95.062241 196.0
95.091988 184.0
95.165756 132.0
95.223587 232.0
95.2687 124.0
95.344482 160.0
95.412514 140.0
95.473045 156.0
95.568115 188.0
95.603142 56.0
95.620659 148.0
95.681007 208.0
95.988876 168.0
96.040298 476.0
96.135185 124.0
96.207405 164.0
96.250366 88.0
96.324585 208.0
96.375381 184.0
96.412865 220.0
96.504387 156.0
96.709808 88.0
96.936996 140.0
97.258652 104.0
97.372536 92.0
97.45031 68.0
97.464401 168.0
97.517937 116.0
97.738197 192.0
98.055267 160.0
98.313637 128.0
98.489365 136.0
98.61187 148.0
98.627686 108.0
98.783905 104.0
98.813583 208.0
98.958656 148.0
99.001312 148.0
99.057098 204.0
99.201759 276.0
99.320747 112.0
99.39415 176.0
99.429878 152.0
99.493393 96.0
99.539062 232.0
99.674149 160.0
99.733772 152.0
100.039604 296.0
100.157616 212.0
100.23127 136.0
100.237976 132.0
100.245811 180.0
100.305077 92.0
100.338966 116.0
100.446663 160.0
100.506516 164.0
100.622284 136.0
100.662216 108.0
100.802055 160.0
100.995995 112.0
101.034004 160.0
101.066017 100.0
101.124054 216.0
101.258202 140.0
101.514732 80.0
101.617035 200.0
101.765572 104.0
101.978516 176.0
102.044968 1108.0
102.352486 136.0
102.435982 212.0
102.60862 164.0
102.832542 148.0
102.923393 156.0
102.945602 180.0
103.051994 192.0
103.212349 128.0
103.301346 128.0
103.384644 216.0
103.434906 192.0
103.564507 76.0
103.641487 180.0
103.951752 180.0
104.012642 120.0
104.087761 196.0
104.254341 156.0
104.414589 200.0
104.771187 176.0
104.789528 96.0
104.832321 108.0
104.875122 112.0
104.948517 136.0
105.121902 204.0
105.194435 232.0
105.780052 192.0
105.917259 88.0
106.068848 184.0
106.087349 144.0
106.442307 160.0
106.540901 180.0
106.824608 152.0
106.964264 148.0
107.186981 144.0
107.232323 160.0
107.494247 120.0
107.777153 168.0
107.822617 216.0
107.859825 120.0
107.954933 84.0
108.008713 264.0
108.041199 356.0
108.165977 124.0
108.298508 220.0
108.333717 148.0
108.37516 168.0
108.491226 216.0
108.507812 144.0
108.526474 52.0
108.572098 188.0
108.904182 332.0
109.064011 292.0
109.132507 148.0
109.380371 348.0
109.407433 72.0
109.657402 180.0
109.710236 144.0
109.747047 148.0
109.9048 204.0
110.02037 144.0
110.187454 156.0
110.252235 200.0
110.31076 148.0
110.327492 148.0
110.356758 160.0
110.859154 164.0
110.928322 176.0
111.131767 44.0
111.16114 152.0
111.182129 148.0
111.2388 160.0
111.297592 40.0
111.406807 196.0
111.461433 88.0
111.810539 148.0
111.846321 244.0
111.886322 88.0
112.035851 144.0
112.067459 120.0
112.554718 60.0
112.586395 192.0
112.71949 192.0
112.753304 148.0
112.772324 224.0
112.799805 184.0
113.398849 120.0
113.513336 148.0
113.687294 116.0
113.706398 92.0
113.780693 164.0
113.88475 172.0
113.933609 164.0
114.039864 188.0
114.103638 184.0
114.205719 140.0
114.305359 120.0
114.461113 108.0
114.580162 184.0
114.61235 64.0
114.746635 180.0
114.782883 192.0
114.843719 140.0
114.945007 144.0
115.013306 132.0
115.053703 796.0
115.143555 72.0
115.315536 172.0
115.399994 112.0
115.693108 176.0
115.941589 192.0
116.062569 364.0
116.149574 160.0
116.222519 156.0
116.291191 228.0
116.456528 40.0
116.520973 168.0
116.671417 140.0
116.712273 208.0
116.759583 184.0
116.933861 48.0
117.009377 200.0
117.056572 124.0
117.1772 164.0
117.209518 200.0
117.420792 92.0
117.515717 176.0
117.545921 208.0
117.759659 136.0
117.865517 156.0
117.930359 60.0
117.962784 140.0
117.982239 164.0
118.049271 172.0
118.067291 232.0
118.300262 204.0
118.623047 160.0
118.91806 316.0
119.05484 356.0
119.089592 180.0
119.239517 72.0
119.304726 208.0
119.707268 124.0
119.753731 144.0
119.909882 176.0
119.944756 160.0
120.021065 184.0
120.041214 616.0
120.381126 120.0
120.518753 104.0
120.658638 176.0
121.030602 172.0
121.050308 140.0
121.074402 64.0
121.109444 204.0
121.166405 228.0
121.190506 160.0
121.254059 156.0
121.322014 132.0
121.514503 172.0
121.730133 240.0
121.767471 152.0
121.828972 140.0
122.059647 684.0
122.098724 184.0
122.123116 124.0
122.325989 136.0
122.351639 172.0
122.418465 196.0
122.459625 180.0
122.488945 200.0
122.53521 220.0
122.784309 168.0
122.83725 152.0
122.903107 188.0
122.934334 128.0
123.013794 180.0
123.059891 168.0
123.07782 116.0
123.181625 128.0
123.216972 160.0
123.291481 184.0
123.426956 160.0
123.477821 160.0
123.595078 152.0
123.626053 116.0
123.686539 244.0
124.039909 1152.0
124.104546 152.0
124.188812 144.0
124.333038 148.0
124.444031 208.0
124.517311 52.0
124.583954 196.0
124.619499 168.0
124.681725 156.0
124.953018 112.0
124.970818 192.0
125.013481 568.0
125.045029 232.0
125.148888 96.0
125.242424 128.0
125.322624 136.0
125.416229 220.0
125.451897 116.0
125.503181 96.0
125.875832 56.0
125.976341 152.0
125.996452 156.0
126.013229 252.0
126.054573 232.0
126.284828 172.0
126.667603 172.0
126.768425 88.0
126.860329 60.0
126.961227 224.0
127.014305 340.0
127.050957 156.0
127.100319 144.0
127.169891 252.0
127.342781 132.0
127.794647 80.0
127.857651 168.0
127.963455 160.0
128.051514 632.0
128.344254 168.0
128.444519 200.0
128.65213 168.0
128.671417 132.0
128.739166 92.0
128.809189 220.0
128.861145 136.0
128.989975 172.0
129.046005 180.0
129.065598 368.0
129.16861 252.0
129.27948 136.0
129.379959 164.0
129.503632 80.0
129.560257 104.0
129.682632 84.0
129.737045 228.0
129.758209 188.0
130.052353 196.0
130.080292 196.0
130.113647 160.0
130.249908 136.0
130.295349 160.0
130.472626 168.0
130.492783 180.0
130.590393 172.0
130.623688 96.0
130.887772 144.0
131.037064 164.0
131.283249 124.0
131.306061 188.0
131.440659 164.0
131.497711 176.0
131.584457 200.0
131.650681 220.0
131.904312 64.0
131.961456 136.0
132.043427 176.0
132.080383 380.0
132.140625 144.0
132.400833 192.0
132.503906 84.0
132.572891 188.0
132.632248 72.0
132.733124 172.0
132.776703 168.0
132.80423 124.0
133.057175 196.0
133.148117 140.0
133.151398 188.0
133.18985 160.0
133.580643 136.0
133.642761 76.0
133.831512 160.0
134.001953 172.0
134.057709 208.0
134.169846 176.0
134.32933 156.0
134.34549 204.0
134.370865 224.0
134.43779 144.0
134.51857 156.0
134.687149 148.0
134.933075 220.0
134.946823 144.0
135.179611 112.0
135.221268 208.0
135.429657 220.0
135.577942 92.0
135.730942 208.0
135.764038 192.0
135.86084 240.0
136.000076 88.0
136.020966 164.0
136.04274 136.0
136.125443 228.0
136.141708 92.0
136.408905 168.0
136.574005 148.0
136.611237 172.0
136.669403 176.0
136.711288 192.0
136.767151 76.0
136.848633 132.0
136.916153 184.0
137.013916 3116.0
137.03862 200.0
137.081924 184.0
137.12352 44.0
137.151489 68.0
137.193451 68.0
137.323288 236.0
137.361359 60.0
137.384689 216.0
137.754639 172.0
137.875046 148.0
137.945877 184.0
138.01268 276.0
138.060547 152.0
138.193085 28.0
138.249252 176.0
138.541931 192.0
138.797424 196.0
138.89592 156.0
138.911209 124.0
138.997375 1064.0
139.010986 928.0
139.043243 112.0
139.08345 344.0
139.1306 172.0
139.304382 160.0
139.363129 32.0
139.402985 112.0
139.605255 132.0
139.638184 192.0
139.666397 216.0
139.732269 108.0
139.906433 124.0
139.944107 132.0
139.984146 144.0
140.027451 480.0
140.050903 400.0
140.090134 208.0
140.113693 92.0
140.167877 120.0
140.198517 176.0
140.264511 52.0
140.299881 136.0
140.630142 132.0
140.665543 124.0
140.705673 60.0
140.911163 132.0
140.95369 124.0
140.989609 496.0
141.017426 132.0
141.066284 180.0
141.213745 132.0
141.310745 48.0
141.374634 88.0
141.440903 128.0
141.55455 76.0
141.68483 104.0
141.708527 136.0
141.796204 64.0
141.900513 176.0
141.9785 220.0
141.987289 196.0
142.064072 4276.0
142.151947 44.0
142.43924 312.0
142.462051 160.0
142.650681 144.0
142.676895 64.0
142.738708 36.0
142.793411 156.0
142.810059 188.0
142.840988 76.0
142.898087 96.0
142.98851 144.0
143.009354 176.0
143.043411 360.0
143.071075 2760.0
143.099152 168.0
143.136108 168.0
143.173218 124.0
143.2957 100.0
143.35289 160.0
143.386261 52.0
143.450623 156.0
143.49115 60.0
143.534073 180.0
143.608002 60.0
143.695267 144.0
143.786942 40.0
143.817642 144.0
143.882431 120.0
144.049057 196.0
144.07312 796.0
144.116501 136.0
144.412949 48.0
144.597183 140.0
144.623047 228.0
144.829437 204.0
144.846207 164.0
145.06636 184.0
145.124222 36.0
145.371292 112.0
145.433701 200.0
145.53212 52.0
145.58255 124.0
145.707458 192.0
145.748306 140.0
145.878098 168.0
145.969467 220.0
146.000732 40.0
146.044022 128.0
146.073334 216.0
146.143509 164.0
146.173447 136.0
146.263 60.0
146.30397 168.0
146.378555 172.0
146.482132 196.0
146.607422 184.0
146.633926 164.0
146.650803 152.0
146.885117 208.0
146.92572 44.0
146.994186 180.0
147.05603 240.0
147.101883 156.0
147.162247 188.0
147.295074 60.0
147.4328 172.0
147.502899 192.0
147.531906 164.0
147.582687 184.0
147.836685 156.0
147.880249 144.0
147.940765 136.0
147.969818 140.0
148.038773 1400.0
148.111694 128.0
148.432617 216.0
148.519943 164.0
148.549042 172.0
148.667145 196.0
148.731049 256.0
148.8573 168.0
148.920822 176.0
149.014435 5452.0
149.043015 380.0
149.072754 360.0
149.090515 80.0
149.156143 40.0
149.263123 200.0
149.304459 88.0
149.47171 216.0
149.594025 180.0
149.630539 164.0
149.769348 184.0
149.813202 72.0
149.844879 44.0
149.898483 216.0
149.966721 228.0
150.016846 544.0
150.056442 188.0
150.147141 88.0
150.283752 60.0
150.342331 164.0
150.452164 176.0
150.491226 200.0
150.52298 184.0
150.557159 212.0
150.787491 220.0
150.881836 180.0
151.011642 2108.0
151.056503 332.0
151.084045 200.0
151.227081 104.0
151.295624 96.0
151.359299 76.0
151.454803 176.0
151.484741 148.0
151.920578 132.0
152.005905 228.0
152.029343 148.0
152.061646 388.0
152.264236 204.0
152.320724 164.0
152.394424 148.0
152.480438 128.0
152.49765 164.0
152.618378 72.0
152.755844 164.0
152.827194 132.0
152.883789 156.0
152.997025 160.0
153.023209 244.0
153.069962 172.0
153.26796 132.0
153.307388 116.0
153.396118 132.0
153.562515 124.0
153.697571 68.0
153.835236 176.0
153.856445 176.0
154.032791 184.0
154.071472 332.0
154.497559 196.0
154.532196 64.0
154.742111 172.0
154.806961 136.0
154.886215 156.0
154.906036 276.0
154.933289 160.0
154.970444 124.0
155.024658 1000.0
155.055298 204.0
155.079193 184.0
155.181137 156.0
155.26297 60.0
155.285294 160.0
155.302658 172.0
155.414291 168.0
155.54335 92.0
155.647629 128.0
155.734543 164.0
155.91095 140.0
156.00293 64.0
156.022644 180.0
156.05249 396.0
156.081116 884.0
156.522934 144.0
156.592667 192.0
156.73468 200.0
156.819412 200.0
156.884216 48.0
157.021439 148.0
157.05011 188.0
157.085144 528.0
157.463135 136.0
157.603043 116.0
157.665512 200.0
157.772995 152.0
157.807999 124.0
157.893036 184.0
157.930542 180.0
158.034515 144.0
158.057434 284.0
158.574051 144.0
158.794693 80.0
158.945221 232.0
158.992889 96.0
159.045609 372.0
159.069229 176.0
159.095917 196.0
159.141006 152.0
159.18544 156.0
159.238953 120.0
159.339432 108.0
159.465073 112.0
159.485184 112.0
159.661194 48.0
159.885101 132.0
160.070847 184.0
160.096588 176.0
160.665848 148.0
160.72934 180.0
160.85553 144.0
160.956528 224.0
161.067642 256.0
161.161133 84.0
161.370926 40.0
161.456894 132.0
161.644104 172.0
161.747879 232.0
161.846619 136.0
162.022675 172.0
162.057724 128.0
162.138687 260.0
162.432068 104.0
162.508179 164.0
162.591934 340.0
162.820435 160.0
163.000809 148.0
163.029755 1936.0
163.057739 364.0
163.110092 132.0
163.219421 196.0
163.524704 128.0
163.654968 168.0
163.674911 144.0
163.738571 260.0
163.840469 192.0
163.888885 284.0
164.028992 768.0
164.066696 136.0
164.102982 120.0
164.220291 56.0
164.327438 172.0
164.3647 100.0
164.406555 152.0
164.572479 148.0
164.695068 124.0
164.912262 172.0
165.009613 8064.0
165.082397 320.0
165.104019 128.0
165.131485 124.0
165.157257 176.0
165.22168 180.0
165.285645 60.0
165.331711 56.0
165.509995 292.0
165.55957 120.0
165.643295 140.0
165.669708 140.0
165.710709 72.0
165.810638 180.0
165.831146 132.0
165.869598 60.0
165.905487 136.0
165.951645 108.0
166.01326 740.0
166.055649 316.0
166.082596 496.0
166.200455 80.0
166.241501 232.0
166.452011 60.0
166.472549 156.0
166.617279 124.0
166.875992 76.0
166.893982 92.0
166.940277 60.0
167.006821 1916.0
167.045853 524.0
167.07962 776.0
167.135788 88.0
167.161514 172.0
167.200119 168.0
167.272186 88.0
167.413803 152.0
167.496231 156.0
167.59671 132.0
167.649323 124.0
167.831268 228.0
167.864792 128.0
167.888 204.0
167.916367 168.0
168.005402 220.0
168.052948 300.0
168.080566 324.0
168.130524 136.0
168.202789 52.0
168.45845 128.0
168.714294 96.0
168.742737 96.0
168.778931 44.0
168.840698 204.0
168.952225 116.0
169.041977 184.0
169.061768 240.0
169.087509 820.0
169.200684 188.0
169.221405 128.0
169.239517 144.0
169.672226 124.0
169.716293 168.0
169.825226 128.0
169.848572 108.0
169.910828 156.0
169.939377 80.0
170.027954 180.0
170.059998 9144.0
170.162125 136.0
170.2379 192.0
170.339188 164.0
170.362564 100.0
170.448318 48.0
170.466507 116.0
170.497696 48.0
170.560074 172.0
170.578262 48.0
170.705673 132.0
170.920929 48.0
171.010071 124.0
171.062851 1340.0
171.122009 32.0
171.228775 28.0
171.465866 120.0
171.528427 108.0
171.659515 188.0
171.738663 148.0
171.776169 108.0
171.984924 192.0
172.059586 160.0
172.096039 204.0
172.149414 40.0
172.192169 172.0
172.298294 196.0
172.376694 108.0
172.499527 152.0
172.536133 56.0
172.659027 144.0
172.706116 192.0
172.724426 176.0
172.81076 184.0
173.018341 128.0
173.059418 168.0
173.080368 184.0
173.127502 140.0
173.151855 160.0
173.282059 56.0
173.431427 156.0
173.622833 244.0
173.691025 60.0
173.725128 136.0
173.835327 124.0
174.029526 160.0
174.2397 120.0
174.55513 128.0
174.697159 100.0
174.876099 200.0
174.965607 88.0
175.035065 480.0
175.091995 140.0
175.323837 124.0
175.434555 188.0
175.616501 136.0
175.671906 28.0
175.935806 112.0
176.032959 5544.0
176.069489 128.0
176.091614 68.0
176.120667 80.0
176.168213 64.0
176.186707 56.0
176.398132 48.0
176.429855 44.0
176.538269 108.0
176.556778 120.0
176.662582 128.0
176.792236 180.0
176.81076 124.0
177.011185 1280.0
177.036804 724.0
177.071304 156.0
177.139099 164.0
177.197388 100.0
177.457123 212.0
177.608292 144.0
177.711761 124.0
177.770142 112.0
177.837753 220.0
177.886932 208.0
177.918793 168.0
177.998444 152.0
178.040146 5032.0
178.190765 168.0
178.45282 96.0
178.612396 116.0
178.639786 188.0
178.862534 124.0
178.945053 128.0
179.003403 536.0
179.026764 220.0
179.044983 624.0
179.074677 508.0
179.195419 64.0
179.491302 168.0
179.547302 148.0
179.592651 44.0
179.782074 136.0
179.97963 64.0
180.03598 1236.0
180.073135 980.0
180.12117 180.0
180.148636 72.0
180.25209 52.0
180.278809 100.0
180.308212 64.0
180.399094 148.0
180.441879 152.0
180.545364 140.0
180.580933 76.0
180.602325 148.0
180.754822 108.0
180.788437 244.0
180.990387 156.0
181.051956 412.0
181.057724 500.0
181.087479 1632.0
181.330627 152.0
181.470016 44.0
181.665817 176.0
181.724838 100.0
181.824127 88.0
181.91539 152.0
181.955658 84.0
182.065247 344.0
182.086517 468.0
182.175888 104.0
182.267242 172.0
182.382797 156.0
182.875046 216.0
182.994797 132.0
183.020111 308.0
183.053055 548.0
183.128143 128.0
183.340988 116.0
183.556656 128.0
183.850708 160.0
184.023621 144.0
184.07457 1824.0
184.380066 152.0
184.516678 328.0
184.539551 48.0
184.577408 216.0
184.596344 92.0
184.70993 136.0
184.939941 164.0
185.016296 196.0
185.080643 716.0
185.134888 84.0
185.216141 140.0
185.256775 104.0
185.338058 148.0
185.527786 152.0
185.641663 128.0
185.758301 120.0
185.834259 132.0
185.896667 52.0
186.029678 216.0
186.057281 328.0
186.080872 156.0
186.293091 56.0
186.757935 240.0
186.9375 196.0
186.979156 200.0
187.028351 160.0
187.10083 104.0
187.187958 224.0
187.266937 128.0
187.36203 212.0
187.445877 188.0
187.591202 72.0
187.842087 220.0
188.028061 132.0
188.066299 192.0
188.161392 120.0
188.237854 120.0
188.310791 164.0
188.634033 56.0
188.721527 36.0
188.819962 184.0
188.863739 88.0
188.899292 132.0
189.006821 504.0
189.045944 984.0
189.123672 64.0
189.238663 128.0
189.364639 124.0
190.008835 156.0
190.045731 588.0
190.098373 184.0
190.236633 144.0
190.48378 220.0
190.535278 140.0
190.596436 200.0
190.725601 116.0
190.892761 176.0
190.986954 348.0
191.026794 672.0
191.085861 208.0
191.363861 160.0
191.424438 176.0
191.589706 148.0
191.639297 108.0
191.829468 168.0
191.912186 40.0
191.934235 52.0
192.027847 372.0
192.057053 376.0
192.121796 188.0
192.234924 148.0
192.751328 172.0
192.989044 212.0
193.024872 228.0
193.060989 252.0
193.091583 388.0
193.229691 152.0
193.409561 100.0
193.523071 184.0
193.680939 48.0
194.032166 336.0
194.058609 500.0
194.100357 400.0
194.143799 96.0
194.19928 152.0
194.28804 144.0
194.634995 172.0
194.757187 60.0
195.023804 200.0
195.059875 256.0
195.103271 240.0
195.240814 160.0
195.313126 244.0
195.45163 200.0
195.524597 80.0
195.699982 220.0
195.777939 108.0
195.86235 152.0
195.981308 156.0
196.075241 2644.0
196.109818 208.0
196.195923 28.0
196.237732 48.0
196.313034 224.0
196.349289 136.0
196.388336 228.0
196.480392 88.0
196.849518 116.0
197.004349 136.0
197.046906 164.0
197.08107 2064.0
197.172913 220.0
197.357422 76.0
197.396561 120.0
197.429153 116.0
197.533615 92.0
197.637131 92.0
197.7043 28.0
197.791061 80.0
197.997147 80.0
198.090668 1008.0
198.163544 84.0
198.239197 164.0
198.278427 184.0
198.306458 112.0
198.328888 28.0
198.511124 92.0
198.654175 108.0
199.031982 136.0
199.055542 288.0
199.0961 416.0
199.156647 56.0
199.67868 236.0
200.022018 188.0
200.074417 144.0
200.085373 192.0
200.149429 76.0
200.326874 60.0
200.603043 84.0
200.687622 252.0
200.724274 192.0
201.008896 200.0
201.018326 168.0
201.059921 152.0
201.20961 100.0
201.567856 144.0
201.650284 188.0
201.720947 132.0
202.042221 564.0
202.084747 1120.0
202.122574 176.0
202.159363 132.0
202.215973 72.0
202.34053 116.0
202.450958 160.0
202.516098 116.0
202.924179 112.0
203.02301 740.0
203.053131 276.0
203.083664 252.0
203.789886 204.0
203.886505 220.0
204.057068 2648.0
204.221344 52.0
204.446426 140.0
204.57486 120.0
204.663132 124.0
204.708694 108.0
204.740021 208.0
204.890991 176.0
204.962219 76.0
205.006485 160.0
205.025696 372.0
205.063965 500.0
205.195953 148.0
205.218765 176.0
205.252975 160.0
205.310013 172.0
205.347092 72.0
205.406998 176.0
205.575333 108.0
205.637192 148.0
205.823685 128.0
205.950394 120.0
205.981918 160.0
206.036392 17756.0
206.129349 48.0
206.152206 52.0
206.211655 80.0
206.292267 52.0
206.317993 80.0
206.355164 52.0
206.392334 64.0
206.464325 228.0
206.530029 108.0
206.556381 72.0
206.638321 192.0
206.681244 80.0
206.704132 52.0
206.728134 108.0
206.775116 144.0
206.799744 160.0
206.969742 168.0
207.005188 476.0
207.037445 1688.0
207.122147 140.0
207.185165 52.0
207.257706 176.0
207.342773 124.0
207.398514 148.0
207.420166 152.0
207.468887 200.0
207.56604 136.0
207.617996 36.0
207.724121 44.0
207.745834 148.0
207.765533 148.0
207.838898 184.0
207.893417 208.0
207.926544 88.0
207.992889 140.0
208.059982 15896.0
208.139694 76.0
208.194305 168.0
208.229324 76.0
208.278152 128.0
208.298264 136.0
208.319855 64.0
208.352844 124.0
208.389175 56.0
208.424683 32.0
208.447662 120.0
208.49939 48.0
208.551132 140.0
208.624527 92.0
208.676819 112.0
208.720749 168.0
208.798401 52.0
208.896194 36.0
208.962372 96.0
208.995056 168.0
209.065475 2804.0
209.114532 272.0
209.216553 88.0
209.247635 72.0
209.299149 124.0
209.44603 80.0
209.627533 40.0
209.673157 140.0
210.087418 784.0
210.128967 180.0
210.350571 88.0
210.435013 108.0
210.464096 192.0
210.555496 104.0
210.582504 84.0
210.673431 200.0
210.736038 128.0
210.787613 120.0
211.054947 1100.0
211.097092 228.0
211.137329 124.0
211.244446 108.0
211.316772 36.0
211.348602 64.0
211.380432 60.0
211.400696 164.0
211.504883 132.0
211.785767 44.0
211.855286 156.0
212.067703 820.0
212.099289 160.0
212.316177 76.0
212.35968 48.0
212.414795 112.0
212.571472 236.0
212.600494 188.0
212.629517 80.0
212.818207 172.0
212.867569 60.0
212.992462 116.0
213.044617 276.0
213.073959 1016.0
213.236542 176.0
213.316208 156.0
213.338272 44.0
213.501114 52.0
213.588776 144.0
213.87645 168.0
214.009796 144.0
214.039627 808.0
214.079926 380.0
214.105469 180.0
214.155975 36.0
214.333694 80.0
214.654358 36.0
214.730179 36.0
214.788513 148.0
214.846863 184.0
214.966492 100.0
215.050064 696.0
215.083923 172.0
215.170822 52.0
215.258423 172.0
215.480408 172.0
215.728836 100.0
215.749298 104.0
215.787308 132.0
216.018494 328.0
216.051819 724.0
216.129532 80.0
216.43103 196.0
216.685852 180.0
216.823578 140.0
216.932037 80.0
217.025269 356.0
217.063934 308.0
217.580399 60.0
217.642212 160.0
217.674362 188.0
217.697861 148.0
217.832962 128.0
217.868225 48.0
217.988693 164.0
218.038177 364.0
218.060547 1080.0
218.141525 96.0
218.25914 88.0
218.323837 148.0
218.735764 168.0
218.800522 172.0
219.027359 304.0
219.070358 484.0
219.124512 140.0
219.148071 48.0
219.37207 112.0
219.546036 220.0
219.625671 164.0
219.705322 140.0
219.770233 168.0
219.811539 124.0
219.86467 52.0
219.89122 148.0
219.914841 140.0
219.976822 144.0
220.052185 13360.0
220.144623 92.0
220.170578 32.0
220.263275 36.0
220.289856 48.0
220.319397 52.0
220.381454 60.0
220.438232 148.0
220.475174 56.0
220.501831 152.0
220.555817 136.0
220.694229 88.0
220.762787 52.0
221.053833 2600.0
221.106384 224.0
221.627167 152.0
221.944336 80.0
222.006607 168.0
222.047684 2912.0
222.089096 228.0
222.134155 160.0
222.189484 80.0
222.255798 36.0
222.290176 108.0
222.335922 32.0
222.380447 96.0
222.401215 72.0
222.445755 76.0
222.475433 40.0
222.535461 128.0
222.597168 88.0
222.671417 88.0
222.778503 80.0
222.814011 136.0
222.871078 228.0
223.049011 560.0
223.088074 780.0
223.408615 56.0
223.679428 32.0
223.786606 44.0
223.858063 180.0
224.06842 2844.0
224.255646 108.0
224.308838 180.0
224.340759 160.0
224.430206 60.0
224.561432 140.0
224.689697 40.0
224.758331 76.0
224.838898 64.0
224.913513 92.0
225.077347 2184.0
225.146408 80.0
225.241989 36.0
225.356628 108.0
225.421265 204.0
225.490005 160.0
225.531845 52.0
225.579666 180.0
225.672348 52.0
225.899658 184.0
225.935562 92.0
225.977448 132.0
226.00737 80.0
226.082489 1244.0
226.113831 76.0
226.148026 48.0
226.324661 128.0
226.845978 100.0
226.998886 176.0
227.057434 308.0
227.093018 336.0
227.151855 104.0
227.454941 164.0
227.749207 208.0
227.929764 204.0
228.01062 100.0
228.042984 208.0
228.086731 160.0
228.200577 84.0
228.251114 44.0
228.308258 168.0
228.542908 172.0
229.015701 88.0
229.063751 116.0
229.108948 164.0
229.193909 60.0
229.301804 132.0
229.404282 68.0
229.636475 208.0
229.889908 172.0
230.032578 288.0
230.073715 592.0
230.119324 68.0
230.173676 48.0
231.06897 1064.0
231.134949 56.0
231.271133 100.0
231.695099 116.0
231.931473 128.0
232.051285 6324.0
232.084961 460.0
232.650436 104.0
232.683823 188.0
232.735443 176.0
232.756699 176.0
232.872101 140.0
232.929825 92.0
233.017548 160.0
233.059387 1708.0
233.200256 48.0
233.267136 76.0
233.437393 40.0
233.470856 68.0
233.625977 64.0
233.89682 224.0
233.94249 84.0
233.966843 160.0
233.994247 112.0
234.053986 1164.0
234.125183 76.0
234.149551 300.0
234.183044 40.0
234.228745 60.0
234.326233 100.0
234.432877 72.0
234.472504 56.0
234.499939 40.0
234.551758 44.0
234.673706 104.0
234.774323 104.0
234.839874 120.0
235.008102 196.0
235.057114 800.0
235.351089 116.0
235.415207 48.0
235.671814 88.0
235.69931 68.0
236.011108 92.0
236.046341 376.0
236.071518 652.0
236.274139 84.0
236.424088 144.0
236.479172 172.0
236.681229 52.0
236.861923 116.0
237.027374 176.0
237.070282 124.0
237.098877 276.0
237.27565 168.0
237.35231 164.0
237.508728 212.0
237.668259 144.0
237.757248 152.0
238.061798 8428.0
238.123566 308.0
238.188293 52.0
238.303864 40.0
238.353027 64.0
238.402191 80.0
238.558945 56.0
238.632736 92.0
238.691162 48.0
238.841858 164.0
239.067886 1172.0
239.309647 56.0
239.463638 40.0
239.580688 92.0
239.777893 280.0
239.808716 176.0
239.938202 224.0
240.015274 180.0
240.061035 2924.0
240.100891 1728.0
240.168884 104.0
240.200333 216.0
240.28363 64.0
240.315231 132.0
240.44101 104.0
240.545944 52.0
240.592255 64.0
240.684891 132.0
240.76709 84.0
240.972153 72.0
241.066086 360.0
241.094757 328.0
241.139023 176.0
241.290497 52.0
241.438919 148.0
241.513153 160.0
241.61525 168.0
241.766357 196.0
241.974258 148.0
242.002136 104.0
242.036316 956.0
242.079407 272.0
242.119812 352.0
242.144577 148.0
242.222015 60.0
242.33046 116.0
242.460602 68.0
242.587692 116.0
242.935028 172.0
243.043625 1112.0
243.069382 284.0
243.111893 144.0
243.484436 188.0
243.524826 116.0
243.633545 80.0
243.695679 72.0
243.813766 68.0
243.854172 148.0
244.051544 3296.0
244.423294 68.0
244.445084 52.0
244.719009 176.0
245.046967 464.0
245.108368 200.0
245.27356 136.0
245.323441 100.0
245.591614 208.0
245.928604 52.0
246.031036 432.0
246.057556 660.0
246.12529 200.0
246.443893 108.0
247.010162 132.0
247.036224 132.0
247.048355 208.0
247.059036 300.0
247.134918 84.0
247.513672 176.0
247.604492 140.0
247.662216 112.0
247.848846 136.0
247.942871 168.0
248.045715 3956.0
248.113388 72.0
248.231293 44.0
248.256378 160.0
248.460266 60.0
248.494781 56.0
248.63913 76.0
248.774094 48.0
248.852051 164.0
248.918533 164.0
249.008667 176.0
249.050079 1364.0
249.102325 208.0
249.125839 64.0
249.179245 68.0
249.245224 92.0
249.59729 72.0
249.905548 72.0
250.042984 1196.0
250.07991 180.0
250.165451 132.0
250.207703 60.0
250.497452 56.0
250.522644 136.0
250.560455 44.0
250.591965 128.0
250.614014 112.0
251.0112 88.0
251.046127 276.0
251.098938 788.0
251.497055 36.0
251.522308 48.0
251.885452 72.0
252.066559 592.0
252.100281 564.0
252.252029 36.0
252.29628 64.0
252.45755 96.0
252.773895 80.0
253.069382 336.0
253.1064 188.0
253.147446 144.0
253.400864 188.0
253.502258 52.0
253.889023 184.0
254.064575 152.0
254.087631 308.0
254.114258 120.0
254.622528 72.0
254.981186 136.0
255.085709 212.0
255.388168 108.0
256.049744 320.0
256.073334 192.0
256.100189 184.0
256.155334 232.0
256.340118 44.0
256.67804 140.0
256.898102 144.0
257.048553 128.0
257.086578 152.0
257.249146 52.0
257.332153 96.0
257.453491 188.0
257.769775 64.0
257.966034 188.0
258.031036 480.0
258.062317 584.0
258.166168 56.0
258.204559 52.0
258.348511 60.0
258.79483 184.0
258.899048 72.0
259.004761 116.0
259.062836 500.0
259.280304 56.0
259.812592 48.0
259.870361 64.0
260.045227 5016.0
260.114258 168.0
260.165619 44.0
260.281219 88.0
260.551025 172.0
260.74704 56.0
260.837036 200.0
260.859558 64.0
260.904572 376.0
261.051117 1360.0
261.184784 56.0
261.271179 96.0
261.580139 148.0
261.625214 76.0
261.770111 40.0
261.873169 108.0
261.994263 80.0
262.045685 2752.0
262.099304 188.0
262.2276 64.0
262.279175 72.0
262.379089 104.0
262.649994 120.0
262.705627 96.0
262.870758 76.0
262.903595 160.0
263.046173 492.0
263.050842 156.0
263.108246 104.0
263.298767 76.0
263.473206 112.0
263.599213 124.0
263.709106 100.0
263.951569 100.0
264.062683 400.0
264.122986 96.0
264.58252 40.0
264.711182 168.0
264.780029 64.0
264.822144 56.0
265.013275 192.0
265.065125 124.0
265.227173 52.0
265.506042 88.0
265.687683 256.0
265.869385 80.0
266.018707 48.0
266.050201 136.0
266.084106 356.0
266.145325 88.0
266.7854 108.0
267.077637 92.0
267.087311 128.0
267.113464 396.0
267.419708 136.0
268.043274 188.0
268.114319 272.0
268.28949 172.0
268.426422 140.0
268.791779 108.0
268.958221 108.0
269.056152 56.0
269.092072 176.0
269.11969 196.0
269.438293 100.0
269.582062 260.0
269.663757 52.0
270.030212 1560.0
270.113251 432.0
270.151001 80.0
270.203339 76.0
270.497894 152.0
270.619019 120.0
270.930176 108.0
271.029694 748.0
271.795776 124.0
272.028473 1028.0
272.080231 268.0
272.232361 100.0
272.564148 220.0
273.032654 172.0
273.075928 168.0
273.504761 56.0
273.616699 128.0
273.850525 52.0
274.060516 768.0
275.070709 572.0
275.091919 920.0
275.156403 84.0
275.836945 48.0
276.077759 876.0
276.210632 132.0
276.372742 120.0
276.968658 120.0
277.083374 296.0
277.233734 152.0
277.681305 208.0
278.086243 608.0
278.441376 76.0
278.514435 44.0
279.022888 100.0
279.077484 124.0
279.089142 152.0
279.097809 292.0
279.761475 76.0
279.984558 196.0
280.050323 140.0
280.067566 92.0
280.079437 116.0
280.122314 160.0
280.681061 148.0
280.751099 76.0
281.034668 160.0
281.089508 160.0
281.114746 156.0
281.27829 112.0
282.802551 72.0
283.093811 120.0
283.123962 112.0
283.227783 104.0
283.268005 36.0
284.086578 152.0
284.126434 356.0
284.226898 104.0
284.461823 68.0
285.073364 324.0
285.123077 284.0
285.80957 144.0
286.01825 40.0
286.061768 896.0
286.70871 68.0
286.890747 216.0
287.035736 124.0
287.067291 372.0
288.040253 2936.0
288.073975 356.0
288.19693 56.0
288.264496 32.0
288.440247 68.0
288.920471 148.0
289.049255 980.0
289.11673 164.0
289.160736 56.0
289.309662 72.0
289.424774 192.0
289.726227 68.0
289.821106 128.0
289.987152 68.0
290.037048 648.0
290.087524 224.0
290.417786 88.0
291.04361 340.0
291.46344 180.0
291.997192 184.0
292.024384 52.0
292.072327 280.0
292.106995 376.0
292.160461 160.0
293.103607 160.0
293.141083 152.0
293.813171 116.0
293.904938 56.0
294.088745 4888.0
294.17865 124.0
294.27359 128.0
294.498962 36.0
294.570709 72.0
294.645874 80.0
294.80304 160.0
294.844055 64.0
295.099701 1560.0
295.165405 100.0
295.223541 44.0
295.637512 168.0
296.084259 1072.0
296.168182 32.0
296.733643 56.0
296.88797 68.0
297.079834 124.0
297.105896 192.0
297.176117 72.0
297.327087 40.0
297.838684 64.0
298.141052 108.0
298.78064 76.0
298.863708 140.0
299.121338 88.0
299.558685 44.0
299.648254 72.0
301.069458 112.0
301.736359 56.0
302.058319 368.0
302.127197 172.0
302.369415 136.0
302.563263 52.0
302.635986 88.0
303.089081 2228.0
303.207581 40.0
304.015656 32.0
304.080658 740.0
304.585052 120.0
305.08609 584.0
305.454102 60.0
305.485413 124.0
305.607178 136.0
305.697662 88.0
305.951752 100.0
306.05069 1996.0
306.081482 852.0
306.132812 40.0
306.571777 48.0
307.06543 424.0
307.072571 480.0
307.12616 156.0
307.181946 36.0
307.803223 108.0
308.051208 596.0
308.083954 348.0
308.159515 76.0
308.194458 60.0
308.816742 152.0
308.862213 144.0
309.019653 76.0
309.050598 256.0
309.08609 204.0
311.119049 112.0
312.218872 152.0
312.880402 132.0
313.052795 180.0
313.089142 188.0
313.246674 116.0
313.546173 148.0
314.048889 188.0
315.074127 196.0
315.834167 64.0
316.071594 712.0
316.690765 52.0
317.006104 120.0
317.066345 40.0
317.938812 108.0
318.07901 504.0
319.011505 112.0
319.057617 136.0
319.317322 92.0
320.066071 572.0
320.531311 232.0
320.898468 36.0
321.10025 132.0
322.056458 240.0
322.094025 152.0
323.068878 300.0
323.109314 164.0
324.124725 140.0
324.233704 148.0
324.775116 72.0
325.119568 56.0
325.176971 68.0
326.114441 92.0
326.722168 92.0
326.76535 140.0
327.096436 148.0
327.61142 176.0
328.029449 64.0
330.575836 72.0
330.959534 152.0
331.0867 608.0
331.981445 80.0
332.068512 904.0
332.177307 36.0
332.369598 44.0
333.062927 248.0
333.172028 236.0
333.342804 224.0
333.557251 112.0
333.783356 148.0
333.866302 56.0
333.891754 120.0
334.083221 9576.0
334.157745 164.0
334.218628 244.0
334.408417 120.0
334.448456 96.0
334.492126 124.0
334.579498 76.0
334.739716 80.0
334.819824 52.0
334.936401 60.0
334.998779 128.0
335.085754 1876.0
335.369995 76.0
335.43927 52.0
335.665314 100.0
335.727325 44.0
335.7565 80.0
335.873199 180.0
335.91333 152.0
336.080078 3236.0
336.172394 56.0
336.4133 56.0
336.71637 40.0
336.81134 152.0
336.909973 156.0
337.012268 92.0
337.08075 348.0
337.166321 132.0
337.443573 100.0
337.480133 152.0
338.087402 104.0
338.812408 164.0
338.995605 92.0
339.021271 60.0
339.22287 116.0
339.57489 52.0
339.879395 68.0
339.90506 48.0
340.900269 76.0
341.239838 140.0
341.735718 80.0
346.091766 156.0
346.127563 68.0
348.095215 228.0
348.297211 88.0
349.086304 292.0
349.137787 200.0
349.364105 68.0
349.602264 40.0
350.087738 124.0
350.14209 80.0
350.488556 140.0
350.555634 132.0
351.058899 156.0
351.13562 188.0
351.293884 116.0
359.450928 64.0
359.764221 64.0
360.099365 624.0
360.670837 64.0
361.080963 152.0
361.154846 52.0
361.722443 108.0
361.832245 100.0
362.097534 396.0
362.226105 164.0
363.095947 120.0
364.080872 176.0
365.761475 176.0
366.107941 168.0
368.09729 204.0
368.396545 48.0
370.880096 36.0
370.949097 60.0
371.125458 64.0
372.461029 100.0
373.956787 120.0
374.264771 52.0
374.615265 84.0
374.823334 72.0
375.598267 56.0
375.879913 84.0
376.787292 48.0
377.123505 2040.0
377.282013 28.0
377.471466 56.0
377.738342 104.0
378.128876 492.0
378.187195 108.0
378.225922 48.0
378.802917 56.0
378.830017 76.0
379.126923 596.0
380.116638 292.0
380.229828 56.0
380.552032 80.0
380.618042 100.0
381.472809 132.0
385.088928 52.0
387.483063 52.0
390.344543 84.0
390.596252 52.0
392.435455 152.0
394.124847 112.0
394.694611 148.0
397.77652 52.0
400.687622 140.0
402.486511 72.0
403.133667 104.0
406.41333 60.0
406.9552 92.0
407.738556 80.0
412.595947 88.0
413.846161 88.0
414.206635 100.0
417.640747 68.0
423.72348 164.0
426.752533 116.0
432.532532 104.0
437.739044 124.0
442.767273 124.0
449.920044 92.0
451.250061 100.0
452.384766 52.0
461.754791 60.0
462.366608 52.0
463.347229 48.0
465.255768 68.0
469.701233 96.0
469.882416 68.0
470.896881 48.0
477.724152 60.0
479.287231 92.0
479.989044 84.0
481.800415 144.0
483.278229 92.0
490.075409 124.0
490.159119 88.0
492.616699 52.0
495.036102 104.0
497.048706 104.0
504.419891 80.0
523.807007 136.0
524.308228 152.0
535.745544 92.0
545.556885 112.0
548.685486 72.0
557.12384 64.0
557.297668 60.0
565.129639 60.0
566.464722 100.0
566.606873 92.0
567.768188 96.0
574.227051 56.0
580.554565 88.0
632.332581 120.0
640.708618 48.0
655.529846 80.0
658.284668 52.0
662.125427 40.0
687.109619 76.0
689.794006 188.0
691.719055 64.0
700.288696 104.0
701.042114 80.0
735.175842 64.0
769.347839 56.0
824.642761 68.0
837.294067 64.0
842.098572 176.0
848.127808 96.0
855.866394 64.0
861.459717 60.0
889.064392 40.0
916.013733 244.0
918.461182 36.0
920.374329 68.0
931.797974 64.0
952.981689 52.0
963.758606 152.0
965.365845 144.0
969.650085 132.0
969.947632 76.0
988.533325 52.0
989.478455 200.0
995.906433 76.0
995.988037 48.0
1004.68811 96.0
1015.752686 168.0
1017.98053 100.0
1037.922607 152.0
1039.327393 148.0
1053.098267 176.0
1054.390503 128.0
1054.791138 168.0
1055.502441 60.0
1070.512451 160.0
1073.927612 156.0
1088.903442 116.0
1090.066284 76.0
1091.55188 196.0
1096.917969 124.0
1099.754395 156.0
1105.133911 60.0
1122.311157 212.0
1127.966064 164.0
1131.411377 284.0
1134.781494 56.0
1135.539307 228.0
1136.471802 232.0
1136.525513 144.0
1136.746948 64.0
1136.867676 84.0
1138.492432 56.0
1146.619629 200.0
1151.268066 52.0
1152.15979 200.0
1153.159912 192.0
1156.115479 44.0
1158.519287 68.0
1166.445679 152.0
1176.480347 160.0
1179.915771 188.0
1180.169922 96.0
1183.717896 204.0
1189.94751 56.0
1190.51062 192.0
1190.984497 164.0
1192.021973 184.0
1201.820923 136.0
1205.086914 232.0
1205.266479 40.0
1206.109741 52.0
1211.057251 92.0
1211.86084 228.0
1218.375854 216.0
1222.304321 76.0
1222.742798 212.0
1225.312378 152.0
1229.454468 204.0
1229.677734 140.0
1232.841675 196.0
1236.170532 140.0
1241.747192 180.0
1253.079346 128.0
1253.88269 156.0
1253.974243 84.0
1255.20105 108.0
1259.118652 168.0
1260.438843 56.0
1260.785156 128.0
1272.899414 192.0
1274.455078 92.0
1280.117432 176.0
1281.285645 52.0
1283.324097 112.0
1287.484375 156.0
1287.834351 224.0
1290.256958 180.0
1291.057861 132.0
1291.157959 128.0
1296.921753 92.0
1302.583496 136.0
1303.323486 196.0
1306.803711 68.0
1306.904419 188.0
1307.465698 192.0
1308.430298 28.0
1310.124512 168.0
1313.640869 156.0
1316.065918 156.0
1319.129272 132.0
1320.698486 196.0
1321.819946 156.0
1331.294922 184.0
1331.534546 108.0
1331.621704 220.0
1333.060303 108.0
1333.132935 224.0
1335.423096 248.0
1337.482422 128.0
1340.825562 128.0
1347.60498 140.0
1347.88269 232.0
1348.547729 84.0
1349.227539 156.0
1354.445435 136.0
1355.874268 184.0
1362.956055 156.0
1363.05896 164.0
1364.484863 188.0
1365.882202 36.0
1368.112061 208.0
1372.73938 72.0
1375.055908 132.0
1375.484009 172.0
1375.624268 204.0
1376.059937 152.0
1381.040894 160.0
1381.270142 160.0
1382.30603 176.0
1383.216309 120.0
1384.238159 188.0
1384.408447 148.0
1384.49646 176.0
1384.623169 164.0
1385.223145 280.0
1385.978882 148.0
1392.64856 136.0
1393.423828 56.0
1393.584595 228.0
1396.171509 68.0
1400.528076 212.0
1404.140747 84.0
1404.551025 156.0
1407.879883 112.0
1409.052612 80.0
1415.260742 172.0
1416.638916 140.0
1419.352173 68.0
1421.527588 124.0
1425.875977 180.0
1427.274292 192.0
1428.078979 160.0
1428.522827 48.0
1430.870972 156.0
1432.452515 116.0
1433.861572 144.0
1434.162964 124.0
1437.80603 140.0
1439.625488 116.0
1439.995605 212.0
1440.184448 160.0
1442.383301 156.0
1447.422241 112.0
1447.672119 168.0
1448.611328 180.0
1448.876587 232.0
1449.202271 52.0
1450.475586 140.0
1452.651978 52.0
1456.842529 192.0
1457.381958 136.0
1458.613281 128.0
1458.674072 200.0
1459.160645 156.0
1459.47229 220.0
1460.07312 136.0
1460.575073 108.0
1462.094116 204.0
1463.885986 60.0
1466.651733 232.0
1467.063354 152.0
1468.908813 168.0
1469.450562 144.0
1471.434937 184.0
1473.237427 148.0
1474.268921 236.0
1476.218384 148.0
1481.017212 144.0
1481.124512 152.0
1481.31604 144.0
1482.043823 72.0
1483.346802 232.0
1485.609009 140.0
1485.67041 168.0
1488.740723 108.0
1489.086426 176.0
1490.607544 172.0
1490.822754 120.0
1490.953369 188.0
1492.075684 88.0
1494.106079 144.0
1494.798584 208.0
1496.315063 164.0
1498.101807 216.0
1500.028442 144.0
1502.326538 156.0
1502.912964 136.0
1504.062866 108.0
