>compound MLS000551010-01!1H-quinazolin-4-one
>formula C8H6N2O
>ionization [M+H]+
>parentmass 147.055252
#inchi InChI=1S/C8H6N2O/c11-8-6-3-1-2-4-7(6)9-5-10-8/h1-5H,(H,9,10,11)
#inchikey QMNUDYFKZYBWQX
#Ion_Source LC-ESI
#Instrument qTof
#Compound_Source NIH Natural Product Library
#PI Dorrestein
#Data_Collector VVP/LMS
#Scan -1
#Precursor_MZ 147.056
#ExactMass 146.048
#Charge 1
#CAS_Number N/A
#Pubmed_ID N/A
#Smiles Oc1ncnc2ccccc12
#INCHI_AUX N/A
#Library_Class 3
#SpectrumID CCMSLIB00000080410
#IonMode Positive
#UpdateWorkflowName UPDATE-SINGLE-ANNOTATED-BRONZE
#LibraryQualityString Bronze
#TaskID b1d8e8f6646f4e71acdff9ca3d919d08
##Scan# 1228
#SpectrumFile p2-E08_GE8_01_18032.mzXML
#LibraryName NIH_Natural_Products_Library.mgf
#MQScore -1
#Organism NIH_Natural_Products_Library
#TIC_Query 0
#RT_Query -1
#MZErrorPPM -1
#SharedPeaks 0
#MassDiff 0
#LibMZ -1
#SpecMZ 147.056
#SpecCharge 0
#internalFilename spec-00000.mgf

>collision 10
96.877327 188.0
98.84227 204.0
99.198769 236.0
100.268127 176.0
101.798553 152.0
102.033348 752.0
102.142235 192.0
102.319321 108.0
103.036316 148.0
104.033691 164.0
104.050804 436.0
106.204887 152.0
107.033104 148.0
108.477264 164.0
114.911133 48.0
116.143341 72.0
116.190536 164.0
117.05674 144.0
119.033195 84.0
119.058395 332.0
120.041824 1452.0
121.052475 172.0
126.02301 188.0
128.129776 180.0
129.044907 424.0
129.906693 224.0
130.032227 1688.0
131.009232 192.0
131.029877 296.0
131.059357 32.0
131.922058 104.0
137.262619 260.0
140.492325 52.0
146.827972 180.0
146.90033 64.0
146.977539 176.0
147.055252 3188.0
147.132004 48.0
147.245499 40.0
147.354202 104.0
148.054733 384.0
149.02063 80.0
149.05513 120.0
153.673218 80.0
315.254333 64.0
332.314423 44.0
748.850891 144.0
950.864563 192.0
1077.668579 52.0
1086.224976 152.0
1092.202271 148.0
1159.883057 124.0
1160.222046 160.0
1165.543091 172.0
1215.492432 92.0
1232.47522 152.0
1248.380005 108.0
1260.257324 176.0
1269.125854 100.0
1287.784668 180.0
1289.735229 176.0
1326.250122 104.0
1329.150879 212.0
1337.093628 160.0
1337.661255 52.0
1359.10376 176.0
1365.244751 176.0
1397.979492 216.0
1419.313232 196.0
1430.424683 212.0
1445.692993 148.0
1449.82019 152.0
1461.392456 172.0
1472.919067 228.0
1486.999512 240.0
1490.48584 128.0
1502.110962 192.0
1503.314575 224.0
1503.615479 184.0
1504.117188 172.0
