>compound Pefloxacin mesylate
>formula C17H20FN3O3
>ionization [M+H]+
>parentmass 334.157837
#inchi InChI=1S/C17H20FN3O3/c1-3-20-10-12(17(23)24)16(22)11-8-13(18)15(9-14(11)20)21-6-4-19(2)5-7-21/h8-10H,3-7H2,1-2H3,(H,23,24)
#inchikey FHFYDNQZQSQIAI
#origInchi InChI=1S/C17H20FN3O3.CH4O3S/c1-3-20-10-12(17(23)24)16(22)11-8-13(18)15(9-14(11)20)21-6-4-19(2)5-7-21;1-5(2,3)4/h8-10H,3-7H2,1-2H3,(H,23,24);1H3,(H,2,3,4)
#Ion_Source LC-ESI
#Instrument qTof
#Compound_Source Commercial
#PI Dorrestein
#Data_Collector Garg_Neha
#Scan -1
#Precursor_MZ 334.156
#ExactMass 333.149
#Charge 1
#CAS_Number 70458-95-6, 70458-92-3 (free base)
#Pubmed_ID N/A
#Smiles C1(=C(C=C2C(=C1)C(C(=CN2CC)C(=O)O)=O)N3CCN(CC3)C)F.S(C)(=O)(=O)O
#INCHI_AUX N/A
#Library_Class 1
#SpectrumID CCMSLIB00000078318
#IonMode Positive
#UpdateWorkflowName UPDATE-SINGLE-ANNOTATED-GOLD
#LibraryQualityString Gold
#TaskID 77f51c88eb8b467eb4a01dd2d0cb90d2
##Scan# 1032
#SpectrumFile Plate5_21_40_GH7_01_16509.mzXML
#LibraryName FDALibrary_2_04302014.mgf
#MQScore -1
#Organism FDALibrary_2_04302014
#TIC_Query 0
#RT_Query -1
#MZErrorPPM -1
#SharedPeaks 0
#MassDiff 0
#LibMZ -1
#SpecMZ 334.156
#SpecCharge 0
#internalFilename spec-00000.mgf

>collision 10
44.909939 152.0
44.923275 240.0
44.998009 204.0
45.046757 176.0
45.084835 144.0
45.131618 164.0
45.202515 184.0
45.293552 180.0
45.30899 128.0
45.327045 144.0
45.412842 164.0
45.422234 144.0
45.435646 160.0
45.51215 148.0
45.530457 164.0
45.556469 180.0
45.57259 224.0
45.599892 404.0
45.649208 180.0
45.696285 148.0
45.78072 204.0
45.820148 152.0
45.832844 152.0
45.964417 144.0
45.977913 160.0
46.187332 160.0
46.287479 204.0
46.353638 100.0
46.409428 196.0
46.429768 320.0
46.44062 192.0
46.566246 428.0
46.609077 180.0
46.68372 176.0
46.833427 180.0
46.923367 148.0
47.107601 160.0
47.238831 204.0
47.610126 192.0
47.827499 208.0
48.051216 140.0
48.106888 164.0
48.125565 208.0
48.268692 216.0
48.389549 140.0
48.4212 316.0
48.50156 164.0
48.585342 248.0
48.693031 168.0
48.751377 328.0
48.833405 160.0
49.09523 220.0
49.132893 148.0
49.157505 164.0
49.16917 176.0
49.360874 140.0
49.388527 160.0
49.521492 156.0
49.616528 200.0
49.72493 196.0
49.762688 164.0
49.814651 156.0
49.83432 224.0
49.854408 176.0
49.866638 180.0
49.906517 164.0
49.965073 188.0
49.988991 204.0
50.287647 148.0
50.408726 248.0
50.501106 228.0
50.730499 152.0
51.237556 180.0
51.330486 220.0
51.411797 208.0
51.712677 228.0
51.875214 172.0
51.899586 216.0
51.942608 220.0
51.952648 248.0
52.05312 164.0
52.089024 156.0
52.176685 184.0
52.332066 152.0
52.425694 164.0
52.444431 256.0
52.555473 148.0
52.591549 160.0
52.681076 184.0
52.692635 204.0
52.795261 148.0
52.808502 184.0
52.983429 196.0
53.102291 200.0
53.150166 156.0
53.253235 140.0
53.35059 160.0
53.420395 176.0
53.558678 188.0
53.679642 224.0
53.796364 156.0
53.887638 120.0
53.911751 160.0
53.984341 128.0
54.041889 168.0
54.140816 172.0
54.164864 188.0
54.197094 148.0
54.258274 128.0
54.380524 192.0
54.4855 184.0
54.662083 164.0
54.704216 160.0
54.78035 180.0
54.851082 268.0
54.893303 144.0
55.11525 152.0
55.147762 148.0
55.325268 156.0
55.340073 164.0
55.446728 148.0
55.590576 168.0
55.65292 212.0
55.68087 156.0
55.807446 156.0
55.855877 148.0
55.866158 192.0
56.082848 148.0
56.208118 248.0
56.220058 164.0
56.282753 196.0
56.471046 148.0
56.647675 384.0
56.970375 204.0
57.034813 192.0
57.066383 160.0
57.118176 136.0
57.194252 160.0
57.244213 152.0
57.314732 188.0
57.359943 148.0
57.420254 168.0
57.430813 172.0
57.47607 164.0
57.536442 180.0
57.622528 144.0
57.667862 168.0
57.67844 228.0
57.781273 180.0
57.903885 140.0
57.935692 156.0
58.275635 176.0
58.343922 204.0
58.511269 164.0
58.534107 204.0
58.569138 180.0
58.678078 188.0
58.704777 192.0
58.736805 148.0
59.112644 176.0
59.403748 176.0
59.633106 96.0
59.750935 168.0
59.944939 156.0
59.975388 148.0
60.077538 248.0
60.170132 176.0
60.185574 192.0
60.391106 160.0
60.411945 204.0
60.586147 140.0
60.607838 180.0
60.631081 164.0
60.671383 204.0
60.697739 160.0
60.739613 160.0
60.792366 156.0
60.820301 152.0
61.011368 168.0
61.048473 176.0
61.095345 220.0
61.106236 168.0
61.175552 148.0
61.291519 180.0
61.392841 176.0
61.592617 216.0
61.620735 300.0
61.713661 176.0
61.838097 184.0
61.92767 228.0
62.123005 188.0
62.264538 164.0
62.681416 172.0
62.697674 164.0
62.87854 160.0
62.982746 160.0
63.028561 156.0
63.069649 140.0
63.143959 180.0
63.186668 148.0
63.322803 140.0
63.338413 168.0
63.369373 160.0
63.408356 188.0
63.440685 152.0
63.800419 208.0
64.12355 184.0
64.208046 168.0
64.384338 128.0
64.645767 160.0
64.762642 208.0
64.828323 148.0
64.962204 112.0
65.007935 180.0
65.144402 204.0
65.324448 140.0
65.485405 172.0
65.55307 240.0
65.65947 144.0
65.798241 188.0
65.894386 120.0
65.914528 148.0
65.984993 188.0
66.072983 160.0
66.163612 156.0
66.199234 164.0
66.231621 156.0
66.27327 176.0
66.33371 212.0
66.408295 176.0
66.447227 160.0
66.47422 188.0
66.843475 160.0
66.947861 172.0
67.087578 160.0
67.14016 144.0
67.179306 188.0
67.239677 200.0
67.322937 160.0
67.339272 140.0
67.380104 224.0
67.505966 140.0
67.528862 184.0
67.628609 124.0
67.803909 168.0
67.826859 184.0
67.856361 172.0
67.920319 180.0
68.012207 216.0
68.186615 252.0
68.220825 156.0
68.322784 164.0
68.345818 180.0
68.545326 120.0
68.573723 220.0
68.63649 212.0
68.65715 140.0
68.875015 160.0
69.11969 208.0
69.20079 192.0
69.235565 184.0
69.248817 188.0
69.493813 172.0
69.512962 180.0
69.570503 144.0
69.595406 172.0
69.664101 164.0
69.821396 164.0
69.944519 172.0
69.987801 160.0
70.094406 256.0
70.129906 160.0
70.199425 176.0
70.330925 132.0
70.500076 120.0
70.576805 180.0
70.615265 184.0
70.631989 152.0
70.760048 176.0
70.811081 152.0
70.887505 220.0
70.928368 152.0
70.944977 128.0
70.975311 264.0
71.057495 192.0
71.117905 216.0
71.314423 204.0
71.337761 176.0
71.558792 148.0
71.630753 180.0
71.669502 144.0
71.95623 184.0
72.103188 192.0
72.180946 144.0
72.211388 196.0
72.294289 156.0
72.399246 168.0
72.522919 148.0
72.641617 224.0
72.750221 180.0
72.773987 192.0
72.857124 156.0
72.901672 192.0
73.024445 192.0
73.151627 188.0
73.180344 208.0
73.272316 320.0
73.284286 148.0
73.325142 140.0
73.350708 180.0
73.372871 204.0
73.432549 204.0
73.560524 180.0
73.669807 144.0
73.702271 148.0
73.801407 172.0
73.819519 216.0
73.98185 140.0
74.112923 148.0
74.215767 188.0
74.349564 144.0
74.617523 196.0
74.877655 140.0
74.934204 144.0
74.966942 140.0
75.045166 272.0
75.082443 184.0
75.129013 184.0
75.182503 192.0
75.29126 172.0
75.35952 132.0
75.455414 152.0
75.635323 196.0
75.657738 144.0
75.728828 188.0
75.867447 152.0
75.881317 216.0
75.928139 216.0
75.968033 172.0
76.051323 140.0
76.072151 180.0
76.228462 156.0
76.261482 164.0
76.321892 112.0
76.369278 156.0
76.388412 168.0
76.412773 152.0
76.47683 192.0
76.532867 156.0
76.554184 164.0
76.572914 148.0
76.811707 148.0
76.866753 212.0
76.947823 148.0
76.984489 164.0
77.032043 124.0
77.098045 156.0
77.220421 196.0
77.242233 180.0
77.281647 156.0
77.395416 188.0
77.482994 152.0
77.537308 148.0
77.549629 140.0
77.595154 244.0
77.637238 276.0
77.674072 188.0
77.719681 148.0
77.868896 188.0
77.90403 196.0
77.946198 168.0
78.004509 140.0
78.035835 144.0
78.065727 168.0
78.09211 144.0
78.208237 156.0
78.227592 160.0
78.291939 140.0
78.423119 148.0
78.43898 140.0
78.53759 156.0
78.58712 164.0
78.871437 236.0
78.949005 188.0
78.988251 204.0
79.002296 192.0
79.094887 196.0
79.154503 204.0
79.202324 168.0
79.360046 156.0
79.377777 204.0
79.445175 176.0
79.468239 192.0
79.517921 152.0
79.668854 220.0
79.75116 200.0
79.965805 160.0
79.988129 128.0
80.12072 160.0
80.22438 236.0
80.291992 184.0
80.348915 224.0
80.3741 172.0
80.455994 144.0
80.742943 172.0
80.765137 376.0
80.831398 204.0
80.979919 172.0
81.001411 252.0
81.085625 204.0
81.126419 200.0
81.232651 148.0
81.365494 180.0
81.667343 160.0
81.991417 192.0
82.085159 152.0
82.099579 140.0
82.364891 148.0
82.420898 176.0
82.645103 148.0
82.712067 188.0
82.742844 192.0
82.793541 172.0
82.838821 172.0
82.880493 192.0
83.063599 192.0
83.122559 200.0
83.153908 140.0
83.214226 148.0
83.341362 156.0
83.58683 172.0
83.619591 152.0
83.741577 228.0
83.807152 148.0
83.825378 200.0
83.845421 208.0
83.930328 228.0
83.962097 156.0
84.034546 160.0
84.064262 172.0
84.078857 148.0
84.100761 148.0
84.115364 160.0
84.169647 180.0
84.190224 160.0
84.294342 148.0
84.449249 252.0
84.627251 176.0
84.667534 144.0
84.787407 184.0
84.815941 168.0
84.903717 164.0
84.977806 180.0
85.199463 156.0
85.261932 168.0
85.72937 164.0
85.825226 172.0
85.887924 144.0
85.917442 188.0
85.954277 176.0
86.007866 152.0
86.104836 232.0
86.135269 176.0
86.231354 140.0
86.251678 184.0
86.394066 184.0
86.447723 168.0
86.475487 148.0
86.523613 160.0
86.577309 160.0
86.872017 156.0
86.938812 228.0
87.265732 156.0
87.390343 144.0
87.521805 136.0
87.563461 176.0
87.656609 172.0
87.825294 156.0
87.876633 228.0
87.928879 160.0
87.968079 148.0
88.017647 196.0
88.225876 168.0
88.323112 232.0
88.38559 188.0
88.521492 148.0
88.546181 176.0
88.900162 156.0
88.969604 144.0
89.087921 140.0
89.101677 148.0
89.257072 144.0
89.394386 196.0
89.601501 156.0
89.627884 196.0
89.782455 148.0
89.83532 160.0
89.898148 148.0
90.046677 160.0
90.112793 264.0
90.170105 256.0
90.279129 184.0
90.392632 192.0
90.473938 100.0
90.545967 164.0
90.623245 196.0
90.64637 276.0
90.760101 160.0
90.788116 352.0
90.849243 144.0
91.004128 124.0
91.118454 104.0
91.151123 148.0
91.383438 176.0
91.750664 184.0
91.831108 172.0
92.109428 204.0
92.406059 96.0
92.45166 172.0
92.516739 180.0
92.641212 216.0
92.664207 168.0
92.70636 156.0
92.721687 168.0
92.74852 216.0
92.804115 188.0
92.823288 208.0
92.846306 188.0
92.872536 124.0
92.959488 148.0
92.976845 172.0
93.05162 144.0
93.180298 200.0
93.41291 160.0
93.429092 156.0
93.501419 208.0
93.595276 180.0
93.675026 168.0
93.75563 152.0
93.801888 196.0
94.106697 208.0
94.153641 240.0
94.225159 168.0
94.283638 140.0
94.365517 184.0
94.538223 264.0
94.648087 184.0
94.692627 192.0
94.752678 200.0
94.918365 140.0
94.949127 196.0
94.979218 116.0
95.031219 168.0
95.092018 164.0
95.191032 148.0
95.238937 180.0
95.343506 120.0
95.653748 152.0
95.795898 192.0
96.023956 260.0
96.040367 212.0
96.086372 196.0
96.277664 148.0
96.315521 208.0
96.4356 176.0
96.564957 144.0
96.607986 144.0
96.645157 184.0
96.782173 184.0
96.803711 144.0
96.860504 188.0
96.878136 164.0
97.080017 336.0
97.146706 196.0
97.30172 196.0
97.436501 168.0
97.474579 216.0
97.546158 128.0
97.568924 148.0
97.618767 172.0
97.647575 216.0
97.925087 140.0
97.964478 160.0
98.088623 140.0
98.223267 156.0
98.352943 208.0
98.548447 168.0
98.605751 188.0
98.734261 204.0
98.783707 200.0
98.845039 256.0
98.971779 144.0
99.150002 236.0
99.17775 172.0
99.211449 144.0
99.541107 160.0
99.840874 144.0
99.864746 176.0
99.910492 176.0
99.952278 144.0
100.077309 176.0
100.37738 232.0
100.404472 164.0
100.418434 148.0
100.458328 172.0
100.474289 156.0
100.514023 188.0
100.568695 180.0
100.590034 188.0
100.629959 172.0
100.739799 148.0
100.957657 196.0
101.008659 264.0
101.109703 160.0
101.303001 136.0
101.319946 156.0
101.374046 152.0
101.390076 188.0
101.434174 152.0
101.457802 132.0
101.530411 140.0
101.560493 200.0
101.643723 148.0
101.804863 100.0
101.823418 200.0
101.866676 156.0
101.925873 156.0
101.972092 208.0
102.169151 196.0
102.233536 176.0
102.465279 132.0
102.597038 212.0
102.664642 168.0
102.751381 392.0
102.817963 160.0
102.85228 172.0
102.884575 192.0
103.053864 156.0
103.079536 124.0
103.131401 240.0
103.183571 184.0
103.234123 160.0
103.395966 140.0
103.452965 148.0
103.570084 144.0
103.600471 192.0
103.790985 220.0
104.01535 216.0
104.078835 148.0
104.176651 144.0
104.262688 184.0
104.343239 152.0
104.569031 208.0
104.638657 176.0
104.846008 180.0
104.882698 184.0
104.899002 276.0
104.931618 144.0
105.002991 140.0
105.094788 160.0
105.13356 196.0
105.190704 164.0
105.236397 200.0
105.47464 228.0
105.613678 160.0
105.670959 184.0
105.711876 144.0
105.763046 220.0
105.801941 216.0
105.816269 192.0
105.953972 152.0
105.992416 144.0
106.21489 128.0
106.250755 168.0
106.334885 156.0
106.458061 140.0
106.484756 164.0
106.53611 160.0
106.605202 192.0
106.852707 164.0
106.908264 236.0
106.974129 156.0
107.178017 224.0
107.462555 168.0
107.640068 220.0
107.78466 192.0
107.839836 348.0
107.958359 132.0
108.142426 156.0
108.165192 220.0
108.262505 208.0
108.372292 152.0
108.431442 168.0
108.880508 152.0
109.203735 188.0
109.332573 176.0
109.508598 188.0
109.57283 204.0
109.598175 188.0
109.633598 244.0
109.689873 160.0
109.955421 140.0
109.979813 200.0
110.061226 160.0
110.101212 164.0
110.305664 192.0
110.376747 244.0
110.673866 156.0
110.774513 140.0
110.977684 148.0
111.158707 264.0
111.197777 184.0
111.298706 196.0
111.548012 180.0
111.588707 176.0
111.69693 196.0
111.84198 284.0
111.891983 208.0
111.90638 156.0
111.947701 176.0
112.218689 180.0
112.235046 172.0
112.365814 164.0
112.421936 160.0
112.502991 200.0
112.534653 196.0
112.602226 200.0
112.617012 168.0
112.684608 172.0
112.726868 236.0
112.902328 140.0
112.965782 160.0
113.044067 188.0
113.108406 200.0
113.226585 240.0
113.422012 120.0
113.510094 200.0
113.548264 196.0
113.747711 168.0
114.110985 148.0
114.291771 176.0
114.342842 152.0
114.375725 192.0
114.476959 140.0
114.789497 168.0
115.012085 180.0
115.054779 296.0
115.099396 152.0
115.273628 176.0
115.298286 144.0
115.458626 184.0
115.516373 140.0
115.599815 144.0
115.619072 140.0
115.68882 164.0
115.734665 168.0
115.768929 144.0
115.847244 184.0
115.912453 176.0
115.938164 140.0
116.028191 168.0
116.168991 116.0
116.336044 232.0
116.358635 160.0
116.405823 328.0
116.443367 296.0
116.505585 196.0
116.829231 156.0
116.889473 152.0
117.05307 184.0
117.221092 200.0
117.253418 184.0
117.285957 492.0
117.391388 188.0
117.569099 116.0
117.592018 152.0
117.658936 316.0
117.682579 168.0
117.701088 136.0
117.81443 208.0
117.861961 168.0
117.980682 172.0
118.037827 132.0
118.067322 140.0
118.11274 168.0
118.15168 196.0
118.242554 172.0
118.41143 216.0
118.426285 172.0
118.456909 188.0
118.494148 128.0
118.803757 204.0
118.875244 152.0
118.948776 164.0
118.988228 200.0
119.040337 180.0
119.07238 180.0
119.125954 192.0
119.155457 148.0
119.33802 144.0
119.364113 216.0
119.414131 168.0
119.470741 148.0
119.495811 204.0
119.522743 168.0
119.646194 204.0
119.702263 184.0
119.893089 144.0
119.93232 144.0
120.006859 216.0
120.02607 200.0
120.146561 212.0
120.184662 124.0
120.244217 144.0
120.267174 192.0
120.334534 160.0
120.495331 176.0
120.565338 100.0
120.617706 184.0
120.681107 144.0
120.70063 116.0
120.7817 140.0
120.812325 208.0
120.845146 144.0
120.867027 208.0
120.92173 208.0
120.93705 148.0
121.027824 208.0
121.164787 140.0
121.188889 140.0
121.221756 148.0
121.245865 156.0
121.26899 176.0
121.312881 160.0
121.389923 152.0
121.405342 376.0
121.454041 240.0
121.480476 200.0
121.495827 140.0
121.595932 196.0
121.617615 200.0
121.656029 176.0
121.847092 152.0
121.930222 144.0
122.094704 148.0
122.147072 148.0
122.350716 156.0
122.417786 164.0
122.465225 160.0
122.566559 144.0
122.588776 148.0
122.612839 200.0
122.676758 164.0
122.811264 144.0
123.21965 236.0
123.247963 196.0
123.323509 176.0
123.343399 172.0
123.411934 144.0
123.524338 208.0
123.553482 164.0
123.64502 192.0
123.732742 156.0
123.907906 176.0
123.949799 140.0
123.99379 276.0
124.014069 216.0
124.036232 180.0
124.129349 168.0
124.155365 216.0
124.273521 156.0
124.342316 196.0
124.400024 144.0
124.451088 204.0
124.564346 164.0
124.797699 152.0
124.824379 164.0
124.888878 248.0
125.002335 184.0
125.043427 172.0
125.346825 152.0
125.365311 140.0
125.436226 176.0
125.60833 160.0
125.698921 172.0
125.859116 140.0
125.900101 348.0
125.936386 152.0
125.969009 152.0
126.020187 264.0
126.060799 148.0
126.144913 176.0
126.173317 144.0
126.401451 140.0
126.488731 176.0
126.546944 144.0
126.647713 176.0
126.682327 212.0
126.704948 160.0
126.895515 124.0
126.976143 112.0
127.089348 156.0
127.152649 208.0
127.224007 144.0
127.291359 156.0
127.309326 208.0
127.412369 128.0
127.457039 164.0
127.567711 156.0
127.601433 140.0
127.882614 176.0
127.941139 228.0
127.97541 180.0
127.992928 192.0
128.209183 160.0
128.29483 160.0
128.374023 128.0
128.39946 248.0
128.451675 188.0
128.500061 152.0
128.521942 228.0
128.598404 152.0
128.711288 160.0
128.76416 212.0
128.853409 220.0
128.899704 152.0
128.978806 144.0
129.053299 164.0
129.107681 168.0
129.152588 196.0
129.25589 192.0
129.288101 112.0
129.306122 200.0
129.320694 180.0
129.423782 116.0
129.449387 208.0
129.466858 140.0
129.526398 152.0
129.576004 156.0
129.669144 228.0
129.811966 172.0
129.900406 144.0
129.920334 184.0
129.982086 200.0
130.035309 196.0
130.071884 248.0
130.102386 140.0
130.181854 220.0
130.204559 328.0
130.31813 168.0
130.379486 144.0
130.549988 148.0
130.622772 168.0
130.638687 144.0
130.668732 212.0
130.727432 160.0
130.813919 144.0
130.916367 148.0
130.939148 188.0
130.9991 112.0
131.069061 144.0
131.099365 268.0
131.135086 156.0
131.201187 164.0
131.420135 144.0
131.438385 176.0
131.468048 208.0
131.652954 196.0
131.684937 168.0
131.745438 160.0
131.792297 140.0
131.986588 204.0
132.091187 176.0
132.341248 140.0
132.39975 168.0
132.478653 156.0
132.56572 208.0
132.71701 228.0
132.862869 140.0
132.900497 152.0
132.935547 188.0
132.962769 236.0
133.046219 204.0
133.071915 140.0
133.117172 192.0
133.242218 144.0
133.323807 196.0
133.463242 156.0
133.661057 280.0
133.751831 144.0
133.859009 196.0
133.967255 192.0
134.007324 144.0
134.036774 188.0
134.101105 188.0
134.153915 156.0
134.188766 136.0
134.260513 100.0
134.384552 212.0
134.435913 184.0
134.571976 156.0
134.68042 164.0
134.790924 156.0
134.84407 152.0
134.929596 168.0
135.04834 332.0
135.146439 192.0
135.207169 180.0
135.336807 168.0
135.511841 208.0
135.610153 164.0
135.674118 332.0
135.832748 148.0
135.909317 140.0
136.027679 148.0
136.05603 484.0
136.149307 192.0
136.171631 176.0
136.19017 132.0
136.459778 168.0
136.483032 180.0
136.522552 232.0
136.64119 196.0
136.657471 256.0
136.807541 180.0
136.841339 148.0
136.943802 216.0
136.977905 200.0
137.050064 388.0
137.106888 152.0
137.123199 208.0
137.1465 168.0
137.177582 108.0
137.216446 184.0
137.323517 144.0
137.35083 184.0
137.512695 168.0
137.614197 208.0
137.697128 184.0
137.790573 176.0
137.850876 148.0
137.923767 140.0
137.953995 204.0
137.967728 148.0
138.058487 240.0
138.25354 192.0
138.326096 176.0
138.401016 172.0
138.440826 144.0
138.522552 116.0
138.566223 140.0
138.787628 176.0
138.82045 176.0
139.184158 164.0
139.212341 220.0
139.245224 140.0
139.318039 164.0
139.405029 152.0
139.449631 224.0
139.488556 192.0
139.637711 140.0
139.684753 208.0
139.7556 144.0
139.816513 144.0
139.875305 200.0
139.943954 256.0
140.043839 548.0
140.077866 180.0
140.207458 148.0
140.372467 232.0
140.462082 172.0
140.577698 220.0
140.812546 188.0
140.833267 176.0
140.870468 380.0
140.909027 160.0
141.003998 172.0
141.061646 212.0
141.123337 192.0
141.142258 180.0
141.265228 184.0
141.38118 200.0
141.504257 148.0
141.686218 216.0
141.731628 152.0
141.750595 212.0
141.81221 176.0
141.859619 172.0
141.880951 148.0
142.064713 144.0
142.108627 180.0
142.13562 160.0
142.209076 404.0
142.376862 156.0
142.457275 140.0
142.48851 208.0
142.550278 208.0
142.664368 336.0
142.692886 176.0
142.711914 144.0
142.807388 136.0
142.842712 164.0
142.86412 180.0
142.913086 248.0
142.971191 196.0
143.061707 156.0
143.102112 172.0
143.22998 184.0
143.342682 164.0
143.452316 200.0
143.521454 160.0
143.702728 140.0
143.989182 200.0
144.041962 172.0
144.072754 168.0
144.111008 192.0
144.205109 116.0
144.247284 156.0
144.327347 172.0
144.359589 140.0
144.440918 156.0
144.531311 132.0
145.044601 136.0
145.334503 180.0
145.620728 176.0
145.637466 120.0
145.670609 228.0
145.723465 152.0
145.769836 172.0
145.859482 140.0
146.023376 168.0
146.038528 264.0
146.082535 212.0
146.211609 140.0
146.250015 192.0
146.295853 168.0
146.493317 144.0
146.55484 148.0
146.582367 108.0
146.653671 152.0
146.67218 140.0
146.711136 208.0
146.840927 220.0
146.888641 176.0
146.980316 168.0
146.999634 140.0
147.039917 156.0
147.179947 200.0
147.265182 240.0
147.307648 232.0
147.441559 136.0
147.728134 128.0
147.896255 148.0
147.961609 168.0
148.053162 440.0
148.104996 188.0
148.165359 152.0
148.265213 172.0
148.397705 164.0
148.431656 224.0
148.526337 172.0
148.635406 188.0
148.864151 136.0
148.924301 172.0
148.979721 108.0
149.022842 196.0
149.055283 472.0
149.086746 204.0
149.157562 176.0
149.203751 168.0
149.220764 164.0
149.276688 320.0
149.363953 168.0
149.44519 160.0
149.553421 128.0
149.588104 164.0
149.605148 192.0
149.721817 188.0
149.84967 220.0
149.928818 176.0
150.067535 172.0
150.092422 140.0
150.12413 144.0
150.153397 172.0
150.177078 112.0
150.418777 140.0
150.482971 128.0
150.503296 144.0
150.531647 156.0
150.592697 176.0
150.617126 248.0
150.727066 156.0
150.829712 256.0
150.89444 164.0
150.912827 160.0
151.054901 176.0
151.096252 144.0
151.19429 212.0
151.243088 172.0
151.314072 148.0
151.345901 156.0
151.367935 200.0
151.561569 156.0
151.588989 116.0
151.608002 152.0
151.679703 220.0
151.845688 160.0
151.885056 140.0
151.920944 324.0
151.996338 144.0
152.051895 180.0
152.120346 248.0
152.22374 180.0
152.243393 140.0
152.277679 196.0
152.482986 120.0
152.543137 180.0
152.605713 180.0
152.736282 248.0
152.789047 156.0
152.808731 156.0
152.848099 156.0
152.949005 180.0
153.057327 152.0
153.186768 116.0
153.269165 192.0
153.454025 164.0
153.594589 148.0
153.627838 224.0
153.698196 172.0
153.748245 156.0
153.885788 144.0
153.904007 164.0
153.921722 136.0
154.00679 184.0
154.074997 156.0
154.164902 148.0
154.300858 140.0
154.503647 148.0
154.605087 160.0
154.674393 144.0
154.741226 140.0
154.761047 224.0
154.830383 160.0
154.9245 176.0
155.001297 152.0
155.060959 172.0
155.177292 152.0
155.221909 144.0
155.264297 176.0
155.313675 156.0
155.482391 188.0
155.519623 164.0
155.557495 148.0
155.583649 192.0
155.612518 180.0
155.695892 164.0
155.78035 152.0
155.904572 172.0
155.931915 216.0
155.996536 204.0
156.069382 524.0
156.183029 268.0
156.207901 196.0
156.240707 228.0
156.297989 152.0
156.406967 172.0
156.58873 140.0
156.608353 224.0
156.723312 140.0
156.822922 208.0
156.845367 240.0
156.890228 160.0
156.920151 152.0
157.074478 612.0
157.271881 140.0
157.341782 208.0
157.551559 152.0
157.661499 180.0
157.718414 124.0
157.781479 160.0
157.87149 316.0
157.916504 144.0
158.057816 148.0
158.095276 152.0
158.146698 156.0
158.335724 140.0
158.384567 164.0
158.404602 164.0
158.54631 128.0
158.644394 196.0
158.731873 164.0
158.908493 232.0
159.091461 156.0
159.124344 164.0
159.199661 204.0
159.340546 136.0
159.393097 160.0
159.418915 188.0
159.445862 164.0
159.629379 172.0
159.742554 152.0
159.802368 160.0
159.861786 144.0
159.932678 216.0
160.00679 184.0
160.041779 192.0
160.065582 280.0
160.1604 160.0
160.195663 144.0
160.371552 120.0
160.411148 220.0
160.469421 224.0
160.520798 160.0
160.711624 184.0
160.74025 148.0
160.79567 192.0
160.876541 308.0
161.047607 488.0
161.057571 148.0
161.066437 220.0
161.189728 160.0
161.326492 180.0
161.354019 152.0
161.5793 204.0
161.652481 140.0
161.915756 188.0
161.956421 212.0
162.034897 740.0
162.073959 324.0
162.212204 208.0
162.275574 140.0
162.359253 228.0
162.534286 160.0
162.717041 164.0
162.750046 196.0
162.785599 144.0
162.831299 156.0
162.882843 204.0
163.021683 196.0
163.040131 560.0
163.064026 492.0
163.332016 144.0
163.373642 196.0
163.40033 164.0
163.512665 252.0
163.668167 176.0
163.869156 176.0
163.983826 200.0
164.000381 176.0
164.049835 1084.0
164.111908 244.0
164.140213 128.0
164.191696 120.0
164.201385 144.0
164.375046 164.0
164.529694 232.0
164.649933 312.0
164.756989 160.0
164.836197 164.0
164.89241 168.0
165.027893 208.0
165.055878 220.0
165.084152 212.0
165.136887 316.0
165.186462 152.0
165.25647 148.0
165.327179 176.0
165.363007 176.0
165.460419 152.0
165.483322 204.0
165.688217 268.0
165.788147 180.0
165.880554 144.0
166.04451 192.0
166.085739 108.0
166.142502 180.0
166.275406 224.0
166.309082 144.0
166.33255 184.0
166.516739 200.0
166.737686 192.0
166.850784 216.0
166.979355 152.0
167.002502 232.0
167.055252 208.0
167.09436 96.0
167.103729 148.0
167.13237 260.0
167.177444 148.0
167.257233 148.0
167.352798 132.0
167.375656 224.0
167.406555 156.0
167.460632 152.0
167.507004 148.0
167.695099 160.0
167.762115 156.0
167.997131 236.0
168.062988 164.0
168.18515 276.0
168.262604 220.0
168.342636 172.0
168.414948 140.0
168.505371 148.0
168.598389 256.0
168.620605 188.0
168.647491 416.0
168.75354 176.0
168.776749 188.0
168.887894 176.0
169.062988 196.0
169.071228 272.0
169.168671 164.0
169.206253 188.0
169.473007 176.0
169.519714 164.0
169.566299 164.0
169.586838 216.0
169.791855 160.0
169.83725 104.0
169.931931 176.0
169.983826 144.0
170.085602 148.0
170.273071 152.0
170.495407 144.0
170.6819 248.0
170.735687 420.0
170.770981 156.0
170.929688 144.0
171.007324 120.0
171.027481 248.0
171.059021 236.0
171.091309 144.0
171.111877 140.0
171.414017 200.0
171.442184 192.0
171.599075 156.0
171.630371 176.0
171.681198 148.0
171.876602 168.0
172.040848 216.0
172.076904 804.0
172.142365 220.0
172.197479 164.0
172.392578 176.0
172.492676 176.0
172.554642 260.0
172.645889 160.0
172.800476 156.0
172.881592 176.0
172.913101 204.0
173.012466 164.0
173.077927 276.0
173.111969 308.0
173.150391 196.0
173.196304 204.0
173.285019 200.0
173.324142 292.0
173.371307 172.0
173.473526 224.0
173.497116 228.0
173.546509 140.0
173.624252 140.0
173.788345 188.0
173.822342 164.0
173.872208 172.0
173.971954 204.0
174.054779 208.0
174.089478 184.0
174.116959 176.0
174.220276 148.0
174.284485 220.0
174.326523 156.0
174.465836 144.0
174.73291 208.0
174.848297 168.0
174.935745 164.0
175.063614 428.0
175.121033 144.0
175.230469 96.0
175.26915 144.0
175.35817 160.0
175.57312 180.0
175.720932 128.0
175.73912 144.0
175.799454 336.0
175.919998 140.0
175.970154 176.0
176.050995 1140.0
176.074097 3068.0
176.120682 304.0
176.164444 120.0
176.279892 180.0
176.347 132.0
176.398407 148.0
176.4272 144.0
176.446503 120.0
176.482086 200.0
176.572632 184.0
176.600128 112.0
176.628174 184.0
176.876907 148.0
176.975494 284.0
177.019867 192.0
177.062057 564.0
177.082077 1864.0
177.164825 212.0
177.398743 148.0
177.44693 192.0
177.515411 176.0
177.612762 152.0
177.679855 156.0
178.000122 124.0
178.033722 184.0
178.063217 380.0
178.216156 144.0
178.355576 156.0
178.401245 156.0
178.47438 136.0
178.524017 176.0
178.707413 184.0
178.923615 164.0
178.982193 244.0
179.014008 152.0
179.062469 784.0
179.127823 164.0
179.208603 152.0
179.333847 140.0
179.483139 140.0
179.501801 152.0
179.692459 116.0
179.721466 204.0
179.760544 172.0
179.8246 140.0
179.914185 156.0
179.950745 188.0
180.084137 348.0
180.120117 364.0
180.302658 212.0
180.362839 116.0
180.529312 204.0
180.616608 152.0
180.658279 396.0
180.700394 140.0
180.873566 164.0
180.927689 148.0
181.043701 208.0
181.091995 128.0
181.142792 144.0
181.188339 168.0
181.22049 140.0
181.451538 172.0
181.689667 204.0
182.009064 152.0
182.088089 360.0
182.116486 156.0
182.154083 176.0
182.37529 160.0
182.574814 216.0
182.710541 140.0
182.799332 160.0
182.931213 144.0
183.041595 116.0
183.08873 280.0
183.154709 236.0
183.176559 148.0
183.224747 148.0
183.44487 188.0
183.672241 212.0
183.715408 148.0
183.865982 164.0
183.966141 216.0
184.06131 620.0
184.187515 152.0
184.234756 136.0
184.485046 172.0
184.585083 180.0
184.62294 176.0
184.644394 120.0
184.796051 188.0
184.969254 416.0
185.020691 140.0
185.070343 2160.0
185.106125 1064.0
185.156082 168.0
185.211319 192.0
185.274612 184.0
185.382202 264.0
185.411301 136.0
185.430832 328.0
185.551682 236.0
185.63475 132.0
185.723709 192.0
185.883011 208.0
185.92601 156.0
185.993866 188.0
186.03537 160.0
186.061295 452.0
186.074066 356.0
186.105759 344.0
186.311584 172.0
186.341461 224.0
186.385925 208.0
186.452866 188.0
186.478073 424.0
186.553436 336.0
186.604675 156.0
186.722015 152.0
186.857101 176.0
186.904282 188.0
187.066788 892.0
187.118729 800.0
187.190094 176.0
187.230942 156.0
187.290024 208.0
187.545456 108.0
187.582428 140.0
187.632233 132.0
187.841476 280.0
187.939896 156.0
188.051651 520.0
188.116043 168.0
188.230698 148.0
188.288239 152.0
188.309952 188.0
188.347763 108.0
188.384628 148.0
188.477585 168.0
188.565033 148.0
188.693512 156.0
188.712646 260.0
188.825714 196.0
188.932495 284.0
188.991638 152.0
189.044235 912.0
189.080017 696.0
189.099487 200.0
189.205109 204.0
189.24617 160.0
189.306412 152.0
189.472198 168.0
189.505371 144.0
189.52829 164.0
189.583099 204.0
189.644806 172.0
189.73111 212.0
189.818848 196.0
189.876434 184.0
189.914841 188.0
190.062195 1600.0
190.129425 280.0
190.161942 260.0
190.222153 204.0
190.261536 232.0
190.339203 176.0
190.364914 172.0
190.458023 156.0
190.532471 180.0
190.551697 356.0
190.639633 176.0
190.793549 176.0
190.889481 184.0
191.019043 172.0
191.0634 1468.0
191.097061 424.0
191.203384 200.0
191.280457 148.0
191.375137 132.0
191.548645 132.0
191.575104 160.0
191.60817 164.0
191.957123 232.0
191.999298 128.0
192.039597 172.0
192.080078 2252.0
192.194214 172.0
192.298981 160.0
192.363785 164.0
192.460403 140.0
192.485413 160.0
192.531693 140.0
192.62059 192.0
192.697937 140.0
192.736618 144.0
192.802933 140.0
192.835617 248.0
193.046143 164.0
193.082733 256.0
193.11554 172.0
193.148544 152.0
193.184509 176.0
193.223038 232.0
193.293228 200.0
193.429077 156.0
193.602448 256.0
193.634048 156.0
193.671677 216.0
193.765869 184.0
193.864655 136.0
193.907196 188.0
193.9543 172.0
194.057266 280.0
194.116638 152.0
194.137283 144.0
194.231583 144.0
194.272552 136.0
194.309265 188.0
194.403595 152.0
194.529678 140.0
194.626404 212.0
194.712952 148.0
194.858978 152.0
195.033447 184.0
195.057495 204.0
195.085388 144.0
195.262039 160.0
195.467896 184.0
195.740692 224.0
195.907791 252.0
196.03038 168.0
196.071884 180.0
196.092865 200.0
196.147186 128.0
196.280441 200.0
196.479294 164.0
196.657883 148.0
196.686539 164.0
196.942673 172.0
197.006912 144.0
197.065063 392.0
197.104675 260.0
197.186508 192.0
197.322723 148.0
197.359787 104.0
197.605194 296.0
197.69342 184.0
197.731674 144.0
197.789886 140.0
197.932022 160.0
197.988678 152.0
198.079926 936.0
198.119446 244.0
198.180725 152.0
198.260422 180.0
198.2883 152.0
198.386551 184.0
198.431091 192.0
198.549881 144.0
198.672653 184.0
198.898697 208.0
198.975052 180.0
199.000763 180.0
199.036743 168.0
199.081665 504.0
199.119217 448.0
199.222824 160.0
199.352737 216.0
199.430756 140.0
199.534836 140.0
199.965149 144.0
200.046768 144.0
200.075409 192.0
200.106125 176.0
200.200516 240.0
200.300201 164.0
200.407257 152.0
200.728592 164.0
200.773987 180.0
200.795212 120.0
200.864182 152.0
200.97963 160.0
201.05397 240.0
201.096619 188.0
201.121307 228.0
201.312622 128.0
201.343781 212.0
201.474548 180.0
201.507614 224.0
201.536652 144.0
202.027802 280.0
202.062714 488.0
202.087631 504.0
202.127014 292.0
202.194733 156.0
202.30513 144.0
202.442719 124.0
202.480682 160.0
202.644379 132.0
202.774506 236.0
202.817841 184.0
202.867111 156.0
202.935806 144.0
202.953094 304.0
203.061295 12412.0
203.095978 356.0
203.146774 168.0
203.178894 196.0
203.370941 164.0
203.407928 248.0
203.436218 152.0
203.531296 272.0
203.553955 180.0
203.683273 156.0
203.822189 208.0
203.919098 164.0
203.943771 208.0
204.005798 160.0
204.068573 17540.0
204.278839 116.0
204.404861 156.0
204.459229 148.0
204.4841 140.0
204.51178 200.0
204.58609 196.0
204.628128 252.0
204.671082 204.0
204.752228 200.0
204.871124 124.0
204.90004 192.0
204.986176 200.0
205.024246 212.0
205.076965 35468.0
205.275757 212.0
205.36644 212.0
205.489944 136.0
205.685532 180.0
205.728973 112.0
205.790665 148.0
205.846695 160.0
205.904755 172.0
205.957718 172.0
206.080322 3880.0
206.224869 172.0
206.270386 216.0
206.37352 148.0
206.4776 232.0
206.54274 176.0
206.619492 236.0
206.66748 252.0
206.745377 156.0
206.809067 176.0
206.848953 152.0
206.879425 164.0
206.966202 252.0
207.09079 740.0
207.201782 220.0
207.338196 216.0
207.363846 160.0
207.422821 168.0
207.473312 116.0
207.518784 148.0
207.564499 108.0
207.644958 196.0
207.718887 192.0
207.748215 160.0
207.996582 160.0
208.082642 120.0
208.167252 168.0
208.387726 292.0
208.546219 136.0
208.586716 140.0
208.632721 232.0
208.669968 192.0
208.718445 156.0
208.848373 144.0
209.101074 164.0
209.109589 132.0
209.138992 212.0
209.326111 164.0
209.433578 192.0
209.539261 176.0
209.717926 176.0
209.752502 168.0
209.844147 112.0
209.965866 168.0
209.994705 152.0
210.049088 136.0
210.086731 204.0
210.289001 200.0
210.407715 224.0
210.45932 148.0
210.512207 164.0
210.566162 152.0
210.71637 172.0
210.988037 260.0
211.048203 212.0
211.09137 196.0
211.109009 344.0
211.312775 240.0
211.572418 180.0
211.687592 192.0
211.858856 132.0
211.92865 196.0
211.94812 140.0
211.998199 156.0
212.038773 200.0
212.081375 408.0
212.116196 380.0
212.177902 168.0
212.27359 172.0
212.319977 144.0
212.359955 164.0
212.406998 152.0
212.435303 184.0
212.661575 148.0
212.701294 188.0
212.752319 144.0
212.966721 172.0
213.050781 176.0
213.099411 1744.0
213.241302 152.0
213.522324 400.0
213.548492 188.0
213.609573 140.0
213.663635 220.0
213.698959 204.0
213.748032 224.0
213.833618 224.0
214.037399 188.0
214.074158 180.0
214.105179 268.0
214.408524 120.0
214.464432 212.0
214.50354 160.0
214.550247 196.0
214.605576 152.0
214.693054 188.0
214.906555 144.0
214.927383 176.0
214.965927 156.0
215.008118 148.0
215.097534 2436.0
215.15184 184.0
215.216003 148.0
215.26358 220.0
215.397461 224.0
215.545151 160.0
215.577591 164.0
215.653564 328.0
215.700333 144.0
215.88353 140.0
215.917847 204.0
215.957642 140.0
216.0289 336.0
216.068298 648.0
216.09816 400.0
216.174133 172.0
216.24437 204.0
216.475647 140.0
216.528366 140.0
216.569366 188.0
216.592804 172.0
216.736359 156.0
216.797882 148.0
217.041046 552.0
217.077835 4344.0
217.161148 208.0
217.281693 160.0
217.33519 172.0
217.486084 104.0
217.541397 144.0
217.604523 148.0
217.661499 188.0
217.687698 124.0
217.777786 148.0
217.905273 120.0
217.992249 140.0
218.083786 4592.0
218.158447 264.0
218.243027 316.0
218.340271 312.0
218.486069 160.0
218.545975 280.0
218.582092 224.0
218.711456 176.0
218.733398 220.0
218.801498 176.0
218.883774 160.0
218.939499 204.0
219.056259 360.0
219.092102 15904.0
219.357178 220.0
219.439423 140.0
219.708054 172.0
219.878357 116.0
219.992111 268.0
220.043381 152.0
220.095306 2552.0
220.16684 224.0
220.364227 140.0
220.408539 152.0
220.509018 196.0
220.587341 160.0
220.609512 160.0
220.836258 120.0
220.930511 176.0
221.073563 324.0
221.098846 588.0
221.147858 176.0
221.251465 152.0
221.340042 188.0
221.472855 268.0
221.538727 184.0
221.5867 104.0
221.644287 136.0
221.713226 116.0
221.787628 152.0
221.869965 140.0
221.947479 148.0
221.992203 196.0
222.052094 628.0
222.072281 432.0
222.104462 380.0
222.149399 164.0
222.182816 212.0
222.205765 204.0
222.251663 128.0
222.303101 164.0
222.337112 180.0
222.580338 316.0
222.641571 200.0
222.647751 164.0
222.716354 168.0
223.063187 232.0
223.122177 212.0
223.377487 104.0
223.405975 172.0
223.439377 176.0
223.495239 164.0
223.516068 180.0
223.554749 184.0
223.712494 140.0
223.733337 152.0
223.905304 192.0
223.935822 160.0
224.052582 136.0
224.06398 328.0
224.117676 416.0
224.32019 172.0
224.386673 212.0
224.418579 160.0
224.641098 208.0
224.793716 132.0
224.921661 132.0
224.95108 180.0
224.973495 220.0
225.030304 240.0
225.057602 428.0
225.125534 452.0
225.349686 120.0
225.47728 120.0
225.597137 152.0
225.828079 140.0
225.849014 156.0
225.869949 188.0
225.981735 308.0
226.061432 288.0
226.09227 796.0
226.128723 644.0
226.244019 156.0
226.316635 172.0
226.473785 136.0
226.517792 140.0
226.636353 152.0
226.906097 148.0
227.044037 172.0
227.107651 1104.0
227.24501 140.0
227.306824 192.0
227.464081 140.0
227.491089 228.0
227.668243 172.0
227.77182 132.0
227.866486 152.0
227.8983 136.0
228.074463 172.0
228.113464 236.0
228.14801 332.0
228.41571 212.0
228.603165 172.0
228.624222 216.0
228.7789 124.0
228.837936 160.0
228.937653 312.0
229.01561 188.0
229.036697 176.0
229.073578 312.0
229.115707 136.0
229.268692 180.0
229.474792 148.0
229.542175 124.0
229.586929 260.0
229.805267 180.0
229.941223 200.0
230.022705 168.0
230.047791 348.0
230.084015 496.0
230.14563 168.0
230.234055 216.0
230.480896 180.0
230.581482 156.0
230.717239 136.0
230.889862 164.0
230.970779 132.0
231.023392 164.0
231.055832 1312.0
231.089264 660.0
231.204483 144.0
231.328583 152.0
231.37738 204.0
231.401382 216.0
231.519333 204.0
231.661682 164.0
231.692291 140.0
231.760239 128.0
231.857727 160.0
231.891632 144.0
232.016327 148.0
232.06041 340.0
232.093689 460.0
232.13089 168.0
232.17247 100.0
232.357178 232.0
232.422668 220.0
232.462112 264.0
232.531769 160.0
232.56987 144.0
232.637512 232.0
232.708374 184.0
232.909882 164.0
232.977402 200.0
233.007996 128.0
233.032593 196.0
233.109039 160976.0
233.145325 236.0
233.184036 212.0
233.195877 212.0
233.308762 128.0
233.375488 96.0
233.447586 208.0
233.552444 240.0
233.606812 144.0
233.741516 108.0
233.771072 212.0
233.960541 180.0
234.021729 176.0
234.04512 148.0
234.111542 18596.0
234.165054 124.0
234.276062 152.0
234.537323 116.0
234.608185 136.0
234.781021 188.0
234.851471 128.0
234.928238 184.0
235.048065 176.0
235.112427 1292.0
235.234802 156.0
235.293549 144.0
235.32814 332.0
235.352203 96.0
235.394196 196.0
235.513474 168.0
235.562958 180.0
235.59523 132.0
235.62027 152.0
235.682739 160.0
235.708176 184.0
235.739426 108.0
235.828735 116.0
235.863892 156.0
235.943436 124.0
236.036102 144.0
236.077591 156.0
236.560196 184.0
236.605118 184.0
236.780106 120.0
236.86731 188.0
236.965729 184.0
237.027786 188.0
237.05452 204.0
237.092422 312.0
237.139236 264.0
237.194962 116.0
237.241547 196.0
237.545135 164.0
237.610626 204.0
237.701614 168.0
237.729233 140.0
237.87149 124.0
238.066345 404.0
238.119522 120.0
238.225037 140.0
238.318604 136.0
238.397324 164.0
238.507904 168.0
238.632294 208.0
238.674606 152.0
238.764511 232.0
238.826019 168.0
238.880722 188.0
238.936768 176.0
239.001694 232.0
239.081802 400.0
239.122025 220.0
239.313339 124.0
239.432343 180.0
239.460052 196.0
239.568283 148.0
240.075974 1080.0
240.111237 3096.0
240.148804 1844.0
240.379684 164.0
240.510101 220.0
240.544006 160.0
240.573502 212.0
240.611023 124.0
240.645248 128.0
240.72226 196.0
240.749908 192.0
240.848007 160.0
241.076294 284.0
241.120438 2148.0
241.317734 108.0
241.584412 156.0
241.735687 224.0
241.856003 152.0
241.885773 232.0
241.939575 192.0
242.069626 204.0
242.128647 3620.0
242.24472 112.0
242.312271 140.0
242.345291 200.0
242.391769 156.0
242.432053 152.0
242.463043 168.0
242.512344 120.0
242.613983 132.0
242.798264 156.0
242.999496 160.0
243.052979 164.0
243.12973 768.0
243.651459 144.0
243.822357 196.0
243.948044 120.0
244.002655 140.0
244.062897 256.0
244.074432 268.0
244.118027 276.0
244.141479 444.0
244.334869 204.0
244.481659 212.0
244.525238 200.0
244.575027 156.0
244.784607 188.0
244.854309 172.0
244.959747 152.0
244.988129 188.0
245.044754 196.0
245.070099 988.0
245.108139 5004.0
245.181427 120.0
245.328857 216.0
245.470871 112.0
245.495224 224.0
245.653168 236.0
246.059891 180.0
246.111649 712.0
246.198654 156.0
246.523865 184.0
246.553162 184.0
247.002625 156.0
247.037033 168.0
247.087448 400.0
247.122375 1852.0
247.201294 168.0
247.363571 148.0
247.497101 240.0
247.595947 120.0
247.678741 172.0
247.919983 148.0
248.067291 200.0
248.126526 116.0
248.480103 112.0
248.738571 252.0
248.771484 108.0
249.014877 144.0
249.052872 168.0
249.200226 212.0
249.776932 196.0
249.981522 152.0
250.033508 164.0
250.070541 172.0
250.143677 164.0
250.197189 180.0
250.49321 172.0
250.540466 160.0
250.663345 200.0
250.825897 172.0
250.872345 192.0
251.011902 256.0
251.086807 216.0
251.274307 140.0
251.392715 184.0
251.527481 200.0
251.795853 212.0
251.942566 144.0
252.042252 232.0
252.07695 184.0
252.115952 240.0
252.148056 340.0
252.454529 152.0
252.516449 152.0
252.970062 100.0
253.010071 156.0
253.088226 216.0
253.118439 252.0
253.219055 188.0
253.304581 120.0
253.765762 152.0
254.030487 184.0
254.087708 180.0
254.124115 344.0
254.22403 372.0
254.341461 152.0
254.489624 196.0
254.770142 192.0
254.836258 104.0
254.933289 220.0
255.043762 184.0
255.101974 228.0
255.136917 440.0
255.389999 196.0
255.569794 232.0
255.641327 228.0
256.055176 140.0
256.136139 164.0
256.211273 216.0
256.233582 160.0
256.310028 188.0
256.616028 232.0
256.650208 116.0
256.683807 236.0
256.899139 152.0
256.985992 160.0
257.116241 176.0
257.214294 208.0
257.356232 192.0
257.436066 140.0
257.662842 176.0
257.707581 176.0
258.031311 180.0
258.061615 316.0
258.094452 332.0
258.151886 208.0
258.206238 176.0
258.299011 152.0
258.431305 100.0
258.609375 172.0
258.689392 168.0
258.779022 184.0
258.827057 392.0
258.983978 180.0
259.05426 128.0
259.087708 912.0
259.121277 252.0
259.188019 208.0
259.286957 164.0
259.315125 160.0
259.368286 136.0
259.39151 200.0
259.421906 156.0
259.528778 164.0
259.557648 184.0
259.624969 148.0
259.689117 176.0
259.754883 176.0
259.785339 276.0
259.852722 204.0
260.082031 200.0
260.118195 992.0
260.161102 320.0
260.260345 148.0
260.576569 156.0
260.661835 212.0
260.751831 156.0
260.861115 184.0
260.965485 196.0
260.996796 252.0
261.073303 144.0
261.126587 1928.0
261.20517 196.0
261.414215 128.0
261.46048 196.0
261.539825 220.0
261.646057 152.0
261.719208 132.0
261.845703 240.0
261.874664 148.0
261.939087 144.0
262.026062 200.0
262.130066 720.0
262.203827 148.0
262.396698 148.0
262.483765 192.0
262.577271 140.0
262.676483 216.0
262.775604 140.0
262.847626 120.0
263.002686 156.0
263.08197 216.0
263.135132 160.0
263.30249 116.0
263.594177 184.0
263.907715 188.0
264.087921 208.0
264.152252 296.0
264.266724 216.0
264.310608 128.0
264.402618 176.0
264.538574 148.0
264.590363 160.0
264.633118 100.0
264.771698 172.0
264.902344 192.0
264.972534 172.0
265.097473 136.0
265.147797 164.0
265.293976 124.0
265.376312 144.0
265.533295 196.0
265.688995 160.0
265.81665 368.0
265.865479 196.0
266.081177 164.0
266.099274 484.0
266.137329 304.0
266.251373 172.0
266.325226 240.0
266.470062 208.0
266.505859 196.0
266.617157 188.0
266.715149 264.0
266.919952 116.0
267.030457 140.0
267.099915 2464.0
267.147736 120.0
267.186676 208.0
267.472778 196.0
267.593475 192.0
267.972504 204.0
268.00061 404.0
268.063538 356.0
268.105804 2684.0
268.144043 2240.0
268.298187 104.0
268.359314 172.0
268.526459 168.0
268.802734 264.0
268.864746 196.0
268.913696 164.0
268.944031 132.0
268.998566 204.0
269.021423 172.0
269.10968 368.0
269.146515 320.0
269.204254 176.0
269.295685 144.0
269.581207 152.0
269.676788 168.0
269.709686 268.0
269.770966 212.0
269.928101 124.0
269.988556 156.0
270.021515 108.0
270.079132 144.0
270.15744 3148.0
270.382996 156.0
270.410583 176.0
270.505524 144.0
270.52951 168.0
270.811676 168.0
271.085388 164.0
271.127441 152.0
271.162415 1156.0
271.302887 136.0
271.457123 216.0
271.503876 220.0
271.594696 180.0
271.750854 156.0
271.887573 132.0
271.957581 164.0
272.082825 252.0
272.112152 200.0
272.147827 376.0
272.174438 176.0
272.372559 232.0
272.446869 204.0
272.532288 180.0
272.802094 164.0
272.836456 116.0
273.089539 1148.0
273.128143 3312.0
273.209564 192.0
273.275269 140.0
273.506042 116.0
273.563934 156.0
273.630798 160.0
273.683472 164.0
273.769104 144.0
273.797882 188.0
273.881073 172.0
274.028473 252.0
274.084961 148.0
274.131042 776.0
274.180725 156.0
274.393372 140.0
274.490997 120.0
274.573395 164.0
274.629272 156.0
274.684296 324.0
274.718323 188.0
274.814148 108.0
274.877197 208.0
275.138153 268.0
275.362 172.0
275.771667 208.0
275.801422 236.0
275.851013 360.0
275.969543 196.0
276.175049 140.0
276.364624 156.0
276.456268 140.0
276.493835 168.0
276.605194 172.0
276.840271 148.0
277.074432 160.0
277.098297 332.0
277.141693 216.0
277.274445 204.0
277.376984 144.0
277.447083 308.0
277.589172 224.0
277.652191 188.0
277.771606 160.0
277.827881 228.0
278.003845 140.0
278.100739 200.0
278.282654 176.0
278.36853 144.0
278.383942 184.0
278.448486 132.0
278.495605 228.0
278.594849 160.0
278.917175 112.0
279.126373 152.0
279.362762 160.0
279.605652 140.0
279.652252 196.0
279.820374 252.0
279.901917 152.0
280.049805 180.0
280.378296 152.0
280.736603 124.0
280.951599 140.0
281.025208 140.0
281.119019 288.0
281.168701 156.0
281.409027 188.0
281.452423 144.0
281.502533 144.0
281.712921 140.0
281.756378 164.0
281.783081 192.0
281.922516 332.0
282.192871 172.0
282.399384 144.0
282.809204 160.0
283.28183 256.0
283.459412 156.0
283.547943 212.0
283.799347 116.0
283.85495 152.0
283.891846 148.0
283.915314 152.0
284.034119 204.0
284.114502 248.0
284.170258 156.0
284.201508 120.0
284.237335 328.0
284.29776 288.0
284.331299 232.0
284.813568 132.0
285.03653 192.0
285.070129 240.0
285.315491 144.0
285.638306 172.0
285.675323 156.0
285.763397 348.0
285.843536 204.0
286.024994 288.0
286.111786 568.0
286.237366 156.0
286.451813 184.0
286.56073 200.0
286.601166 148.0
286.65332 136.0
286.759552 204.0
286.984344 296.0
287.009003 140.0
287.107788 696.0
287.136353 432.0
287.261932 220.0
287.681061 184.0
287.872833 164.0
287.913361 168.0
287.997803 144.0
288.031586 252.0
288.113159 2792.0
288.149536 6704.0
288.286438 184.0
288.382965 196.0
288.452148 156.0
288.615143 112.0
288.655151 252.0
288.717682 352.0
288.742584 176.0
288.846191 152.0
288.880524 212.0
288.932343 216.0
288.990021 116.0
289.112183 1088.0
289.154083 1616.0
289.265442 124.0
289.293671 188.0
289.361206 132.0
289.394806 180.0
289.51651 160.0
289.550201 172.0
289.580078 136.0
289.615845 284.0
289.651825 252.0
289.719574 196.0
289.752106 152.0
289.79007 128.0
289.799469 396.0
289.905029 160.0
289.929474 392.0
289.994293 288.0
290.037994 292.0
290.075226 188.0
290.104797 344.0
290.167145 168260.0
290.286987 156.0
290.467194 112.0
290.546753 100.0
290.603119 156.0
290.637756 184.0
290.671448 192.0
290.694275 224.0
290.72525 900.0
290.792358 188.0
290.955597 140.0
291.019196 268.0
291.048187 244.0
291.100189 512.0
291.126862 356.0
291.169495 27696.0
291.259735 152.0
291.302032 108.0
291.351166 228.0
291.407379 196.0
291.50354 156.0
291.556396 96.0
291.667358 268.0
291.816498 292.0
291.916565 284.0
292.021332 152.0
292.072418 176.0
292.172119 3324.0
292.408386 176.0
292.534302 148.0
292.583313 144.0
292.670959 144.0
292.790924 128.0
292.896851 200.0
292.931549 176.0
293.079926 236.0
293.121765 272.0
293.173828 716.0
293.27829 148.0
293.361847 116.0
293.414825 132.0
293.807281 284.0
293.965729 156.0
294.054108 124.0
294.1474 108.0
294.184082 160.0
294.257416 144.0
294.296387 200.0
294.332275 180.0
294.794891 136.0
294.866119 120.0
294.928406 216.0
295.12204 212.0
295.25415 148.0
295.435425 224.0
295.560516 128.0
295.832397 156.0
295.952209 156.0
296.136841 1748.0
296.330811 120.0
296.757385 296.0
296.801971 148.0
297.140076 232.0
297.522461 212.0
297.56366 220.0
297.703857 208.0
297.759399 152.0
297.999847 164.0
298.082764 248.0
298.177826 172.0
298.233826 136.0
298.338379 216.0
298.797485 180.0
299.16571 228.0
299.235229 164.0
299.262115 152.0
299.381653 140.0
299.637512 172.0
299.858063 152.0
299.923553 156.0
300.463776 132.0
300.70993 160.0
301.041473 120.0
301.120789 144.0
301.222229 164.0
301.269318 184.0
301.336273 128.0
301.493896 220.0
301.678833 112.0
301.843048 148.0
301.919128 188.0
302.086609 168.0
302.168182 156.0
302.430817 252.0
302.657135 232.0
302.763519 156.0
302.803375 164.0
303.096069 168.0
303.331757 176.0
303.510284 128.0
303.605652 156.0
303.657684 308.0
303.78949 148.0
303.841278 240.0
303.992096 180.0
304.080963 140.0
304.220703 108.0
304.604187 208.0
304.64566 132.0
304.72229 172.0
305.01178 180.0
305.28299 160.0
305.490051 188.0
305.693451 140.0
306.123993 148.0
306.313202 204.0
306.518738 148.0
306.720978 164.0
306.769684 172.0
306.82196 196.0
307.118378 280.0
307.366058 144.0
307.491699 272.0
307.584198 224.0
307.633057 136.0
307.900177 196.0
307.932098 144.0
307.961578 160.0
308.039886 148.0
308.259552 188.0
308.312408 168.0
308.380188 132.0
308.5466 216.0
308.578064 240.0
308.606018 148.0
308.644684 152.0
308.840332 188.0
308.896301 160.0
309.14798 124.0
309.361603 140.0
309.471039 124.0
309.512268 168.0
309.619354 112.0
309.721405 128.0
310.119232 200.0
310.146362 216.0
310.186279 244.0
310.337585 148.0
310.432617 148.0
310.535553 144.0
310.637268 156.0
310.823212 276.0
310.991669 172.0
311.261963 152.0
311.293579 240.0
311.685638 184.0
311.897858 164.0
311.933014 224.0
311.961121 148.0
312.15802 204.0
312.580139 148.0
312.784271 188.0
312.923798 176.0
313.585205 116.0
313.653015 176.0
313.767456 244.0
314.150146 684.0
314.536987 168.0
314.624908 132.0
314.851257 236.0
314.895813 124.0
315.096741 176.0
315.147522 292.0
315.509796 160.0
315.540009 304.0
315.595428 108.0
315.735565 112.0
315.816193 148.0
315.939545 156.0
315.977661 132.0
316.021942 144.0
316.067993 336.0
316.14621 86732.0
316.247955 404.0
316.402618 96.0
316.486328 236.0
316.611145 268.0
316.66452 116.0
316.729492 152.0
316.808777 248.0
316.843414 184.0
316.979248 156.0
317.148193 13884.0
317.247131 208.0
317.310089 300.0
317.434021 220.0
317.537598 160.0
317.610443 144.0
317.752563 120.0
317.906525 100.0
318.150482 1572.0
318.392731 160.0
318.512604 208.0
318.600189 108.0
318.631287 156.0
318.848633 104.0
318.919922 156.0
318.980621 192.0
319.059937 108.0
319.123444 220.0
319.162323 208.0
319.23053 144.0
319.302826 168.0
319.379059 292.0
319.436646 96.0
319.494598 136.0
319.655457 148.0
319.702393 128.0
319.812897 184.0
319.853119 180.0
320.091675 168.0
320.186188 96.0
320.249084 120.0
320.351654 160.0
320.449371 160.0
320.504517 172.0
320.707977 152.0
320.750763 192.0
321.126221 184.0
321.218567 188.0
321.366302 132.0
321.461426 152.0
321.649628 160.0
321.899567 236.0
321.924561 144.0
322.290253 128.0
322.453278 140.0
322.591644 152.0
322.69278 180.0
322.917389 140.0
322.986023 140.0
323.126221 164.0
323.168457 236.0
323.193512 284.0
323.424408 176.0
323.654236 144.0
323.708954 172.0
323.837891 180.0
323.956757 152.0
324.044647 144.0
324.069183 240.0
324.357422 140.0
324.396851 172.0
324.661469 336.0
324.698059 168.0
324.848694 172.0
324.931213 240.0
325.046021 140.0
325.122772 152.0
325.164429 180.0
325.703003 204.0
325.753296 216.0
325.914978 180.0
326.37146 180.0
326.484497 228.0
326.831848 256.0
327.18457 164.0
327.245758 204.0
327.504089 136.0
327.711212 136.0
327.853577 140.0
328.009491 168.0
328.034729 216.0
328.283508 160.0
328.406128 140.0
328.541046 108.0
328.652466 140.0
328.797058 136.0
328.881439 164.0
329.185669 148.0
329.305481 112.0
329.486145 376.0
329.716705 196.0
329.979523 180.0
330.099884 204.0
330.214539 148.0
330.351318 148.0
330.475464 120.0
330.508636 184.0
330.54483 188.0
330.622314 172.0
330.648407 180.0
330.746277 96.0
330.946594 140.0
331.019012 164.0
331.08316 224.0
331.140198 156.0
331.195435 152.0
331.31601 220.0
331.345856 168.0
331.429504 224.0
331.555145 224.0
331.645599 164.0
331.727325 108.0
331.845154 164.0
331.9104 200.0
332.029999 200.0
332.083069 208.0
332.1521 168.0
332.195557 104.0
332.226227 108.0
332.268951 108.0
332.311584 132.0
332.389008 148.0
332.542175 224.0
332.573669 164.0
332.62323 196.0
332.69754 140.0
332.757751 296.0
332.831085 248.0
332.876831 276.0
332.907593 156.0
332.983856 124.0
333.022827 136.0
333.102722 332.0
333.129608 228.0
333.166565 212.0
333.209656 264.0
333.216858 220.0
333.244843 228.0
333.292084 108.0
333.327789 172.0
333.372681 148.0
333.416595 264.0
333.433563 292.0
333.448395 428.0
333.470459 416.0
333.507385 120.0
333.565399 408.0
333.60199 216.0
333.678833 148.0
333.757385 308.0
333.817291 744.0
333.888306 440.0
333.903412 388.0
333.913727 728.0
333.952576 452.0
334.0047 560.0
334.109131 1072.0
334.157837 248672.0
334.29248 260.0
334.391144 156.0
334.492706 516.0
334.525085 384.0
334.548676 476.0
334.598816 316.0
334.711792 416.0
334.759033 10576.0
334.800354 700.0
334.851471 132.0
334.893433 304.0
334.977631 356.0
334.983765 192.0
335.037903 352.0
335.064362 312.0
335.070343 464.0
335.160217 93740.0
335.302277 172.0
335.349182 212.0
335.372742 220.0
335.412964 240.0
335.459717 160.0
335.573486 136.0
335.683197 220.0
335.71286 180.0
335.750092 224.0
335.854858 136.0
335.886749 188.0
335.924072 264.0
336.023438 208.0
336.162018 10156.0
336.235138 116.0
336.317841 152.0
336.483459 100.0
336.552765 232.0
336.616394 124.0
336.785217 228.0
336.873871 152.0
336.954529 200.0
336.989105 172.0
337.090607 248.0
337.165771 1520.0
337.218414 284.0
337.232147 160.0
337.245209 412.0
337.279266 216.0
337.351654 488.0
337.411621 112.0
337.422791 204.0
337.461639 300.0
337.491547 288.0
337.540222 204.0
337.581573 248.0
337.594818 284.0
337.634338 112.0
337.664124 228.0
337.697418 104.0
337.727631 160.0
337.878998 104.0
337.934998 168.0
337.963318 228.0
338.014435 216.0
338.140533 148.0
338.256134 136.0
338.335541 176.0
338.440613 116.0
338.598999 112.0
338.641907 116.0
338.939331 96.0
339.028412 100.0
339.165466 176.0
339.42392 112.0
340.774933 124.0
343.324615 100.0
346.057983 204.0
347.61261 100.0
349.211395 536.0
350.212555 108.0
352.152679 124.0
354.110413 104.0
356.571533 108.0
367.598206 180.0
371.628296 140.0
373.303802 108.0
375.181213 292.0
382.389709 160.0
427.91333 160.0
432.173584 116.0
440.400421 100.0
483.608337 176.0
500.107391 148.0
501.283112 152.0
507.501251 104.0
518.25061 140.0
524.631531 176.0
591.921448 108.0
610.626465 112.0
683.783325 100.0
694.344421 164.0
750.012634 140.0
885.371399 140.0
974.852295 160.0
995.027405 140.0
1087.617554 216.0
1189.873535 160.0
1332.464111 160.0
1399.173218 188.0
1436.184204 156.0
1461.114014 188.0
1544.808105 248.0
1571.866577 176.0
1577.466064 216.0
1591.448975 176.0
1623.976074 184.0
1645.332397 164.0
1668.526733 228.0
1668.860107 148.0
1671.14563 176.0
1676.153076 144.0
1688.357056 160.0
1691.71167 144.0
1714.833984 152.0
1717.224854 176.0
1732.119141 152.0
1751.964478 156.0
1757.625488 204.0
1763.897461 192.0
1764.098022 148.0
1769.820435 156.0
1771.1604 144.0
1771.52063 140.0
1774.881348 152.0
1775.887695 156.0
1779.168579 140.0
1782.36853 144.0
1786.791016 232.0
1805.702637 140.0
1816.663086 192.0
1819.590942 212.0
1836.260498 164.0
1856.940674 184.0
1857.858521 180.0
1867.367188 200.0
1872.772217 156.0
1885.325195 148.0
1886.319092 220.0
1888.498047 144.0
1890.712891 176.0
1891.613037 168.0
1905.783691 152.0
1906.515381 120.0
1907.148071 144.0
1909.660767 188.0
1909.89563 144.0
1913.036865 172.0
1922.048584 140.0
1923.42749 164.0
1938.803101 148.0
1939.478027 160.0
1939.600708 180.0
1941.81897 200.0
1943.064575 156.0
1943.748901 160.0
1947.760986 152.0
1950.446167 192.0
1955.88562 200.0
1956.801147 140.0
1957.558472 184.0
1959.584229 168.0
1968.466309 172.0
1975.669678 140.0
1977.067627 152.0
1981.654419 176.0
1983.329224 172.0
1985.527344 164.0
1986.769775 144.0
1986.938354 152.0
1994.91748 156.0
1995.188721 192.0
1998.132324 144.0
1999.796387 152.0
2001.202881 184.0
2002.885986 164.0
