>compound MLS001141244-01!2-[[2-(3-benzyl-4-methyl-2-oxochromen-7-yl)oxyacetyl]amino]-3-(4-chlorophenyl)propanoic acid
>formula C28H24ClNO6
>ionization [M+H]+
>parentmass 506.134949
#inchi InChI=1S/C28H24ClNO6/c1-17-22-12-11-21(15-25(22)36-28(34)23(17)13-18-5-3-2-4-6-18)35-16-26(31)30-24(27(32)33)14-19-7-9-20(29)10-8-19/h2-12,15,24H,13-14,16H2,1H3,(H,30,31)(H,32,33)
#inchikey AZJZQQIQLHEHGL
#Ion_Source LC-ESI
#Instrument qTof
#Compound_Source NIH Natural Product Library
#PI Dorrestein
#Data_Collector VVP/LMS
#Scan -1
#Precursor_MZ 506.137
#ExactMass 505.129
#Charge 1
#CAS_Number N/A
#Pubmed_ID N/A
#Smiles Cc1c(Cc2ccccc2)c(=O)oc3cc(OCC(=O)NC(Cc4ccc(Cl)cc4)C(=O)O)ccc13
#INCHI_AUX N/A
#Library_Class 1
#SpectrumID CCMSLIB00000080095
#IonMode Positive
#UpdateWorkflowName UPDATE-SINGLE-ANNOTATED-GOLD
#LibraryQualityString Gold
#TaskID b1d8e8f6646f4e71acdff9ca3d919d08
##Scan# 2439
#SpectrumFile p2-A04_GA4_01_17981.mzXML
#LibraryName NIH_Natural_Products_Library.mgf
#MQScore -1
#Organism NIH_Natural_Products_Library
#TIC_Query 0
#RT_Query -1
#MZErrorPPM -1
#SharedPeaks 0
#MassDiff 0
#LibMZ -1
#SpecMZ 506.137
#SpecCharge 0
#internalFilename spec-00000.mgf

>collision 10
94.977188 156.0
95.381081 196.0
95.423851 104.0
95.478294 236.0
95.670929 128.0
95.809204 200.0
96.00412 180.0
96.072388 80.0
96.138725 120.0
96.324097 136.0
96.367195 168.0
96.541168 180.0
96.603752 172.0
96.617447 128.0
96.642883 168.0
96.752487 236.0
96.770111 136.0
96.893494 164.0
96.964043 164.0
97.044411 148.0
97.167976 96.0
97.334816 60.0
97.456596 176.0
97.594185 188.0
97.627617 188.0
97.688591 380.0
97.775169 132.0
97.948433 200.0
97.984566 164.0
98.007538 180.0
98.035126 192.0
98.074921 104.0
98.115944 216.0
98.131714 464.0
98.232292 84.0
98.315163 120.0
98.338844 244.0
98.801247 180.0
98.850708 232.0
98.93354 132.0
98.95166 128.0
99.002335 168.0
99.044731 136.0
99.241768 152.0
99.363899 152.0
99.39962 164.0
99.425415 120.0
99.530624 152.0
99.570343 320.0
99.612061 124.0
99.763084 120.0
99.827217 164.0
99.90696 180.0
100.005768 168.0
100.043587 68.0
100.131203 28.0
100.155106 192.0
100.214867 140.0
100.260704 72.0
100.587807 68.0
100.685646 136.0
100.73558 176.0
100.751564 168.0
100.783531 120.0
100.859474 84.0
101.121498 152.0
101.149521 132.0
101.2276 104.0
101.275665 180.0
101.329758 64.0
101.52018 56.0
101.6586 180.0
101.813179 172.0
101.978798 120.0
102.046532 236.0
102.106094 364.0
102.17701 172.0
102.209206 152.0
102.329971 296.0
102.447914 128.0
102.466927 60.0
102.624138 244.0
102.831917 132.0
102.920746 88.0
102.964554 176.0
103.001526 172.0
103.053802 2420.0
103.276428 172.0
103.456528 212.0
103.607758 160.0
103.754333 192.0
103.83139 164.0
103.916916 172.0
104.057587 312.0
104.239441 152.0
104.255699 160.0
104.326843 124.0
104.395973 168.0
104.45089 96.0
104.59536 100.0
104.660507 160.0
105.033844 676.0
105.06823 1712.0
105.088547 148.0
105.174255 116.0
105.41066 144.0
105.488838 148.0
105.507233 176.0
105.550171 156.0
105.586983 44.0
105.601295 80.0
105.869408 156.0
105.888954 176.0
105.907425 220.0
106.037399 360.0
106.075203 272.0
106.277939 232.0
106.375847 140.0
106.466187 116.0
106.486725 92.0
106.501106 96.0
106.62027 48.0
106.667542 148.0
106.702492 144.0
106.772408 172.0
106.836174 132.0
106.883492 124.0
107.0317 108.0
107.047798 276.0
107.161469 104.0
107.175888 164.0
107.260384 76.0
107.356583 140.0
107.417107 256.0
107.468681 124.0
107.578064 160.0
107.625549 136.0
107.668915 72.0
107.737083 184.0
107.794937 176.0
107.81353 248.0
107.900352 136.0
107.947906 176.0
108.103058 96.0
108.136169 168.0
108.2314 192.0
108.27903 216.0
108.293526 156.0
108.3909 160.0
108.461365 144.0
108.562958 168.0
108.637627 144.0
108.697792 68.0
108.976036 208.0
109.000969 316.0
109.115288 68.0
109.136078 32.0
109.302483 164.0
109.441948 120.0
109.460686 136.0
109.489845 108.0
109.68129 172.0
109.938065 116.0
109.994423 124.0
110.013206 192.0
110.036171 168.0
110.088379 208.0
110.171921 144.0
110.186546 168.0
110.255508 232.0
110.288948 168.0
110.514809 192.0
110.546196 160.0
110.694824 208.0
110.734612 120.0
110.885468 188.0
110.902229 236.0
110.952545 104.0
111.046906 208.0
111.15062 156.0
111.225258 132.0
111.269341 180.0
111.323936 176.0
111.372238 152.0
111.391144 128.0
111.428963 160.0
111.693848 200.0
111.73381 168.0
111.77169 144.0
111.83194 216.0
111.893768 108.0
112.125481 164.0
112.319862 228.0
112.338997 212.0
112.389076 184.0
112.452385 132.0
112.498825 56.0
112.640312 184.0
112.830505 128.0
113.013123 528.0
113.136787 176.0
113.173264 172.0
113.298225 156.0
113.505936 252.0
113.614311 168.0
113.682007 164.0
113.721169 188.0
113.741432 248.0
113.796631 132.0
113.830605 180.0
113.868828 184.0
113.915558 120.0
113.932304 204.0
113.99205 184.0
114.040932 164.0
114.070686 116.0
114.15786 168.0
114.199585 220.0
114.249321 80.0
114.317406 184.0
114.394035 136.0
114.458969 176.0
114.536705 208.0
114.681595 216.0
114.794594 144.0
114.974411 288.0
115.014885 220.0
115.05278 1956.0
115.076256 172.0
115.187309 152.0
115.240715 156.0
115.328331 248.0
115.36467 100.0
115.469452 132.0
115.497253 168.0
115.51223 144.0
115.540039 172.0
115.569992 160.0
115.634193 96.0
115.764786 92.0
116.059875 400.0
116.107048 192.0
116.204208 40.0
116.253563 76.0
116.373764 116.0
116.697678 212.0
116.805733 72.0
116.986496 68.0
117.067375 1004.0
117.139397 52.0
117.206184 168.0
117.253593 108.0
117.292389 60.0
117.462738 184.0
117.609474 200.0
117.663445 196.0
117.762772 148.0
117.786537 152.0
117.803818 100.0
117.87944 140.0
117.898888 124.0
117.959404 140.0
117.983185 212.0
118.011292 124.0
118.039406 104.0
118.065277 1108.0
118.114189 180.0
118.169182 160.0
118.195152 148.0
118.270897 140.0
118.402969 144.0
118.475067 268.0
118.597969 140.0
118.641319 156.0
118.671677 40.0
118.723717 88.0
118.756248 164.0
118.773605 116.0
118.864723 100.0
118.927658 80.0
118.986275 68.0
119.007988 200.0
119.072433 2796.0
119.149162 140.0
119.192612 76.0
119.233902 172.0
119.320854 104.0
119.386086 64.0
119.41436 208.0
119.433937 240.0
119.483971 96.0
119.612366 120.0
119.627602 192.0
119.703812 176.0
119.775681 112.0
119.868301 184.0
119.886795 264.0
120.079796 300.0
120.159363 112.0
120.266289 148.0
120.353615 132.0
120.373268 136.0
120.399475 48.0
120.598297 140.0
120.626709 84.0
120.666061 172.0
120.727287 80.0
120.777596 160.0
120.845413 128.0
120.873856 56.0
120.892021 176.0
120.946075 120.0
121.059929 196.0
121.073853 156.0
121.123444 104.0
121.19136 156.0
121.314964 140.0
121.436882 112.0
121.469788 160.0
121.579491 120.0
121.649734 148.0
121.790268 256.0
121.807838 192.0
121.836395 92.0
121.860565 72.0
121.974846 184.0
122.126564 32.0
122.146362 136.0
122.262978 128.0
122.366432 196.0
122.43029 184.0
122.59552 180.0
122.628578 204.0
122.65062 132.0
122.672661 132.0
122.768456 232.0
122.823997 376.0
123.014587 184.0
123.040817 196.0
123.069786 196.0
123.127197 148.0
123.303947 152.0
123.328255 64.0
123.361412 192.0
123.425529 184.0
123.52948 180.0
123.553818 88.0
123.615768 188.0
123.646751 136.0
123.679955 204.0
124.067612 156.0
124.154091 160.0
124.26944 108.0
124.307159 152.0
124.344887 128.0
124.364861 148.0
124.382622 116.0
124.493637 140.0
124.584702 148.0
124.678024 132.0
124.789169 148.0
124.832275 228.0
124.891464 124.0
124.955978 184.0
125.015625 5944.0
125.082832 168.0
125.098412 104.0
125.137375 184.0
125.198608 160.0
125.216423 252.0
125.276566 128.0
125.392433 60.0
125.454849 116.0
125.481606 144.0
125.497208 64.0
125.519508 160.0
125.604256 112.0
125.637718 180.0
126.018555 896.0
126.448853 176.0
126.469002 160.0
126.502579 204.0
126.576462 136.0
126.605576 84.0
126.706367 132.0
126.811691 64.0
126.854279 80.0
127.011154 2432.0
127.052048 264.0
127.125671 172.0
127.201981 132.0
127.251373 132.0
127.437798 172.0
127.523186 88.0
127.887566 108.0
127.965981 168.0
127.986618 148.0
128.014999 212.0
128.061356 676.0
128.162308 220.0
128.202866 68.0
128.250198 36.0
128.335861 72.0
128.360672 176.0
128.419312 88.0
128.565964 172.0
128.766891 148.0
128.805283 160.0
128.843689 100.0
128.936264 132.0
128.984055 180.0
129.013062 204.0
129.069092 1200.0
129.105438 256.0
129.246155 108.0
129.307251 132.0
129.334412 200.0
129.361572 128.0
129.402328 152.0
129.490204 104.0
129.524612 148.0
129.581253 96.0
129.644699 176.0
129.674164 92.0
129.782974 152.0
129.816956 260.0
129.950821 44.0
129.987122 172.0
130.065598 8644.0
130.097473 168.0
130.134659 48.0
130.157379 96.0
130.199142 252.0
130.277161 124.0
130.336823 232.0
130.382263 76.0
130.476532 76.0
130.516388 88.0
130.541397 76.0
130.642319 108.0
130.716568 92.0
130.757523 120.0
130.839478 236.0
130.969284 164.0
130.99205 144.0
131.023956 180.0
131.072647 14660.0
131.162964 56.0
131.188034 40.0
131.240479 68.0
131.258713 236.0
131.292923 48.0
131.422302 128.0
131.454895 60.0
131.52565 116.0
131.598694 120.0
131.644363 56.0
131.703751 160.0
131.806549 184.0
131.865387 160.0
131.890839 144.0
131.939117 156.0
131.970627 228.0
132.076675 1120.0
132.106674 164.0
132.16098 136.0
132.26239 76.0
132.278778 136.0
132.298294 40.0
132.541077 172.0
132.586914 84.0
132.630814 180.0
132.699234 180.0
132.722168 48.0
132.779495 132.0
133.025009 220.0
133.06398 1588.0
133.092773 140.0
133.123734 64.0
133.252365 56.0
133.300613 152.0
133.335083 112.0
133.562714 160.0
133.714569 92.0
133.737595 228.0
133.765213 168.0
133.907974 148.0
133.933304 68.0
133.970169 184.0
134.0354 164.0
134.069153 212.0
134.122253 92.0
134.221985 156.0
134.31134 144.0
134.389771 220.0
134.40593 136.0
134.493622 84.0
134.60675 112.0
134.828522 60.0
134.862305 124.0
134.925598 88.0
135.043289 628.0
135.068878 176.0
135.103683 64.0
135.307343 192.0
135.46019 200.0
135.506531 144.0
135.552872 204.0
135.664124 208.0
135.717438 136.0
135.84964 48.0
135.986542 180.0
136.005112 64.0
136.251266 124.0
136.360489 188.0
136.399994 252.0
136.537796 136.0
136.616257 176.0
136.658142 156.0
136.781479 116.0
136.848999 192.0
136.946808 240.0
137.015335 1576.0
137.058624 176.0
137.329056 208.0
137.462036 104.0
137.518051 240.0
137.55307 164.0
137.592743 188.0
137.773163 128.0
138.019257 452.0
138.042999 196.0
138.359589 136.0
138.378311 208.0
138.408752 196.0
138.442749 108.0
138.539917 112.0
138.832901 132.0
138.912659 176.0
138.968964 144.0
139.030624 7960.0
139.122681 40.0
139.137299 72.0
139.182556 40.0
139.245956 148.0
139.368118 124.0
139.391617 120.0
139.408066 36.0
139.504425 160.0
139.549103 200.0
139.624344 152.0
139.770203 264.0
139.808395 176.0
139.916138 128.0
139.951447 216.0
139.986771 80.0
140.034332 816.0
140.080978 160.0
140.205856 68.0
140.293076 48.0
140.35437 116.0
140.403549 168.0
140.512405 76.0
140.552505 428.0
140.628036 48.0
140.651642 60.0
140.717743 36.0
140.80275 116.0
140.852341 84.0
140.946854 60.0
141.027802 3132.0
141.068359 340.0
141.117737 188.0
141.178513 80.0
141.195068 60.0
141.221603 72.0
141.40448 68.0
141.462448 72.0
141.613388 220.0
141.689789 152.0
141.715851 208.0
141.811142 172.0
141.850937 208.0
141.962372 96.0
142.012177 116.0
142.028778 108.0
142.04776 176.0
142.074783 324.0
142.147415 156.0
142.170425 240.0
142.24472 96.0
142.275574 184.0
142.320694 76.0
142.337311 48.0
142.423828 224.0
142.650925 52.0
142.798355 144.0
142.815002 180.0
142.843552 32.0
142.951553 192.0
142.981552 104.0
143.005585 412.0
143.048798 484.0
143.07074 264.0
143.087311 232.0
143.143433 60.0
143.205353 60.0
143.226791 136.0
143.388809 52.0
143.465027 160.0
143.515152 196.0
143.686874 232.0
143.740128 192.0
143.758469 144.0
143.796646 184.0
143.839615 76.0
143.856323 140.0
144.013916 156.0
144.054535 240.0
144.262436 156.0
144.367645 248.0
144.671509 52.0
144.743347 184.0
144.796036 76.0
144.834351 76.0
145.004471 120.0
145.065643 1392.0
145.141708 192.0
145.455399 92.0
145.625885 44.0
145.645096 160.0
145.802155 164.0
145.89502 160.0
145.947906 156.0
145.967148 288.0
146.06543 204.0
146.152359 108.0
146.251038 100.0
146.887177 128.0
147.041092 188.0
147.068146 140.0
147.718155 160.0
147.735092 340.0
147.967422 148.0
148.093338 152.0
148.583008 196.0
148.646103 40.0
148.743866 200.0
148.829086 184.0
148.859726 108.0
148.972519 160.0
149.013702 464.0
149.05162 172.0
149.10994 168.0
149.374985 100.0
149.435806 172.0
149.55748 212.0
149.849701 232.0
149.88382 132.0
150.015427 128.0
150.151978 180.0
150.410614 156.0
150.530243 196.0
150.755722 268.0
150.779434 124.0
150.816086 92.0
150.877197 168.0
150.972565 128.0
151.030884 2112.0
151.055725 128.0
151.190292 92.0
151.27597 84.0
151.35675 176.0
151.613983 144.0
151.74144 64.0
151.908203 156.0
152.029541 1004.0
152.060638 388.0
152.121704 152.0
152.214996 184.0
152.256744 100.0
152.318146 132.0
152.357452 108.0
152.416428 148.0
152.625366 184.0
152.649948 32.0
152.699142 72.0
152.718811 164.0
152.822128 36.0
152.955032 200.0
152.996872 240.0
153.031479 380.0
153.068283 432.0
153.097839 128.0
153.354065 132.0
153.430481 164.0
153.501984 40.0
153.543259 336.0
153.684509 204.0
153.763489 124.0
153.852341 56.0
153.968399 196.0
153.99556 108.0
154.040833 8824.0
154.129745 204.0
154.217941 92.0
154.272324 68.0
154.339081 44.0
154.452835 48.0
154.517166 144.0
154.794388 112.0
154.853821 88.0
154.874191 228.0
154.957855 104.0
154.992493 196.0
154.99736 72.0
155.046524 1264.0
155.080521 184.0
155.111511 68.0
155.198288 64.0
155.323959 196.0
155.364456 184.0
155.385361 188.0
155.500931 148.0
155.534515 68.0
155.551788 164.0
155.66478 88.0
155.893326 148.0
155.957947 160.0
156.038467 3472.0
156.084732 128.0
156.102142 64.0
156.137268 164.0
156.15686 96.0
156.206604 128.0
156.248901 132.0
156.281235 204.0
156.328522 152.0
156.385757 164.0
156.43782 136.0
156.599884 64.0
156.714478 208.0
156.806686 88.0
156.831604 188.0
156.859024 192.0
156.911377 220.0
157.039978 220.0
157.063446 196.0
157.256409 220.0
157.338013 264.0
157.582764 132.0
157.655228 172.0
157.694 176.0
157.782715 128.0
157.852722 120.0
157.922745 60.0
157.960266 152.0
157.987778 132.0
158.07164 144.0
158.208008 120.0
158.27562 124.0
158.373276 112.0
158.428391 128.0
158.49855 176.0
158.594406 144.0
158.650757 208.0
158.8069 188.0
158.997589 120.0
159.045273 164.0
159.065506 196.0
159.200928 104.0
159.258698 156.0
159.668381 216.0
159.70108 188.0
159.736298 168.0
159.940109 44.0
160.049789 428.0
160.2146 160.0
160.504456 132.0
160.706238 88.0
160.837463 88.0
161.024307 196.0
161.059265 5764.0
161.130402 32.0
161.192474 128.0
161.324997 96.0
161.350281 140.0
161.403381 152.0
161.686707 92.0
162.038681 136.0
162.064392 544.0
162.188202 212.0
162.271866 136.0
162.297211 80.0
162.340332 120.0
162.391052 128.0
162.646469 180.0
162.72348 36.0
163.035721 300.0
163.065308 312.0
163.084213 32.0
163.198608 164.0
163.23674 160.0
163.368134 220.0
163.455505 132.0
163.580231 144.0
163.671875 184.0
163.697342 180.0
163.878189 100.0
164.025375 4196.0
164.056595 156.0
164.196838 48.0
164.237656 48.0
164.341125 208.0
164.4673 160.0
164.577072 152.0
164.952621 136.0
165.011276 624.0
165.030869 340.0
165.070038 1068.0
165.196243 180.0
165.228012 152.0
165.242462 156.0
165.341415 92.0
165.402084 108.0
165.44278 48.0
165.489883 196.0
165.52449 116.0
165.559021 160.0
165.579514 120.0
165.679214 252.0
165.744171 160.0
165.774384 184.0
165.799835 208.0
165.822906 116.0
165.852768 172.0
165.871613 268.0
165.89212 72.0
165.912537 116.0
165.922058 112.0
165.929077 192.0
165.955399 264.0
166.042221 51800.0
166.126755 76.0
166.179352 76.0
166.197617 68.0
166.240784 68.0
166.277664 168.0
166.299973 48.0
166.337418 64.0
166.363647 104.0
166.390945 100.0
166.450317 104.0
166.485123 92.0
166.522507 124.0
166.559296 144.0
166.584991 40.0
166.622238 144.0
166.669769 76.0
166.695465 36.0
166.718597 160.0
166.820801 116.0
166.862549 88.0
166.90625 40.0
166.93454 60.0
166.970551 116.0
167.012024 528.0
167.044861 5320.0
167.081589 632.0
167.12262 76.0
167.222687 120.0
167.258713 52.0
167.277924 56.0
167.315353 44.0
167.335953 88.0
167.387451 40.0
167.444107 168.0
167.476959 164.0
167.511078 104.0
167.593521 112.0
167.639893 236.0
167.730103 144.0
167.879059 108.0
167.923492 80.0
167.959595 52.0
167.98024 140.0
168.039001 14092.0
168.089523 188.0
168.140091 176.0
168.1875 124.0
168.220032 108.0
168.260269 140.0
168.292801 72.0
168.329651 52.0
168.385483 212.0
168.403564 100.0
168.444061 100.0
168.504303 144.0
168.53273 172.0
168.571854 56.0
168.659363 60.0
168.736908 116.0
168.773117 172.0
168.789963 52.0
168.900589 96.0
168.951569 56.0
169.003311 64.0
169.040955 1264.0
169.083542 76.0
169.109207 144.0
169.150833 88.0
169.189667 44.0
169.237213 196.0
169.321716 60.0
169.347626 100.0
169.385483 156.0
169.438293 44.0
169.48233 92.0
169.510834 136.0
169.552307 128.0
169.672577 140.0
169.759705 172.0
170.046234 260.0
170.159302 160.0
170.208572 184.0
170.265762 44.0
170.439804 40.0
170.463196 80.0
170.538559 260.0
170.671143 52.0
170.720551 72.0
170.795975 108.0
170.88443 88.0
171.05838 196.0
171.08223 108.0
171.29837 204.0
171.506836 92.0
171.678909 120.0
171.913696 148.0
172.074844 180.0
172.101639 48.0
172.15387 104.0
172.428177 160.0
172.917267 108.0
172.985321 128.0
173.058899 1720.0
173.28125 172.0
173.39917 52.0
173.464706 188.0
174.062897 140.0
174.846298 32.0
174.98317 204.0
175.238647 176.0
175.494324 196.0
175.528595 176.0
175.599808 184.0
176.003296 160.0
176.024643 792.0
176.193741 204.0
176.259781 164.0
176.283569 196.0
176.317932 188.0
176.42894 164.0
176.762207 224.0
176.788666 100.0
177.013 204.0
177.071304 332.0
177.162003 72.0
177.193802 180.0
177.29184 160.0
177.570221 228.0
177.642761 200.0
177.824921 88.0
177.888626 220.0
177.926651 172.0
178.018982 416.0
178.078064 7776.0
178.14621 168.0
178.276413 176.0
178.325165 128.0
178.449188 56.0
178.473114 92.0
178.519791 232.0
178.552902 36.0
178.587479 56.0
178.644226 48.0
178.735291 228.0
178.794998 176.0
178.930756 76.0
179.00264 192.0
179.033325 316.0
179.08136 1596.0
179.125168 140.0
179.173111 60.0
179.225998 52.0
179.287689 184.0
179.567627 108.0
179.59964 128.0
179.628983 256.0
179.666321 68.0
179.802414 40.0
179.847778 84.0
180.014801 168.0
180.086899 340.0
180.125488 64.0
180.174866 80.0
180.320541 124.0
180.379349 108.0
180.417908 224.0
180.494308 52.0
180.68718 148.0
180.820679 160.0
181.065399 128.0
181.102173 972.0
181.281311 80.0
181.42337 168.0
181.472839 92.0
181.503799 180.0
181.747894 56.0
181.849579 180.0
181.919662 64.0
181.970673 400.0
182.0121 280.0
182.036499 380.0
182.070648 372.0
182.110321 64.0
182.263443 84.0
182.319885 160.0
182.370941 108.0
182.475784 100.0
182.682861 64.0
182.951981 140.0
182.987686 168.0
183.016678 512.0
183.033478 140.0
183.087921 144.0
183.108154 120.0
183.156647 164.0
183.178192 88.0
183.536636 104.0
183.639114 200.0
183.906235 188.0
184.050476 1624.0
184.118164 180.0
184.335648 216.0
184.573517 60.0
185.023514 304.0
185.059326 408.0
185.079529 216.0
185.120148 116.0
185.309753 76.0
185.34227 160.0
185.759781 64.0
186.049728 388.0
186.327179 136.0
186.386948 104.0
186.411407 216.0
186.919922 132.0
187.012451 160.0
187.099564 220.0
187.14856 192.0
187.344666 52.0
187.388245 40.0
187.791702 156.0
187.838074 88.0
188.007233 124.0
188.047714 444.0
188.08638 104.0
188.348526 80.0
188.4496 176.0
188.564377 108.0
188.618195 296.0
188.657318 60.0
188.679184 92.0
188.774887 204.0
188.840515 64.0
188.862396 68.0
188.889755 48.0
188.946243 312.0
188.987366 224.0
188.992172 128.0
189.055252 64336.0
189.125458 172.0
189.160965 148.0
189.189865 84.0
189.22876 156.0
189.266983 72.0
189.323349 160.0
189.344116 212.0
189.391037 60.0
189.433746 160.0
189.462952 132.0
189.496323 128.0
189.535873 104.0
189.585205 48.0
189.616104 184.0
189.664688 80.0
189.7211 172.0
189.740036 132.0
189.763382 68.0
189.795639 68.0
189.849686 76.0
189.884033 68.0
189.92244 36.0
189.953659 96.0
189.986084 136.0
190.058228 7264.0
190.108994 44.0
190.151642 52.0
190.213287 128.0
190.243484 100.0
190.334091 44.0
190.375595 72.0
190.465073 108.0
190.515717 160.0
190.567566 36.0
190.642349 92.0
190.682983 72.0
190.801178 60.0
190.869919 156.0
190.922165 32.0
191.020447 188.0
191.060516 1096.0
191.085754 752.0
191.120224 60.0
191.158752 76.0
191.190674 40.0
191.218414 100.0
191.259537 116.0
191.296371 48.0
191.331543 72.0
191.361481 96.0
191.391525 136.0
191.457687 116.0
191.494629 104.0
191.519409 64.0
191.604538 128.0
191.643387 188.0
191.679214 60.0
191.998993 216.0
192.026566 144.0
192.051392 132.0
192.092575 708.0
192.625534 56.0
192.940582 64.0
193.023529 128.0
193.067764 168.0
193.100586 6844.0
193.258636 60.0
193.340775 136.0
193.37764 56.0
193.520035 72.0
193.60466 52.0
193.644821 40.0
193.704254 100.0
193.878922 52.0
194.035675 628.0
194.076248 144.0
194.104889 1012.0
194.50853 124.0
194.54184 76.0
194.569611 164.0
194.639023 48.0
194.689011 144.0
194.714005 132.0
194.961258 116.0
195.038971 308.0
195.08139 508.0
195.118469 716.0
195.258667 168.0
195.436768 64.0
195.486862 40.0
195.561996 72.0
195.639938 108.0
195.687271 44.0
195.733032 120.0
195.893356 56.0
195.924011 64.0
196.036896 124.0
196.088409 192.0
196.121857 112.0
196.172028 120.0
196.225006 120.0
196.250092 44.0
196.612732 180.0
197.043182 408.0
197.090256 368.0
197.129379 140.0
197.308258 176.0
197.476044 48.0
197.543182 212.0
197.691467 136.0
197.912613 124.0
198.044907 184.0
198.10025 176.0
198.388901 124.0
198.439362 76.0
198.481415 132.0
198.795593 124.0
198.955582 208.0
198.990799 200.0
199.031403 132.0
199.056671 56.0
199.079132 124.0
199.852158 116.0
200.044922 144.0
200.561844 68.0
200.584396 172.0
200.666153 152.0
200.741867 136.0
200.849457 52.0
200.880478 92.0
201.053589 1040.0
201.292557 88.0
201.744614 96.0
202.044067 304.0
202.071823 416.0
202.320374 124.0
202.518936 144.0
202.726791 220.0
202.848663 224.0
203.084656 804.0
203.194641 80.0
203.566483 132.0
203.870453 108.0
204.023941 144.0
204.043839 156.0
204.095139 296.0
204.166107 152.0
204.350998 72.0
204.703964 40.0
204.743835 184.0
204.914749 152.0
205.020172 132.0
205.072693 160.0
205.101639 956.0
205.350891 48.0
205.445023 132.0
205.62764 64.0
205.77037 128.0
206.073868 492.0
206.104263 320.0
206.47905 104.0
206.994156 156.0
207.081467 236.0
207.110779 468.0
207.441116 132.0
207.50705 80.0
208.032059 192.0
208.052155 108.0
208.088623 744.0
208.129684 88.0
208.52037 88.0
208.563492 196.0
208.638229 136.0
209.069092 176.0
209.094864 292.0
209.429581 44.0
209.642776 120.0
210.100571 192.0
210.771072 144.0
211.113647 444.0
211.404373 84.0
211.46225 136.0
211.598297 48.0
211.697601 108.0
212.046844 1472.0
212.10817 200.0
212.432953 148.0
212.540298 52.0
212.77829 136.0
213.053436 288.0
213.083252 120.0
213.565811 84.0
214.041992 284.0
214.186493 120.0
214.978836 132.0
215.051804 132.0
215.081894 52.0
216.045319 112.0
216.15065 80.0
216.226746 168.0
216.493149 264.0
216.654251 196.0
217.049927 144.0
217.076324 136.0
217.108582 112.0
217.284576 136.0
217.390213 160.0
217.774811 76.0
217.986343 60.0
218.053925 228.0
218.078888 488.0
218.101547 160.0
218.67746 52.0
218.736328 180.0
219.080688 128.0
220.088455 280.0
220.189957 160.0
220.43219 172.0
220.458786 168.0
220.698227 156.0
220.970337 168.0
221.09642 10984.0
221.180023 136.0
221.257507 136.0
221.37587 52.0
221.418304 44.0
221.572495 52.0
221.864761 44.0
222.037125 184.0
222.099777 2984.0
222.190979 56.0
222.217682 144.0
222.268127 184.0
222.699829 144.0
222.850098 72.0
222.94519 96.0
222.998688 112.0
223.033188 184.0
223.07489 580.0
223.110291 1376.0
223.143234 208.0
224.019318 144.0
224.084457 180.0
224.113892 328.0
224.475327 136.0
225.099136 184.0
225.290161 88.0
225.504593 232.0
225.944885 180.0
225.977798 156.0
226.031647 68.0
226.098923 176.0
227.095184 100.0
227.476257 96.0
228.067841 368.0
228.131134 172.0
228.521393 116.0
228.744812 168.0
229.051224 1684.0
229.356308 100.0
229.380417 232.0
229.531158 124.0
229.555283 152.0
229.97464 80.0
230.054642 244.0
230.744965 148.0
231.086731 136.0
231.3349 156.0
231.455994 184.0
231.664978 80.0
231.786163 124.0
232.085587 108.0
232.174194 80.0
232.847946 220.0
233.096069 1112.0
234.066666 420.0
234.095154 228.0
235.077209 296.0
235.112671 288.0
235.412231 84.0
235.641312 176.0
235.671875 128.0
235.717697 96.0
236.081818 256.0
236.626144 116.0
236.935471 32.0
237.058029 108.0
237.091248 540.0
237.128525 32.0
238.097168 340.0
238.648071 60.0
238.792618 200.0
238.866425 152.0
239.10643 288.0
239.174149 48.0
239.568298 144.0
239.710037 212.0
240.041641 400.0
240.703323 44.0
241.841019 188.0
242.043228 188.0
243.925476 196.0
245.310715 244.0
246.082413 316.0
247.057922 552.0
247.100204 28.0
247.381866 132.0
248.062759 348.0
248.290543 76.0
248.888184 224.0
249.050079 220.0
249.090576 5464.0
249.17038 136.0
249.238571 60.0
249.326569 144.0
249.369873 72.0
249.477448 172.0
249.515167 96.0
249.62207 32.0
249.644089 76.0
249.66925 44.0
249.722717 52.0
249.955521 48.0
250.094513 2148.0
250.875198 68.0
250.947708 148.0
251.026535 132.0
251.070175 564.0
251.106232 4492.0
251.272568 44.0
251.348297 80.0
251.689194 52.0
251.793411 64.0
252.07457 324.0
252.108719 940.0
252.156738 152.0
252.634201 96.0
252.865204 68.0
253.082336 156.0
253.114349 132.0
253.644379 116.0
253.669739 108.0
253.787048 92.0
253.882172 124.0
254.018555 136.0
254.764572 72.0
255.199982 76.0
255.721695 40.0
257.350677 52.0
258.267883 140.0
258.38623 136.0
258.597443 144.0
258.725464 52.0
258.888763 164.0
259.414246 64.0
260.052582 168.0
260.781677 68.0
261.088226 372.0
261.782227 160.0
261.901398 64.0
262.096741 88.0
263.067963 108.0
263.094513 60.0
263.281799 48.0
263.604858 120.0
263.772919 72.0
264.081512 312.0
264.879578 56.0
265.085327 916.0
265.242523 152.0
265.268433 84.0
265.401367 128.0
265.751678 84.0
265.871735 204.0
265.92041 120.0
266.091888 988.0
266.323029 164.0
266.469208 72.0
266.631683 136.0
266.790955 140.0
267.038086 48.0
267.10141 1532.0
267.171448 68.0
267.249542 36.0
267.348724 100.0
267.356384 48.0
267.368256 92.0
267.695496 100.0
267.799713 152.0
268.070129 100.0
268.108521 392.0
268.875641 104.0
269.106262 228.0
269.247803 40.0
269.744446 180.0
270.087799 60.0
270.140839 204.0
271.047058 164.0
272.044098 84.0
273.039703 88.0
273.108765 92.0
273.747253 224.0
275.283966 168.0
276.831604 80.0
277.052155 252.0
277.083954 296.0
277.126831 132.0
277.49765 136.0
277.713196 128.0
277.812714 60.0
278.087463 544.0
278.396881 164.0
278.473267 64.0
278.699158 52.0
278.848694 48.0
278.931793 156.0
279.048157 332.0
279.101776 15808.0
279.165771 64.0
279.193054 56.0
279.267639 56.0
279.327515 60.0
279.367432 120.0
279.427307 96.0
279.467224 76.0
279.515259 80.0
279.62207 84.0
279.806732 100.0
279.853333 52.0
279.94101 232.0
280.013184 132.0
280.043152 132.0
280.103912 2328.0
280.174591 132.0
280.209717 76.0
280.313019 84.0
280.549652 44.0
280.586792 56.0
280.613007 84.0
280.946503 96.0
281.023254 48.0
281.08139 2632.0
281.270203 208.0
281.343628 116.0
281.377014 60.0
281.427094 68.0
281.459656 80.0
281.574036 128.0
281.607452 68.0
281.837952 68.0
281.879669 132.0
282.041809 68.0
282.084381 484.0
282.449738 100.0
282.586914 48.0
282.821167 108.0
282.908203 36.0
283.068909 220.0
283.470886 52.0
283.832916 212.0
284.352905 84.0
284.634888 40.0
286.410645 76.0
288.266235 80.0
289.395996 116.0
291.100342 160.0
291.444702 88.0
293.094971 196.0
293.188629 132.0
294.09079 92.0
294.15564 56.0
294.288788 28.0
294.599579 60.0
294.657654 60.0
296.09436 148.0
297.060944 84.0
297.115143 264.0
297.157013 172.0
298.108124 140.0
298.469086 104.0
298.678864 204.0
299.229492 176.0
299.725464 152.0
305.490143 60.0
306.11145 312.0
307.095795 1288.0
307.72757 68.0
308.104523 396.0
308.192108 64.0
309.108246 196.0
309.370758 60.0
311.650421 156.0
313.839752 124.0
314.361816 148.0
315.828003 208.0
315.852783 72.0
317.450104 160.0
318.138428 120.0
319.663208 60.0
320.129547 140.0
320.353943 36.0
321.11676 148.0
323.088531 144.0
324.125824 368.0
324.994598 168.0
325.067383 580.0
325.103088 184.0
325.378632 136.0
325.561768 104.0
326.065918 388.0
327.061646 184.0
328.071716 132.0
333.597595 116.0
336.431824 68.0
338.062012 128.0
339.14975 124.0
340.08139 80.0
340.158478 188.0
343.813385 84.0
343.90564 108.0
346.798065 128.0
347.090942 88.0
349.211456 72.0
350.78653 164.0
351.054993 80.0
354.078369 136.0
354.820282 52.0
356.253906 104.0
357.754395 56.0
358.986481 132.0
359.537262 44.0
361.494812 48.0
364.152405 76.0
365.079742 116.0
366.572021 108.0
367.20105 156.0
367.25827 132.0
369.102844 156.0
371.023315 96.0
371.086243 100.0
372.256561 148.0
373.105713 184.0
373.278748 36.0
374.098267 140.0
375.377411 32.0
377.095398 128.0
377.648285 104.0
378.356415 92.0
379.065247 128.0
380.151031 96.0
380.9664 76.0
381.11792 188.0
382.039368 60.0
382.08432 856.0
382.249451 200.0
383.000854 104.0
383.088715 348.0
384.041565 96.0
384.077393 360.0
384.252228 84.0
385.087585 296.0
385.306335 92.0
385.419647 44.0
385.959076 80.0
386.686707 100.0
386.992035 52.0
387.771606 160.0
390.122833 188.0
393.001831 120.0
395.677582 168.0
398.898895 48.0
399.702271 48.0
402.088257 160.0
402.776093 32.0
403.105713 592.0
403.631348 76.0
403.975311 128.0
404.112915 312.0
405.110779 316.0
405.733398 72.0
406.098297 160.0
406.41922 160.0
408.781982 136.0
409.941742 128.0
411.183868 216.0
413.256897 88.0
414.653961 96.0
415.103973 80.0
415.943787 124.0
418.104584 120.0
418.191559 44.0
419.364594 120.0
420.110199 132.0
422.108032 72.0
423.37149 92.0
423.720703 116.0
425.734711 164.0
426.071075 104.0
426.914154 56.0
427.827606 108.0
427.860535 132.0
428.088562 5524.0
428.160492 52.0
428.25174 64.0
428.305267 44.0
428.424744 48.0
428.581726 76.0
428.66864 100.0
428.727814 108.0
428.875427 68.0
428.94397 104.0
429.018158 88.0
429.094452 1844.0
429.195465 112.0
429.279449 76.0
429.372772 60.0
429.405762 60.0
429.614258 44.0
430.086243 2044.0
430.693542 100.0
430.784424 36.0
430.953796 60.0
431.097137 576.0
431.288544 88.0
431.759888 48.0
432.085907 108.0
432.102264 88.0
432.109406 176.0
432.248016 36.0
432.786133 76.0
433.062622 84.0
433.138153 128.0
433.509644 60.0
433.888214 108.0
433.95871 60.0
434.124573 120.0
434.576721 144.0
434.709503 52.0
435.107971 112.0
436.283661 212.0
437.202911 148.0
437.531738 48.0
439.611664 64.0
442.111755 160.0
443.103088 164.0
444.117554 124.0
448.300812 40.0
450.321655 76.0
453.516144 44.0
458.667816 168.0
459.392761 168.0
459.776764 68.0
459.93042 64.0
460.129425 2120.0
460.224976 64.0
460.266785 132.0
460.335999 44.0
460.562378 132.0
461.135468 996.0
461.592346 180.0
461.883179 64.0
462.134552 1160.0
462.799011 52.0
463.144073 304.0
463.518616 92.0
464.14444 148.0
465.16983 152.0
465.405945 56.0
466.131897 120.0
466.608978 120.0
467.783447 68.0
468.063293 56.0
468.976624 44.0
471.84729 40.0
474.046112 140.0
477.1409 92.0
477.574615 76.0
481.952667 60.0
486.981842 88.0
488.115692 132.0
491.048676 68.0
491.225098 36.0
492.814453 104.0
498.077484 64.0
501.178314 132.0
504.011688 60.0
504.328979 192.0
505.336121 128.0
505.411224 92.0
506.134949 888.0
506.355804 88.0
506.848572 132.0
507.036774 68.0
507.137299 500.0
507.920074 80.0
508.13797 220.0
509.138367 120.0
510.570007 116.0
510.844391 68.0
510.925354 44.0
511.460876 76.0
514.070374 104.0
516.134766 108.0
517.044006 76.0
519.685852 100.0
523.586121 52.0
523.936829 104.0
525.309021 76.0
527.117065 100.0
562.092224 72.0
568.238586 60.0
576.457031 76.0
578.499329 108.0
585.485535 68.0
596.522156 56.0
600.656372 80.0
606.872253 76.0
609.562134 124.0
616.016357 104.0
623.423645 100.0
626.892212 100.0
628.323242 92.0
629.146729 92.0
653.200378 84.0
654.635681 88.0
671.471008 64.0
671.661865 76.0
683.23468 84.0
685.520447 120.0
696.943542 76.0
699.925903 72.0
703.046631 52.0
712.376038 124.0
718.807617 48.0
721.478149 36.0
722.392639 92.0
723.473633 76.0
724.603638 96.0
743.498291 20.0
744.317993 52.0
748.423279 188.0
752.922119 44.0
755.945251 100.0
761.553711 72.0
764.401489 104.0
765.452881 128.0
765.69519 64.0
773.203613 164.0
779.014526 212.0
800.328918 164.0
808.446167 224.0
809.119751 64.0
814.717224 232.0
847.293152 184.0
856.558899 48.0
863.241577 160.0
863.832275 100.0
875.112 120.0
885.866516 136.0
887.09314 56.0
892.121216 140.0
894.786438 164.0
895.364075 212.0
902.070557 192.0
917.384338 68.0
924.330017 188.0
926.243103 144.0
927.455017 204.0
927.879333 144.0
932.918152 180.0
934.718445 128.0
943.281311 168.0
945.581116 160.0
952.417542 148.0
956.06958 180.0
956.77124 240.0
956.820496 48.0
959.253845 216.0
962.184143 160.0
964.414185 124.0
967.339966 200.0
979.074951 84.0
982.141357 216.0
984.719116 168.0
991.062317 132.0
991.588745 148.0
993.212646 152.0
994.210205 140.0
995.490845 148.0
996.137756 144.0
997.664795 128.0
998.444519 152.0
1003.973877 68.0
1004.661377 188.0
1007.540161 220.0
1008.759766 192.0
1009.613342 76.0
1015.941162 140.0
1016.283569 132.0
1021.054199 152.0
1024.924683 152.0
1026.269531 176.0
1027.289917 188.0
1035.695679 100.0
1035.759766 168.0
1037.477173 92.0
1038.041382 128.0
1038.67627 156.0
1039.317871 160.0
1039.555298 156.0
1041.950195 164.0
1044.167847 128.0
1044.605225 124.0
1045.769897 204.0
1048.913208 172.0
1051.402832 152.0
1055.349609 132.0
1056.707886 80.0
1065.635376 156.0
1067.065552 192.0
1077.754639 60.0
1078.826538 196.0
1083.400879 132.0
1084.311646 224.0
1094.184448 64.0
1094.665161 96.0
1099.206909 224.0
1103.811035 204.0
1105.623535 192.0
1106.993896 212.0
1107.272095 180.0
1113.366821 164.0
1115.991577 200.0
1116.11792 108.0
1116.277588 148.0
1119.844604 212.0
1120.244263 188.0
1120.450806 140.0
1126.147461 160.0
1127.777832 128.0
1130.687134 196.0
1135.64502 152.0
1136.83252 128.0
1139.034668 120.0
1139.148926 40.0
1140.035767 212.0
1149.031494 200.0
1149.490356 112.0
1155.38208 192.0
1160.332764 132.0
1165.68811 116.0
1166.741577 172.0
1168.047241 168.0
1172.063965 176.0
1173.993164 136.0
1174.047607 180.0
1175.623535 180.0
1177.145874 132.0
1177.405273 156.0
1179.188477 224.0
1180.624146 152.0
1181.171265 128.0
1181.479126 228.0
1185.107788 188.0
1186.533325 120.0
1188.43811 196.0
1190.451172 232.0
1190.918213 228.0
1190.986938 136.0
1195.255005 184.0
1196.178345 152.0
1197.162964 156.0
1198.795654 144.0
1200.663818 100.0
1201.92627 152.0
1203.879761 184.0
1204.356323 152.0
1205.164551 204.0
1207.88147 196.0
1208.317261 192.0
1209.320679 188.0
1210.289917 60.0
1210.73999 84.0
1214.87793 60.0
1215.391357 128.0
1216.029785 132.0
1216.862793 188.0
1217.515503 180.0
1217.793335 216.0
1218.599121 156.0
1219.036865 216.0
1219.453857 52.0
1219.891724 136.0
1221.004272 192.0
1222.054688 140.0
1223.571899 184.0
1227.278442 64.0
1228.205933 80.0
1228.380371 124.0
1229.399048 92.0
1229.999268 40.0
1234.079102 144.0
1236.653442 84.0
1239.524658 140.0
1242.027588 188.0
1244.659302 112.0
1245.558228 156.0
1246.028931 168.0
1250.543457 180.0
1251.268433 140.0
1252.085205 260.0
1252.550171 132.0
1254.283569 164.0
1261.964355 256.0
1263.824585 168.0
1264.298584 240.0
1265.332031 140.0
1267.8396 156.0
1268.172607 48.0
1269.186401 224.0
1270.895752 60.0
1272.151978 216.0
1272.286865 176.0
1273.735474 224.0
1276.606812 72.0
1277.36792 56.0
1280.770386 164.0
1282.139526 164.0
1284.655273 108.0
1285.304443 192.0
1286.524902 108.0
1287.774536 172.0
1287.838745 300.0
1288.024536 344.0
1289.374878 88.0
1290.397095 68.0
1291.21228 176.0
1292.943604 56.0
1293.938477 152.0
1295.03833 196.0
1295.678833 128.0
1298.194702 196.0
1300.691406 176.0
1302.666138 220.0
1303.075562 136.0
1303.161865 192.0
1304.232544 124.0
1306.74231 244.0
1306.929443 224.0
1307.332397 96.0
1307.469116 160.0
1308.217651 196.0
1308.700073 208.0
1308.872803 124.0
1309.319336 140.0
1310.349365 192.0
1310.796143 112.0
1310.961792 80.0
1311.214111 140.0
1314.141724 88.0
1315.505737 176.0
1316.639282 204.0
1317.773438 196.0
1319.630859 196.0
1320.874756 228.0
1321.033936 48.0
1323.074585 124.0
1323.255615 204.0
1325.819824 204.0
1326.754883 140.0
1326.965088 120.0
1329.65625 132.0
1331.536621 192.0
1332.720703 136.0
1332.851562 128.0
1333.098511 204.0
1334.639648 104.0
1335.025024 112.0
1338.19751 144.0
1338.729126 128.0
1340.003784 116.0
1340.725098 152.0
1342.408325 176.0
1343.072754 180.0
1344.035767 72.0
1344.342285 184.0
1344.823242 232.0
1346.488525 120.0
1347.014404 104.0
1347.650024 112.0
1347.752319 124.0
1347.913086 236.0
1348.702393 192.0
1348.841187 200.0
1349.952515 160.0
1350.618042 228.0
1351.232544 180.0
1352.264282 56.0
1352.886475 136.0
1355.41333 192.0
1355.471924 236.0
1356.234131 164.0
1356.439331 96.0
1359.776611 192.0
1360.239014 128.0
1361.377075 124.0
1361.97937 148.0
1362.331909 204.0
1363.06665 180.0
1363.669189 148.0
1365.06604 168.0
1365.720581 176.0
1365.933838 172.0
1366.816772 184.0
1367.618896 192.0
1368.171021 60.0
1369.091309 164.0
1369.49646 168.0
1370.107788 108.0
1371.19104 172.0
1371.329102 188.0
1372.731812 148.0
1373.786499 140.0
1373.956177 212.0
1374.074219 200.0
1375.35083 172.0
1375.74939 224.0
1376.473022 248.0
1377.019409 216.0
1378.30481 204.0
1378.637329 76.0
1379.605591 196.0
1380.529907 136.0
1382.482788 196.0
1383.215576 104.0
1383.474609 212.0
1384.348389 136.0
1385.414917 228.0
1385.607544 212.0
1386.978394 196.0
1387.860596 88.0
1388.602173 188.0
1389.915283 148.0
1389.974609 40.0
1391.45166 180.0
1391.874878 168.0
1392.350098 88.0
1392.773438 156.0
1393.152344 136.0
1395.24707 164.0
1395.33728 116.0
1395.597412 188.0
1395.894897 132.0
1399.384521 116.0
1400.360107 208.0
1400.792114 208.0
1402.170532 196.0
1403.967163 164.0
1405.327515 152.0
1408.146484 148.0
1408.534912 44.0
1409.132568 164.0
1409.319336 156.0
1409.984375 228.0
1410.358154 148.0
1412.683594 108.0
1412.908081 160.0
1413.102539 84.0
1413.439331 176.0
1413.903198 48.0
1414.299927 200.0
1414.487061 164.0
1415.542725 176.0
1417.033203 120.0
1417.460327 184.0
1418.074829 224.0
1418.62207 160.0
1421.456421 176.0
1421.539551 80.0
1423.581421 160.0
1423.679077 164.0
1426.376343 176.0
1426.549194 220.0
1426.902588 140.0
1427.752197 124.0
1428.038086 112.0
1428.256104 208.0
1428.70752 156.0
1428.85791 192.0
1429.542725 60.0
1429.813599 144.0
1430.189941 96.0
1431.00293 204.0
1431.545044 168.0
1432.230347 44.0
1432.735107 152.0
1433.043945 172.0
1436.843872 172.0
1438.692749 144.0
1441.275757 200.0
1442.031494 124.0
1443.914062 152.0
1444.466187 148.0
1444.738525 60.0
1446.221558 168.0
1446.978638 132.0
1449.425049 172.0
1449.77356 128.0
1450.023682 192.0
1450.228394 192.0
1450.349609 136.0
1450.6073 152.0
1450.673584 184.0
1455.705811 144.0
1457.027466 200.0
1457.247803 152.0
1457.376953 108.0
1459.094604 144.0
1459.48999 164.0
1461.117554 156.0
1461.908936 140.0
1462.152466 180.0
1462.890747 168.0
1465.830566 120.0
1467.004272 164.0
1467.271118 140.0
1468.112549 184.0
1468.404419 216.0
1471.574097 92.0
1471.902466 196.0
1472.513428 156.0
1472.94104 160.0
1473.529297 168.0
1474.04126 156.0
1474.943115 160.0
1475.48584 156.0
1476.196899 204.0
1477.107056 120.0
1477.650146 160.0
1479.241943 128.0
1479.540527 128.0
1479.915649 108.0
1480.198975 180.0
1480.428711 168.0
1480.834595 176.0
1481.18689 184.0
1481.278809 188.0
1481.615967 84.0
1481.937744 168.0
1482.581299 140.0
1483.654419 52.0
1483.97644 176.0
1484.796875 128.0
1485.648315 184.0
1485.932129 156.0
1486.285156 124.0
1487.167603 164.0
1487.44397 172.0
1488.303833 168.0
1488.357544 160.0
1488.457397 152.0
1489.586304 132.0
1490.047241 160.0
1491.015503 88.0
1491.968628 184.0
1492.40686 112.0
1493.198853 172.0
1493.352661 100.0
1493.775757 156.0
1494.01416 144.0
1494.391968 172.0
1494.775879 172.0
1494.9375 136.0
1495.691772 152.0
1496.376953 196.0
1496.638672 156.0
1497.170044 164.0
1498.359375 176.0
1498.487183 80.0
1498.641235 192.0
1499.442627 148.0
1499.650757 136.0
1500.61438 200.0
1501.354614 108.0
1501.516602 180.0
1502.048706 176.0
1502.473022 96.0
1502.719971 180.0
1503.692261 108.0
1503.846558 192.0
