>compound RIFABUTIN
>formula C46H62N4O11
>ionization [M+H]+
>parentmass 847.4487852560906
#inchi InChI=1S/C46H62N4O11/c1-22(2)21-50-18-16-46(17-19-50)48-34-31-32-39(54)28(8)42-33(31)43(56)45(10,61-42)59-20-15-30(58-11)25(5)41(60-29(9)51)27(7)38(53)26(6)37(52)23(3)13-12-14-24(4)44(57)47-36(40(32)55)35(34)49-46/h12-15,20,22-23,25-27,30,37-38,41,52-55H,16-19,21H2,1-11H3,(H,47,57)/t23-,25+,26+,27+,30-,37-,38+,41+,45-/m0/s1
#inchikey AZFBLLCNOQPJGJ
#Ion_Source LC-ESI
#Instrument qTof
#Compound_Source Commercial
#PI Dorrestein
#Data_Collector Garg_Neha
#Scan -1
#Precursor_MZ 847.449
#ExactMass 846.442
#Charge 1
#CAS_Number N/A
#Pubmed_ID N/A
#Smiles CO[C@H]1C=CO[C@@]2(C)Oc3c(C2=O)c4c5=NC6(CCN(CC(C)C)CC6)N=c5c(NC(=O)C(=CC=C[C@H](C)[C@H](O)[C@@H](C)[C@@H](O)[C@@H](C)[C@H](OC(=O)C)[C@@H]1C)C)c(O)c4c(O)c3C
#INCHI_AUX N/A
#Library_Class 1
#SpectrumID CCMSLIB00000078938
#IonMode Positive
#UpdateWorkflowName UPDATE-SINGLE-ANNOTATED-GOLD
#LibraryQualityString Gold
#TaskID 278b19f5865741e282cec7349aa7e7a1
##Scan# 1387
#SpectrumFile NCP003272_E2_F11_BC2_01_15715.mzXML
#LibraryName NIHcollectionI_05062014.mgf
#MQScore -1
#Organism NIHcollectionI_05062014
#TIC_Query 0
#RT_Query -1
#MZErrorPPM -1
#SharedPeaks 0
#MassDiff 0
#LibMZ -1
#SpecMZ 847.449
#SpecCharge 0
#internalFilename spec-00000.mgf

>collision 10
44.955555 140.0
45.556736 140.0
46.025433 144.0
46.718006 176.0
47.273457 212.0
47.752121 176.0
47.827797 156.0
47.842937 144.0
48.18911 196.0
48.255451 200.0
48.67112 184.0
49.016087 140.0
49.139725 256.0
50.443466 144.0
50.467499 152.0
50.662964 168.0
50.901089 164.0
51.288059 148.0
51.41214 144.0
51.928616 164.0
52.648216 152.0
52.766701 196.0
52.989586 160.0
53.059151 208.0
53.985214 216.0
54.162308 224.0
54.76453 200.0
55.074272 196.0
55.281254 152.0
55.522728 184.0
55.593937 192.0
56.114552 140.0
56.329449 212.0
57.036724 148.0
57.378445 204.0
58.54142 344.0
58.564991 168.0
58.81963 176.0
58.966263 148.0
59.149807 232.0
59.169708 148.0
59.482441 176.0
60.175205 148.0
60.419392 168.0
61.457253 180.0
61.52124 164.0
63.228279 140.0
63.258354 164.0
63.285267 168.0
63.607384 160.0
64.398453 232.0
64.499115 212.0
64.772736 144.0
65.645447 140.0
66.671806 164.0
66.686432 148.0
67.197762 208.0
67.514648 156.0
67.761818 140.0
68.094818 160.0
68.190109 172.0
68.229561 196.0
68.248589 152.0
69.838562 164.0
70.333427 188.0
70.445305 244.0
70.518829 168.0
70.637543 196.0
70.804924 184.0
70.888687 196.0
71.587051 176.0
71.686897 200.0
71.93483 196.0
72.154442 168.0
73.283096 188.0
73.364899 240.0
73.878929 212.0
73.902885 140.0
74.089355 96.0
74.339836 156.0
74.626686 148.0
74.962341 224.0
74.993919 148.0
75.184799 176.0
75.989426 208.0
76.636208 176.0
76.686745 172.0
76.894295 248.0
77.310234 172.0
78.048737 256.0
78.536552 176.0
78.595428 140.0
78.679489 180.0
78.905624 188.0
79.790306 192.0
79.854317 196.0
80.209846 200.0
80.397705 176.0
80.882057 188.0
81.20636 164.0
82.031685 148.0
82.66021 148.0
83.069664 140.0
84.110519 152.0
84.9431 156.0
84.95961 152.0
85.297501 204.0
85.584496 184.0
85.838776 144.0
86.378067 148.0
86.802185 168.0
87.301712 156.0
87.556671 168.0
88.20784 160.0
89.050842 176.0
89.376236 148.0
90.465225 148.0
90.884064 184.0
90.967575 204.0
90.996048 196.0
91.055023 272.0
92.053619 160.0
92.548058 156.0
93.071083 496.0
93.681175 180.0
94.075279 196.0
94.379829 172.0
94.459122 244.0
94.621681 216.0
95.049911 1108.0
95.085403 3096.0
95.105736 252.0
96.05085 160.0
96.090462 672.0
96.379944 144.0
96.653694 148.0
96.75351 180.0
96.865135 148.0
97.06395 704.0
97.329933 176.0
97.447784 156.0
98.07357 180.0
98.097107 132.0
98.23526 148.0
98.253014 196.0
99.041954 156.0
99.08197 172.0
99.368843 152.0
99.47998 140.0
99.620972 188.0
99.93708 148.0
100.030617 160.0
100.112434 624.0
100.804459 140.0
101.059433 140.0
101.32869 160.0
101.80809 156.0
102.137703 148.0
102.41748 160.0
102.59481 144.0
103.055328 156.0
103.073151 140.0
103.518166 156.0
103.607285 204.0
103.753204 144.0
104.191559 152.0
105.067909 1228.0
105.097572 156.0
105.203705 148.0
105.569435 144.0
106.056694 172.0
106.073097 392.0
107.0466 264.0
107.085159 3528.0
107.116997 160.0
107.733765 148.0
108.058342 140.0
108.088249 412.0
108.381157 140.0
108.79406 140.0
109.065262 2748.0
109.102074 976.0
109.291504 184.0
109.6698 164.0
110.06826 480.0
110.096649 216.0
110.909271 168.0
111.020393 140.0
111.042641 448.0
111.081696 900.0
111.111603 152.0
112.062988 180.0
112.084251 248.0
112.112724 11612.0
112.192848 136.0
112.36026 180.0
112.533325 156.0
112.824875 204.0
113.059937 440.0
113.116806 924.0
113.493912 172.0
113.841911 156.0
114.127121 304.0
115.057343 156.0
115.157013 236.0
115.774002 224.0
115.861824 208.0
115.953964 152.0
116.074753 196.0
116.320732 208.0
116.660141 172.0
117.025879 176.0
117.072281 144.0
118.073593 140.0
118.176277 148.0
118.480339 180.0
118.503212 212.0
118.569695 176.0
119.051994 144.0
119.086082 1760.0
119.119324 152.0
120.085052 276.0
121.066223 1304.0
121.100739 1736.0
121.154015 108.0
121.825935 140.0
122.068703 184.0
122.110405 128.0
122.598228 268.0
122.621712 168.0
122.70182 168.0
122.745918 164.0
122.887085 176.0
123.042213 296.0
123.081337 9132.0
123.117119 480.0
123.274292 188.0
123.3256 104.0
123.344215 144.0
123.722488 156.0
124.083168 1036.0
124.725159 152.0
125.058693 408.0
125.095787 2052.0
125.27256 164.0
125.387444 192.0
126.101768 180.0
126.125038 340.0
126.158493 184.0
126.180847 164.0
126.395569 148.0
126.924194 160.0
127.073891 460.0
127.112885 136.0
127.987007 180.0
128.063538 372.0
128.148392 160.0
129.049728 156.0
129.068192 316.0
129.099136 188.0
129.228409 164.0
129.830933 152.0
130.076691 328.0
130.121826 840.0
130.16745 168.0
131.085648 424.0
131.125671 104.0
131.277267 164.0
131.652893 160.0
132.068924 144.0
132.087097 216.0
132.268829 184.0
132.777481 168.0
133.064651 960.0
133.10199 1172.0
133.137787 180.0
133.538818 104.0
134.064957 136.0
134.103897 488.0
134.134018 172.0
134.19397 140.0
134.242386 220.0
135.048386 148.0
135.080872 4632.0
135.116684 2692.0
135.270523 144.0
135.430298 180.0
135.968185 148.0
135.993713 152.0
136.03981 144.0
136.085526 824.0
136.119186 336.0
136.177139 144.0
136.781677 180.0
136.860825 148.0
137.060272 508.0
137.095581 2272.0
137.131729 852.0
137.156693 144.0
137.30098 108.0
137.391159 160.0
137.8405 152.0
137.933975 140.0
138.067734 196.0
138.100876 600.0
138.131073 628.0
138.260864 152.0
138.383148 180.0
138.722839 188.0
139.075485 600.0
139.110779 1036.0
139.885635 144.0
140.074112 148.0
140.128204 212.0
140.408707 168.0
141.068695 112.0
141.09227 344.0
142.077301 376.0
142.522644 148.0
142.548782 168.0
143.005386 144.0
143.085693 628.0
143.522339 152.0
143.653503 188.0
143.82959 136.0
144.091782 188.0
144.114273 204.0
144.529083 96.0
145.065277 404.0
145.10112 4476.0
145.257553 144.0
145.419373 140.0
145.450577 244.0
146.103104 448.0
146.205261 140.0
146.609848 152.0
147.079346 1156.0
147.116806 3560.0
147.527039 180.0
147.972183 180.0
148.084595 276.0
148.120758 664.0
149.036942 164.0
149.060272 588.0
149.095764 1216.0
149.132599 872.0
149.173325 164.0
149.266205 124.0
150.064056 148.0
150.099792 588.0
150.129898 296.0
150.973328 96.0
151.042969 160.0
151.07576 36356.0
151.111282 808.0
151.182098 192.0
152.079483 4328.0
152.149887 172.0
152.873611 152.0
153.050842 144.0
153.091141 7188.0
153.136688 692.0
153.711441 200.0
153.879272 152.0
154.048355 128.0
154.09581 1164.0
154.142624 308.0
154.932831 232.0
155.049286 184.0
155.085098 236.0
155.106613 864.0
155.175705 228.0
155.354263 208.0
155.76004 112.0
155.803604 232.0
156.098877 316.0
156.876175 220.0
157.103271 1576.0
157.312729 152.0
158.10376 544.0
159.079636 1004.0
159.116821 1472.0
159.388977 140.0
159.434204 152.0
160.08429 116.0
160.119827 520.0
161.054214 196.0
161.096115 4452.0
161.129318 704.0
161.547119 160.0
162.099045 1128.0
162.142776 160.0
162.512375 180.0
162.716629 168.0
163.076035 448.0
163.112213 14316.0
164.115936 1836.0
164.226685 188.0
164.31369 140.0
164.976227 112.0
165.067261 112.0
165.09169 416.0
165.127197 3380.0
166.063385 144.0
166.091766 368.0
166.129135 176.0
167.068314 324.0
167.10791 804.0
167.140533 188.0
168.108337 160.0
169.08873 132.0
169.160568 156.0
170.109695 144.0
170.566513 144.0
171.07988 132.0
171.117798 652.0
171.180496 160.0
171.293411 164.0
172.086517 220.0
172.129669 456.0
173.059402 140.0
173.096176 2980.0
173.132935 2456.0
173.863739 168.0
174.099106 548.0
174.136688 600.0
175.072861 136.0
175.111984 4876.0
175.148209 676.0
175.460495 128.0
176.077927 128.0
176.116318 920.0
176.15239 228.0
176.372635 156.0
176.62912 176.0
177.090576 2816.0
177.124969 1504.0
177.16774 184.0
177.226028 144.0
177.595901 212.0
178.092804 168.0
178.125824 112.0
179.10733 6220.0
179.143188 300.0
180.108932 444.0
181.076782 164.0
181.121414 1532.0
181.867157 116.0
182.116272 308.0
183.095856 164.0
183.117889 420.0
184.109772 168.0
184.141846 132.0
185.096481 300.0
185.133194 1524.0
185.894394 140.0
186.102448 592.0
186.136383 488.0
187.112335 628.0
187.146591 628.0
187.842422 140.0
188.105469 152.0
188.153076 292.0
189.091095 872.0
189.12886 1112.0
189.165009 140.0
190.132874 160.0
191.107834 8220.0
191.143478 604.0
192.108963 1552.0
192.144226 172.0
192.744003 108.0
193.121048 3388.0
193.16008 360.0
194.092773 160.0
194.126938 644.0
194.165176 116.0
194.360168 164.0
195.119293 416.0
196.681168 172.0
197.095078 248.0
197.134003 480.0
197.354431 152.0
197.91684 172.0
198.105484 188.0
198.138397 252.0
198.872787 144.0
199.112442 660.0
199.148712 396.0
200.118515 116.0
200.153183 156.0
201.090012 160.0
201.127396 2292.0
201.165237 236.0
202.130417 264.0
203.107651 448.0
203.143311 2536.0
203.343521 184.0
204.111588 276.0
204.146194 456.0
205.121826 760.0
205.160934 184.0
206.113876 328.0
206.151108 132.0
207.102692 428.0
208.123108 344.0
208.392273 164.0
208.832092 156.0
209.07045 208.0
209.120407 2048.0
210.123505 388.0
210.705795 148.0
211.132584 1644.0
211.610535 164.0
212.124344 192.0
213.126526 1068.0
213.161087 312.0
214.129883 536.0
214.166641 164.0
214.866119 140.0
215.101166 480.0
215.143478 816.0
215.19136 304.0
216.147354 224.0
216.502991 172.0
217.124191 576.0
217.157257 364.0
217.225067 132.0
217.714157 152.0
218.161652 256.0
219.102219 220.0
219.137222 2120.0
219.16713 204.0
219.217392 180.0
220.141632 480.0
220.269775 160.0
221.11528 236.0
221.154449 1264.0
221.191025 144.0
221.237656 148.0
221.566376 156.0
221.859756 180.0
222.111328 120.0
222.153305 304.0
222.18895 156.0
223.116531 440.0
223.148575 400.0
223.761108 148.0
224.131088 164.0
224.150818 200.0
224.46727 148.0
225.126801 244.0
225.164291 768.0
226.170441 172.0
227.141403 816.0
227.174469 152.0
228.134949 144.0
229.124878 148.0
229.159195 496.0
230.125809 136.0
230.449509 216.0
231.137955 1932.0
231.626328 152.0
232.139969 436.0
233.114746 304.0
233.153259 220.0
233.195007 144.0
233.661285 132.0
234.14476 192.0
235.128952 132.0
235.143753 144.0
235.208313 200.0
236.158295 300.0
236.200012 372.0
237.136276 376.0
237.202698 164.0
238.104752 188.0
238.132111 128.0
239.143753 572.0
240.141342 132.0
241.121078 392.0
241.158707 608.0
241.192139 328.0
242.090469 176.0
242.157837 164.0
243.142426 184.0
243.174438 716.0
244.178162 248.0
244.55574 108.0
244.88739 164.0
245.117752 140.0
245.158737 168.0
245.198242 160.0
245.707199 152.0
246.144974 280.0
247.13826 112.0
248.748993 168.0
249.149094 1488.0
249.18248 304.0
249.691589 188.0
250.091171 180.0
250.131439 280.0
250.163818 144.0
251.143646 228.0
251.180359 568.0
252.081726 140.0
252.187912 124.0
253.119125 160.0
253.16008 1424.0
253.793625 168.0
253.958527 224.0
254.072723 168.0
254.155289 196.0
255.137527 372.0
255.175247 520.0
255.575516 164.0
256.671234 140.0
256.696747 140.0
257.151276 248.0
258.08255 160.0
259.071472 140.0
259.17276 456.0
259.20285 204.0
260.116882 144.0
260.172485 420.0
260.498993 156.0
260.566467 164.0
261.162628 604.0
261.476471 196.0
262.12915 124.0
262.575073 148.0
263.582245 140.0
264.153503 308.0
264.245087 160.0
266.106812 160.0
267.099854 152.0
267.169769 228.0
267.215179 132.0
267.441498 160.0
268.100861 164.0
268.176239 184.0
269.1409 208.0
269.189911 1036.0
270.106354 140.0
270.195435 260.0
271.166687 1140.0
271.414032 152.0
271.683929 188.0
272.181244 200.0
273.187744 396.0
275.174774 156.0
275.201172 176.0
276.473816 168.0
277.181519 388.0
277.862183 180.0
279.0578 140.0
279.097717 172.0
279.173523 1300.0
280.100372 184.0
280.133972 172.0
280.181396 284.0
281.052368 100.0
281.173553 432.0
282.078918 116.0
282.171783 164.0
282.375763 192.0
283.164001 120.0
284.104156 148.0
285.109924 168.0
285.184082 216.0
285.354797 144.0
286.189392 480.0
286.309113 180.0
287.166992 432.0
287.195343 864.0
288.169586 408.0
288.20697 336.0
288.556396 152.0
289.178192 624.0
290.186859 272.0
291.355743 172.0
293.332886 196.0
294.064911 184.0
294.121216 112.0
295.070587 560.0
295.111542 168.0
295.162933 104.0
296.076752 420.0
296.167511 100.0
297.032776 140.0
297.085663 540.0
297.185272 2236.0
298.088043 412.0
298.186462 404.0
299.105774 164.0
299.190887 184.0
299.383636 184.0
299.803925 148.0
300.100891 160.0
301.844055 144.0
302.653748 140.0
302.8927 184.0
306.077698 268.0
307.071381 2948.0
308.078278 1772.0
308.977783 140.0
309.085571 1116.0
310.085205 1712.0
310.417328 148.0
311.091553 1220.0
312.097626 1228.0
312.185638 156.0
313.10553 416.0
313.184082 208.0
314.118774 120.0
314.208099 252.0
315.114532 184.0
315.195984 1724.0
315.437897 144.0
316.198853 716.0
316.248291 112.0
317.201843 200.0
318.213837 172.0
318.545593 192.0
319.815002 152.0
320.10498 228.0
321.08725 4024.0
321.161835 188.0
321.441254 160.0
321.584442 104.0
321.637268 160.0
322.083435 11716.0
322.261353 168.0
322.707153 120.0
322.890472 140.0
323.093353 9516.0
323.174805 144.0
323.32193 96.0
323.454102 144.0
323.712921 136.0
323.967865 160.0
324.097046 8004.0
324.171204 120.0
324.262787 164.0
325.103882 2220.0
325.774048 128.0
326.104004 636.0
326.385223 132.0
326.516296 140.0
326.545074 152.0
326.617004 172.0
327.108673 228.0
327.189178 152.0
327.340393 188.0
328.091736 220.0
328.437988 124.0
328.764313 160.0
328.796783 176.0
330.133453 148.0
330.205658 116.0
330.560303 140.0
330.739594 164.0
330.925903 144.0
331.187561 208.0
332.104279 184.0
332.491852 148.0
332.573975 116.0
333.086395 252.0
333.207703 156.0
334.082489 504.0
335.104156 1996.0
335.953156 184.0
336.102753 1172.0
336.258636 176.0
337.032806 196.0
337.110718 1500.0
338.113007 8852.0
338.212311 128.0
339.117188 4496.0
339.887573 108.0
340.129852 4300.0
340.375397 144.0
341.13208 648.0
342.131439 392.0
344.29776 224.0
345.115509 292.0
345.206116 444.0
345.773987 160.0
346.11084 160.0
346.855499 156.0
347.101624 264.0
348.110474 688.0
348.221252 232.0
349.070953 108.0
349.110992 368.0
350.075592 676.0
350.11499 820.0
350.220428 140.0
351.116028 812.0
351.186005 120.0
352.12851 1548.0
352.314545 140.0
353.13382 580.0
353.472504 216.0
354.10968 272.0
354.159882 128.0
354.552094 144.0
355.006866 168.0
355.109253 188.0
355.953156 156.0
356.114471 320.0
356.646362 168.0
357.148529 136.0
357.2099 524.0
357.788544 112.0
358.09021 120.0
358.199463 116.0
359.100311 132.0
359.135162 140.0
360.08963 136.0
361.101746 200.0
361.328186 132.0
362.112 384.0
362.142212 248.0
363.115295 316.0
363.224121 116.0
364.087524 420.0
364.132538 564.0
365.0802 128.0
365.115875 160.0
365.587189 140.0
365.792725 200.0
366.115173 740.0
366.53479 132.0
366.661133 184.0
366.690521 140.0
367.120117 668.0
367.383728 196.0
368.130798 264.0
369.12915 116.0
370.138885 140.0
370.263763 140.0
371.143768 292.0
372.133148 116.0
373.118896 148.0
373.216034 128.0
373.945618 168.0
374.118042 268.0
375.112427 168.0
375.222809 236.0
376.126038 216.0
376.223694 164.0
377.125122 264.0
377.67276 140.0
378.11969 284.0
378.147552 372.0
379.141296 1560.0
380.029297 152.0
380.146973 1064.0
380.7229 164.0
381.152466 560.0
381.907532 104.0
382.140991 828.0
382.261749 144.0
383.137177 304.0
384.120728 160.0
384.301788 144.0
385.164215 256.0
385.391541 108.0
386.020264 124.0
386.11026 180.0
387.117004 228.0
387.176605 140.0
388.121552 144.0
388.16684 2452.0
389.112976 236.0
389.168243 728.0
390.106201 548.0
390.141937 376.0
390.910492 284.0
391.124481 628.0
391.906677 228.0
392.12558 216.0
392.651733 196.0
392.781769 128.0
393.10434 288.0
393.138 136.0
394.166565 1012.0
395.108459 108.0
395.171844 1396.0
396.125366 140.0
396.170166 820.0
397.148743 224.0
397.17984 316.0
398.120087 276.0
398.915649 148.0
399.122437 700.0
400.129852 300.0
400.208618 224.0
400.359955 168.0
401.132233 360.0
402.106903 432.0
403.116089 1240.0
404.118469 476.0
404.184387 336.0
404.828613 140.0
405.129059 436.0
405.19635 456.0
405.873993 100.0
406.102356 144.0
406.176605 4412.0
407.180298 1440.0
408.117615 296.0
408.152985 240.0
408.191895 1204.0
408.509094 144.0
409.125 136.0
409.195618 356.0
409.430786 152.0
409.507324 152.0
410.12439 216.0
410.198883 300.0
411.083618 160.0
411.208923 100.0
412.112457 236.0
412.610413 152.0
412.905579 156.0
413.010742 204.0
413.141876 412.0
413.297974 152.0
414.142181 316.0
415.115082 332.0
415.155426 236.0
416.059662 136.0
416.123322 2528.0
416.602203 148.0
417.016663 140.0
417.127502 1200.0
418.140045 1296.0
418.183411 164.0
418.426575 124.0
418.564819 100.0
418.810028 176.0
419.144012 500.0
419.956299 160.0
420.122467 116.0
420.158966 104.0
421.118744 152.0
421.189728 1152.0
421.642456 148.0
422.020386 160.0
422.075775 188.0
422.143127 128.0
422.193787 7560.0
422.877014 116.0
423.202698 14732.0
423.685516 148.0
424.093719 152.0
424.126465 252.0
424.206818 6492.0
424.339355 104.0
425.141724 376.0
425.210754 1636.0
425.755615 176.0
425.930023 192.0
426.145721 356.0
426.21875 236.0
426.274872 104.0
427.050232 224.0
427.15097 1368.0
427.593323 148.0
428.155884 1036.0
428.837128 176.0
429.162109 380.0
430.138 804.0
430.17038 532.0
430.307709 160.0
430.495575 172.0
431.150909 704.0
432.154236 1304.0
432.31134 284.0
433.160767 1072.0
433.320496 96.0
434.122803 124.0
434.169678 924.0
434.249207 140.0
435.16568 184.0
435.20163 328.0
436.162567 144.0
436.199829 228.0
437.172333 124.0
437.420807 124.0
438.154327 160.0
438.190765 112.0
438.238586 120.0
439.006897 140.0
439.134888 244.0
439.837128 192.0
440.162842 360.0
440.254639 160.0
440.82843 124.0
441.161438 448.0
441.217102 312.0
442.081482 152.0
442.143127 372.0
442.17688 1052.0
442.32843 144.0
442.554474 144.0
442.604736 144.0
443.152924 1432.0
443.608368 108.0
443.949829 152.0
444.155396 2184.0
444.304077 148.0
444.349915 148.0
444.54068 128.0
445.162842 3104.0
445.378296 160.0
446.168488 1816.0
446.327454 112.0
446.52652 116.0
446.839691 156.0
447.176666 836.0
448.179443 628.0
449.18045 1140.0
450.177887 328.0
450.207062 252.0
451.196655 716.0
452.084503 184.0
452.156708 232.0
452.200958 124.0
453.13266 148.0
453.184143 128.0
454.175323 136.0
455.168182 232.0
455.221466 300.0
455.472046 144.0
456.151672 676.0
456.415497 148.0
457.163025 484.0
457.20105 272.0
457.712067 128.0
458.121765 320.0
458.171112 1004.0
458.635406 112.0
459.178375 436.0
460.09079 108.0
460.152069 1012.0
460.183655 1508.0
460.681702 140.0
461.151459 360.0
461.190643 680.0
462.172394 816.0
462.828674 192.0
463.171997 572.0
463.272705 112.0
464.137604 208.0
464.186554 112.0
464.325684 148.0
465.163116 104.0
465.213959 284.0
466.151367 208.0
466.20816 252.0
466.522644 116.0
467.174103 472.0
467.225616 604.0
468.15155 172.0
468.193268 236.0
468.229614 228.0
469.157623 312.0
469.200317 452.0
469.415924 140.0
470.17569 232.0
470.261475 164.0
471.167877 368.0
472.16217 356.0
472.185883 648.0
472.224884 380.0
473.176239 1000.0
473.590698 156.0
473.744781 96.0
473.996063 164.0
474.168579 2476.0
474.314301 136.0
475.172363 1356.0
476.18689 416.0
476.349945 132.0
477.184906 436.0
477.94931 148.0
478.188629 184.0
478.25827 168.0
479.166748 172.0
479.220245 164.0
479.822144 176.0
480.182068 216.0
480.258209 152.0
481.207916 120.0
482.154694 328.0
482.200043 200.0
482.253479 160.0
483.206696 228.0
483.609436 184.0
484.187042 460.0
485.192932 288.0
486.206726 444.0
486.326874 152.0
486.881531 120.0
487.207245 372.0
487.292969 148.0
487.384186 116.0
487.498108 112.0
487.618866 124.0
488.181824 1536.0
488.341644 100.0
489.187927 388.0
490.198364 940.0
491.068481 112.0
491.198822 728.0
492.198303 552.0
492.328796 676.0
492.570587 220.0
493.207703 100.0
493.336884 580.0
493.738739 104.0
494.00528 96.0
494.220734 240.0
494.63559 176.0
495.178009 184.0
496.189789 240.0
497.110931 104.0
497.175049 312.0
497.216187 556.0
497.570282 144.0
497.952148 196.0
498.212708 436.0
498.269104 216.0
499.195831 372.0
499.231903 352.0
500.212616 336.0
500.834259 304.0
501.097076 176.0
501.210327 720.0
501.379974 132.0
501.862244 124.0
502.205414 1656.0
503.212006 460.0
503.354004 140.0
503.92572 184.0
504.070129 100.0
504.20752 296.0
504.333282 120.0
504.875519 140.0
505.222778 408.0
505.347504 264.0
506.148682 156.0
506.198212 440.0
506.344574 108.0
506.502502 140.0
507.219757 140.0
508.178284 108.0
508.187103 292.0
509.196472 324.0
509.241608 616.0
510.197937 400.0
510.255615 152.0
511.205566 200.0
511.264984 308.0
511.309967 124.0
512.207031 408.0
512.29364 152.0
512.729797 144.0
513.198059 152.0
514.114136 128.0
514.199646 748.0
514.911743 120.0
515.062378 140.0
515.214417 700.0
515.316467 112.0
515.747681 108.0
516.228149 484.0
516.661499 160.0
517.239868 852.0
517.862183 140.0
518.237305 732.0
519.188965 148.0
519.232056 280.0
520.207031 680.0
520.386169 240.0
520.51062 208.0
521.235901 268.0
522.218689 412.0
523.215332 348.0
524.167786 340.0
524.787659 164.0
525.209656 240.0
525.25 1000.0
525.992065 176.0
526.181824 124.0
526.255981 1352.0
526.317444 132.0
527.260681 1104.0
527.543091 120.0
527.971741 112.0
528.209167 976.0
528.268982 916.0
529.219604 424.0
529.277405 560.0
530.048645 148.0
530.189514 516.0
530.229858 368.0
530.898254 120.0
531.222961 1316.0
531.899475 212.0
532.115417 140.0
532.207703 1536.0
533.214111 612.0
533.374084 148.0
534.216431 588.0
534.483582 100.0
534.944519 260.0
535.059631 140.0
535.258179 304.0
536.192322 172.0
536.228699 264.0
537.008789 152.0
537.245178 312.0
537.588806 144.0
538.248291 128.0
538.401611 96.0
539.18335 160.0
539.242798 220.0
539.969299 148.0
540.135803 152.0
540.200134 96.0
540.272766 212.0
541.240417 400.0
541.394653 164.0
542.225342 132.0
542.34314 100.0
543.259888 3772.0
543.350708 200.0
543.513123 204.0
543.905518 116.0
544.04071 112.0
544.211426 356.0
544.264099 2612.0
544.486145 164.0
544.984375 96.0
545.273926 5644.0
545.433228 148.0
545.617859 116.0
545.817017 172.0
546.222778 732.0
546.279541 2716.0
547.233337 328.0
547.285278 504.0
547.461426 224.0
548.238098 832.0
548.295288 340.0
548.374329 128.0
549.246338 316.0
550.235962 336.0
550.578003 128.0
551.208069 144.0
551.254395 256.0
551.958008 148.0
552.265442 236.0
552.907288 120.0
553.23822 344.0
553.305847 108.0
553.413208 180.0
554.129761 140.0
554.237793 308.0
554.462463 184.0
554.588989 168.0
554.748413 192.0
555.170349 140.0
555.256714 1116.0
555.503357 168.0
555.680237 108.0
556.055542 148.0
556.262817 900.0
557.160522 196.0
557.275269 696.0
558.067566 172.0
558.275818 500.0
558.610291 136.0
559.233337 332.0
559.990723 184.0
560.230347 336.0
560.488098 108.0
561.243408 268.0
562.249023 232.0
562.429871 176.0
563.00116 188.0
563.197388 160.0
563.243469 336.0
563.322327 160.0
563.466858 116.0
564.242798 408.0
564.655212 192.0
565.262939 320.0
565.625183 156.0
566.216553 288.0
566.246826 420.0
566.359131 156.0
566.842346 140.0
567.21582 248.0
567.300476 484.0
567.591248 148.0
567.633972 144.0
567.915283 112.0
568.19281 120.0
568.287048 288.0
568.389404 136.0
569.13031 136.0
569.268127 188.0
569.302673 292.0
569.606628 148.0
570.214783 220.0
570.258911 276.0
570.290466 264.0
571.246643 408.0
571.79541 208.0
571.919189 160.0
572.240234 308.0
572.312927 168.0
573.270447 10948.0
574.134583 148.0
574.276184 5268.0
574.587708 144.0
574.854919 156.0
575.280457 2740.0
575.467285 192.0
575.827087 156.0
575.991211 144.0
576.047302 152.0
576.282166 776.0
576.662903 132.0
577.283691 292.0
577.491821 176.0
577.660583 140.0
578.270691 228.0
578.329346 176.0
578.436768 128.0
578.494812 140.0
579.121887 196.0
579.252441 188.0
579.37323 148.0
580.111267 148.0
580.269043 940.0
580.84491 144.0
581.273987 384.0
581.859558 100.0
582.267578 372.0
582.533569 148.0
582.592224 168.0
583.019836 152.0
583.101562 116.0
583.254578 480.0
583.290527 304.0
583.421082 128.0
584.279236 408.0
584.32605 312.0
585.303284 1340.0
586.02301 132.0
586.306641 480.0
586.394958 132.0
587.285889 628.0
588.278198 384.0
588.331299 192.0
588.672424 148.0
589.266418 756.0
589.446533 156.0
589.788635 112.0
590.255005 576.0
590.444153 156.0
590.995605 140.0
591.034302 144.0
591.269409 796.0
592.116577 196.0
592.225403 444.0
592.636963 140.0
593.240967 340.0
593.302979 180.0
593.986694 100.0
594.261841 252.0
594.763184 100.0
594.858826 140.0
595.287903 400.0
596.203735 100.0
596.261719 232.0
596.293884 304.0
596.479797 292.0
596.971619 160.0
597.245911 160.0
597.301208 560.0
598.287048 648.0
598.357605 108.0
599.1828 176.0
599.286438 232.0
599.52478 152.0
600.228271 112.0
600.274109 428.0
600.363403 312.0
600.591064 112.0
601.297302 988.0
601.487976 204.0
601.527039 144.0
601.706177 116.0
601.792908 104.0
602.01709 152.0
602.17157 144.0
602.289185 736.0
602.749451 108.0
603.274597 376.0
603.303284 328.0
604.281128 212.0
604.447937 116.0
605.11377 140.0
605.154175 124.0
605.203552 192.0
605.29071 200.0
605.947876 200.0
606.265442 772.0
606.381897 156.0
606.462463 160.0
607.282837 568.0
607.546143 160.0
607.7276 196.0
608.264526 2716.0
608.567688 132.0
608.937683 184.0
609.029358 96.0
609.263367 1108.0
609.465759 144.0
609.534546 148.0
609.736084 144.0
610.276245 440.0
610.83252 164.0
610.990906 100.0
611.264648 364.0
611.305298 284.0
612.028381 148.0
612.262512 320.0
612.303955 208.0
612.841125 140.0
613.103516 116.0
613.296753 1968.0
613.881836 112.0
614.302734 1176.0
614.387207 164.0
615.300354 944.0
615.553284 136.0
616.034851 152.0
616.072571 212.0
616.29303 808.0
617.056763 164.0
617.29126 784.0
617.436768 148.0
617.545593 144.0
617.660767 124.0
617.855835 100.0
618.092773 144.0
618.291748 444.0
618.939026 148.0
619.256958 296.0
619.293945 220.0
619.379456 168.0
620.026001 148.0
620.27594 2288.0
620.376099 132.0
620.619019 132.0
620.804016 120.0
621.0672 164.0
621.135864 132.0
621.277527 588.0
622.274292 396.0
622.541199 140.0
623.291016 216.0
624.266235 1712.0
624.918945 104.0
625.265076 580.0
625.299255 456.0
625.30658 752.0
626.28064 1056.0
626.435547 188.0
626.515259 148.0
627.063354 200.0
627.110779 156.0
627.293884 620.0
627.923462 132.0
628.291199 284.0
628.53949 164.0
628.620972 180.0
628.885315 132.0
629.279907 252.0
629.39386 120.0
629.441406 156.0
630.075684 112.0
630.275757 700.0
630.289185 400.0
630.91687 188.0
631.032471 96.0
631.311584 4632.0
631.532959 116.0
631.709839 104.0
632.221313 140.0
632.318481 6680.0
632.509766 112.0
633.321167 3936.0
633.430115 104.0
633.600586 188.0
633.743347 248.0
634.297974 1172.0
634.541504 156.0
634.633911 148.0
634.817688 200.0
635.304016 456.0
635.491699 132.0
635.662964 124.0
636.281616 620.0
636.722473 116.0
636.823547 172.0
636.920288 144.0
637.025635 124.0
637.276733 1388.0
637.482849 204.0
637.737183 124.0
637.905029 144.0
638.091919 160.0
638.289246 2116.0
638.375732 128.0
638.750305 120.0
639.12439 112.0
639.292908 1152.0
639.382507 216.0
639.506653 132.0
639.600159 140.0
640.227173 160.0
640.29541 964.0
640.436707 164.0
641.313965 764.0
641.46759 180.0
641.666199 116.0
641.752563 124.0
642.179932 144.0
642.281372 1808.0
642.522949 140.0
642.726135 100.0
642.954163 128.0
643.006836 116.0
643.177246 112.0
643.283936 1164.0
643.595032 104.0
643.936279 164.0
644.041321 188.0
644.208069 100.0
644.294983 1232.0
644.341553 436.0
644.600342 168.0
644.888672 112.0
644.953247 148.0
645.301941 872.0
645.661804 132.0
646.283081 128.0
646.322266 288.0
646.755981 128.0
647.300903 140.0
647.473572 152.0
648.15509 96.0
648.31073 352.0
649.311829 372.0
649.744995 108.0
650.075623 104.0
650.166321 132.0
650.291138 152.0
650.442566 188.0
650.808105 148.0
651.305542 176.0
651.494934 116.0
652.109619 152.0
652.300415 4520.0
652.933228 96.0
653.044312 100.0
653.121155 148.0
653.302002 1884.0
653.753601 96.0
653.97229 116.0
654.303345 1444.0
654.575317 168.0
654.991577 128.0
655.105347 104.0
655.286438 2468.0
655.379272 148.0
655.443726 152.0
655.531555 128.0
655.5896 248.0
655.742493 208.0
655.936218 224.0
656.155396 148.0
656.296509 4748.0
657.117432 176.0
657.300049 2408.0
657.857605 180.0
658.307922 668.0
658.404724 136.0
658.496216 120.0
659.31665 520.0
659.414307 112.0
659.560303 168.0
660.301025 332.0
660.322266 264.0
660.517883 204.0
661.137207 124.0
661.320007 344.0
661.801025 188.0
662.051697 96.0
662.274475 152.0
662.32135 272.0
662.402588 128.0
662.695374 124.0
662.946838 116.0
663.29657 260.0
663.353394 224.0
663.628479 172.0
663.688721 132.0
663.742981 268.0
663.980835 124.0
664.145508 164.0
664.305847 248.0
664.58783 156.0
665.291687 164.0
665.327698 276.0
665.365723 692.0
665.788452 132.0
666.310425 520.0
666.432556 204.0
667.061646 108.0
667.309021 752.0
667.441589 152.0
667.743408 144.0
667.896179 128.0
667.985107 152.0
668.307495 384.0
668.717957 132.0
669.16272 116.0
669.297363 836.0
669.556091 112.0
670.310974 8416.0
670.481995 148.0
670.620483 140.0
671.315247 3116.0
671.462524 184.0
671.576843 132.0
671.640808 108.0
672.108887 156.0
672.318604 1004.0
672.390137 184.0
673.092529 188.0
673.332642 560.0
673.487061 128.0
673.593506 228.0
673.629639 340.0
673.898315 168.0
673.936035 224.0
673.99469 160.0
674.081421 172.0
674.238831 116.0
674.316711 560.0
674.519531 152.0
674.945068 152.0
675.336182 572.0
675.482422 112.0
675.982056 180.0
676.317627 644.0
676.590698 96.0
676.736633 108.0
676.972656 144.0
677.319946 144.0
677.476807 132.0
677.89563 172.0
678.292419 136.0
678.333435 148.0
679.311584 308.0
679.771729 124.0
680.154114 176.0
680.289978 404.0
680.674744 104.0
680.756348 200.0
681.295593 664.0
681.400696 156.0
681.96405 120.0
682.300354 564.0
682.370911 240.0
683.197205 176.0
683.312805 544.0
683.376953 1484.0
684.318298 1700.0
685.008911 100.0
685.326904 608.0
685.612305 116.0
685.669495 180.0
685.787537 120.0
686.176697 272.0
686.308289 1452.0
686.855164 124.0
686.908203 168.0
687.312988 1204.0
687.746887 292.0
687.969727 96.0
688.239014 140.0
688.315918 1364.0
688.504639 124.0
688.609009 104.0
689.154785 184.0
689.329529 428.0
689.896912 96.0
689.965271 100.0
690.255737 172.0
690.312195 148.0
691.136475 180.0
691.33313 444.0
691.731323 184.0
691.916748 124.0
692.08667 96.0
692.345215 504.0
692.607849 160.0
692.891663 116.0
693.352783 732.0
693.917847 184.0
694.31311 864.0
695.323486 556.0
695.534424 144.0
695.998474 116.0
696.294067 396.0
696.471497 280.0
696.834106 204.0
697.308228 472.0
698.014954 112.0
698.30896 2060.0
698.598328 132.0
698.96344 156.0
699.309265 1332.0
699.726624 224.0
700.137329 392.0
700.315552 664.0
700.420715 184.0
700.960083 144.0
701.189514 116.0
701.237549 120.0
701.313904 500.0
701.385559 1948.0
702.124756 132.0
702.329529 4472.0
702.525574 112.0
702.865784 128.0
702.925964 164.0
703.09198 192.0
703.318542 2028.0
703.82373 148.0
703.906189 200.0
704.045227 136.0
704.317139 2124.0
704.585999 124.0
704.716675 116.0
705.231201 96.0
705.314392 648.0
705.485168 140.0
705.684692 96.0
706.317871 304.0
706.380859 116.0
706.743225 136.0
706.857361 196.0
707.329651 120.0
707.373901 216.0
707.631775 160.0
708.233826 264.0
708.321411 380.0
708.367676 148.0
708.411499 104.0
708.80603 176.0
709.194458 116.0
709.368103 920.0
710.375916 432.0
710.454895 180.0
710.929749 104.0
711.272949 100.0
711.315308 108.0
711.372986 260.0
711.521606 140.0
711.643188 116.0
712.057312 112.0
712.321899 2916.0
712.868713 96.0
713.152405 168.0
713.237427 148.0
713.325134 2308.0
713.507141 240.0
713.604248 156.0
713.65741 152.0
713.876648 112.0
713.977173 116.0
714.138184 164.0
714.211914 200.0
714.314392 2232.0
714.513672 148.0
714.715881 144.0
714.984253 156.0
715.105225 120.0
715.22699 96.0
715.310974 5432.0
715.732483 144.0
715.950867 184.0
716.315918 6604.0
716.667236 104.0
716.82489 108.0
717.0047 132.0
717.322693 4108.0
717.539978 132.0
717.620728 136.0
718.226685 212.0
718.322205 1268.0
718.997131 252.0
719.069641 144.0
719.148071 120.0
719.189026 120.0
719.378784 2820.0
719.528381 276.0
719.672546 120.0
720.000244 136.0
720.378479 1288.0
720.754944 136.0
721.163269 144.0
721.205994 148.0
721.384521 376.0
721.770325 192.0
722.047485 144.0
722.277893 104.0
722.320984 120.0
722.374878 412.0
722.476501 184.0
723.349426 200.0
723.363281 164.0
723.78595 104.0
723.895325 124.0
724.017456 108.0
724.317688 208.0
724.402588 136.0
725.118469 152.0
725.167664 124.0
725.365112 360.0
725.404419 252.0
726.079285 96.0
726.149841 124.0
726.334167 576.0
727.363586 1124.0
727.591309 248.0
727.709412 144.0
728.325073 504.0
728.377502 608.0
728.493469 164.0
728.619141 112.0
728.68689 140.0
728.762085 236.0
728.994019 148.0
729.095276 340.0
729.193542 112.0
729.32373 348.0
729.387756 464.0
729.448425 244.0
729.661682 148.0
729.823853 96.0
730.002075 152.0
730.151794 164.0
730.332153 13344.0
730.714294 132.0
730.812988 124.0
730.944458 124.0
731.100891 136.0
731.336914 4996.0
731.634094 160.0
731.70343 108.0
731.771973 124.0
732.341125 3092.0
732.508484 112.0
732.73645 196.0
732.82489 112.0
732.985535 200.0
733.093384 128.0
733.201477 156.0
733.352356 1216.0
733.730347 108.0
733.776611 120.0
733.871094 128.0
734.174744 196.0
734.33197 496.0
734.395569 220.0
734.624939 148.0
734.704956 188.0
734.926392 136.0
735.25116 136.0
735.32605 256.0
735.578674 204.0
735.963928 120.0
736.276184 120.0
736.325378 116.0
736.365295 124.0
736.417664 100.0
736.507812 128.0
736.546631 144.0
736.624451 196.0
736.771484 108.0
736.910156 96.0
737.095703 108.0
737.17334 336.0
737.220947 172.0
737.391724 12956.0
737.617188 100.0
737.745605 160.0
737.874146 168.0
738.158386 352.0
738.19751 188.0
738.316956 108.0
738.392639 4252.0
738.747253 132.0
738.869873 112.0
738.943604 100.0
739.089722 100.0
739.395935 1572.0
739.567261 108.0
739.695557 128.0
740.075073 124.0
740.246216 128.0
740.396423 640.0
740.921204 96.0
741.010376 132.0
741.223328 200.0
741.356323 308.0
741.424072 396.0
741.547668 180.0
742.122864 208.0
742.202759 116.0
742.330261 748.0
742.519653 120.0
742.703552 120.0
743.051453 144.0
743.220032 140.0
743.335632 452.0
743.39624 680.0
743.531372 112.0
743.724426 152.0
744.079285 176.0
744.233337 140.0
744.345276 1172.0
744.533813 124.0
744.810852 172.0
745.080994 108.0
745.348877 840.0
745.611084 104.0
745.85321 108.0
746.053284 124.0
746.334229 608.0
746.466003 124.0
746.667664 160.0
747.245972 120.0
747.33844 852.0
747.754517 156.0
747.973694 124.0
748.079895 136.0
748.34198 816.0
748.481995 196.0
748.706604 156.0
749.064087 184.0
749.215637 184.0
749.344727 352.0
749.408752 124.0
749.455933 120.0
749.655273 172.0
749.739197 140.0
749.834351 180.0
750.079041 152.0
750.148376 136.0
750.34259 248.0
750.535889 184.0
750.853455 116.0
750.976868 100.0
751.396606 728.0
751.956482 132.0
752.236633 136.0
752.406067 440.0
752.54541 156.0
752.797607 108.0
752.988586 112.0
753.179504 108.0
753.26001 128.0
753.375916 240.0
753.431458 140.0
753.557983 112.0
753.612427 112.0
753.896545 228.0
753.979248 100.0
754.164001 104.0
754.230286 244.0
754.308472 156.0
754.422241 176.0
754.612976 136.0
754.678772 104.0
754.780457 148.0
754.876038 120.0
754.965576 172.0
755.008545 252.0
755.08313 212.0
755.133484 316.0
755.255249 264.0
755.309753 316.0
755.401062 77932.0
755.553345 352.0
755.680542 116.0
755.723145 196.0
755.877808 156.0
755.974365 136.0
756.053406 316.0
756.110657 128.0
756.254944 160.0
756.320557 440.0
756.403442 33684.0
756.526978 496.0
756.619812 152.0
756.750122 140.0
756.919189 312.0
756.985229 140.0
757.087463 204.0
757.180237 144.0
757.295166 132.0
757.405273 7808.0
757.582031 144.0
757.715576 140.0
757.870911 156.0
757.95752 224.0
758.020691 200.0
758.101746 176.0
758.125916 196.0
758.226318 256.0
758.334167 148.0
758.404114 1368.0
758.615051 136.0
758.862793 96.0
759.094116 160.0
759.164185 160.0
759.355774 480.0
759.424316 364.0
759.673462 156.0
759.746216 168.0
759.82782 176.0
760.099304 184.0
760.234802 252.0
760.352966 280.0
760.413025 492.0
760.628418 212.0
760.797668 128.0
760.990479 112.0
761.242188 100.0
761.397583 636.0
761.942627 164.0
762.024109 208.0
762.357422 1712.0
762.69104 200.0
762.908386 104.0
763.085754 132.0
763.218811 152.0
763.271057 112.0
763.360168 752.0
763.847473 108.0
763.995361 148.0
764.372192 200.0
764.489197 148.0
764.542236 120.0
764.630066 96.0
765.375122 100.0
765.509338 156.0
765.654602 100.0
765.854858 144.0
766.831177 188.0
767.325989 132.0
767.971375 192.0
768.335815 180.0
768.376831 128.0
768.451294 144.0
769.244263 128.0
769.413086 2256.0
769.510315 176.0
769.875427 144.0
770.052124 140.0
770.188049 112.0
770.417786 2192.0
771.068726 172.0
771.156433 160.0
771.256592 280.0
771.42157 956.0
771.569275 184.0
771.766785 128.0
772.069336 148.0
772.380676 680.0
772.868591 100.0
772.924316 96.0
772.976562 156.0
773.377258 756.0
773.538574 96.0
773.753296 108.0
773.817871 180.0
774.078125 252.0
774.207947 108.0
774.37616 444.0
774.523376 96.0
774.678162 152.0
774.756836 112.0
774.851624 124.0
775.753113 124.0
776.365112 196.0
777.361816 184.0
777.439636 112.0
777.553955 144.0
777.751038 152.0
778.258789 112.0
778.37915 100.0
778.603271 140.0
778.796387 212.0
779.400635 2704.0
779.501892 252.0
779.588989 120.0
779.858887 152.0
780.13678 160.0
780.225769 116.0
780.404175 1664.0
780.770691 220.0
780.895447 120.0
780.947449 148.0
780.991577 160.0
781.397949 348.0
781.708557 160.0
781.903809 112.0
782.128235 148.0
782.417786 128.0
782.629272 148.0
782.810303 100.0
782.908813 136.0
783.158264 156.0
783.439819 140.0
783.490417 100.0
783.997009 96.0
784.218445 116.0
784.34845 120.0
784.905579 192.0
785.30658 200.0
785.404541 108.0
785.567871 104.0
785.629089 216.0
786.36908 116.0
786.528564 144.0
786.733398 292.0
786.797974 124.0
787.065491 148.0
787.423828 5952.0
787.554321 176.0
787.629211 104.0
787.684937 192.0
787.948669 120.0
788.059875 116.0
788.276123 148.0
788.427795 2904.0
788.563477 288.0
789.263489 144.0
789.339417 104.0
789.432007 1232.0
789.58783 148.0
789.705322 156.0
790.096863 156.0
790.231445 104.0
790.31427 112.0
790.362122 136.0
790.436646 356.0
790.589844 108.0
790.689026 148.0
790.958191 104.0
791.148132 108.0
791.40155 140.0
791.576416 116.0
791.630493 152.0
791.734802 168.0
792.613342 120.0
792.996033 112.0
793.227234 116.0
793.564758 224.0
793.61969 180.0
794.025757 164.0
794.131836 144.0
795.549255 120.0
795.700073 120.0
795.945984 124.0
796.371277 96.0
796.442444 132.0
796.573914 176.0
796.795471 124.0
796.946777 132.0
797.093872 100.0
797.243652 116.0
797.295654 112.0
797.410767 14880.0
797.531372 428.0
797.620911 280.0
797.789673 148.0
798.070679 108.0
798.278015 236.0
798.413696 8156.0
798.553284 176.0
798.613708 112.0
798.660339 116.0
798.758118 188.0
798.833069 192.0
799.081909 120.0
799.417969 2076.0
799.543884 368.0
799.740295 152.0
799.807373 164.0
799.853882 200.0
799.98468 144.0
800.04248 116.0
800.20343 100.0
800.430603 520.0
800.52301 136.0
800.563477 120.0
800.685425 152.0
800.806641 108.0
800.922791 132.0
801.129883 112.0
801.328064 208.0
801.886658 120.0
802.066162 180.0
802.207764 96.0
802.363464 156.0
802.464172 244.0
802.557983 152.0
802.852112 148.0
802.93335 172.0
803.223694 188.0
803.258484 248.0
803.376465 116.0
803.420227 240.0
803.662903 136.0
804.097107 96.0
804.216309 212.0
804.25769 144.0
804.295776 96.0
804.429565 192.0
804.48468 136.0
804.538391 108.0
804.916565 148.0
805.124573 132.0
805.219482 128.0
805.319031 136.0
805.427307 260.0
805.572998 104.0
805.729919 112.0
806.106506 124.0
806.199463 160.0
806.332031 120.0
806.412964 96.0
806.482544 252.0
806.569397 132.0
806.870544 112.0
806.918274 148.0
807.15564 108.0
807.247864 108.0
807.42157 184.0
807.466614 132.0
807.588074 200.0
807.709473 256.0
807.772217 116.0
808.125427 124.0
808.181519 208.0
808.245972 104.0
808.320129 164.0
808.471191 204.0
808.553589 120.0
808.661377 176.0
808.724731 152.0
808.804626 104.0
808.873413 204.0
808.960632 204.0
809.052795 176.0
809.180664 116.0
809.496094 228.0
809.574768 108.0
809.67572 132.0
809.749207 212.0
809.84967 164.0
809.952026 152.0
810.090088 164.0
810.483337 160.0
810.674561 124.0
810.821899 288.0
810.986877 164.0
811.033997 136.0
811.125305 240.0
811.234802 212.0
811.25061 108.0
811.352478 252.0
811.426758 424.0
811.578979 188.0
811.642517 116.0
811.766174 212.0
811.884827 184.0
812.018005 132.0
812.110535 204.0
812.165649 160.0
812.249634 124.0
812.318848 116.0
812.428772 284.0
812.506958 300.0
812.576843 236.0
812.629211 192.0
812.814026 240.0
812.888245 104.0
812.932251 224.0
812.973877 108.0
813.076477 424.0
813.13916 136.0
813.227173 352.0
813.306274 256.0
813.463928 228.0
813.538086 288.0
813.581909 224.0
813.664062 144.0
813.792603 256.0
813.847473 204.0
813.926025 132.0
814.008728 316.0
814.080566 360.0
814.141663 496.0
814.234314 420.0
814.310974 348.0
814.405579 256.0
814.496216 352.0
814.540588 312.0
814.585266 356.0
814.677246 464.0
814.773682 560.0
814.894958 756.0
814.933289 456.0
814.969177 300.0
814.983459 220.0
815.044189 420.0
815.10022 572.0
815.140625 620.0
815.196655 456.0
815.241089 744.0
815.425049 365316.0
815.609619 688.0
815.741089 292.0
815.784302 448.0
815.845337 380.0
815.948853 780.0
815.962585 684.0
815.978882 1284.0
816.051941 616.0
816.118103 472.0
816.134399 564.0
816.286011 572.0
816.42804 238080.0
816.580017 540.0
816.603333 272.0
816.625061 380.0
816.721802 272.0
816.79541 616.0
816.882751 476.0
816.935913 384.0
816.973816 556.0
817.092102 344.0
817.165222 244.0
817.265869 392.0
817.429138 67428.0
817.582092 228.0
817.671082 152.0
817.758667 508.0
817.840881 440.0
817.913818 332.0
817.984192 260.0
818.049988 120.0
818.111023 192.0
818.165222 336.0
818.206055 460.0
818.294922 204.0
818.431396 10876.0
818.532349 264.0
818.64325 316.0
818.78009 400.0
818.941101 204.0
819.148499 156.0
819.222107 368.0
819.28833 332.0
819.431763 1632.0
819.52478 272.0
819.580872 240.0
819.684692 332.0
819.745178 152.0
819.819519 320.0
819.937622 476.0
820.093872 276.0
820.166016 360.0
820.217896 208.0
820.304871 348.0
820.384705 448.0
820.44873 760.0
820.538208 340.0
820.5802 408.0
820.660645 360.0
820.732727 356.0
820.816711 400.0
820.853821 288.0
820.955261 516.0
821.018982 248.0
821.108521 284.0
821.176758 352.0
821.289978 148.0
821.384827 200.0
821.488098 260.0
821.530151 192.0
821.606628 220.0
821.674438 188.0
821.727661 300.0
821.780212 216.0
821.852783 224.0
822.06897 176.0
822.171021 204.0
822.214478 120.0
822.37323 152.0
822.449524 140.0
822.752319 292.0
822.831421 280.0
822.869141 188.0
823.013 124.0
823.084351 228.0
823.301086 136.0
823.353027 112.0
823.565125 224.0
823.664978 116.0
823.807739 112.0
823.868652 100.0
823.925293 228.0
824.2854 112.0
824.359802 248.0
824.614807 116.0
825.166138 100.0
825.305664 116.0
825.436035 128.0
825.636536 100.0
825.694519 168.0
825.989929 100.0
826.810364 172.0
827.364136 128.0
827.501343 256.0
827.556519 100.0
827.701782 120.0
827.752991 120.0
828.168396 160.0
828.327393 104.0
828.423157 124.0
828.669006 240.0
828.76001 128.0
828.840515 108.0
829.437744 1936.0
829.711548 116.0
830.098328 104.0
830.182861 168.0
830.445496 1104.0
830.647583 112.0
831.277405 112.0
831.445984 660.0
831.581116 96.0
831.701721 112.0
831.938049 108.0
832.153992 144.0
832.251038 104.0
832.396545 108.0
832.450867 220.0
832.656433 112.0
832.724426 152.0
832.968201 164.0
833.160339 116.0
833.576538 104.0
834.287231 164.0
834.501282 104.0
834.566162 176.0
834.648926 144.0
834.850708 172.0
834.919495 100.0
834.991394 152.0
835.067749 164.0
835.279968 100.0
835.479248 152.0
835.64856 116.0
835.690674 136.0
835.746887 96.0
835.800659 188.0
836.036987 160.0
836.110413 168.0
836.54364 160.0
836.819885 116.0
836.890564 120.0
837.048706 148.0
837.226868 144.0
837.384033 108.0
837.420288 148.0
837.599182 108.0
837.653503 108.0
837.836121 288.0
837.995117 144.0
838.101685 104.0
838.169678 116.0
838.248596 112.0
838.323853 200.0
838.531921 176.0
838.547058 244.0
838.685181 208.0
838.872803 112.0
838.971069 232.0
839.070312 116.0
839.194031 140.0
839.237854 152.0
839.321655 140.0
839.358154 164.0
839.445068 196.0
839.538025 140.0
839.717224 180.0
839.800171 180.0
839.844299 124.0
839.886475 148.0
840.009033 192.0
840.063232 112.0
840.109924 244.0
840.167969 120.0
840.226013 96.0
840.27478 112.0
840.399414 200.0
840.493835 192.0
840.573425 176.0
840.669434 140.0
840.843323 308.0
840.959167 244.0
841.069275 172.0
841.223999 144.0
841.290344 236.0
841.419922 136.0
841.569031 136.0
841.612671 160.0
841.662598 340.0
841.740234 140.0
841.807739 248.0
841.862976 144.0
841.931885 100.0
842.018677 212.0
842.119934 268.0
842.183228 212.0
842.248352 212.0
842.314575 296.0
842.408325 152.0
842.452393 256.0
842.520325 208.0
842.634888 140.0
842.742737 224.0
842.910583 208.0
843.170227 196.0
843.493347 176.0
843.556396 280.0
843.632324 120.0
843.720398 128.0
843.919067 124.0
843.965637 344.0
844.083984 204.0
844.186096 296.0
844.228455 116.0
844.315063 172.0
844.493225 284.0
844.625 220.0
844.677612 232.0
844.767334 272.0
844.823425 200.0
844.934204 160.0
845.004517 284.0
845.074341 104.0
845.1651 236.0
845.229858 108.0
845.362671 172.0
845.380554 232.0
845.427673 308.0
845.526978 300.0
845.657166 220.0
845.775269 328.0
845.83429 308.0
845.926575 184.0
845.968628 268.0
846.035461 240.0
846.109558 484.0
846.163269 424.0
846.256042 320.0
846.319641 460.0
846.398621 380.0
846.472351 408.0
846.553162 456.0
846.669067 660.0
846.717407 316.0
846.733521 364.0
846.819641 432.0
846.86908 236.0
846.934631 564.0
847.023193 964.0
847.199524 876.0
847.276611 720.0
847.328613 1036.0
847.450928 252424.0
847.606506 304.0
847.64978 240.0
847.838135 260.0
847.920593 304.0
847.992249 1408.0
848.072021 860.0
848.119446 556.0
848.216248 220.0
848.317566 680.0
848.454285 229372.0
848.670227 104.0
848.874146 624.0
848.963135 584.0
849.003723 472.0
849.200989 184.0
849.311279 364.0
849.456299 112004.0
849.744507 184.0
849.850769 648.0
849.93573 372.0
849.949219 380.0
850.109131 328.0
850.208374 192.0
850.341187 440.0
850.456665 19712.0
850.722229 224.0
850.769104 284.0
850.818176 176.0
850.859253 236.0
850.917603 276.0
850.959778 124.0
850.975525 184.0
851.062622 112.0
851.112976 108.0
851.170715 148.0
851.222595 172.0
851.261902 340.0
851.280884 240.0
851.302734 368.0
851.464417 2604.0
851.585571 116.0
851.733398 224.0
851.778809 368.0
851.872375 300.0
851.956543 216.0
852.024048 216.0
852.095886 260.0
852.21637 492.0
852.262146 284.0
852.348328 244.0
852.447083 224.0
852.540344 360.0
852.583679 484.0
852.699219 324.0
852.710449 436.0
852.790527 452.0
852.832825 404.0
852.848389 528.0
852.897644 360.0
852.984558 252.0
853.087708 332.0
853.227051 176.0
853.31427 128.0
853.387451 184.0
853.440796 292.0
853.523987 340.0
853.566833 256.0
853.626038 104.0
853.694214 488.0
853.785706 280.0
853.986572 176.0
854.138733 156.0
854.311707 176.0
854.436584 108.0
854.537415 216.0
854.640991 168.0
854.92627 164.0
854.986572 104.0
855.053101 132.0
855.366577 156.0
855.47467 108.0
855.797485 144.0
855.94043 176.0
856.095581 120.0
856.46051 116.0
856.593201 136.0
856.680237 152.0
856.748169 276.0
857.678528 192.0
858.403931 104.0
858.489929 108.0
858.648682 104.0
860.756897 148.0
863.099182 128.0
863.693481 100.0
863.975769 140.0
865.09137 96.0
866.020874 104.0
866.589111 104.0
867.702881 136.0
868.292847 116.0
868.361023 124.0
869.839539 108.0
870.085876 108.0
870.277649 148.0
870.490234 156.0
871.372314 104.0
871.726501 164.0
874.199219 108.0
875.051819 148.0
875.467285 100.0
876.930908 148.0
878.316528 208.0
878.46991 140.0
892.851074 152.0
893.659241 116.0
897.907288 144.0
908.464417 152.0
909.064453 144.0
915.797791 164.0
927.805969 112.0
928.859802 148.0
930.695312 152.0
942.304138 128.0
953.164856 160.0
971.512268 96.0
979.109863 284.0
991.734131 112.0
1004.677673 176.0
1009.666138 140.0
1014.369934 156.0
1017.697815 112.0
1021.642944 164.0
1029.457153 200.0
1038.121704 128.0
1040.95166 144.0
1050.479736 124.0
1058.248901 124.0
1060.005005 108.0
1062.481201 112.0
1062.587524 140.0
1063.512939 104.0
1064.372437 280.0
1064.766113 100.0
1069.896973 136.0
1072.310669 120.0
1076.000977 144.0
1076.889038 156.0
1084.371216 140.0
1085.776855 156.0
1100.697998 152.0
1101.236816 148.0
1103.774414 144.0
1115.128296 136.0
1116.299438 96.0
1125.123657 108.0
1129.388794 96.0
1136.508911 96.0
1146.202637 160.0
1146.994873 128.0
1148.751099 144.0
1153.495117 148.0
1165.109619 116.0
1168.399048 208.0
1178.022827 144.0
1179.471436 156.0
1192.776367 108.0
1198.10498 128.0
1199.950439 116.0
1208.845825 160.0
1219.819946 176.0
1233.650024 176.0
1236.900879 156.0
1240.25647 124.0
1245.231934 96.0
1246.916748 148.0
1247.700317 120.0
1253.148438 100.0
1253.552979 152.0
1255.68457 148.0
1265.943481 152.0
1271.177368 96.0
1274.157104 152.0
1277.407837 156.0
1280.651611 168.0
1287.051392 116.0
1291.078735 168.0
1296.759521 124.0
1300.739746 176.0
1314.006958 140.0
1317.356689 172.0
1328.178467 144.0
1349.26416 96.0
1351.490845 152.0
1352.842041 96.0
1353.613525 160.0
1361.618408 156.0
1363.595093 104.0
1366.370117 192.0
1367.694702 156.0
1372.689697 260.0
1374.437866 220.0
1378.262695 196.0
1378.679443 100.0
1379.260376 196.0
1379.67627 136.0
1380.439331 132.0
1383.743286 172.0
1384.046875 172.0
1385.671631 108.0
1387.368408 104.0
1387.643921 108.0
1393.421875 148.0
1394.511841 204.0
1398.751709 120.0
1401.174194 180.0
1402.746582 184.0
1403.313232 140.0
1407.521362 168.0
1408.092285 100.0
1418.126953 132.0
1421.429199 216.0
1430.583496 192.0
1439.963501 160.0
1440.446899 148.0
1441.330811 176.0
1445.42981 160.0
1448.904419 172.0
1450.336548 148.0
1453.457031 132.0
1454.956299 144.0
1459.971069 188.0
1460.997925 192.0
1462.321899 212.0
1463.669434 164.0
1474.035645 264.0
1480.139771 176.0
1480.721802 208.0
1483.983032 116.0
1485.182495 144.0
1486.080078 204.0
1486.363892 164.0
1486.809082 144.0
1488.029541 148.0
1489.388794 196.0
1491.990601 108.0
1492.967773 232.0
1496.394409 144.0
1498.543213 236.0
1499.182739 184.0
1504.744141 216.0
1515.324341 160.0
1517.161133 164.0
1517.808716 128.0
1522.626709 192.0
1525.148682 184.0
1525.366333 172.0
1525.552979 160.0
1525.980469 152.0
1528.233276 124.0
1538.773438 160.0
1542.8125 176.0
1547.624023 148.0
1549.746704 184.0
1550.868774 204.0
1553.499878 164.0
1557.044189 116.0
1558.495117 164.0
1565.574707 176.0
1571.873169 140.0
1572.830688 120.0
1576.792969 152.0
1577.077515 152.0
1578.374023 144.0
1582.274658 216.0
1586.62207 208.0
1589.130249 160.0
1590.336426 144.0
1594.585693 172.0
1599.612549 188.0
1600.687378 140.0
1602.654785 144.0
1608.596191 192.0
1610.922729 176.0
1614.217285 116.0
1616.012573 172.0
1620.688477 220.0
1621.24939 152.0
1624.737305 172.0
1631.627808 240.0
1632.914429 204.0
1633.984253 156.0
1635.078613 148.0
1636.744873 192.0
1642.226196 120.0
1643.459106 176.0
1645.562256 104.0
1646.626831 128.0
1648.061401 164.0
1650.405396 184.0
1652.832031 200.0
1652.896729 156.0
1653.998779 272.0
1660.765869 144.0
1664.171387 164.0
1666.72998 152.0
1667.924683 192.0
1669.51001 156.0
1678.116943 164.0
1679.886597 160.0
1684.008667 156.0
1686.394409 176.0
1688.773682 140.0
1692.005981 160.0
1695.659302 184.0
1696.979004 176.0
1699.11145 172.0
1700.128906 172.0
1701.392944 200.0
1703.0896 108.0
1703.224121 316.0
1706.305786 180.0
1707.341797 168.0
1708.468628 164.0
1711.093872 144.0
1711.587891 216.0
1712.213745 144.0
1716.202148 212.0
1716.941895 108.0
1717.043213 140.0
1718.631836 160.0
1719.266113 136.0
1719.68335 192.0
1720.71521 140.0
1723.796143 156.0
1723.928345 184.0
1733.75708 228.0
1734.580078 152.0
1736.437378 144.0
1737.327637 124.0
1742.472168 140.0
1742.821045 236.0
1744.43335 144.0
1748.725342 140.0
1750.709717 180.0
1751.756226 144.0
1754.629272 96.0
1755.715332 172.0
1757.708984 144.0
1759.812378 144.0
1760.580688 148.0
1760.722656 200.0
1767.16748 184.0
1768.661743 120.0
1769.311523 152.0
1769.561157 172.0
1770.254761 228.0
1772.249756 152.0
1774.420532 188.0
1779.25293 156.0
1779.588745 144.0
1790.14978 148.0
1790.427734 144.0
1795.484253 180.0
1796.580688 152.0
1798.706055 140.0
1804.316528 208.0
1804.984375 172.0
1807.361328 160.0
1810.500977 180.0
1811.786743 164.0
1816.587402 196.0
1816.706177 140.0
1819.574585 196.0
1820.720581 96.0
1822.496338 248.0
1831.777954 152.0
1834.095703 144.0
1836.18457 200.0
1839.648804 144.0
1853.315552 152.0
1853.375488 148.0
1855.098145 172.0
1862.50354 144.0
1863.345337 160.0
1866.413696 156.0
1870.457153 192.0
1870.870361 204.0
1871.154541 160.0
1871.541992 168.0
1878.522705 168.0
1879.212891 152.0
1880.093018 220.0
1880.533203 172.0
1883.062866 196.0
1884.496948 140.0
1885.879517 224.0
1887.824707 176.0
1892.696533 156.0
1895.130371 148.0
1895.329712 144.0
1900.341553 204.0
1901.156982 148.0
1904.37793 160.0
1910.131958 164.0
1913.047119 144.0
1919.130005 136.0
1919.293823 152.0
1922.608643 144.0
1923.568726 176.0
1928.119263 176.0
1928.932129 144.0
1930.296021 152.0
1930.960693 140.0
1932.963989 236.0
1936.553345 164.0
1939.278198 264.0
1941.715576 156.0
1942.31189 152.0
1946.384033 204.0
1948.219727 156.0
1948.553467 156.0
1949.730957 208.0
1950.478027 176.0
1952.14856 156.0
1960.278442 188.0
1963.059082 160.0
1964.311523 192.0
1964.787842 160.0
1965.650024 168.0
1968.371338 172.0
1968.494995 140.0
1968.577026 108.0
1972.63855 228.0
1972.965698 152.0
1974.760742 148.0
1975.848755 196.0
1976.016846 148.0
1978.618774 176.0
1979.282837 140.0
1980.097534 176.0
1980.894775 160.0
1981.284546 196.0
1984.013184 156.0
1984.505493 124.0
1985.317505 184.0
1986.160034 144.0
1987.63269 192.0
1989.869385 148.0
1993.453735 96.0
1994.661255 128.0
1996.071289 184.0
1998.250366 192.0
1998.882202 156.0
1999.45166 176.0
1999.558472 188.0
