>compound MLS000877024-01!2-(3,4-dihydroxyphenyl)-5,7-dihydroxy-2,3-dihydrochromen-4-one
>formula C15H12O6
>ionization [M+H]+
>parentmass 289.07016
#inchi InChI=1S/C15H12O6/c16-8-4-11(19)15-12(20)6-13(21-14(15)5-8)7-1-2-9(17)10(18)3-7/h1-5,13,16-19H,6H2
#inchikey SBHXYTNGIZCORC
#Ion_Source LC-ESI
#Instrument qTof
#Compound_Source NIH Natural Product Library
#PI Dorrestein
#Data_Collector VVP/LMS
#Scan -1
#Precursor_MZ 289.071
#ExactMass 288.063
#Charge 1
#CAS_Number N/A
#Pubmed_ID N/A
#Smiles Oc1cc(O)c2C(=O)CC(Oc2c1)c3ccc(O)c(O)c3
#INCHI_AUX N/A
#Library_Class 1
#SpectrumID CCMSLIB00000079900
#IonMode Positive
#UpdateWorkflowName UPDATE-SINGLE-ANNOTATED-GOLD
#LibraryQualityString Gold
#TaskID b1d8e8f6646f4e71acdff9ca3d919d08
##Scan# 1737
#SpectrumFile p1-F12_GF12_01_17944.mzXML
#LibraryName NIH_Natural_Products_Library.mgf
#MQScore -1
#Organism NIH_Natural_Products_Library
#TIC_Query 0
#RT_Query -1
#MZErrorPPM -1
#SharedPeaks 0
#MassDiff 0
#LibMZ -1
#SpecMZ 289.071
#SpecCharge 0
#internalFilename spec-00000.mgf

>collision 10
95.384537 116.0
95.56929 200.0
97.026299 216.0
97.240112 168.0
97.275444 200.0
98.587189 164.0
99.1968 172.0
100.232262 124.0
101.561722 172.0
103.056152 356.0
103.071632 324.0
105.034309 76.0
106.307426 172.0
107.014519 136.0
107.051331 396.0
107.090714 204.0
108.056801 200.0
109.503654 128.0
110.62912 32.0
110.788277 92.0
111.006256 164.0
111.046295 216.0
112.008766 124.0
113.060211 128.0
115.05143 176.0
115.532707 132.0
115.663239 160.0
117.0326 876.0
117.310829 80.0
118.047073 188.0
120.077621 212.0
120.518585 44.0
121.03479 124.0
123.042206 888.0
123.176895 164.0
123.685471 196.0
123.816101 132.0
124.048752 316.0
124.25943 156.0
124.588005 92.0
125.026283 184.0
125.257591 104.0
125.728035 112.0
128.061966 144.0
128.713699 168.0
129.023239 180.0
131.045425 116.0
132.09787 216.0
132.196259 196.0
133.030548 132.0
135.005127 128.0
135.044006 1900.0
135.197144 80.0
136.04631 272.0
136.263779 128.0
136.600861 168.0
136.821945 68.0
137.029022 144.0
137.052521 152.0
137.733734 64.0
138.301926 108.0
139.035828 200.0
139.669876 136.0
139.794571 180.0
141.065826 152.0
142.074646 180.0
142.333359 132.0
142.963287 152.0
143.754456 148.0
144.069626 120.0
145.026382 956.0
145.06514 172.0
145.091507 56.0
145.197006 96.0
145.285751 72.0
146.038193 148.0
146.0737 152.0
146.292679 224.0
151.04129 184.0
152.146866 172.0
152.689911 112.0
152.81044 216.0
153.017395 8776.0
153.093506 64.0
153.123062 36.0
153.228989 96.0
153.25116 80.0
153.362061 32.0
153.92453 120.0
153.956635 100.0
154.019211 996.0
154.24324 96.0
154.990082 140.0
155.020126 156.0
155.035797 180.0
155.156708 36.0
158.925308 128.0
159.044769 300.0
162.805161 36.0
163.039291 2212.0
163.07193 152.0
163.634109 96.0
164.040649 248.0
164.334991 68.0
165.034836 188.0
165.172928 108.0
166.118149 88.0
169.063843 376.0
177.040344 72.0
177.064178 120.0
179.031677 200.0
179.106659 44.0
180.040146 172.0
186.066467 132.0
187.032745 188.0
188.042694 160.0
195.517319 48.0
197.587738 80.0
201.049515 252.0
203.032669 148.0
204.97995 40.0
205.045975 304.0
205.071136 132.0
209.697113 96.0
211.038361 160.0
216.097443 168.0
218.862335 172.0
218.959503 172.0
225.052841 196.0
228.665787 124.0
229.018051 164.0
232.850143 188.0
240.004974 224.0
240.048141 176.0
244.117172 52.0
245.10083 128.0
247.444931 20.0
253.072906 128.0
264.985046 28.0
266.000092 80.0
271.053986 176.0
272.065491 76.0
289.07016 272.0
290.244568 192.0
293.215668 48.0
311.184479 48.0
858.728271 104.0
939.654602 152.0
969.688232 172.0
981.973633 188.0
1014.907837 152.0
1043.049683 136.0
1047.657104 212.0
1051.603394 68.0
1069.062988 52.0
1097.057251 48.0
1110.208374 156.0
1122.657471 136.0
1137.772583 160.0
1142.456665 152.0
1183.074097 136.0
1207.646729 148.0
1231.186523 84.0
1244.596436 188.0
1246.401733 144.0
1273.757202 116.0
1284.327515 48.0
1284.44873 136.0
1288.01062 108.0
1288.617798 140.0
1301.122559 176.0
1324.190186 124.0
1335.505493 92.0
1355.875488 180.0
1357.209595 180.0
1392.25415 172.0
1396.810303 120.0
1412.616943 176.0
1417.84314 64.0
1422.320801 124.0
1429.167114 144.0
1431.749023 132.0
1437.30481 156.0
1439.130493 176.0
1443.067871 124.0
1443.513916 208.0
1460.844482 196.0
1466.745972 140.0
1472.918945 136.0
1475.089111 220.0
1489.725464 184.0
1493.445923 200.0
