>compound MLS000876952-01!3,8-dimethyl-3-(4-methylpent-3-enyl)-11H-pyrano[3,2-a]carbazol-9-ol
>formula C23H25NO2
>ionization [M+H]+
>parentmass 348.195221
#inchi InChI=1S/C23H25NO2/c1-14(2)6-5-10-23(4)11-9-17-21(26-23)8-7-16-18-12-15(3)20(25)13-19(18)24-22(16)17/h6-9,11-13,24-25H,5,10H2,1-4H3
#inchikey WWXYBSVWYPHUPZ
#Ion_Source LC-ESI
#Instrument qTof
#Compound_Source NIH Natural Product Library
#PI Dorrestein
#Data_Collector VVP/LMS
#Scan -1
#Precursor_MZ 348.196
#ExactMass 347.189
#Charge 1
#CAS_Number N/A
#Pubmed_ID N/A
#Smiles CC(=CCCC1(C)Oc2ccc3c4cc(C)c(O)cc4[nH]c3c2C=C1)C
#INCHI_AUX N/A
#Library_Class 1
#SpectrumID CCMSLIB00000079847
#IonMode Positive
#UpdateWorkflowName UPDATE-SINGLE-ANNOTATED-GOLD
#LibraryQualityString Gold
#TaskID b1d8e8f6646f4e71acdff9ca3d919d08
##Scan# 2846
#SpectrumFile p1-H11_GH11_01_17967.mzXML
#LibraryName NIH_Natural_Products_Library.mgf
#MQScore -1
#Organism NIH_Natural_Products_Library
#TIC_Query 0
#RT_Query -1
#MZErrorPPM -1
#SharedPeaks 0
#MassDiff 0
#LibMZ -1
#SpecMZ 348.196
#SpecCharge 0
#internalFilename spec-00000.mgf

>collision 10
95.028244 112.0
95.076759 88.0
95.094223 148.0
95.121399 172.0
95.154404 148.0
95.327278 144.0
95.408913 148.0
95.449745 132.0
95.475021 228.0
95.55088 168.0
95.628723 232.0
95.780594 120.0
95.856583 156.0
95.952087 160.0
96.172523 160.0
96.401764 276.0
96.533958 132.0
96.843178 124.0
96.982292 188.0
97.154854 132.0
97.300087 144.0
97.380592 88.0
97.695107 108.0
97.771843 124.0
97.887993 140.0
97.949043 148.0
98.03968 200.0
98.124435 156.0
98.146126 260.0
98.213181 100.0
98.238823 212.0
98.477669 132.0
98.495445 104.0
98.538902 136.0
98.768227 204.0
98.801857 184.0
98.871109 164.0
98.983948 228.0
99.079018 168.0
99.116661 136.0
99.143745 240.0
99.340706 200.0
99.455795 140.0
99.53109 168.0
99.544472 144.0
99.662331 72.0
99.972542 80.0
100.10791 224.0
100.139771 192.0
100.209496 156.0
100.231415 128.0
100.450722 188.0
100.632332 160.0
100.674263 180.0
100.894058 144.0
100.910057 56.0
101.280273 132.0
101.404503 188.0
101.438576 108.0
101.526802 144.0
101.654701 148.0
101.767593 172.0
101.805748 148.0
101.859978 164.0
101.88208 172.0
101.988579 196.0
102.064972 124.0
102.107483 172.0
102.317253 124.0
102.413132 148.0
102.443352 112.0
102.554535 136.0
102.750877 228.0
102.868851 164.0
102.957695 148.0
103.056671 220.0
103.192093 68.0
103.260849 84.0
103.317482 72.0
103.457123 116.0
103.479393 120.0
103.515839 56.0
103.546219 152.0
103.584702 124.0
103.611038 212.0
103.676796 140.0
103.829956 64.0
103.86956 172.0
104.049103 148.0
104.1576 216.0
104.26239 80.0
104.551178 156.0
104.883163 64.0
104.905586 136.0
105.069824 896.0
105.117706 132.0
105.168137 208.0
105.248344 200.0
105.458763 184.0
105.516006 148.0
105.5569 136.0
105.689857 172.0
105.771721 72.0
105.921204 136.0
106.060539 156.0
106.07486 140.0
106.119987 208.0
106.174423 44.0
106.238945 164.0
106.321014 168.0
106.629082 108.0
106.651688 176.0
107.011696 180.0
107.085648 1432.0
107.180595 124.0
107.394997 140.0
107.469269 164.0
107.619942 64.0
107.652985 160.0
107.745934 196.0
108.006401 136.0
108.088593 312.0
108.161591 164.0
108.207138 128.0
108.242332 120.0
108.573906 212.0
109.041039 124.0
109.10096 996.0
109.236488 132.0
109.298904 72.0
109.323875 124.0
109.484177 52.0
109.986649 176.0
110.057632 160.0
110.074333 208.0
110.1063 144.0
110.141167 172.0
110.630493 80.0
110.766609 136.0
110.798035 100.0
111.095726 48.0
111.114609 420.0
111.437943 160.0
111.461052 152.0
111.654457 124.0
111.692314 80.0
111.759636 224.0
111.797516 164.0
111.829079 112.0
111.856445 72.0
111.940666 168.0
111.96804 152.0
112.12394 112.0
112.233559 160.0
112.465996 168.0
112.482513 48.0
112.502747 212.0
112.725395 144.0
112.831078 176.0
112.943153 164.0
112.99604 156.0
113.048943 156.0
113.106087 116.0
113.154778 208.0
113.192894 108.0
113.425941 32.0
113.445343 132.0
113.553162 224.0
113.958618 92.0
114.001114 112.0
114.328613 208.0
114.54792 132.0
114.618225 128.0
114.650192 108.0
114.686424 92.0
114.731194 176.0
114.75251 176.0
114.786629 52.0
114.827148 168.0
114.944481 160.0
115.004234 180.0
115.053337 148.0
115.204964 148.0
115.239143 188.0
115.341721 192.0
115.375931 260.0
115.397308 140.0
115.54274 164.0
115.600517 164.0
115.626198 176.0
115.716103 164.0
115.776054 64.0
115.896019 156.0
115.981743 132.0
116.024612 208.0
116.150879 168.0
116.209061 164.0
116.277725 84.0
116.617081 160.0
116.632126 148.0
116.651375 184.0
116.694466 44.0
116.849319 64.0
117.101181 200.0
117.241219 152.0
117.400749 164.0
117.48056 116.0
117.54097 132.0
117.599236 44.0
117.700706 152.0
117.771973 168.0
117.815178 144.0
117.895126 188.0
118.029152 84.0
118.068077 180.0
118.124313 276.0
118.163254 100.0
118.24115 108.0
118.403526 108.0
118.524841 168.0
118.581184 60.0
118.814407 144.0
118.847923 212.0
118.999855 184.0
119.085709 344.0
119.134506 168.0
119.408386 120.0
119.50193 116.0
119.57592 120.0
119.845947 176.0
119.898247 76.0
119.996338 164.0
120.018143 76.0
120.057396 228.0
120.100136 208.0
120.231926 108.0
120.303955 168.0
120.550766 136.0
120.80658 220.0
121.082375 92.0
121.09771 48.0
121.599792 132.0
121.670036 92.0
121.722733 168.0
121.852325 148.0
121.894073 100.0
122.057808 160.0
122.28553 112.0
122.554192 140.0
122.62912 40.0
122.67321 216.0
122.723915 204.0
122.765808 196.0
122.913612 148.0
123.116753 164.0
123.169708 188.0
123.313332 168.0
123.390701 148.0
123.583122 80.0
123.62516 152.0
123.795624 172.0
123.935173 112.0
124.161285 132.0
124.276634 136.0
124.380943 168.0
124.685234 116.0
124.771927 124.0
124.829735 140.0
125.041077 48.0
125.17363 200.0
125.239235 384.0
125.457619 96.0
125.473221 172.0
125.499977 208.0
125.528969 196.0
125.682877 148.0
125.76545 136.0
125.794472 100.0
125.89048 160.0
125.923981 116.0
125.955246 116.0
126.069199 212.0
126.13401 40.0
126.274879 212.0
126.440437 148.0
126.49192 60.0
126.529976 164.0
126.610588 76.0
126.686745 200.0
126.747948 88.0
126.812225 152.0
126.861542 136.0
126.908623 124.0
126.935532 216.0
126.96244 100.0
126.996078 136.0
127.020752 68.0
127.052162 136.0
127.081459 204.0
127.182312 216.0
127.521477 80.0
127.620392 204.0
127.647369 156.0
127.678902 180.0
128.149323 140.0
128.464951 172.0
128.512329 188.0
128.575134 116.0
128.670319 204.0
128.995636 112.0
129.011459 216.0
129.034073 244.0
129.052155 124.0
129.090591 36.0
129.160706 172.0
129.366623 76.0
129.393799 108.0
129.425491 120.0
129.463989 228.0
129.53421 232.0
129.726822 36.0
129.81752 128.0
129.93605 280.0
130.064819 176.0
130.366882 184.0
130.412338 156.0
130.632904 180.0
130.660202 212.0
130.696609 220.0
130.778534 120.0
130.794479 128.0
131.07193 160.0
131.086441 164.0
131.24556 120.0
131.469925 212.0
131.788803 184.0
131.90535 172.0
131.953369 124.0
132.056259 200.0
132.248459 68.0
132.291946 60.0
132.614929 180.0
132.972733 152.0
133.06456 112.0
133.115067 120.0
133.296539 140.0
133.335617 104.0
133.39537 176.0
133.595444 212.0
133.65065 136.0
133.694382 216.0
133.740402 188.0
133.772903 176.0
133.990433 168.0
134.064224 148.0
134.111252 220.0
134.274948 144.0
134.2957 140.0
134.422592 160.0
134.484909 100.0
134.787445 148.0
134.829041 156.0
135.115784 836.0
135.166672 156.0
135.293961 44.0
135.449127 104.0
135.743469 148.0
135.785202 224.0
135.999313 144.0
136.119888 340.0
136.21228 72.0
136.400513 144.0
136.491638 164.0
137.133713 104.0
137.306244 188.0
137.57692 120.0
137.65863 228.0
137.822144 156.0
138.250076 120.0
138.446732 176.0
138.512314 176.0
138.556824 176.0
138.681015 180.0
138.758377 184.0
138.795898 128.0
138.889694 200.0
138.917847 192.0
139.068024 228.0
139.230026 192.0
139.31694 84.0
139.352173 156.0
139.380295 156.0
139.441467 152.0
139.493179 232.0
139.57547 28.0
139.890732 120.0
139.973145 84.0
140.041443 176.0
140.064026 160.0
140.159225 72.0
140.442139 60.0
140.494034 104.0
140.682831 196.0
141.008789 140.0
141.069641 164.0
141.183746 176.0
141.209763 128.0
141.233414 64.0
141.280716 68.0
141.302017 136.0
141.496078 148.0
142.017426 176.0
142.066818 156.0
142.271332 168.0
142.461319 116.0
142.640579 204.0
142.83255 120.0
143.067154 164.0
143.338684 132.0
143.560959 148.0
143.656357 244.0
143.687378 148.0
143.74942 220.0
143.813858 100.0
143.844879 228.0
143.976196 168.0
144.078918 136.0
144.162537 84.0
144.198395 100.0
144.239029 44.0
144.291626 112.0
144.368134 192.0
144.449463 32.0
144.482941 96.0
144.523621 236.0
144.909103 96.0
145.016174 212.0
145.057693 160.0
145.227936 56.0
145.256729 232.0
145.388687 144.0
145.728683 116.0
145.849838 80.0
145.885895 104.0
145.924362 48.0
146.001297 148.0
146.061432 152.0
146.078278 184.0
146.275589 112.0
146.340591 160.0
146.432098 200.0
146.530869 124.0
146.798416 244.0
146.858719 160.0
146.922577 176.0
147.02037 148.0
147.061386 72.0
147.261795 164.0
147.559021 152.0
147.757339 108.0
147.808151 172.0
147.842041 176.0
148.076874 128.0
148.130157 116.0
148.200424 144.0
148.241608 224.0
148.304626 140.0
148.518005 148.0
148.58107 128.0
148.714539 92.0
148.867493 100.0
149.002853 164.0
149.176498 152.0
149.358429 180.0
149.377899 288.0
149.481979 124.0
149.574997 40.0
149.63829 184.0
149.672379 128.0
149.729523 172.0
149.764923 152.0
149.96228 116.0
150.037857 172.0
150.464798 160.0
150.601547 196.0
150.704147 140.0
150.723694 164.0
150.958374 164.0
151.095337 188.0
151.173645 140.0
151.221512 208.0
151.251968 160.0
151.403763 184.0
151.857178 136.0
152.03627 148.0
152.058365 336.0
152.308807 168.0
152.326004 232.0
153.009659 152.0
153.090912 120.0
153.167267 184.0
153.199295 156.0
153.366852 64.0
153.401367 200.0
153.833069 168.0
153.862686 132.0
153.894791 124.0
153.978745 184.0
154.06485 788.0
154.097321 224.0
154.116226 208.0
154.15416 168.0
154.22583 240.0
154.322235 52.0
154.428574 52.0
154.547318 152.0
154.577011 144.0
154.846863 96.0
154.916214 152.0
154.940994 224.0
154.968246 140.0
154.995499 120.0
155.074203 492.0
155.111984 168.0
155.201233 132.0
155.590759 220.0
155.672699 144.0
155.911194 176.0
156.081223 252.0
156.139923 320.0
156.172043 188.0
156.189972 196.0
156.236923 172.0
156.822113 144.0
156.929306 224.0
156.966339 164.0
156.990753 192.0
157.076447 164.0
157.096405 104.0
157.126328 140.0
157.251099 152.0
157.420868 112.0
157.448334 160.0
157.528275 196.0
157.885696 168.0
157.947647 192.0
158.020767 176.0
158.057831 360.0
158.074173 164.0
158.213486 156.0
158.338684 132.0
158.428848 104.0
158.581711 136.0
159.003067 144.0
159.065811 76.0
159.91037 144.0
160.072037 296.0
160.099197 40.0
160.134445 188.0
160.225143 124.0
160.313324 184.0
160.615875 116.0
160.835403 120.0
161.08287 172.0
161.153595 188.0
161.214249 152.0
161.29512 52.0
161.424072 236.0
161.454407 144.0
161.477173 128.0
161.563187 96.0
161.666916 168.0
161.707413 180.0
161.950485 372.0
162.39151 80.0
162.541183 192.0
162.58432 136.0
162.838211 108.0
162.911865 224.0
162.944901 200.0
163.133331 188.0
163.20668 120.0
163.244827 176.0
163.527222 184.0
163.55777 156.0
163.906677 140.0
164.013718 140.0
164.159042 156.0
164.43457 192.0
164.53923 180.0
164.595398 104.0
164.901962 108.0
164.965866 104.0
165.152527 148.0
165.321381 100.0
165.436569 40.0
165.508255 140.0
165.613251 164.0
165.687546 68.0
165.902817 160.0
166.066696 176.0
166.123352 160.0
166.285019 76.0
166.320953 164.0
166.354324 76.0
166.490402 184.0
166.829575 48.0
167.070358 444.0
167.094467 144.0
167.248871 132.0
167.277176 116.0
167.324631 148.0
167.408493 148.0
167.429092 136.0
167.478027 148.0
167.591385 160.0
167.61972 148.0
167.686737 164.0
167.867188 284.0
167.91362 144.0
168.083374 784.0
168.494415 160.0
168.587433 160.0
168.626205 256.0
168.732178 188.0
168.957184 60.0
169.054871 400.0
169.089157 164.0
169.171982 108.0
169.208237 216.0
169.275558 136.0
169.350662 276.0
169.376556 100.0
169.456863 148.0
169.581253 120.0
169.944305 240.0
169.970261 136.0
170.061691 404.0
170.099655 396.0
170.123383 144.0
170.149353 64.0
170.17012 48.0
170.227402 132.0
170.25061 156.0
170.27919 100.0
170.305161 196.0
170.461044 60.0
170.484421 136.0
170.747009 132.0
170.80423 148.0
170.905685 80.0
170.942123 168.0
171.06694 196.0
171.097397 280.0
171.353516 136.0
171.512482 168.0
171.726288 140.0
172.010712 160.0
172.082733 196.0
172.201309 72.0
172.480896 120.0
172.512268 144.0
172.710999 192.0
172.873215 124.0
172.930786 116.0
173.048584 92.0
173.182144 128.0
173.407471 148.0
173.753601 36.0
173.840195 92.0
173.86644 216.0
173.987183 188.0
174.050201 156.0
174.08696 156.0
174.186768 148.0
174.270828 156.0
174.541565 108.0
174.591537 88.0
174.88884 164.0
174.920425 200.0
175.110001 156.0
175.144241 128.0
175.173218 48.0
175.291779 120.0
175.442017 144.0
175.711029 184.0
175.776993 172.0
175.816574 180.0
175.858231 168.0
175.985519 164.0
176.003998 152.0
176.070023 148.0
176.183594 52.0
176.212662 204.0
176.561584 168.0
176.625061 236.0
176.664734 152.0
176.746765 104.0
176.775864 128.0
176.820862 144.0
176.863205 120.0
177.051193 156.0
177.128647 164.0
177.228668 120.0
177.326721 164.0
177.345276 144.0
177.42215 100.0
177.809418 72.0
177.864334 168.0
177.947464 200.0
177.992599 136.0
178.03775 100.0
178.061646 140.0
178.128052 200.0
178.159927 124.0
178.183838 140.0
178.239639 104.0
178.337967 96.0
178.420364 132.0
178.657059 164.0
178.845993 160.0
178.949814 168.0
178.96846 88.0
179.013718 144.0
179.060089 132.0
179.093628 156.0
179.152222 140.0
179.226822 124.0
179.394379 152.0
179.404343 132.0
179.584061 212.0
179.624069 112.0
179.720108 120.0
179.957657 176.0
180.079773 876.0
180.128586 112.0
180.542862 132.0
180.668579 76.0
180.764908 104.0
180.877304 176.0
181.007401 168.0
181.043304 56.0
181.086365 580.0
181.177231 168.0
181.324615 124.0
181.555176 164.0
181.858353 88.0
182.027481 196.0
182.0672 308.0
182.091583 252.0
182.24144 164.0
182.314926 168.0
182.411682 44.0
182.446625 208.0
182.586456 148.0
182.680603 124.0
182.720947 160.0
182.788223 60.0
182.833969 128.0
183.008942 76.0
183.033173 156.0
183.067276 8304.0
183.132812 208.0
183.167831 236.0
183.29715 56.0
183.326401 136.0
183.386093 104.0
183.407654 80.0
183.431915 164.0
183.488525 52.0
183.679993 32.0
183.745331 144.0
183.782516 168.0
183.909348 188.0
183.93364 192.0
183.98494 160.0
184.017334 144.0
184.072906 3276.0
184.131454 200.0
184.206375 68.0
184.252304 56.0
184.273911 64.0
184.365784 136.0
184.636139 60.0
184.679413 128.0
184.725403 116.0
184.866089 48.0
184.890442 172.0
184.917511 96.0
184.97435 152.0
185.009552 48.0
185.075836 536.0
185.163895 152.0
185.20723 192.0
185.226181 132.0
185.307465 288.0
185.334549 132.0
185.46463 284.0
185.830734 164.0
185.882294 152.0
185.936569 64.0
185.969131 60.0
186.093796 196.0
186.170044 168.0
186.268768 160.0
186.365631 184.0
186.384644 172.0
186.409103 160.0
186.574905 160.0
186.787018 192.0
186.825104 216.0
186.868637 128.0
186.918945 180.0
187.042801 168.0
187.105408 128.0
187.173477 68.0
187.200714 224.0
187.260635 164.0
187.355972 40.0
187.841217 220.0
187.860306 80.0
187.909409 100.0
187.985809 204.0
188.052933 220.0
188.071228 136.0
188.157776 160.0
188.622192 200.0
188.901108 180.0
189.065277 116.0
189.306183 212.0
189.333572 148.0
189.451355 188.0
189.659607 168.0
189.700729 140.0
189.807098 236.0
189.911865 120.0
189.969467 240.0
190.090195 144.0
190.278442 144.0
190.458084 132.0
190.502045 200.0
190.653152 128.0
190.672394 176.0
190.79335 132.0
191.07724 192.0
191.161911 172.0
191.346329 160.0
191.555634 140.0
191.919418 108.0
191.971817 148.0
192.066544 104.0
192.086258 268.0
192.142838 124.0
192.277725 176.0
192.377411 160.0
192.493378 180.0
192.552963 176.0
192.722641 208.0
192.805542 56.0
192.999039 112.0
193.029465 204.0
193.057114 156.0
193.081604 412.0
193.389114 168.0
193.602295 108.0
193.818359 92.0
194.062653 180.0
194.093231 596.0
194.212036 116.0
194.242554 164.0
194.414566 136.0
194.442322 140.0
194.520035 48.0
195.068909 328.0
195.099411 304.0
195.509521 92.0
195.64035 112.0
195.718307 72.0
195.77121 104.0
195.890976 192.0
196.074417 1664.0
196.108322 316.0
196.375992 160.0
196.521042 200.0
196.562897 124.0
196.590805 164.0
196.682907 144.0
196.727448 184.0
196.836456 124.0
196.886932 160.0
196.936996 112.0
197.006836 300.0
197.081909 4140.0
197.213623 68.0
197.233185 56.0
197.367371 184.0
197.398132 88.0
197.428894 116.0
197.473648 168.0
197.526794 60.0
197.576279 220.0
197.655487 72.0
197.683472 116.0
197.719849 124.0
197.85202 220.0
197.952332 192.0
197.99617 184.0
198.022217 180.0
198.055832 144.0
198.091324 9004.0
198.124588 228.0
198.221329 56.0
198.285583 204.0
198.308014 80.0
198.434158 168.0
198.490234 28.0
198.541412 128.0
198.692642 220.0
198.818451 144.0
198.908264 164.0
198.961594 164.0
199.006516 124.0
199.059799 1204.0
199.093567 1420.0
199.239639 88.0
199.259308 116.0
199.288574 220.0
199.353073 172.0
199.475693 60.0
199.565659 148.0
199.625305 112.0
199.699814 96.0
199.821609 176.0
199.866623 84.0
200.071259 624.0
200.098663 236.0
200.136841 160.0
200.235397 188.0
200.311447 72.0
200.339615 120.0
200.410049 124.0
200.446686 120.0
200.474869 148.0
200.67218 140.0
200.694733 148.0
200.787094 80.0
200.847031 100.0
200.869598 44.0
201.072754 180.0
201.143311 80.0
201.171539 32.0
201.225174 164.0
201.256241 156.0
201.459595 160.0
201.507614 232.0
201.533051 120.0
201.583908 44.0
201.688477 152.0
201.708267 140.0
201.747849 112.0
201.92598 92.0
201.957443 196.0
202.066849 436.0
202.285339 56.0
202.361771 124.0
202.387253 56.0
202.901047 176.0
203.002151 188.0
203.064545 132.0
203.084396 156.0
203.234756 88.0
203.325562 200.0
203.535645 192.0
203.636841 164.0
203.706039 180.0
203.941895 180.0
204.060501 216.0
204.081772 196.0
204.12384 120.0
204.197784 92.0
204.368469 32.0
204.414001 68.0
204.661636 112.0
204.823975 220.0
204.955032 52.0
205.012024 80.0
205.090195 160.0
205.542419 160.0
205.573807 152.0
205.643707 196.0
205.68512 68.0
205.899261 200.0
205.962097 56.0
205.984955 112.0
206.059479 440.0
206.091156 232.0
206.133514 172.0
206.373627 172.0
206.410797 56.0
206.513748 120.0
206.754074 128.0
206.839951 60.0
207.026047 168.0
207.067413 768.0
207.097107 168.0
207.172134 56.0
207.309662 220.0
207.362549 228.0
207.448746 188.0
207.573395 100.0
207.676636 48.0
207.719666 140.0
207.796692 160.0
207.871719 216.0
207.897293 88.0
208.023834 136.0
208.075211 412.0
208.111633 328.0
208.428802 88.0
208.644363 136.0
208.673111 128.0
208.744995 180.0
209.002304 160.0
209.037704 196.0
209.081757 1416.0
209.131958 32.0
209.294601 52.0
209.37236 164.0
209.453003 168.0
209.484695 52.0
209.540497 152.0
209.564056 124.0
209.695038 80.0
209.758453 208.0
209.778625 160.0
209.853531 188.0
209.879532 120.0
210.090515 3868.0
210.153549 28.0
210.266098 28.0
210.335373 136.0
210.37001 128.0
210.456619 228.0
210.49704 28.0
210.618347 128.0
210.6819 32.0
210.75412 88.0
210.864655 144.0
210.918854 72.0
211.061462 580.0
211.095825 2876.0
211.213791 52.0
211.245621 52.0
211.393173 52.0
211.487518 140.0
211.630539 88.0
211.679764 92.0
211.731888 144.0
211.778229 40.0
211.821671 180.0
211.873825 252.0
211.95784 164.0
212.031158 216.0
212.068893 3404.0
212.098389 512.0
212.152039 96.0
212.175232 84.0
212.517471 92.0
212.642242 88.0
212.784485 144.0
212.964523 48.0
213.034454 164.0
213.077728 5236.0
213.220215 52.0
213.259781 156.0
213.321945 32.0
213.614441 164.0
213.705841 88.0
213.755295 40.0
214.08313 1648.0
214.17453 132.0
214.232803 56.0
214.296555 172.0
214.445511 192.0
214.483398 40.0
214.562119 84.0
214.665543 136.0
214.707916 124.0
214.745819 164.0
214.824585 32.0
214.885849 60.0
214.999649 76.0
215.083496 412.0
215.218582 180.0
215.341232 68.0
215.382126 68.0
215.443481 136.0
215.513992 144.0
215.536972 124.0
215.572037 84.0
215.984268 72.0
216.089584 160.0
216.230042 240.0
216.25737 72.0
216.446686 136.0
216.965286 96.0
216.991669 196.0
217.095322 148.0
217.238022 164.0
217.422867 192.0
217.954391 212.0
218.024689 252.0
218.0896 288.0
218.114029 176.0
218.274796 100.0
218.339493 72.0
218.589539 144.0
218.669006 132.0
218.727875 160.0
218.827957 144.0
218.901581 188.0
219.025269 124.0
219.062912 320.0
219.106537 184.0
219.452591 160.0
219.511566 188.0
219.537033 232.0
219.641342 176.0
219.744583 144.0
219.998398 132.0
220.042679 124.0
220.074432 2272.0
220.110901 608.0
220.343933 180.0
220.370529 168.0
220.692688 200.0
221.082336 4032.0
221.121643 188.0
221.14827 140.0
221.207474 76.0
221.299255 92.0
221.346619 40.0
221.396973 224.0
221.482513 184.0
221.508087 140.0
221.719894 104.0
221.776199 88.0
221.977798 128.0
222.088943 2088.0
222.149826 108.0
222.179489 72.0
222.334656 124.0
222.49704 192.0
222.624725 80.0
222.651459 68.0
222.776199 160.0
222.834518 236.0
222.883163 220.0
223.064789 956.0
223.098282 2340.0
223.245819 116.0
223.272583 92.0
223.382645 52.0
223.48082 184.0
223.517288 156.0
223.619858 136.0
223.656403 96.0
223.724869 132.0
223.858856 176.0
223.882675 108.0
224.067215 1124.0
224.104599 3508.0
224.159729 112.0
224.186539 64.0
224.290863 100.0
224.475708 132.0
224.515198 124.0
224.599289 128.0
224.627808 60.0
224.648697 144.0
224.723282 60.0
224.943512 136.0
224.994873 148.0
225.039658 80.0
225.075562 1428.0
225.10849 484.0
225.275604 164.0
225.322632 156.0
225.442917 132.0
225.616455 136.0
225.720932 124.0
225.795685 68.0
225.828598 240.0
225.897385 224.0
225.961182 384.0
225.99173 128.0
226.085464 23092.0
226.119659 840.0
226.164627 196.0
226.222351 156.0
226.273743 148.0
226.322372 48.0
226.358307 92.0
226.412216 56.0
226.436172 128.0
226.514053 116.0
226.567963 76.0
226.609909 36.0
226.633331 136.0
226.822693 148.0
226.94043 132.0
226.990585 44.0
227.088547 3148.0
227.167542 44.0
227.269547 132.0
227.371582 28.0
227.425598 168.0
227.533676 104.0
227.650772 212.0
227.704834 196.0
227.776917 188.0
227.81897 236.0
227.846008 44.0
228.092026 264.0
228.146545 208.0
228.212692 80.0
228.233734 232.0
228.366058 68.0
228.461273 244.0
228.647385 228.0
228.706177 100.0
228.728516 172.0
228.760239 124.0
228.802383 124.0
228.992096 212.0
229.079453 224.0
229.145721 180.0
229.250763 140.0
229.745682 140.0
229.815063 108.0
229.872406 128.0
229.986191 188.0
230.089722 172.0
230.295074 120.0
230.443085 188.0
230.464249 132.0
230.497482 196.0
231.099518 264.0
231.474533 76.0
231.932007 212.0
232.079468 160.0
232.099838 180.0
232.392975 136.0
232.614517 116.0
232.650955 164.0
232.796692 120.0
232.83313 156.0
232.957672 208.0
233.083557 1132.0
233.127823 196.0
233.182526 128.0
233.301071 40.0
233.322769 148.0
233.395325 136.0
233.462219 60.0
233.854691 132.0
234.09111 2908.0
234.128281 676.0
234.174393 160.0
234.298416 156.0
234.332794 224.0
234.448578 108.0
234.613174 52.0
234.680252 124.0
234.817474 168.0
234.875427 136.0
235.012711 88.0
235.063507 504.0
235.095444 1608.0
235.156143 84.0
235.235504 60.0
235.614182 136.0
235.671722 164.0
235.683655 136.0
235.754745 196.0
235.852539 80.0
235.9198 164.0
235.971771 148.0
236.029861 144.0
236.070419 2636.0
236.105743 4072.0
236.161362 72.0
236.216431 228.0
236.263748 120.0
236.311264 140.0
236.341858 100.0
236.446823 80.0
236.49794 108.0
236.519363 148.0
236.583649 28.0
236.797989 120.0
236.853134 80.0
236.911331 44.0
237.036957 136.0
237.07663 5576.0
237.110229 1296.0
237.184067 64.0
237.248444 36.0
237.331223 64.0
237.352676 216.0
237.403793 168.0
237.450821 96.0
237.512741 148.0
237.545898 140.0
237.628738 76.0
237.768723 144.0
237.797516 100.0
237.838409 184.0
238.083466 1844.0
238.121719 2012.0
238.184387 108.0
238.307281 44.0
238.371796 60.0
238.457855 44.0
238.58696 128.0
238.734543 204.0
238.774521 68.0
238.808365 104.0
239.093185 784.0
239.125763 852.0
239.171432 36.0
239.294571 116.0
239.328445 48.0
239.608719 108.0
239.844986 168.0
239.938492 80.0
239.969315 100.0
240.100143 1000.0
240.296249 116.0
240.379562 128.0
240.558578 208.0
240.592529 52.0
240.635757 148.0
240.711578 72.0
240.922974 96.0
240.997131 172.0
241.049652 136.0
241.100067 324.0
241.14946 176.0
241.352585 68.0
241.429138 172.0
241.773285 128.0
241.819717 40.0
242.113831 72.0
242.181976 92.0
242.574936 176.0
243.006577 52.0
243.105881 156.0
243.307632 100.0
243.335571 52.0
243.422516 172.0
243.556061 52.0
243.697205 216.0
244.025314 104.0
244.062637 176.0
244.116043 136.0
244.298996 204.0
244.382996 244.0
244.454575 156.0
244.498138 132.0
244.765854 32.0
245.043076 124.0
245.08046 188.0
245.116745 276.0
245.189529 204.0
245.410858 160.0
245.541824 60.0
245.594849 164.0
245.831955 92.0
245.928711 68.0
245.966171 76.0
246.08989 1024.0
246.173126 180.0
246.337769 132.0
246.415863 164.0
246.595261 108.0
246.753418 36.0
246.794052 132.0
246.859726 68.0
247.009857 172.0
247.096344 3356.0
247.27269 48.0
247.332153 28.0
247.629608 164.0
247.805023 84.0
247.902161 176.0
247.980515 308.0
248.069016 564.0
248.103958 2000.0
248.159195 36.0
248.237595 112.0
248.416367 112.0
248.501083 160.0
248.595215 132.0
248.799225 180.0
248.899704 100.0
248.990768 36.0
249.037888 172.0
249.077454 7708.0
249.111969 2276.0
249.185532 28.0
249.210449 60.0
249.260941 180.0
249.28215 112.0
249.314362 124.0
249.381638 108.0
249.440079 152.0
249.487244 56.0
249.533463 108.0
249.584702 72.0
249.66011 172.0
249.710495 80.0
249.811157 76.0
249.924408 40.0
249.97702 128.0
250.085236 7460.0
250.12001 1516.0
250.166748 140.0
250.207687 164.0
250.265213 132.0
250.396606 52.0
250.449188 156.0
250.564423 192.0
250.702209 184.0
250.787308 60.0
250.885025 48.0
251.092667 6408.0
251.126709 1428.0
251.170639 28.0
251.213226 56.0
251.241394 172.0
251.269775 120.0
251.295013 52.0
251.320267 116.0
251.392014 76.0
251.481201 180.0
251.536163 68.0
251.759033 84.0
251.837997 144.0
252.019394 76.0
252.099716 1668.0
252.134033 368.0
252.217163 92.0
252.251938 104.0
252.365753 124.0
252.441635 68.0
252.473267 44.0
252.508057 220.0
252.713669 112.0
252.786453 104.0
252.837082 180.0
252.941528 52.0
252.995346 80.0
253.023834 100.0
253.097397 292.0
253.137833 92.0
253.318359 60.0
253.429245 76.0
253.597198 40.0
253.628906 100.0
253.657425 80.0
253.780502 112.0
253.974518 48.0
253.999893 128.0
254.023575 112.0
254.115082 2636.0
254.183914 68.0
254.374344 76.0
254.520386 112.0
254.561661 60.0
254.866608 104.0
255.028687 96.0
255.12088 516.0
255.14743 256.0
255.219421 152.0
255.480225 136.0
255.562943 120.0
255.804825 124.0
256.129608 56.0
256.167847 88.0
256.327148 168.0
256.470581 128.0
256.511993 68.0
257.084808 168.0
257.229736 44.0
257.363831 116.0
257.412415 228.0
257.47879 100.0
257.871765 228.0
258.085663 132.0
258.393005 164.0
258.514587 60.0
258.607391 44.0
258.70343 88.0
258.802673 244.0
258.834717 164.0
258.88913 168.0
259.071564 168.0
259.095093 368.0
259.236633 160.0
259.315247 48.0
259.546051 92.0
259.728851 312.0
259.889282 52.0
260.036896 140.0
260.069 108.0
260.10318 420.0
260.90097 124.0
261.073486 156.0
261.113007 348.0
261.792236 64.0
261.961304 132.0
262.017731 56.0
262.089417 776.0
262.119354 1576.0
262.415161 152.0
262.481873 64.0
262.510895 48.0
262.741364 168.0
262.768921 184.0
262.828857 104.0
262.865723 184.0
262.985779 120.0
263.049683 164.0
263.091431 3680.0
263.182068 168.0
263.21759 292.0
263.29187 84.0
263.343536 100.0
263.383942 188.0
263.443665 104.0
263.492126 76.0
263.530884 72.0
263.569672 60.0
263.627838 40.0
263.663391 96.0
263.718323 132.0
263.7453 220.0
263.796051 160.0
263.850403 200.0
263.883209 136.0
263.935272 316.0
264.001007 292.0
264.031891 368.0
264.036438 288.0
264.102203 99464.0
264.177673 120.0
264.207794 160.0
264.312592 112.0
264.338135 156.0
264.379089 80.0
264.434937 140.0
264.488159 72.0
264.523315 180.0
264.559357 100.0
264.591736 48.0
264.637054 176.0
264.731781 84.0
264.76413 136.0
264.797699 236.0
264.845764 36.0
264.88559 228.0
264.990112 104.0
265.021729 152.0
265.050781 156.0
265.105408 18576.0
265.178833 136.0
265.22345 108.0
265.246124 92.0
265.27652 100.0
265.330658 116.0
265.417694 96.0
265.492523 32.0
265.528198 68.0
265.56131 68.0
265.611023 68.0
265.664459 48.0
265.74881 76.0
265.83316 44.0
265.875366 120.0
265.908203 140.0
265.946747 96.0
265.987732 60.0
266.046539 212.0
266.115814 9816.0
266.227509 148.0
266.246429 104.0
266.298645 64.0
266.325745 188.0
266.345123 116.0
266.412598 80.0
266.448242 84.0
266.472839 68.0
266.495575 104.0
266.539886 76.0
266.598175 56.0
266.64505 60.0
266.690552 44.0
266.726074 92.0
266.76532 128.0
266.791321 92.0
266.81308 96.0
266.835419 100.0
266.872345 216.0
266.932159 168.0
266.956451 136.0
266.965973 80.0
266.976105 108.0
267.020752 116.0
267.064178 120.0
267.121887 1052.0
267.184753 152.0
267.221802 108.0
267.272705 44.0
267.3638 80.0
267.389832 56.0
267.454956 96.0
267.555847 52.0
267.61499 136.0
267.714111 96.0
267.74826 104.0
267.768341 124.0
267.824341 160.0
267.879028 136.0
267.933655 80.0
268.125 992.0
268.35141 108.0
268.412781 36.0
268.524872 32.0
268.915161 104.0
268.986969 68.0
269.055542 80.0
269.136932 120.0
269.542206 56.0
269.73175 68.0
269.895233 116.0
270.595428 196.0
270.99826 76.0
271.381744 64.0
271.578522 96.0
271.959137 84.0
272.093719 140.0
272.11554 136.0
272.76059 72.0
273.111145 488.0
273.408539 88.0
273.556671 124.0
273.587158 76.0
274.122559 456.0
274.34729 92.0
274.637482 72.0
275.128601 300.0
276.037781 76.0
276.100861 1132.0
276.259979 68.0
276.464539 56.0
276.606842 196.0
276.861786 84.0
277.024109 152.0
277.108429 3128.0
277.162689 100.0
277.311768 108.0
277.507965 136.0
277.793182 40.0
278.012177 100.0
278.115997 2112.0
278.330841 112.0
278.370697 44.0
278.413849 40.0
278.46701 128.0
278.550049 76.0
278.616486 128.0
278.859039 68.0
279.001984 72.0
279.055176 124.0
279.125427 1960.0
279.241394 96.0
279.317902 76.0
279.351166 188.0
279.421021 88.0
279.640656 84.0
279.760498 100.0
279.893677 148.0
280.026886 72.0
280.131897 2252.0
280.230072 116.0
280.486694 116.0
280.683411 64.0
280.776764 136.0
281.131805 612.0
281.217163 76.0
281.287262 72.0
281.624512 56.0
282.032166 48.0
282.078949 60.0
283.169769 48.0
283.431061 44.0
283.702545 116.0
284.111694 72.0
284.453979 92.0
285.119019 120.0
287.095215 104.0
287.122192 168.0
288.086731 148.0
288.105316 152.0
288.142517 164.0
289.010529 92.0
289.112061 140.0
289.93161 144.0
290.116028 1092.0
290.151642 88.0
290.18924 196.0
290.510193 176.0
290.670898 48.0
290.939026 68.0
291.074829 148.0
291.125702 400.0
291.27771 164.0
291.424683 64.0
291.513031 132.0
291.581024 52.0
291.638794 140.0
292.131927 2924.0
292.427887 48.0
292.523193 76.0
292.628723 148.0
292.652557 28.0
292.67981 52.0
292.812622 176.0
293.037598 80.0
293.132446 1064.0
293.429382 76.0
293.514618 36.0
293.82843 116.0
294.120941 140.0
294.148346 284.0
294.504333 56.0
294.582886 80.0
294.753723 40.0
295.081848 288.0
295.126312 52.0
295.201538 72.0
295.492279 64.0
297.016754 148.0
299.512268 152.0
300.118805 108.0
301.109222 112.0
301.60675 76.0
301.630951 60.0
302.149689 132.0
303.115021 144.0
304.134583 228.0
305.137909 624.0
305.539246 160.0
305.821106 124.0
306.145752 468.0
306.625671 36.0
307.131226 172.0
307.455719 112.0
307.766388 120.0
308.209991 152.0
308.40918 76.0
308.636444 112.0
308.769318 100.0
309.322144 108.0
310.64325 120.0
316.125641 120.0
316.153931 164.0
316.178711 136.0
316.387543 72.0
317.14917 140.0
318.144867 172.0
318.774628 100.0
319.148773 124.0
320.115753 120.0
320.147797 128.0
320.204773 304.0
321.13858 40.0
321.68808 88.0
323.09613 176.0
325.669952 48.0
328.441498 124.0
332.165375 324.0
333.376343 64.0
333.627136 116.0
334.13266 88.0
334.289124 136.0
335.33432 44.0
335.418152 56.0
339.183197 128.0
340.287445 88.0
344.223633 80.0
347.18042 72.0
348.195221 580.0
349.19696 108.0
349.2789 160.0
354.341064 56.0
355.916382 148.0
357.137787 76.0
358.534607 92.0
359.002075 64.0
361.942017 104.0
364.388458 128.0
364.90155 60.0
365.582428 44.0
366.667816 100.0
369.145447 84.0
372.902527 96.0
376.632294 20.0
384.615723 112.0
386.781219 72.0
388.077972 60.0
388.525085 72.0
399.970886 84.0
402.493195 96.0
403.160309 128.0
404.052002 80.0
407.170593 80.0
410.861755 76.0
411.818451 120.0
413.496338 112.0
415.084381 160.0
420.968658 80.0
424.553558 100.0
432.112274 96.0
441.103516 120.0
442.714355 84.0
448.676788 80.0
452.208221 100.0
452.851807 88.0
457.109955 68.0
457.714417 64.0
463.515259 48.0
477.046265 80.0
477.441925 84.0
477.659393 52.0
480.792145 56.0
481.661011 156.0
482.42572 52.0
483.379211 40.0
489.309143 64.0
490.09314 104.0
497.572327 32.0
507.306885 104.0
513.846008 48.0
514.157349 36.0
522.385742 112.0
529.387329 124.0
537.200989 36.0
537.454712 40.0
537.537781 36.0
538.437988 76.0
538.73822 72.0
539.667175 44.0
540.61084 72.0
542.63501 52.0
546.504028 60.0
563.793823 104.0
574.887573 52.0
579.497131 136.0
583.509583 68.0
589.549316 108.0
590.356628 64.0
594.67334 44.0
595.969971 60.0
614.522461 44.0
636.363281 72.0
648.140991 92.0
652.668701 52.0
657.110168 32.0
660.261902 72.0
660.538086 108.0
660.722229 44.0
663.292969 72.0
664.841919 164.0
666.027954 116.0
667.533813 68.0
668.753113 56.0
674.866272 124.0
676.728943 84.0
677.429993 176.0
677.899597 48.0
680.249146 104.0
683.637939 28.0
689.71405 64.0
690.95343 160.0
693.105347 108.0
694.856567 120.0
715.516602 64.0
732.024475 20.0
737.943787 96.0
740.763428 100.0
742.834167 52.0
743.593811 84.0
744.71228 112.0
747.610046 116.0
767.346313 92.0
774.746582 60.0
782.917236 36.0
793.668762 84.0
805.930786 44.0
810.760803 72.0
813.880798 108.0
825.145142 124.0
829.530396 68.0
831.107544 168.0
835.370544 148.0
841.519836 48.0
851.027039 52.0
859.385254 144.0
859.519409 108.0
867.010498 112.0
870.923889 104.0
901.334778 56.0
908.951538 44.0
932.84491 192.0
933.507629 68.0
940.269897 72.0
952.552551 136.0
979.137451 68.0
998.180847 52.0
1003.116943 180.0
1025.059326 72.0
1029.620605 64.0
1029.952637 224.0
1033.635254 56.0
1061.949829 68.0
1062.864624 56.0
1091.094116 244.0
1092.587036 124.0
1093.396362 124.0
1099.974365 80.0
1109.871826 152.0
1110.727295 168.0
1113.581421 172.0
1121.519287 220.0
1135.781616 92.0
1137.827393 136.0
1142.936523 112.0
1154.390625 160.0
1156.047974 112.0
1170.391357 84.0
1193.196167 96.0
1200.950073 104.0
1212.395996 208.0
1235.439941 188.0
1237.931763 212.0
1238.218872 48.0
1244.115967 184.0
1258.647949 128.0
1264.586304 112.0
1265.35083 132.0
1279.7854 216.0
1284.075317 156.0
1285.302368 68.0
1286.94397 184.0
1291.925537 68.0
1292.376221 196.0
1293.907837 176.0
1295.418945 144.0
1301.055664 124.0
1301.464844 36.0
1308.79187 172.0
1308.849487 136.0
1315.013184 144.0
1325.59375 172.0
1337.457275 164.0
1339.055542 52.0
1348.233521 164.0
1348.69397 140.0
1349.498047 148.0
1351.055908 56.0
1357.684814 212.0
1366.999878 184.0
1368.722412 172.0
1369.871338 172.0
1374.597412 184.0
1387.697144 92.0
1387.852783 104.0
1389.031982 168.0
1405.914185 208.0
1411.030884 128.0
1412.302124 168.0
1423.709351 156.0
1423.972168 152.0
1430.56665 188.0
1432.34375 160.0
1433.406006 80.0
1449.961426 140.0
1450.835449 132.0
1453.429321 208.0
1458.251709 156.0
1458.373291 44.0
1460.487061 152.0
1477.215332 168.0
1481.111572 164.0
1482.414062 272.0
1490.202393 64.0
1491.931641 176.0
1493.500366 88.0
1495.154541 100.0
1496.771118 172.0
1497.2948 172.0
1498.650635 120.0
1499.15918 128.0
1500.446411 28.0
1502.328125 124.0
1503.547241 156.0
