>compound MLS000863596-01!(2Z)-6-hydroxy-2-[(4-hydroxy-3-methoxyphenyl)methylidene]-1-benzofuran-3-one
>formula C16H12O5
>ionization [M+H]+
>parentmass 285.0757499360905
#inchi InChI=1S/C16H12O5/c1-20-14-6-9(2-5-12(14)18)7-15-16(19)11-4-3-10(17)8-13(11)21-15/h2-8,17-18H,1H3/b15-7-
#inchikey HPSPCMSCDNHZJM
#Ion_Source LC-ESI
#Instrument qTof
#Compound_Source NIH Natural Product Library
#PI Dorrestein
#Data_Collector VVP/LMS
#Scan -1
#Precursor_MZ 285.076
#ExactMass 284.068
#Charge 1
#CAS_Number N/A
#Pubmed_ID N/A
#Smiles COc1cc(/C=C/2\Oc3cc(O)ccc3C2=O)ccc1O
#INCHI_AUX N/A
#Library_Class 1
#SpectrumID CCMSLIB00000080392
#IonMode Positive
#UpdateWorkflowName UPDATE-SINGLE-ANNOTATED-GOLD
#LibraryQualityString Gold
#TaskID b1d8e8f6646f4e71acdff9ca3d919d08
##Scan# 1872
#SpectrumFile p2-B08_GB8_01_17996.mzXML
#LibraryName NIH_Natural_Products_Library.mgf
#MQScore -1
#Organism NIH_Natural_Products_Library
#TIC_Query 0
#RT_Query -1
#MZErrorPPM -1
#SharedPeaks 0
#MassDiff 0
#LibMZ -1
#SpecMZ 285.076
#SpecCharge 0
#internalFilename spec-00000.mgf

>collision 10
95.004753 124.0
95.053261 176.0
95.299858 188.0
95.519539 156.0
96.018158 164.0
96.664787 132.0
97.57489 260.0
97.710594 144.0
98.137985 72.0
99.447578 152.0
99.46743 32.0
99.695839 60.0
100.029976 164.0
100.895767 88.0
101.558586 132.0
101.719109 176.0
101.755241 192.0
102.104881 124.0
102.271873 188.0
102.449081 140.0
102.578049 156.0
103.052307 104.0
103.551964 284.0
104.475548 196.0
104.870583 128.0
105.035744 360.0
105.42775 96.0
105.722237 72.0
105.914688 168.0
106.04203 216.0
106.136024 116.0
106.787018 76.0
106.914574 136.0
107.043388 188.0
107.165787 140.0
107.268829 128.0
107.44825 148.0
107.48539 124.0
107.516342 204.0
107.79306 196.0
107.855064 36.0
108.02359 1120.0
108.080482 92.0
108.101173 76.0
108.909729 40.0
109.028152 132.0
109.306808 204.0
109.356758 72.0
109.577492 168.0
109.617081 176.0
109.84642 160.0
110.519135 180.0
110.680305 180.0
110.900116 156.0
111.023972 172.0
111.044945 144.0
111.196007 72.0
111.221191 108.0
111.376572 184.0
111.666626 172.0
111.919151 108.0
112.294258 132.0
112.355431 48.0
112.496826 148.0
113.075981 148.0
113.376717 140.0
113.455139 208.0
113.758499 120.0
114.185585 160.0
114.366432 64.0
114.771202 208.0
115.054985 768.0
115.52298 204.0
115.959793 168.0
116.059273 108.0
116.086273 152.0
116.249306 244.0
116.810074 152.0
117.034691 172.0
117.068344 116.0
117.266548 28.0
117.840553 132.0
117.946449 220.0
118.074013 176.0
118.604469 88.0
119.047066 172.0
119.751701 208.0
119.790909 164.0
120.019684 144.0
120.338303 132.0
120.911018 140.0
121.027229 224.0
121.066452 200.0
122.071518 192.0
123.044197 116.0
123.135948 176.0
123.673218 152.0
124.3004 144.0
124.380295 180.0
124.582367 56.0
124.651245 160.0
125.218529 132.0
125.432426 156.0
125.450264 160.0
125.737999 148.0
126.046173 176.0
126.415138 72.0
126.677094 200.0
127.057762 204.0
127.39045 208.0
128.328918 152.0
129.072021 188.0
129.243683 172.0
129.578781 84.0
129.744217 84.0
129.959686 120.0
130.077698 168.0
130.76413 148.0
131.701218 136.0
132.023468 180.0
132.900803 76.0
133.03392 176.0
133.173981 200.0
133.857025 184.0
134.036942 4184.0
134.068954 212.0
134.10582 40.0
134.257996 88.0
134.278748 60.0
134.366394 72.0
134.659561 136.0
134.735794 200.0
134.976166 100.0
135.013168 64.0
135.040894 324.0
135.112625 44.0
135.186661 144.0
135.399643 128.0
135.566452 124.0
135.870193 184.0
135.956039 216.0
136.014587 568.0
136.038757 176.0
136.348526 84.0
136.406631 100.0
136.508926 68.0
136.629883 96.0
136.660126 172.0
136.841675 120.0
137.023636 3808.0
137.064026 256.0
137.200455 156.0
137.261078 56.0
137.818939 28.0
137.875031 84.0
138.025864 436.0
138.101807 96.0
138.656693 100.0
138.93103 128.0
138.961533 164.0
139.053619 212.0
139.341873 176.0
139.826279 196.0
140.060486 76.0
140.139465 200.0
140.379898 100.0
140.601654 188.0
140.726761 120.0
141.069534 1476.0
141.137878 104.0
141.265594 60.0
141.301086 144.0
141.322372 56.0
141.980896 200.0
142.074417 272.0
142.405731 172.0
143.047729 140.0
143.471756 156.0
143.968063 184.0
144.020599 108.0
144.053085 148.0
144.080322 216.0
144.376709 148.0
144.922485 140.0
145.375687 72.0
146.37088 132.0
147.021744 152.0
147.041046 52.0
147.217285 52.0
147.386368 84.0
147.855499 176.0
148.078247 168.0
148.861557 136.0
149.024307 204.0
149.059448 124.0
149.091461 176.0
149.143387 148.0
149.308716 72.0
149.603134 148.0
149.666428 140.0
149.776016 88.0
150.027008 180.0
150.7397 208.0
150.961319 268.0
151.056015 224.0
152.063507 176.0
152.172607 84.0
152.676331 216.0
153.07515 200.0
153.126709 156.0
153.962769 192.0
154.588211 112.0
154.830826 208.0
155.056854 168.0
155.088486 124.0
156.060577 180.0
156.743637 136.0
157.020355 184.0
157.063522 364.0
157.382187 124.0
158.044556 192.0
158.070511 180.0
158.821167 140.0
159.082138 176.0
159.7229 156.0
160.047562 36.0
160.354889 208.0
160.871979 144.0
161.016632 192.0
162.364822 156.0
162.575378 172.0
162.750534 152.0
163.038696 308.0
163.266388 128.0
164.048737 224.0
164.525101 80.0
165.066757 152.0
165.716904 212.0
165.760468 192.0
165.970657 148.0
167.028748 240.0
167.050629 128.0
167.543594 164.0
167.731705 116.0
168.057098 984.0
168.087616 116.0
168.368988 160.0
169.066437 976.0
169.584976 132.0
170.070007 312.0
170.638916 144.0
170.925018 48.0
171.046661 348.0
171.224396 156.0
171.790009 132.0
172.046448 384.0
172.456085 232.0
173.054916 152.0
173.857025 240.0
174.067032 200.0
174.43222 176.0
174.953079 120.0
175.038849 328.0
176.047241 156.0
176.108047 128.0
177.160828 80.0
178.072174 164.0
179.055618 168.0
179.689102 84.0
180.51712 156.0
180.752518 204.0
180.83548 60.0
181.067825 92.0
181.588348 56.0
181.676865 64.0
181.792236 224.0
182.006989 40.0
182.057999 128.0
182.635834 76.0
183.047821 220.0
183.271179 160.0
183.527237 164.0
184.012894 80.0
184.047256 300.0
184.134399 120.0
185.059692 1724.0
185.265045 160.0
185.595703 164.0
185.872375 204.0
186.035217 224.0
186.069061 568.0
186.385574 72.0
186.437195 216.0
187.036545 472.0
187.076935 156.0
187.111771 156.0
187.155334 160.0
187.37323 172.0
187.888489 52.0
188.59848 64.0
188.795334 188.0
189.94841 128.0
191.8927 124.0
192.220932 232.0
192.289932 156.0
192.499741 76.0
193.129852 96.0
193.365036 276.0
194.762436 64.0
195.046295 220.0
195.079208 80.0
196.051376 604.0
196.295898 48.0
196.404663 96.0
196.429764 120.0
196.898682 116.0
197.059692 3680.0
197.133347 48.0
197.152908 48.0
197.306641 76.0
197.390518 64.0
197.740204 52.0
198.067001 724.0
198.774307 180.0
198.894974 64.0
198.925858 196.0
199.039566 364.0
199.085892 148.0
199.14769 56.0
199.307816 84.0
199.86174 44.0
199.971481 44.0
200.039658 144.0
200.061722 344.0
200.309372 172.0
200.461502 64.0
200.602432 112.0
201.017029 120.0
201.053711 148.0
201.553543 152.0
201.9776 84.0
202.025696 320.0
202.249237 152.0
202.540878 60.0
202.849747 84.0
202.900772 116.0
205.448929 92.0
205.751434 188.0
205.81424 112.0
206.11702 100.0
206.174179 152.0
207.344681 144.0
208.051956 208.0
209.060501 428.0
210.056046 160.0
210.916534 208.0
211.069763 236.0
212.085922 160.0
212.364273 168.0
212.770523 120.0
212.967987 128.0
213.055878 3048.0
213.244003 60.0
213.72673 132.0
214.057938 892.0
214.641357 152.0
215.065323 204.0
215.277496 104.0
216.054977 136.0
216.391541 104.0
216.915924 160.0
216.936447 132.0
218.010696 120.0
218.872589 88.0
219.97522 72.0
220.025406 48.0
220.146469 180.0
221.059906 152.0
221.207886 152.0
222.058273 148.0
222.21846 96.0
223.039398 188.0
223.698456 92.0
223.817535 64.0
224.051361 692.0
224.908661 100.0
225.055923 5580.0
225.13855 84.0
225.476135 96.0
225.556839 68.0
226.014404 132.0
226.059998 724.0
226.361633 60.0
226.48143 100.0
226.613235 124.0
227.063156 212.0
227.082809 372.0
227.257858 60.0
227.386246 72.0
227.651093 48.0
228.047501 560.0
228.348312 68.0
228.754517 76.0
229.037567 168.0
229.088455 940.0
229.164093 68.0
229.435333 172.0
230.259094 68.0
230.796997 64.0
230.881668 60.0
235.263168 144.0
236.043533 156.0
237.057907 176.0
238.187607 200.0
238.568649 192.0
239.074844 132.0
239.233124 84.0
239.833786 152.0
240.043427 68.0
240.074265 132.0
240.648209 84.0
240.87674 104.0
240.904541 156.0
241.050522 1584.0
241.156998 176.0
242.056808 1848.0
242.101517 168.0
242.842224 116.0
242.898056 68.0
242.978714 80.0
243.065552 576.0
243.425674 48.0
243.506409 64.0
243.726974 48.0
243.873032 232.0
243.901016 132.0
244.034683 128.0
244.068893 100.0
244.607101 52.0
245.317337 60.0
246.737778 124.0
247.632721 152.0
248.450836 116.0
249.251465 172.0
251.033127 280.0
251.276001 88.0
251.714737 132.0
252.043243 164.0
252.264465 124.0
253.006012 196.0
253.051697 6884.0
253.228836 108.0
253.606583 84.0
253.841187 48.0
254.057281 1140.0
254.190109 160.0
254.272629 160.0
254.450378 76.0
254.542465 88.0
254.58374 188.0
254.783844 64.0
255.060318 148.0
255.804657 116.0
255.857254 84.0
256.139008 164.0
256.244141 72.0
256.2948 212.0
257.079529 120.0
257.814026 80.0
259.247711 88.0
259.552246 104.0
261.498993 76.0
261.611664 140.0
261.750122 236.0
263.640442 120.0
266.297058 172.0
266.911255 36.0
267.064117 348.0
267.168213 172.0
268.031006 48.0
268.066833 168.0
268.249359 52.0
268.288483 136.0
268.487366 64.0
268.885376 136.0
268.988464 144.0
269.045654 7608.0
269.153076 32.0
269.685577 48.0
269.871918 232.0
270.050507 4360.0
270.099304 168.0
270.153168 48.0
270.176056 48.0
270.377197 36.0
270.411652 100.0
270.490204 76.0
270.526215 36.0
271.054016 860.0
271.286224 68.0
271.984924 164.0
272.058258 140.0
272.178619 88.0
272.681244 32.0
272.94751 44.0
283.092041 52.0
284.067261 116.0
284.543915 104.0
285.07782 1760.0
285.112488 176.0
285.467926 56.0
286.083893 336.0
286.11731 176.0
286.737091 64.0
287.08432 256.0
287.327179 84.0
287.590393 28.0
287.637634 116.0
289.006348 68.0
289.412506 56.0
302.716248 116.0
308.159882 48.0
312.053772 232.0
312.996735 92.0
323.706665 48.0
325.991699 116.0
329.085846 92.0
358.920563 100.0
359.052551 104.0
361.534576 128.0
377.383118 60.0
384.234283 100.0
392.328827 72.0
392.975616 108.0
398.006317 68.0
411.293945 84.0
422.381134 44.0
447.989502 104.0
448.107452 112.0
563.14325 40.0
567.364136 44.0
660.956665 96.0
673.092651 60.0
676.359985 84.0
709.707031 144.0
776.233215 128.0
776.32196 20.0
801.521912 304.0
850.317993 180.0
864.485229 140.0
882.378113 216.0
905.436035 236.0
915.705872 96.0
938.692383 156.0
968.289062 88.0
972.728455 56.0
977.818909 112.0
981.257385 144.0
994.562988 232.0
1000.16333 108.0
1077.486572 140.0
1092.203247 164.0
1116.482788 88.0
1125.191528 196.0
1125.485352 108.0
1221.272583 160.0
1225.672363 192.0
1226.480713 136.0
1240.523682 200.0
1241.428101 132.0
1263.134521 152.0
1266.539185 160.0
1283.438599 172.0
1285.13623 116.0
1286.742065 204.0
1287.227539 192.0
1310.085327 144.0
1315.327759 164.0
1344.373413 76.0
1347.768799 144.0
1366.229736 152.0
1367.075806 108.0
1367.70874 92.0
1381.670166 176.0
1385.934692 84.0
1388.484741 180.0
1419.709839 60.0
1426.294067 156.0
1430.513916 36.0
1437.877808 152.0
1450.296631 104.0
1459.026001 176.0
1468.67395 80.0
1492.729004 152.0
1497.130615 164.0
1500.497803 168.0
1504.146606 164.0
