>compound Pralatrexate(Folotyn)
>formula C23H23N7O5
>ionization [M+H]+
>parentmass 478.185303
#inchi InChI=1S/C23H23N7O5/c1-2-3-14(10-15-11-26-20-18(27-15)19(24)29-23(25)30-20)12-4-6-13(7-5-12)21(33)28-16(22(34)35)8-9-17(31)32/h1,4-7,11,14,16H,3,8-10H2,(H,28,33)(H,31,32)(H,34,35)(H4,24,25,26,29,30)/t14?,16-/m0/s1
#inchikey OGSBUKJUDHAQEA
#Ion_Source LC-ESI
#Instrument qTof
#Compound_Source Commercial
#PI Dorrestein
#Data_Collector Garg_Neha
#Scan -1
#Precursor_MZ 478.183
#ExactMass 477.176
#Charge 1
#CAS_Number 146464-95-1
#Pubmed_ID N/A
#Smiles N1=C(N=C2C(=C1N)N=C(C=N2)CC(C3=CC=C(C=C3)C(N[C@@H](CCC(O)=O)C(=O)O)=O)CC#C)N
#INCHI_AUX N/A
#Library_Class 1
#SpectrumID CCMSLIB00000078164
#IonMode Positive
#UpdateWorkflowName UPDATE-SINGLE-ANNOTATED-GOLD
#LibraryQualityString Gold
#TaskID 77f51c88eb8b467eb4a01dd2d0cb90d2
##Scan# 1036
#SpectrumFile Plate3_1_20_GG9_01_16498.mzXML
#LibraryName FDALibrary_2_04302014.mgf
#MQScore -1
#Organism FDALibrary_2_04302014
#TIC_Query 0
#RT_Query -1
#MZErrorPPM -1
#SharedPeaks 0
#MassDiff 0
#LibMZ -1
#SpecMZ 478.183
#SpecCharge 0
#internalFilename spec-00000.mgf

>collision 10
45.208767 216.0
45.924858 216.0
46.261322 156.0
46.56641 208.0
46.652012 180.0
46.754025 232.0
47.107166 176.0
47.626316 184.0
47.851845 144.0
48.173176 180.0
48.480335 156.0
48.498352 184.0
48.534397 192.0
49.697693 176.0
49.832481 152.0
50.026558 172.0
50.171661 152.0
50.20409 184.0
50.735737 184.0
50.75275 172.0
51.197525 152.0
51.41993 148.0
51.562748 208.0
51.763027 172.0
51.988087 148.0
52.180565 180.0
52.213638 152.0
53.123619 148.0
53.196175 212.0
53.374878 192.0
53.801773 148.0
54.277279 200.0
54.30661 200.0
54.429882 184.0
54.679794 140.0
54.832962 180.0
55.063118 204.0
55.443333 184.0
55.542671 200.0
55.572342 164.0
56.594826 168.0
56.991638 200.0
57.563194 160.0
57.637211 180.0
58.041359 188.0
58.083824 188.0
58.194683 160.0
58.246243 184.0
58.453007 152.0
58.597656 148.0
58.609844 244.0
59.533783 180.0
59.779747 140.0
60.012337 248.0
60.098747 168.0
60.132664 200.0
60.375217 204.0
60.432453 180.0
60.550098 204.0
61.216328 184.0
61.403339 160.0
61.575016 152.0
61.646877 148.0
62.385105 176.0
62.481037 148.0
63.922474 156.0
64.105598 172.0
64.333679 292.0
64.440681 164.0
64.531784 140.0
64.600555 144.0
65.116684 164.0
65.229156 156.0
65.259705 172.0
66.011108 164.0
66.067719 224.0
66.892502 144.0
67.57589 204.0
67.888748 232.0
68.125832 188.0
68.166176 244.0
68.449104 176.0
69.673058 240.0
70.017372 188.0
70.150673 176.0
70.282425 224.0
70.539619 232.0
70.598595 176.0
70.847534 176.0
70.891098 164.0
70.971558 176.0
71.037422 128.0
71.349319 184.0
71.792152 140.0
71.945702 176.0
71.974403 192.0
72.11969 168.0
72.139969 188.0
72.236923 320.0
72.317245 180.0
72.454742 176.0
72.483543 248.0
72.620865 144.0
72.649704 172.0
72.799065 196.0
72.924782 172.0
73.15271 212.0
73.510628 172.0
73.672836 192.0
73.799301 156.0
73.932732 168.0
74.417831 168.0
74.488243 160.0
75.233894 196.0
75.271645 208.0
75.401443 160.0
75.598595 232.0
75.749222 180.0
75.841057 248.0
76.170738 152.0
76.970139 148.0
77.963387 148.0
78.179695 180.0
78.253624 156.0
78.290596 268.0
78.354012 156.0
78.445648 160.0
79.007225 164.0
79.04261 176.0
79.256859 140.0
79.773323 208.0
80.147064 228.0
80.202316 144.0
81.2556 172.0
81.828926 148.0
82.364525 148.0
82.594086 160.0
82.999756 204.0
83.32283 164.0
83.468231 224.0
84.464012 340.0
85.090744 140.0
85.511032 232.0
85.821182 196.0
86.131218 152.0
86.216209 200.0
86.2883 220.0
86.438118 184.0
86.849197 144.0
87.654396 204.0
88.064827 188.0
88.178795 216.0
88.287224 148.0
88.764748 216.0
88.892311 196.0
88.960426 232.0
89.104477 184.0
89.317398 260.0
89.471214 144.0
89.580437 220.0
89.917946 228.0
90.208832 144.0
90.257988 164.0
90.500175 228.0
90.632767 188.0
90.687721 220.0
91.283844 184.0
91.464584 152.0
91.792274 140.0
91.939163 200.0
92.156853 184.0
93.366417 176.0
93.759499 156.0
93.903748 168.0
93.94812 192.0
94.061974 160.0
94.102509 140.0
94.405876 140.0
95.066467 192.0
95.381104 180.0
96.043137 160.0
96.246101 184.0
96.384651 176.0
96.592018 188.0
96.964035 144.0
97.531258 172.0
97.655128 168.0
97.6689 228.0
98.175064 192.0
98.190842 164.0
98.28553 152.0
98.422234 172.0
98.451347 200.0
98.556038 196.0
98.979332 156.0
99.078362 148.0
99.469025 144.0
99.662224 172.0
99.808754 184.0
100.661606 152.0
100.891373 172.0
101.055374 172.0
101.121407 204.0
101.255554 180.0
101.546158 156.0
101.694633 140.0
101.86129 164.0
102.052208 184.0
102.215134 188.0
102.404373 208.0
102.932739 224.0
103.10849 140.0
103.26619 208.0
103.819084 156.0
103.904274 172.0
103.985443 176.0
104.555504 116.0
104.768295 184.0
104.89872 196.0
105.03376 356.0
105.644081 180.0
105.668907 208.0
106.160225 176.0
106.599525 144.0
107.167442 172.0
107.871193 200.0
108.030418 144.0
108.046974 188.0
108.114395 216.0
108.231178 192.0
108.685112 180.0
108.942558 192.0
109.12336 180.0
109.645844 212.0
109.702126 188.0
110.009857 108.0
110.200371 108.0
110.845375 204.0
111.659897 212.0
111.689346 156.0
112.380333 196.0
112.437309 160.0
112.534409 164.0
112.794258 148.0
112.889397 168.0
112.92112 196.0
113.287308 152.0
113.348747 144.0
113.372063 168.0
114.593872 192.0
114.777184 156.0
115.110062 148.0
115.176262 172.0
115.357895 180.0
115.584602 256.0
115.991516 144.0
116.248886 164.0
116.523727 152.0
116.611832 164.0
116.818253 144.0
116.940903 188.0
117.391167 168.0
117.708374 152.0
118.16011 220.0
118.690758 144.0
118.744972 200.0
119.053146 168.0
119.192177 168.0
119.429138 168.0
119.45742 188.0
119.472649 212.0
119.607567 252.0
119.648926 152.0
120.130547 200.0
120.586899 232.0
120.724632 156.0
121.048355 172.0
121.38192 204.0
121.839897 152.0
122.639091 144.0
122.769165 180.0
123.364296 104.0
123.442696 176.0
123.473656 196.0
123.584259 176.0
124.884239 228.0
125.389648 184.0
125.639381 152.0
125.811218 172.0
125.916168 184.0
126.309547 228.0
127.057762 256.0
127.157516 272.0
127.706947 140.0
128.062958 188.0
128.204514 320.0
128.761749 164.0
129.533035 152.0
130.086334 172.0
130.324799 152.0
130.36116 200.0
130.70224 220.0
131.160004 172.0
131.185074 204.0
131.353821 140.0
131.399445 176.0
131.467896 156.0
131.716766 140.0
132.057327 184.0
132.1008 184.0
132.542664 140.0
132.730621 148.0
133.051346 800.0
133.4608 216.0
133.509094 220.0
133.810516 152.0
134.057358 208.0
134.086945 192.0
134.382111 240.0
134.996521 196.0
135.053574 516.0
135.373734 140.0
135.756088 204.0
136.062378 216.0
136.294632 144.0
137.034729 188.0
138.068619 252.0
138.197266 144.0
138.344711 212.0
138.714844 144.0
139.090149 168.0
139.198151 228.0
139.397705 156.0
139.52475 160.0
139.740036 208.0
139.887024 184.0
140.34407 192.0
140.950699 152.0
141.158707 144.0
141.189453 168.0
141.582306 196.0
141.807373 176.0
141.909317 160.0
142.058716 164.0
142.476532 152.0
143.263977 140.0
143.297333 184.0
143.516617 148.0
143.814804 172.0
144.115707 224.0
144.199341 140.0
144.840576 164.0
145.67775 196.0
146.044586 200.0
147.199921 156.0
147.775192 156.0
148.060211 348.0
148.12381 208.0
148.814972 196.0
148.83197 168.0
149.069473 200.0
149.364197 208.0
151.583099 132.0
151.767319 152.0
151.914459 168.0
152.353897 200.0
152.759506 164.0
153.500854 200.0
153.979599 156.0
154.449219 188.0
154.830368 208.0
155.048874 828.0
155.083084 172.0
155.154968 140.0
155.182236 196.0
156.056732 1256.0
156.636063 200.0
156.93013 164.0
157.064789 168.0
157.299347 152.0
157.743423 196.0
157.826492 208.0
158.048523 104.0
158.62764 160.0
158.823227 164.0
159.056259 144.0
159.073349 240.0
159.533859 180.0
159.953949 152.0
159.999268 156.0
160.063721 380.0
160.165466 188.0
160.51326 232.0
160.616669 176.0
160.975037 180.0
161.06218 180.0
161.5336 172.0
162.06456 624.0
162.118469 144.0
162.884689 176.0
163.113373 144.0
163.268478 164.0
163.344772 156.0
163.441452 164.0
164.511887 192.0
164.639557 220.0
164.907043 160.0
164.96405 236.0
165.07399 316.0
165.204422 140.0
165.329803 148.0
165.478256 140.0
165.596054 172.0
165.673676 132.0
166.006104 180.0
166.380707 164.0
166.555328 172.0
166.665802 152.0
166.82515 168.0
166.994858 164.0
167.481323 172.0
167.749298 140.0
168.141357 240.0
168.350464 156.0
168.420197 236.0
168.647583 216.0
169.082092 148.0
169.351349 220.0
169.55603 196.0
169.823074 152.0
170.142242 148.0
170.401962 156.0
170.842117 208.0
171.299484 168.0
171.330734 172.0
171.677399 160.0
171.959167 180.0
172.059677 156.0
172.70903 192.0
173.133026 148.0
173.266617 220.0
173.395004 172.0
173.49736 164.0
173.573273 144.0
173.898575 176.0
174.049927 208.0
174.078888 532.0
174.226807 148.0
174.567337 132.0
174.657913 216.0
174.690506 172.0
174.862656 152.0
174.903412 316.0
174.928955 184.0
174.966339 160.0
175.027649 204.0
175.073837 101772.0
175.300003 100.0
175.328323 108.0
175.50351 120.0
175.62645 148.0
175.68631 100.0
175.718918 148.0
175.977646 148.0
176.078018 15096.0
176.109558 320.0
176.336746 160.0
176.648468 144.0
177.006775 144.0
177.086334 2688.0
177.23468 96.0
177.273361 144.0
177.369141 124.0
177.506531 240.0
178.097382 336.0
178.154266 148.0
178.533386 112.0
178.971695 172.0
179.094208 216.0
179.453964 200.0
179.934204 180.0
180.742645 152.0
182.02803 164.0
182.675766 224.0
183.068039 300.0
183.30307 160.0
184.062408 120.0
184.155579 172.0
184.496048 148.0
184.727859 124.0
185.543762 140.0
186.07016 140.0
186.643372 200.0
187.076324 148.0
187.165802 160.0
187.509048 180.0
187.612625 156.0
188.077591 196.0
188.357605 152.0
189.088074 816.0
189.717468 132.0
190.069534 196.0
190.092163 240.0
191.308228 176.0
191.748947 172.0
192.093597 256.0
192.408203 188.0
193.074127 116.0
193.220734 176.0
193.842285 140.0
193.985062 140.0
194.054535 492.0
194.084869 156.0
194.312302 260.0
196.761444 160.0
197.071472 168.0
197.594131 212.0
197.672638 188.0
197.857376 144.0
198.29715 212.0
198.661667 176.0
199.003021 140.0
199.085495 144.0
199.835617 172.0
199.968262 164.0
200.093063 308.0
201.09082 124.0
201.471207 224.0
202.096024 140.0
202.596924 100.0
204.886917 200.0
205.499893 156.0
205.776733 196.0
206.008072 228.0
207.587967 184.0
207.871964 140.0
208.989731 144.0
209.572678 208.0
210.913269 180.0
211.245819 140.0
211.656784 144.0
213.087875 100.0
213.112869 180.0
214.097778 200.0
214.273743 164.0
215.093201 160.0
216.602036 184.0
217.059235 152.0
217.966263 176.0
218.045609 168.0
218.369003 184.0
219.075455 300.0
219.673874 196.0
219.797791 140.0
220.373566 156.0
220.787399 176.0
221.073074 148.0
221.527359 168.0
222.470383 232.0
223.094223 168.0
223.969086 176.0
224.51152 200.0
225.018784 168.0
226.09816 236.0
227.099091 196.0
228.026291 144.0
228.197632 256.0
228.239731 208.0
228.766235 256.0
230.684814 148.0
231.344284 156.0
231.486588 192.0
231.959229 176.0
232.093109 148.0
234.095749 248.0
234.244339 176.0
234.591736 144.0
235.098053 392.0
235.384995 176.0
236.108826 312.0
236.905075 172.0
238.018402 248.0
238.552979 144.0
239.051239 180.0
239.104156 224.0
240.527527 140.0
241.185455 168.0
241.630753 140.0
241.974289 152.0
243.767105 168.0
243.851013 152.0
244.000839 120.0
244.899536 148.0
244.968063 180.0
246.083862 360.0
246.403107 148.0
247.034607 156.0
247.087784 160.0
247.77655 188.0
248.091705 212.0
248.654541 156.0
249.101685 188.0
250.037384 260.0
251.102264 152.0
251.52507 148.0
251.771332 148.0
251.869247 152.0
254.193054 144.0
254.361267 196.0
254.54541 144.0
254.587662 172.0
255.498932 180.0
255.72168 164.0
256.113312 228.0
257.331482 144.0
258.101532 148.0
258.703003 140.0
259.101501 632.0
259.665009 148.0
260.104126 832.0
260.523895 124.0
261.101593 140.0
262.068329 160.0
262.099121 840.0
263.101135 800.0
263.31073 176.0
264.113922 992.0
264.432617 164.0
264.481171 156.0
264.633331 148.0
265.118164 416.0
265.576355 160.0
266.125366 144.0
266.235168 164.0
266.436554 232.0
267.281921 140.0
268.137939 148.0
268.164429 148.0
268.43985 168.0
268.996185 200.0
269.025574 160.0
269.486084 248.0
269.610229 292.0
271.069763 216.0
271.145142 208.0
271.837097 160.0
272.198181 180.0
272.959686 216.0
273.042725 176.0
273.101929 188.0
273.249969 192.0
273.71405 176.0
274.102753 152.0
275.115295 272.0
275.379456 200.0
275.402588 180.0
276.123383 3404.0
276.26532 168.0
276.394348 152.0
276.645905 184.0
277.009949 200.0
277.127045 1068.0
277.189056 176.0
278.138092 188.0
279.107147 384.0
280.103424 356.0
280.492615 152.0
280.572632 140.0
280.625977 152.0
280.726013 164.0
281.25647 204.0
282.188507 156.0
283.380035 236.0
286.108398 280.0
286.676361 160.0
286.848236 196.0
287.095276 884.0
287.445221 156.0
287.481537 188.0
287.769257 168.0
287.969818 112.0
288.100311 436.0
288.664673 140.0
289.111969 428.0
290.112488 272.0
290.144287 148.0
290.398621 204.0
290.45517 100.0
291.097931 596.0
291.595856 164.0
292.106567 508.0
293.103088 268.0
293.535187 136.0
293.752441 164.0
294.131226 168.0
294.339478 192.0
294.725464 180.0
295.453705 160.0
296.100006 1256.0
296.535736 240.0
297.098724 512.0
297.595734 228.0
298.120636 148.0
298.324066 140.0
298.789215 156.0
299.118713 160.0
299.249542 140.0
300.069519 200.0
301.119202 308.0
302.126465 436.0
302.313446 132.0
302.543152 216.0
302.678192 144.0
302.834015 176.0
302.868652 188.0
303.13562 1800.0
303.49939 160.0
304.047485 208.0
304.119324 18024.0
304.434509 188.0
304.652679 116.0
305.008453 124.0
305.12204 4904.0
305.628601 176.0
306.128143 704.0
306.411011 144.0
307.021973 148.0
307.112762 128.0
307.517395 160.0
308.11554 2804.0
308.166931 148.0
308.310486 140.0
308.565369 144.0
309.006042 144.0
309.118073 1280.0
309.151489 332.0
309.296509 232.0
309.538055 184.0
309.783234 164.0
309.916351 148.0
310.117981 840.0
311.00351 148.0
311.123444 120.0
311.16748 152.0
311.496063 128.0
311.54425 204.0
312.119629 224.0
313.137695 168.0
313.518188 180.0
314.105194 304.0
314.166962 208.0
314.555115 140.0
315.121826 148.0
315.583191 156.0
315.851959 152.0
316.10791 148.0
316.253387 160.0
317.108917 140.0
317.145782 160.0
317.456329 172.0
318.130829 144.0
318.170593 228.0
318.453613 148.0
318.748474 176.0
320.100189 140.0
320.267578 180.0
320.848419 168.0
320.923279 176.0
321.143372 1300.0
322.068817 360.0
322.131897 7188.0
322.238098 124.0
322.369812 208.0
322.955261 140.0
323.024963 180.0
323.131256 1584.0
323.509888 168.0
324.138641 248.0
325.02594 204.0
325.194611 160.0
325.761932 212.0
325.801453 144.0
326.621063 156.0
326.96286 148.0
327.315643 164.0
328.000153 184.0
328.151581 144.0
328.526642 164.0
329.949829 148.0
330.146606 452.0
330.926025 284.0
330.986847 160.0
331.130096 20560.0
332.132294 4676.0
332.659454 128.0
333.138947 716.0
333.429352 144.0
334.057587 200.0
334.122192 296.0
334.156952 344.0
334.323975 184.0
334.577454 104.0
335.001221 160.0
335.133362 460.0
335.201599 184.0
335.30835 136.0
335.405701 164.0
336.142853 312.0
336.659821 236.0
337.139313 256.0
338.207275 172.0
338.562408 168.0
340.219849 136.0
340.796356 188.0
340.880859 172.0
340.935974 160.0
341.354309 136.0
341.483765 168.0
341.726562 188.0
342.120361 152.0
342.168213 152.0
342.510681 176.0
343.16684 156.0
343.2146 208.0
343.49118 196.0
343.583435 144.0
343.808502 328.0
344.476807 204.0
345.176422 136.0
346.80426 144.0
347.162537 156.0
347.21579 144.0
347.396271 124.0
347.712921 152.0
348.156464 572.0
348.691162 112.0
348.797485 144.0
348.890411 144.0
349.07373 120.0
349.141144 14172.0
349.360199 188.0
349.455719 188.0
349.809265 196.0
350.017761 144.0
350.142365 3460.0
351.044098 132.0
351.105896 204.0
351.147888 540.0
351.406494 164.0
351.488617 156.0
351.557312 188.0
351.631958 160.0
352.158386 188.0
352.373322 172.0
352.946899 164.0
353.056366 120.0
353.298462 160.0
354.028351 164.0
354.114471 176.0
355.708038 228.0
355.963348 156.0
356.643341 144.0
356.837524 164.0
357.526245 192.0
357.658905 140.0
358.887054 160.0
360.389282 152.0
361.136932 164.0
361.169403 116.0
361.565308 196.0
362.163025 168.0
362.765991 140.0
362.934967 164.0
363.104584 160.0
363.160065 292.0
364.033234 156.0
364.262726 152.0
367.980133 144.0
369.9086 140.0
369.939209 160.0
370.054077 180.0
370.125793 152.0
370.19574 168.0
371.171875 152.0
371.71759 216.0
372.005432 204.0
372.19223 168.0
373.034943 176.0
374.142883 188.0
374.797638 152.0
375.414398 172.0
376.970093 212.0
377.140137 148.0
378.126404 172.0
378.171356 204.0
381.318329 172.0
382.960205 172.0
383.022522 144.0
384.126495 192.0
385.468719 140.0
386.34845 204.0
387.52298 228.0
387.637939 168.0
389.16803 148.0
389.578735 180.0
390.082062 144.0
390.742401 152.0
391.175293 152.0
391.466644 176.0
392.010284 164.0
392.147705 124.0
394.080322 408.0
394.162933 616.0
395.034637 140.0
395.173737 436.0
395.272003 172.0
395.311584 192.0
396.162842 212.0
397.280762 172.0
398.927704 156.0
399.155426 372.0
404.601654 188.0
404.649689 148.0
405.167725 424.0
406.17749 192.0
407.175201 816.0
407.678131 224.0
408.183746 372.0
410.564575 164.0
410.891296 160.0
411.222198 188.0
411.585938 156.0
414.335815 184.0
415.87677 156.0
416.035065 144.0
416.19342 228.0
416.234009 140.0
416.733612 148.0
416.953033 144.0
417.202698 268.0
417.766479 144.0
418.168457 156.0
418.258636 184.0
419.227966 148.0
420.112579 188.0
420.128143 180.0
421.160675 116.0
422.473969 172.0
423.329407 180.0
424.206207 144.0
424.238983 140.0
424.497284 192.0
425.092102 156.0
427.148224 188.0
427.430878 132.0
428.224762 148.0
428.341248 116.0
429.576752 212.0
429.86557 160.0
430.559113 152.0
431.410278 156.0
431.579773 200.0
432.17569 1380.0
432.585114 176.0
432.687378 356.0
432.999176 200.0
433.184906 528.0
433.529449 148.0
434.19577 480.0
434.614441 140.0
435.19989 156.0
436.01239 168.0
437.375366 144.0
437.999939 160.0
438.151428 1040.0
439.155182 784.0
439.96405 164.0
440.11853 164.0
440.162018 136.0
440.21875 156.0
440.380829 172.0
441.133759 156.0
443.276642 196.0
446.277863 168.0
446.549347 208.0
446.605865 160.0
447.683289 168.0
448.369965 172.0
448.546997 156.0
448.757782 148.0
448.825256 144.0
450.365601 208.0
450.741608 152.0
451.171082 1856.0
452.17334 468.0
453.179657 276.0
453.220306 136.0
454.408356 272.0
454.469177 144.0
455.189362 208.0
456.272827 152.0
457.11499 180.0
457.749237 156.0
459.29071 132.0
460.169647 1936.0
460.269348 216.0
460.320709 216.0
460.371826 156.0
460.423065 140.0
461.167023 252.0
462.169006 136.0
462.312653 172.0
463.001892 188.0
464.214661 164.0
464.317596 156.0
465.351746 184.0
466.739594 172.0
467.234192 196.0
468.624817 216.0
470.375732 148.0
471.29129 160.0
472.480286 172.0
472.938965 160.0
473.834534 104.0
474.394897 176.0
474.807983 136.0
474.97113 144.0
475.080963 176.0
475.325287 156.0
475.483124 160.0
475.561249 184.0
475.750549 104.0
475.891174 144.0
476.210266 140.0
476.251587 160.0
476.321747 300.0
476.468658 128.0
476.645935 104.0
476.821686 192.0
476.912537 168.0
476.963196 208.0
477.095886 128.0
477.192291 172.0
477.242493 132.0
477.359131 148.0
477.422485 156.0
477.513336 320.0
477.618805 280.0
477.66925 356.0
477.715698 112.0
477.871307 292.0
477.94162 136.0
477.986603 256.0
478.036102 340.0
478.079742 856.0
478.185303 168848.0
478.355042 344.0
478.402496 164.0
478.486694 500.0
478.57489 420.0
478.60849 376.0
478.640869 380.0
478.728485 164.0
478.770599 176.0
478.856049 204.0
478.902985 876.0
478.950348 252.0
479.01062 172.0
479.062195 236.0
479.186615 51616.0
479.319244 184.0
479.36261 324.0
479.431396 104.0
479.506866 204.0
479.542725 96.0
479.58844 196.0
479.693787 228.0
479.737701 112.0
479.767792 368.0
479.853546 112.0
479.894806 244.0
479.958771 164.0
480.033386 156.0
480.188934 7256.0
480.474976 104.0
480.658447 220.0
480.947968 216.0
481.06131 280.0
481.109375 112.0
481.190125 1552.0
481.263397 1140.0
481.360779 192.0
481.506256 120.0
481.565399 152.0
481.597046 112.0
481.709808 100.0
481.785248 344.0
481.845642 100.0
481.895264 124.0
481.979431 180.0
482.051575 152.0
482.096252 148.0
482.147369 296.0
482.255157 256.0
482.353668 128.0
482.512909 96.0
482.571991 104.0
482.718048 244.0
482.841583 168.0
483.216217 116.0
483.259766 120.0
483.349701 156.0
484.506866 180.0
492.003235 148.0
585.091553 144.0
608.988037 164.0
621.840088 160.0
644.99646 148.0
699.899963 176.0
752.682007 140.0
1075.331787 168.0
1249.0802 164.0
1370.889771 208.0
1427.994141 176.0
1452.694092 176.0
1466.365479 176.0
1474.914062 236.0
1479.388916 220.0
1487.199951 160.0
1487.975342 204.0
1488.220947 204.0
1498.612183 160.0
1516.013672 176.0
1535.301025 192.0
1538.55481 180.0
1542.69519 196.0
1551.423828 188.0
1551.792358 236.0
1553.682373 144.0
1556.193848 148.0
1557.827393 196.0
1563.220947 184.0
1593.552856 140.0
1607.487305 168.0
1609.578613 208.0
1614.061401 180.0
1622.901123 172.0
1625.467896 160.0
1629.595093 180.0
1633.309082 144.0
1637.88916 160.0
1642.515869 164.0
1648.4823 140.0
1655.625488 180.0
1659.498779 152.0
1676.145264 152.0
1679.683594 144.0
1687.597046 204.0
1695.47998 208.0
1703.699219 176.0
1713.450562 164.0
1718.133301 144.0
1720.60083 144.0
1730.81189 176.0
1733.37146 164.0
1736.480225 140.0
1737.210083 176.0
1743.453979 172.0
1756.208862 160.0
1760.648926 200.0
1762.311279 184.0
1763.807129 212.0
1773.349121 192.0
1787.777588 236.0
1800.625732 180.0
1811.528564 180.0
1812.782471 180.0
1814.799805 156.0
1817.581909 184.0
1818.85498 220.0
1823.424561 140.0
1825.89856 188.0
1829.625488 144.0
1834.600708 140.0
1852.974976 168.0
1855.734741 180.0
1862.488525 192.0
1869.005005 168.0
1876.705322 204.0
1898.791016 152.0
1901.515259 160.0
1907.864868 156.0
1919.034912 160.0
1929.782837 164.0
1940.613403 212.0
1947.932617 176.0
1950.032593 208.0
1951.579834 204.0
1963.979248 208.0
1973.065918 248.0
1979.622437 144.0
1981.057251 164.0
1990.130005 248.0
1994.331909 156.0
1999.02771 208.0
2001.894165 196.0
