>compound MLS001049039-01!(E)-1-(4-hydroxyphenyl)-3-(4-methoxyphenyl)prop-2-en-1-one
>formula C16H14O3
>ionization [M+H]+
>parentmass 255.101685
#inchi InChI=1S/C16H14O3/c1-19-15-9-2-12(3-10-15)4-11-16(18)13-5-7-14(17)8-6-13/h2-11,17H,1H3/b11-4+
#inchikey RTCVAWRRHHSOCC
#Ion_Source LC-ESI
#Instrument qTof
#Compound_Source NIH Natural Product Library
#PI Dorrestein
#Data_Collector VVP/LMS
#Scan -1
#Precursor_MZ 255.102
#ExactMass 254.094
#Charge 1
#CAS_Number N/A
#Pubmed_ID N/A
#Smiles COc1ccc(/C=C/C(=O)c2ccc(O)cc2)cc1
#INCHI_AUX N/A
#Library_Class 1
#SpectrumID CCMSLIB00000080036
#IonMode Positive
#UpdateWorkflowName UPDATE-SINGLE-ANNOTATED-GOLD
#LibraryQualityString Gold
#TaskID b1d8e8f6646f4e71acdff9ca3d919d08
##Scan# 2071
#SpectrumFile p2-C03_GC3_01_18003.mzXML
#LibraryName NIH_Natural_Products_Library.mgf
#MQScore -1
#Organism NIH_Natural_Products_Library
#TIC_Query 0
#RT_Query -1
#MZErrorPPM -1
#SharedPeaks 0
#MassDiff 0
#LibMZ -1
#SpecMZ 255.102
#SpecCharge 0
#internalFilename spec-00000.mgf

>collision 10
95.346901 108.0
95.702881 220.0
95.761299 208.0
96.020508 128.0
96.698456 196.0
97.335579 184.0
97.827095 144.0
97.947212 120.0
99.085075 136.0
99.513474 128.0
99.580986 160.0
99.692238 232.0
100.800201 112.0
100.898132 128.0
101.04213 184.0
101.799782 152.0
102.044968 168.0
102.523987 136.0
102.636879 156.0
103.014282 164.0
103.056076 2424.0
103.147652 156.0
103.613091 104.0
103.919228 52.0
103.980103 52.0
104.744598 92.0
105.023849 164.0
105.068314 716.0
105.199333 148.0
105.295303 124.0
105.426048 216.0
105.595734 188.0
106.513977 132.0
107.053802 144.0
108.064255 220.0
108.901741 136.0
109.028473 376.0
109.067169 360.0
109.24263 216.0
109.679916 196.0
110.11599 68.0
110.174477 228.0
110.243423 32.0
110.291496 204.0
111.412582 116.0
112.746353 192.0
112.788628 240.0
112.868958 156.0
113.124954 136.0
113.141891 180.0
114.102943 156.0
114.901588 252.0
115.058235 160.0
116.505081 60.0
117.033768 232.0
117.100914 200.0
117.180618 180.0
117.314232 200.0
118.041885 2688.0
118.249512 184.0
118.65892 148.0
119.049698 284.0
119.560356 244.0
119.891373 216.0
119.965485 36.0
120.065781 180.0
120.565712 136.0
120.766853 36.0
120.782166 136.0
120.983482 160.0
121.029671 6104.0
121.062309 136.0
121.202499 28.0
121.393204 136.0
121.454613 64.0
121.566505 40.0
122.032631 688.0
122.06295 124.0
122.106934 48.0
122.373192 152.0
122.622116 64.0
122.778641 72.0
123.034599 148.0
124.005661 120.0
125.410347 232.0
127.114487 128.0
127.244667 44.0
127.514221 172.0
129.073059 160.0
130.634598 136.0
131.694519 84.0
131.984756 76.0
132.052994 268.0
132.220367 168.0
132.637222 140.0
132.797714 152.0
132.813782 128.0
133.065536 6844.0
133.174133 48.0
133.231552 100.0
133.834137 36.0
133.889404 60.0
133.92395 52.0
133.940063 56.0
134.004578 108.0
134.068863 520.0
134.860703 64.0
134.88382 124.0
135.068802 64.0
135.193741 96.0
135.798828 92.0
136.111694 140.0
137.059982 904.0
137.791016 128.0
139.053146 132.0
139.692261 140.0
140.44838 68.0
140.672546 164.0
141.071777 156.0
143.083511 172.0
146.041687 124.0
146.056274 232.0
146.248138 112.0
147.044525 568.0
148.045822 212.0
149.053482 112.0
151.434494 136.0
151.838882 184.0
152.06459 120.0
154.353195 152.0
155.019073 180.0
157.067703 100.0
160.977951 128.0
161.025925 192.0
161.06044 3864.0
161.099182 92.0
161.235626 124.0
161.387283 76.0
162.064972 148.0
162.169525 40.0
162.315704 96.0
162.55246 60.0
163.202713 112.0
163.309525 64.0
163.360397 64.0
163.43927 60.0
165.072906 644.0
166.070923 112.0
166.540253 64.0
167.092926 136.0
168.410187 64.0
168.552261 60.0
169.061691 148.0
169.665192 72.0
169.844116 76.0
170.088486 200.0
170.675156 124.0
171.070602 100.0
173.059982 180.0
176.02861 152.0
176.946106 108.0
178.0784 304.0
180.051895 180.0
181.068161 204.0
183.047348 144.0
183.074265 188.0
189.085007 100.0
191.145935 172.0
192.408279 80.0
194.068405 300.0
194.55658 100.0
195.0802 252.0
195.234543 80.0
196.061356 92.0
197.063431 140.0
207.09494 132.0
208.098618 140.0
208.923431 100.0
209.093201 136.0
210.071533 152.0
211.073318 168.0
212.076706 104.0
218.866104 148.0
221.067276 144.0
221.310898 152.0
222.036896 116.0
222.065033 140.0
222.084351 212.0
223.079086 124.0
225.060272 168.0
227.103256 120.0
227.146194 120.0
228.113098 204.0
234.942001 156.0
237.091888 128.0
237.137482 28.0
238.10083 184.0
240.082733 208.0
252.956329 88.0
255.101685 260.0
256.09317 136.0
256.131683 144.0
279.15979 164.0
295.767181 52.0
389.351807 56.0
406.305542 32.0
447.409546 56.0
478.756104 44.0
611.876099 88.0
737.117981 156.0
788.143555 184.0
855.547974 140.0
924.438599 152.0
997.461365 164.0
1019.875061 176.0
1035.237671 208.0
1037.422485 220.0
1038.326538 84.0
1048.671021 124.0
1068.004272 176.0
1086.333008 152.0
1092.810547 168.0
1101.974854 204.0
1118.959961 200.0
1133.493652 172.0
1145.384766 188.0
1147.244629 228.0
1158.76709 228.0
1159.424316 192.0
1172.036255 136.0
1173.665283 56.0
1180.589233 208.0
1184.216431 156.0
1190.127563 152.0
1196.019043 200.0
1200.552246 236.0
1203.484863 188.0
1205.97168 136.0
1210.870117 156.0
1210.980835 176.0
1216.208618 152.0
1220.070801 116.0
1222.289429 156.0
1231.603149 56.0
1232.860718 136.0
1245.829712 248.0
1246.237183 288.0
1246.932861 156.0
1248.268555 176.0
1251.547485 176.0
1259.933105 196.0
1267.772705 120.0
1271.105591 184.0
1277.357422 240.0
1286.185913 188.0
1286.314331 156.0
1290.593628 156.0
1293.512451 240.0
1313.466553 96.0
1316.006714 164.0
1330.362793 36.0
1332.861206 188.0
1334.09668 148.0
1352.866455 232.0
1354.492065 204.0
1356.609741 228.0
1363.038818 172.0
1365.95752 52.0
1370.750244 168.0
1373.846802 196.0
1377.929321 236.0
1379.932129 192.0
1382.780029 216.0
1386.41626 152.0
1387.038818 268.0
1389.93103 200.0
1404.706177 124.0
1414.42749 184.0
1415.43811 188.0
1418.397339 180.0
1420.451904 168.0
1422.147583 160.0
1429.482422 184.0
1433.232178 208.0
1434.543457 176.0
1435.66687 128.0
1441.426514 120.0
1442.711304 136.0
1445.101074 140.0
1447.137085 260.0
1451.425415 152.0
1459.983276 184.0
1463.788086 172.0
1465.24292 112.0
1474.55957 84.0
1475.759766 64.0
1476.577881 124.0
1477.220459 148.0
1480.388916 196.0
1493.074097 180.0
1498.076904 164.0
1498.901367 160.0
1499.132446 212.0
1503.119141 56.0
