>compound MLS000701320-01!N-(4,5-diphenyl-1H-pyrazolo[3,4-c]pyridazin-3-yl)-N'-phenylurea
>formula C24H18N6O
>ionization [M+H]+
>parentmass 407.160339
#inchi InChI=1S/C24H18N6O/c31-24(25-18-14-8-3-9-15-18)26-22-20-19(16-10-4-1-5-11-16)21(17-12-6-2-7-13-17)27-29-23(20)30-28-22/h1-15H,(H3,25,26,28,29,30,31)
#inchikey BUUXBIIFLQVFAR
#Ion_Source LC-ESI
#Instrument qTof
#Compound_Source NIH Pharmacologically Active Library
#PI Dorrestein
#Data_Collector VP/LMS
#Scan -1
#Precursor_MZ 407.16
#ExactMass 406.154
#Charge 1
#CAS_Number N/A
#Pubmed_ID N/A
#Smiles O=C(Nc1[nH]nc2nnc(c3ccccc3)c(c4ccccc4)c12)Nc5ccccc5
#INCHI_AUX N/A
#Library_Class 1
#SpectrumID CCMSLIB00000085962
#IonMode Positive
#UpdateWorkflowName UPDATE-SINGLE-ANNOTATED-GOLD
#LibraryQualityString Gold
#TaskID d252d724072548979f1f6f1ced849daf
##Scan# 2026
#SpectrumFile p4-H08_GH8_01_18416.mzXML
#LibraryName Pharm_Active_Library.mgf
#MQScore -1
#Organism Pharm_Active_Library
#TIC_Query 0
#RT_Query -1
#MZErrorPPM -1
#SharedPeaks 0
#MassDiff 0
#LibMZ -1
#SpecMZ 407.16
#SpecCharge 0
#internalFilename spec-00000.mgf

>collision 10
44.901855 112.0
44.914806 96.0
44.933105 96.0
44.95409 160.0
44.996548 124.0
45.011234 108.0
45.025925 104.0
45.043289 108.0
45.059692 196.0
45.098072 240.0
45.108768 160.0
45.119461 144.0
45.136452 288.0
45.151554 92.0
45.173847 176.0
45.189011 152.0
45.199146 132.0
45.223167 256.0
45.249672 248.0
45.266644 116.0
45.297451 148.0
45.325516 156.0
45.340328 72.0
45.36927 216.0
45.381882 172.0
45.397976 152.0
45.415409 172.0
45.444923 120.0
45.454315 84.0
45.485188 128.0
45.502251 320.0
45.512035 124.0
45.522778 124.0
45.548347 108.0
45.568451 212.0
45.604542 84.0
45.626854 148.0
45.636997 152.0
45.647755 124.0
45.658512 140.0
45.715763 152.0
45.753853 108.0
45.759087 92.0
45.764336 176.0
45.766354 204.0
45.779362 176.0
45.791275 224.0
45.815762 112.0
45.827145 104.0
45.842766 172.0
45.850433 268.0
45.881638 164.0
45.921146 164.0
45.931938 264.0
45.945427 104.0
45.985245 144.0
46.036518 124.0
46.053051 168.0
46.087276 68.0
46.107971 128.0
46.126076 104.0
46.193913 120.0
46.231888 124.0
46.253963 180.0
46.264374 68.0
46.29092 112.0
46.302288 156.0
46.328568 180.0
46.34071 132.0
46.346497 88.0
46.350315 176.0
46.361397 140.0
46.375454 124.0
46.384941 136.0
46.412117 172.0
46.43306 156.0
46.448574 108.0
46.453178 100.0
46.458557 140.0
46.486137 176.0
46.528877 208.0
46.552979 160.0
46.584507 64.0
46.604546 128.0
46.636059 256.0
46.656448 72.0
46.674126 136.0
46.694584 148.0
46.705406 132.0
46.727173 96.0
46.744194 180.0
46.761192 148.0
46.774597 356.0
46.833611 188.0
46.86055 104.0
46.897194 108.0
46.914356 84.0
46.927834 148.0
46.947979 120.0
46.968189 176.0
46.977089 172.0
46.996948 160.0
47.01469 92.0
47.040623 92.0
47.051544 64.0
47.065845 228.0
47.077763 120.0
47.115734 160.0
47.152687 92.0
47.17038 292.0
47.225697 136.0
47.235958 340.0
47.248348 108.0
47.263401 284.0
47.323315 124.0
47.38052 148.0
47.424194 136.0
47.434025 132.0
47.465183 116.0
47.479984 180.0
47.493561 200.0
47.519672 120.0
47.537815 140.0
47.551422 140.0
47.576679 168.0
47.585938 140.0
47.615112 136.0
47.656277 276.0
47.672043 140.0
47.684414 160.0
47.705032 100.0
47.730682 128.0
47.749062 276.0
47.775169 172.0
47.795807 84.0
47.824707 156.0
47.837097 40.0
47.852238 88.0
47.864632 152.0
47.873848 180.0
47.901611 160.0
47.932129 96.0
47.950047 212.0
47.967964 212.0
47.982056 144.0
47.998295 104.0
48.024498 180.0
48.049763 216.0
48.084385 168.0
48.09901 88.0
48.162529 176.0
48.172199 164.0
48.193649 200.0
48.220509 208.0
48.244061 164.0
48.257885 84.0
48.273315 152.0
48.314243 48.0
48.331196 148.0
48.349739 168.0
48.360256 80.0
48.387943 116.0
48.452324 140.0
48.462051 336.0
48.486294 132.0
48.52372 124.0
48.536201 104.0
48.554436 80.0
48.574219 188.0
48.596756 140.0
48.615231 140.0
48.666805 96.0
48.687462 168.0
48.706905 92.0
48.720798 36.0
48.773193 148.0
48.775692 104.0
48.800018 48.0
48.812664 260.0
48.834785 100.0
48.850559 176.0
48.866783 160.0
48.885437 364.0
48.901924 176.0
48.92625 240.0
48.934547 64.0
48.937843 72.0
48.982296 148.0
48.996262 128.0
49.02713 144.0
49.046501 160.0
49.056835 184.0
49.072052 148.0
49.090469 164.0
49.116783 212.0
49.125916 252.0
49.167557 76.0
49.191505 128.0
49.2019 144.0
49.222221 48.0
49.234295 132.0
49.266918 124.0
49.282177 156.0
49.302773 224.0
49.325611 124.0
49.355396 144.0
49.37315 76.0
49.394131 108.0
49.416512 136.0
49.444691 148.0
49.467285 244.0
49.499222 136.0
49.534111 184.0
49.553844 236.0
49.570145 184.0
49.584557 100.0
49.619598 112.0
49.635021 80.0
49.650448 180.0
49.698143 84.0
49.71714 224.0
49.730423 168.0
49.740246 264.0
49.755608 204.0
49.760429 192.0
49.785175 144.0
49.799221 192.0
49.811863 200.0
49.820938 96.0
49.855274 232.0
49.87088 40.0
49.902901 144.0
49.92712 148.0
49.93837 64.0
49.970768 136.0
50.002029 164.0
50.011284 224.0
50.020878 188.0
50.044125 108.0
50.057281 140.0
50.10376 188.0
50.12566 128.0
50.146545 108.0
50.196098 316.0
50.206459 172.0
50.239822 52.0
50.269451 188.0
50.279331 112.0
50.30756 216.0
50.318855 184.0
50.346512 184.0
50.357418 160.0
50.361565 164.0
50.378712 136.0
50.390301 308.0
50.406986 148.0
50.419147 136.0
50.43187 72.0
50.453072 124.0
50.475822 132.0
50.509602 156.0
50.520954 152.0
50.556332 64.0
50.569439 168.0
50.593132 220.0
50.61882 140.0
50.662312 160.0
50.689854 268.0
50.709648 140.0
50.736221 36.0
50.770653 152.0
50.786522 180.0
50.798904 160.0
50.847504 344.0
50.857674 200.0
50.892441 148.0
50.909328 72.0
50.922112 60.0
50.933861 176.0
50.942738 100.0
50.955391 224.0
50.993153 64.0
51.010853 208.0
51.030113 68.0
51.05571 244.0
51.073601 188.0
51.090511 120.0
51.108105 144.0
51.126842 68.0
51.139378 104.0
51.158157 80.0
51.173817 88.0
51.197201 200.0
51.252155 136.0
51.265797 128.0
51.279236 92.0
51.297615 116.0
51.301987 104.0
51.31477 112.0
51.330368 120.0
51.349979 260.0
51.364788 168.0
51.386524 92.0
51.409389 228.0
51.428997 96.0
51.440418 188.0
51.480396 96.0
51.517532 124.0
51.55611 168.0
51.584698 120.0
51.607704 152.0
51.629025 148.0
51.658669 160.0
51.677219 316.0
51.691967 104.0
51.70895 120.0
51.764523 252.0
51.770634 256.0
51.78233 376.0
51.809486 104.0
51.820839 72.0
51.8452 276.0
51.868134 200.0
51.879009 136.0
51.892506 212.0
51.910267 296.0
51.926922 156.0
51.939209 176.0
51.950428 72.0
51.975697 96.0
51.994583 168.0
52.005833 120.0
52.020187 76.0
52.060902 168.0
52.073917 84.0
52.084808 68.0
52.097736 108.0
52.122162 136.0
52.133659 100.0
52.150906 140.0
52.178699 108.0
52.204773 240.0
52.222317 132.0
52.246246 80.0
52.257324 112.0
52.270275 116.0
52.30566 184.0
52.342247 88.0
52.378197 100.0
52.401302 56.0
52.414272 140.0
52.427727 244.0
52.439831 152.0
52.460392 48.0
52.495575 156.0
52.511051 160.0
52.532497 48.0
52.549812 148.0
52.607445 120.0
52.624111 184.0
52.641731 212.0
52.666065 176.0
52.68697 140.0
52.744774 96.0
52.788147 204.0
52.804058 132.0
52.818474 152.0
52.831539 96.0
52.85379 180.0
52.86816 220.0
52.903122 140.0
52.915482 88.0
52.937202 140.0
52.978603 260.0
52.987858 148.0
52.994007 148.0
52.996849 180.0
53.061543 128.0
53.097969 116.0
53.106144 260.0
53.117847 176.0
53.169159 164.0
53.202435 160.0
53.244381 132.0
53.283207 148.0
53.315639 116.0
53.357384 144.0
53.385281 136.0
53.415302 108.0
53.435081 196.0
53.457233 152.0
53.480194 116.0
53.511154 252.0
53.528885 180.0
53.539886 212.0
53.556263 180.0
53.565132 240.0
53.589413 92.0
53.605442 132.0
53.629398 160.0
53.640862 344.0
53.659161 136.0
53.68898 116.0
53.700615 52.0
53.716934 208.0
53.732643 156.0
53.746891 148.0
53.769753 240.0
53.786293 220.0
53.804466 64.0
53.832108 180.0
53.87463 112.0
53.897549 136.0
53.912941 316.0
53.938213 268.0
53.957214 152.0
53.99231 248.0
54.012787 324.0
54.023029 92.0
54.069626 156.0
54.11084 140.0
54.12841 204.0
54.150375 108.0
54.163559 80.0
54.179672 196.0
54.201401 164.0
54.219902 176.0
54.236824 156.0
54.266293 200.0
54.28904 176.0
54.327744 92.0
54.340946 132.0
54.358555 40.0
54.379951 160.0
54.385754 188.0
54.389687 152.0
54.400551 176.0
54.420456 164.0
54.433422 108.0
54.458389 168.0
54.477486 176.0
54.504124 232.0
54.518627 88.0
54.542694 168.0
54.563622 144.0
54.580368 120.0
54.593857 348.0
54.609779 88.0
54.626305 120.0
54.641945 120.0
54.656857 88.0
54.671574 108.0
54.683346 156.0
54.699539 116.0
54.71804 176.0
54.736126 80.0
54.7658 108.0
54.784283 164.0
54.827682 168.0
54.854851 212.0
54.868954 68.0
54.880749 112.0
54.901085 152.0
54.918098 232.0
54.927944 184.0
54.958927 180.0
54.970078 136.0
54.986546 184.0
55.015011 148.0
55.03125 88.0
55.04245 184.0
55.06226 124.0
55.074562 160.0
55.085896 152.0
55.10067 116.0
55.111012 104.0
55.127266 64.0
55.153 184.0
55.17548 252.0
55.205868 164.0
55.220406 76.0
55.256317 168.0
55.28841 144.0
55.317036 144.0
55.349155 92.0
55.366928 124.0
55.383221 128.0
55.405441 132.0
55.437988 116.0
55.470749 116.0
55.504745 220.0
55.515125 308.0
55.534409 112.0
55.557175 264.0
55.576225 120.0
55.61813 236.0
55.641251 236.0
55.659302 152.0
55.672436 188.0
55.693226 112.0
55.741959 120.0
55.804684 128.0
55.831451 192.0
55.851482 120.0
55.864445 136.0
55.880669 92.0
55.897163 116.0
55.931023 128.0
55.933472 120.0
55.940304 152.0
55.987671 132.0
55.991714 152.0
56.030552 180.0
56.041344 56.0
56.056244 156.0
56.079205 212.0
56.095768 120.0
56.118851 124.0
56.130695 212.0
56.136566 200.0
56.183792 200.0
56.197655 312.0
56.226715 148.0
56.243439 132.0
56.259804 160.0
56.26878 148.0
56.310822 208.0
56.325932 208.0
56.350197 172.0
56.364017 128.0
56.384567 204.0
56.40242 120.0
56.422337 164.0
56.472778 140.0
56.493496 212.0
56.504196 100.0
56.535618 104.0
56.549088 128.0
56.559566 168.0
56.579063 168.0
56.585861 120.0
56.589409 124.0
56.605247 164.0
56.6217 40.0
56.648026 152.0
56.665894 64.0
56.706352 96.0
56.718979 104.0
56.757324 48.0
56.784618 100.0
56.804707 128.0
56.833824 236.0
56.85033 180.0
56.872845 164.0
56.889355 148.0
56.911552 112.0
56.94191 172.0
56.954578 92.0
56.965443 288.0
56.992947 92.0
56.996868 48.0
57.002876 124.0
57.016071 188.0
57.039268 156.0
57.051582 156.0
57.060909 172.0
57.081673 144.0
57.096439 108.0
57.114761 340.0
57.145786 148.0
57.198418 368.0
57.211071 76.0
57.247208 120.0
57.29089 32.0
57.306591 192.0
57.319515 44.0
57.334587 144.0
57.373775 108.0
57.394958 84.0
57.426147 192.0
57.45681 140.0
57.474831 156.0
57.498569 308.0
57.515579 60.0
57.532185 128.0
57.547283 52.0
57.559361 64.0
57.579578 176.0
57.59251 152.0
57.616756 92.0
57.634949 200.0
57.66478 164.0
57.689545 196.0
57.709888 136.0
57.730705 104.0
57.734924 160.0
57.75407 168.0
57.764912 132.0
57.787094 192.0
57.824665 204.0
57.863857 84.0
57.882965 136.0
57.896595 216.0
57.907196 96.0
57.927391 216.0
57.953506 180.0
57.957512 168.0
57.991234 240.0
58.009758 140.0
58.022362 60.0
58.045105 116.0
58.057236 52.0
58.078472 132.0
58.104259 172.0
58.127018 80.0
58.141537 212.0
58.165993 336.0
58.189026 204.0
58.201904 228.0
58.216583 88.0
58.240101 124.0
58.254559 176.0
58.268093 132.0
58.27784 148.0
58.29406 128.0
58.307606 136.0
58.33971 116.0
58.354816 136.0
58.38316 184.0
58.40657 88.0
58.418945 148.0
58.43948 272.0
58.453732 84.0
58.468952 160.0
58.479565 156.0
58.494827 148.0
58.517693 188.0
58.549641 148.0
58.572487 184.0
58.584675 52.0
58.596863 124.0
58.612591 124.0
58.647915 176.0
58.66087 64.0
58.676117 192.0
58.689838 104.0
58.721863 144.0
58.7374 144.0
58.751236 188.0
58.770679 112.0
58.806652 224.0
58.830204 164.0
58.854633 136.0
58.886703 116.0
58.901978 56.0
58.927948 116.0
58.945335 284.0
58.976849 168.0
58.990608 92.0
59.010212 272.0
59.043655 156.0
59.054832 132.0
59.076244 84.0
59.088863 140.0
59.118465 128.0
59.132351 104.0
59.165009 92.0
59.184113 92.0
59.197163 156.0
59.210945 152.0
59.240181 140.0
59.253963 196.0
59.282555 320.0
59.305939 256.0
59.318203 104.0
59.336601 108.0
59.362667 108.0
59.388008 228.0
59.414742 172.0
59.483875 120.0
59.494621 164.0
59.522018 128.0
59.554398 168.0
59.582161 72.0
59.607479 92.0
59.622112 104.0
59.643631 160.0
59.697441 88.0
59.723587 148.0
59.752007 152.0
59.782055 100.0
59.796902 284.0
59.819145 40.0
59.835396 104.0
59.863644 116.0
59.875965 60.0
59.893433 164.0
59.910442 52.0
59.929882 136.0
59.945454 152.0
59.958565 124.0
59.969299 180.0
60.003716 124.0
60.047039 152.0
60.068634 64.0
60.085606 124.0
60.096405 220.0
60.111835 52.0
60.134644 96.0
60.162769 44.0
60.203339 204.0
60.255436 84.0
60.301792 108.0
60.316879 180.0
60.336723 168.0
60.361942 128.0
60.378624 104.0
60.415501 180.0
60.430145 140.0
60.451122 80.0
60.495148 112.0
60.510597 232.0
60.522079 272.0
60.536671 220.0
60.549343 132.0
60.567707 112.0
60.586849 156.0
60.594761 100.0
60.615959 76.0
60.656254 136.0
60.68047 196.0
60.705868 104.0
60.719826 120.0
60.751995 92.0
60.766239 148.0
60.781879 128.0
60.796928 176.0
60.800957 204.0
60.807171 148.0
60.812733 100.0
60.828033 168.0
60.868179 168.0
60.898315 176.0
60.913811 172.0
60.935925 204.0
60.988293 176.0
61.008644 108.0
61.021847 136.0
61.03352 56.0
61.044407 148.0
61.056847 152.0
61.097111 104.0
61.134987 92.0
61.153923 264.0
61.18169 228.0
61.194534 108.0
61.206242 116.0
61.218407 128.0
61.241524 168.0
61.25742 144.0
61.276333 116.0
61.303135 140.0
61.31794 80.0
61.380039 292.0
61.410397 168.0
61.433834 152.0
61.456028 144.0
61.46656 128.0
61.485287 140.0
61.520386 156.0
61.5368 160.0
61.553123 256.0
61.605679 116.0
61.620049 80.0
61.63131 272.0
61.663647 120.0
61.685886 112.0
61.708668 88.0
61.73056 92.0
61.746197 96.0
61.773865 176.0
61.785789 284.0
61.813736 116.0
61.833012 156.0
61.849464 172.0
61.865238 104.0
61.881332 112.0
61.902695 120.0
61.92149 164.0
61.941429 104.0
61.944572 124.0
61.97599 152.0
61.981857 64.0
61.984482 152.0
62.006115 308.0
62.059391 364.0
62.07037 96.0
62.082047 188.0
62.091354 136.0
62.101734 180.0
62.112686 132.0
62.124367 140.0
62.140129 76.0
62.158375 116.0
62.181686 184.0
62.220997 56.0
62.241409 68.0
62.263966 124.0
62.279873 136.0
62.318554 196.0
62.336361 104.0
62.378098 176.0
62.403107 132.0
62.417686 164.0
62.435486 120.0
62.459267 200.0
62.485035 48.0
62.497623 80.0
62.507828 256.0
62.531269 144.0
62.560123 124.0
62.588684 160.0
62.612541 56.0
62.637604 136.0
62.654015 252.0
62.675629 84.0
62.688915 284.0
62.705498 152.0
62.724007 300.0
62.738598 140.0
62.763466 140.0
62.789787 292.0
62.811039 124.0
62.815475 112.0
62.822048 96.0
62.82922 104.0
62.835239 144.0
62.856892 100.0
62.888069 160.0
62.912136 36.0
62.940556 64.0
62.959576 88.0
62.97308 148.0
63.000423 212.0
63.02454 212.0
63.048588 176.0
63.065361 204.0
63.096977 212.0
63.156246 404.0
63.187126 144.0
63.216694 152.0
63.248631 176.0
63.267334 76.0
63.290009 56.0
63.312176 140.0
63.326977 168.0
63.354946 92.0
63.388702 164.0
63.404732 124.0
63.419209 296.0
63.43589 104.0
63.451622 116.0
63.489281 48.0
63.510296 112.0
63.5214 156.0
63.547379 228.0
63.573872 112.0
63.59201 88.0
63.605225 224.0
63.623909 168.0
63.638184 184.0
63.658878 136.0
63.688072 44.0
63.701496 180.0
63.72739 248.0
63.729958 164.0
63.737652 160.0
63.741798 88.0
63.769104 60.0
63.792755 196.0
63.829094 120.0
63.850189 100.0
63.9161 204.0
63.960384 424.0
63.972252 152.0
64.003159 164.0
64.036407 140.0
64.047554 228.0
64.069855 256.0
64.08474 156.0
64.109138 128.0
64.12085 124.0
64.164597 144.0
64.190353 220.0
64.221619 140.0
64.237244 188.0
64.252304 300.0
64.288147 120.0
64.339386 136.0
64.357468 184.0
64.385498 136.0
64.410179 112.0
64.428703 164.0
64.47036 156.0
64.488571 184.0
64.500732 44.0
64.517517 144.0
64.553215 92.0
64.591652 216.0
64.595543 164.0
64.625511 168.0
64.639801 172.0
64.654274 68.0
64.668678 92.0
64.690422 124.0
64.711761 136.0
64.734322 112.0
64.76265 64.0
64.773216 140.0
64.805649 280.0
64.824242 240.0
64.854996 112.0
64.892342 228.0
64.895432 140.0
64.902771 164.0
64.961739 176.0
64.979568 44.0
65.000427 112.0
65.014206 204.0
65.033089 264.0
65.047028 112.0
65.064629 92.0
65.097466 160.0
65.13047 84.0
65.156174 96.0
65.189377 144.0
65.192261 96.0
65.209801 128.0
65.230095 80.0
65.266235 48.0
65.277405 408.0
65.358765 128.0
65.386116 212.0
65.402733 124.0
65.447029 148.0
65.483002 208.0
65.498825 128.0
65.510101 128.0
65.52523 308.0
65.542328 204.0
65.553543 96.0
65.590645 108.0
65.626144 220.0
65.641968 148.0
65.657906 92.0
65.679207 164.0
65.692154 168.0
65.703949 208.0
65.718544 84.0
65.734848 100.0
65.750359 148.0
65.769722 144.0
65.785461 112.0
65.808472 192.0
65.825539 232.0
65.843994 140.0
65.855003 232.0
65.865715 116.0
65.882431 96.0
65.902618 176.0
65.925606 132.0
65.946777 148.0
65.954308 196.0
65.974884 108.0
66.015533 176.0
66.032066 216.0
66.059723 200.0
66.090401 268.0
66.110748 96.0
66.139885 168.0
66.159309 48.0
66.170647 148.0
66.195587 296.0
66.217018 144.0
66.241898 68.0
66.280785 68.0
66.296989 84.0
66.312164 88.0
66.339134 168.0
66.358047 152.0
66.363182 120.0
66.391022 100.0
66.422882 180.0
66.435555 132.0
66.455788 168.0
66.461731 156.0
66.465332 128.0
66.488358 260.0
66.499657 108.0
66.523125 160.0
66.555916 156.0
66.569534 212.0
66.606117 328.0
66.619881 180.0
66.643806 116.0
66.665474 136.0
66.68602 188.0
66.692665 132.0
66.696754 160.0
66.71666 248.0
66.754791 136.0
66.774071 112.0
66.783508 280.0
66.800896 208.0
66.829613 44.0
66.849136 136.0
66.877045 100.0
66.897217 224.0
66.925171 192.0
66.941292 132.0
66.968376 172.0
66.990929 148.0
67.007088 88.0
67.021751 144.0
67.052101 332.0
67.068466 60.0
67.095894 180.0
67.114258 180.0
67.133575 132.0
67.155266 396.0
67.183525 204.0
67.206696 104.0
67.219971 64.0
67.229958 112.0
67.241905 96.0
67.263451 100.0
67.291832 116.0
67.298561 68.0
67.30278 96.0
67.32843 112.0
67.344734 196.0
67.387238 152.0
67.411751 112.0
67.431931 128.0
67.44754 160.0
67.463074 160.0
67.471245 100.0
67.485466 156.0
67.51474 136.0
67.530754 76.0
67.552361 112.0
67.571136 76.0
67.600327 140.0
67.624825 140.0
67.64328 136.0
67.671837 196.0
67.693123 148.0
67.706223 152.0
67.741898 92.0
67.761917 92.0
67.796326 168.0
67.815788 112.0
67.827057 144.0
67.834244 152.0
67.838501 164.0
67.844772 108.0
67.87265 136.0
67.886658 196.0
67.904533 72.0
67.916016 120.0
67.932076 172.0
67.962379 168.0
67.985077 128.0
67.999252 164.0
68.015663 88.0
68.047302 160.0
68.065361 124.0
68.099167 96.0
68.132347 92.0
68.15136 180.0
68.177673 144.0
68.200081 136.0
68.214684 172.0
68.218552 152.0
68.225182 208.0
68.248344 100.0
68.270439 92.0
68.285576 124.0
68.305313 200.0
68.32177 132.0
68.344597 64.0
68.358406 132.0
68.37796 212.0
68.420425 296.0
68.444778 412.0
68.498405 148.0
68.519257 188.0
68.538239 184.0
68.567116 136.0
68.593491 128.0
68.609253 128.0
68.612061 120.0
68.650162 160.0
68.676437 92.0
68.705627 160.0
68.720474 60.0
68.735687 284.0
68.749924 128.0
68.799767 184.0
68.815117 296.0
68.830826 184.0
68.870758 116.0
68.874641 104.0
68.881134 152.0
68.894974 156.0
68.90136 108.0
68.905098 132.0
68.923569 72.0
68.953316 92.0
68.971497 128.0
68.994644 128.0
69.011253 88.0
69.031532 156.0
69.064629 324.0
69.077942 184.0
69.11499 152.0
69.15303 144.0
69.158348 108.0
69.167099 140.0
69.198997 216.0
69.205414 112.0
69.210136 148.0
69.245636 100.0
69.252594 68.0
69.270256 44.0
69.297516 76.0
69.337288 92.0
69.361488 40.0
69.364975 108.0
69.398621 76.0
69.416862 276.0
69.431671 332.0
69.434662 164.0
69.468285 164.0
69.491989 96.0
69.524055 108.0
69.542656 156.0
69.565399 160.0
69.60936 104.0
69.621719 208.0
69.643761 140.0
69.657295 204.0
69.669151 156.0
69.69075 116.0
69.719002 248.0
69.752098 228.0
69.758064 112.0
69.763496 128.0
69.769104 200.0
69.785858 92.0
69.814888 168.0
69.845177 140.0
69.866913 92.0
69.880264 104.0
69.915756 104.0
69.938972 124.0
69.95919 260.0
69.979561 188.0
70.004547 156.0
70.043449 148.0
70.060059 124.0
70.080101 180.0
70.146042 156.0
70.157661 112.0
70.195114 200.0
70.229469 192.0
70.252403 180.0
70.277039 144.0
70.290794 124.0
70.310226 160.0
70.340942 184.0
70.363281 240.0
70.407875 124.0
70.46051 116.0
70.491508 116.0
70.515968 128.0
70.52903 256.0
70.540726 176.0
70.552429 180.0
70.582283 164.0
70.629402 288.0
70.659462 104.0
70.676758 72.0
70.700356 248.0
70.733101 140.0
70.748169 268.0
70.772797 148.0
70.789993 216.0
70.819359 124.0
70.841286 152.0
70.895004 252.0
70.909683 76.0
70.929474 176.0
70.97435 156.0
71.002609 188.0
71.033051 164.0
71.049828 184.0
71.063255 100.0
71.098488 212.0
71.123665 64.0
71.138771 112.0
71.162041 56.0
71.178734 112.0
71.19754 288.0
71.210777 132.0
71.234917 192.0
71.263054 116.0
71.281433 124.0
71.297974 128.0
71.321915 156.0
71.340363 144.0
71.353317 108.0
71.370628 184.0
71.395851 136.0
71.414352 92.0
71.438225 84.0
71.456413 72.0
71.480049 164.0
71.49942 144.0
71.515656 172.0
71.54847 84.0
71.566177 176.0
71.582649 96.0
71.615753 160.0
71.666878 160.0
71.685623 144.0
71.6987 168.0
71.739349 128.0
71.754517 68.0
71.766319 32.0
71.796677 140.0
71.810364 208.0
71.847282 164.0
71.868263 144.0
71.905914 160.0
71.916565 148.0
71.949036 200.0
71.965424 152.0
71.983093 216.0
72.000938 148.0
72.018227 104.0
72.03228 240.0
72.068459 148.0
72.08638 244.0
72.10482 100.0
72.122536 68.0
72.136055 100.0
72.154655 80.0
72.177605 160.0
72.220947 140.0
72.263107 112.0
72.2808 216.0
72.305206 104.0
72.329254 196.0
72.349213 132.0
72.367294 152.0
72.381386 124.0
72.40509 224.0
72.444054 128.0
72.460007 248.0
72.479332 180.0
72.506744 144.0
72.538948 156.0
72.572258 124.0
72.597404 160.0
72.604187 76.0
72.619095 148.0
72.624947 112.0
72.661194 144.0
72.688202 96.0
72.710266 152.0
72.726982 132.0
72.748589 152.0
72.772957 120.0
72.778954 112.0
72.783852 172.0
72.809517 216.0
72.84745 136.0
72.866486 80.0
72.894112 156.0
72.920753 180.0
72.924873 168.0
72.950981 156.0
72.972527 100.0
72.988869 192.0
73.013771 56.0
73.041115 128.0
73.061852 132.0
73.085823 188.0
73.111351 84.0
73.135979 196.0
73.158005 120.0
73.174866 148.0
73.188316 372.0
73.214119 132.0
73.23127 184.0
73.242859 184.0
73.266304 84.0
73.289169 76.0
73.302834 308.0
73.332016 120.0
73.342987 184.0
73.359558 100.0
73.471733 216.0
73.492325 240.0
73.503937 160.0
73.523727 136.0
73.538635 176.0
73.55722 128.0
73.585228 144.0
73.617676 152.0
73.63475 36.0
73.681427 172.0
73.693161 172.0
73.718468 104.0
73.737267 128.0
73.783241 184.0
73.797592 248.0
73.814194 96.0
73.859688 120.0
73.899117 260.0
73.92247 148.0
73.946396 168.0
73.962799 312.0
73.982895 288.0
74.001259 124.0
74.022232 392.0
74.048012 252.0
74.065239 88.0
74.086334 68.0
74.116348 124.0
74.13179 152.0
74.145882 112.0
74.161415 108.0
74.177162 152.0
74.204163 200.0
74.222954 124.0
74.231552 172.0
74.234764 128.0
74.247459 260.0
74.269463 328.0
74.286301 108.0
74.300636 104.0
74.322945 68.0
74.343536 88.0
74.368637 204.0
74.378456 196.0
74.396744 116.0
74.420837 152.0
74.433685 192.0
74.464165 200.0
74.498146 180.0
74.515244 56.0
74.542137 80.0
74.565468 176.0
74.589973 116.0
74.609772 92.0
74.631157 244.0
74.654785 112.0
74.673897 124.0
74.697052 144.0
74.730164 120.0
74.754257 84.0
74.774048 176.0
74.795563 56.0
74.847214 176.0
74.869804 132.0
74.875397 120.0
74.882202 176.0
74.901031 256.0
74.911903 200.0
74.936783 120.0
74.951675 180.0
74.971245 136.0
74.992889 164.0
75.007286 136.0
75.036057 220.0
75.054565 192.0
75.083572 228.0
75.112442 180.0
75.140228 144.0
75.162811 92.0
75.212875 164.0
75.238319 144.0
75.25103 120.0
75.273132 152.0
75.300613 300.0
75.330528 156.0
75.353111 292.0
75.374619 224.0
75.396889 164.0
75.407738 320.0
75.43277 148.0
75.445747 80.0
75.464462 88.0
75.478767 348.0
75.496735 192.0
75.515953 112.0
75.540047 120.0
75.56871 32.0
75.592941 144.0
75.632744 176.0
75.651787 40.0
75.669098 88.0
75.689873 124.0
75.707191 144.0
75.727974 120.0
75.740791 120.0
75.75396 104.0
75.769554 108.0
75.78653 120.0
75.850349 92.0
75.872505 208.0
75.892609 264.0
75.940247 348.0
75.955765 232.0
75.986267 172.0
76.010452 128.0
76.016243 176.0
76.043724 144.0
76.065804 116.0
76.106773 216.0
76.135963 236.0
76.151184 136.0
76.172028 364.0
76.20504 216.0
76.235481 300.0
76.254356 144.0
76.298141 176.0
76.319359 212.0
76.338882 164.0
76.355293 156.0
76.371201 360.0
76.384697 248.0
76.410194 236.0
76.422379 96.0
76.451088 184.0
76.457939 92.0
76.464668 132.0
76.479805 216.0
76.530769 116.0
76.560928 108.0
76.58297 112.0
76.619736 180.0
76.641769 312.0
76.653969 88.0
76.670219 160.0
76.694695 108.0
76.708 152.0
76.74984 176.0
76.768349 164.0
76.796303 180.0
76.8153 172.0
76.83712 100.0
76.889458 208.0
76.904343 200.0
76.933037 144.0
76.957962 72.0
76.97805 164.0
76.984215 128.0
76.99131 204.0
77.029083 88.0
77.048302 240.0
77.060532 148.0
77.092506 168.0
77.106194 364.0
77.161232 136.0
77.2155 264.0
77.225822 116.0
77.231071 120.0
77.264786 116.0
77.284332 180.0
77.300995 92.0
77.344475 224.0
77.360878 156.0
77.410835 136.0
77.432259 92.0
77.444405 120.0
77.460335 152.0
77.4907 116.0
77.496651 156.0
77.515472 112.0
77.552277 416.0
77.591782 224.0
77.609238 212.0
77.627663 136.0
77.647446 144.0
77.654663 112.0
77.680283 124.0
77.70192 156.0
77.728729 184.0
77.753983 124.0
77.780304 212.0
77.822441 144.0
77.857559 72.0
77.896835 100.0
77.915092 136.0
77.931747 244.0
77.961212 104.0
77.977554 152.0
77.992317 152.0
78.004692 152.0
78.035042 96.0
78.054382 108.0
78.074097 76.0
78.091904 120.0
78.11837 272.0
78.148338 96.0
78.178246 68.0
78.229424 172.0
78.258415 192.0
78.307808 124.0
78.337746 160.0
78.360649 108.0
78.382027 92.0
78.402626 132.0
78.409081 108.0
78.440056 144.0
78.481804 320.0
78.512245 92.0
78.52636 184.0
78.557083 124.0
78.564758 52.0
78.571663 164.0
78.614571 40.0
78.668686 260.0
78.683014 160.0
78.700951 124.0
78.734184 184.0
78.747681 192.0
78.761108 108.0
78.793068 136.0
78.815285 180.0
78.840622 160.0
78.859001 140.0
78.887566 196.0
78.912071 176.0
78.942398 56.0
78.970375 212.0
78.999542 100.0
79.019981 120.0
79.032257 168.0
79.055923 204.0
79.086464 64.0
79.10218 236.0
79.128128 200.0
79.16436 136.0
79.187836 152.0
79.200256 136.0
79.239288 188.0
79.251854 92.0
79.272179 172.0
79.30027 140.0
79.305672 100.0
79.316734 104.0
79.330917 156.0
79.344299 116.0
79.423363 120.0
79.451508 160.0
79.463608 152.0
79.482277 208.0
79.511719 176.0
79.528908 188.0
79.542015 152.0
79.554436 280.0
79.570419 108.0
79.587074 136.0
79.600327 180.0
79.602859 148.0
79.627716 60.0
79.656143 104.0
79.660782 104.0
79.698303 80.0
79.716957 80.0
79.724777 40.0
79.731453 116.0
79.756836 128.0
79.794281 68.0
79.8162 244.0
79.831619 136.0
79.84407 324.0
79.863632 80.0
79.902771 188.0
79.947258 80.0
79.989975 128.0
80.00367 96.0
80.028198 236.0
80.062973 156.0
80.077827 176.0
80.102501 212.0
80.133507 368.0
80.153824 288.0
80.171913 160.0
80.193756 128.0
80.211784 224.0
80.235771 332.0
80.254936 260.0
80.302696 168.0
80.339256 164.0
80.351746 144.0
80.371521 288.0
80.405273 64.0
80.424911 164.0
80.437401 124.0
80.459335 184.0
80.465271 144.0
80.472275 128.0
80.508926 176.0
80.528473 68.0
80.548119 96.0
80.568329 200.0
80.601715 184.0
80.617577 228.0
80.624802 200.0
80.670898 192.0
80.707848 308.0
80.721481 56.0
80.756241 156.0
80.785339 136.0
80.825233 76.0
80.857079 136.0
80.86985 112.0
80.876205 216.0
80.909737 336.0
80.926338 140.0
80.943436 136.0
80.963074 80.0
80.992355 92.0
81.025772 144.0
81.061607 128.0
81.091225 68.0
81.131592 176.0
81.165672 220.0
81.209961 96.0
81.240051 168.0
81.273949 172.0
81.305984 104.0
81.34037 196.0
81.362572 304.0
81.383957 136.0
81.458122 120.0
81.476082 96.0
81.509186 152.0
81.532784 216.0
81.557671 240.0
81.588058 132.0
81.602646 220.0
81.627068 52.0
81.654045 144.0
81.682823 168.0
81.727455 104.0
81.756874 224.0
81.794388 120.0
81.814186 124.0
81.913452 108.0
81.928917 148.0
81.932358 104.0
81.965485 124.0
81.985153 232.0
82.004089 132.0
82.020607 180.0
82.052818 132.0
82.084457 144.0
82.098587 136.0
82.115112 96.0
82.137665 176.0
82.156906 120.0
82.176453 92.0
82.216019 196.0
82.244385 56.0
82.263809 108.0
82.299049 52.0
82.314468 220.0
82.353363 48.0
82.368881 88.0
82.393105 168.0
82.410812 140.0
82.452736 76.0
82.472618 100.0
82.533958 116.0
82.539375 108.0
82.545166 120.0
82.57299 148.0
82.591957 460.0
82.620285 156.0
82.643265 100.0
82.657974 172.0
82.676994 368.0
82.710121 212.0
82.769104 204.0
82.807892 212.0
82.830894 56.0
82.864388 148.0
82.890686 180.0
82.914337 204.0
82.933655 100.0
82.971474 188.0
83.017578 188.0
83.044785 108.0
83.059296 104.0
83.08651 180.0
83.102493 236.0
83.108162 192.0
83.112762 68.0
83.135872 108.0
83.171799 112.0
83.208107 104.0
83.224449 104.0
83.238976 168.0
83.258949 176.0
83.281937 116.0
83.285378 116.0
83.293739 104.0
83.299294 132.0
83.323647 84.0
83.3657 252.0
83.378853 392.0
83.424301 52.0
83.454475 240.0
83.472931 88.0
83.511391 76.0
83.517921 132.0
83.583488 84.0
83.609772 132.0
83.620796 296.0
83.64386 92.0
83.657806 100.0
83.6745 204.0
83.704361 148.0
83.725685 144.0
83.738663 184.0
83.75367 148.0
83.781883 188.0
83.803459 72.0
83.824722 104.0
83.842941 180.0
83.887604 124.0
83.89489 72.0
83.90036 136.0
83.934547 252.0
83.974815 172.0
83.994141 316.0
84.017082 144.0
84.056366 124.0
84.0821 180.0
84.112434 212.0
84.117584 188.0
84.142097 176.0
84.190468 92.0
84.206009 172.0
84.22123 84.0
84.224693 192.0
84.25856 120.0
84.265099 92.0
84.272491 152.0
84.343048 84.0
84.396629 116.0
84.408653 316.0
84.463699 124.0
84.47599 152.0
84.488373 200.0
84.512032 60.0
84.527237 332.0
84.571693 108.0
84.599617 156.0
84.641258 260.0
84.656517 180.0
84.676056 176.0
84.710999 268.0
84.732841 108.0
84.749512 240.0
84.766907 408.0
84.800644 68.0
84.824043 188.0
84.879776 280.0
84.914314 132.0
84.929916 324.0
84.962379 60.0
84.983376 168.0
85.015221 152.0
85.04538 356.0
85.127693 272.0
85.156342 148.0
85.218269 132.0
85.225189 200.0
85.275017 148.0
85.2883 128.0
85.305428 156.0
85.343872 224.0
85.355568 132.0
85.362289 168.0
85.375298 104.0
85.424957 76.0
85.463593 204.0
85.485756 92.0
85.522606 120.0
85.539795 168.0
85.554489 152.0
85.568504 172.0
85.586082 176.0
85.593369 96.0
85.596588 128.0
85.61245 200.0
85.626747 224.0
85.658745 128.0
85.690063 92.0
85.710197 164.0
85.736855 348.0
85.756409 120.0
85.785179 176.0
85.801582 192.0
85.829475 132.0
85.84391 164.0
85.863235 140.0
85.882866 444.0
85.902794 172.0
85.930069 116.0
85.985291 320.0
86.011215 224.0
86.027565 164.0
86.052162 300.0
86.089821 228.0
86.111092 136.0
86.125168 164.0
86.139099 116.0
86.174919 196.0
86.18351 64.0
86.189354 160.0
86.207008 156.0
86.224075 76.0
86.26033 92.0
86.275116 136.0
86.300789 160.0
86.335541 212.0
86.364937 168.0
86.405487 220.0
86.421021 284.0
86.454536 228.0
86.475708 100.0
86.490646 164.0
86.508972 176.0
86.524063 128.0
86.56636 188.0
86.598946 80.0
86.653061 196.0
86.67305 92.0
86.698402 100.0
86.703392 160.0
86.751747 268.0
86.77314 172.0
86.806519 116.0
86.822922 132.0
86.852188 156.0
86.865868 96.0
86.88813 132.0
86.912971 276.0
86.948364 208.0
86.955231 172.0
86.972244 148.0
86.997047 116.0
87.019905 152.0
87.036613 144.0
87.073082 120.0
87.122055 256.0
87.149071 184.0
87.170357 52.0
87.193344 104.0
87.216042 124.0
87.249748 208.0
87.297035 320.0
87.324669 112.0
87.359283 196.0
87.389084 216.0
87.414154 156.0
87.430122 212.0
87.44368 116.0
87.458687 148.0
87.504494 164.0
87.507645 208.0
87.529541 228.0
87.559578 144.0
87.575935 208.0
87.588974 116.0
87.603882 112.0
87.61692 116.0
87.643005 168.0
87.656052 220.0
87.6689 140.0
87.693977 148.0
87.734444 136.0
87.772987 164.0
87.789734 168.0
87.818245 200.0
87.834549 200.0
87.872993 204.0
87.905251 88.0
87.920372 92.0
87.9505 200.0
87.963142 240.0
87.992363 188.0
88.013298 124.0
88.033348 156.0
88.063606 132.0
88.085892 352.0
88.130058 136.0
88.178596 104.0
88.222183 100.0
88.249191 120.0
88.30352 152.0
88.322563 92.0
88.347702 168.0
88.371208 100.0
88.384308 168.0
88.404892 56.0
88.427345 136.0
88.442322 96.0
88.49868 152.0
88.535309 108.0
88.577965 128.0
88.602325 140.0
88.667458 240.0
88.704567 156.0
88.726891 164.0
88.743935 136.0
88.769432 172.0
88.785934 192.0
88.793488 76.0
88.799232 148.0
88.830208 216.0
88.854599 88.0
88.867729 156.0
88.881905 140.0
88.903381 72.0
88.940918 124.0
88.961571 124.0
88.991608 192.0
89.017639 116.0
89.036819 540.0
89.072365 96.0
89.098663 156.0
89.111816 112.0
89.134705 44.0
89.149399 168.0
89.168785 140.0
89.186119 156.0
89.193825 132.0
89.241547 180.0
89.265091 192.0
89.279114 120.0
89.298569 104.0
89.314713 184.0
89.346519 144.0
89.367523 160.0
89.387238 176.0
89.450195 216.0
89.488152 124.0
89.507217 132.0
89.534218 196.0
89.563316 156.0
89.587807 64.0
89.608528 116.0
89.639885 136.0
89.653755 52.0
89.678253 152.0
89.694344 112.0
89.722786 160.0
89.740463 164.0
89.755547 124.0
89.768745 148.0
89.789703 180.0
89.805435 124.0
89.820145 160.0
89.842308 196.0
89.855515 336.0
89.871841 132.0
89.887589 108.0
89.925339 136.0
89.951759 88.0
89.972778 92.0
89.991722 104.0
90.013107 124.0
90.042488 160.0
90.070724 100.0
90.086853 184.0
90.115463 112.0
90.139481 144.0
90.143463 180.0
90.179428 400.0
90.211403 120.0
90.238213 272.0
90.262642 156.0
90.293716 192.0
90.311928 140.0
90.3479 276.0
90.367538 72.0
90.407806 128.0
90.430771 240.0
90.467842 128.0
90.488838 192.0
90.507607 160.0
90.526543 120.0
90.543587 40.0
90.590935 72.0
90.652519 144.0
90.682968 120.0
90.708427 192.0
90.759621 88.0
90.793716 192.0
90.800293 188.0
90.82354 224.0
90.848885 120.0
90.86927 148.0
90.885139 160.0
90.91655 148.0
90.943932 216.0
90.956642 176.0
90.981651 168.0
91.002487 72.0
91.021477 108.0
91.043213 104.0
91.058372 212.0
91.086998 48.0
91.104156 168.0
91.118347 148.0
91.150047 284.0
91.166634 136.0
91.175354 176.0
91.204231 304.0
91.221512 160.0
91.227715 124.0
91.274155 144.0
91.2798 140.0
91.285614 136.0
91.294525 140.0
91.300385 120.0
91.324425 176.0
91.360764 260.0
91.390236 140.0
91.435196 200.0
91.470909 176.0
91.485397 80.0
91.504364 212.0
91.534904 128.0
91.570213 200.0
91.60862 284.0
91.623947 148.0
91.643478 136.0
91.655945 100.0
91.692108 184.0
91.708694 144.0
91.776901 200.0
91.830742 156.0
91.845558 100.0
91.874336 188.0
91.889435 264.0
91.908516 96.0
91.937988 188.0
91.955307 100.0
91.9618 52.0
91.977325 132.0
92.022644 136.0
92.05014 724.0
92.080322 100.0
92.11219 152.0
92.12513 188.0
92.14167 140.0
92.16449 284.0
92.194954 108.0
92.228294 252.0
92.260674 136.0
92.277153 48.0
92.311569 96.0
92.328781 140.0
92.342171 88.0
92.380951 116.0
92.405083 148.0
92.425262 340.0
92.467407 140.0
92.507225 92.0
92.528557 112.0
92.583313 144.0
92.60981 144.0
92.627716 172.0
92.65036 76.0
92.667603 128.0
92.682076 104.0
92.709595 144.0
92.752922 176.0
92.7724 264.0
92.805603 192.0
92.857384 132.0
92.881638 276.0
92.908287 116.0
92.93 220.0
92.940376 296.0
93.014893 220.0
93.055809 532.0
93.087677 120.0
93.113426 108.0
93.182892 224.0
93.209007 124.0
93.241707 112.0
93.256744 192.0
93.272118 160.0
93.31057 108.0
93.324028 80.0
93.368538 292.0
93.385567 148.0
93.406723 152.0
93.427887 120.0
93.448669 204.0
93.477364 112.0
93.48542 80.0
93.52919 172.0
93.554321 208.0
93.583138 168.0
93.601112 152.0
93.618439 196.0
93.638306 204.0
93.666092 256.0
93.699341 132.0
93.718925 268.0
93.753395 160.0
93.781242 224.0
93.807266 168.0
93.830399 216.0
93.862938 192.0
93.892105 108.0
93.924896 72.0
93.944183 120.0
93.961548 112.0
93.98719 272.0
94.000137 144.0
94.030457 220.0
94.064873 532.0
94.10051 152.0
94.115196 204.0
94.15844 172.0
94.192383 128.0
94.210304 132.0
94.230453 208.0
94.258896 36.0
94.281342 176.0
94.299484 148.0
94.316063 248.0
94.336205 268.0
94.350807 184.0
94.376205 204.0
94.393799 176.0
94.412788 92.0
94.430145 76.0
94.447044 164.0
94.489853 252.0
94.512207 160.0
94.534782 48.0
94.579559 120.0
94.601234 88.0
94.633057 184.0
94.67067 144.0
94.698059 144.0
94.71936 256.0
94.741379 220.0
94.769417 148.0
94.791046 76.0
94.819458 224.0
94.856728 144.0
94.884583 220.0
94.903473 228.0
94.945488 168.0
94.978401 120.0
94.998215 104.0
95.011551 192.0
95.0439 224.0
95.095596 116.0
95.111061 148.0
95.128525 156.0
95.151031 88.0
95.172348 140.0
95.191727 196.0
95.244652 60.0
95.25042 156.0
95.278061 60.0
95.300201 60.0
95.328911 168.0
95.360031 156.0
95.381058 56.0
95.422546 164.0
95.458832 156.0
95.511856 152.0
95.52932 164.0
95.576408 428.0
95.590385 108.0
95.607635 148.0
95.633064 144.0
95.691895 108.0
95.719589 96.0
95.737885 212.0
95.773682 336.0
95.794151 156.0
95.80938 160.0
95.825874 120.0
95.839844 76.0
95.863739 136.0
95.88398 144.0
95.904671 160.0
95.925926 172.0
95.95327 176.0
95.983749 64.0
96.004021 92.0
96.011818 88.0
96.016159 120.0
96.036514 220.0
96.061493 104.0
96.080177 160.0
96.107132 152.0
96.136757 116.0
96.152374 40.0
96.176964 160.0
96.193359 76.0
96.226555 244.0
96.262558 100.0
96.28904 264.0
96.311172 108.0
96.330521 168.0
96.348801 356.0
96.365227 108.0
96.415054 128.0
96.433624 132.0
96.482491 240.0
96.496178 144.0
96.553474 120.0
96.584175 220.0
96.613518 196.0
96.633018 200.0
96.665581 244.0
96.685921 76.0
96.713318 148.0
96.741325 156.0
96.759209 172.0
96.78788 192.0
96.803383 96.0
96.850388 156.0
96.873749 112.0
96.885994 148.0
96.905342 148.0
96.928932 264.0
96.952271 172.0
96.965988 192.0
96.995384 160.0
97.009109 288.0
97.022835 80.0
97.104233 196.0
97.123093 472.0
97.150146 120.0
97.187584 80.0
97.209587 56.0
97.23468 344.0
97.258232 176.0
97.273163 220.0
97.32106 172.0
97.337479 120.0
97.364258 112.0
97.38446 432.0
97.403542 132.0
97.440865 144.0
97.464447 60.0
97.501015 92.0
97.504387 136.0
97.526901 108.0
97.624031 196.0
97.637047 180.0
97.653687 168.0
97.676773 124.0
97.698418 108.0
97.727142 356.0
97.74881 124.0
97.784996 100.0
97.827286 124.0
97.84996 48.0
97.863739 128.0
97.879845 288.0
97.901154 112.0
97.931442 176.0
97.946457 136.0
97.986481 200.0
98.014641 164.0
98.035118 148.0
98.064384 160.0
98.083183 100.0
98.105309 124.0
98.127853 100.0
98.167198 172.0
98.185394 164.0
98.207428 140.0
98.22242 72.0
98.256294 212.0
98.278275 408.0
98.33094 132.0
98.349022 176.0
98.361694 152.0
98.380417 128.0
98.410423 136.0
98.423729 168.0
98.484268 128.0
98.504463 140.0
98.520508 80.0
98.544266 164.0
98.565948 52.0
98.596153 252.0
98.619164 164.0
98.64698 152.0
98.661079 152.0
98.680595 148.0
98.694397 100.0
98.726074 124.0
98.739914 72.0
98.757393 148.0
98.797157 128.0
98.820953 120.0
98.842789 176.0
98.868301 184.0
98.883163 208.0
98.897209 96.0
98.937271 152.0
98.954399 124.0
98.963364 48.0
98.97937 168.0
99.005112 88.0
99.022011 136.0
99.030418 72.0
99.044319 260.0
99.077187 312.0
99.089943 136.0
99.107048 324.0
99.133987 152.0
99.149742 28.0
99.168907 280.0
99.202316 200.0
99.218002 64.0
99.223167 220.0
99.24823 140.0
99.277283 192.0
99.306084 84.0
99.319687 112.0
99.36306 152.0
99.406487 112.0
99.417526 144.0
99.454277 172.0
99.494881 180.0
99.516342 168.0
99.548027 152.0
99.573486 180.0
99.609558 140.0
99.629662 148.0
99.633034 64.0
99.64257 188.0
99.675629 124.0
99.702217 148.0
99.71637 72.0
99.722275 136.0
99.739044 132.0
99.766609 160.0
99.788925 136.0
99.810272 136.0
99.842621 76.0
99.862503 116.0
99.888184 172.0
99.914223 48.0
99.937408 316.0
99.98484 140.0
99.996155 328.0
100.03363 92.0
100.052917 244.0
100.089218 228.0
100.113983 360.0
100.147133 324.0
100.174225 128.0
100.178154 168.0
100.225388 172.0
100.244759 160.0
100.262466 144.0
100.318115 144.0
100.322899 252.0
100.375374 152.0
100.394531 364.0
100.407845 248.0
100.434608 124.0
100.459755 48.0
100.490494 100.0
100.519661 156.0
100.546967 148.0
100.559959 160.0
100.583549 180.0
100.605553 184.0
100.631729 116.0
100.658463 216.0
100.726715 128.0
100.747917 172.0
100.775734 120.0
100.800201 140.0
100.837486 184.0
100.851479 100.0
100.893303 160.0
100.896431 148.0
100.905357 84.0
100.923447 56.0
100.94751 140.0
100.97744 104.0
100.994759 164.0
101.014465 204.0
101.036125 296.0
101.083473 164.0
101.107941 164.0
101.140053 132.0
101.172981 200.0
101.193558 164.0
101.21759 156.0
101.235611 276.0
101.253639 152.0
101.315735 176.0
101.357811 88.0
101.395462 284.0
101.411919 224.0
101.465172 312.0
101.50148 172.0
101.518173 168.0
101.542244 92.0
101.560295 76.0
101.590385 212.0
101.632584 116.0
101.65596 148.0
101.682014 60.0
101.685875 136.0
101.716805 156.0
101.736885 136.0
101.751877 128.0
101.793007 256.0
101.821823 172.0
101.839294 40.0
101.865074 144.0
101.907593 192.0
101.946114 120.0
101.98999 96.0
102.043678 176.0
102.080467 96.0
102.101501 148.0
102.122696 144.0
102.1408 92.0
102.16494 132.0
102.216606 132.0
102.248138 184.0
102.26709 120.0
102.2854 172.0
102.317894 112.0
102.33741 156.0
102.361877 128.0
102.38636 60.0
102.4347 204.0
102.477676 124.0
102.506927 212.0
102.528 144.0
102.579788 156.0
102.593903 176.0
102.61422 200.0
102.65358 288.0
102.673546 48.0
102.729546 184.0
102.753494 220.0
102.790474 208.0
102.807709 128.0
102.844627 96.0
102.868881 116.0
102.896523 124.0
102.918129 252.0
102.955078 96.0
102.992928 428.0
103.011909 148.0
103.054344 732.0
103.078346 204.0
103.09285 392.0
103.142578 180.0
103.148132 124.0
103.177353 96.0
103.200851 128.0
103.2444 176.0
103.264305 88.0
103.282509 172.0
103.296669 68.0
103.337128 272.0
103.359383 84.0
103.418076 32.0
103.440865 108.0
103.482727 188.0
103.513763 288.0
103.555756 96.0
103.588165 76.0
103.621811 132.0
103.633911 324.0
103.687454 128.0
103.705696 152.0
103.736099 88.0
103.760139 224.0
103.783363 132.0
103.809616 124.0
103.851685 160.0
103.866783 300.0
103.911423 196.0
103.93486 240.0
103.961044 84.0
103.991684 192.0
104.023376 176.0
104.04921 2344.0
104.105377 92.0
104.131775 300.0
104.192314 160.0
104.215881 112.0
104.247581 116.0
104.320038 148.0
104.34108 184.0
104.359383 84.0
104.373611 208.0
104.408318 124.0
104.430374 224.0
104.495651 336.0
104.512054 196.0
104.533028 196.0
104.547592 156.0
104.57634 216.0
104.601479 192.0
104.637444 108.0
104.680237 264.0
104.698578 128.0
104.727722 68.0
104.743202 140.0
104.7705 120.0
104.810295 140.0
104.827034 220.0
104.859528 244.0
104.901199 120.0
104.938713 180.0
104.962097 264.0
104.979836 120.0
104.988022 84.0
104.993111 96.0
105.002335 104.0
105.00573 172.0
105.034203 224.0
105.052628 332.0
105.098763 148.0
105.113045 68.0
105.145187 64.0
105.178352 52.0
105.214722 172.0
105.231384 96.0
105.254639 160.0
105.331116 208.0
105.362328 136.0
105.388702 180.0
105.412643 160.0
105.431618 104.0
105.46125 200.0
105.476036 164.0
105.508537 136.0
105.527695 148.0
105.564499 276.0
105.582909 40.0
105.618408 156.0
105.63295 172.0
105.695419 104.0
105.730209 72.0
105.756813 64.0
105.777283 132.0
105.799805 140.0
105.821281 140.0
105.855087 104.0
105.8899 184.0
105.925117 124.0
105.95459 76.0
105.990486 160.0
105.998665 156.0
106.005219 236.0
106.06562 244.0
106.108665 180.0
106.112274 108.0
106.162094 236.0
106.175713 188.0
106.230804 204.0
106.246315 116.0
106.276062 172.0
106.331184 224.0
106.369705 256.0
106.392288 188.0
106.418976 120.0
106.456772 108.0
106.492905 176.0
106.514214 304.0
106.548271 164.0
106.568825 92.0
106.58448 132.0
106.630562 152.0
106.655556 164.0
106.674805 108.0
106.694817 140.0
106.710098 116.0
106.730614 192.0
106.762146 116.0
106.802223 148.0
106.811981 200.0
106.82148 160.0
106.829788 176.0
106.83519 140.0
106.860878 100.0
106.878746 180.0
106.934258 152.0
106.969856 128.0
107.01503 188.0
107.042854 176.0
107.06913 328.0
107.093216 152.0
107.122337 208.0
107.138824 128.0
107.157867 220.0
107.192604 192.0
107.210938 168.0
107.270714 132.0
107.314804 104.0
107.342873 52.0
107.36235 252.0
107.376656 156.0
107.421249 132.0
107.481079 172.0
107.509972 76.0
107.536629 144.0
107.569832 284.0
107.586281 144.0
107.593941 100.0
107.602219 320.0
107.626442 184.0
107.661934 204.0
107.685333 128.0
107.692245 84.0
107.714378 48.0
107.742844 252.0
107.775002 140.0
107.802483 164.0
107.844688 188.0
107.865227 120.0
107.8797 136.0
107.909111 176.0
107.925186 120.0
107.950523 172.0
107.965477 180.0
108.009583 252.0
108.059624 120.0
108.074539 328.0
108.096336 108.0
108.130905 144.0
108.14106 80.0
108.145576 172.0
108.163101 188.0
108.187271 136.0
108.204079 248.0
108.245918 164.0
108.259033 144.0
108.291039 132.0
108.312195 100.0
108.326691 52.0
108.356178 304.0
108.383888 228.0
108.401505 112.0
108.424751 160.0
108.452095 56.0
108.467606 116.0
108.498199 132.0
108.55883 112.0
108.57563 124.0
108.612991 104.0
108.641022 148.0
108.662544 60.0
108.677071 108.0
108.693665 100.0
108.709709 164.0
108.731544 116.0
108.763748 120.0
108.840935 144.0
108.864708 112.0
108.891685 260.0
108.925201 56.0
108.942818 112.0
108.964394 176.0
108.994011 264.0
109.023415 132.0
109.042557 152.0
109.078354 168.0
109.102318 240.0
109.12571 228.0
109.140266 108.0
109.162766 384.0
109.213051 100.0
109.233749 80.0
109.241188 76.0
109.250427 120.0
109.258339 128.0
109.287025 136.0
109.306046 84.0
109.337891 168.0
109.36911 212.0
109.385117 168.0
109.425682 248.0
109.470657 196.0
109.505447 132.0
109.538734 156.0
109.564857 108.0
109.581528 120.0
109.596107 216.0
109.619034 108.0
109.634659 96.0
109.660423 144.0
109.723427 144.0
109.753387 44.0
109.772224 188.0
109.80014 160.0
109.807327 112.0
109.840034 152.0
109.877586 88.0
109.897011 116.0
109.927666 112.0
109.946442 156.0
109.966019 284.0
109.98819 156.0
110.016502 132.0
110.022942 136.0
110.05484 164.0
110.085617 84.0
110.127068 312.0
110.143784 140.0
110.191086 252.0
110.224632 168.0
110.257622 236.0
110.28183 124.0
110.302979 80.0
110.339828 160.0
110.376785 176.0
110.395607 92.0
110.438812 164.0
110.480316 168.0
110.509041 192.0
110.560875 76.0
110.585991 104.0
110.613152 184.0
110.628296 164.0
110.650887 104.0
110.667633 32.0
110.702126 108.0
110.725548 244.0
110.761871 112.0
110.800842 180.0
110.814476 184.0
110.835205 316.0
110.864647 160.0
110.8834 96.0
110.900169 236.0
110.929512 112.0
111.00312 120.0
111.03344 184.0
111.064644 212.0
111.090736 336.0
111.156029 76.0
111.187836 104.0
111.227142 172.0
111.242081 228.0
111.263557 52.0
111.293098 188.0
111.332367 80.0
111.349167 136.0
111.388855 112.0
111.41925 132.0
111.435295 128.0
111.468521 256.0
111.508186 204.0
111.539368 92.0
111.591301 144.0
111.621338 212.0
111.682228 104.0
111.72464 296.0
111.773827 144.0
111.796524 56.0
111.828804 64.0
111.866432 276.0
111.907791 160.0
111.923279 132.0
111.95697 176.0
111.975174 240.0
111.992348 156.0
112.015564 244.0
112.034233 200.0
112.059433 112.0
112.099953 92.0
112.117607 32.0
112.133736 164.0
112.157127 76.0
112.189308 212.0
112.218781 148.0
112.248802 108.0
112.257607 140.0
112.266342 60.0
112.295044 156.0
112.342575 128.0
112.372231 32.0
112.390656 272.0
112.422874 68.0
112.452805 176.0
112.47142 124.0
112.501823 288.0
112.518448 136.0
112.540588 168.0
112.560928 324.0
112.587364 312.0
112.607979 148.0
112.629784 100.0
112.658081 132.0
112.686829 128.0
112.71138 148.0
112.74826 220.0
112.774582 160.0
112.809402 212.0
112.826317 132.0
112.841667 168.0
112.865341 104.0
112.888611 112.0
112.904556 244.0
112.921204 108.0
112.969643 264.0
113.007385 120.0
113.037407 100.0
113.054489 136.0
113.07592 108.0
113.101326 60.0
113.118256 56.0
113.150749 132.0
113.175102 292.0
113.181068 96.0
113.232597 104.0
113.254555 152.0
113.30191 144.0
113.33271 124.0
113.377876 112.0
113.416824 152.0
113.464127 152.0
113.49398 96.0
113.528328 96.0
113.561119 208.0
113.588959 212.0
113.609077 288.0
113.626167 132.0
113.698608 140.0
113.729797 200.0
113.759102 92.0
113.798157 128.0
113.817535 276.0
113.83522 180.0
113.876709 116.0
113.910233 272.0
113.930412 148.0
113.976456 56.0
114.008713 180.0
114.014671 92.0
114.033035 372.0
114.071411 200.0
114.113251 140.0
114.151527 112.0
114.171768 108.0
114.196678 156.0
114.212357 116.0
114.266388 168.0
114.32795 240.0
114.360016 124.0
114.375557 40.0
114.414467 112.0
114.429756 100.0
114.460075 136.0
114.497849 168.0
114.521431 188.0
114.558052 56.0
114.587875 256.0
114.602791 176.0
114.628059 140.0
114.664589 116.0
114.704842 244.0
114.736145 176.0
114.77256 192.0
114.788673 152.0
114.810829 232.0
114.879402 124.0
114.884865 92.0
114.897156 156.0
114.924759 100.0
114.955963 160.0
114.995178 124.0
115.012253 40.0
115.053825 904.0
115.080818 104.0
115.10833 72.0
115.129684 104.0
115.166901 216.0
115.214409 112.0
115.239128 136.0
115.264008 228.0
115.289909 172.0
115.321968 144.0
115.364304 144.0
115.392761 172.0
115.411263 104.0
115.454842 188.0
115.496307 112.0
115.537666 152.0
115.557205 184.0
115.585022 44.0
115.633263 96.0
115.638954 148.0
115.680878 140.0
115.705574 124.0
115.748711 136.0
115.779495 164.0
115.802994 204.0
115.832428 172.0
115.860397 176.0
115.877975 156.0
115.908981 96.0
115.928253 260.0
115.945786 168.0
115.988373 168.0
116.02549 68.0
116.049911 5400.0
116.109871 84.0
116.146233 172.0
116.174934 192.0
116.223076 156.0
116.244881 224.0
116.281509 32.0
116.31958 152.0
116.328415 108.0
116.335617 136.0
116.360939 60.0
116.399323 196.0
116.433556 180.0
116.466087 112.0
116.469742 108.0
116.478844 184.0
116.49913 208.0
116.530609 92.0
116.54995 72.0
116.564987 164.0
116.591492 48.0
116.641289 192.0
116.674568 124.0
116.698227 176.0
116.72406 92.0
116.763237 92.0
116.830093 148.0
116.860809 272.0
116.887405 180.0
116.927979 180.0
116.96624 92.0
116.990112 116.0
117.024521 132.0
117.058411 1820.0
117.10498 72.0
117.126526 168.0
117.166222 168.0
117.228729 188.0
117.244164 160.0
117.290825 164.0
117.306618 156.0
117.348495 132.0
117.372215 108.0
117.391624 112.0
117.41021 136.0
117.423973 184.0
117.4534 124.0
117.475594 228.0
117.522713 176.0
117.559631 100.0
117.572701 128.0
117.609528 208.0
117.644424 96.0
117.680771 44.0
117.698044 248.0
117.717476 144.0
117.735107 268.0
117.760223 136.0
117.826508 260.0
117.856064 76.0
117.861076 84.0
117.87394 168.0
117.898941 160.0
117.916847 84.0
117.963036 104.0
117.990715 220.0
118.006897 132.0
118.022293 200.0
118.05751 464.0
118.121254 160.0
118.141113 148.0
118.16423 152.0
118.223846 120.0
118.252754 232.0
118.294762 120.0
118.320671 120.0
118.333977 252.0
118.392303 300.0
118.412193 184.0
118.431183 104.0
118.451462 148.0
118.479332 392.0
118.511337 128.0
118.53389 172.0
118.595856 144.0
118.618622 128.0
118.637047 200.0
118.685783 192.0
118.715927 212.0
118.736023 136.0
118.775131 124.0
118.809776 140.0
118.832489 104.0
118.877808 172.0
118.90966 100.0
118.934235 100.0
118.96151 180.0
118.98587 188.0
119.005875 188.0
119.032387 152.0
119.039642 80.0
119.060173 488.0
119.082329 172.0
119.129669 196.0
119.147049 268.0
119.162025 124.0
119.216263 136.0
119.241455 224.0
119.264397 68.0
119.290298 244.0
119.306252 152.0
119.334686 96.0
119.356186 244.0
119.378746 188.0
119.397026 140.0
119.432083 332.0
119.453575 176.0
119.470978 36.0
119.502182 268.0
119.525375 160.0
119.540604 152.0
119.563713 220.0
119.588333 112.0
119.601112 140.0
119.62149 148.0
119.64209 96.0
119.659378 120.0
119.681122 196.0
119.716179 300.0
119.745247 184.0
119.793167 176.0
119.842148 284.0
119.893219 148.0
119.916527 144.0
119.94017 112.0
119.969688 168.0
119.996353 244.0
120.01989 340.0
120.042236 240.0
120.051918 112.0
120.058578 328.0
120.083076 128.0
120.1101 100.0
120.152885 128.0
120.172241 184.0
120.264175 180.0
120.304588 164.0
120.323326 112.0
120.343674 84.0
120.377701 104.0
120.394783 168.0
120.409203 160.0
120.430351 172.0
120.47599 44.0
120.495651 68.0
120.534981 140.0
120.559021 156.0
120.581848 108.0
120.624512 108.0
120.642082 184.0
120.699081 216.0
120.719757 76.0
120.761322 136.0
120.782036 328.0
120.810471 116.0
120.842461 240.0
120.871048 196.0
120.904358 132.0
120.926445 204.0
120.945633 240.0
120.981171 128.0
121.036011 216.0
121.043182 124.0
121.066017 212.0
121.104965 232.0
121.135323 192.0
121.157715 124.0
121.184143 148.0
121.206764 356.0
121.277946 92.0
121.304123 152.0
121.333893 148.0
121.358009 112.0
121.37989 412.0
121.40033 120.0
121.439148 104.0
121.479179 160.0
121.502663 84.0
121.517654 188.0
121.540062 228.0
121.569153 140.0
121.607262 256.0
121.641861 204.0
121.678139 324.0
121.706886 116.0
121.723503 176.0
121.794731 72.0
121.834274 248.0
121.865028 104.0
121.89669 216.0
121.935349 100.0
121.950737 208.0
121.977112 152.0
122.04129 168.0
122.065384 124.0
122.081825 216.0
122.103226 124.0
122.112801 124.0
122.118675 200.0
122.146431 120.0
122.19043 140.0
122.207726 144.0
122.248672 240.0
122.268181 96.0
122.293526 236.0
122.32605 224.0
122.334587 88.0
122.343414 180.0
122.374542 80.0
122.40834 124.0
122.428162 40.0
122.448967 164.0
122.487633 68.0
122.509659 180.0
122.531693 216.0
122.564743 176.0
122.586777 168.0
122.608078 76.0
122.647423 108.0
122.674088 248.0
122.696983 284.0
122.733841 96.0
122.773094 132.0
122.796219 196.0
122.842339 176.0
122.85508 76.0
122.873978 144.0
122.902969 164.0
122.955597 324.0
122.985153 152.0
123.001106 140.0
123.0168 128.0
123.068626 360.0
123.101257 200.0
123.119995 148.0
123.151573 204.0
123.191986 244.0
123.226677 168.0
123.244354 92.0
123.267776 236.0
123.306229 148.0
123.329536 140.0
123.370155 168.0
123.389862 240.0
123.404724 144.0
123.43338 152.0
123.489738 140.0
123.527344 156.0
123.547256 216.0
123.571327 132.0
123.62365 136.0
123.642937 116.0
123.667931 272.0
123.685661 132.0
123.7379 112.0
123.756981 236.0
123.795876 164.0
123.819115 132.0
123.842911 192.0
123.887039 164.0
123.90271 116.0
123.925278 252.0
123.948723 148.0
123.983757 244.0
124.022934 188.0
124.096649 280.0
124.162216 364.0
124.186897 236.0
124.223289 124.0
124.24955 148.0
124.278572 140.0
124.296654 244.0
124.32019 120.0
124.371849 148.0
124.394783 156.0
124.422768 164.0
124.4664 80.0
124.484833 36.0
124.51239 88.0
124.54924 156.0
124.568375 124.0
124.593063 268.0
124.624878 196.0
124.666992 224.0
124.683769 208.0
124.700333 128.0
124.736641 156.0
124.742706 124.0
124.75029 392.0
124.814079 168.0
124.856773 88.0
124.883804 140.0
124.909889 164.0
124.914429 112.0
124.934746 124.0
124.954247 280.0
124.975121 116.0
124.994705 148.0
125.039383 108.0
125.05706 156.0
125.098495 304.0
125.114082 160.0
125.143021 100.0
125.19561 192.0
125.207298 88.0
125.229057 120.0
125.256607 64.0
125.274422 168.0
125.309608 152.0
125.34671 216.0
125.361816 168.0
125.388062 148.0
125.403664 132.0
125.419266 180.0
125.440369 124.0
125.469299 132.0
125.473145 168.0
125.482773 236.0
125.508446 68.0
125.53952 152.0
125.561157 160.0
125.58194 184.0
125.620583 128.0
125.646729 44.0
125.669975 248.0
125.690804 228.0
125.738297 344.0
125.808052 312.0
125.834206 328.0
125.858826 244.0
125.905663 164.0
125.971451 132.0
126.046867 168.0
126.070984 144.0
126.100037 64.0
126.134544 100.0
126.170525 120.0
126.235329 116.0
126.282257 136.0
126.308975 144.0
126.337059 204.0
126.370621 164.0
126.392998 116.0
126.429108 156.0
126.477318 112.0
126.50972 160.0
126.536163 108.0
126.572067 192.0
126.603249 236.0
126.651314 116.0
126.685692 104.0
126.711197 236.0
126.765442 272.0
126.793106 132.0
126.811783 264.0
126.843239 196.0
126.872543 172.0
126.899208 64.0
126.935081 132.0
126.966484 52.0
126.993393 128.0
127.011337 112.0
127.046043 480.0
127.070717 120.0
127.096588 116.0
127.117371 228.0
127.163918 152.0
127.186363 132.0
127.208313 200.0
127.242058 188.0
127.290642 188.0
127.329636 168.0
127.392952 152.0
127.410927 244.0
127.428246 164.0
127.486115 104.0
127.518784 108.0
127.553093 184.0
127.592972 176.0
127.651085 132.0
127.677597 176.0
127.730148 100.0
127.76123 196.0
127.768166 160.0
127.774918 264.0
127.792458 212.0
127.818451 88.0
127.83503 272.0
127.884682 220.0
127.972717 92.0
127.99202 180.0
128.049683 9332.0
128.109741 96.0
128.174316 112.0
128.205215 124.0
128.22551 132.0
128.250595 128.0
128.294357 124.0
128.332474 160.0
128.349304 156.0
128.359787 64.0
128.371124 128.0
128.377579 140.0
128.409607 164.0
128.437454 96.0
128.45549 172.0
128.480194 164.0
128.507919 164.0
128.552002 140.0
128.575653 188.0
128.611191 216.0
128.633987 40.0
128.652954 128.0
128.692719 144.0
128.714279 140.0
128.740509 216.0
128.754532 108.0
128.764496 156.0
128.805389 148.0
128.854965 76.0
128.86969 200.0
128.894897 148.0
128.925995 200.0
128.943832 160.0
128.976273 200.0
129.01062 192.0
129.035583 1012.0
129.052032 1564.0
129.111908 228.0
129.127625 92.0
129.147888 184.0
129.168411 128.0
129.227966 100.0
129.232574 164.0
129.268875 156.0
129.288254 164.0
129.295639 92.0
129.304352 80.0
129.363937 28.0
129.390808 156.0
129.408997 164.0
129.447708 44.0
129.482269 108.0
129.497528 144.0
129.522446 120.0
129.541519 156.0
129.555695 116.0
129.578583 160.0
129.588699 200.0
129.625488 124.0
129.646149 236.0
129.666977 184.0
129.671478 160.0
129.712173 168.0
129.754974 112.0
129.788162 148.0
129.813812 212.0
129.836578 292.0
129.868088 200.0
129.887405 84.0
129.912354 188.0
129.930283 128.0
129.965607 108.0
129.991821 184.0
130.039154 444.0
130.065323 8780.0
130.124847 172.0
130.154526 120.0
130.226105 72.0
130.243179 200.0
130.26329 112.0
130.323166 196.0
130.340637 76.0
130.349472 160.0
130.364868 420.0
130.384079 192.0
130.424042 132.0
130.443924 148.0
130.473083 212.0
130.4991 160.0
130.534683 200.0
130.562195 344.0
130.583786 204.0
130.607147 140.0
130.613342 172.0
130.645981 144.0
130.684479 136.0
130.689987 116.0
130.732605 128.0
130.752014 104.0
130.766739 176.0
130.782272 304.0
130.826614 280.0
130.846405 328.0
130.888535 160.0
130.909988 100.0
130.938126 44.0
130.959915 128.0
130.979782 156.0
131.011154 156.0
131.036774 140.0
131.063461 1036.0
131.131836 112.0
131.158508 48.0
131.191437 208.0
131.216843 136.0
131.23465 140.0
131.265289 80.0
131.280594 232.0
131.309891 92.0
131.333099 112.0
131.338898 148.0
131.370575 60.0
131.432083 88.0
131.450226 128.0
131.498367 136.0
131.516022 180.0
131.549866 92.0
131.584412 264.0
131.595734 172.0
131.675858 140.0
131.731277 100.0
131.781372 168.0
131.803497 152.0
131.821594 112.0
131.8638 148.0
131.887222 168.0
131.923233 48.0
131.940292 148.0
131.975296 212.0
132.002182 232.0
132.042267 816.0
132.067062 692.0
132.089569 108.0
132.099075 112.0
132.153946 160.0
132.190079 120.0
132.215378 88.0
132.26033 164.0
132.265594 60.0
132.284866 208.0
132.322495 208.0
132.331161 300.0
132.353241 76.0
132.37587 140.0
132.416016 92.0
132.440384 80.0
132.465775 148.0
132.489807 112.0
132.510483 160.0
132.533081 116.0
132.548065 132.0
132.564102 192.0
132.607315 208.0
132.613358 224.0
132.650269 188.0
132.66835 100.0
132.675201 60.0
132.684509 128.0
132.726868 376.0
132.785889 140.0
132.801117 168.0
132.832367 64.0
132.868301 96.0
132.896591 272.0
132.928116 76.0
132.953964 76.0
132.991135 164.0
133.012131 236.0
133.032013 140.0
133.049652 544.0
133.070648 368.0
133.147095 168.0
133.166336 152.0
133.171478 76.0
133.19519 124.0
133.220428 172.0
133.258423 96.0
133.284744 100.0
133.317673 140.0
133.334137 112.0
133.359055 192.0
133.383469 140.0
133.411819 148.0
133.445541 208.0
133.48233 164.0
133.517303 348.0
133.541412 140.0
133.566254 176.0
133.598099 144.0
133.626617 116.0
133.662857 252.0
133.700546 140.0
133.721603 144.0
133.76236 212.0
133.788742 208.0
133.803314 128.0
133.814285 76.0
133.841537 168.0
133.889206 100.0
133.918289 140.0
133.940338 108.0
133.978485 128.0
134.018295 392.0
134.051727 172.0
134.073975 184.0
134.097015 300.0
134.114029 180.0
134.144028 140.0
134.16156 100.0
134.182312 160.0
134.202225 224.0
134.223816 40.0
134.26062 108.0
134.313766 80.0
134.32991 112.0
134.350388 272.0
134.373428 140.0
134.394501 136.0
134.414825 244.0
134.456818 64.0
134.505478 352.0
134.53894 120.0
134.555939 144.0
134.581009 80.0
134.603821 128.0
134.634583 48.0
134.677414 168.0
134.69606 116.0
134.725708 168.0
134.754608 192.0
134.794373 188.0
134.813629 152.0
134.842514 116.0
134.870148 180.0
134.902039 96.0
134.937042 168.0
134.958649 168.0
134.981216 68.0
135.026978 192.0
135.062943 232.0
135.095398 76.0
135.119263 176.0
135.168594 192.0
135.186646 204.0
135.22049 256.0
135.228149 60.0
135.236435 204.0
135.26799 156.0
135.302841 56.0
135.327637 204.0
135.364319 252.0
135.389908 172.0
135.404724 200.0
135.42067 104.0
135.462875 372.0
135.495071 156.0
135.52829 164.0
135.567474 192.0
135.627151 124.0
135.651642 120.0
135.694382 216.0
135.730194 172.0
135.746597 356.0
135.790024 212.0
135.816071 80.0
135.836243 156.0
135.873581 168.0
135.911926 132.0
135.93924 128.0
135.997299 76.0
136.034393 200.0
136.053467 140.0
136.079224 92.0
136.099625 140.0
136.105499 172.0
136.134018 164.0
136.179993 108.0
136.242172 132.0
136.311813 136.0
136.335052 96.0
136.367508 128.0
136.388809 92.0
136.441849 208.0
136.455811 288.0
136.48848 136.0
136.509399 168.0
136.574524 168.0
136.593124 144.0
136.629959 156.0
136.636169 72.0
136.687927 220.0
136.722076 220.0
136.753891 136.0
136.795044 208.0
136.865067 152.0
136.879028 100.0
136.921005 120.0
136.964294 132.0
136.991196 188.0
137.009842 180.0
137.058228 140.0
137.087112 196.0
137.107697 56.0
137.141464 232.0
137.161972 244.0
137.18483 96.0
137.207932 124.0
137.235916 120.0
137.265274 180.0
137.385178 220.0
137.404373 212.0
137.447937 80.0
137.462524 108.0
137.488434 208.0
137.532196 148.0
137.557861 124.0
137.581207 160.0
137.599884 144.0
137.645142 168.0
137.661163 248.0
137.690735 268.0
137.723663 104.0
137.743088 76.0
137.767975 128.0
137.797379 272.0
137.841614 188.0
137.903412 228.0
137.954758 116.0
137.961197 104.0
137.970047 184.0
138.012527 132.0
138.030731 132.0
138.053207 104.0
138.079239 180.0
138.136978 152.0
138.183182 112.0
138.228653 116.0
138.270767 104.0
138.287155 164.0
138.338028 308.0
138.3703 124.0
138.414093 72.0
138.45105 108.0
138.475586 260.0
138.502579 120.0
138.540054 188.0
138.577972 108.0
138.613708 156.0
138.643158 160.0
138.674576 256.0
138.710068 112.0
138.727539 172.0
138.744965 376.0
138.758484 232.0
138.844772 136.0
138.873962 216.0
138.917191 220.0
138.969254 268.0
139.008987 172.0
139.032669 136.0
139.038696 128.0
139.04744 208.0
139.093185 376.0
139.110703 36.0
139.117538 128.0
139.149826 116.0
139.201477 100.0
139.227676 156.0
139.238083 172.0
139.249588 56.0
139.264511 384.0
139.321274 64.0
139.349808 76.0
139.380005 156.0
139.395615 112.0
139.428238 172.0
139.452866 80.0
139.483795 124.0
139.505844 132.0
139.528091 92.0
139.560516 192.0
139.585022 148.0
139.616058 212.0
139.633194 144.0
139.649918 104.0
139.654709 148.0
139.665649 96.0
139.698975 176.0
139.783157 144.0
139.805878 164.0
139.837952 216.0
139.853561 100.0
139.888031 232.0
139.923965 136.0
139.944534 124.0
139.965256 180.0
139.96875 112.0
140.050262 5588.0
140.097916 160.0
140.114426 268.0
140.144119 172.0
140.198853 128.0
140.231934 144.0
140.302109 88.0
140.332932 128.0
140.362427 140.0
140.393646 88.0
140.436386 172.0
140.465958 224.0
140.533783 116.0
140.557373 152.0
140.586899 116.0
140.616013 180.0
140.64418 128.0
140.67067 148.0
140.686172 128.0
140.706085 196.0
140.743225 188.0
140.780609 340.0
140.816391 156.0
140.844711 68.0
140.866043 120.0
140.884079 140.0
140.925385 136.0
140.954895 140.0
140.980087 76.0
141.001648 156.0
141.044571 7672.0
141.076141 248.0
141.105362 164.0
141.121918 264.0
141.138458 136.0
141.194412 140.0
141.248886 176.0
141.277252 152.0
141.292694 136.0
141.301437 128.0
141.320267 352.0
141.34407 104.0
141.348145 112.0
141.380722 68.0
141.404739 180.0
141.433212 132.0
141.46022 200.0
141.48172 156.0
141.524155 56.0
141.551086 128.0
141.583344 112.0
141.622101 120.0
141.662643 244.0
141.667023 172.0
141.695618 172.0
141.716888 288.0
141.736557 192.0
141.782944 192.0
141.794876 128.0
141.844177 188.0
141.884842 152.0
141.927765 176.0
141.952988 148.0
141.97995 128.0
142.014191 216.0
142.051178 1468.0
142.107224 184.0
142.141113 100.0
142.190277 172.0
142.211639 60.0
142.249298 88.0
142.280487 244.0
142.298141 180.0
142.323227 52.0
142.355835 200.0
142.372711 252.0
142.405197 184.0
142.446442 140.0
142.48613 196.0
142.503738 144.0
142.532257 124.0
142.561752 144.0
142.598785 124.0
142.622559 80.0
142.644684 400.0
142.674789 140.0
142.703354 236.0
142.724258 156.0
142.793747 144.0
142.815155 96.0
142.836563 236.0
142.888428 300.0
142.923599 160.0
142.933517 132.0
142.946823 312.0
143.000839 272.0
143.024246 192.0
143.060135 7008.0
143.111526 284.0
143.139587 152.0
143.171661 56.0
143.232956 96.0
143.267441 104.0
143.291275 208.0
143.313904 112.0
143.343979 292.0
143.405655 88.0
143.430511 224.0
143.464233 156.0
143.481308 168.0
143.520081 112.0
143.57193 292.0
143.609711 168.0
143.642059 344.0
143.676041 104.0
143.697586 256.0
143.732376 136.0
143.7659 188.0
143.786133 176.0
143.827316 268.0
143.850784 144.0
143.88028 232.0
143.909698 124.0
143.936157 120.0
143.955154 272.0
143.976913 120.0
144.008179 124.0
144.061279 1224.0
144.141663 120.0
144.169388 128.0
144.189621 252.0
144.218079 128.0
144.242615 100.0
144.275345 180.0
144.297668 168.0
144.319977 148.0
144.341507 56.0
144.359985 120.0
144.381027 144.0
144.400024 36.0
144.425201 96.0
144.478302 164.0
144.50972 116.0
144.530991 136.0
144.5578 320.0
144.603134 132.0
144.633377 96.0
144.665787 156.0
144.714523 140.0
144.732422 76.0
144.744995 136.0
144.784653 112.0
144.808167 136.0
144.827332 156.0
144.85524 140.0
144.876114 132.0
144.905884 152.0
144.937531 96.0
144.959808 156.0
144.978271 32.0
144.995056 320.0
145.016617 176.0
145.039993 168.0
145.068512 300.0
145.107712 136.0
145.12822 108.0
145.151337 144.0
145.2211 56.0
145.244415 120.0
145.277985 112.0
145.328949 152.0
145.349976 312.0
145.38916 204.0
145.428818 200.0
145.462769 108.0
145.490463 332.0
145.534988 168.0
145.544876 100.0
145.551712 152.0
145.601273 100.0
145.610245 228.0
145.676498 36.0
145.762985 196.0
145.781708 280.0
145.790253 136.0
145.853149 132.0
145.915451 56.0
145.934296 120.0
145.973648 76.0
146.002014 252.0
146.036255 432.0
146.059265 720.0
146.095825 184.0
146.131516 184.0
146.166138 116.0
146.193329 116.0
146.200439 84.0
146.224731 112.0
146.246613 220.0
146.274185 176.0
146.302826 216.0
146.321014 124.0
146.366943 164.0
146.390152 192.0
146.414932 220.0
146.435623 92.0
146.451065 132.0
146.478378 156.0
146.508789 124.0
146.539886 96.0
146.571518 112.0
146.636673 308.0
146.677414 192.0
146.742645 120.0
146.764343 84.0
146.781235 116.0
146.798111 252.0
146.855988 256.0
146.87233 160.0
146.887695 284.0
146.909058 140.0
146.957306 72.0
146.980606 92.0
147.008621 336.0
147.03212 132.0
147.054352 224.0
147.078903 84.0
147.097366 128.0
147.13887 108.0
147.170883 136.0
147.1987 188.0
147.244583 152.0
147.280807 52.0
147.33313 148.0
147.356354 160.0
147.377441 136.0
147.408859 120.0
147.437546 264.0
147.451309 296.0
147.484924 236.0
147.510361 120.0
147.539856 280.0
147.582901 244.0
147.614334 356.0
147.638214 160.0
147.68338 284.0
147.709412 292.0
147.731552 176.0
147.754623 228.0
147.792526 168.0
147.817368 120.0
147.83931 156.0
147.876724 164.0
147.930847 228.0
147.967606 168.0
147.986969 116.0
148.022232 100.0
148.05719 144.0
148.074142 196.0
148.093521 148.0
148.115952 168.0
148.170959 112.0
148.179932 108.0
148.212234 80.0
148.236893 136.0
148.28096 136.0
148.328568 116.0
148.351852 284.0
148.371613 132.0
148.397766 368.0
148.460968 144.0
148.469086 88.0
148.475525 228.0
148.506012 176.0
148.551666 112.0
148.574677 376.0
148.646744 336.0
148.677826 96.0
148.734375 172.0
148.787064 88.0
148.804062 136.0
148.838821 152.0
148.867188 136.0
148.888397 160.0
148.927048 204.0
148.969025 160.0
149.006714 200.0
149.03392 44.0
149.062744 176.0
149.100418 140.0
149.120026 56.0
149.157822 368.0
149.218216 164.0
149.2621 96.0
149.297623 132.0
149.330475 204.0
149.355713 280.0
149.375168 96.0
149.415634 164.0
149.483383 92.0
149.532745 112.0
149.594177 52.0
149.623566 176.0
149.631165 164.0
149.640839 196.0
149.691574 144.0
149.713486 208.0
149.742554 60.0
149.75798 164.0
149.776535 204.0
149.806976 176.0
149.866959 136.0
149.888885 172.0
149.948898 108.0
150.00531 436.0
150.025864 120.0
150.047318 352.0
150.063156 116.0
150.096085 164.0
150.115585 96.0
150.155121 208.0
150.181091 436.0
150.189697 144.0
150.194031 268.0
150.23317 116.0
150.289719 124.0
150.322433 152.0
150.352936 280.0
150.381516 184.0
150.398605 156.0
150.418121 128.0
150.442535 88.0
150.469864 144.0
150.486481 188.0
150.524826 176.0
150.54509 128.0
150.576843 220.0
150.596375 152.0
150.635452 40.0
150.665207 224.0
150.69165 100.0
150.730988 80.0
150.7435 144.0
150.779617 72.0
150.80162 144.0
150.822739 236.0
150.844116 216.0
150.891739 120.0
150.9095 140.0
150.960526 172.0
150.986496 84.0
151.013641 196.0
151.020065 152.0
151.06842 184.0
151.101151 260.0
151.139404 96.0
151.166016 192.0
151.188553 172.0
151.20517 364.0
151.241882 100.0
151.276154 120.0
151.300644 48.0
151.320221 64.0
151.354507 96.0
151.386337 136.0
151.40593 236.0
151.445114 96.0
151.486404 108.0
151.526184 256.0
151.565155 152.0
151.592117 48.0
151.614166 308.0
151.638687 96.0
151.658295 136.0
151.693542 148.0
151.717194 164.0
151.747391 104.0
151.800995 156.0
151.822556 136.0
151.867401 128.0
151.888077 304.0
151.95256 88.0
151.986923 408.0
152.004089 88.0
152.043594 244.0
152.081314 248.0
152.108582 96.0
152.126465 144.0
152.158646 116.0
152.178375 40.0
152.210922 188.0
152.255203 124.0
152.276596 236.0
152.312943 136.0
152.333099 164.0
152.366669 60.0
152.393845 148.0
152.40416 108.0
152.412277 140.0
152.451538 192.0
152.481522 196.0
152.537872 204.0
152.580505 132.0
152.614868 160.0
152.635361 124.0
152.670197 180.0
152.690781 200.0
152.738693 268.0
152.783081 184.0
152.810043 68.0
152.834702 148.0
152.87709 208.0
152.899918 144.0
152.92569 120.0
153.018829 532.0
153.044983 2480.0
153.100632 148.0
153.118195 292.0
153.149246 132.0
153.189178 164.0
153.2108 176.0
153.227646 84.0
153.258514 304.0
153.299347 140.0
153.357147 220.0
153.396164 100.0
153.415894 232.0
153.448669 136.0
153.477524 108.0
153.494797 204.0
153.538345 248.0
153.571243 152.0
153.598373 108.0
153.624619 308.0
153.662521 132.0
153.690186 152.0
153.714233 92.0
153.730087 336.0
153.771103 92.0
153.796173 172.0
153.828857 240.0
153.865768 160.0
153.883072 144.0
153.914948 176.0
153.938812 240.0
153.947586 164.0
153.992874 180.0
154.052582 1160.0
154.089371 144.0
154.119293 144.0
154.152954 172.0
154.185425 152.0
154.204895 144.0
154.265121 144.0
154.294785 224.0
154.319504 120.0
154.341766 96.0
154.376373 180.0
154.401108 148.0
154.420242 228.0
154.456238 56.0
154.484467 280.0
154.506607 172.0
154.541138 336.0
154.574051 132.0
154.588074 280.0
154.641571 212.0
154.679657 216.0
154.727966 272.0
154.738403 136.0
154.746933 208.0
154.757339 120.0
154.765625 264.0
154.802017 108.0
154.83226 208.0
154.862381 140.0
154.902267 168.0
154.947968 156.0
154.970459 104.0
155.012695 484.0
155.060272 16660.0
155.098312 252.0
155.123871 320.0
155.149231 152.0
155.183624 32.0
155.219086 204.0
155.260437 160.0
155.292542 200.0
155.320023 208.0
155.345261 124.0
155.371048 140.0
155.410263 160.0
155.434143 172.0
155.49971 200.0
155.525635 144.0
155.553268 92.0
155.580154 140.0
155.617828 208.0
155.677414 84.0
155.699768 96.0
155.739502 60.0
155.773178 136.0
155.811554 184.0
155.83728 124.0
155.859726 160.0
155.880432 116.0
155.889938 152.0
155.906982 240.0
155.953201 164.0
155.976669 172.0
156.044586 11212.0
156.063248 4496.0
156.13327 340.0
156.179184 156.0
156.206238 136.0
156.241501 204.0
156.298157 152.0
156.315781 252.0
156.336212 76.0
156.357742 92.0
156.378815 168.0
156.398422 292.0
156.445724 220.0
156.463852 232.0
156.505478 96.0
156.5681 136.0
156.644943 220.0
156.673874 284.0
156.696381 88.0
156.712677 260.0
156.733307 172.0
156.763138 220.0
156.835495 168.0
156.884262 120.0
156.910355 160.0
156.947174 244.0
156.991989 108.0
157.008896 152.0
157.049011 1168.0
157.074463 2852.0
157.116882 156.0
157.135803 232.0
157.159363 120.0
157.186447 336.0
157.222656 132.0
157.248962 216.0
157.270828 216.0
157.29509 156.0
157.362595 208.0
157.404083 160.0
157.45874 184.0
157.479034 124.0
157.502243 160.0
157.565506 128.0
157.609818 212.0
157.642502 136.0
157.668121 60.0
157.704941 220.0
157.742935 172.0
157.77916 156.0
157.806213 116.0
157.836288 188.0
157.85791 236.0
157.902725 168.0
157.962616 80.0
157.991684 120.0
158.044235 304.0
158.070694 376.0
158.108948 168.0
158.139801 140.0
158.163177 116.0
158.189041 120.0
158.221863 96.0
158.25528 116.0
158.280212 184.0
158.3134 72.0
158.347458 172.0
158.383774 244.0
158.437576 216.0
158.461197 72.0
158.506165 164.0
158.546555 64.0
158.581482 136.0
158.604034 140.0
158.626602 224.0
158.650284 152.0
158.675186 184.0
158.71138 108.0
158.729004 128.0
158.751968 228.0
158.768631 80.0
158.790176 236.0
158.816132 328.0
158.847275 184.0
158.86824 156.0
158.901123 164.0
158.939331 104.0
158.960175 104.0
159.012878 116.0
159.061234 256.0
159.067093 268.0
159.098679 132.0
159.15538 204.0
159.182602 92.0
159.204727 96.0
159.227509 140.0
159.259079 220.0
159.303116 344.0
159.316284 188.0
159.338181 320.0
159.376007 156.0
159.441147 188.0
159.467255 136.0
159.497238 172.0
159.516159 132.0
159.548141 180.0
159.574646 152.0
159.654221 276.0
159.681198 112.0
159.698807 212.0
159.734009 140.0
159.751617 76.0
159.807449 128.0
159.879639 100.0
159.896759 124.0
159.920212 96.0
159.945389 224.0
159.967361 116.0
159.998886 160.0
160.036942 160.0
160.074615 160.0
160.093933 132.0
160.12442 316.0
160.154388 96.0
160.224915 200.0
160.306717 208.0
160.372284 340.0
160.410873 96.0
160.467285 120.0
160.505371 224.0
160.552597 268.0
160.576263 220.0
160.586838 180.0
160.632278 144.0
160.670074 200.0
160.708191 148.0
160.717987 100.0
160.745071 108.0
160.765991 292.0
160.804901 152.0
160.869843 176.0
160.889908 160.0
160.926071 128.0
160.946274 156.0
160.989365 124.0
161.01445 148.0
161.044312 284.0
161.074249 140.0
161.10791 148.0
161.13916 176.0
161.166855 224.0
161.190353 204.0
161.269012 112.0
161.348938 268.0
161.393509 132.0
161.442215 184.0
161.480972 164.0
161.531311 156.0
161.557907 44.0
161.588272 308.0
161.607498 180.0
161.648376 212.0
161.666718 84.0
161.698761 144.0
161.7789 112.0
161.83429 296.0
161.870193 116.0
161.910278 104.0
161.949509 360.0
161.984314 160.0
162.008072 152.0
162.049164 188.0
162.084549 124.0
162.107117 256.0
162.168182 108.0
162.231552 144.0
162.291 248.0
162.327072 156.0
162.365936 92.0
162.388763 176.0
162.434418 56.0
162.471237 132.0
162.510529 168.0
162.534409 136.0
162.574371 100.0
162.600632 108.0
162.619644 92.0
162.657776 176.0
162.679642 196.0
162.719116 436.0
162.756744 64.0
162.784195 92.0
162.82547 236.0
162.862534 128.0
162.934189 120.0
162.949478 204.0
162.987885 188.0
163.013382 156.0
163.042328 180.0
163.092087 208.0
163.125412 128.0
163.153091 172.0
163.176956 156.0
163.210602 104.0
163.22937 172.0
163.272598 64.0
163.299576 112.0
163.325974 136.0
163.344025 148.0
163.374344 84.0
163.406967 156.0
163.423889 68.0
163.449783 124.0
163.464569 140.0
163.495499 108.0
163.516083 148.0
163.543396 224.0
163.563904 228.0
163.593491 316.0
163.618668 44.0
163.639038 72.0
163.667038 152.0
163.689957 32.0
163.712875 376.0
163.758728 172.0
163.784195 104.0
163.802032 124.0
163.856842 104.0
163.893738 96.0
163.91922 136.0
163.937057 160.0
163.992447 192.0
164.021988 112.0
164.073853 116.0
164.093582 152.0
164.149582 280.0
164.204758 140.0
164.22261 76.0
164.241745 136.0
164.272751 164.0
164.276825 172.0
164.317001 104.0
164.372086 128.0
164.398651 128.0
164.436859 184.0
164.46756 140.0
164.511673 152.0
164.544144 168.0
164.612961 168.0
164.66098 164.0
164.708786 196.0
164.733124 80.0
164.756119 60.0
164.804291 216.0
164.848099 40.0
164.865997 136.0
164.900848 232.0
164.934509 200.0
164.9673 344.0
164.984711 188.0
165.043716 1520.0
165.068451 3212.0
165.119919 204.0
165.156036 144.0
165.222397 300.0
165.245712 172.0
165.275085 152.0
165.319534 172.0
165.35704 192.0
165.391907 256.0
165.410782 108.0
165.440079 108.0
165.457901 308.0
165.49527 120.0
165.518311 196.0
165.54393 200.0
165.580765 64.0
165.610703 160.0
165.648392 152.0
165.7117 168.0
165.751419 208.0
165.803452 248.0
165.838211 152.0
165.876999 172.0
165.894562 160.0
165.964859 312.0
166.007446 212.0
166.050995 688.0
166.068665 532.0
166.104767 332.0
166.137177 116.0
166.159378 144.0
166.198502 172.0
166.226852 200.0
166.264206 220.0
166.304092 108.0
166.34288 124.0
166.360794 68.0
166.419617 32.0
166.463684 156.0
166.492798 124.0
166.510773 36.0
166.539902 164.0
166.546555 56.0
166.556747 160.0
166.58783 108.0
166.664612 208.0
166.702316 112.0
166.737885 268.0
166.757294 84.0
166.771378 84.0
166.795975 76.0
166.81398 180.0
166.861343 196.0
166.915771 156.0
166.968674 164.0
166.996887 60.0
167.009201 52.0
167.014633 108.0
167.052734 948.0
167.070831 652.0
167.123123 136.0
167.152069 132.0
167.174789 156.0
167.206787 140.0
167.246979 72.0
167.290604 144.0
167.330994 120.0
167.36264 108.0
167.395447 112.0
167.416214 180.0
167.443573 308.0
167.501205 132.0
167.519638 252.0
167.543961 212.0
167.574173 96.0
167.600418 216.0
167.631622 224.0
167.667496 332.0
167.682434 120.0
167.693741 128.0
167.723145 184.0
167.748428 172.0
167.776947 124.0
167.802567 252.0
167.841248 132.0
167.879929 92.0
167.902161 128.0
167.928925 224.0
167.957565 152.0
167.996735 156.0
168.02179 88.0
168.056152 3388.0
168.113251 260.0
168.124298 116.0
168.132309 144.0
168.181595 156.0
168.247681 84.0
168.278534 168.0
168.322556 144.0
168.332886 152.0
168.345657 76.0
168.353485 144.0
168.40332 172.0
168.443176 180.0
168.492661 260.0
168.501389 244.0
168.511566 268.0
168.566605 100.0
168.631683 172.0
168.673325 96.0
168.690231 168.0
168.736206 156.0
168.743439 96.0
168.75145 196.0
168.79512 268.0
168.832565 156.0
168.879074 120.0
168.914093 60.0
168.944092 164.0
168.966721 172.0
168.976105 128.0
169.016098 304.0
169.043411 1376.0
169.06218 2156.0
169.095154 160.0
169.122742 112.0
169.164062 252.0
169.192978 156.0
169.230225 36.0
169.275391 52.0
169.339066 264.0
169.363449 96.0
169.397781 192.0
169.441162 140.0
169.487885 128.0
169.551575 116.0
169.594894 100.0
169.661453 164.0
169.683411 152.0
169.706238 44.0
169.732742 272.0
169.761948 148.0
169.791107 88.0
169.813736 188.0
169.862473 212.0
169.913025 172.0
169.976242 188.0
170.016815 156.0
170.039444 880.0
170.068237 636.0
170.117813 196.0
170.14386 136.0
170.152954 168.0
170.187347 144.0
170.208923 184.0
170.236481 312.0
170.253906 172.0
170.300323 164.0
170.321442 168.0
170.353195 184.0
170.389908 176.0
170.422974 216.0
170.460892 160.0
170.506912 232.0
170.532578 184.0
170.557053 176.0
170.590851 96.0
170.638626 184.0
170.687042 156.0
170.714401 92.0
170.721802 164.0
170.749023 128.0
170.778244 180.0
170.826828 268.0
170.856339 176.0
170.89064 132.0
170.914185 228.0
170.970886 396.0
170.990173 176.0
171.054382 576.0
171.083481 152.0
171.124176 132.0
171.152878 104.0
171.179474 152.0
171.221268 120.0
171.254395 116.0
171.285645 132.0
171.314301 84.0
171.343857 196.0
171.372665 188.0
171.413315 252.0
171.435608 180.0
171.470642 216.0
171.502579 220.0
171.523499 168.0
171.581818 80.0
171.615189 184.0
171.654388 208.0
171.692871 168.0
171.739471 192.0
171.769257 200.0
171.810547 228.0
171.874146 176.0
171.898346 172.0
171.940933 100.0
172.009064 160.0
172.056381 352.0
172.085403 108.0
172.091705 160.0
172.104385 120.0
172.110336 152.0
172.139923 88.0
172.212967 164.0
172.238724 108.0
172.290466 244.0
172.363159 172.0
172.387512 152.0
172.420639 60.0
172.463806 156.0
172.482925 276.0
172.523087 420.0
172.54187 128.0
172.587631 96.0
172.615692 132.0
172.679474 84.0
172.735382 140.0
172.77626 132.0
172.82074 168.0
172.86496 152.0
172.901871 212.0
172.92186 88.0
172.948975 88.0
172.971222 104.0
172.988586 240.0
173.017044 164.0
173.053513 336.0
173.108505 124.0
173.156891 108.0
173.209213 304.0
173.254089 148.0
173.302521 180.0
173.32312 192.0
173.360168 176.0
173.412582 112.0
173.437286 104.0
173.452682 136.0
173.48288 196.0
173.515671 216.0
173.555191 172.0
173.576248 172.0
173.632614 232.0
173.666916 204.0
173.692032 292.0
173.711517 260.0
173.748322 132.0
173.774475 112.0
173.795471 52.0
173.831558 164.0
173.867905 192.0
173.89325 76.0
173.91394 240.0
173.934555 152.0
173.955566 172.0
174.025177 132.0
174.055328 112.0
174.081985 120.0
174.115723 72.0
174.151825 236.0
174.170273 204.0
174.196503 64.0
174.229813 212.0
174.297058 168.0
174.328522 164.0
174.361954 200.0
174.366486 168.0
174.390884 88.0
174.3983 124.0
174.475723 60.0
174.52562 176.0
174.5504 140.0
174.588791 236.0
174.622879 112.0
174.648026 184.0
174.677658 76.0
174.710907 172.0
174.730835 92.0
174.766327 196.0
174.79924 148.0
174.841354 72.0
174.868881 200.0
174.918289 140.0
174.941376 176.0
174.998688 88.0
175.02359 120.0
175.044403 152.0
175.083221 160.0
175.127228 56.0
175.168793 188.0
175.206345 128.0
175.235367 184.0
175.27803 112.0
175.28595 92.0
175.295654 188.0
175.36055 120.0
175.385193 148.0
175.419922 152.0
175.43927 180.0
175.484879 212.0
175.526276 212.0
175.555283 132.0
175.618591 180.0
175.652435 96.0
175.659241 164.0
175.682724 316.0
175.738205 128.0
175.745865 196.0
175.808548 100.0
175.839844 172.0
175.89357 132.0
175.904358 164.0
175.914536 208.0
175.923019 120.0
175.946304 204.0
175.982086 140.0
176.014938 152.0
176.03717 140.0
176.062851 316.0
176.101608 196.0
176.147049 196.0
176.170288 244.0
176.230331 284.0
176.269745 168.0
176.356445 152.0
176.365295 216.0
176.394897 176.0
176.431946 160.0
176.45517 196.0
176.529938 712.0
176.58136 116.0
176.631424 172.0
176.669937 212.0
176.704163 136.0
176.744949 316.0
176.766541 88.0
176.799591 156.0
176.818115 44.0
176.839157 168.0
176.87117 176.0
176.892227 116.0
176.932785 156.0
176.992981 72.0
177.023285 80.0
177.067413 576.0
177.113998 192.0
177.134628 104.0
177.166702 68.0
177.188828 188.0
177.231842 340.0
177.249985 168.0
177.31694 184.0
177.345184 160.0
177.390533 148.0
177.411453 84.0
177.438049 120.0
177.458374 132.0
177.566025 192.0
177.571243 200.0
177.58252 188.0
177.614807 152.0
177.644424 132.0
177.725632 156.0
177.740799 160.0
177.762512 248.0
177.774597 88.0
177.785019 260.0
177.824081 136.0
177.866226 240.0
177.900681 240.0
177.939407 132.0
177.958054 152.0
178.038147 300.0
178.076431 1168.0
178.116119 132.0
178.13649 272.0
178.188156 200.0
178.212967 132.0
178.258148 200.0
178.314041 136.0
178.349182 172.0
178.376541 256.0
178.381393 140.0
178.393692 168.0
178.456345 184.0
178.50354 120.0
178.521317 180.0
178.541504 164.0
178.591309 152.0
178.601425 136.0
178.612518 112.0
178.672668 160.0
178.68277 144.0
178.701904 104.0
178.762985 224.0
178.774567 224.0
178.831833 332.0
178.858902 80.0
178.90448 76.0
178.966537 204.0
179.013443 160.0
179.05278 288.0
179.084442 1728.0
179.15506 112.0
179.190933 144.0
179.241547 196.0
179.279388 216.0
179.332275 100.0
179.373322 148.0
179.407089 60.0
179.441788 124.0
179.479965 132.0
179.537689 348.0
179.563614 124.0
179.634811 152.0
179.649399 84.0
179.657898 112.0
179.69632 104.0
179.727203 128.0
179.797775 148.0
179.834778 68.0
179.861282 112.0
179.874817 328.0
179.91684 124.0
179.936081 112.0
179.967865 212.0
180.022598 160.0
180.054672 5044.0
180.080551 1760.0
180.108917 48.0
180.126328 92.0
180.155212 136.0
180.201141 128.0
180.22847 164.0
180.267441 64.0
180.318878 176.0
180.358688 144.0
180.38504 108.0
180.430481 144.0
180.451035 152.0
180.491989 88.0
180.528397 136.0
180.566864 152.0
180.593246 232.0
180.616852 168.0
180.672287 140.0
180.699722 120.0
180.705597 144.0
180.74408 148.0
180.774323 132.0
180.802292 96.0
180.851059 92.0
180.870926 112.0
180.89299 296.0
180.997543 124.0
181.060379 2844.0
181.088776 316.0
181.124939 120.0
181.150375 100.0
181.175827 144.0
181.220367 96.0
181.25383 236.0
181.318451 176.0
181.344223 152.0
181.365479 196.0
181.403152 108.0
181.429092 184.0
181.461258 96.0
181.483826 128.0
181.535843 152.0
181.568527 156.0
181.600708 164.0
181.622238 148.0
181.643631 144.0
181.693329 136.0
181.764359 128.0
181.810059 140.0
181.815964 120.0
181.852173 176.0
181.877182 160.0
181.949554 140.0
182.009781 140.0
182.069778 1964.0
182.124496 224.0
182.156631 316.0
182.19046 176.0
182.232056 72.0
182.254272 132.0
182.303741 108.0
182.329514 176.0
182.388596 216.0
182.424133 320.0
182.455215 220.0
182.48793 136.0
182.519135 312.0
182.555649 156.0
182.581024 76.0
182.622955 108.0
182.645569 136.0
182.676376 176.0
182.71431 184.0
182.761261 56.0
182.781204 80.0
182.81369 132.0
182.845291 212.0
182.909271 144.0
182.957733 72.0
182.989639 164.0
183.023636 276.0
183.077759 6684.0
183.133698 204.0
183.15274 96.0
183.197418 44.0
183.245041 100.0
183.307877 96.0
183.331284 88.0
183.347321 164.0
183.375595 260.0
183.421082 92.0
183.467682 140.0
183.492706 204.0
183.550491 188.0
183.582855 88.0
183.614899 172.0
183.62825 96.0
183.635757 168.0
183.683212 164.0
183.769333 184.0
183.796814 348.0
183.814484 376.0
183.838211 140.0
183.847229 236.0
183.853821 108.0
183.879608 148.0
183.914032 96.0
183.974442 196.0
183.99884 240.0
184.027969 180.0
184.075638 1832.0
184.13797 168.0
184.146057 132.0
184.156906 188.0
184.227951 132.0
184.263062 152.0
184.301147 168.0
184.361984 148.0
184.427002 148.0
184.500351 312.0
184.525223 148.0
184.557068 176.0
184.606552 104.0
184.646912 180.0
184.677826 196.0
184.700073 104.0
184.726807 112.0
184.75441 120.0
184.76503 60.0
184.77597 208.0
184.803818 168.0
184.827026 204.0
184.870789 268.0
184.914993 156.0
184.955368 168.0
184.982437 100.0
185.027512 236.0
185.081665 6316.0
185.125687 172.0
185.154236 124.0
185.185516 92.0
185.255127 176.0
185.279678 132.0
185.289917 192.0
185.337494 200.0
185.354065 132.0
185.388718 108.0
185.473801 428.0
185.490143 160.0
185.526367 148.0
185.54805 204.0
185.585052 112.0
185.610779 184.0
185.632584 224.0
185.682785 408.0
185.709259 140.0
185.748352 192.0
185.793686 124.0
185.841049 136.0
185.863266 32.0
185.902908 184.0
185.936539 144.0
185.958557 108.0
185.990829 92.0
186.042725 488.0
186.084488 1072.0
186.197754 208.0
186.229767 60.0
186.263367 212.0
186.282257 108.0
186.303116 132.0
186.374252 152.0
186.414505 248.0
186.44194 208.0
186.464081 132.0
186.495361 144.0
186.542374 88.0
186.563156 152.0
186.58754 116.0
186.614243 168.0
186.643402 176.0
186.687347 108.0
186.75853 156.0
186.779709 136.0
186.811691 292.0
186.865265 88.0
186.880615 116.0
186.902924 132.0
186.947525 56.0
186.988342 376.0
187.027893 204.0
187.061752 332.0
187.092682 260.0
187.181839 52.0
187.226318 176.0
187.260605 80.0
187.303177 108.0
187.341385 104.0
187.379532 140.0
187.384384 92.0
187.395416 180.0
187.426239 120.0
187.462143 152.0
187.467514 148.0
187.515671 220.0
187.565109 196.0
187.6353 72.0
187.658478 208.0
187.692535 224.0
187.736435 224.0
187.76622 132.0
187.793243 296.0
187.830719 148.0
187.873062 152.0
187.893036 148.0
187.955933 112.0
187.985794 132.0
188.043945 156.0
188.088257 188.0
188.124756 168.0
188.145599 88.0
188.209595 160.0
188.245132 92.0
188.266983 120.0
188.29718 208.0
188.337692 180.0
188.373505 164.0
188.421616 92.0
188.457565 120.0
188.474594 260.0
188.504562 116.0
188.510803 152.0
188.521652 144.0
188.547211 140.0
188.574646 256.0
188.625137 140.0
188.637085 124.0
188.65596 112.0
188.688583 180.0
188.7285 136.0
188.783127 364.0
188.817108 164.0
188.8461 152.0
188.865967 52.0
188.904755 144.0
188.975067 112.0
189.010544 76.0
189.069122 6872.0
189.115723 92.0
189.155594 112.0
189.177155 132.0
189.227737 140.0
189.2565 168.0
189.284271 296.0
189.311661 128.0
189.340775 176.0
189.356766 172.0
189.422974 296.0
189.469818 188.0
189.507294 104.0
189.516617 136.0
189.552139 316.0
189.666962 112.0
189.704788 116.0
189.728531 148.0
189.753601 168.0
189.787094 216.0
189.823364 148.0
189.848785 88.0
189.875473 164.0
189.900558 132.0
189.917419 212.0
189.939301 116.0
189.979446 164.0
190.012924 176.0
190.069046 2896.0
190.175934 152.0
190.199982 192.0
190.245956 176.0
190.277145 184.0
190.309799 388.0
190.331024 196.0
190.352829 184.0
190.375702 112.0
190.488312 128.0
190.511292 76.0
190.551498 184.0
190.581299 80.0
190.600494 96.0
190.605988 120.0
190.659821 304.0
190.688889 96.0
190.716385 152.0
190.737427 164.0
190.768173 100.0
190.800934 104.0
190.857681 120.0
190.906082 104.0
190.98671 76.0
191.008606 132.0
191.085312 28120.0
191.137634 228.0
191.184082 100.0
191.211456 260.0
191.230728 76.0
191.261002 40.0
191.287643 100.0
191.314957 180.0
191.342667 48.0
191.379715 152.0
191.41243 88.0
191.434464 52.0
191.461334 120.0
191.489532 92.0
191.501572 76.0
191.5336 120.0
191.585022 148.0
191.657578 48.0
191.691772 104.0
191.742783 256.0
191.787003 212.0
191.841599 184.0
191.884628 144.0
191.901886 136.0
191.933075 148.0
191.968613 152.0
192.053116 288.0
192.084427 5600.0
192.132553 108.0
192.210663 176.0
192.253571 96.0
192.283325 128.0
192.312027 156.0
192.369019 84.0
192.446518 168.0
192.474762 256.0
192.502151 116.0
192.571838 148.0
192.60939 128.0
192.63089 148.0
192.648697 208.0
192.68187 84.0
192.705124 104.0
192.72467 204.0
192.749527 188.0
192.755203 72.0
192.810043 340.0
192.829712 148.0
192.869949 148.0
192.892487 168.0
192.973923 308.0
192.998199 168.0
193.017075 140.0
193.054657 380.0
193.087891 9336.0
193.183167 248.0
193.238083 160.0
193.282593 144.0
193.316071 80.0
193.364227 112.0
193.395187 192.0
193.434814 208.0
193.487213 232.0
193.514145 180.0
193.575607 212.0
193.596786 124.0
193.620956 44.0
193.640762 132.0
193.690155 100.0
193.726959 192.0
193.751434 208.0
193.771225 160.0
193.801422 136.0
193.831192 252.0
193.857956 156.0
193.893219 152.0
193.921112 140.0
193.9431 96.0
193.980103 172.0
194.029938 376.0
194.058945 308.0
194.093964 2340.0
194.154053 192.0
194.188171 116.0
194.207825 296.0
194.228241 164.0
194.29921 192.0
194.336899 152.0
194.394455 292.0
194.425964 260.0
194.456238 88.0
194.485214 100.0
194.49382 148.0
194.504074 136.0
194.528122 160.0
194.571701 308.0
194.57959 236.0
194.591263 228.0
194.616714 188.0
194.650558 52.0
194.687408 64.0
194.719986 312.0
194.737228 124.0
194.768616 156.0
194.808289 152.0
194.850555 120.0
194.882858 120.0
194.921066 212.0
194.965302 352.0
194.990967 120.0
195.007553 128.0
195.067596 2180.0
195.112274 260.0
195.145157 56.0
195.164627 72.0
195.230774 112.0
195.257629 288.0
195.283447 176.0
195.316101 112.0
195.33606 144.0
195.399384 176.0
195.451508 284.0
195.487305 164.0
195.540939 204.0
195.59787 116.0
195.64743 204.0
195.674194 160.0
195.70903 292.0
195.73111 152.0
195.756454 136.0
195.838013 144.0
195.865494 168.0
195.900986 132.0
195.954437 220.0
195.980179 100.0
196.069962 1468.0
196.184586 152.0
196.224472 156.0
196.244965 116.0
196.293152 156.0
196.317474 120.0
196.359299 132.0
196.37883 112.0
196.401764 196.0
196.448669 108.0
196.468094 164.0
196.515289 144.0
196.526184 248.0
196.576904 80.0
196.627136 164.0
196.669449 184.0
196.689728 264.0
196.755539 124.0
196.782288 216.0
196.803009 172.0
196.822556 492.0
196.870026 112.0
196.893188 192.0
196.958176 148.0
197.036133 172.0
197.076736 204.0
197.104843 140.0
197.18013 132.0
197.21106 160.0
197.250458 120.0
197.270447 128.0
197.31308 160.0
197.360352 120.0
197.366531 148.0
197.394928 120.0
197.424866 156.0
197.450607 124.0
197.483368 180.0
197.505493 120.0
197.515137 148.0
197.574966 256.0
197.617722 116.0
197.657196 136.0
197.724304 140.0
197.749557 88.0
197.756287 44.0
197.780441 236.0
197.807953 236.0
197.842651 108.0
197.874481 248.0
197.904663 136.0
197.96817 236.0
198.011078 224.0
198.050018 200.0
198.105606 252.0
198.151138 52.0
198.188354 156.0
198.233551 156.0
198.259354 136.0
198.269897 84.0
198.275833 168.0
198.355728 200.0
198.383759 164.0
198.443481 196.0
198.475342 252.0
198.519592 108.0
198.555389 132.0
198.616821 200.0
198.647354 148.0
198.671127 160.0
198.739944 372.0
198.781967 252.0
198.805893 232.0
198.829666 144.0
198.8526 104.0
198.884171 92.0
198.910492 328.0
198.933594 88.0
198.98381 140.0
199.029709 52.0
199.056366 268.0
199.104874 160.0
199.136826 128.0
199.145447 152.0
199.158752 44.0
199.164703 92.0
199.189453 140.0
199.228592 188.0
199.24968 180.0
199.290283 160.0
199.376953 52.0
199.385559 148.0
199.441833 372.0
199.516663 132.0
199.539734 192.0
199.588013 136.0
199.634628 216.0
199.661346 84.0
199.693542 88.0
199.723221 116.0
199.756012 200.0
199.780823 148.0
199.800446 124.0
199.825974 220.0
199.875137 116.0
199.911728 128.0
199.990524 176.0
200.017776 140.0
200.061737 452.0
200.096588 148.0
200.120026 172.0
200.162262 52.0
200.187836 172.0
200.212952 116.0
200.277725 180.0
200.313797 196.0
200.356491 312.0
200.403763 136.0
200.431229 172.0
200.471085 172.0
200.54541 80.0
200.577057 176.0
200.617737 144.0
200.641251 156.0
200.712067 136.0
200.738632 184.0
200.759674 188.0
200.780182 192.0
200.804733 204.0
200.857788 160.0
200.896591 104.0
200.935669 180.0
200.943253 100.0
200.972427 156.0
201.023514 160.0
201.062744 520.0
201.120819 160.0
201.144516 200.0
201.191971 136.0
201.211151 180.0
201.238495 152.0
201.267563 188.0
201.297333 184.0
201.342758 280.0
201.360046 128.0
201.370987 172.0
201.391434 152.0
201.411652 172.0
201.431427 100.0
201.471176 112.0
201.504883 80.0
201.578217 168.0
201.621994 72.0
201.660309 148.0
201.69812 116.0
201.743027 160.0
201.805893 216.0
201.918762 204.0
201.938599 188.0
201.950562 176.0
202.018097 180.0
202.075943 4608.0
202.146744 64.0
202.182465 160.0
202.210236 240.0
202.24498 192.0
202.277725 144.0
202.305237 140.0
202.344879 304.0
202.378296 220.0
202.388565 176.0
202.424164 144.0
202.462479 128.0
202.541 160.0
202.609024 164.0
202.654617 184.0
202.689102 136.0
202.72728 128.0
202.747116 164.0
202.785767 100.0
202.818481 224.0
202.857651 232.0
202.888336 136.0
202.952133 124.0
202.982407 36.0
203.005096 104.0
203.07814 2072.0
203.142502 144.0
203.179672 292.0
203.20932 216.0
203.232025 172.0
203.251892 136.0
203.33754 184.0
203.374435 200.0
203.409958 92.0
203.438675 108.0
203.449661 88.0
203.468628 180.0
203.532104 228.0
203.558289 136.0
203.584015 128.0
203.608276 140.0
203.635849 64.0
203.663544 176.0
203.69194 92.0
203.720352 124.0
203.743088 116.0
203.765808 136.0
203.795914 168.0
203.898575 144.0
203.921906 120.0
203.976257 188.0
203.998856 144.0
204.080582 9964.0
204.141006 144.0
204.166046 184.0
204.203018 120.0
204.213272 124.0
204.264801 176.0
204.312729 192.0
204.368576 192.0
204.412521 184.0
204.461105 132.0
204.489822 164.0
204.522263 184.0
204.545029 44.0
204.594803 116.0
204.619049 196.0
204.63884 80.0
204.658676 244.0
204.681854 136.0
204.735229 176.0
204.757233 204.0
204.7827 68.0
204.796341 200.0
204.853348 140.0
204.876144 116.0
204.901642 104.0
204.916672 136.0
204.926056 212.0
204.945587 328.0
205.007477 164.0
205.078323 4248.0
205.213791 136.0
205.275711 208.0
205.31459 140.0
205.3535 120.0
205.386978 180.0
205.430069 208.0
205.464447 140.0
205.503067 144.0
205.551437 68.0
205.593903 96.0
205.625305 128.0
205.654984 300.0
205.682388 116.0
205.714081 156.0
205.768036 180.0
205.796585 128.0
205.827286 208.0
205.843826 176.0
205.879395 80.0
205.941116 196.0
205.970428 192.0
205.995789 176.0
206.003082 132.0
206.09491 14132.0
206.170792 152.0
206.204758 68.0
206.226624 224.0
206.234024 256.0
206.25914 132.0
206.26683 120.0
206.281311 84.0
206.30101 100.0
206.331223 224.0
206.371521 144.0
206.466324 232.0
206.505035 132.0
206.512924 64.0
206.52037 148.0
206.567291 172.0
206.602829 84.0
206.628876 280.0
206.665497 52.0
206.705139 188.0
206.717743 108.0
206.730606 48.0
206.735291 124.0
206.8004 108.0
206.830093 160.0
206.871735 140.0
206.89447 148.0
206.921738 152.0
206.944962 252.0
207.005981 84.0
207.041931 312.0
207.060593 360.0
207.098389 2308.0
207.159332 156.0
207.205948 296.0
207.263947 88.0
207.302612 276.0
207.329605 92.0
207.384308 140.0
207.412415 204.0
207.467545 264.0
207.497742 148.0
207.523087 176.0
207.555923 224.0
207.575882 68.0
207.634903 172.0
207.661407 180.0
207.728653 136.0
207.759964 52.0
207.785782 164.0
207.8116 128.0
207.846619 136.0
207.902283 108.0
207.934998 164.0
207.975754 200.0
208.009628 100.0
208.051682 888.0
208.098541 664.0
208.143097 180.0
208.164856 236.0
208.198334 188.0
208.231674 156.0
208.254074 272.0
208.309525 108.0
208.354233 76.0
208.400208 44.0
208.448029 100.0
208.471863 60.0
208.49408 200.0
208.538147 568.0
208.591095 108.0
208.641708 168.0
208.680237 196.0
208.732849 204.0
208.752945 284.0
208.785965 144.0
208.837997 380.0
208.906219 184.0
208.941788 120.0
208.95459 44.0
208.990051 140.0
209.05867 1836.0
209.108994 112.0
209.159439 132.0
209.216293 72.0
209.282593 224.0
209.307709 140.0
209.349686 264.0
209.381897 132.0
209.409943 244.0
209.44841 292.0
209.46756 188.0
209.507889 152.0
209.53299 168.0
209.566406 116.0
209.593063 128.0
209.645416 164.0
209.672134 88.0
209.714935 268.0
209.761917 188.0
209.792923 180.0
209.824463 128.0
209.869461 160.0
209.887024 96.0
209.935837 144.0
209.975906 164.0
209.999847 120.0
210.074615 5292.0
210.108444 168.0
210.158905 100.0
210.193939 144.0
210.23201 116.0
210.261169 84.0
210.284225 192.0
210.329758 64.0
210.352844 152.0
210.375931 160.0
210.414963 216.0
210.423737 112.0
210.432236 144.0
210.465652 96.0
210.527252 128.0
210.567093 300.0
210.634735 148.0
210.664307 220.0
210.69397 196.0
210.738663 148.0
210.778656 232.0
210.811249 112.0
210.843094 104.0
210.877884 156.0
210.913239 108.0
210.933472 60.0
210.979187 200.0
211.02594 188.0
211.060776 18648.0
211.120209 168.0
211.131317 168.0
211.172211 84.0
211.230179 92.0
211.250671 104.0
211.274704 120.0
211.312225 136.0
211.336258 176.0
211.373077 128.0
211.399124 52.0
211.423996 240.0
211.451218 180.0
211.480621 284.0
211.49614 108.0
211.506119 128.0
211.529373 120.0
211.563843 92.0
211.599838 140.0
211.624908 40.0
211.652344 236.0
211.682648 152.0
211.726486 172.0
211.753067 140.0
211.783051 92.0
211.80925 92.0
211.857712 72.0
211.924271 124.0
211.955734 264.0
211.97757 128.0
212.064194 2584.0
212.092316 372.0
212.153778 340.0
212.194656 156.0
212.249191 48.0
212.272339 176.0
212.300079 108.0
212.321716 136.0
212.413742 128.0
212.447205 300.0
212.496719 364.0
212.558594 96.0
212.615295 116.0
212.676422 208.0
212.746552 168.0
212.776764 144.0
212.79509 156.0
212.83284 144.0
212.878342 108.0
212.917084 100.0
212.957245 112.0
212.985046 336.0
213.048187 500.0
213.066818 868.0
213.153549 188.0
213.176804 212.0
213.235611 92.0
213.288193 292.0
213.3302 72.0
213.348373 200.0
213.384125 220.0
213.447144 80.0
213.478638 96.0
213.502396 96.0
213.522751 32.0
213.55687 96.0
213.591431 72.0
213.612381 236.0
213.648987 204.0
213.674011 96.0
213.712982 92.0
213.741592 352.0
213.784027 104.0
213.822418 208.0
213.855545 280.0
213.920807 268.0
213.969772 152.0
214.064819 3424.0
214.120224 460.0
214.141739 148.0
214.181595 300.0
214.227982 184.0
214.255295 140.0
214.297729 144.0
214.334961 112.0
214.381424 168.0
214.418137 184.0
214.456772 120.0
214.505081 316.0
214.533157 36.0
214.55574 144.0
214.59729 124.0
214.635193 108.0
214.677338 132.0
214.708542 188.0
214.746124 400.0
214.79451 160.0
214.823975 44.0
214.853317 168.0
214.896393 160.0
214.936996 156.0
214.958374 340.0
215.011383 364.0
215.018112 140.0
215.031067 152.0
215.081497 4532.0
215.145798 220.0
215.166229 132.0
215.215866 100.0
215.246094 180.0
215.28595 200.0
215.304047 180.0
215.339874 224.0
215.402008 92.0
215.450897 216.0
215.515152 148.0
215.542816 116.0
215.551254 108.0
215.582504 124.0
215.646698 168.0
215.691513 128.0
215.719833 224.0
215.738312 200.0
215.768066 140.0
215.789734 132.0
215.839752 140.0
215.866241 180.0
215.903397 236.0
215.95195 132.0
215.961075 116.0
215.970566 132.0
215.990234 128.0
216.033905 236.0
216.080322 32004.0
216.148087 120.0
216.172653 96.0
216.192642 96.0
216.218552 212.0
216.260788 212.0
216.291397 72.0
216.326172 292.0
216.377792 208.0
216.4133 144.0
216.47879 148.0
216.50795 80.0
216.542236 108.0
216.564026 156.0
216.605423 212.0
216.643127 108.0
216.668121 172.0
216.692398 88.0
216.739639 136.0
216.770782 148.0
216.833099 152.0
216.856216 128.0
216.905853 116.0
216.941605 108.0
216.950317 248.0
216.964066 180.0
216.994812 76.0
217.087036 18564.0
217.161224 64.0
217.179138 148.0
217.210205 224.0
217.243408 68.0
217.297318 64.0
217.349686 312.0
217.415253 168.0
217.453857 124.0
217.497772 36.0
217.509918 96.0
217.549118 64.0
217.580276 112.0
217.619766 116.0
217.660095 136.0
217.698608 176.0
217.718277 292.0
217.77095 140.0
217.801468 160.0
217.812912 140.0
217.854721 108.0
217.892502 200.0
217.939011 284.0
217.947098 136.0
217.962982 268.0
217.990158 148.0
218.027176 248.0
218.088013 5972.0
218.179276 156.0
218.233475 32.0
218.272903 132.0
218.323837 212.0
218.351471 116.0
218.395599 68.0
218.433838 132.0
218.454422 88.0
218.501541 188.0
218.560349 84.0
218.598526 284.0
218.605423 176.0
218.65451 88.0
218.70636 152.0
218.763092 176.0
218.808563 116.0
218.857956 168.0
218.895309 216.0
218.942368 88.0
219.013718 256.0
219.090271 11072.0
219.14473 132.0
219.189621 68.0
219.211716 268.0
219.246063 88.0
219.275955 120.0
219.309464 140.0
219.352493 116.0
219.465225 292.0
219.521988 108.0
219.574097 136.0
219.603714 152.0
219.625153 196.0
219.67128 168.0
219.706253 148.0
219.752579 96.0
219.811539 72.0
219.823959 44.0
219.829193 108.0
219.864258 76.0
219.897034 96.0
219.983871 164.0
220.021484 332.0
220.042862 228.0
220.091309 2780.0
220.153564 228.0
220.191803 224.0
220.243729 104.0
220.282532 148.0
220.306 248.0
220.326126 224.0
220.337936 108.0
220.348602 224.0
220.385529 156.0
220.41893 120.0
220.452438 204.0
220.486877 108.0
220.496597 216.0
220.551025 140.0
220.577316 160.0
220.599869 92.0
220.65477 172.0
220.703842 132.0
220.767075 108.0
220.805405 116.0
220.83078 124.0
220.866714 168.0
220.932205 152.0
220.951675 108.0
221.012665 260.0
221.043427 552.0
221.091949 652.0
221.144638 128.0
221.18396 104.0
221.209686 120.0
221.241165 120.0
221.266495 164.0
221.291824 172.0
221.330811 160.0
221.356155 148.0
221.419724 80.0
221.465118 112.0
221.493286 104.0
221.539398 128.0
221.595993 116.0
221.649475 232.0
221.715652 228.0
221.755432 172.0
221.780273 288.0
221.827698 84.0
221.844254 132.0
221.848679 208.0
221.877686 108.0
221.915176 116.0
221.946243 176.0
221.978058 40.0
222.028397 276.0
222.045517 392.0
222.089645 180.0
222.13147 152.0
222.185623 212.0
222.214691 268.0
222.284943 136.0
222.29657 108.0
222.355713 172.0
222.385986 136.0
222.452774 148.0
222.514374 124.0
222.53624 188.0
222.57515 128.0
222.628159 96.0
222.70517 84.0
222.738342 192.0
222.810104 112.0
222.833191 124.0
222.858856 120.0
222.863663 264.0
222.901245 64.0
222.962845 168.0
222.987442 96.0
223.032364 108.0
223.057953 144.0
223.111404 592.0
223.157059 128.0
223.20842 132.0
223.251572 188.0
223.296646 156.0
223.382217 104.0
223.428909 88.0
223.479752 116.0
223.589188 196.0
223.613068 188.0
223.662613 100.0
223.703384 144.0
223.82338 60.0
223.85614 80.0
223.891876 156.0
223.932144 108.0
223.985184 284.0
224.04071 124.0
224.070602 292.0
224.11232 52.0
224.136154 124.0
224.162811 72.0
224.20256 156.0
224.248688 116.0
224.297379 124.0
224.332199 124.0
224.375 152.0
224.395477 304.0
224.438278 168.0
224.48201 172.0
224.508789 216.0
224.555984 92.0
224.580368 80.0
224.603271 188.0
224.680771 152.0
224.708633 100.0
224.727936 68.0
224.759369 76.0
224.791443 112.0
224.83548 220.0
224.86058 84.0
224.949249 264.0
224.980225 168.0
225.025009 104.0
225.05423 204.0
225.087708 132.0
225.108612 308.0
225.207169 128.0
225.242584 168.0
225.280212 144.0
225.329651 152.0
225.373199 152.0
225.419296 224.0
225.441833 176.0
225.462448 100.0
225.513229 212.0
225.550797 264.0
225.687424 148.0
225.712234 32.0
225.801773 152.0
225.852798 88.0
225.873749 116.0
225.897186 212.0
225.919174 172.0
225.981445 176.0
226.034668 296.0
226.064072 368.0
226.141296 200.0
226.200699 92.0
226.233795 188.0
226.27475 180.0
226.310684 144.0
226.334641 128.0
226.359055 132.0
226.390106 184.0
226.425598 256.0
226.458466 104.0
226.49855 164.0
226.532303 176.0
226.561172 324.0
226.592224 108.0
226.613205 160.0
226.674454 244.0
226.708527 128.0
226.757034 284.0
226.822983 168.0
226.897629 80.0
226.963898 56.0
227.009033 72.0
227.068207 1164.0
227.146835 156.0
227.17247 192.0
227.24173 272.0
227.334946 224.0
227.360107 288.0
227.410889 32.0
227.447128 112.0
227.464325 40.0
227.489502 168.0
227.533966 156.0
227.592758 124.0
227.620605 108.0
227.672501 300.0
227.738174 140.0
227.778976 184.0
227.811707 108.0
227.869125 128.0
227.913712 120.0
227.948471 188.0
227.987534 112.0
228.016388 200.0
228.078873 2440.0
228.115005 108.0
228.163406 104.0
228.214569 84.0
228.260117 148.0
228.377487 200.0
228.407333 180.0
228.449203 164.0
228.479202 264.0
228.500702 152.0
228.544952 132.0
228.591812 224.0
228.618179 160.0
228.652191 152.0
228.679276 212.0
228.703354 180.0
228.745499 100.0
228.776779 132.0
228.799683 268.0
228.845428 116.0
228.874954 88.0
228.90657 168.0
228.927124 84.0
228.961411 152.0
229.009247 116.0
229.040894 392.0
229.075958 7016.0
229.12294 60.0
229.143921 300.0
229.174301 192.0
229.200806 148.0
229.234222 120.0
229.250595 160.0
229.274628 148.0
229.331161 196.0
229.346359 76.0
229.357605 108.0
229.426849 76.0
229.467865 144.0
229.493759 196.0
229.527908 212.0
229.547699 140.0
229.577087 208.0
229.61084 164.0
229.634384 176.0
229.655502 104.0
229.703766 100.0
229.72789 48.0
229.755188 176.0
229.781464 148.0
229.824432 56.0
229.866943 228.0
229.905914 120.0
229.927292 96.0
229.973419 208.0
229.981598 212.0
230.015244 160.0
230.086441 6368.0
230.138412 264.0
230.193115 88.0
230.228943 112.0
230.256119 192.0
230.282196 120.0
230.337677 128.0
230.382996 48.0
230.416214 36.0
230.473831 176.0
230.509888 64.0
230.534058 136.0
230.572723 120.0
230.59227 352.0
230.679138 184.0
230.701096 136.0
230.729736 120.0
230.772858 56.0
230.821243 52.0
230.857925 92.0
230.942215 280.0
230.98465 140.0
231.008179 104.0
231.091248 23216.0
231.137466 208.0
231.17215 128.0
231.218536 236.0
231.229004 136.0
231.238586 104.0
231.27594 200.0
231.317261 72.0
231.326248 184.0
231.403839 80.0
231.444824 140.0
231.490448 276.0
231.520187 148.0
231.564209 68.0
231.590317 452.0
231.636597 140.0
231.69194 156.0
231.718628 140.0
231.7798 132.0
231.835358 104.0
231.858185 128.0
231.892944 104.0
231.914154 208.0
231.936462 224.0
231.970108 96.0
232.004089 96.0
232.097 10416.0
232.160416 160.0
232.184006 132.0
232.209015 200.0
232.257278 104.0
232.319992 156.0
232.376724 128.0
232.411667 164.0
232.425232 68.0
232.434448 180.0
232.44519 132.0
232.4664 328.0
232.519135 320.0
232.571228 108.0
232.605759 112.0
232.630035 52.0
232.684677 72.0
232.721481 340.0
232.772736 100.0
232.815247 112.0
232.88649 88.0
232.927628 128.0
232.951935 172.0
233.017395 220.0
233.029892 252.0
233.036652 172.0
233.104065 5540.0
233.155029 100.0
233.212753 188.0
233.25502 348.0
233.321213 140.0
233.343582 92.0
233.368958 92.0
233.39769 96.0
233.429199 156.0
233.473434 140.0
233.510971 92.0
233.515579 84.0
233.532776 132.0
233.575562 108.0
233.617691 68.0
233.683365 128.0
233.709702 108.0
233.763184 244.0
233.777756 112.0
233.783676 160.0
233.829727 76.0
233.885422 136.0
233.933594 144.0
233.993408 144.0
234.021454 160.0
234.102692 1244.0
234.16864 232.0
234.202316 176.0
234.226517 324.0
234.294052 144.0
234.314255 356.0
234.375809 188.0
234.412369 84.0
234.447128 184.0
234.469696 96.0
234.488144 300.0
234.521225 204.0
234.550629 132.0
234.592194 104.0
234.630875 176.0
234.672485 48.0
234.706985 80.0
234.743271 188.0
234.798218 176.0
234.840714 80.0
234.884949 160.0
234.906021 132.0
234.936798 68.0
234.993149 68.0
235.044357 152.0
235.067184 216.0
235.075836 196.0
235.106613 440.0
235.13945 216.0
235.161346 152.0
235.168488 108.0
235.264084 316.0
235.324402 224.0
235.345779 156.0
235.37326 56.0
235.41362 148.0
235.464081 184.0
235.550858 128.0
235.605392 176.0
235.673355 164.0
235.714417 212.0
235.737213 180.0
235.785675 108.0
235.810486 168.0
235.859024 160.0
235.883484 264.0
235.924011 156.0
235.956985 88.0
235.987427 136.0
236.055771 13348.0
236.172989 236.0
236.210159 124.0
236.228622 208.0
236.248825 144.0
236.278397 152.0
236.302979 208.0
236.352707 236.0
236.364227 208.0
236.374298 140.0
236.418182 132.0
236.449341 64.0
236.472672 224.0
236.513779 160.0
236.543457 80.0
236.564514 160.0
236.604431 84.0
236.626892 124.0
236.648315 72.0
236.700363 116.0
236.734055 72.0
236.755493 64.0
236.783051 108.0
236.810623 336.0
236.844482 176.0
236.908646 44.0
236.934601 160.0
236.946014 136.0
237.062256 6668.0
237.175247 84.0
237.20842 112.0
237.259338 176.0
237.310318 128.0
237.37619 172.0
237.411331 116.0
237.438919 184.0
237.472046 252.0
237.501694 112.0
237.517914 112.0
237.558548 124.0
237.581299 164.0
237.610703 36.0
237.665527 116.0
237.837799 176.0
237.88443 84.0
237.911942 236.0
237.935349 220.0
237.969086 120.0
238.06871 1688.0
238.123489 376.0
238.154755 172.0
238.187851 132.0
238.229782 152.0
238.269348 160.0
238.337723 180.0
238.407593 100.0
238.43161 108.0
238.457489 148.0
238.526688 240.0
238.564011 216.0
238.584274 248.0
238.624802 116.0
238.657166 124.0
238.668961 88.0
238.674942 172.0
238.720551 220.0
238.760941 88.0
238.823807 140.0
238.861862 104.0
238.916412 96.0
238.950256 132.0
238.97731 156.0
239.014877 96.0
239.062408 276.0
239.106216 188.0
239.191345 140.0
239.219803 96.0
239.229874 56.0
239.241425 144.0
239.276215 132.0
239.339859 124.0
239.38118 132.0
239.420883 172.0
239.485123 144.0
239.490524 84.0
239.539474 184.0
239.596802 112.0
239.641235 124.0
239.689224 64.0
239.730377 124.0
239.745377 160.0
239.791428 192.0
239.818665 96.0
239.877548 140.0
239.920395 164.0
239.948135 208.0
239.976578 180.0
239.999786 120.0
240.068253 752.0
240.12561 224.0
240.177231 56.0
240.231384 308.0
240.244202 56.0
240.251022 188.0
240.286652 116.0
240.319687 60.0
240.382645 176.0
240.480377 164.0
240.506073 116.0
240.552811 176.0
240.574417 88.0
240.611679 168.0
240.645935 168.0
240.722275 176.0
240.761963 276.0
240.782791 68.0
240.831253 160.0
240.889465 104.0
240.925766 108.0
240.946167 160.0
240.992172 196.0
241.074707 5176.0
241.131683 176.0
241.275696 120.0
241.309708 36.0
241.349899 52.0
241.388626 84.0
241.490952 132.0
241.529282 92.0
241.563614 120.0
241.601669 180.0
241.624786 96.0
241.6548 112.0
241.71402 152.0
241.763687 152.0
241.832977 236.0
241.882034 92.0
241.917725 80.0
241.940857 144.0
241.962524 60.0
241.995529 152.0
242.045258 880.0
242.08345 19332.0
242.14035 160.0
242.176193 40.0
242.216461 64.0
242.241241 108.0
242.283142 236.0
242.369339 360.0
242.417862 68.0
242.4496 164.0
242.485046 176.0
242.513931 320.0
242.5354 148.0
242.555908 176.0
242.586288 156.0
242.634827 84.0
242.662598 64.0
242.70256 232.0
242.734528 208.0
242.775772 240.0
242.798965 120.0
242.829147 180.0
242.843399 108.0
242.858963 100.0
242.865128 136.0
242.910828 164.0
242.951157 116.0
243.006226 112.0
243.04071 100.0
243.089218 17772.0
243.142868 164.0
243.18042 172.0
243.217331 160.0
243.24736 228.0
243.298264 152.0
243.322861 136.0
243.355408 112.0
243.399872 144.0
243.437881 204.0
243.472641 72.0
243.496643 148.0
243.524597 104.0
243.536057 180.0
243.579346 168.0
243.642075 116.0
243.678772 160.0
243.707916 200.0
243.731628 140.0
243.787186 144.0
243.823441 148.0
243.850906 164.0
243.90451 176.0
243.928909 80.0
243.963577 148.0
244.00174 144.0
244.029022 328.0
244.09259 15280.0
244.168793 140.0
244.202255 72.0
244.247009 84.0
244.305145 292.0
244.352798 84.0
244.402176 204.0
244.435654 260.0
244.481873 76.0
244.500626 140.0
244.529282 388.0
244.575211 84.0
244.614532 244.0
244.668701 116.0
244.707611 264.0
244.762039 180.0
244.82547 96.0
244.904434 248.0
244.939148 176.0
245.006134 116.0
245.029312 156.0
245.094482 4584.0
245.143677 140.0
245.19812 104.0
245.253372 224.0
245.283478 44.0
245.307022 116.0
245.331863 92.0
245.36937 164.0
245.400696 132.0
245.430008 56.0
245.473282 128.0
245.501572 144.0
245.533569 236.0
245.563217 84.0
245.572006 180.0
245.626602 212.0
245.670105 232.0
245.744568 132.0
245.793488 152.0
245.833023 108.0
245.866974 164.0
245.945221 164.0
245.981491 256.0
246.017395 212.0
246.03978 488.0
246.10144 5268.0
246.164764 172.0
246.189346 308.0
246.210892 128.0
246.253876 156.0
246.294495 136.0
246.373917 112.0
246.428589 192.0
246.481705 164.0
246.513184 72.0
246.580597 140.0
246.624786 260.0
246.650558 164.0
246.691345 100.0
246.716034 128.0
246.761368 80.0
246.784439 116.0
246.843689 188.0
246.888336 132.0
246.923508 48.0
246.945694 152.0
246.981094 100.0
246.993271 116.0
247.006165 136.0
247.029785 88.0
247.064636 120.0
247.101425 1704.0
247.166748 144.0
247.201172 44.0
247.273148 204.0
247.323944 104.0
247.373306 76.0
247.42099 220.0
247.46788 172.0
247.514206 148.0
247.556381 144.0
247.601532 180.0
247.673019 124.0
247.705246 132.0
247.755905 140.0
247.789825 96.0
247.809998 64.0
247.836838 80.0
247.868484 80.0
247.890106 112.0
248.066498 568.0
248.107208 300.0
248.171371 60.0
248.179001 344.0
248.203568 132.0
248.232651 352.0
248.288239 112.0
248.330856 68.0
248.36351 408.0
248.388611 156.0
248.44194 64.0
248.492142 120.0
248.52037 104.0
248.544403 116.0
248.622284 128.0
248.666153 88.0
248.73378 120.0
248.762039 156.0
248.787628 176.0
248.812271 112.0
248.871918 32.0
248.931168 152.0
248.939392 132.0
248.966995 116.0
249.01059 160.0
249.061401 72.0
249.093872 260.0
249.163315 172.0
249.208008 96.0
249.233139 168.0
249.258514 192.0
249.355698 80.0
249.387451 132.0
249.456284 100.0
249.497147 72.0
249.537582 200.0
249.582901 488.0
249.629211 160.0
249.714127 120.0
249.761307 144.0
249.862259 88.0
249.924484 228.0
249.962738 148.0
250.02092 136.0
250.067749 372.0
250.138916 140.0
250.176682 136.0
250.223541 68.0
250.294876 104.0
250.326248 164.0
250.372696 192.0
250.432556 236.0
250.473846 244.0
250.510498 124.0
250.551254 128.0
250.572281 124.0
250.600204 236.0
250.618927 192.0
250.652283 144.0
250.683792 72.0
250.72937 164.0
250.740845 76.0
250.752975 172.0
250.858749 156.0
250.949493 208.0
251.039932 140.0
251.106247 116.0
251.159119 152.0
251.170959 116.0
251.212799 148.0
251.225281 92.0
251.232605 324.0
251.253143 112.0
251.262848 168.0
251.28746 144.0
251.320755 152.0
251.36853 144.0
251.438248 52.0
251.471481 116.0
251.500641 188.0
251.554306 112.0
251.585876 132.0
251.639923 136.0
251.680588 48.0
251.717499 128.0
251.758636 172.0
251.811462 96.0
251.838272 172.0
251.866318 104.0
251.874054 140.0
251.923782 168.0
251.951492 368.0
252.038498 144.0
252.062073 188.0
252.103882 52.0
252.159332 192.0
252.18721 164.0
252.264664 156.0
252.339432 108.0
252.367706 252.0
252.407364 180.0
252.491852 156.0
252.526566 144.0
252.562332 148.0
252.603455 164.0
252.638245 100.0
252.679382 124.0
252.777222 128.0
252.812439 148.0
252.869247 152.0
252.904053 52.0
252.973068 60.0
253.005356 144.0
253.056015 188.0
253.084503 36.0
253.121933 156.0
253.134872 128.0
253.15004 144.0
253.198517 72.0
253.265381 144.0
253.30191 68.0
253.364792 356.0
253.402618 92.0
253.458481 64.0
253.499908 88.0
253.536972 96.0
253.575958 208.0
253.64209 120.0
253.673798 100.0
253.711838 48.0
253.742065 112.0
253.781586 220.0
253.809906 116.0
253.838058 300.0
253.94696 220.0
253.979706 144.0
254.027771 188.0
254.071793 1208.0
254.113419 316.0
254.217529 140.0
254.26059 88.0
254.28978 164.0
254.330414 108.0
254.372208 344.0
254.432159 208.0
254.490891 220.0
254.596512 216.0
254.648254 160.0
254.69725 160.0
254.710403 84.0
254.722153 132.0
254.767014 236.0
254.802353 328.0
254.852097 164.0
254.889374 136.0
254.940216 92.0
255.032303 148.0
255.074615 1456.0
255.136108 128.0
255.181808 112.0
255.217148 128.0
255.267273 188.0
255.299454 124.0
255.329971 160.0
255.392487 80.0
255.415695 148.0
255.444733 172.0
255.4944 236.0
255.538025 120.0
255.603149 172.0
255.652588 116.0
255.680939 132.0
255.692047 120.0
255.741699 56.0
255.77034 76.0
255.831711 200.0
255.923157 64.0
255.964844 128.0
256.004425 108.0
256.084015 3884.0
256.140137 336.0
256.172119 204.0
256.195435 168.0
256.222504 240.0
256.275787 196.0
256.334076 80.0
256.397583 232.0
256.445618 112.0
256.496613 56.0
256.565796 108.0
256.58905 180.0
256.611389 40.0
256.647583 136.0
256.679199 128.0
256.751678 176.0
256.79953 304.0
256.8479 284.0
256.876068 44.0
256.923004 148.0
256.971802 340.0
257.023315 132.0
257.094574 16192.0
257.155273 128.0
257.18512 52.0
257.25235 156.0
257.273468 160.0
257.308472 248.0
257.332336 232.0
257.389435 356.0
257.430176 216.0
257.474121 216.0
257.509552 52.0
257.586761 132.0
257.648651 76.0
257.702759 248.0
257.749481 100.0
257.779633 212.0
257.812653 188.0
257.837952 188.0
257.884888 56.0
257.920349 84.0
257.943665 176.0
258.022705 176.0
258.100037 12884.0
258.170349 164.0
258.218384 136.0
258.253937 172.0
258.27713 80.0
258.300781 92.0
258.340698 144.0
258.391296 292.0
258.449463 136.0
258.499146 148.0
258.538422 192.0
258.584503 176.0
258.621552 216.0
258.687988 168.0
258.722992 144.0
258.743774 168.0
258.783081 204.0
258.816071 120.0
258.860901 216.0
258.923309 124.0
259.006134 160.0
259.107849 8504.0
259.151947 208.0
259.194122 168.0
259.215546 112.0
259.263367 132.0
259.297607 128.0
259.322601 100.0
259.34787 236.0
259.393951 148.0
259.43222 88.0
259.488251 304.0
259.560577 160.0
259.587372 176.0
259.610779 56.0
259.6474 160.0
259.672394 300.0
259.725922 108.0
259.78717 172.0
259.81427 144.0
259.821259 168.0
259.833771 184.0
259.871613 152.0
259.929901 132.0
259.963654 68.0
260.002167 96.0
260.114929 4852.0
260.174408 156.0
260.216583 172.0
260.269043 156.0
260.293182 196.0
260.408203 92.0
260.465912 192.0
260.490356 84.0
260.516541 108.0
260.550659 308.0
260.559326 180.0
260.631439 152.0
260.664062 212.0
260.701141 136.0
260.712006 144.0
260.734558 160.0
260.797028 148.0
260.828522 72.0
260.856232 80.0
260.868103 128.0
260.911926 72.0
260.947998 108.0
260.987549 64.0
261.031616 124.0
261.045349 260.0
261.114532 2560.0
261.177673 128.0
261.217834 192.0
261.271393 68.0
261.307098 180.0
261.350098 52.0
261.357117 100.0
261.381836 208.0
261.483093 96.0
261.525604 192.0
261.611359 120.0
261.638275 52.0
261.698883 92.0
261.755066 60.0
261.793213 160.0
261.816986 172.0
261.854034 200.0
261.889465 312.0
261.951477 176.0
261.981873 232.0
262.012878 152.0
262.074707 1396.0
262.112457 1176.0
262.183258 156.0
262.215576 164.0
262.275116 352.0
262.296326 128.0
262.324463 108.0
262.359924 104.0
262.396942 124.0
262.444733 132.0
262.47876 160.0
262.500488 88.0
262.505798 148.0
262.543732 108.0
262.566315 200.0
262.643707 112.0
262.682556 100.0
262.721954 140.0
262.77597 100.0
262.805023 100.0
262.850861 156.0
262.863586 184.0
262.90332 112.0
262.931274 216.0
262.983948 80.0
263.049408 128.0
263.077209 136.0
263.117615 252.0
263.1633 104.0
263.221283 112.0
263.261292 136.0
263.272278 48.0
263.28476 124.0
263.306946 96.0
263.327972 176.0
263.350586 72.0
263.38092 104.0
263.39328 128.0
263.431335 176.0
263.516968 160.0
263.546478 220.0
263.576355 104.0
263.644592 284.0
263.718933 224.0
263.750305 148.0
263.77478 144.0
263.830841 152.0
263.87735 152.0
263.902679 172.0
263.943054 184.0
264.008453 124.0
264.044647 168.0
264.085236 96.0
264.109283 136.0
264.134857 128.0
264.18576 188.0
264.222198 64.0
264.265472 80.0
264.304291 136.0
264.346344 80.0
264.386414 64.0
264.466095 84.0
264.481415 88.0
264.490875 148.0
264.530853 172.0
264.569702 80.0
264.592346 220.0
264.64093 108.0
264.679779 92.0
264.726257 184.0
264.754608 112.0
264.783417 164.0
264.836151 256.0
264.912964 88.0
264.958313 156.0
265.005219 148.0
265.044556 144.0
265.074341 164.0
265.100403 208.0
265.11853 192.0
265.249054 112.0
265.275909 164.0
265.343994 204.0
265.369934 152.0
265.399109 240.0
265.469879 140.0
265.501709 420.0
265.550293 176.0
265.60437 204.0
265.642914 252.0
265.670441 128.0
265.748627 144.0
265.825165 136.0
265.869476 200.0
265.945831 140.0
266.002136 120.0
266.09436 160.0
266.170258 276.0
266.19812 100.0
266.254486 156.0
266.299896 148.0
266.320343 204.0
266.359772 172.0
266.444214 88.0
266.512451 88.0
266.547516 96.0
266.553711 132.0
266.565948 244.0
266.658325 36.0
266.704193 76.0
266.761078 208.0
266.804962 108.0
266.868866 228.0
266.948883 76.0
267.019073 232.0
267.046082 252.0
267.076904 360.0
267.12204 128.0
267.149689 148.0
267.205017 128.0
267.240234 92.0
267.256866 68.0
267.262146 156.0
267.285004 136.0
267.357178 236.0
267.439301 128.0
267.478363 128.0
267.545624 128.0
267.618347 132.0
267.641144 156.0
267.68045 112.0
267.737305 148.0
267.761627 132.0
267.801056 76.0
267.839813 120.0
267.873566 208.0
267.922607 156.0
267.974823 72.0
268.020325 304.0
268.081543 776.0
268.136322 80.0
268.162384 92.0
268.19281 272.0
268.24707 164.0
268.279724 264.0
268.323944 168.0
268.365326 188.0
268.446686 136.0
268.484619 104.0
268.532074 208.0
268.57663 96.0
268.60495 324.0
268.630798 184.0
268.674347 68.0
268.703705 132.0
268.773926 316.0
268.800171 192.0
268.826416 264.0
268.834717 396.0
268.85965 76.0
268.868439 148.0
268.940704 160.0
268.964294 160.0
269.020264 148.0
269.080444 2364.0
269.128021 116.0
269.150879 92.0
269.183533 120.0
269.214142 132.0
269.243835 212.0
269.297821 116.0
269.362762 128.0
269.386688 200.0
269.429901 176.0
269.479065 176.0
269.539001 120.0
269.577698 144.0
269.604218 164.0
269.703674 152.0
269.732422 76.0
269.817413 84.0
269.843567 172.0
269.872986 176.0
269.915497 312.0
269.947906 88.0
269.980896 120.0
270.013611 124.0
270.081543 1860.0
270.13324 132.0
270.18042 68.0
270.221222 164.0
270.233673 72.0
270.246735 128.0
270.270111 108.0
270.293579 124.0
270.324402 176.0
270.366791 88.0
270.403656 56.0
270.44104 180.0
270.468414 56.0
270.522827 96.0
270.579712 320.0
270.602631 116.0
270.632111 184.0
270.664185 140.0
270.711914 220.0
270.794006 128.0
270.82962 192.0
270.854309 132.0
270.877258 164.0
270.916718 148.0
270.944092 152.0
270.976013 148.0
270.998932 140.0
271.096405 13800.0
271.195343 364.0
271.252625 156.0
271.294006 80.0
271.35556 208.0
271.385712 132.0
271.411926 40.0
271.439484 180.0
271.494751 64.0
271.520172 144.0
271.547699 396.0
271.576721 144.0
271.612 48.0
271.644806 180.0
271.675323 72.0
271.717926 96.0
271.782593 88.0
271.839325 132.0
271.894745 72.0
271.930908 176.0
271.978516 160.0
272.009033 188.0
272.037323 72.0
272.10321 7700.0
272.180481 164.0
272.279449 68.0
272.343964 132.0
272.408478 260.0
272.445496 180.0
272.485229 164.0
272.552399 136.0
272.587097 104.0
272.618164 220.0
272.648285 216.0
272.761841 200.0
272.84433 168.0
272.911926 148.0
272.934326 132.0
272.997375 148.0
273.030701 132.0
273.034973 116.0
273.064728 212.0
273.105591 1716.0
273.162476 148.0
273.192078 140.0
273.22168 60.0
273.272766 76.0
273.322021 144.0
273.377594 168.0
273.419098 136.0
273.46286 232.0
273.544647 180.0
273.603699 200.0
273.71347 172.0
273.760437 364.0
273.818512 76.0
273.87384 112.0
273.911469 104.0
273.959106 108.0
273.998657 144.0
274.051025 224.0
274.092377 336.0
274.11203 172.0
274.153961 144.0
274.192627 116.0
274.236664 252.0
274.299774 88.0
274.336823 156.0
274.380127 172.0
274.403931 116.0
274.442078 84.0
274.53595 232.0
274.560913 104.0
274.605194 116.0
274.641479 156.0
274.674988 128.0
274.720642 184.0
274.75769 160.0
274.803619 248.0
274.816803 188.0
274.862518 180.0
274.950592 244.0
274.981232 128.0
275.055267 200.0
275.077179 188.0
275.148468 88.0
275.181976 56.0
275.191101 44.0
275.21698 156.0
275.268555 112.0
275.291656 80.0
275.328735 176.0
275.384125 112.0
275.424927 140.0
275.479919 68.0
275.544586 176.0
275.579041 140.0
275.605469 88.0
275.628601 76.0
275.667145 228.0
275.727753 100.0
275.767059 224.0
275.810211 80.0
275.874023 156.0
275.921478 152.0
275.931976 168.0
275.941803 116.0
276.016724 68.0
276.079712 76.0
276.118927 136.0
276.142548 212.0
276.177399 196.0
276.200562 144.0
276.240631 172.0
276.261749 112.0
276.327911 96.0
276.390869 160.0
276.428162 76.0
276.474091 136.0
276.581085 168.0
276.614899 132.0
276.640686 92.0
276.677094 52.0
276.74411 132.0
276.783051 128.0
276.859192 48.0
276.882385 240.0
276.952545 152.0
276.999359 88.0
277.057434 104.0
277.090454 104.0
277.155609 92.0
277.178894 260.0
277.226929 120.0
277.253235 264.0
277.316406 108.0
277.365753 68.0
277.389343 128.0
277.437653 104.0
277.472321 144.0
277.523438 164.0
277.547272 152.0
277.598206 72.0
277.644653 180.0
277.694397 228.0
277.746765 112.0
277.774017 56.0
277.829834 164.0
277.888672 176.0
277.900726 208.0
277.966431 208.0
277.991364 204.0
277.997711 104.0
278.014008 144.0
278.033325 180.0
278.078186 256.0
278.122406 120.0
278.152283 128.0
278.175537 160.0
278.210541 160.0
278.234924 108.0
278.242401 84.0
278.25708 120.0
278.285004 140.0
278.324921 112.0
278.358154 60.0
278.471069 68.0
278.497223 164.0
278.554108 120.0
278.615448 136.0
278.680328 100.0
278.703613 88.0
278.759247 252.0
278.771179 188.0
278.784485 128.0
278.83078 176.0
278.867859 128.0
278.949554 156.0
279.022675 68.0
279.049286 116.0
279.078796 100.0
279.088104 88.0
279.138611 120.0
279.178955 48.0
279.228851 132.0
279.29538 116.0
279.33197 180.0
279.381866 192.0
279.460266 84.0
279.514954 180.0
279.541565 144.0
279.588165 164.0
279.61676 108.0
279.655823 128.0
279.707245 108.0
279.734619 136.0
279.764557 104.0
279.823364 100.0
279.862732 116.0
279.891083 140.0
279.937714 96.0
280.002747 188.0
280.043243 220.0
280.07608 432.0
280.125488 96.0
280.164215 140.0
280.187531 208.0
280.237488 100.0
280.26712 232.0
280.306183 156.0
280.344147 180.0
280.367462 192.0
280.40744 136.0
280.447449 48.0
280.515686 204.0
280.602936 124.0
280.650818 112.0
280.717499 180.0
280.754181 100.0
280.787537 128.0
280.875702 236.0
280.924286 104.0
280.958832 160.0
280.996063 256.0
281.033691 116.0
281.084442 104.0
281.124725 156.0
281.234619 36.0
281.341431 112.0
281.368164 76.0
281.394867 96.0
281.43158 160.0
281.456635 56.0
281.545135 72.0
281.579224 504.0
281.631958 48.0
281.726501 240.0
281.75061 108.0
281.849121 124.0
281.929321 172.0
281.988586 120.0
282.034119 256.0
282.075195 168.0
282.109802 192.0
282.136261 152.0
282.213776 84.0
282.280884 196.0
282.330505 128.0
282.367279 112.0
282.412445 88.0
282.43158 164.0
282.484192 332.0
282.536407 136.0
282.545532 140.0
282.596466 280.0
282.623688 132.0
282.663116 112.0
282.70517 108.0
282.731323 128.0
282.784332 192.0
282.82901 104.0
282.899506 136.0
282.939484 136.0
283.039948 116.0
283.073334 168.0
283.147095 108.0
283.184662 172.0
283.240875 172.0
283.26767 156.0
283.323578 256.0
283.394989 96.0
283.467285 104.0
283.479736 164.0
283.590973 200.0
283.626221 72.0
283.653961 148.0
283.683228 76.0
283.72345 208.0
283.782379 168.0
283.807251 112.0
283.844757 236.0
283.901825 140.0
283.963867 184.0
284.002411 252.0
284.088226 2184.0
284.141144 164.0
284.209503 144.0
284.253021 156.0
284.294159 104.0
284.347565 196.0
284.410492 132.0
284.451416 112.0
284.505859 312.0
284.534454 136.0
284.659149 32.0
284.705566 104.0
284.745331 52.0
284.80304 160.0
284.839844 244.0
284.870941 160.0
284.878265 112.0
284.888824 128.0
284.921692 284.0
284.972412 152.0
285.022736 256.0
285.090149 3184.0
285.187592 120.0
285.260223 88.0
285.29361 176.0
285.346283 220.0
285.395477 56.0
285.446381 172.0
285.476166 156.0
285.543701 108.0
285.578979 220.0
285.610596 124.0
285.668091 140.0
285.700317 164.0
285.755371 136.0
285.795471 204.0
285.848602 96.0
285.886902 132.0
285.895905 132.0
285.908356 248.0
285.986298 92.0
285.995972 128.0
286.106567 4336.0
286.180725 96.0
286.206879 284.0
286.242981 88.0
286.252136 136.0
286.265259 164.0
286.308167 148.0
286.338745 200.0
286.367188 156.0
286.389709 164.0
286.40976 192.0
286.461243 132.0
286.538422 256.0
286.579254 160.0
286.603119 324.0
286.654907 176.0
286.692444 260.0
286.733398 136.0
286.763519 212.0
286.808502 44.0
286.818542 136.0
286.858551 140.0
286.889679 180.0
286.925751 300.0
286.965149 332.0
286.997986 176.0
287.019745 104.0
287.112305 3376.0
287.164368 344.0
287.217834 260.0
287.244751 304.0
287.290222 188.0
287.35083 232.0
287.374268 164.0
287.402466 52.0
287.427185 188.0
287.450409 148.0
287.458923 172.0
287.472473 184.0
287.523865 228.0
287.585541 172.0
287.593231 204.0
287.626099 324.0
287.669312 436.0
287.716309 176.0
287.748779 568.0
287.774994 376.0
287.821045 260.0
287.848633 340.0
287.902527 700.0
287.933868 592.0
288.013489 812.0
288.125519 372776.0
288.21817 372.0
288.232208 156.0
288.24231 180.0
288.260986 300.0
288.285645 524.0
288.364441 280.0
288.397552 276.0
288.431976 436.0
288.443268 376.0
288.485016 188.0
288.527924 268.0
288.578857 92.0
288.621796 424.0
288.682526 3184.0
288.722656 192.0
288.749756 348.0
288.792664 360.0
288.818604 264.0
288.857819 292.0
288.910278 192.0
288.938263 176.0
288.979523 212.0
289.013123 244.0
289.037201 268.0
289.127228 84532.0
289.21994 92.0
289.257355 184.0
289.287415 112.0
289.342041 220.0
289.398987 132.0
289.434937 276.0
289.463257 80.0
289.473755 84.0
289.499023 208.0
289.534088 232.0
289.557312 264.0
289.593719 192.0
289.606995 124.0
289.616211 264.0
289.643066 104.0
289.678497 120.0
289.710724 92.0
289.735474 192.0
289.788452 176.0
289.795074 88.0
289.813843 148.0
289.840424 320.0
289.88736 140.0
289.910919 124.0
289.9198 96.0
289.949127 196.0
289.979889 76.0
290.049255 300.0
290.080597 100.0
290.128571 8220.0
290.238861 144.0
290.26532 172.0
290.301605 252.0
290.32373 72.0
290.401917 180.0
290.431488 188.0
290.480499 128.0
290.528595 188.0
290.548981 44.0
290.563568 236.0
290.615387 344.0
290.662842 216.0
290.707153 292.0
290.731323 124.0
290.798065 180.0
290.835327 192.0
290.92337 288.0
290.962799 416.0
291.000946 252.0
291.033813 160.0
291.043549 112.0
291.066895 132.0
291.137177 412.0
291.19046 404.0
291.220428 148.0
291.228424 88.0
291.242737 224.0
291.291779 144.0
291.301117 216.0
291.329926 224.0
291.345032 252.0
291.430695 192.0
291.44458 140.0
291.484344 268.0
291.553864 104.0
291.584564 156.0
291.658966 176.0
291.690643 60.0
291.728363 40.0
291.77832 76.0
291.835693 156.0
291.862335 112.0
291.918854 136.0
291.972839 132.0
292.002747 76.0
292.016266 100.0
292.035767 92.0
292.067474 224.0
292.094635 184.0
292.128845 92.0
292.16748 200.0
292.202454 68.0
292.232483 160.0
292.261292 180.0
292.354248 196.0
292.397827 188.0
292.428741 92.0
292.460876 164.0
292.496002 128.0
292.52066 144.0
292.565613 144.0
292.596039 172.0
292.632996 72.0
292.657501 124.0
292.688324 188.0
292.735168 108.0
292.763763 176.0
292.795471 116.0
292.851685 112.0
292.928772 292.0
292.983795 88.0
293.017883 140.0
293.070709 188.0
293.117889 180.0
293.148346 88.0
293.230774 44.0
293.252991 344.0
293.276367 140.0
293.296814 56.0
293.335022 64.0
293.375702 152.0
293.420959 60.0
293.549011 116.0
293.588745 228.0
293.628052 188.0
293.76828 72.0
293.792664 104.0
293.842957 88.0
293.884613 172.0
293.910126 116.0
293.931671 240.0
293.975403 176.0
294.003326 172.0
294.027222 68.0
294.080811 80.0
294.107361 92.0
294.182648 104.0
294.225189 180.0
294.254486 140.0
294.331055 68.0
294.367645 128.0
294.477905 88.0
294.51889 116.0
294.56601 40.0
294.607483 320.0
294.664856 44.0
294.723846 156.0
294.749146 60.0
294.804871 116.0
294.882751 152.0
294.925476 180.0
294.959686 252.0
295.040771 132.0
295.079132 144.0
295.091888 164.0
295.130615 56.0
295.170746 220.0
295.196228 156.0
295.23111 124.0
295.296539 124.0
295.327637 200.0
295.420898 100.0
295.44577 140.0
295.474365 104.0
295.519348 68.0
295.550171 176.0
295.587646 92.0
295.626617 88.0
295.671112 88.0
295.696381 140.0
295.748535 148.0
295.831482 252.0
295.965515 76.0
296.020294 32.0
296.092072 260.0
296.201813 108.0
296.24292 80.0
296.287109 112.0
296.349121 136.0
296.388184 216.0
296.489624 136.0
296.558167 108.0
296.619873 116.0
296.667877 120.0
296.712433 68.0
296.73645 40.0
296.845184 428.0
296.884644 144.0
296.9422 120.0
297.018463 116.0
297.074158 344.0
297.172028 28.0
297.216644 60.0
297.259277 168.0
297.316162 148.0
297.340179 112.0
297.364197 124.0
297.409821 164.0
297.522095 96.0
297.582001 144.0
297.611084 156.0
297.710938 88.0
297.74823 136.0
297.82843 140.0
297.92804 156.0
297.99295 208.0
298.032623 144.0
298.082672 564.0
298.124237 292.0
298.161011 76.0
298.20224 56.0
298.226318 100.0
298.274414 300.0
298.301941 120.0
298.378967 116.0
298.473114 76.0
298.501129 128.0
298.506958 132.0
298.611389 112.0
298.766174 192.0
298.807465 252.0
298.862518 200.0
298.886932 124.0
298.974121 84.0
299.014862 176.0
299.079102 2536.0
299.16864 76.0
299.199005 84.0
299.258362 72.0
299.301392 304.0
299.344421 80.0
299.385468 156.0
299.421509 168.0
299.484375 88.0
299.516632 36.0
299.578094 76.0
299.62619 40.0
299.706116 108.0
299.744019 156.0
299.774353 112.0
299.923248 140.0
299.971497 64.0
299.995636 136.0
300.025665 120.0
300.082184 492.0
300.216309 92.0
300.260223 440.0
300.333557 100.0
300.364594 180.0
300.392212 232.0
300.437042 128.0
300.487 100.0
300.540558 128.0
300.595764 308.0
300.682312 56.0
300.782013 124.0
300.831543 116.0
300.853149 84.0
300.877289 64.0
300.9198 128.0
300.970734 212.0
301.017761 128.0
301.04068 68.0
301.065247 152.0
301.093414 160.0
301.144684 56.0
301.182678 92.0
301.264648 88.0
301.361755 108.0
301.416351 76.0
301.426544 48.0
301.44101 104.0
301.483276 68.0
301.527161 108.0
301.558075 168.0
301.604248 100.0
301.672577 140.0
301.756348 120.0
301.818604 104.0
301.849701 120.0
301.887909 92.0
301.928314 160.0
301.952789 388.0
302.036469 88.0
302.080688 168.0
302.206421 132.0
302.285583 200.0
302.313263 176.0
302.392273 192.0
302.440338 196.0
302.5112 108.0
302.552094 100.0
302.579803 92.0
302.621338 76.0
302.732147 52.0
302.756378 92.0
302.827393 84.0
302.856659 192.0
302.888062 200.0
302.933044 180.0
302.968903 244.0
302.991943 216.0
303.072906 256.0
303.133514 88.0
303.185974 88.0
303.230042 252.0
303.28302 144.0
303.324615 148.0
303.420288 80.0
303.492218 116.0
303.549988 132.0
303.598877 152.0
303.653473 288.0
303.761963 168.0
303.823975 64.0
303.858673 88.0
303.903778 100.0
303.997467 148.0
304.095978 276.0
304.12149 148.0
304.128326 148.0
304.165558 56.0
304.184448 176.0
304.213318 196.0
304.281586 108.0
304.321899 232.0
304.380157 200.0
304.414307 140.0
304.491547 76.0
304.521698 72.0
304.548737 128.0
304.558807 100.0
304.572052 196.0
304.618958 64.0
304.646759 128.0
304.688293 96.0
304.712769 172.0
304.775299 112.0
304.822876 104.0
304.862183 220.0
304.895782 156.0
304.959503 80.0
304.993652 168.0
305.039459 64.0
305.065857 160.0
305.122894 72.0
305.164612 36.0
305.199371 144.0
305.227203 112.0
305.284363 164.0
305.351501 144.0
305.389038 148.0
305.434265 124.0
305.491516 56.0
305.565002 128.0
305.633636 128.0
305.656067 152.0
305.719666 112.0
305.75946 68.0
305.799927 76.0
305.858521 136.0
305.93924 84.0
305.967926 136.0
306.017059 220.0
306.051849 60.0
306.097137 96.0
306.122498 56.0
306.1633 180.0
306.208984 308.0
306.278229 196.0
306.302124 156.0
306.3479 116.0
306.455902 84.0
306.498505 244.0
306.525604 100.0
306.599182 136.0
306.661499 64.0
306.695099 100.0
306.73291 108.0
306.807922 112.0
306.832336 96.0
306.895081 144.0
306.93692 116.0
306.986206 60.0
307.01828 136.0
307.087799 180.0
307.156647 92.0
307.215942 64.0
307.247345 76.0
307.271759 148.0
307.369476 92.0
307.398926 124.0
307.469238 204.0
307.483917 120.0
307.498657 180.0
307.557434 84.0
307.637787 168.0
307.697571 140.0
307.760406 92.0
307.819763 96.0
307.861664 96.0
307.916138 324.0
307.964325 124.0
308.008362 84.0
308.081726 168.0
308.12265 132.0
308.172485 208.0
308.295532 84.0
308.349457 168.0
308.384064 100.0
308.44516 164.0
308.483612 152.0
308.511383 140.0
308.54303 96.0
308.567505 32.0
308.598999 164.0
308.633942 116.0
308.716705 132.0
308.761871 104.0
308.831238 120.0
308.861755 172.0
308.905609 232.0
308.940399 180.0
309.006653 252.0
309.07309 164.0
309.10257 120.0
309.159698 192.0
309.208405 112.0
309.248627 164.0
309.321075 168.0
309.379181 80.0
309.417206 184.0
309.477203 136.0
309.522736 52.0
309.599762 68.0
309.658691 132.0
309.678986 196.0
309.718872 252.0
309.81897 132.0
309.849182 80.0
309.877991 84.0
309.929047 88.0
310.077942 124.0
310.088684 132.0
310.105621 136.0
310.115967 184.0
310.176605 116.0
310.205933 96.0
310.248383 380.0
310.325134 76.0
310.405792 144.0
310.453339 124.0
310.525024 72.0
310.588165 220.0
310.634918 84.0
310.699097 180.0
310.742523 36.0
310.788116 120.0
310.830231 120.0
310.858307 104.0
310.912231 220.0
310.992859 124.0
311.047821 188.0
311.089966 208.0
311.177734 48.0
311.236328 156.0
311.269012 180.0
311.329712 224.0
311.384918 212.0
311.414459 224.0
311.441803 84.0
311.468567 220.0
311.506805 268.0
311.529663 180.0
311.582428 88.0
311.669098 120.0
311.739929 80.0
311.771423 296.0
311.815002 184.0
311.888275 240.0
311.948486 72.0
312.016693 116.0
312.087219 3916.0
312.164795 132.0
312.177795 72.0
312.200531 104.0
312.244598 156.0
312.323029 168.0
312.359528 276.0
312.408997 128.0
312.462372 240.0
312.484253 136.0
312.52478 392.0
312.579712 316.0
312.613617 240.0
312.672363 140.0
312.70517 492.0
312.77594 200.0
312.803772 188.0
312.838196 380.0
312.924713 324.0
312.962769 424.0
313.001831 296.0
313.038818 140.0
313.094086 13368.0
313.169342 488.0
313.220093 236.0
313.251648 124.0
313.257904 416.0
313.313995 252.0
313.326324 212.0
313.35376 368.0
313.404388 708.0
313.447662 824.0
313.479645 396.0
313.511505 288.0
313.554047 440.0
313.569122 232.0
313.58252 360.0
313.597534 464.0
313.602295 284.0
313.62442 168.0
313.661438 468.0
313.689301 296.0
313.716217 420.0
313.745178 464.0
313.776886 528.0
313.816498 1136.0
313.860229 772.0
313.885712 676.0
313.93985 624.0
314.023254 1144.0
314.030365 1300.0
314.051971 1516.0
314.105316 483596.0
314.195557 200.0
314.240112 284.0
314.341949 488.0
314.434082 1112.0
314.479065 532.0
314.487427 412.0
314.53894 420.0
314.579956 200.0
314.637756 1244.0
314.687988 13152.0
314.785767 316.0
314.795441 532.0
314.858246 296.0
314.934479 336.0
314.966888 496.0
315.042175 804.0
315.106873 197176.0
315.193817 156.0
315.246368 252.0
315.311005 420.0
315.356995 484.0
315.383789 388.0
315.434387 252.0
315.479553 180.0
315.539398 160.0
315.563416 140.0
315.615967 300.0
315.692322 308.0
315.742218 248.0
315.781891 348.0
315.823761 184.0
315.855469 244.0
315.877838 264.0
315.915588 200.0
315.96579 332.0
315.983185 204.0
315.990753 220.0
316.052399 176.0
316.108429 17608.0
316.198395 344.0
316.239319 188.0
316.308807 204.0
316.333435 88.0
316.345459 40.0
316.384644 216.0
316.41626 412.0
316.444946 116.0
316.484833 232.0
316.526276 100.0
316.570923 192.0
316.614227 196.0
316.639801 188.0
316.695068 348.0
316.748291 340.0
316.75415 236.0
316.827698 276.0
316.880798 364.0
316.964905 372.0
317.018829 168.0
317.07196 576.0
317.107697 1540.0
317.213776 488.0
317.265076 384.0
317.290619 520.0
317.297119 272.0
317.340973 264.0
317.384308 516.0
317.420746 384.0
317.472321 176.0
317.483368 172.0
317.508392 276.0
317.543518 100.0
317.573853 60.0
317.623657 196.0
317.675812 88.0
317.729584 164.0
317.758179 56.0
317.800385 100.0
317.830719 140.0
317.85202 252.0
317.929108 76.0
317.952362 212.0
318.011749 100.0
318.047028 84.0
318.091461 256.0
318.123871 152.0
318.131744 108.0
318.145905 184.0
318.191284 196.0
318.212952 64.0
318.227905 140.0
318.242676 136.0
318.273926 288.0
318.312866 180.0
318.356201 268.0
318.408417 84.0
318.43808 96.0
318.501709 124.0
318.525269 88.0
318.56543 144.0
318.602692 120.0
318.637177 44.0
318.686584 92.0
318.697266 60.0
318.772186 64.0
318.801514 64.0
318.848083 100.0
318.896332 60.0
318.983185 112.0
319.01355 124.0
319.032593 212.0
319.152527 68.0
319.187012 64.0
319.25592 112.0
319.324005 80.0
319.365814 140.0
319.390808 56.0
319.526581 52.0
319.589233 88.0
319.666138 104.0
319.728821 76.0
319.814941 40.0
319.879272 60.0
319.918945 80.0
319.992249 88.0
320.026276 36.0
320.050568 96.0
320.103607 72.0
320.150269 84.0
320.216583 60.0
320.269775 64.0
320.294708 124.0
320.330566 32.0
320.412506 60.0
320.468811 104.0
320.50827 148.0
320.562164 40.0
320.6073 96.0
320.678741 72.0
320.733215 112.0
320.820526 72.0
320.950714 148.0
320.986359 32.0
321.021301 120.0
321.139709 60.0
321.218109 196.0
321.246735 76.0
321.385864 56.0
321.464386 56.0
321.503632 88.0
321.541016 84.0
321.653534 144.0
321.699951 56.0
321.749908 40.0
321.799896 112.0
321.892731 28.0
321.92984 72.0
321.996307 56.0
322.028442 44.0
322.110596 84.0
322.171112 60.0
322.249939 36.0
322.357147 56.0
322.437408 80.0
322.464355 68.0
322.503326 88.0
322.539398 68.0
322.618042 104.0
322.650238 76.0
322.803986 92.0
322.893372 84.0
322.99353 76.0
323.111603 68.0
323.186737 56.0
323.220245 108.0
323.437256 32.0
323.572052 100.0
323.606232 100.0
323.712921 104.0
323.84903 96.0
323.934998 92.0
324.13205 32.0
324.18222 40.0
324.22879 40.0
324.332733 52.0
324.429535 72.0
324.460175 80.0
324.487762 132.0
324.526337 84.0
324.608795 136.0
324.676941 68.0
324.712799 28.0
324.763763 76.0
324.797546 68.0
324.877808 28.0
325.019409 60.0
325.060791 28.0
325.118225 92.0
325.279724 88.0
325.42691 84.0
325.495148 40.0
325.549744 136.0
325.667542 56.0
325.723083 60.0
325.768097 44.0
325.799408 120.0
325.891754 68.0
325.931915 88.0
325.988617 76.0
326.069946 44.0
326.12384 36.0
326.174164 44.0
326.257568 100.0
326.310791 40.0
326.34314 32.0
326.368317 80.0
326.449036 72.0
326.462799 100.0
326.536438 64.0
326.594879 64.0
326.684814 112.0
326.861115 136.0
326.987061 40.0
327.077057 108.0
327.105835 64.0
327.185059 112.0
327.237183 104.0
327.271454 40.0
327.307465 88.0
327.350677 64.0
327.408295 132.0
327.433502 60.0
327.462311 64.0
327.577576 104.0
327.613617 96.0
327.6716 80.0
327.725281 28.0
327.757721 76.0
327.81073 68.0
327.862244 28.0
327.934326 76.0
328.008484 76.0
328.060303 80.0
328.092926 36.0
328.139801 48.0
328.210175 84.0
328.277405 48.0
328.321442 148.0
328.372498 108.0
328.428284 108.0
328.457153 60.0
328.504272 60.0
328.588562 96.0
328.690979 84.0
328.719635 112.0
328.802979 108.0
328.868744 164.0
328.895569 104.0
328.933472 164.0
328.969574 112.0
329.006256 72.0
329.038147 44.0
329.092621 100.0
329.121216 96.0
329.153687 60.0
329.182587 56.0
329.206879 84.0
329.28009 80.0
329.363159 80.0
329.407013 144.0
329.486511 56.0
329.544281 92.0
329.576324 36.0
329.630524 104.0
329.718292 84.0
329.761017 36.0
329.822083 40.0
329.941376 96.0
329.98114 108.0
330.060699 76.0
330.085999 68.0
330.114929 44.0
330.265198 48.0
330.31543 92.0
330.407898 136.0
330.523682 76.0
330.55661 80.0
330.591431 100.0
330.661224 56.0
330.695801 108.0
330.758942 52.0
330.814087 68.0
330.907379 80.0
330.96167 108.0
331.092041 44.0
331.131622 80.0
331.215179 128.0
331.260406 108.0
331.34198 60.0
331.373077 96.0
331.530396 48.0
331.588379 92.0
331.622375 136.0
331.686249 32.0
331.722504 76.0
331.747894 60.0
331.802246 124.0
331.897675 96.0
331.936432 40.0
331.965729 112.0
332.000977 100.0
332.027069 100.0
332.100952 88.0
332.168549 76.0
332.212067 40.0
332.248352 60.0
332.296295 96.0
332.354706 76.0
332.452881 152.0
332.505981 32.0
332.607605 108.0
332.69696 56.0
332.839966 40.0
333.028809 52.0
333.061493 68.0
333.130524 156.0
333.16684 76.0
333.199554 68.0
333.247864 40.0
333.453918 64.0
333.519348 104.0
333.562958 48.0
333.632019 60.0
333.693848 48.0
333.719299 92.0
333.944763 56.0
334.128845 116.0
334.246704 72.0
334.462585 104.0
334.620758 84.0
334.707581 80.0
335.022217 88.0
335.073242 76.0
335.146118 36.0
335.244507 104.0
335.310089 120.0
335.509796 92.0
335.572571 128.0
335.619965 100.0
335.685608 64.0
335.725708 172.0
335.820526 76.0
335.939789 88.0
335.965576 100.0
336.141571 124.0
336.287567 48.0
336.335022 76.0
336.437225 44.0
336.477386 56.0
336.554047 84.0
336.59787 68.0
336.672638 80.0
336.703766 76.0
336.733002 80.0
336.82431 40.0
336.875458 100.0
336.937561 92.0
337.157623 144.0
337.317627 48.0
337.419983 48.0
337.566254 108.0
337.953979 80.0
338.30899 44.0
338.557983 60.0
338.598267 156.0
339.246826 104.0
339.327484 48.0
339.62085 96.0
340.288757 80.0
340.766235 100.0
341.240356 68.0
341.280792 128.0
341.644928 56.0
341.858337 132.0
341.882416 92.0
341.928253 80.0
342.230103 84.0
342.318481 80.0
342.830536 116.0
343.612274 64.0
343.759857 96.0
344.121613 84.0
345.093689 84.0
345.452087 88.0
345.514954 76.0
346.329376 44.0
346.5961 100.0
347.007538 72.0
347.389526 76.0
347.465118 80.0
347.96106 68.0
348.083588 80.0
348.13559 56.0
348.380707 44.0
348.904724 64.0
349.421692 52.0
349.56308 120.0
349.723114 64.0
349.786407 64.0
349.857117 108.0
350.047028 160.0
350.169922 72.0
350.248138 108.0
350.786102 108.0
351.150146 116.0
351.485901 56.0
351.53067 96.0
351.907684 60.0
352.699677 88.0
352.738495 104.0
353.084778 64.0
353.28302 68.0
353.451385 64.0
353.642273 32.0
353.720032 88.0
354.110291 72.0
354.35379 52.0
354.706055 76.0
354.859772 60.0
354.990997 80.0
356.192017 72.0
356.259644 84.0
356.470062 140.0
356.943695 72.0
357.015167 32.0
357.41391 76.0
358.434357 96.0
358.532349 44.0
358.777344 68.0
358.920624 60.0
359.063934 104.0
359.139343 124.0
359.644958 72.0
360.109955 108.0
360.347382 120.0
360.982391 72.0
361.031555 44.0
361.14502 124.0
361.662567 92.0
362.079895 92.0
362.288208 100.0
362.720215 68.0
363.0177 52.0
363.131683 128.0
363.888672 72.0
364.158295 80.0
364.428009 56.0
364.52301 92.0
364.832489 72.0
365.557373 124.0
365.804779 84.0
366.043518 68.0
366.722778 88.0
367.870941 40.0
368.417023 112.0
368.47052 104.0
368.703613 100.0
368.833557 92.0
368.944427 60.0
369.017059 72.0
369.059113 148.0
369.640533 44.0
369.881653 40.0
370.08075 60.0
370.237732 48.0
370.655304 32.0
370.689789 152.0
371.249481 88.0
371.98999 96.0
372.016876 96.0
372.13205 40.0
372.773529 100.0
372.850372 100.0
372.958008 64.0
373.096405 144.0
373.238647 40.0
374.123566 108.0
374.385406 36.0
375.167603 80.0
375.503082 80.0
375.703644 76.0
375.923584 64.0
376.888947 68.0
377.016479 104.0
377.062866 48.0
377.12085 68.0
377.147888 92.0
377.252258 48.0
377.43399 76.0
378.633636 84.0
378.92804 92.0
379.144073 108.0
379.187653 132.0
379.43576 40.0
379.513306 60.0
379.585968 184.0
379.994232 108.0
380.813324 96.0
381.598328 60.0
382.115601 80.0
382.785095 72.0
382.933075 56.0
383.147339 100.0
383.330475 72.0
383.427887 36.0
383.579895 120.0
384.055634 64.0
384.192169 28.0
384.289703 80.0
384.324799 100.0
384.378845 104.0
384.457489 64.0
384.761932 140.0
384.855652 48.0
385.347778 88.0
385.488464 100.0
386.024017 108.0
386.082672 100.0
386.153076 92.0
386.931793 116.0
387.47226 144.0
387.667389 40.0
387.938629 68.0
388.013123 80.0
388.095459 44.0
388.12912 120.0
388.244476 72.0
388.338593 84.0
388.428802 100.0
388.793701 48.0
388.872192 60.0
389.148071 1212.0
389.225525 48.0
389.315857 60.0
389.394409 56.0
389.429749 152.0
389.861908 60.0
390.058441 92.0
390.146912 268.0
390.361176 28.0
390.483093 80.0
390.53421 100.0
391.033905 84.0
391.144043 128.0
391.187439 148.0
391.384277 60.0
392.783386 40.0
392.901733 188.0
392.941162 100.0
393.602692 120.0
393.74646 112.0
393.845184 140.0
393.896545 60.0
394.726532 40.0
394.773987 76.0
395.126007 72.0
396.06424 48.0
396.539703 48.0
397.039764 80.0
397.213776 40.0
397.483551 44.0
397.523254 96.0
397.727325 160.0
398.265656 124.0
399.207611 144.0
399.840149 76.0
400.218323 68.0
400.560852 60.0
400.600677 104.0
401.10675 104.0
401.146637 60.0
401.752777 44.0
401.83078 80.0
401.888428 52.0
401.984192 60.0
402.147827 64.0
402.287537 48.0
402.463226 84.0
403.665985 52.0
404.178009 56.0
404.246033 64.0
404.314056 52.0
404.382111 68.0
405.030762 208.0
405.142914 160.0
405.203003 68.0
405.443451 40.0
405.495544 68.0
405.808228 80.0
406.036804 104.0
406.174042 92.0
406.538269 56.0
406.662689 44.0
407.068176 100.0
407.160339 6292.0
407.244904 40.0
407.32782 124.0
407.670746 64.0
407.917633 60.0
408.16275 1540.0
408.378357 44.0
408.623749 76.0
409.030212 56.0
409.158478 512.0
409.259674 64.0
409.87085 88.0
410.137939 76.0
410.170166 128.0
410.307251 60.0
410.355621 52.0
410.492706 48.0
410.637909 56.0
410.684662 156.0
410.831512 36.0
411.278778 72.0
411.364227 36.0
411.444946 60.0
411.723572 36.0
411.929565 144.0
412.018433 60.0
412.56665 68.0
412.774292 88.0
412.879425 96.0
412.907745 64.0
413.372986 52.0
413.56723 64.0
413.660339 64.0
413.846558 176.0
414.279938 44.0
415.049988 128.0
415.301453 100.0
415.451538 48.0
415.841064 128.0
416.222687 140.0
416.381073 40.0
416.490723 60.0
416.661346 36.0
416.848267 56.0
417.055542 92.0
417.584106 28.0
417.742737 64.0
418.259552 60.0
418.418304 56.0
418.467163 60.0
418.65448 32.0
419.157196 92.0
419.347076 100.0
419.750671 40.0
419.795532 48.0
420.391144 40.0
420.83609 100.0
421.203644 48.0
421.469177 64.0
421.726654 68.0
422.290894 48.0
422.941467 56.0
423.395935 104.0
423.621216 52.0
423.662201 116.0
423.961304 40.0
424.067871 68.0
424.186737 120.0
424.465546 116.0
425.388672 100.0
425.442047 40.0
425.561096 68.0
425.980011 56.0
426.851349 44.0
426.884247 48.0
426.970612 56.0
427.270874 76.0
427.468384 100.0
427.98703 80.0
428.353577 60.0
428.57605 44.0
429.313934 124.0
429.616486 92.0
430.28363 72.0
431.188263 60.0
431.374268 28.0
431.618195 100.0
431.73288 104.0
432.164185 80.0
432.627747 84.0
433.000397 48.0
433.056793 108.0
433.551422 92.0
434.144257 84.0
434.289398 64.0
434.893707 56.0
435.455719 116.0
435.584503 104.0
435.704956 80.0
435.73819 92.0
436.083099 64.0
436.735901 84.0
436.977173 40.0
437.322601 144.0
437.45578 72.0
437.834686 52.0
437.976318 80.0
438.038788 64.0
439.614838 72.0
439.957092 44.0
440.190918 96.0
440.236847 48.0
440.349609 76.0
440.930359 120.0
441.946533 56.0
442.092987 48.0
442.235291 76.0
442.683258 88.0
443.022522 124.0
443.241638 68.0
443.965637 108.0
444.389282 80.0
444.506775 76.0
445.539673 56.0
446.064972 32.0
446.366241 152.0
446.969238 80.0
447.234375 92.0
447.278046 84.0
447.428009 68.0
448.666626 120.0
448.797333 60.0
449.185333 48.0
449.843628 80.0
449.949188 88.0
450.44751 116.0
451.013733 60.0
451.512634 84.0
451.796051 100.0
452.113403 56.0
452.147247 76.0
452.185333 56.0
452.354645 64.0
453.095764 72.0
453.396606 36.0
453.765411 128.0
453.799316 76.0
453.922302 124.0
454.707123 80.0
455.671082 80.0
455.713562 72.0
455.883514 104.0
455.924683 64.0
456.002533 100.0
456.597748 92.0
456.7211 64.0
456.776398 88.0
458.102631 88.0
458.172729 80.0
458.202545 56.0
458.428375 76.0
458.479523 36.0
458.8461 40.0
459.869904 84.0
459.972351 112.0
460.565887 44.0
460.60434 100.0
461.087158 84.0
461.476135 68.0
461.711334 96.0
463.183716 48.0
463.307953 80.0
463.530762 80.0
463.637878 60.0
463.706451 84.0
465.173431 64.0
465.375214 80.0
465.499725 96.0
466.251526 84.0
466.917908 116.0
467.283539 108.0
467.399719 120.0
467.533142 112.0
467.636414 64.0
467.998047 88.0
468.109985 76.0
468.141785 64.0
468.463165 76.0
468.54071 64.0
468.678589 88.0
468.807861 104.0
469.289795 100.0
469.338074 56.0
469.778015 64.0
469.932068 68.0
470.308777 76.0
470.399414 88.0
470.559143 92.0
471.24588 56.0
471.353912 76.0
471.414429 72.0
471.682373 56.0
471.920166 48.0
472.257477 44.0
472.555969 108.0
472.664154 128.0
472.806946 72.0
472.971436 84.0
473.006042 28.0
473.135925 64.0
473.335083 36.0
473.677246 68.0
473.820221 68.0
474.539673 76.0
474.999359 52.0
475.099152 56.0
475.593842 56.0
475.645935 60.0
475.684998 72.0
476.071442 72.0
476.240814 116.0
476.458008 44.0
477.192505 40.0
477.431671 64.0
477.579559 104.0
478.471649 88.0
478.889679 92.0
478.998596 96.0
479.076996 72.0
479.92688 44.0
479.974854 104.0
480.319397 48.0
480.698975 100.0
480.987 48.0
481.471649 68.0
482.039581 40.0
482.159485 100.0
482.223999 80.0
482.804626 76.0
483.762848 40.0
483.923828 52.0
483.939514 80.0
484.446014 68.0
484.511719 68.0
485.186646 96.0
485.226105 108.0
485.269958 84.0
485.831329 40.0
486.182343 104.0
486.243805 104.0
486.573029 88.0
487.15274 60.0
487.57016 120.0
487.636078 52.0
487.996552 76.0
488.141663 56.0
488.204315 64.0
488.563904 76.0
488.876312 52.0
489.09198 80.0
489.237244 60.0
489.408936 40.0
489.906616 44.0
490.078461 64.0
490.742371 128.0
491.02182 108.0
491.101227 92.0
491.51593 36.0
491.688019 84.0
492.076477 108.0
492.244263 96.0
492.586273 72.0
492.93338 84.0
492.999664 92.0
493.048279 44.0
493.194153 76.0
493.459381 104.0
493.764496 72.0
494.131653 88.0
494.237854 52.0
494.273254 36.0
494.746826 64.0
495.154205 60.0
495.31366 56.0
495.388977 76.0
495.534912 64.0
495.694702 128.0
495.867523 52.0
496.049255 56.0
496.714417 108.0
496.825348 48.0
497.872864 136.0
498.099396 48.0
498.392609 124.0
498.672577 104.0
499.081573 68.0
499.130493 56.0
499.25946 56.0
499.833313 60.0
500.469849 48.0
500.56781 68.0
500.652405 92.0
501.276093 76.0
501.868958 60.0
501.935822 56.0
502.23465 64.0
502.752197 52.0
503.247681 60.0
504.060638 44.0
504.373474 104.0
504.820587 112.0
504.851898 64.0
505.446838 88.0
505.733276 44.0
505.903381 40.0
506.503448 36.0
506.575104 84.0
506.825989 80.0
506.866333 84.0
507.283142 108.0
507.327972 80.0
507.449036 40.0
507.525269 84.0
508.130768 108.0
508.292297 40.0
508.471802 108.0
509.226074 56.0
509.32489 80.0
509.765198 44.0
510.201172 52.0
510.55191 56.0
510.628357 120.0
511.042236 60.0
511.397736 56.0
511.523773 76.0
512.163208 92.0
512.415466 36.0
512.662476 112.0
512.83905 60.0
513.488342 116.0
514.025208 48.0
514.377258 72.0
514.937134 84.0
515.551575 48.0
515.601257 68.0
515.763977 144.0
516.311096 52.0
516.754395 108.0
517.05304 52.0
517.306519 152.0
517.650635 40.0
517.908752 88.0
518.475098 76.0
518.570312 52.0
519.30481 56.0
519.400085 104.0
519.631409 60.0
519.840149 48.0
520.121582 48.0
520.257751 44.0
520.343994 132.0
520.725464 32.0
521.756958 104.0
521.852417 72.0
522.216248 108.0
522.366333 80.0
522.598389 32.0
524.082703 64.0
524.269531 108.0
524.479187 88.0
525.226868 56.0
525.518982 72.0
528.049805 68.0
528.278503 52.0
528.392883 92.0
528.516418 72.0
528.566711 80.0
528.908569 88.0
529.244202 100.0
529.445679 56.0
529.610535 52.0
530.508728 108.0
530.600403 44.0
530.72876 48.0
531.673767 56.0
531.871094 56.0
532.72522 88.0
532.913635 108.0
533.244507 60.0
533.860535 60.0
533.906555 128.0
534.214722 96.0
534.499939 36.0
534.610413 48.0
536.194641 108.0
536.540405 48.0
536.697144 44.0
537.070679 92.0
537.624329 32.0
538.030518 84.0
538.178284 84.0
538.727905 40.0
538.96814 88.0
539.069824 56.0
540.454956 84.0
540.572754 44.0
540.7995 60.0
541.007812 60.0
541.118896 92.0
541.429199 124.0
541.998962 104.0
542.239929 116.0
542.318726 76.0
542.522705 92.0
543.204407 100.0
543.255432 68.0
543.413147 28.0
543.608032 72.0
543.824585 92.0
544.039734 68.0
544.518005 80.0
544.889587 48.0
544.931396 60.0
546.028503 60.0
546.29364 84.0
546.354126 64.0
546.670471 88.0
547.419983 60.0
547.606262 44.0
548.32843 48.0
548.454285 64.0
549.419556 56.0
549.769531 48.0
550.441772 64.0
550.549194 76.0
551.792114 116.0
551.95575 80.0
552.128784 76.0
552.301331 72.0
552.479614 68.0
552.821167 40.0
553.677917 120.0
553.827759 84.0
554.005798 112.0
554.355042 72.0
554.957214 108.0
555.121338 40.0
555.154175 36.0
555.660767 36.0
555.712341 104.0
556.256775 84.0
556.453918 108.0
556.524353 84.0
556.787354 76.0
556.942322 72.0
557.273132 68.0
557.609497 48.0
557.73175 52.0
557.938538 104.0
558.018494 52.0
558.088989 100.0
558.869812 64.0
558.996887 44.0
559.312195 76.0
559.44873 40.0
559.481689 68.0
559.811279 88.0
560.013794 36.0
560.362366 80.0
560.74408 132.0
561.168335 56.0
561.323975 132.0
561.658813 56.0
561.814453 40.0
562.891724 84.0
563.022827 60.0
563.098389 56.0
563.636963 108.0
564.128479 56.0
564.535156 128.0
565.027039 40.0
565.102783 96.0
565.670654 132.0
565.746399 92.0
565.784302 32.0
566.272034 92.0
567.262329 84.0
567.802917 48.0
568.239319 36.0
568.381653 84.0
568.419617 76.0
568.471802 64.0
568.642639 92.0
569.098389 44.0
571.046814 108.0
571.146667 56.0
571.189514 52.0
571.555847 64.0
571.789001 52.0
571.927063 72.0
572.212646 88.0
572.488831 48.0
573.212952 84.0
573.794434 48.0
574.061462 44.0
575.03949 48.0
575.187439 60.0
575.454773 92.0
575.674438 44.0
576.663391 52.0
576.926331 52.0
577.442749 88.0
577.643616 52.0
578.031189 96.0
579.290344 124.0
579.707214 128.0
580.632446 56.0
580.742798 72.0
581.316528 68.0
583.57135 112.0
583.720398 64.0
584.297607 64.0
585.000244 48.0
585.30835 60.0
585.751465 80.0
586.088684 32.0
586.141724 80.0
586.941895 120.0
587.860535 64.0
587.906677 72.0
588.539062 68.0
588.732178 44.0
588.920593 88.0
588.973694 116.0
589.23938 60.0
589.654968 36.0
589.70813 64.0
590.225403 56.0
590.399536 44.0
590.521362 84.0
591.047729 100.0
591.217102 64.0
591.313904 76.0
591.449402 60.0
592.451843 44.0
593.450256 72.0
594.10498 112.0
594.163208 76.0
594.595032 36.0
594.795105 76.0
594.905701 112.0
594.983398 116.0
595.294128 68.0
595.816406 84.0
595.998474 72.0
596.085938 68.0
596.654663 72.0
596.703247 68.0
598.226013 68.0
598.625244 60.0
599.560608 72.0
600.106567 64.0
601.39447 32.0
601.477478 124.0
601.540955 32.0
601.843628 68.0
603.020935 80.0
603.084473 48.0
603.705444 88.0
603.901062 80.0
603.940186 64.0
604.786682 80.0
604.918823 48.0
605.726807 56.0
607.030518 68.0
607.869385 76.0
608.031311 100.0
608.28656 76.0
608.787354 52.0
609.121338 76.0
609.327698 84.0
610.251709 84.0
610.453308 44.0
610.502502 60.0
610.679565 128.0
610.959961 144.0
615.449951 56.0
616.986572 44.0
617.199158 56.0
617.463745 52.0
618.599304 88.0
619.366821 76.0
619.584839 96.0
620.719849 72.0
622.461609 76.0
623.489929 68.0
625.280396 108.0
625.618835 92.0
626.131714 40.0
626.370789 40.0
626.465454 56.0
626.754456 88.0
629.123535 44.0
630.297241 48.0
631.392029 112.0
632.132446 48.0
633.925232 64.0
634.947937 52.0
635.670349 68.0
635.846008 96.0
636.825073 56.0
638.594299 64.0
639.021851 60.0
639.922791 80.0
640.245056 36.0
640.285339 56.0
640.920105 76.0
641.247681 48.0
643.386475 36.0
644.255127 64.0
645.109192 96.0
647.132874 48.0
647.958435 56.0
649.149597 96.0
649.230713 64.0
651.174561 80.0
651.713013 44.0
652.053467 48.0
652.109375 48.0
652.434753 56.0
652.790649 28.0
652.907593 68.0
653.614746 84.0
654.948608 80.0
655.386719 48.0
656.273621 56.0
656.890747 100.0
657.161133 76.0
658.146973 56.0
658.662048 68.0
659.668762 92.0
659.878357 72.0
659.949951 92.0
661.05481 52.0
663.728821 116.0
664.294434 112.0
665.119141 28.0
665.483643 100.0
665.545227 36.0
666.284851 64.0
667.107117 84.0
667.179077 48.0
667.909302 60.0
668.964233 56.0
669.345215 64.0
669.891174 68.0
671.014648 112.0
671.41687 44.0
671.556152 36.0
672.139099 88.0
673.109558 72.0
673.589844 80.0
674.38562 40.0
674.489014 52.0
675.931946 32.0
676.294189 52.0
676.485718 56.0
677.226196 48.0
677.811646 60.0
678.210693 52.0
678.89856 72.0
678.998779 68.0
680.197388 72.0
681.422974 112.0
683.076233 76.0
683.440369 96.0
684.663696 48.0
685.466003 56.0
685.737 32.0
686.008057 80.0
686.153992 36.0
686.498169 80.0
686.691101 32.0
686.800659 152.0
686.957153 64.0
687.531067 84.0
687.69812 64.0
688.068726 132.0
688.183594 44.0
689.04541 104.0
689.139465 72.0
689.923401 120.0
690.033203 92.0
690.357422 32.0
691.147278 72.0
692.25177 40.0
692.335571 56.0
692.550293 72.0
692.723206 64.0
692.916992 128.0
696.783752 108.0
697.088501 112.0
698.387085 32.0
698.818481 72.0
700.877197 68.0
700.935181 80.0
701.203979 84.0
702.47998 80.0
702.749084 68.0
702.875732 132.0
703.229309 80.0
704.248352 56.0
705.151855 84.0
705.648743 120.0
706.606018 72.0
707.071716 96.0
707.648682 120.0
708.872314 140.0
709.487122 60.0
710.123474 52.0
710.510681 56.0
711.038818 76.0
713.330627 92.0
713.612427 72.0
714.085693 72.0
714.521912 108.0
714.771973 84.0
715.644897 92.0
715.735413 52.0
716.113525 64.0
717.024658 56.0
717.061951 92.0
717.344421 52.0
717.888306 92.0
718.073303 64.0
720.872437 92.0
721.091553 72.0
721.209167 76.0
722.792175 128.0
722.851013 72.0
722.974121 60.0
723.396973 84.0
723.498657 44.0
724.768066 44.0
725.979553 112.0
726.054626 44.0
726.188721 68.0
726.387146 60.0
727.782532 112.0
727.911438 52.0
728.786987 44.0
729.061035 76.0
729.512512 204.0
729.974915 36.0
732.51532 36.0
733.382874 44.0
733.544617 84.0
734.77417 108.0
735.929199 36.0
736.301819 36.0
736.723145 100.0
736.831177 88.0
737.690491 64.0
738.485352 68.0
738.707092 48.0
739.637878 60.0
740.195496 40.0
740.482544 68.0
742.58197 136.0
742.824158 100.0
743.372131 44.0
745.180298 104.0
746.435913 48.0
747.463989 56.0
748.329468 80.0
748.618103 44.0
748.812683 88.0
748.863159 68.0
749.124634 44.0
749.604065 64.0
749.734863 80.0
751.599854 72.0
752.134705 68.0
752.385803 48.0
752.882751 36.0
753.221375 52.0
753.407104 68.0
754.686035 124.0
754.833679 56.0
755.063354 56.0
757.362122 72.0
757.499084 40.0
759.988098 76.0
761.937256 32.0
763.448853 84.0
763.597351 104.0
763.905396 56.0
764.015381 132.0
764.779114 56.0
765.077576 48.0
765.738342 64.0
766.333252 68.0
767.292297 36.0
767.661743 80.0
767.976074 88.0
769.742126 120.0
771.604187 52.0
772.876343 32.0
773.042358 48.0
773.767456 112.0
774.060913 64.0
777.104004 52.0
777.165039 84.0
778.125244 36.0
778.997192 68.0
779.647278 88.0
780.759155 64.0
782.30603 60.0
782.751404 28.0
782.990906 40.0
785.114258 84.0
786.380737 108.0
787.581177 80.0
787.670593 84.0
787.815796 108.0
788.145447 68.0
788.575745 76.0
788.922363 120.0
789.962524 116.0
790.930603 44.0
791.910461 72.0
791.988892 56.0
792.268982 40.0
793.490723 104.0
793.574829 44.0
796.903198 52.0
798.899109 120.0
799.720642 88.0
801.917297 40.0
803.078796 76.0
805.093689 120.0
805.895813 108.0
806.274414 48.0
806.658752 40.0
807.750183 128.0
807.835022 36.0
808.095276 112.0
808.514038 52.0
808.649841 52.0
809.108337 76.0
810.082458 44.0
810.241089 44.0
811.125122 68.0
812.378357 64.0
812.71875 40.0
814.416199 56.0
816.741028 72.0
817.065247 48.0
818.693237 96.0
819.786987 56.0
819.96936 32.0
820.642029 48.0
821.247314 128.0
821.463318 36.0
822.182251 112.0
822.410522 116.0
822.541809 36.0
823.375427 44.0
824.609558 148.0
825.083984 128.0
826.119141 132.0
827.956482 88.0
828.661072 52.0
831.017578 96.0
831.195435 48.0
831.889893 56.0
832.6651 60.0
832.975281 188.0
835.516235 80.0
835.688843 168.0
836.212524 136.0
836.379395 68.0
837.340942 84.0
838.579712 144.0
840.159729 76.0
840.66748 40.0
844.02948 76.0
844.63092 180.0
844.729309 72.0
846.482971 56.0
846.627747 72.0
847.954468 48.0
848.824097 40.0
849.212646 96.0
849.537476 72.0
849.824341 100.0
850.222168 100.0
850.930359 72.0
851.000061 60.0
852.818359 80.0
854.737549 52.0
855.051758 128.0
856.216187 72.0
856.274414 48.0
857.480469 48.0
857.57373 56.0
858.430725 100.0
860.239441 68.0
861.424927 44.0
864.044006 60.0
865.624329 152.0
865.852722 32.0
866.942444 68.0
867.253052 36.0
869.153198 80.0
870.274292 84.0
870.403503 56.0
874.295105 52.0
874.56427 148.0
874.730713 56.0
874.84845 60.0
875.331238 36.0
875.407776 36.0
877.104614 32.0
879.363708 92.0
879.906799 112.0
880.869385 80.0
881.791199 68.0
883.665771 56.0
884.74292 80.0
885.30542 48.0
885.95697 52.0
886.507996 64.0
888.328247 124.0
889.028381 52.0
890.049438 92.0
890.150391 32.0
890.821533 84.0
893.52655 76.0
894.002563 92.0
894.413208 80.0
895.68158 96.0
897.67218 152.0
898.047913 164.0
899.044312 108.0
900.922546 92.0
901.014771 64.0
903.130981 84.0
904.082275 52.0
904.26178 148.0
905.932434 68.0
906.315857 84.0
907.083008 44.0
907.22998 72.0
908.060364 48.0
910.653259 28.0
910.779358 52.0
910.971619 48.0
913.075378 84.0
916.115112 72.0
918.339417 84.0
918.417847 60.0
919.069397 36.0
919.419373 104.0
920.67511 92.0
922.439453 40.0
922.608704 48.0
924.314331 52.0
925.083008 72.0
925.228271 80.0
925.379639 84.0
925.549194 92.0
925.62793 208.0
925.688477 84.0
925.839844 40.0
927.700012 160.0
928.01532 68.0
928.743042 96.0
928.882568 48.0
929.064575 52.0
929.210144 160.0
933.729614 184.0
934.082397 36.0
934.210144 104.0
934.995056 92.0
936.675598 56.0
937.126404 88.0
937.370117 64.0
938.052734 100.0
938.308838 84.0
939.632263 108.0
940.187561 48.0
942.978638 56.0
944.94165 52.0
945.743286 68.0
945.798401 112.0
946.784119 76.0
947.385803 52.0
947.954224 80.0
949.462341 72.0
952.451416 136.0
953.618896 92.0
954.448792 48.0
954.522583 72.0
955.857483 128.0
956.423645 84.0
956.922302 176.0
959.201782 48.0
959.94165 116.0
960.145142 48.0
961.119812 60.0
962.619812 120.0
967.052612 48.0
967.502258 88.0
969.821289 68.0
969.864685 56.0
972.022949 64.0
972.432556 148.0
973.003662 68.0
973.599731 96.0
974.531555 44.0
974.78009 80.0
977.22998 104.0
977.522461 68.0
978.487244 80.0
979.334167 116.0
980.330994 60.0
981.970642 64.0
983.642883 64.0
984.123596 64.0
986.610229 52.0
987.154236 144.0
987.835999 112.0
988.162354 72.0
988.855896 80.0
989.563293 260.0
991.329712 52.0
991.605469 220.0
992.67749 164.0
994.44043 232.0
996.682434 48.0
996.864624 68.0
997.335999 120.0
997.914368 240.0
998.562073 44.0
1001.545532 96.0
1001.986511 140.0
1002.893982 48.0
1003.20282 52.0
1004.19281 96.0
1004.665955 108.0
1006.111145 88.0
1006.275269 52.0
1010.97821 56.0
1011.212402 92.0
1011.452881 188.0
1012.789001 60.0
1013.099365 64.0
1013.194397 48.0
1013.897766 40.0
1014.309753 32.0
1014.918396 72.0
1015.026184 88.0
1018.103943 72.0
1018.770874 72.0
1019.480042 172.0
1020.429688 140.0
1021.319946 116.0
1021.841614 180.0
1023.401001 56.0
1024.203491 92.0
1025.133667 72.0
1025.864136 144.0
1026.497803 56.0
1028.335205 48.0
1029.273682 76.0
1030.238037 80.0
1032.488037 100.0
1033.32605 92.0
1033.484985 124.0
1033.927612 116.0
1035.079834 104.0
1035.70752 60.0
1035.98938 172.0
1036.886475 76.0
1037.392822 56.0
1037.745483 44.0
1039.413208 112.0
1039.939453 236.0
1040.889526 132.0
1043.125366 88.0
1043.710449 64.0
1044.276367 36.0
1045.550293 72.0
1046.013672 136.0
1046.741211 64.0
1048.512817 36.0
1048.7771 72.0
1049.415283 136.0
1049.821533 204.0
1050.453735 48.0
1051.847534 60.0
1051.992798 52.0
1054.088623 132.0
1055.316772 148.0
1055.433228 140.0
1055.504272 200.0
1055.607788 140.0
1058.824219 72.0
1059.471924 136.0
1061.066162 140.0
1061.241333 116.0
1061.494141 120.0
1062.00647 60.0
1062.395752 60.0
1063.953247 136.0
1065.317139 220.0
1066.421753 60.0
1067.045776 92.0
1067.494507 60.0
1067.702515 44.0
1068.554688 148.0
1068.880005 88.0
1073.029175 112.0
1074.046509 32.0
1076.585449 104.0
1077.232056 184.0
1078.055298 140.0
1078.349365 52.0
1079.120728 76.0
1079.199219 52.0
1079.28418 48.0
1080.239136 132.0
1080.487671 140.0
1081.20752 116.0
1081.65918 76.0
1081.875122 140.0
1083.224121 28.0
1083.584473 112.0
1084.344604 212.0
1084.475708 40.0
1085.839478 56.0
1086.58728 112.0
1086.928467 212.0
1087.768555 160.0
1087.853882 44.0
1088.142822 196.0
1089.55481 136.0
1090.271118 112.0
1091.572754 68.0
1092.69751 52.0
1093.915039 68.0
1093.970215 172.0
1094.448242 96.0
1095.36377 108.0
1097.459473 188.0
1098.112427 156.0
1099.101929 148.0
1099.748657 52.0
1099.940063 108.0
1101.326782 108.0
1101.683472 48.0
1103.229858 160.0
1103.296021 48.0
1103.401733 124.0
1104.15564 124.0
1104.929565 96.0
1105.233887 112.0
1105.895752 60.0
1106.53125 104.0
1106.597412 164.0
1107.213257 168.0
1107.411987 68.0
1107.637207 120.0
1108.034668 100.0
1109.797729 68.0
1110.686401 168.0
1110.799194 140.0
1111.442627 36.0
1111.515625 40.0
1111.818237 140.0
1112.006714 96.0
1112.836548 208.0
1115.35437 128.0
1116.225342 128.0
1117.342773 172.0
1117.688843 52.0
1118.42749 176.0
1119.292969 132.0
1119.459473 76.0
1119.965698 64.0
1120.525269 92.0
1121.724854 96.0
1123.732178 116.0
1123.805664 44.0
1124.032471 64.0
1124.085938 104.0
1126.429321 136.0
1126.683228 92.0
1126.93042 156.0
1127.09082 28.0
1128.08667 64.0
1129.424072 72.0
1129.584595 80.0
1129.778564 100.0
1131.840088 124.0
1133.025513 48.0
1133.849731 104.0
1134.741333 96.0
1134.908936 188.0
1135.009521 80.0
1135.950317 176.0
1136.310791 32.0
1137.746948 124.0
1137.840942 72.0
1141.4021 48.0
1141.516479 60.0
1143.305908 100.0
1143.581787 84.0
1144.874512 40.0
1145.083252 84.0
1145.170898 100.0
1146.34314 32.0
1146.585693 96.0
1146.754272 184.0
1147.064331 80.0
1147.542969 100.0
1148.787109 136.0
1149.998535 52.0
1150.754517 112.0
1152.247192 44.0
1152.659424 108.0
1155.533081 68.0
1155.587158 68.0
1155.756348 76.0
1156.054077 88.0
1156.290894 148.0
1156.521118 120.0
1157.823608 108.0
1158.657959 132.0
1158.803223 60.0
1159.135254 140.0
1159.901123 44.0
1161.331909 120.0
1161.413208 224.0
1161.474365 56.0
1162.220581 92.0
1163.123169 108.0
1163.842896 96.0
1164.345337 112.0
1164.87854 96.0
1165.119751 80.0
1165.541016 196.0
1166.220581 120.0
1166.812012 68.0
1166.893555 192.0
1167.988525 108.0
1168.709595 116.0
1168.784546 100.0
1168.981812 196.0
1169.505859 160.0
1169.716919 156.0
1170.069336 156.0
1170.17981 104.0
1170.595215 128.0
1170.976562 104.0
1171.385254 52.0
1171.562378 96.0
1173.293457 84.0
1173.80481 92.0
1173.859375 152.0
1173.982056 64.0
1175.14856 156.0
1175.401001 172.0
1175.844604 56.0
1176.656982 92.0
1177.151001 124.0
1178.0979 160.0
1179.813354 72.0
1180.216675 68.0
1181.290405 76.0
1182.077271 52.0
1182.344116 84.0
1182.768555 128.0
1183.446289 92.0
1184.514648 144.0
1185.083252 144.0
1185.165527 68.0
1185.590454 132.0
1185.645264 80.0
1185.92627 52.0
1186.282715 228.0
1186.4198 36.0
1187.674683 172.0
1188.409912 96.0
1188.820435 112.0
1189.616699 188.0
1190.049194 56.0
1190.110962 124.0
1191.752563 116.0
1193.044678 184.0
1193.147827 84.0
1193.780396 92.0
1194.808105 120.0
1195.21814 96.0
1195.961426 112.0
1196.188599 72.0
1196.425049 148.0
1196.828857 92.0
1197.792969 88.0
1198.047974 60.0
1198.633545 36.0
1200.2052 128.0
1200.722412 68.0
1200.977661 100.0
1201.681274 212.0
1203.227295 148.0
1204.712158 68.0
1204.938232 104.0
1205.41687 64.0
1205.914429 32.0
1206.114868 148.0
1206.294678 100.0
1207.670654 60.0
1208.431641 156.0
1208.978271 156.0
1209.033691 156.0
1209.206665 160.0
1209.490479 96.0
1209.545898 124.0
1210.210449 124.0
1211.187012 156.0
1212.163818 156.0
1212.430176 244.0
1212.510376 56.0
1213.342163 212.0
1214.146484 172.0
1214.444702 52.0
1214.51416 68.0
1214.6875 28.0
1215.173218 116.0
1216.498779 60.0
1217.137451 136.0
1217.199951 172.0
1218.104492 176.0
1218.366821 124.0
1218.943604 84.0
1219.993042 60.0
1221.397827 124.0
1221.641235 92.0
1222.07959 76.0
1222.705811 140.0
1222.991211 120.0
1224.000732 68.0
1224.056396 88.0
1224.530029 56.0
1225.135986 144.0
1225.303223 148.0
1225.393799 112.0
1226.146362 88.0
1226.541138 120.0
1228.091675 88.0
1228.677612 160.0
1229.005493 144.0
1231.043823 172.0
1231.406982 100.0
1232.077637 124.0
1232.412964 108.0
1232.601562 168.0
1234.901733 144.0
1235.95105 120.0
1236.237915 96.0
1237.378906 180.0
1237.505005 60.0
1237.64502 64.0
1237.995117 168.0
1238.373291 52.0
1238.800659 160.0
1239.073853 96.0
1239.122925 128.0
1239.620361 176.0
1240.44043 128.0
1240.55957 264.0
1240.785278 144.0
1241.134521 44.0
1241.183594 88.0
1241.968994 92.0
1242.789917 192.0
1243.105591 196.0
1243.365234 104.0
1243.582886 100.0
1244.270752 160.0
1244.432251 132.0
1244.90979 120.0
1244.987061 156.0
1245.303101 112.0
1245.445801 172.0
1245.867676 120.0
1246.518433 96.0
1246.743408 180.0
1247.143921 116.0
1247.678223 124.0
1247.80481 112.0
1248.226685 144.0
1249.422363 100.0
1249.668579 44.0
1249.816406 60.0
1250.041626 188.0
1250.667969 96.0
1250.991821 52.0
1251.301514 96.0
1251.385986 156.0
1251.780396 172.0
1253.506226 40.0
1254.619873 124.0
1255.071045 80.0
1255.127563 148.0
1255.642334 120.0
1257.088501 80.0
1257.37085 156.0
1257.751953 56.0
1257.886108 156.0
1258.507446 208.0
1258.980469 208.0
1260.301514 84.0
1261.001099 108.0
1261.135376 48.0
1261.375732 48.0
1261.750366 168.0
1262.202881 84.0
1262.860596 48.0
1262.931396 100.0
1263.242676 112.0
1263.299194 76.0
1263.391235 56.0
1264.848999 164.0
1265.11084 124.0
1265.224121 92.0
1266.229614 104.0
1266.565918 152.0
1266.690063 124.0
1266.916748 124.0
1267.958374 44.0
1268.050537 100.0
1268.1427 152.0
1268.245972 132.0
1268.865723 148.0
1270.3125 80.0
1270.660156 76.0
1270.97937 160.0
1271.305786 108.0
1271.823975 124.0
1272.228516 120.0
1272.391846 196.0
1272.576416 108.0
1273.393066 108.0
1273.670166 44.0
1273.942627 168.0
1274.134033 160.0
1274.920532 92.0
1275.055664 72.0
1275.244629 180.0
1275.446533 168.0
1275.78772 40.0
1277.480347 112.0
1277.700806 60.0
1277.83606 140.0
1278.070801 32.0
1279.928711 188.0
1280.01416 124.0
1280.655029 132.0
1281.01123 108.0
1281.502808 72.0
1281.866211 136.0
1282.35791 100.0
1282.792725 136.0
1282.91394 68.0
1283.127808 60.0
1284.932251 44.0
1285.253296 64.0
1285.317627 108.0
1286.673706 124.0
1286.795044 92.0
1286.952148 172.0
1288.352051 148.0
1288.816406 84.0
1290.260254 80.0
1290.438965 144.0
1290.86084 84.0
1291.271484 212.0
1291.669067 76.0
1291.761963 80.0
1292.198364 72.0
1293.343384 40.0
1293.715698 72.0
1294.166748 140.0
1294.775391 108.0
1295.004639 100.0
1295.348389 188.0
1295.713745 32.0
1296.219238 84.0
1296.501953 188.0
1297.340698 44.0
1297.613037 172.0
1298.057617 92.0
1298.186768 136.0
1298.358887 120.0
1299.434814 48.0
1300.71228 116.0
1300.906006 152.0
1301.250732 124.0
1302.329346 192.0
1302.414062 152.0
1302.557739 136.0
1302.715698 56.0
1302.964355 100.0
1303.164307 136.0
1303.613892 52.0
1304.66333 80.0
1305.216919 60.0
1305.418213 120.0
1306.130249 196.0
1306.187866 132.0
1307.274292 244.0
1307.554932 136.0
1307.612549 88.0
1307.821289 120.0
1308.152344 84.0
1308.332397 232.0
1308.706787 116.0
1309.001953 136.0
1309.407837 148.0
1309.563721 116.0
1310.457031 100.0
1310.867676 208.0
1311.249634 160.0
1311.350586 68.0
1313.174805 136.0
1313.795166 36.0
1314.040405 132.0
1314.770142 196.0
1315.043457 176.0
1315.101196 156.0
1315.989136 76.0
1316.111938 72.0
1317.065186 96.0
1317.481323 160.0
1317.83374 128.0
1320.122437 152.0
1320.939697 212.0
1321.930908 112.0
1322.53894 156.0
1322.69812 44.0
1322.777832 108.0
1323.038452 124.0
1323.248291 88.0
1323.465576 188.0
1323.653809 212.0
1323.929077 96.0
1324.617065 136.0
1324.841675 132.0
1325.124268 200.0
1325.829468 220.0
1325.921387 176.0
1327.610596 176.0
1327.668579 80.0
1327.842651 204.0
1327.907959 160.0
1328.038452 60.0
1328.597046 52.0
1330.273438 184.0
1330.636353 120.0
1330.868774 60.0
1331.827393 164.0
1332.132446 60.0
1332.27771 60.0
1333.035889 164.0
1333.338623 104.0
1333.680298 72.0
1333.825684 80.0
1333.876465 100.0
1334.319946 128.0
1334.399902 144.0
1334.507812 124.0
1335.61438 64.0
1337.113281 116.0
1337.309814 100.0
1337.943115 76.0
1338.219727 68.0
1338.510986 52.0
1338.620239 112.0
1338.750732 196.0
1339.516113 112.0
1339.814819 116.0
1339.880371 92.0
1340.186401 208.0
1340.44873 148.0
1340.601685 156.0
1340.973389 136.0
1341.206665 120.0
1342.227295 212.0
1342.971191 64.0
1343.270264 104.0
1343.817505 124.0
1344.627441 140.0
1344.926758 140.0
1345.152954 176.0
1345.503418 156.0
1346.204346 136.0
1347.92334 208.0
1348.688599 176.0
1349.946045 72.0
1350.084961 132.0
1350.699341 116.0
1351.116333 48.0
1351.628418 128.0
1351.82605 96.0
1352.148071 64.0
1352.557983 96.0
1352.894653 120.0
1353.268066 124.0
1353.539062 84.0
1353.670776 104.0
1353.739502 232.0
1355.4729 112.0
1355.597412 72.0
1356.740845 124.0
1357.166138 148.0
1357.334717 72.0
1357.393433 32.0
1357.496094 72.0
1357.562134 228.0
1357.650146 76.0
1358.610962 80.0
1358.779785 208.0
1359.300659 148.0
1360.056641 156.0
1360.658569 56.0
1360.798096 84.0
1361.106445 76.0
1361.378174 188.0
1362.068604 276.0
1362.832642 176.0
1363.266235 44.0
1363.868896 172.0
1364.23645 128.0
1364.787842 108.0
1365.001099 60.0
1365.537964 68.0
1366.096924 60.0
1366.788574 108.0
1366.987305 48.0
1367.406006 76.0
1367.524536 88.0
1368.680298 100.0
1368.87915 76.0
1369.302856 144.0
1369.630371 72.0
1369.703979 92.0
1369.858765 168.0
1369.947144 108.0
1370.160767 52.0
1370.875488 176.0
1370.949219 40.0
1371.501953 92.0
1371.674316 96.0
1371.745239 100.0
1371.841064 152.0
1372.035767 116.0
1372.674194 116.0
1372.799561 108.0
1373.109375 64.0
1373.256836 80.0
1374.378174 88.0
1374.570068 132.0
1374.899414 196.0
1375.012817 144.0
1375.241699 128.0
1375.404053 136.0
1375.706177 52.0
1375.817383 108.0
1376.577881 136.0
1377.06543 72.0
1377.36084 96.0
1377.467651 112.0
1378.055298 120.0
1378.291748 128.0
1379.267212 80.0
1379.696045 88.0
1379.947388 128.0
1380.542969 104.0
1381.078857 60.0
1381.715088 80.0
1382.262573 80.0
1382.469849 156.0
1382.521606 164.0
1382.810303 124.0
1383.587524 112.0
1383.713379 96.0
1383.787354 168.0
1383.950317 148.0
1384.268677 96.0
1384.505737 60.0
1385.253784 64.0
1385.312988 148.0
1385.609375 56.0
1386.594971 156.0
1386.69873 104.0
1388.188843 92.0
1388.359375 144.0
1388.455811 92.0
1388.616211 116.0
1389.191406 96.0
1389.316284 60.0
1389.783691 148.0
1389.865356 116.0
1390.889526 60.0
1391.238403 104.0
1391.312622 44.0
1391.386841 172.0
1392.107178 72.0
1392.374512 96.0
1392.931519 68.0
1393.080078 124.0
1393.548218 132.0
1394.246704 92.0
1395.317139 80.0
1395.5625 128.0
1396.068115 212.0
1396.343262 44.0
1396.603638 96.0
1396.752319 132.0
1396.945801 88.0
1397.451904 128.0
1398.091309 76.0
1398.285156 40.0
1398.426514 60.0
1398.590332 80.0
1399.08667 220.0
1400.027222 84.0
1400.310303 212.0
1400.526245 44.0
1400.690186 56.0
1401.159546 156.0
1401.33606 80.0
1401.435181 108.0
1401.607422 32.0
1402.023804 84.0
1402.694702 56.0
1403.179199 72.0
1403.649048 188.0
1404.163574 120.0
1404.536499 32.0
1404.849854 72.0
1404.957275 132.0
1405.058716 224.0
1405.954102 64.0
1406.670654 84.0
1407.379883 80.0
1407.514282 36.0
1407.618896 128.0
1407.977295 160.0
1408.067017 132.0
1408.634644 80.0
1408.888672 108.0
1409.151978 96.0
1409.269653 88.0
1409.62085 96.0
1409.875 96.0
1410.024414 104.0
1410.241211 96.0
1410.308472 116.0
1410.729858 136.0
1411.138306 112.0
1411.369995 160.0
1412.065552 96.0
1412.506836 140.0
1412.880859 80.0
1413.643066 112.0
1413.711426 36.0
1414.078125 104.0
1414.572144 104.0
1414.796753 224.0
1415.021362 192.0
1415.268433 128.0
1415.467773 72.0
1415.77771 124.0
1415.830078 56.0
1416.009888 68.0
1416.436768 140.0
1416.53418 68.0
1416.676514 116.0
1416.88623 136.0
1416.998657 68.0
1417.545654 192.0
1417.665527 140.0
1418.669922 148.0
1418.939819 192.0
1418.99231 52.0
1419.082275 168.0
1419.419678 76.0
1419.802124 136.0
1419.877197 104.0
1420.439697 112.0
1421.152466 176.0
1421.257446 148.0
1421.497559 100.0
1422.615723 148.0
1422.676025 72.0
1423.374268 52.0
1423.516968 148.0
1424.575928 44.0
1424.685303 216.0
1424.801392 92.0
1424.884033 160.0
1425.131958 128.0
1425.515137 188.0
1425.893311 136.0
1426.116455 92.0
1426.544922 176.0
1427.018555 96.0
1427.108765 148.0
1428.189453 124.0
1428.454956 108.0
1428.596436 60.0
1428.801025 120.0
1428.868774 156.0
1429.169678 168.0
1429.463135 128.0
1429.833252 140.0
1430.042603 144.0
1430.178101 168.0
1430.381348 172.0
1431.488159 52.0
1431.676392 104.0
1431.744141 108.0
1433.13916 112.0
1433.612549 140.0
1433.740601 52.0
1433.91394 160.0
1434.042114 156.0
1434.170288 80.0
1435.067383 84.0
1435.78833 192.0
1436.138306 112.0
1436.326782 144.0
1437.11145 64.0
1437.36792 108.0
1437.609497 120.0
1437.692505 60.0
1437.812622 92.0
1438.145264 100.0
1438.250977 164.0
1438.764282 120.0
1438.854858 148.0
1439.096558 48.0
1439.276245 104.0
1439.330566 136.0
1439.519409 192.0
1439.640259 84.0
1439.866821 40.0
1440.025391 220.0
1440.230103 340.0
1440.35022 112.0
1441.151001 200.0
1441.324829 136.0
1441.906616 100.0
1442.413086 200.0
1442.655029 184.0
1443.403564 120.0
1443.577393 68.0
1443.827026 148.0
1444.212769 116.0
1444.462402 192.0
1444.833008 72.0
1444.922729 172.0
1445.154297 160.0
1445.417603 168.0
1446.01355 72.0
1446.078125 112.0
1446.217896 124.0
1446.376831 160.0
1447.065796 248.0
1447.118774 100.0
1447.600098 204.0
1447.762451 120.0
1447.838135 184.0
1447.891113 40.0
1448.133545 96.0
1448.292603 124.0
1448.762207 100.0
1449.042603 136.0
1449.186523 196.0
1449.535034 132.0
1449.588135 108.0
1449.686646 136.0
1450.122803 144.0
1451.081299 128.0
1451.217773 56.0
1451.37146 212.0
1451.483276 128.0
1451.862427 164.0
1452.036865 88.0
1452.249146 184.0
1452.364624 124.0
1452.681519 92.0
1452.734619 100.0
1453.159546 120.0
1453.243042 132.0
1453.36438 180.0
1453.41748 212.0
1454.267456 124.0
1454.631836 176.0
1455.079712 68.0
1455.520142 192.0
1455.740356 48.0
1455.854248 164.0
1455.930176 136.0
1456.021362 72.0
1456.215942 104.0
1457.47229 80.0
1457.74231 116.0
1457.829468 144.0
1458.092651 164.0
1458.353882 28.0
1458.533203 112.0
1458.817505 260.0
1458.916382 168.0
1459.395386 148.0
1459.532227 176.0
1459.608276 168.0
1459.897217 176.0
1460.110229 80.0
1460.328491 160.0
1460.886108 124.0
1461.152344 60.0
1461.418579 56.0
1461.578369 120.0
1462.240479 72.0
1462.567749 164.0
1463.061157 152.0
1464.456177 136.0
1464.913208 52.0
1465.012207 212.0
1465.080811 152.0
1465.362671 128.0
1465.46167 204.0
1465.652222 92.0
1466.017944 104.0
1466.491577 188.0
1466.635376 112.0
1466.802979 240.0
1466.932617 128.0
1467.04541 196.0
1468.35083 140.0
1468.984009 160.0
1469.151733 124.0
1469.2052 104.0
1469.418823 60.0
1469.502686 68.0
1469.67334 136.0
1469.731689 140.0
1470.212402 48.0
1470.421265 108.0
1470.655029 240.0
1470.731445 188.0
1470.830688 188.0
1471.21228 108.0
1471.311523 100.0
1471.395508 124.0
1471.754395 100.0
1472.469604 196.0
1473.442383 108.0
1474.000122 120.0
1474.695557 204.0
1475.330078 96.0
1475.39563 204.0
1475.819336 112.0
1476.178833 52.0
1476.392944 164.0
1476.652954 164.0
1477.207275 84.0
1477.547485 192.0
1478.351318 184.0
1478.496826 196.0
1478.588623 84.0
1479.285156 88.0
1479.698608 264.0
1480.150269 92.0
1480.717041 100.0
1481.023438 116.0
1481.345093 104.0
1481.544312 84.0
1482.440796 144.0
1482.87085 172.0
1483.191895 100.0
1483.720825 100.0
1483.866455 104.0
1484.295898 68.0
1484.640991 48.0
1484.940063 160.0
1485.070435 72.0
1485.34668 112.0
1485.46936 104.0
1485.962646 164.0
1486.098511 56.0
1486.221191 180.0
1487.257324 48.0
1487.465698 180.0
1487.602661 68.0
1488.117065 48.0
1488.447266 140.0
1489.422607 132.0
1489.852783 168.0
1490.313843 132.0
1491.036133 116.0
1491.195557 148.0
1491.628052 48.0
1492.012451 112.0
1492.496826 88.0
1493.041748 148.0
1493.068237 128.0
1493.776855 164.0
1493.888916 140.0
1493.996582 92.0
1494.242798 208.0
1494.34021 208.0
1494.689087 124.0
1494.773682 152.0
1495.374023 48.0
1495.520264 168.0
1495.60083 160.0
1495.728027 144.0
1495.843506 48.0
1496.343872 84.0
1496.428589 128.0
1496.497925 72.0
1496.667358 132.0
1497.097778 152.0
1497.22522 216.0
1497.431274 60.0
1497.714722 144.0
1497.791748 168.0
1498.030518 184.0
1498.346436 112.0
1498.63147 152.0
1498.719604 108.0
1498.893433 96.0
1498.978149 176.0
1499.394409 48.0
1499.671875 124.0
1500.057251 52.0
1500.188232 156.0
1500.527466 140.0
1500.593506 128.0
1500.728027 80.0
1501.190674 124.0
1501.348877 100.0
1501.850952 260.0
1501.984985 76.0
1502.062134 32.0
1502.825928 180.0
1502.910889 184.0
1503.234985 128.0
1503.492188 156.0
1503.782837 100.0
1504.323242 148.0
1504.57019 172.0
