>compound MLS001076102-01!Westcort
>formula C26H38O6
>ionization [M+H]+
>parentmass 447.273865
#inchi InChI=1S/C26H38O6/c1-4-5-6-22(31)32-26(21(30)15-27)12-10-19-18-8-7-16-13-17(28)9-11-24(16,2)23(18)20(29)14-25(19,26)3/h13,18-20,23,27,29H,4-12,14-15H2,1-3H3/t18-,19-,20-,23+,24-,25-,26-/m0/s1
#inchikey FZCHYNWYXKICIO
#Ion_Source LC-ESI
#Instrument qTof
#Compound_Source NIH Pharmacologically Active Library
#PI Dorrestein
#Data_Collector VP/LMS
#Scan -1
#Precursor_MZ 447.279
#ExactMass 446.267
#Charge 1
#CAS_Number N/A
#Pubmed_ID N/A
#Smiles CCCCC(=O)O[C@@]1(CC[C@H]2[C@@H]3CCC4=CC(=O)CC[C@]4(C)[C@H]3[C@@H](O)C[C@@]21C)C(=O)CO
#INCHI_AUX N/A
#Library_Class 1
#SpectrumID CCMSLIB00000085856
#IonMode Positive
#UpdateWorkflowName UPDATE-SINGLE-ANNOTATED-GOLD
#LibraryQualityString Gold
#TaskID d252d724072548979f1f6f1ced849daf
##Scan# 2180
#SpectrumFile p4-G04_GG4_01_18400.mzXML
#LibraryName Pharm_Active_Library.mgf
#MQScore -1
#Organism Pharm_Active_Library
#TIC_Query 0
#RT_Query -1
#MZErrorPPM -1
#SharedPeaks 0
#MassDiff 0
#LibMZ -1
#SpecMZ 447.279
#SpecCharge 0
#internalFilename spec-00000.mgf

>collision 10
44.931583 84.0
45.015678 160.0
45.067776 200.0
45.11932 156.0
45.150898 156.0
45.174732 148.0
45.193466 196.0
45.206848 196.0
45.234955 204.0
45.258266 172.0
45.280479 128.0
45.334072 108.0
45.374283 160.0
45.389034 132.0
45.433296 200.0
45.49369 144.0
45.513828 188.0
45.536659 160.0
45.587383 164.0
45.610561 164.0
45.621315 140.0
45.677799 184.0
45.696632 236.0
45.820435 232.0
45.84341 136.0
45.862278 196.0
45.941841 56.0
45.958031 212.0
46.021332 152.0
46.045475 212.0
46.072796 112.0
46.091713 168.0
46.100151 164.0
46.110184 120.0
46.147133 176.0
46.174179 192.0
46.191765 184.0
46.224236 84.0
46.313591 36.0
46.339333 168.0
46.348816 156.0
46.361015 172.0
46.371857 164.0
46.398968 136.0
46.438293 208.0
46.49128 152.0
46.510044 196.0
46.568596 172.0
46.620228 172.0
46.644691 48.0
46.661007 80.0
46.87471 180.0
46.892136 188.0
46.934689 180.0
46.963329 88.0
46.992699 148.0
47.045204 128.0
47.079304 148.0
47.098465 72.0
47.116222 172.0
47.172256 148.0
47.209171 144.0
47.225586 160.0
47.311798 188.0
47.330967 432.0
47.381645 140.0
47.435093 148.0
47.445324 208.0
47.4776 168.0
47.492687 164.0
47.513264 132.0
47.560951 128.0
47.603859 164.0
47.629955 184.0
47.6698 164.0
47.69772 216.0
47.745411 136.0
47.771545 128.0
47.880287 180.0
47.891308 88.0
47.907349 304.0
47.921616 144.0
47.945042 112.0
47.963989 220.0
48.004322 168.0
48.015354 148.0
48.036045 116.0
48.045704 156.0
48.057945 220.0
48.07468 180.0
48.134041 124.0
48.164425 140.0
48.192055 184.0
48.215549 128.0
48.259785 172.0
48.279144 140.0
48.310959 140.0
48.328945 156.0
48.338631 176.0
48.35247 140.0
48.366314 116.0
48.398155 128.0
48.49929 148.0
48.556141 136.0
48.599144 176.0
48.610245 176.0
48.6269 72.0
48.65744 160.0
48.690769 232.0
48.725918 184.0
48.741966 200.0
48.789429 168.0
48.811676 128.0
48.842274 120.0
48.938301 172.0
49.173901 168.0
49.208801 148.0
49.279846 148.0
49.328949 164.0
49.363903 56.0
49.395306 180.0
49.450645 196.0
49.53046 148.0
49.576698 164.0
49.641186 156.0
49.679054 60.0
49.739265 168.0
49.759052 244.0
49.826469 196.0
49.84333 168.0
49.855976 48.0
49.902718 160.0
49.988171 148.0
50.057152 108.0
50.094257 116.0
50.14027 188.0
50.296986 152.0
50.315189 144.0
50.367065 196.0
50.395699 164.0
50.423962 172.0
50.438095 44.0
50.453644 164.0
50.5187 156.0
50.593708 40.0
50.701363 188.0
50.716953 188.0
50.779343 272.0
50.816227 252.0
50.867317 108.0
50.924461 132.0
50.949688 112.0
50.99374 108.0
51.080544 168.0
51.126736 188.0
51.143364 204.0
51.175831 148.0
51.241352 180.0
51.276978 132.0
51.292656 184.0
51.352547 184.0
51.516705 200.0
51.598167 192.0
51.612465 56.0
51.632488 152.0
51.659664 148.0
51.712608 148.0
51.739807 120.0
51.77282 220.0
51.805687 176.0
51.855843 152.0
51.91032 184.0
51.928967 176.0
51.954784 200.0
51.969135 184.0
51.983452 184.0
52.015659 172.0
52.07312 156.0
52.083988 148.0
52.095478 140.0
52.148647 140.0
52.187462 160.0
52.25938 64.0
52.32991 132.0
52.350071 228.0
52.360149 96.0
52.400486 148.0
52.427864 140.0
52.511486 148.0
52.580742 164.0
52.655819 200.0
52.690792 152.0
52.736732 152.0
52.78788 172.0
52.868347 148.0
52.892956 148.0
52.931694 132.0
53.034561 248.0
53.053757 60.0
53.080803 196.0
53.103058 204.0
53.122364 52.0
53.143681 92.0
53.153835 48.0
53.171253 48.0
53.191574 56.0
53.272896 160.0
53.30341 140.0
53.348465 212.0
53.365913 36.0
53.389179 148.0
53.406631 84.0
53.4561 240.0
53.467743 116.0
53.507046 132.0
53.530342 220.0
53.562386 160.0
53.696487 232.0
53.716908 240.0
53.770897 120.0
53.819073 168.0
53.840977 140.0
53.865807 184.0
53.8848 188.0
53.959339 188.0
54.067589 112.0
54.088081 180.0
54.126148 188.0
54.142509 184.0
54.176723 204.0
54.212578 72.0
54.249222 164.0
54.26828 288.0
54.280014 128.0
54.312279 164.0
54.335751 220.0
54.404732 264.0
54.417942 128.0
54.456127 120.0
54.510487 172.0
54.569668 152.0
54.595753 84.0
54.606045 124.0
54.691387 180.0
54.722488 256.0
54.762066 176.0
54.794476 176.0
54.812157 196.0
54.826439 172.0
54.843105 64.0
54.897655 64.0
54.943382 156.0
55.067383 168.0
55.09322 212.0
55.127956 116.0
55.150127 176.0
55.195961 80.0
55.212509 168.0
55.227016 132.0
55.241333 236.0
55.26992 164.0
55.309879 96.0
55.375031 172.0
55.420956 100.0
55.435493 232.0
55.47728 216.0
55.493279 212.0
55.521763 180.0
55.578133 144.0
55.608673 208.0
55.640472 164.0
55.720676 208.0
55.748909 168.0
55.760799 172.0
55.774174 136.0
55.800934 160.0
55.824726 160.0
55.841087 108.0
55.900597 80.0
55.958649 156.0
55.97205 116.0
55.982475 196.0
56.03014 80.0
56.043552 204.0
56.053982 168.0
56.064415 196.0
56.097206 172.0
56.107643 176.0
56.189671 112.0
56.219517 148.0
56.261311 96.0
56.307602 100.0
56.318054 300.0
56.330006 180.0
56.362877 132.0
56.39127 144.0
56.413692 120.0
56.452568 88.0
56.507915 204.0
56.536346 108.0
56.547539 136.0
56.558746 116.0
56.615696 108.0
56.629173 168.0
56.65316 180.0
56.696594 164.0
56.707737 148.0
56.741566 168.0
56.777554 116.0
56.801556 164.0
56.82856 108.0
56.896099 164.0
56.920391 160.0
56.968185 240.0
56.992226 140.0
57.007252 240.0
57.023785 172.0
57.070072 208.0
57.114727 180.0
57.135063 108.0
57.196289 152.0
57.299488 76.0
57.347393 120.0
57.389606 196.0
57.441822 148.0
57.458988 128.0
57.471058 92.0
57.492184 136.0
57.583275 104.0
57.600899 180.0
57.620537 112.0
57.656803 132.0
57.724834 176.0
57.798958 196.0
57.875603 144.0
57.8913 148.0
57.921341 216.0
58.080757 176.0
58.136898 136.0
58.155109 140.0
58.209766 104.0
58.258369 124.0
58.282681 124.0
58.294777 156.0
58.341957 152.0
58.361721 180.0
58.39518 76.0
58.449947 176.0
58.466686 268.0
58.542809 228.0
58.582413 188.0
58.596645 140.0
58.63879 192.0
58.659821 176.0
58.713501 176.0
58.739429 284.0
58.75399 176.0
58.760342 96.0
58.764378 148.0
58.809624 148.0
58.856949 92.0
58.892075 108.0
58.904297 220.0
58.945549 84.0
58.971447 172.0
58.989872 116.0
59.046448 140.0
59.081631 168.0
59.118355 196.0
59.135189 404.0
59.190304 220.0
59.203625 172.0
59.223999 192.0
59.237785 196.0
59.328205 160.0
59.338936 152.0
59.398746 164.0
59.411018 92.0
59.429432 196.0
59.530746 100.0
59.552246 180.0
59.575241 124.0
59.606583 196.0
59.625996 112.0
59.762863 196.0
59.81673 216.0
59.924538 132.0
59.967686 200.0
60.033981 172.0
60.108028 224.0
60.1497 92.0
60.211678 232.0
60.330414 184.0
60.355186 128.0
60.372196 128.0
60.441811 136.0
60.453861 188.0
60.547081 180.0
60.592003 216.0
60.666393 200.0
60.683449 80.0
60.734627 124.0
60.75169 84.0
60.869652 100.0
60.885181 152.0
60.897606 100.0
60.942657 96.0
60.965969 100.0
60.978401 168.0
61.071255 128.0
61.093472 152.0
61.155361 140.0
61.263165 224.0
61.277187 196.0
61.29277 236.0
61.353558 228.0
61.404484 188.0
61.425293 180.0
61.444016 136.0
61.543907 204.0
61.55484 160.0
61.620441 200.0
61.631382 164.0
61.673576 52.0
61.685265 176.0
61.762474 188.0
61.808079 80.0
61.822163 104.0
61.864422 192.0
61.881645 168.0
61.912964 200.0
61.975876 252.0
62.04459 188.0
62.171646 168.0
62.24543 136.0
62.283123 172.0
62.338116 192.0
62.393131 152.0
62.408852 184.0
62.44817 68.0
62.463898 44.0
62.478058 152.0
62.504807 144.0
62.581936 176.0
62.616581 64.0
62.657539 124.0
62.673496 188.0
62.725304 204.0
62.741402 152.0
62.766296 112.0
62.821499 188.0
62.938297 48.0
62.99276 204.0
63.004635 132.0
63.033073 128.0
63.143738 144.0
63.180122 120.0
63.210186 156.0
63.251335 200.0
63.313087 56.0
63.332092 164.0
63.347935 124.0
63.39864 136.0
63.462048 136.0
63.525486 176.0
63.547699 104.0
63.593719 88.0
63.633091 180.0
63.685814 128.0
63.733475 132.0
63.777851 52.0
63.865883 168.0
63.890884 40.0
63.90361 208.0
63.94817 188.0
63.970455 160.0
64.048485 400.0
64.08831 112.0
64.126564 168.0
64.162552 152.0
64.182358 184.0
64.223824 148.0
64.287643 120.0
64.346703 188.0
64.369064 144.0
64.407394 104.0
64.432953 96.0
64.46331 168.0
64.528847 148.0
64.704849 200.0
64.741203 164.0
64.763412 196.0
64.800285 184.0
64.850624 212.0
64.889099 180.0
64.930794 144.0
64.948433 140.0
64.986938 172.0
65.005859 152.0
65.039902 196.0
65.070404 136.0
65.14267 172.0
65.161949 80.0
65.229454 204.0
65.251961 68.0
65.29538 176.0
65.342026 164.0
65.380646 196.0
65.42411 164.0
65.451477 128.0
65.475494 136.0
65.533028 264.0
65.5578 144.0
65.580368 148.0
65.604546 232.0
65.640015 152.0
65.673882 124.0
65.744873 124.0
65.764244 188.0
65.987183 40.0
66.006584 152.0
66.019524 248.0
66.037315 144.0
66.05349 88.0
66.064812 136.0
66.076134 208.0
66.087463 172.0
66.11422 224.0
66.129539 124.0
66.179726 156.0
66.202393 160.0
66.257469 168.0
66.388763 88.0
66.436432 240.0
66.452034 212.0
66.544548 28.0
66.570526 208.0
66.593269 156.0
66.629005 212.0
66.698883 212.0
66.717232 140.0
66.825737 112.0
66.856651 200.0
66.900604 132.0
66.918198 164.0
66.939682 172.0
66.988541 140.0
67.003204 144.0
67.019501 148.0
67.114044 236.0
67.288628 144.0
67.333275 176.0
67.425842 200.0
67.443825 152.0
67.458336 132.0
67.494507 176.0
67.563202 76.0
67.627022 152.0
67.735092 180.0
67.767639 204.0
67.861748 228.0
67.907211 124.0
67.987602 124.0
68.031921 68.0
68.053261 204.0
68.10746 196.0
68.118958 176.0
68.133522 148.0
68.243866 176.0
68.261955 160.0
68.283333 144.0
68.377113 144.0
68.449554 160.0
68.515434 128.0
68.645653 44.0
68.68029 148.0
68.716583 212.0
68.733414 160.0
68.787552 144.0
68.809013 152.0
68.984131 132.0
69.002319 200.0
69.053581 204.0
69.083359 180.0
69.126381 164.0
69.194244 152.0
69.207489 180.0
69.237297 220.0
69.275398 104.0
69.299545 152.0
69.364883 148.0
69.474335 128.0
69.492584 112.0
69.520798 112.0
69.53241 132.0
69.599968 196.0
69.648643 184.0
69.685188 176.0
69.700142 108.0
69.78492 112.0
69.807236 236.0
69.864754 100.0
70.029205 232.0
70.079529 208.0
70.131149 160.0
70.181206 60.0
70.251259 112.0
70.29612 176.0
70.314667 36.0
70.338036 108.0
70.373093 140.0
70.394798 160.0
70.42511 164.0
70.506729 196.0
70.521774 200.0
70.545174 188.0
70.558548 68.0
70.575272 144.0
70.588646 188.0
70.617081 208.0
70.651833 160.0
70.720818 200.0
70.77607 180.0
70.802864 132.0
70.831337 140.0
70.856468 184.0
70.883278 52.0
70.906738 204.0
70.957024 156.0
71.00901 180.0
71.027466 148.0
71.042984 160.0
71.097931 168.0
71.1315 152.0
71.160042 164.0
71.213783 116.0
71.235619 52.0
71.295326 224.0
71.33313 168.0
71.348221 144.0
71.393623 128.0
71.428246 204.0
71.455856 156.0
71.499611 136.0
71.674751 160.0
71.688232 180.0
71.735428 304.0
71.768158 188.0
71.839989 280.0
71.861916 152.0
71.941246 152.0
71.960564 296.0
71.978386 152.0
72.066223 124.0
72.110161 180.0
72.150734 108.0
72.169601 176.0
72.189621 324.0
72.245445 372.0
72.267433 164.0
72.518074 40.0
72.538414 148.0
72.557762 196.0
72.585892 164.0
72.608215 220.0
72.638466 148.0
72.807243 340.0
72.835381 160.0
72.867661 136.0
72.8955 180.0
72.952637 100.0
72.964539 240.0
72.98494 64.0
73.003647 236.0
73.044464 104.0
73.066582 112.0
73.083595 144.0
73.112526 168.0
73.163589 144.0
73.276001 232.0
73.291336 108.0
73.328827 172.0
73.357803 160.0
73.417488 96.0
73.471786 144.0
73.540329 196.0
73.586418 92.0
73.644638 220.0
73.801712 52.0
73.851311 184.0
73.873543 132.0
73.885521 200.0
73.92659 136.0
73.952263 120.0
73.964241 156.0
74.055893 132.0
74.123138 320.0
74.168404 140.0
74.233238 180.0
74.339928 208.0
74.379074 120.0
74.403107 124.0
74.41684 128.0
74.507576 184.0
74.590363 196.0
74.623741 144.0
74.640221 208.0
74.655701 160.0
74.66774 148.0
74.724503 132.0
74.738274 176.0
74.816353 220.0
74.869827 176.0
74.882439 156.0
75.005219 168.0
75.022461 76.0
75.034531 164.0
75.125931 112.0
75.138008 160.0
75.176559 176.0
75.19841 164.0
75.248474 184.0
75.260559 140.0
75.277824 208.0
75.302002 56.0
75.346916 212.0
75.362122 160.0
75.509415 132.0
75.544006 44.0
75.590721 180.0
75.602837 156.0
75.633995 140.0
75.704979 168.0
75.729225 124.0
75.830215 272.0
75.869591 208.0
75.968445 152.0
76.037849 28.0
76.056946 144.0
76.09687 104.0
76.147232 100.0
76.213249 316.0
76.322281 176.0
76.373192 168.0
76.388847 120.0
76.446266 152.0
76.528084 64.0
76.564651 152.0
76.615166 232.0
76.688354 116.0
76.758171 176.0
76.79995 160.0
76.824631 204.0
76.951782 168.0
76.997185 164.0
77.042084 136.0
77.047333 96.0
77.079292 212.0
77.099709 164.0
77.124733 176.0
77.159698 80.0
77.236641 140.0
77.304878 200.0
77.350388 140.0
77.374474 184.0
77.415489 240.0
77.43969 144.0
77.469467 156.0
77.488739 92.0
77.51152 196.0
77.535378 176.0
77.683342 132.0
77.767502 196.0
77.781616 116.0
77.807945 116.0
77.946709 188.0
78.13485 96.0
78.155968 116.0
78.186958 176.0
78.222847 192.0
78.268623 128.0
78.303841 128.0
78.374588 200.0
78.387863 104.0
78.42894 180.0
78.501228 96.0
78.528061 168.0
78.572685 204.0
78.638031 112.0
78.661789 72.0
78.721825 172.0
78.773048 240.0
78.785408 188.0
78.894981 208.0
78.916199 112.0
78.974564 132.0
78.99131 140.0
79.174561 128.0
79.225929 156.0
79.285446 176.0
79.458183 124.0
79.577103 156.0
79.603973 180.0
79.630379 176.0
79.649071 176.0
79.680115 204.0
79.743011 224.0
79.80098 168.0
79.813812 164.0
79.893463 196.0
79.941544 172.0
79.978882 224.0
80.07859 60.0
80.134048 184.0
80.185501 184.0
80.237228 204.0
80.283554 264.0
80.296036 148.0
80.362045 228.0
80.381676 192.0
80.410225 176.0
80.446671 164.0
80.469139 184.0
80.506638 108.0
80.551292 160.0
80.626335 164.0
80.690689 28.0
80.719299 132.0
80.758644 76.0
80.787262 144.0
80.883896 144.0
80.898224 132.0
80.923286 192.0
81.149048 156.0
81.18132 140.0
81.212059 176.0
81.230667 204.0
81.262047 136.0
81.288025 200.0
81.318596 156.0
81.366142 168.0
81.448753 140.0
81.468697 192.0
81.551376 108.0
81.574539 156.0
81.643356 176.0
81.67704 232.0
81.78141 136.0
81.802383 184.0
81.83902 168.0
81.936279 188.0
81.973228 184.0
82.021698 156.0
82.037201 188.0
82.082283 136.0
82.107529 204.0
82.125565 212.0
82.185097 112.0
82.228409 164.0
82.262703 184.0
82.331123 148.0
82.371056 144.0
82.416862 176.0
82.454178 184.0
82.472252 144.0
82.519249 224.0
82.550346 248.0
82.566689 224.0
82.611488 164.0
82.656723 152.0
82.669388 136.0
82.69548 192.0
82.8088 120.0
82.823288 156.0
82.85952 212.0
82.87764 112.0
82.904823 100.0
82.961014 232.0
83.019035 96.0
83.053497 132.0
83.089775 164.0
83.142723 180.0
83.193993 148.0
83.301842 168.0
83.416672 88.0
83.454857 112.0
83.474854 272.0
83.584 196.0
83.613121 76.0
83.642242 172.0
83.669548 116.0
83.777 188.0
83.807747 160.0
83.855362 196.0
84.072395 160.0
84.130806 176.0
84.163666 136.0
84.196541 240.0
84.286858 180.0
84.313469 184.0
84.351852 212.0
84.364647 164.0
84.45974 108.0
84.474373 156.0
84.50914 116.0
84.573189 180.0
84.593323 120.0
84.624451 128.0
84.659241 180.0
84.676872 236.0
84.734344 156.0
84.787483 120.0
84.87915 224.0
84.897346 52.0
84.921333 204.0
84.969025 28.0
84.992882 124.0
85.051605 176.0
85.125046 204.0
85.255486 148.0
85.281212 176.0
85.357635 136.0
85.419861 220.0
85.483124 184.0
85.540581 92.0
85.560829 128.0
85.638176 176.0
85.669487 172.0
85.70285 148.0
85.789276 144.0
85.820618 160.0
85.840904 112.0
85.857506 116.0
85.910995 188.0
85.934982 156.0
85.958969 128.0
85.992188 192.0
86.04203 148.0
86.060493 160.0
86.098389 192.0
86.237846 260.0
86.253479 140.0
86.289604 144.0
86.328438 192.0
86.43203 164.0
86.469048 132.0
86.482002 156.0
86.498657 156.0
86.531982 120.0
86.552353 124.0
86.589394 188.0
86.60421 72.0
86.622734 100.0
86.659782 216.0
86.680168 148.0
86.717232 92.0
86.813644 152.0
86.854446 144.0
86.911957 116.0
86.937943 172.0
86.96949 136.0
87.023331 236.0
87.051186 156.0
87.075325 124.0
87.222115 88.0
87.257439 100.0
87.280663 120.0
87.341125 164.0
87.396942 172.0
87.42485 168.0
87.462074 248.0
87.504898 192.0
87.689323 184.0
87.797455 160.0
87.840355 180.0
87.993393 132.0
88.0214 108.0
88.043808 160.0
88.068092 144.0
88.102257 152.0
88.132141 152.0
88.14904 196.0
88.208237 172.0
88.284897 56.0
88.427086 144.0
88.447678 28.0
88.466393 184.0
88.539597 200.0
88.657021 192.0
88.696541 164.0
88.783066 120.0
88.927528 112.0
89.025162 124.0
89.051453 176.0
89.07399 176.0
89.11908 140.0
89.139404 196.0
89.160423 112.0
89.182983 152.0
89.224335 116.0
89.237495 208.0
89.332321 296.0
89.38826 188.0
89.451973 204.0
89.489349 192.0
89.563744 192.0
89.591843 148.0
89.625244 136.0
89.676132 52.0
89.723259 216.0
89.760971 160.0
89.78978 188.0
89.825096 236.0
89.901932 72.0
89.946396 200.0
89.960968 220.0
90.011948 176.0
90.132843 76.0
90.19725 104.0
90.259491 104.0
90.362915 112.0
90.433548 156.0
90.473297 180.0
90.486549 40.0
90.503593 172.0
90.52253 152.0
90.594505 140.0
90.721481 92.0
90.920647 160.0
90.987083 200.0
91.053604 2144.0
91.101624 244.0
91.141762 88.0
91.169441 256.0
91.190292 144.0
91.249275 152.0
91.270195 184.0
91.310127 32.0
91.378616 180.0
91.479485 152.0
91.548027 180.0
91.576599 44.0
91.629936 120.0
91.675667 272.0
91.69854 148.0
91.715691 188.0
91.814842 164.0
91.891579 140.0
91.927399 208.0
91.986565 136.0
92.05545 904.0
92.101143 172.0
92.181389 156.0
92.278358 164.0
92.320938 148.0
92.340065 156.0
92.376541 116.0
92.476067 152.0
92.514198 172.0
92.544716 136.0
92.602287 136.0
92.63102 212.0
92.680832 188.0
92.726822 60.0
92.755577 232.0
92.792 160.0
92.839943 128.0
92.861038 172.0
92.884056 212.0
92.916672 160.0
92.951202 160.0
93.068741 1572.0
93.11631 64.0
93.133598 156.0
93.150887 184.0
93.16433 172.0
93.254295 152.0
93.275795 148.0
93.302429 164.0
93.341919 152.0
93.374573 236.0
93.393089 200.0
93.408478 120.0
93.497498 168.0
93.654869 176.0
93.769325 84.0
93.79438 100.0
93.832169 164.0
93.963318 52.0
94.013229 208.0
94.040512 76.0
94.069817 176.0
94.106148 104.0
94.146698 196.0
94.247147 356.0
94.359703 156.0
94.436607 168.0
94.466705 236.0
94.496582 180.0
94.614639 188.0
94.655304 84.0
94.787025 172.0
94.804924 188.0
94.93824 208.0
94.971214 72.0
94.994293 112.0
95.047371 380.0
95.08503 1284.0
95.143387 188.0
95.171333 204.0
95.19635 124.0
95.319237 140.0
95.365326 156.0
95.406197 100.0
95.421753 164.0
95.474258 180.0
95.491264 172.0
95.508163 212.0
95.672729 116.0
95.711479 120.0
95.807114 176.0
95.822701 156.0
95.879211 216.0
95.892853 212.0
95.959129 128.0
96.064842 416.0
96.085213 288.0
96.138168 92.0
96.18544 184.0
96.22448 124.0
96.322128 108.0
96.365997 144.0
96.390511 64.0
96.496063 144.0
96.617325 184.0
96.637871 128.0
96.643387 188.0
96.66037 120.0
96.695602 112.0
96.711258 128.0
96.744537 412.0
96.763901 184.0
96.907936 140.0
96.913628 60.0
96.920074 160.0
96.946968 264.0
96.991364 144.0
97.02861 148.0
97.063438 2800.0
97.098206 176.0
97.123672 156.0
97.185524 172.0
97.207108 192.0
97.23262 80.0
97.289551 112.0
97.342506 144.0
97.440773 116.0
97.613747 176.0
97.719971 60.0
97.757355 192.0
97.802322 208.0
97.807281 176.0
97.985771 52.0
98.067833 540.0
98.113876 148.0
98.137543 172.0
98.190781 44.0
98.227272 112.0
98.320999 176.0
98.372673 156.0
98.405884 100.0
98.441429 112.0
98.476974 164.0
98.510559 176.0
98.607384 124.0
98.727982 200.0
98.753693 124.0
98.783363 116.0
98.87043 152.0
98.965446 128.0
98.989212 144.0
99.020897 120.0
99.043831 752.0
99.059494 128.0
99.091011 112.0
99.094406 264.0
99.164505 168.0
99.195267 68.0
99.292427 92.0
99.344002 140.0
99.379562 52.0
99.518921 60.0
99.631866 148.0
99.744179 280.0
99.789528 208.0
99.894287 40.0
99.928108 168.0
99.987808 156.0
100.033592 172.0
100.07341 100.0
100.153366 108.0
100.182945 160.0
100.200882 144.0
100.235481 176.0
100.244217 64.0
100.253731 160.0
100.300522 140.0
100.314476 124.0
100.503952 120.0
100.569809 48.0
100.597755 160.0
100.784302 100.0
100.809479 172.0
100.905426 164.0
100.919418 156.0
101.003418 172.0
101.029427 132.0
101.153503 132.0
101.181526 224.0
101.219574 172.0
101.255623 168.0
101.359795 116.0
101.419922 100.0
101.46402 172.0
101.504128 140.0
101.538216 40.0
101.570312 200.0
101.606422 196.0
101.69873 164.0
101.728844 184.0
101.74691 156.0
101.83326 260.0
101.939278 172.0
102.020142 112.0
102.047356 128.0
102.086494 160.0
102.114655 248.0
102.223289 128.0
102.243416 132.0
102.307831 200.0
102.408516 160.0
102.448807 144.0
102.529404 184.0
102.616081 236.0
102.630196 172.0
102.652382 72.0
102.696754 284.0
102.768372 128.0
102.79763 148.0
102.840012 184.0
102.898552 192.0
102.915985 172.0
102.949036 220.0
103.053757 1348.0
103.075142 388.0
103.120766 152.0
103.185455 184.0
103.320961 52.0
103.365479 108.0
103.389763 56.0
103.474785 100.0
103.529457 348.0
103.578064 136.0
103.596298 132.0
103.617378 148.0
103.678284 252.0
103.732498 96.0
103.76857 140.0
103.915802 176.0
103.949097 444.0
103.969391 140.0
103.985626 204.0
104.036377 148.0
104.058319 184.0
104.081047 188.0
104.107887 220.0
104.18869 148.0
104.235428 152.0
104.335022 192.0
104.414612 144.0
104.46315 128.0
104.511978 208.0
104.597458 148.0
104.615776 112.0
104.668716 132.0
104.719627 192.0
104.742035 188.0
104.773689 156.0
104.817795 196.0
104.852066 72.0
104.920204 300.0
104.967117 220.0
104.984581 36.0
105.019257 156.0
105.033531 160.0
105.06913 9632.0
105.119225 28.0
105.168205 168.0
105.188622 112.0
105.258034 132.0
105.274376 140.0
105.302963 44.0
105.394897 148.0
105.433723 124.0
105.542076 168.0
105.605469 148.0
105.626305 108.0
105.652519 80.0
105.677071 204.0
105.763023 148.0
105.908409 60.0
105.939133 112.0
106.006752 176.0
106.034363 188.0
106.05545 168.0
106.073845 1372.0
106.117439 120.0
106.152306 240.0
106.197426 172.0
106.318474 124.0
106.336304 64.0
106.363632 176.0
106.417007 124.0
106.441376 332.0
106.511475 84.0
106.536873 88.0
106.587494 84.0
106.630653 152.0
106.677933 40.0
106.719048 204.0
106.743729 120.0
106.791847 120.0
106.846573 52.0
106.957695 92.0
106.986191 176.0
107.005051 120.0
107.047249 1036.0
107.084991 3116.0
107.196617 92.0
107.271957 180.0
107.388351 100.0
107.450569 200.0
107.536911 232.0
107.567871 188.0
107.600906 132.0
107.744545 160.0
107.770271 124.0
107.784737 232.0
107.83847 180.0
107.894279 72.0
107.997276 224.0
108.041122 108.0
108.055962 640.0
108.090805 484.0
108.161148 116.0
108.206696 196.0
108.22834 132.0
108.281242 88.0
108.337173 96.0
108.407623 56.0
108.434563 188.0
108.52578 148.0
108.577621 96.0
108.621941 120.0
108.668671 184.0
108.72493 116.0
108.789276 132.0
108.82872 308.0
108.880638 172.0
108.897255 204.0
108.930489 80.0
108.992821 224.0
109.064896 3384.0
109.102165 724.0
109.123352 160.0
109.179916 152.0
109.277687 60.0
109.300575 184.0
109.323463 184.0
109.410889 204.0
109.442116 132.0
109.503769 192.0
109.535835 188.0
109.573341 168.0
109.591034 120.0
109.60743 100.0
109.627518 156.0
109.73027 176.0
109.734215 216.0
109.763016 244.0
109.848534 188.0
109.935188 132.0
109.969559 168.0
109.984169 112.0
110.038445 228.0
110.06765 296.0
110.088974 164.0
110.10527 104.0
110.144958 228.0
110.161667 188.0
110.238976 184.0
110.253609 128.0
110.29541 144.0
110.343491 100.0
110.391586 140.0
110.4533 380.0
110.523468 172.0
110.690834 96.0
110.778809 144.0
110.955582 236.0
110.971619 188.0
111.079247 568.0
111.116341 180.0
111.141525 220.0
111.27166 72.0
111.301056 172.0
111.368256 148.0
111.403969 68.0
111.452293 124.0
111.47541 140.0
111.607841 136.0
111.624664 128.0
111.653091 108.0
111.691963 144.0
111.731842 184.0
111.767708 92.0
111.782433 108.0
111.822426 72.0
111.853996 156.0
111.891891 164.0
111.942429 136.0
111.967697 196.0
111.990868 172.0
112.034386 176.0
112.048462 176.0
112.096375 152.0
112.260689 188.0
112.304932 172.0
112.560303 172.0
112.58564 80.0
112.604652 68.0
112.627884 248.0
112.651123 88.0
112.684929 212.0
112.712395 144.0
112.777908 216.0
112.843445 224.0
112.887848 96.0
112.974571 164.0
113.033813 320.0
113.080376 72.0
113.129059 140.0
113.158562 176.0
113.186226 96.0
113.206009 212.0
113.29425 160.0
113.338745 148.0
113.385368 164.0
113.448776 140.0
113.521049 84.0
113.552864 56.0
113.622864 132.0
113.692886 120.0
113.823784 152.0
113.892471 136.0
113.94133 160.0
113.980095 248.0
114.002953 92.0
114.019958 176.0
114.045464 36.0
114.136879 156.0
114.23259 44.0
114.436905 164.0
114.592392 152.0
114.641403 172.0
114.686157 176.0
114.818352 168.0
114.854614 312.0
114.884476 120.0
114.905807 180.0
114.933548 120.0
114.992607 160.0
115.01886 148.0
115.05352 2340.0
115.116211 152.0
115.153442 280.0
115.217247 92.0
115.22757 172.0
115.347595 176.0
115.375679 152.0
115.454796 180.0
115.572449 128.0
115.608833 108.0
115.630234 96.0
115.649498 132.0
115.728706 52.0
115.848648 152.0
115.874352 88.0
115.921494 184.0
116.058884 432.0
116.108009 140.0
116.125168 160.0
116.198105 132.0
116.236725 164.0
116.266769 136.0
116.380547 28.0
116.43853 196.0
116.481491 156.0
116.677055 88.0
116.731804 116.0
116.754463 240.0
116.769516 84.0
116.909363 144.0
116.942619 184.0
116.993309 152.0
117.020981 160.0
117.069283 5068.0
117.11245 172.0
117.14492 60.0
117.164131 164.0
117.193611 188.0
117.24749 48.0
117.301376 132.0
117.358246 148.0
117.437225 152.0
117.452324 152.0
117.504097 168.0
117.592575 164.0
117.60984 268.0
117.646538 196.0
117.66597 124.0
117.763145 140.0
117.78907 60.0
117.832275 156.0
118.035461 220.0
118.07222 400.0
118.113998 76.0
118.178223 312.0
118.247475 272.0
118.303749 96.0
118.444511 140.0
118.529007 100.0
118.69809 200.0
118.752312 168.0
118.830406 240.0
118.884659 220.0
118.941086 156.0
118.960625 216.0
118.984505 140.0
119.050781 180.0
119.084259 4484.0
119.149567 44.0
119.197823 172.0
119.225624 220.0
119.249527 80.0
119.284645 52.0
119.317879 172.0
119.358231 100.0
119.401726 40.0
119.464806 212.0
119.612785 76.0
119.667213 44.0
119.743431 100.0
119.79789 184.0
119.913376 176.0
119.937355 140.0
120.056206 176.0
120.08786 752.0
120.188164 164.0
120.266731 216.0
120.286377 188.0
120.345322 260.0
120.379929 132.0
120.40567 88.0
120.439232 172.0
120.458885 128.0
120.478554 96.0
120.50695 176.0
120.522247 200.0
120.561584 220.0
120.618408 84.0
120.666512 172.0
120.696625 160.0
120.737358 100.0
120.757111 388.0
120.804291 256.0
120.852425 292.0
120.891319 160.0
120.915886 156.0
120.935585 184.0
120.950905 204.0
120.994949 68.0
121.040459 164.0
121.064217 41248.0
121.100075 1432.0
121.171364 76.0
121.179695 60.0
121.203773 184.0
121.271988 336.0
121.347435 164.0
121.406647 56.0
121.42495 64.0
121.489265 84.0
121.509132 188.0
121.538269 180.0
121.571182 168.0
121.596397 164.0
121.615662 180.0
121.639099 72.0
121.654594 172.0
121.702896 52.0
121.749008 56.0
121.773964 44.0
121.824265 148.0
121.883011 72.0
121.914597 140.0
121.948944 72.0
121.997307 164.0
122.03022 136.0
122.06723 3832.0
122.102249 360.0
122.131981 164.0
122.173241 132.0
122.199646 68.0
122.228249 44.0
122.27887 68.0
122.410225 168.0
122.453674 172.0
122.488945 128.0
122.523293 140.0
122.615845 44.0
122.65332 100.0
122.675362 48.0
122.708092 52.0
122.734894 52.0
122.784851 128.0
122.80883 300.0
122.836769 124.0
122.853996 28.0
122.889801 192.0
122.931221 132.0
122.964226 260.0
123.004059 48.0
123.038567 196.0
123.07988 8964.0
123.152 88.0
123.187233 160.0
123.224899 148.0
123.273514 92.0
123.349945 152.0
123.384033 176.0
123.439316 56.0
123.479118 60.0
123.516724 60.0
123.60965 80.0
123.636208 200.0
123.676048 116.0
123.738029 80.0
123.755798 172.0
123.775673 140.0
123.861702 128.0
123.881989 132.0
123.933998 160.0
123.994995 120.0
124.083122 632.0
124.19455 176.0
124.238914 152.0
124.278854 84.0
124.332108 100.0
124.356522 212.0
124.456429 164.0
124.47197 260.0
124.487511 88.0
124.51194 164.0
124.591911 88.0
124.620796 88.0
124.683014 44.0
124.698578 80.0
124.723022 184.0
124.740807 120.0
124.778603 212.0
124.858658 152.0
124.967659 44.0
125.000114 116.0
125.056999 216.0
125.078934 248.0
125.167992 64.0
125.21476 156.0
125.310547 192.0
125.366257 128.0
125.455414 36.0
125.486626 108.0
125.545891 348.0
125.564682 164.0
125.600365 136.0
125.696304 72.0
125.772186 164.0
125.802406 148.0
125.825768 160.0
125.995506 60.0
126.042252 152.0
126.142998 208.0
126.256477 192.0
126.333084 40.0
126.386787 108.0
126.406921 168.0
126.46064 168.0
126.483025 184.0
126.730385 168.0
127.051697 696.0
127.074463 176.0
127.101593 140.0
127.168922 76.0
127.379997 216.0
127.442902 172.0
127.496841 156.0
127.517067 132.0
127.609238 44.0
127.658707 168.0
127.690193 220.0
127.80761 176.0
127.863434 152.0
127.906563 148.0
128.061966 3768.0
128.104736 120.0
128.16745 172.0
128.229675 124.0
128.24408 196.0
128.282394 116.0
128.33876 168.0
128.451828 136.0
128.514694 92.0
128.57338 32.0
128.663666 164.0
128.726883 224.0
128.748489 228.0
128.774323 56.0
128.812714 208.0
128.844345 196.0
128.869202 56.0
128.92569 180.0
128.979935 60.0
129.01384 148.0
129.068665 7556.0
129.122391 156.0
129.160843 60.0
129.195847 168.0
129.281509 156.0
129.303391 148.0
129.321487 84.0
129.391678 64.0
129.430161 56.0
129.50943 176.0
129.536606 212.0
129.584183 52.0
129.765518 132.0
129.891418 148.0
129.946136 264.0
129.971924 108.0
130.015045 212.0
130.073593 2024.0
130.174591 212.0
130.219376 116.0
130.285248 208.0
130.332367 76.0
130.405685 140.0
130.426147 156.0
130.496628 236.0
130.568375 224.0
130.6362 184.0
130.667206 140.0
130.717743 88.0
130.803757 104.0
130.819687 52.0
130.847015 40.0
130.960876 244.0
131.008713 180.0
131.045471 176.0
131.084503 10088.0
131.136322 100.0
131.152283 64.0
131.17923 252.0
131.263992 72.0
131.307327 172.0
131.384888 60.0
131.428238 172.0
131.457901 156.0
131.542343 52.0
131.713608 88.0
131.769958 192.0
131.867249 136.0
131.884995 60.0
131.907852 260.0
131.955856 228.0
131.97644 132.0
132.022171 40.0
132.057617 288.0
132.087769 924.0
132.154846 192.0
132.221222 188.0
132.28302 52.0
132.303619 144.0
132.399796 148.0
132.512039 156.0
132.532654 100.0
132.555573 152.0
132.587662 80.0
132.63121 48.0
132.688522 180.0
132.720627 168.0
132.819244 260.0
132.892654 88.0
132.911011 188.0
132.991333 56.0
133.028931 180.0
133.063766 1604.0
133.100006 4000.0
133.142868 168.0
133.193405 136.0
133.243942 152.0
133.328964 104.0
133.414017 88.0
133.457214 152.0
133.473801 224.0
133.496796 48.0
133.644012 36.0
133.74527 60.0
133.782104 32.0
133.835068 128.0
133.883423 164.0
133.934097 88.0
133.998596 164.0
134.028549 128.0
134.06665 192.0
134.102768 692.0
134.162231 64.0
134.187592 156.0
134.322662 148.0
134.339813 252.0
134.376724 132.0
134.432098 88.0
134.496735 72.0
134.541901 184.0
134.594406 196.0
134.63295 176.0
134.686081 176.0
134.720734 156.0
134.748459 116.0
134.806213 68.0
134.882492 68.0
134.98053 180.0
135.011734 152.0
135.043243 160.0
135.079605 3892.0
135.116409 1676.0
135.155396 80.0
135.1716 88.0
135.243347 260.0
135.576874 148.0
135.692764 196.0
135.739151 136.0
135.769287 112.0
135.89325 192.0
135.959534 116.0
136.022202 144.0
136.040771 108.0
136.084442 668.0
136.120773 196.0
136.156876 40.0
136.21727 256.0
136.326477 180.0
136.368301 144.0
136.386902 40.0
136.405304 96.0
136.454315 196.0
136.493851 184.0
136.528732 156.0
136.631073 164.0
136.691574 172.0
136.725006 316.0
136.790314 200.0
136.947678 140.0
137.007523 116.0
137.05484 104.0
137.094162 1324.0
137.12709 116.0
137.194687 140.0
137.215668 132.0
137.264633 104.0
137.322937 152.0
137.341599 180.0
137.542267 188.0
137.563278 120.0
137.58429 140.0
137.66835 144.0
137.70105 164.0
137.82019 172.0
137.976349 192.0
138.013153 160.0
138.039932 212.0
138.060974 216.0
138.106995 220.0
138.337082 132.0
138.362823 156.0
138.451813 160.0
138.573624 184.0
138.597061 220.0
138.627518 148.0
138.733002 160.0
138.793961 152.0
138.880722 132.0
139.073364 156.0
139.115387 152.0
139.162354 96.0
139.20462 72.0
139.310303 68.0
139.434845 160.0
139.51947 188.0
139.604126 124.0
139.654404 180.0
139.669983 216.0
139.748611 192.0
139.836166 168.0
139.968872 216.0
139.990067 184.0
140.034271 172.0
140.062042 180.0
140.124329 108.0
140.209976 152.0
140.230377 216.0
140.327026 148.0
140.366806 152.0
140.404846 392.0
140.539322 132.0
140.560547 144.0
140.586517 132.0
140.6185 180.0
140.671478 128.0
140.706894 100.0
140.774933 196.0
140.828873 184.0
140.850952 120.0
140.888748 144.0
141.016357 308.0
141.069321 5804.0
141.110916 156.0
141.151108 48.0
141.240982 76.0
141.29303 128.0
141.366379 164.0
141.416092 104.0
141.636292 52.0
141.712845 180.0
141.804535 180.0
141.840088 52.0
141.880386 156.0
141.911209 140.0
141.945282 152.0
141.965744 172.0
142.034531 76.0
142.075699 4332.0
142.17926 168.0
142.214874 88.0
142.259964 164.0
142.300339 140.0
142.390564 172.0
142.537735 140.0
142.590149 112.0
142.651947 200.0
142.687607 148.0
142.704254 56.0
142.747055 140.0
142.804138 248.0
142.821396 172.0
142.904053 96.0
142.980194 176.0
143.005875 236.0
143.045807 128.0
143.084732 15876.0
143.12204 172.0
143.17305 120.0
143.223053 108.0
143.265945 160.0
143.327881 132.0
143.354095 68.0
143.40892 52.0
143.659302 204.0
143.680771 40.0
143.758667 56.0
143.85022 132.0
143.8909 96.0
143.917068 152.0
143.971985 192.0
144.005432 176.0
144.055145 356.0
144.088806 2176.0
144.117706 156.0
144.170273 152.0
144.208527 32.0
144.239594 40.0
144.256332 48.0
144.277847 68.0
144.41893 172.0
144.447632 180.0
144.531372 104.0
144.548553 204.0
144.58403 224.0
144.648651 128.0
144.701981 144.0
144.75943 164.0
144.804291 332.0
144.873764 136.0
144.89772 60.0
145.002563 212.0
145.036713 140.0
145.062439 1368.0
145.100113 13260.0
145.15419 88.0
145.189194 184.0
145.23288 188.0
145.253891 112.0
145.302902 124.0
145.415695 192.0
145.444489 200.0
145.583755 36.0
145.637436 68.0
145.652298 156.0
145.733795 160.0
145.766327 196.0
145.802383 156.0
145.928757 184.0
145.956238 76.0
145.997116 36.0
146.070282 488.0
146.10614 2624.0
146.167923 188.0
146.194382 192.0
146.254562 152.0
146.309921 76.0
146.415878 96.0
146.507416 128.0
146.594162 80.0
146.654404 128.0
146.676102 32.0
146.694153 136.0
146.784592 72.0
146.852127 196.0
146.954407 116.0
146.989639 160.0
147.0186 140.0
147.078644 4260.0
147.116119 15280.0
147.192017 72.0
147.206345 256.0
147.262451 140.0
147.286926 156.0
147.347198 56.0
147.375992 128.0
147.413284 84.0
147.464157 100.0
147.496841 100.0
147.547607 112.0
147.724152 116.0
147.741089 60.0
147.782211 244.0
147.811249 236.0
147.857239 92.0
147.932266 152.0
147.971008 168.0
147.990311 136.0
148.014587 100.0
148.085312 856.0
148.120407 2440.0
148.159912 220.0
148.235031 132.0
148.328552 96.0
148.555084 36.0
148.664276 200.0
148.773499 120.0
148.853622 64.0
148.875473 164.0
148.902191 36.0
148.955627 320.0
149.023651 96.0
149.041382 192.0
149.062943 212.0
149.094696 3144.0
149.129974 2372.0
149.25589 148.0
149.277985 292.0
149.361588 200.0
149.38591 76.0
149.441864 140.0
149.485672 64.0
149.551392 80.0
149.670685 188.0
149.712128 172.0
149.783127 212.0
149.794342 36.0
149.799332 204.0
149.977646 124.0
150.099747 128.0
150.134735 168.0
150.177597 124.0
150.436249 104.0
150.55101 172.0
150.597427 324.0
150.719574 76.0
150.802673 160.0
150.849106 400.0
151.038712 156.0
151.073593 384.0
151.108353 284.0
151.130371 84.0
151.294357 100.0
151.331085 88.0
151.358017 192.0
151.433685 228.0
151.566223 128.0
151.666718 200.0
151.696136 84.0
151.771317 72.0
151.840805 112.0
151.865326 152.0
152.057678 428.0
152.081253 288.0
152.383316 180.0
152.48407 36.0
152.508286 188.0
152.557816 284.0
152.72995 248.0
152.766846 196.0
152.818512 128.0
152.856873 232.0
152.882492 44.0
153.066742 1700.0
153.251877 224.0
153.377563 60.0
153.396759 176.0
153.429337 196.0
153.611832 156.0
153.764816 156.0
153.925278 128.0
153.994431 188.0
154.021606 212.0
154.076935 1576.0
154.16243 76.0
154.313217 220.0
154.350311 184.0
154.375046 92.0
154.600159 156.0
154.669464 140.0
154.767593 196.0
154.818024 320.0
154.835968 228.0
154.917099 180.0
154.944351 244.0
155.056046 552.0
155.083847 8648.0
155.145096 44.0
155.184769 40.0
155.212051 180.0
155.256683 64.0
155.282181 72.0
155.313736 72.0
155.33606 148.0
155.369675 152.0
155.452667 100.0
155.534576 140.0
155.601608 148.0
155.626434 136.0
155.718323 160.0
155.777939 148.0
155.998749 208.0
156.043854 164.0
156.090363 1456.0
156.135712 188.0
156.235367 236.0
156.337387 52.0
156.372223 136.0
156.399612 44.0
156.436951 56.0
156.541519 44.0
156.643646 184.0
156.765732 156.0
156.927765 100.0
157.015045 368.0
157.034943 204.0
157.064011 1756.0
157.100189 10128.0
157.164291 116.0
157.192169 52.0
157.249573 124.0
157.267044 88.0
157.289505 76.0
157.309326 64.0
157.344421 104.0
157.389374 28.0
157.462799 120.0
157.489273 128.0
157.596695 128.0
157.661667 160.0
157.709152 168.0
157.805771 192.0
157.878113 104.0
157.919189 160.0
158.004242 308.0
158.021759 56.0
158.070816 844.0
158.105148 1680.0
158.141876 108.0
158.190689 88.0
158.240692 68.0
158.267929 88.0
158.300766 172.0
158.372238 48.0
158.427353 168.0
158.54512 52.0
158.587723 60.0
158.637863 124.0
158.657913 152.0
158.727844 180.0
158.770752 192.0
158.806702 60.0
158.856033 160.0
158.941345 40.0
158.961411 180.0
158.978989 160.0
159.021652 108.0
159.077957 4768.0
159.116425 5872.0
159.164749 112.0
159.194885 224.0
159.210876 88.0
159.286514 56.0
159.314072 112.0
159.350449 116.0
159.390823 56.0
159.503922 48.0
159.57431 156.0
159.60701 216.0
159.662323 88.0
159.687485 200.0
159.715149 64.0
159.770493 128.0
159.901337 212.0
159.969315 52.0
160.05397 176.0
160.083893 1000.0
160.119995 1024.0
160.163208 68.0
160.396393 200.0
160.606842 188.0
160.644684 248.0
160.667389 80.0
160.698364 248.0
160.743088 416.0
160.785995 48.0
160.813751 152.0
160.986908 192.0
161.010696 112.0
161.055237 328.0
161.094543 5820.0
161.129776 2772.0
161.250717 280.0
161.27182 172.0
161.308853 160.0
161.369522 76.0
161.417572 124.0
161.43689 112.0
161.493439 96.0
161.523788 64.0
161.561737 168.0
161.76532 80.0
161.93132 160.0
161.961716 108.0
162.060516 152.0
162.099167 784.0
162.137085 304.0
162.261749 204.0
162.283569 140.0
162.324142 36.0
162.435745 136.0
162.483139 140.0
162.539764 136.0
162.574158 160.0
162.95874 220.0
162.990982 180.0
163.009552 92.0
163.073441 488.0
163.110855 7648.0
163.165802 128.0
163.205292 152.0
163.289215 56.0
163.306702 32.0
163.347717 96.0
163.409378 168.0
163.464752 112.0
163.562317 192.0
163.692215 180.0
163.744797 44.0
164.027634 48.0
164.063324 80.0
164.113144 1128.0
164.139816 208.0
164.165314 208.0
164.267334 100.0
164.322449 272.0
164.359192 120.0
164.425537 212.0
164.545517 160.0
164.609344 204.0
164.701294 172.0
164.74472 136.0
164.803238 164.0
164.882904 156.0
164.974731 124.0
164.99263 52.0
165.067001 1180.0
165.119034 324.0
165.137802 176.0
165.25351 124.0
165.284286 140.0
165.320038 160.0
165.412186 76.0
165.501785 132.0
165.62471 80.0
165.655457 200.0
165.716949 112.0
165.906601 128.0
165.927109 176.0
166.021988 140.0
166.075607 1052.0
166.17334 228.0
166.196426 112.0
166.293945 192.0
166.376099 124.0
166.430008 100.0
166.661194 180.0
166.84111 176.0
167.041702 84.0
167.084488 4436.0
167.130341 256.0
167.160049 124.0
167.257858 344.0
167.34024 48.0
167.450974 156.0
167.633896 84.0
167.662247 72.0
167.747299 124.0
167.807144 168.0
167.91748 136.0
167.984543 172.0
168.018082 196.0
168.090683 1304.0
168.265854 68.0
168.389801 112.0
168.475052 88.0
168.521561 152.0
168.674042 72.0
168.829819 112.0
168.85762 76.0
168.886078 208.0
168.942993 44.0
168.968857 184.0
168.999908 112.0
169.028366 192.0
169.06749 336.0
169.099716 9148.0
169.300186 56.0
169.357178 48.0
169.428513 156.0
169.520401 136.0
169.590378 192.0
169.616287 204.0
169.668137 120.0
169.735687 160.0
169.82373 88.0
169.873016 124.0
169.898956 188.0
169.963821 144.0
170.028702 180.0
170.07045 432.0
170.104843 1888.0
170.144485 140.0
170.184464 160.0
170.280548 200.0
170.356598 188.0
170.392258 164.0
170.467606 56.0
170.498795 112.0
170.56897 136.0
170.685959 104.0
170.748383 60.0
170.803009 212.0
170.849823 108.0
170.930496 176.0
170.966919 36.0
170.994003 148.0
171.029388 132.0
171.079163 4132.0
171.115341 6196.0
171.158951 68.0
171.174484 192.0
171.479996 48.0
171.513885 264.0
171.534744 72.0
171.680756 76.0
171.722488 136.0
171.743347 80.0
171.805557 104.0
171.852921 48.0
171.933823 164.0
172.083862 384.0
172.123413 1952.0
172.183548 116.0
172.283722 220.0
172.312454 108.0
172.364716 36.0
172.517944 96.0
172.573822 32.0
172.635498 164.0
172.838013 96.0
172.89035 172.0
172.937469 176.0
172.974106 168.0
173.03746 60.0
173.059647 196.0
173.094696 9892.0
173.130997 3300.0
173.175735 20.0
173.240082 92.0
173.277908 48.0
173.311966 48.0
173.34996 56.0
173.399918 164.0
173.49855 84.0
173.644897 192.0
173.726227 184.0
173.749832 64.0
173.894165 168.0
174.098618 1692.0
174.137741 616.0
174.202057 220.0
174.227661 168.0
174.248672 84.0
174.345901 68.0
174.443161 108.0
174.558838 168.0
174.790329 32.0
174.97319 144.0
175.040405 156.0
175.077515 356.0
175.109497 2856.0
175.145767 424.0
175.20108 92.0
175.240601 40.0
175.274857 84.0
175.343384 60.0
175.364456 96.0
175.405533 144.0
175.50946 56.0
175.642029 136.0
175.704636 152.0
175.775879 68.0
175.879822 176.0
176.029312 204.0
176.05835 68.0
176.082321 164.0
176.11525 860.0
176.181274 164.0
176.26442 112.0
176.314621 136.0
176.362198 188.0
176.467941 96.0
176.740952 56.0
176.833008 80.0
176.952133 204.0
177.03688 224.0
177.06601 152.0
177.088058 700.0
177.124985 1548.0
177.182556 60.0
177.324158 52.0
177.411636 156.0
177.474121 84.0
177.522751 188.0
177.5802 92.0
177.696915 72.0
177.77121 32.0
177.918198 60.0
178.075562 1060.0
178.133835 468.0
178.172165 244.0
178.376801 72.0
178.406036 200.0
178.453903 140.0
178.556274 152.0
178.74649 156.0
178.884903 112.0
178.92749 144.0
179.084518 1848.0
179.209824 88.0
179.252457 132.0
179.668411 148.0
180.052795 148.0
180.0914 1692.0
180.132935 68.0
180.164978 204.0
180.360062 108.0
180.442932 68.0
180.525833 60.0
180.702377 196.0
180.817642 164.0
180.892395 180.0
180.921844 192.0
180.970032 112.0
181.02092 72.0
181.059265 124.0
181.09967 4232.0
181.169128 132.0
181.229858 92.0
181.316452 152.0
181.430862 140.0
181.482956 112.0
181.623947 172.0
181.650772 172.0
181.699066 120.0
181.919128 60.0
181.97551 116.0
181.996994 156.0
182.071198 300.0
182.1064 1508.0
182.163513 204.0
182.201126 160.0
182.273041 244.0
182.322052 112.0
182.547333 100.0
182.660828 128.0
182.687729 172.0
182.842819 172.0
183.026855 48.0
183.07785 728.0
183.114334 7908.0
183.17009 132.0
183.258514 108.0
183.35553 112.0
183.393265 44.0
183.478729 164.0
183.557724 72.0
183.603043 208.0
183.758087 168.0
183.789703 60.0
183.867966 224.0
183.924637 52.0
184.00563 52.0
184.05101 124.0
184.081955 332.0
184.120209 812.0
184.291931 56.0
184.462479 40.0
184.537903 60.0
184.613617 136.0
184.713699 44.0
184.775909 104.0
184.854385 88.0
184.992432 60.0
185.016785 288.0
185.093689 4220.0
185.130951 5152.0
185.212677 96.0
185.233444 136.0
185.257828 104.0
185.295746 60.0
185.339874 56.0
185.365143 92.0
185.406387 236.0
185.465576 96.0
185.520706 72.0
185.572205 44.0
185.612885 144.0
185.666 96.0
185.688828 152.0
185.821747 124.0
185.911285 64.0
185.957428 132.0
185.993881 28.0
186.06601 232.0
186.097702 652.0
186.136292 1800.0
186.236298 164.0
186.332184 148.0
186.400116 128.0
186.48436 84.0
186.544159 120.0
186.565918 28.0
186.584946 120.0
186.606689 116.0
186.628448 224.0
186.685547 72.0
186.711899 128.0
186.805222 88.0
186.960327 176.0
187.014206 140.0
187.050323 180.0
187.075592 572.0
187.109863 5688.0
187.146606 944.0
187.412369 60.0
187.461426 116.0
187.554092 76.0
187.594971 168.0
187.659012 148.0
187.679489 160.0
187.824036 60.0
187.897705 60.0
188.047791 76.0
188.112015 704.0
188.148743 524.0
188.38092 168.0
188.539398 112.0
188.596802 84.0
188.782715 164.0
188.815536 44.0
188.851089 152.0
189.045349 104.0
189.089111 716.0
189.125198 2544.0
189.163528 224.0
189.484985 144.0
189.495743 108.0
189.768509 80.0
189.805847 104.0
189.913864 196.0
190.026337 176.0
190.086105 184.0
190.095383 220.0
190.128082 292.0
190.17511 188.0
190.207474 196.0
190.234924 176.0
190.284332 104.0
190.655182 184.0
190.723892 140.0
190.839355 104.0
190.866852 68.0
190.919098 168.0
191.009872 172.0
191.081207 804.0
191.103073 824.0
191.138397 216.0
191.403442 124.0
191.568695 76.0
191.629303 56.0
191.756073 108.0
191.998688 56.0
192.042831 104.0
192.090317 1372.0
192.136551 152.0
192.202835 44.0
192.252518 200.0
192.335312 128.0
192.583832 40.0
192.652878 108.0
192.686035 84.0
192.95137 124.0
193.099823 3220.0
193.172607 68.0
193.243164 96.0
193.29158 144.0
193.313721 48.0
193.335861 44.0
193.358002 208.0
193.404419 208.0
193.479797 168.0
193.535172 120.0
193.712433 188.0
193.803864 104.0
193.873138 96.0
193.920258 200.0
194.018372 212.0
194.068192 188.0
194.107056 1784.0
194.194748 80.0
194.314041 112.0
194.585434 176.0
194.677673 176.0
194.830444 172.0
194.874893 148.0
194.947144 80.0
195.000488 188.0
195.03331 152.0
195.078552 756.0
195.115097 5096.0
195.183441 76.0
195.279297 108.0
195.383698 204.0
195.417084 60.0
195.472733 100.0
195.662018 192.0
195.767822 108.0
195.912659 192.0
196.087708 432.0
196.121902 1992.0
196.264282 104.0
196.560745 128.0
196.601395 152.0
196.634888 184.0
196.693497 32.0
196.780045 28.0
196.8694 132.0
196.900116 124.0
196.919678 52.0
196.967163 92.0
197.094482 1348.0
197.130112 3672.0
197.215149 64.0
197.251755 96.0
197.280136 44.0
197.299713 84.0
197.326141 68.0
197.432266 108.0
197.617905 52.0
197.65773 36.0
197.705307 208.0
197.741684 104.0
197.778076 124.0
197.803268 108.0
197.87886 40.0
198.100113 840.0
198.135132 1296.0
198.249207 224.0
198.338303 36.0
198.399979 52.0
198.47287 136.0
198.517746 228.0
198.665146 152.0
198.812317 36.0
198.927399 48.0
199.025665 60.0
199.048126 152.0
199.111038 2072.0
199.146103 1312.0
199.230698 88.0
199.362762 120.0
199.390869 192.0
199.418976 84.0
199.506104 100.0
199.525787 144.0
199.551102 68.0
199.573593 156.0
199.68045 100.0
199.71701 108.0
199.753586 140.0
199.899887 60.0
199.99559 40.0
200.077744 172.0
200.116776 1292.0
200.150085 528.0
200.187042 120.0
200.232101 72.0
200.296875 140.0
200.395493 72.0
200.508209 104.0
200.527939 80.0
200.622742 120.0
200.671707 132.0
200.750656 140.0
200.792969 164.0
200.86348 124.0
200.919907 148.0
200.939651 112.0
200.959412 132.0
201.125137 2732.0
201.165237 136.0
201.368744 116.0
201.445007 80.0
201.747391 56.0
201.806763 132.0
201.826553 88.0
202.072433 152.0
202.12886 532.0
202.166016 64.0
202.191498 252.0
202.474609 156.0
202.548264 156.0
202.636078 160.0
202.669708 216.0
202.871307 164.0
202.899658 148.0
202.947861 148.0
202.978882 164.0
203.09523 520.0
203.101593 488.0
203.140015 964.0
203.603394 112.0
203.702805 96.0
203.790878 188.0
203.890335 152.0
203.944351 224.0
203.989822 180.0
204.04953 112.0
204.091675 740.0
204.242905 152.0
204.419312 124.0
204.493301 200.0
204.629944 128.0
204.672653 132.0
204.840698 236.0
204.977463 148.0
205.042999 160.0
205.105988 764.0
205.154175 164.0
205.245407 84.0
205.517288 140.0
205.610565 200.0
205.687637 112.0
206.110519 1084.0
206.353287 172.0
206.705109 84.0
206.776657 120.0
206.813873 36.0
206.948425 116.0
207.074524 120.0
207.115097 4488.0
207.234329 132.0
207.260651 196.0
207.289307 168.0
207.325378 68.0
207.378143 100.0
207.429733 132.0
207.584564 72.0
207.785355 132.0
208.084656 200.0
208.122284 1696.0
208.244659 92.0
208.307861 68.0
208.399796 120.0
208.448639 80.0
208.500366 32.0
208.62973 200.0
208.98349 220.0
209.093079 1280.0
209.130142 6848.0
209.251175 44.0
209.346191 76.0
209.435471 96.0
209.497406 80.0
209.573761 92.0
209.686157 152.0
209.709213 116.0
209.784164 100.0
209.80722 120.0
209.850464 64.0
209.936981 204.0
210.058121 32.0
210.099121 888.0
210.136215 2772.0
210.193726 40.0
210.213928 192.0
210.291855 132.0
210.320709 200.0
210.375565 84.0
210.465057 88.0
210.531479 84.0
210.571915 160.0
210.655685 64.0
211.02272 80.0
211.054749 52.0
211.070068 148.0
211.109207 2532.0
211.145569 3520.0
211.300385 56.0
211.340897 132.0
211.364044 68.0
211.419022 48.0
211.447968 100.0
211.47113 80.0
211.563751 108.0
211.598679 128.0
211.646973 184.0
211.696945 152.0
211.743286 148.0
211.766464 80.0
211.846802 152.0
211.911301 52.0
212.039841 136.0
212.088333 144.0
212.115051 304.0
212.15332 1404.0
212.233047 88.0
212.269684 132.0
212.479584 52.0
212.543427 76.0
212.589844 192.0
212.679825 80.0
212.70015 148.0
212.763245 112.0
212.790146 160.0
212.81337 72.0
212.883057 64.0
212.929535 148.0
212.967285 120.0
213.089233 168.0
213.124725 2080.0
213.162216 888.0
213.463577 152.0
213.711533 92.0
213.76973 104.0
213.832062 128.0
213.935638 92.0
214.071426 44.0
214.101608 68.0
214.133209 1088.0
214.164474 172.0
214.267639 72.0
214.392944 44.0
214.524109 48.0
214.655319 108.0
214.736969 68.0
215.002472 184.0
215.095139 128.0
215.141708 1252.0
215.192215 116.0
215.396759 116.0
215.475525 84.0
215.517761 132.0
215.607513 96.0
215.741486 224.0
215.922775 88.0
215.978348 156.0
216.096542 496.0
216.145645 332.0
216.203644 68.0
216.370499 136.0
216.417343 88.0
216.443695 216.0
216.525696 108.0
216.552063 76.0
216.754211 100.0
216.780579 36.0
216.883163 112.0
217.09819 744.0
217.162476 196.0
217.249725 184.0
217.593094 56.0
217.710556 184.0
217.734055 132.0
217.948502 164.0
217.995514 132.0
218.027847 92.0
218.106628 668.0
218.18364 104.0
218.245377 220.0
218.374786 80.0
218.40419 112.0
218.53952 208.0
218.618973 40.0
218.660172 212.0
218.71022 140.0
218.851181 152.0
218.928101 64.0
218.948715 116.0
219.077637 280.0
219.086731 140.0
219.114258 1256.0
219.296371 144.0
219.379242 72.0
219.82724 84.0
220.019104 168.0
220.088943 204.0
220.125153 532.0
220.187424 68.0
220.468094 40.0
220.577454 248.0
220.686844 48.0
220.734146 128.0
220.831757 64.0
221.003342 52.0
221.095352 456.0
221.129181 2528.0
221.180908 140.0
221.292389 140.0
221.432587 180.0
221.628113 124.0
221.707077 124.0
222.010513 40.0
222.040176 104.0
222.097977 484.0
222.13501 1972.0
222.201111 120.0
222.224106 84.0
222.247833 36.0
222.289383 168.0
222.494186 36.0
222.710968 64.0
222.788208 76.0
222.821304 144.0
222.99324 60.0
223.109879 1908.0
223.146591 2316.0
223.178696 200.0
223.30246 44.0
223.364288 56.0
223.629761 172.0
223.727982 56.0
223.867935 92.0
223.915588 108.0
223.951324 68.0
224.117615 452.0
224.150589 1144.0
224.39238 100.0
224.422195 144.0
224.462936 164.0
224.544464 140.0
224.729416 140.0
224.884598 124.0
224.929382 28.0
225.090607 100.0
225.125107 3928.0
225.162628 3092.0
225.230972 32.0
225.275787 156.0
225.317612 28.0
225.344498 60.0
225.380356 156.0
225.452072 132.0
225.547714 40.0
225.606659 56.0
225.736084 32.0
225.921524 176.0
225.948456 48.0
225.993332 144.0
226.089096 308.0
226.128159 1116.0
226.165726 828.0
226.334564 128.0
226.385483 60.0
226.418411 48.0
226.58017 188.0
226.628113 116.0
226.676056 60.0
226.839294 112.0
227.005814 144.0
227.106339 248.0
227.141693 2840.0
227.177185 1760.0
227.347809 40.0
227.410843 68.0
227.43486 180.0
227.584961 60.0
227.744125 136.0
227.766541 104.0
227.795197 108.0
227.951431 32.0
228.086685 84.0
228.147736 568.0
228.180649 316.0
228.252045 36.0
228.336243 32.0
228.372345 128.0
228.468613 148.0
228.57692 36.0
228.760529 76.0
228.835785 152.0
228.85527 144.0
229.034546 188.0
229.098709 160.0
229.119751 468.0
229.157547 568.0
229.516769 132.0
230.102982 276.0
230.155396 180.0
230.201767 52.0
230.228943 224.0
230.298416 132.0
230.334656 120.0
230.392059 136.0
230.44548 224.0
230.543137 184.0
230.98761 72.0
231.008789 180.0
231.116943 868.0
231.139755 804.0
231.371948 36.0
231.577866 64.0
231.662689 128.0
231.714188 196.0
231.805099 284.0
231.85965 160.0
231.892838 172.0
232.0112 160.0
232.126556 584.0
232.165848 84.0
232.187073 40.0
232.353912 192.0
232.640305 164.0
232.845688 136.0
233.035309 104.0
233.089264 288.0
233.130768 1760.0
233.59343 128.0
233.660355 100.0
233.709534 100.0
233.759903 184.0
233.858154 184.0
234.097031 140.0
234.139786 936.0
234.284271 176.0
234.385025 152.0
234.55571 68.0
234.633026 176.0
234.77829 232.0
234.842331 156.0
235.10881 544.0
235.146194 3584.0
235.242081 116.0
235.324509 36.0
235.355042 56.0
235.439941 168.0
235.486359 108.0
235.541351 32.0
236.115982 352.0
236.152603 1028.0
236.328033 164.0
236.363785 152.0
236.513748 104.0
236.565781 40.0
236.627014 140.0
236.706635 128.0
236.911072 176.0
237.065048 96.0
237.125183 1428.0
237.164566 992.0
237.313339 32.0
237.45134 52.0
237.570969 156.0
238.132111 840.0
238.169876 544.0
238.284729 200.0
238.42276 60.0
238.68898 108.0
239.093781 192.0
239.100342 112.0
239.141235 5024.0
239.177094 1584.0
239.216309 104.0
239.304382 56.0
239.325943 76.0
239.43988 152.0
239.593903 72.0
239.806534 168.0
239.834274 44.0
239.908264 48.0
240.10849 120.0
240.144775 1540.0
240.177933 228.0
240.404861 40.0
240.543762 204.0
240.729004 112.0
240.849457 204.0
240.977036 96.0
241.121979 444.0
241.15834 1692.0
241.430542 148.0
241.538788 100.0
242.012314 120.0
242.049469 132.0
242.080429 60.0
242.125809 264.0
242.163086 1808.0
242.597885 140.0
242.845947 164.0
243.126877 324.0
243.171158 812.0
243.215195 60.0
243.28038 160.0
243.625107 116.0
243.842621 64.0
244.126846 220.0
244.176865 332.0
244.203293 52.0
244.287277 160.0
244.35054 72.0
244.57045 136.0
244.744797 140.0
244.769714 76.0
244.959702 48.0
245.133789 220.0
245.143173 272.0
245.283783 76.0
245.408493 48.0
245.789047 68.0
245.842087 92.0
245.88266 116.0
246.09494 192.0
246.136444 288.0
246.316681 116.0
246.451019 160.0
246.497894 164.0
246.697937 176.0
247.057587 160.0
247.111465 452.0
247.145966 1500.0
247.404968 84.0
247.733795 72.0
247.921799 148.0
248.117737 308.0
248.14949 288.0
248.473679 176.0
248.552124 92.0
248.680801 236.0
248.859741 164.0
248.884857 84.0
248.950806 116.0
248.972794 88.0
249.076447 76.0
249.126572 712.0
249.162277 4236.0
249.27655 180.0
249.337234 48.0
249.374954 52.0
249.569855 164.0
249.698792 76.0
250.007126 128.0
250.092102 32.0
250.1315 468.0
250.166763 1356.0
250.214874 68.0
250.265244 32.0
250.343979 104.0
250.447906 64.0
250.476257 96.0
250.504608 56.0
250.608582 128.0
250.756699 56.0
250.785065 160.0
250.964752 52.0
251.002594 124.0
251.097 164.0
251.143234 4328.0
251.179077 2224.0
251.433609 88.0
251.52002 292.0
251.626038 124.0
251.69133 92.0
251.845261 48.0
252.006378 160.0
252.061279 148.0
252.097809 184.0
252.105148 172.0
252.148773 2344.0
252.1772 924.0
252.311554 144.0
252.436279 84.0
252.559616 112.0
252.613403 148.0
252.657684 104.0
252.736786 64.0
252.822235 144.0
252.933197 140.0
252.983658 180.0
253.008987 108.0
253.071945 240.0
253.156952 17784.0
253.22493 164.0
253.268661 48.0
253.357361 256.0
253.387344 60.0
253.528473 64.0
253.560165 68.0
253.591858 84.0
253.681412 108.0
253.730591 68.0
253.793121 124.0
253.826797 76.0
253.867691 148.0
253.891739 212.0
254.032623 136.0
254.086563 80.0
254.126846 164.0
254.161804 4732.0
254.318222 56.0
254.369003 48.0
254.403931 56.0
254.43689 156.0
254.667496 80.0
254.734192 28.0
255.016998 60.0
255.042435 72.0
255.168793 1292.0
255.379486 96.0
255.421631 132.0
255.515671 168.0
255.774048 36.0
255.809067 80.0
255.885468 168.0
255.93457 104.0
256.092468 44.0
256.181641 388.0
256.439758 32.0
256.484406 68.0
256.555542 76.0
256.739471 72.0
256.790497 168.0
257.117065 160.0
257.150909 296.0
257.178925 264.0
257.320221 56.0
257.527802 52.0
257.885681 56.0
258.136414 444.0
258.189423 144.0
258.243774 72.0
258.301361 32.0
258.600891 56.0
258.81665 60.0
258.919128 80.0
259.018402 124.0
259.060059 64.0
259.151245 312.0
259.204254 96.0
259.527985 184.0
260.14621 168.0
260.673981 128.0
261.034027 156.0
261.110779 320.0
261.162018 844.0
261.375 44.0
261.52948 40.0
261.709747 40.0
261.828918 132.0
262.057617 48.0
262.125031 300.0
262.166565 408.0
262.434753 28.0
262.854095 152.0
263.142609 888.0
263.180359 836.0
263.23822 172.0
263.444946 196.0
263.661438 60.0
263.949158 100.0
263.984741 80.0
264.101166 40.0
264.146973 704.0
264.173706 156.0
264.224091 44.0
264.279114 192.0
264.444153 28.0
264.651337 220.0
264.699921 196.0
264.73877 124.0
264.884521 208.0
265.056244 120.0
265.091888 64.0
265.155762 1592.0
265.247467 52.0
265.282806 196.0
265.412811 40.0
265.451721 196.0
265.475464 148.0
265.763123 180.0
265.854004 40.0
266.042267 92.0
266.097443 60.0
266.122711 216.0
266.164154 1712.0
266.279297 112.0
266.526215 72.0
266.626953 48.0
266.821991 196.0
266.847992 72.0
266.90976 184.0
267.007324 112.0
267.056122 108.0
267.171753 8620.0
267.298706 176.0
267.3815 112.0
267.430298 72.0
267.474304 124.0
267.562012 96.0
267.674469 76.0
267.830811 144.0
267.889435 120.0
267.94809 44.0
268.021545 192.0
268.075165 136.0
268.13147 112.0
268.138519 120.0
268.180054 10764.0
268.256195 76.0
268.301331 168.0
268.337372 92.0
268.366638 68.0
268.446411 196.0
268.534393 108.0
268.593903 220.0
268.658813 72.0
268.740387 236.0
268.810211 80.0
268.877441 112.0
268.913849 80.0
268.949249 72.0
268.974762 188.0
269.007538 80.0
269.063507 128.0
269.187073 8464.0
269.232147 192.0
269.305176 52.0
269.328033 72.0
269.411835 116.0
269.63031 164.0
269.70163 112.0
269.772461 80.0
269.818237 60.0
269.862885 76.0
269.965363 144.0
269.991547 44.0
270.045685 72.0
270.109283 44.0
270.153503 520.0
270.190277 2228.0
270.315399 40.0
270.456146 156.0
270.485596 48.0
270.577271 76.0
270.60672 60.0
270.642761 44.0
270.822876 72.0
270.983398 112.0
271.039093 68.0
271.088257 132.0
271.168091 308.0
271.190704 428.0
271.298035 52.0
271.370178 80.0
271.520996 132.0
271.662048 136.0
271.747345 124.0
272.017487 180.0
272.134674 168.0
272.169189 376.0
272.269318 124.0
272.32843 88.0
272.410553 84.0
272.676697 76.0
273.104156 96.0
273.163391 1056.0
273.268646 48.0
273.535217 184.0
273.89743 32.0
274.022614 108.0
274.095123 52.0
274.158234 156.0
274.375275 180.0
274.520355 88.0
274.764465 96.0
275.008667 148.0
275.051575 176.0
275.144012 28.0
275.358643 116.0
275.629547 60.0
275.705566 56.0
276.092377 64.0
276.153107 684.0
276.542328 128.0
276.578735 124.0
276.658173 36.0
277.095367 132.0
277.152496 144.0
277.6987 172.0
278.162018 336.0
278.50528 120.0
278.822845 152.0
278.900696 88.0
279.172424 2916.0
279.379547 152.0
280.142365 248.0
280.178864 652.0
280.311859 172.0
280.658539 40.0
281.069824 124.0
281.098846 188.0
281.150726 1260.0
281.187103 4416.0
281.244232 140.0
281.626343 68.0
281.67981 88.0
281.800079 120.0
281.830139 116.0
281.907013 148.0
282.01062 32.0
282.159973 1492.0
282.192535 668.0
282.997498 84.0
283.036011 148.0
283.118042 204.0
283.168396 712.0
283.241974 100.0
283.359253 48.0
283.771484 68.0
283.962646 96.0
284.133728 128.0
284.173706 176.0
284.217621 36.0
284.539825 56.0
284.59021 44.0
284.717804 164.0
284.751404 96.0
284.895844 100.0
285.077271 132.0
285.183105 880.0
285.272217 44.0
285.322662 112.0
285.46051 64.0
285.702698 108.0
285.763245 120.0
285.965179 64.0
286.154022 124.0
286.192352 828.0
286.244598 60.0
286.483734 152.0
286.57135 68.0
286.948822 64.0
287.076965 120.0
287.124176 64.0
287.19577 1640.0
287.242249 228.0
287.432434 80.0
287.566162 32.0
287.903809 48.0
287.940948 100.0
288.199554 392.0
288.518799 60.0
288.819763 84.0
289.185181 44.0
290.367676 176.0
291.171204 1640.0
291.216217 56.0
291.313019 20.0
291.664734 32.0
291.838104 120.0
292.172424 220.0
292.896545 132.0
293.151245 212.0
293.182739 100.0
293.824066 56.0
294.028564 40.0
294.157532 1308.0
294.325562 140.0
294.349457 68.0
294.561218 92.0
294.646637 48.0
294.817474 104.0
294.872162 52.0
294.933685 48.0
294.961029 48.0
295.157623 560.0
295.299561 140.0
295.395325 80.0
295.439789 56.0
295.922363 144.0
296.173676 452.0
296.228027 180.0
296.573273 100.0
296.768707 84.0
296.964172 32.0
297.005341 172.0
297.073944 56.0
297.183594 4496.0
297.626526 152.0
297.67804 60.0
297.990601 40.0
298.185059 1200.0
298.275848 56.0
298.746979 164.0
298.96228 64.0
299.025696 52.0
299.128052 60.0
299.166931 524.0
299.199249 352.0
299.493988 148.0
299.769623 52.0
299.893677 76.0
300.183533 188.0
300.20343 256.0
301.101288 48.0
301.176514 232.0
301.301636 64.0
301.906555 32.0
302.191772 148.0
302.979614 140.0
303.482178 68.0
304.394775 40.0
304.592743 68.0
306.206696 128.0
306.569031 60.0
307.21759 164.0
307.266418 80.0
307.454865 56.0
309.027374 128.0
309.097351 40.0
309.134644 164.0
309.182953 4104.0
309.303833 132.0
309.422882 76.0
309.667999 84.0
309.958771 80.0
310.032379 152.0
310.188049 1304.0
310.425018 64.0
310.593384 84.0
310.705627 60.0
310.817902 72.0
311.177094 136.0
311.253174 80.0
311.456879 84.0
311.811768 108.0
312.175385 368.0
312.462311 60.0
312.580658 120.0
313.05719 180.0
313.117065 76.0
313.176941 248.0
313.201599 48.0
313.254425 52.0
314.290985 100.0
314.315704 44.0
315.191162 240.0
315.332794 36.0
316.15332 112.0
316.195801 116.0
316.383392 128.0
317.212372 156.0
317.297455 92.0
318.766968 64.0
318.79184 84.0
322.723724 104.0
323.829529 48.0
323.965668 80.0
325.166901 44.0
325.960602 88.0
327.191559 3764.0
327.313141 80.0
328.200195 920.0
328.264496 108.0
328.358276 68.0
328.661285 68.0
329.215668 180.0
330.214722 200.0
331.666687 120.0
333.801514 116.0
334.20166 88.0
335.224884 140.0
336.965454 96.0
337.096985 76.0
339.179535 120.0
340.0672 56.0
341.228058 108.0
342.181 116.0
342.906708 72.0
343.79184 104.0
345.136505 180.0
345.204102 1296.0
345.259399 68.0
346.202423 584.0
347.106476 60.0
347.206604 300.0
347.529358 48.0
348.138153 136.0
348.301575 52.0
348.494751 68.0
348.728882 52.0
349.740601 88.0
350.634521 112.0
351.902863 68.0
353.237091 152.0
353.633728 52.0
359.685547 108.0
361.681427 112.0
365.552734 44.0
371.509583 60.0
372.119812 84.0
372.822784 56.0
379.644562 40.0
380.680756 64.0
383.559937 124.0
385.828064 36.0
387.742249 116.0
387.797119 80.0
396.250183 48.0
397.122314 84.0
400.743927 88.0
402.055908 56.0
403.997864 80.0
405.78009 52.0
411.081726 140.0
411.990234 64.0
415.297516 44.0
422.033508 52.0
427.044983 88.0
429.2276 116.0
430.168457 140.0
430.267517 164.0
430.742462 44.0
437.081787 60.0
437.439697 96.0
438.635284 184.0
438.827057 40.0
439.803253 80.0
446.263336 140.0
446.873199 128.0
447.273865 180.0
447.310913 100.0
447.946777 108.0
448.27121 152.0
448.760193 184.0
448.83609 128.0
449.19458 44.0
449.285889 112.0
450.093567 76.0
450.148468 52.0
451.416229 56.0
453.18988 96.0
458.744781 60.0
465.797241 56.0
467.900208 184.0
476.533264 100.0
476.993927 72.0
478.882416 76.0
491.182312 112.0
491.279358 148.0
495.036438 72.0
500.819122 124.0
503.352325 68.0
507.486938 64.0
511.814056 72.0
512.52124 148.0
529.370361 48.0
544.492981 92.0
546.608276 96.0
553.470215 40.0
561.13385 32.0
564.580994 40.0
571.064514 72.0
581.226257 44.0
581.312622 48.0
582.99823 52.0
596.507996 68.0
609.749756 96.0
611.047974 84.0
612.391907 76.0
620.114685 104.0
620.645142 56.0
621.101379 44.0
631.276855 48.0
632.888184 88.0
634.030396 264.0
639.127563 152.0
646.46991 100.0
649.388184 84.0
649.504822 52.0
658.902588 160.0
662.391602 68.0
665.807678 56.0
668.764038 52.0
676.481323 36.0
676.517578 132.0
677.884949 88.0
686.662354 80.0
690.839661 76.0
700.894287 44.0
702.560425 36.0
717.426025 232.0
717.884583 64.0
718.524658 64.0
720.553467 48.0
725.579163 104.0
728.8479 80.0
731.424072 152.0
733.201538 108.0
733.36322 72.0
747.118042 132.0
752.682983 100.0
759.463928 92.0
761.472839 84.0
769.08783 164.0
777.029175 128.0
780.784363 232.0
783.300232 76.0
789.691528 160.0
791.258423 124.0
793.00061 112.0
793.460327 148.0
801.250122 80.0
804.910767 92.0
808.783569 84.0
810.658264 136.0
813.857666 56.0
823.042358 180.0
827.645508 128.0
831.618408 124.0
832.089172 128.0
841.716614 168.0
848.20813 184.0
851.045166 144.0
856.046082 180.0
856.587769 180.0
862.762085 56.0
873.064636 176.0
873.399902 192.0
874.694519 192.0
874.812256 168.0
875.253784 108.0
875.342163 224.0
875.807434 92.0
876.708862 72.0
880.260315 100.0
881.90271 40.0
882.151001 52.0
883.694641 56.0
886.181458 156.0
887.420227 156.0
890.939758 48.0
891.046753 216.0
891.971436 160.0
893.918701 68.0
898.721619 132.0
904.650574 136.0
907.784241 116.0
908.732056 104.0
909.542236 156.0
911.434082 152.0
917.235901 252.0
919.974731 176.0
928.646179 192.0
929.938538 196.0
931.256165 144.0
935.171875 228.0
935.403198 188.0
936.054688 144.0
936.249573 164.0
938.681152 128.0
942.942444 196.0
943.810547 160.0
946.227417 48.0
953.846985 232.0
955.981262 156.0
957.391052 212.0
958.543091 52.0
959.332031 124.0
962.503357 132.0
962.620667 72.0
964.307312 164.0
965.148071 136.0
966.224304 64.0
970.535217 116.0
973.085388 52.0
974.582336 220.0
975.029785 172.0
976.117737 144.0
976.658813 68.0
978.426147 32.0
978.700134 160.0
981.342041 96.0
983.450684 144.0
983.975037 56.0
987.781006 76.0
989.827698 116.0
990.009277 108.0
991.719727 132.0
991.964172 88.0
993.06781 104.0
993.243469 40.0
996.539429 64.0
997.243286 104.0
998.689453 88.0
1001.503113 260.0
1004.490967 168.0
1004.743347 192.0
1007.887695 148.0
1008.753601 168.0
1009.025452 44.0
1014.356018 176.0
1014.920288 160.0
1015.231018 120.0
1015.573486 156.0
1016.880615 176.0
1016.924988 200.0
1017.617004 228.0
1024.135498 212.0
1024.339355 128.0
1025.116699 120.0
1032.803711 172.0
1032.98291 168.0
1034.000244 108.0
1036.209595 196.0
1040.378296 148.0
1043.687256 128.0
1043.989502 188.0
1045.011475 176.0
1050.269287 208.0
1054.233521 184.0
1054.854004 156.0
1056.535522 80.0
1056.852539 56.0
1057.791016 168.0
1059.235107 120.0
1060.336548 120.0
1061.90564 180.0
1062.05481 108.0
1062.398682 188.0
1062.930664 148.0
1063.553711 184.0
1063.767944 160.0
1066.496216 80.0
1066.821289 192.0
1067.035767 192.0
1067.900757 132.0
1069.10437 80.0
1069.416748 160.0
1070.640747 184.0
1072.771484 228.0
1073.769165 164.0
1074.277954 164.0
1076.190308 168.0
1076.464478 248.0
1077.450806 212.0
1080.458252 152.0
1081.106079 184.0
1082.998291 172.0
1083.260254 248.0
1083.515747 192.0
1083.88269 180.0
1084.846191 168.0
1085.128052 120.0
1087.240356 216.0
1087.542236 156.0
1088.165894 36.0
1091.905518 136.0
1092.260254 188.0
1092.549683 120.0
1094.050293 132.0
1094.405762 176.0
1094.5177 192.0
1095.051147 180.0
1095.334351 184.0
1095.426636 140.0
1097.173096 256.0
1101.171997 128.0
1101.89209 164.0
1102.28186 184.0
1102.929565 56.0
1103.551025 172.0
1103.65686 200.0
1103.901489 76.0
1104.417358 72.0
1104.701782 204.0
1105.158325 200.0
1106.786621 220.0
1107.005249 140.0
1110.033691 168.0
1110.285645 168.0
1111.174561 124.0
1112.136841 228.0
1112.223145 112.0
1112.46875 168.0
1113.292114 52.0
1114.195435 36.0
1114.374878 148.0
1114.447998 244.0
1115.484741 352.0
1116.342529 128.0
1116.934448 180.0
1118.711182 144.0
1120.875854 164.0
1120.989136 32.0
1122.002319 220.0
1122.222412 28.0
1122.655762 40.0
1123.07605 164.0
1123.48291 240.0
1124.403809 100.0
1124.497192 164.0
1124.69751 180.0
1124.777588 140.0
1126.099609 184.0
1126.547241 160.0
1127.248779 200.0
1128.233887 172.0
1129.72937 164.0
1130.117432 192.0
1130.539062 104.0
1131.29541 176.0
1132.192627 140.0
1133.030029 176.0
1133.760376 236.0
1134.263062 240.0
1134.397095 196.0
1134.685425 212.0
1135.034058 176.0
1135.248657 232.0
1136.79834 144.0
1136.892334 152.0
1138.624512 136.0
1138.825928 68.0
1138.920044 148.0
1139.753052 124.0
1140.566284 112.0
1141.447021 128.0
1141.709351 156.0
1142.119629 168.0
1142.46936 112.0
1144.407837 56.0
1144.502075 200.0
1145.128418 192.0
1146.58374 124.0
1146.785889 88.0
1146.907227 108.0
1147.257812 208.0
1148.370361 68.0
1148.6875 188.0
1151.326538 124.0
1152.434448 132.0
1152.562866 180.0
1152.860229 132.0
1153.468506 116.0
1154.313599 80.0
1154.71936 216.0
1154.834351 132.0
1154.881714 212.0
1156.485352 164.0
1158.015625 108.0
1158.36792 172.0
1159.553711 216.0
1160.950317 136.0
1163.13501 124.0
1163.866089 256.0
1164.866699 164.0
1166.416016 180.0
1167.116333 132.0
1168.279419 88.0
1168.993896 168.0
1169.041504 288.0
1169.119263 136.0
1170.258179 184.0
1170.355347 144.0
1170.40979 200.0
1170.518677 140.0
1174.649048 120.0
1180.789795 140.0
1180.974365 144.0
1182.154541 164.0
1183.436157 204.0
1184.160522 148.0
1184.246216 192.0
1185.027222 192.0
1185.767334 160.0
1186.404785 40.0
1190.281494 80.0
1190.840698 260.0
1191.146851 124.0
1192.981689 148.0
1193.050415 128.0
1193.469849 192.0
1193.744873 164.0
1194.033813 200.0
1194.102539 144.0
1195.230835 188.0
1196.318237 180.0
1196.490723 144.0
1197.289185 136.0
1197.764404 172.0
1199.301025 140.0
1199.914551 236.0
1202.218506 144.0
1202.687866 112.0
1204.124023 92.0
1204.973755 204.0
1205.574829 160.0
1205.754517 180.0
1205.975708 168.0
1207.028809 192.0
1208.403076 156.0
1208.652222 224.0
1209.281982 40.0
1209.441162 156.0
1209.981201 44.0
1210.299683 192.0
1212.287842 172.0
1213.182007 164.0
1213.251221 148.0
1213.86145 208.0
1213.97937 204.0
1214.048706 144.0
1214.402466 176.0
1214.631348 124.0
1215.880249 140.0
1216.900757 192.0
1217.039551 124.0
1217.699341 68.0
1219.700439 136.0
1220.340088 128.0
1220.639038 104.0
1220.757324 148.0
1221.341553 64.0
1222.197266 100.0
1222.350342 196.0
1222.670532 168.0
1222.88623 120.0
1223.248047 156.0
1224.285645 132.0
1225.365356 180.0
1226.187622 104.0
1226.912598 136.0
1227.031128 132.0
1227.149658 160.0
1227.505371 208.0
1227.700562 168.0
1227.819092 100.0
1228.112061 116.0
1228.872437 128.0
1229.5354 220.0
1229.919312 156.0
1231.511353 192.0
1232.671143 124.0
1232.796875 96.0
1233.090454 52.0
1234.663574 144.0
1235.083252 168.0
1235.537964 144.0
1236.118652 148.0
1236.636597 140.0
1236.902588 140.0
1237.126587 176.0
1237.623657 168.0
1238.043823 144.0
1238.169922 176.0
1238.331055 156.0
1238.401001 148.0
1238.471069 180.0
1239.369751 176.0
1239.529053 164.0
1241.702271 152.0
1241.996948 84.0
1242.088135 108.0
1242.993164 344.0
1243.119507 32.0
1243.89856 140.0
1244.474243 116.0
1244.677856 148.0
1245.190552 180.0
1245.260864 252.0
1245.464478 168.0
1247.769531 128.0
1249.056519 204.0
1249.429321 224.0
1249.668579 216.0
1250.210449 164.0
1250.31604 188.0
1250.928345 164.0
1251.139526 168.0
1251.209961 168.0
1251.435303 208.0
1251.82959 40.0
1252.308594 208.0
1252.569214 200.0
1253.337158 116.0
1253.58374 64.0
1254.105347 84.0
1254.415527 208.0
1254.563477 128.0
1255.071167 164.0
1255.755249 120.0
1256.30542 44.0
1256.545288 144.0
1257.081543 192.0
1257.695679 180.0
1258.041504 80.0
1259.150146 224.0
1259.651611 192.0
1260.43457 132.0
1260.633789 128.0
1263.306519 84.0
1264.438721 236.0
1264.691284 152.0
1266.286621 200.0
1266.520386 52.0
1267.59729 216.0
1267.96582 164.0
1268.710083 132.0
1268.816406 200.0
1269.709961 184.0
1270.880371 128.0
1271.398438 180.0
1271.810059 152.0
1272.292847 184.0
1272.711792 184.0
1273.741577 184.0
1274.317017 136.0
1274.615479 124.0
1275.589233 144.0
1276.05835 240.0
1276.847778 128.0
1277.978882 84.0
1278.569458 144.0
1279.395264 176.0
1279.793945 120.0
1280.755371 188.0
1282.080566 160.0
1283.007324 204.0
1283.52771 108.0
1284.005615 116.0
1284.133911 164.0
1285.225464 236.0
1285.325317 184.0
1285.425293 216.0
1285.496582 128.0
1287.317017 116.0
1287.895508 160.0
1288.752808 260.0
1288.910034 172.0
1288.988647 100.0
1290.139404 88.0
1291.090454 184.0
1291.413452 240.0
1292.007812 256.0
1292.679321 164.0
1293.322754 104.0
1293.967041 60.0
1294.568604 208.0
1295.213135 148.0
1295.750488 144.0
1297.327148 148.0
1297.377441 124.0
1297.585327 116.0
1297.943848 92.0
1298.18042 160.0
1298.30957 188.0
1298.940796 180.0
1299.328125 164.0
1299.952393 184.0
1300.217896 244.0
1301.057861 192.0
1301.435669 208.0
1301.754272 180.0
1301.926636 116.0
1302.120605 148.0
1302.644897 68.0
1303.047241 128.0
1304.369629 168.0
1305.196411 212.0
1306.023438 268.0
1306.174561 184.0
1306.541382 184.0
1306.922729 144.0
1307.310181 124.0
1307.462524 176.0
1307.584839 168.0
1307.973511 108.0
1309.175903 140.0
1310.450928 188.0
1311.113892 152.0
1311.423828 172.0
1311.986084 216.0
1313.673706 180.0
1314.063232 188.0
1314.460205 144.0
1314.561157 148.0
1315.758179 188.0
1315.911011 112.0
1316.14209 168.0
1316.337036 152.0
1316.87146 108.0
1317.210938 188.0
1318.713989 136.0
1318.937988 196.0
1319.162109 296.0
1319.328369 172.0
1319.884033 136.0
1320.470947 176.0
1321.136475 168.0
1321.346191 116.0
1321.925171 216.0
1322.301514 172.0
1322.840576 144.0
1323.07605 184.0
1323.210205 196.0
1323.322144 176.0
1324.017334 188.0
1324.604126 176.0
1324.777954 200.0
1325.046021 216.0
1325.444458 208.0
1326.959473 136.0
1327.024658 204.0
1327.590332 108.0
1328.177734 164.0
1329.534546 136.0
1332.337524 164.0
1333.238525 220.0
1333.418335 188.0
1333.630981 136.0
1334.270752 180.0
1335.172363 136.0
1336.26355 156.0
1336.7948 244.0
1337.551758 164.0
1337.682739 136.0
1338.631226 204.0
1340.268311 104.0
1340.568359 200.0
1340.734741 200.0
1340.887695 236.0
1341.332397 140.0
1341.529175 140.0
1342.0979 208.0
1342.396851 116.0
1342.622925 48.0
1343.10437 104.0
1344.826416 176.0
1345.709717 164.0
1345.870361 156.0
1346.673706 176.0
1346.980469 120.0
1347.323853 224.0
1347.762207 208.0
1348.449219 132.0
1348.953613 76.0
1349.702148 196.0
1349.845581 128.0
1350.394043 144.0
1351.418213 112.0
1351.542725 92.0
1351.630493 192.0
1352.764893 132.0
1352.940674 128.0
1353.087036 172.0
1353.152954 148.0
1354.441895 168.0
1356.031982 152.0
1356.442383 336.0
1356.493774 84.0
1357.300171 156.0
1357.967651 68.0
1358.239014 132.0
1358.635132 124.0
1359.449219 212.0
1359.853271 220.0
1360.477173 68.0
1360.690186 180.0
1361.08667 152.0
1361.850464 108.0
1362.048706 248.0
1363.217041 152.0
1363.4375 112.0
1363.525635 116.0
1364.201904 216.0
1364.525391 96.0
1364.819458 188.0
1365.30481 188.0
1365.782959 188.0
1366.268433 168.0
1366.533325 172.0
1366.636353 160.0
1366.724609 176.0
1366.776123 76.0
1367.055786 108.0
1367.460571 112.0
1367.629883 136.0
1367.799194 40.0
1367.931641 36.0
1368.159912 132.0
1368.27771 148.0
1369.271851 148.0
1370.148438 156.0
1370.561035 228.0
1370.95166 208.0
1371.67395 192.0
1373.849365 220.0
1374.233032 156.0
1374.535645 120.0
1374.764404 172.0
1375.185059 172.0
1375.421265 148.0
1375.4729 156.0
1375.915894 152.0
1376.034058 148.0
1376.248169 152.0
1376.528809 124.0
1377.799194 216.0
1377.924805 248.0
1378.013428 164.0
1378.294312 236.0
1378.427246 108.0
1378.479004 128.0
1379.447266 200.0
1379.565552 128.0
1380.171753 184.0
1380.230957 208.0
1381.014893 52.0
1381.133301 120.0
1381.562378 108.0
1382.242676 168.0
1382.401001 172.0
1383.175537 180.0
1383.375488 148.0
1383.597534 224.0
1384.049194 136.0
1385.189819 212.0
1385.740112 116.0
1386.019653 136.0
1386.575439 152.0
1386.664307 128.0
1387.207642 176.0
1387.383423 136.0
1387.776367 132.0
1388.29541 176.0
1388.510498 228.0
1388.755249 352.0
1388.963013 152.0
1389.222656 72.0
1389.326416 216.0
1389.734497 48.0
1389.831055 164.0
1389.957153 160.0
1390.127808 88.0
1390.372681 176.0
1390.691895 184.0
1391.085327 180.0
1391.389648 136.0
1391.708984 204.0
1391.760986 192.0
1392.61499 172.0
1393.016113 64.0
1393.744263 216.0
1393.944824 180.0
1394.279297 196.0
1394.353638 68.0
1395.37207 136.0
1395.94458 92.0
1395.996704 132.0
1396.316406 216.0
1397.424927 140.0
1397.488159 204.0
1397.72998 176.0
1397.856445 152.0
1398.221069 208.0
1398.682617 172.0
1398.987793 76.0
1399.650513 188.0
1399.739868 200.0
1399.993042 48.0
1400.089844 112.0
1400.335571 180.0
1400.96875 144.0
1401.862915 180.0
1402.533691 88.0
1402.7052 180.0
1403.174805 72.0
1403.24939 144.0
1404.882812 64.0
1405.153687 236.0
1406.16626 192.0
1406.718628 132.0
1407.248657 148.0
1407.920776 148.0
1408.025269 140.0
1408.099976 92.0
1408.988892 136.0
1409.130859 152.0
1409.265381 252.0
1409.990234 148.0
1410.902222 128.0
1411.178833 168.0
1411.238647 192.0
1411.403198 200.0
1412.70459 160.0
1413.04126 104.0
1413.632446 220.0
1414.15332 256.0
1414.380859 144.0
1414.590454 140.0
1414.815063 80.0
1414.897461 172.0
1415.12207 176.0
1415.301758 124.0
1415.488892 140.0
1415.638672 180.0
1415.803467 136.0
1416.078247 168.0
1416.470093 148.0
1416.530029 100.0
1416.60498 184.0
1417.198486 192.0
1417.279175 176.0
1418.163574 188.0
1418.433472 192.0
1419.850586 128.0
1420.038086 148.0
1420.37561 116.0
1421.328491 168.0
1422.424194 216.0
1423.542969 92.0
1423.663086 168.0
1423.730713 124.0
1423.918457 204.0
1424.031128 136.0
1424.39917 216.0
1424.519409 204.0
1424.699707 172.0
1425.018921 176.0
1425.135498 164.0
1425.556274 116.0
1425.691528 128.0
1426.638672 156.0
1427.459961 196.0
1427.563477 136.0
1427.85022 156.0
1428.330688 172.0
1428.8573 176.0
1429.466797 52.0
1429.737671 104.0
1430.076416 64.0
1430.48291 176.0
1430.896973 144.0
1431.326172 168.0
1431.619873 192.0
1431.702637 224.0
1431.951172 220.0
1433.578613 64.0
1434.113647 284.0
1434.17395 108.0
1434.859985 176.0
1435.832764 136.0
1435.923218 132.0
1436.300415 204.0
1436.858643 180.0
1437.198242 180.0
1437.258545 76.0
1437.590576 128.0
1438.239624 176.0
1438.775635 144.0
1438.997681 224.0
1439.379761 192.0
1439.946167 120.0
1440.331299 80.0
1440.739258 96.0
1441.012207 168.0
1441.245483 192.0
1441.67627 200.0
1441.819824 56.0
1442.296021 116.0
1443.883911 172.0
1443.974609 164.0
1445.093872 192.0
1446.062866 148.0
1446.191528 124.0
1446.441406 144.0
1446.585205 36.0
1447.448364 92.0
1447.873291 176.0
1448.039062 184.0
1448.19812 124.0
1449.167847 128.0
1450.099976 188.0
1450.197021 176.0
1450.660889 228.0
1451.540405 68.0
1451.692017 84.0
1451.790649 188.0
1451.919556 172.0
1452.215332 136.0
1453.034668 224.0
1453.565796 108.0
1453.649292 160.0
1453.884521 144.0
1454.210938 176.0
1454.575195 164.0
1455.311646 204.0
1456.525391 176.0
1456.739502 180.0
1456.800293 180.0
1457.005371 96.0
1457.339722 104.0
1457.62854 60.0
1457.803223 164.0
1458.525269 124.0
1458.738159 100.0
1459.019409 132.0
1459.209473 100.0
1459.954712 240.0
1460.004761 196.0
1460.099243 120.0
1460.897949 188.0
1461.019653 152.0
1461.11853 96.0
1461.323975 176.0
1461.605469 184.0
1461.681641 44.0
1462.351318 84.0
1463.775024 168.0
1464.84668 132.0
1465.108032 272.0
1465.847046 116.0
1466.266235 144.0
1466.693115 64.0
1467.539307 52.0
1468.004517 168.0
1468.210327 76.0
1468.53833 164.0
1468.706177 256.0
1468.843506 68.0
1469.133301 188.0
1469.560547 180.0
1469.614014 180.0
1469.873413 92.0
1470.064209 164.0
1470.318848 184.0
1470.445801 104.0
1471.109985 152.0
1471.331299 56.0
1471.400024 72.0
1472.125488 88.0
1472.178955 112.0
1472.30481 256.0
1473.660889 100.0
1474.18811 72.0
1474.509033 76.0
1474.677246 156.0
1474.860718 160.0
1475.219971 176.0
1475.380493 184.0
1475.632812 96.0
1475.808716 144.0
1476.124146 160.0
1476.542847 144.0
1476.68811 200.0
1476.741699 140.0
1477.01709 104.0
1477.422485 148.0
1477.651978 116.0
1477.759155 168.0
1477.856567 224.0
1478.019287 212.0
1478.287109 124.0
1479.072876 156.0
1479.220947 152.0
1479.550171 104.0
1479.733887 120.0
1480.476685 160.0
1480.72937 152.0
1482.200317 144.0
1483.311646 160.0
1484.024658 96.0
1484.599731 96.0
1485.786621 236.0
1486.064941 200.0
1487.039551 208.0
1487.500122 168.0
1487.715088 204.0
1487.791748 128.0
1487.891602 92.0
1488.275513 172.0
1488.536621 220.0
1488.820801 184.0
1488.882202 140.0
1489.642578 144.0
1490.111206 224.0
1490.195801 136.0
1490.702881 132.0
1491.54834 72.0
1491.640625 72.0
1492.201904 136.0
1492.809326 172.0
1492.959229 144.0
1493.455322 164.0
1493.647705 148.0
1493.80542 176.0
1493.870728 288.0
1494.209229 116.0
1494.586304 120.0
1494.763306 124.0
1494.878662 176.0
1495.232788 132.0
1495.456909 128.0
1495.625244 232.0
1496.12561 128.0
1496.89563 176.0
1497.688965 156.0
1497.981689 136.0
1498.104858 140.0
1498.613403 140.0
1498.883057 128.0
1499.060303 192.0
1499.407104 172.0
1499.497681 200.0
1500.247314 132.0
1500.59436 128.0
1501.064697 132.0
1501.511963 156.0
1502.368164 212.0
1502.645996 96.0
1502.699951 120.0
1502.877441 52.0
1503.496338 212.0
1503.618286 124.0
1503.849854 184.0
1505.30127 144.0
