>compound MLS001201765-01!4-Amino-N-(4-methyl-pyrimidin-2-yl)-benzenesulfonamide
>formula C11H12N4O2S
>ionization [M+H]+
>parentmass 265.0753730760905
#inchi InChI=1S/C11H12N4O2S/c1-8-6-7-13-11(14-8)15-18(16,17)10-4-2-9(12)3-5-10/h2-7H,12H2,1H3,(H,13,14,15)
#inchikey QPPBRPIAZZHUNT
#Ion_Source LC-ESI
#Instrument qTof
#Compound_Source NIH Pharmacologically Active Library
#PI Dorrestein
#Data_Collector VP/LMS
#Scan -1
#Precursor_MZ 265.073
#ExactMass 264.068
#Charge 1
#CAS_Number N/A
#Pubmed_ID N/A
#Smiles Cc1ccnc(NS(=O)(=O)c2ccc(N)cc2)n1
#INCHI_AUX N/A
#Library_Class 1
#SpectrumID CCMSLIB00000085957
#IonMode Positive
#UpdateWorkflowName UPDATE-SINGLE-ANNOTATED-GOLD
#LibraryQualityString Gold
#TaskID d252d724072548979f1f6f1ced849daf
##Scan# 1190
#SpectrumFile p4-H07_GH7_01_18415.mzXML
#LibraryName Pharm_Active_Library.mgf
#MQScore -1
#Organism Pharm_Active_Library
#TIC_Query 0
#RT_Query -1
#MZErrorPPM -1
#SharedPeaks 0
#MassDiff 0
#LibMZ -1
#SpecMZ 265.073
#SpecCharge 0
#internalFilename spec-00000.mgf

>collision 10
45.015537 40.0
45.301765 140.0
45.498909 120.0
45.590248 144.0
45.606377 140.0
45.669575 56.0
45.926846 144.0
45.952477 44.0
46.824127 208.0
47.470554 136.0
47.74247 128.0
48.60865 180.0
49.110893 244.0
49.265842 132.0
49.45602 168.0
49.732151 136.0
49.851532 236.0
50.154129 120.0
50.508556 172.0
50.538265 188.0
50.674194 152.0
50.764912 200.0
50.823071 232.0
51.194088 48.0
51.205482 100.0
51.286697 256.0
51.425732 160.0
51.642235 156.0
52.479481 188.0
52.917278 204.0
53.050564 152.0
53.559174 176.0
53.658268 176.0
53.905087 212.0
53.919563 176.0
54.108265 204.0
54.13023 140.0
54.523392 156.0
54.570431 144.0
55.154232 132.0
55.226685 180.0
55.361366 204.0
55.570377 216.0
55.867516 84.0
56.011917 116.0
56.456699 64.0
56.916756 192.0
57.060997 112.0
57.187363 204.0
57.401295 116.0
57.521473 104.0
57.851547 136.0
58.069752 232.0
58.876396 200.0
59.361523 124.0
60.408882 176.0
60.650452 160.0
61.695004 120.0
61.840481 236.0
62.023743 168.0
62.19001 40.0
62.345497 68.0
62.400517 124.0
62.614529 180.0
63.254009 204.0
63.295174 144.0
63.890377 200.0
64.110115 148.0
64.170685 176.0
64.40049 72.0
64.721939 152.0
64.753967 156.0
65.689476 132.0
65.828278 176.0
66.316872 164.0
66.771492 136.0
67.587166 180.0
67.634628 128.0
68.343605 168.0
68.4506 144.0
68.47036 180.0
68.560974 172.0
68.950462 200.0
68.993439 192.0
69.20356 240.0
69.218964 188.0
69.269806 176.0
69.42395 216.0
69.44883 204.0
69.769325 236.0
70.043907 164.0
70.258957 116.0
70.48938 68.0
70.698418 144.0
70.755325 112.0
70.837387 144.0
70.953026 216.0
71.149315 168.0
71.229927 160.0
71.862938 140.0
71.908501 180.0
72.980843 176.0
74.110809 88.0
74.223938 104.0
74.247948 76.0
74.796051 68.0
75.532875 220.0
76.030151 156.0
76.464645 180.0
76.705017 192.0
77.108215 148.0
77.428391 208.0
77.714127 216.0
77.861588 152.0
78.869415 172.0
79.629539 124.0
80.050003 196.0
80.13475 136.0
80.222084 176.0
81.228882 204.0
81.458656 224.0
81.494583 192.0
81.61142 192.0
82.418945 152.0
82.491234 96.0
82.590691 180.0
82.907539 168.0
83.119713 204.0
83.150566 168.0
83.446663 108.0
83.812515 148.0
83.901825 172.0
84.073288 196.0
84.371025 184.0
84.469772 152.0
85.179192 156.0
85.519363 140.0
86.636566 84.0
87.146774 284.0
87.951302 196.0
88.375526 156.0
88.909599 180.0
89.116158 196.0
89.176292 60.0
90.449509 236.0
90.563118 132.0
90.712814 156.0
91.044861 196.0
91.200661 228.0
92.051048 1232.0
92.07711 160.0
92.101936 32.0
92.122955 184.0
92.781288 260.0
92.900192 156.0
93.045776 836.0
93.518944 144.0
94.064903 168.0
94.390961 76.0
94.731606 188.0
95.548927 80.0
95.786438 180.0
95.885811 224.0
96.186188 188.0
96.852982 172.0
97.988464 256.0
98.177704 68.0
98.465843 200.0
99.574966 68.0
99.723106 188.0
101.056122 184.0
101.494781 224.0
101.577011 56.0
101.946442 220.0
102.921425 184.0
102.943642 120.0
103.076965 156.0
103.459236 196.0
103.603027 112.0
104.301109 192.0
104.630669 108.0
105.978683 176.0
106.128311 168.0
106.198044 136.0
106.349876 180.0
106.417625 84.0
106.493607 64.0
106.682655 180.0
107.063309 204.0
107.498299 52.0
107.760536 148.0
107.797729 152.0
107.855598 216.0
107.909348 200.0
107.98436 176.0
108.001465 184.0
108.017654 152.0
108.045097 16208.0
108.089874 160.0
108.123764 92.0
108.142868 68.0
108.183418 68.0
108.219711 116.0
108.271477 124.0
108.288048 76.0
108.329475 48.0
108.404068 72.0
108.497337 44.0
108.53466 96.0
108.845917 44.0
108.997551 104.0
109.050369 1384.0
109.503082 68.0
109.611412 132.0
109.788612 156.0
109.865791 72.0
109.934647 68.0
109.990997 56.0
110.071671 10008.0
110.155968 44.0
110.241631 48.0
110.266708 148.0
110.293884 92.0
110.371239 52.0
110.393913 52.0
110.413063 76.0
110.590904 68.0
110.745842 52.0
110.919762 72.0
110.986855 56.0
111.073997 1100.0
111.270103 44.0
111.423424 68.0
111.642029 88.0
111.692513 80.0
111.894539 64.0
111.953491 72.0
111.978767 96.0
112.058815 120.0
112.290703 44.0
112.415176 204.0
112.486938 48.0
113.324432 84.0
113.75708 112.0
115.45742 164.0
115.502342 188.0
115.757027 80.0
116.048447 212.0
116.329498 184.0
117.254417 104.0
118.046722 148.0
118.889435 124.0
119.121765 44.0
120.861588 40.0
121.010429 128.0
121.31057 36.0
122.32988 72.0
125.090416 148.0
127.14904 140.0
127.211891 196.0
127.232094 40.0
127.566826 156.0
128.028091 176.0
130.06752 192.0
130.471878 192.0
132.056717 160.0
132.086456 100.0
132.461868 144.0
132.780472 84.0
132.890594 184.0
132.91124 32.0
133.58902 212.0
134.06987 176.0
134.917374 172.0
135.056122 144.0
135.980606 84.0
136.92688 196.0
138.991135 184.0
140.044357 200.0
143.073105 220.0
143.850266 44.0
144.053253 148.0
144.543381 60.0
146.083725 216.0
148.542938 168.0
150.00441 172.0
151.884872 128.0
152.024719 108.0
153.727676 156.0
154.120316 28.0
155.05574 292.0
155.944275 184.0
156.010696 2648.0
157.012802 416.0
157.072235 176.0
158.010849 168.0
158.071991 200.0
158.873398 40.0
161.617157 44.0
162.062805 136.0
163.024536 164.0
170.207443 64.0
172.016159 2336.0
172.045639 216.0
172.095245 216.0
172.121353 60.0
172.186646 44.0
172.207535 80.0
173.023529 260.0
174.009216 304.0
174.584671 68.0
177.190002 132.0
178.761917 80.0
181.039078 176.0
181.77092 220.0
182.071976 1024.0
183.070633 168.0
184.075195 344.0
189.343018 176.0
190.027344 808.0
191.031113 208.0
192.027374 188.0
194.865723 92.0
195.098801 148.0
198.087006 156.0
198.732834 136.0
198.786148 168.0
199.098206 2472.0
199.2686 92.0
199.929916 156.0
200.095947 500.0
201.11084 132.0
203.29863 116.0
204.825439 48.0
210.080078 188.0
215.06839 132.0
217.101807 120.0
246.799271 100.0
251.139435 172.0
257.139404 164.0
265.081268 268.0
290.524353 172.0
293.626556 40.0
337.254059 76.0
347.462311 72.0
359.741699 52.0
413.711639 100.0
493.281372 60.0
570.831787 84.0
680.866455 72.0
683.002686 152.0
703.745972 80.0
707.912842 112.0
772.610291 212.0
784.193909 132.0
784.23291 60.0
814.955566 104.0
854.679138 72.0
901.385193 164.0
909.158264 124.0
910.88147 172.0
916.428406 164.0
931.049438 140.0
940.737 176.0
974.519287 136.0
1001.684387 92.0
1006.016724 104.0
1016.929749 60.0
1019.139709 168.0
1023.585999 160.0
1024.03186 132.0
1033.345581 92.0
1037.226562 148.0
1049.13208 180.0
1050.783203 208.0
1057.872803 176.0
1058.235352 276.0
1059.789917 204.0
1062.188599 124.0
1074.764648 208.0
1084.14209 276.0
1092.625732 172.0
1097.453491 176.0
1109.513306 148.0
1114.743652 152.0
1120.499268 52.0
1129.18396 232.0
1129.384644 76.0
1131.291748 156.0
1134.809082 160.0
1139.467041 196.0
1141.133911 160.0
1142.687622 212.0
1145.407349 164.0
1145.643188 156.0
1154.891235 136.0
1156.345947 136.0
1157.07019 48.0
1160.918945 200.0
1166.438965 160.0
1172.156006 160.0
1175.040283 188.0
1182.714722 196.0
1190.242432 152.0
1191.423828 220.0
1192.000977 168.0
1193.719482 172.0
1195.391113 168.0
1196.946899 176.0
1199.764893 160.0
1202.248047 64.0
1208.259644 156.0
1213.897949 136.0
1215.986084 192.0
1229.215942 60.0
1235.868164 180.0
1240.546631 164.0
1241.409058 244.0
1241.556396 212.0
1247.025635 180.0
1250.190552 156.0
1253.187256 180.0
1257.195557 108.0
1258.607422 296.0
1263.257935 52.0
1265.189941 216.0
1267.938354 180.0
1268.831543 84.0
1270.214355 216.0
1277.961792 192.0
1278.748169 60.0
1285.554321 124.0
1293.76001 192.0
1297.987305 160.0
1299.06311 188.0
1299.457764 164.0
1302.451294 208.0
1304.226196 128.0
1308.02417 148.0
1309.557861 156.0
1311.337646 148.0
1313.428589 204.0
1315.810059 236.0
1319.993652 200.0
1322.236328 136.0
1324.850342 92.0
1330.674194 200.0
1334.05249 148.0
1334.277832 232.0
1340.209717 204.0
1340.333618 156.0
1342.710205 200.0
1345.315186 196.0
1346.359253 148.0
1350.371704 164.0
1359.280273 196.0
1359.434326 184.0
1363.576416 188.0
1364.63501 132.0
1374.438843 168.0
1379.054565 188.0
1383.981567 196.0
1387.397217 208.0
1392.717896 156.0
1396.203735 144.0
1400.244995 160.0
1402.070312 84.0
1404.79187 188.0
1409.914062 180.0
1411.192383 148.0
1413.137085 188.0
1413.915283 248.0
1414.087402 176.0
1414.783569 204.0
1416.109009 188.0
1417.959595 292.0
1419.399048 180.0
1422.219971 164.0
1422.272461 244.0
1425.449341 148.0
1429.713379 104.0
1440.420044 176.0
1441.084839 116.0
1441.349365 192.0
1441.734741 136.0
1443.604736 216.0
1443.904541 212.0
1444.592896 160.0
1448.415649 144.0
1455.787842 196.0
1460.408813 100.0
1464.549561 240.0
1464.778076 56.0
1467.994385 224.0
1470.504395 196.0
1474.177979 148.0
1474.712891 64.0
1475.798462 148.0
1482.925659 140.0
1486.146606 116.0
1495.368408 172.0
1497.393311 156.0
1498.726074 196.0
1502.820435 164.0
1503.854492 148.0
1504.448853 152.0
