>compound MLS000028860-01!4-PREGNEN-20ALPHA-OL-3-ONE
>formula C21H32O2
>ionization [M+H]+
>parentmass 317.246765
#inchi InChI=1S/C21H32O2/c1-13(22)17-6-7-18-16-5-4-14-12-15(23)8-10-20(14,2)19(16)9-11-21(17,18)3/h12-13,16-19,22H,4-11H2,1-3H3/t13-,16-,17+,18-,19-,20-,21+/m0/s1
#inchikey RWBRUCCWZPSBFC
#Ion_Source LC-ESI
#Instrument qTof
#Compound_Source NIH Pharmacologically Active Library
#PI Dorrestein
#Data_Collector VP/LMS
#Scan -1
#Precursor_MZ 317.253
#ExactMass 316.24
#Charge 1
#CAS_Number N/A
#Pubmed_ID N/A
#Smiles C[C@H](O)[C@H]1CC[C@H]2[C@@H]3CCC4=CC(=O)CC[C@]4(C)[C@H]3CC[C@]12C
#INCHI_AUX N/A
#Library_Class 1
#SpectrumID CCMSLIB00000085469
#IonMode Positive
#UpdateWorkflowName UPDATE-SINGLE-ANNOTATED-GOLD
#LibraryQualityString Gold
#TaskID d252d724072548979f1f6f1ced849daf
##Scan# 2279
#SpectrumFile p4-B05_GB5_01_18341.mzXML
#LibraryName Pharm_Active_Library.mgf
#MQScore -1
#Organism Pharm_Active_Library
#TIC_Query 0
#RT_Query -1
#MZErrorPPM -1
#SharedPeaks 0
#MassDiff 0
#LibMZ -1
#SpecMZ 317.253
#SpecCharge 0
#internalFilename spec-00000.mgf

>collision 10
44.983578 212.0
45.006275 96.0
45.034317 120.0
45.143799 152.0
45.184032 144.0
45.206779 200.0
45.240238 124.0
45.319256 128.0
45.442604 168.0
45.629288 72.0
45.734215 132.0
45.793457 148.0
45.84465 168.0
45.883739 140.0
45.97681 204.0
46.018654 144.0
46.171349 132.0
46.236782 196.0
46.255234 100.0
46.370361 256.0
46.390694 44.0
46.4585 140.0
46.467995 188.0
46.478848 228.0
46.602406 176.0
46.77512 108.0
46.848652 144.0
47.07233 168.0
47.088718 148.0
47.101013 188.0
47.133801 124.0
47.403366 168.0
47.425293 176.0
47.438999 132.0
47.622868 188.0
47.706688 212.0
47.716312 208.0
47.745186 152.0
47.845631 168.0
47.926891 100.0
47.977886 260.0
48.02063 220.0
48.077194 92.0
48.193188 132.0
48.208385 108.0
48.320385 208.0
48.551704 204.0
48.647442 176.0
48.694653 168.0
48.74744 136.0
48.862846 196.0
48.949142 184.0
48.970032 176.0
49.016003 188.0
49.043877 180.0
49.077332 212.0
49.22105 192.0
49.279713 104.0
49.430721 140.0
49.924503 140.0
50.007511 116.0
50.059597 124.0
50.15963 132.0
50.206154 148.0
50.314804 124.0
50.362816 208.0
50.468803 156.0
50.497086 204.0
50.512642 188.0
50.598969 180.0
50.691032 188.0
50.753399 72.0
50.821114 184.0
50.867844 144.0
50.888191 136.0
50.90097 160.0
50.912331 124.0
51.016052 140.0
51.316002 156.0
51.417721 216.0
51.447693 132.0
51.556248 160.0
51.573399 100.0
51.785152 128.0
51.859653 180.0
51.952858 92.0
51.964336 216.0
52.097851 92.0
52.148144 188.0
52.171143 140.0
52.23893 144.0
52.322475 184.0
52.352432 164.0
52.384117 68.0
52.433105 180.0
52.460491 160.0
52.532597 164.0
52.666836 192.0
52.753536 152.0
52.77956 180.0
52.817158 344.0
52.85622 144.0
52.906876 200.0
53.089439 144.0
53.106846 136.0
53.269413 124.0
53.510822 136.0
53.541401 160.0
53.719219 156.0
53.735268 40.0
53.768826 204.0
53.79364 92.0
54.047935 160.0
54.162125 56.0
54.177727 172.0
54.238319 60.0
54.348309 148.0
54.590675 188.0
54.74519 172.0
54.808529 188.0
54.830635 108.0
54.896973 164.0
55.016483 60.0
55.189342 136.0
55.202648 172.0
55.356544 164.0
55.686565 156.0
55.868603 144.0
55.895382 168.0
55.928123 156.0
56.018955 80.0
56.045078 180.0
56.135204 232.0
56.150986 220.0
56.205315 148.0
56.279945 116.0
56.375542 232.0
56.397961 144.0
56.427856 152.0
56.463745 108.0
56.589439 152.0
56.655338 160.0
56.673313 40.0
56.857758 164.0
56.907291 156.0
56.928314 148.0
56.955349 196.0
57.02747 136.0
57.15078 32.0
57.179371 164.0
57.289288 196.0
57.332981 152.0
57.360111 204.0
57.432487 128.0
57.450588 208.0
57.556236 136.0
57.573227 224.0
57.654423 232.0
57.689186 160.0
57.961613 156.0
58.019203 100.0
58.044979 160.0
58.072277 188.0
58.192059 188.0
58.25029 172.0
58.61195 188.0
58.770523 224.0
58.787308 136.0
58.804096 204.0
58.852947 72.0
58.894176 176.0
58.917091 176.0
58.965988 156.0
58.98127 128.0
59.040897 120.0
59.079136 136.0
59.123508 180.0
59.167896 164.0
59.249065 160.0
59.264385 144.0
59.357887 168.0
59.565075 220.0
59.626534 256.0
59.644974 64.0
59.797245 108.0
59.814175 32.0
60.057629 216.0
60.128597 96.0
60.153294 176.0
60.177994 184.0
60.32476 68.0
60.442299 204.0
60.598679 148.0
60.642071 168.0
60.680824 116.0
60.709496 252.0
60.814228 60.0
60.863907 224.0
60.899624 204.0
60.969536 204.0
61.045708 108.0
61.163948 200.0
61.205982 40.0
61.307236 176.0
61.318142 112.0
61.435085 168.0
61.474094 132.0
61.553703 188.0
61.622429 124.0
61.702133 184.0
61.831963 92.0
62.132812 168.0
62.223835 156.0
62.311787 124.0
62.454834 168.0
62.501862 188.0
62.593327 76.0
62.605923 128.0
62.642147 152.0
62.706749 136.0
62.881813 160.0
62.946537 180.0
63.163055 152.0
63.201023 180.0
63.378361 148.0
63.552773 124.0
63.659122 124.0
63.938911 224.0
64.055138 200.0
64.201767 164.0
64.292702 148.0
64.369324 188.0
64.393051 168.0
64.585075 164.0
64.647469 188.0
64.679482 160.0
64.793175 168.0
64.815918 188.0
64.831627 144.0
64.890938 128.0
64.967918 196.0
65.110771 188.0
65.139679 144.0
65.187881 128.0
65.401779 132.0
65.464561 160.0
65.528992 204.0
65.635368 188.0
65.656334 316.0
65.733765 204.0
65.832237 228.0
65.865601 160.0
65.909767 144.0
65.930779 196.0
66.098953 172.0
66.309639 204.0
66.486252 176.0
66.539818 148.0
66.595024 196.0
66.648636 112.0
66.74128 100.0
66.752663 144.0
66.890953 180.0
66.923515 172.0
66.993546 112.0
67.058945 200.0
67.092949 56.0
67.187538 148.0
67.2267 148.0
67.332809 220.0
67.357307 176.0
67.375793 204.0
67.692581 172.0
67.813812 80.0
67.8302 120.0
67.861351 180.0
67.899063 140.0
67.958115 116.0
68.059883 100.0
68.406769 172.0
68.658859 108.0
68.751244 136.0
68.797455 140.0
68.851944 160.0
68.962639 160.0
68.979164 208.0
68.997353 128.0
69.017189 180.0
69.121399 204.0
69.499184 156.0
69.588814 200.0
69.873009 144.0
69.919601 40.0
70.008125 160.0
70.032814 220.0
70.12278 160.0
70.196136 164.0
70.367989 184.0
70.474884 200.0
70.571823 160.0
70.75251 156.0
70.837921 204.0
71.062401 168.0
71.081017 72.0
71.153191 136.0
71.166618 228.0
71.191582 176.0
71.248917 176.0
71.264038 160.0
71.454018 196.0
71.64257 188.0
71.728516 176.0
71.854988 52.0
71.881989 272.0
71.900551 72.0
71.941055 84.0
72.01535 108.0
72.101196 232.0
72.284149 208.0
72.463631 48.0
72.502602 140.0
72.57888 164.0
72.621277 220.0
72.677261 180.0
73.110565 172.0
73.296181 200.0
73.505913 124.0
73.519562 128.0
73.993034 108.0
74.244911 120.0
74.282646 172.0
74.478325 192.0
74.569389 152.0
74.770607 144.0
74.810638 156.0
74.861847 168.0
74.882515 116.0
74.982437 156.0
75.036942 232.0
75.210106 92.0
75.496895 200.0
75.547058 120.0
75.685509 128.0
75.978416 160.0
76.037415 156.0
76.068657 128.0
76.082542 188.0
76.114197 188.0
76.198898 140.0
76.247551 144.0
76.26059 180.0
76.292747 212.0
76.332733 160.0
76.374474 164.0
76.416222 128.0
76.541542 120.0
76.565918 124.0
76.750633 344.0
76.787666 68.0
76.905891 124.0
76.9804 148.0
77.374367 120.0
77.432152 224.0
77.48996 168.0
77.735542 64.0
77.785713 136.0
77.81266 204.0
78.204666 220.0
78.26252 148.0
78.359627 92.0
78.451263 136.0
78.532379 140.0
78.664719 160.0
78.749466 192.0
79.074783 168.0
79.115494 152.0
79.152672 152.0
79.496559 128.0
79.764748 132.0
79.85009 112.0
79.905228 156.0
79.933701 140.0
80.026688 180.0
80.147369 164.0
80.350624 96.0
80.441635 40.0
80.459488 212.0
80.530914 180.0
80.555923 164.0
80.652153 140.0
80.684586 180.0
80.73465 196.0
80.790207 284.0
80.813354 188.0
80.899261 100.0
81.006706 212.0
81.107048 156.0
81.304337 184.0
81.354591 228.0
81.376137 108.0
81.417435 148.0
81.464134 156.0
81.607903 196.0
81.778801 168.0
81.791397 156.0
82.003937 160.0
82.029274 140.0
82.13195 136.0
82.166222 164.0
82.180656 140.0
82.220352 156.0
82.297974 136.0
82.330475 132.0
82.359375 204.0
82.440674 200.0
82.525627 176.0
82.59787 152.0
82.661598 116.0
82.880386 212.0
82.932938 148.0
83.007271 144.0
83.05986 128.0
83.172356 220.0
83.415764 184.0
83.42849 92.0
83.488487 28.0
83.719604 184.0
83.759674 88.0
83.850769 156.0
83.920036 124.0
83.943741 236.0
83.98204 156.0
84.128021 204.0
84.171837 128.0
84.246719 172.0
84.416695 232.0
84.438637 152.0
84.482536 212.0
84.716461 204.0
84.731514 192.0
84.826805 200.0
84.874474 136.0
84.979019 212.0
84.998917 360.0
85.05426 68.0
85.068939 64.0
85.114838 128.0
85.232399 168.0
85.250771 144.0
85.289368 148.0
85.38681 124.0
85.403366 200.0
85.456711 40.0
85.528481 148.0
85.615013 200.0
85.778992 172.0
85.843521 180.0
85.87487 144.0
86.258926 72.0
86.360619 148.0
86.37542 188.0
86.793961 180.0
86.810654 160.0
87.146614 144.0
87.190453 204.0
87.392044 224.0
87.507439 144.0
87.699303 140.0
87.90258 148.0
87.938042 160.0
88.412743 132.0
88.437073 136.0
88.485741 220.0
88.551277 168.0
89.083977 200.0
89.110275 188.0
89.136581 152.0
89.157249 40.0
89.339638 188.0
89.410339 152.0
89.640877 56.0
89.654068 76.0
89.737007 52.0
89.757744 184.0
89.850166 216.0
90.057808 136.0
90.125816 240.0
90.208969 160.0
90.623428 240.0
90.938126 168.0
91.056053 1432.0
91.133804 176.0
91.206024 88.0
91.257347 112.0
91.325806 144.0
91.363853 156.0
91.457092 176.0
91.491356 48.0
91.782852 32.0
91.874405 112.0
91.962173 160.0
92.056969 292.0
92.156738 176.0
92.428467 232.0
92.503105 196.0
92.596924 128.0
92.720253 264.0
92.775124 124.0
92.89402 140.0
93.033203 120.0
93.070259 1228.0
93.106674 176.0
93.226173 48.0
93.293617 176.0
93.342148 228.0
93.367264 116.0
93.487701 56.0
93.660973 104.0
93.763092 60.0
93.815132 156.0
93.855621 116.0
93.907684 196.0
93.940475 184.0
94.017654 48.0
94.038925 348.0
94.073814 204.0
94.2146 84.0
94.235123 212.0
94.253235 180.0
94.284157 156.0
94.299614 60.0
94.483315 100.0
94.551041 132.0
94.905525 56.0
95.010254 72.0
95.053589 108.0
95.086258 1432.0
95.182991 84.0
95.231544 204.0
95.276222 144.0
95.457191 212.0
95.480309 180.0
95.57563 200.0
95.635956 172.0
95.651527 64.0
95.78199 152.0
95.807312 188.0
95.891098 144.0
96.095947 232.0
96.14463 192.0
96.187569 40.0
96.238327 224.0
96.400452 188.0
96.416084 56.0
96.439537 76.0
96.490356 220.0
96.68792 188.0
96.711403 208.0
96.913109 160.0
97.040504 216.0
97.065964 20700.0
97.104424 248.0
97.134636 108.0
97.191528 52.0
97.211151 140.0
97.238625 168.0
97.281807 64.0
97.315186 76.0
97.376808 52.0
97.403557 168.0
97.444809 40.0
97.491966 40.0
97.566658 64.0
97.60598 96.0
97.659073 128.0
97.706284 116.0
97.757439 148.0
97.781059 120.0
97.836174 184.0
97.857826 40.0
97.891678 188.0
98.026703 156.0
98.068573 2212.0
98.208595 188.0
98.324997 68.0
98.360527 208.0
98.435547 72.0
98.46122 36.0
98.515633 168.0
98.556038 80.0
98.747787 64.0
98.788307 140.0
98.805153 180.0
98.832848 64.0
98.859612 160.0
99.069649 388.0
99.092216 280.0
99.39756 140.0
99.419388 72.0
99.488853 168.0
99.556366 64.0
99.602043 160.0
99.633827 92.0
99.940002 60.0
100.061409 156.0
100.180893 136.0
100.206795 144.0
100.300453 176.0
100.324379 52.0
100.346306 176.0
100.378204 100.0
100.410118 132.0
100.448013 120.0
100.571724 140.0
100.59967 108.0
100.737457 200.0
100.939308 164.0
101.083336 112.0
101.099342 64.0
101.309578 112.0
101.770851 196.0
101.83712 128.0
102.009918 156.0
102.120445 132.0
102.178841 176.0
102.2855 148.0
102.41436 196.0
102.718727 132.0
102.847862 124.0
103.057068 388.0
103.074051 140.0
103.100487 192.0
103.209473 156.0
103.28228 132.0
103.468445 172.0
103.486671 180.0
103.563622 40.0
103.650734 104.0
103.833176 88.0
103.883881 244.0
103.97316 108.0
104.003601 144.0
104.06176 136.0
104.088783 184.0
104.399544 176.0
104.51165 144.0
104.650055 116.0
104.696892 176.0
104.957718 128.0
104.979713 132.0
105.070892 5612.0
105.141312 52.0
105.282219 184.0
105.323021 88.0
105.494659 188.0
105.523285 152.0
105.570312 148.0
105.588715 176.0
105.79538 172.0
105.891617 212.0
106.072777 540.0
106.201096 224.0
106.293411 156.0
106.550064 104.0
106.735039 76.0
106.883133 216.0
106.933334 152.0
106.975746 52.0
107.000862 220.0
107.049873 916.0
107.086777 3076.0
107.140495 164.0
107.241463 68.0
107.274445 176.0
107.317734 56.0
107.348663 84.0
107.379601 56.0
107.4291 184.0
107.50544 84.0
107.55291 48.0
107.63755 188.0
107.848274 128.0
107.926826 80.0
108.055824 284.0
108.089844 128.0
108.150253 36.0
108.168877 148.0
108.307739 192.0
108.402908 96.0
108.433998 176.0
108.479599 132.0
108.537643 104.0
108.628899 112.0
108.674538 200.0
108.713966 152.0
108.747169 196.0
108.772079 68.0
108.792839 176.0
108.87381 172.0
108.90081 220.0
108.921577 176.0
108.952744 204.0
108.99173 188.0
109.015282 216.0
109.033775 176.0
109.06617 44692.0
109.102211 1020.0
109.135635 104.0
109.160583 76.0
109.189697 88.0
109.210495 60.0
109.235458 56.0
109.271172 60.0
109.309731 80.0
109.3461 68.0
109.408249 120.0
109.416275 76.0
109.423759 148.0
109.453979 36.0
109.472725 128.0
109.493546 64.0
109.560204 160.0
109.582771 168.0
109.601868 236.0
109.635208 116.0
109.653969 68.0
109.674286 80.0
109.747772 44.0
109.779045 184.0
109.797813 56.0
109.864563 68.0
109.927155 100.0
110.026474 168.0
110.048218 220.0
110.069069 3660.0
110.10582 604.0
110.131752 64.0
110.263374 128.0
110.280731 144.0
110.418083 84.0
110.535233 176.0
110.579178 100.0
110.610573 124.0
110.660812 116.0
110.711067 84.0
110.757141 112.0
110.771805 144.0
110.796265 120.0
110.815804 72.0
110.832565 148.0
110.853516 112.0
110.872375 176.0
110.926872 240.0
110.959396 124.0
111.017021 72.0
111.080734 664.0
111.106812 188.0
111.253159 44.0
111.50827 72.0
111.581841 60.0
111.670158 112.0
111.813637 212.0
111.886894 40.0
112.025887 240.0
112.084404 144.0
112.255615 244.0
112.297791 176.0
112.44548 244.0
112.846825 60.0
112.86586 52.0
112.986412 76.0
113.005455 40.0
113.032959 116.0
113.134552 152.0
113.346344 44.0
113.560455 64.0
113.61985 192.0
113.764153 136.0
113.779015 160.0
114.101936 172.0
114.457245 196.0
114.47641 64.0
114.789658 120.0
115.054764 512.0
115.25071 100.0
115.616364 168.0
115.708405 148.0
115.759796 52.0
116.03405 160.0
116.062286 368.0
116.220642 40.0
116.235664 132.0
116.280731 56.0
116.315071 184.0
116.396652 204.0
116.58139 184.0
116.61792 36.0
116.645866 116.0
116.742615 200.0
116.848465 132.0
117.043869 116.0
117.071304 1624.0
117.429611 144.0
117.60006 124.0
118.004005 188.0
118.074547 316.0
118.536461 204.0
118.829178 132.0
118.846535 144.0
118.907295 92.0
119.024513 192.0
119.08609 4396.0
119.120071 212.0
119.163521 96.0
119.202637 80.0
119.256966 84.0
119.313484 60.0
119.454834 160.0
119.552742 200.0
119.589737 212.0
119.716003 44.0
119.748672 36.0
119.89682 156.0
120.038513 40.0
120.088341 688.0
120.439011 180.0
120.534019 56.0
120.680458 176.0
120.770119 160.0
120.894821 164.0
120.980186 176.0
121.031219 168.0
121.065559 2444.0
121.101761 3452.0
121.181664 204.0
121.253975 52.0
121.275894 168.0
121.600494 88.0
121.809082 44.0
121.82666 216.0
121.905754 128.0
122.070969 380.0
122.108955 536.0
122.374268 240.0
122.48217 40.0
122.702538 156.0
122.768684 124.0
122.989304 144.0
123.015793 180.0
123.08149 10652.0
123.116898 776.0
123.192451 180.0
123.263153 84.0
123.386925 28.0
123.42041 56.0
123.470657 156.0
123.504128 100.0
123.583763 28.0
123.650146 96.0
123.674492 100.0
123.716553 264.0
123.789619 124.0
123.907005 176.0
123.940239 76.0
124.08532 544.0
124.119507 180.0
124.343834 196.0
124.437065 84.0
124.708069 76.0
124.932655 112.0
124.948227 76.0
125.061714 176.0
125.09613 140.0
125.571922 48.0
125.855331 128.0
126.013908 132.0
126.127876 208.0
126.235191 76.0
126.31794 76.0
126.369843 160.0
126.700737 168.0
126.716415 164.0
126.812775 52.0
127.030273 72.0
127.209785 128.0
127.816597 136.0
128.062958 468.0
128.260605 200.0
128.45192 136.0
128.535385 136.0
128.783722 36.0
128.856003 188.0
128.910233 212.0
129.032288 144.0
129.069565 1244.0
129.134048 212.0
129.353516 64.0
129.70462 148.0
130.078964 484.0
130.15834 52.0
130.276443 148.0
130.393372 100.0
130.819946 132.0
130.911011 240.0
131.05452 236.0
131.085938 2852.0
131.282455 180.0
131.784622 196.0
131.805191 164.0
131.878326 108.0
132.054367 108.0
132.090317 712.0
132.139008 128.0
132.196213 84.0
132.262573 56.0
132.294632 184.0
132.544266 132.0
132.583221 68.0
132.686371 124.0
132.796432 160.0
132.814789 56.0
132.924896 164.0
133.018997 188.0
133.063766 432.0
133.102463 4880.0
134.10405 660.0
134.134338 192.0
134.162277 40.0
134.185333 184.0
134.637589 148.0
134.824722 48.0
135.079727 576.0
135.117615 1880.0
135.148041 160.0
135.359085 152.0
135.454041 40.0
135.481842 164.0
135.634781 52.0
136.036072 196.0
136.084824 164.0
136.120438 308.0
136.203262 60.0
136.289215 152.0
137.095993 916.0
137.126785 156.0
137.383438 152.0
137.864426 88.0
138.71167 212.0
138.920364 140.0
139.014221 116.0
139.10907 224.0
139.453384 136.0
140.626297 196.0
140.756134 140.0
140.841156 92.0
141.068909 500.0
141.455933 156.0
141.652481 80.0
141.863373 224.0
141.897919 204.0
142.077911 1020.0
142.176453 56.0
142.404373 112.0
142.608704 56.0
142.713287 44.0
142.77037 132.0
142.915466 196.0
143.086914 1012.0
143.163025 96.0
143.196365 60.0
143.322617 68.0
143.462845 172.0
143.501373 36.0
143.56337 124.0
143.658768 92.0
143.704102 148.0
143.969055 252.0
143.99054 148.0
144.055038 180.0
144.09198 572.0
144.141052 84.0
144.294006 160.0
144.344223 164.0
145.057678 164.0
145.100754 4500.0
145.146378 48.0
145.165558 144.0
145.27829 84.0
145.563889 36.0
145.644852 152.0
145.688782 164.0
145.708008 84.0
146.072418 144.0
146.105804 468.0
146.22258 68.0
146.268311 88.0
146.542847 76.0
146.887573 208.0
146.936752 168.0
146.967194 148.0
147.020279 216.0
147.078781 376.0
147.11795 4100.0
147.196503 48.0
147.341125 100.0
147.527496 52.0
147.883072 60.0
147.999268 124.0
148.088943 324.0
148.121002 540.0
148.176071 100.0
148.755661 200.0
148.862488 76.0
148.881912 40.0
149.061356 280.0
149.096436 1756.0
149.132599 1768.0
149.166183 96.0
149.207504 56.0
149.360703 112.0
149.711166 60.0
150.032791 120.0
150.103851 168.0
150.137314 832.0
150.584244 208.0
150.703949 56.0
150.779694 148.0
150.987503 184.0
151.036407 120.0
151.112274 364.0
151.288452 164.0
151.452515 104.0
151.511307 120.0
151.776001 48.0
152.114563 152.0
152.355209 184.0
152.955215 160.0
153.041382 164.0
153.642746 48.0
154.020416 164.0
154.079712 124.0
154.321915 96.0
154.576675 164.0
154.801941 220.0
154.90596 144.0
155.085587 544.0
155.295105 88.0
156.005264 44.0
156.093689 640.0
156.363434 76.0
156.552628 164.0
156.893982 160.0
156.991226 116.0
157.101761 1572.0
157.273148 88.0
157.323059 216.0
157.420441 220.0
158.105377 760.0
158.598785 168.0
159.083267 152.0
159.117355 2800.0
159.18718 88.0
159.273743 60.0
159.321625 64.0
159.376404 92.0
159.499878 60.0
159.610489 36.0
160.086075 208.0
160.1203 788.0
160.149033 108.0
160.340515 128.0
161.063507 180.0
161.096146 284.0
161.132614 1500.0
161.20105 112.0
161.400742 96.0
161.461426 32.0
162.100983 364.0
162.134613 544.0
162.340179 196.0
162.967148 56.0
163.112183 1444.0
163.147461 1216.0
163.198425 72.0
163.277252 132.0
163.455322 56.0
163.554581 32.0
163.608032 36.0
163.707336 64.0
163.827042 60.0
163.898376 36.0
164.038544 96.0
164.111694 104.0
164.149643 128.0
165.06488 176.0
165.126556 168.0
165.717575 72.0
166.076462 204.0
166.99852 140.0
167.083191 196.0
167.642441 168.0
167.758118 136.0
168.093704 340.0
168.214706 188.0
168.658981 72.0
168.827026 32.0
169.102982 1072.0
169.650391 220.0
170.107498 388.0
170.798126 160.0
171.116364 1944.0
171.147369 140.0
171.378662 52.0
171.475082 124.0
171.631485 88.0
171.827103 88.0
171.981064 72.0
172.121307 480.0
173.029099 108.0
173.092117 216.0
173.134399 3172.0
173.419586 56.0
174.138443 456.0
174.209396 72.0
174.309235 76.0
174.882538 208.0
174.97467 72.0
175.016785 148.0
175.109268 544.0
175.148788 2056.0
175.206421 56.0
175.396149 60.0
175.649277 160.0
175.994995 104.0
176.114944 192.0
176.151947 512.0
176.193085 112.0
176.351624 164.0
176.592224 100.0
176.904449 200.0
177.03154 148.0
177.093445 796.0
177.127197 1648.0
177.162689 480.0
177.219604 76.0
177.275238 52.0
177.322952 76.0
177.394516 112.0
177.423676 64.0
177.521774 160.0
177.585419 64.0
178.132339 320.0
178.169403 256.0
178.935318 68.0
179.136353 192.0
179.644196 48.0
179.838989 68.0
180.036545 84.0
180.603134 92.0
181.102921 456.0
182.10881 656.0
183.116592 1060.0
183.255402 276.0
183.913391 132.0
184.118546 704.0
185.132919 1324.0
185.465927 140.0
185.726227 124.0
186.136169 288.0
186.250076 48.0
186.377762 88.0
187.117554 156.0
187.147858 1488.0
187.703339 80.0
188.121506 148.0
188.155075 240.0
189.054504 316.0
189.127457 880.0
189.164322 1656.0
190.130157 144.0
190.165543 192.0
190.560867 28.0
190.892059 172.0
191.037811 132.0
191.066742 124.0
191.14447 424.0
191.179443 748.0
191.438309 132.0
191.59256 156.0
192.145508 304.0
192.185745 100.0
192.237732 112.0
193.260101 168.0
193.617188 144.0
193.722443 132.0
194.962677 144.0
195.126663 112.0
195.541138 92.0
195.697021 68.0
195.755493 156.0
195.855743 132.0
196.120804 340.0
197.013367 128.0
197.13031 452.0
197.376709 76.0
197.888733 192.0
197.99794 28.0
198.107162 136.0
198.134949 288.0
198.320129 160.0
198.712708 52.0
199.147644 1756.0
199.333237 140.0
199.501862 60.0
199.541229 144.0
199.617142 72.0
200.159454 224.0
200.199646 136.0
200.577179 168.0
201.034058 124.0
201.125458 460.0
201.16394 452.0
201.57341 196.0
201.638412 132.0
201.742996 44.0
202.136124 144.0
202.166473 116.0
202.359726 68.0
202.393707 64.0
202.742126 128.0
202.841324 132.0
202.900848 140.0
203.034119 132.0
203.14183 656.0
203.17778 1224.0
204.141632 312.0
204.178604 128.0
204.539948 44.0
204.65097 88.0
205.158081 120.0
205.180893 52.0
205.346268 80.0
205.605896 76.0
207.063919 468.0
207.442139 236.0
207.634232 152.0
209.136841 112.0
209.283661 208.0
210.140717 288.0
211.043686 148.0
211.147171 928.0
212.085846 132.0
212.1577 328.0
212.590469 48.0
212.970795 180.0
213.12767 116.0
213.16362 932.0
213.869232 76.0
214.0905 68.0
214.125443 124.0
214.167938 312.0
214.824982 140.0
215.134933 332.0
215.181229 880.0
215.5578 44.0
215.987564 52.0
216.142609 188.0
216.187408 308.0
216.429459 32.0
217.169678 744.0
217.196854 600.0
217.478943 64.0
217.7285 128.0
218.034027 96.0
218.71637 96.0
218.828232 116.0
219.175781 180.0
219.91008 60.0
222.049133 124.0
223.034866 136.0
223.153336 136.0
224.034683 116.0
224.091293 108.0
224.153549 188.0
224.404236 136.0
225.072571 112.0
225.164795 720.0
225.314499 180.0
226.171707 132.0
226.400253 152.0
227.182922 312.0
227.255035 144.0
227.78891 132.0
228.645813 52.0
229.158356 208.0
229.196243 508.0
229.905502 48.0
230.167877 348.0
230.20134 128.0
230.754272 84.0
231.177429 176.0
231.274582 120.0
232.17984 168.0
233.048615 144.0
233.097229 144.0
233.906204 160.0
234.670334 140.0
235.073486 288.0
235.607803 176.0
237.166367 328.0
238.159454 116.0
239.137177 208.0
239.182144 712.0
239.217209 148.0
240.186234 148.0
241.049194 92.0
241.194626 736.0
241.435608 136.0
241.732574 48.0
242.1474 160.0
242.197861 336.0
242.274399 64.0
242.909882 120.0
243.0681 180.0
243.175781 324.0
244.179657 176.0
245.001968 192.0
245.179581 104.0
245.375946 188.0
246.221558 88.0
247.205582 140.0
248.202393 120.0
251.054489 128.0
251.17749 404.0
252.187225 488.0
252.207916 236.0
252.469254 108.0
253.192719 456.0
253.881638 96.0
254.049744 72.0
254.078293 32.0
254.144928 120.0
254.19252 128.0
255.169647 180.0
255.212341 1028.0
255.320236 60.0
256.213501 248.0
257.065948 168.0
257.188507 168.0
257.236847 116.0
257.436249 72.0
257.896301 56.0
258.017761 52.0
258.29599 52.0
259.193634 332.0
260.061462 184.0
260.21875 128.0
260.993073 56.0
261.063812 120.0
261.214966 148.0
264.185944 120.0
266.20462 216.0
266.40329 152.0
266.923279 148.0
267.202728 144.0
267.596802 72.0
269.083954 144.0
269.180267 176.0
270.184845 136.0
270.25354 144.0
270.430267 192.0
271.195709 272.0
271.244141 140.0
272.141449 88.0
272.299042 156.0
273.218811 808.0
274.22287 160.0
274.846985 136.0
275.021881 128.0
275.226562 136.0
276.112183 184.0
277.022369 116.0
277.070374 152.0
278.332397 112.0
279.056732 132.0
279.113251 160.0
279.222992 120.0
280.56485 96.0
281.227844 2644.0
282.229767 596.0
282.264282 108.0
283.281708 132.0
283.697235 56.0
284.119781 124.0
284.210602 192.0
285.086792 136.0
286.072235 64.0
286.654907 180.0
289.502594 60.0
290.115845 180.0
290.356598 96.0
295.927979 112.0
297.326508 120.0
298.071686 52.0
299.15506 124.0
299.236145 1960.0
299.358215 52.0
299.402985 56.0
299.654419 88.0
299.702667 164.0
299.733673 56.0
300.136963 136.0
300.239838 292.0
300.506012 80.0
300.699249 84.0
301.251709 112.0
302.406586 72.0
305.140015 100.0
307.131897 84.0
310.784149 76.0
311.138611 124.0
313.79129 92.0
315.181915 40.0
315.807617 80.0
317.145996 128.0
317.192078 124.0
317.246765 764.0
317.699158 72.0
317.738159 112.0
317.833954 32.0
317.912048 48.0
318.253906 216.0
320.429443 116.0
320.924866 116.0
326.104767 112.0
328.427094 72.0
331.677673 60.0
337.191772 80.0
340.184265 48.0
341.106262 72.0
348.456696 44.0
349.676331 52.0
355.179626 148.0
361.127289 224.0
363.665771 96.0
363.715118 96.0
367.383392 64.0
369.136475 140.0
370.066254 120.0
373.18042 156.0
387.170807 152.0
389.363037 196.0
391.203156 104.0
392.235199 132.0
393.189667 116.0
398.654694 84.0
402.167328 112.0
405.202423 116.0
405.743469 52.0
409.210358 136.0
410.209686 108.0
415.05307 64.0
419.223663 152.0
436.551025 92.0
448.993103 132.0
476.610809 96.0
531.529968 84.0
537.124329 72.0
590.884033 64.0
594.391907 64.0
612.476074 52.0
612.860291 40.0
622.322083 84.0
683.182434 84.0
705.988464 192.0
706.691956 56.0
736.480164 112.0
745.549561 160.0
766.420349 96.0
777.252258 168.0
779.173279 204.0
797.541443 212.0
809.365906 224.0
811.547302 120.0
815.46991 124.0
825.892395 140.0
828.428223 132.0
833.206909 204.0
833.948181 140.0
838.218262 124.0
850.625793 212.0
860.222717 72.0
867.300415 216.0
872.078125 136.0
872.283875 120.0
874.542542 44.0
875.902649 256.0
878.73822 192.0
879.233887 64.0
885.512451 156.0
894.632874 200.0
895.091309 168.0
898.971863 256.0
912.514771 180.0
913.404846 168.0
916.667908 164.0
918.313721 168.0
921.09021 48.0
928.801697 156.0
933.386841 172.0
937.386047 32.0
937.526184 164.0
946.291504 208.0
946.769104 196.0
947.822754 160.0
951.011658 140.0
952.043091 56.0
953.056641 176.0
953.17334 148.0
954.322754 192.0
954.439575 228.0
957.06073 160.0
957.885986 128.0
959.038208 188.0
963.474915 176.0
970.47467 132.0
974.527588 192.0
975.441162 204.0
976.684753 204.0
977.574402 92.0
979.660156 140.0
983.738464 152.0
988.757507 60.0
991.005493 104.0
993.921082 212.0
997.305969 172.0
997.450562 156.0
999.714722 112.0
1001.81134 144.0
1003.172485 188.0
1007.501526 132.0
1007.931152 196.0
1008.196533 224.0
1008.329285 184.0
1008.87915 144.0
1009.207947 212.0
1011.554993 168.0
1016.003601 204.0
1016.263733 200.0
1017.056946 180.0
1018.549072 124.0
1024.681519 288.0
1025.363281 152.0
1025.5354 204.0
1026.631958 112.0
1026.893433 212.0
1027.091187 52.0
1029.720825 152.0
1030.359497 180.0
1031.343628 160.0
1031.465088 160.0
1033.709961 164.0
1034.714844 208.0
1035.937988 168.0
1038.707153 200.0
1040.458984 200.0
1042.623657 196.0
1042.758545 156.0
1046.019653 52.0
1047.024048 84.0
1047.378296 128.0
1048.39624 152.0
1048.737793 196.0
1048.789307 84.0
1048.873169 144.0
1049.466187 144.0
1052.49231 148.0
1052.737671 132.0
1060.514038 236.0
1061.291992 40.0
1062.258301 168.0
1063.439209 232.0
1065.660034 128.0
1066.322876 204.0
1067.018433 204.0
1067.779175 172.0
1067.889771 188.0
1067.961304 160.0
1068.982666 188.0
1069.666016 76.0
1070.173828 164.0
1070.590576 244.0
1071.118164 220.0
1071.541504 120.0
1073.503418 184.0
1073.61438 164.0
1073.868652 164.0
1075.147339 128.0
1078.23645 184.0
1079.347656 144.0
1079.445801 44.0
1079.5177 72.0
1082.121948 148.0
1085.483154 200.0
1087.575928 164.0
1089.302856 156.0
1090.610474 60.0
1092.892456 196.0
1093.030518 188.0
1093.984863 104.0
1094.346924 160.0
1094.630127 184.0
1095.519287 184.0
1096.276978 160.0
1098.373535 52.0
1098.894653 140.0
1101.132446 160.0
1101.429565 176.0
1104.060059 200.0
1104.820679 140.0
1105.998535 216.0
1112.156128 108.0
1116.627563 180.0
1118.044678 128.0
1118.390747 164.0
1118.523804 60.0
1120.561646 196.0
1124.062134 136.0
1124.689453 164.0
1127.140381 144.0
1128.858276 176.0
1130.329834 156.0
1131.541382 140.0
1132.505615 168.0
1134.013184 120.0
1134.341553 208.0
1134.643188 196.0
1135.23999 180.0
1135.789917 136.0
1136.158813 48.0
1137.970947 160.0
1139.387939 112.0
1139.992676 116.0
1140.348877 164.0
1141.162231 168.0
1142.366089 176.0
1143.415649 188.0
1143.765747 144.0
1143.93396 60.0
1144.277344 212.0
1145.428833 200.0
1145.792603 172.0
1147.625854 256.0
1149.39978 132.0
1153.884521 160.0
1155.697144 240.0
1156.630981 184.0
1157.978394 136.0
1159.64502 140.0
1160.567017 136.0
1161.134155 180.0
1161.346802 144.0
1161.835205 164.0
1162.445923 88.0
1162.717285 124.0
1162.873413 192.0
1163.749146 184.0
1165.814087 180.0
1166.276245 216.0
1167.32312 104.0
1168.790161 152.0
1169.112305 272.0
1169.53418 96.0
1170.746094 56.0
1171.393066 128.0
1171.61792 184.0
1171.733765 228.0
1172.271973 208.0
1172.408325 184.0
1172.565063 148.0
1173.410278 172.0
1173.464844 172.0
1174.344482 180.0
1174.753784 148.0
1174.862915 152.0
1174.985718 148.0
1176.685059 188.0
1179.95752 204.0
1180.285767 192.0
1180.935425 136.0
1181.140625 72.0
1183.159302 60.0
1183.665894 108.0
1185.131714 64.0
1186.481934 80.0
1188.505127 128.0
1188.724731 164.0
1189.321777 208.0
1190.193726 220.0
1190.447754 184.0
1191.182617 256.0
1192.165161 116.0
1192.42627 196.0
1194.942993 180.0
1195.823853 208.0
1196.257446 40.0
1196.505249 104.0
1197.98584 184.0
1199.515625 168.0
1201.184326 152.0
1201.356812 56.0
1201.536133 44.0
1202.84729 156.0
1203.841553 168.0
1204.546021 212.0
1204.870728 252.0
1204.939819 180.0
1206.729736 52.0
1208.320435 68.0
1208.659546 68.0
1210.473022 180.0
1211.034058 176.0
1213.230591 124.0
1213.570312 116.0
1213.875366 164.0
1214.776978 164.0
1216.136963 152.0
1217.039429 156.0
1217.185303 64.0
1217.907471 44.0
1219.700195 152.0
1219.867065 148.0
1220.520508 140.0
1221.396729 168.0
1222.265625 168.0
1222.377686 92.0
1223.268555 156.0
1223.728027 112.0
1224.675171 136.0
1225.727051 76.0
1226.54248 72.0
1227.623047 160.0
1227.748657 128.0
1229.143799 184.0
1229.360107 92.0
1229.932373 180.0
1232.062256 128.0
1232.229858 192.0
1235.676636 168.0
1236.033447 200.0
1236.985229 172.0
1237.139282 128.0
1237.804321 124.0
1238.469727 260.0
1239.359375 192.0
1240.179321 92.0
1240.396606 60.0
1241.974243 140.0
1242.949341 152.0
1243.349365 152.0
1243.742432 92.0
1247.078735 172.0
1247.437134 176.0
1247.725342 164.0
1248.991211 172.0
1249.92688 204.0
1253.525024 204.0
1254.124146 128.0
1254.203369 216.0
1254.469482 132.0
1254.963013 224.0
1255.872681 136.0
1256.359375 132.0
1256.902588 108.0
1257.516602 164.0
1258.928589 184.0
1259.599487 164.0
1261.408447 132.0
1262.348755 72.0
1262.928711 180.0
1263.805908 208.0
1264.53479 208.0
1266.30481 100.0
1266.418091 220.0
1266.588013 204.0
1268.841553 180.0
1269.797729 216.0
1270.288208 156.0
1270.508057 256.0
1270.628662 200.0
1272.026733 72.0
1273.205322 112.0
1273.730957 232.0
1274.09314 172.0
1274.427124 184.0
1274.860596 220.0
1275.29541 156.0
1275.96936 188.0
1276.388916 204.0
1277.669067 132.0
1278.238281 304.0
1278.344971 160.0
1279.170654 96.0
1279.398438 148.0
1280.373901 132.0
1280.972168 192.0
1282.696655 44.0
1282.789307 168.0
1283.102905 40.0
1283.181396 184.0
1283.616333 152.0
1284.250977 104.0
1285.435303 156.0
1287.077026 252.0
1288.098267 188.0
1288.269653 200.0
1288.619751 108.0
1289.398682 180.0
1289.813232 156.0
1290.049072 188.0
1290.706787 212.0
1291.007202 176.0
1291.143066 124.0
1291.400513 164.0
1292.330444 156.0
1292.809814 156.0
1293.074707 152.0
1293.360962 132.0
1293.61145 132.0
1294.083984 132.0
1295.824341 80.0
1295.946167 172.0
1297.271973 204.0
1297.372314 204.0
1298.039185 188.0
1298.325928 184.0
1298.598511 188.0
1298.734741 116.0
1299.129272 152.0
1299.265625 64.0
1299.868286 216.0
1299.96875 168.0
1301.447388 44.0
1302.697021 256.0
1303.106567 160.0
1303.623901 172.0
1303.746094 52.0
1304.522339 216.0
1305.643921 172.0
1306.852417 104.0
1307.586426 216.0
1307.766357 236.0
1308.306152 168.0
1309.579468 248.0
1310.243408 148.0
1311.518921 76.0
1311.951416 144.0
1312.607422 248.0
1313.804688 156.0
1314.064453 204.0
1314.367432 152.0
1314.959229 232.0
1315.601685 96.0
1315.839844 160.0
1316.605225 240.0
1316.901367 48.0
1317.970459 172.0
1318.862305 172.0
1319.090698 168.0
1320.034424 216.0
1321.100952 36.0
1321.565796 212.0
1321.737671 172.0
1322.287598 128.0
1322.620605 140.0
1322.671265 144.0
1322.844971 148.0
1323.07666 176.0
1323.996216 168.0
1324.170044 200.0
1324.358276 132.0
1324.481445 124.0
1324.945068 152.0
1325.365234 132.0
1325.647827 212.0
1328.22168 160.0
1328.983398 220.0
1330.238892 152.0
1331.524048 168.0
1331.611206 148.0
1333.449341 148.0
1334.001709 168.0
1334.685059 128.0
1335.717773 140.0
1336.067017 176.0
1337.602417 36.0
1338.243042 108.0
1338.308594 244.0
1338.366821 32.0
1338.46875 132.0
1338.624756 228.0
1339.553955 216.0
1340.144043 200.0
1342.308838 140.0
1344.395142 104.0
1344.708984 240.0
1345.066528 144.0
1346.27124 172.0
1346.410034 92.0
1346.957764 172.0
1347.060059 272.0
1348.053711 172.0
1348.16333 84.0
1349.581299 112.0
1350.195557 148.0
1350.349243 136.0
1350.94165 160.0
1351.563477 44.0
1354.644653 84.0
1355.671509 140.0
1355.884033 196.0
1356.455688 140.0
1357.394165 200.0
1357.665405 52.0
1357.819458 112.0
1357.988159 156.0
1358.133545 116.0
1358.361084 132.0
1359.029785 180.0
1360.828003 204.0
1360.990967 188.0
1361.062988 172.0
1361.466797 192.0
1362.267456 192.0
1362.392334 124.0
1362.524536 140.0
1362.786499 172.0
1364.236816 28.0
1364.449951 252.0
1364.574951 120.0
1364.85437 160.0
1367.937012 232.0
1370.883057 120.0
1371.804321 176.0
1371.900146 148.0
1372.41626 136.0
1372.895508 164.0
1373.406738 172.0
1373.85437 136.0
1374.791382 200.0
1377.286865 112.0
1378.675781 132.0
1378.779297 160.0
1378.934448 184.0
1379.215332 132.0
1381.337524 200.0
1382.580444 264.0
1383.935059 156.0
1384.08313 88.0
1384.268311 124.0
1384.438599 164.0
1384.934814 136.0
1385.242188 344.0
1385.46814 144.0
1385.631104 72.0
1386.246094 180.0
1386.448242 188.0
1387.202881 192.0
1387.313354 128.0
1387.372681 28.0
1387.684082 168.0
1388.38855 172.0
1388.77417 68.0
1389.864746 204.0
1390.985352 72.0
1391.044678 184.0
1391.118896 84.0
1391.267456 124.0
1391.326782 116.0
1391.594116 160.0
1391.712891 148.0
1392.203003 124.0
1392.470337 156.0
1392.544556 184.0
1394.8479 172.0
1395.375732 224.0
1395.598755 136.0
1395.675049 200.0
1397.294556 160.0
1397.368896 140.0
1397.450806 172.0
1398.038574 168.0
1398.501709 156.0
1399.192261 108.0
1399.564575 164.0
1399.683716 164.0
1400.750488 84.0
1401.545776 132.0
1402.164307 128.0
1403.573242 192.0
1404.1698 120.0
1404.826172 188.0
1404.878418 160.0
1405.102173 172.0
1406.758911 188.0
1407.087402 172.0
1407.28894 192.0
1407.430908 136.0
1407.848999 136.0
1408.775146 196.0
1409.029175 144.0
1409.963135 152.0
1411.032104 128.0
1411.570435 196.0
1411.944336 168.0
1412.617432 112.0
1412.737183 136.0
1413.171143 176.0
1413.230957 232.0
1413.552734 228.0
1413.612549 196.0
1414.780151 208.0
1415.75354 192.0
1415.805908 160.0
1416.197754 200.0
1416.637329 176.0
1418.653076 164.0
1419.087891 176.0
1419.845337 216.0
1420.250244 124.0
1420.692871 164.0
1420.94043 224.0
1421.45813 164.0
1422.929321 112.0
1427.016357 176.0
1427.369751 148.0
1427.497559 144.0
1427.843506 204.0
1428.339966 100.0
1429.528687 204.0
1429.626465 180.0
1429.814575 148.0
1430.311401 60.0
1431.704224 156.0
1432.216309 224.0
1433.270996 220.0
1433.557373 172.0
1434.454224 136.0
1434.846313 140.0
1435.592773 184.0
1436.271484 160.0
1436.920288 208.0
1437.365356 172.0
1438.852295 208.0
1439.441162 124.0
1439.509155 204.0
1440.196411 156.0
1440.324829 176.0
1440.415405 164.0
1441.359863 232.0
1442.380127 136.0
1442.629517 160.0
1443.25708 140.0
1444.391357 140.0
1444.777222 52.0
1446.494995 164.0
1446.593384 184.0
1447.009766 180.0
1447.206665 168.0
1447.297485 208.0
1447.388306 220.0
1447.952881 192.0
1449.221313 200.0
1449.562256 96.0
1450.251953 156.0
1451.123657 184.0
1452.283325 192.0
1452.405273 140.0
1453.770874 172.0
1454.309692 192.0
1456.093994 176.0
1456.200317 188.0
1456.671143 180.0
1457.780396 152.0
1458.698486 132.0
1459.087769 248.0
1459.217041 36.0
1459.350464 168.0
1459.536377 192.0
1459.779663 212.0
1460.304443 212.0
1460.844482 128.0
1461.759644 184.0
1462.137939 92.0
1462.937134 148.0
1464.063965 188.0
1465.541748 172.0
1466.204712 176.0
1467.023926 180.0
1467.302368 164.0
1467.546265 172.0
1468.117432 192.0
1468.964844 156.0
1469.041138 64.0
1469.468262 120.0
1470.109253 136.0
1470.307617 208.0
1470.490845 136.0
1470.925903 164.0
1471.338135 152.0
1472.032959 164.0
1472.338379 132.0
1473.170898 172.0
1473.308472 196.0
1474.248169 140.0
1474.897827 104.0
1475.649658 172.0
1477.230103 188.0
1477.689087 92.0
1479.120117 128.0
1479.227295 224.0
1479.44165 144.0
1479.587036 216.0
1479.656006 124.0
1480.199585 184.0
1482.037842 216.0
1483.041748 136.0
1484.1073 128.0
1487.928101 196.0
1488.066406 208.0
1488.304321 44.0
1488.649902 132.0
1488.826538 104.0
1489.056885 44.0
1489.456299 116.0
1489.594604 136.0
1489.901855 216.0
1490.424316 180.0
1491.746216 204.0
1492.853271 64.0
1493.899292 104.0
1494.030151 164.0
1494.49939 104.0
1494.637939 256.0
1495.222778 196.0
1495.499878 172.0
1495.692261 220.0
1495.830811 196.0
1496.61499 196.0
1497.594116 164.0
1498.033081 56.0
1498.510742 148.0
1499.373779 100.0
1499.882446 256.0
1500.11377 40.0
1500.368164 164.0
1501.069702 180.0
1501.331909 192.0
1501.779297 152.0
1501.932739 160.0
1502.080078 176.0
1502.766602 172.0
1503.260498 280.0
1504.286987 148.0
