>compound MLS001142710-01!
>formula C25H26N4O4
>ionization [M+H]+
>parentmass 447.203
#inchi InChI=1S/C25H26N4O4/c1-15(22(30)26-14-16-8-4-7-11-20(16)33-3)29-23(31)25(2)21-18(12-13-28(25)24(29)32)17-9-5-6-10-19(17)27-21/h4-11,15,27H,12-14H2,1-3H3,(H,26,30)/t15-,25-/m0/s1
#inchikey CDBRAQGRBQMVMA
#Ion_Source LC-ESI
#Instrument qTof
#Compound_Source NIH Natural Product Library
#PI Dorrestein
#Data_Collector VVP/LMS
#Scan -1
#Precursor_MZ 447.203
#ExactMass 446.195
#Charge 1
#CAS_Number N/A
#Pubmed_ID N/A
#Smiles COc1ccccc1CNC(=O)[C@H](C)N2C(=O)N3CCc4c([nH]c5ccccc45)[C@@]3(C)C2=O
#INCHI_AUX N/A
#Library_Class 1
#SpectrumID CCMSLIB00000080068
#IonMode Positive
#UpdateWorkflowName UPDATE-SINGLE-ANNOTATED-GOLD
#LibraryQualityString Gold
#TaskID b1d8e8f6646f4e71acdff9ca3d919d08
##Scan# 2284
#SpectrumFile p2-F03_GF3_01_18039.mzXML
#LibraryName NIH_Natural_Products_Library.mgf
#MQScore -1
#Organism NIH_Natural_Products_Library
#TIC_Query 0
#RT_Query -1
#MZErrorPPM -1
#SharedPeaks 0
#MassDiff 0
#LibMZ -1
#SpecMZ 447.203
#SpecCharge 0
#internalFilename spec-00000.mgf

>collision 10
94.960754 84.0
95.046112 48.0
95.343224 276.0
95.496819 64.0
96.169022 232.0
96.342819 200.0
96.389709 140.0
96.448341 212.0
96.6576 120.0
97.021912 148.0
97.092499 172.0
97.129761 192.0
97.26516 192.0
97.726669 144.0
97.921883 128.0
98.444504 208.0
98.74688 168.0
98.97644 208.0
99.041794 172.0
99.547539 120.0
99.650826 140.0
100.265709 96.0
100.397293 172.0
100.475082 140.0
100.63475 172.0
100.652718 128.0
100.774567 196.0
101.13253 152.0
101.71582 188.0
102.003075 188.0
102.021164 104.0
102.111649 160.0
102.26255 188.0
102.639961 176.0
102.671539 188.0
102.903595 240.0
103.346237 196.0
103.710762 184.0
104.079994 132.0
104.3116 160.0
104.850983 92.0
105.03476 456.0
105.071205 164.0
105.457153 100.0
106.040474 204.0
106.060974 192.0
106.222969 184.0
106.380974 148.0
106.567871 152.0
107.166611 148.0
108.178589 140.0
108.420929 52.0
108.796371 196.0
109.065392 172.0
110.202194 136.0
110.229362 152.0
110.484444 148.0
110.932602 192.0
110.972435 132.0
111.696968 132.0
111.753777 48.0
112.059067 164.0
112.856903 200.0
112.90554 232.0
113.523926 152.0
113.865608 128.0
114.137619 148.0
114.199295 76.0
114.21418 104.0
114.295021 160.0
114.957741 160.0
115.556038 124.0
115.900757 144.0
115.952194 176.0
116.121567 176.0
116.73793 152.0
117.000435 164.0
117.067184 236.0
117.563011 152.0
118.168243 196.0
118.525307 244.0
118.893959 148.0
120.193108 148.0
120.234573 144.0
120.293503 152.0
120.720787 228.0
120.739761 168.0
120.767677 180.0
120.804863 264.0
120.925209 136.0
120.974266 144.0
120.995255 224.0
121.012772 128.0
121.064995 26412.0
121.101341 216.0
121.14856 60.0
121.189034 84.0
121.249352 96.0
121.288803 100.0
121.307709 120.0
121.374306 60.0
121.394997 92.0
121.429131 32.0
121.536621 180.0
121.559349 108.0
121.587097 36.0
121.637581 64.0
121.72979 88.0
121.949486 192.0
122.067375 2500.0
122.101189 40.0
122.182579 68.0
122.291664 28.0
122.426079 80.0
122.567886 152.0
122.622978 68.0
122.647224 96.0
122.713364 132.0
122.797157 116.0
122.821419 128.0
122.880981 92.0
122.93615 160.0
123.01561 88.0
123.048721 36.0
123.073402 204.0
123.214363 84.0
123.298332 68.0
123.880264 88.0
124.075279 148.0
124.514641 160.0
124.576836 152.0
126.788055 176.0
127.001045 128.0
128.04393 92.0
128.061951 212.0
128.623398 180.0
128.851486 68.0
129.226791 96.0
130.108429 112.0
130.9384 36.0
131.068253 148.0
131.528946 196.0
132.482513 164.0
133.097183 68.0
133.538422 140.0
133.71788 180.0
134.718613 208.0
135.528381 124.0
136.073441 180.0
136.943161 96.0
137.078278 168.0
137.248444 128.0
138.295044 168.0
138.487045 164.0
139.075562 172.0
139.726501 132.0
141.110931 232.0
142.067734 136.0
142.309814 136.0
142.388184 56.0
143.40123 156.0
144.082108 936.0
145.063782 180.0
145.083679 296.0
145.247635 140.0
145.369995 128.0
145.975357 148.0
146.5121 180.0
146.598846 64.0
147.078796 172.0
147.143967 248.0
147.40242 124.0
149.096359 180.0
149.5755 80.0
150.034058 240.0
151.044479 136.0
152.454269 224.0
152.988007 132.0
153.979263 156.0
154.070648 108.0
155.457245 152.0
155.847092 120.0
156.079086 336.0
156.727921 136.0
156.934799 240.0
157.076416 184.0
157.129333 120.0
157.613724 76.0
158.098846 128.0
159.016434 388.0
159.510941 136.0
159.595871 108.0
159.800156 128.0
160.00679 156.0
160.087112 208.0
160.162674 136.0
160.825821 100.0
160.989609 164.0
161.0177 148.0
161.414459 108.0
161.783859 172.0
162.404694 92.0
162.828552 180.0
163.019089 200.0
163.100418 128.0
163.283493 188.0
163.494644 56.0
163.565918 152.0
163.685577 144.0
165.183731 208.0
166.003326 208.0
167.053818 196.0
167.076263 168.0
167.14386 172.0
167.290558 116.0
168.07814 744.0
168.244415 108.0
168.401932 164.0
168.513016 200.0
168.828369 68.0
169.037903 168.0
169.089661 444.0
170.0616 208.0
170.083618 108.0
170.103424 208.0
171.098801 132.0
171.123337 216.0
171.374878 84.0
171.773758 40.0
173.096222 172.0
173.636078 176.0
173.819717 124.0
175.141693 172.0
175.408264 196.0
176.514496 180.0
177.026642 260.0
177.255676 76.0
178.02182 500.0
179.038193 196.0
179.696609 144.0
180.097031 152.0
180.129089 200.0
181.017029 128.0
181.043808 112.0
181.075958 52.0
181.100052 132.0
182.068893 188.0
182.576202 136.0
183.091751 1900.0
183.125244 256.0
183.168335 56.0
184.096207 332.0
185.106323 1704.0
186.059219 176.0
186.112061 720.0
186.67601 168.0
187.07869 152.0
187.419128 68.0
187.52269 92.0
187.571747 208.0
189.128723 156.0
191.294525 244.0
192.493866 128.0
192.830902 108.0
194.02951 144.0
194.115463 124.0
195.051575 164.0
195.091064 336.0
195.412628 184.0
196.034027 168.0
196.07399 136.0
196.108475 168.0
197.110703 216.0
197.863098 116.0
198.106384 160.0
198.13475 124.0
199.082825 180.0
199.110916 128.0
199.574585 128.0
200.06694 156.0
201.081696 184.0
201.126862 128.0
203.32605 80.0
204.238083 160.0
204.647888 104.0
205.106552 128.0
205.286163 132.0
205.931152 236.0
209.060547 220.0
209.090683 200.0
210.103882 148.0
210.382019 236.0
211.032074 84.0
211.087051 3964.0
211.120331 312.0
211.359558 72.0
211.807663 60.0
211.836624 68.0
211.990189 144.0
212.088165 608.0
212.119293 160.0
212.677536 244.0
213.10379 312.0
214.035202 120.0
214.09053 72.0
214.113831 152.0
215.000107 176.0
215.023453 144.0
215.525742 176.0
215.955475 152.0
216.084198 40.0
216.907104 96.0
216.933487 220.0
217.080093 124.0
217.22673 148.0
218.678284 132.0
218.919693 172.0
219.376389 140.0
220.034271 180.0
220.288254 60.0
221.489227 208.0
223.089691 224.0
223.151108 128.0
224.088654 96.0
224.115326 172.0
224.798309 176.0
225.075928 124.0
225.625687 140.0
226.11026 100.0
227.033005 76.0
227.113983 104.0
228.515106 116.0
228.694443 192.0
229.737045 88.0
229.848679 232.0
230.223007 212.0
230.503952 52.0
230.673203 148.0
231.426514 184.0
231.568832 136.0
234.007309 164.0
234.107788 168.0
235.077209 172.0
236.317795 180.0
237.058807 188.0
237.107834 168.0
238.046585 144.0
238.092651 144.0
238.136185 136.0
239.080795 432.0
239.119507 124.0
239.159515 180.0
239.211853 168.0
240.119186 120.0
240.197922 72.0
240.824524 96.0
240.960449 60.0
242.089447 204.0
243.407379 108.0
243.724213 216.0
246.43811 164.0
246.875732 216.0
248.109222 132.0
249.110504 112.0
249.449875 92.0
250.09787 160.0
250.450516 64.0
251.14711 112.0
251.986832 168.0
252.112747 304.0
252.141663 180.0
252.385071 108.0
252.843765 36.0
252.992538 116.0
253.110916 176.0
253.388412 144.0
253.470795 164.0
253.600723 76.0
253.64827 248.0
253.857529 164.0
253.92923 124.0
254.019272 236.0
254.082718 156.0
254.129135 11764.0
254.211273 132.0
254.244553 108.0
254.276291 36.0
254.317551 72.0
254.341507 116.0
254.683853 84.0
254.736694 152.0
254.771637 60.0
255.132141 1484.0
255.232498 92.0
255.356522 36.0
255.607834 76.0
256.118805 344.0
256.128784 392.0
256.137482 288.0
256.26059 76.0
256.697266 44.0
256.812073 128.0
256.834412 68.0
256.936493 80.0
256.958832 116.0
256.987518 168.0
257.105713 124.0
257.840149 60.0
258.127869 116.0
259.366852 108.0
259.937744 116.0
260.107819 116.0
264.134033 368.0
265.110291 196.0
265.135468 180.0
265.616089 68.0
265.862671 96.0
266.075348 256.0
266.132477 168.0
266.450409 128.0
266.980225 68.0
267.131683 172.0
267.168884 36.0
268.102936 144.0
269.103088 160.0
270.08847 60.0
270.121185 180.0
271.841248 76.0
272.126831 36.0
273.125854 120.0
273.359467 124.0
274.136627 128.0
275.116211 44.0
275.139343 216.0
276.124023 96.0
278.051453 244.0
278.198303 60.0
278.374268 56.0
279.058746 116.0
280.110596 564.0
280.426941 48.0
281.107269 104.0
281.210724 120.0
281.818512 28.0
281.925446 168.0
281.952179 168.0
282.124634 3748.0
282.179474 112.0
282.423615 44.0
283.127167 1128.0
283.24704 48.0
283.565338 48.0
283.629028 48.0
283.981079 132.0
284.021332 108.0
284.071655 92.0
284.095123 40.0
284.127716 348.0
284.675812 80.0
284.820221 80.0
285.058746 104.0
287.12738 136.0
288.143127 168.0
289.138611 432.0
290.153198 244.0
291.143555 132.0
291.166748 200.0
294.120758 336.0
294.152802 264.0
295.119141 328.0
296.055939 216.0
297.051208 128.0
297.075226 144.0
297.93689 120.0
301.067902 76.0
303.157654 116.0
303.701721 68.0
304.069519 108.0
304.153107 244.0
305.165802 344.0
305.204102 244.0
306.155457 72.0
308.098297 156.0
308.131134 156.0
308.468719 108.0
310.043762 100.0
310.131683 332.0
310.194489 120.0
311.078461 152.0
311.598236 164.0
312.910095 124.0
314.06839 420.0
315.14621 132.0
316.072601 128.0
316.171692 128.0
317.11731 176.0
319.112366 180.0
324.040131 180.0
325.400604 104.0
329.098297 108.0
329.401672 184.0
331.145477 352.0
332.150696 152.0
333.160034 276.0
334.150787 176.0
334.212646 112.0
335.090118 148.0
335.429047 116.0
339.152832 200.0
340.15152 284.0
342.066132 164.0
343.176086 180.0
344.145966 104.0
345.091858 60.0
349.602448 148.0
354.108643 48.0
357.551453 184.0
359.130676 336.0
360.086548 156.0
363.461761 128.0
364.506012 60.0
365.111816 192.0
369.171936 180.0
374.067688 148.0
374.186127 2144.0
374.279449 32.0
374.360321 96.0
374.510498 52.0
375.191528 964.0
375.283264 76.0
375.909973 56.0
376.196167 272.0
376.222626 232.0
376.844421 100.0
377.196106 100.0
377.907684 68.0
378.023773 76.0
380.943298 112.0
381.005463 96.0
381.740051 48.0
396.351044 124.0
402.184265 496.0
403.189789 100.0
403.343597 64.0
419.515442 68.0
430.169098 164.0
431.181061 136.0
435.635315 52.0
436.466553 108.0
444.155212 52.0
445.301056 204.0
446.103638 76.0
448.2164 180.0
452.761841 152.0
466.871063 104.0
496.940613 52.0
505.32135 100.0
553.578369 68.0
574.174316 20.0
590.387878 52.0
605.464905 92.0
616.702209 84.0
631.544189 108.0
636.721558 100.0
654.670044 48.0
677.72467 44.0
686.019348 132.0
741.359863 180.0
742.557983 100.0
749.79425 44.0
751.288269 80.0
760.426331 20.0
780.980286 176.0
781.241699 208.0
809.185547 204.0
816.750122 156.0
820.998901 184.0
835.559448 240.0
851.542664 188.0
861.146851 204.0
862.876526 132.0
869.595459 116.0
873.902893 184.0
875.386169 208.0
876.228455 192.0
881.261108 148.0
885.934937 120.0
887.713074 188.0
906.089355 208.0
907.443848 192.0
908.481323 168.0
916.983704 160.0
926.561279 136.0
939.827759 168.0
940.242737 128.0
943.168274 164.0
947.433472 60.0
948.009399 204.0
950.41925 152.0
952.770752 156.0
956.448059 256.0
957.303833 56.0
958.874756 92.0
961.921753 220.0
972.79187 40.0
988.116333 152.0
991.779724 212.0
996.266357 116.0
1003.655151 188.0
1004.796753 188.0
1007.644104 140.0
1007.960022 188.0
1010.919434 140.0
1023.048645 36.0
1027.248169 148.0
1027.369385 76.0
1034.142578 144.0
1034.71228 156.0
1034.846802 168.0
1038.999756 220.0
1040.30896 120.0
1041.387695 152.0
1057.331787 164.0
1059.585205 216.0
1067.393311 228.0
1074.649414 164.0
1076.751343 196.0
1079.960449 152.0
1089.944702 64.0
1098.173706 184.0
1098.7146 200.0
1100.08728 136.0
1103.515991 188.0
1111.709717 136.0
1119.880371 164.0
1125.856079 264.0
1132.122314 120.0
1140.488525 256.0
1146.067383 104.0
1150.019165 176.0
1150.316162 208.0
1155.452148 192.0
1160.043579 108.0
1164.107666 76.0
1164.386108 132.0
1174.32959 200.0
1174.820679 176.0
1177.653442 212.0
1179.867432 220.0
1184.404419 188.0
1184.692139 144.0
1185.418335 200.0
1193.071289 100.0
1198.239624 152.0
1203.950928 88.0
1207.364868 64.0
1210.167358 168.0
1211.303101 156.0
1216.267944 212.0
1217.566284 128.0
1222.648193 140.0
1224.68811 232.0
1226.897095 196.0
1229.212646 284.0
1230.182861 132.0
1231.718994 196.0
1233.102539 224.0
1234.570557 256.0
1234.878296 136.0
1237.383423 136.0
1240.872437 268.0
1244.668335 264.0
1247.872314 96.0
1248.062134 156.0
1254.426514 180.0
1254.94812 188.0
1255.223145 120.0
1255.83667 132.0
1261.485596 212.0
1262.927979 132.0
1263.621338 36.0
1263.713257 68.0
1265.220703 220.0
1269.188354 168.0
1274.739136 204.0
1274.895508 180.0
1278.187866 224.0
1280.323486 176.0
1280.822021 92.0
1282.346802 152.0
1282.696045 116.0
1284.385986 48.0
1289.541138 160.0
1289.991333 176.0
1291.26416 180.0
1291.385742 200.0
1294.821045 80.0
1297.357544 148.0
1298.920898 176.0
1302.251343 236.0
1302.387817 232.0
1303.544434 152.0
1305.888062 176.0
1307.794678 204.0
1308.363403 180.0
1315.009399 224.0
1315.87561 152.0
1318.201416 96.0
1318.389282 64.0
1321.172974 92.0
1324.082764 40.0
1331.255127 156.0
1332.184692 216.0
1337.95166 188.0
1340.2677 176.0
1340.362427 140.0
1344.015503 172.0
1344.103027 216.0
1346.263794 128.0
1346.7677 128.0
1350.027222 228.0
1356.001099 128.0
1357.577271 176.0
1363.171021 172.0
1363.538452 168.0
1363.758911 172.0
1364.067627 180.0
1364.685181 168.0
1367.95166 184.0
1370.588257 128.0
1371.8927 216.0
1372.335083 160.0
1374.422363 208.0
1375.057251 184.0
1375.37439 136.0
1376.422729 192.0
1378.927002 188.0
1380.716187 80.0
1382.425049 160.0
1384.364624 132.0
1386.831665 176.0
1388.077148 176.0
1390.198608 136.0
1390.636475 96.0
1390.88147 156.0
1393.98584 136.0
1394.342529 160.0
1395.383179 172.0
1397.904663 200.0
1400.048706 136.0
1401.076538 216.0
1402.469971 204.0
1404.326538 172.0
1408.655762 184.0
1409.171265 116.0
1411.839722 208.0
1412.415649 208.0
1419.028076 128.0
1422.298828 80.0
1424.461426 168.0
1424.634155 180.0
1425.693604 216.0
1426.490356 152.0
1426.700806 176.0
1428.79895 176.0
1430.861084 72.0
1431.862549 204.0
1432.050903 192.0
1432.337036 200.0
1433.632935 156.0
1433.919312 148.0
1434.009766 124.0
1436.905396 68.0
1438.188232 216.0
1438.27124 84.0
1441.972168 244.0
1444.89856 196.0
1447.161499 280.0
1447.540039 164.0
1448.903442 208.0
1451.434814 64.0
1453.725708 140.0
1455.653809 80.0
1463.988159 112.0
1466.090698 32.0
1467.13501 188.0
1467.386597 152.0
1473.553223 196.0
1475.785034 160.0
1478.08728 180.0
1482.658936 64.0
1482.758667 160.0
1483.977417 200.0
1485.0271 180.0
1487.437256 180.0
1491.769653 140.0
1491.931152 176.0
1492.007935 184.0
1493.630493 52.0
1495.369385 136.0
1495.908203 160.0
1500.407104 156.0
1501.702515 228.0
1503.199219 252.0
1504.248779 132.0
