>compound MLS001050066-01!2-phenylquinoline
>formula C15H11N
>ionization [M+H]+
>parentmass 206.096786
#inchi InChI=1S/C15H11N/c1-2-6-12(7-3-1)15-11-10-13-8-4-5-9-14(13)16-15/h1-11H
#inchikey FSEXLNMNADBYJU
#Ion_Source LC-ESI
#Instrument qTof
#Compound_Source NIH Natural Product Library
#PI Dorrestein
#Data_Collector VVP/LMS
#Scan -1
#Precursor_MZ 206.097
#ExactMass 205.089
#Charge 1
#CAS_Number N/A
#Pubmed_ID N/A
#Smiles c1ccc(cc1)c2ccc3ccccc3n2
#INCHI_AUX N/A
#Library_Class 1
#SpectrumID CCMSLIB00000079829
#IonMode Positive
#UpdateWorkflowName UPDATE-SINGLE-ANNOTATED-GOLD
#LibraryQualityString Gold
#TaskID b1d8e8f6646f4e71acdff9ca3d919d08
##Scan# 2001
#SpectrumFile p1-F11_GF11_01_17943.mzXML
#LibraryName NIH_Natural_Products_Library.mgf
#MQScore -1
#Organism NIH_Natural_Products_Library
#TIC_Query 0
#RT_Query -1
#MZErrorPPM -1
#SharedPeaks 0
#MassDiff 0
#LibMZ -1
#SpecMZ 206.097
#SpecCharge 0
#internalFilename spec-00000.mgf

>collision 10
94.978691 252.0
95.05674 176.0
95.083466 176.0
95.124222 72.0
95.180283 160.0
95.25238 128.0
95.289291 232.0
95.322327 136.0
95.38063 144.0
95.443405 152.0
95.460342 212.0
95.484756 200.0
95.530144 180.0
95.551758 188.0
95.623756 176.0
95.640739 248.0
95.646164 180.0
95.682152 196.0
95.703423 156.0
95.750305 128.0
95.783165 92.0
95.828842 228.0
95.857452 152.0
95.878891 40.0
95.894478 188.0
95.988052 176.0
96.022667 176.0
96.050613 156.0
96.088791 192.0
96.114845 140.0
96.134361 112.0
96.158806 296.0
96.187057 136.0
96.263199 108.0
96.284676 176.0
96.341324 160.0
96.356133 200.0
96.380394 152.0
96.41172 144.0
96.464439 68.0
96.487457 140.0
96.603279 92.0
96.683495 196.0
96.727814 212.0
96.746132 168.0
96.798996 152.0
96.842079 84.0
96.887131 120.0
96.979233 320.0
97.036079 196.0
97.055687 132.0
97.098732 164.0
97.155716 196.0
97.181221 144.0
97.22831 180.0
97.300941 232.0
97.401093 44.0
97.444313 132.0
97.467888 140.0
97.52095 184.0
97.558296 188.0
97.605247 168.0
97.633369 132.0
97.684151 164.0
97.840599 264.0
97.932167 180.0
98.028755 152.0
98.111366 140.0
98.15345 168.0
98.248863 148.0
98.328461 132.0
98.363983 188.0
98.42511 192.0
98.454811 64.0
98.492332 56.0
98.528152 212.0
98.569382 156.0
98.626038 108.0
98.731483 72.0
98.757195 220.0
98.776978 160.0
98.854134 208.0
98.891739 160.0
99.018417 168.0
99.046181 228.0
99.077873 212.0
99.127403 168.0
99.151184 172.0
99.218582 128.0
99.244354 164.0
99.300201 148.0
99.34684 196.0
99.405022 192.0
99.420898 84.0
99.456329 192.0
99.495682 160.0
99.53862 200.0
99.563835 164.0
99.626114 136.0
99.659187 176.0
99.679054 200.0
99.716812 128.0
99.78241 176.0
99.844055 156.0
99.883835 92.0
99.937546 76.0
100.006485 200.0
100.029091 164.0
100.052979 164.0
100.080856 224.0
100.11869 184.0
100.141731 168.0
100.146889 200.0
100.183121 172.0
100.197556 148.0
100.212311 128.0
100.258919 216.0
100.351372 156.0
100.395699 200.0
100.428406 140.0
100.458321 152.0
100.473488 100.0
100.501862 180.0
100.532158 276.0
100.590759 172.0
100.627159 144.0
100.657112 240.0
100.687065 52.0
100.760971 172.0
100.876884 68.0
100.969162 180.0
101.038918 15872.0
101.089249 252.0
101.124207 160.0
101.147537 136.0
101.174957 148.0
101.25705 136.0
101.312119 124.0
101.327156 132.0
101.372902 116.0
101.387138 272.0
101.415329 124.0
101.460335 136.0
101.520607 172.0
101.555809 248.0
101.588921 140.0
101.627899 96.0
101.682991 204.0
101.720222 176.0
101.772415 188.0
101.89846 160.0
101.927078 152.0
101.945168 144.0
101.975311 184.0
102.035706 1708.0
102.089104 160.0
102.153107 192.0
102.170364 192.0
102.246826 64.0
102.270973 176.0
102.293114 156.0
102.31929 184.0
102.378334 184.0
102.403862 212.0
102.437042 152.0
102.514664 144.0
102.567062 232.0
102.585205 120.0
102.600952 168.0
102.608513 136.0
102.671906 180.0
102.726364 156.0
102.755333 156.0
102.801018 64.0
102.821983 196.0
102.93425 264.0
102.982719 196.0
103.006958 164.0
103.05349 1540.0
103.122803 204.0
103.190857 132.0
103.215118 192.0
103.271744 116.0
103.323303 140.0
103.348618 208.0
103.417427 208.0
103.559151 240.0
103.575356 164.0
103.604591 180.0
103.630058 164.0
103.666527 312.0
103.745575 148.0
103.761795 188.0
103.824654 172.0
103.860031 192.0
103.891586 220.0
104.026764 816.0
104.060135 392.0
104.123413 152.0
104.147354 132.0
104.177826 176.0
104.206268 188.0
104.285522 68.0
104.307877 48.0
104.330238 160.0
104.348534 40.0
104.370728 188.0
104.405266 240.0
104.425812 120.0
104.446152 108.0
104.494972 152.0
104.56823 160.0
104.596725 160.0
104.624977 168.0
104.647621 52.0
104.687775 180.0
104.703064 228.0
104.721291 136.0
104.757347 164.0
104.802414 156.0
104.84317 180.0
104.883934 80.0
104.94101 104.0
105.034599 1148.0
105.075623 204.0
105.149078 64.0
105.185822 196.0
105.208275 120.0
105.222565 164.0
105.247063 176.0
105.402306 184.0
105.416611 80.0
105.434998 124.0
105.471786 164.0
105.492233 120.0
105.526985 144.0
105.553566 128.0
105.602646 124.0
105.708672 244.0
105.723351 188.0
105.782707 204.0
105.797035 68.0
105.817513 160.0
105.877975 212.0
105.904167 164.0
105.977264 208.0
106.029404 436.0
106.073692 152.0
106.149445 204.0
106.176102 80.0
106.201157 168.0
106.226234 208.0
106.354607 80.0
106.37513 180.0
106.465469 144.0
106.486008 108.0
106.510658 184.0
106.635994 100.0
106.736725 156.0
106.752411 172.0
106.829277 120.0
106.875313 212.0
106.92675 172.0
106.946564 172.0
106.985168 164.0
107.014496 120.0
107.028908 152.0
107.084511 296.0
107.10717 188.0
107.131889 228.0
107.210182 100.0
107.241096 248.0
107.327682 172.0
107.399864 156.0
107.453499 136.0
107.509209 140.0
107.680565 132.0
107.707314 192.0
107.759056 180.0
107.777657 180.0
107.812782 140.0
107.847153 184.0
107.876854 192.0
107.965767 168.0
107.982307 140.0
108.007904 160.0
108.025078 136.0
108.079536 148.0
108.106865 156.0
108.189232 124.0
108.233154 56.0
108.292763 208.0
108.317719 168.0
108.351746 220.0
108.37355 184.0
108.415001 144.0
108.514496 132.0
108.609886 124.0
108.834694 160.0
108.871223 144.0
108.942017 116.0
108.979408 168.0
109.020966 64.0
109.039673 276.0
109.062531 188.0
109.077087 132.0
109.102028 112.0
109.154007 96.0
109.216202 168.0
109.237198 224.0
109.355804 188.0
109.376617 156.0
109.420334 184.0
109.436989 136.0
109.486969 108.0
109.511955 136.0
109.54007 180.0
109.580704 144.0
109.605705 168.0
109.643211 64.0
109.758545 160.0
109.820435 88.0
109.851723 192.0
109.89344 320.0
109.926826 152.0
109.943527 144.0
109.993614 116.0
110.025108 140.0
110.077126 84.0
110.098007 192.0
110.181557 168.0
110.243225 172.0
110.290222 172.0
110.390579 132.0
110.430313 196.0
110.444954 136.0
110.463776 188.0
110.478424 176.0
110.528061 160.0
110.573219 208.0
110.6605 176.0
110.689812 56.0
110.823868 192.0
110.855301 140.0
110.890373 152.0
110.906883 104.0
110.964294 136.0
111.031395 88.0
111.079636 160.0
111.278999 80.0
111.368439 204.0
111.374275 120.0
111.385971 128.0
111.455711 180.0
111.480232 220.0
111.560516 180.0
111.594154 204.0
111.623596 232.0
111.659348 104.0
111.714035 196.0
111.740585 180.0
111.762421 132.0
111.953979 160.0
111.998207 160.0
112.040337 48.0
112.122513 140.0
112.26078 132.0
112.303825 160.0
112.324371 200.0
112.367111 152.0
112.434639 140.0
112.455742 136.0
112.474739 76.0
112.491623 104.0
112.557076 148.0
112.582413 244.0
112.641556 164.0
112.78524 180.0
112.810074 176.0
112.855003 176.0
113.009399 120.0
113.05732 124.0
113.111237 220.0
113.145256 212.0
113.201485 344.0
113.250732 44.0
113.327652 180.0
113.354546 164.0
113.412651 184.0
113.458397 112.0
113.479141 148.0
113.570786 120.0
113.604729 132.0
113.63018 100.0
113.670494 220.0
113.689598 140.0
113.717567 156.0
113.746902 80.0
113.761765 160.0
113.78299 204.0
113.915581 220.0
113.940147 112.0
113.963524 92.0
113.987732 148.0
114.137817 132.0
114.183281 200.0
114.302353 192.0
114.321785 132.0
114.335648 176.0
114.354805 424.0
114.403763 128.0
114.444214 148.0
114.523003 220.0
114.61618 152.0
114.69986 148.0
114.797157 220.0
114.821388 116.0
114.926239 132.0
114.951523 136.0
115.029381 156.0
115.056107 120.0
115.077454 144.0
115.118027 164.0
115.139381 184.0
115.207733 212.0
115.231232 220.0
115.267555 168.0
115.289124 300.0
115.350906 148.0
115.379616 168.0
115.447121 112.0
115.469177 216.0
115.492035 132.0
115.53054 172.0
115.616127 128.0
115.641808 144.0
115.68676 108.0
115.714592 128.0
115.7724 92.0
115.804527 64.0
115.855934 176.0
115.877357 168.0
115.900932 180.0
115.967705 124.0
116.019745 164.0
116.121735 144.0
116.138893 164.0
116.196808 184.0
116.241867 140.0
116.285263 236.0
116.314842 124.0
116.347038 180.0
116.364212 144.0
116.379242 124.0
116.405014 104.0
116.43293 216.0
116.500793 228.0
116.563972 144.0
116.605453 192.0
116.636452 88.0
116.654739 184.0
116.718735 100.0
116.83918 144.0
116.85424 156.0
116.873604 80.0
116.957535 128.0
116.978569 176.0
117.000587 208.0
117.03849 584.0
117.075951 172.0
117.116867 232.0
117.154678 232.0
117.220284 128.0
117.259483 148.0
117.289246 160.0
117.323738 156.0
117.427238 132.0
117.488884 180.0
117.511368 192.0
117.541573 148.0
117.630066 132.0
117.677559 148.0
117.707787 124.0
117.763939 148.0
117.787697 176.0
117.856827 192.0
117.875633 216.0
117.897888 148.0
117.93679 160.0
117.962189 160.0
117.984886 80.0
118.042877 168.0
118.124908 156.0
118.176826 116.0
118.215775 168.0
118.241745 268.0
118.293694 196.0
118.339157 60.0
118.36731 188.0
118.504623 236.0
118.527596 160.0
118.579605 204.0
118.607788 156.0
118.633797 148.0
118.733536 152.0
118.794868 160.0
118.833069 208.0
118.928802 152.0
119.04911 1932.0
119.141609 156.0
119.182274 212.0
119.21331 88.0
119.237312 176.0
119.258598 196.0
119.28965 160.0
119.333832 164.0
119.351372 164.0
119.419846 168.0
119.459 104.0
119.524269 216.0
119.557449 144.0
119.583023 156.0
119.633087 140.0
119.653954 212.0
119.670097 100.0
119.685341 164.0
119.715828 136.0
119.750671 176.0
119.802948 136.0
119.867805 392.0
119.924973 148.0
119.96917 232.0
120.001274 152.0
120.046692 284.0
120.149574 200.0
120.212852 184.0
120.265228 100.0
120.359245 184.0
120.38987 228.0
120.411514 184.0
120.433357 124.0
120.520737 68.0
120.579742 212.0
120.636574 160.0
120.676254 212.0
120.706535 212.0
120.721947 164.0
120.780693 176.0
120.838455 192.0
120.89904 120.0
120.954575 220.0
120.965759 124.0
120.977554 156.0
121.023811 188.0
121.047897 152.0
121.091698 312.0
121.109215 140.0
121.12674 80.0
121.208595 220.0
121.229713 100.0
121.280121 120.0
121.310814 208.0
121.353905 152.0
121.38974 104.0
121.430435 108.0
121.449463 260.0
121.495018 156.0
121.571815 180.0
121.624489 136.0
121.672783 104.0
121.747437 192.0
121.773796 132.0
121.791367 48.0
121.82431 184.0
121.87265 164.0
121.890228 144.0
121.909241 196.0
121.969345 344.0
121.989128 176.0
122.019905 120.0
122.046288 192.0
122.255264 152.0
122.305885 144.0
122.363396 192.0
122.413757 108.0
122.457802 216.0
122.528297 108.0
122.543716 88.0
122.596603 192.0
122.625252 176.0
122.653908 212.0
122.700195 172.0
122.720039 88.0
122.768555 44.0
122.868324 172.0
122.908997 180.0
123.091026 232.0
123.130486 164.0
123.212212 192.0
123.247559 152.0
123.311646 28.0
123.331543 136.0
123.353645 156.0
123.375748 116.0
123.391228 172.0
123.4067 240.0
123.435448 200.0
123.525246 212.0
123.645607 108.0
123.672165 132.0
123.750847 140.0
123.79393 164.0
123.846008 188.0
123.891602 224.0
123.913536 76.0
123.943001 148.0
123.9645 168.0
124.01326 168.0
124.099716 148.0
124.23278 296.0
124.315483 176.0
124.368141 96.0
124.385895 144.0
124.408096 216.0
124.434738 180.0
124.512451 100.0
124.53466 268.0
124.590195 192.0
124.669106 132.0
124.705742 188.0
124.787994 128.0
124.810226 144.0
124.912796 204.0
124.989021 148.0
125.061951 132.0
125.086304 172.0
125.175156 128.0
125.190742 248.0
125.2687 112.0
125.286522 192.0
125.326622 112.0
125.373421 152.0
125.392891 228.0
125.460342 180.0
125.489326 124.0
125.569603 192.0
125.63652 116.0
125.683372 200.0
125.72245 188.0
125.739166 164.0
125.803894 212.0
125.870872 128.0
125.913849 180.0
125.924339 208.0
125.930801 168.0
125.941002 180.0
125.947365 240.0
125.975845 180.0
126.0317 208.0
126.054588 164.0
126.098511 192.0
126.15818 216.0
126.187935 188.0
126.272011 80.0
126.310669 184.0
126.319351 144.0
126.326347 136.0
126.445396 244.0
126.47226 208.0
126.501358 152.0
126.539413 156.0
126.570763 48.0
126.613312 148.0
126.709114 192.0
126.761162 208.0
126.886681 180.0
126.904617 140.0
126.978088 152.0
127.041679 1880.0
127.089584 256.0
127.133415 68.0
127.199936 100.0
127.227684 160.0
127.265854 172.0
127.371407 56.0
127.393066 168.0
127.418579 132.0
127.43306 120.0
127.450905 108.0
127.485985 60.0
127.537682 188.0
127.558655 132.0
127.581245 136.0
127.642586 344.0
127.678513 232.0
127.722794 208.0
127.751381 192.0
127.784271 140.0
127.804962 472.0
127.824455 124.0
127.845139 200.0
127.882233 128.0
127.897682 216.0
127.926666 92.0
127.965233 368.0
128.009445 352.0
128.050339 183908.0
128.10762 184.0
128.130371 236.0
128.163712 160.0
128.196762 200.0
128.246078 180.0
128.252167 176.0
128.261826 108.0
128.267532 180.0
128.284836 244.0
128.289398 284.0
128.375641 300.0
128.397797 136.0
128.420898 2320.0
128.454712 124.0
128.462051 312.0
128.480255 152.0
128.516357 176.0
128.547852 52.0
128.555099 64.0
128.602554 144.0
128.631973 108.0
128.67038 116.0
128.699448 152.0
128.726227 136.0
128.752594 152.0
128.780487 96.0
128.805649 204.0
128.829514 180.0
128.84903 56.0
128.87674 184.0
128.915451 236.0
128.934128 148.0
128.957245 68.0
128.974106 216.0
129.016159 340.0
129.05217 20636.0
129.114014 112.0
129.163773 224.0
129.208923 104.0
129.25386 132.0
129.314621 140.0
129.319092 56.0
129.370255 108.0
129.426956 76.0
129.450302 164.0
129.48439 128.0
129.507462 104.0
129.548233 52.0
129.568863 76.0
129.610199 112.0
129.630157 144.0
129.664948 356.0
129.694824 64.0
129.726044 112.0
129.756241 128.0
129.794876 156.0
129.813416 104.0
129.843872 104.0
129.850159 168.0
129.883728 152.0
129.92337 308.0
129.940277 216.0
129.98703 280.0
130.010086 132.0
130.046951 840.0
130.055283 1104.0
130.079788 248.0
130.122177 108.0
130.154617 224.0
130.192276 100.0
130.21666 176.0
130.267883 108.0
130.310516 88.0
130.420166 60.0
130.440048 40.0
130.475723 160.0
130.508255 108.0
130.533264 44.0
130.583298 144.0
130.611877 220.0
130.621002 124.0
130.624832 168.0
130.657791 64.0
130.734772 96.0
130.75621 88.0
130.772141 56.0
130.792618 64.0
130.835876 48.0
130.870026 232.0
130.903702 208.0
130.936066 88.0
130.967941 188.0
131.010361 220.0
131.027176 152.0
131.049988 204.0
131.070465 136.0
131.105682 140.0
131.141632 104.0
131.200378 196.0
131.236862 128.0
131.259659 80.0
131.300705 136.0
131.342972 220.0
131.371414 52.0
131.464966 208.0
131.480942 60.0
131.512894 128.0
131.56311 176.0
131.649872 144.0
131.702393 180.0
131.734375 88.0
131.786926 120.0
131.882904 80.0
131.910339 108.0
131.930908 92.0
131.976639 172.0
132.045013 200.0
132.205383 216.0
132.221405 44.0
132.278625 124.0
132.330902 120.0
132.541992 144.0
132.560333 52.0
132.736832 136.0
132.794174 196.0
132.846924 152.0
132.876755 48.0
133.012146 64.0
133.07872 204.0
133.097092 40.0
133.172867 136.0
133.285446 196.0
133.375076 128.0
133.513016 236.0
133.54982 164.0
133.64183 88.0
133.685562 136.0
133.786835 156.0
133.819061 172.0
133.862808 164.0
133.892746 64.0
133.984879 48.0
134.010223 80.0
134.102402 92.0
134.20845 144.0
134.236115 212.0
134.302994 152.0
134.358368 124.0
134.390656 204.0
134.437546 112.0
134.526825 76.0
134.542984 204.0
134.6492 224.0
134.665039 184.0
134.699402 212.0
134.865204 212.0
135.030548 92.0
135.054214 220.0
135.081421 172.0
135.23877 44.0
135.30127 112.0
135.322113 196.0
135.440216 144.0
135.544464 212.0
135.644119 260.0
135.662674 184.0
135.714798 164.0
135.765991 200.0
135.869064 64.0
135.906189 124.0
135.945633 144.0
135.999008 84.0
136.055634 156.0
136.207214 180.0
136.233536 68.0
136.37561 120.0
136.484543 264.0
136.577576 212.0
136.602249 124.0
136.736908 124.0
136.836716 108.0
136.938339 172.0
137.022202 136.0
137.099091 148.0
137.159683 124.0
137.222626 72.0
137.247559 168.0
137.350891 136.0
137.371887 120.0
137.423218 156.0
137.476883 104.0
137.747711 40.0
137.775742 176.0
137.831818 84.0
137.953354 188.0
137.9814 88.0
138.025833 188.0
138.128738 204.0
138.245712 236.0
138.313583 52.0
138.432999 180.0
138.552444 124.0
138.626602 80.0
138.843094 92.0
138.965073 148.0
139.000275 156.0
139.058243 120.0
139.094147 180.0
139.156296 68.0
139.183365 128.0
139.202148 132.0
139.242065 64.0
139.343079 172.0
139.484085 180.0
139.549896 100.0
139.648666 200.0
139.820419 52.0
139.879257 164.0
140.004044 160.0
140.067413 164.0
140.157166 172.0
140.18544 176.0
140.211365 160.0
140.300934 108.0
140.497711 164.0
140.558014 228.0
140.683105 128.0
140.88147 152.0
141.004349 156.0
141.36647 156.0
141.394577 192.0
141.45137 140.0
141.581604 196.0
141.610016 144.0
141.695297 80.0
141.752167 164.0
141.865921 64.0
141.910965 208.0
142.188507 112.0
142.231232 168.0
142.266846 80.0
142.418808 144.0
142.511459 192.0
142.575623 172.0
142.839539 124.0
142.994186 220.0
143.117355 152.0
143.179901 136.0
143.203705 44.0
143.275375 140.0
143.402054 96.0
143.43483 164.0
143.501587 100.0
143.592194 116.0
143.773514 100.0
143.853271 212.0
143.914352 168.0
144.134094 172.0
144.287064 80.0
144.322922 176.0
144.461639 192.0
144.5047 152.0
144.548767 116.0
144.574097 76.0
144.614777 92.0
144.66983 156.0
144.794342 148.0
144.980148 108.0
145.036331 160.0
145.134628 128.0
145.268066 192.0
145.328903 184.0
145.354752 88.0
145.429703 160.0
145.458496 148.0
145.530518 176.0
145.588425 176.0
145.612167 36.0
145.672226 84.0
145.787552 176.0
145.948608 172.0
145.973648 212.0
146.028244 372.0
146.059998 18016.0
146.11116 52.0
146.162674 28.0
146.201187 72.0
146.222839 148.0
146.263763 56.0
146.28302 68.0
146.299866 100.0
146.321533 104.0
146.35524 36.0
146.38414 36.0
146.422668 52.0
146.467758 72.0
146.502151 220.0
146.574066 80.0
146.615402 116.0
146.649139 72.0
146.670837 116.0
146.699753 88.0
146.788971 84.0
146.81308 60.0
146.856491 44.0
147.022964 76.0
147.063553 2784.0
147.119507 136.0
147.19725 160.0
147.253464 76.0
147.363434 244.0
147.431091 60.0
147.561615 80.0
147.595383 120.0
147.65593 120.0
147.832535 152.0
147.859146 68.0
147.903793 156.0
147.955978 32.0
147.975342 60.0
148.009232 144.0
148.034225 348.0
148.060501 72.0
148.118225 132.0
148.17308 148.0
148.210281 112.0
148.245468 192.0
148.254959 100.0
148.259384 136.0
148.498764 208.0
148.537567 124.0
148.654022 56.0
148.685577 160.0
148.724411 144.0
148.760818 148.0
148.921082 128.0
149.032822 228.0
149.052261 196.0
149.134888 108.0
149.168915 160.0
149.226562 88.0
149.399933 176.0
149.521606 132.0
149.54837 96.0
149.57515 248.0
149.606796 284.0
149.779678 156.0
149.808914 244.0
149.843018 80.0
150.067245 208.0
150.233093 128.0
150.296524 96.0
150.31604 100.0
150.452728 168.0
150.589462 156.0
150.811813 124.0
150.880249 208.0
150.943817 152.0
151.055923 264.0
151.670944 132.0
151.719971 144.0
151.845016 128.0
151.903885 168.0
152.064865 396.0
152.097733 180.0
152.124741 124.0
152.267151 72.0
152.291718 212.0
152.321182 76.0
152.428116 200.0
152.515305 168.0
152.648071 164.0
153.065399 572.0
153.100861 212.0
153.228943 144.0
153.258514 48.0
153.280685 64.0
153.576523 168.0
153.675201 176.0
153.911087 176.0
153.998581 92.0
154.075165 156.0
154.338577 104.0
154.423706 188.0
154.611725 104.0
154.673599 108.0
154.794922 100.0
154.938568 156.0
155.00795 136.0
155.030258 180.0
155.058884 176.0
155.109558 232.0
155.412125 152.0
155.441895 184.0
155.459274 112.0
155.513748 164.0
155.637985 164.0
155.685165 364.0
155.849808 204.0
155.983322 112.0
156.15239 156.0
156.256866 152.0
156.345779 180.0
156.376892 192.0
156.488342 80.0
156.565521 76.0
156.60289 200.0
156.729935 120.0
156.789749 100.0
156.863815 128.0
156.904404 184.0
156.939301 128.0
157.004135 156.0
157.059006 120.0
157.121368 120.0
157.168777 144.0
157.191238 152.0
157.248642 176.0
157.271103 196.0
157.303543 136.0
157.34848 184.0
157.498322 164.0
157.52829 96.0
157.573334 132.0
157.668213 148.0
157.958252 44.0
158.078339 156.0
158.138397 56.0
158.198471 40.0
158.241028 100.0
158.276093 124.0
158.371246 244.0
158.439194 164.0
158.491501 156.0
158.702042 176.0
158.78653 64.0
158.804855 116.0
158.827438 100.0
159.0121 204.0
159.196365 172.0
159.296829 152.0
159.392303 152.0
159.42749 128.0
159.482773 148.0
159.666321 40.0
159.685059 136.0
159.739258 112.0
159.935532 212.0
160.00853 128.0
160.068954 156.0
160.124359 140.0
160.212524 168.0
160.358673 88.0
160.512451 156.0
160.535141 56.0
160.618378 140.0
160.808731 216.0
160.845474 164.0
160.903534 176.0
160.967316 168.0
161.057571 172.0
161.087891 180.0
161.133362 80.0
161.181366 176.0
161.230392 180.0
161.297623 196.0
161.315094 180.0
161.416443 120.0
161.580856 136.0
161.618805 172.0
161.702316 88.0
161.849136 152.0
161.930176 116.0
161.96817 40.0
162.087234 136.0
162.191147 112.0
162.220474 112.0
162.42189 140.0
162.482773 52.0
162.543655 176.0
162.643799 144.0
162.749268 136.0
162.843231 168.0
163.003265 204.0
163.041397 176.0
163.209167 92.0
163.384659 108.0
163.550064 184.0
163.61879 36.0
163.66716 144.0
163.750793 172.0
163.946793 192.0
164.034027 180.0
164.097763 132.0
164.209961 136.0
164.227814 196.0
164.317093 136.0
164.416611 172.0
164.500839 96.0
164.523819 156.0
164.546799 168.0
164.671921 132.0
164.700012 180.0
164.786865 168.0
164.836105 132.0
164.883972 100.0
164.904419 148.0
164.980713 180.0
165.009232 44.0
165.039902 172.0
165.068527 196.0
165.290573 340.0
165.462067 88.0
165.569611 200.0
165.677185 48.0
165.726761 248.0
165.871948 128.0
166.046295 188.0
166.063126 224.0
166.079636 276.0
166.187378 172.0
166.227921 120.0
166.277191 212.0
166.441498 140.0
166.559631 116.0
166.628983 128.0
166.76004 172.0
166.852585 216.0
166.873154 96.0
166.904007 116.0
167.072937 932.0
167.385178 180.0
167.503647 172.0
167.561707 180.0
167.643982 168.0
167.671127 44.0
167.720093 128.0
167.740723 160.0
167.923782 136.0
168.016647 156.0
168.057938 196.0
168.075241 192.0
168.171478 172.0
168.558853 168.0
168.605377 108.0
168.628632 208.0
168.752716 120.0
168.809601 124.0
169.068298 192.0
169.169235 128.0
169.236542 164.0
169.262436 120.0
169.334946 104.0
169.513702 160.0
169.77034 148.0
169.814438 116.0
169.842957 100.0
169.879272 48.0
169.922028 316.0
170.003815 188.0
170.069702 176.0
170.094193 156.0
170.198502 148.0
170.294586 176.0
170.315369 232.0
170.356934 136.0
170.38266 172.0
170.467651 188.0
170.522476 152.0
170.539749 168.0
170.580414 120.0
170.746811 136.0
170.918686 176.0
170.949738 188.0
171.006989 132.0
171.084793 224.0
171.090759 200.0
171.176208 120.0
171.241318 128.0
171.309036 124.0
171.368958 64.0
171.856522 184.0
171.997452 120.0
172.125366 160.0
172.21875 248.0
172.459763 264.0
172.497269 160.0
172.551254 52.0
173.079773 256.0
173.179291 156.0
173.214249 168.0
173.286697 76.0
173.310272 160.0
173.365311 120.0
173.533066 156.0
173.551422 148.0
173.58551 32.0
173.716644 32.0
173.986938 156.0
174.026321 164.0
174.210159 156.0
174.247055 188.0
174.51503 188.0
174.580765 220.0
174.601807 124.0
174.705475 212.0
174.775421 212.0
174.901749 124.0
174.938599 160.0
175.107117 148.0
175.125549 140.0
175.167694 148.0
175.220383 180.0
175.257263 144.0
175.491852 164.0
175.62944 160.0
175.673813 128.0
175.700195 216.0
175.717209 188.0
175.768799 136.0
175.884918 136.0
175.924515 156.0
175.98204 188.0
176.061356 304.0
176.10672 160.0
176.339218 92.0
176.37886 120.0
176.402664 72.0
176.423798 160.0
176.566589 140.0
176.664459 48.0
176.966156 232.0
177.067642 544.0
177.33934 188.0
177.517303 116.0
177.593933 192.0
177.644608 124.0
177.695023 48.0
177.785233 92.0
177.803818 180.0
177.840973 116.0
178.00174 192.0
178.077805 3720.0
178.207443 80.0
178.257919 140.0
178.342972 160.0
178.377518 92.0
178.571625 64.0
178.667389 120.0
178.79776 204.0
178.861649 140.0
178.912216 204.0
178.981445 100.0
179.082016 824.0
179.239822 100.0
179.290451 160.0
179.333099 124.0
179.357086 176.0
179.455719 44.0
179.484482 204.0
179.58905 92.0
179.607727 208.0
179.730453 120.0
179.866547 40.0
180.010727 104.0
180.08168 1584.0
180.33078 160.0
180.37674 132.0
180.438232 128.0
180.630783 72.0
181.085449 288.0
181.514587 132.0
181.573578 168.0
181.750626 316.0
181.927765 284.0
182.255432 160.0
182.47583 96.0
182.585327 116.0
182.693665 164.0
183.087158 164.0
183.108185 68.0
183.183594 168.0
183.374908 80.0
183.423431 160.0
183.58519 160.0
183.822388 172.0
183.88414 104.0
183.914688 156.0
183.938248 140.0
183.962936 152.0
184.073624 96.0
184.23027 172.0
184.432938 140.0
184.495117 148.0
184.535675 184.0
184.581635 172.0
184.624908 164.0
184.799652 172.0
184.881912 128.0
185.109299 124.0
185.21492 156.0
185.350372 124.0
185.47673 168.0
185.529266 160.0
185.751633 132.0
186.028412 184.0
186.104431 204.0
186.161453 176.0
186.590759 56.0
186.967438 184.0
187.08046 68.0
187.151245 184.0
187.230209 148.0
187.471664 184.0
187.576233 140.0
187.701645 132.0
187.723465 128.0
187.868011 56.0
188.086319 228.0
188.154572 36.0
188.438599 264.0
188.545166 56.0
188.5905 116.0
188.64357 192.0
188.813095 180.0
188.982697 176.0
189.064789 180.0
189.47551 128.0
189.628952 188.0
189.672806 80.0
189.730377 232.0
189.761673 212.0
189.81311 208.0
189.892166 160.0
190.071976 352.0
190.100662 136.0
190.355957 136.0
190.487793 156.0
190.561966 140.0
190.586685 112.0
190.644394 128.0
190.827942 196.0
190.854141 144.0
191.072327 1556.0
191.202667 100.0
191.246704 68.0
191.276978 140.0
191.349213 252.0
191.41188 144.0
191.431152 152.0
191.610199 56.0
191.709381 120.0
191.979538 188.0
192.075974 180.0
192.259064 148.0
192.523193 124.0
192.57843 180.0
192.835388 72.0
192.88237 76.0
192.907242 120.0
192.945953 176.0
192.965302 200.0
193.006775 136.0
193.081436 132.0
193.297211 68.0
193.335953 144.0
193.46051 144.0
193.607162 240.0
193.632187 184.0
193.746414 152.0
193.884293 160.0
193.931412 84.0
193.995163 116.0
194.064468 140.0
194.104324 108.0
194.139343 240.0
194.294678 108.0
194.411209 140.0
194.511124 68.0
194.661041 108.0
194.919388 156.0
195.06163 240.0
195.091705 168.0
195.150085 156.0
195.259872 116.0
195.300262 176.0
195.336411 124.0
195.355881 164.0
195.466034 224.0
195.634171 92.0
195.79567 128.0
195.815155 136.0
195.838928 148.0
195.876434 132.0
195.926575 188.0
196.049179 72.0
196.077042 128.0
196.392105 148.0
196.436417 176.0
196.725037 112.0
196.866547 140.0
196.924942 128.0
197.100235 208.0
197.171066 160.0
197.199005 196.0
197.291107 156.0
197.632462 160.0
197.688431 108.0
197.846588 284.0
198.027176 180.0
198.254105 140.0
198.342331 208.0
198.472748 112.0
198.608932 164.0
198.638214 144.0
198.843048 140.0
199.233353 188.0
199.286728 108.0
199.379059 224.0
199.427231 176.0
199.485306 188.0
199.545303 128.0
199.734283 256.0
199.896896 84.0
199.955994 144.0
199.984131 148.0
200.141785 140.0
200.16713 164.0
200.341751 276.0
200.468536 140.0
200.710968 132.0
200.925323 136.0
201.088974 96.0
201.125671 72.0
201.190598 100.0
201.227295 116.0
201.374146 184.0
201.478653 144.0
201.614288 108.0
201.913956 180.0
201.974731 164.0
201.995972 112.0
202.058212 192.0
202.08934 176.0
202.128952 108.0
202.191208 164.0
202.273285 232.0
202.3461 184.0
202.460159 152.0
202.525299 96.0
202.703781 220.0
202.983475 244.0
203.070267 268.0
203.183075 172.0
203.216995 60.0
203.519638 168.0
203.734634 240.0
203.776321 156.0
203.892822 80.0
203.963882 104.0
203.996918 412.0
204.080551 3464.0
204.153732 180.0
204.225464 160.0
204.252655 108.0
204.336411 148.0
204.361816 172.0
204.433151 84.0
204.543869 160.0
204.572617 180.0
204.629562 108.0
204.717819 124.0
204.824127 160.0
204.848846 140.0
204.887589 160.0
204.951401 112.0
204.991821 108.0
205.012329 168.0
205.087082 2652.0
205.175171 236.0
205.213623 164.0
205.248459 148.0
205.319138 60.0
205.344803 100.0
205.399002 128.0
205.418961 152.0
205.468384 172.0
205.501694 344.0
205.528732 176.0
205.553055 148.0
205.58934 252.0
205.606674 132.0
205.616013 148.0
205.639893 140.0
205.676178 160.0
205.697372 224.0
205.72084 164.0
205.726746 112.0
205.761841 132.0
205.791443 288.0
205.824631 112.0
205.858246 260.0
205.87619 284.0
205.943741 312.0
205.968704 344.0
205.996826 180.0
206.016129 152.0
206.02359 132.0
206.096786 203320.0
206.151459 132.0
206.162384 116.0
206.170959 200.0
206.196472 344.0
206.232239 176.0
206.269241 224.0
206.294205 336.0
206.359283 228.0
206.391098 368.0
206.409454 84.0
206.432129 188.0
206.484756 228.0
206.52005 344.0
206.537857 140.0
206.566559 2112.0
206.61824 280.0
206.658081 132.0
206.696915 160.0
206.729919 172.0
206.763855 268.0
206.79245 180.0
206.851776 192.0
206.8694 96.0
206.886429 388.0
206.906036 216.0
206.934082 392.0
206.991257 396.0
207.031448 508.0
207.099472 36408.0
207.152069 128.0
207.184387 156.0
207.212006 100.0
207.237839 92.0
207.266571 232.0
207.318405 60.0
207.324692 68.0
207.350922 136.0
207.376617 96.0
207.404343 88.0
207.426361 56.0
207.482407 116.0
207.521942 120.0
207.575027 56.0
207.603561 104.0
207.666199 68.0
207.734131 172.0
207.76474 116.0
207.796295 64.0
207.837646 68.0
207.847046 64.0
207.859894 48.0
207.896271 76.0
207.939774 108.0
207.962738 44.0
208.008408 88.0
208.054596 44.0
208.102402 1728.0
208.152206 44.0
208.187622 84.0
208.208588 196.0
208.236115 224.0
208.261169 64.0
208.28894 168.0
208.328751 112.0
208.353271 108.0
208.384628 128.0
208.436493 124.0
208.470245 164.0
208.497009 128.0
208.544189 208.0
208.581207 240.0
208.609543 80.0
208.642136 236.0
208.651505 324.0
208.674393 148.0
208.682526 140.0
208.73175 128.0
208.757401 100.0
208.790176 176.0
208.826431 76.0
208.882217 72.0
208.939743 56.0
208.994415 60.0
209.014557 52.0
209.046982 192.0
209.09317 240.0
209.21315 96.0
209.233292 76.0
209.290878 104.0
209.356827 80.0
209.420471 80.0
209.446396 144.0
209.53569 72.0
209.579346 80.0
209.610611 228.0
209.649277 72.0
209.680817 144.0
209.698441 100.0
209.723007 52.0
209.744934 112.0
209.772003 96.0
209.792191 120.0
209.838318 76.0
209.904633 56.0
209.92482 120.0
209.996918 40.0
210.038589 80.0
210.100754 56.0
210.16423 68.0
210.20752 100.0
210.245026 104.0
210.282547 48.0
210.346039 40.0
210.42688 64.0
210.461349 68.0
210.603302 84.0
210.724365 48.0
210.837051 60.0
211.139755 48.0
211.516739 68.0
211.652802 60.0
211.707825 64.0
211.948257 60.0
212.267105 80.0
212.560089 40.0
213.454758 96.0
214.220215 100.0
214.313431 172.0
214.409607 60.0
214.669052 136.0
215.074585 100.0
215.267273 60.0
215.495102 44.0
216.040466 96.0
216.07399 44.0
216.147141 84.0
216.217377 56.0
216.431061 140.0
216.554062 76.0
216.703461 96.0
216.759125 80.0
217.404266 60.0
217.587509 80.0
217.768311 68.0
218.015106 116.0
218.21817 48.0
218.503204 40.0
218.747467 88.0
218.915283 84.0
218.953568 56.0
219.254059 52.0
219.425034 48.0
219.519379 92.0
219.599014 36.0
219.646194 92.0
219.899948 100.0
219.926514 108.0
220.074112 108.0
220.21109 104.0
220.310394 88.0
220.381302 44.0
220.5793 56.0
221.407745 36.0
221.496597 104.0
221.600296 92.0
221.902603 104.0
222.047897 204.0
223.438065 100.0
223.503525 136.0
223.747574 116.0
224.245026 60.0
224.40004 72.0
224.441788 92.0
225.525467 28.0
227.067383 144.0
228.37088 68.0
228.668747 64.0
228.900543 80.0
229.406708 104.0
230.662476 128.0
231.376404 68.0
232.552536 104.0
235.985718 68.0
236.851776 68.0
236.873215 56.0
237.139801 64.0
238.782364 120.0
239.099258 112.0
239.712082 104.0
239.943253 108.0
242.069031 96.0
243.775177 64.0
244.490417 120.0
244.761246 56.0
246.345612 88.0
247.145966 68.0
249.180801 68.0
249.554825 60.0
250.558807 92.0
253.731842 64.0
255.294052 96.0
256.080139 128.0
261.594025 44.0
262.515503 36.0
263.27063 80.0
266.032501 112.0
266.357208 120.0
268.652161 88.0
269.144989 36.0
269.804962 112.0
270.357758 88.0
271.425659 80.0
274.117798 100.0
275.589447 104.0
278.637573 68.0
279.601868 84.0
287.764374 152.0
287.936584 52.0
289.365814 72.0
290.902679 108.0
291.687378 100.0
293.198578 80.0
293.457642 160.0
296.513641 112.0
297.37793 64.0
297.425995 84.0
298.521942 96.0
305.129639 56.0
308.444885 92.0
312.235077 108.0
313.449585 80.0
316.292603 156.0
316.940704 116.0
319.134247 100.0
319.301361 44.0
319.909821 88.0
323.05014 76.0
326.245361 164.0
326.338837 76.0
326.932373 52.0
327.033142 100.0
328.809998 64.0
329.868286 120.0
336.100494 48.0
343.378143 72.0
344.194305 68.0
346.528198 40.0
346.709778 64.0
347.722229 72.0
348.204895 100.0
348.294037 96.0
349.610168 128.0
350.835602 120.0
353.120819 48.0
353.296631 44.0
353.502411 32.0
354.832092 44.0
355.721191 28.0
357.186676 128.0
358.172882 72.0
360.277802 40.0
362.62384 32.0
372.84082 100.0
375.254303 68.0
376.612671 64.0
379.441437 104.0
381.794495 84.0
384.994019 104.0
385.896637 60.0
386.088257 52.0
390.406006 84.0
391.421265 72.0
391.95697 44.0
393.649231 40.0
398.441864 92.0
403.395386 136.0
403.787231 112.0
409.095764 40.0
411.67218 80.0
419.017944 28.0
421.653961 120.0
426.465637 44.0
427.358032 80.0
429.566223 68.0
430.284271 108.0
430.449432 56.0
433.896057 92.0
435.28186 100.0
438.73938 52.0
439.331543 140.0
439.42334 64.0
442.156158 116.0
445.224945 64.0
445.762665 96.0
446.696045 104.0
450.637787 84.0
452.380188 52.0
454.172607 88.0
456.291626 112.0
456.406433 76.0
459.281036 48.0
460.770874 116.0
465.108856 68.0
469.743225 96.0
469.820862 116.0
469.894196 120.0
480.886078 80.0
487.195953 108.0
493.047424 72.0
494.68396 64.0
496.895355 64.0
504.823883 104.0
506.224548 64.0
510.006592 28.0
510.316772 84.0
515.459717 80.0
516.033752 104.0
516.151367 84.0
516.947449 88.0
520.083679 112.0
523.812256 44.0
524.185852 72.0
524.678101 88.0
525.21167 76.0
528.592407 96.0
538.961487 52.0
545.644958 84.0
552.453796 84.0
553.563049 48.0
554.59845 120.0
559.295471 88.0
562.840698 36.0
564.243958 44.0
568.658752 168.0
568.701477 104.0
570.097778 32.0
571.172302 140.0
571.952637 44.0
574.072754 100.0
574.244446 88.0
576.856262 76.0
578.904053 148.0
586.953003 108.0
591.203918 188.0
598.748169 64.0
605.884583 168.0
608.154968 48.0
610.23291 148.0
611.826965 56.0
613.339233 204.0
613.768188 56.0
621.921082 180.0
634.035767 104.0
635.284241 160.0
637.392944 116.0
642.074585 56.0
644.618958 164.0
645.832275 220.0
653.24823 92.0
653.497498 64.0
653.655273 160.0
653.924988 212.0
655.33551 176.0
658.881409 36.0
658.917175 88.0
661.274475 220.0
669.004822 76.0
673.170837 84.0
675.667297 104.0
683.538269 44.0
683.777649 220.0
690.277832 32.0
694.860901 176.0
696.141602 204.0
696.482971 284.0
703.82959 88.0
704.267944 88.0
706.916626 76.0
714.046692 136.0
718.718567 160.0
719.609863 240.0
724.524841 108.0
724.707031 112.0
725.012451 116.0
729.252319 44.0
730.854858 172.0
732.297607 168.0
734.858154 176.0
735.608276 208.0
737.488037 76.0
738.937317 32.0
739.337708 20.0
741.639526 124.0
745.62323 156.0
746.161377 96.0
749.170898 92.0
751.242432 32.0
754.278564 128.0
759.957642 232.0
761.873718 152.0
762.269287 48.0
767.404846 208.0
768.132751 212.0
770.263489 224.0
778.882507 68.0
782.096375 128.0
782.736572 56.0
785.506531 152.0
786.0979 108.0
791.340942 112.0
791.576111 208.0
792.702026 104.0
794.98999 156.0
795.545654 120.0
799.215637 120.0
800.538452 44.0
801.574951 68.0
801.61438 64.0
804.547302 36.0
805.360413 224.0
806.106201 220.0
806.592224 132.0
807.366821 152.0
807.434692 176.0
808.351135 260.0
811.432373 144.0
814.434326 192.0
816.002747 180.0
817.305237 104.0
821.658142 204.0
823.039368 80.0
824.98761 248.0
829.5979 200.0
830.249573 128.0
835.160095 188.0
835.510986 136.0
839.052856 136.0
841.475952 196.0
841.805115 220.0
843.133789 236.0
845.60907 220.0
847.867798 144.0
849.868347 156.0
851.255676 160.0
852.115295 52.0
853.289307 180.0
854.324463 160.0
855.016907 196.0
856.670471 200.0
856.845276 40.0
858.144958 152.0
858.24408 156.0
859.008057 136.0
860.040894 140.0
860.683044 188.0
862.330444 152.0
862.897461 56.0
863.160583 96.0
863.265808 220.0
863.359375 188.0
864.067139 136.0
865.489441 184.0
865.799805 180.0
866.619873 124.0
867.170715 68.0
868.783203 132.0
869.035522 116.0
870.221069 40.0
870.35614 212.0
871.718933 120.0
872.600586 176.0
875.27771 196.0
876.273132 144.0
876.827026 156.0
878.413086 84.0
880.72699 48.0
881.837769 188.0
881.955994 176.0
884.605957 200.0
885.168396 56.0
885.259216 164.0
887.769836 64.0
895.311218 260.0
896.258362 196.0
896.979492 220.0
898.726868 168.0
899.210205 168.0
899.347534 256.0
899.562378 172.0
900.51178 184.0
900.935913 44.0
902.585449 68.0
903.069885 156.0
904.092896 76.0
904.595703 216.0
904.649536 200.0
907.381348 132.0
907.945007 132.0
908.718811 88.0
912.700989 252.0
912.833313 112.0
913.061829 112.0
914.319153 128.0
915.619568 168.0
916.661743 120.0
916.752136 236.0
918.186951 200.0
918.34375 40.0
919.164246 140.0
922.050781 112.0
922.099121 224.0
922.60083 48.0
923.786133 184.0
925.928833 48.0
926.334595 116.0
927.41925 136.0
927.964844 76.0
928.195251 188.0
929.72998 152.0
930.458374 108.0
931.344971 88.0
933.186279 88.0
933.478149 52.0
933.982971 28.0
935.309387 200.0
938.324829 192.0
939.910645 216.0
940.148621 124.0
941.039856 148.0
941.308533 156.0
943.104614 36.0
943.599792 140.0
946.763306 144.0
947.247131 176.0
948.405212 220.0
949.717346 92.0
950.987427 128.0
951.453979 132.0
951.601318 132.0
952.289062 76.0
953.099976 152.0
953.560852 108.0
955.57782 196.0
957.270508 204.0
957.960327 40.0
958.138977 76.0
959.365356 172.0
960.5802 96.0
960.907166 108.0
961.518066 176.0
963.178894 148.0
963.889404 176.0
964.02533 188.0
964.785583 76.0
968.702759 92.0
973.006592 220.0
975.429382 152.0
977.998291 68.0
978.764038 168.0
979.492676 124.0
981.555542 72.0
981.836182 48.0
983.601929 136.0
983.732971 104.0
984.513428 172.0
987.106812 72.0
989.841309 196.0
990.073059 220.0
991.388611 84.0
991.839844 120.0
992.457397 140.0
992.648621 40.0
993.087585 184.0
993.783936 80.0
994.888489 152.0
995.298462 152.0
996.351746 120.0
996.7099 160.0
997.118347 188.0
997.212646 44.0
997.746948 152.0
997.834961 188.0
998.13678 224.0
998.778259 168.0
1000.552795 168.0
1001.062805 144.0
1002.108459 72.0
1002.46759 172.0
1003.186096 116.0
1004.989868 196.0
1005.740845 88.0
1008.045959 144.0
1008.861877 232.0
1009.860413 140.0
1009.904663 148.0
1012.360229 216.0
1013.399048 60.0
1014.533508 164.0
1015.846191 128.0
1015.922302 188.0
1016.119019 224.0
1017.572388 204.0
1017.902527 148.0
1018.175598 148.0
1019.617737 196.0
1019.744873 200.0
1019.929199 172.0
1020.965515 184.0
1021.366211 68.0
1022.282349 196.0
1022.530579 148.0
1026.02124 156.0
1026.639771 164.0
1026.703491 160.0
1028.247437 164.0
1031.300293 200.0
1031.549561 108.0
1032.0802 144.0
1032.502319 68.0
1032.885986 196.0
1033.013916 128.0
1033.877686 132.0
1034.940308 100.0
1035.619141 316.0
1036.170044 148.0
1036.362305 56.0
1038.375122 152.0
1038.843384 144.0
1040.659546 152.0
1040.749512 176.0
1040.807251 128.0
1041.218262 124.0
1041.680664 136.0
1042.638062 148.0
1043.460815 240.0
1043.853027 128.0
1044.580933 188.0
1044.67627 132.0
1045.326172 156.0
1045.40979 104.0
1046.059814 44.0
1047.064331 216.0
1048.629883 208.0
1050.12561 52.0
1050.744873 148.0
1052.074341 192.0
1053.062256 212.0
1053.811646 140.0
1054.263916 132.0
1054.806885 176.0
1056.559326 152.0
1056.624023 148.0
1057.187012 136.0
1057.717651 244.0
1058.222656 52.0
1059.045044 108.0
1059.116333 28.0
1059.414307 188.0
1060.042725 176.0
1060.483521 224.0
1061.229004 152.0
1061.994141 132.0
1062.681763 140.0
1064.570679 136.0
1064.953857 180.0
1065.369629 132.0
1065.947876 116.0
1066.201294 156.0
1066.591187 228.0
1066.708252 160.0
1067.449463 148.0
1068.021729 192.0
1068.80896 124.0
1069.440186 128.0
1069.609375 164.0
1069.895874 192.0
1070.110718 112.0
1070.612061 160.0
1070.911621 172.0
1070.971069 172.0
1071.667358 116.0
1071.784546 92.0
1074.170776 84.0
1074.764404 148.0
1075.182007 168.0
1075.321045 172.0
1076.22644 140.0
1077.186523 168.0
1077.715698 200.0
1077.761475 164.0
1077.82019 216.0
1078.571777 100.0
1081.155273 96.0
1081.443237 132.0
1082.124023 172.0
1083.270142 200.0
1083.859741 208.0
1084.449463 224.0
1084.790405 48.0
1084.849365 260.0
1085.006714 160.0
1085.177124 100.0
1085.852539 120.0
1086.58728 92.0
1086.666016 152.0
1086.954712 172.0
1087.066284 124.0
1087.282837 212.0
1088.155884 160.0
1089.83728 168.0
1091.552856 152.0
1091.61853 168.0
1092.447266 184.0
1092.576904 216.0
1093.138062 176.0
1093.658081 156.0
1094.290039 120.0
1094.737793 196.0
1095.910278 84.0
1097.314087 152.0
1097.676758 200.0
1098.501221 100.0
1098.659546 132.0
1099.246704 128.0
1099.490112 176.0
1101.220581 260.0
1101.689575 148.0
1102.297485 172.0
1102.938477 132.0
1104.948853 168.0
1105.193604 148.0
1105.419312 200.0
1106.318726 164.0
1106.576904 172.0
1107.398071 176.0
1109.193726 56.0
1109.470337 76.0
1109.598145 224.0
1110.533081 128.0
1111.123413 124.0
1111.574707 200.0
1112.324585 180.0
1113.114624 288.0
1113.692505 164.0
1113.924927 84.0
1114.861816 132.0
1115.420044 152.0
1115.925293 116.0
1116.457275 216.0
1116.603516 196.0
1116.769775 48.0
1116.876221 180.0
1118.11377 180.0
1119.984619 260.0
1120.377686 156.0
1120.470947 128.0
1121.803833 52.0
1122.490479 56.0
1123.183838 204.0
1123.524292 176.0
1123.985229 212.0
1124.63208 132.0
1124.838989 104.0
1125.092651 176.0
1125.226196 80.0
1125.38147 132.0
1125.994019 220.0
1126.161011 204.0
1126.247803 160.0
1126.321289 44.0
1126.5448 212.0
1127.203247 120.0
1127.437134 88.0
1127.677734 120.0
1127.904907 196.0
1128.6604 128.0
1129.476318 132.0
1130.198853 136.0
1130.415039 216.0
1130.888062 128.0
1131.443726 152.0
1131.657959 116.0
1131.858765 28.0
1131.952515 208.0
1132.394531 188.0
1133.52002 124.0
1134.002563 196.0
1134.485107 172.0
1134.599121 196.0
1135.33667 176.0
1135.812866 140.0
1136.222046 136.0
1137.356201 60.0
1137.403198 188.0
1138.302734 128.0
1138.793091 56.0
1139.508789 184.0
1139.578979 164.0
1139.76709 140.0
1139.96875 188.0
1140.217407 60.0
1140.398804 140.0
1140.69458 208.0
1141.091187 52.0
1141.911621 164.0
1142.046143 144.0
1143.149414 268.0
1143.492676 112.0
1143.755127 140.0
1145.007446 172.0
1145.438599 200.0
1147.62207 164.0
1148.107544 176.0
1148.964233 156.0
1149.632202 216.0
1150.064087 76.0
1150.118164 116.0
1150.435425 104.0
1150.543457 188.0
1150.69873 108.0
1150.880981 128.0
1151.252441 172.0
1151.772461 124.0
1152.31958 164.0
1152.853394 132.0
1153.265625 152.0
1153.84021 256.0
1155.233398 140.0
1156.546143 132.0
1156.830444 124.0
1157.737671 116.0
1158.760498 188.0
1158.875732 196.0
1159.160278 156.0
1159.557495 172.0
1159.741699 216.0
1159.892212 192.0
1160.47522 184.0
1160.705811 128.0
1161.105835 184.0
1161.628174 188.0
1162.164062 124.0
1162.754517 60.0
1163.71167 200.0
1163.97644 152.0
1164.105469 92.0
1165.008789 136.0
1165.391968 128.0
1165.586304 124.0
1165.799927 292.0
1165.845703 156.0
1166.456177 92.0
1166.884521 180.0
1167.553955 180.0
1167.816162 276.0
1167.891113 176.0
1169.326538 136.0
1169.932373 228.0
1170.347656 204.0
1170.824341 204.0
1171.151245 140.0
1171.41687 80.0
1173.059082 136.0
1173.106812 220.0
1174.20459 212.0
1175.193726 80.0
1175.896606 164.0
1176.156006 192.0
1176.469971 132.0
1176.55188 100.0
1177.282471 176.0
1177.603516 88.0
1178.122681 148.0
1178.231934 176.0
1178.43689 176.0
1178.532593 180.0
1178.593994 128.0
1179.373169 96.0
1179.461914 184.0
1179.981567 136.0
1180.029419 76.0
1180.726807 132.0
1182.538086 252.0
1183.354492 188.0
1184.111206 248.0
1184.326904 220.0
1184.943481 48.0
1185.053101 144.0
1185.251709 200.0
1186.074097 92.0
1186.204346 208.0
1187.013428 48.0
1187.136841 168.0
1187.774658 164.0
1188.220581 96.0
1188.851807 84.0
1188.998535 340.0
1189.277344 140.0
1189.366577 116.0
1189.4646 176.0
1189.545044 128.0
1189.929443 168.0
1190.671143 92.0
1190.897705 208.0
1191.179321 220.0
1191.406006 140.0
1191.495361 40.0
1191.811401 144.0
1192.436768 188.0
1193.11731 172.0
1193.268555 156.0
1193.412842 144.0
1193.866699 60.0
1194.183105 196.0
1195.042969 124.0
1195.600342 172.0
1195.910034 172.0
1196.0271 168.0
1196.197388 140.0
1196.777466 176.0
1197.121704 160.0
1197.803589 152.0
1198.313354 184.0
1198.49939 128.0
1200.433228 216.0
1201.567505 136.0
1202.042969 176.0
1202.485229 204.0
1203.203125 188.0
1203.879883 128.0
1204.453125 168.0
1204.708618 144.0
1204.964233 180.0
1205.606934 224.0
1206.31189 92.0
1207.293701 180.0
1207.584106 132.0
1207.949463 216.0
1208.594116 96.0
1208.806519 156.0
1210.123779 104.0
1210.456177 124.0
1210.553101 172.0
1212.901733 144.0
1213.005737 312.0
1213.068115 140.0
1213.172119 136.0
1213.504883 144.0
1215.235962 244.0
1216.043823 156.0
1216.244995 44.0
1216.293701 88.0
1216.606079 128.0
1217.467041 144.0
1218.196289 100.0
1218.745117 184.0
1218.967529 256.0
1219.294067 120.0
1219.731934 144.0
1220.461914 152.0
1220.531494 136.0
1220.719238 108.0
1220.809692 116.0
1222.903687 136.0
1223.133423 212.0
1223.251709 172.0
1224.713989 112.0
1224.811523 168.0
1228.038696 228.0
1228.429321 108.0
1228.778076 248.0
1229.203735 132.0
1229.39209 156.0
1230.020264 184.0
1230.109131 188.0
1232.65332 148.0
1232.890869 76.0
1233.212402 136.0
1233.380127 44.0
1233.498901 128.0
1233.65271 120.0
1233.848511 116.0
1234.946289 140.0
1235.212158 112.0
1235.491943 140.0
1236.363525 260.0
1236.835449 136.0
1237.639038 204.0
1238.214844 168.0
1238.480957 192.0
1238.572021 212.0
1238.758179 48.0
1238.943237 164.0
1239.097412 188.0
1239.321655 184.0
1239.685913 152.0
1240.050415 168.0
1240.513062 128.0
1240.814453 200.0
1241.073853 164.0
1241.200073 148.0
1241.971558 188.0
1242.217041 224.0
1242.70813 152.0
1242.788452 196.0
1242.925659 56.0
1243.3396 180.0
1243.536133 144.0
1243.613403 60.0
1243.669556 200.0
1243.936279 168.0
1244.329346 164.0
1244.451782 200.0
1245.115845 100.0
1245.3125 100.0
1246.844116 80.0
1246.969238 124.0
1247.300903 60.0
1247.406372 172.0
1247.561035 196.0
1247.842285 112.0
1248.861938 100.0
1249.459839 40.0
1250.269043 92.0
1250.64209 196.0
1250.832031 212.0
1251.19812 164.0
1251.692383 188.0
1252.071289 144.0
1252.331909 124.0
1252.937622 136.0
1253.466064 32.0
1253.68457 120.0
1253.888916 128.0
1254.114502 172.0
1254.466919 120.0
1254.932251 288.0
1255.637329 172.0
1255.848999 156.0
1256.109985 200.0
1256.427368 204.0
1256.667236 152.0
1257.111816 108.0
1257.789307 224.0
1258.262329 184.0
1258.629395 156.0
1258.961304 100.0
1259.194336 52.0
1259.293213 132.0
1260.338745 152.0
1260.522461 156.0
1260.62854 176.0
1260.868774 160.0
1261.632202 204.0
1261.914917 172.0
1262.317993 144.0
1262.402832 176.0
1262.933228 120.0
1263.824585 112.0
1263.994507 144.0
1264.178467 108.0
1264.235107 104.0
1264.411987 112.0
1265.155151 240.0
1265.466675 156.0
1266.040283 136.0
1267.421631 180.0
1267.828735 172.0
1268.059326 168.0
1268.116089 192.0
1268.612183 172.0
1268.803711 144.0
1269.186523 160.0
1269.36377 108.0
1270.039307 180.0
1270.370972 140.0
1271.130127 148.0
1272.237305 136.0
1272.457397 160.0
1273.749878 192.0
1273.962891 196.0
1274.012695 108.0
1274.190308 176.0
1274.23999 140.0
1274.609497 64.0
1274.950562 132.0
1275.085571 156.0
1275.405396 196.0
1275.839111 144.0
1276.606934 160.0
1276.78479 144.0
1277.78064 76.0
1278.235962 184.0
1278.541992 148.0
1278.769653 176.0
1278.961914 124.0
1279.403198 160.0
1279.752075 172.0
1279.887329 64.0
1280.045044 136.0
1280.463257 164.0
1280.908569 140.0
1282.237793 136.0
1282.387817 208.0
1282.452026 156.0
1282.744263 148.0
1283.157715 184.0
1283.271729 104.0
1283.392944 140.0
1283.450073 116.0
1284.04187 200.0
1284.19165 208.0
1284.312988 252.0
1284.391357 156.0
1284.826538 200.0
1285.290283 180.0
1285.425903 124.0
1286.339478 148.0
1286.867676 128.0
1287.388916 136.0
1287.510376 108.0
1287.924561 236.0
1288.424683 172.0
1288.53894 220.0
1289.174927 148.0
1289.267822 124.0
1289.675171 120.0
1290.483032 112.0
1291.040771 216.0
1291.105103 224.0
1291.197998 144.0
1291.569946 132.0
1291.734497 132.0
1292.364014 128.0
1292.464233 204.0
1292.650269 120.0
1292.764771 152.0
1293.308716 212.0
1293.637939 176.0
1293.752441 232.0
1294.417236 152.0
1294.518555 124.0
1294.944702 188.0
1295.070068 160.0
1295.127319 160.0
1295.593018 160.0
1295.865234 240.0
1296.323853 176.0
1296.575806 176.0
1297.0979 148.0
1298.495972 164.0
1298.739868 52.0
1299.062622 124.0
1299.198975 136.0
1299.629395 152.0
1300.430786 160.0
1300.749023 144.0
1301.080444 164.0
1301.596191 212.0
1301.746948 172.0
1301.962402 200.0
1302.414795 140.0
1303.348755 240.0
1303.700928 164.0
1303.844604 156.0
1303.894897 68.0
1304.146484 148.0
1304.340576 144.0
1304.513062 184.0
1304.714355 52.0
1305.569946 180.0
1305.900879 136.0
1306.217285 188.0
1306.634521 40.0
1306.778442 224.0
1306.907959 152.0
1307.36853 40.0
1307.944214 148.0
1308.095459 228.0
1308.455322 116.0
1308.844116 184.0
1309.045776 160.0
1309.22583 152.0
1309.737183 184.0
1310.255859 80.0
1310.349487 156.0
1310.774658 44.0
1311.178223 136.0
1311.55896 168.0
1311.92041 176.0
1311.999878 144.0
1312.070923 164.0
1312.158447 256.0
1312.540649 188.0
1312.988037 152.0
1313.629639 204.0
1314.004761 176.0
1314.545898 116.0
1314.662109 196.0
1315.036743 108.0
1315.130493 112.0
1315.397583 180.0
1315.477051 148.0
1315.578003 164.0
1315.794678 136.0
1315.859619 160.0
1316.263916 140.0
1316.346191 136.0
1316.690063 144.0
1316.942749 160.0
1317.17395 148.0
1317.88916 148.0
1318.098633 140.0
1318.163696 240.0
1318.39502 164.0
1318.515015 176.0
1318.698486 148.0
1318.850342 216.0
1319.37793 264.0
1319.544312 148.0
1319.667236 132.0
1319.840698 112.0
1319.978149 72.0
1320.274536 176.0
1320.368652 196.0
1320.440918 32.0
1320.513184 192.0
1321.149414 144.0
1321.359619 40.0
1321.771973 200.0
1322.061401 124.0
1322.126587 192.0
1322.418213 180.0
1322.87207 180.0
1323.002441 168.0
1323.748169 164.0
1323.885742 116.0
1323.987183 180.0
1324.414429 236.0
1324.588257 308.0
1324.921509 84.0
1326.450562 148.0
1326.784058 128.0
1327.4552 112.0
1327.505859 144.0
1327.588867 112.0
1328.655151 184.0
1329.290161 52.0
1329.438721 136.0
1329.540283 176.0
1329.620117 104.0
1330.425903 200.0
1330.491211 204.0
1330.759399 212.0
1331.059937 148.0
1331.275391 140.0
1331.546875 72.0
1332.016235 136.0
1332.263184 160.0
1332.511353 196.0
1332.800781 60.0
1333.214966 188.0
1333.418457 124.0
1333.505737 128.0
1334.283447 120.0
1334.436157 192.0
1334.748779 200.0
1335.156006 136.0
1335.359741 140.0
1335.490601 140.0
1335.810669 144.0
1336.065308 96.0
1336.128662 192.0
1336.157227 136.0
1336.288086 216.0
1336.40918 216.0
1336.516357 152.0
1336.581787 200.0
1336.770996 108.0
1337.171265 152.0
1337.229492 236.0
1337.564331 80.0
1339.195312 144.0
1339.319214 160.0
1339.63623 168.0
1339.770752 212.0
1340.018555 164.0
1340.31665 236.0
1341.047729 168.0
1341.140747 68.0
1341.621826 144.0
1341.796753 48.0
1341.884277 260.0
1342.059326 212.0
1342.365479 44.0
1342.571167 180.0
1342.708252 188.0
1343.051025 124.0
1343.255005 176.0
1343.838989 144.0
1343.955688 136.0
1344.006714 124.0
1344.240234 120.0
1344.831421 156.0
1345.553955 168.0
1345.641724 220.0
1346.231567 180.0
1346.306152 68.0
1346.598267 144.0
1347.197266 164.0
1347.438354 184.0
1348.142456 212.0
1348.461304 196.0
1348.709839 180.0
1348.863403 212.0
1348.95105 184.0
1349.031494 228.0
1349.360474 128.0
1349.54248 168.0
1349.784546 176.0
1350.303711 168.0
1350.35498 136.0
1350.547974 140.0
1351.267212 152.0
1351.277466 192.0
1351.437622 176.0
1351.503418 224.0
1352.103516 140.0
1352.645142 212.0
1353.284668 176.0
1353.385254 176.0
1353.545654 108.0
1353.72876 152.0
1354.358521 176.0
1354.46106 148.0
1354.768799 148.0
1354.842041 76.0
1355.354858 196.0
1355.472168 216.0
1355.54541 84.0
1355.772583 128.0
1356.051025 204.0
1356.307617 228.0
1356.754761 208.0
1356.916016 104.0
1357.004028 148.0
1357.297363 240.0
1357.44397 156.0
1357.495361 124.0
1358.023315 76.0
1358.243408 124.0
1358.686035 232.0
1358.730103 124.0
1358.881592 152.0
1358.940308 156.0
1359.270508 56.0
1359.872314 136.0
1359.953003 156.0
1360.107178 180.0
1360.224609 84.0
1360.584351 152.0
1360.672363 224.0
1360.804565 176.0
1360.95874 136.0
1361.862061 204.0
1361.972168 128.0
1362.199829 180.0
1362.29541 144.0
1362.537842 172.0
1362.692139 232.0
1363.037476 80.0
1363.199097 172.0
1363.728271 124.0
1364.389771 196.0
1364.551514 104.0
1364.779419 156.0
1364.897095 164.0
1365.147095 132.0
1365.213379 144.0
1365.301514 172.0
1366.272461 108.0
1366.596191 148.0
1366.758057 96.0
1366.824341 220.0
1366.883179 136.0
1367.229004 144.0
1367.412964 200.0
1367.552856 116.0
1368.929565 152.0
1369.025269 252.0
1369.238892 104.0
1369.518799 212.0
1369.622192 152.0
1370.196411 160.0
1370.424805 148.0
1370.609009 108.0
1370.793213 56.0
1370.955444 156.0
1371.404907 108.0
1371.7146 172.0
1371.994629 192.0
1372.237915 176.0
1372.289551 76.0
1372.591919 160.0
1373.314575 52.0
1373.439941 192.0
1373.971069 200.0
1374.893433 216.0
1375.011475 68.0
1375.144409 52.0
1376.493286 156.0
1376.613525 208.0
1376.716919 204.0
1377.086182 192.0
1377.315186 120.0
1377.470215 152.0
1377.632812 104.0
1377.765747 144.0
1378.024292 100.0
1378.401123 128.0
1378.536865 96.0
1378.696777 120.0
1378.903687 120.0
1379.391479 180.0
1380.530151 152.0
1380.655884 164.0
1380.781128 204.0
1380.944214 156.0
1381.11438 124.0
1381.195679 184.0
1381.772705 176.0
1381.891113 260.0
1382.031738 208.0
1382.268433 52.0
1382.327637 132.0
1382.438721 352.0
1382.766724 60.0
1382.960449 148.0
1383.008545 192.0
1383.186157 196.0
1383.667358 92.0
1383.770996 116.0
1383.919067 80.0
1384.148682 200.0
1384.355957 184.0
1384.696655 184.0
1385.222534 136.0
1385.429321 176.0
1385.732056 252.0
1385.867065 116.0
1385.947632 176.0
1386.189453 124.0
1386.281982 168.0
1386.452515 196.0
1386.600708 136.0
1386.741577 164.0
1387.593994 120.0
1387.860962 152.0
1387.964722 64.0
1388.535767 192.0
1388.669189 204.0
1389.114258 148.0
1389.210693 52.0
1389.27002 248.0
1389.952637 80.0
1390.019409 184.0
1390.078735 172.0
1390.130737 152.0
1390.204956 124.0
1390.442383 156.0
1390.53894 168.0
1390.717041 180.0
1391.024536 164.0
1391.288574 188.0
1391.451904 180.0
1391.622803 168.0
1392.475342 184.0
1392.536011 204.0
1392.732056 164.0
1392.796021 108.0
1392.862915 200.0
1393.108032 76.0
1393.306519 212.0
1393.546387 204.0
1394.185425 36.0
1394.542114 128.0
1394.623901 180.0
1394.846802 184.0
1395.493652 176.0
1396.259521 136.0
1396.549561 144.0
1396.690918 144.0
1396.780151 208.0
1397.010742 216.0
1397.338135 196.0
1397.516724 88.0
1398.09082 232.0
1398.275757 144.0
1398.394775 136.0
1398.826904 84.0
1398.953003 96.0
1399.02002 136.0
1399.072144 168.0
1399.578491 156.0
1399.824219 80.0
1399.883789 76.0
1401.015869 200.0
1401.165039 224.0
1401.440552 196.0
1401.671509 96.0
1401.902466 132.0
1402.304932 116.0
1402.483887 60.0
1402.723145 156.0
1402.946045 216.0
1403.231323 164.0
1403.579712 124.0
1404.004761 196.0
1404.362793 180.0
1404.49707 172.0
1404.623901 164.0
1404.720825 172.0
1404.996094 156.0
1405.429565 144.0
1405.534058 172.0
1405.854858 212.0
1406.04895 36.0
1406.101196 136.0
1406.28772 400.0
1406.347412 176.0
1406.474365 200.0
1406.645996 204.0
1406.862549 132.0
1407.362793 144.0
1407.459839 136.0
1407.579224 172.0
1408.087036 96.0
1408.572632 228.0
1408.796631 172.0
1409.282349 140.0
1409.745605 200.0
1409.827759 168.0
1409.924927 52.0
1410.231323 144.0
1410.560181 60.0
1411.098511 164.0
1411.397583 76.0
1411.75647 156.0
1411.861206 212.0
1411.965942 96.0
1412.202271 212.0
1412.317383 60.0
1412.511353 180.0
1412.660645 164.0
1413.080444 156.0
1413.147827 116.0
1413.873657 124.0
1413.955933 152.0
1414.143066 164.0
1414.554688 196.0
1414.831665 200.0
1414.966431 204.0
1415.078735 40.0
1415.370728 184.0
1415.820068 152.0
1415.954834 184.0
1416.381836 112.0
1416.723267 156.0
1416.958618 192.0
1417.205933 164.0
1418.127686 140.0
1418.457397 52.0
1418.517456 160.0
1418.569824 160.0
1418.703613 220.0
1418.978394 40.0
1419.169678 164.0
1419.833008 192.0
1420.031982 372.0
1420.204468 148.0
1420.587036 140.0
1421.059692 140.0
1421.158081 148.0
1421.599976 216.0
1421.765015 132.0
1422.050293 180.0
1422.155396 128.0
1422.343018 172.0
1422.605347 156.0
1422.756714 256.0
1422.845947 376.0
1424.948853 160.0
1425.234375 144.0
1425.56189 208.0
1426.346558 140.0
1426.602173 140.0
1426.917969 184.0
1427.083374 128.0
1427.519409 200.0
1428.011475 176.0
1428.223633 152.0
1428.399414 240.0
1428.519775 160.0
1429.016235 124.0
1429.076538 160.0
1429.430176 188.0
1429.527954 64.0
1429.776245 200.0
1430.009644 192.0
1430.355835 236.0
1430.611816 188.0
1430.882812 172.0
1431.28186 192.0
1431.613159 156.0
1432.220581 364.0
1432.328735 188.0
1432.705322 180.0
1432.758057 80.0
1432.875122 188.0
1433.134766 124.0
1434.137085 120.0
1434.408447 64.0
1435.395996 108.0
1435.820557 232.0
1436.39917 164.0
1436.489624 128.0
1436.5802 200.0
1436.692871 220.0
1436.813965 152.0
1436.866821 124.0
1437.115845 176.0
1437.176147 196.0
1437.327026 184.0
1437.410034 148.0
1437.57605 148.0
1437.727051 260.0
1438.240234 148.0
1438.585205 196.0
1439.304688 60.0
1439.516113 132.0
1439.6521 128.0
1440.158081 188.0
1441.034424 132.0
1441.329102 164.0
1441.434814 172.0
1441.638916 120.0
1441.714478 128.0
1441.94873 128.0
1442.046997 68.0
1442.273682 128.0
1443.30188 160.0
1443.823608 124.0
1444.0354 176.0
1444.12146 240.0
1444.406006 88.0
1444.496826 112.0
1444.70105 148.0
1444.859863 196.0
1445.4198 172.0
1446.449097 40.0
1446.592896 312.0
1446.713989 56.0
1447.092529 160.0
1447.622559 52.0
1448.016357 96.0
1448.380005 64.0
1448.470825 124.0
1448.614746 140.0
1449.008667 180.0
1449.553223 140.0
1449.572144 120.0
1449.819458 136.0
1450.039307 204.0
1450.115112 112.0
1450.213623 256.0
1450.296997 144.0
1450.516724 196.0
1450.948853 128.0
1451.042603 132.0
1451.153564 172.0
1451.259766 184.0
1451.373413 80.0
1451.51001 188.0
1451.578247 124.0
1451.72229 92.0
1452.21521 160.0
1452.799316 160.0
1453.064819 156.0
1453.375854 128.0
1453.444214 212.0
1453.520142 60.0
1453.702148 132.0
1454.22583 40.0
1454.453613 200.0
1454.521851 148.0
1454.681274 180.0
1454.981445 148.0
1455.045654 160.0
1455.387329 156.0
1456.101196 192.0
1456.192261 184.0
1456.412598 176.0
1456.678467 188.0
1456.861938 200.0
1457.088623 128.0
1457.194946 156.0
1457.362183 108.0
1457.453369 188.0
1457.749634 172.0
1458.000488 208.0
1458.084106 116.0
1458.783325 172.0
1458.948486 208.0
1459.490356 196.0
1459.705566 160.0
1459.885742 184.0
1460.151978 212.0
1460.494263 216.0
1460.687012 176.0
1460.844116 156.0
1460.937744 172.0
1461.369019 60.0
1461.642944 240.0
1462.1604 104.0
1462.297485 208.0
1463.02063 144.0
1463.111938 180.0
1463.294678 120.0
1464.040894 116.0
1464.124634 156.0
1464.208374 140.0
1464.573975 168.0
1464.672974 224.0
1465.076782 188.0
1465.632935 104.0
1466.143433 128.0
1466.250122 116.0
1466.356812 200.0
1466.448364 160.0
1466.577881 352.0
1466.672363 120.0
1466.791382 220.0
1467.096191 164.0
1467.164917 228.0
1467.388916 188.0
1467.724243 212.0
1467.98645 160.0
1468.110107 156.0
1468.194214 132.0
1468.339111 176.0
1468.998657 196.0
1469.170532 152.0
1469.345947 44.0
1469.44519 144.0
1469.620728 144.0
1470.307495 168.0
1470.383789 168.0
1470.620361 168.0
1470.704346 184.0
1470.821289 240.0
1470.902832 152.0
1471.078369 52.0
1471.284424 188.0
1471.414307 188.0
1471.673828 148.0
1471.872314 144.0
1471.929565 164.0
1472.12439 180.0
1472.322876 76.0
1472.376343 216.0
1473.147827 280.0
1473.243652 152.0
1473.453369 60.0
1473.78186 164.0
1473.831055 128.0
1474.19458 144.0
1474.293945 112.0
1474.622559 176.0
1474.826172 244.0
1475.035278 164.0
1475.203491 72.0
1475.700317 192.0
1475.89917 72.0
1476.15271 240.0
1476.289185 104.0
1476.38855 228.0
1476.831055 204.0
1476.91626 128.0
1477.497681 84.0
1478.109741 132.0
1478.232178 208.0
1478.471313 148.0
1478.53064 168.0
1479.165894 140.0
1479.341919 192.0
1479.518066 136.0
1479.594604 96.0
1479.77832 156.0
1480.076904 88.0
1480.459839 204.0
1480.551758 220.0
1480.743164 128.0
1480.796753 160.0
1480.880981 40.0
1480.980591 152.0
1481.301147 128.0
1481.328369 108.0
1481.401855 240.0
1481.686768 172.0
1481.774536 220.0
1481.961182 136.0
1482.166382 252.0
1482.328979 268.0
1482.451538 160.0
1483.470947 264.0
1483.555298 176.0
1483.647217 184.0
1483.867798 184.0
1484.14563 104.0
1484.237671 160.0
1484.459961 192.0
1484.820435 160.0
1484.897095 176.0
1485.150269 160.0
1485.618164 184.0
1485.971924 172.0
1486.040039 184.0
1486.231934 152.0
1486.408447 60.0
1486.469727 208.0
1487.091431 188.0
1487.169556 152.0
1487.598022 220.0
1487.705444 168.0
1487.859009 196.0
1487.989502 176.0
1488.073975 136.0
1488.264526 200.0
1488.57312 68.0
1488.890991 204.0
1489.003174 136.0
1489.133667 124.0
1489.463989 192.0
1489.947876 160.0
1490.232178 104.0
1490.479736 176.0
1490.662476 28.0
1490.723999 172.0
1491.238892 160.0
1491.454102 140.0
1491.585449 140.0
1491.688965 176.0
1492.049927 168.0
1492.330444 116.0
1492.561646 176.0
1492.722656 204.0
1493.037109 228.0
1493.087524 212.0
1493.68396 124.0
1494.838867 140.0
1495.145874 188.0
1495.515259 168.0
1495.599976 176.0
1495.661499 184.0
1495.715332 144.0
1495.800049 156.0
1495.890991 208.0
1496.164307 148.0
1497.031982 188.0
1497.370728 264.0
1497.51709 144.0
1498.002319 88.0
1498.233521 132.0
1498.356689 200.0
1498.526245 148.0
1498.93457 180.0
1499.004028 128.0
1499.158081 80.0
1499.235107 108.0
1499.396973 52.0
1499.458618 136.0
1499.874878 160.0
1500.098389 96.0
1500.167725 220.0
1500.614868 208.0
1500.877075 144.0
1501.262573 204.0
1501.339722 108.0
1502.481323 184.0
1502.612427 176.0
1502.874756 128.0
1502.959717 164.0
1503.360962 196.0
1503.892456 128.0
