>compound Entacapone
>formula C14H15N3O5
>ionization [M+H]+
>parentmass 306.109741
#inchi InChI=1S/C14H15N3O5/c1-3-16(4-2)14(20)10(8-15)5-9-6-11(17(21)22)13(19)12(18)7-9/h5-7,18-19H,3-4H2,1-2H3/b10-5+
#inchikey JRURYQJSLYLRLN
#Ion_Source LC-ESI
#Instrument qTof
#Compound_Source Commercial
#PI Dorrestein
#Data_Collector Garg_Neha
#Scan -1
#Precursor_MZ 306.108
#ExactMass 305.101
#Charge 1
#CAS_Number 130929-57-6,116314-67-1,1047659-02-8(sodium salt)
#Pubmed_ID N/A
#Smiles C(/C(=C/C1C=C(C(=C(C=1)[N+](=O)[O-])O)O)C#N)(=O)N(CC)CC
#INCHI_AUX N/A
#Library_Class 1
#SpectrumID CCMSLIB00000078586
#IonMode Positive
#UpdateWorkflowName UPDATE-SINGLE-ANNOTATED-GOLD
#LibraryQualityString Gold
#TaskID 77f51c88eb8b467eb4a01dd2d0cb90d2
##Scan# 1250
#SpectrumFile Plate9_41_60_GC6_01_15755.mzXML
#LibraryName FDALibrary_2_04302014.mgf
#MQScore -1
#Organism FDALibrary_2_04302014
#TIC_Query 0
#RT_Query -1
#MZErrorPPM -1
#SharedPeaks 0
#MassDiff 0
#LibMZ -1
#SpecMZ 306.108
#SpecCharge 0
#internalFilename spec-00000.mgf

>collision 10
45.745937 148.0
48.744347 176.0
48.940475 240.0
54.321728 180.0
54.886494 168.0
57.245514 188.0
57.935776 208.0
61.599014 156.0
70.582123 148.0
71.175301 192.0
85.038414 148.0
89.032173 156.0
90.747459 148.0
91.136559 156.0
91.589333 220.0
92.19606 160.0
92.559517 196.0
92.680191 164.0
93.000458 172.0
94.028236 152.0
96.092941 144.0
99.090073 152.0
100.075172 692.0
101.027122 488.0
101.992996 200.0
102.007072 200.0
102.02787 172.0
102.326942 176.0
102.63118 232.0
103.028404 780.0
104.015106 380.0
104.795914 144.0
105.014038 156.0
105.60865 168.0
107.028542 176.0
108.039864 156.0
108.585884 212.0
109.438713 176.0
109.605347 160.0
109.909782 220.0
110.037102 208.0
110.099747 152.0
110.938789 212.0
114.991745 140.0
115.029503 204.0
116.014206 168.0
116.033501 160.0
118.044579 204.0
118.063622 144.0
120.042412 160.0
121.038849 156.0
121.054176 144.0
123.041885 148.0
124.07225 288.0
124.137138 140.0
125.047997 248.0
125.077286 176.0
126.536919 188.0
127.861305 200.0
127.897316 140.0
128.00087 140.0
129.020889 792.0
130.024155 184.0
130.065018 156.0
131.025238 868.0
131.049789 144.0
132.008453 300.0
132.027451 136.0
132.064575 176.0
132.871933 192.0
133.038025 260.0
133.068558 144.0
134.026138 328.0
136.040588 232.0
137.049957 160.0
137.698471 160.0
141.020706 176.0
141.062347 196.0
142.016769 364.0
143.022552 368.0
143.055908 152.0
144.036682 220.0
144.17218 204.0
144.858856 208.0
145.034515 120.0
145.071381 188.0
146.059082 292.0
147.04213 164.0
147.218369 204.0
148.064789 136.0
148.998672 176.0
149.031616 128.0
149.069351 180.0
150.47702 164.0
151.083115 148.0
151.795853 176.0
152.09166 224.0
152.721725 228.0
153.007187 168.0
155.642868 152.0
157.014587 556.0
157.056427 164.0
157.081375 176.0
158.031464 156.0
158.065735 160.0
158.428787 160.0
159.020142 2488.0
159.769363 172.0
159.998383 324.0
160.021545 704.0
161.032608 652.0
161.069672 176.0
161.100449 160.0
161.214142 144.0
162.112518 216.0
163.043869 188.0
163.071823 156.0
163.980453 180.0
164.092606 168.0
168.02951 272.0
169.01651 188.0
169.578476 192.0
170.010208 2612.0
170.073868 144.0
171.015671 1292.0
171.950455 156.0
172.020737 340.0
172.05748 140.0
173.034424 272.0
173.09024 176.0
173.179291 176.0
174.076218 176.0
175.026764 320.0
176.034027 128.0
177.026688 180.0
177.10582 180.0
179.050705 160.0
179.095978 152.0
180.334015 200.0
182.044083 352.0
183.052673 140.0
185.010284 1632.0
185.778809 156.0
186.018097 196.0
186.055618 156.0
186.11264 332.0
187.014755 2680.0
187.073074 412.0
188.017548 536.0
188.072739 260.0
189.030014 312.0
189.06485 148.0
190.032806 132.0
191.001434 168.0
191.095428 140.0
192.030151 152.0
192.399033 172.0
193.742767 180.0
194.289215 164.0
198.049698 208.0
198.573822 152.0
200.082108 148.0
200.488403 156.0
201.103226 168.0
202.013092 160.0
203.019119 604.0
203.097992 172.0
203.563431 156.0
204.025879 132.0
204.080688 160.0
205.025146 872.0
205.111145 208.0
206.028305 156.0
207.035461 156.0
208.023621 300.0
210.54834 244.0
211.687744 152.0
214.952209 196.0
215.00708 1128.0
215.057266 176.0
215.10556 528.0
216.006363 172.0
216.067749 136.0
216.113831 124.0
217.014572 156.0
217.061264 124.0
217.105255 164.0
218.038818 176.0
219.024475 144.0
222.095596 196.0
223.066574 164.0
227.797028 148.0
230.10582 332.0
233.019363 10104.0
233.108597 148.0
233.363922 180.0
233.494675 224.0
234.022675 1216.0
235.029404 472.0
235.373779 100.0
235.761658 120.0
236.044128 300.0
237.063492 156.0
239.105164 796.0
239.13385 144.0
239.555267 160.0
240.097214 300.0
242.091049 204.0
243.072113 136.0
243.096649 184.0
244.106857 304.0
248.559494 164.0
249.50174 144.0
254.071579 196.0
254.157242 144.0
259.101898 192.0
260.113983 144.0
261.102173 172.0
271.800049 232.0
275.104126 168.0
277.10199 148.0
278.079865 476.0
278.11087 412.0
279.076416 168.0
281.155426 148.0
286.850677 156.0
287.093445 164.0
288.095886 188.0
289.096313 168.0
292.592834 140.0
295.863434 140.0
298.715149 192.0
299.754913 204.0
299.970764 196.0
303.158722 288.0
303.807129 220.0
304.098602 312.0
304.268677 160.0
305.109436 172.0
305.140717 152.0
305.168457 320.0
305.263275 124.0
305.805847 124.0
305.944366 148.0
306.0401 224.0
306.109741 79256.0
306.19632 192.0
306.243195 116.0
306.439819 140.0
306.525299 200.0
306.599854 168.0
306.647766 100.0
306.682709 508.0
306.716949 316.0
306.80835 224.0
306.837738 196.0
306.928711 128.0
306.970917 148.0
307.029449 136.0
307.111176 13484.0
307.185028 232.0
307.454346 116.0
308.112396 2436.0
308.264099 100.0
308.558136 116.0
308.931702 132.0
309.062958 192.0
309.128967 316.0
309.210358 200.0
310.117889 116.0
310.19928 152.0
311.646179 128.0
927.750854 140.0
1383.76416 184.0
1437.033691 160.0
1483.280518 200.0
1495.100952 176.0
1563.725098 144.0
1630.8573 212.0
1723.756958 152.0
1773.635132 188.0
1776.226196 172.0
1961.838379 216.0
1970.884766 248.0
1978.243164 140.0
