>compound MLS001143604-01!
>formula C21H18FN3O2
>ionization [M+H]+
>parentmass 364.146
#inchi InChI=1S/C21H18FN3O2/c1-2-17-19-15(14-5-3-4-6-16(14)23-19)11-18-20(26)24(21(27)25(17)18)13-9-7-12(22)8-10-13/h3-10,17-18,23H,2,11H2,1H3/t17-,18-/m0/s1
#inchikey SBUXRMKDJWEXRL
#Ion_Source LC-ESI
#Instrument qTof
#Compound_Source NIH Natural Product Library
#PI Dorrestein
#Data_Collector VVP/LMS
#Scan -1
#Precursor_MZ 364.146
#ExactMass 363.138
#Charge 1
#CAS_Number N/A
#Pubmed_ID N/A
#Smiles CC[C@@H]1N2[C@@H](Cc3c1[nH]c4ccccc34)C(=O)N(C2=O)c5ccc(F)cc5
#INCHI_AUX N/A
#Library_Class 1
#SpectrumID CCMSLIB00000080440
#IonMode Positive
#UpdateWorkflowName UPDATE-SINGLE-ANNOTATED-GOLD
#LibraryQualityString Gold
#TaskID b1d8e8f6646f4e71acdff9ca3d919d08
##Scan# 2341
#SpectrumFile p2-H08_GH8_01_18068.mzXML
#LibraryName NIH_Natural_Products_Library.mgf
#MQScore -1
#Organism NIH_Natural_Products_Library
#TIC_Query 0
#RT_Query -1
#MZErrorPPM -1
#SharedPeaks 0
#MassDiff 0
#LibMZ -1
#SpecMZ 364.146
#SpecCharge 0
#internalFilename spec-00000.mgf

>collision 10
95.059723 64.0
95.141243 260.0
95.393791 100.0
95.574669 96.0
95.673927 128.0
96.018829 120.0
96.04808 160.0
96.065643 116.0
96.333084 148.0
96.44838 88.0
96.50898 124.0
96.959229 168.0
97.684883 176.0
97.872704 100.0
98.199837 104.0
98.225479 152.0
98.452461 88.0
98.521599 48.0
98.687614 144.0
98.879501 132.0
98.915131 168.0
98.984428 92.0
99.026581 168.0
99.109222 204.0
99.200386 164.0
99.531723 116.0
99.5774 128.0
99.720451 264.0
100.014832 232.0
100.092476 164.0
100.451225 180.0
100.543007 228.0
100.720711 176.0
101.405014 184.0
101.91626 196.0
101.987091 128.0
102.156006 116.0
102.625267 228.0
102.879478 184.0
102.93399 228.0
103.052757 796.0
103.208809 192.0
103.403015 148.0
103.425278 148.0
103.672371 144.0
103.718987 184.0
103.757507 164.0
104.061836 168.0
104.094322 160.0
104.136978 152.0
104.256844 156.0
104.484581 76.0
104.504929 232.0
104.523239 140.0
104.769608 180.0
104.836845 164.0
104.969353 216.0
105.367378 248.0
105.406197 92.0
105.485909 164.0
105.512482 100.0
105.975044 160.0
106.535141 44.0
106.588562 88.0
107.074066 160.0
107.290428 180.0
107.381157 192.0
107.407974 92.0
107.634995 164.0
107.831253 168.0
107.975975 336.0
108.0401 236.0
108.145638 176.0
108.282288 236.0
108.414886 156.0
108.445969 84.0
108.645042 192.0
108.696915 128.0
109.048958 204.0
109.089462 208.0
109.237106 176.0
109.588951 140.0
109.918411 104.0
109.989365 152.0
110.040047 436.0
110.419792 156.0
111.012474 112.0
111.035545 140.0
111.297859 212.0
111.360863 128.0
111.539467 40.0
111.610947 92.0
111.625664 168.0
111.741356 80.0
111.926582 128.0
111.960274 96.0
111.992165 120.0
112.056198 200.0
112.126709 188.0
112.339676 72.0
112.451515 96.0
112.643661 216.0
112.665855 160.0
112.684738 180.0
112.78524 92.0
112.926903 200.0
113.369392 196.0
113.5093 252.0
113.55172 180.0
113.570808 136.0
113.858368 132.0
113.884949 156.0
114.212288 148.0
114.308029 64.0
114.501755 92.0
114.680725 132.0
114.872635 168.0
114.915306 116.0
115.05352 548.0
115.124496 192.0
115.331741 188.0
115.442917 132.0
115.492104 164.0
115.688972 36.0
116.048912 148.0
116.063919 52.0
116.308495 188.0
116.483078 132.0
116.512505 176.0
116.594154 96.0
116.617798 140.0
116.830681 184.0
117.056023 560.0
117.444618 156.0
117.669052 160.0
118.029884 152.0
118.06205 188.0
118.192123 116.0
118.291679 204.0
118.44326 220.0
118.623116 180.0
118.811783 216.0
118.866028 120.0
118.900749 144.0
118.976723 176.0
119.03318 192.0
119.267815 144.0
119.296074 132.0
119.661575 176.0
119.757393 92.0
120.042892 220.0
120.143227 204.0
120.210869 196.0
120.258881 196.0
120.29599 284.0
120.606178 192.0
120.737366 124.0
120.772354 56.0
121.008705 92.0
121.063446 168.0
121.523773 116.0
121.554497 132.0
121.995972 68.0
122.036552 304.0
122.072922 176.0
122.275322 160.0
122.857048 192.0
122.876907 252.0
123.024773 188.0
123.1661 168.0
123.433525 216.0
123.623764 168.0
123.805298 120.0
124.004692 128.0
124.077843 68.0
124.224213 100.0
124.337379 52.0
124.443932 192.0
124.459473 104.0
124.637177 124.0
124.750526 192.0
124.790543 136.0
124.808327 148.0
125.039688 136.0
125.057495 164.0
125.119827 164.0
125.226715 76.0
125.429482 92.0
125.752907 156.0
125.962334 192.0
126.048378 184.0
126.362968 212.0
126.380875 112.0
126.647278 44.0
126.687599 160.0
126.900513 68.0
127.050644 684.0
127.136047 52.0
127.374046 248.0
127.742142 176.0
127.810204 36.0
127.900223 156.0
128.062012 6152.0
128.093872 128.0
128.12825 148.0
128.230347 176.0
128.283173 76.0
128.402679 64.0
128.558716 268.0
128.576401 144.0
128.890305 220.0
128.946793 192.0
128.978439 108.0
129.028 164.0
129.069229 5580.0
129.146942 84.0
129.170639 68.0
129.331299 48.0
129.453568 156.0
129.573608 52.0
129.630264 288.0
129.700516 176.0
129.841095 232.0
129.859238 104.0
129.895523 276.0
129.998672 208.0
130.065643 4184.0
130.102036 152.0
130.142914 132.0
130.199677 76.0
130.401886 204.0
130.451889 48.0
130.688416 176.0
130.729385 124.0
130.925171 184.0
130.941101 152.0
131.068527 436.0
131.073898 344.0
131.132492 136.0
131.216843 48.0
131.232788 248.0
131.433517 208.0
131.467743 232.0
131.492859 156.0
131.794296 136.0
131.819427 260.0
131.842285 80.0
131.942856 60.0
131.990875 84.0
132.354706 140.0
132.444016 136.0
132.762604 172.0
132.780945 112.0
132.966782 92.0
133.02417 156.0
133.11142 56.0
133.644699 132.0
133.750565 144.0
133.96933 132.0
134.16983 140.0
134.229782 76.0
134.333572 108.0
134.407394 156.0
134.705231 164.0
134.744507 164.0
135.045029 172.0
136.262054 140.0
136.447708 160.0
136.58287 96.0
136.890091 112.0
136.911041 132.0
137.111404 324.0
137.155685 116.0
137.220963 128.0
137.267593 124.0
137.322235 160.0
137.510223 136.0
137.573257 180.0
137.708679 112.0
137.827835 160.0
138.034439 300.0
138.691406 204.0
138.80896 124.0
138.937637 160.0
138.958755 52.0
139.031311 204.0
139.069046 204.0
139.099564 176.0
139.430756 64.0
139.505966 72.0
139.663513 164.0
139.785858 68.0
139.814102 152.0
140.050156 672.0
140.523376 116.0
140.580017 124.0
140.662628 128.0
140.882248 188.0
141.066605 324.0
141.120941 216.0
141.445053 180.0
141.499512 156.0
141.814575 172.0
141.833542 204.0
142.074234 1164.0
142.227295 324.0
142.279526 44.0
142.540787 104.0
142.631104 192.0
142.652496 168.0
142.673889 48.0
142.747345 180.0
142.868912 152.0
143.02121 468.0
143.084412 5700.0
143.173584 156.0
143.216461 60.0
143.380859 140.0
143.421371 72.0
143.511032 156.0
143.927139 132.0
143.955795 124.0
144.010727 52.0
144.04364 164.0
144.083694 720.0
144.111069 48.0
144.173187 56.0
144.309448 128.0
144.72818 180.0
144.783249 44.0
144.855103 152.0
144.936569 104.0
145.066513 144.0
145.084854 124.0
145.088104 160.0
145.273376 92.0
145.373001 80.0
145.541031 112.0
146.004822 200.0
146.060822 292.0
146.084198 144.0
146.264679 216.0
146.344116 116.0
146.387466 76.0
146.647659 212.0
146.695877 76.0
146.753738 116.0
147.033554 180.0
147.644791 196.0
147.739136 136.0
147.88916 232.0
148.23494 160.0
148.497314 128.0
148.618622 176.0
149.065414 400.0
149.476379 184.0
150.014648 200.0
150.042435 184.0
150.069092 108.0
150.486008 156.0
150.766418 100.0
150.96199 212.0
151.06163 240.0
151.182175 196.0
151.544571 184.0
151.588684 104.0
151.664658 80.0
151.792145 76.0
152.060303 460.0
152.092255 212.0
152.351761 64.0
152.51886 188.0
152.754929 36.0
153.033035 108.0
153.069382 3812.0
153.299057 60.0
153.336029 40.0
153.368073 148.0
153.395187 132.0
153.44696 120.0
153.730621 68.0
153.829346 112.0
153.908356 160.0
153.933044 136.0
154.007141 152.0
154.065109 6520.0
154.232407 72.0
154.339844 224.0
154.427322 156.0
154.513916 68.0
154.635162 216.0
154.783707 132.0
154.870377 120.0
154.947174 200.0
155.006638 196.0
155.030289 148.0
155.072601 21660.0
155.114197 132.0
155.135529 96.0
155.160324 52.0
155.182632 44.0
155.201523 84.0
155.232224 128.0
155.284302 48.0
155.317444 88.0
155.363678 48.0
155.397705 112.0
155.433151 104.0
155.477829 28.0
155.50264 80.0
155.544846 100.0
155.676422 64.0
155.743484 92.0
155.800629 40.0
155.907471 40.0
155.979553 48.0
156.076309 2300.0
156.128723 44.0
156.158569 52.0
156.258072 52.0
156.305359 152.0
156.345169 44.0
156.516937 164.0
156.691284 100.0
156.798447 68.0
156.913101 104.0
157.036026 124.0
157.087021 328.0
157.247253 156.0
157.504547 120.0
157.686951 56.0
157.824448 128.0
157.939484 112.0
158.095505 1148.0
158.154678 176.0
158.337448 96.0
158.643158 96.0
158.766006 112.0
159.081528 156.0
159.119827 144.0
159.355911 192.0
159.580231 204.0
159.710373 132.0
159.936844 112.0
160.798843 172.0
160.882156 124.0
160.920013 72.0
161.432968 128.0
161.744171 96.0
162.258438 44.0
162.605957 124.0
163.44458 180.0
163.974289 108.0
164.027817 96.0
164.049164 200.0
164.747452 144.0
164.765335 136.0
164.844543 80.0
164.963272 132.0
165.000458 44.0
165.046478 136.0
165.06694 88.0
165.622314 144.0
166.001617 132.0
166.064026 272.0
166.571411 112.0
166.743561 148.0
166.995529 140.0
167.07283 1516.0
167.225143 232.0
167.30896 156.0
167.402161 140.0
167.574738 48.0
167.646896 48.0
168.05397 120.0
168.079605 4440.0
168.121414 188.0
168.150269 44.0
168.211746 156.0
168.38475 44.0
168.956009 196.0
169.018112 176.0
169.083206 3048.0
169.126801 76.0
169.217407 180.0
169.235535 136.0
169.445328 88.0
169.581604 224.0
169.639709 180.0
169.763214 112.0
169.796906 204.0
169.852341 184.0
169.982071 104.0
170.056076 520.0
170.096664 47724.0
170.168182 60.0
170.178604 28.0
170.18454 128.0
170.219681 52.0
170.246857 40.0
170.275421 80.0
170.315063 168.0
170.346619 64.0
170.364502 192.0
170.401321 112.0
170.412109 52.0
170.420456 48.0
170.480667 96.0
170.497818 80.0
170.534225 92.0
170.579437 56.0
170.621017 48.0
170.678223 128.0
170.704224 60.0
170.76236 68.0
170.912323 176.0
171.056747 196.0
171.099472 7620.0
171.146591 156.0
171.167419 68.0
171.235138 112.0
171.435028 44.0
171.526962 44.0
171.56868 56.0
171.626038 84.0
171.665146 64.0
171.71991 60.0
171.766861 40.0
171.983444 76.0
172.029846 108.0
172.106308 408.0
172.140091 56.0
172.17247 140.0
172.242828 48.0
172.29483 196.0
172.324051 132.0
172.385651 136.0
172.403946 124.0
172.450989 132.0
172.471893 88.0
172.500153 104.0
172.657532 48.0
172.919159 76.0
173.283157 48.0
173.398453 64.0
173.498062 44.0
173.521667 68.0
173.697372 112.0
173.946655 36.0
174.322235 80.0
174.393204 108.0
175.783768 36.0
176.039825 76.0
176.409729 84.0
177.161301 140.0
179.001953 124.0
179.606949 156.0
179.710983 116.0
180.081192 364.0
180.450836 104.0
181.079239 300.0
181.304749 132.0
181.827713 224.0
182.094162 3140.0
182.203659 156.0
182.286942 60.0
182.386383 28.0
182.609558 48.0
183.050919 116.0
183.094299 456.0
183.320312 68.0
184.067032 312.0
184.109253 444.0
184.262009 84.0
184.351181 112.0
185.016571 120.0
185.071793 1248.0
185.123062 236.0
185.263016 48.0
185.737411 124.0
186.084076 340.0
186.93013 48.0
187.074387 132.0
187.142456 104.0
187.660141 92.0
188.640259 112.0
189.020416 56.0
190.100113 136.0
190.226364 36.0
190.437805 64.0
190.745544 32.0
191.056305 120.0
192.075577 172.0
195.055664 896.0
195.686646 64.0
196.068771 264.0
196.6763 128.0
197.068588 144.0
197.107773 548.0
197.251724 52.0
198.024002 88.0
198.04361 76.0
198.111084 180.0
199.120255 420.0
200.120804 180.0
200.510498 92.0
201.114075 228.0
202.137161 48.0
202.295654 152.0
205.008179 120.0
206.087051 152.0
207.089996 132.0
207.10025 176.0
208.094635 164.0
209.0849 320.0
209.096191 156.0
209.104553 228.0
209.201508 36.0
209.81514 92.0
210.086594 376.0
210.461441 108.0
210.663605 76.0
211.097946 140.0
223.212219 132.0
223.405548 92.0
224.099243 168.0
225.100876 552.0
226.101349 104.0
226.129898 116.0
227.028687 136.0
227.112564 284.0
227.851151 56.0
229.123764 116.0
235.086929 548.0
235.158356 188.0
235.802811 92.0
236.071838 148.0
236.100998 172.0
237.431595 108.0
238.017731 152.0
240.05484 136.0
246.699478 108.0
247.331375 120.0
248.848694 112.0
253.102249 212.0
257.094971 120.0
262.084686 108.0
264.820953 100.0
271.122131 52.0
275.412506 80.0
276.096649 180.0
277.102966 116.0
278.054657 180.0
278.124359 220.0
278.918243 72.0
281.093079 144.0
282.549866 64.0
285.290405 116.0
288.097076 140.0
294.138397 124.0
298.138916 84.0
302.114532 184.0
302.841461 140.0
310.074707 216.0
310.779572 72.0
312.525879 104.0
317.09552 240.0
319.111847 112.0
320.172241 116.0
320.589081 44.0
321.142456 168.0
321.152893 196.0
322.091125 144.0
322.316223 216.0
334.084717 164.0
335.100708 120.0
337.00528 72.0
441.27478 40.0
451.82724 76.0
457.314087 68.0
482.403778 84.0
526.332581 112.0
551.133972 132.0
563.784241 48.0
568.866516 44.0
607.241821 64.0
629.867737 60.0
649.732788 124.0
654.831299 20.0
690.095337 36.0
694.048523 36.0
713.090515 80.0
769.756958 48.0
783.662964 160.0
803.956665 64.0
889.024658 52.0
889.196716 224.0
892.065674 44.0
893.701172 180.0
897.662292 40.0
922.447083 144.0
927.18335 20.0
945.218201 108.0
955.926208 152.0
957.231262 152.0
961.435486 272.0
963.76355 120.0
964.746216 184.0
984.092957 124.0
984.205383 136.0
990.709839 220.0
992.803345 172.0
1002.585388 128.0
1009.852173 160.0
1010.256958 192.0
1029.132935 196.0
1036.930908 196.0
1040.092896 124.0
1042.058105 112.0
1048.254395 132.0
1052.886353 216.0
1057.379517 156.0
1059.775513 64.0
1077.609741 176.0
1090.79541 152.0
1094.611328 220.0
1096.890869 232.0
1098.109497 184.0
1109.185791 120.0
1114.707764 276.0
1127.275635 160.0
1128.438599 116.0
1130.170898 48.0
1132.929321 40.0
1135.644165 128.0
1140.021484 36.0
1142.139282 132.0
1151.69043 212.0
1164.213135 148.0
1170.237793 200.0
1176.052734 160.0
1183.155151 144.0
1186.32019 276.0
1192.676514 160.0
1193.666626 244.0
1195.069824 48.0
1201.201172 200.0
1203.154175 124.0
1203.692749 164.0
1207.721802 148.0
1208.136841 168.0
1212.651611 196.0
1218.438843 164.0
1228.156738 164.0
1228.651978 164.0
1228.882202 136.0
1229.572998 156.0
1246.393921 176.0
1256.215332 228.0
1258.445435 96.0
1258.61499 188.0
1260.458496 172.0
1263.102661 228.0
1266.521484 104.0
1267.265381 152.0
1270.462769 156.0
1271.768433 152.0
1274.189941 188.0
1276.549805 164.0
1281.910034 120.0
1296.029785 208.0
1304.951416 152.0
1307.404297 48.0
1311.466309 180.0
1314.415894 160.0
1314.848877 156.0
1317.86731 176.0
1320.715698 132.0
1331.87085 156.0
1332.444702 28.0
1333.476562 152.0
1336.15979 136.0
1336.232544 224.0
1337.207642 168.0
1337.695312 244.0
1339.304565 232.0
1340.040405 36.0
1341.971802 104.0
1342.270752 172.0
1342.788452 128.0
1347.555298 176.0
1351.335205 120.0
1353.545654 144.0
1354.102295 176.0
1356.916138 88.0
1357.565552 140.0
1357.869385 152.0
1360.077881 52.0
1364.272217 72.0
1366.088623 156.0
1376.111572 136.0
1376.98291 160.0
1379.273315 224.0
1380.101318 180.0
1382.490601 136.0
1384.289551 188.0
1385.059692 144.0
1385.60791 172.0
1386.289551 136.0
1387.008545 184.0
1389.337036 200.0
1389.804443 128.0
1394.27478 204.0
1400.651123 124.0
1400.941528 60.0
1401.723877 60.0
1407.041992 48.0
1407.325684 140.0
1407.415283 204.0
1410.373657 140.0
1411.577271 180.0
1412.093262 136.0
1412.586914 92.0
1415.161377 200.0
1418.697632 200.0
1431.033691 96.0
1431.605957 260.0
1431.658691 72.0
1435.826172 184.0
1441.457886 168.0
1441.926392 48.0
1443.151001 256.0
1445.881836 152.0
1447.509399 92.0
1453.103149 132.0
1453.573608 176.0
1458.692505 216.0
1461.430298 188.0
1461.856445 196.0
1462.921997 184.0
1465.199097 188.0
1465.808594 260.0
1470.513916 148.0
1472.506592 160.0
1475.82312 180.0
1478.018433 180.0
1479.319458 184.0
1481.134277 160.0
1484.889893 140.0
1486.224731 196.0
1490.217285 140.0
1491.262451 148.0
1491.623657 200.0
1492.108032 220.0
1493.776733 152.0
1495.338745 188.0
1495.854492 192.0
1496.139282 168.0
1496.354858 192.0
1496.893799 184.0
1497.132568 152.0
1497.278931 96.0
1497.586914 180.0
1497.833374 100.0
1498.195435 120.0
1498.965942 168.0
1502.042114 112.0
1504.071533 88.0
