>compound MLS001140720-01!3-(4-chlorophenyl)-2-[2-[[2-(7-methoxy-4,8-dimethyl-2-oxochromen-3-yl)acetyl]amino]butanoylamino]propanoic acid
>formula C27H29ClN2O7
>ionization [M+H]+
>parentmass 529.174
#inchi InChI=1S/C27H29ClN2O7/c1-5-20(25(32)30-21(26(33)34)12-16-6-8-17(28)9-7-16)29-23(31)13-19-14(2)18-10-11-22(36-4)15(3)24(18)37-27(19)35/h6-11,20-21H,5,12-13H2,1-4H3,(H,29,31)(H,30,32)(H,33,34)
#inchikey UOBJQMIMYDLHEC
#Ion_Source LC-ESI
#Instrument qTof
#Compound_Source NIH Natural Product Library
#PI Dorrestein
#Data_Collector VVP/LMS
#Scan -1
#Precursor_MZ 529.174
#ExactMass 528.166
#Charge 1
#CAS_Number N/A
#Pubmed_ID N/A
#Smiles CCC(NC(=O)Cc1c(C)c2ccc(OC)c(C)c2oc1=O)C(=O)NC(Cc3ccc(Cl)cc3)C(=O)O
#INCHI_AUX N/A
#Library_Class 1
#SpectrumID CCMSLIB00000080520
#IonMode Positive
#UpdateWorkflowName UPDATE-SINGLE-ANNOTATED-GOLD
#LibraryQualityString Gold
#TaskID b1d8e8f6646f4e71acdff9ca3d919d08
##Scan# 2205
#SpectrumFile p2-B10_GB10_01_17998.mzXML
#LibraryName NIH_Natural_Products_Library.mgf
#MQScore -1
#Organism NIH_Natural_Products_Library
#TIC_Query 0
#RT_Query -1
#MZErrorPPM -1
#SharedPeaks 0
#MassDiff 0
#LibMZ -1
#SpecMZ 529.174
#SpecCharge 0
#internalFilename spec-00000.mgf

>collision 10
94.949875 108.0
94.986725 380.0
95.04493 44.0
95.132263 328.0
95.408119 200.0
95.464508 88.0
95.478119 160.0
95.506783 152.0
95.520912 284.0
95.550087 92.0
95.565659 136.0
95.613922 144.0
95.664909 196.0
95.772011 204.0
95.924507 136.0
95.959084 116.0
96.003929 108.0
96.029289 136.0
96.20295 240.0
96.263168 204.0
96.334747 160.0
96.361137 144.0
96.398262 180.0
96.478401 116.0
96.593773 244.0
96.638771 136.0
96.743011 152.0
96.770668 200.0
96.797318 296.0
96.818855 140.0
96.863907 72.0
96.914841 168.0
96.956406 152.0
96.999115 196.0
97.052048 248.0
97.112839 156.0
97.142258 28.0
97.157951 184.0
97.197197 224.0
97.242332 140.0
97.325905 112.0
97.417084 148.0
97.440498 164.0
97.454857 196.0
97.529579 160.0
97.55661 212.0
97.61953 232.0
97.626305 180.0
97.721809 92.0
97.875336 40.0
97.902901 148.0
97.944267 144.0
97.963966 132.0
98.011246 232.0
98.027008 132.0
98.042778 136.0
98.147255 124.0
98.237976 124.0
98.318871 160.0
98.534103 168.0
98.553856 124.0
98.583496 168.0
98.599312 212.0
98.623024 192.0
98.708038 208.0
98.721878 88.0
98.771324 144.0
98.791107 296.0
98.951408 56.0
99.101929 140.0
99.131653 164.0
99.147507 140.0
99.175255 68.0
99.260498 256.0
99.288261 120.0
99.308098 224.0
99.423164 148.0
99.466835 148.0
99.494621 140.0
99.552208 136.0
99.619995 152.0
99.66748 200.0
99.704285 152.0
99.734985 80.0
99.752876 196.0
99.818489 140.0
100.029381 124.0
100.043312 104.0
100.077515 156.0
100.109306 136.0
100.134903 176.0
100.166779 120.0
100.202637 216.0
100.219009 72.0
100.296295 100.0
100.334785 116.0
100.417915 188.0
100.455818 180.0
100.579292 132.0
100.611473 80.0
100.637428 200.0
100.655396 176.0
100.683357 148.0
100.731293 192.0
100.832397 160.0
100.907158 136.0
101.039154 64.0
101.066414 160.0
101.129196 136.0
101.173241 140.0
101.187248 188.0
101.20327 272.0
101.222099 228.0
101.272179 160.0
101.36351 80.0
101.394005 240.0
101.431656 108.0
101.493805 112.0
101.509842 40.0
101.584053 136.0
101.712479 132.0
101.881157 220.0
101.924324 132.0
101.99369 40.0
102.01178 64.0
102.039314 172.0
102.074104 160.0
102.244385 168.0
102.311523 156.0
102.347763 208.0
102.369911 108.0
102.43148 148.0
102.460197 252.0
102.476669 124.0
102.556511 232.0
102.577431 172.0
102.595573 200.0
102.712532 188.0
102.75692 212.0
102.775078 196.0
102.819473 104.0
102.837631 196.0
103.029465 160.0
103.049828 152.0
103.071892 168.0
103.112312 116.0
103.189125 132.0
103.225517 116.0
103.365097 76.0
103.379524 152.0
103.415688 152.0
103.446053 120.0
103.474396 128.0
103.496666 116.0
103.691139 156.0
103.721542 172.0
103.810745 208.0
103.86145 56.0
103.898674 80.0
103.918251 40.0
103.958832 60.0
104.001457 124.0
104.021751 128.0
104.05368 192.0
104.129364 72.0
104.155769 136.0
104.196861 124.0
104.265488 72.0
104.334595 100.0
104.367455 128.0
104.397629 188.0
104.436272 144.0
104.507469 196.0
104.543648 144.0
104.635696 152.0
104.658089 140.0
104.674377 168.0
104.715111 156.0
104.739548 88.0
104.830872 92.0
104.863838 128.0
104.886261 92.0
104.941299 148.0
105.026955 184.0
105.043274 172.0
105.070335 632.0
105.202438 372.0
105.300453 136.0
105.402596 200.0
105.47821 124.0
105.516479 184.0
105.62339 92.0
105.660217 124.0
105.737968 136.0
105.754349 252.0
105.829903 176.0
105.860802 92.0
105.879234 156.0
105.955025 176.0
106.024689 176.0
106.051331 168.0
106.073883 156.0
106.24614 104.0
106.285118 220.0
106.336426 124.0
106.381584 212.0
106.437012 196.0
106.529434 164.0
106.576691 76.0
106.607513 108.0
106.652725 192.0
106.895409 92.0
106.913872 140.0
107.083893 172.0
107.130913 136.0
107.247688 360.0
107.276436 136.0
107.476486 316.0
107.554909 76.0
107.585869 336.0
107.643684 156.0
107.67466 144.0
107.736626 176.0
107.80481 272.0
107.889557 108.0
107.961922 136.0
107.982605 164.0
108.023972 116.0
108.058708 96.0
108.098457 108.0
108.112938 136.0
108.135704 140.0
108.206085 112.0
108.380066 184.0
108.462959 164.0
108.566628 220.0
108.595665 112.0
108.655823 72.0
108.711243 128.0
108.738823 216.0
108.7658 48.0
108.828087 140.0
108.923615 152.0
108.971397 48.0
109.021263 108.0
109.178047 240.0
109.220856 124.0
109.288467 144.0
109.305115 40.0
109.318436 204.0
109.408142 256.0
109.453941 108.0
109.495598 104.0
109.514336 208.0
109.533089 208.0
109.560165 116.0
109.689369 160.0
109.728973 168.0
109.858849 116.0
109.863014 192.0
109.897911 200.0
110.031487 148.0
110.050278 76.0
110.085777 188.0
110.17141 156.0
110.19648 32.0
110.491272 172.0
110.696396 128.0
110.836739 152.0
110.88913 136.0
110.905899 220.0
110.922668 176.0
111.004433 132.0
111.019112 136.0
111.117699 36.0
111.163857 156.0
111.268806 80.0
111.283501 192.0
111.340195 100.0
111.390373 108.0
111.510368 100.0
111.558716 116.0
111.733269 52.0
111.781662 168.0
111.829147 172.0
111.851112 208.0
111.94796 160.0
111.978714 172.0
112.013252 228.0
112.044846 72.0
112.112274 176.0
112.127029 112.0
112.167076 172.0
112.20713 128.0
112.238754 92.0
112.266167 164.0
112.316788 172.0
112.432823 196.0
112.456848 168.0
112.53051 116.0
112.580605 132.0
112.599609 172.0
112.660866 224.0
112.718941 192.0
112.745384 176.0
112.82782 92.0
112.931435 144.0
113.018166 184.0
113.104935 160.0
113.191734 140.0
113.225616 120.0
113.332329 192.0
113.356964 72.0
113.452339 156.0
113.469299 136.0
113.496864 148.0
113.515945 64.0
113.532913 256.0
113.55806 28.0
113.624123 132.0
113.719612 132.0
113.748405 240.0
113.787537 144.0
113.891594 216.0
113.922455 68.0
113.929405 60.0
113.937469 148.0
114.036072 212.0
114.097717 144.0
114.144493 136.0
114.167885 152.0
114.245781 244.0
114.323181 60.0
114.376389 192.0
114.433868 92.0
114.450905 112.0
114.487106 152.0
114.5084 88.0
114.538696 192.0
114.578209 176.0
114.620277 188.0
114.77478 140.0
114.819557 140.0
114.87075 120.0
114.926216 188.0
114.971977 136.0
115.056023 364.0
115.163177 48.0
115.190948 48.0
115.274071 172.0
115.334114 132.0
115.455978 140.0
115.515869 152.0
115.550095 208.0
115.584328 60.0
115.620705 172.0
115.676361 92.0
115.697762 260.0
115.804832 208.0
115.851959 128.0
115.890518 176.0
116.034119 132.0
116.055283 184.0
116.104881 204.0
116.182098 140.0
116.291534 128.0
116.31514 160.0
116.343048 176.0
116.396729 220.0
116.514854 116.0
116.589912 172.0
116.744843 196.0
116.848091 100.0
116.914795 96.0
116.970573 140.0
116.9991 120.0
117.069023 296.0
117.14518 176.0
117.164566 52.0
117.298172 172.0
117.418915 188.0
117.599159 200.0
117.606064 108.0
117.613899 172.0
117.63253 128.0
117.716728 140.0
117.740311 252.0
117.762085 144.0
117.79232 128.0
117.937096 220.0
117.97168 100.0
117.99762 144.0
118.038704 132.0
118.060326 52.0
118.077629 148.0
118.126274 204.0
118.157661 120.0
118.196609 220.0
118.248543 188.0
118.348122 192.0
118.5214 184.0
118.625435 120.0
118.649277 192.0
118.725166 100.0
118.777222 104.0
118.811928 156.0
118.924767 88.0
118.994232 156.0
119.013779 152.0
119.071526 376.0
119.122368 136.0
119.235352 164.0
119.270126 196.0
119.376656 172.0
119.407104 104.0
119.422325 108.0
119.454956 180.0
119.576363 180.0
119.713959 176.0
119.87516 148.0
119.892593 88.0
119.944901 192.0
120.026154 208.0
120.077904 148.0
120.210976 132.0
120.22625 176.0
120.254623 208.0
120.368149 156.0
120.390236 172.0
120.433662 116.0
120.453323 120.0
120.488274 180.0
120.503571 256.0
120.517883 196.0
120.547264 180.0
120.608459 88.0
120.6968 196.0
120.759003 136.0
120.831512 128.0
120.952545 144.0
121.028496 208.0
121.06572 152.0
121.100761 144.0
121.245361 112.0
121.311119 52.0
121.368698 112.0
121.390045 108.0
121.626991 188.0
121.657722 116.0
121.714806 112.0
121.835602 164.0
121.971848 124.0
122.044395 144.0
122.178558 152.0
122.250214 192.0
122.30619 168.0
122.328201 120.0
122.348015 148.0
122.389847 44.0
122.45591 192.0
122.550636 148.0
122.731377 140.0
122.750694 184.0
122.832825 200.0
122.956383 136.0
123.042465 104.0
123.199265 144.0
123.378273 160.0
123.422485 172.0
123.469055 140.0
123.504311 152.0
123.555191 160.0
123.610504 204.0
123.625999 184.0
123.674683 180.0
123.691322 200.0
123.734459 136.0
123.76545 144.0
123.796341 156.0
123.847389 52.0
123.867325 120.0
123.996124 180.0
124.051247 124.0
124.091156 120.0
124.115547 228.0
124.137718 144.0
124.270805 28.0
124.359573 76.0
124.399048 168.0
124.446144 184.0
124.491409 208.0
124.545761 140.0
124.688278 192.0
124.702484 112.0
124.788307 116.0
124.863907 156.0
124.930641 152.0
125.050797 224.0
125.074303 164.0
125.124252 64.0
125.139839 256.0
125.171013 128.0
125.18927 140.0
125.23114 56.0
125.465111 144.0
125.562271 84.0
125.656914 156.0
125.799744 128.0
125.838936 176.0
125.886574 220.0
125.913612 52.0
125.980621 200.0
125.998497 164.0
126.123634 208.0
126.193954 132.0
126.275139 200.0
126.322647 152.0
126.371864 184.0
126.405205 180.0
126.427528 160.0
126.451996 188.0
126.477043 124.0
126.564301 156.0
126.642738 112.0
126.808533 240.0
126.860085 124.0
126.891472 84.0
126.907166 152.0
127.014816 148.0
127.09333 132.0
127.115547 200.0
127.160652 132.0
127.210037 104.0
127.234734 160.0
127.27739 84.0
127.402077 196.0
127.436867 148.0
127.493042 124.0
127.522209 196.0
127.562714 124.0
127.641403 56.0
127.773804 208.0
127.936142 156.0
127.987061 156.0
128.012695 168.0
128.062393 1340.0
128.104492 180.0
128.127396 156.0
128.169205 200.0
128.27179 168.0
128.298935 208.0
128.393539 172.0
128.43866 96.0
128.51149 168.0
128.585419 172.0
128.601105 420.0
128.622742 232.0
128.662048 140.0
128.682373 112.0
128.744293 200.0
128.76593 96.0
128.817871 180.0
128.844986 152.0
128.885651 180.0
128.921814 168.0
128.955704 100.0
129.034821 124.0
129.069855 500.0
129.104919 144.0
129.137314 188.0
129.184082 176.0
129.199921 148.0
129.267792 68.0
129.285904 92.0
129.358337 124.0
129.38768 108.0
129.423981 152.0
129.469269 180.0
129.530426 172.0
129.587067 200.0
129.673172 76.0
129.772919 176.0
129.818268 144.0
129.974777 176.0
130.03833 132.0
130.075729 572.0
130.115509 76.0
130.135941 164.0
130.151825 148.0
130.188156 128.0
130.21315 112.0
130.268417 60.0
130.299469 124.0
130.315369 72.0
130.347183 108.0
130.365356 252.0
130.747406 148.0
130.769058 148.0
130.787567 200.0
130.815689 164.0
130.868057 172.0
130.890823 108.0
130.913544 148.0
130.965973 208.0
131.050018 564.0
131.084305 280.0
131.175613 140.0
131.255402 220.0
131.278214 112.0
131.294174 184.0
131.323822 148.0
131.339783 164.0
131.398621 192.0
131.472122 308.0
131.488098 164.0
131.5186 208.0
131.574829 172.0
131.750687 120.0
131.816116 156.0
131.824524 100.0
131.864929 80.0
131.988373 248.0
132.04895 196.0
132.114166 160.0
132.13588 128.0
132.29953 100.0
132.340744 116.0
132.388397 128.0
132.510239 112.0
132.535431 196.0
132.589676 216.0
132.771545 124.0
132.833481 128.0
132.880661 112.0
132.918365 148.0
132.934418 156.0
133.021637 284.0
133.060715 164.0
133.104202 328.0
133.159409 160.0
133.180069 248.0
133.379974 72.0
133.401672 184.0
133.444351 148.0
133.48114 108.0
133.536331 156.0
133.616837 180.0
133.697372 232.0
133.745712 184.0
133.785156 208.0
133.883896 176.0
133.999023 220.0
134.028809 284.0
134.064926 132.0
134.103058 132.0
134.231812 112.0
134.348709 112.0
134.377136 196.0
134.622818 136.0
134.767319 104.0
134.813538 152.0
134.834824 384.0
134.914154 136.0
134.966431 200.0
135.044724 196.0
135.105347 156.0
135.155396 148.0
135.181229 44.0
135.197418 92.0
135.215942 152.0
135.30159 144.0
135.519287 160.0
135.535507 176.0
135.584167 220.0
135.620056 200.0
135.687836 128.0
135.751343 184.0
135.767075 188.0
135.97612 184.0
136.024628 236.0
136.157196 32.0
136.268707 140.0
136.312851 172.0
136.352356 164.0
136.380249 128.0
136.408142 84.0
136.436035 180.0
136.522064 160.0
136.540665 300.0
136.656982 192.0
136.703278 240.0
136.724457 216.0
136.773331 188.0
136.898331 192.0
136.929337 168.0
136.982849 156.0
137.024841 96.0
137.090073 112.0
137.150681 176.0
137.169601 136.0
137.223282 188.0
137.248596 180.0
137.290558 184.0
137.367355 216.0
137.418854 128.0
137.495865 188.0
137.512192 148.0
137.595932 160.0
137.635925 124.0
137.656937 212.0
137.677963 76.0
137.776062 116.0
137.827454 184.0
138.016068 208.0
138.196884 56.0
138.234329 148.0
138.360718 112.0
138.379456 92.0
138.456726 288.0
138.482483 52.0
138.517624 172.0
138.627731 64.0
138.693359 196.0
138.776764 172.0
138.89032 180.0
139.124115 240.0
139.150803 112.0
139.176636 236.0
139.204987 156.0
139.235336 164.0
139.25647 84.0
139.308151 76.0
139.331635 216.0
139.498489 128.0
139.630173 144.0
139.703079 292.0
139.77066 204.0
139.877213 120.0
139.91806 184.0
140.023514 208.0
140.252548 116.0
140.277664 280.0
140.372742 124.0
140.409714 164.0
140.471039 108.0
140.508774 208.0
140.62204 136.0
140.692856 172.0
140.715317 180.0
140.742432 208.0
140.789673 140.0
140.818008 164.0
140.865601 132.0
140.978653 156.0
141.018829 172.0
141.070312 792.0
141.115753 160.0
141.134674 52.0
141.548752 220.0
141.607956 216.0
141.681396 188.0
141.788025 152.0
141.841324 204.0
141.94339 200.0
141.949677 248.0
141.972931 112.0
141.994492 176.0
142.078781 896.0
142.146103 72.0
142.16983 148.0
142.366867 132.0
142.426254 128.0
142.447632 32.0
142.495132 188.0
142.599869 112.0
142.637726 96.0
142.716171 144.0
142.770874 156.0
142.804169 128.0
142.95166 124.0
143.04567 512.0
143.082932 160.0
143.196869 72.0
143.254379 144.0
143.385086 68.0
143.444672 112.0
143.556732 188.0
143.599655 208.0
143.621124 208.0
143.733261 100.0
143.811874 212.0
143.846756 136.0
143.905106 132.0
144.000626 176.0
144.056488 164.0
144.091034 128.0
144.153519 196.0
144.273026 204.0
144.289764 160.0
144.366425 136.0
144.387802 140.0
144.471512 196.0
144.658173 192.0
144.822617 184.0
144.866516 248.0
144.897018 240.0
144.974335 208.0
145.031845 164.0
145.066284 556.0
145.128693 232.0
145.399658 180.0
145.466019 40.0
145.566849 136.0
145.715775 60.0
145.831116 196.0
145.932083 144.0
145.992188 172.0
146.013214 92.0
146.071625 1016.0
146.107651 84.0
146.252029 104.0
146.290543 148.0
146.415756 144.0
146.456772 120.0
146.514511 80.0
146.538605 104.0
146.688019 240.0
146.728989 172.0
146.815796 148.0
146.842896 188.0
146.914688 200.0
146.941223 152.0
146.975006 52.0
146.994308 88.0
147.042572 208.0
147.068466 188.0
147.086029 192.0
147.136719 176.0
147.189835 152.0
147.255035 36.0
147.289276 160.0
147.337173 136.0
147.457977 184.0
147.578857 184.0
147.68042 120.0
147.777176 156.0
147.878815 128.0
147.978073 124.0
148.010986 288.0
148.061691 248.0
148.091888 164.0
148.113678 144.0
148.20816 176.0
148.232391 144.0
148.276016 192.0
148.307526 156.0
148.323105 112.0
148.363281 200.0
148.423889 108.0
148.476044 196.0
148.620361 204.0
148.656754 188.0
148.715942 280.0
148.8461 192.0
148.910507 160.0
148.955383 100.0
149.053696 184.0
149.147354 132.0
149.244583 188.0
149.339432 148.0
149.45134 124.0
149.543808 112.0
149.602234 144.0
149.703247 244.0
149.741013 176.0
149.784866 128.0
149.877441 180.0
149.89537 188.0
149.940796 184.0
149.975266 172.0
150.096817 156.0
150.157776 140.0
150.201691 128.0
150.276382 212.0
150.360275 204.0
150.387115 36.0
150.440826 184.0
150.675262 228.0
150.830765 152.0
150.870773 56.0
150.983261 144.0
151.042023 148.0
151.1129 168.0
151.13736 156.0
151.175232 84.0
151.200989 116.0
151.252396 112.0
151.318481 160.0
151.421326 112.0
151.438477 128.0
151.526657 136.0
151.563416 160.0
151.744019 140.0
151.818344 176.0
151.901733 192.0
152.102951 132.0
152.129959 48.0
152.149597 92.0
152.201157 132.0
152.250259 156.0
152.382904 172.0
152.417313 172.0
152.495941 92.0
152.545105 140.0
152.571915 168.0
152.636078 188.0
152.76561 228.0
152.908844 136.0
152.917099 120.0
152.922104 164.0
152.942215 136.0
153.010056 152.0
153.069153 96.0
153.091309 232.0
153.111023 168.0
153.12825 124.0
153.152893 188.0
153.239105 120.0
153.290848 76.0
153.325348 180.0
153.428879 128.0
153.466354 60.0
153.507782 128.0
153.529968 104.0
153.611359 124.0
153.628632 148.0
153.749527 128.0
153.779144 72.0
153.823578 180.0
153.883408 120.0
153.950867 108.0
153.98407 188.0
154.042114 924.0
154.072998 128.0
154.194077 144.0
154.250916 196.0
154.325089 116.0
154.426483 132.0
154.547699 124.0
154.750656 120.0
154.824936 184.0
154.852173 136.0
154.90419 216.0
155.003738 224.0
155.045837 620.0
155.094986 124.0
155.14209 176.0
155.169357 64.0
155.20903 224.0
155.233826 244.0
155.262833 228.0
155.375214 40.0
155.416595 176.0
155.556366 168.0
155.581192 176.0
155.618423 204.0
155.640778 144.0
155.7267 292.0
155.757507 148.0
155.814636 136.0
155.835556 176.0
155.911545 132.0
155.930023 164.0
155.986099 164.0
156.010971 172.0
156.040222 320.0
156.110413 132.0
156.165131 160.0
156.204926 136.0
156.239761 152.0
156.306931 136.0
156.369156 188.0
156.463745 120.0
156.537918 176.0
156.60228 188.0
156.879776 172.0
156.944595 64.0
156.981995 160.0
157.00943 192.0
157.036728 148.0
157.06427 320.0
157.19902 112.0
157.523926 180.0
157.581055 128.0
157.661011 80.0
157.695999 212.0
157.718491 144.0
157.747391 148.0
157.793488 240.0
157.866013 148.0
157.895798 180.0
157.918518 124.0
157.938538 124.0
157.977844 168.0
158.031097 164.0
158.072083 2192.0
158.105026 212.0
158.153717 92.0
158.257507 288.0
158.291412 188.0
158.311447 88.0
158.394089 112.0
158.544418 160.0
158.579514 52.0
158.613083 212.0
158.667236 188.0
158.699829 176.0
158.822723 56.0
158.883835 220.0
158.94313 128.0
159.020935 156.0
159.043518 136.0
159.079803 560.0
159.189026 176.0
159.225311 184.0
159.335358 184.0
159.367477 88.0
159.412704 204.0
159.530838 172.0
159.679184 144.0
159.701828 164.0
159.724457 432.0
159.77478 212.0
160.081848 196.0
160.157852 132.0
160.197708 88.0
160.217789 148.0
160.394257 244.0
160.447189 400.0
160.469879 56.0
160.500137 148.0
160.612152 208.0
160.671646 164.0
160.722107 116.0
160.742294 168.0
160.828094 112.0
160.916458 132.0
160.961899 148.0
161.002304 212.0
161.02504 140.0
161.099258 1360.0
161.166504 136.0
161.186707 160.0
161.340881 136.0
161.421799 48.0
161.487549 140.0
161.507782 152.0
161.64946 200.0
161.679825 140.0
161.715256 176.0
161.796265 164.0
161.816513 120.0
161.857025 120.0
161.988724 256.0
162.01152 148.0
162.09613 128.0
162.161026 196.0
162.191055 136.0
162.343552 184.0
162.366379 168.0
162.488144 148.0
162.57225 136.0
162.650894 148.0
162.739395 152.0
162.781174 188.0
162.818115 188.0
162.907013 112.0
162.934967 168.0
162.973068 160.0
163.018814 192.0
163.056931 132.0
163.079803 140.0
163.159836 140.0
163.186508 172.0
163.227249 60.0
163.290833 120.0
163.359512 116.0
163.379852 252.0
163.47168 140.0
163.491821 236.0
163.522354 208.0
163.585983 148.0
163.613052 120.0
163.738754 108.0
163.899246 168.0
163.96962 136.0
163.984406 144.0
164.019714 132.0
164.159256 160.0
164.187973 168.0
164.340347 80.0
164.368423 160.0
164.465393 128.0
164.501068 160.0
164.629578 144.0
164.679871 184.0
164.785263 156.0
164.796616 40.0
164.804337 144.0
164.863815 148.0
164.955826 52.0
164.991623 184.0
165.096451 156.0
165.221786 104.0
165.255051 160.0
165.35997 32.0
165.705658 112.0
165.735306 344.0
165.806335 220.0
165.84404 188.0
165.928635 32.0
165.982483 208.0
166.082489 80.0
166.110703 172.0
166.231293 76.0
166.295059 128.0
166.326248 144.0
166.376816 132.0
166.38652 92.0
166.391663 176.0
166.431503 272.0
166.467453 224.0
166.663773 196.0
166.7733 168.0
166.822021 160.0
166.861435 192.0
166.896576 248.0
167.09462 40.0
167.229584 144.0
167.253189 168.0
167.35199 168.0
167.436981 256.0
167.465302 156.0
167.485916 100.0
167.570923 148.0
167.742172 132.0
167.849289 140.0
167.88797 124.0
167.949875 136.0
167.985977 236.0
168.09137 208.0
168.162308 292.0
168.249207 60.0
168.32666 180.0
168.362808 48.0
168.383469 168.0
168.458374 124.0
168.494553 156.0
168.530716 124.0
168.595322 132.0
168.6651 60.0
168.683197 164.0
168.716797 156.0
168.872208 120.0
168.949554 100.0
168.987961 132.0
169.019409 148.0
169.040115 220.0
169.079239 168.0
169.567368 280.0
169.622849 52.0
169.736908 44.0
169.775818 164.0
169.93663 112.0
170.037842 152.0
170.087158 204.0
170.311584 184.0
170.331238 168.0
170.424759 220.0
170.526108 184.0
170.552094 160.0
170.698227 152.0
170.757507 200.0
170.827728 48.0
170.856339 156.0
170.887558 136.0
170.934723 196.0
170.963028 192.0
171.025482 192.0
171.079895 160.0
171.134354 156.0
171.199921 80.0
171.267639 184.0
171.543839 124.0
171.603806 344.0
171.640305 128.0
171.79158 164.0
171.828094 160.0
172.005554 164.0
172.104141 300.0
172.149155 160.0
172.178574 136.0
172.242569 172.0
172.274521 36.0
172.300644 160.0
172.332001 136.0
172.376419 140.0
172.410385 184.0
172.661362 148.0
172.708435 172.0
172.739822 196.0
172.773834 136.0
172.894196 68.0
173.014603 136.0
173.032928 100.0
173.058029 420.0
173.0961 1452.0
173.184814 84.0
173.20314 128.0
173.226715 112.0
173.252914 204.0
173.286972 204.0
173.379486 352.0
173.457321 168.0
173.482758 176.0
173.556946 228.0
173.706421 132.0
173.754807 108.0
173.819244 204.0
173.85408 72.0
173.937347 68.0
173.974091 140.0
174.026596 156.0
174.068451 2884.0
174.096848 448.0
174.152649 100.0
174.249847 116.0
174.291885 52.0
174.314804 160.0
174.43219 104.0
174.525818 368.0
174.596817 176.0
174.680984 160.0
174.759903 164.0
174.789551 120.0
174.920441 80.0
174.957291 132.0
174.994049 192.0
175.042633 164.0
175.073654 148.0
175.157242 128.0
175.215332 200.0
175.32869 192.0
175.437469 236.0
175.559448 232.0
175.758514 80.0
175.874634 32.0
175.940796 184.0
176.006638 176.0
176.071579 444.0
176.114914 140.0
176.16246 156.0
176.25148 196.0
176.313065 120.0
176.455795 164.0
176.474304 200.0
176.537766 240.0
176.701767 104.0
176.73616 408.0
176.759979 224.0
176.786743 172.0
176.820847 60.0
177.101486 152.0
177.14122 232.0
177.249847 132.0
177.321396 116.0
177.403564 144.0
177.44606 148.0
177.490082 196.0
177.538788 160.0
177.583878 100.0
177.756317 172.0
177.809387 64.0
177.896988 148.0
177.916611 152.0
177.987244 144.0
178.01561 112.0
178.08551 144.0
178.236938 120.0
178.332611 104.0
178.430832 164.0
178.49025 80.0
178.516037 80.0
178.542633 120.0
178.59317 152.0
178.651688 128.0
178.672974 116.0
178.750137 212.0
178.771423 68.0
178.808685 144.0
178.836548 152.0
178.888535 72.0
178.915146 208.0
178.939117 148.0
178.97905 176.0
179.001999 188.0
179.14418 128.0
179.194794 176.0
179.224106 44.0
179.322693 124.0
179.448669 204.0
179.503983 172.0
179.530655 140.0
179.578659 176.0
179.722702 92.0
179.745392 132.0
179.813431 184.0
179.90152 76.0
179.966125 160.0
180.018646 200.0
180.050339 196.0
180.096451 184.0
180.12851 144.0
180.230026 196.0
180.293884 232.0
180.34227 236.0
180.454544 232.0
180.558823 188.0
180.665817 112.0
180.746078 164.0
180.795532 228.0
180.984299 144.0
181.003052 184.0
181.222687 96.0
181.305756 92.0
181.326279 164.0
181.415588 112.0
181.557755 92.0
181.624802 168.0
181.678452 184.0
181.705276 236.0
181.946823 160.0
181.984406 132.0
182.014648 272.0
182.183517 172.0
182.204636 160.0
182.333557 172.0
182.356049 220.0
182.387375 108.0
182.459946 116.0
182.52179 76.0
182.558411 168.0
182.664337 192.0
182.699295 52.0
182.909195 68.0
182.979568 140.0
183.022552 180.0
183.094971 220.0
183.197327 180.0
183.218628 208.0
183.37587 168.0
183.496475 172.0
183.590851 60.0
183.623215 156.0
183.682541 148.0
183.723007 172.0
183.757416 212.0
183.782364 140.0
183.847122 168.0
183.936188 172.0
184.022583 152.0
184.068481 112.0
184.119217 112.0
184.163437 124.0
184.207642 144.0
184.338608 80.0
184.368332 56.0
184.453476 160.0
184.573776 96.0
184.635971 184.0
184.676544 96.0
184.703598 164.0
184.788986 248.0
184.83075 52.0
184.963348 200.0
185.017502 148.0
185.049988 156.0
185.068939 180.0
185.093307 192.0
185.150177 208.0
185.171844 112.0
185.215179 164.0
185.280182 92.0
185.330643 200.0
185.418747 120.0
185.469879 140.0
185.515961 116.0
185.537643 220.0
185.597778 224.0
185.727463 112.0
185.816986 72.0
185.887527 212.0
185.917389 176.0
185.990662 52.0
186.03952 40.0
186.066666 196.0
186.096542 240.0
186.319046 56.0
186.450943 160.0
186.593735 84.0
186.650833 116.0
186.705215 132.0
186.728806 160.0
186.960938 184.0
187.067093 76.0
187.167831 128.0
187.260391 200.0
187.28241 160.0
187.32579 152.0
187.361206 136.0
187.418518 208.0
187.505615 156.0
187.557404 136.0
187.74826 188.0
187.789169 144.0
187.824615 212.0
187.850281 168.0
187.873718 156.0
187.913742 388.0
187.958298 128.0
187.996506 252.0
188.056549 156.0
188.079819 160.0
188.159332 196.0
188.184845 144.0
188.209427 116.0
188.310455 92.0
188.3405 232.0
188.419724 104.0
188.490768 208.0
188.583679 28.0
188.628998 76.0
188.662949 124.0
188.687561 148.0
188.742233 148.0
188.775055 168.0
188.828613 164.0
189.032196 144.0
189.091385 7516.0
189.177246 56.0
189.284027 156.0
189.377136 104.0
189.4664 116.0
189.519592 60.0
189.59906 128.0
189.686768 80.0
189.768219 152.0
189.840302 208.0
189.873215 104.0
189.908859 100.0
189.933548 72.0
190.010361 188.0
190.093689 720.0
190.172256 88.0
190.2052 136.0
190.224411 96.0
190.394638 220.0
190.440292 180.0
190.493515 168.0
190.545715 128.0
190.581436 196.0
190.600662 192.0
190.671646 164.0
190.7715 152.0
190.870041 76.0
190.911301 88.0
190.972733 164.0
191.048813 188.0
191.073578 228.0
191.103149 176.0
191.153366 196.0
191.18364 200.0
191.279968 104.0
191.329529 164.0
191.354294 144.0
191.503799 164.0
191.536057 120.0
191.588196 168.0
191.728912 52.0
191.784042 160.0
191.905334 136.0
191.924637 220.0
192.170105 68.0
192.319122 144.0
192.381241 264.0
192.459915 56.0
192.515152 200.0
192.595993 148.0
192.631149 112.0
192.672592 164.0
192.719177 176.0
192.774826 96.0
192.946182 124.0
193.08168 168.0
193.109329 188.0
193.196426 156.0
193.278076 180.0
193.314056 156.0
193.357483 52.0
193.394623 144.0
193.469055 124.0
193.543137 252.0
193.585342 128.0
193.629654 204.0
193.649033 84.0
193.731873 164.0
193.801392 156.0
193.905167 212.0
193.984467 136.0
194.107971 304.0
194.144379 176.0
194.308777 144.0
194.336517 92.0
194.385529 212.0
194.472504 40.0
194.508575 108.0
194.555771 160.0
194.645523 184.0
194.75293 176.0
194.793793 156.0
194.833481 112.0
194.869598 152.0
194.914062 108.0
194.963531 164.0
195.001373 180.0
195.103058 144.0
195.242737 152.0
195.317169 148.0
195.437103 184.0
195.461838 180.0
195.545334 256.0
195.592651 60.0
195.62883 208.0
195.662231 104.0
195.759689 116.0
195.859955 128.0
195.907303 128.0
196.007614 128.0
196.032684 172.0
196.158112 144.0
196.188766 68.0
196.212189 160.0
196.361649 112.0
196.383957 156.0
196.420227 220.0
196.520645 172.0
196.570877 132.0
196.649017 176.0
196.690414 140.0
196.788589 140.0
196.847229 68.0
196.976837 128.0
197.216003 128.0
197.242126 180.0
197.347397 212.0
197.394928 124.0
197.473236 60.0
197.523575 144.0
197.557144 120.0
197.633377 48.0
197.85939 136.0
197.951782 164.0
197.974182 116.0
198.279541 176.0
198.346817 136.0
198.429291 148.0
198.475769 80.0
198.559906 108.0
198.585983 216.0
198.63002 200.0
198.691742 148.0
198.745041 136.0
198.924667 164.0
198.98642 232.0
199.062241 80.0
199.29538 132.0
199.388107 100.0
199.551147 88.0
199.729675 88.0
199.846466 220.0
199.933701 32.0
200.012497 120.0
200.049164 312.0
200.085693 188.0
200.201141 160.0
200.302536 144.0
200.375778 144.0
200.415222 76.0
200.511032 172.0
200.544846 176.0
200.709061 80.0
200.738144 248.0
200.770401 204.0
200.840897 124.0
200.86203 168.0
200.981964 112.0
201.019409 192.0
201.057159 160.0
201.126404 196.0
201.185165 168.0
201.413895 48.0
201.456268 216.0
201.490173 200.0
201.563629 232.0
201.682327 48.0
201.857605 172.0
201.959412 152.0
202.057343 676.0
202.191422 152.0
202.242355 132.0
202.324448 112.0
202.494354 144.0
202.563538 160.0
202.60199 212.0
202.774826 212.0
202.807281 188.0
202.848526 156.0
202.885376 64.0
202.934418 188.0
203.044174 84.0
203.066025 144.0
203.231384 208.0
203.256927 60.0
203.322784 172.0
203.390305 196.0
203.537933 132.0
203.608932 152.0
203.708344 124.0
203.728226 188.0
203.833359 124.0
203.952713 204.0
203.983978 64.0
204.026627 212.0
204.051498 128.0
204.089172 196.0
204.111603 212.0
204.143204 232.0
204.177322 76.0
204.21669 200.0
204.26265 104.0
204.441895 124.0
204.57283 40.0
204.626907 164.0
204.646851 28.0
204.863281 156.0
204.928818 156.0
205.103867 264.0
205.128311 204.0
205.156815 192.0
205.175247 96.0
205.196716 132.0
205.270859 168.0
205.327896 80.0
205.396347 124.0
205.493332 76.0
205.61319 244.0
205.633163 208.0
205.68454 156.0
205.721649 232.0
205.772369 204.0
206.009171 268.0
206.067215 192.0
206.164032 176.0
206.250107 176.0
206.387329 164.0
206.470261 48.0
206.49028 60.0
206.544708 180.0
206.587524 116.0
206.641876 204.0
206.716278 248.0
206.776367 132.0
206.919495 128.0
206.942398 148.0
207.019714 152.0
207.042618 132.0
207.207001 208.0
207.234543 132.0
207.363495 148.0
207.400757 196.0
207.421326 160.0
207.457703 148.0
207.759201 80.0
207.839203 140.0
207.942841 116.0
207.991638 184.0
208.023209 152.0
208.077332 352.0
208.189026 176.0
208.270157 248.0
208.290253 96.0
208.436783 92.0
208.494247 340.0
208.534485 160.0
208.600601 188.0
208.646591 84.0
208.67247 136.0
208.695465 136.0
208.715591 112.0
208.750107 108.0
209.040649 128.0
209.066544 144.0
209.19606 92.0
209.46962 188.0
209.540573 140.0
209.72319 124.0
209.916351 152.0
209.989777 148.0
210.073944 200.0
210.16153 116.0
210.395309 100.0
210.415512 204.0
210.461716 180.0
210.551224 148.0
210.640762 140.0
210.701157 128.0
210.747665 124.0
210.791 124.0
210.897934 92.0
210.92395 144.0
211.07428 152.0
211.117661 196.0
211.158142 312.0
211.181274 96.0
211.22467 156.0
211.282532 204.0
211.323029 152.0
211.396851 172.0
211.456146 120.0
211.542969 52.0
211.57193 176.0
211.62114 112.0
211.658783 236.0
211.687744 108.0
211.742767 120.0
211.806107 152.0
211.925262 136.0
211.962921 88.0
212.061462 92.0
212.104935 116.0
212.131027 100.0
212.165817 64.0
212.191696 112.0
212.267288 248.0
212.325287 152.0
212.406494 212.0
212.481918 120.0
212.550415 212.0
212.687958 124.0
212.77504 100.0
212.798279 188.0
212.847092 152.0
212.870865 132.0
212.92894 200.0
213.050934 144.0
213.071274 112.0
213.286316 160.0
213.332825 124.0
213.475204 140.0
213.631561 192.0
213.67308 180.0
213.832016 288.0
213.8564 180.0
213.882599 196.0
213.901993 160.0
213.999054 128.0
214.036896 140.0
214.11763 232.0
214.188339 156.0
214.354401 128.0
214.389374 132.0
214.468063 176.0
214.515289 120.0
214.568893 204.0
214.619659 180.0
214.707138 72.0
214.761475 200.0
214.823807 144.0
214.882156 160.0
214.958679 88.0
215.004715 92.0
215.030975 196.0
215.077667 200.0
215.118546 168.0
215.183334 124.0
215.331696 60.0
215.361557 216.0
215.405167 104.0
215.436844 116.0
215.49118 280.0
215.553711 172.0
215.592331 148.0
215.628601 140.0
215.689301 180.0
215.743683 96.0
215.768326 396.0
215.822632 92.0
215.852539 156.0
215.892807 52.0
215.935349 176.0
216.004059 100.0
216.029541 80.0
216.06543 192.0
216.103653 288.0
216.152557 212.0
216.178284 232.0
216.226639 140.0
216.278442 212.0
216.305344 72.0
216.338196 176.0
216.36702 176.0
216.412125 160.0
216.438934 224.0
216.475174 456.0
216.513428 112.0
216.564209 376.0
216.601257 144.0
216.647202 280.0
216.658798 120.0
216.69252 192.0
216.738266 240.0
216.772736 508.0
216.794022 184.0
216.828888 304.0
216.858887 228.0
216.905701 428.0
216.92778 440.0
216.955612 512.0
216.982025 700.0
216.994598 496.0
217.006775 772.0
217.015854 664.0
217.043823 540.0
217.050797 680.0
217.088089 309776.0
217.183746 200.0
217.238998 92.0
217.307114 152.0
217.33551 196.0
217.362823 712.0
217.387848 128.0
217.398743 384.0
217.441269 308.0
217.481827 248.0
217.505203 56.0
217.534073 280.0
217.573242 4996.0
217.59938 568.0
217.62085 336.0
217.691071 164.0
217.703781 328.0
217.715286 184.0
217.756012 120.0
217.776306 100.0
217.806427 264.0
217.858246 300.0
217.885925 316.0
217.956482 148.0
218.017197 188.0
218.027008 252.0
218.09079 65324.0
218.156799 104.0
218.176178 248.0
218.21637 244.0
218.243744 116.0
218.264145 72.0
218.288101 128.0
218.308701 132.0
218.350082 252.0
218.373199 64.0
218.412643 80.0
218.438446 100.0
218.454117 192.0
218.505325 32.0
218.527054 112.0
218.57338 452.0
218.612228 272.0
218.635773 200.0
218.705948 148.0
218.724838 132.0
218.748718 108.0
218.796143 196.0
218.820374 56.0
218.834625 36.0
218.845383 76.0
218.855408 52.0
218.874008 56.0
218.883438 60.0
218.919724 76.0
218.956482 76.0
218.985016 80.0
219.021576 112.0
219.092438 5144.0
219.171112 156.0
219.206711 92.0
219.235214 116.0
219.262924 296.0
219.309174 72.0
219.358963 92.0
219.37114 132.0
219.404877 136.0
219.421631 124.0
219.42572 168.0
219.452225 272.0
219.482574 88.0
219.5233 100.0
219.555969 216.0
219.576324 212.0
219.61908 96.0
219.645477 88.0
219.66951 280.0
219.70256 236.0
219.732834 116.0
219.781403 352.0
219.791153 220.0
219.797104 348.0
219.819489 76.0
219.860062 232.0
219.907257 60.0
219.95636 184.0
219.996033 112.0
220.018356 96.0
220.051514 120.0
220.09462 520.0
220.143219 92.0
220.180573 76.0
220.23027 76.0
220.25441 100.0
220.289856 116.0
220.326523 88.0
220.354858 108.0
220.382187 132.0
220.433746 80.0
220.528992 116.0
220.534744 64.0
220.57814 72.0
220.601303 220.0
220.659393 92.0
220.700668 136.0
220.724136 256.0
220.762756 60.0
220.792328 92.0
220.838486 132.0
220.952057 48.0
221.03862 172.0
221.129608 92.0
221.268723 104.0
221.407898 64.0
221.44014 36.0
221.49202 80.0
221.518967 64.0
221.576736 96.0
221.600433 84.0
221.624146 28.0
221.76889 128.0
221.952652 72.0
222.018387 36.0
222.205261 76.0
222.234924 44.0
222.271774 200.0
222.303177 48.0
222.380341 60.0
222.439697 40.0
222.591522 88.0
222.709915 36.0
222.828735 60.0
223.030807 80.0
223.097076 68.0
223.176468 48.0
223.310287 88.0
223.464981 96.0
223.539368 88.0
223.575073 84.0
223.610794 72.0
223.691162 52.0
223.753677 76.0
223.813217 64.0
224.084259 72.0
224.131927 64.0
224.588043 116.0
224.680527 96.0
224.811813 96.0
224.990891 44.0
225.146164 104.0
225.167068 80.0
225.19693 28.0
225.483749 128.0
225.504669 64.0
225.629852 96.0
225.768356 120.0
225.893387 48.0
226.10582 60.0
226.246506 40.0
226.323257 88.0
226.462097 96.0
226.63884 120.0
226.788681 96.0
226.842636 64.0
226.929581 48.0
227.145493 84.0
227.263779 132.0
227.370132 120.0
227.569778 96.0
227.757843 64.0
227.78186 60.0
227.823929 108.0
227.887009 232.0
227.908051 160.0
227.995193 120.0
228.136459 176.0
228.169525 68.0
228.265747 72.0
228.352951 96.0
228.38002 140.0
228.608673 128.0
228.656815 56.0
228.692932 64.0
228.732071 56.0
228.780228 68.0
228.972946 92.0
229.024139 88.0
229.235031 92.0
229.291397 68.0
229.326859 136.0
229.355576 64.0
229.43396 52.0
229.545517 156.0
229.614868 104.0
229.729492 80.0
229.756638 72.0
229.856216 36.0
229.964859 88.0
230.025223 188.0
230.127869 68.0
230.152023 72.0
230.245636 108.0
230.342285 88.0
230.54068 84.0
230.624069 116.0
230.834915 192.0
230.940765 184.0
230.971008 92.0
231.019409 124.0
231.073868 40.0
231.153412 236.0
231.267532 52.0
231.303864 64.0
231.412842 92.0
231.449173 52.0
231.546768 88.0
231.658142 96.0
231.727829 60.0
231.755096 168.0
231.997559 44.0
232.164307 40.0
232.300125 108.0
232.616394 88.0
232.843369 132.0
232.97168 76.0
233.014221 72.0
233.260376 40.0
233.689163 84.0
233.76828 120.0
233.855728 180.0
234.267609 168.0
234.487 92.0
234.508331 84.0
234.575394 52.0
235.005402 72.0
235.048111 64.0
235.191544 68.0
235.952179 32.0
236.089783 144.0
236.386505 144.0
236.591583 112.0
236.717117 76.0
237.188919 104.0
237.250229 76.0
237.84227 116.0
238.348999 88.0
238.656372 120.0
238.893173 164.0
239.148575 60.0
239.324036 180.0
239.47493 160.0
239.511902 216.0
240.117905 208.0
240.495499 188.0
241.62532 160.0
242.031937 108.0
242.118652 136.0
242.233246 132.0
242.453232 188.0
242.645416 56.0
242.722931 120.0
243.064133 36.0
243.268967 184.0
243.43663 172.0
243.467682 156.0
243.557755 128.0
243.682007 80.0
243.800095 104.0
243.849808 112.0
243.905762 68.0
243.94928 160.0
244.054977 176.0
244.089371 336.0
244.142044 64.0
244.170044 160.0
244.191803 92.0
244.287018 176.0
244.3909 108.0
244.450027 120.0
244.518478 92.0
244.560181 116.0
244.621506 164.0
244.695908 204.0
244.73436 104.0
244.867905 104.0
244.931381 224.0
244.982422 136.0
245.027924 364.0
245.082779 67144.0
245.184952 124.0
245.214081 184.0
245.270554 52.0
245.29657 84.0
245.306885 68.0
245.366974 84.0
245.417374 92.0
245.481461 72.0
245.532761 64.0
245.625443 72.0
245.678696 92.0
245.709091 44.0
245.7556 48.0
245.780563 84.0
245.824753 200.0
245.864151 112.0
245.897583 152.0
245.97406 72.0
246.017761 80.0
246.04274 156.0
246.085114 10708.0
246.177521 48.0
246.192383 56.0
246.237442 112.0
246.270691 136.0
246.308167 44.0
246.358154 48.0
246.38002 56.0
246.47319 72.0
246.51915 68.0
246.658142 72.0
246.73317 96.0
246.801941 120.0
246.858231 56.0
246.885345 256.0
246.911392 44.0
247.090195 1004.0
247.161652 28.0
247.196075 132.0
247.238708 96.0
247.251984 60.0
247.256531 88.0
247.330643 124.0
247.361954 148.0
247.410919 112.0
247.453049 120.0
247.480911 100.0
247.527878 108.0
247.555496 88.0
247.623001 128.0
247.651505 84.0
247.672699 124.0
247.725189 36.0
247.756516 252.0
247.789215 128.0
247.837982 100.0
247.869202 116.0
247.93512 104.0
247.970993 152.0
248.004074 124.0
248.051086 84.0
248.0746 132.0
248.101974 120.0
248.176483 44.0
248.223526 68.0
248.25174 48.0
248.279968 44.0
248.361511 40.0
248.593674 88.0
248.8228 52.0
248.860489 40.0
249.084946 76.0
249.165131 104.0
249.205978 56.0
249.290817 60.0
249.425964 44.0
249.67749 40.0
249.787567 40.0
249.929138 160.0
250.070755 72.0
250.187225 116.0
250.272217 44.0
250.319458 44.0
250.435974 56.0
250.735291 96.0
250.886581 60.0
252.10614 52.0
252.594986 68.0
253.291367 60.0
253.741364 36.0
253.773071 36.0
254.432983 116.0
254.4552 68.0
255.090561 92.0
256.127502 140.0
256.869537 120.0
257.473846 116.0
257.889191 80.0
257.914764 80.0
258.631226 84.0
259.537842 68.0
259.919556 48.0
260.465332 60.0
260.805908 64.0
262.8703 72.0
264.321167 64.0
265.059448 156.0
265.124268 60.0
265.701416 88.0
266.7276 84.0
266.808868 28.0
267.072266 124.0
268.042419 108.0
269.269012 116.0
271.092957 336.0
271.219025 48.0
272.104736 104.0
273.102722 996.0
273.156342 48.0
273.5578 92.0
274.11203 136.0
274.312164 44.0
275.11377 112.0
275.173187 48.0
275.665344 64.0
276.002502 108.0
276.141418 100.0
277.608521 72.0
278.152618 112.0
278.215698 84.0
278.667358 80.0
281.011292 48.0
281.999725 96.0
283.207581 120.0
283.411926 108.0
284.122681 104.0
284.938507 28.0
289.424316 116.0
291.06546 192.0
293.119965 76.0
294.477753 84.0
294.658783 60.0
295.404053 108.0
296.629944 72.0
297.734741 88.0
298.78656 80.0
299.020538 84.0
299.169067 128.0
300.078064 100.0
300.333252 72.0
302.142059 280.0
303.795807 100.0
304.024811 160.0
305.960846 64.0
306.685394 164.0
310.534546 40.0
311.120911 128.0
311.556366 100.0
312.973724 80.0
313.093445 72.0
314.200256 88.0
315.029846 68.0
315.068726 100.0
316.940338 64.0
317.511047 144.0
319.080536 180.0
322.853027 128.0
325.063293 92.0
326.101166 60.0
329.737701 92.0
330.129395 160.0
330.594788 64.0
331.159576 36.0
331.623322 60.0
331.712524 44.0
332.27243 124.0
332.69339 120.0
334.988037 156.0
336.340851 92.0
336.797272 76.0
337.191864 100.0
337.466034 32.0
337.601318 112.0
339.450592 28.0
340.110962 100.0
342.073822 80.0
342.261597 52.0
342.294739 40.0
343.145874 72.0
343.689209 60.0
344.11618 68.0
344.271271 108.0
345.557587 116.0
346.112793 96.0
346.575775 76.0
348.215424 72.0
350.246216 36.0
350.283447 144.0
350.425018 48.0
351.323486 88.0
352.023743 52.0
352.824768 80.0
352.92572 52.0
353.011719 100.0
353.116425 84.0
353.898529 80.0
354.115723 208.0
356.885162 44.0
359.110718 84.0
359.718201 52.0
361.475647 44.0
363.055298 112.0
364.501617 144.0
365.140259 52.0
365.292389 36.0
367.30365 104.0
370.189178 72.0
370.338531 80.0
373.816772 68.0
375.669983 104.0
377.949432 44.0
378.983215 88.0
379.545258 72.0
380.177551 84.0
381.148315 108.0
382.089233 120.0
382.190399 100.0
383.892609 40.0
386.748505 92.0
387.324097 72.0
388.916016 60.0
389.835022 68.0
390.778717 76.0
391.105347 72.0
391.184052 120.0
394.256561 80.0
394.343506 104.0
395.259003 40.0
395.601349 108.0
395.763672 56.0
395.969604 104.0
397.387177 52.0
398.615631 64.0
399.394836 48.0
400.417725 60.0
400.927673 140.0
402.104156 40.0
402.37558 76.0
403.19046 48.0
403.926117 72.0
404.134155 336.0
404.486328 104.0
405.13504 116.0
405.535736 28.0
406.08902 76.0
406.566467 76.0
407.522125 76.0
407.988342 108.0
411.138123 116.0
411.360107 100.0
412.127441 40.0
412.952087 52.0
414.32431 60.0
415.617676 108.0
417.19754 132.0
417.95401 112.0
418.76413 100.0
419.289673 116.0
419.424194 60.0
420.5336 76.0
422.020569 96.0
422.699554 64.0
429.841278 36.0
429.944427 88.0
430.621521 56.0
431.625732 44.0
432.999603 64.0
433.488434 116.0
439.246643 68.0
442.003998 68.0
443.373352 80.0
444.190918 36.0
445.05127 104.0
445.744324 32.0
448.125824 80.0
449.082733 52.0
452.632599 72.0
454.43399 120.0
457.306641 100.0
457.898438 68.0
462.565247 108.0
467.161072 136.0
468.043365 32.0
469.737091 36.0
469.827667 80.0
470.60022 32.0
473.306885 44.0
473.679352 68.0
474.541748 96.0
476.477386 96.0
476.690277 52.0
478.155823 60.0
482.137543 48.0
487.149994 52.0
487.215881 112.0
489.005524 68.0
489.846527 120.0
498.753876 100.0
499.153992 96.0
501.085693 40.0
501.286194 128.0
502.64621 52.0
505.568695 64.0
510.049225 132.0
510.624725 92.0
511.157898 108.0
512.19104 72.0
512.294617 52.0
512.402771 68.0
512.686646 56.0
515.181763 112.0
516.411255 80.0
523.582031 68.0
529.111633 92.0
530.155945 120.0
531.25177 112.0
531.490356 32.0
533.290527 180.0
537.40741 68.0
541.396545 84.0
542.517822 80.0
542.633728 64.0
545.772339 52.0
547.228638 44.0
550.520569 84.0
555.580261 108.0
557.129456 92.0
563.102112 52.0
564.524597 104.0
568.404175 80.0
568.893005 72.0
575.2146 68.0
577.785583 104.0
580.611633 92.0
584.765686 104.0
587.393311 48.0
587.71167 48.0
590.84729 64.0
591.553833 124.0
600.406494 92.0
603.433899 56.0
603.86908 72.0
611.271973 56.0
616.311279 156.0
617.517456 60.0
623.600891 112.0
630.063782 92.0
631.72345 76.0
631.978638 64.0
633.796143 72.0
638.233215 160.0
641.510681 56.0
660.968018 68.0
666.002319 76.0
666.387573 80.0
666.716431 52.0
666.870605 144.0
671.040222 60.0
685.762268 64.0
691.104431 40.0
691.816162 56.0
695.574707 72.0
701.276367 48.0
702.510193 108.0
702.573486 76.0
714.08374 100.0
719.545593 56.0
727.16272 48.0
730.052979 68.0
732.77124 48.0
733.358582 52.0
741.216248 32.0
743.265869 40.0
756.164185 156.0
756.92572 56.0
765.183533 80.0
765.833374 60.0
781.755676 80.0
786.984192 124.0
787.900085 92.0
789.414795 120.0
796.790955 40.0
797.257324 160.0
797.313538 112.0
799.889526 104.0
804.032104 88.0
806.568054 68.0
811.634827 68.0
816.393372 76.0
823.505798 56.0
826.489868 48.0
828.356201 200.0
830.41394 108.0
831.475281 56.0
837.754089 40.0
851.055908 168.0
851.235901 60.0
858.095825 84.0
866.746155 156.0
870.594238 44.0
895.206848 60.0
898.675903 36.0
902.952942 40.0
905.41864 156.0
910.66156 100.0
912.775696 152.0
924.009033 44.0
929.592712 96.0
968.97699 48.0
981.488403 208.0
984.883301 104.0
991.205505 48.0
995.712219 84.0
998.471191 196.0
1011.898865 104.0
1014.908386 68.0
1020.482971 208.0
1027.176025 92.0
1049.54541 56.0
1057.711304 108.0
1060.282471 48.0
1070.331787 52.0
1076.095581 220.0
1090.848755 160.0
1094.289307 124.0
1118.611816 136.0
1122.175903 52.0
1123.683105 80.0
1136.696899 180.0
1147.505615 164.0
1147.957397 204.0
1148.692627 36.0
1159.849487 208.0
1160.066406 36.0
1170.072998 128.0
1170.243286 120.0
1173.602173 184.0
1174.857056 48.0
1177.976685 60.0
1179.29541 104.0
1182.065186 64.0
1183.906616 176.0
1185.372437 48.0
1188.149292 248.0
1196.685059 80.0
1201.771606 132.0
1209.483765 100.0
1211.318726 220.0
1215.45752 136.0
1218.276367 172.0
1218.686157 144.0
1223.199585 204.0
1226.996094 72.0
1228.104858 52.0
1234.17334 192.0
1234.865723 128.0
1237.9729 108.0
1244.922241 32.0
1248.421875 156.0
1249.702026 108.0
1250.820923 136.0
1252.96167 40.0
1253.292847 128.0
1255.245361 220.0
1257.360718 140.0
1265.901245 208.0
1267.349609 152.0
1268.154175 252.0
1269.309692 100.0
1269.891113 236.0
1277.968018 152.0
1282.832031 112.0
1283.861084 136.0
1285.649292 164.0
1289.541504 192.0
1292.68811 156.0
1292.774048 44.0
1298.010376 80.0
1299.746216 128.0
1302.043213 80.0
1307.845215 164.0
1308.30542 260.0
1309.385986 156.0
1311.244751 76.0
1312.405273 148.0
1313.602417 160.0
1314.165161 60.0
1314.309448 224.0
1317.146606 168.0
1318.454346 168.0
1322.72876 56.0
1324.473755 228.0
1327.742554 124.0
1329.193359 136.0
1329.432739 88.0
1329.532471 196.0
1330.666748 72.0
1330.957153 252.0
1331.806763 184.0
1334.008423 56.0
1334.262939 132.0
1338.599243 124.0
1340.98877 92.0
1342.228027 160.0
1343.453247 152.0
1343.606445 120.0
1344.540405 172.0
1347.037476 164.0
1347.388062 68.0
1348.155273 184.0
1348.776489 148.0
1351.416504 80.0
1353.282837 108.0
1355.194458 124.0
1358.537476 200.0
1362.509033 120.0
1362.575073 228.0
1365.206421 132.0
1369.283447 48.0
1370.425293 72.0
1371.714844 208.0
1373.713257 128.0
1376.192871 136.0
1376.399658 140.0
1378.72644 92.0
1380.66333 44.0
1382.364746 148.0
1386.022705 100.0
1386.170898 188.0
1387.238159 172.0
1387.942505 196.0
1388.313232 36.0
1390.234497 204.0
1390.783691 160.0
1394.229858 168.0
1394.34436 152.0
1395.12915 192.0
1401.641357 68.0
1402.334473 124.0
1402.960571 196.0
1403.020142 172.0
1404.959106 116.0
1406.167847 168.0
1409.52832 244.0
1411.830688 284.0
1414.075073 104.0
1415.579834 152.0
1416.328735 128.0
1416.890503 168.0
1418.584106 80.0
1421.028931 144.0
1421.734253 80.0
1423.610962 140.0
1424.684937 140.0
1425.984863 48.0
1429.150757 176.0
1429.286133 136.0
1432.35022 188.0
1432.779541 136.0
1433.299438 248.0
1433.879639 184.0
1435.002808 76.0
1435.945435 164.0
1437.107056 204.0
1439.06189 56.0
1445.183838 52.0
1446.243286 148.0
1449.825562 240.0
1450.477417 180.0
1451.74353 96.0
1453.321167 108.0
1456.691895 148.0
1459.709106 164.0
1459.990479 188.0
1460.74353 60.0
1461.017334 136.0
1461.352051 220.0
1461.610718 144.0
1464.442627 252.0
1465.747314 220.0
1466.431152 156.0
1467.178223 176.0
1469.855225 96.0
1471.320557 96.0
1471.900879 116.0
1472.252075 104.0
1473.504761 152.0
1474.207764 176.0
1475.568237 96.0
1476.309937 236.0
1477.304199 128.0
1477.572021 232.0
1477.901001 116.0
1479.293823 224.0
1481.698364 136.0
1482.31897 168.0
1482.573975 208.0
1482.68689 232.0
1482.901367 132.0
1483.675659 208.0
1484.02832 144.0
1484.09729 200.0
1484.219971 172.0
1486.781982 128.0
1487.10437 64.0
1488.248169 148.0
1489.261841 44.0
1492.84436 172.0
1494.496826 96.0
1495.120117 144.0
1498.138306 132.0
1499.933838 188.0
1502.941406 136.0
1503.041748 192.0
1503.998657 80.0
