>compound MLS001401449-01!Nifekalant hydrochloride
>formula C19H27N5O5
>ionization [M+H]+
>parentmass 406.20816
#inchi InChI=1S/C19H27N5O5/c1-21-17(14-18(26)22(2)19(21)27)20-9-11-23(12-13-25)10-3-4-15-5-7-16(8-6-15)24(28)29/h5-8,14,20,25H,3-4,9-13H2,1-2H3
#inchikey OEBPANQZQGQPHF
#origInchi InChI=1S/C19H27N5O5.ClH/c1-21-17(14-18(26)22(2)19(21)27)20-9-11-23(12-13-25)10-3-4-15-5-7-16(8-6-15)24(28)29;/h5-8,14,20,25H,3-4,9-13H2,1-2H3;1H
#Ion_Source LC-ESI
#Instrument qTof
#Compound_Source NIH Pharmacologically Active Library
#PI Dorrestein
#Data_Collector VP/LMS
#Scan -1
#Precursor_MZ 406.211
#ExactMass 405.201
#Charge 1
#CAS_Number N/A
#Pubmed_ID N/A
#Smiles Cn1c(NCCN(CCO)CCCc2ccc(cc2)[N+](=O)[O-])cc(=O)n(C)c1=O.Cl
#INCHI_AUX N/A
#Library_Class 1
#SpectrumID CCMSLIB00000085893
#IonMode Positive
#UpdateWorkflowName UPDATE-SINGLE-ANNOTATED-GOLD
#LibraryQualityString Gold
#TaskID d252d724072548979f1f6f1ced849daf
##Scan# 1333
#SpectrumFile p4-G08_GG8_01_18404.mzXML
#LibraryName Pharm_Active_Library.mgf
#MQScore -1
#Organism Pharm_Active_Library
#TIC_Query 0
#RT_Query -1
#MZErrorPPM -1
#SharedPeaks 0
#MassDiff 0
#LibMZ -1
#SpecMZ 406.211
#SpecCharge 0
#internalFilename spec-00000.mgf

>collision 10
44.898281 64.0
44.923626 148.0
45.054459 176.0
45.109253 248.0
45.378353 188.0
45.465549 172.0
45.555511 164.0
45.625397 160.0
45.657669 84.0
45.698025 172.0
45.794956 164.0
45.98912 120.0
46.060688 108.0
46.149887 104.0
46.202633 148.0
46.235111 100.0
46.392929 220.0
46.67329 164.0
46.908833 200.0
47.00359 208.0
47.050716 108.0
47.433773 180.0
47.44474 168.0
47.538013 96.0
47.565464 172.0
47.67672 172.0
47.720943 140.0
47.746838 220.0
47.97266 132.0
47.983688 136.0
48.011005 168.0
48.073349 60.0
48.380207 120.0
48.542324 120.0
48.611687 136.0
48.81868 144.0
48.904942 164.0
49.040051 208.0
49.337391 200.0
49.463295 208.0
49.501099 184.0
49.510902 144.0
49.65947 220.0
50.033268 128.0
50.074104 96.0
50.099461 104.0
50.30677 168.0
50.339245 184.0
50.656075 172.0
50.679039 228.0
50.84182 140.0
50.890087 168.0
50.97958 100.0
51.153107 196.0
51.25423 184.0
51.34119 156.0
51.366863 96.0
51.451061 192.0
51.583923 204.0
51.655426 176.0
51.721252 212.0
51.800011 168.0
51.911808 120.0
51.952141 168.0
52.068241 200.0
52.10128 172.0
52.282459 176.0
52.347244 48.0
52.364525 200.0
52.425037 232.0
52.459728 180.0
52.543278 120.0
52.559151 176.0
52.668873 148.0
52.840908 152.0
52.875641 160.0
53.013226 72.0
53.31509 140.0
53.325264 232.0
53.540596 180.0
53.664459 180.0
53.805988 196.0
53.950626 116.0
54.016434 60.0
54.050083 220.0
54.347546 212.0
54.517891 144.0
54.770252 216.0
54.890343 104.0
55.107327 172.0
55.190823 200.0
55.237431 184.0
55.455101 148.0
55.637562 232.0
55.763828 124.0
55.957218 92.0
56.141994 144.0
56.198681 84.0
56.539398 140.0
56.752121 204.0
56.827118 176.0
56.83762 152.0
56.93148 180.0
57.085487 56.0
57.162209 216.0
57.305256 124.0
57.350468 180.0
57.379112 84.0
57.416809 112.0
57.431892 140.0
57.466591 28.0
57.489227 84.0
57.55867 200.0
57.675003 144.0
57.741531 148.0
57.771786 64.0
57.939835 168.0
58.059586 216.0
58.100658 256.0
58.319214 144.0
58.405888 220.0
58.443924 96.0
58.460663 164.0
58.568764 172.0
58.802052 180.0
59.038864 204.0
59.217934 156.0
59.331333 160.0
59.440235 236.0
59.51545 264.0
59.590714 128.0
59.656803 140.0
60.012455 180.0
60.077232 164.0
60.182186 116.0
60.250145 84.0
60.284138 104.0
60.638554 148.0
60.680412 168.0
60.928738 216.0
61.015774 108.0
61.239864 212.0
61.250767 52.0
61.271019 216.0
61.309975 196.0
61.339592 160.0
61.408199 256.0
61.470604 160.0
61.497139 188.0
61.520554 144.0
61.693962 120.0
61.748695 152.0
61.867619 64.0
61.960022 116.0
61.996063 132.0
62.108952 56.0
62.134052 160.0
62.210953 64.0
62.440369 116.0
62.61507 72.0
62.640274 152.0
62.660755 140.0
62.908363 256.0
63.009438 244.0
63.069492 160.0
63.131153 84.0
63.159622 84.0
63.175442 128.0
63.264065 128.0
63.59058 208.0
63.692234 212.0
63.789169 152.0
63.95142 152.0
64.536911 168.0
64.626488 164.0
64.83947 160.0
64.853897 192.0
64.905205 52.0
64.930862 188.0
65.02552 120.0
65.189339 148.0
65.290619 116.0
65.392624 164.0
65.583656 176.0
65.607834 172.0
65.654602 112.0
65.757858 128.0
65.856346 256.0
65.884567 248.0
66.005035 148.0
66.038307 108.0
66.149033 72.0
66.176559 124.0
66.366135 132.0
66.403435 144.0
66.549484 124.0
66.577095 216.0
66.70546 148.0
66.775375 128.0
67.004906 140.0
67.037498 136.0
67.102699 208.0
67.149986 96.0
67.282166 164.0
67.599274 192.0
67.676735 212.0
67.736801 148.0
68.288338 156.0
68.382126 144.0
68.41011 128.0
68.655617 172.0
68.764511 276.0
68.845413 168.0
69.081779 220.0
69.197624 120.0
69.232399 156.0
69.432938 184.0
69.52253 156.0
69.67363 176.0
69.690247 148.0
69.779999 180.0
69.824898 212.0
69.878136 228.0
69.893112 68.0
69.919739 156.0
69.979668 128.0
70.071274 176.0
70.548592 168.0
70.575348 220.0
70.662323 72.0
70.854866 148.0
71.064445 160.0
71.403786 128.0
71.454254 180.0
71.632706 168.0
71.70179 148.0
72.027443 176.0
72.111931 144.0
72.256844 196.0
72.392776 132.0
72.452065 192.0
72.570702 148.0
72.631638 172.0
72.730179 188.0
72.832062 216.0
72.901718 164.0
73.167076 84.0
73.19091 148.0
73.434616 180.0
73.615524 60.0
73.629189 40.0
73.658226 196.0
73.731697 176.0
74.0979 168.0
74.125313 148.0
74.243607 200.0
74.463287 72.0
74.551987 172.0
74.902901 208.0
74.967377 156.0
74.993233 188.0
75.044952 240.0
75.326263 44.0
75.393654 148.0
75.497383 100.0
75.64386 208.0
75.668694 136.0
75.861 204.0
76.176842 188.0
76.199432 112.0
76.275894 228.0
76.300232 184.0
76.399368 152.0
76.533386 184.0
76.589119 112.0
76.648354 112.0
76.789566 216.0
76.836662 208.0
76.883781 212.0
77.152779 128.0
77.450279 188.0
77.487068 148.0
77.499329 76.0
77.553658 64.0
77.585213 240.0
77.639572 152.0
77.880028 152.0
77.908134 152.0
78.061058 156.0
78.163086 160.0
78.313065 192.0
78.360298 164.0
78.706009 44.0
78.730736 184.0
78.769592 168.0
78.94281 160.0
78.969337 76.0
79.289803 136.0
79.500854 188.0
79.779724 92.0
79.911339 200.0
80.108963 180.0
80.180237 172.0
80.212318 200.0
80.297905 164.0
80.34964 168.0
80.565666 96.0
80.706154 212.0
80.762306 240.0
80.848183 112.0
80.971718 140.0
81.029045 164.0
81.095352 220.0
81.144264 224.0
81.170647 136.0
81.285454 156.0
81.563843 212.0
81.598 128.0
81.770691 200.0
81.987732 128.0
82.118431 144.0
82.170753 152.0
82.311539 120.0
82.450645 116.0
82.682144 172.0
82.73645 188.0
82.823372 180.0
83.030006 204.0
83.078979 108.0
83.108482 200.0
83.256866 108.0
83.354965 88.0
83.660538 92.0
83.735191 204.0
83.751587 180.0
83.786201 144.0
84.085258 72.0
84.269699 152.0
84.291626 124.0
84.459831 56.0
84.543991 168.0
84.882904 192.0
84.901245 200.0
84.965446 112.0
85.024162 44.0
85.092087 140.0
85.417374 60.0
85.431992 152.0
85.529625 180.0
85.704582 208.0
85.818871 136.0
86.056892 160.0
86.260117 80.0
86.456177 72.0
86.535782 76.0
86.559853 216.0
86.585777 164.0
86.724739 184.0
86.949165 180.0
87.001144 48.0
87.129288 80.0
87.155304 224.0
87.179459 64.0
87.224068 176.0
87.352379 136.0
87.42308 168.0
87.518021 148.0
87.713646 176.0
87.844177 148.0
87.931877 116.0
88.0439 212.0
88.064445 200.0
88.077087 196.0
88.101807 156.0
88.15226 52.0
88.174683 208.0
88.236374 40.0
88.333618 164.0
88.440285 192.0
88.518913 184.0
88.593834 88.0
88.608826 88.0
88.69503 148.0
88.890091 148.0
88.920113 160.0
89.037422 152.0
89.055305 128.0
89.220673 100.0
89.314697 212.0
89.406891 160.0
89.444534 136.0
89.555634 232.0
89.60273 140.0
89.900658 180.0
89.968613 212.0
90.032814 164.0
90.547241 196.0
90.654556 180.0
90.875198 152.0
90.977692 136.0
91.052765 208.0
91.104935 180.0
91.154335 56.0
91.201843 156.0
91.232262 172.0
91.289307 96.0
91.329247 228.0
91.371101 212.0
91.515747 136.0
91.622414 184.0
91.89315 76.0
91.927498 92.0
91.97139 132.0
92.052704 204.0
92.076408 168.0
92.118431 420.0
92.171928 252.0
92.366943 216.0
92.548759 108.0
92.631111 284.0
92.654106 144.0
92.786346 44.0
93.110641 144.0
93.272049 160.0
93.364334 116.0
93.500938 140.0
93.624153 144.0
93.706985 188.0
93.745522 268.0
94.034813 68.0
94.106247 188.0
94.212471 100.0
94.251114 184.0
94.264641 112.0
94.467659 136.0
94.593445 160.0
94.647659 156.0
94.839455 132.0
94.884041 124.0
94.990707 180.0
95.058617 200.0
95.099373 184.0
95.138199 128.0
95.427689 136.0
95.52298 180.0
95.696198 172.0
95.819946 224.0
95.846184 184.0
95.885155 40.0
95.972885 116.0
96.04567 328.0
96.29879 144.0
96.435562 48.0
96.505943 68.0
96.601776 160.0
96.635033 164.0
96.680046 40.0
96.856262 168.0
96.903275 40.0
96.987549 256.0
97.07679 520.0
97.193474 96.0
97.311249 188.0
97.397659 152.0
97.663628 232.0
98.061287 224.0
98.078499 140.0
98.098213 160.0
98.283607 128.0
98.32505 164.0
98.356628 172.0
98.811165 180.0
98.908134 208.0
98.937836 220.0
98.953674 112.0
99.171585 132.0
99.631973 168.0
99.928215 180.0
100.043648 200.0
100.057587 108.0
100.073936 924.0
100.105255 200.0
100.285385 204.0
100.641785 112.0
100.655762 64.0
100.733658 140.0
100.849556 108.0
101.001526 188.0
101.052917 180.0
101.079552 152.0
101.105568 116.0
101.215675 172.0
101.418022 112.0
101.5644 192.0
101.672745 116.0
101.767097 36.0
101.829353 92.0
101.921761 204.0
101.951904 324.0
101.988083 228.0
102.030304 176.0
102.091522 18132.0
102.120163 176.0
102.177116 140.0
102.197243 60.0
102.257614 156.0
102.306969 100.0
102.422722 36.0
102.442871 68.0
102.485176 72.0
102.529007 112.0
102.771233 180.0
102.823975 176.0
102.850212 124.0
102.880493 80.0
102.959473 104.0
102.975403 64.0
103.011757 72.0
103.048126 72.0
103.094856 1004.0
103.155235 84.0
103.20578 272.0
103.527542 144.0
103.557915 212.0
103.596405 72.0
103.62072 172.0
103.661247 196.0
103.687592 144.0
103.748405 168.0
103.764618 68.0
103.799095 196.0
104.059486 312.0
104.097397 160.0
104.203026 168.0
104.444946 40.0
104.613846 144.0
104.758438 128.0
104.92556 168.0
105.070267 164.0
105.143822 140.0
105.270401 212.0
105.568764 184.0
105.775421 124.0
105.91671 140.0
105.942131 128.0
105.959732 192.0
105.978172 144.0
105.992516 172.0
106.01506 184.0
106.041374 11212.0
106.083687 136.0
106.12986 76.0
106.165611 64.0
106.236839 172.0
106.291908 128.0
106.546516 128.0
106.577332 104.0
106.597885 196.0
106.638985 60.0
106.680099 80.0
106.724113 216.0
107.044861 688.0
107.087532 148.0
107.44622 184.0
107.528763 60.0
107.652641 48.0
107.722862 104.0
107.75592 136.0
107.968834 220.0
108.028824 84.0
108.378723 160.0
108.403587 180.0
108.758247 128.0
108.843369 216.0
109.038651 264.0
109.142593 172.0
109.427658 88.0
109.479713 212.0
109.560951 108.0
109.633881 160.0
110.259995 80.0
110.31852 148.0
110.482109 252.0
110.523491 192.0
110.55069 164.0
110.600922 128.0
110.954964 256.0
111.002472 176.0
111.053528 200.0
111.250778 160.0
111.486031 140.0
111.765717 192.0
111.826752 64.0
111.862534 160.0
112.003624 192.0
112.020477 60.0
112.041542 108.0
112.075638 392.0
112.111076 132.0
112.136368 184.0
112.672363 152.0
112.687157 168.0
112.816078 120.0
112.896431 168.0
112.964111 144.0
112.97892 196.0
113.059326 128.0
113.083534 192.0
113.245644 76.0
113.370651 172.0
113.398201 168.0
113.506325 220.0
113.932953 144.0
114.083847 168.0
114.113609 96.0
114.130623 104.0
114.786484 112.0
114.814209 168.0
115.054115 976.0
115.099014 348.0
115.163811 240.0
115.192009 204.0
115.365112 164.0
115.765228 148.0
115.917328 156.0
116.020218 152.0
116.035225 140.0
116.060066 456.0
116.232559 140.0
116.520279 76.0
116.55896 228.0
116.679329 184.0
116.756737 124.0
116.870979 152.0
116.946075 128.0
117.069649 4324.0
117.096794 76.0
117.344612 140.0
117.435188 44.0
117.607803 36.0
117.774071 196.0
117.899384 72.0
118.046394 176.0
118.077332 3412.0
118.102066 180.0
118.14489 28.0
118.412148 56.0
118.466301 108.0
118.563805 148.0
118.782799 184.0
118.854401 216.0
118.88044 176.0
119.025887 104.0
119.04808 452.0
119.079987 712.0
119.114929 40.0
119.301826 168.0
119.647743 124.0
119.702179 172.0
119.754448 100.0
119.96582 176.0
120.048271 172.0
120.135925 124.0
120.367279 160.0
120.4328 184.0
120.522377 56.0
120.784729 112.0
121.027664 200.0
121.235771 160.0
121.286179 108.0
121.687653 208.0
121.70961 140.0
122.030411 136.0
122.140373 244.0
122.32962 164.0
122.375854 152.0
122.408882 144.0
122.770302 136.0
122.787949 192.0
122.955627 128.0
123.05938 148.0
123.174217 156.0
123.309006 216.0
123.417328 104.0
123.581009 100.0
123.709381 116.0
123.877686 184.0
124.001778 196.0
124.039726 228.0
124.292297 92.0
124.421028 220.0
124.50985 196.0
124.572044 64.0
124.587601 240.0
124.647591 36.0
124.72538 184.0
124.75872 76.0
124.923294 72.0
124.952217 60.0
124.976692 132.0
125.070427 2148.0
125.237167 172.0
125.341873 152.0
125.359703 108.0
125.803574 140.0
125.910751 132.0
125.953186 148.0
125.97776 180.0
126.067139 156.0
126.134193 148.0
126.245987 144.0
126.474197 148.0
126.613274 176.0
126.885094 144.0
127.175789 176.0
127.737564 148.0
127.960365 216.0
128.052689 124.0
128.109009 156.0
128.296066 108.0
128.374435 216.0
128.476837 124.0
128.745087 168.0
128.783493 240.0
128.998154 176.0
129.066772 228.0
129.117996 148.0
129.44162 168.0
129.520889 212.0
129.561661 220.0
129.618317 132.0
129.645508 60.0
129.661377 156.0
129.779251 56.0
130.02652 164.0
130.142303 248.0
130.389923 192.0
130.485397 224.0
130.560425 188.0
130.669617 224.0
130.828934 200.0
130.876755 180.0
131.074097 144.0
131.090073 216.0
131.800568 156.0
132.052048 120.0
132.081314 256.0
132.29689 196.0
132.782684 40.0
132.986877 136.0
133.06572 564.0
133.087341 164.0
133.455536 228.0
133.637253 116.0
134.061493 280.0
134.079773 196.0
134.100128 148.0
134.312271 180.0
134.499176 204.0
134.603073 104.0
134.908066 100.0
134.956619 164.0
134.998245 156.0
135.081512 264.0
135.162491 156.0
135.352295 196.0
135.44725 176.0
135.567734 132.0
135.699875 136.0
135.821289 112.0
135.842056 156.0
135.929504 88.0
135.975922 136.0
136.03981 23728.0
136.073959 272.0
136.094528 240.0
136.118256 208.0
136.154694 104.0
136.171738 188.0
136.295074 84.0
136.421249 28.0
136.442841 32.0
136.591675 72.0
136.654388 180.0
136.700455 184.0
136.761536 56.0
136.850006 60.0
136.875626 36.0
137.040771 1172.0
137.129562 172.0
137.17218 240.0
137.220474 116.0
137.24379 72.0
137.306747 60.0
137.409393 212.0
137.453735 140.0
137.647476 148.0
137.757263 96.0
137.904465 32.0
137.969925 64.0
138.110229 136.0
138.229553 176.0
138.257645 68.0
138.276367 132.0
138.3302 144.0
138.353607 116.0
138.592514 204.0
138.707352 72.0
139.087372 128.0
139.167191 100.0
139.23764 124.0
139.590164 172.0
139.656006 236.0
139.881912 128.0
140.009064 132.0
140.756622 168.0
140.796783 156.0
140.825119 32.0
140.87236 172.0
140.917252 164.0
141.002319 228.0
141.061264 304.0
141.610397 204.0
141.65303 236.0
142.060776 196.0
142.162796 108.0
142.222137 64.0
142.378845 140.0
142.502365 112.0
142.521378 200.0
142.635452 160.0
142.7258 232.0
143.147003 176.0
143.182724 144.0
143.735794 76.0
143.828888 212.0
143.900497 100.0
144.586563 160.0
144.708649 144.0
145.012894 160.0
145.077316 160.0
145.211899 144.0
145.343842 172.0
145.574295 56.0
145.696808 164.0
145.771286 164.0
145.855408 124.0
146.052582 168.0
146.0905 132.0
146.172882 56.0
146.326935 216.0
146.430481 180.0
146.801636 56.0
147.028412 148.0
147.067352 2428.0
147.124969 208.0
147.163589 208.0
147.339905 64.0
147.388229 116.0
147.422058 116.0
147.634811 76.0
147.651733 120.0
147.851196 148.0
147.893692 40.0
147.917892 160.0
147.975998 84.0
148.017166 148.0
148.036545 184.0
148.07045 752.0
148.11087 1024.0
148.276382 88.0
148.305466 68.0
148.494598 140.0
149.052979 96.0
149.084763 192.0
149.266891 132.0
149.317963 116.0
149.39093 144.0
149.602661 168.0
149.924179 68.0
150.024185 152.0
150.065567 132.0
150.092392 192.0
150.866379 64.0
151.113403 164.0
151.284729 124.0
151.448792 208.0
151.500229 132.0
151.948898 160.0
152.0495 104.0
152.194336 168.0
152.535843 128.0
152.771927 268.0
152.806366 216.0
153.101761 52.0
153.12886 244.0
153.151016 216.0
153.195358 176.0
153.313629 192.0
154.068375 252.0
154.095871 156.0
154.528564 88.0
154.97673 160.0
155.028763 176.0
155.060989 172.0
155.403198 136.0
155.708542 180.0
155.792999 132.0
155.94458 116.0
155.994293 112.0
156.079224 128.0
156.462006 124.0
156.546661 204.0
156.651276 144.0
156.703598 96.0
156.922928 136.0
157.3396 120.0
157.894348 116.0
157.92186 172.0
158.457581 156.0
158.640533 200.0
158.708221 128.0
158.808533 156.0
158.896347 212.0
159.079544 136.0
159.139801 128.0
159.169937 120.0
159.313095 228.0
159.35582 140.0
159.667297 132.0
159.867599 192.0
159.901505 136.0
160.106644 316.0
160.275177 116.0
160.433014 116.0
160.925003 72.0
161.081589 260.0
161.117188 176.0
161.650467 176.0
161.878311 184.0
161.921356 152.0
161.959351 104.0
162.06575 148.0
162.124039 136.0
162.2229 88.0
162.276138 184.0
162.400406 96.0
162.451126 128.0
162.654144 144.0
163.069763 192.0
163.297012 152.0
163.584549 152.0
163.643112 60.0
163.844315 184.0
163.928406 128.0
164.069672 2436.0
165.073761 632.0
165.427704 132.0
165.545486 128.0
166.324921 48.0
166.373703 116.0
166.491821 132.0
166.615112 60.0
166.957001 84.0
167.077896 132.0
167.103622 124.0
167.233917 164.0
167.505234 64.0
167.528427 220.0
168.222137 72.0
168.488144 56.0
169.336624 92.0
169.440247 212.0
169.943253 120.0
170.083557 324.0
170.257355 164.0
170.454788 132.0
170.719955 80.0
171.092041 152.0
171.274338 144.0
171.631393 144.0
172.158524 168.0
172.485123 204.0
172.563553 160.0
172.628525 240.0
172.880066 180.0
173.118301 136.0
173.456299 184.0
173.519211 208.0
173.949463 152.0
174.125504 296.0
174.319809 68.0
174.364487 64.0
174.801041 84.0
175.087387 180.0
175.127502 76.0
176.106079 208.0
176.137772 160.0
176.246094 168.0
176.357101 188.0
176.761749 48.0
177.158905 144.0
177.362946 120.0
177.43718 240.0
177.760788 152.0
178.177673 164.0
178.334457 160.0
178.369003 212.0
178.480667 44.0
178.653549 160.0
178.688141 180.0
178.972946 176.0
179.042175 92.0
179.084946 148.0
179.249985 156.0
179.361923 144.0
180.069016 124.0
180.10907 136.0
181.00235 84.0
181.085373 296.0
181.28096 148.0
181.887115 104.0
182.092056 8980.0
182.255051 176.0
182.284607 48.0
182.316864 40.0
182.406967 76.0
182.432449 68.0
182.45932 236.0
182.478149 88.0
182.614319 104.0
183.095306 696.0
183.296432 148.0
183.320679 172.0
183.423096 156.0
183.976547 276.0
184.067932 92.0
184.100342 224.0
184.124634 144.0
184.240799 152.0
184.259705 152.0
184.300232 200.0
184.521866 100.0
184.670609 88.0
185.244476 176.0
185.38266 96.0
185.407043 196.0
185.561554 116.0
185.702576 156.0
186.028198 104.0
186.066208 140.0
186.92099 124.0
187.134583 148.0
187.557007 40.0
187.97702 184.0
188.129883 148.0
188.209061 176.0
188.228165 152.0
188.845825 136.0
188.963455 152.0
189.042801 124.0
189.101913 148.0
189.201569 164.0
189.675507 80.0
190.075928 228.0
190.121979 292.0
190.180222 76.0
190.537216 88.0
191.092377 144.0
191.370605 164.0
191.46698 176.0
191.538589 196.0
191.706665 200.0
192.045792 172.0
192.647568 132.0
192.666901 96.0
193.064941 140.0
193.107697 528.0
193.468933 160.0
193.560303 52.0
193.712631 216.0
193.806839 96.0
193.945404 180.0
194.108475 176.0
194.272629 88.0
194.952911 156.0
195.314362 80.0
195.356079 132.0
195.411728 104.0
195.707855 112.0
196.07225 200.0
196.353287 212.0
196.841675 68.0
197.157364 192.0
198.083511 192.0
198.253098 160.0
198.722717 152.0
198.860229 176.0
198.902328 180.0
199.183151 148.0
199.852264 160.0
200.097137 172.0
200.60144 160.0
201.154358 156.0
201.50737 176.0
201.549759 156.0
201.572357 200.0
201.628891 76.0
202.070023 124.0
202.205856 148.0
202.820496 180.0
202.84317 112.0
202.993454 104.0
203.104065 272.0
203.146606 92.0
203.918976 108.0
204.089554 132.0
204.132004 168.0
204.29689 120.0
204.456512 44.0
204.541916 188.0
204.786789 168.0
204.99762 168.0
205.096954 244.0
205.145416 3400.0
205.291061 180.0
205.329285 144.0
205.479523 56.0
205.550858 64.0
205.656448 80.0
205.770645 120.0
205.790619 156.0
205.819183 40.0
205.859161 144.0
206.034348 132.0
206.094864 164.0
206.147934 1028.0
206.242004 212.0
206.336349 172.0
206.590881 136.0
206.708191 64.0
206.762573 108.0
206.98587 236.0
207.017365 140.0
207.068924 168.0
207.111404 6956.0
207.154739 108.0
207.424728 276.0
207.504501 128.0
207.722458 88.0
207.748276 28.0
207.790253 76.0
207.828613 64.0
207.940536 72.0
208.023773 200.0
208.11673 520.0
208.242004 64.0
208.437363 40.0
208.606949 52.0
209.110336 120.0
209.277298 112.0
209.300339 28.0
209.58551 172.0
210.097931 204.0
210.133347 220.0
210.156433 112.0
210.27475 128.0
210.572144 212.0
210.641464 108.0
210.913635 168.0
211.153076 124.0
211.358475 172.0
211.537918 144.0
211.566879 68.0
211.610306 176.0
211.729034 200.0
211.891251 48.0
212.311569 140.0
213.072083 144.0
213.20961 172.0
213.513931 228.0
213.950409 164.0
214.30574 204.0
214.43689 156.0
214.468948 116.0
214.856796 160.0
214.938492 192.0
215.519577 128.0
215.56926 156.0
215.727097 180.0
216.121796 164.0
216.631378 148.0
216.736847 184.0
216.85408 176.0
217.58963 124.0
217.669662 204.0
218.369125 184.0
218.436783 64.0
218.498566 64.0
219.114914 116.0
219.228821 96.0
219.594406 104.0
220.12355 164.0
220.72551 184.0
220.864517 188.0
221.113403 344.0
221.142685 416.0
221.619461 176.0
221.898071 144.0
223.055893 164.0
223.103165 568.0
223.374084 124.0
223.439529 48.0
223.528793 136.0
223.603195 144.0
224.115417 92.0
224.395599 80.0
224.502945 156.0
224.643127 72.0
224.82515 136.0
225.126907 516.0
225.410477 108.0
225.72435 160.0
225.784164 168.0
226.083344 196.0
226.125244 172.0
226.170135 144.0
226.826157 140.0
227.060028 160.0
227.132019 164.0
227.240021 44.0
227.587723 228.0
228.82399 244.0
229.15831 220.0
229.562714 152.0
229.703995 116.0
229.981613 168.0
230.337921 108.0
232.113434 176.0
232.575699 120.0
233.126053 532.0
233.584549 172.0
233.691025 120.0
233.824921 48.0
234.132339 668.0
234.165924 240.0
234.516327 52.0
234.848679 212.0
235.106079 400.0
235.64241 112.0
236.106262 292.0
236.39769 144.0
236.688507 36.0
236.733597 160.0
236.792633 160.0
237.0224 172.0
237.135452 4888.0
237.295197 56.0
237.960999 208.0
238.138504 908.0
238.763046 40.0
238.821472 72.0
239.143051 160.0
239.335434 44.0
239.886932 44.0
239.994797 164.0
240.435974 48.0
240.605759 184.0
240.723083 92.0
240.828094 48.0
240.979462 220.0
241.049728 184.0
241.133987 56.0
241.452438 120.0
241.563797 64.0
241.833008 56.0
241.854675 144.0
242.086884 148.0
242.297516 196.0
242.50824 100.0
242.666336 232.0
242.954773 176.0
243.004425 124.0
243.078888 136.0
243.106827 88.0
243.311691 116.0
244.032516 84.0
244.08226 224.0
244.259537 200.0
244.4151 124.0
244.545807 156.0
244.779312 76.0
244.959961 204.0
245.118851 212.0
246.626434 172.0
246.720078 144.0
246.810745 164.0
247.076614 68.0
247.107895 144.0
247.436539 96.0
247.564911 72.0
247.718399 188.0
247.862518 176.0
248.041168 128.0
248.128754 136.0
248.15271 304.0
248.263779 152.0
248.351593 168.0
248.709305 148.0
248.907104 140.0
248.951065 44.0
249.001312 104.0
249.06041 108.0
249.127197 276.0
249.162445 192.0
249.186661 40.0
249.36264 80.0
249.41922 52.0
249.45694 88.0
249.494659 200.0
249.541824 108.0
249.639297 164.0
249.75882 116.0
249.842972 208.0
249.853928 156.0
249.916122 132.0
249.956772 48.0
250.001083 120.0
250.079956 196.0
250.15477 536.0
250.189941 160.0
250.221436 100.0
250.306442 216.0
250.334793 148.0
250.400925 168.0
250.427719 120.0
250.533234 76.0
250.58049 144.0
250.601517 100.0
250.694336 320.0
250.715988 84.0
250.773621 192.0
250.829453 156.0
250.896179 284.0
250.929794 176.0
250.943634 144.0
250.99791 204.0
251.058228 344.0
251.069931 296.0
251.138855 106504.0
251.193649 236.0
251.224136 172.0
251.249207 184.0
251.294632 156.0
251.318298 84.0
251.350449 160.0
251.388779 108.0
251.430054 208.0
251.473694 112.0
251.498947 100.0
251.525742 232.0
251.558685 160.0
251.588409 160.0
251.62471 136.0
251.658783 344.0
251.707642 164.0
251.741287 84.0
251.792175 72.0
251.844574 40.0
251.878418 116.0
251.95108 172.0
251.978195 56.0
252.002136 132.0
252.044556 148.0
252.142029 14476.0
252.218384 52.0
252.249985 76.0
252.278442 80.0
252.316376 140.0
252.344833 56.0
252.366974 52.0
252.396454 308.0
252.497543 152.0
252.58519 164.0
252.648468 40.0
252.695923 68.0
252.740219 76.0
252.778183 104.0
252.831985 96.0
252.874405 60.0
252.930115 76.0
252.964935 40.0
253.001892 108.0
253.078903 32.0
253.144409 1964.0
253.272095 76.0
253.341782 40.0
253.402176 68.0
253.436737 136.0
253.464294 48.0
253.526154 152.0
253.601639 88.0
253.639664 80.0
253.681122 108.0
253.722092 100.0
253.761627 96.0
253.803421 92.0
253.857193 132.0
253.901047 68.0
253.935318 132.0
253.962494 104.0
253.998398 96.0
254.039597 156.0
254.083771 224.0
254.139313 320.0
254.197876 68.0
254.357544 52.0
254.407364 28.0
254.585175 48.0
254.661407 40.0
254.836136 96.0
254.96701 108.0
255.017273 128.0
255.064957 88.0
255.134888 240.0
255.20166 56.0
255.365585 124.0
255.443375 88.0
255.545181 44.0
255.97171 124.0
256.181915 72.0
257.093872 148.0
257.144928 40.0
258.122528 140.0
258.628021 80.0
259.121185 172.0
260.051178 44.0
260.147491 92.0
260.616394 68.0
261.098602 80.0
262.12439 96.0
262.851135 164.0
263.454926 76.0
263.506622 56.0
264.179077 72.0
264.214661 80.0
264.25351 48.0
264.298798 40.0
264.768188 80.0
265.627136 64.0
266.120453 100.0
266.155182 132.0
266.653229 64.0
267.153992 184.0
267.736633 44.0
268.13739 56.0
268.228638 76.0
268.632996 48.0
270.148834 88.0
272.94986 180.0
280.162201 56.0
280.445465 48.0
280.995697 92.0
281.523102 64.0
282.622925 88.0
285.972198 44.0
290.883728 92.0
292.821899 64.0
294.148315 132.0
301.243225 156.0
309.248169 124.0
311.618805 76.0
311.970276 52.0
312.381714 92.0
316.709534 44.0
318.149261 112.0
318.461761 64.0
319.026764 108.0
322.781281 76.0
323.550568 168.0
324.145142 76.0
329.813721 56.0
335.710114 120.0
341.942078 100.0
343.722107 116.0
345.998962 124.0
348.272217 144.0
349.182861 92.0
363.971741 68.0
364.579559 96.0
370.670288 48.0
371.824615 60.0
377.252045 128.0
381.263885 44.0
387.452667 100.0
387.660339 92.0
387.891602 72.0
388.185638 144.0
388.260162 108.0
388.891846 48.0
389.194153 60.0
390.770325 84.0
391.022156 48.0
400.948303 112.0
402.108215 40.0
405.271484 156.0
406.20816 916.0
407.201569 384.0
408.18573 72.0
414.624908 60.0
421.612915 104.0
421.674225 96.0
422.021698 76.0
423.601471 72.0
425.832916 80.0
425.976685 84.0
426.371155 28.0
427.864349 68.0
430.581818 156.0
430.804871 120.0
437.685822 84.0
459.082123 120.0
460.212952 76.0
460.311157 32.0
467.14325 76.0
469.175964 40.0
472.423645 48.0
473.211334 84.0
476.268738 116.0
477.929504 96.0
483.414734 92.0
483.489136 104.0
492.931213 44.0
499.083954 64.0
505.239075 36.0
507.895599 80.0
509.179291 88.0
518.165283 56.0
539.724915 84.0
544.637573 52.0
546.204041 52.0
552.614258 128.0
561.525879 128.0
594.128967 132.0
595.769958 80.0
601.492004 104.0
608.168823 72.0
610.43866 84.0
616.947205 56.0
634.82312 76.0
645.165588 68.0
664.304443 48.0
667.776855 52.0
686.656311 80.0
711.255859 52.0
730.133484 72.0
731.419495 172.0
789.423889 68.0
798.892029 132.0
807.058899 148.0
853.724976 64.0
886.443115 192.0
887.545654 136.0
890.566467 200.0
895.259155 236.0
911.579224 224.0
934.077576 116.0
934.29657 92.0
939.231018 196.0
940.70166 60.0
941.562622 152.0
945.781555 80.0
952.287231 120.0
952.63739 72.0
958.969299 184.0
964.357788 224.0
967.766479 140.0
970.505249 212.0
970.790466 196.0
971.503784 188.0
973.800598 184.0
974.894043 156.0
987.669495 148.0
991.06897 48.0
1000.546936 132.0
1006.555908 120.0
1016.868958 196.0
1017.865662 100.0
1018.958191 188.0
1023.951843 176.0
1025.003052 96.0
1027.374878 212.0
1033.45105 200.0
1035.147339 160.0
1037.921997 64.0
1039.692627 72.0
1043.540527 220.0
1047.221558 192.0
1047.730469 156.0
1048.15564 244.0
1049.664062 148.0
1051.360718 64.0
1055.365967 164.0
1056.025513 104.0
1056.763062 160.0
1063.210815 172.0
1068.233521 48.0
1069.066406 140.0
1074.859741 192.0
1088.259033 172.0
1091.209106 40.0
1091.695801 184.0
1103.419922 160.0
1104.550781 84.0
1104.81543 148.0
1106.416992 132.0
1108.370972 148.0
1113.578857 172.0
1118.219849 64.0
1121.690186 180.0
1124.965698 232.0
1127.423706 176.0
1137.289551 176.0
1139.982788 176.0
1142.430298 148.0
1153.88208 56.0
1155.343018 144.0
1161.188843 172.0
1163.088745 148.0
1163.5979 104.0
1167.688843 80.0
1171.037476 56.0
1171.323608 160.0
1173.354492 120.0
1174.493408 164.0
1176.643066 168.0
1178.869873 152.0
1179.949829 188.0
1181.331421 252.0
1183.589966 276.0
1183.754395 72.0
1189.651001 196.0
1190.021729 200.0
1191.38855 128.0
1192.708008 144.0
1193.526123 124.0
1193.574219 232.0
1201.502197 60.0
1203.807617 56.0
1204.885132 120.0
1205.306641 144.0
1206.993286 116.0
1207.256104 176.0
1207.546509 164.0
1208.411255 156.0
1209.137939 152.0
1210.328613 144.0
1214.826782 200.0
1215.590088 144.0
1216.4021 120.0
1219.993774 60.0
1220.967163 56.0
1221.899292 124.0
1222.212402 120.0
1225.415405 56.0
1228.001709 148.0
1229.215698 52.0
1229.822876 136.0
1231.26123 220.0
1231.617432 100.0
1231.994629 168.0
1234.322144 140.0
1238.248291 192.0
1239.684448 152.0
1242.229736 144.0
1242.629639 184.0
1242.903198 216.0
1242.952393 104.0
1243.134766 184.0
1245.241089 116.0
1246.091064 128.0
1249.093018 252.0
1249.599487 180.0
1251.056396 180.0
1254.141846 48.0
1254.240601 72.0
1257.287598 100.0
1259.130249 124.0
1260.66333 168.0
1260.882446 160.0
1264.15686 124.0
1264.298462 156.0
1268.300293 192.0
1269.526855 196.0
1274.901001 116.0
1275.704224 132.0
1276.052612 160.0
1277.261597 200.0
1278.997925 56.0
1280.813721 204.0
1283.792969 180.0
1288.118286 188.0
1288.232666 144.0
1290.898682 160.0
1292.658569 128.0
1293.553223 180.0
1302.40918 128.0
1302.725342 140.0
1303.601929 48.0
1304.557861 172.0
1304.766357 116.0
1309.436646 124.0
1311.655884 168.0
1312.131714 196.0
1312.362427 176.0
1314.677979 200.0
1316.533447 204.0
1319.15625 184.0
1319.987793 228.0
1320.385498 188.0
1321.087158 128.0
1325.112549 208.0
1327.613403 152.0
1335.391968 220.0
1335.610229 144.0
1336.890747 80.0
1339.541138 152.0
1341.887817 156.0
1342.310791 164.0
1348.911133 192.0
1349.254761 152.0
1351.419678 200.0
1354.575195 64.0
1354.692383 92.0
1356.047974 52.0
1357.103638 76.0
1357.411621 160.0
1358.003174 236.0
1358.739258 164.0
1360.941162 140.0
1361.13208 164.0
1363.71814 100.0
1365.181274 156.0
1368.87561 208.0
1370.496094 172.0
1370.709839 224.0
1374.647705 72.0
1374.883911 200.0
1374.965088 152.0
1375.533447 104.0
1376.50061 52.0
1379.530029 172.0
1380.084473 212.0
1380.831421 140.0
1381.038574 160.0
1381.645142 140.0
1382.163086 188.0
1384.006226 156.0
1384.413574 76.0
1385.161621 188.0
1387.851929 172.0
1389.298218 120.0
1390.084717 148.0
1392.044556 120.0
1392.586792 196.0
1392.898682 176.0
1396.384888 280.0
1397.656982 128.0
1399.525391 188.0
1399.599854 180.0
1399.860474 128.0
1400.597778 172.0
1401.357666 188.0
1402.102905 152.0
1403.951782 248.0
1404.078613 212.0
1407.257568 176.0
1410.283203 216.0
1412.721069 136.0
1414.606934 168.0
1414.913818 156.0
1420.534302 196.0
1423.589478 140.0
1424.220459 148.0
1425.309814 56.0
1426.046265 164.0
1428.302124 48.0
1430.040283 104.0
1430.401611 100.0
1435.427002 252.0
1436.188721 144.0
1438.100586 196.0
1438.950806 216.0
1440.234619 176.0
1442.463867 192.0
1444.210571 200.0
1444.883911 128.0
1445.496826 216.0
1446.389893 196.0
1446.548828 176.0
1447.88147 152.0
1449.085938 132.0
1449.252686 148.0
1450.184814 128.0
1450.283325 108.0
1450.412231 40.0
1450.488037 124.0
1450.707886 96.0
1451.679565 128.0
1451.921021 164.0
1452.452026 188.0
1457.060181 204.0
1458.306396 120.0
1458.466064 132.0
1458.757568 180.0
1460.161621 220.0
1462.634521 128.0
1462.763916 172.0
1463.289185 156.0
1463.456787 180.0
1464.621948 168.0
1465.117065 196.0
1467.960205 148.0
1468.501709 144.0
1469.317993 120.0
1474.342529 168.0
1474.839355 192.0
1475.252075 124.0
1475.649658 212.0
1476.636108 124.0
1477.263428 164.0
1477.332275 212.0
1478.258057 128.0
1478.342285 132.0
1479.834961 208.0
1480.363281 140.0
1481.918335 136.0
1486.71106 128.0
1488.998901 168.0
1493.187744 196.0
1493.710815 56.0
1493.995361 140.0
1494.549438 164.0
1497.251465 188.0
1498.175781 204.0
1499.632202 152.0
1501.606079 232.0
1503.480957 192.0
1503.967163 188.0
