>compound MLS001140934-01!4-[[2-(6-ethyl-2-oxo-4-phenylchromen-7-yl)oxypropanoylamino]methyl]cyclohexane-1-carboxylic acid
>formula C28H31NO6
>ionization [M+H]+
>parentmass 478.223
#inchi InChI=1S/C28H31NO6/c1-3-19-13-23-22(20-7-5-4-6-8-20)14-26(30)35-25(23)15-24(19)34-17(2)27(31)29-16-18-9-11-21(12-10-18)28(32)33/h4-8,13-15,17-18,21H,3,9-12,16H2,1-2H3,(H,29,31)(H,32,33)
#inchikey BLKPFCUMGVQKSL
#Ion_Source LC-ESI
#Instrument qTof
#Compound_Source NIH Natural Product Library
#PI Dorrestein
#Data_Collector VVP/LMS
#Scan -1
#Precursor_MZ 478.223
#ExactMass 477.215
#Charge 1
#CAS_Number N/A
#Pubmed_ID N/A
#Smiles CCc1cc2c(cc(=O)oc2cc1OC(C)C(=O)NCC3CCC(CC3)C(=O)O)c4ccccc4
#INCHI_AUX N/A
#Library_Class 1
#SpectrumID CCMSLIB00000080435
#IonMode Positive
#UpdateWorkflowName UPDATE-SINGLE-ANNOTATED-GOLD
#LibraryQualityString Gold
#TaskID b1d8e8f6646f4e71acdff9ca3d919d08
##Scan# 2275
#SpectrumFile p2-H08_GH8_01_18068.mzXML
#LibraryName NIH_Natural_Products_Library.mgf
#MQScore -1
#Organism NIH_Natural_Products_Library
#TIC_Query 0
#RT_Query -1
#MZErrorPPM -1
#SharedPeaks 0
#MassDiff 0
#LibMZ -1
#SpecMZ 478.223
#SpecCharge 0
#internalFilename spec-00000.mgf

>collision 10
95.013214 132.0
95.085983 6768.0
95.123833 48.0
95.148094 112.0
95.195671 116.0
95.215088 216.0
95.230629 60.0
95.253113 132.0
95.362747 96.0
95.382187 64.0
95.473572 88.0
95.49691 128.0
95.52803 36.0
95.583496 244.0
95.601967 172.0
95.820053 108.0
95.892159 48.0
95.9058 132.0
96.044243 164.0
96.085701 796.0
96.13308 120.0
96.196449 84.0
96.222923 164.0
96.249161 200.0
96.280411 152.0
96.301895 140.0
96.374176 88.0
96.403488 384.0
96.47007 124.0
96.497314 148.0
96.520775 136.0
96.555977 112.0
96.577492 164.0
96.612701 208.0
96.657707 80.0
96.671867 184.0
96.759483 144.0
96.800606 144.0
96.828575 156.0
96.84565 104.0
96.884827 124.0
96.953407 192.0
97.00045 44.0
97.029114 304.0
97.061226 164.0
97.090141 140.0
97.104576 156.0
97.169106 160.0
97.2005 220.0
97.245636 156.0
97.284897 164.0
97.369331 184.0
97.396828 156.0
97.424332 164.0
97.550102 80.0
97.581635 140.0
97.602554 112.0
97.626785 164.0
97.640549 164.0
97.758591 132.0
97.794014 56.0
97.851105 132.0
97.872765 172.0
97.888519 144.0
97.908211 148.0
97.934937 148.0
98.008675 112.0
98.032326 260.0
98.061974 356.0
98.089485 120.0
98.107224 88.0
98.164406 68.0
98.201668 192.0
98.263031 96.0
98.298546 128.0
98.547447 152.0
98.566566 176.0
98.60363 124.0
98.735138 128.0
98.796455 128.0
98.849884 192.0
98.897377 148.0
98.933014 156.0
99.006271 112.0
99.0756 292.0
99.137024 340.0
99.25795 176.0
99.297615 152.0
99.313477 128.0
99.420616 116.0
99.444435 160.0
99.541275 180.0
99.58342 44.0
99.599312 92.0
99.700638 148.0
99.746353 184.0
99.790092 72.0
99.846992 156.0
99.893509 64.0
99.977074 128.0
100.054703 140.0
100.150291 88.0
100.247917 68.0
100.275818 88.0
100.311699 116.0
100.359543 136.0
100.387459 80.0
100.411392 200.0
100.529099 144.0
100.674835 136.0
100.816673 108.0
100.882637 156.0
101.003067 124.0
101.036629 60.0
101.102753 164.0
101.182724 132.0
101.242798 172.0
101.288864 152.0
101.322922 92.0
101.391052 160.0
101.497299 36.0
101.5354 152.0
101.883736 96.0
102.011276 96.0
102.150032 120.0
102.163071 56.0
102.19252 136.0
102.226486 164.0
102.383514 80.0
102.40567 124.0
102.49633 80.0
102.514465 84.0
102.540665 180.0
102.5709 188.0
102.701965 156.0
102.818985 144.0
102.90419 212.0
102.936356 176.0
102.96637 140.0
103.054245 448.0
103.073799 156.0
103.129784 200.0
103.233139 184.0
103.286125 60.0
103.350464 76.0
103.475952 216.0
103.585312 100.0
103.660278 64.0
103.745407 232.0
103.824158 148.0
103.854912 96.0
103.936058 160.0
104.000999 228.0
104.084236 104.0
104.177666 56.0
104.220329 148.0
104.291466 128.0
104.376846 168.0
104.483833 172.0
104.521271 136.0
104.555099 116.0
104.627113 148.0
104.792084 128.0
104.845062 128.0
105.033424 1040.0
105.070663 132.0
105.159149 172.0
105.173439 92.0
105.236725 136.0
105.334755 192.0
105.383789 128.0
105.434074 184.0
105.477798 52.0
105.500282 240.0
105.520729 160.0
105.535042 88.0
105.553444 116.0
105.57798 124.0
105.694588 216.0
105.780548 188.0
105.801018 156.0
105.8563 276.0
105.870636 108.0
105.889069 216.0
105.9589 132.0
105.999695 116.0
106.03952 176.0
106.225227 172.0
106.288826 108.0
106.430466 108.0
106.492287 156.0
106.551643 100.0
106.576302 188.0
106.642067 164.0
106.701675 84.0
106.734573 80.0
106.753082 156.0
106.849762 168.0
106.993828 144.0
107.045303 84.0
107.076378 220.0
107.090118 84.0
107.30249 176.0
107.308365 144.0
107.410103 132.0
107.478188 56.0
107.568626 180.0
107.624741 48.0
107.653648 120.0
107.686691 52.0
107.717674 144.0
107.806519 156.0
107.820984 136.0
107.880928 32.0
107.926796 152.0
107.957436 160.0
108.031898 152.0
108.054657 224.0
108.084946 144.0
108.125008 176.0
108.150063 172.0
108.174683 184.0
108.234726 192.0
108.253365 224.0
108.274071 144.0
108.307213 124.0
108.348648 92.0
108.396301 204.0
108.432999 96.0
108.447807 188.0
108.464699 208.0
108.57666 80.0
108.66687 160.0
108.686607 196.0
108.728111 128.0
108.750938 124.0
108.782082 176.0
108.853424 132.0
108.873436 40.0
108.887978 216.0
108.950233 148.0
109.101883 988.0
109.12487 148.0
109.160583 92.0
109.185181 144.0
109.291267 172.0
109.466125 212.0
109.489029 152.0
109.534859 104.0
109.62236 152.0
109.666443 212.0
109.74118 148.0
109.762032 100.0
109.909416 128.0
109.937256 116.0
109.956039 212.0
110.058342 444.0
110.09668 1348.0
110.133514 88.0
110.208603 208.0
110.240067 196.0
110.269325 164.0
110.296501 164.0
110.367584 128.0
110.394768 160.0
110.437241 156.0
110.501671 112.0
110.53492 176.0
110.583061 48.0
110.725426 144.0
110.754753 140.0
110.851128 148.0
110.881866 108.0
110.89933 136.0
110.926582 72.0
111.014641 48.0
111.03981 116.0
111.063828 144.0
111.104156 4400.0
111.209755 172.0
111.226547 148.0
111.285332 80.0
111.381935 128.0
111.518517 100.0
111.596298 100.0
111.684624 76.0
111.730904 140.0
111.756157 120.0
111.770882 156.0
111.823494 160.0
111.938133 120.0
111.970871 96.0
112.027748 180.0
112.061455 160.0
112.077057 176.0
112.111015 5352.0
112.168938 56.0
112.198448 112.0
112.244835 76.0
112.282097 192.0
112.324982 64.0
112.451584 88.0
112.559464 276.0
112.622612 68.0
112.637398 56.0
112.764175 164.0
112.781082 148.0
112.831818 124.0
112.88166 112.0
112.960823 88.0
113.047569 120.0
113.085899 244.0
113.112816 460.0
113.199989 92.0
113.216934 220.0
113.263527 44.0
113.322845 100.0
113.422447 104.0
113.511497 152.0
113.598457 120.0
113.636642 168.0
113.725777 148.0
113.755493 52.0
113.835114 56.0
113.957253 40.0
114.023125 140.0
114.125168 128.0
114.140053 212.0
114.172638 248.0
114.197472 144.0
114.216614 112.0
114.235756 160.0
114.359177 184.0
114.446457 88.0
114.463493 132.0
114.546555 124.0
114.576378 180.0
114.671394 136.0
114.721367 128.0
114.785263 160.0
114.815117 44.0
114.986382 176.0
115.051643 356.0
115.173691 128.0
115.210007 60.0
115.254875 200.0
115.395943 104.0
115.49218 172.0
115.519989 176.0
115.562775 128.0
115.582031 120.0
115.663361 136.0
115.686913 64.0
115.742577 164.0
115.766129 100.0
115.785408 204.0
115.806824 236.0
115.862518 80.0
115.907516 188.0
115.92466 128.0
115.991096 80.0
116.006104 140.0
116.038322 144.0
116.055412 120.0
116.147636 140.0
116.190536 124.0
116.280663 116.0
116.31501 148.0
116.385857 108.0
116.434242 128.0
116.467468 192.0
116.736122 180.0
116.940849 148.0
116.9814 108.0
116.996468 100.0
117.017998 136.0
117.033073 212.0
117.067932 532.0
117.1129 176.0
117.237717 140.0
117.306686 176.0
117.386459 176.0
117.418465 148.0
117.578468 104.0
117.615158 84.0
117.638901 132.0
117.671288 164.0
117.724548 180.0
117.841911 184.0
117.85704 176.0
117.995369 156.0
118.014824 64.0
118.036812 144.0
118.06456 120.0
118.11647 108.0
118.207344 176.0
118.265778 132.0
118.319893 156.0
118.39785 204.0
118.464996 80.0
118.532158 108.0
118.547333 164.0
118.649208 156.0
118.868279 140.0
118.933388 148.0
119.048004 172.0
119.085373 160.0
119.161407 124.0
119.233826 184.0
119.267891 180.0
119.300499 128.0
119.33094 200.0
119.398346 188.0
119.472305 204.0
119.646408 120.0
119.686905 180.0
119.883835 112.0
120.021164 140.0
120.045151 144.0
120.074051 128.0
120.095802 108.0
120.136765 176.0
120.184761 128.0
120.200035 172.0
120.226219 144.0
120.46859 212.0
120.501358 136.0
120.518837 196.0
120.559082 212.0
120.577774 132.0
120.663094 52.0
120.783371 52.0
120.811813 52.0
120.842438 148.0
121.033035 208.0
121.070396 144.0
121.102798 196.0
121.168663 244.0
121.188385 56.0
121.26947 48.0
121.295769 100.0
121.322746 192.0
121.42514 180.0
121.453651 100.0
121.749954 156.0
121.796074 124.0
121.848801 128.0
121.866379 100.0
121.910065 240.0
121.918243 212.0
121.922897 216.0
121.960876 220.0
121.991653 168.0
122.073845 512.0
122.096985 780.0
122.294106 152.0
122.343636 128.0
122.376663 152.0
122.392075 196.0
122.411896 208.0
122.449806 204.0
122.493927 180.0
122.612366 144.0
122.656448 96.0
122.711563 64.0
122.749054 148.0
122.832863 128.0
122.848305 88.0
122.883598 68.0
122.899048 252.0
123.050888 116.0
123.079079 316.0
123.115257 192.0
123.172806 116.0
123.188271 124.0
123.230247 180.0
123.304543 236.0
123.323059 116.0
123.345161 80.0
123.426964 44.0
123.460136 76.0
123.522064 168.0
123.559677 352.0
123.60614 208.0
123.622795 220.0
123.654831 124.0
123.787659 200.0
123.820877 96.0
123.840813 140.0
123.856316 156.0
123.896194 124.0
123.914787 184.0
123.942719 192.0
123.991478 96.0
124.044876 128.0
124.074715 920.0
124.113335 296.0
124.135574 128.0
124.304169 128.0
124.339676 216.0
124.412926 56.0
124.468437 168.0
124.552826 108.0
124.759499 140.0
124.839539 180.0
124.868454 140.0
124.89959 140.0
124.995262 144.0
125.013062 220.0
125.083229 280.0
125.146622 184.0
125.192696 260.0
125.291389 84.0
125.340408 196.0
125.507294 184.0
125.587875 60.0
125.612411 148.0
125.672646 132.0
125.692726 76.0
125.741829 140.0
125.799858 36.0
125.84005 152.0
125.97628 176.0
126.038841 144.0
126.058952 148.0
126.093475 116.0
126.161766 192.0
126.210953 128.0
126.23555 180.0
126.271339 144.0
126.479424 124.0
126.508522 44.0
126.564499 184.0
126.611526 32.0
126.627197 64.0
126.651733 84.0
126.799721 56.0
126.828857 72.0
126.84903 136.0
126.88092 172.0
126.905075 156.0
126.949928 176.0
126.974594 164.0
127.028427 148.0
127.058022 268.0
127.10022 196.0
127.129395 52.0
127.171478 128.0
127.207291 136.0
127.291023 140.0
127.313271 128.0
127.463997 44.0
127.612816 152.0
127.729286 168.0
127.76078 132.0
127.884544 136.0
127.95433 176.0
127.981354 244.0
128.055664 72.0
128.091705 188.0
128.125504 148.0
128.170563 60.0
128.265213 84.0
128.344131 164.0
128.373444 152.0
128.400497 132.0
128.474945 164.0
128.675797 156.0
128.700638 108.0
128.757095 236.0
128.793228 92.0
128.827118 232.0
128.842422 216.0
128.922012 136.0
128.949142 128.0
128.985306 120.0
129.029236 148.0
129.069656 264.0
129.191086 116.0
129.225021 44.0
129.25444 132.0
129.292908 220.0
129.31781 108.0
129.392822 204.0
129.512665 132.0
129.606827 264.0
129.634872 128.0
129.67572 184.0
129.734604 168.0
129.784485 96.0
129.91507 216.0
129.939758 264.0
129.977295 128.0
129.993179 180.0
130.02446 224.0
130.079422 124.0
130.099854 220.0
130.172516 168.0
130.217926 184.0
130.288345 52.0
130.333786 100.0
130.447433 72.0
130.490631 72.0
130.542419 164.0
130.631622 144.0
130.695328 148.0
130.763596 128.0
130.809128 220.0
130.825058 108.0
130.86377 164.0
131.004974 128.0
131.030029 172.0
131.049377 132.0
131.080887 112.0
131.155365 196.0
131.214645 136.0
131.271637 56.0
131.38797 256.0
131.403946 92.0
131.467834 136.0
131.536301 148.0
131.58934 156.0
131.620773 120.0
131.666458 36.0
131.905228 104.0
131.910828 160.0
131.918289 204.0
131.957748 160.0
131.99263 180.0
132.1465 184.0
132.217438 236.0
132.288391 68.0
132.336472 140.0
132.379974 152.0
132.412033 164.0
132.483047 136.0
132.627411 152.0
132.785629 168.0
132.840668 188.0
132.879669 144.0
132.916382 164.0
132.95311 116.0
133.024261 264.0
133.062622 516.0
133.082794 184.0
133.10762 156.0
133.136765 124.0
133.260803 156.0
133.31366 76.0
133.329742 132.0
133.527466 168.0
133.644791 88.0
133.706924 132.0
133.815109 128.0
133.910461 176.0
133.971725 212.0
134.121506 224.0
134.144562 144.0
134.266769 148.0
134.352112 212.0
134.428253 100.0
134.451324 144.0
134.529816 144.0
134.624481 128.0
134.782089 192.0
134.869385 88.0
134.903778 132.0
134.989609 152.0
135.083282 184.0
135.160782 60.0
135.193176 140.0
135.245102 148.0
135.269562 40.0
135.285767 196.0
135.345474 132.0
135.376068 120.0
135.513092 156.0
135.744522 192.0
135.804825 92.0
135.834976 148.0
136.050797 176.0
136.069229 124.0
136.115814 136.0
136.143677 116.0
136.178513 100.0
136.222656 96.0
136.292358 200.0
136.347595 160.0
136.413391 156.0
136.448074 252.0
136.492249 56.0
136.515503 116.0
136.578461 176.0
136.594589 212.0
136.670685 152.0
136.73085 292.0
136.794708 244.0
136.883194 136.0
137.046249 172.0
137.06488 204.0
137.144119 128.0
137.225708 140.0
137.263016 120.0
137.405304 92.0
137.429703 104.0
137.561661 132.0
137.603683 96.0
137.627045 140.0
137.669067 116.0
137.74147 144.0
137.930756 172.0
138.002441 108.0
138.061508 172.0
138.0896 3264.0
138.127472 7892.0
138.219986 192.0
138.276932 32.0
138.37056 192.0
138.388809 120.0
138.436127 60.0
138.465134 52.0
138.557922 56.0
138.632904 108.0
138.767853 120.0
138.798645 120.0
138.829834 48.0
138.92131 192.0
138.996384 68.0
139.027756 184.0
139.0625 116.0
139.09642 424.0
139.131866 1492.0
139.181824 204.0
139.214706 152.0
139.23349 168.0
139.351639 176.0
139.384323 136.0
139.585999 140.0
139.672287 180.0
139.695511 140.0
139.713013 44.0
139.776535 100.0
139.807129 120.0
139.861252 104.0
139.877731 176.0
139.898926 56.0
140.021744 152.0
140.107681 23624.0
140.189255 228.0
140.233109 128.0
140.286545 104.0
140.334778 56.0
140.351288 164.0
140.370148 92.0
140.386658 56.0
140.428268 56.0
140.462814 140.0
140.502243 136.0
140.535263 148.0
140.565948 72.0
140.595993 148.0
140.620224 64.0
140.712296 196.0
140.7939 272.0
140.840164 160.0
140.891785 52.0
140.981567 44.0
141.005203 128.0
141.053848 172.0
141.074036 240.0
141.10878 2804.0
141.139954 116.0
141.168335 76.0
141.187256 40.0
141.25235 276.0
141.288956 168.0
141.312622 160.0
141.37178 156.0
141.401505 172.0
141.433319 192.0
141.610901 152.0
141.67012 104.0
141.712769 128.0
141.73645 84.0
141.90712 188.0
141.952164 68.0
142.007309 304.0
142.044662 112.0
142.090332 160.0
142.113174 184.0
142.172791 260.0
142.220261 320.0
142.267746 124.0
142.318802 204.0
142.417679 56.0
142.531372 208.0
142.574158 132.0
142.659714 52.0
142.688248 96.0
142.721542 208.0
142.740555 168.0
142.911819 132.0
142.942749 156.0
142.968933 68.0
142.992737 100.0
143.036545 196.0
143.087952 152.0
143.116669 200.0
143.187958 148.0
143.245132 40.0
143.3452 76.0
143.502518 180.0
143.5616 108.0
143.680664 196.0
143.706467 128.0
143.736267 72.0
143.764908 120.0
143.805481 112.0
143.860855 180.0
143.927231 116.0
144.166122 180.0
144.187622 180.0
144.230652 80.0
144.301147 136.0
144.370483 68.0
144.414764 184.0
144.598999 124.0
144.658829 40.0
144.689957 148.0
144.711502 152.0
144.764191 120.0
144.859985 144.0
144.905502 52.0
144.986984 188.0
145.026352 160.0
145.062012 120.0
145.123627 92.0
145.233932 128.0
145.298706 172.0
145.344559 176.0
145.380295 124.0
145.430695 232.0
145.471497 92.0
145.520096 148.0
145.545929 156.0
145.567535 128.0
145.629974 124.0
145.653992 144.0
145.702042 128.0
145.781342 104.0
145.800568 76.0
145.83902 132.0
145.889496 164.0
146.113159 152.0
146.137222 128.0
146.163696 152.0
146.197052 188.0
146.255142 60.0
146.315323 92.0
146.344223 132.0
146.36348 144.0
146.591431 108.0
146.656433 180.0
146.686325 180.0
146.729721 132.0
146.768295 144.0
146.797226 132.0
147.040894 144.0
147.060608 188.0
147.130203 52.0
147.222763 104.0
147.246109 176.0
147.328247 192.0
147.35965 56.0
147.458725 96.0
147.57959 124.0
147.748901 152.0
147.819061 148.0
147.852951 52.0
148.041519 144.0
148.113525 168.0
148.199234 132.0
148.252548 92.0
148.301666 208.0
148.417389 68.0
148.439209 116.0
148.492569 164.0
148.543503 128.0
148.582397 116.0
148.628418 212.0
148.76918 172.0
148.795914 232.0
148.897873 248.0
148.931885 52.0
149.06308 152.0
149.098022 324.0
149.128693 136.0
149.172455 112.0
149.245392 224.0
149.264832 88.0
149.286728 204.0
149.34996 128.0
149.447266 68.0
149.539749 152.0
149.593292 136.0
149.620071 144.0
149.644424 92.0
149.724777 124.0
149.906631 204.0
149.944046 176.0
150.029358 176.0
150.097824 148.0
150.126892 140.0
150.148849 184.0
150.304977 140.0
150.358658 76.0
150.378189 204.0
150.519791 144.0
150.67366 104.0
150.754303 140.0
151.037903 300.0
151.055969 192.0
151.157791 168.0
151.199402 128.0
151.299759 236.0
151.315979 192.0
151.375656 64.0
151.441788 148.0
151.52507 100.0
151.574081 292.0
151.613281 52.0
151.653275 156.0
151.730942 40.0
151.762238 156.0
151.806961 112.0
151.895248 104.0
151.93718 136.0
152.064209 140.0
152.107147 3100.0
152.150482 164.0
152.17749 40.0
152.276093 152.0
152.376434 176.0
152.403458 124.0
152.459976 168.0
152.47963 60.0
152.536469 128.0
152.609924 100.0
152.73288 148.0
152.804581 112.0
152.841141 144.0
152.862732 196.0
152.937119 224.0
152.974838 256.0
153.004715 184.0
153.071091 432.0
153.109375 316.0
153.26712 128.0
153.562958 204.0
153.59256 120.0
153.622162 140.0
153.654221 148.0
153.807236 144.0
154.022064 28.0
154.0728 96.0
154.096176 108.0
154.187607 144.0
154.207367 116.0
154.241974 108.0
154.301315 88.0
154.385376 36.0
154.417526 76.0
154.689713 80.0
154.744186 192.0
154.843231 196.0
154.912598 108.0
154.994354 132.0
155.046494 324.0
155.086273 524.0
155.125702 152.0
155.188797 148.0
155.272003 60.0
155.289368 112.0
155.401001 112.0
155.443176 128.0
155.477921 88.0
155.626862 196.0
155.701355 116.0
155.727463 228.0
155.770096 220.0
155.809158 264.0
155.846039 116.0
155.875259 128.0
155.969696 84.0
155.999527 68.0
156.066376 120.0
156.11554 128.0
156.124527 176.0
156.163651 148.0
156.235779 164.0
156.309677 148.0
156.447327 216.0
156.514542 188.0
156.629105 192.0
156.679825 192.0
156.796051 156.0
156.955597 144.0
157.037659 88.0
157.04834 168.0
157.085281 160.0
157.167618 192.0
157.200058 156.0
157.220016 96.0
157.254959 72.0
157.335327 104.0
157.412247 228.0
157.509644 204.0
157.537125 100.0
157.744537 192.0
157.772049 148.0
158.017136 116.0
158.061905 148.0
158.146927 172.0
158.192322 124.0
158.244904 160.0
158.435242 164.0
158.590607 164.0
158.768616 116.0
158.871658 160.0
159.040833 252.0
159.078339 184.0
159.102356 48.0
159.140015 180.0
159.190231 176.0
159.285675 140.0
159.330887 44.0
159.494232 172.0
159.511826 116.0
159.536972 128.0
159.642578 236.0
159.833755 52.0
159.875168 212.0
159.906235 160.0
160.02002 96.0
160.057785 148.0
160.082962 120.0
160.168594 116.0
160.480026 84.0
160.521439 220.0
160.544144 180.0
160.566833 180.0
160.599625 156.0
160.710632 104.0
160.804001 196.0
160.980728 200.0
161.056488 148.0
161.104492 152.0
161.165131 184.0
161.203033 192.0
161.412842 100.0
161.443192 128.0
161.521591 196.0
161.567139 104.0
161.589905 144.0
161.676788 236.0
161.695435 268.0
161.835419 124.0
161.929108 212.0
161.954437 168.0
162.073318 104.0
162.18895 132.0
162.27121 100.0
162.545151 104.0
162.699982 180.0
162.735519 100.0
162.776154 172.0
162.862503 132.0
162.921967 88.0
162.959045 116.0
163.037415 296.0
163.18779 140.0
163.213211 80.0
163.307312 128.0
163.444687 148.0
163.46759 100.0
163.487946 184.0
163.702698 188.0
163.737442 152.0
163.796036 168.0
163.897934 192.0
164.043213 152.0
164.066162 196.0
164.104904 180.0
164.218643 80.0
164.257416 180.0
164.395187 228.0
164.422028 116.0
164.510056 132.0
164.650726 84.0
164.808868 108.0
164.893204 100.0
164.934097 220.0
164.965927 80.0
165.009445 288.0
165.056824 1048.0
165.169342 176.0
165.21283 176.0
165.315186 96.0
165.389404 120.0
165.443161 100.0
165.461075 168.0
165.514847 132.0
165.61171 248.0
165.637787 84.0
165.683426 176.0
165.706955 64.0
165.738876 236.0
165.781265 144.0
165.886353 152.0
165.925873 152.0
166.076508 452.0
166.12326 3892.0
166.224899 144.0
166.296677 116.0
166.430252 116.0
166.471344 92.0
166.55867 164.0
166.576645 160.0
166.647842 292.0
166.710251 60.0
166.729477 176.0
166.774506 84.0
166.851624 184.0
166.885056 160.0
166.905624 128.0
166.9841 216.0
167.022415 204.0
167.086609 1392.0
167.13089 20624.0
167.242645 220.0
167.294983 60.0
167.314728 56.0
167.345612 164.0
167.409988 76.0
167.428024 172.0
167.446045 132.0
167.469223 168.0
167.500137 84.0
167.534546 144.0
167.641846 216.0
167.68895 212.0
167.755249 80.0
167.7733 40.0
167.80954 132.0
167.830017 96.0
167.865997 80.0
167.891907 108.0
168.002823 56.0
168.050751 140.0
168.091537 200.0
168.134537 2228.0
168.206696 272.0
168.242828 184.0
168.280106 164.0
168.322876 156.0
168.401123 148.0
168.472672 176.0
168.528046 112.0
168.559814 176.0
168.633453 220.0
168.723358 176.0
168.749222 132.0
168.839722 164.0
168.875031 172.0
168.924454 184.0
169.025391 88.0
169.054443 136.0
169.103546 332.0
169.137878 308.0
169.212341 128.0
169.308151 64.0
169.385849 40.0
169.445435 132.0
169.463577 188.0
169.489487 92.0
169.507629 44.0
169.530945 52.0
169.582779 48.0
169.670914 196.0
169.707214 108.0
169.834412 172.0
169.870605 52.0
169.917313 124.0
169.995148 208.0
170.064835 128.0
170.103149 196.0
170.144485 200.0
170.246964 188.0
170.314484 212.0
170.39502 120.0
170.524948 28.0
170.553543 44.0
170.608139 176.0
170.696533 216.0
170.79277 220.0
170.928055 304.0
170.980103 96.0
171.043198 332.0
171.077042 212.0
171.099838 124.0
171.131088 180.0
171.17981 224.0
171.373306 124.0
171.498398 212.0
171.521866 124.0
171.594849 192.0
171.626144 140.0
171.748718 108.0
171.936569 116.0
171.954849 172.0
172.014877 144.0
172.033768 136.0
172.09581 108.0
172.213333 160.0
172.257736 184.0
172.33252 204.0
172.362244 124.0
172.461548 132.0
172.57135 212.0
172.69426 176.0
172.788437 52.0
172.864319 444.0
172.887863 148.0
172.974243 140.0
173.054413 268.0
173.086823 132.0
173.217773 140.0
173.338287 108.0
173.364502 148.0
173.48793 176.0
173.54274 192.0
173.626663 212.0
173.71846 56.0
173.847031 288.0
173.865402 88.0
173.90477 48.0
173.970398 316.0
173.98732 180.0
174.051788 80.0
174.106934 36.0
174.127945 108.0
174.183105 180.0
174.21463 172.0
174.264542 184.0
174.348633 116.0
174.395752 112.0
174.52739 116.0
174.55632 64.0
174.595764 144.0
174.621704 124.0
174.735168 60.0
175.01944 248.0
175.074738 184.0
175.109726 140.0
175.147278 148.0
175.227509 140.0
175.404083 200.0
175.638763 136.0
175.781235 104.0
175.921127 184.0
175.968643 148.0
176.062897 168.0
176.256546 240.0
176.314697 168.0
176.356979 68.0
176.444214 160.0
176.478592 32.0
176.507675 124.0
176.587006 212.0
176.663727 140.0
176.69812 56.0
176.822479 92.0
176.868332 256.0
176.92836 176.0
177.016174 224.0
177.071609 1808.0
177.129623 212.0
177.209717 172.0
177.323059 44.0
177.519241 124.0
177.598801 88.0
177.821686 100.0
177.994247 124.0
178.075668 2044.0
178.101562 108.0
178.298752 172.0
178.34758 128.0
178.451263 124.0
178.485825 104.0
178.531036 36.0
178.584229 196.0
178.648804 188.0
178.709259 228.0
178.789093 56.0
178.807724 132.0
178.826355 60.0
178.895569 248.0
178.917297 124.0
178.962128 160.0
179.021851 140.0
179.085388 1264.0
179.116592 232.0
179.225876 172.0
179.260468 136.0
179.30043 88.0
179.321762 180.0
179.388397 112.0
179.452377 76.0
179.481705 172.0
179.519043 116.0
179.541763 232.0
179.668411 112.0
179.700424 132.0
179.759125 168.0
179.804504 200.0
179.871231 120.0
179.965332 176.0
180.066147 68.0
180.089203 360.0
180.213074 148.0
180.322632 144.0
180.370743 156.0
180.389465 92.0
180.458969 128.0
180.643509 104.0
180.678284 192.0
180.697006 100.0
180.753204 156.0
180.793335 144.0
180.838837 124.0
180.949585 184.0
180.988754 156.0
181.064163 656.0
181.100769 948.0
181.216431 184.0
181.261978 140.0
181.280746 128.0
181.306244 232.0
181.468369 160.0
181.518097 148.0
181.67717 132.0
181.715134 156.0
181.768799 108.0
181.80368 120.0
181.936874 180.0
181.996964 164.0
182.03186 196.0
182.069199 992.0
182.106934 148.0
182.147354 72.0
182.292435 208.0
182.330063 88.0
182.373062 188.0
182.502106 36.0
182.528992 60.0
182.56395 60.0
182.714584 140.0
182.77916 152.0
182.824905 104.0
182.955383 160.0
183.079468 1148.0
183.406662 64.0
183.425537 164.0
183.487549 204.0
183.603485 172.0
183.623718 144.0
183.643951 172.0
183.673615 176.0
183.741135 140.0
183.851135 176.0
183.916473 168.0
183.948868 112.0
183.983597 148.0
184.096115 460.0
184.132339 3380.0
184.285126 228.0
184.372208 228.0
184.508072 140.0
184.529709 140.0
184.724426 92.0
184.789352 116.0
184.995041 64.0
185.073547 148.0
185.099258 148.0
185.134995 860.0
185.173752 156.0
185.33345 168.0
185.374222 92.0
185.498901 156.0
185.555832 84.0
185.715836 52.0
185.764664 200.0
186.011597 168.0
186.030609 160.0
186.049606 140.0
186.12291 140.0
186.141922 96.0
186.288589 148.0
186.401352 112.0
186.421722 128.0
186.639191 176.0
186.669098 144.0
186.75885 112.0
186.834946 140.0
186.884003 56.0
186.96019 296.0
186.983612 172.0
187.020065 152.0
187.073441 264.0
187.139847 116.0
187.210648 248.0
187.406769 160.0
187.461273 152.0
187.624817 100.0
187.752975 224.0
187.900269 216.0
188.115875 192.0
188.134979 124.0
188.207428 172.0
188.362427 120.0
188.402618 112.0
188.470917 128.0
188.577499 136.0
188.654037 148.0
188.675903 148.0
188.741531 76.0
188.976761 52.0
189.012329 176.0
189.062256 196.0
189.135483 176.0
189.184769 160.0
189.307022 160.0
189.387405 212.0
189.483276 68.0
189.798492 348.0
189.982254 148.0
190.006943 80.0
190.074219 852.0
190.273163 128.0
190.402222 212.0
190.438156 192.0
190.501099 160.0
190.63298 160.0
190.67421 120.0
190.707184 52.0
190.795151 160.0
191.04541 176.0
191.076508 600.0
191.149658 140.0
191.182999 192.0
191.251801 48.0
191.279327 184.0
191.301346 152.0
191.337143 164.0
191.400467 140.0
191.571228 96.0
191.590515 112.0
191.640106 184.0
191.671097 160.0
191.703476 376.0
191.731033 136.0
191.750336 148.0
191.772385 244.0
191.819244 152.0
191.871628 72.0
191.984024 200.0
192.09169 520.0
192.163971 120.0
192.31575 240.0
192.52565 156.0
192.644348 124.0
192.694077 152.0
192.923462 120.0
192.948349 192.0
192.998123 48.0
193.073578 312.0
193.100235 940.0
193.157578 152.0
193.280258 180.0
193.311661 160.0
193.369354 104.0
193.485077 56.0
193.562607 176.0
193.645691 152.0
193.698059 128.0
193.79805 216.0
193.873932 208.0
193.953247 164.0
194.003143 92.0
194.071228 4100.0
194.11705 7576.0
194.194473 100.0
194.21666 220.0
194.247742 312.0
194.355377 116.0
194.391327 132.0
194.527451 232.0
194.54689 104.0
194.646835 208.0
194.669052 72.0
194.741257 56.0
194.802368 32.0
194.846252 212.0
194.888504 68.0
194.91629 104.0
194.971863 108.0
195.027451 76.0
195.080109 4368.0
195.120499 864.0
195.183136 88.0
195.2332 160.0
195.268265 76.0
195.352798 36.0
195.408432 128.0
195.458527 124.0
195.511398 180.0
195.580978 140.0
195.619949 36.0
195.66449 32.0
195.692337 72.0
195.784225 212.0
195.828781 120.0
195.932632 188.0
195.973648 112.0
196.021011 76.0
196.085571 704.0
196.12413 308.0
196.255157 164.0
196.310928 148.0
196.422501 48.0
196.531296 76.0
196.556412 120.0
196.802048 164.0
196.855103 120.0
196.910965 156.0
196.967529 132.0
197.061249 556.0
197.096375 2912.0
197.130203 152.0
197.170792 56.0
197.223053 40.0
197.321747 132.0
197.397232 172.0
197.525894 164.0
197.562881 108.0
197.587433 132.0
197.615417 200.0
197.67305 168.0
197.881302 116.0
197.970917 136.0
197.993317 140.0
198.048477 236.0
198.059372 164.0
198.098724 748.0
198.180496 88.0
198.220886 120.0
198.422043 116.0
198.455688 76.0
198.514572 204.0
198.854034 152.0
198.930771 132.0
198.963516 172.0
199.008438 52.0
199.115494 368.0
199.148849 104.0
199.317413 136.0
199.516968 180.0
199.598511 116.0
199.632263 152.0
199.682877 92.0
199.845978 196.0
199.988953 172.0
200.09935 156.0
200.130325 108.0
200.154541 120.0
200.197906 180.0
200.271133 88.0
200.299774 120.0
200.347183 140.0
200.454254 196.0
200.643387 120.0
200.696167 112.0
200.786911 136.0
200.809479 108.0
200.851074 188.0
200.927963 164.0
200.990662 180.0
201.077515 176.0
201.111389 128.0
201.170654 128.0
201.227127 184.0
201.261002 164.0
201.289246 176.0
201.314667 92.0
201.390915 152.0
201.603989 140.0
201.648026 128.0
201.715866 104.0
201.789368 108.0
201.823303 188.0
201.902481 176.0
201.978851 136.0
202.080353 540.0
202.290115 208.0
202.508163 52.0
202.717804 148.0
202.803116 120.0
202.936066 80.0
203.035324 80.0
203.084106 1152.0
203.25943 88.0
203.316193 44.0
203.364441 124.0
203.429718 176.0
203.608612 100.0
203.660858 232.0
203.784729 160.0
203.841461 220.0
203.847672 212.0
203.875656 172.0
203.929657 128.0
204.004272 128.0
204.034836 320.0
204.09433 324.0
204.128662 180.0
204.185547 128.0
204.239807 100.0
204.517349 84.0
204.672165 180.0
204.763306 128.0
204.882935 192.0
204.971268 52.0
205.074402 460.0
205.159378 76.0
205.193588 164.0
205.25061 104.0
205.536987 192.0
205.604355 124.0
205.631165 172.0
205.72995 88.0
205.780716 148.0
205.79216 116.0
205.818451 156.0
205.8927 124.0
205.932678 228.0
206.072632 420.0
206.108978 96.0
206.140839 172.0
206.512711 176.0
206.567245 52.0
206.593002 132.0
206.716034 172.0
206.797729 168.0
207.08046 1064.0
207.112076 416.0
207.15181 180.0
207.251511 60.0
207.300217 92.0
207.348938 148.0
207.371872 128.0
207.535278 52.0
207.561081 188.0
207.592621 180.0
207.707352 92.0
207.80899 168.0
207.879486 216.0
207.939758 172.0
207.999634 116.0
208.084015 460.0
208.123489 100.0
208.175171 192.0
208.205917 108.0
208.513 108.0
208.565918 116.0
208.706787 120.0
208.761414 164.0
208.801682 140.0
208.850571 72.0
208.870712 76.0
208.905228 164.0
208.954132 124.0
208.988663 176.0
209.017441 220.0
209.060715 308.0
209.094696 1460.0
209.133545 216.0
209.28566 152.0
209.357132 144.0
209.402359 136.0
209.521317 92.0
209.571259 108.0
209.610626 128.0
209.662506 136.0
209.737061 180.0
209.812393 160.0
209.950806 164.0
210.02002 176.0
210.066772 1184.0
210.093933 368.0
210.135406 72.0
210.18158 48.0
210.227753 196.0
210.418884 360.0
210.450012 112.0
210.484665 192.0
210.533768 100.0
210.593002 196.0
210.62619 184.0
210.779312 160.0
210.815567 168.0
210.838409 168.0
210.894913 68.0
211.069885 364.0
211.111145 2252.0
211.354736 156.0
211.537064 104.0
211.712112 132.0
211.789001 36.0
211.846924 160.0
211.939636 108.0
211.983109 68.0
212.062424 68.0
212.115097 848.0
212.165085 148.0
212.244003 192.0
212.272995 140.0
212.304886 180.0
212.406403 152.0
212.493439 144.0
212.583389 176.0
212.60556 100.0
212.665512 136.0
212.914337 116.0
212.94339 180.0
213.029495 124.0
213.052063 136.0
213.085724 200.0
213.118973 384.0
213.20079 200.0
213.239746 48.0
213.303696 68.0
213.457779 140.0
213.489777 92.0
213.562485 60.0
213.891281 128.0
213.914566 100.0
214.188293 144.0
214.331055 88.0
214.43013 52.0
214.508835 128.0
214.572968 184.0
214.698364 120.0
214.785858 96.0
214.864624 60.0
214.94632 160.0
215.033875 172.0
215.078705 176.0
215.118515 92.0
215.223633 104.0
215.372574 164.0
215.42807 232.0
215.547867 44.0
215.571243 168.0
215.644302 204.0
215.767075 272.0
215.819336 156.0
215.957153 48.0
216.053055 148.0
216.081848 148.0
216.156097 116.0
216.194138 208.0
216.217545 64.0
216.290726 160.0
216.393188 244.0
216.589401 132.0
216.709503 136.0
216.762253 76.0
216.870682 188.0
216.923447 140.0
217.089966 192.0
217.100235 272.0
217.184433 200.0
217.21669 156.0
217.248962 84.0
217.27243 292.0
217.527039 180.0
217.583527 200.0
217.624634 60.0
217.724472 196.0
217.792023 120.0
217.818466 92.0
217.888962 184.0
217.933044 236.0
217.968307 152.0
218.018265 136.0
218.063919 120.0
218.156403 224.0
218.226959 156.0
218.309296 152.0
218.382751 172.0
218.518143 164.0
218.582886 120.0
218.636459 176.0
218.715317 148.0
218.759476 144.0
218.830124 76.0
218.962646 124.0
219.02449 140.0
219.081696 640.0
219.114532 512.0
219.280838 92.0
219.404648 44.0
219.445923 128.0
219.509583 168.0
219.548386 180.0
219.742462 140.0
219.826431 76.0
219.956299 336.0
219.991714 204.0
220.04422 164.0
220.087891 684.0
220.126541 272.0
220.18692 188.0
220.248627 196.0
220.372711 136.0
220.444092 108.0
220.526382 144.0
220.59436 124.0
220.827957 180.0
220.900955 348.0
220.931488 172.0
221.05925 264.0
221.093658 1200.0
221.128891 176.0
221.159348 120.0
221.230392 88.0
221.307373 100.0
221.381393 264.0
221.469299 188.0
221.505798 208.0
221.541336 88.0
221.591705 132.0
221.742844 160.0
221.794739 204.0
221.825836 120.0
222.067123 460.0
222.104904 716.0
222.132721 172.0
222.184662 140.0
222.208405 116.0
222.251083 124.0
222.43988 156.0
222.47551 180.0
222.525986 96.0
222.549728 140.0
222.573486 168.0
222.866272 176.0
222.872787 100.0
222.883423 152.0
223.013657 148.0
223.076569 2456.0
223.110245 2452.0
223.259933 76.0
223.352142 156.0
223.403702 48.0
223.432465 124.0
223.515778 168.0
223.667557 180.0
223.736023 96.0
223.834274 176.0
223.8638 208.0
224.078308 400.0
224.116959 608.0
224.147049 144.0
224.17984 48.0
224.240799 176.0
224.275208 236.0
224.364639 84.0
224.528641 208.0
224.561447 52.0
224.644974 160.0
224.683746 140.0
224.707611 200.0
224.746414 52.0
224.835938 192.0
225.003082 212.0
225.056351 124.0
225.09375 1684.0
225.131104 372.0
225.24498 256.0
225.448151 184.0
225.503174 296.0
225.573685 172.0
225.61853 180.0
225.857758 68.0
225.974442 56.0
226.092682 484.0
226.24678 128.0
226.319809 144.0
226.359909 208.0
226.39949 96.0
226.462387 136.0
226.606552 164.0
226.672104 120.0
226.895737 184.0
226.959869 164.0
227.085815 104.0
227.244812 212.0
227.27182 116.0
227.412872 116.0
227.550949 84.0
227.592987 104.0
227.629028 144.0
227.666275 196.0
227.725128 108.0
227.752151 112.0
227.782196 112.0
227.809235 76.0
227.950455 164.0
228.094711 148.0
228.165909 176.0
228.223984 128.0
228.256378 228.0
228.50972 168.0
228.633102 184.0
228.690277 156.0
228.813705 112.0
228.891998 120.0
228.979324 44.0
229.04361 208.0
229.098221 260.0
229.230515 180.0
229.301697 124.0
229.386093 244.0
229.461472 36.0
229.48558 192.0
229.690659 156.0
230.279251 204.0
230.381958 164.0
230.681137 216.0
230.774857 144.0
230.832306 136.0
230.87767 116.0
230.947235 208.0
230.992599 192.0
231.037979 152.0
231.080688 488.0
231.108917 164.0
231.230499 128.0
231.492004 192.0
231.555603 192.0
231.80098 76.0
231.885849 152.0
231.931305 140.0
231.994965 320.0
232.083466 64.0
232.210251 140.0
232.36496 156.0
232.455994 180.0
232.477234 144.0
232.583466 140.0
232.619888 132.0
232.865845 92.0
232.953934 44.0
232.984314 60.0
233.045074 40.0
233.069382 140.0
233.096542 152.0
233.101562 136.0
233.169662 188.0
233.244888 128.0
233.336853 124.0
233.492538 204.0
233.570663 136.0
233.613602 136.0
233.659241 144.0
233.741394 196.0
233.966629 252.0
234.070633 596.0
234.176743 144.0
234.225479 168.0
234.283356 176.0
234.329819 196.0
234.383896 112.0
234.507935 148.0
234.594193 156.0
234.682617 64.0
234.899155 140.0
234.984573 132.0
235.077805 284.0
235.112732 136.0
235.137146 184.0
235.182922 160.0
235.390533 88.0
235.433289 152.0
235.527969 108.0
235.558517 132.0
235.702103 164.0
235.735718 160.0
235.793793 140.0
235.835876 192.0
235.94072 120.0
236.026123 156.0
236.083054 2448.0
236.215744 112.0
236.243271 40.0
236.321365 92.0
236.368729 148.0
236.414627 44.0
236.451355 144.0
236.560669 132.0
236.619705 136.0
236.687073 72.0
236.79425 64.0
236.861633 52.0
236.913712 80.0
236.959473 124.0
237.012543 140.0
237.048721 284.0
237.090912 2932.0
237.126434 1268.0
237.176086 116.0
237.247757 128.0
237.284546 40.0
237.388809 140.0
237.505356 128.0
237.537003 88.0
237.566696 84.0
237.704773 124.0
237.77536 124.0
237.876648 48.0
237.961411 152.0
238.002518 40.0
238.06308 308.0
238.09845 2104.0
238.132675 364.0
238.294312 220.0
238.3759 156.0
238.451035 116.0
238.479568 100.0
238.506363 68.0
238.534027 120.0
238.66008 80.0
238.724655 120.0
238.764633 176.0
238.786163 132.0
238.909195 76.0
239.037018 148.0
239.069687 756.0
239.10321 1064.0
239.140701 208.0
239.31546 184.0
239.337021 40.0
239.389359 264.0
239.46019 32.0
239.592651 144.0
239.71788 112.0
239.826859 152.0
239.851517 108.0
239.928574 52.0
239.956329 152.0
240.091766 232.0
240.156769 108.0
240.274002 152.0
240.459137 160.0
240.623703 52.0
240.66597 52.0
240.801849 180.0
240.829651 88.0
241.036636 104.0
241.271545 148.0
241.362198 236.0
241.42305 108.0
241.506561 36.0
241.712341 124.0
241.812881 184.0
241.894562 72.0
242.12558 140.0
242.209198 96.0
242.237076 192.0
242.336227 188.0
242.429184 148.0
242.503555 112.0
242.53183 148.0
242.739182 152.0
242.99353 180.0
243.055588 80.0
243.09903 124.0
243.248001 156.0
243.494827 252.0
243.527466 48.0
243.54921 180.0
243.608231 124.0
243.633087 152.0
243.664154 36.0
243.701431 140.0
243.748047 124.0
244.304581 64.0
244.332581 208.0
244.400848 204.0
244.44603 200.0
244.519287 124.0
244.563293 144.0
244.838257 204.0
244.871109 80.0
244.908478 44.0
244.964554 144.0
245.00882 152.0
245.120758 180.0
245.154617 80.0
245.192017 164.0
245.235641 144.0
245.301102 152.0
245.51001 144.0
245.709641 208.0
245.809494 124.0
245.918716 28.0
245.973206 140.0
246.037338 100.0
246.146622 160.0
246.285782 172.0
246.477737 116.0
246.552734 104.0
246.574615 88.0
246.596481 160.0
246.727783 224.0
246.809067 124.0
246.890381 164.0
246.977005 360.0
247.002975 116.0
247.075989 588.0
247.114731 488.0
247.290833 176.0
247.444229 92.0
247.52626 140.0
247.582001 228.0
247.610199 132.0
247.647781 380.0
248.014374 128.0
248.086777 204.0
248.117828 104.0
248.218155 80.0
248.271988 72.0
248.312241 124.0
248.343536 176.0
248.450256 132.0
248.499054 160.0
248.534973 240.0
248.607147 220.0
248.62912 60.0
248.687531 196.0
248.779785 120.0
248.82373 92.0
248.889664 112.0
249.0168 192.0
249.056122 236.0
249.091782 2392.0
249.127609 1228.0
249.203766 64.0
249.26033 96.0
249.294037 160.0
249.316055 132.0
249.350235 132.0
249.362152 80.0
249.433182 180.0
249.650131 144.0
249.706741 56.0
249.744492 160.0
249.835709 152.0
249.873459 156.0
249.913773 128.0
250.008774 84.0
250.059341 116.0
250.097534 400.0
250.131226 508.0
250.17244 88.0
250.216522 88.0
250.351624 172.0
250.359756 156.0
250.368835 248.0
250.591309 72.0
250.770935 176.0
250.81192 84.0
250.919769 112.0
251.06929 3288.0
251.155609 128.0
251.204514 160.0
251.275497 76.0
251.382767 124.0
251.452209 92.0
251.500717 172.0
251.581619 68.0
251.632141 52.0
251.739487 76.0
251.815292 44.0
251.843719 140.0
251.872147 84.0
251.903732 96.0
252.004822 148.0
252.078583 1256.0
252.199677 152.0
252.341827 148.0
252.425232 140.0
252.501129 112.0
252.539078 48.0
252.566422 108.0
252.656128 68.0
252.754211 88.0
252.798508 72.0
252.820663 176.0
252.953598 72.0
253.051468 136.0
253.076477 460.0
253.124573 108.0
253.228165 376.0
253.324112 212.0
253.438156 108.0
253.466675 112.0
253.516434 188.0
253.585159 228.0
253.628784 132.0
253.726746 156.0
253.793167 144.0
253.835052 168.0
253.874146 156.0
253.973938 176.0
254.015167 156.0
254.077805 172.0
254.176971 80.0
254.269318 204.0
254.551407 184.0
254.703995 120.0
254.733475 144.0
254.897797 144.0
254.939117 112.0
255.091675 172.0
255.117111 108.0
255.322372 144.0
255.409668 120.0
255.438293 44.0
255.492371 156.0
255.611893 192.0
255.652267 160.0
255.689651 120.0
255.769226 100.0
255.912491 140.0
256.006134 124.0
256.262848 96.0
256.466797 124.0
256.498688 84.0
256.674042 204.0
256.737823 52.0
256.811157 120.0
257.040863 164.0
257.098297 132.0
257.168518 176.0
257.27066 152.0
257.436707 176.0
257.561279 128.0
257.823273 80.0
257.962982 180.0
258.063019 168.0
258.16214 172.0
258.213318 80.0
258.277283 224.0
258.443634 132.0
258.558838 164.0
258.661255 104.0
258.750885 104.0
258.83432 156.0
258.862976 232.0
258.920624 84.0
258.978271 116.0
259.10318 88.0
259.223816 176.0
259.264923 148.0
259.321106 72.0
259.394806 188.0
259.619263 120.0
260.07486 88.0
260.126221 128.0
260.261047 100.0
260.331696 64.0
260.413452 132.0
260.495514 96.0
260.627228 144.0
260.651733 180.0
260.733276 160.0
260.945435 132.0
261.025818 132.0
261.079071 272.0
261.115875 212.0
261.184998 188.0
261.215576 132.0
261.418274 196.0
261.446991 100.0
261.537354 44.0
261.64682 180.0
261.762726 120.0
261.949524 112.0
262.037598 192.0
262.191193 80.0
262.21698 136.0
262.294312 100.0
262.432007 136.0
262.666565 192.0
262.753998 228.0
262.781281 336.0
262.858734 156.0
262.955536 96.0
263.013641 144.0
263.039459 84.0
263.073425 400.0
263.109406 132.0
263.423737 164.0
263.510986 156.0
263.543274 148.0
263.578827 188.0
263.653168 120.0
263.698395 116.0
263.763062 136.0
263.80072 116.0
263.830933 184.0
263.852966 132.0
263.887878 104.0
263.964722 72.0
264.079163 3792.0
264.169617 84.0
264.231964 112.0
264.261078 140.0
264.339325 88.0
264.387299 116.0
264.468201 160.0
264.510284 168.0
264.579163 180.0
264.618988 144.0
264.649475 80.0
264.678131 128.0
264.751556 132.0
264.776642 184.0
264.811462 160.0
264.872894 240.0
264.883759 156.0
264.894958 256.0
264.940735 160.0
265.009003 176.0
265.087036 34184.0
265.217285 124.0
265.240234 104.0
265.29715 92.0
265.355835 48.0
265.386566 116.0
265.45517 256.0
265.488342 60.0
265.54715 72.0
265.594635 224.0
265.654175 72.0
265.686371 100.0
265.74826 44.0
265.796936 96.0
265.824188 92.0
265.869141 96.0
265.920258 48.0
265.96463 176.0
266.046631 216.0
266.090637 9896.0
266.127106 984.0
266.190826 200.0
266.220581 168.0
266.239563 128.0
266.289734 160.0
266.309692 64.0
266.356537 56.0
266.41571 104.0
266.472168 240.0
266.535522 200.0
266.573059 196.0
266.608795 48.0
266.637299 172.0
266.672516 200.0
266.721008 264.0
266.747406 252.0
266.784302 296.0
266.817719 144.0
266.872406 204.0
266.907532 396.0
266.940277 276.0
266.983154 628.0
267.036011 460.0
267.103149 153520.0
267.214722 420.0
267.267181 152.0
267.303955 56.0
267.400085 224.0
267.438141 172.0
267.477203 200.0
267.507874 304.0
267.532562 180.0
267.540161 100.0
267.570679 136.0
267.599518 124.0
267.640289 2432.0
267.682556 284.0
267.719177 276.0
267.754669 92.0
267.788208 72.0
267.828339 136.0
267.866608 220.0
267.895905 84.0
267.935272 284.0
267.988586 384.0
268.015533 76.0
268.106384 44892.0
268.168884 196.0
268.206848 40.0
268.240204 172.0
268.26474 124.0
268.286499 80.0
268.313965 112.0
268.36322 256.0
268.397858 92.0
268.451538 84.0
268.489166 164.0
268.534668 60.0
268.569397 156.0
268.594879 68.0
268.649384 384.0
268.698975 84.0
268.746368 124.0
268.796356 112.0
268.836243 88.0
268.88797 44.0
268.946014 232.0
268.980133 68.0
269.020599 120.0
269.056793 120.0
269.108673 4072.0
269.155304 100.0
269.20993 116.0
269.240967 72.0
269.310638 116.0
269.406647 72.0
269.431458 76.0
269.439178 64.0
269.461548 68.0
269.495544 100.0
269.502716 112.0
269.523712 80.0
269.545715 136.0
269.573914 224.0
269.611389 148.0
269.654633 100.0
269.676239 48.0
269.687378 160.0
269.713013 96.0
269.794952 248.0
269.828125 120.0
269.88092 172.0
269.901489 120.0
269.968414 208.0
269.978058 220.0
270.003204 228.0
270.038055 224.0
270.078461 132.0
270.113892 456.0
270.140656 144.0
270.150269 180.0
270.161499 168.0
270.173584 80.0
270.242401 220.0
270.277435 36.0
270.303589 48.0
270.339447 80.0
270.3591 100.0
270.390564 160.0
270.439972 108.0
270.503235 72.0
270.526947 176.0
270.575562 88.0
270.598175 128.0
270.63092 144.0
270.694092 104.0
270.72464 228.0
270.752106 44.0
270.788116 52.0
270.849884 152.0
270.879425 132.0
270.887939 68.0
270.935516 140.0
270.993042 136.0
271.033417 68.0
271.058838 76.0
271.135406 128.0
271.168182 76.0
271.332092 68.0
271.37323 80.0
271.414062 48.0
271.456665 80.0
271.569275 84.0
271.627228 56.0
271.794556 124.0
271.833923 128.0
271.955353 72.0
272.017731 36.0
272.099792 64.0
272.27713 184.0
272.421631 84.0
272.584137 44.0
272.612213 132.0
272.741547 68.0
272.842285 88.0
272.88504 56.0
272.911346 104.0
272.934357 76.0
273.000122 52.0
273.084106 32.0
273.136169 132.0
273.216675 48.0
273.414642 28.0
273.562775 164.0
273.645081 180.0
273.973572 216.0
274.096313 156.0
274.132568 92.0
274.500824 68.0
275.108887 824.0
275.332794 276.0
275.581146 176.0
275.647247 124.0
275.9216 84.0
276.042053 68.0
276.114563 252.0
276.182831 88.0
276.252289 56.0
276.298615 64.0
276.513702 104.0
276.699066 52.0
276.854706 104.0
277.094727 220.0
277.142883 192.0
277.368256 152.0
277.593719 36.0
277.928741 68.0
278.098236 316.0
278.473175 76.0
278.514709 120.0
278.552887 112.0
278.861908 120.0
278.888519 92.0
279.038116 48.0
279.0979 400.0
279.194397 56.0
279.247589 28.0
279.42392 92.0
279.68396 216.0
279.77002 72.0
279.805054 84.0
279.936493 100.0
280.029755 48.0
280.100037 248.0
280.302948 68.0
280.442902 80.0
280.549591 108.0
280.682953 156.0
280.820435 104.0
280.906403 84.0
280.936432 108.0
281.109924 132.0
281.190033 220.0
281.256775 148.0
281.330231 116.0
281.356934 132.0
281.395142 116.0
281.450409 36.0
282.135345 92.0
282.27243 140.0
282.372772 56.0
282.593536 136.0
282.807709 124.0
282.841187 140.0
282.971741 64.0
283.068848 28.0
283.11908 36.0
283.199463 220.0
283.27652 80.0
283.459106 112.0
283.658539 168.0
283.785919 40.0
283.913361 108.0
284.158234 36.0
284.362915 112.0
284.42334 196.0
284.833008 152.0
284.940491 108.0
285.13205 52.0
285.326996 36.0
285.619568 88.0
285.6633 60.0
285.730591 80.0
285.814697 104.0
286.110901 116.0
286.643066 44.0
286.808197 120.0
286.976776 104.0
287.263428 180.0
287.837189 104.0
287.992554 132.0
288.039825 104.0
288.803772 132.0
288.864655 192.0
289.152252 144.0
289.213165 188.0
289.270721 184.0
289.463715 108.0
289.504333 112.0
289.904083 132.0
290.443176 44.0
290.466919 136.0
290.497437 84.0
290.626373 144.0
290.670471 132.0
290.751923 184.0
290.975952 48.0
291.098969 524.0
291.1763 68.0
291.274811 120.0
291.383514 40.0
291.424286 44.0
291.522827 128.0
291.560211 40.0
291.900177 120.0
291.974976 152.0
292.009003 116.0
292.100616 372.0
292.202911 112.0
292.226715 204.0
292.253937 168.0
292.284546 132.0
292.30838 96.0
292.359436 64.0
292.408752 172.0
292.53302 28.0
292.568604 100.0
292.604401 116.0
292.696442 48.0
292.724701 200.0
292.770203 188.0
292.835632 128.0
292.844513 92.0
292.894745 372.0
292.957001 176.0
292.970184 140.0
292.996582 368.0
293.04306 408.0
293.054565 240.0
293.061615 208.0
293.118469 84208.0
293.180115 216.0
293.265717 144.0
293.295258 68.0
293.319672 140.0
293.348633 132.0
293.380066 80.0
293.409821 112.0
293.434448 100.0
293.493774 76.0
293.534149 72.0
293.605774 168.0
293.659088 84.0
293.685028 292.0
293.725708 56.0
293.760498 60.0
293.815704 124.0
293.844208 76.0
293.875793 56.0
293.943146 180.0
293.983002 144.0
294.003082 176.0
294.054382 192.0
294.121185 20860.0
294.194031 148.0
294.243225 92.0
294.278564 40.0
294.305878 52.0
294.332825 136.0
294.371826 88.0
294.382446 76.0
294.476624 36.0
294.530304 84.0
294.588654 136.0
294.66449 28.0
294.700348 100.0
294.801178 52.0
294.857269 108.0
294.918823 76.0
294.960052 148.0
294.985748 104.0
295.009674 80.0
295.123932 2488.0
295.194794 56.0
295.252441 132.0
295.332947 60.0
295.365051 52.0
295.450928 156.0
295.488464 44.0
295.512421 68.0
295.567596 108.0
295.592255 208.0
295.667938 100.0
295.773895 40.0
295.820435 100.0
295.866089 84.0
295.894226 108.0
295.923157 236.0
295.97348 80.0
296.125275 304.0
296.176575 84.0
296.210419 192.0
296.245087 156.0
296.270935 96.0
296.371582 52.0
296.391998 100.0
296.523041 164.0
296.577454 40.0
296.635742 104.0
296.67688 56.0
296.700867 136.0
296.800293 144.0
296.868896 52.0
296.920319 28.0
296.958069 88.0
297.016357 80.0
297.044708 108.0
297.098694 76.0
297.122711 132.0
297.209656 140.0
297.247162 132.0
297.328583 120.0
297.366241 208.0
297.644409 96.0
297.709656 64.0
297.974152 116.0
298.080688 112.0
298.647949 164.0
298.740814 120.0
298.933502 68.0
298.961029 52.0
299.026428 88.0
299.102142 132.0
299.129669 48.0
299.207336 164.0
299.529114 44.0
299.570465 128.0
299.673828 60.0
299.728943 192.0
300.132233 80.0
300.170166 68.0
300.315033 116.0
300.487518 48.0
300.62207 56.0
300.815369 120.0
302.004669 112.0
302.980225 108.0
303.101501 76.0
303.430786 112.0
304.107208 116.0
305.111145 124.0
305.149384 88.0
305.531952 48.0
305.639801 28.0
305.692017 76.0
305.852112 180.0
306.029663 80.0
306.092316 116.0
306.127136 232.0
306.172424 32.0
306.520782 196.0
306.736877 92.0
306.862366 40.0
307.112457 168.0
307.364655 76.0
307.483307 48.0
307.521698 112.0
307.724152 40.0
307.814941 116.0
308.132812 68.0
308.566193 160.0
309.391846 68.0
309.437347 136.0
310.064392 128.0
310.369385 172.0
310.646454 108.0
311.099152 68.0
311.369507 56.0
312.596436 84.0
312.948425 120.0
313.184387 164.0
313.681244 132.0
314.210205 136.0
314.933899 152.0
315.679596 76.0
316.295227 124.0
316.677643 132.0
317.109894 124.0
317.499878 136.0
317.858185 60.0
318.358734 96.0
318.912964 188.0
319.095825 128.0
319.208038 128.0
319.325409 116.0
319.94455 92.0
320.126587 292.0
320.250793 76.0
320.482361 52.0
320.592834 80.0
320.810272 204.0
320.999237 44.0
321.042023 164.0
321.113251 5364.0
321.213226 60.0
321.402313 36.0
321.441559 56.0
321.491516 72.0
321.623566 88.0
321.698547 56.0
321.762787 104.0
321.962769 92.0
322.009186 40.0
322.044922 244.0
322.114655 1512.0
322.405762 168.0
322.459381 64.0
322.745361 80.0
322.866943 84.0
322.95993 68.0
323.045776 40.0
323.114807 304.0
323.246155 112.0
323.27121 60.0
323.435822 60.0
323.657806 52.0
324.05896 48.0
324.116302 116.0
324.403442 164.0
324.894318 60.0
325.280579 76.0
325.824158 72.0
326.812897 192.0
329.184753 160.0
331.717438 44.0
332.381134 64.0
332.493622 64.0
332.802185 84.0
334.056061 136.0
334.147003 124.0
334.470886 84.0
335.272186 32.0
336.052521 60.0
336.318939 152.0
336.45401 144.0
336.508759 68.0
336.866669 148.0
336.961639 120.0
337.451416 120.0
337.648865 60.0
337.678131 152.0
337.888672 120.0
337.919556 348.0
338.046448 184.0
338.139099 13620.0
338.215881 144.0
338.329468 32.0
338.556488 44.0
338.667267 80.0
338.692963 108.0
338.739624 148.0
338.839752 84.0
339.084045 188.0
339.140564 4040.0
339.194397 148.0
339.329651 120.0
339.575348 44.0
339.623016 92.0
339.663391 152.0
339.722076 44.0
339.865143 56.0
339.94223 48.0
339.967896 100.0
340.011932 92.0
340.145569 856.0
340.255646 72.0
340.334991 64.0
340.3974 76.0
340.511261 48.0
340.841888 88.0
341.047699 92.0
341.08078 32.0
341.13736 164.0
341.275604 64.0
341.319214 200.0
341.430054 64.0
341.477875 112.0
341.959869 64.0
342.099731 76.0
342.140228 108.0
342.338837 128.0
342.38327 136.0
342.515839 32.0
343.691925 64.0
345.661438 88.0
346.142639 80.0
347.599457 64.0
348.717316 104.0
349.416412 104.0
349.595001 52.0
350.136353 1236.0
350.240173 28.0
350.492462 180.0
350.712341 84.0
351.112915 136.0
351.146332 180.0
351.241821 140.0
351.723175 48.0
352.160034 192.0
353.14679 104.0
353.389954 108.0
353.498474 120.0
353.797882 32.0
353.977631 104.0
354.648224 84.0
354.745697 88.0
355.409546 152.0
355.552124 64.0
355.724792 32.0
356.472198 56.0
356.686432 60.0
356.806732 48.0
357.107574 120.0
357.769836 104.0
358.398834 32.0
359.16037 288.0
361.166077 72.0
362.172943 108.0
362.218384 88.0
362.832306 120.0
363.852875 136.0
364.175629 112.0
364.388367 68.0
365.011719 116.0
365.700317 196.0
366.416229 92.0
367.136658 88.0
367.289215 64.0
367.361694 76.0
368.969482 120.0
369.684784 36.0
371.159576 196.0
371.194092 60.0
374.657166 100.0
377.061127 120.0
377.15387 112.0
377.180939 124.0
378.438263 132.0
378.535065 160.0
378.848785 72.0
380.33786 108.0
380.838745 136.0
383.028687 48.0
383.083221 172.0
383.254639 192.0
387.474365 56.0
387.76825 28.0
387.8349 132.0
389.632172 52.0
390.650391 64.0
390.933685 96.0
391.083252 36.0
392.059998 48.0
393.389221 44.0
393.649811 60.0
394.028992 120.0
395.551544 68.0
396.470428 48.0
397.640411 224.0
398.629272 76.0
399.078461 108.0
399.249451 68.0
400.005402 128.0
400.566895 40.0
401.348022 100.0
403.176331 144.0
403.548096 160.0
404.032013 104.0
404.188049 240.0
405.197052 124.0
405.838348 72.0
410.236725 140.0
411.685211 164.0
412.04068 156.0
412.824829 156.0
413.557129 168.0
414.209045 124.0
414.314362 64.0
417.281128 100.0
417.329926 96.0
417.899353 200.0
418.216766 124.0
418.420319 92.0
419.789398 96.0
420.846252 176.0
421.65509 180.0
422.587433 80.0
424.295319 124.0
424.775116 84.0
424.902313 156.0
425.492493 80.0
426.470978 116.0
426.915009 92.0
427.079529 76.0
428.017853 72.0
428.825287 56.0
429.122101 56.0
429.695404 96.0
429.749023 120.0
430.070923 116.0
430.962952 168.0
431.070374 168.0
431.140625 108.0
431.219177 176.0
431.533325 92.0
431.570557 188.0
431.680817 108.0
431.737274 124.0
431.860016 132.0
431.905518 80.0
431.939789 140.0
432.091675 52.0
432.142578 132.0
432.218811 14320.0
432.341339 72.0
432.476532 68.0
432.517944 48.0
432.552277 136.0
432.609009 116.0
432.720093 48.0
432.755493 84.0
432.81015 96.0
432.840851 148.0
432.921722 144.0
432.980988 148.0
432.992493 124.0
433.010315 100.0
433.023071 116.0
433.086914 68.0
433.116516 64.0
433.168518 152.0
433.220612 6400.0
433.292328 104.0
433.404205 44.0
433.433197 60.0
433.499512 76.0
433.556976 60.0
433.648712 68.0
433.76593 56.0
433.806213 64.0
434.129608 72.0
434.2164 788.0
434.283081 136.0
434.685486 80.0
434.901306 112.0
435.075653 92.0
435.223053 72.0
435.465973 88.0
435.703644 116.0
435.810791 48.0
436.064545 128.0
436.226379 140.0
436.263794 76.0
436.305389 56.0
436.496643 40.0
436.593842 96.0
436.671295 56.0
436.766968 92.0
437.620087 48.0
437.853302 80.0
438.182373 48.0
438.77002 64.0
439.28299 36.0
441.20816 216.0
442.55957 52.0
443.120819 128.0
443.208801 92.0
443.808197 64.0
445.697052 48.0
445.755859 96.0
446.891174 96.0
447.404633 96.0
447.712036 72.0
448.040558 76.0
448.554688 108.0
449.423492 88.0
451.64563 36.0
454.386505 44.0
455.392578 92.0
455.762146 68.0
456.17865 52.0
456.408234 84.0
456.778259 72.0
457.259064 44.0
459.299988 68.0
459.581543 72.0
459.841858 68.0
461.383911 72.0
462.038269 68.0
469.490814 116.0
470.129303 132.0
472.882294 60.0
473.839325 100.0
473.9953 64.0
474.48941 80.0
475.205048 68.0
476.511902 92.0
476.842163 52.0
477.342102 80.0
477.38559 52.0
479.74115 44.0
480.831604 136.0
481.172089 172.0
481.289978 92.0
481.324921 92.0
482.386597 40.0
482.736359 60.0
483.935303 112.0
484.097321 104.0
484.316315 132.0
485.477753 52.0
486.368408 56.0
487.769623 96.0
488.033417 92.0
489.393005 120.0
490.41507 64.0
491.058777 100.0
491.142578 72.0
495.169159 56.0
496.547516 56.0
497.417175 48.0
497.523743 56.0
501.513916 56.0
501.6521 120.0
502.914459 52.0
503.021606 96.0
504.066711 52.0
511.178772 36.0
511.516327 124.0
511.682892 60.0
515.191589 80.0
516.02771 72.0
520.690613 72.0
522.008484 52.0
522.067627 100.0
522.313232 52.0
523.200623 72.0
523.510254 48.0
525.100769 128.0
529.167786 32.0
529.763123 76.0
531.303528 88.0
533.443542 104.0
536.633972 52.0
540.393616 72.0
541.875183 44.0
543.618652 56.0
544.022461 40.0
545.648499 96.0
552.158081 188.0
555.840271 100.0
556.910645 44.0
558.47113 32.0
563.189331 124.0
563.935852 48.0
564.41803 84.0
564.635559 136.0
566.197388 104.0
569.46991 52.0
570.705505 172.0
571.618774 56.0
576.210449 104.0
576.654907 44.0
579.05188 92.0
582.966675 88.0
586.716248 76.0
592.07489 120.0
594.062195 40.0
594.333862 64.0
597.248779 48.0
600.64386 100.0
605.164429 60.0
608.724304 40.0
608.960022 68.0
614.468445 44.0
616.087769 72.0
617.135559 80.0
621.112305 56.0
623.515381 48.0
626.276733 108.0
626.964294 112.0
632.208008 96.0
641.026306 40.0
641.923645 44.0
644.457581 64.0
648.605286 116.0
648.668274 32.0
649.961548 36.0
653.330078 64.0
655.687622 52.0
658.320068 84.0
658.878052 84.0
662.949768 52.0
663.959717 72.0
673.60022 40.0
678.490601 76.0
679.092163 120.0
680.358276 160.0
680.612671 32.0
683.575623 128.0
684.27832 72.0
685.434631 88.0
688.752686 108.0
690.895996 48.0
691.424438 44.0
693.744873 64.0
695.087524 56.0
696.25824 128.0
697.876709 72.0
698.902405 56.0
702.405823 48.0
703.05481 40.0
703.503479 80.0
706.44696 48.0
717.253296 108.0
720.540588 180.0
722.689941 100.0
725.68396 76.0
727.121643 92.0
728.818542 68.0
729.012024 64.0
739.777771 104.0
741.641174 80.0
746.696045 64.0
749.363403 28.0
751.326111 48.0
751.631653 76.0
756.205811 64.0
757.596619 240.0
763.997742 52.0
769.575256 84.0
771.365234 56.0
772.117188 80.0
777.285767 136.0
777.51886 116.0
777.796387 48.0
783.429504 56.0
786.345764 24.0
787.272522 32.0
788.361877 76.0
791.500061 64.0
797.491638 72.0
798.790527 48.0
799.994751 72.0
807.013123 96.0
807.601257 144.0
815.255127 80.0
818.822205 72.0
830.017334 108.0
832.996033 92.0
837.845581 104.0
841.011414 192.0
841.369263 92.0
845.46167 124.0
847.279846 140.0
852.350891 76.0
852.618164 40.0
853.88562 144.0
854.222961 64.0
855.183044 200.0
855.491577 84.0
857.4953 212.0
861.796082 32.0
865.287842 88.0
868.774841 148.0
869.414429 124.0
870.729492 180.0
875.175171 196.0
877.243103 88.0
877.561462 204.0
880.376099 36.0
882.34375 236.0
882.923218 116.0
883.461487 36.0
883.840149 204.0
887.69043 144.0
892.773743 76.0
900.54541 196.0
903.683838 60.0
908.062805 80.0
910.745728 148.0
912.272034 104.0
913.613098 224.0
916.647644 152.0
917.762756 84.0
921.577454 104.0
921.637878 144.0
928.26001 204.0
928.593506 208.0
930.061829 224.0
936.659302 152.0
937.384338 80.0
938.054749 148.0
938.097412 92.0
941.068542 92.0
943.249512 64.0
944.43573 152.0
944.747742 184.0
951.863586 40.0
951.949524 108.0
955.053223 208.0
958.371399 212.0
958.938354 84.0
959.770569 148.0
960.285583 180.0
961.584229 60.0
963.158691 156.0
966.231079 52.0
968.007507 112.0
969.221558 44.0
969.426086 84.0
971.310852 196.0
972.260132 172.0
976.789612 80.0
979.665588 68.0
981.0802 208.0
986.442627 92.0
988.375122 104.0
996.375488 152.0
1001.855103 136.0
1004.237793 228.0
1007.43811 200.0
1010.067871 148.0
1012.06134 76.0
1015.496094 60.0
1016.549194 120.0
1022.319397 156.0
1022.643921 168.0
1025.54834 176.0
1026.447266 108.0
1029.772095 68.0
1030.124146 196.0
1030.513184 176.0
1033.115234 140.0
1034.849609 52.0
1049.486206 172.0
1052.673828 116.0
1054.030396 180.0
1055.717529 276.0
1056.623169 140.0
1057.07605 136.0
1058.474243 164.0
1065.843018 48.0
1066.427856 164.0
1066.518921 116.0
1067.890869 184.0
1069.669312 124.0
1069.758301 248.0
1070.650269 132.0
1070.760986 136.0
1071.015015 172.0
1072.696167 144.0
1073.84375 52.0
1074.672241 140.0
1077.505859 136.0
1080.428223 180.0
1080.624512 176.0
1086.488159 80.0
1086.724365 188.0
1086.816162 116.0
1087.46582 188.0
1088.463745 68.0
1089.665771 208.0
1089.88916 160.0
1091.111572 164.0
1091.387817 64.0
1094.855713 128.0
1095.13208 112.0
1095.329834 128.0
1095.995239 72.0
1097.425537 32.0
1097.781616 160.0
1098.731445 116.0
1099.048096 128.0
1099.945679 156.0
1102.356323 160.0
1105.960815 140.0
1112.383789 164.0
1113.10083 192.0
1113.565796 180.0
1114.303101 32.0
1114.422729 200.0
1118.57251 188.0
1119.584595 164.0
1121.503418 72.0
1122.109985 136.0
1124.171143 80.0
1124.317871 160.0
1124.364624 156.0
1125.65979 196.0
1127.550293 172.0
1129.088013 184.0
1130.205078 228.0
1130.486206 44.0
1133.767578 52.0
1135.068115 188.0
1137.362549 88.0
1139.175537 180.0
1140.096069 132.0
1141.373291 148.0
1142.51001 124.0
1142.853149 188.0
1149.355225 88.0
1154.06311 148.0
1154.347168 196.0
1155.023438 128.0
1155.307617 120.0
1157.595337 168.0
1159.620972 96.0
1161.906128 88.0
1163.052979 76.0
1164.132446 80.0
1164.723267 96.0
1165.049438 152.0
1166.646362 132.0
1167.265137 204.0
1169.70752 200.0
1170.272583 188.0
1172.295654 64.0
1172.738647 196.0
1176.510864 44.0
1176.620117 124.0
1177.548828 196.0
1178.716919 40.0
1184.244629 160.0
1189.023438 124.0
1190.334595 128.0
1191.770142 232.0
1191.838867 168.0
1193.234131 128.0
1193.289185 156.0
1194.045532 160.0
1194.100586 144.0
1194.492676 168.0
1194.733398 188.0
1195.64856 176.0
1195.820557 172.0
1196.83252 80.0
1197.493652 188.0
1201.174438 140.0
1201.415771 172.0
1201.850464 172.0
1204.004272 184.0
1206.325806 184.0
1207.134766 116.0
1208.836426 156.0
1210.255493 200.0
1210.927246 124.0
1211.841553 112.0
1211.952393 160.0
1213.054443 224.0
1213.810059 180.0
1214.468994 172.0
1215.558105 152.0
1216.703369 76.0
1217.869995 280.0
1218.259033 152.0
1221.644409 192.0
1223.467773 76.0
1223.599976 152.0
1225.675659 172.0
1227.15332 180.0
1227.278809 52.0
1228.882935 152.0
1232.926025 136.0
1233.254517 132.0
1233.708862 168.0
1236.199707 184.0
1236.520752 160.0
1236.947754 172.0
1237.647827 188.0
1238.236084 84.0
1243.97876 128.0
1245.27063 132.0
1247.716064 112.0
1248.398071 156.0
1248.911499 144.0
1249.199951 224.0
1249.375732 160.0
1249.460205 216.0
1249.721191 200.0
1252.430786 192.0
1253.572144 96.0
1254.798584 140.0
1257.218018 108.0
1257.366211 132.0
1257.89563 180.0
1258.015625 140.0
1258.453369 40.0
1259.597412 64.0
1261.378052 180.0
1262.304321 168.0
1263.343994 60.0
1264.490234 44.0
1265.424683 80.0
1265.573364 208.0
1266.161133 100.0
1266.508179 116.0
1268.83252 124.0
1270.633911 144.0
1270.704834 168.0
1272.962036 128.0
1274.261841 144.0
1274.915527 96.0
1275.886719 192.0
1276.259033 156.0
1277.283081 80.0
1279.175903 192.0
1279.339722 216.0
1279.916382 180.0
1280.329346 84.0
1282.844604 36.0
1283.58606 64.0
1284.491821 196.0
1287.325317 124.0
1287.939453 180.0
1288.34668 184.0
1291.406006 192.0
1291.64209 44.0
1291.942505 140.0
1293.524048 140.0
1295.715332 160.0
1296.697021 112.0
1299.278442 112.0
1300.720947 136.0
1302.372437 180.0
1302.731567 112.0
1304.643066 252.0
1306.182007 256.0
1307.966553 184.0
1308.693604 176.0
1309.377686 60.0
1309.6875 156.0
1310.242065 172.0
1310.890625 184.0
1311.034668 132.0
1311.546387 152.0
1312.072632 200.0
1312.404297 160.0
1313.298584 124.0
1313.536621 180.0
1313.666382 164.0
1314.11377 116.0
1314.488892 180.0
1314.662109 128.0
1314.755981 156.0
1315.246704 156.0
1315.391113 148.0
1316.524658 52.0
1318.460693 172.0
1318.695801 176.0
1320.564575 124.0
1321.845093 140.0
1322.467529 84.0
1323.292725 88.0
1325.893188 192.0
1326.241089 136.0
1328.198853 156.0
1328.975098 224.0
1329.178223 156.0
1330.782349 180.0
1331.145386 148.0
1332.939697 160.0
1333.644653 68.0
1334.836914 40.0
1335.307007 232.0
1336.349854 180.0
1339.065063 184.0
1339.145142 132.0
1339.684204 92.0
1339.844482 132.0
1340.485718 148.0
1341.455078 168.0
1343.088379 180.0
1345.022095 200.0
1346.557007 176.0
1346.935181 96.0
1348.754639 124.0
1348.805786 152.0
1349.039673 144.0
1349.280884 108.0
1353.05603 172.0
1357.826294 112.0
1358.823853 136.0
1360.174194 64.0
1360.82019 140.0
1362.186157 164.0
1362.296265 120.0
1362.84729 92.0
1363.538086 144.0
1364.376099 116.0
1365.537842 168.0
1365.589355 152.0
1366.317627 196.0
1366.736938 232.0
1367.715698 68.0
1368.260498 196.0
1369.055786 124.0
1369.350342 108.0
1369.608154 40.0
1373.772949 108.0
1373.979492 176.0
1374.14917 72.0
1375.019897 144.0
1375.698975 260.0
1375.84668 196.0
1376.023804 136.0
1377.094604 164.0
1377.271851 160.0
1378.579468 128.0
1378.749512 136.0
1378.81604 232.0
1381.241089 108.0
1381.796021 60.0
1381.966187 160.0
1382.099365 92.0
1384.186768 140.0
1384.505127 124.0
1386.290527 84.0
1387.491211 124.0
1387.691406 96.0
1388.128906 132.0
1388.329102 64.0
1391.571777 164.0
1392.574219 76.0
1392.930786 176.0
1393.25769 76.0
1393.473145 56.0
1394.045288 168.0
1395.859009 68.0
1396.595337 144.0
1397.428467 192.0
1397.882446 184.0
1398.611694 80.0
1399.862549 108.0
1400.056152 168.0
1400.897827 140.0
1401.307495 36.0
1401.806763 52.0
1405.154663 212.0
1405.303833 184.0
1405.535156 224.0
1405.878418 192.0
1406.512817 48.0
1406.751709 128.0
1407.63269 168.0
1408.835205 184.0
1410.045654 176.0
1410.328125 136.0
1412.744995 212.0
1412.879639 36.0
1413.051636 164.0
1413.16394 176.0
1417.619141 196.0
1417.806519 40.0
1418.346191 124.0
1419.050903 188.0
1420.115723 184.0
1420.595825 156.0
1420.738281 192.0
1421.060913 112.0
1421.128418 180.0
1421.623657 140.0
1421.758789 164.0
1421.826294 216.0
1423.004761 144.0
1423.763184 160.0
1424.016479 208.0
1424.153809 156.0
1424.899902 212.0
1425.708984 80.0
1427.377808 76.0
1428.806885 124.0
1429.017578 180.0
1429.581909 116.0
1429.837769 68.0
1430.040894 160.0
1430.454956 168.0
1430.876465 144.0
1431.102417 132.0
1431.501465 116.0
1432.021118 160.0
1432.518188 172.0
1432.985352 148.0
1433.075684 160.0
1433.26416 172.0
1435.78186 84.0
1436.95105 188.0
1438.067871 204.0
1439.147461 164.0
1439.842163 188.0
1439.89502 132.0
1440.280151 176.0
1441.54187 80.0
1442.040649 136.0
1445.057861 124.0
1446.16272 192.0
1446.321655 116.0
1446.972778 196.0
1447.025757 96.0
1447.381592 44.0
1448.290405 60.0
1448.76001 176.0
1448.949463 220.0
1451.24585 196.0
1452.011719 148.0
1452.390991 136.0
1452.709595 192.0
1453.741455 156.0
1455.168457 136.0
1455.411377 184.0
1455.882202 160.0
1455.942993 156.0
1456.360718 120.0
1456.444214 208.0
1456.588623 132.0
1456.672119 192.0
1457.758667 128.0
1458.07019 128.0
1458.541382 168.0
1459.202759 108.0
1459.62854 192.0
1460.15332 200.0
1460.312988 148.0
1460.449951 112.0
1460.533569 124.0
1464.758179 88.0
1465.253296 168.0
1466.731689 164.0
1466.959595 204.0
1468.40918 188.0
1469.61438 140.0
1470.217285 208.0
1474.24939 96.0
1475.617676 164.0
1476.657593 188.0
1478.776978 144.0
1479.312744 164.0
1479.550049 84.0
1480.116577 180.0
1480.591431 128.0
1482.184814 136.0
1482.590942 144.0
1482.736572 176.0
1483.296021 240.0
1483.909302 200.0
1484.131714 212.0
1484.998291 156.0
1486.463501 44.0
1487.484253 164.0
1487.875854 48.0
1488.205933 192.0
1488.889404 156.0
1489.050659 92.0
1489.10437 176.0
1490.272095 48.0
1490.610107 20.0
1491.56311 148.0
1492.239624 40.0
1493.000854 148.0
1493.454712 124.0
1493.781738 224.0
1495.624512 160.0
1496.15564 184.0
1497.00647 188.0
1498.442993 200.0
1499.151855 132.0
1500.045898 176.0
1500.593262 144.0
1501.294922 204.0
1501.665161 116.0
1503.21582 108.0
