>compound 15-Acetoxyeremantholide B
>formula C22H28O8
>ionization [M+H]+
>parentmass 421.18569430809055
#inchi InChI=1S/C22H28O8/c1-6-11(2)22(26)21(5)18-15(28-19(21)25)7-13(10-27-12(3)23)14-8-17(24)20(4,29-14)9-16(18)30-22/h7-8,11,15-16,18,26H,6,9-10H2,1-5H3/b13-7-/t11?,15-,16+,18+,20-,21-,22-/m1/s1
#inchikey UNFGCPCUYMXWDG
#Ion_Source DI-ESI
#Instrument qTof
#Compound_Source Isolated
#PI Norberto Lopes
#Data_Collector DeniseSilva
#Scan -1
#Precursor_MZ 421.18
#ExactMass 420.178
#Charge 1
#CAS_Number 221320-16-7
#Pubmed_ID  
#Smiles O=C1C=C(/C(COC(C)=O)=C\2)O[C@]1(C)C[C@]3([H])O[C@](O)(C(CC)C)[C@]4(C)[C@@]3([H])[C@]2([H])OC4=O
#INCHI_AUX  
#Library_Class 3
#SpectrumID CCMSLIB00000081289
#IonMode Positive
#UpdateWorkflowName UPDATE-SINGLE-ANNOTATED-BRONZE
#LibraryQualityString Bronze
#TaskID d848fe73287d4f4c89d2f3a432c128c3
##Scan# 1
#SpectrumFile gnps_15_AcetoxyeremantholideB_pos_MplusH.mgf
#LibraryName gnps_library.mgf
#MQScore -1
#Organism gnps_library
#TIC_Query 0
#RT_Query -1
#MZErrorPPM -1
#SharedPeaks 0
#MassDiff 0
#LibMZ -1
#SpecMZ 421.18
#SpecCharge 0
#internalFilename spec-00000.mgf

>collision 10
135.116684 345.0
137.057846 2037.0
141.089386 178.0
145.065903 136.0
147.080215 155.0
151.109634 3017.0
152.111847 203.0
153.125275 1056.0
155.068176 450.0
157.050705 249.0
159.112061 148.0
161.091812 128.0
165.123718 347.0
175.073746 434.0
179.102722 344.0
181.121307 783.0
187.108887 202.0
189.111877 128.0
195.136337 181.0
197.078659 3133.0
198.085144 204.0
199.066833 336.0
203.068192 6128.0
204.072113 524.0
205.121246 180.0
207.100815 555.0
213.090363 180.0
215.103516 915.0
217.082764 254.0
225.110077 999.0
231.101974 878.0
233.117355 544.0
239.143845 171.0
241.086334 280.0
243.098022 282.0
249.109146 245.0
257.152557 219.0
259.094482 1331.0
271.166809 369.0
277.104431 3139.0
281.151581 531.0
289.179657 179.0
299.161652 2501.0
315.153748 636.0
317.173279 12350.0
343.153198 815.0
359.262573 139.0
361.160217 9337.0
403.170715 1061.0
421.180176 2284.0
