>compound 1H-Indole-2-propanoic acid, 1-[(4-chlorophenyl)methyl]-3-[(1,1-dimethylethyl)thio]-Alpha,Alpha-dimethyl-5-(1-methylethyl)- [CAS]
>formula C27H34ClNO2S
>ionization [M+H]+
>parentmass 472.207397
#inchi InChI=1S/C27H34ClNO2S/c1-17(2)19-10-13-22-21(14-19)24(32-26(3,4)5)23(15-27(6,7)25(30)31)29(22)16-18-8-11-20(28)12-9-18/h8-14,17H,15-16H2,1-7H3,(H,30,31)
#inchikey QAOAOVKBIIKRNL
#Ion_Source LC-ESI
#Instrument qTof
#Compound_Source Commercial
#PI Dorrestein
#Data_Collector Garg_Neha
#Scan -1
#Precursor_MZ 472.208
#ExactMass 471.2
#Charge 1
#CAS_Number N/A
#Pubmed_ID N/A
#Smiles CC(C)c1ccc2n(Cc3ccc(Cl)cc3)c(CC(C)(C)C(=O)O)c(SC(C)(C)C)c2c1
#INCHI_AUX N/A
#Library_Class 1
#SpectrumID CCMSLIB00000079272
#IonMode Positive
#UpdateWorkflowName UPDATE-SINGLE-ANNOTATED-GOLD
#LibraryQualityString Gold
#TaskID 278b19f5865741e282cec7349aa7e7a1
##Scan# 3828
#SpectrumFile NCP003512_A2_B11_BD4_01_15728.mzXML
#LibraryName NIHcollectionI_05062014.mgf
#MQScore -1
#Organism NIHcollectionI_05062014
#TIC_Query 0
#RT_Query -1
#MZErrorPPM -1
#SharedPeaks 0
#MassDiff 0
#LibMZ -1
#SpecMZ 472.208
#SpecCharge 0
#internalFilename spec-00000.mgf

>collision 10
45.253231 140.0
46.694462 164.0
48.331085 308.0
48.604053 172.0
48.961315 144.0
50.850941 204.0
51.122387 224.0
51.538765 140.0
51.994141 192.0
52.994904 184.0
53.867802 148.0
54.503647 164.0
54.547737 156.0
57.667755 156.0
59.900158 160.0
63.376564 204.0
64.556084 140.0
64.756134 144.0
65.105759 200.0
72.594025 152.0
73.020287 196.0
73.490448 168.0
74.996132 164.0
77.379547 192.0
77.446091 244.0
77.86879 156.0
79.762917 168.0
80.706001 152.0
82.135536 172.0
82.585289 176.0
82.840515 140.0
83.070732 176.0
83.207153 228.0
83.241333 288.0
83.421204 192.0
85.04509 148.0
85.189934 172.0
85.41349 168.0
85.484322 140.0
87.34742 144.0
88.009018 156.0
89.03862 140.0
89.625854 176.0
91.996613 272.0
94.808708 180.0
95.875626 180.0
96.652817 160.0
98.305405 160.0
98.35672 164.0
99.534676 188.0
99.705513 180.0
100.997345 120.0
101.558304 144.0
102.80365 148.0
106.718811 140.0
107.579979 172.0
109.731346 148.0
110.864258 156.0
110.956482 180.0
110.973259 196.0
111.172531 172.0
111.336273 168.0
112.437317 156.0
112.551308 172.0
114.323441 200.0
114.898743 164.0
116.659088 144.0
116.86985 164.0
117.212212 156.0
118.062729 152.0
118.536804 172.0
120.575897 160.0
121.805069 356.0
123.252495 208.0
124.864105 156.0
124.901917 200.0
124.93306 168.0
125.016251 14484.0
125.083313 196.0
126.018311 1208.0
126.211014 220.0
126.86924 164.0
126.990326 148.0
127.013115 3892.0
127.970085 140.0
128.021454 168.0
130.943359 152.0
133.324951 180.0
134.511108 152.0
136.46405 156.0
136.664078 176.0
137.155457 200.0
137.988846 164.0
138.330399 180.0
138.848206 148.0
140.306046 184.0
141.011826 144.0
141.182053 176.0
144.084305 172.0
147.054688 184.0
150.572693 188.0
150.675293 188.0
150.804794 144.0
151.054199 156.0
151.727646 164.0
151.958176 140.0
153.143036 140.0
154.7556 180.0
154.978561 176.0
155.060287 152.0
155.298294 148.0
156.081512 104.0
157.092865 152.0
158.058578 140.0
159.825043 200.0
160.026398 212.0
160.114532 220.0
160.822998 196.0
161.028275 196.0
161.67218 180.0
162.0383 1888.0
163.040451 428.0
164.039337 192.0
164.161728 168.0
164.917404 176.0
165.047333 324.0
166.09523 168.0
168.076782 320.0
168.130356 148.0
168.313644 156.0
169.089249 760.0
170.098145 156.0
170.125961 168.0
171.10585 300.0
172.113052 1152.0
173.110733 468.0
174.036713 456.0
174.123611 180.0
174.155121 140.0
175.04039 212.0
178.438751 180.0
178.582336 164.0
179.965393 140.0
181.511963 164.0
182.750198 140.0
183.189026 160.0
183.60141 176.0
184.046646 200.0
184.395126 192.0
184.451889 144.0
184.573547 148.0
184.673599 188.0
185.099594 136.0
185.987701 148.0
186.870895 156.0
188.051422 380.0
188.10939 148.0
189.062592 556.0
189.341263 192.0
189.524796 148.0
190.068741 200.0
191.078796 168.0
192.697159 164.0
193.197556 196.0
193.813416 144.0
194.610992 172.0
195.088837 180.0
195.122208 172.0
196.107605 156.0
196.129913 140.0
197.119904 180.0
198.087585 148.0
198.125107 140.0
198.155914 196.0
198.758728 160.0
198.907471 176.0
198.980469 172.0
201.059387 376.0
202.068909 1928.0
203.075119 1804.0
203.120377 172.0
203.318985 172.0
203.919373 168.0
204.012314 300.0
204.051392 104.0
204.084869 57684.0
204.245193 196.0
204.272583 132.0
204.337921 108.0
204.399017 124.0
205.086853 6872.0
205.193481 180.0
205.24968 152.0
205.434845 104.0
206.081604 1744.0
206.35321 116.0
206.423218 104.0
206.565842 136.0
206.622162 128.0
207.094421 192.0
207.184341 168.0
209.391434 140.0
210.129013 164.0
210.657669 176.0
211.136719 2328.0
211.348633 180.0
211.759705 212.0
212.089996 212.0
212.140808 784.0
212.513397 168.0
213.150009 464.0
214.159729 132.0
216.084808 1092.0
216.301941 188.0
216.325363 156.0
217.088837 308.0
217.242569 156.0
218.038284 164.0
218.096771 368.0
218.60585 176.0
219.1064 156.0
219.465958 152.0
220.076538 324.0
220.106247 184.0
222.189911 160.0
223.184875 208.0
224.143311 180.0
224.677002 208.0
224.95752 204.0
225.378616 140.0
226.129898 304.0
226.156143 148.0
226.398651 140.0
226.752167 196.0
227.129944 140.0
228.139206 144.0
229.309799 140.0
230.061539 656.0
230.098648 260.0
230.52298 140.0
231.070877 588.0
231.104492 232.0
231.310104 156.0
231.481888 168.0
231.64241 228.0
232.069443 144.0
232.357849 148.0
232.676514 160.0
232.834396 196.0
232.916412 168.0
235.062759 200.0
239.136032 116.0
240.155502 208.0
241.696976 164.0
241.966248 200.0
243.125519 156.0
243.544647 148.0
244.082138 424.0
244.116348 2136.0
244.309326 172.0
244.664093 156.0
245.086655 148.0
245.122421 4172.0
246.128464 796.0
247.121902 280.0
247.561615 212.0
248.071167 956.0
248.128754 148.0
248.166367 156.0
249.081238 1988.0
250.081589 380.0
250.821625 128.0
251.074066 148.0
252.073074 156.0
252.322281 192.0
253.065292 132.0
253.144928 216.0
254.071579 1504.0
254.152924 152.0
255.076111 468.0
255.39505 228.0
255.74823 160.0
256.072968 292.0
256.127136 304.0
256.32785 316.0
257.074097 272.0
257.142975 132.0
257.495422 172.0
258.090607 740.0
258.14801 612.0
258.310455 148.0
259.017883 148.0
259.091644 176.0
259.156525 412.0
259.857788 192.0
260.111298 208.0
260.149811 772.0
260.678162 144.0
261.084839 144.0
261.149872 660.0
261.190948 148.0
261.728394 272.0
262.094513 144.0
262.15329 556.0
263.092194 200.0
263.250397 164.0
263.305298 208.0
268.094421 128.0
270.099182 200.0
271.74939 152.0
272.030121 276.0
272.111389 2832.0
272.565125 108.0
272.925262 160.0
273.020599 152.0
273.044525 540.0
273.117859 6240.0
273.201508 200.0
273.652374 160.0
273.711639 204.0
274.120789 1168.0
274.941223 144.0
275.03363 180.0
275.122101 344.0
275.343994 168.0
275.832977 180.0
275.859436 148.0
276.102112 440.0
277.100464 160.0
279.733948 268.0
280.08902 240.0
282.072296 148.0
282.102905 152.0
283.080902 152.0
284.047913 200.0
284.108154 276.0
284.138489 160.0
286.045593 5096.0
286.125122 588.0
286.575989 220.0
287.048157 900.0
287.13031 180.0
288.040771 2024.0
288.128876 424.0
288.898743 148.0
289.045685 532.0
289.118652 140.0
290.035034 168.0
290.073792 140.0
290.121185 10744.0
290.331451 184.0
290.738556 272.0
290.913422 108.0
290.976166 144.0
291.059937 148.0
291.129181 24620.0
291.235474 152.0
291.731934 120.0
292.132202 4524.0
293.018555 120.0
293.126404 1272.0
293.204498 112.0
294.034637 100.0
294.104736 600.0
294.169403 204.0
294.393738 116.0
294.93277 100.0
295.111633 760.0
295.248169 108.0
295.514191 224.0
296.11969 6912.0
296.344452 160.0
296.940918 164.0
297.12326 1884.0
297.211914 208.0
297.31485 172.0
297.498779 96.0
297.644409 156.0
298.049591 120.0
298.116821 1876.0
298.754517 156.0
299.120209 676.0
300.061401 128.0
300.922241 148.0
304.128143 216.0
304.773743 140.0
305.010071 140.0
305.138672 144.0
308.579803 164.0
308.800079 160.0
309.689087 180.0
310.103516 112.0
310.145782 140.0
311.140808 176.0
312.099609 156.0
312.109406 140.0
313.081604 104.0
313.832275 144.0
314.077637 444.0
314.41925 160.0
315.075806 180.0
316.076111 152.0
318.787872 188.0
319.2901 256.0
320.73819 140.0
322.098633 132.0
322.131256 400.0
323.105988 172.0
324.125122 140.0
324.570618 184.0
324.864716 160.0
325.075378 136.0
325.137421 144.0
325.3815 160.0
325.424561 160.0
325.851959 252.0
326.071259 288.0
327.081421 140.0
328.092499 10360.0
328.934601 152.0
329.094269 2612.0
329.163971 116.0
329.512299 148.0
329.942474 156.0
330.089355 2964.0
331.094543 1048.0
331.23703 108.0
332.08252 160.0
332.928101 152.0
334.793701 160.0
335.13974 268.0
335.606262 156.0
336.144104 176.0
337.160248 920.0
338.161072 228.0
338.778564 156.0
339.161804 296.0
339.739014 160.0
340.162567 152.0
341.118408 404.0
341.152435 168.0
341.266815 164.0
342.116272 152.0
344.052063 144.0
346.18335 552.0
346.44104 176.0
347.191772 6600.0
347.279724 200.0
348.133301 172.0
348.192657 1200.0
349.189789 480.0
349.980408 172.0
350.129089 440.0
350.191132 204.0
351.13559 152.0
352.134094 492.0
354.151764 164.0
354.541412 172.0
354.61261 140.0
354.961243 160.0
355.11557 152.0
355.974396 168.0
356.088226 1048.0
356.462738 188.0
356.962677 156.0
357.109711 304.0
358.081116 464.0
360.158569 144.0
363.440765 160.0
365.089355 140.0
365.149353 340.0
366.163818 120.0
367.153534 172.0
368.138123 300.0
368.17627 152.0
369.143005 412.0
369.315094 156.0
369.968872 136.0
370.139252 1620.0
370.694733 132.0
371.141266 348.0
372.13559 676.0
372.289124 220.0
372.596405 176.0
372.892273 140.0
373.087128 180.0
373.136536 180.0
373.987427 232.0
374.097534 7112.0
374.169342 140.0
375.099976 1472.0
375.46402 148.0
375.564301 168.0
376.094147 2440.0
377.10025 648.0
378.052368 184.0
378.091492 108.0
380.123291 152.0
381.164154 160.0
382.158142 528.0
383.164368 4932.0
383.633728 140.0
384.164459 1784.0
385.160309 2132.0
385.288361 140.0
386.16275 352.0
387.526215 144.0
388.184723 204.0
388.858246 124.0
391.907104 180.0
394.108734 168.0
397.402924 152.0
397.62912 188.0
398.133423 7780.0
398.236572 164.0
398.345123 120.0
398.806183 132.0
398.856415 164.0
399.135986 2508.0
399.50058 152.0
400.131653 3300.0
401.134308 648.0
402.120758 232.0
402.661438 240.0
403.696472 144.0
405.251923 112.0
408.867523 180.0
411.12027 144.0
412.691589 200.0
413.267059 112.0
413.341766 96.0
414.129547 2304.0
414.30835 116.0
414.410431 176.0
414.703369 116.0
415.029449 324.0
415.133759 1560.0
415.246796 168.0
415.28772 132.0
415.475464 124.0
415.517975 136.0
415.600555 132.0
415.675262 136.0
415.734375 236.0
415.802612 148.0
415.862823 236.0
415.922546 180.0
415.954712 164.0
415.981476 396.0
416.01712 296.0
416.068512 304.0
416.146576 128180.0
416.298584 188.0
416.343323 128.0
416.415802 168.0
416.707367 108.0
416.752502 316.0
416.814209 352.0
416.876282 124.0
417.041687 144.0
417.148682 39280.0
417.231415 332.0
417.347351 128.0
417.524414 112.0
417.731781 180.0
417.809113 172.0
417.856873 136.0
417.90686 120.0
417.98526 164.0
418.142609 52492.0
418.245392 340.0
418.319489 168.0
418.406525 132.0
418.59436 152.0
418.744293 100.0
418.777832 120.0
418.945068 144.0
418.983368 112.0
419.144714 9768.0
419.254272 212.0
419.381165 160.0
419.4487 224.0
419.5625 108.0
419.689209 240.0
419.753845 156.0
419.804077 156.0
419.842255 124.0
420.013794 172.0
420.143951 1516.0
420.4328 152.0
420.566193 244.0
421.000946 120.0
421.426178 120.0
421.616913 112.0
421.701843 140.0
421.787262 144.0
422.042023 200.0
426.668976 128.0
429.154785 152.0
429.96344 108.0
430.159485 956.0
431.167542 336.0
432.158539 332.0
433.163483 172.0
433.210846 100.0
437.053497 148.0
445.305573 148.0
452.690002 240.0
466.41095 156.0
469.299591 160.0
469.459106 156.0
470.241791 124.0
470.425568 152.0
471.208099 160.0
471.331421 1276.0
471.602386 144.0
471.678284 152.0
471.851196 284.0
471.973419 252.0
472.071716 168.0
472.132751 104.0
472.207397 19160.0
473.20993 7660.0
473.352448 136.0
473.559479 200.0
473.80127 120.0
474.119476 372.0
474.205536 8156.0
474.322174 204.0
474.355927 144.0
474.528625 112.0
474.79538 140.0
474.893402 172.0
475.205048 1992.0
475.326813 244.0
475.401825 112.0
475.648499 112.0
476.207855 260.0
476.816956 136.0
477.756897 96.0
603.82782 160.0
624.70752 188.0
742.729675 112.0
925.604126 132.0
1244.734863 196.0
1387.005127 184.0
1441.544434 192.0
1493.056763 160.0
1536.699097 148.0
1578.098877 148.0
1672.731812 168.0
1682.719604 160.0
1709.11145 160.0
1750.108154 164.0
1750.599365 164.0
1771.01062 140.0
1850.018677 200.0
1871.938354 192.0
1872.644531 144.0
1925.271362 172.0
1950.917603 160.0
1987.667969 168.0
1991.662964 204.0
1992.853394 144.0
