>compound MLS001158174-01!
>formula C29H26N2O6
>ionization [M+H]+
>parentmass 499.186188
#inchi InChI=1S/C29H26N2O6/c1-35-21-7-5-19(6-8-21)24-13-29(34)37-26-12-22(9-10-23(24)26)36-17-28(33)30-14-18-11-20(16-30)25-3-2-4-27(32)31(25)15-18/h2-10,12-13,18,20H,11,14-17H2,1H3/t18-,20+/m1/s1
#inchikey KBEVVDQAUSFLFC
#Ion_Source LC-ESI
#Instrument qTof
#Compound_Source NIH Natural Product Library
#PI Dorrestein
#Data_Collector VVP/LMS
#Scan -1
#Precursor_MZ 499.187
#ExactMass 498.179
#Charge 1
#CAS_Number N/A
#Pubmed_ID N/A
#Smiles COc1ccc(cc1)c2cc(=O)oc3cc(OCC(=O)N4C[C@H]5C[C@@H](C4)c6cccc(=O)n6C5)ccc23
#INCHI_AUX N/A
#Library_Class 1
#SpectrumID CCMSLIB00000079690
#IonMode Positive
#UpdateWorkflowName UPDATE-SINGLE-ANNOTATED-GOLD
#LibraryQualityString Gold
#TaskID b1d8e8f6646f4e71acdff9ca3d919d08
##Scan# 1972
#SpectrumFile p1-H09_GH9_01_17965.mzXML
#LibraryName NIH_Natural_Products_Library.mgf
#MQScore -1
#Organism NIH_Natural_Products_Library
#TIC_Query 0
#RT_Query -1
#MZErrorPPM -1
#SharedPeaks 0
#MassDiff 0
#LibMZ -1
#SpecMZ 499.187
#SpecCharge 0
#internalFilename spec-00000.mgf

>collision 10
95.058907 44.0
95.07637 144.0
95.323006 200.0
95.418243 224.0
95.462967 180.0
95.507698 148.0
95.591354 140.0
95.671158 168.0
95.745148 208.0
95.766624 164.0
95.901016 116.0
95.978996 180.0
96.012146 196.0
96.082367 356.0
96.152611 168.0
96.269753 244.0
96.314667 128.0
96.328995 168.0
96.373276 220.0
96.422134 148.0
96.504234 120.0
96.770332 164.0
96.811447 176.0
96.876083 232.0
96.960342 108.0
96.996811 168.0
97.138771 36.0
97.219215 160.0
97.276131 148.0
97.2938 44.0
97.479233 180.0
97.546349 160.0
97.737991 132.0
97.765541 292.0
97.793091 144.0
97.851753 100.0
97.88562 172.0
97.988045 156.0
98.035339 180.0
98.131927 168.0
98.238426 112.0
98.277878 124.0
98.356819 184.0
98.400681 184.0
98.427208 184.0
98.633362 180.0
98.737434 176.0
98.759911 76.0
98.783646 192.0
99.007309 184.0
99.029091 212.0
99.130135 112.0
99.147972 232.0
99.25898 56.0
99.302612 168.0
99.334351 140.0
99.358154 136.0
99.381966 136.0
99.483177 36.0
99.566574 128.0
99.582466 160.0
99.811005 188.0
99.97213 168.0
100.029854 148.0
100.047768 116.0
100.077637 320.0
100.238976 188.0
100.322685 216.0
100.422394 72.0
100.486229 184.0
100.55407 168.0
100.603973 112.0
100.911644 48.0
100.955635 116.0
100.983635 116.0
101.011635 140.0
101.117683 152.0
101.224564 176.0
101.26384 180.0
101.295891 28.0
101.37603 124.0
101.494301 100.0
101.574524 136.0
101.791283 172.0
101.829437 204.0
101.88166 220.0
101.96003 48.0
102.03038 100.0
102.068581 124.0
102.169144 144.0
102.20536 196.0
102.251648 96.0
102.273788 176.0
102.348274 172.0
102.368416 128.0
102.556213 184.0
102.717087 132.0
102.733223 136.0
102.753403 220.0
102.779633 140.0
102.898712 176.0
103.03244 132.0
103.054283 168.0
103.249077 176.0
103.319092 120.0
103.462776 164.0
103.486015 92.0
103.535675 32.0
103.564896 144.0
103.709717 208.0
103.817368 96.0
103.872208 204.0
103.906616 132.0
104.026352 200.0
104.050735 392.0
104.349373 92.0
104.371742 144.0
104.394806 140.0
104.538544 124.0
104.664749 168.0
104.776772 148.0
104.82975 152.0
104.874588 148.0
104.899048 148.0
104.931664 60.0
104.960213 204.0
105.029549 180.0
105.055161 388.0
105.105034 128.0
105.12748 76.0
105.211166 184.0
105.229546 176.0
105.552376 40.0
105.581009 200.0
105.642372 140.0
105.728195 144.0
105.819656 220.0
105.986328 164.0
106.01297 112.0
106.064781 156.0
106.06929 200.0
106.103157 80.0
106.189278 112.0
106.316483 120.0
106.553452 140.0
106.645088 104.0
106.667969 184.0
106.708855 196.0
106.786957 212.0
106.805473 132.0
106.879532 104.0
106.949501 156.0
106.972145 100.0
107.023613 180.0
107.051964 224.0
107.097755 188.0
107.138954 164.0
107.167801 136.0
107.209007 36.0
107.258476 348.0
107.281151 180.0
107.34713 188.0
107.404877 80.0
107.421379 172.0
107.464706 188.0
107.508034 224.0
107.561699 132.0
107.588539 164.0
107.613312 164.0
107.65461 196.0
107.706245 116.0
107.871552 204.0
107.968735 132.0
108.016304 136.0
108.045265 168.0
108.080223 384.0
108.140457 148.0
108.200485 144.0
108.219116 260.0
108.252251 164.0
108.293671 160.0
108.345695 172.0
108.402412 172.0
108.440773 104.0
108.455284 164.0
108.492599 164.0
108.769562 148.0
108.847389 140.0
109.013573 204.0
109.051666 1464.0
109.082161 32.0
109.248528 164.0
109.290138 192.0
109.360893 80.0
109.381706 148.0
109.402527 56.0
109.535797 112.0
109.643562 172.0
109.712929 144.0
109.737953 184.0
109.800507 180.0
109.902725 200.0
110.008583 200.0
110.04155 188.0
110.058212 612.0
110.144897 140.0
110.176231 164.0
110.231934 176.0
110.355972 140.0
110.441711 124.0
110.506569 172.0
110.550507 168.0
110.573532 76.0
110.726364 136.0
110.743118 96.0
110.894478 168.0
110.994606 188.0
111.067764 1020.0
111.118355 48.0
111.19191 224.0
111.282059 164.0
111.300957 44.0
111.315659 136.0
111.37236 148.0
111.437485 160.0
111.475311 48.0
111.496323 68.0
111.519447 156.0
111.534157 116.0
111.645592 112.0
111.660309 48.0
111.731834 208.0
111.752869 192.0
111.852509 208.0
111.885468 40.0
111.910728 236.0
111.946526 76.0
111.986542 156.0
112.04763 148.0
112.353325 176.0
112.403961 232.0
112.439934 176.0
112.515083 124.0
112.596069 80.0
112.695351 208.0
112.720711 152.0
112.737617 148.0
112.754524 36.0
112.796799 184.0
112.949043 88.0
112.977234 160.0
113.023087 172.0
113.162788 136.0
113.192429 260.0
113.207253 128.0
113.228432 36.0
113.341866 212.0
113.395805 172.0
113.455162 96.0
113.603607 56.0
113.663017 184.0
113.694847 76.0
113.724556 132.0
113.775505 180.0
113.8116 204.0
113.843452 184.0
113.858315 44.0
113.9879 108.0
114.199623 204.0
114.332413 152.0
114.409035 260.0
114.435143 152.0
114.675301 160.0
114.771233 232.0
114.816902 208.0
114.835213 148.0
115.02298 168.0
115.054199 280.0
115.153229 228.0
115.289963 136.0
115.315605 180.0
115.655693 220.0
115.805573 160.0
115.835556 92.0
115.985558 180.0
116.058167 232.0
116.182846 244.0
116.255798 184.0
116.272964 172.0
116.322334 184.0
116.388885 152.0
116.416801 140.0
116.517754 116.0
116.702591 188.0
116.816582 200.0
116.898338 176.0
117.055832 904.0
117.117935 60.0
117.329117 164.0
117.417229 172.0
117.668388 204.0
117.747734 220.0
117.762856 140.0
117.89032 92.0
118.062996 628.0
118.3554 160.0
118.383553 140.0
118.459358 92.0
118.602707 156.0
118.767166 180.0
118.782356 176.0
118.916878 200.0
118.938583 144.0
119.044968 224.0
119.071228 212.0
119.11602 180.0
119.175301 192.0
119.564552 120.0
119.579781 68.0
119.616783 212.0
119.646889 116.0
119.749611 188.0
119.801888 144.0
119.895584 100.0
120.081245 176.0
120.229256 104.0
120.286003 100.0
120.344948 204.0
120.364601 168.0
120.414825 172.0
120.430115 84.0
120.456329 180.0
120.550278 36.0
120.753593 168.0
120.882668 192.0
120.902367 180.0
120.939568 148.0
121.041237 308.0
121.167313 176.0
121.233047 112.0
121.344841 92.0
121.360184 236.0
121.419395 128.0
121.502747 180.0
121.520302 108.0
121.548828 136.0
121.572968 180.0
121.608078 40.0
121.748589 288.0
121.796913 104.0
121.965767 132.0
122.015594 72.0
122.060593 1876.0
122.084831 164.0
122.210213 148.0
122.260201 204.0
122.342262 116.0
122.362076 176.0
122.531036 84.0
122.551491 276.0
122.754288 208.0
122.827065 116.0
122.89325 176.0
122.97049 40.0
123.067108 1900.0
123.13166 188.0
123.228859 144.0
123.288521 84.0
123.533943 200.0
123.589256 148.0
123.611603 204.0
123.744194 100.0
123.928024 44.0
123.963478 192.0
124.055473 308.0
124.071579 500.0
124.100906 60.0
124.143044 40.0
124.276176 212.0
124.342705 136.0
124.375999 184.0
124.395973 160.0
124.509773 224.0
124.566963 156.0
124.655838 140.0
124.680283 128.0
124.762527 44.0
124.856331 192.0
124.884827 84.0
124.902618 140.0
124.920418 124.0
125.002739 168.0
125.076187 144.0
125.136292 144.0
125.194183 148.0
125.209778 208.0
125.307785 236.0
125.334526 128.0
125.439278 168.0
125.800659 144.0
125.881035 240.0
125.918999 216.0
125.943573 156.0
126.068687 228.0
126.325813 200.0
126.417549 172.0
126.595993 168.0
126.883446 176.0
126.926041 68.0
126.955193 208.0
127.060623 104.0
127.170578 60.0
127.518707 220.0
127.570412 148.0
127.901085 196.0
127.925842 32.0
128.013657 68.0
128.04744 160.0
128.065445 120.0
128.102402 164.0
128.250214 148.0
128.396759 172.0
128.417068 188.0
128.498276 168.0
128.624649 84.0
128.65213 204.0
128.854996 220.0
129.051636 124.0
129.071976 128.0
129.232574 152.0
129.338943 40.0
129.354782 108.0
129.393265 144.0
129.415909 44.0
129.542618 148.0
129.619766 144.0
129.653763 56.0
129.678696 92.0
129.710434 204.0
129.787506 48.0
129.919052 180.0
129.950821 212.0
130.064041 1052.0
130.084717 180.0
130.213821 172.0
130.298187 160.0
130.331757 268.0
130.37999 160.0
130.532303 248.0
130.580063 208.0
130.6017 200.0
130.6483 52.0
130.671051 108.0
130.800766 164.0
130.837189 140.0
130.882736 164.0
131.050537 160.0
131.070633 328.0
131.108246 176.0
131.181183 60.0
131.222229 200.0
131.390991 184.0
131.420654 68.0
131.486832 164.0
131.570251 184.0
131.725143 152.0
131.790543 112.0
131.86824 152.0
131.936829 212.0
132.043808 1488.0
132.078842 2216.0
132.154099 140.0
132.211304 152.0
132.255768 216.0
132.277313 172.0
132.321182 228.0
132.355209 88.0
132.40271 252.0
132.457504 136.0
132.508987 156.0
132.53418 144.0
132.586899 128.0
132.612106 80.0
132.719849 116.0
132.756912 148.0
132.903351 148.0
132.992844 80.0
133.051392 3188.0
133.081024 88.0
133.246033 184.0
133.279922 180.0
133.302887 48.0
133.369537 44.0
133.413223 136.0
133.482193 156.0
133.544296 72.0
133.578796 148.0
133.797409 96.0
133.90564 176.0
133.944794 204.0
133.978226 164.0
134.031448 184.0
134.05925 6176.0
134.093689 372.0
134.146011 112.0
134.172806 184.0
134.1987 236.0
134.221359 112.0
134.284348 128.0
134.341293 28.0
134.359741 128.0
134.410507 156.0
134.458511 100.0
134.472687 148.0
134.546249 156.0
134.562851 144.0
134.66806 400.0
134.746628 112.0
134.791519 220.0
134.830795 32.0
134.870087 124.0
134.903473 128.0
134.990311 224.0
135.0065 144.0
135.063873 684.0
135.138351 44.0
135.173065 156.0
135.272583 140.0
135.302383 160.0
135.430038 136.0
135.555145 116.0
135.606125 164.0
135.64418 144.0
135.694473 180.0
135.75914 144.0
135.840317 188.0
135.996704 112.0
136.015945 140.0
136.046295 376.0
136.07547 444.0
136.116516 124.0
136.149017 96.0
136.283752 160.0
136.302338 128.0
136.383682 272.0
136.592957 112.0
136.772125 124.0
136.788422 220.0
136.9095 84.0
136.991013 120.0
137.060913 80.0
137.107529 32.0
137.133163 168.0
137.231064 92.0
137.313797 160.0
137.436325 136.0
137.452652 124.0
137.536667 252.0
137.560013 100.0
137.737488 144.0
137.861313 200.0
137.936111 128.0
137.98053 200.0
138.085754 124.0
138.308029 108.0
138.34314 248.0
138.514084 108.0
138.549225 128.0
138.687485 88.0
138.886795 144.0
139.095627 196.0
139.258209 216.0
139.283478 148.0
139.375107 128.0
139.647812 180.0
139.784821 168.0
139.828964 164.0
139.927841 164.0
140.215225 192.0
140.24115 176.0
140.296051 136.0
140.361801 180.0
140.529739 196.0
140.62149 184.0
140.801788 160.0
140.878265 192.0
140.899521 320.0
141.001129 188.0
141.046783 140.0
141.077469 136.0
141.232834 220.0
141.460007 304.0
141.77739 64.0
141.945694 180.0
141.993134 156.0
142.064438 548.0
142.220901 172.0
142.346725 196.0
142.40239 328.0
142.436981 212.0
142.836334 52.0
142.864868 164.0
142.94101 136.0
143.029068 204.0
143.068115 596.0
143.100494 180.0
143.171921 108.0
143.252914 116.0
143.312469 160.0
143.348206 124.0
143.37204 148.0
143.391113 132.0
143.422089 156.0
143.608078 72.0
143.753601 184.0
143.849075 104.0
143.879425 184.0
143.97084 160.0
144.046722 548.0
144.081223 404.0
144.13089 124.0
144.166733 48.0
144.259949 204.0
144.554138 180.0
144.683395 132.0
144.704132 260.0
144.736069 208.0
145.021149 172.0
145.047897 476.0
145.082779 568.0
145.215363 172.0
145.244141 200.0
145.393829 184.0
145.433701 168.0
145.503311 120.0
145.575348 204.0
145.753998 108.0
145.796356 164.0
145.880493 196.0
145.928574 248.0
145.946426 188.0
145.979065 80.0
146.032288 360.0
146.059662 30236.0
146.157074 116.0
146.187927 88.0
146.210007 180.0
146.228806 152.0
146.24852 124.0
146.283615 124.0
146.318329 44.0
146.346268 180.0
146.438736 68.0
146.455597 112.0
146.477722 172.0
146.518234 152.0
146.546921 44.0
146.57605 80.0
146.619431 176.0
146.674866 104.0
146.71344 64.0
146.732727 168.0
146.826767 116.0
146.873795 40.0
146.896713 228.0
146.935318 92.0
146.959442 88.0
146.981613 64.0
147.065964 19372.0
147.147903 48.0
147.171844 140.0
147.212448 128.0
147.257217 80.0
147.276077 112.0
147.304672 28.0
147.350327 76.0
147.358963 68.0
147.425476 256.0
147.452499 132.0
147.543915 216.0
147.571671 100.0
147.645477 56.0
147.744293 164.0
147.860794 80.0
147.931107 136.0
147.959091 96.0
147.97467 100.0
148.01088 168.0
148.074234 8740.0
148.129562 152.0
148.16333 64.0
148.18573 64.0
148.226471 88.0
148.25705 84.0
148.274933 208.0
148.291901 92.0
148.400986 60.0
148.5271 48.0
148.555588 152.0
148.624146 52.0
148.643555 112.0
148.662964 44.0
148.74791 28.0
148.813461 140.0
148.886307 208.0
148.968887 56.0
148.992844 144.0
149.028732 196.0
149.072876 2008.0
149.167252 196.0
149.221649 96.0
149.258118 240.0
149.326202 40.0
149.378006 68.0
149.4673 60.0
149.523285 144.0
149.588989 168.0
149.662781 156.0
149.745361 116.0
149.769196 44.0
149.881256 28.0
150.015305 72.0
150.049438 160.0
150.07756 300.0
150.210388 152.0
150.364105 160.0
150.495926 144.0
150.586288 52.0
150.886841 180.0
150.960205 84.0
151.02623 120.0
151.06076 180.0
151.212189 84.0
151.334579 204.0
151.444778 60.0
151.481522 52.0
151.555023 128.0
151.667084 144.0
151.702072 208.0
151.893341 52.0
151.91452 216.0
152.066895 360.0
152.11174 92.0
152.131378 180.0
152.271347 140.0
152.43103 164.0
152.45752 148.0
152.600632 72.0
152.711288 148.0
152.881042 144.0
153.013962 92.0
153.065887 180.0
153.117386 92.0
153.164185 148.0
153.22084 224.0
153.257797 168.0
153.319412 156.0
153.390884 200.0
153.485458 144.0
153.595551 68.0
153.691772 160.0
153.738647 36.0
153.887604 248.0
153.995407 176.0
154.070694 496.0
154.158463 52.0
154.267227 216.0
154.291351 248.0
154.373535 120.0
154.623413 116.0
154.707565 148.0
154.732315 188.0
154.784317 148.0
154.895767 76.0
155.007263 160.0
155.049393 184.0
155.086563 144.0
155.123749 104.0
155.146057 164.0
155.213852 140.0
155.260117 164.0
155.310989 204.0
155.545441 72.0
155.617447 128.0
155.791504 92.0
155.853409 112.0
155.910553 156.0
155.982635 76.0
156.079376 176.0
156.121872 84.0
156.139282 212.0
156.166641 100.0
156.460266 164.0
156.492645 176.0
157.04451 280.0
157.077911 356.0
157.280411 124.0
157.437714 152.0
157.465179 52.0
157.490158 152.0
157.585083 88.0
157.702545 164.0
157.730042 160.0
157.795029 168.0
157.870041 232.0
157.911392 136.0
157.930069 136.0
158.030136 140.0
158.05954 1768.0
158.123352 192.0
158.235367 172.0
158.287949 112.0
158.448257 212.0
158.528229 148.0
158.658768 48.0
158.690979 156.0
158.830429 176.0
158.949219 220.0
159.067795 2940.0
159.163086 144.0
159.200745 252.0
159.22084 228.0
159.253006 184.0
159.289093 92.0
159.32132 160.0
159.386642 100.0
159.432755 216.0
159.514816 152.0
159.544983 64.0
159.599335 32.0
159.733582 152.0
159.773834 136.0
159.816605 180.0
159.882034 76.0
159.967682 140.0
159.990662 188.0
160.075104 18740.0
160.146393 184.0
160.239609 44.0
160.312668 68.0
160.344833 84.0
160.423569 36.0
160.511826 64.0
160.559738 88.0
160.595047 68.0
160.612701 124.0
160.703522 204.0
160.753983 64.0
160.852417 52.0
160.878647 112.0
160.925629 128.0
160.960983 168.0
161.021591 68.0
161.078903 3436.0
161.116333 228.0
161.155472 340.0
161.236343 52.0
161.330948 176.0
161.36525 48.0
161.398911 64.0
161.453751 128.0
161.486633 116.0
161.508179 140.0
161.58223 76.0
161.655457 176.0
161.678925 204.0
161.759918 152.0
161.89917 168.0
161.951019 76.0
161.977386 104.0
162.052612 152.0
162.088486 1548.0
162.144821 104.0
162.167725 216.0
162.203217 124.0
162.26152 116.0
162.289398 140.0
162.327438 84.0
162.428894 180.0
162.515152 40.0
162.578583 80.0
162.659805 40.0
162.743576 44.0
162.789291 100.0
163.000137 72.0
163.033173 60.0
163.094604 884.0
163.180603 44.0
163.244934 92.0
163.331833 136.0
163.397903 136.0
163.424774 148.0
163.460388 132.0
163.531036 152.0
163.567291 208.0
163.592743 144.0
163.741013 156.0
163.827026 168.0
163.956223 204.0
163.992661 176.0
164.104355 344.0
164.186356 144.0
164.229782 104.0
164.296112 176.0
164.479843 108.0
164.528351 192.0
164.597275 304.0
164.615158 116.0
164.983093 64.0
165.021439 148.0
165.066299 176.0
165.167206 84.0
165.190231 120.0
165.269531 156.0
165.402618 108.0
165.538315 228.0
165.635635 160.0
165.679184 164.0
165.802628 132.0
165.842407 132.0
166.035477 164.0
166.075653 504.0
166.153473 184.0
166.202225 64.0
166.262924 176.0
166.705521 84.0
166.849457 88.0
166.929169 92.0
167.077042 164.0
167.101501 168.0
167.152969 108.0
167.286804 100.0
167.374329 196.0
167.508255 176.0
167.6577 128.0
167.781418 164.0
167.83815 56.0
167.887146 164.0
167.905197 156.0
167.967102 172.0
168.05481 168.0
168.088364 140.0
168.129654 60.0
168.250961 164.0
168.287109 236.0
168.367157 152.0
168.454971 156.0
168.526398 204.0
168.747009 180.0
168.793549 136.0
168.835785 156.0
168.864059 228.0
169.087219 140.0
169.427673 160.0
169.458771 268.0
169.668701 168.0
169.780197 140.0
169.805908 184.0
169.94902 148.0
169.987732 68.0
170.011093 148.0
170.065674 196.0
170.127884 160.0
170.161636 92.0
170.322906 204.0
170.907593 104.0
171.061142 88.0
171.090134 176.0
171.321564 140.0
171.623886 164.0
171.705048 164.0
171.741791 212.0
172.074112 3688.0
172.312943 68.0
172.469742 168.0
172.835876 164.0
172.869888 212.0
172.891815 148.0
172.947159 152.0
172.98912 120.0
173.03479 300.0
173.082581 14868.0
173.122665 172.0
173.155243 192.0
173.178818 184.0
173.267883 188.0
173.359589 72.0
173.391037 68.0
173.427734 56.0
173.498505 48.0
173.518616 40.0
173.537842 88.0
173.666336 168.0
173.68811 116.0
173.763397 76.0
173.797501 68.0
173.823242 168.0
173.881485 88.0
173.954971 56.0
173.981232 168.0
174.007004 196.0
174.049881 188.0
174.088257 3172.0
174.285889 64.0
174.36998 64.0
174.498795 64.0
174.548752 92.0
174.572418 164.0
174.614487 236.0
174.711823 32.0
174.935501 104.0
174.956573 64.0
174.996735 236.0
175.047867 1028.0
175.085297 1428.0
175.132996 160.0
175.159332 188.0
175.185684 56.0
175.359589 124.0
175.504578 36.0
175.544128 72.0
175.610062 56.0
175.768936 128.0
175.813217 120.0
175.839615 88.0
176.05307 164.0
176.127411 84.0
176.299133 60.0
176.525162 84.0
176.552933 148.0
176.640213 160.0
176.671967 72.0
176.743393 160.0
176.920731 192.0
177.041382 204.0
177.064178 156.0
177.09549 84.0
177.193512 168.0
177.238556 136.0
177.418777 120.0
177.880371 168.0
178.026398 196.0
178.071899 180.0
178.14592 128.0
178.183121 124.0
178.61644 136.0
178.785751 204.0
179.00235 228.0
179.078857 104.0
179.114517 136.0
179.194122 188.0
179.218109 40.0
179.274063 100.0
179.303375 168.0
179.364685 212.0
179.42067 168.0
179.540649 148.0
179.794098 200.0
179.940903 64.0
180.054642 568.0
180.087784 292.0
180.191971 116.0
180.560852 160.0
180.642548 88.0
180.802383 100.0
181.059601 148.0
181.120239 100.0
181.157745 160.0
181.551758 56.0
181.573563 156.0
181.656357 128.0
181.812531 176.0
181.948883 148.0
182.002579 84.0
182.071304 148.0
182.281937 116.0
182.553436 240.0
182.591095 140.0
182.631439 176.0
182.669098 100.0
182.757874 144.0
182.819763 64.0
182.993439 208.0
183.035126 164.0
183.083588 168.0
183.180557 76.0
183.199417 136.0
183.363785 96.0
183.592941 124.0
183.622528 140.0
183.695435 164.0
184.019287 420.0
184.048981 212.0
184.092194 168.0
184.140518 188.0
184.159714 72.0
184.327209 92.0
184.432602 116.0
184.451523 168.0
184.470459 152.0
184.524521 136.0
184.651611 272.0
184.684067 60.0
185.056824 200.0
185.087662 124.0
185.301285 164.0
185.453033 208.0
185.566895 40.0
185.713562 144.0
185.789352 188.0
186.006378 108.0
186.05658 180.0
186.090149 144.0
186.177429 124.0
186.215454 188.0
186.373016 124.0
186.397476 188.0
186.424652 368.0
186.446396 112.0
186.476288 120.0
186.503464 144.0
186.563278 160.0
186.745453 96.0
186.769943 132.0
186.856995 128.0
186.886917 120.0
186.938614 108.0
187.050385 180.0
187.084137 332.0
187.123718 204.0
187.253448 212.0
187.306168 108.0
187.450577 212.0
187.644089 180.0
187.663177 52.0
187.717712 92.0
187.78862 160.0
187.941391 196.0
188.028717 64.0
188.069595 3408.0
188.122681 132.0
188.206161 236.0
188.300613 68.0
188.372757 168.0
188.43013 84.0
188.48204 128.0
188.531219 160.0
188.561295 128.0
188.585892 160.0
188.635086 208.0
188.659698 112.0
188.710678 284.0
188.777267 212.0
188.799271 248.0
188.845642 128.0
188.891754 204.0
188.951538 168.0
188.96138 244.0
189.001801 292.0
189.069687 524.0
189.102066 95608.0
189.153366 260.0
189.185593 68.0
189.24437 48.0
189.255493 52.0
189.262497 96.0
189.294037 104.0
189.302841 68.0
189.341797 56.0
189.403824 144.0
189.437759 88.0
189.507721 56.0
189.530991 92.0
189.552826 476.0
189.623566 124.0
189.670837 116.0
189.709915 108.0
189.741074 132.0
189.765762 64.0
189.79538 160.0
189.83667 144.0
189.847229 156.0
189.907074 248.0
189.92627 144.0
189.959808 132.0
189.99614 36.0
190.029633 144.0
190.074051 2028.0
190.104858 14880.0
190.152542 164.0
190.198654 140.0
190.208328 112.0
190.264542 100.0
190.287781 124.0
190.338669 40.0
190.410629 88.0
190.449081 180.0
190.471054 76.0
190.49028 100.0
190.523239 112.0
190.556213 124.0
190.586441 64.0
190.619415 52.0
190.646896 48.0
190.68811 104.0
190.710876 112.0
190.762329 100.0
190.877808 84.0
190.946548 32.0
190.979553 40.0
191.079208 1236.0
191.116287 10144.0
191.197449 68.0
191.207336 56.0
191.271225 84.0
191.30426 188.0
191.331787 36.0
191.357452 84.0
191.388596 76.0
191.40831 116.0
191.435608 108.0
191.476791 140.0
191.52919 104.0
191.582397 108.0
191.621994 164.0
191.658173 104.0
191.689865 32.0
191.717422 184.0
191.749069 132.0
191.801285 104.0
191.896591 200.0
192.032959 44.0
192.08342 264.0
192.118835 1016.0
192.257935 92.0
192.324188 112.0
192.415283 60.0
192.451172 68.0
192.485916 96.0
192.534012 76.0
192.59201 108.0
192.683182 88.0
192.735672 68.0
192.763306 36.0
192.813049 88.0
192.874069 156.0
192.90979 68.0
193.025909 96.0
193.056107 332.0
193.126053 284.0
193.205307 124.0
193.227829 60.0
193.257828 128.0
193.523972 60.0
193.546127 100.0
193.72551 172.0
193.770477 48.0
193.811188 144.0
194.066025 312.0
194.201859 104.0
194.230667 80.0
194.641403 68.0
194.671951 228.0
194.838608 124.0
194.876694 136.0
194.924744 104.0
194.949753 112.0
195.002563 164.0
195.079788 4648.0
195.155457 116.0
195.183258 56.0
195.553253 72.0
195.625626 80.0
195.742569 52.0
195.879044 180.0
195.959824 184.0
196.018341 56.0
196.052017 240.0
196.083466 592.0
196.193939 76.0
196.341721 140.0
196.690491 96.0
196.941788 112.0
196.969727 36.0
197.020004 104.0
197.097702 648.0
197.179276 48.0
197.405716 160.0
197.45752 92.0
197.573547 148.0
197.612717 124.0
197.668671 44.0
197.833817 52.0
197.931808 32.0
198.061783 304.0
198.105453 152.0
198.427734 124.0
198.567947 116.0
198.68576 40.0
198.769928 152.0
198.834473 36.0
199.002899 128.0
199.073639 276.0
199.196686 56.0
199.469254 48.0
199.986816 80.0
200.045929 200.0
200.088165 156.0
200.212051 44.0
200.234589 80.0
200.257126 224.0
200.434601 72.0
200.493774 104.0
200.76442 56.0
201.066284 160.0
201.106735 144.0
201.492004 84.0
201.523743 80.0
201.585907 76.0
201.633957 108.0
201.780945 148.0
201.913849 152.0
201.953445 104.0
202.049225 168.0
202.08696 532.0
202.128845 128.0
202.281677 132.0
202.375107 84.0
202.397766 124.0
202.568985 148.0
202.580688 68.0
202.585907 120.0
202.737686 112.0
202.785873 132.0
202.890747 148.0
202.916275 44.0
202.964462 172.0
203.079712 660.0
203.11673 3432.0
203.215927 104.0
203.293518 60.0
203.338928 176.0
203.436523 72.0
203.460983 124.0
203.833069 68.0
204.083328 176.0
204.120163 848.0
204.265213 216.0
204.623795 184.0
204.780411 156.0
204.882965 68.0
205.108093 148.0
205.170807 100.0
205.350449 152.0
205.458847 80.0
205.704269 84.0
206.032684 164.0
206.069824 100.0
206.610168 96.0
206.633804 108.0
206.873459 156.0
207.075256 272.0
207.17128 144.0
207.257233 40.0
207.294495 180.0
207.804886 92.0
207.977066 120.0
208.048996 488.0
208.114868 248.0
208.146454 120.0
208.393478 168.0
208.488297 76.0
208.551529 96.0
208.611893 172.0
208.870697 136.0
209.056747 144.0
209.096603 228.0
209.757599 80.0
210.066147 328.0
210.087708 336.0
210.107788 184.0
210.507736 56.0
210.536621 44.0
211.00473 116.0
211.071259 324.0
211.725235 132.0
211.962784 140.0
212.04393 400.0
212.076096 160.0
212.14827 124.0
212.435364 80.0
212.664597 132.0
212.902679 168.0
213.088333 1196.0
213.419922 152.0
213.920334 164.0
214.097519 312.0
214.105316 524.0
214.231934 124.0
214.357208 52.0
214.444641 144.0
214.607895 104.0
214.637054 204.0
214.829544 120.0
215.030884 148.0
215.101669 184.0
215.185593 56.0
215.287796 156.0
215.395859 132.0
215.442596 116.0
215.7173 96.0
215.778687 116.0
215.983398 200.0
216.141373 172.0
216.339081 160.0
216.797333 228.0
216.82077 76.0
216.981995 108.0
217.095657 1264.0
217.181396 176.0
217.25473 84.0
217.37796 44.0
217.495361 32.0
217.633347 192.0
218.09523 228.0
218.259201 52.0
218.332718 64.0
218.365067 68.0
218.629852 80.0
218.865082 172.0
218.90657 132.0
218.931839 244.0
219.003769 68.0
219.080353 140.0
219.108047 280.0
219.504776 88.0
219.581451 156.0
219.698425 220.0
220.040222 204.0
220.248505 128.0
220.629715 160.0
220.656311 184.0
221.055511 188.0
221.088181 60.0
221.117783 176.0
221.360535 88.0
221.490845 112.0
221.644897 92.0
221.736771 116.0
221.796051 148.0
222.067734 224.0
222.101471 160.0
222.606003 88.0
222.867401 80.0
222.900085 204.0
222.941696 176.0
223.01004 148.0
223.030853 196.0
223.073288 2692.0
223.136108 216.0
223.542404 152.0
223.590012 132.0
223.667404 164.0
224.077087 712.0
224.131989 140.0
224.182648 248.0
224.322739 132.0
224.406219 172.0
224.56427 76.0
224.671646 124.0
224.867676 136.0
225.054703 264.0
225.090866 1836.0
225.200012 84.0
225.283646 200.0
226.090683 476.0
226.246597 80.0
226.378342 148.0
226.611984 32.0
226.701889 92.0
227.069214 1204.0
227.115387 52.0
227.358643 144.0
227.469696 176.0
227.556763 224.0
227.896164 108.0
228.068726 184.0
228.095123 156.0
228.157639 172.0
228.181686 136.0
228.326035 124.0
228.557663 80.0
228.967072 112.0
229.056519 160.0
229.108643 48.0
229.30751 176.0
229.334641 104.0
229.59996 100.0
229.759827 84.0
230.221649 64.0
230.487473 80.0
230.7323 156.0
230.783691 56.0
230.989349 148.0
231.074051 176.0
231.112686 3144.0
231.252594 52.0
231.319183 48.0
231.374359 72.0
231.746643 56.0
231.943192 96.0
232.024368 216.0
232.11879 3416.0
232.370789 40.0
232.416306 68.0
232.586258 60.0
233.122391 1256.0
233.272766 120.0
233.354843 132.0
233.488647 132.0
233.611893 92.0
233.735046 152.0
233.774612 128.0
233.92984 124.0
234.04248 64.0
234.127747 144.0
234.462875 28.0
234.584793 92.0
234.932434 80.0
235.073608 144.0
235.103302 184.0
235.787399 80.0
236.042374 492.0
236.083954 100.0
236.117584 152.0
236.512283 120.0
236.607178 188.0
237.054382 152.0
237.089935 324.0
237.238281 96.0
237.302658 64.0
237.667648 80.0
237.729034 116.0
238.058502 484.0
238.090454 128.0
238.115845 184.0
238.346252 88.0
238.484543 60.0
238.74588 120.0
238.899673 120.0
239.069183 1056.0
239.321304 60.0
239.385971 80.0
239.569153 144.0
239.613907 44.0
239.672455 160.0
239.752563 112.0
239.894348 76.0
240.077042 656.0
240.326126 116.0
240.483521 104.0
240.619339 104.0
241.014694 116.0
241.078873 168.0
241.181564 124.0
241.342331 148.0
241.450562 52.0
241.803253 148.0
241.908493 160.0
241.970413 156.0
242.081879 192.0
242.392288 176.0
242.807068 172.0
242.977676 72.0
243.399796 132.0
243.940384 108.0
244.086517 60.0
244.251343 108.0
244.687027 192.0
245.017151 132.0
245.11998 216.0
245.465988 124.0
245.815353 140.0
246.043213 240.0
246.614868 140.0
246.986954 192.0
247.118347 96.0
247.487686 144.0
248.36203 132.0
248.53772 112.0
248.648026 184.0
248.882996 28.0
249.059006 156.0
249.13739 148.0
249.259933 116.0
249.407639 60.0
249.769241 176.0
249.832153 32.0
249.97374 72.0
250.062759 240.0
250.12796 48.0
250.320023 180.0
250.370407 96.0
250.486938 164.0
250.789429 156.0
251.016434 140.0
251.069763 7028.0
251.120499 160.0
251.19487 76.0
251.278229 104.0
251.349304 136.0
251.407593 40.0
251.442307 36.0
251.591354 92.0
251.615555 168.0
251.720123 64.0
252.071976 752.0
252.197174 96.0
252.279358 48.0
252.304657 112.0
252.336273 64.0
252.449722 168.0
252.624054 40.0
252.755493 148.0
252.83606 88.0
252.921509 128.0
252.99852 172.0
253.036758 148.0
253.084885 5020.0
253.127426 104.0
253.228638 64.0
253.250809 212.0
253.291763 56.0
253.371185 64.0
253.486908 84.0
253.732483 68.0
253.757843 72.0
253.865662 36.0
253.979828 52.0
254.029953 80.0
254.087692 1476.0
254.192398 180.0
254.338379 80.0
254.3853 140.0
255.011749 92.0
255.091736 148.0
255.212036 180.0
255.342407 116.0
255.886551 112.0
256.071259 60.0
256.24646 192.0
256.833008 52.0
257.111633 196.0
257.161652 136.0
257.279785 228.0
258.075317 84.0
258.228821 124.0
258.276794 204.0
258.35675 64.0
258.487946 108.0
259.638 124.0
259.833679 260.0
259.997314 112.0
260.678131 132.0
260.938507 204.0
260.986725 144.0
262.074646 172.0
262.313141 56.0
262.900146 124.0
263.074463 168.0
263.587982 208.0
263.704346 156.0
264.066437 56.0
264.1026 112.0
264.134369 192.0
264.71048 164.0
265.008484 108.0
265.044098 160.0
265.081543 780.0
265.296906 196.0
266.061707 412.0
266.088501 160.0
266.816254 132.0
266.978851 56.0
267.069519 284.0
267.098419 1984.0
267.164246 64.0
267.300903 48.0
267.427826 112.0
267.453857 40.0
267.512451 52.0
267.616638 60.0
268.073364 440.0
268.10553 444.0
268.28125 64.0
268.565796 188.0
268.769135 136.0
268.901031 208.0
269.084229 1352.0
269.211182 120.0
270.008575 132.0
270.084259 348.0
270.139404 124.0
270.312836 116.0
270.843201 160.0
270.934906 132.0
271.075806 204.0
271.859558 88.0
272.542572 136.0
272.966614 164.0
273.555542 144.0
274.201141 124.0
274.385742 52.0
275.448364 148.0
275.517731 144.0
276.844116 120.0
276.893799 108.0
277.244965 72.0
277.914795 116.0
278.060822 188.0
278.110596 120.0
278.203552 76.0
278.230103 76.0
278.34964 48.0
279.05072 100.0
279.078339 156.0
279.526367 128.0
279.849243 76.0
279.989105 36.0
280.092346 216.0
280.332245 68.0
280.655579 36.0
280.772308 80.0
280.992889 180.0
281.029144 140.0
281.079987 16544.0
281.186371 36.0
281.242737 44.0
281.290466 108.0
281.399872 116.0
281.508331 80.0
281.514343 124.0
281.596466 76.0
281.73877 96.0
281.774292 44.0
281.971375 52.0
282.082916 3348.0
282.137115 140.0
282.202301 48.0
282.476074 40.0
282.584961 56.0
282.790283 64.0
282.891937 108.0
283.004517 156.0
283.048065 172.0
283.088074 412.0
283.161926 32.0
283.185364 52.0
283.413147 92.0
283.594116 88.0
283.722382 136.0
283.805328 72.0
283.926483 152.0
283.959595 108.0
284.059601 328.0
284.088379 180.0
284.140717 116.0
284.169067 72.0
284.201111 64.0
284.382324 132.0
284.439392 88.0
284.61734 200.0
285.072693 172.0
285.22879 124.0
285.672668 160.0
285.948578 88.0
287.100769 100.0
287.792542 104.0
288.049225 160.0
288.302612 72.0
288.54599 152.0
288.579803 180.0
288.606842 40.0
288.853729 116.0
289.13205 308.0
289.246277 112.0
290.062622 116.0
290.167725 88.0
290.483093 92.0
291.090637 112.0
291.219696 120.0
291.328369 84.0
291.439423 140.0
292.015015 136.0
292.181702 108.0
292.430115 164.0
292.474335 76.0
292.566254 96.0
292.729706 64.0
293.020233 120.0
293.078003 304.0
293.192993 100.0
293.503204 104.0
293.670319 120.0
294.049042 180.0
294.086578 184.0
294.759369 68.0
295.087769 132.0
295.149048 96.0
295.552673 144.0
295.665588 112.0
295.757996 64.0
296.083252 124.0
296.559509 140.0
296.676056 56.0
297.036102 76.0
297.066986 60.0
297.176758 196.0
297.777527 44.0
298.433868 100.0
298.709015 104.0
299.077179 132.0
299.101288 44.0
299.218323 124.0
299.321625 40.0
299.383606 64.0
299.562714 264.0
300.096893 100.0
300.348663 40.0
301.000946 132.0
301.166718 160.0
301.239258 76.0
301.270325 108.0
301.868286 172.0
302.470276 124.0
302.518738 132.0
302.975891 92.0
303.384827 136.0
304.113281 236.0
304.168793 104.0
304.213928 100.0
304.342377 84.0
304.561188 120.0
304.828705 84.0
306.011322 124.0
306.039185 176.0
306.070526 128.0
306.101868 72.0
306.216797 128.0
306.293427 148.0
306.885864 68.0
307.046265 172.0
308.128021 756.0
309.07016 1920.0
309.116486 480.0
309.173889 80.0
309.247375 176.0
309.608002 44.0
309.722382 220.0
309.94751 140.0
310.070251 576.0
310.110992 172.0
310.203644 164.0
310.445557 52.0
310.519226 140.0
310.70163 168.0
310.782318 80.0
310.950775 168.0
311.035004 92.0
311.074829 276.0
311.114105 148.0
311.14032 172.0
311.171906 36.0
311.632019 112.0
311.913177 40.0
311.951843 100.0
312.018616 112.0
312.073883 140.0
312.152252 120.0
312.194427 52.0
312.282349 76.0
312.366791 136.0
312.901703 116.0
313.151703 100.0
313.19046 116.0
313.422974 80.0
313.754272 80.0
313.884735 32.0
313.948212 192.0
314.004639 168.0
314.198639 92.0
314.310974 172.0
314.579803 176.0
315.109528 132.0
315.56192 116.0
316.156189 112.0
316.518127 216.0
316.552673 52.0
316.942322 184.0
317.126617 68.0
317.232941 36.0
317.392487 152.0
318.08078 192.0
318.109161 148.0
318.396759 216.0
318.503326 84.0
318.531738 156.0
319.08844 180.0
319.143005 156.0
319.231903 60.0
319.384857 76.0
320.093079 112.0
320.175171 216.0
320.253326 120.0
320.876953 108.0
320.991058 160.0
321.07663 136.0
321.180084 164.0
321.36557 124.0
322.102692 348.0
322.193878 124.0
322.32251 200.0
322.765747 120.0
323.109131 88.0
323.150757 120.0
324.12384 248.0
324.154633 140.0
324.631409 44.0
324.843018 172.0
325.125977 180.0
325.402893 84.0
325.435181 132.0
325.575226 120.0
326.430511 156.0
327.009735 184.0
327.378662 160.0
327.593079 268.0
327.744385 180.0
327.791229 68.0
328.102722 176.0
329.241425 144.0
329.743622 108.0
329.833984 108.0
329.927948 40.0
330.477692 156.0
330.817902 88.0
330.861359 164.0
332.191345 108.0
332.94632 204.0
333.058899 120.0
333.204193 128.0
333.658508 136.0
333.686279 144.0
334.040344 228.0
334.10614 896.0
334.157593 316.0
334.28775 96.0
334.316864 104.0
334.393311 160.0
335.109711 244.0
335.170471 128.0
335.322021 136.0
335.511597 68.0
336.124481 108.0
336.423615 128.0
337.022583 140.0
337.073761 112.0
337.786682 120.0
338.192841 160.0
338.90329 132.0
339.313812 56.0
339.709869 156.0
340.115387 160.0
340.344788 108.0
340.888458 80.0
340.921539 120.0
341.090607 144.0
343.015778 92.0
343.436127 40.0
344.115143 140.0
344.351501 76.0
344.395813 60.0
344.685425 132.0
345.009216 160.0
345.552887 136.0
345.782318 120.0
345.871155 156.0
346.096985 188.0
346.408081 112.0
346.574799 80.0
346.630371 124.0
346.693359 80.0
346.967651 128.0
346.997314 60.0
347.115967 68.0
347.293976 184.0
347.427521 128.0
347.494324 108.0
347.542542 72.0
347.572235 68.0
348.099335 100.0
348.264435 204.0
348.433624 136.0
348.507935 128.0
348.649139 164.0
348.730896 152.0
348.994843 228.0
349.571411 128.0
349.597473 140.0
350.319794 160.0
351.027954 120.0
351.175171 104.0
351.688293 108.0
352.181152 136.0
352.308167 156.0
352.412781 144.0
352.760345 164.0
352.928589 136.0
353.063202 112.0
353.152954 152.0
353.545807 176.0
353.961334 172.0
354.127869 136.0
354.920593 56.0
355.105438 68.0
355.396942 120.0
356.391968 28.0
356.523499 100.0
356.606171 132.0
357.234131 84.0
358.521851 48.0
358.921417 84.0
358.989288 140.0
359.211823 60.0
359.50235 236.0
359.743896 180.0
359.944 164.0
360.106049 124.0
360.667816 68.0
360.76767 192.0
360.835724 200.0
361.327393 32.0
361.40683 100.0
362.177124 180.0
362.228394 96.0
362.675507 64.0
363.14566 148.0
365.006531 88.0
365.157288 180.0
365.47821 168.0
365.77124 56.0
365.900696 92.0
366.167053 496.0
366.239594 88.0
366.639648 80.0
366.723511 92.0
366.891235 148.0
367.114655 148.0
367.164948 288.0
367.322144 112.0
367.36792 232.0
368.131287 176.0
368.184753 104.0
368.417755 120.0
368.616974 84.0
369.304596 156.0
369.384918 132.0
369.602997 112.0
369.744568 164.0
369.978058 160.0
370.728821 112.0
371.269348 64.0
371.583893 128.0
372.747314 160.0
372.793427 148.0
372.924072 60.0
373.304688 200.0
374.016449 144.0
374.054962 160.0
374.771271 176.0
375.143036 216.0
375.496002 108.0
375.600159 56.0
376.198273 120.0
376.248444 128.0
377.148529 124.0
377.29541 152.0
377.450073 104.0
377.514771 224.0
377.635712 60.0
377.678253 48.0
377.705322 112.0
378.471619 84.0
378.665253 148.0
378.827911 36.0
378.913147 148.0
379.161163 132.0
379.203796 128.0
379.261932 148.0
379.32782 48.0
379.93277 92.0
380.351898 140.0
380.390717 28.0
381.256836 124.0
381.742798 164.0
383.034943 156.0
383.132324 160.0
383.253113 108.0
383.709137 52.0
383.970398 100.0
384.178741 96.0
384.227844 204.0
384.376099 112.0
385.176453 160.0
385.356171 144.0
385.789978 176.0
386.290527 60.0
386.521362 152.0
386.748352 152.0
386.936249 200.0
386.975403 112.0
387.006714 136.0
387.472809 192.0
389.493103 132.0
389.640991 168.0
389.787781 96.0
390.07074 184.0
390.204407 208.0
390.251587 120.0
390.798309 112.0
391.050171 168.0
391.290283 116.0
391.747131 152.0
391.948059 104.0
392.149048 76.0
392.697083 68.0
393.356049 260.0
393.51001 100.0
393.624512 76.0
393.829865 172.0
394.307953 144.0
394.769043 184.0
394.806091 176.0
395.102753 120.0
396.120148 132.0
396.492584 128.0
396.750244 88.0
397.269745 108.0
397.325287 196.0
397.698303 92.0
398.476654 132.0
398.516388 88.0
399.450287 204.0
399.649567 128.0
399.717194 168.0
400.561249 144.0
401.178925 164.0
401.549744 144.0
401.836975 184.0
401.964661 120.0
402.013611 120.0
402.204102 216.0
402.731171 156.0
403.678375 144.0
403.866333 124.0
404.578613 96.0
404.654694 72.0
404.886932 120.0
405.808594 140.0
406.197601 204.0
406.879822 92.0
407.490295 188.0
407.538513 128.0
407.831879 80.0
408.089142 52.0
409.022491 152.0
409.239868 152.0
409.296265 104.0
409.368744 60.0
410.085846 108.0
410.144775 136.0
410.464813 72.0
410.5495 120.0
411.106201 88.0
411.909668 128.0
411.98642 128.0
412.200562 176.0
412.798828 120.0
413.029358 140.0
413.191193 108.0
413.458252 128.0
414.150574 136.0
414.665161 124.0
415.078644 172.0
415.141052 196.0
415.265198 84.0
415.76828 84.0
415.796692 112.0
415.829163 100.0
415.910339 124.0
416.85257 112.0
417.03952 180.0
417.409485 156.0
418.101044 176.0
418.402252 208.0
418.463318 176.0
418.723938 72.0
419.005005 216.0
419.290253 88.0
420.011932 64.0
420.101654 172.0
420.134308 148.0
420.881195 148.0
420.942444 64.0
420.991455 132.0
421.199768 64.0
421.281464 136.0
422.107056 120.0
422.139771 108.0
422.184753 124.0
422.626556 136.0
422.843445 148.0
423.16272 152.0
423.203674 120.0
424.161591 156.0
424.379608 148.0
424.486206 140.0
424.82663 108.0
425.241089 120.0
426.617126 144.0
428.157471 160.0
428.522644 56.0
428.605042 80.0
428.897644 112.0
429.157379 128.0
429.231598 120.0
429.326447 100.0
429.557404 108.0
430.056702 164.0
430.424103 208.0
430.514954 40.0
430.94455 144.0
432.325684 108.0
432.814148 124.0
433.058472 84.0
434.227264 144.0
435.601166 116.0
436.137207 104.0
436.731781 92.0
437.809753 96.0
438.184631 196.0
438.559692 96.0
439.06131 128.0
439.339478 68.0
440.132477 124.0
440.723999 84.0
441.15863 196.0
441.419495 152.0
441.469666 120.0
442.088806 124.0
442.164124 140.0
443.110504 168.0
443.634369 160.0
443.818817 184.0
445.069244 164.0
445.107025 72.0
445.476624 152.0
445.653076 40.0
446.759857 144.0
447.646881 148.0
448.367279 156.0
448.734009 148.0
448.957489 124.0
449.159943 108.0
449.328674 124.0
449.784454 112.0
449.927979 124.0
450.194 88.0
451.246124 104.0
452.015961 148.0
452.159821 176.0
453.182465 124.0
453.400726 180.0
453.884003 160.0
454.091797 204.0
454.129974 140.0
454.170807 184.0
454.442047 184.0
454.566956 124.0
454.643341 52.0
455.161224 112.0
455.207947 100.0
455.407288 204.0
455.683655 84.0
456.162354 528.0
457.137878 228.0
457.167664 104.0
457.438568 148.0
457.691254 156.0
458.189575 120.0
458.223663 160.0
458.304626 176.0
458.799011 188.0
458.931183 72.0
459.037781 132.0
459.374725 148.0
459.643524 124.0
459.848358 76.0
459.891052 240.0
459.954529 188.0
460.954468 124.0
461.223694 212.0
461.253632 152.0
461.475922 88.0
461.548615 160.0
462.027649 48.0
463.007874 124.0
463.072113 108.0
463.157776 124.0
463.273438 124.0
464.092041 180.0
464.623871 228.0
465.194641 192.0
465.727081 124.0
465.928986 144.0
466.079376 160.0
466.384491 108.0
466.926239 28.0
467.244568 116.0
467.3349 144.0
467.416656 116.0
468.006683 56.0
469.307617 96.0
469.467163 112.0
469.838104 204.0
469.980469 72.0
470.740204 48.0
471.185303 252.0
471.738251 144.0
471.850647 48.0
472.184753 136.0
472.317688 96.0
473.507965 68.0
474.166504 192.0
474.751801 148.0
474.977325 128.0
475.307037 180.0
475.95816 164.0
476.918243 172.0
477.296021 116.0
477.548706 120.0
478.179596 156.0
478.645416 120.0
478.758636 100.0
479.037384 132.0
479.494904 156.0
479.551544 148.0
480.75528 120.0
480.956024 88.0
481.175629 968.0
481.231659 148.0
481.274719 164.0
481.720184 92.0
481.899323 120.0
481.929138 96.0
482.159454 204.0
482.791046 156.0
482.944122 116.0
483.049103 212.0
483.160645 160.0
483.197845 132.0
483.469147 136.0
483.849945 116.0
484.051361 84.0
484.165222 152.0
484.410492 116.0
484.458679 100.0
484.725952 152.0
485.079407 136.0
485.335236 84.0
485.752075 88.0
485.80014 72.0
485.918579 68.0
486.164307 108.0
486.998474 92.0
487.196167 176.0
487.306 128.0
487.455383 108.0
487.53009 208.0
487.86853 244.0
488.299469 124.0
488.479797 120.0
488.686584 152.0
488.959412 120.0
489.051819 68.0
489.095856 68.0
489.214691 116.0
489.390808 108.0
490.232147 48.0
490.408447 200.0
490.620026 40.0
490.871338 140.0
490.93045 20.0
491.054596 156.0
491.098755 148.0
491.841949 44.0
491.886108 92.0
492.089172 112.0
492.265808 108.0
492.358521 72.0
493.573792 28.0
493.878937 84.0
493.985107 92.0
494.078003 104.0
494.976501 88.0
495.135925 160.0
495.197906 112.0
495.31308 124.0
495.352966 96.0
495.63208 176.0
495.707397 156.0
495.764526 72.0
495.91568 100.0
495.977753 108.0
496.063385 164.0
496.16394 44.0
496.214203 212.0
496.35614 148.0
496.47876 136.0
496.58075 164.0
496.622772 72.0
496.660583 96.0
496.69165 96.0
496.758179 140.0
496.798096 108.0
496.835815 40.0
496.868805 300.0
497.012451 128.0
497.095367 148.0
497.126434 52.0
497.189178 180.0
497.37207 108.0
497.414948 40.0
497.452515 112.0
497.521484 104.0
497.566742 124.0
497.672668 148.0
497.721283 44.0
497.76123 92.0
497.802002 112.0
497.830444 48.0
497.907776 52.0
497.953217 156.0
497.987732 136.0
498.018829 80.0
498.135651 172.0
498.163239 204.0
498.215454 180.0
498.279175 132.0
498.338684 160.0
498.385406 200.0
498.424561 164.0
498.471985 180.0
498.521698 304.0
498.557831 100.0
498.600525 104.0
498.653107 132.0
498.726166 284.0
498.7742 320.0
498.809753 144.0
498.847717 172.0
498.916992 152.0
498.967194 136.0
499.020905 336.0
499.089935 540.0
499.186188 125164.0
499.291107 164.0
499.356384 80.0
499.407013 124.0
499.44101 96.0
499.455261 24.0
499.560364 92.0
499.605072 144.0
499.645386 80.0
499.675934 388.0
499.720184 256.0
499.773743 348.0
499.830566 288.0
499.903137 308.0
499.985565 352.0
500.039246 192.0
500.187714 41352.0
500.328064 336.0
500.452026 84.0
500.466827 60.0
500.483185 112.0
500.578369 164.0
500.62912 176.0
500.68222 124.0
500.697784 36.0
500.716827 132.0
500.779358 160.0
500.828369 200.0
500.870728 168.0
500.937897 148.0
500.970062 200.0
501.02948 160.0
501.085541 84.0
501.118622 192.0
501.19104 7096.0
501.282562 128.0
501.308868 80.0
501.358978 112.0
501.424347 152.0
501.510559 148.0
501.55011 108.0
501.631989 128.0
501.679901 72.0
501.73642 104.0
501.780334 72.0
501.832153 40.0
501.872498 152.0
501.948547 44.0
501.997589 36.0
502.03772 140.0
502.095184 68.0
502.193512 1436.0
502.292389 84.0
502.330994 64.0
502.417908 92.0
502.467499 104.0
502.502747 64.0
502.513 88.0
502.544128 144.0
502.584778 132.0
502.632355 104.0
502.769379 48.0
502.860596 108.0
502.913391 88.0
502.976532 416.0
503.023041 168.0
503.067017 140.0
503.119019 168.0
503.161926 76.0
503.216431 216.0
503.285004 128.0
503.353119 100.0
503.391815 176.0
503.469452 52.0
503.49942 168.0
503.572998 108.0
503.61319 60.0
503.665527 128.0
503.719849 80.0
503.798737 112.0
503.84198 92.0
503.877258 108.0
504.037598 64.0
504.073364 140.0
504.104645 72.0
504.167206 68.0
504.212189 60.0
504.265533 68.0
504.33255 136.0
504.466675 136.0
504.528076 56.0
504.556061 144.0
504.708099 32.0
504.837769 172.0
504.873535 76.0
504.927216 56.0
504.989838 72.0
505.047089 60.0
505.097168 56.0
505.226898 72.0
505.307434 72.0
505.365601 36.0
505.647522 36.0
505.81488 68.0
505.952606 76.0
506.054871 40.0
506.207123 140.0
506.254395 72.0
506.444275 80.0
506.49823 108.0
506.578857 96.0
507.130035 40.0
507.199646 60.0
507.309326 76.0
507.632141 44.0
508.924469 44.0
509.391541 84.0
510.308319 40.0
510.375763 44.0
511.257446 64.0
512.153442 48.0
512.290588 92.0
512.739136 44.0
512.883362 56.0
513.361267 72.0
513.478516 92.0
513.546204 96.0
514.191345 44.0
515.749634 192.0
515.921387 92.0
516.13385 72.0
516.387146 52.0
516.516052 96.0
517.39624 52.0
517.550171 128.0
517.673279 108.0
518.030212 76.0
518.374573 72.0
520.179688 36.0
520.302246 88.0
520.552002 100.0
522.065247 28.0
522.943298 188.0
523.280151 84.0
524.109131 68.0
524.218506 96.0
525.326416 64.0
525.376648 52.0
525.47699 32.0
526.188965 92.0
527.870483 68.0
530.16394 48.0
533.804321 80.0
535.212402 56.0
538.814575 68.0
545.046387 48.0
545.320618 80.0
548.066284 44.0
548.648865 108.0
550.090332 48.0
551.702026 144.0
554.623047 132.0
555.664124 92.0
571.487732 84.0
572.930298 44.0
574.417664 64.0
578.685364 80.0
580.01355 60.0
585.465576 72.0
585.499329 36.0
590.049622 92.0
594.39917 80.0
596.434082 84.0
598.725708 180.0
601.016846 120.0
603.732849 76.0
607.19043 108.0
610.185791 36.0
611.92749 132.0
613.17865 40.0
614.362122 88.0
617.493774 108.0
624.845276 88.0
628.946594 32.0
629.695496 76.0
637.913086 60.0
650.202271 68.0
651.131348 68.0
657.418762 124.0
661.190308 100.0
670.084167 56.0
671.290283 84.0
671.935059 112.0
679.001099 108.0
680.646118 72.0
687.439331 96.0
688.572205 72.0
688.661011 72.0
689.152039 80.0
689.862854 64.0
690.396118 68.0
690.856445 68.0
691.395386 108.0
693.610901 52.0
693.647583 84.0
693.867737 84.0
696.470642 136.0
698.878418 48.0
703.511047 48.0
705.169678 116.0
707.478149 48.0
707.904846 108.0
712.609802 104.0
714.789856 68.0
715.710693 76.0
715.785217 52.0
725.892029 56.0
726.442566 36.0
727.215271 96.0
727.709106 44.0
729.22937 100.0
731.773865 60.0
732.517029 120.0
733.142029 36.0
736.049683 56.0
743.634216 100.0
749.512939 48.0
750.319641 32.0
752.420044 108.0
753.736389 68.0
757.303284 40.0
760.532837 60.0
760.950012 116.0
764.594482 116.0
765.354187 48.0
768.236633 52.0
772.822266 76.0
775.214355 56.0
775.962646 68.0
779.315002 92.0
781.160767 68.0
782.167969 72.0
782.813782 92.0
783.894531 64.0
784.061707 88.0
787.90625 136.0
788.002747 76.0
792.460449 48.0
796.140259 100.0
796.342407 44.0
797.527954 76.0
804.377502 64.0
804.834778 100.0
810.309875 116.0
816.184387 68.0
819.628174 44.0
822.782227 76.0
825.913818 96.0
830.610779 116.0
830.880432 152.0
832.229187 96.0
833.148132 120.0
836.166931 60.0
843.093384 64.0
846.645508 76.0
852.417664 72.0
852.55127 200.0
855.500244 88.0
857.492371 52.0
862.587952 28.0
865.98175 184.0
872.853882 196.0
878.631958 104.0
885.275696 56.0
886.288635 68.0
891.849304 44.0
894.734436 80.0
897.892578 48.0
907.016663 148.0
908.479858 84.0
916.174805 40.0
921.429565 56.0
922.716919 76.0
925.366882 52.0
931.60144 80.0
933.254517 88.0
935.755188 68.0
937.076843 76.0
955.019714 76.0
956.884277 168.0
957.721802 88.0
958.251587 80.0
960.56958 80.0
978.38623 140.0
998.749084 96.0
1000.177429 72.0
1001.046265 104.0
1008.067383 180.0
1008.617249 68.0
1012.68573 172.0
1014.149353 92.0
1019.594971 132.0
1021.896912 236.0
1026.100464 100.0
1028.243774 88.0
1028.288452 152.0
1028.422485 84.0
1030.376465 224.0
1031.9104 40.0
1035.231323 112.0
1036.012817 124.0
1040.437866 228.0
1040.502075 84.0
1045.245483 60.0
1046.874146 96.0
1047.022217 104.0
1048.9552 228.0
1049.63855 200.0
1050.883545 36.0
1051.748291 48.0
1054.066772 244.0
1054.137817 44.0
1056.14856 164.0
1059.307373 84.0
1062.256836 156.0
1068.356812 188.0
1071.781494 144.0
1078.875977 100.0
1089.939453 120.0
1092.806274 168.0
1093.253784 72.0
1095.900879 116.0
1096.263306 72.0
1100.834839 64.0
1105.819702 228.0
1106.911987 104.0
1107.52124 52.0
1108.004883 32.0
1110.954956 136.0
1113.676636 48.0
1117.113159 144.0
1121.508057 144.0
1129.132812 148.0
1129.654541 92.0
1129.80835 44.0
1133.631592 176.0
1134.851562 96.0
1141.337769 124.0
1143.234741 212.0
1144.082886 172.0
1146.932251 120.0
1148.381958 192.0
1149.71106 184.0
1151.061157 136.0
1151.121948 120.0
1151.878418 148.0
1156.571167 144.0
1160.730957 188.0
1164.388672 168.0
1169.726196 88.0
1170.22998 196.0
1170.720337 196.0
1170.829224 212.0
1173.882324 192.0
1174.878174 172.0
1178.148193 180.0
1192.552002 160.0
1198.759766 216.0
1199.373169 156.0
1199.455811 168.0
1199.917725 196.0
1200.103882 176.0
1200.352173 152.0
1201.830444 224.0
1202.442383 156.0
1205.432739 180.0
1205.812866 184.0
1206.020142 212.0
1209.28479 108.0
1215.008545 148.0
1215.466553 132.0
1219.292847 152.0
1219.501343 116.0
1227.814331 160.0
1228.100342 152.0
1232.568359 212.0
1237.352539 264.0
1241.332764 180.0
1242.068848 172.0
1244.11792 208.0
1244.18103 176.0
1248.924438 48.0
1256.405518 184.0
1258.459351 140.0
1262.048706 92.0
1262.550659 200.0
1263.229736 164.0
1264.91394 228.0
1266.585083 200.0
1271.257324 84.0
1272.144531 192.0
1272.265137 72.0
1272.343262 136.0
1273.578857 156.0
1273.784912 192.0
1275.760376 72.0
1277.993652 176.0
1278.861816 132.0
1280.49939 136.0
1280.898315 188.0
1281.290039 160.0
1283.442505 164.0
1284.362793 184.0
1285.404175 44.0
1287.145874 168.0
1287.588623 168.0
1288.231445 152.0
1291.262207 156.0
1291.398071 236.0
1292.063354 96.0
1293.494629 172.0
1293.759399 76.0
1294.267822 80.0
1295.343506 192.0
1296.954346 184.0
1300.533569 148.0
1300.86438 232.0
1301.179565 192.0
1301.868896 120.0
1302.500977 120.0
1303.384644 64.0
1303.729492 184.0
1304.175171 192.0
1304.649536 60.0
1305.217529 88.0
1305.800049 120.0
1310.270264 48.0
1311.250244 116.0
1311.567383 136.0
1314.87793 128.0
1317.556396 196.0
1317.989136 112.0
1319.790283 100.0
1320.028809 168.0
1321.048706 140.0
1322.329346 148.0
1323.53833 132.0
1324.914429 152.0
1326.697266 128.0
1326.994507 164.0
1328.134644 72.0
1330.005127 44.0
1330.135742 68.0
1331.406372 164.0
1333.338867 144.0
1335.207275 164.0
1335.796509 172.0
1336.291138 72.0
1340.980835 156.0
1342.70874 180.0
1343.102661 196.0
1343.985352 124.0
1345.795532 172.0
1347.014282 156.0
1347.650757 120.0
1347.913818 144.0
1350.823608 216.0
1352.850708 120.0
1354.505737 156.0
1354.937866 32.0
1355.941772 240.0
1360.232666 164.0
1361.583618 120.0
1362.039062 112.0
1363.684937 168.0
1364.500854 124.0
1365.000854 164.0
1366.074707 180.0
1366.869263 188.0
1367.715576 256.0
1367.833374 52.0
1368.88623 196.0
1371.678589 180.0
1372.07666 192.0
1372.496948 220.0
1373.721436 144.0
1374.429443 224.0
1374.562256 172.0
1375.189575 72.0
1375.403687 136.0
1376.415039 136.0
1376.599731 168.0
1376.688354 136.0
1378.793823 220.0
1379.16333 40.0
1379.43689 216.0
1380.324097 84.0
1381.72937 140.0
1386.231201 152.0
1387.824951 172.0
1391.549561 196.0
1391.883667 160.0
1393.421265 216.0
1394.967041 144.0
1396.720703 152.0
1397.197998 152.0
1397.971802 140.0
1398.418335 48.0
1399.974365 108.0
1401.397095 108.0
1402.090088 156.0
1403.059082 152.0
1405.072754 168.0
1405.714478 124.0
1407.505981 172.0
1409.227173 208.0
1409.560181 172.0
1409.754517 132.0
1410.270142 116.0
1412.962158 108.0
1413.762817 148.0
1415.821533 156.0
1416.56311 144.0
1417.664551 80.0
1419.988525 164.0
1420.648682 56.0
1422.472168 156.0
1424.462158 112.0
1425.040649 140.0
1425.333618 180.0
1426.400879 148.0
1428.742432 212.0
1428.912598 152.0
1430.899536 152.0
1432.435913 68.0
1432.722168 108.0
1433.332397 148.0
1434.560913 200.0
1435.179199 104.0
1436.921387 120.0
1438.513794 128.0
1439.102661 192.0
1440.061768 144.0
1442.20752 176.0
1443.228149 172.0
1445.724365 40.0
1446.837036 208.0
1447.170166 160.0
1447.806274 108.0
1450.609741 148.0
1451.140381 156.0
1451.193481 88.0
1452.551025 140.0
1452.778564 144.0
1454.774414 204.0
1455.355469 144.0
1456.186768 72.0
1456.277954 112.0
1456.733643 176.0
1457.379395 120.0
1457.774536 184.0
1459.01355 124.0
1459.081909 396.0
1459.401245 164.0
1462.286377 252.0
1462.39856 216.0
1463.121704 204.0
1463.616577 232.0
1463.814575 196.0
1464.41626 140.0
1465.299927 160.0
1466.084717 152.0
1466.519165 156.0
1466.717285 148.0
1470.996704 208.0
1471.34021 176.0
1471.553955 172.0
1471.973877 148.0
1472.25647 212.0
1472.40918 168.0
1472.943848 164.0
1475.978027 112.0
1477.140503 124.0
1477.951416 188.0
1478.8927 148.0
1479.727173 56.0
1481.634155 236.0
1482.378296 144.0
1482.86792 168.0
1483.427368 148.0
1484.125122 192.0
1485.482544 180.0
1485.827759 204.0
1486.723999 20.0
1487.040161 136.0
1487.447021 128.0
1487.861572 176.0
1487.946045 36.0
1488.314575 136.0
1488.752197 164.0
1490.534424 124.0
1490.68042 68.0
1490.818726 124.0
1490.972412 232.0
1491.033936 100.0
1491.894775 116.0
1493.809692 212.0
1493.878906 128.0
1496.472534 36.0
1497.781616 52.0
1500.178223 152.0
1501.273071 132.0
1501.481323 104.0
