>compound MLS001140849-01!4-[[2-(6-chloro-2-oxo-4-propylchromen-7-yl)oxypropanoylamino]methyl]cyclohexane-1-carboxylic acid
>formula C23H28ClNO6
>ionization [M+H]+
>parentmass 450.168
#inchi InChI=1S/C23H28ClNO6/c1-3-4-16-9-21(26)31-19-11-20(18(24)10-17(16)19)30-13(2)22(27)25-12-14-5-7-15(8-6-14)23(28)29/h9-11,13-15H,3-8,12H2,1-2H3,(H,25,27)(H,28,29)/t13?,14-,15-
#inchikey BXLNVDYRMWRFQD
#Ion_Source LC-ESI
#Instrument qTof
#Compound_Source NIH Natural Product Library
#PI Dorrestein
#Data_Collector VVP/LMS
#Scan -1
#Precursor_MZ 450.168
#ExactMass 449.161
#Charge 1
#CAS_Number N/A
#Pubmed_ID N/A
#Smiles CCCc1cc(=O)oc2cc(OC(C)C(=O)NC[C@H]3CC[C@@H](CC3)C(=O)O)c(Cl)cc12
#INCHI_AUX N/A
#Library_Class 1
#SpectrumID CCMSLIB00000080543
#IonMode Positive
#UpdateWorkflowName UPDATE-SINGLE-ANNOTATED-GOLD
#LibraryQualityString Gold
#TaskID b1d8e8f6646f4e71acdff9ca3d919d08
##Scan# 2151
#SpectrumFile p2-D10_GD10_01_18022.mzXML
#LibraryName NIH_Natural_Products_Library.mgf
#MQScore -1
#Organism NIH_Natural_Products_Library
#TIC_Query 0
#RT_Query -1
#MZErrorPPM -1
#SharedPeaks 0
#MassDiff 0
#LibMZ -1
#SpecMZ 450.168
#SpecCharge 0
#internalFilename spec-00000.mgf

>collision 10
95.023804 112.0
95.045151 204.0
95.08979 176.0
95.120934 1284.0
95.34037 52.0
95.42202 168.0
95.575706 72.0
96.114769 292.0
96.12645 116.0
96.230331 100.0
96.286797 96.0
96.398735 152.0
96.598198 156.0
96.752831 128.0
96.815498 56.0
97.442154 184.0
97.486534 168.0
97.506187 132.0
97.559273 128.0
97.693024 268.0
98.101425 216.0
98.134254 120.0
98.313789 44.0
98.631828 184.0
98.811821 100.0
98.851402 144.0
99.077156 172.0
99.110847 64.0
99.95092 104.0
99.990723 224.0
100.179916 124.0
100.804527 104.0
100.90049 172.0
100.994492 112.0
101.054512 132.0
101.122566 140.0
101.854546 248.0
102.05957 140.0
102.800987 168.0
103.021103 192.0
103.089813 68.0
103.251572 140.0
103.735756 184.0
103.847122 140.0
103.962784 52.0
104.304054 184.0
104.466766 100.0
104.682549 132.0
104.74366 152.0
105.110062 140.0
105.141319 164.0
105.188271 176.0
105.253609 212.0
105.787323 236.0
105.92865 192.0
106.99054 176.0
107.103821 140.0
107.48735 84.0
107.700027 108.0
107.863297 164.0
107.910858 116.0
108.167427 124.0
108.610939 204.0
108.635834 192.0
108.673752 192.0
108.745827 152.0
108.94313 208.0
109.146843 208.0
109.406967 180.0
109.625702 124.0
110.03669 156.0
110.088234 212.0
110.138397 1000.0
110.498665 112.0
110.601219 128.0
111.053886 160.0
111.109428 164.0
111.146667 688.0
111.602676 172.0
111.797752 132.0
111.875641 172.0
112.154091 1484.0
112.287628 204.0
112.335121 36.0
112.368881 56.0
112.421646 48.0
112.829376 152.0
112.916092 108.0
113.125603 296.0
114.134712 180.0
114.708473 188.0
114.857765 180.0
114.902573 72.0
114.949524 128.0
115.098976 160.0
115.494408 180.0
115.612106 60.0
116.083481 144.0
116.104927 280.0
116.124229 100.0
116.525726 160.0
116.594498 100.0
116.721352 212.0
116.98819 200.0
117.233772 136.0
117.294128 148.0
117.974236 168.0
118.095345 144.0
118.132126 72.0
118.212196 140.0
119.290329 96.0
119.323235 148.0
120.045975 180.0
120.061241 240.0
120.126633 168.0
120.242348 216.0
120.565628 236.0
120.808372 36.0
120.874023 180.0
121.007568 124.0
121.057938 188.0
121.108315 128.0
121.143372 128.0
121.40863 128.0
121.483223 152.0
121.82354 192.0
122.113739 156.0
122.143593 172.0
122.212753 116.0
122.708405 184.0
122.906952 256.0
123.050438 156.0
123.127739 232.0
123.273567 144.0
123.891319 136.0
124.123024 392.0
124.168114 184.0
124.645485 168.0
124.798882 168.0
125.010925 220.0
125.110413 184.0
125.511528 188.0
125.777061 76.0
125.984772 76.0
126.020523 208.0
126.523834 120.0
126.940659 144.0
127.012436 136.0
127.056221 148.0
127.200958 200.0
127.261589 156.0
127.376144 176.0
128.111862 180.0
128.233566 208.0
128.648682 144.0
129.117188 128.0
129.585144 104.0
129.698471 132.0
129.755157 112.0
130.704727 140.0
131.10202 428.0
131.134796 372.0
131.224136 160.0
131.242386 172.0
131.367844 176.0
131.712585 144.0
131.783417 164.0
131.959442 144.0
132.094391 148.0
132.513412 180.0
132.763306 84.0
132.875732 180.0
133.054779 132.0
133.077744 140.0
133.417816 104.0
133.70079 160.0
134.113129 148.0
134.286087 152.0
134.551498 156.0
134.78714 144.0
135.641281 220.0
135.736359 192.0
136.140198 184.0
136.546982 88.0
136.616776 180.0
136.865845 164.0
137.042892 216.0
137.189758 136.0
137.661148 144.0
137.927536 248.0
137.960266 140.0
138.14595 704.0
138.179245 3596.0
138.203491 188.0
138.353012 132.0
138.421265 108.0
138.744659 128.0
139.047302 164.0
139.1483 200.0
139.18634 624.0
139.235168 164.0
139.456055 140.0
139.519531 64.0
139.823013 84.0
139.893646 104.0
140.016098 164.0
140.119766 192.0
140.160248 11612.0
140.22818 100.0
140.255341 92.0
140.26059 48.0
140.26973 128.0
140.383804 68.0
140.430984 124.0
140.478165 60.0
140.50412 68.0
140.709488 72.0
140.857819 160.0
140.879547 168.0
141.06543 452.0
141.118286 144.0
141.162491 1300.0
141.437714 56.0
141.45665 100.0
141.475601 212.0
141.807281 220.0
141.890259 124.0
142.080017 88.0
142.134598 148.0
142.272293 64.0
142.367279 88.0
142.474182 160.0
142.526459 36.0
143.083115 72.0
143.140274 48.0
143.230789 64.0
143.815079 60.0
143.898636 124.0
144.108902 368.0
144.381409 128.0
144.682953 68.0
145.008789 212.0
145.095093 292.0
145.118622 336.0
145.154541 476.0
145.885056 72.0
146.101532 136.0
146.156891 364.0
146.238724 120.0
146.513275 68.0
146.759155 92.0
147.106628 232.0
147.137634 148.0
147.193558 52.0
147.464188 172.0
147.991638 148.0
148.037659 136.0
148.103348 200.0
148.127289 172.0
148.168472 172.0
148.374512 88.0
148.643784 188.0
148.663208 52.0
149.088257 88.0
149.174911 308.0
149.647827 108.0
150.03772 184.0
150.062103 52.0
150.118195 68.0
150.159653 188.0
150.223083 36.0
151.185928 228.0
151.286301 184.0
151.428345 180.0
151.62439 128.0
151.734711 160.0
151.751877 124.0
152.058563 172.0
152.164444 728.0
152.311508 204.0
152.842621 108.0
153.071838 444.0
153.145493 80.0
153.169464 404.0
153.251434 84.0
153.377136 40.0
153.57196 228.0
153.626236 220.0
153.774323 188.0
153.964813 140.0
154.134933 120.0
154.256058 48.0
154.426697 80.0
154.594971 192.0
154.612289 116.0
154.939194 100.0
155.043289 148.0
155.08519 236.0
155.417801 208.0
155.738098 92.0
155.770401 200.0
156.143295 108.0
156.163193 212.0
156.324936 140.0
156.65863 192.0
157.06636 264.0
157.122406 200.0
158.029495 60.0
158.05452 216.0
158.092056 108.0
158.130981 168.0
158.54541 160.0
158.580505 188.0
158.643188 156.0
158.675781 184.0
159.047119 164.0
159.069717 180.0
159.148819 304.0
160.030243 48.0
160.112228 144.0
160.149902 196.0
160.357788 128.0
160.395599 88.0
160.915375 132.0
160.95578 216.0
161.120972 372.0
161.982773 132.0
162.395996 204.0
162.799606 100.0
162.875809 164.0
163.112167 148.0
163.224045 88.0
163.262207 156.0
163.483566 200.0
163.952225 96.0
164.217163 196.0
164.283752 84.0
164.316925 48.0
164.896683 104.0
165.107239 304.0
165.282196 144.0
165.326416 104.0
165.472351 128.0
165.900269 264.0
166.084915 168.0
166.159637 180.0
166.185455 1076.0
166.256851 52.0
166.392914 132.0
167.032913 132.0
167.088638 268.0
167.115814 128.0
167.12941 72.0
167.14743 104.0
167.194183 5328.0
167.328918 80.0
167.493759 64.0
167.88559 52.0
168.115219 164.0
168.197479 768.0
168.264954 56.0
168.399261 72.0
168.419937 64.0
168.461273 104.0
168.696472 124.0
169.072342 540.0
169.095215 196.0
169.106644 176.0
169.206207 172.0
169.267548 204.0
169.675217 132.0
170.142288 136.0
170.196823 172.0
170.324097 116.0
170.680206 196.0
171.04628 244.0
171.08812 296.0
171.205948 188.0
171.922989 148.0
172.418915 144.0
172.675537 52.0
172.795883 192.0
173.120514 148.0
173.163193 668.0
174.046326 180.0
174.130478 196.0
174.177658 160.0
174.201309 160.0
174.924591 248.0
175.145813 192.0
175.290741 120.0
175.630905 132.0
175.802414 68.0
176.111374 124.0
176.150772 136.0
176.330704 172.0
176.410019 168.0
177.016006 48.0
177.121964 120.0
178.393265 176.0
178.691162 152.0
178.747055 160.0
178.789642 228.0
179.098404 168.0
179.266418 44.0
179.909332 192.0
180.096283 172.0
180.850418 144.0
181.093781 164.0
181.115997 172.0
181.26561 196.0
181.426453 72.0
181.91478 180.0
182.016815 72.0
182.083969 160.0
183.085632 144.0
183.146667 92.0
183.340561 56.0
183.677643 160.0
183.737 120.0
183.942139 132.0
184.090652 140.0
184.167465 488.0
184.203659 1832.0
184.333817 48.0
184.533875 224.0
184.750275 148.0
184.774628 72.0
184.993866 96.0
185.031784 140.0
185.126572 172.0
185.17308 140.0
185.204391 212.0
186.136505 196.0
186.215302 212.0
186.627411 56.0
186.801498 136.0
187.024658 196.0
187.149353 172.0
188.049667 116.0
188.11792 168.0
188.344604 264.0
188.380127 100.0
188.514023 156.0
188.817535 192.0
189.173904 164.0
189.935211 32.0
190.283798 180.0
190.352448 192.0
191.125 108.0
192.216354 48.0
192.354385 192.0
193.092239 192.0
193.11441 164.0
193.17247 108.0
193.269318 68.0
193.299759 56.0
194.128174 72.0
194.193054 596.0
194.422287 136.0
194.69162 72.0
194.774963 32.0
195.09581 1300.0
195.133514 140.0
195.185776 192.0
195.193817 152.0
195.383865 184.0
195.550858 160.0
195.659424 52.0
196.133087 132.0
196.194427 152.0
196.252975 108.0
196.339432 180.0
197.073166 1004.0
197.111176 344.0
197.180084 68.0
197.30574 136.0
197.675003 60.0
198.082367 340.0
198.322052 68.0
198.403366 104.0
198.591278 132.0
199.071045 316.0
199.113449 228.0
199.199081 336.0
199.262299 160.0
200.751572 168.0
201.168274 1240.0
201.550568 64.0
202.136093 132.0
202.174713 984.0
202.240738 68.0
202.320007 44.0
202.413452 56.0
202.515427 36.0
202.795975 80.0
203.019989 120.0
203.147644 148.0
203.175125 304.0
203.19873 164.0
204.028168 156.0
204.127701 156.0
204.161819 156.0
204.232941 168.0
204.657043 128.0
204.685516 88.0
204.964722 108.0
205.084442 132.0
205.238403 48.0
205.258377 200.0
205.329681 92.0
205.553528 212.0
206.060562 104.0
206.15773 68.0
206.506577 104.0
206.712601 92.0
206.809921 220.0
207.130676 196.0
207.764313 140.0
207.859009 184.0
207.96521 204.0
208.106705 72.0
208.772675 180.0
208.884857 128.0
209.082184 144.0
209.117966 144.0
209.152863 152.0
209.659515 152.0
210.088104 972.0
210.16713 156.0
210.297516 244.0
210.767822 152.0
210.926804 188.0
211.090149 160.0
211.108856 232.0
211.151764 152.0
211.479355 52.0
211.60675 52.0
211.993713 148.0
212.090363 152.0
212.122803 156.0
212.160202 224.0
212.424149 164.0
212.473099 140.0
212.667923 72.0
213.092331 164.0
213.126846 152.0
213.219406 128.0
214.203476 176.0
214.8013 380.0
214.993744 112.0
215.171829 120.0
216.151169 180.0
216.236053 116.0
216.52887 44.0
217.710968 156.0
218.413528 196.0
218.819702 156.0
218.843262 176.0
219.008209 108.0
219.143738 148.0
219.6922 108.0
219.972595 132.0
220.099564 52.0
220.397949 156.0
220.649216 124.0
221.120407 380.0
221.157791 144.0
221.537201 220.0
221.620178 172.0
221.717987 88.0
222.120377 392.0
222.254822 192.0
222.676437 220.0
222.720993 168.0
223.101013 2692.0
223.178726 132.0
223.273911 116.0
223.348282 44.0
223.470261 168.0
223.583359 176.0
223.756912 164.0
223.839417 148.0
223.863251 40.0
223.907928 116.0
224.100983 420.0
224.137344 216.0
224.182053 68.0
224.268494 56.0
224.832291 128.0
225.044266 192.0
225.100174 984.0
225.135193 144.0
225.552216 136.0
225.69574 172.0
225.788467 156.0
226.099335 160.0
226.914551 32.0
228.669159 228.0
229.171692 372.0
229.422333 208.0
229.705856 184.0
230.181976 640.0
230.364044 72.0
230.400299 132.0
230.835617 124.0
231.147232 176.0
231.177505 100.0
231.804459 96.0
231.998474 116.0
233.702576 112.0
234.51886 152.0
235.642044 160.0
235.929382 136.0
236.112869 296.0
236.421921 68.0
236.93335 144.0
237.089661 164.0
237.116074 116.0
237.157318 1972.0
237.193878 160.0
237.350266 160.0
237.396271 104.0
237.607956 152.0
237.727631 152.0
237.957886 104.0
238.130157 220.0
238.141907 144.0
238.150162 120.0
238.341888 116.0
238.458679 108.0
238.501724 108.0
238.547836 112.0
238.606262 100.0
238.692368 100.0
238.769257 128.0
238.821548 196.0
238.892319 184.0
238.921753 180.0
238.984634 240.0
239.063477 180.0
239.073807 184.0
239.138397 25924.0
239.188507 272.0
239.238358 56.0
239.263123 36.0
239.288239 32.0
239.360214 128.0
239.421814 204.0
239.457474 132.0
239.599792 52.0
239.669388 68.0
239.788498 132.0
239.862488 164.0
239.905655 92.0
239.92865 52.0
239.971222 76.0
240.007416 52.0
240.141907 4444.0
240.203339 116.0
240.356018 112.0
240.380722 40.0
240.42392 48.0
240.504181 64.0
240.64621 80.0
240.902588 64.0
241.13591 6124.0
241.18074 64.0
241.227127 48.0
241.264221 92.0
241.326065 56.0
241.350815 52.0
241.403381 144.0
241.513412 140.0
241.518921 80.0
241.53183 168.0
241.579712 112.0
241.600189 84.0
241.679565 252.0
241.725159 160.0
241.752579 228.0
241.848969 92.0
241.886124 76.0
242.084305 44.0
242.138046 1040.0
242.601547 132.0
242.683563 256.0
242.809616 44.0
243.048523 60.0
243.138062 136.0
243.149551 116.0
243.15535 200.0
243.362061 52.0
243.865402 36.0
244.086166 204.0
244.188812 76.0
245.085526 76.0
245.21019 128.0
245.662399 108.0
245.99324 120.0
247.102859 176.0
247.143539 76.0
247.226242 196.0
247.622574 72.0
249.141037 120.0
249.32016 204.0
249.78244 192.0
249.924026 148.0
251.102402 140.0
251.142319 308.0
252.128647 164.0
252.150772 192.0
253.061966 80.0
253.144302 152.0
253.179138 108.0
253.952591 68.0
254.141068 140.0
254.177872 164.0
254.571564 220.0
255.156311 132.0
255.498169 68.0
257.122009 116.0
258.184784 208.0
258.285217 152.0
259.197815 164.0
260.53598 64.0
264.053314 64.0
264.524231 208.0
264.554932 132.0
264.830231 140.0
264.969543 164.0
265.076477 120.0
265.1633 12668.0
265.290802 148.0
265.475281 136.0
265.527161 52.0
265.588806 48.0
265.634216 76.0
265.679657 168.0
265.757721 64.0
265.877625 40.0
266.030182 196.0
266.052917 40.0
266.091888 72.0
266.127625 48.0
266.167694 2084.0
266.257538 48.0
266.397217 44.0
266.652008 100.0
266.774231 136.0
267.089722 44.0
267.160126 3768.0
267.210114 36.0
267.245911 64.0
267.278442 36.0
267.333771 136.0
267.379333 72.0
267.568176 132.0
267.678894 76.0
267.773346 88.0
267.981873 96.0
268.092682 112.0
268.165527 456.0
268.823273 220.0
269.46991 96.0
269.502594 120.0
270.032257 104.0
270.064972 64.0
271.080048 80.0
271.312805 48.0
271.985413 32.0
272.622681 188.0
273.11264 160.0
274.634613 148.0
276.958679 208.0
278.820312 100.0
280.181458 144.0
281.706299 72.0
285.03717 100.0
285.64917 164.0
286.831329 148.0
292.182861 208.0
293.167908 576.0
294.198792 252.0
294.262177 52.0
294.607178 36.0
294.849823 140.0
295.099396 52.0
295.1633 396.0
295.208832 160.0
296.085083 172.0
296.122742 128.0
297.096405 104.0
297.185638 60.0
297.336639 56.0
298.497986 28.0
299.613342 216.0
304.616547 152.0
305.096191 192.0
309.948456 64.0
310.134247 80.0
310.168304 172.0
310.20462 1008.0
311.113098 56.0
311.204437 560.0
311.822754 92.0
312.196106 788.0
312.80426 84.0
313.043732 72.0
313.202759 52.0
313.255066 72.0
313.565216 48.0
314.902588 72.0
316.678986 128.0
322.204437 480.0
324.209351 176.0
329.675323 112.0
333.710449 32.0
336.611359 72.0
341.236267 116.0
341.306122 80.0
361.132568 104.0
362.279694 104.0
373.539429 76.0
374.806274 48.0
375.739502 124.0
376.294434 168.0
376.789795 84.0
392.692474 148.0
403.279633 172.0
404.151581 68.0
404.223602 124.0
404.317444 1912.0
404.495819 76.0
404.704041 160.0
404.782227 68.0
405.321869 780.0
406.317871 668.0
407.05014 112.0
407.254974 48.0
407.310028 316.0
408.320251 124.0
410.047729 140.0
421.833191 48.0
423.19574 176.0
433.350372 104.0
437.237793 100.0
438.13736 44.0
447.474304 48.0
448.911377 92.0
449.381958 140.0
450.380341 136.0
451.458252 204.0
478.955475 96.0
517.829163 72.0
518.563232 88.0
624.985596 116.0
632.222412 56.0
646.335083 88.0
647.276733 104.0
667.904175 160.0
685.166321 60.0
759.332581 88.0
763.694214 144.0
802.219482 76.0
804.572327 120.0
816.388184 144.0
851.086121 212.0
856.221741 188.0
878.829651 124.0
921.548096 172.0
926.873535 140.0
930.653015 160.0
930.731995 188.0
941.781006 116.0
945.278503 160.0
948.059204 56.0
986.660217 156.0
993.581665 152.0
1005.993896 72.0
1006.4422 40.0
1008.843384 60.0
1022.336609 108.0
1024.463501 76.0
1028.360229 216.0
1032.750366 204.0
1043.531982 148.0
1046.389038 88.0
1046.910767 164.0
1048.818115 48.0
1050.933716 128.0
1060.506226 164.0
1063.09436 132.0
1066.400513 124.0
1075.670898 180.0
1078.859253 140.0
1081.764282 176.0
1081.855957 164.0
1103.365479 128.0
1130.294189 60.0
1131.847412 96.0
1131.947876 48.0
1134.715576 48.0
1144.964478 184.0
1151.000977 212.0
1151.412964 148.0
1166.328003 168.0
1168.211914 224.0
1169.60022 128.0
1174.629761 164.0
1177.114502 180.0
1181.434814 200.0
1185.694458 200.0
1187.991821 56.0
1193.432007 164.0
1197.740845 144.0
1204.681396 116.0
1211.78064 152.0
1212.841064 144.0
1217.497314 200.0
1222.934937 224.0
1223.700806 176.0
1224.432129 176.0
1229.117432 168.0
1232.183105 188.0
1234.245239 172.0
1235.595337 192.0
1236.127197 184.0
1241.374878 152.0
1259.811401 164.0
1262.285522 168.0
1263.254639 200.0
1264.542603 188.0
1272.788574 148.0
1290.969604 168.0
1300.377686 164.0
1301.16748 164.0
1306.299438 124.0
1307.46521 196.0
1310.504395 120.0
1311.26123 180.0
1312.746582 84.0
1313.684326 176.0
1315.661987 208.0
1317.352051 192.0
1318.862549 128.0
1322.552002 212.0
1328.356934 236.0
1328.748779 232.0
1329.445435 232.0
1334.552856 204.0
1340.172729 128.0
1342.914185 160.0
1344.431885 148.0
1347.93042 196.0
1348.251953 136.0
1351.213867 124.0
1353.212158 124.0
1357.558105 172.0
1361.793335 176.0
1361.910889 184.0
1362.307617 108.0
1362.52063 156.0
1364.358276 176.0
1366.770996 84.0
1367.153687 220.0
1367.705811 132.0
1375.328491 144.0
1381.869629 72.0
1382.890991 208.0
1384.623657 212.0
1385.712769 204.0
1393.764404 212.0
1395.347778 160.0
1395.548584 56.0
1399.708618 224.0
1410.535645 148.0
1415.264526 104.0
1415.998535 56.0
1416.470459 116.0
1416.792725 52.0
1418.261597 176.0
1420.676636 204.0
1431.817749 152.0
1434.847412 112.0
1436.212524 148.0
1437.0802 108.0
1439.246826 164.0
1440.236206 236.0
1453.395874 136.0
1456.212769 216.0
1459.100708 160.0
1459.153931 232.0
1463.141113 216.0
1467.980225 180.0
1468.460815 180.0
1469.887573 220.0
1472.50647 148.0
1475.219482 140.0
1477.820068 208.0
1478.14917 132.0
1484.216797 192.0
1485.628174 132.0
1492.495361 216.0
1492.718506 200.0
1495.85022 240.0
1496.774292 104.0
1497.359619 192.0
1499.948975 124.0
