>compound MLS002222187-01!548-66-3
>formula C20H31NO2
>ionization [M+H]+
>parentmass 318.24292
#inchi InChI=1S/C20H31NO2/c1-3-21(4-2)15-16-23-20(22)19(17-11-7-5-8-12-17)18-13-9-6-10-14-18/h5,7-8,11-12,18-19H,3-4,6,9-10,13-16H2,1-2H3
#inchikey AGJBLWCLQCKRJP
#origInchi InChI=1S/C20H31NO2.ClH/c1-3-21(4-2)15-16-23-20(22)19(17-11-7-5-8-12-17)18-13-9-6-10-14-18;/h5,7-8,11-12,18-19H,3-4,6,9-10,13-16H2,1-2H3;1H
#Ion_Source LC-ESI
#Instrument qTof
#Compound_Source NIH Pharmacologically Active Library
#PI Dorrestein
#Data_Collector VP/LMS
#Scan -1
#Precursor_MZ 318.245
#ExactMass 317.235
#Charge 1
#CAS_Number N/A
#Pubmed_ID N/A
#Smiles CCN(CC)CCOC(=O)C(C1CCCCC1)c2ccccc2.Cl
#INCHI_AUX N/A
#Library_Class 1
#SpectrumID CCMSLIB00000085395
#IonMode Positive
#UpdateWorkflowName UPDATE-SINGLE-ANNOTATED-GOLD
#LibraryQualityString Gold
#TaskID d252d724072548979f1f6f1ced849daf
##Scan# 1905
#SpectrumFile p4-A03_GA3_01_18327.mzXML
#LibraryName Pharm_Active_Library.mgf
#MQScore -1
#Organism Pharm_Active_Library
#TIC_Query 0
#RT_Query -1
#MZErrorPPM -1
#SharedPeaks 0
#MassDiff 0
#LibMZ -1
#SpecMZ 318.245
#SpecCharge 0
#internalFilename spec-00000.mgf

>collision 10
44.954693 192.0
45.052162 168.0
45.085564 68.0
45.254112 168.0
45.27018 200.0
45.284912 208.0
45.310364 136.0
45.346542 232.0
45.419308 164.0
45.467247 124.0
45.528831 280.0
45.539749 128.0
45.633816 96.0
45.653984 148.0
45.670124 172.0
45.749516 124.0
45.773754 188.0
45.882889 144.0
45.967865 156.0
46.024559 44.0
46.124531 176.0
46.165092 148.0
46.263866 120.0
46.301777 212.0
46.475292 148.0
46.487507 160.0
46.518723 152.0
46.540276 160.0
46.575756 152.0
46.619232 228.0
46.677685 104.0
46.708965 140.0
46.732094 100.0
46.756588 188.0
46.924133 216.0
46.940495 160.0
46.970501 184.0
46.989601 168.0
47.132965 148.0
47.147995 112.0
47.187637 132.0
47.228664 148.0
47.256023 224.0
47.286129 120.0
47.302555 164.0
47.37376 176.0
47.436855 96.0
47.634403 164.0
47.668751 120.0
47.70311 60.0
47.77462 244.0
47.850311 164.0
47.959141 192.0
48.178482 168.0
48.305729 104.0
48.343086 52.0
48.750431 200.0
48.828648 236.0
48.850903 188.0
48.892643 164.0
48.903778 244.0
48.921875 96.0
48.943981 208.0
48.963646 140.0
48.985931 168.0
49.009617 132.0
49.061184 208.0
49.15184 132.0
49.250965 148.0
49.278904 128.0
49.291477 144.0
49.32642 52.0
49.387943 180.0
49.530415 204.0
49.743858 100.0
49.821095 144.0
49.887146 132.0
49.971527 164.0
50.00108 88.0
50.023598 144.0
50.151783 216.0
50.181385 124.0
50.210999 128.0
50.282951 64.0
50.414291 72.0
50.465179 204.0
50.507607 184.0
50.520336 84.0
50.5359 36.0
50.551464 176.0
50.608082 108.0
50.664734 84.0
50.742683 212.0
50.90728 152.0
50.941368 44.0
50.975468 156.0
51.036018 192.0
51.160366 144.0
51.188953 156.0
51.223812 232.0
51.250092 128.0
51.328491 64.0
51.36985 168.0
51.402664 100.0
51.422836 208.0
51.438347 224.0
51.454048 56.0
51.515457 160.0
51.687023 148.0
51.722805 96.0
51.764786 236.0
51.828781 132.0
51.840065 224.0
51.889851 112.0
51.913357 100.0
51.942039 192.0
51.954952 28.0
52.039627 140.0
52.084148 100.0
52.212067 52.0
52.235077 208.0
52.24794 132.0
52.298389 184.0
52.377586 148.0
52.438099 120.0
52.465488 204.0
52.632854 200.0
52.713745 52.0
52.739758 160.0
52.855007 224.0
52.93362 228.0
52.985764 196.0
53.04953 188.0
53.059677 160.0
53.087227 48.0
53.10173 164.0
53.119137 36.0
53.274464 40.0
53.294804 120.0
53.334042 176.0
53.382019 192.0
53.414017 48.0
53.591629 108.0
53.73597 176.0
53.769531 68.0
53.881969 188.0
53.941887 152.0
53.987213 120.0
54.017925 152.0
54.061821 204.0
54.135014 120.0
54.148197 196.0
54.203865 184.0
54.269825 184.0
54.287422 124.0
54.331425 204.0
54.351963 44.0
54.51643 52.0
54.532303 180.0
54.600227 192.0
54.723835 120.0
54.766541 192.0
54.800423 188.0
54.81221 160.0
54.952892 136.0
54.966637 204.0
55.021652 208.0
55.052658 192.0
55.091061 308.0
55.107315 228.0
55.123566 160.0
55.209309 176.0
55.228535 168.0
55.289196 188.0
55.303997 128.0
55.342487 96.0
55.368935 144.0
55.450626 84.0
55.523273 140.0
55.57074 144.0
55.671677 92.0
55.696926 108.0
55.829205 164.0
55.955681 132.0
56.007805 32.0
56.149395 120.0
56.162819 136.0
56.190891 132.0
56.226974 84.0
56.304611 208.0
56.316559 124.0
56.43013 136.0
56.53783 160.0
56.5513 80.0
56.590221 88.0
56.674099 228.0
56.698074 228.0
56.711563 120.0
56.726555 124.0
56.758038 164.0
56.777531 148.0
56.86755 144.0
57.058327 228.0
57.080879 196.0
57.116543 112.0
57.168129 140.0
57.186188 160.0
57.201241 128.0
57.339813 136.0
57.385036 136.0
57.623501 144.0
57.668839 284.0
57.708141 164.0
57.721748 112.0
57.791328 208.0
57.814026 148.0
57.833702 220.0
57.871548 100.0
57.954853 188.0
58.020023 148.0
58.047318 144.0
58.060966 140.0
58.10799 176.0
58.14896 72.0
58.170059 160.0
58.200573 184.0
58.218796 148.0
58.306911 132.0
58.343391 120.0
58.37532 152.0
58.398865 160.0
58.463554 80.0
58.477249 124.0
58.487904 36.0
58.547283 92.0
58.708824 160.0
58.731701 132.0
58.814213 208.0
58.888912 148.0
59.029514 168.0
59.084576 52.0
59.112869 220.0
59.159565 184.0
59.289757 176.0
59.326546 188.0
59.450783 152.0
59.487099 236.0
59.576691 324.0
59.587444 196.0
59.599735 156.0
59.80735 160.0
59.959827 172.0
59.975239 196.0
60.087067 200.0
60.103241 152.0
60.123966 196.0
60.146454 160.0
60.195858 160.0
60.24683 64.0
60.263603 224.0
60.328735 184.0
60.50045 156.0
60.536064 76.0
60.700321 220.0
60.714279 264.0
60.777596 152.0
60.80426 208.0
60.872566 212.0
61.031063 100.0
61.083939 148.0
61.15863 88.0
61.174194 208.0
61.231808 120.0
61.283215 204.0
61.367378 120.0
61.557743 188.0
61.623123 224.0
61.629078 192.0
61.70462 152.0
61.767876 132.0
61.864948 176.0
62.042782 120.0
62.194946 160.0
62.260284 116.0
62.275021 100.0
62.328434 156.0
62.443195 160.0
62.476227 172.0
62.539169 140.0
62.750259 152.0
62.79599 188.0
62.874878 184.0
62.940899 228.0
62.95697 248.0
62.971184 168.0
62.982239 136.0
63.007515 128.0
63.058079 108.0
63.124477 192.0
63.255795 200.0
63.317547 144.0
63.338139 172.0
63.350811 124.0
63.37299 204.0
63.436382 148.0
63.460163 140.0
63.518642 160.0
63.537876 76.0
63.571198 160.0
63.599766 244.0
63.617226 96.0
63.650959 292.0
63.724285 172.0
63.833309 136.0
63.871479 184.0
63.89534 132.0
64.016312 200.0
64.038605 212.0
64.129425 180.0
64.161057 180.0
64.188408 200.0
64.229874 132.0
64.279335 104.0
64.359146 188.0
64.467766 168.0
64.486946 216.0
64.562088 176.0
64.578079 172.0
64.630684 136.0
64.648476 156.0
64.707695 216.0
64.723709 168.0
64.757339 148.0
64.810204 220.0
64.821419 92.0
64.845459 188.0
64.924019 52.0
65.029907 200.0
65.052376 184.0
65.084488 164.0
65.098938 152.0
65.161583 256.0
65.282135 132.0
65.31591 116.0
65.502396 164.0
65.536469 184.0
65.562248 140.0
65.61544 188.0
65.630852 308.0
65.665428 184.0
65.765465 168.0
65.812279 220.0
65.881729 172.0
65.896263 132.0
66.036903 168.0
66.121033 228.0
66.140457 164.0
66.185791 208.0
66.231133 108.0
66.271637 172.0
66.292702 152.0
66.304047 140.0
66.365311 136.0
66.501915 144.0
66.599335 136.0
66.643196 152.0
66.680573 156.0
66.87574 152.0
66.913185 180.0
66.940865 156.0
67.040237 192.0
67.082611 184.0
67.208801 128.0
67.257149 184.0
67.356758 240.0
67.420479 216.0
67.449898 184.0
67.546371 180.0
67.574181 60.0
67.636368 168.0
67.675659 128.0
67.750999 184.0
67.814903 176.0
67.860802 172.0
67.887039 96.0
67.909996 132.0
68.102036 156.0
68.205551 116.0
68.223633 284.0
68.314079 184.0
68.333824 156.0
68.350273 172.0
68.368378 244.0
68.487091 76.0
68.626999 212.0
68.691315 96.0
68.74411 40.0
68.821693 148.0
68.9133 268.0
68.957153 240.0
69.033203 72.0
69.091087 84.0
69.117561 172.0
69.163864 192.0
69.244278 176.0
69.263252 192.0
69.337814 140.0
69.442261 176.0
69.468941 188.0
69.540154 128.0
69.601578 164.0
69.626488 180.0
69.747772 140.0
69.857521 180.0
69.922417 124.0
69.972351 144.0
70.085609 156.0
70.100609 176.0
70.252335 184.0
70.282364 200.0
70.345047 100.0
70.389191 180.0
70.400879 204.0
70.574669 168.0
70.665543 88.0
70.688408 168.0
70.822639 184.0
70.839096 152.0
71.080528 172.0
71.154762 200.0
71.211899 372.0
71.354301 216.0
71.369438 92.0
71.451851 240.0
71.473724 100.0
71.489723 124.0
71.526596 172.0
71.538887 256.0
71.562935 144.0
71.605026 132.0
71.652199 144.0
71.71228 244.0
71.788727 204.0
71.852821 128.0
71.86969 176.0
71.883194 236.0
71.977722 148.0
71.999672 216.0
72.014877 164.0
72.065552 156.0
72.160202 116.0
72.234612 140.0
72.463158 168.0
72.524162 52.0
72.537727 128.0
72.55468 108.0
72.566544 156.0
72.639465 96.0
72.724312 220.0
72.76165 184.0
72.904335 168.0
73.080803 180.0
73.133934 152.0
73.150505 180.0
73.198631 176.0
73.387764 60.0
73.437218 176.0
73.490105 140.0
73.604263 204.0
73.649323 180.0
73.766769 188.0
73.905296 156.0
74.006287 172.0
74.086777 384.0
74.170746 144.0
74.21875 148.0
74.235901 136.0
74.343971 172.0
74.381729 232.0
74.403595 196.0
74.488632 172.0
74.625679 128.0
74.700798 160.0
74.720276 156.0
74.739204 180.0
74.76329 172.0
74.830421 200.0
74.892418 120.0
75.235573 152.0
75.280464 132.0
75.304642 184.0
75.411766 220.0
75.446335 44.0
75.557022 188.0
75.77343 156.0
75.793449 260.0
75.865898 328.0
75.984947 60.0
76.142906 172.0
76.247147 156.0
76.295815 112.0
76.389725 140.0
76.409714 204.0
76.528954 172.0
76.570747 156.0
76.739777 220.0
76.767677 212.0
76.830467 116.0
76.847916 168.0
76.86187 80.0
77.106354 184.0
77.216499 240.0
77.277725 208.0
77.398499 148.0
77.498337 64.0
77.517609 168.0
77.682419 184.0
77.78334 180.0
77.826332 176.0
77.875504 168.0
77.94577 56.0
78.053001 104.0
78.223656 128.0
78.26239 172.0
78.290558 176.0
78.311699 148.0
78.369827 224.0
78.399788 196.0
78.420937 124.0
78.435036 172.0
78.466766 204.0
78.512611 184.0
78.643173 188.0
78.747345 180.0
78.784439 144.0
78.862183 192.0
79.076195 140.0
79.120453 200.0
79.170029 68.0
79.22139 204.0
79.336586 204.0
79.350769 184.0
79.43589 132.0
79.547684 76.0
79.611603 204.0
79.634689 132.0
79.686295 168.0
79.743073 220.0
79.799957 40.0
79.876427 236.0
79.98497 152.0
80.000992 52.0
80.065094 172.0
80.100716 144.0
80.147034 164.0
80.253983 124.0
80.300346 156.0
80.327103 108.0
80.384193 204.0
80.530586 140.0
80.552078 128.0
80.578819 168.0
80.598473 148.0
80.644936 244.0
80.730751 160.0
80.747276 200.0
80.807663 164.0
81.035049 192.0
81.112106 136.0
81.230759 192.0
81.269928 84.0
81.282486 120.0
81.305817 188.0
81.397369 148.0
81.508736 152.0
81.612907 180.0
81.661545 176.0
81.677017 188.0
81.861313 156.0
81.917145 180.0
82.000031 200.0
82.066727 156.0
82.102791 208.0
82.286842 104.0
82.306702 156.0
82.389786 160.0
82.42231 156.0
82.469299 160.0
82.501831 144.0
82.548843 184.0
82.588631 192.0
82.720726 184.0
82.769417 192.0
82.775925 172.0
82.832993 160.0
82.948967 124.0
82.979782 168.0
82.996101 236.0
83.026932 200.0
83.057762 92.0
83.0886 244.0
83.114006 144.0
83.222908 172.0
83.269867 168.0
83.359146 192.0
83.613739 124.0
83.852325 68.0
83.870232 228.0
83.892426 156.0
83.956245 160.0
83.971596 184.0
84.007309 124.0
84.089424 52.0
84.125931 180.0
84.144188 148.0
84.31041 236.0
84.50058 128.0
84.877892 156.0
84.910896 276.0
84.998955 192.0
85.061356 172.0
85.189896 40.0
85.256042 196.0
85.362663 128.0
85.491432 152.0
85.611092 208.0
85.717644 152.0
85.736366 236.0
85.854355 160.0
85.928139 196.0
86.138588 128.0
86.195862 184.0
86.286987 172.0
86.315536 184.0
86.338203 148.0
86.351151 200.0
86.456604 208.0
86.473259 228.0
86.489922 48.0
86.629265 128.0
86.643311 192.0
86.704765 160.0
86.749252 168.0
86.767792 216.0
86.808586 164.0
86.840111 112.0
86.992264 200.0
87.005257 176.0
87.042397 184.0
87.085106 168.0
87.172424 128.0
87.32859 164.0
87.419754 140.0
87.451385 208.0
87.507233 152.0
87.592903 120.0
87.646927 164.0
87.659973 44.0
87.682335 356.0
87.935982 56.0
88.059212 132.0
88.076019 188.0
88.124588 56.0
88.160095 244.0
88.295326 236.0
88.362038 128.0
88.380745 164.0
88.44812 232.0
88.555717 192.0
88.609215 164.0
88.875412 184.0
89.024605 192.0
89.041649 208.0
89.072533 212.0
89.095078 56.0
89.185272 112.0
89.369957 176.0
89.384628 184.0
89.452377 188.0
89.520157 176.0
89.580429 160.0
89.727425 172.0
89.825485 296.0
90.012329 128.0
90.350655 148.0
90.658234 196.0
90.793892 176.0
90.900124 152.0
90.92778 328.0
90.935692 108.0
90.938782 140.0
90.974266 192.0
90.991707 380.0
91.01796 176.0
91.055717 46708.0
91.113213 176.0
91.127289 92.0
91.163406 68.0
91.184982 92.0
91.204903 100.0
91.252754 172.0
91.31617 96.0
91.329483 116.0
91.369164 152.0
91.409706 48.0
91.426514 32.0
91.461899 152.0
91.469147 60.0
91.47345 248.0
91.533119 80.0
91.553017 80.0
91.687424 60.0
91.727448 76.0
91.742699 68.0
91.763672 136.0
91.777718 76.0
91.857117 140.0
91.888702 100.0
91.942978 200.0
91.962059 84.0
91.998329 148.0
92.0578 6548.0
92.094704 68.0
92.162582 80.0
92.244759 168.0
92.281609 212.0
92.302116 68.0
92.337151 212.0
92.418793 36.0
92.574875 200.0
92.615974 68.0
92.642075 96.0
92.727776 80.0
92.815285 176.0
92.867065 268.0
93.007133 36.0
93.06546 200.0
93.1185 188.0
93.337578 72.0
93.376038 236.0
93.477371 100.0
93.512634 36.0
93.66729 144.0
93.709053 32.0
93.822762 88.0
94.038811 112.0
94.075485 152.0
94.439575 180.0
94.483253 204.0
94.533554 160.0
94.734917 148.0
94.767853 204.0
94.839554 48.0
94.92292 208.0
94.98304 184.0
95.054825 204.0
95.086708 4716.0
95.121246 180.0
95.243149 96.0
95.316628 180.0
95.338348 108.0
95.394119 236.0
95.493454 184.0
95.595047 204.0
95.667061 164.0
95.803375 52.0
95.90081 228.0
95.955391 48.0
95.982689 192.0
96.008034 152.0
96.089066 408.0
96.134842 184.0
96.207054 208.0
96.277351 124.0
96.431694 176.0
96.484467 212.0
96.569389 84.0
96.63311 52.0
96.79557 196.0
96.946404 100.0
97.097855 236.0
97.116463 124.0
97.18367 108.0
97.303398 152.0
97.429085 104.0
97.550926 192.0
97.592209 152.0
97.623672 176.0
97.800743 136.0
97.946449 112.0
98.003578 64.0
98.037079 144.0
98.074524 152.0
98.10804 228.0
98.171127 136.0
98.273705 168.0
98.313171 60.0
98.400375 220.0
98.479012 176.0
98.619293 60.0
98.637077 72.0
98.658829 164.0
98.684525 208.0
98.71875 156.0
98.807152 36.0
98.886299 120.0
98.904114 184.0
99.08828 152.0
99.161598 44.0
99.19133 216.0
99.276588 120.0
99.322205 36.0
99.383705 160.0
99.52066 208.0
99.701424 144.0
99.719307 144.0
99.745148 236.0
99.761055 116.0
99.806778 140.0
99.820702 212.0
99.860474 228.0
99.888321 92.0
99.948334 192.0
100.047516 196.0
100.081367 120.0
100.113365 20028.0
100.165558 84.0
100.18692 32.0
100.262642 164.0
100.290398 56.0
100.331741 144.0
100.416153 60.0
100.449142 148.0
100.508492 208.0
100.627678 148.0
100.661156 52.0
100.678421 68.0
100.699562 40.0
100.749504 104.0
100.775475 200.0
101.079399 92.0
101.116539 1096.0
101.233536 192.0
101.281601 220.0
101.305641 68.0
101.371758 68.0
101.517181 184.0
101.620399 100.0
101.79998 172.0
101.851959 92.0
101.887421 172.0
101.917557 112.0
101.944611 104.0
102.000961 208.0
102.116989 212.0
102.343971 220.0
102.366127 156.0
102.537361 196.0
102.688568 236.0
102.737694 132.0
102.863045 132.0
102.922661 140.0
102.967087 188.0
103.054863 992.0
103.077438 192.0
103.112556 200.0
103.373436 108.0
103.395699 40.0
103.456421 228.0
103.561714 124.0
103.644775 168.0
103.999672 48.0
104.05854 176.0
104.082909 184.0
104.200714 140.0
104.275894 236.0
104.589127 196.0
104.656303 116.0
104.684814 112.0
104.709251 216.0
104.769241 204.0
104.835564 100.0
104.880402 180.0
104.910919 156.0
105.013634 220.0
105.037369 696.0
105.070969 18924.0
105.125557 176.0
105.205292 88.0
105.335121 80.0
105.351776 184.0
105.404892 28.0
105.441681 52.0
105.526154 148.0
105.566383 132.0
105.599106 84.0
105.695251 72.0
105.748466 84.0
105.806755 252.0
105.920456 72.0
105.938896 64.0
105.953232 44.0
105.986015 164.0
106.004456 180.0
106.027 196.0
106.075439 1880.0
106.104889 140.0
106.1623 212.0
106.211525 72.0
106.344894 44.0
106.381844 160.0
106.500938 176.0
106.586052 196.0
106.661209 196.0
106.69014 56.0
106.814224 164.0
106.829834 148.0
106.875092 100.0
106.901848 48.0
107.043884 164.0
107.078896 168.0
107.157166 100.0
107.208687 172.0
107.245781 268.0
107.361237 200.0
107.472626 236.0
107.505646 176.0
107.72657 180.0
107.786484 92.0
107.871216 44.0
107.976669 108.0
108.061478 112.0
108.090446 268.0
108.181519 204.0
108.266411 144.0
108.417641 204.0
109.491707 188.0
109.550026 188.0
109.587532 144.0
109.697983 188.0
109.758446 128.0
109.78347 136.0
109.816841 164.0
109.889847 192.0
110.025505 136.0
110.294205 168.0
110.443443 160.0
110.531311 44.0
110.615028 180.0
110.650612 260.0
110.688301 72.0
110.719711 56.0
110.788834 52.0
110.904083 72.0
110.960686 36.0
111.011009 176.0
111.117981 220.0
111.202515 204.0
111.311089 184.0
111.355186 216.0
111.445518 132.0
111.512764 164.0
111.864037 148.0
112.16526 92.0
112.325516 96.0
112.650597 120.0
112.81543 224.0
112.87886 168.0
112.919044 124.0
113.609573 184.0
113.875694 204.0
114.013 220.0
114.051727 164.0
114.232002 80.0
114.25753 220.0
114.28093 168.0
114.362167 160.0
114.608833 192.0
114.768692 108.0
114.871063 152.0
114.952133 100.0
115.054176 1916.0
115.372902 192.0
115.490509 56.0
115.556831 140.0
115.672394 144.0
115.710922 88.0
115.869179 112.0
116.012993 160.0
116.040871 164.0
116.060799 348.0
116.108421 556.0
116.212448 128.0
116.538811 180.0
116.586082 216.0
116.654861 152.0
116.790329 172.0
116.949554 108.0
117.07077 7836.0
117.105721 60.0
117.137962 72.0
117.835854 168.0
117.850975 52.0
117.876907 116.0
117.90284 60.0
118.041191 484.0
118.073799 480.0
118.123138 3996.0
118.348457 96.0
118.422081 208.0
118.541702 204.0
118.675629 208.0
118.705986 56.0
118.753693 88.0
118.981384 164.0
119.024963 36.0
119.050148 288.0
119.076866 200.0
119.126991 172.0
119.161804 64.0
119.244377 144.0
119.503151 140.0
119.57061 48.0
119.622849 232.0
119.718651 60.0
119.803596 172.0
119.864601 300.0
119.932159 144.0
119.9496 152.0
120.095688 68.0
120.29644 96.0
120.324821 212.0
120.375038 104.0
120.501724 176.0
120.565094 168.0
121.063881 188.0
121.125206 184.0
121.629539 196.0
121.888687 104.0
121.941429 164.0
122.031555 200.0
122.119522 228.0
122.181114 224.0
122.436447 132.0
122.868477 76.0
123.093605 40.0
123.407372 244.0
123.429482 160.0
123.604233 92.0
123.628571 152.0
123.697182 144.0
123.739243 208.0
123.759171 124.0
123.803459 96.0
123.916428 156.0
124.013931 140.0
124.095955 88.0
124.419868 68.0
124.51757 184.0
124.667702 264.0
124.730873 124.0
124.779778 148.0
124.879845 156.0
125.06675 192.0
125.126854 96.0
125.325073 176.0
125.655052 52.0
125.728691 212.0
126.014511 216.0
126.043556 100.0
126.159782 80.0
126.403572 184.0
126.622955 128.0
126.809784 216.0
126.860474 68.0
126.999496 196.0
127.060066 104.0
127.152061 204.0
127.255318 256.0
127.657532 92.0
127.718254 212.0
127.781242 40.0
127.960297 156.0
128.062637 204.0
128.581192 220.0
128.83783 200.0
129.070175 428.0
129.372314 188.0
129.419861 112.0
129.616913 180.0
129.809601 196.0
129.845886 100.0
130.07959 204.0
130.27034 104.0
130.330643 88.0
130.365753 132.0
130.42485 160.0
130.440765 184.0
130.604477 108.0
130.624954 244.0
130.838867 164.0
130.86618 164.0
130.996002 112.0
131.085876 2876.0
131.187424 176.0
131.229477 60.0
131.246704 100.0
131.271774 68.0
131.335632 52.0
131.381256 52.0
131.454269 184.0
131.534149 188.0
131.641464 112.0
131.662018 172.0
131.691696 276.0
131.860779 56.0
131.914581 132.0
132.088333 596.0
132.26561 252.0
132.311844 224.0
132.366348 120.0
132.815536 228.0
132.86142 208.0
132.886658 176.0
133.042725 140.0
133.178207 152.0
133.24942 128.0
133.470062 128.0
133.495361 224.0
133.591965 152.0
133.762238 164.0
133.85434 152.0
134.040924 144.0
134.122269 200.0
134.319885 100.0
134.384476 112.0
134.407547 156.0
134.516022 168.0
134.774689 312.0
134.908737 128.0
135.248779 184.0
135.362213 188.0
135.383057 192.0
135.545212 44.0
135.607788 200.0
135.635605 180.0
135.988159 260.0
136.383011 180.0
136.597595 112.0
136.713272 204.0
137.337662 176.0
137.548981 176.0
137.638702 156.0
137.669067 180.0
137.690079 212.0
137.874649 120.0
138.276901 208.0
139.15126 116.0
139.240494 152.0
139.435501 176.0
139.698837 244.0
139.750595 64.0
140.073135 140.0
140.146164 140.0
140.296997 48.0
140.436127 160.0
140.523407 64.0
140.657913 160.0
140.969681 224.0
141.070816 396.0
141.497147 124.0
141.916504 92.0
141.944962 200.0
142.071838 176.0
142.094391 116.0
142.267639 160.0
142.521759 88.0
142.555069 244.0
142.583542 180.0
142.849838 164.0
143.002136 140.0
143.199738 212.0
143.254532 156.0
143.306946 72.0
143.666946 160.0
143.728973 144.0
143.7836 180.0
144.017838 112.0
144.087112 136.0
144.287872 164.0
144.503113 192.0
144.687408 168.0
144.902954 128.0
145.104263 172.0
145.213348 164.0
145.339325 164.0
145.745102 184.0
146.103348 100.0
146.242905 192.0
146.30069 140.0
146.466843 180.0
146.876602 172.0
147.081711 140.0
147.395676 180.0
147.415009 124.0
147.57695 176.0
147.685776 156.0
148.023209 224.0
148.111786 176.0
148.143265 208.0
148.281387 192.0
148.603897 100.0
148.669418 180.0
148.76651 148.0
148.985062 232.0
149.016647 236.0
149.061203 1148.0
149.12114 172.0
149.281601 32.0
149.447006 176.0
150.065582 128.0
150.207092 156.0
150.504837 108.0
150.993576 152.0
151.28476 192.0
151.671799 112.0
151.899841 200.0
152.017609 48.0
152.680893 80.0
153.414642 160.0
153.456558 180.0
153.606995 188.0
153.646454 220.0
154.03157 136.0
154.149979 108.0
154.298462 136.0
154.496307 156.0
154.560638 136.0
154.671997 108.0
154.877899 128.0
154.956787 116.0
155.028641 172.0
155.087738 180.0
155.110443 72.0
155.137711 76.0
155.313766 236.0
155.435333 144.0
155.695984 176.0
155.797821 160.0
156.009064 60.0
156.890335 128.0
157.07486 68.0
157.224564 208.0
157.269485 196.0
157.724091 248.0
157.8591 212.0
158.049194 172.0
158.647781 108.0
159.044128 116.0
159.064209 252.0
159.091812 132.0
159.285172 40.0
159.584229 196.0
159.677277 144.0
159.785446 148.0
159.941467 176.0
160.095047 132.0
160.121628 152.0
160.321777 216.0
160.359573 196.0
160.442764 116.0
160.61676 180.0
160.793381 100.0
160.965866 160.0
161.283371 220.0
161.306107 148.0
161.407242 128.0
161.55899 132.0
161.589355 72.0
161.976685 84.0
161.996948 132.0
162.066513 1148.0
162.323898 148.0
162.407593 152.0
162.472931 132.0
162.564453 168.0
162.696869 56.0
162.714645 188.0
162.740036 224.0
162.765427 44.0
162.790741 136.0
162.800659 132.0
162.853012 212.0
162.910889 204.0
162.960785 172.0
162.979446 200.0
162.999115 296.0
163.043961 588.0
163.076294 107984.0
163.151413 100.0
163.209076 60.0
163.2435 228.0
163.289108 56.0
163.33847 108.0
163.385574 76.0
163.408478 32.0
163.428833 48.0
163.465225 144.0
163.493469 260.0
163.528076 88.0
163.569489 164.0
163.586258 56.0
163.638031 104.0
163.729202 124.0
163.74939 52.0
163.789368 84.0
163.808426 92.0
163.851471 32.0
163.869308 92.0
163.911041 212.0
163.968689 92.0
164.078568 8236.0
164.115036 256.0
164.136108 172.0
164.153214 116.0
164.205948 132.0
164.233841 152.0
164.26445 40.0
164.296783 172.0
164.319748 140.0
164.353745 152.0
164.394012 112.0
164.414993 88.0
164.471146 84.0
164.502258 64.0
164.53241 52.0
164.578369 60.0
164.657532 44.0
164.675415 108.0
164.748032 56.0
164.805695 56.0
164.888062 224.0
165.017838 60.0
165.078918 768.0
165.120117 108.0
165.145691 56.0
165.181503 96.0
165.224991 76.0
165.253128 88.0
165.292999 104.0
165.317108 128.0
165.340134 108.0
165.365097 112.0
165.3862 80.0
165.429718 36.0
165.452759 96.0
165.675568 76.0
165.734497 120.0
165.808807 44.0
165.865189 52.0
166.090836 148.0
166.124191 92.0
166.172928 104.0
166.252472 68.0
166.319214 80.0
166.34848 128.0
167.005249 64.0
167.203354 120.0
167.262558 48.0
167.283142 208.0
167.929901 172.0
168.337662 136.0
168.440964 168.0
168.466797 140.0
168.937286 128.0
169.108078 180.0
169.157257 168.0
170.454025 104.0
170.531998 140.0
170.958511 100.0
171.015762 196.0
172.147232 72.0
172.311798 140.0
172.34053 76.0
172.47905 64.0
172.750992 112.0
172.873962 52.0
172.905365 52.0
172.976044 128.0
173.099091 104.0
173.132904 14648.0
173.19075 180.0
173.20961 164.0
173.294891 48.0
173.329605 76.0
173.347946 52.0
173.379028 84.0
173.475113 116.0
173.49472 80.0
173.518326 192.0
173.581253 104.0
173.612717 64.0
173.945923 64.0
174.091644 64.0
174.136108 1592.0
174.179626 36.0
174.263702 56.0
174.327271 104.0
174.376694 100.0
174.542313 36.0
174.573868 52.0
174.79483 60.0
174.818512 128.0
175.068604 132.0
175.13913 200.0
176.237167 100.0
177.165802 28.0
177.367203 32.0
177.412262 76.0
178.628494 100.0
178.782822 132.0
179.579407 96.0
179.926315 64.0
179.982376 164.0
180.043793 40.0
181.022568 56.0
181.102905 140.0
182.076492 116.0
182.103348 56.0
183.028442 156.0
183.110107 136.0
184.133026 220.0
184.912735 232.0
185.072449 156.0
185.126602 120.0
186.072922 80.0
186.135361 40.0
186.442337 176.0
188.019165 64.0
189.673904 144.0
190.439438 88.0
192.353119 196.0
193.276184 160.0
193.733017 116.0
194.639954 188.0
194.93718 144.0
195.153992 112.0
195.493347 160.0
195.969498 136.0
196.111618 116.0
197.639191 188.0
201.352707 224.0
201.553268 152.0
202.812637 100.0
203.104691 92.0
204.23233 132.0
205.149231 120.0
207.181107 236.0
207.209763 40.0
208.391815 48.0
209.735748 124.0
210.950989 116.0
214.422501 68.0
215.563553 112.0
219.379135 188.0
219.435135 124.0
221.406067 176.0
222.328064 168.0
222.90416 48.0
228.131638 128.0
229.501495 76.0
229.667358 116.0
230.775665 124.0
231.093246 64.0
232.062454 204.0
232.757294 104.0
233.137009 148.0
233.389313 132.0
233.705643 84.0
233.763458 168.0
236.081879 136.0
237.361893 148.0
238.39946 164.0
240.179001 104.0
240.345596 36.0
241.21962 192.0
241.389664 60.0
242.541367 172.0
243.043762 180.0
243.437988 132.0
243.567291 208.0
243.670944 64.0
244.056351 148.0
244.274048 124.0
244.426498 108.0
244.560318 96.0
244.665283 128.0
244.717285 176.0
244.802322 120.0
244.828064 144.0
244.896591 108.0
244.955765 96.0
245.008728 92.0
245.033646 116.0
245.10968 140.0
245.153671 25380.0
245.262878 192.0
245.285141 40.0
245.306946 92.0
245.359665 92.0
245.407486 76.0
245.488724 104.0
245.537521 180.0
245.571625 144.0
245.610367 48.0
245.660263 84.0
245.703949 88.0
246.10968 64.0
246.156082 2524.0
246.256454 44.0
246.298706 76.0
246.409332 64.0
246.710052 100.0
246.770676 104.0
246.855804 72.0
247.159378 176.0
247.451004 52.0
247.51915 68.0
247.764191 48.0
247.870712 60.0
247.914597 108.0
247.984085 96.0
248.563705 56.0
248.632751 48.0
249.081726 144.0
249.197968 72.0
250.490967 116.0
250.765091 48.0
250.85965 164.0
250.881714 64.0
253.704788 48.0
257.060364 80.0
257.085876 88.0
257.133759 80.0
258.475952 36.0
259.148346 108.0
262.088318 232.0
263.708313 96.0
264.099548 196.0
268.112488 60.0
268.207001 152.0
272.750305 156.0
274.106232 56.0
276.103455 136.0
284.007111 140.0
285.007538 76.0
285.972687 72.0
288.972656 80.0
289.243408 168.0
290.188568 132.0
300.097321 116.0
302.072723 56.0
302.096954 40.0
302.553772 176.0
307.657257 56.0
307.947052 172.0
312.071655 188.0
314.866058 40.0
315.951233 136.0
316.252014 112.0
317.743866 188.0
318.00647 56.0
318.104187 120.0
318.168182 196.0
318.24292 5548.0
318.308228 168.0
318.343719 32.0
318.436066 92.0
318.77356 56.0
319.097015 124.0
319.23996 1484.0
319.37439 76.0
319.990021 44.0
320.257477 316.0
321.123199 108.0
321.237366 68.0
321.562042 108.0
324.025818 72.0
324.240814 160.0
326.963104 36.0
328.140991 96.0
331.647522 108.0
332.263977 48.0
334.877594 40.0
335.533508 72.0
344.950043 104.0
349.288574 92.0
366.681305 48.0
371.994202 60.0
391.053589 64.0
409.944092 100.0
412.624237 128.0
415.361786 40.0
430.249786 36.0
434.873535 56.0
436.46048 76.0
447.182678 96.0
455.546509 152.0
462.946625 108.0
466.980835 64.0
491.22699 112.0
495.958374 44.0
501.438629 108.0
503.022064 68.0
503.749939 96.0
513.133972 44.0
513.52179 96.0
513.950317 56.0
518.417969 28.0
527.511841 68.0
560.273865 84.0
568.933044 32.0
593.887024 48.0
598.55249 60.0
602.66925 32.0
609.145935 48.0
611.579956 80.0
645.224731 52.0
680.891724 92.0
686.762573 236.0
696.267151 96.0
700.733093 184.0
704.970154 68.0
707.832031 160.0
716.010132 188.0
717.235596 200.0
725.971741 208.0
740.60437 124.0
742.528442 144.0
744.753723 180.0
750.195251 84.0
753.180115 180.0
753.420471 244.0
759.973999 52.0
761.209045 168.0
763.88562 204.0
765.295532 108.0
767.250366 264.0
769.1922 228.0
769.887878 164.0
771.733459 56.0
771.849609 204.0
776.102112 192.0
776.329407 64.0
778.082825 200.0
778.638123 172.0
784.385742 56.0
787.331665 60.0
787.717041 184.0
791.04425 128.0
792.758118 76.0
792.920654 60.0
793.251343 56.0
793.862488 76.0
794.176575 176.0
794.468262 152.0
796.657654 216.0
798.102051 224.0
799.069458 172.0
804.242615 244.0
804.598267 72.0
808.130615 168.0
812.317078 224.0
814.764038 144.0
816.207642 208.0
818.785522 160.0
820.956848 56.0
821.898071 148.0
822.440186 148.0
823.47937 148.0
823.553589 76.0
823.982056 180.0
825.531067 176.0
829.590515 148.0
829.923035 148.0
830.995605 232.0
831.437439 228.0
831.856445 164.0
835.384766 196.0
836.944458 224.0
837.226624 120.0
837.272705 136.0
838.309631 168.0
840.206055 196.0
841.638 188.0
842.08844 208.0
845.615295 128.0
845.812073 96.0
846.587891 148.0
846.709473 200.0
851.482605 192.0
852.429504 188.0
852.638733 168.0
852.836304 208.0
853.892456 104.0
854.761292 164.0
855.517944 108.0
858.355347 128.0
858.909424 208.0
862.354309 188.0
867.798462 152.0
868.062378 220.0
869.975098 136.0
870.932251 180.0
873.177429 152.0
875.242981 152.0
875.719971 124.0
876.332642 176.0
877.104675 84.0
877.451599 220.0
880.656738 168.0
883.251526 212.0
883.517761 204.0
885.482971 188.0
885.636963 96.0
886.401184 112.0
887.841736 276.0
888.114563 228.0
888.802734 192.0
888.897644 120.0
889.188416 196.0
889.894836 196.0
890.42926 196.0
890.494629 148.0
893.437012 168.0
894.002258 124.0
894.94873 152.0
896.211426 220.0
897.952148 184.0
899.993042 196.0
901.486389 152.0
904.195435 188.0
904.734192 124.0
905.854004 60.0
906.39325 200.0
907.370178 220.0
909.001648 112.0
909.373718 160.0
909.77594 140.0
910.682617 76.0
911.908325 32.0
914.314026 180.0
914.410339 168.0
915.295288 188.0
916.463806 180.0
917.741638 152.0
918.43512 136.0
918.893616 192.0
920.571594 252.0
921.393066 144.0
921.640808 128.0
922.861755 168.0
924.767334 152.0
925.899475 168.0
927.4505 176.0
928.141663 112.0
928.881531 248.0
929.08783 172.0
929.985901 172.0
932.075012 144.0
936.235901 212.0
936.357666 56.0
936.546509 184.0
937.521301 140.0
937.582214 132.0
938.015015 128.0
939.246704 172.0
939.344299 48.0
940.198547 196.0
941.486694 60.0
941.572144 268.0
941.749268 200.0
944.389709 44.0
944.860779 128.0
945.050415 208.0
947.762878 120.0
948.994873 204.0
949.700073 76.0
951.007019 164.0
951.283203 184.0
951.669983 148.0
952.314819 160.0
953.033569 160.0
953.789429 132.0
954.170593 172.0
954.434998 208.0
955.062256 96.0
955.105347 148.0
956.132812 140.0
956.2005 92.0
956.385132 176.0
956.908386 164.0
957.09314 232.0
957.401001 132.0
957.505737 140.0
960.458008 180.0
960.920715 168.0
961.284729 100.0
962.636658 168.0
963.025696 144.0
963.58783 156.0
965.337097 120.0
965.386597 132.0
965.930847 248.0
967.6203 160.0
968.524414 212.0
970.054932 164.0
970.098328 92.0
970.259521 176.0
970.451721 204.0
971.456421 132.0
971.506042 196.0
971.98999 176.0
974.472656 228.0
974.703552 92.0
976.170532 168.0
976.798706 124.0
977.203064 244.0
977.999634 172.0
978.273499 144.0
978.391785 188.0
978.634644 136.0
978.877441 176.0
979.039368 164.0
979.344543 184.0
979.986206 144.0
980.173096 176.0
980.933472 164.0
981.376099 120.0
982.704651 124.0
983.971619 40.0
985.576782 124.0
986.251709 172.0
986.520508 96.0
986.670532 96.0
988.853638 216.0
989.091492 164.0
989.529724 128.0
989.842773 128.0
991.289795 148.0
991.847595 172.0
992.712769 96.0
992.844482 144.0
993.691284 120.0
996.108276 140.0
998.119385 248.0
998.421265 84.0
998.999939 164.0
1000.174255 192.0
1000.913208 132.0
1002.002869 156.0
1002.091064 160.0
1002.229675 64.0
1003.200256 148.0
1004.467773 196.0
1004.865234 68.0
1005.89386 152.0
1006.121155 148.0
1006.316833 244.0
1006.405212 176.0
1007.068298 108.0
1007.516846 180.0
1007.845337 208.0
1008.357239 236.0
1009.887268 184.0
1010.190918 76.0
1010.48822 192.0
1010.595825 180.0
1012.197205 120.0
1012.47583 156.0
1012.608826 188.0
1013.964661 160.0
1014.129456 120.0
1014.357666 128.0
1014.966248 164.0
1016.196777 148.0
1016.88208 116.0
1017.421631 172.0
1018.259827 176.0
1019.543152 120.0
1021.380615 176.0
1021.991333 188.0
1022.035889 172.0
1022.144043 192.0
1022.379517 196.0
1022.895081 84.0
1022.984192 208.0
1023.633606 212.0
1024.722778 212.0
1024.862915 152.0
1025.557617 248.0
1025.691406 240.0
1026.163208 140.0
1027.040649 168.0
1027.158081 172.0
1027.451538 120.0
1027.563721 204.0
1027.65564 68.0
1028.217163 276.0
1028.919312 136.0
1030.196655 176.0
1030.279663 196.0
1031.257324 188.0
1031.487427 124.0
1034.519531 248.0
1034.762817 180.0
1035.255859 224.0
1035.377563 56.0
1035.524902 152.0
1035.928467 88.0
1036.062988 180.0
1036.581909 156.0
1038.473145 208.0
1038.935059 148.0
1039.319946 252.0
1040.218506 92.0
1040.456177 152.0
1040.706421 132.0
1041.252197 144.0
1041.618286 152.0
1042.710571 136.0
1043.109131 148.0
1044.330811 216.0
1044.562378 192.0
1047.452637 164.0
1047.716797 76.0
1049.005615 68.0
1049.592285 136.0
1051.359863 224.0
1051.495361 200.0
1052.631592 160.0
1053.490601 156.0
1053.981567 148.0
1057.253662 164.0
1058.515991 104.0
1058.833374 248.0
1059.163696 44.0
1059.863281 204.0
1059.908691 212.0
1060.278076 160.0
1062.430786 216.0
1062.631958 160.0
1062.794067 156.0
1063.02124 184.0
1064.333862 180.0
1064.42981 44.0
1067.30188 144.0
1068.264526 168.0
1068.420654 232.0
1068.589722 140.0
1068.856567 128.0
1069.109985 132.0
1069.292603 156.0
1069.468262 144.0
1070.08667 248.0
1071.571655 172.0
1071.864868 252.0
1071.936523 52.0
1073.155518 148.0
1073.533691 52.0
1073.814087 184.0
1074.287598 148.0
1076.424561 148.0
1077.404175 208.0
1077.613281 144.0
1077.750488 192.0
1079.332275 152.0
1079.822754 204.0
1080.221802 164.0
1080.588135 172.0
1080.673218 168.0
1081.085449 124.0
1081.707153 156.0
1085.087524 216.0
1085.258057 184.0
1085.356445 196.0
1085.579346 148.0
1086.996338 208.0
1087.101318 164.0
1088.105591 144.0
1088.886963 252.0
1089.064331 160.0
1089.123413 176.0
1089.221924 148.0
1090.74646 200.0
1091.384155 196.0
1091.509033 192.0
1091.680054 136.0
1092.17981 188.0
1092.607422 192.0
1092.771973 100.0
1093.120605 120.0
1093.476074 76.0
1094.173828 152.0
1094.680786 108.0
1095.187866 224.0
1097.342773 128.0
1097.408691 152.0
1097.527344 144.0
1097.632935 196.0
1098.153931 188.0
1098.490234 152.0
1098.978516 220.0
1099.209473 108.0
1099.829834 200.0
1100.450317 196.0
1101.559814 188.0
1101.698608 224.0
1102.200684 188.0
1102.570801 128.0
1102.815308 96.0
1103.377197 196.0
1104.0979 168.0
1104.230225 156.0
1104.679932 136.0
1106.089478 100.0
1106.950195 152.0
1107.645508 172.0
1107.950317 212.0
1108.513428 156.0
1108.937622 188.0
1109.859131 228.0
1110.310059 148.0
1110.754395 140.0
1111.21875 228.0
1112.639038 188.0
1112.685547 180.0
1113.097168 80.0
1113.55542 204.0
1114.026978 256.0
1114.106812 212.0
1115.415894 248.0
1117.164795 52.0
1117.311157 68.0
1117.810181 72.0
1118.029785 176.0
1118.582153 224.0
1120.233643 240.0
1121.339722 224.0
1121.393066 140.0
1121.466309 152.0
1122.07959 236.0
1122.192993 48.0
1123.166626 248.0
1123.820435 236.0
1124.147339 168.0
1125.095215 120.0
1125.408936 192.0
1125.485962 164.0
1126.130249 48.0
1126.464111 132.0
1126.597778 212.0
1126.751465 184.0
1128.703125 144.0
1129.057495 156.0
1129.117676 184.0
1129.177856 160.0
1129.860229 252.0
1130.526123 188.0
1130.950928 172.0
1131.225342 108.0
1133.388672 180.0
1133.763916 184.0
1134.212891 196.0
1134.796143 80.0
1135.319214 132.0
1136.627319 64.0
1136.7146 128.0
1137.224609 200.0
1137.38562 236.0
1140.556152 216.0
1140.999756 192.0
1141.22168 212.0
1141.309082 136.0
1142.062256 200.0
1143.498047 216.0
1143.656982 56.0
1144.148315 132.0
1144.518677 132.0
1144.889038 236.0
1146.856323 92.0
1146.994873 128.0
1147.429321 208.0
1147.867554 232.0
1148.245239 252.0
1148.454346 188.0
1149.209839 244.0
1149.385254 184.0
1150.289673 96.0
1151.707642 188.0
1151.917114 116.0
1152.221069 168.0
1152.308838 244.0
1153.194092 212.0
1153.255005 152.0
1153.342896 172.0
1153.396851 80.0
1153.518555 152.0
1153.883667 72.0
1154.356934 132.0
1155.635376 168.0
1156.230835 164.0
1156.501587 292.0
1156.555786 136.0
1159.285156 72.0
1159.46814 240.0
1159.861206 156.0
1159.928955 184.0
1160.467773 172.0
1160.627319 168.0
1160.722168 116.0
1161.101929 200.0
1161.1698 52.0
1161.655518 272.0
1163.076416 176.0
1164.400391 176.0
1165.528076 152.0
1165.630005 136.0
1165.981689 212.0
1166.085327 80.0
1166.234863 192.0
1166.377563 156.0
1166.601929 64.0
1166.880615 172.0
1167.424561 156.0
1167.48584 212.0
1167.537231 140.0
1168.240723 196.0
1168.580933 128.0
1169.220581 188.0
1169.736328 176.0
1169.81958 116.0
1170.364258 144.0
1171.188232 140.0
1172.605469 224.0
1172.939453 52.0
1175.401489 212.0
1175.51062 80.0
1176.780273 152.0
1176.88562 252.0
1177.461426 148.0
1177.872925 176.0
1178.252319 192.0
1178.465576 180.0
1178.515137 188.0
1179.089111 132.0
1179.143799 148.0
1179.253174 140.0
1179.396606 208.0
1180.702515 188.0
1181.831299 140.0
1182.057007 128.0
1182.809937 184.0
1183.049438 44.0
1183.179565 204.0
1183.624634 212.0
1185.878418 132.0
1188.086426 184.0
1188.175659 140.0
1188.539307 176.0
1188.861816 168.0
1189.918945 264.0
1190.118042 128.0
1190.248413 228.0
1190.48877 80.0
1191.608398 128.0
1191.663452 108.0
1191.965698 176.0
1192.501709 212.0
1193.649902 160.0
1194.02124 180.0
1194.179321 52.0
1195.17688 188.0
1195.527832 252.0
1195.933838 164.0
1196.112915 80.0
1196.484619 264.0
1196.959717 228.0
1197.655273 192.0
1197.737915 172.0
1198.089233 132.0
1198.775635 128.0
1199.226196 120.0
1200.13623 124.0
1201.260376 40.0
1201.315552 100.0
1201.522461 208.0
1202.012329 132.0
1202.557617 64.0
1203.669067 212.0
1203.965942 168.0
1204.02124 140.0
1204.152466 204.0
1205.216309 176.0
1205.561768 108.0
1206.418823 128.0
1206.633179 208.0
1207.317749 180.0
1208.078613 136.0
1208.126953 128.0
1208.777344 140.0
1208.857788 204.0
1209.76709 72.0
1210.805664 172.0
1210.909668 172.0
1210.98584 140.0
1211.456787 212.0
1212.195679 180.0
1212.627808 196.0
1212.974365 104.0
1213.099243 148.0
1213.473511 184.0
1213.709351 200.0
1213.93811 208.0
1214.035156 184.0
1214.08374 100.0
1214.409668 252.0
1214.812012 164.0
1214.902222 144.0
1215.124268 120.0
1215.609985 52.0
1215.769531 168.0
1218.151001 60.0
1218.276123 184.0
1219.033447 168.0
1219.339233 208.0
1219.7146 188.0
1220.083008 140.0
1220.833862 144.0
1221.543335 108.0
1222.253052 164.0
1222.587036 196.0
1222.760986 128.0
1223.206421 136.0
1224.72168 224.0
1224.814941 136.0
1225.212036 244.0
1227.595825 160.0
1227.651611 128.0
1227.763184 164.0
1228.286255 176.0
1229.625977 176.0
1229.870239 204.0
1230.25415 200.0
1230.330933 140.0
1230.680054 232.0
1231.90918 240.0
1231.965088 112.0
1232.153687 60.0
1232.642822 68.0
1232.922363 200.0
1234.442383 172.0
1234.740112 96.0
1234.914429 168.0
1234.998779 184.0
1235.15271 128.0
1235.278687 152.0
1235.362549 188.0
1235.628418 92.0
1235.747314 196.0
1235.838257 116.0
1236.104248 156.0
1236.495239 192.0
1236.643066 104.0
1236.748047 28.0
1237.34314 156.0
1238.540527 128.0
1239.213135 172.0
1241.217773 272.0
1241.827881 204.0
1243.07666 196.0
1243.216919 116.0
1243.581909 152.0
1244.31897 172.0
1244.452393 184.0
1245.210815 128.0
1246.215332 180.0
1247.164062 204.0
1247.68811 164.0
1247.90918 76.0
1248.338135 220.0
1248.57019 108.0
1249.308716 228.0
1249.421265 152.0
1251.251099 136.0
1251.406006 188.0
1251.983398 180.0
1252.152466 136.0
1252.814575 144.0
1253.15979 184.0
1253.934937 128.0
1254.802002 208.0
1254.971191 192.0
1257.080322 260.0
1257.468384 148.0
1257.524902 136.0
1257.593994 92.0
1258.188477 212.0
1258.845093 136.0
1259.254639 132.0
1259.452393 204.0
1259.515991 172.0
1260.229492 192.0
1260.356689 148.0
1261.148193 148.0
1261.692505 116.0
1261.826904 188.0
1261.984009 164.0
1262.321777 160.0
1262.449097 180.0
1262.795654 196.0
1263.163452 72.0
1263.849731 148.0
1264.175171 140.0
1264.614014 44.0
1264.720215 44.0
1264.985474 164.0
1265.583862 172.0
1265.697144 140.0
1265.902466 160.0
1265.973267 168.0
1266.07959 204.0
1266.376953 192.0
1266.589478 136.0
1267.283691 200.0
1267.680542 176.0
1267.730103 156.0
1268.864258 148.0
1268.91394 228.0
1269.473999 232.0
1269.552002 116.0
1270.055664 244.0
1270.642578 124.0
1271.027588 192.0
1271.268799 180.0
1271.424927 164.0
1271.559814 144.0
1271.914673 144.0
1272.539429 140.0
1273.164307 136.0
1273.427002 172.0
1273.533569 60.0
1274.009521 172.0
1274.298706 200.0
1275.032715 144.0
1275.515991 120.0
1276.703369 232.0
1276.852783 132.0
1277.05188 176.0
1277.115845 140.0
1277.208374 168.0
1277.5 148.0
1277.677856 156.0
1277.812988 164.0
1279.805908 180.0
1279.898438 176.0
1279.969727 156.0
1280.347168 172.0
1281.8573 88.0
1282.113892 180.0
1282.320557 188.0
1282.422852 180.0
1282.890869 152.0
1283.432617 208.0
1283.5896 128.0
1284.894775 136.0
1285.230103 196.0
1285.348755 236.0
1285.437012 56.0
1286.557617 204.0
1286.928955 156.0
1286.985962 148.0
1287.314453 216.0
1288.471558 124.0
1288.828857 172.0
1288.993164 176.0
1290.680176 40.0
1291.366943 176.0
1291.460083 140.0
1292.260864 192.0
1293.169678 228.0
1293.74231 152.0
1295.102905 164.0
1295.425171 156.0
1295.61145 124.0
1295.948242 144.0
1296.815308 176.0
1297.496338 156.0
1298.292236 64.0
1298.457153 188.0
1298.70813 164.0
1299.031006 164.0
1299.360962 268.0
1301.026001 164.0
1301.234131 136.0
1302.735107 156.0
1303.590088 116.0
1303.71228 172.0
1303.769775 188.0
1303.877563 180.0
1304.143555 160.0
1304.970215 176.0
1305.674927 192.0
1306.092041 184.0
1306.155151 168.0
1306.523682 148.0
1306.653198 236.0
1307.372803 152.0
1307.459106 168.0
1308.006104 112.0
1308.740479 100.0
1308.884399 204.0
1309.064453 152.0
1309.496582 160.0
1309.59021 220.0
1310.036865 204.0
1310.101685 196.0
1310.735718 176.0
1310.9375 148.0
1311.305054 224.0
1311.571655 196.0
1311.643799 168.0
1311.946533 168.0
1312.371948 160.0
1312.955933 156.0
1313.331055 188.0
1313.489746 188.0
1314.470947 160.0
1314.889526 148.0
1316.022827 132.0
1316.513794 264.0
1316.925537 128.0
1318.341553 136.0
1319.151001 132.0
1319.36792 180.0
1320.069214 68.0
1320.307861 136.0
1321.552124 208.0
1321.950073 244.0
1322.594238 188.0
1322.760742 104.0
1322.970581 224.0
1323.281982 188.0
1323.636719 260.0
1324.278198 196.0
1324.947754 176.0
1325.35144 132.0
1325.46936 400.0
1325.875244 112.0
1326.295532 152.0
1326.614746 208.0
1327.457886 160.0
1327.760132 148.0
1328.529053 220.0
1328.957031 156.0
1329.138428 124.0
1329.435913 176.0
1329.96582 192.0
1330.314209 168.0
1330.394043 168.0
1331.199951 208.0
1331.359741 192.0
1332.071533 188.0
1333.764648 220.0
1333.888184 172.0
1334.564331 168.0
1335.146118 160.0
1335.982544 120.0
1337.234131 28.0
1337.889282 188.0
1338.559082 172.0
1338.901367 192.0
1338.995972 164.0
1339.666138 144.0
1340.241699 192.0
1340.511353 160.0
1341.713989 144.0
1342.592651 208.0
1342.815063 100.0
1345.076904 176.0
1345.478394 72.0
1345.821533 96.0
1346.018799 236.0
1346.566406 168.0
1346.68335 68.0
1346.800171 112.0
1346.975464 152.0
1347.120728 196.0
1348.042236 188.0
1348.926514 172.0
1349.226318 172.0
1349.876953 164.0
1351.105835 204.0
1351.310669 96.0
1351.449707 136.0
1351.500854 236.0
1351.595947 152.0
1351.881348 104.0
1352.247314 184.0
1352.986572 168.0
1354.854126 128.0
1355.710083 172.0
1355.909302 224.0
1356.297729 128.0
1356.370972 232.0
1357.910767 148.0
1357.991455 224.0
1358.228271 200.0
1358.438965 116.0
1358.658936 112.0
1358.805664 200.0
1359.305664 172.0
1359.532104 96.0
1359.7229 172.0
1360.743286 148.0
1361.308716 52.0
1361.661133 208.0
1362.006348 108.0
1362.116577 184.0
1362.256104 52.0
1363.034912 128.0
1364.071167 160.0
1364.133545 184.0
1364.294556 200.0
1364.438843 176.0
1364.953491 156.0
1365.321167 172.0
1365.578613 244.0
1365.806519 152.0
1366.071411 120.0
1366.130249 168.0
1366.28479 132.0
1367.565063 148.0
1367.727051 120.0
1367.903687 148.0
1369.008179 196.0
1369.449951 168.0
1369.508911 148.0
1370.180908 196.0
1370.341309 200.0
1370.982422 80.0
1371.166626 140.0
1371.896362 180.0
1371.977539 144.0
1372.456787 132.0
1373.068848 220.0
1373.784302 212.0
1374.308105 144.0
1375.000854 164.0
1375.230591 68.0
1375.680786 48.0
1376.168091 140.0
1376.219727 160.0
1376.840088 96.0
1376.980347 200.0
1377.209351 100.0
1377.482666 168.0
1377.640503 256.0
1378.044067 208.0
1378.206665 128.0
1378.901245 176.0
1380.59436 232.0
1380.646118 176.0
1380.816162 164.0
1381.518921 208.0
1382.689331 176.0
1383.050659 100.0
1383.243042 204.0
1383.383789 124.0
1383.642822 200.0
1383.983398 160.0
1384.672119 200.0
1385.279541 152.0
1386.361206 184.0
1386.479858 188.0
1386.754028 108.0
1387.416382 188.0
1387.651001 176.0
1388.081055 188.0
1388.170044 48.0
1388.377686 240.0
1388.61499 160.0
1389.030396 192.0
1389.119385 216.0
1389.186157 184.0
1389.30481 200.0
1389.497681 312.0
1389.705444 200.0
1389.876099 64.0
1390.328857 112.0
1390.818604 140.0
1391.293701 96.0
1391.523926 132.0
1392.466919 192.0
1392.56665 200.0
1392.949707 192.0
1393.373169 156.0
1393.633301 96.0
1394.25 160.0
1394.591919 60.0
1394.852051 136.0
1395.246094 224.0
1395.818604 140.0
1396.130859 104.0
1396.272217 192.0
1396.354004 96.0
1397.566528 220.0
1397.923706 216.0
1398.385132 128.0
1398.7052 80.0
1398.958252 188.0
1399.449707 128.0
1400.373047 124.0
1400.462402 136.0
1400.566772 156.0
1401.155273 172.0
1401.274414 196.0
1401.684204 204.0
1401.861694 104.0
1402.299194 156.0
1402.399658 196.0
1402.869263 192.0
1403.219727 220.0
1403.846069 156.0
1404.144287 128.0
1404.77832 204.0
1405.173706 156.0
1405.345337 148.0
1405.934814 48.0
1406.016968 180.0
1406.267212 160.0
1406.509521 36.0
1406.643921 168.0
1407.592041 188.0
1407.890747 220.0
1407.980347 152.0
1408.510742 216.0
1408.637695 88.0
1409.78833 136.0
1410.123291 188.0
1411.096436 172.0
1412.233032 96.0
1412.330322 236.0
1412.621948 96.0
1413.467407 228.0
1414.904541 184.0
1415.121582 224.0
1415.403809 200.0
1415.518433 184.0
1415.997803 240.0
1417.024048 204.0
1417.413574 212.0
1418.238037 212.0
1418.8302 176.0
1418.897705 152.0
1419.220093 164.0
1420.464966 60.0
1420.532471 152.0
1421.470337 140.0
1421.575439 136.0
1422.288452 52.0
1422.385986 180.0
1422.446045 148.0
1422.866455 140.0
1423.737427 56.0
1423.865112 196.0
1424.105469 156.0
1424.368408 228.0
1424.683838 48.0
1425.558472 232.0
1425.623047 216.0
1425.840576 180.0
1425.976318 244.0
1427.592651 72.0
1427.645264 36.0
1427.810791 220.0
1427.893555 136.0
1428.698364 40.0
1428.758545 188.0
1429.879761 188.0
1430.015137 204.0
1430.255981 172.0
1430.368896 84.0
1430.730225 188.0
1430.875977 100.0
1431.325073 132.0
1431.641357 52.0
1432.5 104.0
1433.140381 152.0
1433.713013 28.0
1433.931641 160.0
1434.421509 176.0
1435.130249 144.0
1435.364014 100.0
1435.439331 132.0
1435.642944 176.0
1436.759277 132.0
1437.423218 164.0
1437.838379 172.0
1438.185547 164.0
1440.11084 156.0
1440.292114 88.0
1440.375244 208.0
1440.571655 116.0
1440.941895 204.0
1441.095581 420.0
1441.417847 124.0
1441.508545 152.0
1442.181152 164.0
1442.816162 88.0
1442.929565 156.0
1443.273438 212.0
1443.473999 212.0
1444.041138 144.0
1444.146973 120.0
1444.366333 168.0
1444.926147 208.0
1445.092651 172.0
1446.083984 204.0
1446.212646 164.0
1446.924194 40.0
1447.310303 220.0
1447.529907 160.0
1448.405029 168.0
1448.461426 128.0
1448.620605 228.0
1449.49939 52.0
1449.575195 176.0
1450.575684 196.0
1450.663574 160.0
1450.757568 176.0
1451.364136 40.0
1451.591553 164.0
1452.061768 156.0
1452.425903 184.0
1452.501709 172.0
1452.873413 164.0
1452.979614 168.0
1453.116211 104.0
1454.300049 132.0
1454.846558 180.0
1455.917114 240.0
1455.977905 140.0
1456.091797 264.0
1456.247559 96.0
1456.410767 88.0
1457.911133 208.0
1458.827271 40.0
1458.906372 156.0
1459.169312 384.0
1459.435425 144.0
1459.648315 164.0
1460.591431 208.0
1460.697876 160.0
1460.986938 196.0
1461.45874 164.0
1461.702148 140.0
1461.900024 124.0
1462.189209 164.0
1463.559448 116.0
1463.650879 268.0
1464.023926 112.0
1464.503784 236.0
1464.777954 188.0
1465.608398 132.0
1465.829346 160.0
1466.431396 76.0
1466.964966 208.0
1467.124023 144.0
1467.811279 168.0
1468.177368 144.0
1469.245239 36.0
1469.413086 120.0
1469.494385 180.0
1469.596191 156.0
1469.664795 148.0
1469.771606 200.0
1470.237183 188.0
1470.481323 208.0
1470.672119 112.0
1471.271851 152.0
1471.527222 184.0
1471.824951 188.0
1472.244995 60.0
1472.833008 128.0
1473.046875 164.0
1473.283691 100.0
1475.148315 112.0
1476.494019 120.0
1477.930786 224.0
1478.184692 224.0
1478.299438 212.0
1478.682129 132.0
1478.988281 176.0
1479.217896 156.0
1479.97583 152.0
1480.075439 172.0
1480.266846 176.0
1480.435303 268.0
1480.54248 180.0
1480.682495 216.0
1481.071045 128.0
1481.729858 156.0
1482.672241 184.0
1482.733643 144.0
1483.162842 220.0
1484.052124 200.0
1484.573486 144.0
1484.89563 188.0
1485.355835 180.0
1486.199707 168.0
1486.552734 132.0
1486.88269 236.0
1487.128296 96.0
1487.189697 36.0
1488.026489 212.0
1488.249146 156.0
1489.969482 168.0
1490.046387 132.0
1490.476685 148.0
1490.945435 144.0
1491.160522 40.0
1491.469971 196.0
1492.567383 224.0
1493.544067 184.0
1493.897949 212.0
1494.405762 64.0
1495.052124 192.0
1495.105957 116.0
1495.367676 124.0
1495.937256 156.0
1496.599365 112.0
1497.461792 164.0
1498.678955 108.0
1499.17981 128.0
1499.303101 132.0
1499.39563 152.0
1499.865845 136.0
1499.958252 120.0
1500.706055 152.0
1501.207275 144.0
1501.793457 120.0
1502.310303 44.0
1502.456787 60.0
1502.634277 184.0
1502.881226 196.0
1503.10498 128.0
1503.259277 148.0
1503.490845 176.0
1504.262573 128.0
1504.55603 56.0
