>compound MLS002153303-01!
>formula C18H20N2O6
>ionization [M+H]+
>parentmass 361.138
#inchi InChI=1S/C18H20N2O6/c1-5-26-18(22)15-11(3)19-10(2)14(17(21)25-4)16(15)12-7-6-8-13(9-12)20(23)24/h6-9,16,22H,5H2,1-4H3/b18-15+
#inchikey OYFHPBSUARUOQE
#Ion_Source LC-ESI
#Instrument qTof
#Compound_Source NIH Pharmacologically Active Library
#PI Dorrestein
#Data_Collector VP/LMS
#Scan -1
#Precursor_MZ 361.138
#ExactMass 360.132
#Charge 1
#CAS_Number N/A
#Pubmed_ID N/A
#Smiles CCO/C(=C\1/C(C(=C(C)N=C1C)C(=O)OC)c2cccc(c2)[N+](=O)[O-])/O
#INCHI_AUX N/A
#Library_Class 1
#SpectrumID CCMSLIB00000085005
#IonMode Positive
#UpdateWorkflowName UPDATE-SINGLE-ANNOTATED-GOLD
#LibraryQualityString Gold
#TaskID d252d724072548979f1f6f1ced849daf
##Scan# 2305
#SpectrumFile p3-D08_GD8_01_18265.mzXML
#LibraryName Pharm_Active_Library.mgf
#MQScore -1
#Organism Pharm_Active_Library
#TIC_Query 0
#RT_Query -1
#MZErrorPPM -1
#SharedPeaks 0
#MassDiff 0
#LibMZ -1
#SpecMZ 361.138
#SpecCharge 0
#internalFilename spec-00000.mgf

>collision 10
45.052788 80.0
45.174446 132.0
45.234669 176.0
45.361931 160.0
45.453136 108.0
45.513542 160.0
45.612965 204.0
45.639854 44.0
45.790581 128.0
45.863342 112.0
45.936161 240.0
46.405468 184.0
46.494999 148.0
46.705605 180.0
47.008072 208.0
47.118679 144.0
47.159676 120.0
47.334797 224.0
47.470467 204.0
47.736885 116.0
48.059227 120.0
48.195927 220.0
48.433891 124.0
48.515656 172.0
48.787766 164.0
49.198757 176.0
49.834904 164.0
49.956303 184.0
50.097729 128.0
50.113228 92.0
50.582115 148.0
51.243935 56.0
51.310925 160.0
51.930134 116.0
52.070793 136.0
52.1297 120.0
52.257679 60.0
52.48238 192.0
52.496799 136.0
52.534302 136.0
52.555943 188.0
52.768272 204.0
53.541729 152.0
53.718102 180.0
53.842175 60.0
54.569019 184.0
54.755909 208.0
56.071602 244.0
56.228203 148.0
56.286427 84.0
56.408943 144.0
56.594463 184.0
56.694832 196.0
56.834293 136.0
57.044563 116.0
57.235641 160.0
57.283836 216.0
57.305515 124.0
57.336575 76.0
57.652 168.0
58.122971 92.0
58.192795 120.0
58.378181 268.0
58.608044 116.0
58.862785 112.0
59.040062 120.0
59.056885 128.0
59.096661 84.0
59.18544 152.0
59.272755 160.0
59.319855 224.0
59.395409 220.0
59.653118 156.0
59.767204 184.0
60.36779 172.0
60.588627 156.0
60.619617 152.0
60.866268 144.0
61.149212 36.0
61.227062 128.0
61.812492 72.0
61.950275 168.0
62.020794 104.0
62.096054 56.0
62.133705 196.0
62.216885 144.0
62.397564 76.0
62.76759 212.0
62.931694 160.0
63.018566 140.0
63.260548 160.0
63.39201 68.0
63.450661 148.0
63.696644 204.0
64.212364 232.0
64.47261 100.0
64.726967 44.0
64.768608 56.0
64.869568 56.0
66.330093 168.0
66.744102 100.0
66.856346 108.0
67.024078 184.0
67.097427 184.0
67.20018 104.0
67.260567 168.0
67.559616 52.0
68.048019 172.0
68.676674 144.0
68.821899 224.0
69.028458 172.0
69.492256 160.0
69.618416 132.0
69.638351 164.0
69.841133 92.0
69.932648 128.0
70.017563 128.0
70.289299 136.0
70.546478 192.0
71.052292 148.0
71.618813 148.0
72.331398 156.0
73.120682 120.0
73.79451 164.0
73.844101 136.0
73.866341 88.0
74.612343 168.0
74.806747 84.0
74.892845 168.0
75.115211 176.0
75.19976 212.0
75.305084 168.0
76.816566 192.0
76.970596 204.0
77.173286 140.0
77.537407 136.0
78.16964 96.0
78.417961 120.0
78.585495 116.0
78.622551 248.0
78.772636 92.0
78.83448 112.0
79.38327 200.0
79.592667 184.0
79.903717 196.0
79.958878 76.0
80.083511 136.0
80.318802 88.0
80.452644 144.0
80.509781 188.0
80.55265 196.0
80.659866 124.0
80.765366 160.0
81.100204 128.0
81.209579 168.0
81.284935 192.0
81.356728 76.0
81.401619 260.0
81.601067 128.0
81.62265 172.0
81.703583 36.0
82.603798 204.0
82.683418 180.0
82.786613 116.0
82.960556 68.0
83.085693 212.0
83.200027 124.0
83.221817 160.0
83.472572 160.0
83.716431 132.0
83.969757 152.0
84.192413 56.0
84.776009 212.0
84.88784 156.0
84.950195 176.0
85.049294 152.0
86.047073 188.0
87.841705 140.0
87.972336 144.0
88.162857 176.0
88.314301 56.0
88.454636 200.0
88.6082 212.0
88.671913 164.0
88.91198 148.0
89.227562 52.0
89.379913 208.0
89.566299 220.0
89.690666 108.0
89.977409 132.0
90.030281 140.0
90.060501 128.0
90.160637 120.0
90.450027 136.0
90.874542 172.0
91.494141 80.0
91.513184 112.0
91.673195 236.0
91.764687 224.0
91.924919 192.0
92.293587 80.0
92.442795 212.0
92.893059 80.0
92.96405 104.0
93.40596 276.0
93.872055 184.0
93.897125 188.0
94.383781 240.0
94.40892 176.0
94.463081 160.0
95.376411 136.0
95.5242 100.0
96.095024 44.0
96.143814 116.0
96.237511 132.0
96.38987 164.0
96.955437 204.0
97.102478 184.0
97.54821 76.0
97.748825 188.0
97.892525 140.0
98.338089 132.0
98.498032 88.0
98.64624 152.0
98.966743 232.0
98.980606 148.0
99.047943 160.0
99.295708 148.0
99.627205 124.0
99.798126 152.0
100.064743 116.0
100.281883 40.0
100.752823 176.0
100.892715 176.0
101.040718 160.0
101.304977 92.0
102.045547 216.0
102.136047 156.0
102.675842 196.0
102.940216 108.0
103.219078 216.0
103.934128 244.0
103.952393 208.0
104.025459 336.0
104.470512 136.0
105.030708 116.0
105.114357 152.0
105.290619 176.0
105.383896 88.0
105.719254 152.0
105.81546 140.0
106.044891 224.0
106.062775 180.0
106.200722 132.0
106.325882 48.0
106.562027 132.0
106.652451 124.0
106.82724 164.0
106.981583 172.0
107.06601 128.0
107.457664 172.0
107.980301 196.0
108.27005 104.0
108.483055 180.0
108.713699 116.0
109.418358 132.0
109.616234 180.0
109.839317 128.0
110.073631 224.0
110.152443 48.0
110.403259 128.0
110.505753 52.0
110.941383 204.0
111.098671 108.0
111.649002 204.0
111.749969 188.0
111.973114 72.0
112.171173 136.0
112.242859 204.0
112.318787 216.0
113.507393 184.0
113.594353 152.0
114.070023 172.0
114.433823 156.0
114.544563 140.0
114.561607 160.0
115.054626 312.0
115.163155 56.0
116.05394 196.0
116.154213 192.0
116.55999 112.0
116.865326 200.0
116.895454 192.0
117.078438 212.0
117.177528 44.0
117.971733 164.0
118.040771 380.0
118.365517 148.0
118.790321 60.0
118.853233 184.0
119.202843 60.0
119.237617 68.0
119.42025 68.0
119.720596 120.0
120.019142 148.0
120.204552 156.0
120.311501 168.0
120.43161 132.0
120.693855 116.0
121.291542 128.0
121.58326 188.0
121.732544 124.0
122.060265 148.0
122.312981 40.0
122.526588 76.0
122.555237 228.0
122.590492 132.0
122.672043 164.0
123.100082 220.0
123.601875 152.0
123.849838 176.0
124.071434 120.0
124.457497 196.0
124.610802 196.0
124.641861 36.0
124.917549 164.0
125.527824 164.0
125.717445 180.0
125.916138 92.0
125.95858 180.0
126.055046 136.0
126.123932 136.0
126.322952 164.0
126.423637 180.0
126.535553 128.0
126.743858 104.0
126.878342 104.0
126.936638 172.0
127.054115 128.0
127.131805 168.0
127.232819 72.0
127.673225 112.0
127.773735 180.0
127.875717 124.0
127.956757 204.0
128.05809 176.0
128.195526 200.0
128.987732 260.0
129.030685 192.0
129.069122 88.0
129.164108 188.0
129.646378 144.0
129.790588 136.0
129.882172 56.0
129.934357 216.0
130.043274 216.0
130.070511 216.0
130.399872 120.0
130.85939 100.0
131.032486 60.0
131.050705 208.0
131.180618 180.0
131.353928 204.0
131.404114 188.0
131.468002 164.0
131.764847 152.0
132.064316 52.0
132.620712 176.0
132.848785 316.0
132.921158 184.0
133.051987 372.0
133.072647 180.0
133.221924 152.0
133.320724 64.0
133.382782 128.0
134.057632 308.0
134.186234 100.0
134.382278 144.0
134.576172 124.0
134.659302 160.0
134.680084 140.0
134.800232 60.0
135.0672 188.0
135.188736 208.0
135.216507 124.0
135.4272 192.0
135.51059 164.0
135.575485 184.0
135.784134 228.0
136.023132 224.0
136.104385 148.0
136.387817 160.0
136.64595 168.0
136.743683 116.0
136.818176 164.0
136.843796 140.0
136.897339 120.0
137.044098 120.0
137.076721 132.0
137.195587 148.0
138.045502 156.0
138.181168 172.0
138.839401 212.0
139.054459 332.0
139.07637 256.0
139.111572 224.0
139.257156 140.0
139.35817 68.0
140.009781 152.0
140.063156 724.0
140.408066 180.0
140.589737 136.0
140.618057 120.0
140.648743 184.0
140.8022 124.0
140.98175 68.0
141.069244 560.0
141.260757 160.0
141.419296 148.0
141.528198 172.0
141.618195 124.0
141.805374 104.0
141.919159 76.0
142.070953 384.0
142.120773 108.0
142.32254 144.0
142.417526 72.0
143.045288 128.0
143.074432 148.0
143.447876 164.0
143.748398 112.0
143.92981 252.0
144.013397 84.0
144.056396 160.0
144.082306 236.0
144.106567 84.0
144.498672 152.0
144.692535 128.0
144.864975 124.0
145.085449 168.0
145.562927 124.0
145.853638 216.0
145.920944 156.0
146.034805 160.0
146.110947 140.0
146.132599 108.0
146.168686 116.0
146.264969 200.0
146.679276 144.0
146.90596 172.0
147.234222 168.0
147.903961 188.0
148.041977 136.0
148.732971 64.0
148.907791 168.0
148.995239 52.0
149.398804 236.0
150.016235 304.0
150.052277 332.0
150.085632 124.0
150.397903 204.0
150.754486 160.0
151.074799 124.0
151.128616 124.0
151.250992 88.0
151.635544 128.0
151.701721 108.0
151.851303 60.0
151.937149 184.0
152.018127 148.0
152.059174 464.0
152.140854 44.0
152.730621 192.0
152.755219 68.0
152.801956 136.0
153.067917 560.0
153.176163 112.0
153.333862 232.0
153.390549 188.0
153.610016 144.0
153.851852 144.0
154.031723 192.0
154.066925 324.0
154.128479 200.0
154.153198 144.0
154.566162 144.0
154.63298 36.0
154.806274 96.0
154.957382 164.0
155.019318 144.0
155.051819 308.0
155.073746 340.0
155.14325 44.0
155.235001 256.0
155.28212 240.0
155.299484 140.0
155.624573 212.0
155.885391 120.0
156.059525 148.0
156.168823 128.0
156.714005 160.0
157.039139 152.0
157.090912 160.0
157.162827 164.0
157.344421 216.0
157.902267 152.0
157.964798 160.0
158.057587 188.0
158.087006 204.0
158.235077 116.0
158.6259 72.0
158.83905 108.0
158.899261 124.0
158.939407 156.0
159.075195 152.0
159.202988 348.0
159.876724 172.0
160.070572 160.0
160.201538 92.0
160.294769 172.0
160.440948 108.0
161.036484 236.0
161.309372 116.0
161.741943 188.0
162.01796 140.0
162.078766 144.0
162.197891 92.0
162.246048 128.0
163.065964 204.0
163.348206 40.0
163.887939 148.0
163.95929 56.0
164.058701 204.0
164.390289 152.0
164.436218 244.0
164.510239 204.0
164.870392 216.0
165.067993 384.0
165.230942 176.0
165.274597 64.0
165.361435 188.0
165.502243 80.0
165.948074 148.0
166.052399 188.0
166.067261 276.0
166.23793 92.0
166.50235 32.0
166.844116 156.0
166.872391 352.0
167.047958 164.0
167.07164 272.0
167.410187 188.0
167.688431 344.0
168.053253 828.0
168.081161 3068.0
168.219788 176.0
168.770096 160.0
169.079468 348.0
169.194412 88.0
169.772232 176.0
169.824112 96.0
170.090088 632.0
170.13031 128.0
170.312088 88.0
170.727936 140.0
170.813766 164.0
170.881409 160.0
171.071411 388.0
171.105606 228.0
171.133881 44.0
171.249832 124.0
171.548126 156.0
171.892395 120.0
171.936768 64.0
172.052628 156.0
172.072067 192.0
172.105148 176.0
172.315399 36.0
172.780777 80.0
172.87236 152.0
173.016312 156.0
173.086227 132.0
173.115814 104.0
174.053024 260.0
174.083496 152.0
174.314667 120.0
174.41716 100.0
174.446075 104.0
174.48288 152.0
175.058823 172.0
175.227707 176.0
175.375275 76.0
175.486008 64.0
175.686447 96.0
175.98996 116.0
176.033981 852.0
176.547531 168.0
176.907379 120.0
177.037125 152.0
177.292328 72.0
177.325897 264.0
177.370956 64.0
177.649399 32.0
177.797989 148.0
177.840454 172.0
178.055511 308.0
178.214905 36.0
178.390305 112.0
178.597717 160.0
179.028885 132.0
179.047531 180.0
179.07196 208.0
179.263321 104.0
179.289963 152.0
179.401917 192.0
179.967529 96.0
180.080566 1560.0
180.162491 144.0
180.264023 124.0
180.293427 92.0
180.357574 56.0
180.472534 124.0
181.086655 1352.0
181.530243 68.0
181.696533 60.0
181.782394 240.0
181.825333 72.0
181.978348 184.0
182.095245 1768.0
182.295319 100.0
182.432388 84.0
182.642136 136.0
182.798187 164.0
182.919296 164.0
183.063904 152.0
183.073013 164.0
183.099258 748.0
183.358337 80.0
183.55513 260.0
184.075195 460.0
184.109283 624.0
184.383911 48.0
184.419052 136.0
185.019592 44.0
185.082413 276.0
185.236237 184.0
185.320221 144.0
185.371704 32.0
185.762131 164.0
186.030853 156.0
186.05603 272.0
186.082794 168.0
186.370285 176.0
186.614899 176.0
187.052917 120.0
187.098282 84.0
187.250565 156.0
187.652267 88.0
187.747696 200.0
187.96048 136.0
188.059494 172.0
188.091492 160.0
188.173386 228.0
188.408264 148.0
188.495697 156.0
188.544891 100.0
189.068619 152.0
189.414978 156.0
189.554703 84.0
189.916595 124.0
190.061722 204.0
190.091278 184.0
190.451828 72.0
191.075867 400.0
191.282257 164.0
191.612732 76.0
192.069153 496.0
192.920883 172.0
193.061768 168.0
193.088333 156.0
193.211258 44.0
193.762207 76.0
193.859192 140.0
194.017181 152.0
194.056168 484.0
194.077103 176.0
194.112457 176.0
194.136414 44.0
194.45546 184.0
194.666458 160.0
195.035706 184.0
195.068161 324.0
195.116577 192.0
195.319595 84.0
195.375229 168.0
195.550537 136.0
195.592285 44.0
195.795547 184.0
195.862381 144.0
195.937607 128.0
195.971039 132.0
196.074188 1036.0
196.115692 360.0
196.180069 84.0
196.238617 140.0
196.475677 52.0
196.537064 144.0
196.617981 192.0
196.760345 180.0
196.955826 212.0
197.081131 776.0
197.121933 220.0
198.090012 1108.0
198.127945 88.0
198.169968 84.0
198.248428 152.0
198.298874 88.0
198.635345 140.0
198.699875 140.0
199.047989 160.0
199.090912 400.0
199.126556 92.0
199.188354 200.0
199.359741 220.0
199.97847 152.0
200.033127 724.0
200.070633 176.0
200.105148 148.0
200.538986 208.0
200.671478 132.0
200.710953 288.0
200.797714 196.0
200.891449 216.0
200.990204 160.0
201.044525 128.0
201.072037 176.0
201.511261 192.0
201.600159 188.0
201.979019 204.0
202.063675 160.0
202.074142 148.0
202.080338 128.0
202.587646 160.0
202.644302 136.0
203.061707 164.0
203.092209 108.0
203.160294 140.0
203.51506 244.0
203.544037 156.0
203.907089 208.0
204.062485 324.0
204.157272 212.0
204.259674 140.0
204.470215 132.0
204.564148 136.0
205.381973 68.0
205.401932 192.0
205.927139 116.0
205.972839 136.0
206.032837 156.0
206.065018 224.0
206.095688 192.0
206.124268 220.0
206.194046 200.0
206.424408 100.0
206.461594 136.0
206.567413 128.0
206.664688 36.0
206.976685 212.0
207.063919 392.0
207.108429 208.0
207.128479 188.0
207.220154 28.0
207.294647 112.0
207.584183 60.0
207.971497 164.0
208.075043 2976.0
208.143753 48.0
208.514343 136.0
208.583328 140.0
208.70694 236.0
208.775955 52.0
208.902512 68.0
208.937042 120.0
208.983078 88.0
209.040619 196.0
209.082092 2292.0
209.121201 80.0
209.144241 56.0
209.198929 168.0
209.426407 76.0
209.45369 68.0
209.501312 188.0
209.556046 68.0
209.754898 132.0
209.775085 76.0
209.798141 60.0
209.870224 76.0
209.97403 200.0
209.994217 96.0
210.089935 6072.0
210.219254 52.0
210.311615 88.0
210.354904 72.0
210.395325 104.0
210.698563 140.0
210.860382 56.0
210.976013 128.0
211.009857 124.0
211.058044 192.0
211.094193 1700.0
211.146606 208.0
211.184219 136.0
211.270996 80.0
211.314392 184.0
211.392517 196.0
211.439606 208.0
211.485123 60.0
211.618301 36.0
212.069305 1204.0
212.101273 792.0
212.419861 184.0
212.493607 132.0
212.783829 68.0
212.899979 136.0
213.075882 456.0
213.112045 164.0
213.161438 128.0
213.673187 36.0
213.760468 128.0
213.982162 172.0
214.045837 308.0
214.084763 464.0
214.112732 176.0
214.205933 220.0
214.237976 104.0
214.44487 144.0
214.708847 96.0
214.745178 204.0
214.958145 120.0
215.054459 160.0
215.095474 568.0
215.144958 176.0
215.369812 128.0
216.088959 196.0
216.255753 92.0
216.460693 40.0
216.554398 76.0
217.060684 492.0
217.096603 132.0
217.213913 148.0
217.768692 56.0
218.067398 132.0
218.668381 144.0
219.05899 176.0
220.062729 268.0
220.281281 168.0
220.810364 204.0
221.06839 336.0
221.387466 172.0
221.408203 180.0
222.027145 156.0
222.049286 168.0
222.081985 36.0
222.567703 140.0
222.671631 244.0
222.817184 52.0
223.063187 196.0
223.084366 188.0
223.852295 44.0
224.041397 416.0
224.068298 592.0
224.400558 108.0
224.627213 36.0
224.695831 180.0
224.779373 212.0
225.076477 964.0
225.111084 232.0
225.415436 152.0
225.86438 124.0
225.995529 132.0
226.031357 156.0
226.086243 8552.0
226.175095 76.0
226.393646 52.0
226.420609 172.0
226.486496 64.0
226.513458 104.0
226.540421 68.0
226.627304 48.0
226.684235 60.0
226.711212 56.0
226.750168 68.0
226.867065 28.0
227.087921 2128.0
227.313965 88.0
227.421432 164.0
227.482056 72.0
227.518082 64.0
227.623169 160.0
227.794357 140.0
227.97464 60.0
228.049286 200.0
228.073578 620.0
228.092789 440.0
228.428635 84.0
228.53093 176.0
228.567032 160.0
228.669357 200.0
229.072784 192.0
229.3983 96.0
229.639526 80.0
229.883896 60.0
229.929169 116.0
230.070175 140.0
230.078522 100.0
230.089218 188.0
230.131424 40.0
230.611755 40.0
231.086533 88.0
231.222702 192.0
232.055832 132.0
232.471313 88.0
232.759689 152.0
232.887238 40.0
233.023941 68.0
233.068329 92.0
233.127258 144.0
233.321793 44.0
233.904327 164.0
234.606537 180.0
234.813873 88.0
234.838272 192.0
234.951141 132.0
235.060623 240.0
235.201385 64.0
236.029312 176.0
236.068558 2152.0
236.154709 32.0
236.28624 208.0
236.469849 124.0
236.595352 252.0
236.678024 44.0
236.855652 156.0
237.075958 924.0
237.109955 116.0
237.557632 76.0
238.079483 284.0
238.108765 352.0
238.411209 164.0
238.650986 108.0
239.082458 744.0
239.904053 56.0
240.064621 864.0
240.100082 1316.0
240.141479 64.0
240.175415 184.0
240.280304 116.0
240.372864 128.0
240.724777 116.0
240.919357 156.0
241.02063 180.0
241.066452 1472.0
241.106979 732.0
241.327332 56.0
241.404633 80.0
241.899673 72.0
242.044922 212.0
242.078079 1336.0
242.116821 156.0
242.227921 68.0
242.478897 64.0
242.823044 60.0
243.086136 1432.0
243.369217 104.0
243.4189 176.0
244.087585 172.0
244.146088 144.0
244.497635 164.0
244.712418 64.0
244.949112 144.0
245.068481 176.0
245.53508 60.0
245.703522 220.0
246.071808 72.0
249.068344 660.0
249.115921 188.0
249.555923 128.0
249.631393 160.0
250.144241 140.0
250.607193 88.0
250.771057 84.0
251.082016 296.0
251.187286 52.0
252.05719 284.0
252.100342 376.0
252.339981 96.0
252.510742 28.0
252.547897 160.0
252.796707 72.0
252.8461 164.0
253.026535 188.0
253.072144 1216.0
253.156357 68.0
253.568207 104.0
253.691833 220.0
254.005768 64.0
254.027985 156.0
254.079987 7244.0
254.224701 64.0
254.253265 132.0
254.333054 56.0
254.440536 88.0
254.573898 68.0
254.634247 100.0
254.821655 236.0
254.958298 108.0
255.034576 252.0
255.084671 3772.0
255.175354 56.0
255.276199 104.0
255.300903 156.0
255.368439 44.0
255.390701 84.0
255.5784 184.0
255.670685 36.0
255.81073 112.0
255.836197 88.0
256.002899 68.0
256.091278 2180.0
256.199249 56.0
256.240662 84.0
256.291656 128.0
256.323517 108.0
256.359863 88.0
256.422302 48.0
256.556183 40.0
256.744293 64.0
256.922943 52.0
257.068146 632.0
257.09259 684.0
257.210144 108.0
257.599701 64.0
258.070282 164.0
258.398956 96.0
258.539734 120.0
258.71579 36.0
259.074677 244.0
259.088715 152.0
259.132141 124.0
259.311584 48.0
259.64502 92.0
260.058655 144.0
260.084595 328.0
260.598419 136.0
260.649841 176.0
261.070953 96.0
261.251068 148.0
262.452423 132.0
263.088013 200.0
263.108978 164.0
263.136444 152.0
264.067108 80.0
264.740265 88.0
264.928131 32.0
265.057739 76.0
265.284607 56.0
265.37323 240.0
265.556976 164.0
265.868439 92.0
266.065491 600.0
266.225555 176.0
266.482178 96.0
266.742157 132.0
266.811554 164.0
266.986023 160.0
267.041229 304.0
267.085876 744.0
267.402466 68.0
267.770782 132.0
268.040771 120.0
268.093689 3916.0
268.180908 44.0
268.220001 48.0
268.278687 68.0
268.438446 48.0
268.536285 44.0
268.640656 56.0
268.754852 120.0
268.82666 48.0
268.950684 164.0
269.036346 176.0
269.102722 4816.0
269.166138 128.0
269.251038 104.0
269.354767 64.0
269.567932 168.0
269.594086 32.0
269.770569 164.0
269.911163 48.0
269.995941 148.0
270.071289 812.0
270.10379 576.0
270.33316 60.0
270.739105 72.0
270.921936 112.0
270.974945 164.0
271.048035 200.0
271.080017 292.0
271.107483 432.0
271.263336 44.0
271.650299 76.0
271.768402 212.0
272.070129 172.0
272.211548 88.0
272.648468 48.0
273.039917 116.0
273.089569 276.0
273.269958 56.0
273.826294 168.0
274.086548 180.0
274.264496 48.0
275.135376 188.0
275.383057 44.0
275.895233 160.0
277.235779 228.0
277.570587 92.0
279.626984 156.0
279.723511 52.0
280.049835 172.0
280.079834 116.0
280.236389 92.0
281.091187 996.0
281.757782 56.0
282.111389 688.0
282.158844 48.0
282.513336 132.0
282.847992 76.0
282.888153 104.0
283.070251 2872.0
283.117371 720.0
283.166077 160.0
283.413971 128.0
283.60498 40.0
283.688782 60.0
283.752502 160.0
283.77597 88.0
283.827637 92.0
283.856445 116.0
283.923523 240.0
283.98053 272.0
284.007355 52.0
284.077026 1916.0
284.178436 176.0
284.329468 64.0
284.520782 72.0
284.591278 108.0
284.621521 80.0
284.91037 76.0
285.062286 2048.0
285.606201 52.0
285.686951 140.0
285.730682 76.0
285.855164 96.0
286.065826 596.0
286.136566 140.0
286.286072 64.0
286.414062 48.0
286.649902 68.0
286.875702 84.0
287.077362 2640.0
287.280396 44.0
287.411987 48.0
287.462585 68.0
287.580719 60.0
287.611084 40.0
288.081848 432.0
288.137909 76.0
288.505096 100.0
288.560364 100.0
288.864746 76.0
289.09021 176.0
289.155731 60.0
289.267212 64.0
290.083832 56.0
290.677368 56.0
290.853851 112.0
290.948914 52.0
292.145142 132.0
292.689728 180.0
293.234802 60.0
294.360596 68.0
294.384491 188.0
295.103912 180.0
295.468048 68.0
296.135559 36.0
296.265717 160.0
296.60498 164.0
296.886139 96.0
297.092133 272.0
297.133087 100.0
298.093109 2068.0
298.156372 140.0
298.228546 132.0
298.338562 72.0
298.366058 64.0
298.618683 132.0
298.83725 48.0
299.029938 60.0
299.075989 2072.0
299.78418 112.0
299.935822 64.0
300.008209 172.0
300.081421 396.0
300.301331 132.0
300.874146 140.0
300.957001 124.0
301.009949 176.0
301.08551 6572.0
301.136353 116.0
301.174561 36.0
301.243652 36.0
301.459381 104.0
301.82431 64.0
302.088898 2068.0
302.166718 64.0
302.208252 88.0
302.242828 36.0
302.464325 68.0
302.66861 36.0
303.084961 460.0
303.240204 116.0
303.288727 36.0
303.548767 64.0
304.058716 88.0
304.100372 216.0
304.22879 80.0
305.093842 52.0
305.500732 68.0
306.594055 116.0
309.248413 140.0
311.102753 172.0
312.105347 448.0
312.585968 92.0
313.091125 328.0
314.037445 160.0
314.087311 260.0
314.697357 128.0
314.725616 120.0
315.09668 8368.0
315.191864 156.0
315.499359 56.0
315.584229 44.0
315.725677 52.0
315.821167 104.0
316.098145 1056.0
316.351959 60.0
316.486481 60.0
316.610443 40.0
317.049744 68.0
317.089813 292.0
317.112274 252.0
317.950531 40.0
318.074768 76.0
318.401428 108.0
319.385956 72.0
319.442871 40.0
320.628571 52.0
326.561157 164.0
327.093719 148.0
327.713135 88.0
328.33316 196.0
328.444977 80.0
328.488251 72.0
329.051788 184.0
329.112122 3396.0
329.154572 64.0
329.217346 36.0
329.437683 52.0
329.564117 72.0
329.650848 104.0
329.752045 48.0
329.925537 124.0
330.111084 880.0
330.772064 68.0
331.025482 60.0
331.104553 288.0
331.192078 100.0
331.507294 92.0
331.545013 88.0
331.790009 108.0
331.873413 72.0
332.05835 116.0
332.096313 192.0
333.100098 140.0
333.707001 92.0
335.148376 188.0
339.432404 44.0
344.146027 172.0
344.386047 52.0
345.128876 136.0
359.220825 112.0
359.345306 112.0
362.260162 120.0
363.245789 200.0
370.320435 32.0
379.279053 76.0
385.310974 104.0
394.693176 60.0
394.740631 40.0
407.911224 52.0
409.133057 148.0
410.575592 100.0
414.326721 84.0
414.391541 132.0
429.324402 136.0
431.297943 80.0
437.866028 72.0
441.112274 104.0
448.458038 140.0
448.668793 80.0
450.965179 64.0
461.038025 76.0
468.318878 60.0
478.965881 84.0
515.924255 100.0
525.484558 80.0
526.968445 88.0
537.534119 84.0
548.9505 64.0
567.164795 84.0
568.426331 76.0
573.281616 80.0
573.481812 96.0
617.754944 40.0
639.778625 64.0
642.737183 100.0
642.898682 56.0
666.610352 60.0
671.583679 76.0
706.708252 52.0
708.418335 152.0
750.635986 180.0
903.03656 120.0
907.324097 104.0
1053.559814 96.0
1091.922241 48.0
1113.76062 80.0
1122.185791 108.0
1157.760864 132.0
1158.783813 76.0
1177.654785 156.0
1184.837402 176.0
1203.524902 148.0
1211.33313 168.0
1229.683228 124.0
1241.303467 104.0
1242.032959 216.0
1242.85376 164.0
1244.067993 204.0
1289.195801 68.0
1293.787964 64.0
1297.133423 208.0
1317.730469 140.0
1330.462769 164.0
1331.973267 168.0
1351.138916 248.0
1351.373047 44.0
1359.492065 156.0
1366.149048 56.0
1378.388428 116.0
1380.140259 136.0
1389.383667 176.0
1400.474731 148.0
1406.671265 140.0
1413.539917 172.0
1427.131836 144.0
1429.298218 152.0
1429.983032 188.0
1430.92395 176.0
1462.081177 148.0
1467.939575 172.0
1469.785645 116.0
1470.296875 56.0
1472.480469 256.0
