>compound MLS002154212-01!Canrenoic acid potassium salt2181-04-6
>formula C22H30O4
>ionization [M+H]+
>parentmass 359.220001
#inchi InChI=1S/C22H30O4/c1-20-9-5-15(23)13-14(20)3-4-16-17(20)6-10-21(2)18(16)7-11-22(21,26)12-8-19(24)25/h3-4,13,16-18,26H,5-12H2,1-2H3,(H,24,25)/p-1/t16-,17+,18+,20+,21+,22-/m1/s1
#inchikey PBKZPPIHUVSDNM
#origInchi InChI=1S/C22H30O4.K/c1-20-9-5-15(23)13-14(20)3-4-16-17(20)6-10-21(2)18(16)7-11-22(21,26)12-8-19(24)25;/h3-4,13,16-18,26H,5-12H2,1-2H3,(H,24,25);/q;+1/p-1/t16-,17+,18+,20+,21+,22-;/m1./s1
#Ion_Source LC-ESI
#Instrument qTof
#Compound_Source NIH Pharmacologically Active Library
#PI Dorrestein
#Data_Collector VP/LMS
#Scan -1
#Precursor_MZ 358.22
#ExactMass 357.207
#Charge 1
#CAS_Number N/A
#Pubmed_ID N/A
#Smiles C[C@@]12CC[C@H]3[C@@H](C=CC4=CC(=O)CC[C@]34C)[C@@H]2CC[C@@]1(O)CCC(=O)[O-].[K+]
#INCHI_AUX N/A
#Library_Class 1
#SpectrumID CCMSLIB00000085873
#IonMode Positive
#UpdateWorkflowName UPDATE-SINGLE-ANNOTATED-GOLD
#LibraryQualityString Gold
#TaskID d252d724072548979f1f6f1ced849daf
##Scan# 1839
#SpectrumFile p4-G05_GG5_01_18401.mzXML
#LibraryName Pharm_Active_Library.mgf
#MQScore -1
#Organism Pharm_Active_Library
#TIC_Query 0
#RT_Query -1
#MZErrorPPM -1
#SharedPeaks 0
#MassDiff 0
#LibMZ -1
#SpecMZ 358.22
#SpecCharge 0
#internalFilename spec-00000.mgf

>collision 10
45.005093 64.0
45.113316 168.0
45.140057 228.0
45.196239 160.0
45.276562 152.0
45.297993 272.0
45.33551 148.0
45.366341 172.0
45.487076 168.0
45.509037 224.0
45.601254 200.0
45.644272 184.0
45.862377 96.0
46.060738 264.0
46.106678 124.0
46.153996 168.0
46.270359 40.0
46.320465 144.0
46.338078 148.0
46.437038 48.0
46.565983 76.0
46.610813 136.0
46.661106 48.0
46.707348 136.0
46.80534 252.0
46.825768 188.0
46.911613 120.0
46.98526 208.0
47.006653 200.0
47.106762 192.0
47.374897 76.0
47.43074 224.0
47.53944 148.0
47.568264 148.0
47.619068 200.0
47.718014 132.0
47.773026 132.0
47.788158 160.0
47.907944 216.0
47.932743 104.0
48.012703 148.0
48.034771 180.0
48.092728 72.0
48.156242 192.0
48.179726 44.0
48.215652 124.0
48.438427 100.0
48.464748 184.0
48.500782 72.0
48.514645 124.0
48.621456 168.0
48.769207 172.0
48.802048 188.0
49.00248 160.0
49.064159 204.0
49.221474 88.0
49.234043 260.0
49.254993 128.0
49.351425 168.0
49.371563 216.0
49.468952 168.0
49.541775 136.0
49.712837 176.0
49.76899 164.0
49.864521 196.0
49.940445 168.0
49.951698 64.0
49.974209 168.0
50.103745 108.0
50.241909 48.0
50.473549 160.0
50.578247 200.0
50.639133 152.0
50.779453 60.0
50.830524 320.0
50.98106 192.0
51.019436 148.0
51.123272 132.0
51.160282 212.0
51.196339 124.0
51.438274 132.0
51.538246 144.0
51.676945 112.0
51.798637 164.0
51.811531 68.0
51.834457 192.0
51.85022 228.0
51.864555 232.0
51.97929 72.0
52.023785 160.0
52.072609 136.0
52.176075 176.0
52.258209 152.0
52.353065 144.0
52.479874 116.0
52.500065 156.0
52.52747 148.0
52.575085 196.0
52.601124 200.0
52.631382 164.0
52.787449 176.0
52.940849 156.0
52.968369 172.0
53.087219 192.0
53.168465 164.0
53.238152 184.0
53.251225 180.0
53.357304 120.0
53.52755 224.0
53.626617 92.0
53.636822 200.0
53.879074 144.0
53.943378 124.0
54.012108 208.0
54.0882 132.0
54.332935 192.0
54.431278 152.0
54.445683 168.0
54.498596 164.0
54.631626 168.0
54.785751 168.0
54.884506 164.0
54.90625 188.0
54.971539 108.0
54.987774 204.0
55.021725 160.0
55.066025 152.0
55.133991 156.0
55.379597 176.0
55.43108 160.0
55.468506 192.0
55.551548 216.0
55.573803 40.0
55.62278 112.0
55.759434 56.0
55.809978 88.0
55.896255 108.0
56.057083 60.0
56.197254 116.0
56.247997 132.0
56.43364 200.0
56.573528 148.0
56.591858 140.0
56.698219 160.0
56.732693 224.0
56.804676 60.0
56.830185 164.0
56.873707 200.0
56.908794 172.0
56.924751 180.0
56.942776 236.0
56.996857 196.0
57.014893 40.0
57.029922 132.0
57.049465 108.0
57.121647 172.0
57.207523 184.0
57.285736 120.0
57.333954 160.0
57.51646 132.0
57.599514 196.0
57.762772 156.0
57.886883 188.0
58.261536 128.0
58.416603 140.0
58.686176 124.0
58.844864 68.0
58.873875 180.0
58.980831 180.0
59.109303 172.0
59.181248 144.0
59.221813 188.0
59.270088 176.0
59.300739 156.0
59.386604 40.0
59.454113 160.0
59.49556 192.0
59.699924 184.0
59.762993 92.0
59.796848 136.0
59.994022 176.0
60.02486 208.0
60.205418 132.0
60.268753 136.0
60.373875 116.0
60.575092 272.0
60.68401 188.0
61.19944 132.0
61.283554 168.0
61.344337 152.0
61.417629 152.0
61.567467 168.0
61.584648 184.0
61.708103 172.0
61.720615 120.0
61.758148 136.0
61.772228 152.0
61.803516 32.0
61.969494 72.0
61.991432 140.0
62.093338 124.0
62.31625 212.0
62.449879 136.0
62.519104 124.0
62.64822 136.0
62.68446 168.0
62.845303 220.0
62.902119 200.0
62.916328 128.0
62.952644 196.0
63.038166 176.0
63.107506 164.0
63.254639 148.0
63.397655 164.0
63.414627 32.0
63.539902 52.0
63.566879 176.0
63.628784 200.0
63.65419 240.0
63.746326 124.0
63.919662 128.0
64.007217 112.0
64.080482 172.0
64.252678 108.0
64.306938 204.0
64.418716 156.0
64.564171 136.0
64.721001 116.0
64.78186 160.0
64.793076 136.0
64.825119 76.0
64.852371 108.0
64.868401 224.0
65.044861 232.0
65.093025 116.0
65.213516 72.0
65.448402 116.0
65.524101 180.0
65.730499 100.0
65.867729 40.0
65.887115 248.0
65.98571 136.0
66.047157 196.0
66.150726 100.0
66.162056 100.0
66.243698 160.0
66.353241 196.0
66.409996 172.0
66.431084 112.0
66.608032 168.0
66.744553 120.0
66.874702 80.0
66.892609 136.0
66.936104 196.0
66.959373 64.0
66.972397 180.0
66.995209 112.0
67.034119 168.0
67.17453 108.0
67.393311 200.0
67.404747 224.0
67.463585 140.0
67.525726 160.0
67.555168 148.0
67.748352 144.0
67.800781 132.0
67.900795 44.0
67.914726 172.0
67.971336 164.0
68.137177 192.0
68.242371 204.0
68.484283 160.0
68.522179 156.0
68.55513 128.0
68.581505 164.0
68.644157 160.0
68.738556 176.0
69.126526 132.0
69.154663 152.0
69.26561 172.0
69.466194 192.0
69.489418 144.0
69.515968 104.0
69.547348 216.0
69.579041 148.0
69.64547 116.0
69.791718 140.0
69.859909 204.0
69.881538 176.0
69.922882 152.0
70.079681 268.0
70.091347 68.0
70.119675 176.0
70.14801 208.0
70.236397 176.0
70.294167 128.0
70.545334 204.0
70.558708 180.0
70.68248 136.0
70.960533 140.0
71.002151 196.0
71.022583 184.0
71.308029 144.0
71.49472 72.0
71.540062 64.0
71.688393 48.0
71.907265 164.0
72.029213 232.0
72.235451 108.0
72.309357 296.0
72.374229 204.0
72.421654 164.0
72.514847 64.0
72.601311 184.0
72.714981 112.0
72.726868 140.0
72.835541 144.0
73.044624 140.0
73.146729 196.0
73.206322 248.0
73.342621 244.0
73.394386 232.0
73.42617 80.0
73.680519 188.0
73.711273 168.0
73.789902 88.0
73.837784 152.0
73.858307 156.0
74.109978 228.0
74.157959 176.0
74.18882 172.0
74.372368 144.0
74.470245 248.0
74.58709 60.0
74.72123 172.0
75.138176 128.0
75.385094 100.0
75.458702 112.0
75.556282 60.0
75.56839 36.0
75.730026 132.0
75.862823 232.0
76.017189 112.0
76.590942 128.0
76.843735 136.0
76.942284 164.0
76.983376 132.0
77.048004 200.0
77.121407 144.0
77.193085 140.0
77.478394 120.0
77.494164 176.0
77.523956 184.0
77.687019 140.0
77.888901 156.0
77.971481 128.0
78.057625 104.0
78.10511 164.0
78.129745 72.0
78.166771 188.0
78.263512 56.0
78.39563 220.0
78.409729 104.0
78.652367 176.0
78.666939 200.0
78.81385 128.0
78.865105 172.0
79.086205 140.0
79.13755 92.0
79.421104 176.0
79.519135 228.0
79.532272 92.0
79.552422 172.0
79.715828 176.0
79.850945 152.0
80.130432 208.0
80.513588 176.0
80.569328 56.0
80.694443 172.0
80.832169 136.0
80.876915 176.0
80.975395 140.0
81.056015 104.0
81.140259 152.0
81.233513 148.0
81.249664 208.0
81.400436 164.0
81.483063 132.0
81.806786 236.0
81.884216 132.0
82.003136 160.0
82.048203 160.0
82.11853 152.0
82.152802 128.0
82.566452 128.0
82.620712 172.0
82.696716 176.0
82.747406 76.0
83.160728 136.0
83.211563 184.0
83.565987 180.0
83.586006 172.0
83.926636 92.0
83.983856 236.0
84.000771 188.0
84.025131 148.0
84.076225 188.0
84.105431 132.0
84.182114 196.0
84.205856 112.0
84.264313 64.0
84.28624 172.0
84.306343 160.0
84.399574 184.0
84.461754 156.0
85.038704 124.0
85.27037 112.0
85.502113 168.0
85.803307 244.0
85.996063 112.0
86.122108 168.0
86.42482 136.0
86.543282 160.0
86.672943 156.0
86.815689 132.0
86.888031 136.0
86.938133 168.0
86.951118 88.0
87.030945 124.0
87.133102 200.0
87.296356 280.0
87.335739 168.0
87.367363 192.0
87.454819 148.0
87.600067 208.0
87.734245 44.0
87.747299 148.0
87.812569 152.0
87.840546 148.0
88.067741 248.0
88.176651 156.0
88.275742 152.0
88.374878 164.0
88.472206 192.0
88.582695 184.0
88.822647 128.0
88.905205 72.0
88.991554 132.0
89.072311 184.0
89.175659 148.0
89.200089 84.0
89.248978 144.0
89.277184 140.0
89.593414 224.0
89.676323 152.0
89.695175 156.0
89.780022 264.0
89.94606 128.0
90.133041 156.0
90.629311 196.0
90.643166 212.0
90.731155 116.0
90.807007 116.0
90.879097 144.0
90.922745 152.0
90.98452 88.0
91.02906 152.0
91.054131 1764.0
91.095535 48.0
91.112633 112.0
91.166222 204.0
91.300819 200.0
91.357887 192.0
91.443512 152.0
91.542511 44.0
91.580605 184.0
91.649185 148.0
91.67968 204.0
91.836021 176.0
91.883713 176.0
91.897064 148.0
91.954315 44.0
92.052956 120.0
92.269516 56.0
92.418701 224.0
92.713608 60.0
92.782616 132.0
92.807541 188.0
92.905357 140.0
92.970596 132.0
92.985954 160.0
93.069695 1532.0
93.38945 128.0
93.570343 72.0
93.635811 160.0
93.801521 212.0
94.058083 212.0
94.071449 152.0
94.082542 424.0
94.255081 208.0
94.496788 180.0
94.597427 148.0
94.773674 132.0
94.841499 44.0
94.924873 196.0
94.979179 188.0
95.050018 312.0
95.08313 500.0
95.086044 464.0
95.194611 204.0
95.729408 80.0
95.933998 104.0
95.983749 308.0
96.013939 100.0
96.085968 160.0
96.150513 144.0
96.218834 160.0
96.521904 148.0
96.545158 144.0
96.823074 160.0
96.836784 88.0
96.893593 204.0
97.063675 1448.0
97.246574 124.0
97.297615 88.0
97.700508 188.0
97.759537 124.0
97.818588 148.0
97.850082 88.0
97.913101 132.0
97.980072 220.0
98.019485 180.0
98.035248 112.0
98.137756 128.0
98.171066 224.0
98.323189 160.0
98.408073 160.0
98.496941 184.0
98.538429 212.0
98.579086 160.0
98.704468 224.0
98.744019 180.0
98.831062 160.0
98.951805 168.0
99.041252 176.0
99.087265 132.0
99.143951 92.0
99.19548 164.0
99.280746 104.0
99.334297 196.0
99.37001 68.0
99.395805 160.0
99.528801 168.0
99.542702 248.0
99.585838 200.0
99.618179 32.0
99.651955 180.0
99.69368 248.0
99.769218 192.0
99.88456 84.0
99.938278 128.0
100.035797 192.0
100.097519 136.0
100.131378 208.0
100.26088 180.0
100.482536 176.0
100.56604 188.0
100.591988 132.0
100.631912 96.0
100.767738 148.0
100.953636 156.0
101.024323 352.0
101.083672 68.0
101.35601 160.0
101.496323 112.0
101.745125 160.0
101.903793 212.0
102.026398 156.0
102.04248 200.0
102.344292 48.0
102.374496 128.0
102.442093 236.0
102.471191 220.0
102.541718 184.0
102.582031 168.0
102.646553 172.0
102.759514 44.0
103.052872 632.0
103.120995 188.0
103.280731 192.0
103.418327 244.0
103.809349 180.0
104.060379 152.0
104.124397 152.0
104.396255 156.0
104.418625 192.0
104.499947 172.0
104.534584 232.0
104.585541 112.0
104.620865 196.0
104.656723 192.0
105.023903 200.0
105.046722 204.0
105.069992 6628.0
105.097008 188.0
105.131699 120.0
105.176598 132.0
105.207222 180.0
105.393082 144.0
105.465729 44.0
105.636383 92.0
105.736649 56.0
105.802155 168.0
105.925026 164.0
105.974197 128.0
106.070908 708.0
106.171761 96.0
106.302284 96.0
106.361809 168.0
106.573341 120.0
106.604164 116.0
106.620605 132.0
106.741898 156.0
106.768639 104.0
106.787148 192.0
106.848862 80.0
106.892067 240.0
106.980576 184.0
107.049248 1100.0
107.085175 6580.0
107.108978 228.0
107.178299 40.0
107.207153 64.0
107.246307 56.0
107.318466 152.0
107.332901 80.0
107.41127 48.0
107.42984 48.0
107.460785 172.0
107.479355 60.0
107.495865 40.0
107.53714 52.0
107.554199 156.0
107.710594 136.0
107.791168 140.0
107.857307 144.0
107.927597 212.0
107.989639 84.0
108.049751 208.0
108.087555 488.0
108.171738 180.0
108.393349 192.0
108.426514 200.0
108.457603 188.0
108.575783 152.0
108.669136 200.0
108.826454 156.0
108.872566 136.0
108.945267 56.0
109.063507 1304.0
109.103249 1080.0
109.336189 80.0
109.373657 76.0
109.515244 104.0
109.586075 244.0
109.619415 116.0
109.679863 172.0
109.746574 124.0
109.798706 232.0
110.040771 76.0
110.170265 256.0
110.197426 160.0
110.247574 188.0
110.306099 164.0
110.626167 112.0
110.697357 184.0
110.720398 132.0
110.797905 104.0
110.877533 164.0
110.976059 164.0
111.013802 152.0
111.044075 1704.0
111.081261 520.0
111.177437 180.0
111.208923 140.0
111.320198 52.0
111.406311 164.0
111.5345 212.0
111.591263 152.0
111.629112 196.0
111.700623 180.0
111.725868 96.0
111.751114 156.0
111.828979 280.0
111.852203 256.0
111.871078 136.0
111.908981 172.0
111.999535 160.0
112.026924 160.0
112.047989 224.0
112.104881 136.0
112.298851 188.0
112.632355 128.0
112.740959 156.0
113.055672 132.0
113.08062 96.0
113.724976 56.0
113.841743 196.0
114.064842 180.0
114.094604 156.0
114.181786 196.0
114.231895 208.0
114.400955 224.0
114.443542 148.0
114.534248 268.0
114.98288 120.0
115.006363 164.0
115.053909 1684.0
115.113113 160.0
115.149422 48.0
115.194275 128.0
115.239143 168.0
115.885323 104.0
115.917458 172.0
115.945747 176.0
115.979614 156.0
116.005341 212.0
116.06398 460.0
116.269173 212.0
116.387245 184.0
116.419456 200.0
116.507523 128.0
116.622414 164.0
116.709557 140.0
116.765472 196.0
116.808495 140.0
116.82785 172.0
117.019402 140.0
117.069237 2588.0
117.135696 140.0
117.152931 168.0
117.346901 152.0
117.364151 32.0
117.566933 176.0
117.588516 176.0
117.603622 64.0
117.839012 180.0
117.942749 48.0
117.968689 128.0
118.016251 60.0
118.072731 348.0
118.12439 172.0
118.193626 96.0
118.271538 180.0
118.381889 120.0
118.418777 100.0
118.449104 132.0
118.607292 136.0
118.631134 160.0
118.648476 76.0
118.696182 36.0
118.819817 80.0
118.841515 156.0
118.878403 92.0
118.926155 92.0
118.965225 172.0
119.048607 232.0
119.085258 6656.0
119.171555 108.0
119.254135 136.0
119.471596 56.0
119.50692 116.0
119.619576 120.0
119.687073 192.0
119.728447 68.0
119.817757 160.0
119.90522 204.0
119.936119 140.0
119.955925 200.0
120.057533 152.0
120.085968 636.0
120.389259 64.0
120.55529 168.0
120.581512 112.0
120.708313 148.0
120.791428 160.0
120.832993 120.0
120.850502 88.0
120.911774 136.0
120.966492 36.0
120.992767 148.0
121.064087 928.0
121.101151 1468.0
121.127495 216.0
121.216187 180.0
121.379662 188.0
121.597786 40.0
121.650467 64.0
121.665833 180.0
121.694374 160.0
121.848122 192.0
122.062431 128.0
122.101585 344.0
122.343987 216.0
122.378197 144.0
122.492722 44.0
122.631538 112.0
122.653587 184.0
122.726341 188.0
122.975632 148.0
123.030815 372.0
123.079636 2300.0
123.114075 180.0
123.313568 176.0
123.39978 172.0
123.44622 152.0
123.541328 60.0
123.596642 48.0
123.781143 196.0
123.917702 264.0
123.974411 176.0
124.055115 180.0
124.078888 292.0
124.101677 156.0
124.121628 160.0
124.243622 176.0
124.283562 124.0
124.57885 192.0
124.621063 116.0
125.05793 700.0
125.091537 200.0
125.19944 180.0
125.230621 184.0
125.290771 232.0
125.500282 228.0
125.957924 144.0
126.058342 128.0
126.105812 184.0
126.143272 180.0
126.179047 112.0
126.451958 92.0
126.476578 96.0
126.640038 180.0
126.738609 240.0
126.962784 164.0
127.071808 340.0
127.602768 120.0
127.863708 132.0
127.898811 168.0
128.032562 100.0
128.061951 2940.0
128.088882 152.0
128.151962 176.0
128.379639 120.0
128.508209 168.0
128.682007 144.0
128.706848 196.0
128.801697 228.0
128.840103 136.0
128.989258 108.0
129.011871 128.0
129.027695 96.0
129.068039 3596.0
129.149811 40.0
129.224472 116.0
129.244827 172.0
129.281036 136.0
129.483124 212.0
129.521042 156.0
129.586731 176.0
129.761261 88.0
129.815689 96.0
129.917755 108.0
130.013046 216.0
130.035751 168.0
130.076523 1192.0
130.142441 208.0
130.403702 88.0
130.430984 208.0
130.512817 120.0
130.610611 232.0
130.717545 72.0
130.829086 72.0
130.849579 136.0
130.888275 80.0
131.049149 404.0
131.08551 5648.0
131.124146 188.0
131.200439 88.0
131.243607 172.0
131.298492 120.0
131.376038 140.0
131.504486 180.0
131.533508 132.0
132.001877 192.0
132.047821 180.0
132.067123 204.0
132.089172 572.0
132.159714 32.0
132.374893 140.0
132.395508 164.0
132.425278 160.0
132.473373 148.0
132.48941 172.0
132.558151 224.0
132.624619 104.0
132.654419 160.0
132.688812 228.0
132.725494 164.0
132.748428 260.0
132.80806 156.0
133.06308 1632.0
133.101364 4052.0
133.124786 148.0
133.39592 64.0
133.428101 240.0
133.501678 144.0
133.561478 120.0
133.612091 168.0
133.644302 124.0
133.660416 192.0
133.708603 64.0
133.826141 196.0
133.959732 136.0
133.988129 208.0
134.071762 496.0
134.104401 496.0
134.317032 160.0
134.363174 208.0
134.423172 64.0
134.490097 72.0
134.782928 152.0
134.801895 60.0
134.82338 148.0
134.864288 48.0
134.924393 188.0
135.079254 2052.0
135.115997 676.0
135.162643 108.0
135.22049 172.0
135.347824 80.0
135.519226 184.0
135.950546 212.0
136.064285 184.0
136.082306 320.0
136.12204 172.0
136.201309 60.0
136.277969 172.0
136.380219 80.0
136.652451 136.0
136.882767 128.0
137.05603 188.0
137.096252 996.0
137.146027 100.0
137.211304 204.0
137.278931 76.0
137.395554 64.0
137.762085 188.0
137.836853 124.0
137.984116 156.0
138.002808 116.0
138.026199 152.0
138.08934 144.0
138.140808 92.0
138.250778 116.0
138.950882 96.0
138.978256 280.0
139.071091 372.0
139.21666 136.0
139.244843 108.0
139.376404 104.0
139.955048 164.0
140.013931 152.0
140.075165 208.0
140.273117 124.0
140.605698 84.0
140.688309 128.0
140.794571 212.0
140.855988 184.0
141.069717 3136.0
141.131363 224.0
141.527664 128.0
141.947083 192.0
142.077789 1384.0
142.141602 168.0
142.303009 272.0
142.70932 208.0
142.809204 156.0
142.873428 116.0
142.91864 212.0
143.032867 108.0
143.084869 8012.0
143.113754 136.0
143.171509 144.0
143.198166 164.0
143.217743 188.0
143.282257 192.0
143.383011 68.0
143.43306 36.0
143.495056 136.0
143.521286 68.0
143.619064 156.0
143.669159 188.0
143.80278 148.0
143.869629 56.0
143.900665 164.0
143.92215 60.0
144.058044 280.0
144.08844 1288.0
144.217636 212.0
144.292496 64.0
144.450348 96.0
144.58194 204.0
144.836243 76.0
144.929184 156.0
144.991486 68.0
145.00827 180.0
145.037033 176.0
145.062241 1584.0
145.100632 12776.0
145.148041 72.0
145.185684 168.0
145.291229 76.0
145.324814 40.0
145.421463 88.0
145.581665 64.0
145.662094 60.0
145.684952 48.0
145.901245 68.0
145.934906 52.0
145.990219 136.0
146.073227 876.0
146.105957 1268.0
146.221176 124.0
146.315063 80.0
146.336731 60.0
146.375259 144.0
146.500504 52.0
146.548691 140.0
147.002029 40.0
147.079254 5204.0
147.116531 1628.0
147.262772 132.0
147.581772 116.0
147.608368 72.0
147.763184 112.0
147.806732 196.0
147.976166 60.0
148.085251 828.0
148.119171 348.0
148.230499 148.0
148.341995 84.0
148.506897 164.0
148.531143 36.0
148.671875 140.0
148.951096 96.0
149.066467 256.0
149.093506 1940.0
149.157654 192.0
149.174667 60.0
149.216003 48.0
149.352188 124.0
149.374069 164.0
149.468964 60.0
149.566315 44.0
149.695358 84.0
149.761108 176.0
150.101227 356.0
150.134018 172.0
150.168167 128.0
150.451233 152.0
150.71257 164.0
151.008377 160.0
151.076523 340.0
151.111984 468.0
151.495499 144.0
152.059601 180.0
152.108582 176.0
152.422958 180.0
153.069275 776.0
153.254669 180.0
153.328598 164.0
153.493774 148.0
153.53569 132.0
153.609695 184.0
153.733063 196.0
153.903397 176.0
154.075653 1648.0
154.380325 136.0
154.410004 136.0
154.580704 80.0
154.729218 208.0
154.756454 52.0
154.803497 56.0
154.892715 192.0
154.971939 108.0
155.058594 492.0
155.084366 3100.0
155.204941 68.0
155.348801 180.0
155.432404 192.0
155.66153 88.0
156.058395 152.0
156.089737 872.0
156.342697 52.0
156.399948 56.0
156.521942 144.0
156.561783 144.0
156.703781 40.0
156.798477 152.0
157.015381 260.0
157.064117 184.0
157.100464 4420.0
157.177536 68.0
157.265335 132.0
157.299164 244.0
157.34726 188.0
157.899521 128.0
157.959549 124.0
158.072662 836.0
158.104431 1200.0
158.292435 140.0
158.332504 72.0
158.380096 148.0
158.422684 72.0
158.726303 172.0
158.88147 132.0
158.954239 136.0
158.999405 144.0
159.05426 196.0
159.078522 2988.0
159.115799 3320.0
159.232513 172.0
159.308258 140.0
159.332123 152.0
159.393692 112.0
159.465698 60.0
159.657654 164.0
159.753235 152.0
159.811096 204.0
159.952042 84.0
159.973206 108.0
160.082809 752.0
160.121857 452.0
160.163559 212.0
160.196304 56.0
160.251724 108.0
160.289536 144.0
160.317245 40.0
160.465973 56.0
160.546661 168.0
160.634949 176.0
160.73764 180.0
160.798965 140.0
160.935287 136.0
161.095016 6840.0
161.128754 516.0
161.165146 60.0
161.185349 100.0
161.210632 32.0
161.235901 56.0
161.291504 68.0
161.38504 156.0
161.503906 72.0
162.048203 172.0
162.101547 592.0
162.131302 272.0
162.295609 92.0
162.365082 144.0
162.466537 48.0
162.669556 108.0
163.037857 116.0
163.077423 276.0
163.109985 3872.0
163.617828 100.0
163.645828 180.0
163.864883 152.0
163.933685 104.0
164.077728 108.0
164.114471 136.0
164.461624 48.0
164.482056 56.0
164.84729 180.0
165.036453 196.0
165.067093 712.0
165.07225 780.0
165.08873 660.0
165.596909 88.0
166.077011 608.0
166.255814 80.0
166.319977 132.0
167.085495 728.0
167.104706 768.0
167.224762 164.0
167.272934 112.0
167.638062 176.0
167.946228 132.0
168.056717 256.0
168.091812 728.0
168.397919 116.0
168.984756 220.0
169.100204 5536.0
169.158142 124.0
169.182587 76.0
169.230637 120.0
169.248764 116.0
169.274658 56.0
169.383438 60.0
169.441895 56.0
169.754074 92.0
169.795578 52.0
170.078384 156.0
170.107468 2376.0
170.330276 176.0
170.351059 104.0
170.400421 40.0
171.079865 1416.0
171.114914 2676.0
171.148224 168.0
171.183365 208.0
171.303177 216.0
171.399582 48.0
171.449097 168.0
171.482986 96.0
171.501221 76.0
171.569 156.0
172.085999 340.0
172.119385 596.0
172.180557 44.0
172.268417 120.0
172.307602 100.0
172.579437 44.0
172.759903 136.0
172.974487 224.0
173.008514 36.0
173.095093 6276.0
173.131546 508.0
173.178726 72.0
173.215408 60.0
173.270416 40.0
173.312347 100.0
173.414551 76.0
173.44339 60.0
173.475937 144.0
173.498428 176.0
173.574478 32.0
173.760712 52.0
173.813187 80.0
173.884048 76.0
173.960159 200.0
174.017929 72.0
174.099213 928.0
174.135193 176.0
174.175491 72.0
174.485596 68.0
174.659164 176.0
174.68811 100.0
174.732834 44.0
174.798615 144.0
174.82756 132.0
174.930206 208.0
175.11058 3036.0
175.149673 280.0
175.26207 92.0
175.409653 52.0
175.528305 64.0
175.570496 40.0
175.615326 136.0
175.739319 88.0
175.792099 112.0
175.979523 88.0
176.03302 76.0
176.114471 456.0
176.333511 44.0
177.086304 188.0
177.126923 1288.0
177.249054 152.0
177.301132 240.0
177.747726 216.0
178.075424 488.0
178.10083 228.0
178.130203 396.0
178.488846 136.0
178.733582 212.0
179.086746 908.0
179.105453 1376.0
179.148926 152.0
179.258179 44.0
179.324799 116.0
179.570099 96.0
180.091797 888.0
180.245529 108.0
180.515533 152.0
181.099152 2128.0
181.254364 124.0
181.474167 72.0
181.533157 140.0
181.557297 184.0
181.876587 72.0
182.075272 176.0
182.106964 936.0
183.084839 84.0
183.11554 1784.0
183.145767 204.0
183.25621 88.0
183.291245 32.0
183.328979 68.0
183.404434 64.0
183.452957 132.0
183.531158 60.0
183.738831 112.0
184.06813 96.0
184.1185 648.0
184.189682 40.0
184.211288 124.0
184.370712 152.0
184.557236 148.0
184.93869 192.0
185.019897 80.0
185.094406 648.0
185.13179 1828.0
185.274475 56.0
185.309708 68.0
185.380157 36.0
185.461472 184.0
185.66481 172.0
185.740768 144.0
186.050125 88.0
186.098999 160.0
186.137878 576.0
186.433121 148.0
186.547287 108.0
186.83284 188.0
186.974335 84.0
187.024643 108.0
187.072327 112.0
187.111176 3288.0
187.148163 480.0
187.260223 40.0
187.295624 88.0
187.412781 200.0
187.565399 44.0
187.60083 116.0
187.630829 160.0
187.780807 152.0
188.115677 800.0
188.146469 128.0
188.209274 68.0
188.332169 148.0
188.373138 88.0
188.490631 40.0
188.761246 52.0
189.103622 364.0
189.125549 496.0
189.344177 64.0
189.516754 96.0
189.568817 148.0
189.908783 60.0
190.116547 232.0
190.647339 136.0
190.705063 80.0
191.077728 224.0
191.106735 408.0
191.753738 192.0
191.932922 84.0
192.09697 328.0
192.134277 44.0
192.727905 144.0
193.101456 492.0
193.397171 200.0
193.851395 64.0
193.93454 160.0
194.106628 268.0
194.558701 196.0
194.678101 116.0
194.983704 180.0
195.064301 180.0
195.115265 2176.0
195.306229 36.0
196.08139 200.0
196.124329 392.0
196.186203 144.0
196.501907 204.0
197.040222 128.0
197.092117 440.0
197.131012 880.0
197.308533 100.0
197.333694 120.0
197.372833 32.0
197.658157 132.0
198.102066 404.0
198.138245 448.0
198.526581 132.0
198.641586 64.0
198.964325 88.0
199.023285 28.0
199.079453 176.0
199.109955 1144.0
199.145813 728.0
199.200226 172.0
199.506546 56.0
199.64151 180.0
199.970688 124.0
200.1091 596.0
200.146988 212.0
200.542465 64.0
200.627029 128.0
201.124786 996.0
202.053284 196.0
202.120987 224.0
202.803726 188.0
202.999344 132.0
203.084427 152.0
203.109955 204.0
203.141159 92.0
203.356827 48.0
203.413589 56.0
203.526764 340.0
203.913528 104.0
204.038605 48.0
204.095596 464.0
204.895279 176.0
204.915222 148.0
205.085907 308.0
205.120804 5612.0
205.237305 68.0
205.485458 68.0
205.973633 184.0
206.114746 440.0
207.116104 1252.0
207.180862 72.0
207.235306 92.0
207.267975 100.0
207.619431 60.0
207.656723 60.0
207.695511 84.0
207.725555 196.0
208.084305 204.0
208.122635 480.0
208.403122 80.0
208.426117 92.0
209.093994 200.0
209.131485 1504.0
209.199799 228.0
209.346649 36.0
209.392731 112.0
210.091873 140.0
210.133743 1164.0
210.208603 32.0
211.111328 564.0
211.143082 352.0
211.185135 200.0
211.214066 72.0
211.257446 96.0
211.859619 96.0
212.113525 156.0
212.150787 136.0
213.128143 1284.0
213.157898 308.0
213.677078 76.0
214.130066 592.0
214.282684 100.0
214.323471 196.0
214.717026 60.0
214.746185 168.0
215.087708 232.0
215.140366 1044.0
215.178375 280.0
215.204361 64.0
215.40004 112.0
215.701035 52.0
215.736115 88.0
216.084137 160.0
216.149918 604.0
217.117813 360.0
217.148987 304.0
217.168854 204.0
217.279526 48.0
217.349945 216.0
217.611191 76.0
218.125641 168.0
219.119171 812.0
219.624146 184.0
219.810013 132.0
220.113007 100.0
220.120422 188.0
220.356277 168.0
221.098969 156.0
221.133408 1112.0
221.400497 76.0
221.49527 160.0
221.815308 96.0
221.850891 84.0
222.049561 104.0
222.102951 120.0
222.136841 480.0
222.194916 132.0
222.610474 40.0
223.147034 1736.0
223.281387 124.0
223.612381 44.0
223.782074 160.0
224.023315 44.0
224.082901 100.0
224.152557 488.0
224.258713 136.0
224.473373 44.0
224.85524 100.0
224.905991 64.0
225.125351 716.0
225.162109 868.0
225.655838 92.0
225.91304 96.0
225.981857 60.0
226.132629 196.0
226.167465 168.0
226.251221 184.0
226.697525 92.0
226.730499 184.0
227.114105 336.0
227.141632 1328.0
227.180283 80.0
227.207275 156.0
227.246277 44.0
227.612488 52.0
228.102219 84.0
228.150894 1164.0
228.252548 76.0
228.37886 48.0
228.574417 32.0
228.667709 60.0
229.120605 220.0
229.158493 464.0
229.201401 188.0
229.5233 192.0
229.743134 180.0
230.120743 160.0
230.144897 140.0
231.134583 776.0
231.180115 96.0
231.351257 36.0
232.09935 164.0
232.123657 164.0
232.178482 140.0
232.955536 176.0
233.089233 96.0
233.125443 176.0
233.879974 112.0
234.132156 68.0
234.160095 124.0
235.105133 120.0
235.145264 1152.0
236.108078 96.0
236.116882 64.0
236.127716 104.0
236.156387 324.0
236.348999 88.0
237.122086 556.0
237.163223 464.0
237.203491 76.0
237.292404 84.0
237.706497 68.0
238.140961 272.0
238.166672 352.0
239.070969 232.0
239.107895 312.0
239.141327 504.0
239.175705 200.0
239.572861 80.0
239.942688 60.0
240.118469 44.0
240.173981 148.0
241.119644 264.0
241.154572 864.0
241.198792 164.0
241.659973 104.0
241.681625 140.0
242.118195 180.0
242.161484 188.0
242.270828 188.0
243.126587 128.0
243.171204 1664.0
243.234344 60.0
243.647385 68.0
244.08876 128.0
244.122955 136.0
244.14473 112.0
244.17392 384.0
244.272263 56.0
244.760895 56.0
245.148056 420.0
245.739655 188.0
246.150925 164.0
247.14447 604.0
248.156036 356.0
248.70018 64.0
248.759811 112.0
249.122131 448.0
249.158447 460.0
249.582977 60.0
249.718216 32.0
250.129181 148.0
250.169495 532.0
251.126144 192.0
251.177963 316.0
252.019562 76.0
252.104889 176.0
252.145065 304.0
252.85759 80.0
253.158585 1144.0
253.782623 76.0
254.162506 420.0
254.261642 64.0
254.579117 224.0
255.140152 320.0
256.128052 132.0
256.15036 176.0
256.79425 44.0
257.007996 124.0
257.134125 148.0
257.160492 196.0
258.131134 212.0
258.500305 164.0
259.054199 104.0
259.162354 292.0
259.753052 88.0
260.169617 192.0
260.279419 52.0
261.165955 320.0
261.201813 104.0
261.93576 48.0
262.105865 172.0
262.158081 212.0
262.183868 112.0
263.17334 804.0
263.413208 128.0
264.136169 188.0
264.181976 184.0
264.3703 60.0
265.15564 720.0
265.267487 88.0
265.380951 148.0
265.543121 68.0
266.163086 320.0
266.231171 112.0
266.448792 120.0
266.799805 72.0
267.139008 388.0
267.170837 452.0
267.21286 232.0
268.137726 304.0
268.180176 688.0
268.352844 168.0
268.962891 44.0
269.184814 592.0
269.220825 160.0
269.351471 220.0
270.132782 140.0
270.158936 84.0
270.193115 152.0
271.142914 216.0
271.167816 264.0
271.318298 52.0
272.049896 176.0
272.16156 152.0
272.641144 68.0
272.789062 104.0
273.558838 100.0
275.131409 92.0
275.156769 180.0
276.089661 168.0
276.202118 124.0
276.546234 124.0
277.049591 212.0
277.156189 276.0
277.19278 172.0
277.231812 216.0
278.199036 200.0
279.074158 164.0
279.172577 460.0
280.142517 104.0
280.175781 736.0
281.086121 68.0
281.148804 188.0
281.187378 608.0
282.131561 108.0
282.187775 372.0
283.166962 960.0
283.266052 104.0
284.130981 60.0
284.167908 148.0
284.19809 128.0
285.169159 160.0
286.147583 116.0
287.178894 352.0
288.174683 136.0
290.778839 92.0
291.288177 164.0
292.444305 212.0
293.173157 136.0
294.157684 256.0
295.196655 256.0
296.191406 132.0
296.21756 208.0
297.181122 476.0
297.798889 104.0
298.159637 100.0
298.190582 44.0
299.157867 240.0
299.19223 452.0
299.58075 192.0
300.132202 60.0
301.181183 204.0
302.159729 124.0
302.18396 224.0
304.551727 172.0
305.186737 1732.0
306.189941 412.0
307.190338 96.0
308.170532 344.0
309.140015 128.0
309.798279 196.0
311.163239 144.0
313.202118 252.0
314.21405 104.0
314.860046 152.0
315.142639 200.0
315.170715 144.0
316.192932 100.0
322.174011 128.0
322.863892 160.0
323.198486 1616.0
323.303925 84.0
323.468567 96.0
324.207428 368.0
324.253021 32.0
324.306793 104.0
324.755005 52.0
324.855438 32.0
325.217865 116.0
325.666687 104.0
326.187042 384.0
327.18985 148.0
328.398651 64.0
329.19989 40.0
332.167816 44.0
335.247498 52.0
336.15921 160.0
339.180389 128.0
340.413055 168.0
340.927368 144.0
341.026611 68.0
341.208679 3516.0
341.894623 36.0
342.211731 628.0
342.896393 88.0
342.988525 112.0
343.226654 316.0
343.305634 36.0
344.039917 128.0
344.169128 128.0
344.217133 172.0
344.664124 76.0
344.745392 144.0
344.922821 48.0
347.044189 160.0
349.506897 32.0
354.792023 64.0
357.285767 104.0
357.357269 172.0
359.142975 168.0
359.220001 1240.0
360.223419 200.0
360.358582 52.0
360.672241 60.0
361.241302 248.0
362.250244 156.0
362.564728 112.0
363.015869 104.0
367.970215 88.0
368.799194 56.0
376.132202 136.0
378.846924 100.0
383.397064 36.0
386.763885 92.0
390.692078 64.0
397.924805 76.0
415.176727 108.0
416.991577 68.0
417.324921 76.0
427.061737 128.0
431.016083 112.0
455.345917 88.0
459.039978 76.0
459.402527 76.0
471.516113 84.0
507.187683 84.0
519.203918 48.0
528.936523 68.0
560.347961 120.0
604.826477 60.0
633.545715 84.0
646.906616 84.0
655.087891 52.0
696.324158 124.0
733.014526 36.0
742.204163 204.0
760.799072 48.0
761.633789 60.0
775.943787 112.0
790.157593 192.0
808.966492 144.0
824.775269 260.0
834.544373 180.0
837.13385 92.0
841.666443 208.0
848.198425 184.0
859.020508 124.0
862.647034 208.0
870.005188 160.0
875.703308 136.0
879.335327 152.0
882.07019 188.0
882.661377 172.0
887.368774 72.0
893.266174 132.0
894.575378 168.0
904.969849 180.0
916.141113 104.0
923.572266 180.0
924.522217 136.0
930.669067 100.0
935.380859 208.0
945.127747 132.0
948.618835 152.0
949.526306 200.0
950.734985 164.0
965.131653 152.0
969.72522 200.0
972.479126 184.0
978.241516 164.0
978.571472 228.0
990.819458 72.0
1000.478821 132.0
1003.528259 148.0
1014.01593 88.0
1015.112732 76.0
1015.283936 168.0
1017.447754 132.0
1019.893555 76.0
1020.974426 60.0
1027.146362 48.0
1027.784424 144.0
1029.009888 208.0
1031.591064 220.0
1033.746582 152.0
1035.385498 48.0
1035.494385 52.0
1044.255493 176.0
1046.28894 132.0
1049.645996 216.0
1053.118164 44.0
1055.774536 116.0
1058.719238 176.0
1060.151001 180.0
1061.629028 180.0
1063.406738 176.0
1069.45166 204.0
1071.366211 148.0
1079.302979 72.0
1079.728027 176.0
1081.232788 144.0
1084.632202 132.0
1086.481567 176.0
1090.86853 204.0
1093.512817 168.0
1093.769531 120.0
1097.610596 196.0
1097.940308 200.0
1098.811035 152.0
1099.477539 192.0
1106.246216 72.0
1107.815674 128.0
1109.001831 164.0
1115.367554 144.0
1116.690796 132.0
1118.354248 184.0
1118.400757 164.0
1121.69812 156.0
1122.824951 172.0
1124.946899 176.0
1126.663208 128.0
1127.872803 128.0
1129.470947 192.0
1129.531128 32.0
1133.233398 112.0
1134.996338 172.0
1137.27063 176.0
1137.563232 264.0
1142.781372 168.0
1142.916016 212.0
1144.423706 200.0
1144.544922 220.0
1145.871826 180.0
1146.073975 168.0
1148.629272 136.0
1151.234497 132.0
1154.045654 128.0
1154.58667 132.0
1154.71521 140.0
1155.425415 224.0
1155.939697 196.0
1156.196899 164.0
1156.982056 132.0
1157.259644 108.0
1158.593994 228.0
1159.617188 120.0
1159.709717 228.0
1163.789307 176.0
1164.665405 168.0
1166.53418 120.0
1168.064209 132.0
1168.16626 128.0
1168.975952 184.0
1170.548462 216.0
1172.210693 152.0
1172.265259 156.0
1174.753906 140.0
1182.605469 188.0
1187.943604 116.0
1188.320923 148.0
1189.02771 156.0
1198.469727 104.0
1199.779297 128.0
1201.013672 80.0
1204.720703 196.0
1206.289429 256.0
1206.628174 188.0
1209.727661 220.0
1210.800903 240.0
1211.639038 176.0
1212.207275 184.0
1212.449829 128.0
1216.993652 216.0
1217.861694 100.0
1218.778809 84.0
1219.348633 128.0
1219.523682 372.0
1220.314941 104.0
1220.426147 188.0
1220.947754 88.0
1222.026001 216.0
1223.104736 180.0
1224.587769 148.0
1224.852539 136.0
1226.852539 208.0
1228.240356 176.0
1228.756592 184.0
1230.599243 160.0
1231.276611 228.0
1234.16272 120.0
1236.394287 196.0
1237.682373 136.0
1238.431763 116.0
1239.419556 196.0
1239.797974 232.0
1242.743286 136.0
1243.697754 144.0
1244.125977 144.0
1245.446167 164.0
1246.5 180.0
1247.097412 212.0
1247.927002 188.0
1249.636108 168.0
1251.522461 212.0
1252.945312 128.0
1255.47583 160.0
1255.779175 48.0
1257.585449 140.0
1258.383179 140.0
1259.407227 172.0
1259.929932 100.0
1262.998047 248.0
1265.00769 156.0
1265.198853 152.0
1266.048584 252.0
1269.5354 148.0
1271.379883 144.0
1273.552612 172.0
1274.497437 200.0
1275.115723 112.0
1275.755493 144.0
1276.516235 88.0
1276.950073 268.0
1278.373047 132.0
1278.985107 156.0
1283.958496 172.0
1284.193848 236.0
1285.413818 160.0
1287.141357 72.0
1289.791992 144.0
1295.302002 152.0
1295.459595 248.0
1297.064819 120.0
1299.582153 160.0
1301.591919 144.0
1302.363892 172.0
1302.992554 172.0
1303.567505 184.0
1304.674316 200.0
1305.343018 80.0
1306.335693 252.0
1306.731323 176.0
1307.400513 68.0
1308.156372 40.0
1308.221191 32.0
1310.8573 148.0
1314.304199 96.0
1317.604004 168.0
1321.848389 144.0
1324.534546 172.0
1325.20105 204.0
1325.389404 156.0
1326.367798 224.0
1327.092773 244.0
1328.144409 64.0
1328.521606 64.0
1329.501221 140.0
1330.450439 212.0
1331.810059 180.0
1332.006226 156.0
1332.594727 100.0
1335.21167 188.0
1335.29895 176.0
1336.397461 184.0
1336.681274 192.0
1337.831299 204.0
1339.316772 60.0
1339.721924 192.0
1340.723022 164.0
1342.800903 224.0
1343.32605 68.0
1345.933472 196.0
1348.466797 132.0
1348.539795 168.0
1348.868774 124.0
1351.82373 136.0
1352.431152 216.0
1352.672729 172.0
1353.719727 200.0
1353.822266 148.0
1354.671875 216.0
1355.331299 136.0
1357.442505 164.0
1358.484009 168.0
1361.831421 160.0
1362.242676 192.0
1363.462524 124.0
1363.594727 260.0
1364.182861 84.0
1366.720215 164.0
1366.896851 132.0
1367.721191 108.0
1368.35437 172.0
1368.604614 144.0
1370.232422 228.0
1370.549316 148.0
1371.109375 108.0
1371.44104 48.0
1372.539551 176.0
1373.230835 244.0
1374.966675 152.0
1375.616211 208.0
1376.036987 224.0
1377.004395 188.0
1377.359253 184.0
1378.548462 116.0
1380.492798 100.0
1380.847778 132.0
1381.128906 88.0
1381.794678 164.0
1381.862793 152.0
1382.009277 128.0
1382.164673 188.0
1382.364502 200.0
1382.490234 176.0
1383.955933 152.0
1384.585449 192.0
1384.829834 244.0
1385.244629 188.0
1386.118896 220.0
1387.957275 212.0
1388.068604 188.0
1388.595093 236.0
1390.071533 140.0
1390.516724 144.0
1390.628174 196.0
1391.912476 232.0
1392.30603 160.0
1393.925659 92.0
1394.11145 120.0
1395.590698 136.0
1397.018677 128.0
1397.79248 184.0
1398.514404 168.0
1399.40918 112.0
1399.586548 96.0
1402.976562 176.0
1403.621216 220.0
1403.707275 28.0
1403.901245 40.0
1404.691895 120.0
1405.243896 160.0
1406.408081 228.0
1407.475708 176.0
1407.804321 140.0
1409.014404 116.0
1410.546509 152.0
1410.621216 216.0
1411.137085 128.0
1412.460815 76.0
1413.575562 132.0
1414.211792 140.0
1414.915405 28.0
1415.22998 184.0
1415.372192 140.0
1415.791626 160.0
1416.046265 72.0
1417.694458 184.0
1420.176147 188.0
1420.266235 252.0
1421.271484 172.0
1421.81189 144.0
1424.379761 168.0
1426.100464 240.0
1427.348511 120.0
1428.898071 116.0
1429.424683 56.0
1430.192383 128.0
1430.275269 72.0
1430.388184 108.0
1430.681763 224.0
1431.555176 40.0
1433.853027 168.0
1435.75293 152.0
1436.914551 152.0
1438.212646 208.0
1440.130493 100.0
1441.671875 208.0
1443.281982 232.0
1443.440796 192.0
1444.287842 136.0
1444.946045 136.0
1445.687622 200.0
1450.140991 164.0
1452.021362 132.0
1452.537109 36.0
1452.840576 140.0
1453.022583 180.0
1453.546143 212.0
1454.115356 160.0
1454.206421 204.0
1454.510132 172.0
1454.836548 48.0
1456.347656 152.0
1456.408447 80.0
1456.552734 180.0
1457.016235 180.0
1458.574097 140.0
1460.292603 124.0
1461.727295 156.0
1463.435547 192.0
1466.734375 136.0
1467.740723 176.0
1469.930054 184.0
1470.418457 180.0
1470.512573 160.0
1472.258423 116.0
1474.328857 164.0
1474.772217 212.0
1475.200195 200.0
1475.658936 144.0
1476.721924 168.0
1476.989624 144.0
1478.068481 196.0
1478.542969 168.0
1478.597778 204.0
1478.665405 144.0
1479.645264 108.0
1480.648315 72.0
1481.123291 164.0
1481.376099 168.0
1481.543335 176.0
1482.349121 116.0
1483.46814 184.0
1483.759521 172.0
1484.679688 188.0
1487.25 188.0
1489.085083 160.0
1489.676636 200.0
1489.82251 208.0
1489.876343 120.0
1490.04541 204.0
1490.460327 180.0
1490.79834 136.0
1491.121216 168.0
1492.251221 140.0
1492.751099 44.0
1492.935669 200.0
1493.973999 200.0
1495.813232 148.0
1497.37146 164.0
1497.622925 244.0
1497.969116 176.0
1498.06189 152.0
1498.424072 172.0
1499.30249 44.0
1499.911377 144.0
1500.104126 152.0
1501.075684 204.0
1501.322388 124.0
1504.571045 204.0
1504.86438 160.0
1505.204102 52.0
