>compound Butenafine HCl
>formula C23H27N
>ionization [M+H]+
>parentmass 318.2216263160906
#inchi InChI=1S/C23H27N/c1-23(2,3)21-14-12-18(13-15-21)16-24(4)17-20-10-7-9-19-8-5-6-11-22(19)20/h5-15H,16-17H2,1-4H3
#inchikey ABJKWBDEJIDSJZ
#origInchi InChI=1S/C23H27N.ClH/c1-23(2,3)21-14-12-18(13-15-21)16-24(4)17-20-10-7-9-19-8-5-6-11-22(19)20;/h5-15H,16-17H2,1-4H3;1H
#Ion_Source LC-ESI
#Instrument qTof
#Compound_Source Commercial
#PI Dorrestein
#Data_Collector Garg_Neha
#Scan -1
#Precursor_MZ 318.222
#ExactMass 317.214
#Charge 1
#CAS_Number 101827-46-7 ,101828-21-1(free base)
#Pubmed_ID N/A
#Smiles C1(C=CC=C2C=CC=CC=12)CN(C)CC3(C=CC(=CC=3)C(C)(C)C).Cl
#INCHI_AUX N/A
#Library_Class 1
#SpectrumID CCMSLIB00000078590
#IonMode Positive
#UpdateWorkflowName UPDATE-SINGLE-ANNOTATED-GOLD
#LibraryQualityString Gold
#TaskID 77f51c88eb8b467eb4a01dd2d0cb90d2
##Scan# 1415
#SpectrumFile Plate9_41_60_GC6_01_15755.mzXML
#LibraryName FDALibrary_2_04302014.mgf
#MQScore -1
#Organism FDALibrary_2_04302014
#TIC_Query 0
#RT_Query -1
#MZErrorPPM -1
#SharedPeaks 0
#MassDiff 0
#LibMZ -1
#SpecMZ 318.222
#SpecCharge 0
#internalFilename spec-00000.mgf

>collision 10
45.138371 148.0
45.493282 148.0
45.512077 164.0
45.931976 156.0
46.273884 248.0
46.424294 184.0
46.664635 172.0
46.720398 188.0
46.808868 152.0
47.067955 176.0
47.523762 192.0
47.831608 188.0
48.018997 176.0
48.399033 164.0
49.297657 160.0
49.413715 140.0
49.656055 152.0
50.167889 188.0
50.275089 164.0
50.352737 244.0
50.741879 156.0
50.751801 216.0
50.961243 176.0
51.11544 184.0
51.307724 144.0
51.659035 216.0
51.931194 184.0
52.412796 212.0
52.493523 216.0
52.921234 232.0
52.94875 200.0
53.321609 160.0
53.436489 184.0
53.863636 176.0
54.380512 204.0
55.078442 176.0
55.128021 108.0
55.26255 172.0
55.727322 156.0
55.871536 188.0
55.892368 156.0
56.126228 152.0
56.2411 144.0
56.288876 152.0
56.778233 148.0
56.931309 192.0
57.253139 144.0
57.329971 204.0
57.97728 172.0
58.295475 164.0
58.446014 188.0
58.663807 180.0
58.981319 172.0
59.232269 192.0
59.72654 168.0
59.775772 156.0
59.920509 156.0
60.371231 176.0
60.436199 196.0
60.491917 176.0
60.561596 148.0
60.625118 172.0
61.15472 144.0
61.441444 156.0
61.655369 160.0
61.753864 148.0
62.096645 120.0
62.409378 140.0
62.579308 144.0
62.595051 172.0
62.777851 140.0
63.046223 204.0
63.266083 176.0
63.645012 160.0
63.875458 144.0
64.122253 164.0
64.138191 168.0
64.174858 168.0
64.375916 184.0
65.099754 224.0
65.324768 156.0
65.519562 168.0
65.7211 148.0
66.424858 172.0
66.576698 212.0
66.634277 292.0
66.866814 148.0
67.243301 152.0
67.346809 160.0
67.914131 176.0
68.267242 156.0
68.46637 188.0
68.669083 172.0
68.707024 152.0
68.8946 152.0
68.913399 152.0
69.506172 140.0
69.968239 148.0
70.024849 216.0
70.204842 164.0
70.349243 140.0
70.386734 160.0
71.3283 144.0
71.346794 172.0
71.511642 176.0
71.649727 172.0
71.669945 144.0
72.193237 164.0
72.625114 168.0
72.94944 188.0
73.517296 132.0
74.29686 180.0
74.568771 228.0
74.666168 160.0
74.869247 160.0
75.098473 188.0
75.224434 212.0
75.897446 164.0
76.180344 188.0
76.684952 228.0
77.446754 172.0
78.827827 156.0
79.884544 236.0
79.902336 140.0
79.952156 184.0
80.196159 144.0
80.538742 160.0
80.735336 168.0
81.303246 228.0
81.337349 200.0
81.790321 196.0
82.159737 144.0
82.68737 140.0
83.194901 164.0
83.209427 172.0
83.260269 164.0
83.640266 232.0
83.674858 192.0
84.583984 160.0
85.706108 180.0
85.744812 140.0
85.846207 232.0
85.901535 156.0
85.954262 132.0
86.176613 152.0
86.898705 152.0
87.164223 156.0
87.292488 168.0
87.702072 240.0
88.120087 160.0
88.338821 244.0
88.615448 152.0
89.043594 152.0
89.326172 212.0
89.487381 152.0
89.641838 200.0
90.102226 192.0
90.272034 148.0
90.525917 200.0
90.607361 140.0
90.679367 276.0
90.933517 140.0
91.054527 152.0
91.444778 164.0
91.484756 160.0
91.568535 184.0
91.639023 148.0
91.856354 164.0
92.142708 236.0
93.070992 124.0
93.68325 184.0
94.076653 152.0
94.586983 148.0
94.689606 212.0
94.862053 204.0
95.0075 172.0
95.056007 152.0
95.722763 156.0
95.81041 168.0
96.157501 144.0
96.208252 184.0
96.839851 156.0
98.09742 172.0
98.140793 164.0
98.648178 232.0
99.79409 144.0
100.056717 180.0
100.527115 176.0
100.559044 160.0
100.632904 224.0
100.824677 172.0
101.236786 144.0
101.467216 160.0
101.507317 236.0
101.642548 156.0
101.979095 180.0
102.250618 196.0
103.486031 152.0
103.757523 208.0
103.897453 144.0
104.056076 180.0
104.078094 148.0
104.210114 144.0
104.366623 176.0
104.513069 156.0
104.834808 180.0
105.070099 1684.0
106.072594 232.0
106.09594 152.0
106.110291 212.0
106.296944 176.0
106.934021 164.0
107.086143 692.0
107.119339 156.0
107.209991 140.0
107.71962 152.0
107.838135 180.0
108.255302 212.0
108.476997 156.0
108.653267 144.0
108.725891 260.0
108.800621 208.0
109.29528 176.0
109.636787 156.0
109.724335 220.0
109.916229 176.0
109.9851 144.0
110.095749 156.0
110.547302 140.0
110.679176 152.0
110.850945 144.0
111.278839 212.0
111.966461 224.0
112.025436 204.0
112.189812 176.0
112.404945 196.0
112.622391 164.0
112.761841 172.0
113.439178 156.0
113.585495 160.0
113.757378 196.0
114.531395 160.0
114.953522 164.0
115.05381 3148.0
115.080666 176.0
115.130615 176.0
115.256744 140.0
115.284523 208.0
115.935997 132.0
116.059273 476.0
116.134476 172.0
116.211708 152.0
116.381271 148.0
116.624023 156.0
116.969093 160.0
117.070145 1448.0
117.293442 164.0
117.666649 200.0
117.735748 160.0
118.071014 240.0
118.540497 188.0
119.085587 2056.0
119.3153 128.0
119.485008 172.0
119.583405 156.0
120.088089 328.0
120.665062 164.0
120.710823 160.0
120.732689 172.0
120.761116 152.0
120.920837 168.0
120.936157 196.0
121.056999 184.0
121.41597 172.0
121.505905 196.0
121.580513 176.0
122.094589 160.0
122.116585 188.0
122.582367 124.0
122.973656 180.0
123.214348 172.0
123.417686 168.0
123.613533 260.0
123.720795 176.0
123.747368 144.0
123.787224 196.0
124.254906 140.0
124.36808 192.0
125.643723 128.0
126.047295 140.0
126.519218 176.0
126.736176 152.0
127.198463 212.0
127.56012 140.0
127.731018 156.0
127.843277 192.0
128.077667 188.0
128.185806 168.0
128.968933 244.0
129.146973 200.0
129.27652 148.0
129.686432 196.0
130.24234 156.0
130.519913 144.0
131.085449 368.0
131.14566 156.0
131.572235 168.0
131.84404 160.0
132.092834 4160.0
132.564911 168.0
132.805939 124.0
133.096191 796.0
133.280853 148.0
133.582031 168.0
133.632645 184.0
133.66716 176.0
133.763824 180.0
133.895065 160.0
134.130066 152.0
134.29274 176.0
135.16011 148.0
135.20639 204.0
136.036179 160.0
136.363693 144.0
136.754425 180.0
137.565613 152.0
137.684692 180.0
137.869247 144.0
137.944046 156.0
138.140793 144.0
138.215332 184.0
138.38855 172.0
138.479874 156.0
138.657928 184.0
138.716064 180.0
138.85997 184.0
138.95105 148.0
139.055466 544.0
139.087494 192.0
139.233948 176.0
139.312576 184.0
139.380722 144.0
139.575821 160.0
139.828812 184.0
140.071777 256.0
140.192566 168.0
140.812744 168.0
140.859299 132.0
140.882874 168.0
140.902924 148.0
140.969513 108.0
141.006577 544.0
141.033066 144.0
141.070801 216032.0
141.156525 192.0
141.250046 148.0
141.322418 168.0
141.459488 520.0
141.606888 172.0
141.709579 176.0
141.770767 152.0
141.791718 240.0
141.841537 96.0
141.982086 200.0
142.073654 20468.0
142.136185 100.0
142.166061 216.0
142.235428 148.0
142.631271 124.0
142.69603 192.0
142.986115 112.0
143.077637 1020.0
143.188156 216.0
143.494507 140.0
144.005173 140.0
144.245926 148.0
144.315842 168.0
144.464111 196.0
144.665131 164.0
144.846558 204.0
145.900604 168.0
146.100647 172.0
146.268661 140.0
146.360153 160.0
146.396271 228.0
146.516708 180.0
146.813187 172.0
147.073883 148.0
147.117111 55468.0
148.120895 7192.0
148.175919 212.0
148.30632 140.0
148.94548 144.0
149.075577 176.0
149.121017 248.0
149.279709 176.0
149.405685 128.0
150.936615 140.0
152.52774 152.0
153.579147 140.0
153.638351 204.0
155.092377 172.0
155.819473 196.0
156.645401 196.0
157.03923 188.0
157.360703 108.0
157.768738 136.0
158.710663 176.0
159.309586 140.0
161.118668 468.0
161.586105 196.0
162.013962 152.0
162.120392 180.0
162.858673 160.0
163.894073 200.0
165.546799 216.0
165.851669 224.0
166.608673 164.0
166.719162 148.0
167.983368 168.0
168.220764 172.0
168.517502 120.0
169.760223 164.0
169.875885 176.0
170.096405 2644.0
171.099701 568.0
172.026428 180.0
172.065598 172.0
172.915131 192.0
173.294846 144.0
174.136902 176.0
174.741501 252.0
175.141647 180.0
175.286545 208.0
176.072678 144.0
176.144089 6856.0
176.260239 148.0
176.348358 100.0
176.473328 156.0
176.677994 164.0
176.769226 124.0
177.148239 548.0
177.509659 188.0
178.146835 160.0
179.989685 204.0
180.435883 144.0
181.086136 196.0
181.576599 140.0
184.111786 160.0
185.665207 152.0
185.762848 156.0
189.802063 160.0
192.609222 260.0
193.962326 168.0
196.25032 140.0
196.82373 128.0
197.258148 156.0
197.537781 168.0
198.086441 156.0
199.017548 148.0
199.124252 160.0
201.335068 188.0
202.28508 156.0
202.525772 172.0
203.257202 176.0
203.771118 172.0
204.066711 152.0
204.85788 180.0
205.530731 180.0
205.610626 144.0
208.923004 204.0
209.959946 224.0
210.133026 144.0
210.447617 180.0
211.633072 156.0
212.688324 176.0
212.83638 236.0
215.206512 168.0
216.090805 176.0
218.933533 156.0
219.030731 224.0
220.313934 152.0
222.983368 168.0
224.424515 140.0
225.31691 164.0
227.077026 236.0
228.350464 148.0
228.847 192.0
228.889145 148.0
229.102173 132.0
229.681763 388.0
230.101227 120.0
231.117844 1120.0
232.1241 164.0
232.957062 216.0
233.123398 140.0
237.514572 244.0
238.014816 168.0
239.478653 164.0
240.159821 212.0
243.912674 140.0
245.1353 148.0
245.416336 188.0
245.509888 140.0
250.065216 240.0
252.744461 192.0
252.87738 144.0
257.097992 180.0
258.267334 184.0
258.555267 160.0
260.597931 148.0
261.88147 176.0
262.156189 104.0
264.292969 192.0
266.20871 252.0
268.199799 172.0
269.178558 152.0
270.576691 124.0
270.783295 164.0
271.052887 176.0
272.007263 248.0
272.154999 148.0
272.20755 148.0
273.499603 152.0
274.253876 188.0
274.501129 168.0
275.372375 160.0
276.738129 184.0
277.152161 112.0
277.606262 196.0
279.562927 140.0
281.01239 144.0
281.623291 180.0
283.573914 152.0
284.244629 176.0
286.335632 160.0
287.029846 228.0
287.137756 144.0
287.18045 2364.0
287.238953 140.0
287.89682 144.0
288.184021 680.0
289.171661 148.0
290.313354 180.0
291.202545 156.0
291.596649 184.0
292.542267 148.0
294.294617 144.0
294.858276 212.0
298.66748 156.0
298.822296 152.0
300.793518 156.0
300.831512 180.0
300.935059 172.0
301.39444 160.0
301.529236 260.0
302.847443 152.0
302.920166 216.0
304.210175 152.0
308.953125 148.0
309.422089 160.0
310.739868 212.0
313.415558 192.0
314.239227 164.0
315.15625 156.0
315.405975 140.0
316.230103 188.0
316.273926 264.0
316.45636 144.0
316.740814 136.0
316.856934 120.0
317.130707 188.0
317.206757 212.0
317.260254 268.0
317.361694 224.0
317.411652 168.0
317.452942 292.0
317.493774 100.0
317.660583 180.0
317.738861 104.0
317.782776 320.0
317.822296 212.0
317.858582 156.0
317.945923 192.0
317.977905 112.0
318.05835 248.0
318.112579 504.0
318.161285 248.0
318.224213 173864.0
318.355347 260.0
318.477753 140.0
318.526642 256.0
318.550781 352.0
318.614105 276.0
318.654175 204.0
318.692017 216.0
318.771637 168.0
318.806763 3236.0
318.843567 384.0
318.897858 180.0
319.155212 208.0
319.225677 53104.0
319.348602 296.0
319.417725 236.0
319.444885 160.0
319.478302 128.0
319.571228 116.0
319.627655 164.0
319.678711 264.0
319.800873 148.0
319.849365 112.0
319.998413 144.0
320.059448 188.0
320.095825 152.0
320.186371 160.0
320.227448 5588.0
320.354614 164.0
320.648102 108.0
320.719666 124.0
320.890442 264.0
320.973938 228.0
321.063354 124.0
321.09845 128.0
321.134613 116.0
321.197296 304.0
321.235992 244.0
321.291748 116.0
321.370514 180.0
321.494537 208.0
321.991882 120.0
322.126953 100.0
322.828217 160.0
323.142731 104.0
328.335052 144.0
332.956635 148.0
362.227509 168.0
393.848419 140.0
487.783447 104.0
501.03241 148.0
1044.322998 160.0
1071.237915 196.0
1109.386841 156.0
1185.677979 148.0
1204.440796 208.0
1211.371948 144.0
1219.24707 196.0
1236.410278 232.0
1237.621338 224.0
1274.71106 156.0
1284.500488 140.0
1284.735962 188.0
1292.294678 216.0
1299.53833 220.0
1322.042114 172.0
1328.171509 144.0
1339.547485 172.0
1341.06311 156.0
1352.128052 144.0
1353.123657 160.0
1380.466431 152.0
1381.568481 200.0
1385.677368 164.0
1386.344238 200.0
1387.878662 180.0
1388.939209 152.0
1389.963013 204.0
1406.574463 196.0
1409.703857 140.0
1414.527954 216.0
1415.276611 144.0
1424.358521 176.0
1432.859253 192.0
1433.364136 164.0
1434.215698 184.0
1436.628784 152.0
1438.137939 164.0
1441.067993 148.0
1442.088135 144.0
1447.012695 152.0
1452.5979 180.0
1454.904907 240.0
1457.175659 200.0
1480.976685 140.0
1490.45105 224.0
1507.704956 168.0
1509.320557 192.0
1513.429199 168.0
1519.288452 268.0
1522.85144 220.0
1524.078857 192.0
1525.633301 140.0
1530.371338 152.0
1539.400879 140.0
1542.346313 160.0
1544.363647 140.0
1558.380249 192.0
1564.407715 244.0
1570.992676 140.0
1572.910156 156.0
1583.893433 168.0
1588.887695 176.0
1601.718262 148.0
1606.708496 164.0
1618.41748 200.0
1620.932617 180.0
1624.684937 156.0
1635.916138 224.0
1636.177246 196.0
1641.108032 184.0
1651.347656 228.0
1652.917114 180.0
1652.989868 196.0
1658.221436 200.0
1662.276367 196.0
1664.224487 164.0
1669.555054 152.0
1671.995728 144.0
1672.475952 224.0
1687.821411 144.0
1688.124023 164.0
1692.117065 152.0
1698.377808 204.0
1704.272217 140.0
1717.155396 196.0
1719.052856 156.0
1721.190796 188.0
1725.917236 200.0
1727.397583 204.0
1730.36853 144.0
1740.334595 228.0
1741.5802 164.0
1747.08313 156.0
1750.596069 228.0
1751.170288 176.0
1758.390503 164.0
1762.114746 144.0
1765.792725 208.0
1766.353149 160.0
1767.348755 176.0
1767.516113 152.0
1768.738037 216.0
1778.268066 232.0
1781.778076 212.0
1782.920898 188.0
1783.017212 208.0
1784.01355 180.0
1785.933472 212.0
1786.359741 180.0
1789.726196 212.0
1790.75354 188.0
1793.424561 156.0
1796.645752 176.0
1802.792603 180.0
1805.804565 200.0
1809.212402 164.0
1811.016113 140.0
1812.405396 188.0
1814.40564 148.0
1816.025269 188.0
1823.598877 156.0
1826.438721 176.0
1828.829712 160.0
1830.055542 172.0
1831.835449 184.0
1842.046387 204.0
1842.584595 180.0
1843.174072 152.0
1844.310791 140.0
1850.803955 140.0
1850.898193 148.0
1853.964966 164.0
1857.729004 144.0
1859.517578 208.0
1864.366089 148.0
1864.93335 184.0
1865.501953 132.0
1865.595215 144.0
1873.43396 176.0
1876.580688 144.0
1877.908691 160.0
1881.29126 184.0
1887.269775 144.0
1887.607056 260.0
1888.35083 160.0
1892.062988 184.0
1894.557129 176.0
1894.747803 164.0
1895.241577 144.0
1900.305176 144.0
1901.433228 160.0
1902.830811 140.0
1906.166138 156.0
1909.408813 180.0
1911.611206 124.0
1911.862061 196.0
1912.497437 244.0
1913.228638 172.0
1919.039795 148.0
1922.197388 164.0
1923.096191 180.0
1925.156616 204.0
1928.703735 160.0
1929.420654 144.0
1931.239502 172.0
1933.07666 196.0
1937.45459 164.0
1938.067871 268.0
1944.416748 168.0
1945.786133 160.0
1945.865112 144.0
1946.365601 224.0
1947.112061 148.0
1949.721313 148.0
1949.967407 180.0
1951.963013 164.0
1955.64917 160.0
1959.955566 188.0
1961.674194 196.0
1962.538208 140.0
1964.160889 140.0
1964.910645 176.0
1965.224365 188.0
1970.384521 148.0
1971.983887 160.0
1972.929688 156.0
1975.158203 176.0
1977.016113 172.0
1984.838135 156.0
1986.718384 152.0
1988.395386 140.0
1988.741577 164.0
1989.797974 172.0
1990.836792 208.0
1992.231323 140.0
1993.875122 172.0
1997.298218 144.0
1999.282227 200.0
1999.433594 224.0
1999.87854 176.0
2000.056641 184.0
2000.563965 160.0
