>compound MLS002153852-01!Bromperidol10457-90-6
>formula C21H23BrFNO2
>ionization [M+H]+
>parentmass 420.09689574809056
#inchi InChI=1S/C21H23BrFNO2/c22-18-7-5-17(6-8-18)21(26)11-14-24(15-12-21)13-1-2-20(25)16-3-9-19(23)10-4-16/h3-10,26H,1-2,11-15H2
#inchikey RKLNONIVDFXQRX
#Ion_Source LC-ESI
#Instrument qTof
#Compound_Source NIH Pharmacologically Active Library
#PI Dorrestein
#Data_Collector VP/LMS
#Scan -1
#Precursor_MZ 420.099
#ExactMass 419.09
#Charge 1
#CAS_Number N/A
#Pubmed_ID N/A
#Smiles OC1(CCN(CCCC(=O)c2ccc(F)cc2)CC1)c3ccc(Br)cc3
#INCHI_AUX N/A
#Library_Class 1
#SpectrumID CCMSLIB00000084800
#IonMode Positive
#UpdateWorkflowName UPDATE-SINGLE-ANNOTATED-GOLD
#LibraryQualityString Gold
#TaskID d252d724072548979f1f6f1ced849daf
##Scan# 1771
#SpectrumFile p3-A10_GA10_01_18231.mzXML
#LibraryName Pharm_Active_Library.mgf
#MQScore -1
#Organism Pharm_Active_Library
#TIC_Query 0
#RT_Query -1
#MZErrorPPM -1
#SharedPeaks 0
#MassDiff 0
#LibMZ -1
#SpecMZ 420.099
#SpecCharge 0
#internalFilename spec-00000.mgf

>collision 10
45.118874 172.0
45.279449 224.0
45.345097 124.0
45.392021 36.0
45.404091 172.0
45.574574 188.0
45.64447 224.0
45.888184 216.0
46.01096 52.0
46.116325 188.0
46.39518 156.0
46.677593 112.0
46.935158 132.0
47.102821 316.0
47.266884 180.0
47.431229 124.0
47.608223 180.0
47.716774 180.0
47.736023 116.0
47.828205 260.0
47.884655 152.0
47.932873 164.0
47.990765 176.0
48.123222 196.0
48.192284 188.0
48.265541 76.0
48.782684 116.0
48.79937 68.0
48.948254 196.0
48.991428 88.0
49.167557 64.0
49.326347 160.0
49.432644 248.0
49.44244 180.0
49.759232 104.0
49.788719 88.0
49.847725 172.0
49.930668 212.0
49.981308 204.0
50.029163 52.0
50.120712 196.0
50.267361 172.0
50.349239 200.0
50.378902 156.0
50.395859 200.0
50.674591 192.0
50.877399 100.0
50.901539 176.0
51.225815 152.0
51.624027 208.0
51.732769 256.0
52.615475 64.0
52.650127 148.0
52.731033 196.0
52.807663 100.0
52.878559 248.0
52.894482 92.0
53.055279 140.0
53.565357 204.0
53.86293 120.0
54.099831 160.0
54.29324 188.0
54.382736 128.0
54.435589 212.0
54.475246 152.0
54.56636 192.0
54.713486 64.0
54.795959 128.0
55.283234 232.0
55.618187 64.0
55.781586 140.0
55.827675 160.0
55.875275 148.0
55.899082 180.0
56.05991 132.0
56.36306 208.0
56.464485 164.0
56.680054 196.0
56.696537 148.0
56.734013 136.0
56.872017 32.0
56.905041 156.0
56.966618 232.0
57.007183 180.0
57.083851 112.0
57.101898 120.0
57.241856 164.0
57.53738 172.0
57.5555 40.0
57.621029 196.0
57.837997 200.0
57.888168 176.0
58.057896 188.0
58.255215 132.0
58.303837 172.0
58.416351 204.0
58.445259 184.0
58.580757 244.0
58.693539 64.0
58.759125 236.0
58.769806 216.0
58.795746 120.0
58.869026 60.0
59.096783 160.0
59.156467 172.0
59.390915 164.0
59.493729 132.0
59.555149 92.0
59.790386 48.0
59.80854 156.0
59.845802 168.0
59.856583 48.0
59.978291 136.0
60.012207 176.0
60.319427 160.0
60.573204 60.0
60.898937 192.0
61.035694 188.0
61.069908 52.0
61.194401 88.0
61.35955 112.0
61.498386 200.0
61.692081 272.0
61.87199 200.0
61.980061 160.0
62.383411 112.0
62.539139 168.0
62.602112 104.0
63.372955 184.0
63.507706 152.0
63.699768 180.0
64.089546 172.0
64.183594 272.0
64.223465 160.0
64.322388 164.0
64.456543 36.0
64.76371 84.0
64.925583 240.0
65.021843 80.0
65.434959 104.0
66.396416 176.0
66.763443 232.0
66.883842 140.0
66.913147 224.0
67.048347 132.0
67.361618 164.0
67.595413 216.0
67.618324 184.0
68.01825 248.0
68.182503 100.0
68.26963 204.0
68.325554 132.0
68.412773 232.0
68.427589 200.0
68.617287 144.0
68.638496 172.0
68.716019 136.0
68.73912 104.0
68.762222 92.0
68.881104 152.0
68.894318 156.0
68.925713 200.0
69.054657 100.0
69.264862 132.0
69.410706 184.0
69.465439 252.0
69.614815 272.0
69.874115 144.0
69.92836 160.0
69.983963 160.0
69.998947 96.0
70.0839 180.0
70.273972 140.0
70.332382 180.0
70.46431 160.0
71.233253 224.0
71.43161 196.0
71.58477 104.0
71.663933 204.0
71.871323 204.0
72.35302 80.0
72.408897 200.0
72.627533 176.0
72.992668 32.0
73.222412 60.0
73.688095 164.0
73.756454 144.0
73.841942 56.0
73.864174 140.0
73.968559 200.0
74.018204 168.0
74.04332 180.0
74.073013 156.0
74.244408 172.0
74.325035 144.0
74.735695 184.0
75.146713 188.0
75.556946 176.0
75.951912 152.0
75.976196 260.0
76.101158 204.0
76.167145 148.0
76.278358 112.0
76.499275 88.0
76.661255 208.0
77.024155 108.0
77.04686 184.0
77.317886 212.0
77.368652 200.0
77.40892 156.0
78.311607 212.0
78.872696 100.0
79.106194 192.0
79.274452 156.0
79.668343 156.0
79.735863 80.0
79.95639 148.0
80.184357 184.0
80.369812 192.0
80.707397 108.0
80.920311 164.0
81.106621 208.0
81.131721 136.0
81.456528 108.0
81.476288 144.0
81.526596 68.0
81.612877 192.0
81.702805 192.0
81.983696 196.0
82.257843 144.0
82.468224 212.0
82.579468 180.0
82.963348 104.0
83.001419 148.0
83.014114 128.0
83.142914 140.0
83.269997 128.0
83.400818 164.0
83.599052 164.0
83.659119 192.0
83.69735 168.0
84.122147 244.0
84.264595 120.0
84.315758 132.0
84.663353 212.0
84.712807 172.0
84.828247 176.0
84.848419 188.0
85.050201 180.0
85.070396 152.0
85.195267 108.0
85.316559 172.0
85.391945 76.0
85.651466 100.0
85.704895 132.0
85.900314 200.0
85.951973 176.0
86.079338 196.0
86.173546 108.0
86.349152 72.0
86.519386 192.0
86.639992 240.0
87.157402 168.0
87.207581 224.0
87.399124 168.0
87.529419 204.0
87.721313 72.0
88.161797 52.0
88.277695 180.0
88.358124 176.0
88.584641 48.0
88.635231 172.0
89.186981 220.0
89.35434 112.0
89.600967 208.0
89.70462 200.0
89.776268 204.0
89.929085 224.0
90.407227 140.0
90.522705 52.0
90.587097 132.0
90.655304 196.0
90.712166 188.0
90.882851 160.0
91.289345 160.0
91.958038 184.0
92.48365 76.0
92.648331 188.0
92.713478 228.0
93.124039 84.0
93.314285 148.0
93.460457 168.0
93.747368 120.0
93.86689 152.0
93.947891 184.0
94.054024 148.0
94.152489 136.0
94.394051 124.0
94.860641 160.0
95.029922 1544.0
95.15358 200.0
95.167168 56.0
95.314789 208.0
95.452324 196.0
95.518921 244.0
95.548103 28.0
95.657082 216.0
95.748596 120.0
96.027245 156.0
96.081909 64.0
96.210709 148.0
96.355232 136.0
96.476395 192.0
96.546783 172.0
96.609375 84.0
96.65242 196.0
96.763985 56.0
97.289391 164.0
97.462219 132.0
97.544762 80.0
97.576218 164.0
97.61554 172.0
97.700119 52.0
97.751274 160.0
97.836853 208.0
98.034836 176.0
98.056519 104.0
98.079376 180.0
98.096657 704.0
98.141281 208.0
98.162971 220.0
98.226082 56.0
98.295135 124.0
98.42012 112.0
98.557755 196.0
98.700066 140.0
98.796974 196.0
98.874146 132.0
98.905815 156.0
99.025581 196.0
99.078812 352.0
99.101822 356.0
99.238625 120.0
99.286217 184.0
99.320824 188.0
99.63755 164.0
99.742867 204.0
100.043243 152.0
100.074165 120.0
100.34008 140.0
100.529564 160.0
100.709244 260.0
101.483696 160.0
101.569931 132.0
101.748528 120.0
101.885239 168.0
101.91523 60.0
102.021751 196.0
102.039841 164.0
102.162521 164.0
102.249039 40.0
102.337608 204.0
102.686226 132.0
103.235077 136.0
103.435837 156.0
103.786316 184.0
103.869469 136.0
104.031807 164.0
104.147545 164.0
104.501266 116.0
104.533821 80.0
104.556206 156.0
104.615234 172.0
104.712967 168.0
104.833168 136.0
104.945274 216.0
105.071724 152.0
105.108452 128.0
105.208458 132.0
105.257462 72.0
105.281967 120.0
105.373886 124.0
105.506721 168.0
105.621239 116.0
105.809502 132.0
105.965157 144.0
106.131172 64.0
106.211151 232.0
106.295265 56.0
107.027023 148.0
107.216537 92.0
107.253639 140.0
107.571297 156.0
107.602264 108.0
107.730301 216.0
107.852219 152.0
107.891495 100.0
108.081772 136.0
108.962952 132.0
109.047241 368.0
109.062431 820.0
109.366371 240.0
109.622528 220.0
109.762192 192.0
110.047592 220.0
110.073105 176.0
110.119049 140.0
110.470139 248.0
110.943474 64.0
111.239258 160.0
111.379257 208.0
111.535439 80.0
111.899368 208.0
112.112114 148.0
112.158478 188.0
112.74733 116.0
112.838219 120.0
113.038956 208.0
113.05883 352.0
113.329247 148.0
113.853188 164.0
114.095444 280.0
114.580643 124.0
114.760551 204.0
114.902565 44.0
115.007126 260.0
115.054085 72.0
115.078133 532.0
115.494286 212.0
115.524231 200.0
115.659042 132.0
115.718979 116.0
115.995331 120.0
116.071648 1956.0
116.107735 1224.0
116.164734 32.0
116.235535 124.0
116.360023 128.0
116.400818 168.0
116.554398 128.0
116.594154 80.0
116.8694 152.0
116.944717 124.0
117.015755 176.0
117.069588 208.0
117.110504 152.0
117.127739 256.0
117.662537 204.0
117.694923 64.0
118.10553 56.0
118.140137 200.0
118.490852 84.0
118.989662 188.0
119.007935 184.0
119.085213 196.0
119.259026 152.0
119.776878 164.0
119.946846 144.0
119.983902 168.0
120.750336 92.0
120.953819 128.0
121.019493 152.0
121.10128 204.0
121.522514 152.0
121.593819 120.0
121.806793 160.0
122.050735 192.0
122.138039 128.0
122.162903 148.0
122.396194 76.0
122.422615 48.0
122.50631 228.0
122.579018 40.0
122.653946 184.0
122.746544 276.0
122.766388 168.0
122.788445 112.0
122.859322 208.0
122.907562 212.0
122.923012 112.0
122.953835 244.0
122.978813 168.0
122.985023 288.0
123.025566 45196.0
123.070778 72.0
123.07888 52.0
123.095192 92.0
123.13324 100.0
123.163857 44.0
123.183601 132.0
123.214584 72.0
123.229927 128.0
123.253128 104.0
123.296478 208.0
123.321205 52.0
123.387566 268.0
123.436844 52.0
123.475288 64.0
123.5392 76.0
123.596954 52.0
123.637794 64.0
123.66777 204.0
123.689903 148.0
123.745247 56.0
123.802177 88.0
123.865822 108.0
124.028641 4300.0
124.076118 128.0
124.112579 76.0
124.17292 68.0
124.202446 128.0
124.268311 84.0
124.514305 112.0
124.541351 48.0
124.620804 68.0
124.628502 52.0
124.635437 80.0
124.667992 200.0
124.796913 96.0
124.869537 176.0
124.922394 112.0
124.945389 100.0
124.970398 160.0
124.990425 104.0
125.035774 168.0
125.058708 152.0
125.097275 204.0
125.507179 72.0
125.786049 76.0
125.954506 192.0
126.270905 164.0
127.07283 132.0
127.103218 148.0
127.360168 144.0
127.436546 152.0
128.059662 304.0
128.122742 76.0
128.627869 192.0
128.688828 116.0
128.962158 108.0
129.063889 128.0
129.122681 192.0
129.312729 300.0
130.081116 232.0
130.124237 124.0
130.265045 176.0
130.945129 64.0
131.451218 68.0
131.94458 176.0
132.040604 96.0
132.349533 164.0
132.482376 92.0
132.821625 80.0
132.973068 100.0
133.241714 228.0
135.061691 560.0
135.630127 72.0
136.842758 192.0
137.077667 56.0
137.094681 192.0
138.084106 140.0
138.105225 96.0
138.21283 224.0
139.209061 120.0
140.161728 164.0
140.347931 168.0
141.193314 116.0
142.121597 292.0
142.473267 248.0
143.122559 212.0
143.344086 160.0
144.528427 136.0
145.048111 172.0
145.283112 180.0
145.926743 196.0
146.651321 160.0
147.056244 316.0
147.114441 112.0
147.157898 184.0
147.486435 164.0
147.604904 116.0
147.704056 132.0
148.054993 176.0
148.088898 136.0
149.030136 168.0
149.07872 228.0
149.095734 140.0
149.129761 120.0
149.798904 84.0
150.733322 236.0
151.474609 192.0
151.533417 140.0
151.668182 160.0
151.859436 168.0
152.070435 140.0
152.107254 192.0
153.090698 336.0
153.586075 252.0
153.956268 160.0
154.035309 100.0
154.12178 208.0
154.962997 156.0
156.904037 80.0
157.730316 236.0
157.887833 60.0
157.905334 168.0
158.067932 236.0
158.118546 3512.0
158.200592 56.0
158.543732 76.0
158.739258 140.0
159.010193 216.0
159.117294 436.0
159.163315 132.0
160.129135 188.0
160.234772 76.0
160.665878 176.0
160.78447 144.0
161.1026 140.0
161.276962 124.0
161.653778 136.0
162.152679 248.0
162.248993 44.0
162.807205 80.0
163.057297 572.0
163.079056 172.0
163.463058 84.0
163.918869 240.0
163.959641 128.0
164.064148 116.0
164.288559 140.0
164.331924 112.0
164.349792 148.0
164.410431 172.0
164.587158 200.0
164.768494 144.0
164.847702 124.0
164.979156 120.0
165.072189 40468.0
165.123199 152.0
165.157791 96.0
165.181259 148.0
165.213501 60.0
165.246582 64.0
165.264496 96.0
165.287521 64.0
165.336136 56.0
165.420609 36.0
165.442719 56.0
165.492737 168.0
165.533264 68.0
165.581909 56.0
165.599838 56.0
165.635696 60.0
165.665588 72.0
165.670044 128.0
165.730484 60.0
165.859055 236.0
165.985001 204.0
166.027832 76.0
166.074173 3664.0
166.122742 80.0
166.318985 52.0
166.366516 40.0
166.474365 64.0
166.535995 100.0
166.561676 96.0
166.769806 80.0
166.882919 104.0
166.975479 56.0
167.052643 132.0
167.07782 640.0
167.114395 64.0
167.211395 212.0
167.244049 104.0
167.284241 84.0
167.320282 56.0
167.356323 72.0
167.389709 108.0
167.472214 152.0
168.080612 204.0
168.152878 136.0
168.365906 100.0
168.560898 72.0
168.669434 80.0
168.963974 160.0
170.122635 188.0
170.644821 40.0
170.941345 60.0
173.04512 60.0
173.550797 100.0
173.778976 80.0
174.125473 164.0
175.109573 240.0
175.926498 156.0
176.018906 60.0
176.076996 148.0
176.130615 132.0
178.142975 80.0
180.13858 136.0
180.183609 216.0
180.967224 144.0
182.937775 100.0
182.965912 340.0
183.064316 140.0
183.096634 124.0
184.459167 160.0
186.005859 56.0
187.095932 164.0
187.798965 44.0
189.014648 116.0
189.778839 76.0
190.099762 148.0
190.923889 80.0
192.141342 468.0
192.884186 52.0
193.116592 164.0
194.097 564.0
194.157562 52.0
194.985092 160.0
196.025879 120.0
197.561478 76.0
197.642609 64.0
198.126968 156.0
198.861633 228.0
198.931808 120.0
202.076904 128.0
202.109772 208.0
202.694153 180.0
204.123184 188.0
205.38356 200.0
206.099747 604.0
206.354477 116.0
206.411667 108.0
207.100479 376.0
207.144333 140.0
207.961517 88.0
208.774551 148.0
210.624863 240.0
211.130646 104.0
217.153503 128.0
218.24884 72.0
221.130936 168.0
222.073105 92.0
223.198608 136.0
224.151108 124.0
231.011581 76.0
231.980591 128.0
232.074585 176.0
232.453735 112.0
235.314865 108.0
236.464218 100.0
238.025238 332.0
238.937408 144.0
239.020493 160.0
240.026093 552.0
241.024734 172.0
241.968063 172.0
242.031693 116.0
242.981903 148.0
243.167664 64.0
248.93692 120.0
248.974594 132.0
249.477325 184.0
249.637665 212.0
250.279587 120.0
251.016907 132.0
251.272385 112.0
251.793213 60.0
252.153366 196.0
253.587067 108.0
254.037323 136.0
259.458679 60.0
265.047424 112.0
266.043091 140.0
267.017853 204.0
270.856171 128.0
275.015564 148.0
276.109436 180.0
277.19162 56.0
279.772278 72.0
285.130737 172.0
292.034637 164.0
295.086609 52.0
295.192596 100.0
296.873962 156.0
297.302765 44.0
299.389465 44.0
304.879608 140.0
309.732727 168.0
327.212952 132.0
331.21051 148.0
332.562958 64.0
335.881287 108.0
336.045441 216.0
338.24176 132.0
349.204102 104.0
354.055817 48.0
359.261566 148.0
359.552094 148.0
362.066132 140.0
363.187958 144.0
368.899658 184.0
376.233185 116.0
391.124664 76.0
391.156158 204.0
393.639923 76.0
394.588196 144.0
398.249847 112.0
398.511902 236.0
398.889435 136.0
400.190308 132.0
400.21817 192.0
402.011902 132.0
402.085297 1212.0
402.144958 164.0
402.898285 140.0
403.091705 272.0
403.353851 64.0
403.709656 56.0
404.086029 1552.0
405.087036 248.0
406.277069 92.0
406.573975 92.0
407.694397 84.0
409.27124 64.0
419.443939 184.0
420.01886 112.0
420.102386 940.0
420.912628 176.0
421.098846 140.0
421.107208 64.0
422.096863 656.0
422.359344 72.0
422.707092 64.0
423.090668 608.0
423.263763 68.0
423.394806 60.0
424.047241 48.0
430.73645 96.0
435.271362 164.0
435.553741 140.0
443.288696 96.0
470.815033 72.0
481.162323 72.0
497.36673 96.0
560.298462 164.0
641.014587 100.0
680.116577 100.0
713.724976 40.0
749.178528 164.0
813.101379 184.0
836.812683 176.0
909.871094 164.0
924.088379 156.0
939.172058 220.0
939.422119 128.0
970.226379 212.0
972.062256 188.0
974.570801 232.0
976.771545 76.0
982.240601 40.0
991.838684 168.0
994.071411 148.0
1010.39032 180.0
1030.621216 144.0
1035.758301 132.0
1046.991577 212.0
1048.209106 108.0
1054.494629 164.0
1064.477661 72.0
1070.245239 112.0
1077.648071 180.0
1082.809204 192.0
1093.846436 228.0
1096.19104 128.0
1101.290649 164.0
1110.735962 108.0
1112.215576 180.0
1121.654297 148.0
1122.154175 184.0
1122.760986 180.0
1131.239868 156.0
1132.37146 124.0
1141.666382 112.0
1143.018433 192.0
1143.718384 156.0
1144.256836 56.0
1155.081177 92.0
1155.290894 128.0
1157.077515 168.0
1157.856201 172.0
1161.305908 180.0
1166.065308 192.0
1167.948608 152.0
1173.99646 188.0
1175.367554 136.0
1176.814575 164.0
1181.140381 48.0
1183.528809 80.0
1184.302612 224.0
1187.53772 80.0
1189.472656 192.0
1192.013672 236.0
1193.532837 212.0
1194.069214 152.0
1207.974365 116.0
1210.209717 148.0
1211.989746 124.0
1216.171509 144.0
1216.643555 356.0
1217.810059 224.0
1221.855713 32.0
1221.994873 164.0
1222.579346 128.0
1228.236694 144.0
1229.283203 184.0
1230.106689 248.0
1230.204468 188.0
1233.389771 200.0
1235.046875 256.0
1237.52417 176.0
1242.030151 168.0
1243.243896 220.0
1246.994141 116.0
1250.109619 176.0
1251.151367 172.0
1255.978271 128.0
1256.726074 152.0
1263.183228 240.0
1269.316406 88.0
1270.834351 116.0
1272.338867 168.0
1272.963745 172.0
1275.35791 152.0
1277.156738 168.0
1277.242188 136.0
1280.395142 168.0
1280.544678 240.0
1284.636108 168.0
1284.9552 164.0
1285.870483 192.0
1286.827026 212.0
1287.369629 132.0
1291.808105 144.0
1292.652344 32.0
1295.100708 152.0
1297.823975 124.0
1299.803589 56.0
1302.589233 168.0
1303.566284 184.0
1307.751831 200.0
1308.226929 168.0
1308.745239 108.0
1312.045044 68.0
1314.316895 152.0
1314.641602 180.0
1318.259399 160.0
1319.018311 116.0
1319.083374 200.0
1319.343628 248.0
1321.506104 204.0
1323.474731 164.0
1324.466919 120.0
1325.539062 156.0
1326.27832 132.0
1330.942993 180.0
1331.676514 124.0
1338.439575 164.0
1339.583008 228.0
1340.209473 104.0
1340.413574 172.0
1340.807007 104.0
1341.419312 196.0
1345.2052 72.0
1346.322266 232.0
1346.548706 100.0
1349.405884 36.0
1349.756836 188.0
1349.888428 216.0
1351.329346 196.0
1354.052368 176.0
1354.169556 180.0
1354.257446 96.0
1355.004639 180.0
1355.473511 152.0
1356.814819 140.0
1357.804688 84.0
1358.27417 148.0
1359.521362 140.0
1361.334595 200.0
1361.56958 144.0
1362.201294 132.0
1362.502441 60.0
1366.421021 156.0
1367.429077 124.0
1368.599487 136.0
1370.69873 72.0
1371.266235 132.0
1374.260132 136.0
1377.405029 128.0
1378.5354 180.0
1381.130371 196.0
1382.580444 212.0
1384.098022 176.0
1389.164673 236.0
1389.419556 40.0
1389.493774 144.0
1390.094727 220.0
1392.18811 164.0
1394.349976 132.0
1394.669556 216.0
1396.565552 256.0
1401.769409 56.0
1402.604126 68.0
1403.573242 168.0
1405.415649 216.0
1410.920044 132.0
1411.675171 44.0
1411.899536 132.0
1412.108887 172.0
1413.290894 108.0
1414.02417 56.0
1415.117065 144.0
1415.37915 180.0
1417.259155 224.0
1417.47644 164.0
1417.978638 136.0
1418.390869 236.0
1418.480713 196.0
1418.743164 160.0
1418.900513 176.0
1419.013062 176.0
1419.582886 112.0
1423.537476 136.0
1424.746826 220.0
1426.001587 144.0
1426.069214 36.0
1426.971313 160.0
1427.249512 132.0
1428.475342 144.0
1430.928711 220.0
1431.674194 180.0
1431.877441 220.0
1431.998047 120.0
1433.512207 224.0
1437.097534 232.0
1437.62207 200.0
1438.557983 164.0
1439.388428 120.0
1440.083252 216.0
1440.672363 88.0
1442.349976 204.0
1447.327881 88.0
1447.532349 212.0
1447.865479 168.0
1452.344727 184.0
1452.397827 204.0
1453.088135 92.0
1454.006226 184.0
1456.344727 180.0
1457.917358 168.0
1458.190918 128.0
1458.380981 164.0
1459.095459 100.0
1460.446899 152.0
1462.115234 152.0
1464.582031 176.0
1466.120972 160.0
1466.24292 160.0
1467.720093 192.0
1472.430176 144.0
1472.544678 112.0
1473.53772 188.0
1475.089111 160.0
1477.176636 192.0
1483.049561 200.0
1484.636597 188.0
1485.480347 116.0
1485.664429 168.0
1486.846069 68.0
1487.559814 96.0
1487.897583 148.0
1488.327637 64.0
1488.542603 168.0
1488.650024 132.0
1488.857422 108.0
1491.892456 208.0
1493.015015 164.0
1493.714966 80.0
1493.953369 148.0
1494.076416 164.0
1495.577026 120.0
1496.023438 184.0
1496.808716 244.0
1497.008911 68.0
1501.372925 164.0
1502.404297 76.0
1505.159546 188.0
