>compound MLS001158177-01!
>formula C25H26N2O6
>ionization [M+H]+
>parentmass 451.1863630040905
#inchi InChI=1S/C25H26N2O6/c1-14-17-7-8-20(31-2)24(32-3)23(17)33-25(30)18(14)10-22(29)26-11-15-9-16(13-26)19-5-4-6-21(28)27(19)12-15/h4-8,15-16H,9-13H2,1-3H3/t15-,16+/m1/s1
#inchikey DTVBEOWNUYTFLR
#Ion_Source LC-ESI
#Instrument qTof
#Compound_Source NIH Natural Product Library
#PI Dorrestein
#Data_Collector VVP/LMS
#Scan -1
#Precursor_MZ 451.187
#ExactMass 450.179
#Charge 1
#CAS_Number N/A
#Pubmed_ID N/A
#Smiles COc1ccc2c(C)c(CC(=O)N3C[C@H]4C[C@@H](C3)c5cccc(=O)n5C4)c(=O)oc2c1OC
#INCHI_AUX N/A
#Library_Class 1
#SpectrumID CCMSLIB00000079554
#IonMode Positive
#UpdateWorkflowName UPDATE-SINGLE-ANNOTATED-GOLD
#LibraryQualityString Gold
#TaskID b1d8e8f6646f4e71acdff9ca3d919d08
##Scan# 1697
#SpectrumFile p1-B08_GB8_01_17892.mzXML
#LibraryName NIH_Natural_Products_Library.mgf
#MQScore -1
#Organism NIH_Natural_Products_Library
#TIC_Query 0
#RT_Query -1
#MZErrorPPM -1
#SharedPeaks 0
#MassDiff 0
#LibMZ -1
#SpecMZ 451.187
#SpecCharge 0
#internalFilename spec-00000.mgf

>collision 10
95.073334 160.0
95.16806 80.0
95.346771 152.0
95.395363 148.0
95.464935 184.0
95.506203 196.0
95.597641 140.0
95.620995 132.0
95.65992 148.0
95.70533 160.0
95.726112 160.0
95.88781 140.0
95.928741 44.0
96.073044 196.0
96.184273 252.0
96.297516 240.0
96.352211 188.0
96.410828 48.0
96.446007 220.0
96.47142 196.0
96.514427 60.0
96.625916 184.0
96.684616 128.0
96.858864 140.0
96.90464 196.0
97.060722 176.0
97.198029 156.0
97.415955 84.0
97.437561 132.0
97.490616 124.0
97.742317 88.0
97.832848 92.0
98.017982 196.0
98.21907 128.0
98.274307 156.0
98.430046 208.0
98.487511 172.0
98.521416 172.0
98.586296 116.0
98.744446 212.0
98.787964 180.0
98.816841 168.0
99.011627 192.0
99.152283 112.0
99.314857 216.0
99.609169 176.0
99.626503 212.0
99.686111 56.0
99.711945 180.0
99.972466 60.0
100.053177 172.0
100.13372 160.0
100.175545 228.0
100.193474 68.0
100.563148 204.0
100.614265 196.0
100.654198 152.0
100.700127 64.0
100.736084 180.0
100.776039 44.0
100.794022 168.0
100.845978 184.0
100.977936 216.0
101.006767 192.0
101.170021 168.0
101.330238 52.0
101.396362 188.0
101.436447 112.0
101.550743 136.0
101.580826 104.0
101.719284 160.0
101.747391 136.0
101.762466 188.0
101.799591 172.0
101.841766 208.0
101.952263 92.0
102.064835 164.0
102.082932 132.0
102.169418 144.0
102.286133 88.0
102.362633 180.0
102.437157 160.0
102.693138 176.0
102.816208 64.0
102.886917 120.0
103.005997 204.0
103.055649 552.0
103.115105 156.0
103.36586 192.0
103.388123 184.0
103.50264 140.0
103.562233 96.0
103.604774 132.0
103.633133 36.0
103.757683 164.0
103.793259 160.0
103.988007 116.0
104.063118 140.0
104.099663 148.0
104.252022 172.0
104.349586 156.0
104.48381 92.0
104.540779 188.0
104.558105 164.0
104.605911 36.0
104.663872 128.0
104.728363 88.0
104.829552 188.0
104.880898 148.0
104.919624 216.0
105.029739 88.0
105.05732 168.0
105.099106 168.0
105.121552 116.0
105.174614 108.0
105.215439 140.0
105.258316 100.0
105.303238 60.0
105.348175 216.0
105.374733 180.0
105.528023 60.0
105.677322 40.0
105.723228 120.0
105.755089 136.0
105.829803 152.0
105.846306 172.0
106.040962 200.0
106.076668 52.0
106.194847 208.0
106.202469 204.0
106.259186 148.0
106.288368 168.0
106.443909 140.0
106.608246 160.0
106.659767 116.0
106.739807 132.0
106.833511 196.0
106.852928 168.0
106.883789 176.0
107.014458 172.0
107.428932 204.0
107.466896 100.0
107.504036 164.0
107.662987 40.0
107.747673 88.0
107.766273 132.0
107.784866 192.0
107.98539 204.0
108.160629 184.0
108.194382 164.0
108.281349 116.0
108.749908 232.0
108.764435 136.0
108.797646 136.0
108.878624 168.0
108.911858 96.0
109.219978 232.0
109.331825 104.0
109.369293 196.0
109.396355 56.0
109.423416 92.0
109.448402 176.0
109.494209 232.0
109.521286 76.0
109.717163 184.0
109.776649 204.0
109.850624 144.0
109.900696 240.0
109.958084 40.0
110.01548 184.0
110.084381 120.0
110.305847 104.0
110.379021 172.0
110.444916 220.0
110.494057 124.0
110.514977 100.0
110.535652 168.0
110.594498 136.0
110.671951 128.0
110.693695 128.0
110.860474 76.0
110.88562 176.0
110.90239 60.0
110.959259 152.0
110.972786 48.0
111.074326 96.0
111.122574 44.0
111.168365 136.0
111.254791 172.0
111.435402 196.0
111.69397 204.0
111.717514 152.0
111.824425 188.0
111.851784 152.0
112.04763 208.0
112.108734 224.0
112.268944 160.0
112.28257 56.0
112.410278 60.0
112.465149 80.0
112.530594 188.0
112.56649 184.0
112.616081 140.0
112.727028 208.0
112.758728 100.0
112.798889 188.0
112.830597 52.0
112.987091 152.0
113.086548 152.0
113.111946 104.0
113.200867 132.0
113.228394 52.0
113.41272 52.0
113.522964 108.0
113.68206 156.0
113.707527 136.0
113.745735 144.0
113.788193 156.0
113.878349 228.0
114.07711 176.0
114.181297 104.0
114.196182 132.0
114.236496 172.0
114.274887 48.0
114.496269 96.0
114.685883 212.0
114.73278 172.0
114.779686 204.0
114.803139 196.0
114.956734 132.0
115.055222 488.0
115.136047 232.0
115.153137 204.0
115.249268 144.0
115.304825 176.0
115.36467 160.0
115.390327 152.0
115.424538 140.0
115.463028 60.0
115.565704 148.0
115.709099 180.0
115.771194 160.0
115.79261 52.0
115.970436 156.0
115.996155 176.0
116.054039 184.0
116.210609 204.0
116.313622 184.0
116.412376 160.0
116.579674 164.0
116.612625 152.0
116.665909 204.0
116.708908 112.0
116.762665 56.0
116.91111 204.0
116.92617 176.0
116.962761 160.0
117.048874 140.0
117.070808 452.0
117.134819 172.0
117.140656 156.0
117.367775 208.0
117.462875 164.0
117.484238 152.0
117.630974 248.0
117.790771 96.0
118.076073 180.0
118.16259 112.0
118.298935 136.0
118.35379 200.0
118.390694 272.0
118.429771 244.0
118.519836 68.0
118.602188 68.0
118.721428 216.0
118.743118 52.0
118.792999 220.0
118.89064 108.0
118.912338 156.0
119.050697 208.0
119.329407 136.0
119.346802 68.0
119.390289 56.0
119.422913 148.0
119.512108 184.0
119.551277 132.0
119.604568 164.0
119.789825 120.0
119.917145 196.0
119.94548 124.0
119.984718 60.0
120.057121 248.0
120.07412 176.0
120.089386 96.0
120.292313 196.0
120.318504 100.0
120.489449 284.0
120.508514 144.0
120.783958 140.0
120.899918 100.0
121.064911 620.0
121.178001 112.0
121.225143 156.0
121.495895 148.0
121.853745 128.0
121.886696 172.0
121.904282 176.0
121.954826 192.0
122.071533 188.0
122.148315 156.0
122.229721 120.0
122.245125 148.0
122.264931 164.0
122.29007 264.0
122.341095 132.0
122.416824 176.0
122.443253 204.0
122.474083 92.0
122.604073 176.0
122.64595 168.0
122.817932 124.0
122.837784 176.0
122.877495 144.0
122.930443 132.0
123.023148 108.0
123.091591 164.0
123.14238 112.0
123.171097 56.0
123.226318 196.0
123.255043 116.0
123.394287 200.0
123.423096 136.0
123.526978 120.0
123.726135 140.0
123.757133 204.0
123.796921 120.0
123.909958 160.0
123.932114 120.0
123.96978 176.0
123.989723 204.0
124.158211 132.0
124.180389 164.0
124.384514 180.0
124.528839 164.0
124.575485 184.0
124.897797 116.0
124.933388 164.0
124.995682 180.0
125.024612 228.0
125.349731 148.0
125.548134 140.0
125.73246 80.0
125.748917 176.0
125.822578 144.0
126.012413 124.0
126.039223 80.0
126.155441 128.0
126.251587 108.0
126.276184 104.0
126.316803 124.0
126.419365 164.0
126.600395 152.0
126.620842 176.0
126.665642 116.0
126.816719 196.0
126.905426 100.0
126.948029 152.0
126.970459 220.0
127.051208 136.0
127.14769 244.0
127.421631 120.0
127.62841 96.0
127.731857 100.0
127.797096 108.0
127.848854 60.0
127.903023 172.0
127.98391 136.0
128.001923 348.0
128.061035 472.0
128.096512 144.0
128.258759 152.0
128.351181 92.0
128.48877 124.0
128.653503 100.0
128.759628 40.0
128.809326 148.0
128.899689 132.0
128.929062 172.0
128.97879 136.0
129.008179 204.0
129.035309 152.0
129.071747 204.0
129.240723 160.0
129.277328 124.0
129.340698 32.0
129.374649 152.0
129.417664 152.0
129.673645 140.0
129.709915 184.0
129.746185 164.0
129.827805 232.0
129.995667 240.0
130.011551 228.0
130.079651 384.0
130.154572 52.0
130.245407 124.0
130.436279 180.0
130.618179 188.0
130.686432 164.0
130.714478 172.0
130.768356 156.0
130.804764 144.0
130.870789 364.0
130.964157 148.0
131.014267 160.0
131.050278 696.0
131.125916 168.0
131.292343 180.0
131.331116 96.0
131.406403 96.0
131.422363 176.0
131.493103 140.0
131.627792 312.0
131.735138 140.0
131.768219 124.0
131.805954 152.0
131.899658 72.0
131.975098 88.0
132.013977 192.0
132.05394 208.0
132.210709 160.0
132.329742 128.0
132.409882 216.0
132.430496 144.0
132.57254 152.0
132.824738 100.0
132.918793 104.0
132.978455 140.0
133.05191 224.0
133.087082 88.0
133.208069 48.0
133.322952 96.0
133.369156 152.0
133.44017 164.0
133.456268 156.0
133.506851 52.0
133.555161 196.0
133.626465 404.0
133.725418 216.0
133.77626 176.0
133.976395 192.0
134.073685 484.0
134.585266 144.0
134.608353 52.0
134.631454 132.0
134.648651 332.0
134.75618 116.0
134.945709 92.0
134.966507 144.0
134.991943 184.0
135.070587 212.0
135.102966 224.0
135.126099 160.0
135.174683 184.0
135.264954 224.0
135.383026 112.0
135.487259 140.0
135.512741 164.0
135.716705 148.0
135.82338 128.0
135.839615 180.0
135.881378 192.0
136.092575 60.0
136.311508 220.0
136.375992 180.0
136.468979 156.0
136.499207 88.0
136.566635 132.0
136.813293 240.0
136.85054 92.0
137.269516 168.0
137.338333 188.0
137.496231 100.0
137.561584 232.0
137.661987 224.0
137.682999 176.0
137.704025 160.0
137.879242 48.0
137.902618 100.0
138.014816 84.0
138.194916 160.0
138.253418 96.0
138.335342 180.0
138.35173 180.0
138.382156 224.0
138.43602 180.0
138.590607 100.0
138.792191 176.0
138.816071 108.0
138.930557 108.0
139.153503 168.0
139.289719 120.0
139.317902 164.0
139.428329 136.0
139.536469 100.0
139.555267 160.0
139.72226 68.0
139.870499 140.0
139.943481 128.0
140.075363 192.0
140.131897 104.0
140.27095 148.0
140.42421 68.0
140.45015 240.0
140.627106 184.0
140.674316 152.0
140.813629 136.0
140.949478 164.0
141.006592 284.0
141.137375 248.0
141.298004 248.0
141.376282 168.0
141.411774 180.0
141.598816 112.0
141.643219 224.0
141.668503 200.0
141.689636 128.0
141.762283 208.0
141.966141 136.0
142.044418 176.0
142.141678 200.0
142.274597 196.0
142.293579 120.0
142.319702 188.0
142.343445 140.0
142.398071 204.0
142.419449 224.0
142.497833 164.0
142.521591 144.0
142.538223 144.0
142.642792 28.0
142.671326 224.0
142.74028 132.0
142.768814 212.0
142.872116 212.0
142.944839 240.0
142.992432 188.0
143.04924 264.0
143.17099 68.0
143.251968 100.0
143.37825 144.0
143.423538 140.0
143.504578 208.0
143.526047 240.0
144.056137 944.0
144.239868 228.0
144.261368 124.0
144.314117 140.0
144.457458 44.0
144.48378 144.0
144.538803 116.0
144.603424 220.0
144.632141 152.0
144.675232 132.0
144.694382 172.0
144.718323 64.0
144.735077 136.0
144.821793 208.0
144.878784 208.0
145.000977 144.0
145.024948 232.0
145.063751 904.0
145.183182 96.0
145.204773 136.0
145.231155 52.0
145.339096 48.0
145.384689 108.0
145.406677 124.0
145.640472 160.0
145.677612 188.0
145.812164 112.0
145.946777 92.0
146.072754 792.0
146.127167 156.0
146.160645 92.0
146.196945 76.0
146.223419 204.0
146.403976 128.0
146.548508 208.0
146.584656 168.0
146.644897 40.0
146.731674 160.0
146.791946 132.0
146.886017 156.0
147.045319 1660.0
147.076492 196.0
147.098953 112.0
147.182861 200.0
147.207001 76.0
147.313263 84.0
147.496521 72.0
147.518066 152.0
147.572418 172.0
147.61055 160.0
147.658905 164.0
147.736313 180.0
147.776672 88.0
147.874237 136.0
147.900864 148.0
147.926834 164.0
147.971817 152.0
148.016556 192.0
148.022995 152.0
148.031494 108.0
148.047638 272.0
148.076035 5396.0
148.106491 172.0
148.140579 64.0
148.159958 40.0
148.179337 104.0
148.210831 80.0
148.230225 32.0
148.268997 156.0
148.419281 128.0
148.51387 176.0
148.625458 176.0
148.741943 224.0
148.890045 148.0
148.933762 180.0
149.076248 844.0
149.196198 144.0
149.232666 60.0
149.249695 168.0
149.27887 52.0
149.295898 32.0
149.334808 224.0
149.37178 180.0
149.580551 100.0
149.638977 72.0
149.71933 124.0
149.81189 120.0
149.970276 48.0
150.134415 148.0
150.175079 104.0
150.199478 116.0
150.320541 96.0
150.341461 176.0
150.352188 148.0
150.406876 252.0
150.550919 196.0
150.616257 212.0
150.646179 120.0
150.716629 148.0
150.739014 140.0
150.836777 64.0
150.871002 100.0
150.966354 204.0
151.037277 176.0
151.107239 180.0
151.125351 188.0
151.179184 148.0
151.284424 128.0
151.523163 132.0
151.894592 36.0
151.958374 136.0
152.012344 148.0
152.083527 68.0
152.142441 260.0
152.292221 168.0
152.3396 180.0
152.365921 76.0
152.74202 128.0
152.782257 132.0
152.807465 200.0
153.076736 64.0
153.105347 156.0
153.194946 324.0
153.224518 64.0
153.362503 204.0
153.436462 128.0
153.525223 212.0
153.567154 188.0
153.609085 176.0
153.700363 108.0
153.953003 116.0
154.016357 100.0
154.044144 212.0
154.079437 176.0
154.226379 136.0
154.251099 188.0
154.310425 88.0
154.387817 208.0
154.483322 176.0
154.747437 152.0
154.773102 188.0
155.070374 192.0
155.092682 132.0
155.240417 176.0
155.318314 200.0
155.491989 172.0
155.66423 136.0
155.700531 204.0
155.745239 80.0
155.864487 144.0
155.996201 216.0
156.185181 116.0
156.320389 220.0
156.411621 164.0
156.431534 224.0
156.516174 224.0
156.640701 132.0
156.683044 112.0
156.739105 140.0
156.814285 144.0
156.897369 136.0
157.004593 120.0
157.029526 220.0
157.061829 156.0
157.119324 232.0
157.295166 196.0
157.321472 68.0
157.378891 88.0
157.401352 180.0
157.504684 160.0
157.576202 44.0
157.636169 116.0
157.922226 160.0
158.019028 244.0
158.038727 168.0
158.074066 712.0
158.178879 108.0
158.284332 200.0
158.316589 160.0
158.424286 132.0
158.532013 148.0
158.624756 148.0
158.667374 212.0
158.757629 224.0
158.825348 160.0
158.870499 208.0
158.93573 100.0
159.003479 108.0
159.044632 1368.0
159.081238 168.0
159.162354 180.0
159.204315 172.0
159.588776 220.0
159.78746 120.0
160.016495 200.0
160.049454 308.0
160.085098 524.0
160.200333 176.0
160.429642 172.0
160.56076 124.0
160.661652 240.0
160.679306 252.0
160.712112 248.0
160.790726 108.0
160.946106 176.0
161.06076 3408.0
161.098373 132.0
161.131226 20.0
161.150757 148.0
161.171646 92.0
161.191864 232.0
161.437057 84.0
161.490173 164.0
161.60527 200.0
161.641953 128.0
161.690033 232.0
161.793823 132.0
161.846985 332.0
161.93309 124.0
161.950821 52.0
161.987564 228.0
162.035583 52.0
162.066742 1996.0
162.090378 316.0
162.148438 32.0
162.178375 196.0
162.216019 84.0
162.336029 172.0
162.442856 164.0
162.523743 112.0
162.559265 148.0
162.586288 172.0
162.657394 132.0
162.759796 140.0
162.906464 160.0
162.929962 140.0
163.012863 88.0
163.044769 152.0
163.068405 148.0
163.123093 88.0
163.298538 56.0
163.323959 152.0
163.353302 196.0
163.594116 168.0
163.675156 136.0
163.779572 212.0
163.856003 188.0
163.906952 76.0
164.033997 132.0
164.149109 144.0
164.174606 72.0
164.249359 196.0
164.447586 164.0
164.488434 136.0
164.577774 204.0
164.639069 44.0
164.67482 176.0
164.736115 140.0
164.756561 212.0
164.978882 120.0
165.015717 188.0
165.055359 1860.0
165.089264 168.0
165.444473 148.0
165.600677 168.0
165.826141 144.0
165.967133 176.0
165.985077 224.0
166.056885 136.0
166.087662 120.0
166.28009 212.0
166.344254 160.0
166.434113 124.0
166.457214 156.0
166.634445 156.0
167.017471 84.0
167.048706 168.0
167.084351 88.0
167.171829 140.0
167.243576 192.0
167.3237 196.0
167.377396 192.0
167.516846 64.0
167.653397 64.0
167.681747 116.0
167.720398 172.0
167.741028 148.0
167.800323 128.0
168.176941 208.0
168.205322 216.0
168.249207 140.0
168.269867 100.0
168.386063 184.0
168.429977 76.0
168.486801 112.0
168.636673 136.0
168.791794 200.0
169.078934 168.0
169.332642 76.0
169.36113 152.0
169.384445 152.0
169.567078 172.0
169.845825 44.0
169.907822 180.0
169.934036 80.0
169.952194 52.0
170.188385 260.0
170.209061 200.0
170.424744 40.0
170.448135 212.0
170.533966 132.0
170.809494 80.0
170.840714 136.0
170.920639 156.0
170.968201 140.0
170.999435 148.0
171.043686 172.0
171.067108 36.0
171.126984 160.0
171.184906 228.0
171.216827 40.0
171.245972 208.0
171.405685 128.0
171.449982 156.0
171.520355 128.0
171.690704 132.0
171.775894 288.0
171.833282 140.0
172.051605 396.0
172.196121 184.0
172.237915 156.0
172.316284 228.0
172.399902 144.0
172.585358 156.0
172.671783 172.0
172.917709 140.0
172.977905 128.0
173.021515 188.0
173.061218 736.0
173.094498 248.0
173.192612 164.0
173.24501 128.0
173.412704 132.0
173.452026 140.0
173.598846 176.0
173.711624 52.0
173.743103 52.0
173.771957 52.0
173.848053 140.0
174.066711 2236.0
174.11319 168.0
174.157837 276.0
174.186737 52.0
174.297073 156.0
174.371796 156.0
174.57309 88.0
174.76088 152.0
174.970383 180.0
174.988815 208.0
175.009872 176.0
175.039352 4544.0
175.071381 544.0
175.094147 344.0
175.196869 104.0
175.227951 188.0
175.486771 132.0
175.568512 156.0
175.753159 108.0
175.858719 168.0
175.887756 140.0
175.911514 180.0
175.948471 80.0
176.041306 456.0
176.062637 192.0
176.172943 96.0
176.297119 164.0
176.376404 248.0
176.44249 68.0
176.490967 156.0
176.572052 184.0
176.640823 120.0
176.664642 112.0
176.892212 156.0
176.969559 128.0
177.021942 204.0
177.053513 500.0
177.090256 936.0
177.135818 40.0
177.288086 128.0
177.345154 132.0
177.400818 184.0
177.445877 240.0
177.530731 128.0
177.64212 172.0
177.700485 144.0
177.956497 156.0
178.029633 52.0
178.090515 204.0
178.188995 48.0
178.231506 36.0
178.319199 208.0
178.359756 172.0
178.396286 92.0
178.434769 160.0
178.50264 144.0
178.539856 128.0
178.726608 172.0
178.75267 192.0
178.827194 92.0
178.917694 164.0
179.0961 116.0
179.184006 176.0
179.282593 100.0
179.30925 84.0
179.44519 44.0
179.525192 164.0
179.565186 168.0
180.06694 132.0
180.129807 104.0
180.179123 120.0
180.502533 164.0
180.601471 148.0
180.77002 172.0
180.863693 136.0
181.024323 156.0
181.067169 88.0
181.150208 140.0
181.189346 124.0
181.276123 144.0
181.335083 200.0
181.565643 188.0
181.761475 128.0
181.831238 44.0
181.892975 168.0
182.013794 104.0
182.23941 96.0
182.28508 200.0
182.317337 172.0
182.363022 156.0
182.475922 136.0
182.516251 44.0
182.553894 128.0
182.664169 200.0
182.715286 188.0
182.836365 120.0
182.956451 176.0
183.356125 148.0
183.39386 172.0
183.436981 152.0
183.63652 108.0
183.701248 88.0
183.768692 188.0
183.864212 192.0
184.179031 144.0
184.219543 240.0
184.584412 168.0
184.811615 124.0
184.898209 72.0
184.960449 120.0
185.009186 140.0
185.041672 120.0
185.085968 188.0
185.117477 168.0
185.359695 96.0
185.465912 164.0
185.504913 68.0
185.537445 168.0
185.605225 188.0
185.727264 136.0
185.800507 128.0
185.876831 156.0
185.971466 192.0
186.014893 144.0
186.044754 196.0
186.088181 256.0
186.134338 176.0
186.272858 156.0
186.316315 188.0
186.448761 216.0
186.69957 140.0
186.974335 76.0
187.04924 172.0
187.085922 96.0
187.170334 156.0
187.557175 140.0
187.647141 176.0
187.677124 136.0
187.829849 140.0
187.878952 164.0
188.015381 156.0
188.044556 184.0
188.075424 156.0
188.33754 152.0
188.485062 220.0
188.661057 204.0
188.804901 64.0
188.933456 164.0
188.979965 164.0
189.024368 224.0
189.054688 5072.0
189.088943 656.0
189.133682 80.0
189.270096 116.0
189.32486 116.0
189.365936 116.0
189.461807 40.0
189.501068 72.0
189.550644 180.0
189.607025 168.0
189.642654 104.0
189.738602 196.0
189.818115 176.0
189.85376 168.0
189.892151 32.0
189.911346 104.0
189.957977 136.0
189.982666 32.0
190.009598 196.0
190.062805 8028.0
190.100281 212.0
190.214096 108.0
190.268082 124.0
190.298447 140.0
190.357468 136.0
190.488297 384.0
190.546799 188.0
190.579773 104.0
190.688934 208.0
190.770813 196.0
190.798294 112.0
190.952286 136.0
190.971527 124.0
191.02655 348.0
191.066818 868.0
191.118454 29152.0
191.203156 64.0
191.235657 48.0
191.270691 116.0
191.281403 84.0
191.2901 108.0
191.431122 84.0
191.49263 60.0
191.560577 244.0
191.601898 172.0
191.622131 116.0
191.670776 56.0
191.750687 116.0
191.792038 32.0
191.825104 32.0
191.863708 36.0
191.899536 40.0
192.004333 132.0
192.024719 132.0
192.070343 132.0
192.120132 3064.0
192.260895 80.0
192.316086 104.0
192.351974 44.0
192.378845 168.0
192.47345 80.0
192.509338 36.0
192.534195 88.0
192.584824 64.0
192.619812 36.0
192.672821 172.0
192.70546 56.0
192.80217 32.0
192.82222 328.0
192.879547 52.0
192.926544 64.0
192.998428 56.0
193.026077 116.0
193.123352 668.0
193.460449 68.0
193.571747 120.0
193.600128 108.0
193.618973 64.0
193.74292 112.0
193.762543 220.0
193.862061 160.0
194.433334 176.0
194.463867 140.0
194.502716 124.0
194.566574 60.0
194.763733 148.0
195.005447 128.0
195.141663 188.0
195.187531 104.0
195.252884 152.0
195.469864 272.0
195.558929 248.0
195.723175 68.0
195.784424 168.0
196.16893 224.0
196.23584 204.0
196.556595 148.0
196.620773 136.0
196.710098 148.0
196.738007 116.0
196.880402 144.0
196.908325 136.0
197.011673 148.0
197.176529 180.0
197.478485 184.0
197.506454 148.0
197.526031 140.0
197.623947 112.0
197.643524 144.0
197.696701 156.0
197.766663 120.0
198.231552 68.0
198.315628 140.0
198.411026 136.0
198.452988 148.0
198.500656 64.0
198.545532 140.0
198.769943 68.0
198.873779 148.0
198.896225 164.0
199.115234 120.0
199.205109 168.0
199.325912 144.0
199.373688 148.0
199.460815 188.0
199.626694 116.0
199.660431 132.0
199.705429 44.0
199.81514 120.0
200.050262 168.0
200.076874 188.0
200.36412 176.0
200.412018 208.0
200.437378 128.0
200.462738 192.0
200.499374 192.0
200.581116 228.0
200.738998 132.0
200.770004 128.0
200.808762 200.0
200.871552 152.0
200.891296 132.0
200.950531 48.0
201.048508 336.0
201.122681 172.0
201.196075 176.0
201.35701 160.0
201.721497 160.0
201.854385 204.0
201.908112 40.0
202.061417 40.0
202.471283 180.0
202.743256 144.0
202.788605 104.0
202.83577 124.0
202.927505 168.0
202.95018 132.0
202.992706 144.0
203.034546 176.0
203.062927 148.0
203.11467 148.0
203.28772 64.0
203.330292 92.0
203.404083 172.0
203.426804 104.0
203.506287 144.0
203.790955 248.0
203.827255 164.0
204.117188 156.0
204.256531 184.0
204.276443 64.0
204.589676 172.0
204.612244 156.0
204.774551 144.0
204.814438 68.0
204.854309 160.0
204.968277 228.0
205.016708 120.0
205.050919 156.0
205.08548 7692.0
205.127869 60.0
205.162079 56.0
205.307495 188.0
205.347412 52.0
205.413025 100.0
205.468567 136.0
205.526031 72.0
205.635574 52.0
206.038193 216.0
206.089249 976.0
206.312546 56.0
206.335419 220.0
206.391342 340.0
206.524139 124.0
206.609955 112.0
206.724411 116.0
206.775909 148.0
206.804535 172.0
206.853195 180.0
206.930496 48.0
207.112274 208.0
207.16246 164.0
207.291382 40.0
207.340103 64.0
207.403854 196.0
207.428955 116.0
207.474823 164.0
207.529297 108.0
207.615692 152.0
207.721436 240.0
207.778809 176.0
207.798889 184.0
208.054321 180.0
208.140442 196.0
208.169159 208.0
208.240952 156.0
208.453552 156.0
208.50528 224.0
208.605865 156.0
208.651871 80.0
208.766876 124.0
209.075287 136.0
209.10347 116.0
209.158157 184.0
209.207092 116.0
209.235886 172.0
209.264664 160.0
209.31778 160.0
209.598785 112.0
209.670822 212.0
209.789001 96.0
209.832245 204.0
209.887024 108.0
210.080261 32.0
210.50145 124.0
210.585388 220.0
210.640259 216.0
210.709595 176.0
210.769638 220.0
210.833847 124.0
210.891647 44.0
210.963913 172.0
211.075272 232.0
211.105576 48.0
211.140366 144.0
211.289276 128.0
211.377487 152.0
211.565628 140.0
211.689774 144.0
211.916046 164.0
211.959518 84.0
212.081223 104.0
212.1595 176.0
212.359573 232.0
212.455292 124.0
212.649704 160.0
212.884857 144.0
212.925507 160.0
212.995209 128.0
213.256714 92.0
213.352646 200.0
213.439865 164.0
213.495117 108.0
213.826767 136.0
213.99559 136.0
214.371338 208.0
214.657013 60.0
214.794083 200.0
214.837845 128.0
214.998322 192.0
215.266891 228.0
215.46257 180.0
215.565887 100.0
215.91272 64.0
215.974136 152.0
216.012161 120.0
216.047104 220.0
216.117584 164.0
216.269653 116.0
216.29306 88.0
216.465805 152.0
216.536087 136.0
216.610092 180.0
216.653244 160.0
216.676682 180.0
216.785095 212.0
216.881805 180.0
216.930832 96.0
217.406784 176.0
217.474289 240.0
217.575974 200.0
217.779633 92.0
217.923584 112.0
217.952957 84.0
218.058472 308.0
218.161636 48.0
218.349808 64.0
218.675476 196.0
218.729355 108.0
218.864777 36.0
218.897171 172.0
219.020859 124.0
219.05777 140.0
219.218475 160.0
219.288986 176.0
219.589706 180.0
219.628052 140.0
219.961472 232.0
220.020508 136.0
220.047577 168.0
220.079559 172.0
220.123856 172.0
220.171097 176.0
220.271515 176.0
220.31694 192.0
220.39856 252.0
220.575882 188.0
220.682297 160.0
220.818329 136.0
220.904099 188.0
221.111221 164.0
221.501694 172.0
221.605728 164.0
221.700851 160.0
221.74501 148.0
221.767059 192.0
221.795395 176.0
221.884323 88.0
221.943619 240.0
222.210556 112.0
222.33815 224.0
222.587509 80.0
222.706299 72.0
222.783524 128.0
222.848877 196.0
222.917221 184.0
223.199615 116.0
223.378052 212.0
223.553589 76.0
223.574417 180.0
223.642868 132.0
223.934647 144.0
223.961456 100.0
224.062744 204.0
224.211731 72.0
224.283249 92.0
224.319016 184.0
224.357773 180.0
224.614227 48.0
224.751465 136.0
224.784286 216.0
224.906647 144.0
224.936493 100.0
225.136536 200.0
225.333664 324.0
225.447205 72.0
225.937576 124.0
226.045288 196.0
226.209885 52.0
226.299698 188.0
226.332642 56.0
226.542282 212.0
226.59021 208.0
226.68309 108.0
226.764008 136.0
227.057816 148.0
227.129807 144.0
227.150803 108.0
227.255798 148.0
227.351822 144.0
227.390839 220.0
227.507904 136.0
227.540924 44.0
227.627991 264.0
227.880295 160.0
228.141754 228.0
228.186859 52.0
228.307129 180.0
228.456161 320.0
228.724457 208.0
228.800583 176.0
229.021683 192.0
229.083664 144.0
229.112061 152.0
229.198151 240.0
229.263733 68.0
229.312668 144.0
229.384995 172.0
229.409119 144.0
229.463379 60.0
229.623199 260.0
229.718689 212.0
229.804184 204.0
229.849442 172.0
229.997314 180.0
230.118073 176.0
230.187515 164.0
230.223755 96.0
230.326447 80.0
230.34758 80.0
230.447281 224.0
230.567795 136.0
230.637665 120.0
230.663544 100.0
230.809982 144.0
230.891632 172.0
230.918854 108.0
230.973297 152.0
231.01564 100.0
231.08522 32.0
231.117065 120.0
231.215332 68.0
231.24437 100.0
231.269806 124.0
231.315216 152.0
231.428543 156.0
231.472641 248.0
231.505951 44.0
231.558655 268.0
231.719254 124.0
231.78772 256.0
231.848282 188.0
231.890701 156.0
232.009491 148.0
232.06665 196.0
232.095963 148.0
232.127167 172.0
232.204071 212.0
232.249084 100.0
232.281845 128.0
232.334381 200.0
232.365723 172.0
232.403183 116.0
232.474136 168.0
232.532852 148.0
232.561569 372.0
232.58403 144.0
232.635193 336.0
232.672028 228.0
232.746857 532.0
232.775452 324.0
232.820938 116.0
232.853714 536.0
232.895477 336.0
232.949417 520.0
232.987381 724.0
233.017792 584.0
233.081985 245224.0
233.179398 104.0
233.201065 248.0
233.2686 144.0
233.298096 256.0
233.365723 272.0
233.424622 196.0
233.467667 148.0
233.502289 48.0
233.51416 144.0
233.547028 172.0
233.582733 2308.0
233.630112 136.0
233.692856 128.0
233.735748 156.0
233.790894 184.0
233.823303 236.0
233.859253 80.0
233.906082 76.0
233.969498 88.0
233.992783 332.0
234.025696 196.0
234.084579 38304.0
234.147308 160.0
234.152756 44.0
234.180374 48.0
234.186584 88.0
234.229401 84.0
234.269653 56.0
234.290115 140.0
234.307907 200.0
234.338058 136.0
234.366776 156.0
234.415817 72.0
234.448334 112.0
234.479935 132.0
234.512268 124.0
234.550812 140.0
234.584763 76.0
234.649231 100.0
234.683945 172.0
234.713211 108.0
234.751434 52.0
234.785797 160.0
234.839874 44.0
234.863358 92.0
234.88562 96.0
234.913086 80.0
234.962143 48.0
235.039322 200.0
235.086716 4568.0
235.180008 100.0
235.205246 120.0
235.236618 148.0
235.299774 56.0
235.354691 80.0
235.391602 120.0
235.420181 108.0
235.482452 128.0
235.51355 172.0
235.53688 56.0
235.572037 168.0
235.602234 140.0
235.650345 184.0
235.720367 176.0
235.767395 172.0
235.79715 244.0
235.850693 336.0
235.889511 300.0
235.913971 160.0
235.947891 288.0
235.980972 112.0
236.057526 56.0
236.087738 228.0
236.128738 60.0
236.150146 116.0
236.177673 104.0
236.240326 64.0
236.327087 176.0
236.33287 120.0
236.407593 180.0
236.501999 44.0
236.539185 116.0
236.563095 128.0
236.587708 84.0
236.630569 80.0
236.694046 120.0
236.760971 116.0
236.78508 96.0
236.832672 112.0
236.871689 76.0
236.919907 84.0
236.969498 72.0
236.998108 44.0
237.092438 168.0
237.154388 136.0
237.200363 36.0
237.272766 64.0
237.322998 80.0
237.510056 48.0
237.638901 36.0
237.804611 40.0
237.905899 120.0
238.001083 40.0
238.053284 132.0
238.280563 52.0
238.44957 56.0
238.544861 76.0
238.784683 68.0
239.003098 60.0
239.080017 112.0
239.242004 32.0
239.779099 104.0
240.303314 108.0
240.448334 92.0
240.611938 128.0
240.713821 52.0
240.94548 120.0
240.982544 152.0
241.072159 100.0
241.130875 28.0
241.155594 140.0
241.260696 120.0
241.375092 84.0
241.579208 176.0
242.749954 176.0
243.255661 52.0
243.30603 88.0
243.379852 128.0
243.451263 76.0
243.513382 80.0
243.559967 68.0
243.758789 88.0
244.019882 72.0
244.063416 68.0
244.116272 104.0
244.162918 156.0
244.397263 72.0
244.442902 40.0
244.751053 32.0
245.025131 192.0
245.070648 376.0
245.243256 60.0
245.305603 64.0
245.334198 116.0
245.570633 48.0
245.611191 84.0
245.800125 108.0
245.835815 80.0
245.860779 56.0
246.057419 104.0
246.154221 100.0
246.569702 144.0
246.716599 108.0
246.794769 180.0
247.351624 144.0
247.58017 64.0
247.708588 44.0
248.467224 84.0
248.646072 64.0
248.727676 116.0
250.069778 68.0
250.293289 76.0
250.488556 80.0
250.888763 108.0
251.029892 168.0
251.109482 124.0
251.14418 88.0
251.895416 44.0
251.971222 44.0
252.056534 76.0
252.255646 56.0
252.82695 108.0
253.356888 72.0
253.445602 124.0
254.070633 288.0
254.120941 228.0
254.301819 56.0
254.570007 188.0
255.051392 164.0
255.162659 64.0
255.461594 80.0
255.587234 176.0
256.044067 72.0
256.509247 40.0
256.780243 152.0
257.000366 140.0
257.862549 40.0
257.961639 204.0
258.470154 112.0
258.511749 96.0
259.077332 124.0
259.158569 132.0
259.229065 132.0
259.963409 128.0
260.056458 180.0
260.276398 156.0
260.669861 36.0
260.750183 108.0
260.795197 68.0
260.914124 116.0
260.943054 88.0
260.994659 168.0
261.02243 88.0
261.076294 8968.0
261.219635 60.0
261.341888 100.0
261.403015 68.0
261.481171 56.0
261.583252 100.0
261.620728 56.0
261.644409 76.0
261.67337 48.0
261.742096 68.0
261.911682 64.0
262.043762 160.0
262.078888 1756.0
262.121094 112.0
262.188751 56.0
262.401489 104.0
262.475647 180.0
262.527252 56.0
262.730438 104.0
262.762695 100.0
262.914368 52.0
263.0112 76.0
263.078644 444.0
263.159698 80.0
263.224274 108.0
263.292084 88.0
263.503448 96.0
263.586029 188.0
263.615112 140.0
263.760559 76.0
263.960999 120.0
264.090942 184.0
264.235931 68.0
264.368591 48.0
264.433319 28.0
265.110168 60.0
265.220367 76.0
265.304626 72.0
266.95401 72.0
269.777557 56.0
271.076904 124.0
272.085724 344.0
272.484497 108.0
273.076172 88.0
273.61911 56.0
273.961609 92.0
274.297729 84.0
275.18515 84.0
275.528625 176.0
276.06076 116.0
277.972107 52.0
278.865448 112.0
281.670959 80.0
284.168304 148.0
286.107483 112.0
286.818237 108.0
287.084595 104.0
287.756042 60.0
288.022827 220.0
288.664948 104.0
289.524506 156.0
290.229309 92.0
291.509003 72.0
292.386383 96.0
293.02652 52.0
296.614746 92.0
297.087952 48.0
297.372742 124.0
299.435608 104.0
300.628418 124.0
302.726715 124.0
304.0961 136.0
304.137756 72.0
306.056732 108.0
306.75351 76.0
311.087646 164.0
312.408966 36.0
312.954437 104.0
313.627289 32.0
315.706757 96.0
315.841156 36.0
318.673615 112.0
320.709137 92.0
323.069427 116.0
323.74231 60.0
324.079285 164.0
327.117249 88.0
327.91687 188.0
329.858734 52.0
331.041809 84.0
334.327118 56.0
336.605438 248.0
338.422699 184.0
338.953796 248.0
339.126465 208.0
339.294647 92.0
340.120026 164.0
340.494507 64.0
340.9133 64.0
344.136353 172.0
344.579529 92.0
345.115448 252.0
348.111725 388.0
348.23938 48.0
349.123901 108.0
352.609283 220.0
352.755402 44.0
353.118073 160.0
356.266663 108.0
359.134979 188.0
360.116302 88.0
362.389771 132.0
363.075867 40.0
365.933319 52.0
366.009491 68.0
366.211304 88.0
366.958191 96.0
368.152527 36.0
372.791595 88.0
374.684631 68.0
377.069275 128.0
377.827148 100.0
378.214111 92.0
378.856903 52.0
384.120331 68.0
388.434875 52.0
388.968536 84.0
392.603943 88.0
395.37323 136.0
395.856201 68.0
397.866394 104.0
398.875397 60.0
398.911163 132.0
398.94696 60.0
399.324677 64.0
401.93399 40.0
402.189392 68.0
404.159576 164.0
404.864075 96.0
410.151398 80.0
414.378357 144.0
419.99231 44.0
420.249298 92.0
421.555939 108.0
422.197754 92.0
422.659973 64.0
425.093964 140.0
429.586792 88.0
431.088745 144.0
432.106689 128.0
433.09201 128.0
435.215271 108.0
436.149994 168.0
437.160614 92.0
438.414062 36.0
440.149384 76.0
442.059662 132.0
443.227936 44.0
444.439697 160.0
444.704071 64.0
444.809021 80.0
446.014526 124.0
446.118286 100.0
446.527496 56.0
447.120667 124.0
450.122131 140.0
450.565613 80.0
450.692352 152.0
451.110748 124.0
451.182037 3008.0
451.310699 232.0
451.715454 48.0
451.880432 120.0
452.096222 180.0
452.187164 1072.0
453.186707 452.0
453.269196 180.0
453.875336 48.0
454.125549 116.0
454.185638 168.0
454.846863 48.0
455.74292 60.0
456.371979 40.0
456.673889 56.0
457.371674 44.0
457.588806 68.0
458.040192 28.0
458.457733 60.0
462.930359 68.0
464.128357 96.0
465.129761 44.0
467.136444 140.0
470.126556 156.0
471.154175 72.0
471.793762 68.0
475.197784 64.0
476.118011 100.0
479.589874 116.0
482.387787 48.0
486.817291 100.0
490.140991 156.0
493.041992 88.0
493.117126 124.0
494.53244 68.0
498.083984 120.0
507.133057 184.0
507.15387 108.0
507.165436 152.0
507.581085 92.0
524.656799 96.0
529.382751 104.0
536.841003 116.0
542.153992 68.0
543.9104 108.0
545.540833 80.0
554.132507 56.0
556.031616 64.0
561.323914 64.0
566.115479 52.0
569.211975 84.0
583.248352 84.0
598.341309 72.0
601.8078 40.0
610.889038 80.0
611.77478 36.0
619.711243 84.0
620.355469 52.0
621.287781 36.0
627.060669 100.0
631.159119 76.0
632.239624 88.0
637.238831 84.0
653.682129 76.0
654.114746 64.0
664.524658 100.0
666.614441 48.0
668.270142 28.0
670.370544 168.0
670.597717 96.0
670.876038 156.0
671.123474 84.0
672.46991 44.0
682.192322 48.0
688.052979 64.0
696.326294 44.0
699.502075 64.0
710.594543 116.0
713.733582 84.0
721.400085 52.0
738.256042 76.0
738.910522 64.0
739.30011 136.0
742.203491 80.0
745.574524 44.0
763.203674 28.0
772.651367 80.0
779.182129 36.0
782.023621 64.0
783.187317 44.0
785.522827 72.0
797.87085 120.0
815.677856 40.0
834.296448 120.0
844.710938 60.0
859.601624 100.0
862.878357 32.0
876.990234 88.0
896.882019 56.0
908.458557 140.0
908.764526 48.0
917.792542 72.0
936.213867 52.0
936.780273 156.0
941.287354 84.0
948.108154 92.0
948.371643 120.0
950.438293 164.0
957.199707 176.0
961.730896 248.0
980.324097 84.0
987.816223 156.0
1012.368958 64.0
1028.594238 84.0
1035.032104 76.0
1050.15979 116.0
1051.9729 112.0
1060.336182 184.0
1062.664062 44.0
1079.318604 156.0
1079.782837 64.0
1094.179321 148.0
1102.85376 76.0
1107.074707 136.0
1114.085327 108.0
1130.239746 116.0
1131.966675 112.0
1136.93396 84.0
1138.263184 156.0
1139.210083 208.0
1140.157471 64.0
1140.896851 240.0
1142.09375 200.0
1151.793091 176.0
1183.792725 164.0
1190.025513 192.0
1196.914917 152.0
1197.706909 52.0
1205.274902 156.0
1207.265625 56.0
1215.571411 192.0
1220.697876 176.0
1230.77356 208.0
1232.030762 72.0
1242.46875 236.0
1247.749878 124.0
1250.44397 88.0
1250.957764 164.0
1254.585693 128.0
1267.207764 112.0
1267.774658 204.0
1270.305786 112.0
1272.782715 228.0
1277.252808 64.0
1280.619385 148.0
1294.710327 112.0
1295.061279 68.0
1298.86731 132.0
1301.508179 204.0
1306.273071 116.0
1307.733643 132.0
1310.001831 36.0
1312.783813 148.0
1316.391968 212.0
1317.930542 176.0
1321.798828 112.0
1322.479126 204.0
1327.24585 128.0
1328.036377 148.0
1329.973633 164.0
1330.772095 132.0
1331.120605 108.0
1333.241821 136.0
1335.430176 140.0
1335.611938 84.0
1335.822876 140.0
1337.824097 124.0
1338.77063 180.0
1346.646973 116.0
1347.041382 68.0
1349.379883 240.0
1350.286621 212.0
1354.114258 152.0
1356.598267 152.0
1358.174805 200.0
1361.301147 104.0
1361.940063 200.0
1364.681152 156.0
1367.410278 144.0
1367.895996 172.0
1375.089844 140.0
1378.110107 128.0
1378.627319 120.0
1381.976929 160.0
1384.486206 204.0
1385.249146 80.0
1387.813354 244.0
1394.999756 140.0
1396.576172 196.0
1399.850708 32.0
1403.039551 168.0
1404.859253 136.0
1408.479492 68.0
1409.159302 216.0
1412.658081 128.0
1417.022583 164.0
1421.36377 108.0
1424.118896 176.0
1424.922607 152.0
1427.237549 148.0
1431.699829 124.0
1433.048096 188.0
1435.08313 132.0
1442.67041 144.0
1444.167603 168.0
1445.832031 252.0
1447.701904 124.0
1449.528442 64.0
1454.220337 112.0
1458.551147 48.0
1459.311279 128.0
1465.07251 232.0
1466.428833 48.0
1466.855591 92.0
1467.84668 148.0
1468.716064 168.0
1469.440796 136.0
1470.753418 148.0
1474.266479 116.0
1475.321289 224.0
1475.657715 76.0
1477.707397 148.0
1479.306763 116.0
1479.459961 152.0
1482.278442 168.0
1484.685425 212.0
1485.92041 204.0
1486.940918 168.0
1487.079956 172.0
1488.407104 148.0
1495.83374 184.0
1496.988647 224.0
1497.489136 252.0
1498.12854 80.0
1499.530884 200.0
1499.877686 168.0
1501.812988 132.0
1502.499512 196.0
1502.877563 148.0
