>compound MLS000859934-01!Ranolazine dihydrochloride
>formula C24H33N3O4
>ionization [M+H]+
>parentmass 428.253998
#inchi InChI=1S/C24H33N3O4/c1-18-7-6-8-19(2)24(18)25-23(29)16-27-13-11-26(12-14-27)15-20(28)17-31-22-10-5-4-9-21(22)30-3/h4-10,20,28H,11-17H2,1-3H3,(H,25,29)
#inchikey XKLMZUWKNUAPSZ
#origInchi InChI=1S/C24H33N3O4.ClH/c1-18-7-6-8-19(2)24(18)25-23(29)16-27-13-11-26(12-14-27)15-20(28)17-31-22-10-5-4-9-21(22)30-3;/h4-10,20,28H,11-17H2,1-3H3,(H,25,29);1H
#Ion_Source LC-ESI
#Instrument qTof
#Compound_Source NIH Pharmacologically Active Library
#PI Dorrestein
#Data_Collector VP/LMS
#Scan -1
#Precursor_MZ 428.255
#ExactMass 427.247
#Charge 1
#CAS_Number N/A
#Pubmed_ID N/A
#Smiles COc1ccccc1OCC(O)CN2CCN(CC(=O)Nc3c(C)cccc3C)CC2.Cl
#INCHI_AUX N/A
#Library_Class 1
#SpectrumID CCMSLIB00000085217
#IonMode Positive
#UpdateWorkflowName UPDATE-SINGLE-ANNOTATED-GOLD
#LibraryQualityString Gold
#TaskID d252d724072548979f1f6f1ced849daf
##Scan# 1597
#SpectrumFile p3-G03_GG3_01_18296.mzXML
#LibraryName Pharm_Active_Library.mgf
#MQScore -1
#Organism Pharm_Active_Library
#TIC_Query 0
#RT_Query -1
#MZErrorPPM -1
#SharedPeaks 0
#MassDiff 0
#LibMZ -1
#SpecMZ 428.255
#SpecCharge 0
#internalFilename spec-00000.mgf

>collision 10
45.054375 172.0
45.098087 124.0
45.181393 168.0
45.194771 136.0
45.309925 196.0
45.343426 224.0
45.376942 188.0
45.397057 68.0
45.418518 104.0
45.444008 164.0
45.457428 144.0
45.589043 140.0
45.629368 188.0
45.68586 152.0
45.860928 56.0
45.898834 104.0
45.922955 100.0
45.955334 160.0
46.001221 216.0
46.016075 176.0
46.025524 172.0
46.034977 212.0
46.306835 172.0
46.377296 192.0
46.395088 128.0
46.586281 160.0
46.620731 216.0
46.692554 112.0
46.72768 172.0
46.807995 168.0
46.820251 116.0
46.891079 236.0
47.058964 260.0
47.10944 120.0
47.16 176.0
47.239883 164.0
47.325542 136.0
47.451603 136.0
47.495491 156.0
47.575405 212.0
47.660248 168.0
47.676739 84.0
47.691856 144.0
47.724854 144.0
47.745483 184.0
47.796387 148.0
47.811043 172.0
47.913425 220.0
48.018196 212.0
48.088566 168.0
48.103752 160.0
48.116177 208.0
48.312439 156.0
48.441189 160.0
48.528507 176.0
48.545147 176.0
48.584637 204.0
48.607578 184.0
48.622845 120.0
48.708935 100.0
48.746449 156.0
48.765907 116.0
48.799274 232.0
48.836823 220.0
48.960701 228.0
48.98299 60.0
49.165653 132.0
49.182404 180.0
49.228477 92.0
49.412998 204.0
49.523598 104.0
49.673592 164.0
49.710072 128.0
49.743759 132.0
49.756397 196.0
49.771843 256.0
49.823814 60.0
49.88987 180.0
49.953156 164.0
50.086891 216.0
50.136253 128.0
50.360554 164.0
50.425552 220.0
50.513222 116.0
50.566994 176.0
50.591061 132.0
50.684544 300.0
50.710056 200.0
50.7299 136.0
50.81216 144.0
50.830608 80.0
50.840542 160.0
51.04512 104.0
51.059341 196.0
51.191704 200.0
51.235863 180.0
51.245834 100.0
51.309975 152.0
51.327087 160.0
51.415539 76.0
51.564079 156.0
51.746307 200.0
51.768677 172.0
51.820244 104.0
51.881878 156.0
51.924896 56.0
51.956455 128.0
52.038456 184.0
52.171776 252.0
52.223663 228.0
52.243801 164.0
52.371925 176.0
52.536266 176.0
52.556469 156.0
52.742779 104.0
52.80785 64.0
52.852699 76.0
52.890331 164.0
52.961285 244.0
53.040985 144.0
53.068535 144.0
53.080315 160.0
53.107693 84.0
53.215088 164.0
53.241226 248.0
53.303696 180.0
53.341488 124.0
53.36911 172.0
53.450573 144.0
53.49424 172.0
53.529182 136.0
53.644295 104.0
53.680744 160.0
53.854431 40.0
53.873421 76.0
53.896801 192.0
53.966965 168.0
54.0401 216.0
54.050343 124.0
54.092789 208.0
54.248081 164.0
54.336079 176.0
54.351685 132.0
54.42651 184.0
54.553444 68.0
54.57991 172.0
54.600636 216.0
54.653461 192.0
54.841976 176.0
54.897053 248.0
54.977673 160.0
55.017529 168.0
55.045586 160.0
55.132748 236.0
55.159355 176.0
55.249569 196.0
55.273243 204.0
55.299881 188.0
55.3517 208.0
55.461342 140.0
55.488026 224.0
55.596317 208.0
55.628086 256.0
55.643818 160.0
55.792854 260.0
55.823624 136.0
55.86676 216.0
55.88015 132.0
55.92926 184.0
55.939682 132.0
56.002228 180.0
56.145313 156.0
56.221405 144.0
56.310989 172.0
56.372246 168.0
56.452976 132.0
56.500843 176.0
56.533764 164.0
56.626591 84.0
56.679028 180.0
56.719494 192.0
56.770473 120.0
56.804974 92.0
56.944576 112.0
57.054653 192.0
57.066307 180.0
57.118946 216.0
57.155056 184.0
57.22731 160.0
57.563583 132.0
57.643654 196.0
57.782768 160.0
57.819088 120.0
57.894264 300.0
57.938637 152.0
57.991756 136.0
58.029659 168.0
58.113083 156.0
58.155579 88.0
58.198086 172.0
58.219349 140.0
58.286194 176.0
58.29987 132.0
58.31963 140.0
58.406303 144.0
58.506744 128.0
58.581371 144.0
58.631657 188.0
58.770435 96.0
58.808586 140.0
58.845226 224.0
58.904793 152.0
58.958271 100.0
58.995808 160.0
59.048077 152.0
59.308784 188.0
59.368584 200.0
59.426876 168.0
59.463707 144.0
59.515907 116.0
59.672638 204.0
59.766468 172.0
59.792629 160.0
59.818798 136.0
59.871151 88.0
59.90966 224.0
59.925068 176.0
59.979012 208.0
60.017555 184.0
60.074623 164.0
60.187298 148.0
60.498081 160.0
60.594109 160.0
60.666954 64.0
60.679356 68.0
60.722778 192.0
60.833542 200.0
60.870216 148.0
60.994518 124.0
61.025028 128.0
61.042717 124.0
61.102612 184.0
61.174976 60.0
61.188225 200.0
61.2393 108.0
61.351021 184.0
61.418079 128.0
61.492977 68.0
61.528885 132.0
61.561676 60.0
61.639072 180.0
61.656979 40.0
61.702312 148.0
61.822762 120.0
61.833717 80.0
61.92453 180.0
62.018547 148.0
62.098515 188.0
62.125183 140.0
62.169121 68.0
62.197372 220.0
62.332447 148.0
62.352879 128.0
62.395321 188.0
62.414192 224.0
62.462948 152.0
62.52964 312.0
62.603035 192.0
62.650291 144.0
62.724361 176.0
62.796894 232.0
62.825291 200.0
62.949989 76.0
63.019497 180.0
63.152294 128.0
63.294735 148.0
63.3302 224.0
63.527733 52.0
63.551533 224.0
63.592796 168.0
63.716663 208.0
63.751621 176.0
63.842243 252.0
63.909058 176.0
63.939293 128.0
63.963173 232.0
64.034653 184.0
64.128838 96.0
64.162315 136.0
64.347397 180.0
64.38253 160.0
64.481583 176.0
64.540741 180.0
64.596718 188.0
64.644722 180.0
64.69754 188.0
64.718353 240.0
64.731171 144.0
64.792038 80.0
64.812866 152.0
64.864151 140.0
65.082359 156.0
65.138573 72.0
65.154633 160.0
65.204453 100.0
65.234993 224.0
65.278404 124.0
65.357933 156.0
65.444153 148.0
65.473587 144.0
65.503746 120.0
65.535973 120.0
65.586723 220.0
65.616562 148.0
65.637527 96.0
65.737541 64.0
65.782738 140.0
65.913567 184.0
66.162933 72.0
66.251747 176.0
66.263084 144.0
66.293877 272.0
66.407555 176.0
66.451172 160.0
66.464149 152.0
66.657394 212.0
66.66877 168.0
66.73217 184.0
66.78421 44.0
66.810242 76.0
66.862312 184.0
66.881844 76.0
66.894867 200.0
67.03006 152.0
67.057762 152.0
67.260033 192.0
67.310646 172.0
67.32534 128.0
67.389053 52.0
67.510025 168.0
67.589172 188.0
67.654015 132.0
67.675301 48.0
67.737541 124.0
67.766685 172.0
67.816193 212.0
67.86702 124.0
67.922783 180.0
67.939186 116.0
67.976929 216.0
68.022888 172.0
68.267708 160.0
68.294029 180.0
68.323639 124.0
68.440498 248.0
68.505989 216.0
68.737221 160.0
69.109024 180.0
69.200066 176.0
69.211655 36.0
69.244781 132.0
69.289505 412.0
69.357452 148.0
69.408852 172.0
69.511703 96.0
69.631241 132.0
69.687721 208.0
69.727608 132.0
69.773979 192.0
69.779144 172.0
69.82737 172.0
69.865631 124.0
69.980469 148.0
70.002121 308.0
70.063751 168.0
70.081833 136.0
70.088684 116.0
70.217117 284.0
70.24881 184.0
70.32724 244.0
70.363968 156.0
70.527687 208.0
70.596237 124.0
70.755211 120.0
70.814003 148.0
70.879158 128.0
71.157608 156.0
71.218063 196.0
71.233681 188.0
71.312164 220.0
71.349144 152.0
71.392136 228.0
71.416412 164.0
71.460152 100.0
71.510643 140.0
71.653786 160.0
71.692543 148.0
71.781891 172.0
71.832497 140.0
71.845993 172.0
71.965828 192.0
71.996223 156.0
72.089142 316.0
72.106041 184.0
72.131401 244.0
72.246399 164.0
72.283623 168.0
72.344559 164.0
72.468201 100.0
72.547859 76.0
72.586861 204.0
72.798988 148.0
72.848251 108.0
72.870338 156.0
72.938316 148.0
73.050552 104.0
73.105003 88.0
73.16288 136.0
73.224182 180.0
73.30085 56.0
73.380966 268.0
73.394608 176.0
73.519142 160.0
73.859161 56.0
73.975525 240.0
74.123955 176.0
74.177673 244.0
74.587959 164.0
74.608589 140.0
74.651573 72.0
74.708336 196.0
74.839149 144.0
74.92527 108.0
75.227081 160.0
75.286789 180.0
75.370438 212.0
75.38945 208.0
75.406555 196.0
75.456863 156.0
75.527771 228.0
75.545074 96.0
75.644966 104.0
75.704315 76.0
75.737228 152.0
75.858528 124.0
75.879333 144.0
75.952171 160.0
76.0103 200.0
76.0858 124.0
76.180092 124.0
76.330803 196.0
76.360062 112.0
76.452583 160.0
76.492615 92.0
76.588394 196.0
76.647629 180.0
76.659828 132.0
76.69191 188.0
76.715607 176.0
76.75222 128.0
76.982574 148.0
77.015762 176.0
77.041962 240.0
77.169556 184.0
77.197533 132.0
77.24826 156.0
77.309502 180.0
77.372513 48.0
77.391777 116.0
77.421547 200.0
77.460083 216.0
77.4776 204.0
77.540688 88.0
77.58802 160.0
77.631851 36.0
77.666931 100.0
77.682724 184.0
77.695 156.0
77.756424 88.0
77.834236 136.0
77.852982 92.0
77.897484 188.0
77.953125 148.0
77.984756 208.0
78.007614 96.0
78.024765 164.0
78.098091 192.0
78.115875 164.0
78.340225 192.0
78.398376 228.0
78.550011 108.0
78.594978 248.0
78.617065 80.0
78.677078 156.0
78.756546 224.0
78.910301 160.0
79.112 192.0
79.23243 32.0
79.248375 172.0
79.303314 84.0
79.338768 84.0
79.384872 208.0
79.443405 240.0
79.480667 284.0
79.494865 160.0
79.538712 188.0
79.567642 84.0
79.743515 180.0
79.757736 176.0
79.771957 80.0
79.818184 112.0
79.926697 188.0
79.969406 180.0
80.11187 188.0
80.135033 52.0
80.167107 136.0
80.179581 136.0
80.309738 124.0
80.327583 76.0
80.388245 144.0
80.481071 184.0
80.572166 264.0
80.613266 204.0
80.647224 192.0
80.729469 264.0
80.758087 36.0
80.777763 200.0
80.811752 192.0
80.946007 184.0
80.98362 200.0
80.997948 236.0
81.055283 124.0
81.461479 152.0
81.638733 108.0
81.674706 232.0
81.735878 192.0
81.791824 144.0
81.825874 156.0
81.951958 64.0
82.07093 200.0
82.099785 48.0
82.226074 144.0
82.365112 248.0
82.410278 36.0
82.45546 160.0
82.571899 216.0
82.630875 176.0
82.672493 152.0
82.706879 188.0
83.009453 216.0
83.105598 128.0
83.3144 208.0
83.383453 160.0
83.432533 124.0
83.510727 112.0
83.532555 80.0
83.825706 204.0
84.014618 112.0
84.104759 196.0
84.128487 48.0
84.205185 88.0
84.221626 76.0
84.278099 224.0
84.397072 180.0
84.46109 180.0
84.582611 196.0
84.72654 152.0
84.763885 188.0
84.810837 188.0
84.827339 180.0
84.926361 208.0
84.942871 164.0
84.99791 164.0
85.05352 296.0
85.069328 176.0
85.108055 88.0
85.227448 224.0
85.248344 184.0
85.510666 128.0
85.554848 184.0
85.739052 156.0
85.857048 132.0
85.925301 220.0
86.175957 180.0
86.302101 164.0
86.37793 268.0
86.676025 72.0
86.698265 132.0
86.733482 176.0
86.850304 156.0
86.879982 132.0
86.993195 172.0
87.011757 92.0
87.039612 220.0
87.05455 180.0
87.156639 144.0
87.208679 176.0
87.232841 212.0
87.301643 180.0
87.525085 56.0
87.569656 136.0
87.582695 204.0
87.599457 192.0
87.809029 364.0
87.842941 200.0
87.989243 204.0
88.062073 296.0
88.101303 40.0
88.148018 148.0
88.207825 144.0
88.361183 144.0
88.381767 140.0
88.484718 156.0
88.520294 120.0
88.610207 92.0
88.649559 168.0
88.709534 148.0
88.889603 232.0
89.007866 116.0
89.160034 236.0
89.207031 160.0
89.348083 200.0
89.378189 224.0
89.461006 156.0
89.572113 144.0
89.600372 132.0
89.653137 212.0
89.692719 120.0
89.717224 188.0
89.907738 180.0
89.930389 100.0
89.998352 132.0
90.185394 188.0
90.27993 144.0
90.329109 76.0
90.571411 120.0
90.707848 216.0
90.727798 252.0
90.80835 112.0
90.88044 272.0
90.914597 144.0
90.974045 120.0
91.051971 560.0
91.131569 140.0
91.201401 208.0
91.269844 164.0
91.285057 36.0
91.420128 88.0
91.500076 172.0
91.567757 148.0
91.728699 92.0
91.770645 132.0
91.816406 68.0
91.921341 216.0
91.948059 148.0
91.986237 108.0
92.018631 136.0
92.115089 168.0
92.200165 156.0
92.282372 188.0
92.303398 112.0
92.383736 164.0
92.425827 184.0
92.481331 132.0
92.515793 32.0
92.632607 72.0
92.674759 208.0
92.751419 208.0
92.826195 132.0
92.85688 184.0
92.941299 228.0
93.031906 528.0
93.054543 160.0
93.073746 180.0
93.091026 184.0
93.125603 140.0
93.221664 172.0
93.256264 164.0
93.298553 136.0
93.766327 116.0
93.856934 36.0
93.932152 228.0
93.955307 180.0
93.970741 148.0
94.019623 96.0
94.034424 184.0
94.066208 368.0
94.081352 128.0
94.12323 196.0
94.136749 180.0
94.229309 48.0
94.30677 80.0
94.331902 144.0
94.382172 144.0
94.403442 128.0
94.534996 88.0
94.567902 200.0
94.598869 176.0
94.686005 232.0
94.7015 44.0
94.718933 172.0
94.782875 40.0
94.906937 204.0
94.934082 172.0
94.992271 176.0
95.049042 256.0
95.059212 332.0
95.087357 172.0
95.17083 40.0
95.256042 156.0
95.320404 140.0
95.35733 168.0
95.384544 160.0
95.464264 68.0
95.627693 152.0
95.670525 164.0
95.730881 116.0
95.875832 200.0
95.925728 148.0
95.984222 208.0
96.044739 480.0
96.079338 660.0
96.259377 128.0
96.339462 192.0
96.429352 100.0
96.497772 172.0
96.52124 56.0
96.585777 128.0
96.624908 100.0
96.638603 168.0
96.669914 196.0
96.683609 192.0
96.718842 184.0
96.806953 140.0
96.850044 204.0
96.924492 52.0
96.996407 156.0
97.023277 160.0
97.048775 188.0
97.075768 12232.0
97.121094 184.0
97.169144 116.0
97.20491 84.0
97.248093 120.0
97.277534 144.0
97.330551 132.0
97.431084 172.0
97.448814 116.0
97.483772 68.0
97.505394 56.0
97.552574 120.0
97.582062 248.0
97.650894 180.0
97.786659 100.0
97.804367 196.0
97.818153 212.0
97.830391 128.0
97.922516 168.0
97.938271 40.0
97.971764 108.0
97.999184 192.0
98.003288 176.0
98.011208 192.0
98.034279 176.0
98.040421 336.0
98.059669 1660.0
98.083138 32428.0
98.148735 112.0
98.155685 180.0
98.169907 84.0
98.213577 160.0
98.251724 120.0
98.274185 52.0
98.313927 76.0
98.350395 68.0
98.368355 40.0
98.407402 32.0
98.443192 52.0
98.484665 212.0
98.533836 36.0
98.63002 136.0
98.700089 88.0
98.719864 52.0
98.746063 192.0
98.809944 112.0
98.882103 132.0
98.909813 48.0
98.973167 104.0
99.000893 164.0
99.032585 84.0
99.068077 388.0
99.088089 2784.0
99.117775 204.0
99.143051 180.0
99.169304 232.0
99.208946 68.0
99.266449 108.0
99.304131 256.0
99.334633 96.0
99.377533 132.0
99.419212 100.0
99.437073 60.0
99.468834 184.0
99.564636 112.0
99.6138 104.0
99.629692 104.0
99.655525 56.0
99.684731 132.0
99.717125 252.0
99.744957 132.0
99.770798 36.0
99.797714 232.0
99.848351 56.0
99.878189 120.0
99.919968 128.0
99.935883 92.0
99.975685 60.0
100.074532 2004.0
100.132973 44.0
100.171318 144.0
100.190742 64.0
100.248528 136.0
100.290382 108.0
100.304337 60.0
100.41201 180.0
100.5896 96.0
100.850288 160.0
100.949257 84.0
101.023262 180.0
101.061279 116.0
101.078285 104.0
101.106964 4068.0
101.145332 268.0
101.183372 192.0
101.255463 76.0
101.322472 196.0
101.359642 120.0
101.387695 64.0
101.445076 172.0
101.608276 252.0
101.809013 196.0
101.825081 172.0
101.843155 176.0
101.911461 52.0
102.089409 312.0
102.111214 408.0
102.160774 40.0
102.209068 92.0
102.267433 76.0
102.622002 56.0
102.649536 208.0
102.734947 116.0
102.797501 160.0
102.821716 144.0
102.892372 100.0
103.053192 860.0
103.106499 160.0
103.199486 168.0
103.292519 88.0
103.328941 112.0
103.559723 144.0
103.94696 148.0
104.011909 40.0
104.056519 156.0
104.227196 56.0
104.39389 48.0
104.421349 200.0
104.489494 208.0
104.53019 112.0
104.607536 176.0
104.684914 216.0
104.77861 32.0
104.83567 200.0
104.86216 116.0
105.043648 200.0
105.068016 1492.0
105.202827 204.0
105.274292 124.0
105.319229 232.0
105.398903 144.0
105.526917 204.0
105.605392 204.0
105.676994 416.0
105.791611 136.0
105.883759 176.0
105.912437 216.0
105.926773 104.0
105.980042 56.0
106.064301 248.0
106.16864 168.0
106.252747 176.0
106.283524 204.0
106.322517 72.0
106.369728 92.0
106.482658 164.0
106.511421 168.0
106.565567 180.0
106.620316 192.0
106.644981 160.0
106.731331 128.0
106.747047 168.0
106.780685 44.0
107.004997 156.0
107.048386 1560.0
107.067894 176.0
107.083252 156.0
107.243973 148.0
107.318192 144.0
107.596382 140.0
107.679337 212.0
107.715385 112.0
107.811562 152.0
107.846703 120.0
107.865303 164.0
107.914925 176.0
107.943871 112.0
108.05368 140.0
108.079079 484.0
108.113518 44.0
108.193115 132.0
108.285362 128.0
108.519539 160.0
108.564842 144.0
108.68782 156.0
108.710381 164.0
108.741508 176.0
108.841026 188.0
108.872314 168.0
109.027443 152.0
109.068901 424.0
109.20224 192.0
109.236061 184.0
109.254791 176.0
109.333862 136.0
109.552956 184.0
109.581673 116.0
109.694214 208.0
109.72757 156.0
109.794296 176.0
109.888176 152.0
109.911125 196.0
109.950775 180.0
110.03154 244.0
110.060555 208.0
110.078621 280.0
110.094475 188.0
110.500374 184.0
110.567337 124.0
110.630135 160.0
110.818634 68.0
110.97374 148.0
110.993599 184.0
111.046776 300.0
111.066017 236.0
111.090843 12968.0
111.127647 128.0
111.158333 268.0
111.215004 52.0
111.240189 72.0
111.256989 40.0
111.332581 164.0
111.359886 44.0
111.565826 180.0
111.614182 40.0
111.631004 56.0
111.647827 64.0
111.706726 48.0
111.736183 96.0
111.789787 168.0
111.851929 156.0
111.963524 256.0
111.982483 44.0
112.026718 148.0
112.074913 3588.0
112.094543 1956.0
112.14817 208.0
112.364044 140.0
112.596252 184.0
112.885796 132.0
112.90271 40.0
112.917519 56.0
112.974632 176.0
113.003433 248.0
113.02964 168.0
113.081367 1104.0
113.106277 18980.0
113.143944 204.0
113.188408 152.0
113.206078 116.0
113.23288 68.0
113.257484 104.0
113.302788 68.0
113.321854 56.0
113.386269 132.0
113.417229 192.0
113.438423 192.0
113.455383 88.0
113.480827 144.0
113.531723 176.0
113.667496 40.0
113.709938 128.0
113.7248 52.0
113.767258 84.0
113.801224 88.0
113.822456 44.0
113.956284 148.0
114.026413 92.0
114.057541 160.0
114.064484 136.0
114.089943 1864.0
114.114174 7720.0
114.147591 64.0
114.170982 68.0
114.20076 176.0
114.217247 80.0
114.417229 100.0
114.464668 28.0
114.48597 68.0
114.503006 40.0
114.519386 52.0
114.667061 56.0
114.686249 124.0
114.7033 48.0
114.831238 132.0
114.85257 180.0
114.888832 88.0
114.903152 176.0
114.944313 104.0
115.051033 96.0
115.085197 140.0
115.118706 172.0
115.194122 36.0
115.251808 48.0
115.37056 136.0
115.435646 160.0
115.554184 164.0
115.563744 68.0
115.567345 156.0
115.805908 96.0
115.850899 128.0
115.902374 156.0
115.939964 120.0
115.962326 148.0
116.009483 140.0
116.065231 92.0
116.127426 212.0
116.24543 48.0
116.286209 156.0
116.406433 124.0
116.554657 192.0
116.730934 140.0
116.748138 120.0
116.765343 176.0
116.986984 216.0
117.057251 348.0
117.129112 204.0
117.297195 232.0
117.486977 132.0
117.685547 216.0
117.869156 52.0
117.942642 88.0
118.005333 84.0
118.037766 160.0
118.062065 180.0
118.089676 172.0
118.124283 184.0
118.362366 112.0
118.451164 92.0
118.500999 196.0
118.654884 220.0
118.724274 200.0
118.75898 168.0
118.92823 100.0
118.997696 128.0
119.047676 1660.0
119.075455 184.0
119.167114 96.0
119.247528 100.0
119.64344 60.0
119.784996 212.0
119.815498 172.0
120.055275 156.0
120.078041 456.0
120.212349 160.0
120.27565 56.0
120.378265 148.0
120.504295 228.0
120.60112 140.0
120.730118 128.0
120.74543 84.0
120.81916 136.0
120.863564 88.0
120.951424 140.0
121.027763 1028.0
121.062706 2120.0
121.086731 396.0
121.10199 128.0
121.107338 196.0
121.490204 84.0
121.545059 60.0
121.62188 164.0
121.779976 108.0
121.806335 248.0
121.984337 76.0
122.008514 260.0
122.035538 5028.0
122.065689 296.0
122.095055 508.0
122.166862 320.0
122.217468 80.0
122.25708 160.0
122.294495 252.0
122.309906 176.0
122.448624 148.0
122.682205 32.0
122.849815 80.0
122.885117 76.0
123.010918 116.0
123.041412 3208.0
123.088615 1020.0
123.163284 44.0
123.198631 160.0
123.242821 120.0
123.382065 160.0
123.4086 40.0
123.477051 164.0
123.623177 144.0
123.682228 172.0
123.747757 236.0
123.813568 40.0
123.829079 116.0
123.88224 148.0
124.0019 152.0
124.041389 196.0
124.075394 164.0
124.098274 3352.0
124.197021 136.0
124.265793 188.0
124.445587 180.0
124.554413 192.0
124.763306 160.0
124.825569 148.0
125.025787 72.0
125.056763 176.0
125.104607 1772.0
125.266266 92.0
125.33979 44.0
125.408882 200.0
125.426712 144.0
125.5382 144.0
125.832748 124.0
125.995789 112.0
126.062828 116.0
126.080452 176.0
126.107803 160.0
126.152237 60.0
126.217072 200.0
126.481079 324.0
127.030106 40.0
127.080902 144.0
127.121208 1024.0
127.28373 140.0
127.30291 104.0
127.415131 140.0
127.449959 220.0
127.637314 184.0
127.814247 196.0
127.872757 128.0
128.090012 348.0
128.122711 72.0
128.21962 140.0
128.623367 192.0
128.73851 52.0
128.824356 208.0
128.93959 144.0
129.099335 404.0
129.127258 164.0
129.199646 164.0
129.444092 168.0
129.963211 88.0
130.031281 96.0
130.063065 204.0
130.131165 144.0
130.49472 116.0
130.699432 124.0
130.829163 172.0
130.884537 216.0
130.938477 168.0
130.979477 148.0
131.047028 792.0
131.070602 168.0
131.141251 68.0
131.419495 116.0
131.517624 144.0
131.586105 140.0
131.654617 176.0
131.675171 160.0
131.967682 172.0
132.054459 552.0
132.079605 476.0
132.175842 52.0
132.221619 140.0
132.354385 192.0
132.386459 236.0
132.519318 80.0
133.062057 1008.0
133.14328 176.0
133.161652 188.0
133.269638 136.0
133.545502 100.0
133.575409 52.0
133.692764 112.0
134.0345 276.0
134.072769 348.0
134.094833 6272.0
134.167282 116.0
134.280273 48.0
134.310257 128.0
134.34024 52.0
134.554886 56.0
134.603363 68.0
134.644943 184.0
134.714233 164.0
134.781235 192.0
134.85289 84.0
135.01973 152.0
135.043198 424.0
135.078934 1580.0
135.097168 832.0
135.32019 128.0
135.61673 184.0
135.953033 144.0
136.022659 112.0
136.055161 156.0
136.088211 336.0
136.161987 104.0
136.233994 96.0
136.452469 136.0
136.498703 180.0
136.699036 96.0
136.778168 228.0
136.827057 196.0
136.848007 72.0
136.92952 144.0
136.948151 128.0
136.987747 76.0
137.058578 4264.0
137.106598 3084.0
137.139221 72.0
137.155533 192.0
137.178848 48.0
137.20192 80.0
137.279114 48.0
137.304764 48.0
137.43541 196.0
137.664169 232.0
137.74826 52.0
138.061005 588.0
138.091492 556.0
138.113815 3208.0
138.176086 60.0
138.267349 104.0
138.321198 168.0
138.401581 60.0
138.576477 136.0
138.679581 84.0
138.700684 112.0
138.730789 76.0
138.754608 232.0
138.896454 156.0
139.085861 372.0
139.122543 2140.0
139.26149 40.0
139.327271 156.0
139.381317 120.0
139.472977 116.0
139.512939 116.0
139.611694 48.0
139.646973 64.0
139.696381 160.0
139.870514 188.0
139.912888 212.0
140.09375 640.0
140.122192 448.0
140.37709 168.0
140.716888 136.0
140.820786 188.0
140.960175 124.0
141.099991 1864.0
141.142197 132.0
141.194229 180.0
141.232071 152.0
141.277023 168.0
141.336166 128.0
141.407166 120.0
141.523178 84.0
141.629745 192.0
141.648697 152.0
141.665283 160.0
141.729248 104.0
141.859604 40.0
141.876205 152.0
142.11058 320.0
142.203568 144.0
142.60498 136.0
142.750015 180.0
142.769028 76.0
143.075989 156.0
143.115799 980.0
143.17363 36.0
143.256989 148.0
143.309219 244.0
143.612183 116.0
143.631271 44.0
143.869904 108.0
143.991684 148.0
144.053802 128.0
144.0755 188.0
144.125473 228.0
144.321487 144.0
144.673203 176.0
144.891144 336.0
144.967819 60.0
145.063553 248.0
145.085266 364.0
145.325119 160.0
145.473923 192.0
145.778976 216.0
146.066132 288.0
146.095139 328.0
146.211868 156.0
146.5466 168.0
146.864838 72.0
147.018478 164.0
147.041489 1456.0
147.165543 140.0
147.335571 44.0
147.589371 88.0
147.717545 152.0
147.867569 136.0
148.051147 832.0
148.073486 188.0
148.108368 804.0
148.15332 100.0
148.184814 100.0
148.36174 108.0
148.395676 200.0
148.630966 64.0
148.78389 64.0
148.92717 160.0
149.057327 2536.0
149.077667 272.0
149.110474 208.0
149.228516 72.0
149.493668 72.0
149.562622 120.0
149.580719 172.0
149.80777 188.0
149.888168 168.0
149.968597 120.0
149.985657 148.0
150.002167 52.0
150.034409 200.0
150.071014 156.0
150.088058 208.0
150.185608 56.0
150.246597 236.0
150.695847 204.0
150.737381 188.0
150.759384 160.0
151.036896 652.0
151.076706 1036.0
151.611069 192.0
151.956818 176.0
152.041763 208.0
152.078308 144.0
152.099167 40.0
152.236664 152.0
152.256317 200.0
152.912766 160.0
153.080185 192.0
153.098373 192.0
153.15654 64.0
153.227982 228.0
153.77298 148.0
153.827286 172.0
153.97049 80.0
154.034714 80.0
154.103897 180.0
154.353546 196.0
154.400543 56.0
154.474747 188.0
154.553925 236.0
154.677673 140.0
154.842651 204.0
154.937698 72.0
155.012039 104.0
155.042496 232.0
155.073639 220.0
155.117142 30316.0
155.172333 144.0
155.192993 164.0
155.21283 76.0
155.284744 60.0
155.304596 68.0
155.374054 56.0
155.401352 40.0
155.513031 48.0
155.545609 68.0
155.575348 184.0
155.701721 68.0
155.724258 56.0
155.774246 148.0
155.835556 64.0
155.8638 84.0
155.888046 88.0
155.935272 80.0
155.992447 136.0
156.027252 140.0
156.081955 68.0
156.120819 3632.0
156.246124 84.0
156.330719 68.0
156.532364 88.0
156.554779 44.0
156.599609 120.0
156.783173 268.0
156.886185 168.0
156.963486 108.0
157.060745 52.0
157.090683 244.0
157.132034 864.0
157.231247 84.0
157.274002 112.0
157.297028 128.0
157.320282 56.0
157.345245 120.0
157.386841 140.0
157.452621 224.0
157.565033 44.0
157.615005 44.0
157.902512 216.0
157.922516 168.0
158.042603 116.0
158.062622 68.0
158.098557 392.0
158.137695 160.0
158.545959 204.0
158.596085 44.0
158.64621 156.0
158.668777 112.0
158.794159 200.0
158.84433 184.0
158.902039 168.0
159.06015 152.0
159.100311 164.0
159.243454 48.0
159.376602 112.0
159.411774 116.0
159.562592 84.0
159.634628 180.0
159.716003 176.0
159.773865 88.0
160.073959 340.0
160.106003 152.0
160.108978 320.0
160.506836 92.0
160.562317 156.0
160.802002 132.0
160.872681 96.0
161.059006 3740.0
161.15303 72.0
161.211151 156.0
161.25412 64.0
161.27182 52.0
161.312256 132.0
161.486282 224.0
161.734711 100.0
161.858765 64.0
162.023407 172.0
162.06131 988.0
162.089401 392.0
162.117157 176.0
162.137436 132.0
162.446793 40.0
162.883423 192.0
162.934265 184.0
162.969803 152.0
163.07341 3308.0
163.122238 224.0
163.198578 32.0
163.638763 156.0
163.867996 56.0
163.89093 112.0
164.046402 104.0
164.076309 824.0
164.377975 156.0
164.829971 140.0
164.975662 108.0
165.04982 312.0
165.092484 140.0
165.096085 340.0
165.168869 168.0
165.228867 108.0
165.267242 120.0
165.482117 72.0
165.753769 152.0
165.815277 100.0
166.102859 132.0
166.22049 168.0
166.28978 264.0
166.631332 96.0
166.901215 56.0
167.067093 272.0
167.176468 56.0
167.222794 120.0
167.271713 128.0
167.439072 204.0
167.508621 44.0
167.766327 216.0
167.789536 152.0
167.910736 68.0
168.074921 304.0
168.501892 128.0
168.8069 64.0
169.233871 112.0
170.068726 160.0
170.211456 48.0
170.614197 148.0
171.108521 160.0
171.28302 52.0
171.49147 136.0
171.514938 56.0
172.109787 164.0
172.222076 152.0
172.376221 64.0
172.705658 160.0
172.723969 92.0
173.082535 180.0
173.104706 368.0
173.349731 116.0
173.412628 68.0
173.871628 124.0
174.106888 92.0
174.128922 156.0
174.223495 132.0
174.280426 156.0
174.310196 164.0
174.399567 184.0
174.615738 92.0
175.099365 248.0
175.202194 188.0
175.526398 180.0
175.639801 40.0
175.70575 104.0
175.877289 180.0
176.077957 120.0
176.11554 188.0
176.444122 256.0
176.877304 132.0
177.0672 176.0
177.098923 144.0
177.138657 152.0
177.525635 156.0
177.557465 100.0
177.751129 128.0
177.796249 156.0
178.082993 152.0
178.106903 128.0
178.207855 128.0
178.362 52.0
178.391251 152.0
178.598663 152.0
178.710403 52.0
178.899368 124.0
178.933517 76.0
179.00322 88.0
179.069733 8060.0
179.102615 160.0
179.203857 160.0
179.242966 68.0
179.277191 76.0
179.314926 132.0
179.599075 84.0
179.770981 88.0
179.915115 72.0
180.019257 108.0
180.074295 864.0
180.274429 148.0
180.350555 120.0
180.61261 124.0
180.874847 92.0
180.95517 192.0
181.075043 304.0
181.105133 280.0
181.196228 132.0
181.284653 72.0
181.306091 224.0
181.35701 112.0
181.415985 84.0
181.735153 112.0
181.861298 132.0
182.084152 100.0
182.4039 120.0
182.740082 176.0
183.04425 52.0
183.106186 184.0
183.548172 116.0
183.880005 72.0
183.947479 164.0
184.09671 164.0
184.128403 116.0
185.121048 104.0
185.475876 160.0
185.554504 168.0
186.018433 136.0
186.089935 1272.0
186.119064 236.0
186.16777 68.0
187.037827 140.0
187.091019 292.0
187.120987 188.0
187.915375 92.0
188.035446 160.0
188.105225 720.0
188.384964 44.0
188.477859 32.0
188.527054 204.0
188.803177 100.0
189.035721 200.0
189.10347 196.0
189.139725 228.0
189.282104 188.0
189.430008 180.0
189.813721 204.0
190.085297 168.0
190.129211 240.0
190.18959 188.0
190.909454 200.0
191.116547 1732.0
191.931122 116.0
192.116348 180.0
192.253891 216.0
192.317368 180.0
192.593491 60.0
192.688919 204.0
192.742676 168.0
192.77861 92.0
192.94722 180.0
193.088257 116.0
193.121445 76.0
193.364929 192.0
193.414749 132.0
193.835739 228.0
193.932739 128.0
194.0159 172.0
194.043625 196.0
194.114288 200.0
194.176743 208.0
194.332092 180.0
194.531921 116.0
195.529816 80.0
195.941956 92.0
195.967041 88.0
196.234619 148.0
196.432632 52.0
196.85968 132.0
196.912735 64.0
197.762741 164.0
197.863525 224.0
198.07637 56.0
198.109985 220.0
198.224854 84.0
198.423874 40.0
198.449112 176.0
198.530426 148.0
198.940094 128.0
199.02153 104.0
199.125427 92.0
199.786026 104.0
200.085129 188.0
200.182907 164.0
200.399811 140.0
200.608368 128.0
200.650665 136.0
200.943985 76.0
201.136688 156.0
201.4776 128.0
202.076996 188.0
202.102463 208.0
202.716965 164.0
202.78273 156.0
202.875687 156.0
203.062851 144.0
203.085541 188.0
203.116943 784.0
203.440247 164.0
203.58223 148.0
203.761185 216.0
203.852112 80.0
204.053925 148.0
204.121964 352.0
204.153458 184.0
204.501953 164.0
204.956238 128.0
205.090179 192.0
205.132446 1632.0
205.789139 52.0
206.129791 392.0
206.898499 144.0
207.104675 136.0
207.123444 124.0
207.672226 176.0
207.766891 128.0
208.093155 136.0
208.122803 128.0
208.168747 124.0
208.246292 136.0
209.379517 80.0
209.803101 192.0
210.17807 172.0
210.816269 92.0
210.914536 148.0
210.966568 216.0
211.038849 156.0
211.167816 212.0
211.307846 252.0
211.432281 164.0
211.771027 60.0
212.284027 128.0
213.088089 176.0
213.157822 192.0
213.271179 96.0
213.398529 144.0
213.617218 68.0
214.015961 84.0
214.152832 180.0
214.409225 116.0
214.450043 140.0
214.712448 272.0
215.304916 220.0
215.912827 76.0
216.120529 148.0
216.15564 116.0
216.506943 188.0
216.603607 136.0
216.758896 56.0
217.066696 164.0
217.087219 148.0
217.130936 716.0
217.163483 160.0
217.222137 176.0
217.515594 148.0
217.741699 228.0
217.976715 120.0
218.053131 136.0
218.123138 168.0
218.232452 68.0
218.353027 144.0
218.385376 96.0
218.800323 188.0
219.038864 104.0
219.144241 332.0
219.209747 148.0
219.389557 116.0
219.678558 48.0
219.873322 144.0
220.266022 100.0
220.88385 204.0
221.280426 120.0
221.315964 72.0
221.384064 216.0
221.899673 176.0
222.112091 316.0
222.766281 124.0
222.908905 88.0
222.974289 192.0
223.105087 64.0
223.292419 168.0
223.68222 156.0
223.762604 140.0
224.126862 2556.0
224.22731 152.0
224.409164 148.0
224.447922 112.0
224.710403 92.0
224.799927 64.0
225.083527 100.0
225.130112 820.0
225.513733 236.0
226.027695 212.0
226.312515 124.0
226.336472 56.0
226.582077 88.0
226.956741 188.0
227.40976 128.0
228.007462 148.0
228.046524 104.0
228.329163 92.0
228.431427 48.0
228.581863 48.0
228.819656 128.0
229.128281 436.0
229.301651 224.0
229.44635 72.0
229.533783 152.0
229.557907 120.0
229.585052 188.0
229.73587 84.0
230.02861 184.0
230.126923 148.0
230.158432 124.0
230.336624 160.0
230.406113 136.0
230.516571 100.0
230.923035 156.0
231.071259 36.0
231.13707 364.0
231.307327 52.0
231.501099 192.0
231.610138 64.0
231.664673 168.0
231.819199 156.0
231.98288 112.0
232.140015 184.0
232.195129 124.0
232.292206 188.0
232.349838 164.0
232.389282 136.0
232.680664 252.0
233.138916 144.0
233.164993 152.0
233.753647 56.0
233.939316 212.0
234.140289 132.0
234.346344 256.0
234.374863 136.0
234.44191 112.0
234.853516 144.0
234.999954 192.0
235.146439 152.0
235.277695 112.0
236.029343 208.0
236.124344 856.0
236.433167 208.0
236.705627 128.0
236.800568 188.0
236.990509 68.0
237.129959 480.0
237.223434 72.0
237.61293 148.0
238.085663 100.0
238.144165 216.0
238.795639 92.0
239.36499 148.0
239.451218 156.0
239.485107 132.0
239.559036 96.0
239.694611 136.0
240.073792 128.0
240.132385 148.0
240.337601 348.0
240.539703 128.0
240.914551 136.0
241.11113 160.0
241.290421 120.0
241.553299 92.0
241.624451 40.0
241.875122 176.0
242.451233 160.0
243.074585 188.0
243.155823 180.0
243.248398 184.0
243.350845 76.0
243.711151 108.0
243.804382 140.0
244.12384 212.0
244.151733 160.0
244.587311 184.0
244.90892 80.0
244.980576 172.0
245.074051 120.0
245.114548 192.0
245.149078 2148.0
245.184158 108.0
245.385742 192.0
245.41246 168.0
245.519821 96.0
245.566605 160.0
245.722595 44.0
245.894226 156.0
246.152191 808.0
246.390732 72.0
246.565735 60.0
246.722031 148.0
246.903397 164.0
247.13176 152.0
247.160461 144.0
247.432236 180.0
247.798676 144.0
247.861343 128.0
247.974167 72.0
248.149033 1748.0
248.23941 60.0
248.435135 84.0
248.560638 52.0
248.827438 88.0
248.869232 180.0
248.940491 116.0
248.962463 96.0
249.156891 388.0
249.86055 188.0
249.927551 92.0
250.124817 152.0
250.14772 340.0
250.191589 104.0
250.223434 72.0
250.598236 148.0
251.134369 152.0
251.380264 116.0
251.718048 56.0
251.768585 96.0
252.454376 96.0
252.726425 220.0
252.75174 116.0
252.868835 176.0
252.904373 108.0
253.163284 116.0
253.47374 180.0
253.603683 108.0
253.72731 172.0
254.028595 124.0
254.225327 148.0
254.501495 88.0
255.039566 188.0
255.133774 124.0
255.884628 184.0
256.037476 108.0
256.075714 176.0
256.148956 92.0
256.263672 88.0
256.748199 164.0
257.59726 272.0
257.696289 144.0
257.782593 88.0
258.160248 528.0
258.521332 144.0
259.075256 180.0
259.2547 116.0
259.517578 172.0
259.7164 136.0
259.889648 168.0
259.924957 164.0
260.043701 104.0
260.173981 5696.0
260.287689 28.0
260.31015 48.0
260.364746 72.0
260.441833 68.0
260.62085 140.0
261.017151 68.0
261.049286 148.0
261.109955 112.0
261.160583 1920.0
261.667114 228.0
261.689667 88.0
261.812012 64.0
261.87323 132.0
262.011749 156.0
262.160004 408.0
262.285675 160.0
262.340454 56.0
262.724243 56.0
262.927521 124.0
262.998535 112.0
263.06311 200.0
263.098633 136.0
263.134155 452.0
263.169647 88.0
263.211639 36.0
263.27298 36.0
263.75119 156.0
263.993683 120.0
264.145874 5596.0
264.197815 136.0
264.223328 48.0
264.258911 76.0
264.294525 60.0
264.368958 40.0
264.394836 60.0
264.521088 96.0
264.550201 176.0
264.715332 96.0
265.019836 136.0
265.061951 176.0
265.149353 1760.0
265.19809 88.0
265.447723 48.0
265.532043 172.0
265.817535 48.0
265.990204 60.0
266.031769 192.0
266.057739 56.0
266.156342 156.0
266.255829 36.0
266.554688 104.0
266.720459 84.0
266.828094 188.0
266.914062 148.0
267.004578 116.0
267.100922 88.0
267.162292 140.0
267.618378 108.0
268.161377 196.0
269.190125 80.0
269.444916 76.0
269.591949 184.0
270.439056 124.0
271.166199 292.0
271.904175 88.0
271.979675 152.0
272.18045 212.0
272.715454 96.0
273.100159 176.0
273.192261 204.0
273.893463 152.0
273.939575 96.0
274.19278 76.0
274.368011 128.0
274.671417 76.0
275.037689 116.0
275.612366 88.0
276.584717 92.0
276.631042 72.0
277.151215 604.0
277.260406 64.0
277.505585 120.0
277.691406 92.0
277.847321 72.0
277.880524 112.0
277.953522 88.0
278.051819 160.0
278.114777 128.0
278.159698 132.0
278.278809 132.0
278.398346 72.0
278.42807 144.0
278.492889 52.0
278.630859 184.0
278.696747 136.0
278.749908 180.0
278.772736 116.0
278.906708 180.0
278.93811 80.0
278.979828 180.0
279.048737 336.0
279.1698 67020.0
279.236725 112.0
279.27066 140.0
279.314636 124.0
279.365448 76.0
279.426331 104.0
279.464691 128.0
279.495361 52.0
279.532715 76.0
279.566803 256.0
279.618774 48.0
279.659943 124.0
279.674103 68.0
279.683655 68.0
279.719147 60.0
279.764984 84.0
279.795227 136.0
279.823242 52.0
279.852966 48.0
279.874847 80.0
279.918121 52.0
280.068024 104.0
280.123322 88.0
280.172394 9268.0
280.249878 96.0
280.317902 44.0
280.360107 84.0
280.467865 76.0
280.517883 176.0
280.549042 148.0
280.634552 112.0
280.754333 140.0
280.874695 100.0
280.951416 92.0
281.005463 40.0
281.048187 208.0
281.098236 108.0
281.173798 848.0
281.327301 64.0
281.348907 116.0
281.415344 76.0
281.485474 92.0
281.565613 52.0
281.615479 56.0
281.747833 124.0
281.781799 84.0
281.823334 84.0
281.89447 84.0
281.900635 116.0
281.993286 72.0
282.019897 108.0
282.083527 92.0
282.112335 124.0
282.154907 140.0
282.181488 252.0
282.206177 124.0
282.36441 164.0
282.595245 76.0
282.712036 120.0
282.762573 112.0
282.873016 40.0
282.976807 64.0
283.000244 148.0
283.094025 120.0
283.328491 40.0
283.429016 96.0
283.522827 96.0
284.096222 40.0
284.166687 68.0
284.190186 88.0
284.67337 68.0
285.190979 68.0
285.251465 88.0
285.308624 176.0
285.466675 148.0
285.695374 128.0
285.850159 52.0
285.907379 68.0
286.028564 164.0
286.189301 1944.0
286.415802 36.0
286.54718 108.0
286.695465 40.0
286.841888 60.0
286.924683 44.0
287.194763 552.0
287.285522 76.0
287.413757 56.0
287.53186 172.0
287.66687 32.0
287.731018 56.0
287.893127 68.0
288.206512 660.0
288.342468 56.0
288.930847 68.0
289.140656 192.0
289.201538 156.0
289.209839 172.0
289.255737 76.0
289.516449 44.0
289.804382 56.0
289.973846 96.0
290.160278 116.0
290.199341 116.0
290.214264 144.0
290.624969 84.0
290.896484 168.0
291.008514 120.0
292.266174 44.0
292.415924 136.0
292.923279 164.0
293.073181 80.0
293.345856 52.0
294.458252 152.0
295.16568 92.0
296.031464 68.0
296.223267 88.0
296.617371 64.0
296.74765 68.0
297.317078 164.0
297.591705 160.0
297.8974 44.0
297.990143 92.0
298.251343 140.0
298.436981 212.0
298.591736 172.0
298.877258 200.0
299.304108 176.0
299.386749 144.0
300.596802 184.0
301.366852 84.0
301.404877 168.0
301.643341 36.0
302.182861 172.0
302.584351 108.0
302.688232 52.0
303.946564 180.0
304.158295 164.0
304.198639 5200.0
304.24707 208.0
304.314514 64.0
304.401306 92.0
304.877258 212.0
304.90506 72.0
305.092773 28.0
305.141449 104.0
305.199707 960.0
305.444 108.0
305.572723 68.0
305.628418 40.0
306.007812 180.0
306.213318 304.0
306.620911 76.0
307.162689 164.0
308.184326 112.0
308.750641 88.0
313.197754 168.0
313.437317 52.0
314.498901 152.0
315.201721 120.0
316.829346 164.0
317.407104 68.0
317.658905 40.0
318.042145 100.0
318.681427 136.0
318.745361 188.0
320.275238 76.0
322.269531 48.0
322.573303 104.0
323.499878 100.0
324.372253 140.0
324.877075 68.0
325.09491 136.0
325.511353 108.0
326.611145 188.0
327.096924 76.0
329.914429 60.0
329.961426 116.0
331.499817 224.0
334.328888 128.0
334.940582 200.0
335.206543 148.0
335.294006 76.0
336.391937 124.0
336.614685 196.0
339.260101 136.0
339.890961 60.0
340.030426 128.0
340.291077 152.0
341.235352 120.0
342.103607 168.0
344.356689 96.0
345.032928 136.0
346.068939 72.0
346.494873 104.0
347.607269 144.0
351.320679 156.0
352.496826 160.0
353.162323 160.0
357.902344 40.0
359.519592 164.0
360.849243 196.0
361.79892 40.0
361.901123 180.0
363.622223 172.0
365.084961 152.0
366.310577 64.0
366.908936 100.0
367.381836 220.0
369.907898 128.0
370.930725 120.0
370.96524 112.0
371.191437 228.0
375.656982 56.0
377.282867 52.0
377.8862 96.0
379.226135 192.0
380.133667 116.0
380.250122 128.0
380.778137 164.0
381.20163 140.0
381.236603 152.0
382.165985 188.0
382.621368 116.0
382.874481 172.0
383.798065 180.0
383.837067 124.0
385.82843 160.0
386.332916 180.0
387.158844 48.0
389.724396 100.0
390.557861 92.0
393.718933 84.0
394.331329 104.0
394.445953 44.0
396.650909 76.0
397.717957 128.0
398.067352 48.0
398.240906 132.0
399.207886 120.0
400.278381 88.0
405.876892 156.0
405.96109 128.0
406.691315 32.0
406.843842 132.0
407.1651 44.0
408.576019 100.0
409.203888 96.0
410.242859 1104.0
410.420776 172.0
410.453033 120.0
410.598206 124.0
410.933014 84.0
411.245819 344.0
411.28009 256.0
412.247894 424.0
413.025726 64.0
415.148071 108.0
417.08075 104.0
418.138275 176.0
418.667572 128.0
419.237915 100.0
419.445801 52.0
420.045258 132.0
420.347168 136.0
420.428802 88.0
420.477753 128.0
422.349152 92.0
422.647797 56.0
423.179932 48.0
423.482971 124.0
424.343567 100.0
424.426208 172.0
424.544495 52.0
424.786499 212.0
425.537537 160.0
426.141327 104.0
426.238007 160.0
426.305695 144.0
426.350922 96.0
426.424896 104.0
426.548187 128.0
426.644592 116.0
426.74707 76.0
426.897705 32.0
427.086884 68.0
427.131348 124.0
427.243744 120.0
427.352234 92.0
427.422516 152.0
427.481873 104.0
427.543579 140.0
427.586548 148.0
427.679413 40.0
427.786438 28.0
428.075867 152.0
428.177216 204.0
428.253998 37304.0
428.341125 132.0
428.35611 156.0
428.42453 132.0
428.429962 124.0
428.516937 108.0
428.5896 44.0
428.627808 280.0
428.700867 96.0
428.747437 68.0
428.793121 72.0
428.818665 68.0
428.869995 96.0
428.920898 144.0
428.999542 188.0
429.067383 68.0
429.155151 172.0
429.19751 84.0
429.256165 9756.0
429.346954 56.0
429.39975 92.0
429.480103 40.0
429.518951 144.0
429.574982 40.0
429.614258 52.0
429.676392 72.0
429.711121 28.0
429.744263 80.0
429.814301 84.0
429.881317 140.0
430.110626 120.0
430.258453 1872.0
430.316284 132.0
430.416962 52.0
430.521393 80.0
430.611053 92.0
430.639984 88.0
430.689545 56.0
430.730865 40.0
430.887848 64.0
430.966339 48.0
431.044861 72.0
431.098572 44.0
431.193634 40.0
431.267456 488.0
431.371857 72.0
431.404449 40.0
431.482452 120.0
431.488007 152.0
431.528473 100.0
431.637909 104.0
431.682098 132.0
431.749084 92.0
431.830994 136.0
431.902679 92.0
432.024811 112.0
432.053772 148.0
432.095123 92.0
432.128235 124.0
432.227539 148.0
432.260651 100.0
432.380646 68.0
432.612457 104.0
432.65387 120.0
432.960297 44.0
433.001709 132.0
433.283386 76.0
433.950684 36.0
434.431793 60.0
434.581146 128.0
434.971283 76.0
435.062622 52.0
435.295135 52.0
435.536011 52.0
436.392151 60.0
436.658295 68.0
436.69989 56.0
436.845459 52.0
436.882904 52.0
438.965546 64.0
439.174072 100.0
439.799957 64.0
441.458679 68.0
442.513184 64.0
442.793732 120.0
443.007385 76.0
445.192719 64.0
445.692627 92.0
445.789276 104.0
447.304504 64.0
457.859558 40.0
458.54126 72.0
459.266113 140.0
465.871429 60.0
465.901489 116.0
467.161133 76.0
469.883972 80.0
473.36795 100.0
477.743195 56.0
480.265442 108.0
486.510132 108.0
487.327057 100.0
489.16983 56.0
492.075195 108.0
493.568695 68.0
494.457916 64.0
495.223877 124.0
496.895172 40.0
501.854553 44.0
505.844269 88.0
506.914764 40.0
510.587128 72.0
513.045715 80.0
522.179382 64.0
527.514526 56.0
529.083679 44.0
532.752686 76.0
546.680054 52.0
550.759705 72.0
551.268982 96.0
553.060303 84.0
556.670471 64.0
561.041748 120.0
564.455505 84.0
575.7854 48.0
577.133057 100.0
583.423645 48.0
585.141235 48.0
587.116943 48.0
587.541443 88.0
589.511536 52.0
590.584839 48.0
611.20813 48.0
612.434021 56.0
618.111694 68.0
620.543823 88.0
637.868164 52.0
643.833984 108.0
650.36554 48.0
653.358765 36.0
669.735474 80.0
669.80249 76.0
670.559937 132.0
679.127625 44.0
692.680786 48.0
695.995483 80.0
698.023865 60.0
700.697815 56.0
732.327454 176.0
733.496765 100.0
734.947571 28.0
748.924255 48.0
758.536255 96.0
771.644775 112.0
773.177063 56.0
774.760742 68.0
785.49585 72.0
786.49469 132.0
792.52356 160.0
793.10083 88.0
793.358704 284.0
799.886597 80.0
805.085266 156.0
810.975159 148.0
813.930969 124.0
817.38147 180.0
817.677429 148.0
818.292236 184.0
830.734375 220.0
835.571838 68.0
838.370422 84.0
842.44989 76.0
850.87085 168.0
855.539429 104.0
866.361328 124.0
871.365906 184.0
873.923584 28.0
875.047852 140.0
875.990112 64.0
879.5047 136.0
883.564148 184.0
887.633911 156.0
890.215393 40.0
892.640015 212.0
900.716064 216.0
903.830994 28.0
907.92865 156.0
915.025452 128.0
916.74823 148.0
916.953125 184.0
917.206299 88.0
918.140869 160.0
920.802551 152.0
927.573547 136.0
929.356628 140.0
930.151672 244.0
930.503784 68.0
932.216736 76.0
935.988403 180.0
936.780212 192.0
937.413879 128.0
938.206299 68.0
938.273315 108.0
939.975159 60.0
942.59491 204.0
944.392334 144.0
946.28949 72.0
947.085632 152.0
948.0047 172.0
948.868958 124.0
949.273682 108.0
950.316467 96.0
951.261658 140.0
951.672974 148.0
951.851074 156.0
952.139709 164.0
952.81543 220.0
955.409912 160.0
955.502197 172.0
955.869629 124.0
955.951416 28.0
958.168152 132.0
959.382263 168.0
959.702881 184.0
960.288757 144.0
960.362793 184.0
960.930359 220.0
961.522766 160.0
969.383301 100.0
970.598328 224.0
971.280579 160.0
971.398438 212.0
975.584106 96.0
975.820374 184.0
977.885742 76.0
980.171387 188.0
983.086243 116.0
983.345764 148.0
984.176086 148.0
984.731934 168.0
984.925537 48.0
987.425781 84.0
989.227905 204.0
990.261108 144.0
990.699585 124.0
990.762268 140.0
991.294861 168.0
991.357544 104.0
993.131897 88.0
993.583557 112.0
993.859619 184.0
994.129456 188.0
995.315918 200.0
995.51062 216.0
996.534546 160.0
997.156677 272.0
997.464661 188.0
997.722412 276.0
997.955078 120.0
998.263184 144.0
1000.421387 148.0
1000.956604 128.0
1001.876221 128.0
1002.317261 52.0
1006.992126 152.0
1007.162659 148.0
1011.903381 168.0
1011.975464 152.0
1015.422852 164.0
1016.558533 132.0
1016.647339 40.0
1017.237671 156.0
1017.370972 180.0
1017.688416 156.0
1018.463257 144.0
1020.274414 160.0
1020.344299 60.0
1020.388855 172.0
1020.916626 152.0
1022.768127 152.0
1024.84436 112.0
1025.774902 48.0
1027.139526 144.0
1027.235229 104.0
1028.466797 180.0
1029.213745 60.0
1029.392578 72.0
1031.852661 68.0
1032.281128 200.0
1034.751099 148.0
1034.91748 112.0
1035.320923 172.0
1037.038086 176.0
1037.102173 140.0
1037.146973 140.0
1037.326538 204.0
1037.409912 140.0
1037.929199 176.0
1038.192139 228.0
1041.285645 208.0
1042.075806 156.0
1044.538086 236.0
1045.432495 60.0
1045.651367 148.0
1048.607666 172.0
1048.788208 44.0
1048.891235 132.0
1049.761719 176.0
1050.103516 100.0
1050.871216 204.0
1051.813477 264.0
1052.969238 188.0
1053.834961 232.0
1054.933716 200.0
1055.780762 172.0
1056.304688 132.0
1056.434082 172.0
1057.048706 52.0
1057.585938 220.0
1059.522217 160.0
1061.577026 160.0
1061.752075 40.0
1062.212646 48.0
1064.094727 200.0
1064.542725 128.0
1067.473633 60.0
1067.701294 160.0
1068.612061 200.0
1068.742188 292.0
1069.054443 136.0
1070.265259 248.0
1071.985107 212.0
1072.115356 268.0
1072.493408 160.0
1073.719238 160.0
1073.980103 180.0
1074.025757 128.0
1075.063232 124.0
1075.755127 144.0
1076.068481 192.0
1076.969727 160.0
1077.779785 204.0
1078.015137 40.0
1079.669067 216.0
1080.944824 156.0
1081.389893 204.0
1081.481445 188.0
1082.32605 192.0
1082.457031 168.0
1083.302002 236.0
1083.432983 160.0
1084.160278 168.0
1086.17981 204.0
1087.380615 192.0
1087.577515 252.0
1087.938599 268.0
1088.792236 148.0
1090.237549 148.0
1090.618774 96.0
1091.789185 184.0
1091.85498 116.0
1092.23645 152.0
1092.387695 164.0
1093.506348 220.0
1093.953979 112.0
1095.039795 184.0
1097.445923 148.0
1100.170776 240.0
1100.870728 152.0
1101.339722 56.0
1103.143677 156.0
1103.626343 164.0
1105.113037 160.0
1105.743286 44.0
1106.723145 120.0
1106.908569 52.0
1107.140259 184.0
1107.444946 136.0
1109.075073 60.0
1110.440918 152.0
1111.044556 164.0
1112.996826 168.0
1113.427612 244.0
1114.271362 192.0
1114.410889 32.0
1114.596924 48.0
1114.915894 180.0
1114.989014 148.0
1115.919678 200.0
1116.085938 168.0
1117.908569 184.0
1118.094971 196.0
1120.379028 172.0
1121.851807 128.0
1122.165161 172.0
1122.558594 208.0
1122.838745 148.0
1123.592529 152.0
1123.672607 120.0
1124.540161 168.0
1125.822021 184.0
1126.182739 160.0
1127.706177 144.0
1128.334473 168.0
1130.977051 36.0
1131.159546 208.0
1133.106689 64.0
1133.6427 204.0
1134.366577 184.0
1134.842651 144.0
1135.405884 84.0
1136.143799 196.0
1136.928833 92.0
1139.248657 160.0
1139.366455 184.0
1142.80896 120.0
1143.306885 108.0
1144.054077 180.0
1144.859741 224.0
1145.299927 144.0
1145.360474 336.0
1146.795776 72.0
1147.783936 184.0
1148.043091 188.0
1148.417725 120.0
1149.189819 136.0
1149.37207 68.0
1149.588013 188.0
1150.350708 220.0
1150.884033 144.0
1151.30957 204.0
1151.694458 200.0
1151.924194 104.0
1152.593018 252.0
1154.283081 212.0
1154.9729 160.0
1155.324707 168.0
1158.465942 160.0
1158.777588 196.0
1159.672241 160.0
1159.90271 124.0
1160.214478 184.0
1160.946777 176.0
1161.19104 156.0
1161.523315 128.0
1161.848999 64.0
1162.283203 132.0
1162.432495 152.0
1165.039917 100.0
1166.489746 164.0
1167.00415 168.0
1168.745483 140.0
1168.997192 132.0
1169.078857 172.0
1169.187744 184.0
1169.664307 236.0
1169.773193 128.0
1170.623657 180.0
1170.753662 44.0
1170.882324 188.0
1173.452148 144.0
1173.970459 152.0
1176.877441 180.0
1178.084595 140.0
1178.660278 48.0
1179.924805 156.0
1180.417114 196.0
1182.05896 120.0
1182.866577 128.0
1183.770386 164.0
1186.031372 112.0
1186.401611 184.0
1187.443848 152.0
1188.074585 128.0
1188.459229 88.0
1188.623901 148.0
1189.371948 128.0
1189.804443 156.0
1189.94873 208.0
1190.539185 152.0
1190.807129 116.0
1191.404663 104.0
1191.507812 128.0
1192.64856 160.0
1194.601562 108.0
1194.835449 248.0
1195.158813 184.0
1195.351562 172.0
1196.680054 244.0
1197.671753 144.0
1198.463989 160.0
1199.973511 212.0
1201.532349 148.0
1201.80835 176.0
1201.923828 184.0
1202.167114 192.0
1202.243042 156.0
1203.968994 152.0
1204.342041 152.0
1204.949951 176.0
1205.620239 116.0
1206.034912 196.0
1206.110962 148.0
1207.410889 212.0
1207.63916 132.0
1208.510742 152.0
1209.209717 180.0
1210.082031 168.0
1210.150391 152.0
1210.781372 180.0
1212.45813 156.0
1213.158203 132.0
1213.303711 208.0
1213.449341 128.0
1214.011108 164.0
1215.391479 168.0
1215.627441 160.0
1216.127197 160.0
1216.571411 52.0
1217.653931 184.0
1218.807983 144.0
1219.085938 220.0
1219.343018 132.0
1219.63501 120.0
1220.156372 148.0
1220.239868 180.0
1220.963013 160.0
1221.248169 184.0
1221.616943 200.0
1223.001709 188.0
1224.185303 72.0
1224.519653 172.0
1224.596191 132.0
1224.808716 204.0
1225.383423 212.0
1225.508911 128.0
1226.721558 172.0
1227.286255 88.0
1228.074341 116.0
1228.290649 108.0
1230.405151 200.0
1230.482056 188.0
1230.691528 88.0
1230.893921 172.0
1232.214111 164.0
1232.794189 172.0
1235.339233 180.0
1235.52124 148.0
1236.521851 192.0
1236.808838 156.0
1237.172852 88.0
1238.006104 140.0
1238.972778 156.0
1239.245972 96.0
1240.143066 212.0
1240.311279 88.0
1240.630493 128.0
1240.837036 160.0
1241.419067 88.0
1241.699585 128.0
1242.204712 168.0
1242.380005 180.0
1243.601074 124.0
1244.433105 100.0
1244.710327 200.0
1245.848267 252.0
1246.150391 168.0
1246.572021 168.0
1247.246704 160.0
1248.90625 152.0
1249.124268 124.0
1249.526367 184.0
1249.919312 160.0
1251.024414 224.0
1251.221436 128.0
1252.327148 140.0
1254.546875 136.0
1255.188477 196.0
1256.03479 120.0
1256.521606 212.0
1256.952026 208.0
1258.300293 160.0
1258.554443 140.0
1259.331299 96.0
1259.401978 160.0
1260.129639 160.0
1260.369873 164.0
1260.546509 164.0
1261.345215 220.0
1262.384521 184.0
1262.46936 216.0
1262.907959 132.0
1263.954956 200.0
1264.238037 312.0
1264.287598 72.0
1264.407959 172.0
1264.995483 188.0
1265.63269 156.0
1266.050415 188.0
1266.574585 136.0
1266.957153 148.0
1267.424805 104.0
1267.580688 180.0
1267.715332 244.0
1267.906738 196.0
1268.261108 248.0
1268.580078 120.0
1268.764404 148.0
1269.671997 112.0
1269.828125 188.0
1269.913208 204.0
1270.764526 60.0
1271.637451 60.0
1272.886719 184.0
1273.384033 212.0
1273.460083 280.0
1273.973633 160.0
1275.083496 172.0
1275.515747 164.0
1276.575195 128.0
1276.952148 136.0
1277.023193 176.0
1277.307739 84.0
1277.862671 160.0
1278.453369 140.0
1278.588501 184.0
1279.898438 212.0
1280.254517 176.0
1280.795776 148.0
1281.387085 200.0
1281.928711 152.0
1284.317139 236.0
1284.552612 88.0
1286.008301 192.0
1286.579346 132.0
1287.857666 72.0
1288.114746 244.0
1288.700684 196.0
1288.779297 200.0
1289.365234 160.0
1289.708374 172.0
1290.566284 100.0
1291.073975 152.0
1291.467407 236.0
1293.370728 152.0
1293.642822 128.0
1293.821777 172.0
1294.194092 152.0
1295.289795 108.0
1296.199829 156.0
1296.751587 184.0
1298.214233 152.0
1299.067749 108.0
1300.409668 168.0
1301.47937 192.0
1302.219116 96.0
1302.915894 136.0
1303.612915 144.0
1303.706299 288.0
1304.324463 128.0
1304.762939 136.0
1304.87085 164.0
1305.100952 196.0
1305.266357 80.0
1305.532349 192.0
1305.999878 304.0
1306.611328 44.0
1306.740601 172.0
1307.91394 164.0
1308.590698 124.0
1308.806763 72.0
1308.878662 84.0
1308.965088 80.0
1309.130737 136.0
1309.764648 100.0
1309.980713 156.0
1310.283325 196.0
1310.866943 160.0
1311.162476 168.0
1311.234497 128.0
1311.508423 136.0
1311.876099 152.0
1312.849487 144.0
1313.332764 160.0
1313.902588 164.0
1314.580933 152.0
1314.746216 164.0
1316.11853 56.0
1316.660156 192.0
1317.144043 188.0
1317.758179 140.0
1318.170044 88.0
1319.189209 180.0
1319.239746 44.0
1319.868774 100.0
1320.165283 40.0
1320.317139 212.0
1320.910278 148.0
1321.460205 148.0
1321.887085 168.0
1322.024658 160.0
1323.273926 232.0
1324.030029 140.0
1325.087646 144.0
1325.254272 112.0
1325.301758 96.0
1325.478882 180.0
1325.870239 220.0
1326.312378 192.0
1326.41394 200.0
1326.624146 144.0
1326.900635 168.0
1327.588501 180.0
1327.864136 84.0
1328.945068 180.0
1330.05542 216.0
1331.150757 148.0
1331.783691 152.0
1332.023315 56.0
1333.658325 148.0
1333.723755 156.0
1334.23999 168.0
1334.298096 184.0
1334.596191 128.0
1335.578003 168.0
1335.650757 280.0
1336.370972 152.0
1336.531128 80.0
1337.506348 276.0
1339.530762 112.0
1339.742065 172.0
1339.99707 160.0
1341.724365 164.0
1342.621338 220.0
1342.876587 108.0
1343.102783 144.0
1344.270142 184.0
1344.992676 116.0
1345.898926 164.0
1346.285034 56.0
1346.536499 208.0
1346.870361 176.0
1347.030029 132.0
1349.003174 120.0
1349.631958 140.0
1349.814819 180.0
1353.158813 216.0
1353.224731 192.0
1353.656738 140.0
1354.608887 40.0
1354.791992 220.0
1355.297607 76.0
1355.539429 148.0
1356.213745 212.0
1356.704834 228.0
1357.445435 168.0
1357.601074 200.0
1358.971191 176.0
1359.19873 176.0
1359.418823 80.0
1359.602295 192.0
1359.859253 236.0
1360.160156 156.0
1360.226196 176.0
1360.336304 140.0
1360.798828 148.0
1361.026489 172.0
1361.489136 232.0
1363.098022 164.0
1363.171509 220.0
1363.752075 140.0
1364.332886 348.0
1364.435791 160.0
1364.634277 132.0
1364.810791 104.0
1365.296143 208.0
1365.818359 184.0
1365.943481 180.0
1366.738037 188.0
1367.039795 208.0
1367.469849 204.0
1367.687378 196.0
1367.746338 172.0
1369.042236 232.0
1369.45459 172.0
1369.579834 212.0
1370.405029 128.0
1371.392578 180.0
1372.078125 120.0
1372.17395 124.0
1373.486694 156.0
1374.172852 108.0
1374.541748 196.0
1375.095215 232.0
1375.951538 208.0
1376.018066 192.0
1376.091919 196.0
1376.64563 160.0
1377.125732 116.0
1377.295654 168.0
1377.421265 136.0
1377.642822 64.0
1377.724121 136.0
1378.093506 232.0
1378.151123 172.0
1378.270874 212.0
1378.411255 152.0
1379.64563 232.0
1379.697388 172.0
1380.155884 224.0
1380.481201 144.0
1381.095093 192.0
1382.249268 96.0
1382.478638 212.0
1382.848755 180.0
1383.60376 148.0
1383.833374 148.0
1384.611938 144.0
1384.751587 148.0
1386.248169 144.0
1386.544678 116.0
1387.537964 140.0
1388.895142 156.0
1389.466309 192.0
1389.755737 184.0
1390.074829 144.0
1391.091675 132.0
1391.522339 200.0
1392.576782 208.0
1392.866455 128.0
1393.037354 192.0
1393.171143 172.0
1393.587158 140.0
1397.223022 176.0
1397.61731 128.0
1397.825684 148.0
1397.944824 156.0
1398.2052 148.0
1398.324341 196.0
1400.848633 168.0
1401.087036 64.0
1401.273315 184.0
1402.256958 120.0
1402.465698 244.0
1403.256836 156.0
1403.606445 212.0
1403.847534 188.0
1404.203003 188.0
1405.105713 68.0
1405.426514 196.0
1405.508545 156.0
1405.84436 128.0
1406.053345 176.0
1406.351929 140.0
1406.434082 116.0
1407.088867 156.0
1408.373657 248.0
1408.387085 188.0
1408.494995 116.0
1409.451294 120.0
1409.608276 100.0
1410.064209 216.0
1410.363159 168.0
1410.482788 88.0
1410.579956 168.0
1411.798706 192.0
1412.471924 252.0
1412.518799 208.0
1412.711304 260.0
1413.032959 180.0
1413.698975 236.0
1415.413208 136.0
1416.933838 196.0
1417.41333 152.0
1417.615723 204.0
1418.050415 212.0
1419.834839 144.0
1420.089844 120.0
1420.239868 200.0
1420.990112 164.0
1421.35022 200.0
1421.470337 96.0
1421.612915 132.0
1421.980591 136.0
1422.340942 180.0
1422.896484 116.0
1425.142334 196.0
1425.540527 168.0
1425.600708 232.0
1425.705933 112.0
1425.86377 156.0
1426.810913 52.0
1426.983887 216.0
1428.367676 140.0
1428.924316 208.0
1429.910156 128.0
1430.534912 152.0
1430.789917 204.0
1431.009277 204.0
1431.355713 76.0
1431.649414 80.0
1432.176636 148.0
1432.538208 192.0
1433.397095 204.0
1434.35437 156.0
1434.836792 180.0
1435.862427 104.0
1436.46582 136.0
1437.175049 32.0
1438.027832 184.0
1438.118408 204.0
1438.384521 152.0
1438.654419 196.0
1439.454712 204.0
1440.262817 164.0
1440.549927 180.0
1440.78418 168.0
1440.889893 248.0
1441.018311 156.0
1441.751343 120.0
1442.431641 108.0
1443.278442 28.0
1443.406982 140.0
1443.618652 188.0
1444.473389 56.0
1445.245117 40.0
1445.305664 156.0
1445.358643 180.0
1446.15332 200.0
1446.289551 152.0
1447.084473 208.0
1447.357056 176.0
1447.659912 188.0
1449.182617 40.0
1449.281006 136.0
1449.652344 52.0
1450.849976 164.0
1450.925781 128.0
1451.411133 168.0
1452.76123 180.0
1452.821899 128.0
1452.890137 176.0
1453.702026 176.0
1453.998047 140.0
1454.073975 120.0
1454.3927 124.0
1454.552124 200.0
1454.63562 156.0
1454.893799 192.0
1455.075928 96.0
1455.25 144.0
1455.610107 220.0
1455.69104 140.0
1455.766968 48.0
1455.835327 164.0
1456.123901 208.0
1456.800049 168.0
1457.263428 120.0
1457.574951 172.0
1457.787842 184.0
1458.236206 176.0
1460.015259 132.0
1460.129395 112.0
1460.266357 172.0
1461.042236 132.0
1462.564209 124.0
1462.960083 92.0
1463.409302 76.0
1463.622559 232.0
1463.988037 108.0
1464.075806 184.0
1465.145874 172.0
1465.427734 168.0
1466.548096 164.0
1466.677612 156.0
1467.440063 64.0
1469.720703 152.0
1469.957275 168.0
1470.193848 148.0
1470.300659 176.0
1470.384644 216.0
1471.15564 168.0
1471.796997 176.0
1472.38501 132.0
1472.614136 60.0
1472.980835 36.0
1473.209961 228.0
1473.530884 168.0
1473.943481 100.0
1474.417236 220.0
1474.791016 184.0
1475.281006 100.0
1475.492554 168.0
1476.099243 56.0
1476.236816 152.0
1477.521973 56.0
1477.853638 204.0
1478.324951 204.0
1479.021851 104.0
1479.151978 88.0
1479.57312 224.0
1479.680298 128.0
1480.384766 144.0
1481.418823 124.0
1482.261597 192.0
1483.67334 64.0
1484.43103 44.0
1484.653442 176.0
1485.595947 148.0
1486.072632 172.0
1486.272095 152.0
1486.433228 36.0
1486.763306 172.0
1488.101318 188.0
1488.621216 180.0
1489.35083 152.0
1490.257324 80.0
1490.749146 156.0
1491.340942 340.0
1491.463989 136.0
1492.278931 184.0
1493.070923 164.0
1493.178589 152.0
1493.355469 148.0
1493.540161 168.0
1493.703735 136.0
1494.671143 172.0
1495.017456 168.0
1495.456055 208.0
1496.233643 200.0
1496.372192 52.0
1496.980591 196.0
1498.028076 152.0
1498.31311 184.0
1498.636719 232.0
1498.947388 164.0
1499.207031 184.0
1499.415039 184.0
1499.84668 216.0
1500.270752 144.0
1500.486572 160.0
1500.980103 212.0
1501.09375 200.0
1501.25769 180.0
1501.463989 172.0
1501.666504 52.0
1502.106201 176.0
1502.522705 224.0
1502.893066 68.0
1503.147705 184.0
1503.834595 128.0
1504.112549 180.0
