>compound Glimepiride
>formula C24H34N4O5S
>ionization [M+Na]+
>parentmass 513.214172
#inchi InChI=1S/C24H34N4O5S/c1-4-21-17(3)15-28(22(21)29)24(31)25-14-13-18-7-11-20(12-8-18)34(32,33)27-23(30)26-19-9-5-16(2)6-10-19/h7-8,11-12,16,19H,4-6,9-10,13-15H2,1-3H3,(H,25,31)(H2,26,27,30)/t16-,19-
#inchikey WIGIZIANZCJQQY
#Ion_Source LC-ESI
#Instrument qTof
#Compound_Source Commercial
#PI Dorrestein
#Data_Collector Garg_Neha
#Scan -1
#Precursor_MZ 513.214
#ExactMass 490.225
#Charge 1
#CAS_Number 93479-97-1
#Pubmed_ID N/A
#Smiles C1=C(C=CC(=C1)S(NC(N[C@@H]2CC[C@H](CC2)C)=O)(=O)=O)CCNC(N3CC(=C(C3=O)CC)C)=O
#INCHI_AUX N/A
#Library_Class 1
#SpectrumID CCMSLIB00000078107
#IonMode Positive
#UpdateWorkflowName UPDATE-SINGLE-ANNOTATED-GOLD
#LibraryQualityString Gold
#TaskID 77f51c88eb8b467eb4a01dd2d0cb90d2
##Scan# 1960
#SpectrumFile Plate2_21_40_GG6_01_16494.mzXML
#LibraryName FDALibrary_2_04302014.mgf
#MQScore -1
#Organism FDALibrary_2_04302014
#TIC_Query 0
#RT_Query -1
#MZErrorPPM -1
#SharedPeaks 0
#MassDiff 0
#LibMZ -1
#SpecMZ 513.214
#SpecCharge 0
#internalFilename spec-00000.mgf

>collision 10
66.72464 196.0
80.486275 148.0
91.094254 140.0
103.000038 172.0
109.061752 140.0
111.412659 140.0
126.090469 188.0
135.391129 152.0
136.035721 144.0
146.834518 216.0
148.072083 504.0
149.076324 188.0
153.675034 188.0
158.960037 144.0
162.812714 176.0
165.00412 172.0
169.014008 180.0
173.57515 224.0
184.844345 164.0
186.795074 152.0
197.098938 140.0
199.335068 256.0
204.482193 148.0
204.550507 236.0
205.879166 156.0
206.319199 144.0
214.017166 188.0
227.041458 168.0
230.080551 160.0
231.150528 180.0
240.336243 204.0
243.288895 236.0
243.575974 188.0
247.044144 144.0
249.03157 1496.0
250.031616 380.0
251.040543 200.0
252.100113 208.0
254.044189 212.0
254.415482 160.0
259.43692 172.0
261.476624 152.0
265.00296 192.0
267.83255 236.0
268.171387 156.0
269.427734 196.0
274.792389 176.0
275.012512 172.0
276.014526 152.0
277.11673 172.0
283.76947 216.0
289.74173 160.0
293.11908 160.0
293.340637 160.0
294.500793 180.0
300.197998 176.0
301.015839 172.0
303.926971 144.0
307.158997 172.0
309.143524 176.0
335.108276 156.0
336.914215 140.0
338.380798 220.0
338.700653 184.0
338.911865 140.0
342.048248 168.0
345.857605 184.0
350.324799 160.0
357.141418 160.0
360.436401 164.0
360.561096 204.0
368.847107 164.0
374.112457 5104.0
375.119751 1364.0
375.205872 100.0
376.112885 468.0
378.113007 172.0
384.100616 196.0
384.57962 232.0
385.089569 144.0
385.592072 160.0
386.096405 204.0
388.134521 328.0
390.127228 116.0
392.079559 144.0
397.084808 140.0
397.273529 100.0
397.596588 176.0
398.092834 236.0
400.093994 2792.0
401.094452 880.0
402.088409 192.0
403.092255 180.0
408.094543 116.0
412.052612 172.0
414.261505 164.0
415.278931 144.0
416.122986 208.0
430.140869 164.0
431.826691 160.0
433.665039 160.0
438.578003 176.0
438.940704 164.0
439.099182 152.0
450.191467 180.0
453.648682 212.0
454.158356 168.0
454.642242 140.0
455.28186 168.0
455.311584 144.0
455.638641 160.0
456.82901 196.0
459.073639 172.0
461.883942 148.0
463.677979 196.0
465.277954 168.0
474.155304 164.0
481.206696 176.0
484.565674 184.0
486.499756 152.0
495.509888 160.0
497.328064 152.0
498.282806 172.0
501.353119 188.0
502.516937 192.0
503.204285 164.0
510.800476 172.0
510.984924 176.0
511.245911 152.0
512.114807 156.0
512.560852 180.0
512.610413 172.0
512.763611 156.0
513.04187 164.0
513.123596 188.0
513.214172 24148.0
513.782715 148.0
514.21698 6252.0
514.339661 152.0
514.373901 188.0
515.217224 1844.0
515.34314 96.0
515.945984 176.0
516.11322 156.0
516.217407 432.0
516.291016 180.0
517.192871 140.0
517.227722 200.0
517.451233 268.0
530.181152 164.0
547.162598 184.0
548.096313 148.0
1254.880371 192.0
1861.274414 260.0
