>compound 5,6-dihydro-5-hydroxy-1-[(2E)-1-oxo-3-(3,4,5-trimethoxyphenyl)-2-propen-1-yl]-2(1H)-Pyridinone
>formula C17H19NO6
>ionization [M+Na]+
>parentmass 356.11045802809053
#inchi InChI=1S/C17H19NO6/c1-22-13-8-11(9-14(23-2)17(13)24-3)4-6-15(20)18-10-12(19)5-7-16(18)21/h4-9,12,19H,10H2,1-3H3/b6-4+
#inchikey OJRCBJBIGZHIRA
#Ion_Source DI-ESI
#Instrument qTof
#Compound_Source Isolated
#PI Norberto Lopes
#Data_Collector Monica Pupo
#Scan -1
#Precursor_MZ 356.09
#ExactMass 333.121
#Charge 1
#CAS_Number 1603829-47-5
#Pubmed_ID N/A
#Smiles O=C(N1CC(O)C=CC1=O)/C=C/C2=CC(OC)=C(OC)C(OC)=C2
#INCHI_AUX N/A
#Library_Class 3
#SpectrumID CCMSLIB00000081551
#IonMode Positive
#UpdateWorkflowName UPDATE-SINGLE-ANNOTATED-BRONZE
#LibraryQualityString Bronze
#TaskID 4a07f16a650f4095b43fe6b0b09ff8bb
##Scan# 1
#SpectrumFile gnps_5_6_dihydro_5_pos_MplusH.mgf
#LibraryName gnps_library.mgf
#MQScore -1
#Organism batch_27_05
#TIC_Query 0
#RT_Query -1
#MZErrorPPM -1
#SharedPeaks 0
#MassDiff 0
#LibMZ -1
#SpecMZ 356.09
#SpecCharge 0
#internalFilename spec-00000.mgf

>collision 10
123.108887 114.0
135.034164 128.0
147.031906 449.0
148.0401 123.0
153.02652 200.0
160.042007 137.0
161.049316 152.0
162.056366 554.0
163.026855 510.0
170.000961 237.0
175.027557 357.0
176.036179 286.0
177.044724 152.0
178.051071 617.0
188.050156 242.0
189.042664 210.0
190.050858 2223.0
191.034363 509.0
193.075745 1457.0
202.095779 457.0
206.046143 797.0
207.047806 123.0
217.086166 571.0
218.091843 313.0
221.068573 5600.0
222.072601 773.0
226.089127 429.0
245.077026 183.0
246.082382 129.0
276.986206 184.0
294.995636 239.0
310.016541 120.0
318.007172 174.0
349.156006 180.0
