>compound Irinotecan
>formula C33H38N4O6 
>ionization [M+H]+
>parentmass 587.2864113880905
#inchi InChI=1S/C33H38N4O6/c1-3-22-23-16-21(43-32(40)36-14-10-20(11-15-36)35-12-6-5-7-13-35)8-9-27(23)34-29-24(22)18-37-28(29)17-26-25(30(37)38)19-42-31(39)33(26,41)4-2/h8-9,16-17,20,41H,3-7,10-15,18-19H2,1-2H3/t33-/m0/s1
#inchikey UWKQSNNFCGGAFS
#Ion_Source LC-ESI
#Instrument qTof
#Compound_Source Isolated
#PI Sirenas
#Data_Collector Ed Esquenazi 
#Scan -1
#Precursor_MZ 587.288
#ExactMass 0.0
#Charge 1
#CAS_Number N/A
#Pubmed_ID N/A
#Smiles N/A
#INCHI_AUX N/A
#Library_Class 3
#SpectrumID CCMSLIB00000005259
#IonMode Positive
#UpdateWorkflowName UPDATE-SINGLE-ANNOTATED-BRONZE
#LibraryQualityString Bronze
#TaskID d19310cd93df49b68e9fcbec27720eb5
##Scan# 3
#SpectrumFile Irinotecan.mgf
#LibraryName fda_library.mgf
#MQScore -1
#Organism fda_library
#TIC_Query 0
#RT_Query -1
#MZErrorPPM -1
#SharedPeaks 0
#MassDiff 0
#LibMZ -1
#SpecMZ 587.288
#SpecCharge 0
#internalFilename spec-00000.mgf

>collision 10
110.059494 195.768494
110.079231 5.964285
110.326942 3.185606
110.374023 12.76552
123.494461 4.746795
124.111832 551.637512
124.322914 6.403736
151.036819 2.722222
166.103027 10.5641
167.11824 579.860779
167.175735 3.345238
167.283707 11.46136
167.298462 8.680555
167.34671 8.039474
167.783691 8.698232
167.809204 20.375
167.824249 5.028846
194.306717 14.33991
194.33168 8.410256
195.110031 35.526669
195.152649 136.723206
195.399353 2.041667
303.143158 42.061279
316.121429 70.861
316.22406 3.4
329.128754 11.42857
329.538879 11.36687
331.141968 271.081085
331.404846 35.976341
346.098297 21.00441
349.14325 23.64739
372.753174 39.05294
375.135101 41.522301
375.572113 10.0
388.191101 34.171299
393.146088 70.677307
405.136078 69.444397
414.222687 35.008659
414.683075 2.625
455.578278 18.299379
458.191193 67.616127
458.211548 52.494221
458.43222 14.00082
458.833984 7.714285
460.145935 4.673077
502.189819 254.446304
502.926636 7.280303
540.01001 8.765873
543.29834 13.13889
543.621582 6.401515
583.824951 5.633333
587.289856 283.207001
587.621338 10.51087
587.671021 8.714286
587.739441 14.04025
587.992493 6.449713
588.03186 7.573412
588.173096 13.89302
588.355286 15.33452
588.431213 3.703704
977.571838 3.020833
