>compound MLS000574930-01!
>formula C19H22O7
>ionization [M+H]+
>parentmass 363.144
#inchi InChI=1S/C19H22O7/c1-8-4-12(21)26-17(8)18(3)6-11-19(7-20)10(5-13(22)25-11)9(2)14(23)15(24)16(18)19/h4,9-11,17,20,24H,5-7H2,1-3H3/t9-,10+,11-,17+,18+,19-/m1/s1
#inchikey SRNFRTSVHROPLE
#Ion_Source LC-ESI
#Instrument qTof
#Compound_Source NIH Natural Product Library
#PI Dorrestein
#Data_Collector VVP/LMS
#Scan -1
#Precursor_MZ 363.144
#ExactMass 362.137
#Charge 1
#CAS_Number N/A
#Pubmed_ID N/A
#Smiles C[C@@H]1[C@@H]2CC(=O)O[C@@H]3C[C@](C)([C@H]4OC(=O)C=C4C)C(=C(O)C1=O)[C@@]32CO
#INCHI_AUX N/A
#Library_Class 3
#SpectrumID CCMSLIB00000079376
#IonMode Positive
#UpdateWorkflowName UPDATE-SINGLE-ANNOTATED-BRONZE
#LibraryQualityString Bronze
#TaskID b1d8e8f6646f4e71acdff9ca3d919d08
##Scan# 1375
#SpectrumFile p1-C05_GC5_01_17901.mzXML
#LibraryName NIH_Natural_Products_Library.mgf
#MQScore -1
#Organism NIH_Natural_Products_Library
#TIC_Query 0
#RT_Query -1
#MZErrorPPM -1
#SharedPeaks 0
#MassDiff 0
#LibMZ -1
#SpecMZ 363.144
#SpecCharge 0
#internalFilename spec-00000.mgf

>collision 10
95.621918 204.0
96.783417 108.0
97.030273 200.0
97.134209 152.0
97.837708 152.0
97.944046 136.0
97.989349 168.0
98.429184 152.0
98.684074 128.0
98.788887 76.0
99.490402 228.0
100.132645 164.0
103.051361 140.0
103.664452 60.0
104.194016 264.0
105.070595 168.0
105.445129 36.0
107.078209 152.0
107.370857 188.0
108.15596 80.0
108.819321 140.0
109.909958 176.0
112.143364 212.0
112.634979 204.0
112.833618 44.0
113.51963 140.0
115.060089 352.0
115.840637 60.0
116.057091 120.0
116.828102 140.0
117.070213 172.0
117.638351 44.0
117.906181 164.0
119.050011 184.0
119.080414 148.0
119.325958 228.0
119.946381 168.0
121.707481 156.0
122.87397 176.0
123.220589 152.0
123.30455 204.0
127.566345 204.0
128.062027 164.0
128.23259 212.0
129.070343 184.0
129.380066 212.0
129.649597 172.0
130.078476 192.0
130.641815 132.0
131.047592 216.0
131.085403 272.0
131.100525 328.0
131.119919 240.0
131.535065 184.0
131.678909 128.0
133.06427 140.0
133.098221 168.0
135.083008 204.0
136.425674 192.0
137.107635 112.0
137.873093 44.0
138.326843 180.0
140.059738 168.0
140.927872 96.0
141.069168 208.0
141.493118 216.0
142.072937 204.0
142.192368 264.0
142.332428 48.0
143.077789 168.0
143.436295 196.0
143.724869 76.0
144.004166 52.0
144.054321 172.0
144.565979 172.0
144.860458 120.0
144.953903 108.0
145.067062 536.0
145.099884 740.0
145.220001 72.0
146.071121 240.0
146.101547 104.0
146.140045 68.0
146.318146 188.0
146.414459 52.0
147.038864 148.0
147.118515 188.0
147.882339 192.0
148.262558 200.0
148.437103 172.0
149.091904 220.0
149.86145 172.0
150.49559 128.0
152.062256 160.0
152.27095 168.0
152.673981 180.0
152.897858 72.0
153.06749 200.0
153.235199 56.0
153.343613 208.0
153.452087 104.0
153.881363 60.0
154.155533 20.0
154.28653 92.0
154.768982 184.0
155.084457 508.0
155.157959 80.0
155.331543 128.0
156.086533 308.0
157.022858 88.0
157.057785 196.0
157.104385 204.0
157.165054 76.0
158.07193 360.0
158.40506 264.0
158.580444 136.0
158.610519 144.0
159.041946 156.0
159.080872 804.0
159.388504 40.0
160.050034 208.0
160.090652 176.0
160.569138 104.0
160.717972 152.0
160.753296 180.0
160.876968 76.0
161.061295 152.0
161.092682 148.0
161.255844 184.0
161.473267 184.0
161.951614 148.0
163.047638 120.0
163.109146 160.0
163.759995 48.0
165.066467 136.0
165.371033 132.0
165.50415 184.0
166.065369 144.0
167.088394 196.0
167.84494 132.0
168.087402 144.0
169.066772 136.0
169.100845 160.0
171.080322 196.0
172.087219 172.0
173.057953 524.0
173.094727 1464.0
173.127914 208.0
173.371536 40.0
174.069366 204.0
174.103531 320.0
174.884277 100.0
175.068573 136.0
175.107544 372.0
175.139679 204.0
178.075531 156.0
178.463501 144.0
179.078751 180.0
179.219391 36.0
180.524658 52.0
180.810913 172.0
181.059875 120.0
181.102737 376.0
181.140228 200.0
182.076294 172.0
182.102524 184.0
182.829025 204.0
183.082535 504.0
183.113632 380.0
183.340698 80.0
183.55249 116.0
183.605789 60.0
183.745148 52.0
184.083038 172.0
184.125748 180.0
184.20137 40.0
184.258102 76.0
184.401306 148.0
185.05864 128.0
185.096573 376.0
185.253632 160.0
185.535461 104.0
186.002045 64.0
186.333344 156.0
187.075256 708.0
187.50885 40.0
188.081207 748.0
189.056854 124.0
189.089691 556.0
189.136658 40.0
189.509094 180.0
189.725601 112.0
190.083633 328.0
190.117828 144.0
191.108826 308.0
191.831329 220.0
192.091034 212.0
193.101456 128.0
194.076202 172.0
194.112244 208.0
194.212082 220.0
194.995026 60.0
195.072571 316.0
195.110764 208.0
196.078598 112.0
197.056229 396.0
197.096405 368.0
197.133072 200.0
198.106155 160.0
198.153793 32.0
199.08783 232.0
199.158035 156.0
200.079269 184.0
200.872223 200.0
201.055618 172.0
201.090576 5364.0
201.320984 36.0
201.823944 52.0
202.095108 1388.0
202.828949 124.0
203.068329 144.0
203.104324 204.0
203.739838 116.0
204.077652 176.0
204.087769 152.0
204.096512 240.0
205.086319 204.0
205.11998 144.0
205.783401 108.0
206.099945 208.0
207.077179 168.0
207.115631 212.0
207.160248 184.0
208.088043 144.0
208.316284 108.0
209.078217 168.0
209.098358 172.0
210.104874 172.0
211.078186 304.0
211.110672 168.0
212.078781 232.0
212.121246 92.0
213.090118 300.0
214.074844 216.0
214.768463 168.0
215.068085 796.0
215.936722 68.0
216.06543 156.0
216.486908 76.0
216.598206 64.0
217.08905 204.0
218.624008 52.0
219.102325 1036.0
219.725998 108.0
220.097763 216.0
220.73317 188.0
221.104172 144.0
222.103012 192.0
222.270493 44.0
223.116058 120.0
224.085434 208.0
225.091873 424.0
225.127869 232.0
226.057831 164.0
226.086121 144.0
226.261353 52.0
227.119049 216.0
228.118286 148.0
228.774063 180.0
228.849319 256.0
229.04808 40.0
229.086075 1192.0
229.126343 184.0
229.524246 76.0
229.5755 44.0
230.091934 1172.0
230.127686 120.0
230.952667 80.0
231.089828 356.0
232.069656 136.0
232.106491 184.0
232.853012 104.0
233.080124 836.0
234.079575 188.0
235.069214 208.0
235.110428 572.0
235.814362 176.0
236.109756 176.0
237.130402 132.0
238.098877 276.0
239.105316 596.0
240.072495 140.0
240.115326 284.0
241.085037 168.0
241.125214 116.0
244.132324 172.0
246.086014 192.0
246.513931 180.0
247.097717 1332.0
248.103165 496.0
249.090942 232.0
249.114319 192.0
249.334335 76.0
250.095154 168.0
251.067352 136.0
251.113113 164.0
252.196045 108.0
253.056488 184.0
253.08815 140.0
253.124313 664.0
254.124573 132.0
255.13768 204.0
256.391754 132.0
263.105591 732.0
265.120056 260.0
266.096619 152.0
266.126801 184.0
267.101562 256.0
268.902557 100.0
269.110657 212.0
269.206177 48.0
269.261688 104.0
271.123169 112.0
272.130157 116.0
277.083893 112.0
279.417786 120.0
279.504272 44.0
280.096863 180.0
281.114929 624.0
283.128143 168.0
284.064636 112.0
285.110626 336.0
291.09668 172.0
293.112 132.0
297.033325 100.0
297.108795 84.0
299.129822 192.0
300.297455 104.0
301.851471 68.0
310.116241 128.0
313.09549 124.0
317.119507 148.0
317.144318 156.0
327.122864 128.0
345.130707 156.0
346.132996 120.0
351.172211 112.0
363.135742 168.0
423.179352 48.0
442.038208 56.0
443.214813 160.0
557.90448 52.0
585.264526 100.0
644.224548 96.0
647.998596 32.0
745.604614 104.0
767.098755 80.0
806.532043 156.0
904.595764 240.0
951.532898 160.0
958.526123 196.0
988.29364 236.0
989.000793 84.0
1100.080933 112.0
1109.428223 240.0
1183.341797 140.0
1202.858643 184.0
1214.358276 212.0
1246.626099 148.0
1283.064087 176.0
1287.423706 92.0
1319.405273 200.0
1340.417114 156.0
1358.659058 88.0
1364.593018 196.0
1372.242554 212.0
1400.699707 156.0
1410.055908 188.0
1419.420776 212.0
1435.444702 220.0
1438.67395 164.0
1445.771118 204.0
1452.324585 172.0
1473.158203 48.0
1484.033203 68.0
1486.311157 168.0
