>compound NCGC00160284-01!6-HYDROXYIMINO-IMPERIALINE
>formula C27H44N2O3
>ionization [M+H]+
>parentmass 445.34259
#inchi InChI=1S/C27H44N2O3/c1-15-4-7-25-27(3,31)21-6-5-17-18(20(21)14-29(25)13-15)11-22-19(17)12-24(28-32)23-10-16(30)8-9-26(22,23)2/h15-23,25,30-32H,4-14H2,1-3H3/b28-24+/t15-,16-,17+,18+,19-,20-,21+,22-,23+,25-,26+,27-/m0/s1
#inchikey UVCZBQKGSYAGJD
#Ion_Source LC-ESI
#Instrument qTOF
#Compound_Source Prestwick Phytochem Lib
#PI Dorrestein
#Data_Collector VVP/LMS
#Scan -1
#Precursor_MZ 445.343
#ExactMass 444.335
#Charge 1
#CAS_Number N/A
#Pubmed_ID N/A
#Smiles [H][C@@]12CC[C@]3([H])[C@@]([H])(CN4C[C@@H](C)CC[C@@]4([H])[C@@]3(C)O)[C@]1([H])C[C@@]5([H])[C@@]2([H])C\C(=N/O)[C@@]6([H])C[C@@H](O)CC[C@]56C
#INCHI_AUX N/A
#Library_Class 1
#SpectrumID CCMSLIB00000078728
#IonMode Positive
#UpdateWorkflowName UPDATE-SINGLE-ANNOTATED-GOLD
#LibraryQualityString Gold
#TaskID 67c915c6594c435cadc1fe2b5358144d
##Scan# 1500
#SpectrumFile p1-H02_GH2_01_17958.mzXML
#LibraryName phytochem_lib.mgf
#MQScore -1
#Organism phytochem_lib
#TIC_Query 0
#RT_Query -1
#MZErrorPPM -1
#SharedPeaks 0
#MassDiff 0
#LibMZ -1
#SpecMZ 445.343
#SpecCharge 0
#internalFilename spec-00000.mgf

>collision 10
95.013466 100.0
95.086304 172.0
95.114372 104.0
95.256126 132.0
95.353279 180.0
95.536057 100.0
95.586639 108.0
95.645027 168.0
95.663185 240.0
95.697594 92.0
95.831985 124.0
95.946976 136.0
96.079178 684.0
96.157639 136.0
96.229866 140.0
96.368538 116.0
96.384041 60.0
96.499062 180.0
96.638359 160.0
96.675537 76.0
96.695107 92.0
96.728386 124.0
96.757751 172.0
96.898758 164.0
97.167358 172.0
97.410789 84.0
97.464928 280.0
97.491348 160.0
97.514931 64.0
97.62896 92.0
97.685997 144.0
97.725342 220.0
97.748955 68.0
97.882812 196.0
98.016762 100.0
98.052231 128.0
98.068001 132.0
98.09742 652.0
98.125168 84.0
98.140938 112.0
98.158684 136.0
98.192207 192.0
98.280983 68.0
98.371765 176.0
98.575195 212.0
98.650307 128.0
98.701706 116.0
98.739281 136.0
98.79071 188.0
98.810493 160.0
98.986656 36.0
99.099556 144.0
99.23632 188.0
99.385078 136.0
99.43866 124.0
99.577637 132.0
99.639214 160.0
99.784294 56.0
99.873787 160.0
99.993164 176.0
100.317841 116.0
100.333786 144.0
100.467407 152.0
100.55365 200.0
100.732773 172.0
100.828819 144.0
100.872787 212.0
101.004768 184.0
101.040779 140.0
101.112724 92.0
101.256958 128.0
101.287003 100.0
101.317055 132.0
101.61377 140.0
101.641861 128.0
101.698051 48.0
101.890831 144.0
101.987289 148.0
102.021461 180.0
102.067703 208.0
102.196434 88.0
102.212532 160.0
102.462196 156.0
102.528694 144.0
102.620354 180.0
102.692001 96.0
102.871582 168.0
103.079613 148.0
103.095779 140.0
103.11599 124.0
103.229202 104.0
103.399139 176.0
103.713074 112.0
103.769836 92.0
103.798225 60.0
103.834724 132.0
104.0214 112.0
104.075851 180.0
104.206207 128.0
104.315948 128.0
104.480667 44.0
104.588524 140.0
104.602768 88.0
104.781921 140.0
104.812546 156.0
104.916489 112.0
104.993973 192.0
105.069023 136.0
105.116371 112.0
105.226593 124.0
105.253136 124.0
105.332787 144.0
105.406342 192.0
105.457428 132.0
105.555557 272.0
105.608734 92.0
105.633278 152.0
105.764236 164.0
105.94239 188.0
105.969025 156.0
106.038696 92.0
106.071884 148.0
106.09343 112.0
106.151451 48.0
106.254005 180.0
106.301201 44.0
106.568138 132.0
106.638008 104.0
106.689392 132.0
106.7593 124.0
106.779869 92.0
106.860092 136.0
107.010345 92.0
107.035049 172.0
107.069 132.0
107.085098 196.0
107.465843 108.0
107.499916 172.0
107.597931 104.0
107.676399 144.0
107.802422 168.0
107.816887 144.0
108.081581 468.0
108.261673 184.0
108.402542 192.0
108.495476 196.0
108.531845 168.0
108.582901 112.0
108.680397 128.0
108.707375 160.0
108.734352 148.0
108.761337 100.0
108.815308 136.0
108.867218 144.0
109.037575 72.0
109.086006 320.0
109.108246 188.0
109.135277 52.0
109.539024 176.0
109.599442 172.0
109.62236 112.0
109.676552 128.0
109.703651 72.0
109.730751 164.0
109.755768 84.0
109.860054 228.0
109.874657 100.0
109.993607 120.0
110.018654 32.0
110.094711 716.0
110.191734 156.0
110.267227 164.0
110.3153 168.0
110.386391 184.0
110.444214 148.0
110.62281 212.0
110.652122 152.0
110.691902 36.0
110.796631 156.0
110.958 112.0
111.054466 172.0
111.103493 376.0
111.180351 32.0
111.234917 60.0
111.516502 208.0
111.589958 88.0
111.678284 132.0
111.819244 148.0
111.887802 232.0
111.916084 112.0
111.937141 124.0
111.953987 156.0
111.979256 144.0
112.00032 140.0
112.044556 124.0
112.110329 1364.0
112.192078 136.0
112.244789 64.0
112.312279 204.0
112.403 172.0
112.45787 132.0
112.478973 56.0
112.510643 196.0
112.620445 112.0
112.65213 168.0
112.709175 88.0
112.827538 136.0
112.870995 180.0
112.901543 316.0
112.956535 40.0
113.114227 184.0
113.15123 200.0
113.282532 176.0
113.358803 80.0
113.373634 48.0
113.477501 152.0
113.568687 124.0
113.916809 164.0
114.242058 100.0
114.273972 124.0
114.325043 124.0
114.380379 120.0
114.405922 232.0
114.446373 120.0
114.503868 228.0
114.642349 140.0
114.676445 104.0
114.770248 92.0
114.795837 64.0
114.851288 60.0
115.05188 152.0
115.167191 104.0
115.338127 128.0
115.428093 196.0
115.490402 92.0
115.509193 228.0
115.545555 120.0
115.624733 140.0
115.727478 196.0
115.877411 176.0
116.192574 144.0
116.214027 172.0
116.229042 120.0
116.265526 144.0
116.282692 152.0
116.349236 108.0
116.426537 168.0
116.58551 372.0
116.776855 180.0
116.873665 76.0
116.91024 208.0
117.017868 100.0
117.073853 320.0
117.207413 164.0
117.358292 104.0
117.492012 68.0
117.656029 116.0
117.917404 168.0
118.148773 132.0
118.168243 84.0
118.194206 96.0
118.32119 168.0
118.38903 108.0
118.566681 92.0
118.646881 196.0
118.783501 196.0
118.839905 104.0
118.859436 168.0
118.913689 32.0
118.946243 48.0
119.039604 132.0
119.082108 480.0
119.235123 128.0
119.404701 40.0
119.443855 148.0
119.48954 260.0
119.596169 156.0
119.651184 132.0
119.735512 140.0
119.78125 108.0
119.850967 88.0
119.901085 168.0
119.918526 156.0
120.078705 172.0
120.151848 72.0
120.304611 40.0
120.37011 136.0
120.518646 120.0
120.62355 180.0
120.646545 156.0
120.840057 152.0
120.918831 120.0
121.077721 92.0
121.101517 292.0
121.140999 112.0
121.188179 144.0
121.223244 128.0
121.497314 164.0
121.642151 176.0
121.727776 152.0
121.791466 160.0
121.84639 92.0
121.914505 116.0
121.951866 188.0
121.974823 164.0
121.995827 148.0
122.042709 136.0
122.095734 384.0
122.143166 156.0
122.43589 172.0
122.537216 132.0
122.667244 140.0
122.711334 212.0
122.751022 88.0
122.80175 132.0
122.878952 112.0
122.962807 140.0
123.019173 124.0
123.123978 232.0
123.349342 76.0
123.52182 148.0
123.641304 116.0
123.667862 96.0
123.68557 144.0
123.740913 136.0
123.880432 196.0
123.91674 196.0
123.991219 176.0
124.037766 140.0
124.112694 460.0
124.250656 172.0
124.337196 80.0
124.394905 72.0
124.479279 168.0
124.641434 144.0
124.699211 136.0
124.725883 120.0
124.841499 184.0
124.90155 232.0
125.119492 752.0
125.144653 164.0
125.393616 132.0
125.438194 100.0
125.467178 148.0
125.554138 200.0
125.732613 124.0
125.875488 80.0
125.924614 160.0
125.949188 148.0
126.126419 1012.0
126.152534 168.0
126.257622 164.0
126.318016 84.0
126.432121 156.0
126.703064 140.0
126.756836 44.0
126.958588 256.0
127.057281 128.0
127.130127 148.0
127.369316 164.0
127.403015 132.0
127.492889 52.0
127.531097 136.0
127.832466 144.0
127.872971 164.0
128.012558 116.0
128.148117 176.0
128.179245 76.0
128.494904 140.0
128.518326 212.0
128.777084 144.0
128.810959 148.0
129.331879 248.0
129.385361 32.0
129.845154 228.0
130.073669 168.0
130.094955 112.0
130.251633 104.0
130.310699 132.0
130.331146 100.0
130.383423 208.0
130.561462 64.0
130.606232 160.0
130.631256 168.0
130.788269 160.0
130.865662 188.0
130.943085 136.0
131.026138 140.0
131.077423 132.0
131.21254 64.0
131.287216 168.0
131.336273 196.0
131.522217 192.0
131.579285 148.0
131.851669 196.0
131.889969 180.0
131.926544 116.0
132.018005 140.0
132.059174 160.0
132.082047 140.0
132.109497 76.0
132.128464 68.0
132.215195 200.0
132.24678 164.0
132.292572 176.0
132.356674 132.0
132.391022 140.0
132.514709 72.0
132.62471 104.0
132.856323 56.0
133.097397 132.0
133.26268 144.0
133.278763 160.0
133.446564 72.0
133.485641 140.0
133.550049 140.0
133.609848 188.0
133.708801 112.0
133.752533 48.0
133.780151 152.0
133.800873 180.0
133.929825 176.0
133.989716 168.0
134.040405 144.0
134.092743 304.0
134.127991 28.0
134.251038 152.0
134.266327 292.0
134.317062 152.0
134.34581 152.0
134.409348 112.0
134.432434 236.0
134.503983 92.0
134.709488 176.0
134.852753 92.0
134.915894 140.0
134.954468 128.0
135.056229 140.0
135.093231 236.0
135.114059 108.0
135.243637 128.0
135.288818 160.0
135.749405 156.0
135.764938 128.0
135.843796 108.0
135.86235 104.0
135.929642 220.0
135.945877 44.0
136.013184 140.0
136.112183 840.0
136.187332 148.0
136.282578 216.0
136.359268 176.0
136.466202 164.0
136.53363 156.0
136.677856 220.0
136.708115 104.0
136.733719 108.0
136.789536 148.0
136.824493 180.0
136.910645 124.0
136.966553 224.0
137.07605 44.0
137.092361 108.0
137.116608 324.0
137.19725 176.0
137.479477 144.0
137.502808 136.0
137.881165 216.0
137.953629 120.0
138.030609 172.0
138.065857 92.0
138.085236 168.0
138.127319 20136.0
138.15538 160.0
138.194504 212.0
138.242477 64.0
138.260025 56.0
138.316208 60.0
138.339615 92.0
138.384094 100.0
138.416 64.0
138.454346 64.0
138.501526 140.0
138.584641 96.0
138.695663 160.0
138.712082 180.0
138.794968 112.0
138.821182 104.0
138.922318 116.0
138.953629 68.0
139.099121 120.0
139.131241 2216.0
139.244705 120.0
139.291672 160.0
139.366852 96.0
139.387436 164.0
139.467911 52.0
139.569 116.0
139.594864 44.0
139.618378 96.0
139.691299 100.0
139.707764 108.0
139.780701 208.0
139.825409 100.0
139.921921 164.0
140.023178 40.0
140.055084 248.0
140.082062 148.0
140.13205 232.0
140.20459 144.0
140.340134 176.0
140.360168 80.0
140.381393 52.0
140.527634 164.0
140.548874 28.0
140.577194 208.0
140.61731 48.0
140.709366 132.0
140.732986 244.0
140.751877 148.0
140.87941 248.0
140.906372 124.0
141.016464 96.0
141.089737 116.0
141.137024 152.0
141.241089 108.0
141.450729 140.0
141.529816 68.0
141.565323 88.0
141.66481 124.0
141.778275 148.0
141.927887 140.0
141.996658 132.0
142.121674 188.0
142.184082 56.0
142.267151 156.0
142.352631 136.0
142.428635 128.0
142.521286 136.0
142.573563 128.0
142.682907 100.0
142.74234 208.0
142.797043 164.0
142.892197 124.0
142.925507 236.0
143.051636 200.0
143.194504 200.0
143.25882 52.0
143.339828 200.0
143.385101 128.0
143.423248 196.0
143.711807 164.0
143.845444 180.0
143.8741 216.0
144.000656 124.0
144.021561 164.0
144.115311 128.0
144.214966 172.0
144.237198 152.0
144.285004 84.0
144.332825 60.0
144.387833 100.0
144.464371 236.0
144.566574 240.0
144.624695 128.0
144.698898 100.0
144.779739 124.0
144.864395 196.0
145.010315 124.0
145.161346 140.0
145.223709 64.0
145.415649 124.0
145.542877 132.0
145.670166 248.0
145.748215 364.0
145.838364 108.0
145.940933 108.0
145.944962 164.0
146.098068 140.0
146.187103 120.0
146.307449 48.0
146.38208 136.0
146.654327 148.0
146.767624 344.0
146.79657 168.0
146.835144 136.0
146.871323 92.0
147.113754 412.0
147.255096 128.0
147.331985 256.0
147.385544 196.0
147.458054 112.0
147.518478 128.0
147.571655 192.0
147.609039 124.0
147.649048 116.0
147.745804 120.0
147.791992 128.0
147.927292 164.0
148.115509 1392.0
148.247009 100.0
148.341537 124.0
148.411835 80.0
148.499146 116.0
148.540375 48.0
148.649246 156.0
148.729645 120.0
148.788177 108.0
148.882599 84.0
148.934372 164.0
149.069656 104.0
149.117569 524.0
149.346817 56.0
149.453857 76.0
149.47818 68.0
149.780075 196.0
149.904327 148.0
149.975006 132.0
150.01889 84.0
150.043259 96.0
150.126144 916.0
150.32132 64.0
150.510956 140.0
150.655823 220.0
150.705536 104.0
150.741333 160.0
150.775558 136.0
150.968689 120.0
151.073853 72.0
151.095871 180.0
151.133499 148.0
151.201096 184.0
151.272079 112.0
151.387146 108.0
151.490021 168.0
151.563522 208.0
151.62233 212.0
151.665817 136.0
151.735092 112.0
151.882233 88.0
151.928833 180.0
151.955826 132.0
152.055054 160.0
152.076065 176.0
152.132767 204.0
152.300232 148.0
152.305298 100.0
152.315369 184.0
152.348633 148.0
152.378113 64.0
152.523102 116.0
152.585968 112.0
152.662842 140.0
152.676331 176.0
152.818207 164.0
152.889191 128.0
153.047119 152.0
153.148087 168.0
153.295914 180.0
153.347656 208.0
153.369843 152.0
153.415482 132.0
153.458176 140.0
153.488174 96.0
153.557236 184.0
153.636169 80.0
153.934814 92.0
154.018784 164.0
154.327698 60.0
154.357376 204.0
154.688904 68.0
154.750793 204.0
154.770599 156.0
154.807755 112.0
154.852325 172.0
155.055481 140.0
155.07283 32.0
155.229019 164.0
155.365433 56.0
155.519287 68.0
155.596237 148.0
155.673218 168.0
155.705505 220.0
155.829697 164.0
155.903946 144.0
155.924133 136.0
155.976318 148.0
156.00119 48.0
156.083221 128.0
156.138077 272.0
156.224991 124.0
156.426285 144.0
156.501251 168.0
156.598373 188.0
156.707977 144.0
156.81514 128.0
156.872467 148.0
156.95723 268.0
157.013153 168.0
157.146805 160.0
157.21521 144.0
157.348969 168.0
157.466324 60.0
157.498795 108.0
157.608719 192.0
157.74118 192.0
157.763672 52.0
157.96373 128.0
157.996246 160.0
158.04129 96.0
158.108856 124.0
158.128876 384.0
158.225845 168.0
158.324158 100.0
158.471939 136.0
158.491989 156.0
158.537094 124.0
158.664932 168.0
158.717575 172.0
158.827927 124.0
158.963409 120.0
159.071335 48.0
159.113007 180.0
159.186829 136.0
159.293121 332.0
159.312408 152.0
159.460663 116.0
159.541092 168.0
159.787552 172.0
159.822784 116.0
159.978821 60.0
160.011551 224.0
160.036728 136.0
160.112274 120.0
160.200439 96.0
160.273499 208.0
160.341537 180.0
160.364227 156.0
160.480179 140.0
160.53566 160.0
160.689514 144.0
160.760178 152.0
160.979797 156.0
161.012634 228.0
161.047989 116.0
161.112778 172.0
161.153687 204.0
161.197037 152.0
161.457428 40.0
161.480194 192.0
161.596558 52.0
161.639572 36.0
161.667404 92.0
161.834473 104.0
161.890182 152.0
162.019363 140.0
162.127945 3268.0
162.156189 172.0
162.175247 48.0
162.194214 168.0
162.244904 128.0
162.320969 220.0
162.48584 228.0
162.58429 200.0
162.60643 176.0
162.724411 132.0
162.747269 176.0
162.770782 224.0
162.790436 88.0
162.808212 104.0
162.828522 36.0
162.96315 56.0
163.012558 136.0
163.061356 224.0
163.08847 220.0
163.132553 2072.0
163.280533 160.0
163.411804 124.0
163.47171 136.0
163.588791 156.0
163.642258 92.0
163.749207 116.0
163.876572 76.0
163.919891 168.0
163.955566 144.0
164.022186 124.0
164.042221 140.0
164.105087 244.0
164.14267 3156.0
164.246231 128.0
164.264084 124.0
164.289597 196.0
164.327011 120.0
164.348267 100.0
164.460556 88.0
164.480972 148.0
164.735779 164.0
164.759323 116.0
165.030243 176.0
165.070328 184.0
165.094177 192.0
165.145554 364.0
165.255325 148.0
165.280075 168.0
165.329529 68.0
165.388397 72.0
165.413986 364.0
165.477997 224.0
165.61116 40.0
165.639328 132.0
165.659821 136.0
165.708496 84.0
165.795624 64.0
165.854568 128.0
165.891769 196.0
165.953751 140.0
166.026352 40.0
166.15387 164.0
166.186493 168.0
166.229019 108.0
166.259811 108.0
166.359909 168.0
166.39328 176.0
166.427444 144.0
166.591034 132.0
166.655258 52.0
166.70665 84.0
166.752914 112.0
166.925156 112.0
167.076904 168.0
167.148956 188.0
167.236023 192.0
167.285355 80.0
167.540314 164.0
167.6073 84.0
167.640793 36.0
167.743896 132.0
167.796799 84.0
167.845367 144.0
167.934708 108.0
167.963074 140.0
168.004349 100.0
168.09053 136.0
168.146271 148.0
168.226288 104.0
168.31665 52.0
168.401871 184.0
168.469025 208.0
168.510361 132.0
168.541367 36.0
168.572372 424.0
168.647324 100.0
168.768829 76.0
168.798843 184.0
168.817963 152.0
169.1129 104.0
169.221619 172.0
169.320023 60.0
169.361526 144.0
169.38736 160.0
169.472855 136.0
169.535049 132.0
169.74762 64.0
169.879654 84.0
169.910416 240.0
170.219299 192.0
170.25885 140.0
170.534241 160.0
170.614822 112.0
170.659027 184.0
170.700638 120.0
170.739639 60.0
170.776047 112.0
170.82547 128.0
171.127365 96.0
171.202881 148.0
171.270599 160.0
171.326141 148.0
171.481644 140.0
171.588516 76.0
171.731949 112.0
171.849335 204.0
171.964157 148.0
171.995468 140.0
172.029404 128.0
172.118179 276.0
172.387711 132.0
172.47348 116.0
172.530991 236.0
172.557129 104.0
172.724091 128.0
172.768982 184.0
172.802979 216.0
172.857941 52.0
172.90242 152.0
172.931213 220.0
173.004501 156.0
173.043777 128.0
173.117096 72.0
173.360168 96.0
173.469452 164.0
173.830124 108.0
173.852905 152.0
174.130478 136.0
174.181931 156.0
174.289642 216.0
174.347458 144.0
174.468369 124.0
174.486771 168.0
174.592529 216.0
174.641922 164.0
174.668228 104.0
174.791885 248.0
174.855042 80.0
174.93927 156.0
174.97876 76.0
175.133545 548.0
175.192078 284.0
175.29483 84.0
175.329086 132.0
175.412903 120.0
175.492523 212.0
175.534714 48.0
175.611191 164.0
175.787949 152.0
175.844894 180.0
176.014969 176.0
176.070419 168.0
176.099472 36.0
176.141663 1320.0
176.244781 152.0
176.294006 108.0
176.303894 172.0
176.443008 156.0
176.609604 164.0
176.633408 196.0
176.757751 172.0
176.904648 136.0
176.945679 44.0
176.964203 200.0
177.025116 204.0
177.109863 148.0
177.147537 1756.0
177.191986 152.0
177.297974 160.0
177.316528 132.0
177.374832 176.0
177.518005 176.0
177.86026 140.0
177.953171 60.0
178.019547 168.0
178.115173 148.0
178.156372 516.0
178.251205 176.0
178.327728 124.0
178.379379 204.0
178.878326 132.0
179.164917 372.0
179.211227 200.0
179.232544 168.0
179.298279 264.0
179.403122 148.0
179.519547 168.0
179.547104 168.0
179.733841 60.0
179.773865 152.0
179.87262 112.0
180.102264 156.0
180.177063 176.0
180.217133 152.0
180.329376 80.0
180.356094 140.0
180.717117 92.0
180.738525 232.0
180.829514 152.0
180.97139 144.0
181.051727 168.0
181.096054 180.0
181.130127 148.0
181.201736 168.0
181.335724 112.0
181.383957 140.0
181.464386 116.0
181.509964 36.0
181.531418 136.0
181.611877 200.0
181.75943 88.0
181.796997 192.0
181.815781 148.0
181.869461 128.0
182.022491 180.0
182.076202 104.0
182.113968 200.0
182.135284 156.0
182.414749 188.0
182.465836 136.0
182.697113 120.0
182.740158 188.0
182.796326 156.0
182.850494 216.0
182.971619 128.0
183.108948 252.0
183.189758 40.0
183.224777 148.0
183.262497 140.0
183.284058 76.0
183.410721 148.0
183.513168 136.0
183.534729 128.0
183.572479 176.0
183.626419 160.0
183.715439 104.0
183.885422 124.0
183.912415 172.0
183.942108 164.0
183.976868 192.0
184.055496 220.0
184.109512 180.0
184.320221 32.0
184.428314 228.0
184.460754 80.0
184.620285 144.0
184.825867 140.0
184.869156 136.0
185.096542 284.0
185.132629 172.0
185.215714 36.0
185.299698 60.0
185.733429 72.0
185.9505 140.0
186.042786 52.0
186.433914 64.0
186.474686 48.0
186.556229 108.0
186.621475 136.0
186.65683 148.0
186.907074 92.0
186.969666 168.0
187.123856 180.0
187.153214 188.0
187.24736 232.0
187.385605 176.0
187.408081 208.0
187.476212 84.0
187.519821 36.0
187.691559 104.0
187.735184 228.0
187.759735 120.0
187.871567 184.0
187.951874 176.0
188.010727 72.0
188.062576 164.0
188.140671 1516.0
188.171051 176.0
188.204544 120.0
188.240036 140.0
188.308304 156.0
188.429871 216.0
188.492874 128.0
188.816666 192.0
188.887772 172.0
188.917862 140.0
189.109406 236.0
189.149307 404.0
189.18605 56.0
189.333908 148.0
189.366776 112.0
189.405121 80.0
189.793274 208.0
189.81897 132.0
190.157837 1044.0
190.282349 148.0
190.408981 80.0
190.551819 112.0
190.66449 160.0
190.708466 140.0
190.746948 48.0
190.774429 156.0
190.845917 184.0
190.922913 148.0
190.988922 192.0
191.046692 136.0
191.105759 204.0
191.163284 316.0
191.206284 156.0
191.22554 172.0
191.280594 52.0
191.324631 132.0
191.371445 64.0
191.41275 84.0
191.484344 136.0
191.59729 196.0
191.680145 164.0
191.735062 56.0
191.800125 112.0
191.872879 144.0
191.939056 132.0
191.988693 128.0
192.027298 124.0
192.049362 108.0
192.079712 172.0
192.114349 164.0
192.137634 116.0
192.173569 1208.0
192.224457 128.0
192.31424 96.0
192.333572 168.0
192.408096 116.0
192.435715 164.0
192.477127 144.0
192.504745 136.0
192.565491 136.0
192.682541 204.0
192.773758 192.0
192.808624 56.0
192.930252 164.0
192.957886 132.0
192.998642 184.0
193.04361 96.0
193.104446 92.0
193.143707 164.0
193.1763 164.0
193.240097 120.0
193.273193 116.0
193.314713 160.0
193.538925 180.0
193.574921 144.0
193.680161 124.0
193.835312 112.0
193.871338 168.0
193.937851 136.0
194.057053 188.0
194.10878 152.0
194.16188 184.0
194.334412 160.0
194.361465 160.0
194.406555 208.0
194.64444 156.0
194.689713 160.0
194.731384 128.0
194.767487 164.0
194.85083 112.0
194.939743 112.0
194.959198 136.0
195.164902 120.0
195.212173 172.0
195.267792 164.0
195.529053 176.0
195.657349 88.0
195.701904 132.0
195.788223 100.0
195.827209 116.0
195.930359 148.0
196.005508 152.0
196.125351 152.0
196.214554 200.0
196.306564 92.0
196.387451 164.0
196.4254 228.0
196.602264 164.0
196.68042 140.0
196.705536 32.0
196.790558 124.0
196.833969 128.0
196.920547 56.0
197.040665 44.0
197.08815 136.0
197.328522 184.0
197.364883 108.0
197.560654 108.0
197.676682 188.0
198.008514 220.0
198.033722 168.0
198.103745 116.0
198.232635 88.0
198.336319 132.0
198.445663 172.0
198.487717 144.0
198.662781 220.0
198.934601 72.0
198.976639 140.0
198.998383 108.0
199.186539 72.0
199.376038 156.0
199.468277 76.0
199.526581 188.0
199.599686 168.0
199.684052 280.0
199.925995 160.0
200.139725 296.0
200.283569 56.0
200.339905 72.0
200.387802 132.0
200.452606 124.0
200.655548 120.0
200.717575 120.0
200.751419 60.0
200.82756 84.0
200.864227 180.0
200.882797 144.0
201.019409 128.0
201.15213 168.0
201.17746 108.0
201.293228 108.0
201.320465 204.0
201.349701 196.0
201.369476 104.0
201.440094 152.0
201.553101 112.0
201.578522 156.0
201.602661 208.0
201.623749 60.0
201.671783 172.0
201.700058 136.0
201.80748 140.0
201.862091 204.0
201.907837 164.0
201.948883 152.0
201.977173 120.0
202.002625 108.0
202.084671 100.0
202.15593 944.0
202.262726 220.0
202.373367 216.0
202.407349 52.0
202.45549 100.0
202.497971 88.0
202.551788 96.0
202.727448 108.0
202.948547 44.0
203.039291 124.0
203.101685 212.0
203.127213 208.0
203.169876 180.0
203.300293 136.0
203.357056 136.0
203.433685 36.0
203.539963 176.0
203.572815 100.0
203.6353 92.0
203.95636 68.0
204.044495 44.0
204.078598 132.0
204.171234 484.0
204.21167 152.0
204.286224 124.0
204.306137 64.0
204.331741 164.0
204.352921 216.0
204.384003 152.0
204.439865 152.0
204.513855 52.0
204.644806 188.0
204.712387 120.0
204.758713 184.0
204.824234 108.0
204.946732 232.0
205.009415 168.0
205.049316 120.0
205.182663 252.0
205.33728 124.0
205.437103 108.0
205.505585 164.0
205.579773 128.0
205.653976 64.0
205.673264 164.0
205.902374 196.0
205.950928 124.0
205.970917 92.0
206.052048 256.0
206.193039 176.0
206.256653 92.0
206.376724 172.0
206.409225 120.0
206.435501 188.0
206.479675 136.0
206.539734 136.0
206.620255 140.0
206.797256 188.0
206.851639 128.0
207.100754 164.0
207.126541 136.0
207.166641 88.0
207.246246 168.0
207.324234 108.0
207.407349 128.0
207.496216 132.0
207.559296 80.0
207.741272 116.0
207.805969 52.0
207.860489 144.0
208.070007 152.0
208.205856 104.0
208.279648 96.0
208.339966 168.0
208.53537 152.0
208.676224 160.0
208.736603 108.0
208.759613 116.0
208.792145 204.0
208.82576 176.0
208.949448 144.0
209.018509 104.0
209.08757 136.0
209.141296 156.0
209.211334 144.0
209.329391 180.0
209.358185 120.0
209.47052 128.0
209.55983 128.0
209.579987 48.0
209.607849 120.0
209.660675 268.0
209.77597 56.0
209.83075 188.0
210.182632 232.0
210.208603 224.0
210.347137 36.0
210.421555 128.0
210.786133 68.0
210.953766 140.0
210.994232 132.0
211.12915 140.0
211.176407 136.0
211.28923 164.0
211.381363 128.0
211.455109 148.0
211.480209 136.0
211.517838 172.0
211.541 124.0
211.578629 108.0
211.624954 336.0
211.67128 180.0
211.778442 160.0
211.819 32.0
211.920395 136.0
211.981247 40.0
212.076874 128.0
212.141769 104.0
212.240036 200.0
212.327103 132.0
212.420853 160.0
212.592026 264.0
212.619232 116.0
212.784698 148.0
212.805023 72.0
212.906647 48.0
212.950211 100.0
212.982162 44.0
213.069229 136.0
213.10672 64.0
213.16478 192.0
213.281448 124.0
213.310516 160.0
213.35994 84.0
213.386108 184.0
213.511139 116.0
213.685028 108.0
213.764236 140.0
213.915573 40.0
214.161514 196.0
214.270874 152.0
214.364105 116.0
214.471939 116.0
214.498184 236.0
214.638123 96.0
214.754776 136.0
214.807281 148.0
214.830719 108.0
214.877289 184.0
214.944397 120.0
214.964828 132.0
215.134109 164.0
215.159317 88.0
215.186432 232.0
215.344345 152.0
215.412537 220.0
215.475891 132.0
215.542999 100.0
215.573563 140.0
215.694977 196.0
215.718369 136.0
215.785599 212.0
215.861633 104.0
215.92012 104.0
215.981537 156.0
216.045898 88.0
216.172745 1128.0
216.209747 132.0
216.361954 168.0
216.47908 136.0
216.637238 180.0
216.816147 152.0
216.851151 112.0
216.947876 180.0
217.029968 200.0
217.082748 136.0
217.12088 80.0
217.184097 1340.0
217.279266 68.0
217.340881 172.0
217.461212 96.0
217.496429 100.0
217.529556 168.0
217.55513 96.0
217.634399 124.0
217.737183 84.0
217.807678 140.0
217.85762 192.0
217.957504 148.0
218.040283 212.0
218.125137 104.0
218.189514 11880.0
218.260269 188.0
218.319077 36.0
218.342606 144.0
218.372025 60.0
218.392609 60.0
218.467178 136.0
218.50145 144.0
218.586777 32.0
218.622086 192.0
218.669174 264.0
218.704498 188.0
218.769257 32.0
218.889969 80.0
218.957703 128.0
219.013657 56.0
219.15213 172.0
219.192993 2724.0
219.261154 36.0
219.281784 148.0
219.400589 92.0
219.443924 108.0
219.564819 160.0
219.612 84.0
219.63855 92.0
219.703445 68.0
219.768356 92.0
219.821472 112.0
219.853928 48.0
219.906219 156.0
219.972 208.0
220.063507 164.0
220.107803 92.0
220.16687 140.0
220.195343 544.0
220.3116 104.0
220.379547 184.0
220.521393 140.0
220.592331 216.0
220.737213 112.0
220.779648 220.0
220.86734 112.0
220.941299 60.0
220.985672 104.0
221.012299 196.0
221.045914 156.0
221.13829 168.0
221.19722 136.0
221.219467 164.0
221.281647 228.0
221.36557 128.0
221.397125 188.0
221.468201 52.0
221.725967 116.0
221.785248 136.0
221.8564 176.0
221.972031 36.0
222.055069 200.0
222.358688 200.0
222.381424 180.0
222.535797 88.0
222.589233 148.0
222.702087 112.0
222.791214 152.0
223.076492 136.0
223.103256 156.0
223.373856 188.0
223.445267 108.0
223.585114 132.0
223.680359 60.0
223.730972 128.0
223.78157 176.0
223.817307 72.0
223.948349 88.0
224.103256 32.0
224.178513 168.0
224.231384 176.0
224.452179 128.0
224.487778 136.0
224.508652 152.0
224.665802 232.0
224.927017 144.0
224.983078 220.0
225.045761 56.0
225.158813 196.0
225.326523 224.0
225.368347 32.0
225.392258 156.0
225.550644 48.0
225.604462 48.0
225.667236 168.0
225.759933 92.0
225.805817 216.0
225.87059 116.0
225.936417 152.0
225.963333 156.0
226.202515 156.0
226.355438 100.0
226.423889 140.0
226.550232 208.0
226.577087 116.0
226.655319 140.0
226.74411 140.0
226.780853 144.0
226.831802 152.0
226.882767 128.0
226.936737 116.0
226.963715 184.0
226.993713 212.0
227.041168 116.0
227.071686 208.0
227.146667 164.0
227.179657 124.0
227.381531 188.0
227.503769 136.0
227.596848 192.0
227.650894 100.0
227.780045 128.0
227.816086 164.0
227.912231 144.0
228.043121 220.0
228.104568 132.0
228.175598 148.0
228.22142 152.0
228.269928 196.0
228.4534 152.0
228.549683 64.0
228.60083 192.0
228.64296 60.0
228.7724 160.0
228.796478 176.0
228.916504 204.0
229.058472 184.0
229.172958 212.0
229.230209 108.0
229.251297 100.0
229.278015 120.0
229.283752 104.0
229.344727 184.0
229.582901 148.0
229.64624 228.0
229.775955 132.0
229.812164 120.0
229.833282 224.0
229.950684 164.0
230.113983 136.0
230.150208 188.0
230.188934 1980.0
230.355576 120.0
230.422043 128.0
230.491531 116.0
230.576157 132.0
230.814972 96.0
230.911011 116.0
230.993408 124.0
231.047867 80.0
231.108383 108.0
231.156113 168.0
231.196152 832.0
231.253632 196.0
231.302063 36.0
231.449249 104.0
231.480698 192.0
231.518341 152.0
231.550339 172.0
231.589722 136.0
231.650299 152.0
231.67453 108.0
231.732101 112.0
231.801788 144.0
231.971512 204.0
232.010925 132.0
232.204742 5176.0
232.259583 156.0
232.305084 168.0
232.602463 124.0
232.623718 176.0
232.70137 104.0
232.79982 136.0
232.839294 224.0
232.927383 104.0
232.962646 144.0
233.00029 172.0
233.075394 112.0
233.119797 104.0
233.14917 124.0
233.210037 1656.0
233.249481 192.0
233.365005 164.0
233.428848 184.0
233.465347 172.0
233.571793 108.0
233.599182 200.0
233.641769 176.0
233.715652 168.0
233.927826 128.0
234.000885 128.0
234.061783 116.0
234.137924 148.0
234.222916 260.0
234.267456 196.0
234.32373 176.0
234.485229 100.0
234.509613 132.0
234.5401 68.0
234.604111 152.0
234.686432 48.0
234.804474 96.0
235.01889 112.0
235.169037 80.0
235.181931 132.0
235.437103 88.0
235.48291 88.0
235.586761 116.0
235.71814 140.0
235.855667 76.0
235.919861 128.0
235.98407 132.0
236.03299 128.0
236.088028 116.0
236.146149 192.0
236.173676 68.0
236.195084 56.0
236.338867 84.0
236.390884 112.0
236.595963 96.0
236.663315 116.0
236.816437 120.0
236.881424 112.0
236.984924 188.0
237.074036 148.0
237.110565 72.0
237.187195 80.0
237.265976 188.0
237.452469 296.0
237.644135 128.0
237.702438 104.0
237.852814 192.0
237.886581 84.0
237.933899 116.0
237.98175 104.0
238.159866 104.0
238.201309 192.0
238.276611 184.0
238.36264 184.0
238.537827 108.0
238.587006 168.0
238.663864 76.0
238.766525 220.0
238.826859 184.0
239.113007 244.0
239.316177 184.0
239.356201 156.0
239.651901 200.0
239.738174 124.0
239.94162 48.0
239.977875 100.0
240.024872 124.0
240.058777 132.0
240.094574 212.0
240.172897 96.0
240.26268 188.0
240.330231 100.0
240.376511 152.0
240.413544 44.0
240.474274 160.0
240.64505 156.0
240.688278 100.0
240.84697 136.0
241.024979 40.0
241.07132 132.0
241.120773 160.0
241.163971 172.0
241.272232 140.0
241.352615 160.0
241.413834 156.0
241.471436 200.0
241.615524 200.0
241.782608 136.0
241.829025 216.0
241.869278 176.0
242.011673 216.0
242.11438 144.0
242.195938 176.0
242.201721 120.0
242.460846 224.0
242.547638 60.0
242.640625 156.0
242.66951 128.0
242.73703 176.0
242.787628 148.0
242.842194 112.0
242.972473 108.0
243.015915 200.0
243.178696 140.0
243.228775 284.0
243.301453 132.0
243.341812 56.0
243.372314 160.0
243.412766 248.0
243.558365 136.0
243.592102 188.0
243.655487 100.0
243.813965 176.0
243.866791 68.0
243.910309 168.0
243.937332 144.0
244.084412 152.0
244.134308 200.0
244.204926 5676.0
244.257416 204.0
244.279007 68.0
244.392349 148.0
244.423462 160.0
244.479477 112.0
244.572845 40.0
244.68071 160.0
244.712936 96.0
244.762756 80.0
244.893555 188.0
244.936676 128.0
244.944778 108.0
245.111282 180.0
245.133438 100.0
245.210358 2148.0
245.268021 224.0
245.339157 224.0
245.498169 196.0
245.594864 72.0
245.650421 128.0
245.658081 192.0
245.729004 156.0
245.825211 304.0
245.891266 172.0
245.929916 252.0
246.022369 84.0
246.050461 44.0
246.144135 108.0
246.175354 188.0
246.220383 756.0
246.278427 60.0
246.314957 128.0
246.344009 28.0
246.375259 56.0
246.437744 136.0
246.620743 136.0
246.659622 128.0
246.747162 156.0
246.825333 204.0
246.850342 236.0
246.875366 244.0
246.902161 84.0
246.966064 84.0
247.015274 164.0
247.05423 64.0
247.088364 168.0
247.225296 360.0
247.330612 196.0
247.357193 80.0
247.406265 124.0
247.464981 128.0
247.577286 204.0
247.736099 132.0
247.795624 56.0
247.874298 184.0
247.917831 112.0
247.949173 128.0
248.109024 96.0
248.192963 320.0
248.300308 100.0
248.325394 128.0
248.466553 52.0
248.529312 96.0
248.632858 128.0
248.654831 56.0
248.711319 128.0
248.818054 128.0
248.883987 60.0
249.217773 224.0
249.286072 100.0
249.55011 144.0
249.694748 148.0
249.735641 116.0
250.091187 204.0
250.166733 264.0
250.198212 124.0
250.235992 152.0
250.298965 116.0
250.396591 128.0
250.595047 196.0
250.64743 80.0
250.872391 184.0
251.08049 148.0
251.190887 156.0
251.266602 144.0
251.550629 112.0
251.632706 128.0
251.718536 132.0
251.783478 128.0
251.845856 144.0
251.869354 124.0
251.926407 216.0
251.995911 160.0
252.046463 116.0
252.163391 68.0
252.201599 140.0
252.353699 80.0
252.422623 148.0
252.542801 108.0
252.612396 120.0
252.996994 392.0
253.096619 100.0
253.180893 72.0
253.330994 200.0
253.414642 148.0
253.48941 160.0
253.733475 148.0
253.772964 160.0
253.794586 116.0
253.863464 196.0
253.977646 164.0
254.069641 120.0
254.101364 124.0
254.145782 96.0
254.188553 148.0
254.336731 48.0
254.420761 332.0
254.498108 216.0
254.701355 112.0
254.761703 172.0
254.810257 156.0
254.834778 108.0
254.87291 164.0
255.019104 132.0
255.082672 204.0
255.183884 308.0
255.216202 148.0
255.254349 76.0
255.359863 112.0
255.470627 172.0
255.566071 152.0
255.610626 204.0
255.709274 132.0
255.796646 148.0
255.877991 212.0
255.963959 116.0
256.046753 156.0
256.069061 164.0
256.198486 348.0
256.243622 120.0
256.387634 192.0
256.507111 216.0
256.550201 96.0
256.598145 112.0
256.623535 188.0
256.709625 128.0
256.776581 88.0
256.821259 96.0
256.843567 136.0
256.905151 280.0
256.948853 92.0
257.035004 116.0
257.059692 268.0
257.108398 244.0
257.210663 400.0
257.251495 216.0
257.274384 124.0
257.32962 276.0
257.354187 100.0
257.376526 136.0
257.440399 52.0
257.49469 148.0
257.526642 132.0
257.554962 152.0
257.608826 176.0
257.724701 84.0
257.762512 144.0
257.893311 168.0
257.927246 304.0
257.958008 320.0
257.990295 200.0
258.021942 116.0
258.046997 220.0
258.090179 200.0
258.158051 172.0
258.221252 74808.0
258.317627 144.0
258.351349 36.0
258.374298 128.0
258.399323 108.0
258.442657 192.0
258.4823 172.0
258.524109 236.0
258.574646 72.0
258.673859 120.0
258.74469 148.0
258.800751 76.0
258.821716 248.0
258.91748 92.0
258.999298 172.0
259.029999 76.0
259.070312 196.0
259.11969 44.0
259.156799 152.0
259.162933 56.0
259.22345 15968.0
259.286316 188.0
259.319153 116.0
259.348938 168.0
259.381165 112.0
259.407288 108.0
259.439453 88.0
259.482697 68.0
259.572632 168.0
259.584717 52.0
259.594604 172.0
259.66748 72.0
259.692535 148.0
259.702606 152.0
259.717926 124.0
259.737457 68.0
259.825012 48.0
259.868988 128.0
259.92923 84.0
260.007935 104.0
260.041199 76.0
260.061462 176.0
260.116364 56.0
260.145935 72.0
260.173218 116.0
260.229279 776.0
260.274353 72.0
260.300049 88.0
260.351105 84.0
260.383179 68.0
260.418884 108.0
260.463837 52.0
260.553802 92.0
260.585938 164.0
260.614838 96.0
260.640533 172.0
260.679626 100.0
260.710419 92.0
260.755554 144.0
260.782745 292.0
260.833252 108.0
260.888306 136.0
260.92981 180.0
260.967712 56.0
260.980469 32.0
261.007355 172.0
261.083496 192.0
261.145264 172.0
261.170807 80.0
261.231201 112.0
261.277161 48.0
261.364014 92.0
261.402649 84.0
261.427643 156.0
261.481201 104.0
261.552032 104.0
261.582886 100.0
261.624725 116.0
261.692322 72.0
261.741577 108.0
261.772827 128.0
261.846893 88.0
261.87912 132.0
261.914551 68.0
261.956421 48.0
261.9935 172.0
262.002838 88.0
262.017212 120.0
262.095947 116.0
262.159393 64.0
262.22226 280.0
262.283813 152.0
262.33667 108.0
262.380768 208.0
262.423248 212.0
262.497894 176.0
262.617218 156.0
262.675598 240.0
262.733337 168.0
262.75592 124.0
262.823669 52.0
262.93338 140.0
263.027008 176.0
263.162598 56.0
263.188416 56.0
263.211029 56.0
263.314362 140.0
263.346649 80.0
263.440338 148.0
263.550171 40.0
263.588959 108.0
263.666504 84.0
263.773163 176.0
263.9552 176.0
263.999268 184.0
264.044769 128.0
264.161224 100.0
264.209747 112.0
264.261505 132.0
264.316498 128.0
264.38446 212.0
264.455658 112.0
264.585144 140.0
264.666107 120.0
264.811829 136.0
264.883087 64.0
264.996613 100.0
265.152008 56.0
265.206573 104.0
265.317322 140.0
265.346497 48.0
265.369202 124.0
265.404877 60.0
265.638367 184.0
265.703247 156.0
265.732452 164.0
265.820068 116.0
265.84668 260.0
265.959625 132.0
266.033173 148.0
266.069977 164.0
266.23233 168.0
266.258331 40.0
266.394745 104.0
266.479279 168.0
266.70993 104.0
266.741669 152.0
266.750397 116.0
266.760101 204.0
266.875732 40.0
266.946045 132.0
266.983032 52.0
267.179626 176.0
267.301849 128.0
267.376862 228.0
267.40274 136.0
267.542694 244.0
267.725037 236.0
267.960175 172.0
268.019684 204.0
268.106201 128.0
268.200653 168.0
268.305023 136.0
268.395905 180.0
268.432312 220.0
268.507202 136.0
268.696381 140.0
268.917145 172.0
268.960724 44.0
268.983582 52.0
269.009674 128.0
269.068451 152.0
269.159576 128.0
269.2005 3372.0
269.300293 44.0
269.342773 220.0
269.463623 116.0
269.519165 144.0
269.597595 96.0
269.666229 108.0
269.752869 48.0
269.791504 148.0
269.983368 48.0
270.025879 92.0
270.048767 128.0
270.204651 556.0
270.562531 60.0
270.711121 104.0
270.899841 56.0
270.984802 120.0
271.034149 100.0
271.079132 132.0
271.104004 164.0
271.152985 140.0
271.218536 544.0
271.31604 124.0
271.420929 116.0
271.49118 144.0
271.740997 104.0
271.778473 220.0
271.808014 120.0
271.84082 132.0
271.978668 36.0
272.006622 140.0
272.100128 132.0
272.138184 184.0
272.174622 128.0
272.235901 14100.0
272.310272 56.0
272.381653 116.0
272.41806 128.0
272.431183 104.0
272.500824 108.0
272.585602 144.0
272.628967 76.0
272.699127 208.0
272.735291 124.0
272.763733 120.0
272.828369 84.0
272.88208 104.0
272.911652 76.0
272.94455 64.0
272.992615 316.0
273.036255 144.0
273.053772 164.0
273.135284 56.0
273.242493 9812.0
273.34256 168.0
273.395203 140.0
273.426666 68.0
273.488892 52.0
273.593964 144.0
273.623505 156.0
273.691467 200.0
273.740875 48.0
273.790253 156.0
273.978027 64.0
274.080322 204.0
274.10321 176.0
274.190552 192.0
274.247192 1764.0
274.291077 72.0
274.384705 136.0
274.413818 136.0
274.502075 60.0
274.548248 52.0
274.579651 100.0
274.647186 40.0
274.670288 180.0
274.739563 260.0
274.825348 92.0
274.884735 36.0
274.912445 160.0
274.963928 88.0
275.03595 108.0
275.065674 156.0
275.13559 164.0
275.165283 32.0
275.214813 116.0
275.253357 156.0
275.343597 144.0
275.459747 96.0
275.488953 112.0
275.551697 88.0
275.759888 100.0
275.839233 56.0
275.935089 64.0
275.97998 132.0
276.231659 504.0
276.308807 192.0
276.348511 88.0
276.45401 172.0
276.502014 204.0
276.649689 84.0
276.778809 100.0
276.848358 100.0
276.927826 168.0
277.03714 152.0
277.136536 52.0
277.223083 140.0
277.302246 124.0
277.348633 204.0
277.411621 48.0
277.547546 132.0
277.808868 188.0
277.849365 116.0
277.962189 176.0
278.025238 168.0
278.051788 144.0
278.101562 160.0
278.221069 144.0
278.254272 64.0
278.410522 132.0
278.815643 100.0
278.842224 116.0
278.91806 64.0
278.943726 112.0
278.969666 364.0
279.028381 112.0
279.101532 172.0
279.128113 132.0
279.236389 144.0
279.321014 148.0
279.367584 112.0
279.396271 180.0
279.517303 88.0
279.553925 216.0
279.673737 248.0
279.883453 136.0
279.940063 76.0
280.073303 104.0
280.209869 228.0
280.306519 160.0
280.356995 136.0
280.449799 120.0
280.529816 44.0
280.592773 140.0
280.763214 244.0
280.843262 188.0
280.950012 144.0
280.986694 84.0
281.100128 160.0
281.200256 28.0
281.236969 116.0
281.334839 176.0
281.550812 156.0
281.583008 100.0
282.008545 188.0
282.088745 172.0
282.128876 152.0
282.18158 204.0
282.36908 192.0
282.423126 156.0
282.647278 168.0
282.854797 144.0
282.925079 48.0
283.095856 152.0
283.146088 108.0
283.216156 252.0
283.261139 136.0
283.310211 136.0
283.407379 200.0
283.494507 196.0
283.909668 128.0
284.231232 624.0
284.285919 148.0
284.351044 236.0
284.480591 132.0
284.504089 48.0
284.675323 224.0
284.73465 132.0
284.890289 52.0
285.088531 116.0
285.172546 176.0
285.225342 380.0
285.276764 184.0
285.30365 92.0
285.391052 128.0
285.740845 88.0
285.841797 80.0
285.939392 80.0
286.216888 276.0
286.244171 296.0
286.407379 44.0
286.643219 152.0
286.795471 204.0
286.848816 64.0
286.895996 124.0
287.201599 116.0
287.254181 172.0
287.432281 88.0
287.709045 72.0
287.81369 136.0
288.026459 156.0
288.05011 100.0
288.131195 112.0
288.227631 160.0
288.31366 124.0
288.464569 140.0
288.66861 120.0
288.780212 160.0
288.97641 52.0
289.135468 104.0
289.159149 164.0
289.247162 40.0
289.463837 120.0
289.548492 180.0
289.612854 120.0
289.731415 112.0
290.016052 120.0
290.124542 156.0
290.311035 112.0
290.333313 60.0
290.368683 116.0
290.578979 100.0
290.60614 196.0
290.640045 184.0
290.711334 148.0
290.765625 52.0
290.816528 80.0
290.904785 148.0
291.251099 236.0
291.556915 116.0
291.682678 208.0
291.750671 144.0
291.859467 184.0
291.944489 60.0
292.009094 140.0
292.141754 224.0
292.240417 112.0
292.322723 168.0
292.642548 140.0
292.740784 148.0
292.781647 128.0
292.897461 80.0
292.928131 120.0
292.958771 152.0
293.007721 212.0
293.23819 188.0
293.26886 164.0
293.45636 144.0
293.541595 216.0
293.601074 136.0
293.889526 192.0
293.954346 148.0
294.039154 184.0
294.209381 172.0
294.27475 144.0
294.361786 168.0
294.385895 176.0
294.481628 168.0
294.516388 192.0
294.736328 160.0
294.842255 156.0
294.86618 108.0
294.924286 132.0
294.957672 68.0
295.002899 36.0
295.054199 92.0
295.078125 240.0
295.180695 180.0
295.242767 156.0
295.413269 136.0
295.556976 52.0
295.676727 160.0
295.70755 36.0
295.772583 124.0
295.902649 108.0
295.97113 148.0
296.022156 120.0
296.094421 104.0
296.221313 156.0
296.426727 72.0
296.506683 144.0
296.560364 64.0
296.733856 132.0
296.785278 132.0
296.827789 124.0
296.872345 200.0
296.903229 100.0
296.978546 104.0
297.026703 204.0
297.106812 148.0
297.131165 140.0
297.172699 280.0
297.232178 18596.0
297.332062 164.0
297.37561 296.0
297.417419 92.0
297.492706 60.0
297.531158 84.0
297.571991 76.0
297.641022 192.0
297.663635 48.0
297.716583 140.0
297.776672 48.0
297.877991 96.0
297.923645 248.0
297.974304 232.0
298.022278 48.0
298.053223 68.0
298.122131 72.0
298.177063 80.0
298.23468 3660.0
298.314423 144.0
298.364258 152.0
298.373749 204.0
298.402802 164.0
298.445068 156.0
298.592926 128.0
298.641083 96.0
298.696716 84.0
298.768372 132.0
298.954163 100.0
298.995453 136.0
299.027924 148.0
299.088379 192.0
299.143463 60.0
299.245026 1064.0
299.463684 120.0
299.666931 84.0
299.73584 148.0
299.766876 120.0
299.86142 64.0
299.921967 108.0
299.963318 164.0
300.030334 100.0
300.083984 128.0
300.177063 100.0
300.230011 216.0
300.263458 480.0
300.315033 72.0
300.389832 256.0
300.417511 124.0
300.453003 140.0
300.523743 44.0
300.601379 28.0
300.639343 180.0
300.673828 156.0
300.754181 176.0
300.78714 164.0
300.945007 108.0
301.015594 132.0
301.057037 176.0
301.101929 108.0
301.270264 332.0
301.509613 56.0
301.609833 180.0
301.69281 52.0
301.720459 136.0
301.755035 156.0
301.916931 44.0
302.031708 112.0
302.083588 104.0
302.245819 172.0
302.284973 132.0
302.309326 148.0
302.388062 156.0
302.433075 40.0
302.558655 212.0
302.654633 76.0
302.723877 116.0
302.759338 188.0
303.028717 52.0
303.111847 104.0
303.250488 208.0
303.308075 272.0
303.357941 228.0
303.430725 104.0
303.461945 120.0
303.565979 132.0
303.787933 168.0
303.836517 104.0
304.006531 100.0
304.079407 72.0
304.176605 80.0
304.218262 100.0
304.280731 140.0
304.37796 128.0
304.462646 136.0
304.541199 160.0
304.603699 100.0
304.72879 124.0
304.777435 112.0
304.896515 208.0
304.994446 116.0
305.23175 468.0
305.497101 92.0
305.53537 116.0
305.613617 124.0
305.67804 172.0
305.831146 156.0
305.886841 124.0
306.227814 160.0
306.311676 44.0
306.390778 164.0
306.499817 48.0
306.579956 180.0
306.649658 88.0
306.699554 180.0
306.872772 108.0
306.956451 96.0
307.113373 132.0
307.148254 184.0
307.465759 176.0
307.523621 84.0
307.63681 132.0
307.685669 140.0
307.741547 80.0
307.989471 84.0
308.059357 84.0
308.146698 208.0
308.223572 116.0
308.248016 116.0
308.372375 124.0
308.462463 156.0
308.632202 92.0
308.67099 172.0
308.751404 120.0
308.789886 156.0
308.961273 192.0
309.038269 244.0
309.108246 160.0
309.255219 120.0
309.332245 224.0
309.624847 168.0
309.661224 100.0
309.863678 212.0
309.964508 152.0
310.057281 84.0
310.151917 188.0
310.221436 240.0
310.250061 152.0
310.347168 132.0
310.404327 104.0
310.442902 44.0
310.484985 112.0
310.569153 172.0
310.628784 112.0
310.653351 140.0
310.709473 100.0
310.849823 120.0
311.056885 48.0
311.250183 800.0
311.288605 192.0
311.497711 164.0
311.534485 40.0
311.590698 96.0
311.710144 100.0
311.741791 104.0
311.956177 168.0
312.026489 144.0
312.139008 152.0
312.221924 232.0
312.26535 2340.0
312.341034 172.0
312.391296 180.0
312.437958 32.0
312.462585 204.0
312.5224 100.0
312.571655 56.0
312.6315 360.0
312.758179 48.0
312.947632 168.0
313.032806 56.0
313.068024 104.0
313.166626 148.0
313.2724 844.0
313.318115 44.0
313.427338 124.0
313.603546 136.0
313.744537 180.0
313.86087 188.0
313.952576 48.0
313.980774 228.0
314.012512 132.0
314.072479 116.0
314.185364 132.0
314.284821 556.0
314.337067 120.0
314.393555 160.0
314.559418 88.0
314.703461 252.0
314.891327 112.0
314.934692 176.0
315.050293 108.0
315.241241 304.0
315.283508 84.0
315.375397 136.0
315.410736 84.0
315.462616 124.0
315.520538 124.0
315.594238 216.0
315.789062 156.0
315.827972 176.0
315.865387 124.0
315.934082 124.0
315.976562 112.0
316.100403 116.0
316.138123 96.0
316.260529 664.0
316.330444 204.0
316.358765 132.0
316.387085 56.0
316.433105 92.0
316.511017 136.0
316.546417 132.0
316.624329 240.0
316.652191 80.0
316.70578 144.0
316.751831 76.0
316.808502 100.0
316.840393 80.0
316.877869 132.0
317.003387 96.0
317.042358 60.0
317.127411 104.0
317.212494 184.0
317.263641 252.0
317.329498 132.0
317.381744 252.0
317.556427 48.0
317.583252 108.0
317.629303 132.0
317.886383 64.0
317.914764 84.0
317.967987 88.0
318.049622 76.0
318.113525 208.0
318.187683 104.0
318.266174 124.0
318.348846 128.0
318.479279 76.0
318.806122 196.0
318.902649 128.0
318.990936 96.0
319.225616 180.0
319.371429 196.0
319.538605 52.0
319.609772 172.0
319.641815 208.0
319.755676 136.0
319.849335 116.0
320.200714 96.0
320.232758 100.0
320.375244 104.0
320.417999 196.0
320.453644 124.0
320.731598 112.0
320.77713 192.0
320.849243 112.0
320.931244 156.0
321.020386 152.0
321.159485 100.0
321.298218 116.0
321.394928 52.0
321.537659 32.0
321.594788 132.0
321.87323 64.0
321.944672 136.0
322.069672 212.0
322.116089 156.0
322.148254 136.0
322.21756 120.0
322.269714 120.0
322.330475 120.0
322.573486 48.0
322.657715 136.0
322.780853 164.0
322.841644 112.0
322.879211 104.0
323.020477 120.0
323.149261 164.0
323.210114 196.0
323.235138 164.0
323.321045 148.0
323.406921 152.0
323.439148 172.0
323.492828 76.0
323.610138 172.0
323.65036 140.0
323.686188 124.0
323.779297 116.0
323.828156 224.0
323.969116 36.0
324.070526 168.0
324.119598 152.0
324.148285 152.0
324.212769 164.0
324.417084 104.0
324.487915 200.0
324.521057 124.0
324.571259 92.0
324.732635 144.0
324.805176 156.0
324.940674 76.0
324.96579 120.0
325.030396 136.0
325.124725 152.0
325.221558 132.0
325.256348 152.0
325.33905 104.0
325.403656 212.0
325.457428 164.0
325.522156 160.0
325.561676 132.0
325.597565 104.0
325.716095 104.0
325.892151 188.0
326.007111 104.0
326.204803 68.0
326.281342 2808.0
326.355804 128.0
326.456482 116.0
326.575165 168.0
326.657898 120.0
326.733459 256.0
326.816925 100.0
326.84137 140.0
327.078918 52.0
327.114899 224.0
327.172516 60.0
327.244293 248.0
327.287079 1904.0
327.359741 48.0
327.442566 168.0
327.474976 32.0
327.557831 84.0
327.60318 160.0
327.669495 160.0
327.755981 188.0
327.802826 76.0
327.860474 128.0
328.015472 220.0
328.104431 136.0
328.26358 584.0
328.292236 312.0
328.368835 116.0
328.404877 160.0
328.559998 112.0
328.635773 128.0
328.738159 168.0
328.805359 92.0
328.881165 132.0
328.910034 140.0
328.935303 88.0
329.011108 76.0
329.094147 124.0
329.265259 476.0
329.303558 272.0
329.357788 180.0
329.56369 160.0
329.735077 132.0
329.849213 168.0
329.993805 160.0
330.131226 252.0
330.178223 108.0
330.221649 116.0
330.2771 240.0
330.503815 152.0
330.54361 52.0
330.670258 204.0
330.75351 176.0
331.046783 148.0
331.151794 144.0
331.267731 112.0
331.340179 184.0
331.459747 92.0
331.528595 44.0
331.767822 136.0
331.887451 112.0
332.112305 140.0
332.250153 112.0
332.340851 176.0
332.467865 160.0
332.710358 104.0
332.921661 140.0
333.081451 172.0
333.335785 128.0
333.434906 160.0
333.586548 192.0
334.040985 128.0
334.077484 192.0
334.102966 80.0
334.135712 140.0
334.241211 112.0
334.363892 152.0
334.477783 148.0
334.583344 128.0
334.703125 116.0
334.739899 148.0
334.794525 120.0
334.860077 44.0
334.929291 124.0
334.99234 128.0
335.322784 156.0
335.362885 120.0
335.515991 140.0
335.559753 144.0
335.654541 72.0
335.884308 36.0
335.913483 156.0
335.979156 176.0
336.059418 264.0
336.187134 224.0
336.252808 116.0
336.451721 156.0
336.490082 44.0
336.639801 184.0
337.136627 128.0
337.176819 148.0
337.261536 252.0
337.307281 188.0
337.513153 156.0
337.695984 184.0
338.145752 164.0
338.219208 188.0
338.269775 188.0
338.321716 100.0
338.369293 140.0
338.438873 72.0
338.493805 128.0
338.673248 144.0
338.789337 128.0
338.977325 136.0
339.017639 80.0
339.161041 124.0
339.194366 204.0
339.246735 392.0
339.278259 3372.0
339.365875 148.0
339.470673 144.0
339.571228 228.0
339.835358 192.0
339.867126 128.0
339.897736 200.0
339.989471 168.0
340.024384 156.0
340.106934 80.0
340.187683 44.0
340.297638 2944.0
340.396942 80.0
340.506927 76.0
340.539307 172.0
340.69812 168.0
340.754395 64.0
340.804688 48.0
340.876221 152.0
341.010468 148.0
341.109711 152.0
341.178986 156.0
341.257294 1204.0
341.295563 688.0
341.462708 136.0
341.56131 208.0
341.62085 164.0
341.650299 32.0
341.7901 196.0
341.856354 68.0
341.889465 112.0
342.027527 188.0
342.069824 144.0
342.150787 80.0
342.179504 160.0
342.276672 3220.0
342.375427 132.0
342.404877 244.0
342.460114 200.0
342.711456 144.0
342.754852 128.0
342.792633 172.0
342.833405 76.0
342.88382 128.0
342.939117 116.0
343.049683 72.0
343.141846 132.0
343.197174 76.0
343.278503 544.0
343.376221 144.0
343.407349 164.0
343.440552 68.0
343.488495 80.0
343.665588 68.0
343.731995 76.0
343.783661 152.0
343.870941 180.0
343.971893 168.0
344.226654 168.0
344.282806 268.0
344.330048 68.0
344.466309 180.0
344.583435 128.0
344.647766 220.0
344.714264 84.0
344.854401 144.0
344.899048 104.0
345.061707 156.0
345.139343 96.0
345.176331 128.0
345.303436 108.0
345.353851 108.0
345.401947 104.0
345.73288 160.0
345.812653 188.0
345.919983 96.0
346.062256 112.0
346.160645 96.0
346.330811 144.0
346.412506 100.0
346.501404 172.0
346.582916 152.0
346.631104 280.0
346.827515 124.0
346.894257 104.0
346.923889 176.0
346.95343 120.0
347.094452 52.0
347.350342 148.0
347.641327 208.0
347.717682 120.0
347.851318 44.0
348.018372 148.0
348.096344 176.0
348.207764 188.0
348.252319 140.0
348.330322 124.0
348.360046 124.0
348.545807 140.0
348.802246 76.0
348.87796 76.0
348.988129 120.0
349.36377 40.0
349.479095 52.0
349.557251 132.0
349.583282 160.0
349.609344 144.0
349.739594 220.0
349.843842 212.0
349.868347 172.0
349.903412 40.0
349.959259 32.0
350.082123 164.0
350.45462 92.0
350.488159 152.0
350.551514 176.0
350.599945 120.0
350.670776 180.0
350.752869 124.0
350.808685 80.0
351.145935 132.0
351.278595 424.0
351.480011 64.0
351.506134 108.0
351.539703 100.0
351.606903 136.0
351.774841 96.0
352.010071 80.0
352.125854 36.0
352.151978 120.0
352.200531 48.0
352.282806 164.0
352.335022 112.0
352.47699 96.0
352.525574 116.0
352.675079 100.0
352.746094 40.0
352.813965 132.0
352.860168 248.0
353.087555 112.0
353.127472 100.0
353.16864 76.0
353.293518 996.0
353.449219 160.0
353.524048 60.0
353.613586 164.0
353.782318 72.0
353.924591 52.0
353.995728 64.0
354.123077 104.0
354.292999 360.0
354.338837 156.0
354.376495 276.0
354.523926 152.0
354.580139 192.0
354.760071 176.0
354.786316 52.0
354.818848 160.0
354.906281 124.0
355.097534 132.0
355.127533 164.0
355.225067 112.0
355.272461 224.0
355.29715 168.0
355.34137 56.0
355.469788 88.0
355.517731 76.0
355.709137 132.0
355.953186 52.0
355.990723 164.0
356.110901 164.0
356.197296 156.0
356.293976 1496.0
356.381378 140.0
356.430389 100.0
356.49411 108.0
356.623962 132.0
356.650024 140.0
356.727142 168.0
356.757233 56.0
356.799133 136.0
356.832428 48.0
357.152069 64.0
357.219757 52.0
357.30191 1768.0
357.37027 136.0
357.490662 216.0
357.532074 132.0
357.622314 188.0
357.660034 84.0
357.686371 172.0
357.735321 44.0
357.885895 64.0
357.931091 200.0
357.981171 188.0
358.141998 176.0
358.175903 44.0
358.202911 116.0
358.243683 72.0
358.306396 472.0
358.365265 192.0
358.429962 172.0
358.512146 204.0
358.587982 108.0
358.646881 132.0
358.689026 184.0
358.967346 108.0
359.035248 72.0
359.186096 200.0
359.294647 212.0
359.357697 164.0
359.408691 36.0
359.469055 100.0
359.495483 56.0
359.536987 132.0
359.627563 132.0
359.672852 256.0
359.744598 168.0
359.797424 160.0
359.955078 144.0
360.046661 144.0
360.227966 172.0
360.269501 124.0
360.33374 116.0
360.530212 116.0
360.617157 104.0
360.719208 204.0
360.798584 76.0
360.82843 148.0
361.222137 132.0
361.290222 36.0
361.581573 72.0
361.679993 96.0
361.710266 84.0
361.782196 100.0
361.933655 100.0
361.98288 156.0
362.191162 128.0
362.263153 188.0
362.410889 88.0
362.501831 76.0
362.583618 160.0
362.638275 140.0
362.679962 164.0
362.846771 148.0
362.921051 296.0
363.176666 152.0
363.275635 128.0
363.438446 140.0
363.544678 40.0
363.586426 116.0
363.692719 152.0
363.863525 88.0
363.890106 128.0
363.943268 136.0
364.05719 132.0
364.09137 164.0
364.128418 116.0
364.15683 116.0
364.266083 144.0
364.31546 96.0
364.395233 156.0
364.440826 60.0
364.581451 176.0
364.847504 76.0
364.893127 140.0
364.957764 100.0
365.056427 152.0
365.140289 140.0
365.227783 148.0
365.293793 628.0
365.429413 48.0
365.459839 172.0
365.87088 132.0
366.114563 76.0
366.148865 120.0
366.298218 132.0
366.413696 136.0
366.465027 224.0
366.503113 104.0
366.55542 144.0
366.609833 96.0
366.642517 132.0
366.926178 228.0
367.044403 176.0
367.120667 136.0
367.278412 512.0
367.523438 344.0
367.635651 36.0
367.692902 52.0
367.742523 160.0
367.961823 136.0
368.051758 140.0
368.293549 316.0
368.306915 64.0
368.387848 104.0
368.441803 160.0
368.620911 132.0
368.766113 88.0
368.884613 116.0
368.987823 44.0
369.014587 52.0
369.106354 84.0
369.209625 148.0
369.266998 152.0
369.285156 128.0
369.328186 64.0
369.374084 192.0
369.403564 232.0
369.610413 124.0
369.687805 156.0
369.787323 52.0
369.837067 52.0
369.875366 32.0
369.965729 152.0
370.028473 108.0
370.078247 136.0
370.112732 104.0
370.143341 136.0
370.206573 156.0
370.308228 12160.0
370.420685 168.0
370.524231 168.0
370.633636 104.0
370.683472 148.0
370.783112 248.0
370.975861 124.0
371.135773 108.0
371.162628 104.0
371.313599 3244.0
371.400391 140.0
371.466522 168.0
371.505432 104.0
371.565338 60.0
371.633911 188.0
371.760315 96.0
371.937592 76.0
371.975952 96.0
372.014343 108.0
372.081909 188.0
372.11261 64.0
372.152557 160.0
372.225525 124.0
372.315979 616.0
372.37619 68.0
372.425232 84.0
372.455963 160.0
372.491425 104.0
372.528931 48.0
372.583282 144.0
372.616058 160.0
372.7164 136.0
372.797882 152.0
372.824799 176.0
372.865143 132.0
373.054321 168.0
373.093842 64.0
373.193817 52.0
373.23996 116.0
373.266693 80.0
373.3284 176.0
373.367828 112.0
373.420715 88.0
373.447632 140.0
373.616882 72.0
373.658081 68.0
373.700226 132.0
373.759247 140.0
373.816956 96.0
373.843903 120.0
373.984894 200.0
374.026917 88.0
374.240387 140.0
374.339386 152.0
374.448334 52.0
374.509949 212.0
374.567719 152.0
374.6409 64.0
374.683289 92.0
374.845123 84.0
374.901184 132.0
375.461914 256.0
375.593048 216.0
375.7435 72.0
375.801392 84.0
375.836121 208.0
375.994324 52.0
376.125549 120.0
376.202759 96.0
376.229767 92.0
376.29541 72.0
376.461456 124.0
376.565735 172.0
376.751129 92.0
376.820679 96.0
376.97522 152.0
377.137543 320.0
377.28244 256.0
377.481628 100.0
377.547363 176.0
377.756226 164.0
377.903259 184.0
377.99472 132.0
378.243805 124.0
378.305603 116.0
378.410278 212.0
378.50412 116.0
378.70459 232.0
378.785919 140.0
378.882782 208.0
378.909882 56.0
379.014496 128.0
379.181152 56.0
379.243164 44.0
379.48349 44.0
379.747192 128.0
379.987701 144.0
380.061432 168.0
380.216644 176.0
380.251587 108.0
380.309784 72.0
380.492249 60.0
380.604828 124.0
380.635132 140.0
380.845612 124.0
381.113678 152.0
381.164185 132.0
381.29007 2496.0
381.364075 184.0
381.525665 60.0
381.564545 72.0
381.73172 72.0
381.805603 96.0
382.12146 164.0
382.208618 180.0
382.249084 52.0
382.291473 816.0
382.385315 36.0
382.435913 108.0
382.794067 140.0
382.914795 108.0
382.977112 148.0
383.082275 104.0
383.301117 96.0
383.631744 60.0
383.713623 148.0
383.838409 92.0
383.97879 92.0
384.037292 112.0
384.154297 120.0
384.247955 120.0
384.279144 72.0
384.31427 112.0
384.368896 156.0
384.431335 116.0
384.534119 224.0
384.829468 116.0
385.097382 140.0
385.141907 116.0
385.266907 76.0
385.481781 216.0
385.557495 176.0
385.771027 240.0
385.81012 136.0
386.017334 132.0
386.056458 148.0
386.220703 96.0
386.252014 132.0
386.291107 124.0
386.381104 224.0
386.478912 144.0
386.752594 116.0
386.799164 140.0
386.809937 116.0
386.87027 108.0
386.975983 140.0
387.02298 116.0
387.077789 116.0
387.207031 184.0
387.254028 108.0
387.293182 96.0
387.328461 56.0
387.38913 116.0
387.414612 232.0
387.442047 92.0
387.492981 208.0
387.538025 116.0
387.567413 144.0
387.675049 112.0
387.888794 176.0
388.096588 100.0
388.155396 140.0
388.315735 104.0
388.516235 144.0
388.590759 168.0
388.688873 120.0
388.754364 168.0
389.005585 184.0
389.155945 80.0
389.222717 152.0
389.283386 132.0
389.422974 128.0
389.47406 76.0
389.627258 40.0
389.69455 192.0
389.925903 112.0
389.963196 212.0
390.008423 136.0
390.29184 176.0
390.464508 124.0
390.67691 140.0
390.842163 172.0
391.156006 264.0
391.243622 148.0
391.298431 108.0
391.377472 144.0
391.432617 60.0
391.471985 88.0
391.546814 124.0
391.633453 128.0
391.664978 136.0
391.704346 124.0
391.73587 104.0
391.905273 44.0
392.029114 200.0
392.081055 92.0
392.303345 116.0
392.334869 112.0
392.53595 164.0
392.914612 172.0
393.020569 164.0
393.167145 148.0
393.278717 184.0
393.325409 3352.0
393.400024 128.0
393.461761 132.0
393.518463 56.0
393.830933 160.0
394.009216 200.0
394.051666 128.0
394.166229 112.0
394.3302 1160.0
394.387543 36.0
394.450806 108.0
394.490326 120.0
394.554413 136.0
394.601013 60.0
394.671783 168.0
394.723602 72.0
394.873871 104.0
394.952972 152.0
395.008362 120.0
395.039093 52.0
395.110931 172.0
395.160706 308.0
395.234253 164.0
395.304932 13264.0
395.43692 312.0
395.489746 128.0
395.551239 152.0
395.631409 116.0
395.647339 68.0
395.714478 104.0
395.819702 120.0
395.918701 92.0
395.960754 188.0
395.998077 188.0
396.107666 152.0
396.152374 36.0
396.207855 148.0
396.30545 3496.0
396.364899 176.0
396.4552 56.0
396.513458 220.0
396.604126 44.0
396.691315 116.0
396.754761 132.0
396.789276 192.0
396.849915 120.0
396.880585 148.0
397.174255 172.0
397.238556 44.0
397.305115 268.0
397.413116 120.0
397.472656 108.0
397.506775 48.0
397.555969 116.0
397.706787 148.0
397.76236 68.0
398.016449 108.0
398.151459 164.0
398.309601 192.0
398.42157 56.0
398.564606 60.0
398.654999 96.0
398.69574 148.0
398.822937 52.0
398.870636 76.0
398.975952 152.0
399.315948 140.0
399.343781 44.0
399.427307 44.0
399.506866 68.0
399.590424 96.0
399.650116 212.0
399.697845 136.0
399.76416 224.0
399.991608 168.0
400.29892 116.0
400.337646 160.0
400.430359 144.0
400.482117 164.0
400.532501 124.0
400.629517 132.0
400.65741 40.0
400.685272 132.0
400.922607 100.0
400.956238 116.0
401.008057 124.0
401.063873 296.0
401.107697 68.0
401.159515 148.0
401.215332 136.0
401.564606 184.0
402.140778 156.0
402.45282 72.0
402.541748 128.0
402.719879 100.0
402.915466 64.0
403.135223 132.0
403.62027 128.0
403.72287 160.0
403.830872 188.0
404.032379 144.0
404.328003 168.0
404.358978 156.0
404.47406 128.0
404.539124 128.0
404.863434 196.0
404.987579 148.0
405.027649 208.0
405.312073 172.0
405.616669 96.0
405.662628 112.0
405.760986 244.0
405.869263 140.0
406.121887 96.0
406.162018 200.0
406.503021 104.0
406.587311 136.0
406.643707 76.0
406.739838 120.0
406.876312 40.0
407.149353 124.0
407.187744 156.0
407.245239 156.0
407.499664 76.0
407.54303 160.0
407.603302 192.0
407.730225 192.0
407.798065 172.0
407.84845 104.0
407.952972 148.0
407.999146 172.0
408.101715 148.0
408.270599 100.0
408.371155 140.0
408.407349 160.0
408.435516 136.0
408.532043 48.0
408.674438 184.0
408.7453 116.0
408.898224 88.0
408.960602 104.0
409.079346 152.0
409.151794 112.0
409.320923 3992.0
409.598816 52.0
409.649414 164.0
409.740967 124.0
409.866394 144.0
409.896942 192.0
409.949341 48.0
410.06015 96.0
410.126648 100.0
410.173492 168.0
410.25177 108.0
410.324219 2520.0
410.383118 312.0
410.425415 220.0
410.477417 100.0
410.541931 68.0
410.871033 128.0
410.913025 176.0
410.944122 124.0
410.989685 180.0
411.066345 172.0
411.118805 128.0
411.151093 88.0
411.326263 676.0
411.409424 88.0
411.583038 128.0
411.643616 48.0
411.688019 72.0
411.843231 112.0
411.9021 76.0
411.966888 104.0
412.140442 84.0
412.340179 248.0
412.459717 100.0
412.670502 144.0
412.912567 64.0
413.009644 152.0
413.066589 52.0
413.130981 136.0
413.163361 104.0
413.313629 160.0
413.361603 120.0
413.398041 168.0
413.450653 184.0
413.515381 172.0
413.847351 112.0
413.944397 136.0
413.993103 124.0
414.098419 192.0
414.171326 84.0
414.215881 84.0
414.289856 124.0
414.337402 132.0
414.384766 88.0
414.410339 124.0
414.446808 208.0
414.491364 48.0
414.716125 88.0
414.754791 100.0
414.872345 176.0
414.921021 116.0
415.062927 216.0
415.249451 92.0
415.407654 128.0
415.444153 44.0
415.492859 132.0
415.569946 156.0
415.675446 104.0
415.79718 120.0
415.862122 124.0
416.069153 168.0
416.178772 120.0
416.227478 144.0
416.357422 140.0
416.426483 156.0
416.469391 120.0
416.62146 140.0
416.840851 180.0
416.970917 164.0
417.092834 144.0
417.129425 192.0
417.231049 116.0
417.267639 60.0
417.300171 120.0
417.934662 108.0
418.023804 140.0
418.182922 104.0
418.349792 176.0
418.45871 176.0
418.57373 108.0
418.626678 140.0
419.02771 140.0
419.070679 52.0
419.233673 164.0
419.291077 176.0
419.474121 148.0
419.645355 76.0
419.763611 180.0
419.857391 160.0
419.894104 92.0
419.967529 152.0
420.004242 132.0
420.359161 112.0
420.428558 108.0
420.499512 156.0
420.534668 60.0
420.563232 72.0
420.661194 120.0
420.865326 152.0
420.95108 112.0
421.004181 152.0
421.245148 180.0
421.379974 80.0
421.535217 60.0
421.572021 184.0
421.670105 76.0
421.706879 80.0
421.887787 200.0
421.954742 88.0
422.102295 144.0
422.283386 172.0
422.361084 184.0
422.467438 104.0
422.688385 136.0
422.864349 80.0
422.905273 88.0
422.974854 140.0
423.032166 124.0
423.212311 140.0
423.32605 88.0
423.537292 112.0
423.597565 120.0
423.686432 136.0
423.82373 168.0
423.879974 60.0
424.031616 40.0
424.1828 68.0
424.198578 60.0
424.209778 112.0
424.277802 196.0
424.332947 112.0
424.397217 148.0
424.43692 92.0
424.453644 80.0
424.508392 116.0
424.542084 132.0
424.706024 204.0
424.746796 124.0
424.81958 96.0
424.868103 96.0
424.905029 60.0
425.008545 160.0
425.094025 64.0
425.232849 140.0
425.24231 164.0
425.323608 392.0
425.406219 64.0
425.44516 112.0
425.516541 260.0
425.605103 148.0
425.649384 204.0
425.666412 120.0
425.729736 100.0
425.808319 328.0
425.864441 112.0
425.89444 236.0
425.964905 288.0
426.023804 124.0
426.069855 280.0
426.122253 92.0
426.170837 436.0
426.201752 172.0
426.234497 160.0
426.321625 276.0
426.353485 264.0
426.388184 444.0
426.45816 256.0
426.47641 116.0
426.484619 276.0
426.535614 196.0
426.571869 200.0
426.613464 152.0
426.631226 268.0
426.69693 480.0
426.736633 204.0
426.798065 100.0
426.850647 428.0
426.897797 204.0
426.954956 216.0
426.990723 140.0
427.035858 220.0
427.078064 488.0
427.096588 448.0
427.160767 612.0
427.213257 532.0
427.270264 852.0
427.332336 237300.0
427.486389 396.0
427.540527 236.0
427.554993 228.0
427.569122 272.0
427.585358 232.0
427.596039 228.0
427.611298 236.0
427.648438 332.0
427.701843 520.0
427.729706 444.0
427.788361 424.0
427.828003 284.0
427.896332 320.0
427.961456 248.0
428.011566 1420.0
428.048157 476.0
428.117462 212.0
428.187286 396.0
428.250671 396.0
428.334259 84748.0
428.440582 336.0
428.509125 76.0
428.578949 60.0
428.589813 176.0
428.617126 320.0
428.659943 232.0
428.715118 160.0
428.77005 112.0
428.812683 240.0
428.844666 296.0
428.898499 164.0
428.957336 232.0
429.019135 140.0
429.109528 68.0
429.15567 188.0
429.218811 204.0
429.234619 184.0
429.267059 384.0
429.282806 184.0
429.33728 13300.0
429.47049 112.0
429.494934 128.0
429.534332 100.0
429.582703 100.0
429.638702 156.0
429.72522 184.0
429.757629 84.0
429.814575 124.0
429.868256 144.0
429.881714 80.0
429.899139 108.0
429.944824 76.0
429.976013 116.0
430.014038 64.0
430.055756 132.0
430.108978 196.0
430.182678 140.0
430.248474 68.0
430.340271 1480.0
430.502045 52.0
430.609955 132.0
430.66214 200.0
430.737335 108.0
430.754944 120.0
430.767944 220.0
430.781616 176.0
430.810242 192.0
430.82605 128.0
430.83963 100.0
430.866669 320.0
430.915436 396.0
430.928925 184.0
430.943207 104.0
430.996429 416.0
431.056458 184.0
431.121613 268.0
431.15033 256.0
431.209473 120.0
431.24295 140.0
431.272614 120.0
431.311005 92.0
431.343719 208.0
431.390442 100.0
431.424561 68.0
431.471191 76.0
431.554413 324.0
431.618866 116.0
431.685974 160.0
431.744934 116.0
431.850037 60.0
431.922638 132.0
431.956696 108.0
432.028961 196.0
432.081848 148.0
432.09491 92.0
432.108582 120.0
432.186981 116.0
432.235229 264.0
432.268158 184.0
432.320709 188.0
432.390778 60.0
432.433685 80.0
432.513855 176.0
432.621735 84.0
432.661377 148.0
432.759857 116.0
432.800995 44.0
432.855194 108.0
432.971436 136.0
433.009186 28.0
433.057312 112.0
433.165344 132.0
433.227509 68.0
433.284515 60.0
433.332031 128.0
433.408844 84.0
433.478943 116.0
433.535339 36.0
433.580933 60.0
433.622375 104.0
433.655518 76.0
433.685272 156.0
433.755005 72.0
433.799622 184.0
433.957184 140.0
434.028625 36.0
434.237823 60.0
434.364563 108.0
434.43924 68.0
434.542938 192.0
434.663269 40.0
434.698547 56.0
434.732941 56.0
434.850037 28.0
434.924744 120.0
434.953796 200.0
434.999451 76.0
435.123993 72.0
435.163452 128.0
435.276306 100.0
435.348206 116.0
435.39389 76.0
435.496765 52.0
435.539276 184.0
435.697113 104.0
435.800995 40.0
435.859161 92.0
436.054474 48.0
436.133453 52.0
436.266479 76.0
436.407837 76.0
436.453552 36.0
436.507629 192.0
436.578308 40.0
436.790436 28.0
436.852386 116.0
436.948517 116.0
437.102448 84.0
437.164886 84.0
437.196014 92.0
437.246735 96.0
437.282776 160.0
437.327179 64.0
437.706024 88.0
437.822632 40.0
437.851776 44.0
437.893433 164.0
438.030884 52.0
438.085052 116.0
438.130859 140.0
438.180878 64.0
438.347534 92.0
438.62677 72.0
438.693481 48.0
439.060394 64.0
439.143799 84.0
439.223053 52.0
439.264771 60.0
439.435822 52.0
439.479065 88.0
439.548462 92.0
439.669495 116.0
439.76828 240.0
439.919922 172.0
439.96167 100.0
439.999237 52.0
440.053528 64.0
440.124512 88.0
440.244629 120.0
440.362549 188.0
440.450256 136.0
440.496216 148.0
440.537964 64.0
440.604828 76.0
440.759399 220.0
440.99762 36.0
441.244263 116.0
441.27771 48.0
441.570404 60.0
441.709381 72.0
441.980377 112.0
442.128906 212.0
442.210541 108.0
442.300018 160.0
442.377991 68.0
442.453339 124.0
442.511963 124.0
442.557892 132.0
442.714264 144.0
442.968445 112.0
443.018707 92.0
443.096619 160.0
443.322632 96.0
443.395813 60.0
443.445099 84.0
443.525757 224.0
443.594055 84.0
443.655701 64.0
443.72644 112.0
443.78775 64.0
443.924042 192.0
443.99881 164.0
444.037262 228.0
444.125336 96.0
444.183655 80.0
444.221832 144.0
444.256897 172.0
444.337494 216.0
444.349701 124.0
444.368103 80.0
444.456909 132.0
444.52832 148.0
444.577515 72.0
444.604401 104.0
444.684631 108.0
444.729553 220.0
444.809296 84.0
444.845825 232.0
444.875458 200.0
444.904449 156.0
444.974091 188.0
445.036102 208.0
445.095703 96.0
445.151154 320.0
445.223663 232.0
445.25589 448.0
445.34259 62216.0
445.461853 88.0
445.502045 192.0
445.587616 72.0
445.598633 164.0
445.618103 116.0
445.707886 220.0
445.791412 72.0
445.843048 88.0
445.898773 160.0
445.950745 112.0
446.034485 120.0
446.113831 124.0
446.144531 120.0
446.188354 184.0
446.242401 184.0
446.34494 20692.0
446.46701 96.0
446.516937 180.0
446.565674 48.0
446.637177 40.0
446.680603 72.0
446.728394 116.0
446.804688 180.0
446.86969 116.0
446.916016 56.0
446.95166 196.0
446.958282 196.0
446.99527 152.0
447.022614 84.0
447.059174 92.0
447.076416 80.0
447.111908 128.0
447.169952 64.0
447.208313 76.0
447.223907 96.0
447.257446 120.0
447.349152 2912.0
447.434479 60.0
447.481781 68.0
447.509125 112.0
447.546204 48.0
447.678986 64.0
447.758667 96.0
447.894135 168.0
448.001038 84.0
448.093719 80.0
448.246735 128.0
448.287567 60.0
448.347504 324.0
448.50882 72.0
448.558868 68.0
448.641602 120.0
448.703369 104.0
448.804047 100.0
448.883636 240.0
449.001007 324.0
449.052155 132.0
449.185608 36.0
449.253082 36.0
449.319458 44.0
449.358582 160.0
449.461151 96.0
449.51123 44.0
449.586426 48.0
449.635529 76.0
449.731323 96.0
449.841248 96.0
449.957886 128.0
449.991669 36.0
450.042145 100.0
450.08255 76.0
450.1521 292.0
450.223907 96.0
450.25769 100.0
450.326813 108.0
450.439301 80.0
450.481537 72.0
450.51535 68.0
450.595612 60.0
450.925201 36.0
450.984375 124.0
451.119659 96.0
451.191528 96.0
451.834351 68.0
452.130554 88.0
452.172882 116.0
452.291382 36.0
452.409912 56.0
452.515747 60.0
452.553864 96.0
452.621613 60.0
452.66394 64.0
453.03244 120.0
453.070557 60.0
453.252747 68.0
453.39682 116.0
453.430725 84.0
453.55365 116.0
453.702026 64.0
454.257568 76.0
454.376343 60.0
454.711578 100.0
454.945007 72.0
455.114838 64.0
455.709473 124.0
455.781708 40.0
456.202484 44.0
456.368286 40.0
456.478851 44.0
456.899933 72.0
457.465942 108.0
457.964142 72.0
458.249542 96.0
458.330505 48.0
458.360321 144.0
458.475403 104.0
458.662933 36.0
459.306793 100.0
460.143219 100.0
460.775299 96.0
461.100067 92.0
461.9039 56.0
462.113525 100.0
462.365997 96.0
462.609955 60.0
462.759796 200.0
462.871124 60.0
463.050995 28.0
463.26944 124.0
463.445099 72.0
463.933685 68.0
464.589844 108.0
464.73999 112.0
465.147705 72.0
465.229248 68.0
466.268738 36.0
466.986725 56.0
467.942047 68.0
468.411469 76.0
469.027649 92.0
469.376862 48.0
469.720673 28.0
470.382111 64.0
470.485718 100.0
470.714569 56.0
473.144501 32.0
475.033966 32.0
475.658844 48.0
476.101685 84.0
476.192902 36.0
478.689178 76.0
481.19635 72.0
482.515778 68.0
484.428223 76.0
485.168854 48.0
486.047729 52.0
486.107483 96.0
487.772034 116.0
488.000641 100.0
488.625183 96.0
489.694855 36.0
491.683258 84.0
492.557465 84.0
494.272858 48.0
494.45871 100.0
495.871521 136.0
497.037842 108.0
497.348511 68.0
500.46933 100.0
501.890717 52.0
502.350098 56.0
503.398956 124.0
503.617798 56.0
506.189331 56.0
506.807465 40.0
507.430481 44.0
509.044037 104.0
510.258972 60.0
514.995117 92.0
516.626953 120.0
516.89386 68.0
517.758545 128.0
518.030273 44.0
519.353882 36.0
522.310913 40.0
523.867737 104.0
526.84668 36.0
527.257874 72.0
527.664734 120.0
527.907043 40.0
528.277527 32.0
530.342712 116.0
531.746216 64.0
532.77478 112.0
533.367554 56.0
534.558716 76.0
535.088074 60.0
535.603821 108.0
535.806519 96.0
537.697083 128.0
539.568542 116.0
540.826111 68.0
541.164062 44.0
542.836792 36.0
544.354248 84.0
545.241577 56.0
546.338928 76.0
546.604126 100.0
550.32373 148.0
550.865479 100.0
552.543762 40.0
553.189575 72.0
554.154358 44.0
556.823486 136.0
558.435547 100.0
558.929565 84.0
559.277771 48.0
560.761475 44.0
561.19043 48.0
566.4552 56.0
566.583069 64.0
568.157043 116.0
568.887878 96.0
569.073059 72.0
569.419678 104.0
570.170349 112.0
571.573181 52.0
571.711182 64.0
571.963989 72.0
572.177673 76.0
572.401428 48.0
573.335144 72.0
574.250549 64.0
574.636902 64.0
575.476929 104.0
576.523071 56.0
576.924561 80.0
578.977234 64.0
579.034729 44.0
579.250244 72.0
581.043213 64.0
584.902039 68.0
585.932617 80.0
586.062683 56.0
586.337402 120.0
587.402954 128.0
588.295715 92.0
588.585388 100.0
590.19928 68.0
592.377136 56.0
593.816711 124.0
594.34552 116.0
595.534912 40.0
596.511597 84.0
597.51825 124.0
598.058411 88.0
598.165466 44.0
599.193054 60.0
599.846069 48.0
600.036194 96.0
601.328857 88.0
602.393311 84.0
604.970459 88.0
605.420898 160.0
606.292908 96.0
607.695374 96.0
607.911255 80.0
608.549377 44.0
610.544434 124.0
611.164246 68.0
611.666199 52.0
617.176941 56.0
617.335144 88.0
618.230591 48.0
621.056824 88.0
622.176086 120.0
623.333313 64.0
623.88501 92.0
623.924805 100.0
624.815002 36.0
625.387268 88.0
630.074707 48.0
631.049316 88.0
631.229309 76.0
631.874573 64.0
632.475037 56.0
633.090881 76.0
633.135986 128.0
633.546692 104.0
633.681946 108.0
634.283325 68.0
634.599182 80.0
634.950195 44.0
635.366516 40.0
636.114258 40.0
636.505859 124.0
638.254517 80.0
638.722229 60.0
639.139771 128.0
639.481995 84.0
640.710632 64.0
641.080505 100.0
643.317932 120.0
645.005127 32.0
648.49762 96.0
649.597961 92.0
649.679138 108.0
650.369263 76.0
650.68396 64.0
651.745483 76.0
652.233398 100.0
653.922058 56.0
655.617981 108.0
656.326538 104.0
658.566895 80.0
661.537781 32.0
664.063965 84.0
665.96814 96.0
666.302063 76.0
667.983093 76.0
668.528503 60.0
668.976257 44.0
670.27417 108.0
672.682739 52.0
673.183533 104.0
674.128906 56.0
677.088013 96.0
679.897949 100.0
681.460938 104.0
682.219727 84.0
684.389221 84.0
684.951721 60.0
688.018005 60.0
688.096313 76.0
689.574646 56.0
689.611206 32.0
689.977112 60.0
690.34314 72.0
693.400513 36.0
695.424988 104.0
696.060242 104.0
697.047791 68.0
697.505005 48.0
699.098633 56.0
699.719788 124.0
704.070007 196.0
704.165039 72.0
704.360474 68.0
704.635193 76.0
704.894104 44.0
708.423096 40.0
708.963562 60.0
709.477661 120.0
710.045044 108.0
711.19635 80.0
711.483032 72.0
715.837646 80.0
716.988342 64.0
719.025635 80.0
719.100342 148.0
721.226135 76.0
722.948303 76.0
723.933289 96.0
725.926819 60.0
727.418335 76.0
727.705444 64.0
730.432922 80.0
730.884827 68.0
731.23999 84.0
733.286621 72.0
734.106079 84.0
735.114868 48.0
740.347778 52.0
740.9599 76.0
743.812378 40.0
744.876648 48.0
746.289673 96.0
746.800842 92.0
748.302795 96.0
748.575012 76.0
750.896606 80.0
751.314636 120.0
753.6698 160.0
753.89386 40.0
756.979126 28.0
757.242004 64.0
758.058289 76.0
758.195312 108.0
759.264343 44.0
759.527649 84.0
760.652527 80.0
761.943054 40.0
764.703491 52.0
764.973206 64.0
766.256409 48.0
766.300476 172.0
766.91217 80.0
772.384094 76.0
775.207703 92.0
775.512512 88.0
777.159546 44.0
777.320496 64.0
778.09198 48.0
779.841797 36.0
780.15863 52.0
780.403259 64.0
781.938599 72.0
782.573181 68.0
783.770752 72.0
784.183105 32.0
784.790771 56.0
785.114197 40.0
787.123108 60.0
787.888306 60.0
788.122986 116.0
789.173767 152.0
789.470154 96.0
789.867249 84.0
791.613464 44.0
792.268799 56.0
792.717041 104.0
792.823486 32.0
795.70105 160.0
796.071594 124.0
796.633301 68.0
796.857971 36.0
796.964783 64.0
797.155823 52.0
799.568359 48.0
800.243835 40.0
801.35907 88.0
803.399963 128.0
804.41571 60.0
804.686707 56.0
805.18927 68.0
807.964661 104.0
808.666321 40.0
811.731262 64.0
812.048828 120.0
812.304077 64.0
814.245239 84.0
814.569031 64.0
819.774963 112.0
820.282227 96.0
820.367737 180.0
822.860779 128.0
823.289062 96.0
829.038452 128.0
831.361023 88.0
831.584839 52.0
834.043152 72.0
836.292114 80.0
836.71814 100.0
837.558899 96.0
837.610718 112.0
840.622742 104.0
844.645386 64.0
848.022888 60.0
848.892517 72.0
850.099121 76.0
850.261597 124.0
850.749207 92.0
852.340576 124.0
854.177734 36.0
854.59082 124.0
855.315063 68.0
859.25769 52.0
859.987122 96.0
861.283325 76.0
863.465027 176.0
864.036682 32.0
864.124451 104.0
865.025696 124.0
865.816162 108.0
867.597412 68.0
867.955078 40.0
868.852417 48.0
879.786987 40.0
880.773132 132.0
881.960815 76.0
885.345032 52.0
885.730042 60.0
886.014343 52.0
889.542908 48.0
902.064453 52.0
903.140747 156.0
903.870667 184.0
906.577332 92.0
907.644348 64.0
909.33606 56.0
910.146484 44.0
913.638489 60.0
914.854126 204.0
915.919983 76.0
917.516907 44.0
920.304321 88.0
925.328674 52.0
928.346191 112.0
930.819946 172.0
931.611633 68.0
932.049072 52.0
932.231384 60.0
941.252991 36.0
945.489441 96.0
954.046082 100.0
954.537964 72.0
959.895264 68.0
960.888306 68.0
962.375732 76.0
966.640808 96.0
968.752075 52.0
971.529358 84.0
972.447693 56.0
973.155396 56.0
974.789001 60.0
985.606506 64.0
985.650269 64.0
986.944153 80.0
987.732117 108.0
988.170044 144.0
989.315308 116.0
989.834961 100.0
994.44281 64.0
996.703613 120.0
998.488953 84.0
998.746826 80.0
1000.08075 48.0
1001.434448 44.0
1002.593689 88.0
1006.176453 100.0
1007.186829 84.0
1008.046082 60.0
1008.488464 108.0
1012.043762 52.0
1012.442688 68.0
1012.607361 144.0
1012.727722 40.0
1014.197693 76.0
1017.331299 96.0
1029.677734 188.0
1029.843872 28.0
1030.437988 112.0
1041.732544 104.0
1041.854614 80.0
1045.011353 168.0
1047.515625 32.0
1053.159668 120.0
1055.660889 152.0
1057.582397 40.0
1065.298828 248.0
1067.983398 120.0
1070.235107 64.0
1077.089233 160.0
1084.673218 164.0
1085.400879 128.0
1086.017456 44.0
1088.662354 144.0
1095.153564 60.0
1098.838623 76.0
1100.554688 260.0
1103.6073 132.0
1103.666748 60.0
1105.135132 140.0
1110.852539 148.0
1112.405396 100.0
1113.68689 168.0
1117.842041 64.0
1119.493042 184.0
1121.105103 96.0
1125.527832 152.0
1126.877075 212.0
1128.641602 116.0
1130.166626 40.0
1132.858032 104.0
1133.776001 48.0
1140.178467 120.0
1141.348145 164.0
1143.29895 116.0
1145.042603 88.0
1149.222046 128.0
1149.957642 108.0
1154.680298 112.0
1155.255249 52.0
1160.036133 108.0
1162.477905 64.0
1164.371948 120.0
1165.153076 132.0
1169.6073 148.0
1170.13147 196.0
1173.251709 92.0
1177.598389 48.0
1179.244995 128.0
1179.682495 152.0
1181.761597 52.0
1182.439087 204.0
1183.376831 72.0
1187.392456 100.0
1199.685181 84.0
1213.576294 128.0
1219.053101 224.0
1221.973511 40.0
1225.092407 180.0
1225.23877 136.0
1227.496948 164.0
1239.274902 100.0
1241.533447 84.0
1244.865479 116.0
1248.498657 60.0
1254.518799 228.0
1255.371948 80.0
1264.811035 164.0
1268.96228 108.0
1272.56665 56.0
1274.150391 132.0
1279.648071 224.0
1282.219604 140.0
1282.75415 80.0
1288.677612 40.0
1289.02771 60.0
1289.429077 152.0
1290.800537 152.0
1292.231079 208.0
1293.247192 144.0
1301.994141 116.0
1303.006958 40.0
1304.372437 208.0
1304.638306 92.0
1306.119751 88.0
1311.419189 48.0
1312.889893 172.0
1315.696777 140.0
1316.064941 112.0
1319.663208 144.0
1321.312256 132.0
1324.142456 240.0
1324.627808 216.0
1328.709229 72.0
1330.581665 64.0
1334.788574 64.0
1339.060425 32.0
1341.464966 204.0
1347.266602 180.0
1348.157959 180.0
1348.311401 128.0
1348.362549 168.0
1352.831787 44.0
1352.890259 116.0
1353.908081 44.0
1365.069946 172.0
1365.893677 100.0
1366.158569 224.0
1368.381104 164.0
1369.441528 44.0
1369.949707 176.0
1373.406982 36.0
1373.69458 36.0
1377.97644 64.0
1378.929688 36.0
1384.182251 140.0
1385.530273 144.0
1386.226685 44.0
1388.220825 56.0
1394.21167 224.0
1395.148315 172.0
1395.631592 200.0
1398.46582 124.0
1399.813354 56.0
1401.444702 60.0
1405.180054 144.0
1406.403931 176.0
1406.769653 156.0
1410.056152 140.0
1410.138428 56.0
1414.813477 124.0
1416.423584 224.0
1418.319336 192.0
1420.081299 200.0
1421.709351 56.0
1422.039551 100.0
1426.403564 44.0
1427.283203 164.0
1427.749512 208.0
1428.15564 156.0
1433.553711 64.0
1436.003906 80.0
1437.942871 32.0
1438.184448 96.0
1440.691406 40.0
1442.730103 212.0
1446.067627 36.0
1446.80188 196.0
1446.862549 152.0
1447.468262 28.0
1450.324341 92.0
1454.352051 148.0
1457.78479 92.0
1458.012817 132.0
1458.636108 204.0
1459.441895 128.0
1459.83728 72.0
1460.111084 92.0
1460.579956 56.0
1464.022827 176.0
1466.178833 160.0
1466.232178 148.0
1467.131592 60.0
1467.505127 44.0
1470.724487 212.0
1472.075806 48.0
1473.848022 84.0
1474.100098 120.0
1475.957642 88.0
1477.854614 196.0
1478.244751 100.0
1478.688721 224.0
1478.742188 116.0
1480.640991 156.0
1484.695068 76.0
1485.032593 48.0
1486.321411 44.0
1486.873901 180.0
1489.346191 76.0
1495.243408 164.0
1498.307983 52.0
1499.16333 112.0
1500.913086 136.0
1501.985107 144.0
1503.613159 200.0
