>compound 8,9-Dihydropiplartine
>formula C17H21NO5
>ionization [M+Na]+
>parentmass 342.1311934720905
#inchi InChI=1S/C17H21NO5/c1-21-13-10-12(11-14(22-2)17(13)23-3)7-8-16(20)18-9-5-4-6-15(18)19/h4,6,10-11H,5,7-9H2,1-3H3
#inchikey WAGZSQGCUXDBOA
#Ion_Source DI-ESI
#Instrument qTof
#Compound_Source Isolated
#PI Norberto Lopes
#Data_Collector Monica Pupo
#Scan -1
#Precursor_MZ 342.128
#ExactMass 319.142
#Charge 1
#CAS_Number 137760-69-1
#Pubmed_ID N/A
#Smiles O=C(N1CCC=CC1=O)CCC2=CC(OC)=C(OC)C(OC)=C2
#INCHI_AUX N/A
#Library_Class 3
#SpectrumID CCMSLIB00000081550
#IonMode Positive
#UpdateWorkflowName UPDATE-SINGLE-ANNOTATED-BRONZE
#LibraryQualityString Bronze
#TaskID 4a07f16a650f4095b43fe6b0b09ff8bb
##Scan# 1
#SpectrumFile gnps_8_9_Dihydropiplartine_pos_MplusNa.mgf
#LibraryName gnps_library.mgf
#MQScore -1
#Organism batch_27_05
#TIC_Query 0
#RT_Query -1
#MZErrorPPM -1
#SharedPeaks 0
#MassDiff 0
#LibMZ -1
#SpecMZ 342.128
#SpecCharge 0
#internalFilename spec-00000.mgf

>collision 10
120.03698 153.0
135.111694 211.0
136.002701 191.0
148.046036 336.0
154.013626 220.0
161.046814 207.0
162.060104 123.0
163.070374 106.0
172.026443 121.0
179.068573 221.0
181.083939 11987.0
182.087234 1554.0
183.086914 145.0
189.049744 606.0
190.059357 549.0
191.03035 282.0
193.051117 173.0
195.068924 249.0
206.982071 134.0
208.071487 532.0
215.028915 152.0
221.077637 692.0
223.094696 5499.0
224.095703 899.0
226.964584 151.0
230.054337 182.0
240.227676 1768.0
245.07486 2091.0
247.94104 119.0
249.028183 163.0
251.067856 206.0
256.262146 698.0
264.986969 145.0
267.037567 515.0
296.290375 175.0
313.13858 126.0
315.044678 285.0
327.100922 365.0
330.065765 1758.0
338.334869 131.0
342.127594 6663.0
