>compound MLS002222273-01!
>formula C21H27NO
>ionization [M+H]+
>parentmass 310.21654093609055
#inchi InChI=1S/C21H27NO/c23-21(19-11-4-1-5-12-19,20-13-6-2-7-14-20)15-10-18-22-16-8-3-9-17-22/h1-2,4-7,11-14,23H,3,8-10,15-18H2
#inchikey OGAKLTJNUQRZJU
#origInchi InChI=1S/C21H27NO.ClH/c23-21(19-11-4-1-5-12-19,20-13-6-2-7-14-20)15-10-18-22-16-8-3-9-17-22;/h1-2,4-7,11-14,23H,3,8-10,15-18H2;1H
#Ion_Source LC-ESI
#Instrument qTof
#Compound_Source NIH Pharmacologically Active Library
#PI Dorrestein
#Data_Collector VP/LMS
#Scan -1
#Precursor_MZ 310.222
#ExactMass 309.209
#Charge 1
#CAS_Number N/A
#Pubmed_ID N/A
#Smiles OC(CCCN1CCCCC1)(c2ccccc2)c3ccccc3.Cl
#INCHI_AUX N/A
#Library_Class 1
#SpectrumID CCMSLIB00000085459
#IonMode Positive
#UpdateWorkflowName UPDATE-SINGLE-ANNOTATED-GOLD
#LibraryQualityString Gold
#TaskID d252d724072548979f1f6f1ced849daf
##Scan# 1619
#SpectrumFile p4-B03_GB3_01_18339.mzXML
#LibraryName Pharm_Active_Library.mgf
#MQScore -1
#Organism Pharm_Active_Library
#TIC_Query 0
#RT_Query -1
#MZErrorPPM -1
#SharedPeaks 0
#MassDiff 0
#LibMZ -1
#SpecMZ 310.222
#SpecCharge 0
#internalFilename spec-00000.mgf

>collision 10
44.887611 100.0
44.918289 232.0
44.979668 180.0
44.994797 104.0
45.038685 180.0
45.097519 172.0
45.114208 156.0
45.129292 176.0
45.15406 148.0
45.206875 140.0
45.231182 148.0
45.248642 156.0
45.263096 136.0
45.272766 144.0
45.2939 60.0
45.308632 168.0
45.403801 152.0
45.430626 152.0
45.444042 56.0
45.45612 180.0
45.468197 144.0
45.481617 148.0
45.497726 96.0
45.531296 112.0
45.555473 236.0
45.58427 192.0
45.629387 172.0
45.645519 140.0
45.669136 264.0
45.690086 140.0
45.710789 344.0
45.725159 160.0
45.78278 108.0
45.794315 92.0
45.810715 216.0
45.823189 108.0
45.870182 220.0
45.899525 220.0
45.931461 164.0
45.953518 144.0
45.972858 276.0
45.99715 156.0
46.024952 128.0
46.075474 44.0
46.105278 216.0
46.122772 120.0
46.144402 192.0
46.199619 164.0
46.23909 156.0
46.267315 168.0
46.309006 180.0
46.333874 160.0
46.389435 204.0
46.412483 104.0
46.433437 204.0
46.451813 184.0
46.475056 152.0
46.506088 156.0
46.536659 148.0
46.557678 140.0
46.570404 184.0
46.588039 68.0
46.610657 148.0
46.626965 144.0
46.641914 184.0
46.654148 128.0
46.685844 348.0
46.716705 212.0
46.787537 160.0
46.804199 180.0
46.925072 256.0
46.940067 144.0
46.964615 56.0
46.976894 40.0
46.998722 104.0
47.026855 240.0
47.043758 136.0
47.062134 188.0
47.104229 476.0
47.132534 164.0
47.150475 216.0
47.189938 124.0
47.248405 160.0
47.270573 164.0
47.321281 168.0
47.340454 104.0
47.352001 184.0
47.39909 144.0
47.485722 88.0
47.501789 112.0
47.581776 188.0
47.605114 192.0
47.614727 120.0
47.63121 164.0
47.640827 140.0
47.655937 152.0
47.668304 172.0
47.695263 300.0
47.708164 84.0
47.737038 152.0
47.759041 108.0
47.818401 232.0
47.847111 252.0
47.867764 132.0
47.885666 192.0
47.902805 196.0
47.919434 140.0
47.93322 208.0
47.972473 232.0
47.987637 128.0
48.004185 200.0
48.017975 136.0
48.059357 160.0
48.070396 136.0
48.079662 100.0
48.098 172.0
48.122261 196.0
48.135098 296.0
48.17075 236.0
48.189217 152.0
48.209869 100.0
48.221836 176.0
48.245804 156.0
48.272076 188.0
48.283138 284.0
48.313568 192.0
48.331554 172.0
48.349545 148.0
48.381378 172.0
48.397991 228.0
48.439541 124.0
48.450623 136.0
48.47002 48.0
48.482941 160.0
48.515018 120.0
48.544872 148.0
48.587872 116.0
48.598969 92.0
48.626724 160.0
48.641991 132.0
48.654636 184.0
48.673923 148.0
48.68642 192.0
48.699383 352.0
48.719757 128.0
48.73365 144.0
48.744534 96.0
48.754494 112.0
48.773415 176.0
48.787849 280.0
48.799221 248.0
48.843475 108.0
48.855991 152.0
48.86573 136.0
48.921398 204.0
48.939499 116.0
48.961159 144.0
48.972919 168.0
48.996601 156.0
49.038403 124.0
49.059311 164.0
49.081898 180.0
49.091801 184.0
49.105328 188.0
49.11935 144.0
49.175495 164.0
49.189655 164.0
49.251877 140.0
49.289173 168.0
49.327332 152.0
49.356689 140.0
49.38287 128.0
49.44762 84.0
49.460896 148.0
49.487411 216.0
49.513088 204.0
49.535831 148.0
49.559647 156.0
49.583469 104.0
49.624119 156.0
49.667225 180.0
49.697876 244.0
49.717373 340.0
49.749912 296.0
49.820599 184.0
49.838863 212.0
49.886646 128.0
49.937267 168.0
49.95274 104.0
49.971027 104.0
50.02169 240.0
50.034359 68.0
50.045624 148.0
50.066704 132.0
50.114639 144.0
50.130138 176.0
50.170811 168.0
50.180882 112.0
50.249378 148.0
50.254169 220.0
50.276798 176.0
50.313496 100.0
50.343147 164.0
50.368931 172.0
50.406715 164.0
50.43074 136.0
50.480221 180.0
50.500019 152.0
50.537693 368.0
50.549534 140.0
50.570763 196.0
50.591995 168.0
50.617481 56.0
50.647221 164.0
50.699642 224.0
50.715233 240.0
50.738113 168.0
50.779495 172.0
50.895397 196.0
50.922379 156.0
50.964996 108.0
50.991779 184.0
51.024643 128.0
51.029427 192.0
51.067722 152.0
51.078728 148.0
51.129524 188.0
51.142014 184.0
51.15699 156.0
51.188599 140.0
51.206074 148.0
51.220806 152.0
51.23959 84.0
51.259537 208.0
51.300869 80.0
51.31321 168.0
51.330811 180.0
51.38929 144.0
51.419579 88.0
51.524921 140.0
51.534924 124.0
51.544922 128.0
51.584702 144.0
51.607815 132.0
51.631554 160.0
51.666454 148.0
51.676468 188.0
51.686485 212.0
51.699364 164.0
51.710812 172.0
51.733715 148.0
51.755188 196.0
51.776669 76.0
51.815342 352.0
51.848301 56.0
51.868366 116.0
51.898472 140.0
51.930019 180.0
51.957596 232.0
51.97736 72.0
51.998886 96.0
52.011803 56.0
52.061401 212.0
52.065964 116.0
52.069744 180.0
52.096828 188.0
52.145378 168.0
52.181316 168.0
52.217262 144.0
52.271931 140.0
52.293518 136.0
52.315109 152.0
52.341022 152.0
52.441864 188.0
52.457722 192.0
52.470539 184.0
52.516838 116.0
52.534149 48.0
52.561562 168.0
52.583206 344.0
52.61063 108.0
52.632866 180.0
52.658283 72.0
52.679558 236.0
52.710289 156.0
52.742081 180.0
52.773277 180.0
52.792683 204.0
52.81004 52.0
52.841862 136.0
52.874603 128.0
52.889618 172.0
52.937618 128.0
52.973602 152.0
53.057655 216.0
53.073601 160.0
53.088863 168.0
53.13887 156.0
53.154831 256.0
53.201275 228.0
53.223408 200.0
53.286957 204.0
53.300369 208.0
53.311291 188.0
53.334652 156.0
53.35672 136.0
53.375618 64.0
53.39542 156.0
53.431801 224.0
53.475029 144.0
53.544426 128.0
53.563358 180.0
53.607067 80.0
53.649334 68.0
53.659538 148.0
53.674911 140.0
53.688702 136.0
53.752888 160.0
53.838924 140.0
53.866768 128.0
53.935444 172.0
53.98428 224.0
54.042171 224.0
54.052399 136.0
54.055298 216.0
54.061619 132.0
54.085888 192.0
54.106594 156.0
54.135269 164.0
54.176888 196.0
54.25153 180.0
54.280949 164.0
54.308243 144.0
54.368965 212.0
54.385109 124.0
54.440899 160.0
54.457054 280.0
54.477619 160.0
54.571674 224.0
54.606968 188.0
54.704079 188.0
54.714386 144.0
54.737942 136.0
54.760033 164.0
54.795498 156.0
54.829277 116.0
54.846962 128.0
54.858753 144.0
54.915977 228.0
54.972618 100.0
54.99741 104.0
55.02103 188.0
55.044651 236.0
55.122795 160.0
55.158447 168.0
55.169952 236.0
55.183544 92.0
55.201286 180.0
55.258972 180.0
55.275246 176.0
55.291527 204.0
55.309288 148.0
55.356525 176.0
55.394363 172.0
55.423317 168.0
55.444065 148.0
55.501614 248.0
55.5345 88.0
55.559719 160.0
55.571209 152.0
55.619511 184.0
55.684402 68.0
55.702229 172.0
55.731941 180.0
55.751148 180.0
55.778011 148.0
55.801956 184.0
55.826962 160.0
55.868717 168.0
55.885651 124.0
55.904369 204.0
55.920799 264.0
55.947594 108.0
55.966946 184.0
56.0392 172.0
56.080162 132.0
56.114449 120.0
56.218037 152.0
56.230801 176.0
56.269051 192.0
56.280064 100.0
56.296486 148.0
56.369038 240.0
56.390606 152.0
56.470638 136.0
56.482338 148.0
56.502594 148.0
56.54166 192.0
56.570808 160.0
56.607529 156.0
56.647232 220.0
56.665943 88.0
56.699909 180.0
56.715393 152.0
56.737392 184.0
56.75737 244.0
56.772366 76.0
56.805363 96.0
56.84137 284.0
56.929123 156.0
56.94677 172.0
56.966782 120.0
56.980759 148.0
56.997532 136.0
57.062054 164.0
57.065052 152.0
57.116299 148.0
57.220203 172.0
57.244225 60.0
57.287903 116.0
57.300034 148.0
57.355423 192.0
57.379349 176.0
57.388309 128.0
57.416019 184.0
57.517372 136.0
57.535221 124.0
57.562706 196.0
57.607708 248.0
57.627346 144.0
57.654545 92.0
57.668148 196.0
57.683262 148.0
57.69989 232.0
57.73357 132.0
57.751305 388.0
57.763405 228.0
57.784584 172.0
57.804253 132.0
57.842091 132.0
57.854198 192.0
57.876911 92.0
57.927109 192.0
57.939857 128.0
57.955673 148.0
57.965878 136.0
58.011745 168.0
58.022358 176.0
58.03297 192.0
58.043587 160.0
58.055717 148.0
58.069366 216.0
58.092117 128.0
58.114418 212.0
58.122917 212.0
58.149776 180.0
58.171024 172.0
58.189465 192.0
58.225685 148.0
58.256065 52.0
58.281891 148.0
58.360928 140.0
58.37524 176.0
58.403511 152.0
58.423283 124.0
58.517639 44.0
58.53896 92.0
58.595314 44.0
58.609028 312.0
58.621216 104.0
58.634933 68.0
58.665417 172.0
58.679138 132.0
58.73251 152.0
58.746239 168.0
58.772175 164.0
58.842381 168.0
58.857159 168.0
58.866814 268.0
58.888191 112.0
58.912632 208.0
58.947773 60.0
58.966301 160.0
58.993626 140.0
59.0135 144.0
59.051727 80.0
59.063725 204.0
59.099152 136.0
59.163429 216.0
59.227745 200.0
59.244595 248.0
59.257439 240.0
59.269108 64.0
59.292091 104.0
59.316616 84.0
59.333477 216.0
59.346844 184.0
59.351597 132.0
59.356892 160.0
59.376411 68.0
59.399418 128.0
59.428566 128.0
59.44698 164.0
59.462326 132.0
59.497631 192.0
59.54554 144.0
59.565872 148.0
59.583633 120.0
59.623585 156.0
59.649712 156.0
59.721981 188.0
59.734287 92.0
59.757362 156.0
59.814301 196.0
59.829105 240.0
59.851135 164.0
59.885578 164.0
59.906979 172.0
59.971176 184.0
59.988178 164.0
60.00248 172.0
60.019199 36.0
60.063305 164.0
60.080891 124.0
60.12101 120.0
60.155643 164.0
60.170757 156.0
60.20229 172.0
60.23835 132.0
60.249165 220.0
60.290882 148.0
60.304203 168.0
60.318703 136.0
60.337254 152.0
60.375908 116.0
60.399109 148.0
60.417671 172.0
60.438042 48.0
60.47028 180.0
60.495049 168.0
60.534798 160.0
60.546143 112.0
60.567825 52.0
60.601906 148.0
60.633118 208.0
60.654598 176.0
60.682648 168.0
60.735226 204.0
60.747635 224.0
60.781769 52.0
60.8097 112.0
60.836086 104.0
60.852379 148.0
60.865585 168.0
60.881115 160.0
60.897366 148.0
60.956657 176.0
61.0047 244.0
61.036507 152.0
61.058975 232.0
61.081608 128.0
61.092499 152.0
61.145401 232.0
61.170753 168.0
61.188984 136.0
61.199883 188.0
61.235828 192.0
61.25095 172.0
61.26609 204.0
61.287106 188.0
61.318272 140.0
61.335419 328.0
61.401867 200.0
61.427418 432.0
61.4711 48.0
61.482025 144.0
61.502697 196.0
61.521046 244.0
61.570347 188.0
61.603809 264.0
61.635059 324.0
61.672565 180.0
61.710083 196.0
61.744484 136.0
61.778893 144.0
61.810184 188.0
61.881161 196.0
61.894279 232.0
61.91037 124.0
61.940128 196.0
61.958923 56.0
61.980858 216.0
62.027874 180.0
62.040417 136.0
62.064426 304.0
62.076477 164.0
62.095295 96.0
62.156475 136.0
62.169029 68.0
62.209839 136.0
62.250225 144.0
62.274414 160.0
62.304062 156.0
62.317757 156.0
62.333202 188.0
62.366917 208.0
62.412464 148.0
62.49744 40.0
62.533634 156.0
62.554623 192.0
62.58086 240.0
62.606056 148.0
62.632828 40.0
62.650158 180.0
62.676941 224.0
62.688957 168.0
62.708458 148.0
62.732101 200.0
62.743137 72.0
62.766109 168.0
62.782963 124.0
62.809368 36.0
62.875633 192.0
62.88826 84.0
62.908779 128.0
62.924564 204.0
62.943512 128.0
62.957726 116.0
62.9897 180.0
63.024406 152.0
63.036751 156.0
63.07148 124.0
63.09203 96.0
63.118202 176.0
63.150536 152.0
63.164772 200.0
63.224628 72.0
63.251801 44.0
63.288212 188.0
63.300121 276.0
63.399841 156.0
63.414124 132.0
63.518253 228.0
63.541798 76.0
63.565598 188.0
63.57869 128.0
63.595753 120.0
63.659256 176.0
63.676723 144.0
63.689014 184.0
63.706902 144.0
63.730732 176.0
63.741856 168.0
63.754116 140.0
63.770916 28.0
63.810204 76.0
63.861004 156.0
63.878586 136.0
63.926315 224.0
63.950188 196.0
64.071205 132.0
64.085541 164.0
64.109444 252.0
64.141319 104.0
64.176392 56.0
64.195526 136.0
64.233803 192.0
64.2705 164.0
64.311882 184.0
64.32795 152.0
64.354195 236.0
64.417374 56.0
64.462112 128.0
64.486084 128.0
64.516449 184.0
64.593773 228.0
64.609802 188.0
64.629372 292.0
64.700424 204.0
64.73085 188.0
64.75647 188.0
64.794914 196.0
64.836571 152.0
64.865318 180.0
64.883987 172.0
64.905502 160.0
64.956825 76.0
65.001747 156.0
65.024216 44.0
65.043411 216.0
65.131371 284.0
65.143265 192.0
65.165749 196.0
65.199265 120.0
65.233017 156.0
65.264809 196.0
65.340408 200.0
65.374557 108.0
65.401917 132.0
65.421227 60.0
65.448601 144.0
65.53157 204.0
65.561356 60.0
65.59037 92.0
65.614487 228.0
65.624962 192.0
65.651634 140.0
65.72261 120.0
65.748428 132.0
65.805702 216.0
65.856598 152.0
65.877594 124.0
65.900215 208.0
65.936813 252.0
65.983864 180.0
66.048943 188.0
66.120132 116.0
66.147644 160.0
66.182861 128.0
66.245522 208.0
66.264244 88.0
66.306526 176.0
66.350304 196.0
66.376083 144.0
66.392296 116.0
66.427979 168.0
66.442184 164.0
66.471786 152.0
66.515602 172.0
66.554565 124.0
66.598412 92.0
66.62899 160.0
66.650337 160.0
66.663399 308.0
66.676987 156.0
66.700783 140.0
66.734917 192.0
66.775574 128.0
66.801598 144.0
66.810921 60.0
66.819237 128.0
66.866676 168.0
66.8797 156.0
66.961189 156.0
66.985413 160.0
67.025757 152.0
67.070686 172.0
67.103806 364.0
67.117546 212.0
67.146904 200.0
67.200729 28.0
67.282333 184.0
67.297028 132.0
67.409729 168.0
67.45713 160.0
67.490189 140.0
67.505737 384.0
67.517624 160.0
67.556877 140.0
67.578148 128.0
67.592094 160.0
67.606323 236.0
67.67144 140.0
67.687813 128.0
67.706963 184.0
67.733665 192.0
67.779762 180.0
67.799202 100.0
67.816383 208.0
67.84346 176.0
67.940216 160.0
67.973846 112.0
67.997643 116.0
68.032112 164.0
68.057175 196.0
68.133934 136.0
68.172394 144.0
68.189796 116.0
68.20459 180.0
68.216095 44.0
68.256348 208.0
68.272003 140.0
68.283508 144.0
68.30983 148.0
68.329567 220.0
68.349129 144.0
68.370705 204.0
68.42173 44.0
68.456306 60.0
68.467834 156.0
68.489243 136.0
68.548553 176.0
68.561737 160.0
68.631165 208.0
68.647461 172.0
68.674759 196.0
68.737358 168.0
68.759636 184.0
68.777885 144.0
68.789352 224.0
68.809158 144.0
68.828972 156.0
68.893387 120.0
68.969398 176.0
68.984276 168.0
69.02726 184.0
69.082275 156.0
69.113274 152.0
69.138092 188.0
69.152779 192.0
69.172852 160.0
69.189407 156.0
69.200996 160.0
69.222519 200.0
69.235764 108.0
69.262268 204.0
69.280487 172.0
69.292084 156.0
69.317604 248.0
69.341034 132.0
69.368942 200.0
69.418533 220.0
69.436295 148.0
69.459991 112.0
69.481079 160.0
69.49601 60.0
69.535835 216.0
69.557823 164.0
69.608879 324.0
69.643761 100.0
69.662025 160.0
69.683624 140.0
69.711914 168.0
69.725166 176.0
69.743927 112.0
69.784119 160.0
69.806625 188.0
69.823257 216.0
69.841553 168.0
69.874817 168.0
69.913094 156.0
69.924736 300.0
69.94471 192.0
69.9916 268.0
70.174263 136.0
70.192947 112.0
70.229637 208.0
70.246315 136.0
70.26133 64.0
70.327873 196.0
70.376488 296.0
70.389565 188.0
70.443291 212.0
70.456657 216.0
70.490074 88.0
70.503441 112.0
70.538536 204.0
70.56356 132.0
70.592041 164.0
70.697426 128.0
70.772751 192.0
70.824669 192.0
70.841415 80.0
70.871574 176.0
70.883301 160.0
70.920174 188.0
70.987228 112.0
71.072777 196.0
71.108299 192.0
71.14312 180.0
71.188599 92.0
71.215988 104.0
71.240669 120.0
71.255074 208.0
71.292755 168.0
71.31292 176.0
71.358681 196.0
71.433983 176.0
71.467628 104.0
71.499603 164.0
71.5289 128.0
71.54393 192.0
71.601639 112.0
71.613594 232.0
71.637672 52.0
71.661255 80.0
71.694099 172.0
71.719948 140.0
71.764069 140.0
71.828804 176.0
71.850082 160.0
71.878761 116.0
71.890572 120.0
71.911652 172.0
71.953026 196.0
71.973343 124.0
71.991173 264.0
71.99736 156.0
72.017197 160.0
72.059425 224.0
72.072945 152.0
72.115189 196.0
72.127022 136.0
72.174355 120.0
72.186195 124.0
72.209068 236.0
72.226784 168.0
72.25563 148.0
72.279228 108.0
72.301224 168.0
72.353699 184.0
72.377403 176.0
72.401108 148.0
72.423126 128.0
72.441757 212.0
72.51123 108.0
72.539627 180.0
72.554123 196.0
72.56665 196.0
72.595398 160.0
72.623123 324.0
72.657051 152.0
72.694382 64.0
72.757561 164.0
72.771591 248.0
72.814911 176.0
72.828499 128.0
72.845482 52.0
72.957642 168.0
72.979744 128.0
73.054573 160.0
73.086899 188.0
73.105614 168.0
73.16008 72.0
73.182213 188.0
73.253738 184.0
73.315781 68.0
73.327003 144.0
73.360611 140.0
73.378143 184.0
73.412247 112.0
73.462311 212.0
73.483353 140.0
73.558975 260.0
73.576042 88.0
73.591408 148.0
73.604752 128.0
73.625565 116.0
73.644928 176.0
73.70414 256.0
73.743797 288.0
73.815247 160.0
73.832344 120.0
73.876816 164.0
73.909325 164.0
73.931992 228.0
73.957237 100.0
73.973236 212.0
73.988052 144.0
74.065269 152.0
74.075195 108.0
74.077492 140.0
74.092827 156.0
74.109192 208.0
74.12291 336.0
74.136581 168.0
74.167915 112.0
74.205627 100.0
74.2463 128.0
74.262573 176.0
74.301674 112.0
74.320541 184.0
74.406357 180.0
74.468178 204.0
74.50425 196.0
74.579651 168.0
74.583481 148.0
74.588791 184.0
74.60392 248.0
74.633148 196.0
74.689903 88.0
74.708824 156.0
74.739792 32.0
74.75528 136.0
74.777649 244.0
74.825844 108.0
74.839622 200.0
74.851677 308.0
74.879227 188.0
74.908508 92.0
74.980545 168.0
75.011169 160.0
75.041595 160.0
75.14296 176.0
75.173531 184.0
75.20858 148.0
75.228676 180.0
75.271133 200.0
75.303497 188.0
75.330986 132.0
75.376442 232.0
75.39679 152.0
75.419174 172.0
75.474579 140.0
75.51046 176.0
75.524727 160.0
75.542023 204.0
75.575798 200.0
75.588737 232.0
75.600853 156.0
75.685448 172.0
75.718575 180.0
75.734161 152.0
75.75148 208.0
75.765244 144.0
75.794762 200.0
75.834656 232.0
75.851143 312.0
75.893593 160.0
75.924805 236.0
75.936943 104.0
75.958122 152.0
76.013397 152.0
76.039307 184.0
76.094856 160.0
76.192108 176.0
76.22686 48.0
76.254662 148.0
76.283112 124.0
76.299858 160.0
76.338814 172.0
76.372459 176.0
76.407684 112.0
76.428566 156.0
76.479721 148.0
76.496552 176.0
76.542061 156.0
76.559113 192.0
76.682808 216.0
76.696754 156.0
76.722061 332.0
76.752541 164.0
76.784737 232.0
76.799622 164.0
76.822304 168.0
76.851143 124.0
76.940971 200.0
76.958427 160.0
76.975891 164.0
77.040512 124.0
77.062042 184.0
77.081406 128.0
77.131378 276.0
77.173332 156.0
77.239784 104.0
77.255531 144.0
77.300423 176.0
77.331787 184.0
77.371033 128.0
77.389694 152.0
77.407799 176.0
77.511147 160.0
77.532173 132.0
77.614563 228.0
77.631699 192.0
77.681206 140.0
77.733841 212.0
77.759438 344.0
77.784737 288.0
77.800537 168.0
77.818794 80.0
77.89888 128.0
77.923546 196.0
77.951584 328.0
78.00679 156.0
78.046501 156.0
78.067017 192.0
78.081062 220.0
78.109512 212.0
78.120964 220.0
78.139244 192.0
78.167168 160.0
78.194748 220.0
78.229141 172.0
78.236259 140.0
78.255882 132.0
78.277008 208.0
78.323288 216.0
78.345589 196.0
78.386223 56.0
78.413353 192.0
78.440857 168.0
78.454437 136.0
78.470985 172.0
78.484932 212.0
78.518433 256.0
78.537834 188.0
78.629578 160.0
78.672806 172.0
78.685593 208.0
78.71608 224.0
78.767296 156.0
78.783195 96.0
78.795563 140.0
78.811966 344.0
78.826813 204.0
78.862709 132.0
78.925079 144.0
78.949341 192.0
78.97831 168.0
79.001762 176.0
79.02137 172.0
79.050171 108.0
79.105042 128.0
79.133362 204.0
79.15638 44.0
79.175117 172.0
79.193573 136.0
79.210007 200.0
79.266205 152.0
79.286057 140.0
79.328796 204.0
79.363289 168.0
79.376823 196.0
79.415123 200.0
79.445435 176.0
79.476891 200.0
79.482056 164.0
79.530449 184.0
79.550865 172.0
79.58548 404.0
79.634628 308.0
79.677834 172.0
79.706261 168.0
79.752472 184.0
79.803535 176.0
79.837807 156.0
79.852036 136.0
79.889389 44.0
79.92141 228.0
80.006844 188.0
80.031769 160.0
80.065598 148.0
80.079849 136.0
80.122597 164.0
80.135071 164.0
80.166756 148.0
80.193581 172.0
80.242004 120.0
80.261612 364.0
80.277351 204.0
80.297279 160.0
80.309769 176.0
80.323303 204.0
80.389114 92.0
80.403488 200.0
80.422173 196.0
80.438232 268.0
80.497154 140.0
80.536316 232.0
80.554306 116.0
80.579315 184.0
80.625771 148.0
80.64534 152.0
80.709084 172.0
80.740189 224.0
80.77417 160.0
80.803108 160.0
80.8517 144.0
80.901222 264.0
80.93882 52.0
80.953064 188.0
80.978218 176.0
80.990944 188.0
81.028374 160.0
81.096092 184.0
81.11618 208.0
81.138962 220.0
81.177216 180.0
81.195396 176.0
81.248886 276.0
81.288551 112.0
81.335014 164.0
81.351173 140.0
81.467949 152.0
81.532623 184.0
81.55954 72.0
81.581108 196.0
81.59549 220.0
81.631454 156.0
81.768173 160.0
81.79657 180.0
81.829376 136.0
82.003365 212.0
82.031143 152.0
82.063599 160.0
82.1213 136.0
82.170006 184.0
82.221298 128.0
82.261795 240.0
82.383034 80.0
82.430008 216.0
82.446266 188.0
82.476997 200.0
82.580055 80.0
82.595535 204.0
82.625275 172.0
82.674622 192.0
82.688606 176.0
82.710327 56.0
82.739288 160.0
82.753166 176.0
82.767502 192.0
82.786369 196.0
82.799042 156.0
82.84037 196.0
82.844055 160.0
82.851402 172.0
82.888557 124.0
82.912209 184.0
82.985687 128.0
83.01107 104.0
83.031013 208.0
83.078178 188.0
83.105392 124.0
83.125351 40.0
83.214287 136.0
83.270576 148.0
83.294189 176.0
83.353973 168.0
83.386856 116.0
83.401398 128.0
83.487137 172.0
83.530495 152.0
83.543228 152.0
83.557785 160.0
83.593056 196.0
83.627449 140.0
83.649246 200.0
83.663338 192.0
83.736168 220.0
83.763268 172.0
83.782822 144.0
83.884758 196.0
83.930351 176.0
84.036217 180.0
84.068222 140.0
84.096878 240.0
84.117241 188.0
84.131844 160.0
84.181145 164.0
84.233643 172.0
84.321808 172.0
84.343742 176.0
84.363853 192.0
84.378479 164.0
84.39489 176.0
84.467445 160.0
84.529282 196.0
84.550415 164.0
84.571159 144.0
84.58519 124.0
84.603737 152.0
84.623634 156.0
84.656593 156.0
84.695053 136.0
84.71154 132.0
84.763412 192.0
84.782997 196.0
84.801323 176.0
84.826981 100.0
84.874001 124.0
84.918663 168.0
84.938835 160.0
85.003052 188.0
85.047386 224.0
85.100723 168.0
85.126312 236.0
85.140732 60.0
85.206856 144.0
85.247276 304.0
85.27668 128.0
85.296898 180.0
85.317123 180.0
85.335503 132.0
85.361244 212.0
85.381012 176.0
85.410904 76.0
85.438492 196.0
85.484558 216.0
85.51619 160.0
85.548912 64.0
85.629265 100.0
85.755371 136.0
85.789314 152.0
85.832634 148.0
85.852921 240.0
85.915634 188.0
85.937775 108.0
86.020042 172.0
86.055893 212.0
86.072914 184.0
86.172249 160.0
86.220291 216.0
86.253563 180.0
86.277596 200.0
86.305328 148.0
86.379303 136.0
86.403351 128.0
86.418152 220.0
86.440353 192.0
86.454254 148.0
86.469963 168.0
86.482918 232.0
86.553268 164.0
86.612526 140.0
86.625496 192.0
86.649574 72.0
86.668106 168.0
86.698349 200.0
86.71682 152.0
86.800575 316.0
86.842361 172.0
86.863251 168.0
86.881317 96.0
86.950943 220.0
86.994514 168.0
87.036751 144.0
87.050217 180.0
87.089211 172.0
87.105118 196.0
87.140953 108.0
87.165199 164.0
87.2453 196.0
87.263527 204.0
87.280624 176.0
87.307426 204.0
87.336418 148.0
87.358742 164.0
87.403389 184.0
87.420135 196.0
87.444328 116.0
87.466667 184.0
87.528099 152.0
87.550446 220.0
87.587692 164.0
87.615639 172.0
87.750854 120.0
87.777794 200.0
87.822548 124.0
87.880379 192.0
87.966225 148.0
87.981155 164.0
87.997963 108.0
88.012894 140.0
88.03904 136.0
88.110016 228.0
88.132439 180.0
88.152908 184.0
88.188499 160.0
88.220276 256.0
88.267357 196.0
88.352875 168.0
88.40731 104.0
88.42041 200.0
88.463463 168.0
88.48967 80.0
88.506096 140.0
88.536324 144.0
88.560829 168.0
88.598297 152.0
88.632454 160.0
88.651749 400.0
88.669495 204.0
88.733543 48.0
88.750099 192.0
88.813866 164.0
88.829117 120.0
88.849503 28.0
88.879524 180.0
88.915176 172.0
88.937874 172.0
88.967735 192.0
89.009041 228.0
89.022186 152.0
89.038147 152.0
89.294678 188.0
89.349228 44.0
89.386856 148.0
89.424873 120.0
89.452728 148.0
89.488503 48.0
89.501678 204.0
89.526161 100.0
89.568947 128.0
89.593964 192.0
89.607155 68.0
89.623428 188.0
89.65049 136.0
89.680641 68.0
89.714577 188.0
89.728195 160.0
89.742851 136.0
89.767365 120.0
89.825829 196.0
89.862633 144.0
89.882431 144.0
89.895638 124.0
89.959808 156.0
90.042885 180.0
90.090111 180.0
90.139229 192.0
90.163795 208.0
90.275337 180.0
90.288574 156.0
90.306625 240.0
90.349098 148.0
90.375587 120.0
90.409645 156.0
90.447983 172.0
90.470215 188.0
90.492935 172.0
90.507149 192.0
90.525124 168.0
90.547745 220.0
90.551163 208.0
90.576256 152.0
90.611916 436.0
90.655426 132.0
90.675095 120.0
90.707001 72.0
90.729752 116.0
90.756294 184.0
90.786629 176.0
90.820023 152.0
90.840485 112.0
90.868195 156.0
90.885536 172.0
90.899879 80.0
90.917267 176.0
90.947891 200.0
90.980164 144.0
91.002945 132.0
91.055855 34912.0
91.112343 80.0
91.134003 80.0
91.157753 68.0
91.173904 36.0
91.19101 196.0
91.220863 244.0
91.235245 176.0
91.272751 168.0
91.310669 168.0
91.331673 216.0
91.355484 164.0
91.374565 184.0
91.401619 112.0
91.42157 156.0
91.434448 152.0
91.447769 120.0
91.463219 204.0
91.489647 104.0
91.527725 200.0
91.547897 148.0
91.569153 176.0
91.59877 92.0
91.649422 152.0
91.673775 196.0
91.703903 108.0
91.74057 72.0
91.761086 216.0
91.780663 152.0
91.820045 120.0
91.840263 40.0
91.911484 204.0
91.930504 212.0
91.946342 156.0
91.973824 168.0
92.006912 156.0
92.011642 64.0
92.018074 220.0
92.037476 216.0
92.058556 2856.0
92.084084 208.0
92.099838 112.0
92.135857 216.0
92.139336 184.0
92.162888 212.0
92.185814 144.0
92.204926 68.0
92.224037 112.0
92.260353 144.0
92.287117 140.0
92.333015 140.0
92.373436 212.0
92.415695 108.0
92.450676 224.0
92.465019 112.0
92.495949 100.0
92.520531 132.0
92.535843 132.0
92.556908 144.0
92.574142 208.0
92.612442 152.0
92.639259 68.0
92.665611 164.0
92.677933 152.0
92.708237 152.0
92.742516 288.0
92.799835 312.0
92.803947 120.0
92.821983 216.0
92.838593 64.0
92.878906 188.0
92.944092 140.0
92.982071 96.0
93.003586 124.0
93.044975 124.0
93.062668 304.0
93.076538 196.0
93.116867 84.0
93.130699 256.0
93.176407 96.0
93.195625 144.0
93.247505 108.0
93.266449 168.0
93.368629 172.0
93.389473 176.0
93.428482 224.0
93.470581 168.0
93.586899 360.0
93.634209 164.0
93.666954 172.0
93.709335 76.0
93.744019 168.0
93.772926 100.0
93.796486 196.0
93.820473 204.0
93.850029 308.0
93.869659 200.0
93.884743 236.0
93.909813 176.0
93.93103 96.0
93.956108 56.0
93.973473 152.0
93.990837 236.0
94.041008 104.0
94.067924 724.0
94.116295 160.0
94.16172 176.0
94.188721 200.0
94.245705 116.0
94.2631 168.0
94.313347 192.0
94.340408 216.0
94.405022 156.0
94.421616 60.0
94.444824 140.0
94.458366 344.0
94.537689 140.0
94.572525 152.0
94.627731 224.0
94.72937 204.0
94.750679 144.0
94.766388 260.0
94.795242 52.0
94.827126 216.0
94.855324 180.0
94.919296 144.0
94.940628 220.0
94.96196 140.0
94.981361 320.0
95.012215 128.0
95.035324 196.0
95.055084 60.0
95.070023 140.0
95.087944 188.0
95.146439 372.0
95.213257 156.0
95.281586 188.0
95.308563 152.0
95.336037 164.0
95.398849 236.0
95.419441 264.0
95.512131 172.0
95.534973 92.0
95.568047 188.0
95.618637 100.0
95.638107 104.0
95.668213 228.0
95.700401 184.0
95.747131 156.0
95.815514 152.0
95.855515 112.0
95.886238 248.0
95.916641 100.0
95.93808 164.0
96.03508 172.0
96.061378 176.0
96.081436 1072.0
96.114143 348.0
96.14473 152.0
96.219002 116.0
96.238525 144.0
96.269821 160.0
96.285393 140.0
96.327255 204.0
96.363525 152.0
96.385017 196.0
96.408203 148.0
96.443649 52.0
96.470375 172.0
96.559456 160.0
96.572693 144.0
96.598122 68.0
96.615723 156.0
96.639206 148.0
96.664642 136.0
96.720459 100.0
96.750198 196.0
96.780128 168.0
96.895378 236.0
96.977165 96.0
97.025024 152.0
97.03875 148.0
97.061928 172.0
97.08754 168.0
97.113266 96.0
97.215279 136.0
97.280052 104.0
97.352692 188.0
97.409653 152.0
97.456802 144.0
97.481865 360.0
97.505119 172.0
97.519684 88.0
97.622597 196.0
97.647484 180.0
97.815704 136.0
97.828819 172.0
97.835327 188.0
97.863937 112.0
97.894531 172.0
97.918037 220.0
97.937057 196.0
97.98053 160.0
98.03334 136.0
98.097359 8864.0
98.118347 216.0
98.152504 88.0
98.165413 140.0
98.185173 216.0
98.194191 148.0
98.278336 100.0
98.295601 76.0
98.354813 172.0
98.386391 176.0
98.417984 72.0
98.456619 212.0
98.489075 172.0
98.520683 80.0
98.542847 312.0
98.635834 220.0
98.674316 216.0
98.742058 136.0
98.763817 136.0
98.790253 132.0
98.803719 212.0
98.838409 176.0
98.846458 124.0
98.871796 264.0
98.896385 172.0
98.91024 156.0
98.943298 160.0
98.969994 152.0
98.993393 164.0
99.03894 32.0
99.054787 136.0
99.100754 264.0
99.142181 184.0
99.30056 172.0
99.369682 128.0
99.419594 184.0
99.445396 156.0
99.467232 152.0
99.552605 88.0
99.616158 176.0
99.665421 156.0
99.693764 204.0
99.731407 104.0
99.79303 160.0
99.820869 56.0
99.847984 84.0
99.873108 180.0
99.920319 148.0
100.021347 192.0
100.055649 88.0
100.099777 216.0
100.139275 132.0
100.223114 144.0
100.26693 192.0
100.291664 132.0
100.304657 180.0
100.358482 144.0
100.38102 132.0
100.414314 156.0
100.430267 164.0
100.488533 212.0
100.563774 184.0
100.59288 156.0
100.64151 136.0
100.661774 100.0
100.679741 160.0
100.712097 180.0
100.737328 200.0
100.773628 120.0
100.811974 168.0
100.881195 372.0
100.952415 188.0
100.975517 120.0
101.00679 208.0
101.039238 308.0
101.099556 152.0
101.13958 144.0
101.16761 184.0
101.184532 172.0
101.21566 112.0
101.231674 128.0
101.247696 244.0
101.273735 140.0
101.309792 184.0
101.343849 132.0
101.357872 184.0
101.407974 184.0
101.437393 236.0
101.484146 144.0
101.504196 176.0
101.523155 176.0
101.538292 132.0
101.562355 384.0
101.592445 140.0
101.620529 160.0
101.657837 216.0
101.686752 168.0
101.714851 104.0
101.742958 116.0
101.8293 200.0
101.867462 160.0
101.913666 172.0
101.927734 200.0
101.943115 152.0
101.961899 164.0
101.97596 196.0
101.992043 148.0
102.047546 2200.0
102.084526 172.0
102.102623 92.0
102.150894 156.0
102.196419 216.0
102.237694 344.0
102.303833 48.0
102.342079 184.0
102.358192 172.0
102.408539 112.0
102.422638 228.0
102.48307 120.0
102.497177 188.0
102.527405 140.0
102.547272 56.0
102.585854 144.0
102.60601 148.0
102.622665 200.0
102.65239 184.0
102.742958 128.0
102.765343 156.0
102.809731 180.0
102.901718 196.0
102.916718 140.0
102.940285 208.0
102.94545 140.0
102.95694 100.0
102.966896 232.0
102.992996 244.0
103.01931 60.0
103.055077 15476.0
103.079643 240.0
103.142632 140.0
103.169258 76.0
103.21711 144.0
103.23806 148.0
103.260849 108.0
103.27845 228.0
103.298676 108.0
103.337112 204.0
103.354622 196.0
103.375557 208.0
103.395798 296.0
103.423439 308.0
103.45327 152.0
103.483177 168.0
103.50106 176.0
103.536179 140.0
103.644875 124.0
103.667274 208.0
103.691963 140.0
103.715805 100.0
103.754318 176.0
103.841507 184.0
103.886131 208.0
103.920624 164.0
104.03833 164.0
104.058586 1168.0
104.091118 160.0
104.168297 184.0
104.21096 236.0
104.245712 76.0
104.292244 160.0
104.31192 188.0
104.325317 44.0
104.350639 172.0
104.402855 192.0
104.421577 216.0
104.450844 276.0
104.483391 160.0
104.526115 160.0
104.594215 172.0
104.617699 72.0
104.637062 92.0
104.651253 144.0
104.682854 100.0
104.699142 44.0
104.748024 160.0
104.803032 160.0
104.853973 128.0
104.869263 136.0
104.91449 204.0
104.955315 152.0
105.034386 1936.0
105.070335 2936.0
105.110924 48.0
105.145615 204.0
105.166115 176.0
105.245636 116.0
105.261971 76.0
105.341621 232.0
105.413277 168.0
105.437065 180.0
105.455238 152.0
105.471527 216.0
105.488754 192.0
105.601212 148.0
105.666672 156.0
105.689178 172.0
105.709641 68.0
105.755753 344.0
105.787415 180.0
105.821663 344.0
105.844734 184.0
105.868965 212.0
105.893883 208.0
105.936897 212.0
105.965294 200.0
105.984016 196.0
106.022537 196.0
106.035156 264.0
106.070877 168.0
106.109184 176.0
106.236191 176.0
106.330696 208.0
106.351097 188.0
106.393059 100.0
106.410629 188.0
106.443481 216.0
106.465446 92.0
106.482498 176.0
106.517418 48.0
106.59343 96.0
106.661255 436.0
106.68988 164.0
106.712914 184.0
106.755829 236.0
106.788216 208.0
106.848999 80.0
106.871017 76.0
106.898773 180.0
106.978035 204.0
107.029503 144.0
107.049232 248.0
107.070686 48.0
107.089226 176.0
107.133438 180.0
107.155144 220.0
107.20665 240.0
107.239624 72.0
107.268486 112.0
107.313835 128.0
107.333344 160.0
107.346832 196.0
107.374863 204.0
107.402512 120.0
107.431389 116.0
107.515984 148.0
107.544701 184.0
107.563454 168.0
107.641907 76.0
107.681145 144.0
107.804718 144.0
107.848503 120.0
107.871239 184.0
107.902039 168.0
107.978752 116.0
108.044022 296.0
108.080116 256.0
108.102875 144.0
108.140129 136.0
108.154617 164.0
108.193947 60.0
108.229141 212.0
108.25399 232.0
108.270424 180.0
108.307838 112.0
108.349266 212.0
108.398346 64.0
108.436142 104.0
108.488113 216.0
108.50885 168.0
108.527512 168.0
108.566177 216.0
108.614609 36.0
108.6511 168.0
108.678917 120.0
108.697594 68.0
108.735321 88.0
108.75251 172.0
108.820053 192.0
108.85743 204.0
108.903114 172.0
108.969589 112.0
108.984131 92.0
109.010818 176.0
109.026939 140.0
109.045563 224.0
109.083885 128.0
109.125465 160.0
109.162163 200.0
109.189926 156.0
109.224083 208.0
109.272148 296.0
109.341843 188.0
109.368858 88.0
109.437553 168.0
109.457275 204.0
109.475037 188.0
109.500702 136.0
109.522934 176.0
109.566681 308.0
109.5896 148.0
109.638748 136.0
109.691666 168.0
109.783012 120.0
109.802223 200.0
109.875229 140.0
109.904434 228.0
109.973061 140.0
109.992088 184.0
110.019218 192.0
110.069824 208.0
110.097313 7112.0
110.138245 200.0
110.207184 140.0
110.2239 152.0
110.242706 236.0
110.27108 160.0
110.375099 180.0
110.39978 176.0
110.418312 124.0
110.459473 112.0
110.522911 172.0
110.543831 236.0
110.564758 52.0
110.591965 128.0
110.606796 336.0
110.623367 144.0
110.656097 416.0
110.688263 36.0
110.769943 132.0
110.803459 348.0
110.849556 68.0
110.874702 56.0
110.945969 132.0
111.008873 196.0
111.048714 140.0
111.082275 256.0
111.101646 1184.0
111.15361 320.0
111.19558 120.0
111.229156 80.0
111.262413 140.0
111.277115 76.0
111.327835 224.0
111.428658 132.0
111.544243 108.0
111.579979 256.0
111.609413 104.0
111.650497 156.0
111.676704 168.0
111.743393 148.0
111.779877 96.0
111.80925 148.0
111.849243 180.0
111.863976 176.0
111.893326 216.0
111.927132 148.0
111.966644 184.0
111.992722 196.0
112.047188 180.0
112.113594 3048.0
112.177109 184.0
112.212379 168.0
112.267052 192.0
112.300621 140.0
112.335999 68.0
112.380302 156.0
112.457657 396.0
112.475266 220.0
112.494263 104.0
112.53437 160.0
112.591385 144.0
112.685089 144.0
112.725021 200.0
112.747719 164.0
112.783646 200.0
112.811127 168.0
112.847069 328.0
112.870323 152.0
112.931648 168.0
112.990883 148.0
113.018387 52.0
113.116066 356.0
113.152184 92.0
113.175011 256.0
113.227951 108.0
113.244896 168.0
113.28302 160.0
113.319038 156.0
113.338104 176.0
113.386467 156.0
113.400604 220.0
113.508583 112.0
113.554329 140.0
113.575539 132.0
113.696472 108.0
113.734673 180.0
113.779251 216.0
113.830208 52.0
113.849983 400.0
113.862724 180.0
113.8918 164.0
113.915161 180.0
113.941719 144.0
113.998024 192.0
114.023529 124.0
114.058739 388.0
114.108116 188.0
114.152069 164.0
114.167961 132.0
114.171104 124.0
114.191345 216.0
114.223389 164.0
114.310616 112.0
114.363823 172.0
114.391487 136.0
114.440453 148.0
114.487297 176.0
114.581024 116.0
114.661995 304.0
114.700714 212.0
114.725937 124.0
114.742836 56.0
114.774971 188.0
114.821884 204.0
114.84108 176.0
114.911476 180.0
114.967133 192.0
115.030983 180.0
115.05497 1976.0
115.092216 164.0
115.139946 124.0
115.247231 116.0
115.291351 168.0
115.309128 180.0
115.340714 152.0
115.373672 144.0
115.409714 144.0
115.481827 156.0
115.526749 64.0
115.563118 172.0
115.66584 80.0
115.691521 192.0
115.724663 400.0
115.774246 164.0
115.81144 124.0
115.935699 176.0
115.965698 76.0
115.990028 132.0
116.03215 152.0
116.062363 1072.0
116.087898 196.0
116.120064 36.0
116.167252 188.0
116.208015 160.0
116.290489 268.0
116.32605 144.0
116.371132 112.0
116.386162 140.0
116.411926 332.0
116.44236 176.0
116.474213 124.0
116.499985 44.0
116.538658 160.0
116.59668 84.0
116.645325 196.0
116.671906 180.0
116.762215 288.0
116.777267 184.0
116.839653 216.0
116.863731 188.0
116.949394 232.0
116.996368 136.0
117.01828 48.0
117.071899 1040.0
117.108719 152.0
117.134888 164.0
117.22506 144.0
117.257385 60.0
117.2854 196.0
117.315575 160.0
117.346977 172.0
117.416771 180.0
117.454865 308.0
117.490501 140.0
117.526299 204.0
117.546349 140.0
117.568405 220.0
117.61541 152.0
117.652496 224.0
117.673279 124.0
117.678734 108.0
117.687546 184.0
117.718338 296.0
117.742798 72.0
117.783836 176.0
117.807365 180.0
117.84864 152.0
117.889694 172.0
117.910339 116.0
117.979843 192.0
118.021553 216.0
118.041016 148.0
118.073517 128.0
118.099403 208.0
118.196754 188.0
118.216232 92.0
118.255188 80.0
118.276726 168.0
118.315796 156.0
118.3526 172.0
118.460884 216.0
118.515045 132.0
118.538879 272.0
118.564888 36.0
118.59523 196.0
118.63768 196.0
118.653755 228.0
118.673225 208.0
118.727478 192.0
118.766518 172.0
118.857628 148.0
118.931152 232.0
118.945015 264.0
119.033569 152.0
119.079056 168.0
119.113762 196.0
119.142052 168.0
119.170296 152.0
119.20723 140.0
119.250694 136.0
119.270256 212.0
119.318077 124.0
119.342651 160.0
119.392006 96.0
119.441109 160.0
119.456039 164.0
119.499123 212.0
119.519463 128.0
119.552994 192.0
119.598755 148.0
119.616104 188.0
119.660988 292.0
119.731407 180.0
119.762398 172.0
119.807739 160.0
119.928261 324.0
119.96682 172.0
120.006058 148.0
120.054031 96.0
120.128731 208.0
120.167084 240.0
120.240517 172.0
120.289665 296.0
120.310204 168.0
120.34861 288.0
120.363808 196.0
120.370308 188.0
120.375893 372.0
120.403198 308.0
120.438148 140.0
120.46785 140.0
120.488266 220.0
120.518974 156.0
120.549767 176.0
120.576683 256.0
120.643547 108.0
120.69165 180.0
120.713516 128.0
120.72924 208.0
120.81234 196.0
120.85788 124.0
120.892891 68.0
120.9104 52.0
120.932281 104.0
121.028603 212.0
121.048309 84.0
121.068016 120.0
121.085541 176.0
121.131104 244.0
121.160011 172.0
121.25531 220.0
121.305443 196.0
121.398918 208.0
121.481216 192.0
121.600502 208.0
121.638069 284.0
121.658974 320.0
121.69928 220.0
121.708755 228.0
121.812691 160.0
121.868652 128.0
121.899414 80.0
121.965347 152.0
122.01371 64.0
122.053284 164.0
122.096832 588.0
122.175064 108.0
122.293076 128.0
122.469765 160.0
122.533096 124.0
122.601402 232.0
122.681648 128.0
122.740273 52.0
122.778549 112.0
122.828491 168.0
122.901291 176.0
122.925568 156.0
122.981644 228.0
123.039146 148.0
123.047394 184.0
123.075241 168.0
123.09774 224.0
123.128662 172.0
123.146332 160.0
123.210388 116.0
123.239105 148.0
123.329712 184.0
123.396027 104.0
123.413719 164.0
123.429192 164.0
123.554276 192.0
123.624992 140.0
123.661476 128.0
123.694679 124.0
123.767738 156.0
123.83226 176.0
123.847458 240.0
123.880646 244.0
123.90062 140.0
123.931641 112.0
123.94857 144.0
123.988205 156.0
124.010406 272.0
124.053528 56.0
124.077919 212.0
124.112961 15860.0
124.173897 28.0
124.200386 216.0
124.215408 244.0
124.270866 48.0
124.293053 152.0
124.339653 196.0
124.367882 156.0
124.396454 176.0
124.410591 192.0
124.510597 148.0
124.584038 148.0
124.636223 196.0
124.657219 224.0
124.688965 140.0
124.745689 200.0
124.850227 136.0
124.932915 152.0
124.981865 92.0
125.013016 124.0
125.041245 268.0
125.059746 120.0
125.075333 172.0
125.090912 136.0
125.116943 1608.0
125.142113 196.0
125.159706 40.0
125.172714 140.0
125.202232 72.0
125.244553 124.0
125.30024 140.0
125.320297 92.0
125.340294 176.0
125.391602 148.0
125.419647 192.0
125.465637 204.0
125.493851 204.0
125.571983 128.0
125.643463 176.0
125.658302 132.0
125.688736 272.0
125.714966 76.0
125.739517 80.0
125.755135 172.0
125.846664 160.0
125.904716 148.0
125.934898 312.0
125.95578 200.0
125.987366 276.0
126.048355 2064.0
126.079536 356.0
126.096848 164.0
126.112495 188.0
126.168381 112.0
126.215332 144.0
126.365181 196.0
126.391808 196.0
126.483788 184.0
126.547386 284.0
126.633804 92.0
126.688797 196.0
126.704536 104.0
126.725647 112.0
126.748055 136.0
126.79287 272.0
126.855629 188.0
126.911942 68.0
126.95285 288.0
126.99353 320.0
127.002274 160.0
127.013557 224.0
127.019814 140.0
127.030319 164.0
127.055267 17760.0
127.128227 236.0
127.153206 244.0
127.192101 68.0
127.242073 184.0
127.276299 180.0
127.322983 176.0
127.366089 164.0
127.391945 176.0
127.411392 384.0
127.433769 132.0
127.482269 144.0
127.499794 76.0
127.582962 68.0
127.614433 324.0
127.630173 264.0
127.664551 168.0
127.690552 80.0
127.716774 300.0
127.735878 220.0
127.76062 164.0
127.793755 176.0
127.832619 156.0
127.851997 372.0
127.900558 136.0
127.929527 344.0
127.950447 148.0
127.959435 152.0
127.998665 144.0
128.006012 140.0
128.029251 652.0
128.063583 118876.0
128.149582 172.0
128.190948 160.0
128.228439 112.0
128.260071 60.0
128.294785 192.0
128.312378 188.0
128.366882 108.0
128.43335 1028.0
128.469849 116.0
128.517654 224.0
128.541992 204.0
128.546234 204.0
128.555908 384.0
128.575745 200.0
128.611465 264.0
128.646149 176.0
128.677948 292.0
128.710098 312.0
128.742294 136.0
128.745926 208.0
128.772583 156.0
128.804321 208.0
128.842682 332.0
128.858337 188.0
128.873352 200.0
128.885025 144.0
128.898529 468.0
128.923492 168.0
128.950516 220.0
128.976974 224.0
128.99321 312.0
129.02005 656.0
129.071625 224100.0
129.126907 44.0
129.154816 120.0
129.179276 64.0
129.189575 92.0
129.218979 84.0
129.246323 144.0
129.275803 444.0
129.318542 84.0
129.325882 120.0
129.365204 56.0
129.410049 80.0
129.443314 2868.0
129.463257 168.0
129.484161 104.0
129.509613 80.0
129.525543 80.0
129.558304 184.0
129.575974 116.0
129.652802 124.0
129.674774 148.0
129.697968 220.0
129.730927 124.0
129.773575 240.0
129.783569 184.0
129.843704 128.0
129.878922 64.0
129.894119 228.0
129.929016 100.0
129.983627 224.0
130.028381 264.0
130.041336 372.0
130.074402 29872.0
130.128342 96.0
130.165833 320.0
130.182922 116.0
130.21994 48.0
130.249466 136.0
130.281876 164.0
130.302673 148.0
130.338196 152.0
130.371262 164.0
130.411285 72.0
130.481384 72.0
130.500748 132.0
130.524445 28.0
130.560303 212.0
130.609161 176.0
130.626282 140.0
130.65657 44.0
130.681396 56.0
130.710968 72.0
130.746735 140.0
130.779541 228.0
130.813904 284.0
130.850693 88.0
130.868546 104.0
130.892639 104.0
130.928467 180.0
130.945877 124.0
130.965668 292.0
130.988724 264.0
131.016006 224.0
131.049744 972.0
131.083572 2300.0
131.114929 164.0
131.130936 272.0
131.151123 228.0
131.199112 124.0
131.220901 132.0
131.241379 120.0
131.279373 44.0
131.309357 92.0
131.326065 164.0
131.373962 48.0
131.422531 112.0
131.471359 96.0
131.519089 72.0
131.57251 68.0
131.60936 52.0
131.646942 160.0
131.739212 60.0
131.762054 72.0
131.778046 52.0
131.796326 84.0
131.812317 80.0
131.909393 160.0
131.949463 40.0
132.018051 88.0
132.053192 184.0
132.085159 420.0
132.111832 56.0
132.127838 72.0
132.146149 84.0
132.233109 200.0
132.260574 92.0
132.340698 180.0
132.375031 200.0
132.432297 44.0
132.4552 168.0
132.627045 208.0
132.714157 132.0
132.730209 128.0
132.746262 128.0
132.781372 64.0
132.917404 92.0
132.92485 56.0
132.930542 84.0
133.011627 80.0
133.051422 108.0
133.246628 100.0
133.28569 120.0
133.33165 64.0
133.387558 184.0
133.429977 144.0
133.554657 148.0
133.584564 80.0
133.708801 144.0
133.741028 68.0
133.922928 112.0
134.045029 136.0
134.086502 204.0
134.674835 56.0
134.695618 40.0
134.753372 120.0
134.919769 192.0
135.030762 80.0
135.067764 132.0
135.09552 88.0
135.1418 104.0
135.354736 108.0
135.417267 120.0
135.452011 136.0
135.467453 88.0
135.574799 248.0
135.602615 164.0
135.771851 200.0
135.811279 104.0
135.895615 124.0
135.996231 84.0
136.116821 164.0
136.237656 148.0
136.335968 112.0
136.368515 144.0
136.398727 56.0
136.454514 164.0
136.519623 52.0
136.570786 180.0
136.594055 156.0
136.726669 184.0
136.74762 60.0
137.057327 136.0
137.110931 108.0
137.152878 48.0
137.388397 32.0
137.484055 156.0
137.585403 116.0
137.649796 100.0
137.752563 92.0
137.782928 84.0
137.841339 164.0
137.871719 64.0
137.888077 184.0
137.907715 100.0
137.928848 72.0
138.004959 84.0
138.028336 48.0
138.054062 92.0
138.24823 152.0
138.398041 48.0
138.48468 40.0
138.53093 116.0
138.549545 128.0
138.592438 128.0
138.66185 84.0
138.693207 120.0
138.745422 44.0
138.831116 68.0
138.976974 232.0
139.028595 152.0
139.061447 120.0
139.111267 108.0
139.15535 148.0
139.268066 76.0
139.35733 40.0
139.477173 172.0
139.655869 76.0
139.691162 80.0
139.940613 164.0
140.03952 52.0
140.081909 148.0
140.117249 108.0
140.143173 68.0
140.173798 168.0
140.329361 96.0
140.357651 72.0
140.383591 136.0
140.466141 88.0
140.494446 140.0
140.562866 68.0
140.645477 52.0
140.712967 224.0
140.737534 176.0
140.843811 44.0
140.895782 84.0
140.931213 204.0
141.070984 1144.0
141.10611 80.0
141.146301 44.0
141.188873 52.0
141.252731 204.0
141.552063 76.0
141.569885 28.0
141.63382 32.0
142.000381 292.0
142.032028 104.0
142.077103 132.0
142.224854 120.0
142.342926 152.0
142.475113 220.0
142.50206 136.0
142.601868 148.0
142.637527 112.0
142.894348 184.0
142.925278 60.0
142.987152 144.0
143.052155 344.0
143.106171 152.0
143.151413 84.0
143.349121 136.0
143.437317 104.0
143.473068 148.0
143.711563 168.0
143.752121 52.0
144.055344 124.0
144.260849 196.0
144.385178 144.0
144.47847 152.0
144.593323 128.0
144.626831 60.0
144.751312 180.0
144.902206 72.0
144.974091 108.0
145.065842 6988.0
145.160507 172.0
145.189041 132.0
145.302582 164.0
145.629044 100.0
145.696304 44.0
145.725128 60.0
145.876526 108.0
145.914993 40.0
146.035233 264.0
146.068314 404.0
146.10498 176.0
146.22049 96.0
146.247391 180.0
146.316772 160.0
146.380875 224.0
146.574478 100.0
146.656418 88.0
146.673279 32.0
146.692566 68.0
146.740784 60.0
147.084518 460.0
147.155762 160.0
147.387634 132.0
147.635864 168.0
147.864014 64.0
148.052841 196.0
148.080719 148.0
148.113388 124.0
148.251495 120.0
148.32663 220.0
148.350861 180.0
148.406631 28.0
148.547287 116.0
149.156769 128.0
149.696869 216.0
149.752884 208.0
149.8284 152.0
149.886871 88.0
149.942917 172.0
149.998978 132.0
150.12088 136.0
150.139572 216.0
150.216003 80.0
150.540604 72.0
150.667618 136.0
150.843567 140.0
151.05069 456.0
151.384903 76.0
151.455292 216.0
151.717484 148.0
152.00444 68.0
152.061615 1704.0
152.139435 148.0
152.2229 48.0
152.279388 164.0
152.335876 124.0
152.778366 152.0
153.067215 888.0
153.192719 188.0
153.231354 172.0
153.347168 184.0
153.386612 76.0
153.455627 76.0
153.613464 100.0
153.662796 224.0
153.714615 128.0
153.73436 128.0
153.761505 188.0
153.78125 148.0
153.982849 116.0
154.075623 632.0
154.102264 48.0
154.233246 128.0
154.2901 132.0
154.369217 80.0
154.591858 100.0
154.673523 104.0
154.720551 148.0
154.740356 124.0
155.061554 10756.0
155.178894 100.0
155.198715 48.0
155.237625 52.0
155.263199 148.0
155.310318 60.0
155.399628 60.0
155.476547 32.0
155.521225 68.0
155.558456 44.0
155.657761 68.0
155.754623 84.0
155.82666 156.0
155.856476 120.0
155.940964 56.0
156.020508 108.0
156.063354 724.0
156.182968 168.0
156.304031 64.0
156.34137 68.0
156.393631 36.0
156.433456 180.0
156.590317 88.0
156.670029 188.0
156.694946 136.0
156.881851 52.0
156.942871 252.0
156.959656 152.0
157.045593 164.0
157.050156 88.0
157.065918 132.0
157.10379 80.0
157.156189 56.0
157.236038 128.0
157.273468 132.0
157.353348 68.0
157.723068 176.0
157.778061 92.0
158.020645 204.0
158.038162 148.0
158.080704 104.0
158.100723 108.0
158.123245 216.0
158.158279 216.0
158.396164 136.0
158.416199 96.0
158.461288 196.0
158.493866 112.0
158.556503 120.0
159.585693 192.0
159.688797 56.0
159.799469 168.0
159.842239 108.0
159.874954 208.0
159.958008 184.0
160.046127 72.0
160.456802 152.0
160.515411 148.0
160.870529 148.0
161.019501 128.0
161.183701 100.0
161.267105 68.0
161.757797 84.0
161.793243 156.0
161.980637 80.0
162.011032 68.0
162.043961 72.0
162.097168 60.0
162.163055 96.0
162.358276 92.0
162.520615 160.0
162.547821 204.0
162.896347 160.0
163.229279 176.0
163.468399 120.0
163.519287 140.0
163.99556 212.0
164.219925 88.0
164.281143 148.0
164.360229 112.0
164.462311 144.0
164.623154 184.0
164.753036 108.0
164.98085 188.0
164.999496 472.0
165.031982 128.0
165.071045 12532.0
165.124039 152.0
165.219513 68.0
165.330597 148.0
165.356857 136.0
165.459244 68.0
165.489487 192.0
165.497253 156.0
165.513199 192.0
165.569351 244.0
165.618011 108.0
165.66156 72.0
165.717926 72.0
165.787109 336.0
165.844498 124.0
165.905701 220.0
165.940903 160.0
165.989182 240.0
166.017822 68.0
166.07811 14580.0
166.116058 180.0
166.156326 60.0
166.180145 28.0
166.223785 164.0
166.251266 48.0
166.466904 64.0
166.492584 48.0
166.592743 124.0
167.048981 176.0
167.084671 8972.0
167.148087 36.0
167.168671 44.0
167.214447 76.0
167.252899 44.0
167.330902 140.0
167.380569 160.0
167.405502 136.0
167.505936 60.0
167.552307 48.0
167.593536 108.0
167.614822 92.0
167.647644 84.0
167.8255 164.0
167.853867 32.0
167.902863 92.0
167.959763 132.0
168.090317 988.0
168.122147 76.0
168.158279 236.0
168.253784 76.0
168.277008 88.0
168.302826 64.0
168.354477 112.0
168.375137 76.0
168.403656 208.0
168.465546 80.0
168.530121 80.0
168.811874 156.0
168.87912 40.0
168.928253 80.0
168.987762 64.0
169.060211 88.0
169.096603 144.0
169.117142 160.0
169.46933 120.0
169.567795 156.0
169.694824 48.0
169.75705 104.0
170.071793 176.0
170.109894 48.0
170.845306 160.0
171.32431 212.0
171.405075 176.0
171.45459 152.0
171.566666 100.0
171.676178 80.0
171.903122 84.0
172.11055 164.0
172.605789 176.0
172.668549 92.0
172.747025 96.0
172.843826 124.0
172.862137 152.0
173.041397 92.0
173.223434 52.0
173.692642 72.0
174.046936 124.0
174.127289 1128.0
174.186127 92.0
174.385803 156.0
175.027695 68.0
175.130402 128.0
175.204147 92.0
175.356979 140.0
175.417603 160.0
175.651123 100.0
176.064026 156.0
176.206665 168.0
176.457733 112.0
176.685181 208.0
177.06633 124.0
177.087524 172.0
177.209381 52.0
177.808655 156.0
177.84581 264.0
177.936066 108.0
178.002441 316.0
178.078094 10316.0
178.140549 152.0
178.228226 36.0
178.284027 104.0
178.352463 192.0
178.416931 76.0
178.480728 112.0
178.499344 124.0
178.573807 72.0
178.738846 104.0
178.776001 140.0
178.909073 64.0
179.004929 140.0
179.085602 7888.0
179.135422 52.0
179.193192 88.0
179.25798 92.0
179.287292 32.0
179.428574 116.0
179.50322 216.0
179.78598 100.0
179.959488 68.0
180.090759 1924.0
180.145386 164.0
180.237274 96.0
180.320938 220.0
180.550034 136.0
180.606186 88.0
180.638901 140.0
180.70517 224.0
180.825577 96.0
180.852356 60.0
180.878815 144.0
180.927307 132.0
181.034393 88.0
181.101883 11456.0
181.219986 56.0
181.264771 40.0
181.288528 148.0
181.307861 100.0
181.325989 152.0
181.35321 52.0
181.377457 88.0
181.441666 60.0
181.461777 104.0
181.546234 56.0
181.630966 52.0
181.679855 44.0
181.719162 136.0
181.849396 28.0
181.900391 156.0
181.967499 104.0
182.106461 1900.0
182.168915 180.0
182.324158 72.0
182.522781 96.0
182.600906 156.0
182.746918 72.0
182.925171 120.0
183.002609 188.0
183.077835 328.0
183.111221 248.0
183.120041 92.0
183.156113 52.0
183.183044 272.0
183.247696 140.0
183.341003 32.0
183.368958 128.0
183.530701 52.0
183.590027 92.0
183.8517 112.0
184.067657 124.0
184.086563 100.0
184.110168 188.0
184.402634 76.0
184.80014 148.0
185.471741 92.0
185.867691 180.0
185.997955 168.0
186.131531 232.0
186.546646 144.0
186.77507 140.0
186.984558 140.0
187.134277 148.0
187.267715 68.0
187.747375 76.0
187.793732 144.0
188.14006 156.0
188.173035 140.0
188.301376 36.0
188.452026 216.0
188.943726 36.0
189.07312 168.0
189.466629 84.0
190.047852 64.0
190.077972 172.0
190.256439 60.0
190.432175 128.0
191.085541 1744.0
191.312073 172.0
191.551636 164.0
191.620514 52.0
191.665329 180.0
191.940231 28.0
191.99263 40.0
192.094116 5812.0
192.155365 148.0
192.192642 176.0
192.256027 116.0
192.261795 56.0
192.272339 92.0
192.298859 56.0
192.33197 32.0
192.46254 136.0
192.557281 152.0
192.621902 76.0
192.925873 108.0
193.09671 620.0
193.324158 56.0
193.437637 68.0
193.656372 176.0
194.097839 568.0
194.133057 112.0
194.429886 156.0
194.535355 144.0
194.679733 100.0
195.013107 64.0
195.266113 48.0
195.419098 128.0
195.541534 140.0
195.666809 80.0
195.872879 92.0
195.936951 176.0
196.101349 112.0
196.631256 172.0
196.656372 140.0
196.726151 52.0
196.93837 68.0
196.994232 156.0
197.922745 188.0
198.261688 100.0
198.326157 92.0
198.505569 112.0
198.525208 96.0
198.721542 112.0
198.830978 100.0
198.952957 120.0
199.125763 32.0
199.387039 192.0
199.547272 84.0
199.659744 152.0
200.107147 96.0
200.144897 284.0
200.763672 136.0
201.234894 96.0
201.435394 128.0
202.08844 148.0
202.507401 96.0
202.921127 196.0
203.079269 284.0
203.29837 56.0
203.934525 48.0
204.045395 104.0
204.514755 44.0
204.90773 116.0
205.100357 904.0
205.269714 124.0
205.309631 60.0
205.398041 48.0
206.063187 124.0
206.104004 112.0
206.118286 140.0
206.760895 84.0
207.061493 156.0
207.116882 4772.0
207.279205 80.0
207.302078 200.0
207.439697 124.0
207.50032 56.0
207.615738 60.0
207.671951 80.0
207.74733 72.0
207.846954 172.0
208.117767 700.0
208.142593 164.0
208.332153 128.0
208.444199 48.0
208.639648 40.0
208.838058 36.0
208.955994 92.0
209.130737 240.0
209.164398 200.0
209.402161 164.0
209.655685 128.0
209.72197 128.0
209.753677 96.0
210.128571 132.0
210.174728 52.0
210.209366 76.0
210.524002 200.0
210.694427 48.0
210.928497 128.0
211.51857 212.0
211.750198 108.0
212.373337 176.0
212.515472 40.0
212.593826 92.0
212.741852 60.0
212.918961 60.0
213.189133 192.0
213.224014 204.0
213.430405 116.0
213.677628 132.0
213.997772 96.0
214.160995 980.0
214.356033 120.0
214.700012 56.0
214.901276 104.0
215.165482 260.0
215.61377 108.0
215.672226 172.0
216.122589 188.0
216.160614 124.0
216.18988 68.0
216.35965 76.0
216.585129 172.0
216.773315 156.0
216.819504 120.0
216.886917 120.0
216.966064 148.0
217.074554 116.0
218.549088 44.0
218.672684 208.0
219.031891 224.0
219.118179 164.0
219.506378 144.0
219.615494 152.0
219.827911 136.0
220.403702 100.0
221.320633 152.0
221.498322 40.0
221.560532 132.0
221.767944 48.0
222.212753 136.0
222.773849 168.0
223.924942 44.0
224.336136 176.0
225.36586 124.0
225.485291 48.0
226.580444 96.0
226.613403 112.0
227.222015 104.0
227.522125 140.0
227.666245 148.0
227.771362 88.0
228.068832 168.0
228.330399 60.0
229.224472 128.0
229.664627 144.0
229.951263 136.0
230.298462 44.0
230.512955 196.0
231.093506 100.0
231.123764 108.0
231.284149 76.0
231.541504 112.0
232.117279 76.0
232.675537 60.0
232.979233 104.0
233.69368 168.0
233.998032 152.0
234.141144 44.0
235.565521 104.0
235.889435 48.0
236.195206 120.0
236.544037 64.0
237.42337 64.0
237.536667 136.0
238.012543 128.0
238.141525 252.0
239.174622 96.0
239.682755 76.0
239.969406 176.0
240.131226 148.0
240.160583 76.0
240.444427 172.0
240.635818 96.0
241.037338 140.0
241.235138 48.0
241.9095 156.0
242.327576 72.0
242.355469 184.0
242.481308 92.0
242.547607 152.0
242.882477 116.0
243.046906 236.0
243.54982 228.0
243.956879 116.0
244.137207 112.0
244.538528 112.0
244.594559 80.0
246.198349 180.0
246.584488 112.0
247.400864 88.0
247.817398 120.0
247.923935 176.0
248.215454 228.0
248.541672 216.0
248.698578 100.0
248.824142 80.0
249.474442 252.0
250.005997 160.0
250.119293 156.0
250.270401 156.0
251.014023 156.0
251.537735 108.0
252.20105 128.0
252.567825 68.0
253.087509 632.0
253.146988 148.0
253.67926 80.0
253.977325 52.0
254.107391 56.0
254.383484 180.0
254.481888 40.0
254.535873 232.0
254.79631 48.0
255.33667 48.0
255.616623 188.0
255.699356 128.0
255.778931 196.0
255.960403 92.0
256.020905 96.0
256.086304 148.0
256.543427 176.0
256.642273 76.0
256.986725 104.0
257.443176 40.0
257.823334 164.0
257.900024 164.0
258.485291 80.0
258.994293 156.0
259.231384 80.0
260.730011 100.0
260.810364 80.0
261.299164 196.0
261.395691 196.0
261.691803 144.0
261.839935 56.0
262.507019 92.0
262.926392 116.0
263.672394 48.0
263.695007 56.0
263.956879 108.0
264.218842 120.0
264.662262 136.0
265.037476 128.0
265.303741 140.0
265.777252 36.0
266.030396 64.0
266.228455 152.0
266.83606 160.0
267.073456 140.0
267.096222 184.0
267.265381 72.0
268.020782 120.0
268.301086 112.0
268.356506 92.0
268.581512 88.0
269.812592 112.0
270.08075 108.0
270.133087 156.0
270.578125 148.0
270.921997 64.0
271.095703 164.0
271.230011 88.0
271.259521 112.0
271.485748 152.0
272.178131 204.0
272.595276 248.0
272.749756 140.0
272.989746 48.0
273.141052 168.0
273.361481 92.0
273.670868 184.0
273.996918 108.0
274.084381 96.0
274.237488 168.0
274.290222 88.0
274.682617 80.0
274.959747 156.0
275.08847 76.0
275.430786 168.0
275.70282 52.0
275.805267 156.0
275.8284 136.0
275.917664 76.0
276.19873 72.0
276.420135 204.0
276.556091 56.0
276.744781 164.0
278.180267 192.0
278.210144 192.0
278.43924 76.0
279.629456 164.0
279.825867 164.0
280.388794 36.0
280.535461 172.0
281.099091 184.0
281.342743 116.0
281.576477 88.0
281.920563 84.0
282.381927 168.0
282.669617 128.0
283.158386 60.0
283.453186 92.0
284.110321 112.0
284.348541 88.0
284.476105 152.0
284.902588 68.0
285.352905 32.0
285.414368 72.0
285.484039 248.0
285.568115 140.0
285.685852 148.0
286.251282 140.0
286.716156 112.0
286.928528 120.0
286.955505 228.0
287.299469 160.0
287.451324 164.0
287.87326 140.0
287.900269 152.0
288.282013 168.0
288.448181 212.0
288.890594 96.0
289.191742 184.0
289.631897 56.0
289.80127 60.0
289.841949 180.0
289.95816 164.0
290.194702 272.0
290.25885 104.0
290.302948 140.0
290.421661 156.0
290.492889 28.0
290.550537 104.0
290.57431 56.0
290.679474 136.0
290.77832 92.0
290.825409 100.0
290.901672 224.0
290.988342 164.0
291.030579 128.0
291.095306 128.0
291.150543 152.0
291.193634 148.0
291.239227 200.0
291.299408 100.0
291.341553 120.0
291.387817 188.0
291.459045 136.0
291.480347 140.0
291.555603 108.0
291.637177 52.0
291.669708 148.0
291.717194 288.0
291.74118 120.0
291.813934 40.0
291.862976 180.0
291.906555 100.0
291.934235 84.0
291.981384 132.0
292.017609 148.0
292.025604 352.0
292.051117 160.0
292.079193 112.0
292.106384 260.0
292.152649 308.0
292.158203 168.0
292.20697 99928.0
292.360199 60.0
292.392395 72.0
292.417328 116.0
292.447754 136.0
292.475494 124.0
292.509277 80.0
292.539429 172.0
292.563873 88.0
292.59729 224.0
292.630951 112.0
292.710297 160.0
292.739136 96.0
292.769623 364.0
292.822021 124.0
292.876801 128.0
292.913361 156.0
292.96933 88.0
292.99588 76.0
293.059631 40.0
293.115845 228.0
293.209351 18976.0
293.302917 192.0
293.346191 56.0
293.393616 52.0
293.41861 152.0
293.450897 40.0
293.482391 104.0
293.50412 88.0
293.550446 84.0
293.57431 156.0
293.598206 64.0
293.630798 132.0
293.686859 60.0
293.748932 104.0
293.782379 88.0
293.819916 36.0
293.857422 48.0
293.912384 64.0
293.955017 80.0
294.007294 92.0
294.079224 52.0
294.129517 88.0
294.212616 1908.0
294.296387 52.0
294.355774 120.0
294.415375 52.0
294.475281 44.0
294.536774 80.0
294.6026 84.0
294.671661 68.0
294.700745 224.0
294.749023 60.0
294.803894 104.0
294.854523 92.0
294.881866 56.0
294.92511 140.0
294.962128 136.0
294.986115 220.0
295.034027 108.0
295.069092 108.0
295.095001 124.0
295.152618 108.0
295.235596 76.0
295.266693 80.0
295.312653 68.0
295.394745 124.0
295.428955 108.0
295.466583 124.0
295.488922 60.0
295.571869 72.0
295.647919 36.0
295.706085 116.0
295.736908 44.0
295.788239 60.0
296.075836 60.0
296.106659 40.0
296.154602 72.0
296.182007 84.0
296.22998 32.0
296.253937 60.0
296.325897 96.0
296.353302 88.0
296.539429 64.0
296.798401 56.0
296.824524 92.0
296.857178 48.0
296.915466 80.0
297.03894 52.0
297.069824 56.0
297.176178 124.0
297.306549 76.0
297.340881 100.0
297.471313 104.0
297.598328 84.0
298.312897 32.0
298.821869 136.0
299.999664 68.0
301.017487 36.0
301.297241 72.0
301.480377 108.0
301.781097 92.0
301.815674 104.0
302.085419 60.0
302.663391 80.0
302.888489 104.0
303.446411 48.0
303.602448 88.0
303.709961 84.0
303.997925 80.0
305.2276 84.0
305.286713 152.0
305.460602 100.0
305.693695 100.0
305.882935 108.0
306.034821 120.0
306.218842 104.0
306.403992 56.0
306.700195 108.0
307.087219 64.0
307.188354 64.0
309.617523 92.0
309.999359 64.0
310.211029 192.0
310.967285 80.0
311.216522 180.0
311.470001 68.0
312.221497 160.0
312.619019 56.0
312.742188 76.0
313.073151 104.0
313.397217 120.0
313.925934 64.0
314.726929 76.0
315.688049 80.0
315.716339 112.0
317.969482 40.0
318.406158 76.0
318.825378 36.0
322.91098 52.0
323.257996 60.0
323.598022 80.0
326.285187 32.0
326.720337 48.0
327.044189 108.0
327.289001 92.0
327.897766 68.0
331.044342 68.0
333.391418 96.0
334.442474 108.0
336.571472 72.0
337.024384 112.0
338.249512 84.0
339.784973 76.0
341.441589 80.0
345.073669 68.0
349.026093 128.0
352.30957 104.0
354.873169 92.0
354.996918 52.0
363.465424 96.0
371.224213 60.0
371.980011 56.0
372.632874 68.0
373.213226 92.0
373.944122 64.0
374.082672 140.0
379.022308 80.0
380.170074 72.0
382.027283 116.0
384.193237 104.0
384.489777 96.0
386.443542 56.0
389.20285 88.0
393.597107 120.0
396.330292 36.0
398.496613 76.0
400.079437 80.0
402.024506 88.0
410.91629 112.0
415.508209 104.0
416.080414 20.0
417.71405 136.0
420.460205 60.0
422.024689 96.0
428.076996 80.0
428.105835 60.0
429.721619 52.0
434.151672 96.0
441.154907 100.0
442.263397 32.0
443.469635 120.0
443.553467 84.0
444.56424 52.0
444.807678 64.0
444.870636 76.0
447.161407 88.0
449.580444 76.0
452.628235 144.0
452.958557 96.0
455.49939 88.0
462.680634 40.0
465.695129 52.0
468.697845 64.0
478.451538 48.0
480.827087 64.0
480.870728 48.0
487.189209 96.0
494.889557 80.0
495.102112 100.0
498.095856 60.0
499.069122 48.0
499.94986 72.0
501.834045 84.0
513.321777 40.0
515.425293 80.0
517.456055 116.0
518.593079 124.0
522.939636 68.0
523.353882 124.0
526.212585 136.0
527.65625 56.0
529.440796 96.0
531.430176 68.0
532.008423 84.0
534.485657 40.0
535.55365 100.0
540.030701 180.0
541.710938 44.0
544.865479 100.0
545.464905 52.0
552.258545 92.0
558.78833 116.0
558.943604 188.0
559.230652 36.0
562.261108 188.0
563.394348 100.0
572.539185 84.0
574.245361 100.0
574.402771 80.0
580.841125 104.0
581.330505 76.0
582.309875 72.0
585.869324 52.0
589.792358 56.0
591.238464 204.0
595.703979 84.0
601.493774 96.0
606.580933 104.0
609.545227 152.0
610.13501 160.0
613.852356 68.0
616.02887 148.0
618.065796 108.0
620.150635 48.0
621.454834 176.0
622.626343 108.0
624.788513 168.0
626.366516 84.0
626.496033 152.0
627.492737 308.0
630.543091 216.0
635.209106 76.0
641.7771 152.0
644.305603 148.0
644.457153 68.0
644.765442 140.0
644.982727 164.0
645.174866 88.0
645.230469 144.0
648.090027 104.0
649.615967 184.0
650.8797 220.0
654.265808 232.0
655.819458 168.0
655.992737 184.0
658.109924 232.0
658.299927 232.0
659.509644 88.0
660.767639 148.0
661.90387 136.0
664.666687 52.0
667.275879 212.0
675.790955 160.0
678.795166 84.0
679.137451 104.0
679.31897 132.0
681.572205 232.0
682.403809 32.0
682.856201 172.0
683.652161 52.0
683.777039 120.0
685.167358 64.0
686.971863 128.0
687.492798 192.0
689.121948 160.0
690.601318 60.0
690.92041 104.0
691.558838 88.0
691.830994 52.0
692.831238 32.0
695.731262 128.0
697.112671 184.0
697.170471 156.0
697.475281 220.0
700.190125 80.0
701.55481 160.0
701.950256 60.0
703.168884 52.0
703.564758 100.0
703.844543 188.0
704.150879 160.0
704.26178 160.0
704.932678 80.0
706.037537 204.0
707.000366 48.0
708.011536 216.0
708.668335 156.0
708.88031 136.0
710.826355 48.0
711.054565 240.0
711.351807 204.0
713.540466 136.0
713.779785 256.0
714.721252 156.0
715.242798 104.0
716.952393 72.0
718.573364 80.0
718.744141 144.0
719.784973 144.0
720.794495 180.0
721.687134 128.0
723.302734 200.0
723.420532 148.0
723.618591 124.0
724.154114 84.0
724.271912 72.0
728.767456 136.0
729.283325 232.0
729.514465 112.0
731.806274 168.0
731.849365 140.0
732.581787 136.0
733.239136 88.0
733.303833 208.0
733.390015 152.0
733.433167 128.0
734.150208 64.0
734.403687 200.0
734.554688 64.0
734.856812 212.0
735.914673 180.0
736.595154 128.0
738.402771 128.0
743.883667 200.0
746.284912 200.0
746.583984 204.0
746.975586 168.0
748.085693 156.0
748.477661 156.0
751.077209 208.0
754.588562 56.0
755.828247 92.0
756.251526 180.0
756.289856 132.0
760.231995 160.0
763.966492 92.0
764.087524 224.0
765.036011 168.0
765.793945 204.0
766.581726 124.0
767.287231 140.0
768.081299 172.0
768.517151 212.0
768.583374 52.0
769.936951 204.0
770.488159 76.0
770.80304 156.0
771.002014 68.0
772.644226 184.0
773.507507 92.0
773.607117 172.0
775.734314 236.0
776.699158 120.0
777.115173 140.0
778.813904 104.0
780.141907 156.0
783.441895 176.0
783.514343 180.0
784.422668 136.0
785.498901 120.0
786.26886 236.0
786.441833 140.0
786.631653 112.0
787.485901 60.0
787.832214 204.0
788.206543 208.0
789.318909 48.0
790.706238 60.0
791.960388 212.0
793.848999 52.0
794.36499 56.0
794.853088 140.0
796.211609 196.0
797.121643 212.0
797.60498 136.0
798.094055 184.0
800.885315 132.0
801.257141 36.0
801.34729 128.0
802.023499 208.0
804.115967 104.0
804.917603 172.0
808.128052 136.0
809.384583 204.0
809.537476 112.0
811.146545 56.0
811.259888 180.0
811.926392 180.0
812.672058 168.0
812.81958 104.0
812.972778 132.0
814.108154 88.0
815.159058 56.0
815.80127 188.0
816.111267 168.0
817.3255 192.0
817.496216 44.0
817.951477 100.0
819.221375 68.0
819.420715 172.0
819.944946 144.0
821.142212 68.0
821.381775 216.0
821.627075 112.0
821.895203 176.0
824.493408 140.0
825.315125 188.0
827.822815 248.0
827.885803 196.0
828.338257 176.0
828.641907 32.0
829.054443 140.0
829.558838 200.0
829.730835 120.0
829.937195 116.0
830.883545 160.0
831.497498 140.0
832.657227 176.0
834.841003 36.0
834.921509 156.0
834.996277 216.0
835.283875 68.0
837.413513 216.0
838.283447 156.0
838.81366 160.0
838.957764 204.0
839.136475 156.0
839.33252 208.0
840.157288 108.0
840.751587 140.0
840.936279 68.0
841.271057 120.0
841.432678 196.0
842.183655 156.0
842.322021 228.0
842.535767 108.0
842.622375 132.0
844.80188 148.0
845.750854 104.0
847.099976 140.0
847.239014 148.0
847.308533 140.0
848.137207 144.0
848.658936 48.0
849.204041 92.0
849.789917 64.0
849.958191 192.0
850.06842 220.0
850.410828 160.0
850.863647 188.0
851.397827 176.0
851.438477 84.0
852.240112 88.0
852.786316 176.0
852.832825 256.0
852.89679 144.0
853.164185 44.0
853.268799 172.0
853.611877 188.0
853.757263 68.0
854.885803 192.0
855.240784 124.0
855.339783 188.0
855.706482 136.0
857.098511 148.0
857.197571 148.0
857.570557 172.0
858.188477 240.0
858.497559 128.0
858.573364 128.0
859.063293 196.0
859.109924 140.0
859.436646 188.0
859.891846 104.0
862.035095 144.0
862.426636 88.0
862.66626 84.0
862.771545 148.0
863.87677 100.0
864.722473 172.0
865.298828 100.0
866.14209 164.0
867.231934 124.0
867.994019 188.0
868.19928 156.0
871.257324 96.0
871.956543 152.0
873.038269 220.0
873.549927 212.0
874.185364 64.0
875.280273 72.0
875.562927 200.0
875.981079 208.0
876.475952 260.0
876.823669 160.0
876.982788 128.0
877.171387 176.0
879.064575 100.0
879.188477 128.0
879.392883 228.0
879.825989 160.0
879.873169 76.0
880.32196 136.0
881.326111 232.0
882.827515 156.0
883.762085 164.0
883.886353 160.0
884.336121 156.0
884.454468 128.0
886.11853 140.0
886.35553 104.0
886.432556 176.0
886.817749 160.0
887.280151 200.0
887.535095 120.0
887.600281 36.0
887.938293 180.0
888.288269 48.0
889.581848 196.0
889.724365 36.0
891.00116 204.0
891.880615 40.0
892.374023 132.0
892.885437 192.0
893.396973 188.0
893.813416 168.0
894.057373 144.0
895.587463 216.0
896.582458 132.0
896.695679 148.0
897.685303 124.0
897.848145 128.0
898.00946 232.0
898.723145 120.0
898.80072 140.0
899.803467 188.0
899.970642 188.0
900.442383 232.0
900.735046 156.0
901.553528 172.0
901.673096 200.0
902.145264 256.0
902.874695 160.0
903.777954 160.0
903.915588 248.0
904.035278 28.0
904.843323 188.0
905.945251 144.0
906.202881 212.0
906.730164 264.0
906.880005 164.0
906.951904 60.0
907.833252 108.0
908.199097 124.0
908.319031 112.0
908.876953 220.0
910.383667 140.0
910.876709 124.0
911.693237 184.0
911.897583 160.0
912.228149 40.0
913.093994 300.0
913.244324 152.0
913.871887 100.0
914.086609 96.0
914.832886 180.0
915.218201 144.0
916.043274 148.0
917.097717 164.0
917.260498 180.0
917.549866 284.0
918.008057 156.0
918.382019 148.0
918.731873 160.0
920.113831 152.0
920.43988 172.0
921.496887 160.0
921.862366 180.0
922.131348 164.0
922.336853 160.0
922.971619 112.0
923.068359 68.0
923.534058 132.0
923.951416 156.0
924.24707 128.0
925.125488 180.0
925.476624 224.0
926.306152 148.0
926.984863 204.0
927.72168 176.0
927.984985 148.0
928.045593 100.0
928.203247 168.0
928.445801 144.0
928.827881 208.0
929.774414 260.0
930.7547 180.0
930.812439 200.0
931.431885 200.0
931.559448 192.0
931.984741 160.0
932.233887 160.0
932.945007 76.0
933.020142 120.0
936.644775 220.0
936.705688 100.0
936.876221 88.0
937.260071 176.0
937.56665 164.0
937.692749 132.0
937.771973 180.0
938.131836 176.0
938.549255 176.0
938.905945 156.0
939.437195 196.0
939.485413 204.0
939.924683 144.0
940.357971 128.0
940.895081 120.0
941.163757 176.0
941.316406 96.0
941.701111 156.0
942.715271 176.0
943.247009 124.0
943.369263 152.0
943.68103 152.0
944.22937 196.0
944.292542 100.0
944.423157 212.0
944.702332 184.0
944.775757 152.0
945.026611 224.0
946.12207 92.0
946.336365 176.0
946.862976 208.0
946.97937 160.0
947.083496 112.0
947.132446 136.0
947.346863 44.0
948.35791 148.0
949.504395 140.0
949.700684 156.0
950.050293 176.0
950.289551 120.0
950.651611 208.0
950.952271 140.0
951.547729 172.0
951.830139 120.0
951.995972 64.0
952.072998 192.0
952.370605 172.0
952.960327 196.0
953.458069 184.0
953.912903 84.0
954.306335 92.0
956.213257 120.0
956.27478 160.0
956.410217 152.0
956.945801 156.0
958.49176 176.0
958.831177 148.0
959.13269 192.0
959.730713 196.0
959.952332 136.0
960.458374 168.0
960.507751 196.0
960.742126 84.0
961.212219 192.0
961.38385 152.0
961.519592 184.0
962.14917 168.0
962.35907 256.0
962.914856 208.0
963.06311 220.0
963.131042 172.0
963.384277 128.0
963.501648 184.0
963.835327 212.0
963.913513 260.0
964.323486 136.0
964.644897 116.0
964.830383 124.0
964.92926 136.0
965.195129 320.0
965.362122 96.0
966.085754 144.0
966.407471 188.0
967.088135 128.0
967.24176 108.0
967.410034 72.0
967.471741 140.0
967.521484 184.0
967.682434 196.0
967.922363 112.0
968.131226 140.0
969.484924 260.0
969.974548 248.0
970.148132 236.0
970.334106 192.0
970.457336 160.0
970.699951 124.0
970.916992 132.0
971.66748 148.0
971.952942 96.0
972.188721 132.0
972.592102 192.0
972.790771 200.0
973.08252 228.0
973.337097 224.0
973.920837 136.0
974.840332 140.0
974.914917 180.0
975.412109 64.0
975.679443 188.0
977.053833 48.0
977.14093 164.0
977.327576 88.0
978.42688 208.0
978.827637 152.0
979.294739 148.0
979.618591 172.0
979.662231 188.0
980.914734 104.0
981.525696 152.0
981.773376 200.0
981.831299 196.0
982.411316 92.0
982.573547 208.0
982.987183 220.0
983.266174 196.0
983.909058 124.0
985.439209 192.0
985.526672 140.0
985.789124 216.0
986.432861 36.0
986.626648 272.0
987.395752 128.0
987.489868 164.0
987.539551 168.0
987.983704 112.0
988.784607 196.0
988.916016 220.0
988.997437 152.0
989.354187 176.0
989.535767 144.0
989.642212 160.0
989.986572 156.0
990.58783 140.0
990.98877 180.0
991.540222 184.0
991.621704 176.0
992.662354 148.0
993.239319 200.0
993.635315 144.0
994.826904 164.0
995.027832 224.0
995.391968 120.0
995.643127 188.0
996.120483 160.0
996.723633 188.0
996.974976 212.0
997.314331 144.0
997.358337 136.0
997.44635 220.0
997.575439 168.0
997.729248 128.0
998.059692 180.0
998.225952 192.0
999.364441 184.0
999.867859 232.0
999.974854 176.0
1000.440613 124.0
1001.347351 168.0
1001.424072 152.0
1001.574097 180.0
1002.096924 148.0
1002.550598 136.0
1002.739685 124.0
1002.872009 112.0
1003.187195 140.0
1003.382629 116.0
1003.622192 196.0
1003.716797 184.0
1004.025757 100.0
1004.189758 168.0
1004.549255 184.0
1004.637573 136.0
1004.738525 160.0
1004.953064 168.0
1004.997192 244.0
1005.199097 172.0
1005.438904 152.0
1005.931213 132.0
1006.085999 232.0
1006.104858 120.0
1006.122498 172.0
1006.54364 44.0
1006.619385 200.0
1006.82782 168.0
1007.105713 216.0
1007.516296 148.0
1007.560486 68.0
1007.674194 80.0
1007.743713 48.0
1008.571533 124.0
1008.707764 168.0
1009.431335 192.0
1009.817139 164.0
1009.924622 112.0
1010.430725 200.0
1010.772339 156.0
1010.81665 92.0
1011.164734 184.0
1011.320374 228.0
1012.025635 132.0
1013.203613 200.0
1014.122437 52.0
1014.769043 160.0
1014.864136 128.0
1015.257263 88.0
1015.669495 52.0
1015.758301 104.0
1016.132629 96.0
1016.399109 312.0
1017.344727 160.0
1018.278137 48.0
1018.335266 200.0
1018.398804 148.0
1018.659241 152.0
1018.945129 252.0
1019.237366 128.0
1019.389893 44.0
1019.497925 188.0
1019.625 168.0
1019.777527 220.0
1019.886475 148.0
1020.90918 44.0
1021.214417 120.0
1021.437073 208.0
1021.507019 128.0
1021.850525 204.0
1022.88147 144.0
1023.454468 172.0
1024.174072 48.0
1025.119263 176.0
1025.206177 172.0
1026.155884 56.0
1026.563965 200.0
1027.599976 220.0
1027.967407 152.0
1028.158813 136.0
1029.710205 172.0
1030.297852 176.0
1030.469604 180.0
1030.760986 116.0
1031.384155 152.0
1031.428955 168.0
1032.170532 212.0
1032.650513 128.0
1033.443359 144.0
1034.108887 172.0
1034.422485 176.0
1034.556885 192.0
1034.793823 152.0
1034.864258 60.0
1035.177979 144.0
1035.338013 164.0
1036.286133 80.0
1036.33728 160.0
1036.446289 228.0
1036.678711 176.0
1037.164062 172.0
1037.843506 100.0
1038.055176 172.0
1038.29248 40.0
1038.523315 176.0
1038.857422 184.0
1039.055786 204.0
1040.037598 52.0
1040.223755 124.0
1040.403442 384.0
1040.506104 124.0
1041.218872 264.0
1041.315186 188.0
1041.527222 48.0
1041.649292 172.0
1041.726318 160.0
1042.304565 100.0
1042.977417 184.0
1043.313599 124.0
1044.400269 200.0
1044.68335 188.0
1045.050049 196.0
1045.172241 156.0
1045.487549 128.0
1045.815796 168.0
1046.111938 156.0
1046.388794 204.0
1046.717163 208.0
1046.813721 116.0
1046.890991 124.0
1047.367554 216.0
1047.786255 92.0
1047.915161 116.0
1048.230835 224.0
1048.321045 176.0
1048.727051 152.0
1048.8302 172.0
1048.972046 212.0
1050.016602 152.0
1050.532593 192.0
1050.667969 160.0
1052.236084 164.0
1052.688232 112.0
1053.114502 104.0
1053.534302 136.0
1053.657104 28.0
1054.68457 156.0
1054.749146 212.0
1054.852661 180.0
1056.107056 48.0
1056.404541 80.0
1056.925537 188.0
1057.219849 168.0
1057.355713 228.0
1057.951172 40.0
1058.009399 136.0
1058.514526 128.0
1058.650513 220.0
1058.916016 152.0
1058.974243 116.0
1059.194458 140.0
1059.829346 136.0
1060.321899 164.0
1060.49353 188.0
1060.542236 180.0
1060.976562 160.0
1061.19043 196.0
1061.352539 196.0
1061.560059 132.0
1061.722168 196.0
1062.65625 124.0
1063.363525 120.0
1063.791992 124.0
1064.120239 152.0
1064.356812 56.0
1064.616577 160.0
1065.233521 164.0
1065.428467 164.0
1065.497314 312.0
1066.20166 160.0
1066.312134 252.0
1066.520142 172.0
1066.988159 220.0
1067.172485 204.0
1067.4823 156.0
1067.534302 228.0
1067.924561 140.0
1068.061035 316.0
1068.171631 108.0
1069.004395 108.0
1069.062988 104.0
1069.544678 164.0
1069.629272 140.0
1070.21521 132.0
1070.697021 128.0
1070.827271 212.0
1070.937988 160.0
1071.087769 40.0
1071.615479 132.0
1071.797974 220.0
1072.325806 144.0
1072.397461 140.0
1072.534302 164.0
1072.840698 232.0
1072.932007 156.0
1073.407959 144.0
1074.014404 156.0
1074.164429 148.0
1074.360107 148.0
1075.312866 144.0
1075.404175 188.0
1075.489014 196.0
1076.651123 172.0
1076.723022 48.0
1076.918945 132.0
1077.062622 180.0
1077.167114 176.0
1077.278198 136.0
1077.428467 236.0
1077.637451 32.0
1077.761597 140.0
1077.846558 64.0
1078.467407 176.0
1078.670044 124.0
1078.813843 156.0
1079.192993 212.0
1079.38916 148.0
1080.136719 176.0
1080.245972 168.0
1080.521851 204.0
1080.618896 168.0
1081.031128 164.0
1081.587402 144.0
1081.953979 160.0
1082.418823 168.0
1082.792114 184.0
1082.923096 140.0
1082.988525 244.0
1083.106445 148.0
1083.932007 200.0
1084.659424 176.0
1085.065796 192.0
1085.269043 128.0
1085.669067 228.0
1086.292114 168.0
1086.390381 152.0
1087.033569 216.0
1087.276367 108.0
1087.414185 100.0
1087.506104 220.0
1087.63147 180.0
1087.84082 124.0
1088.011475 192.0
1088.195312 220.0
1088.339722 240.0
1088.865112 228.0
1089.310913 152.0
1089.541626 108.0
1090.001587 148.0
1090.277588 228.0
1090.51416 160.0
1090.711304 200.0
1091.270142 200.0
1091.881714 188.0
1091.953979 68.0
1092.690796 148.0
1092.763062 136.0
1093.355347 424.0
1093.414551 124.0
1093.888428 164.0
1093.980591 128.0
1094.158325 296.0
1094.592896 176.0
1095.402954 140.0
1095.713745 164.0
1096.074951 116.0
1096.206787 156.0
1096.549438 128.0
1096.786743 128.0
1096.846069 112.0
1097.03064 164.0
1097.39978 124.0
1097.459106 152.0
1098.369263 152.0
1098.46814 36.0
1098.586914 184.0
1098.751831 156.0
1098.903564 152.0
1099.728394 136.0
1099.807617 40.0
1099.933105 148.0
1100.660156 148.0
1101.478149 212.0
1101.983276 184.0
1103.440918 148.0
1103.487183 156.0
1104.498901 132.0
1104.584961 152.0
1104.723877 56.0
1105.074463 168.0
1105.173706 156.0
1105.339111 120.0
1105.491333 192.0
1106.252441 188.0
1106.464355 140.0
1106.51062 40.0
1107.205933 136.0
1107.497314 88.0
1107.694824 228.0
1108.0802 176.0
1108.133301 52.0
1108.232666 144.0
1108.535767 172.0
1108.597046 156.0
1108.696533 104.0
1109.054321 216.0
1109.130737 176.0
1109.220093 116.0
1109.312866 144.0
1109.518433 144.0
1109.584717 68.0
1109.684082 148.0
1110.559448 204.0
1110.877808 88.0
1111.103394 172.0
1111.176392 104.0
1111.415283 96.0
1111.587769 44.0
1111.673828 152.0
1111.873047 84.0
1112.251831 140.0
1112.543457 116.0
1112.623169 172.0
1113.174194 156.0
1113.439819 116.0
1113.844971 56.0
1114.974487 148.0
1115.991577 72.0
1116.3573 160.0
1116.570068 180.0
1116.689819 132.0
1117.002441 200.0
1117.155396 160.0
1118.386353 32.0
1118.501343 136.0
1118.865723 76.0
1119.078735 200.0
1119.564819 156.0
1120.177612 112.0
1120.304077 124.0
1120.430664 236.0
1120.610596 160.0
1120.66394 172.0
1120.823853 168.0
1120.99707 132.0
1121.183594 208.0
1121.603516 148.0
1121.670166 132.0
1121.876831 176.0
1122.110107 172.0
1122.190186 316.0
1122.423584 60.0
1122.498779 128.0
1122.736938 140.0
1122.9104 176.0
1123.650757 148.0
1123.717529 176.0
1124.918701 212.0
1125.025513 116.0
1125.192383 220.0
1125.3927 152.0
1125.552979 232.0
1125.599731 76.0
1125.880127 176.0
1125.940308 248.0
1126.013794 92.0
1126.073853 48.0
1126.200928 176.0
1126.25415 140.0
1126.494629 136.0
1127.009033 44.0
1127.102661 156.0
1127.42334 180.0
1127.66394 156.0
1127.730835 156.0
1127.888428 200.0
1128.071655 148.0
1128.232178 112.0
1128.278931 100.0
1128.439331 120.0
1128.813843 176.0
1128.887329 144.0
1129.221802 200.0
1129.442505 220.0
1129.703369 172.0
1129.977661 228.0
1130.243896 100.0
1130.352295 116.0
1130.405884 148.0
1130.459351 220.0
1130.566406 132.0
1130.653442 64.0
1131.403076 200.0
1131.510254 188.0
1131.717773 124.0
1132.400879 172.0
1132.668701 152.0
1132.809448 124.0
1133.130981 108.0
1133.244873 164.0
1133.599976 132.0
1134.169678 200.0
1134.69104 208.0
1134.819946 200.0
1135.021118 104.0
1136.114258 188.0
1136.312866 128.0
1136.436279 188.0
1137.040771 152.0
1137.40271 260.0
1137.516846 144.0
1137.711426 172.0
1137.758423 108.0
1137.863037 148.0
1137.97998 160.0
1138.026978 156.0
1138.268677 140.0
1138.429932 180.0
1138.873169 120.0
1139.017212 140.0
1139.233154 200.0
1139.343384 152.0
1139.719604 140.0
1139.84729 148.0
1140.290771 152.0
1141.198242 132.0
1141.285645 180.0
1141.440308 164.0
1141.64209 284.0
1141.716064 196.0
1141.810181 184.0
1141.985107 88.0
1142.361694 124.0
1142.597168 224.0
1142.651001 208.0
1143.700806 76.0
1143.903931 228.0
1143.954834 160.0
1144.299927 192.0
1144.488403 160.0
1144.744263 156.0
1144.831909 132.0
1144.89917 124.0
1145.164673 244.0
1145.512207 176.0
1145.611084 252.0
1145.685059 144.0
1145.734375 144.0
1146.037598 44.0
1146.199341 184.0
1146.300415 104.0
1146.408203 184.0
1146.758667 108.0
1146.846191 196.0
1147.088867 32.0
1147.887695 144.0
1148.012573 200.0
1148.11377 72.0
1148.747803 108.0
1148.869141 140.0
1149.334717 152.0
1149.429199 196.0
1149.746338 164.0
1149.982544 152.0
1150.414551 140.0
1150.737427 240.0
1150.887085 196.0
1151.015381 176.0
1151.069458 212.0
1151.170654 180.0
1151.3396 216.0
1151.582642 196.0
1151.938965 232.0
1152.30542 40.0
1152.467651 176.0
1152.778442 184.0
1153.102783 172.0
1153.178711 192.0
1153.489746 244.0
1153.5625 80.0
1153.94519 196.0
1153.960815 120.0
1153.989746 188.0
1154.44812 220.0
1154.56311 144.0
1154.69165 132.0
1155.009521 112.0
1155.087646 128.0
1155.449219 152.0
1155.611572 152.0
1155.688232 196.0
1156.227295 176.0
1156.502319 232.0
1156.620483 212.0
1156.883911 164.0
1157.087036 72.0
1157.568115 148.0
1157.669312 168.0
1157.906372 192.0
1158.109497 172.0
1158.272095 172.0
1158.935913 228.0
1159.016602 132.0
1159.295044 176.0
1159.694946 80.0
1160.034058 116.0
1160.142334 140.0
1160.359253 212.0
1160.569458 164.0
1160.650757 92.0
1160.799927 184.0
1160.982666 308.0
1161.362915 72.0
1161.735962 160.0
1162.210815 228.0
1162.333008 212.0
1162.672241 52.0
1162.869141 184.0
1163.038818 208.0
1164.573242 116.0
1164.865356 224.0
1165.123413 112.0
1165.327271 148.0
1165.566528 188.0
1165.666992 196.0
1166.074829 124.0
1166.468994 208.0
1166.720459 132.0
1167.720093 112.0
1167.78125 236.0
1167.998901 184.0
1168.113403 184.0
1168.250122 164.0
1168.543091 168.0
1169.021118 196.0
1169.155518 132.0
1169.391968 208.0
1169.740845 176.0
1169.883789 64.0
1170.088745 208.0
1170.496582 44.0
1170.631226 124.0
1170.800415 144.0
1171.375122 176.0
1171.538452 160.0
1171.749878 216.0
1171.817993 172.0
1171.995117 176.0
1172.213135 152.0
1172.328979 148.0
1172.649292 156.0
1172.764038 236.0
1173.031006 220.0
1173.433228 200.0
1173.515015 152.0
1173.658203 72.0
1173.784302 72.0
1173.965088 192.0
1174.169678 196.0
1174.244629 116.0
1174.469727 180.0
1174.52063 136.0
1174.565186 172.0
1174.715332 208.0
1174.858521 216.0
1175.13147 132.0
1175.65686 84.0
1175.861572 164.0
1176.011719 196.0
1176.46228 212.0
1176.940186 280.0
1177.11084 176.0
1177.800659 184.0
1177.95813 216.0
1178.16272 184.0
1178.299316 140.0
1178.422241 168.0
1178.850952 240.0
1179.986206 168.0
1180.2677 176.0
1180.479736 160.0
1180.554932 176.0
1180.76001 184.0
1180.974854 296.0
1181.17041 168.0
1181.485107 192.0
1181.799805 100.0
1181.862549 240.0
1181.994019 208.0
1182.182983 244.0
1182.271973 224.0
1182.632935 168.0
1182.805786 180.0
1182.949585 140.0
1183.033447 260.0
1183.216553 200.0
1183.421997 64.0
1183.620483 140.0
1183.921753 68.0
1184.182007 188.0
1184.325928 124.0
1184.387573 216.0
1184.510864 172.0
1185.087769 172.0
1185.154785 132.0
1185.456299 340.0
1185.572754 460.0
1185.620728 136.0
1185.771484 168.0
1185.87439 144.0
1186.14856 200.0
1186.210205 140.0
1186.333618 116.0
1186.600708 208.0
1186.923218 288.0
1187.655396 184.0
1187.807861 164.0
1187.910767 188.0
1187.97937 156.0
1188.116455 136.0
1188.140137 240.0
1188.336792 184.0
1188.761597 212.0
1189.042969 156.0
1189.1521 176.0
1189.369385 148.0
1189.482178 228.0
1189.624634 188.0
1189.723633 144.0
1189.965942 224.0
1190.081421 184.0
1190.470825 124.0
1190.9104 148.0
1190.958496 248.0
1191.116455 152.0
1191.231689 232.0
1191.336304 136.0
1191.446167 132.0
1191.611084 172.0
1191.734741 136.0
1191.817139 184.0
1192.160767 176.0
1192.359985 208.0
1192.600586 188.0
1192.937378 116.0
1193.129883 140.0
1193.542847 168.0
1193.686768 188.0
1194.147461 164.0
1194.34021 144.0
1194.656616 188.0
1195.667969 144.0
1196.039673 168.0
1196.106445 172.0
1196.287476 144.0
1196.803833 180.0
1197.093018 144.0
1197.375366 196.0
1197.595825 132.0
1197.713623 204.0
1198.263916 68.0
1198.429321 192.0
1198.932373 160.0
1198.994385 160.0
1199.15979 184.0
1199.27002 56.0
1199.768921 372.0
1199.883545 112.0
1199.980103 144.0
1200.094849 196.0
1200.249023 160.0
1200.386841 188.0
1200.614502 188.0
1200.676514 128.0
1200.838135 268.0
1201.614624 136.0
1201.935303 152.0
1202.332275 236.0
1202.454712 92.0
1202.633301 104.0
1202.877441 156.0
1203.663452 344.0
1204.608276 260.0
1205.177246 104.0
1205.26709 76.0
1205.412109 132.0
1206.462646 44.0
1206.517944 164.0
1206.697754 120.0
1207.102295 136.0
1207.181763 132.0
1207.36853 200.0
1207.834229 248.0
1207.921753 172.0
1207.977173 204.0
1208.336914 168.0
1208.482178 168.0
1208.751953 116.0
1208.828125 144.0
1209.084106 156.0
1209.471802 108.0
1209.561768 156.0
1209.651733 156.0
1210.103882 200.0
1210.620972 132.0
1210.675293 176.0
1210.877197 176.0
1210.974243 136.0
1211.251221 196.0
1211.701538 180.0
1211.964844 252.0
1212.082642 176.0
1212.630127 56.0
1212.999878 136.0
1213.080566 152.0
1213.136108 160.0
1213.420166 172.0
1213.545166 204.0
1213.947266 152.0
1214.606201 144.0
1214.793457 204.0
1215.265137 236.0
1216.021606 160.0
1216.090942 128.0
1216.202026 176.0
1216.346436 220.0
1216.46582 124.0
1216.736572 188.0
1216.83374 160.0
1217.04895 212.0
1217.222534 160.0
1217.467407 172.0
1217.750366 156.0
1217.79895 204.0
1218.94519 176.0
1219.383057 76.0
1219.765259 184.0
1220.029419 120.0
1220.133789 132.0
1220.476562 176.0
1220.627441 84.0
1220.86377 40.0
1221.03772 228.0
1221.13501 140.0
1221.594116 108.0
1221.726318 112.0
1221.810425 128.0
1221.942017 128.0
1222.004639 156.0
1222.136719 192.0
1222.408203 132.0
1222.498657 200.0
1222.623901 124.0
1222.797852 124.0
1223.326904 164.0
1223.695801 160.0
1223.946533 156.0
1223.995239 104.0
1224.329468 176.0
1224.385132 148.0
1224.461792 176.0
1224.524536 88.0
1224.579956 156.0
1224.712524 152.0
1224.782227 100.0
1224.963257 116.0
1225.109619 180.0
1225.437012 52.0
1225.889893 156.0
1226.064087 184.0
1226.183716 152.0
1226.235596 196.0
1226.461426 208.0
1226.663574 156.0
1226.893555 172.0
1226.984253 188.0
1227.053955 284.0
1227.116699 180.0
1227.31189 68.0
1227.786133 128.0
1227.898804 252.0
1228.24646 184.0
1228.337036 168.0
1228.473511 232.0
1228.546387 164.0
1228.818481 148.0
1229.239258 212.0
1229.418457 200.0
1229.558105 108.0
1229.713379 180.0
1230.542358 160.0
1230.623413 188.0
1230.863525 220.0
1230.97522 124.0
1231.757446 60.0
1231.806274 76.0
1232.407104 132.0
1232.490967 100.0
1232.539917 124.0
1232.679688 132.0
1232.749512 172.0
1232.826416 84.0
1232.938232 196.0
1233.133911 140.0
1233.658081 168.0
1233.732544 184.0
1233.902832 124.0
1234.014648 176.0
1234.147461 172.0
1234.623047 164.0
1234.783813 188.0
1235.378418 168.0
1235.651245 228.0
1235.917114 48.0
1235.966064 112.0
1236.022095 196.0
1236.163452 132.0
1236.41394 176.0
1236.714844 212.0
1236.910889 192.0
1237.309937 88.0
1237.919067 192.0
1237.989014 276.0
1238.304199 180.0
1238.451294 52.0
1238.521729 136.0
1238.640381 176.0
1238.843506 188.0
1239.011719 180.0
1239.088745 244.0
1239.17627 140.0
1239.312988 180.0
1239.544189 76.0
1239.873535 160.0
1240.181885 60.0
1240.539429 144.0
1240.953003 144.0
1241.156372 232.0
1241.450806 128.0
1241.625366 148.0
1241.815552 172.0
1242.001099 140.0
1242.061035 28.0
1242.15918 164.0
1242.320557 96.0
1242.418823 144.0
1242.538086 64.0
1242.727417 168.0
1242.818726 228.0
1243.225708 204.0
1243.365967 172.0
1243.653809 156.0
1243.738037 148.0
1243.951416 196.0
1244.180298 152.0
1244.362793 172.0
1244.510254 148.0
1244.566406 300.0
1245.268677 144.0
1245.48877 140.0
1245.598755 200.0
1245.72522 108.0
1245.886719 148.0
1246.076416 176.0
1246.167725 68.0
1246.216919 184.0
1246.371582 200.0
1246.701782 32.0
1247.053223 128.0
1247.334351 104.0
1247.531128 136.0
1247.830688 160.0
1247.910767 128.0
1248.002197 156.0
1248.051392 172.0
1248.199097 140.0
1248.663208 204.0
1248.719482 144.0
1248.972656 216.0
1249.021973 180.0
1249.092285 120.0
1249.162598 152.0
1249.282227 256.0
1249.521362 160.0
1249.723877 152.0
1250.027954 128.0
1250.154663 104.0
1250.393921 188.0
1250.555786 212.0
1250.928833 232.0
1251.520264 232.0
1251.583618 128.0
1251.787842 180.0
1252.083618 136.0
1252.153931 160.0
1252.56958 188.0
1252.900635 208.0
1253.147217 184.0
1253.281616 160.0
1253.337402 148.0
1254.077393 116.0
1254.321167 144.0
1254.42981 164.0
1254.965576 64.0
1255.374634 232.0
1255.642578 188.0
1255.698975 132.0
1255.783569 168.0
1255.840088 84.0
1256.089722 224.0
1256.390259 152.0
1256.439575 188.0
1256.623047 120.0
1256.672485 196.0
1256.743042 224.0
1256.877075 124.0
1257.032349 124.0
1257.272217 216.0
1257.410767 140.0
1257.568604 132.0
1257.6604 144.0
1257.773315 108.0
1257.829834 196.0
1258.161621 136.0
1258.380493 112.0
1258.546631 212.0
1258.811035 156.0
1259.05127 88.0
1259.135986 64.0
1259.241943 40.0
1259.291382 164.0
1259.404419 188.0
1259.591553 168.0
1259.68689 124.0
1259.758667 128.0
1259.821167 168.0
1259.891846 116.0
1259.938477 172.0
1260.0896 208.0
1260.275391 280.0
1260.803223 232.0
1261.156616 68.0
1261.435547 208.0
1261.580811 172.0
1261.658569 164.0
1261.941284 196.0
1262.252441 92.0
1262.32312 176.0
1262.422119 176.0
1262.577759 160.0
1262.651367 172.0
1262.7229 212.0
1262.782837 212.0
1263.214233 92.0
1263.277954 200.0
1263.419434 144.0
1263.560913 168.0
1263.702393 164.0
1263.787354 108.0
1263.865112 72.0
1264.06958 116.0
1264.092407 148.0
1264.417114 164.0
1264.537476 104.0
1264.742676 176.0
1264.792236 108.0
1264.926758 156.0
1265.429321 144.0
1265.493042 172.0
1265.627563 152.0
1266.123291 192.0
1266.279053 160.0
1266.413696 180.0
1266.895386 220.0
1267.093628 172.0
1267.989258 144.0
1268.333862 152.0
1268.418823 184.0
1268.695312 120.0
1268.985962 168.0
1269.042725 180.0
1269.780151 68.0
1269.99292 36.0
1270.137085 184.0
1270.368896 180.0
1270.595947 240.0
1270.751953 140.0
1270.957764 44.0
1271.177734 80.0
1271.348022 196.0
1271.592285 328.0
1271.667358 172.0
1271.795166 168.0
1272.064941 32.0
1273.286133 56.0
1273.40686 36.0
1273.582764 116.0
1273.69812 64.0
1273.776245 48.0
1273.904419 184.0
1274.02478 84.0
1274.081665 164.0
1274.181152 144.0
1274.28772 176.0
1274.408691 172.0
1274.578979 192.0
1274.785034 304.0
1274.856079 88.0
1274.934326 156.0
1275.38916 184.0
1275.559692 88.0
1275.787231 156.0
1275.867798 232.0
1276.092896 204.0
1276.264404 176.0
1276.327515 84.0
1276.754272 212.0
1276.981812 168.0
1277.30896 164.0
1277.657593 140.0
1277.71228 204.0
1278.084473 124.0
1278.188721 128.0
1278.714966 124.0
1278.845825 108.0
1279.586182 240.0
1279.842529 140.0
1280.084595 240.0
1280.212769 180.0
1280.504761 188.0
1280.59021 128.0
1280.939209 156.0
1281.017578 108.0
1281.224243 224.0
1281.359619 156.0
1281.473511 156.0
1281.879761 204.0
1281.929565 200.0
1282.057861 112.0
1282.293091 148.0
1282.364258 176.0
1282.435547 188.0
1283.041504 140.0
1283.397949 248.0
1283.640381 168.0
1283.725952 240.0
1283.961304 108.0
1284.08252 192.0
1284.603271 164.0
1284.681641 112.0
1284.767334 140.0
1285.010864 172.0
1285.138306 184.0
1285.214722 196.0
1285.38269 184.0
1285.459351 84.0
1285.6521 188.0
1285.7948 80.0
1285.908936 112.0
1285.973145 220.0
1286.037476 180.0
1286.137329 108.0
1286.322388 168.0
1286.408569 248.0
1286.779785 108.0
1286.931152 168.0
1287.358154 152.0
1287.58667 196.0
1287.693237 180.0
1288.343872 280.0
1288.586792 172.0
1288.772461 200.0
1289.040161 244.0
1289.115479 360.0
1289.265625 128.0
1289.384155 224.0
1289.437988 312.0
1289.501465 120.0
1289.630005 152.0
1289.749023 184.0
1289.844482 172.0
1289.908813 180.0
1290.030396 128.0
1290.18042 204.0
1290.359131 160.0
1290.448608 204.0
1290.816772 208.0
1290.924072 168.0
1291.009888 92.0
1291.124268 136.0
1291.218872 176.0
1291.531982 192.0
1291.584351 96.0
1292.154297 164.0
1292.354614 116.0
1292.404663 140.0
1292.65686 236.0
1293.173584 188.0
1293.492554 204.0
1293.592773 112.0
1293.97937 52.0
1294.067871 176.0
1294.172607 44.0
1294.299072 144.0
1294.423218 152.0
1294.501953 160.0
1294.766968 164.0
1294.845703 216.0
1294.964722 172.0
1295.140137 208.0
1295.927368 180.0
1295.974731 276.0
1296.221191 56.0
1296.292847 136.0
1296.859009 148.0
1297.002319 160.0
1297.708618 268.0
1297.833984 168.0
1297.919922 136.0
1298.023071 184.0
1298.228271 32.0
1298.391235 248.0
1298.436279 332.0
1298.637085 88.0
1298.859497 140.0
1299.34729 144.0
1299.519409 180.0
1299.734741 208.0
1300.272949 136.0
1300.359009 152.0
1300.502563 152.0
1300.793457 148.0
1301.112671 132.0
1301.349609 160.0
1301.414307 220.0
1301.47168 132.0
1301.572266 176.0
1301.651245 60.0
1301.758911 228.0
1301.809204 176.0
1302.383789 188.0
1302.441162 148.0
1302.692627 140.0
1302.93689 132.0
1303.008667 104.0
1303.109253 168.0
1303.352173 220.0
1303.496582 208.0
1304.014648 108.0
1304.326904 160.0
1304.496338 280.0
1304.58252 164.0
1304.661621 124.0
1305.164917 44.0
1305.4375 176.0
1305.786499 172.0
1306.171753 204.0
1306.304688 196.0
1306.445068 192.0
1306.602661 172.0
1306.741211 128.0
1306.8479 176.0
1307.272461 164.0
1307.344482 180.0
1307.61792 196.0
1307.728882 192.0
1307.848267 116.0
1307.948975 168.0
1308.093018 184.0
1308.510498 212.0
1308.602173 204.0
1309.09375 156.0
1309.533081 76.0
1309.605103 172.0
1309.842773 196.0
1309.994019 128.0
1310.123657 132.0
1310.275024 196.0
1310.380615 144.0
1310.985962 152.0
1311.182861 204.0
1311.262207 172.0
1311.5 184.0
1311.759521 200.0
1312.019043 160.0
1312.206421 124.0
1312.285767 160.0
1312.631836 152.0
1312.714233 212.0
1313.203125 192.0
1313.747925 212.0
1313.85083 160.0
1313.923218 176.0
1314.161011 148.0
1314.247559 184.0
1314.56543 172.0
1314.990845 208.0
1315.207397 196.0
1315.265137 100.0
1315.438354 160.0
1315.662109 152.0
1315.921997 172.0
1316.174805 144.0
1316.225342 212.0
1316.319214 156.0
1316.396484 208.0
1316.817505 124.0
1317.20752 156.0
1317.308594 168.0
1317.489258 196.0
1317.604858 148.0
1317.778198 56.0
1318.002197 148.0
1318.139526 132.0
1318.327393 180.0
1318.414062 144.0
1318.741699 160.0
1318.818848 168.0
1318.883911 148.0
1318.970581 100.0
1319.418823 180.0
1319.708008 236.0
1319.845337 136.0
1320.077148 152.0
1320.365967 124.0
1320.611938 196.0
1320.872314 148.0
1321.031494 112.0
1321.154419 100.0
1321.219482 180.0
1321.270142 160.0
1321.320801 120.0
1321.407593 124.0
1322.065552 148.0
1322.089478 136.0
1322.536499 144.0
1322.608887 216.0
1322.688477 156.0
1322.918823 156.0
1323.097778 196.0
1323.335571 128.0
1323.481934 224.0
1323.796265 168.0
1323.94104 152.0
1324.027954 140.0
1324.129395 168.0
1324.440796 116.0
1324.592896 320.0
1324.776367 204.0
1325.172485 144.0
1325.324585 128.0
1325.418823 228.0
1325.650635 156.0
1325.723145 104.0
1325.846313 148.0
1326.042725 152.0
1326.397217 116.0
1326.498657 184.0
1326.672607 184.0
1327.006104 132.0
1327.136597 64.0
1327.238159 168.0
1327.354126 172.0
1327.463745 200.0
1327.571655 196.0
1327.666016 68.0
1327.796509 140.0
1328.08667 168.0
1328.304199 204.0
1328.362305 44.0
1328.455566 168.0
1328.495239 216.0
1328.724976 160.0
1328.97168 164.0
1329.058716 272.0
1329.254639 176.0
1329.544922 156.0
1329.624756 140.0
1329.789551 156.0
1329.911865 140.0
1329.960693 112.0
1330.089233 112.0
1330.205322 104.0
1331.599487 240.0
1331.88269 184.0
1332.245972 160.0
1332.318604 180.0
1332.383911 136.0
1332.434814 136.0
1332.504517 200.0
1332.73999 104.0
1332.874512 176.0
1332.921631 296.0
1333.197754 244.0
1333.271118 200.0
1333.430298 372.0
1333.677368 116.0
1333.853882 220.0
1334.12085 196.0
1334.513428 164.0
1334.702393 132.0
1334.804199 72.0
1335.196899 176.0
1335.335083 164.0
1335.613403 156.0
1335.664307 184.0
1335.938843 168.0
1336.018799 88.0
1336.069824 196.0
1336.368042 152.0
1337.302979 228.0
1337.619751 44.0
1337.72168 216.0
1337.772705 164.0
1337.838135 192.0
1337.947388 180.0
1338.020142 168.0
1338.143921 180.0
1338.223999 60.0
1338.609985 180.0
1338.683594 180.0
1338.843018 212.0
1338.973999 172.0
1339.031494 168.0
1339.272705 136.0
1339.556763 176.0
1339.775269 140.0
1339.913696 176.0
1339.986572 160.0
1340.256104 140.0
1340.321655 164.0
1340.63501 196.0
1340.874268 180.0
1340.977539 136.0
1341.108765 132.0
1341.220825 240.0
1341.342041 168.0
1341.68457 188.0
1342.012695 120.0
1342.136597 168.0
1342.362671 232.0
1342.501221 140.0
1342.763794 148.0
1342.812378 48.0
1342.873169 176.0
1343.099243 132.0
1343.157593 88.0
1343.507812 172.0
1343.558838 180.0
1343.609985 52.0
1343.780029 224.0
1344.259277 120.0
1344.646118 224.0
1344.791992 136.0
1344.927612 208.0
1345.120483 156.0
1345.171631 176.0
1345.295654 124.0
1345.466797 228.0
1345.63147 224.0
1345.777588 244.0
1345.952759 196.0
1346.383667 116.0
1346.569946 156.0
1346.683105 152.0
1346.859741 204.0
1347.026367 184.0
1347.428101 176.0
1347.53772 164.0
1347.756958 168.0
1348.224609 196.0
1348.531494 184.0
1348.629517 160.0
1348.692383 148.0
1348.809326 132.0
1348.92627 132.0
1349.043213 84.0
1349.218628 168.0
1349.364868 120.0
1349.576904 292.0
1349.686523 156.0
1349.920532 164.0
1350.056519 204.0
1350.468994 148.0
1350.678589 104.0
1350.790894 88.0
1350.864014 200.0
1351.185913 120.0
1351.302979 208.0
1351.48584 104.0
1351.646851 152.0
1351.720093 132.0
1351.785889 112.0
1352.05127 196.0
1352.391357 140.0
1352.612915 28.0
1352.78125 256.0
1352.861816 156.0
1352.971558 48.0
1353.054077 148.0
1353.169312 212.0
1353.264404 240.0
1353.637817 196.0
1354.077271 248.0
1354.172485 136.0
1354.497681 220.0
1354.795044 204.0
1354.897705 128.0
1355.139404 200.0
1355.197998 40.0
1355.502563 164.0
1355.813599 180.0
1355.952759 200.0
1356.015869 180.0
1356.099365 144.0
1356.326538 192.0
1356.412964 164.0
1356.517212 128.0
1356.64917 164.0
1356.810425 248.0
1356.993652 140.0
1357.155029 108.0
1357.277954 176.0
1357.668335 152.0
1357.770508 132.0
1357.983643 172.0
1358.038086 284.0
1358.536255 100.0
1358.585083 172.0
1358.739624 68.0
1358.995972 136.0
1359.664917 220.0
1359.9646 116.0
1360.060059 228.0
1360.199463 144.0
1360.279175 156.0
1360.353638 148.0
1360.471069 188.0
1360.537231 200.0
1360.610596 116.0
1360.808838 208.0
1360.887573 388.0
1361.374268 160.0
1361.858887 156.0
1361.967529 96.0
1361.990356 76.0
1362.01709 164.0
1362.395142 164.0
1362.461304 196.0
1362.784546 160.0
1362.858032 180.0
1363.276855 176.0
1363.50647 168.0
1363.901611 172.0
1363.982422 192.0
1364.092651 144.0
1364.210327 172.0
1364.342651 236.0
1364.581299 104.0
1364.890747 192.0
1365.048218 148.0
1365.121948 168.0
1365.526489 152.0
1365.614746 232.0
1365.688232 188.0
1365.890869 256.0
1366.033813 176.0
1366.088135 220.0
1366.166382 160.0
1366.254639 124.0
1366.43103 144.0
1366.512207 200.0
1366.615112 168.0
1366.73291 136.0
1366.791748 136.0
1367.14502 224.0
1367.378174 248.0
1367.432007 136.0
1367.696899 128.0
1367.969238 248.0
1368.035522 84.0
1368.160645 152.0
1368.234253 196.0
1368.381592 196.0
1368.536133 192.0
1368.690796 152.0
1368.823364 180.0
1368.889648 144.0
1369.081055 108.0
1369.132568 72.0
1369.338867 52.0
1369.739136 116.0
1370.036011 140.0
1370.237549 60.0
1370.289062 60.0
1370.406982 144.0
1370.517456 128.0
1370.723755 148.0
1370.826904 148.0
1370.900635 132.0
1371.084839 184.0
1371.162354 204.0
1371.269165 240.0
1371.342773 80.0
1371.453369 216.0
1371.821899 124.0
1372.26062 228.0
1372.345337 224.0
1372.487915 168.0
1372.556885 180.0
1372.788452 140.0
1373.392578 168.0
1373.473633 84.0
1373.680176 176.0
1373.849854 320.0
1374.041748 232.0
1374.366333 148.0
1374.602417 156.0
1374.845947 120.0
1374.99353 140.0
1375.107422 168.0
1375.333008 152.0
1375.384766 148.0
1375.567993 144.0
1375.651245 188.0
1375.842407 200.0
1375.930664 160.0
1376.012207 80.0
1376.743164 180.0
1376.809692 116.0
1376.942627 360.0
1377.252808 256.0
1377.585205 176.0
1377.73291 136.0
1377.828979 112.0
1378.153076 372.0
1378.205811 132.0
1378.331421 152.0
1379.114746 152.0
1379.255127 88.0
1379.612061 168.0
1379.750488 172.0
1380.14209 176.0
1380.376831 180.0
1380.489868 172.0
1380.556396 204.0
1380.748657 32.0
1380.957397 168.0
1381.11792 192.0
1381.191284 196.0
1381.503174 96.0
1381.554932 236.0
1381.710327 100.0
1381.776855 172.0
1381.998779 208.0
1382.168945 308.0
1382.450195 244.0
1382.679565 120.0
1382.938599 156.0
1383.296997 136.0
1383.426636 260.0
1383.508545 152.0
1383.612305 168.0
1383.678833 136.0
1383.865967 176.0
1384.012085 168.0
1384.106445 160.0
1384.389648 44.0
1384.752563 148.0
1384.909912 208.0
1385.241455 164.0
1385.778442 184.0
1385.967529 120.0
1386.082031 340.0
1386.260132 156.0
1386.315796 160.0
1386.42688 164.0
1386.58252 164.0
1387.083862 180.0
1387.212524 244.0
1387.279297 196.0
1387.531372 128.0
1387.731445 140.0
1388.213501 172.0
1388.284058 160.0
1388.465576 168.0
1388.517578 124.0
1388.7771 140.0
1388.903198 124.0
1389.103516 44.0
1389.55603 128.0
1389.622803 124.0
1389.978882 184.0
1390.260864 180.0
1390.394531 64.0
1390.490967 144.0
1390.862061 124.0
1391.034424 160.0
1391.124268 208.0
1391.196045 216.0
1391.478149 156.0
1391.567261 60.0
1391.63916 136.0
1391.82312 160.0
1392.057373 216.0
1392.109375 120.0
1392.443481 180.0
1392.55249 192.0
1392.722656 132.0
1392.807129 212.0
1393.009033 244.0
1393.366699 172.0
1393.490845 196.0
1393.728638 176.0
1393.860596 160.0
1393.98877 136.0
1394.095825 212.0
1394.21167 92.0
1394.271118 168.0
1394.605591 196.0
1395.200195 56.0
1395.460449 140.0
1395.601685 248.0
1395.727417 212.0
1396.172974 164.0
1396.278442 184.0
1396.382568 108.0
1396.486694 192.0
1396.553589 136.0
1396.828735 188.0
1396.992432 152.0
1397.059448 124.0
1397.371826 164.0
1397.587646 232.0
1397.684326 136.0
1397.781128 88.0
1398.115601 156.0
1398.443359 168.0
1398.641235 208.0
1398.763428 176.0
1399.150513 196.0
1399.552612 144.0
1399.69873 192.0
1399.857666 156.0
1399.959229 176.0
1400.017944 32.0
1400.034668 124.0
1400.200439 212.0
1400.278687 180.0
1400.386597 120.0
1400.602661 136.0
1400.68457 136.0
1400.967651 148.0
1401.101807 192.0
1401.511475 168.0
1401.608398 192.0
1401.824463 140.0
1402.271606 196.0
1402.359741 164.0
1402.450439 84.0
1402.603638 208.0
1402.667725 272.0
1402.823242 116.0
1402.917969 168.0
1402.97229 168.0
1403.054321 164.0
1403.173584 196.0
1403.598511 196.0
1403.725342 276.0
1403.898438 172.0
1404.105591 92.0
1404.201294 180.0
1404.44104 160.0
1404.650146 196.0
1404.814209 128.0
1404.970947 188.0
1405.078369 208.0
1405.254395 212.0
1405.358887 120.0
1405.467773 296.0
1405.54541 200.0
1405.642334 204.0
1405.746826 164.0
1406.179443 220.0
1406.191895 212.0
1406.220947 144.0
1406.470825 48.0
1406.746948 120.0
1406.985352 160.0
1407.112793 164.0
1407.165039 156.0
1407.321777 172.0
1407.515991 60.0
1407.631226 184.0
1407.710083 132.0
1408.355591 148.0
1408.546631 152.0
1408.628784 116.0
1408.903442 236.0
1408.994751 192.0
1409.27771 180.0
1409.764404 88.0
1409.891479 92.0
1410.391235 180.0
1410.53418 176.0
1410.695435 156.0
1410.893066 132.0
1410.982666 84.0
1411.072388 188.0
1411.139771 40.0
1411.388672 172.0
1411.449707 176.0
1411.548828 152.0
1411.580322 108.0
1411.597656 144.0
1412.10437 128.0
1412.252075 144.0
1412.433472 164.0
1412.553101 160.0
1412.710205 156.0
1413.091797 72.0
1413.32373 148.0
1413.450928 112.0
1413.608032 92.0
1413.742798 48.0
1413.907349 164.0
1414.064575 164.0
1414.169312 148.0
1414.440918 212.0
1414.55542 184.0
1414.947876 136.0
1415.367065 188.0
1415.509399 156.0
1415.606689 144.0
1415.715088 180.0
1415.980957 160.0
1416.24231 176.0
1416.328369 136.0
1416.610352 156.0
1416.999878 148.0
1417.100952 204.0
1417.434448 192.0
1417.644287 188.0
1417.839111 168.0
1418.09021 192.0
1418.41626 164.0
1418.581177 128.0
1418.801392 220.0
1419.000977 196.0
1419.188354 208.0
1419.338379 140.0
1419.488281 200.0
1419.863281 196.0
1420.148315 152.0
1420.478271 200.0
1420.693359 196.0
1421.026001 152.0
1421.13855 192.0
1421.393677 220.0
1421.630127 140.0
1421.812134 72.0
1422.444336 168.0
1422.894775 164.0
1422.969849 148.0
1423.621582 208.0
1423.878418 132.0
1424.291504 184.0
1424.419189 228.0
1424.606812 168.0
1424.629517 164.0
1424.990112 64.0
1425.17041 204.0
1425.271729 192.0
1425.365845 156.0
1425.425903 160.0
1425.58374 160.0
1425.718994 236.0
1426.17749 336.0
1426.335327 160.0
1426.440552 164.0
1426.869019 92.0
1427.275024 188.0
1427.478027 120.0
1427.568237 168.0
1427.741211 168.0
1428.154907 124.0
1428.410645 152.0
1428.869507 124.0
1429.035034 104.0
1429.283325 144.0
1429.411255 76.0
1429.531616 184.0
1429.629517 172.0
1429.757446 200.0
1429.888672 188.0
1430.013306 168.0
1430.15625 168.0
1430.208984 104.0
1430.442383 132.0
1430.577881 44.0
1430.750977 192.0
1431.10437 148.0
1431.32312 196.0
1431.428589 68.0
1431.540161 256.0
1431.699707 132.0
1432.008423 172.0
1432.678833 32.0
1432.746704 228.0
1432.853271 180.0
1432.92749 176.0
1433.047974 180.0
1433.371948 112.0
1433.974854 108.0
1434.050293 200.0
1434.344238 136.0
1434.615601 168.0
1434.706055 188.0
1434.871948 180.0
1435.040039 176.0
1435.316772 172.0
1435.75415 152.0
1436.395142 160.0
1436.825195 184.0
1437.036377 192.0
1437.274536 236.0
1437.526855 156.0
1437.803101 128.0
1437.934448 216.0
1438.130615 84.0
1438.274048 244.0
1438.399658 136.0
1438.814941 192.0
1438.929321 220.0
1439.119507 128.0
1439.1875 148.0
1439.247925 208.0
1439.382202 232.0
1439.663208 196.0
1439.829346 220.0
1439.9729 72.0
1440.085938 136.0
1440.140503 140.0
1440.494019 104.0
1440.625977 236.0
1440.871704 156.0
1440.947144 192.0
1441.037964 176.0
1441.408203 188.0
1441.50647 164.0
1441.657593 140.0
1441.748291 120.0
1441.846436 88.0
1441.968628 172.0
1442.253174 184.0
1442.322632 204.0
1442.481323 152.0
1442.557007 144.0
1442.738403 176.0
1442.942505 72.0
1443.04834 140.0
1443.358398 148.0
1443.585205 156.0
1443.675903 108.0
1443.791382 156.0
1443.940674 184.0
1444.129761 184.0
1444.203979 136.0
1444.409546 136.0
1444.503296 172.0
1444.678101 184.0
1445.211548 132.0
1445.340088 148.0
1445.484253 172.0
1445.586304 164.0
1445.721924 164.0
1445.840576 152.0
1446.074219 128.0
1446.636108 152.0
1446.914429 168.0
1446.967407 156.0
1447.043091 144.0
1447.103638 232.0
1447.179443 180.0
1447.270264 184.0
1447.392334 164.0
1447.701904 184.0
1447.851685 152.0
1448.004761 248.0
1448.06543 184.0
1448.148682 156.0
1448.247192 180.0
1448.321411 192.0
1448.694092 188.0
1448.936523 132.0
1449.125854 116.0
1449.194092 100.0
1449.307739 200.0
1449.396362 160.0
1449.550171 104.0
1449.648682 152.0
1449.81543 156.0
1449.922607 176.0
1449.997314 200.0
1450.308105 60.0
1450.467163 124.0
1450.530884 92.0
1450.577148 72.0
1450.64917 68.0
1450.702271 140.0
1450.815918 216.0
1451.111572 172.0
1451.236206 176.0
1451.308472 152.0
1451.903564 144.0
1451.932861 208.0
1451.990723 144.0
1452.037842 160.0
1452.468994 156.0
1452.613159 140.0
1452.71936 196.0
1452.772461 60.0
1452.890259 128.0
1453.006714 196.0
1453.151733 252.0
1453.447632 188.0
1453.52356 108.0
1453.622192 140.0
1453.918213 148.0
1453.975464 200.0
1454.100342 156.0
1454.172363 148.0
1454.411499 196.0
1454.745483 188.0
1455.01123 136.0
1455.102295 208.0
1455.162842 136.0
1455.383179 180.0
1455.49707 128.0
1455.716309 152.0
1455.846436 144.0
1456.06665 120.0
1456.355225 164.0
1456.423584 204.0
1456.734497 168.0
1456.848999 164.0
1457.244019 156.0
1457.380737 172.0
1457.464355 196.0
1457.905151 164.0
1458.02832 96.0
1458.224243 188.0
1458.383911 104.0
1458.459961 196.0
1458.573975 248.0
1458.976807 188.0
1459.045288 176.0
1459.183105 208.0
1459.483887 180.0
1459.562256 112.0
1459.638306 128.0
1459.829102 172.0
1460.094604 104.0
1460.162964 216.0
1460.287476 268.0
1460.301758 176.0
1460.741089 200.0
1460.80957 164.0
1460.976929 176.0
1461.136597 208.0
1461.311646 128.0
1461.654053 164.0
1461.722534 84.0
1461.83667 184.0
1461.943115 116.0
1462.415039 140.0
1462.656128 164.0
1463.016357 148.0
1463.077271 124.0
1463.199097 164.0
1463.261475 204.0
1463.320923 124.0
1463.389404 100.0
1463.480713 148.0
1463.655884 76.0
1463.823364 132.0
1463.938843 236.0
1464.173706 176.0
1464.348877 156.0
1464.554565 160.0
1464.776733 320.0
1465.041992 300.0
1465.228516 232.0
1465.55249 140.0
1465.758179 156.0
1465.925903 152.0
1466.116333 168.0
1466.184937 160.0
1466.45166 176.0
1466.619385 140.0
1467.026367 112.0
1467.092041 164.0
1467.297852 216.0
1467.381714 116.0
1467.530518 236.0
1467.846802 124.0
1467.984009 252.0
1468.060303 92.0
1468.174683 148.0
1468.61377 196.0
1468.976074 192.0
1469.219604 140.0
1469.547729 132.0
1469.845337 60.0
1469.982666 156.0
1470.089966 128.0
1470.234497 100.0
1470.822144 44.0
1471.150391 180.0
1471.463379 160.0
1471.616089 52.0
1471.822266 184.0
1471.913818 112.0
1472.161987 204.0
1472.226929 172.0
1472.307373 108.0
1472.499146 276.0
1472.593506 76.0
1472.67749 128.0
1472.810181 192.0
1472.896484 204.0
1472.960083 216.0
1473.189331 232.0
1473.372681 136.0
1473.564087 136.0
1473.854004 68.0
1474.212891 148.0
1474.30481 156.0
1474.457642 56.0
1475.025879 176.0
1475.153198 144.0
1475.298462 144.0
1475.397827 188.0
1475.474243 224.0
1475.543091 156.0
1475.680664 132.0
1475.77002 184.0
1475.940674 76.0
1476.16687 192.0
1476.264526 164.0
1476.330688 136.0
1476.422363 180.0
1476.564209 156.0
1476.659546 140.0
1476.745117 184.0
1476.869629 144.0
1476.965454 156.0
1477.0802 168.0
1477.179565 44.0
1477.447388 104.0
1477.738037 296.0
1478.151245 164.0
1478.503296 80.0
1478.679321 208.0
1478.778809 76.0
1478.903564 120.0
1478.970093 188.0
1479.145508 184.0
1479.337891 164.0
1479.613159 200.0
1479.78833 152.0
1480.064819 104.0
1480.332886 220.0
1480.509033 96.0
1480.593262 108.0
1480.868164 204.0
1481.052734 116.0
1481.267334 216.0
1481.573608 176.0
1482.048706 144.0
1482.156006 116.0
1482.263184 124.0
1482.447144 60.0
1482.569702 100.0
1482.846191 176.0
1483.355713 212.0
1483.658203 140.0
1483.765503 144.0
1484.171875 128.0
1484.233154 172.0
1484.662598 176.0
1484.93103 156.0
1485.207153 96.0
1485.276123 108.0
1485.368164 224.0
1485.444946 136.0
1485.545044 132.0
1485.616089 224.0
1485.808716 200.0
1486.112305 176.0
1486.680176 116.0
1487.025513 140.0
1487.255737 160.0
1487.340088 176.0
1487.433838 104.0
1487.927856 168.0
1488.182495 156.0
1488.299805 204.0
1488.456787 236.0
1488.545532 144.0
1488.630005 172.0
1488.699097 136.0
1488.814331 160.0
1488.875732 204.0
1489.060059 212.0
1489.221802 172.0
1489.305786 156.0
1489.43689 144.0
1489.766724 180.0
1489.858887 168.0
1489.928101 160.0
1490.057129 188.0
1490.116943 368.0
1490.173828 128.0
1490.450195 208.0
1490.588745 96.0
1490.957642 172.0
1491.095947 164.0
1491.311157 152.0
1491.434204 140.0
1491.57251 124.0
1491.741577 128.0
1491.856934 124.0
1491.995361 128.0
1492.140137 148.0
1492.202881 196.0
1492.295166 156.0
1492.410522 164.0
1492.558228 220.0
1492.817993 204.0
1492.93335 148.0
1493.12561 208.0
1493.2948 184.0
1493.402466 148.0
1493.47168 152.0
1493.670776 200.0
1493.956299 212.0
1494.164062 120.0
1494.217896 188.0
1494.27771 128.0
1494.363037 172.0
1494.479492 52.0
1495.025757 152.0
1495.289551 120.0
1495.516846 200.0
1495.547974 160.0
1495.710815 168.0
1495.79541 148.0
1495.987915 148.0
1496.172729 176.0
1496.40625 184.0
1496.541016 200.0
1496.852173 168.0
1496.981079 188.0
1497.058105 124.0
1497.443237 116.0
1497.517456 132.0
1497.581787 164.0
1497.728149 244.0
1497.817139 192.0
1498.059448 40.0
1498.144165 160.0
1498.298218 128.0
1498.359863 48.0
1498.609619 200.0
1498.721924 212.0
1498.960449 172.0
1499.11499 200.0
1499.361572 188.0
1499.731445 96.0
1499.931885 96.0
1500.078369 196.0
1500.178589 156.0
1500.386719 180.0
1500.502319 144.0
1500.664185 292.0
1500.841553 168.0
1500.90979 136.0
1501.073242 156.0
1501.157715 132.0
1501.21167 208.0
1501.273438 172.0
1501.327393 228.0
1501.527832 208.0
1501.619507 136.0
1501.726807 112.0
1501.834839 164.0
1501.946533 228.0
1502.019409 180.0
1502.069824 180.0
1502.1604 172.0
1502.468872 148.0
1502.53833 152.0
1502.626099 224.0
1502.645264 84.0
1502.674194 212.0
1502.779907 160.0
1502.908691 140.0
1503.086182 176.0
1503.248169 228.0
1503.433472 164.0
1503.888794 228.0
1503.973633 112.0
1504.768799 160.0
1505.039307 308.0
1505.154785 132.0
1505.224365 120.0
