>compound RUTIN
>formula C27H30O16
>ionization [M+H]+
>parentmass 611.1606613320905
#inchi InChI=1S/C27H30O16/c1-8-17(32)20(35)22(37)26(40-8)39-7-15-18(33)21(36)23(38)27(42-15)43-25-19(34)16-13(31)5-10(28)6-14(16)41-24(25)9-2-3-11(29)12(30)4-9/h2-6,8,15,17-18,20-23,26-33,35-38H,7H2,1H3/t8-,15+,17-,18+,20+,21-,22+,23+,26+,27-/m0/s1
#inchikey IKGXIBQEEMLURG
#Ion_Source LC-ESI
#Instrument qTof
#Compound_Source Commercial
#PI Dorrestein
#Data_Collector Garg_Neha
#Scan -1
#Precursor_MZ 611.161
#ExactMass 610.153
#Charge 1
#CAS_Number N/A
#Pubmed_ID N/A
#Smiles C[C@@H]1O[C@@H](OC[C@H]2O[C@@H](Oc3c(oc4cc(O)cc(O)c4c3=O)c5ccc(O)c(O)c5)[C@H](O)[C@@H](O)[C@@H]2O)[C@H](O)[C@H](O)[C@H]1O
#INCHI_AUX N/A
#Library_Class 1
#SpectrumID CCMSLIB00000079258
#IonMode Positive
#UpdateWorkflowName UPDATE-SINGLE-ANNOTATED-GOLD
#LibraryQualityString Gold
#TaskID 278b19f5865741e282cec7349aa7e7a1
##Scan# 1058
#SpectrumFile NCP003512_A2_B11_BD4_01_15728.mzXML
#LibraryName NIHcollectionI_05062014.mgf
#MQScore -1
#Organism NIHcollectionI_05062014
#TIC_Query 0
#RT_Query -1
#MZErrorPPM -1
#SharedPeaks 0
#MassDiff 0
#LibMZ -1
#SpecMZ 611.161
#SpecCharge 0
#internalFilename spec-00000.mgf

>collision 10
45.548313 220.0
52.081776 160.0
58.369724 212.0
61.794243 160.0
63.666916 160.0
66.60466 140.0
68.023666 160.0
68.462662 196.0
68.546677 172.0
71.704865 144.0
89.984314 216.0
97.172142 180.0
98.033371 180.0
98.54245 156.0
102.195229 144.0
103.040001 164.0
107.456268 176.0
108.778664 216.0
109.029984 160.0
109.088181 208.0
112.05024 160.0
112.76268 172.0
117.84021 148.0
127.037437 324.0
128.042282 172.0
129.055038 964.0
130.056671 348.0
131.061951 180.0
133.440033 160.0
136.950562 168.0
139.05246 168.0
141.548981 204.0
145.054352 588.0
147.064713 1088.0
148.071381 280.0
149.023605 196.0
152.306931 140.0
153.018784 192.0
160.288528 144.0
165.013474 152.0
168.654831 172.0
169.053116 156.0
177.660812 196.0
181.051239 240.0
190.507172 148.0
191.051483 148.0
195.731735 200.0
198.279419 156.0
205.752869 172.0
213.082672 180.0
214.470749 256.0
215.547623 152.0
218.559006 200.0
222.104111 216.0
225.390808 168.0
226.072586 152.0
226.572617 224.0
226.812347 160.0
229.062317 304.0
230.003754 148.0
231.034195 160.0
231.084488 188.0
234.45311 204.0
236.560593 160.0
237.091293 132.0
245.973618 140.0
247.05658 164.0
251.128922 192.0
255.099609 148.0
256.09256 132.0
257.610687 180.0
258.134827 160.0
270.28183 176.0
270.87439 160.0
273.091766 160.0
275.050446 176.0
284.061646 172.0
285.036407 232.0
285.532776 172.0
285.63031 164.0
287.304535 168.0
297.171051 196.0
300.201416 144.0
302.033997 180.0
302.279327 144.0
302.466217 116.0
302.61203 196.0
302.781372 136.0
302.816956 164.0
302.966492 284.0
303.051361 59248.0
303.162323 268.0
303.311798 152.0
303.515991 100.0
303.642975 180.0
303.689789 124.0
303.938293 132.0
303.991455 128.0
304.054108 10476.0
304.629333 100.0
304.804749 96.0
305.058044 1484.0
305.765869 112.0
306.057373 388.0
306.191895 108.0
306.230682 136.0
306.599701 108.0
306.890015 108.0
310.128754 232.0
314.220581 144.0
315.852631 180.0
345.059052 168.0
346.056244 144.0
369.05545 176.0
371.188202 148.0
384.18396 160.0
389.02475 144.0
431.012634 152.0
432.137268 156.0
446.953918 208.0
449.103546 440.0
451.146179 156.0
464.740906 152.0
464.903961 228.0
465.103607 7076.0
465.174042 212.0
466.01178 148.0
466.105194 2008.0
467.10907 592.0
609.233948 140.0
611.157043 464.0
612.163391 340.0
613.167664 136.0
613.333435 140.0
615.341675 144.0
1423.729858 200.0
