>compound MLS001097670-01!
>formula C20H26O4
>ionization [M+H]+
>parentmass 331.19038576409054
#inchi InChI=1S/C20H26O4/c1-10(2)11-8-12-13-9-14-19(3,4)6-5-7-20(14,18(23)24-13)15(12)17(22)16(11)21/h8,10,13-14,21-22H,5-7,9H2,1-4H3/t13?,14?,20-/m1/s1
#inchikey XUSYGBPHQBWGAD
#Ion_Source LC-ESI
#Instrument qTof
#Compound_Source NIH Natural Product Library
#PI Dorrestein
#Data_Collector VVP/LMS
#Scan -1
#Precursor_MZ 331.191
#ExactMass 330.183
#Charge 1
#CAS_Number N/A
#Pubmed_ID N/A
#Smiles CC(C)c1cc2C3CC4C(C)(C)CCC[C@]4(C(=O)O3)c2c(O)c1O
#INCHI_AUX N/A
#Library_Class 1
#SpectrumID CCMSLIB00000079540
#IonMode Positive
#UpdateWorkflowName UPDATE-SINGLE-ANNOTATED-GOLD
#LibraryQualityString Gold
#TaskID b1d8e8f6646f4e71acdff9ca3d919d08
##Scan# 2444
#SpectrumFile p1-H07_GH7_01_17963.mzXML
#LibraryName NIH_Natural_Products_Library.mgf
#MQScore -1
#Organism NIH_Natural_Products_Library
#TIC_Query 0
#RT_Query -1
#MZErrorPPM -1
#SharedPeaks 0
#MassDiff 0
#LibMZ -1
#SpecMZ 331.191
#SpecCharge 0
#internalFilename spec-00000.mgf

>collision 10
94.961365 84.0
95.085541 168.0
95.29332 220.0
95.84201 160.0
95.861496 40.0
95.888779 116.0
95.918015 120.0
95.960899 140.0
96.089073 156.0
96.105232 200.0
96.146217 72.0
96.282875 240.0
96.374687 88.0
96.454811 116.0
96.605385 164.0
96.781525 68.0
96.889252 168.0
97.108795 188.0
97.434647 244.0
97.566322 208.0
97.61351 116.0
97.684319 120.0
97.824036 140.0
97.946121 152.0
98.009163 112.0
98.070259 160.0
98.289162 208.0
98.393768 88.0
98.49646 132.0
98.522141 124.0
98.549805 172.0
98.632805 164.0
98.708069 176.0
98.75737 184.0
99.18705 124.0
99.272301 44.0
99.595802 144.0
99.617653 128.0
99.736877 128.0
99.921822 112.0
100.40387 192.0
100.471687 124.0
100.517578 168.0
100.553505 148.0
100.627357 44.0
101.161148 228.0
101.267128 168.0
101.331375 144.0
101.439598 172.0
101.700363 168.0
101.80275 120.0
102.047897 196.0
102.166557 184.0
102.281258 112.0
102.379913 92.0
102.579384 116.0
102.599541 212.0
102.926399 188.0
102.952652 128.0
103.055 1048.0
103.239616 216.0
103.429802 116.0
103.65461 140.0
103.685005 140.0
103.721489 220.0
103.804611 80.0
103.847198 140.0
103.871544 160.0
104.005463 108.0
104.06002 160.0
104.115105 136.0
104.529808 136.0
104.56237 196.0
104.674339 164.0
104.849533 140.0
104.942177 196.0
104.961655 212.0
104.982048 52.0
105.034752 152.0
105.067711 156.0
105.273865 132.0
105.290207 152.0
105.449562 60.0
105.527245 112.0
105.613136 144.0
105.991928 152.0
106.016464 124.0
106.453423 64.0
106.512978 156.0
106.613655 124.0
106.642433 140.0
106.679428 152.0
106.802811 228.0
106.841896 104.0
107.047722 124.0
107.086052 228.0
107.119804 120.0
107.226952 108.0
107.294975 204.0
107.468224 168.0
107.536324 304.0
107.759346 60.0
108.063278 248.0
108.088104 44.0
108.220573 84.0
108.253708 224.0
108.346916 168.0
108.433945 208.0
108.545547 168.0
108.800446 192.0
108.869614 160.0
108.917389 152.0
108.940239 136.0
109.279114 132.0
109.424805 148.0
109.462288 176.0
109.643524 160.0
109.760262 180.0
109.808228 140.0
109.91671 148.0
109.98349 132.0
110.154358 208.0
110.353256 192.0
110.388802 144.0
110.859818 192.0
110.987686 152.0
111.548241 236.0
111.613411 200.0
111.714371 108.0
111.781693 216.0
111.890327 124.0
112.110207 208.0
112.243011 140.0
112.927254 44.0
112.948402 136.0
112.980133 56.0
113.151558 208.0
113.261681 148.0
113.43544 220.0
113.609329 192.0
113.656006 84.0
113.706932 144.0
113.835945 156.0
113.887405 72.0
113.934525 176.0
114.088326 152.0
114.127548 164.0
114.294197 216.0
114.348785 160.0
114.497818 144.0
114.604332 124.0
114.625641 196.0
114.695969 204.0
114.928429 188.0
114.945496 112.0
115.05442 1204.0
115.118408 184.0
115.325638 188.0
115.453918 184.0
116.034203 140.0
116.059685 172.0
116.199348 188.0
116.601295 152.0
116.652489 128.0
116.675034 180.0
116.811615 136.0
116.826675 140.0
116.929955 116.0
116.945702 140.0
116.985924 176.0
117.003143 192.0
117.068596 668.0
117.11512 164.0
117.246544 144.0
117.278877 216.0
117.537666 56.0
117.621841 172.0
117.662857 184.0
117.725471 176.0
117.779465 172.0
117.872368 196.0
117.939362 160.0
117.962288 152.0
118.04007 172.0
118.861954 128.0
118.950935 124.0
118.994354 184.0
119.018242 132.0
119.048828 272.0
119.085732 256.0
119.148552 244.0
119.438667 216.0
119.531227 156.0
119.574753 152.0
119.633522 156.0
119.655296 68.0
119.999535 72.0
120.034416 144.0
120.054047 176.0
120.085876 228.0
120.180565 144.0
120.339897 168.0
120.390121 148.0
120.630463 124.0
120.831657 204.0
120.87104 172.0
120.906052 196.0
120.93232 144.0
120.991425 124.0
121.071144 156.0
121.098717 128.0
121.642509 148.0
121.908272 124.0
121.96981 144.0
122.018173 192.0
122.295349 76.0
122.434052 64.0
122.451286 160.0
123.044044 436.0
123.084587 120.0
123.270142 104.0
123.422661 184.0
123.482368 156.0
123.586227 152.0
123.632812 136.0
123.734634 260.0
123.75235 52.0
123.962776 216.0
124.04821 168.0
124.406372 160.0
124.461876 88.0
124.479637 228.0
124.608467 196.0
124.860489 192.0
125.042091 76.0
125.135582 56.0
125.498756 128.0
125.605804 152.0
125.764229 180.0
125.826736 32.0
125.851295 152.0
125.989769 132.0
126.244576 184.0
126.401161 96.0
126.501877 112.0
126.620552 180.0
126.790825 48.0
126.994843 188.0
127.030739 136.0
127.049843 168.0
127.11824 96.0
127.163124 148.0
127.250916 180.0
127.311295 128.0
127.327019 156.0
127.455063 168.0
127.470795 180.0
127.979149 148.0
128.060394 1632.0
128.14357 200.0
128.221939 164.0
128.278793 140.0
128.427612 116.0
128.594574 128.0
128.641983 204.0
128.664551 32.0
128.696167 172.0
128.91301 236.0
129.067734 972.0
129.11647 96.0
129.28389 192.0
129.365372 116.0
129.534088 132.0
129.897903 192.0
130.038589 160.0
130.075668 308.0
130.19751 152.0
130.236542 176.0
130.277008 52.0
130.602066 208.0
130.927536 140.0
130.95546 136.0
131.025482 52.0
131.050293 724.0
131.083969 528.0
131.188919 56.0
131.212357 168.0
131.296722 208.0
131.340057 40.0
131.454132 40.0
131.648178 152.0
131.707565 196.0
132.0522 296.0
132.116745 196.0
132.157928 100.0
132.173935 252.0
132.235733 180.0
132.476166 108.0
132.510529 52.0
132.590729 244.0
132.700577 240.0
132.815414 220.0
132.868179 168.0
133.064819 372.0
133.098312 484.0
133.172318 164.0
133.228607 144.0
133.249298 156.0
133.359589 124.0
133.522827 116.0
133.794357 132.0
133.845001 140.0
133.893372 192.0
133.987808 140.0
134.610565 164.0
134.69371 140.0
134.818481 236.0
135.035797 80.0
135.114456 80.0
135.211639 52.0
135.313492 120.0
135.605362 176.0
135.732864 108.0
135.809402 164.0
135.981094 200.0
136.410797 192.0
136.627075 152.0
137.058868 540.0
137.160355 160.0
137.393555 60.0
137.542892 104.0
137.568573 212.0
137.633942 124.0
137.754044 132.0
137.818817 136.0
137.904938 68.0
137.932983 168.0
138.0569 164.0
138.127075 56.0
138.281494 136.0
138.419617 136.0
138.590622 240.0
138.644516 184.0
138.721863 128.0
138.871933 168.0
138.90477 136.0
139.052597 168.0
139.190643 104.0
139.310883 136.0
139.875259 48.0
140.065979 72.0
140.167297 148.0
140.219131 88.0
140.270996 200.0
140.337006 144.0
140.38652 200.0
140.667297 200.0
140.700348 124.0
140.741302 172.0
140.794785 92.0
141.068176 1836.0
141.148315 100.0
141.319565 268.0
141.362152 48.0
141.444992 52.0
141.523911 60.0
141.582321 172.0
141.693649 52.0
141.741043 164.0
141.87851 176.0
142.05162 52.0
142.075974 856.0
142.184494 60.0
142.578735 172.0
142.757034 68.0
142.828384 164.0
142.852173 152.0
142.990173 188.0
143.050003 1760.0
143.083923 1752.0
143.10498 208.0
143.197311 252.0
143.42366 220.0
143.68837 184.0
143.98674 84.0
144.027344 148.0
144.054688 824.0
144.088654 320.0
144.151581 48.0
144.187424 168.0
144.352386 176.0
144.436096 220.0
144.627518 96.0
144.780746 140.0
144.8526 192.0
144.898117 164.0
145.064774 2296.0
145.099548 308.0
145.132996 160.0
145.162079 160.0
145.227844 124.0
145.245712 60.0
145.509689 192.0
145.72345 72.0
145.75708 76.0
145.818802 204.0
145.860428 132.0
145.886871 68.0
146.036575 328.0
146.069107 448.0
146.254913 172.0
146.36084 152.0
146.524628 148.0
146.616196 68.0
146.893463 88.0
147.023758 60.0
147.044907 744.0
147.070786 140.0
147.080765 116.0
147.090027 212.0
147.113068 100.0
147.139618 140.0
147.325577 60.0
147.448807 32.0
147.659149 132.0
147.726883 164.0
147.850281 156.0
147.966461 192.0
148.051132 180.0
148.116608 220.0
148.291061 140.0
148.317719 144.0
148.540817 56.0
148.65242 76.0
148.788345 104.0
148.94133 264.0
148.972916 132.0
149.058685 4240.0
149.094391 204.0
149.138138 48.0
149.235382 36.0
149.366714 160.0
149.573547 192.0
149.726929 180.0
149.785385 96.0
150.063568 1044.0
150.15831 128.0
150.219299 144.0
150.268509 68.0
150.287598 36.0
150.448685 132.0
150.744232 172.0
150.876205 136.0
151.066132 224.0
151.110992 52.0
151.399841 136.0
151.512512 136.0
151.980804 144.0
152.060135 492.0
152.366272 104.0
152.902328 196.0
153.069153 928.0
153.111588 184.0
153.849426 120.0
153.91304 176.0
154.075287 1108.0
154.219376 68.0
154.402344 232.0
154.647278 168.0
154.771057 208.0
154.810684 88.0
154.852783 56.0
155.052872 176.0
155.083649 1608.0
155.437851 132.0
155.504852 156.0
155.723343 152.0
156.011581 84.0
156.056549 388.0
156.088913 640.0
156.123474 124.0
156.214874 176.0
156.287659 116.0
156.45192 36.0
156.596344 56.0
156.648651 52.0
156.673569 160.0
156.710938 52.0
156.747345 104.0
156.778214 196.0
156.815598 116.0
156.995102 48.0
157.015045 172.0
157.064301 2844.0
157.101334 1156.0
157.334442 56.0
157.474274 116.0
157.594193 180.0
157.636673 60.0
157.734146 200.0
157.771637 148.0
157.824142 208.0
157.881653 136.0
158.066254 492.0
158.102066 228.0
158.221954 100.0
158.264526 108.0
158.317108 116.0
158.612747 136.0
158.725571 144.0
158.933762 224.0
159.044388 348.0
159.080017 1096.0
159.120911 232.0
159.262634 220.0
159.343018 204.0
159.360611 100.0
159.559158 160.0
159.687408 40.0
159.800613 104.0
159.850937 104.0
160.050827 480.0
160.085037 144.0
160.145493 56.0
160.188309 164.0
160.344528 132.0
160.369736 140.0
160.495789 176.0
160.659714 80.0
160.705139 148.0
160.861603 116.0
160.896942 220.0
160.927246 120.0
161.058426 1720.0
161.098984 160.0
161.253113 116.0
161.30722 168.0
161.38858 232.0
161.604614 92.0
161.667877 216.0
161.743805 188.0
161.774185 124.0
161.921051 144.0
161.95903 148.0
162.061996 300.0
162.19722 132.0
162.308777 68.0
162.372818 156.0
162.420364 180.0
162.463486 220.0
162.524368 124.0
162.67157 212.0
162.707123 152.0
162.962234 260.0
163.074097 2996.0
163.207642 128.0
163.342438 68.0
163.390762 248.0
163.618378 156.0
163.663101 140.0
163.767517 124.0
163.963699 132.0
164.024872 152.0
164.05545 160.0
164.076569 484.0
164.182938 128.0
164.312637 128.0
164.435516 148.0
164.475281 152.0
164.76236 152.0
164.798141 192.0
164.821136 136.0
164.882462 36.0
164.971924 104.0
165.034439 132.0
165.089508 1900.0
165.273712 40.0
165.437515 160.0
165.470795 52.0
165.65007 88.0
165.698746 52.0
166.074768 736.0
166.097 216.0
166.101593 276.0
166.350128 228.0
166.499054 128.0
166.699432 152.0
166.961655 88.0
167.083252 1516.0
167.357941 176.0
167.960983 256.0
167.991943 76.0
168.052368 544.0
168.091965 1144.0
168.139023 104.0
168.231934 144.0
168.503357 204.0
168.828796 164.0
168.922073 188.0
168.998001 176.0
169.063385 2292.0
169.10083 3508.0
169.242828 72.0
169.323105 76.0
169.351593 184.0
169.426727 120.0
169.496674 72.0
169.745529 56.0
169.841476 156.0
169.88298 136.0
169.903748 48.0
169.966003 180.0
170.02829 156.0
170.072296 1048.0
170.103806 832.0
170.22818 180.0
170.39183 108.0
170.428192 72.0
170.472366 100.0
170.597137 88.0
170.675125 56.0
170.865891 116.0
170.935242 56.0
171.03801 140.0
171.079361 1364.0
171.115326 480.0
171.147049 120.0
171.263275 120.0
171.310883 116.0
171.456696 152.0
171.48735 152.0
171.526459 68.0
171.620316 96.0
171.711578 124.0
172.001205 136.0
172.046783 200.0
172.087433 1428.0
172.136963 68.0
172.181351 72.0
172.385132 76.0
172.416489 108.0
172.437393 136.0
172.463531 120.0
172.573334 148.0
172.636093 76.0
172.756409 44.0
172.819199 136.0
172.898788 212.0
172.968369 188.0
173.058884 7340.0
173.096252 580.0
173.125458 124.0
173.169983 56.0
173.308823 48.0
173.395294 96.0
173.424133 192.0
173.576187 136.0
173.848999 180.0
173.913177 168.0
173.95137 144.0
174.065521 1212.0
174.097046 140.0
174.187698 40.0
174.275879 104.0
174.32695 72.0
174.369003 212.0
174.400543 124.0
174.447845 36.0
174.468887 184.0
174.510941 108.0
174.600357 92.0
174.658218 92.0
174.826599 108.0
175.031937 104.0
175.073547 1776.0
175.139908 124.0
175.195221 44.0
175.258453 176.0
175.321701 92.0
175.466675 144.0
175.485138 116.0
175.627533 120.0
175.651276 144.0
176.012848 92.0
176.04805 156.0
176.078537 324.0
176.110565 168.0
176.269073 124.0
176.31929 60.0
176.543991 144.0
176.594254 192.0
176.710648 40.0
176.787384 60.0
176.932953 140.0
177.088867 640.0
177.258743 200.0
177.746658 112.0
177.994843 168.0
178.079559 340.0
178.269791 184.0
178.562225 160.0
178.628723 220.0
178.711197 48.0
178.854904 136.0
178.985352 176.0
179.082947 644.0
179.104401 1040.0
179.235733 220.0
179.291702 68.0
179.398315 84.0
179.504974 112.0
179.656998 56.0
179.774399 136.0
179.923874 224.0
180.082916 200.0
180.10527 168.0
180.624023 132.0
180.744415 124.0
180.824692 92.0
180.848785 128.0
181.005447 232.0
181.062592 1244.0
181.097412 1060.0
181.204941 148.0
181.245132 68.0
181.269257 96.0
181.343033 204.0
181.473999 108.0
182.072128 2468.0
182.107803 1196.0
182.181488 60.0
182.253021 148.0
182.40184 176.0
182.608887 52.0
182.810654 164.0
182.8591 164.0
183.079315 3476.0
183.114029 1800.0
183.146988 152.0
183.203766 132.0
183.289978 40.0
183.446304 128.0
183.497528 76.0
183.586502 192.0
183.699783 96.0
184.047943 56.0
184.085617 1056.0
184.119873 388.0
184.153259 72.0
184.182968 172.0
184.406616 104.0
184.561325 136.0
184.647858 176.0
184.710068 172.0
184.811447 264.0
184.91301 64.0
185.056992 436.0
185.09343 2692.0
185.126556 168.0
185.286697 72.0
185.576691 132.0
185.636337 128.0
185.667633 224.0
185.717712 152.0
185.823502 64.0
186.066315 932.0
186.096695 268.0
186.219833 104.0
186.385544 72.0
186.507843 124.0
186.779755 160.0
186.861374 164.0
187.036423 172.0
187.07338 3444.0
187.109528 1964.0
187.148605 172.0
187.209793 68.0
187.228851 108.0
187.277878 32.0
187.373215 176.0
187.566696 32.0
187.692108 224.0
187.711197 80.0
188.046753 180.0
188.080246 648.0
188.115005 472.0
188.14502 176.0
188.276093 172.0
188.385345 44.0
188.770721 84.0
188.940308 136.0
189.049759 88.0
189.088013 1088.0
189.42485 116.0
189.5728 96.0
189.605698 152.0
189.709854 156.0
190.069138 168.0
190.095444 348.0
190.335403 108.0
190.379333 44.0
191.036499 220.0
191.104507 6996.0
191.249451 152.0
191.308685 148.0
191.327957 48.0
191.47113 52.0
191.639175 116.0
191.68602 36.0
191.867935 104.0
191.903778 64.0
192.11055 1176.0
192.140961 108.0
192.245819 56.0
192.397629 96.0
192.449783 372.0
192.519119 48.0
192.568832 168.0
192.613022 136.0
192.742477 144.0
192.952011 168.0
193.016525 196.0
193.075958 492.0
193.103775 348.0
193.232269 116.0
193.304199 204.0
193.34848 160.0
193.442413 80.0
193.500732 72.0
193.639191 36.0
193.719513 64.0
193.841415 132.0
194.110306 128.0
194.255981 76.0
194.318329 144.0
194.382156 216.0
194.729172 184.0
194.828445 212.0
195.079742 960.0
195.113953 348.0
195.159912 164.0
195.209961 180.0
195.262802 100.0
195.79715 28.0
195.844498 132.0
196.006088 176.0
196.047882 188.0
196.087631 952.0
196.124405 512.0
196.159378 164.0
196.340607 116.0
196.641922 140.0
196.736832 144.0
196.828964 172.0
196.854095 248.0
196.915543 152.0
196.935089 72.0
197.054153 708.0
197.094086 7100.0
197.128143 1544.0
197.22847 164.0
197.256424 44.0
197.426971 68.0
197.468933 44.0
197.541656 96.0
197.566833 152.0
197.647247 156.0
197.715134 40.0
197.768311 92.0
197.833755 72.0
197.902679 148.0
197.947479 172.0
198.066864 544.0
198.098236 888.0
198.133911 476.0
198.252823 52.0
198.300476 128.0
198.589264 84.0
198.707077 156.0
198.816513 96.0
198.976517 76.0
199.024246 152.0
199.075653 832.0
199.107071 1020.0
199.192749 152.0
199.232071 48.0
199.25415 84.0
199.456894 108.0
199.525116 88.0
199.659317 120.0
199.687805 192.0
199.819412 232.0
199.935028 220.0
199.977249 120.0
200.041229 184.0
200.082535 9304.0
200.115906 568.0
200.213745 48.0
200.261612 192.0
200.292603 76.0
200.382751 100.0
200.439102 196.0
200.501099 116.0
200.557465 108.0
200.767136 76.0
200.919418 180.0
201.05304 1000.0
201.088593 1648.0
201.123734 376.0
201.265579 156.0
201.451981 60.0
201.503845 56.0
201.573471 180.0
201.646942 68.0
201.881592 132.0
202.05368 224.0
202.093338 468.0
202.122314 132.0
202.568405 152.0
202.660522 116.0
202.699707 140.0
202.736542 52.0
202.779053 36.0
203.068832 424.0
203.104813 3948.0
203.261154 172.0
203.329269 128.0
203.408737 108.0
203.579086 80.0
203.627365 120.0
203.908646 60.0
204.077148 260.0
204.110657 1104.0
204.688126 116.0
204.878952 212.0
205.086472 300.0
205.119217 3100.0
205.471939 36.0
205.708817 152.0
205.857285 140.0
205.908691 48.0
205.965805 64.0
206.076004 216.0
206.105881 132.0
206.128571 408.0
206.30014 148.0
206.4431 48.0
206.663361 76.0
206.792145 116.0
206.926682 44.0
207.077652 180.0
207.112411 672.0
207.849609 80.0
208.097656 316.0
208.119766 136.0
208.188339 164.0
208.294617 40.0
208.409531 48.0
208.633713 108.0
208.722839 76.0
208.863754 164.0
209.062836 144.0
209.094345 1344.0
209.13295 552.0
209.281052 104.0
209.364563 168.0
209.528748 148.0
210.100952 708.0
210.13736 164.0
211.015091 112.0
211.070084 384.0
211.108032 1544.0
211.162567 28.0
211.217529 48.0
211.344711 108.0
211.407791 300.0
211.556091 72.0
211.767471 108.0
211.834106 124.0
211.973175 88.0
212.02533 108.0
212.068802 176.0
212.116486 284.0
212.277542 60.0
212.518295 52.0
212.550217 132.0
212.744675 128.0
213.026367 124.0
213.05542 144.0
213.088745 1040.0
213.123672 688.0
213.162918 168.0
213.223953 116.0
213.407089 108.0
213.46814 132.0
213.860901 252.0
214.061783 156.0
214.094742 932.0
214.137558 172.0
214.160797 108.0
214.210327 100.0
214.332687 116.0
214.449249 44.0
214.536697 68.0
214.594498 160.0
214.813736 124.0
214.839081 128.0
214.884857 148.0
214.921692 148.0
214.984573 124.0
215.041336 144.0
215.105713 29356.0
215.190216 32.0
215.301102 176.0
215.344986 52.0
215.368912 144.0
215.450928 60.0
215.503433 124.0
215.546555 164.0
215.595673 68.0
215.629211 128.0
215.716446 88.0
215.741364 80.0
215.894424 232.0
215.935379 100.0
215.958771 80.0
216.005569 172.0
216.078461 172.0
216.107819 3388.0
216.251358 40.0
216.298187 76.0
216.380157 80.0
216.412369 48.0
216.511307 188.0
216.614441 56.0
216.652527 28.0
216.678894 80.0
216.758011 96.0
216.921005 52.0
216.945587 140.0
217.001282 40.0
217.037277 132.0
217.119415 1976.0
217.176102 52.0
217.197952 252.0
217.244705 152.0
217.279907 88.0
217.307266 132.0
217.334366 76.0
217.605682 172.0
217.637985 68.0
217.71727 84.0
217.817123 180.0
217.849442 120.0
218.052185 180.0
218.087463 84.0
218.121796 720.0
218.490326 76.0
218.663925 140.0
218.727951 120.0
218.787567 48.0
218.86116 48.0
219.06073 292.0
219.091965 296.0
219.13443 512.0
219.33548 60.0
219.367905 120.0
219.467377 184.0
219.783752 40.0
219.830978 120.0
219.9077 252.0
220.10582 188.0
220.13208 140.0
220.241348 68.0
220.974487 84.0
221.095261 236.0
221.118607 332.0
221.62883 152.0
221.928192 80.0
221.975647 48.0
222.103165 172.0
222.138763 172.0
222.290085 80.0
222.50972 168.0
222.595825 92.0
222.617706 120.0
222.777008 72.0
222.949341 176.0
223.110825 628.0
223.136063 196.0
223.288254 40.0
223.946014 60.0
224.116547 592.0
224.151291 1100.0
224.282715 120.0
224.384079 64.0
224.437744 104.0
224.631592 156.0
224.762863 68.0
224.879257 200.0
225.12561 6232.0
225.186783 204.0
225.270416 32.0
225.503479 56.0
225.694809 32.0
225.958023 68.0
226.092667 76.0
226.129807 728.0
226.589737 112.0
226.787506 72.0
226.889114 188.0
227.103622 2488.0
227.144592 696.0
227.324356 92.0
227.348358 36.0
227.525452 36.0
227.573486 32.0
227.617142 112.0
227.705612 108.0
227.77771 64.0
227.837784 196.0
228.076553 936.0
228.112701 828.0
228.144318 180.0
228.285645 76.0
228.312698 124.0
228.348801 212.0
228.941681 104.0
229.022995 88.0
229.083115 472.0
229.120148 4652.0
229.224854 80.0
229.300186 76.0
229.324295 92.0
229.61676 64.0
229.692154 84.0
229.852066 120.0
229.921463 120.0
230.091797 496.0
230.125305 1216.0
230.250549 104.0
230.437836 32.0
230.511627 76.0
231.030396 132.0
231.056702 120.0
231.098053 116.0
231.132477 628.0
231.205887 52.0
231.233124 64.0
231.272476 120.0
231.708542 280.0
232.063141 180.0
232.178375 172.0
232.263306 48.0
232.742798 60.0
233.084442 216.0
233.114197 888.0
233.14859 428.0
233.390015 60.0
233.718521 44.0
233.852417 100.0
234.028976 140.0
234.0849 208.0
234.117294 184.0
234.601746 176.0
234.763351 64.0
235.025681 80.0
235.109299 376.0
235.141647 204.0
235.75856 44.0
236.247772 176.0
236.651764 108.0
237.016266 168.0
237.080276 112.0
237.123718 184.0
237.163361 140.0
237.574265 112.0
237.718475 160.0
237.813614 208.0
238.12912 184.0
238.357193 136.0
238.513931 108.0
238.56311 144.0
238.603073 108.0
239.067535 72.0
239.107971 160.0
239.142014 772.0
239.174744 876.0
239.279922 132.0
239.732727 120.0
239.766617 240.0
240.109161 220.0
240.16127 172.0
240.182861 140.0
240.713699 88.0
241.118378 896.0
241.148117 192.0
241.196884 132.0
241.702866 80.0
242.091095 208.0
242.125977 1828.0
242.164139 172.0
242.399582 192.0
242.576248 48.0
242.877029 240.0
242.898743 52.0
242.976288 144.0
243.098602 1064.0
243.135544 4436.0
243.24939 40.0
243.358047 60.0
243.559906 76.0
244.102966 288.0
244.139282 708.0
244.206421 40.0
244.539337 160.0
245.028229 148.0
245.074585 164.0
245.117081 316.0
245.14975 1224.0
245.24556 204.0
245.340439 112.0
245.424057 40.0
245.539444 40.0
245.567505 132.0
245.58934 52.0
245.845169 84.0
245.963776 92.0
246.147842 164.0
246.616592 132.0
247.132584 148.0
247.329742 96.0
247.859024 112.0
247.972183 164.0
248.316711 116.0
248.517487 140.0
249.103729 204.0
249.165329 176.0
249.233383 40.0
249.352798 168.0
250.103088 124.0
251.147461 192.0
252.050369 192.0
252.107254 156.0
252.150314 160.0
252.961227 184.0
253.126053 200.0
253.151199 76.0
253.48381 72.0
254.162399 112.0
254.184601 128.0
254.565536 20.0
255.133972 968.0
255.178787 176.0
255.547729 44.0
255.668655 84.0
256.109924 156.0
256.142181 1232.0
256.219513 132.0
256.299164 68.0
256.442566 76.0
256.562836 88.0
256.84433 56.0
257.118073 460.0
257.151428 320.0
257.186981 500.0
257.220856 64.0
257.655151 40.0
258.120697 280.0
258.193756 216.0
258.23056 208.0
258.278534 44.0
258.912231 60.0
259.130066 164.0
259.194611 164.0
259.854645 132.0
259.906006 112.0
259.960541 104.0
261.116272 1028.0
261.709198 164.0
262.107605 296.0
262.659912 76.0
262.859955 56.0
263.125671 200.0
263.557404 56.0
263.580048 120.0
264.134552 160.0
265.123138 132.0
266.346802 52.0
267.066986 156.0
267.172882 5500.0
267.357941 108.0
267.807251 124.0
268.175446 1120.0
268.478638 52.0
268.550385 64.0
268.599304 40.0
269.12149 208.0
269.185913 196.0
269.627808 108.0
270.033203 144.0
270.069183 108.0
270.158997 648.0
270.195557 96.0
270.474915 48.0
270.497833 128.0
270.697571 156.0
271.051331 100.0
271.131012 880.0
271.166687 680.0
271.362518 68.0
271.526672 116.0
272.173737 340.0
272.219116 72.0
273.136078 124.0
274.100739 224.0
274.186401 224.0
274.921844 128.0
275.093475 104.0
275.12735 292.0
275.324585 44.0
276.441986 56.0
278.165466 112.0
278.281647 60.0
278.806488 44.0
279.13559 168.0
280.133514 220.0
281.554993 68.0
281.865662 72.0
282.979492 160.0
283.122406 120.0
283.153595 184.0
283.659546 112.0
284.078735 108.0
284.176178 200.0
284.209564 72.0
284.447845 200.0
284.729889 172.0
284.810516 56.0
284.976105 148.0
285.072571 52.0
285.183136 7536.0
285.26413 48.0
285.287659 28.0
285.358276 48.0
285.613861 92.0
285.876282 112.0
285.925354 152.0
286.030273 80.0
286.145569 48.0
286.184326 1632.0
286.563202 88.0
287.122772 64.0
287.194916 572.0
287.31839 36.0
287.429749 48.0
287.720001 80.0
287.821289 76.0
288.101624 124.0
288.192841 128.0
288.260437 148.0
288.513916 40.0
289.14032 388.0
289.180298 32.0
290.145721 136.0
290.681641 112.0
291.04483 76.0
291.126343 144.0
293.235657 52.0
293.883575 60.0
295.162933 308.0
296.715515 52.0
298.012848 48.0
298.140015 136.0
300.957794 76.0
302.001465 52.0
303.198822 492.0
304.448303 72.0
304.642822 48.0
304.903412 36.0
306.62616 104.0
309.844421 148.0
313.175842 748.0
314.182648 136.0
315.083008 68.0
315.196075 112.0
316.795258 80.0
320.087708 184.0
322.535126 104.0
324.102631 148.0
330.320251 132.0
331.192657 164.0
331.243347 164.0
332.188965 180.0
336.779572 144.0
338.520416 56.0
339.150574 72.0
343.34198 52.0
343.570679 104.0
344.368011 44.0
347.05838 100.0
347.622223 92.0
352.773285 132.0
361.38208 68.0
364.084839 56.0
366.435608 116.0
367.934479 68.0
368.897156 108.0
377.16571 96.0
380.144043 92.0
381.103149 72.0
381.69397 44.0
383.332764 56.0
384.291992 92.0
398.569763 40.0
399.516022 128.0
400.989319 76.0
402.090088 40.0
412.400299 56.0
436.999725 48.0
444.311218 64.0
450.157654 36.0
459.517181 64.0
462.67981 92.0
463.592163 68.0
474.978973 44.0
491.60083 56.0
492.214417 52.0
500.666748 52.0
504.28949 88.0
519.14679 48.0
529.409607 48.0
537.80481 28.0
540.471375 48.0
564.653503 124.0
570.732971 68.0
579.328613 104.0
584.61499 92.0
590.433105 128.0
600.642639 40.0
601.150085 92.0
607.236023 96.0
608.821228 60.0
611.249695 36.0
658.655701 96.0
677.377319 76.0
710.418457 160.0
717.507507 140.0
731.920471 60.0
799.047424 48.0
829.063782 72.0
846.605957 92.0
848.141296 60.0
858.192871 28.0
864.958008 92.0
869.570862 136.0
892.855042 212.0
946.367554 172.0
954.227173 128.0
971.445312 76.0
993.949951 196.0
1012.749695 112.0
1048.246704 156.0
1053.834717 32.0
1060.895508 160.0
1068.747681 48.0
1069.066528 196.0
1069.938721 176.0
1072.38147 224.0
1074.07019 172.0
1080.4198 156.0
1100.610718 92.0
1101.436279 156.0
1101.680664 164.0
1106.342896 152.0
1109.151611 40.0
1113.969238 220.0
1117.339722 208.0
1133.61853 224.0
1141.270752 200.0
1153.182739 148.0
1153.865479 152.0
1156.036743 112.0
1158.176147 204.0
1172.696167 164.0
1191.19165 200.0
1201.786987 148.0
1203.036133 144.0
1203.222534 184.0
1207.866455 160.0
1208.751953 132.0
1209.354126 208.0
1210.634888 192.0
1212.436157 220.0
1213.905762 112.0
1215.848267 152.0
1220.314819 84.0
1220.989258 60.0
1223.751831 192.0
1224.552734 164.0
1228.239868 200.0
1230.040161 168.0
1233.064575 148.0
1237.996704 152.0
1242.714233 180.0
1247.560181 184.0
1251.2677 152.0
1251.485962 120.0
1253.697876 176.0
1255.897583 208.0
1257.315674 76.0
1258.000366 120.0
1258.889893 164.0
1260.91748 64.0
1265.189941 168.0
1272.194092 184.0
1273.756348 96.0
1276.222412 156.0
1280.385254 152.0
1285.25415 176.0
1286.110474 140.0
1286.781616 136.0
1291.126099 128.0
1293.429932 224.0
1295.528076 128.0
1300.303589 148.0
1301.473755 192.0
1303.140137 140.0
1303.779663 84.0
1308.858398 184.0
1310.572632 132.0
1310.69519 188.0
1312.417847 128.0
1312.670288 152.0
1313.11731 120.0
1316.855957 200.0
1318.120239 136.0
1319.153809 176.0
1320.245605 152.0
1321.120728 40.0
1321.605469 92.0
1322.032471 184.0
1325.312744 164.0
1325.530029 168.0
1325.993896 88.0
1326.747803 164.0
1331.921753 104.0
1333.854614 156.0
1341.942749 240.0
1342.584473 80.0
1347.146362 148.0
1348.578491 52.0
1352.425781 144.0
1356.447144 128.0
1356.989624 124.0
1358.236328 208.0
1358.507812 168.0
1358.93335 108.0
1359.468994 196.0
1359.681763 168.0
1359.813843 32.0
1360.614014 172.0
1360.907715 60.0
1363.081909 224.0
1364.80188 100.0
1365.860962 188.0
1366.839478 152.0
1370.697876 84.0
1372.588867 188.0
1380.915283 128.0
1382.187622 204.0
1385.215698 160.0
1385.586182 76.0
1385.682495 184.0
1388.499268 124.0
1389.181641 164.0
1389.908813 216.0
1395.858643 88.0
1397.383545 184.0
1401.106079 156.0
1403.841553 188.0
1413.073853 156.0
1413.403076 112.0
1415.528931 180.0
1417.265869 164.0
1420.220581 240.0
1421.263306 156.0
1422.103882 120.0
1422.531738 152.0
1426.588257 144.0
1430.018311 204.0
1432.126465 180.0
1433.233887 116.0
1433.505127 168.0
1438.128296 164.0
1438.473022 160.0
1443.734131 272.0
1445.496826 152.0
1446.241089 116.0
1446.367065 168.0
1447.646606 156.0
1451.746338 168.0
1453.878174 196.0
1458.927979 128.0
1460.799927 160.0
1468.821167 160.0
1470.537964 168.0
1473.890503 224.0
1474.822876 36.0
1475.893188 268.0
1478.692993 176.0
1480.645264 172.0
1486.67395 148.0
1486.793823 116.0
1488.467407 52.0
1492.878296 140.0
1495.948242 120.0
1497.257202 152.0
1499.028931 204.0
1499.237061 152.0
1502.946167 136.0
