>compound MLS002153486-01!
>formula C17H19N3
>ionization [M+H]+
>parentmass 266.163605
#inchi InChI=1S/C17H19N3/c1-3-7-15(8-4-1)13-20(14-17-18-11-12-19-17)16-9-5-2-6-10-16/h1-10H,11-14H2,(H,18,19)
#inchikey REYFJDPCWQRWAA
#origInchi InChI=1S/C17H19N3.ClH/c1-3-7-15(8-4-1)13-20(14-17-18-11-12-19-17)16-9-5-2-6-10-16;/h1-10H,11-14H2,(H,18,19);1H
#Ion_Source LC-ESI
#Instrument qTof
#Compound_Source NIH Pharmacologically Active Library
#PI Dorrestein
#Data_Collector VP/LMS
#Scan -1
#Precursor_MZ 266.165
#ExactMass 265.158
#Charge 1
#CAS_Number N/A
#Pubmed_ID N/A
#Smiles C(N(Cc1ccccc1)c2ccccc2)C3=NCCN3.Cl
#INCHI_AUX N/A
#Library_Class 1
#SpectrumID CCMSLIB00000085250
#IonMode Positive
#UpdateWorkflowName UPDATE-SINGLE-ANNOTATED-GOLD
#LibraryQualityString Gold
#TaskID d252d724072548979f1f6f1ced849daf
##Scan# 1597
#SpectrumFile p3-G06_GG6_01_18299.mzXML
#LibraryName Pharm_Active_Library.mgf
#MQScore -1
#Organism Pharm_Active_Library
#TIC_Query 0
#RT_Query -1
#MZErrorPPM -1
#SharedPeaks 0
#MassDiff 0
#LibMZ -1
#SpecMZ 266.165
#SpecCharge 0
#internalFilename spec-00000.mgf

>collision 10
44.967537 160.0
44.98756 80.0
45.004917 164.0
45.024906 124.0
45.038307 192.0
45.083736 216.0
45.131863 132.0
45.176003 216.0
45.336689 60.0
45.356792 140.0
45.379704 208.0
45.52586 184.0
45.550037 148.0
45.817764 200.0
46.095734 180.0
46.117359 112.0
46.151157 120.0
46.453835 180.0
46.493904 232.0
46.516155 224.0
46.553642 244.0
46.662354 268.0
46.742611 208.0
46.773914 176.0
46.817486 188.0
46.850182 148.0
46.891064 208.0
47.008354 180.0
47.037018 156.0
47.084812 152.0
47.136726 104.0
47.157227 140.0
47.198242 224.0
47.278957 184.0
47.28854 96.0
47.317287 140.0
47.388512 172.0
47.437855 180.0
47.561317 140.0
47.597015 160.0
47.606628 368.0
47.656086 124.0
47.823872 132.0
47.837639 156.0
47.848652 148.0
47.892723 172.0
47.914764 152.0
47.961491 212.0
48.243244 196.0
48.313782 192.0
48.344223 148.0
48.406521 156.0
48.572849 220.0
48.595047 188.0
48.690834 108.0
48.715839 88.0
48.95509 164.0
49.07354 80.0
49.164215 132.0
49.228439 140.0
49.380783 220.0
49.414356 176.0
49.424152 116.0
49.468941 128.0
49.489944 168.0
49.541767 208.0
49.552975 64.0
49.672146 188.0
49.776012 96.0
49.829391 128.0
49.971405 128.0
50.021015 192.0
50.075581 196.0
50.137577 128.0
50.15308 160.0
50.233463 68.0
50.265915 164.0
50.336502 208.0
50.397243 140.0
50.53299 160.0
50.739784 180.0
50.871727 140.0
50.934216 156.0
50.975418 76.0
50.992474 140.0
51.136135 220.0
51.218723 148.0
51.255768 64.0
51.305084 60.0
51.337025 120.0
51.348434 88.0
51.465462 148.0
51.564037 136.0
51.595486 136.0
51.619797 120.0
51.632053 196.0
51.646969 176.0
51.729973 60.0
51.950676 140.0
51.97937 144.0
51.989418 96.0
52.179035 180.0
52.199169 180.0
52.242321 116.0
52.276855 192.0
52.295563 208.0
52.311398 136.0
52.341637 196.0
52.366119 100.0
52.392052 188.0
52.407898 76.0
52.536224 104.0
52.563641 88.0
52.582401 220.0
52.617046 192.0
52.645927 188.0
52.754303 56.0
52.916348 192.0
52.936619 188.0
53.191811 180.0
53.216003 204.0
53.335629 232.0
53.671951 256.0
53.693398 232.0
53.752186 148.0
53.774075 204.0
53.788673 172.0
53.807652 172.0
53.817875 200.0
54.004944 184.0
54.073715 164.0
54.111778 48.0
54.168896 224.0
54.236305 236.0
54.29789 132.0
54.403545 112.0
54.45734 260.0
54.476978 164.0
54.503426 204.0
54.653416 108.0
54.692333 116.0
54.738796 180.0
54.836037 140.0
54.985008 208.0
55.004196 68.0
55.048492 188.0
55.063259 148.0
55.137135 104.0
55.287994 228.0
55.376831 188.0
55.395596 144.0
55.587364 128.0
55.597752 128.0
55.639317 160.0
55.649712 140.0
55.698723 180.0
55.817627 136.0
55.845886 148.0
55.919651 184.0
55.938148 176.0
55.981327 60.0
56.043896 184.0
56.067738 180.0
56.136318 124.0
56.148251 64.0
56.164658 172.0
56.203449 196.0
56.234791 176.0
56.469379 196.0
56.494812 188.0
56.514259 196.0
56.623547 144.0
56.822929 124.0
56.846371 148.0
56.866451 144.0
56.888966 120.0
56.988094 212.0
57.191128 120.0
57.282986 184.0
57.447311 184.0
57.560516 128.0
57.779694 220.0
57.790287 116.0
57.900799 140.0
58.091793 136.0
58.152493 136.0
58.251198 148.0
58.321098 116.0
58.368233 128.0
58.404736 128.0
58.438206 164.0
58.523445 192.0
58.56152 216.0
58.637703 256.0
58.799381 204.0
58.865028 196.0
58.94141 220.0
59.001022 136.0
59.028549 140.0
59.187698 112.0
59.215527 164.0
59.268887 112.0
59.379269 140.0
59.474438 188.0
59.554253 180.0
59.601879 184.0
59.655674 160.0
59.68335 132.0
59.733307 156.0
59.777191 144.0
59.912693 208.0
59.970085 132.0
60.008251 80.0
60.034466 240.0
60.176437 56.0
60.281479 184.0
60.312393 248.0
60.334034 188.0
60.400536 192.0
60.724277 208.0
60.784786 160.0
60.823586 172.0
60.90123 136.0
60.952499 200.0
60.978996 168.0
61.241886 184.0
61.266811 196.0
61.307323 208.0
61.327587 40.0
61.390629 204.0
61.496048 148.0
61.528831 172.0
61.624107 208.0
61.635048 112.0
61.866539 164.0
61.958942 184.0
61.999687 172.0
62.042011 176.0
62.084347 240.0
62.100033 208.0
62.120426 236.0
62.159653 236.0
62.598259 204.0
62.773186 152.0
62.826817 148.0
62.943619 128.0
63.117447 60.0
63.139587 108.0
63.278847 220.0
63.305767 172.0
63.331108 124.0
63.383392 172.0
63.45948 188.0
63.573696 224.0
63.589569 152.0
63.797668 140.0
63.831059 80.0
63.843163 196.0
63.854916 140.0
63.875591 112.0
63.888321 176.0
63.928101 152.0
64.082733 188.0
64.128784 236.0
64.208504 124.0
64.219673 88.0
64.230835 172.0
64.245193 192.0
64.340958 204.0
64.422173 116.0
64.454361 88.0
64.703896 200.0
64.798393 240.0
64.809608 164.0
64.823875 212.0
64.966736 136.0
64.979576 140.0
65.038956 44.0
65.173859 148.0
65.193962 168.0
65.259056 228.0
65.389366 80.0
65.48436 116.0
65.576202 148.0
65.595551 160.0
65.687469 176.0
65.932907 44.0
66.08168 208.0
66.131851 196.0
66.162613 256.0
66.313271 196.0
66.676842 136.0
66.7061 56.0
66.907837 132.0
66.979492 148.0
67.078537 180.0
67.15065 136.0
67.162064 152.0
67.232224 164.0
67.245285 168.0
67.274666 168.0
67.317123 80.0
67.444565 184.0
67.475624 188.0
67.531227 164.0
67.549225 160.0
67.91452 192.0
68.029396 144.0
68.221611 124.0
68.279167 44.0
68.379372 208.0
68.689316 172.0
68.875854 136.0
69.156967 76.0
69.36071 168.0
69.559776 156.0
69.679161 172.0
69.888863 112.0
69.937126 156.0
69.950447 52.0
69.962097 180.0
70.000397 188.0
70.103683 36.0
70.238739 180.0
70.25042 208.0
70.267105 192.0
70.396454 188.0
70.49086 256.0
70.581131 152.0
70.679825 152.0
70.761848 140.0
70.778587 196.0
70.827164 216.0
70.855644 200.0
71.013222 124.0
71.256554 216.0
71.288574 160.0
71.308739 132.0
71.416351 200.0
71.470192 152.0
71.539833 96.0
71.588028 144.0
71.726196 172.0
71.758224 140.0
71.913429 48.0
71.996162 152.0
72.121193 200.0
72.148247 136.0
72.385132 52.0
72.412231 160.0
72.658035 184.0
72.691978 132.0
72.751381 160.0
72.793831 224.0
72.889351 212.0
72.909355 244.0
73.02668 140.0
73.103241 152.0
73.251373 144.0
73.549797 188.0
73.57029 172.0
73.594193 84.0
73.681297 140.0
73.713768 136.0
73.858383 144.0
73.895027 164.0
73.966904 172.0
74.217049 100.0
74.302811 164.0
74.426392 40.0
74.484787 188.0
74.627441 144.0
74.851135 164.0
74.907829 184.0
74.932098 88.0
74.978622 80.0
75.109673 168.0
75.230324 184.0
75.30127 176.0
75.394569 132.0
75.477554 140.0
75.534256 204.0
75.570961 176.0
75.614227 172.0
75.714645 152.0
75.827263 244.0
75.914818 176.0
76.024986 116.0
76.106575 128.0
76.19342 108.0
76.332481 220.0
76.518669 144.0
76.597038 144.0
76.835884 176.0
76.93187 184.0
77.155502 120.0
77.284935 220.0
77.375954 48.0
77.407471 32.0
77.53186 204.0
77.663361 204.0
77.766884 156.0
77.81604 128.0
77.982933 184.0
78.130653 244.0
78.37011 200.0
78.641708 236.0
78.715858 140.0
78.728218 92.0
78.775917 160.0
78.968597 164.0
78.984512 176.0
79.026978 284.0
79.06237 56.0
79.140259 208.0
79.163277 128.0
79.19693 108.0
79.253624 228.0
79.266029 148.0
79.340477 108.0
79.438019 148.0
79.581779 176.0
79.606644 148.0
79.683022 176.0
79.78611 192.0
80.061928 140.0
80.108238 100.0
80.304321 184.0
80.393532 152.0
80.466621 216.0
80.538155 196.0
80.890434 192.0
80.985344 148.0
81.157394 224.0
81.678558 176.0
81.752007 96.0
81.816338 148.0
81.923065 152.0
81.96991 172.0
81.989738 136.0
82.047417 200.0
82.083481 156.0
82.12677 60.0
82.148415 156.0
82.281967 140.0
82.350594 132.0
82.377693 164.0
82.408401 152.0
82.424713 152.0
82.627182 116.0
82.686897 136.0
82.77742 160.0
82.857124 88.0
82.958618 172.0
83.007576 196.0
83.027519 216.0
83.107346 84.0
83.208984 260.0
83.570694 172.0
83.820168 140.0
84.004776 240.0
84.135719 96.0
84.205116 48.0
84.365921 168.0
84.444557 128.0
84.462845 212.0
84.48114 128.0
84.519562 244.0
84.589111 48.0
84.655029 92.0
84.667847 164.0
84.744789 176.0
84.772278 36.0
84.854767 164.0
84.915283 128.0
84.961143 168.0
85.06575 208.0
85.163078 184.0
85.192467 140.0
85.363411 192.0
85.398354 152.0
85.733452 80.0
85.866196 164.0
85.93261 112.0
85.971359 144.0
86.198517 92.0
86.266899 100.0
86.429665 200.0
86.488892 144.0
86.648155 136.0
86.738968 120.0
86.888863 184.0
87.030251 144.0
87.152847 168.0
87.217896 136.0
87.234627 216.0
87.255081 92.0
87.288551 120.0
87.3983 220.0
87.519188 140.0
87.529007 168.0
87.61615 168.0
87.645966 120.0
87.713058 180.0
87.976105 208.0
88.043327 196.0
88.076942 212.0
88.159157 168.0
88.192802 212.0
88.310074 200.0
88.349884 92.0
88.600761 216.0
88.647606 76.0
88.724457 128.0
88.857628 180.0
88.895157 220.0
88.951462 136.0
89.082916 212.0
89.122375 156.0
89.220116 136.0
89.258369 196.0
89.413872 188.0
89.583344 164.0
89.670021 136.0
89.692642 220.0
89.70961 164.0
89.760513 160.0
89.817101 172.0
89.843506 184.0
89.888794 228.0
89.953369 168.0
89.973732 136.0
90.044907 116.0
90.115395 204.0
90.128616 92.0
90.245811 188.0
90.338493 204.0
90.501259 128.0
90.590279 56.0
90.63765 156.0
90.671761 144.0
90.707771 28.0
90.761642 256.0
90.777931 144.0
90.825348 100.0
90.867081 160.0
90.883987 176.0
90.926445 324.0
90.956696 256.0
90.991203 188.0
91.028358 424.0
91.054146 67060.0
91.111313 164.0
91.125534 136.0
91.148109 88.0
91.182358 200.0
91.201324 200.0
91.227936 72.0
91.252991 132.0
91.268814 64.0
91.296394 44.0
91.339928 196.0
91.36557 452.0
91.401497 192.0
91.429573 56.0
91.466484 172.0
91.505081 264.0
91.535233 112.0
91.682877 328.0
91.698738 136.0
91.776283 92.0
91.802246 124.0
91.883095 88.0
91.905998 44.0
91.925079 48.0
91.951797 168.0
92.014793 64.0
92.056984 8456.0
92.091179 176.0
92.209648 76.0
92.265442 64.0
92.336678 100.0
92.36319 120.0
92.440392 80.0
92.488091 56.0
92.525558 112.0
92.586563 56.0
92.613373 92.0
92.64267 96.0
92.676598 64.0
92.691925 136.0
92.732338 232.0
92.770515 48.0
92.796974 40.0
92.822281 80.0
92.837624 88.0
92.859299 120.0
92.874069 108.0
92.887497 160.0
93.024681 76.0
93.059418 712.0
93.077507 172.0
93.160103 148.0
93.211975 40.0
93.225433 100.0
93.310013 180.0
93.448494 72.0
93.624672 176.0
93.677605 168.0
93.76239 76.0
93.785522 136.0
93.824684 76.0
93.959084 204.0
93.974518 104.0
94.208138 120.0
94.339554 84.0
95.273697 124.0
95.464188 136.0
95.545403 212.0
95.575066 104.0
95.615936 120.0
95.676285 120.0
96.023148 84.0
96.114838 116.0
96.206581 236.0
96.28273 108.0
96.659843 192.0
97.012611 196.0
97.140083 124.0
97.195023 152.0
97.540413 140.0
97.855476 44.0
97.873199 100.0
97.951981 104.0
98.011086 196.0
98.032761 184.0
98.048531 208.0
98.070953 1092.0
98.147102 124.0
98.174706 76.0
98.214157 100.0
98.587326 212.0
99.07608 164.0
99.213394 196.0
99.228691 152.0
99.524338 80.0
99.675308 64.0
99.96167 96.0
100.168739 108.0
100.224525 88.0
100.453812 96.0
100.523651 244.0
100.800003 104.0
100.843201 180.0
100.92717 128.0
101.03318 44.0
101.067192 132.0
101.085205 224.0
101.117226 116.0
101.642303 104.0
101.744667 48.0
101.776794 64.0
102.150635 156.0
102.215019 84.0
102.504997 136.0
102.920555 144.0
103.059929 212.0
103.583939 184.0
103.827179 200.0
103.942818 188.0
104.048744 1260.0
104.129593 168.0
104.430412 40.0
104.536209 152.0
104.756111 216.0
104.811127 116.0
105.055939 796.0
105.094566 124.0
105.421295 32.0
105.4356 212.0
105.460129 228.0
105.474861 96.0
105.801758 124.0
106.016838 156.0
106.064369 5608.0
106.089066 232.0
106.23214 144.0
106.314217 44.0
106.488731 128.0
106.589401 200.0
106.622284 56.0
106.96785 172.0
107.011086 76.0
107.067894 804.0
107.208839 188.0
107.328407 152.0
107.821808 92.0
108.368134 128.0
108.785011 168.0
108.882607 168.0
109.860954 116.0
110.699135 132.0
110.993942 188.0
111.101585 152.0
111.133057 100.0
111.183426 132.0
111.368195 48.0
111.439621 180.0
111.633018 112.0
112.127769 76.0
112.456604 212.0
113.129028 140.0
113.334473 40.0
113.703476 192.0
113.820244 56.0
113.975311 112.0
114.355995 144.0
114.61795 48.0
115.05307 60.0
115.322235 52.0
115.480469 72.0
115.538223 152.0
115.636658 64.0
115.690178 164.0
115.985809 60.0
116.318306 204.0
116.387009 28.0
116.449295 48.0
116.59539 52.0
116.935219 144.0
117.05677 1012.0
117.09024 176.0
117.394127 164.0
117.422165 104.0
117.577507 116.0
117.728638 52.0
118.064522 3612.0
118.141495 68.0
118.197746 184.0
118.338448 188.0
118.485733 52.0
118.910767 140.0
119.068192 520.0
119.377876 76.0
119.514923 140.0
119.706482 60.0
119.841545 212.0
119.952698 44.0
120.080292 196.0
120.480827 88.0
120.918175 124.0
120.966331 100.0
122.424294 156.0
124.061646 144.0
124.463242 176.0
124.698738 40.0
125.857201 208.0
125.930901 160.0
126.237099 228.0
127.969452 204.0
128.611969 180.0
129.05014 176.0
129.124878 136.0
129.237991 136.0
129.468903 120.0
130.061935 656.0
130.433228 84.0
130.776703 148.0
131.042358 192.0
131.066833 544.0
131.109238 172.0
132.076721 372.0
132.523788 100.0
132.814941 196.0
133.076401 156.0
133.393631 56.0
133.676544 104.0
133.798538 216.0
133.941315 144.0
134.081879 192.0
134.792679 192.0
134.903625 160.0
135.197388 148.0
136.966675 216.0
138.06369 128.0
138.140884 148.0
138.194702 124.0
138.97731 40.0
139.536331 140.0
139.682144 248.0
140.077637 156.0
140.983688 148.0
141.071152 112.0
141.703064 112.0
141.883194 148.0
142.072937 72.0
143.626373 104.0
143.97963 176.0
144.132523 164.0
144.99646 144.0
145.074524 1144.0
145.229034 36.0
146.071579 1268.0
146.397125 156.0
146.594666 244.0
147.086304 188.0
147.988495 124.0
149.352417 172.0
149.939224 152.0
149.956284 164.0
150.134262 220.0
150.51741 180.0
150.663956 156.0
151.050507 204.0
151.086914 108.0
151.118729 80.0
151.277817 60.0
152.059631 152.0
152.211975 148.0
152.686295 72.0
152.952026 148.0
153.062622 284.0
154.009888 136.0
154.066696 160.0
154.516678 116.0
154.652786 196.0
155.004471 124.0
155.084564 176.0
155.125916 120.0
155.331757 48.0
156.096741 156.0
156.308197 144.0
156.492386 176.0
156.908493 188.0
156.973328 116.0
157.043655 216.0
157.073593 492.0
157.265228 164.0
157.639862 160.0
157.789841 32.0
158.082474 352.0
158.142578 60.0
158.839188 176.0
158.892334 172.0
159.073853 148.0
159.331238 164.0
159.434265 148.0
159.564972 88.0
159.826569 64.0
160.086533 148.0
160.461319 64.0
160.554611 108.0
160.811966 152.0
160.847305 132.0
161.079636 152.0
161.105377 2688.0
161.145325 36.0
161.183228 92.0
161.577667 116.0
161.645996 60.0
161.714325 72.0
161.851028 136.0
162.109619 292.0
162.218414 60.0
163.114532 60.0
163.178101 180.0
163.312881 180.0
163.437546 248.0
163.890793 156.0
164.727646 144.0
165.070572 1172.0
165.617844 140.0
166.080368 192.0
166.543839 204.0
166.644028 80.0
167.032242 212.0
167.084183 316.0
167.652771 204.0
168.070541 48.0
168.088608 180.0
168.447495 80.0
168.874008 140.0
169.091354 120.0
169.25444 200.0
169.360626 148.0
169.575699 48.0
169.767548 160.0
171.101303 72.0
172.096573 56.0
172.284637 208.0
172.773529 128.0
172.959335 124.0
173.019547 92.0
173.104309 896.0
173.428207 64.0
174.034241 172.0
174.100586 6004.0
174.176056 60.0
174.246994 52.0
174.270645 48.0
174.310059 60.0
174.52298 100.0
174.680786 192.0
174.960373 84.0
174.998062 40.0
175.059799 132.0
175.108139 3420.0
175.26265 52.0
175.602722 44.0
175.771576 228.0
175.906189 124.0
176.07254 256.0
176.108536 416.0
176.159698 84.0
176.188766 80.0
176.305023 92.0
176.439835 88.0
176.651413 28.0
176.926651 88.0
177.072296 124.0
177.178253 152.0
177.660767 60.0
178.076492 1528.0
178.114731 224.0
178.234283 112.0
178.290085 140.0
178.354904 52.0
178.449585 80.0
178.912537 184.0
179.04834 52.0
179.084625 1052.0
179.146011 60.0
179.277466 204.0
179.920303 128.0
180.081955 592.0
180.296951 52.0
180.979111 224.0
181.085541 316.0
182.003433 188.0
182.091141 164.0
182.186066 124.0
182.608109 116.0
182.730286 48.0
182.893326 144.0
183.097961 32.0
183.227264 76.0
183.510269 72.0
184.157959 180.0
184.847366 124.0
185.28331 152.0
185.591049 180.0
185.90155 44.0
186.056274 172.0
186.553452 172.0
186.705719 164.0
186.787323 60.0
187.010452 192.0
187.988892 76.0
188.08989 88.0
188.707321 92.0
188.863205 116.0
189.090302 232.0
189.591507 140.0
189.810822 136.0
190.098862 148.0
190.203156 176.0
190.266296 44.0
190.87355 152.0
191.591934 240.0
191.983353 80.0
192.264771 144.0
192.347565 44.0
192.571228 240.0
193.087555 204.0
193.733063 388.0
194.09227 536.0
194.118332 128.0
194.809464 120.0
194.912277 136.0
194.986923 144.0
195.110947 176.0
195.187469 32.0
195.350723 132.0
195.441193 212.0
195.641006 124.0
195.688339 132.0
195.771881 220.0
195.799728 164.0
195.857529 140.0
195.880508 176.0
195.913925 116.0
195.941788 152.0
196.017838 164.0
196.050461 52.0
196.112122 37516.0
196.196365 124.0
196.251282 104.0
196.275696 100.0
196.311249 96.0
196.334839 72.0
196.371094 144.0
196.412231 128.0
196.505615 108.0
196.570358 44.0
196.70874 84.0
196.79158 208.0
196.812042 108.0
196.851135 48.0
197.028503 80.0
197.057343 244.0
197.0802 44.0
197.113419 5532.0
197.24881 60.0
197.270248 32.0
197.340149 56.0
197.410049 56.0
197.443619 56.0
197.482773 76.0
197.544312 48.0
197.577881 100.0
197.60173 76.0
197.675812 64.0
197.734589 76.0
197.798965 48.0
197.857758 64.0
197.89975 56.0
198.002029 136.0
198.118225 384.0
198.258316 56.0
198.289154 120.0
198.345215 44.0
198.373245 188.0
198.423706 104.0
198.448944 160.0
198.499985 120.0
198.778107 104.0
199.187057 60.0
199.41185 136.0
199.55304 72.0
199.605835 72.0
199.71553 60.0
200.061661 152.0
200.771744 88.0
200.943817 80.0
201.333374 32.0
203.176147 60.0
203.445755 36.0
206.291809 92.0
208.49321 96.0
209.661682 40.0
210.348175 80.0
213.535599 48.0
215.246323 108.0
217.947159 288.0
219.412949 104.0
220.113464 332.0
221.114456 140.0
222.115982 196.0
223.048416 40.0
223.119751 136.0
233.023682 100.0
233.643921 68.0
239.823853 44.0
240.372833 44.0
240.647552 52.0
245.466599 64.0
246.20311 88.0
255.512039 96.0
256.231598 148.0
258.82843 68.0
266.06076 32.0
266.163605 604.0
266.193878 44.0
266.648712 104.0
267.169983 160.0
270.677826 92.0
275.840179 184.0
281.471863 96.0
283.200958 112.0
283.371796 64.0
295.182526 124.0
300.041229 108.0
304.887421 188.0
318.716675 64.0
325.575714 20.0
336.566925 44.0
338.878662 60.0
370.880585 84.0
372.334778 96.0
376.104279 40.0
376.934662 108.0
388.52655 48.0
407.638824 160.0
469.814545 48.0
486.773163 80.0
487.440887 80.0
507.470154 76.0
518.886658 44.0
542.615112 32.0
550.544434 68.0
559.834961 80.0
564.346252 84.0
610.558228 96.0
655.557922 108.0
678.421753 128.0
700.054626 164.0
701.96759 160.0
703.719482 112.0
705.901855 144.0
708.071716 128.0
718.143921 200.0
725.185913 208.0
725.314575 164.0
738.063721 204.0
738.967041 176.0
741.485168 180.0
741.875488 72.0
742.873352 204.0
746.267822 52.0
756.541504 256.0
761.581116 192.0
761.647034 92.0
762.075562 204.0
763.972351 160.0
765.651245 188.0
766.455566 96.0
766.957092 116.0
767.359558 116.0
774.926331 160.0
775.607971 148.0
776.295471 112.0
776.495178 148.0
777.060974 156.0
777.572693 148.0
779.837708 128.0
780.393616 176.0
783.529907 156.0
784.53595 144.0
787.49353 188.0
791.861877 220.0
793.694458 144.0
796.348999 100.0
799.041748 132.0
799.942261 236.0
800.082947 156.0
800.601013 116.0
802.065979 172.0
804.175598 132.0
805.395264 172.0
808.250366 196.0
808.62384 176.0
810.19812 196.0
811.63208 160.0
812.170898 160.0
812.522644 148.0
813.328491 208.0
814.049561 216.0
814.73114 160.0
816.049744 152.0
816.499023 124.0
817.136108 172.0
817.534424 160.0
818.075195 100.0
819.53894 192.0
820.285522 188.0
822.333374 132.0
824.566589 188.0
826.499573 220.0
826.728516 180.0
829.626892 108.0
830.337891 168.0
830.705017 168.0
832.725586 144.0
834.259888 160.0
835.001648 248.0
835.041931 164.0
836.797119 176.0
837.010132 144.0
838.536865 196.0
839.707275 220.0
840.036072 172.0
841.328796 128.0
842.235474 160.0
842.454956 128.0
843.096375 184.0
845.305542 200.0
847.987 108.0
850.301208 160.0
852.386169 132.0
853.479004 176.0
854.112915 156.0
854.403809 184.0
855.323303 124.0
856.913208 40.0
857.557617 220.0
857.81073 180.0
858.860352 136.0
859.222046 104.0
859.992371 160.0
863.094604 260.0
865.113159 236.0
869.03418 192.0
869.732544 176.0
871.036194 104.0
872.099731 112.0
872.911072 100.0
873.469849 196.0
873.622803 104.0
873.675781 164.0
875.418091 68.0
875.794983 168.0
875.848022 148.0
878.05835 228.0
878.12915 156.0
878.966919 212.0
879.397705 176.0
879.657471 188.0
880.236084 148.0
881.116211 164.0
881.600708 212.0
881.64801 104.0
881.760315 112.0
882.848145 240.0
882.913208 164.0
883.191223 204.0
883.410095 264.0
883.877502 52.0
884.019531 260.0
884.374634 164.0
884.652222 228.0
885.32196 96.0
888.35083 156.0
889.804932 160.0
890.737305 132.0
892.163574 204.0
892.330078 176.0
893.620728 140.0
893.840881 160.0
894.269409 224.0
894.936157 192.0
895.186279 132.0
895.668701 124.0
895.787842 108.0
896.985657 224.0
897.397034 148.0
897.897949 148.0
899.568726 260.0
899.658264 180.0
899.771729 204.0
900.106079 144.0
900.189697 172.0
902.986694 208.0
903.483215 64.0
903.608826 216.0
903.836243 184.0
904.338928 148.0
904.380859 72.0
905.499573 184.0
906.03363 136.0
907.622009 224.0
908.875732 136.0
909.043762 164.0
909.10376 204.0
910.178284 176.0
910.93689 228.0
911.277527 148.0
912.822388 132.0
913.074951 188.0
913.177246 172.0
914.976501 216.0
916.337708 188.0
916.632935 196.0
917.748169 112.0
918.547119 196.0
918.676941 216.0
918.785583 164.0
919.020874 144.0
919.286377 204.0
919.491577 92.0
919.642456 112.0
920.25824 204.0
920.330688 52.0
920.597412 220.0
920.801758 140.0
920.970886 200.0
921.762329 152.0
923.576111 40.0
923.733398 188.0
925.476501 176.0
925.748962 164.0
926.251709 196.0
927.263611 120.0
927.43335 180.0
927.530334 148.0
927.93042 92.0
928.069885 100.0
928.809814 200.0
929.902039 104.0
930.205505 108.0
930.703369 204.0
931.83313 120.0
932.732605 100.0
934.739685 152.0
935.354431 204.0
936.4505 172.0
936.724609 160.0
936.998718 192.0
937.675171 172.0
937.784851 188.0
938.693298 140.0
938.735962 128.0
939.101929 52.0
939.345886 220.0
940.700684 172.0
940.871643 188.0
941.103638 152.0
942.667419 200.0
943.229736 152.0
943.975647 76.0
946.6745 68.0
946.986816 148.0
948.359375 180.0
948.665833 136.0
948.862061 164.0
949.935303 144.0
950.456848 116.0
951.297668 164.0
953.810181 144.0
954.19751 216.0
954.431152 220.0
955.359924 196.0
955.839844 176.0
956.129089 224.0
956.455322 140.0
956.52301 148.0
957.083313 72.0
957.255737 144.0
958.469299 56.0
958.672607 188.0
960.828857 164.0
961.040588 176.0
962.145447 224.0
964.496277 164.0
964.672241 216.0
964.968994 176.0
965.117371 196.0
965.185425 168.0
965.228699 256.0
965.438965 244.0
966.07605 196.0
966.162659 244.0
966.342102 116.0
966.868103 152.0
967.617126 152.0
967.728577 184.0
967.914368 32.0
968.403625 104.0
968.862 168.0
970.492126 164.0
970.603699 160.0
970.857971 220.0
971.261169 168.0
971.465881 184.0
972.368958 304.0
973.054688 188.0
973.644592 144.0
974.147705 164.0
974.992798 192.0
975.378174 192.0
975.502502 188.0
976.410339 176.0
976.802185 60.0
977.436829 176.0
978.409973 240.0
979.385559 40.0
980.295166 168.0
980.500854 152.0
982.246765 160.0
982.413696 200.0
982.951782 136.0
983.750732 104.0
984.025391 88.0
984.568665 216.0
985.324524 152.0
985.855652 120.0
988.294495 160.0
988.388367 224.0
988.46344 188.0
988.67627 172.0
990.560974 164.0
990.943115 168.0
991.250183 120.0
991.381775 148.0
991.851868 296.0
992.911499 136.0
994.55542 180.0
994.800232 132.0
995.566284 128.0
996.037354 220.0
996.736572 316.0
997.807068 252.0
997.922791 152.0
999.218445 196.0
999.841431 48.0
1000.376465 168.0
1001.957275 144.0
1002.058044 80.0
1002.581116 128.0
1002.801697 164.0
1003.148376 180.0
1005.122559 88.0
1005.86731 188.0
1006.347107 212.0
1006.555481 228.0
1006.618652 160.0
1006.7323 136.0
1007.079712 164.0
1007.957886 112.0
1008.104309 168.0
1008.520386 88.0
1008.80481 116.0
1008.875122 176.0
1009.045105 168.0
1009.803955 152.0
1010.272034 160.0
1010.379578 172.0
1010.651672 204.0
1011.018738 192.0
1011.987244 200.0
1012.310181 168.0
1012.417847 108.0
1012.696533 172.0
1013.817993 164.0
1013.944763 184.0
1014.673706 188.0
1014.813232 172.0
1014.882996 152.0
1015.523499 100.0
1017.395508 128.0
1017.973328 184.0
1018.017761 120.0
1018.303589 172.0
1018.646606 152.0
1018.786377 188.0
1019.720459 192.0
1020.356201 168.0
1020.438843 164.0
1020.953918 160.0
1021.341919 132.0
1021.780884 152.0
1022.519043 48.0
1022.62085 108.0
1023.06012 192.0
1023.327515 152.0
1023.677734 196.0
1024.435669 164.0
1026.079956 196.0
1026.12793 160.0
1026.354126 188.0
1026.424316 136.0
1027.202393 100.0
1027.495972 128.0
1027.744751 204.0
1028.108521 168.0
1028.465942 128.0
1028.523438 72.0
1028.631958 124.0
1030.790771 192.0
1031.020752 188.0
1032.414551 200.0
1033.181519 192.0
1033.437988 148.0
1033.495605 172.0
1034.257324 180.0
1034.359619 152.0
1036.171997 168.0
1036.665405 64.0
1036.729492 140.0
1037.005127 124.0
1037.120483 124.0
1037.498779 152.0
1037.69104 80.0
1039.397339 60.0
1039.83374 72.0
1039.994141 204.0
1040.129028 204.0
1040.649048 160.0
1041.291138 228.0
1041.381104 192.0
1041.567383 164.0
1041.618774 160.0
1042.01709 148.0
1042.160522 172.0
1042.852539 48.0
1042.987549 136.0
1043.103271 156.0
1043.379639 128.0
1044.13208 176.0
1044.736694 268.0
1044.788208 164.0
1044.981201 180.0
1045.811401 180.0
1047.369629 96.0
1049.035645 212.0
1049.244995 160.0
1049.58667 260.0
1049.715698 160.0
1050.060059 224.0
1050.290894 128.0
1050.702637 228.0
1051.121948 152.0
1051.328491 160.0
1051.754517 188.0
1052.135376 196.0
1052.542114 152.0
1053.246094 156.0
1053.93103 216.0
1054.015015 148.0
1054.08606 100.0
1054.516602 192.0
1055.062134 136.0
1055.159058 176.0
1056.116211 76.0
1056.458984 224.0
1056.776001 40.0
1056.821411 148.0
1057.119019 164.0
1061.459351 164.0
1061.817749 60.0
1062.127441 180.0
1062.529663 100.0
1062.769653 68.0
1063.210938 164.0
1064.697754 188.0
1065.503174 144.0
1066.036011 168.0
1066.135132 192.0
1066.55603 180.0
1066.712036 156.0
1066.783569 120.0
1067.336182 60.0
1067.778442 48.0
1068.474487 144.0
1068.55249 168.0
1068.767212 180.0
1069.925781 156.0
1070.290405 160.0
1071.651855 164.0
1071.971191 140.0
1072.075439 92.0
1072.466431 88.0
1072.935791 72.0
1075.134155 124.0
1076.335327 84.0
1076.387573 172.0
1076.570435 172.0
1076.668335 204.0
1076.772827 92.0
1076.864258 188.0
1077.69397 148.0
1078.602417 172.0
1080.027954 160.0
1080.07373 184.0
1080.48584 184.0
1081.631104 240.0
1081.749023 64.0
1082.141846 192.0
1082.220337 148.0
1082.960449 152.0
1083.202759 236.0
1084.546143 208.0
1084.900146 112.0
1086.946533 204.0
1088.101807 156.0
1088.384155 144.0
1088.797852 180.0
1089.382446 228.0
1089.467896 168.0
1089.862061 124.0
1090.262939 132.0
1091.005737 48.0
1092.057861 244.0
1094.24939 144.0
1094.354736 160.0
1094.789307 128.0
1095.046143 232.0
1096.528687 136.0
1096.983521 164.0
1097.154907 204.0
1097.695557 56.0
1098.500244 144.0
1099.325073 136.0
1099.410767 188.0
1099.69458 160.0
1101.444458 120.0
1101.920166 176.0
1102.025879 184.0
1102.144775 132.0
1102.290161 240.0
1102.607422 172.0
1102.713135 172.0
1103.453491 180.0
1104.597656 188.0
1105.034302 140.0
1105.44458 164.0
1107.563232 212.0
1107.854736 124.0
1108.246216 188.0
1108.72937 168.0
1108.775879 64.0
1108.954834 156.0
1109.186768 144.0
1109.239868 124.0
1109.954346 212.0
1110.045776 168.0
1111.839966 92.0
1112.516968 164.0
1112.663086 212.0
1113.300537 184.0
1114.197266 172.0
1114.243774 100.0
1115.1875 180.0
1115.792358 144.0
1115.952026 196.0
1116.05835 176.0
1116.543823 208.0
1116.636963 224.0
1116.690186 136.0
1116.956177 212.0
1118.380249 196.0
1118.919434 184.0
1119.492065 44.0
1119.611938 184.0
1119.905029 156.0
1120.078247 292.0
1120.784424 160.0
1120.86438 136.0
1121.477539 200.0
1121.833862 212.0
1122.484253 148.0
1122.564331 132.0
1123.604858 208.0
1124.085327 120.0
1124.212158 156.0
1124.525879 188.0
1124.993042 68.0
1125.079834 220.0
1125.17334 164.0
1126.215088 84.0
1127.010132 236.0
1127.244019 152.0
1127.945801 124.0
1128.453979 80.0
1129.029053 144.0
1129.891968 168.0
1129.965576 148.0
1130.587891 168.0
1130.715088 196.0
1132.000488 192.0
1132.087524 156.0
1132.556396 212.0
1132.777466 204.0
1133.300049 160.0
1133.789185 152.0
1134.325439 120.0
1134.412598 208.0
1134.607056 156.0
1134.828247 156.0
1135.096436 108.0
1135.595093 200.0
1136.605835 160.0
1136.988281 240.0
1138.781006 180.0
1139.4729 132.0
1140.025146 208.0
1140.192017 220.0
1140.904541 208.0
1141.913208 76.0
1142.538818 140.0
1143.359741 128.0
1143.420288 276.0
1144.039673 228.0
1144.106934 52.0
1144.248291 140.0
1144.409912 76.0
1145.736816 168.0
1146.565674 184.0
1146.882446 108.0
1147.084595 204.0
1148.520996 176.0
1149.566772 92.0
1150.133667 176.0
1151.038452 172.0
1151.173462 272.0
1152.267822 200.0
1152.936768 188.0
1153.322021 212.0
1154.430908 204.0
1155.188477 164.0
1156.542847 224.0
1156.846436 204.0
1158.248291 232.0
1159.115479 124.0
1159.210327 152.0
1159.54248 120.0
1160.023682 176.0
1162.207642 136.0
1162.546875 176.0
1162.757324 268.0
1162.838745 140.0
1163.117065 184.0
1163.592285 52.0
1163.755249 148.0
1163.82312 116.0
1164.088013 196.0
1164.325684 136.0
1164.699219 176.0
1165.392212 160.0
1165.609619 188.0
1166.296143 188.0
1166.37085 144.0
1166.615601 172.0
1168.356689 140.0
1168.553955 64.0
1168.948608 116.0
1169.38916 152.0
1169.520386 180.0
1169.894775 140.0
1170.344116 104.0
1170.514404 56.0
1170.602905 192.0
1170.86853 232.0
1171.113647 168.0
1171.835815 152.0
1171.972046 104.0
1172.046997 140.0
1172.742188 184.0
1173.117065 132.0
1173.655762 204.0
1174.228638 128.0
1174.371826 168.0
1174.835693 100.0
1175.661377 176.0
1175.715942 180.0
1176.57605 148.0
1177.094971 160.0
1177.689209 120.0
1177.880493 140.0
1178.037598 252.0
1178.317627 188.0
1179.014648 144.0
1179.549927 180.0
1180.115234 164.0
1181.702148 164.0
1182.523315 52.0
1182.783447 140.0
1183.769409 176.0
1184.509155 148.0
1185.845337 180.0
1186.805054 144.0
1187.010864 180.0
1187.175415 192.0
1187.388062 96.0
1187.929932 128.0
1188.444458 164.0
1189.95459 196.0
1191.364258 184.0
1191.520508 208.0
1192.19397 128.0
1192.826904 184.0
1193.053101 144.0
1193.128784 184.0
1194.098389 148.0
1194.628052 228.0
1194.96521 52.0
1195.25415 40.0
1195.405518 188.0
1195.501953 196.0
1197.278198 208.0
1197.484741 156.0
1197.842896 176.0
1198.738647 64.0
1199.57959 176.0
1200.420776 168.0
1200.627686 52.0
1200.703491 180.0
1200.786255 156.0
1200.855225 164.0
1201.144897 140.0
1202.048828 180.0
1202.255859 164.0
1202.573364 152.0
1202.649292 216.0
1203.063477 172.0
1203.180786 220.0
1203.346558 196.0
1203.436279 168.0
1204.043945 160.0
1204.638062 200.0
1205.177368 184.0
1205.287476 128.0
1205.474121 172.0
1205.874878 172.0
1205.937134 152.0
1206.020142 52.0
1206.939575 144.0
1207.036377 148.0
1207.402954 128.0
1208.876587 160.0
1209.471802 152.0
1209.630981 64.0
1209.679443 140.0
1211.320679 192.0
1211.459229 164.0
1211.764038 164.0
1212.283813 148.0
1213.159058 188.0
1213.712524 160.0
1213.885254 56.0
1214.238892 236.0
1214.554565 156.0
1214.877075 208.0
1215.133789 160.0
1215.869385 172.0
1216.035889 232.0
1216.625977 172.0
1216.688477 212.0
1216.959229 160.0
1218.598511 160.0
1219.008423 188.0
1219.196045 168.0
1220.023315 204.0
1220.092773 40.0
1220.17627 168.0
1221.226318 164.0
1221.947632 224.0
1222.659668 176.0
1223.710815 56.0
1224.233032 176.0
1224.358398 128.0
1224.448975 172.0
1224.99231 180.0
1225.047974 172.0
1225.765625 180.0
1225.911987 124.0
1226.28833 144.0
1226.685669 68.0
1227.906006 132.0
1228.726929 188.0
1229.147705 164.0
1230.746338 268.0
1230.802124 192.0
1231.738037 136.0
1232.052368 136.0
1232.974854 220.0
1233.08667 116.0
1233.478027 204.0
1234.820679 176.0
1234.869629 224.0
1235.282227 60.0
1235.639038 144.0
1235.792969 164.0
1237.003784 172.0
1237.374878 140.0
1237.798584 160.0
1237.921021 128.0
1238.390259 44.0
1238.656494 120.0
1239.055786 80.0
1239.798584 100.0
1239.861694 164.0
1240.233154 248.0
1241.656494 64.0
1242.196655 300.0
1244.393311 228.0
1244.547852 188.0
1244.639038 64.0
1245.271118 156.0
1245.720703 184.0
1245.9104 168.0
1246.704468 220.0
1246.789673 100.0
1246.887207 208.0
1247.147217 152.0
1247.238647 204.0
1248.940308 168.0
1249.062622 176.0
1249.327271 100.0
1250.28418 164.0
1250.671265 148.0
1251.044434 144.0
1251.206299 136.0
1252.002075 212.0
1252.788818 244.0
1253.009399 80.0
1253.594238 180.0
1254.214478 136.0
1254.425903 156.0
1254.714966 80.0
1254.785522 200.0
1254.884277 216.0
1255.441284 76.0
1255.857422 132.0
1256.414795 88.0
1256.577026 168.0
1257.332031 168.0
1257.847412 156.0
1258.207397 100.0
1258.70874 180.0
1260.446533 68.0
1260.757446 180.0
1260.905884 196.0
1261.033081 156.0
1261.414551 140.0
1261.478394 172.0
1262.312744 176.0
1262.758301 188.0
1263.267578 60.0
1263.989258 252.0
1264.541382 156.0
1264.612061 56.0
1265.199707 136.0
1265.619995 120.0
1265.846924 192.0
1266.733398 184.0
1267.317383 108.0
1267.409546 32.0
1267.714233 40.0
1270.940796 140.0
1271.132446 236.0
1272.147461 256.0
1273.020752 160.0
1273.418457 160.0
1274.370483 120.0
1275.059814 208.0
1275.116577 216.0
1275.351196 176.0
1275.472046 384.0
1276.047852 140.0
1276.225708 176.0
1277.015015 192.0
1277.079102 136.0
1277.776245 144.0
1277.932739 152.0
1278.366821 172.0
1278.452271 100.0
1278.793823 152.0
1279.228149 180.0
1279.285034 116.0
1279.548584 184.0
1279.683716 128.0
1280.032715 216.0
1280.289062 136.0
1280.353149 120.0
1280.744873 144.0
1281.015625 48.0
1281.371826 188.0
1281.48584 236.0
1281.770874 180.0
1282.747314 228.0
1283.353271 152.0
1284.144897 192.0
1284.437378 224.0
1284.551514 112.0
1285.143677 180.0
1285.214966 196.0
1286.5354 56.0
1286.706787 164.0
1287.62085 184.0
1288.206543 232.0
1289.02832 200.0
1289.099731 188.0
1289.607178 156.0
1290.300659 212.0
1290.36499 68.0
1290.979858 196.0
1291.344727 144.0
1291.416138 80.0
1291.645142 212.0
1292.088623 132.0
1292.21936 176.0
1292.28186 128.0
1292.339111 156.0
1294.558228 120.0
1295.72583 132.0
1297.646606 104.0
1297.804443 192.0
1298.048218 188.0
1298.14856 132.0
1300.157349 152.0
1301.169556 144.0
1301.427979 156.0
1302.304199 248.0
1302.821411 164.0
1303.561523 152.0
1304.61084 184.0
1305.53125 156.0
1306.588745 248.0
1307.668091 152.0
1307.725708 208.0
1308.827148 144.0
1309.10083 132.0
1309.230469 208.0
1309.295288 144.0
1310.498291 128.0
1311.747192 204.0
1311.925415 164.0
1312.372437 188.0
1312.458984 156.0
1312.949341 160.0
1313.273926 132.0
1313.353271 196.0
1313.511963 180.0
1314.240601 124.0
1314.392212 164.0
1314.913452 192.0
1316.326782 156.0
1316.449585 252.0
1317.453613 184.0
1317.778687 80.0
1318.342407 252.0
1318.501343 144.0
1319.000122 184.0
1319.246094 180.0
1320.113647 132.0
1320.308838 124.0
1320.90918 284.0
1321.0177 176.0
1321.639893 224.0
1322.450562 124.0
1322.826904 140.0
1323.2323 136.0
1324.036133 132.0
1324.535889 140.0
1324.73877 352.0
1325.485107 204.0
1326.115601 256.0
1326.847778 236.0
1326.89856 216.0
1327.094238 208.0
1327.601929 120.0
1328.153198 120.0
1329.611572 216.0
1330.526245 156.0
1330.627808 184.0
1330.780273 204.0
1330.896484 116.0
1331.466553 336.0
1332.429077 128.0
1332.821411 216.0
1333.424683 176.0
1334.086914 196.0
1334.335938 240.0
1335.526001 144.0
1335.664185 212.0
1336.035156 152.0
1337.223267 232.0
1337.755615 216.0
1338.852295 224.0
1339.078003 132.0
1339.230957 160.0
1339.34021 152.0
1341.658569 160.0
1341.803467 152.0
1343.130737 192.0
1343.568481 140.0
1344.044556 160.0
1344.159546 120.0
1344.283569 164.0
1344.612061 176.0
1345.122925 184.0
1345.225098 56.0
1345.517212 52.0
1346.283569 160.0
1346.364258 96.0
1347.357666 128.0
1348.958252 176.0
1349.03125 136.0
1349.25061 216.0
1350.866943 188.0
1352.959961 156.0
1353.047852 208.0
1353.135742 132.0
1353.238159 204.0
1353.384644 164.0
1353.450562 112.0
1353.626343 204.0
1353.692139 44.0
1353.809326 192.0
1353.926514 220.0
1355.098633 196.0
1355.5896 136.0
1355.853394 240.0
1356.359131 164.0
1357.092285 204.0
1357.590942 76.0
1357.671631 224.0
1357.957642 160.0
1358.163086 156.0
1360.893188 124.0
1360.981323 140.0
1361.245605 148.0
1363.604004 160.0
1364.530273 156.0
1365.353882 148.0
1365.876099 260.0
1366.369019 40.0
1366.751587 188.0
1366.869385 184.0
1367.568481 164.0
1367.871094 192.0
1368.658081 144.0
1368.937988 120.0
1369.203125 204.0
1369.313599 160.0
1370.175415 172.0
1370.300659 96.0
1371.369263 168.0
1371.538818 180.0
1371.900024 48.0
1373.227417 132.0
1373.662598 184.0
1373.729004 136.0
1374.525879 148.0
1374.747192 160.0
1375.477905 152.0
1375.619141 200.0
1375.684692 168.0
1376.622314 164.0
1376.888306 180.0
1377.270264 156.0
1378.314087 164.0
1379.104858 88.0
1381.138306 188.0
1381.848511 156.0
1382.122314 156.0
1382.27771 188.0
1382.899414 176.0
1383.239868 124.0
1383.417603 96.0
1383.588257 168.0
1385.446777 120.0
1385.725464 224.0
1386.143311 172.0
1386.35083 184.0
1387.292114 156.0
1388.322876 72.0
1388.686279 168.0
1389.057129 172.0
1389.153564 144.0
1389.390991 212.0
1390.170166 116.0
1390.34082 228.0
1390.422485 132.0
1391.714111 152.0
1391.870117 212.0
1392.234009 136.0
1392.820801 172.0
1392.917358 68.0
1393.288452 192.0
1394.343994 168.0
1394.983276 228.0
1395.050171 168.0
1395.382812 184.0
1395.459106 136.0
1395.65979 132.0
1395.771362 164.0
1396.039062 160.0
1396.232422 208.0
1396.425781 120.0
1396.864746 100.0
1397.087891 72.0
1397.861694 136.0
1398.501831 196.0
1399.00061 204.0
1399.179199 196.0
1399.333862 156.0
1400.005737 144.0
1400.21106 220.0
1400.668701 192.0
1401.428589 176.0
1401.935303 120.0
1402.410889 196.0
1402.934204 164.0
1403.329346 152.0
1404.089966 232.0
1404.209351 176.0
1404.492798 152.0
1404.749634 160.0
1405.141846 48.0
1405.208984 96.0
1405.487793 108.0
1405.771729 204.0
1406.731445 172.0
1407.022583 144.0
1407.45105 196.0
1408.015747 172.0
1408.590942 48.0
1409.054199 68.0
1409.270874 120.0
1409.330566 96.0
1409.659424 164.0
1409.913452 168.0
1410.092896 204.0
1410.219971 132.0
1410.474121 208.0
1410.586182 164.0
1411.364868 208.0
1411.969482 240.0
1412.036865 144.0
1412.867188 184.0
1413.46582 240.0
1413.892334 172.0
1414.46875 168.0
1415.651733 116.0
1417.532104 204.0
1418.19165 128.0
1418.686401 136.0
1418.821289 192.0
1420.238647 180.0
1420.591187 132.0
1420.71875 140.0
1420.778809 176.0
1420.973877 124.0
1421.709229 168.0
1421.821777 140.0
1423.000366 192.0
1423.226807 156.0
1423.683716 156.0
1423.796387 164.0
1423.976685 236.0
1424.126831 188.0
1425.276367 212.0
1425.471802 128.0
1425.659668 140.0
1425.862549 216.0
1426.088013 124.0
1426.209229 124.0
1427.478882 204.0
1427.990356 72.0
1428.516846 156.0
1429.043579 216.0
1429.16394 60.0
1429.239136 184.0
1429.600464 172.0
1430.097168 196.0
1430.856567 224.0
1431.053223 144.0
1431.783691 212.0
1432.013428 284.0
1432.092529 332.0
1433.011597 132.0
1433.093384 140.0
1433.727539 144.0
1434.149536 200.0
1434.409912 180.0
1434.469482 168.0
1434.888428 208.0
1435.876221 156.0
1436.766357 192.0
1437.211548 172.0
1437.415283 168.0
1437.57373 228.0
1437.724731 136.0
1437.868164 68.0
1438.5625 124.0
1438.940063 176.0
1439.355347 72.0
1440.405151 208.0
1440.873535 136.0
1441.470215 184.0
1441.719238 128.0
1442.21875 164.0
1442.422852 180.0
1442.574097 144.0
1443.224243 136.0
1443.405762 116.0
1443.541016 208.0
1445.962891 184.0
1446.432129 192.0
1446.629028 164.0
1447.060547 188.0
1447.13208 160.0
1447.499756 180.0
1447.71936 188.0
1447.848022 156.0
1448.779785 196.0
1449.810303 132.0
1450.962524 120.0
1451.288574 220.0
1451.409912 220.0
1452.52478 184.0
1455.515137 164.0
1456.19873 160.0
1456.305054 128.0
1456.608887 176.0
1456.890869 200.0
1457.193848 152.0
1458.022095 188.0
1458.075317 132.0
1458.941895 184.0
1459.223267 212.0
1459.93042 176.0
1460.333496 148.0
1460.911621 160.0
1461.08667 80.0
1461.261597 176.0
1461.314941 136.0
1461.832397 140.0
1462.113892 84.0
1463.027344 140.0
1463.628906 104.0
1464.649414 144.0
1464.824707 68.0
1464.878052 156.0
1466.226685 168.0
1466.471313 172.0
1466.668823 144.0
1466.836548 68.0
1466.920288 204.0
1467.11853 252.0
1467.492188 132.0
1468.010742 160.0
1468.353882 220.0
1468.483521 172.0
1468.872559 44.0
1469.788086 192.0
1470.299438 148.0
1470.446411 220.0
1471.780518 164.0
1472.299805 132.0
1472.880249 116.0
1473.178223 228.0
1474.018677 48.0
1474.14856 208.0
1474.905273 140.0
1475.012207 172.0
1475.555054 120.0
1475.822632 160.0
1476.243286 96.0
1476.488037 408.0
1477.069336 248.0
1477.885132 176.0
1478.125122 188.0
1478.377686 176.0
1479.074219 40.0
1479.150757 80.0
1479.724976 192.0
1480.391113 152.0
1480.69751 264.0
1481.264282 176.0
1482.137695 220.0
1483.923706 200.0
1484.636841 164.0
1485.463257 228.0
1485.660156 200.0
1486.976929 184.0
1487.053711 144.0
1487.46814 152.0
1487.521973 36.0
1487.698486 140.0
1487.859741 156.0
1488.443237 160.0
1488.957764 96.0
1489.026978 140.0
1489.490112 172.0
1489.587646 164.0
1490.66333 240.0
1491.001465 128.0
1491.593384 156.0
1491.754761 144.0
1492.046997 144.0
1492.159546 232.0
1492.300659 124.0
1492.662109 124.0
1492.962036 200.0
1493.20813 132.0
1493.646606 160.0
1493.946533 208.0
1494.154297 164.0
1494.438965 160.0
1495.070068 144.0
1495.275269 380.0
1495.416382 160.0
1496.601929 140.0
1496.87146 152.0
1497.318115 208.0
1497.541504 180.0
1497.772583 188.0
1498.743408 136.0
1499.221191 344.0
1500.161499 88.0
1500.963379 236.0
1501.025146 212.0
1501.36438 140.0
1501.534058 176.0
1502.158936 172.0
1502.560059 156.0
1503.933716 96.0
1504.088135 156.0
1505.362061 176.0
