>compound MLS001140978-01!4-[[[2-(8-methoxy-6-oxobenzo[c]chromen-3-yl)oxyacetyl]amino]methyl]cyclohexane-1-carboxylic acid
>formula C24H25NO7
>ionization [M+H]+
>parentmass 440.171
#inchi InChI=1S/C24H25NO7/c1-30-16-6-8-18-19-9-7-17(11-21(19)32-24(29)20(18)10-16)31-13-22(26)25-12-14-2-4-15(5-3-14)23(27)28/h6-11,14-15H,2-5,12-13H2,1H3,(H,25,26)(H,27,28)
#inchikey MQGHBBGWYHTZHS
#Ion_Source LC-ESI
#Instrument qTof
#Compound_Source NIH Natural Product Library
#PI Dorrestein
#Data_Collector VVP/LMS
#Scan -1
#Precursor_MZ 440.171
#ExactMass 439.163
#Charge 1
#CAS_Number N/A
#Pubmed_ID N/A
#Smiles COc1ccc2c(c1)c(=O)oc3cc(OCC(=O)NCC4CCC(CC4)C(=O)O)ccc32
#INCHI_AUX N/A
#Library_Class 1
#SpectrumID CCMSLIB00000080339
#IonMode Positive
#UpdateWorkflowName UPDATE-SINGLE-ANNOTATED-GOLD
#LibraryQualityString Gold
#TaskID b1d8e8f6646f4e71acdff9ca3d919d08
##Scan# 2031
#SpectrumFile p2-E07_GE7_01_18031.mzXML
#LibraryName NIH_Natural_Products_Library.mgf
#MQScore -1
#Organism NIH_Natural_Products_Library
#TIC_Query 0
#RT_Query -1
#MZErrorPPM -1
#SharedPeaks 0
#MassDiff 0
#LibMZ -1
#SpecMZ 440.171
#SpecCharge 0
#internalFilename spec-00000.mgf

>collision 10
95.021172 204.0
95.084221 2308.0
95.184212 148.0
95.368774 44.0
95.392097 184.0
95.56324 68.0
95.625511 68.0
95.664444 136.0
95.69754 40.0
95.752068 72.0
96.03846 136.0
96.086906 216.0
96.274727 56.0
96.399757 116.0
96.618744 120.0
96.827293 128.0
97.418594 136.0
97.507011 180.0
97.746933 104.0
97.781326 184.0
97.849289 80.0
97.898514 148.0
97.969421 92.0
98.02459 172.0
98.15863 60.0
98.192154 48.0
98.223717 48.0
98.905426 132.0
99.309631 168.0
99.579567 240.0
99.605385 60.0
99.955299 192.0
100.473335 72.0
100.748833 108.0
101.152786 228.0
101.1688 212.0
101.223221 264.0
102.18631 136.0
102.200394 108.0
102.286934 160.0
102.365456 184.0
103.07753 60.0
103.423363 144.0
103.629921 208.0
103.662346 160.0
103.940147 204.0
103.995438 164.0
104.011185 384.0
104.21833 156.0
104.297585 36.0
104.437889 264.0
104.480606 176.0
104.643417 80.0
104.806366 112.0
105.071419 188.0
105.159164 136.0
105.263283 100.0
105.314339 128.0
105.481888 184.0
105.555489 160.0
105.598434 88.0
105.667992 104.0
105.743698 220.0
105.817398 240.0
105.930031 248.0
106.301132 28.0
106.387337 200.0
106.455093 176.0
106.471519 92.0
106.535194 236.0
106.582451 112.0
107.086617 216.0
107.43895 36.0
107.459579 184.0
107.562767 180.0
107.930511 176.0
108.082993 380.0
108.153938 128.0
108.385887 144.0
108.597343 172.0
108.688622 120.0
108.734276 136.0
108.821465 120.0
108.962692 120.0
109.185112 164.0
109.389015 212.0
109.43898 132.0
109.45356 48.0
109.855804 96.0
109.96431 60.0
110.003967 244.0
110.060677 172.0
110.097923 176.0
110.148048 124.0
110.277596 164.0
110.3424 160.0
110.42186 48.0
110.474152 148.0
110.67717 136.0
110.859406 216.0
111.103516 544.0
111.558342 136.0
111.657166 208.0
111.676094 168.0
111.814957 128.0
112.038353 200.0
112.111115 588.0
112.324852 208.0
112.398689 200.0
112.565453 152.0
112.645706 236.0
112.761215 132.0
113.11618 204.0
113.180786 148.0
113.437134 92.0
113.50074 64.0
113.681046 112.0
114.574074 140.0
114.95787 144.0
115.058189 260.0
115.239731 156.0
115.340172 148.0
115.470596 188.0
115.515518 100.0
115.571136 124.0
115.669586 144.0
116.057358 164.0
116.377052 108.0
116.516663 108.0
116.563927 164.0
116.753105 116.0
116.862808 180.0
117.33448 184.0
117.429359 224.0
117.720711 248.0
117.746628 88.0
117.89785 112.0
117.992958 136.0
118.998245 216.0
119.045876 60.0
119.185043 176.0
119.278488 164.0
119.633072 80.0
119.778969 256.0
119.881371 80.0
119.975098 152.0
120.627815 48.0
120.70652 140.0
120.800568 340.0
121.214371 60.0
121.256004 136.0
121.63134 192.0
121.683754 152.0
122.050682 168.0
122.078293 324.0
122.095726 348.0
122.76635 156.0
122.878845 176.0
122.973732 168.0
123.0532 208.0
123.084618 192.0
123.185707 116.0
123.258614 188.0
123.353653 188.0
123.371338 164.0
123.422188 108.0
123.448723 156.0
123.667747 220.0
123.769585 192.0
123.809441 328.0
124.077393 164.0
124.112701 1044.0
124.175125 56.0
124.423653 52.0
125.116203 204.0
125.839638 184.0
125.859734 80.0
126.033958 196.0
126.051834 148.0
126.398438 120.0
126.573029 188.0
126.920341 168.0
127.027992 172.0
127.261398 172.0
127.349419 204.0
127.875092 56.0
127.998909 160.0
128.062454 160.0
128.350433 192.0
128.61438 208.0
128.630188 244.0
129.072998 116.0
129.337692 208.0
129.394287 140.0
129.811203 96.0
129.87471 132.0
130.181412 124.0
130.208344 80.0
130.531052 152.0
130.651596 140.0
130.781296 124.0
130.991913 128.0
131.138885 132.0
131.540344 140.0
131.56546 160.0
131.994995 184.0
132.395462 140.0
132.491669 180.0
132.610825 132.0
132.863052 176.0
133.060425 180.0
133.115814 164.0
133.212006 148.0
133.793823 176.0
133.908951 52.0
133.959625 172.0
134.346115 140.0
134.478439 60.0
134.614655 164.0
134.718582 172.0
134.757858 128.0
135.039001 188.0
135.116211 148.0
135.231918 204.0
135.709122 44.0
135.736954 144.0
135.978226 168.0
136.452087 192.0
136.617218 144.0
136.680038 192.0
137.096863 160.0
137.684753 176.0
137.85997 156.0
137.948792 104.0
137.988525 84.0
138.046982 128.0
138.092926 424.0
138.166275 100.0
138.74707 40.0
138.779907 144.0
138.981613 144.0
139.05542 444.0
139.110703 112.0
140.067688 204.0
140.107376 1116.0
140.286911 136.0
140.348206 160.0
140.751694 180.0
140.909958 188.0
140.990295 192.0
141.023376 128.0
141.049377 172.0
141.068283 256.0
141.105911 228.0
141.664627 220.0
141.730972 156.0
142.067215 112.0
142.480713 148.0
143.172897 80.0
143.284851 208.0
143.527954 100.0
143.773666 200.0
144.058365 232.0
144.25853 136.0
144.421127 160.0
144.952606 108.0
145.064865 168.0
145.189941 120.0
145.209122 88.0
145.302673 52.0
145.437057 136.0
145.674789 140.0
145.951172 148.0
146.097885 88.0
146.579422 212.0
146.596283 132.0
146.731262 148.0
147.201767 48.0
147.511032 172.0
147.689957 184.0
148.014252 212.0
148.435883 112.0
148.661484 140.0
148.777985 76.0
150.887787 104.0
150.946457 192.0
151.046738 56.0
151.112793 124.0
151.619675 104.0
151.877106 96.0
152.059341 200.0
152.104172 816.0
152.198593 228.0
152.484589 216.0
152.795853 164.0
153.068069 884.0
153.114624 840.0
153.155258 180.0
153.182358 88.0
153.300613 80.0
153.677887 240.0
153.95929 76.0
154.040848 172.0
154.077759 204.0
154.118149 104.0
154.250839 148.0
154.300278 156.0
154.34726 188.0
154.47998 192.0
154.55751 156.0
155.055893 236.0
155.084763 836.0
156.058136 276.0
156.084732 160.0
156.093918 112.0
156.157608 124.0
156.927078 252.0
156.986923 124.0
157.116623 208.0
157.208939 136.0
157.431122 88.0
157.843445 176.0
157.930969 108.0
158.121124 108.0
158.143646 144.0
158.544373 144.0
158.564423 28.0
158.807617 120.0
158.841049 172.0
158.933044 144.0
158.968185 144.0
159.053513 72.0
159.362411 120.0
159.48555 196.0
159.729446 200.0
160.442108 212.0
160.464798 144.0
160.717026 48.0
161.058319 148.0
161.090668 140.0
161.196793 152.0
161.621597 236.0
161.826614 40.0
162.602295 76.0
162.823181 132.0
162.927322 176.0
162.960358 120.0
163.036575 164.0
163.184021 144.0
163.509613 40.0
164.039413 188.0
164.202591 172.0
164.406693 164.0
164.429657 192.0
164.728394 140.0
164.81015 164.0
165.071228 204.0
165.114349 120.0
165.290863 240.0
165.582703 232.0
165.656982 136.0
165.723602 188.0
166.069672 48.0
166.088242 164.0
166.144058 132.0
166.613876 84.0
166.690948 176.0
166.734634 48.0
167.052017 168.0
167.092056 44.0
167.220718 156.0
167.60701 168.0
167.838989 116.0
167.944733 124.0
167.97052 164.0
168.057541 7752.0
168.122742 32.0
168.158875 64.0
168.515244 60.0
168.605682 36.0
168.644455 120.0
168.706482 236.0
168.724579 92.0
168.843536 108.0
169.033218 148.0
169.064545 1272.0
169.286057 140.0
169.471863 224.0
169.532166 192.0
169.555481 76.0
169.651382 180.0
169.861435 76.0
170.067093 308.0
170.113144 180.0
170.193634 220.0
170.227386 52.0
170.305298 108.0
170.47937 224.0
170.710724 156.0
170.858994 156.0
170.89801 184.0
171.043671 304.0
171.082489 488.0
171.124451 136.0
171.207779 80.0
171.392731 140.0
171.489151 60.0
171.629929 48.0
171.653397 172.0
171.888168 180.0
172.049988 184.0
172.193604 152.0
172.214493 104.0
172.465332 168.0
172.635269 36.0
172.69281 100.0
172.73465 64.0
172.800064 172.0
173.064407 144.0
173.363022 184.0
173.507187 124.0
173.814056 168.0
174.060806 100.0
174.081802 228.0
174.105438 180.0
174.981064 180.0
175.073227 156.0
175.468216 204.0
175.795547 136.0
175.972397 204.0
176.218018 168.0
176.810349 152.0
177.178406 196.0
177.294983 212.0
177.318848 200.0
177.735184 184.0
178.000015 104.0
178.643814 144.0
178.856689 108.0
180.102295 2760.0
180.198074 220.0
180.254196 132.0
180.278244 204.0
180.732819 40.0
180.823807 140.0
180.90947 132.0
181.067444 36.0
181.103683 480.0
181.84227 148.0
182.027496 92.0
182.071899 188.0
182.111389 300.0
182.16716 232.0
182.363312 176.0
182.489655 180.0
182.586472 84.0
182.66716 136.0
182.874344 108.0
182.965866 164.0
183.048035 596.0
183.08136 6172.0
183.135208 248.0
183.297165 120.0
183.614502 128.0
183.744736 176.0
183.926498 180.0
183.993027 200.0
184.050797 1276.0
184.083084 1424.0
184.11351 168.0
184.186386 120.0
184.238785 208.0
184.300934 156.0
184.49823 48.0
184.54689 100.0
184.57663 168.0
184.606384 80.0
184.71727 140.0
184.968918 80.0
185.058182 692.0
185.089493 120.0
185.218048 64.0
185.2966 48.0
185.377884 92.0
185.402283 220.0
185.560181 112.0
185.963684 36.0
186.060043 184.0
186.09671 152.0
186.151016 212.0
186.232483 120.0
186.408066 152.0
186.634689 144.0
186.710831 136.0
186.776108 132.0
186.939346 32.0
186.993774 144.0
187.038086 320.0
187.079422 444.0
187.890274 88.0
187.988495 100.0
188.393417 160.0
188.441772 192.0
188.526474 128.0
188.764297 168.0
188.862762 76.0
188.922943 72.0
189.514297 196.0
189.736298 136.0
190.994003 132.0
191.073776 128.0
191.318726 128.0
191.525238 160.0
191.558304 156.0
191.759445 220.0
191.889008 160.0
192.214478 236.0
193.098495 140.0
193.286606 148.0
193.494202 136.0
193.60495 52.0
193.663116 152.0
193.926331 152.0
193.998398 128.0
194.026123 44.0
194.064941 280.0
194.164764 40.0
194.30069 68.0
195.052322 144.0
195.081055 164.0
195.161682 156.0
195.445389 164.0
196.052444 192.0
196.576706 48.0
196.76651 96.0
197.026245 136.0
197.060013 3404.0
197.129623 40.0
197.411957 124.0
197.476288 144.0
197.638535 152.0
197.658127 96.0
197.688904 84.0
197.982849 156.0
198.067902 1000.0
198.391937 48.0
198.508484 140.0
198.762146 72.0
198.80986 164.0
198.981079 128.0
199.037506 304.0
199.074432 3112.0
199.202942 92.0
199.419296 216.0
199.582352 100.0
199.7314 60.0
199.855179 68.0
200.044739 212.0
200.077805 684.0
200.812988 156.0
200.8694 188.0
200.903244 52.0
201.052338 1080.0
201.176987 224.0
201.422668 56.0
201.479156 104.0
201.521545 124.0
202.059631 340.0
202.330414 148.0
202.44368 144.0
202.534302 92.0
203.057816 216.0
203.430359 128.0
203.938812 128.0
204.004196 32.0
204.052521 200.0
204.550369 140.0
204.584534 60.0
204.940536 188.0
205.821899 92.0
205.896149 180.0
206.064682 100.0
206.258331 100.0
206.459152 68.0
206.510635 168.0
206.788162 100.0
206.816788 204.0
207.097382 36.0
207.748062 180.0
208.043655 208.0
208.161377 40.0
209.061142 160.0
209.098007 188.0
209.945557 200.0
210.135925 200.0
210.234039 192.0
211.071289 344.0
211.135376 52.0
211.864792 164.0
211.988632 168.0
212.05127 136.0
212.589676 188.0
212.758011 32.0
213.053375 936.0
213.082626 176.0
213.848068 144.0
213.926666 144.0
214.053741 140.0
214.270309 144.0
215.065018 140.0
215.367157 76.0
215.612579 236.0
216.033539 280.0
216.07457 160.0
216.76265 44.0
216.783157 108.0
216.80661 224.0
217.760101 64.0
218.459671 180.0
218.536163 188.0
218.624435 256.0
220.095398 140.0
220.822372 196.0
220.854904 64.0
220.961395 56.0
221.029449 272.0
221.254395 208.0
221.283997 104.0
222.07225 160.0
222.193863 72.0
222.273972 132.0
222.318481 76.0
222.490646 56.0
222.544083 132.0
223.061005 200.0
223.324402 144.0
223.938782 200.0
224.048996 108.0
224.275467 140.0
224.57959 124.0
224.943634 116.0
225.054169 1708.0
225.128738 32.0
225.627731 48.0
225.657623 88.0
225.828079 100.0
226.061188 572.0
226.375763 76.0
226.783203 164.0
226.888123 176.0
226.942337 140.0
226.993057 104.0
227.033768 7404.0
227.072174 7844.0
227.17601 172.0
227.336288 140.0
227.456757 40.0
227.500107 72.0
227.566162 84.0
227.593185 40.0
227.663452 72.0
227.709427 96.0
227.767365 76.0
227.78978 112.0
227.977676 88.0
228.037674 1760.0
228.072388 1700.0
228.124954 32.0
228.152008 36.0
228.444839 96.0
228.732605 40.0
228.813873 52.0
229.048355 736.0
229.077591 140.0
229.283783 68.0
229.392288 140.0
229.486145 120.0
229.558121 76.0
229.604858 40.0
229.64418 156.0
229.778305 72.0
230.037842 52.0
230.297516 124.0
230.600937 104.0
230.718552 60.0
231.107697 72.0
231.298355 132.0
231.37706 176.0
231.443665 116.0
231.910202 192.0
233.017822 152.0
233.397751 140.0
234.984619 192.0
235.644104 128.0
237.051605 68.0
237.137421 160.0
237.158875 148.0
237.27536 124.0
237.726257 140.0
238.091568 184.0
238.291229 92.0
238.352692 164.0
238.626236 132.0
238.672363 68.0
239.072571 196.0
239.115341 176.0
239.28772 184.0
239.373535 156.0
239.460159 100.0
239.685043 156.0
239.771332 176.0
240.021027 148.0
240.060211 244.0
240.341827 64.0
240.6474 148.0
240.75856 36.0
240.860474 224.0
241.050095 1984.0
241.095291 136.0
241.343735 140.0
241.457001 100.0
241.571442 124.0
241.599289 124.0
241.815887 200.0
241.855392 68.0
241.874557 88.0
241.926422 192.0
241.981644 184.0
241.994919 144.0
242.003174 160.0
242.057983 23024.0
242.12117 172.0
242.145416 124.0
242.183563 48.0
242.224609 60.0
242.255585 44.0
242.285919 84.0
242.43219 56.0
242.480881 124.0
242.511368 124.0
242.537567 72.0
242.568558 28.0
242.75148 56.0
242.825912 124.0
243.063797 8020.0
243.126663 80.0
243.173401 136.0
243.20755 32.0
243.263428 88.0
243.322403 100.0
243.347244 40.0
243.396927 40.0
243.426865 168.0
243.471451 192.0
243.505615 52.0
243.825623 160.0
243.962387 96.0
244.0681 1304.0
244.105408 52.0
244.214249 204.0
244.332169 44.0
244.355927 88.0
244.400909 68.0
244.428909 224.0
244.539612 84.0
244.566742 88.0
244.593857 152.0
244.743286 68.0
244.824249 132.0
244.945724 164.0
244.990143 80.0
245.064209 120.0
245.26355 76.0
245.30719 48.0
245.338364 96.0
245.375778 56.0
245.665817 40.0
245.837418 136.0
246.627579 48.0
246.68071 88.0
246.721344 76.0
246.915222 60.0
247.321152 188.0
247.594345 60.0
247.92955 76.0
248.236771 100.0
249.370102 160.0
249.725388 156.0
250.058884 136.0
250.159607 156.0
250.628876 76.0
251.174271 168.0
251.840286 100.0
251.960312 44.0
253.049271 920.0
254.052109 204.0
254.154449 104.0
254.319458 108.0
254.449615 136.0
254.76384 168.0
254.98645 200.0
255.007935 180.0
255.065903 13536.0
255.170609 120.0
255.360489 148.0
255.409317 136.0
255.434769 56.0
255.49202 64.0
255.533005 136.0
255.606567 112.0
255.711578 60.0
255.772064 40.0
255.855957 56.0
256.02359 72.0
256.068542 1872.0
256.460052 28.0
256.72467 148.0
256.798035 128.0
256.852264 64.0
256.884155 28.0
256.970306 48.0
257.045776 588.0
257.06842 472.0
257.101685 388.0
257.143829 116.0
257.225586 32.0
257.292633 64.0
257.362885 144.0
257.583252 68.0
257.701447 44.0
257.896362 132.0
257.957123 144.0
258.052429 292.0
258.139343 132.0
258.459229 52.0
258.660858 60.0
258.760101 40.0
259.766357 68.0
260.039093 140.0
260.739258 88.0
260.800323 164.0
262.077911 156.0
263.006683 56.0
264.869171 128.0
265.040283 392.0
266.387268 188.0
266.777222 100.0
266.862427 100.0
267.06012 156.0
268.049103 196.0
268.375763 36.0
269.096832 180.0
270.094055 136.0
271.32486 112.0
273.08493 172.0
274.075836 160.0
274.464783 96.0
275.827393 216.0
277.496765 68.0
278.143646 140.0
278.196747 48.0
279.176941 204.0
280.10553 132.0
282.067596 152.0
282.3685 160.0
282.672943 108.0
282.766632 80.0
282.910583 220.0
282.974182 156.0
283.060822 4776.0
283.242096 52.0
283.372742 44.0
283.434662 92.0
283.650909 52.0
283.872162 52.0
284.063934 1360.0
284.14386 44.0
284.798462 64.0
285.084045 200.0
285.772797 192.0
286.07962 128.0
286.665649 40.0
286.733063 100.0
288.593048 108.0
289.005707 96.0
290.391235 152.0
292.011292 240.0
296.521423 196.0
296.603699 32.0
297.643188 52.0
298.100067 116.0
298.956329 148.0
299.032043 204.0
299.27301 136.0
299.431427 96.0
300.013733 80.0
300.041321 200.0
300.08783 8544.0
300.142975 88.0
300.220612 48.0
300.255096 36.0
300.410339 68.0
300.520721 48.0
300.622406 60.0
300.917633 52.0
301.089813 1568.0
301.14209 216.0
301.231903 44.0
301.265656 52.0
301.746826 56.0
302.09256 820.0
302.199921 32.0
302.435242 76.0
302.667175 96.0
302.698334 60.0
303.09668 88.0
303.932343 44.0
304.203064 112.0
306.223267 72.0
308.190735 164.0
310.073425 156.0
310.350342 56.0
312.09021 1200.0
313.038422 124.0
313.070129 168.0
313.094788 128.0
313.33783 48.0
314.38858 152.0
315.066528 92.0
317.108246 64.0
319.09613 140.0
321.150848 112.0
321.750336 116.0
324.55896 84.0
327.134949 108.0
327.185333 152.0
333.112518 120.0
335.18631 120.0
336.630829 48.0
337.142273 88.0
339.393524 144.0
341.119019 148.0
342.369995 112.0
343.250732 112.0
344.808594 96.0
350.080322 132.0
350.180847 204.0
350.20694 264.0
353.451111 124.0
354.668243 48.0
356.732758 76.0
357.135101 128.0
358.897552 72.0
360.022064 56.0
364.112152 148.0
365.111694 116.0
365.152222 140.0
365.469269 68.0
366.169708 196.0
366.744995 72.0
372.688202 64.0
374.634949 128.0
376.159058 140.0
383.980469 64.0
387.459381 60.0
389.636749 76.0
392.230042 96.0
392.352264 68.0
394.166901 2636.0
394.824036 164.0
395.108856 44.0
395.171448 672.0
395.785645 72.0
395.868805 60.0
395.900482 84.0
395.951965 96.0
396.169159 120.0
397.176666 128.0
403.072815 72.0
403.500488 124.0
404.640717 56.0
405.98703 60.0
409.040558 148.0
420.23407 132.0
430.764496 108.0
431.260315 84.0
435.337006 72.0
437.232697 156.0
441.174347 88.0
443.728119 76.0
455.12439 44.0
456.114258 64.0
458.544586 40.0
465.298889 88.0
478.106659 64.0
483.325684 88.0
485.713318 144.0
489.026306 72.0
494.760315 76.0
497.131622 200.0
506.601868 52.0
506.897583 56.0
510.43927 60.0
510.884521 96.0
523.471741 136.0
531.897827 132.0
531.971252 72.0
547.395447 32.0
555.237061 64.0
577.005371 136.0
592.972473 84.0
605.503357 40.0
645.251404 56.0
651.241028 108.0
674.406067 60.0
687.932312 124.0
688.971558 56.0
713.467346 184.0
719.353882 60.0
726.428162 164.0
736.504761 48.0
753.671936 132.0
756.515869 112.0
792.02948 240.0
795.466736 52.0
814.240784 148.0
883.031006 156.0
888.053406 104.0
898.409424 136.0
924.474365 184.0
977.405029 212.0
991.774963 128.0
994.340149 144.0
995.11853 148.0
996.971558 168.0
998.5495 192.0
1008.056213 120.0
1021.121948 100.0
1029.049072 172.0
1034.156616 212.0
1049.768066 136.0
1107.785156 48.0
1115.875 168.0
1126.544556 92.0
1128.422363 176.0
1139.890625 156.0
1140.287109 164.0
1151.525024 104.0
1155.09375 104.0
1158.458008 68.0
1167.464722 196.0
1172.577393 128.0
1191.682861 204.0
1194.790283 156.0
1199.059448 96.0
1212.612305 128.0
1217.864502 132.0
1221.826782 172.0
1225.495728 72.0
1243.6427 188.0
1247.5271 160.0
1251.079712 204.0
1260.445801 100.0
1261.958496 160.0
1266.303345 68.0
1268.953491 156.0
1275.38501 144.0
1277.19812 92.0
1288.689697 136.0
1292.829834 136.0
1299.321411 80.0
1300.512573 156.0
1310.789429 180.0
1311.69751 112.0
1313.02417 188.0
1317.383667 88.0
1322.633423 156.0
1328.396484 60.0
1344.218262 232.0
1348.446533 64.0
1350.28894 64.0
1350.581543 120.0
1351.254517 40.0
1352.015503 140.0
1355.545166 164.0
1370.446411 48.0
1378.636963 152.0
1380.322388 192.0
1384.140503 192.0
1388.03064 140.0
1393.775757 104.0
1401.722656 232.0
1402.207031 96.0
1402.482788 124.0
1408.69104 152.0
1416.335693 144.0
1417.77417 176.0
1432.003296 64.0
1436.239136 48.0
1436.352295 228.0
1436.978394 132.0
1445.56189 188.0
1457.610962 144.0
1462.584717 188.0
1462.980469 184.0
1464.838501 160.0
1467.307617 136.0
1471.404419 92.0
1472.603271 116.0
1483.476196 128.0
1484.887085 152.0
1487.442017 120.0
1490.114502 176.0
1496.736694 136.0
1501.645508 232.0
1502.30896 304.0
