>compound MLS001049004-01!2,3-dihydroxy-N,N'-diphenylbutanediamide
>formula C16H16N2O4
>ionization [M+H]+
>parentmass 301.119
#inchi InChI=1S/C16H16N2O4/c19-13(15(21)17-11-7-3-1-4-8-11)14(20)16(22)18-12-9-5-2-6-10-12/h1-10,13-14,19-20H,(H,17,21)(H,18,22)
#inchikey RMACBBOFZDWABJ
#Ion_Source LC-ESI
#Instrument qTof
#Compound_Source NIH Natural Product Library
#PI Dorrestein
#Data_Collector VVP/LMS
#Scan -1
#Precursor_MZ 301.119
#ExactMass 300.111
#Charge 1
#CAS_Number N/A
#Pubmed_ID N/A
#Smiles OC(C(O)C(=O)Nc1ccccc1)C(=O)Nc2ccccc2
#INCHI_AUX N/A
#Library_Class 1
#SpectrumID CCMSLIB00000080513
#IonMode Positive
#UpdateWorkflowName UPDATE-SINGLE-ANNOTATED-GOLD
#LibraryQualityString Gold
#TaskID b1d8e8f6646f4e71acdff9ca3d919d08
##Scan# 1698
#SpectrumFile p2-A10_GA10_01_17986.mzXML
#LibraryName NIH_Natural_Products_Library.mgf
#MQScore -1
#Organism NIH_Natural_Products_Library
#TIC_Query 0
#RT_Query -1
#MZErrorPPM -1
#SharedPeaks 0
#MassDiff 0
#LibMZ -1
#SpecMZ 301.119
#SpecCharge 0
#internalFilename spec-00000.mgf

>collision 10
95.102531 200.0
96.054039 64.0
96.475845 192.0
98.079651 232.0
99.378952 116.0
99.432533 204.0
100.02684 128.0
100.385468 148.0
100.453583 132.0
102.099731 92.0
102.238548 148.0
102.46608 92.0
102.948166 216.0
105.010162 208.0
105.03363 528.0
105.616791 164.0
105.966858 156.0
106.065941 740.0
106.100075 108.0
106.128777 128.0
106.163635 76.0
106.202606 36.0
107.072006 132.0
107.767181 164.0
110.319389 176.0
111.476372 76.0
114.814972 144.0
115.785248 192.0
116.001656 188.0
116.049545 296.0
116.09407 176.0
117.060951 176.0
117.833092 192.0
119.526505 228.0
119.781227 132.0
120.045418 10344.0
120.130013 40.0
120.154007 36.0
120.247841 100.0
120.330788 80.0
120.453087 88.0
120.826912 52.0
120.927574 56.0
121.048996 1012.0
121.113686 116.0
121.53241 44.0
121.560936 52.0
121.809029 196.0
121.962845 156.0
122.035393 112.0
122.052986 160.0
122.079376 64.0
126.034103 144.0
126.31356 128.0
131.618164 76.0
132.045502 160.0
133.054214 80.0
134.060501 2636.0
135.066284 356.0
135.662994 72.0
135.855484 128.0
135.983109 40.0
141.250671 72.0
144.043793 164.0
150.055634 192.0
154.295776 240.0
161.53862 92.0
162.055038 1024.0
162.090561 40.0
163.052368 132.0
164.971725 76.0
167.084915 188.0
172.113281 80.0
180.065796 1080.0
180.332413 48.0
181.054214 148.0
181.060043 116.0
181.080368 268.0
182.116867 108.0
190.052551 120.0
190.090973 160.0
194.987442 128.0
232.921967 48.0
267.891968 112.0
281.272888 20.0
282.999603 168.0
345.421478 144.0
744.36615 20.0
855.538574 152.0
857.041199 136.0
939.212952 192.0
947.373535 164.0
967.858215 224.0
981.260193 136.0
990.78479 128.0
996.544189 208.0
999.543457 140.0
1032.69812 184.0
1049.568604 204.0
1085.410645 188.0
1087.181763 96.0
1090.629761 140.0
1092.984131 196.0
1094.636353 64.0
1108.965698 124.0
1117.292603 188.0
1120.081909 180.0
1130.604248 108.0
1135.401001 132.0
1137.910522 112.0
1169.575439 96.0
1176.364624 168.0
1182.051025 204.0
1198.138062 200.0
1199.530029 200.0
1218.818359 196.0
1235.705566 96.0
1241.070557 228.0
1250.33606 204.0
1266.242188 148.0
1272.248047 76.0
1285.636353 208.0
1286.799927 204.0
1290.958496 100.0
1293.670166 132.0
1305.515991 176.0
1308.977295 192.0
1352.538696 208.0
1365.996216 200.0
1367.313232 176.0
1369.359985 140.0
1381.169312 216.0
1383.115356 152.0
1385.210815 176.0
1388.212524 172.0
1393.467773 116.0
1418.078125 72.0
1422.893921 208.0
1431.879639 176.0
1433.823364 116.0
1435.036987 164.0
1457.258545 140.0
1462.574219 220.0
1470.195679 108.0
1471.096313 208.0
1476.64563 228.0
1481.879517 220.0
1482.293213 160.0
1490.303955 128.0
1490.657349 88.0
1490.7146 160.0
1492.94043 172.0
1496.033569 144.0
1501.272827 156.0
1502.16748 188.0
