>compound MLS001140586-01!(3R)-N-cyclopentyl-6,7-dimethoxy-2,2-dimethyl-5-oxo-3,9b-dihydro-[1,3]thiazolo[2,3-a]isoindole-3-carboxamide
>formula C20H26N2O4S
>ionization [M+H]+
>parentmass 391.169
#inchi InChI=1S/C20H26N2O4S/c1-20(2)16(17(23)21-11-7-5-6-8-11)22-18(24)14-12(19(22)27-20)9-10-13(25-3)15(14)26-4/h9-11,16,19H,5-8H2,1-4H3,(H,21,23)/t16-,19?/m1/s1
#inchikey FZERGOGCRZMSTP
#Ion_Source LC-ESI
#Instrument qTof
#Compound_Source NIH Natural Product Library
#PI Dorrestein
#Data_Collector VVP/LMS
#Scan -1
#Precursor_MZ 391.169
#ExactMass 390.161
#Charge 1
#CAS_Number N/A
#Pubmed_ID N/A
#Smiles COc1ccc2C3SC(C)(C)[C@H](N3C(=O)c2c1OC)C(=O)NC4CCCC4
#INCHI_AUX N/A
#Library_Class 1
#SpectrumID CCMSLIB00000079832
#IonMode Positive
#UpdateWorkflowName UPDATE-SINGLE-ANNOTATED-GOLD
#LibraryQualityString Gold
#TaskID b1d8e8f6646f4e71acdff9ca3d919d08
##Scan# 2177
#SpectrumFile p1-F11_GF11_01_17943.mzXML
#LibraryName NIH_Natural_Products_Library.mgf
#MQScore -1
#Organism NIH_Natural_Products_Library
#TIC_Query 0
#RT_Query -1
#MZErrorPPM -1
#SharedPeaks 0
#MassDiff 0
#LibMZ -1
#SpecMZ 391.169
#SpecCharge 0
#internalFilename spec-00000.mgf

>collision 10
95.011536 148.0
95.025116 176.0
95.042572 164.0
95.083328 108.0
95.205635 92.0
95.255379 124.0
95.318306 188.0
95.341621 128.0
95.364944 192.0
95.440758 60.0
95.545784 80.0
95.64698 180.0
95.709 112.0
95.724312 100.0
95.744324 36.0
96.061295 180.0
96.081543 124.0
96.099098 216.0
96.132721 52.0
96.290398 176.0
96.509262 68.0
96.5914 180.0
96.720551 116.0
96.742378 208.0
96.769485 144.0
96.796898 160.0
96.828232 76.0
96.916382 88.0
97.01046 144.0
97.232101 108.0
97.312584 208.0
97.351852 184.0
97.414703 160.0
97.448105 284.0
97.469711 140.0
97.607307 160.0
97.662964 188.0
97.696182 188.0
97.727295 224.0
97.741859 208.0
97.849319 144.0
97.878853 100.0
97.915237 184.0
97.969452 116.0
98.059555 996.0
98.089325 212.0
98.148804 208.0
98.189476 128.0
98.202049 216.0
98.240005 176.0
98.25531 152.0
98.294769 120.0
98.310081 152.0
98.355949 180.0
98.5811 244.0
98.618652 196.0
98.666092 132.0
98.72541 172.0
98.800575 188.0
98.869827 212.0
99.065399 196.0
99.142639 164.0
99.160957 148.0
99.206543 172.0
99.228355 120.0
99.244217 192.0
99.486031 172.0
99.553764 120.0
99.636078 200.0
99.704521 208.0
99.77034 128.0
99.802155 148.0
99.84391 152.0
99.943375 72.0
99.985161 128.0
100.019234 196.0
100.058815 208.0
100.265968 232.0
100.335739 52.0
100.427467 76.0
100.481323 140.0
100.541183 180.0
100.5811 124.0
100.706894 172.0
100.812782 176.0
100.850754 176.0
100.878738 172.0
101.026718 192.0
101.046722 204.0
101.160797 116.0
101.216858 128.0
101.355064 176.0
101.437233 136.0
101.519684 132.0
101.591644 180.0
101.651833 132.0
101.666542 180.0
101.820465 152.0
101.983208 152.0
102.051552 176.0
102.119926 160.0
102.142052 156.0
102.182289 96.0
102.290955 156.0
102.333237 64.0
102.411232 120.0
102.427887 164.0
102.490341 156.0
102.50444 132.0
102.528625 104.0
102.607727 132.0
102.683861 156.0
102.718155 192.0
102.843254 204.0
102.875549 136.0
102.897758 104.0
102.915932 56.0
102.998726 340.0
103.016602 156.0
103.057312 120.0
103.089645 108.0
103.212952 64.0
103.227104 200.0
103.29129 196.0
103.342064 192.0
103.408371 60.0
103.411713 112.0
103.421974 112.0
103.425865 148.0
103.508377 172.0
103.638016 132.0
103.781921 140.0
103.806252 152.0
103.826965 168.0
103.873184 200.0
103.929985 108.0
104.045021 124.0
104.130043 160.0
104.161423 172.0
104.185806 188.0
104.254883 172.0
104.271141 228.0
104.305695 212.0
104.376854 140.0
104.411423 148.0
104.448036 184.0
104.468376 180.0
104.523308 140.0
104.580292 56.0
104.59861 148.0
104.667831 196.0
104.709518 180.0
104.816528 252.0
104.87793 184.0
104.912323 196.0
104.930664 112.0
104.971451 116.0
105.006119 132.0
105.032333 164.0
105.056915 168.0
105.083633 116.0
105.104919 212.0
105.134644 140.0
105.155052 156.0
105.175461 168.0
105.204735 212.0
105.240791 120.0
105.263252 144.0
105.353584 280.0
105.498375 148.0
105.524788 220.0
105.549324 144.0
105.565681 144.0
105.612724 188.0
105.717064 160.0
105.761452 192.0
105.829643 136.0
105.862411 112.0
105.882889 196.0
105.897224 164.0
105.96463 208.0
105.972412 188.0
106.040642 208.0
106.067177 236.0
106.069679 216.0
106.094437 164.0
106.143143 52.0
106.188263 84.0
106.243645 60.0
106.333931 104.0
106.358559 132.0
106.382469 136.0
106.398979 208.0
106.418091 232.0
106.479698 136.0
106.716011 28.0
106.761246 44.0
106.775642 164.0
106.888786 140.0
106.927887 84.0
106.987579 124.0
107.048615 464.0
107.082298 132.0
107.181183 176.0
107.246147 164.0
107.263618 184.0
107.278046 184.0
107.29454 148.0
107.339897 192.0
107.412086 88.0
107.447151 164.0
107.461845 164.0
107.513184 200.0
107.576744 136.0
107.628784 56.0
107.679985 136.0
107.736176 132.0
107.779564 128.0
107.829163 152.0
107.849831 180.0
107.899445 96.0
107.930458 192.0
108.044212 172.0
108.06382 92.0
108.083519 204.0
108.126137 196.0
108.171265 152.0
108.247047 132.0
108.265686 180.0
108.294678 148.0
108.528854 128.0
108.548424 200.0
108.767426 256.0
108.802719 144.0
108.958481 132.0
109.008041 164.0
109.045204 212.0
109.063171 208.0
109.15593 132.0
109.201683 224.0
109.218323 172.0
109.262367 164.0
109.324432 180.0
109.432671 64.0
109.468071 168.0
109.511803 148.0
109.676407 104.0
109.707672 228.0
109.816101 156.0
109.851562 132.0
109.943367 136.0
109.962151 72.0
110.069359 180.0
110.077408 228.0
110.206474 296.0
110.231552 220.0
110.246178 244.0
110.262894 144.0
110.301979 220.0
110.329781 160.0
110.350693 168.0
110.413422 160.0
110.434334 180.0
110.463623 48.0
110.480354 212.0
110.53685 56.0
110.568237 104.0
110.584984 228.0
110.668716 124.0
110.69384 144.0
110.742012 172.0
110.867714 216.0
110.89286 152.0
111.058502 128.0
111.086472 120.0
111.110947 112.0
111.306137 104.0
111.520424 100.0
111.562462 48.0
111.600586 240.0
111.692841 96.0
111.80014 140.0
111.83802 48.0
111.867493 208.0
112.023323 144.0
112.074066 352.0
112.147644 56.0
112.188309 164.0
112.204559 216.0
112.238297 152.0
112.255165 184.0
112.272034 124.0
112.353455 180.0
112.480911 144.0
112.508354 148.0
112.66674 184.0
112.70266 116.0
112.7724 208.0
112.998665 136.0
113.018326 204.0
113.048248 184.0
113.081192 144.0
113.102356 192.0
113.170097 140.0
113.225159 76.0
113.309883 188.0
113.364799 192.0
113.440872 208.0
113.466118 212.0
113.60881 104.0
113.655479 72.0
113.812553 132.0
113.893257 128.0
113.925171 160.0
113.963356 160.0
114.037712 196.0
114.082375 112.0
114.120644 92.0
114.155113 132.0
114.23336 92.0
114.261009 152.0
114.588882 152.0
114.671989 140.0
114.742332 180.0
114.812698 176.0
114.880951 244.0
115.014519 176.0
115.081566 232.0
115.102913 116.0
115.340057 144.0
115.359299 176.0
115.389221 72.0
115.451233 192.0
115.476898 172.0
115.515396 180.0
115.549957 208.0
115.680168 116.0
115.722992 184.0
115.779564 152.0
115.847206 92.0
115.922195 148.0
116.018646 192.0
116.049507 916.0
116.115135 36.0
116.284981 120.0
116.402695 160.0
116.441353 92.0
116.47953 160.0
116.647621 88.0
116.682022 188.0
116.711807 220.0
116.75943 148.0
116.78717 120.0
116.804596 72.0
116.890656 224.0
116.989258 152.0
116.997162 124.0
117.001312 212.0
117.028412 52.0
117.060135 484.0
117.09301 148.0
117.131783 32.0
117.269684 204.0
117.347282 68.0
117.41629 56.0
117.446487 192.0
117.50473 156.0
117.571617 132.0
117.778885 64.0
117.826416 108.0
117.88475 144.0
117.908524 64.0
118.030823 188.0
118.06591 1328.0
118.105995 204.0
118.204788 180.0
118.235085 160.0
118.284866 136.0
118.356308 124.0
118.529594 200.0
118.594612 68.0
118.657127 124.0
118.660492 204.0
118.739876 52.0
118.78759 68.0
118.852676 116.0
118.909103 116.0
118.969879 128.0
118.991585 148.0
119.047798 144.0
119.068245 324.0
119.089531 192.0
119.197929 96.0
119.319649 136.0
119.387054 52.0
119.402275 168.0
119.495811 180.0
119.537155 56.0
119.593277 76.0
119.616516 112.0
119.635094 164.0
119.783173 116.0
119.833282 176.0
119.85289 104.0
119.90519 124.0
119.99456 144.0
120.016365 120.0
120.043495 324.0
120.080734 548.0
120.149406 152.0
120.223595 184.0
120.319633 108.0
120.42588 244.0
120.450661 148.0
120.492165 136.0
120.592682 208.0
120.610588 104.0
120.696373 220.0
120.780724 168.0
120.848541 80.0
121.009407 156.0
121.02713 224.0
121.055099 680.0
121.087257 440.0
121.130951 52.0
121.310638 152.0
121.367638 40.0
121.391762 120.0
121.415886 48.0
121.457558 128.0
121.622124 148.0
121.652855 84.0
121.725304 120.0
121.839516 156.0
121.898842 380.0
122.036415 384.0
122.068222 144.0
122.089836 204.0
122.228683 64.0
122.301308 112.0
122.34726 152.0
122.558968 176.0
122.574387 120.0
122.596428 60.0
122.669159 148.0
122.783813 176.0
122.865425 160.0
122.892181 192.0
123.068474 80.0
123.101601 184.0
123.14798 148.0
123.329155 168.0
123.344627 180.0
123.446327 148.0
123.647644 164.0
123.698547 128.0
123.747253 60.0
123.784897 88.0
123.857491 200.0
124.015297 104.0
124.055199 156.0
124.161629 140.0
124.234825 160.0
124.270317 60.0
124.332451 192.0
124.365746 96.0
124.421242 100.0
124.447884 136.0
124.485626 172.0
124.530045 40.0
124.641121 88.0
124.695168 144.0
124.730019 192.0
124.812927 96.0
124.861198 156.0
124.887886 200.0
124.918037 180.0
124.994675 104.0
125.097054 140.0
125.120995 148.0
125.199471 180.0
125.239563 128.0
125.290794 168.0
125.43119 288.0
125.571655 160.0
125.629654 224.0
125.645271 156.0
125.68766 64.0
125.808182 112.0
125.872932 172.0
125.915359 160.0
125.957794 148.0
126.027054 112.0
126.042694 140.0
126.078445 216.0
126.178574 356.0
126.230461 204.0
126.257713 156.0
126.371376 188.0
126.483269 140.0
126.534805 184.0
126.613129 140.0
126.700485 48.0
126.716171 36.0
126.837181 144.0
127.046288 240.0
127.097328 148.0
127.126503 112.0
127.16465 256.0
127.252289 160.0
127.278885 172.0
127.351006 192.0
127.440865 168.0
127.458839 112.0
127.564468 144.0
127.595947 224.0
127.699387 160.0
127.897385 140.0
127.985184 120.0
128.054337 152.0
128.057755 348.0
128.100037 60.0
128.194901 160.0
128.316391 140.0
128.472809 188.0
128.492294 208.0
128.512604 188.0
128.546448 236.0
128.584824 192.0
128.611649 144.0
128.772202 168.0
128.828674 116.0
128.858047 200.0
128.891937 128.0
128.92131 64.0
128.992691 96.0
129.061462 84.0
129.084213 204.0
129.136093 180.0
129.151917 120.0
129.179062 200.0
129.194901 156.0
129.246933 76.0
129.387268 240.0
129.450668 144.0
129.538986 80.0
129.582031 152.0
129.810974 156.0
129.883545 168.0
129.953873 168.0
130.02916 224.0
130.06279 152.0
130.07869 108.0
130.176315 88.0
130.260345 184.0
130.321686 112.0
130.362259 136.0
130.398956 172.0
130.448959 180.0
130.594482 152.0
130.616241 212.0
130.760574 104.0
130.781052 200.0
130.796982 116.0
130.82338 212.0
130.853897 116.0
130.878937 156.0
130.94043 156.0
131.037857 356.0
131.216156 184.0
131.339294 196.0
131.435104 152.0
131.537811 192.0
131.586884 124.0
131.657669 164.0
131.734192 132.0
131.754745 168.0
131.889572 140.0
131.922699 196.0
131.955872 112.0
131.987885 112.0
132.010742 180.0
132.041595 828.0
132.083466 216.0
132.200623 192.0
132.241806 152.0
132.347122 192.0
132.398987 196.0
132.44101 428.0
132.521194 192.0
132.590088 116.0
132.676697 256.0
132.697662 180.0
132.720596 168.0
132.75499 140.0
132.793976 192.0
132.860504 180.0
132.952286 168.0
133.018585 176.0
133.052185 512.0
133.069794 144.0
133.195587 164.0
133.266876 124.0
133.333511 360.0
133.349548 168.0
133.403519 192.0
133.476044 184.0
133.535828 100.0
133.68306 160.0
133.772827 36.0
133.834991 128.0
133.934021 164.0
133.980087 228.0
134.028885 176.0
134.059982 1052.0
134.090683 160.0
134.120651 124.0
134.173676 44.0
134.275131 92.0
134.360474 124.0
134.429703 128.0
134.459702 112.0
134.576462 172.0
134.642075 112.0
134.965775 164.0
134.975769 120.0
135.038849 412.0
135.063614 728.0
135.118256 168.0
135.146072 156.0
135.24675 180.0
135.345856 188.0
135.393692 68.0
135.595261 160.0
135.722168 172.0
135.773773 220.0
135.871185 140.0
135.910629 76.0
136.03009 416.0
136.053436 220.0
136.074677 356.0
136.118973 160.0
136.205475 188.0
136.272842 40.0
136.291428 248.0
136.323959 272.0
136.577469 212.0
136.647171 144.0
136.67276 80.0
136.693695 124.0
136.770508 152.0
137.017944 176.0
137.022873 312.0
137.05632 316.0
137.08725 60.0
137.115204 128.0
137.161438 172.0
137.224762 152.0
137.259918 160.0
137.469315 176.0
137.477005 148.0
137.484253 196.0
137.504684 192.0
137.563034 100.0
137.682114 124.0
137.754532 228.0
137.920425 136.0
138.009903 260.0
138.063049 64.0
138.131989 128.0
138.271271 172.0
138.320419 104.0
138.52272 284.0
138.563965 120.0
138.58255 160.0
138.633041 216.0
138.718628 172.0
138.922363 164.0
139.012665 164.0
139.034195 348.0
139.077515 104.0
139.228363 208.0
139.40448 56.0
139.429825 220.0
139.505035 96.0
139.620255 176.0
139.693161 112.0
139.815506 140.0
139.8367 168.0
139.924225 216.0
140.016098 200.0
140.048599 84.0
140.156967 184.0
140.338455 220.0
140.355316 188.0
140.442215 144.0
140.527145 160.0
140.595566 156.0
140.699432 76.0
140.734848 108.0
140.789154 120.0
140.819855 216.0
140.847794 184.0
141.01123 120.0
141.122696 132.0
141.179092 92.0
141.225388 232.0
141.285522 44.0
141.373077 252.0
141.408569 140.0
141.612183 132.0
141.707443 188.0
141.89418 208.0
141.920258 156.0
142.013702 216.0
142.043381 236.0
142.062546 140.0
142.232025 172.0
142.290375 124.0
142.373489 120.0
142.456619 188.0
142.539764 232.0
142.561157 140.0
142.644348 120.0
142.687134 192.0
142.727554 200.0
142.765594 144.0
142.787003 68.0
142.810791 96.0
142.905945 164.0
142.935181 180.0
143.034454 160.0
143.065399 160.0
143.091843 228.0
143.241623 224.0
143.425095 180.0
143.453094 172.0
143.556229 144.0
143.656403 184.0
143.682632 224.0
143.711273 236.0
143.742279 296.0
143.841415 336.0
143.923691 116.0
144.019226 92.0
144.043732 1368.0
144.084305 308.0
144.200806 140.0
144.24144 156.0
144.345398 184.0
144.375336 92.0
144.449478 152.0
144.516464 192.0
144.82048 196.0
144.899536 212.0
144.949631 176.0
145.049164 472.0
145.088867 484.0
145.105652 28.0
145.139221 164.0
145.220749 132.0
145.251938 228.0
145.299911 104.0
145.31636 120.0
145.430588 184.0
145.508713 168.0
145.54953 124.0
145.623978 72.0
145.758499 88.0
145.806564 360.0
145.828201 212.0
145.960419 204.0
145.99649 44.0
146.02272 168.0
146.02858 152.0
146.059189 756.0
146.143219 160.0
146.167282 52.0
146.2491 160.0
146.475449 112.0
146.547714 204.0
146.612778 132.0
146.651337 112.0
146.70874 216.0
146.759827 104.0
146.846634 124.0
146.882812 136.0
147.030579 600.0
147.051361 212.0
147.065399 260.0
147.208633 208.0
147.227951 40.0
147.249268 184.0
147.271423 208.0
147.307663 136.0
147.329407 160.0
147.345139 148.0
147.399475 172.0
147.479218 192.0
147.55658 128.0
147.575912 88.0
147.631531 152.0
147.713333 136.0
147.770584 156.0
147.827484 168.0
147.958176 52.0
147.998001 208.0
148.038162 3240.0
148.078232 308.0
148.231873 144.0
148.348206 124.0
148.38942 156.0
148.495178 124.0
148.617416 172.0
148.643051 72.0
148.685364 76.0
148.856781 216.0
148.889297 128.0
149.00206 380.0
149.045746 3532.0
149.183289 184.0
149.231918 104.0
149.292709 144.0
149.415405 180.0
149.450821 72.0
149.511658 176.0
149.550598 36.0
149.679626 172.0
149.836685 124.0
149.886673 168.0
149.923218 52.0
150.007401 148.0
150.027283 152.0
150.055344 444.0
150.11824 148.0
150.178009 148.0
150.203598 96.0
150.281677 140.0
150.347549 156.0
150.415894 116.0
150.572159 92.0
150.69429 164.0
150.728867 160.0
150.862015 192.0
150.924042 132.0
150.970901 172.0
151.021927 1076.0
151.051224 84.0
151.075684 176.0
151.137436 168.0
151.155716 140.0
151.173141 144.0
151.293488 344.0
151.317963 120.0
151.373062 40.0
151.423264 116.0
151.616806 172.0
151.648666 60.0
151.668274 184.0
151.810471 204.0
151.869232 92.0
151.928482 172.0
152.01767 176.0
152.078033 128.0
152.198181 148.0
152.228333 144.0
152.323425 124.0
152.379929 124.0
152.402039 148.0
152.574081 120.0
152.633102 144.0
152.687195 64.0
152.71843 184.0
152.844635 92.0
152.864319 136.0
152.896317 136.0
152.962769 136.0
152.984802 312.0
153.016479 188.0
153.037521 320.0
153.078476 212.0
153.103104 44.0
153.184387 148.0
153.263229 172.0
153.359329 160.0
153.406174 92.0
153.522049 84.0
153.615768 196.0
153.731735 32.0
153.773697 148.0
153.791794 180.0
153.865021 232.0
153.962601 100.0
154.074951 156.0
154.17131 136.0
154.307266 272.0
154.730316 124.0
154.79837 108.0
154.90004 176.0
154.917969 140.0
154.97905 160.0
155.032669 188.0
155.228348 120.0
155.27298 144.0
155.330032 96.0
155.459045 180.0
155.496277 128.0
155.521088 156.0
155.630325 180.0
155.670044 224.0
155.702789 244.0
155.789276 172.0
155.861313 128.0
155.878708 172.0
155.896103 188.0
155.980606 124.0
156.00795 180.0
156.048325 168.0
156.077515 336.0
156.132278 172.0
156.295212 140.0
156.341248 140.0
156.398727 212.0
156.565308 76.0
156.682373 120.0
156.759613 148.0
156.784531 216.0
156.833649 96.0
156.961533 220.0
156.991455 44.0
157.062317 260.0
157.088715 156.0
157.116165 128.0
157.147324 156.0
157.295837 168.0
157.358246 112.0
157.428757 152.0
157.448135 208.0
157.468124 200.0
157.520569 132.0
157.550552 172.0
157.59552 160.0
157.620514 184.0
157.653 168.0
157.690475 132.0
157.757965 212.0
157.787964 92.0
157.988037 192.0
158.070602 316.0
158.092514 148.0
158.115646 52.0
158.178223 160.0
158.214569 124.0
158.313431 152.0
158.333466 176.0
158.356003 116.0
158.413605 196.0
158.471237 180.0
158.546402 92.0
158.584 192.0
158.615433 208.0
158.634125 176.0
158.68631 192.0
158.83223 76.0
158.894943 116.0
158.965195 76.0
159.002838 108.0
159.030014 304.0
159.074463 328.0
159.103241 228.0
159.20993 180.0
159.236816 184.0
159.258163 132.0
159.500153 104.0
159.588135 128.0
159.760574 152.0
159.834976 148.0
159.985641 168.0
160.036697 276.0
160.075806 316.0
160.144287 164.0
160.315598 248.0
160.358444 228.0
160.408859 164.0
160.532394 176.0
160.592926 76.0
160.615616 144.0
160.698868 104.0
160.825043 88.0
160.933594 180.0
160.958847 120.0
160.991165 176.0
161.001495 140.0
161.009735 160.0
161.027298 192.0
161.046158 1032.0
161.09523 172.0
161.239258 172.0
161.284744 28.0
161.320145 136.0
161.345413 168.0
161.363113 40.0
161.598328 180.0
161.634308 128.0
161.661591 176.0
161.745102 140.0
161.83371 72.0
161.909683 144.0
161.927414 88.0
161.947678 88.0
162.019958 880.0
162.053055 2328.0
162.195984 72.0
162.277405 136.0
162.36586 176.0
162.398834 188.0
162.452103 156.0
162.539124 132.0
162.591644 192.0
162.650024 200.0
162.883636 152.0
163.021027 376.0
163.061829 1696.0
163.120071 88.0
163.150452 140.0
163.220367 208.0
163.264877 120.0
163.300476 80.0
163.429199 248.0
163.595047 172.0
163.62619 124.0
163.651657 136.0
163.672028 136.0
163.690796 184.0
163.793106 196.0
163.860504 164.0
163.885986 132.0
163.916565 152.0
163.999359 172.0
164.033188 336.0
164.07048 4312.0
164.13298 212.0
164.219543 364.0
164.238937 124.0
164.247421 72.0
164.257172 180.0
164.311768 120.0
164.350037 144.0
164.393417 168.0
164.44191 224.0
164.502319 204.0
164.653809 168.0
164.725327 52.0
164.794296 128.0
164.817307 68.0
164.87352 244.0
164.940704 140.0
164.999542 876.0
165.053864 2212.0
165.116394 172.0
165.149643 144.0
165.193115 136.0
165.257431 176.0
165.284439 136.0
165.441345 116.0
165.484879 48.0
165.536087 184.0
165.577057 124.0
165.602676 96.0
165.625717 136.0
165.687195 148.0
165.720505 108.0
165.792252 128.0
165.907593 124.0
165.976822 164.0
166.007034 440.0
166.0289 200.0
166.058258 508.0
166.097351 188.0
166.122696 324.0
166.164062 184.0
166.294922 196.0
166.346268 176.0
166.384766 156.0
166.523438 88.0
166.566025 212.0
166.6082 140.0
166.665894 140.0
166.719101 100.0
166.746948 224.0
166.992081 164.0
167.010376 188.0
167.083801 164.0
167.124969 136.0
167.259674 216.0
167.359192 180.0
167.433868 252.0
167.451904 176.0
167.735321 108.0
167.75853 52.0
167.776566 112.0
167.884872 192.0
167.92218 188.0
168.018997 200.0
168.037048 136.0
168.083496 144.0
168.125641 144.0
168.494019 172.0
168.522446 192.0
168.568954 224.0
168.636139 124.0
168.703354 148.0
168.872391 344.0
169.068054 128.0
169.132751 92.0
169.261368 136.0
169.326935 308.0
169.37767 192.0
169.49234 160.0
169.500885 136.0
169.508911 180.0
169.544556 80.0
169.87384 168.0
169.993195 44.0
170.062515 152.0
170.107391 64.0
170.182678 108.0
170.216431 164.0
170.315125 212.0
170.419037 160.0
170.459854 192.0
170.489197 88.0
170.621765 124.0
170.642563 104.0
170.678955 124.0
170.741364 64.0
170.764771 56.0
170.814194 164.0
170.848022 104.0
170.949493 212.0
170.967712 68.0
171.022354 180.0
171.071594 144.0
171.10939 116.0
171.142105 188.0
171.183777 148.0
171.277527 188.0
171.334839 68.0
171.401871 232.0
171.55896 76.0
171.582428 160.0
171.60849 204.0
171.641586 308.0
171.830185 124.0
171.897598 216.0
171.999817 140.0
172.041138 152.0
172.067322 356.0
172.081604 128.0
172.10347 192.0
172.140793 168.0
172.185196 64.0
172.306427 164.0
172.341919 112.0
172.401382 180.0
172.425537 152.0
172.535324 76.0
172.553635 216.0
172.585953 164.0
172.61377 308.0
172.686722 196.0
172.705307 164.0
172.841339 156.0
172.872742 124.0
172.896286 120.0
172.925079 176.0
172.977432 212.0
173.047379 304.0
173.100479 180.0
173.19278 212.0
173.238495 156.0
173.365067 208.0
173.383408 144.0
173.401749 208.0
173.433197 116.0
173.452652 104.0
173.490875 160.0
173.553467 160.0
173.61673 120.0
173.637711 108.0
173.666565 104.0
173.724258 132.0
173.808228 176.0
173.871201 132.0
173.893372 152.0
173.944687 144.0
173.97049 188.0
174.007874 184.0
174.053772 4728.0
174.090302 620.0
174.18364 120.0
174.203888 208.0
174.259155 200.0
174.29924 40.0
174.343918 212.0
174.420441 104.0
174.548538 224.0
174.662048 48.0
174.869904 68.0
174.904831 164.0
174.939133 180.0
174.977829 88.0
175.057007 892.0
175.112137 136.0
175.132034 96.0
175.354523 148.0
175.415146 136.0
175.487198 120.0
175.504089 152.0
175.586533 180.0
175.647186 44.0
175.684128 156.0
175.702591 48.0
175.747437 120.0
175.781738 104.0
175.855469 192.0
175.987045 144.0
176.032349 1100.0
176.070145 2320.0
176.119675 60.0
176.138168 44.0
176.283478 60.0
176.304611 148.0
176.344254 72.0
176.402405 176.0
176.431488 228.0
176.4655 164.0
176.513443 176.0
176.555756 192.0
176.632462 100.0
176.759445 140.0
176.783264 152.0
176.830902 164.0
177.000763 224.0
177.041855 7528.0
177.075455 480.0
177.098312 184.0
177.117233 172.0
177.169846 228.0
177.236069 72.0
177.299667 116.0
177.366241 168.0
177.426895 156.0
177.503799 144.0
177.684158 120.0
177.722504 176.0
177.771713 160.0
177.869919 144.0
177.930969 172.0
178.002655 124.0
178.042038 804.0
178.07988 272.0
178.119522 84.0
178.165405 160.0
178.217819 64.0
178.326767 212.0
178.379929 104.0
178.680435 144.0
178.746948 68.0
178.765579 156.0
178.818115 124.0
178.869904 180.0
178.973206 156.0
179.015869 412.0
179.052429 356.0
179.065948 260.0
179.08992 188.0
179.154312 92.0
179.191605 124.0
179.231567 124.0
179.33551 136.0
179.388809 72.0
179.428802 100.0
179.453629 168.0
179.492798 124.0
179.519455 132.0
179.796906 60.0
179.852951 92.0
179.914352 284.0
180.029266 208.0
180.067642 292.0
180.290955 116.0
180.419266 124.0
180.470062 168.0
180.598419 144.0
180.619827 60.0
180.657272 224.0
180.681351 64.0
180.871338 128.0
180.91127 144.0
180.946304 172.0
181.032379 2512.0
181.299866 184.0
181.356155 108.0
181.432343 176.0
181.541138 140.0
181.63501 156.0
181.773117 236.0
181.825516 128.0
181.993988 320.0
182.037964 316.0
182.087158 148.0
182.209488 80.0
182.292786 104.0
182.424484 144.0
182.596573 176.0
182.642288 216.0
182.745834 108.0
182.784882 244.0
182.827942 56.0
182.89151 244.0
182.94368 164.0
183.0354 172.0
183.06839 112.0
183.318054 148.0
183.353928 160.0
183.406998 128.0
183.528305 92.0
183.679337 116.0
183.738678 200.0
183.762955 156.0
183.798035 148.0
183.841217 212.0
183.970596 128.0
184.005859 144.0
184.047882 160.0
184.070358 176.0
184.232712 96.0
184.335388 104.0
184.419159 40.0
184.440796 192.0
184.490219 112.0
184.676025 156.0
184.816696 144.0
184.922241 52.0
184.998032 72.0
185.054886 112.0
185.080444 740.0
185.107132 176.0
185.195602 220.0
185.244873 128.0
185.282379 132.0
185.434601 188.0
185.488327 236.0
185.548157 212.0
185.585938 112.0
185.718811 156.0
185.75679 180.0
185.79216 192.0
185.824615 104.0
185.873444 148.0
185.935867 164.0
185.998291 168.0
186.056488 280.0
186.083237 528.0
186.348618 48.0
186.370346 152.0
186.400238 204.0
186.421982 80.0
186.473618 168.0
186.525253 96.0
186.557877 136.0
186.666626 168.0
186.837982 116.0
186.925217 180.0
186.979477 32.0
187.001251 192.0
187.058304 328.0
187.098801 740.0
187.135818 104.0
187.161591 196.0
187.240829 72.0
187.330719 152.0
187.363403 172.0
187.588669 188.0
187.668655 132.0
187.690475 124.0
188.006897 128.0
188.071091 1092.0
188.12468 132.0
188.249863 416.0
188.32634 208.0
188.353653 96.0
188.408844 196.0
188.613235 64.0
188.637833 184.0
188.730286 196.0
188.758133 124.0
189.004318 52.0
189.06044 1792.0
189.140549 184.0
189.173996 40.0
189.445099 188.0
189.54921 64.0
189.616302 240.0
189.672546 192.0
189.700989 148.0
189.801392 180.0
189.864471 104.0
189.889145 220.0
189.960464 60.0
190.04985 1436.0
190.129166 148.0
190.163513 68.0
190.190964 184.0
190.248611 148.0
190.273315 136.0
190.532501 64.0
190.622147 132.0
190.809052 52.0
190.853836 164.0
190.935532 56.0
191.007889 168.0
191.055511 3704.0
191.104935 416.0
191.199478 132.0
191.209854 124.0
191.248428 132.0
191.359299 100.0
191.411606 120.0
191.461182 236.0
191.488724 116.0
191.541046 64.0
191.598907 144.0
191.679703 172.0
191.715607 280.0
191.745499 184.0
191.753784 152.0
191.774094 184.0
191.79248 160.0
191.816086 256.0
191.879532 184.0
191.890244 152.0
191.91217 416.0
191.94342 192.0
191.973755 160.0
192.006638 500.0
192.06543 104168.0
192.110641 152.0
192.143387 192.0
192.166656 136.0
192.1884 160.0
192.214264 108.0
192.250793 308.0
192.291748 156.0
192.317459 124.0
192.343811 216.0
192.365143 152.0
192.395508 116.0
192.461639 84.0
192.518982 672.0
192.561584 148.0
192.615692 136.0
192.649261 124.0
192.702469 76.0
192.732712 72.0
192.773621 96.0
192.79187 112.0
192.8172 92.0
192.837128 180.0
192.885712 128.0
192.913422 60.0
192.975952 180.0
193.034378 680.0
193.067825 14436.0
193.129272 132.0
193.177979 36.0
193.269272 60.0
193.312836 140.0
193.368683 52.0
193.411026 164.0
193.421066 80.0
193.432556 76.0
193.471313 68.0
193.512207 104.0
193.550125 60.0
193.578247 212.0
193.609756 56.0
193.681763 80.0
193.717575 80.0
193.751022 116.0
193.781494 52.0
193.903748 104.0
193.939453 204.0
194.00325 900.0
194.034393 176.0
194.073654 2132.0
194.146057 132.0
194.190674 192.0
194.219498 88.0
194.272202 36.0
194.306503 164.0
194.358566 124.0
194.385162 28.0
194.41925 68.0
194.453201 52.0
194.479324 124.0
194.489517 76.0
194.522873 168.0
194.571915 36.0
194.611038 240.0
194.638138 236.0
194.664337 328.0
194.682068 144.0
194.763382 72.0
194.805191 56.0
194.84964 136.0
194.910767 140.0
195.014145 224.0
195.042313 220.0
195.067581 200.0
195.191513 128.0
195.222397 112.0
195.261032 184.0
195.336136 64.0
195.41983 48.0
195.561523 240.0
195.594925 92.0
195.61998 172.0
195.686783 140.0
195.773102 168.0
195.831589 68.0
195.858444 188.0
195.993164 132.0
196.051682 148.0
196.110214 172.0
196.260757 64.0
196.472717 88.0
196.503403 64.0
196.54805 196.0
196.573166 152.0
196.623398 44.0
196.67363 124.0
196.818802 44.0
196.880234 84.0
196.984177 132.0
197.019196 160.0
197.081772 164.0
197.430771 164.0
197.556641 180.0
197.612595 152.0
197.703033 200.0
197.746674 232.0
197.847687 128.0
197.942871 148.0
198.029694 136.0
198.052917 288.0
198.092438 152.0
198.164154 60.0
198.368668 180.0
198.405182 164.0
198.443008 124.0
198.534164 188.0
198.626709 104.0
198.710876 76.0
198.761383 128.0
198.803467 168.0
198.921356 184.0
199.008377 204.0
199.033646 140.0
199.056381 252.0
199.317352 148.0
199.432571 32.0
199.463486 200.0
199.536575 124.0
199.604065 36.0
199.64624 84.0
199.772812 124.0
199.902237 68.0
200.068893 388.0
200.106857 692.0
200.382553 144.0
200.431625 44.0
200.454163 48.0
200.671539 168.0
200.915298 116.0
201.012497 264.0
201.03508 100.0
201.081512 300.0
201.112396 192.0
201.150787 136.0
201.198776 88.0
201.263718 200.0
201.317368 140.0
201.372284 232.0
201.469894 124.0
201.515091 176.0
201.559021 124.0
201.650742 68.0
201.727051 160.0
201.763809 156.0
201.896698 140.0
201.953262 184.0
202.085617 1480.0
202.227707 76.0
202.264511 72.0
202.417389 108.0
202.43721 120.0
202.493851 168.0
202.575989 68.0
202.64682 188.0
202.79985 164.0
202.893387 160.0
202.921738 132.0
203.035645 192.0
203.095596 864.0
203.179825 128.0
203.267776 124.0
203.364273 44.0
203.409683 120.0
203.440918 164.0
203.48349 32.0
203.565842 44.0
203.656723 164.0
203.733414 76.0
203.790237 76.0
203.869797 148.0
203.940369 120.0
204.028976 272.0
204.070786 912.0
204.148392 76.0
204.213806 136.0
204.236557 164.0
204.25647 152.0
204.347504 52.0
204.677673 48.0
204.811523 180.0
204.856491 148.0
204.914078 28.0
205.010956 160.0
205.072281 2996.0
205.197174 300.0
205.246262 80.0
205.295868 144.0
205.364471 56.0
205.47287 56.0
205.67453 132.0
205.721161 84.0
205.746841 280.0
205.801102 104.0
205.941025 100.0
205.961014 124.0
206.079742 6008.0
206.16362 324.0
206.186737 156.0
206.206741 200.0
206.269211 56.0
206.306778 92.0
206.329651 64.0
206.484055 72.0
206.506943 80.0
206.538406 48.0
206.62709 80.0
206.682831 140.0
206.725403 156.0
206.767288 72.0
206.813095 148.0
207.008438 488.0
207.083496 512.0
207.113785 128.0
207.139511 152.0
207.216858 88.0
207.320023 216.0
207.377335 44.0
207.446121 80.0
207.483398 88.0
207.514938 96.0
207.632507 88.0
207.655441 76.0
207.755844 48.0
207.824692 52.0
207.94809 120.0
208.005493 192.0
208.052505 132.0
208.090485 176.0
208.172012 72.0
208.23233 112.0
208.278275 100.0
208.396072 152.0
208.488022 160.0
208.551239 104.0
208.617355 108.0
208.676697 100.0
208.703613 244.0
208.818634 112.0
208.887665 108.0
209.02504 8856.0
209.156998 100.0
209.236435 104.0
209.325134 64.0
209.362335 148.0
209.397125 76.0
209.469147 112.0
209.532516 156.0
209.555573 84.0
209.578613 192.0
209.682358 80.0
209.724243 60.0
209.786118 32.0
209.87262 28.0
210.027161 948.0
210.075363 224.0
210.112457 204.0
210.137238 128.0
210.175476 76.0
210.20433 160.0
210.227417 136.0
210.283875 92.0
210.490097 60.0
210.510315 60.0
210.588287 248.0
210.712509 92.0
210.951416 156.0
210.969711 188.0
211.022934 1212.0
211.066055 136.0
211.157654 96.0
211.178802 64.0
211.334122 116.0
211.436829 132.0
211.635132 112.0
212.003799 140.0
212.068222 540.0
212.110245 168.0
212.559784 188.0
212.623627 56.0
212.919754 144.0
213.075912 968.0
213.166672 196.0
213.257919 176.0
213.410843 96.0
213.457367 40.0
213.48645 56.0
213.634781 140.0
213.954895 128.0
214.016037 164.0
214.05162 308.0
214.085419 512.0
214.17038 168.0
214.39473 152.0
214.514221 176.0
214.553741 172.0
214.798874 188.0
214.872925 180.0
214.975052 136.0
215.024658 120.0
215.04509 124.0
215.095734 264.0
215.22316 140.0
215.503571 120.0
215.58754 108.0
215.626297 160.0
215.860168 64.0
215.950821 192.0
216.061386 544.0
216.103577 252.0
216.187805 148.0
216.228775 124.0
216.281448 120.0
216.460037 164.0
216.696884 144.0
216.820358 180.0
217.055267 1712.0
217.10817 184.0
217.154587 56.0
217.266052 160.0
217.324738 124.0
217.395157 60.0
217.530167 204.0
217.588882 228.0
217.741577 144.0
217.774139 216.0
217.817932 80.0
217.879044 180.0
217.981461 188.0
218.064514 540.0
218.118668 1028.0
218.191986 80.0
218.526428 160.0
218.838409 128.0
218.917908 52.0
218.950302 84.0
218.988602 240.0
219.042831 164.0
219.092636 300.0
219.098099 728.0
219.154816 132.0
219.183548 184.0
219.227234 132.0
219.300903 76.0
219.484207 112.0
219.583954 140.0
219.696045 152.0
219.817001 52.0
219.878983 232.0
219.970474 68.0
220.005905 48.0
220.042816 5128.0
220.095459 4492.0
220.194885 48.0
220.248047 108.0
220.373596 144.0
220.432083 164.0
220.463715 44.0
220.745743 80.0
220.814056 80.0
220.859894 68.0
220.889481 124.0
220.969345 104.0
221.045364 1244.0
221.098587 796.0
221.478516 172.0
221.597015 60.0
221.629608 160.0
221.668121 132.0
221.727402 168.0
222.033478 2032.0
222.068741 184.0
222.075974 140.0
222.114166 224.0
222.169205 140.0
222.31459 88.0
222.39769 72.0
222.474075 104.0
222.645554 164.0
222.834213 44.0
223.006577 124.0
223.038757 488.0
223.152969 128.0
223.324707 136.0
223.458572 48.0
223.535934 192.0
223.732376 64.0
224.023712 164.0
224.083801 176.0
224.113602 204.0
224.167236 144.0
224.229813 156.0
224.250671 140.0
224.29538 204.0
224.369904 116.0
224.405685 136.0
224.429535 144.0
224.539871 164.0
224.66217 148.0
224.701859 172.0
225.030624 152.0
225.644714 76.0
225.716476 152.0
226.087418 116.0
226.180191 152.0
226.228088 180.0
226.38678 164.0
226.491592 44.0
226.713303 192.0
226.845184 176.0
227.079056 156.0
227.163055 164.0
227.241043 160.0
227.295059 156.0
227.532166 60.0
227.729004 160.0
227.811462 208.0
227.985733 140.0
228.012772 168.0
228.063156 244.0
228.101791 424.0
228.154053 112.0
228.202148 72.0
228.319427 112.0
228.523972 48.0
228.594193 224.0
228.638321 140.0
228.665405 96.0
228.915268 148.0
228.960449 208.0
229.047379 328.0
229.068588 500.0
229.103607 380.0
229.213486 128.0
229.490799 152.0
229.656662 120.0
229.710953 140.0
229.751114 180.0
229.913101 228.0
229.970444 116.0
230.006668 156.0
230.027802 244.0
230.079971 940.0
230.121643 136.0
230.266327 164.0
230.474762 116.0
230.498947 148.0
230.601685 152.0
230.659119 108.0
230.686325 156.0
230.801208 172.0
230.983017 140.0
231.028046 200.0
231.086182 928.0
231.130905 168.0
231.245911 88.0
231.28334 48.0
231.37001 136.0
231.403595 200.0
231.596634 148.0
231.694061 80.0
231.733444 40.0
231.754654 128.0
231.824356 260.0
231.991058 48.0
232.049393 704.0
232.096329 1416.0
232.200272 200.0
232.254868 32.0
232.439926 68.0
232.682739 76.0
232.72525 228.0
232.831528 56.0
233.049438 656.0
233.100098 288.0
233.171799 120.0
233.238663 112.0
233.381546 40.0
233.65831 56.0
233.792191 148.0
233.977875 144.0
234.008316 148.0
234.056702 8524.0
234.117447 280.0
234.224533 80.0
234.261093 152.0
234.294968 100.0
234.370758 84.0
234.397293 136.0
234.624435 208.0
234.815842 204.0
234.852432 120.0
234.934189 160.0
235.065094 11044.0
235.125259 180.0
235.161423 148.0
235.239365 224.0
235.273544 108.0
235.331543 28.0
235.380402 156.0
235.404831 128.0
235.447586 136.0
235.481171 56.0
235.575623 204.0
235.655304 80.0
235.6828 64.0
235.756134 52.0
235.80809 44.0
235.905899 60.0
236.06813 2112.0
236.159698 120.0
236.269821 64.0
236.349365 180.0
236.468719 72.0
236.50238 164.0
236.624832 88.0
236.66626 108.0
236.711639 68.0
236.759552 52.0
236.790192 192.0
236.826706 52.0
236.903519 160.0
236.977051 104.0
237.056778 1864.0
237.129166 112.0
237.240616 32.0
237.396988 64.0
237.603714 80.0
237.6884 124.0
237.758972 72.0
237.780457 104.0
238.029114 152.0
238.064468 484.0
238.148895 192.0
238.376236 92.0
238.474579 136.0
238.601288 168.0
238.738968 148.0
238.8134 60.0
238.941986 112.0
239.009674 244.0
239.061066 424.0
239.085312 124.0
239.138916 168.0
239.246658 144.0
239.492996 72.0
239.57309 32.0
239.810364 76.0
239.831924 76.0
239.915161 144.0
240.010742 136.0
240.260559 112.0
240.4673 112.0
240.53212 196.0
240.735886 120.0
240.757507 116.0
240.793549 156.0
241.013901 208.0
241.035522 140.0
241.109695 216.0
241.162231 84.0
241.313705 116.0
241.814835 148.0
242.2948 100.0
242.415634 68.0
242.741119 52.0
242.834152 188.0
243.029587 136.0
243.099457 124.0
243.115372 224.0
243.122421 196.0
243.226028 188.0
243.305817 116.0
243.482803 288.0
243.535599 196.0
243.662964 224.0
243.697144 64.0
244.029709 168.0
244.051468 168.0
244.096634 856.0
244.157196 124.0
244.315826 140.0
244.43718 100.0
244.504639 176.0
244.536758 120.0
244.636368 160.0
244.695511 80.0
244.764008 124.0
244.869888 48.0
245.049072 336.0
245.102509 1284.0
245.13855 128.0
245.281174 216.0
245.433945 140.0
245.4776 196.0
245.521255 52.0
245.621063 144.0
245.649139 128.0
245.720886 148.0
245.756943 176.0
245.792648 140.0
245.845703 168.0
245.954926 152.0
245.983032 76.0
246.020493 108.0
246.054031 904.0
246.110779 8768.0
246.179718 44.0
246.239899 208.0
246.267166 32.0
246.312012 72.0
246.356506 60.0
246.39212 68.0
246.462692 68.0
246.660004 52.0
246.701508 96.0
246.770279 180.0
246.814056 72.0
246.867218 32.0
246.907867 136.0
246.932892 128.0
247.061676 388.0
247.116806 1548.0
247.201935 56.0
247.29895 76.0
247.364685 100.0
247.411636 52.0
247.580719 152.0
247.862656 132.0
247.931595 208.0
248.038116 736.0
248.064377 332.0
248.123566 196.0
248.13356 268.0
248.17923 208.0
248.226273 100.0
248.267029 164.0
248.348572 160.0
248.561905 76.0
248.590149 48.0
248.624664 44.0
248.704666 156.0
248.750214 264.0
248.776443 68.0
248.850677 196.0
248.96228 96.0
249.033569 344.0
249.06691 120.0
249.095627 188.0
249.119278 144.0
249.169327 96.0
249.243286 80.0
249.284149 72.0
249.438141 152.0
249.479004 108.0
249.670807 172.0
249.746292 132.0
249.802917 124.0
249.900436 188.0
249.999222 172.0
250.050201 212.0
250.087967 7784.0
250.159134 112.0
250.249176 40.0
250.265228 40.0
250.270187 76.0
250.31572 240.0
250.367599 64.0
250.470245 52.0
250.508041 236.0
250.577347 208.0
250.756973 92.0
250.779037 52.0
250.838913 32.0
250.908279 156.0
250.980789 64.0
251.021774 228.0
251.091568 1860.0
251.141617 116.0
251.189987 156.0
251.220474 60.0
251.334061 68.0
251.444504 44.0
251.504471 68.0
251.567841 244.0
251.791794 144.0
251.82338 104.0
251.984482 176.0
252.080872 596.0
252.136154 80.0
252.306839 100.0
252.376389 160.0
252.40802 156.0
252.525024 44.0
252.619919 128.0
252.670532 84.0
252.73381 116.0
252.850891 52.0
253.085312 148.0
253.405045 60.0
253.604691 28.0
254.020065 212.0
254.093033 44.0
254.162827 88.0
255.20874 140.0
255.25235 148.0
255.338211 168.0
255.522705 136.0
255.621338 148.0
255.688171 68.0
255.831406 152.0
256.012878 144.0
256.063843 104.0
256.092499 196.0
256.286835 144.0
256.41748 272.0
256.538605 156.0
256.640625 176.0
256.787323 64.0
256.825592 52.0
256.962769 148.0
257.562927 144.0
257.604462 116.0
257.626801 196.0
257.840881 72.0
257.943176 116.0
258.128601 216.0
258.163788 140.0
258.640472 168.0
258.714111 128.0
258.944672 176.0
259.694641 108.0
259.765198 136.0
260.044373 128.0
260.072845 132.0
260.126434 1456.0
260.16394 144.0
260.214508 236.0
260.34613 156.0
260.387909 116.0
261.001678 168.0
261.046387 448.0
261.082367 320.0
261.126282 496.0
261.227295 136.0
261.271851 132.0
261.336182 192.0
261.432739 152.0
261.696686 64.0
261.815826 148.0
261.854462 96.0
262.053131 1500.0
262.136719 144.0
262.357147 52.0
262.386139 120.0
262.460297 68.0
262.673615 144.0
262.73587 172.0
262.824799 96.0
262.899017 144.0
262.976471 220.0
263.018433 128.0
263.05661 672.0
263.094177 344.0
263.137878 76.0
263.202454 76.0
263.250885 64.0
263.33316 192.0
263.761353 52.0
263.948853 136.0
264.026459 156.0
264.060822 412.0
264.162323 64.0
264.49884 100.0
264.631592 136.0
264.673676 136.0
264.770813 88.0
264.942474 152.0
265.061951 188.0
265.360565 92.0
265.412445 72.0
265.43515 140.0
265.53244 76.0
265.581085 56.0
266.077576 232.0
266.223694 96.0
266.379578 164.0
266.467285 72.0
266.659027 212.0
266.789032 124.0
267.019897 72.0
267.149994 124.0
267.25412 184.0
267.478668 144.0
267.647949 148.0
267.706573 176.0
267.892212 28.0
267.950867 64.0
268.097504 132.0
268.149628 104.0
268.381104 104.0
268.465973 116.0
268.583282 136.0
268.720306 72.0
268.765961 112.0
268.909576 136.0
268.955261 84.0
269.023804 220.0
269.053192 276.0
269.131531 208.0
269.242584 52.0
269.412415 84.0
269.745728 164.0
269.794769 192.0
269.892853 148.0
270.030212 164.0
270.203583 224.0
270.226471 108.0
270.360626 68.0
270.512817 184.0
270.704376 156.0
270.750214 48.0
271.106232 176.0
271.153168 64.0
271.385925 176.0
271.520355 136.0
271.572845 116.0
271.99939 48.0
272.093994 540.0
272.153687 152.0
272.235779 184.0
272.452576 40.0
272.547852 256.0
272.623413 68.0
272.682587 216.0
272.712158 120.0
273.060669 128.0
273.304108 76.0
273.53775 156.0
273.577271 136.0
273.636536 60.0
273.84729 116.0
273.870331 60.0
273.99881 144.0
274.08432 252.0
274.108948 308.0
274.2789 148.0
274.75708 36.0
274.803253 112.0
274.910614 128.0
275.057373 112.0
275.091736 176.0
275.126678 116.0
275.162994 132.0
275.23233 132.0
275.351227 104.0
275.430481 60.0
275.460236 100.0
275.532898 212.0
275.666809 144.0
275.774109 64.0
276.034454 176.0
276.06723 332.0
276.111359 200.0
276.137817 204.0
276.268066 128.0
276.35614 88.0
276.438873 44.0
276.544434 80.0
276.554504 72.0
276.698853 160.0
276.72757 128.0
276.81955 316.0
276.853943 104.0
276.889099 48.0
276.98587 108.0
277.030945 68.0
277.040802 140.0
277.05426 180.0
277.067719 116.0
277.124298 124.0
277.150787 56.0
277.19873 144.0
277.233643 64.0
277.278625 180.0
277.323181 244.0
277.37616 188.0
277.439117 144.0
277.46936 272.0
277.512085 296.0
277.541901 200.0
277.575073 244.0
277.610352 144.0
277.652557 288.0
277.683228 144.0
277.709015 248.0
277.800446 228.0
277.80896 92.0
277.845154 216.0
277.90332 140.0
277.968536 252.0
277.97876 236.0
278.012115 508.0
278.084381 167352.0
278.17337 180.0
278.210083 184.0
278.25174 132.0
278.261414 112.0
278.31012 260.0
278.321899 240.0
278.393921 84.0
278.420563 172.0
278.475006 232.0
278.502258 152.0
278.562958 136.0
278.594421 64.0
278.631653 788.0
278.689453 112.0
278.791107 112.0
278.845612 132.0
278.902222 116.0
278.952179 168.0
278.957336 84.0
279.005219 152.0
279.086426 24196.0
279.15509 248.0
279.196381 72.0
279.246826 96.0
279.309479 68.0
279.348602 56.0
279.394226 312.0
279.424957 80.0
279.477325 180.0
279.499878 68.0
279.534088 144.0
279.56424 96.0
279.585602 84.0
279.626648 140.0
279.662964 124.0
279.715729 220.0
279.764679 124.0
279.803802 212.0
279.841156 80.0
279.900696 68.0
279.941833 84.0
280.007996 116.0
280.023438 124.0
280.081543 7724.0
280.203705 184.0
280.247162 40.0
280.294403 52.0
280.321106 84.0
280.35675 268.0
280.385529 92.0
280.425079 172.0
280.486328 100.0
280.520538 140.0
280.569305 100.0
280.591797 156.0
280.642975 80.0
280.694153 48.0
280.748474 124.0
280.77948 144.0
280.838104 244.0
280.891876 188.0
280.928223 228.0
280.981628 232.0
281.08432 908.0
281.162048 120.0
281.197205 160.0
281.254639 56.0
281.277985 40.0
281.35144 136.0
281.404846 128.0
281.431549 96.0
281.461609 48.0
281.488312 56.0
281.521729 52.0
281.583099 52.0
281.65036 100.0
281.695404 128.0
281.732147 104.0
281.771332 104.0
281.832367 100.0
281.858337 120.0
281.906342 156.0
281.918091 80.0
282.012421 132.0
282.096741 300.0
282.126495 52.0
282.168823 72.0
282.203583 64.0
282.236816 32.0
282.333801 72.0
282.404022 76.0
282.427429 64.0
282.525391 112.0
282.561249 108.0
282.668304 84.0
282.792145 92.0
282.895905 80.0
283.018616 92.0
283.122284 92.0
283.192078 80.0
283.37146 68.0
283.626129 48.0
284.052002 72.0
284.34726 28.0
284.40097 64.0
284.508392 48.0
284.592316 40.0
284.625885 36.0
284.666199 52.0
285.546661 84.0
285.61731 44.0
285.792236 104.0
285.889832 60.0
286.031189 48.0
286.428528 156.0
286.68457 72.0
286.728394 56.0
286.86322 108.0
287.197021 68.0
288.060669 140.0
288.067688 120.0
289.065277 152.0
289.111908 364.0
289.366547 96.0
289.407166 64.0
289.657776 52.0
289.703613 120.0
290.084747 180.0
290.240692 36.0
290.664581 108.0
290.776672 108.0
291.238434 88.0
291.302979 76.0
291.466034 56.0
291.839935 68.0
292.193665 124.0
292.31955 56.0
292.452271 96.0
292.520355 44.0
292.719757 120.0
292.789337 76.0
293.239044 96.0
293.54245 144.0
294.340942 100.0
294.515106 116.0
294.556091 200.0
294.648346 48.0
294.685913 100.0
294.747406 40.0
295.181549 128.0
295.249939 76.0
295.47226 88.0
295.657043 104.0
296.009644 44.0
296.064423 60.0
296.732605 100.0
296.917755 104.0
297.40152 136.0
297.628113 64.0
298.438995 96.0
298.566223 100.0
298.94809 56.0
299.027252 84.0
299.133942 68.0
299.550598 88.0
299.746979 56.0
299.836578 84.0
300.546967 36.0
300.660828 56.0
301.797302 44.0
302.447693 76.0
302.849335 88.0
302.939392 52.0
304.031586 48.0
304.076691 96.0
304.160004 48.0
305.09137 464.0
305.563965 116.0
305.884125 72.0
306.074615 280.0
306.145233 36.0
307.075745 140.0
308.088013 52.0
312.002563 112.0
312.557312 128.0
313.199005 144.0
314.789581 96.0
314.941437 40.0
316.405426 56.0
317.011108 76.0
317.160736 204.0
320.133667 40.0
320.233398 64.0
321.577545 96.0
321.616791 132.0
322.895905 140.0
323.328796 120.0
323.915985 72.0
325.429382 60.0
328.939453 92.0
329.177734 176.0
330.171539 132.0
333.972473 96.0
336.917847 92.0
343.289734 88.0
344.422791 40.0
345.153778 100.0
346.435089 64.0
348.698517 136.0
349.833008 64.0
350.283569 76.0
351.178162 100.0
353.943604 32.0
354.239471 108.0
354.535461 76.0
355.65686 164.0
356.71991 68.0
357.177582 1708.0
358.194916 704.0
359.152405 48.0
359.937378 48.0
360.401978 112.0
361.793793 88.0
361.835419 72.0
365.920563 164.0
367.143707 44.0
367.822845 104.0
369.630554 104.0
370.03244 156.0
372.940216 60.0
373.163177 132.0
374.155762 72.0
374.968536 56.0
375.161255 116.0
376.724152 64.0
378.968048 172.0
380.468994 68.0
381.716187 84.0
386.952454 84.0
387.55954 52.0
389.234436 144.0
389.489716 44.0
389.980865 88.0
391.175568 164.0
392.173492 128.0
393.151276 128.0
393.198608 156.0
393.317017 56.0
398.258545 128.0
398.49292 40.0
405.444092 64.0
407.410217 172.0
409.758667 80.0
410.251343 92.0
411.013611 104.0
417.83667 76.0
422.135742 84.0
422.303436 88.0
423.486267 64.0
424.002502 116.0
425.700897 72.0
429.149078 76.0
429.351135 100.0
429.743011 76.0
429.912903 96.0
430.320831 88.0
432.350403 68.0
444.745697 88.0
446.737457 60.0
450.69632 48.0
451.414886 112.0
454.129547 88.0
456.354004 68.0
457.256592 56.0
458.040009 52.0
459.719849 124.0
461.188995 92.0
461.578033 88.0
462.236786 100.0
463.971436 72.0
465.400116 76.0
468.815552 144.0
468.944855 64.0
479.197784 64.0
480.326874 100.0
481.763062 64.0
487.625854 56.0
488.456879 72.0
491.029144 80.0
505.494171 116.0
505.982056 96.0
513.066895 104.0
518.078674 52.0
520.387085 64.0
520.441589 48.0
523.861633 88.0
524.836914 56.0
526.073303 104.0
528.083862 112.0
530.895813 76.0
532.616943 48.0
544.059937 96.0
551.078552 48.0
559.779602 92.0
560.156372 60.0
562.155457 52.0
562.636841 72.0
575.818604 44.0
579.846985 80.0
580.892273 72.0
585.973694 36.0
597.900269 72.0
602.58136 44.0
610.522156 84.0
613.747559 48.0
614.408447 96.0
614.660095 80.0
616.047424 100.0
632.181946 52.0
636.673706 96.0
643.123108 52.0
646.064026 60.0
648.768311 92.0
655.314209 104.0
658.170532 48.0
659.575439 96.0
661.396423 156.0
664.820007 120.0
669.09137 64.0
671.038818 44.0
671.631897 28.0
676.380493 56.0
676.525391 96.0
679.157104 92.0
682.257874 84.0
683.807922 108.0
685.088867 108.0
686.782959 76.0
691.202698 80.0
701.812988 40.0
702.525024 72.0
703.226807 72.0
704.293335 52.0
710.385986 120.0
717.68811 96.0
721.665894 152.0
722.890808 76.0
729.92865 32.0
740.76062 52.0
753.080872 120.0
764.357788 68.0
764.831055 116.0
771.710327 76.0
782.819031 60.0
798.618164 108.0
801.799194 84.0
813.893677 60.0
817.33252 204.0
818.544983 68.0
819.889343 88.0
828.202332 116.0
830.06488 44.0
832.900024 144.0
840.291626 132.0
846.574707 108.0
851.283447 52.0
854.625793 28.0
854.736328 44.0
855.621033 140.0
855.836487 64.0
862.960571 140.0
869.004944 196.0
869.750244 88.0
872.546448 128.0
873.499084 32.0
875.941956 44.0
876.165833 112.0
877.586182 96.0
885.990417 72.0
889.305176 48.0
900.09845 104.0
902.24939 76.0
903.200195 64.0
918.493225 220.0
933.641052 60.0
933.683594 88.0
969.110291 60.0
974.961853 168.0
982.040588 68.0
982.670654 80.0
984.845581 188.0
985.792664 88.0
989.802368 160.0
1007.311646 92.0
1013.948914 64.0
1014.988586 156.0
1016.568054 200.0
1019.368469 76.0
1020.455383 84.0
1031.957275 100.0
1032.51355 44.0
1036.392822 64.0
1038.476318 128.0
1045.473267 176.0
1046.315918 116.0
1052.763794 104.0
1053.480713 144.0
1053.525879 164.0
1057.612671 76.0
1057.962158 160.0
1061.642456 44.0
1062.128906 52.0
1064.880859 88.0
1066.433716 88.0
1072.258789 108.0
1075.872437 56.0
1081.56604 144.0
1081.644531 160.0
1082.233765 184.0
1083.864746 152.0
1090.801758 216.0
1099.258301 60.0
1101.694702 172.0
1104.411499 176.0
1108.635376 64.0
1113.206055 92.0
1119.177246 140.0
1121.901489 196.0
1123.135864 296.0
1127.649414 148.0
1134.403076 180.0
1134.912598 208.0
1138.140015 88.0
1142.21936 168.0
1144.110352 168.0
1144.992432 208.0
1152.453125 240.0
1154.372803 140.0
1160.066895 152.0
1162.332031 104.0
1167.719238 176.0
1167.896118 152.0
1168.161377 124.0
1174.434814 64.0
1174.564453 196.0
1174.864624 184.0
1178.011597 116.0
1182.27124 156.0
1186.394653 200.0
1189.083496 152.0
1196.280029 144.0
1214.723755 164.0
1217.805542 144.0
1220.140381 152.0
1220.640991 176.0
1225.548218 132.0
1226.265991 128.0
1227.527832 192.0
1233.94458 160.0
1234.280151 88.0
1234.979492 104.0
1235.378296 200.0
1235.993896 120.0
1236.077881 44.0
1237.806885 212.0
1240.574341 32.0
1241.408691 184.0
1247.074219 148.0
1248.325684 168.0
1252.337158 64.0
1254.28186 164.0
1254.577881 172.0
1261.199219 188.0
1261.899048 184.0
1269.822998 120.0
1270.383301 160.0
1272.789307 168.0
1283.162964 56.0
1284.211304 152.0
1284.589355 188.0
1288.072754 140.0
1290.302368 164.0
1290.924438 200.0
1291.532349 172.0
1294.115845 180.0
1300.711182 132.0
1300.876343 176.0
1301.378906 188.0
1302.31958 204.0
1303.354126 140.0
1304.051147 148.0
1304.726929 48.0
1306.395264 236.0
1307.632935 264.0
1307.89917 80.0
1310.297241 84.0
1310.52771 60.0
1311.954712 152.0
1313.85144 216.0
1314.601807 72.0
1317.330933 124.0
1318.313599 164.0
1319.889404 144.0
1322.356323 100.0
1326.811157 80.0
1327.33313 60.0
1328.725708 116.0
1333.141235 196.0
1334.11438 164.0
1335.205078 156.0
1337.162109 232.0
1339.404663 208.0
1339.630493 180.0
1341.853271 168.0
1342.400146 76.0
1346.391846 120.0
1346.771729 176.0
1347.706787 172.0
1349.300049 196.0
1349.694824 44.0
1354.261475 164.0
1356.870117 160.0
1360.751221 80.0
1363.932129 164.0
1364.873169 180.0
1365.968994 144.0
1366.336792 224.0
1368.161865 172.0
1369.892456 116.0
1372.848022 140.0
1375.31958 168.0
1377.978027 184.0
1378.502686 68.0
1382.214722 248.0
1382.303467 144.0
1383.620972 80.0
1386.91748 160.0
1388.400269 32.0
1388.971313 36.0
1390.700195 204.0
1392.140503 164.0
1392.964844 156.0
1396.175781 176.0
1396.30957 192.0
1397.313843 148.0
1397.529541 176.0
1400.000854 20.0
1400.581787 204.0
1402.355103 84.0
1402.601074 204.0
1405.487305 220.0
1406.67395 164.0
1407.950684 40.0
1410.76001 28.0
1411.597412 132.0
1413.168213 44.0
1415.204102 264.0
1416.55957 116.0
1421.575439 80.0
1422.063232 192.0
1424.233154 188.0
1425.46521 168.0
1427.080688 232.0
1429.142212 76.0
1430.948486 88.0
1436.661133 184.0
1440.201294 140.0
1441.697266 144.0
1441.916382 144.0
1442.604248 88.0
1443.186401 52.0
1446.098877 144.0
1446.212402 156.0
1448.218872 156.0
1451.37146 184.0
1451.507935 184.0
1453.199341 188.0
1453.760864 120.0
1454.049194 172.0
1454.193481 176.0
1454.785522 96.0
1456.547241 192.0
1456.661133 172.0
1456.964966 184.0
1457.238525 196.0
1460.811646 136.0
1461.161621 44.0
1461.359375 144.0
1462.546509 156.0
1462.835815 160.0
1465.166138 136.0
1465.463257 192.0
1465.646118 140.0
1466.042358 128.0
1468.222656 176.0
1468.733643 84.0
1468.977783 168.0
1471.320557 260.0
1471.396851 152.0
1472.114624 156.0
1472.939453 176.0
1473.076904 136.0
1474.589844 204.0
1474.788574 148.0
1476.814697 248.0
1478.153564 176.0
1478.582153 176.0
1479.53125 112.0
1480.557251 64.0
1480.978516 224.0
1482.188965 160.0
1482.564453 164.0
1483.323242 92.0
1486.797607 144.0
1487.473022 140.0
1487.572876 228.0
1487.665039 160.0
1487.972046 200.0
1488.409668 72.0
1488.501831 240.0
1490.068726 252.0
1490.314575 104.0
1490.452881 216.0
1490.944702 64.0
1491.959351 152.0
1494.058838 132.0
1494.774292 104.0
1497.753784 224.0
1497.938599 140.0
1499.263794 72.0
1500.219604 96.0
1500.327515 68.0
1500.48938 136.0
1500.736206 164.0
1501.059937 200.0
1501.507324 204.0
1502.363403 128.0
1503.050171 48.0
1503.296997 176.0
1503.729248 84.0
