>compound MLS000697640-01!
>formula C19H18O7
>ionization [M+H]+
>parentmass 359.113464
#inchi InChI=1S/C19H18O7/c1-22-10-24-13-5-3-12(4-6-13)17-9-16(21)19-15(20)7-14(25-11-23-2)8-18(19)26-17/h3-9,20H,10-11H2,1-2H3
#inchikey OZHSNSQCAVMKSS
#Ion_Source LC-ESI
#Instrument qTof
#Compound_Source NIH Natural Product Library
#PI Dorrestein
#Data_Collector VVP/LMS
#Scan -1
#Precursor_MZ 359.113
#ExactMass 358.105
#Charge 1
#CAS_Number N/A
#Pubmed_ID N/A
#Smiles COCOc1ccc(cc1)c2cc(=O)c3c(O)cc(OCOC)cc3o2
#INCHI_AUX N/A
#Library_Class 1
#SpectrumID CCMSLIB00000080395
#IonMode Positive
#UpdateWorkflowName UPDATE-SINGLE-ANNOTATED-GOLD
#LibraryQualityString Gold
#TaskID b1d8e8f6646f4e71acdff9ca3d919d08
##Scan# 2511
#SpectrumFile p2-C08_GC8_01_18008.mzXML
#LibraryName NIH_Natural_Products_Library.mgf
#MQScore -1
#Organism NIH_Natural_Products_Library
#TIC_Query 0
#RT_Query -1
#MZErrorPPM -1
#SharedPeaks 0
#MassDiff 0
#LibMZ -1
#SpecMZ 359.113
#SpecCharge 0
#internalFilename spec-00000.mgf

>collision 10
95.21991 76.0
95.373405 60.0
95.457001 160.0
95.499786 116.0
95.774223 132.0
95.817078 108.0
95.947655 200.0
95.963249 176.0
96.224686 76.0
96.296761 216.0
96.525589 144.0
96.662514 144.0
96.74276 144.0
96.789749 212.0
96.85437 208.0
97.913002 136.0
97.972099 124.0
98.065887 160.0
98.094276 232.0
98.157364 88.0
98.182999 128.0
98.325043 136.0
98.354645 152.0
99.205231 192.0
99.546486 124.0
99.588196 36.0
99.691505 116.0
99.852531 124.0
100.061462 120.0
100.190918 128.0
100.292542 124.0
100.366302 148.0
100.637665 184.0
101.089401 120.0
101.2836 160.0
101.70668 124.0
101.823128 116.0
101.969795 216.0
102.08036 128.0
102.372147 164.0
102.398323 132.0
102.567574 92.0
102.967064 124.0
103.334953 100.0
103.419952 164.0
103.466507 188.0
103.547607 76.0
103.701477 144.0
103.721748 112.0
103.817039 152.0
104.162071 136.0
104.269753 176.0
104.629791 160.0
104.886459 232.0
105.035309 104.0
105.282265 172.0
105.435486 116.0
105.527473 160.0
105.789337 36.0
105.987999 100.0
106.361732 168.0
106.517296 152.0
106.620026 108.0
106.938805 144.0
107.012917 152.0
107.311661 168.0
107.381775 92.0
107.444748 148.0
107.472542 136.0
107.951759 196.0
108.02037 208.0
108.146233 112.0
108.937973 144.0
108.953384 160.0
109.058838 144.0
109.179428 144.0
109.264709 108.0
109.733307 208.0
109.754158 148.0
109.85009 164.0
109.950241 148.0
110.0233 132.0
110.048347 196.0
110.14859 172.0
110.286499 140.0
110.529091 228.0
110.838989 192.0
110.862038 164.0
110.899757 112.0
110.933296 208.0
110.994095 164.0
111.101059 224.0
111.140923 128.0
111.201782 232.0
111.415962 80.0
111.853363 80.0
111.889145 140.0
112.114525 180.0
112.238892 156.0
112.327469 48.0
112.358719 236.0
112.447739 124.0
112.546959 164.0
112.610672 208.0
112.648331 140.0
112.715935 156.0
113.030998 92.0
113.109306 132.0
113.541527 128.0
113.575462 172.0
113.630615 160.0
113.70488 216.0
113.813148 168.0
113.881104 36.0
114.121231 156.0
114.344589 152.0
114.412704 204.0
114.634216 140.0
114.649132 124.0
114.759972 120.0
114.77916 144.0
114.870872 140.0
114.899826 244.0
114.926338 164.0
115.144073 112.0
115.338501 184.0
115.419739 116.0
115.670052 244.0
116.289497 168.0
116.461067 132.0
116.566528 100.0
116.803017 32.0
117.108658 180.0
117.201294 112.0
117.250854 92.0
117.371574 180.0
117.656372 152.0
117.680115 104.0
117.834099 136.0
117.883156 96.0
117.971771 120.0
118.170738 156.0
118.231323 144.0
118.367699 112.0
118.447838 180.0
118.857323 168.0
118.940048 224.0
119.051056 612.0
119.163727 160.0
119.2789 156.0
119.437637 192.0
119.459389 56.0
119.842552 168.0
119.936256 148.0
120.052696 88.0
120.274345 136.0
120.5233 96.0
120.575752 212.0
120.873154 96.0
121.027481 272.0
121.118355 136.0
121.262962 112.0
121.526497 180.0
121.567795 148.0
122.033463 140.0
122.086235 108.0
122.242424 160.0
122.566116 132.0
122.733635 176.0
122.751274 264.0
122.874786 156.0
123.011612 304.0
123.038101 200.0
123.062386 228.0
123.20594 108.0
123.398216 112.0
123.426956 88.0
123.659241 152.0
123.75 132.0
123.891739 168.0
123.931618 172.0
124.012413 256.0
124.390686 48.0
124.472832 140.0
124.555 160.0
124.721649 128.0
124.801682 192.0
124.859497 224.0
125.017166 188.0
125.30468 212.0
125.335876 204.0
125.407188 224.0
125.445084 152.0
125.717186 136.0
125.853348 152.0
126.094604 144.0
126.228737 136.0
126.324905 116.0
126.526314 140.0
126.676353 208.0
126.792862 108.0
127.055206 160.0
127.587456 256.0
127.663902 168.0
127.888878 64.0
128.136581 176.0
128.355209 140.0
128.371002 148.0
128.458954 168.0
128.53566 92.0
128.60788 152.0
128.646255 132.0
128.684631 224.0
128.774963 144.0
128.980576 104.0
129.008759 136.0
129.01503 180.0
129.104919 120.0
129.154678 104.0
129.238373 232.0
129.308533 156.0
129.544006 128.0
129.685669 208.0
129.79332 128.0
129.911255 252.0
130.006546 112.0
130.040588 60.0
130.117767 96.0
130.428986 196.0
130.551758 144.0
130.701889 172.0
131.052567 208.0
131.182434 120.0
131.280472 264.0
131.342056 204.0
131.515457 128.0
131.549698 176.0
131.675278 152.0
131.802902 152.0
131.821487 88.0
131.846619 60.0
131.972351 260.0
132.640823 84.0
132.711899 124.0
133.065598 412.0
133.147888 204.0
133.379944 104.0
133.409821 120.0
133.430511 160.0
133.460403 128.0
133.789398 148.0
134.107285 128.0
134.277893 36.0
134.307877 140.0
134.386307 164.0
134.414001 36.0
134.446304 296.0
134.492462 48.0
134.815796 192.0
134.901321 224.0
135.042313 568.0
135.118698 244.0
135.29921 216.0
135.361725 128.0
135.577164 156.0
135.688416 96.0
135.747345 116.0
135.868088 200.0
136.050323 184.0
136.545258 200.0
136.816681 260.0
136.95488 44.0
136.987488 136.0
137.022934 1492.0
137.057388 196.0
137.087677 196.0
137.108658 176.0
137.320801 40.0
137.425781 148.0
137.505112 40.0
137.586823 56.0
137.752625 144.0
138.027039 384.0
138.318497 56.0
138.576096 224.0
138.644058 160.0
138.714371 228.0
138.777664 128.0
138.852707 92.0
138.932449 164.0
138.960602 160.0
139.054474 144.0
139.366791 168.0
139.456085 136.0
139.851227 116.0
139.933624 132.0
140.265778 52.0
140.351791 116.0
140.515747 160.0
140.924438 196.0
140.988007 132.0
141.063629 56.0
141.080185 140.0
141.420807 120.0
141.506027 204.0
141.584167 136.0
141.795013 116.0
141.81398 236.0
142.077179 200.0
142.112762 60.0
142.155472 196.0
142.243286 148.0
142.399994 176.0
142.452255 48.0
142.511642 244.0
142.592438 124.0
142.76123 168.0
142.789764 124.0
143.027695 124.0
143.084824 168.0
143.177689 160.0
143.251785 184.0
143.256851 152.0
143.266388 200.0
143.30394 104.0
143.36113 208.0
143.66394 104.0
143.878708 36.0
143.897812 172.0
144.026764 184.0
144.053223 160.0
144.098434 204.0
144.115158 160.0
144.313538 152.0
144.356567 124.0
144.595795 204.0
144.701126 208.0
144.823257 176.0
144.863968 144.0
144.962204 144.0
144.987534 252.0
145.009216 176.0
145.029297 748.0
145.403458 132.0
145.429855 80.0
145.600327 180.0
145.811737 148.0
145.943954 160.0
146.011276 160.0
146.031891 184.0
146.61795 180.0
146.666153 60.0
146.687851 164.0
146.826584 252.0
146.859055 124.0
146.93866 144.0
147.242798 104.0
147.310425 240.0
147.349075 132.0
147.402237 104.0
147.806046 120.0
148.304916 80.0
148.382492 192.0
148.428558 212.0
148.588638 164.0
148.671143 140.0
148.887192 48.0
148.959579 200.0
149.424393 136.0
150.218567 140.0
150.567596 120.0
150.892578 148.0
151.044647 108.0
151.139603 64.0
151.246292 212.0
151.306046 92.0
151.330521 208.0
151.381943 80.0
151.426025 172.0
151.511749 128.0
151.90889 196.0
152.002121 112.0
152.056107 108.0
152.134659 124.0
152.176392 132.0
152.259872 160.0
152.539978 116.0
152.692413 204.0
152.867081 212.0
152.938446 96.0
153.017868 2376.0
153.066467 148.0
153.120651 136.0
153.229034 44.0
153.317734 72.0
153.357162 36.0
153.727097 56.0
153.796204 152.0
154.026733 220.0
154.203735 96.0
154.32486 220.0
154.57962 132.0
154.614273 172.0
154.742981 116.0
154.837082 172.0
154.87175 80.0
155.022888 160.0
155.181519 152.0
155.216232 120.0
155.335266 124.0
155.422104 40.0
155.670334 72.0
155.834259 192.0
155.859116 136.0
156.06044 152.0
156.271851 112.0
156.306686 140.0
156.353958 152.0
156.994827 192.0
157.023376 184.0
157.061508 156.0
157.296097 64.0
157.32106 172.0
157.420929 188.0
157.458389 184.0
157.610779 120.0
157.875748 48.0
158.065857 304.0
158.376282 84.0
158.546661 148.0
158.581741 160.0
158.636887 172.0
159.045471 184.0
159.10907 108.0
159.24411 56.0
159.349609 276.0
159.495361 200.0
159.803284 128.0
159.857513 164.0
159.938049 164.0
160.053864 220.0
160.089111 168.0
160.126892 236.0
160.232681 132.0
160.290634 160.0
160.42926 88.0
160.626495 92.0
160.646118 224.0
160.746048 152.0
160.774796 116.0
161.070206 144.0
161.161148 96.0
161.421494 260.0
161.755447 232.0
161.851654 108.0
161.894699 132.0
161.914963 184.0
161.95549 128.0
162.016281 104.0
162.036545 208.0
162.224075 140.0
162.411728 180.0
162.452316 164.0
162.503052 80.0
162.594391 132.0
162.642624 252.0
162.934647 196.0
163.039505 240.0
163.482361 176.0
163.608582 172.0
163.715515 148.0
163.77919 184.0
163.954987 208.0
164.18187 208.0
164.232498 188.0
164.467621 212.0
164.840485 184.0
165.019913 816.0
165.053024 200.0
165.137039 112.0
165.356934 160.0
165.395462 184.0
165.607971 192.0
165.823196 128.0
166.064194 144.0
166.128326 120.0
166.166794 168.0
166.451706 172.0
166.654617 260.0
166.749695 72.0
166.834518 116.0
166.978516 88.0
167.032883 2384.0
167.153442 104.0
167.351639 192.0
167.529343 116.0
167.629822 152.0
167.794785 48.0
167.851501 48.0
168.035767 128.0
168.053574 212.0
168.127518 124.0
168.145584 144.0
168.214264 160.0
168.258377 196.0
168.401184 148.0
168.504517 148.0
168.57428 52.0
168.600113 192.0
168.669907 196.0
168.726776 148.0
168.850891 208.0
169.026794 136.0
169.066589 372.0
169.270111 176.0
169.451584 188.0
169.536926 144.0
169.666534 196.0
169.731354 144.0
170.021881 96.0
170.070129 456.0
170.128296 144.0
170.645294 116.0
170.702499 108.0
170.725906 176.0
171.027557 260.0
171.071945 252.0
171.113602 212.0
171.279358 204.0
171.439194 128.0
171.624268 124.0
171.919022 156.0
172.020813 84.0
172.057358 152.0
172.114807 204.0
172.153961 116.0
172.245377 156.0
172.386459 176.0
172.553741 92.0
173.100586 164.0
173.152969 136.0
173.391373 112.0
173.435928 84.0
173.496216 156.0
173.538162 132.0
173.72699 108.0
173.858185 80.0
173.934296 124.0
174.068192 172.0
174.262558 120.0
174.396576 164.0
174.478058 148.0
174.562195 144.0
174.591125 148.0
174.670029 52.0
174.985428 160.0
175.050323 144.0
175.075348 192.0
175.238663 96.0
175.351974 172.0
175.39151 80.0
175.586609 168.0
175.913788 208.0
176.166382 196.0
176.323181 148.0
176.627243 200.0
176.690735 112.0
176.844208 156.0
177.016281 176.0
177.238785 176.0
177.275894 156.0
177.445526 144.0
177.60994 136.0
177.840775 112.0
178.108948 152.0
178.2099 196.0
178.273666 132.0
178.316193 196.0
178.438461 188.0
178.518234 188.0
178.584717 248.0
178.612762 132.0
178.66452 104.0
178.688461 92.0
178.7603 136.0
179.008652 68.0
179.049805 160.0
179.19165 120.0
179.471558 184.0
179.524841 212.0
179.628845 196.0
179.676514 152.0
179.764923 64.0
179.802277 84.0
179.938416 40.0
179.991806 84.0
180.02652 104.0
180.0746 160.0
180.333755 132.0
180.544968 124.0
180.630554 132.0
180.689407 140.0
180.7108 156.0
180.766663 140.0
180.820511 80.0
181.042725 132.0
181.080612 160.0
181.425873 184.0
182.276672 148.0
182.400299 200.0
182.620789 168.0
182.825256 160.0
182.852158 180.0
183.030182 188.0
183.137558 140.0
183.679321 164.0
183.849304 96.0
183.965363 160.0
184.067963 196.0
184.162476 116.0
184.262421 188.0
184.5354 136.0
184.830215 164.0
185.061508 212.0
185.083649 132.0
185.146576 152.0
185.301331 148.0
185.325714 216.0
185.501862 240.0
185.621155 188.0
185.6754 172.0
186.296967 100.0
186.44368 104.0
186.778091 120.0
186.88147 144.0
186.963104 204.0
187.039215 452.0
187.088318 148.0
187.140045 72.0
187.23262 144.0
187.352463 180.0
187.445099 176.0
187.534897 156.0
187.785873 168.0
187.875885 148.0
187.894989 180.0
187.974106 68.0
188.18428 148.0
188.747131 172.0
188.766281 160.0
188.963211 196.0
189.001511 56.0
189.053497 176.0
189.149292 108.0
189.294403 200.0
189.694397 184.0
189.716339 200.0
190.32814 220.0
190.77597 108.0
191.03447 148.0
191.161026 248.0
191.488632 308.0
191.62912 188.0
191.750366 152.0
191.797211 176.0
192.020538 184.0
192.210892 32.0
192.293671 148.0
192.324036 196.0
192.462067 132.0
192.503494 68.0
192.591858 396.0
192.61673 44.0
192.835007 192.0
192.987045 136.0
193.105942 136.0
193.289352 236.0
193.415833 56.0
193.606873 260.0
193.773071 92.0
193.860809 240.0
193.969818 128.0
194.438553 184.0
194.466309 192.0
194.571793 68.0
194.743958 72.0
195.027359 104.0
195.077393 188.0
195.277588 280.0
195.349503 192.0
195.68985 160.0
195.901093 76.0
196.048752 248.0
196.087769 188.0
196.305222 124.0
196.36937 184.0
196.522781 136.0
196.598129 56.0
196.868912 144.0
196.916382 144.0
197.060471 292.0
197.092377 188.0
197.475357 80.0
197.590057 140.0
197.701965 172.0
197.853119 48.0
197.934311 176.0
198.06691 220.0
198.242447 100.0
198.452667 180.0
198.525574 184.0
198.564835 84.0
198.640564 108.0
198.980133 148.0
199.036285 112.0
199.077545 320.0
199.207596 64.0
199.289078 144.0
199.402405 180.0
199.533585 136.0
199.61232 148.0
199.682617 120.0
200.020248 148.0
200.076553 44.0
200.132858 56.0
200.194809 168.0
200.268036 124.0
200.333572 244.0
200.454468 180.0
200.594894 96.0
200.811996 176.0
200.876877 176.0
201.009476 132.0
201.052032 144.0
201.167526 196.0
201.212692 188.0
201.489456 240.0
201.675964 100.0
201.772079 112.0
201.820145 184.0
201.882339 184.0
202.05127 172.0
202.101898 192.0
202.136932 172.0
202.197083 188.0
202.292603 84.0
202.425659 120.0
202.564438 128.0
202.601273 96.0
202.7061 188.0
203.06897 116.0
203.179596 48.0
203.358368 124.0
203.440674 224.0
203.613876 200.0
203.804199 104.0
203.883774 132.0
204.213562 220.0
204.461075 132.0
204.523697 156.0
204.663193 160.0
204.919525 156.0
205.19313 84.0
205.301483 172.0
205.355667 124.0
205.578186 44.0
205.60672 64.0
205.715973 208.0
205.778 112.0
205.840805 160.0
206.060745 48.0
206.100067 168.0
206.121567 180.0
206.257919 168.0
206.337967 136.0
206.81282 156.0
206.950226 172.0
206.987442 44.0
207.207993 116.0
207.420044 116.0
207.580597 180.0
208.097076 72.0
208.375153 200.0
208.467606 144.0
208.720566 104.0
208.870117 176.0
208.95929 40.0
209.034103 152.0
209.066406 124.0
209.157852 200.0
209.209671 140.0
209.296036 84.0
209.497635 208.0
209.788696 44.0
209.878067 48.0
209.955933 60.0
209.993423 108.0
210.061722 276.0
210.117462 84.0
210.472458 124.0
210.589478 92.0
210.613968 188.0
210.729523 88.0
210.905792 180.0
211.08136 380.0
211.128418 196.0
211.203613 172.0
211.258575 48.0
211.304855 132.0
211.371399 76.0
211.684021 120.0
211.756424 136.0
212.115707 212.0
212.191086 40.0
212.315125 180.0
212.324097 156.0
212.420181 120.0
212.687134 116.0
212.713257 104.0
212.814865 92.0
213.003632 68.0
213.056229 728.0
213.099503 144.0
213.398865 92.0
213.50354 172.0
213.605331 112.0
213.67807 104.0
213.902145 76.0
214.004028 204.0
214.05304 468.0
214.132156 240.0
214.193329 76.0
214.379791 120.0
214.522598 148.0
214.755875 40.0
214.887146 156.0
215.012619 168.0
215.070053 276.0
215.074707 188.0
215.415543 136.0
215.438904 180.0
215.605453 184.0
215.690216 152.0
215.810074 124.0
216.011856 152.0
216.032333 52.0
216.169846 104.0
216.225449 192.0
216.251801 140.0
216.398163 68.0
216.458115 96.0
216.729507 184.0
216.957733 32.0
217.054474 176.0
217.239243 184.0
217.303787 128.0
217.81459 184.0
217.963715 264.0
218.128998 120.0
218.158401 140.0
218.337753 160.0
218.56131 184.0
218.73201 136.0
218.944 148.0
219.117783 72.0
219.150192 132.0
219.324066 116.0
219.480301 108.0
219.607117 168.0
219.719208 176.0
219.754608 160.0
219.911011 136.0
220.099945 160.0
220.330307 184.0
220.492828 84.0
220.599228 160.0
220.74115 148.0
221.068359 172.0
221.184158 140.0
221.300385 96.0
221.4366 156.0
221.552109 168.0
221.809921 104.0
222.076782 172.0
222.123093 124.0
222.578308 116.0
222.706009 188.0
222.785019 180.0
222.896133 64.0
223.142838 104.0
223.577103 164.0
223.657471 124.0
223.898636 160.0
224.020752 204.0
224.052078 136.0
224.250183 140.0
224.288925 168.0
224.503586 152.0
224.825775 156.0
224.882477 164.0
225.052917 296.0
225.148193 156.0
225.331818 216.0
225.584412 148.0
225.712967 140.0
225.739883 28.0
225.829605 132.0
226.062546 492.0
226.19165 128.0
226.284454 156.0
226.404221 76.0
226.447815 208.0
226.613892 92.0
226.670822 156.0
226.734665 172.0
226.851074 144.0
227.03363 144.0
227.069122 176.0
227.234512 192.0
227.572266 120.0
227.696777 204.0
227.889023 104.0
227.922073 156.0
227.946579 132.0
227.966705 136.0
228.047516 232.0
228.4422 128.0
228.496338 228.0
228.544479 104.0
228.779236 96.0
229.008072 132.0
229.051453 424.0
229.102753 140.0
229.131577 156.0
229.598785 164.0
229.9729 148.0
230.042313 140.0
230.111755 152.0
230.247635 148.0
230.27179 136.0
230.429153 220.0
230.537643 248.0
230.734116 112.0
231.020035 168.0
231.063766 128.0
231.18782 244.0
231.357315 168.0
231.381531 164.0
231.434814 220.0
231.687408 184.0
231.81163 128.0
232.038956 148.0
232.524292 216.0
232.897736 148.0
233.046585 100.0
233.098251 140.0
233.289719 164.0
233.405243 148.0
233.539062 220.0
233.607178 224.0
233.703323 212.0
234.056412 124.0
234.083817 88.0
234.141663 128.0
234.424988 220.0
234.713837 84.0
234.772507 96.0
234.934158 164.0
235.819672 224.0
236.425217 108.0
236.569061 116.0
236.719086 212.0
236.99678 176.0
237.086685 100.0
237.525116 100.0
237.693863 224.0
237.871857 128.0
238.08371 156.0
238.341751 156.0
238.524811 212.0
238.7229 192.0
238.965897 128.0
239.056686 168.0
239.144379 164.0
239.421463 96.0
239.563141 148.0
239.803482 68.0
239.855881 160.0
239.957611 56.0
240.000778 108.0
240.037781 156.0
240.080948 172.0
240.167313 180.0
240.235168 180.0
240.577713 160.0
240.602402 244.0
240.69812 120.0
240.808258 156.0
240.920486 148.0
240.973007 192.0
241.047974 1456.0
241.097183 216.0
241.167969 180.0
241.269699 220.0
241.309891 244.0
241.346161 120.0
241.354233 116.0
241.366394 160.0
241.449036 76.0
241.49852 132.0
241.535629 176.0
241.619156 64.0
241.676926 184.0
241.745438 108.0
241.970245 208.0
242.059464 6652.0
242.12471 196.0
242.161896 108.0
242.272369 60.0
242.303345 52.0
242.435776 180.0
242.526459 112.0
242.650452 140.0
242.67836 148.0
242.751724 108.0
242.935776 180.0
243.064835 1352.0
243.156067 116.0
243.216568 284.0
243.311264 124.0
243.360535 212.0
243.410629 128.0
243.640457 64.0
243.79892 108.0
243.915573 180.0
243.960541 68.0
244.010284 148.0
244.053726 140.0
244.442627 120.0
244.59201 88.0
244.717422 120.0
244.875351 40.0
244.900269 168.0
245.107407 220.0
245.146378 148.0
245.277283 76.0
245.32988 96.0
245.473694 120.0
245.501755 60.0
245.883453 168.0
246.306976 108.0
246.381943 220.0
246.460052 192.0
246.650696 184.0
246.700699 36.0
246.932083 124.0
247.069717 124.0
247.345093 116.0
247.467178 180.0
247.495361 100.0
247.752182 88.0
247.984055 164.0
248.143921 212.0
248.165863 216.0
248.664642 60.0
248.711716 80.0
248.944046 148.0
249.019409 172.0
249.151337 40.0
249.188522 192.0
249.26268 128.0
249.387009 120.0
249.492203 300.0
249.581924 140.0
249.659454 164.0
249.720291 124.0
249.931046 224.0
250.060074 232.0
250.091553 172.0
250.176544 116.0
250.333969 128.0
250.400101 124.0
250.526093 120.0
250.699371 140.0
251.162827 248.0
251.361588 84.0
251.405762 136.0
251.472046 128.0
251.53833 156.0
251.705643 188.0
251.727753 52.0
252.053101 176.0
252.125793 152.0
252.211121 160.0
252.312271 148.0
252.397644 240.0
252.62851 200.0
252.653824 128.0
252.745575 100.0
252.87532 196.0
252.963943 192.0
253.00827 136.0
253.0504 600.0
253.255264 100.0
253.309097 72.0
253.413651 220.0
253.822525 176.0
254.058136 524.0
254.104813 60.0
254.133362 136.0
254.17778 36.0
254.384079 84.0
254.418991 100.0
254.453918 140.0
254.511063 184.0
254.634918 88.0
254.768326 108.0
254.997009 152.0
255.065491 2804.0
255.111526 136.0
255.290405 76.0
255.356354 164.0
255.42952 176.0
255.478012 180.0
255.5345 44.0
255.566315 120.0
255.636322 116.0
255.749344 116.0
255.789078 112.0
255.948257 116.0
256.038483 224.0
256.072845 3576.0
256.21579 60.0
256.260406 52.0
256.416534 236.0
256.438843 44.0
256.464355 52.0
256.693878 120.0
256.789551 176.0
257.051147 108.0
257.07785 736.0
257.293732 216.0
257.558777 100.0
257.702515 136.0
257.846313 180.0
257.871887 112.0
257.974182 156.0
258.082855 212.0
258.210785 108.0
258.258759 148.0
258.655518 156.0
258.914856 108.0
259.007721 64.0
259.057709 332.0
259.135864 40.0
259.22879 144.0
259.350586 176.0
259.520477 212.0
259.61026 172.0
259.940674 192.0
260.062622 216.0
260.126801 224.0
260.258453 152.0
260.383667 56.0
260.431854 152.0
260.698517 204.0
260.791718 208.0
260.987793 132.0
261.013519 140.0
261.081055 92.0
261.290131 152.0
261.325531 128.0
261.373779 140.0
261.550781 120.0
261.779358 76.0
261.830902 148.0
261.943634 112.0
261.991943 140.0
262.014496 60.0
262.040283 188.0
262.375427 132.0
262.701141 172.0
262.846344 176.0
263.207855 216.0
263.307953 104.0
263.673035 120.0
263.700928 196.0
263.8508 108.0
263.886383 224.0
263.973663 88.0
264.037598 176.0
264.070679 124.0
264.125671 176.0
264.452454 84.0
264.562531 140.0
264.666138 160.0
264.730896 192.0
264.837769 156.0
264.873383 108.0
265.045105 96.0
265.479462 140.0
265.764893 108.0
265.865509 112.0
265.900208 132.0
266.044006 164.0
266.196625 116.0
266.307037 204.0
266.371979 156.0
266.579926 120.0
266.69693 64.0
266.729431 164.0
266.9245 180.0
267.005798 156.0
267.0383 136.0
267.064209 516.0
267.116364 136.0
267.24649 136.0
267.350616 108.0
267.40271 172.0
267.435242 128.0
267.461273 136.0
267.545929 156.0
267.588226 124.0
267.682678 180.0
267.725006 56.0
267.747803 108.0
267.7771 232.0
267.992096 52.0
268.073547 112.0
268.09964 84.0
268.194153 156.0
268.250916 116.0
268.288666 228.0
268.653931 60.0
268.742004 68.0
268.784424 172.0
268.839905 76.0
268.872528 116.0
268.905151 76.0
268.980225 36.0
269.041016 640.0
269.07901 540.0
269.140198 52.0
269.20224 168.0
269.234894 100.0
269.32962 132.0
269.462311 160.0
269.53009 352.0
269.626923 100.0
269.692291 164.0
269.72171 72.0
269.751556 60.0
269.859009 200.0
269.90918 64.0
269.988708 120.0
270.053772 6652.0
270.151794 288.0
270.230347 204.0
270.269714 168.0
270.316742 64.0
270.359467 76.0
270.38678 276.0
270.428925 244.0
270.466064 176.0
270.512451 208.0
270.542511 100.0
270.555511 220.0
270.614807 240.0
270.699615 176.0
270.744812 260.0
270.79007 212.0
270.841095 192.0
270.901245 120.0
270.954376 256.0
270.959839 264.0
271.062775 111868.0
271.147156 232.0
271.180939 184.0
271.220398 112.0
271.278778 216.0
271.330017 148.0
271.399353 204.0
271.424255 76.0
271.435516 208.0
271.465912 344.0
271.488129 76.0
271.514526 104.0
271.554718 108.0
271.560272 136.0
271.601562 400.0
271.636169 48.0
271.684875 224.0
271.72403 84.0
271.768036 92.0
271.816254 156.0
271.857788 56.0
271.912537 116.0
271.951019 160.0
271.976074 256.0
272.01767 148.0
272.065491 16664.0
272.15686 68.0
272.239075 232.0
272.266632 80.0
272.274384 124.0
272.31012 144.0
272.341949 192.0
272.380554 128.0
272.435547 84.0
272.538391 132.0
272.576111 100.0
272.6091 56.0
272.635376 76.0
272.678101 28.0
272.749084 80.0
272.779297 56.0
272.823425 76.0
272.857117 48.0
272.879791 196.0
272.950958 104.0
272.993683 72.0
273.068481 3176.0
273.12088 56.0
273.193848 80.0
273.233795 88.0
273.256836 28.0
273.299622 64.0
273.327911 100.0
273.381989 104.0
273.432343 132.0
273.490479 108.0
273.541321 72.0
273.57605 112.0
273.618866 100.0
273.65448 132.0
273.69516 248.0
273.756165 176.0
273.820831 152.0
273.848175 152.0
273.892181 96.0
273.958374 124.0
274.013245 184.0
274.060455 332.0
274.106323 172.0
274.166321 160.0
274.218781 108.0
274.275574 144.0
274.320557 52.0
274.379883 208.0
274.488678 76.0
274.632812 280.0
274.778931 108.0
274.897705 160.0
275.009247 136.0
275.057587 144.0
275.208008 84.0
275.269348 76.0
275.307068 48.0
275.591125 76.0
276.010895 72.0
276.199402 28.0
276.235779 96.0
276.619629 44.0
276.862122 168.0
277.096527 68.0
277.185974 132.0
277.31189 76.0
277.995087 72.0
278.097961 124.0
278.35025 76.0
278.436615 100.0
278.580292 76.0
278.958252 128.0
279.028076 84.0
279.513672 116.0
280.042969 48.0
280.449463 112.0
280.499451 64.0
280.839569 112.0
280.912933 52.0
281.256622 120.0
281.340088 132.0
281.413544 148.0
281.623901 56.0
281.937958 120.0
282.049622 868.0
282.282288 152.0
282.330811 164.0
282.489624 160.0
282.529785 48.0
282.570557 108.0
282.59668 140.0
282.924683 76.0
283.061249 11940.0
283.142303 28.0
283.205963 40.0
283.276306 64.0
283.311127 60.0
283.394653 156.0
283.423706 96.0
283.489441 52.0
283.625793 212.0
283.686981 188.0
283.752167 48.0
283.832184 88.0
283.996948 40.0
284.066711 3860.0
284.134491 40.0
284.194885 128.0
284.251923 116.0
284.282104 148.0
284.363708 124.0
284.391571 52.0
284.468964 264.0
284.506989 52.0
284.550629 92.0
284.584229 92.0
284.634583 132.0
284.661438 192.0
284.751495 212.0
284.78595 52.0
284.847717 216.0
284.894012 148.0
284.993591 216.0
285.078369 64544.0
285.171661 96.0
285.216797 176.0
285.27887 76.0
285.312775 216.0
285.334625 104.0
285.402618 112.0
285.43454 56.0
285.488373 52.0
285.573242 148.0
285.641876 236.0
285.664856 88.0
285.734039 60.0
285.783661 92.0
285.813873 52.0
285.841309 104.0
285.920654 76.0
285.988739 128.0
286.024323 204.0
286.080139 9004.0
286.121857 336.0
286.159576 36.0
286.299133 52.0
286.346802 128.0
286.383331 56.0
286.501221 44.0
286.57196 40.0
286.601593 96.0
286.656189 96.0
286.731384 64.0
286.848297 76.0
286.887329 132.0
286.942688 72.0
287.024567 84.0
287.082825 1912.0
287.168091 176.0
287.266449 48.0
287.296814 92.0
287.340668 96.0
287.3685 128.0
287.468872 84.0
287.502625 60.0
287.607239 68.0
287.663177 188.0
287.697266 84.0
287.742279 96.0
287.798645 84.0
287.843567 120.0
287.86673 168.0
287.921234 220.0
287.987122 116.0
288.02594 88.0
288.083832 168.0
288.098267 164.0
288.104645 236.0
288.128082 128.0
288.190002 84.0
288.281433 64.0
288.336761 120.0
288.41452 40.0
288.438171 84.0
288.674835 52.0
288.935272 76.0
288.981171 116.0
289.101074 196.0
289.165375 32.0
289.212738 72.0
289.304138 60.0
289.402313 92.0
289.486969 60.0
289.534393 96.0
289.575012 28.0
289.598724 208.0
289.625824 72.0
289.663086 48.0
290.239227 72.0
290.476624 156.0
290.595337 56.0
290.673401 48.0
290.832886 68.0
291.994873 232.0
293.64325 52.0
294.291595 88.0
294.366699 76.0
294.438416 92.0
294.540894 64.0
294.950928 36.0
295.058533 536.0
295.118439 112.0
295.330444 92.0
295.741028 128.0
296.059418 116.0
296.295776 108.0
296.323181 52.0
296.830444 64.0
297.077637 1668.0
297.221497 48.0
297.629944 68.0
297.69519 48.0
297.99057 152.0
298.076538 112.0
298.310181 152.0
298.40741 188.0
298.881073 160.0
299.03595 112.0
299.093079 2336.0
299.90387 180.0
299.945251 128.0
300.038879 100.0
300.095551 268.0
300.77652 200.0
301.004395 128.0
301.093567 176.0
301.098969 124.0
301.643524 40.0
301.847504 100.0
301.899384 44.0
302.203766 152.0
302.349091 120.0
302.383728 44.0
303.084686 276.0
304.078461 104.0
304.151367 40.0
304.304108 84.0
304.755615 128.0
304.929352 92.0
305.308289 152.0
305.541351 80.0
305.788391 76.0
305.812775 60.0
306.237518 108.0
306.491821 48.0
306.589417 124.0
306.69397 136.0
307.126312 100.0
308.191071 144.0
308.88327 116.0
310.66626 96.0
311.122467 52.0
312.074554 248.0
312.904877 104.0
313.137268 208.0
313.200684 88.0
313.225311 116.0
313.249969 132.0
313.313385 80.0
313.753906 40.0
313.827942 76.0
313.891418 84.0
314.071289 320.0
314.112885 200.0
314.191223 124.0
314.325287 156.0
314.392334 100.0
314.639862 160.0
314.808899 212.0
314.844208 256.0
314.875397 144.0
314.943085 160.0
314.966797 120.0
315.087952 37020.0
315.185974 92.0
315.214294 52.0
315.24881 164.0
315.294617 104.0
315.329742 56.0
315.378448 56.0
315.427094 136.0
315.547363 216.0
315.579193 116.0
315.642365 92.0
315.737793 136.0
315.791351 44.0
315.943451 72.0
315.985718 80.0
316.011169 88.0
316.042511 132.0
316.089935 5284.0
316.222992 76.0
316.266754 76.0
316.327606 136.0
316.414124 64.0
316.438934 84.0
316.467255 72.0
316.598267 72.0
316.739929 76.0
316.821411 56.0
316.856842 48.0
316.924469 44.0
317.019806 108.0
317.095215 888.0
317.228943 52.0
317.381378 108.0
317.61322 64.0
317.725403 44.0
317.775085 176.0
317.831848 60.0
317.934753 76.0
317.970825 96.0
318.027008 44.0
318.094177 104.0
318.129974 144.0
318.172546 96.0
318.197418 104.0
318.22937 76.0
318.266846 72.0
318.306763 60.0
318.353638 60.0
318.403351 140.0
318.595154 124.0
318.637787 44.0
318.67688 100.0
319.172272 80.0
319.210052 60.0
319.459015 44.0
319.686707 60.0
320.138794 44.0
320.477966 92.0
320.85141 96.0
320.95401 124.0
321.036835 136.0
321.322998 52.0
321.593384 72.0
326.764282 44.0
327.087555 2132.0
327.217743 52.0
327.332977 108.0
328.093414 584.0
328.143646 156.0
328.749634 104.0
329.013123 40.0
329.100861 2008.0
329.190033 52.0
329.229767 104.0
329.706635 96.0
329.829498 72.0
329.854797 152.0
329.914124 64.0
330.112885 352.0
330.418945 64.0
331.12439 112.0
331.345734 72.0
331.762512 56.0
331.961914 96.0
331.994568 44.0
332.190399 96.0
332.299255 96.0
332.61496 40.0
332.876343 140.0
335.725677 140.0
337.039795 152.0
338.103882 96.0
338.524872 56.0
339.521637 32.0
340.31424 144.0
340.703552 104.0
341.633606 152.0
344.793518 40.0
345.11142 48.0
346.714233 56.0
348.513916 60.0
350.176758 92.0
351.052521 44.0
351.627045 80.0
352.590576 100.0
352.698975 116.0
353.046661 40.0
353.439423 112.0
354.09079 128.0
356.495483 252.0
356.817841 84.0
358.870636 156.0
359.113464 3328.0
359.360931 64.0
359.394897 80.0
359.715698 36.0
360.059265 132.0
360.119904 564.0
360.335022 136.0
360.406799 100.0
361.125214 340.0
361.200714 188.0
362.112885 112.0
362.495483 92.0
362.650879 84.0
369.539642 116.0
372.176605 88.0
372.864197 68.0
378.476929 60.0
380.95517 84.0
384.115997 124.0
388.90921 64.0
389.250763 128.0
392.299866 68.0
394.344513 84.0
395.483582 40.0
397.973114 88.0
400.239471 108.0
400.825012 92.0
403.56311 80.0
407.121338 172.0
408.133972 84.0
412.031342 76.0
414.969543 48.0
417.637512 60.0
418.997101 116.0
421.175415 76.0
422.058136 104.0
422.585754 116.0
423.781281 64.0
423.879639 76.0
424.629822 108.0
425.208282 144.0
426.913177 104.0
428.464905 148.0
432.623505 52.0
433.804108 36.0
437.838562 60.0
438.801086 72.0
441.097107 140.0
443.068085 128.0
443.369751 100.0
446.997986 68.0
456.167206 96.0
457.396515 48.0
458.815033 184.0
463.010986 108.0
464.202301 80.0
464.927277 116.0
474.221313 40.0
478.639343 72.0
479.20993 76.0
480.243042 48.0
481.238007 88.0
481.779541 60.0
496.698181 132.0
499.496582 64.0
500.578033 128.0
501.522522 48.0
502.820374 104.0
504.227173 60.0
505.846283 64.0
512.177551 64.0
516.537903 76.0
520.625977 124.0
527.478394 164.0
528.754456 128.0
529.551086 64.0
531.981262 60.0
536.282043 76.0
536.452576 44.0
536.498657 64.0
538.108704 68.0
538.20105 44.0
539.420715 84.0
542.962708 84.0
546.697754 92.0
552.319641 96.0
552.361694 76.0
552.60968 56.0
555.031128 80.0
559.287415 32.0
569.62854 76.0
572.505981 68.0
589.468628 84.0
594.097229 88.0
604.876221 120.0
606.066284 136.0
608.479309 96.0
618.689209 68.0
620.091003 68.0
626.560608 20.0
631.877502 76.0
632.312805 172.0
632.873474 92.0
636.759766 100.0
637.488159 56.0
645.108765 84.0
647.795776 100.0
649.290955 112.0
650.006226 88.0
650.305664 36.0
650.447754 56.0
655.99231 48.0
663.604431 52.0
664.019775 76.0
669.492981 112.0
677.550598 60.0
677.586853 124.0
677.835571 96.0
678.029053 60.0
688.489197 52.0
690.815063 76.0
705.375732 76.0
705.89386 56.0
708.746887 116.0
709.520691 72.0
710.119873 72.0
711.648132 92.0
717.606995 32.0
719.479614 48.0
734.148987 44.0
736.032227 104.0
737.096313 112.0
741.425415 108.0
749.445862 108.0
761.469543 76.0
761.639771 44.0
783.100342 72.0
792.91095 108.0
794.62677 68.0
801.598816 68.0
801.677734 92.0
817.898071 44.0
823.902649 56.0
843.897156 52.0
849.827942 52.0
860.665466 84.0
873.01178 68.0
900.343445 56.0
945.695679 88.0
946.020081 116.0
952.93158 88.0
975.426208 80.0
991.410095 68.0
995.09198 68.0
1020.60498 88.0
1036.89563 216.0
1046.427979 120.0
1051.920532 68.0
1080.272217 104.0
1080.97876 84.0
1082.785645 40.0
1083.361938 88.0
1114.847778 60.0
1130.057129 112.0
1137.005859 68.0
1141.681396 84.0
1166.861816 108.0
1168.412476 124.0
1174.161255 104.0
1174.754639 192.0
1193.726074 28.0
1200.819214 128.0
1215.373779 148.0
1223.407837 60.0
1224.633301 36.0
1245.672974 44.0
1246.96582 120.0
1253.235596 96.0
1254.334961 100.0
1256.337646 120.0
1263.493896 144.0
1280.451172 72.0
1282.887939 72.0
1286.97583 132.0
1294.91333 88.0
1294.963501 104.0
1310.429077 120.0
1321.432007 44.0
1321.931152 76.0
1322.756226 64.0
1336.123047 44.0
1376.124512 68.0
1379.633667 212.0
1383.324951 176.0
1385.635376 44.0
1397.959717 148.0
1402.794312 84.0
1404.091675 128.0
1411.641479 76.0
1413.45166 164.0
1416.963013 140.0
1429.780273 156.0
1430.811523 48.0
1433.960083 216.0
1450.990112 88.0
1456.863892 180.0
1468.433472 84.0
1472.0354 192.0
1474.762695 80.0
1480.469849 100.0
1484.907104 96.0
1486.556396 88.0
1500.909668 148.0
1500.971313 248.0
