>compound Raltegravir (MK-0518)
>formula C20H21FN6O5
>ionization [M+H]+
>parentmass 445.163544
#inchi InChI=1S/C20H21FN6O5/c1-10-25-26-17(32-10)16(30)24-20(2,3)19-23-13(14(28)18(31)27(19)4)15(29)22-9-11-5-7-12(21)8-6-11/h5-8,28H,9H2,1-4H3,(H,22,29)(H,24,30)
#inchikey CZFFBEXEKNGXKS
#Ion_Source LC-ESI
#Instrument qTof
#Compound_Source Commercial
#PI Dorrestein
#Data_Collector Garg_Neha
#Scan -1
#Precursor_MZ 445.163
#ExactMass 444.156
#Charge 1
#CAS_Number 518048-05-0, 1292804-07-9 (sodium salt)
#Pubmed_ID N/A
#Smiles N1(C(=NC(=C(C1=O)O)C(NCC2=CC=C(C=C2)F)=O)C(NC(C3=NN=C(O3)C)=O)(C)C)C
#INCHI_AUX N/A
#Library_Class 1
#SpectrumID CCMSLIB00000078384
#IonMode Positive
#UpdateWorkflowName UPDATE-SINGLE-ANNOTATED-GOLD
#LibraryQualityString Gold
#TaskID 77f51c88eb8b467eb4a01dd2d0cb90d2
##Scan# 1238
#SpectrumFile Plate6_21_40_GD8_01_15775.mzXML
#LibraryName FDALibrary_2_04302014.mgf
#MQScore -1
#Organism FDALibrary_2_04302014
#TIC_Query 0
#RT_Query -1
#MZErrorPPM -1
#SharedPeaks 0
#MassDiff 0
#LibMZ -1
#SpecMZ 445.163
#SpecCharge 0
#internalFilename spec-00000.mgf

>collision 10
45.426125 272.0
50.005974 248.0
51.563354 152.0
52.92429 140.0
56.594189 140.0
57.428268 208.0
58.311001 160.0
63.785324 260.0
64.20887 140.0
65.487907 164.0
66.106232 192.0
67.395798 176.0
69.109184 160.0
70.50106 188.0
70.66494 168.0
72.038521 188.0
72.999565 204.0
73.111847 208.0
73.886543 192.0
74.334053 164.0
75.327217 156.0
75.7164 252.0
76.678925 228.0
76.72599 160.0
76.938843 200.0
78.597519 152.0
78.874802 172.0
79.136635 192.0
79.398903 188.0
81.537834 168.0
81.697868 168.0
81.800446 164.0
82.485939 180.0
83.719757 208.0
84.724388 148.0
85.00676 220.0
86.024605 144.0
86.331329 140.0
87.033653 172.0
87.528282 196.0
88.493645 184.0
88.900421 164.0
91.157181 140.0
93.474937 144.0
93.648735 116.0
96.092804 248.0
96.487328 180.0
96.532303 220.0
97.000244 156.0
98.068474 132.0
99.058784 172.0
99.105141 236.0
99.988846 212.0
100.53891 160.0
103.739189 192.0
104.751213 148.0
106.060287 196.0
106.206657 144.0
108.667847 164.0
108.78199 152.0
108.875427 208.0
108.894119 180.0
109.044563 34636.0
109.208771 104.0
109.58226 96.0
109.734848 180.0
110.04747 2412.0
110.094231 176.0
110.559967 140.0
110.793472 124.0
111.051399 136.0
115.064758 148.0
117.943489 148.0
119.046303 180.0
120.269905 152.0
123.053612 176.0
124.910797 228.0
125.033173 328.0
125.072662 372.0
126.271431 164.0
129.773285 172.0
130.229431 152.0
131.023346 160.0
133.408066 252.0
133.603546 140.0
139.048248 148.0
140.080719 1524.0
141.082474 196.0
141.149673 156.0
141.995117 156.0
142.736069 168.0
145.210251 156.0
150.137009 240.0
151.048065 168.0
152.028122 164.0
152.330124 144.0
153.029266 456.0
155.614868 208.0
159.846802 176.0
160.882736 148.0
161.575211 156.0
164.515671 168.0
165.065643 2528.0
166.071426 288.0
166.099731 156.0
166.661972 168.0
167.039291 232.0
167.083649 152.0
168.072205 160.0
169.081177 148.0
170.393021 192.0
171.039841 172.0
174.59903 152.0
175.504913 160.0
179.082657 152.0
180.069519 188.0
180.096237 200.0
181.206436 164.0
183.074265 1928.0
184.081039 160.0
187.231628 164.0
188.36792 212.0
188.425278 164.0
192.413223 176.0
192.992813 156.0
193.075989 14292.0
193.120667 196.0
193.250687 148.0
193.444427 140.0
193.768448 224.0
193.934723 220.0
194.078964 2196.0
195.061707 192.0
195.087402 180.0
195.929001 276.0
199.968002 192.0
200.238297 220.0
206.033707 164.0
208.07164 2464.0
208.10733 252.0
208.388809 188.0
209.071533 588.0
210.086563 384.0
211.068314 140.0
217.53775 152.0
217.719788 152.0
217.922485 144.0
222.322418 164.0
222.886642 184.0
223.234451 148.0
226.082962 1472.0
226.622482 148.0
226.952194 144.0
228.085602 184.0
228.132126 140.0
234.379227 184.0
235.089752 160.0
235.126373 148.0
236.065887 3800.0
236.887604 160.0
237.06813 308.0
241.109238 200.0
243.281067 132.0
244.620468 148.0
250.643387 160.0
252.607208 168.0
253.091797 7412.0
253.176941 184.0
253.214935 144.0
254.09465 1672.0
255.097107 188.0
255.75824 232.0
258.451813 148.0
259.233154 148.0
259.85202 148.0
265.091034 120.0
266.097443 184.0
270.911285 140.0
274.902954 140.0
275.11908 300.0
276.115479 316.0
278.092773 4904.0
279.09668 1236.0
280.09848 324.0
285.958252 160.0
286.783447 152.0
288.833069 164.0
289.821655 188.0
291.13446 160.0
292.143951 188.0
297.068176 160.0
297.990295 140.0
298.636597 172.0
300.607269 144.0
300.772949 200.0
303.16983 180.0
306.864929 156.0
309.720123 140.0
314.152924 184.0
316.113129 312.0
317.112732 120.0
317.609039 184.0
318.123383 1820.0
318.794891 144.0
319.128754 424.0
319.69104 184.0
320.114685 140.0
322.923401 172.0
323.374237 164.0
323.73584 156.0
329.422455 144.0
331.517426 144.0
332.591003 168.0
333.129059 116.0
333.477264 148.0
334.133942 296.0
335.957062 144.0
336.103027 156.0
337.140106 160.0
337.842163 156.0
338.519318 204.0
339.666504 148.0
340.180237 148.0
342.596375 152.0
344.102325 700.0
344.969299 164.0
345.113495 148.0
346.108032 176.0
346.419983 156.0
351.405579 188.0
352.813599 152.0
358.937561 168.0
359.529816 172.0
359.841461 144.0
360.278931 132.0
360.31778 108.0
360.615845 132.0
360.712036 144.0
360.757416 184.0
360.817902 164.0
360.964142 156.0
361.059906 140.0
361.131378 92160.0
361.234497 180.0
361.276703 164.0
361.5401 140.0
361.607086 128.0
361.752777 112.0
361.841156 104.0
361.981903 192.0
362.133575 18364.0
362.228912 156.0
362.453491 140.0
362.506439 148.0
362.679535 136.0
362.705109 176.0
363.136108 1440.0
363.915222 132.0
364.141602 392.0
364.234283 128.0
364.323547 172.0
364.490723 164.0
364.541595 104.0
364.651215 248.0
364.705811 148.0
365.097839 104.0
366.519348 108.0
371.896057 172.0
380.691162 144.0
384.998413 212.0
388.003571 164.0
388.109436 264.0
389.738403 168.0
390.119629 148.0
391.98526 180.0
400.706604 160.0
401.053314 156.0
402.156769 156.0
405.950989 140.0
406.476501 164.0
414.934937 144.0
416.948364 200.0
420.834595 180.0
427.150238 212.0
427.701538 172.0
427.857971 164.0
428.364532 140.0
430.022156 140.0
430.240936 176.0
431.422485 180.0
434.180206 168.0
434.993469 264.0
437.683441 160.0
439.47995 184.0
441.83902 136.0
441.987061 140.0
443.260834 152.0
443.465393 188.0
443.540863 188.0
443.582764 248.0
443.702911 176.0
443.776672 96.0
444.017181 96.0
444.259094 160.0
444.366211 164.0
444.449188 128.0
444.542419 120.0
444.655243 140.0
444.879883 104.0
444.922211 112.0
444.983215 108.0
445.048798 228.0
445.097137 340.0
445.163544 102680.0
445.434052 160.0
445.573853 164.0
445.667877 112.0
445.76886 120.0
445.856659 140.0
445.927429 200.0
445.97644 140.0
446.023804 180.0
446.165558 28300.0
446.260651 132.0
446.384125 260.0
446.420135 108.0
446.481903 112.0
446.65976 144.0
446.870361 160.0
447.168671 3584.0
447.263367 124.0
447.306458 204.0
447.500183 144.0
448.126587 192.0
448.173798 444.0
448.418304 180.0
448.529419 204.0
448.591339 116.0
448.658264 204.0
448.841736 116.0
448.962646 96.0
449.023376 100.0
449.0914 264.0
449.17276 176.0
449.531494 100.0
449.724182 140.0
450.212738 156.0
451.843384 100.0
454.991974 112.0
462.176453 176.0
464.642517 180.0
467.487549 108.0
487.485687 196.0
516.509338 168.0
528.337341 196.0
631.562317 156.0
843.060425 148.0
845.784607 160.0
1248.47876 164.0
1330.338257 152.0
1336.072266 172.0
1383.328247 172.0
1513.059814 148.0
1516.204834 204.0
1527.097778 144.0
1538.326416 144.0
1578.334106 196.0
1583.375122 156.0
1585.308105 220.0
1586.623901 188.0
1590.630127 156.0
1615.997559 160.0
1644.227905 160.0
1684.004272 184.0
1691.248779 152.0
1696.86853 176.0
1698.541626 156.0
1699.124023 212.0
1748.690308 220.0
1757.31543 160.0
1773.321533 156.0
1779.285767 176.0
1790.317993 164.0
1821.741211 184.0
1852.15271 156.0
1854.894897 156.0
1864.843384 160.0
1877.378906 212.0
1881.063232 304.0
1883.861206 168.0
1887.318359 216.0
1889.29895 148.0
1894.129517 220.0
1897.257935 164.0
1898.289795 176.0
1906.823853 168.0
1913.939941 212.0
1918.784424 172.0
1922.770874 192.0
1948.384033 164.0
1969.305664 144.0
1980.618896 200.0
1994.301392 140.0
1996.906616 188.0
1997.618164 160.0
2003.226562 276.0
