>compound MLS000736964-01!
>formula C12H8N2O2
>ionization [M+H]+
>parentmass 213.065247
#inchi InChI=1S/C12H8N2O2/c13-7-5-9-12(6-10(7)15)16-11-4-2-1-3-8(11)14-9/h1-6H,13H2
#inchikey RDJXPXHQENRCNG
#Ion_Source LC-ESI
#Instrument qTof
#Compound_Source NIH Natural Product Library
#PI Dorrestein
#Data_Collector VVP/LMS
#Scan -1
#Precursor_MZ 213.066
#ExactMass 212.059
#Charge 1
#CAS_Number N/A
#Pubmed_ID N/A
#Smiles Nc1cc2nc3ccccc3oc2cc1=O
#INCHI_AUX N/A
#Library_Class 1
#SpectrumID CCMSLIB00000079525
#IonMode Positive
#UpdateWorkflowName UPDATE-SINGLE-ANNOTATED-GOLD
#LibraryQualityString Gold
#TaskID b1d8e8f6646f4e71acdff9ca3d919d08
##Scan# 1792
#SpectrumFile p1-F07_GF7_01_17939.mzXML
#LibraryName NIH_Natural_Products_Library.mgf
#MQScore -1
#Organism NIH_Natural_Products_Library
#TIC_Query 0
#RT_Query -1
#MZErrorPPM -1
#SharedPeaks 0
#MassDiff 0
#LibMZ -1
#SpecMZ 213.066
#SpecCharge 0
#internalFilename spec-00000.mgf

>collision 10
95.003319 144.0
95.030479 72.0
95.088699 192.0
95.469475 144.0
95.67572 220.0
95.728294 156.0
95.964066 184.0
95.983559 188.0
96.248932 200.0
96.388771 176.0
96.45993 120.0
96.749451 196.0
96.959038 176.0
97.004112 68.0
97.121765 120.0
97.471214 224.0
97.595047 180.0
97.645477 192.0
97.713058 120.0
97.799644 180.0
98.166084 68.0
98.248924 236.0
98.628067 132.0
98.857483 160.0
98.970314 152.0
98.990112 168.0
99.007935 88.0
99.023506 176.0
99.112923 156.0
99.666519 184.0
99.740051 100.0
100.028473 108.0
100.534721 148.0
100.582619 184.0
100.820297 120.0
100.928238 180.0
100.98423 52.0
101.260429 216.0
101.454597 164.0
101.478851 180.0
101.783836 180.0
101.940514 172.0
102.046219 508.0
102.596672 176.0
102.661194 156.0
102.927551 132.0
102.990158 164.0
103.008339 96.0
103.054321 3452.0
103.174049 68.0
103.270798 112.0
103.333817 100.0
103.386658 156.0
103.443207 152.0
103.485611 128.0
103.734795 148.0
103.998489 116.0
104.04924 420.0
104.077667 168.0
104.258453 180.0
104.370255 144.0
104.404823 228.0
104.848633 152.0
105.051201 172.0
105.081093 72.0
105.260712 128.0
105.401649 144.0
105.558434 160.0
105.997101 120.0
106.048332 120.0
106.063446 484.0
106.146736 136.0
106.183655 196.0
106.218521 76.0
106.489456 176.0
106.670273 172.0
106.976776 156.0
107.022072 164.0
107.182732 172.0
107.242493 224.0
108.153366 232.0
108.406914 180.0
108.619583 120.0
108.941338 168.0
108.980812 148.0
109.05014 156.0
109.480042 172.0
109.592529 136.0
109.64045 132.0
109.750931 148.0
109.907372 104.0
109.951195 216.0
110.001282 136.0
110.06601 136.0
110.118942 172.0
110.159988 156.0
110.310448 84.0
110.597015 116.0
110.7034 196.0
110.710648 160.0
110.714989 80.0
110.772903 216.0
111.06636 148.0
111.675476 140.0
111.826965 124.0
112.706345 164.0
112.962158 32.0
113.039001 328.0
113.100388 148.0
113.142036 192.0
113.438622 160.0
113.793961 200.0
113.850235 184.0
114.029892 156.0
114.046028 128.0
114.364738 228.0
114.420082 144.0
114.498871 228.0
114.773766 136.0
114.977654 220.0
115.050858 464.0
115.573929 176.0
115.922913 108.0
115.996651 216.0
116.020233 164.0
116.050568 1172.0
116.118866 184.0
116.153191 72.0
116.616974 84.0
116.651367 144.0
116.700813 136.0
116.799736 84.0
117.006325 148.0
117.057198 1832.0
117.133377 216.0
117.214508 152.0
117.473969 60.0
117.730812 236.0
118.024696 140.0
118.063408 540.0
118.098221 112.0
118.208557 112.0
118.446709 56.0
118.479202 156.0
118.87381 156.0
118.960625 168.0
118.999702 92.0
119.02359 160.0
119.060944 364.0
119.399536 224.0
119.638878 148.0
119.702019 156.0
119.993988 176.0
120.045097 336.0
120.192467 84.0
120.349625 172.0
120.578995 196.0
120.697044 52.0
120.729843 216.0
120.961761 128.0
121.213623 112.0
121.42408 144.0
121.733513 180.0
121.827957 124.0
122.021347 80.0
122.197296 188.0
122.492287 176.0
122.547363 208.0
122.637718 96.0
123.003868 84.0
123.531998 108.0
123.575706 148.0
123.637894 124.0
123.762161 224.0
124.320763 36.0
124.433968 164.0
124.522789 192.0
124.66053 208.0
124.858383 220.0
125.276833 64.0
125.568832 200.0
126.399864 80.0
126.471474 140.0
126.621483 208.0
126.64164 236.0
126.713326 56.0
126.998016 180.0
127.295929 188.0
127.500931 184.0
127.532394 196.0
127.725769 168.0
127.80024 152.0
128.049286 1392.0
128.066681 276.0
128.281952 44.0
128.349594 172.0
128.378906 200.0
128.694809 172.0
128.943298 132.0
128.97348 148.0
129.053467 208.0
129.20108 140.0
129.223694 192.0
129.257645 124.0
129.350433 128.0
129.62674 184.0
129.751404 236.0
129.767273 168.0
129.869308 160.0
129.907867 184.0
129.94191 172.0
129.982742 180.0
130.064148 12636.0
130.212036 80.0
130.327881 64.0
130.523361 160.0
130.616608 64.0
130.762222 48.0
130.816849 100.0
130.914749 140.0
131.066467 960.0
131.163422 192.0
131.265686 168.0
131.587402 172.0
131.68103 180.0
131.767838 100.0
131.850098 140.0
131.882095 132.0
131.932373 88.0
131.959808 212.0
131.996399 116.0
132.042023 1176.0
132.155685 100.0
132.165375 64.0
132.170929 92.0
132.221512 124.0
132.424347 176.0
132.45871 64.0
132.481613 148.0
132.515976 180.0
132.926498 100.0
133.020508 200.0
133.049988 308.0
133.185837 112.0
133.254745 92.0
133.535187 128.0
133.689331 220.0
133.837494 196.0
134.03244 160.0
134.059296 2540.0
134.078873 184.0
134.138458 56.0
134.198395 124.0
134.306778 92.0
134.453552 52.0
134.523682 68.0
134.597565 76.0
134.886307 196.0
134.892715 192.0
135.0112 124.0
135.065811 364.0
135.457901 124.0
135.481079 84.0
135.909988 136.0
136.046921 116.0
136.211792 88.0
136.327957 176.0
136.544159 168.0
137.088928 196.0
138.104492 132.0
138.137238 156.0
138.790649 140.0
138.99472 128.0
139.039307 272.0
139.102234 192.0
139.133194 144.0
139.79837 220.0
139.991409 144.0
140.049194 3648.0
140.177505 172.0
140.19635 132.0
140.25528 140.0
140.63739 232.0
140.670425 188.0
140.711472 136.0
140.812103 128.0
140.833359 144.0
140.911316 200.0
140.965652 200.0
141.055176 180.0
141.180786 224.0
141.396057 72.0
141.414993 176.0
141.568878 112.0
141.632828 44.0
141.720474 208.0
142.01207 168.0
142.053925 2904.0
142.114075 140.0
142.137802 48.0
142.182892 100.0
142.305038 200.0
142.39418 40.0
142.441681 104.0
142.555725 52.0
142.786331 152.0
143.029007 156.0
143.059906 476.0
143.107574 104.0
143.481628 164.0
143.701035 60.0
143.80365 120.0
144.043411 3156.0
144.094971 52.0
144.130814 156.0
144.439224 64.0
144.74556 44.0
144.824112 160.0
144.850937 148.0
145.025848 144.0
145.05069 708.0
145.136124 132.0
145.203278 124.0
145.236847 28.0
145.258438 40.0
145.41806 268.0
145.575241 204.0
145.767426 152.0
145.827499 56.0
146.057755 528.0
146.739838 124.0
146.960663 200.0
147.169296 196.0
147.256241 120.0
147.584885 172.0
147.836456 136.0
148.054337 168.0
148.110031 176.0
148.279633 48.0
148.379028 168.0
148.468735 180.0
148.87886 96.0
148.917725 204.0
148.956589 108.0
149.121811 240.0
149.262817 212.0
149.323608 260.0
149.907883 44.0
150.740005 168.0
150.793762 188.0
150.864655 236.0
151.189957 212.0
151.221771 64.0
151.390701 176.0
151.564621 164.0
151.905396 68.0
152.005997 188.0
152.042801 136.0
152.177811 80.0
152.644669 128.0
152.772552 160.0
152.851288 232.0
153.156555 168.0
153.232925 120.0
153.264954 108.0
153.666855 80.0
153.689056 84.0
153.748276 180.0
153.811111 140.0
154.126099 152.0
154.281799 164.0
154.89798 188.0
154.957443 40.0
155.059586 868.0
155.093735 116.0
155.140823 128.0
155.220169 48.0
155.279694 124.0
155.507935 144.0
155.858093 172.0
155.900345 76.0
156.067184 2380.0
156.111633 180.0
156.295715 84.0
156.468582 176.0
156.763855 180.0
157.05043 672.0
157.072037 1948.0
157.152832 116.0
157.192764 160.0
157.269455 60.0
157.305069 40.0
157.489548 196.0
157.752213 116.0
157.929749 44.0
158.012299 156.0
158.059509 13344.0
158.107391 36.0
158.129913 132.0
158.159943 72.0
158.205002 68.0
158.252579 68.0
158.467972 192.0
158.551346 148.0
158.698563 136.0
158.836487 140.0
158.896698 92.0
159.06041 1516.0
159.235565 172.0
159.336044 68.0
159.441574 48.0
159.768463 104.0
159.805359 96.0
159.914398 28.0
159.984879 108.0
160.03775 180.0
160.142075 124.0
160.219086 88.0
160.27034 116.0
160.367767 88.0
160.458511 112.0
160.728378 188.0
161.040329 212.0
161.065216 172.0
161.104568 200.0
161.182892 108.0
161.357285 156.0
161.382568 168.0
161.445786 204.0
161.959564 56.0
162.088776 144.0
162.357483 80.0
163.096298 164.0
163.16748 160.0
163.704346 168.0
163.765472 164.0
163.81897 76.0
163.951462 160.0
164.211502 208.0
164.305878 316.0
164.550888 168.0
164.834396 160.0
165.041443 196.0
165.2435 100.0
165.340744 172.0
165.412399 240.0
165.453369 184.0
165.484085 48.0
166.0504 168.0
166.168396 144.0
166.199188 172.0
166.237671 40.0
166.271042 80.0
166.728165 184.0
166.897827 160.0
167.056915 616.0
167.085587 32.0
167.149902 160.0
167.451111 188.0
167.47171 136.0
167.510345 80.0
167.78093 204.0
168.042938 1820.0
168.418304 72.0
168.500977 48.0
168.565567 92.0
168.64827 216.0
169.042343 368.0
169.073929 692.0
169.168182 32.0
169.35463 64.0
169.380524 44.0
170.015747 184.0
170.051865 152.0
170.08136 156.0
170.238998 52.0
170.293533 188.0
170.355881 124.0
170.426025 204.0
170.620941 176.0
170.659943 188.0
171.039764 180.0
171.062714 132.0
171.235046 248.0
171.422607 236.0
171.537292 136.0
171.944183 128.0
172.060135 164.0
172.147812 92.0
172.568497 140.0
172.748642 176.0
172.913788 184.0
172.981842 164.0
173.026352 96.0
173.991119 132.0
174.111908 176.0
174.253754 196.0
174.998062 76.0
175.42485 132.0
175.642715 180.0
175.730774 76.0
176.359268 108.0
176.420074 100.0
177.081589 208.0
177.391602 184.0
177.574554 156.0
177.693924 152.0
178.102737 192.0
178.201019 84.0
178.95105 136.0
179.188095 100.0
179.419952 188.0
179.7827 108.0
180.185898 184.0
180.752731 120.0
181.333847 164.0
181.408539 208.0
181.918594 196.0
182.041794 176.0
182.149521 168.0
182.181763 80.0
182.410172 136.0
182.71167 172.0
182.762482 188.0
182.97052 188.0
183.048248 468.0
183.093582 200.0
183.481598 196.0
183.648788 136.0
183.700043 124.0
183.759384 104.0
184.008881 172.0
184.062866 1508.0
184.094086 116.0
184.27507 84.0
184.393967 100.0
184.446716 208.0
184.576248 100.0
184.650803 156.0
184.674774 88.0
184.723831 80.0
184.799591 244.0
184.878052 124.0
184.905518 160.0
184.944443 176.0
184.967834 116.0
185.017639 404.0
185.070602 48436.0
185.144135 56.0
185.205658 88.0
185.230026 88.0
185.25563 160.0
185.28064 76.0
185.33316 172.0
185.352539 60.0
185.358917 84.0
185.422775 80.0
185.448364 88.0
185.484741 88.0
185.516235 56.0
185.594208 72.0
185.628433 72.0
185.653015 64.0
185.698334 108.0
185.738815 208.0
185.791168 176.0
185.843567 152.0
185.923859 84.0
185.958588 260.0
185.991318 176.0
186.055664 10776.0
186.133423 64.0
186.154877 164.0
186.209183 60.0
186.291183 108.0
186.323486 92.0
186.349426 64.0
186.410217 116.0
186.440109 40.0
186.473557 52.0
186.535233 36.0
186.570572 76.0
186.609009 60.0
186.685028 44.0
186.976135 124.0
187.059036 1536.0
187.174591 156.0
187.204544 76.0
187.283524 176.0
187.303986 156.0
187.328339 212.0
187.357071 116.0
187.408829 72.0
187.449707 80.0
187.468781 36.0
187.490585 120.0
187.509659 52.0
187.531464 120.0
187.572357 64.0
187.623123 96.0
187.738663 80.0
188.06221 580.0
188.090622 56.0
188.156128 52.0
188.330902 56.0
188.464767 96.0
188.489349 68.0
188.527603 84.0
188.710754 212.0
188.921341 44.0
189.049927 96.0
189.860825 44.0
192.541336 116.0
194.468292 92.0
194.682053 108.0
195.029343 160.0
195.058777 284.0
195.0905 124.0
195.160004 268.0
195.182251 180.0
196.037201 256.0
196.218002 72.0
196.35463 108.0
196.446671 64.0
196.647583 88.0
196.706192 184.0
197.052475 368.0
197.871933 72.0
198.202438 60.0
198.695908 80.0
199.018661 88.0
200.002609 108.0
200.574402 84.0
202.155991 68.0
203.581909 32.0
203.777893 236.0
204.246964 180.0
206.33725 160.0
207.250259 88.0
209.519989 116.0
210.78952 128.0
211.116165 92.0
212.019394 60.0
212.317993 176.0
212.999939 100.0
213.065247 16984.0
213.293549 132.0
213.593033 64.0
213.643753 92.0
213.854904 80.0
214.069138 1796.0
214.163544 72.0
214.635651 48.0
214.658981 68.0
214.790222 68.0
214.816467 44.0
214.866074 56.0
215.026199 100.0
215.067413 200.0
215.181259 148.0
215.42366 64.0
215.507523 68.0
215.657425 120.0
215.677872 64.0
215.932251 80.0
216.045776 148.0
216.620087 72.0
217.215149 48.0
219.38829 48.0
220.719849 20.0
224.923691 84.0
227.125977 80.0
229.140091 160.0
231.765671 64.0
238.873169 100.0
246.325348 92.0
246.68158 96.0
253.93956 76.0
276.100128 88.0
277.703094 76.0
279.756592 92.0
284.067413 48.0
294.056183 72.0
307.618622 92.0
312.581421 92.0
315.406372 96.0
321.740204 96.0
323.710297 80.0
328.674438 104.0
330.806763 64.0
357.782806 76.0
374.658478 76.0
376.139282 64.0
384.538757 80.0
388.97345 80.0
402.901367 76.0
416.570374 112.0
432.898926 108.0
442.467346 96.0
444.336548 80.0
452.648376 52.0
458.42981 116.0
465.728577 128.0
479.718475 100.0
502.145691 92.0
522.261414 48.0
534.876709 72.0
550.281921 100.0
573.044373 108.0
592.793457 104.0
600.06012 88.0
618.536743 84.0
626.213013 100.0
638.007202 72.0
655.199036 60.0
666.079895 36.0
668.928589 64.0
683.570496 60.0
693.315002 32.0
713.733826 136.0
721.085144 92.0
790.748291 168.0
827.328003 116.0
828.135376 52.0
830.858154 168.0
835.626648 168.0
840.518433 52.0
848.395813 232.0
848.54071 60.0
852.487732 64.0
863.196167 160.0
870.403625 176.0
871.096619 124.0
871.701782 40.0
886.97583 220.0
893.305847 52.0
920.045776 52.0
928.941528 148.0
929.184204 76.0
935.601929 248.0
939.410645 144.0
952.670166 160.0
954.907593 184.0
964.643616 200.0
1003.488831 104.0
1003.684265 160.0
1009.354553 132.0
1018.42334 96.0
1035.901001 124.0
1039.921387 60.0
1040.210205 148.0
1040.274414 168.0
1043.312988 160.0
1045.474121 184.0
1050.319092 144.0
1062.610352 212.0
1062.928345 188.0
1068.535522 132.0
1074.151001 148.0
1075.508301 172.0
1081.47583 184.0
1084.94751 160.0
1093.38147 180.0
1102.462524 100.0
1106.040527 172.0
1106.973999 188.0
1110.625732 136.0
1112.430542 40.0
1115.512817 228.0
1121.50354 124.0
1124.258057 112.0
1129.007812 132.0
1130.76062 224.0
1131.376465 140.0
1133.037354 164.0
1134.980957 140.0
1138.161499 172.0
1138.33606 124.0
1147.41272 156.0
1153.670898 148.0
1154.844238 216.0
1156.315674 160.0
1156.802979 188.0
1158.570435 132.0
1161.05127 172.0
1174.095093 148.0
1175.138672 168.0
1182.334106 108.0
1183.834106 180.0
1184.942993 156.0
1185.881714 176.0
1192.766113 80.0
1195.10437 232.0
1196.625488 136.0
1202.443359 176.0
1209.673218 96.0
1213.427979 180.0
1219.349121 140.0
1223.098022 224.0
1225.918701 120.0
1229.098389 188.0
1234.679932 84.0
1235.393311 84.0
1243.044189 176.0
1247.834595 204.0
1252.577637 144.0
1253.451294 144.0
1258.727539 84.0
1260.853882 156.0
1267.53418 156.0
1269.263794 64.0
1270.178589 152.0
1272.03064 188.0
1272.115845 176.0
1273.905396 232.0
1275.020874 140.0
1275.404663 212.0
1277.317383 152.0
1277.833984 220.0
1278.035889 164.0
1279.718018 172.0
1284.854248 172.0
1286.395752 204.0
1287.880981 76.0
1288.480957 168.0
1290.939819 140.0
1296.903442 148.0
1299.276978 172.0
1301.25061 208.0
1304.454712 176.0
1304.742188 180.0
1306.755981 180.0
1307.144531 152.0
1308.576904 180.0
1308.692017 36.0
1309.815552 148.0
1311.335815 148.0
1312.171997 156.0
1316.631348 180.0
1317.967651 152.0
1318.986694 156.0
1319.362549 208.0
1320.006104 152.0
1325.485718 244.0
1329.35791 92.0
1329.945801 192.0
1332.480103 168.0
1333.315796 188.0
1335.220581 180.0
1335.315063 148.0
1336.08606 152.0
1336.668213 200.0
1346.049561 48.0
1347.619995 172.0
1349.425293 68.0
1350.310059 164.0
1353.940063 180.0
1354.591919 140.0
1356.123291 252.0
1356.673096 56.0
1358.418335 208.0
1360.282227 172.0
1361.258667 164.0
1363.88147 116.0
1364.263794 288.0
1364.550415 124.0
1369.745972 104.0
1370.305908 152.0
1370.983765 180.0
1374.081543 136.0
1377.57251 132.0
1379.545654 148.0
1381.150269 160.0
1383.06665 124.0
1383.843872 144.0
1383.984619 152.0
1384.088257 184.0
1386.125244 148.0
1387.489014 196.0
1387.822632 164.0
1389.803101 152.0
1392.928589 212.0
1394.154419 172.0
1396.883911 180.0
1398.430786 172.0
1402.914917 164.0
1404.658203 160.0
1408.362183 188.0
1410.641235 176.0
1413.902344 72.0
1415.362061 188.0
1416.949829 128.0
1417.736694 196.0
1420.848389 200.0
1423.347656 196.0
1425.045166 232.0
1426.894043 140.0
1427.27002 176.0
1427.518188 88.0
1429.398682 176.0
1430.587891 216.0
1431.114868 156.0
1431.378418 164.0
1431.687134 44.0
1432.741699 172.0
1435.696411 180.0
1436.910767 220.0
1439.854614 140.0
1440.640137 124.0
1442.627686 168.0
1447.689331 148.0
1447.742432 124.0
1447.969604 200.0
1449.143677 168.0
1449.696899 172.0
1449.800171 192.0
1452.441406 116.0
1453.958862 144.0
1454.140991 60.0
1455.522583 168.0
1456.821289 156.0
1457.535522 200.0
1460.508057 184.0
1463.761108 72.0
1466.759399 140.0
1468.970703 144.0
1470.061768 176.0
1470.69519 180.0
1470.8479 156.0
1472.809326 160.0
1473.192139 200.0
1476.371826 184.0
1477.695068 76.0
1478.812256 104.0
1478.896484 160.0
1479.59314 160.0
1480.098389 204.0
1480.266846 160.0
1482.135864 164.0
1482.519043 224.0
1482.641602 104.0
1485.072021 168.0
1485.271484 152.0
1487.465942 188.0
1487.627197 196.0
1488.295166 240.0
1491.102905 212.0
1491.120972 108.0
1491.14856 196.0
1495.883179 204.0
1496.328857 188.0
1497.507812 136.0
1497.95459 128.0
1501.168579 64.0
