>compound Epigallocatechin
>formula C15H14O7
>ionization [M+H]+
>parentmass 307.0812292400905
#inchi InChI=1S/C15H14O7/c16-7-3-9(17)8-5-12(20)15(22-13(8)4-7)6-1-10(18)14(21)11(19)2-6/h1-4,12,15-21H,5H2/t12-,15-/m1/s1
#inchikey XMOCLSLCDHWDHP
#Ion_Source DI-ESI
#Instrument qTof
#Compound_Source Isolated
#PI Norberto Lopes
#Data_Collector Denise Silva
#Scan -1
#Precursor_MZ 307.074
#ExactMass 306.074
#Charge 1
#CAS_Number 970-74-1
#Pubmed_ID N/A
#Smiles OC1=C(C[C@@H](O)[C@@H](C2=CC(O)=C(O)C(O)=C2)O3)C3=CC(O)=C1
#INCHI_AUX N/A
#Library_Class 3
#SpectrumID CCMSLIB00000081481
#IonMode Positive
#UpdateWorkflowName UPDATE-SINGLE-ANNOTATED-BRONZE
#LibraryQualityString Bronze
#TaskID 053e8682627d4c9488a292c234ed8aed
##Scan# 1
#SpectrumFile gnps_Epigallocatechin_pos_MplusH.mgf
#LibraryName gnps_library.mgf
#MQScore -1
#Organism blank
#TIC_Query 0
#RT_Query -1
#MZErrorPPM -1
#SharedPeaks 0
#MassDiff 0
#LibMZ -1
#SpecMZ 307.074
#SpecCharge 0
#internalFilename spec-00000.mgf

>collision 10
133.023499 117.0
139.034729 15507.0
140.037613 966.0
149.017975 118.0
151.034317 881.0
153.049515 112.0
163.03363 1232.0
164.035324 104.0
169.041809 1104.0
170.049271 104.0
181.04332 2345.0
182.046936 196.0
195.059769 286.0
205.042908 140.0
223.051727 546.0
247.053482 283.0
265.060577 117.0
289.06192 371.0
307.073608 591.0
