>compound NCGC00160286-01!7-Prenyl-theophylline
>formula C12H16N4O2
>ionization [M+H]+
>parentmass 249.135
#inchi InChI=1S/C12H16N4O2/c1-8(2)5-6-16-7-13-10-9(16)11(17)15(4)12(18)14(10)3/h5,7H,6H2,1-4H3
#inchikey JHQSOHPXNWCALX
#Ion_Source LC-ESI
#Instrument qTOF
#Compound_Source Prestwick Phytochem Lib
#PI Dorrestein
#Data_Collector VVP/LMS
#Scan -1
#Precursor_MZ 249.135
#ExactMass 248.127
#Charge 1
#CAS_Number N/A
#Pubmed_ID N/A
#Smiles CN1C2=C(N(C\C=C(\C)C)C=N2)C(=O)N(C)C1=O
#INCHI_AUX N/A
#Library_Class 1
#SpectrumID CCMSLIB00000078720
#IonMode Positive
#UpdateWorkflowName UPDATE-SINGLE-ANNOTATED-GOLD
#LibraryQualityString Gold
#TaskID 67c915c6594c435cadc1fe2b5358144d
##Scan# 1766
#SpectrumFile p1-G02_GG2_01_17946.mzXML
#LibraryName phytochem_lib.mgf
#MQScore -1
#Organism phytochem_lib
#TIC_Query 0
#RT_Query -1
#MZErrorPPM -1
#SharedPeaks 0
#MassDiff 0
#LibMZ -1
#SpecMZ 249.135
#SpecCharge 0
#internalFilename spec-00000.mgf

>collision 10
95.020195 208.0
95.7155 144.0
95.818726 216.0
96.054024 848.0
96.079971 148.0
96.587875 228.0
96.621132 188.0
97.060837 160.0
97.772942 120.0
97.946205 100.0
100.397949 136.0
100.777214 164.0
100.92112 104.0
101.1632 168.0
101.624146 176.0
102.196777 220.0
102.910278 76.0
104.234978 68.0
105.838257 120.0
106.48217 120.0
106.843948 156.0
107.023003 204.0
107.179588 208.0
108.058357 212.0
108.355186 152.0
109.025749 464.0
109.301979 216.0
109.54348 148.0
109.916679 128.0
109.962585 212.0
110.068848 200.0
110.206917 216.0
110.600075 156.0
111.222603 116.0
111.983749 60.0
112.705223 124.0
113.03508 172.0
113.414169 156.0
114.740654 124.0
115.135406 168.0
115.47094 48.0
115.676353 216.0
115.849808 220.0
116.353775 212.0
116.858841 84.0
117.53109 124.0
117.874413 240.0
118.030052 172.0
118.161987 92.0
118.597252 148.0
119.420151 140.0
119.589859 196.0
120.064377 180.0
120.200066 184.0
120.774643 140.0
120.805267 120.0
120.855583 188.0
121.050392 344.0
121.311119 232.0
121.551498 220.0
121.866364 152.0
122.032967 240.0
122.264374 212.0
122.985077 164.0
123.05793 104.0
123.449028 140.0
123.785385 36.0
123.838539 140.0
124.050285 11796.0
124.087006 224.0
124.152641 96.0
124.225266 68.0
124.34404 76.0
124.506111 44.0
124.597183 92.0
124.89061 208.0
124.96402 112.0
125.053596 812.0
125.077515 196.0
125.102005 52.0
125.507484 168.0
125.868965 40.0
125.987335 80.0
126.005211 144.0
126.027916 124.0
126.271217 84.0
126.412155 164.0
126.470345 160.0
126.799583 104.0
127.670654 176.0
129.127563 120.0
130.890854 132.0
131.166519 192.0
133.791779 140.0
133.807892 76.0
133.890793 196.0
134.024399 232.0
135.007767 60.0
135.047073 240.0
135.067886 168.0
135.183578 180.0
137.078217 184.0
137.115753 84.0
137.981766 180.0
138.077637 184.0
138.489548 136.0
138.960739 208.0
139.863144 100.0
140.044449 168.0
142.062271 124.0
143.065964 120.0
143.816833 136.0
143.933578 196.0
144.077118 204.0
144.60318 208.0
144.674988 140.0
145.082245 148.0
145.845596 108.0
147.233368 104.0
148.465179 128.0
149.049942 168.0
149.196823 136.0
149.928696 132.0
150.043259 92.0
151.134995 140.0
153.162827 56.0
154.344955 200.0
156.309525 136.0
157.378845 136.0
161.078186 116.0
162.313248 172.0
163.058762 200.0
163.415604 160.0
163.986023 232.0
164.062485 152.0
164.312424 168.0
165.137512 64.0
165.764725 144.0
166.052261 172.0
168.042877 92.0
168.079239 196.0
168.737625 192.0
169.14119 156.0
170.131439 120.0
172.423386 224.0
174.121307 144.0
174.462891 196.0
175.436935 208.0
175.492294 72.0
176.239258 160.0
177.316284 96.0
178.205231 132.0
179.805618 104.0
180.040558 144.0
180.166092 68.0
180.692764 168.0
180.754303 192.0
180.821213 136.0
180.917572 152.0
180.965759 200.0
181.006073 148.0
181.024673 220.0
181.071579 21352.0
181.106033 200.0
181.139832 68.0
181.164612 128.0
181.303268 56.0
181.389755 60.0
181.410492 52.0
181.431931 88.0
181.480194 60.0
181.533813 56.0
181.567398 96.0
181.625 76.0
181.659882 36.0
181.81282 92.0
182.075821 1064.0
182.13768 44.0
182.358017 28.0
182.435959 60.0
182.95517 84.0
182.979401 80.0
183.052094 112.0
183.073822 300.0
183.111343 128.0
183.138275 52.0
183.405029 156.0
183.477814 116.0
183.634201 104.0
184.049789 80.0
184.222641 60.0
185.042084 48.0
185.253311 68.0
185.654465 60.0
186.058746 128.0
186.23526 72.0
193.076401 168.0
197.244232 56.0
197.61618 84.0
198.341492 88.0
206.542084 48.0
249.558609 48.0
255.040359 184.0
274.052612 168.0
279.552673 92.0
348.896912 76.0
375.189728 108.0
379.682831 60.0
411.071747 72.0
456.020752 88.0
476.332794 88.0
593.414246 88.0
722.208862 212.0
785.921387 64.0
794.402893 180.0
808.432434 176.0
815.038635 172.0
828.429016 92.0
836.439636 124.0
842.234619 60.0
846.693909 232.0
900.884399 60.0
907.036011 148.0
914.261353 128.0
920.293396 64.0
972.177368 148.0
988.128845 220.0
997.045532 60.0
1016.005798 80.0
1037.313477 20.0
1056.924438 212.0
1063.223145 160.0
1067.068481 96.0
1075.746094 192.0
1089.642944 236.0
1122.640137 44.0
1128.576416 52.0
1162.363892 176.0
1176.759766 180.0
1181.564331 140.0
1181.625977 60.0
1196.642822 160.0
1201.342896 32.0
1208.576538 132.0
1211.421997 176.0
1222.468384 88.0
1229.423218 132.0
1234.66272 200.0
1253.307251 152.0
1261.635376 76.0
1271.502319 116.0
1274.889893 164.0
1278.587891 196.0
1311.095093 92.0
1321.74646 176.0
1322.875488 180.0
1329.122803 136.0
1339.366333 148.0
1361.725952 144.0
1365.716919 244.0
1369.757935 160.0
1377.939209 204.0
1388.153687 72.0
1393.029907 240.0
1397.862549 180.0
1399.611816 224.0
1402.889893 240.0
1404.948242 200.0
1405.873413 160.0
1406.112183 72.0
1406.791504 160.0
1407.455933 64.0
1408.561279 64.0
1409.599731 108.0
1417.494263 128.0
1441.838989 188.0
1446.460327 176.0
1449.989868 228.0
1455.383423 104.0
1458.870728 152.0
1461.15979 76.0
1470.479126 212.0
1473.609985 116.0
1475.023804 180.0
1476.032959 124.0
1476.162964 164.0
1479.192627 140.0
1492.418823 120.0
1498.499268 216.0
1498.730347 104.0
1500.048218 264.0
