>compound MLS002153848-01!Biperiden hydrochloride1235-82-1
>formula C21H29NO
>ionization [M+H]+
>parentmass 312.230469
#inchi InChI=1S/C21H29NO/c23-21(19-7-3-1-4-8-19,11-14-22-12-5-2-6-13-22)20-16-17-9-10-18(20)15-17/h1,3-4,7-10,17-18,20,23H,2,5-6,11-16H2/t17-,18+,20?,21?/m1/s1
#inchikey YSXKPIUOCJLQIE
#origInchi InChI=1S/C21H29NO.ClH/c23-21(19-7-3-1-4-8-19,11-14-22-12-5-2-6-13-22)20-16-17-9-10-18(20)15-17;/h1,3-4,7-10,17-18,20,23H,2,5-6,11-16H2;1H/t17-,18+,20?,21?;/m1./s1
#Ion_Source LC-ESI
#Instrument qTof
#Compound_Source NIH Pharmacologically Active Library
#PI Dorrestein
#Data_Collector VP/LMS
#Scan -1
#Precursor_MZ 312.236
#ExactMass 311.225
#Charge 1
#CAS_Number N/A
#Pubmed_ID N/A
#Smiles OC(CCN1CCCCC1)(C2C[C@H]3C[C@@H]2C=C3)c4ccccc4.Cl
#INCHI_AUX N/A
#Library_Class 1
#SpectrumID CCMSLIB00000085179
#IonMode Positive
#UpdateWorkflowName UPDATE-SINGLE-ANNOTATED-GOLD
#LibraryQualityString Gold
#TaskID d252d724072548979f1f6f1ced849daf
##Scan# 1739
#SpectrumFile p3-F08_GF8_01_18289.mzXML
#LibraryName Pharm_Active_Library.mgf
#MQScore -1
#Organism Pharm_Active_Library
#TIC_Query 0
#RT_Query -1
#MZErrorPPM -1
#SharedPeaks 0
#MassDiff 0
#LibMZ -1
#SpecMZ 312.236
#SpecCharge 0
#internalFilename spec-00000.mgf

>collision 10
44.9352 156.0
44.959217 172.0
45.025368 220.0
45.083427 188.0
45.115509 188.0
45.163651 140.0
45.199776 96.0
45.260014 160.0
45.321636 148.0
45.339058 164.0
45.354519 176.0
45.369888 160.0
45.4128 64.0
45.450367 192.0
45.459763 52.0
45.473183 96.0
45.485302 140.0
45.516144 204.0
45.528233 252.0
45.553383 188.0
45.572441 220.0
45.650532 140.0
45.665329 160.0
45.67878 176.0
45.74472 136.0
45.780319 128.0
45.785366 196.0
45.814754 68.0
45.856529 112.0
45.882504 208.0
45.92395 144.0
45.996819 120.0
46.017067 124.0
46.0765 160.0
46.096951 148.0
46.108932 148.0
46.119743 120.0
46.172478 148.0
46.227951 192.0
46.256374 168.0
46.300713 188.0
46.317314 52.0
46.345764 152.0
46.363384 148.0
46.402695 168.0
46.454235 160.0
46.473824 192.0
46.504444 96.0
46.527523 192.0
46.560112 212.0
46.575054 232.0
46.662033 180.0
46.702831 132.0
46.810356 48.0
46.828064 64.0
46.896191 60.0
46.915276 208.0
47.006668 164.0
47.01926 352.0
47.048981 144.0
47.138092 204.0
47.191082 184.0
47.226639 168.0
47.259476 136.0
47.281372 132.0
47.300533 188.0
47.399151 104.0
47.422451 116.0
47.432045 172.0
47.445755 204.0
47.473385 188.0
47.511467 136.0
47.537231 180.0
47.548637 172.0
47.56374 176.0
47.604931 148.0
47.637707 176.0
47.661255 164.0
47.699738 72.0
47.751991 232.0
47.762997 124.0
47.79464 172.0
47.808403 152.0
47.852455 188.0
47.863468 172.0
47.908924 180.0
47.947002 196.0
47.962669 136.0
47.976456 176.0
48.006794 208.0
48.023342 192.0
48.132374 168.0
48.143425 152.0
48.198685 204.0
48.213886 200.0
48.229088 76.0
48.24015 156.0
48.270569 112.0
48.338356 176.0
48.385418 144.0
48.40065 144.0
48.508724 148.0
48.536453 160.0
48.566967 152.0
48.590549 212.0
48.644676 192.0
48.666893 184.0
48.676613 152.0
48.786385 208.0
48.808632 172.0
48.835056 156.0
48.886536 176.0
48.911591 168.0
48.93108 68.0
48.940826 372.0
48.956146 164.0
48.994793 188.0
49.018837 168.0
49.060654 168.0
49.088543 176.0
49.148529 88.0
49.419617 36.0
49.432003 136.0
49.457401 92.0
49.479801 152.0
49.492405 92.0
49.53302 184.0
49.552238 212.0
49.573654 188.0
49.591877 204.0
49.604492 232.0
49.623493 252.0
49.640949 88.0
49.770054 228.0
49.798141 176.0
49.846771 144.0
49.889484 176.0
49.976688 144.0
50.01469 188.0
50.044254 156.0
50.064285 196.0
50.169655 132.0
50.180935 180.0
50.234528 124.0
50.266979 148.0
50.378529 188.0
50.43475 184.0
50.450607 76.0
50.490967 192.0
50.50293 108.0
50.549622 164.0
50.580761 184.0
50.594917 208.0
50.607662 180.0
50.658649 156.0
50.696907 132.0
50.738018 140.0
50.756451 192.0
50.791908 164.0
50.834473 152.0
50.847248 188.0
50.862862 164.0
50.936707 200.0
51.021385 328.0
51.056103 192.0
51.105896 140.0
51.120125 156.0
51.147141 208.0
51.152779 204.0
51.201279 68.0
51.255413 116.0
51.288197 212.0
51.298176 132.0
51.31319 180.0
51.348083 132.0
51.405151 156.0
51.437363 176.0
51.513668 128.0
51.530235 188.0
51.636604 212.0
51.668076 224.0
51.689537 112.0
51.702419 184.0
51.718163 160.0
51.731453 212.0
51.752525 192.0
51.824146 188.0
51.883896 204.0
51.948883 176.0
51.996498 176.0
52.033562 160.0
52.052227 84.0
52.0709 128.0
52.088135 144.0
52.112236 208.0
52.19978 160.0
52.256683 196.0
52.480736 164.0
52.599361 144.0
52.65712 392.0
52.671188 148.0
52.684227 68.0
52.726475 180.0
52.74881 208.0
52.785748 208.0
52.859528 228.0
52.908249 164.0
52.936256 116.0
52.946392 204.0
52.957981 52.0
53.02898 156.0
53.040577 212.0
53.055077 176.0
53.075375 132.0
53.114536 148.0
53.142101 156.0
53.159515 184.0
53.187092 200.0
53.235004 148.0
53.255341 72.0
53.304737 220.0
53.317818 176.0
53.35416 192.0
53.383663 124.0
53.425426 152.0
53.454525 88.0
53.476357 208.0
53.492371 60.0
53.62347 84.0
53.652321 172.0
53.71096 136.0
53.86132 140.0
53.884827 176.0
53.918964 160.0
53.940231 180.0
53.976784 164.0
54.036758 124.0
54.07188 216.0
54.138626 184.0
54.168526 184.0
54.197826 192.0
54.231537 164.0
54.262321 144.0
54.281384 180.0
54.441349 216.0
54.51059 152.0
54.52676 180.0
54.544395 92.0
54.551357 180.0
54.553429 248.0
54.595665 180.0
54.629498 116.0
54.657455 124.0
54.678059 188.0
54.713387 184.0
54.745502 148.0
54.882835 136.0
54.909382 116.0
54.963966 160.0
55.042358 220.0
55.117546 132.0
55.155708 200.0
55.174511 208.0
55.195892 184.0
55.249676 184.0
55.277256 156.0
55.295017 180.0
55.314533 172.0
55.379414 188.0
55.39719 108.0
55.475739 152.0
55.49353 96.0
55.582249 168.0
55.587402 156.0
55.593311 212.0
55.714275 176.0
55.745888 68.0
55.765797 212.0
55.79998 184.0
55.882694 184.0
55.8946 188.0
55.931808 84.0
55.967541 156.0
56.004772 144.0
56.025631 200.0
56.042019 244.0
56.055431 92.0
56.068844 120.0
56.090256 252.0
56.131458 212.0
56.145905 204.0
56.195305 160.0
56.22541 164.0
56.246346 160.0
56.270233 212.0
56.312046 156.0
56.350891 48.0
56.370132 164.0
56.394032 212.0
56.479462 188.0
56.498909 184.0
56.509384 192.0
56.543804 120.0
56.573742 52.0
56.602192 176.0
56.618664 168.0
56.702568 196.0
56.740364 264.0
56.75354 36.0
56.877491 240.0
56.938251 148.0
56.990711 160.0
57.011749 104.0
57.080902 152.0
57.136559 140.0
57.211811 216.0
57.229118 168.0
57.263012 224.0
57.338348 52.0
57.35342 220.0
57.370003 152.0
57.382065 192.0
57.422783 180.0
57.489166 152.0
57.526905 396.0
57.59486 196.0
57.666653 216.0
57.684017 156.0
57.697624 228.0
57.777782 192.0
57.803509 196.0
57.829235 156.0
57.85043 180.0
57.891312 208.0
57.951908 52.0
57.985249 208.0
58.070156 140.0
58.095947 112.0
58.121738 204.0
58.197639 164.0
58.24472 60.0
58.258392 308.0
58.303978 116.0
58.357185 268.0
58.370872 184.0
58.389122 148.0
58.430195 168.0
58.44389 104.0
58.469761 148.0
58.486504 164.0
58.544361 140.0
58.617489 212.0
58.649494 84.0
58.69981 76.0
58.725922 212.0
58.750145 240.0
58.765404 184.0
58.79287 176.0
58.80508 244.0
58.837139 96.0
58.852409 364.0
59.014381 108.0
59.029671 116.0
59.072498 92.0
59.086269 160.0
59.10004 220.0
59.116871 52.0
59.127586 160.0
59.144424 148.0
59.179634 176.0
59.202606 96.0
59.245495 176.0
59.288158 200.0
59.329792 188.0
59.352791 180.0
59.40514 152.0
59.422096 176.0
59.442177 208.0
59.451836 128.0
59.473995 124.0
59.530804 168.0
59.555378 172.0
59.572277 212.0
59.601471 160.0
59.713699 64.0
59.733696 132.0
59.789089 148.0
59.804775 168.0
59.883011 176.0
59.929813 200.0
59.986946 208.0
60.017094 160.0
60.043308 120.0
60.073898 212.0
60.104614 260.0
60.12204 132.0
60.132797 204.0
60.151321 176.0
60.347538 180.0
60.418686 196.0
60.475945 204.0
60.517746 180.0
60.548717 176.0
60.565125 196.0
60.602135 116.0
60.627731 84.0
60.698318 168.0
60.714554 40.0
60.736923 180.0
60.787472 112.0
60.815407 132.0
60.837143 56.0
60.883659 172.0
60.984718 216.0
61.03447 148.0
61.045357 124.0
61.13092 156.0
61.165161 204.0
61.179173 240.0
61.247696 168.0
61.277294 236.0
61.306904 176.0
61.31937 164.0
61.434765 196.0
61.509674 232.0
61.534901 152.0
61.55027 92.0
61.590878 160.0
61.6315 120.0
61.644001 132.0
61.770649 144.0
61.842632 168.0
61.870811 120.0
61.961727 168.0
61.986721 60.0
61.998245 88.0
62.057262 80.0
62.156086 156.0
62.179626 220.0
62.300541 152.0
62.418427 176.0
62.456669 216.0
62.484493 200.0
62.504948 104.0
62.59153 192.0
62.634052 152.0
62.668713 144.0
62.689201 104.0
62.721344 244.0
62.767384 176.0
62.77906 204.0
62.862675 212.0
62.914764 84.0
62.935291 176.0
62.968456 64.0
63.049034 164.0
63.099312 164.0
63.120178 104.0
63.161301 152.0
63.189777 196.0
63.227757 156.0
63.260998 72.0
63.310787 240.0
63.340179 180.0
63.435261 216.0
63.501862 180.0
63.524071 136.0
63.578022 244.0
63.614529 164.0
63.631992 248.0
63.646282 232.0
63.666927 196.0
63.695488 192.0
63.714584 164.0
63.770203 196.0
63.825462 248.0
63.84016 216.0
63.879925 164.0
63.892654 188.0
63.911747 124.0
64.003242 176.0
64.01841 184.0
64.055626 252.0
64.120285 216.0
64.137016 144.0
64.160225 164.0
64.276665 144.0
64.329338 44.0
64.359673 148.0
64.461441 176.0
64.465775 124.0
64.607422 184.0
64.649025 68.0
64.665024 184.0
64.695442 208.0
64.708252 116.0
64.730667 220.0
64.751488 96.0
64.769112 184.0
64.80275 136.0
64.862053 144.0
64.963081 64.0
65.019753 208.0
65.024757 156.0
65.128426 132.0
65.163773 108.0
65.197517 60.0
65.248962 132.0
65.316505 216.0
65.40715 256.0
65.43882 152.0
65.499657 176.0
65.530632 96.0
65.649918 188.0
65.705711 260.0
65.74511 84.0
65.785461 56.0
65.911446 196.0
65.990654 148.0
66.001968 172.0
66.044022 196.0
66.126541 56.0
66.142578 168.0
66.20871 160.0
66.23008 208.0
66.272293 200.0
66.32254 140.0
66.352974 124.0
66.375343 292.0
66.428612 224.0
66.460434 152.0
66.535057 124.0
66.574028 140.0
66.587021 144.0
66.609764 204.0
66.6679 200.0
66.767433 208.0
66.778816 188.0
66.790207 64.0
66.858543 224.0
66.879753 136.0
66.918777 172.0
67.000671 200.0
67.023026 136.0
67.205658 172.0
67.230904 68.0
67.306862 84.0
67.328094 176.0
67.342789 184.0
67.355858 252.0
67.367294 184.0
67.381645 148.0
67.437561 196.0
67.462082 120.0
67.497055 152.0
67.54335 196.0
67.637123 192.0
67.655136 132.0
67.668228 148.0
67.717094 372.0
67.761589 156.0
67.800919 108.0
67.817314 124.0
67.837875 120.0
67.897652 168.0
67.91584 180.0
67.999382 100.0
68.127167 176.0
68.163612 120.0
68.23101 184.0
68.256027 204.0
68.359314 104.0
68.415276 156.0
68.451897 176.0
68.535515 212.0
68.672348 192.0
68.786209 200.0
68.807671 216.0
68.835739 136.0
68.875381 112.0
68.891899 124.0
68.906769 112.0
68.919991 172.0
68.974533 140.0
69.034058 244.0
69.108131 220.0
69.189598 248.0
69.212776 200.0
69.297256 176.0
69.315483 180.0
69.346977 160.0
69.408318 136.0
69.433189 144.0
69.542702 184.0
69.559303 188.0
69.588478 228.0
69.648972 212.0
69.662262 48.0
69.686928 180.0
69.76445 156.0
69.807434 212.0
69.84346 112.0
69.875069 88.0
69.896706 184.0
69.979935 96.0
69.991585 96.0
70.063972 224.0
70.173218 176.0
70.231583 152.0
70.289978 132.0
70.345062 124.0
70.361755 176.0
70.375114 128.0
70.386803 160.0
70.401833 140.0
70.413521 140.0
70.441216 176.0
70.460297 36.0
70.482018 188.0
70.516266 280.0
70.536308 200.0
70.568939 148.0
70.600716 160.0
70.617439 168.0
70.689384 220.0
70.749641 276.0
70.771408 160.0
70.816628 136.0
70.902145 188.0
70.961174 220.0
71.044609 136.0
71.12516 164.0
71.173851 116.0
71.266197 180.0
71.331787 172.0
71.360367 76.0
71.451187 128.0
71.476433 128.0
71.528603 164.0
71.542076 100.0
71.560593 216.0
71.624596 140.0
71.636383 136.0
71.658287 116.0
71.705704 144.0
71.847122 184.0
71.934883 156.0
72.064934 48.0
72.080658 168.0
72.095345 188.0
72.130104 192.0
72.156204 192.0
72.191711 176.0
72.212006 336.0
72.240768 128.0
72.259377 140.0
72.272911 48.0
72.330856 204.0
72.372787 124.0
72.423592 108.0
72.463516 176.0
72.469879 100.0
72.47699 208.0
72.494751 156.0
72.552383 80.0
72.571037 292.0
72.618523 108.0
72.632095 208.0
72.657539 228.0
72.682991 172.0
72.786667 108.0
72.798431 168.0
72.817108 200.0
72.829002 72.0
72.85788 68.0
72.898659 144.0
72.947952 192.0
72.997261 340.0
73.013527 320.0
73.067001 124.0
73.131668 184.0
73.1521 140.0
73.17083 156.0
73.187851 224.0
73.242355 216.0
73.276428 152.0
73.289894 164.0
73.317322 332.0
73.369835 124.0
73.392334 164.0
73.411331 144.0
73.520279 204.0
73.551003 96.0
73.56295 104.0
73.730347 132.0
73.742317 268.0
73.755989 76.0
73.846619 176.0
74.034889 256.0
74.11026 232.0
74.271416 184.0
74.302299 188.0
74.324608 144.0
74.355499 352.0
74.393257 204.0
74.410706 176.0
74.424164 200.0
74.443054 188.0
74.470535 92.0
74.513481 220.0
74.531326 352.0
74.58223 64.0
74.622696 196.0
74.651405 144.0
74.718086 96.0
74.819633 168.0
74.938477 188.0
74.952263 140.0
74.967339 192.0
74.978661 212.0
74.995346 152.0
75.080727 180.0
75.098679 168.0
75.12986 124.0
75.171265 128.0
75.226501 164.0
75.29557 96.0
75.345268 224.0
75.440727 160.0
75.522003 148.0
75.554596 204.0
75.634476 176.0
75.736641 228.0
75.764359 236.0
75.805145 216.0
75.818077 436.0
75.834984 164.0
75.877014 220.0
75.904762 72.0
75.929688 160.0
75.994965 228.0
76.033142 144.0
76.083481 160.0
76.152939 96.0
76.189423 116.0
76.218964 36.0
76.30587 132.0
76.344131 176.0
76.44677 56.0
76.478104 116.0
76.501434 168.0
76.532074 212.0
76.544258 120.0
76.566902 60.0
76.582581 144.0
76.598251 224.0
76.617416 172.0
76.654007 40.0
76.788254 132.0
76.814423 172.0
76.837097 204.0
76.86676 28.0
76.950546 108.0
76.971504 132.0
77.085052 168.0
77.133766 152.0
77.292961 184.0
77.323242 188.0
77.345657 124.0
77.445473 180.0
77.496277 176.0
77.659317 44.0
77.69265 116.0
77.754066 152.0
77.810364 172.0
77.826042 328.0
77.888519 208.0
77.919136 180.0
78.022835 156.0
78.096695 144.0
78.116043 120.0
78.128357 184.0
78.172348 108.0
78.228676 196.0
78.274452 48.0
78.316872 192.0
78.378387 148.0
78.417046 184.0
78.431259 68.0
78.518349 212.0
78.55999 172.0
78.577637 156.0
78.628815 152.0
78.69294 172.0
78.711784 136.0
78.750641 144.0
78.763008 184.0
78.784203 152.0
78.802597 224.0
78.835449 172.0
78.879639 160.0
78.911461 80.0
78.925606 196.0
78.998123 132.0
79.015816 232.0
79.075981 164.0
79.091911 300.0
79.162735 176.0
79.242447 152.0
79.264084 172.0
79.295616 208.0
79.364754 156.0
79.478813 320.0
79.494606 180.0
79.519096 60.0
79.535072 212.0
79.572357 184.0
79.591888 224.0
79.667816 144.0
79.689583 164.0
79.71624 232.0
79.77845 192.0
79.846024 200.0
79.858475 152.0
79.98481 48.0
80.03466 160.0
80.061378 172.0
80.225311 140.0
80.278801 208.0
80.314476 76.0
80.365471 164.0
80.385841 176.0
80.466164 148.0
80.513176 172.0
80.587624 156.0
80.601921 280.0
80.613152 168.0
80.624702 192.0
80.682358 236.0
80.762833 196.0
80.784294 220.0
80.834312 176.0
80.839638 168.0
80.871979 128.0
80.922104 180.0
80.972252 144.0
80.995537 192.0
81.022408 232.0
81.062622 144.0
81.144882 264.0
81.165802 180.0
81.183731 188.0
81.221886 192.0
81.2519 296.0
81.275223 128.0
81.390106 124.0
81.443985 188.0
81.4907 168.0
81.532028 156.0
81.58596 144.0
81.665085 224.0
81.70826 164.0
81.736115 348.0
81.800041 156.0
81.823448 144.0
81.863464 160.0
81.902687 336.0
81.935112 164.0
82.041451 52.0
82.086525 196.0
82.118988 144.0
82.163368 180.0
82.256126 120.0
82.272377 140.0
82.312988 152.0
82.456635 168.0
82.527138 156.0
82.557877 152.0
82.604904 176.0
82.706245 156.0
82.771576 376.0
82.835663 196.0
82.889168 148.0
82.925606 156.0
82.972549 188.0
83.001564 164.0
83.024803 108.0
83.048714 188.0
83.135803 168.0
83.16864 224.0
83.206604 60.0
83.324661 68.0
83.397346 200.0
83.455528 224.0
83.477348 148.0
83.619255 148.0
83.642921 192.0
83.695717 184.0
83.743073 180.0
83.87899 216.0
83.93261 148.0
83.974556 176.0
84.062134 160.0
84.126015 160.0
84.151573 172.0
84.197227 92.0
84.290405 208.0
84.352547 132.0
84.407394 180.0
84.449608 196.0
84.487877 108.0
84.506172 156.0
84.522644 160.0
84.577377 172.0
84.675201 96.0
84.731384 184.0
84.758865 180.0
84.806519 192.0
84.898193 208.0
84.967896 72.0
85.010101 112.0
85.052315 128.0
85.100052 192.0
85.174393 184.0
85.300987 184.0
85.32605 208.0
85.344437 36.0
85.373856 128.0
85.424255 120.0
85.475037 40.0
85.513687 164.0
85.532097 64.0
85.54866 140.0
85.644424 200.0
85.708908 204.0
85.731018 28.0
85.906189 212.0
86.015068 184.0
86.053841 180.0
86.114784 136.0
86.138794 92.0
86.153572 80.0
86.203468 320.0
86.303284 132.0
86.325478 164.0
86.399467 208.0
86.458679 240.0
86.497742 156.0
86.547539 72.0
86.564209 144.0
86.605713 280.0
86.666092 356.0
86.721687 216.0
86.734665 128.0
86.775452 172.0
86.819954 80.0
86.975815 124.0
87.07608 232.0
87.09507 180.0
87.157829 108.0
87.196854 172.0
87.233109 164.0
87.28051 148.0
87.390877 228.0
87.533592 164.0
87.546631 116.0
87.567116 100.0
87.598785 176.0
87.615547 136.0
87.695679 116.0
87.781441 172.0
87.822479 148.0
87.854187 160.0
87.870979 244.0
88.010971 148.0
88.093155 164.0
88.182846 148.0
88.27446 184.0
88.405411 104.0
88.461411 176.0
88.497688 184.0
88.560814 236.0
88.605774 108.0
88.710724 168.0
88.725723 224.0
88.759995 188.0
88.787605 40.0
88.855141 48.0
88.89563 220.0
88.928329 196.0
89.039108 116.0
89.095459 100.0
89.115372 196.0
89.267906 140.0
89.334221 184.0
89.374664 176.0
89.401962 156.0
89.477257 76.0
89.499855 180.0
89.541283 272.0
89.600128 184.0
89.637367 164.0
89.659981 84.0
89.722191 128.0
89.735382 112.0
89.831573 52.0
89.863647 152.0
89.88063 176.0
89.920258 196.0
89.954239 136.0
89.98822 168.0
90.003326 176.0
90.020325 148.0
90.056206 208.0
90.110992 108.0
90.12989 220.0
90.152565 160.0
90.196037 152.0
90.239517 156.0
90.25386 184.0
90.33976 156.0
90.405991 136.0
90.426804 124.0
90.464668 172.0
90.496849 148.0
90.629448 168.0
90.69767 344.0
90.775406 164.0
90.84938 224.0
90.862663 232.0
90.904411 196.0
90.929085 196.0
90.967049 300.0
91.02021 136.0
91.05304 476.0
91.088585 220.0
91.121048 180.0
91.166489 160.0
91.202599 160.0
91.280548 176.0
91.307587 184.0
91.371857 152.0
91.458275 136.0
91.49176 284.0
91.544052 228.0
91.585068 176.0
91.606125 152.0
91.707397 184.0
91.762306 308.0
91.837708 192.0
91.857666 164.0
91.948914 180.0
91.974068 176.0
91.998886 76.0
92.031349 152.0
92.081001 144.0
92.121109 52.0
92.144035 140.0
92.29966 240.0
92.375328 196.0
92.396416 144.0
92.467216 176.0
92.523033 152.0
92.628563 216.0
92.683624 132.0
92.700874 148.0
92.7948 160.0
92.884941 144.0
92.923309 184.0
92.977043 140.0
93.111435 140.0
93.130646 216.0
93.151779 56.0
93.234215 184.0
93.36898 188.0
93.532532 136.0
93.834999 164.0
93.865852 172.0
93.89917 180.0
93.948792 80.0
93.973511 212.0
94.022118 168.0
94.061707 176.0
94.107056 168.0
94.166924 236.0
94.217148 56.0
94.323441 156.0
94.350815 176.0
94.391113 168.0
94.429794 164.0
94.470413 112.0
94.553619 204.0
94.590401 292.0
94.671722 196.0
94.71627 68.0
94.753075 196.0
94.780357 172.0
94.818962 120.0
94.999298 164.0
95.016762 140.0
95.064156 216.0
95.119621 188.0
95.197281 136.0
95.247787 156.0
95.26915 148.0
95.288986 168.0
95.319672 72.0
95.347885 180.0
95.475197 204.0
95.567017 180.0
95.585907 192.0
95.61528 160.0
95.691063 112.0
95.722359 384.0
95.748718 164.0
95.886009 248.0
95.935539 204.0
95.987381 100.0
96.03614 168.0
96.057602 72.0
96.079475 3000.0
96.192253 84.0
96.301605 156.0
96.342628 332.0
96.362167 220.0
96.381706 188.0
96.397339 308.0
96.416878 172.0
96.448151 116.0
96.506477 120.0
96.61438 112.0
96.633942 164.0
96.67308 148.0
96.690697 196.0
96.716141 144.0
96.729843 216.0
96.764992 172.0
96.819916 236.0
96.833626 152.0
96.861984 176.0
96.913948 84.0
96.95314 196.0
96.990379 60.0
97.027504 128.0
97.034294 120.0
97.040016 176.0
97.083603 424.0
97.143341 200.0
97.15995 172.0
97.180618 204.0
97.239487 72.0
97.255196 192.0
97.296417 76.0
97.312126 100.0
97.345505 132.0
97.406395 156.0
97.47123 144.0
97.504646 168.0
97.57148 144.0
97.602936 148.0
97.624573 196.0
97.674805 96.0
97.699463 180.0
97.744576 336.0
97.760315 180.0
97.783257 128.0
97.810257 128.0
97.829514 208.0
97.86412 172.0
97.896561 212.0
97.915436 208.0
97.932983 136.0
97.961594 236.0
97.98774 304.0
98.008438 124.0
98.044876 448.0
98.074234 876.0
98.09626 166296.0
98.133728 288.0
98.177582 40.0
98.200584 80.0
98.208702 104.0
98.230576 140.0
98.24894 140.0
98.284866 88.0
98.311661 192.0
98.328682 188.0
98.359711 304.0
98.374947 156.0
98.400269 204.0
98.419586 2820.0
98.450134 80.0
98.457413 112.0
98.464539 124.0
98.470459 112.0
98.500557 52.0
98.541199 32.0
98.573471 132.0
98.588676 156.0
98.615204 232.0
98.627731 144.0
98.670197 60.0
98.722328 140.0
98.752113 64.0
98.769775 164.0
98.807594 60.0
98.843735 44.0
98.865601 84.0
98.916969 160.0
98.938744 40.0
98.954582 68.0
98.968445 52.0
98.986923 148.0
99.046234 176.0
99.063866 136.0
99.098785 12840.0
99.153397 124.0
99.179375 180.0
99.20533 140.0
99.247841 36.0
99.269814 96.0
99.286125 72.0
99.305847 48.0
99.346664 208.0
99.408524 116.0
99.444244 80.0
99.466713 84.0
99.494629 84.0
99.517082 80.0
99.539543 64.0
99.565727 88.0
99.583237 108.0
99.608879 88.0
99.644615 220.0
99.678139 144.0
99.698189 112.0
99.714638 160.0
99.729279 100.0
99.740845 128.0
99.770103 140.0
99.785439 196.0
99.812317 104.0
99.833199 172.0
99.850342 220.0
99.910042 148.0
99.941879 80.0
99.964966 80.0
99.988846 64.0
100.012665 124.0
100.038284 196.0
100.072456 76.0
100.102455 432.0
100.155937 76.0
100.187103 128.0
100.219055 196.0
100.263695 48.0
100.320129 124.0
100.369354 64.0
100.449135 36.0
100.463097 28.0
100.512695 56.0
100.680672 136.0
100.828522 88.0
100.8685 64.0
101.018478 100.0
101.03849 80.0
101.22464 72.0
101.342827 88.0
101.392929 96.0
101.515221 80.0
101.559349 104.0
101.609497 36.0
101.683746 84.0
101.76606 88.0
101.85041 32.0
101.946846 156.0
101.972641 100.0
102.045349 160.0
102.099648 60.0
102.113724 220.0
102.655495 40.0
102.681709 56.0
102.744247 32.0
102.849182 168.0
103.034821 160.0
103.053116 436.0
103.384804 60.0
103.457672 36.0
103.814293 100.0
103.838631 68.0
104.058861 156.0
104.487221 144.0
104.502937 120.0
104.549736 60.0
104.604698 176.0
104.702431 64.0
104.728912 88.0
104.845047 116.0
104.889893 112.0
104.908241 184.0
104.928627 96.0
104.991844 56.0
105.024475 92.0
105.068375 1344.0
105.087723 180.0
105.417801 112.0
105.551407 72.0
105.672089 68.0
105.815369 72.0
105.850174 156.0
105.997665 64.0
106.073502 160.0
106.12886 100.0
106.311432 164.0
106.386078 120.0
106.451035 36.0
106.481842 104.0
106.504433 96.0
106.839523 112.0
106.901253 60.0
106.925949 28.0
106.993881 144.0
107.226654 88.0
107.414291 88.0
107.451431 36.0
107.484444 60.0
107.676437 44.0
107.738411 48.0
107.905823 160.0
107.932701 152.0
107.971191 72.0
108.021637 88.0
108.079567 124.0
108.218254 120.0
108.288666 152.0
108.394325 196.0
108.477234 148.0
108.5205 152.0
108.599579 172.0
108.655647 140.0
109.285156 140.0
109.426697 136.0
109.539154 72.0
109.568321 236.0
109.614166 48.0
109.672523 104.0
110.092209 372.0
110.112785 36.0
110.156647 148.0
110.279938 96.0
110.401199 180.0
110.57695 36.0
110.706757 108.0
110.886932 160.0
110.9645 132.0
111.033699 88.0
111.10244 484.0
111.489288 80.0
111.571266 140.0
111.636452 200.0
111.777405 48.0
111.97319 124.0
112.108398 312.0
112.335754 132.0
112.354744 124.0
112.384277 164.0
112.567932 148.0
112.736938 84.0
112.781326 176.0
112.79612 92.0
112.832062 52.0
113.115547 144.0
113.149422 32.0
113.274376 140.0
113.418472 172.0
113.448151 64.0
113.496918 44.0
113.609329 84.0
113.764252 44.0
113.883171 176.0
114.002151 92.0
114.089302 212.0
114.189247 44.0
114.272209 172.0
114.348824 140.0
114.770638 204.0
114.84742 152.0
114.939156 160.0
114.964767 172.0
114.981842 164.0
115.026665 164.0
115.052628 2952.0
115.074379 236.0
115.122749 48.0
115.137695 68.0
115.218872 40.0
115.389854 132.0
115.408424 204.0
115.479675 84.0
115.565598 196.0
115.927139 56.0
116.010735 248.0
116.056046 416.0
116.092216 36.0
116.603188 52.0
116.697777 40.0
116.742935 140.0
116.846191 160.0
117.020531 156.0
117.068459 2248.0
117.12175 116.0
117.147598 32.0
117.261803 188.0
117.373909 52.0
117.72567 152.0
117.768867 52.0
117.883369 156.0
118.070488 348.0
118.604111 52.0
118.862198 172.0
118.966385 156.0
119.085815 160.0
119.257477 184.0
119.799324 140.0
119.890839 180.0
120.054352 148.0
120.148148 136.0
121.03775 88.0
121.29409 192.0
121.31382 168.0
121.693382 172.0
121.910858 36.0
122.044952 156.0
122.095535 132.0
122.272972 204.0
122.628357 116.0
122.720947 56.0
123.038666 172.0
123.533714 128.0
123.55584 88.0
123.626648 184.0
123.737328 196.0
124.400223 120.0
124.446846 116.0
124.99144 136.0
125.521622 180.0
125.606369 176.0
125.659912 132.0
125.972481 132.0
126.045227 484.0
126.061852 72.0
126.133377 164.0
126.162437 52.0
126.348068 196.0
126.831787 164.0
127.052971 564.0
127.334404 144.0
127.377083 76.0
127.619812 92.0
127.741257 344.0
127.788506 164.0
127.842514 148.0
128.020203 172.0
128.060806 13448.0
128.099197 52.0
128.114975 48.0
128.132355 60.0
128.166794 44.0
128.236649 68.0
128.378693 52.0
128.477951 64.0
128.532089 204.0
128.579483 72.0
128.681076 60.0
128.73526 148.0
128.775925 52.0
128.832397 60.0
128.919296 148.0
129.035797 92.0
129.064835 1584.0
129.271057 52.0
129.323105 80.0
129.402344 112.0
129.62886 40.0
129.660583 92.0
129.787537 48.0
129.860107 32.0
129.930435 108.0
130.039032 300.0
130.063309 152.0
130.318695 80.0
130.514175 180.0
130.602875 36.0
130.783859 148.0
131.045914 172.0
131.082657 808.0
131.103775 204.0
131.850082 160.0
132.090164 244.0
132.206863 104.0
132.268661 180.0
132.415207 60.0
132.584747 60.0
132.740646 104.0
133.063065 1428.0
133.227249 72.0
133.30307 96.0
133.434097 176.0
133.705536 104.0
133.839066 172.0
133.986465 152.0
134.062347 348.0
134.095322 220.0
134.230804 116.0
134.256165 48.0
134.293076 64.0
134.683167 192.0
134.925827 68.0
135.071518 192.0
135.485901 88.0
135.599457 116.0
135.63382 116.0
136.107529 132.0
136.588806 152.0
137.075241 144.0
137.231415 128.0
137.264053 160.0
137.345688 240.0
137.450577 100.0
137.58139 184.0
138.96228 156.0
139.690598 112.0
141.067963 1144.0
141.105652 196.0
141.503143 96.0
141.91304 176.0
142.07309 580.0
142.188232 40.0
142.266556 144.0
142.309296 64.0
142.34967 76.0
142.375092 108.0
142.499313 176.0
142.532578 188.0
142.632401 164.0
142.696594 160.0
142.732254 60.0
142.796478 116.0
142.834534 88.0
142.924942 176.0
142.967773 144.0
143.020142 284.0
143.084366 18220.0
143.123489 204.0
143.173569 76.0
143.241592 72.0
143.297791 68.0
143.313507 192.0
143.382187 124.0
143.415543 32.0
143.587219 76.0
143.656403 64.0
143.812912 184.0
143.868805 104.0
143.976257 52.0
144.055069 100.0
144.086868 1936.0
144.176941 72.0
144.222351 36.0
144.37059 64.0
144.399292 44.0
144.526077 136.0
144.930756 228.0
144.99408 132.0
145.062714 440.0
145.097321 656.0
145.189667 48.0
145.237625 68.0
145.311996 68.0
145.592865 132.0
145.849945 96.0
146.011047 64.0
146.067398 212.0
146.114487 168.0
146.928833 64.0
147.629333 92.0
148.21759 112.0
148.663803 52.0
148.683212 112.0
149.020767 140.0
150.118607 100.0
150.138107 148.0
150.365005 92.0
151.31105 180.0
151.511871 60.0
152.062515 316.0
152.316544 96.0
152.505753 184.0
153.070084 316.0
153.340149 104.0
153.488083 52.0
153.618805 180.0
154.073105 384.0
154.312805 44.0
155.059189 1096.0
155.082932 508.0
155.238907 88.0
155.467148 120.0
155.484528 72.0
155.640915 76.0
155.680649 164.0
155.884369 108.0
156.056946 160.0
156.090698 192.0
156.140442 104.0
156.772812 132.0
156.924866 180.0
157.30159 164.0
157.861267 216.0
158.040665 152.0
158.083923 184.0
158.1465 128.0
158.164017 112.0
158.206573 116.0
158.271667 68.0
158.394394 32.0
160.160324 152.0
160.225815 40.0
160.256058 104.0
160.884064 96.0
160.977493 128.0
161.015381 192.0
161.784088 64.0
162.014557 140.0
162.118454 132.0
163.052414 180.0
164.11142 132.0
164.76738 128.0
165.067001 336.0
165.097137 108.0
166.076355 348.0
166.612061 200.0
167.084473 1192.0
167.551132 108.0
168.09024 172.0
168.890945 64.0
169.109314 216.0
169.994675 100.0
170.069946 188.0
170.097153 184.0
170.360794 120.0
171.102661 204.0
172.100616 296.0
172.207687 152.0
172.581406 88.0
173.285507 152.0
174.069809 68.0
174.364044 88.0
175.108643 88.0
176.473007 76.0
176.824844 176.0
177.174393 72.0
177.757721 60.0
178.536118 60.0
179.085449 332.0
179.614853 108.0
179.774933 80.0
180.049911 164.0
180.090042 160.0
180.734283 236.0
180.935028 120.0
181.100159 656.0
181.186783 32.0
182.105759 384.0
182.843613 76.0
183.113571 240.0
183.13266 228.0
184.110153 316.0
185.119522 168.0
187.600281 84.0
187.976685 148.0
188.139496 168.0
188.440887 164.0
189.568283 172.0
190.319916 80.0
190.594604 156.0
190.938232 148.0
192.004105 40.0
194.106659 244.0
195.108276 148.0
196.096497 128.0
196.127167 168.0
196.196854 108.0
198.097244 96.0
198.12709 520.0
198.862778 228.0
199.134476 312.0
199.632599 68.0
200.141937 104.0
200.239868 88.0
200.516617 88.0
201.156921 200.0
202.420776 160.0
202.539734 136.0
203.836334 196.0
206.298965 136.0
208.868439 232.0
209.129242 648.0
209.988922 140.0
210.132462 188.0
210.436218 136.0
211.031433 192.0
211.132355 196.0
212.102631 172.0
212.142746 172.0
212.264984 52.0
212.729218 76.0
213.134689 140.0
214.034683 96.0
214.157013 136.0
214.547501 64.0
216.642944 64.0
216.73378 164.0
218.6073 44.0
219.225739 176.0
220.32341 216.0
221.924652 144.0
222.50322 76.0
222.583389 212.0
226.153397 172.0
227.035965 112.0
227.113953 184.0
227.164948 192.0
227.57312 36.0
228.101883 64.0
228.17363 4736.0
228.321381 64.0
228.477798 44.0
228.568069 104.0
228.625244 88.0
228.872101 68.0
229.131134 52.0
229.17601 576.0
229.459656 56.0
229.52298 32.0
229.658691 96.0
229.854797 80.0
230.032867 112.0
230.182007 172.0
230.265381 40.0
230.585648 64.0
230.66423 120.0
233.368576 52.0
233.481094 56.0
235.364426 92.0
236.731354 64.0
238.615433 116.0
239.81604 160.0
240.121277 56.0
241.279282 128.0
241.449356 96.0
241.867065 120.0
242.85553 132.0
244.197357 140.0
245.549118 92.0
245.901688 212.0
246.183975 2548.0
246.266541 232.0
247.151749 28.0
247.185928 988.0
247.245636 140.0
247.762314 60.0
248.197235 152.0
248.841217 132.0
251.006088 52.0
252.098358 88.0
253.167664 80.0
254.010773 52.0
254.150375 128.0
254.18367 236.0
255.039627 60.0
255.35759 88.0
255.924057 40.0
256.47522 140.0
259.236694 92.0
262.915833 148.0
267.447052 120.0
269.201111 176.0
269.318695 128.0
269.674866 152.0
270.443542 128.0
270.800415 128.0
272.529327 224.0
274.761932 216.0
274.837555 152.0
276.907074 200.0
280.799133 84.0
281.122772 180.0
283.054993 64.0
284.429626 92.0
285.6091 88.0
286.989899 216.0
287.762573 52.0
287.921295 136.0
288.874481 52.0
293.674347 168.0
294.00531 232.0
294.162323 136.0
294.219391 8228.0
294.271057 240.0
294.397919 104.0
294.541382 84.0
294.906982 68.0
294.965088 116.0
295.129211 44.0
295.22113 1412.0
295.42334 68.0
295.957275 44.0
296.173035 60.0
296.202637 244.0
296.22998 268.0
296.488251 108.0
296.6185 36.0
296.882507 52.0
297.036865 124.0
297.376587 40.0
297.5242 128.0
298.025635 56.0
298.981659 92.0
299.78064 48.0
301.032928 132.0
303.181305 208.0
307.476532 112.0
308.580414 100.0
309.210083 84.0
311.211823 100.0
311.499817 108.0
311.830109 144.0
311.953125 208.0
312.230469 6040.0
312.375153 48.0
312.698853 80.0
312.892487 52.0
312.955841 200.0
313.163635 116.0
313.230591 1716.0
313.301025 156.0
313.642853 76.0
313.771912 72.0
314.245422 288.0
314.683594 116.0
314.987305 112.0
315.216949 112.0
315.482056 120.0
315.701294 128.0
318.16394 40.0
323.665649 72.0
324.285431 144.0
327.130402 92.0
329.67691 76.0
331.033569 132.0
332.552643 76.0
335.911285 92.0
344.29068 128.0
344.483307 88.0
354.237671 76.0
355.216095 68.0
356.225922 100.0
358.886841 88.0
360.85025 116.0
364.641113 44.0
369.529999 92.0
372.278442 56.0
381.595154 44.0
383.670349 28.0
387.927765 76.0
388.692596 68.0
388.755371 108.0
392.429443 84.0
410.211975 44.0
414.536804 96.0
420.274567 44.0
425.43985 56.0
439.516968 72.0
451.578705 100.0
455.374542 36.0
464.567017 56.0
483.258667 96.0
493.816956 28.0
496.075317 88.0
497.51712 88.0
499.988617 92.0
506.386658 52.0
511.739716 48.0
526.948303 76.0
527.528748 76.0
529.532959 64.0
542.616028 36.0
545.048218 44.0
547.886475 124.0
552.826721 64.0
557.154663 44.0
561.310852 52.0
580.595703 112.0
582.318726 48.0
585.892883 68.0
599.689453 88.0
614.184082 120.0
679.760498 64.0
695.638367 116.0
698.223572 64.0
712.544006 208.0
740.109497 84.0
745.387512 88.0
747.736938 124.0
755.135437 40.0
761.971375 32.0
763.604065 184.0
768.838135 60.0
770.715759 220.0
771.821289 152.0
771.965027 208.0
774.921021 72.0
776.051697 180.0
778.759949 216.0
781.623108 160.0
786.600281 184.0
787.002258 216.0
787.594238 100.0
787.901489 156.0
791.7948 132.0
793.537598 184.0
806.180725 124.0
806.248535 156.0
807.283691 188.0
808.771118 248.0
812.755371 128.0
813.266113 212.0
814.265442 52.0
815.651855 180.0
815.816711 180.0
817.716675 132.0
820.029114 184.0
823.184082 92.0
826.436707 112.0
827.959412 168.0
828.520813 204.0
829.83905 152.0
831.496887 180.0
833.001343 264.0
833.570129 148.0
836.278992 128.0
836.399841 164.0
836.468933 140.0
840.128357 32.0
841.357666 116.0
843.061646 172.0
844.275757 188.0
844.790527 188.0
845.791687 108.0
846.857117 164.0
847.639221 168.0
849.651245 80.0
850.939758 84.0
851.224304 120.0
851.996826 116.0
852.508118 88.0
852.833618 176.0
854.013977 180.0
855.742432 104.0
856.435425 152.0
859.006104 80.0
860.138245 200.0
860.447632 176.0
862.515747 220.0
867.339172 104.0
868.523682 176.0
870.114014 48.0
871.006714 136.0
871.676514 68.0
871.876282 108.0
873.446228 244.0
875.765442 176.0
876.354553 124.0
877.079468 156.0
878.553711 144.0
878.854675 200.0
879.261841 172.0
880.554871 120.0
882.144348 180.0
882.40448 64.0
882.60553 56.0
884.220581 180.0
884.303467 192.0
884.34491 220.0
884.398193 48.0
885.061218 180.0
887.763489 92.0
887.88208 156.0
888.536804 140.0
888.93219 176.0
889.501953 128.0
889.733459 180.0
890.071899 148.0
891.289673 128.0
891.408508 172.0
892.835327 128.0
893.114868 140.0
894.054932 180.0
894.519226 168.0
895.394531 212.0
896.112244 184.0
896.741089 136.0
898.709106 56.0
899.049255 148.0
899.353638 152.0
899.813293 108.0
899.974487 172.0
901.031738 108.0
901.683044 204.0
902.017822 148.0
902.508057 208.0
903.076172 160.0
903.399231 188.0
903.710327 44.0
903.80011 80.0
903.919739 152.0
905.200195 188.0
906.051392 216.0
906.333008 160.0
906.662598 176.0
907.333984 240.0
907.687744 144.0
907.969604 168.0
908.491455 212.0
910.34021 144.0
911.547668 100.0
912.154724 160.0
912.704651 180.0
912.840149 156.0
913.595886 256.0
913.778564 168.0
914.404358 180.0
914.861877 168.0
915.21106 160.0
915.722961 164.0
915.837402 208.0
915.962341 216.0
916.849976 160.0
918.284607 164.0
918.592224 116.0
918.833557 176.0
918.972351 124.0
919.014587 72.0
919.17749 64.0
919.376648 172.0
920.342529 156.0
920.777344 156.0
921.666443 224.0
922.602234 52.0
923.684753 148.0
923.906738 228.0
923.999329 88.0
925.978821 64.0
927.051208 132.0
927.287537 148.0
927.384521 104.0
928.330322 220.0
928.754883 212.0
930.867004 212.0
931.535156 140.0
931.595886 92.0
932.094116 176.0
933.461853 216.0
934.720154 148.0
935.104553 128.0
935.177551 256.0
935.293213 176.0
935.585449 148.0
935.682861 168.0
938.625854 124.0
939.064941 168.0
939.266235 152.0
939.973999 136.0
940.120483 176.0
940.370667 152.0
941.176575 216.0
941.40863 188.0
941.512451 68.0
941.711853 168.0
943.314941 136.0
944.385071 132.0
945.253845 212.0
945.412964 160.0
947.080566 196.0
947.194702 52.0
947.77063 120.0
947.948364 144.0
949.247986 124.0
949.309265 176.0
950.19873 148.0
951.143799 164.0
951.542847 180.0
952.089417 200.0
952.298218 184.0
952.39032 180.0
952.826538 124.0
953.379578 192.0
953.465576 168.0
954.295471 168.0
954.627563 188.0
955.820984 196.0
956.159424 180.0
956.781189 184.0
957.434143 184.0
958.481201 132.0
958.536621 112.0
958.678345 212.0
958.961914 124.0
959.183777 176.0
960.367737 180.0
960.435547 164.0
961.515381 172.0
962.070923 176.0
962.324036 180.0
963.287537 140.0
963.380188 156.0
963.778381 168.0
964.504883 124.0
965.209717 264.0
965.630249 236.0
966.743896 156.0
967.690979 152.0
968.0625 172.0
968.254517 100.0
968.737671 184.0
968.787231 224.0
969.623718 200.0
970.163025 148.0
970.274597 144.0
970.739685 164.0
971.093201 172.0
972.985901 184.0
973.047974 168.0
973.842896 152.0
974.128601 184.0
974.377136 196.0
976.360107 164.0
976.720825 140.0
977.442566 156.0
978.220581 104.0
978.488281 296.0
978.668823 272.0
978.799622 204.0
978.917908 136.0
979.157104 260.0
979.416199 156.0
980.003296 216.0
980.269775 128.0
980.325867 104.0
981.772217 124.0
981.953064 200.0
982.221313 220.0
982.371033 116.0
983.762695 184.0
983.962463 164.0
984.493225 160.0
984.886719 128.0
984.955444 192.0
985.155334 184.0
985.267761 144.0
985.324036 164.0
985.692688 204.0
985.805176 132.0
986.280151 184.0
986.936646 196.0
987.174255 60.0
987.268066 200.0
987.349365 172.0
987.94989 164.0
988.9198 180.0
988.976135 124.0
989.751709 64.0
989.833862 144.0
990.222168 176.0
990.879944 196.0
991.537903 212.0
992.697754 184.0
992.961121 64.0
993.067749 148.0
993.111694 176.0
993.237122 140.0
993.751587 100.0
994.341492 152.0
996.621094 148.0
996.86615 148.0
997.237 172.0
997.30658 156.0
997.444397 172.0
998.003967 220.0
998.481873 148.0
998.702026 168.0
999.136108 184.0
999.450684 112.0
999.507324 108.0
999.73877 160.0
1000.476624 200.0
1000.596252 172.0
1000.822937 160.0
1001.13147 172.0
1001.270081 132.0
1002.044861 192.0
1002.139404 176.0
1003.872925 76.0
1004.219788 156.0
1004.737061 120.0
1005.809875 124.0
1006.03717 200.0
1006.169739 156.0
1006.403381 52.0
1006.485413 168.0
1006.883301 212.0
1007.205444 168.0
1008.115234 256.0
1008.285889 76.0
1008.361755 168.0
1009.158264 152.0
1009.430176 236.0
1009.531372 164.0
1009.759033 136.0
1009.948792 152.0
1010.050049 168.0
1010.195496 148.0
1010.299927 244.0
1010.828247 208.0
1011.385193 168.0
1011.442139 152.0
1011.651062 164.0
1011.841003 188.0
1012.284241 168.0
1012.689575 152.0
1012.797241 160.0
1013.690613 156.0
1013.817322 164.0
1013.912415 192.0
1014.692139 192.0
1014.744629 156.0
1015.177246 208.0
1015.250122 64.0
1015.630676 212.0
1016.023987 140.0
1016.392029 100.0
1017.305969 196.0
1017.439331 180.0
1017.598022 240.0
1017.723206 168.0
1018.684082 168.0
1019.287659 200.0
1019.459229 224.0
1020.50177 120.0
1020.79425 136.0
1021.430298 204.0
1022.225647 212.0
1022.365601 188.0
1022.582031 60.0
1023.657959 180.0
1023.747131 132.0
1023.791687 256.0
1023.976379 188.0
1024.747192 168.0
1025.110474 136.0
1025.747803 172.0
1026.123901 224.0
1026.933838 160.0
1027.259155 240.0
1027.673828 180.0
1028.190796 164.0
1028.324097 176.0
1028.618408 204.0
1029.05896 204.0
1029.333984 160.0
1030.649414 192.0
1031.672119 72.0
1031.819092 196.0
1032.074951 176.0
1032.202759 152.0
1032.522583 188.0
1032.708008 136.0
1033.213379 196.0
1033.64856 204.0
1033.962036 256.0
1034.233643 216.0
1034.840332 60.0
1034.890381 124.0
1034.986328 204.0
1035.298706 192.0
1035.864258 196.0
1036.299438 216.0
1037.619873 112.0
1037.690308 136.0
1038.068726 152.0
1038.248291 216.0
1038.434204 172.0
1039.210449 392.0
1039.422241 188.0
1039.672485 188.0
1039.781616 100.0
1039.935669 32.0
1040.031982 228.0
1040.256592 192.0
1040.449219 208.0
1040.866577 116.0
1041.602417 204.0
1041.791504 160.0
1041.886841 156.0
1041.899536 132.0
1042.00354 128.0
1042.054932 72.0
1042.434082 136.0
1042.479004 144.0
1042.781128 148.0
1043.333984 148.0
1043.790405 168.0
1044.24707 188.0
1044.427124 120.0
1045.244263 136.0
1045.456665 172.0
1046.113159 128.0
1046.280518 132.0
1046.897583 132.0
1047.182129 196.0
1047.317383 156.0
1048.348267 132.0
1048.921875 124.0
1049.405396 156.0
1049.695557 164.0
1049.811646 144.0
1050.205078 128.0
1051.088989 128.0
1051.553589 80.0
1051.706909 160.0
1051.857056 176.0
1052.593018 144.0
1052.651123 168.0
1052.709351 164.0
1053.05835 188.0
1053.594238 164.0
1054.169312 216.0
1054.363159 136.0
1054.427856 104.0
1055.908447 208.0
1055.979614 128.0
1056.147705 184.0
1056.852905 172.0
1056.949951 164.0
1057.059937 60.0
1057.681274 168.0
1057.875488 52.0
1058.128052 108.0
1058.257568 156.0
1058.386963 160.0
1058.730225 252.0
1059.125366 124.0
1059.293701 216.0
1059.624146 228.0
1059.883301 72.0
1060.05188 184.0
1060.174927 176.0
1060.375854 68.0
1060.596313 156.0
1060.764771 88.0
1061.192749 108.0
1061.452026 96.0
1061.555786 160.0
1062.444458 204.0
1063.372437 368.0
1063.489258 52.0
1063.560669 188.0
1063.768433 164.0
1064.054077 204.0
1064.352783 132.0
1064.443604 140.0
1064.703369 176.0
1064.888184 208.0
1065.047607 228.0
1065.249023 176.0
1065.651855 260.0
1065.716797 196.0
1065.983276 180.0
1066.13269 96.0
1066.275635 208.0
1066.529175 192.0
1066.854248 128.0
1067.12085 152.0
1067.400391 172.0
1067.552734 160.0
1067.979248 172.0
1068.109375 180.0
1068.519165 36.0
1069.462769 144.0
1070.810669 160.0
1071.357788 172.0
1071.409912 64.0
1071.592407 140.0
1071.826172 188.0
1071.89856 144.0
1072.452637 168.0
1072.73938 124.0
1073.476196 164.0
1073.776245 152.0
1074.13501 148.0
1074.213257 152.0
1074.957031 96.0
1075.146362 152.0
1075.387817 120.0
1076.987549 176.0
1077.601685 212.0
1078.032959 44.0
1078.170166 124.0
1078.231323 244.0
1078.398926 188.0
1078.453613 172.0
1078.51001 168.0
1079.490723 196.0
1079.673828 152.0
1079.935547 156.0
1080.066284 152.0
1080.151367 116.0
1080.262573 204.0
1080.530762 140.0
1080.779419 176.0
1081.257202 32.0
1081.676147 184.0
1081.833252 104.0
1081.89209 116.0
1082.055786 176.0
1082.324219 148.0
1082.887451 172.0
1083.496704 192.0
1083.686768 128.0
1083.968506 68.0
1084.484131 152.0
1084.748413 208.0
1084.963379 236.0
1085.286011 168.0
1085.731934 132.0
1086.197632 140.0
1086.335449 168.0
1086.414185 36.0
1086.578247 144.0
1086.768433 176.0
1087.359131 96.0
1087.418213 64.0
1087.713501 132.0
1087.831665 60.0
1087.99585 172.0
1088.47522 216.0
1088.652466 144.0
1088.994019 160.0
1089.059692 128.0
1089.289551 148.0
1089.61145 188.0
1089.762573 128.0
1089.904419 104.0
1090.064941 60.0
1090.715576 152.0
1092.728027 196.0
1092.866211 124.0
1093.050415 120.0
1093.247803 148.0
1093.372925 256.0
1093.432129 224.0
1093.570312 164.0
1094.143066 124.0
1094.623779 164.0
1095.420654 228.0
1095.55249 140.0
1095.697388 164.0
1096.257446 164.0
1096.888428 204.0
1097.022095 240.0
1097.417725 116.0
1097.852905 172.0
1098.063965 224.0
1098.182617 172.0
1098.565308 212.0
1098.61145 152.0
1098.723633 180.0
1099.000732 40.0
1099.720093 140.0
1099.944458 184.0
1100.08313 76.0
1100.328735 156.0
1100.796265 148.0
1101.067017 208.0
1101.410034 140.0
1101.707764 192.0
1101.972046 92.0
1102.044678 144.0
1102.117432 176.0
1102.421387 220.0
1102.528564 132.0
1102.65271 92.0
1102.725342 48.0
1103.211914 180.0
1103.267456 188.0
1103.310791 208.0
1103.459229 80.0
1103.640991 132.0
1103.763306 216.0
1103.988159 64.0
1104.563599 108.0
1104.642944 144.0
1104.695923 132.0
1104.862427 164.0
1104.973755 440.0
1105.19873 136.0
1105.350952 184.0
1105.476685 152.0
1106.674805 200.0
1107.072144 152.0
1107.317261 148.0
1107.747803 220.0
1107.867065 232.0
1108.807983 172.0
1108.953735 236.0
1109.026733 108.0
1109.245483 144.0
1109.722778 216.0
1109.842163 160.0
1110.312988 172.0
1110.956421 148.0
1111.055908 128.0
1111.241699 220.0
1111.453979 184.0
1111.633179 84.0
1111.808716 108.0
1111.935547 200.0
1112.436401 236.0
1112.801514 200.0
1113.120239 120.0
1113.365967 156.0
1113.605103 172.0
1113.658203 152.0
1114.7677 320.0
1114.887329 180.0
1114.946411 188.0
1115.439087 196.0
1115.518799 184.0
1115.631836 128.0
1115.698242 156.0
1115.93103 124.0
1116.099854 156.0
1116.118774 204.0
1116.40979 152.0
1116.536133 200.0
1116.768921 84.0
1116.901978 132.0
1117.05188 192.0
1117.545532 148.0
1117.979858 184.0
1118.053101 112.0
1118.30603 212.0
1118.592163 80.0
1118.991699 164.0
1119.044556 164.0
1119.331299 156.0
1119.424438 192.0
1119.5177 176.0
1119.875977 204.0
1120.150513 200.0
1120.643555 260.0
1120.760254 188.0
1120.808228 172.0
1121.116577 84.0
1121.263306 156.0
1121.336548 228.0
1121.409912 144.0
1121.863159 160.0
1122.149902 128.0
1122.203247 132.0
1122.423218 172.0
1122.572144 192.0
1122.843384 160.0
1123.037842 204.0
1123.283691 144.0
1123.710571 160.0
1123.817383 140.0
1123.904175 188.0
1124.644897 184.0
1125.212402 212.0
1125.512817 200.0
1125.657227 212.0
1125.753296 180.0
1126.020386 212.0
1126.22168 196.0
1126.300903 128.0
1126.528076 208.0
1126.831543 196.0
1127.149414 56.0
1127.436768 200.0
1127.77771 148.0
1128.138672 196.0
1128.299072 108.0
1128.399414 204.0
1128.717651 240.0
1129.362427 188.0
1129.676758 192.0
1129.877441 104.0
1129.957764 144.0
1130.145142 228.0
1130.379395 228.0
1130.653687 132.0
1130.828735 208.0
1131.209351 144.0
1132.012817 168.0
1132.44812 184.0
1132.749512 248.0
1132.821899 60.0
1133.02417 40.0
1133.251953 224.0
1133.305664 116.0
1133.471924 224.0
1133.908691 244.0
1134.062866 156.0
1134.470947 148.0
1134.66626 192.0
1134.726562 236.0
1135.326904 224.0
1135.437378 136.0
1136.045898 204.0
1136.202148 76.0
1136.638306 144.0
1136.826172 140.0
1137.047607 116.0
1137.195312 224.0
1137.349731 144.0
1137.678589 96.0
1137.833008 144.0
1138.079712 120.0
1138.20166 208.0
1138.437378 144.0
1138.598511 204.0
1138.685913 176.0
1138.914307 72.0
1139.908569 148.0
1140.110229 156.0
1140.237915 164.0
1140.284912 208.0
1140.647949 56.0
1140.836182 92.0
1141.004272 184.0
1141.521973 168.0
1141.703491 188.0
1142.127319 184.0
1142.241699 152.0
1142.389648 256.0
1143.150024 184.0
1143.210571 128.0
1143.957764 148.0
1144.112549 220.0
1144.240479 120.0
1144.314575 196.0
1144.689331 208.0
1145.088989 168.0
1145.680176 208.0
1146.375732 148.0
1146.49707 72.0
1146.672363 132.0
1147.016113 136.0
1147.582397 184.0
1147.656616 180.0
1147.744263 188.0
1148.020752 144.0
1148.101685 176.0
1148.338989 164.0
1148.560303 44.0
1148.675049 172.0
1148.762695 76.0
1148.870605 180.0
1149.275513 88.0
1149.612671 184.0
1149.637573 180.0
1149.849121 152.0
1149.903076 156.0
1150.017822 200.0
1150.078613 192.0
1150.321533 220.0
1150.532227 224.0
1150.828003 128.0
1150.942749 152.0
1151.147217 208.0
1151.4198 148.0
1152.401733 164.0
1152.773438 188.0
1152.922119 144.0
1153.375 124.0
1153.449341 236.0
1154.034424 156.0
1154.224609 252.0
1154.362061 120.0
1154.646118 64.0
1154.740845 172.0
1154.923462 140.0
1154.991089 216.0
1155.146606 152.0
1155.620239 104.0
1155.679199 196.0
1156.263184 192.0
1156.418823 176.0
1156.90625 164.0
1157.088989 116.0
1157.420776 180.0
1157.69165 132.0
1157.761841 180.0
1157.901611 212.0
1158.064209 108.0
1158.477417 196.0
1158.694214 204.0
1158.99231 76.0
1159.053345 144.0
1160.259766 92.0
1160.592041 144.0
1160.788696 156.0
1160.944092 148.0
1161.032837 48.0
1161.114258 92.0
1161.243042 144.0
1161.365112 224.0
1161.419434 124.0
1161.846802 160.0
1162.091064 180.0
1162.179321 136.0
1162.620361 96.0
1163.027588 152.0
1163.129395 172.0
1163.183716 136.0
1163.31543 256.0
1163.463623 144.0
1163.714966 224.0
1164.406006 116.0
1165.010498 208.0
1165.366455 384.0
1165.540527 196.0
1165.763672 208.0
1165.832764 160.0
1165.941406 168.0
1166.349243 164.0
1166.464844 128.0
1167.117554 212.0
1167.212769 212.0
1167.824829 124.0
1168.355469 104.0
1168.477905 148.0
1168.661621 140.0
1169.471436 144.0
1169.519165 44.0
1169.716553 156.0
1170.553955 208.0
1170.771851 216.0
1170.942139 164.0
1170.996704 348.0
1171.119263 152.0
1171.418945 244.0
1171.970825 180.0
1172.195679 112.0
1172.413818 152.0
1172.570557 100.0
1172.856812 120.0
1173.150024 172.0
1173.313599 212.0
1173.470459 184.0
1173.674927 100.0
1173.859985 144.0
1174.206909 152.0
1174.466064 156.0
1174.841309 140.0
1175.537231 168.0
1175.830688 128.0
1175.892212 216.0
1176.062744 68.0
1176.178833 152.0
1176.356323 140.0
1176.45874 124.0
1176.711304 144.0
1177.13147 156.0
1177.448853 64.0
1177.838135 124.0
1178.407715 188.0
1178.80835 128.0
1179.307373 132.0
1179.436768 136.0
1179.635376 192.0
1179.785889 160.0
1180.223389 152.0
1180.838867 192.0
1180.985352 448.0
1181.215088 180.0
1181.358765 52.0
1181.69397 148.0
1181.776489 168.0
1181.878784 188.0
1181.995117 328.0
1182.542603 204.0
1182.658936 204.0
1182.807983 268.0
1183.021729 152.0
1183.33667 108.0
1183.521606 184.0
1183.672241 152.0
1183.754395 52.0
1183.822876 64.0
1183.987305 128.0
1184.144775 148.0
1184.206421 148.0
1185.062744 144.0
1185.172363 216.0
1185.87146 72.0
1186.447754 212.0
1186.755859 148.0
1186.940918 200.0
1186.988892 196.0
1187.307739 232.0
1187.47583 152.0
1187.742798 256.0
1188.093262 96.0
1188.226685 192.0
1188.429443 128.0
1188.504883 180.0
1188.834351 196.0
1188.916626 172.0
1189.15686 136.0
1189.232422 208.0
1189.369629 152.0
1189.452026 184.0
1189.637451 176.0
1189.767822 144.0
1190.37207 184.0
1190.502563 176.0
1190.955933 120.0
1191.120728 192.0
1191.422974 212.0
1191.821533 56.0
1192.000244 136.0
1192.096436 64.0
1192.40564 156.0
1192.761108 256.0
1193.079346 224.0
1193.361206 272.0
1193.442993 172.0
1193.773804 128.0
1193.842529 204.0
1193.980103 184.0
1194.213989 232.0
1194.365356 308.0
1194.479492 232.0
1194.633545 172.0
1194.757446 188.0
1194.901978 156.0
1194.991333 80.0
1195.129028 212.0
1195.184082 192.0
1195.775879 48.0
1195.980713 180.0
1196.347168 232.0
1196.567505 156.0
1196.634399 212.0
1196.81543 140.0
1196.891113 52.0
1197.187256 116.0
1197.290527 116.0
1197.538574 160.0
1197.654785 188.0
1197.889893 92.0
1198.020752 212.0
1198.158569 164.0
1198.442017 160.0
1198.888916 136.0
1199.095703 164.0
1199.330078 168.0
1199.615967 188.0
1200.253906 184.0
1200.364258 280.0
1200.536621 164.0
1201.040161 152.0
1201.241211 192.0
1201.302246 148.0
1201.405762 208.0
1201.674805 28.0
1201.819702 204.0
1202.31665 140.0
1202.792847 156.0
1202.927246 324.0
1203.239014 188.0
1204.401733 164.0
1204.470825 124.0
1204.712646 136.0
1204.77124 208.0
1205.016602 116.0
1205.134155 116.0
1206.239868 132.0
1206.315186 168.0
1206.481934 180.0
1206.730835 184.0
1206.813721 156.0
1207.207886 176.0
1207.376587 184.0
1208.411133 144.0
1208.473755 140.0
1209.331909 172.0
1210.031128 84.0
1210.626709 256.0
1210.792847 172.0
1210.924438 200.0
1211.707275 200.0
1211.942871 132.0
1212.178467 52.0
1212.282349 180.0
1212.86499 212.0
1213.406616 132.0
1213.557861 76.0
1213.814453 140.0
1214.133423 104.0
1214.223633 200.0
1214.383179 176.0
1214.494141 152.0
1214.924194 172.0
1215.14624 188.0
1215.531006 152.0
1215.642334 140.0
1216.47876 112.0
1216.700928 300.0
1216.81897 120.0
1217.15918 212.0
1217.548096 152.0
1217.728638 172.0
1217.902344 192.0
1218.159302 136.0
1218.249634 140.0
1218.513672 156.0
1218.602051 200.0
1218.861084 44.0
1218.951416 140.0
1219.285034 156.0
1219.354492 260.0
1219.618652 184.0
1219.987061 220.0
1220.153931 184.0
1220.452881 100.0
1220.536377 60.0
1220.633667 72.0
1221.231812 160.0
1221.44751 164.0
1221.544922 132.0
1222.198853 200.0
1222.762573 212.0
1223.089722 236.0
1223.256836 132.0
1223.52832 56.0
1223.911255 188.0
1224.036621 164.0
1224.106201 180.0
1224.489258 108.0
1224.767944 172.0
1224.997803 160.0
1225.262451 132.0
1225.457642 144.0
1225.778076 52.0
1225.938477 140.0
1226.00769 152.0
1226.098755 196.0
1226.328735 204.0
1227.234985 196.0
1228.034912 160.0
1228.260254 72.0
1229.325317 180.0
1229.509155 124.0
1229.599976 144.0
1229.851196 28.0
1230.214233 192.0
1230.476318 168.0
1230.584229 104.0
1231.003174 212.0
1231.575928 188.0
1231.813477 132.0
1233.113159 172.0
1234.252686 136.0
1234.322632 140.0
1234.560303 140.0
1235.021973 132.0
1235.259766 204.0
1235.504639 180.0
1236.197388 200.0
1236.610352 160.0
1236.87085 160.0
1237.394409 144.0
1237.55957 232.0
1237.61145 168.0
1237.863525 156.0
1237.943359 212.0
1238.283691 144.0
1238.395752 172.0
1238.521851 136.0
1238.577881 60.0
1239.047241 188.0
1239.285522 140.0
1239.586792 140.0
1240.540039 164.0
1240.673218 164.0
1240.852051 184.0
1241.093994 184.0
1241.858398 216.0
1241.907471 108.0
1242.125 196.0
1242.475708 200.0
1242.74939 40.0
1242.859131 192.0
1242.959839 308.0
1243.167725 252.0
1243.626587 148.0
1243.970581 96.0
1244.125 112.0
1244.911499 156.0
1245.093994 140.0
1245.431152 116.0
1245.556519 128.0
1245.803467 180.0
1245.963989 208.0
1246.534302 180.0
1246.723999 68.0
1246.787231 176.0
1246.836426 120.0
1246.8927 156.0
1247.117554 196.0
1247.820557 180.0
1248.136963 96.0
1248.291382 168.0
1248.769897 152.0
1248.952881 124.0
1249.009155 128.0
1249.227173 180.0
1249.515625 68.0
1249.607056 176.0
1249.663452 208.0
1249.712646 180.0
1249.846313 132.0
1249.995361 156.0
1250.578247 160.0
1250.983398 184.0
1251.050537 236.0
1251.300659 156.0
1251.71875 104.0
1251.97229 180.0
1252.155396 144.0
1252.22583 136.0
1252.50061 108.0
1252.676758 188.0
1253.000732 164.0
1253.113525 176.0
1253.282593 172.0
1253.486938 152.0
1253.691284 128.0
1253.740723 160.0
1253.84082 152.0
1254.050781 204.0
1254.136841 56.0
1254.55127 212.0
1254.678223 352.0
1255.122437 144.0
1255.390381 120.0
1255.474976 56.0
1256.907104 148.0
1257.683472 196.0
1257.838867 156.0
1257.94458 120.0
1258.029297 152.0
1258.80603 92.0
1258.897827 120.0
1259.067261 204.0
1259.194458 148.0
1260.23291 64.0
1260.409546 160.0
1260.565063 200.0
1261.759644 88.0
1261.929321 136.0
1262.077759 172.0
1262.636475 124.0
1262.763794 136.0
1263.124512 140.0
1263.273071 152.0
1263.803711 160.0
1264.051392 40.0
1264.617554 176.0
1264.752075 144.0
1264.828979 204.0
1265.212158 236.0
1265.304199 188.0
1265.534546 172.0
1265.601685 136.0
1265.771606 124.0
1265.8302 128.0
1265.998169 128.0
1266.154053 224.0
1267.046509 144.0
1267.166992 48.0
1267.48584 172.0
1267.578003 136.0
1267.857544 188.0
1268.017334 124.0
1268.2229 248.0
1268.605713 136.0
1269.49292 384.0
1269.640991 132.0
1269.824341 156.0
1269.960205 128.0
1270.172974 80.0
1270.513428 212.0
1270.676636 36.0
1270.974731 216.0
1271.137939 44.0
1271.705688 176.0
1271.847656 172.0
1272.160034 124.0
1272.230957 100.0
1272.28064 200.0
1272.585938 140.0
1273.289062 120.0
1273.381348 212.0
1273.928345 144.0
1274.464966 152.0
1274.532227 204.0
1274.944458 140.0
1276.444458 152.0
1276.515503 176.0
1276.771606 148.0
1277.027588 216.0
1277.112915 144.0
1277.340576 196.0
1277.468628 176.0
1277.575317 116.0
1277.646484 168.0
1278.009399 200.0
1278.073364 188.0
1278.294067 124.0
1279.076904 208.0
1279.126709 148.0
1279.31189 168.0
1279.475586 188.0
1279.710571 156.0
1280.451172 232.0
1280.600708 112.0
1280.828735 156.0
1280.978271 264.0
1281.049561 160.0
1281.206299 192.0
1281.32019 100.0
1281.633789 208.0
1281.781006 200.0
1281.954468 220.0
1282.039917 56.0
1282.175415 184.0
1282.489014 156.0
1282.610107 84.0
1282.731323 144.0
1282.802612 144.0
1283.087769 132.0
1283.265991 168.0
1283.55127 184.0
1283.893555 228.0
1284.014771 212.0
1284.545654 144.0
1285.199097 76.0
1285.363159 148.0
1285.455933 196.0
1285.534424 212.0
1285.698608 124.0
1285.798462 180.0
1286.295166 148.0
1286.44812 168.0
1287.033569 152.0
1287.326294 184.0
1287.42627 92.0
1287.604858 68.0
1287.829956 196.0
1288.169189 132.0
1288.240601 148.0
1288.340576 152.0
1288.415894 148.0
1288.590698 200.0
1288.897949 180.0
1289.119507 184.0
1289.355347 48.0
1289.412476 160.0
1289.712646 192.0
1289.762695 132.0
1289.835815 224.0
1290.334595 176.0
1290.792236 196.0
1290.885254 156.0
1291.350098 224.0
1291.614746 128.0
1291.700562 48.0
1291.800781 168.0
1291.886597 132.0
1292.001099 192.0
1292.144165 176.0
1292.225952 128.0
1292.423218 172.0
1292.516235 176.0
1292.666504 68.0
1292.916992 156.0
1293.038696 196.0
1293.353638 220.0
1293.575562 156.0
1293.711548 48.0
1294.019409 164.0
1294.155396 44.0
1294.248535 200.0
1294.341675 200.0
1295.093628 232.0
1295.338013 156.0
1295.366455 96.0
1295.397461 164.0
1295.716919 164.0
1295.824341 128.0
1296.060791 104.0
1296.275757 120.0
1296.440552 64.0
1296.512329 152.0
1296.598267 208.0
1297.236206 64.0
1297.537354 236.0
1297.65918 88.0
1298.067993 176.0
1298.125366 144.0
1298.390625 148.0
1298.54126 208.0
1298.627319 152.0
1298.856934 180.0
1299.014771 188.0
1299.222778 140.0
1299.473877 116.0
1299.839844 180.0
1301.196533 136.0
1301.383179 208.0
1301.498047 164.0
1302.072021 156.0
1302.180298 160.0
1302.295166 208.0
1302.475708 200.0
1302.826782 132.0
1302.877075 244.0
1303.193237 172.0
1303.653076 160.0
1303.768066 100.0
1303.96936 224.0
1304.127441 180.0
1304.290405 128.0
1305.579834 196.0
1306.263184 160.0
1306.320679 168.0
1306.738037 232.0
1306.903442 148.0
1307.356812 152.0
1307.492554 140.0
1307.644775 140.0
1307.759888 136.0
1307.903931 148.0
1308.537354 128.0
1308.782227 216.0
1308.991089 220.0
1309.307861 144.0
1309.725708 256.0
1309.826538 132.0
1310.172363 144.0
1310.258789 244.0
1310.770386 148.0
1311.42627 128.0
1311.90918 252.0
1312.168701 128.0
1312.29126 224.0
1312.377808 216.0
1312.550903 176.0
1312.615845 112.0
1313.084595 132.0
1313.25769 180.0
1313.547363 148.0
1313.99353 100.0
1314.484619 196.0
1314.787231 212.0
1315.003784 164.0
1315.146362 204.0
1316.050659 124.0
1316.202271 132.0
1316.263672 144.0
1316.353882 160.0
1316.888306 180.0
1317.112305 168.0
1317.220581 204.0
1317.432129 168.0
1317.581787 68.0
1317.827515 176.0
1318.036987 304.0
1318.304443 156.0
1318.527588 204.0
1318.817627 228.0
1319.456787 48.0
1319.721313 116.0
1320.0177 180.0
1320.335938 96.0
1320.589111 204.0
1321.305298 180.0
1321.399292 164.0
1321.8479 204.0
1321.89856 200.0
1321.976196 196.0
1322.371338 200.0
1322.571777 156.0
1322.774414 148.0
1323.056763 236.0
1323.353638 56.0
1323.498413 88.0
1323.69397 160.0
1324.150146 160.0
1324.215332 280.0
1324.374756 164.0
1324.468872 148.0
1324.570312 148.0
1324.874634 164.0
1325.780396 132.0
1325.857544 152.0
1326.319458 216.0
1326.773438 96.0
1326.931274 192.0
1327.04895 128.0
1327.382446 172.0
1327.46582 148.0
1327.752319 44.0
1328.168945 192.0
1328.223755 144.0
1328.296387 104.0
1328.528442 144.0
1328.942017 152.0
1329.275879 116.0
1329.537109 132.0
1329.667725 152.0
1329.791138 228.0
1329.856445 184.0
1330.023438 224.0
1330.226685 160.0
1330.480713 124.0
1330.685059 148.0
1331.294067 120.0
1331.46106 156.0
1331.599121 160.0
1331.96228 120.0
1332.114746 152.0
1332.252808 192.0
1332.332764 44.0
1332.435913 184.0
1332.543457 28.0
1332.81958 228.0
1332.899536 208.0
1332.964844 212.0
1333.533325 152.0
1333.604492 216.0
1333.82251 200.0
1333.967896 44.0
1334.178711 144.0
1334.300659 216.0
1334.329346 164.0
1334.891357 168.0
1335.058594 140.0
1335.429565 156.0
1335.69873 80.0
1335.928223 152.0
1336.047852 152.0
1336.586304 176.0
1336.702759 160.0
1336.840942 140.0
1337.583374 212.0
1337.86731 136.0
1338.209473 156.0
1338.577515 128.0
1338.661011 80.0
1338.762939 72.0
1338.8396 256.0
1339.032471 176.0
1339.412964 64.0
1339.775391 140.0
1339.870117 180.0
1340.802856 128.0
1340.861206 204.0
1340.948608 156.0
1341.589111 144.0
1342.282227 244.0
1342.302979 224.0
1342.453857 156.0
1342.62561 152.0
1342.771484 200.0
1343.026733 172.0
1343.566528 132.0
1343.749023 108.0
1343.851074 240.0
1343.909546 148.0
1344.493286 148.0
1344.755981 104.0
1345.03186 224.0
1345.325439 180.0
1345.383789 128.0
1345.595581 84.0
1345.687744 152.0
1345.730835 204.0
1346.143188 204.0
1346.223511 196.0
1347.157837 172.0
1347.472656 172.0
1347.531128 176.0
1348.159546 180.0
1348.522827 232.0
1348.700439 200.0
1348.79541 40.0
1348.914551 136.0
1349.022095 76.0
1349.146362 216.0
1349.9375 180.0
1350.272461 232.0
1350.360229 324.0
1350.477295 144.0
1350.57959 160.0
1350.689331 192.0
1351.069824 232.0
1351.384399 140.0
1351.581909 228.0
1351.859985 180.0
1351.999146 208.0
1352.060059 256.0
1352.112671 176.0
1352.584595 160.0
1353.184937 164.0
1353.55542 268.0
1353.83667 112.0
1353.990479 144.0
1354.283203 196.0
1354.525146 36.0
1354.898804 156.0
1355.03064 144.0
1355.221191 232.0
1355.276489 160.0
1355.398682 208.0
1355.866089 200.0
1356.041992 116.0
1356.188599 260.0
1356.44519 64.0
1356.49646 240.0
1356.657715 148.0
1356.738403 88.0
1356.943726 108.0
1357.232056 224.0
1357.302979 56.0
1357.493652 84.0
1357.706299 136.0
1358.029053 164.0
1358.161011 164.0
1358.373047 168.0
1359.063477 136.0
1359.305664 168.0
1359.518433 200.0
1359.907471 120.0
1360.127686 156.0
1360.20105 188.0
1360.421265 136.0
1360.487305 168.0
1360.626831 164.0
1360.685547 152.0
1360.736938 32.0
1360.876465 164.0
1361.133545 144.0
1361.243652 168.0
1361.331787 188.0
1362.183838 68.0
1362.263916 160.0
1362.371338 152.0
1362.631958 124.0
1362.749512 244.0
1362.962646 60.0
1363.24646 184.0
1363.271606 160.0
1363.287109 192.0
1363.528442 164.0
1363.638672 48.0
1364.1604 180.0
1364.307617 284.0
1364.587036 200.0
1365.141479 232.0
1365.219482 140.0
1365.432739 136.0
1365.88147 140.0
1365.991699 204.0
1366.05127 176.0
1366.212402 140.0
1366.322754 132.0
1366.469971 168.0
1366.545654 180.0
1366.642456 256.0
1366.727539 192.0
1367.227905 124.0
1367.342529 180.0
1367.470825 168.0
1367.750488 100.0
1368.074463 228.0
1368.229004 232.0
1368.324707 228.0
1368.494141 84.0
1368.670776 48.0
1368.810669 176.0
1368.941406 156.0
1369.134766 108.0
1370.210205 144.0
1370.40918 156.0
1370.56543 224.0
1370.64502 124.0
1370.821777 192.0
1371.046143 180.0
1371.256714 200.0
1371.956909 148.0
1372.015869 160.0
1372.074951 160.0
1372.738525 212.0
1373.365479 72.0
1373.704834 272.0
1373.852295 192.0
1373.933472 92.0
1374.8927 160.0
1374.966553 176.0
1375.381592 192.0
1375.550049 140.0
1375.64563 168.0
1376.29541 52.0
1376.413574 156.0
1376.59082 176.0
1376.731079 164.0
1376.790161 124.0
1377.203735 148.0
1377.277588 176.0
1377.676514 136.0
1377.816895 176.0
1377.92041 296.0
1378.113281 196.0
1378.40979 200.0
1378.48938 172.0
1379.043701 132.0
1379.213623 180.0
1379.336304 244.0
1379.450195 172.0
1379.716309 140.0
1379.930786 236.0
1380.115601 196.0
1380.411377 152.0
1380.638062 148.0
1381.032715 300.0
1381.084473 128.0
1381.151001 168.0
1381.210205 136.0
1381.498657 176.0
1381.82373 160.0
1382.290405 84.0
1382.394043 96.0
1382.468018 184.0
1382.749268 188.0
1383.424561 220.0
1383.519165 216.0
1383.807861 124.0
1383.904175 172.0
1383.963379 160.0
1384.081787 180.0
1384.215088 164.0
1384.511353 152.0
1384.71875 64.0
1384.777954 128.0
1384.829834 144.0
1384.992798 120.0
1385.385376 160.0
1385.474365 164.0
1385.637329 160.0
1386.319092 144.0
1387.245605 72.0
1387.30481 144.0
1387.556885 176.0
1388.23584 172.0
1389.366577 120.0
1389.574341 136.0
1389.66333 148.0
1390.206177 368.0
1390.278442 240.0
1390.405518 156.0
1390.47229 176.0
1390.798828 192.0
1390.873047 172.0
1390.947266 260.0
1391.043823 260.0
1391.280518 216.0
1391.417114 168.0
1391.489258 208.0
1391.548706 200.0
1391.957031 56.0
1392.261719 172.0
1392.336182 176.0
1392.558594 204.0
1392.640381 164.0
1392.744385 140.0
1392.863159 112.0
1393.271851 152.0
1393.704468 224.0
1394.237793 136.0
1394.341797 208.0
1394.490479 200.0
1394.763306 176.0
1395.181885 208.0
1395.285889 196.0
1395.375122 172.0
1395.422241 128.0
1396.252563 152.0
1396.425537 188.0
1396.877441 164.0
1397.525391 172.0
1397.71814 184.0
1397.971191 176.0
1398.246582 144.0
1398.529419 128.0
1398.598511 160.0
1398.700562 132.0
1398.775024 220.0
1399.154785 116.0
1399.385498 184.0
1399.4823 152.0
1400.16748 240.0
1400.837891 352.0
1401.433838 228.0
1401.731934 132.0
1401.813965 156.0
1402.56665 176.0
1402.646851 156.0
1402.708374 180.0
1403.983398 168.0
1404.125122 172.0
1404.212646 168.0
1404.309204 136.0
1404.647217 176.0
1404.796387 192.0
1404.856079 212.0
1405.094849 128.0
1405.646973 216.0
1405.900757 228.0
1406.035034 228.0
1406.311279 152.0
1406.584106 192.0
1406.766602 172.0
1407.0354 104.0
1407.087646 196.0
1407.77124 220.0
1408.043457 156.0
1408.155518 188.0
1408.499146 156.0
1408.94165 136.0
1409.485352 44.0
1409.716919 184.0
1409.859009 160.0
1410.52417 176.0
1410.830688 232.0
1411.339111 164.0
1411.406372 112.0
1411.638184 144.0
1411.765381 200.0
1412.072021 60.0
1412.356201 132.0
1412.52832 156.0
1413.186646 136.0
1413.405273 184.0
1413.807739 180.0
1414.297852 200.0
1414.628174 212.0
1414.698486 200.0
1414.945557 180.0
1415.06543 160.0
1415.225342 216.0
1415.552124 124.0
1415.740479 208.0
1416.091919 220.0
1416.226196 120.0
1416.787964 188.0
1416.982788 108.0
1417.134033 248.0
1417.342529 180.0
1417.432373 180.0
1417.949463 148.0
1418.129395 140.0
1418.241821 184.0
1419.141479 204.0
1419.313965 164.0
1419.373901 220.0
1419.681396 208.0
1419.943848 232.0
1420.068359 164.0
1420.311401 84.0
1420.461426 252.0
1420.513916 168.0
1420.634033 40.0
1420.69397 108.0
1421.496826 156.0
1421.909668 136.0
1422.217407 124.0
1422.465088 152.0
1422.697876 140.0
1422.863037 220.0
1422.983154 160.0
1423.312744 148.0
1423.452759 144.0
1423.546265 136.0
1423.90686 160.0
1424.061035 192.0
1424.184692 204.0
1424.440063 220.0
1424.758423 192.0
1424.988525 228.0
1425.153809 188.0
1425.284058 172.0
1425.511841 152.0
1425.73999 180.0
1425.800171 108.0
1426.085693 196.0
1426.273682 144.0
1426.657104 224.0
1427.303711 148.0
1427.769897 72.0
1427.942871 196.0
1428.28894 136.0
1428.492065 180.0
1428.657593 204.0
1428.800537 68.0
1428.875732 140.0
1429.026245 168.0
1429.67334 132.0
1429.763672 188.0
1429.906738 136.0
1430.102417 84.0
1430.328247 144.0
1430.418579 228.0
1430.53894 156.0
1430.666992 168.0
1430.772339 168.0
1431.137085 400.0
1431.773926 160.0
1431.886841 76.0
1432.082642 188.0
1432.173096 116.0
1432.707886 132.0
1432.813354 132.0
1432.893433 204.0
1433.054565 204.0
1433.229004 188.0
1433.333374 148.0
1433.386108 152.0
1433.566895 168.0
1433.627197 160.0
1433.732788 128.0
1433.800537 356.0
1433.89856 156.0
1434.019165 124.0
1434.260376 220.0
1434.328247 200.0
1434.408325 176.0
1434.569458 112.0
1434.953979 176.0
1435.194702 180.0
1435.41394 128.0
1435.617554 152.0
1436.039917 168.0
1436.145508 120.0
1436.228394 152.0
1436.315552 200.0
1436.422485 264.0
1436.442139 192.0
1436.590576 56.0
1436.663452 240.0
1436.839478 240.0
1436.914917 148.0
1437.148804 160.0
1437.439819 184.0
1437.669556 128.0
1437.797852 176.0
1437.865723 176.0
1437.982666 172.0
1438.084717 208.0
1438.363892 168.0
1438.551758 176.0
1438.628174 208.0
1438.809326 200.0
1438.892456 204.0
1439.013184 128.0
1439.216797 192.0
1439.29895 176.0
1439.594604 164.0
1439.655029 132.0
1439.730591 140.0
1439.798584 68.0
1439.896729 84.0
1439.993042 220.0
1440.191284 148.0
1440.251709 188.0
1440.909058 168.0
1441.128174 156.0
1441.400146 152.0
1441.68042 192.0
1441.755371 148.0
1441.823364 52.0
1442.140869 64.0
1443.000977 176.0
1443.244629 128.0
1443.373169 180.0
1443.607544 164.0
1444.515259 408.0
1444.583252 232.0
1444.784302 220.0
1445.09021 228.0
1445.370239 140.0
1445.604736 184.0
1445.869629 140.0
1445.998291 148.0
1446.323853 184.0
1446.407104 144.0
1446.588745 188.0
1446.641724 80.0
1447.482178 144.0
1447.700317 212.0
1447.868408 152.0
1448.269897 96.0
1448.625854 124.0
1448.74707 204.0
1449.004639 128.0
1449.141113 212.0
1449.671509 208.0
1449.762451 184.0
1449.853394 76.0
1450.217163 184.0
1450.527954 188.0
1450.81604 56.0
1450.944946 192.0
1451.058716 152.0
1451.339233 96.0
1451.506226 164.0
1452.097656 148.0
1452.385864 224.0
1452.454102 144.0
1452.522339 192.0
1452.768555 200.0
1453.622559 168.0
1453.827393 156.0
1454.351196 180.0
1454.511597 148.0
1454.807251 216.0
1455.345703 164.0
1455.649414 176.0
1456.036743 148.0
1456.105103 176.0
1456.189209 172.0
1456.796387 180.0
1457.065796 204.0
1457.183105 188.0
1457.761353 112.0
1457.860107 232.0
1458.110962 184.0
1458.194824 340.0
1458.262939 80.0
1458.46814 244.0
1458.985107 116.0
1459.045898 176.0
1459.266479 184.0
1459.791138 132.0
1459.927979 160.0
1460.102905 260.0
1460.376709 160.0
1460.810303 164.0
1461.107056 228.0
1461.350464 212.0
1461.70813 180.0
1462.202881 160.0
1462.256104 184.0
1462.583374 236.0
1462.811768 140.0
1462.97168 184.0
1463.710205 144.0
1463.793945 148.0
1464.098633 204.0
1464.276367 240.0
1464.578491 172.0
1464.685059 116.0
1464.791748 176.0
1465.515503 160.0
1465.736572 168.0
1465.84314 140.0
1466.224243 84.0
1466.292847 96.0
1466.765381 184.0
1467.146606 40.0
1467.436279 48.0
1467.840454 92.0
1468.130249 148.0
1468.502075 232.0
1468.610718 188.0
1468.72522 120.0
1468.908203 392.0
1469.015015 192.0
1469.449951 56.0
1469.774902 212.0
1470.213013 168.0
1470.548828 200.0
1470.785522 136.0
1470.976318 176.0
1471.037354 124.0
1471.136597 224.0
1471.571777 232.0
1471.70166 112.0
1471.945923 156.0
1472.534058 172.0
1473.458374 148.0
1473.626709 196.0
1473.794556 272.0
1473.947388 144.0
1474.467041 192.0
1474.535889 212.0
1475.040283 160.0
1475.13208 224.0
1475.246704 156.0
1475.667236 168.0
1475.789551 200.0
1476.011353 140.0
1476.391113 128.0
1476.806763 244.0
1476.906494 208.0
1477.916016 120.0
1478.283325 156.0
1478.574219 188.0
1478.711914 60.0
1479.477417 172.0
1479.699463 168.0
1479.852661 204.0
1479.952148 84.0
1480.549438 156.0
1480.863525 172.0
1481.108643 148.0
1481.200562 124.0
1481.404907 228.0
1481.713867 104.0
1481.997314 120.0
1482.472412 200.0
1482.656372 156.0
1482.740601 160.0
1483.353882 84.0
1483.491821 204.0
1483.645142 136.0
1483.867554 160.0
1484.115234 208.0
1484.189575 188.0
1484.243286 168.0
1484.413086 248.0
1484.550049 220.0
1484.657349 204.0
1484.895142 144.0
1485.395386 224.0
1485.777344 164.0
1486.114868 236.0
1486.237671 140.0
1486.483276 172.0
1486.613647 188.0
1487.667847 120.0
1487.987671 156.0
1488.079834 160.0
1488.709473 128.0
1489.101196 160.0
1489.185669 152.0
1489.761841 212.0
1490.015381 144.0
1490.176758 164.0
1490.238159 120.0
1490.414917 176.0
1490.49939 200.0
1490.783813 228.0
1491.035156 232.0
1491.1604 132.0
1491.237183 188.0
1491.329468 128.0
1491.683105 232.0
1491.768066 188.0
1491.882935 148.0
1492.096191 212.0
1493.197876 120.0
1493.297852 152.0
1493.382446 108.0
1493.436279 152.0
1493.528564 140.0
1493.667114 204.0
1494.305664 128.0
1494.598022 124.0
1494.759644 164.0
1494.890503 196.0
1495.067505 184.0
1495.313721 160.0
1495.512085 160.0
1495.944946 152.0
1496.445435 56.0
1496.992065 208.0
1497.069092 128.0
1497.13623 112.0
1497.338623 200.0
1497.392578 172.0
1497.492676 200.0
1497.746948 268.0
1497.800781 168.0
1497.854736 224.0
1497.952881 240.0
1498.139771 148.0
1498.386353 72.0
1498.447998 240.0
1499.280151 136.0
1499.349609 148.0
1499.519165 228.0
1499.78894 260.0
1499.904541 136.0
1500.189819 132.0
1500.352173 120.0
1500.567505 148.0
1500.644653 224.0
1500.737183 204.0
1500.791138 192.0
1500.99939 40.0
1501.060181 176.0
1501.215332 44.0
1501.36499 188.0
1501.570068 184.0
1501.812744 332.0
1501.87085 188.0
1502.025146 172.0
1502.102295 136.0
1502.449463 204.0
1502.60376 216.0
1502.673218 180.0
1502.818237 220.0
1503.197876 180.0
1503.534912 192.0
1504.031494 100.0
1504.625854 168.0
1504.764893 140.0
1505.027344 140.0
1505.343994 52.0
