>compound MLS001077323-01!51333-22-3
>formula C25H34O6
>ionization [M+H]+
>parentmass 431.24281526009054
#inchi InChI=1S/C25H34O6/c1-4-5-21-30-20-11-17-16-7-6-14-10-15(27)8-9-23(14,2)22(16)18(28)12-24(17,3)25(20,31-21)19(29)13-26/h8-10,16-18,20-22,26,28H,4-7,11-13H2,1-3H3/t16-,17-,18-,20+,21?,22+,23-,24-,25+/m0/s1
#inchikey VOVIALXJUBGFJZ
#Ion_Source LC-ESI
#Instrument qTof
#Compound_Source NIH Pharmacologically Active Library
#PI Dorrestein
#Data_Collector VP/LMS
#Scan -1
#Precursor_MZ 431.246
#ExactMass 430.236
#Charge 1
#CAS_Number N/A
#Pubmed_ID N/A
#Smiles CCCC1O[C@@H]2C[C@H]3[C@@H]4CCC5=CC(=O)C=C[C@]5(C)[C@H]4[C@@H](O)C[C@]3(C)[C@@]2(O1)C(=O)CO
#INCHI_AUX N/A
#Library_Class 1
#SpectrumID CCMSLIB00000085430
#IonMode Positive
#UpdateWorkflowName UPDATE-SINGLE-ANNOTATED-GOLD
#LibraryQualityString Gold
#TaskID d252d724072548979f1f6f1ced849daf
##Scan# 2070
#SpectrumFile p4-A09_GA9_01_18333.mzXML
#LibraryName Pharm_Active_Library.mgf
#MQScore -1
#Organism Pharm_Active_Library
#TIC_Query 0
#RT_Query -1
#MZErrorPPM -1
#SharedPeaks 0
#MassDiff 0
#LibMZ -1
#SpecMZ 431.246
#SpecCharge 0
#internalFilename spec-00000.mgf

>collision 10
44.904369 108.0
44.997211 188.0
45.013645 172.0
45.073914 388.0
45.095295 132.0
45.134064 128.0
45.163483 136.0
45.260555 232.0
45.27457 196.0
45.331661 220.0
45.427368 128.0
45.460052 188.0
45.505917 272.0
45.522659 208.0
45.576389 152.0
45.596546 108.0
45.610435 120.0
45.648975 164.0
45.74181 212.0
45.773449 168.0
45.845516 144.0
45.863037 200.0
45.877865 104.0
45.892696 216.0
45.979027 272.0
46.000626 168.0
46.093815 224.0
46.133011 184.0
46.268291 112.0
46.291309 196.0
46.305431 168.0
46.346848 116.0
46.356331 128.0
46.376976 188.0
46.435909 160.0
46.519085 124.0
46.539452 80.0
46.572044 164.0
46.599213 188.0
46.611443 164.0
46.700966 188.0
46.733814 168.0
46.74334 136.0
46.801872 204.0
46.850903 228.0
46.973591 140.0
47.014523 64.0
47.040455 196.0
47.052742 300.0
47.070492 132.0
47.096439 100.0
47.114197 124.0
47.136059 104.0
47.151089 176.0
47.164757 44.0
47.179794 128.0
47.201672 176.0
47.213978 140.0
47.244068 200.0
47.256382 88.0
47.296066 116.0
47.305649 164.0
47.320168 172.0
47.393299 216.0
47.411114 148.0
47.504349 120.0
47.520813 124.0
47.633385 144.0
47.664986 152.0
47.681137 196.0
47.744713 128.0
47.784607 104.0
47.805244 112.0
47.847916 180.0
47.869091 168.0
47.953979 224.0
47.975086 192.0
48.061546 148.0
48.075344 396.0
48.08836 164.0
48.102947 148.0
48.122276 80.0
48.206535 200.0
48.235558 128.0
48.265972 248.0
48.296398 176.0
48.322681 44.0
48.346462 172.0
48.366966 136.0
48.382191 88.0
48.396038 128.0
48.468063 180.0
48.479908 136.0
48.533375 168.0
48.578976 188.0
48.612747 176.0
48.633091 128.0
48.66502 136.0
48.690018 168.0
48.790062 216.0
48.829777 64.0
48.84108 116.0
48.894382 120.0
49.000179 196.0
49.047592 136.0
49.081051 100.0
49.097782 156.0
49.205227 120.0
49.242928 128.0
49.286236 140.0
49.335152 108.0
49.456848 168.0
49.476448 200.0
49.515652 144.0
49.582901 104.0
49.59972 124.0
49.626354 60.0
49.650192 156.0
49.69508 96.0
49.725952 188.0
49.770874 156.0
49.780704 172.0
49.815105 168.0
49.901546 116.0
49.933887 152.0
49.964832 172.0
50.03661 180.0
50.06477 120.0
50.081669 168.0
50.095757 144.0
50.118298 224.0
50.143665 204.0
50.174675 200.0
50.190464 120.0
50.208515 148.0
50.321404 96.0
50.33411 104.0
50.384956 240.0
50.459862 108.0
50.471172 176.0
50.496624 172.0
50.517841 188.0
50.556046 140.0
50.626827 144.0
50.679237 136.0
50.718918 64.0
50.733093 168.0
50.760033 168.0
50.771378 116.0
50.782722 124.0
50.812511 172.0
50.874954 168.0
50.916134 152.0
51.05114 108.0
51.099377 136.0
51.152157 100.0
51.243301 108.0
51.290627 172.0
51.317413 116.0
51.357342 72.0
51.390152 140.0
51.428391 176.0
51.502583 164.0
51.532932 40.0
51.578659 380.0
51.602573 132.0
51.644001 212.0
51.664459 156.0
51.693077 212.0
51.723129 208.0
51.753193 148.0
51.775303 224.0
51.818542 160.0
51.867802 144.0
51.912247 100.0
51.925156 136.0
51.972492 32.0
51.985409 180.0
52.009808 188.0
52.02129 48.0
52.03421 128.0
52.061493 92.0
52.072983 208.0
52.111767 172.0
52.185066 80.0
52.216702 160.0
52.252666 192.0
52.269932 212.0
52.362064 168.0
52.497532 128.0
52.507626 216.0
52.536472 312.0
52.57399 148.0
52.606876 168.0
52.612785 132.0
52.729961 80.0
52.843716 192.0
52.909325 208.0
52.929596 192.0
52.9687 132.0
52.991879 160.0
53.006367 148.0
53.017925 168.0
53.144115 72.0
53.157173 164.0
53.202168 172.0
53.220345 112.0
53.231205 176.0
53.244278 124.0
53.265686 184.0
53.401241 136.0
53.41433 124.0
53.504555 164.0
53.597767 196.0
53.619625 100.0
53.688148 140.0
53.73774 168.0
53.768383 180.0
53.807796 188.0
53.847813 168.0
53.872055 224.0
53.955353 160.0
53.977283 136.0
54.152897 148.0
54.20417 176.0
54.2672 132.0
54.284794 168.0
54.300926 140.0
54.43594 156.0
54.485878 196.0
54.507919 176.0
54.562302 124.0
54.577003 188.0
54.635834 132.0
54.699478 208.0
54.735916 204.0
54.755062 172.0
54.775681 160.0
54.809566 208.0
54.864166 180.0
54.911285 104.0
54.939308 100.0
54.971771 160.0
54.997196 140.0
55.009911 184.0
55.035469 156.0
55.095795 196.0
55.135689 128.0
55.177078 180.0
55.197777 332.0
55.319916 224.0
55.393139 152.0
55.428696 88.0
55.452408 108.0
55.483536 196.0
55.642277 196.0
55.657124 204.0
55.709106 148.0
55.773003 364.0
55.828011 224.0
55.841396 36.0
55.915787 68.0
55.926205 164.0
55.94342 304.0
56.11092 92.0
56.149689 144.0
56.221298 152.0
56.245178 108.0
56.269062 68.0
56.284702 120.0
56.307888 208.0
56.3288 44.0
56.349712 156.0
56.385574 120.0
56.44986 184.0
56.5471 104.0
56.648918 92.0
56.660904 176.0
56.686375 116.0
56.714848 184.0
56.758324 152.0
56.839325 60.0
56.88237 180.0
56.896358 68.0
56.939903 176.0
56.957928 144.0
56.987614 200.0
56.991966 152.0
57.085674 208.0
57.177441 96.0
57.187977 84.0
57.236153 200.0
57.276814 200.0
57.297905 84.0
57.350647 244.0
57.394363 208.0
57.418552 196.0
57.442623 168.0
57.499962 88.0
57.515053 148.0
57.537697 104.0
57.607166 196.0
57.667606 136.0
57.68272 140.0
57.702374 212.0
57.741688 184.0
57.799171 192.0
57.849117 168.0
57.936951 204.0
57.968769 168.0
58.009689 116.0
58.035465 128.0
58.064274 176.0
58.080959 168.0
58.094082 184.0
58.112816 68.0
58.211479 228.0
58.314785 280.0
58.326942 252.0
58.348225 128.0
58.361908 72.0
58.382591 160.0
58.401447 160.0
58.431873 140.0
58.45013 196.0
58.463825 92.0
58.498833 84.0
58.512535 116.0
58.533852 120.0
58.564308 180.0
58.581066 132.0
58.628822 84.0
58.671215 204.0
58.719769 168.0
58.741638 228.0
58.786896 148.0
58.837265 104.0
58.858799 116.0
58.873909 272.0
58.887657 136.0
58.919735 156.0
58.931957 336.0
58.957932 76.0
59.002258 156.0
59.038956 80.0
59.061897 124.0
59.205765 140.0
59.236397 152.0
59.371277 188.0
59.43417 180.0
59.455654 188.0
59.48328 140.0
59.500576 180.0
59.526794 164.0
59.59539 160.0
59.618755 156.0
59.643028 192.0
59.738365 148.0
59.756828 152.0
59.791561 168.0
59.893837 160.0
59.933891 196.0
59.989372 212.0
60.03717 76.0
60.06802 132.0
60.105045 208.0
60.122604 180.0
60.155975 128.0
60.194572 132.0
60.318172 172.0
60.33363 176.0
60.372284 120.0
60.3909 196.0
60.499329 184.0
60.593628 164.0
60.635468 120.0
60.703678 176.0
60.751759 144.0
60.781239 152.0
60.806068 180.0
60.843319 116.0
60.882137 120.0
60.897671 136.0
60.917862 176.0
60.939613 180.0
60.953594 40.0
60.989342 188.0
61.007992 148.0
61.04842 164.0
61.08886 204.0
61.109081 80.0
61.163551 100.0
61.179115 64.0
61.309952 188.0
61.336449 128.0
61.361393 60.0
61.458092 168.0
61.473694 132.0
61.515835 148.0
61.617344 64.0
61.661098 196.0
61.713833 136.0
61.804966 180.0
61.870701 168.0
61.888374 180.0
62.014812 116.0
62.088497 240.0
62.106121 236.0
62.18734 108.0
62.201466 92.0
62.22699 124.0
62.265839 144.0
62.29097 116.0
62.349812 160.0
62.426136 132.0
62.447643 136.0
62.563019 172.0
62.690601 248.0
62.725681 172.0
62.766266 200.0
62.799381 80.0
62.813988 216.0
63.033028 144.0
63.09309 168.0
63.115223 180.0
63.181652 64.0
63.194309 84.0
63.219624 192.0
63.298775 156.0
63.384312 156.0
63.495281 176.0
63.517487 152.0
63.539692 84.0
63.553974 172.0
63.642857 180.0
63.676205 152.0
63.688911 164.0
63.70956 148.0
63.741337 152.0
63.819225 80.0
63.841484 116.0
63.861286 328.0
63.927387 112.0
63.999115 144.0
64.070686 116.0
64.10437 200.0
64.137245 204.0
64.153557 168.0
64.174286 172.0
64.185448 156.0
64.230103 156.0
64.271774 232.0
64.318741 196.0
64.352982 204.0
64.364159 252.0
64.384918 180.0
64.442421 180.0
64.490364 124.0
64.525528 108.0
64.567108 76.0
64.5783 140.0
64.650909 140.0
64.672142 160.0
64.743141 152.0
64.802162 180.0
64.945084 200.0
64.964333 172.0
64.980377 164.0
65.00605 176.0
65.055801 136.0
65.123245 176.0
65.179611 180.0
65.300041 48.0
65.348297 164.0
65.362778 176.0
65.390137 112.0
65.437706 220.0
65.454529 112.0
65.544731 100.0
65.65274 204.0
65.663147 148.0
65.686607 172.0
65.701126 180.0
65.723854 136.0
65.757599 188.0
65.827019 84.0
65.859322 168.0
65.890831 152.0
65.935257 336.0
65.957886 180.0
66.000916 116.0
66.031082 148.0
66.064613 152.0
66.093735 112.0
66.10746 124.0
66.117554 216.0
66.1698 164.0
66.197327 144.0
66.252724 200.0
66.304787 192.0
66.314911 152.0
66.37233 88.0
66.399902 176.0
66.430275 176.0
66.498672 196.0
66.554062 100.0
66.565903 176.0
66.609276 132.0
66.65152 40.0
66.679146 152.0
66.71653 84.0
66.732788 152.0
66.843391 116.0
66.871056 200.0
66.932922 148.0
66.960602 152.0
66.999695 68.0
67.076286 148.0
67.0877 48.0
67.25898 220.0
67.28183 136.0
67.30632 164.0
67.332451 168.0
67.369202 368.0
67.414131 136.0
67.490959 148.0
67.512215 52.0
67.531845 96.0
67.593048 184.0
67.656204 188.0
67.680763 196.0
67.70369 164.0
67.779037 200.0
67.800346 128.0
67.889732 152.0
67.939713 200.0
68.002068 96.0
68.026688 108.0
68.067322 144.0
68.117004 204.0
68.159721 220.0
68.176155 148.0
68.192589 240.0
68.211029 200.0
68.268211 180.0
68.306656 192.0
68.347168 160.0
68.385017 176.0
68.401482 152.0
68.413002 184.0
68.429466 160.0
68.472282 172.0
68.506866 72.0
68.522026 180.0
68.536522 136.0
68.562119 200.0
68.613991 152.0
68.719543 204.0
68.736038 148.0
68.808174 308.0
68.833435 76.0
68.848297 252.0
68.868111 144.0
68.9375 184.0
68.967247 124.0
69.10009 144.0
69.25515 152.0
69.35788 140.0
69.41259 164.0
69.491806 180.0
69.560242 180.0
69.578506 156.0
69.67981 108.0
69.72966 176.0
69.789505 52.0
69.839394 76.0
69.852707 80.0
69.944221 144.0
70.05246 220.0
70.065788 56.0
70.126457 116.0
70.145775 164.0
70.20446 184.0
70.369324 200.0
70.406059 184.0
70.417747 232.0
70.451157 144.0
70.541397 44.0
70.606606 72.0
70.747124 204.0
70.854332 200.0
71.010063 208.0
71.034126 192.0
71.126678 396.0
71.152016 136.0
71.169647 208.0
71.180702 224.0
71.210136 144.0
71.283867 120.0
71.361191 228.0
71.40995 84.0
71.431816 168.0
71.455368 196.0
71.499123 124.0
71.524368 156.0
71.536148 112.0
71.561401 152.0
71.586662 128.0
71.63887 136.0
71.674255 164.0
71.746727 180.0
71.787193 176.0
71.819237 108.0
71.883347 116.0
71.908661 156.0
71.939041 180.0
71.960991 188.0
71.974495 152.0
72.014389 180.0
72.138374 188.0
72.239838 192.0
72.331215 152.0
72.388779 132.0
72.490417 100.0
72.534477 76.0
72.55143 192.0
72.581947 60.0
72.617561 152.0
72.693901 176.0
72.743126 124.0
72.788963 76.0
72.809341 108.0
72.949791 176.0
72.980972 224.0
73.023483 192.0
73.142586 152.0
73.20388 76.0
73.2192 184.0
73.232826 172.0
73.26194 180.0
73.297562 132.0
73.360626 180.0
73.439064 120.0
73.556793 176.0
73.614845 116.0
73.699486 228.0
73.739555 136.0
73.751518 28.0
73.857529 236.0
73.956772 184.0
74.012016 192.0
74.114326 196.0
74.170876 208.0
74.188019 132.0
74.258324 220.0
74.285767 272.0
74.302917 120.0
74.330376 56.0
74.375374 216.0
74.476295 220.0
74.53643 124.0
74.562202 76.0
74.642998 108.0
74.658768 72.0
74.692879 164.0
74.780624 256.0
74.823662 216.0
74.842026 192.0
74.858101 156.0
74.913216 168.0
74.951118 180.0
75.171829 172.0
75.239143 156.0
75.297852 176.0
75.315544 164.0
75.351402 128.0
75.431351 184.0
75.467201 120.0
75.536377 196.0
75.579628 160.0
75.633278 132.0
75.742363 156.0
75.763153 112.0
75.821503 160.0
75.867126 188.0
75.882729 144.0
75.920876 140.0
75.950363 180.0
75.979851 308.0
76.009346 148.0
76.041794 92.0
76.063759 160.0
76.255943 156.0
76.347343 160.0
76.362 180.0
76.446228 108.0
76.57608 144.0
76.598717 180.0
76.631821 152.0
76.656837 212.0
76.671898 104.0
76.70153 56.0
76.748596 116.0
76.919571 232.0
77.043961 224.0
77.062767 208.0
77.101212 216.0
77.113449 152.0
77.291939 184.0
77.391594 148.0
77.417854 228.0
77.452881 60.0
77.491425 116.0
77.535233 92.0
77.782532 176.0
77.802559 108.0
77.842224 80.0
78.097054 136.0
78.172768 116.0
78.195084 260.0
78.211426 176.0
78.232544 32.0
78.359344 128.0
78.480957 180.0
78.555031 168.0
78.569145 232.0
78.614983 180.0
78.654083 148.0
78.683861 244.0
78.731529 184.0
78.752724 188.0
78.788055 116.0
78.905876 156.0
78.955971 196.0
79.069199 188.0
79.111679 164.0
79.141777 172.0
79.157715 188.0
79.17794 120.0
79.225014 112.0
79.285263 136.0
79.345528 92.0
79.380989 176.0
79.437744 124.0
79.476006 176.0
79.492241 268.0
79.577942 124.0
79.609901 128.0
79.673843 128.0
79.704048 124.0
79.732483 104.0
79.839149 48.0
79.87294 152.0
79.936989 140.0
79.963684 192.0
80.015305 164.0
80.129288 144.0
80.141762 48.0
80.170471 144.0
80.261185 156.0
80.312897 180.0
80.365746 212.0
80.386047 36.0
80.418167 160.0
80.457436 148.0
80.507431 176.0
80.53244 164.0
80.573524 164.0
80.627129 44.0
80.641426 136.0
80.696838 52.0
80.818771 188.0
80.916901 228.0
80.972412 152.0
80.987961 220.0
81.029732 128.0
81.081696 196.0
81.142647 152.0
81.194572 96.0
81.2341 188.0
81.261017 224.0
81.320328 144.0
81.392036 232.0
81.427521 148.0
81.442322 160.0
81.526764 248.0
81.586807 128.0
81.602257 172.0
81.62204 220.0
81.656876 160.0
81.688583 148.0
81.729958 228.0
81.78215 156.0
81.821747 168.0
81.882973 196.0
81.895576 160.0
81.996475 180.0
82.030724 220.0
82.092018 76.0
82.122681 180.0
82.147934 232.0
82.178604 208.0
82.207474 148.0
82.221909 196.0
82.287735 344.0
82.33445 260.0
82.355515 72.0
82.368156 32.0
82.39164 200.0
82.416939 192.0
82.55838 176.0
82.570007 136.0
82.594101 156.0
82.680946 204.0
82.734695 208.0
82.755165 64.0
82.791054 176.0
82.798576 144.0
82.802414 172.0
82.849342 164.0
82.889198 244.0
82.914574 140.0
83.042267 120.0
83.16761 108.0
83.217499 168.0
83.246552 68.0
83.313759 132.0
83.348274 264.0
83.362816 156.0
83.375534 200.0
83.402794 180.0
83.430061 168.0
83.497337 196.0
83.546455 104.0
83.589249 144.0
83.652817 176.0
83.664742 200.0
83.761253 136.0
83.852356 84.0
83.903397 32.0
83.923454 96.0
84.047478 176.0
84.112419 48.0
84.208122 100.0
84.239174 192.0
84.255615 180.0
84.293991 128.0
84.308609 140.0
84.357956 172.0
84.387207 176.0
84.42926 112.0
84.49511 60.0
84.540855 196.0
84.619568 248.0
84.650688 204.0
84.749603 60.0
84.77121 192.0
84.874245 48.0
84.94577 212.0
84.97879 96.0
85.14032 124.0
85.197472 176.0
85.217476 332.0
85.261574 140.0
85.38475 172.0
85.417854 140.0
85.478569 148.0
85.508011 168.0
85.531937 112.0
85.647942 132.0
85.71904 224.0
85.750694 156.0
85.804581 44.0
85.832237 100.0
85.854362 208.0
85.896782 56.0
85.953979 180.0
85.972427 172.0
86.021484 152.0
86.083549 176.0
86.151527 124.0
86.210655 104.0
86.249466 116.0
86.277191 148.0
86.315582 152.0
86.327324 148.0
86.362259 128.0
86.414055 172.0
86.430702 180.0
86.507637 148.0
86.528801 388.0
86.54686 180.0
86.586357 192.0
86.617691 80.0
86.762932 144.0
86.791893 136.0
86.823418 200.0
86.906891 108.0
86.919884 100.0
87.012688 44.0
87.036819 100.0
87.124115 220.0
87.152992 152.0
87.200294 60.0
87.257919 100.0
87.301788 168.0
87.435738 148.0
87.469994 136.0
87.547897 152.0
87.632011 116.0
87.652512 140.0
87.693512 208.0
87.70842 140.0
87.768074 192.0
87.796051 192.0
87.812485 224.0
87.82589 160.0
87.891182 120.0
87.999443 28.0
88.111496 108.0
88.25354 188.0
88.418159 252.0
88.437332 196.0
88.472435 200.0
88.564194 140.0
88.71035 96.0
88.882896 204.0
88.92981 72.0
89.012413 140.0
89.038399 124.0
89.081902 184.0
89.161827 148.0
89.244492 172.0
89.271729 144.0
89.362022 192.0
89.397766 148.0
89.433525 260.0
89.459885 92.0
89.486237 160.0
89.50695 116.0
89.535194 148.0
89.565331 140.0
89.589821 148.0
89.604889 168.0
89.631271 180.0
89.672729 200.0
89.706657 196.0
89.734932 188.0
89.857521 92.0
89.904701 92.0
89.917908 220.0
89.959435 172.0
89.991524 180.0
90.008522 140.0
90.040627 144.0
90.09729 112.0
90.135078 128.0
90.195557 140.0
90.237144 208.0
90.256577 188.0
90.290092 152.0
90.31089 148.0
90.343971 172.0
90.388458 160.0
90.432106 128.0
90.450912 172.0
90.611877 168.0
90.66304 76.0
90.685783 56.0
90.714211 52.0
90.883003 112.0
90.968407 144.0
91.013802 180.0
91.025673 196.0
91.056099 904.0
91.080437 232.0
91.118431 88.0
91.173538 168.0
91.228653 148.0
91.244904 136.0
91.30471 216.0
91.321831 140.0
91.437248 108.0
91.464531 140.0
91.548828 160.0
91.586395 120.0
91.654976 132.0
91.704521 196.0
91.738838 224.0
91.855042 180.0
91.914299 128.0
91.993187 144.0
92.0159 104.0
92.05423 264.0
92.09948 136.0
92.173988 208.0
92.225586 104.0
92.277687 220.0
92.317924 228.0
92.344131 144.0
92.367081 224.0
92.409164 196.0
92.425369 136.0
92.472313 156.0
92.502937 128.0
92.552719 156.0
92.571869 164.0
92.591019 76.0
92.608253 184.0
92.659973 152.0
92.707878 148.0
92.723206 60.0
92.769264 136.0
92.817139 224.0
92.842072 192.0
92.880844 160.0
92.901527 268.0
92.937981 168.0
92.951416 120.0
93.053139 88.0
93.068993 1260.0
93.226013 192.0
93.277908 168.0
93.349182 220.0
93.418282 128.0
93.466377 112.0
93.485214 188.0
93.507263 212.0
93.603043 120.0
93.666603 136.0
93.737885 132.0
93.787239 216.0
93.855469 176.0
93.942253 176.0
93.96347 208.0
93.990486 148.0
94.079269 160.0
94.162292 148.0
94.235703 248.0
94.293671 100.0
94.382591 176.0
94.436745 152.0
94.452423 112.0
94.537346 184.0
94.568306 188.0
94.583794 128.0
94.688347 148.0
94.734833 108.0
94.748398 48.0
94.763893 112.0
94.796837 204.0
94.845284 204.0
94.899567 196.0
94.955803 116.0
94.996536 136.0
95.021751 32.0
95.052795 172.0
95.088562 300.0
95.270248 96.0
95.293564 100.0
95.314934 220.0
95.334366 96.0
95.371292 212.0
95.408226 180.0
95.453392 176.0
95.478226 180.0
95.577438 168.0
95.611694 132.0
95.625015 204.0
95.853081 208.0
95.902657 224.0
95.926048 96.0
95.95919 148.0
96.11718 116.0
96.329979 228.0
96.375565 156.0
96.408134 108.0
96.449181 172.0
96.466774 64.0
96.574936 176.0
96.617348 76.0
96.654526 32.0
96.724976 204.0
96.740639 368.0
96.838539 136.0
96.891434 192.0
96.912979 312.0
96.965256 160.0
97.016502 180.0
97.032455 200.0
97.065285 268.0
97.120781 116.0
97.21888 116.0
97.334694 40.0
97.356293 152.0
97.370041 160.0
97.391647 124.0
97.423073 176.0
97.476128 152.0
97.540977 140.0
97.560913 172.0
97.586197 204.0
97.623558 64.0
97.660919 244.0
97.689278 164.0
97.721909 184.0
97.73568 116.0
97.796684 168.0
97.810463 152.0
97.83802 100.0
97.887245 148.0
97.91481 164.0
97.973907 92.0
97.997551 156.0
98.048782 172.0
98.071632 228.0
98.111855 128.0
98.143402 136.0
98.182037 168.0
98.285416 144.0
98.305183 132.0
98.447281 132.0
98.488754 228.0
98.561852 88.0
98.648811 120.0
98.716034 48.0
98.731781 180.0
98.767456 192.0
98.822845 148.0
98.890129 304.0
99.012878 140.0
99.03492 200.0
99.07032 168.0
99.090126 172.0
99.129372 184.0
99.230843 156.0
99.318214 136.0
99.337936 112.0
99.447067 148.0
99.466919 172.0
99.554085 164.0
99.580093 220.0
99.602165 212.0
99.725128 92.0
99.776817 156.0
99.810616 64.0
99.908066 104.0
99.954536 192.0
99.987663 208.0
100.014008 220.0
100.041405 248.0
100.075249 148.0
100.154121 212.0
100.258507 96.0
100.346207 44.0
100.388084 148.0
100.415009 120.0
100.467705 196.0
100.491806 172.0
100.60157 112.0
100.619537 156.0
100.683434 140.0
100.703407 200.0
100.731369 140.0
100.785408 160.0
100.80529 184.0
100.843262 104.0
100.907227 168.0
100.923225 164.0
100.949219 148.0
101.025612 496.0
101.057236 148.0
101.139282 168.0
101.211349 164.0
101.233376 164.0
101.301254 180.0
101.381622 144.0
101.517937 200.0
101.542 180.0
101.566368 108.0
101.590141 48.0
101.658356 196.0
101.692474 124.0
101.71656 176.0
101.730614 68.0
101.768761 132.0
101.839043 88.0
101.899307 140.0
102.047737 108.0
102.096291 224.0
102.194862 172.0
102.243156 68.0
102.281395 96.0
102.359398 156.0
102.390114 284.0
102.420082 164.0
102.510986 184.0
102.551292 232.0
102.59082 184.0
102.634621 180.0
102.672264 136.0
102.702515 108.0
102.718651 136.0
102.779175 152.0
102.810059 172.0
102.918449 292.0
103.041077 200.0
103.055435 992.0
103.114395 140.0
103.148758 120.0
103.269356 168.0
103.30648 136.0
103.365845 164.0
103.395508 140.0
103.4198 148.0
103.495712 120.0
103.543304 172.0
103.654251 204.0
103.762146 180.0
103.807678 148.0
103.879761 228.0
103.950775 156.0
103.96701 104.0
104.025871 172.0
104.06044 320.0
104.103714 164.0
104.27977 240.0
104.328552 128.0
104.35498 220.0
104.383446 128.0
104.422089 136.0
104.450562 128.0
104.487183 128.0
104.515663 136.0
104.536011 108.0
104.568573 220.0
104.592995 72.0
104.678505 128.0
104.717201 136.0
104.798683 120.0
104.900581 176.0
105.034195 220.0
105.070717 4796.0
105.175957 100.0
105.200447 236.0
105.229034 36.0
105.247406 80.0
105.283417 120.0
105.337265 164.0
105.406082 176.0
105.490524 52.0
105.506882 228.0
105.525276 116.0
105.558121 132.0
105.605034 172.0
105.639801 128.0
105.676628 156.0
105.702446 220.0
105.7761 192.0
105.795334 196.0
105.834229 148.0
105.854706 168.0
105.918198 224.0
106.023941 196.0
106.049332 116.0
106.073135 868.0
106.111526 140.0
106.12928 108.0
106.166191 168.0
106.199577 216.0
106.223618 164.0
106.246185 128.0
106.349754 80.0
106.420631 172.0
106.506783 164.0
106.550018 144.0
106.610336 204.0
106.652771 120.0
106.741173 100.0
106.778183 172.0
106.825493 184.0
106.894836 256.0
106.921005 204.0
106.946899 40.0
106.986008 196.0
107.007484 172.0
107.031303 204.0
107.049606 1100.0
107.085709 1516.0
107.176117 264.0
107.239372 48.0
107.265717 184.0
107.344505 100.0
107.363068 264.0
107.389877 116.0
107.416695 60.0
107.511955 164.0
107.536369 120.0
107.682953 88.0
107.742859 140.0
107.815178 132.0
107.903587 88.0
107.976433 184.0
107.992981 92.0
108.056091 288.0
108.090797 184.0
108.139877 156.0
108.168854 192.0
108.375954 108.0
108.429733 176.0
108.452629 144.0
108.489937 200.0
108.574951 212.0
108.588638 120.0
108.603989 136.0
108.695267 216.0
108.78244 60.0
108.853027 80.0
108.92572 212.0
108.94857 144.0
109.030571 192.0
109.046227 60.0
109.066368 1652.0
109.102875 128.0
109.175125 108.0
109.225044 56.0
109.302017 36.0
109.370697 124.0
109.418571 104.0
109.441475 76.0
109.466316 232.0
109.493538 68.0
109.658127 108.0
109.706062 192.0
109.743591 216.0
109.829742 180.0
109.914627 124.0
109.94384 112.0
109.991081 240.0
110.042038 292.0
110.067001 68.0
110.177696 136.0
110.209038 112.0
110.232025 164.0
110.328171 60.0
110.367889 160.0
110.459908 204.0
110.558243 104.0
110.57708 140.0
110.625221 84.0
110.644066 144.0
110.673378 160.0
110.975746 372.0
111.006538 80.0
111.037651 168.0
111.078453 296.0
111.139214 160.0
111.235229 260.0
111.287712 108.0
111.32341 156.0
111.459946 176.0
111.476761 168.0
111.535606 164.0
111.58606 128.0
111.619698 180.0
111.657547 84.0
111.699615 36.0
111.735382 132.0
111.773254 80.0
111.842697 172.0
111.907928 160.0
112.084969 352.0
112.105957 144.0
112.133354 188.0
112.171967 180.0
112.198135 208.0
112.228218 156.0
112.253517 116.0
112.346321 180.0
112.527817 56.0
112.553154 104.0
112.635567 192.0
112.690445 168.0
112.717918 220.0
112.741158 120.0
112.767738 256.0
112.783249 184.0
112.836281 116.0
112.874336 140.0
112.897194 212.0
112.990662 152.0
113.020233 192.0
113.065277 160.0
113.072075 144.0
113.1007 204.0
113.134575 128.0
113.210793 100.0
113.259506 100.0
113.280693 184.0
113.318825 172.0
113.486259 128.0
113.552879 240.0
113.568207 156.0
113.590179 132.0
113.609268 56.0
113.830002 212.0
113.876724 92.0
113.893715 144.0
113.936195 196.0
113.972321 276.0
114.031822 228.0
114.118973 120.0
114.133858 160.0
114.155121 128.0
114.212547 172.0
114.27211 124.0
114.372978 180.0
114.391281 160.0
114.44664 168.0
114.568031 188.0
114.595726 204.0
114.623428 140.0
114.687363 28.0
114.79937 168.0
114.962486 192.0
114.999702 188.0
115.054977 2540.0
115.072914 288.0
115.126205 144.0
115.148216 252.0
115.189575 220.0
115.214432 256.0
115.229385 40.0
115.250755 116.0
115.30204 220.0
115.317001 172.0
115.398232 76.0
115.438858 248.0
115.475212 304.0
115.644234 168.0
115.694046 192.0
115.755562 172.0
115.884079 152.0
115.994659 140.0
116.011734 120.0
116.040314 156.0
116.043472 140.0
116.066063 660.0
116.139175 176.0
116.169205 184.0
116.183029 136.0
116.214264 100.0
116.357094 232.0
116.379532 124.0
116.439659 192.0
116.4655 116.0
116.482613 224.0
116.519135 204.0
116.538467 220.0
116.559959 188.0
116.581444 104.0
116.611023 136.0
116.64592 132.0
116.693214 160.0
116.774933 116.0
116.800743 196.0
116.820099 216.0
116.937447 120.0
117.024551 108.0
117.048241 188.0
117.070671 2500.0
117.091309 96.0
117.160233 196.0
117.196144 216.0
117.226547 216.0
117.242111 28.0
117.330482 192.0
117.347733 64.0
117.412422 128.0
117.487915 168.0
117.621704 176.0
117.638977 148.0
117.705902 152.0
117.768532 68.0
117.804802 192.0
117.870354 132.0
117.939224 84.0
117.965965 140.0
118.010567 168.0
118.038673 204.0
118.073784 324.0
118.222542 204.0
118.257172 156.0
118.293968 144.0
118.366341 112.0
118.389236 264.0
118.517036 196.0
118.536537 88.0
118.560379 216.0
118.625397 44.0
118.670929 52.0
118.718628 160.0
118.782379 184.0
118.801048 56.0
118.846611 104.0
118.983345 172.0
119.050308 200.0
119.085915 5228.0
119.11364 64.0
119.134033 216.0
119.207382 164.0
119.283127 48.0
119.315735 168.0
119.417938 92.0
119.463615 136.0
119.502777 136.0
119.546295 124.0
119.605057 84.0
119.672546 196.0
119.740051 156.0
119.776291 164.0
119.862038 296.0
119.949219 132.0
120.003716 176.0
120.021164 92.0
120.057686 160.0
120.088844 444.0
120.108871 156.0
120.158875 220.0
120.232758 160.0
120.274071 168.0
120.363731 200.0
120.383385 100.0
120.427063 128.0
120.491997 188.0
120.51226 164.0
120.602501 48.0
120.678368 244.0
120.70121 448.0
120.780365 144.0
120.882889 132.0
120.932129 104.0
120.955605 204.0
120.984665 72.0
121.021881 172.0
121.065712 17660.0
121.099686 560.0
121.126999 36.0
121.1464 56.0
121.179573 40.0
121.200127 84.0
121.244911 176.0
121.291336 92.0
121.317642 148.0
121.335182 40.0
121.374969 216.0
121.392189 48.0
121.424088 24.0
121.471146 172.0
121.512825 44.0
121.569878 28.0
121.590675 92.0
121.642303 164.0
121.694992 128.0
121.719147 188.0
121.758675 100.0
121.889565 192.0
121.919174 136.0
121.947617 116.0
122.006592 140.0
122.042145 192.0
122.069458 1500.0
122.091118 160.0
122.196106 64.0
122.23571 108.0
122.319344 232.0
122.378784 168.0
122.442642 160.0
122.464661 60.0
122.55394 160.0
122.577019 92.0
122.607872 112.0
122.632111 200.0
122.720291 148.0
122.740135 172.0
122.80188 112.0
122.870262 216.0
122.919205 192.0
122.943077 140.0
122.977402 124.0
123.050331 428.0
123.079597 860.0
123.121407 144.0
123.146187 172.0
123.168274 144.0
123.190369 84.0
123.221298 112.0
123.331787 124.0
123.395889 196.0
123.460014 64.0
123.499825 68.0
123.561768 128.0
123.636993 136.0
123.710037 160.0
123.851753 168.0
123.911568 136.0
123.944801 124.0
124.002419 244.0
124.045578 196.0
124.068352 156.0
124.088173 140.0
124.175354 44.0
124.250771 32.0
124.508255 84.0
124.710426 188.0
124.778267 124.0
124.819359 128.0
124.897202 52.0
124.963936 116.0
125.010666 216.0
125.026245 188.0
125.059204 344.0
125.150009 140.0
125.157967 184.0
125.207253 104.0
125.369194 140.0
125.386513 192.0
125.444977 192.0
125.469498 188.0
125.516319 156.0
125.54454 160.0
125.578758 228.0
125.650688 164.0
125.688072 88.0
125.780861 236.0
125.857712 116.0
125.924706 244.0
126.046326 172.0
126.110146 40.0
126.168266 164.0
126.226395 212.0
126.406464 144.0
126.469849 180.0
126.517258 112.0
126.54924 84.0
126.613533 104.0
126.647133 168.0
126.741219 220.0
126.819107 148.0
126.931747 124.0
127.021454 220.0
127.054787 708.0
127.077568 316.0
127.212196 184.0
127.322212 176.0
127.423294 188.0
127.470482 116.0
127.573868 120.0
127.625572 100.0
127.726776 32.0
127.75602 200.0
127.787514 184.0
127.814514 168.0
128.063614 1504.0
128.102692 148.0
128.16127 132.0
128.179291 68.0
128.236313 184.0
128.285217 136.0
128.447586 40.0
128.474655 208.0
128.544586 76.0
128.634872 180.0
128.677765 136.0
128.708801 80.0
128.731949 276.0
128.772598 136.0
128.844894 32.0
128.887817 232.0
128.994034 192.0
129.070023 1704.0
129.141006 124.0
129.233765 168.0
129.31749 72.0
129.353699 64.0
129.378601 112.0
129.410538 148.0
129.505112 212.0
129.573364 116.0
129.611877 128.0
129.754013 152.0
129.790955 204.0
130.026871 84.0
130.076431 900.0
130.122208 112.0
130.144913 136.0
130.176697 220.0
130.303894 112.0
130.333435 240.0
130.433426 128.0
130.477722 148.0
130.565308 140.0
130.59259 184.0
130.720001 208.0
130.742752 176.0
130.760956 152.0
130.784058 184.0
130.918045 176.0
130.954819 248.0
131.013702 132.0
131.049973 776.0
131.085297 3876.0
131.129913 212.0
131.154984 136.0
131.171204 136.0
131.227936 72.0
131.243896 96.0
131.275818 120.0
131.291779 48.0
131.312302 160.0
131.371613 156.0
131.467331 168.0
131.514801 208.0
131.547318 188.0
131.599838 108.0
131.636551 200.0
131.773407 100.0
131.796265 192.0
131.844254 100.0
131.967682 68.0
131.992828 32.0
132.031555 244.0
132.056992 3196.0
132.087753 456.0
132.155334 188.0
132.232132 132.0
132.25592 96.0
132.274231 68.0
132.312241 100.0
132.460922 236.0
132.576569 148.0
132.622406 172.0
132.675125 160.0
132.695755 124.0
132.725555 76.0
132.76683 140.0
132.902176 40.0
132.922821 324.0
132.968719 152.0
132.984787 172.0
133.015854 120.0
133.032562 168.0
133.065567 1896.0
133.103699 1052.0
133.156982 160.0
133.182251 208.0
133.313202 56.0
133.329285 32.0
133.375259 168.0
133.40744 124.0
133.453415 60.0
133.469513 132.0
133.488373 156.0
133.635117 176.0
133.671936 204.0
133.787018 208.0
133.887833 148.0
133.907684 148.0
133.96846 156.0
134.023666 136.0
134.067383 752.0
134.105255 324.0
134.148682 60.0
134.236298 200.0
134.289337 108.0
134.336609 252.0
134.408249 140.0
134.427765 144.0
134.492386 140.0
134.513153 148.0
134.591644 136.0
134.612427 156.0
134.651688 120.0
134.702499 156.0
134.727921 152.0
134.763153 128.0
134.836517 284.0
134.88736 212.0
134.963654 128.0
134.986771 108.0
135.00296 108.0
135.053696 188.0
135.081253 6516.0
135.192657 160.0
135.215958 116.0
135.266724 104.0
135.294495 192.0
135.346222 200.0
135.364761 104.0
135.373047 104.0
135.378967 200.0
135.424179 128.0
135.50293 108.0
135.526108 52.0
135.572449 132.0
135.644287 232.0
135.709213 44.0
135.762543 36.0
135.812256 64.0
135.904037 184.0
136.001511 120.0
136.047928 184.0
136.084869 1100.0
136.138474 56.0
136.21048 36.0
136.228287 168.0
136.310379 120.0
136.389404 132.0
136.517273 252.0
136.605652 148.0
136.635895 156.0
136.668457 96.0
136.787155 180.0
136.919876 108.0
136.982758 240.0
137.059433 1684.0
137.097183 140.0
137.126144 148.0
137.179245 156.0
137.260101 168.0
137.276413 328.0
137.570755 180.0
137.589081 204.0
137.642776 148.0
137.675354 168.0
137.680832 160.0
137.733856 144.0
137.770081 228.0
137.926498 180.0
137.952484 128.0
137.958969 72.0
137.966431 152.0
138.044693 148.0
138.063477 144.0
138.087997 280.0
138.124207 156.0
138.174255 244.0
138.217789 204.0
138.323105 76.0
138.341827 248.0
138.358215 148.0
138.487015 128.0
138.531509 68.0
138.550262 108.0
138.56665 80.0
138.585403 152.0
138.643982 116.0
138.740082 180.0
138.775253 116.0
138.861526 196.0
139.019196 232.0
139.035629 148.0
139.07666 2068.0
139.117355 180.0
139.155334 56.0
139.221085 284.0
139.31633 224.0
139.381363 192.0
139.406662 136.0
139.906906 200.0
139.950027 136.0
139.981094 164.0
140.058365 100.0
140.078491 132.0
140.101334 180.0
140.180862 180.0
140.286926 144.0
140.367096 184.0
140.466141 180.0
140.553436 148.0
140.605347 152.0
140.751709 164.0
140.872162 72.0
140.917053 156.0
140.961945 216.0
140.985565 152.0
141.030472 144.0
141.070755 1312.0
141.108902 180.0
141.138245 152.0
141.231171 172.0
141.240112 200.0
141.32608 108.0
141.380508 144.0
141.416 100.0
141.446777 184.0
141.482285 168.0
141.522537 260.0
141.576996 164.0
141.645676 148.0
141.676468 116.0
141.707275 136.0
141.813904 76.0
141.901611 132.0
141.947342 196.0
141.99173 144.0
142.04628 160.0
142.077713 1916.0
142.150665 48.0
142.229507 176.0
142.304611 300.0
142.33107 116.0
142.364319 136.0
142.468826 92.0
142.494949 148.0
142.518723 208.0
142.61853 144.0
142.691208 216.0
142.796844 156.0
142.874207 184.0
142.915787 128.0
142.993149 188.0
143.046677 140.0
143.086868 2744.0
143.187164 44.0
143.221664 128.0
143.247696 176.0
143.320557 120.0
143.413498 192.0
143.44278 156.0
143.461182 164.0
143.50647 104.0
143.575623 96.0
143.621826 216.0
143.645737 132.0
143.68161 248.0
143.745651 216.0
143.773636 148.0
143.834 164.0
143.945511 160.0
144.058151 1324.0
144.090622 460.0
144.143768 52.0
144.174835 152.0
144.19635 152.0
144.214493 196.0
144.224533 116.0
144.230591 172.0
144.268051 72.0
144.332611 140.0
144.354126 124.0
144.440231 208.0
144.45697 156.0
144.528137 144.0
144.559845 136.0
144.722626 116.0
144.746567 132.0
144.774994 160.0
144.812286 180.0
144.85817 180.0
144.996994 140.0
145.065216 6504.0
145.102539 3932.0
145.153915 56.0
145.1707 204.0
145.20668 60.0
145.236237 160.0
145.284592 216.0
145.317017 64.0
145.360214 60.0
145.384201 176.0
145.406372 144.0
145.449005 148.0
145.501816 124.0
145.559448 220.0
145.610794 156.0
145.643494 152.0
145.80928 68.0
145.868027 200.0
145.924667 112.0
145.944565 328.0
146.071564 1584.0
146.105545 380.0
146.139572 188.0
146.174332 120.0
146.213318 60.0
146.30127 52.0
146.331268 56.0
146.386642 48.0
146.461304 248.0
146.514297 156.0
146.603455 180.0
146.658707 168.0
146.745667 216.0
146.781601 128.0
146.797379 152.0
146.820572 208.0
146.848251 176.0
146.885529 160.0
146.925644 216.0
146.994827 132.0
147.033142 188.0
147.081558 56396.0
147.160202 84.0
147.222916 108.0
147.266907 176.0
147.318832 32.0
147.356277 112.0
147.37561 252.0
147.402191 76.0
147.457214 88.0
147.47937 72.0
147.521957 160.0
147.539948 120.0
147.556885 52.0
147.602814 200.0
147.636673 72.0
147.670532 80.0
147.719025 84.0
147.782104 132.0
147.822937 200.0
147.83963 80.0
147.912735 196.0
147.93428 68.0
147.955963 96.0
147.994797 44.0
148.016586 196.0
148.050339 128.0
148.084503 6136.0
148.120728 140.0
148.144958 76.0
148.171829 172.0
148.214279 136.0
148.241867 148.0
148.429489 100.0
148.447922 116.0
148.513397 176.0
148.595871 136.0
148.617706 284.0
148.637115 40.0
148.658966 128.0
148.685654 64.0
148.721786 36.0
148.730057 64.0
148.748764 48.0
148.839951 96.0
148.89444 60.0
148.923584 204.0
148.986008 132.0
149.032471 68.0
149.060608 896.0
149.096176 944.0
149.134521 184.0
149.181152 84.0
149.322174 116.0
149.343231 160.0
149.407318 116.0
149.436508 112.0
149.492477 136.0
149.538712 88.0
149.567673 120.0
149.695541 144.0
149.735916 184.0
149.950317 196.0
150.042938 60.0
150.066299 296.0
150.090836 264.0
150.111221 192.0
150.13591 156.0
150.17218 156.0
150.191696 52.0
150.318558 152.0
150.418625 120.0
150.462555 48.0
150.633499 140.0
150.66806 140.0
150.725281 156.0
150.763 88.0
150.792328 168.0
150.863205 180.0
150.890106 140.0
150.946335 148.0
151.022583 112.0
151.041718 192.0
151.075409 596.0
151.208099 76.0
151.264389 80.0
151.281525 44.0
151.308456 164.0
151.450485 120.0
151.547501 152.0
151.71022 320.0
151.734741 152.0
151.778564 192.0
151.94075 96.0
152.062088 300.0
152.146896 184.0
152.269669 104.0
152.328613 124.0
152.419525 172.0
152.559616 164.0
152.598953 164.0
152.721909 40.0
152.761261 96.0
152.798157 132.0
152.842453 132.0
153.070053 748.0
153.115692 132.0
153.172348 176.0
153.18959 64.0
153.371933 156.0
153.413452 104.0
153.500122 212.0
153.56424 152.0
153.629379 228.0
153.660446 140.0
153.690063 248.0
153.742554 188.0
154.078339 980.0
154.116135 128.0
154.154282 80.0
154.206177 244.0
154.230896 156.0
154.307526 124.0
154.369339 360.0
154.629654 280.0
154.711563 152.0
154.845337 164.0
154.869263 112.0
154.946045 164.0
154.983215 76.0
155.016998 232.0
155.084686 2280.0
155.147263 208.0
155.201324 148.0
155.307968 128.0
155.412155 192.0
155.440735 108.0
155.486801 152.0
155.538727 136.0
155.836731 188.0
155.872803 216.0
155.890244 84.0
155.951035 68.0
155.973404 124.0
156.005722 72.0
156.057938 92.0
156.09111 804.0
156.189743 140.0
156.296982 180.0
156.324081 104.0
156.379623 152.0
156.553101 100.0
156.575516 252.0
156.686264 52.0
156.764847 52.0
156.901932 164.0
156.941833 108.0
157.064423 1184.0
157.101501 1772.0
157.141357 84.0
157.176285 88.0
157.206238 68.0
157.263641 180.0
157.308563 80.0
157.326035 172.0
157.380966 84.0
157.435898 124.0
157.653244 308.0
157.698227 108.0
157.793213 344.0
157.895737 212.0
157.975769 112.0
157.998734 136.0
158.072769 9060.0
158.103622 588.0
158.153442 160.0
158.22023 88.0
158.230362 60.0
158.235336 100.0
158.260422 228.0
158.398819 308.0
158.419922 160.0
158.453934 140.0
158.496521 128.0
158.629349 212.0
158.649414 208.0
158.703201 192.0
158.794846 68.0
158.855042 232.0
158.935318 80.0
158.955399 144.0
159.054428 184.0
159.081146 10500.0
159.115784 808.0
159.164902 172.0
159.243515 236.0
159.284286 100.0
159.369705 92.0
159.462677 92.0
159.488831 168.0
159.600937 104.0
159.674301 164.0
159.719147 172.0
159.744293 136.0
159.863449 112.0
159.889221 120.0
159.906677 104.0
159.927979 72.0
159.960709 180.0
159.978317 36.0
160.000977 108.0
160.061066 188.0
160.084793 2044.0
160.116806 268.0
160.204971 188.0
160.265427 116.0
160.320953 124.0
160.421692 96.0
160.489578 56.0
160.555313 212.0
160.599274 224.0
160.837891 68.0
160.916153 120.0
160.933823 36.0
160.962372 92.0
161.00705 120.0
161.058578 544.0
161.063293 200.0
161.096481 4284.0
161.13768 168.0
161.178833 124.0
161.219269 40.0
161.257172 128.0
161.279922 112.0
161.297607 196.0
161.330048 120.0
161.358292 104.0
161.388626 128.0
161.441727 148.0
161.484726 60.0
161.532776 192.0
161.568192 148.0
161.631439 56.0
161.811142 60.0
161.923492 152.0
162.016281 52.0
162.06189 184.0
162.101028 960.0
162.269714 128.0
162.368088 172.0
162.396515 168.0
162.45993 108.0
162.487823 52.0
162.561417 160.0
162.599472 68.0
162.617249 188.0
162.680695 128.0
162.721313 176.0
162.764481 96.0
162.873688 96.0
162.95752 152.0
162.996368 260.0
163.015961 172.0
163.075851 1904.0
163.110397 408.0
163.181183 216.0
163.226944 176.0
163.271378 120.0
163.329788 200.0
163.354111 164.0
163.389725 104.0
163.445694 76.0
163.471146 88.0
163.507217 248.0
163.700241 108.0
163.733398 208.0
163.774109 112.0
163.832687 160.0
163.990677 112.0
164.079681 320.0
164.143631 152.0
164.212494 92.0
164.248199 136.0
164.266052 176.0
164.465088 100.0
164.68721 108.0
164.774063 88.0
164.814941 152.0
164.853271 156.0
164.906952 36.0
164.963181 36.0
165.070389 876.0
165.122101 156.0
165.14473 112.0
165.336609 152.0
165.464584 200.0
165.500427 208.0
165.551651 40.0
165.575012 160.0
165.695084 88.0
165.754013 132.0
165.841141 140.0
165.912918 116.0
166.078247 892.0
166.102692 136.0
166.136032 48.0
166.156555 132.0
166.228394 124.0
166.252472 84.0
166.410645 104.0
166.539322 184.0
166.567291 128.0
166.585266 212.0
166.89624 216.0
166.929672 48.0
166.947678 112.0
167.006821 128.0
167.035126 172.0
167.084579 1572.0
167.120941 224.0
167.145752 124.0
167.17662 212.0
167.202362 72.0
167.284729 80.0
167.369888 248.0
167.395432 96.0
167.452087 184.0
167.511337 172.0
167.628113 196.0
167.774643 124.0
167.913422 160.0
167.980484 72.0
168.021759 72.0
168.057617 228.0
168.074905 120.0
168.095215 572.0
168.189484 136.0
168.390884 60.0
168.517456 180.0
168.615646 160.0
168.638916 116.0
168.667343 160.0
168.827637 100.0
168.892822 216.0
168.962143 164.0
169.021652 136.0
169.063965 1144.0
169.101135 1136.0
169.215775 60.0
169.29863 76.0
169.3582 44.0
169.402237 48.0
169.461823 224.0
169.622498 180.0
169.654922 196.0
169.687302 132.0
169.708038 152.0
169.736557 164.0
169.772873 124.0
170.003754 60.0
170.072464 1428.0
170.109009 412.0
170.136124 80.0
170.159485 132.0
170.193237 68.0
170.255554 76.0
170.315292 216.0
170.369125 152.0
170.640121 148.0
170.679123 128.0
170.723328 268.0
170.755035 128.0
170.777954 100.0
170.803955 160.0
170.824448 192.0
170.854782 104.0
170.981232 176.0
171.006912 60.0
171.044708 292.0
171.08078 25516.0
171.181335 72.0
171.207382 40.0
171.238632 44.0
171.272491 188.0
171.298538 204.0
171.353119 164.0
171.434021 124.0
171.501785 52.0
171.571884 116.0
171.60083 40.0
171.68428 76.0
171.76236 64.0
171.84079 48.0
171.91124 96.0
171.989532 84.0
172.085556 4936.0
172.114059 148.0
172.172287 60.0
172.232361 112.0
172.261978 164.0
172.292435 112.0
172.334244 116.0
172.369461 168.0
172.459686 52.0
172.480591 96.0
172.532867 104.0
172.587769 160.0
172.671448 124.0
172.74469 68.0
172.802246 412.0
172.850586 152.0
172.885254 204.0
172.921555 176.0
172.999893 92.0
173.026077 136.0
173.050018 156.0
173.060196 336.0
173.096863 29348.0
173.163483 52.0
173.184189 84.0
173.189133 76.0
173.199234 68.0
173.219101 52.0
173.268265 72.0
173.287704 168.0
173.323288 128.0
173.357346 52.0
173.379623 60.0
173.411407 160.0
173.432709 148.0
173.475296 68.0
173.52652 52.0
173.574921 36.0
173.60376 40.0
173.622116 128.0
173.668106 140.0
173.843735 92.0
173.923843 132.0
173.955338 88.0
173.986847 52.0
174.036728 244.0
174.060364 84.0
174.10202 2952.0
174.161926 124.0
174.202179 76.0
174.265091 76.0
174.315689 220.0
174.351944 48.0
174.397186 264.0
174.429642 112.0
174.47023 124.0
174.528061 56.0
174.567505 128.0
174.604324 68.0
174.672714 84.0
174.717438 112.0
174.826492 136.0
174.899658 132.0
174.920059 112.0
175.075836 280.0
175.110184 1208.0
175.158188 156.0
175.174515 184.0
175.200287 164.0
175.254517 48.0
175.30986 44.0
175.365204 100.0
175.413254 348.0
175.436371 116.0
175.464645 204.0
175.515472 68.0
175.557663 104.0
175.576111 40.0
175.620956 348.0
175.753586 116.0
175.786896 244.0
175.813049 84.0
175.908569 44.0
176.061707 60.0
176.082825 60.0
176.117859 396.0
176.225479 136.0
176.372803 112.0
176.447479 108.0
176.51358 80.0
176.550598 152.0
176.601761 152.0
176.677567 196.0
176.69873 60.0
176.717255 160.0
176.741058 148.0
176.762222 180.0
176.944855 72.0
177.087357 784.0
177.128571 160.0
177.336014 188.0
177.458847 180.0
177.485352 128.0
177.72142 204.0
177.782455 144.0
177.915161 72.0
177.960297 108.0
178.078293 668.0
178.120834 168.0
178.252472 60.0
178.288498 108.0
178.340179 32.0
178.422577 100.0
178.534256 128.0
178.791489 104.0
178.872147 180.0
178.944031 80.0
179.010605 180.0
179.047882 64.0
179.086151 3376.0
179.159424 296.0
179.242981 168.0
179.268997 68.0
179.418259 296.0
179.479568 112.0
179.54567 112.0
179.567581 184.0
179.631592 68.0
179.719635 168.0
179.82637 200.0
179.866409 88.0
180.013245 148.0
180.093109 1016.0
180.181519 164.0
180.218918 152.0
180.27504 156.0
180.325806 212.0
180.387283 72.0
180.411346 44.0
180.553055 196.0
180.681458 172.0
180.721588 192.0
180.769745 144.0
180.825943 208.0
180.87413 180.0
180.962463 112.0
180.989243 120.0
181.00943 116.0
181.064987 1556.0
181.099747 1316.0
181.399139 56.0
181.471527 60.0
181.514435 136.0
181.560913 144.0
181.602921 236.0
181.67804 68.0
181.745346 132.0
181.804138 88.0
181.908813 168.0
181.930298 44.0
181.992035 192.0
182.016205 184.0
182.073044 1564.0
182.103745 728.0
182.343948 136.0
182.378555 100.0
182.828033 220.0
182.932999 64.0
182.999054 104.0
183.081406 3892.0
183.118088 668.0
183.293884 76.0
183.44751 304.0
183.707413 84.0
183.790024 156.0
183.818359 176.0
183.903366 60.0
184.046448 160.0
184.088364 2156.0
184.116653 124.0
184.135559 40.0
184.233429 160.0
184.286835 156.0
184.398834 188.0
184.429047 160.0
184.457092 136.0
184.554413 200.0
184.664688 164.0
184.68692 124.0
184.719391 172.0
184.749146 128.0
184.865631 148.0
184.979156 116.0
185.030594 148.0
185.062851 180.0
185.096588 5588.0
185.130966 296.0
185.404388 116.0
185.469437 28.0
185.507385 40.0
185.564316 272.0
185.831863 136.0
185.91124 120.0
185.916138 108.0
185.938004 184.0
185.999908 112.0
186.039078 180.0
186.098297 1488.0
186.21286 104.0
186.297058 76.0
186.424759 172.0
186.628632 104.0
186.742844 176.0
186.810852 180.0
186.916946 124.0
187.004028 148.0
187.076111 1332.0
187.110962 3800.0
187.178802 140.0
187.292648 56.0
187.3293 96.0
187.44249 64.0
187.495697 148.0
187.55423 44.0
187.588058 156.0
187.634094 120.0
187.722839 160.0
187.826889 140.0
187.870544 88.0
187.916916 44.0
187.960571 44.0
188.015152 72.0
188.075775 520.0
188.118317 904.0
188.153488 136.0
188.22261 136.0
188.323654 196.0
188.577759 148.0
188.821075 40.0
188.875778 168.0
188.897659 80.0
188.982468 196.0
189.031723 208.0
189.090546 804.0
189.123795 112.0
189.198685 88.0
189.220581 80.0
189.249741 148.0
189.327377 40.0
189.349289 144.0
189.478027 92.0
189.764984 268.0
189.840836 152.0
189.880966 176.0
189.908401 96.0
190.015381 192.0
190.077057 852.0
190.127884 180.0
190.185516 180.0
190.232178 172.0
190.273361 68.0
190.399658 92.0
190.473816 200.0
190.517776 152.0
190.58371 140.0
190.608444 168.0
191.031845 140.0
191.086838 1356.0
191.13913 228.0
191.183167 144.0
191.422653 208.0
191.462967 176.0
191.491501 100.0
191.579651 56.0
191.62648 160.0
192.093658 3076.0
192.326935 104.0
192.639618 252.0
192.738419 164.0
192.948471 44.0
193.061829 144.0
193.100418 3168.0
193.130157 212.0
193.161407 88.0
193.198578 64.0
193.241623 172.0
193.269302 212.0
193.332947 60.0
193.523941 108.0
193.54332 160.0
193.604233 160.0
193.640244 52.0
193.692871 128.0
193.798141 120.0
193.850784 56.0
193.89624 160.0
193.953323 84.0
194.011536 184.0
194.044815 100.0
194.071701 632.0
194.105408 900.0
194.182358 132.0
194.341583 68.0
194.413727 116.0
194.433151 188.0
194.477554 72.0
194.510864 80.0
194.583038 168.0
194.605255 84.0
194.677444 60.0
194.721878 124.0
194.780212 140.0
195.080475 3844.0
195.112625 1584.0
195.150986 152.0
195.199875 116.0
195.249924 164.0
195.444641 164.0
195.483597 116.0
195.502563 88.0
195.574951 120.0
195.700714 152.0
195.742477 112.0
195.800964 120.0
196.087906 3724.0
196.123901 136.0
196.12825 456.0
196.220276 52.0
196.244019 152.0
196.550842 204.0
196.676422 36.0
196.777451 64.0
196.843933 368.0
196.961227 60.0
197.018234 240.0
197.042236 208.0
197.065384 172.0
197.095688 7800.0
197.132843 744.0
197.160553 212.0
197.207108 64.0
197.234467 152.0
197.244843 120.0
197.29097 72.0
197.346878 60.0
197.383224 48.0
197.502792 48.0
197.507217 84.0
197.56073 224.0
197.617096 124.0
197.688141 80.0
197.72731 108.0
197.763702 80.0
197.934464 72.0
197.956879 64.0
198.065918 188.0
198.102371 1780.0
198.138931 100.0
198.169754 144.0
198.28183 72.0
198.385544 100.0
198.413574 112.0
198.570602 88.0
198.619888 84.0
198.67749 112.0
198.755753 60.0
198.775391 136.0
198.848358 208.0
198.873627 88.0
199.005554 36.0
199.037674 176.0
199.071152 612.0
199.111588 4316.0
199.149002 192.0
199.188095 40.0
199.244278 108.0
199.32576 128.0
199.457855 44.0
199.52005 128.0
199.561874 140.0
199.595612 148.0
199.670898 88.0
199.75592 100.0
199.795303 120.0
199.840317 180.0
199.94725 64.0
200.070114 284.0
200.114212 632.0
200.211884 60.0
200.237228 120.0
200.372437 152.0
200.600693 84.0
200.628693 112.0
200.654266 176.0
200.719116 144.0
200.758591 192.0
200.839752 252.0
201.026581 184.0
201.089188 592.0
201.128983 520.0
201.368179 88.0
201.3936 112.0
201.478333 124.0
201.506592 164.0
201.580048 140.0
201.616791 64.0
201.69429 124.0
201.735504 128.0
202.098816 576.0
202.408859 180.0
202.50798 72.0
202.553299 88.0
202.57312 156.0
202.686447 60.0
202.714783 160.0
202.745956 60.0
202.801498 168.0
202.955719 96.0
202.977066 108.0
203.087601 364.0
203.145737 112.0
203.704956 72.0
203.810074 156.0
203.901016 96.0
204.093643 860.0
204.227966 48.0
204.253571 56.0
204.273483 60.0
204.387283 208.0
204.558044 100.0
204.583664 36.0
204.626358 196.0
204.740707 204.0
204.911163 180.0
205.062881 288.0
205.101746 864.0
205.147705 76.0
205.176208 128.0
205.241791 48.0
205.347305 160.0
205.501343 132.0
205.53273 76.0
205.578384 84.0
205.649734 196.0
206.012375 28.0
206.072205 336.0
206.105225 780.0
206.16095 68.0
206.209534 200.0
206.461121 212.0
206.544052 48.0
206.863647 180.0
206.947571 168.0
206.981918 160.0
207.043961 148.0
207.078323 1440.0
207.117004 4548.0
207.162354 36.0
207.21965 64.0
207.248306 64.0
207.403061 200.0
207.44606 240.0
207.586548 64.0
207.869873 52.0
207.92218 40.0
207.975113 208.0
207.99968 84.0
208.088104 3328.0
208.123245 1480.0
208.223633 40.0
208.304062 76.0
208.54541 40.0
208.818558 64.0
208.850189 72.0
208.881836 192.0
208.94194 112.0
209.022812 148.0
209.096436 6248.0
209.131577 1612.0
209.215637 132.0
209.305084 120.0
209.394165 100.0
209.523788 76.0
209.604462 40.0
209.70105 108.0
209.739914 116.0
209.840805 160.0
209.964798 176.0
210.06781 148.0
210.104416 5516.0
210.170807 56.0
210.248352 112.0
210.305237 96.0
210.334854 148.0
210.41893 64.0
210.527542 48.0
210.680634 136.0
210.909225 252.0
211.027435 52.0
211.04834 132.0
211.073654 316.0
211.111542 16464.0
211.222427 140.0
211.282608 80.0
211.31955 84.0
211.362946 204.0
211.432404 32.0
211.519928 184.0
211.545288 136.0
211.692947 108.0
211.736389 88.0
211.76535 84.0
211.802994 72.0
211.858032 156.0
211.915283 84.0
211.956543 80.0
211.990402 216.0
212.014496 124.0
212.040588 44.0
212.081192 472.0
212.117401 3484.0
212.154495 184.0
212.327606 28.0
212.36821 100.0
212.397202 52.0
212.434921 96.0
212.577087 100.0
212.617706 92.0
212.687363 60.0
212.87027 60.0
212.916733 320.0
213.006775 104.0
213.027115 44.0
213.059067 208.0
213.095123 552.0
213.128448 2684.0
213.182251 100.0
213.350037 120.0
213.377396 164.0
213.425064 168.0
213.50087 104.0
213.538681 124.0
213.56485 80.0
213.628845 136.0
213.721939 84.0
213.780136 176.0
213.803421 60.0
213.966431 180.0
214.092316 292.0
214.126572 432.0
214.199387 80.0
214.228531 76.0
214.260574 84.0
214.359634 40.0
214.44899 152.0
214.512115 176.0
214.53743 140.0
214.582245 64.0
214.697784 124.0
214.718201 80.0
214.785278 144.0
214.814453 96.0
214.840714 64.0
215.009949 168.0
215.101242 708.0
215.144974 388.0
215.240555 80.0
215.403915 180.0
215.420609 80.0
215.431656 140.0
215.588181 152.0
215.830795 124.0
215.886353 60.0
215.912674 44.0
215.97052 144.0
216.044296 108.0
216.092316 1144.0
216.205231 180.0
216.325226 100.0
216.492111 80.0
216.533112 248.0
216.577042 88.0
216.609406 168.0
216.647354 184.0
216.73085 144.0
216.77626 108.0
216.82901 92.0
216.893494 124.0
217.099808 916.0
217.224838 104.0
217.359802 160.0
217.405228 116.0
217.439041 176.0
217.500671 64.0
217.521225 28.0
217.562317 148.0
217.632782 92.0
217.759048 36.0
217.81192 52.0
217.932373 44.0
218.104172 724.0
218.514511 64.0
218.652817 268.0
218.903046 128.0
218.958984 32.0
219.08316 960.0
219.117004 1012.0
219.171082 96.0
219.297806 236.0
219.398026 84.0
219.451096 132.0
219.483536 168.0
219.518906 176.0
219.567642 160.0
219.627136 132.0
219.754883 88.0
219.781433 60.0
219.822754 120.0
219.881775 172.0
220.023453 76.0
220.087845 1604.0
220.12529 656.0
220.439911 236.0
220.52858 48.0
220.595901 196.0
220.632034 168.0
220.702988 224.0
220.803528 196.0
220.833115 92.0
220.910019 56.0
221.054993 88.0
221.095764 4916.0
221.132141 2264.0
221.17041 172.0
221.191132 36.0
221.217773 48.0
221.350998 200.0
221.380615 64.0
221.516846 144.0
221.632401 160.0
221.68869 96.0
221.842819 108.0
221.943619 96.0
222.035553 44.0
222.104263 5692.0
222.166946 120.0
222.210556 72.0
222.307831 128.0
222.531097 36.0
222.623138 172.0
222.677734 180.0
222.744919 48.0
222.822144 40.0
222.931854 132.0
223.027191 92.0
223.075256 460.0
223.11145 7252.0
223.386993 40.0
223.494095 128.0
223.520874 84.0
223.559555 192.0
223.583755 152.0
223.648834 144.0
223.770889 124.0
223.821503 64.0
223.907867 100.0
224.003174 92.0
224.085846 476.0
224.117508 2668.0
224.169495 136.0
224.241547 40.0
224.288956 88.0
224.36235 68.0
224.396545 116.0
224.480042 64.0
224.623199 56.0
224.721649 48.0
224.763412 48.0
224.91539 104.0
225.011139 160.0
225.046967 140.0
225.089493 848.0
225.127563 11224.0
225.303436 64.0
225.339661 136.0
225.372528 44.0
225.42894 64.0
225.468811 144.0
225.510422 56.0
225.551849 216.0
225.619476 64.0
225.701324 100.0
225.72525 80.0
225.758133 32.0
225.78804 40.0
225.847855 144.0
225.880768 112.0
225.904694 48.0
225.934601 208.0
225.973495 216.0
226.097992 508.0
226.134537 10156.0
226.221893 116.0
226.25647 160.0
226.296738 68.0
226.324188 48.0
226.373093 120.0
226.440475 84.0
226.562988 80.0
226.641968 136.0
226.758057 172.0
226.815002 120.0
226.860748 108.0
226.892944 40.0
226.955902 188.0
226.985886 80.0
227.018875 124.0
227.039871 160.0
227.104004 948.0
227.1427 5724.0
227.244049 56.0
227.396881 56.0
227.434845 184.0
227.477921 112.0
227.579987 204.0
227.614761 148.0
227.727875 176.0
227.790222 32.0
227.844284 152.0
227.874329 144.0
227.898361 92.0
227.932739 108.0
228.000534 84.0
228.099655 220.0
228.143219 1132.0
228.222977 76.0
228.265244 72.0
228.316193 72.0
228.452362 128.0
228.544815 116.0
228.565872 60.0
228.589432 164.0
228.644119 60.0
228.791611 40.0
228.94516 100.0
229.046829 184.0
229.099274 768.0
229.151657 288.0
229.240387 220.0
229.360931 88.0
229.445343 168.0
229.466446 200.0
229.611191 72.0
230.042664 144.0
230.107727 364.0
230.157379 128.0
230.411087 128.0
230.527527 116.0
230.559143 92.0
230.580292 108.0
230.661911 184.0
230.84935 220.0
230.87355 128.0
230.935608 108.0
231.084579 720.0
231.118683 1020.0
231.209351 176.0
231.248688 32.0
231.269882 240.0
231.499969 48.0
231.990799 180.0
232.021118 36.0
232.082474 836.0
232.121353 384.0
232.206085 60.0
232.269775 144.0
232.32135 116.0
232.673386 148.0
232.904175 80.0
232.954208 128.0
233.094864 1896.0
233.131699 760.0
233.160492 132.0
233.211044 144.0
233.43248 220.0
233.460342 60.0
233.561844 140.0
233.624588 44.0
233.788895 104.0
233.813232 60.0
234.026321 176.0
234.104706 3568.0
234.210892 64.0
234.248398 52.0
234.439316 164.0
234.532013 52.0
234.55336 68.0
234.632614 96.0
234.836914 196.0
234.870468 68.0
234.921249 192.0
235.038254 76.0
235.110748 6900.0
235.203064 52.0
235.328217 136.0
235.38623 112.0
235.508392 52.0
235.749756 136.0
235.954544 140.0
236.117233 2212.0
236.226715 140.0
236.253174 80.0
236.298233 232.0
236.379684 128.0
236.471497 176.0
236.532715 68.0
236.581696 80.0
236.688843 88.0
236.734772 156.0
236.779922 124.0
236.973694 132.0
236.995148 88.0
237.127121 7840.0
237.20047 168.0
237.24646 60.0
237.289383 76.0
237.313904 308.0
237.38324 268.0
237.437241 144.0
237.556183 52.0
237.599136 40.0
237.64209 92.0
237.67276 100.0
237.712662 72.0
237.967422 96.0
238.098984 200.0
238.103333 496.0
238.130844 1300.0
238.165787 128.0
238.256104 80.0
238.418961 196.0
238.520386 112.0
238.59021 168.0
238.843246 76.0
238.901688 96.0
239.061676 84.0
239.108658 1640.0
239.142578 2820.0
239.178635 96.0
239.215576 88.0
239.270981 48.0
239.428024 56.0
239.501938 196.0
239.588196 96.0
239.652893 92.0
239.695312 120.0
239.890198 160.0
240.115677 536.0
240.146179 1080.0
240.349731 40.0
240.389847 168.0
240.436127 72.0
240.646027 192.0
240.834412 124.0
240.914719 136.0
240.951797 96.0
240.979599 28.0
241.063019 144.0
241.122818 1020.0
241.157669 2208.0
241.310303 44.0
241.539139 84.0
241.654556 208.0
241.823807 196.0
241.873322 100.0
241.941422 204.0
242.104568 396.0
242.165756 288.0
242.294479 120.0
242.396713 156.0
242.48349 148.0
242.548584 48.0
242.929993 124.0
243.035477 136.0
243.084305 92.0
243.113998 1024.0
243.1577 164.0
243.308594 144.0
243.401733 80.0
243.482468 140.0
243.743423 188.0
243.958618 100.0
244.123795 1156.0
244.178635 124.0
244.346603 60.0
244.444031 140.0
244.695175 32.0
244.997269 112.0
245.094894 928.0
245.131927 688.0
245.474136 44.0
245.570801 36.0
245.798538 132.0
246.007645 188.0
246.104828 1536.0
246.135101 592.0
246.238708 40.0
246.47612 68.0
246.50737 40.0
246.7668 252.0
246.810577 36.0
247.026367 116.0
247.1129 3220.0
247.149277 816.0
247.226608 128.0
247.254776 36.0
247.307983 176.0
247.367462 60.0
247.398758 28.0
247.567841 64.0
247.589752 44.0
247.812164 188.0
247.97197 196.0
248.117828 4584.0
248.203949 68.0
248.252853 108.0
248.436035 176.0
248.693344 120.0
248.815765 68.0
248.903687 64.0
248.987274 228.0
249.093842 604.0
249.127426 6036.0
249.165359 452.0
249.331329 88.0
249.345337 88.0
249.35408 140.0
249.403198 128.0
249.491211 164.0
249.582382 96.0
249.683014 180.0
249.714462 144.0
250.006912 96.0
250.069992 92.0
250.098267 832.0
250.132172 2480.0
250.312393 76.0
250.353333 128.0
250.419464 64.0
250.73053 60.0
250.873215 172.0
251.049774 96.0
251.074997 176.0
251.107635 588.0
251.141403 2128.0
251.191177 72.0
251.239014 112.0
251.283188 80.0
251.437805 104.0
251.651169 128.0
251.687195 68.0
251.77417 44.0
251.804031 96.0
251.859741 144.0
252.009354 88.0
252.069397 52.0
252.112625 400.0
252.148697 1260.0
252.214767 168.0
252.429749 164.0
252.559418 84.0
252.787201 72.0
252.958115 108.0
253.000565 88.0
253.120407 752.0
253.158798 820.0
253.293762 56.0
253.648651 44.0
254.103729 500.0
254.125824 208.0
254.289352 52.0
254.425842 76.0
254.457306 88.0
254.55603 44.0
254.876846 104.0
255.137466 456.0
255.181976 172.0
255.910568 164.0
256.08252 216.0
256.11618 360.0
256.138885 224.0
256.174896 156.0
256.308716 120.0
256.652954 128.0
257.094574 884.0
257.133759 284.0
257.204865 176.0
257.786133 140.0
258.104187 216.0
258.339264 128.0
259.069122 116.0
259.108459 1104.0
259.146942 1152.0
259.242157 48.0
259.540253 40.0
259.578735 76.0
260.079224 84.0
260.120178 1288.0
260.294312 128.0
260.503082 88.0
260.67334 168.0
260.718353 88.0
260.766541 44.0
260.965851 220.0
261.125305 3068.0
261.174408 140.0
261.412964 152.0
261.50119 48.0
261.531189 76.0
261.562836 112.0
261.631805 56.0
261.792816 144.0
261.863647 40.0
262.056946 64.0
262.101196 580.0
262.134338 3444.0
262.269623 224.0
262.324432 196.0
262.490845 52.0
262.724304 32.0
262.763 64.0
262.801727 96.0
262.82431 76.0
262.992126 52.0
263.049408 180.0
263.072815 216.0
263.108612 900.0
263.141571 6604.0
263.243927 48.0
263.277679 84.0
263.305298 56.0
263.411896 32.0
263.444183 144.0
263.469025 76.0
263.508789 184.0
263.730499 112.0
263.883698 68.0
263.958069 132.0
264.017609 92.0
264.111206 488.0
264.148041 2036.0
264.194092 128.0
264.268585 84.0
264.294464 152.0
264.588501 172.0
264.653748 52.0
264.848053 72.0
264.961426 264.0
265.06189 172.0
265.120056 1200.0
265.15799 5744.0
265.213593 168.0
265.224365 144.0
265.279022 32.0
265.311432 72.0
265.392487 100.0
265.424927 52.0
265.551392 124.0
265.645447 56.0
265.723328 152.0
265.749268 160.0
265.856354 44.0
265.917999 44.0
265.982941 76.0
266.130981 348.0
266.162476 1948.0
266.242676 124.0
266.40506 56.0
266.440796 72.0
266.466797 72.0
266.665009 148.0
266.801544 100.0
266.82428 112.0
266.856812 124.0
266.921844 72.0
266.996613 40.0
267.029144 116.0
267.104553 496.0
267.137634 852.0
267.383759 48.0
267.426086 36.0
267.468384 92.0
267.706055 80.0
267.737885 88.0
267.764679 64.0
267.797241 116.0
267.876282 60.0
267.982941 76.0
268.051361 72.0
268.13382 324.0
268.153717 216.0
268.17572 260.0
268.250153 76.0
268.302338 48.0
268.3284 88.0
268.39035 84.0
268.618652 124.0
268.781769 44.0
268.860077 96.0
268.882935 108.0
268.909027 164.0
268.993896 36.0
269.098358 188.0
269.135132 300.0
269.215912 164.0
269.457642 52.0
269.696167 72.0
269.790985 60.0
269.885803 104.0
269.921753 44.0
270.105713 188.0
270.135773 128.0
270.196503 100.0
270.24884 56.0
270.468109 252.0
270.543396 84.0
270.995361 60.0
271.041229 76.0
271.11084 540.0
271.198517 44.0
271.362427 56.0
271.683838 140.0
271.717224 180.0
272.117767 1492.0
272.269348 72.0
272.333771 44.0
272.488159 56.0
273.122101 760.0
273.168671 212.0
273.540497 56.0
273.789825 160.0
273.88623 180.0
273.919189 48.0
274.134949 644.0
274.65094 88.0
274.809296 76.0
274.855469 100.0
274.914886 80.0
275.103821 876.0
275.141235 1116.0
275.426605 88.0
275.89917 76.0
276.110931 360.0
276.147736 688.0
276.266235 84.0
276.35556 36.0
276.441589 172.0
276.47467 60.0
276.67572 184.0
276.809021 68.0
276.987885 132.0
277.024323 56.0
277.125519 1096.0
277.157867 5124.0
277.206543 64.0
277.229736 32.0
277.357574 56.0
277.417633 140.0
277.627533 116.0
277.979156 48.0
278.11969 164.0
278.161743 1768.0
278.267944 64.0
278.420685 72.0
278.689758 80.0
278.769501 88.0
279.136658 1340.0
279.162476 300.0
279.281494 44.0
279.725311 116.0
279.933777 76.0
280.020355 88.0
280.105652 284.0
280.14502 1068.0
280.230225 44.0
280.600189 36.0
281.075684 156.0
281.15213 1204.0
281.557831 120.0
281.895233 92.0
282.154419 492.0
282.202759 44.0
282.33316 156.0
282.500397 92.0
282.734619 156.0
282.8685 124.0
283.039246 44.0
283.129639 376.0
283.167175 820.0
283.287079 32.0
283.635559 72.0
283.870239 40.0
284.172943 304.0
284.252655 104.0
284.608459 96.0
284.722626 72.0
284.88385 88.0
285.127991 476.0
285.182922 132.0
285.566193 92.0
286.135193 128.0
287.06485 96.0
287.140564 2148.0
287.230103 92.0
287.628265 168.0
287.965912 108.0
288.143982 400.0
288.496399 120.0
289.122742 560.0
289.157074 208.0
289.924744 76.0
290.036591 52.0
290.128937 428.0
290.331573 32.0
290.643646 56.0
290.891388 36.0
291.095093 128.0
291.131561 584.0
291.168518 116.0
291.553711 72.0
292.144165 428.0
292.777405 192.0
293.149719 876.0
293.181183 176.0
293.715668 56.0
294.151764 216.0
294.360718 92.0
294.493896 68.0
295.134888 276.0
295.170349 1588.0
295.800201 92.0
295.86853 28.0
296.060272 188.0
296.133209 312.0
296.162231 176.0
296.248657 56.0
296.920471 52.0
297.153137 208.0
297.236053 92.0
297.294403 200.0
298.151459 308.0
298.30072 92.0
299.167603 192.0
299.270905 60.0
299.577393 64.0
300.535828 60.0
300.735992 120.0
301.119232 156.0
301.163269 176.0
301.609863 140.0
302.671936 60.0
302.696167 80.0
303.138702 384.0
304.140961 108.0
304.193909 140.0
304.47168 200.0
304.732208 32.0
305.150665 2692.0
305.664062 56.0
305.695374 72.0
306.155579 476.0
306.318573 32.0
306.370819 36.0
306.475342 172.0
306.635651 184.0
306.987762 52.0
307.159637 56.0
307.856689 48.0
308.146057 216.0
308.165771 164.0
308.212982 28.0
308.709351 76.0
309.141296 180.0
309.183197 168.0
309.230621 204.0
310.060638 40.0
310.162292 100.0
310.190338 180.0
310.814575 76.0
311.169983 156.0
311.506226 76.0
311.804871 140.0
311.927887 108.0
311.99118 56.0
312.161835 112.0
312.27951 60.0
313.178101 336.0
314.175293 132.0
315.226746 92.0
317.148438 140.0
318.26947 184.0
318.464783 68.0
319.153595 184.0
321.137756 124.0
321.230499 92.0
322.744751 64.0
323.050964 116.0
323.165405 2112.0
323.245544 60.0
323.893524 140.0
324.166687 860.0
324.575714 80.0
324.642578 76.0
324.674866 92.0
325.139709 104.0
325.176788 244.0
325.274048 32.0
325.845032 76.0
325.967194 32.0
326.301453 112.0
327.164886 152.0
327.759155 88.0
328.353943 68.0
331.205658 160.0
333.186279 124.0
333.746002 32.0
334.509979 136.0
336.168304 124.0
338.408966 44.0
339.170929 144.0
340.436707 76.0
341.173981 284.0
341.181335 136.0
342.170563 340.0
342.861023 140.0
345.194092 108.0
347.012115 92.0
347.21048 112.0
347.416351 152.0
347.809692 104.0
350.222839 192.0
351.188171 140.0
352.21463 140.0
352.375244 44.0
353.212646 116.0
353.687836 44.0
354.204559 136.0
355.1604 144.0
355.528076 68.0
357.96402 100.0
358.725067 32.0
359.136078 140.0
361.187073 172.0
361.724396 72.0
361.849304 164.0
361.883392 72.0
362.008331 28.0
362.205292 64.0
364.094086 76.0
365.108795 100.0
366.227722 120.0
370.207275 68.0
371.284119 136.0
372.762085 120.0
375.406647 40.0
376.070221 68.0
377.194641 116.0
378.122498 124.0
378.695496 108.0
379.187561 120.0
380.18811 76.0
380.409363 68.0
380.696655 92.0
386.536133 68.0
387.14679 136.0
387.24469 76.0
387.714844 72.0
390.02655 68.0
395.157043 120.0
396.210144 152.0
398.499329 132.0
399.365936 36.0
402.230835 48.0
407.47287 96.0
409.431763 112.0
409.556641 88.0
410.560181 72.0
411.431702 48.0
412.122345 96.0
413.023834 56.0
413.232819 1284.0
413.290863 136.0
413.408203 64.0
413.602478 56.0
413.922302 80.0
414.231506 268.0
414.635284 40.0
414.955505 104.0
415.243713 216.0
416.542236 68.0
417.603119 60.0
421.933655 68.0
427.964783 136.0
430.624603 72.0
431.269165 40.0
432.228607 92.0
433.39624 56.0
433.454254 84.0
434.241913 92.0
438.636841 124.0
439.291504 92.0
448.457733 68.0
450.094543 84.0
453.072083 72.0
456.293243 116.0
459.478851 56.0
460.434998 88.0
466.970856 64.0
467.831421 108.0
468.619568 52.0
469.106537 72.0
470.521515 84.0
470.918793 32.0
472.656647 36.0
480.403198 104.0
481.752106 60.0
482.634949 68.0
484.048431 116.0
489.541718 52.0
489.660614 96.0
495.039581 92.0
495.318573 96.0
496.936676 140.0
498.615204 80.0
500.902161 124.0
502.333038 88.0
504.753693 128.0
513.858154 52.0
517.854187 112.0
521.4021 52.0
526.458862 100.0
529.449707 104.0
531.971436 72.0
542.31311 52.0
543.24054 136.0
543.839111 84.0
549.194458 104.0
550.50592 56.0
551.206604 60.0
555.176208 52.0
559.635498 92.0
570.051331 52.0
579.269043 40.0
584.377075 132.0
585.291565 60.0
604.098633 56.0
611.921326 48.0
617.551819 60.0
621.281738 120.0
629.489197 88.0
630.698181 28.0
631.058105 48.0
631.983398 96.0
643.392273 40.0
645.939148 56.0
651.220764 76.0
655.590942 168.0
659.587219 112.0
663.80072 68.0
665.355347 132.0
675.538513 88.0
678.666565 80.0
693.162476 48.0
702.373413 48.0
704.643372 88.0
715.819153 120.0
726.310242 72.0
728.978516 76.0
736.569702 300.0
737.174805 84.0
738.31543 112.0
743.082153 76.0
764.788208 136.0
767.432434 56.0
775.719604 64.0
783.728088 128.0
803.994019 92.0
806.151306 156.0
817.037659 176.0
827.750854 160.0
830.645081 92.0
834.757263 80.0
839.00647 132.0
839.600342 64.0
842.301514 56.0
846.621948 132.0
847.792114 136.0
847.90802 144.0
848.093506 172.0
849.119751 120.0
852.940186 104.0
854.27179 48.0
859.6203 88.0
862.967285 160.0
873.317566 124.0
874.170654 72.0
875.41272 180.0
877.987976 208.0
881.937805 108.0
882.830505 140.0
882.972473 52.0
887.407654 56.0
889.976746 124.0
894.310486 136.0
896.091003 140.0
897.163757 152.0
898.076111 132.0
899.764832 180.0
900.815857 96.0
903.637634 88.0
904.080383 96.0
906.032349 256.0
906.307983 48.0
906.907227 80.0
915.016846 116.0
915.215515 212.0
919.736938 248.0
920.358765 216.0
920.47345 136.0
925.952393 60.0
927.588318 108.0
937.373291 200.0
941.203979 184.0
943.88031 60.0
946.015564 56.0
946.291077 156.0
947.038147 48.0
947.6875 148.0
950.900757 188.0
953.56012 172.0
956.543213 120.0
959.937988 176.0
964.488037 132.0
965.786499 176.0
967.178711 156.0
970.139648 116.0
973.819214 156.0
975.677185 164.0
976.672119 144.0
976.889832 116.0
978.869019 128.0
984.187866 156.0
987.412354 28.0
988.2005 140.0
988.632263 184.0
989.984436 64.0
990.203613 28.0
992.791931 36.0
993.111755 160.0
994.140686 148.0
996.916321 172.0
1002.189392 68.0
1002.781738 168.0
1006.162781 168.0
1007.368958 204.0
1011.434875 204.0
1011.846375 100.0
1012.815247 160.0
1012.960938 176.0
1016.301941 184.0
1020.716492 168.0
1023.579895 176.0
1024.255005 216.0
1025.255249 180.0
1026.230591 180.0
1027.238159 132.0
1028.590942 204.0
1032.641846 104.0
1034.337524 72.0
1035.86792 164.0
1035.983154 32.0
1036.418823 140.0
1037.226318 112.0
1038.822998 208.0
1040.221924 168.0
1041.653931 128.0
1042.752563 80.0
1044.733032 108.0
1045.949219 60.0
1046.522217 36.0
1046.605957 164.0
1048.061646 256.0
1048.538452 164.0
1049.492554 116.0
1049.634399 168.0
1055.471558 112.0
1060.501709 168.0
1060.670288 104.0
1062.764893 172.0
1064.12146 116.0
1064.738281 212.0
1066.577026 76.0
1067.363647 92.0
1068.137573 140.0
1070.096436 136.0
1073.289062 196.0
1074.312988 32.0
1074.906738 164.0
1076.99585 144.0
1077.374634 184.0
1077.995361 144.0
1078.75354 224.0
1080.152954 144.0
1081.422241 112.0
1083.655273 244.0
1087.222412 172.0
1087.95752 44.0
1089.783325 168.0
1091.084717 188.0
1093.202637 204.0
1093.538208 164.0
1095.269897 76.0
1095.500488 120.0
1097.431396 152.0
1097.536987 156.0
1100.241943 112.0
1101.965698 116.0
1102.296143 212.0
1103.294189 120.0
1105.549561 140.0
1105.761353 184.0
1106.21814 112.0
1106.463013 156.0
1106.56897 84.0
1106.615356 176.0
1107.158325 160.0
1108.582642 108.0
1108.847656 144.0
1111.108765 212.0
1112.54895 224.0
1113.033569 164.0
1113.651245 160.0
1114.049805 136.0
1114.860352 120.0
1118.391846 132.0
1118.844604 88.0
1119.92334 52.0
1120.089844 152.0
1120.829346 116.0
1124.877563 212.0
1125.311523 164.0
1125.89917 52.0
1126.226318 128.0
1126.553711 32.0
1127.849976 144.0
1130.117065 128.0
1130.632324 96.0
1131.388672 148.0
1131.850586 64.0
1133.297485 96.0
1137.180176 160.0
1137.502319 148.0
1137.864868 44.0
1138.549805 184.0
1140.746826 144.0
1141.607422 60.0
1141.950439 132.0
1142.69043 164.0
1143.450806 160.0
1143.52478 80.0
1143.773804 184.0
1144.305664 124.0
1144.649048 220.0
1144.864502 120.0
1145.76709 256.0
1147.539673 132.0
1150.616089 132.0
1151.000977 200.0
1151.237305 200.0
1152.034302 168.0
1153.649414 40.0
1153.960449 172.0
1156.700195 152.0
1157.824219 152.0
1158.277954 204.0
1158.819946 156.0
1159.490723 32.0
1160.399048 168.0
1162.454346 80.0
1162.86145 96.0
1163.160156 96.0
1166.90332 196.0
1169.522339 116.0
1170.604736 180.0
1171.708252 32.0
1172.178345 188.0
1173.480225 132.0
1175.014771 136.0
1175.198975 136.0
1176.645874 200.0
1178.175659 148.0
1179.426147 180.0
1180.834595 232.0
1181.327148 176.0
1184.523926 96.0
1184.660889 156.0
1185.346069 76.0
1186.908813 164.0
1187.299805 168.0
1187.738647 192.0
1188.253174 180.0
1188.946289 172.0
1189.914062 160.0
1195.151367 164.0
1195.343994 140.0
1196.989258 140.0
1198.015381 80.0
1198.21521 108.0
1200.593262 124.0
1200.896729 52.0
1202.014282 52.0
1203.166992 120.0
1204.990234 64.0
1205.038574 180.0
1205.273438 152.0
1205.570557 164.0
1206.973877 176.0
1207.699951 136.0
1207.852173 132.0
1207.962891 152.0
1208.564697 84.0
1210.115112 196.0
1210.30896 136.0
1210.585938 196.0
1211.160767 168.0
1212.680664 224.0
1212.85144 88.0
1214.640381 176.0
1217.534668 156.0
1218.729492 188.0
1219.028198 140.0
1219.09082 88.0
1220.557495 124.0
1220.849609 128.0
1220.995605 160.0
1221.127808 76.0
1221.858154 140.0
1222.0896 196.0
1222.832275 148.0
1223.792969 192.0
1224.050659 92.0
1225.299438 80.0
1225.720337 136.0
1226.203247 108.0
1227.911377 120.0
1228.573975 120.0
1228.706543 180.0
1228.972656 188.0
1229.069336 140.0
1229.599731 176.0
1229.89978 44.0
1229.962646 236.0
1230.179077 44.0
1230.234863 216.0
1231.051758 40.0
1231.540649 136.0
1232.951904 176.0
1233.40625 176.0
1233.650879 152.0
1234.965454 120.0
1235.063354 144.0
1235.979858 112.0
1237.435669 148.0
1237.729736 132.0
1238.470947 200.0
1239.09082 172.0
1239.235718 184.0
1239.719116 216.0
1239.803223 168.0
1240.875122 100.0
1241.359497 168.0
1241.464722 156.0
1241.548828 156.0
1242.138062 92.0
1242.341431 140.0
1242.615112 144.0
1242.804443 160.0
1243.134277 168.0
1244.636475 248.0
1245.416016 176.0
1246.469727 108.0
1247.130371 160.0
1250.60498 252.0
1251.034302 96.0
1251.499023 184.0
1251.618652 196.0
1252.717407 124.0
1252.865356 120.0
1253.295044 192.0
1255.910522 160.0
1258.225098 204.0
1258.345093 128.0
1258.874634 144.0
1259.482056 184.0
1261.503052 220.0
1262.648438 80.0
1262.966675 196.0
1263.433594 188.0
1263.596313 136.0
1264.112793 176.0
1264.976318 168.0
1265.0896 116.0
1265.401001 80.0
1265.804077 184.0
1266.06665 172.0
1266.243652 148.0
1267.639282 184.0
1267.915649 184.0
1269.021484 160.0
1269.227173 40.0
1269.439819 136.0
1270.298096 188.0
1271.326782 208.0
1272.306274 224.0
1272.56189 132.0
1272.88855 200.0
1272.966675 168.0
1274.344604 180.0
1274.721191 124.0
1275.069458 184.0
1275.204468 108.0
1275.36084 168.0
1275.467407 188.0
1275.837158 184.0
1276.747192 124.0
1277.743042 160.0
1278.881592 76.0
1281.074707 160.0
1281.366821 76.0
1281.744507 52.0
1282.022339 228.0
1285.024292 152.0
1285.663086 240.0
1287.758301 124.0
1288.072632 100.0
1288.236938 132.0
1289.122925 180.0
1290.109253 148.0
1291.253296 112.0
1291.61084 72.0
1292.397827 56.0
1292.476562 124.0
1292.562378 168.0
1294.430664 140.0
1294.530884 180.0
1295.232788 244.0
1295.34021 180.0
1295.533691 64.0
1295.619629 108.0
1296.106812 176.0
1296.665771 128.0
1297.239136 144.0
1297.447144 208.0
1298.078003 72.0
1299.548462 124.0
1300.251709 164.0
1301.393066 124.0
1301.680298 128.0
1302.994629 148.0
1303.619751 136.0
1305.179688 188.0
1305.316284 168.0
1306.862671 208.0
1307.884644 152.0
1308.986084 200.0
1309.655884 48.0
1311.370728 28.0
1311.832031 172.0
1313.202026 156.0
1313.959473 176.0
1314.096558 176.0
1315.612061 136.0
1315.900879 152.0
1316.030762 144.0
1316.233032 188.0
1316.991333 220.0
1317.554688 140.0
1320.641357 160.0
1321.733765 200.0
1324.528198 152.0
1325.274414 192.0
1326.796387 192.0
1327.615723 88.0
1329.393066 188.0
1330.08252 160.0
1330.692383 80.0
1331.098999 112.0
1333.183838 152.0
1333.808838 112.0
1334.73938 72.0
1335.786743 204.0
1336.681641 176.0
1338.079102 140.0
1339.22229 216.0
1340.664917 92.0
1340.876831 152.0
1341.328125 132.0
1341.874878 128.0
1342.713379 104.0
1344.668701 152.0
1344.885986 224.0
1346.011963 200.0
1346.12146 136.0
1346.238281 128.0
1347.7677 204.0
1347.947632 96.0
1348.049927 188.0
1348.108398 184.0
1348.247192 152.0
1348.364136 124.0
1348.511841 192.0
1348.992798 152.0
1349.321777 160.0
1349.474243 180.0
1349.570312 160.0
1350.074829 132.0
1350.411255 208.0
1350.499023 176.0
1350.989136 128.0
1351.128174 148.0
1351.640259 136.0
1351.976929 152.0
1352.708862 184.0
1352.77478 148.0
1352.825928 196.0
1355.338013 116.0
1355.953613 116.0
1356.378662 84.0
1357.603149 124.0
1357.903809 108.0
1358.974854 116.0
1359.180298 256.0
1360.281128 164.0
1360.457275 44.0
1360.824341 140.0
1361.698242 216.0
1361.99939 136.0
1362.969116 156.0
1363.402588 124.0
1364.255249 144.0
1364.394897 192.0
1365.174316 112.0
1365.416992 96.0
1365.777466 144.0
1365.828857 176.0
1366.189331 176.0
1367.315186 148.0
1367.594849 196.0
1367.742065 296.0
1367.859741 88.0
1368.124756 220.0
1368.323608 124.0
1368.912598 164.0
1369.221924 60.0
1369.354492 124.0
1370.164795 100.0
1370.647461 212.0
1371.395386 140.0
1372.729736 60.0
1373.157471 184.0
1373.378784 80.0
1374.632935 140.0
1375.629272 128.0
1376.441406 144.0
1376.773682 92.0
1377.069092 160.0
1377.889038 160.0
1378.354614 164.0
1379.093628 56.0
1379.588867 128.0
1380.024292 212.0
1380.276367 164.0
1380.439087 156.0
1382.207031 168.0
1382.40686 244.0
1383.124756 48.0
1383.287598 100.0
1383.442993 144.0
1383.946411 128.0
1384.627686 204.0
1384.894409 280.0
1386.079712 204.0
1386.279785 132.0
1386.783691 132.0
1387.146973 184.0
1387.406372 128.0
1387.73999 156.0
1388.288696 144.0
1388.355469 172.0
1388.451904 140.0
1389.208374 120.0
1389.393921 180.0
1389.490356 160.0
1390.039429 224.0
1390.172974 40.0
1390.647949 116.0
1391.657471 172.0
1391.921631 264.0
1392.199585 100.0
1394.852051 248.0
1395.759033 132.0
1396.041626 104.0
1396.175415 88.0
1396.517578 68.0
1397.053101 152.0
1397.246582 56.0
1397.46228 140.0
1397.514404 224.0
1397.678101 204.0
1397.77478 208.0
1397.856689 92.0
1400.194214 104.0
1401.207275 36.0
1402.146118 168.0
1402.332397 184.0
1402.779663 144.0
1403.003296 144.0
1403.212036 144.0
1403.96521 156.0
1404.088623 200.0
1404.416138 152.0
1404.837891 180.0
1405.733154 64.0
1406.63623 220.0
1407.651611 160.0
1408.540405 176.0
1408.592651 120.0
1409.406982 92.0
1409.490845 180.0
1409.832886 76.0
1410.326172 212.0
1410.442993 180.0
1411.522339 148.0
1411.582153 156.0
1412.113159 168.0
1413.265137 36.0
1413.534546 124.0
1414.230469 104.0
1414.350342 136.0
1414.724609 176.0
1414.911743 140.0
1415.136353 100.0
1415.503174 196.0
1416.656616 132.0
1417.061157 132.0
1417.128662 252.0
1417.390869 184.0
1418.177734 216.0
1419.272217 148.0
1419.737183 88.0
1420.74231 132.0
1420.832275 56.0
1420.974854 148.0
1422.370605 220.0
1422.663452 200.0
1422.911133 148.0
1423.842285 148.0
1424.187744 208.0
1425.171875 88.0
1425.344727 144.0
1425.457397 156.0
1425.848145 72.0
1426.276611 180.0
1427.652466 112.0
1428.359375 208.0
1428.773193 232.0
1429.194458 140.0
1431.550537 200.0
1431.881958 136.0
1432.142334 112.0
1432.529663 104.0
1434.360718 120.0
1434.511597 200.0
1434.609497 200.0
1435.190063 176.0
1435.484131 156.0
1435.589722 108.0
1435.725464 168.0
1436.204224 156.0
1436.370483 200.0
1436.758789 168.0
1436.841797 36.0
1436.909668 40.0
1437.422729 40.0
1437.837769 176.0
1438.101929 164.0
1438.290649 164.0
1438.393921 224.0
1438.871948 180.0
1439.370239 176.0
1439.72522 184.0
1441.696899 72.0
1441.931152 164.0
1442.853394 44.0
1443.065063 204.0
1443.760742 136.0
1444.47168 148.0
1444.607788 80.0
1444.766724 116.0
1445.50061 208.0
1445.78064 148.0
1445.886597 168.0
1446.514771 112.0
1446.764648 128.0
1446.840332 180.0
1446.900879 192.0
1447.870117 112.0
1448.059448 220.0
1449.172974 216.0
1450.052002 168.0
1450.188477 240.0
1451.060181 188.0
1451.17395 168.0
1451.422119 156.0
1451.484741 176.0
1451.598511 184.0
1452.091431 220.0
1453.252075 152.0
1453.585938 184.0
1453.909546 100.0
1455.369751 52.0
1456.44812 180.0
1456.805054 56.0
1456.865845 184.0
1457.154541 164.0
1458.302002 188.0
1458.469238 156.0
1460.849243 116.0
1461.206787 96.0
1461.412231 216.0
1461.66333 192.0
1462.340698 136.0
1462.589722 172.0
1462.703613 196.0
1463.474854 200.0
1463.817505 136.0
1463.924194 168.0
1464.457275 92.0
1464.716309 144.0
1465.506836 176.0
1465.912354 216.0
1466.308716 160.0
1467.536011 108.0
1467.665527 112.0
1469.4198 192.0
1469.854736 188.0
1470.159912 172.0
1470.73999 56.0
1471.846924 52.0
1472.503662 120.0
1472.564819 184.0
1473.130005 184.0
1473.741211 188.0
1473.863525 204.0
1474.251587 192.0
1474.352539 128.0
1475.132202 76.0
1475.759033 164.0
1475.858398 92.0
1476.271362 92.0
1476.324829 112.0
1477.694092 156.0
1478.046021 136.0
1478.849609 176.0
1479.040894 148.0
1479.232666 184.0
1479.354736 252.0
1479.599731 144.0
1480.426636 128.0
1481.230835 60.0
1481.422363 152.0
1481.84375 84.0
1482.042969 48.0
1482.39856 208.0
1483.422485 160.0
1483.552734 164.0
1484.058716 160.0
1484.817871 168.0
1485.723022 60.0
1485.907104 180.0
1486.444214 72.0
1487.21936 156.0
1487.64917 172.0
1487.764404 124.0
1488.033081 168.0
1488.962158 168.0
1489.139404 152.0
1489.29248 176.0
1490.344971 152.0
1490.821289 172.0
1490.945801 184.0
1490.998047 212.0
1491.128784 236.0
1491.197876 72.0
1491.582275 184.0
1491.651367 52.0
1492.266479 140.0
1492.400513 328.0
1492.520142 180.0
1493.043091 52.0
1493.835327 128.0
1495.050903 136.0
1495.181763 136.0
1495.612793 164.0
1496.328735 96.0
1496.521118 132.0
1496.821411 164.0
1497.05249 104.0
1497.352783 192.0
1498.338745 132.0
1498.3927 120.0
1498.508301 48.0
1499.364258 136.0
1499.579468 180.0
1499.72583 144.0
1501.375732 132.0
1502.594482 176.0
1502.710205 156.0
1502.895386 36.0
1502.995728 228.0
1503.242554 28.0
1503.713379 184.0
1503.798218 196.0
1503.907715 156.0
1504.817261 168.0
1504.894409 124.0
