>compound MLS001140881-01!
>formula C34H35N5O5
>ionization [M+H]+
>parentmass 594.272034
#inchi InChI=1S/C34H35N5O5/c1-43-23-9-6-8-22(20-23)31-30-26(24-10-2-4-12-27(24)36-30)21-29-33(41)39(34(42)38(29)31)28-13-5-3-11-25(28)32(40)35-14-7-15-37-16-18-44-19-17-37/h2-6,8-13,20,29,31,36H,7,14-19,21H2,1H3,(H,35,40)/t29-,31?/m0/s1
#inchikey GRTQHWQVNIGNKX
#Ion_Source LC-ESI
#Instrument qTof
#Compound_Source NIH Natural Product Library
#PI Dorrestein
#Data_Collector VVP/LMS
#Scan -1
#Precursor_MZ 594.272
#ExactMass 593.264
#Charge 1
#CAS_Number N/A
#Pubmed_ID N/A
#Smiles COc1cccc(c1)C2N3[C@@H](Cc4c2[nH]c5ccccc45)C(=O)N(C3=O)c6ccccc6C(=O)NCCCN7CCOCC7
#INCHI_AUX N/A
#Library_Class 1
#SpectrumID CCMSLIB00000079993
#IonMode Positive
#UpdateWorkflowName UPDATE-SINGLE-ANNOTATED-GOLD
#LibraryQualityString Gold
#TaskID b1d8e8f6646f4e71acdff9ca3d919d08
##Scan# 1820
#SpectrumFile p2-F02_GF2_01_18038.mzXML
#LibraryName NIH_Natural_Products_Library.mgf
#MQScore -1
#Organism NIH_Natural_Products_Library
#TIC_Query 0
#RT_Query -1
#MZErrorPPM -1
#SharedPeaks 0
#MassDiff 0
#LibMZ -1
#SpecMZ 594.272
#SpecCharge 0
#internalFilename spec-00000.mgf

>collision 10
94.995377 120.0
95.008957 168.0
95.033409 172.0
95.040894 104.0
95.109863 228.0
95.146751 144.0
95.164223 156.0
95.191406 124.0
95.243843 204.0
95.271042 88.0
95.317673 196.0
95.33905 196.0
95.404289 184.0
95.451797 152.0
95.498474 136.0
95.51403 64.0
95.550995 136.0
95.57045 128.0
95.59964 160.0
95.681389 156.0
95.69725 136.0
95.720329 104.0
95.782654 152.0
95.880074 180.0
95.915161 104.0
96.006798 268.0
96.026299 180.0
96.078964 308.0
96.100426 152.0
96.217529 192.0
96.272202 344.0
96.318771 128.0
96.334709 88.0
96.373779 196.0
96.393318 180.0
96.416771 204.0
96.469543 176.0
96.508644 244.0
96.536026 172.0
96.569092 216.0
96.588264 152.0
96.618172 120.0
96.678833 156.0
96.700363 160.0
96.745178 116.0
96.764961 140.0
96.815002 180.0
96.864784 144.0
96.882469 188.0
96.982407 120.0
97.015732 120.0
97.064743 248.0
97.123581 180.0
97.162811 112.0
97.271591 196.0
97.28627 168.0
97.356071 236.0
97.385277 160.0
97.427849 140.0
97.463219 208.0
97.486794 276.0
97.533966 36.0
97.589012 140.0
97.624367 200.0
97.680534 112.0
97.726692 152.0
97.750305 112.0
97.769981 212.0
97.787224 200.0
97.798904 156.0
97.846756 280.0
97.880226 164.0
97.925522 44.0
97.976738 128.0
97.9925 184.0
98.03846 172.0
98.060524 152.0
98.079971 164.0
98.103218 200.0
98.175819 156.0
98.195534 184.0
98.209343 140.0
98.225121 144.0
98.258659 136.0
98.306015 116.0
98.339569 120.0
98.363251 164.0
98.397827 172.0
98.493576 136.0
98.531113 360.0
98.548737 148.0
98.606781 156.0
98.689232 96.0
98.776245 116.0
98.819771 144.0
98.857712 160.0
98.881111 184.0
98.904869 108.0
98.972176 68.0
99.053375 156.0
99.081108 148.0
99.094215 172.0
99.128662 56.0
99.196053 120.0
99.20993 148.0
99.261482 152.0
99.343536 148.0
99.356682 176.0
99.38472 152.0
99.423691 164.0
99.451149 192.0
99.497589 104.0
99.527374 136.0
99.582184 204.0
99.598869 204.0
99.646545 208.0
99.66642 116.0
99.688278 176.0
99.70417 136.0
99.751877 228.0
99.776634 220.0
99.78392 100.0
99.791634 232.0
99.835381 196.0
99.869194 164.0
99.916939 32.0
99.945183 164.0
100.022408 204.0
100.049957 172.0
100.075096 2104.0
100.097176 376.0
100.125946 168.0
100.165779 136.0
100.293304 196.0
100.402962 136.0
100.457596 144.0
100.465797 56.0
100.47213 172.0
100.510689 116.0
100.582535 152.0
100.634438 236.0
100.689766 216.0
100.858185 148.0
100.892174 28.0
100.924881 188.0
101.010155 164.0
101.036163 156.0
101.086433 192.0
101.26236 152.0
101.285942 212.0
101.322456 140.0
101.346497 172.0
101.390587 200.0
101.420647 92.0
101.488808 60.0
101.526909 32.0
101.567024 108.0
101.613159 128.0
101.631218 128.0
101.654243 304.0
101.711494 88.0
101.747627 116.0
101.768486 144.0
101.805862 304.0
101.852051 132.0
101.946205 144.0
101.97261 104.0
102.020851 132.0
102.130585 228.0
102.145531 48.0
102.177719 96.0
102.211922 80.0
102.234062 160.0
102.264252 124.0
102.459106 204.0
102.535027 208.0
102.685341 36.0
102.713585 124.0
102.784195 116.0
102.830612 84.0
102.846756 160.0
102.887131 116.0
102.912865 152.0
102.977997 132.0
103.032539 48.0
103.055946 164.0
103.085075 228.0
103.09922 84.0
103.121452 108.0
103.232643 128.0
103.273094 200.0
103.358063 164.0
103.424843 208.0
103.473434 152.0
103.519753 164.0
103.546333 168.0
103.562531 132.0
103.657753 208.0
103.680046 108.0
103.718552 92.0
103.757072 192.0
103.87429 164.0
103.939873 204.0
103.965996 44.0
103.990349 208.0
104.015266 144.0
104.061401 224.0
104.093887 220.0
104.125046 204.0
104.167 176.0
104.236084 180.0
104.258438 196.0
104.451248 168.0
104.471802 128.0
104.487373 292.0
104.598099 152.0
104.66732 168.0
104.728416 136.0
104.756935 416.0
104.849609 132.0
104.903656 76.0
104.955345 208.0
105.013771 268.0
105.136177 112.0
105.179039 96.0
105.204407 168.0
105.260704 224.0
105.313622 160.0
105.456421 120.0
105.481361 140.0
105.538605 176.0
105.56723 160.0
105.589729 100.0
105.667458 108.0
105.689964 164.0
105.726799 76.0
105.765686 188.0
105.829147 168.0
105.848785 200.0
105.88649 124.0
105.909019 188.0
105.94384 164.0
105.959274 160.0
106.025368 112.0
106.053276 168.0
106.077042 136.0
106.11805 52.0
106.163162 80.0
106.204178 180.0
106.282135 116.0
106.368332 152.0
106.400032 172.0
106.414742 192.0
106.455933 264.0
106.500908 208.0
106.542137 252.0
106.600418 148.0
106.686745 104.0
106.711411 184.0
106.812187 140.0
106.865669 200.0
106.929466 172.0
106.947845 116.0
106.985832 188.0
107.011803 44.0
107.063286 156.0
107.085938 184.0
107.104477 120.0
107.127136 156.0
107.173149 132.0
107.201309 52.0
107.250778 204.0
107.284691 176.0
107.331177 140.0
107.352547 132.0
107.361938 48.0
107.367523 128.0
107.393822 128.0
107.415733 88.0
107.500328 216.0
107.516838 196.0
107.587021 140.0
107.638634 140.0
107.664047 156.0
107.727448 52.0
107.743973 124.0
107.781166 156.0
107.811371 116.0
107.828697 112.0
107.961006 136.0
108.013748 136.0
108.109955 176.0
108.149689 264.0
108.174118 168.0
108.209518 160.0
108.271439 156.0
108.292419 184.0
108.350151 320.0
108.420601 60.0
108.435104 156.0
108.462051 128.0
108.493149 108.0
108.526321 160.0
108.577492 124.0
108.607277 104.0
108.669434 140.0
108.682976 120.0
108.702637 52.0
108.733765 152.0
108.748291 164.0
108.77655 140.0
108.806412 180.0
108.930641 164.0
108.964256 176.0
108.985031 40.0
109.023026 212.0
109.121613 152.0
109.158195 144.0
109.261559 156.0
109.323982 136.0
109.439682 144.0
109.457207 76.0
109.536354 172.0
109.561348 164.0
109.580101 68.0
109.618553 164.0
109.659286 136.0
109.686386 212.0
109.730164 148.0
109.767258 96.0
109.784012 180.0
109.844864 204.0
109.882416 124.0
109.899109 184.0
109.913712 192.0
109.930405 96.0
110.045212 200.0
110.118042 128.0
110.199768 152.0
110.282394 148.0
110.331436 140.0
110.363457 356.0
110.400444 348.0
110.419266 168.0
110.450638 80.0
110.465279 44.0
110.484108 52.0
110.541809 228.0
110.592918 176.0
110.837952 104.0
110.885117 152.0
110.909203 136.0
110.93866 228.0
110.95742 120.0
111.043396 96.0
111.079048 136.0
111.108421 212.0
111.1315 268.0
111.265823 144.0
111.337219 48.0
111.354019 156.0
111.386192 268.0
111.425438 112.0
111.469727 104.0
111.517899 40.0
111.532616 80.0
111.572556 112.0
111.622009 200.0
111.634041 164.0
111.700836 120.0
111.72187 172.0
111.795517 156.0
111.810249 312.0
111.944977 196.0
111.964882 176.0
112.069977 132.0
112.143021 80.0
112.288498 152.0
112.34967 184.0
112.43618 276.0
112.455177 220.0
112.499504 104.0
112.524834 200.0
112.558624 240.0
112.600853 76.0
112.615639 148.0
112.693802 160.0
112.752975 168.0
112.767769 140.0
112.818497 96.0
112.835411 136.0
112.858665 204.0
112.913651 172.0
113.019424 184.0
113.061745 224.0
113.095161 188.0
113.201469 136.0
113.237465 116.0
113.252296 188.0
113.297806 240.0
113.315071 228.0
113.344055 204.0
113.381538 152.0
113.431297 148.0
113.470695 132.0
113.493889 172.0
113.578964 240.0
113.646759 164.0
113.669945 200.0
113.742104 152.0
113.77607 140.0
113.962975 188.0
113.98056 144.0
114.001221 120.0
114.028847 156.0
114.069923 152.0
114.09687 144.0
114.142136 208.0
114.167038 196.0
114.181923 156.0
114.205322 168.0
114.337234 60.0
114.375542 136.0
114.446686 164.0
114.560806 120.0
114.611832 80.0
114.6978 120.0
114.914711 172.0
114.938179 248.0
114.95739 136.0
115.121765 200.0
115.153801 120.0
115.205063 164.0
115.230698 80.0
115.262749 152.0
115.354652 136.0
115.393135 156.0
115.416656 68.0
115.465836 44.0
115.500061 64.0
115.555969 180.0
115.586906 148.0
115.662682 188.0
115.686234 164.0
115.716812 168.0
115.735832 168.0
115.83783 136.0
115.904694 104.0
115.992561 156.0
116.011856 124.0
116.082611 120.0
116.115891 152.0
116.134079 200.0
116.149094 232.0
116.217621 208.0
116.28952 140.0
116.333641 260.0
116.367989 196.0
116.41037 136.0
116.468925 124.0
116.483963 164.0
116.565605 104.0
116.62793 136.0
116.651573 180.0
116.675217 132.0
116.735428 80.0
116.766823 120.0
116.808548 40.0
116.862335 104.0
116.881699 112.0
116.941956 132.0
116.972092 224.0
116.995773 180.0
117.019455 84.0
117.04628 236.0
117.066826 176.0
117.116364 168.0
117.208099 224.0
117.269341 192.0
117.312401 164.0
117.342636 88.0
117.450462 88.0
117.489288 176.0
117.558334 112.0
117.592033 156.0
117.665688 196.0
117.718079 160.0
117.743996 92.0
117.813118 172.0
117.852715 132.0
117.875565 124.0
117.927643 108.0
117.982765 144.0
118.03141 148.0
118.096291 132.0
118.13739 84.0
118.200134 156.0
118.291039 112.0
118.382996 124.0
118.399292 332.0
118.414459 136.0
118.451279 164.0
118.52494 196.0
118.548775 136.0
118.57695 80.0
118.608727 176.0
118.663658 132.0
118.678833 140.0
118.712585 212.0
118.754738 152.0
118.775276 136.0
118.806801 124.0
118.860313 48.0
118.989098 48.0
119.032524 156.0
119.057205 216.0
119.10202 96.0
119.148598 128.0
119.19902 376.0
119.233582 152.0
119.267159 148.0
119.308464 152.0
119.380219 212.0
119.477158 212.0
119.521774 164.0
119.622635 172.0
119.717529 208.0
119.76326 116.0
119.852585 52.0
119.921059 180.0
119.939758 152.0
119.997528 240.0
120.043831 2652.0
120.107658 132.0
120.160011 144.0
120.184013 44.0
120.201469 40.0
120.328064 168.0
120.352036 172.0
120.390564 212.0
120.439438 44.0
120.459099 220.0
120.483131 352.0
120.56179 120.0
120.590202 172.0
120.609344 240.0
120.708252 116.0
120.741058 152.0
120.819801 208.0
120.852623 164.0
120.874504 128.0
120.900764 44.0
121.00679 164.0
121.025536 160.0
121.06459 11400.0
121.090523 340.0
121.115326 40.0
121.159927 100.0
121.206841 104.0
121.267639 164.0
121.281128 252.0
121.297005 136.0
121.42218 144.0
121.441917 128.0
121.487984 80.0
121.520035 120.0
121.536919 132.0
121.556 184.0
121.573555 100.0
121.667938 112.0
121.696556 116.0
121.720634 36.0
121.738205 64.0
121.766754 220.0
121.816002 76.0
121.852425 172.0
121.867737 132.0
121.916145 92.0
121.946915 144.0
122.000893 156.0
122.031075 160.0
122.068214 1380.0
122.094215 140.0
122.118843 204.0
122.140404 32.0
122.160202 364.0
122.224007 56.0
122.327446 124.0
122.378082 168.0
122.39315 152.0
122.419922 164.0
122.444214 128.0
122.545036 180.0
122.571465 152.0
122.607178 48.0
122.695351 160.0
122.732826 200.0
122.802834 116.0
122.847519 128.0
122.883865 168.0
122.902672 84.0
122.924736 172.0
122.951218 88.0
122.966667 164.0
122.999779 116.0
123.071136 372.0
123.14109 32.0
123.176964 200.0
123.240501 168.0
123.293533 196.0
123.324478 172.0
123.364586 136.0
123.41069 104.0
123.453789 228.0
123.496674 168.0
123.523483 128.0
123.552238 92.0
123.607552 140.0
123.691658 80.0
123.879883 116.0
123.899818 156.0
123.94635 184.0
123.966293 100.0
123.988457 176.0
124.069412 236.0
124.101509 132.0
124.182953 220.0
124.2257 72.0
124.25676 84.0
124.30336 164.0
124.363281 64.0
124.381035 112.0
124.400162 228.0
124.440979 144.0
124.472061 112.0
124.48983 164.0
124.545349 332.0
124.574226 132.0
124.627548 180.0
124.678658 112.0
124.73867 180.0
124.769791 96.0
124.800919 304.0
124.823158 76.0
124.872742 256.0
124.924599 72.0
125.001114 148.0
125.043396 156.0
125.105972 144.0
125.148026 88.0
125.16584 120.0
125.194786 208.0
125.310616 200.0
125.337357 160.0
125.388611 160.0
125.410965 140.0
125.451019 92.0
125.535751 92.0
125.564743 172.0
125.602661 176.0
125.636116 76.0
125.69413 100.0
125.729248 168.0
125.75885 104.0
125.810532 132.0
125.843971 92.0
125.849678 140.0
125.857643 188.0
125.919601 176.0
126.015663 156.0
126.048691 220.0
126.055305 172.0
126.090912 3144.0
126.151718 168.0
126.158455 148.0
126.189995 88.0
126.213432 124.0
126.236946 156.0
126.301811 140.0
126.362213 156.0
126.46067 92.0
126.504196 232.0
126.545738 80.0
126.592758 292.0
126.624115 48.0
126.646515 216.0
126.691315 136.0
126.729401 144.0
126.74733 140.0
126.835915 188.0
126.854904 144.0
126.91465 204.0
126.919037 132.0
126.944588 200.0
126.980911 164.0
127.016357 144.0
127.032059 180.0
127.09684 596.0
127.142006 120.0
127.176056 140.0
127.202606 68.0
127.237869 144.0
127.276695 108.0
127.312622 152.0
127.34182 156.0
127.406967 68.0
127.454147 184.0
127.48336 184.0
127.501335 120.0
127.530556 184.0
127.548538 84.0
127.593765 100.0
127.67244 188.0
127.737427 92.0
127.756378 320.0
127.818275 184.0
127.879807 144.0
127.896439 120.0
127.966972 44.0
127.996246 108.0
128.012009 108.0
128.030029 304.0
128.053589 152.0
128.075348 132.0
128.106735 4748.0
128.152786 184.0
128.160522 120.0
128.165909 176.0
128.24881 180.0
128.274429 72.0
128.35228 192.0
128.370316 84.0
128.450455 208.0
128.471207 120.0
128.498886 120.0
128.55304 180.0
128.589142 100.0
128.608078 92.0
128.710678 148.0
128.718414 124.0
128.727554 180.0
128.753952 144.0
128.876465 192.0
128.955032 108.0
128.984421 144.0
129.01506 188.0
129.044571 612.0
129.071686 160.0
129.080826 224.0
129.10994 640.0
129.133652 256.0
129.201508 144.0
129.273697 252.0
129.323715 136.0
129.394928 164.0
129.414261 136.0
129.484467 128.0
129.509369 112.0
129.590073 184.0
129.620392 68.0
129.641357 220.0
129.679306 144.0
129.829025 100.0
129.865936 128.0
129.898819 208.0
129.919662 124.0
129.959412 212.0
129.985474 144.0
130.034225 116.0
130.065018 2600.0
130.112991 232.0
130.337738 116.0
130.426987 216.0
130.455612 120.0
130.485168 92.0
130.515488 136.0
130.660294 168.0
130.683044 120.0
130.698975 168.0
130.753586 156.0
130.77179 176.0
130.812775 196.0
130.911743 128.0
130.943787 140.0
130.979004 112.0
131.065857 608.0
131.124817 48.0
131.204605 168.0
131.28212 80.0
131.320511 120.0
131.371078 256.0
131.400681 148.0
131.526794 160.0
131.592453 144.0
131.642105 156.0
131.662521 164.0
131.682892 184.0
131.700897 132.0
131.721237 144.0
131.767944 316.0
131.804871 188.0
131.847778 232.0
131.962585 160.0
132.011963 140.0
132.042419 448.0
132.082748 136.0
132.120972 176.0
132.171799 180.0
132.209641 260.0
132.250839 160.0
132.26915 196.0
132.285995 144.0
132.412048 172.0
132.434006 196.0
132.449814 164.0
132.523346 136.0
132.580643 180.0
132.610428 132.0
132.64711 196.0
132.709 208.0
132.727356 128.0
132.75769 156.0
132.844315 128.0
132.895905 140.0
133.018723 160.0
133.054489 144.0
133.092194 60.0
133.175583 216.0
133.217468 172.0
133.301224 112.0
133.337982 164.0
133.384354 184.0
133.402344 52.0
133.447495 88.0
133.452759 56.0
133.460587 84.0
133.541138 416.0
133.577118 196.0
133.613922 244.0
133.671448 240.0
133.710571 236.0
133.758896 196.0
133.78981 160.0
133.835815 176.0
133.910873 152.0
133.931595 80.0
134.028366 216.0
134.058762 144.0
134.11824 116.0
134.149063 116.0
134.215073 224.0
134.272659 152.0
134.275421 184.0
134.341919 144.0
134.367142 124.0
134.399597 192.0
134.429596 100.0
134.450363 152.0
134.47345 56.0
134.524231 124.0
134.549622 48.0
134.565781 48.0
134.702042 124.0
134.737625 88.0
134.779663 160.0
134.81987 136.0
134.841492 56.0
134.886246 156.0
134.92157 108.0
134.949326 108.0
135.043533 672.0
135.079346 316.0
135.134354 152.0
135.168091 172.0
135.254761 140.0
135.280151 132.0
135.337921 156.0
135.375076 152.0
135.393616 168.0
135.41214 184.0
135.446884 176.0
135.521011 152.0
135.54187 88.0
135.568741 188.0
135.643845 212.0
135.664703 184.0
135.850571 136.0
135.9384 208.0
135.982498 136.0
136.033554 200.0
136.050873 152.0
136.081451 208.0
136.151978 228.0
136.221649 44.0
136.272766 168.0
136.312271 96.0
136.345932 156.0
136.398254 156.0
136.426147 28.0
136.460114 132.0
136.493576 128.0
136.533112 104.0
136.563934 144.0
136.613251 44.0
136.700607 240.0
136.735519 244.0
136.80069 100.0
136.833282 176.0
136.879852 88.0
136.935745 172.0
136.954376 152.0
136.986984 44.0
137.046387 124.0
137.069336 164.0
137.147781 144.0
137.196732 168.0
137.218048 192.0
137.285324 176.0
137.308655 80.0
137.392624 140.0
137.429947 108.0
137.504623 56.0
137.559921 304.0
137.691406 108.0
137.747467 88.0
137.78215 216.0
137.847931 128.0
137.86554 172.0
137.955444 148.0
138.017883 124.0
138.026306 180.0
138.081711 124.0
138.105103 168.0
138.128494 132.0
138.147202 116.0
138.193985 148.0
138.210373 108.0
138.244553 192.0
138.311005 184.0
138.397629 108.0
138.434311 204.0
138.512375 132.0
138.582092 168.0
138.636551 96.0
138.735001 248.0
138.751419 136.0
138.784241 56.0
138.810028 148.0
138.847549 96.0
138.889771 124.0
138.957809 100.0
139.0168 164.0
139.058701 192.0
139.082184 80.0
139.166687 148.0
139.19722 184.0
139.234787 128.0
139.328751 52.0
139.3452 96.0
139.403946 140.0
139.422745 120.0
139.457993 96.0
139.521469 92.0
139.643738 156.0
139.721359 72.0
139.766068 160.0
139.787247 152.0
139.815491 224.0
139.839569 156.0
139.98027 136.0
140.034637 300.0
140.062698 136.0
140.093323 76.0
140.161652 184.0
140.239426 92.0
140.31958 164.0
140.33844 160.0
140.369095 184.0
140.406113 160.0
140.508255 92.0
140.586121 140.0
140.604996 148.0
140.644272 156.0
140.666367 176.0
140.697052 212.0
140.735489 144.0
140.791504 156.0
140.874741 116.0
140.895432 140.0
140.940323 516.0
140.978134 104.0
141.029556 100.0
141.062271 220.0
141.181442 96.0
141.197998 112.0
141.311539 184.0
141.354141 160.0
141.384903 124.0
141.461212 216.0
141.491547 152.0
141.586136 148.0
141.661926 112.0
141.678726 192.0
141.730133 188.0
141.8918 140.0
141.972427 152.0
142.00563 160.0
142.026978 128.0
142.052368 204.0
142.123642 172.0
142.145462 136.0
142.181198 204.0
142.263321 212.0
142.309387 168.0
142.339554 192.0
142.402512 92.0
142.506516 116.0
142.525528 112.0
142.54216 136.0
142.570679 148.0
142.647995 204.0
142.677643 92.0
142.698441 128.0
142.734695 104.0
142.771545 292.0
142.835464 196.0
142.867889 204.0
142.932129 240.0
142.963074 160.0
143.017807 88.0
143.046371 32.0
143.074936 184.0
143.122528 336.0
143.213058 112.0
143.258316 112.0
143.291672 136.0
143.317871 148.0
143.371964 184.0
143.429886 348.0
143.468597 116.0
143.486679 156.0
143.515976 184.0
143.568176 216.0
143.756638 72.0
143.775726 132.0
143.812729 164.0
143.86882 148.0
143.90506 200.0
143.983582 120.0
144.046112 1024.0
144.080643 2116.0
144.118866 196.0
144.162598 216.0
144.240997 120.0
144.310257 200.0
144.358627 108.0
144.380157 144.0
144.396896 156.0
144.55957 172.0
144.59787 172.0
144.631378 192.0
144.679245 84.0
144.696014 88.0
144.719955 124.0
144.760651 104.0
144.875626 212.0
144.899582 136.0
144.916351 92.0
144.937912 168.0
144.963882 148.0
145.002625 252.0
145.019043 136.0
145.040237 1280.0
145.081192 464.0
145.133057 452.0
145.208817 184.0
145.230392 80.0
145.254379 180.0
145.349777 152.0
145.389648 116.0
145.433914 240.0
145.463455 156.0
145.501556 112.0
145.588608 120.0
145.704269 128.0
145.746429 236.0
145.821762 196.0
145.873932 128.0
145.912384 112.0
145.950867 132.0
146.023651 23408.0
146.104782 56.0
146.128006 144.0
146.169754 88.0
146.250244 224.0
146.288406 212.0
146.34848 48.0
146.381592 48.0
146.40567 100.0
146.439072 184.0
146.468842 156.0
146.489975 164.0
146.531128 144.0
146.57254 176.0
146.597931 168.0
146.64418 108.0
146.665878 44.0
146.704437 52.0
146.736267 60.0
146.844299 56.0
146.863586 220.0
146.905838 140.0
146.943741 196.0
146.96492 200.0
146.981812 56.0
147.026901 2044.0
147.052277 224.0
147.078339 132.0
147.094101 128.0
147.240112 228.0
147.300491 128.0
147.327072 220.0
147.40329 132.0
147.428543 172.0
147.455872 320.0
147.504227 168.0
147.554245 120.0
147.607437 200.0
147.624359 124.0
147.769501 128.0
147.808212 60.0
147.859024 136.0
147.890488 144.0
147.908539 184.0
147.938904 96.0
148.036652 516.0
148.07489 864.0
148.096634 316.0
148.119583 124.0
148.154434 144.0
148.173248 172.0
148.216599 364.0
148.253784 148.0
148.301163 80.0
148.425888 140.0
148.460632 148.0
148.570557 124.0
148.619934 92.0
148.702454 256.0
148.729141 160.0
148.760712 56.0
148.794693 152.0
148.911255 80.0
148.935791 188.0
148.988983 120.0
149.026169 236.0
149.076126 212.0
149.165955 184.0
149.190689 196.0
149.210144 60.0
149.344513 220.0
149.377945 48.0
149.401443 152.0
149.432571 184.0
149.687042 176.0
149.738174 40.0
149.766357 116.0
149.925766 148.0
149.953186 80.0
149.972076 48.0
150.057678 144.0
150.126984 120.0
150.176895 140.0
150.208603 112.0
150.315948 104.0
150.387177 172.0
150.487885 164.0
150.611359 128.0
150.633347 180.0
150.696869 52.0
150.762848 144.0
150.904617 100.0
151.039627 196.0
151.073364 168.0
151.118912 156.0
151.166351 52.0
151.207596 216.0
151.225082 68.0
151.28627 196.0
151.325012 160.0
151.37442 152.0
151.405853 120.0
151.461411 224.0
151.494431 152.0
151.53363 112.0
151.597336 140.0
151.636185 132.0
151.727249 172.0
151.744415 216.0
151.790588 336.0
151.825333 120.0
151.854767 48.0
151.879288 164.0
151.938156 356.0
151.970062 136.0
151.997055 176.0
152.036926 160.0
152.119766 128.0
152.171326 160.0
152.412033 200.0
152.45134 180.0
152.475922 168.0
152.507874 144.0
152.566742 168.0
152.635712 160.0
152.677521 40.0
152.704575 160.0
152.734085 168.0
152.79805 148.0
152.830368 116.0
152.933395 56.0
152.964127 188.0
153.007233 80.0
153.03186 112.0
153.115585 96.0
153.167313 144.0
153.189484 136.0
153.258606 128.0
153.292953 196.0
153.41127 164.0
153.544418 200.0
153.561676 164.0
153.580704 168.0
153.725754 184.0
153.796082 128.0
153.865204 144.0
153.895737 196.0
153.916214 388.0
153.934341 180.0
153.997253 84.0
154.042999 156.0
154.094894 128.0
154.161606 228.0
154.349472 320.0
154.428604 176.0
154.497879 132.0
154.596848 92.0
154.667831 152.0
154.708221 140.0
154.742889 144.0
154.829559 108.0
154.896423 144.0
154.916245 44.0
154.933594 112.0
155.128036 160.0
155.157822 108.0
155.211182 136.0
155.323715 160.0
155.342636 144.0
155.369919 168.0
155.398468 140.0
155.489029 68.0
155.625549 144.0
155.692596 68.0
155.767273 120.0
156.068939 228.0
156.132492 200.0
156.172272 148.0
156.189697 176.0
156.209595 212.0
156.227005 184.0
156.274277 112.0
156.339035 164.0
156.378799 140.0
156.525681 52.0
156.565521 140.0
156.61496 160.0
156.824631 116.0
156.91188 220.0
156.9767 120.0
157.024094 172.0
157.103912 200.0
157.131866 176.0
157.161285 120.0
157.203552 128.0
157.300797 192.0
157.355972 64.0
157.49379 152.0
157.581955 100.0
157.613602 192.0
157.648224 172.0
157.685715 208.0
157.755707 160.0
157.880722 148.0
157.900726 136.0
158.054947 328.0
158.088364 104.0
158.120132 144.0
158.144226 216.0
158.185974 124.0
158.251068 136.0
158.268585 180.0
158.29863 40.0
158.333694 208.0
158.353729 96.0
158.406326 120.0
158.441483 128.0
158.457108 136.0
158.562241 144.0
158.60408 192.0
158.650528 208.0
158.7146 168.0
158.738007 192.0
158.77478 40.0
158.834976 152.0
158.945374 108.0
158.993042 132.0
159.056686 208.0
159.085709 292.0
159.180283 192.0
159.332031 72.0
159.357162 72.0
159.409927 44.0
159.510452 168.0
159.533081 132.0
159.593414 172.0
159.662735 184.0
159.729233 48.0
159.829865 104.0
159.863678 192.0
159.890259 112.0
160.050598 184.0
160.075974 432.0
160.184036 160.0
160.303268 156.0
160.32814 132.0
160.396515 168.0
160.434967 80.0
160.592545 216.0
160.615891 148.0
160.638596 88.0
160.671387 116.0
160.696625 216.0
160.731949 92.0
160.78746 104.0
160.825317 80.0
160.874802 204.0
160.923782 156.0
160.954742 180.0
160.974274 64.0
161.004578 196.0
161.035645 148.0
161.072968 748.0
161.093445 140.0
161.151093 120.0
161.279968 184.0
161.320419 148.0
161.340637 108.0
161.358337 164.0
161.439255 156.0
161.472137 152.0
161.496094 156.0
161.530304 108.0
161.568253 96.0
161.651749 84.0
161.745392 176.0
161.785904 128.0
161.870056 116.0
161.887177 252.0
161.945435 148.0
161.975067 188.0
162.052917 196.0
162.231766 184.0
162.333191 132.0
162.442245 160.0
162.47522 152.0
162.510742 216.0
162.632553 72.0
162.670624 140.0
162.690933 120.0
162.814362 196.0
162.86615 52.0
162.906799 104.0
162.932205 104.0
162.965225 108.0
162.994125 204.0
163.050323 1496.0
163.117722 244.0
163.16394 176.0
163.196533 164.0
163.229584 196.0
163.313507 192.0
163.346573 120.0
163.389816 160.0
163.418808 152.0
163.458527 140.0
163.539612 144.0
163.575592 112.0
163.593414 132.0
163.611237 80.0
163.629059 172.0
163.651978 104.0
163.710541 192.0
163.807327 84.0
163.872894 152.0
163.906677 80.0
163.934402 132.0
163.978043 108.0
164.002167 164.0
164.055847 252.0
164.111923 124.0
164.208389 172.0
164.245758 148.0
164.291672 140.0
164.30954 152.0
164.332504 128.0
164.39119 132.0
164.44989 124.0
164.565826 228.0
164.603058 112.0
164.628601 108.0
164.676071 164.0
164.707779 140.0
164.7742 96.0
164.808426 140.0
164.919861 60.0
164.993988 148.0
165.057907 140.0
165.12439 104.0
165.267838 160.0
165.30545 196.0
165.365295 128.0
165.401642 228.0
165.464737 60.0
165.508255 192.0
165.601852 328.0
165.684982 72.0
165.734238 176.0
165.759293 168.0
165.796127 212.0
165.833603 120.0
165.873459 44.0
165.946396 288.0
166.159271 220.0
166.273331 160.0
166.323517 136.0
166.368027 156.0
166.388657 232.0
166.457016 168.0
166.477554 216.0
166.536636 84.0
166.61113 152.0
166.629105 52.0
166.657379 60.0
166.814148 164.0
166.91185 200.0
166.95813 132.0
167.067108 272.0
167.122757 176.0
167.181946 196.0
167.20253 192.0
167.227417 108.0
167.30365 156.0
167.351959 136.0
167.407227 136.0
167.441971 168.0
167.529541 132.0
167.574921 164.0
167.593948 140.0
167.622299 96.0
167.88266 204.0
167.952301 44.0
168.011627 40.0
168.042587 104.0
168.064117 184.0
168.101944 196.0
168.156128 224.0
168.187103 124.0
168.233566 68.0
168.261963 168.0
168.359924 124.0
168.383331 212.0
168.489243 132.0
168.598389 216.0
168.621017 156.0
168.681763 104.0
168.830429 144.0
168.889923 132.0
168.915787 160.0
169.003754 136.0
169.076309 1968.0
169.108597 148.0
169.143509 152.0
169.213394 172.0
169.257996 140.0
169.298843 516.0
169.335114 152.0
169.402451 124.0
169.423172 100.0
169.482773 140.0
169.511276 164.0
169.544952 88.0
169.671967 108.0
169.726425 48.0
169.760132 52.0
169.791245 256.0
169.843124 148.0
169.910568 120.0
169.944305 160.0
169.972839 148.0
170.063721 216.0
170.095139 528.0
170.170105 164.0
170.203857 96.0
170.305145 64.0
170.351898 200.0
170.390869 72.0
170.41066 208.0
170.466217 212.0
170.489609 88.0
170.574738 352.0
170.606583 176.0
170.647156 132.0
170.76712 192.0
170.830231 204.0
170.898712 160.0
170.988937 168.0
171.022781 88.0
171.100815 284.0
171.172546 80.0
171.205032 32.0
171.233246 168.0
171.267532 136.0
171.371811 144.0
171.377716 124.0
171.434006 192.0
171.509857 124.0
171.624573 164.0
171.646378 160.0
171.674118 88.0
171.765396 64.0
171.795074 160.0
171.822784 152.0
171.916733 80.0
172.045044 232.0
172.100861 120.0
172.162125 92.0
172.256149 152.0
172.355423 148.0
172.560287 204.0
172.603745 96.0
172.622055 144.0
172.65712 176.0
172.760681 184.0
172.789459 144.0
172.881042 164.0
172.959549 160.0
173.033676 176.0
173.056412 64.0
173.082596 132.0
173.122726 300.0
173.150696 260.0
173.184738 220.0
173.225037 136.0
173.243561 96.0
173.265945 168.0
173.429291 80.0
173.472977 172.0
173.501816 120.0
173.533279 88.0
173.580627 140.0
173.622986 280.0
173.682755 160.0
173.710175 220.0
173.748337 120.0
173.952148 336.0
174.017273 196.0
174.049774 160.0
174.097733 140.0
174.157852 108.0
174.230408 160.0
174.252411 136.0
174.286575 108.0
174.328156 160.0
174.410568 152.0
174.449524 168.0
174.486023 136.0
174.57309 184.0
174.607285 52.0
174.646744 180.0
174.704422 172.0
174.77301 192.0
174.875641 120.0
174.909866 124.0
174.938004 160.0
175.050644 8580.0
175.091537 116.0
175.125778 116.0
175.243332 148.0
175.251648 92.0
175.262497 128.0
175.31369 236.0
175.347092 124.0
175.391907 80.0
175.440857 176.0
175.502625 144.0
175.53801 240.0
175.573822 140.0
175.674057 100.0
175.718903 136.0
175.758484 152.0
175.827103 76.0
175.890442 132.0
175.961716 192.0
176.054367 896.0
176.109436 176.0
176.186203 260.0
176.243744 164.0
176.351593 116.0
176.365021 164.0
176.374771 256.0
176.398071 168.0
176.447845 76.0
176.524811 128.0
176.564194 52.0
176.601227 164.0
176.625031 64.0
176.701752 112.0
176.750488 180.0
176.868027 144.0
176.905518 136.0
177.000839 76.0
177.051239 172.0
177.102539 1784.0
177.167694 96.0
177.202133 120.0
177.268387 48.0
177.286926 76.0
177.310791 76.0
177.36824 148.0
177.395599 144.0
177.443848 160.0
177.472275 244.0
177.509613 324.0
177.562653 112.0
177.655487 92.0
177.708542 140.0
177.727127 96.0
177.849197 80.0
177.907593 156.0
178.032394 92.0
178.06958 116.0
178.108932 428.0
178.138641 84.0
178.189117 104.0
178.246063 168.0
178.329956 156.0
178.361847 124.0
178.422989 68.0
178.527817 192.0
178.59317 160.0
178.619781 120.0
178.678299 180.0
178.710236 56.0
178.736832 156.0
178.760788 132.0
178.814011 104.0
178.843292 84.0
178.861923 40.0
178.880554 104.0
178.909836 212.0
178.936462 184.0
178.969833 136.0
179.001984 112.0
179.021667 128.0
179.040009 104.0
179.071838 196.0
179.141525 144.0
179.178818 160.0
179.217041 204.0
179.262894 160.0
179.282745 116.0
179.319641 156.0
179.394684 140.0
179.432007 140.0
179.480011 220.0
179.52655 152.0
179.600006 116.0
179.634689 224.0
179.738739 88.0
179.817993 140.0
179.837479 116.0
179.89888 136.0
179.928238 136.0
179.973633 192.0
180.029709 120.0
180.076355 392.0
180.184631 132.0
180.241974 156.0
180.320908 108.0
180.3423 128.0
180.474152 176.0
180.500031 228.0
180.566879 180.0
180.682327 188.0
180.772873 52.0
180.810349 220.0
180.85585 88.0
180.888351 140.0
180.93222 100.0
180.991547 188.0
181.018036 144.0
181.079391 260.0
181.108795 212.0
181.145844 328.0
181.217377 156.0
181.2724 164.0
181.322769 192.0
181.347595 148.0
181.404968 140.0
181.51622 332.0
181.56192 92.0
181.592667 64.0
181.619492 204.0
181.683868 56.0
181.71875 104.0
181.844879 188.0
181.928085 128.0
181.952255 172.0
181.995209 144.0
182.027435 196.0
182.065018 88.0
182.099945 88.0
182.254623 132.0
182.300858 132.0
182.322937 132.0
182.37236 112.0
182.438507 48.0
182.484222 104.0
182.546783 148.0
182.575638 180.0
182.637497 68.0
182.774704 144.0
182.831451 236.0
182.887741 132.0
182.94426 128.0
182.995422 176.0
183.043884 128.0
183.084702 132.0
183.122879 216.0
183.175858 152.0
183.218964 140.0
183.240509 172.0
183.286316 176.0
183.325729 96.0
183.394119 192.0
183.461502 156.0
183.537003 148.0
183.647568 148.0
183.821381 168.0
183.874207 148.0
183.911499 156.0
183.917725 128.0
183.926178 172.0
183.948669 176.0
184.00647 176.0
184.028076 192.0
184.062912 1916.0
184.149597 228.0
184.184708 144.0
184.206314 128.0
184.360321 128.0
184.384644 196.0
184.476547 124.0
184.571167 148.0
184.695572 112.0
184.714508 296.0
184.901199 168.0
184.930984 188.0
184.955338 136.0
185.025726 108.0
185.068192 676.0
185.107407 160.0
185.136734 164.0
185.266754 100.0
185.312805 112.0
185.358871 72.0
185.494385 132.0
185.513367 168.0
185.562164 136.0
185.608261 332.0
185.736816 124.0
185.832794 92.0
185.838654 72.0
185.848434 160.0
185.865936 208.0
185.907394 132.0
185.947357 184.0
186.026077 72.0
186.057144 656.0
186.12381 172.0
186.152298 180.0
186.20256 212.0
186.232437 132.0
186.284058 144.0
186.381851 152.0
186.457947 124.0
186.498718 88.0
186.52861 36.0
186.550369 108.0
186.591141 96.0
186.669998 120.0
186.727798 140.0
186.77063 72.0
186.882156 180.0
186.955917 196.0
186.984161 116.0
187.049957 648.0
187.087128 2140.0
187.129837 160.0
187.176132 140.0
187.197922 64.0
187.244217 120.0
187.280899 316.0
187.34227 144.0
187.361343 292.0
187.557541 228.0
187.584808 108.0
187.666595 192.0
187.6884 136.0
187.756577 220.0
187.797485 84.0
187.820633 136.0
188.029404 124.0
188.074051 348.0
188.084427 280.0
188.095062 440.0
188.138092 96.0
188.171463 184.0
188.228683 124.0
188.264771 188.0
188.294235 88.0
188.343399 208.0
188.406219 96.0
188.443146 168.0
188.495499 148.0
188.523712 144.0
188.613983 144.0
188.712326 116.0
188.780685 132.0
188.968658 244.0
189.002258 184.0
189.033157 408.0
189.068848 332.0
189.103516 88.0
189.141342 156.0
189.209106 156.0
189.259552 136.0
189.286926 128.0
189.306107 40.0
189.36087 148.0
189.380051 136.0
189.430618 164.0
189.45401 56.0
189.477692 136.0
189.566849 108.0
189.596497 96.0
189.741821 216.0
189.821289 140.0
189.917267 120.0
189.980362 160.0
190.024261 356.0
190.070908 164.0
190.09285 208.0
190.134018 124.0
190.17189 160.0
190.257538 136.0
190.284988 184.0
190.339905 132.0
190.368103 148.0
190.441513 68.0
190.475189 184.0
190.499207 240.0
190.606354 132.0
190.680557 88.0
190.801498 164.0
190.850998 84.0
190.974747 180.0
191.045456 192.0
191.074417 360.0
191.192093 76.0
191.217804 200.0
191.415085 120.0
191.489441 136.0
191.62442 348.0
191.657471 128.0
191.697372 172.0
191.759354 216.0
191.889008 172.0
191.911057 156.0
192.013092 128.0
192.070496 168.0
192.077606 112.0
192.106873 152.0
192.17308 76.0
192.25351 136.0
192.32486 144.0
192.429367 140.0
192.465668 168.0
192.487747 124.0
192.526413 196.0
192.576126 148.0
192.602097 140.0
192.661758 188.0
192.689392 64.0
192.733597 144.0
192.77504 140.0
192.923645 188.0
192.982361 112.0
193.059525 592.0
193.092972 164.0
193.13446 112.0
193.225861 100.0
193.273727 116.0
193.350266 132.0
193.441605 148.0
193.474823 124.0
193.521301 112.0
193.53685 148.0
193.596405 180.0
193.624344 48.0
193.654068 108.0
193.679749 124.0
193.727127 160.0
193.748993 156.0
193.801636 116.0
193.834885 100.0
193.909714 84.0
193.937424 160.0
193.961639 152.0
194.039246 176.0
194.050049 128.0
194.078751 192.0
194.114868 96.0
194.159241 156.0
194.386719 124.0
194.419266 148.0
194.458862 148.0
194.536591 368.0
194.592117 80.0
194.667389 112.0
194.692078 184.0
194.759323 188.0
194.825409 128.0
194.875412 60.0
194.926041 164.0
194.961548 108.0
194.997681 140.0
195.017136 124.0
195.064651 448.0
195.125549 172.0
195.220093 140.0
195.278503 104.0
195.342468 156.0
195.511063 236.0
195.642227 160.0
195.665207 140.0
195.720978 152.0
195.801727 180.0
195.844711 160.0
195.968872 228.0
196.071976 136.0
196.219711 144.0
196.275482 200.0
196.314514 136.0
196.359146 160.0
196.475784 216.0
196.501404 148.0
196.529312 196.0
196.56279 128.0
196.590698 92.0
196.610687 240.0
196.755371 228.0
196.811218 92.0
196.864273 92.0
196.897781 136.0
196.922928 164.0
196.951477 180.0
197.040237 132.0
197.072189 296.0
197.104507 132.0
197.146667 140.0
197.168777 48.0
197.210709 104.0
197.280838 228.0
197.316925 216.0
197.348389 184.0
197.459549 116.0
197.487518 188.0
197.535065 140.0
197.560242 100.0
197.590851 200.0
197.599335 336.0
197.62738 64.0
197.667725 208.0
197.702942 176.0
197.780594 188.0
197.823288 204.0
197.87648 136.0
197.90863 184.0
198.041702 128.0
198.072525 192.0
198.108932 164.0
198.184647 188.0
198.229416 76.0
198.265839 224.0
198.297607 72.0
198.321899 28.0
198.440781 148.0
198.496674 164.0
198.507339 192.0
198.531036 128.0
198.619125 104.0
198.647171 68.0
198.713318 184.0
198.918167 140.0
199.009201 164.0
199.104675 68.0
199.138382 152.0
199.205795 152.0
199.22403 140.0
199.265289 276.0
199.334564 156.0
199.377197 92.0
199.461517 176.0
199.498062 124.0
199.540329 112.0
199.599274 308.0
199.674286 288.0
199.734268 364.0
199.824295 72.0
199.897568 184.0
199.928406 88.0
199.990326 64.0
200.040131 1084.0
200.146866 132.0
200.198654 80.0
200.218369 216.0
200.266678 132.0
200.322586 108.0
200.384567 124.0
200.481705 124.0
200.52829 36.0
200.55275 88.0
200.587479 60.0
200.62822 204.0
200.680511 116.0
200.782028 84.0
200.827148 132.0
200.858185 148.0
200.886383 108.0
200.923569 112.0
200.945633 152.0
200.977356 212.0
201.030869 10284.0
201.094482 48.0
201.143372 168.0
201.173584 192.0
201.247635 160.0
201.276352 116.0
201.315399 36.0
201.397659 196.0
201.428375 44.0
201.456619 124.0
201.501266 140.0
201.526535 156.0
201.552689 192.0
201.582932 128.0
201.640488 172.0
201.675598 188.0
201.686157 140.0
201.699554 128.0
201.74205 68.0
201.807068 60.0
201.891052 172.0
201.918152 104.0
201.954391 88.0
201.983582 136.0
202.007874 176.0
202.033081 1272.0
202.063828 896.0
202.120514 148.0
202.194626 108.0
202.248398 148.0
202.294556 196.0
202.306351 228.0
202.338989 144.0
202.416229 228.0
202.551376 108.0
202.61618 132.0
202.710037 328.0
202.746613 220.0
202.769547 72.0
202.842377 236.0
202.870987 168.0
202.908447 320.0
202.942917 256.0
203.003326 172.0
203.047318 1692.0
203.082245 64152.0
203.148849 192.0
203.153992 144.0
203.17514 100.0
203.20256 140.0
203.224716 188.0
203.26088 80.0
203.293854 128.0
203.32988 240.0
203.382187 144.0
203.425461 148.0
203.468658 168.0
203.514877 176.0
203.547668 148.0
203.570236 428.0
203.589584 84.0
203.637085 88.0
203.67749 124.0
203.697372 52.0
203.733215 128.0
203.767822 80.0
203.839432 96.0
203.865158 148.0
203.898193 212.0
203.938904 52.0
203.973007 84.0
203.995758 152.0
204.051193 364.0
204.084961 7744.0
204.168915 180.0
204.227997 124.0
204.264328 160.0
204.275009 20.0
204.282013 216.0
204.323593 272.0
204.34996 140.0
204.386017 144.0
204.410049 144.0
204.442856 104.0
204.473938 68.0
204.496384 180.0
204.539078 112.0
204.578918 200.0
204.607849 152.0
204.640884 84.0
204.729828 132.0
204.758316 96.0
204.805344 140.0
204.826675 48.0
204.869019 152.0
204.890594 168.0
204.932083 72.0
204.957718 108.0
205.012695 176.0
205.057816 224.0
205.086655 1204.0
205.148682 276.0
205.172546 180.0
205.19339 140.0
205.2285 76.0
205.273972 144.0
205.312149 120.0
205.334015 84.0
205.382507 112.0
205.425232 172.0
205.435822 168.0
205.446594 120.0
205.477188 104.0
205.55368 88.0
205.582214 324.0
205.613617 112.0
205.646759 196.0
205.68782 48.0
205.71051 180.0
205.742065 60.0
205.776611 104.0
205.80043 152.0
205.808441 48.0
205.817795 144.0
205.864838 72.0
205.973373 120.0
205.993362 176.0
206.054276 236.0
206.095825 1740.0
206.212845 232.0
206.261978 200.0
206.280731 180.0
206.322647 176.0
206.367752 96.0
206.393478 120.0
206.476059 164.0
206.48555 144.0
206.556503 68.0
206.650909 196.0
206.670929 80.0
206.725296 84.0
206.839233 188.0
206.87413 56.0
206.982162 164.0
207.036163 116.0
207.064987 640.0
207.099106 468.0
207.177689 80.0
207.220078 196.0
207.298035 184.0
207.352478 148.0
207.422058 88.0
207.444885 168.0
207.59903 92.0
207.687943 68.0
207.708023 96.0
207.73671 84.0
207.777847 212.0
207.870239 76.0
208.0121 136.0
208.078491 556.0
208.109802 132.0
208.164352 44.0
208.225693 180.0
208.389801 148.0
208.468857 196.0
208.506226 128.0
208.580948 132.0
208.659576 204.0
208.701691 116.0
208.897263 120.0
208.96344 164.0
209.020981 100.0
209.044006 156.0
209.076202 152.0
209.113068 44.0
209.150482 104.0
209.193665 132.0
209.331863 372.0
209.395218 128.0
209.513321 112.0
209.533493 212.0
209.566986 140.0
209.61705 376.0
209.637222 116.0
209.685013 156.0
209.726562 176.0
209.893784 144.0
209.977402 244.0
210.012024 244.0
210.035095 172.0
210.065384 40.0
210.089096 476.0
210.213974 184.0
210.268799 152.0
210.308914 120.0
210.36116 80.0
210.439117 136.0
210.469437 144.0
210.512512 144.0
210.548843 184.0
210.589279 164.0
210.644165 40.0
210.684601 108.0
210.751053 332.0
210.833969 104.0
210.868515 156.0
210.944687 248.0
211.049301 132.0
211.099365 184.0
211.167328 152.0
211.299026 144.0
211.33046 124.0
211.403183 168.0
211.511658 140.0
211.566742 136.0
211.639038 204.0
211.67627 196.0
211.792526 200.0
211.818588 140.0
211.899704 192.0
211.933578 180.0
211.962494 228.0
211.994598 128.0
212.048325 168.0
212.075317 160.0
212.172134 140.0
212.192429 128.0
212.404129 112.0
212.470856 156.0
212.584015 48.0
212.63916 112.0
212.684097 140.0
212.716827 184.0
212.833649 104.0
212.860107 144.0
212.883026 164.0
212.90625 132.0
213.041702 164.0
213.066513 148.0
213.09581 172.0
213.138641 200.0
213.261826 52.0
213.289764 112.0
213.313019 92.0
213.403152 184.0
213.434555 160.0
213.489487 180.0
213.615448 76.0
213.711212 92.0
213.755112 140.0
213.78421 132.0
213.845322 92.0
213.868607 192.0
213.932648 208.0
213.966629 184.0
214.057663 208.0
214.06488 396.0
214.096924 2356.0
214.162689 32.0
214.197647 192.0
214.226776 100.0
214.264648 220.0
214.290863 48.0
214.311264 44.0
214.336029 128.0
214.363708 36.0
214.413254 208.0
214.477371 80.0
214.567749 156.0
214.626053 140.0
214.72229 156.0
214.824387 204.0
214.853546 88.0
214.888565 136.0
214.93689 164.0
215.042084 312.0
215.085526 508.0
215.159988 96.0
215.215469 84.0
215.282623 164.0
215.320389 180.0
215.386383 152.0
215.428665 92.0
215.449112 200.0
215.586441 104.0
215.665359 140.0
215.691666 128.0
215.723083 160.0
215.835464 136.0
215.880798 116.0
215.952972 152.0
216.00267 164.0
216.051575 208.0
216.08342 744.0
216.112793 136.0
216.221985 176.0
216.308868 168.0
216.333038 232.0
216.373276 180.0
216.396698 100.0
216.464035 132.0
216.490402 64.0
216.578262 160.0
216.657349 64.0
216.677856 44.0
216.701294 124.0
216.745255 124.0
216.785645 184.0
216.965073 116.0
216.999008 180.0
217.023712 68.0
217.054291 140.0
217.088333 5548.0
217.161545 200.0
217.193802 88.0
217.231934 52.0
217.302353 28.0
217.399246 160.0
217.463745 156.0
217.496613 160.0
217.589233 208.0
217.612289 144.0
217.641129 124.0
217.689804 108.0
217.770081 120.0
217.804337 200.0
217.824768 180.0
217.865051 132.0
217.906738 132.0
217.94014 144.0
217.995316 252.0
218.049393 220.0
218.097366 46032.0
218.175507 184.0
218.205887 144.0
218.234787 36.0
218.260849 120.0
218.287109 168.0
218.335266 132.0
218.356384 44.0
218.392273 96.0
218.415543 60.0
218.442215 36.0
218.500595 76.0
218.536362 52.0
218.569321 20.0
218.588531 272.0
218.615646 152.0
218.671722 184.0
218.77475 84.0
218.807129 88.0
218.856018 192.0
218.905319 168.0
218.967224 140.0
219.002655 180.0
219.09993 9308.0
219.14476 104.0
219.178253 128.0
219.207718 48.0
219.278442 44.0
219.331497 76.0
219.367325 156.0
219.41304 176.0
219.443527 72.0
219.470062 196.0
219.526093 248.0
219.579163 52.0
219.609283 152.0
219.672989 128.0
219.76207 112.0
219.78862 128.0
219.822922 96.0
219.854675 176.0
219.883057 72.0
220.015884 108.0
220.070999 576.0
220.101013 720.0
220.219635 140.0
220.2397 124.0
220.309448 108.0
220.370499 112.0
220.393936 48.0
220.441086 100.0
220.521576 236.0
220.596741 180.0
220.680191 108.0
220.731018 108.0
220.760193 136.0
220.779327 160.0
220.825531 100.0
220.849197 100.0
220.871277 120.0
220.89357 112.0
220.947083 108.0
220.966049 64.0
221.017822 80.0
221.04364 144.0
221.100021 144.0
221.13324 116.0
221.249481 324.0
221.27179 184.0
221.322708 76.0
221.34343 92.0
221.364151 124.0
221.40007 156.0
221.587509 168.0
221.663345 180.0
221.707596 136.0
221.793747 92.0
221.920898 144.0
222.125488 192.0
222.166885 96.0
222.208923 200.0
222.244522 104.0
222.312073 244.0
222.372131 180.0
222.416656 132.0
222.600723 112.0
222.633392 88.0
222.680908 100.0
222.7314 136.0
222.758133 72.0
222.793839 128.0
222.927734 152.0
222.955399 204.0
222.99585 220.0
223.052826 176.0
223.10759 364.0
223.168259 88.0
223.195648 172.0
223.260452 192.0
223.34967 96.0
223.400986 128.0
223.560913 88.0
223.63829 176.0
223.67247 112.0
223.724625 68.0
224.028381 120.0
224.095291 160.0
224.147552 140.0
224.284653 108.0
224.338303 180.0
224.433701 56.0
224.61264 352.0
224.696182 140.0
224.720047 156.0
224.797623 128.0
224.972839 216.0
225.012527 212.0
225.051346 112.0
225.09877 156.0
225.149887 132.0
225.197678 260.0
225.281311 176.0
225.323135 164.0
225.436691 148.0
225.484497 112.0
225.630966 60.0
225.666855 252.0
225.690765 192.0
225.765518 152.0
225.79187 168.0
225.957672 100.0
225.977905 208.0
226.004837 176.0
226.064682 148.0
226.098572 184.0
226.166702 212.0
226.25325 140.0
226.286179 116.0
226.345978 128.0
226.390991 92.0
226.471848 116.0
226.543732 156.0
226.624634 200.0
226.657593 176.0
226.772339 192.0
226.801437 208.0
226.84877 208.0
226.906357 96.0
226.987793 152.0
227.011978 160.0
227.05777 128.0
227.122284 148.0
227.145569 128.0
227.197281 188.0
227.317291 88.0
227.430008 144.0
227.440186 80.0
227.451248 220.0
227.504761 192.0
227.571548 136.0
227.737595 72.0
227.907791 172.0
227.943069 224.0
228.008499 120.0
228.13443 216.0
228.243591 108.0
228.401871 176.0
228.48912 136.0
228.524887 108.0
228.634354 148.0
228.665222 132.0
228.746902 248.0
228.805115 152.0
228.832214 152.0
228.853287 116.0
229.00351 100.0
229.125305 204.0
229.160507 72.0
229.428741 128.0
229.473969 116.0
229.53125 144.0
229.555374 84.0
229.60408 212.0
229.730316 152.0
229.787628 132.0
229.847977 180.0
229.923416 200.0
230.056305 1124.0
230.092758 484.0
230.170959 64.0
230.217972 176.0
230.249481 188.0
230.309189 224.0
230.382385 204.0
230.409576 200.0
230.476044 108.0
230.527405 120.0
230.62413 204.0
230.684586 188.0
230.78363 152.0
230.847855 128.0
230.875061 44.0
230.914017 132.0
231.005127 176.0
231.026306 192.0
231.053833 120.0
231.097046 140.0
231.159424 156.0
231.219955 156.0
231.247192 76.0
231.268372 84.0
231.289566 60.0
231.337997 312.0
231.405365 112.0
231.434875 312.0
231.465164 132.0
231.628708 108.0
231.649918 132.0
231.697113 152.0
231.783218 192.0
231.850327 136.0
231.892319 76.0
231.949905 144.0
232.022659 176.0
232.073318 748.0
232.107483 164.0
232.237961 132.0
232.270325 84.0
232.322891 168.0
232.359299 196.0
232.407852 140.0
232.434967 184.0
232.492554 172.0
232.574768 136.0
232.626358 88.0
232.655838 176.0
232.790314 156.0
232.88446 164.0
232.92395 96.0
232.981674 160.0
233.023026 144.0
233.046738 148.0
233.084381 2888.0
233.261246 176.0
233.299622 244.0
233.346375 76.0
233.39502 52.0
233.416306 124.0
233.477127 200.0
233.551254 236.0
233.632248 172.0
233.666183 52.0
233.726852 44.0
233.756424 208.0
233.819656 136.0
233.890915 72.0
233.94249 140.0
234.000504 160.0
234.041763 204.0
234.091812 8008.0
234.146973 204.0
234.231949 44.0
234.312622 116.0
234.337875 192.0
234.390381 36.0
234.51532 140.0
234.564102 140.0
234.60463 216.0
234.670792 176.0
234.701294 52.0
234.740921 96.0
234.790436 68.0
234.899521 80.0
234.936127 36.0
234.960541 212.0
234.987991 164.0
235.063049 2644.0
235.095963 2332.0
235.143631 56.0
235.183304 44.0
235.216171 52.0
235.247192 116.0
235.308456 188.0
235.340057 80.0
235.397003 152.0
235.449341 120.0
235.570236 156.0
235.592484 40.0
235.688004 184.0
235.698761 92.0
235.712021 164.0
235.737473 204.0
235.785904 200.0
235.832291 168.0
235.962784 196.0
236.067154 420.0
236.105652 2020.0
236.15799 112.0
236.263443 188.0
236.295654 80.0
236.327393 96.0
236.527298 224.0
236.579498 160.0
236.62619 56.0
236.653259 224.0
236.702744 100.0
236.736893 128.0
236.782364 68.0
236.822174 136.0
236.84668 132.0
236.895691 144.0
236.926331 60.0
236.950836 184.0
236.979568 132.0
237.002747 140.0
237.026871 44.0
237.071472 184.0
237.105026 356.0
237.174088 160.0
237.214386 192.0
237.241974 116.0
237.278763 112.0
237.333954 284.0
237.380737 140.0
237.475479 136.0
237.497375 264.0
237.553406 140.0
237.593628 180.0
237.628403 132.0
237.659958 56.0
237.711258 88.0
237.743942 116.0
237.836639 140.0
237.891586 132.0
237.902512 140.0
237.927307 148.0
237.992493 240.0
238.013077 240.0
238.087799 28068.0
238.180313 184.0
238.233215 116.0
238.254715 104.0
238.289307 124.0
238.337662 32.0
238.363785 56.0
238.410126 140.0
238.448486 196.0
238.510956 52.0
238.551346 220.0
238.580154 192.0
238.614288 116.0
238.647964 84.0
238.652466 144.0
238.681931 64.0
238.712341 72.0
238.743439 92.0
238.768036 164.0
238.798798 192.0
238.832047 236.0
238.936142 68.0
238.984833 84.0
239.029526 80.0
239.090607 4220.0
239.141403 124.0
239.196838 92.0
239.223999 236.0
239.25087 184.0
239.302155 204.0
239.331879 140.0
239.398926 88.0
239.426636 196.0
239.463608 60.0
239.4944 168.0
239.562851 108.0
239.605301 396.0
239.62468 108.0
239.654602 152.0
239.682327 164.0
239.716904 108.0
239.817932 96.0
239.848755 108.0
239.907318 260.0
239.972061 144.0
240.014557 196.0
240.035767 176.0
240.092697 596.0
240.298996 48.0
240.329224 60.0
240.377289 120.0
240.40007 100.0
240.453278 92.0
240.505753 100.0
240.579834 48.0
240.60762 80.0
240.661926 244.0
240.6987 100.0
240.768097 280.0
240.813934 84.0
240.857407 188.0
240.91954 260.0
240.94426 112.0
240.992706 188.0
241.030762 36.0
241.100021 224.0
241.244827 168.0
241.301224 60.0
241.356842 164.0
241.386246 92.0
241.457382 168.0
241.482117 44.0
241.534698 124.0
241.608948 156.0
241.667725 100.0
241.732712 164.0
241.797699 124.0
241.949371 188.0
241.992722 56.0
242.045349 128.0
242.093475 2708.0
242.152267 184.0
242.212601 120.0
242.243576 48.0
242.283844 44.0
242.315948 132.0
242.339615 100.0
242.397903 64.0
242.432571 72.0
242.498734 172.0
242.596848 48.0
242.638657 140.0
242.671249 104.0
242.704254 196.0
242.76738 188.0
242.827026 204.0
242.888336 104.0
242.951233 276.0
242.970718 172.0
242.993805 144.0
243.015533 180.0
243.039062 180.0
243.09523 500.0
243.12413 292.0
243.148956 40.0
243.204834 164.0
243.251389 80.0
243.273117 156.0
243.296249 152.0
243.350739 152.0
243.442276 116.0
243.467621 320.0
243.555695 116.0
243.657486 136.0
243.773178 144.0
243.796417 148.0
243.836639 240.0
244.028061 108.0
244.076035 364.0
244.179199 152.0
244.206757 188.0
244.24176 184.0
244.283081 200.0
244.371765 192.0
244.419968 132.0
244.506927 136.0
244.581802 84.0
244.637833 192.0
244.672073 108.0
244.749924 120.0
244.798828 292.0
244.872726 68.0
244.902512 188.0
244.9617 168.0
244.997238 148.0
245.080368 1204.0
245.195389 108.0
245.237549 96.0
245.258682 168.0
245.366837 128.0
245.413498 128.0
245.572632 124.0
245.65062 184.0
245.7099 116.0
245.74733 92.0
245.800385 164.0
245.901215 180.0
245.937134 372.0
246.025101 204.0
246.091599 1504.0
246.196838 184.0
246.228058 172.0
246.291718 228.0
246.318634 72.0
246.381119 120.0
246.437363 184.0
246.462357 136.0
246.562347 160.0
246.634232 120.0
246.663147 176.0
246.697388 40.0
246.730835 144.0
246.837448 124.0
246.895798 124.0
246.934402 140.0
246.956284 84.0
247.001419 272.0
247.043869 344.0
247.099762 11832.0
247.178055 64.0
247.21283 44.0
247.249207 244.0
247.29599 112.0
247.308563 136.0
247.32016 192.0
247.357346 184.0
247.397507 40.0
247.431702 296.0
247.461563 292.0
247.503952 56.0
247.525116 140.0
247.577499 296.0
247.641998 152.0
247.690781 168.0
247.731583 188.0
247.787338 176.0
247.836945 192.0
247.870102 220.0
247.926086 148.0
247.952484 324.0
247.982574 288.0
248.041061 344.0
248.107422 71352.0
248.175476 204.0
248.227722 148.0
248.274719 140.0
248.303314 144.0
248.331024 188.0
248.358215 68.0
248.404953 244.0
248.437012 68.0
248.464935 368.0
248.510086 44.0
248.579514 260.0
248.624084 272.0
248.68869 184.0
248.700211 124.0
248.756088 172.0
248.78891 100.0
248.845062 72.0
248.863724 252.0
248.903549 260.0
248.926819 168.0
248.965012 356.0
249.00885 340.0
249.03447 244.0
249.1147 60408.0
249.214233 184.0
249.278168 76.0
249.30043 92.0
249.321609 92.0
249.386246 272.0
249.463577 280.0
249.506805 172.0
249.543823 304.0
249.600616 208.0
249.632217 252.0
249.662506 140.0
249.719528 108.0
249.747833 328.0
249.790222 244.0
249.819244 80.0
249.863571 308.0
249.942322 96.0
249.995468 164.0
250.020721 204.0
250.051361 292.0
250.12207 29096.0
250.189316 136.0
250.235733 56.0
250.274765 156.0
250.31369 112.0
250.34581 56.0
250.395309 92.0
250.412766 108.0
250.449753 148.0
250.49437 220.0
250.528503 108.0
250.559998 36.0
250.597809 104.0
250.626877 160.0
250.67276 188.0
250.707443 96.0
250.747971 80.0
250.786438 224.0
250.804581 164.0
250.837036 116.0
250.858047 140.0
250.877823 168.0
250.939529 140.0
250.968155 108.0
251.00296 208.0
251.016541 128.0
251.027496 188.0
251.063629 364.0
251.125031 3524.0
251.178513 140.0
251.215073 172.0
251.237167 96.0
251.278839 72.0
251.308167 152.0
251.371536 104.0
251.423141 60.0
251.443649 52.0
251.550232 100.0
251.609818 64.0
251.653793 100.0
251.683655 348.0
251.722336 96.0
251.76033 208.0
251.790207 180.0
251.816864 136.0
251.845718 152.0
251.877274 92.0
251.896469 56.0
251.90242 136.0
251.981125 152.0
252.00415 88.0
252.038666 92.0
252.12883 748.0
252.186646 104.0
252.20961 124.0
252.251266 264.0
252.314423 100.0
252.398758 124.0
252.444382 220.0
252.492538 104.0
252.513092 88.0
252.596191 100.0
252.621155 72.0
252.642868 164.0
252.671997 112.0
252.700592 96.0
252.744888 52.0
252.852478 96.0
252.898224 196.0
252.960098 60.0
253.01709 92.0
253.080399 112.0
253.134232 60.0
253.162735 120.0
253.193405 140.0
253.301605 180.0
253.358856 48.0
253.476349 108.0
253.555847 140.0
253.590439 260.0
253.707718 164.0
253.833649 192.0
253.92334 84.0
253.970917 108.0
254.043167 196.0
254.095505 164.0
254.116837 196.0
254.237427 136.0
254.269165 36.0
254.326294 88.0
254.383423 148.0
254.519943 140.0
254.615219 88.0
254.653427 128.0
254.700974 208.0
254.770859 164.0
254.869354 48.0
254.891586 156.0
255.002823 88.0
255.034607 104.0
255.060028 180.0
255.139496 88.0
255.258316 164.0
255.280441 136.0
255.436554 172.0
255.486145 188.0
255.600693 164.0
255.645233 124.0
255.778915 204.0
255.823486 48.0
255.956726 212.0
255.995407 156.0
256.019531 108.0
256.100525 188.0
256.148285 180.0
256.176971 120.0
256.212006 164.0
256.285278 64.0
256.336273 196.0
256.431885 156.0
256.481262 104.0
256.505188 220.0
256.639069 104.0
256.688568 124.0
256.780731 104.0
256.865509 52.0
256.887848 68.0
256.916565 128.0
256.958038 48.0
257.083954 848.0
257.117157 156.0
257.12912 136.0
257.134918 240.0
257.280365 76.0
257.344208 36.0
257.399658 164.0
257.459167 60.0
257.50708 128.0
257.549133 224.0
257.578888 136.0
257.612488 132.0
257.641235 88.0
257.669983 144.0
257.743469 180.0
257.772247 80.0
257.800995 52.0
257.836151 144.0
257.856995 124.0
257.894806 204.0
257.941925 168.0
257.954407 116.0
257.961792 168.0
258.000275 288.0
258.027069 188.0
258.08847 48516.0
258.195831 112.0
258.253815 192.0
258.302246 176.0
258.337921 276.0
258.389557 68.0
258.414948 124.0
258.437347 216.0
258.471893 40.0
258.476562 188.0
258.546326 68.0
258.595001 172.0
258.652924 192.0
258.677368 64.0
258.712585 48.0
258.770203 328.0
258.836365 164.0
258.886292 48.0
258.931213 144.0
259.002136 288.0
259.091309 8672.0
259.180939 204.0
259.234589 160.0
259.277222 216.0
259.33548 132.0
259.375458 104.0
259.459015 124.0
259.487885 128.0
259.532776 76.0
259.574036 120.0
259.624237 76.0
259.66745 96.0
259.718781 172.0
259.741241 172.0
259.831665 128.0
259.906372 100.0
259.943512 296.0
259.970276 152.0
260.009766 144.0
260.04541 524.0
260.108002 54904.0
260.20752 56.0
260.229034 204.0
260.251801 88.0
260.285431 56.0
260.338318 160.0
260.388519 168.0
260.401947 188.0
260.424713 120.0
260.462555 56.0
260.48938 60.0
260.510651 128.0
260.550537 148.0
260.596497 288.0
260.644135 164.0
260.711243 68.0
260.76593 148.0
260.788147 48.0
260.80191 60.0
260.853699 180.0
260.903351 104.0
260.922058 68.0
260.92868 280.0
260.964539 60.0
261.013245 184.0
261.047394 64.0
261.111267 10328.0
261.174408 200.0
261.21405 220.0
261.299286 76.0
261.346527 152.0
261.40799 184.0
261.434418 64.0
261.466614 32.0
261.504944 88.0
261.514557 72.0
261.581573 208.0
261.618927 224.0
261.669128 88.0
261.690552 56.0
261.716461 156.0
261.765991 84.0
261.801422 72.0
261.836853 72.0
261.894836 68.0
261.940277 152.0
262.019287 128.0
262.051544 188.0
262.088623 3072.0
262.115692 2136.0
262.180115 68.0
262.278259 64.0
262.318451 92.0
262.342743 60.0
262.413025 120.0
262.462036 52.0
262.49942 120.0
262.57605 188.0
262.635223 164.0
262.676483 96.0
262.701599 100.0
262.751099 128.0
262.791016 72.0
262.818726 96.0
262.848572 84.0
262.892975 100.0
262.919617 100.0
262.944092 148.0
262.971741 64.0
262.994324 120.0
263.025299 168.0
263.092896 584.0
263.122925 268.0
263.127167 416.0
263.178345 108.0
263.23645 124.0
263.278442 64.0
263.310516 116.0
263.348724 100.0
263.386871 104.0
263.446411 224.0
263.493347 112.0
263.569183 124.0
263.62088 156.0
263.653198 164.0
263.685516 96.0
263.724304 104.0
263.785706 172.0
263.887573 92.0
263.935272 92.0
263.988831 112.0
264.103699 432.0
264.137787 324.0
264.144745 164.0
264.220581 76.0
264.261108 68.0
264.296448 52.0
264.367889 120.0
264.392792 144.0
264.458527 84.0
264.521637 52.0
264.600952 68.0
264.639801 156.0
264.69635 120.0
264.728729 120.0
264.781464 64.0
264.817902 108.0
264.879456 160.0
264.916107 76.0
264.958527 52.0
265.012268 36.0
265.104187 276.0
265.140717 176.0
265.191376 144.0
265.268311 96.0
265.299316 164.0
265.353699 140.0
265.52771 48.0
265.586426 184.0
265.666107 172.0
265.739807 272.0
265.791626 124.0
265.818726 224.0
265.871582 80.0
265.912323 116.0
265.964508 336.0
266.015076 236.0
266.082031 45256.0
266.181305 128.0
266.202362 36.0
266.249451 112.0
266.290649 108.0
266.334595 112.0
266.382324 68.0
266.388947 84.0
266.403412 164.0
266.449585 68.0
266.489258 168.0
266.516418 128.0
266.540741 72.0
266.577026 144.0
266.628296 96.0
266.652069 176.0
266.686798 168.0
266.737213 148.0
266.783081 116.0
266.823975 144.0
266.862335 56.0
266.903046 176.0
266.946899 36.0
266.980896 52.0
267.002167 112.0
267.024933 44.0
267.08551 8624.0
267.174561 104.0
267.207092 152.0
267.242889 72.0
267.282349 64.0
267.340515 60.0
267.405609 148.0
267.477722 136.0
267.503235 72.0
267.550476 172.0
267.601929 204.0
267.62561 68.0
267.691559 148.0
267.726868 76.0
267.820282 88.0
267.860657 84.0
267.920776 104.0
267.942902 160.0
268.021088 48.0
268.084991 940.0
268.144928 52.0
268.176575 208.0
268.350281 56.0
268.379639 156.0
268.426361 108.0
268.542694 100.0
268.623169 148.0
268.653595 88.0
268.695221 116.0
268.763794 144.0
268.787354 100.0
268.813477 52.0
268.854095 144.0
268.973389 96.0
269.007111 108.0
269.021912 88.0
269.043854 232.0
269.091858 180.0
269.146423 108.0
269.224792 92.0
269.371765 52.0
269.397888 136.0
269.473053 48.0
269.557983 280.0
269.630371 128.0
269.686462 168.0
269.725403 84.0
269.767181 112.0
269.822327 64.0
269.884857 40.0
269.914307 116.0
269.94046 60.0
269.999329 108.0
270.022217 32.0
270.076141 68.0
270.102295 180.0
270.208679 76.0
270.25119 212.0
270.356049 100.0
270.397552 116.0
270.431183 56.0
270.519562 116.0
270.63089 64.0
270.678589 148.0
270.746246 208.0
270.833923 156.0
270.90271 84.0
270.938049 92.0
271.016327 88.0
271.088959 436.0
271.135345 144.0
271.164856 48.0
271.194336 124.0
271.2435 100.0
271.351685 100.0
271.440216 144.0
271.502533 64.0
271.704956 84.0
271.783661 120.0
271.892944 120.0
272.100433 764.0
272.175568 124.0
272.39859 60.0
272.579285 124.0
272.712677 164.0
272.74231 212.0
272.815918 204.0
272.865234 108.0
272.90799 208.0
272.937561 152.0
272.993469 156.0
273.034088 124.0
273.079834 252.0
273.101166 292.0
273.22702 76.0
273.256622 80.0
273.296112 52.0
273.325714 112.0
273.493561 40.0
273.529755 172.0
273.561646 140.0
273.598907 32.0
273.643494 80.0
273.687775 48.0
273.737183 108.0
273.849152 132.0
273.885376 92.0
274.001953 136.0
274.083984 380.0
274.120026 452.0
274.157074 184.0
274.224762 160.0
274.29068 232.0
274.340118 64.0
274.459839 144.0
274.491791 72.0
274.584137 48.0
274.6138 76.0
274.660004 40.0
274.689667 56.0
274.76886 36.0
274.844727 132.0
274.928284 212.0
275.116486 2292.0
275.192871 128.0
275.230927 96.0
275.307648 240.0
275.335114 124.0
275.386139 56.0
275.475342 124.0
275.567841 128.0
275.600983 120.0
275.696716 152.0
275.848755 220.0
275.934692 56.0
275.963959 156.0
276.008118 156.0
276.118164 1320.0
276.124115 900.0
276.21225 164.0
276.272858 136.0
276.707581 164.0
276.765167 152.0
276.917511 60.0
277.003632 44.0
277.101196 700.0
277.133575 1692.0
277.209045 76.0
277.27533 76.0
277.305145 56.0
277.484161 124.0
277.613464 128.0
277.799225 220.0
277.852295 136.0
278.038116 240.0
278.083893 320.0
278.134094 764.0
278.178741 168.0
278.227325 104.0
278.426544 168.0
278.635803 152.0
278.659058 80.0
278.682312 96.0
278.725525 56.0
278.77536 152.0
278.847534 128.0
278.860046 92.0
278.869965 172.0
278.893402 80.0
278.941528 36.0
278.971466 120.0
279.034637 136.0
279.0896 412.0
279.113739 288.0
279.189484 232.0
279.480316 136.0
279.508636 176.0
279.590118 104.0
279.743225 136.0
279.819794 132.0
279.94635 76.0
279.972992 64.0
280.00296 92.0
280.036255 64.0
280.05957 140.0
280.086212 156.0
280.134033 148.0
280.186157 176.0
280.442749 128.0
280.516083 92.0
280.606079 64.0
280.639435 184.0
280.832855 192.0
280.956268 132.0
281.101776 196.0
281.153137 56.0
281.203186 160.0
281.249054 152.0
281.38504 176.0
281.433533 96.0
281.651917 132.0
281.724091 176.0
281.747498 88.0
281.827667 132.0
281.963257 120.0
282.071625 120.0
282.121796 84.0
282.202026 128.0
282.255524 76.0
282.298981 176.0
282.392639 164.0
282.429413 124.0
282.4729 84.0
282.506348 156.0
282.610077 120.0
282.646881 136.0
282.687042 156.0
282.837646 152.0
282.874481 72.0
282.991638 120.0
283.088745 100.0
283.142334 100.0
283.279022 212.0
283.55777 52.0
283.584564 64.0
283.64035 56.0
283.876251 188.0
283.933258 60.0
284.073822 128.0
284.094513 136.0
284.134521 44.0
284.206451 192.0
284.292236 76.0
284.329926 180.0
284.527191 132.0
284.604401 160.0
284.779022 176.0
284.862305 168.0
284.899963 124.0
285.10083 316.0
285.13327 108.0
285.192322 100.0
285.246094 172.0
285.27298 192.0
285.333496 116.0
285.402954 176.0
285.474731 172.0
285.52179 164.0
285.605896 44.0
285.663055 112.0
285.706787 212.0
285.965912 184.0
286.096863 288.0
286.104309 452.0
286.233398 52.0
286.29248 76.0
286.49649 128.0
286.575439 180.0
286.609131 56.0
286.673157 72.0
286.78772 152.0
286.863495 244.0
287.051025 296.0
287.11499 980.0
287.256989 120.0
287.339783 192.0
287.408264 188.0
287.458862 124.0
287.494659 72.0
287.516235 140.0
287.664734 40.0
287.732574 232.0
287.782898 148.0
287.86734 196.0
287.928101 204.0
287.961884 112.0
288.003082 144.0
288.053955 136.0
288.102692 27120.0
288.191589 108.0
288.245667 148.0
288.288452 48.0
288.365234 156.0
288.431549 68.0
288.489136 104.0
288.522827 140.0
288.546478 52.0
288.57489 140.0
288.644531 108.0
288.754547 136.0
288.78833 132.0
288.877899 44.0
288.93985 144.0
289.00647 100.0
289.058716 144.0
289.105438 5364.0
289.232086 72.0
289.290771 240.0
289.313446 80.0
289.388947 44.0
289.470215 112.0
289.519501 144.0
289.575195 92.0
289.615845 248.0
289.659851 56.0
289.714081 72.0
289.788605 88.0
289.825867 156.0
289.859741 48.0
289.891357 160.0
289.962891 148.0
290.007172 72.0
290.028412 152.0
290.085297 3908.0
290.149811 980.0
290.232086 124.0
290.419128 40.0
290.557098 132.0
290.609985 136.0
290.744843 136.0
290.821198 112.0
290.931519 120.0
291.033386 128.0
291.085022 1016.0
291.165741 180.0
291.223083 144.0
291.260925 52.0
291.31189 120.0
291.39682 56.0
291.522522 76.0
291.632324 132.0
291.777466 248.0
291.955994 220.0
292.052917 88.0
292.090912 160.0
292.165161 192.0
292.212799 124.0
292.416962 48.0
292.516785 148.0
292.590576 116.0
292.621216 76.0
292.713135 52.0
292.815308 116.0
292.931122 176.0
293.050354 124.0
293.084412 116.0
293.1185 116.0
293.161011 624.0
293.35025 136.0
293.411621 168.0
293.452545 192.0
293.575287 144.0
293.655823 184.0
293.694672 136.0
293.841339 92.0
293.897156 116.0
294.001709 120.0
294.083618 104.0
294.121185 200.0
294.169189 276.0
294.199707 192.0
294.322601 124.0
294.53775 120.0
294.800842 100.0
295.163177 132.0
295.204224 160.0
295.33075 112.0
295.529175 164.0
295.589111 156.0
295.648956 108.0
295.676331 88.0
295.76532 48.0
295.802948 124.0
295.874603 56.0
295.939911 144.0
296.080292 84.0
296.131683 88.0
296.213867 172.0
296.405731 172.0
296.511963 48.0
296.668427 236.0
296.741638 220.0
296.765656 148.0
296.882233 124.0
296.925781 188.0
296.961121 68.0
297.107605 164.0
297.15625 104.0
297.242432 188.0
297.304596 140.0
297.410217 180.0
297.4758 104.0
297.568512 124.0
297.791718 136.0
297.829498 44.0
297.987518 148.0
298.159332 76.0
298.217743 64.0
298.606262 164.0
298.785126 128.0
298.871155 80.0
298.912445 44.0
299.017242 168.0
299.078308 492.0
299.149933 164.0
299.218781 108.0
299.286865 72.0
299.384064 132.0
299.683502 112.0
299.869385 120.0
299.9422 84.0
300.074982 320.0
300.117279 148.0
300.142792 148.0
300.287018 76.0
300.393951 52.0
300.628571 72.0
300.673431 124.0
300.701019 100.0
300.852905 60.0
300.877075 188.0
301.084045 372.0
301.09491 488.0
301.170593 36.0
301.346771 108.0
301.377869 44.0
301.422791 176.0
301.595581 140.0
301.771912 56.0
301.805847 108.0
301.844513 92.0
301.920593 124.0
301.996674 52.0
302.112122 264.0
302.164246 156.0
302.238831 132.0
302.290741 380.0
302.366882 104.0
302.40387 128.0
302.429199 128.0
302.529572 164.0
302.605743 104.0
302.631653 296.0
302.737305 84.0
302.785797 112.0
302.936829 120.0
302.979767 56.0
303.031158 188.0
303.11377 20360.0
303.23407 52.0
303.271942 128.0
303.302063 144.0
303.374847 44.0
303.414093 112.0
303.445221 160.0
303.479401 108.0
303.551666 80.0
303.617554 40.0
303.700806 76.0
303.833038 132.0
303.884674 56.0
303.940186 248.0
303.994904 160.0
304.115601 2964.0
304.230133 68.0
304.275024 92.0
304.412262 144.0
304.531586 112.0
304.631073 112.0
304.678436 124.0
304.77005 68.0
304.825653 176.0
304.874298 168.0
304.9021 48.0
304.936859 76.0
305.048065 28.0
305.092041 876.0
305.117218 716.0
305.164032 936.0
305.274078 188.0
305.375946 216.0
305.451447 48.0
305.555817 80.0
305.782898 156.0
305.875977 112.0
305.942108 52.0
305.983429 88.0
306.042084 196.0
306.099579 380.0
306.139343 424.0
306.169067 412.0
306.215851 184.0
306.262482 112.0
306.286865 104.0
306.347687 96.0
306.417419 84.0
306.713959 160.0
306.820038 108.0
306.952515 40.0
307.103394 156.0
307.180664 196.0
307.276917 252.0
307.488403 72.0
307.528168 36.0
307.580505 132.0
307.60495 136.0
307.838867 28.0
307.912201 76.0
308.107666 168.0
308.174042 160.0
308.209137 172.0
308.565643 104.0
308.663544 108.0
308.8909 100.0
309.030823 72.0
309.081787 152.0
309.157318 132.0
309.268799 152.0
309.492859 116.0
309.566376 180.0
309.625916 108.0
309.771637 100.0
309.797546 36.0
309.941193 120.0
310.032288 180.0
310.084869 76.0
310.151459 216.0
310.249634 76.0
310.309204 108.0
310.389862 148.0
310.842377 84.0
310.898529 208.0
311.102234 108.0
311.203918 60.0
311.27063 116.0
311.449738 100.0
311.51297 116.0
311.562134 148.0
311.713226 92.0
311.846771 152.0
311.898438 80.0
312.061218 68.0
312.370697 100.0
312.434021 96.0
312.476227 108.0
312.548859 156.0
312.669769 132.0
312.77182 184.0
312.930237 244.0
313.060547 64.0
313.086029 152.0
313.130066 184.0
313.370514 128.0
313.398682 52.0
313.536133 152.0
313.588989 160.0
313.705322 56.0
313.795044 168.0
313.835754 112.0
314.008545 128.0
314.10434 668.0
314.491913 96.0
314.679016 144.0
314.837921 124.0
314.895447 152.0
315.018066 152.0
315.09552 316.0
315.427979 132.0
315.661316 172.0
315.926575 92.0
316.068085 104.0
316.099945 264.0
316.140137 124.0
316.313812 148.0
316.344147 132.0
316.478699 52.0
316.528259 184.0
316.900177 172.0
317.096741 256.0
317.13147 148.0
317.159943 348.0
317.222687 100.0
317.704987 92.0
317.751099 40.0
317.910767 164.0
318.045624 116.0
318.092621 164.0
318.128357 240.0
318.157013 168.0
318.969055 116.0
318.977417 112.0
318.987885 152.0
319.073578 236.0
319.126312 100.0
319.698303 128.0
319.951385 112.0
319.979492 76.0
320.032898 176.0
320.104614 1732.0
320.171783 188.0
320.221619 28.0
320.303558 172.0
320.634918 140.0
320.773926 88.0
320.909393 56.0
320.953766 136.0
321.097443 424.0
321.191132 184.0
321.430145 96.0
321.45871 116.0
321.626434 60.0
321.704987 108.0
321.825684 164.0
321.937073 84.0
322.103241 132.0
322.208527 172.0
322.426483 88.0
322.494415 192.0
323.048645 180.0
323.098846 116.0
323.173859 140.0
323.295532 228.0
323.491486 168.0
323.58905 96.0
323.674988 84.0
323.800323 112.0
323.846863 144.0
324.117676 108.0
324.248169 168.0
324.403046 148.0
324.484741 128.0
324.513428 152.0
324.621002 116.0
325.094604 280.0
325.245239 136.0
325.349365 148.0
325.683319 52.0
325.992279 208.0
326.060577 32.0
326.095642 132.0
326.297821 48.0
326.44165 68.0
326.576843 148.0
326.76535 80.0
326.848114 80.0
326.887695 164.0
326.970459 80.0
327.010071 60.0
327.046051 52.0
327.141632 696.0
327.355682 180.0
327.651031 152.0
328.095398 612.0
328.143402 376.0
328.180695 204.0
328.339508 96.0
328.389984 60.0
328.490997 260.0
328.523468 60.0
328.880707 64.0
328.974548 124.0
329.010651 52.0
329.075928 996.0
329.159241 124.0
329.378998 84.0
329.462067 112.0
329.512665 128.0
329.787292 156.0
329.957184 164.0
330.011414 216.0
330.08548 520.0
330.112183 288.0
330.152863 172.0
330.358612 72.0
330.558899 124.0
330.611908 80.0
331.023407 220.0
331.064423 160.0
331.104034 720.0
331.147705 180.0
331.216522 164.0
331.33609 116.0
331.372314 184.0
331.397949 148.0
331.448395 160.0
331.499115 304.0
331.589722 144.0
331.78183 108.0
332.021149 68.0
332.106689 868.0
332.173492 40.0
332.33313 144.0
332.376678 44.0
332.416565 64.0
332.452881 52.0
332.478271 160.0
332.576263 160.0
332.756348 288.0
333.039337 128.0
333.088623 1884.0
333.244446 128.0
333.360748 48.0
333.636963 124.0
333.827972 172.0
333.95697 144.0
334.004242 148.0
334.09201 672.0
334.408142 84.0
334.604706 76.0
334.644745 84.0
334.892395 108.0
335.008942 120.0
335.086853 104.0
335.100952 140.0
335.734283 124.0
335.763458 148.0
335.896332 212.0
335.924957 128.0
335.978668 80.0
336.047974 176.0
336.129364 216.0
336.234924 68.0
336.314392 68.0
336.54071 124.0
336.599152 44.0
336.716003 96.0
336.855438 160.0
336.924225 152.0
336.95343 92.0
337.088623 96.0
337.134857 160.0
337.355438 148.0
337.409729 136.0
337.443176 140.0
337.688202 48.0
338.0047 272.0
338.122467 224.0
338.233368 188.0
338.595856 116.0
338.694733 252.0
338.909241 188.0
339.064789 204.0
339.204071 76.0
339.237061 80.0
339.409393 96.0
339.50473 104.0
339.622101 192.0
339.82019 236.0
339.955963 184.0
340.058716 100.0
340.094177 120.0
340.245911 56.0
340.363403 108.0
340.403809 76.0
340.543365 168.0
340.624939 132.0
340.844604 256.0
340.894196 160.0
340.940155 128.0
341.039368 124.0
341.10434 6224.0
341.214081 176.0
341.256287 80.0
341.315094 192.0
341.373932 84.0
341.421753 32.0
341.476898 68.0
341.517365 64.0
341.565186 48.0
341.594147 100.0
341.854828 144.0
341.911041 92.0
342.101196 1404.0
342.299011 124.0
342.500153 68.0
342.714386 124.0
342.809631 80.0
342.852356 180.0
342.865631 224.0
342.942291 200.0
343.096039 720.0
343.266724 128.0
343.36261 192.0
343.792816 140.0
343.96402 80.0
344.109253 128.0
344.147766 208.0
344.185547 100.0
344.344635 96.0
344.39856 96.0
344.536407 120.0
344.565948 148.0
344.633972 108.0
344.680511 100.0
344.852783 104.0
344.990967 80.0
345.15448 6604.0
345.301575 204.0
345.331146 160.0
345.356293 60.0
345.410919 88.0
345.438416 64.0
345.593811 44.0
345.6604 96.0
345.734406 48.0
345.793304 136.0
345.802307 140.0
345.890808 140.0
345.960083 136.0
346.111511 424.0
346.159363 1264.0
346.260132 64.0
346.400879 52.0
346.445343 80.0
346.530548 72.0
346.626892 108.0
346.875183 124.0
346.960449 64.0
347.065765 168.0
347.114319 156.0
347.161652 120.0
347.245972 64.0
347.431458 160.0
347.623444 160.0
347.657776 148.0
347.75058 128.0
347.954742 120.0
348.087372 200.0
348.093964 144.0
348.124573 472.0
348.181244 52.0
348.270386 60.0
348.370667 68.0
348.400391 60.0
348.517334 160.0
348.612183 80.0
348.772217 72.0
348.846344 96.0
349.006195 148.0
349.032227 180.0
349.086792 196.0
349.134216 208.0
349.195862 68.0
349.393005 52.0
349.545563 192.0
349.612549 88.0
349.692902 148.0
349.977356 168.0
350.085327 196.0
350.360962 88.0
350.420563 76.0
350.517975 112.0
350.718689 216.0
350.748505 124.0
350.777313 136.0
350.856628 92.0
350.882721 128.0
350.923157 156.0
351.156097 732.0
351.311584 164.0
351.516815 96.0
351.64743 64.0
351.759399 112.0
351.944427 88.0
352.063141 208.0
352.15683 156.0
352.274719 124.0
352.383057 96.0
352.528809 176.0
352.939972 148.0
353.104523 220.0
353.138184 136.0
353.164368 112.0
353.579651 128.0
353.834198 188.0
354.123322 116.0
354.328552 88.0
354.478455 180.0
354.56839 56.0
354.609619 108.0
354.635834 132.0
354.699554 56.0
354.737915 140.0
354.767029 164.0
354.868256 56.0
355.025757 124.0
355.123138 124.0
355.172028 180.0
355.307068 184.0
355.674835 28.0
355.786072 240.0
355.877563 68.0
356.094147 184.0
356.294434 80.0
356.365814 144.0
356.489838 124.0
356.523651 176.0
356.666473 220.0
356.925873 144.0
356.952209 52.0
357.113037 204.0
357.294464 140.0
357.44873 100.0
357.539062 196.0
357.994568 108.0
358.105164 468.0
358.344879 124.0
358.537048 68.0
358.721741 104.0
359.115143 236.0
359.222534 180.0
359.310059 156.0
359.37796 112.0
359.794952 80.0
360.129639 336.0
360.15686 136.0
360.19458 116.0
360.306732 216.0
360.331573 168.0
360.450317 104.0
360.514557 144.0
360.680847 136.0
360.707306 40.0
360.824493 64.0
360.862305 120.0
361.01358 144.0
361.066498 168.0
361.135742 836.0
361.683228 52.0
361.883881 92.0
361.974762 312.0
362.13559 316.0
362.17926 80.0
362.294556 240.0
362.387604 172.0
362.5354 36.0
362.578918 148.0
362.649109 124.0
362.698364 140.0
362.829529 140.0
362.88208 112.0
362.905731 172.0
363.009247 56.0
363.105988 324.0
363.146576 348.0
363.407532 100.0
363.908539 92.0
364.068024 40.0
364.122406 924.0
364.200958 132.0
364.352905 184.0
364.407562 100.0
364.470673 108.0
364.603699 136.0
365.136292 332.0
365.253845 148.0
365.2995 100.0
365.386993 120.0
365.725677 152.0
365.931244 124.0
365.984558 160.0
366.130524 72.0
366.300629 72.0
366.442627 136.0
366.525421 52.0
366.571136 28.0
366.597839 48.0
366.658813 76.0
367.253571 68.0
367.387085 172.0
367.554962 40.0
367.730499 188.0
367.818298 148.0
367.845001 48.0
367.879364 124.0
368.129089 280.0
368.169556 148.0
368.299408 116.0
368.555359 92.0
368.778442 184.0
368.829773 256.0
368.914642 204.0
369.235809 92.0
369.618378 152.0
369.94751 44.0
370.048737 136.0
370.127472 100.0
370.246185 180.0
370.303619 32.0
370.361084 108.0
370.629242 48.0
370.656067 200.0
371.111359 256.0
371.158203 124.0
371.484192 172.0
371.530243 76.0
371.605103 172.0
371.752777 96.0
371.88327 44.0
371.917816 76.0
372.06369 120.0
372.124268 860.0
372.409271 116.0
372.701233 136.0
372.7435 144.0
372.789948 92.0
372.906708 112.0
373.001007 48.0
373.12088 252.0
373.258606 128.0
373.450897 144.0
373.727875 104.0
373.927979 144.0
373.981873 180.0
374.035736 192.0
374.103699 2300.0
374.328339 48.0
374.432343 124.0
374.528625 92.0
374.667297 40.0
374.848389 192.0
374.886932 152.0
374.948578 92.0
375.02182 180.0
375.064209 60.0
375.113037 1516.0
375.366241 148.0
375.449768 112.0
375.503754 208.0
375.538483 100.0
375.615601 156.0
375.766052 64.0
376.037781 116.0
376.116974 736.0
376.229187 88.0
376.256226 140.0
376.37204 160.0
376.540222 116.0
376.665558 56.0
376.808502 152.0
376.859802 216.0
377.00943 128.0
377.126282 152.0
377.194946 80.0
377.39212 132.0
377.438507 204.0
377.697632 48.0
377.813477 156.0
377.909851 124.0
377.995514 164.0
378.041962 152.0
378.097351 152.0
378.128876 408.0
378.162567 524.0
378.24707 172.0
378.297394 116.0
378.450348 112.0
378.576996 96.0
378.638153 224.0
378.707855 144.0
378.835693 144.0
379.144806 3176.0
379.212128 140.0
379.28653 128.0
379.374359 120.0
379.428619 64.0
379.800903 108.0
379.835815 104.0
380.014252 228.0
380.149628 1096.0
380.678009 72.0
380.73764 136.0
380.790649 60.0
381.078094 92.0
381.157532 240.0
381.225769 64.0
381.350128 76.0
381.385101 108.0
381.728851 168.0
381.797211 192.0
381.888336 160.0
381.987823 68.0
382.135651 84.0
382.224182 212.0
382.357452 148.0
382.384705 52.0
382.575409 120.0
382.886932 88.0
383.02713 72.0
383.295959 72.0
383.323242 56.0
383.486908 120.0
383.580475 96.0
383.618225 152.0
383.759796 144.0
383.865082 108.0
384.04837 260.0
384.155151 140.0
384.36438 148.0
384.399506 120.0
384.461945 32.0
384.52829 48.0
384.586823 140.0
384.770294 88.0
384.873505 176.0
384.977234 172.0
385.051453 112.0
385.160797 128.0
385.317078 52.0
385.388519 124.0
385.504608 180.0
385.66095 124.0
386.048004 120.0
386.132019 128.0
386.478271 72.0
386.677856 164.0
386.791351 116.0
386.908813 72.0
386.977234 144.0
387.028137 176.0
387.092834 180.0
387.134552 172.0
387.335663 160.0
387.378479 172.0
387.484528 120.0
387.547211 172.0
387.887115 120.0
387.962646 132.0
388.116791 340.0
388.133179 236.0
388.143768 100.0
388.28418 96.0
388.346924 112.0
388.411743 172.0
388.520386 164.0
388.574432 180.0
388.637207 120.0
388.684296 36.0
388.88446 116.0
388.971039 140.0
389.074799 156.0
389.128052 3644.0
389.203308 108.0
389.300598 156.0
389.332031 56.0
389.39093 52.0
389.441986 48.0
389.575531 160.0
389.618774 104.0
389.697327 84.0
389.749786 92.0
389.803436 176.0
389.840546 196.0
389.878082 64.0
389.909546 32.0
389.948822 236.0
390.084625 160.0
390.134888 1688.0
390.222229 116.0
390.263306 56.0
390.294769 80.0
390.381287 148.0
390.45993 136.0
390.622437 76.0
390.656616 36.0
390.774628 60.0
390.802185 36.0
390.967438 108.0
391.121979 252.0
391.20755 112.0
391.246918 148.0
391.347076 100.0
391.384705 124.0
391.617432 156.0
391.92041 112.0
391.976685 148.0
392.038605 60.0
392.115326 2164.0
392.192322 124.0
392.247498 64.0
392.288635 128.0
392.389435 148.0
392.555023 96.0
392.629944 96.0
392.677277 200.0
392.898193 76.0
393.119324 1012.0
393.73056 96.0
393.83374 128.0
394.003601 52.0
394.118866 112.0
394.158142 200.0
394.236725 100.0
394.517334 108.0
394.605804 92.0
394.663635 60.0
394.707123 48.0
394.912781 132.0
394.944153 120.0
394.987915 56.0
395.086823 52.0
395.13269 88.0
395.182953 188.0
395.379639 196.0
395.454834 84.0
395.874481 100.0
395.977448 176.0
396.032898 168.0
396.096283 112.0
396.207184 132.0
396.302277 168.0
396.35498 168.0
396.726349 100.0
396.817535 108.0
396.86618 104.0
397.265656 28.0
397.686279 116.0
397.741852 132.0
397.845062 148.0
397.872864 176.0
397.976074 64.0
398.091248 216.0
398.333496 80.0
398.565521 144.0
398.607635 164.0
398.706421 168.0
399.100525 116.0
399.131317 140.0
399.153076 132.0
399.339142 208.0
399.422668 80.0
399.466431 348.0
399.528076 64.0
399.565887 152.0
399.705139 148.0
399.756866 180.0
399.800629 48.0
399.876251 108.0
400.011597 28.0
400.108704 92.0
400.282318 144.0
400.330109 112.0
400.509338 100.0
400.627502 180.0
400.700531 88.0
400.757751 56.0
400.812103 52.0
400.887817 84.0
401.146881 320.0
401.36618 156.0
401.485809 160.0
401.629395 124.0
401.753052 88.0
401.844788 96.0
401.876709 100.0
401.928589 124.0
402.130188 184.0
402.160065 52.0
402.267822 64.0
402.447479 96.0
402.523346 216.0
402.563293 116.0
402.699066 112.0
402.747009 152.0
403.065063 164.0
403.128448 328.0
403.173187 292.0
403.39032 184.0
403.479919 136.0
403.566254 112.0
403.722198 152.0
403.814178 44.0
404.140442 852.0
404.222229 72.0
404.318268 128.0
404.658508 76.0
404.786652 112.0
404.978882 184.0
405.128662 592.0
405.25531 116.0
405.315399 220.0
405.37149 56.0
405.399536 92.0
405.543823 72.0
405.632019 52.0
405.664093 108.0
405.788818 180.0
405.815918 160.0
405.996887 136.0
406.040985 168.0
406.154572 1000.0
406.379028 164.0
406.462219 60.0
406.494293 184.0
406.5224 128.0
406.569305 160.0
406.646301 188.0
406.704895 120.0
406.772797 72.0
406.809143 172.0
406.855927 168.0
406.898407 224.0
406.933655 140.0
406.983124 200.0
406.99823 184.0
407.045959 160.0
407.05368 104.0
407.140625 40564.0
407.265137 204.0
407.326141 108.0
407.336578 56.0
407.380615 128.0
407.427246 112.0
407.469696 156.0
407.512115 92.0
407.563843 124.0
407.608215 100.0
407.659943 88.0
407.712585 96.0
407.743256 100.0
407.789856 160.0
407.847748 48.0
407.890045 180.0
407.917755 48.0
407.990204 128.0
408.04071 260.0
408.142609 10440.0
408.277954 44.0
408.330231 72.0
408.358368 140.0
408.390564 68.0
408.444855 96.0
408.483063 80.0
408.559509 40.0
408.610199 60.0
408.712677 56.0
408.747925 80.0
408.836121 64.0
408.90271 216.0
408.973969 52.0
409.004395 76.0
409.034363 68.0
409.090729 60.0
409.145905 2252.0
409.260742 52.0
409.323547 116.0
409.380768 104.0
409.461151 60.0
409.55249 100.0
409.579468 148.0
409.604889 64.0
409.666565 48.0
409.75119 120.0
409.79953 64.0
409.876068 48.0
409.908325 152.0
409.965729 64.0
410.001007 80.0
410.144104 352.0
410.173645 120.0
410.21463 108.0
410.287201 48.0
410.330383 112.0
410.434723 88.0
410.533142 84.0
410.607849 92.0
410.645569 188.0
410.731964 116.0
410.831635 84.0
410.870941 204.0
410.90509 96.0
410.967194 216.0
410.99704 64.0
411.057556 92.0
411.111145 144.0
411.243195 32.0
411.327972 88.0
411.419861 84.0
411.506348 264.0
411.558105 52.0
411.65097 28.0
411.67923 76.0
411.723663 120.0
411.776154 184.0
411.857269 96.0
412.042755 76.0
412.172058 112.0
412.278778 148.0
412.329651 160.0
412.434753 52.0
412.546692 144.0
412.636871 80.0
412.681335 72.0
412.744659 224.0
412.968475 156.0
413.045319 96.0
413.142395 88.0
413.182861 80.0
413.251648 84.0
413.318085 104.0
413.555145 112.0
413.627991 60.0
413.733246 108.0
413.846619 60.0
413.883057 80.0
414.000488 168.0
414.109436 80.0
414.279968 96.0
414.324524 32.0
414.458221 168.0
414.600067 96.0
414.733795 108.0
414.774353 104.0
414.806763 76.0
415.14328 496.0
415.51239 72.0
415.642242 116.0
415.927338 160.0
416.096832 152.0
416.132233 144.0
416.223999 160.0
416.555725 324.0
416.612579 116.0
416.661346 140.0
416.894012 244.0
416.949829 56.0
417.110596 348.0
417.181519 152.0
417.218109 116.0
417.723755 248.0
417.994965 176.0
418.152039 280.0
418.186371 120.0
418.33728 152.0
418.572998 216.0
419.012878 132.0
419.152527 88.0
419.179932 192.0
419.208466 96.0
419.469299 116.0
419.755981 88.0
419.835754 228.0
419.905579 152.0
420.080994 72.0
420.137421 120.0
420.186737 200.0
420.468597 84.0
420.533905 160.0
420.586975 80.0
420.648193 180.0
420.701263 48.0
420.799255 64.0
421.140656 124.0
421.169342 236.0
421.219879 36.0
421.362701 104.0
421.493622 180.0
421.532776 140.0
421.612122 52.0
421.689758 108.0
421.748993 212.0
421.820557 144.0
421.898224 188.0
421.939117 172.0
421.993835 256.0
422.034729 248.0
422.069946 128.0
422.15036 13684.0
422.232056 176.0
422.319427 180.0
422.352142 44.0
422.393036 44.0
422.429871 64.0
422.483459 80.0
422.528046 92.0
422.590973 104.0
422.618042 144.0
422.69989 224.0
422.76535 164.0
422.83493 256.0
422.961823 52.0
423.014557 68.0
423.070221 108.0
423.152344 5020.0
423.231201 356.0
423.26886 68.0
423.310638 60.0
423.563751 48.0
423.604706 156.0
423.660492 168.0
423.743988 72.0
423.783142 108.0
423.821838 60.0
423.9599 104.0
423.993958 64.0
424.15271 788.0
424.243988 64.0
424.293182 96.0
424.490234 68.0
424.752472 60.0
425.109406 80.0
425.167969 144.0
425.194 192.0
425.232544 204.0
425.306427 112.0
425.458313 184.0
425.544525 120.0
425.622528 136.0
425.675903 56.0
425.758057 88.0
425.793579 84.0
425.82785 92.0
425.868927 64.0
426.029144 52.0
426.07843 40.0
426.139374 96.0
426.2099 100.0
426.34964 112.0
426.542786 96.0
426.711365 172.0
426.838806 88.0
426.902832 112.0
427.063477 136.0
427.10202 44.0
427.151367 228.0
427.217194 140.0
427.702759 68.0
427.772736 48.0
427.91684 176.0
428.036255 208.0
428.065063 84.0
428.139191 120.0
428.217438 76.0
428.308044 44.0
428.390442 76.0
428.46048 36.0
428.769531 104.0
429.004456 52.0
429.037445 136.0
429.111664 68.0
429.154999 92.0
429.214722 128.0
429.437439 104.0
429.767456 184.0
430.163635 136.0
430.328766 104.0
430.466003 208.0
430.543488 152.0
430.617828 72.0
430.654999 52.0
430.75827 112.0
430.795258 172.0
430.911133 116.0
430.952454 88.0
431.150787 128.0
431.179718 36.0
431.26651 112.0
431.369843 80.0
431.717163 28.0
431.90741 132.0
432.136871 2124.0
432.288025 96.0
432.362518 60.0
432.511536 96.0
432.639862 88.0
432.747498 88.0
432.78891 60.0
432.908997 92.0
433.009735 160.0
433.045654 104.0
433.131653 548.0
433.364624 112.0
433.418488 152.0
433.486267 56.0
433.592529 48.0
433.853668 136.0
434.023682 280.0
434.073425 112.0
434.140961 444.0
434.197479 144.0
434.235168 136.0
434.301514 56.0
434.338867 48.0
434.392792 68.0
434.446716 148.0
434.840912 116.0
434.973724 36.0
435.088806 172.0
435.123169 60.0
435.158417 244.0
435.331268 100.0
435.384766 92.0
435.476135 72.0
435.538452 164.0
435.70462 40.0
435.916504 60.0
436.061615 92.0
436.103516 160.0
436.161896 300.0
436.498474 160.0
437.026459 64.0
437.118286 152.0
437.180695 96.0
437.243134 84.0
437.484528 152.0
437.692719 116.0
437.821808 160.0
437.869995 224.0
437.90094 156.0
438.063385 120.0
438.175873 108.0
438.331329 152.0
438.367523 64.0
438.59259 124.0
438.667633 308.0
438.700958 64.0
438.755157 120.0
439.051208 148.0
439.092926 148.0
439.209686 92.0
439.405762 92.0
439.651947 48.0
439.685333 136.0
439.831421 128.0
439.988159 168.0
440.069366 108.0
440.119476 72.0
440.152893 152.0
440.265625 104.0
440.294861 132.0
440.942444 128.0
441.072021 36.0
441.168152 116.0
441.247589 152.0
441.276855 48.0
441.393921 152.0
441.469208 80.0
441.736877 92.0
441.770355 236.0
441.849823 48.0
441.908386 96.0
441.941864 148.0
442.013 120.0
442.192963 144.0
442.276672 68.0
442.427368 144.0
442.460846 116.0
442.594849 192.0
442.628326 128.0
442.695343 92.0
442.875427 128.0
442.908936 108.0
442.938263 76.0
443.122589 100.0
443.16449 80.0
443.327911 164.0
443.449432 132.0
443.583557 128.0
443.696747 112.0
444.106628 312.0
444.208374 252.0
444.502075 104.0
444.539825 92.0
444.598572 144.0
444.642517 136.0
444.833618 84.0
444.925995 64.0
444.988953 192.0
445.114227 120.0
445.21991 156.0
445.350098 92.0
445.383698 100.0
445.42572 148.0
445.804138 276.0
445.845856 160.0
445.92572 108.0
446.047607 188.0
446.110657 128.0
446.189728 308.0
446.341888 112.0
446.388153 184.0
446.484894 140.0
446.699402 48.0
446.737244 148.0
446.863464 188.0
446.951813 64.0
447.014954 136.0
447.141174 176.0
447.203674 212.0
447.33783 140.0
447.431641 52.0
447.498993 100.0
447.553741 108.0
447.616394 148.0
447.654785 164.0
447.709534 120.0
448.017029 108.0
448.088623 100.0
448.121887 72.0
448.142822 160.0
448.175659 128.0
448.212036 124.0
448.323761 120.0
448.383606 88.0
448.413116 112.0
448.470703 72.0
448.505829 176.0
448.543762 180.0
448.640717 156.0
448.681213 152.0
448.85379 148.0
448.889496 136.0
448.94986 148.0
449.005096 148.0
449.164093 3516.0
449.240784 96.0
449.25708 52.0
449.311371 156.0
449.353455 152.0
449.38089 128.0
449.407013 52.0
449.435913 144.0
449.477509 228.0
449.545776 76.0
449.642059 308.0
449.72699 132.0
449.756439 176.0
449.77951 124.0
449.789215 296.0
449.838013 176.0
449.890076 240.0
449.935364 164.0
450.003082 248.0
450.07019 356.0
450.146423 90488.0
450.260223 132.0
450.299408 336.0
450.348511 128.0
450.407928 144.0
450.499176 188.0
450.563141 136.0
450.600708 152.0
450.651672 224.0
450.663879 108.0
450.69812 104.0
450.722382 92.0
450.759918 52.0
450.785553 188.0
450.841553 196.0
450.917419 304.0
450.950256 88.0
451.033722 128.0
451.148376 27568.0
451.255951 264.0
451.316254 164.0
451.383118 136.0
451.394897 144.0
451.446228 56.0
451.494659 128.0
451.588654 184.0
451.654388 128.0
451.706543 60.0
451.764984 44.0
451.805969 64.0
451.840027 108.0
451.908386 276.0
451.963074 164.0
451.997223 72.0
452.038086 100.0
452.151947 6344.0
452.226593 132.0
452.256287 104.0
452.298645 160.0
452.385315 100.0
452.419464 60.0
452.465729 136.0
452.55719 216.0
452.586548 124.0
452.702118 88.0
452.755035 244.0
452.815277 112.0
452.84726 112.0
452.901184 152.0
452.952454 96.0
452.992462 120.0
453.058655 100.0
453.158752 692.0
453.257782 168.0
453.295563 140.0
453.33902 144.0
453.373016 88.0
453.45343 224.0
453.510895 124.0
453.54187 176.0
453.587738 136.0
453.683685 144.0
453.711243 112.0
453.764709 196.0
453.815704 224.0
453.885956 244.0
453.897766 100.0
453.91037 128.0
453.968445 104.0
453.998657 92.0
454.013306 260.0
454.089996 160.0
454.140533 120.0
454.180634 96.0
454.196777 104.0
454.213593 188.0
454.268005 100.0
454.309601 132.0
454.358459 64.0
454.417847 64.0
454.528656 68.0
454.576721 100.0
454.65863 152.0
454.765839 56.0
454.799774 92.0
454.867706 128.0
454.97052 72.0
455.037506 132.0
455.069397 124.0
455.169128 104.0
455.48764 64.0
455.521637 64.0
455.623596 140.0
455.766907 120.0
455.814789 104.0
455.921021 116.0
456.035767 44.0
456.065521 116.0
456.125031 44.0
456.188812 80.0
456.218567 88.0
456.26532 40.0
456.40564 96.0
456.650696 80.0
456.694824 116.0
456.748169 44.0
456.837402 92.0
456.898987 136.0
457.001099 148.0
457.137268 100.0
457.324524 80.0
457.728973 56.0
457.774139 112.0
457.848206 32.0
457.893799 108.0
458.005798 100.0
458.214539 36.0
458.27417 88.0
458.355133 48.0
458.474457 68.0
458.551178 52.0
458.653473 76.0
458.687561 100.0
458.806915 52.0
458.87088 172.0
458.956146 96.0
458.990265 40.0
459.020111 40.0
459.207764 160.0
460.031281 56.0
460.06543 132.0
460.179718 52.0
460.218689 80.0
460.304535 100.0
460.360046 148.0
460.505249 124.0
460.752991 36.0
460.808533 36.0
460.851257 100.0
460.966644 36.0
461.150116 232.0
461.186981 144.0
461.368408 116.0
461.505219 64.0
461.702362 80.0
461.748657 116.0
461.99707 84.0
462.171875 260.0
462.56192 72.0
462.64325 48.0
462.750305 100.0
462.793121 68.0
462.908722 80.0
463.067169 124.0
463.105713 116.0
463.21106 1120.0
463.272766 112.0
463.319916 144.0
463.581268 64.0
463.924164 140.0
464.197632 580.0
464.756195 124.0
464.7948 76.0
465.16391 256.0
465.20578 456.0
465.268311 188.0
465.314148 124.0
465.395721 84.0
465.498779 104.0
465.541718 40.0
465.57608 60.0
465.78653 88.0
465.942535 168.0
465.999695 104.0
466.188049 132.0
466.204498 100.0
466.222107 236.0
466.456879 72.0
466.495575 152.0
466.706238 104.0
466.925537 92.0
466.968567 100.0
467.07608 96.0
467.228577 164.0
467.381531 60.0
467.446075 100.0
467.609619 116.0
467.674164 116.0
467.734436 60.0
467.941071 84.0
468.065948 200.0
468.177887 164.0
468.388947 56.0
469.332764 76.0
469.522491 44.0
469.557007 60.0
469.656189 108.0
469.755402 80.0
469.9021 100.0
470.031525 48.0
470.64447 112.0
470.834473 112.0
471.283722 140.0
471.620819 56.0
471.806671 64.0
472.001251 144.0
472.105042 60.0
472.15274 116.0
472.182861 160.0
472.420776 108.0
472.749603 76.0
472.914062 132.0
473.100189 60.0
473.147827 80.0
473.202393 152.0
473.273376 96.0
474.291443 44.0
474.382477 160.0
474.495178 124.0
474.564575 196.0
474.963531 32.0
475.167419 168.0
475.354004 120.0
475.544952 172.0
475.610046 100.0
475.992096 48.0
476.170166 164.0
476.233948 140.0
476.413391 116.0
476.548096 164.0
476.743622 140.0
476.950623 184.0
477.152222 116.0
477.195679 88.0
477.360901 124.0
477.608826 80.0
477.930756 48.0
478.139618 180.0
478.322418 60.0
478.509399 156.0
478.525146 148.0
478.740387 120.0
478.997375 232.0
479.152374 112.0
479.184692 108.0
479.315399 92.0
479.352875 100.0
479.528107 84.0
479.633545 116.0
479.733826 32.0
480.148041 140.0
480.376648 136.0
480.715179 56.0
481.234589 148.0
481.273895 80.0
481.435455 240.0
481.570862 160.0
481.96402 188.0
482.130066 144.0
482.217468 136.0
482.479767 68.0
483.026367 144.0
483.378571 80.0
483.420135 76.0
483.658447 232.0
483.97168 172.0
484.081146 44.0
484.111816 128.0
484.17749 144.0
484.343933 48.0
484.931061 80.0
485.075714 140.0
485.465912 160.0
485.558014 144.0
485.65451 96.0
485.869446 92.0
485.926483 76.0
485.970367 112.0
486.23465 68.0
486.483856 128.0
486.841522 200.0
486.883423 172.0
487.059082 156.0
487.327057 48.0
487.397369 104.0
487.458893 160.0
488.140259 52.0
488.214996 180.0
488.377747 100.0
488.44812 68.0
488.562469 188.0
488.861694 80.0
488.940887 108.0
489.090546 76.0
489.192596 416.0
489.530792 164.0
489.654114 148.0
489.887573 56.0
489.975677 120.0
490.182648 160.0
490.210297 168.0
490.275299 100.0
490.583832 108.0
490.661987 208.0
491.007141 108.0
491.195892 224.0
491.267365 60.0
491.324707 104.0
491.399719 68.0
492.198395 120.0
492.830261 128.0
493.113068 152.0
493.144012 52.0
493.201477 268.0
493.678955 88.0
494.285004 232.0
494.435455 100.0
494.501831 80.0
494.550537 148.0
494.931244 140.0
495.16153 68.0
495.5336 172.0
495.839355 144.0
496.100891 64.0
496.783813 144.0
496.943542 80.0
497.143219 92.0
497.227539 80.0
497.302979 44.0
497.63147 76.0
498.093323 120.0
498.422089 120.0
498.688721 56.0
499.06955 60.0
499.111053 100.0
499.373444 60.0
499.404572 116.0
499.524689 164.0
499.818298 148.0
499.893951 92.0
499.945709 140.0
500.21048 68.0
500.792419 84.0
500.864532 72.0
500.909058 44.0
501.145172 120.0
501.590851 144.0
501.938599 88.0
501.978729 92.0
502.210632 64.0
502.380127 116.0
502.464905 48.0
502.549774 164.0
502.607666 92.0
502.687988 144.0
502.763855 112.0
502.830811 48.0
503.040588 52.0
503.286133 116.0
503.469208 192.0
503.594269 108.0
503.97998 128.0
504.049957 144.0
504.125916 76.0
504.411957 72.0
504.514771 156.0
504.62207 104.0
504.778564 48.0
504.872467 76.0
504.951599 144.0
505.002167 104.0
505.042419 160.0
505.215179 156.0
505.337158 100.0
505.36441 136.0
505.469513 168.0
505.55246 204.0
505.635712 292.0
505.686737 64.0
505.771759 60.0
505.810486 148.0
505.889496 224.0
505.931854 92.0
505.983002 280.0
506.036072 112.0
506.079681 168.0
506.119415 128.0
506.181702 156.0
506.260162 152.0
506.340393 140.0
506.409241 224.0
506.471466 112.0
506.600311 180.0
506.660309 224.0
506.693787 112.0
506.733093 148.0
506.763855 232.0
506.776398 104.0
506.794708 276.0
506.843994 156.0
506.936493 316.0
506.974731 140.0
507.005554 296.0
507.047119 568.0
507.093353 188.0
507.204651 117928.0
507.385345 144.0
507.432281 276.0
507.465942 120.0
507.540222 116.0
507.614868 104.0
507.654663 204.0
507.727509 236.0
507.812286 156.0
507.857758 268.0
507.901215 140.0
507.947052 376.0
507.996552 160.0
508.048584 220.0
508.093536 108.0
508.207153 34848.0
508.330322 168.0
508.36261 348.0
508.464691 140.0
508.497833 188.0
508.60791 116.0
508.676147 164.0
508.741974 140.0
508.784149 84.0
508.829895 64.0
508.872864 132.0
508.90451 140.0
508.916931 56.0
508.965515 236.0
509.026764 228.0
509.057556 76.0
509.101013 220.0
509.214355 6632.0
509.31546 128.0
509.360413 76.0
509.411835 88.0
509.596741 116.0
509.668945 76.0
509.709381 60.0
509.740845 64.0
509.799591 92.0
509.837646 104.0
509.864502 116.0
509.934723 84.0
510.022034 156.0
510.160797 300.0
510.221924 2800.0
510.332947 44.0
510.369324 136.0
510.466064 48.0
510.540375 112.0
510.632507 128.0
510.681366 156.0
510.720917 112.0
510.788849 136.0
510.855377 112.0
510.885925 144.0
510.897858 120.0
510.919495 116.0
510.930695 152.0
510.971344 124.0
511.047699 244.0
511.064331 84.0
511.074127 112.0
511.120758 64.0
511.154114 200.0
511.226807 1008.0
511.286987 128.0
511.334045 164.0
511.345917 44.0
511.363403 284.0
511.393341 224.0
511.446106 84.0
511.470551 60.0
511.573761 152.0
511.611908 136.0
511.697449 68.0
511.823517 92.0
511.854706 104.0
511.965637 100.0
512.017151 72.0
512.0802 40.0
512.124695 32.0
512.215881 124.0
512.311646 196.0
512.359497 172.0
512.400024 140.0
512.465942 164.0
512.551025 140.0
512.589294 84.0
512.66333 56.0
512.742493 156.0
512.774048 48.0
512.825867 88.0
512.873169 72.0
512.909241 92.0
512.985901 72.0
513.0625 68.0
513.10968 96.0
513.188782 168.0
513.224854 40.0
513.337585 120.0
513.445801 136.0
513.631042 56.0
513.666809 32.0
513.883362 44.0
513.946533 72.0
513.991394 80.0
514.072876 60.0
514.136047 36.0
514.271423 48.0
514.415894 92.0
514.506165 80.0
514.560364 96.0
514.605469 128.0
514.641602 52.0
514.858337 68.0
514.997253 176.0
515.005371 132.0
515.341675 52.0
515.382385 112.0
515.545044 96.0
515.648987 28.0
515.988037 48.0
516.177917 76.0
516.223145 64.0
516.924316 40.0
517.073608 64.0
517.684814 84.0
517.78894 104.0
518.024475 52.0
518.305359 104.0
518.495728 80.0
518.577271 116.0
518.808472 52.0
518.989807 76.0
519.184814 88.0
519.438782 96.0
519.479614 176.0
519.647461 108.0
519.686401 104.0
519.73822 104.0
519.985779 120.0
520.182983 40.0
520.359863 92.0
520.659729 84.0
520.841431 108.0
521.142944 96.0
521.372986 60.0
521.422974 52.0
521.74115 84.0
521.918518 144.0
521.973083 124.0
522.259583 176.0
522.537048 104.0
522.879333 108.0
523.438293 92.0
523.647766 92.0
524.003052 100.0
524.103333 80.0
524.394958 68.0
524.654785 72.0
524.759644 56.0
524.859985 172.0
524.932922 124.0
525.005859 36.0
525.571533 40.0
525.635376 76.0
525.731262 160.0
526.164856 180.0
527.092041 136.0
527.416504 80.0
527.462219 92.0
527.878296 92.0
528.042908 152.0
528.399719 92.0
528.907654 104.0
529.086182 116.0
529.393005 108.0
529.502869 148.0
529.626587 84.0
529.785217 100.0
529.927368 164.0
530.290955 56.0
530.72998 144.0
530.859375 84.0
531.130005 60.0
532.337036 172.0
532.879028 64.0
533.062866 140.0
533.145569 96.0
533.260437 160.0
533.370789 80.0
533.63739 92.0
533.936279 80.0
534.53894 100.0
534.667786 100.0
535.095886 72.0
535.588623 56.0
535.947937 88.0
536.182983 40.0
536.574768 208.0
536.856079 128.0
537.105103 176.0
539.460144 52.0
541.662781 48.0
541.991699 156.0
543.014282 48.0
543.4198 140.0
544.106689 144.0
544.32959 52.0
544.761475 96.0
544.854431 160.0
545.449219 160.0
545.509644 108.0
545.700256 88.0
545.983948 48.0
546.611938 108.0
546.653809 156.0
546.728271 60.0
547.165833 64.0
547.370667 96.0
547.426575 32.0
547.650085 72.0
547.794495 100.0
549.524109 140.0
549.762085 60.0
550.284851 68.0
550.396912 56.0
551.415344 40.0
551.485413 68.0
551.793945 36.0
552.149353 40.0
552.186768 64.0
552.841736 64.0
553.216125 120.0
553.979492 32.0
555.259094 200.0
555.437317 172.0
555.488892 128.0
555.535828 96.0
555.967468 124.0
557.846252 120.0
558.0672 36.0
558.137756 40.0
558.316406 72.0
558.716248 144.0
559.069153 52.0
559.139709 52.0
560.660889 84.0
560.745728 256.0
561.787781 68.0
562.316284 72.0
562.448425 108.0
562.58844 140.0
562.750549 68.0
563.071655 80.0
563.884277 128.0
564.035522 100.0
564.248291 192.0
564.375916 112.0
564.938721 120.0
565.007812 172.0
567.112183 32.0
567.235413 48.0
568.032043 92.0
569.513 88.0
569.931091 188.0
570.420593 140.0
570.824707 108.0
571.157654 88.0
571.590576 72.0
571.642883 104.0
571.966553 64.0
572.223633 200.0
572.6474 84.0
572.718872 168.0
573.261963 80.0
573.47168 60.0
574.129639 40.0
574.339478 92.0
574.673401 132.0
574.814209 84.0
575.532532 144.0
575.924133 80.0
576.262146 408.0
577.166687 128.0
577.212769 112.0
577.251282 240.0
577.993408 124.0
578.266968 72.0
578.889343 64.0
579.282043 128.0
579.454529 116.0
579.789978 72.0
580.523438 140.0
580.63031 140.0
581.698914 116.0
582.265503 88.0
582.524841 108.0
582.731445 60.0
582.856323 112.0
583.043762 80.0
583.087036 88.0
583.461975 84.0
583.986084 104.0
584.394958 52.0
584.534546 76.0
585.07843 60.0
585.487671 132.0
585.728516 112.0
585.940491 76.0
586.71637 88.0
587.010498 116.0
587.213074 76.0
587.44458 92.0
587.830566 44.0
589.399902 136.0
589.453064 44.0
590.139404 176.0
590.356995 144.0
590.65686 84.0
590.884277 44.0
591.053589 44.0
591.097168 148.0
591.131042 124.0
591.164001 144.0
591.353638 132.0
591.547241 56.0
591.841675 128.0
591.929749 172.0
592.031433 64.0
592.259033 112.0
592.375305 92.0
592.451233 108.0
592.510986 96.0
592.581177 96.0
592.695068 72.0
592.840454 132.0
592.879211 88.0
592.917969 108.0
592.951904 156.0
593.110229 200.0
593.203735 92.0
593.247559 108.0
593.366089 136.0
593.514221 84.0
593.650024 28.0
593.688782 112.0
593.732422 124.0
593.830566 160.0
593.92334 112.0
593.965271 176.0
594.018616 104.0
594.05542 136.0
594.093689 240.0
594.125122 212.0
594.272034 41132.0
594.40155 224.0
594.44635 340.0
594.517212 204.0
594.569153 108.0
594.634827 104.0
594.677429 108.0
594.728455 224.0
594.775574 144.0
594.807617 100.0
594.890076 172.0
595.018311 144.0
595.047913 108.0
595.088562 196.0
595.120789 232.0
595.275757 19624.0
595.466003 124.0
595.525452 156.0
595.573853 48.0
595.685059 176.0
595.722473 56.0
595.77594 84.0
595.809937 48.0
595.872131 60.0
595.924316 96.0
595.977783 116.0
596.041565 92.0
596.134705 128.0
596.277893 3944.0
596.359009 88.0
596.448425 92.0
596.485413 108.0
596.524597 68.0
596.591309 108.0
596.639465 124.0
596.704163 48.0
596.81073 48.0
596.864624 48.0
596.908386 92.0
596.942444 84.0
597.020264 112.0
597.13208 100.0
597.180725 56.0
597.284363 500.0
597.360718 88.0
597.414185 56.0
597.50177 76.0
597.616638 112.0
597.808289 88.0
597.847229 76.0
597.900757 96.0
597.942444 72.0
598.129517 32.0
598.224243 88.0
598.267761 152.0
598.278076 140.0
598.3526 132.0
598.49469 76.0
598.593445 104.0
598.724121 224.0
598.813293 92.0
598.873657 164.0
598.947571 64.0
599.035278 84.0
599.152161 84.0
599.220398 68.0
599.425049 164.0
599.509521 72.0
599.628235 156.0
599.717407 68.0
599.771057 64.0
599.886963 36.0
600.487793 156.0
600.809753 36.0
600.941467 56.0
601.048828 44.0
601.146362 64.0
601.185181 76.0
601.751648 84.0
602.117859 92.0
602.660095 68.0
602.699219 76.0
602.904419 52.0
603.187927 52.0
603.486145 44.0
603.583923 96.0
603.843079 56.0
603.975159 88.0
604.053406 64.0
604.126831 32.0
604.229553 32.0
604.27356 44.0
604.547607 92.0
604.922913 88.0
605.090881 52.0
605.379822 76.0
606.036194 48.0
607.011597 64.0
607.752258 48.0
608.144897 48.0
608.213562 56.0
610.626038 104.0
610.685059 28.0
611.068787 32.0
611.37384 84.0
611.60022 100.0
611.747925 40.0
612.131958 188.0
612.166382 136.0
612.846191 36.0
613.150635 92.0
613.393188 112.0
613.827087 64.0
614.675476 44.0
615.485046 80.0
615.929504 96.0
616.265442 64.0
616.349426 112.0
616.66571 100.0
616.907898 72.0
617.758484 84.0
619.758606 56.0
620.095581 68.0
620.367371 120.0
620.477295 100.0
620.541748 108.0
621.092163 80.0
621.697449 116.0
622.357666 72.0
622.690369 28.0
623.495239 60.0
625.653992 32.0
626.002502 64.0
628.614624 88.0
630.397339 32.0
630.957153 52.0
632.948486 36.0
633.008606 132.0
634.005493 56.0
635.063354 36.0
636.192383 64.0
636.247559 104.0
636.935547 100.0
637.654053 68.0
638.106445 68.0
638.735046 80.0
638.875916 164.0
640.250061 88.0
642.921936 116.0
644.724854 112.0
645.892761 120.0
646.292419 64.0
646.96051 88.0
648.723389 84.0
649.08844 68.0
649.200012 48.0
650.18927 48.0
654.708801 108.0
655.549377 60.0
657.221863 92.0
657.298401 84.0
658.993591 76.0
659.141785 56.0
659.504639 80.0
660.38916 92.0
661.197571 56.0
662.267578 72.0
662.795288 44.0
664.779724 80.0
665.195435 68.0
665.842407 68.0
666.145447 68.0
667.713135 56.0
669.375366 88.0
670.415894 76.0
670.94165 48.0
671.426392 120.0
671.539856 96.0
671.668762 128.0
672.933105 76.0
676.003479 96.0
676.546936 84.0
676.686707 48.0
677.194214 36.0
678.111267 48.0
678.173462 100.0
680.051025 64.0
680.243042 68.0
682.118286 116.0
683.304016 72.0
683.397644 88.0
685.41272 84.0
686.079834 88.0
686.843872 108.0
691.700745 88.0
694.9552 80.0
696.834839 80.0
696.955627 76.0
698.538147 60.0
699.337952 104.0
699.390564 104.0
699.685364 88.0
701.149658 112.0
701.692627 152.0
703.333252 56.0
703.475769 104.0
704.125183 52.0
704.236145 84.0
707.811096 48.0
707.98053 96.0
709.697449 40.0
712.12793 88.0
712.999207 68.0
713.11084 48.0
714.29657 60.0
714.775391 76.0
716.298035 40.0
717.998291 72.0
721.388794 64.0
721.864624 76.0
722.961243 108.0
723.00946 80.0
723.607422 28.0
724.364014 120.0
724.428345 116.0
725.500122 52.0
725.655579 44.0
728.454041 44.0
728.580505 56.0
729.074829 76.0
730.472778 76.0
731.392456 140.0
731.931274 28.0
732.572205 96.0
733.261902 48.0
733.720032 112.0
734.723145 84.0
736.790833 120.0
738.634216 60.0
738.877686 56.0
739.32135 68.0
739.424194 96.0
740.290344 84.0
744.819031 84.0
745.259033 44.0
745.753601 40.0
746.634338 108.0
747.363281 44.0
747.755066 96.0
747.847595 68.0
748.424683 60.0
748.833069 52.0
749.241638 32.0
751.460571 52.0
751.722473 40.0
752.180908 68.0
752.246399 72.0
754.786926 52.0
754.923584 80.0
755.700317 28.0
756.045044 68.0
756.170959 40.0
756.433655 84.0
756.652649 100.0
759.271851 68.0
760.352661 64.0
761.351807 72.0
765.679932 36.0
766.427917 92.0
766.467712 92.0
766.721191 40.0
767.305481 44.0
768.220947 108.0
773.426208 76.0
774.201355 80.0
774.312134 52.0
774.58905 44.0
775.420166 88.0
776.218445 168.0
777.955017 112.0
778.482483 128.0
782.513794 40.0
784.775818 60.0
788.219727 104.0
790.641113 36.0
791.172852 64.0
792.556213 104.0
792.78595 108.0
793.716492 92.0
795.06842 100.0
798.14679 80.0
799.136719 136.0
800.14978 52.0
801.146606 132.0
802.44281 32.0
802.769836 156.0
804.152039 88.0
805.733154 64.0
806.190796 52.0
807.400635 76.0
807.638184 36.0
807.700378 32.0
812.572266 36.0
813.996887 92.0
816.269836 132.0
818.693115 120.0
819.371887 52.0
821.800659 36.0
822.080261 96.0
822.182983 140.0
825.096069 156.0
826.640381 108.0
829.807922 120.0
829.876709 52.0
831.023804 112.0
833.866333 44.0
835.11969 92.0
835.562622 92.0
836.592773 116.0
836.955505 84.0
839.761963 92.0
840.615784 64.0
841.493103 92.0
841.845337 48.0
842.209167 112.0
843.682739 88.0
844.411316 72.0
845.400574 96.0
846.564148 32.0
846.639404 176.0
847.068054 104.0
847.6474 100.0
848.429871 88.0
850.901306 76.0
850.966064 108.0
851.371643 80.0
851.741028 112.0
851.842102 116.0
853.550781 92.0
854.586121 52.0
856.099548 32.0
859.807251 132.0
859.947327 88.0
863.195496 76.0
865.72345 116.0
868.542542 20.0
873.388367 40.0
878.135681 224.0
879.16217 100.0
879.227112 132.0
879.445496 36.0
881.406128 52.0
883.345337 48.0
883.978394 64.0
885.499817 56.0
886.222534 44.0
886.862549 92.0
887.692566 172.0
890.122253 88.0
890.547119 48.0
891.408569 48.0
894.858398 100.0
896.967285 44.0
897.497925 72.0
899.048828 44.0
899.926331 48.0
902.184631 60.0
903.88916 64.0
907.524963 48.0
909.396606 68.0
909.576721 104.0
910.939819 40.0
913.109619 72.0
913.284058 68.0
914.150391 52.0
916.312012 180.0
916.763916 60.0
918.651062 120.0
919.242371 72.0
922.026306 76.0
923.241455 88.0
923.562012 92.0
925.347168 152.0
925.964844 48.0
928.995483 28.0
930.451965 44.0
930.913452 48.0
932.027649 132.0
932.201233 140.0
936.398926 104.0
939.410034 168.0
940.471741 104.0
942.33429 88.0
945.085632 64.0
945.159058 128.0
945.342651 44.0
946.597534 60.0
946.750671 36.0
947.8349 56.0
948.141296 48.0
948.631653 40.0
949.674072 56.0
950.925659 124.0
952.227295 48.0
952.331665 48.0
952.55896 100.0
953.646545 76.0
957.28241 80.0
958.415833 100.0
958.483582 84.0
959.42041 56.0
961.468262 88.0
962.653503 136.0
962.889465 212.0
963.555298 128.0
964.463684 184.0
964.64917 188.0
964.729492 40.0
966.077637 72.0
966.60968 112.0
966.826294 40.0
969.606934 112.0
973.012329 36.0
974.484314 40.0
975.143005 40.0
975.198914 72.0
975.640259 100.0
977.288391 56.0
977.394165 68.0
977.649292 136.0
978.022705 100.0
981.212158 96.0
984.200745 120.0
984.906433 224.0
989.615417 132.0
992.17157 120.0
994.969604 188.0
997.0047 104.0
998.953796 92.0
999.180298 84.0
1001.339355 124.0
1002.240173 44.0
1002.681335 148.0
1003.299011 68.0
1003.96106 52.0
1004.194397 48.0
1005.147034 224.0
1011.840454 32.0
1012.771301 40.0
1013.012024 148.0
1013.601196 48.0
1015.306458 144.0
1017.990845 228.0
1021.537354 96.0
1021.823608 76.0
1023.070984 116.0
1026.935059 140.0
1027.340698 92.0
1032.680664 128.0
1035.887451 100.0
1036.951172 76.0
1037.617798 72.0
1040.928589 120.0
1042.675903 60.0
1043.942383 80.0
1045.132324 224.0
1045.402588 112.0
1046.419556 84.0
1046.464722 64.0
1046.696533 52.0
1047.38562 52.0
1048.242432 180.0
1057.360962 108.0
1058.163574 132.0
1061.11145 44.0
1061.947998 120.0
1062.713379 180.0
1063.77124 48.0
1064.310181 112.0
1066.336914 52.0
1068.359131 48.0
1068.593384 40.0
1071.171387 104.0
1072.291992 60.0
1073.126465 44.0
1073.608887 88.0
1073.85022 96.0
1077.453491 88.0
1078.583984 44.0
1079.048096 112.0
1080.9646 92.0
1083.845703 68.0
1084.769775 44.0
1089.435547 144.0
1091.380859 76.0
1091.611084 152.0
1098.480347 84.0
1098.849854 140.0
1099.90918 44.0
1100.97522 64.0
1102.184082 40.0
1103.552368 120.0
1104.445068 156.0
1110.883545 72.0
1112.144287 176.0
1112.974121 152.0
1114.515137 132.0
1115.764648 192.0
1116.063843 108.0
1117.380737 180.0
1118.605225 60.0
1119.397461 44.0
1121.142822 184.0
1121.755981 44.0
1123.106812 124.0
1123.563232 172.0
1125.058105 212.0
1125.124878 68.0
1125.9729 92.0
1128.28479 168.0
1130.866821 76.0
1131.48938 76.0
1132.868896 68.0
1133.029785 136.0
1134.175659 72.0
1136.254395 164.0
1136.489258 72.0
1137.066406 172.0
1138.375488 160.0
1138.57019 48.0
1140.182495 88.0
1144.689697 188.0
1144.851318 172.0
1146.441162 184.0
1147.600586 204.0
1148.524414 116.0
1148.706543 72.0
1149.381226 60.0
1150.548828 84.0
1155.441772 108.0
1155.807129 168.0
1159.592651 76.0
1162.0271 164.0
1162.440918 92.0
1163.750977 156.0
1163.988647 144.0
1164.273804 144.0
1166.380005 56.0
1167.12793 168.0
1168.126587 52.0
1168.494995 48.0
1169.924072 56.0
1170.080688 48.0
1172.832764 68.0
1172.941895 64.0
1173.630371 184.0
1175.676758 48.0
1176.88501 204.0
1180.957886 88.0
1184.161011 80.0
1185.078979 132.0
1185.613403 60.0
1185.723145 172.0
1186.127441 56.0
1186.408569 160.0
1186.689575 140.0
1186.819946 180.0
1189.742554 148.0
1190.147705 172.0
1191.438843 144.0
1191.995361 228.0
1194.504761 64.0
1195.172119 28.0
1197.003052 104.0
1197.303223 48.0
1198.663208 72.0
1200.731323 236.0
1201.890259 104.0
1202.290405 100.0
1202.647461 160.0
1204.382324 112.0
1206.213501 128.0
1209.319092 56.0
1210.544434 92.0
1211.089966 168.0
1211.195557 172.0
1216.78479 60.0
1217.756958 132.0
1218.118164 176.0
1218.61145 100.0
1219.012817 220.0
1219.639893 176.0
1221.137329 152.0
1222.275635 104.0
1222.686157 36.0
1224.78186 184.0
1224.886353 216.0
1225.001099 172.0
1227.276733 148.0
1227.37439 64.0
1227.869507 176.0
1227.960205 184.0
1229.802124 144.0
1231.729248 64.0
1235.077393 152.0
1235.776978 140.0
1236.588623 160.0
1236.749634 52.0
1236.966675 84.0
1237.239624 100.0
1237.470703 52.0
1237.869751 88.0
1238.226929 84.0
1238.878296 140.0
1242.151978 56.0
1242.362427 84.0
1243.527222 112.0
1243.702759 152.0
1245.008545 88.0
1245.724976 40.0
1247.84729 168.0
1251.555298 216.0
1251.787598 148.0
1253.478149 196.0
1255.064209 64.0
1255.875122 132.0
1257.060425 104.0
1257.116821 124.0
1259.248901 108.0
1260.456909 116.0
1260.682983 160.0
1262.775635 128.0
1263.129272 136.0
1264.119751 84.0
1265.613281 104.0
1265.783203 140.0
1270.730591 176.0
1271.880249 164.0
1272.810303 152.0
1273.470703 136.0
1275.069214 232.0
1275.957764 40.0
1277.849609 64.0
1278.781738 40.0
1278.90271 168.0
1279.578857 168.0
1280.333862 68.0
1280.846558 64.0
1281.55896 180.0
1282.057861 152.0
1284.196655 140.0
1284.867188 144.0
1284.988403 152.0
1285.223877 100.0
1286.015991 132.0
1286.437134 144.0
1287.043945 108.0
1289.172607 104.0
1290.216187 144.0
1290.309082 128.0
1290.902588 180.0
1291.596313 140.0
1292.876953 148.0
1293.671509 48.0
1293.972168 100.0
1295.583496 100.0
1296.385986 160.0
1298.823608 240.0
1302.462769 140.0
1303.253052 152.0
1304.776733 136.0
1304.834229 88.0
1306.207764 140.0
1307.697144 208.0
1308.251343 108.0
1309.900391 172.0
1310.721802 188.0
1310.954224 160.0
1311.910889 124.0
1312.213745 76.0
1312.35791 176.0
1313.223267 196.0
1315.026978 156.0
1316.377075 72.0
1316.60083 216.0
1318.565918 188.0
1319.35376 192.0
1322.768188 152.0
1323.057739 68.0
1323.738403 176.0
1327.492065 144.0
1327.755127 244.0
1328.768555 76.0
1328.877441 92.0
1329.1875 152.0
1329.704712 132.0
1330.198242 220.0
1330.270874 156.0
1331.371826 148.0
1331.940918 68.0
1333.18335 272.0
1334.768066 144.0
1335.255249 108.0
1335.415283 152.0
1336.149902 136.0
1337.809204 180.0
1339.229126 152.0
1339.447632 184.0
1340.955811 152.0
1341.67749 44.0
1342.669067 80.0
1343.296387 64.0
1343.376587 172.0
1347.727905 136.0
1349.723267 124.0
1350.981201 176.0
1351.707275 176.0
1352.473999 136.0
1352.627686 236.0
1353.916382 128.0
1354.348389 100.0
1354.641479 160.0
1355.586548 72.0
1359.142944 164.0
1359.194214 152.0
1362.505493 212.0
1362.733276 188.0
1362.814087 92.0
1363.563721 184.0
1364.776611 144.0
1364.923584 160.0
1365.107422 176.0
1365.158936 108.0
1366.012085 148.0
1366.821411 96.0
1367.763428 156.0
1369.515869 184.0
1370.289307 120.0
1373.422241 232.0
1374.993774 64.0
1375.22998 148.0
1375.45874 52.0
1378.457275 144.0
1380.031616 112.0
1380.164795 116.0
1380.356934 132.0
1381.503418 136.0
1382.139648 124.0
1382.53186 72.0
1382.607544 84.0
1383.797607 144.0
1383.849365 124.0
1383.97522 176.0
1384.078979 68.0
1385.071289 160.0
1385.412109 212.0
1386.004761 68.0
1386.464233 128.0
1387.635376 48.0
1390.342773 164.0
1391.901733 184.0
1392.057617 168.0
1392.139282 132.0
1393.097412 60.0
1393.52832 124.0
1394.4646 148.0
1394.546387 188.0
1394.598389 176.0
1394.776733 32.0
1394.925415 180.0
1395.074097 160.0
1396.189453 176.0
1396.248901 188.0
1397.178711 76.0
1400.245483 48.0
1400.625244 104.0
1403.449707 140.0
1404.113403 72.0
1404.650391 184.0
1405.92627 204.0
1405.985962 168.0
1406.42627 64.0
1407.277344 136.0
1407.575928 160.0
1409.368652 120.0
1409.817017 196.0
1411.095215 204.0
1411.439087 84.0
1413.36145 160.0
1414.027466 228.0
1414.484009 156.0
1414.738525 132.0
1415.142822 140.0
1418.101807 164.0
1418.851318 40.0
1421.739136 68.0
1422.3396 148.0
1422.752441 156.0
1423.09021 80.0
1423.751099 176.0
1424.366943 112.0
1425.005493 60.0
1426.320557 176.0
1427.03479 124.0
1427.440796 72.0
1427.598633 180.0
1427.891968 176.0
1428.215332 144.0
1429.614746 228.0
1430.344849 80.0
1430.435181 184.0
1431.865723 168.0
1432.308594 104.0
1434.781738 48.0
1435.415161 236.0
1436.063721 64.0
1436.320068 160.0
1436.636963 76.0
1437.474365 176.0
1438.66687 64.0
1440.834351 236.0
1441.650391 140.0
1443.63855 124.0
1443.797363 224.0
1444.031738 120.0
1445.582642 152.0
1446.960205 184.0
1448.202026 216.0
1448.361084 160.0
1448.489868 240.0
1449.399048 188.0
1449.527832 180.0
1449.853638 128.0
1452.044678 80.0
1452.408691 148.0
1453.2948 188.0
1455.095093 132.0
1456.10498 172.0
1456.568237 168.0
1459.486572 80.0
1459.866821 172.0
1460.154907 168.0
1460.779419 196.0
1461.700073 180.0
1462.066162 184.0
1462.674194 108.0
1463.077637 152.0
1463.747681 176.0
1464.834717 212.0
1464.912964 196.0
1465.354736 100.0
1465.526367 148.0
1465.849976 96.0
1466.452026 72.0
1467.458252 284.0
1468.319946 96.0
1468.518311 184.0
1469.670166 164.0
1469.769409 180.0
1470.433228 156.0
1470.708008 108.0
1470.990479 156.0
1471.387451 72.0
1471.495239 156.0
1471.868408 228.0
1472.402954 128.0
1472.502197 84.0
1474.364746 244.0
1474.954834 160.0
1475.069458 192.0
1475.22998 132.0
1475.74231 68.0
1475.833984 168.0
1477.279419 144.0
1477.493652 124.0
1477.608398 140.0
1478.396484 128.0
1478.5802 132.0
1479.598267 116.0
1480.463501 112.0
1481.236938 144.0
1481.436157 116.0
1482.784668 148.0
1483.052979 96.0
1483.313599 64.0
1483.566528 112.0
1484.22583 172.0
1484.547974 112.0
1484.686035 184.0
1484.762695 64.0
1485.100098 148.0
1485.790527 124.0
1486.774048 220.0
1487.294556 100.0
1487.501831 148.0
1487.977783 100.0
1488.161987 40.0
1488.338623 168.0
1488.622681 124.0
1489.275513 152.0
1489.48291 56.0
1492.856812 128.0
1493.156738 200.0
1493.218262 132.0
1493.725952 164.0
1494.041382 124.0
1494.756836 48.0
1495.418701 128.0
1496.026733 132.0
1496.273193 120.0
1496.611938 136.0
1497.536011 188.0
1497.728516 192.0
1498.098267 160.0
1498.213867 176.0
1499.761719 124.0
1500.078735 84.0
1500.34082 44.0
1501.24292 176.0
1501.497437 84.0
1502.507935 152.0
1502.685303 44.0
1503.078857 140.0
1503.935425 100.0
1504.205566 92.0
