>compound Dexamethazone
>formula C22H29FO5 
>ionization [M+H]+
>parentmass 393.207703
#inchi InChI=1S/C22H29FO5/c1-12-8-16-15-5-4-13-9-14(25)6-7-19(13,2)21(15,23)17(26)10-20(16,3)22(12,28)18(27)11-24/h6-7,9,12,15-17,24,26,28H,4-5,8,10-11H2,1-3H3/t12-,15+,16+,17+,19+,20+,21+,22+/m1/s1
#inchikey UREBDLICKHMUKA
#Ion_Source LC-ESI
#Instrument qTof
#Compound_Source Isolated
#PI Sirenas
#Data_Collector Ed Esquenazi 
#Scan -1
#Precursor_MZ 393.209
#ExactMass 0.0
#Charge 1
#CAS_Number N/A
#Pubmed_ID N/A
#Smiles N/A
#INCHI_AUX N/A
#Library_Class 3
#SpectrumID CCMSLIB00000004677
#IonMode Positive
#UpdateWorkflowName UPDATE-SINGLE-ANNOTATED-BRONZE
#LibraryQualityString Bronze
#TaskID d19310cd93df49b68e9fcbec27720eb5
##Scan# 4
#SpectrumFile Dexamethazone.mgf
#LibraryName fda_library.mgf
#MQScore -1
#Organism fda_library
#TIC_Query 0
#RT_Query -1
#MZErrorPPM -1
#SharedPeaks 0
#MassDiff 0
#LibMZ -1
#SpecMZ 393.209
#SpecCharge 0
#internalFilename spec-00000.mgf

>collision 10
100.384636 5.8
101.060394 123.718903
103.038025 67.062683
105.072403 91.574173
105.092384 5.013889
107.085365 374.48999
107.130936 3.675
107.494965 9.32545
108.231987 2.003788
109.064529 176.382599
109.099777 114.533897
111.078957 103.385002
111.097763 41.42852
111.73436 11.62681
113.059364 52.493549
113.195297 6.853395
113.479156 4.148809
113.642952 10.58333
114.950943 3.291667
115.075775 837.744385
115.120857 5.573412
115.131912 7.342949
115.169289 6.564103
115.22525 7.721847
115.359726 4.408333
115.791267 16.68174
116.016998 3.854167
118.515968 9.706699
119.047508 22.435419
119.085258 282.268799
119.354675 2.416667
119.426659 4.71627
119.533203 16.093439
119.575378 8.818548
119.749039 4.041667
121.065086 402.499512
121.100388 152.6884
121.147438 2.0
121.515823 4.680556
122.452293 12.21429
123.040985 40.160019
123.077126 84.826393
123.112022 12.68003
123.45446 4.266667
125.059624 168.9487
125.095253 158.857697
125.120392 2.013889
125.326103 19.52083
129.096405 6.678764
130.543396 4.408333
131.032761 12.68003
131.085434 87.113472
132.054916 45.050919
133.063629 119.201302
133.101379 184.804596
133.352646 8.136261
133.80806 10.82843
134.528992 7.481667
135.079132 355.561005
135.117676 34.53933
135.223114 19.00798
135.231842 6.371212
135.372955 7.029762
135.514664 9.035714
135.603775 12.0
135.639648 10.74167
137.059341 98.344757
137.09494 143.364807
137.201202 16.75
137.267792 7.125
137.608063 2.016667
139.074112 70.490936
141.052475 38.65181
141.089233 101.721001
141.123138 5.190476
141.152618 2.053571
141.242599 3.375
145.065109 51.741669
145.09964 162.451904
145.337173 5.097222
145.370728 12.21333
145.492523 18.99099
146.215042 9.537499
146.349686 10.47704
146.380249 13.34921
146.579208 2.14881
146.590042 5.080128
146.821426 2.00463
147.079803 2284.349121
147.129257 8.402451
147.137482 12.84314
147.212128 5.054487
147.235764 41.530392
147.342758 10.38782
147.386826 6.338542
147.441849 18.181669
147.475525 11.00119
147.486908 9.113095
147.509491 8.112374
147.534698 2.695513
147.546051 3.148809
148.152267 4.675926
148.203995 4.069444
148.546341 4.408333
149.05629 25.990511
149.095123 692.668518
149.132385 5.171297
149.353043 3.736111
149.366821 3.375
149.424927 2.816667
149.467422 10.1875
149.761261 3.458333
150.444214 4.00463
150.842209 12.14405
151.074341 206.449799
151.112915 256.645691
151.153046 2.694444
151.241379 11.41026
151.460739 6.146739
152.288147 9.391666
153.089905 491.171112
153.122452 2.341667
154.372711 10.27222
155.009232 4.814815
155.066742 119.857597
156.094864 11.48761
157.103928 7.748333
158.164047 14.58333
158.492859 13.16026
158.509949 2.375
159.081924 296.414093
159.11618 93.466187
159.133835 13.19813
159.186325 2.625
161.018845 6.533333
161.058823 62.946812
161.096848 744.86377
161.169983 4.711957
161.247543 23.44858
161.62793 6.59375
161.73642 26.81481
162.317978 3.34375
162.637253 5.666667
162.681351 5.736111
163.070602 41.360661
163.113297 37.288021
164.541672 2.020833
165.06871 35.334679
165.087006 26.20833
165.628403 15.41667
166.098892 9.857142
166.335999 14.4692
167.069138 28.65497
167.087555 29.63377
167.105438 172.693604
167.652084 4.888889
168.676392 5.857143
169.078247 65.147217
169.117661 60.24979
169.285568 13.70833
170.021713 14.49709
170.148941 11.92628
170.257858 3.333333
170.312347 6.001344
170.398621 4.0
171.079773 1111.027954
171.138367 2.854167
171.150635 33.196381
171.193604 21.45026
171.271652 8.066667
171.33847 3.266667
171.394348 12.13021
171.453812 15.21185
171.494812 3.003788
171.506027 14.87907
171.52829 1.6875
172.041946 8.070402
172.115082 11.85698
173.095581 847.10321
173.170837 1.694445
173.198334 7.058333
173.45517 22.619499
173.48497 7.266666
173.552597 2.208333
173.803497 4.898148
175.058212 24.057199
175.071869 18.127451
175.108795 158.731903
175.120743 2.375
176.030121 13.01449
176.177795 26.337641
176.805389 8.3
177.08989 654.246216
177.135147 2.027778
177.162766 1.666667
177.207123 7.84375
177.376495 6.740942
177.408264 12.08265
177.417679 20.79509
177.470825 7.416667
177.658585 8.560185
178.880234 8.696428
179.10762 108.588402
180.363007 11.85698
180.644287 8.595239
181.098526 33.615059
181.118942 30.005951
182.076172 25.13636
182.381531 3.490385
183.078873 106.821899
183.117661 17.551279
183.156372 10.98732
183.393692 7.363095
184.143875 11.7619
184.738846 15.02042
185.060165 98.260139
185.09523 951.951477
185.301971 22.43791
185.320908 9.367424
185.363541 9.117248
185.538834 2.722222
186.284195 4.225
186.449768 8.523648
186.66394 15.93311
187.075058 344.649109
187.109634 462.263611
187.205872 15.73035
187.339233 23.43214
187.377228 4.666667
187.462967 8.136261
187.849655 22.29365
188.459793 14.72803
189.090912 36.67514
189.114883 3.490385
189.186417 3.675926
190.092377 18.0947
191.082352 18.8151
191.10498 150.447601
191.144485 56.517109
191.408447 12.08681
193.084641 79.441818
193.333618 13.06618
194.095596 41.83041
195.101212 573.111084
195.169113 6.201666
195.206757 3.266667
195.239319 11.53846
195.283066 5.001544
195.302505 4.017857
195.501923 8.001985
195.701828 9.703704
195.730713 8.669118
196.188354 10.12297
196.474915 2.111111
197.095169 312.173401
197.114288 102.0895
197.267059 21.10833
197.530411 6.678572
197.550598 10.5307
198.392151 4.120098
199.078049 58.658779
199.110733 81.760384
201.08728 52.319901
201.127975 141.929596
203.107437 46.08033
204.087814 43.921139
205.099136 42.519371
207.076859 55.594269
209.096924 143.779907
209.127579 15.66768
209.299286 6.371212
210.144318 13.80449
210.392639 17.41379
211.073242 33.376789
211.110916 675.555786
211.150116 7.025
211.170044 2.0
211.190262 1.666667
211.203934 10.49722
211.411179 14.89851
211.539246 9.668103
211.589905 25.66865
211.769104 7.757576
211.858582 14.38333
211.923737 21.46759
213.090652 192.602402
213.127441 306.349213
213.222534 9.688597
213.278336 6.352941
213.562958 8.240196
213.669662 4.362179
213.72554 8.866667
214.209091 7.022223
214.565628 5.061275
215.107315 209.292404
215.141449 93.375221
215.49411 13.39286
216.772736 5.415
217.12793 30.98333
217.40834 4.0
219.109741 137.017807
219.152634 4.387821
219.2314 7.757576
220.125275 25.75
220.285034 14.12927
221.095703 281.232697
221.130081 69.224083
221.356598 5.041667
221.662247 8.680555
222.173874 9.34543
223.030334 8.920045
223.078094 57.21769
223.111771 339.751892
223.380203 3.35
223.890976 8.375
224.115753 191.311493
224.725433 25.836769
225.089417 57.360039
225.127792 584.872314
225.193481 4.306818
225.310577 14.82996
225.358871 13.54167
225.390045 8.009147
225.604233 4.083333
225.661728 6.840517
225.834213 8.789634
226.634476 10.53333
227.106888 90.522324
227.14476 226.459793
227.20079 5.444445
227.347626 4.666667
229.08255 27.09375
229.157715 43.158192
229.794128 26.0947
230.009598 9.058333
231.088089 16.885611
231.103897 40.282539
233.113998 39.114159
233.728348 4.8
233.845367 13.00708
233.966675 5.891666
234.096863 39.259571
234.654694 2.816667
235.111572 549.284424
235.168564 6.815476
235.187881 1.720238
235.203964 5.801667
235.385406 16.436781
235.412048 6.349638
235.470764 9.171748
235.486877 13.40333
235.636276 6.380208
235.786041 16.671881
235.816223 3.148809
235.892715 10.7451
235.931686 9.268333
235.983521 11.68709
236.507935 14.44138
236.839447 13.61458
237.075882 49.821671
237.12738 3192.089111
237.186966 10.5943
237.208939 3.669872
237.23558 8.711957
237.255417 11.86417
237.320572 28.472219
237.338638 8.888888
237.391556 31.374269
237.423767 54.48637
237.445877 10.10185
237.547165 9.340278
237.655197 7.523551
237.678436 13.735
237.797928 3.053571
237.852478 9.625417
237.905991 3.002778
237.938187 6.351191
237.986984 3.857143
238.167038 9.803031
238.221924 9.133333
238.561127 9.371913
238.614838 4.120098
238.684692 19.933001
239.104279 99.141243
239.142273 1002.262024
239.33432 4.222222
239.362381 8.770833
239.455582 24.41692
239.510406 3.25
239.539764 16.477039
239.581314 15.29688
239.631638 6.564103
239.66423 3.047619
239.701706 21.95927
239.730011 5.787037
239.858444 12.37306
239.998428 20.36694
240.024857 3.342592
240.113983 40.69355
240.678833 10.45581
241.083618 22.901751
241.12204 442.711212
241.155624 205.376205
241.282883 11.08308
241.401215 14.00379
241.763687 7.037037
242.086075 14.62745
243.09903 35.204288
243.135696 95.18528
243.703888 7.342949
243.981125 31.103849
244.109421 14.375
244.709641 10.28004
245.952011 5.688889
246.44371 12.61232
247.105103 63.530201
247.291458 7.481667
248.539841 42.93581
249.125351 200.8013
251.105591 117.014099
251.14357 317.097595
251.470352 30.3435
251.560226 8.980769
251.77478 11.53846
251.907288 5.742284
251.990128 8.348333
252.497635 9.714286
253.12265 579.33313
253.155182 280.508789
253.184708 3.354167
253.204514 3.028846
253.243423 10.00113
253.29483 14.37745
253.31694 12.67361
253.672119 7.00463
253.768723 15.95833
254.657379 11.11111
254.825607 11.04545
254.99765 12.79594
255.097748 13.23611
255.138214 590.939087
255.242218 15.33422
255.281143 3.002778
255.408997 9.920635
255.426849 10.46354
255.659912 7.362179
257.125702 57.037498
258.132996 47.482601
259.109467 27.679291
259.148132 24.242849
261.125488 257.542297
261.34201 5.041667
261.370117 10.7067
261.55014 7.742284
261.571381 6.741667
262.768005 15.83333
263.10434 20.040119
263.142517 218.478806
263.201385 6.25
263.317993 6.866667
263.472198 4.345238
264.028473 11.13038
264.105377 18.428459
265.126617 31.42288
265.157867 200.302094
265.214325 2.666667
265.32196 13.32237
265.470825 43.679131
265.533997 21.46731
266.002411 5.346264
266.229401 15.42979
266.581451 8.674319
266.621216 2.700758
266.655304 7.383333
267.138702 853.883484
267.174042 728.760986
267.32605 9.416667
267.471893 15.2619
267.599213 8.962963
267.633484 4.166667
267.818634 26.48266
267.877197 34.363708
268.219849 3.345238
268.9151 3.42803
269.118713 19.1859
269.151093 32.965279
269.194336 50.592949
269.543304 3.336538
269.77182 8.341666
270.023285 3.342592
271.133453 5.454545
271.208008 30.07122
271.50592 3.00463
272.1138 6.388158
273.15033 157.322006
273.216858 10.00119
273.693817 14.89532
273.722443 11.82996
273.979431 4.166667
274.136261 17.18667
274.437897 13.72685
274.720123 11.88095
275.142731 857.971985
275.290894 5.678764
275.349731 2.680556
275.487183 4.340278
275.758331 7.763889
275.960876 3.695513
276.262329 23.8179
276.487732 15.24038
276.608521 14.13807
277.119476 246.382996
277.159485 1548.687012
277.289642 23.827101
277.367004 10.05128
277.391998 10.54688
277.406677 4.708333
277.430756 2.4
277.453918 12.68374
277.476746 15.16376
277.506073 9.745155
277.600922 29.89122
277.685852 8.341666
278.062775 17.00379
278.097168 17.967899
278.225159 1.666667
278.737915 10.19022
278.823181 8.680555
279.107666 10.67424
279.138153 191.761398
279.17392 2753.893066
279.247803 21.082701
279.319 6.708333
279.365204 15.78513
279.404999 5.367424
279.434082 15.05256
279.463135 12.28409
279.538147 30.67411
279.552826 19.96892
279.685303 17.256411
279.717041 8.095239
279.828857 45.764851
279.850616 20.48016
280.003662 15.42708
281.037292 6.25926
281.155884 162.850693
281.19162 311.909088
281.408356 5.121212
281.54892 11.93895
281.821564 6.676802
282.021362 6.454545
282.07019 7.94697
282.476318 7.371212
283.140778 69.840569
283.166443 73.437157
283.194061 5.083333
283.887085 7.668651
285.179352 15.72043
286.134247 126.827904
286.301392 20.51894
286.696991 5.391026
286.724152 5.266667
286.903168 8.039474
287.516083 11.84314
287.540009 3.802778
288.415863 17.82716
289.15744 734.280518
289.305267 11.51894
289.398956 11.25962
289.444336 12.43056
289.522552 14.12927
289.695374 19.440599
289.708984 7.783046
289.809662 8.672619
290.348877 3.003205
290.642365 5.75
291.07251 18.037041
291.102203 16.691669
291.138611 143.698303
291.174072 2458.208984
291.252869 18.17407
291.306213 8.222222
291.340454 23.15369
291.417938 16.65333
291.440765 28.880951
291.458435 11.75516
291.487946 12.14405
291.544556 9.208333
291.689911 12.08333
291.807831 17.025
291.87323 19.10244
291.904083 5.741667
292.112061 12.78963
292.272675 6.732527
293.15213 225.797699
293.197754 51.13625
293.535248 18.24324
293.558746 1.672619
293.606445 5.668478
294.567261 4.388889
295.13269 247.922897
295.167572 909.874207
295.248016 2.670455
295.2966 13.85417
295.426727 6.714285
295.468262 8.09375
295.502136 2.25
296.379242 14.82469
296.473785 8.272727
297.145691 177.099899
297.184967 768.206482
297.406464 37.791431
297.508026 13.16346
297.542908 4.041667
297.854065 7.001344
297.939545 11.00694
298.046967 7.708333
298.112274 6.690476
298.59491 2.520833
299.598633 14.11458
299.764557 16.27273
299.832642 5.005952
300.188171 13.1974
300.882111 7.003788
301.159454 1020.328979
301.226624 7.049812
301.274109 3.0
301.304321 12.72115
301.453125 11.87302
301.564026 13.34848
301.725586 30.54689
301.854126 7.893817
301.967407 9.231482
302.017273 4.025
302.125702 26.486401
302.658905 21.76042
304.139954 22.752689
305.272644 5.333333
305.417755 7.639493
305.535339 22.272591
305.576324 5.666667
306.160797 25.00231
306.203339 3.0
306.550415 12.74383
307.062286 27.3582
307.171143 1430.400024
307.263916 33.775002
307.306183 1.666667
307.363251 19.219299
307.391571 11.05357
307.433899 13.39919
307.505615 20.534981
307.580688 16.433331
307.644287 10.54688
307.835114 13.40271
308.209412 8.396825
308.539307 10.38462
308.973328 6.742284
309.14032 47.653252
309.185486 3306.87207
309.256348 19.69235
309.316742 45.5313
309.364807 5.742284
309.38623 6.333333
309.41922 36.09528
309.437836 7.160715
309.468842 5.678764
309.487213 3.686404
309.579041 32.916409
309.676971 12.99769
309.701996 9.291667
309.967987 18.151711
310.056702 26.45606
310.387512 8.049797
310.53421 6.633772
311.161987 108.4412
311.350708 10.41667
311.393494 9.117248
311.52478 5.510417
312.142914 13.34615
312.275085 3.0
313.143921 39.44817
313.183136 72.134064
313.434967 5.335318
313.52121 7.372807
313.736847 10.07018
315.182434 112.348602
315.605072 9.339286
316.082794 9.852273
317.085571 9.527778
317.166595 8.081897
317.222626 13.85417
317.382965 3.080128
317.40802 30.94626
317.451172 12.08681
317.490082 8.680555
317.531738 12.0
317.607483 21.191441
317.761505 10.8375
318.016724 7.410257
318.166168 6.160088
318.201233 48.117512
318.634308 6.041667
319.015076 4.349638
319.114502 13.66733
319.168945 4234.628906
319.250305 27.17231
319.273193 13.9623
319.306152 1.777778
319.338257 6.840517
319.356903 6.783046
319.450165 13.03571
319.47226 11.46558
319.521973 61.572681
319.556732 4.763889
319.613129 42.29509
319.634064 25.39987
319.708282 6.458333
319.787109 37.419922
319.843628 24.493299
319.910156 3.490385
319.932251 10.45833
320.038025 6.5
320.071503 15.12255
320.208954 11.14889
320.315063 4.44079
320.384766 19.97364
320.700836 12.5098
320.937988 7.686274
321.069305 23.75947
321.157684 5.801667
322.139587 14.41554
323.273132 6.880952
325.088623 7.034091
325.181274 1389.536011
325.256317 21.133881
325.399506 12.51852
325.459778 18.050369
325.522552 10.38667
325.561523 4.297619
325.631195 19.935801
325.70459 11.02885
325.794342 6.160088
325.821381 6.55147
325.868256 19.40238
326.15683 6.880952
326.659607 15.36683
327.194489 1028.079956
327.257233 5.801667
327.276093 2.337121
327.401306 20.437799
327.590851 4.022059
327.611389 14.74916
327.711212 13.60119
327.729401 10.37083
327.843018 6.615
328.008331 12.39108
328.293304 2.25
328.569 9.338889
328.95224 2.672619
329.31839 5.001984
334.999329 2.333333
335.08847 18.672319
335.185638 21.87973
335.22876 5.363636
335.257416 21.217859
335.294342 25.206751
335.434631 13.81349
335.457916 7.025641
335.547485 5.875
335.894531 5.25
335.94986 16.4221
336.000305 10.30242
336.886719 13.71859
337.028473 3.75
337.140137 87.216599
337.179657 6624.368164
337.261047 31.416031
337.283112 40.54924
337.307129 7.027778
337.329987 45.940571
337.359619 66.563843
337.386963 32.454041
337.4245 57.163719
337.470673 77.729362
337.504089 13.13333
337.525238 69.132553
337.556244 45.619709
337.582977 54.64463
337.67926 16.58889
337.730103 12.0744
337.75296 44.317982
337.814331 9.676436
338.147675 48.1553
338.493195 10.93202
338.715393 24.913361
338.777435 9.408334
339.932983 3.375
339.952271 15.03852
340.491455 34.337849
343.189301 195.889404
343.411102 4.523809
343.598999 16.831499
343.766571 12.67619
345.195801 161.494202
352.765869 3.888889
352.901886 5.019737
352.9552 27.716181
352.992004 44.990799
353.045685 9.920635
353.067871 30.949221
353.117218 36.288319
353.151825 39.420319
353.173981 4.520833
353.22049 12.43788
353.300201 21.19853
353.424805 2.708333
353.556854 38.463409
353.608643 119.230904
353.693115 22.533171
353.783875 43.74649
353.844757 12.29167
353.86322 3.760417
354.044586 37.974621
354.327911 3.347222
354.686737 28.28824
354.718964 12.59868
354.911072 16.01827
354.950409 14.29167
355.122009 32.238762
355.191071 12778.950195
355.270325 170.945801
355.296326 29.225611
355.337677 33.491928
355.361023 64.942207
355.404327 34.527779
355.442993 89.151627
355.479858 9.231482
355.513397 111.1362
355.545715 31.243521
355.566101 70.38224
355.653748 39.43092
355.684357 31.621481
355.723602 91.71933
355.807983 36.965698
355.869202 7.375
355.911682 59.68158
355.965088 56.562931
356.103485 14.00107
356.125824 16.65333
356.244049 9.148149
356.282196 14.34848
356.392822 30.43733
356.57785 19.52281
356.827423 7.880051
357.024292 14.07407
357.458099 2.361111
357.478302 12.0744
358.090271 12.33991
358.143005 7.00926
358.221954 7.360043
358.432251 14.67593
359.144287 19.339689
359.294647 2.14881
359.625458 7.868333
360.014191 10.375
361.032471 10.36687
362.704285 24.85195
363.723816 25.10745
370.667389 5.401515
370.801361 4.675926
370.834839 5.391026
370.925568 17.80727
370.96051 24.37524
370.986542 15.74094
371.009277 19.73387
371.039917 46.345871
371.069366 11.37083
371.096161 16.783331
371.117859 7.190217
371.145813 34.307018
371.27713 4.335
371.354553 13.03241
371.766632 16.15369
372.061462 21.718981
372.243042 8.666667
372.330322 9.035919
372.587708 8.027778
373.121246 220.044998
373.20163 12787.929688
373.285126 62.352699
373.313171 91.717857
373.354919 35.008171
373.418793 103.274803
373.451782 15.83
373.477844 93.687866
373.517395 111.776497
373.539764 21.10668
373.57132 86.585152
373.639404 36.935322
373.661774 54.619202
373.693024 40.99015
373.731262 15.63311
373.760193 51.14753
373.849304 42.25536
373.885101 51.5518
373.947723 37.557701
374.054321 40.148849
374.131287 2.027778
374.332977 57.560581
374.79425 34.291031
375.545471 2.003788
375.599884 7.028153
375.691895 4.708333
376.009033 6.964285
376.038544 16.51042
376.070831 1.741667
376.193542 46.345051
376.873993 4.558333
377.733887 7.219203
378.349548 27.80197
380.327332 9.906863
381.427368 6.001812
381.848755 7.935
390.806671 28.58087
391.363068 15.69482
392.010498 14.01071
392.169098 17.67325
392.844391 17.82526
393.108124 4.458333
393.16214 24.365499
393.207703 3330.920898
393.28009 28.389771
393.411102 6.740942
393.470032 42.343449
393.518494 18.59783
393.548126 7.009615
393.576477 4.066667
393.618408 33.718239
393.687439 28.82987
393.720703 3.080128
393.80838 15.11667
393.915283 7.925926
394.295502 15.48021
394.369843 6.0
394.501892 6.001984
394.670319 2.14881
394.742981 11.15705
394.971619 16.66667
395.233887 13.78677
395.295868 12.68056
395.357361 8.445988
395.427582 5.335
395.510254 4.671297
395.598511 6.080883
397.679993 38.1875
435.088501 7.120098
1477.416016 26.014999
