>compound Reserpine
>formula C33H40N2O9
>ionization [M+H]+
>parentmass 609.282532
#inchi InChI=1S/C33H40N2O9/c1-38-19-7-8-20-21-9-10-35-16-18-13-27(44-32(36)17-11-25(39-2)30(41-4)26(12-17)40-3)31(42-5)28(33(37)43-6)22(18)15-24(35)29(21)34-23(20)14-19/h7-8,11-12,14,18,22,24,27-28,31,34H,9-10,13,15-16H2,1-6H3/t18-,22+,24-,27-,28+,31+/m1/s1
#inchikey QEVHRUUCFGRFIF
#Ion_Source LC-ESI
#Instrument qTof
#Compound_Source Commercial
#PI Dorrestein
#Data_Collector Garg_Neha
#Scan -1
#Precursor_MZ 609.281
#ExactMass 608.273
#Charge 1
#CAS_Number 50-55-5, 1407-38-1, 8048-25-7, 16994-56-2 (HCl)
#Pubmed_ID N/A
#Smiles C12=C([C@@]3(N(CC1)C[C@@]4([C@](C3)([C@@H]([C@H]([C@@H](C4)OC(=O)C5=CC(=C(C(=C5)OC)OC)OC)OC)C(OC)=O)[H])[H])[H])NC6=C2C=CC(=C6)OC
#INCHI_AUX N/A
#Library_Class 1
#SpectrumID CCMSLIB00000078194
#IonMode Positive
#UpdateWorkflowName UPDATE-SINGLE-ANNOTATED-GOLD
#LibraryQualityString Gold
#TaskID 77f51c88eb8b467eb4a01dd2d0cb90d2
##Scan# 1233
#SpectrumFile Plate3_21_40_GG10_01_16499.mzXML
#LibraryName FDALibrary_2_04302014.mgf
#MQScore -1
#Organism FDALibrary_2_04302014
#TIC_Query 0
#RT_Query -1
#MZErrorPPM -1
#SharedPeaks 0
#MassDiff 0
#LibMZ -1
#SpecMZ 609.281
#SpecCharge 0
#internalFilename spec-00000.mgf

>collision 10
44.914616 156.0
45.013374 140.0
45.108234 140.0
45.134972 212.0
45.148346 196.0
45.187134 216.0
45.204731 240.0
45.228619 208.0
45.308968 180.0
45.353127 176.0
45.375977 176.0
45.417549 152.0
45.659306 208.0
45.745419 184.0
45.859913 244.0
45.90575 176.0
45.932724 176.0
46.009644 160.0
46.067715 172.0
46.265152 188.0
46.281399 184.0
46.350479 144.0
46.362675 180.0
46.406792 212.0
46.442665 200.0
46.46764 176.0
46.484722 248.0
46.518654 196.0
46.789185 204.0
46.881805 156.0
46.919971 176.0
46.937695 184.0
47.090149 140.0
47.201237 196.0
47.240898 156.0
47.268261 228.0
47.308441 332.0
47.333965 164.0
47.355877 200.0
47.435349 160.0
47.447689 240.0
47.490196 156.0
47.507214 168.0
47.5341 164.0
47.685162 168.0
47.784168 200.0
47.800678 168.0
47.936909 168.0
48.113556 164.0
48.124599 160.0
48.325008 196.0
48.360989 160.0
48.388676 172.0
48.427448 156.0
48.670135 196.0
48.759605 108.0
48.832726 244.0
48.846638 164.0
48.885593 152.0
49.281601 192.0
49.453606 164.0
49.722706 176.0
49.738144 148.0
49.761044 128.0
49.850498 144.0
49.907661 112.0
49.965797 152.0
50.009418 172.0
50.079819 240.0
50.157314 268.0
50.206661 140.0
50.280022 160.0
50.381687 148.0
50.487694 180.0
50.523056 148.0
50.548523 184.0
50.612221 176.0
50.6558 208.0
50.898647 204.0
50.982456 172.0
50.99667 196.0
51.175911 172.0
51.211483 188.0
51.247128 144.0
51.28133 236.0
51.388279 144.0
51.398266 156.0
51.485096 184.0
51.492783 192.0
51.50391 156.0
51.593937 156.0
51.784252 152.0
51.795712 152.0
51.81863 184.0
52.013664 140.0
52.03376 172.0
52.048119 184.0
52.079716 164.0
52.116547 232.0
52.134777 208.0
52.226322 164.0
52.242146 180.0
52.472569 176.0
52.53891 156.0
52.86684 196.0
53.207523 144.0
53.329544 152.0
53.376064 140.0
53.412426 164.0
53.428425 204.0
53.463348 168.0
53.508751 124.0
53.587116 188.0
53.677486 188.0
53.900822 140.0
53.957825 220.0
54.153267 200.0
54.20665 204.0
54.370895 156.0
54.511875 152.0
54.717796 180.0
54.773754 152.0
54.79438 144.0
54.809113 144.0
54.873966 188.0
54.921154 236.0
54.947708 148.0
55.070229 172.0
55.119518 132.0
55.190926 220.0
55.249088 148.0
55.314201 160.0
55.346771 148.0
55.500874 184.0
55.681915 212.0
55.705681 172.0
55.717564 140.0
55.765114 264.0
55.811199 164.0
55.942123 148.0
56.060123 216.0
56.138794 208.0
56.217319 100.0
56.291004 168.0
56.364201 260.0
56.481354 176.0
56.67543 188.0
56.744373 152.0
56.778862 200.0
56.882393 152.0
56.946915 148.0
57.095745 180.0
57.130341 204.0
57.151405 140.0
57.189026 192.0
57.330204 216.0
57.395416 152.0
57.536076 140.0
57.597645 232.0
57.627857 148.0
57.673195 200.0
57.700405 160.0
57.842606 196.0
57.894081 204.0
57.965965 124.0
58.124496 200.0
58.185211 148.0
58.335606 196.0
58.373615 140.0
58.460327 144.0
58.6507 168.0
58.679665 172.0
58.705585 200.0
58.824593 140.0
58.849022 188.0
59.079796 172.0
59.148659 172.0
59.2243 108.0
59.295696 184.0
59.398426 164.0
59.458263 160.0
59.492031 172.0
59.64872 204.0
59.838593 168.0
59.907242 268.0
60.021294 172.0
60.032085 164.0
60.168056 164.0
60.426186 224.0
60.915688 116.0
61.005981 268.0
61.082176 164.0
61.192669 168.0
61.205124 152.0
61.303261 144.0
61.515377 140.0
61.566902 156.0
61.713863 160.0
61.793552 200.0
62.067654 208.0
62.202576 188.0
62.252815 172.0
62.263809 148.0
62.296795 184.0
62.317219 184.0
62.978855 144.0
63.130291 128.0
63.391777 156.0
63.421886 148.0
63.501163 176.0
63.659866 156.0
63.690041 164.0
63.957169 176.0
64.090942 172.0
64.175415 140.0
64.373276 188.0
64.394043 148.0
64.414803 200.0
64.648842 176.0
64.766708 164.0
64.834 184.0
65.053741 152.0
65.146881 160.0
65.283501 140.0
65.434753 140.0
65.721642 180.0
65.74585 260.0
66.041504 200.0
66.090034 156.0
66.192017 168.0
66.336205 144.0
66.753471 204.0
66.779488 188.0
66.836426 152.0
66.996094 228.0
67.097023 148.0
67.128006 164.0
67.570648 196.0
67.588646 188.0
67.793335 144.0
67.883492 212.0
68.07637 208.0
68.0952 196.0
68.142838 144.0
68.170769 204.0
68.187202 152.0
68.210548 252.0
68.223366 148.0
68.520721 192.0
69.014732 200.0
69.082542 160.0
69.258003 160.0
69.307701 156.0
69.624542 140.0
69.765778 176.0
69.818985 180.0
69.912102 160.0
70.065331 228.0
70.25705 188.0
70.714897 220.0
70.773155 128.0
70.828751 160.0
70.878304 188.0
71.074738 160.0
71.202782 260.0
71.325432 208.0
71.348969 160.0
71.397728 208.0
71.414543 168.0
71.436417 288.0
71.466698 176.0
71.604736 168.0
71.830589 188.0
71.906517 152.0
71.992844 180.0
72.041229 256.0
72.104118 152.0
72.266457 180.0
72.286049 192.0
72.401871 140.0
72.425583 180.0
72.696846 164.0
72.786812 184.0
73.164268 224.0
73.234085 160.0
73.476143 196.0
73.494911 196.0
73.822876 200.0
73.874191 244.0
73.908409 156.0
74.015747 180.0
74.067123 312.0
74.28875 188.0
74.518799 172.0
74.572067 220.0
74.670067 188.0
74.859375 168.0
74.890373 140.0
74.904152 144.0
75.001556 144.0
75.136879 180.0
75.321587 240.0
75.420082 156.0
75.54631 212.0
75.638023 164.0
76.246811 216.0
76.369797 152.0
76.382431 140.0
76.433601 204.0
76.688881 256.0
76.765594 148.0
76.962769 144.0
77.147964 220.0
77.492737 176.0
77.58036 180.0
77.636467 228.0
77.748749 180.0
77.835518 168.0
78.008698 144.0
78.096619 188.0
78.174026 172.0
78.238586 212.0
78.3871 180.0
78.406487 216.0
78.633995 196.0
78.704605 160.0
78.763855 168.0
78.782318 172.0
78.798218 188.0
78.892365 160.0
78.932312 184.0
79.070534 200.0
79.190445 376.0
79.644211 124.0
79.694733 164.0
79.886734 216.0
79.957909 204.0
80.021996 216.0
80.091949 156.0
80.12529 232.0
80.196571 140.0
80.348145 196.0
80.43737 204.0
80.710709 152.0
80.787613 168.0
80.918259 168.0
80.991684 200.0
81.090225 164.0
81.359291 176.0
81.376801 136.0
81.60183 208.0
81.648582 168.0
81.690742 200.0
81.749321 200.0
81.833923 140.0
81.920364 200.0
82.100609 180.0
82.233887 128.0
82.521339 144.0
82.561119 172.0
82.610809 144.0
82.655182 152.0
82.700424 180.0
82.769218 192.0
82.805443 172.0
82.855087 176.0
82.981209 172.0
83.193054 208.0
83.254562 216.0
83.350311 160.0
83.384193 156.0
83.435089 152.0
83.59333 152.0
83.715302 156.0
83.950378 184.0
84.017868 164.0
84.118233 156.0
84.140137 180.0
84.178345 160.0
84.388611 196.0
84.549583 192.0
84.584358 148.0
84.625862 244.0
84.74987 212.0
84.851822 140.0
84.888489 172.0
84.941681 180.0
84.977394 128.0
85.079308 152.0
85.33284 160.0
85.517456 156.0
85.675156 236.0
85.691826 240.0
85.726746 156.0
85.791252 144.0
85.874229 200.0
85.9058 212.0
86.058769 144.0
86.149261 224.0
86.291565 192.0
86.315605 192.0
86.400681 220.0
86.66729 180.0
86.724739 152.0
86.743279 188.0
86.776123 156.0
86.797112 104.0
86.810638 216.0
86.861954 188.0
86.904625 140.0
86.997421 180.0
87.028976 188.0
87.067978 208.0
87.131134 232.0
87.2854 208.0
87.397003 144.0
87.452827 176.0
87.576134 108.0
87.696823 216.0
87.743736 240.0
87.909431 152.0
88.088669 152.0
88.118561 148.0
88.369095 152.0
88.548798 188.0
89.042053 164.0
89.137856 156.0
89.199425 176.0
89.28286 148.0
89.343597 160.0
89.474533 152.0
89.540436 140.0
89.732643 176.0
89.898628 164.0
89.932602 204.0
90.000565 216.0
90.075172 148.0
90.125854 144.0
90.146011 152.0
90.227287 144.0
90.276443 144.0
90.321838 156.0
90.372917 140.0
90.461868 160.0
90.838966 140.0
90.969902 164.0
91.054291 160.0
91.108528 216.0
91.252968 184.0
91.376595 176.0
91.403229 140.0
91.629807 156.0
91.793724 172.0
91.820427 220.0
92.10537 164.0
92.175499 144.0
92.42408 168.0
92.448952 172.0
92.493668 244.0
92.661499 156.0
92.678741 200.0
92.81675 176.0
93.06189 220.0
93.38134 148.0
93.602654 164.0
93.876289 216.0
93.995888 144.0
94.066528 364.0
94.19474 148.0
94.212128 148.0
94.304878 208.0
94.624062 172.0
95.330101 180.0
95.462288 196.0
95.51091 180.0
95.594566 196.0
95.679543 164.0
95.773682 184.0
95.931511 224.0
96.032906 244.0
96.068024 160.0
96.389557 204.0
96.495453 212.0
96.671753 144.0
96.744171 180.0
96.807373 144.0
97.028732 176.0
97.0662 152.0
97.151756 216.0
97.244011 148.0
97.283272 196.0
97.324501 204.0
97.466141 184.0
97.667526 204.0
98.064178 144.0
98.172607 168.0
98.192329 140.0
98.288376 180.0
98.342278 220.0
98.480484 172.0
98.516586 160.0
98.602982 180.0
98.655174 108.0
98.915489 200.0
99.058067 144.0
99.381218 208.0
99.454826 128.0
99.512207 168.0
99.770485 148.0
99.827843 184.0
99.89975 180.0
99.961426 208.0
99.995255 196.0
100.17247 172.0
100.256149 164.0
100.49543 180.0
100.588173 212.0
100.808929 168.0
100.900871 180.0
101.235771 192.0
101.563705 184.0
101.682083 196.0
101.752342 144.0
101.844711 192.0
101.874847 152.0
101.957222 144.0
102.065773 308.0
102.401848 172.0
102.448174 176.0
102.46228 188.0
102.875702 164.0
102.96656 188.0
103.006958 232.0
103.05394 172.0
103.332497 132.0
103.476128 192.0
103.846825 172.0
103.881447 168.0
104.584511 232.0
104.871704 164.0
104.97364 208.0
105.049103 224.0
105.326714 184.0
105.367851 176.0
105.69471 184.0
105.710884 172.0
105.8787 200.0
105.995712 216.0
106.042664 184.0
106.068161 240.0
106.176109 192.0
106.196617 176.0
106.235588 148.0
106.352554 196.0
106.438751 200.0
106.461365 196.0
106.58667 148.0
106.640106 156.0
106.814873 164.0
107.012436 164.0
107.148018 232.0
107.245224 192.0
107.263771 204.0
107.439056 160.0
107.480003 156.0
107.604156 176.0
107.666107 152.0
107.715675 192.0
107.738403 164.0
107.787987 192.0
108.023682 140.0
108.05471 144.0
108.081902 140.0
108.14576 152.0
108.193375 156.0
108.647224 148.0
108.674194 156.0
109.012657 188.0
109.063972 464.0
109.448097 144.0
109.657806 216.0
109.878845 288.0
110.00312 224.0
110.081062 204.0
110.214989 192.0
110.288139 168.0
110.313217 160.0
110.595604 144.0
110.65213 156.0
110.717041 248.0
110.855301 148.0
110.976875 192.0
111.044609 1016.0
111.073151 132.0
111.295799 164.0
111.401161 216.0
111.428123 152.0
111.444931 180.0
111.459641 180.0
111.544044 148.0
111.609428 184.0
111.6278 192.0
111.667763 200.0
111.766357 152.0
111.972931 200.0
112.050873 172.0
112.286957 140.0
112.388214 172.0
112.415649 164.0
112.44519 156.0
112.531738 176.0
112.802155 184.0
112.89518 148.0
113.019981 308.0
113.060883 172.0
113.185089 212.0
113.354546 184.0
113.417633 156.0
113.543221 192.0
113.634521 180.0
113.734169 192.0
113.865807 220.0
113.882797 176.0
114.117088 144.0
114.182022 112.0
114.288834 140.0
114.365448 168.0
114.401634 172.0
114.463379 180.0
114.623138 228.0
114.876305 172.0
114.93232 168.0
114.977135 144.0
115.055687 332.0
115.17997 212.0
115.394394 188.0
115.462097 224.0
115.703888 156.0
115.935219 168.0
115.978081 156.0
116.062897 176.0
116.100288 240.0
116.153908 152.0
116.179703 176.0
116.246162 144.0
116.424339 148.0
116.51133 128.0
117.060699 244.0
117.164268 188.0
117.292191 176.0
117.433716 164.0
117.64518 224.0
117.878441 176.0
117.928146 216.0
117.982185 236.0
118.064835 456.0
118.207123 188.0
118.355797 164.0
118.391129 164.0
118.552658 164.0
118.711853 152.0
119.041702 152.0
119.085167 152.0
119.327148 216.0
119.909721 156.0
120.044884 168.0
120.082314 608.0
120.207207 196.0
120.273964 160.0
120.339455 188.0
120.592361 228.0
120.611183 136.0
120.89904 184.0
121.030579 204.0
121.064156 264.0
121.081604 196.0
121.111412 140.0
121.135506 196.0
121.451149 140.0
121.563446 196.0
121.826515 144.0
122.035416 688.0
122.070221 168.0
122.097351 200.0
122.151855 156.0
122.173859 144.0
122.303421 268.0
122.468826 180.0
122.508476 164.0
122.607628 172.0
122.781792 204.0
122.860703 216.0
122.927956 140.0
122.964905 152.0
122.991386 188.0
123.006844 144.0
123.043243 196.0
123.082787 468.0
123.269661 184.0
123.34481 160.0
123.44651 228.0
123.528343 212.0
123.554787 172.0
123.697166 192.0
123.805008 204.0
123.960075 232.0
124.022133 176.0
124.055382 720.0
124.083496 528.0
124.206779 188.0
124.303787 224.0
124.322906 188.0
124.639084 140.0
124.79467 148.0
124.894745 152.0
124.945908 232.0
125.202393 140.0
125.232811 140.0
125.466988 168.0
125.502708 172.0
125.545082 176.0
125.679665 96.0
125.832924 148.0
125.855247 152.0
125.931175 180.0
125.953514 164.0
126.047348 160.0
126.091949 204.0
126.28746 128.0
126.333527 160.0
126.528229 180.0
126.548378 164.0
126.658112 144.0
126.737984 196.0
126.826157 160.0
126.954353 224.0
127.045914 208.0
127.330978 140.0
127.42308 192.0
127.443298 208.0
127.477005 208.0
127.526443 172.0
127.578148 140.0
127.6371 180.0
127.899818 148.0
127.958405 156.0
128.049118 496.0
128.065582 352.0
128.339127 180.0
128.375198 156.0
128.449631 160.0
128.526672 160.0
128.684189 128.0
128.779175 160.0
128.794983 164.0
128.833389 236.0
128.860489 196.0
129.056564 224.0
129.072021 268.0
129.31955 156.0
129.412354 140.0
129.489349 180.0
129.539185 148.0
129.58902 176.0
129.708267 148.0
129.924561 144.0
130.066315 1296.0
130.094696 176.0
130.344604 164.0
130.450256 164.0
130.479507 168.0
130.535538 252.0
130.672638 160.0
130.831329 140.0
130.982834 196.0
131.049149 340.0
131.073669 2464.0
131.230453 188.0
131.270599 156.0
131.613342 204.0
131.677277 176.0
131.697845 256.0
131.74678 208.0
131.912949 168.0
132.080414 856.0
132.116821 204.0
132.181015 160.0
132.294647 248.0
132.374786 172.0
132.498474 172.0
132.700165 184.0
132.78891 188.0
133.064438 532.0
133.082001 352.0
133.120056 356.0
133.155243 212.0
133.40036 152.0
133.513031 148.0
133.547531 228.0
133.605026 204.0
133.632645 180.0
133.694763 184.0
133.72699 220.0
133.901962 164.0
133.980286 184.0
134.036407 296.0
134.060211 260.0
134.098923 140.0
134.173874 152.0
134.209991 144.0
134.256882 164.0
134.296082 200.0
134.332031 124.0
134.635345 140.0
134.669998 164.0
134.821976 204.0
134.905685 148.0
135.040802 148.0
135.079559 312.0
135.440216 160.0
135.581558 180.0
135.69281 144.0
135.8134 140.0
135.945465 104.0
135.995438 176.0
136.078552 392.0
136.273041 168.0
136.463623 200.0
136.545013 148.0
137.023651 284.0
137.058044 272.0
137.093765 148.0
137.164352 148.0
137.465225 204.0
137.7267 148.0
138.024536 136.0
138.084305 140.0
138.191605 152.0
138.632797 236.0
138.718842 140.0
138.739868 364.0
138.777451 232.0
138.875946 180.0
138.894714 172.0
138.96582 192.0
139.012009 284.0
139.075638 1708.0
139.185715 332.0
139.270264 196.0
139.495834 164.0
139.540512 180.0
139.648682 144.0
139.780426 160.0
139.981339 148.0
140.055603 140.0
140.074631 120.0
140.152466 148.0
140.21608 148.0
140.281342 140.0
140.303299 200.0
140.505035 200.0
140.536789 204.0
140.578232 168.0
140.772827 152.0
140.87204 148.0
140.947632 156.0
141.018356 748.0
141.061081 152.0
141.092987 164.0
141.181656 172.0
141.266815 152.0
141.288101 184.0
141.474411 176.0
141.715012 164.0
141.896759 152.0
141.937057 164.0
142.065903 284.0
142.110748 176.0
142.141052 164.0
142.3452 160.0
142.680222 140.0
142.711456 232.0
142.93898 176.0
143.049179 400.0
143.073105 1644.0
143.444382 208.0
143.616562 208.0
143.77829 148.0
143.798874 128.0
144.081207 1532.0
144.246429 144.0
144.652374 252.0
144.782379 216.0
144.978165 176.0
145.060135 312.0
145.085495 836.0
145.35051 156.0
145.496918 240.0
145.718491 188.0
145.818802 160.0
145.993088 136.0
146.032471 156.0
146.060364 292.0
146.097672 196.0
146.298203 184.0
146.493866 152.0
146.567215 220.0
146.656387 172.0
146.716644 184.0
146.883041 160.0
147.044693 180.0
147.0784 532.0
147.175049 156.0
147.211273 148.0
147.257767 160.0
147.385193 172.0
147.445084 184.0
147.57785 96.0
147.704086 132.0
147.745438 156.0
148.077255 2796.0
148.176376 244.0
148.617828 212.0
148.683151 192.0
148.828812 180.0
148.925659 168.0
149.060593 312.0
149.076752 864.0
149.097153 304.0
149.176224 192.0
149.528915 148.0
149.713943 192.0
149.825974 140.0
149.930206 196.0
150.061981 268.0
150.082275 152.0
150.172119 144.0
150.313614 232.0
150.347519 184.0
150.486923 156.0
150.780045 164.0
151.040192 556.0
151.077545 180.0
151.354233 184.0
151.470291 184.0
151.496002 184.0
151.516571 160.0
151.612137 172.0
151.990616 152.0
152.047485 3512.0
152.077286 236.0
152.168945 144.0
152.358047 204.0
152.489227 128.0
152.56839 136.0
152.680161 168.0
152.743988 196.0
152.780899 160.0
152.820251 216.0
152.857162 156.0
152.87439 156.0
152.891617 140.0
152.910797 124.0
153.049545 172.0
153.118118 208.0
153.265915 180.0
153.401474 144.0
153.552475 152.0
153.632645 188.0
153.680145 164.0
153.759109 332.0
153.931641 172.0
154.064697 676.0
154.091049 236.0
154.178955 216.0
154.322327 140.0
154.501953 136.0
154.562256 180.0
154.634018 172.0
154.676086 204.0
154.719391 220.0
154.881607 156.0
154.906387 172.0
155.050095 164.0
155.071442 500.0
155.136841 180.0
155.352585 176.0
155.620621 168.0
155.642975 168.0
155.687668 152.0
155.717468 228.0
155.851624 140.0
155.969604 100.0
155.990021 156.0
156.043213 932.0
156.086639 260.0
156.45665 208.0
156.502914 136.0
156.647736 152.0
156.804703 152.0
157.043793 288.0
157.090988 148.0
157.258636 164.0
157.390945 180.0
157.410919 216.0
157.428406 200.0
157.533295 156.0
157.580765 188.0
157.875717 256.0
158.030975 116.0
158.063293 680.0
158.097809 296.0
158.248566 164.0
158.29068 136.0
158.569977 156.0
158.764755 168.0
158.802368 192.0
158.99054 144.0
159.069031 4020.0
159.392319 140.0
159.547165 156.0
159.654617 140.0
160.075943 3748.0
160.134445 160.0
160.166855 148.0
160.388931 232.0
161.062515 648.0
161.082993 2392.0
161.145355 172.0
161.36084 152.0
161.378525 352.0
161.585922 144.0
161.682983 244.0
161.725098 144.0
161.864349 192.0
162.091965 1288.0
162.301865 288.0
162.574127 176.0
162.636871 256.0
162.698502 168.0
162.731506 140.0
163.07576 808.0
163.09729 436.0
163.251953 200.0
163.311844 108.0
163.513229 140.0
163.608627 176.0
163.667175 180.0
163.732407 104.0
164.006012 184.0
164.073792 308.0
164.109192 608.0
164.140366 120.0
164.338882 112.0
164.666824 164.0
164.925674 156.0
165.074509 160.0
165.094009 320.0
165.114243 256.0
165.211273 244.0
165.326416 196.0
165.803635 188.0
165.836075 228.0
165.925797 348.0
165.984772 264.0
166.036057 192.0
166.061172 216.0
166.086456 732.0
166.400421 156.0
166.426102 224.0
166.53653 160.0
166.790909 148.0
166.860306 200.0
167.041595 204.0
167.071274 2736.0
167.297607 180.0
167.387772 208.0
167.458084 140.0
167.490784 164.0
167.686615 192.0
167.753632 160.0
168.037399 120.0
168.079132 304.0
168.147476 156.0
168.177704 168.0
168.517105 168.0
169.085464 468.0
169.127838 196.0
169.289124 228.0
169.759979 176.0
169.902649 196.0
169.975296 164.0
170.060242 152.0
170.08075 120.0
170.098434 116.0
170.281616 160.0
170.39592 148.0
170.42189 188.0
170.7332 176.0
170.753555 156.0
171.065353 172.0
171.097626 148.0
171.134567 200.0
171.217896 172.0
171.278976 176.0
171.538376 200.0
171.684662 144.0
171.88002 188.0
172.076477 1192.0
172.117554 160.0
172.169785 216.0
172.189972 148.0
172.253525 128.0
172.478088 164.0
172.689865 216.0
172.826004 196.0
172.849457 256.0
172.901794 196.0
172.948898 224.0
173.083344 780.0
173.171448 148.0
173.19548 140.0
173.228668 152.0
173.258255 148.0
173.32077 160.0
173.364807 140.0
173.416794 132.0
173.596008 176.0
173.648468 160.0
173.695679 220.0
173.732941 156.0
173.796127 176.0
173.842087 244.0
173.85759 124.0
173.886566 180.0
173.921463 160.0
173.958084 144.0
173.97908 168.0
174.022766 288.0
174.041473 184.0
174.09256 106392.0
174.187134 208.0
174.258514 160.0
174.338028 140.0
174.407745 160.0
174.487488 100.0
174.522293 312.0
174.591293 144.0
174.647507 152.0
174.800308 160.0
174.863525 236.0
175.094238 13520.0
175.175781 196.0
175.433868 160.0
175.576248 148.0
175.599976 168.0
175.685547 312.0
176.049957 152.0
176.104141 2052.0
176.22554 112.0
176.253387 148.0
176.360382 148.0
176.447998 144.0
176.518326 132.0
176.567627 124.0
176.839111 140.0
177.029724 144.0
177.069458 144.0
177.108688 328.0
177.326447 164.0
177.360123 136.0
177.724945 132.0
177.934128 140.0
177.984344 140.0
178.083389 1216.0
178.272659 104.0
178.332352 176.0
178.506165 144.0
178.720612 144.0
179.07579 352.0
179.277145 204.0
179.361908 164.0
179.725906 108.0
179.810272 172.0
179.993469 144.0
180.047211 216.0
180.104218 332.0
180.686981 192.0
180.842545 176.0
181.085114 580.0
181.131363 144.0
181.321594 176.0
181.528015 308.0
181.871414 176.0
182.061783 128.0
182.092316 160.0
182.160019 100.0
182.392502 152.0
182.505417 164.0
182.838455 244.0
183.099655 116.0
183.295135 236.0
183.631302 232.0
183.92038 176.0
184.052719 224.0
184.074295 400.0
184.106049 164.0
184.195175 148.0
184.53299 168.0
184.560028 152.0
184.759399 212.0
184.857574 200.0
184.941467 172.0
184.984879 232.0
185.085846 172.0
185.160782 148.0
185.545547 176.0
185.71521 156.0
185.90358 180.0
186.00943 152.0
186.091187 1768.0
186.1642 172.0
186.210098 124.0
186.321732 204.0
186.478867 296.0
186.682327 108.0
186.846436 168.0
186.876358 212.0
187.023315 240.0
187.077271 488.0
187.098602 996.0
187.165695 212.0
187.453613 204.0
187.988098 176.0
188.069153 388.0
188.107147 5620.0
188.173706 156.0
188.292114 132.0
188.67366 144.0
188.725067 164.0
188.83226 144.0
188.902512 96.0
189.073349 224.0
189.10997 1116.0
189.295395 188.0
189.413605 172.0
189.527588 160.0
189.598831 188.0
189.746857 204.0
189.793457 140.0
190.086075 1952.0
190.119812 544.0
190.402664 260.0
190.47197 136.0
190.658157 168.0
190.677399 168.0
190.718704 144.0
190.905579 172.0
191.091095 352.0
191.118286 184.0
191.25499 144.0
191.503815 160.0
191.529694 172.0
191.738007 160.0
191.926697 184.0
191.99437 196.0
192.102371 13172.0
192.261078 128.0
192.414612 96.0
192.516983 216.0
192.589508 108.0
192.777374 164.0
192.8741 208.0
193.006241 176.0
193.040649 116.0
193.104477 1600.0
193.23735 136.0
193.475922 184.0
193.704224 164.0
193.828903 248.0
194.033997 140.0
194.117035 192.0
194.310379 184.0
194.408463 240.0
194.462997 224.0
194.517044 256.0
194.552795 168.0
194.577698 148.0
194.731094 164.0
194.773071 248.0
194.804016 308.0
194.857224 208.0
194.878128 168.0
194.915466 228.0
194.984467 208.0
195.012024 528.0
195.066788 171084.0
195.158356 248.0
195.232834 140.0
195.274323 200.0
195.304047 176.0
195.379303 280.0
195.436432 96.0
195.523697 592.0
195.568954 136.0
195.604721 136.0
195.614487 204.0
195.718597 164.0
195.773666 216.0
195.801437 220.0
195.8358 136.0
195.8741 116.0
195.943878 100.0
195.992279 172.0
196.020538 132.0
196.06955 17176.0
196.132812 176.0
196.167191 96.0
196.336212 160.0
196.402817 144.0
196.583755 168.0
196.725952 152.0
196.917496 120.0
196.985245 164.0
197.018204 140.0
197.070663 1932.0
197.1138 164.0
197.200699 108.0
197.274902 200.0
197.300232 140.0
197.326553 156.0
197.390564 100.0
197.417694 96.0
197.468079 104.0
197.609695 116.0
197.691925 116.0
198.09111 884.0
198.263962 160.0
198.425491 120.0
198.672974 104.0
199.095383 1992.0
199.262756 128.0
199.320465 172.0
199.646561 168.0
199.705612 140.0
200.107056 4648.0
200.198135 192.0
200.875931 148.0
200.922516 176.0
201.107269 2612.0
201.67366 172.0
202.05542 192.0
202.107727 432.0
202.192001 120.0
202.290298 192.0
203.113388 176.0
203.33905 160.0
203.793396 188.0
204.102493 4056.0
204.490097 144.0
204.894455 216.0
205.106003 752.0
205.373352 152.0
205.480667 136.0
205.752884 160.0
205.844254 160.0
206.112823 540.0
206.215851 108.0
206.252792 140.0
206.318542 196.0
206.441483 244.0
207.103607 1148.0
207.764771 172.0
208.097427 176.0
208.140762 428.0
208.228821 120.0
208.271622 100.0
208.830475 144.0
208.988693 152.0
209.0896 180.0
209.115311 172.0
209.751862 148.0
209.859909 100.0
210.051956 96.0
210.091919 1364.0
210.178696 140.0
210.372055 168.0
210.72728 168.0
210.972931 156.0
211.039429 164.0
211.097778 876.0
211.215836 188.0
211.466614 220.0
211.533585 104.0
211.568878 196.0
212.066055 188.0
212.107574 1244.0
212.507889 164.0
213.079453 220.0
213.098907 432.0
213.294891 176.0
213.3414 168.0
213.512955 144.0
213.54155 96.0
213.710754 232.0
213.790863 124.0
214.111343 1632.0
214.438782 188.0
214.674927 168.0
214.714066 132.0
214.9608 160.0
215.089081 180.0
215.116928 3304.0
215.334473 160.0
215.378281 220.0
216.097733 592.0
216.122528 748.0
216.188141 144.0
216.302292 168.0
216.829498 156.0
217.107117 244.0
217.195999 156.0
217.47757 116.0
217.944611 168.0
218.082733 176.0
218.117523 248.0
218.344391 236.0
218.473816 180.0
219.039017 160.0
219.101089 268.0
219.198105 160.0
219.615784 160.0
219.690491 176.0
220.072937 120.0
220.106628 172.0
220.478851 172.0
221.082138 152.0
221.10878 168.0
221.573669 184.0
222.110107 1264.0
222.748413 148.0
222.831604 144.0
223.117157 712.0
223.387527 188.0
223.432144 140.0
223.601761 152.0
223.684448 184.0
224.128815 7196.0
224.871399 188.0
224.910202 168.0
224.995377 172.0
225.075256 276.0
225.13002 2152.0
226.121231 1096.0
226.237427 192.0
226.418274 120.0
226.866531 148.0
227.084717 152.0
227.119644 812.0
227.174881 204.0
227.62561 140.0
227.757751 164.0
227.883926 140.0
228.123871 1212.0
228.471649 180.0
228.521332 336.0
228.840363 156.0
229.134659 1440.0
229.832001 176.0
230.05835 160.0
230.133835 496.0
230.644379 148.0
231.105545 144.0
231.331024 156.0
231.513779 128.0
232.084686 184.0
232.121796 168.0
232.370514 184.0
233.117661 160.0
234.088913 248.0
234.459503 164.0
235.011444 148.0
235.098083 444.0
235.137344 340.0
235.386292 184.0
235.591522 188.0
235.684875 180.0
235.939911 152.0
236.128571 20152.0
236.183228 140.0
236.767487 120.0
237.076477 208.0
237.131073 2960.0
237.642746 220.0
237.765503 160.0
237.945267 100.0
238.083008 244.0
238.124084 1916.0
238.416565 160.0
238.928268 128.0
239.026352 188.0
239.127747 676.0
239.339401 180.0
240.038879 184.0
240.107361 292.0
240.139008 308.0
240.381271 152.0
240.557205 152.0
240.61586 208.0
240.876694 128.0
241.09433 168.0
241.131622 136.0
241.193527 184.0
241.270813 180.0
241.677109 152.0
242.065979 156.0
242.115829 592.0
242.146957 348.0
242.699371 156.0
242.758209 104.0
243.123077 160.0
243.61676 188.0
244.139786 160.0
245.026031 164.0
245.121796 120.0
245.565308 184.0
245.671371 172.0
246.082916 152.0
246.142654 152.0
246.479996 176.0
247.098663 396.0
247.158524 200.0
247.293091 184.0
248.106857 1100.0
248.857361 164.0
249.004944 200.0
249.115402 756.0
249.373245 196.0
249.856796 156.0
250.080826 144.0
250.122208 1360.0
250.388763 156.0
251.121567 876.0
251.258743 144.0
251.574326 168.0
251.9375 200.0
252.09967 392.0
252.13205 1156.0
252.512787 204.0
253.131729 1452.0
253.28508 160.0
254.13913 1340.0
254.173737 208.0
254.880859 152.0
255.116653 392.0
255.144684 284.0
255.427673 144.0
255.526291 140.0
256.12204 172.0
256.612366 144.0
256.96637 140.0
257.12149 112.0
257.832916 96.0
258.117279 136.0
258.298523 164.0
258.784973 156.0
258.807373 188.0
259.122314 120.0
259.557159 188.0
259.765625 204.0
260.109528 508.0
260.587463 156.0
261.113129 720.0
261.446838 160.0
261.556976 204.0
261.608124 208.0
261.784027 208.0
262.077179 140.0
262.12149 1532.0
262.360779 164.0
262.49942 236.0
262.923431 192.0
263.089874 140.0
263.126251 776.0
263.651886 168.0
264.020447 176.0
264.097839 396.0
264.133667 664.0
264.405426 180.0
264.60611 144.0
265.133026 1368.0
266.019562 152.0
266.140594 1176.0
266.37027 140.0
266.557404 208.0
267.110809 328.0
267.146576 992.0
267.182983 168.0
267.46933 176.0
268.0914 160.0
268.142975 160.0
268.505432 172.0
268.737061 164.0
268.78598 180.0
268.903473 184.0
269.102142 140.0
269.154846 352.0
269.298523 184.0
269.737427 204.0
270.022461 132.0
270.116577 312.0
270.226929 208.0
270.750641 172.0
270.888214 184.0
271.119751 156.0
271.147064 176.0
271.363403 184.0
272.117401 216.0
272.334747 156.0
272.551575 228.0
272.699463 160.0
272.775055 140.0
272.847382 188.0
272.880249 164.0
273.115753 248.0
273.148254 296.0
273.729156 152.0
274.123718 848.0
274.226044 180.0
274.962097 188.0
275.000305 160.0
275.038025 148.0
275.090607 172.0
275.131653 652.0
275.325256 148.0
275.394623 148.0
276.100525 412.0
276.138092 2708.0
276.213013 168.0
277.109619 216.0
277.142487 1108.0
277.572998 200.0
278.083099 164.0
278.146423 380.0
278.664215 184.0
279.035431 140.0
279.148346 680.0
279.415619 152.0
279.528748 200.0
279.911346 280.0
280.051422 220.0
280.152161 268.0
280.803619 140.0
280.901398 160.0
281.004791 144.0
281.10379 144.0
281.129791 232.0
281.164825 636.0
281.205017 160.0
281.335754 192.0
281.482117 168.0
281.525513 144.0
282.006622 172.0
282.050049 244.0
282.109802 532.0
282.164093 100.0
282.207184 240.0
282.324219 140.0
282.518219 172.0
282.963318 180.0
283.102509 188.0
283.165863 124.0
283.398743 164.0
284.130096 436.0
284.848022 172.0
285.112549 148.0
285.132751 416.0
285.354004 156.0
285.621124 140.0
285.649414 148.0
285.691772 212.0
286.13855 428.0
286.863678 144.0
287.101807 172.0
287.204254 208.0
287.356049 184.0
288.0177 152.0
288.137665 1936.0
288.586609 176.0
289.106873 108.0
289.144836 984.0
289.22049 160.0
289.285767 156.0
289.429749 204.0
289.980133 148.0
290.03775 156.0
290.120575 1216.0
290.685547 208.0
290.999603 128.0
291.125092 408.0
291.139862 304.0
291.297363 196.0
291.454163 132.0
292.11734 132.0
292.155884 328.0
292.483948 172.0
292.977173 208.0
293.096466 124.0
293.129425 156.0
293.166168 132.0
293.586243 160.0
293.791931 236.0
294.114502 220.0
294.145752 668.0
294.464355 220.0
294.869629 148.0
295.110107 120.0
295.151642 316.0
295.188873 152.0
295.257263 140.0
295.354034 228.0
295.492615 152.0
295.608643 156.0
295.897003 108.0
296.010559 228.0
296.127319 1140.0
296.969696 176.0
297.134766 592.0
297.263092 120.0
298.047668 156.0
298.148407 204.0
298.4422 172.0
298.546082 144.0
298.597687 160.0
299.551117 144.0
299.775055 176.0
300.019775 156.0
300.12384 360.0
301.10199 264.0
301.17923 164.0
301.410675 216.0
301.652618 220.0
302.060638 148.0
302.115295 232.0
302.593597 144.0
303.016113 180.0
303.133606 252.0
303.276031 152.0
304.132568 2856.0
304.413971 172.0
304.688293 200.0
305.135742 1268.0
305.167999 1588.0
306.065674 144.0
306.146393 536.0
306.168793 676.0
306.351257 292.0
307.122345 324.0
307.167511 320.0
307.578705 164.0
307.681335 208.0
308.078064 160.0
308.127075 700.0
308.165894 1428.0
308.252747 156.0
309.131683 572.0
309.165375 352.0
309.445496 172.0
309.715149 144.0
310.103271 140.0
310.136597 168.0
310.176086 256.0
310.39267 172.0
310.475677 168.0
311.031311 144.0
311.151184 180.0
311.939819 160.0
312.050446 108.0
312.105042 144.0
312.168793 124.0
312.228119 196.0
312.367554 224.0
312.685486 180.0
313.16098 216.0
313.69455 192.0
314.073669 168.0
315.055023 196.0
315.097412 156.0
315.138977 236.0
315.18927 180.0
315.899902 144.0
315.994415 112.0
316.133728 796.0
316.731415 164.0
316.969116 172.0
317.078979 172.0
317.138672 280.0
317.667572 148.0
317.805939 176.0
317.940765 144.0
318.146637 576.0
318.249603 160.0
318.757538 148.0
318.846375 148.0
319.120026 512.0
320.119202 304.0
320.162476 532.0
320.25174 164.0
320.31366 124.0
320.370575 144.0
320.729187 168.0
321.05719 148.0
321.136261 508.0
321.81369 144.0
322.056519 180.0
322.144531 1588.0
322.610382 180.0
322.674744 160.0
322.833893 128.0
322.914307 168.0
323.053802 224.0
323.14978 884.0
323.3508 148.0
323.418793 152.0
323.547668 192.0
324.156494 204.0
324.475708 112.0
325.09967 180.0
325.160492 144.0
325.354523 168.0
325.669556 164.0
325.73877 148.0
326.011841 148.0
326.162689 232.0
326.547516 152.0
326.658997 180.0
327.05481 212.0
327.108826 140.0
327.496155 196.0
327.645386 160.0
327.922852 168.0
328.820892 164.0
328.900299 140.0
329.47995 104.0
329.644287 280.0
330.16571 200.0
330.237183 156.0
330.365387 100.0
330.827332 180.0
330.86319 156.0
331.49704 256.0
331.632904 124.0
331.731171 160.0
331.761627 188.0
331.844269 156.0
332.148865 316.0
332.247589 148.0
332.345551 156.0
332.977203 184.0
333.158051 2580.0
333.245758 120.0
333.636108 156.0
333.816681 148.0
334.145538 1408.0
334.330963 96.0
334.547974 164.0
334.591675 212.0
334.749969 144.0
335.143951 288.0
335.171295 484.0
336.1586 8928.0
336.623108 108.0
336.827087 148.0
336.973236 288.0
337.075806 108.0
337.161469 2400.0
337.605591 152.0
337.766663 96.0
337.970398 148.0
338.170685 424.0
338.523132 120.0
338.831696 144.0
338.843811 140.0
338.963684 164.0
339.097595 148.0
339.178467 252.0
339.377899 148.0
339.407227 164.0
339.854706 184.0
340.158081 388.0
340.449371 156.0
340.647705 140.0
341.044556 172.0
341.187225 660.0
341.559326 180.0
342.074493 144.0
342.117493 128.0
342.177551 156.0
342.455292 104.0
342.829987 100.0
343.011444 112.0
343.736694 188.0
343.847382 192.0
344.006104 168.0
344.137573 156.0
344.56189 160.0
345.076813 228.0
345.554565 140.0
345.758087 172.0
346.539429 192.0
346.728394 152.0
346.950806 188.0
347.180603 584.0
347.235657 196.0
347.273407 164.0
347.306793 140.0
347.878235 164.0
348.158356 2644.0
348.696655 232.0
348.814331 200.0
348.896118 144.0
349.1604 1192.0
349.301453 176.0
350.162811 1392.0
350.503998 176.0
350.90921 228.0
350.94754 176.0
351.162476 356.0
351.493835 132.0
351.604614 136.0
351.828033 148.0
352.12677 156.0
352.157715 160.0
352.543182 196.0
353.123322 528.0
353.263062 160.0
353.352844 144.0
353.487549 228.0
353.678406 152.0
354.131989 224.0
354.168274 1380.0
354.86969 172.0
355.177185 808.0
355.487793 188.0
355.552399 152.0
355.843536 108.0
356.175659 252.0
356.209167 156.0
356.619019 308.0
356.729431 164.0
356.964905 168.0
357.152557 216.0
357.205597 232.0
357.625 156.0
358.129608 132.0
358.47818 200.0
358.534698 184.0
359.141693 140.0
359.714752 152.0
359.847534 104.0
360.979156 160.0
361.166229 172.0
361.639191 152.0
361.75528 176.0
361.892822 144.0
362.007843 128.0
362.121796 172.0
362.324585 216.0
362.47995 216.0
363.172241 420.0
363.507568 196.0
363.606232 152.0
363.687042 236.0
363.898529 164.0
363.983856 212.0
364.141571 176.0
364.176331 332.0
364.407166 148.0
364.684875 144.0
364.920868 164.0
364.973785 516.0
365.019409 164.0
365.120361 200.0
365.185913 22972.0
366.187561 5636.0
366.495026 144.0
367.19223 1476.0
367.353027 180.0
367.464752 172.0
367.693695 180.0
367.97998 196.0
368.043884 120.0
368.150116 1456.0
368.184265 4500.0
368.391083 156.0
368.461212 140.0
368.561249 152.0
368.598755 192.0
369.154816 780.0
369.185211 1672.0
369.274261 196.0
369.302185 140.0
369.721924 96.0
369.940125 128.0
370.07254 144.0
370.158783 260.0
370.192078 320.0
370.609161 440.0
371.102844 180.0
371.178009 148.0
371.584106 144.0
371.73111 252.0
372.138458 160.0
372.230133 140.0
372.435211 200.0
372.660309 152.0
372.87265 140.0
373.762451 144.0
374.256195 96.0
374.325836 164.0
375.107941 140.0
375.215881 144.0
375.682526 140.0
375.761597 96.0
376.245941 172.0
376.376068 136.0
376.628235 180.0
376.656372 96.0
377.25473 124.0
377.443298 196.0
378.287109 152.0
378.409607 204.0
378.755646 148.0
378.945465 144.0
379.026825 164.0
379.199493 252.0
379.54422 168.0
380.184631 1440.0
380.644379 140.0
380.892914 188.0
381.050781 152.0
381.181458 696.0
381.234833 140.0
381.477234 152.0
381.94632 144.0
381.986298 100.0
382.113586 144.0
382.18924 1392.0
383.187775 528.0
383.382965 160.0
383.555847 192.0
383.794769 144.0
384.136414 184.0
384.192078 108.0
384.311035 164.0
384.691254 180.0
384.853577 148.0
385.524567 156.0
386.052734 104.0
386.154877 148.0
386.199921 132.0
386.338715 152.0
386.3974 168.0
387.164581 168.0
387.198395 120.0
387.289337 264.0
388.108978 168.0
388.188629 128.0
388.242279 164.0
388.289368 172.0
388.759155 96.0
389.663239 200.0
389.694672 148.0
389.812531 152.0
389.957947 184.0
390.161011 140.0
390.205597 148.0
390.305328 176.0
390.370728 172.0
390.469055 236.0
390.627289 132.0
390.933289 140.0
391.122192 152.0
391.319031 200.0
391.531647 156.0
391.775879 236.0
392.077087 104.0
392.503052 112.0
393.179565 180.0
393.297852 136.0
393.440094 168.0
393.657257 172.0
393.763885 148.0
394.427673 164.0
394.819092 172.0
394.871429 136.0
395.099915 140.0
395.196838 592.0
395.542816 152.0
395.624573 168.0
395.907379 168.0
396.087921 276.0
396.153809 148.0
396.200745 660.0
396.27179 204.0
396.323303 160.0
396.473907 156.0
396.521454 148.0
396.572632 96.0
396.66629 184.0
396.764252 204.0
396.820923 124.0
397.066345 424.0
397.119659 168.0
397.212708 55576.0
397.316589 204.0
397.37265 216.0
397.588409 120.0
397.704224 108.0
397.816864 252.0
397.850616 220.0
397.916168 100.0
397.948761 236.0
397.982208 168.0
398.045197 116.0
398.08847 180.0
398.214752 11564.0
398.377563 204.0
398.598114 124.0
398.639465 148.0
398.697601 96.0
398.824463 112.0
398.838593 188.0
398.867706 96.0
399.106293 112.0
399.216309 2160.0
399.412567 200.0
399.535278 180.0
399.946533 148.0
400.222443 456.0
400.306671 108.0
400.452606 140.0
400.653412 136.0
400.855225 108.0
401.200043 140.0
401.231812 156.0
401.443146 228.0
401.524567 104.0
401.853973 248.0
402.009583 160.0
402.156372 700.0
402.320923 252.0
402.492737 132.0
402.748199 140.0
402.780151 140.0
403.160645 204.0
403.524353 144.0
404.165161 1032.0
404.703735 156.0
404.742188 160.0
405.124268 164.0
405.180969 196.0
405.408752 148.0
405.531433 104.0
405.622833 128.0
406.142426 216.0
406.19696 156.0
406.350067 144.0
406.461212 132.0
406.676086 144.0
406.730377 168.0
406.819611 232.0
406.863922 172.0
407.350647 152.0
407.474487 136.0
407.535461 176.0
408.084534 164.0
408.39978 196.0
408.542175 148.0
409.610046 100.0
409.792633 152.0
410.032043 148.0
410.457703 284.0
410.795166 172.0
410.887451 128.0
410.96994 168.0
411.191895 140.0
411.296661 176.0
411.381622 152.0
411.608673 168.0
412.136841 168.0
412.747742 172.0
412.838806 128.0
412.892761 172.0
413.207031 560.0
413.370117 148.0
413.640015 188.0
414.211517 608.0
414.558624 100.0
415.070435 160.0
415.213989 156.0
415.257996 200.0
415.878754 228.0
416.170349 464.0
416.24353 136.0
416.564972 160.0
416.791779 132.0
416.894348 124.0
417.007874 232.0
417.177551 196.0
417.577087 148.0
417.853699 148.0
417.963531 116.0
418.148407 132.0
418.419403 164.0
419.170593 196.0
419.392975 144.0
419.74765 152.0
420.17337 388.0
420.55542 164.0
420.914703 252.0
420.963684 244.0
421.167755 240.0
421.833954 160.0
422.179199 144.0
422.308258 152.0
422.750092 192.0
422.921997 156.0
423.169861 196.0
423.347778 232.0
423.55835 116.0
423.622192 156.0
424.200256 120.0
424.31189 188.0
424.969177 152.0
425.259644 248.0
425.389618 164.0
425.58667 168.0
425.837158 140.0
425.966888 124.0
426.052643 132.0
426.441132 152.0
426.873474 144.0
426.950775 96.0
427.344025 164.0
427.909698 168.0
428.074402 140.0
428.11145 160.0
428.440948 176.0
428.818359 252.0
428.902496 192.0
429.505768 104.0
429.545746 188.0
429.636505 184.0
429.842804 140.0
429.925323 160.0
430.346375 184.0
430.565216 232.0
430.953522 140.0
431.150818 204.0
431.749359 144.0
432.151154 100.0
432.678192 236.0
432.798248 264.0
432.955597 156.0
433.069153 164.0
433.147614 100.0
433.412292 148.0
433.512177 132.0
434.131042 132.0
434.178955 1844.0
434.717468 140.0
434.803558 112.0
434.881348 180.0
435.089478 140.0
435.127533 136.0
435.181549 852.0
435.531189 236.0
436.100433 156.0
436.195007 3124.0
436.423431 172.0
436.973694 172.0
437.038635 164.0
437.195862 1112.0
437.381531 164.0
437.489746 156.0
437.685425 204.0
438.199127 460.0
438.360229 144.0
439.035095 104.0
439.20047 228.0
439.306671 308.0
439.38913 152.0
439.847412 128.0
440.21286 104.0
440.630829 176.0
440.730347 144.0
441.457672 252.0
441.551453 124.0
441.959656 184.0
442.487 144.0
442.708221 144.0
442.77594 208.0
442.925873 200.0
443.366638 180.0
443.456421 152.0
443.592987 164.0
443.903229 172.0
443.992554 160.0
444.159058 144.0
444.490509 140.0
444.649963 176.0
444.784271 180.0
445.086548 148.0
445.393127 156.0
445.951935 148.0
446.061249 156.0
446.188873 140.0
446.601624 132.0
446.717224 140.0
446.776123 172.0
447.081512 124.0
447.256012 144.0
447.5 140.0
447.58844 196.0
447.660004 160.0
447.750977 140.0
447.876038 192.0
448.196625 24080.0
448.312866 176.0
448.452362 104.0
448.520966 160.0
448.883209 132.0
449.089752 144.0
449.199463 6572.0
449.580475 120.0
449.659821 112.0
449.763794 184.0
449.970642 140.0
450.126862 160.0
450.205475 1452.0
450.447845 156.0
450.752045 148.0
451.02478 120.0
451.212006 648.0
451.33725 144.0
451.961365 172.0
452.093445 96.0
452.134399 124.0
452.201385 140.0
452.252289 148.0
452.890015 112.0
452.985931 168.0
453.113007 144.0
453.191437 212.0
453.244354 152.0
453.986176 216.0
454.037079 140.0
454.673431 140.0
454.906891 156.0
455.312622 128.0
456.177032 188.0
456.279053 168.0
456.4151 160.0
457.040375 184.0
457.138245 264.0
457.483002 152.0
457.512787 156.0
457.607819 100.0
457.749817 132.0
457.912659 168.0
458.665039 108.0
458.709839 160.0
458.845398 120.0
459.102081 156.0
459.255646 264.0
459.364807 108.0
459.647522 148.0
460.258881 144.0
461.362549 148.0
462.040436 144.0
462.318909 112.0
463.056641 164.0
463.148743 156.0
463.566589 104.0
464.053711 232.0
464.387695 136.0
464.49115 252.0
464.576935 188.0
464.972809 108.0
465.334961 160.0
466.586792 192.0
467.332764 188.0
467.54599 316.0
467.993683 144.0
468.078033 116.0
468.239136 168.0
468.553558 104.0
468.598419 196.0
468.721619 160.0
469.167755 140.0
469.279663 144.0
469.915955 180.0
470.636749 140.0
471.025421 140.0
471.09024 144.0
471.446533 132.0
471.950287 152.0
472.025635 172.0
472.231354 156.0
472.342346 156.0
472.404388 148.0
472.458008 140.0
472.53418 144.0
473.073303 160.0
473.140076 164.0
473.382538 152.0
473.7005 116.0
473.872009 164.0
474.001984 160.0
474.196991 184.0
475.020844 156.0
475.32019 152.0
475.550201 212.0
475.732635 144.0
476.134155 144.0
476.483826 184.0
476.857513 164.0
476.905334 216.0
477.457489 172.0
478.07959 208.0
478.158417 108.0
478.850159 200.0
478.932922 176.0
479.002625 264.0
479.067963 172.0
480.009369 152.0
480.6026 152.0
480.641876 144.0
480.934265 180.0
481.152527 264.0
481.838196 188.0
481.899353 188.0
483.633667 152.0
483.902496 260.0
483.965179 140.0
484.016357 148.0
484.520203 96.0
484.603271 140.0
485.175354 124.0
485.380646 132.0
485.430725 144.0
485.493103 180.0
486.054596 160.0
486.313538 176.0
486.363464 128.0
486.405701 152.0
486.53299 152.0
486.781433 144.0
487.007263 156.0
487.20282 108.0
487.295044 124.0
487.459747 156.0
487.536469 140.0
487.72345 152.0
488.704132 144.0
488.783325 148.0
488.902161 180.0
488.932953 156.0
489.195526 128.0
489.35025 140.0
489.428314 196.0
489.613495 124.0
489.721039 156.0
489.788391 232.0
489.91925 184.0
490.076202 152.0
490.965027 212.0
491.12265 236.0
491.528534 180.0
491.890411 176.0
491.938995 236.0
492.067017 164.0
493.361572 152.0
493.648834 204.0
494.361053 128.0
494.673309 196.0
494.773804 192.0
495.131348 140.0
495.184509 200.0
495.264374 132.0
495.379395 236.0
495.648071 164.0
495.683075 148.0
496.224152 104.0
497.171814 248.0
497.428101 216.0
497.858765 156.0
498.276306 148.0
498.784943 112.0
498.940948 108.0
499.0354 156.0
499.373688 124.0
499.409851 176.0
499.458771 160.0
500.117188 176.0
500.178497 144.0
500.235107 180.0
500.299805 188.0
500.563843 132.0
500.767365 140.0
500.936615 148.0
501.511047 96.0
501.997375 168.0
502.30957 292.0
502.725616 192.0
502.868652 148.0
503.059265 200.0
503.63974 200.0
503.907776 252.0
505.047699 196.0
505.265045 172.0
505.513 172.0
505.758972 204.0
506.177734 96.0
507.407654 244.0
507.546661 176.0
507.684052 168.0
507.75293 204.0
507.838135 168.0
507.87851 192.0
508.358551 176.0
508.793945 160.0
508.883331 140.0
509.516998 156.0
509.791809 100.0
509.871979 268.0
510.166534 116.0
511.104126 140.0
511.18808 140.0
511.23999 164.0
511.354797 220.0
511.812531 176.0
512.414307 140.0
512.471619 176.0
513.084778 148.0
513.148987 112.0
513.24939 120.0
513.356384 188.0
513.911194 180.0
513.995178 188.0
514.511475 176.0
515.072144 224.0
515.177673 152.0
515.785339 204.0
515.911926 324.0
516.052063 324.0
516.092773 148.0
516.577881 408.0
516.647583 172.0
516.857178 140.0
517.047241 148.0
517.395813 164.0
517.542725 176.0
517.627869 152.0
517.97998 180.0
518.047913 152.0
518.272461 148.0
518.360535 152.0
518.526184 108.0
518.591675 160.0
518.686829 176.0
518.84314 152.0
519.733887 188.0
519.929565 168.0
520.410767 148.0
520.574219 204.0
520.799316 100.0
520.851257 148.0
521.369202 148.0
522.406494 208.0
522.502197 164.0
522.792603 160.0
523.211365 152.0
523.689514 164.0
523.725952 168.0
524.050415 176.0
524.17334 160.0
524.582581 152.0
525.369324 200.0
525.499268 148.0
525.871704 124.0
526.105042 164.0
526.239319 224.0
526.888733 204.0
527.162415 152.0
527.248169 164.0
528.089417 204.0
528.972046 120.0
529.086975 152.0
529.627319 160.0
529.686829 172.0
529.755554 208.0
529.819702 156.0
529.941162 148.0
530.219116 136.0
530.282471 192.0
530.417053 180.0
530.582458 208.0
530.983948 140.0
531.177246 192.0
531.282104 140.0
531.337463 124.0
531.442688 252.0
532.121948 144.0
532.84436 136.0
533.201416 148.0
533.28363 140.0
533.615112 144.0
533.697205 152.0
533.812866 176.0
533.862976 124.0
534.955627 204.0
535.354431 168.0
535.704529 152.0
535.742798 180.0
535.901672 120.0
536.123779 192.0
536.19751 160.0
536.280457 144.0
536.619446 224.0
536.737549 164.0
537.032043 160.0
537.336487 168.0
537.576416 200.0
537.746765 128.0
538.356262 120.0
538.536682 144.0
538.629089 172.0
538.675232 144.0
538.767639 144.0
538.947815 176.0
538.99353 140.0
539.422485 228.0
539.844604 140.0
540.148987 196.0
540.403748 132.0
541.361877 156.0
541.487488 172.0
542.148254 192.0
542.232544 136.0
542.338196 232.0
542.602173 128.0
543.508667 144.0
543.658508 108.0
543.96814 156.0
544.128845 160.0
545.040222 100.0
545.222168 424.0
545.563354 136.0
545.998596 172.0
546.085327 136.0
546.230591 144.0
546.730957 160.0
547.240051 140.0
547.278259 164.0
548.229492 124.0
548.731934 152.0
549.247742 320.0
549.391357 192.0
549.431458 156.0
549.68811 160.0
549.761658 120.0
549.899719 104.0
550.024109 208.0
550.251099 116.0
550.533508 120.0
550.63269 116.0
550.728638 248.0
550.811096 120.0
551.098267 196.0
551.355957 152.0
551.580627 108.0
551.701111 204.0
551.981689 156.0
552.539124 176.0
552.706665 208.0
552.75 200.0
552.804932 148.0
553.207031 120.0
553.43689 152.0
553.877075 168.0
553.961426 160.0
554.203796 124.0
554.500244 140.0
554.707581 152.0
554.931519 216.0
555.5271 168.0
556.097168 96.0
556.216919 148.0
556.874268 196.0
557.12323 228.0
557.306458 156.0
557.41925 144.0
557.474609 168.0
557.832825 192.0
558.039673 148.0
558.342957 312.0
558.48645 144.0
559.246094 360.0
559.432251 140.0
559.554626 156.0
559.597168 124.0
559.895996 240.0
559.959473 200.0
560.006714 236.0
560.183105 180.0
560.230164 292.0
560.504028 112.0
560.713379 180.0
561.225098 124.0
561.514893 168.0
561.551086 100.0
561.826233 148.0
562.184814 200.0
562.227295 184.0
562.401917 172.0
562.539612 140.0
563.174194 160.0
563.24707 140.0
563.535278 196.0
563.637268 156.0
563.691589 156.0
563.743835 148.0
564.203064 136.0
564.315125 144.0
564.414429 208.0
565.029297 152.0
565.586182 168.0
565.696533 192.0
565.878967 112.0
566.014954 128.0
566.238953 112.0
566.293152 256.0
567.126099 212.0
567.216248 192.0
567.708862 144.0
567.914124 164.0
568.445496 148.0
568.912842 136.0
569.523193 172.0
569.741699 148.0
569.875671 156.0
570.176636 156.0
570.500183 124.0
571.388489 184.0
571.433411 124.0
571.450684 104.0
571.503235 128.0
571.557922 148.0
571.905273 152.0
571.990417 140.0
572.14856 236.0
572.905273 236.0
572.983215 124.0
573.400818 180.0
573.648682 160.0
573.855957 100.0
574.343628 184.0
575.242126 260.0
575.304016 152.0
575.526367 104.0
575.710266 132.0
575.800598 168.0
575.938843 160.0
576.154053 300.0
576.260376 148.0
576.600647 120.0
576.644836 256.0
577.150879 128.0
577.252014 2832.0
577.377747 200.0
577.60144 208.0
577.741211 164.0
577.877808 128.0
577.99469 132.0
578.141724 288.0
578.256348 2452.0
578.363525 140.0
578.437195 196.0
578.554138 140.0
578.604309 124.0
579.254639 284.0
579.373718 168.0
579.419678 120.0
579.509827 136.0
579.650391 216.0
579.809753 204.0
580.03595 272.0
580.097351 152.0
580.178833 156.0
580.232483 256.0
580.268555 144.0
580.341858 156.0
580.447327 228.0
580.52887 140.0
580.592651 168.0
580.736755 264.0
580.835815 144.0
581.239014 180.0
581.453064 252.0
581.65155 176.0
581.973145 148.0
582.270874 284.0
582.6073 188.0
582.929077 204.0
583.395264 144.0
583.440857 140.0
583.496216 180.0
583.580994 188.0
583.675659 112.0
583.781738 212.0
583.953064 152.0
584.029968 164.0
584.197021 176.0
584.631409 140.0
585.06958 104.0
585.517761 164.0
585.743591 160.0
586.05188 156.0
586.288025 160.0
586.36499 140.0
586.516235 180.0
586.768921 168.0
587.816711 176.0
587.927673 144.0
588.130371 272.0
588.165466 148.0
588.265564 164.0
588.514343 136.0
588.670776 168.0
588.721741 132.0
588.975403 148.0
589.023987 116.0
589.265198 156.0
589.307739 116.0
589.347351 152.0
589.434326 184.0
589.930115 148.0
590.292664 100.0
590.522034 148.0
590.643005 168.0
591.004089 200.0
591.191711 116.0
591.267029 400.0
591.378906 172.0
591.651794 136.0
591.823792 172.0
591.915833 176.0
592.259705 448.0
592.43811 128.0
593.055359 148.0
593.253784 360.0
593.421631 156.0
593.665161 176.0
593.898621 152.0
593.98468 136.0
594.080444 200.0
594.125916 204.0
594.249817 388.0
594.589478 160.0
594.863586 144.0
594.97522 284.0
595.108032 168.0
595.161804 148.0
595.244446 160.0
595.692993 120.0
595.849426 188.0
596.115784 116.0
596.237244 128.0
596.318298 204.0
596.411865 112.0
596.53479 128.0
596.75592 152.0
596.879822 108.0
597.183228 128.0
597.389221 200.0
597.522766 144.0
597.573486 220.0
597.609131 156.0
597.86731 140.0
598.229919 152.0
598.300537 188.0
598.500122 164.0
598.631897 124.0
598.68866 172.0
598.806946 184.0
598.87854 120.0
598.971069 188.0
599.065063 172.0
599.240784 132.0
599.332764 148.0
599.385986 208.0
599.610779 140.0
599.760559 96.0
600.366455 140.0
600.556641 268.0
600.744385 132.0
600.859863 96.0
600.98053 128.0
601.024963 156.0
601.068909 152.0
601.304749 96.0
601.466187 168.0
601.632874 292.0
601.893066 124.0
601.935425 164.0
601.973999 200.0
602.08429 172.0
602.123352 160.0
602.162415 140.0
602.200989 136.0
602.266846 104.0
602.547119 208.0
602.804688 148.0
602.879578 100.0
602.941895 192.0
603.002747 152.0
603.043762 104.0
603.161499 136.0
603.269897 136.0
603.313049 108.0
603.481628 112.0
603.677429 156.0
603.846191 124.0
603.943665 100.0
604.09729 132.0
604.195862 224.0
604.261292 108.0
604.303345 200.0
604.354065 184.0
604.435608 176.0
604.474792 192.0
604.585449 196.0
604.71228 212.0
604.801575 200.0
604.83252 200.0
604.944641 144.0
604.998291 120.0
605.118347 228.0
605.284912 232.0
605.3172 208.0
605.368408 120.0
605.4021 152.0
605.587952 232.0
605.762512 108.0
605.805908 164.0
605.847839 192.0
605.972839 196.0
606.094177 312.0
606.1651 184.0
606.215332 236.0
606.261353 192.0
606.304504 112.0
606.362122 228.0
606.400391 204.0
606.494934 488.0
606.597168 284.0
606.685059 140.0
606.747192 136.0
606.76355 172.0
606.778931 284.0
606.881897 264.0
606.925537 100.0
606.99353 120.0
607.048584 380.0
607.09613 324.0
607.178406 140.0
607.206787 132.0
607.259827 1200.0
607.330811 148.0
607.364746 176.0
607.51239 408.0
607.616638 116.0
607.673401 264.0
607.7453 464.0
607.78125 152.0
607.838989 288.0
607.870728 340.0
607.940735 220.0
608.055603 316.0
608.164551 620.0
608.214844 368.0
608.265869 916.0
608.354492 584.0
608.418457 336.0
608.460999 188.0
608.512451 584.0
608.553101 472.0
608.598938 292.0
608.654907 264.0
608.711182 468.0
608.776001 456.0
608.79718 420.0
608.812256 312.0
608.861328 436.0
608.872742 504.0
608.914307 572.0
608.945007 812.0
608.997864 320.0
609.094238 1408.0
609.154724 1140.0
609.202515 2004.0
609.282532 251732.0
609.455017 396.0
609.547668 352.0
609.603455 588.0
609.649414 184.0
609.733704 1136.0
609.828491 672.0
609.938049 232.0
610.024414 464.0
610.098572 9576.0
610.157227 1728.0
610.285889 209852.0
610.467529 192.0
610.524048 272.0
610.63092 284.0
610.678284 376.0
610.731018 376.0
610.783264 236.0
610.849548 344.0
610.896301 432.0
610.948608 484.0
611.019287 400.0
611.100159 532.0
611.142639 300.0
611.187927 472.0
611.286621 51844.0
611.428894 152.0
611.474915 428.0
611.573975 272.0
611.625305 272.0
611.649658 208.0
611.732788 276.0
611.771423 300.0
611.840759 228.0
611.954163 428.0
612.047119 340.0
612.101746 492.0
612.15741 124.0
612.287354 4380.0
612.455261 216.0
612.504578 276.0
612.578064 192.0
612.656372 96.0
612.709717 216.0
612.757568 196.0
612.810852 176.0
612.901428 112.0
612.977295 336.0
613.077698 344.0
613.18042 272.0
613.293579 800.0
613.392029 368.0
613.448608 312.0
613.500427 300.0
613.55542 312.0
613.60083 184.0
613.642334 424.0
613.713684 356.0
613.757324 428.0
613.789429 332.0
613.831177 336.0
613.874695 272.0
613.967041 248.0
614.017517 136.0
614.088867 180.0
614.200562 312.0
614.282837 408.0
614.332031 168.0
614.401062 300.0
614.437927 316.0
614.502258 208.0
614.553406 184.0
614.627502 336.0
614.684998 192.0
614.763 384.0
614.831177 208.0
614.934998 152.0
614.979553 132.0
615.049072 136.0
615.207336 100.0
615.424866 164.0
615.468689 168.0
615.606873 136.0
615.704468 136.0
615.752747 160.0
615.917969 168.0
616.106934 124.0
616.340088 236.0
616.519958 120.0
616.637268 120.0
616.864685 112.0
616.92627 140.0
617.370605 116.0
617.963684 120.0
618.716309 136.0
618.852173 136.0
619.185791 160.0
619.611084 116.0
619.653259 112.0
619.972229 144.0
621.883606 104.0
622.030151 132.0
622.573853 124.0
623.933228 184.0
626.441345 152.0
626.508118 104.0
628.875061 100.0
629.102844 148.0
629.65509 116.0
630.639771 180.0
633.581787 112.0
637.800354 172.0
638.363464 104.0
638.695374 164.0
638.851318 140.0
640.210266 140.0
654.048889 104.0
659.063599 120.0
661.709961 152.0
678.545288 144.0
697.92334 160.0
700.301941 152.0
701.223999 144.0
720.096252 164.0
723.459595 152.0
727.590942 120.0
728.403748 168.0
730.693848 176.0
743.362488 116.0
744.33075 156.0
766.589478 140.0
778.731201 124.0
788.31311 172.0
799.158325 120.0
807.961243 208.0
819.08197 140.0
829.229614 140.0
831.460571 144.0
843.770142 164.0
845.059875 156.0
856.298279 208.0
861.50946 100.0
862.915588 140.0
871.114319 140.0
905.698059 156.0
906.964966 128.0
907.447937 196.0
948.123962 144.0
958.275208 164.0
984.745239 140.0
986.535828 120.0
989.654175 156.0
1024.938477 148.0
1025.483276 100.0
1030.438599 104.0
1081.390137 128.0
1086.903076 168.0
1163.617554 160.0
1180.167114 212.0
1198.341919 152.0
1218.572388 240.0
1271.450439 208.0
1274.774048 176.0
1286.126343 152.0
1287.47583 148.0
1306.01709 196.0
1308.571655 192.0
1311.712646 208.0
1317.153442 144.0
1346.438843 164.0
1346.840576 164.0
1351.014526 152.0
1369.10022 188.0
1369.873535 260.0
1374.865112 196.0
1389.708984 172.0
1393.04248 160.0
1395.249512 172.0
1396.03772 160.0
1396.565796 300.0
1399.140503 172.0
1405.96814 172.0
1408.372192 140.0
1413.419312 100.0
1418.45874 216.0
1422.486938 204.0
1423.966064 164.0
1427.077148 140.0
1428.137451 164.0
1432.766968 156.0
1439.774292 164.0
1442.894897 152.0
1454.435669 140.0
1454.690186 152.0
1456.550659 244.0
1466.731689 144.0
1472.950562 192.0
1477.468506 244.0
1488.344116 148.0
1490.856079 140.0
1493.254639 172.0
1501.672852 192.0
1513.751953 160.0
1520.876709 172.0
1521.924805 148.0
1523.547974 160.0
1523.850952 188.0
1524.853394 232.0
1529.302246 148.0
1535.847168 140.0
1536.182617 184.0
1539.812134 176.0
1543.829102 156.0
1550.318848 168.0
1550.56958 172.0
1559.933594 168.0
1560.759033 140.0
1565.480347 160.0
1566.780029 168.0
1567.126709 168.0
1573.894165 140.0
1576.145264 184.0
1581.554565 188.0
1585.800049 152.0
1587.21106 160.0
1590.519409 228.0
1593.179565 180.0
1594.395264 192.0
1594.721069 184.0
1595.245728 144.0
1602.543579 168.0
1603.197021 164.0
1609.953979 148.0
1613.309814 244.0
1616.149048 200.0
1618.350098 168.0
1619.367065 152.0
1630.583374 152.0
1631.274658 176.0
1632.689697 180.0
1639.32312 192.0
1642.386841 152.0
1643.847046 148.0
1647.787354 252.0
1652.298584 180.0
1652.937866 168.0
1654.427002 152.0
1655.544434 140.0
1658.671753 184.0
1666.909424 156.0
1668.193604 192.0
1668.722046 168.0
1671.381714 280.0
1671.544434 212.0
1671.935059 144.0
1672.244385 244.0
1675.778442 188.0
1684.549316 160.0
1684.85083 200.0
1685.945679 144.0
1689.028076 176.0
1689.44519 144.0
1692.064087 176.0
1693.898438 164.0
1698.435059 244.0
1701.369141 200.0
1701.47583 188.0
1701.861694 152.0
1705.581177 208.0
1706.051758 156.0
1707.515381 164.0
1708.337891 148.0
1711.276001 216.0
1717.547241 180.0
1724.943359 180.0
1726.458862 164.0
1726.67395 168.0
1729.015259 200.0
1729.081421 256.0
1729.801514 168.0
1732.045532 188.0
1733.63623 148.0
1734.348999 184.0
1734.945923 220.0
1735.650635 188.0
1737.998047 188.0
1741.185669 200.0
1743.229248 164.0
1745.049683 168.0
1746.089111 180.0
1749.958496 268.0
1752.315552 208.0
1753.965576 196.0
1757.693115 176.0
1758.753296 216.0
1760.990967 172.0
1762.619995 140.0
1765.52771 172.0
1767.687378 164.0
1769.629272 156.0
1771.982788 184.0
1773.424072 172.0
1774.991821 172.0
1778.632935 140.0
1781.899536 168.0
1782.27771 152.0
1784.328491 212.0
1788.391479 144.0
1788.652466 144.0
1790.501831 116.0
1790.791138 140.0
1794.557983 176.0
1795.325317 140.0
1795.510864 172.0
1800.152222 176.0
1800.397217 148.0
1803.692261 200.0
1807.498047 144.0
1807.743408 192.0
1809.021484 164.0
1809.139893 200.0
1811.146851 148.0
1815.045288 188.0
1818.285767 180.0
1821.011108 240.0
1821.817993 228.0
1822.859741 184.0
1824.920044 148.0
1825.73645 188.0
1827.607788 168.0
1828.765137 172.0
1829.752686 144.0
1834.131226 200.0
1834.97522 160.0
1837.388794 156.0
1839.4198 196.0
1841.656982 192.0
1848.581909 148.0
1849.951294 188.0
1851.509644 180.0
1852.82019 160.0
1854.122559 152.0
1854.234009 152.0
1854.371216 172.0
1856.431152 132.0
1857.380737 168.0
1857.517944 156.0
1858.973755 212.0
1860.349731 144.0
1861.792236 256.0
1864.188965 184.0
1864.610107 176.0
1865.546997 168.0
1866.561523 152.0
1866.647461 212.0
1872.490845 156.0
1873.042114 180.0
1874.147705 104.0
1874.954834 160.0
1875.230591 144.0
1876.342529 188.0
1876.790894 144.0
1877.239258 152.0
1878.645142 236.0
1880.008423 216.0
1880.690186 164.0
1882.641479 172.0
1883.263306 176.0
1884.680054 156.0
1885.137939 180.0
1885.751587 172.0
1887.757324 228.0
1889.080566 164.0
1890.270508 224.0
1890.80249 172.0
1891.564087 216.0
1895.452759 148.0
1895.937988 140.0
1896.362671 148.0
1897.281494 164.0
1899.059204 208.0
1901.011108 192.0
1902.356445 140.0
1905.361206 156.0
1906.490845 164.0
1908.750977 180.0
1909.055298 172.0
1911.360474 196.0
1911.525879 144.0
1913.101196 208.0
1913.579956 168.0
1913.858643 168.0
1916.567505 156.0
1917.935669 160.0
1920.272339 160.0
1920.56897 148.0
1922.287598 232.0
1924.450073 252.0
1925.954346 144.0
1928.654297 164.0
1929.23999 164.0
1929.432373 144.0
1931.119995 184.0
1931.504883 192.0
1931.907227 164.0
1932.519653 180.0
1934.725098 156.0
1935.548096 192.0
1935.76709 204.0
1937.571411 196.0
1942.077026 180.0
1942.778809 156.0
1943.954468 168.0
1946.052368 208.0
1946.307007 176.0
1946.939209 212.0
1947.86145 216.0
1948.637451 208.0
1952.502197 180.0
1952.598999 156.0
1954.059204 200.0
1959.482544 208.0
1960.833862 168.0
1962.117676 196.0
1969.504639 160.0
1971.176514 132.0
1974.913208 160.0
1978.868774 204.0
1980.028809 200.0
1981.224609 184.0
1981.365601 140.0
1984.681152 164.0
1984.760986 140.0
1986.916138 172.0
1987.297729 144.0
1987.773438 196.0
1989.383301 172.0
1992.5448 208.0
1993.357422 176.0
1994.002075 160.0
1995.12207 192.0
1995.664429 164.0
1996.642578 164.0
1997.069458 168.0
1997.460815 164.0
1997.941284 188.0
1998.679688 260.0
1998.982178 284.0
1999.409424 208.0
