>compound NCGC00160175-01!PTEROCARPIN METHYLETHER
>formula C17H14O5
>ionization [M+H]+
>parentmass 299.092
#inchi InChI=1S/C17H14O5/c1-18-9-2-3-10-13(4-9)19-7-12-11-5-15-16(21-8-20-15)6-14(11)22-17(10)12/h2-6,12,17H,7-8H2,1H3/t12-,17-/m0/s1
#inchikey YLZYAUCOYZKLMA
#Ion_Source LC-ESI
#Instrument qTOF
#Compound_Source Prestwick Phytochem Lib
#PI Dorrestein
#Data_Collector VVP/LMS
#Scan -1
#Precursor_MZ 299.092
#ExactMass 298.084
#Charge 1
#CAS_Number N/A
#Pubmed_ID N/A
#Smiles COC1=CC2=C(C=C1)[C@@H]3OC4=C(C=C5OCOC5=C4)[C@@H]3CO2
#INCHI_AUX N/A
#Library_Class 1
#SpectrumID CCMSLIB00000078686
#IonMode Positive
#UpdateWorkflowName UPDATE-SINGLE-ANNOTATED-GOLD
#LibraryQualityString Gold
#TaskID 67c915c6594c435cadc1fe2b5358144d
##Scan# 2450
#SpectrumFile p1-A02_GA2_01_17875.mzXML
#LibraryName phytochem_lib.mgf
#MQScore -1
#Organism phytochem_lib
#TIC_Query 0
#RT_Query -1
#MZErrorPPM -1
#SharedPeaks 0
#MassDiff 0
#LibMZ -1
#SpecMZ 299.092
#SpecCharge 0
#internalFilename spec-00000.mgf

>collision 10
94.971344 140.0
95.822746 156.0
95.990364 84.0
96.019615 192.0
96.052765 132.0
96.885483 212.0
97.148155 56.0
99.57193 228.0
100.55938 60.0
101.068939 184.0
102.615417 140.0
103.952347 200.0
104.439911 192.0
104.590469 156.0
104.826706 132.0
105.030571 160.0
106.095901 60.0
107.010086 196.0
107.143951 216.0
107.669907 184.0
108.335892 104.0
108.96653 212.0
109.066139 908.0
110.066452 348.0
110.53022 136.0
110.764687 80.0
110.817055 156.0
111.665077 172.0
111.795502 168.0
112.069229 148.0
114.447723 108.0
115.04892 112.0
115.211212 40.0
115.236847 148.0
115.442032 168.0
115.75444 212.0
116.026535 148.0
117.032379 148.0
117.131035 172.0
117.182732 184.0
118.368477 208.0
118.945137 84.0
119.047173 224.0
119.151863 100.0
120.054688 132.0
120.668221 148.0
121.027977 832.0
121.059601 164.0
121.175957 80.0
121.612312 184.0
122.042862 140.0
122.38829 216.0
122.599747 136.0
122.791534 116.0
123.044327 1036.0
124.957832 152.0
125.456665 164.0
125.867165 80.0
126.882896 164.0
127.706963 124.0
128.05806 148.0
128.193222 72.0
128.326202 48.0
128.648804 140.0
129.078049 164.0
130.283752 92.0
131.050415 124.0
131.349045 212.0
131.456268 200.0
131.903885 188.0
132.391205 160.0
132.929871 140.0
133.026642 432.0
133.079315 184.0
133.929901 168.0
134.033554 180.0
134.492462 160.0
135.046005 188.0
135.785751 224.0
136.196533 136.0
136.412628 188.0
136.954758 72.0
136.987366 76.0
137.019989 136.0
137.060059 5400.0
137.229736 44.0
137.28569 120.0
137.416306 28.0
137.610855 88.0
137.652039 108.0
137.729095 92.0
137.810867 44.0
138.059799 476.0
138.442398 160.0
140.062866 152.0
140.862473 36.0
141.068039 172.0
142.076813 128.0
143.859146 208.0
143.926468 100.0
144.033463 104.0
144.105118 208.0
145.021591 148.0
146.037155 200.0
146.070831 140.0
146.639038 168.0
146.706528 204.0
147.045776 508.0
147.102127 228.0
147.452332 48.0
148.049454 288.0
148.333313 200.0
149.467438 132.0
149.769287 88.0
150.047073 116.0
150.37149 160.0
150.500854 44.0
150.603424 128.0
150.649826 168.0
150.955322 200.0
150.98468 144.0
151.007385 168.0
151.038666 13700.0
151.082504 76.0
151.158356 76.0
151.190155 64.0
151.234207 76.0
151.258682 100.0
151.305191 80.0
151.327225 44.0
151.388443 84.0
151.410477 64.0
151.442322 144.0
151.491577 184.0
151.5354 52.0
151.743713 76.0
151.90802 192.0
152.041824 996.0
152.08223 228.0
152.885849 100.0
152.9646 56.0
153.046509 264.0
153.069443 536.0
153.130997 96.0
153.27243 168.0
153.318436 108.0
153.432632 80.0
153.592911 120.0
154.074249 176.0
154.595932 128.0
155.05014 332.0
155.086273 192.0
155.262299 40.0
156.059647 168.0
157.067886 336.0
158.072174 128.0
159.047028 176.0
161.028671 200.0
161.060287 884.0
162.03009 152.0
162.064728 360.0
162.768112 56.0
163.039917 128.0
163.072952 276.0
164.06308 116.0
165.947189 104.0
166.229324 60.0
166.437225 76.0
167.054977 256.0
168.054337 196.0
169.063339 352.0
170.737045 60.0
171.080475 144.0
173.397232 112.0
174.339325 148.0
175.039963 1640.0
176.044128 176.0
176.400314 80.0
177.019379 136.0
177.054153 480.0
177.276321 64.0
179.048172 368.0
180.05484 164.0
181.057648 180.0
182.074722 232.0
183.081161 176.0
184.05806 248.0
185.058914 392.0
185.100037 152.0
185.930435 168.0
186.066147 152.0
187.069229 192.0
191.034256 152.0
192.050629 68.0
192.895508 136.0
195.038071 136.0
195.080185 180.0
195.73912 36.0
195.914566 36.0
197.063034 304.0
198.073868 140.0
198.449295 176.0
198.920593 116.0
199.072189 160.0
199.195755 88.0
200.07872 228.0
200.180084 200.0
202.096573 48.0
204.984177 116.0
208.04158 152.0
209.061798 160.0
210.066971 152.0
211.074127 144.0
213.063354 172.0
214.0522 128.0
215.568985 108.0
216.063095 172.0
217.900604 80.0
221.06781 176.0
222.451859 20.0
223.075653 176.0
224.072433 112.0
225.053741 136.0
225.084732 156.0
226.057465 128.0
227.068817 332.0
227.544632 176.0
228.076431 188.0
229.081299 116.0
232.937973 108.0
237.04895 184.0
239.072098 124.0
240.07959 168.0
240.516388 32.0
241.091705 364.0
242.086884 148.0
242.409027 48.0
246.063568 196.0
248.570541 20.0
248.777679 172.0
252.046677 176.0
253.038376 192.0
253.080933 128.0
254.061127 192.0
255.055847 152.0
255.152603 132.0
259.013702 156.0
262.936096 196.0
265.050873 124.0
267.059143 392.0
267.099304 164.0
267.532074 60.0
268.072723 104.0
269.035248 188.0
269.082703 808.0
270.089325 100.0
271.08548 156.0
277.927399 48.0
281.044922 104.0
281.084076 208.0
282.083527 132.0
283.058716 432.0
284.062439 128.0
285.029297 144.0
285.557068 32.0
297.073639 348.0
298.0914 196.0
300.049744 128.0
310.053314 96.0
319.509064 20.0
403.044006 80.0
411.688141 136.0
452.246338 100.0
477.300873 76.0
492.76825 20.0
498.657104 92.0
650.391785 88.0
679.187378 28.0
746.888855 20.0
802.280518 20.0
902.586426 172.0
909.835693 212.0
960.3125 264.0
976.190674 180.0
1009.27948 132.0
1035.419922 116.0
1041.859497 160.0
1042.193604 232.0
1070.387939 68.0
1071.169434 160.0
1081.740845 108.0
1091.160889 164.0
1095.945435 252.0
1099.057495 108.0
1106.631592 240.0
1107.399658 148.0
1108.731323 132.0
1130.373047 140.0
1148.585693 164.0
1184.508911 220.0
1189.823242 100.0
1190.708984 132.0
1204.849487 192.0
1218.198242 176.0
1249.129272 200.0
1250.318359 212.0
1253.134766 52.0
1266.464233 188.0
1275.055786 196.0
1280.640503 208.0
1282.471558 48.0
1282.699585 124.0
1288.665283 188.0
1291.338745 196.0
1293.556641 200.0
1298.708374 172.0
1299.642578 104.0
1303.704956 188.0
1315.032837 148.0
1334.285767 204.0
1336.12561 192.0
1344.475464 156.0
1348.280151 148.0
1369.430542 132.0
1382.149536 60.0
1386.207153 248.0
1416.163452 108.0
1433.123657 164.0
1434.970093 196.0
1437.617554 132.0
1440.138916 228.0
1448.133057 164.0
1452.233276 164.0
1458.398193 168.0
1462.101807 168.0
1463.363525 168.0
1463.78418 140.0
1464.477051 176.0
1468.84436 60.0
1475.136108 136.0
1477.805054 184.0
1478.187622 44.0
1482.084839 188.0
1487.683228 208.0
1494.438232 140.0
1495.046143 188.0
1497.794556 144.0
