>compound Benzo[a]phenanthridine-10,11-diol, 5,6,6a,7,8,12b-hexahydro-, trans- [CAS]
>formula C17H17NO2
>ionization [M+H]+
>parentmass 268.13320523609053
#inchi InChI=1S/C17H17NO2/c19-15-7-10-5-6-14-17(13(10)8-16(15)20)12-4-2-1-3-11(12)9-18-14/h1-4,7-8,14,17-20H,5-6,9H2/t14-,17-/m1/s1
#inchikey BGOQGUHWXBGXJW
#Ion_Source LC-ESI
#Instrument qTof
#Compound_Source Commercial
#PI Dorrestein
#Data_Collector Garg_Neha
#Scan -1
#Precursor_MZ 268.133
#ExactMass 267.126
#Charge 1
#CAS_Number N/A
#Pubmed_ID N/A
#Smiles Oc1cc2CC[C@H]3NCc4ccccc4[C@@H]3c2cc1O
#INCHI_AUX N/A
#Library_Class 1
#SpectrumID CCMSLIB00000079098
#IonMode Positive
#UpdateWorkflowName UPDATE-SINGLE-ANNOTATED-GOLD
#LibraryQualityString Gold
#TaskID 278b19f5865741e282cec7349aa7e7a1
##Scan# 1009
#SpectrumFile NCP003432_G2_H11_BD3_01_15725.mzXML
#LibraryName NIHcollectionI_05062014.mgf
#MQScore -1
#Organism NIHcollectionI_05062014
#TIC_Query 0
#RT_Query -1
#MZErrorPPM -1
#SharedPeaks 0
#MassDiff 0
#LibMZ -1
#SpecMZ 268.133
#SpecCharge 0
#internalFilename spec-00000.mgf

>collision 10
44.949909 144.0
44.961922 156.0
45.415867 180.0
45.427551 184.0
45.594593 176.0
45.83358 220.0
46.025116 176.0
46.521996 172.0
47.040653 192.0
47.273003 148.0
47.403095 140.0
47.433247 172.0
47.497696 152.0
47.721542 212.0
48.050716 172.0
48.8153 248.0
49.075687 140.0
49.261303 156.0
49.319992 152.0
49.750034 192.0
49.806206 176.0
49.851913 196.0
49.866623 196.0
49.908794 160.0
49.927814 168.0
49.984035 180.0
50.055134 180.0
50.393658 240.0
50.602982 152.0
50.937668 176.0
51.089775 144.0
51.451756 164.0
51.734818 224.0
51.803555 144.0
52.434338 204.0
52.938526 244.0
53.818268 168.0
54.30558 192.0
54.320248 260.0
54.342255 196.0
54.88942 164.0
55.026642 168.0
55.15073 164.0
55.776237 148.0
55.987511 164.0
56.041138 184.0
56.324123 168.0
56.391823 164.0
56.538387 184.0
56.718399 128.0
56.994442 160.0
57.21384 216.0
57.358456 152.0
58.02058 204.0
58.388042 148.0
59.37923 236.0
60.649712 160.0
60.707077 172.0
61.392876 172.0
61.444351 160.0
61.516136 176.0
61.664524 144.0
61.99474 200.0
62.374557 168.0
62.429588 208.0
62.475201 160.0
62.522697 172.0
62.569626 196.0
63.080753 144.0
63.408394 160.0
63.452778 156.0
63.741653 184.0
63.771847 192.0
64.043922 156.0
64.133148 152.0
64.208084 140.0
64.423569 140.0
64.930969 188.0
64.971069 140.0
64.987114 140.0
65.035255 152.0
65.506393 168.0
65.738564 184.0
66.160416 140.0
66.464859 212.0
66.664658 168.0
66.902321 192.0
67.089661 240.0
67.393227 176.0
67.677826 148.0
67.81707 164.0
68.535759 232.0
68.594551 172.0
68.640709 180.0
68.871758 144.0
69.060188 172.0
69.123055 176.0
69.333359 204.0
69.543991 168.0
69.754944 140.0
69.889656 168.0
70.067802 216.0
70.289558 192.0
70.413094 164.0
70.666183 168.0
71.637543 256.0
72.355278 216.0
72.600967 140.0
73.272377 160.0
73.558868 144.0
73.78437 164.0
73.803177 176.0
74.102699 160.0
74.265556 148.0
74.789604 160.0
75.008362 200.0
75.098473 184.0
75.31723 144.0
75.936867 232.0
76.331085 260.0
77.119072 144.0
77.621513 224.0
77.798721 196.0
78.074585 192.0
78.174858 192.0
79.351242 180.0
79.431442 212.0
79.467331 152.0
79.715111 156.0
79.989746 184.0
80.085152 168.0
80.731216 140.0
80.755569 156.0
81.597267 140.0
82.063576 180.0
82.410118 208.0
82.58004 140.0
82.933357 144.0
83.878288 152.0
83.967392 120.0
84.012375 200.0
84.382141 164.0
84.51017 168.0
84.715218 184.0
84.791046 176.0
84.810501 160.0
85.359428 148.0
85.46611 148.0
86.040237 168.0
86.505157 164.0
86.52182 164.0
86.664429 176.0
87.302299 208.0
87.615677 144.0
87.919609 164.0
88.061493 144.0
88.169853 148.0
88.250237 180.0
88.390518 148.0
88.765152 152.0
88.952774 188.0
90.175201 160.0
90.409714 152.0
91.054176 2372.0
91.262283 140.0
91.337494 160.0
91.371735 232.0
91.745003 176.0
91.823784 128.0
92.058464 152.0
92.172523 424.0
92.407707 192.0
92.898148 156.0
92.911575 156.0
93.072792 168.0
93.276436 180.0
93.508286 184.0
93.552452 140.0
93.738342 228.0
94.012169 224.0
94.070068 164.0
94.882965 160.0
95.048744 116.0
95.068779 144.0
95.398972 156.0
96.260849 272.0
96.424232 140.0
96.467232 196.0
96.837051 256.0
96.850044 180.0
97.394081 140.0
97.525726 156.0
98.612427 116.0
98.687775 204.0
98.884666 192.0
99.257095 196.0
99.636185 180.0
99.914513 180.0
100.047852 144.0
101.085724 168.0
101.135757 328.0
101.83551 140.0
101.907829 176.0
102.610237 220.0
102.739311 172.0
103.054276 296.0
103.344566 192.0
103.705872 208.0
104.992821 144.0
105.033379 140.0
105.290779 164.0
106.00679 160.0
106.232315 144.0
106.503273 236.0
107.002975 144.0
107.050781 184.0
107.287277 216.0
107.330574 196.0
107.966591 140.0
107.993477 172.0
108.233536 196.0
108.473862 156.0
108.687469 152.0
109.019714 168.0
109.152756 148.0
109.689896 192.0
109.783714 184.0
109.906792 144.0
110.006966 148.0
110.063332 148.0
110.107185 168.0
110.643387 168.0
112.71843 184.0
113.14991 152.0
113.505859 200.0
113.626755 192.0
114.208809 220.0
114.447159 208.0
114.764938 136.0
114.80941 156.0
115.056137 332.0
115.073997 204.0
115.49926 196.0
116.169731 212.0
116.648598 148.0
116.771156 200.0
117.057686 140.0
117.339638 144.0
117.520805 148.0
117.643822 156.0
117.91114 152.0
118.042618 172.0
118.065781 25492.0
118.115463 212.0
118.675789 156.0
118.747742 156.0
119.068817 1696.0
119.736221 148.0
120.079681 192.0
121.031174 220.0
121.180115 156.0
121.263382 140.0
121.519943 148.0
121.596748 152.0
121.732857 208.0
122.482826 212.0
122.502647 176.0
123.044403 15000.0
123.075233 260.0
123.136909 108.0
124.048004 596.0
124.287598 124.0
124.763062 120.0
124.798409 144.0
125.047478 108.0
125.171234 160.0
125.367073 164.0
125.713165 196.0
125.766724 184.0
126.15316 156.0
127.055099 552.0
127.968117 204.0
128.06311 316.0
128.705414 192.0
128.88385 208.0
129.070999 556.0
129.35878 144.0
129.395004 168.0
130.073288 132.0
130.306091 144.0
130.486267 172.0
130.690964 140.0
130.795059 184.0
131.050751 412.0
131.071213 268.0
131.563858 140.0
131.673462 152.0
131.747726 188.0
132.056366 172.0
132.180954 164.0
132.911911 168.0
134.63147 172.0
134.860184 148.0
135.345993 148.0
135.388901 184.0
135.809494 152.0
136.329529 220.0
136.497269 128.0
136.652649 192.0
136.999634 164.0
137.058289 160.0
137.489273 144.0
137.580307 196.0
138.068649 196.0
138.122437 204.0
138.197296 164.0
138.621109 160.0
138.780502 144.0
139.043228 148.0
139.552963 188.0
139.820755 124.0
139.85173 148.0
141.068695 2320.0
141.117126 160.0
141.23912 148.0
141.712585 192.0
142.076553 524.0
142.132263 180.0
142.203461 160.0
142.690414 164.0
143.049637 356.0
143.08168 304.0
143.196564 176.0
143.435532 260.0
144.077484 320.0
144.298828 216.0
144.345139 156.0
144.453796 120.0
144.775833 188.0
145.065781 252.0
145.850723 160.0
145.961304 180.0
146.019028 148.0
146.095642 1284.0
146.194641 164.0
146.415176 172.0
146.461884 224.0
146.478745 188.0
146.669098 204.0
147.045212 176.0
147.098816 376.0
147.74852 148.0
147.833206 156.0
147.995377 140.0
148.056107 160.0
148.269104 140.0
148.385452 148.0
148.467896 148.0
148.586761 228.0
149.061279 564.0
149.303314 208.0
149.420441 128.0
149.819321 152.0
149.894852 196.0
151.054291 160.0
151.311493 164.0
151.497604 144.0
151.558853 180.0
151.992859 160.0
152.059555 372.0
152.15239 176.0
152.877487 156.0
152.993164 152.0
153.025177 168.0
153.064377 328.0
153.286255 168.0
153.804169 176.0
153.952301 180.0
154.075882 124.0
154.543137 184.0
154.691559 144.0
155.080444 160.0
155.415237 168.0
155.472305 172.0
155.737961 160.0
156.063492 152.0
156.172913 196.0
156.267441 156.0
156.665787 180.0
156.718094 148.0
156.762955 172.0
156.90004 152.0
157.042175 172.0
157.279205 140.0
158.101471 172.0
158.16655 196.0
159.045898 336.0
159.971375 224.0
160.053024 400.0
160.590073 96.0
161.093536 140.0
162.05455 168.0
162.6483 152.0
162.66861 156.0
163.031799 184.0
163.055344 152.0
163.255508 172.0
163.341995 140.0
164.058411 176.0
164.830887 176.0
164.853882 184.0
165.068756 1768.0
165.438416 252.0
165.572739 232.0
165.913528 156.0
166.07579 500.0
166.106064 144.0
166.531937 192.0
166.75032 148.0
166.878845 156.0
166.917419 168.0
167.084213 812.0
167.133484 172.0
167.465576 164.0
168.048157 172.0
168.089325 288.0
168.561981 160.0
168.585236 176.0
170.406815 200.0
170.539352 164.0
170.960663 144.0
171.012726 144.0
171.400742 168.0
171.434692 144.0
171.700531 196.0
172.00058 192.0
172.232971 208.0
172.31134 148.0
172.441986 208.0
172.758102 168.0
172.878738 160.0
172.897049 160.0
173.058578 1020.0
173.114334 180.0
173.297684 160.0
174.066132 132.0
174.352554 220.0
174.673325 164.0
174.870651 148.0
174.997009 140.0
175.068985 192.0
175.386902 196.0
175.840546 164.0
176.067474 280.0
176.387283 140.0
176.942825 144.0
177.019608 148.0
177.069366 656.0
177.549606 144.0
178.076981 2064.0
178.798233 144.0
179.085663 1448.0
179.594864 140.0
179.901718 196.0
179.96846 144.0
180.09137 496.0
180.120682 148.0
180.216858 196.0
180.318405 208.0
180.40126 192.0
181.065506 524.0
181.100632 1300.0
181.659866 156.0
181.694733 176.0
182.107376 296.0
182.839401 212.0
182.941681 160.0
183.127472 240.0
183.189423 200.0
183.317245 136.0
183.537094 132.0
183.564056 176.0
183.625946 224.0
183.984955 160.0
184.160477 180.0
185.012253 140.0
186.167297 188.0
186.593903 276.0
187.052658 188.0
188.075806 236.0
188.328201 160.0
188.849045 172.0
188.965271 164.0
189.07019 3176.0
189.248581 188.0
189.347153 180.0
189.413895 132.0
190.032455 176.0
190.077972 21644.0
190.423096 108.0
190.661896 156.0
190.751968 156.0
191.082581 5220.0
191.166428 144.0
191.307739 104.0
192.064423 176.0
192.087875 808.0
192.131622 160.0
192.200592 140.0
192.479385 160.0
192.639572 148.0
192.918671 168.0
193.100723 232.0
193.544022 120.0
193.829727 156.0
193.923447 180.0
194.077255 284.0
194.103653 152.0
194.332535 236.0
194.669724 160.0
194.916946 224.0
195.081635 932.0
195.117615 308.0
195.498138 208.0
196.051392 184.0
196.095093 192.0
196.119186 176.0
196.855713 184.0
197.118301 144.0
197.361481 216.0
198.260025 176.0
198.282455 160.0
199.497818 152.0
199.637115 244.0
199.919708 156.0
200.139282 180.0
200.869202 156.0
201.080811 164.0
202.024918 160.0
202.077637 3296.0
202.389648 160.0
202.417969 180.0
202.440613 228.0
202.466873 156.0
203.03447 240.0
203.08606 14464.0
203.26268 160.0
203.6987 172.0
204.029541 168.0
204.092957 11716.0
204.164948 96.0
204.193512 160.0
204.245651 168.0
204.530106 152.0
204.627502 252.0
204.848953 144.0
205.030716 160.0
205.06691 648.0
205.101837 71708.0
205.226852 188.0
205.321381 152.0
205.430954 176.0
205.534775 116.0
206.10524 10316.0
206.263901 168.0
206.420547 100.0
206.484604 196.0
206.849167 164.0
206.996796 132.0
207.079422 648.0
207.111191 960.0
207.459702 152.0
207.484726 124.0
207.711395 144.0
207.904327 120.0
208.086487 708.0
209.057953 160.0
209.091751 164.0
209.187469 160.0
209.843048 128.0
209.962524 160.0
210.06778 2820.0
210.3405 160.0
210.381012 108.0
210.733246 148.0
210.934753 104.0
211.071442 308.0
212.078766 108.0
212.728622 152.0
213.080017 176.0
213.429398 132.0
213.535156 124.0
213.987411 160.0
214.076401 292.0
214.249527 168.0
214.584671 148.0
214.705612 336.0
214.854904 140.0
214.974777 168.0
215.085815 15668.0
215.375504 216.0
215.892487 144.0
216.088882 3036.0
216.606949 212.0
217.092438 664.0
217.201981 168.0
217.480728 192.0
217.720139 176.0
217.810501 132.0
217.866348 144.0
218.07283 7328.0
218.282761 140.0
218.309219 212.0
218.638702 196.0
218.888931 144.0
219.077164 1448.0
219.664032 164.0
219.967331 164.0
220.083115 148.0
220.257355 212.0
221.058441 108.0
221.091858 428.0
221.544128 168.0
221.825089 108.0
222.099899 356.0
222.125137 148.0
222.252701 220.0
222.377335 148.0
222.628143 172.0
223.07579 3892.0
223.113434 1516.0
223.210632 160.0
223.6241 148.0
223.685165 216.0
223.717911 164.0
224.078751 592.0
224.110992 288.0
224.268967 164.0
224.361374 168.0
224.599945 212.0
225.085968 160.0
225.122513 188.0
225.167023 220.0
225.343262 216.0
226.150665 140.0
226.177597 172.0
226.372208 148.0
226.92952 188.0
227.169434 248.0
227.196442 144.0
227.787811 156.0
228.064255 208.0
228.377808 172.0
228.651245 120.0
228.738022 256.0
229.213867 152.0
229.747528 140.0
230.113007 116.0
230.339188 192.0
230.441895 188.0
230.49025 144.0
230.926132 148.0
231.082642 2296.0
231.153488 164.0
231.809555 148.0
231.845917 160.0
232.085861 1700.0
232.488831 140.0
232.647339 196.0
232.706711 108.0
232.859207 236.0
232.97464 216.0
233.096878 50692.0
233.297256 160.0
233.412415 96.0
233.474365 116.0
233.63736 140.0
233.725372 164.0
233.816452 112.0
233.90419 164.0
234.024841 152.0
234.063461 172.0
234.100601 7924.0
234.367386 184.0
234.458221 220.0
234.89093 180.0
235.07666 852.0
235.106171 872.0
235.395096 108.0
235.595291 112.0
235.68924 144.0
235.868881 124.0
235.934036 120.0
235.964966 112.0
236.023056 168.0
236.083832 5348.0
236.484329 156.0
236.643524 140.0
237.088013 1412.0
237.36969 152.0
237.510773 160.0
237.777695 140.0
238.091431 256.0
238.12352 1172.0
239.094406 192.0
239.126831 636.0
239.235641 220.0
239.521011 176.0
240.12323 124.0
240.936935 148.0
241.747025 148.0
242.372528 264.0
243.091721 416.0
243.42717 220.0
243.475952 180.0
244.340973 268.0
245.071823 108.0
245.459137 140.0
246.073059 236.0
246.745514 208.0
247.073486 640.0
248.106125 200.0
248.841476 168.0
249.090851 1448.0
249.139832 144.0
249.484299 156.0
249.513809 160.0
249.564102 140.0
249.891205 176.0
250.096542 768.0
250.278351 184.0
250.300385 156.0
250.353912 180.0
250.388565 180.0
250.742676 140.0
250.844131 216.0
250.938904 196.0
250.963623 160.0
250.989502 200.0
251.040237 148.0
251.108215 112968.0
251.240555 116.0
251.411148 148.0
251.551788 112.0
251.574112 296.0
251.626068 440.0
251.690323 144.0
251.754089 160.0
252.013397 292.0
252.110489 16948.0
252.303406 168.0
252.455627 140.0
252.658066 192.0
252.857407 236.0
252.965225 184.0
253.063675 116.0
253.111542 1736.0
253.381638 200.0
253.415421 168.0
253.471146 104.0
253.513596 196.0
253.571335 220.0
253.650269 136.0
253.736252 152.0
253.875427 164.0
254.02739 216.0
254.091766 224.0
254.710037 168.0
254.745163 120.0
256.137268 220.0
256.261505 168.0
256.841705 228.0
256.927826 156.0
258.263062 188.0
258.381409 156.0
258.420105 128.0
258.589905 152.0
258.896759 160.0
260.648224 160.0
261.658142 148.0
261.830841 208.0
262.321777 188.0
263.115356 180.0
263.189606 148.0
263.634521 164.0
264.101257 120.0
264.213043 152.0
265.104279 216.0
265.292572 228.0
265.422241 168.0
265.526001 172.0
265.840698 160.0
265.97052 164.0
266.045166 152.0
266.118286 2940.0
266.270569 268.0
266.340668 140.0
266.445892 124.0
266.857361 168.0
267.026459 144.0
267.089783 340.0
267.121033 992.0
267.179352 168.0
267.212341 300.0
267.528137 156.0
267.601044 140.0
267.667511 180.0
267.767426 224.0
267.813904 136.0
267.848877 344.0
267.878113 172.0
267.906555 136.0
267.958252 400.0
268.019012 168.0
268.058411 436.0
268.079956 492.0
268.135712 187320.0
268.223175 96.0
268.362457 240.0
268.41983 140.0
268.448914 152.0
268.496979 248.0
268.559052 152.0
268.608704 196.0
268.670624 4920.0
268.739227 132.0
268.91626 296.0
268.956879 180.0
269.013367 96.0
269.137573 45996.0
269.257355 188.0
269.310455 164.0
269.352661 120.0
269.380493 128.0
269.542908 132.0
269.626465 160.0
269.740845 180.0
269.836945 136.0
269.985748 100.0
270.015594 184.0
270.081238 224.0
270.141022 5492.0
270.315094 112.0
270.387634 236.0
270.484161 100.0
270.558167 184.0
270.603668 120.0
270.702515 200.0
270.75946 128.0
270.792175 176.0
270.860748 196.0
270.890442 188.0
270.903381 244.0
270.958618 176.0
271.00293 108.0
271.056244 212.0
271.085297 184.0
271.138489 388.0
271.183777 276.0
271.247314 164.0
272.059937 120.0
272.257355 100.0
272.735168 184.0
273.184387 104.0
278.095886 148.0
280.980927 140.0
284.976898 112.0
286.142151 148.0
477.310974 164.0
517.42395 180.0
536.068726 96.0
579.263916 192.0
710.700256 124.0
905.443359 144.0
1049.212402 148.0
1253.220337 140.0
1276.244995 200.0
1287.760986 164.0
1340.091553 180.0
1355.054565 212.0
1356.329712 148.0
1361.729858 172.0
1427.0979 160.0
1447.37207 180.0
1461.474854 160.0
1510.963013 168.0
1527.439819 172.0
1531.106934 128.0
1552.087524 200.0
1552.80896 200.0
1629.663696 144.0
1630.0896 200.0
1633.55481 164.0
1649.642334 164.0
1661.335815 224.0
1677.102783 192.0
1678.513184 184.0
1680.258545 164.0
1681.033691 168.0
1685.238892 208.0
1692.306396 184.0
1697.459351 192.0
1698.714233 216.0
1701.512573 180.0
1703.697144 200.0
1708.432251 192.0
1708.958862 176.0
1709.765259 152.0
1716.578003 160.0
1721.165894 144.0
1723.296875 172.0
1726.834839 156.0
1743.75647 200.0
1746.749756 180.0
1770.235718 176.0
1775.674561 152.0
1777.016724 164.0
1779.778076 140.0
1783.42395 172.0
1787.612183 156.0
1788.546387 148.0
1792.327637 232.0
1795.42981 212.0
1799.446289 140.0
1805.876953 180.0
1812.700439 148.0
1817.016113 148.0
1821.175659 208.0
1826.181763 180.0
1845.75354 152.0
1852.463379 252.0
1861.734985 200.0
1862.688354 248.0
1868.078125 176.0
1869.4375 220.0
1885.13208 200.0
1887.543823 192.0
1891.160034 164.0
1891.514893 144.0
1891.731323 184.0
1896.694702 160.0
1904.312744 168.0
1914.801636 244.0
1915.106445 168.0
1917.119019 204.0
1917.493652 168.0
1926.131592 184.0
1926.79541 156.0
1938.467407 180.0
1953.067383 176.0
1964.306885 180.0
1973.049438 164.0
1980.863525 144.0
1992.61792 164.0
1994.821899 204.0
1997.302734 196.0
1997.97876 212.0
1998.254639 180.0
1998.441406 140.0
2000.728638 184.0
2001.503296 140.0
