>compound NCGC00017368-03!BUCHARAINE
>formula C19H25NO4
>ionization [M+Na]+
>parentmass 354.168
#inchi InChI=1S/C19H25NO4/c1-13(8-9-17(21)19(2,3)23)10-11-24-16-12-18(22)20-15-7-5-4-6-14(15)16/h4-7,10,12,17,21,23H,8-9,11H2,1-3H3,(H,20,22)/b13-10+
#inchikey PBWIOAMUZKICDN
#Ion_Source LC-ESI
#Instrument qTOF
#Compound_Source Prestwick Phytochem Lib
#PI Dorrestein
#Data_Collector VVP/LMS
#Scan -1
#Precursor_MZ 354.168
#ExactMass 331.178
#Charge 1
#CAS_Number N/A
#Pubmed_ID N/A
#Smiles C\C(CCC(O)C(C)(C)O)=C/COC/1=C/C(=O)NC2=C1C=CC=C2
#INCHI_AUX N/A
#Library_Class 1
#SpectrumID CCMSLIB00000078696
#IonMode Positive
#UpdateWorkflowName UPDATE-SINGLE-ANNOTATED-GOLD
#LibraryQualityString Gold
#TaskID 67c915c6594c435cadc1fe2b5358144d
##Scan# 1807
#SpectrumFile p1-C02_GC2_01_17898.mzXML
#LibraryName phytochem_lib.mgf
#MQScore -1
#Organism phytochem_lib
#TIC_Query 0
#RT_Query -1
#MZErrorPPM -1
#SharedPeaks 0
#MassDiff 0
#LibMZ -1
#SpecMZ 354.168
#SpecCharge 0
#internalFilename spec-00000.mgf

>collision 10
114.393143 136.0
134.979294 88.0
135.113449 168.0
137.161606 100.0
162.052811 224.0
163.12178 136.0
176.581223 248.0
183.748337 132.0
184.037369 3008.0
185.03923 328.0
186.016113 144.0
193.007935 40.0
193.118805 160.0
193.148972 160.0
194.118301 136.0
199.034424 216.0
199.993637 56.0
200.018967 56.0
200.999985 208.0
202.055328 200.0
216.780426 148.0
218.011978 240.0
232.926514 172.0
234.920349 164.0
236.025925 196.0
240.008377 140.0
258.170593 140.0
278.125854 168.0
288.044159 224.0
317.223145 128.0
318.124146 176.0
336.15741 148.0
354.163177 740.0
355.17334 116.0
355.711792 44.0
361.546234 100.0
455.080933 52.0
1063.492554 40.0
1148.078613 152.0
