>compound MLS002703411-01!
>formula C20H17NO
>ionization [M+H]+
>parentmass 288.139435
#inchi InChI=1S/C20H17NO/c22-20(16-17-10-4-1-5-11-17)21(18-12-6-2-7-13-18)19-14-8-3-9-15-19/h1-15H,16H2
#inchikey OJJDDQBPSFGSOH
#Ion_Source LC-ESI
#Instrument qTof
#Compound_Source NIH Natural Product Library
#PI Dorrestein
#Data_Collector VVP/LMS
#Scan -1
#Precursor_MZ 288.139
#ExactMass 287.131
#Charge 1
#CAS_Number N/A
#Pubmed_ID N/A
#Smiles O=C(Cc1ccccc1)N(c2ccccc2)c3ccccc3
#INCHI_AUX N/A
#Library_Class 1
#SpectrumID CCMSLIB00000080015
#IonMode Positive
#UpdateWorkflowName UPDATE-SINGLE-ANNOTATED-GOLD
#LibraryQualityString Gold
#TaskID b1d8e8f6646f4e71acdff9ca3d919d08
##Scan# 2464
#SpectrumFile p2-A03_GA3_01_17980.mzXML
#LibraryName NIH_Natural_Products_Library.mgf
#MQScore -1
#Organism NIH_Natural_Products_Library
#TIC_Query 0
#RT_Query -1
#MZErrorPPM -1
#SharedPeaks 0
#MassDiff 0
#LibMZ -1
#SpecMZ 288.139
#SpecCharge 0
#internalFilename spec-00000.mgf

>collision 10
95.117088 188.0
95.159798 96.0
95.173386 44.0
95.214165 180.0
95.676956 160.0
96.084236 176.0
96.2248 64.0
96.373245 116.0
96.496376 56.0
96.93483 188.0
97.01519 104.0
97.238808 144.0
97.625839 44.0
97.84819 192.0
98.037285 132.0
98.264053 176.0
98.303513 160.0
98.3647 148.0
98.52861 148.0
98.645203 152.0
98.829132 220.0
99.159851 104.0
99.24707 168.0
99.479202 68.0
99.638077 136.0
99.669868 40.0
99.755325 192.0
100.069664 64.0
100.097542 220.0
100.482231 156.0
100.663872 156.0
100.717796 132.0
100.73378 128.0
100.775734 44.0
101.017639 100.0
101.04129 180.0
101.757156 164.0
101.815392 168.0
101.845512 196.0
101.949989 168.0
102.064575 228.0
102.118874 192.0
102.35836 136.0
102.374466 132.0
102.733246 224.0
102.828087 140.0
102.991631 148.0
103.060318 196.0
103.687645 28.0
104.053352 364.0
104.150253 68.0
104.233551 188.0
104.697365 180.0
104.746246 140.0
105.049988 100.0
105.096909 92.0
105.27655 140.0
105.331696 128.0
105.914673 60.0
105.990471 104.0
106.027359 128.0
106.569107 192.0
106.756165 100.0
107.005142 176.0
107.279488 196.0
107.457848 148.0
107.737289 256.0
107.910896 64.0
108.729607 200.0
109.36097 136.0
109.390114 80.0
109.7985 144.0
109.86525 200.0
110.222282 132.0
110.292389 176.0
110.391609 80.0
110.571526 180.0
111.036636 204.0
111.118446 184.0
111.275856 188.0
111.353554 140.0
111.492218 172.0
111.769798 56.0
112.733498 72.0
112.892044 132.0
112.944923 152.0
113.03801 196.0
113.497673 172.0
113.926605 192.0
114.447479 144.0
114.51989 100.0
114.884399 152.0
114.944138 124.0
115.052055 128.0
115.102097 112.0
115.142677 92.0
115.615158 164.0
115.848541 44.0
115.89782 128.0
116.056435 148.0
116.429825 196.0
116.575912 40.0
116.790909 236.0
117.212875 204.0
117.428459 124.0
118.173744 96.0
118.208359 160.0
118.346893 164.0
118.427025 68.0
118.642418 192.0
119.288475 104.0
119.675735 40.0
119.765022 128.0
120.585419 120.0
120.637878 108.0
120.854393 156.0
120.924423 196.0
120.941933 76.0
121.062355 60.0
121.612648 64.0
121.687286 168.0
121.788307 172.0
121.977577 148.0
122.063026 176.0
122.256607 148.0
122.529648 168.0
122.672897 156.0
123.202538 48.0
123.507599 164.0
123.84626 100.0
123.892776 188.0
124.427261 132.0
124.853897 124.0
125.100883 180.0
125.48185 160.0
125.916985 132.0
126.361832 172.0
126.538643 112.0
127.054115 320.0
127.213455 148.0
127.532425 112.0
128.059998 552.0
128.097229 36.0
128.152176 152.0
128.407486 148.0
128.701645 172.0
129.065033 632.0
129.205673 216.0
129.445602 96.0
129.762451 124.0
129.946533 44.0
130.06427 400.0
130.243927 128.0
130.39389 44.0
130.694061 168.0
130.794205 164.0
131.758835 120.0
132.433655 120.0
132.662811 148.0
132.761398 68.0
132.871506 132.0
133.029861 72.0
133.376724 144.0
133.512375 192.0
133.892105 164.0
134.168869 180.0
134.313904 144.0
134.357727 96.0
134.764084 132.0
136.151657 128.0
136.191132 204.0
136.472336 156.0
136.646774 180.0
136.877213 148.0
137.063553 148.0
137.758835 208.0
137.826584 160.0
137.943436 28.0
139.140564 132.0
139.751648 140.0
139.888153 132.0
140.041214 140.0
140.902237 128.0
141.070801 348.0
142.075516 204.0
142.343521 144.0
142.444534 136.0
142.608414 132.0
142.877136 144.0
143.086334 724.0
143.131805 144.0
143.160385 32.0
143.275482 136.0
143.322357 224.0
143.470139 48.0
143.684769 48.0
143.748337 176.0
143.7659 92.0
143.787384 140.0
144.018982 144.0
144.089676 176.0
144.803497 116.0
144.923279 112.0
145.086258 188.0
145.65979 164.0
146.098907 60.0
146.234467 108.0
146.468033 128.0
146.723465 160.0
146.829575 232.0
146.88504 172.0
147.524979 128.0
147.609604 36.0
147.672485 192.0
147.807953 68.0
147.926544 180.0
147.979813 164.0
148.42807 152.0
148.609985 132.0
148.626968 152.0
149.115097 84.0
149.579681 136.0
149.728195 152.0
149.80127 128.0
150.193741 244.0
150.337677 220.0
150.559845 176.0
150.811493 180.0
151.048187 200.0
151.49176 228.0
151.942841 164.0
152.017258 184.0
152.059738 1468.0
152.229858 56.0
152.264404 72.0
152.338104 244.0
152.446213 168.0
152.596146 120.0
152.630569 80.0
152.72403 220.0
152.80275 152.0
152.883957 240.0
153.068939 2200.0
153.159698 56.0
153.477615 200.0
153.699615 156.0
153.839828 252.0
153.85759 172.0
154.06575 1136.0
154.141632 240.0
154.195999 120.0
154.223175 76.0
154.250366 68.0
154.408615 128.0
154.552094 76.0
154.572784 112.0
154.695648 76.0
154.727829 48.0
154.861542 68.0
155.039276 152.0
155.072845 1388.0
155.667572 128.0
155.756989 132.0
156.075958 408.0
156.525482 72.0
156.939117 172.0
157.168594 208.0
157.388245 44.0
158.050644 148.0
158.528931 156.0
160.444244 72.0
160.643478 160.0
162.092209 176.0
162.688248 72.0
163.069275 128.0
163.188019 220.0
164.100266 204.0
164.434433 148.0
164.551865 132.0
164.579941 136.0
164.722961 204.0
164.807281 172.0
165.072342 436.0
165.4646 180.0
165.559341 192.0
166.075867 172.0
166.225861 104.0
166.284882 104.0
166.426086 176.0
166.654678 148.0
166.978592 168.0
167.072739 1296.0
167.140656 164.0
167.176682 216.0
167.261612 260.0
167.585327 204.0
167.714966 188.0
167.776825 224.0
167.833557 100.0
168.080734 4328.0
168.372894 44.0
168.651932 88.0
168.701736 240.0
168.850754 80.0
168.920853 64.0
168.957077 112.0
168.975189 204.0
169.055405 124.0
169.08902 3724.0
169.130447 188.0
169.257309 36.0
169.407532 100.0
169.493027 128.0
169.537491 160.0
169.58374 52.0
169.640762 112.0
169.705582 268.0
169.820358 184.0
169.843018 160.0
169.897507 172.0
169.922836 172.0
169.990906 180.0
170.023087 160.0
170.051331 164.0
170.097046 76908.0
170.156281 200.0
170.188293 144.0
170.21817 136.0
170.31633 232.0
170.345551 52.0
170.378326 152.0
170.417877 148.0
170.455734 176.0
170.48172 108.0
170.501511 104.0
170.530884 140.0
170.579666 128.0
170.627167 220.0
170.684479 48.0
170.726089 72.0
170.749496 196.0
170.785904 260.0
170.81192 88.0
170.876953 48.0
171.020737 216.0
171.0383 116.0
171.099854 8896.0
171.156509 100.0
171.192078 68.0
171.230988 72.0
171.251816 120.0
171.289001 72.0
171.470673 96.0
171.521652 108.0
171.548874 32.0
171.568939 120.0
171.587982 44.0
171.608841 92.0
171.671417 104.0
171.844299 144.0
171.887939 60.0
171.945343 56.0
172.0345 104.0
172.104935 624.0
172.135925 32.0
172.162033 72.0
172.182938 128.0
172.224716 168.0
172.256073 92.0
172.326599 84.0
172.356491 112.0
172.386703 88.0
172.43605 100.0
172.481949 96.0
172.518951 208.0
172.721939 108.0
172.778915 156.0
172.82077 40.0
172.975189 84.0
173.134903 136.0
173.313034 68.0
173.404755 76.0
173.437271 148.0
173.475525 84.0
173.511459 152.0
173.59613 52.0
173.656448 52.0
173.766632 52.0
174.121002 40.0
174.994049 44.0
175.233719 144.0
176.249557 68.0
176.365845 108.0
177.552002 116.0
177.899597 92.0
178.071915 160.0
178.135941 80.0
179.059753 152.0
179.647995 64.0
179.893509 84.0
180.079865 152.0
180.687241 112.0
180.890625 116.0
181.14502 44.0
181.222717 64.0
181.675812 88.0
181.869019 52.0
182.096146 832.0
183.106262 120.0
183.466888 68.0
183.698822 56.0
185.215302 80.0
185.285721 120.0
185.350754 60.0
186.028809 44.0
186.961105 100.0
191.076584 160.0
193.093033 140.0
193.854355 148.0
194.09407 560.0
195.058914 140.0
195.09697 204.0
195.231308 160.0
196.077988 872.0
196.59079 116.0
196.903473 96.0
197.080032 368.0
199.337967 92.0
204.524994 204.0
211.0056 104.0
213.135971 164.0
214.238663 128.0
214.343552 56.0
227.963272 164.0
237.521454 88.0
239.883102 128.0
244.115601 132.0
252.922668 44.0
254.092026 124.0
254.269714 96.0
255.086029 124.0
257.229889 20.0
258.044525 156.0
259.036621 92.0
259.113495 148.0
261.077972 144.0
263.421204 80.0
268.109741 124.0
269.117706 172.0
270.127777 416.0
270.179932 104.0
271.126221 144.0
284.407166 172.0
287.564331 140.0
288.139435 1928.0
289.139282 868.0
289.697998 64.0
290.145325 252.0
291.904144 56.0
309.770569 72.0
315.642365 40.0
322.220398 148.0
348.49469 68.0
384.80719 56.0
415.550964 72.0
438.686554 68.0
449.79895 64.0
473.336609 144.0
491.146667 84.0
510.642975 100.0
519.006531 56.0
576.419922 60.0
594.333008 20.0
596.951172 68.0
628.783569 64.0
713.381775 212.0
714.902954 88.0
728.123901 144.0
730.182312 60.0
733.186401 128.0
746.351685 188.0
754.813843 212.0
756.099976 232.0
759.831543 72.0
771.324585 128.0
777.072937 144.0
787.951904 84.0
788.868469 148.0
801.823242 184.0
805.620667 140.0
818.034241 168.0
820.096191 112.0
825.931641 224.0
831.632812 128.0
835.828064 192.0
835.966858 172.0
836.334473 180.0
848.175659 188.0
848.256775 180.0
849.590576 156.0
850.025696 156.0
856.688721 120.0
858.466431 92.0
859.650635 128.0
863.605835 120.0
864.284424 172.0
867.734253 216.0
871.190979 128.0
871.343689 132.0
877.606018 140.0
879.824402 196.0
880.432556 104.0
891.243347 192.0
891.71283 164.0
893.526489 168.0
895.121643 148.0
899.814148 52.0
900.680054 152.0
905.081665 136.0
907.868103 68.0
912.09491 176.0
914.759644 104.0
915.747131 196.0
917.922729 128.0
926.402405 84.0
933.108459 164.0
933.795593 32.0
934.549927 200.0
935.140198 68.0
937.612915 120.0
938.356567 172.0
940.851807 160.0
942.03656 128.0
944.28595 132.0
949.878113 184.0
950.669617 180.0
951.792969 180.0
951.977173 120.0
952.566772 188.0
953.549927 148.0
953.955566 40.0
957.327271 232.0
958.232727 112.0
963.044373 132.0
963.316162 136.0
968.035278 144.0
969.491028 180.0
969.652161 200.0
970.538635 204.0
972.250732 188.0
973.970581 228.0
974.958435 160.0
980.092224 164.0
985.345642 160.0
985.783081 176.0
986.884216 120.0
987.777466 180.0
989.335693 208.0
992.976196 56.0
993.961121 144.0
996.334473 168.0
1000.944763 196.0
1003.83075 168.0
1004.297485 156.0
1005.130249 200.0
1006.291626 204.0
1006.512573 148.0
1008.142334 180.0
1008.565796 64.0
1012.317505 160.0
1013.451355 56.0
1013.755493 180.0
1014.471741 144.0
1017.047119 148.0
1018.78064 104.0
1019.644836 116.0
1022.481323 132.0
1022.774048 208.0
1027.387695 160.0
1027.6875 140.0
1031.628052 196.0
1031.858154 208.0
1032.069092 156.0
1032.7854 176.0
1034.154663 176.0
1034.577148 200.0
1041.040161 140.0
1042.980469 212.0
1043.706909 112.0
1045.012573 164.0
1055.396973 144.0
1055.804321 120.0
1062.430542 204.0
1063.923218 172.0
1064.436157 208.0
1065.105103 160.0
1065.150513 240.0
1065.936646 128.0
1067.568359 192.0
1067.906494 80.0
1068.114624 120.0
1068.179688 128.0
1068.99292 204.0
1069.852051 176.0
1070.249268 52.0
1071.174072 176.0
1072.229614 72.0
1074.433472 176.0
1076.260986 264.0
1077.547729 120.0
1079.711304 176.0
1081.45813 52.0
1081.504028 224.0
1082.793823 192.0
1083.704346 108.0
1088.85376 168.0
1089.628906 252.0
1090.397705 140.0
1091.377197 236.0
1093.021606 148.0
1093.488892 84.0
1093.594116 216.0
1094.647461 164.0
1095.885864 216.0
1097.045776 120.0
1097.593018 180.0
1098.140381 160.0
1100.597534 116.0
1105.572754 164.0
1106.062622 128.0
1107.400024 176.0
1108.14856 148.0
1109.593384 176.0
1111.005981 192.0
1111.868652 196.0
1112.114258 172.0
1113.37561 216.0
1116.273071 236.0
1117.217529 164.0
1117.310669 104.0
1119.567139 196.0
1121.712524 104.0
1125.922607 148.0
1126.463623 36.0
1126.991455 196.0
1127.365601 84.0
1128.441772 124.0
1129.478394 204.0
1130.609009 200.0
1130.762939 192.0
1132.731567 192.0
1132.919067 108.0
1133.026245 132.0
1133.079834 220.0
1136.834717 176.0
1137.666992 196.0
1140.905029 228.0
1144.033203 164.0
1145.346313 144.0
1145.635986 180.0
1145.905518 152.0
1148.669556 84.0
1148.730225 172.0
1149.890747 212.0
1150.673828 252.0
1150.795288 88.0
1156.060913 144.0
1158.403564 148.0
1159.894409 180.0
1161.492676 172.0
1166.288452 244.0
1167.607422 128.0
1167.77063 152.0
1172.618286 200.0
1172.775024 144.0
1172.979492 124.0
1173.661255 232.0
1174.575073 156.0
1175.011719 160.0
1176.66333 156.0
1178.022339 192.0
1178.343384 76.0
1183.890747 204.0
1186.665894 248.0
1187.351685 68.0
1191.092285 180.0
1191.325806 80.0
1191.476929 192.0
1192.260254 108.0
1194.020264 132.0
1195.836548 60.0
1196.270264 184.0
1196.490479 148.0
1197.330566 180.0
1197.420044 204.0
1198.384521 128.0
1199.983521 244.0
1200.935181 184.0
1202.64624 40.0
1204.703979 104.0
1205.056396 144.0
1208.264282 244.0
1210.853149 192.0
1211.247925 152.0
1214.623657 160.0
1216.073853 176.0
1216.712402 136.0
1219.810669 176.0
1220.665894 196.0
1220.763184 124.0
1221.49353 112.0
1221.660522 144.0
1222.258789 200.0
1222.92688 148.0
1223.344482 192.0
1224.980957 116.0
1226.158569 160.0
1226.737061 168.0
1228.02002 188.0
1229.534058 224.0
1229.706909 88.0
1229.896973 160.0
1232.466919 180.0
1233.284546 52.0
1233.347412 196.0
1233.620117 128.0
1237.509888 148.0
1237.859985 220.0
1238.987671 164.0
1239.842407 96.0
1242.857788 80.0
1244.184326 148.0
1246.319336 160.0
1248.442261 180.0
1248.688354 200.0
1248.892334 192.0
1249.22998 136.0
1249.799927 216.0
1250.137695 184.0
1250.813354 160.0
1251.54541 224.0
1252.010254 88.0
1254.137939 104.0
1257.918701 184.0
1258.765991 148.0
1259.42981 188.0
1259.804199 108.0
1260.231812 168.0
1262.157715 168.0
1263.013428 136.0
1264.711548 144.0
1264.966431 164.0
1266.113403 200.0
1266.198364 152.0
1266.417969 236.0
1266.609253 140.0
1270.252686 164.0
1270.500977 184.0
1273.418335 228.0
1273.844604 196.0
1275.578369 188.0
1280.089111 108.0
1284.129883 144.0
1284.686279 92.0
1286.891479 208.0
1288.748535 140.0
1288.827148 92.0
1292.423706 140.0
1293.948242 224.0
1294.346802 192.0
1294.914917 232.0
1295.538086 164.0
1295.767334 112.0
1296.405029 180.0
1298.383667 140.0
1298.555786 212.0
1299.201294 236.0
1299.832764 268.0
1300.808838 192.0
1301.404663 148.0
1301.950439 132.0
1304.120117 80.0
1304.271118 144.0
1305.9823 184.0
1306.190918 144.0
1306.255737 144.0
1306.816772 100.0
1307.075806 92.0
1307.241333 176.0
1309.077026 128.0
1309.530762 192.0
1309.595581 168.0
1311.865356 164.0
1313.07666 192.0
1313.480591 188.0
1314.562744 192.0
1315.335083 148.0
1316.786377 160.0
1317.096924 64.0
1318.08667 132.0
1318.209473 144.0
1321.477783 160.0
1323.547852 220.0
1325.126831 148.0
1325.648438 144.0
1326.626953 164.0
1328.120728 216.0
1331.858765 60.0
1333.115723 212.0
1339.634766 128.0
1341.587769 224.0
1342.462769 116.0
1343.863281 144.0
1345.614868 88.0
1350.796265 304.0
1350.927979 200.0
1351.513184 148.0
1351.59375 224.0
1352.845215 184.0
1353.138062 216.0
1353.855591 168.0
1354.756592 84.0
1356.097534 252.0
1358.671265 188.0
1359.272949 48.0
1359.749878 100.0
1359.962769 172.0
1360.043579 144.0
1360.256348 120.0
1361.210815 168.0
1363.054565 176.0
1365.134888 160.0
1365.443726 204.0
1366.032227 100.0
1366.995972 272.0
1367.297729 148.0
1369.50647 164.0
1370.213623 164.0
1371.3927 92.0
1372.513184 184.0
1372.645996 116.0
1372.69751 60.0
1374.977051 156.0
1375.108398 192.0
1375.257568 144.0
1375.508545 152.0
1376.437256 176.0
1379.556519 160.0
1380.510376 216.0
1383.181274 228.0
1383.314453 180.0
1383.499512 148.0
1385.876953 48.0
1387.29248 176.0
1387.804077 108.0
1388.122925 84.0
1388.515869 156.0
1397.623291 176.0
1398.062378 168.0
1399.796875 168.0
1402.180664 224.0
1404.477051 168.0
1405.611084 92.0
1407.962524 120.0
1410.009521 64.0
1410.712158 152.0
1412.66394 180.0
1413.262451 180.0
1413.389648 108.0
1413.838623 64.0
1414.38501 48.0
1415.903931 132.0
1417.118408 60.0
1417.598022 172.0
1418.61731 156.0
1418.72229 124.0
1418.797241 116.0
1420.229492 216.0
1420.484497 212.0
1420.994629 164.0
1422.660645 176.0
1425.139038 152.0
1427.582031 152.0
1427.875366 156.0
1429.307129 216.0
1431.088501 204.0
1431.600586 132.0
1432.632446 184.0
1433.287842 256.0
1433.453613 72.0
1433.792725 172.0
1435.006348 140.0
1435.081787 156.0
1435.149658 124.0
1435.760498 160.0
1436.099854 196.0
1436.575073 224.0
1439.518555 232.0
1441.414551 180.0
1441.943604 56.0
1442.578491 100.0
1442.941406 188.0
1445.982178 148.0
1446.95874 76.0
1447.057129 176.0
1447.33728 176.0
1449.124756 40.0
1449.177856 192.0
1453.674316 144.0
1455.906128 148.0
1459.424316 156.0
1461.69104 120.0
1463.19043 44.0
1463.784302 128.0
1466.999512 84.0
1468.219482 148.0
1469.798584 132.0
1470.309814 180.0
1470.65332 68.0
1473.516846 172.0
1474.831299 180.0
1475.374023 172.0
1475.610962 136.0
1476.008545 144.0
1476.742798 176.0
1476.849854 52.0
1480.209473 116.0
1480.324341 52.0
1483.496338 108.0
1483.550049 176.0
1484.13269 100.0
1484.362671 76.0
1485.006836 112.0
1487.922852 132.0
1488.099365 196.0
1489.063843 168.0
1489.458618 168.0
1489.650757 240.0
1490.710938 172.0
1493.586304 148.0
1493.663208 160.0
1495.171265 184.0
1496.99585 108.0
1498.312866 216.0
1498.813721 236.0
1499.114258 44.0
1499.214355 172.0
1500.093018 244.0
1501.419189 136.0
1501.912842 80.0
1502.637939 180.0
1502.738281 132.0
1502.861694 176.0
