>compound MLS002153480-01!Ro 41-0960
>formula C13H8FNO5
>ionization [M+H]+
>parentmass 278.04592702809055
#inchi InChI=1S/C13H8FNO5/c14-9-4-2-1-3-8(9)12(17)7-5-10(15(19)20)13(18)11(16)6-7/h1-6,16,18H
#inchikey RQPAUNZYTYHKHA
#Ion_Source LC-ESI
#Instrument qTof
#Compound_Source NIH Pharmacologically Active Library
#PI Dorrestein
#Data_Collector VP/LMS
#Scan -1
#Precursor_MZ 278.05
#ExactMass 277.039
#Charge 1
#CAS_Number N/A
#Pubmed_ID N/A
#Smiles Oc1cc(cc([N+](=O)[O-])c1O)C(=O)c2ccccc2F
#INCHI_AUX N/A
#Library_Class 3
#SpectrumID CCMSLIB00000085512
#IonMode Positive
#UpdateWorkflowName UPDATE-SINGLE-ANNOTATED-BRONZE
#LibraryQualityString Bronze
#TaskID d252d724072548979f1f6f1ced849daf
##Scan# 1939
#SpectrumFile p4-B11_GB11_01_18347.mzXML
#LibraryName Pharm_Active_Library.mgf
#MQScore -1
#Organism Pharm_Active_Library
#TIC_Query 0
#RT_Query -1
#MZErrorPPM -1
#SharedPeaks 0
#MassDiff 0
#LibMZ -1
#SpecMZ 278.05
#SpecCharge 0
#internalFilename spec-00000.mgf

>collision 10
45.337925 188.0
48.668171 160.0
53.806671 168.0
56.845638 164.0
69.582031 144.0
69.595314 144.0
73.016853 184.0
95.030785 564.0
95.054695 160.0
97.995499 136.0
99.725037 128.0
106.34861 192.0
108.017883 152.0
111.840363 188.0
113.045433 188.0
114.048561 44.0
114.930206 168.0
117.207336 152.0
121.760521 184.0
122.801521 200.0
123.025131 2332.0
123.501671 76.0
123.88018 92.0
124.02845 996.0
124.090714 96.0
124.934631 96.0
124.953979 120.0
124.992477 60.0
125.0214 72.0
126.427322 48.0
133.04628 136.0
135.009399 148.0
136.013947 136.0
137.005524 164.0
137.023956 256.0
138.030121 148.0
142.437347 160.0
147.056183 200.0
148.02298 192.0
151.005219 664.0
152.003815 224.0
157.048279 184.0
158.095078 148.0
166.083817 172.0
171.050186 148.0
173.039413 132.0
180.808792 132.0
181.014908 152.0
182.010559 216.0
182.904953 128.0
183.012634 76.0
184.020996 104.0
198.929825 152.0
203.028046 120.0
203.13298 88.0
214.020187 104.0
214.043472 120.0
216.947586 152.0
217.460907 184.0
221.106598 152.0
227.056107 176.0
230.001633 136.0
236.947296 180.0
256.070801 124.0
262.151337 144.0
276.22406 132.0
337.801727 112.0
350.878784 140.0
490.20105 100.0
765.675171 248.0
858.564026 184.0
953.337402 168.0
968.099548 244.0
1117.856079 160.0
1138.975952 136.0
1186.568726 164.0
1231.500977 276.0
1312.056885 188.0
1375.563599 160.0
1454.473877 132.0
1464.898926 72.0
1478.405396 140.0
1499.501831 68.0
