>compound MLS001141350-01!(2R)-3-benzylsulfanyl-2-[[2-(3,4,7-trimethyl-2-oxochromen-5-yl)oxyacetyl]amino]propanoic acid
>formula C24H25NO6S
>ionization [M+H]+
>parentmass 456.146637
#inchi InChI=1S/C24H25NO6S/c1-14-9-19(22-15(2)16(3)24(29)31-20(22)10-14)30-11-21(26)25-18(23(27)28)13-32-12-17-7-5-4-6-8-17/h4-10,18H,11-13H2,1-3H3,(H,25,26)(H,27,28)/t18-/m0/s1
#inchikey BLEVSQZIXYSZQD
#Ion_Source LC-ESI
#Instrument qTof
#Compound_Source NIH Natural Product Library
#PI Dorrestein
#Data_Collector VVP/LMS
#Scan -1
#Precursor_MZ 456.148
#ExactMass 455.14
#Charge 1
#CAS_Number N/A
#Pubmed_ID N/A
#Smiles Cc1cc(OCC(=O)N[C@@H](CSCc2ccccc2)C(=O)O)c3c(C)c(C)c(=O)oc3c1
#INCHI_AUX N/A
#Library_Class 3
#SpectrumID CCMSLIB00000079500
#IonMode Positive
#UpdateWorkflowName UPDATE-SINGLE-ANNOTATED-BRONZE
#LibraryQualityString Bronze
#TaskID b1d8e8f6646f4e71acdff9ca3d919d08
##Scan# 2275
#SpectrumFile p1-C07_GC7_01_17903.mzXML
#LibraryName NIH_Natural_Products_Library.mgf
#MQScore -1
#Organism NIH_Natural_Products_Library
#TIC_Query 0
#RT_Query -1
#MZErrorPPM -1
#SharedPeaks 0
#MassDiff 0
#LibMZ -1
#SpecMZ 456.148
#SpecCharge 0
#internalFilename spec-00000.mgf

>collision 10
95.06002 80.0
95.09301 192.0
95.880661 104.0
97.654434 152.0
97.874832 204.0
98.36573 96.0
99.184631 180.0
100.339592 192.0
100.776672 188.0
101.415031 168.0
101.696686 172.0
102.073502 204.0
103.047882 136.0
103.176369 112.0
103.336136 168.0
105.030357 144.0
105.071877 344.0
106.157242 148.0
106.493805 124.0
106.569817 180.0
106.734245 172.0
106.869995 188.0
107.409737 176.0
109.026726 144.0
109.066216 196.0
109.240883 184.0
109.294975 108.0
109.509392 184.0
110.949097 160.0
111.02877 220.0
111.620956 168.0
115.055878 404.0
115.115273 68.0
115.170799 148.0
115.660439 36.0
115.814598 112.0
116.057709 180.0
116.73098 40.0
117.068825 124.0
117.871269 268.0
118.251877 104.0
119.089127 236.0
121.064171 304.0
121.957565 204.0
122.029221 148.0
124.025719 124.0
124.26078 192.0
126.012939 168.0
127.797615 144.0
128.064331 368.0
128.855011 152.0
129.041748 308.0
129.069733 128.0
129.15567 176.0
130.051514 180.0
130.08696 196.0
131.063354 216.0
131.083603 516.0
131.797318 88.0
131.907013 136.0
132.055634 124.0
132.556992 136.0
133.058243 156.0
133.099136 624.0
133.31424 156.0
133.553345 132.0
133.682175 52.0
134.022141 180.0
134.934631 164.0
135.018417 168.0
136.51828 48.0
137.055984 152.0
139.151627 172.0
139.301926 160.0
141.074402 208.0
141.118912 148.0
141.173294 196.0
141.322311 228.0
142.985733 76.0
143.0867 152.0
144.054764 192.0
145.020584 168.0
145.064316 196.0
145.102158 200.0
146.071274 772.0
146.101135 184.0
146.284027 48.0
146.356247 92.0
146.669418 44.0
146.859894 204.0
147.009476 168.0
147.040283 228.0
147.079224 240.0
147.214661 204.0
148.174911 40.0
149.041107 1888.0
149.098312 172.0
149.59314 112.0
150.046722 368.0
150.101654 132.0
150.251099 88.0
151.035233 156.0
151.275024 68.0
151.605682 208.0
156.519028 156.0
156.596237 92.0
156.795547 132.0
158.069122 76.0
158.933578 108.0
159.080505 940.0
159.194626 100.0
160.054077 164.0
160.086273 152.0
160.616058 76.0
160.982544 184.0
161.002747 32.0
161.056473 900.0
161.095047 896.0
161.194733 80.0
161.217468 60.0
161.326157 80.0
161.510742 72.0
161.614471 84.0
161.842255 76.0
162.024551 180.0
162.059158 164.0
162.100616 160.0
163.024292 264.0
163.069916 156.0
165.693207 156.0
166.067459 312.0
167.07695 144.0
167.555786 200.0
168.404449 152.0
168.4561 180.0
169.066284 172.0
170.092621 72.0
170.438019 172.0
170.479599 144.0
170.978897 132.0
171.072327 152.0
171.109055 184.0
172.687744 120.0
172.826385 80.0
173.095337 156.0
174.064285 476.0
174.087204 116.0
174.129211 40.0
174.160736 48.0
174.773254 84.0
175.07457 1420.0
175.969849 72.0
176.082443 3144.0
176.165268 152.0
176.305298 48.0
176.337021 52.0
177.053604 116.0
177.08905 276.0
177.448776 136.0
178.005966 148.0
178.085648 148.0
178.396042 108.0
180.308044 124.0
182.199326 224.0
183.24855 128.0
186.053085 164.0
187.085114 164.0
187.854584 224.0
188.082596 156.0
189.01297 156.0
189.05368 332.0
189.090118 2476.0
189.34967 64.0
189.60994 72.0
189.73877 92.0
189.84845 60.0
190.045944 124.0
190.091217 208.0
190.367096 200.0
190.49617 40.0
191.073471 196.0
191.134003 76.0
192.070679 212.0
192.090637 168.0
193.081543 204.0
193.64888 180.0
195.041718 140.0
196.054779 144.0
196.222031 84.0
197.02298 128.0
198.094391 168.0
199.075714 408.0
200.155807 268.0
200.434662 152.0
201.094543 152.0
201.21875 208.0
201.696152 108.0
201.769653 212.0
202.06102 156.0
202.556351 84.0
202.978622 96.0
203.070679 2240.0
203.458099 44.0
204.079086 2172.0
204.566772 156.0
205.084854 2716.0
205.467285 108.0
205.73555 112.0
205.795731 48.0
206.089569 376.0
206.424103 76.0
207.20549 92.0
208.129013 128.0
210.163956 64.0
210.744293 216.0
210.969971 228.0
211.334122 132.0
213.076569 156.0
214.045105 148.0
215.07428 880.0
215.098419 176.0
215.331131 108.0
216.064819 144.0
217.047256 196.0
217.085129 2560.0
217.195526 40.0
218.032288 168.0
218.090866 892.0
218.17337 36.0
219.036972 96.0
219.094482 364.0
219.218231 116.0
219.45108 64.0
223.711273 84.0
224.06842 164.0
225.512894 164.0
226.027252 52.0
226.081116 160.0
227.071243 308.0
227.105728 136.0
228.833618 200.0
229.050629 192.0
229.089249 136.0
229.933838 104.0
230.081741 136.0
231.814835 148.0
232.105835 224.0
234.110626 132.0
236.073547 136.0
239.033707 136.0
241.083389 308.0
243.065018 748.0
243.771027 48.0
244.067947 332.0
244.104462 152.0
244.697922 56.0
245.082001 1024.0
245.545471 68.0
245.788803 44.0
245.954193 52.0
246.034561 188.0
246.080826 228.0
246.519485 52.0
246.703888 132.0
247.047867 176.0
247.730301 184.0
249.13887 188.0
250.132492 136.0
252.103683 156.0
253.131744 168.0
254.577744 128.0
258.12439 104.0
259.017303 104.0
259.15506 100.0
260.711304 244.0
262.078857 148.0
262.107849 308.0
263.082245 548.0
265.100098 104.0
266.131561 120.0
267.044708 52.0
269.078064 128.0
270.097626 116.0
274.103699 128.0
276.043793 184.0
277.053284 60.0
279.07373 172.0
279.144257 168.0
284.08728 208.0
286.109985 268.0
286.335938 40.0
286.396545 52.0
286.716614 52.0
287.103577 168.0
287.384277 52.0
288.122559 356.0
291.104218 120.0
291.708984 32.0
292.076202 176.0
293.063446 144.0
294.260559 56.0
294.902771 136.0
295.134766 276.0
295.511444 124.0
296.141327 176.0
300.062103 192.0
301.045471 308.0
301.069641 124.0
304.085052 80.0
304.616272 120.0
305.106262 200.0
318.090454 216.0
319.03537 60.0
319.091858 140.0
320.10144 232.0
321.093414 320.0
321.154022 164.0
325.505768 120.0
331.18219 108.0
332.103577 92.0
332.516418 76.0
332.610779 72.0
333.097351 180.0
334.191589 108.0
334.540955 56.0
334.642914 40.0
335.105438 92.0
335.932983 68.0
336.086212 40.0
353.139465 104.0
358.157684 20.0
364.068878 188.0
364.091034 140.0
366.095917 156.0
378.081268 260.0
378.127716 160.0
390.511353 100.0
410.13269 140.0
424.124451 88.0
438.128967 148.0
455.235535 104.0
456.146637 260.0
456.199982 172.0
457.147797 108.0
457.369751 116.0
483.002167 76.0
517.613525 44.0
602.063293 128.0
655.34845 128.0
661.998962 64.0
724.842346 124.0
729.038635 168.0
729.898682 192.0
734.897095 172.0
753.721863 196.0
756.57135 124.0
761.704041 176.0
770.092712 148.0
793.87915 36.0
809.346985 128.0
822.233765 180.0
828.901611 140.0
831.619873 172.0
836.499817 204.0
837.340454 180.0
862.85498 140.0
878.051392 84.0
888.847351 60.0
898.104065 140.0
900.640747 172.0
919.75885 228.0
920.803345 144.0
921.081177 116.0
925.950012 72.0
946.655701 100.0
947.580566 292.0
949.419434 172.0
956.374146 224.0
958.849976 60.0
959.034912 144.0
962.90332 104.0
965.709167 64.0
965.820496 140.0
979.669067 204.0
980.522705 252.0
985.002502 192.0
986.583435 64.0
989.66156 176.0
1000.674011 136.0
1010.431091 180.0
1018.697632 132.0
1028.956909 132.0
1033.987427 168.0
1036.375854 196.0
1039.010986 52.0
1039.765259 236.0
1042.092529 168.0
1053.5802 192.0
1054.807373 132.0
1056.624512 212.0
1057.42688 168.0
1057.692139 92.0
1058.65686 84.0
1063.73999 156.0
1066.760498 144.0
1068.021851 208.0
1068.581299 200.0
1071.660889 148.0
1077.5 60.0
1087.000366 92.0
1089.040405 168.0
1093.381226 60.0
1102.210938 152.0
1104.39917 156.0
1119.757324 104.0
1120.996338 216.0
1122.189453 192.0
1122.756226 184.0
1124.731079 44.0
1130.043701 220.0
1130.645996 188.0
1140.915039 160.0
1142.865356 140.0
1155.366943 220.0
1155.928589 72.0
1156.375122 196.0
1160.06665 168.0
1166.080444 164.0
1166.189209 140.0
1170.856323 172.0
1175.826172 152.0
1184.488892 188.0
1189.961304 192.0
1191.300537 20.0
1194.971558 180.0
1199.199585 104.0
1200.971558 164.0
1201.109497 112.0
1201.537231 212.0
1201.737305 228.0
1212.683838 124.0
1214.999878 252.0
1217.213867 184.0
1225.595459 192.0
1225.651245 144.0
1229.256226 56.0
1231.818481 152.0
1231.972046 148.0
1239.577271 164.0
1239.808472 132.0
1240.130859 56.0
1241.049194 180.0
1244.487183 156.0
1245.013794 164.0
1250.976074 136.0
1256.599731 124.0
1257.488892 140.0
1257.75 152.0
1261.564453 152.0
1263.105957 184.0
1269.699829 144.0
1272.02002 168.0
1273.709961 216.0
1273.866211 148.0
1274.463013 116.0
1281.12207 60.0
1283.039062 76.0
1283.958862 136.0
1286.227661 76.0
1288.362793 160.0
1291.379272 48.0
1293.146362 192.0
1296.498047 212.0
1301.505005 156.0
1321.281738 136.0
1325.828857 148.0
1328.119873 152.0
1331.654541 136.0
1331.777954 196.0
1332.845947 184.0
1335.644775 200.0
1336.241333 140.0
1336.459595 236.0
1337.624023 104.0
1340.034424 40.0
1341.739868 136.0
1343.818359 180.0
1346.51123 212.0
1352.880493 124.0
1355.531738 188.0
1362.274292 156.0
1364.765625 200.0
1371.317261 96.0
1377.345215 236.0
1379.044678 60.0
1381.381104 168.0
1387.342285 212.0
1387.779663 68.0
1392.907715 224.0
1395.731812 208.0
1399.712524 172.0
1403.266602 152.0
1404.340454 228.0
1404.452271 116.0
1406.59375 172.0
1408.400757 84.0
1411.195557 144.0
1413.83606 120.0
1414.928833 160.0
1423.010742 164.0
1423.198486 192.0
1429.866089 100.0
1430.069336 64.0
1434.935425 104.0
1436.051514 136.0
1436.701904 88.0
1439.7948 144.0
1440.1875 116.0
1440.603027 120.0
1443.006226 168.0
1443.187622 120.0
1449.954956 160.0
1450.144409 164.0
1450.970581 216.0
1451.531738 116.0
1454.300659 172.0
1454.983887 252.0
1463.986328 56.0
1469.565918 140.0
1472.581055 184.0
1472.749146 164.0
1474.557495 64.0
1475.056641 272.0
1475.117798 172.0
1476.234131 204.0
1477.733276 212.0
1478.99585 240.0
1479.89917 112.0
1480.810425 148.0
1480.955933 168.0
1481.622437 156.0
1481.722046 164.0
1482.25061 172.0
1483.177979 272.0
1485.34021 212.0
1490.084351 188.0
1492.413208 248.0
1496.598755 160.0
1499.240845 128.0
