>compound Olanzapine (Zyprexa)
>formula C17H20N4S
>ionization [M+H]+
>parentmass 313.149109
#inchi InChI=1S/C17H20N4S/c1-12-11-13-16(21-9-7-20(2)8-10-21)18-14-5-3-4-6-15(14)19-17(13)22-12/h3-6,11,19H,7-10H2,1-2H3
#inchikey KVWDHTXUZHCGIO
#Ion_Source LC-ESI
#Instrument qTof
#Compound_Source Commercial
#PI Dorrestein
#Data_Collector Garg_Neha
#Scan -1
#Precursor_MZ 313.148
#ExactMass 312.141
#Charge 1
#CAS_Number 132539-06-1
#Pubmed_ID N/A
#Smiles N1C2=C(C(=NC3=C1C=CC=C3)N4CCN(CC4)C)C=C(S2)C
#INCHI_AUX N/A
#Library_Class 1
#SpectrumID CCMSLIB00000078490
#IonMode Positive
#UpdateWorkflowName UPDATE-SINGLE-ANNOTATED-GOLD
#LibraryQualityString Gold
#TaskID 77f51c88eb8b467eb4a01dd2d0cb90d2
##Scan# 1003
#SpectrumFile Plate7_61_80_GD5_01_15771.mzXML
#LibraryName FDALibrary_2_04302014.mgf
#MQScore -1
#Organism FDALibrary_2_04302014
#TIC_Query 0
#RT_Query -1
#MZErrorPPM -1
#SharedPeaks 0
#MassDiff 0
#LibMZ -1
#SpecMZ 313.148
#SpecCharge 0
#internalFilename spec-00000.mgf

>collision 10
45.451122 224.0
45.597504 172.0
46.540459 192.0
47.223228 156.0
47.254692 184.0
47.710033 144.0
47.871021 152.0
52.04557 176.0
52.055622 152.0
52.426781 160.0
55.851841 160.0
55.957504 152.0
56.577103 256.0
57.741802 156.0
59.170723 176.0
59.478867 212.0
60.301395 204.0
61.977501 172.0
62.448471 196.0
63.471859 200.0
64.07267 200.0
64.557922 184.0
65.287621 164.0
66.16317 172.0
67.596191 236.0
67.625656 164.0
67.758301 148.0
69.148148 176.0
69.688766 196.0
69.911591 180.0
69.99649 216.0
70.518677 144.0
71.53688 200.0
73.07531 200.0
74.319221 172.0
74.726433 176.0
77.025314 208.0
78.453796 156.0
81.885979 228.0
84.727127 168.0
85.375092 156.0
85.769104 192.0
87.38958 152.0
88.101791 160.0
89.31279 172.0
89.864777 148.0
91.118179 228.0
91.687141 196.0
93.905457 172.0
95.190521 144.0
96.253761 220.0
96.721024 208.0
97.513458 192.0
97.58226 148.0
98.45916 188.0
101.706688 192.0
101.805061 176.0
102.692627 164.0
104.548492 180.0
105.051773 216.0
105.15992 144.0
107.066681 156.0
107.792847 144.0
109.568993 172.0
111.235771 140.0
111.849579 204.0
111.96328 212.0
112.486191 144.0
116.889725 156.0
117.419685 156.0
117.56855 184.0
118.065445 168.0
118.762856 172.0
118.923424 180.0
119.101471 148.0
119.562416 168.0
120.371201 184.0
120.38649 244.0
121.329567 196.0
121.588402 144.0
123.33725 172.0
123.642479 152.0
124.967278 156.0
125.577667 160.0
127.514908 176.0
129.271255 156.0
129.733322 180.0
130.103104 172.0
131.297729 148.0
131.329651 200.0
132.014832 152.0
132.070694 244.0
133.073471 308.0
133.395111 220.0
134.828796 160.0
135.356247 184.0
135.652817 208.0
136.013535 152.0
136.137756 160.0
138.732407 184.0
139.032639 152.0
140.04599 200.0
141.87027 168.0
142.420807 140.0
143.544159 184.0
144.298691 156.0
144.997681 148.0
145.098358 160.0
146.477798 144.0
146.636826 184.0
147.331787 184.0
148.147064 156.0
148.957321 204.0
149.621231 264.0
149.789261 196.0
150.706589 168.0
150.804337 192.0
151.029282 328.0
153.048477 244.0
155.055023 140.0
155.40715 144.0
155.62529 168.0
155.777084 160.0
156.062057 156.0
156.560577 152.0
157.508362 212.0
157.610794 224.0
158.386368 156.0
158.481567 180.0
160.666458 152.0
162.83075 156.0
163.03653 172.0
163.116074 124.0
163.183975 148.0
164.43985 152.0
164.994171 224.0
166.085083 168.0
166.60878 156.0
167.063812 144.0
167.957703 212.0
168.069397 136.0
169.074677 1784.0
170.05098 200.0
170.079636 376.0
171.077744 148.0
171.593582 176.0
171.798706 172.0
172.413239 160.0
172.635452 172.0
173.021362 168.0
173.756546 156.0
174.032135 172.0
174.166077 172.0
174.552414 188.0
174.597122 224.0
174.868118 140.0
174.955948 256.0
175.020798 188.0
175.202545 172.0
176.038681 192.0
177.252884 204.0
178.030151 168.0
178.559036 160.0
179.059128 684.0
179.10733 152.0
179.381805 164.0
180.066147 2124.0
181.068375 300.0
181.467117 168.0
181.805115 240.0
182.074921 240.0
183.07402 144.0
183.092865 252.0
183.880127 152.0
184.087051 136.0
184.190536 100.0
184.39537 156.0
185.012741 152.0
185.391953 152.0
186.03714 888.0
186.915405 172.0
187.038223 156.0
187.111374 220.0
187.203949 184.0
187.950867 192.0
188.002716 160.0
188.031738 352.0
188.893448 164.0
189.043396 164.0
189.090454 164.0
189.383423 160.0
189.643723 144.0
190.917648 144.0
191.192764 176.0
191.520401 180.0
191.746338 240.0
193.068848 148.0
193.291168 136.0
194.083527 236.0
195.07753 960.0
196.023056 216.0
196.083664 604.0
196.37384 164.0
196.477066 168.0
196.937668 144.0
197.10881 184.0
198.02269 5100.0
198.420822 200.0
199.025223 688.0
200.018814 480.0
200.038361 192.0
200.047699 136.0
200.856201 152.0
201.039154 144.0
201.960663 148.0
202.042694 164.0
202.172852 144.0
203.246857 152.0
204.062195 152.0
204.161575 172.0
206.078842 208.0
206.180038 164.0
207.071701 128.0
207.278946 160.0
208.047623 188.0
208.083176 316.0
208.291718 148.0
208.676819 184.0
209.087326 148.0
209.160141 160.0
210.098175 128.0
211.03421 204.0
211.776215 140.0
212.038147 1716.0
212.595001 116.0
212.991577 188.0
213.046234 11044.0
213.16008 168.0
213.844879 196.0
214.049408 1356.0
214.889694 160.0
215.061935 784.0
216.067627 164.0
216.550125 196.0
217.055618 124.0
217.189117 228.0
217.33873 160.0
217.435577 152.0
217.585281 140.0
218.014145 160.0
218.634674 164.0
218.837784 152.0
219.079285 176.0
219.382828 164.0
220.082077 156.0
221.096695 280.0
221.132278 160.0
221.685364 160.0
221.875061 140.0
222.103577 1116.0
223.108521 1620.0
224.035645 168.0
224.117325 556.0
225.043091 200.0
225.127411 304.0
225.19603 180.0
225.754913 172.0
226.055984 344.0
226.133026 156.0
227.061859 780.0
228.057816 908.0
229.067398 296.0
229.186035 144.0
229.614105 224.0
230.073074 1532.0
230.311325 156.0
231.077408 284.0
231.34552 200.0
231.463608 156.0
232.06987 336.0
232.382034 164.0
233.007477 168.0
233.448227 204.0
233.536423 152.0
235.383301 180.0
235.771271 208.0
236.205444 236.0
237.041275 148.0
237.50116 148.0
238.052719 180.0
238.108887 172.0
238.194885 196.0
238.70816 240.0
238.840408 204.0
238.929611 172.0
239.064407 996.0
239.662399 144.0
239.884308 148.0
240.007629 148.0
240.063568 748.0
240.529358 112.0
240.924301 172.0
241.061996 548.0
241.288986 152.0
242.073914 272.0
242.28244 160.0
243.081696 104.0
244.093903 112.0
247.133286 164.0
248.118561 212.0
249.121002 140.0
250.146286 120.0
251.668945 188.0
252.05748 232.0
252.977859 172.0
253.065384 1056.0
254.068512 684.0
254.58786 120.0
255.078186 636.0
255.236877 176.0
255.322739 152.0
255.726791 188.0
255.750534 188.0
255.790451 160.0
255.986176 136.0
256.089691 42392.0
256.218048 148.0
256.350433 196.0
256.566803 168.0
256.813293 156.0
257.092316 7188.0
258.086578 2352.0
258.783997 136.0
258.980103 164.0
259.039642 140.0
259.085419 172.0
260.051361 144.0
261.124481 156.0
262.322296 172.0
263.516418 184.0
264.671143 164.0
264.965881 140.0
265.080139 180.0
266.077118 260.0
267.082489 176.0
267.691101 144.0
268.09024 280.0
268.372131 180.0
269.094391 132.0
269.465546 144.0
269.658356 196.0
270.103668 104.0
270.309143 172.0
271.055756 184.0
271.514709 164.0
271.960938 168.0
272.791992 152.0
273.930603 204.0
276.906738 148.0
277.035919 200.0
277.556274 144.0
278.46225 160.0
280.052124 204.0
280.091095 268.0
280.525299 188.0
282.105225 7144.0
282.155273 100.0
283.106171 996.0
283.322479 180.0
284.10495 320.0
288.427521 204.0
289.55426 176.0
290.863037 172.0
290.98526 204.0
291.906097 144.0
292.314301 164.0
294.101746 224.0
294.697815 164.0
295.103821 116.0
295.343933 220.0
296.092865 172.0
296.504639 156.0
296.730865 144.0
301.691986 176.0
306.535309 132.0
306.6315 164.0
307.946869 152.0
308.488495 140.0
311.131897 4128.0
311.34491 132.0
311.497345 164.0
311.91507 124.0
311.967621 120.0
312.053833 188.0
312.135498 808.0
312.30014 140.0
312.338837 212.0
312.404663 264.0
312.641998 168.0
312.679382 240.0
312.792328 284.0
312.876465 256.0
312.939575 148.0
312.958832 164.0
312.989319 188.0
313.015839 300.0
313.093689 324.0
313.149109 138416.0
313.257874 148.0
313.317352 116.0
313.351105 188.0
313.391724 116.0
313.452942 208.0
313.566528 184.0
313.622437 248.0
313.683594 164.0
313.727997 2428.0
313.761169 164.0
313.795288 112.0
313.922455 132.0
314.000153 120.0
314.053894 204.0
314.088013 132.0
314.150909 40508.0
314.26181 248.0
314.386505 136.0
314.425598 96.0
314.702148 128.0
314.847748 96.0
314.905945 156.0
314.962585 136.0
315.144714 9852.0
315.241516 160.0
315.552948 108.0
315.739685 120.0
315.937073 156.0
316.020264 116.0
316.055328 200.0
316.092346 204.0
316.143677 900.0
316.197418 124.0
316.237488 120.0
316.311737 136.0
316.321167 296.0
316.421814 112.0
316.485535 116.0
316.549011 124.0
316.690186 144.0
316.993683 116.0
317.069153 140.0
317.094971 196.0
317.380371 136.0
319.173889 100.0
396.002808 156.0
423.680695 200.0
466.15506 140.0
478.784607 116.0
510.914398 164.0
853.689148 156.0
1179.573242 160.0
1275.119019 144.0
1468.724243 216.0
1616.244019 156.0
1880.964966 200.0
1928.540649 232.0
1953.101074 140.0
1980.960449 148.0
