>compound Arachidonic_acid
>formula C20H32O2
>ionization [M+H]+
>parentmass 305.249084
#inchi InChI=1S/C20H32O2/c1-2-3-4-5-6-7-8-9-10-11-12-13-14-15-16-17-18-19-20(21)22/h6-7,9-10,12-13,15-16H,2-5,8,11,14,17-19H2,1H3,(H,21,22)
#inchikey YZXBAPSDXZZRGB
#Ion_Source ESI
#Instrument Q-TOF
#Compound_Source Commercial standard
#PI Dorrestein
#Data_Collector Amina
#Scan -1
#Precursor_MZ 305.249
#ExactMass 304.24
#Charge 1
#CAS_Number 506-32-1
#Pubmed_ID N/A
#Smiles CCCCCC=CCC=CCC=CCC=CCCCC(=O)O
#INCHI_AUX N/A
#Library_Class 2
#SpectrumID CCMSLIB00000077192
#IonMode Positive
#UpdateWorkflowName UPDATE-SINGLE-ANNOTATED-SILVER
#LibraryQualityString Silver
#TaskID 9bb88c04c6204bd4ae13def29ea30c87
##Scan# 2873
#SpectrumFile Arachidonic_acid.mzXML
#LibraryName gnps_library.mgf
#MQScore -1
#Organism Standards_Silver
#TIC_Query 0
#RT_Query -1
#MZErrorPPM -1
#SharedPeaks 0
#MassDiff 0
#LibMZ -1
#SpecMZ 305.249
#SpecCharge 0
#internalFilename spec-00000.mgf

>collision 10
75.811615 160.0
76.380829 112.0
76.655777 140.0
77.583443 52.0
77.606224 96.0
77.683357 176.0
77.922005 164.0
78.036194 160.0
78.67189 68.0
79.184441 100.0
79.553078 84.0
79.908348 256.0
80.692734 184.0
80.805359 252.0
80.855438 164.0
81.039795 176.0
81.0989 224.0
82.46257 52.0
82.639709 132.0
83.168625 188.0
83.259361 224.0
83.313828 256.0
83.471878 208.0
84.101936 228.0
84.714226 212.0
85.058807 176.0
85.12854 224.0
85.788765 68.0
87.206009 172.0
87.256172 52.0
87.4049 208.0
87.620781 120.0
87.73069 184.0
87.980553 144.0
88.172859 64.0
88.9179 216.0
88.97982 144.0
89.31604 176.0
89.487213 168.0
90.196213 96.0
90.413612 212.0
90.786652 156.0
91.056084 428.0
91.192741 200.0
91.228844 204.0
92.064911 244.0
92.536995 172.0
92.971916 120.0
93.070404 208.0
94.083939 192.0
94.547623 144.0
94.570839 160.0
94.592125 124.0
95.051239 168.0
95.087334 792.0
95.889015 140.0
95.95916 252.0
96.755905 256.0
97.004585 180.0
97.065033 184.0
97.36544 180.0
97.41256 232.0
97.89814 68.0
97.985001 240.0
98.20742 168.0
98.671265 232.0
98.894691 132.0
100.276421 188.0
100.497673 216.0
101.061707 180.0
101.102859 172.0
102.236206 212.0
102.886955 56.0
103.054466 192.0
103.325302 224.0
104.865845 124.0
105.071312 1224.0
105.145134 44.0
105.187973 64.0
105.279808 148.0
105.379852 236.0
105.733452 92.0
105.966782 92.0
106.085594 172.0
106.651878 188.0
106.908844 184.0
107.086418 1736.0
107.551575 224.0
108.086594 68.0
108.695518 100.0
108.710037 184.0
108.76223 248.0
109.065598 480.0
109.102425 624.0
109.231285 212.0
109.989426 192.0
111.08242 212.0
111.121056 264.0
111.50515 160.0
112.243721 180.0
112.553764 152.0
112.885368 100.0
113.062988 220.0
113.173012 240.0
113.350853 168.0
113.675148 240.0
113.796074 200.0
113.813057 220.0
114.802086 208.0
115.054497 272.0
115.41465 56.0
115.529411 188.0
116.211067 68.0
116.408455 216.0
117.070793 844.0
117.372032 236.0
118.071381 92.0
118.872559 196.0
118.896416 220.0
119.050484 176.0
119.08651 644.0
119.376297 200.0
120.090302 172.0
121.020821 204.0
121.06459 52.0
121.102112 1744.0
121.193771 176.0
121.575142 212.0
122.361694 176.0
122.377098 200.0
122.511383 200.0
122.98967 44.0
123.080437 212.0
123.1185 1056.0
123.157402 68.0
123.64801 200.0
123.798485 232.0
123.933548 152.0
123.971199 172.0
125.096954 184.0
125.134827 188.0
126.04644 208.0
126.097816 184.0
126.113449 80.0
126.694984 164.0
127.072929 176.0
127.149956 156.0
127.430519 76.0
127.724876 144.0
127.974564 204.0
128.046585 232.0
128.064407 204.0
128.350677 188.0
128.88765 176.0
129.068085 216.0
129.213074 88.0
129.337494 164.0
129.455154 200.0
129.586472 196.0
130.076141 240.0
130.253143 164.0
130.493927 276.0
130.707626 224.0
131.044464 148.0
131.086517 1388.0
131.50032 108.0
132.090759 396.0
132.680115 192.0
133.102615 736.0
133.118698 256.0
133.200043 124.0
133.297241 200.0
134.10466 160.0
134.261368 220.0
135.081802 640.0
135.118393 1212.0
135.198883 204.0
135.263657 64.0
135.557663 80.0
135.916916 200.0
136.037537 128.0
136.121658 164.0
136.576385 228.0
136.808975 184.0
137.095947 180.0
137.134171 916.0
137.158234 48.0
137.764679 204.0
137.984253 156.0
138.002945 180.0
138.146683 248.0
138.271835 168.0
138.512894 228.0
138.932312 168.0
138.961365 164.0
139.076324 736.0
139.11528 208.0
139.134048 84.0
139.303055 204.0
139.728363 108.0
140.008347 152.0
140.262695 204.0
141.088531 184.0
141.275681 208.0
141.473969 192.0
143.085373 172.0
143.120911 40.0
144.66011 120.0
144.837219 148.0
145.06955 180.0
145.100204 556.0
145.122269 156.0
145.402802 252.0
146.089691 208.0
146.106522 144.0
147.081528 432.0
147.11705 968.0
147.427261 100.0
147.635056 88.0
148.041428 96.0
148.082581 172.0
148.118652 324.0
148.332047 100.0
148.477448 124.0
148.64476 228.0
149.097549 808.0
149.131805 944.0
149.288208 256.0
149.407333 156.0
150.106796 180.0
150.14505 144.0
151.080307 276.0
151.11084 832.0
151.14682 944.0
151.202408 148.0
151.794983 140.0
152.154251 208.0
153.091278 1008.0
153.663483 160.0
154.48085 204.0
155.102005 116.0
155.387146 84.0
156.094711 272.0
156.79393 92.0
156.851227 64.0
156.916016 148.0
157.102966 572.0
157.492203 88.0
157.709488 184.0
158.08696 180.0
159.115158 188.0
159.224594 144.0
159.252213 212.0
160.120834 208.0
160.338608 208.0
160.628433 168.0
160.812531 196.0
160.984131 184.0
161.096405 1620.0
161.133545 1104.0
161.244217 72.0
161.378143 84.0
161.618317 156.0
161.739731 68.0
162.09671 276.0
162.134659 176.0
162.410889 64.0
162.573196 120.0
162.931046 184.0
163.111603 752.0
163.149063 1512.0
163.17746 252.0
163.246078 52.0
163.772659 240.0
163.963654 188.0
164.070374 180.0
164.142014 108.0
165.090469 264.0
165.133713 264.0
165.166489 464.0
166.092499 216.0
166.138641 264.0
166.170883 240.0
166.857407 136.0
167.109055 1144.0
167.147919 232.0
167.322861 240.0
168.109009 204.0
168.338303 168.0
169.154922 144.0
169.444839 160.0
169.924255 96.0
169.970947 184.0
170.105835 156.0
170.840927 156.0
171.116486 1196.0
171.658371 236.0
172.123169 284.0
172.488235 272.0
172.506531 168.0
173.047821 176.0
173.134262 160.0
173.710556 208.0
174.096207 64.0
175.040863 228.0
175.112564 652.0
175.148941 864.0
175.387436 104.0
175.861984 168.0
176.004486 120.0
176.114487 352.0
176.15358 204.0
176.329254 80.0
176.709869 172.0
177.126846 228.0
177.163452 2468.0
177.411377 120.0
178.132843 60.0
178.163757 248.0
178.653641 52.0
179.107208 1508.0
179.18042 152.0
179.205505 84.0
179.271072 104.0
179.433594 32.0
180.11676 236.0
180.519836 124.0
180.899582 84.0
181.036072 192.0
181.120499 172.0
182.051971 248.0
182.110504 164.0
183.113785 172.0
183.29689 232.0
183.536682 228.0
184.05722 40.0
184.119293 176.0
184.356918 192.0
185.13324 548.0
185.160049 260.0
185.598846 200.0
186.135864 204.0
186.410095 128.0
187.146622 372.0
187.41098 220.0
188.155228 220.0
188.398163 88.0
188.444595 136.0
189.040405 108.0
189.126953 524.0
189.163696 528.0
189.256561 148.0
189.409851 104.0
189.604294 120.0
190.133362 140.0
190.1745 252.0
190.201935 92.0
190.426987 208.0
190.531326 172.0
190.616455 228.0
191.122177 128.0
191.145584 208.0
191.180344 816.0
191.367035 80.0
191.672623 92.0
191.69191 264.0
192.181107 420.0
192.847733 228.0
193.052216 168.0
193.123596 2232.0
193.361923 84.0
193.815872 216.0
194.125107 244.0
195.1371 488.0
195.183701 240.0
195.486755 64.0
195.689865 112.0
196.152115 168.0
196.352768 108.0
196.486603 204.0
197.139679 148.0
198.132523 60.0
198.746262 136.0
198.805161 220.0
198.979111 104.0
199.153564 496.0
199.720642 52.0
200.154755 440.0
201.131683 232.0
201.168365 144.0
201.507095 212.0
202.612808 208.0
202.641129 188.0
202.938583 100.0
203.012283 60.0
203.144302 808.0
203.176788 716.0
203.460388 152.0
203.539841 204.0
204.180008 352.0
204.423492 144.0
205.092468 124.0
205.159042 392.0
205.193314 1012.0
205.26915 108.0
205.428787 60.0
206.133682 216.0
206.162247 176.0
206.197418 236.0
206.908447 80.0
206.942795 224.0
207.031525 208.0
207.077316 176.0
207.138855 3620.0
207.197571 96.0
207.238373 164.0
207.332184 148.0
207.426727 40.0
207.518417 140.0
207.564285 104.0
207.618744 72.0
207.676071 64.0
207.879669 44.0
208.140793 708.0
208.568649 84.0
208.876175 24.0
208.913559 248.0
209.152924 1292.0
209.658966 208.0
210.159943 704.0
210.47496 72.0
210.700134 160.0
210.899429 224.0
211.185547 160.0
211.359055 240.0
212.398636 176.0
212.952774 112.0
213.163406 260.0
214.034103 124.0
214.182556 324.0
214.462158 40.0
215.178757 220.0
215.186829 136.0
216.161087 184.0
216.187424 188.0
217.095139 148.0
217.161774 668.0
217.188339 212.0
218.168564 224.0
218.201614 204.0
218.38974 48.0
218.592636 256.0
219.176224 276.0
219.21347 280.0
219.378677 68.0
219.847427 212.0
220.221222 228.0
220.502762 124.0
220.70369 156.0
221.1138 244.0
221.154739 5144.0
221.27446 220.0
221.463898 44.0
221.780792 116.0
221.851898 44.0
222.159042 1012.0
222.43602 120.0
222.569565 120.0
222.697205 72.0
223.16864 1052.0
223.261627 52.0
223.380539 56.0
223.478683 216.0
223.987518 124.0
224.169617 220.0
224.195984 184.0
224.26947 204.0
224.699677 36.0
225.377121 152.0
225.968857 212.0
226.375763 108.0
226.690155 192.0
227.187637 204.0
228.921112 184.0
229.19812 228.0
229.457214 164.0
229.957718 188.0
230.746063 212.0
231.180542 708.0
231.217834 224.0
232.738525 244.0
233.157532 296.0
233.181839 212.0
233.637741 224.0
234.030182 104.0
234.15802 240.0
234.237167 248.0
235.17012 2780.0
235.315216 108.0
235.584885 140.0
235.719254 160.0
236.176285 996.0
236.29689 80.0
236.648697 216.0
236.792557 48.0
236.893585 232.0
237.187668 464.0
237.76091 124.0
238.058563 132.0
238.116882 244.0
238.258118 244.0
238.906494 184.0
239.171005 144.0
239.460297 144.0
239.98085 132.0
240.949524 152.0
241.192627 176.0
242.102951 188.0
242.19252 172.0
243.213181 680.0
243.240112 48.0
243.873474 104.0
243.9729 76.0
244.016403 88.0
244.137619 192.0
244.215332 156.0
244.909119 80.0
245.192551 700.0
245.227615 1344.0
245.288544 68.0
245.884552 100.0
246.193481 160.0
246.226471 452.0
246.643768 128.0
247.171478 164.0
247.234039 136.0
249.010834 36.0
249.18454 684.0
249.966095 88.0
250.15799 156.0
250.188919 244.0
250.475891 144.0
251.096542 144.0
251.199738 180.0
251.89473 200.0
253.178268 104.0
253.475922 132.0
256.924103 192.0
257.188843 152.0
258.594543 224.0
259.071442 80.0
259.142578 220.0
259.205627 1072.0
259.244965 696.0
259.273193 232.0
259.33728 64.0
259.837311 56.0
259.859741 68.0
259.988037 192.0
260.207367 324.0
260.238312 184.0
260.633179 60.0
260.671722 264.0
261.211639 180.0
261.259857 192.0
261.971344 184.0
262.177094 152.0
262.428925 200.0
263.206635 396.0
264.207153 204.0
264.285187 140.0
265.202942 128.0
265.327209 148.0
266.79068 84.0
267.209137 220.0
268.20932 160.0
268.258179 136.0
268.580872 92.0
268.952667 184.0
269.008148 124.0
269.11908 180.0
269.226471 2952.0
269.56311 168.0
269.729736 148.0
269.778748 52.0
269.831024 52.0
269.938873 128.0
270.23053 548.0
271.048035 32.0
271.234772 200.0
273.220612 176.0
274.784821 112.0
275.187286 120.0
275.778351 164.0
277.571869 68.0
280.253052 168.0
280.926208 152.0
281.199707 156.0
281.47998 256.0
282.699554 124.0
283.667084 156.0
284.481873 176.0
284.780579 152.0
285.221954 244.0
285.526367 124.0
286.522278 192.0
286.852386 160.0
287.237366 5976.0
287.361389 220.0
287.626678 68.0
287.671722 228.0
287.762848 100.0
288.036255 28.0
288.243286 1412.0
288.282776 64.0
289.245911 328.0
289.422211 72.0
289.456055 96.0
289.720123 52.0
290.079163 96.0
290.140167 128.0
290.187622 64.0
290.323181 76.0
290.682617 132.0
291.276489 128.0
292.459229 204.0
297.845642 132.0
298.147827 132.0
298.302429 172.0
301.247437 180.0
301.706848 124.0
302.62326 84.0
302.817108 196.0
303.118378 156.0
303.233337 372.0
304.162811 180.0
304.238129 156.0
304.262421 124.0
304.331848 212.0
304.606079 160.0
304.765808 224.0
304.88739 160.0
304.974243 280.0
305.008972 108.0
305.050659 148.0
305.08194 164.0
305.109741 112.0
305.166626 716.0
305.249084 30880.0
305.330383 56.0
305.37912 128.0
305.408356 248.0
305.455933 140.0
305.481659 108.0
305.537323 96.0
305.568604 92.0
305.597534 100.0
305.662506 132.0
305.701141 180.0
305.756439 84.0
305.82309 48.0
305.871368 96.0
305.906036 80.0
306.038269 52.0
306.06958 60.0
306.125275 56.0
306.172729 232.0
306.21521 156.0
306.250061 6340.0
306.334167 44.0
306.358521 60.0
306.433899 224.0
306.497833 76.0
306.5849 56.0
306.619751 76.0
306.660187 72.0
306.734711 108.0
306.779999 108.0
307.111115 172.0
307.146576 432.0
307.205017 416.0
307.257568 680.0
307.351715 104.0
307.393585 104.0
307.449402 60.0
307.593933 88.0
307.637787 72.0
307.871613 116.0
308.065735 112.0
308.154419 112.0
308.182373 176.0
308.227753 32.0
308.253815 140.0
308.301117 76.0
308.339539 96.0
308.412903 88.0
308.440857 72.0
308.482788 100.0
308.61908 72.0
308.940674 68.0
309.140015 224.0
309.346436 108.0
309.510925 84.0
309.77063 64.0
310.183258 68.0
310.449615 56.0
310.48114 88.0
311.101929 128.0
312.82016 104.0
315.655518 124.0
319.109955 76.0
319.182159 108.0
319.342102 40.0
320.804932 132.0
322.188965 100.0
322.317505 24.0
323.847992 36.0
328.057434 96.0
330.776337 56.0
334.917572 76.0
349.356262 96.0
366.670349 104.0
369.957611 72.0
385.570282 40.0
405.58194 116.0
408.0979 40.0
429.502777 96.0
441.555054 84.0
452.097473 120.0
482.865265 92.0
489.854279 116.0
491.445099 120.0
498.056061 80.0
502.131226 76.0
546.885498 68.0
557.807373 68.0
597.171204 108.0
605.023926 84.0
655.008484 56.0
665.364502 140.0
676.448425 40.0
763.037292 64.0
811.34668 96.0
840.267639 100.0
844.193665 116.0
845.835999 52.0
855.764587 224.0
879.650208 40.0
903.936279 84.0
908.72168 112.0
996.402893 88.0
1018.865234 112.0
1036.255615 140.0
1077.164062 56.0
1077.817017 76.0
1156.148804 108.0
1173.891846 44.0
1177.445801 160.0
1180.519653 60.0
1183.111694 96.0
1224.316284 160.0
1274.238281 196.0
1283.415649 68.0
1305.367432 116.0
1340.358765 180.0
1341.189209 224.0
1355.155518 172.0
1415.881348 168.0
1415.963623 112.0
1431.29895 136.0
1462.065063 176.0
1477.907349 232.0
1483.265869 80.0
1506.865601 192.0
1528.022095 108.0
1543.599243 68.0
1561.966797 108.0
1594.734863 188.0
1595.950684 212.0
1601.160522 164.0
1613.866821 136.0
1621.123779 188.0
1621.844727 96.0
1625.748901 56.0
1642.540771 188.0
1644.32312 128.0
1645.748535 236.0
1680.050903 88.0
1689.809448 232.0
1700.096558 156.0
1701.32605 208.0
1702.706055 148.0
1731.095581 192.0
1737.027222 216.0
1741.216919 80.0
1742.304565 204.0
1743.60022 164.0
1745.644287 168.0
1749.98584 240.0
1760.395874 120.0
1766.946045 172.0
1770.694458 204.0
1777.66626 164.0
1779.654785 224.0
1794.11084 312.0
1796.563721 212.0
1797.061279 248.0
1828.434692 192.0
1828.877075 144.0
1834.411377 212.0
1836.482422 248.0
1844.889648 220.0
1845.616089 232.0
1853.872803 160.0
1858.561279 168.0
1861.692993 88.0
1866.116333 200.0
1888.493042 156.0
1889.591187 192.0
1889.937134 64.0
1897.234985 88.0
1897.919556 204.0
1913.038696 232.0
1922.473877 304.0
1925.528076 232.0
1925.763794 80.0
1941.589233 156.0
1971.870483 176.0
1972.427002 240.0
1976.511108 132.0
1985.941772 256.0
1990.137451 120.0
1992.934082 212.0
1993.253784 176.0
1996.49707 248.0
1996.754761 156.0
