>compound MLS001142421-01!
>formula C26H28N4O5
>ionization [M+Na]+
>parentmass 499.195343
#inchi InChI=1S/C26H28N4O5/c1-15(23(31)27-14-16-5-7-17(34-3)8-6-16)30-24(32)26(2)22-19(11-12-29(26)25(30)33)20-13-18(35-4)9-10-21(20)28-22/h5-10,13,15,28H,11-12,14H2,1-4H3,(H,27,31)/t15-,26-/m0/s1
#inchikey RTEURRPWXUTETQ
#Ion_Source LC-ESI
#Instrument qTof
#Compound_Source NIH Natural Product Library
#PI Dorrestein
#Data_Collector VVP/LMS
#Scan -1
#Precursor_MZ 499.195
#ExactMass 476.206
#Charge 1
#CAS_Number N/A
#Pubmed_ID N/A
#Smiles COc1ccc(CNC(=O)[C@H](C)N2C(=O)N3CCc4c([nH]c5ccc(OC)cc45)[C@@]3(C)C2=O)cc1
#INCHI_AUX N/A
#Library_Class 1
#SpectrumID CCMSLIB00000079563
#IonMode Positive
#UpdateWorkflowName UPDATE-SINGLE-ANNOTATED-GOLD
#LibraryQualityString Gold
#TaskID b1d8e8f6646f4e71acdff9ca3d919d08
##Scan# 2226
#SpectrumFile p1-B08_GB8_01_17892.mzXML
#LibraryName NIH_Natural_Products_Library.mgf
#MQScore -1
#Organism NIH_Natural_Products_Library
#TIC_Query 0
#RT_Query -1
#MZErrorPPM -1
#SharedPeaks 0
#MassDiff 0
#LibMZ -1
#SpecMZ 499.195
#SpecCharge 0
#internalFilename spec-00000.mgf

>collision 10
102.600227 52.0
103.082611 196.0
106.741699 108.0
107.644241 152.0
111.248322 56.0
113.641579 176.0
119.936584 120.0
120.770653 80.0
121.065071 2012.0
121.480354 48.0
122.07106 248.0
122.148132 36.0
122.703079 84.0
123.082573 160.0
146.13176 36.0
152.046478 176.0
168.109589 228.0
169.954529 156.0
175.170258 116.0
177.445618 184.0
180.595856 208.0
191.207855 76.0
209.624405 48.0
211.712967 60.0
225.458832 144.0
227.045486 120.0
232.044952 136.0
236.373108 128.0
238.83046 196.0
240.302948 56.0
241.421112 156.0
249.465485 144.0
253.283646 96.0
257.090485 696.0
258.093353 212.0
258.953156 180.0
261.10022 132.0
262.765533 132.0
262.933319 96.0
265.103851 92.0
266.664276 140.0
268.190735 152.0
269.352325 152.0
270.9487 216.0
272.480804 128.0
276.645966 128.0
281.051666 192.0
285.572021 160.0
291.872284 116.0
292.066864 168.0
293.070374 144.0
296.124329 140.0
298.04538 168.0
299.070068 188.0
299.197571 20.0
306.007538 132.0
307.694946 112.0
309.919342 48.0
312.032196 140.0
314.078156 140.0
317.083954 132.0
318.861481 96.0
324.064209 164.0
325.075348 160.0
325.405579 156.0
329.760651 108.0
331.363678 108.0
332.847137 176.0
333.973724 132.0
334.053741 140.0
335.069397 132.0
335.131348 56.0
335.455688 136.0
342.083252 212.0
342.111847 144.0
346.391724 124.0
347.288696 120.0
348.097748 104.0
348.406006 144.0
359.032623 124.0
359.538116 196.0
361.087067 160.0
369.298492 80.0
374.106415 124.0
375.134949 96.0
378.130249 132.0
382.074615 120.0
383.078979 156.0
387.532623 128.0
390.433441 164.0
406.061768 96.0
408.467651 116.0
412.071625 112.0
413.11795 108.0
415.087036 92.0
415.115448 112.0
420.126282 124.0
420.873169 144.0
422.917175 48.0
426.156799 120.0
431.1362 176.0
433.480804 100.0
437.771881 128.0
439.368256 96.0
441.954407 136.0
443.311096 232.0
443.386505 156.0
444.132812 144.0
444.174744 152.0
448.450867 152.0
448.623688 168.0
454.493927 128.0
454.803741 96.0
461.543274 172.0
465.129059 108.0
467.802734 160.0
468.875214 84.0
469.164032 136.0
469.715973 108.0
470.151733 148.0
478.548004 36.0
479.284546 196.0
482.264679 132.0
483.152069 124.0
484.170471 964.0
484.702271 44.0
485.074768 108.0
485.172668 156.0
485.254517 88.0
486.188812 104.0
486.368774 56.0
486.965881 48.0
487.778748 52.0
488.077698 132.0
488.526276 204.0
488.557068 28.0
490.172913 168.0
491.800232 80.0
493.810516 92.0
495.528046 220.0
495.598938 112.0
496.206116 40.0
496.41452 132.0
496.653992 88.0
497.048828 84.0
497.146454 64.0
498.683075 48.0
499.020905 84.0
499.127136 264.0
499.195343 9324.0
499.358856 148.0
499.750336 68.0
499.790375 48.0
499.876892 208.0
499.930817 72.0
499.980042 244.0
500.07962 56.0
500.196411 2768.0
500.334717 168.0
500.426849 60.0
500.477997 148.0
500.658112 108.0
500.731323 80.0
500.787537 80.0
501.077087 36.0
501.154694 48.0
501.202789 648.0
501.304321 68.0
501.536072 44.0
501.879333 60.0
501.959595 44.0
502.0354 76.0
502.093384 72.0
502.154968 64.0
502.208557 256.0
502.338684 28.0
502.443848 80.0
502.508209 68.0
502.561768 40.0
502.592987 64.0
502.691162 48.0
502.740234 88.0
502.883972 136.0
503.119629 120.0
503.374115 52.0
503.414307 92.0
503.450043 52.0
503.927979 68.0
504.281006 44.0
504.316772 44.0
504.356995 108.0
505.152893 188.0
505.533203 68.0
505.712219 44.0
505.918121 64.0
506.307678 44.0
506.836243 64.0
514.96521 108.0
515.165955 344.0
516.168274 300.0
516.741699 92.0
516.818604 32.0
517.166199 124.0
517.203308 132.0
517.280212 104.0
520.013367 60.0
520.15863 100.0
532.808228 128.0
533.161926 472.0
534.178101 200.0
534.224121 128.0
537.167664 104.0
540.202576 128.0
541.216064 32.0
552.16571 76.0
650.200134 76.0
651.185059 40.0
682.60199 92.0
704.684937 96.0
713.429443 88.0
737.054871 116.0
752.1745 96.0
842.986755 72.0
868.006042 20.0
869.187988 20.0
885.544189 136.0
887.013611 100.0
1002.645081 116.0
1029.933594 60.0
1120.123779 148.0
1203.304688 204.0
1210.862549 124.0
1256.212769 156.0
1272.397339 64.0
1287.735474 184.0
1407.439331 84.0
1471.644287 124.0
1486.96936 168.0
