>compound MLS000069715-01!SUCCINYLSULFATHIAZOLE
>formula C13H13N3O5S2
>ionization [M+H]+
>parentmass 356.0369389680905
#inchi InChI=1S/C13H13N3O5S2/c17-11(5-6-12(18)19)15-9-1-3-10(4-2-9)23(20,21)16-13-14-7-8-22-13/h1-4,7-8H,5-6H2,(H,14,16)(H,15,17)(H,18,19)
#inchikey SKVLYVHULOWXTD
#Ion_Source LC-ESI
#Instrument qTof
#Compound_Source NIH Pharmacologically Active Library
#PI Dorrestein
#Data_Collector VP/LMS
#Scan -1
#Precursor_MZ 356.029
#ExactMass 355.03
#Charge 1
#CAS_Number N/A
#Pubmed_ID N/A
#Smiles OC(=O)CCC(=O)Nc1ccc(cc1)S(=O)(=O)Nc2nccs2
#INCHI_AUX N/A
#Library_Class 1
#SpectrumID CCMSLIB00000085350
#IonMode Positive
#UpdateWorkflowName UPDATE-SINGLE-ANNOTATED-GOLD
#LibraryQualityString Gold
#TaskID d252d724072548979f1f6f1ced849daf
##Scan# 1322
#SpectrumFile p3-H08_GH8_01_18313.mzXML
#LibraryName Pharm_Active_Library.mgf
#MQScore -1
#Organism Pharm_Active_Library
#TIC_Query 0
#RT_Query -1
#MZErrorPPM -1
#SharedPeaks 0
#MassDiff 0
#LibMZ -1
#SpecMZ 356.029
#SpecCharge 0
#internalFilename spec-00000.mgf

>collision 10
48.414417 60.0
48.658478 120.0
48.944916 124.0
49.906254 128.0
52.316654 200.0
52.498211 164.0
54.19912 160.0
54.538143 108.0
54.825157 156.0
55.0686 108.0
56.283463 232.0
58.021389 108.0
58.733112 68.0
62.70779 148.0
63.297081 172.0
65.129669 128.0
66.132637 72.0
67.210144 212.0
68.084335 180.0
68.42144 184.0
68.492249 196.0
69.055122 136.0
72.546799 160.0
72.904953 80.0
73.196152 116.0
73.366241 224.0
74.705505 164.0
76.336601 144.0
80.572678 140.0
81.258408 176.0
82.486671 152.0
83.554855 76.0
84.150856 36.0
84.240349 144.0
88.258698 212.0
88.796173 192.0
89.938301 156.0
91.2873 160.0
92.009468 192.0
92.054428 184.0
92.850479 20.0
94.034714 152.0
94.067932 228.0
94.57592 232.0
96.345573 132.0
97.040375 168.0
99.201218 148.0
100.0075 244.0
100.238739 60.0
100.529892 152.0
101.016853 284.0
101.341766 124.0
101.716805 80.0
102.022156 92.0
102.068398 148.0
103.011658 144.0
103.77668 48.0
104.050034 248.0
108.046104 1508.0
109.053093 188.0
110.060257 744.0
110.188828 76.0
110.575691 52.0
111.62677 116.0
111.967697 56.0
114.168777 144.0
115.035995 80.0
115.696587 104.0
116.103714 188.0
116.533043 100.0
117.056236 332.0
117.275497 112.0
118.064369 580.0
118.951927 188.0
118.980156 200.0
119.069183 196.0
120.048538 200.0
120.079239 160.0
121.047226 156.0
121.727036 164.0
122.063522 424.0
122.514465 236.0
123.110016 188.0
123.448135 64.0
123.99054 168.0
126.751755 184.0
130.890228 208.0
131.928375 180.0
132.045242 532.0
134.060013 160.0
136.029114 196.0
136.074005 176.0
140.01535 504.0
140.070068 44.0
140.157242 104.0
141.023361 172.0
141.802078 48.0
142.212402 112.0
144.05072 208.0
146.060257 2260.0
146.086014 240.0
146.117279 52.0
146.704926 52.0
146.912323 40.0
147.068741 424.0
147.891006 136.0
149.252029 152.0
149.269043 80.0
150.956558 172.0
152.061478 172.0
156.010239 1156.0
156.041214 152.0
156.972473 184.0
157.014877 176.0
157.052292 224.0
158.009079 152.0
164.071732 1152.0
164.211014 204.0
165.068604 172.0
165.110046 220.0
167.788315 172.0
167.894043 132.0
170.049225 80.0
173.057632 140.0
174.053268 604.0
174.17485 40.0
175.054916 184.0
176.081848 240.0
177.004807 140.0
177.073669 40.0
182.066483 76.0
182.345901 180.0
186.133545 144.0
188.028305 148.0
188.369629 96.0
190.045578 132.0
192.064545 3544.0
192.103745 208.0
192.368027 92.0
192.401154 76.0
192.624847 88.0
193.066345 796.0
194.063995 148.0
194.227615 156.0
198.197723 60.0
202.063705 332.0
202.100357 344.0
202.227798 64.0
202.672424 112.0
202.78862 36.0
204.103043 168.0
204.276535 36.0
208.060532 256.0
208.112015 188.0
208.4711 236.0
210.184509 56.0
210.493378 156.0
211.103134 112.0
213.81279 160.0
220.08046 264.0
222.021713 132.0
225.284058 148.0
227.131073 148.0
227.971756 212.0
228.12204 136.0
232.322815 88.0
237.128601 64.0
237.987564 120.0
238.014893 224.0
240.031784 156.0
241.067978 180.0
241.785461 56.0
244.046921 136.0
256.026337 400.0
257.031738 312.0
258.034882 180.0
268.928528 128.0
271.142792 156.0
272.052124 144.0
272.908936 72.0
280.353912 100.0
289.173676 148.0
295.055328 192.0
300.968567 132.0
316.041931 148.0
322.882874 140.0
338.031738 128.0
339.023621 104.0
356.032104 332.0
357.105988 168.0
359.245575 116.0
487.185516 20.0
638.934204 96.0
702.041748 228.0
873.255066 52.0
892.564514 164.0
895.8797 252.0
984.641418 20.0
1026.97937 188.0
1038.370728 212.0
1159.296021 180.0
1164.798706 32.0
1167.551392 212.0
1181.631714 168.0
1193.950928 100.0
1202.956665 160.0
1225.720093 164.0
1246.348999 228.0
1247.016602 128.0
1256.290527 280.0
1262.089111 180.0
1297.440674 208.0
1349.368652 180.0
1366.899536 160.0
1408.336914 192.0
1417.292114 200.0
1418.446289 184.0
1433.425537 76.0
1438.931885 144.0
1454.109863 128.0
1457.61084 204.0
1472.504761 160.0
1476.486694 204.0
1494.01416 112.0
