>compound SALBUTAMOL SULFATE
>formula C13H21NO3
>ionization [M+H]+
>parentmass 240.16066
#inchi InChI=1S/C13H21NO3/c1-13(2,3)14-7-12(17)9-4-5-11(16)10(6-9)8-15/h4-6,12,14-17H,7-8H2,1-3H3
#inchikey NDAUXUAQIAJITI
#Ion_Source LC-ESI
#Instrument qTof
#Compound_Source Commercial
#PI Dorrestein
#Data_Collector Garg_Neha
#Scan -1
#Precursor_MZ 240.159
#ExactMass 239.152
#Charge 1
#CAS_Number N/A
#Pubmed_ID N/A
#Smiles CC(C)(C)NCC(O)c1ccc(O)c(CO)c1
#INCHI_AUX N/A
#Library_Class 1
#SpectrumID CCMSLIB00000079202
#IonMode Positive
#UpdateWorkflowName UPDATE-SINGLE-ANNOTATED-GOLD
#LibraryQualityString Gold
#TaskID 278b19f5865741e282cec7349aa7e7a1
##Scan# 754
#SpectrumFile NCP003592_G2_H11_BE3_01_15737.mzXML
#LibraryName NIHcollectionI_05062014.mgf
#MQScore -1
#Organism NIHcollectionI_05062014
#TIC_Query 0
#RT_Query -1
#MZErrorPPM -1
#SharedPeaks 0
#MassDiff 0
#LibMZ -1
#SpecMZ 240.159
#SpecCharge 0
#internalFilename spec-00000.mgf

>collision 10
47.31163 164.0
58.519279 164.0
59.460926 176.0
59.668297 212.0
63.147564 144.0
65.088654 176.0
67.302185 168.0
67.933929 144.0
70.600716 204.0
74.350098 168.0
76.538635 184.0
78.126091 160.0
89.856651 160.0
95.755661 152.0
103.056259 280.0
104.059502 148.0
105.056725 168.0
106.065231 192.0
106.159157 160.0
107.055138 148.0
108.449677 164.0
117.06028 228.0
118.063744 476.0
119.067146 168.0
120.08181 652.0
121.065178 1044.0
121.531693 140.0
122.06765 152.0
122.64666 144.0
123.072693 172.0
124.47406 152.0
130.065964 868.0
131.051544 236.0
131.067505 156.0
132.044754 200.0
133.053101 664.0
134.055603 180.0
135.828918 188.0
136.054001 184.0
136.079468 124.0
143.050552 176.0
144.34845 268.0
147.072449 172.0
148.037491 188.0
148.076523 7260.0
148.163437 188.0
148.186386 120.0
148.774567 200.0
149.079361 864.0
150.080124 192.0
150.11763 140.0
152.770203 152.0
157.847321 200.0
163.078598 184.0
166.087128 5848.0
167.089798 648.0
170.009766 152.0
185.973022 176.0
198.006363 140.0
204.134949 228.0
207.049728 180.0
207.18721 204.0
209.447952 180.0
221.477402 164.0
222.149246 4852.0
223.154007 496.0
224.158813 144.0
224.94751 144.0
240.16066 3216.0
241.165192 240.0
249.886505 156.0
259.119415 164.0
326.616882 196.0
356.822876 172.0
1595.022095 176.0
1760.321045 152.0
1821.170288 176.0
1842.133057 140.0
1884.487427 184.0
