>compound Mupirocin
>formula C26H44O9 
>ionization [M+H]+
>parentmass 501.303955
#inchi InChI=1S/C26H44O9/c1-16(13-23(30)33-11-9-7-5-4-6-8-10-22(28)29)12-20-25(32)24(31)19(15-34-20)14-21-26(35-21)17(2)18(3)27/h13,17-21,24-27,31-32H,4-12,14-15H2,1-3H3,(H,28,29)/b16-13+/t17-,18-,19-,20-,21-,24+,25-,26-/m0/s1
#inchikey MINDHVHHQZYEEK
#Ion_Source LC-ESI
#Instrument qTof
#Compound_Source Commercial
#PI Dorrestein
#Data_Collector Garg_Neha
#Scan -1
#Precursor_MZ 501.309
#ExactMass 500.299
#Charge 1
#CAS_Number N/A
#Pubmed_ID N/A
#Smiles N/A
#INCHI_AUX N/A
#Library_Class 1
#SpectrumID CCMSLIB00000077108
#IonMode Positive
#UpdateWorkflowName UPDATE-SINGLE-ANNOTATED-GOLD
#LibraryQualityString Gold
#TaskID 48f7f52fc6d249b5abbcc6e7b3df5969
##Scan# 1285
#SpectrumFile NCP003106_E2_F11_BB4_01_15707.mzXML
#LibraryName NIH_Clinical_Collection_2.mgf
#MQScore -1
#Organism NIHcollection2_04212014_2_mgf
#TIC_Query 0
#RT_Query -1
#MZErrorPPM -1
#SharedPeaks 0
#MassDiff 0
#LibMZ -1
#SpecMZ 501.309
#SpecCharge 0
#internalFilename spec-00000.mgf

>collision 10
45.831593 160.0
46.419598 144.0
47.61372 276.0
47.931499 180.0
48.685425 160.0
48.874477 160.0
49.888477 180.0
51.288498 176.0
52.442356 228.0
53.153889 148.0
53.845383 156.0
55.299488 164.0
57.84272 148.0
59.128887 196.0
59.228409 156.0
60.970375 160.0
64.402199 148.0
64.544434 152.0
64.747665 156.0
66.017433 140.0
69.777634 184.0
70.384117 144.0
71.392914 140.0
75.723129 148.0
75.809746 164.0
76.052551 148.0
76.288795 180.0
76.732727 188.0
79.419853 144.0
79.737663 164.0
84.142281 152.0
87.574188 192.0
87.62262 188.0
87.920967 148.0
89.580338 168.0
91.054497 260.0
92.059334 152.0
92.814926 232.0
93.070671 352.0
93.685677 220.0
94.075386 180.0
95.049637 304.0
95.085587 300.0
96.074249 168.0
96.091805 212.0
96.451134 168.0
97.031601 424.0
97.064842 516.0
98.034996 180.0
98.073288 236.0
99.041298 144.0
99.082535 232.0
100.849297 168.0
101.063271 204.0
102.126511 168.0
105.07122 736.0
107.049103 508.0
107.087303 664.0
107.964127 172.0
108.442368 156.0
108.496262 176.0
109.0261 484.0
109.064552 828.0
109.101608 296.0
109.289642 144.0
110.030121 144.0
110.050415 144.0
110.066254 136.0
110.903938 156.0
111.044342 2216.0
111.079887 460.0
111.381248 148.0
112.045044 180.0
112.414238 160.0
113.060478 344.0
113.100845 144.0
113.60305 164.0
114.065979 180.0
115.076508 256.0
115.214592 172.0
117.070572 300.0
117.175491 168.0
117.412605 156.0
118.071297 180.0
119.048058 300.0
119.085289 576.0
120.054077 152.0
121.028236 164.0
121.065666 720.0
121.101685 476.0
122.066551 172.0
123.046768 284.0
123.081573 460.0
123.124336 164.0
124.051422 172.0
125.025337 164.0
125.061028 796.0
125.097122 464.0
125.587936 160.0
126.916313 216.0
127.037704 168.0
127.072273 160.0
127.111465 184.0
127.127174 160.0
127.172058 140.0
128.059448 276.0
129.055176 860.0
129.073975 180.0
129.090744 484.0
129.225525 140.0
130.078445 108.0
130.795395 232.0
131.085815 672.0
132.087708 196.0
133.066101 1100.0
133.099289 624.0
134.06604 316.0
134.797562 164.0
135.012543 180.0
135.043076 160.0
135.080826 960.0
135.118637 328.0
135.75592 184.0
136.044632 200.0
136.082748 200.0
137.061951 648.0
137.097153 1228.0
138.101898 144.0
139.03978 964.0
139.075974 480.0
139.112198 240.0
139.531616 184.0
140.11528 156.0
141.056107 808.0
141.092972 592.0
142.059631 224.0
142.075867 344.0
142.098862 432.0
143.069412 328.0
143.087265 308.0
144.047806 176.0
144.215881 192.0
145.067032 776.0
145.099777 1064.0
145.308212 132.0
146.103821 468.0
147.081436 768.0
147.114624 364.0
147.741119 160.0
148.096954 196.0
149.058655 468.0
149.094894 1428.0
149.950775 148.0
150.09819 332.0
151.075333 532.0
151.110565 164.0
152.968445 180.0
153.057205 904.0
153.09079 576.0
153.123566 212.0
153.416794 168.0
154.520721 168.0
155.036835 164.0
155.067154 244.0
155.10791 1240.0
155.737869 176.0
156.093262 136.0
157.053162 428.0
157.101761 480.0
157.976303 188.0
158.049988 136.0
158.072647 156.0
158.103683 224.0
158.126434 152.0
159.04628 196.0
159.081375 796.0
159.122391 380.0
160.021667 152.0
160.08252 244.0
161.059341 744.0
161.096603 1388.0
162.103256 160.0
163.013992 156.0
163.074203 404.0
163.110977 524.0
164.073822 304.0
164.116165 148.0
165.053619 168.0
165.090378 852.0
165.124405 240.0
166.091049 468.0
167.078094 248.0
167.105972 2060.0
167.985245 184.0
168.106201 320.0
168.195267 168.0
169.04982 168.0
169.100082 268.0
169.122925 432.0
169.190506 224.0
171.078827 436.0
171.117294 324.0
173.093353 684.0
173.129669 208.0
174.101669 188.0
175.07515 1136.0
175.105042 160.0
175.145889 112.0
176.082474 180.0
176.834366 152.0
177.056763 284.0
177.090286 1420.0
177.122894 132.0
178.06456 160.0
178.096054 276.0
178.838257 160.0
179.019302 148.0
179.071075 1556.0
179.109055 580.0
179.557617 164.0
180.074966 196.0
180.481583 140.0
181.084976 504.0
181.121872 1004.0
181.426682 148.0
182.125458 128.0
183.100479 420.0
184.117645 140.0
184.53894 196.0
185.086456 160.0
185.119522 1076.0
186.117157 388.0
186.148453 212.0
187.071365 148.0
187.114456 360.0
187.149094 148.0
188.083542 208.0
189.089371 936.0
189.163895 204.0
190.091415 272.0
190.134171 200.0
191.065659 212.0
191.108276 992.0
192.110397 240.0
193.089508 660.0
193.699234 148.0
194.084457 176.0
194.118347 164.0
195.06041 180.0
195.102692 788.0
196.080032 148.0
196.104095 264.0
196.607513 152.0
197.121124 140.0
198.103348 224.0
199.076065 356.0
199.146027 572.0
199.326645 196.0
200.14917 228.0
201.058517 184.0
201.088989 380.0
201.132172 452.0
201.402039 116.0
202.132355 148.0
202.207352 144.0
203.07016 404.0
203.105057 168.0
203.136337 296.0
204.078171 188.0
205.083649 680.0
205.129288 176.0
205.559341 176.0
206.087524 196.0
206.399139 216.0
206.768494 172.0
207.10112 1184.0
207.134583 152.0
208.105927 152.0
208.655609 176.0
208.738983 188.0
209.11821 1884.0
210.118088 532.0
211.100464 420.0
211.153244 112.0
212.125107 136.0
212.386597 160.0
213.126389 760.0
214.133408 152.0
215.104355 232.0
215.142395 168.0
215.177338 192.0
216.10968 176.0
216.132309 180.0
217.026443 232.0
217.088165 688.0
217.120285 556.0
217.15773 156.0
218.159698 176.0
219.102554 624.0
219.139587 264.0
220.110123 164.0
221.079559 540.0
221.157196 136.0
222.084076 148.0
222.107803 144.0
223.097336 1004.0
223.135529 144.0
224.102264 456.0
224.156204 148.0
225.11705 408.0
226.1129 164.0
226.561401 160.0
227.12854 2412.0
227.689209 144.0
227.934128 132.0
228.130157 696.0
228.158798 212.0
228.573013 152.0
229.124588 804.0
230.080017 248.0
230.120453 148.0
230.143417 160.0
231.137421 600.0
232.141602 384.0
233.116104 124.0
233.171249 176.0
234.091431 184.0
235.0979 1100.0
235.14064 196.0
236.09877 168.0
237.063751 144.0
237.124359 444.0
238.1259 168.0
239.088379 1216.0
239.159744 196.0
240.101929 424.0
241.076614 172.0
241.1064 344.0
242.463028 168.0
243.136414 488.0
244.144058 104.0
245.152237 1028.0
246.105331 172.0
246.15834 492.0
247.132767 1176.0
247.164185 180.0
247.353088 144.0
247.606689 216.0
248.020264 184.0
248.142792 224.0
249.083984 180.0
249.145096 796.0
250.147339 268.0
253.107681 2440.0
253.149689 176.0
254.111618 456.0
254.9608 172.0
255.136581 928.0
256.143524 408.0
257.170807 460.0
259.153809 176.0
261.150635 500.0
263.167999 672.0
264.173767 144.0
265.143036 4920.0
266.145111 956.0
266.186035 128.0
267.155853 448.0
268.158875 256.0
270.996582 116.0
271.117096 1664.0
272.111023 216.0
273.147339 2228.0
274.150085 528.0
279.156921 984.0
280.163147 472.0
281.175201 160.0
282.175842 148.0
283.151947 188.0
284.150208 140.0
285.173523 120.0
286.958527 148.0
289.509674 148.0
289.899261 140.0
290.675812 152.0
291.159454 9072.0
292.163177 2352.0
293.161499 368.0
293.60376 124.0
297.171265 140.0
299.183075 168.0
300.202942 176.0
306.003418 144.0
307.523285 152.0
308.062683 176.0
309.169678 22444.0
309.261658 120.0
309.780029 128.0
310.174286 5252.0
311.172913 696.0
312.168579 160.0
313.013306 140.0
313.182343 212.0
317.004974 144.0
317.167999 164.0
319.193512 132.0
320.1987 140.0
321.202271 192.0
325.241119 192.0
325.481964 140.0
326.760132 152.0
326.861877 112.0
327.100098 144.0
327.180725 18948.0
327.680115 96.0
328.181976 4456.0
328.245178 144.0
329.185181 528.0
329.622009 104.0
330.199738 184.0
330.510498 124.0
331.258301 148.0
335.178436 144.0
337.197205 164.0
345.074127 172.0
345.199829 140.0
350.124359 140.0
353.139954 144.0
355.091248 220.0
364.096283 148.0
367.222839 232.0
375.220001 140.0
375.258575 156.0
377.041931 156.0
379.209198 284.0
385.238586 120.0
391.199249 156.0
392.118927 208.0
397.138153 112.0
397.223602 132.0
399.265015 160.0
403.252655 140.0
404.251648 144.0
409.22467 416.0
410.22406 140.0
411.244568 168.0
417.265381 112.0
426.396088 204.0
427.231445 124.0
428.268097 220.0
429.259033 608.0
430.265564 276.0
434.626312 252.0
435.257233 148.0
436.275146 144.0
437.114319 344.0
447.271149 1064.0
448.274323 260.0
449.282745 180.0
465.023254 172.0
465.285004 2252.0
466.286499 1008.0
467.029755 152.0
467.28479 108.0
477.888153 156.0
480.301605 228.0
483.297302 1040.0
483.45166 184.0
484.298035 376.0
499.327667 128.0
501.303955 1628.0
502.305634 736.0
503.15741 124.0
503.29541 128.0
505.199738 144.0
505.329468 148.0
526.023987 164.0
540.256104 176.0
1226.21106 244.0
1277.580444 180.0
1341.249146 148.0
1393.575073 196.0
1446.622192 152.0
1469.688354 180.0
1483.791992 144.0
1505.17395 148.0
1537.662598 156.0
1555.587036 168.0
1590.080322 172.0
1600.693115 192.0
1611.157593 176.0
1655.104614 160.0
1693.003052 224.0
1719.987061 160.0
1725.968384 172.0
1727.928589 160.0
1738.435181 140.0
1739.987305 160.0
1749.664429 140.0
1751.796265 184.0
1753.046143 292.0
1798.925293 212.0
1825.461548 164.0
1837.496948 176.0
1838.990356 168.0
1847.740601 156.0
1881.973755 176.0
1889.371948 184.0
1897.615967 176.0
1953.581421 160.0
1961.982666 176.0
1977.467407 168.0
1982.42688 184.0
1991.467163 176.0
