>compound Fexofenadine HCl
>formula C32H39NO4
>ionization [M+H]+
>parentmass 502.2951851800906
#inchi InChI=1S/C32H39NO4/c1-31(2,30(35)36)25-17-15-24(16-18-25)29(34)14-9-21-33-22-19-28(20-23-33)32(37,26-10-5-3-6-11-26)27-12-7-4-8-13-27/h3-8,10-13,15-18,28-29,34,37H,9,14,19-23H2,1-2H3,(H,35,36)
#inchikey RWTNPBWLLIMQHL
#origInchi InChI=1S/C32H39NO4.ClH/c1-31(2,30(35)36)25-17-15-24(16-18-25)29(34)14-9-21-33-22-19-28(20-23-33)32(37,26-10-5-3-6-11-26)27-12-7-4-8-13-27;/h3-8,10-13,15-18,28-29,34,37H,9,14,19-23H2,1-2H3,(H,35,36);1H
#Ion_Source LC-ESI
#Instrument qTof
#Compound_Source Commercial
#PI Dorrestein
#Data_Collector Garg_Neha
#Scan -1
#Precursor_MZ 502.295
#ExactMass 501.288
#Charge 1
#CAS_Number 153439-40-8, 83799-24-0 (HCl)
#Pubmed_ID N/A
#Smiles C1(CCN(CC1)CCCC(C2=CC=C(C=C2)C(C(O)=O)(C)C)O)C(C3=CC=CC=C3)(C4=CC=CC=C4)O.Cl
#INCHI_AUX N/A
#Library_Class 1
#SpectrumID CCMSLIB00000078609
#IonMode Positive
#UpdateWorkflowName UPDATE-SINGLE-ANNOTATED-GOLD
#LibraryQualityString Gold
#TaskID 77f51c88eb8b467eb4a01dd2d0cb90d2
##Scan# 1185
#SpectrumFile Plate9_61_80_GC7_01_15756.mzXML
#LibraryName FDALibrary_2_04302014.mgf
#MQScore -1
#Organism FDALibrary_2_04302014
#TIC_Query 0
#RT_Query -1
#MZErrorPPM -1
#SharedPeaks 0
#MassDiff 0
#LibMZ -1
#SpecMZ 502.295
#SpecCharge 0
#internalFilename spec-00000.mgf

>collision 10
45.816086 204.0
46.422981 168.0
46.613029 168.0
46.844322 156.0
47.11034 180.0
47.147232 140.0
47.420143 196.0
47.764225 164.0
48.027317 160.0
48.038353 188.0
48.179165 176.0
48.208179 148.0
48.400459 180.0
48.458637 204.0
49.079941 272.0
49.394176 200.0
49.906067 224.0
51.071384 192.0
51.404762 148.0
51.828026 168.0
51.862419 140.0
52.050358 176.0
52.417168 180.0
52.507992 212.0
53.053123 148.0
53.099525 144.0
53.464188 172.0
53.52824 216.0
53.777538 180.0
54.38203 148.0
54.552425 208.0
55.211693 148.0
55.531422 168.0
55.623417 144.0
56.106895 156.0
56.318798 244.0
56.898327 148.0
56.935867 188.0
56.953892 152.0
57.104195 168.0
57.79213 196.0
58.682522 184.0
59.58363 180.0
59.595921 152.0
59.867764 216.0
60.422333 188.0
60.639122 180.0
60.746113 168.0
60.808178 156.0
61.339157 204.0
61.51329 148.0
62.151836 192.0
62.3167 140.0
62.618732 148.0
62.872562 152.0
63.043121 168.0
63.236069 176.0
63.842117 192.0
64.375977 140.0
64.616615 176.0
64.853951 228.0
65.424606 160.0
65.588921 140.0
65.843849 184.0
66.160774 148.0
66.59211 172.0
67.130798 148.0
67.622551 156.0
67.861717 144.0
67.876472 232.0
68.213043 240.0
68.390694 188.0
68.591652 204.0
68.804459 252.0
69.017593 164.0
69.163177 232.0
69.481354 172.0
69.933342 240.0
70.188232 156.0
70.620773 160.0
70.855125 192.0
71.609367 184.0
71.776207 204.0
71.84198 176.0
72.73378 164.0
72.750755 184.0
72.815277 152.0
73.624245 172.0
73.812218 176.0
73.952499 156.0
74.005569 144.0
74.048744 152.0
74.116905 216.0
74.209465 196.0
74.815941 140.0
75.355759 140.0
75.559769 164.0
75.595116 244.0
75.786583 152.0
75.876709 140.0
75.897514 144.0
76.331619 196.0
76.435989 148.0
77.39254 140.0
77.681709 196.0
78.268723 176.0
78.584229 204.0
78.676003 172.0
78.7696 192.0
79.241951 164.0
79.387299 168.0
79.733482 156.0
80.105354 144.0
80.206924 176.0
80.233665 148.0
80.454887 140.0
80.54953 196.0
81.066597 148.0
81.90564 176.0
81.970497 156.0
82.127342 160.0
82.217552 180.0
82.327675 212.0
82.369217 200.0
83.30394 224.0
83.53299 208.0
83.979256 164.0
84.191154 192.0
84.291443 148.0
85.034966 172.0
85.641716 140.0
85.82637 140.0
85.851822 156.0
85.871208 132.0
86.258011 160.0
86.39856 228.0
86.491081 168.0
86.528107 176.0
86.715202 164.0
86.75737 208.0
86.835716 164.0
86.968124 120.0
87.633202 180.0
87.860657 156.0
87.874702 144.0
88.129509 148.0
88.247261 176.0
88.434334 168.0
88.762177 184.0
90.196983 164.0
90.450272 212.0
91.053757 1528.0
91.132996 172.0
91.167198 220.0
91.267944 164.0
91.717239 208.0
92.057571 340.0
92.927559 144.0
93.603752 212.0
94.067001 624.0
95.073929 168.0
95.289093 248.0
95.392097 252.0
95.530167 200.0
95.822189 148.0
96.080643 784.0
96.100998 260.0
96.312927 100.0
96.498611 160.0
96.628525 168.0
96.891991 112.0
97.088844 140.0
98.097832 660.0
98.596886 148.0
98.640892 120.0
98.990562 156.0
99.076843 164.0
99.099503 184.0
100.623016 160.0
100.992714 240.0
101.447258 184.0
101.850601 204.0
102.357407 172.0
102.706062 220.0
102.819054 164.0
103.054909 248.0
103.136147 204.0
103.275665 156.0
103.297394 108.0
103.70491 228.0
103.891464 156.0
104.038139 176.0
105.070076 1084.0
105.265335 212.0
105.8256 180.0
105.985359 148.0
106.069389 148.0
106.235489 152.0
106.313454 156.0
106.582466 180.0
107.047981 352.0
107.170944 168.0
107.375023 164.0
107.527695 168.0
107.699066 140.0
108.078545 328.0
108.209846 200.0
109.088043 304.0
109.409851 164.0
109.697334 188.0
109.768227 176.0
110.095245 280.0
110.810585 232.0
111.012459 180.0
111.104774 744.0
111.148811 224.0
111.812874 156.0
112.075012 112.0
112.332657 176.0
112.977623 164.0
113.350266 140.0
113.462601 140.0
114.086754 160.0
114.165428 160.0
114.201584 176.0
114.299446 148.0
114.318596 160.0
115.054451 1560.0
115.081703 188.0
115.103058 140.0
115.671753 144.0
115.836639 140.0
116.062057 376.0
116.333015 220.0
116.806908 188.0
116.951073 176.0
117.070084 1356.0
117.32589 196.0
117.366043 112.0
117.525208 116.0
117.673241 172.0
117.692673 148.0
117.707787 156.0
117.830902 152.0
117.869789 176.0
117.900047 184.0
117.960564 152.0
118.003807 192.0
118.069275 444.0
118.484268 144.0
118.666321 148.0
118.783432 144.0
118.870216 164.0
119.00045 244.0
119.087494 144.0
119.472061 168.0
120.040543 160.0
120.079063 516.0
120.289261 212.0
120.343842 148.0
120.435562 148.0
121.068291 160.0
121.089577 192.0
121.227554 156.0
121.45118 156.0
121.650864 216.0
122.074913 148.0
122.097145 1024.0
122.231094 144.0
122.277306 144.0
122.438026 144.0
122.504105 148.0
122.814911 156.0
123.097672 264.0
124.062073 160.0
124.111893 1760.0
124.350441 212.0
124.534721 156.0
125.114822 128.0
125.257133 164.0
125.882027 172.0
125.949112 200.0
126.048904 192.0
126.673859 184.0
127.05381 580.0
127.299614 152.0
127.331055 160.0
128.028229 140.0
128.061844 2548.0
128.558014 160.0
128.815399 196.0
128.845032 136.0
129.047607 212.0
129.069504 9136.0
129.100296 324.0
129.206497 164.0
129.27211 140.0
129.40509 296.0
129.489441 296.0
129.73671 160.0
130.004074 144.0
130.07518 1952.0
130.974625 176.0
131.085739 28880.0
131.484497 140.0
131.987488 228.0
132.053513 120.0
132.087616 4724.0
132.369003 152.0
132.455551 188.0
133.040466 140.0
133.066879 228.0
133.100891 876.0
134.097153 412.0
134.704773 156.0
135.00293 164.0
135.373199 164.0
135.604874 184.0
136.112305 476.0
136.207016 148.0
136.354523 184.0
136.996735 184.0
137.120224 160.0
137.40004 224.0
137.750214 292.0
137.930145 176.0
138.124222 148.0
139.310364 156.0
139.432541 180.0
139.89592 152.0
140.090363 112.0
140.275482 160.0
140.765717 180.0
140.920334 196.0
140.940735 288.0
141.013992 156.0
141.071152 2156.0
141.379654 156.0
141.87323 140.0
142.077637 820.0
142.547302 168.0
142.57016 104.0
142.821167 148.0
142.995453 128.0
143.042007 168.0
143.085587 9124.0
143.208679 148.0
143.324066 196.0
143.414185 220.0
143.63295 144.0
143.674744 124.0
143.795212 156.0
144.001907 132.0
144.087723 1600.0
145.101822 2388.0
145.391525 188.0
145.669418 156.0
145.718979 140.0
146.070831 380.0
146.089386 172.0
146.106827 564.0
146.408447 192.0
146.552979 172.0
146.970108 164.0
147.079025 568.0
147.117813 288.0
147.687607 140.0
147.794052 148.0
148.082138 140.0
148.656708 168.0
148.717377 148.0
148.916473 148.0
149.033081 156.0
149.096573 112.0
149.154587 156.0
149.526718 164.0
149.602188 172.0
149.84816 184.0
149.948059 192.0
150.321182 140.0
150.579971 168.0
150.875626 148.0
151.347839 180.0
151.894348 152.0
152.061768 360.0
152.54509 192.0
152.62085 176.0
152.941116 176.0
153.014969 160.0
153.065857 120.0
153.662827 120.0
154.72699 180.0
155.059128 140.0
155.084152 1244.0
155.397537 152.0
155.475052 152.0
156.09169 1128.0
156.314407 168.0
156.568329 200.0
156.603195 156.0
156.68541 168.0
156.818298 180.0
157.061142 236.0
157.10231 1312.0
157.507263 124.0
157.630112 244.0
157.651047 188.0
157.676025 180.0
157.773514 152.0
157.833527 172.0
157.85994 128.0
158.069763 252.0
158.095184 516.0
158.28894 196.0
158.396622 180.0
158.669785 188.0
159.088577 128.0
159.117447 1068.0
159.666656 164.0
159.973633 180.0
160.117004 288.0
160.376663 152.0
161.085709 156.0
161.965988 168.0
162.021713 220.0
162.166153 140.0
162.368988 156.0
162.412094 172.0
163.074799 172.0
163.173935 192.0
163.797424 176.0
164.022507 200.0
164.220535 188.0
165.070084 352.0
165.380539 144.0
166.077469 452.0
166.444458 144.0
166.558609 152.0
166.832413 152.0
167.085205 2040.0
167.38768 192.0
167.5672 156.0
167.797318 140.0
168.039948 128.0
168.089935 804.0
168.257065 152.0
168.341949 124.0
168.654892 164.0
169.100662 1844.0
169.182587 176.0
169.22142 200.0
169.521164 132.0
169.584091 156.0
169.651489 176.0
170.010757 148.0
170.097076 584.0
170.575638 208.0
170.721237 152.0
170.823608 192.0
170.866898 144.0
170.900192 176.0
170.957184 200.0
170.990295 148.0
171.027237 128.0
171.085052 384.0
171.11763 165108.0
171.189316 148.0
171.244232 212.0
171.279022 136.0
171.324387 136.0
171.363464 168.0
171.410767 116.0
171.431519 144.0
171.499435 156.0
171.545883 312.0
171.577545 124.0
171.842911 104.0
171.930695 172.0
171.981201 140.0
172.064545 208.0
172.119904 22976.0
172.183075 172.0
172.441055 220.0
172.553406 196.0
172.662292 180.0
172.825638 136.0
172.998871 128.0
173.093658 132.0
173.128235 2596.0
173.192719 120.0
173.250458 104.0
173.27652 152.0
173.31694 140.0
173.340256 148.0
173.387695 124.0
173.470108 132.0
173.503693 192.0
174.087173 156.0
174.129684 180.0
174.683792 160.0
174.760376 112.0
174.782394 100.0
175.134705 456.0
176.062286 188.0
176.159561 116.0
176.384628 144.0
176.574371 120.0
176.876617 152.0
177.091232 3924.0
177.261551 140.0
178.018784 116.0
178.095184 544.0
178.218552 212.0
179.082809 424.0
180.003204 140.0
180.904221 168.0
181.101044 1904.0
181.269684 168.0
181.840134 100.0
182.104477 152.0
182.199524 168.0
182.479019 144.0
182.683136 160.0
182.739914 164.0
183.028229 136.0
183.080017 444.0
183.117813 648.0
184.113205 452.0
184.944687 140.0
185.126419 340.0
186.127167 140.0
187.112366 416.0
188.115112 628.0
189.070816 176.0
189.095627 188.0
189.126831 5920.0
189.406097 184.0
189.687256 128.0
189.791275 156.0
190.076736 160.0
190.098495 112.0
190.129074 860.0
190.268661 200.0
191.07019 5372.0
191.136322 328.0
191.352173 156.0
191.789902 152.0
192.074646 912.0
192.421616 176.0
192.960373 148.0
193.102295 416.0
193.185272 160.0
193.206512 220.0
193.389145 172.0
193.710342 208.0
194.104065 408.0
194.500626 152.0
195.12294 260.0
195.226883 160.0
195.7211 144.0
196.1147 140.0
197.138062 124.0
198.128784 316.0
198.226715 144.0
198.339371 144.0
198.399292 112.0
199.110718 1736.0
199.285522 100.0
199.47847 148.0
199.610611 140.0
200.116928 364.0
200.1436 1124.0
200.627029 164.0
200.954178 144.0
201.019089 140.0
201.089081 152.0
201.130829 128.0
201.149841 252.0
201.215652 268.0
201.487793 176.0
202.074768 300.0
202.123428 160.0
202.154404 440.0
203.004929 240.0
203.086716 680.0
203.165543 312.0
203.654846 164.0
204.090652 776.0
204.166428 164.0
204.68718 144.0
205.10051 1236.0
205.833481 140.0
206.105499 820.0
206.165329 184.0
206.436432 140.0
206.505066 160.0
206.942902 152.0
207.003036 160.0
207.049667 168.0
207.113953 660.0
207.14624 192.0
207.249573 120.0
207.530273 160.0
207.952713 152.0
208.116562 268.0
208.391327 168.0
208.468903 168.0
208.764999 264.0
208.786392 164.0
208.888687 192.0
209.003754 204.0
209.337662 188.0
209.778488 192.0
209.802185 164.0
209.948105 160.0
210.124557 140.0
210.472198 144.0
210.90715 220.0
211.014114 168.0
211.115311 316.0
211.508789 188.0
211.534836 152.0
211.604172 156.0
212.142395 364.0
212.242966 144.0
212.488068 108.0
212.581146 144.0
213.152618 140.0
213.246201 144.0
213.484589 152.0
214.163879 260.0
214.26207 148.0
214.959427 128.0
215.086166 296.0
215.802765 176.0
216.09314 1296.0
216.17131 236.0
216.575653 112.0
216.748184 164.0
216.830933 152.0
216.971725 148.0
217.045319 152.0
217.122116 2760.0
217.193542 184.0
217.267136 176.0
217.325211 116.0
218.109009 1136.0
218.241974 96.0
219.116592 2360.0
219.47496 120.0
219.555557 152.0
219.797455 140.0
220.116074 552.0
221.129456 336.0
221.705902 136.0
222.094101 184.0
222.127258 236.0
222.362885 192.0
222.758102 140.0
223.41806 160.0
225.696701 156.0
227.377258 160.0
228.119156 160.0
228.230392 360.0
228.862259 144.0
229.122711 876.0
229.706116 200.0
229.856964 168.0
230.122849 280.0
230.152847 868.0
230.246384 228.0
230.379288 152.0
231.11528 1348.0
232.115509 348.0
232.139374 124.0
232.174194 276.0
232.822418 208.0
232.932983 160.0
233.080551 244.0
233.117706 24008.0
233.410248 104.0
234.121933 3428.0
234.206619 160.0
234.334305 108.0
234.572845 160.0
234.609726 176.0
234.638229 184.0
234.798431 144.0
235.120438 532.0
235.253418 144.0
235.442368 104.0
235.976593 140.0
236.032501 148.0
236.087555 144.0
236.136475 140.0
236.717941 144.0
236.751633 152.0
236.777634 180.0
236.89061 160.0
237.062302 136.0
238.079529 212.0
238.374435 168.0
238.807907 176.0
240.176697 244.0
240.551926 156.0
241.124725 152.0
241.280991 176.0
242.705582 136.0
243.136505 164.0
243.338181 148.0
243.608368 200.0
243.816544 140.0
243.908325 128.0
244.130173 460.0
244.286041 148.0
244.802704 216.0
245.133621 216.0
245.895798 160.0
246.149124 5900.0
246.209167 152.0
246.287247 152.0
246.906097 168.0
247.145645 904.0
247.203293 172.0
247.277893 100.0
247.624115 104.0
247.788818 160.0
248.147339 1372.0
248.276993 156.0
248.845764 196.0
249.160461 316.0
249.25914 184.0
249.398651 148.0
249.71936 168.0
249.928558 100.0
250.001724 128.0
250.158371 10712.0
250.357162 104.0
250.777252 196.0
251.077072 156.0
251.161026 2068.0
251.390442 112.0
251.506729 132.0
251.535858 152.0
251.67186 144.0
251.812134 164.0
252.115417 140.0
252.173538 1756.0
252.422058 164.0
252.507446 308.0
252.771713 172.0
253.180283 544.0
253.309265 160.0
253.755081 144.0
254.183594 288.0
255.10434 184.0
255.202896 204.0
255.699142 184.0
255.740509 152.0
255.775528 184.0
256.138885 176.0
256.206268 528.0
256.380676 152.0
256.527283 148.0
257.136658 284.0
257.214752 140.0
258.114075 140.0
258.147888 676.0
258.69635 156.0
259.006958 156.0
259.061432 188.0
259.151337 464.0
259.437714 140.0
260.16449 6784.0
260.646362 144.0
260.815247 152.0
260.877777 156.0
260.913239 132.0
260.950012 100.0
260.990784 116.0
261.166382 1820.0
261.223846 136.0
261.588684 176.0
261.779816 96.0
261.899353 176.0
261.997681 148.0
262.041168 184.0
262.159271 33236.0
262.230042 144.0
262.270233 136.0
262.293945 208.0
262.481262 132.0
262.681458 108.0
262.846558 128.0
262.895081 100.0
263.161743 7428.0
263.334595 144.0
263.888916 164.0
263.940643 140.0
264.171783 1212.0
264.252228 132.0
264.488708 120.0
264.985229 176.0
265.174988 416.0
265.685272 196.0
265.861603 144.0
266.173523 144.0
267.119019 164.0
267.14978 164.0
267.3302 144.0
268.044983 136.0
268.145874 148.0
268.175812 188.0
268.656586 140.0
268.915802 100.0
269.299652 172.0
269.616547 176.0
270.000153 176.0
270.147186 284.0
270.257477 144.0
270.442566 180.0
270.774963 96.0
271.148071 108.0
271.22699 100.0
271.416992 192.0
271.853271 156.0
271.935333 164.0
272.020874 116.0
272.164917 2660.0
272.378571 192.0
272.473206 160.0
272.563812 228.0
272.828796 144.0
273.166565 708.0
273.388153 120.0
273.756653 180.0
274.154633 148.0
274.174408 516.0
274.977661 120.0
275.095276 216.0
275.163544 212.0
275.579193 136.0
275.767334 172.0
276.164124 1404.0
276.576172 164.0
276.913879 204.0
277.099396 176.0
277.173706 348.0
277.662903 168.0
278.019501 100.0
278.176544 360.0
278.259827 124.0
278.679199 128.0
278.801636 192.0
279.070892 144.0
279.174255 132.0
279.44339 200.0
279.699646 164.0
280.167603 3968.0
280.29245 160.0
280.564545 164.0
280.699127 160.0
281.129456 152.0
281.172638 716.0
281.239044 124.0
281.356415 168.0
281.880798 156.0
282.13147 140.0
282.180969 308.0
282.305359 144.0
282.398987 180.0
283.259216 176.0
283.654633 208.0
284.171082 424.0
285.013855 164.0
285.349976 144.0
285.438171 104.0
285.505798 184.0
286.177551 408.0
286.557251 164.0
286.858154 204.0
287.394409 144.0
287.573242 200.0
288.076385 164.0
288.17392 4756.0
288.231689 124.0
288.801086 100.0
289.180634 892.0
289.25235 168.0
289.280243 148.0
289.90683 172.0
290.130524 144.0
290.175781 320.0
290.310242 224.0
291.172974 108.0
291.624115 228.0
291.834869 208.0
292.021912 312.0
292.187347 152.0
292.427338 124.0
293.566254 148.0
294.024506 172.0
294.059357 156.0
294.096497 168.0
294.183899 612.0
294.248932 144.0
295.142273 184.0
295.816254 160.0
295.913391 128.0
296.259644 96.0
296.454895 144.0
296.631531 144.0
297.161652 132.0
298.038635 164.0
298.180023 10772.0
298.667786 140.0
299.18399 3784.0
299.266907 152.0
299.500763 140.0
300.192291 1552.0
300.433685 192.0
301.125275 160.0
301.199738 268.0
301.266907 260.0
301.329102 140.0
301.543335 144.0
301.74173 112.0
301.984344 144.0
302.206512 444.0
302.53775 164.0
303.049133 144.0
303.203644 136.0
303.589386 152.0
303.717712 156.0
304.05426 228.0
304.172272 204.0
304.738342 148.0
305.243561 148.0
305.398834 152.0
305.527557 148.0
305.753723 188.0
305.885986 152.0
306.185089 452.0
306.414062 128.0
306.749878 152.0
307.229614 140.0
307.524231 196.0
308.037506 164.0
308.078552 112.0
308.675446 128.0
308.970886 156.0
309.28418 152.0
309.32785 148.0
309.462372 108.0
310.03653 96.0
310.129974 148.0
310.213226 176.0
310.796295 164.0
311.575745 224.0
311.846313 164.0
314.233856 144.0
316.189026 868.0
316.793427 180.0
316.94931 140.0
317.197449 412.0
317.268494 136.0
317.303741 152.0
317.439667 204.0
317.470398 168.0
317.619354 176.0
318.023834 140.0
318.190979 100.0
319.011322 220.0
319.21756 140.0
319.397217 100.0
319.466705 168.0
319.510651 128.0
319.572876 156.0
320.199188 152.0
320.381439 156.0
320.425446 124.0
320.587402 108.0
320.848297 148.0
321.158997 120.0
321.215607 160.0
322.065125 104.0
322.273499 172.0
323.246857 140.0
324.20105 164.0
324.371826 148.0
324.480621 152.0
325.062653 168.0
325.266266 192.0
325.336212 160.0
325.812103 172.0
326.085205 232.0
326.72525 140.0
326.817139 224.0
327.316742 156.0
327.682678 120.0
328.044373 160.0
328.185333 132.0
328.474976 96.0
328.905426 172.0
329.464142 100.0
329.817169 116.0
329.981964 156.0
330.499817 160.0
330.727173 156.0
330.881805 140.0
331.153198 108.0
331.199188 144.0
331.350281 112.0
331.55658 156.0
331.614563 176.0
331.978973 168.0
332.915222 272.0
333.170837 172.0
333.323853 144.0
333.531006 148.0
333.589172 140.0
333.794403 152.0
334.043579 104.0
334.452545 148.0
334.788361 260.0
334.993805 140.0
335.408295 108.0
335.581482 144.0
335.985413 212.0
337.364807 200.0
337.498505 156.0
337.866364 120.0
337.903351 156.0
338.390228 196.0
339.201019 160.0
340.204956 196.0
340.34079 156.0
340.869751 252.0
341.297852 188.0
341.833191 152.0
341.95462 144.0
342.848053 156.0
343.048615 112.0
343.087524 164.0
343.49939 132.0
343.64975 152.0
344.175446 132.0
344.232941 200.0
344.328949 140.0
344.5625 144.0
345.085052 152.0
346.400269 148.0
346.566101 116.0
346.896851 236.0
347.137848 184.0
347.840454 148.0
347.897949 100.0
347.994965 152.0
348.514954 168.0
348.834595 192.0
348.986908 140.0
349.035339 156.0
349.341614 160.0
349.623505 144.0
349.982056 204.0
350.192719 156.0
350.349182 152.0
351.021606 156.0
351.671112 140.0
352.580505 148.0
352.763641 156.0
353.345734 184.0
353.515411 140.0
354.120911 232.0
354.991364 144.0
355.036377 180.0
355.107635 152.0
355.623566 188.0
356.070221 184.0
356.197906 144.0
356.526764 148.0
357.39859 104.0
357.756714 164.0
357.98349 160.0
358.208618 188.0
358.272644 144.0
358.306549 172.0
358.702484 192.0
359.373535 208.0
359.550903 148.0
359.705658 164.0
360.291809 148.0
360.355194 144.0
360.532806 140.0
360.837982 212.0
361.005341 140.0
361.213379 148.0
361.781006 148.0
362.087708 156.0
362.170166 160.0
362.219116 312.0
362.872101 144.0
363.198883 140.0
363.322784 120.0
363.551056 140.0
363.672516 144.0
363.774994 140.0
363.93396 120.0
363.976227 216.0
364.04837 156.0
364.910919 140.0
365.378845 128.0
365.592743 96.0
365.770691 144.0
366.354431 136.0
366.703857 140.0
367.30249 188.0
367.832886 172.0
367.970337 140.0
369.028656 152.0
369.641663 152.0
370.023407 252.0
370.302948 160.0
370.333588 156.0
370.724365 200.0
372.285706 144.0
372.66983 168.0
372.828644 120.0
373.081055 176.0
373.204071 172.0
373.356171 124.0
373.934998 140.0
374.214478 264.0
374.49881 156.0
374.666595 172.0
375.051941 168.0
375.219482 532.0
375.410492 156.0
375.564758 160.0
376.216919 152.0
376.589233 104.0
376.854156 144.0
377.196899 104.0
378.176697 172.0
378.221588 304.0
378.385834 112.0
379.228241 640.0
379.288361 148.0
379.703796 132.0
380.2388 144.0
380.483154 144.0
380.58374 136.0
380.735565 152.0
381.052124 200.0
381.235321 292.0
381.442535 96.0
381.592987 128.0
381.807037 164.0
382.195465 136.0
382.23819 140.0
382.35672 172.0
382.682007 136.0
382.851166 284.0
382.995789 120.0
383.221191 112.0
383.467224 108.0
383.505676 156.0
383.701935 140.0
384.609528 184.0
384.734436 140.0
384.924042 156.0
385.523438 220.0
385.87912 148.0
386.712341 148.0
386.912628 100.0
387.135162 140.0
387.576538 148.0
388.222351 592.0
389.138885 156.0
389.233276 152.0
389.292023 164.0
389.484467 156.0
389.521942 148.0
390.200562 136.0
390.238617 124.0
390.368744 156.0
390.569336 176.0
391.19104 140.0
391.241577 168.0
391.281586 172.0
391.450897 180.0
391.742371 152.0
391.966949 176.0
392.122864 176.0
392.231323 148.0
392.281403 188.0
392.376862 176.0
393.236786 164.0
393.990997 144.0
394.030487 172.0
394.283386 156.0
395.303558 144.0
395.525299 172.0
395.665375 104.0
395.736267 140.0
395.909363 140.0
396.001587 140.0
396.923828 140.0
397.172668 132.0
397.570435 164.0
397.927673 160.0
398.213593 148.0
398.361359 120.0
398.802765 196.0
399.344696 156.0
400.233765 148.0
400.385101 152.0
400.439056 172.0
400.544403 184.0
400.749512 116.0
400.919647 112.0
400.990662 144.0
401.17038 136.0
401.317535 164.0
401.417236 152.0
402.33493 160.0
402.454712 220.0
402.727295 152.0
402.941956 224.0
403.25766 192.0
403.534058 144.0
403.871735 192.0
403.921387 216.0
404.445587 152.0
404.613708 164.0
404.699402 128.0
404.797882 144.0
404.893219 144.0
405.002136 164.0
405.126312 144.0
405.158356 164.0
405.342682 184.0
405.42981 124.0
406.008118 172.0
406.06427 148.0
406.140472 176.0
406.173096 108.0
406.253021 244.0
406.38324 164.0
406.441467 156.0
406.726288 168.0
406.987793 148.0
407.194244 176.0
407.252472 100.0
407.437073 156.0
407.891174 172.0
408.224884 188.0
408.634979 144.0
409.919617 140.0
410.364105 176.0
411.03949 100.0
411.1922 144.0
411.771332 216.0
411.975098 152.0
412.264191 172.0
412.401611 232.0
412.727661 120.0
412.805908 172.0
413.046509 152.0
413.406342 140.0
413.732452 204.0
413.934906 148.0
414.124359 132.0
414.502014 144.0
414.781647 156.0
415.139771 132.0
415.560272 140.0
415.714478 152.0
417.04657 204.0
417.249847 176.0
417.977631 136.0
418.144745 224.0
418.770386 108.0
419.329895 164.0
419.78244 172.0
420.269409 1088.0
420.326019 184.0
420.369843 188.0
420.667053 132.0
421.27179 712.0
421.374298 140.0
421.455048 100.0
421.545929 140.0
422.285065 216.0
422.940521 140.0
423.296143 116.0
423.804626 144.0
423.84082 216.0
424.210358 152.0
424.24234 140.0
424.300446 96.0
424.401276 128.0
424.457062 272.0
424.788574 152.0
425.117188 128.0
425.324432 224.0
425.766388 156.0
426.176208 184.0
426.371765 164.0
426.805084 160.0
426.911438 144.0
427.335693 220.0
427.481384 116.0
427.555481 172.0
427.854248 160.0
428.697937 144.0
428.990784 168.0
429.362366 244.0
429.434631 152.0
429.560333 164.0
429.677643 128.0
430.107147 124.0
430.183441 176.0
430.261047 100.0
430.468323 144.0
430.724396 172.0
430.860718 244.0
431.147949 96.0
431.525146 128.0
431.617096 156.0
431.771942 156.0
431.873474 172.0
433.090363 224.0
433.268494 216.0
433.523285 156.0
433.974457 144.0
434.068695 132.0
434.279938 140.0
434.445862 232.0
434.552216 180.0
434.698975 188.0
435.089111 144.0
435.355347 132.0
435.537598 148.0
435.725433 128.0
435.796173 152.0
435.85437 196.0
435.896851 160.0
435.94281 100.0
436.226593 148.0
436.33667 168.0
437.121582 152.0
437.646057 148.0
437.868073 128.0
437.913086 172.0
438.083374 152.0
438.243561 460.0
438.28244 292.0
439.037842 156.0
439.247498 320.0
439.282593 224.0
439.428009 120.0
439.49646 136.0
440.082306 132.0
440.241852 180.0
440.306549 140.0
440.344147 156.0
440.456909 160.0
440.611481 144.0
440.987549 156.0
441.379456 124.0
441.518524 144.0
441.603302 172.0
441.782043 144.0
442.208923 232.0
442.817322 108.0
442.911499 156.0
443.804901 212.0
444.094818 152.0
444.140411 156.0
444.64389 220.0
444.995056 176.0
445.076263 148.0
445.130859 168.0
445.337341 196.0
445.384521 140.0
445.546204 140.0
446.631226 156.0
446.971985 168.0
447.074097 108.0
448.363495 184.0
448.551208 144.0
449.261261 184.0
449.396088 180.0
449.757996 180.0
449.798431 160.0
450.233368 364.0
450.319427 116.0
450.605225 156.0
450.968811 120.0
451.248016 244.0
451.336395 152.0
451.879639 132.0
451.956909 188.0
452.052368 132.0
452.253296 148.0
452.435242 148.0
452.68335 156.0
452.74118 116.0
452.772278 144.0
452.856995 160.0
452.965912 156.0
453.047607 140.0
453.123871 180.0
453.208588 200.0
453.257904 120.0
453.508026 152.0
454.090973 136.0
454.279205 308.0
454.582458 244.0
454.641724 120.0
455.040863 152.0
455.15976 140.0
455.278961 164.0
455.406067 180.0
455.894653 168.0
456.05191 148.0
456.150177 136.0
456.228912 180.0
456.28595 124.0
456.517883 188.0
456.776825 96.0
456.927917 156.0
457.470612 152.0
457.562042 156.0
457.80191 156.0
457.870087 104.0
458.247742 200.0
458.313324 152.0
458.667084 96.0
458.819733 172.0
458.904114 168.0
459.032013 212.0
459.275116 164.0
459.75296 148.0
460.371033 180.0
460.431763 144.0
460.55014 140.0
460.692322 148.0
461.101227 120.0
461.324768 148.0
461.495789 188.0
461.526917 172.0
461.690399 120.0
461.803314 96.0
461.887177 100.0
462.429565 128.0
462.466858 168.0
462.629028 100.0
462.66806 188.0
462.778259 168.0
463.454468 104.0
463.612366 216.0
463.657684 104.0
463.775879 180.0
463.829681 172.0
463.884705 156.0
464.064758 232.0
464.101288 108.0
464.258057 332.0
464.367065 120.0
464.433899 100.0
464.584717 112.0
464.651245 208.0
464.723633 176.0
464.756927 172.0
464.808014 140.0
465.013733 292.0
465.062134 176.0
465.150421 180.0
465.20575 184.0
465.26416 420.0
465.310364 200.0
465.389374 180.0
465.447845 104.0
465.58252 232.0
465.686096 100.0
465.775208 224.0
465.883118 176.0
465.913452 240.0
465.965088 372.0
466.028351 320.0
466.088593 276.0
466.125916 432.0
466.182251 248.0
466.276062 221780.0
466.47818 208.0
466.554596 256.0
466.609833 280.0
466.66214 204.0
466.711182 324.0
466.759979 184.0
466.803711 176.0
466.850647 116.0
466.936829 304.0
466.9823 1032.0
467.095337 148.0
467.157349 352.0
467.278351 104984.0
467.40036 296.0
467.532196 184.0
467.63681 404.0
467.680786 164.0
467.718323 204.0
467.760101 132.0
467.847931 348.0
467.92749 108.0
467.981659 256.0
468.021637 124.0
468.0979 148.0
468.281128 13700.0
468.390747 264.0
468.597046 228.0
468.631622 172.0
468.733429 372.0
468.800934 228.0
468.847473 168.0
468.896362 176.0
468.961578 288.0
469.100098 116.0
469.194611 120.0
469.283508 1628.0
469.410675 144.0
469.534302 172.0
469.676514 104.0
469.723206 268.0
469.761047 184.0
469.803253 104.0
469.904938 200.0
470.030182 232.0
470.126831 120.0
470.161835 376.0
470.200928 160.0
470.285248 272.0
470.444489 104.0
470.508972 136.0
470.55722 96.0
470.716461 184.0
470.751007 204.0
470.904022 116.0
471.019226 260.0
471.099091 140.0
471.207428 168.0
471.286438 264.0
471.642273 160.0
471.760712 168.0
472.033997 128.0
472.375122 140.0
472.496277 100.0
472.927673 148.0
472.97049 136.0
473.404266 156.0
473.726379 188.0
474.05899 168.0
474.172852 104.0
474.505096 196.0
474.635132 108.0
474.686829 136.0
474.96698 160.0
475.014679 184.0
475.453613 100.0
476.200897 168.0
476.264221 120.0
476.293732 164.0
476.474365 116.0
477.475739 124.0
478.003815 224.0
478.038635 160.0
478.073456 152.0
478.661102 156.0
478.722961 100.0
479.0979 112.0
479.162781 220.0
479.643585 104.0
479.749054 148.0
479.901917 152.0
480.038116 144.0
480.191498 140.0
480.454712 164.0
480.909271 140.0
481.102112 144.0
481.27179 116.0
481.329742 200.0
481.510895 116.0
481.765503 140.0
482.276459 188.0
482.360992 164.0
482.454468 120.0
482.623749 196.0
482.684692 164.0
482.744263 216.0
482.795074 100.0
483.037354 184.0
483.126099 224.0
483.326355 300.0
483.525665 164.0
483.640808 120.0
483.710297 192.0
483.787811 172.0
483.830688 196.0
483.882233 108.0
483.939911 160.0
483.977356 204.0
484.046875 108.0
484.082977 120.0
484.120392 224.0
484.172089 260.0
484.190216 444.0
484.224274 444.0
484.285553 89472.0
484.486481 148.0
484.550232 136.0
484.654907 208.0
484.770081 128.0
484.85144 168.0
484.886078 252.0
485.020538 248.0
485.063721 180.0
485.133209 160.0
485.188599 176.0
485.288605 30824.0
485.396851 152.0
485.447479 220.0
485.513092 252.0
485.549591 140.0
485.760345 276.0
485.823212 96.0
485.861511 252.0
485.915375 128.0
485.972382 192.0
486.007202 292.0
486.073578 220.0
486.169495 136.0
486.291077 5212.0
486.567291 172.0
486.703094 144.0
486.825745 104.0
487.29306 652.0
487.439911 144.0
487.493958 148.0
487.569519 136.0
487.77829 164.0
487.85556 144.0
487.92218 124.0
487.955811 196.0
488.058044 148.0
488.307831 176.0
488.367706 212.0
488.414612 136.0
488.664581 124.0
488.755219 276.0
488.877228 172.0
489.085663 124.0
489.144043 124.0
489.204071 184.0
489.639771 136.0
489.841309 176.0
489.967987 156.0
490.038971 192.0
490.123138 116.0
490.198151 160.0
490.245056 112.0
490.371124 152.0
490.490356 168.0
491.01062 220.0
491.209106 148.0
491.251526 188.0
491.469391 148.0
491.535583 152.0
491.572754 104.0
492.313873 156.0
492.3992 96.0
492.458252 152.0
492.644806 208.0
492.704865 208.0
493.062469 180.0
493.194153 176.0
493.418579 176.0
493.547424 148.0
493.732422 136.0
494.193878 128.0
494.246094 168.0
494.549622 184.0
494.606964 100.0
495.106293 116.0
495.840942 192.0
496.686218 252.0
496.846344 100.0
496.973022 148.0
497.137299 96.0
497.263489 208.0
497.379395 96.0
497.453857 164.0
497.504761 168.0
497.592255 112.0
497.809662 124.0
497.869324 224.0
497.979431 136.0
498.211029 216.0
498.438446 104.0
498.520905 108.0
498.614044 188.0
498.685974 96.0
498.756805 132.0
498.796204 120.0
498.859222 144.0
498.89798 128.0
499.065582 304.0
499.118408 180.0
499.220398 100.0
499.292175 248.0
499.364594 216.0
499.490173 116.0
499.607605 104.0
499.645599 300.0
499.717041 264.0
499.754272 108.0
499.837494 272.0
499.850067 164.0
499.865601 328.0
499.903351 260.0
499.952362 96.0
500.012817 320.0
500.118744 380.0
500.178528 292.0
500.233154 200.0
500.449341 208.0
500.492584 196.0
500.524292 96.0
500.569672 140.0
500.639893 200.0
500.675446 180.0
500.730804 436.0
500.867767 352.0
500.909607 268.0
500.982056 328.0
501.022858 356.0
501.069916 316.0
501.110138 628.0
501.160858 304.0
501.224121 468.0
501.291534 812.0
501.324493 324.0
501.394562 264.0
501.43924 344.0
501.504181 344.0
501.583801 520.0
501.649689 256.0
501.722992 508.0
501.758698 488.0
501.83374 380.0
501.867737 716.0
501.923096 756.0
502.000183 428.0
502.030914 740.0
502.169708 832.0
502.297913 238260.0
502.427673 240.0
502.50528 124.0
502.609192 468.0
502.712433 2272.0
502.790497 756.0
502.860321 1152.0
502.911987 828.0
502.973694 1668.0
503.051666 13332.0
503.173431 608.0
503.211151 552.0
503.301514 213216.0
503.445557 484.0
503.554169 200.0
503.597809 128.0
503.643219 176.0
503.728455 2672.0
503.796478 880.0
503.839325 816.0
503.895477 192.0
503.94455 244.0
503.976013 184.0
504.040741 1720.0
504.101135 672.0
504.144409 492.0
504.202179 424.0
504.302551 71984.0
504.461853 216.0
504.538239 324.0
504.63385 116.0
504.670349 120.0
504.720551 284.0
504.820984 452.0
504.888092 540.0
504.95752 152.0
505.042511 152.0
505.118011 140.0
505.16922 244.0
505.194641 256.0
505.234558 232.0
505.305725 8040.0
505.406006 164.0
505.515198 280.0
505.571686 300.0
505.717682 148.0
505.782562 172.0
505.84726 348.0
505.932739 328.0
506.016388 136.0
506.095459 320.0
506.137512 432.0
506.201813 240.0
506.246735 320.0
506.31015 1204.0
506.357391 184.0
506.394501 408.0
506.467651 472.0
506.53772 252.0
506.598999 304.0
506.65625 296.0
506.75708 100.0
506.802979 140.0
506.845795 152.0
506.934357 248.0
506.969238 268.0
507.03952 200.0
507.109772 148.0
507.141998 448.0
507.259399 216.0
507.317017 376.0
507.371613 260.0
507.425995 212.0
507.512482 124.0
507.613251 192.0
507.798401 176.0
507.851593 104.0
508.00885 156.0
508.229797 216.0
508.310608 112.0
508.359253 96.0
508.406891 164.0
508.510559 132.0
508.696838 128.0
508.79248 172.0
509.361145 256.0
509.44632 112.0
509.688385 152.0
510.355408 108.0
510.480957 104.0
510.549377 144.0
511.317108 140.0
512.341553 108.0
512.401672 156.0
512.830811 112.0
515.638062 132.0
516.097046 124.0
516.581787 120.0
516.805176 108.0
519.012512 100.0
519.217773 224.0
519.367065 148.0
519.909729 144.0
520.354126 120.0
522.341309 108.0
522.798401 164.0
522.889648 116.0
523.941223 104.0
524.092651 156.0
536.296265 144.0
537.034973 172.0
540.402649 148.0
541.278381 104.0
557.17804 140.0
557.525757 152.0
585.738708 108.0
590.844666 144.0
602.824341 112.0
607.540466 148.0
611.407471 144.0
651.737366 144.0
658.711914 144.0
662.358276 96.0
664.753418 156.0
674.322083 148.0
699.508728 108.0
700.191772 100.0
725.971497 172.0
754.319702 108.0
800.425659 140.0
803.977112 172.0
869.38501 100.0
903.566833 140.0
906.866333 152.0
967.803894 168.0
1009.709778 184.0
1026.000977 100.0
1029.407349 104.0
1076.848511 164.0
1105.301392 144.0
1123.826538 148.0
1128.080811 204.0
1143.696777 152.0
1170.227417 172.0
1187.660522 176.0
1209.932617 212.0
1211.629395 220.0
1239.331543 168.0
1239.990234 144.0
1242.072632 168.0
1259.536499 188.0
1287.777954 152.0
1303.036133 180.0
1313.070557 140.0
1330.574707 164.0
1348.633301 240.0
1348.706421 192.0
1358.856201 220.0
1366.997559 160.0
1376.346924 120.0
1400.647705 164.0
1401.362915 192.0
1414.005249 156.0
1415.981812 152.0
1428.810181 172.0
1435.076416 176.0
1441.552856 180.0
1445.477539 144.0
1446.855103 184.0
1451.848389 160.0
1452.257935 156.0
1458.776367 100.0
1470.274292 164.0
1473.145142 160.0
1477.441528 148.0
1489.469116 144.0
1492.09729 164.0
1492.328003 168.0
1505.28064 152.0
1511.944336 160.0
1520.252197 152.0
1523.210205 200.0
1526.280029 204.0
1527.322144 152.0
1528.948242 240.0
1529.150513 148.0
1536.046265 164.0
1546.211548 156.0
1565.634399 224.0
1568.88855 272.0
1575.438599 160.0
1577.184937 168.0
1580.055542 160.0
1586.06604 204.0
1587.128418 164.0
1604.221924 168.0
1614.809814 140.0
1616.145752 188.0
1616.737915 152.0
1619.716309 208.0
1620.076782 172.0
1621.703491 168.0
1622.384766 208.0
1623.218628 140.0
1624.317383 172.0
1626.781006 144.0
1629.615967 144.0
1632.726807 152.0
1656.351318 156.0
1656.642944 184.0
1660.233643 140.0
1661.328613 160.0
1662.044678 204.0
1663.998657 144.0
1664.493896 156.0
1666.573364 140.0
1671.940308 156.0
1673.625366 156.0
1673.869629 140.0
1679.606079 172.0
1686.30249 160.0
1689.246094 152.0
1694.207031 152.0
1696.05896 140.0
1697.616699 172.0
1703.279785 156.0
1705.703735 172.0
1709.717529 168.0
1710.257324 116.0
1713.192261 148.0
1713.719482 176.0
1715.211182 144.0
1719.491821 228.0
1720.06958 184.0
1721.275024 168.0
1725.224365 144.0
1742.140869 160.0
1742.229736 148.0
1750.788696 188.0
1754.855103 144.0
1755.272095 144.0
1762.074585 224.0
1762.709595 140.0
1763.804443 204.0
1765.107666 160.0
1766.488647 168.0
1767.735352 160.0
1774.335571 160.0
1782.376343 152.0
1783.549194 164.0
1789.391113 260.0
1789.47522 152.0
1789.584717 196.0
1789.904663 204.0
1790.07312 144.0
1791.547119 160.0
1793.813965 148.0
1794.227051 180.0
1806.049316 176.0
1808.92627 240.0
1809.002441 200.0
1810.763672 276.0
1828.167603 232.0
1829.367676 156.0
1841.830566 112.0
1846.056519 156.0
1847.89563 160.0
1851.627808 148.0
1855.003784 164.0
1862.683838 204.0
1863.310913 160.0
1869.467407 216.0
1873.945068 228.0
1880.110474 188.0
1882.708984 152.0
1883.002686 148.0
1884.12561 224.0
1891.995483 184.0
1892.63623 208.0
1893.727295 152.0
1897.921753 204.0
1898.988403 168.0
1903.067017 184.0
1903.857178 140.0
1905.968018 156.0
1913.000488 144.0
1913.44812 152.0
1914.338257 176.0
1916.940918 232.0
1917.359253 216.0
1917.559692 152.0
1920.524048 148.0
1929.710938 156.0
1933.287476 224.0
1934.907837 184.0
1936.195068 140.0
1943.532227 208.0
1953.143311 172.0
1954.506958 144.0
1954.621338 164.0
1955.686157 164.0
1957.191528 168.0
1958.442139 176.0
1959.111572 164.0
1960.327515 236.0
1962.780029 180.0
1963.059937 148.0
1967.560181 188.0
1969.361572 176.0
1969.52063 168.0
1976.168457 148.0
1980.745483 148.0
1981.994629 176.0
1982.668091 160.0
1984.9198 188.0
1986.329956 160.0
1987.013062 144.0
1990.225952 144.0
1991.344849 144.0
1992.810669 212.0
1995.966064 156.0
1996.384033 156.0
2002.355591 168.0
2003.032471 180.0
