>compound Vincristine
>formula C46H56N4O10
>ionization [M+H]+
>parentmass 825.405945
#inchi InChI=1S/C46H56N4O10/c1-7-42(55)22-28-23-45(40(53)58-5,36-30(14-18-48(24-28)25-42)29-12-9-10-13-33(29)47-36)32-20-31-34(21-35(32)57-4)50(26-51)38-44(31)16-19-49-17-11-15-43(8-2,37(44)49)39(60-27(3)52)46(38,56)41(54)59-6/h9-13,15,20-21,26,28,37-39,47,55-56H,7-8,14,16-19,22-25H2,1-6H3/t28-,37-,38+,39+,42-,43+,44-,45-,46-/m0/s1
#inchikey OGWKCGZFUXNPDA
#origInchi InChI=1S/C46H56N4O10.H2O4S/c1-7-42(55)22-28-23-45(40(53)58-5,36-30(14-18-48(24-28)25-42)29-12-9-10-13-33(29)47-36)32-20-31-34(21-35(32)57-4)50(26-51)38-44(31)16-19-49-17-11-15-43(8-2,37(44)49)39(60-27(3)52)46(38,56)41(54)59-6;1-5(2,3)4/h9-13,15,20-21,26,28,37-39,47,55-56H,7-8,14,16-19,22-25H2,1-6H3;(H2,1,2,3,4)/t28-,37-,38+,39+,42-,43+,44-,45-,46-;/m0./s1
#Ion_Source LC-ESI
#Instrument qTof
#Compound_Source Commercial
#PI Dorrestein
#Data_Collector Garg_Neha
#Scan -1
#Precursor_MZ 825.407
#ExactMass 824.4
#Charge 1
#CAS_Number 2068-78-2
#Pubmed_ID N/A
#Smiles C1(=CC2=C(C=C1[C@@]3(C4=C(C5=C(N4)C=CC=C5)CCN6C[C@](C3)(C[C@@](C6)(O)CC)[H])C(OC)=O)[C@]78[C@@](N2C=O)([C@]([C@@H]([C@]9([C@@]7(N(CC8)CC=C9)[H])CC)OC(=O)C)(C(OC)=O)O)[H])OC.S(=O)(=O)(O)O
#INCHI_AUX N/A
#Library_Class 1
#SpectrumID CCMSLIB00000078063
#IonMode Positive
#UpdateWorkflowName UPDATE-SINGLE-ANNOTATED-GOLD
#LibraryQualityString Gold
#TaskID 77f51c88eb8b467eb4a01dd2d0cb90d2
##Scan# 1108
#SpectrumFile Plate1_61_88_GG4_01_16491.mzXML
#LibraryName FDALibrary_2_04302014.mgf
#MQScore -1
#Organism FDALibrary_2_04302014
#TIC_Query 0
#RT_Query -1
#MZErrorPPM -1
#SharedPeaks 0
#MassDiff 0
#LibMZ -1
#SpecMZ 825.407
#SpecCharge 0
#internalFilename spec-00000.mgf

>collision 10
50.349274 208.0
56.376411 244.0
65.324257 188.0
75.51088 192.0
77.378098 192.0
78.896431 160.0
86.596329 176.0
93.069626 220.0
98.032379 204.0
100.070694 148.0
108.075424 148.0
109.087532 184.0
110.842827 228.0
115.774796 212.0
120.077972 156.0
121.08992 152.0
121.227936 168.0
122.097305 220.0
123.075752 180.0
124.11618 180.0
131.55928 176.0
135.103104 152.0
136.111328 168.0
138.089859 168.0
138.126343 176.0
139.127991 200.0
141.137772 140.0
144.084824 196.0
145.087021 172.0
145.17897 176.0
154.126053 256.0
155.133392 184.0
156.140305 132.0
158.089966 144.0
158.397934 152.0
159.122696 216.0
161.066864 204.0
164.104843 212.0
166.122574 148.0
169.251495 144.0
187.720673 144.0
191.076111 180.0
194.092316 196.0
198.125458 148.0
202.089691 184.0
208.083832 228.0
208.126907 188.0
209.133118 148.0
210.366852 144.0
212.135223 184.0
215.12204 184.0
222.112335 168.0
223.12149 240.0
224.128525 788.0
224.505447 156.0
225.136963 824.0
225.906311 204.0
226.1427 364.0
228.101349 188.0
228.155533 164.0
229.254181 144.0
230.095764 160.0
241.157974 148.0
248.090469 144.0
252.084717 156.0
252.125107 180.0
252.663361 180.0
253.164093 164.0
261.05896 156.0
263.105042 172.0
263.127625 184.0
265.167786 288.0
266.172882 152.0
268.126404 164.0
270.160706 184.0
275.116577 176.0
279.18573 144.0
280.184143 156.0
281.158508 152.0
283.17337 140.0
284.092316 144.0
295.180786 168.0
297.192657 184.0
304.386353 216.0
305.17038 144.0
319.220276 172.0
323.169281 296.0
324.146576 196.0
335.158752 152.0
337.18515 312.0
338.197174 172.0
339.203125 160.0
345.500488 152.0
346.163055 180.0
353.188354 476.0
354.189941 136.0
355.200134 548.0
356.203705 160.0
358.193634 212.0
367.203644 144.0
381.206268 172.0
382.170624 144.0
385.965942 148.0
391.191956 168.0
393.190399 192.0
395.201233 232.0
399.18042 140.0
399.613983 144.0
400.159271 164.0
403.162964 164.0
404.166687 156.0
405.147614 176.0
407.703613 140.0
409.163452 160.0
410.235382 152.0
413.199036 380.0
413.462738 180.0
413.719727 248.0
414.195618 248.0
416.662109 152.0
418.203339 184.0
422.21991 132.0
423.196228 120.0
426.17804 164.0
428.1073 140.0
428.229034 232.0
429.17276 160.0
430.206024 196.0
435.161774 164.0
437.205139 196.0
438.252167 160.0
445.154175 148.0
446.217255 188.0
449.247009 212.0
453.197449 308.0
454.239258 136.0
455.217712 260.0
456.203308 140.0
459.188263 164.0
459.27356 156.0
460.214111 196.0
462.212891 148.0
470.201965 236.0
470.625 172.0
471.18219 164.0
473.171661 148.0
475.26947 152.0
478.207245 148.0
479.222076 192.0
484.618042 164.0
487.228607 196.0
488.208954 128.0
489.247253 144.0
492.227844 188.0
495.24115 116.0
497.236023 164.0
502.137787 164.0
510.250824 140.0
511.215057 180.0
511.283173 164.0
513.233032 260.0
514.094238 208.0
515.869324 144.0
516.300171 156.0
517.22644 140.0
517.271667 144.0
518.154785 148.0
518.251831 108.0
520.735901 144.0
524.259583 128.0
526.274231 128.0
527.616821 212.0
528.019226 140.0
528.225037 148.0
530.296509 156.0
532.290405 148.0
534.245056 148.0
536.251465 200.0
536.956909 152.0
538.262573 404.0
540.225891 140.0
543.227539 276.0
544.25708 256.0
546.397522 192.0
548.32666 228.0
551.242126 168.0
552.244934 140.0
552.286133 236.0
552.392334 172.0
553.198486 160.0
553.241821 144.0
554.091736 168.0
554.239563 240.0
554.794739 152.0
555.222717 352.0
555.28772 168.0
556.278015 208.0
556.911072 180.0
556.967407 152.0
557.277466 220.0
558.295105 132.0
558.448059 140.0
559.271484 176.0
560.59021 172.0
562.269104 140.0
563.837097 168.0
565.241638 152.0
565.27478 168.0
566.254761 168.0
567.270081 144.0
568.259949 280.0
569.280518 168.0
570.282715 156.0
570.420837 168.0
571.282654 236.0
572.300049 148.0
573.041077 140.0
574.044128 140.0
575.312012 120.0
576.316284 216.0
578.224365 156.0
579.229858 132.0
580.234924 208.0
581.286682 148.0
582.271118 168.0
585.286072 232.0
588.277893 268.0
590.280396 304.0
592.235657 144.0
593.277527 148.0
594.223083 108.0
594.254333 272.0
596.245056 164.0
598.286926 224.0
598.80249 180.0
599.273804 436.0
600.147461 144.0
600.295715 192.0
601.289001 176.0
602.280151 272.0
604.285461 344.0
605.284668 156.0
606.315613 184.0
607.321838 208.0
608.278687 148.0
609.162598 152.0
610.288086 156.0
615.264282 164.0
618.312927 436.0
618.61615 156.0
619.289673 124.0
620.280579 220.0
621.307129 188.0
622.872314 112.0
624.088501 152.0
624.266113 184.0
625.328186 120.0
626.266968 172.0
627.317383 192.0
628.269165 188.0
632.293274 100.0
632.344727 220.0
633.32373 164.0
634.313477 268.0
635.322205 204.0
636.317139 236.0
636.355103 140.0
637.274231 152.0
637.325562 152.0
638.239319 176.0
639.268677 172.0
640.268982 136.0
642.275452 296.0
644.314148 148.0
645.313538 140.0
646.026611 184.0
648.474915 136.0
649.361328 176.0
650.379517 188.0
653.332703 168.0
654.268066 192.0
655.281921 140.0
655.333557 156.0
655.465332 140.0
656.329529 228.0
657.296997 104.0
659.338745 164.0
659.819214 204.0
661.31012 248.0
662.316772 288.0
663.349854 824.0
664.264404 144.0
664.332397 164.0
665.31134 236.0
665.355286 128.0
669.332031 164.0
669.414429 140.0
670.287964 108.0
674.368958 148.0
675.285461 168.0
675.350098 188.0
676.316895 248.0
677.347351 380.0
678.327271 208.0
678.373413 580.0
679.343506 296.0
680.306213 168.0
681.321411 176.0
682.325256 308.0
682.995361 140.0
683.328308 180.0
684.28595 228.0
685.369324 200.0
686.719543 148.0
687.282959 144.0
687.361389 344.0
688.259094 152.0
688.354919 244.0
688.410522 144.0
689.358826 116.0
690.347046 100.0
690.385925 176.0
692.31897 184.0
694.323425 200.0
694.339417 200.0
695.349854 296.0
696.155823 164.0
696.345276 144.0
697.335754 132.0
699.215576 140.0
701.907593 140.0
702.340027 164.0
703.33075 116.0
703.965637 180.0
705.363892 1608.0
705.88385 192.0
706.367432 988.0
707.372864 308.0
708.387329 188.0
713.92334 180.0
714.285034 160.0
716.352112 248.0
717.334656 128.0
719.353394 144.0
721.364319 144.0
722.350708 152.0
722.420227 140.0
723.376282 1328.0
724.3703 688.0
725.380615 332.0
728.531677 156.0
730.335876 148.0
733.354431 944.0
733.417847 148.0
735.358398 364.0
737.368652 136.0
738.179749 140.0
738.408081 136.0
742.674927 148.0
746.348816 100.0
747.388855 600.0
748.375061 688.0
749.388611 420.0
750.393555 372.0
763.220703 192.0
763.36554 236.0
763.589172 152.0
764.378296 152.0
764.393494 132.0
764.821655 180.0
765.38623 4784.0
765.989014 120.0
766.386902 2484.0
767.396362 624.0
768.392456 300.0
769.384583 120.0
770.411377 160.0
775.356934 320.0
776.353943 136.0
783.384583 508.0
784.401367 104.0
784.505859 176.0
785.403503 176.0
786.361328 160.0
787.299316 168.0
787.388672 156.0
794.374084 216.0
795.377136 104.0
796.350708 140.0
796.411804 148.0
805.277405 176.0
805.375732 228.0
806.402588 196.0
807.261108 140.0
807.3927 2864.0
807.563049 124.0
807.730591 140.0
808.184021 156.0
808.39386 1472.0
809.402954 972.0
810.403015 140.0
812.239563 140.0
813.919739 116.0
818.395081 124.0
819.869873 160.0
822.029907 116.0
822.122559 140.0
822.355713 160.0
822.803528 176.0
822.881592 152.0
823.127258 208.0
823.390564 4072.0
823.588623 124.0
823.779114 188.0
823.844543 112.0
824.395081 2852.0
824.617249 152.0
824.661316 184.0
825.121765 392.0
825.196472 336.0
825.302795 208.0
825.405945 27260.0
825.6521 212.0
825.842041 132.0
825.921082 220.0
826.200073 184.0
826.24054 184.0
826.410034 14808.0
826.525208 316.0
826.606445 104.0
826.648376 172.0
826.748474 140.0
826.853638 248.0
826.921753 128.0
827.027161 176.0
827.299438 136.0
827.409912 4416.0
827.551392 152.0
827.708374 188.0
827.780029 176.0
828.05127 108.0
828.417725 1068.0
828.619812 144.0
828.879456 100.0
829.294556 204.0
829.415344 652.0
830.039856 168.0
830.419678 252.0
830.51825 112.0
830.580811 208.0
830.928894 168.0
831.02301 140.0
831.401978 108.0
832.554871 124.0
832.629578 152.0
832.708435 144.0
833.055786 120.0
833.337585 100.0
867.479126 144.0
916.076538 148.0
1087.470947 148.0
1257.693481 200.0
1346.545654 164.0
1375.30603 152.0
1588.80957 172.0
1876.890381 152.0
1935.948608 148.0
