>compound Ritonavir
>formula C37H48N6O5S2
>ionization [M+H]+
>parentmass 721.320312
#inchi InChI=1S/C37H48N6O5S2/c1-24(2)33(42-36(46)43(5)20-29-22-49-35(40-29)25(3)4)34(45)39-28(16-26-12-8-6-9-13-26)18-32(44)31(17-27-14-10-7-11-15-27)41-37(47)48-21-30-19-38-23-50-30/h6-15,19,22-25,28,31-33,44H,16-18,20-21H2,1-5H3,(H,39,45)(H,41,47)(H,42,46)/t28-,31-,32-,33-/m0/s1
#inchikey NCDNCNXCDXHOMX
#Ion_Source LC-ESI
#Instrument qTof
#Compound_Source Commercial
#PI Dorrestein
#Data_Collector Garg_Neha
#Scan -1
#Precursor_MZ 721.32
#ExactMass 720.313
#Charge 1
#CAS_Number 155213-67-5
#Pubmed_ID N/A
#Smiles C1=CC=CC=C1C[C@@H]([C@H](C[C@H](CC2=CC=CC=C2)NC([C@@H](NC(N(CC3=CSC(=N3)C(C)C)C)=O)C(C)C)=O)O)NC(OCC4=CN=CS4)=O
#INCHI_AUX N/A
#Library_Class 1
#SpectrumID CCMSLIB00000078032
#IonMode Positive
#UpdateWorkflowName UPDATE-SINGLE-ANNOTATED-GOLD
#LibraryQualityString Gold
#TaskID 77f51c88eb8b467eb4a01dd2d0cb90d2
##Scan# 1995
#SpectrumFile Plate1_21_40_GG2_01_16489.mzXML
#LibraryName FDALibrary_2_04302014.mgf
#MQScore -1
#Organism FDALibrary_2_04302014
#TIC_Query 0
#RT_Query -1
#MZErrorPPM -1
#SharedPeaks 0
#MassDiff 0
#LibMZ -1
#SpecMZ 721.32
#SpecCharge 0
#internalFilename spec-00000.mgf

>collision 10
44.998039 156.0
45.046116 232.0
45.561893 208.0
45.618336 196.0
45.805389 148.0
45.844463 168.0
45.95932 184.0
45.976627 148.0
46.077904 172.0
46.127907 156.0
46.18335 160.0
46.209053 164.0
46.241528 148.0
46.310581 192.0
46.421719 184.0
46.440704 192.0
46.785866 200.0
46.930103 176.0
47.304634 208.0
47.643368 140.0
47.735031 192.0
47.773975 192.0
47.870792 152.0
48.038017 180.0
48.367367 156.0
48.576092 140.0
48.841934 148.0
48.910118 192.0
49.056385 208.0
49.147041 160.0
49.16518 184.0
49.212643 256.0
49.250351 144.0
49.276348 100.0
49.334194 144.0
49.488094 140.0
49.525906 180.0
49.555325 140.0
49.566536 148.0
49.61092 168.0
50.06665 240.0
50.082146 140.0
50.151188 208.0
50.314827 176.0
50.365665 160.0
50.668404 144.0
50.780392 160.0
51.158371 188.0
51.289429 196.0
51.40638 220.0
51.436356 232.0
51.482323 204.0
51.633533 156.0
52.013237 240.0
52.231655 140.0
52.509182 176.0
52.537056 148.0
52.589005 300.0
52.697315 224.0
52.763462 188.0
52.856373 156.0
52.896896 168.0
52.946125 176.0
53.022911 212.0
53.140373 164.0
53.385864 256.0
53.428047 160.0
53.559063 144.0
53.739838 164.0
53.750053 168.0
53.852245 144.0
54.084736 152.0
54.620331 204.0
54.782261 164.0
54.975414 212.0
55.220905 172.0
55.262089 172.0
55.389408 172.0
55.457569 184.0
55.518356 220.0
55.63261 216.0
56.008839 160.0
56.111668 192.0
56.189224 156.0
56.579304 192.0
56.601761 192.0
56.681152 152.0
56.742607 224.0
56.984253 252.0
57.170715 180.0
57.229092 156.0
57.331856 156.0
57.457012 192.0
57.580791 192.0
57.60194 196.0
57.612514 156.0
57.704708 180.0
57.760357 216.0
57.786381 168.0
57.860546 188.0
57.981728 144.0
58.087868 224.0
58.139454 176.0
58.270645 152.0
58.347557 192.0
58.62764 208.0
58.733757 120.0
59.076553 144.0
59.274067 208.0
59.427402 188.0
59.468838 208.0
59.496468 140.0
59.556358 140.0
59.603985 172.0
59.839325 184.0
59.988766 148.0
60.070496 164.0
60.107525 176.0
60.306751 236.0
60.342308 144.0
60.393341 164.0
60.476898 152.0
61.026077 280.0
61.046291 188.0
61.064957 156.0
61.286015 152.0
61.301598 192.0
62.081692 140.0
62.211926 140.0
62.281017 160.0
62.51371 144.0
62.925121 152.0
63.009319 168.0
63.115517 176.0
63.282452 180.0
63.379074 144.0
63.564602 152.0
64.078194 172.0
64.092537 188.0
64.352722 304.0
64.374214 220.0
64.662659 168.0
64.729897 180.0
64.821205 232.0
64.835632 200.0
65.275505 160.0
65.29319 204.0
65.341454 212.0
65.699112 140.0
65.988213 168.0
66.552071 152.0
66.78772 156.0
66.830025 152.0
66.877213 184.0
66.929314 156.0
67.032814 136.0
67.146057 152.0
67.38929 156.0
67.632965 184.0
67.691902 148.0
67.724182 152.0
67.814781 188.0
68.119591 132.0
68.221878 140.0
68.468697 176.0
68.645035 168.0
68.692863 188.0
68.73246 148.0
68.747314 152.0
68.95871 168.0
68.986816 160.0
69.036415 172.0
69.5849 220.0
69.654648 168.0
69.762665 168.0
69.887405 188.0
69.902382 212.0
70.0439 220.0
70.120552 168.0
70.233932 140.0
70.332382 248.0
70.56292 200.0
70.589676 180.0
70.638176 236.0
70.676659 228.0
71.01004 156.0
71.051971 216.0
71.149315 236.0
71.20977 148.0
71.456886 144.0
71.665665 148.0
71.770172 156.0
71.976036 188.0
71.994614 188.0
72.133369 140.0
72.232933 176.0
72.249847 172.0
72.268463 196.0
72.42421 224.0
72.47052 156.0
72.870377 192.0
72.894638 204.0
72.947723 204.0
73.450912 168.0
73.481621 160.0
73.575493 140.0
73.734352 168.0
73.848907 336.0
73.884171 156.0
73.982384 188.0
74.246262 156.0
74.313164 172.0
74.402412 160.0
74.555099 164.0
74.644684 168.0
74.988998 140.0
75.083832 180.0
75.220139 148.0
75.26503 156.0
75.280533 184.0
75.354851 208.0
75.558868 200.0
75.837669 176.0
75.964256 156.0
76.250763 164.0
76.409004 228.0
76.499504 180.0
76.572632 196.0
76.66497 180.0
76.69809 148.0
76.77655 188.0
76.800964 152.0
76.844582 204.0
76.884712 252.0
76.923119 172.0
77.055847 144.0
77.144974 192.0
77.176445 160.0
77.276146 164.0
77.356651 184.0
77.446526 172.0
77.519539 140.0
77.88623 192.0
77.898529 160.0
77.931908 192.0
77.945969 168.0
77.965096 172.0
78.241463 160.0
78.371368 180.0
78.41938 140.0
78.431717 232.0
78.477852 120.0
78.848274 204.0
78.861656 200.0
78.929588 192.0
79.124222 172.0
79.242889 152.0
79.925064 244.0
80.045769 156.0
80.507591 128.0
80.849113 196.0
80.894638 160.0
81.04789 212.0
81.087311 160.0
81.184128 220.0
81.221794 184.0
81.315094 160.0
81.670853 148.0
81.920341 108.0
82.381096 184.0
82.404312 160.0
82.628777 212.0
82.836975 172.0
82.855553 172.0
83.234177 144.0
83.475861 212.0
83.512238 176.0
83.543159 216.0
83.721542 200.0
83.778008 152.0
83.965759 168.0
84.025955 156.0
84.053322 172.0
84.122681 172.0
84.47538 184.0
84.561378 144.0
84.630463 152.0
84.658417 200.0
84.812317 176.0
85.014069 200.0
85.074638 140.0
85.092194 164.0
85.352074 160.0
85.644699 144.0
85.756088 180.0
85.822067 148.0
85.860352 196.0
86.031952 184.0
86.070724 232.0
86.092972 176.0
86.168625 340.0
86.388626 216.0
86.434883 180.0
86.49411 196.0
86.564461 140.0
86.738625 156.0
86.794243 204.0
86.841393 132.0
86.925949 176.0
86.979774 196.0
87.052185 196.0
87.128342 196.0
87.152779 232.0
87.310501 180.0
87.389214 232.0
87.429573 152.0
87.641861 160.0
87.722008 248.0
87.7537 184.0
87.772346 148.0
88.132607 176.0
88.208939 220.0
88.287766 160.0
88.321426 212.0
88.438522 132.0
88.458031 232.0
88.529182 180.0
88.555328 208.0
88.783478 232.0
88.911636 180.0
88.95668 156.0
88.975456 172.0
89.106926 148.0
89.407791 168.0
89.54364 208.0
89.827972 164.0
90.056381 160.0
90.269943 148.0
90.43454 172.0
90.608757 176.0
90.836258 160.0
90.997574 148.0
91.098228 184.0
91.269279 164.0
91.699532 156.0
91.792946 176.0
91.928391 176.0
92.079208 144.0
92.134605 148.0
92.218689 160.0
92.276039 164.0
92.396477 152.0
92.659698 212.0
92.747749 180.0
93.040649 140.0
93.065445 224.0
93.174927 188.0
93.269089 212.0
93.621185 168.0
93.792358 148.0
94.099594 164.0
94.143822 160.0
94.224953 140.0
94.793831 192.0
94.894623 152.0
94.935341 164.0
94.95668 168.0
95.128937 296.0
95.275024 164.0
95.312897 124.0
95.356644 148.0
95.407181 216.0
95.438293 188.0
95.556938 196.0
95.585564 208.0
95.76329 204.0
95.845116 176.0
95.878242 176.0
95.911377 176.0
96.004967 144.0
96.092743 140.0
96.289909 148.0
96.35437 228.0
96.485168 156.0
96.514641 160.0
96.536156 172.0
96.708321 264.0
97.166885 216.0
97.18454 144.0
97.342918 176.0
97.365143 156.0
97.483017 144.0
97.658653 168.0
97.707176 156.0
97.882118 100.0
98.005402 2336.0
98.049805 140.0
98.183876 176.0
98.266724 228.0
98.308159 156.0
98.343689 168.0
98.556244 152.0
98.776428 196.0
99.009148 108.0
99.101112 152.0
99.154617 152.0
99.178406 172.0
99.301338 180.0
99.362831 164.0
99.688477 212.0
99.736176 156.0
99.82029 404.0
99.885315 160.0
99.948982 216.0
100.001236 172.0
100.209824 156.0
100.630676 152.0
100.645691 176.0
101.28463 148.0
101.44294 160.0
101.487961 184.0
101.55925 152.0
101.605385 176.0
101.747879 168.0
101.958801 200.0
102.127693 168.0
102.443726 184.0
102.578751 160.0
102.671501 164.0
102.729996 148.0
102.867821 216.0
102.895485 224.0
103.012619 192.0
103.055046 164.0
103.145988 196.0
103.202599 164.0
103.619553 156.0
103.824287 180.0
104.067795 172.0
104.317688 196.0
104.405121 152.0
104.419357 140.0
104.468178 168.0
104.562668 180.0
104.588242 196.0
104.742996 152.0
104.922333 200.0
105.001862 232.0
105.046738 188.0
105.066559 288.0
105.250648 176.0
105.49192 152.0
105.761856 188.0
105.809029 256.0
105.834183 112.0
105.963844 156.0
105.987221 160.0
106.576126 264.0
107.032776 208.0
107.064102 188.0
107.102798 168.0
107.232605 176.0
107.2491 232.0
107.51355 220.0
107.581215 164.0
107.721642 192.0
107.769165 216.0
108.068977 216.0
108.114502 184.0
108.197296 164.0
108.406502 156.0
108.594353 212.0
108.713432 148.0
108.808914 148.0
108.881592 176.0
109.012474 152.0
109.122643 184.0
109.185028 268.0
109.438858 172.0
109.626389 152.0
109.862 164.0
110.20932 168.0
110.239929 168.0
110.459465 148.0
110.476204 152.0
110.49498 160.0
110.679871 156.0
110.861473 148.0
110.924355 196.0
111.15506 148.0
111.451141 172.0
111.556229 140.0
111.577248 148.0
111.617203 168.0
111.636124 196.0
111.669777 204.0
111.873894 152.0
112.058319 148.0
112.24472 248.0
112.265808 188.0
112.869766 220.0
112.886681 180.0
112.954361 140.0
112.975517 168.0
113.024185 144.0
113.326973 188.0
113.993271 156.0
114.018776 196.0
114.27372 184.0
114.318642 240.0
115.030586 152.0
115.128754 204.0
115.180008 164.0
115.291115 168.0
115.4814 176.0
115.973869 168.0
116.016747 520.0
116.136833 204.0
116.177589 148.0
116.244102 140.0
116.310638 160.0
116.349281 188.0
116.596306 176.0
116.77906 256.0
117.045403 176.0
117.068497 636.0
117.239799 184.0
117.330338 172.0
117.5784 240.0
117.693176 192.0
117.840652 144.0
118.014771 184.0
118.088295 216.0
118.20945 164.0
118.616638 196.0
118.69902 180.0
118.813797 144.0
118.866058 228.0
118.913803 144.0
118.974579 192.0
119.226555 196.0
119.305557 128.0
119.433105 196.0
119.457031 144.0
119.502724 276.0
119.563652 168.0
119.748718 168.0
119.942642 152.0
120.084778 280.0
120.134544 216.0
120.346252 204.0
120.422684 204.0
120.595299 176.0
120.665253 220.0
120.817123 344.0
120.866478 156.0
121.074448 172.0
121.271637 200.0
121.299606 152.0
121.42292 140.0
121.556747 268.0
121.600639 148.0
121.721382 164.0
121.794815 192.0
121.888336 268.0
122.205986 196.0
122.389862 176.0
122.409683 156.0
122.471352 184.0
122.667465 176.0
122.702736 176.0
122.858337 216.0
122.9189 200.0
123.021446 164.0
123.252342 148.0
123.298744 140.0
123.362846 196.0
123.451294 156.0
123.480042 160.0
123.619423 176.0
123.752235 196.0
123.794312 172.0
123.815407 212.0
123.929436 204.0
124.188812 140.0
124.346344 160.0
124.419601 216.0
124.517303 140.0
124.59066 176.0
124.692825 208.0
124.777901 148.0
124.808075 128.0
124.879593 156.0
124.917404 176.0
125.083458 168.0
125.105103 276.0
125.124374 200.0
125.180046 220.0
125.333748 208.0
125.411751 144.0
125.478622 152.0
125.586304 196.0
125.708374 180.0
125.774773 144.0
126.105911 196.0
126.200554 156.0
126.316101 188.0
126.443642 180.0
126.741493 192.0
126.757172 240.0
127.033989 168.0
127.057632 140.0
127.596657 152.0
127.884598 148.0
128.00618 164.0
128.048965 188.0
128.382523 140.0
128.544937 160.0
128.669083 176.0
128.727798 216.0
128.87236 168.0
129.02832 188.0
129.069656 412.0
129.098419 184.0
129.372147 160.0
129.471832 208.0
129.632675 192.0
129.678009 152.0
129.725128 172.0
129.841248 148.0
129.913834 160.0
129.954681 148.0
130.358871 140.0
130.593033 180.0
130.643692 148.0
130.711349 196.0
130.763687 232.0
130.916229 188.0
130.948105 180.0
130.982269 144.0
131.021011 156.0
131.084976 288.0
131.214554 216.0
131.271729 144.0
131.303665 220.0
131.321915 140.0
131.506729 152.0
131.529556 140.0
131.570648 148.0
131.663483 200.0
131.915604 188.0
132.083496 308.0
132.228973 152.0
132.565643 148.0
132.739868 152.0
132.96698 188.0
133.015182 156.0
133.045029 160.0
133.089294 616.0
133.134918 192.0
133.17363 204.0
133.355743 232.0
133.488495 156.0
133.631104 196.0
133.665619 160.0
133.714554 180.0
133.865891 144.0
133.885056 100.0
133.948807 216.0
134.096939 228.0
134.32225 148.0
134.44223 172.0
134.469925 164.0
134.489548 184.0
134.52533 152.0
134.603821 168.0
134.778946 172.0
134.943497 180.0
135.059128 140.0
135.140091 152.0
135.315994 244.0
135.362137 160.0
135.512253 120.0
135.610199 276.0
135.777145 200.0
136.023087 188.0
136.041382 164.0
136.483109 148.0
136.618011 160.0
136.766937 252.0
136.846085 204.0
136.896942 336.0
136.915955 188.0
136.964859 184.0
137.093002 180.0
137.151276 148.0
137.228897 216.0
137.344818 216.0
137.547821 200.0
137.697266 196.0
137.757996 280.0
137.996384 168.0
138.078232 168.0
138.371414 180.0
138.511246 172.0
138.672928 180.0
139.171875 152.0
139.221939 192.0
139.447479 152.0
139.531937 108.0
139.666153 216.0
139.741394 328.0
139.771652 152.0
139.835556 160.0
139.925018 144.0
139.946213 164.0
139.9841 156.0
140.022232 180.0
140.053391 48516.0
140.126022 112.0
140.176468 112.0
140.307358 224.0
140.387589 180.0
140.69075 184.0
140.957657 136.0
141.056122 3896.0
141.222931 204.0
141.504547 156.0
141.665588 160.0
141.841858 328.0
141.908173 136.0
142.049393 2728.0
142.092926 128.0
142.110046 144.0
142.14415 148.0
142.210327 132.0
142.750305 164.0
142.819275 152.0
142.85495 188.0
142.876373 196.0
143.009628 168.0
143.051437 128.0
143.081482 368.0
143.300095 148.0
143.338287 172.0
143.469376 172.0
143.505142 216.0
143.889282 144.0
143.981445 160.0
144.025406 140.0
144.05722 136.0
144.159195 152.0
144.62558 156.0
144.771622 152.0
145.059143 168.0
145.126282 192.0
145.210205 212.0
145.24379 164.0
145.45256 184.0
145.623047 152.0
145.690308 200.0
145.776794 176.0
145.997971 160.0
146.060516 324.0
146.094437 972.0
146.144714 168.0
146.221725 248.0
146.617554 160.0
146.717026 180.0
146.78064 144.0
146.852982 172.0
147.084167 188.0
147.488022 144.0
147.812103 172.0
147.906494 168.0
148.075989 156.0
148.106079 164.0
149.043945 172.0
149.107285 392.0
149.206802 156.0
149.342972 208.0
149.462189 140.0
149.652054 152.0
150.054077 164.0
150.398041 152.0
150.63002 172.0
150.705765 140.0
150.754639 204.0
150.871964 204.0
150.962433 144.0
151.023575 148.0
151.050339 140.0
151.356415 148.0
151.427429 188.0
151.670013 176.0
151.822021 180.0
151.987717 264.0
152.14592 212.0
152.311951 164.0
152.549255 180.0
152.570938 148.0
152.69635 216.0
152.843964 152.0
153.173874 196.0
153.324173 144.0
153.463547 252.0
153.963165 212.0
154.816376 200.0
154.883255 232.0
154.925369 148.0
155.085938 200.0
155.269913 260.0
155.362625 204.0
155.88063 148.0
155.960159 184.0
156.136703 160.0
156.172729 132.0
156.701767 176.0
156.724197 144.0
156.867752 200.0
157.118134 196.0
157.849991 152.0
158.060104 168.0
158.094543 412.0
158.170364 148.0
158.315445 148.0
158.44632 164.0
158.656235 156.0
158.904526 192.0
158.962234 172.0
158.984818 208.0
159.150497 160.0
159.178116 156.0
159.268539 184.0
159.419281 164.0
159.649033 156.0
159.82666 156.0
160.108612 156.0
160.50174 156.0
160.625916 192.0
160.769135 160.0
160.822144 184.0
160.907761 140.0
160.943314 172.0
160.978668 220.0
161.144974 148.0
161.266693 220.0
161.327362 188.0
161.704254 180.0
161.81311 160.0
162.096802 236.0
162.606552 160.0
162.715576 148.0
162.782379 204.0
162.847763 140.0
162.893478 244.0
163.089142 168.0
163.137451 296.0
163.157791 196.0
163.351379 164.0
163.488464 192.0
163.814667 104.0
163.885712 156.0
163.918839 188.0
163.954514 160.0
163.982559 232.0
164.066223 272.0
164.155914 264.0
164.306412 164.0
164.911621 156.0
165.024109 184.0
165.051361 140.0
165.300369 176.0
165.346436 164.0
165.453934 144.0
165.535873 148.0
165.592224 196.0
165.72287 164.0
165.830505 204.0
166.302444 148.0
166.351227 148.0
166.73909 144.0
166.895905 272.0
167.073715 120.0
167.093948 240.0
167.258652 212.0
167.521317 208.0
167.822861 148.0
167.886444 176.0
167.998245 140.0
168.049835 172.0
168.295044 168.0
168.599869 200.0
168.711853 124.0
168.915314 204.0
169.079132 948.0
169.124924 152.0
169.220703 148.0
169.5271 184.0
169.573013 228.0
169.725967 148.0
169.807495 128.0
169.842682 144.0
169.868622 148.0
170.021072 148.0
170.079483 168.0
170.304703 156.0
170.40863 148.0
170.445007 164.0
170.483978 184.0
170.593155 156.0
170.660751 160.0
170.699753 144.0
170.789597 132.0
170.855011 180.0
170.965805 164.0
171.043335 280.0
171.095215 59176.0
171.167816 212.0
171.238464 128.0
171.274796 304.0
171.397903 164.0
171.600357 144.0
171.637207 168.0
171.729691 140.0
171.841888 136.0
172.007675 152.0
172.045181 152.0
172.098068 4308.0
172.247925 188.0
172.276596 168.0
172.313232 168.0
172.336548 156.0
172.560532 104.0
172.615341 100.0
172.673981 164.0
172.856461 96.0
173.09108 2916.0
173.234436 244.0
173.281891 116.0
173.302185 140.0
173.410889 124.0
173.494598 208.0
173.601089 152.0
173.67572 132.0
173.72699 148.0
174.016907 172.0
174.092209 364.0
174.189026 152.0
174.2258 140.0
174.293732 136.0
174.393982 152.0
174.429886 176.0
174.53595 152.0
175.096481 152.0
175.114929 156.0
175.424866 128.0
175.59726 232.0
175.755539 164.0
175.945572 184.0
175.966705 196.0
176.107681 224.0
176.185913 176.0
176.513657 212.0
176.746445 200.0
176.85759 168.0
176.913193 228.0
176.997635 192.0
177.077362 180.0
177.111801 156.0
177.193924 232.0
177.310516 140.0
177.400635 156.0
177.527908 156.0
177.628693 212.0
177.649918 176.0
177.692368 156.0
177.817093 232.0
177.859558 148.0
177.944519 288.0
178.090439 156.0
178.326553 108.0
178.444016 208.0
178.532104 188.0
178.893631 140.0
179.431793 192.0
179.93338 176.0
180.451706 200.0
180.601471 148.0
180.660324 140.0
180.708481 168.0
180.879761 160.0
181.107361 144.0
181.158264 176.0
181.241318 196.0
181.544235 240.0
181.587143 208.0
181.774948 140.0
182.236801 168.0
182.968369 152.0
183.29277 128.0
183.490021 164.0
184.071167 176.0
184.187302 184.0
184.344009 204.0
184.882187 184.0
184.995865 192.0
185.040527 164.0
185.299637 172.0
185.347961 256.0
185.41571 172.0
185.475342 328.0
185.526855 172.0
185.795349 196.0
185.814331 176.0
186.001587 152.0
186.026016 232.0
186.175354 236.0
186.409439 148.0
186.667236 164.0
186.77626 148.0
187.053589 188.0
187.186996 172.0
187.327499 156.0
187.538452 180.0
187.592972 172.0
187.738602 156.0
187.931168 144.0
188.000534 152.0
188.051727 280.0
188.100372 144.0
188.124939 184.0
188.187729 140.0
188.483673 176.0
188.881897 160.0
189.011795 168.0
189.207565 240.0
189.286972 140.0
189.319824 140.0
189.385559 232.0
190.067642 168.0
190.13562 180.0
190.213669 184.0
190.274063 152.0
190.716354 160.0
191.084854 192.0
191.284103 192.0
191.831207 172.0
192.018707 160.0
192.225616 212.0
192.543106 164.0
192.683975 148.0
192.785004 208.0
192.980637 156.0
193.100983 212.0
193.223114 164.0
193.286758 256.0
193.586273 244.0
193.636841 148.0
193.869461 220.0
194.029068 188.0
194.103317 196.0
194.259247 368.0
194.363327 180.0
194.54509 192.0
194.620056 160.0
194.997864 152.0
195.095154 280.0
195.509491 196.0
195.704666 172.0
195.984436 188.0
196.246567 116.0
196.399414 188.0
196.476166 228.0
196.507202 260.0
196.574554 176.0
196.599289 164.0
196.694595 192.0
196.857208 216.0
196.910187 168.0
196.943604 148.0
196.990082 320.0
197.023315 336.0
197.075104 103868.0
197.224686 236.0
197.270294 100.0
197.328598 100.0
197.399521 208.0
197.458389 156.0
197.478607 104.0
197.531982 104.0
197.55687 244.0
197.801392 192.0
197.835129 148.0
197.900101 188.0
197.934799 120.0
198.077301 9132.0
198.358612 224.0
198.606094 200.0
198.894394 204.0
198.940262 152.0
198.96373 112.0
199.071777 3568.0
199.114212 96.0
199.171875 156.0
199.350937 128.0
199.536026 176.0
199.571854 124.0
199.649658 104.0
199.687851 164.0
200.075302 368.0
200.434647 164.0
200.7034 184.0
200.725952 232.0
201.002335 156.0
201.160461 224.0
201.593964 228.0
201.767853 192.0
201.876816 224.0
202.07074 136.0
202.24028 160.0
202.412979 188.0
202.707581 164.0
202.837967 148.0
203.118698 180.0
203.155579 152.0
203.176666 176.0
203.573608 144.0
204.109909 152.0
204.249268 148.0
204.377289 160.0
204.624908 160.0
204.986664 236.0
205.186188 144.0
205.246063 152.0
205.671158 204.0
206.273895 180.0
206.545547 172.0
206.574158 184.0
206.740112 176.0
207.000626 172.0
207.119553 160.0
207.570877 184.0
208.141922 180.0
208.202225 164.0
208.460785 228.0
208.712967 204.0
209.796326 196.0
210.018372 148.0
210.12381 160.0
210.206375 224.0
210.379089 168.0
210.638992 172.0
211.12587 732.0
211.575974 256.0
211.677307 212.0
211.975693 156.0
212.133865 412.0
212.355484 140.0
212.770447 184.0
212.877884 160.0
213.055069 160.0
213.328247 224.0
213.539383 164.0
213.843109 172.0
214.06723 144.0
215.063736 180.0
215.522903 152.0
216.070099 168.0
216.172073 152.0
216.230606 148.0
216.602463 140.0
216.916016 164.0
216.97171 176.0
217.078064 1568.0
217.141174 168.0
217.966736 168.0
218.063721 180.0
218.08429 200.0
218.151901 292.0
218.519531 208.0
218.649017 192.0
219.087753 164.0
219.149628 264.0
219.217407 156.0
219.347092 204.0
219.70932 216.0
219.777679 188.0
219.81604 172.0
220.146667 188.0
220.542572 160.0
220.604599 168.0
221.536865 152.0
222.132721 160.0
222.204422 96.0
222.378998 148.0
222.426498 148.0
222.473999 220.0
222.732605 236.0
223.80896 332.0
223.892349 144.0
224.652435 140.0
225.135971 196.0
226.101639 152.0
226.529816 200.0
226.661652 180.0
226.685623 224.0
226.952408 160.0
227.075363 176.0
227.880295 176.0
228.085175 104.0
229.090057 188.0
229.718216 232.0
230.075562 204.0
230.226486 148.0
230.389603 196.0
231.097076 172.0
231.124313 172.0
232.045105 248.0
232.083206 200.0
233.130707 440.0
233.213867 140.0
233.496628 204.0
234.056595 176.0
234.135696 180.0
234.45871 232.0
234.734711 120.0
235.337265 156.0
235.439865 200.0
235.544937 216.0
236.254166 148.0
236.673401 172.0
236.746964 152.0
237.055908 304.0
237.105423 140.0
237.332275 176.0
237.568436 144.0
238.20697 188.0
238.240753 172.0
238.794067 148.0
238.920181 236.0
239.044785 156.0
239.363495 164.0
239.532806 192.0
240.016693 140.0
240.085281 132.0
240.23259 176.0
240.336243 168.0
241.372284 156.0
242.191956 180.0
242.307053 160.0
242.911774 140.0
243.088455 164.0
243.16037 184.0
243.265366 192.0
243.535522 224.0
244.082504 244.0
244.132263 140.0
244.331329 224.0
244.493134 168.0
244.938385 164.0
245.122345 568.0
245.231293 180.0
245.293625 276.0
245.886276 148.0
246.100403 324.0
246.13028 184.0
246.564713 196.0
246.614014 144.0
247.088654 400.0
247.144348 236.0
247.234848 160.0
248.141342 412.0
248.338623 192.0
248.784866 172.0
249.123718 116.0
249.149429 188.0
249.591919 180.0
249.640274 216.0
249.90892 116.0
249.977875 136.0
250.029617 236.0
250.158401 6340.0
250.251648 136.0
250.511383 156.0
250.694122 228.0
250.902161 184.0
250.980988 156.0
251.052979 140.0
251.162888 1028.0
251.38559 292.0
251.53627 144.0
252.086472 180.0
252.163086 340.0
252.563248 140.0
252.629669 148.0
252.65976 164.0
252.817886 216.0
253.110489 140.0
253.456039 244.0
253.899857 148.0
254.074326 172.0
254.163162 164.0
254.207581 196.0
254.490097 184.0
254.547256 156.0
255.092133 172.0
255.88591 148.0
255.956696 140.0
256.102478 168.0
256.539032 156.0
256.947235 180.0
257.112854 192.0
257.627258 164.0
257.787018 156.0
258.564178 232.0
259.143127 172.0
260.767578 152.0
261.442993 144.0
261.558868 160.0
261.674774 164.0
261.877655 184.0
262.164398 148.0
262.269745 180.0
262.402924 236.0
262.651245 204.0
262.70285 140.0
262.88031 324.0
262.909363 140.0
263.129395 120.0
263.283844 144.0
264.263336 164.0
264.629089 200.0
265.069611 156.0
265.393768 172.0
265.514648 188.0
265.711609 164.0
265.79599 152.0
265.831665 140.0
266.151276 900.0
266.372955 196.0
266.62735 168.0
267.085785 496.0
267.155731 160.0
267.187592 248.0
267.511139 124.0
267.607269 192.0
267.721344 164.0
267.797852 192.0
267.82782 204.0
267.889832 168.0
267.925659 160.0
267.974518 200.0
268.003876 196.0
268.049255 176.0
268.094177 1092.0
268.14801 72400.0
268.214325 216.0
268.22818 160.0
268.361511 100.0
268.46701 140.0
268.669495 128.0
268.753967 100.0
268.794678 116.0
268.821594 228.0
269.101044 600.0
269.150269 10944.0
269.320709 156.0
269.371521 188.0
269.432861 160.0
269.566833 176.0
269.61795 104.0
269.803284 116.0
269.979431 172.0
270.096619 152.0
270.14444 2804.0
270.253143 108.0
270.448853 260.0
270.490417 112.0
270.748505 132.0
270.893616 100.0
270.93634 108.0
271.014496 128.0
271.101624 204.0
271.146912 576.0
271.393494 260.0
271.898682 176.0
272.09201 188.0
272.131744 224.0
272.289368 208.0
272.565338 148.0
273.053833 196.0
273.153534 128.0
273.479614 280.0
274.029572 176.0
274.07901 192.0
274.388824 196.0
274.593292 144.0
274.843994 152.0
275.131165 144.0
275.23349 144.0
275.829437 172.0
276.142181 268.0
276.198547 208.0
277.357513 188.0
277.974396 152.0
278.149506 200.0
278.439178 160.0
278.871124 164.0
279.240173 164.0
280.058319 140.0
280.990265 132.0
281.04245 176.0
281.526489 212.0
281.586578 140.0
281.690155 188.0
281.917358 228.0
282.308472 152.0
282.770172 228.0
282.800293 196.0
283.078186 152.0
283.631012 160.0
284.144104 152.0
284.674438 176.0
285.027161 160.0
285.198578 168.0
286.009216 192.0
286.301697 204.0
287.110992 216.0
287.303253 148.0
287.853424 140.0
288.15744 172.0
288.255432 148.0
288.769318 140.0
288.948608 140.0
289.002716 184.0
289.046722 156.0
289.113159 120.0
289.168549 188.0
289.476624 144.0
289.52066 188.0
290.109314 148.0
290.463989 204.0
291.264801 140.0
291.30481 144.0
291.355743 180.0
291.59021 144.0
292.212524 152.0
292.505219 352.0
292.917816 188.0
293.47168 104.0
293.546448 212.0
293.677399 224.0
294.069305 148.0
294.149719 188.0
294.18924 180.0
294.335876 152.0
294.38623 144.0
294.48291 144.0
294.580078 100.0
294.646881 212.0
294.725464 200.0
294.781372 128.0
294.970551 188.0
295.024353 324.0
295.070496 148.0
295.12027 112.0
295.183014 532.0
295.250885 188.0
295.418396 220.0
295.485077 172.0
295.548889 168.0
295.572876 132.0
295.61441 180.0
295.694305 160.0
295.757751 296.0
295.802795 224.0
295.87381 172.0
295.930389 376.0
295.966644 356.0
295.980164 460.0
296.075623 396.0
296.143951 169600.0
296.225922 124.0
296.252716 144.0
296.356201 152.0
296.369965 124.0
296.44104 104.0
296.517853 256.0
296.664215 212.0
296.706604 1600.0
296.754028 260.0
296.802185 236.0
296.829865 152.0
296.870483 108.0
296.956421 108.0
297.009369 296.0
297.146088 41884.0
297.201172 360.0
297.338318 148.0
297.368896 140.0
297.455231 184.0
297.747803 188.0
297.935883 148.0
298.093872 192.0
298.140411 8812.0
298.550446 116.0
298.601593 188.0
298.658722 228.0
298.796143 204.0
298.837677 96.0
298.902252 200.0
299.001923 168.0
299.053101 132.0
299.091675 208.0
299.14209 2048.0
299.244873 156.0
299.368561 100.0
299.778748 140.0
299.930847 200.0
299.964417 140.0
300.06958 172.0
300.139648 156.0
301.100464 192.0
301.170593 152.0
302.879639 104.0
303.111481 144.0
303.281311 144.0
304.311646 184.0
304.985626 156.0
305.634216 96.0
306.555298 184.0
307.711517 144.0
309.16391 140.0
309.195526 180.0
311.175446 972.0
311.688934 156.0
312.172455 132.0
315.378876 148.0
316.964417 208.0
317.421692 164.0
318.140076 172.0
318.198761 160.0
320.151337 116.0
321.157227 100.0
322.119843 152.0
327.046814 144.0
327.165619 172.0
328.17804 316.0
330.130585 504.0
331.139648 176.0
332.279633 160.0
334.252625 200.0
334.84967 216.0
338.069763 144.0
338.153961 144.0
338.930328 164.0
339.167969 160.0
340.06723 160.0
340.302155 176.0
340.779663 152.0
342.132538 132.0
346.782898 116.0
347.050842 164.0
347.157593 3372.0
347.207672 324.0
348.152832 552.0
349.155029 372.0
349.224426 140.0
350.057037 156.0
351.958832 156.0
355.117401 164.0
355.237457 164.0
355.729065 160.0
356.145874 156.0
357.151245 280.0
358.731049 244.0
359.100586 168.0
364.180328 140.0
365.167389 2344.0
365.858856 104.0
366.167084 380.0
367.169403 172.0
368.175446 188.0
370.861359 160.0
372.227173 192.0
372.503693 144.0
373.787872 200.0
374.164337 128.0
374.222565 116.0
375.199738 364.0
375.425079 180.0
376.214386 188.0
377.212189 128.0
377.444763 152.0
378.415985 168.0
379.481476 152.0
380.171967 148.0
380.389313 148.0
380.950287 212.0
381.166107 148.0
382.192688 1428.0
383.150482 152.0
383.196655 264.0
384.189819 164.0
384.226532 160.0
385.132202 152.0
385.198608 160.0
385.261139 176.0
386.145935 228.0
387.549957 152.0
389.200012 176.0
390.216339 132.0
391.146606 248.0
391.222778 196.0
391.923279 200.0
392.151794 244.0
392.234924 504.0
392.32135 192.0
393.141632 224.0
393.199219 196.0
393.231171 236.0
393.402313 192.0
393.87619 180.0
395.137299 180.0
395.513245 148.0
398.106262 160.0
399.16333 200.0
403.195404 136.0
404.311066 184.0
405.238617 160.0
406.999481 188.0
407.553802 152.0
407.703674 136.0
408.076324 148.0
408.177216 600.0
408.830658 108.0
408.953308 196.0
409.174957 440.0
409.500916 212.0
410.170105 340.0
410.239075 128.0
410.819031 160.0
411.028839 180.0
411.089386 168.0
411.171417 172.0
413.332153 184.0
418.010986 140.0
418.534302 148.0
419.163422 144.0
419.852386 232.0
420.222168 268.0
420.268463 196.0
421.044098 196.0
421.215637 148.0
421.276917 176.0
421.853149 180.0
422.270233 232.0
424.186523 160.0
424.69696 192.0
424.90271 108.0
425.468445 176.0
425.563599 192.0
425.822418 200.0
425.923737 188.0
425.9552 144.0
425.983948 324.0
426.013611 160.0
426.054657 380.0
426.100586 164.0
426.184296 53148.0
426.31546 136.0
426.355255 108.0
426.636169 180.0
426.861755 208.0
426.934448 176.0
427.038513 160.0
427.106567 128.0
427.186279 11956.0
427.876984 156.0
428.184601 4144.0
428.792664 184.0
428.837891 112.0
429.099792 160.0
429.181946 816.0
429.399902 168.0
429.50116 112.0
429.53653 188.0
429.917908 124.0
430.209198 340.0
435.426605 164.0
436.161896 412.0
436.193054 152.0
436.332489 160.0
437.161865 144.0
437.214355 184.0
439.176758 160.0
443.797943 156.0
446.443481 140.0
449.780457 196.0
455.57782 148.0
462.229279 152.0
463.23941 136.0
465.17807 160.0
466.157349 208.0
471.230377 272.0
472.20932 264.0
473.201324 136.0
476.054565 140.0
476.216461 144.0
486.187408 152.0
487.584015 180.0
487.922485 148.0
488.362244 160.0
489.234161 288.0
490.235962 388.0
491.225311 260.0
498.480743 124.0
504.249237 168.0
504.517456 144.0
507.176514 160.0
507.241516 1468.0
508.244141 516.0
508.30014 196.0
508.382996 172.0
508.773529 220.0
509.242401 232.0
510.264435 136.0
514.66272 200.0
515.150513 200.0
520.694763 172.0
521.618958 196.0
526.510803 168.0
533.144714 172.0
533.223633 1368.0
534.22345 240.0
535.159546 144.0
535.218689 248.0
537.708801 220.0
539.732239 196.0
547.337708 200.0
548.529602 112.0
549.710449 140.0
551.230164 2212.0
551.316895 168.0
552.234314 996.0
552.359558 144.0
552.790039 152.0
553.232178 596.0
554.264404 136.0
555.896973 152.0
559.987244 152.0
562.31073 120.0
563.322144 188.0
567.596069 180.0
589.325806 136.0
590.169556 140.0
590.304932 148.0
592.173035 140.0
604.101074 116.0
604.921204 148.0
606.318298 644.0
607.307983 304.0
608.305115 248.0
613.700806 152.0
614.213745 140.0
614.737549 176.0
618.255371 160.0
618.943481 156.0
620.305969 184.0
624.730713 140.0
628.647095 148.0
635.954224 160.0
643.778198 204.0
647.31311 148.0
649.172913 144.0
652.295471 176.0
653.653992 172.0
654.569702 156.0
658.093201 156.0
658.731628 156.0
661.974365 184.0
663.157837 208.0
665.625549 188.0
670.456116 176.0
675.924988 164.0
676.312134 200.0
677.330872 1144.0
677.473145 184.0
678.332031 436.0
679.330872 444.0
680.312744 260.0
683.787415 172.0
685.448669 204.0
688.035828 180.0
688.573669 160.0
696.792358 184.0
699.638 200.0
701.898376 168.0
702.504944 160.0
702.837341 212.0
703.311646 1680.0
703.449524 144.0
704.145325 120.0
704.313416 764.0
704.405945 108.0
705.301819 308.0
706.317139 128.0
706.599365 168.0
710.20166 160.0
710.3396 160.0
711.039978 156.0
711.480591 140.0
712.385559 124.0
713.347534 96.0
715.181641 128.0
715.761475 164.0
716.096252 160.0
716.224121 176.0
716.485168 152.0
716.676941 144.0
717.897644 168.0
718.198425 132.0
718.496277 144.0
718.585815 140.0
719.209595 108.0
719.269226 196.0
719.972168 100.0
720.011414 132.0
720.606689 96.0
720.690674 144.0
720.801697 220.0
720.904663 276.0
720.953003 216.0
721.085144 252.0
721.191528 168.0
721.320312 51988.0
721.512634 156.0
721.626587 212.0
721.758911 152.0
721.86792 168.0
721.925232 192.0
722.018066 228.0
722.124451 272.0
722.322266 19488.0
722.570374 140.0
722.650757 208.0
722.805481 104.0
722.89032 116.0
723.015686 128.0
723.117371 188.0
723.319275 9156.0
723.462769 172.0
723.510315 140.0
723.61676 196.0
723.679382 172.0
723.893677 116.0
724.322815 2796.0
724.555908 104.0
724.674683 116.0
724.758423 140.0
724.914124 140.0
725.314697 252.0
725.424927 152.0
725.552612 132.0
726.058777 180.0
726.183289 128.0
726.319092 244.0
726.666565 132.0
726.911621 140.0
726.995605 116.0
727.163025 108.0
727.221863 144.0
727.766602 124.0
728.79657 140.0
736.44751 112.0
747.673584 124.0
846.396362 140.0
907.929382 156.0
917.864075 144.0
929.187073 172.0
1040.660889 148.0
1089.925903 160.0
1095.097656 176.0
1200.175171 140.0
1201.920288 176.0
1235.906982 184.0
1256.896118 140.0
1264.684326 160.0
1272.851562 236.0
1281.230347 168.0
1291.946411 204.0
1310.232178 196.0
1323.457031 196.0
1335.402222 160.0
1336.042358 152.0
1336.842773 180.0
1341.85437 240.0
1343.356689 172.0
1358.441284 212.0
1376.34082 148.0
1378.002686 144.0
1380.264526 148.0
1385.104858 196.0
1388.722168 160.0
1392.477783 172.0
1394.610229 176.0
1437.563843 212.0
1454.335693 176.0
1471.601685 172.0
1477.754639 184.0
1495.720581 156.0
1499.926514 168.0
1504.277222 180.0
1505.288696 140.0
1519.631958 152.0
1521.098755 276.0
1522.13916 152.0
1523.917969 160.0
1524.53186 148.0
1547.109253 244.0
1552.425781 192.0
1558.886597 144.0
1561.34729 208.0
1566.786499 180.0
1567.543579 144.0
1582.076294 172.0
1582.297974 156.0
1585.807251 172.0
1598.562134 164.0
1600.026733 168.0
1602.033691 140.0
1608.852295 264.0
1612.199097 184.0
1619.816284 176.0
1621.138306 200.0
1622.557129 168.0
1624.594116 160.0
1634.39624 152.0
1640.13855 148.0
1646.270508 140.0
1652.5271 196.0
1654.866211 184.0
1656.494019 172.0
1663.622314 148.0
1666.08313 240.0
1668.285522 220.0
1678.414062 232.0
1678.944092 180.0
1680.387939 156.0
1683.318359 164.0
1684.298462 148.0
1684.902954 232.0
1686.422852 212.0
1698.451416 144.0
1701.906494 144.0
1702.210327 160.0
1716.256836 204.0
1717.559937 168.0
1721.108765 200.0
1726.05835 160.0
1727.0177 148.0
1729.963623 164.0
1733.657837 208.0
1742.304077 156.0
1751.854614 184.0
1759.811157 188.0
1766.990845 168.0
1767.953125 220.0
1768.832031 176.0
1770.263672 224.0
1773.615112 196.0
1776.894043 168.0
1780.881592 148.0
1792.373779 188.0
1793.966675 160.0
1801.950562 188.0
1802.043579 184.0
1803.226562 140.0
1807.065918 176.0
1809.994507 148.0
1817.309692 176.0
1818.480835 236.0
1822.463745 200.0
1824.104004 172.0
1827.25061 156.0
1829.335693 236.0
1829.897583 176.0
1836.357178 148.0
1838.03772 168.0
1841.153687 160.0
1841.589355 156.0
1843.007446 212.0
1845.854004 184.0
1848.197754 144.0
1851.322266 200.0
1856.86731 160.0
1857.484863 208.0
1858.190552 108.0
1864.113159 196.0
1866.030029 156.0
1874.870605 144.0
1881.193115 148.0
1885.321777 204.0
1885.598389 172.0
1885.684814 168.0
1886.592407 188.0
1890.796265 140.0
1892.614258 208.0
1894.61499 176.0
1895.091553 168.0
1895.403442 144.0
1896.928833 140.0
1902.00354 180.0
1904.130859 188.0
1912.220825 176.0
1914.7677 248.0
1914.924438 196.0
1915.612671 176.0
1916.588379 176.0
1917.486084 196.0
1917.834717 168.0
1919.65686 168.0
1920.084229 208.0
1922.059814 112.0
1927.146362 168.0
1927.880371 232.0
1928.640869 220.0
1929.139038 148.0
1934.799316 140.0
1936.822266 212.0
1937.102661 148.0
1940.099731 168.0
1942.95874 184.0
1946.408203 184.0
1946.838501 184.0
1949.737793 212.0
1950.994751 212.0
1956.898315 140.0
1958.435547 192.0
1963.736694 172.0
1966.163086 204.0
1966.931396 204.0
1967.610718 140.0
1969.191406 172.0
1971.408936 208.0
1975.980469 200.0
1979.202393 148.0
1981.115479 148.0
1991.520752 148.0
1991.840576 180.0
1994.044189 148.0
1994.328613 224.0
1998.446167 192.0
2001.855469 196.0
2002.505615 144.0
