>compound Ranolazine
>formula C24H33N3O4 
>ionization [M+H]+
>parentmass 428.255
#inchi InChI=1S/C24H33N3O4/c1-18-7-6-8-19(2)24(18)25-23(29)16-27-13-11-26(12-14-27)15-20(28)17-31-22-10-5-4-9-21(22)30-3/h4-10,20,28H,11-17H2,1-3H3,(H,25,29)
#inchikey XKLMZUWKNUAPSZ
#Ion_Source LC-ESI
#Instrument qTof
#Compound_Source Isolated
#PI Sirenas
#Data_Collector Ed Esquenazi 
#Scan -1
#Precursor_MZ 428.255
#ExactMass 0.0
#Charge 1
#CAS_Number N/A
#Pubmed_ID N/A
#Smiles N/A
#INCHI_AUX N/A
#Library_Class 3
#SpectrumID CCMSLIB00000006047
#IonMode Positive
#UpdateWorkflowName UPDATE-SINGLE-ANNOTATED-BRONZE
#LibraryQualityString Bronze
#TaskID d19310cd93df49b68e9fcbec27720eb5
##Scan# 15
#SpectrumFile Ranolazine.mgf
#LibraryName fda_library.mgf
#MQScore -1
#Organism fda_library
#TIC_Query 0
#RT_Query -1
#MZErrorPPM -1
#SharedPeaks 0
#MassDiff 0
#LibMZ -1
#SpecMZ 428.255
#SpecCharge 0
#internalFilename spec-00000.mgf

>collision 10
100.071304 36.025421
100.100754 1.875
101.108437 62.994652
107.048515 55.572338
111.093239 92.930351
112.692421 6.880952
112.814384 14.16964
113.106308 79.752167
113.327347 2.041667
113.339973 8.380952
113.468506 16.148809
114.112724 156.830307
121.050835 55.947979
124.095207 53.209221
127.121239 87.535027
132.080475 39.795979
134.094437 66.523811
136.048782 23.555559
137.104568 53.65696
137.227615 12.89815
147.04567 34.41061
149.059616 12.64198
153.065964 6.333333
153.113205 9.829301
155.118759 121.981003
155.490128 5.375
155.607224 7.880051
162.927658 25.63439
163.22316 4.002451
169.922897 71.5467
174.123932 8.342593
179.067719 13.91435
217.128693 39.73373
224.127609 13.90645
228.440521 46.550388
245.140167 16.2288
248.15094 62.163422
261.369446 1.675
264.142029 17.410259
279.169495 26.272289
279.799225 7.782407
1205.876709 26.758329
