>compound 3-[1-[4-(4-fluorophenyl)-4-oxobutyl]-3,6-dihydro-2H-pyridin-4-yl]-1H-benzimidazol-2-one
>formula C22H22FN3O2
>ionization [M+H]+
>parentmass 380.17688161609055
#inchi InChI=1S/C22H22FN3O2/c23-17-9-7-16(8-10-17)21(27)6-3-13-25-14-11-18(12-15-25)26-20-5-2-1-4-19(20)24-22(26)28/h1-2,4-5,7-11H,3,6,12-15H2,(H,24,28)
#inchikey RMEDXOLNCUSCGS
#Ion_Source LC-ESI
#Instrument qTof
#Compound_Source Commercial
#PI Dorrestein
#Data_Collector Garg_Neha
#Scan -1
#Precursor_MZ 380.177
#ExactMass 379.17
#Charge 1
#CAS_Number N/A
#Pubmed_ID N/A
#Smiles Oc1nc2ccccc2n1C3=CCN(CCCC(=O)c4ccc(F)cc4)CC3
#INCHI_AUX N/A
#Library_Class 1
#SpectrumID CCMSLIB00000079127
#IonMode Positive
#UpdateWorkflowName UPDATE-SINGLE-ANNOTATED-GOLD
#LibraryQualityString Gold
#TaskID 278b19f5865741e282cec7349aa7e7a1
##Scan# 1099
#SpectrumFile NCP003512_E2_F11_BD6_01_15730.mzXML
#LibraryName NIHcollectionI_05062014.mgf
#MQScore -1
#Organism NIHcollectionI_05062014
#TIC_Query 0
#RT_Query -1
#MZErrorPPM -1
#SharedPeaks 0
#MassDiff 0
#LibMZ -1
#SpecMZ 380.177
#SpecCharge 0
#internalFilename spec-00000.mgf

>collision 10
44.992493 172.0
45.019199 140.0
45.345631 168.0
45.583168 192.0
46.08712 172.0
46.174988 180.0
46.253464 184.0
46.379433 152.0
46.435585 184.0
46.460796 184.0
46.589149 140.0
46.619659 216.0
46.642765 204.0
46.987297 144.0
47.072758 144.0
47.119728 164.0
47.313931 204.0
47.386517 336.0
47.418034 180.0
47.662304 160.0
47.832142 120.0
47.903069 328.0
47.937515 144.0
48.019096 136.0
48.169304 184.0
48.578461 248.0
48.701202 180.0
48.738712 140.0
48.870804 168.0
49.005859 168.0
49.100651 164.0
49.127151 160.0
49.180176 160.0
49.201748 168.0
49.42614 144.0
49.655884 156.0
49.722534 292.0
49.807468 172.0
49.836971 180.0
49.852428 176.0
49.953659 160.0
50.036304 176.0
50.21283 152.0
50.548229 144.0
50.56179 140.0
50.754738 116.0
50.947468 172.0
50.981567 160.0
51.027054 184.0
51.347446 184.0
51.444473 208.0
51.490166 152.0
51.71463 256.0
51.731808 216.0
51.905167 184.0
52.043633 156.0
52.261387 144.0
52.341393 192.0
52.450047 144.0
52.650593 148.0
52.725719 140.0
52.906525 164.0
53.038345 156.0
53.09634 188.0
53.235855 148.0
53.411518 224.0
53.428974 152.0
53.439159 216.0
53.835636 168.0
54.16032 152.0
54.192551 200.0
54.229187 220.0
54.277145 196.0
54.38319 184.0
54.40472 192.0
54.513897 160.0
54.740437 200.0
54.769001 172.0
54.799355 168.0
54.881893 192.0
55.189011 140.0
55.298477 164.0
55.436211 164.0
55.708523 120.0
55.777565 180.0
55.902618 148.0
56.02161 452.0
56.073761 220.0
56.202007 360.0
56.339363 140.0
56.466747 256.0
56.502747 188.0
56.681831 116.0
56.935509 144.0
57.617851 168.0
57.823502 184.0
57.83712 180.0
57.870426 152.0
57.943127 148.0
58.097759 208.0
58.144329 168.0
58.799221 184.0
59.238049 160.0
59.454239 204.0
59.790802 204.0
60.080482 200.0
60.166237 120.0
60.191608 160.0
60.239487 180.0
60.377048 140.0
60.477612 172.0
60.499283 164.0
60.544186 224.0
60.60305 144.0
60.727898 320.0
60.967175 152.0
61.090538 140.0
61.137402 204.0
61.246201 192.0
61.458218 148.0
61.715828 116.0
61.770676 168.0
61.840328 136.0
61.96793 172.0
62.022778 152.0
62.170204 156.0
62.205868 156.0
62.234798 212.0
62.619839 176.0
62.736439 148.0
63.124844 156.0
63.316544 176.0
63.34642 176.0
63.687458 140.0
64.166115 96.0
64.182388 156.0
64.338745 140.0
64.536858 160.0
64.687241 160.0
64.857033 152.0
64.951637 140.0
65.084656 176.0
65.14843 108.0
65.50621 148.0
65.535202 144.0
65.709335 148.0
65.756126 164.0
65.797272 148.0
65.827164 160.0
66.006523 188.0
66.100349 144.0
66.111671 172.0
66.312698 128.0
66.421623 184.0
66.523361 188.0
66.7183 168.0
66.858185 184.0
66.991699 144.0
67.153069 164.0
67.283607 160.0
67.413422 184.0
67.44043 140.0
67.53624 240.0
67.581062 220.0
67.626884 164.0
67.639977 164.0
67.741508 268.0
67.803764 184.0
67.856224 152.0
67.925095 144.0
68.46946 160.0
68.567284 208.0
68.805511 140.0
68.942604 180.0
68.970703 160.0
69.207275 184.0
69.346428 172.0
69.382889 164.0
69.419373 160.0
69.527199 248.0
69.774696 200.0
69.979332 160.0
70.015968 216.0
70.252655 176.0
70.293015 188.0
70.316055 424.0
70.483055 176.0
70.631844 220.0
70.690399 204.0
70.727219 148.0
70.973488 180.0
71.07473 144.0
71.346214 172.0
71.485817 144.0
71.72937 236.0
71.863251 160.0
72.111488 148.0
72.307678 140.0
72.321213 176.0
72.422897 152.0
72.626862 184.0
72.663521 180.0
72.782333 172.0
73.188713 168.0
73.427284 164.0
73.875519 228.0
74.147041 152.0
74.191612 164.0
74.364861 144.0
74.576118 144.0
74.60965 212.0
74.634567 276.0
74.707733 152.0
74.729164 168.0
74.856537 152.0
74.884094 144.0
74.92543 176.0
75.144386 168.0
75.15715 152.0
75.236694 140.0
75.432785 160.0
75.534813 172.0
75.595367 140.0
75.758118 216.0
75.92675 276.0
76.098038 192.0
76.14492 208.0
76.346519 176.0
76.363098 240.0
76.4683 172.0
76.513557 156.0
76.612823 192.0
76.81678 164.0
76.905769 188.0
76.933296 208.0
77.386078 180.0
77.459183 184.0
77.487167 152.0
77.628311 196.0
77.807281 176.0
77.917923 184.0
78.084091 184.0
78.100746 140.0
78.113052 156.0
78.167595 184.0
78.213356 152.0
78.57589 192.0
78.791061 172.0
79.037514 164.0
79.784203 176.0
80.116081 220.0
80.168663 140.0
80.191826 172.0
80.320595 204.0
80.391571 148.0
80.529037 188.0
80.684502 140.0
80.743507 184.0
80.781067 152.0
80.80542 124.0
80.894203 108.0
81.090836 164.0
81.130264 220.0
81.368874 152.0
81.475647 132.0
81.776039 148.0
81.922775 184.0
81.989441 160.0
82.095802 148.0
82.195015 172.0
82.214569 192.0
82.270821 180.0
82.308792 128.0
82.706467 176.0
82.795479 144.0
82.883942 144.0
82.974564 144.0
83.061607 148.0
83.279419 216.0
83.448425 152.0
83.524803 164.0
83.742508 144.0
83.879875 172.0
83.976517 176.0
84.080505 152.0
84.140739 208.0
84.169952 176.0
84.228394 140.0
84.310616 208.0
84.484314 188.0
84.513588 164.0
84.865257 240.0
85.038162 156.0
85.056046 180.0
85.073181 192.0
85.265427 176.0
85.357346 156.0
85.434593 164.0
85.537643 200.0
85.560753 188.0
85.589195 140.0
85.756836 208.0
85.865608 180.0
85.909882 192.0
85.992912 176.0
86.096298 192.0
86.118462 144.0
86.138779 156.0
86.154778 176.0
86.323601 164.0
86.884628 160.0
87.012871 140.0
87.355209 112.0
87.405045 140.0
87.481346 180.0
87.513489 180.0
87.535339 140.0
87.721649 208.0
87.915627 176.0
88.010826 184.0
88.105988 160.0
88.171478 144.0
88.480804 184.0
88.507668 156.0
88.911224 280.0
88.96077 152.0
89.005089 176.0
89.034325 204.0
89.439362 160.0
89.495712 184.0
89.641975 144.0
89.737007 244.0
89.9785 140.0
90.26725 136.0
90.41703 176.0
90.501198 144.0
90.583649 156.0
90.655647 160.0
90.704926 144.0
90.723877 164.0
90.945816 168.0
91.016052 268.0
91.055237 8916.0
91.091095 156.0
91.249756 172.0
91.651352 156.0
91.716583 140.0
91.876328 196.0
91.977463 240.0
92.05677 1112.0
92.143608 152.0
92.209229 200.0
92.266037 188.0
92.418922 224.0
92.675797 124.0
92.731064 168.0
92.855682 200.0
92.8787 176.0
93.024536 148.0
93.118462 156.0
93.23909 96.0
93.364616 164.0
93.378075 168.0
93.62249 192.0
93.751564 140.0
94.067871 612.0
94.181801 164.0
94.218498 200.0
94.233955 140.0
94.253281 184.0
94.431656 148.0
94.583984 192.0
94.676918 160.0
94.738899 144.0
94.91333 180.0
95.029854 572.0
95.066574 204.0
95.379257 148.0
95.643799 220.0
95.704147 172.0
95.731407 144.0
95.86351 152.0
95.957428 156.0
96.080872 808.0
96.349709 156.0
96.615585 192.0
97.050377 144.0
97.079788 176.0
97.181786 176.0
97.323799 148.0
97.344704 180.0
97.547073 180.0
97.62178 148.0
97.658211 176.0
97.853966 144.0
97.867744 244.0
98.059212 196.0
98.097008 216.0
98.143593 140.0
98.165283 148.0
98.273773 160.0
98.485001 140.0
98.518578 144.0
98.59761 188.0
98.916054 184.0
99.076454 160.0
99.131935 168.0
99.149765 168.0
99.288544 152.0
99.780014 188.0
99.923958 108.0
100.155098 172.0
100.252724 236.0
100.408218 140.0
100.527916 144.0
100.549866 192.0
100.691452 144.0
100.75354 144.0
100.971413 152.0
101.108551 124.0
101.141212 120.0
101.160912 152.0
101.343742 208.0
101.399902 152.0
101.813774 124.0
101.933662 140.0
101.978134 152.0
102.080399 172.0
102.418861 160.0
102.448723 196.0
102.47802 180.0
102.999359 136.0
103.108528 152.0
103.150536 112.0
103.181297 164.0
103.201515 164.0
103.52932 140.0
103.69342 196.0
104.170242 144.0
104.202744 156.0
104.306389 144.0
104.349075 140.0
104.556557 188.0
104.664444 152.0
104.762207 180.0
104.817215 164.0
104.857971 164.0
104.929314 164.0
105.071198 632.0
105.332481 144.0
105.509117 168.0
105.824249 132.0
105.994194 144.0
106.043373 152.0
106.070297 268.0
106.246376 196.0
106.342819 148.0
106.702301 212.0
106.788475 176.0
106.84626 144.0
107.083893 172.0
107.150955 180.0
107.257996 140.0
107.280792 160.0
107.371513 152.0
107.473526 176.0
107.5345 176.0
108.22081 184.0
108.754486 100.0
109.023567 140.0
109.048744 192.0
109.064201 144.0
109.329262 148.0
109.357277 136.0
109.403778 160.0
109.456245 208.0
109.482491 232.0
109.541634 156.0
109.579132 272.0
109.685417 164.0
109.742973 124.0
109.887703 148.0
109.923172 180.0
109.939865 180.0
109.982597 168.0
110.035881 164.0
110.211327 140.0
110.587738 176.0
110.740585 184.0
110.92643 192.0
111.088531 180.0
111.178757 180.0
111.28791 156.0
111.319405 160.0
111.369804 164.0
111.439133 164.0
111.516884 156.0
111.757515 168.0
111.84079 152.0
112.061905 188.0
112.272697 152.0
112.352844 148.0
112.573296 120.0
112.61882 156.0
112.794189 224.0
112.912598 164.0
113.194046 228.0
113.475296 232.0
113.54583 160.0
113.664627 196.0
113.707069 148.0
113.80896 144.0
114.027763 148.0
114.101227 224.0
114.170204 140.0
114.189346 176.0
114.227631 144.0
114.285072 164.0
114.3255 156.0
114.423409 152.0
114.495811 152.0
114.549057 240.0
114.598053 224.0
114.713135 188.0
114.739624 240.0
114.799698 156.0
114.898666 172.0
115.076927 180.0
115.186859 140.0
115.265907 200.0
115.392014 172.0
115.697273 128.0
115.740768 152.0
115.791039 176.0
116.082214 196.0
116.167259 156.0
116.323906 144.0
116.54081 160.0
116.755768 224.0
116.865479 164.0
117.093651 160.0
117.373802 212.0
117.43203 152.0
117.554993 164.0
117.765854 188.0
117.848656 164.0
118.025894 140.0
118.060493 176.0
118.114563 168.0
118.4804 144.0
118.83474 152.0
119.380783 160.0
119.566071 152.0
119.990829 152.0
120.080399 1124.0
120.155853 144.0
120.375092 140.0
120.451286 196.0
120.49308 152.0
121.08683 168.0
121.282761 168.0
121.583237 164.0
121.736908 272.0
121.796204 168.0
121.842331 172.0
122.041374 128.0
122.136902 184.0
122.176498 152.0
122.44503 164.0
122.68808 184.0
122.796272 156.0
122.947685 164.0
122.971642 188.0
123.024773 44228.0
123.158974 200.0
123.204857 144.0
123.229927 152.0
123.262466 124.0
123.309578 120.0
123.384621 176.0
123.522133 216.0
123.566383 180.0
123.891815 148.0
124.028648 4516.0
124.077972 188.0
124.116028 180.0
124.175545 220.0
124.211029 200.0
124.588402 148.0
124.639503 224.0
124.730621 160.0
124.833015 164.0
124.986374 140.0
125.035583 288.0
125.166672 140.0
125.445168 152.0
125.623558 156.0
125.840034 184.0
125.922844 144.0
125.9785 180.0
126.094688 144.0
126.311569 168.0
126.497299 172.0
126.571175 156.0
126.59581 168.0
126.631638 168.0
126.763817 252.0
126.831055 176.0
127.073242 152.0
127.23259 164.0
127.250549 184.0
127.601028 172.0
127.693222 184.0
127.71347 184.0
127.7967 176.0
127.873215 168.0
128.073593 140.0
128.238068 160.0
129.132141 144.0
129.161545 184.0
129.304092 208.0
129.324463 156.0
129.381409 152.0
129.403687 140.0
129.54184 156.0
129.695923 160.0
129.779388 152.0
129.904541 172.0
129.929489 176.0
130.050995 136.0
130.07547 256.0
130.102661 156.0
130.149643 232.0
130.377045 188.0
130.417709 240.0
130.531372 192.0
130.608704 144.0
130.658752 100.0
130.837616 168.0
130.961502 200.0
131.052917 180.0
131.264832 116.0
132.013596 152.0
132.053986 152.0
132.169144 180.0
132.2435 204.0
132.351273 140.0
132.425537 204.0
132.741791 140.0
132.762436 148.0
132.848526 132.0
132.85817 108.0
132.865646 212.0
133.283508 196.0
133.948395 184.0
134.046341 156.0
134.070496 184.0
134.094498 604.0
134.229553 164.0
134.510727 152.0
134.629776 156.0
134.769684 156.0
134.907196 284.0
135.0466 152.0
135.084045 192.0
135.145462 156.0
135.322464 148.0
135.347931 148.0
135.378036 168.0
135.408142 184.0
135.581894 196.0
135.706772 128.0
135.730255 160.0
136.010971 184.0
136.053909 496.0
136.075974 264.0
136.576996 152.0
136.849289 176.0
137.062149 156.0
137.694336 232.0
138.067627 164.0
138.161819 144.0
138.379471 208.0
138.407562 148.0
139.008621 172.0
139.078964 236.0
139.132034 164.0
139.244736 156.0
139.854233 192.0
140.003967 120.0
140.112717 188.0
140.140656 168.0
141.069412 120.0
141.468246 168.0
141.514999 172.0
141.632935 148.0
141.754837 172.0
141.799866 152.0
141.913651 176.0
141.944473 160.0
142.233902 224.0
142.271881 164.0
142.459488 180.0
142.49585 144.0
142.543793 176.0
142.625824 152.0
142.648804 144.0
142.875519 140.0
142.975449 256.0
143.058762 140.0
143.168274 284.0
143.804825 144.0
143.998215 160.0
144.054688 156.0
144.080597 404.0
144.117661 164.0
144.15712 196.0
144.456009 156.0
144.519348 152.0
144.57431 148.0
144.627029 144.0
144.692932 116.0
144.818573 156.0
144.945541 164.0
145.071487 272.0
145.089813 408.0
145.507538 116.0
145.533203 156.0
146.074448 168.0
146.097885 332.0
146.455383 156.0
146.646271 172.0
146.86882 212.0
147.061234 300.0
147.366104 176.0
148.050659 200.0
148.140549 180.0
148.59227 148.0
148.785339 160.0
148.818939 176.0
148.90918 144.0
149.084595 188.0
149.212219 224.0
149.244843 124.0
149.405045 156.0
149.619202 156.0
149.692245 252.0
149.928467 140.0
149.975662 144.0
150.006592 164.0
150.088348 168.0
150.374344 96.0
150.450516 144.0
150.484695 220.0
150.769028 120.0
150.984802 96.0
151.022308 216.0
151.075851 7272.0
151.210693 168.0
151.475128 148.0
151.650314 228.0
151.722641 160.0
151.846497 220.0
151.971237 132.0
152.078278 1344.0
152.127411 208.0
152.161285 176.0
152.227356 144.0
152.48111 188.0
152.608932 164.0
153.03212 196.0
153.049362 144.0
153.090576 152.0
153.501312 172.0
153.919769 204.0
153.996323 148.0
154.159378 172.0
154.25824 156.0
154.282959 192.0
154.337341 160.0
154.426376 152.0
154.44368 180.0
154.691132 208.0
154.748062 144.0
154.921432 204.0
155.0504 156.0
155.134537 240.0
155.207596 96.0
155.251633 196.0
155.33429 232.0
155.391632 128.0
155.45697 192.0
155.514053 148.0
155.566177 144.0
155.685364 148.0
155.836884 252.0
155.85675 160.0
155.91571 188.0
156.095383 156.0
156.215195 136.0
156.670319 184.0
156.789383 148.0
156.876389 116.0
156.961929 144.0
157.006805 164.0
157.036743 184.0
157.10408 192.0
157.171448 160.0
157.338669 140.0
157.760864 156.0
157.983429 144.0
158.045975 168.0
158.069275 228.0
158.32132 152.0
158.859085 204.0
159.064148 220.0
159.086304 120.0
159.128204 172.0
159.176437 152.0
159.472885 148.0
159.51561 180.0
159.61618 152.0
159.749466 180.0
159.801224 160.0
159.862686 212.0
160.013443 148.0
160.056107 200.0
160.085602 152.0
160.114105 180.0
160.179916 200.0
160.250458 140.0
160.561996 156.0
160.817841 172.0
161.022354 164.0
161.05629 364.0
161.078171 148.0
161.626526 168.0
161.808762 180.0
161.846741 164.0
161.894852 152.0
162.003754 144.0
162.073532 196.0
162.619354 160.0
162.698608 168.0
162.88652 168.0
162.911926 148.0
163.009903 160.0
163.031342 152.0
163.072189 292.0
163.298294 172.0
163.390137 256.0
163.430573 168.0
163.863403 180.0
163.909256 168.0
163.950623 228.0
164.026367 160.0
164.1297 108.0
164.197327 164.0
164.217728 152.0
164.33252 296.0
164.378448 140.0
164.592804 184.0
164.623428 232.0
164.677597 176.0
164.868744 140.0
164.899414 144.0
164.925613 160.0
164.97168 176.0
165.007629 292.0
165.017288 364.0
165.072571 256056.0
165.152283 200.0
165.185425 160.0
165.235107 128.0
165.294083 216.0
165.324142 204.0
165.35202 180.0
165.408249 136.0
165.452957 208.0
165.491821 948.0
165.53801 104.0
165.624283 120.0
165.659607 200.0
165.686295 148.0
165.740128 144.0
165.844894 120.0
165.927399 172.0
166.036453 188.0
166.075592 31428.0
166.151901 120.0
166.225876 124.0
166.257523 108.0
166.481918 360.0
166.787613 156.0
166.842377 140.0
166.888382 112.0
166.940094 156.0
166.987625 372.0
167.027328 200.0
167.07753 1876.0
167.108612 196.0
167.167969 184.0
167.202179 132.0
167.254272 132.0
167.292633 268.0
167.321442 140.0
167.360931 248.0
167.426102 160.0
167.502594 96.0
167.555252 152.0
167.63298 156.0
168.078247 176.0
168.129364 120.0
168.158813 144.0
168.182983 112.0
168.369415 144.0
169.066208 116.0
169.15242 164.0
169.508575 204.0
169.671875 140.0
169.711243 148.0
169.731506 188.0
169.855988 144.0
169.983109 164.0
170.186981 228.0
170.696396 164.0
170.997971 124.0
171.056915 172.0
171.08783 200.0
171.122864 144.0
171.24028 176.0
171.319565 156.0
171.527969 180.0
171.783508 240.0
171.835678 164.0
172.065521 380.0
172.112076 3488.0
172.15152 164.0
172.391846 148.0
172.718658 152.0
173.069824 308.0
173.112671 708.0
173.268387 140.0
173.357468 156.0
173.714584 96.0
173.803238 152.0
173.826859 164.0
173.881744 140.0
174.06897 948.0
174.14032 128.0
174.35994 160.0
174.909637 208.0
175.072815 384.0
175.867798 136.0
175.90593 104.0
176.083557 496.0
176.262573 160.0
176.37886 184.0
176.503113 152.0
176.597427 168.0
176.834335 172.0
176.905258 160.0
177.052963 176.0
177.091202 724.0
177.162125 160.0
177.297623 260.0
177.421829 152.0
177.565018 144.0
177.611938 104.0
177.680054 108.0
177.822372 184.0
177.867493 140.0
177.907303 144.0
178.062973 136.0
178.602646 248.0
178.631592 220.0
178.728546 176.0
178.824341 144.0
179.071365 500.0
179.125229 148.0
179.397034 168.0
179.487122 180.0
179.525101 120.0
179.549011 156.0
179.861633 164.0
179.989319 168.0
180.07341 164.0
180.165588 188.0
180.208328 168.0
180.700607 160.0
180.821701 160.0
180.927765 152.0
181.011353 128.0
181.103989 236.0
181.130569 132.0
182.096863 232.0
182.123718 240.0
182.149536 144.0
182.217743 160.0
182.540283 172.0
182.666687 304.0
182.752777 200.0
183.244247 112.0
183.495407 224.0
183.617477 144.0
183.676804 144.0
184.092087 120.0
184.16806 168.0
184.216675 164.0
184.322052 164.0
184.380173 148.0
184.456543 360.0
184.998199 176.0
185.031662 176.0
185.071289 144.0
185.094086 308.0
185.115875 164.0
185.363831 148.0
185.513519 140.0
185.550079 128.0
185.718979 212.0
185.789505 152.0
186.060883 144.0
186.103348 312.0
186.125244 848.0
186.163437 104.0
186.199371 176.0
186.299866 148.0
186.577057 172.0
186.598801 140.0
186.876221 144.0
186.919754 160.0
187.086517 8000.0
187.130905 208.0
187.398163 176.0
187.516968 160.0
187.77243 144.0
187.808807 176.0
188.084564 1100.0
188.144196 664.0
188.445938 180.0
188.586029 184.0
188.626282 160.0
188.676239 192.0
189.092102 4340.0
189.148605 224.0
189.556381 176.0
189.58223 180.0
189.839905 148.0
189.944122 160.0
190.029175 232.0
190.050415 160.0
190.096283 860.0
190.245972 176.0
190.350311 140.0
190.416214 176.0
190.455475 136.0
190.490372 168.0
190.880646 148.0
191.040161 168.0
191.071411 712.0
191.105927 280.0
191.322876 200.0
191.383118 124.0
191.495987 160.0
191.789139 148.0
192.076645 1324.0
192.148849 136.0
192.384964 304.0
192.923996 128.0
193.050842 156.0
193.080734 588.0
193.287888 132.0
193.329559 180.0
193.370773 148.0
193.39328 208.0
193.497833 156.0
193.520523 124.0
193.625076 104.0
193.677597 156.0
193.751648 164.0
193.781586 164.0
193.812469 108.0
193.833099 340.0
193.869705 204.0
193.899261 120.0
193.970245 236.0
194.005936 148.0
194.016891 160.0
194.027878 204.0
194.048645 660.0
194.068573 888.0
194.099533 208756.0
194.255737 144.0
194.283722 160.0
194.318649 96.0
194.374374 128.0
194.406113 380.0
194.523819 544.0
194.555786 6100.0
194.589935 636.0
194.640747 128.0
194.660538 184.0
194.703796 112.0
194.774643 212.0
194.812302 216.0
194.836533 172.0
194.910431 180.0
195.008347 156.0
195.101593 42256.0
195.280579 136.0
195.396362 148.0
195.421494 128.0
195.439438 192.0
195.596268 104.0
195.761093 212.0
195.828583 116.0
195.90419 96.0
195.935394 104.0
196.019302 124.0
196.103928 2948.0
196.164551 224.0
196.230408 212.0
196.2798 104.0
196.3685 148.0
196.396225 116.0
196.430313 256.0
196.488251 356.0
196.508636 232.0
196.563141 152.0
196.603561 140.0
196.645828 140.0
196.675827 156.0
196.721756 224.0
196.742859 280.0
196.806213 136.0
197.00293 128.0
197.09668 596.0
197.388779 260.0
197.464386 148.0
197.51944 172.0
197.594208 108.0
198.069977 136.0
198.103973 488.0
198.573456 164.0
198.872498 116.0
199.089172 444.0
199.09491 224.0
200.006393 140.0
200.031723 148.0
200.086578 168.0
200.118103 240.0
201.092773 1232.0
201.14798 160.0
201.50946 180.0
201.594833 160.0
201.936295 300.0
202.057938 176.0
202.096542 764.0
202.964462 112.0
203.003967 152.0
203.069611 484.0
203.107742 920.0
203.480652 144.0
203.672928 152.0
203.869781 140.0
203.905777 132.0
204.080185 208.0
204.116196 352.0
204.447067 140.0
204.966293 144.0
205.005234 140.0
205.042572 272.0
205.085831 1752.0
205.126907 368.0
206.085968 432.0
206.121109 160.0
206.190445 244.0
206.515884 116.0
207.098923 228.0
207.170975 396.0
207.365829 204.0
207.436234 180.0
207.576385 104.0
207.861938 156.0
208.120285 184.0
208.503021 156.0
208.828979 116.0
208.906952 160.0
208.942261 140.0
209.098328 620.0
209.350983 148.0
209.964813 188.0
210.096771 96.0
210.192703 168.0
210.455368 152.0
210.505249 148.0
210.544128 152.0
210.630569 152.0
210.79332 140.0
211.07431 136.0
211.110794 360.0
211.136078 312.0
212.080353 384.0
212.11824 1404.0
213.090134 312.0
213.12587 340.0
213.372009 144.0
213.515411 152.0
214.047958 168.0
214.09845 384.0
214.14325 160.0
214.380035 180.0
214.505356 160.0
214.736908 164.0
215.105865 808.0
215.412872 168.0
215.713852 220.0
216.111984 1092.0
217.086258 252.0
217.121353 1476.0
217.206116 136.0
217.397949 144.0
217.90004 148.0
218.017578 148.0
218.089844 300.0
218.125992 288.0
218.202759 144.0
218.911865 148.0
219.101181 900.0
220.10907 288.0
220.141541 188.0
220.513779 156.0
220.634979 176.0
220.74437 144.0
221.094238 164.0
221.256241 236.0
221.622818 176.0
221.795364 160.0
222.103226 548.0
222.258011 140.0
222.349792 112.0
222.391556 152.0
222.629059 144.0
222.839951 164.0
222.869659 152.0
222.958817 176.0
223.077698 160.0
223.11026 388.0
223.461334 140.0
224.120865 800.0
224.685806 160.0
224.766373 188.0
225.094467 100.0
225.127029 144.0
225.693924 156.0
226.099976 768.0
226.272751 140.0
226.644135 204.0
227.107132 740.0
227.940399 336.0
228.112854 964.0
228.942215 116.0
229.029449 160.0
229.084549 384.0
229.119492 1136.0
229.568924 152.0
230.09201 328.0
230.136658 384.0
230.220749 176.0
231.018311 164.0
231.102127 296.0
231.138901 1104.0
231.294037 180.0
231.488647 172.0
232.140854 336.0
232.627792 140.0
233.117813 1320.0
233.152466 204.0
233.180588 140.0
234.119736 300.0
234.156143 172.0
235.132797 152.0
235.306778 192.0
236.514282 168.0
237.083939 172.0
237.113831 460.0
237.540771 144.0
238.102859 304.0
238.243744 144.0
238.698624 352.0
238.732452 152.0
239.111282 324.0
240.113556 1068.0
240.161453 196.0
241.086746 248.0
241.123245 2080.0
241.171097 168.0
241.639084 132.0
242.09407 328.0
242.122421 1060.0
242.192154 144.0
242.252777 112.0
242.300583 148.0
242.328461 188.0
242.759979 128.0
242.912567 116.0
243.100021 436.0
243.138672 17424.0
243.362732 136.0
243.407852 368.0
244.112137 144.0
244.14122 2676.0
244.947311 152.0
245.056351 152.0
245.118576 956.0
245.145538 760.0
246.083588 100.0
246.127808 980.0
247.130539 132.0
247.429962 196.0
247.53508 188.0
247.57399 144.0
247.780716 148.0
248.344955 160.0
249.065445 96.0
249.472229 160.0
249.994339 172.0
250.302826 160.0
250.548492 152.0
250.607986 104.0
251.178955 188.0
251.459778 148.0
251.990265 144.0
252.279617 124.0
252.787079 152.0
253.121368 868.0
253.47226 156.0
253.812134 184.0
254.123581 492.0
255.139679 1368.0
255.795074 120.0
255.872223 148.0
256.137665 500.0
256.273529 184.0
256.620697 164.0
256.904755 152.0
257.134979 336.0
257.149994 252.0
257.308411 152.0
257.331604 152.0
257.399475 148.0
257.490692 128.0
258.131134 152.0
258.245209 148.0
258.481384 128.0
258.796753 140.0
259.076721 164.0
259.134369 1356.0
259.240479 204.0
259.270844 140.0
259.434296 196.0
259.700439 144.0
260.134155 304.0
260.166229 248.0
260.765015 112.0
260.821228 120.0
261.145111 500.0
261.194 148.0
261.300171 148.0
261.602692 160.0
261.679932 160.0
262.188873 196.0
262.616394 152.0
262.903076 104.0
263.03421 176.0
263.221161 148.0
263.337433 160.0
263.447235 152.0
264.378418 180.0
264.958282 144.0
266.460114 140.0
267.139557 148.0
267.810089 148.0
267.966461 244.0
268.057678 180.0
268.137848 268.0
268.243439 156.0
268.765259 184.0
269.072052 144.0
269.709045 140.0
269.895477 176.0
270.008698 172.0
270.148285 2844.0
270.199554 172.0
270.330444 156.0
271.138947 764.0
271.68689 196.0
271.860138 252.0
271.883759 176.0
272.13446 336.0
272.160553 472.0
272.391022 112.0
273.009094 196.0
273.148773 3752.0
273.331573 96.0
273.642334 152.0
274.148956 1192.0
274.690308 164.0
274.7771 296.0
275.150696 140.0
275.60965 128.0
276.170074 148.0
276.927032 172.0
277.293793 172.0
277.484741 180.0
279.135345 124.0
279.337799 156.0
279.50415 192.0
280.136719 140.0
280.200012 164.0
280.613251 148.0
280.696625 144.0
280.923401 168.0
281.190338 140.0
282.582306 164.0
283.343781 204.0
283.836456 144.0
284.129944 112.0
284.836578 148.0
284.886963 248.0
285.115417 152.0
285.391083 160.0
286.13858 528.0
286.306335 164.0
286.346741 192.0
286.515167 140.0
286.801605 208.0
286.882507 280.0
287.142426 180.0
287.479492 140.0
288.159149 10472.0
288.24939 188.0
288.594177 216.0
288.674957 120.0
288.797058 176.0
289.162964 2648.0
289.203094 160.0
290.164673 452.0
290.755341 152.0
291.108398 172.0
291.173553 172.0
291.964752 148.0
292.01236 180.0
292.238129 120.0
292.32196 140.0
292.683105 124.0
293.25119 120.0
293.310577 140.0
293.350525 156.0
293.431213 196.0
294.415039 140.0
294.783966 152.0
294.855743 192.0
295.138428 104.0
295.467804 148.0
295.813446 176.0
296.03598 172.0
296.111328 172.0
296.368256 148.0
296.457336 228.0
298.69928 164.0
298.981018 100.0
299.036499 144.0
300.1492 164.0
300.624268 188.0
300.82196 184.0
300.901367 172.0
301.122345 148.0
301.223969 248.0
302.101929 120.0
302.176636 212.0
303.784088 144.0
304.995972 144.0
305.147308 172.0
306.147552 148.0
307.214111 160.0
307.618896 140.0
309.100861 652.0
309.510284 152.0
309.585968 156.0
309.892059 204.0
310.095306 248.0
310.59671 148.0
311.097809 196.0
311.945068 172.0
312.345947 152.0
313.007568 180.0
313.793304 144.0
314.22403 124.0
314.287079 148.0
314.469788 144.0
314.848358 144.0
314.888916 132.0
314.971954 208.0
315.007294 164.0
316.489105 188.0
316.949585 144.0
317.343018 152.0
317.711853 172.0
317.799805 124.0
319.167999 184.0
319.278229 232.0
320.158569 184.0
321.533356 212.0
321.626129 160.0
321.801056 148.0
323.358704 188.0
324.275024 148.0
324.369659 172.0
325.384888 156.0
326.040192 176.0
326.13858 108.0
326.959259 140.0
327.111053 160.0
327.384064 140.0
328.526611 232.0
328.667328 212.0
329.158234 140.0
330.303223 136.0
330.882874 148.0
331.527618 132.0
332.021942 180.0
332.642761 144.0
333.007812 140.0
333.060059 228.0
333.27298 164.0
333.414703 180.0
333.945496 160.0
333.981873 228.0
334.185608 152.0
334.54953 156.0
335.211823 124.0
335.652069 104.0
336.194702 140.0
336.554718 152.0
337.038605 164.0
337.185028 176.0
337.526642 152.0
338.368164 216.0
338.415771 152.0
338.998169 168.0
339.144775 164.0
339.265747 160.0
339.929596 180.0
340.171814 160.0
343.20697 140.0
343.450378 144.0
343.704926 148.0
343.959564 140.0
344.705597 160.0
345.330383 160.0
345.576996 144.0
346.178345 472.0
346.345886 140.0
347.192047 136.0
347.7052 228.0
349.567017 196.0
350.212738 160.0
351.120453 140.0
352.220917 560.0
352.329834 200.0
352.875488 140.0
353.792053 164.0
354.372559 192.0
355.233276 152.0
355.940399 180.0
357.752563 144.0
357.873047 168.0
358.242126 180.0
358.980835 140.0
360.192322 224.0
360.496674 124.0
360.812073 184.0
361.057831 160.0
361.810822 184.0
361.993011 104.0
362.087891 160.0
362.16217 280.0
362.210236 6912.0
362.28421 148.0
362.845062 216.0
363.212433 1040.0
363.298889 168.0
363.3591 160.0
363.476746 140.0
363.693665 148.0
363.755524 192.0
364.18985 1756.0
364.229828 408.0
364.712738 180.0
364.765259 112.0
364.816864 152.0
364.901123 164.0
365.197937 888.0
365.264069 212.0
366.093781 168.0
366.201904 180.0
366.647614 148.0
367.194336 232.0
367.265015 160.0
367.715942 104.0
368.5159 152.0
368.580566 152.0
369.202332 120.0
369.567352 172.0
369.712769 140.0
370.979736 152.0
371.238556 124.0
371.413849 148.0
372.196747 156.0
372.331146 184.0
373.280334 144.0
373.388 164.0
373.70343 184.0
374.137604 248.0
374.610229 176.0
374.72757 160.0
375.292145 124.0
375.506226 156.0
375.620605 124.0
375.749237 164.0
376.001526 104.0
376.092682 196.0
376.258667 188.0
376.395874 160.0
376.440125 196.0
376.826599 204.0
376.884338 160.0
376.930695 140.0
377.364563 196.0
377.505859 132.0
377.550842 124.0
377.645905 168.0
377.864441 176.0
378.014496 412.0
378.074585 128.0
378.136993 112.0
378.150848 300.0
378.16156 148.0
378.207916 1176.0
378.283417 232.0
378.299469 176.0
378.376587 228.0
378.478333 128.0
378.532471 144.0
378.567932 128.0
378.719482 116.0
378.766174 156.0
378.834015 224.0
378.907318 216.0
378.957825 268.0
379.017609 312.0
379.034821 236.0
379.067749 484.0
379.136383 256.0
379.142212 176.0
379.212158 368.0
379.292145 136.0
379.301666 280.0
379.351776 196.0
379.407745 596.0
379.464325 508.0
379.500061 356.0
379.554871 140.0
379.640564 232.0
379.717194 220.0
379.756958 204.0
379.804596 344.0
379.835968 476.0
379.869019 428.0
379.874603 404.0
379.934814 352.0
379.999939 380.0
380.041718 584.0
380.086334 644.0
380.128845 832.0
380.179596 161360.0
380.225067 240632.0
380.313995 156.0
380.361053 328.0
380.437866 216.0
380.486694 224.0
380.577148 416.0
380.594971 340.0
380.747131 216.0
380.817078 3800.0
380.865692 9500.0
380.902588 524.0
380.948486 444.0
381.059357 280.0
381.181091 54828.0
381.227112 134716.0
381.32785 156.0
381.39325 104.0
381.477051 180.0
381.527802 256.0
381.563507 424.0
381.602386 296.0
381.648285 236.0
381.678772 112.0
381.708984 224.0
381.786377 228.0
381.820465 220.0
381.864868 692.0
381.943054 268.0
382.027008 136.0
382.079132 212.0
382.098083 288.0
382.108612 292.0
382.12442 224.0
382.183197 7240.0
382.229095 19928.0
382.381012 160.0
382.446106 96.0
382.480804 228.0
382.565216 108.0
382.629547 112.0
382.670898 144.0
382.732025 204.0
382.764771 120.0
382.805237 248.0
382.867462 172.0
382.912964 232.0
382.985657 188.0
383.083374 104.0
383.136017 156.0
383.18924 884.0
383.23172 1796.0
383.284363 284.0
383.32077 248.0
383.33432 180.0
383.382568 208.0
383.398163 272.0
383.434387 300.0
383.490051 436.0
383.523315 164.0
383.618225 232.0
383.654327 220.0
383.704529 316.0
383.752136 252.0
383.81012 372.0
383.856598 236.0
383.890381 164.0
383.935638 132.0
384.036987 212.0
384.139526 124.0
384.235565 164.0
384.38269 120.0
384.439209 256.0
384.491089 184.0
384.619965 116.0
384.714996 284.0
384.751617 160.0
384.791473 128.0
384.870087 116.0
385.057953 96.0
385.219452 140.0
385.267639 112.0
385.859497 156.0
386.208099 148.0
386.332947 104.0
387.370392 116.0
387.479553 116.0
389.836243 168.0
391.45047 116.0
393.041565 112.0
394.2995 128.0
394.37326 208.0
394.442047 168.0
395.047089 108.0
395.467194 108.0
397.514984 120.0
397.59375 104.0
399.296539 116.0
400.189087 104.0
401.16272 116.0
448.001526 152.0
448.325958 140.0
455.119415 140.0
461.82309 120.0
468.147217 120.0
492.770813 120.0
493.883057 152.0
498.50708 148.0
508.950684 164.0
551.321594 140.0
570.519897 140.0
593.724121 116.0
655.043213 148.0
675.165161 140.0
882.494995 180.0
956.983215 156.0
989.728638 176.0
1049.480225 148.0
1087.203125 164.0
1098.631958 152.0
1107.906982 208.0
1120.109863 172.0
1123.089355 196.0
1153.108643 208.0
1159.192505 160.0
1180.013794 176.0
1203.753418 148.0
1206.44104 144.0
1258.513794 140.0
1265.025024 184.0
1282.819702 144.0
1282.947998 180.0
1283.88562 228.0
1291.631226 224.0
1316.397827 152.0
1332.979004 156.0
1342.879761 148.0
1346.843018 160.0
1364.224243 200.0
1364.577148 152.0
1376.853271 188.0
1380.023315 216.0
1380.393066 144.0
1381.221313 140.0
1381.716919 144.0
1390.965332 184.0
1391.351318 204.0
1392.197754 140.0
1401.369263 152.0
1402.598877 156.0
1410.212158 192.0
1412.380371 144.0
1414.804932 164.0
1416.766968 244.0
1419.015259 204.0
1419.840088 160.0
1423.036743 212.0
1424.463623 164.0
1441.362183 140.0
1446.383911 164.0
1447.860229 176.0
1448.920654 172.0
1450.37561 144.0
1455.131958 184.0
1464.393921 168.0
1479.268066 176.0
1479.482422 192.0
1485.950562 200.0
1493.409546 160.0
1493.525024 140.0
1494.617432 148.0
1496.811157 156.0
1510.038208 176.0
1513.690918 172.0
1515.278687 144.0
1520.419678 164.0
1521.987671 152.0
1528.633667 148.0
1539.539429 144.0
1544.087769 148.0
1551.252075 148.0
1554.954224 236.0
1556.210205 196.0
1556.956177 148.0
1564.583252 140.0
1565.583252 152.0
1565.84314 208.0
1571.242554 252.0
1575.497803 172.0
1579.015137 188.0
1580.462769 184.0
1583.209595 180.0
1596.438477 148.0
1596.526001 240.0
1598.594238 216.0
1600.528564 196.0
1606.402222 160.0
1609.618652 156.0
1614.501099 152.0
1614.605103 184.0
1618.22998 220.0
1618.830444 196.0
1620.079956 140.0
1624.12793 144.0
1627.217529 232.0
1630.084961 196.0
1630.977051 236.0
1632.826294 248.0
1633.992554 188.0
1634.483398 144.0
1636.793579 160.0
1637.429688 160.0
1638.364136 184.0
1641.055908 144.0
1641.886475 188.0
1646.930786 196.0
1649.063721 240.0
1653.673828 232.0
1655.13916 144.0
1658.452515 264.0
1662.142456 168.0
1663.449097 168.0
1666.388916 212.0
1666.722046 152.0
1672.723999 172.0
1679.022095 164.0
1682.988037 196.0
1683.085938 160.0
1686.026733 220.0
1688.201294 204.0
1689.518066 184.0
1689.992676 140.0
1695.363525 188.0
1696.765869 220.0
1697.27417 188.0
1699.710327 220.0
1700.375 148.0
1701.795166 148.0
1708.485107 184.0
1709.167969 240.0
1709.842651 208.0
1714.965454 208.0
1715.295166 176.0
1717.026978 132.0
1719.328369 160.0
1727.086426 164.0
1729.113403 160.0
1733.729614 180.0
1734.538574 180.0
1739.200073 160.0
1740.511841 164.0
1743.244629 160.0
1746.578491 192.0
1753.622437 140.0
1757.911987 172.0
1758.518188 168.0
1766.38916 140.0
1767.602295 164.0
1770.833618 148.0
1771.82373 124.0
1773.04541 224.0
1775.459839 184.0
1775.979858 148.0
1776.835449 164.0
1778.748779 156.0
1781.477905 140.0
1781.595581 196.0
1782.124878 184.0
1785.083496 172.0
1785.747925 228.0
1789.492554 148.0
1795.88855 164.0
1798.521118 164.0
1799.331421 212.0
1799.474976 220.0
1804.967041 240.0
1809.637573 184.0
1810.001587 256.0
1811.373657 168.0
1812.94104 192.0
1814.712646 148.0
1816.9552 144.0
1818.419556 216.0
1822.189819 160.0
1823.44751 152.0
1824.169922 176.0
1828.661011 176.0
1828.941895 164.0
1829.708008 152.0
1830.653076 168.0
1833.56665 144.0
1838.862915 160.0
1841.039795 144.0
1842.115967 160.0
1842.397949 168.0
1842.526123 240.0
1842.850708 152.0
1846.423828 164.0
1846.979736 164.0
1851.977173 136.0
1855.603271 140.0
1857.258301 160.0
1860.141357 168.0
1860.810913 148.0
1862.348145 176.0
1866.077637 140.0
1866.834229 220.0
1868.27063 144.0
1870.396118 172.0
1870.731812 260.0
1872.817993 232.0
1874.754028 148.0
1875.124634 144.0
1876.659058 140.0
1880.834473 244.0
1880.998413 168.0
1888.238892 148.0
1888.740601 200.0
1889.943115 144.0
1891.370972 144.0
1891.795166 156.0
1892.600342 200.0
1896.065308 176.0
1899.628906 176.0
1900.227539 180.0
1901.824219 180.0
1902.009277 252.0
1902.926636 144.0
1905.184692 188.0
1905.445312 140.0
1905.688599 188.0
1906.496704 160.0
1909.356812 160.0
1910.94873 160.0
1913.82959 200.0
1913.925415 224.0
1915.699097 116.0
1917.592896 160.0
1921.909424 232.0
1923.166138 156.0
1925.549683 180.0
1925.747192 200.0
1926.1698 156.0
1930.09375 156.0
1931.099487 144.0
1931.641724 140.0
1932.171021 172.0
1933.767944 144.0
1936.312134 168.0
1938.11145 144.0
1938.234131 168.0
1938.663452 160.0
1938.830078 172.0
1939.241943 180.0
1940.302612 208.0
1941.170654 140.0
1941.835449 104.0
1942.547607 172.0
1943.073975 152.0
1944.627075 168.0
1946.997559 200.0
1949.808838 148.0
1952.64856 192.0
1952.921143 180.0
1953.325806 144.0
1955.155884 208.0
1956.787964 116.0
1958.416138 164.0
1961.241699 140.0
1961.894043 144.0
1963.454712 156.0
1964.33667 164.0
1965.986572 148.0
1968.131592 140.0
1972.920166 196.0
1973.821899 196.0
1975.758911 140.0
1976.767578 160.0
1980.096191 148.0
1981.433716 220.0
1984.012573 148.0
1985.271729 144.0
1987.728882 196.0
1989.432983 212.0
1990.098755 212.0
1990.205322 140.0
1991.857178 152.0
1993.003174 156.0
1994.211792 148.0
1995.732788 160.0
1995.829712 160.0
1996.203125 148.0
1996.745605 160.0
1997.795166 164.0
1998.836182 140.0
1999.174316 200.0
2000.05542 220.0
2000.464844 172.0
2000.963379 176.0
2002.18335 172.0
