>compound Amfebutamone
>formula C13H18ClNO
>ionization [M+H]+
>parentmass 240.114868
#inchi InChI=1S/C13H18ClNO/c1-9(15-13(2,3)4)12(16)10-6-5-7-11(14)8-10/h5-9,15H,1-4H3
#inchikey SNPPWIUOZRMYNY
#Ion_Source LC-ESI
#Instrument qTof
#Compound_Source Commercial
#PI Dorrestein
#Data_Collector Garg_Neha
#Scan -1
#Precursor_MZ 240.115
#ExactMass 239.108
#Charge 1
#CAS_Number N/A
#Pubmed_ID N/A
#Smiles CC(NC(C)(C)C)C(=O)c1cccc(Cl)c1
#INCHI_AUX N/A
#Library_Class 1
#SpectrumID CCMSLIB00000078995
#IonMode Positive
#UpdateWorkflowName UPDATE-SINGLE-ANNOTATED-GOLD
#LibraryQualityString Gold
#TaskID 278b19f5865741e282cec7349aa7e7a1
##Scan# 1114
#SpectrumFile NCP003352_C2_D11_BC5_01_15719.mzXML
#LibraryName NIHcollectionI_05062014.mgf
#MQScore -1
#Organism NIHcollectionI_05062014
#TIC_Query 0
#RT_Query -1
#MZErrorPPM -1
#SharedPeaks 0
#MassDiff 0
#LibMZ -1
#SpecMZ 240.115
#SpecCharge 0
#internalFilename spec-00000.mgf

>collision 10
47.926941 156.0
53.805481 152.0
60.789692 228.0
62.403263 180.0
72.30497 184.0
74.900299 144.0
80.254974 140.0
85.144974 160.0
85.969727 228.0
88.346199 196.0
91.631256 220.0
95.444313 148.0
103.057579 156.0
104.116379 148.0
106.600533 196.0
110.059883 160.0
112.010292 180.0
114.394684 168.0
119.04142 120.0
120.920319 152.0
125.243568 180.0
125.557823 224.0
130.065704 1944.0
130.684998 164.0
130.853424 192.0
131.073624 3744.0
131.628647 196.0
132.072601 276.0
138.992752 256.0
139.031601 1068.0
140.048065 208.0
141.030609 484.0
151.017593 228.0
151.942337 148.0
159.698151 192.0
166.041763 2556.0
167.026215 1272.0
167.059967 320.0
167.134583 180.0
168.039795 1176.0
169.023972 244.0
170.023636 164.0
170.044388 140.0
175.40123 180.0
182.036804 172.0
182.099716 136.0
184.007767 168.0
184.053177 8240.0
184.110367 156.0
185.056137 468.0
186.049759 3484.0
187.058151 156.0
210.096588 196.0
223.067902 156.0
238.117706 268.0
239.126556 116.0
239.164398 244.0
240.055161 132.0
240.114868 2500.0
241.080643 184.0
241.120728 128.0
241.216644 280.0
242.10733 488.0
243.116409 284.0
243.146271 172.0
298.987671 144.0
307.168152 144.0
1044.376831 224.0
1459.651367 140.0
1503.439209 172.0
1701.187134 156.0
1742.031372 180.0
1747.826172 276.0
1970.543579 160.0
