>compound MLS002637755-01!
>formula C17H12O2
>ionization [M+H]+
>parentmass 249.092
#inchi InChI=1S/C17H12O2/c18-17(14-8-2-1-3-9-14)19-16-12-6-10-13-7-4-5-11-15(13)16/h1-12H
#inchikey KZWCTFLBFSWYHS
#Ion_Source LC-ESI
#Instrument qTof
#Compound_Source NIH Natural Product Library
#PI Dorrestein
#Data_Collector VVP/LMS
#Scan -1
#Precursor_MZ 249.092
#ExactMass 248.084
#Charge 1
#CAS_Number N/A
#Pubmed_ID N/A
#Smiles O=C(Oc1cccc2ccccc12)c3ccccc3
#INCHI_AUX N/A
#Library_Class 1
#SpectrumID CCMSLIB00000079364
#IonMode Positive
#UpdateWorkflowName UPDATE-SINGLE-ANNOTATED-GOLD
#LibraryQualityString Gold
#TaskID b1d8e8f6646f4e71acdff9ca3d919d08
##Scan# 2720
#SpectrumFile p1-B05_GB5_01_17889.mzXML
#LibraryName NIH_Natural_Products_Library.mgf
#MQScore -1
#Organism NIH_Natural_Products_Library
#TIC_Query 0
#RT_Query -1
#MZErrorPPM -1
#SharedPeaks 0
#MassDiff 0
#LibMZ -1
#SpecMZ 249.092
#SpecCharge 0
#internalFilename spec-00000.mgf

>collision 10
99.740242 96.0
103.487801 208.0
104.88343 120.0
105.012093 232.0
105.034325 4000.0
105.083275 92.0
105.154701 204.0
105.345131 76.0
106.037636 300.0
106.933685 64.0
106.968674 84.0
107.287971 60.0
108.339859 96.0
110.787666 36.0
116.842949 60.0
128.061081 136.0
134.585907 156.0
140.98439 196.0
170.100922 120.0
171.036682 144.0
179.083633 84.0
181.1082 240.0
203.084427 152.0
297.116821 60.0
298.903412 40.0
391.417694 20.0
514.006836 20.0
981.949646 164.0
992.862915 36.0
1030.37439 224.0
1066.571899 164.0
1102.713501 220.0
1116.902466 20.0
1123.790649 92.0
1169.260864 20.0
1183.935303 192.0
1185.223022 84.0
1191.892456 72.0
1201.248657 180.0
1240.798462 176.0
1254.394287 140.0
1295.439819 128.0
1315.44519 192.0
1330.887329 104.0
1350.87085 216.0
1381.879883 188.0
1388.850708 204.0
1412.417847 172.0
1418.647949 152.0
1439.813599 156.0
1458.641602 168.0
1459.827637 96.0
1463.815063 124.0
1465.262207 116.0
1485.827637 188.0
1490.357544 156.0
1504.235229 160.0
