>compound MLS001304011-01!
>formula C17H23NO3
>ionization [M+H]+
>parentmass 290.174408
#inchi InChI=1S/C17H23NO3/c1-18-13-7-8-14(18)10-15(9-13)21-17(20)16(11-19)12-5-3-2-4-6-12/h2-6,13-16,19H,7-11H2,1H3/t13-,14+,15+,16-/m1/s1
#inchikey RKUNBYITZUJHSG
#Ion_Source LC-ESI
#Instrument qTof
#Compound_Source NIH Pharmacologically Active Library
#PI Dorrestein
#Data_Collector VP/LMS
#Scan -1
#Precursor_MZ 290.17
#ExactMass 289.168
#Charge 1
#CAS_Number N/A
#Pubmed_ID N/A
#Smiles CN1[C@H]2CC[C@@H]1C[C@@H](C2)OC(=O)[C@H](CO)c3ccccc3
#INCHI_AUX N/A
#Library_Class 1
#SpectrumID CCMSLIB00000085361
#IonMode Positive
#UpdateWorkflowName UPDATE-SINGLE-ANNOTATED-GOLD
#LibraryQualityString Gold
#TaskID d252d724072548979f1f6f1ced849daf
##Scan# 1277
#SpectrumFile p3-H09_GH9_01_18314.mzXML
#LibraryName Pharm_Active_Library.mgf
#MQScore -1
#Organism Pharm_Active_Library
#TIC_Query 0
#RT_Query -1
#MZErrorPPM -1
#SharedPeaks 0
#MassDiff 0
#LibMZ -1
#SpecMZ 290.17
#SpecCharge 0
#internalFilename spec-00000.mgf

>collision 10
44.907024 64.0
44.933704 68.0
44.98175 164.0
45.041843 180.0
45.30941 176.0
45.753971 52.0
45.815926 228.0
45.84692 100.0
46.191235 176.0
46.356422 192.0
46.455402 156.0
46.527332 156.0
46.563999 140.0
46.607471 216.0
46.750263 136.0
46.830593 148.0
46.9366 184.0
46.968266 220.0
47.074726 156.0
47.233276 160.0
47.289379 136.0
47.298962 160.0
47.348255 80.0
47.542942 180.0
47.694031 120.0
47.760033 100.0
47.846733 120.0
47.893555 164.0
47.976242 136.0
48.139996 192.0
48.494637 140.0
48.644451 176.0
48.770863 32.0
48.862648 152.0
48.87656 64.0
48.935024 212.0
49.002136 220.0
49.033932 140.0
49.148289 132.0
49.410976 176.0
49.423569 188.0
49.438965 72.0
49.503365 228.0
49.524372 212.0
49.701023 180.0
49.719265 180.0
49.804916 172.0
49.849876 176.0
50.258255 228.0
50.480038 108.0
50.876785 168.0
50.940693 160.0
50.973373 188.0
51.072899 232.0
51.095661 188.0
51.554825 168.0
51.606285 204.0
51.798065 184.0
52.351059 156.0
52.616383 156.0
52.707378 116.0
52.895405 136.0
53.092464 224.0
53.249214 112.0
53.286983 208.0
53.313141 176.0
53.508064 156.0
53.580887 156.0
53.610031 164.0
53.639183 268.0
53.735435 164.0
53.750031 156.0
53.896053 212.0
54.027649 120.0
54.166725 40.0
54.231201 168.0
54.495361 108.0
54.520344 208.0
54.646809 192.0
54.657108 40.0
54.850052 148.0
54.898708 112.0
54.913456 152.0
54.957714 200.0
55.21772 136.0
55.248787 104.0
55.278378 240.0
55.383499 136.0
55.502064 160.0
55.533211 148.0
55.567329 144.0
55.634117 152.0
55.697975 188.0
55.95377 156.0
55.979084 48.0
56.154949 388.0
56.180305 116.0
56.242985 208.0
56.268364 148.0
56.468613 172.0
56.535938 132.0
56.568867 128.0
56.756153 148.0
56.81765 84.0
57.080509 124.0
57.313835 96.0
57.342472 164.0
57.469151 164.0
57.484238 140.0
57.633736 52.0
57.644314 224.0
57.834885 68.0
57.939377 204.0
57.996964 180.0
58.066711 128.0
58.206333 208.0
58.423691 248.0
58.72226 168.0
59.165421 196.0
59.209827 172.0
59.453602 152.0
59.534969 136.0
59.605637 140.0
59.653282 180.0
59.745556 140.0
59.793259 176.0
59.851761 172.0
59.899506 176.0
59.971931 120.0
59.990429 144.0
60.012012 176.0
60.325432 184.0
60.461552 160.0
60.832603 116.0
60.842884 204.0
61.010674 220.0
61.2924 204.0
61.340717 76.0
61.39061 128.0
61.428043 108.0
61.568527 144.0
61.584145 172.0
61.760777 208.0
61.962727 124.0
62.212093 200.0
62.518608 136.0
62.583149 144.0
62.650875 128.0
62.726521 160.0
62.900047 192.0
63.042198 208.0
63.198753 248.0
63.241482 212.0
63.306396 204.0
63.352333 184.0
63.4599 184.0
63.493408 188.0
63.615589 84.0
63.989208 164.0
64.016281 116.0
64.330391 148.0
64.467758 184.0
64.486938 156.0
64.526901 196.0
64.658073 220.0
64.74453 216.0
65.001038 40.0
65.160004 108.0
65.199623 164.0
65.221069 48.0
65.451134 172.0
65.510735 144.0
65.880173 156.0
66.218254 184.0
66.75383 256.0
66.773346 188.0
66.897011 96.0
66.994728 220.0
67.214844 188.0
67.348717 136.0
67.386292 136.0
67.422249 148.0
67.582504 232.0
67.887199 208.0
67.974144 192.0
68.24025 144.0
68.31971 96.0
68.355392 188.0
68.594215 176.0
68.774017 140.0
68.954056 168.0
69.200417 208.0
69.22538 176.0
69.306557 44.0
69.738052 424.0
69.811378 192.0
70.177551 136.0
70.240509 216.0
70.337715 188.0
70.864525 200.0
70.89637 204.0
71.100899 172.0
71.440407 84.0
71.640739 160.0
71.878754 148.0
72.140282 220.0
72.256973 180.0
72.386398 204.0
72.400864 220.0
72.424576 140.0
72.505905 164.0
72.578796 212.0
72.64325 176.0
72.738281 204.0
72.784119 160.0
73.17691 196.0
73.359207 236.0
73.459824 176.0
73.611732 64.0
74.006737 148.0
74.0821 208.0
74.094093 180.0
74.27581 144.0
74.351311 184.0
74.52475 176.0
74.550529 172.0
74.584908 140.0
74.731087 192.0
74.789604 116.0
74.938248 128.0
75.075615 156.0
75.180847 88.0
75.392998 148.0
75.424385 192.0
75.497009 164.0
75.531601 156.0
75.808624 232.0
75.883163 180.0
76.046234 160.0
76.139992 148.0
76.166046 204.0
76.306816 192.0
76.719437 68.0
76.879913 140.0
76.914825 152.0
76.975929 168.0
77.103462 180.0
77.437645 196.0
77.469177 164.0
77.511223 96.0
77.665512 216.0
77.800636 168.0
78.055405 264.0
78.106415 48.0
78.42865 72.0
78.979576 140.0
79.078667 56.0
79.092827 76.0
79.301842 164.0
79.337296 176.0
79.480965 176.0
79.585693 52.0
79.766914 204.0
79.806023 192.0
80.534927 144.0
80.685036 164.0
81.195381 160.0
81.298447 204.0
81.32457 48.0
81.507759 156.0
81.824326 164.0
82.0261 156.0
82.204666 168.0
82.264229 136.0
82.300339 140.0
82.37619 208.0
82.428589 144.0
82.484619 152.0
83.172974 120.0
83.316437 224.0
83.461845 132.0
83.58918 148.0
83.873306 188.0
83.997307 156.0
84.121391 228.0
84.388138 196.0
84.446655 56.0
84.717575 140.0
84.732231 168.0
84.763382 160.0
84.779877 180.0
84.977348 220.0
85.097221 120.0
85.170685 164.0
85.374702 176.0
85.500954 224.0
85.613953 152.0
85.700531 120.0
85.777939 140.0
85.929161 468.0
86.293022 180.0
86.474319 140.0
86.587257 172.0
86.6558 204.0
86.670624 200.0
86.691689 124.0
87.219978 184.0
87.500893 184.0
87.963242 164.0
87.996841 180.0
88.292099 144.0
88.509178 192.0
88.807167 160.0
89.063324 180.0
89.36512 132.0
89.47052 164.0
89.797897 208.0
89.821198 224.0
89.853111 84.0
90.009781 160.0
90.219505 112.0
90.289474 148.0
90.575279 172.0
90.800842 176.0
90.884308 156.0
90.939346 272.0
90.955452 184.0
91.054657 6060.0
91.104553 32.0
91.155853 156.0
91.188164 44.0
91.201469 164.0
91.439224 52.0
91.475395 84.0
91.557266 200.0
91.637276 124.0
91.713509 160.0
92.026375 240.0
92.05558 744.0
92.11805 176.0
92.179192 248.0
92.215508 144.0
92.420135 44.0
92.527321 60.0
92.613495 68.0
92.979713 204.0
93.027695 116.0
93.069717 8128.0
93.112183 64.0
93.13736 76.0
93.215927 80.0
93.383186 224.0
93.40435 56.0
93.469765 124.0
93.546753 208.0
93.589111 184.0
93.604515 132.0
93.668068 76.0
93.696968 40.0
93.79718 48.0
93.887802 68.0
94.069412 744.0
94.40538 116.0
94.521446 136.0
94.577934 152.0
94.611229 116.0
94.65889 132.0
94.703438 124.0
94.866211 120.0
94.986443 184.0
95.050285 188.0
95.082664 848.0
95.102638 200.0
95.516762 44.0
95.875023 56.0
95.907867 188.0
96.082283 1408.0
96.205757 324.0
96.237862 136.0
96.35701 136.0
96.407814 40.0
96.437134 60.0
96.536842 68.0
96.613129 164.0
96.636604 220.0
96.853912 148.0
97.061661 200.0
97.08519 324.0
97.112648 84.0
97.192329 104.0
97.377625 184.0
97.755096 60.0
97.841705 132.0
98.095047 844.0
98.12542 168.0
98.158066 172.0
98.202324 112.0
98.269402 200.0
98.327522 180.0
98.403618 188.0
98.614998 200.0
98.909721 60.0
99.252472 156.0
99.380127 224.0
99.82637 224.0
99.840286 112.0
99.862167 32.0
99.884048 116.0
100.029312 84.0
100.260368 128.0
100.36203 164.0
100.889137 208.0
100.959122 104.0
101.001122 164.0
101.021126 152.0
101.203255 120.0
101.704453 192.0
101.808861 124.0
101.901268 116.0
101.97361 52.0
102.045006 388.0
102.092232 144.0
102.398148 196.0
102.621834 112.0
102.792938 184.0
102.876045 136.0
102.985306 184.0
103.031555 168.0
103.054794 6424.0
103.074654 324.0
103.096214 40.0
103.11071 280.0
103.33078 104.0
103.547379 216.0
103.734894 96.0
103.766235 180.0
103.804764 48.0
103.837212 196.0
104.057877 676.0
104.111198 36.0
104.212769 128.0
104.493355 108.0
104.580864 104.0
104.990395 136.0
105.063164 136.0
105.080147 128.0
105.098511 188.0
105.131165 144.0
105.357811 64.0
105.660393 164.0
105.734062 152.0
106.037186 172.0
106.080231 120.0
107.052094 224.0
107.085114 208.0
107.142723 52.0
107.383911 188.0
107.563431 152.0
107.602654 176.0
107.776154 52.0
107.898102 136.0
107.949799 200.0
108.059425 156.0
108.081062 1428.0
108.117371 156.0
108.185677 172.0
108.28093 92.0
108.689331 120.0
108.78688 120.0
108.855392 108.0
108.886551 208.0
109.015358 124.0
109.038216 60.0
109.061081 160.0
109.088264 928.0
109.179596 152.0
109.294006 176.0
109.598022 76.0
109.873245 164.0
110.006805 148.0
110.090324 168.0
110.550255 224.0
111.079048 360.0
111.321724 40.0
111.582283 132.0
111.832619 192.0
111.90419 212.0
112.051628 180.0
112.927696 180.0
113.166832 164.0
113.981361 176.0
114.070633 148.0
114.145218 200.0
114.215233 136.0
114.675156 148.0
114.713524 176.0
114.824409 124.0
114.997231 204.0
115.17659 52.0
115.221451 200.0
115.912575 176.0
116.19561 180.0
116.212776 196.0
116.242813 164.0
116.423141 204.0
116.631554 40.0
117.107086 196.0
117.163094 156.0
117.236359 116.0
117.700165 176.0
117.764954 168.0
117.782234 160.0
117.996178 60.0
118.024284 88.0
118.054565 84.0
118.138916 244.0
118.513481 180.0
118.721581 176.0
118.814857 244.0
118.899483 84.0
119.025398 144.0
119.044945 148.0
119.246613 208.0
119.54277 116.0
119.721283 248.0
119.841095 188.0
119.895576 128.0
119.952248 112.0
119.99585 180.0
120.107071 156.0
120.174698 72.0
120.447594 212.0
120.773293 124.0
121.022781 124.0
121.064835 3520.0
121.133606 60.0
121.156387 92.0
121.307602 48.0
121.375565 228.0
121.4282 52.0
121.461105 40.0
122.066437 420.0
122.093491 516.0
122.421242 212.0
122.564781 80.0
122.783989 156.0
122.906563 120.0
122.970566 208.0
123.061073 180.0
123.103134 172.0
123.231148 176.0
123.28418 160.0
123.557106 84.0
123.642456 180.0
123.684509 144.0
123.755356 132.0
123.792999 208.0
123.81736 72.0
123.863876 304.0
123.901535 200.0
123.941422 168.0
123.963577 140.0
123.983528 168.0
124.010124 208.0
124.045288 176.0
124.051186 152.0
124.067062 184.0
124.11235 41844.0
124.148781 160.0
124.164017 80.0
124.182899 64.0
124.203583 128.0
124.231865 36.0
124.293373 72.0
124.336159 68.0
124.356133 108.0
124.42717 52.0
124.442711 80.0
124.486794 64.0
124.513771 84.0
124.593742 68.0
124.673737 52.0
124.691513 40.0
124.72361 200.0
124.880501 60.0
125.049606 60.0
125.071861 128.0
125.11602 2880.0
125.14978 60.0
125.412666 108.0
125.458694 80.0
125.575432 64.0
125.709297 76.0
125.814201 108.0
125.83876 72.0
125.872253 104.0
125.948189 92.0
125.981697 44.0
126.008507 40.0
126.037476 112.0
126.082199 100.0
126.118179 628.0
126.207436 104.0
126.760338 84.0
126.867928 172.0
126.917252 52.0
126.971077 184.0
127.642555 96.0
127.836014 128.0
128.002594 48.0
128.097198 128.0
128.498489 96.0
128.586502 124.0
129.07222 152.0
129.91478 156.0
130.243942 56.0
130.56897 76.0
130.750977 132.0
131.047012 156.0
131.078918 160.0
131.176926 52.0
131.674347 64.0
132.323792 60.0
132.367294 140.0
133.291748 208.0
133.790863 64.0
134.09494 168.0
134.196365 152.0
134.339355 64.0
134.925964 104.0
134.953705 188.0
135.055466 128.0
135.333176 56.0
136.518967 144.0
136.779556 148.0
138.486465 156.0
138.915436 148.0
139.845963 184.0
140.083099 228.0
140.106186 1936.0
140.319473 48.0
140.555344 68.0
141.069702 188.0
141.11084 380.0
141.993698 192.0
142.015045 212.0
142.064865 236.0
142.122345 7876.0
142.207245 100.0
142.38768 68.0
142.404312 116.0
142.482697 56.0
142.504089 88.0
142.618164 124.0
142.677582 184.0
142.720383 32.0
143.070145 128.0
143.124649 1180.0
144.133911 216.0
144.164978 196.0
144.234283 64.0
144.298843 52.0
144.394485 36.0
144.993042 128.0
145.028992 188.0
146.545425 112.0
148.42598 32.0
148.804504 100.0
149.054688 132.0
149.877167 168.0
150.662811 108.0
150.938995 180.0
154.339813 164.0
154.941269 224.0
155.08844 216.0
155.325516 52.0
155.382584 92.0
155.727631 72.0
155.993515 136.0
157.096725 44.0
158.098694 164.0
160.1147 44.0
160.13736 164.0
160.591049 144.0
161.75087 148.0
162.402084 128.0
162.424927 92.0
164.014191 72.0
165.106995 256.0
165.752106 184.0
167.187637 76.0
167.811035 180.0
168.254807 160.0
168.551834 172.0
168.805161 52.0
170.022766 172.0
170.199295 132.0
171.836502 104.0
173.135681 176.0
174.389801 148.0
174.765854 220.0
175.556122 204.0
175.619431 36.0
177.012222 128.0
179.510193 188.0
179.555527 212.0
179.926453 116.0
179.998535 72.0
180.097351 144.0
182.708389 204.0
183.117554 132.0
185.099823 216.0
185.127182 204.0
186.124847 160.0
187.070999 164.0
187.332428 96.0
188.191544 108.0
188.282043 144.0
188.93222 136.0
191.898453 144.0
193.680969 176.0
194.926682 180.0
195.282547 132.0
200.067719 68.0
200.239487 136.0
204.102448 132.0
204.449509 80.0
204.879471 48.0
207.2509 100.0
208.392883 168.0
209.221207 148.0
209.959702 140.0
210.657394 160.0
210.934814 156.0
211.070694 144.0
212.5103 172.0
212.710541 156.0
212.905075 148.0
213.189789 152.0
214.158966 704.0
215.036255 208.0
215.161789 172.0
215.901062 120.0
215.936157 72.0
216.164169 124.0
216.410233 256.0
218.564728 120.0
221.144073 124.0
222.160477 116.0
222.216843 212.0
223.979767 136.0
229.442978 148.0
230.194305 84.0
230.43898 128.0
230.626343 32.0
231.031555 144.0
232.270554 144.0
234.95372 168.0
237.535706 156.0
239.244354 232.0
240.181168 160.0
241.679535 48.0
241.936417 164.0
242.153183 164.0
242.30188 32.0
242.893616 164.0
243.153366 196.0
243.331573 96.0
243.524109 116.0
243.990234 120.0
244.388351 80.0
247.306274 128.0
248.823532 188.0
250.742401 160.0
250.874786 140.0
252.352341 208.0
253.61232 176.0
255.15831 132.0
255.794571 128.0
257.49408 136.0
257.954193 124.0
258.36676 212.0
259.064667 180.0
259.140594 148.0
259.161224 132.0
260.162567 1780.0
260.482574 84.0
261.166412 300.0
261.25412 184.0
261.469696 164.0
261.588806 124.0
262.013885 144.0
262.059662 200.0
262.45224 40.0
262.913544 112.0
264.451996 112.0
265.410919 204.0
266.215698 108.0
267.353516 132.0
267.78656 140.0
269.531921 136.0
270.850403 116.0
272.1604 264.0
272.993622 180.0
273.164642 100.0
273.194244 140.0
273.404846 44.0
273.958008 96.0
276.540283 160.0
276.841553 212.0
278.745728 168.0
280.399719 172.0
280.793152 124.0
281.423859 148.0
282.031891 80.0
286.228943 196.0
288.499664 108.0
288.675476 96.0
288.956238 172.0
289.040833 140.0
289.301453 96.0
289.325134 336.0
289.352234 264.0
289.491058 124.0
289.572327 112.0
289.631317 188.0
289.678009 180.0
289.836578 120.0
289.90097 220.0
289.934845 168.0
290.043304 128.0
290.086273 224.0
290.174408 33116.0
290.256561 76.0
290.28064 80.0
290.392548 132.0
290.460388 208.0
290.484619 84.0
290.538422 52.0
290.579132 224.0
290.646149 48.0
290.672119 220.0
290.735229 76.0
290.830261 84.0
290.91684 28.0
290.950531 84.0
291.020599 160.0
291.055054 132.0
291.09848 48.0
291.177155 5160.0
291.28598 76.0
291.33963 48.0
291.393982 36.0
291.472137 56.0
291.604675 80.0
291.645477 68.0
291.791656 152.0
291.954865 44.0
292.056915 68.0
292.128326 52.0
292.180603 556.0
292.220184 64.0
292.295044 60.0
292.436981 68.0
292.482239 84.0
292.5401 56.0
292.577545 88.0
292.683105 52.0
292.859009 68.0
292.899323 148.0
292.938538 92.0
292.976013 84.0
293.11911 108.0
293.17215 136.0
293.248566 128.0
293.415649 120.0
293.712341 72.0
294.015656 112.0
294.033844 128.0
294.231079 76.0
294.340332 44.0
294.589661 80.0
294.979218 48.0
295.906342 108.0
297.370117 84.0
299.698303 72.0
299.97403 44.0
303.857788 76.0
305.744659 100.0
306.730347 60.0
306.824493 156.0
309.476379 88.0
309.511383 68.0
315.192352 72.0
330.280609 44.0
338.784454 116.0
345.651306 64.0
347.448334 32.0
360.80423 36.0
364.54541 80.0
399.895752 128.0
402.431152 40.0
410.629791 60.0
414.401459 76.0
418.573059 136.0
473.625763 72.0
477.236511 92.0
493.181549 60.0
524.407227 60.0
525.373962 96.0
545.71344 96.0
592.094971 56.0
602.861389 48.0
609.707825 116.0
630.259216 92.0
651.166565 104.0
673.049988 72.0
681.11377 56.0
685.062073 68.0
691.15509 168.0
749.11145 100.0
749.770752 176.0
753.645264 120.0
755.066589 184.0
768.928528 104.0
776.88562 140.0
777.618042 140.0
802.975403 224.0
803.528259 152.0
807.544739 204.0
808.64801 120.0
820.754395 204.0
831.42334 200.0
837.558289 132.0
847.860291 208.0
854.328796 124.0
856.372009 140.0
856.867188 176.0
867.64447 168.0
869.292725 168.0
875.388245 200.0
877.704712 200.0
877.893433 60.0
882.120972 188.0
888.499146 148.0
889.335876 196.0
894.513306 220.0
902.40033 208.0
906.189026 216.0
908.437317 36.0
910.544189 184.0
911.463318 176.0
911.895996 136.0
912.040283 112.0
916.807129 152.0
917.51239 56.0
918.350586 132.0
919.044373 196.0
930.908936 160.0
936.985535 168.0
938.991089 96.0
940.333374 124.0
940.479858 168.0
942.776306 176.0
949.891113 60.0
950.535278 184.0
950.651917 44.0
950.82373 180.0
955.666138 40.0
958.757446 136.0
960.416016 228.0
962.094482 128.0
963.589111 164.0
963.632385 264.0
965.424988 280.0
965.981628 116.0
969.727905 168.0
971.774353 140.0
972.432129 200.0
976.688416 228.0
980.862549 176.0
981.914185 164.0
987.229004 52.0
987.741882 184.0
989.794739 172.0
991.235474 48.0
991.51123 112.0
991.724304 56.0
992.376282 184.0
995.250061 136.0
1001.482422 128.0
1001.620972 200.0
1002.780396 108.0
1004.968689 172.0
1005.536621 180.0
1006.57196 52.0
1013.378113 176.0
1014.170288 176.0
1016.548645 164.0
1018.789978 56.0
1020.951172 164.0
1023.815002 192.0
1025.216553 156.0
1026.625488 160.0
1027.365356 120.0
1029.382324 120.0
1030.915527 156.0
1032.99353 180.0
1036.021606 192.0
1041.326538 188.0
1044.109497 312.0
1047.140869 184.0
1047.920288 192.0
1049.383423 152.0
1049.460815 128.0
1061.702148 144.0
1063.745972 112.0
1065.746338 88.0
1066.318237 52.0
1068.269043 160.0
1068.594238 120.0
1071.589355 40.0
1072.032471 212.0
1074.432007 200.0
1078.421875 220.0
1078.533081 180.0
1080.619263 68.0
1080.880981 136.0
1083.572021 200.0
1085.879517 44.0
1089.384766 148.0
1090.245483 84.0
1090.948853 80.0
1091.310425 244.0
1091.96814 168.0
1093.099609 128.0
1093.165405 212.0
1095.838867 176.0
1095.990479 172.0
1101.809082 160.0
1104.897339 44.0
1117.184204 168.0
1117.643311 84.0
1117.989258 196.0
1120.66626 124.0
1121.059448 148.0
1123.953491 192.0
1125.962891 144.0
1126.537354 212.0
1127.031738 212.0
1128.549072 172.0
1136.224731 160.0
1136.385742 228.0
1137.036743 192.0
1141.120972 100.0
1142.526611 196.0
1143.953369 184.0
1144.633423 52.0
1146.6073 96.0
1149.270996 144.0
1151.654175 168.0
1152.390503 164.0
1153.81665 144.0
1154.932373 136.0
1155.845703 128.0
1156.441284 132.0
1157.036987 160.0
1157.924072 208.0
1158.486328 128.0
1159.251953 188.0
1161.46228 188.0
1164.122803 124.0
1165.114502 196.0
1165.91626 44.0
1166.582397 52.0
1166.772827 32.0
1166.935913 160.0
1167.214722 136.0
1168.024048 196.0
1168.874512 172.0
1171.843384 156.0
1176.849731 168.0
1177.416504 224.0
1178.407104 176.0
1179.901001 160.0
1180.177368 184.0
1180.4646 120.0
1180.738159 124.0
1182.188477 140.0
1183.037231 192.0
1183.879395 172.0
1184.016357 160.0
1186.688965 168.0
1187.676514 148.0
1187.765625 160.0
1189.433105 244.0
1189.522339 132.0
1190.140259 128.0
1192.991577 128.0
1193.074097 176.0
1193.630981 196.0
1193.94043 172.0
1194.064209 200.0
1194.670898 108.0
1196.025269 236.0
1196.665527 144.0
1199.104126 172.0
1199.945068 172.0
1205.446533 144.0
1206.441772 180.0
1208.821167 156.0
1209.34021 172.0
1209.970215 152.0
1210.981201 68.0
1212.935181 64.0
1215.785889 160.0
1216.493896 92.0
1216.965942 160.0
1217.743774 160.0
1220.537598 152.0
1221.817383 188.0
1223.083862 100.0
1223.654785 196.0
1226.315918 176.0
1227.556885 128.0
1227.989258 132.0
1228.93103 160.0
1229.948364 156.0
1232.345337 64.0
1234.239624 212.0
1234.743164 192.0
1237.563354 144.0
1239.0271 68.0
1243.47998 56.0
1243.606323 252.0
1246.141479 164.0
1246.275024 116.0
1254.699951 100.0
1255.666016 184.0
1255.785889 156.0
1256.442017 116.0
1257.578125 128.0
1257.69104 144.0
1257.952271 76.0
1258.079346 216.0
1258.192261 180.0
1262.964355 164.0
1264.497681 128.0
1264.929443 164.0
1266.331543 220.0
1268.379272 200.0
1269.244263 112.0
1272.444336 136.0
1273.750977 236.0
1274.404663 152.0
1274.50415 144.0
1275.81897 144.0
1277.511597 208.0
1277.910034 228.0
1278.054321 52.0
1281.619629 116.0
1283.907959 192.0
1287.0979 200.0
1287.669189 272.0
1289.133789 92.0
1289.719849 36.0
1290.134521 144.0
1291.0354 168.0
1291.292847 208.0
1292.959961 220.0
1295.745483 128.0
1297.680664 116.0
1298.340332 48.0
1301.87854 140.0
1308.623535 180.0
1309.113159 168.0
1311.418701 76.0
1311.699829 148.0
1312.038574 84.0
1312.420776 132.0
1313.52771 184.0
1314.050903 176.0
1315.775879 148.0
1318.123291 156.0
1318.737671 136.0
1319.670166 44.0
1321.022583 164.0
1321.463989 260.0
1322.643555 216.0
1322.831787 64.0
1323.374756 152.0
1323.802002 156.0
1324.504517 148.0
1325.924683 60.0
1326.091431 152.0
1328.049072 140.0
1328.361084 208.0
1328.752808 48.0
1329.180908 116.0
1329.805054 216.0
1333.959961 184.0
1335.261475 152.0
1337.833862 160.0
1337.89563 180.0
1339.119019 56.0
1340.182617 188.0
1340.904053 140.0
1341.589355 64.0
1343.689697 56.0
1344.29541 168.0
1344.368286 180.0
1349.649902 216.0
1349.766846 60.0
1350.037476 252.0
1350.644531 188.0
1350.776123 168.0
1351.178467 208.0
1352.590942 132.0
1352.649536 208.0
1353.037476 152.0
1356.172852 204.0
1357.045288 184.0
1357.257935 56.0
1357.499878 40.0
1357.609863 200.0
1357.910522 128.0
1358.915527 184.0
1359.51001 236.0
1361.302002 164.0
1361.932861 60.0
1365.5271 156.0
1366.476074 152.0
1367.484253 176.0
1369.495483 128.0
1369.737427 184.0
1370.032104 160.0
1370.953125 56.0
1371.27002 144.0
1372.095703 140.0
1374.96521 156.0
1375.969116 240.0
1377.955811 212.0
1380.646606 176.0
1381.127319 204.0
1381.319702 132.0
1381.911499 212.0
1382.118652 120.0
1382.73291 136.0
1384.280273 184.0
1384.983765 136.0
1385.813599 172.0
1386.888184 180.0
1387.125366 36.0
1388.309692 180.0
1389.505981 112.0
1390.715576 192.0
1390.878784 176.0
1394.325195 148.0
1398.274536 148.0
1400.515747 148.0
1401.491699 184.0
1401.976074 196.0
1402.520142 184.0
1404.317139 168.0
1404.760986 180.0
1405.570435 244.0
1405.794312 236.0
1406.271973 184.0
1408.273071 136.0
1408.77356 172.0
1409.744873 184.0
1410.223145 160.0
1410.798828 240.0
1412.653442 208.0
1414.988403 156.0
1415.482666 160.0
1416.164185 228.0
1417.377808 76.0
1418.104736 124.0
1418.554565 196.0
1419.259277 200.0
1420.346802 140.0
1420.924438 180.0
1422.628052 264.0
1424.437866 132.0
1426.534424 256.0
1427.519409 220.0
1430.446289 248.0
1430.928101 72.0
1431.538086 172.0
1432.426758 192.0
1432.969238 148.0
1433.941284 72.0
1434.619751 196.0
1436.422119 176.0
1438.052002 68.0
1439.365601 40.0
1439.818726 160.0
1440.460693 148.0
1442.36499 180.0
1442.811035 168.0
1443.612549 136.0
1445.420532 216.0
1445.541626 136.0
1446.9646 120.0
1447.30542 92.0
1449.145996 108.0
1449.608154 156.0
1450.290283 148.0
1451.849121 180.0
1452.519653 184.0
1454.986084 220.0
1455.3125 168.0
1455.56311 228.0
1456.146362 272.0
1457.097412 208.0
1457.287354 132.0
1458.146118 260.0
1459.613403 212.0
1460.343384 128.0
1460.974854 116.0
1461.849854 128.0
1462.146606 128.0
1463.699707 128.0
1464.057617 52.0
1465.908813 268.0
1470.339722 48.0
1471.393188 188.0
1472.485107 40.0
1472.889893 156.0
1473.768555 108.0
1477.377319 228.0
1477.675659 140.0
1478.869507 204.0
1479.987183 200.0
1480.684082 112.0
1482.645386 160.0
1483.266235 196.0
1483.351074 184.0
1483.611206 140.0
1483.764526 32.0
1487.178223 112.0
1487.46228 176.0
1487.830811 192.0
1488.168579 196.0
1488.575562 112.0
1491.93335 108.0
1492.15625 220.0
1494.463745 168.0
1494.763794 236.0
1494.856201 140.0
1495.164062 140.0
1495.310181 160.0
1495.902954 172.0
1496.765259 112.0
1498.228638 160.0
1498.9375 204.0
1499.338257 124.0
1500.587036 84.0
1502.067749 180.0
1502.268433 56.0
1503.310059 136.0
1504.108887 260.0
