>compound MLS000559484-01!Priscoline
>formula C10H12N2
>ionization [M+H]+
>parentmass 161.108307
#inchi InChI=1S/C10H12N2/c1-2-4-9(5-3-1)8-10-11-6-7-12-10/h1-5H,6-8H2,(H,11,12)
#inchikey JIVZKJJQOZQXQB
#origInchi InChI=1S/C10H12N2.ClH/c1-2-4-9(5-3-1)8-10-11-6-7-12-10;/h1-5H,6-8H2,(H,11,12);1H
#Ion_Source LC-ESI
#Instrument qTof
#Compound_Source NIH Pharmacologically Active Library
#PI Dorrestein
#Data_Collector VP/LMS
#Scan -1
#Precursor_MZ 161.108
#ExactMass 160.1
#Charge 1
#CAS_Number N/A
#Pubmed_ID N/A
#Smiles C(C1=NCCN1)c2ccccc2.Cl
#INCHI_AUX N/A
#Library_Class 1
#SpectrumID CCMSLIB00000085402
#IonMode Positive
#UpdateWorkflowName UPDATE-SINGLE-ANNOTATED-GOLD
#LibraryQualityString Gold
#TaskID d252d724072548979f1f6f1ced849daf
##Scan# 486
#SpectrumFile p4-A06_GA6_01_18331.mzXML
#LibraryName Pharm_Active_Library.mgf
#MQScore -1
#Organism Pharm_Active_Library
#TIC_Query 0
#RT_Query -1
#MZErrorPPM -1
#SharedPeaks 0
#MassDiff 0
#LibMZ -1
#SpecMZ 161.108
#SpecCharge 0
#internalFilename spec-00000.mgf

>collision 10
46.721977 108.0
49.257324 176.0
53.208435 136.0
53.512299 128.0
53.526859 168.0
56.525143 124.0
58.820984 184.0
59.181778 204.0
60.806595 140.0
64.974518 84.0
65.366562 136.0
67.200813 240.0
70.331535 44.0
73.687225 196.0
77.054703 172.0
78.097733 164.0
79.97506 128.0
84.942833 164.0
86.433304 180.0
86.707375 56.0
91.056549 844.0
92.056351 144.0
99.388397 188.0
100.872124 128.0
102.759888 80.0
103.054939 236.0
105.072487 248.0
113.703613 140.0
115.05526 224.0
115.394958 112.0
116.050316 172.0
117.058784 188.0
117.979156 116.0
118.056999 88.0
120.087624 136.0
121.309929 208.0
130.064697 168.0
132.081055 156.0
133.080063 124.0
133.65239 228.0
134.062256 220.0
135.14061 192.0
136.937363 180.0
138.03653 176.0
145.07605 164.0
146.077438 80.0
149.335632 188.0
149.732346 192.0
157.937119 164.0
158.590622 172.0
159.097336 200.0
160.099243 180.0
160.803955 172.0
161.108307 3504.0
161.17012 92.0
161.982224 56.0
162.112473 352.0
162.880173 72.0
163.246689 76.0
163.401321 100.0
163.487823 128.0
169.209473 44.0
203.854462 60.0
233.927887 84.0
890.459534 64.0
931.382751 224.0
1029.640625 196.0
1069.552368 60.0
1092.764648 172.0
1112.146973 76.0
1136.606201 136.0
1143.999146 164.0
1149.296509 184.0
1156.101929 172.0
1214.317993 236.0
1255.886108 152.0
1257.897095 172.0
1311.612671 168.0
1329.796509 184.0
1374.453003 152.0
1389.784302 168.0
1413.359741 188.0
1477.592163 168.0
1480.339966 240.0
