>compound Venlafaxine
>formula C17H27NO2
>ionization [M+H]+
>parentmass 278.2114555560905
#inchi InChI=1S/C17H27NO2/c1-18(2)13-16(17(19)11-5-4-6-12-17)14-7-9-15(20-3)10-8-14/h7-10,16,19H,4-6,11-13H2,1-3H3
#inchikey PNVNVHUZROJLTJ
#origInchi InChI=1S/C17H27NO2.ClH/c1-18(2)13-16(17(19)11-5-4-6-12-17)14-7-9-15(20-3)10-8-14;/h7-10,16,19H,4-6,11-13H2,1-3H3;1H
#Ion_Source LC-ESI
#Instrument qTof
#Compound_Source Commercial
#PI Dorrestein
#Data_Collector Garg_Neha
#Scan -1
#Precursor_MZ 278.211
#ExactMass 277.204
#Charge 1
#CAS_Number 99300-78-4, 93413-69-5 (free base)
#Pubmed_ID N/A
#Smiles C1(CCCCC1(C(CN(C)C)C2=CC=C(C=C2)OC)O).Cl
#INCHI_AUX N/A
#Library_Class 1
#SpectrumID CCMSLIB00000078150
#IonMode Positive
#UpdateWorkflowName UPDATE-SINGLE-ANNOTATED-GOLD
#LibraryQualityString Gold
#TaskID 77f51c88eb8b467eb4a01dd2d0cb90d2
##Scan# 1092
#SpectrumFile Plate2_61_88_GG8_01_16496.mzXML
#LibraryName FDALibrary_2_04302014.mgf
#MQScore -1
#Organism FDALibrary_2_04302014
#TIC_Query 0
#RT_Query -1
#MZErrorPPM -1
#SharedPeaks 0
#MassDiff 0
#LibMZ -1
#SpecMZ 278.211
#SpecCharge 0
#internalFilename spec-00000.mgf

>collision 10
44.942066 164.0
44.955189 192.0
45.07251 156.0
45.285423 128.0
45.297688 192.0
45.312424 176.0
45.473076 164.0
45.565605 152.0
45.70179 144.0
45.809494 164.0
45.921371 152.0
46.048241 184.0
46.097466 156.0
46.186108 152.0
46.310112 148.0
46.394646 176.0
46.419052 160.0
46.539886 160.0
46.592785 192.0
46.613167 168.0
46.659378 184.0
46.737717 160.0
46.787266 156.0
46.823154 156.0
46.852634 156.0
46.870632 164.0
46.916687 144.0
46.937138 200.0
47.004848 144.0
47.020351 204.0
47.039463 372.0
47.088615 144.0
47.101131 124.0
47.311501 156.0
47.385456 172.0
47.432404 140.0
47.489639 164.0
47.556873 144.0
47.648876 188.0
47.818283 184.0
47.906139 168.0
47.930939 176.0
48.008133 196.0
48.162251 156.0
48.186153 132.0
48.200012 292.0
48.336002 208.0
48.495087 148.0
48.519737 156.0
48.604343 176.0
48.695969 208.0
48.72514 152.0
48.74416 180.0
48.795685 216.0
48.822437 200.0
48.914268 152.0
48.969852 148.0
49.121895 160.0
49.138638 156.0
49.172127 144.0
49.292229 228.0
49.310394 184.0
49.397087 152.0
49.44046 156.0
49.490307 168.0
49.58506 160.0
49.720276 224.0
49.737076 152.0
49.750225 172.0
49.868221 148.0
49.916019 244.0
49.965248 172.0
50.18214 188.0
50.25544 124.0
50.343002 176.0
50.357124 164.0
50.375488 172.0
50.389172 140.0
50.460281 168.0
50.630924 168.0
50.841316 176.0
51.050148 232.0
51.068638 208.0
51.099934 184.0
51.129025 108.0
51.212391 176.0
51.26083 220.0
51.274849 196.0
51.287178 320.0
51.372478 144.0
51.387733 196.0
51.581959 148.0
51.696377 180.0
51.71212 168.0
51.785141 160.0
51.89669 176.0
51.988724 148.0
52.090664 208.0
52.214573 192.0
52.254551 184.0
52.464821 180.0
52.523941 216.0
52.622074 176.0
52.67551 228.0
52.717407 148.0
52.727524 220.0
52.756683 132.0
52.871113 208.0
52.884983 216.0
52.898979 276.0
52.943085 200.0
53.003929 164.0
53.14893 200.0
53.200573 192.0
53.238251 136.0
53.360966 136.0
53.432251 176.0
53.526859 216.0
53.582664 128.0
53.598236 172.0
53.625927 172.0
53.71217 160.0
53.78199 168.0
53.800465 356.0
53.892979 196.0
53.907593 144.0
53.923668 180.0
53.987701 120.0
53.999695 140.0
54.040653 392.0
54.090412 144.0
54.13686 116.0
54.222336 116.0
54.336613 148.0
54.434952 200.0
54.689327 168.0
54.724625 148.0
54.880806 160.0
54.897026 200.0
54.958981 340.0
55.141853 196.0
55.192356 192.0
55.21719 136.0
55.230808 152.0
55.306271 144.0
55.318111 160.0
55.337357 156.0
55.507881 140.0
55.608715 228.0
55.626446 180.0
55.830002 156.0
55.874626 220.0
55.90736 156.0
55.960949 180.0
55.989239 164.0
56.011581 172.0
56.114498 136.0
56.209236 136.0
56.231129 212.0
56.247181 156.0
56.306904 228.0
56.387581 196.0
56.443344 196.0
56.472805 160.0
56.583878 160.0
56.598511 164.0
56.704147 136.0
56.935394 172.0
57.059132 212.0
57.190006 176.0
57.221619 156.0
57.26228 148.0
57.274326 216.0
57.31126 188.0
57.324043 140.0
57.389755 256.0
57.417908 200.0
57.450336 168.0
57.487438 96.0
57.501816 132.0
57.693836 148.0
57.764912 168.0
57.817867 160.0
57.85054 184.0
57.965168 148.0
58.029938 180.0
58.102737 296.0
58.136116 176.0
58.180134 152.0
58.196194 180.0
58.286453 144.0
58.319885 160.0
58.360931 152.0
58.578564 152.0
58.633419 140.0
58.654755 184.0
58.940147 152.0
59.013515 148.0
59.054806 160.0
59.181824 144.0
59.209278 168.0
59.286968 100.0
59.370304 228.0
59.425526 192.0
59.517296 152.0
59.560619 160.0
59.580963 164.0
59.631298 188.0
59.719975 184.0
59.801979 152.0
59.900887 96.0
59.925217 184.0
60.207096 200.0
60.348122 200.0
60.646896 184.0
60.70116 152.0
60.75079 204.0
60.78027 172.0
60.848564 144.0
60.892044 160.0
60.923107 144.0
61.010136 172.0
61.058872 140.0
61.077003 168.0
61.196831 200.0
61.288731 152.0
61.327911 112.0
61.385372 192.0
61.421246 268.0
61.438404 272.0
61.525799 144.0
61.797741 156.0
61.824345 192.0
61.874432 152.0
61.969971 160.0
62.079693 164.0
62.200504 156.0
62.217773 152.0
62.238182 156.0
62.274303 164.0
62.299435 168.0
62.381149 140.0
62.411022 240.0
62.431465 204.0
62.470787 388.0
62.494751 136.0
62.519562 388.0
62.586571 136.0
62.634499 188.0
62.768459 408.0
62.792114 156.0
62.822083 172.0
62.851887 180.0
62.874912 108.0
62.900986 180.0
63.017849 160.0
63.037556 136.0
63.084229 152.0
63.126915 140.0
63.152222 164.0
63.202843 188.0
63.342163 316.0
63.353252 152.0
63.371452 156.0
63.388111 224.0
63.511772 140.0
63.537151 208.0
63.589775 196.0
63.751507 144.0
63.935982 172.0
63.950306 200.0
64.063362 208.0
64.101601 156.0
64.19725 140.0
64.360008 180.0
64.430229 196.0
64.52298 148.0
64.679756 164.0
64.713371 152.0
64.754593 140.0
64.857552 216.0
64.875183 192.0
64.920082 156.0
64.966591 156.0
65.021149 160.0
65.042015 160.0
65.085358 152.0
65.10878 156.0
65.205841 188.0
65.3731 172.0
65.469688 156.0
65.608849 196.0
65.768494 216.0
65.829308 176.0
65.86322 204.0
65.893333 100.0
65.976601 176.0
65.989273 180.0
66.008675 176.0
66.1203 144.0
66.238068 188.0
66.356796 156.0
66.371391 144.0
66.462227 144.0
66.493057 152.0
66.518753 140.0
66.744225 120.0
66.818047 176.0
67.008537 196.0
67.128036 204.0
67.220505 184.0
67.323349 176.0
67.338646 120.0
67.36908 164.0
67.632355 256.0
67.653633 220.0
67.671646 180.0
67.887978 164.0
67.966675 172.0
68.008492 144.0
68.299011 96.0
68.341309 340.0
68.354469 224.0
68.375862 144.0
68.38903 192.0
68.413719 148.0
68.512535 200.0
68.610443 136.0
68.65593 148.0
68.815994 212.0
68.840637 160.0
68.887009 188.0
68.911789 180.0
68.96302 140.0
69.009308 156.0
69.082359 164.0
69.330437 228.0
69.393089 100.0
69.439857 148.0
69.519493 172.0
69.668922 164.0
69.686066 188.0
69.718773 248.0
69.748726 164.0
69.830162 216.0
69.961617 228.0
70.019897 240.0
70.151527 180.0
70.199211 192.0
70.236786 156.0
70.279945 172.0
70.34449 304.0
70.366737 200.0
70.415161 172.0
70.480774 232.0
70.570572 184.0
70.632446 164.0
70.666985 224.0
70.731911 128.0
70.996147 136.0
71.017143 204.0
71.076416 160.0
71.095596 140.0
71.126762 140.0
71.18055 116.0
71.269516 172.0
71.292694 196.0
71.308167 212.0
71.38382 164.0
71.400742 188.0
71.45446 148.0
71.54483 172.0
71.557129 184.0
71.62426 148.0
71.77298 192.0
71.843636 200.0
71.897629 140.0
71.944168 168.0
71.961769 156.0
71.987854 188.0
72.037766 172.0
72.080009 152.0
72.169594 196.0
72.198341 276.0
72.361336 256.0
72.37941 152.0
72.392952 144.0
72.49968 172.0
72.538666 172.0
72.570877 168.0
72.592918 216.0
72.754105 160.0
72.872993 144.0
72.934174 196.0
73.209793 168.0
73.288147 264.0
73.302841 148.0
73.380188 204.0
73.56102 204.0
73.578094 248.0
73.660545 172.0
73.682274 164.0
73.696091 136.0
73.794373 184.0
73.825851 192.0
73.897484 160.0
74.029495 148.0
74.093628 152.0
74.145561 160.0
74.259148 156.0
74.453087 144.0
74.47142 148.0
74.503487 128.0
74.521797 156.0
74.55616 172.0
74.571152 172.0
74.738441 196.0
74.752205 272.0
74.814171 196.0
74.827873 180.0
74.855492 144.0
74.943336 208.0
75.126091 144.0
75.189934 144.0
75.227905 208.0
75.371254 212.0
75.478424 156.0
75.580482 216.0
75.634132 164.0
75.651436 164.0
75.663559 216.0
75.686066 184.0
75.727631 184.0
75.790092 140.0
75.876656 164.0
75.913765 208.0
75.963364 140.0
75.993774 220.0
76.057983 140.0
76.076164 188.0
76.121307 144.0
76.245735 208.0
76.299904 152.0
76.340263 188.0
76.453339 156.0
76.486038 172.0
76.660568 152.0
76.732033 188.0
77.093353 144.0
77.143379 240.0
77.191246 192.0
77.250717 144.0
77.332954 140.0
77.350456 192.0
77.420494 176.0
77.501076 200.0
77.587067 192.0
77.815025 176.0
77.943245 180.0
78.212326 152.0
78.238731 144.0
78.402542 204.0
78.438393 172.0
78.575348 172.0
78.704193 176.0
78.787628 132.0
78.807472 156.0
78.980637 272.0
79.056473 136.0
79.152016 136.0
79.24543 244.0
79.378365 144.0
79.392555 204.0
79.567856 156.0
79.654678 128.0
79.68721 204.0
79.740036 160.0
79.827637 140.0
79.932472 124.0
79.987808 568.0
80.065804 144.0
80.238945 160.0
80.338814 148.0
80.469101 140.0
80.51017 140.0
80.524452 204.0
80.599716 152.0
80.632622 184.0
80.662033 200.0
80.713562 176.0
80.798164 144.0
81.014565 152.0
81.048607 156.0
81.102371 160.0
81.127464 244.0
81.141808 184.0
81.199188 160.0
81.224304 200.0
81.359116 160.0
81.463051 204.0
81.540314 184.0
81.566978 148.0
81.579857 232.0
81.639191 168.0
81.691437 168.0
81.855133 208.0
81.871338 204.0
81.942749 196.0
81.977631 152.0
82.093521 216.0
82.130219 252.0
82.190407 216.0
82.286072 220.0
82.355591 152.0
82.473946 224.0
82.498131 136.0
82.524559 140.0
82.539871 188.0
82.593285 152.0
82.625847 200.0
82.686996 188.0
82.73262 168.0
82.826782 140.0
82.910126 148.0
83.165855 180.0
83.191269 208.0
83.258453 228.0
83.282059 140.0
83.321579 244.0
83.39653 304.0
83.443657 160.0
83.514252 204.0
83.531242 140.0
83.687599 152.0
83.736671 156.0
83.908058 160.0
84.017166 116.0
84.033905 144.0
84.05455 176.0
84.220108 180.0
84.382744 256.0
84.3992 184.0
84.421143 140.0
84.501625 168.0
84.558891 164.0
84.616936 236.0
84.699341 196.0
84.723152 168.0
84.784264 292.0
84.826042 168.0
84.906456 192.0
84.932777 248.0
85.011024 196.0
85.053955 196.0
85.067917 172.0
85.156921 180.0
85.267708 156.0
85.402344 144.0
85.440979 200.0
85.536667 300.0
85.715317 168.0
85.742455 204.0
85.893417 252.0
85.990135 208.0
86.143356 148.0
86.211609 144.0
86.453979 156.0
86.467842 220.0
86.509506 184.0
86.677429 108.0
86.689293 172.0
86.729935 260.0
86.760925 192.0
86.775383 212.0
86.817078 252.0
86.87796 160.0
86.894981 144.0
86.919106 236.0
86.942696 188.0
86.958076 140.0
87.046379 188.0
87.089897 208.0
87.108475 152.0
87.359428 212.0
87.402222 160.0
87.485054 152.0
87.573494 164.0
87.825119 172.0
87.938934 140.0
87.967468 252.0
88.041618 176.0
88.141556 168.0
88.226601 152.0
88.254646 160.0
88.269608 408.0
88.361252 188.0
88.385582 164.0
88.45108 176.0
88.664604 168.0
88.690842 196.0
88.718964 180.0
88.758499 180.0
88.807091 168.0
88.860405 152.0
88.97155 300.0
89.009773 152.0
89.131836 128.0
89.252174 168.0
89.28978 184.0
89.376312 204.0
89.464615 144.0
89.572113 152.0
89.63063 132.0
89.683281 208.0
89.749268 188.0
89.870735 420.0
89.935356 256.0
90.039879 180.0
90.06443 168.0
90.243958 212.0
90.340416 200.0
90.478561 140.0
90.491814 144.0
90.531807 204.0
90.594086 176.0
90.643349 196.0
90.778954 208.0
90.855698 156.0
91.013229 140.0
91.030319 144.0
91.056389 2160.0
91.091095 160.0
91.104393 168.0
91.140495 224.0
91.277397 172.0
91.317291 192.0
91.338211 196.0
91.370552 160.0
91.444763 160.0
91.600899 216.0
91.634224 212.0
91.709511 200.0
91.753357 140.0
91.783859 200.0
91.872643 208.0
91.90403 176.0
91.926926 160.0
92.002747 116.0
92.10257 176.0
92.194283 188.0
92.504929 164.0
92.658867 160.0
92.730156 264.0
92.804916 188.0
92.937263 184.0
92.960289 144.0
93.037064 208.0
93.07045 380.0
93.156128 172.0
93.173416 180.0
93.297264 208.0
93.471436 344.0
93.527252 256.0
93.733322 168.0
93.874039 144.0
93.928192 156.0
94.014587 128.0
94.286865 352.0
94.406525 180.0
94.489189 160.0
94.887985 196.0
94.90081 292.0
94.918259 152.0
94.94735 160.0
95.015236 180.0
95.034943 180.0
95.05851 172.0
95.094795 180.0
95.219009 180.0
95.478546 160.0
95.598358 228.0
95.633186 312.0
95.670166 200.0
95.692841 192.0
95.810387 232.0
96.073105 200.0
96.153572 236.0
96.245323 172.0
96.356186 168.0
96.427002 208.0
96.473907 140.0
96.67733 196.0
96.824158 168.0
96.911758 172.0
97.07 212.0
97.098534 204.0
97.261383 196.0
97.288864 164.0
97.312424 144.0
97.3778 260.0
97.4617 204.0
97.528519 188.0
97.54818 172.0
97.628792 152.0
97.676178 128.0
97.751099 172.0
97.890663 164.0
97.906273 176.0
97.965363 160.0
98.034264 128.0
98.100044 504.0
98.157585 136.0
98.237404 140.0
98.314354 172.0
98.394394 168.0
98.494026 204.0
98.519707 144.0
98.740013 176.0
98.774963 96.0
98.818237 236.0
98.897415 364.0
98.95282 168.0
99.022133 148.0
99.084526 164.0
99.145851 160.0
99.202553 144.0
99.222267 152.0
99.252007 196.0
99.264908 168.0
99.27977 144.0
99.444435 144.0
99.531784 192.0
99.631096 244.0
99.67083 144.0
99.837814 160.0
99.865616 216.0
100.06266 160.0
100.112999 1752.0
100.287766 416.0
100.467232 140.0
100.501198 160.0
100.625427 164.0
100.804665 208.0
100.832642 164.0
100.852631 156.0
100.888405 196.0
100.944595 204.0
101.008591 156.0
101.050606 164.0
101.066612 148.0
101.116463 172.0
101.228752 180.0
101.262794 196.0
101.346931 212.0
101.372978 184.0
101.56144 300.0
101.646446 140.0
101.836418 144.0
101.946915 148.0
101.97596 132.0
102.021286 140.0
102.043396 212.0
102.075569 160.0
102.345207 208.0
102.443893 156.0
102.696785 252.0
102.755394 164.0
102.778572 216.0
102.923431 120.0
102.96743 216.0
103.054688 480.0
103.240799 184.0
103.293747 172.0
103.336227 200.0
103.454727 132.0
103.499077 164.0
103.555244 168.0
103.593346 192.0
103.635887 164.0
103.6521 236.0
103.696976 164.0
103.834549 136.0
103.875114 168.0
104.003906 212.0
104.054817 196.0
104.100403 152.0
104.138985 156.0
104.175552 208.0
104.213028 208.0
104.238968 132.0
104.254036 216.0
104.374725 140.0
104.555779 200.0
104.74894 136.0
104.799904 176.0
104.93058 188.0
104.978653 136.0
104.997871 268.0
105.041748 156.0
105.071404 1084.0
105.108528 196.0
105.261124 192.0
105.28495 204.0
105.393356 152.0
105.416374 228.0
105.496086 204.0
105.512444 160.0
105.565605 144.0
105.598557 212.0
105.655602 176.0
105.68103 112.0
105.704628 212.0
105.740707 204.0
105.788559 132.0
105.835709 156.0
106.019531 152.0
106.041245 388.0
106.118462 144.0
106.210747 184.0
106.233307 168.0
106.38517 176.0
106.448814 188.0
106.522758 144.0
106.750893 144.0
106.874313 168.0
106.965309 220.0
107.049019 656.0
107.086288 1112.0
107.144707 268.0
107.209961 164.0
107.274529 160.0
107.391396 208.0
107.415565 184.0
107.546143 192.0
107.568848 176.0
107.788467 244.0
107.913857 148.0
107.965553 220.0
107.997421 156.0
108.021393 200.0
108.053932 368.0
108.082329 220.0
108.117523 192.0
108.135201 156.0
108.230423 160.0
108.362984 204.0
108.462425 144.0
108.600197 164.0
108.620049 208.0
108.708305 140.0
108.799675 136.0
109.063095 140.0
109.30056 116.0
109.453621 144.0
109.493011 236.0
109.60759 208.0
109.632591 148.0
109.775276 180.0
109.87603 144.0
110.10022 228.0
110.127052 204.0
110.203918 176.0
110.260765 220.0
110.292122 140.0
110.584946 172.0
110.681244 148.0
110.702187 144.0
110.727318 192.0
110.953621 160.0
110.999748 184.0
111.030083 224.0
111.052177 268.0
111.094131 148.0
111.140289 192.0
111.201141 212.0
111.262016 188.0
111.35231 172.0
111.493073 152.0
111.59613 144.0
111.751717 164.0
111.770775 140.0
111.991707 172.0
112.023064 180.0
112.054901 176.0
112.106552 148.0
112.333183 192.0
112.355469 276.0
112.401703 192.0
112.461899 140.0
112.544228 212.0
112.597198 144.0
112.651886 168.0
112.657402 164.0
112.664642 264.0
112.801971 192.0
112.878601 248.0
112.974663 200.0
113.002724 160.0
113.036736 288.0
113.193382 156.0
113.250565 204.0
113.288689 200.0
113.312538 156.0
113.360725 140.0
113.38192 156.0
113.411591 232.0
113.513359 196.0
113.568497 176.0
113.661842 156.0
113.772736 192.0
113.842278 156.0
113.897499 148.0
113.919716 192.0
113.973366 264.0
114.024979 148.0
114.120636 172.0
114.154663 152.0
114.196663 192.0
114.220589 168.0
114.282288 144.0
114.328209 152.0
114.456825 140.0
114.472313 204.0
114.548409 140.0
114.612465 120.0
114.6315 184.0
114.705261 184.0
114.773178 180.0
114.857491 192.0
114.967049 332.0
115.056435 616.0
115.152039 164.0
115.169128 308.0
115.256714 240.0
115.417992 160.0
115.436272 164.0
115.509338 148.0
115.703735 164.0
115.740128 172.0
115.811371 136.0
115.958641 176.0
116.031525 240.0
116.060463 288.0
116.110863 160.0
116.147324 164.0
116.177353 156.0
116.194519 212.0
116.312546 204.0
116.353333 140.0
116.481689 208.0
116.529442 196.0
116.555229 152.0
116.709129 216.0
116.914345 172.0
116.959549 176.0
117.070663 244.0
117.252464 144.0
117.289993 156.0
117.358452 216.0
117.432571 116.0
117.545753 148.0
117.707649 196.0
117.772438 172.0
117.870392 236.0
117.920021 300.0
117.958267 244.0
118.020294 168.0
118.053398 228.0
118.090912 116.0
118.114166 136.0
118.142082 156.0
118.17524 284.0
118.245941 180.0
118.294708 136.0
118.388832 160.0
118.430702 108.0
118.501465 148.0
118.559883 96.0
118.802879 152.0
118.841873 156.0
118.880928 180.0
118.922165 148.0
118.974442 148.0
118.991631 308.0
119.047958 308.0
119.086105 1140.0
119.191399 144.0
119.283249 300.0
119.308823 140.0
119.374054 160.0
119.652565 140.0
119.739662 208.0
119.802834 156.0
119.826797 160.0
119.863167 144.0
119.964134 212.0
120.015518 232.0
120.048241 380.0
120.077713 148.0
120.094925 232.0
120.169098 200.0
120.21492 224.0
120.377068 144.0
120.404846 148.0
120.474747 168.0
120.503143 160.0
120.660507 196.0
120.732887 156.0
120.767151 240.0
120.798279 188.0
120.863914 164.0
120.907318 128.0
120.977394 160.0
121.017746 172.0
121.036224 208.0
121.065773 64240.0
121.103592 224.0
121.152245 248.0
121.226387 128.0
121.350578 224.0
121.370949 176.0
121.55603 116.0
121.617798 268.0
121.772316 152.0
121.82579 184.0
121.924675 172.0
122.038063 196.0
122.069801 5196.0
122.233154 156.0
122.277168 144.0
122.421478 124.0
122.504143 152.0
122.59771 176.0
122.667038 244.0
122.834183 208.0
122.898605 172.0
122.969223 148.0
123.034149 192.0
123.081062 292.0
123.126129 224.0
123.514305 164.0
123.552582 160.0
123.661011 152.0
123.725204 184.0
123.825661 164.0
123.845947 160.0
123.882439 144.0
123.957771 164.0
124.113838 268.0
124.16394 192.0
124.190552 176.0
124.324883 168.0
124.476845 172.0
124.663208 228.0
124.812378 252.0
124.828766 108.0
124.872421 184.0
124.968079 188.0
125.027138 192.0
125.092705 160.0
125.117195 180.0
125.148361 180.0
125.199043 100.0
125.276169 124.0
125.415695 200.0
125.446899 172.0
125.541245 152.0
125.579575 176.0
125.655373 160.0
125.869797 248.0
125.964607 156.0
126.039452 152.0
126.071854 148.0
126.127731 256.0
126.361725 140.0
126.405052 168.0
126.560493 196.0
126.622208 164.0
126.673721 228.0
126.693886 184.0
126.708565 168.0
126.79361 132.0
126.965103 336.0
126.992012 156.0
127.04982 104.0
127.086235 184.0
127.110916 172.0
127.175606 160.0
127.261307 260.0
127.284592 116.0
127.326431 212.0
127.433228 140.0
127.497169 208.0
127.546616 156.0
127.717506 152.0
127.764748 172.0
127.787567 168.0
127.823242 188.0
127.843498 156.0
127.944786 160.0
128.060684 328.0
128.091156 160.0
128.215088 184.0
128.287216 180.0
128.322418 208.0
128.408981 196.0
128.454086 188.0
128.469879 160.0
128.501465 204.0
128.530792 176.0
128.657181 152.0
128.791229 156.0
128.916931 160.0
129.01413 168.0
129.06926 304.0
129.168747 172.0
129.241608 180.0
129.523285 180.0
129.752213 184.0
129.770309 280.0
129.788437 172.0
129.869537 200.0
129.939529 124.0
129.988052 148.0
130.008484 160.0
130.081772 192.0
130.162842 172.0
130.301392 140.0
130.319565 176.0
130.522903 144.0
130.569626 220.0
130.881378 140.0
130.909088 144.0
130.954254 192.0
130.998917 104.0
131.050934 512.0
131.084442 312.0
131.177551 172.0
131.224335 216.0
131.403336 208.0
131.43071 164.0
131.496887 176.0
131.526566 156.0
131.604187 180.0
131.649658 196.0
131.729797 164.0
131.754929 156.0
131.778717 212.0
131.809753 176.0
131.8806 152.0
131.981186 144.0
132.004059 184.0
132.057907 2548.0
132.139008 164.0
132.193192 100.0
132.258011 200.0
132.532227 168.0
132.584686 284.0
132.633667 156.0
132.775818 164.0
132.842331 328.0
132.950165 156.0
133.06308 644.0
133.096832 180.0
133.179764 148.0
133.2211 156.0
133.24408 160.0
133.262466 160.0
133.524521 176.0
133.554413 156.0
133.572815 140.0
133.606918 228.0
133.640869 172.0
133.805252 176.0
133.890671 160.0
134.042496 168.0
134.072037 284.0
134.13237 160.0
134.190002 176.0
134.339905 164.0
134.360352 144.0
134.512985 164.0
134.545303 192.0
134.658447 140.0
134.711578 196.0
134.77858 220.0
134.794754 156.0
134.821213 168.0
134.865448 160.0
135.080795 3936.0
135.112274 300.0
135.198898 172.0
135.223724 204.0
135.31749 140.0
135.342056 132.0
135.37175 184.0
135.545258 216.0
135.734894 196.0
136.057816 148.0
136.083847 640.0
136.110474 156.0
136.184784 208.0
136.378708 196.0
136.431091 192.0
136.649719 188.0
136.759079 148.0
136.861511 140.0
137.175446 120.0
137.630981 176.0
137.651993 168.0
137.703369 184.0
137.801483 160.0
137.93013 168.0
138.001251 180.0
138.035217 160.0
138.129776 440.0
138.166199 176.0
138.185562 204.0
138.262146 184.0
138.318314 336.0
138.388 188.0
138.482224 180.0
138.620438 172.0
138.69075 148.0
138.707153 140.0
138.772797 220.0
138.805618 148.0
138.833771 152.0
139.070023 172.0
139.164627 188.0
139.242126 160.0
139.284393 172.0
139.484131 200.0
139.540497 164.0
139.588547 136.0
139.660477 160.0
139.704956 188.0
139.773407 152.0
139.970642 176.0
140.052948 336.0
140.101379 148.0
140.291565 212.0
140.3862 200.0
140.45192 140.0
140.485825 132.0
140.602921 156.0
140.669006 144.0
140.805954 140.0
140.831924 160.0
140.848465 160.0
140.888626 176.0
140.942963 164.0
140.973892 160.0
141.071335 1028.0
141.207733 208.0
141.224289 204.0
141.285797 148.0
141.551514 136.0
141.61441 144.0
141.826538 252.0
141.931641 204.0
141.94899 140.0
141.994949 156.0
142.074799 512.0
142.119766 176.0
142.542435 148.0
142.563812 184.0
142.594711 216.0
142.721481 172.0
142.773026 156.0
143.049057 264.0
143.085983 376.0
143.206177 168.0
143.237137 156.0
143.27742 176.0
143.304504 136.0
143.635223 160.0
143.695786 268.0
143.809402 140.0
143.828491 156.0
143.847595 148.0
143.866165 200.0
143.94548 148.0
144.057861 1496.0
144.173248 120.0
144.230194 140.0
144.440216 140.0
144.459351 172.0
144.569412 152.0
144.617279 144.0
144.744156 228.0
144.795364 140.0
144.892258 216.0
144.916611 252.0
145.044678 248.0
145.06517 1620.0
145.10173 572.0
145.178772 240.0
145.197083 148.0
145.245041 156.0
145.297821 212.0
145.321106 176.0
145.353012 140.0
145.381805 172.0
145.473007 176.0
145.501816 224.0
145.887894 152.0
146.002151 108.0
146.036774 160.0
146.071899 376.0
146.095001 380.0
146.143402 132.0
146.16745 188.0
146.331726 128.0
146.372208 192.0
146.475769 180.0
146.581772 140.0
146.675339 248.0
146.877335 140.0
146.909088 236.0
146.938629 168.0
146.996811 180.0
147.032669 168.0
147.081757 38308.0
147.128662 232.0
147.136292 336.0
147.194 212.0
147.224548 132.0
147.398758 120.0
147.480789 216.0
147.532883 124.0
147.771927 128.0
147.80101 156.0
147.982727 236.0
148.025299 152.0
148.084503 2696.0
148.249176 196.0
148.349091 164.0
148.450394 152.0
148.713226 164.0
148.736679 164.0
148.903976 124.0
148.924377 172.0
149.091171 160.0
149.122726 200.0
149.166626 148.0
149.248978 288.0
149.268387 112.0
149.318588 136.0
149.33342 128.0
149.397644 196.0
149.609375 140.0
149.630157 244.0
149.795349 156.0
149.874512 148.0
150.140549 156.0
150.191772 148.0
150.350357 144.0
150.418701 140.0
150.618927 172.0
150.671906 164.0
150.708511 168.0
150.765533 192.0
150.816849 148.0
150.894531 124.0
151.063339 180.0
151.085846 320.0
151.115204 196.0
151.264481 228.0
151.334793 352.0
151.377106 176.0
151.455475 160.0
151.497116 148.0
151.548569 152.0
151.58757 236.0
151.612274 144.0
151.732391 164.0
151.921219 148.0
152.065994 196.0
152.142532 1484.0
152.257492 164.0
152.35083 184.0
152.564636 144.0
152.59343 96.0
152.653152 164.0
152.714645 152.0
152.766296 164.0
152.84137 180.0
152.911774 160.0
153.068634 272.0
153.145279 476.0
153.246918 180.0
153.267914 204.0
153.291916 140.0
153.317841 176.0
153.434372 136.0
153.531296 156.0
153.569305 196.0
153.642654 120.0
153.687729 160.0
153.808655 140.0
153.951843 180.0
154.06987 148.0
154.144531 184.0
154.46347 148.0
154.511826 196.0
154.60202 156.0
154.663025 148.0
155.008148 208.0
155.037125 144.0
155.056931 444.0
155.08577 496.0
155.141983 176.0
155.345337 176.0
155.445251 132.0
155.466919 148.0
155.524002 156.0
155.908966 168.0
155.94873 160.0
156.09375 340.0
156.21727 140.0
156.334213 192.0
156.414948 264.0
156.45369 140.0
156.523407 164.0
156.550797 180.0
156.612228 120.0
156.76503 176.0
156.857254 152.0
156.949493 164.0
156.976929 164.0
157.061722 152.0
157.141556 348.0
157.248856 164.0
157.343277 192.0
157.423615 156.0
157.493546 264.0
157.511017 200.0
157.648438 176.0
157.822937 144.0
157.879807 152.0
157.938461 168.0
157.9814 168.0
158.004654 176.0
158.072708 2208.0
158.103592 212.0
158.161148 180.0
158.319824 152.0
158.466675 196.0
158.744904 168.0
158.905441 192.0
158.928009 204.0
158.978271 132.0
159.003296 148.0
159.042343 160.0
159.080643 11392.0
159.115494 144.0
159.208084 140.0
159.342285 148.0
159.374496 132.0
159.569962 136.0
159.659012 144.0
159.692596 168.0
159.736984 184.0
159.807419 164.0
159.971008 164.0
159.993668 176.0
160.042221 240.0
160.085464 2440.0
160.232925 148.0
160.290878 148.0
160.325928 132.0
160.469833 168.0
160.519073 128.0
160.651413 180.0
160.689255 204.0
160.91893 172.0
161.049393 196.0
161.096329 1724.0
161.131744 336.0
161.172333 136.0
161.545944 180.0
161.591232 140.0
161.647339 136.0
161.722366 332.0
161.783569 144.0
161.801285 168.0
161.86113 180.0
161.925369 188.0
161.988693 140.0
162.092896 1904.0
162.129013 208.0
162.191406 164.0
162.309479 216.0
162.363297 196.0
162.488983 192.0
162.517715 180.0
162.586746 188.0
162.973053 168.0
163.099319 3016.0
163.143326 144.0
163.208694 152.0
163.29953 140.0
163.405289 184.0
163.522339 152.0
163.672531 144.0
163.703094 160.0
163.738739 224.0
163.761673 164.0
163.975693 148.0
164.081238 152.0
164.102753 548.0
164.256165 184.0
164.50322 156.0
164.633896 192.0
164.83316 168.0
164.904709 196.0
164.994171 160.0
165.091339 164.0
165.152725 160.0
165.495651 140.0
165.562225 220.0
165.655472 196.0
165.839493 440.0
165.985046 188.0
166.047852 148.0
166.092758 156.0
166.200516 184.0
166.231201 184.0
166.241043 176.0
166.372482 188.0
166.422775 168.0
166.566406 164.0
166.663086 188.0
166.742355 168.0
166.837463 216.0
166.873459 164.0
167.002045 176.0
167.083023 324.0
167.204269 192.0
167.287659 188.0
167.3237 148.0
167.346634 176.0
167.761658 168.0
167.957642 156.0
168.055664 228.0
168.088776 256.0
168.349945 144.0
168.450668 168.0
168.504044 256.0
168.541092 148.0
168.564346 140.0
168.735306 168.0
168.768555 224.0
168.844147 188.0
168.934082 208.0
168.967712 156.0
169.076385 152.0
169.104858 188.0
169.199951 136.0
169.539948 160.0
169.781052 164.0
169.851074 164.0
169.934097 200.0
169.998962 140.0
170.056061 160.0
170.302231 164.0
170.476791 192.0
170.50798 140.0
170.631302 360.0
170.742554 124.0
170.843399 236.0
170.864212 152.0
171.05159 192.0
171.080276 184.0
171.124741 200.0
171.394623 196.0
171.590851 208.0
171.749664 160.0
171.835999 184.0
171.983322 160.0
172.049271 196.0
172.086075 400.0
172.126282 220.0
172.366043 184.0
172.387939 200.0
172.609146 164.0
172.677139 184.0
172.729446 180.0
172.875183 308.0
172.94664 196.0
173.029434 152.0
173.096481 15364.0
173.130966 236.0
173.19014 196.0
173.233093 124.0
173.263489 156.0
173.305405 148.0
173.583252 256.0
173.706131 160.0
173.858704 220.0
173.90332 336.0
173.97197 156.0
174.100723 2020.0
174.160629 168.0
174.217422 208.0
174.302505 148.0
174.33667 148.0
174.399734 188.0
174.529678 168.0
174.560822 148.0
174.62915 160.0
174.681091 208.0
174.702133 164.0
174.785828 152.0
174.808701 120.0
175.07962 184.0
175.111404 328.0
175.195297 192.0
175.476425 144.0
175.579254 200.0
175.602997 144.0
175.817963 176.0
175.925659 212.0
176.003525 152.0
176.104477 216.0
176.1577 224.0
176.405701 176.0
176.61824 160.0
176.68602 184.0
176.863327 148.0
177.006287 172.0
177.035416 140.0
177.075134 196.0
177.11525 2728.0
177.351654 208.0
177.529785 188.0
177.58667 160.0
177.957962 212.0
178.033447 164.0
178.122543 3380.0
178.340729 228.0
178.468338 148.0
178.489838 208.0
178.603973 188.0
178.636581 216.0
178.864731 192.0
178.923294 200.0
178.997849 204.0
179.016495 144.0
179.043121 192.0
179.123505 204.0
179.158249 324.0
179.181656 204.0
179.232254 176.0
179.330856 148.0
179.653503 296.0
179.72287 148.0
180.096619 180.0
180.132538 180.0
180.176758 192.0
180.206146 208.0
180.262268 236.0
180.32106 168.0
180.374512 164.0
180.416901 136.0
180.552246 160.0
180.607147 140.0
180.784561 220.0
180.861343 172.0
180.934113 240.0
181.003235 144.0
181.024658 288.0
181.140121 180.0
181.22287 164.0
181.533813 188.0
181.677673 148.0
181.774536 168.0
181.831589 160.0
182.094711 264.0
182.172607 144.0
182.358002 180.0
182.531357 172.0
182.575775 260.0
182.930939 160.0
183.009094 136.0
183.046707 204.0
183.084412 164.0
183.117584 1716.0
183.173294 212.0
183.359207 152.0
183.556 172.0
183.80687 220.0
184.049377 152.0
184.124084 248.0
184.176727 224.0
184.257782 200.0
184.577606 180.0
184.623718 148.0
184.711945 144.0
184.7444 152.0
184.885101 204.0
184.91217 148.0
185.041092 236.0
185.099197 108.0
185.136871 156.0
185.155823 248.0
185.277725 152.0
185.426758 220.0
185.47554 176.0
185.494507 172.0
185.64093 284.0
185.757553 156.0
185.874207 308.0
185.974625 140.0
186.015335 156.0
186.106857 148.0
186.140228 164.0
186.313782 152.0
186.47438 180.0
186.512436 140.0
186.539612 184.0
186.591263 204.0
186.610306 200.0
186.656525 168.0
186.830597 184.0
186.931259 212.0
187.021072 164.0
187.111786 1312.0
187.145554 508.0
187.501633 108.0
187.546463 140.0
187.74852 228.0
188.115402 244.0
188.14035 140.0
188.149521 200.0
188.187851 184.0
189.005112 172.0
189.125046 600.0
189.15564 380.0
189.266266 116.0
189.423996 148.0
189.455063 232.0
189.58017 176.0
189.659637 140.0
189.731537 124.0
189.986465 176.0
190.013397 212.0
190.1259 160.0
190.202759 140.0
190.22348 108.0
190.290604 208.0
190.34552 200.0
190.392273 156.0
190.463608 160.0
190.571503 132.0
190.61377 164.0
190.709366 172.0
191.093155 212.0
191.211472 160.0
191.230743 204.0
191.273819 172.0
191.362869 208.0
192.130371 140.0
192.173203 176.0
192.211823 144.0
192.245209 168.0
192.614899 196.0
192.664215 184.0
192.689499 180.0
192.888031 204.0
193.022354 112.0
193.09584 164.0
193.182602 152.0
193.41127 188.0
193.455551 204.0
193.524765 172.0
193.668777 152.0
194.076813 100.0
194.295258 160.0
194.322998 160.0
194.475632 160.0
194.57547 224.0
194.83844 196.0
194.99501 144.0
195.108978 144.0
195.127335 160.0
195.323242 156.0
195.601364 168.0
195.684875 152.0
195.714661 164.0
195.846405 200.0
195.913254 172.0
195.946686 176.0
196.042542 204.0
196.096603 160.0
196.225388 152.0
196.309433 308.0
196.345291 208.0
196.437332 148.0
196.548935 172.0
196.63446 148.0
196.708023 184.0
196.939774 160.0
197.031967 156.0
197.131592 372.0
197.205215 156.0
197.230362 144.0
197.443024 136.0
197.57074 164.0
197.652664 148.0
197.747238 176.0
198.101974 164.0
198.271439 184.0
198.425095 180.0
198.702225 156.0
198.727188 188.0
198.93631 212.0
199.082306 172.0
199.148254 184.0
199.264893 160.0
199.357605 140.0
199.517822 208.0
199.610611 156.0
199.635925 164.0
199.6978 168.0
199.717484 244.0
199.754044 176.0
199.827637 180.0
199.856277 236.0
200.121399 528.0
200.198334 220.0
200.401566 148.0
200.46637 236.0
200.627029 456.0
200.680771 136.0
200.722885 204.0
200.770828 156.0
200.897766 152.0
201.047302 192.0
201.120682 448.0
201.162003 188.0
201.253372 140.0
201.290527 152.0
201.357285 260.0
201.445419 152.0
201.564072 212.0
201.655075 200.0
201.742142 176.0
201.767578 176.0
201.816406 164.0
201.925934 144.0
202.002563 172.0
202.07637 200.0
202.104156 160.0
202.138107 172.0
202.210373 172.0
202.456161 192.0
202.53447 140.0
202.712952 184.0
202.735626 188.0
203.158096 176.0
203.280106 168.0
203.486084 140.0
203.527054 152.0
203.71312 164.0
203.762802 144.0
203.975449 208.0
204.229874 180.0
204.450912 140.0
204.489899 176.0
204.686783 196.0
204.903671 160.0
204.983444 156.0
205.222885 152.0
205.38829 208.0
205.430969 204.0
205.486893 120.0
205.532639 168.0
205.859207 160.0
205.899185 184.0
205.923828 108.0
206.023834 188.0
206.22142 188.0
206.36496 148.0
206.465042 172.0
206.533691 280.0
206.579453 140.0
206.663696 848.0
207.109024 152.0
207.164581 188.0
207.315308 160.0
207.652878 208.0
207.659622 156.0
207.753998 148.0
207.832611 156.0
207.954849 148.0
208.02948 224.0
208.086548 132.0
208.106415 196.0
208.156631 120.0
208.354004 140.0
208.391342 172.0
208.425827 168.0
208.655396 156.0
208.756409 176.0
208.827438 160.0
208.865692 156.0
208.972137 204.0
209.248428 184.0
209.340576 184.0
209.421219 236.0
209.663223 148.0
209.931335 144.0
210.115936 180.0
210.335251 156.0
210.408493 244.0
210.532669 152.0
210.577789 192.0
210.814697 176.0
210.927414 160.0
211.095383 120.0
211.167404 140.0
211.239288 216.0
211.248642 184.0
211.297577 148.0
211.824448 144.0
211.847626 140.0
211.888184 164.0
212.027267 212.0
212.175095 156.0
212.227295 156.0
212.468018 152.0
212.65065 196.0
212.781448 164.0
212.848236 244.0
212.881546 144.0
212.949829 208.0
213.059113 172.0
213.127274 504.0
213.163712 648.0
213.36644 176.0
213.417755 224.0
213.507889 156.0
213.554428 184.0
213.868668 184.0
213.900681 176.0
213.973465 140.0
214.040436 168.0
214.130707 184.0
214.166611 148.0
214.223923 144.0
214.365341 148.0
214.556137 152.0
214.724686 120.0
214.775146 156.0
214.806931 156.0
214.830276 180.0
214.973236 140.0
214.994247 172.0
215.036423 264.0
215.10231 160.0
215.144302 58200.0
215.228409 288.0
215.303665 140.0
215.358612 336.0
215.392212 112.0
215.487076 156.0
215.705475 96.0
215.859604 132.0
215.927292 132.0
216.147125 7704.0
216.224716 172.0
216.426025 188.0
216.481659 140.0
216.669128 152.0
216.826462 236.0
216.932877 292.0
216.988571 172.0
217.021912 136.0
217.108795 168.0
217.153717 1296.0
217.218658 176.0
217.254181 164.0
217.320953 124.0
217.346405 184.0
217.394119 200.0
217.496414 140.0
217.537918 160.0
217.68692 228.0
217.717453 120.0
217.813339 184.0
217.906494 164.0
217.933807 160.0
218.129471 184.0
218.165833 140.0
218.284775 176.0
218.351089 172.0
218.62175 140.0
218.677246 200.0
218.864532 184.0
218.927902 144.0
219.154724 148.0
219.243134 204.0
219.266708 208.0
219.437088 180.0
219.523422 144.0
219.690521 180.0
219.741455 196.0
219.819824 264.0
219.894897 180.0
220.201965 192.0
220.344421 192.0
220.556519 156.0
220.885452 200.0
221.014847 176.0
221.283371 108.0
221.349396 364.0
221.395172 140.0
221.615982 176.0
221.685837 208.0
221.731552 172.0
221.804871 392.0
221.925415 216.0
222.078934 120.0
222.39888 172.0
222.419662 212.0
222.464188 156.0
222.493881 324.0
222.680954 176.0
222.814621 144.0
222.921585 332.0
223.076141 180.0
223.096954 168.0
223.540115 172.0
223.668106 168.0
223.947983 192.0
224.067139 244.0
224.125824 184.0
224.222092 172.0
224.313721 184.0
224.47847 144.0
224.675323 180.0
225.060349 164.0
225.135178 196.0
225.170837 192.0
225.397873 184.0
225.588531 96.0
225.61937 220.0
225.644455 240.0
225.714722 168.0
225.875397 252.0
225.912125 144.0
226.438934 144.0
226.564743 168.0
226.825455 184.0
226.888412 176.0
227.082489 116.0
227.169846 128.0
227.209091 164.0
227.381302 176.0
227.514862 172.0
227.601593 160.0
227.936829 136.0
227.959946 140.0
228.122253 268.0
228.177902 196.0
228.53772 136.0
228.696777 224.0
228.784073 152.0
229.012924 168.0
229.175598 148.0
229.217789 164.0
229.269012 220.0
229.458923 340.0
229.576523 196.0
229.921051 156.0
230.07135 140.0
230.243469 140.0
230.300858 152.0
230.340118 140.0
230.378723 180.0
230.581833 156.0
230.77832 176.0
230.819183 140.0
231.095551 132.0
231.164047 200.0
231.316833 192.0
231.985825 280.0
232.003571 156.0
232.030655 128.0
232.086349 224.0
232.107574 148.0
232.295624 208.0
232.560791 176.0
232.583893 168.0
233.054703 136.0
233.09079 152.0
233.152145 644.0
233.223679 184.0
233.300797 144.0
233.328156 148.0
233.391998 140.0
233.704208 324.0
233.784409 168.0
233.827011 152.0
233.906158 180.0
234.003571 148.0
234.055328 232.0
234.154327 192.0
234.519348 176.0
234.707413 164.0
235.04599 208.0
235.161957 152.0
235.528351 144.0
235.675003 172.0
235.736115 180.0
235.98877 128.0
236.064346 208.0
236.378281 152.0
236.549667 176.0
236.674942 1220.0
236.811111 148.0
236.931641 268.0
237.021317 144.0
237.045639 120.0
237.091797 204.0
237.173737 520.0
237.303314 140.0
237.34317 140.0
237.389328 160.0
237.432098 156.0
237.517975 140.0
237.571228 188.0
237.673965 364.0
237.838074 120.0
237.9077 216.0
238.158569 224.0
238.297989 100.0
238.359192 168.0
238.474091 196.0
238.589706 172.0
238.815689 180.0
238.885086 172.0
238.942245 108.0
238.986465 176.0
239.091522 200.0
239.334274 160.0
239.391556 160.0
239.428864 156.0
239.692337 180.0
239.777878 244.0
240.068817 128.0
240.212616 184.0
240.518112 168.0
240.595291 204.0
240.709518 160.0
241.253555 100.0
241.438828 164.0
241.525436 208.0
241.581467 176.0
241.720337 188.0
241.748184 152.0
241.859604 156.0
241.909134 168.0
241.989624 152.0
242.190918 168.0
242.237381 152.0
242.290054 152.0
242.361313 292.0
242.435684 216.0
242.62941 120.0
242.665054 160.0
242.698059 168.0
243.113174 148.0
243.183105 204.0
243.257065 160.0
243.447006 212.0
243.583664 184.0
243.683075 172.0
243.717255 240.0
243.765137 136.0
243.844666 180.0
243.946518 168.0
244.016754 204.0
244.096466 144.0
244.159042 132.0
244.228958 220.0
244.454208 336.0
244.485321 156.0
244.612946 172.0
244.709442 140.0
244.731247 156.0
244.796631 176.0
244.844589 144.0
245.050247 200.0
245.329422 148.0
245.468353 168.0
245.684937 168.0
245.788574 220.0
246.028717 176.0
246.218689 172.0
246.370377 128.0
246.48735 168.0
246.83432 180.0
246.884354 344.0
246.931274 148.0
247.009018 168.0
247.051147 160.0
247.225357 204.0
247.354858 164.0
247.460114 204.0
247.594772 156.0
247.65155 216.0
247.718781 100.0
247.749374 168.0
247.895508 152.0
247.970718 188.0
248.370071 152.0
248.557159 168.0
248.588547 184.0
248.646881 132.0
248.746841 228.0
248.982269 260.0
249.026291 220.0
249.209091 10392.0
249.492523 208.0
249.620132 132.0
249.656372 240.0
249.707947 3124.0
249.911423 284.0
249.968063 264.0
250.174088 188.0
250.211502 312.0
250.249527 276.0
250.623016 228.0
250.68573 160.0
250.705261 160.0
250.773499 116.0
250.981506 136.0
251.054871 172.0
251.106888 228.0
251.206268 216.0
251.407333 200.0
251.499725 164.0
251.591278 160.0
251.663895 244.0
252.136169 188.0
252.336868 172.0
252.417099 128.0
252.506454 172.0
252.545578 148.0
252.817673 140.0
252.839813 240.0
253.036072 140.0
253.191833 128.0
253.482681 156.0
253.559357 248.0
253.590424 180.0
253.73494 136.0
253.958221 196.0
254.040695 192.0
254.151733 144.0
254.197952 276.0
254.45549 124.0
254.48819 148.0
254.578506 192.0
254.619171 132.0
254.853455 172.0
254.974213 164.0
255.069565 180.0
255.215805 164.0
255.387527 180.0
255.572037 164.0
255.927979 136.0
256.078217 188.0
256.107513 196.0
256.342621 236.0
256.393616 240.0
256.543884 136.0
256.70285 184.0
256.743256 184.0
256.809113 208.0
257.047363 144.0
257.166534 228.0
257.334625 172.0
257.446381 232.0
257.478333 148.0
257.853607 296.0
257.962219 248.0
258.10788 284.0
258.191406 160.0
258.242188 168.0
258.37973 160.0
258.478912 168.0
258.613342 156.0
258.643799 312.0
258.757385 140.0
258.788361 212.0
258.837433 208.0
258.87265 144.0
258.93512 248.0
259.006805 108.0
259.162048 176.0
259.245453 204.0
259.288757 112.0
259.311249 244.0
259.344604 208.0
259.397125 196.0
259.498596 164.0
259.5289 160.0
259.625793 172.0
259.649872 312.0
259.699036 104.0
259.722931 192.0
259.754791 260.0
259.804413 120.0
259.896484 216.0
259.955261 320.0
259.999939 312.0
260.07132 540.0
260.122681 612.0
260.20343 199828.0
260.327423 124.0
260.384491 160.0
260.426453 300.0
260.471863 96.0
260.49173 260.0
260.51828 212.0
260.592133 404.0
260.632751 412.0
260.678802 324.0
260.730957 3948.0
260.771851 244.0
260.850037 452.0
260.974609 312.0
261.025879 112.0
261.050385 264.0
261.123322 328.0
261.155334 316.0
261.205475 50776.0
261.329102 172.0
261.351868 168.0
261.375031 164.0
261.420502 96.0
261.559174 276.0
261.614105 324.0
261.688293 100.0
261.797394 268.0
261.859589 120.0
261.905945 136.0
262.165558 232.0
262.207794 5304.0
262.263885 192.0
262.400391 104.0
262.429169 96.0
262.492493 232.0
262.546631 232.0
262.595337 236.0
262.700226 116.0
262.858521 212.0
262.889404 244.0
263.007172 248.0
263.069641 160.0
263.151001 96.0
263.157837 276.0
263.215942 664.0
263.286469 204.0
263.319275 136.0
263.37854 140.0
263.47998 216.0
263.505402 192.0
263.555359 120.0
263.641083 268.0
263.67926 108.0
263.910919 120.0
264.086823 96.0
264.185913 116.0
264.209839 244.0
264.340027 112.0
264.452026 176.0
264.519073 196.0
264.84903 144.0
264.909058 164.0
265.073547 96.0
265.299164 100.0
265.351532 136.0
265.54715 140.0
265.57309 176.0
265.657898 108.0
265.693115 204.0
265.741791 196.0
266.261169 176.0
266.346527 112.0
267.063934 208.0
267.360016 184.0
267.464172 248.0
267.490204 216.0
267.773743 96.0
268.135132 140.0
268.403168 160.0
268.536133 176.0
268.986694 140.0
269.348877 176.0
269.858704 140.0
269.969879 356.0
270.404999 148.0
270.522827 148.0
270.675262 100.0
270.795563 148.0
270.842651 188.0
270.973907 196.0
271.151703 152.0
271.205109 480.0
271.290009 224.0
271.404694 164.0
271.696045 168.0
271.889771 104.0
272.121796 148.0
272.168671 228.0
272.520111 172.0
272.727142 204.0
272.763306 156.0
272.796173 240.0
272.900787 176.0
272.963379 124.0
273.029633 236.0
273.567078 256.0
273.635681 136.0
273.697632 216.0
273.842529 156.0
274.003967 144.0
274.407623 104.0
274.590179 100.0
274.679749 272.0
274.765533 156.0
275.511658 156.0
275.793274 216.0
275.89032 192.0
275.926849 252.0
276.129486 140.0
276.167572 140.0
276.335388 136.0
276.462677 160.0
276.56842 132.0
276.599274 120.0
276.740845 148.0
276.84729 128.0
276.896088 280.0
277.036987 104.0
277.083862 104.0
277.155945 400.0
277.345276 220.0
277.391907 272.0
277.448303 448.0
277.47403 176.0
277.512756 156.0
277.593384 464.0
277.6492 348.0
277.705444 524.0
277.731995 368.0
277.786102 160.0
277.824097 156.0
277.865295 140.0
277.901917 224.0
277.931488 268.0
277.987885 320.0
278.040253 144.0
278.104309 676.0
278.117126 384.0
278.137634 716.0
278.21402 211696.0
278.334351 224.0
278.392914 140.0
278.454865 216.0
278.519348 644.0
278.549927 340.0
278.58847 252.0
278.609131 224.0
278.668915 108.0
278.718781 216.0
278.760162 5192.0
278.797363 288.0
278.882019 256.0
278.957184 100.0
279.008331 112.0
279.033386 296.0
279.091492 368.0
279.140381 336.0
279.218384 106220.0
279.330139 232.0
279.522125 184.0
279.578064 140.0
279.600739 276.0
279.634857 228.0
279.722321 26192.0
279.789673 172.0
279.821045 228.0
279.91568 160.0
279.984558 172.0
280.026672 236.0
280.05545 176.0
280.08725 260.0
280.135101 132.0
280.218964 9712.0
280.351715 192.0
280.431335 104.0
280.516235 140.0
280.569031 192.0
280.667175 172.0
280.720123 616.0
280.790955 180.0
280.830963 312.0
280.874084 348.0
280.906982 192.0
280.968811 136.0
280.987793 100.0
281.022644 224.0
281.051575 188.0
281.10614 196.0
281.130646 448.0
281.156586 416.0
281.21933 344.0
281.265503 220.0
281.305054 128.0
281.344269 316.0
281.416107 112.0
281.49057 96.0
281.519104 152.0
281.6138 144.0
281.720734 160.0
281.753693 120.0
281.909973 116.0
282.043365 152.0
282.106049 144.0
282.138214 96.0
282.228729 148.0
282.258667 108.0
282.340454 196.0
282.430573 196.0
282.646484 120.0
282.784851 168.0
282.819855 168.0
283.017212 112.0
283.506378 120.0
283.747711 96.0
283.800446 96.0
283.937958 176.0
285.109711 180.0
285.512939 128.0
285.58905 200.0
285.83905 164.0
286.921234 164.0
287.108002 200.0
288.122589 248.0
291.009583 164.0
291.220123 212.0
291.918762 120.0
291.976562 128.0
292.101898 140.0
298.276154 144.0
299.33902 108.0
299.528687 160.0
300.266205 316.0
300.590576 176.0
301.261658 152.0
301.648224 204.0
304.264496 212.0
310.025269 204.0
314.121399 208.0
314.382477 140.0
315.247681 224.0
316.706848 112.0
326.244934 136.0
328.227692 140.0
330.825439 164.0
331.105225 116.0
332.255524 292.0
336.269073 136.0
337.483398 156.0
340.299835 1796.0
340.877686 164.0
341.297668 172.0
341.657166 152.0
342.303375 144.0
343.016022 156.0
345.764038 172.0
345.934296 160.0
346.534241 188.0
354.272369 164.0
355.284576 152.0
356.295013 6548.0
357.297272 1760.0
358.302612 604.0
358.34259 120.0
359.290802 144.0
368.219238 176.0
374.128174 212.0
374.301453 164.0
378.888702 220.0
379.607056 180.0
382.248535 140.0
398.30542 1312.0
399.263672 168.0
399.304291 224.0
400.23465 208.0
400.31543 476.0
401.313904 148.0
402.32782 156.0
412.097229 416.0
415.394897 212.0
416.259399 196.0
416.315216 624.0
417.323883 232.0
425.261444 240.0
427.118561 152.0
428.644684 100.0
430.331329 1588.0
431.338531 616.0
432.335297 120.0
451.111847 120.0
458.324951 180.0
459.323242 172.0
459.361633 180.0
467.407715 164.0
472.346466 256.0
472.390869 160.0
472.44278 148.0
473.34967 180.0
484.12442 532.0
485.131317 464.0
496.904083 188.0
617.026184 132.0
667.915405 176.0
989.114014 160.0
1018.289062 144.0
1022.968933 140.0
1028.514648 212.0
1119.691772 152.0
1124.860474 224.0
1132.073364 148.0
1138.450806 140.0
1150.739624 188.0
1170.532104 200.0
1176.388672 164.0
1193.179932 180.0
1202.044556 180.0
1217.96814 248.0
1218.496094 188.0
1234.129395 220.0
1235.528198 196.0
1240.682495 256.0
1242.744507 172.0
1247.182861 148.0
1299.523682 188.0
1311.605469 176.0
1314.612915 168.0
1318.686157 192.0
1321.557007 188.0
1323.960327 144.0
1325.822144 204.0
1330.188477 176.0
1340.691162 172.0
1343.593262 188.0
1348.544189 164.0
1349.172852 152.0
1350.306152 148.0
1352.881836 164.0
1353.899658 248.0
1357.556519 224.0
1360.968628 172.0
1365.921997 188.0
1368.256348 188.0
1372.012085 204.0
1373.007568 152.0
1374.490234 180.0
1377.517334 204.0
1378.322632 268.0
1386.16626 168.0
1391.484497 244.0
1398.494507 204.0
1405.141602 184.0
1408.045288 140.0
1425.508057 140.0
1430.178467 176.0
1434.324097 104.0
1435.12793 160.0
1435.768921 140.0
1438.719238 140.0
1441.385376 256.0
1443.615356 196.0
1445.173584 232.0
1447.398926 156.0
1452.711792 180.0
1460.60437 168.0
1460.847778 172.0
1463.82373 220.0
1466.817871 212.0
1469.464111 148.0
1473.273804 140.0
1475.543579 168.0
1476.575928 272.0
1480.172607 152.0
1488.146973 180.0
1492.911133 144.0
1499.06189 144.0
1503.280151 192.0
1503.743164 156.0
1504.63855 164.0
1508.903198 188.0
1512.008911 228.0
1516.745239 152.0
1521.252075 172.0
1522.009888 172.0
1523.061401 168.0
1524.910645 144.0
1525.400269 172.0
1525.454712 144.0
1535.0271 176.0
1538.26123 160.0
1538.659424 236.0
1540.299316 212.0
1545.858154 192.0
1547.901367 192.0
1548.347656 224.0
1549.091797 196.0
1557.304443 204.0
1559.645874 176.0
1559.960327 224.0
1560.125366 140.0
1563.665039 140.0
1567.019653 216.0
1571.411133 148.0
1571.710938 284.0
1579.342529 196.0
1580.006958 156.0
1582.579224 152.0
1584.662354 160.0
1585.010986 172.0
1589.97522 216.0
1593.222778 140.0
1593.755127 200.0
1600.659424 172.0
1603.248413 228.0
1609.111206 184.0
1612.386353 172.0
1613.449463 184.0
1621.229614 180.0
1623.819092 204.0
1625.070557 180.0
1625.354492 184.0
1626.595337 196.0
1628.048584 180.0
1631.455322 144.0
1631.790161 148.0
1633.208374 152.0
1635.276245 196.0
1638.086304 152.0
1640.673218 156.0
1642.035889 144.0
1644.803467 164.0
1646.668579 208.0
1646.870483 204.0
1647.09668 240.0
1651.05542 156.0
1653.888794 140.0
1656.042603 268.0
1657.281982 168.0
1658.787598 124.0
1664.801514 204.0
1665.305054 172.0
1667.319946 148.0
1672.264893 224.0
1672.346313 168.0
1673.998901 148.0
1676.988892 180.0
1679.279907 164.0
1685.108521 168.0
1685.925659 224.0
1687.421509 164.0
1687.84668 144.0
1689.670532 172.0
1691.290894 176.0
1691.839355 168.0
1692.567993 160.0
1694.189697 188.0
1702.482178 140.0
1705.29187 220.0
1708.062866 144.0
1710.603516 164.0
1714.699219 180.0
1716.330322 144.0
1716.801514 152.0
1717.568481 156.0
1718.409912 228.0
1719.499268 212.0
1720.605347 240.0
1724.983765 140.0
1730.038208 188.0
1730.352783 168.0
1730.634277 168.0
1730.783325 220.0
1732.373535 144.0
1733.931274 164.0
1735.046265 188.0
1735.332153 176.0
1736.841431 168.0
1743.142822 164.0
1744.805176 180.0
1746.335327 148.0
1751.570801 140.0
1758.14917 160.0
1759.626709 152.0
1759.977295 248.0
1762.282593 160.0
1762.509399 148.0
1763.511108 208.0
1767.989868 224.0
1770.354736 172.0
1770.421631 168.0
1771.041382 184.0
1772.046753 200.0
1772.90979 192.0
1772.976807 200.0
1773.638916 188.0
1774.368286 180.0
1778.658813 240.0
1778.864868 212.0
1783.190674 208.0
1786.036743 124.0
1786.957886 148.0
1788.716797 144.0
1789.381836 168.0
1790.535522 260.0
1791.369385 272.0
1792.953369 164.0
1793.889038 164.0
1794.858521 164.0
1795.086182 144.0
1797.545654 144.0
1800.140991 176.0
1801.188232 172.0
1802.430176 148.0
1802.937134 224.0
1803.689331 248.0
1806.522217 152.0
1811.059326 180.0
1817.57019 228.0
1819.0979 148.0
1820.269531 216.0
1822.588501 164.0
1823.455322 168.0
1823.897217 164.0
1824.050293 204.0
1826.932983 180.0
1827.749756 232.0
1829.341309 156.0
1829.766968 184.0
1831.44458 156.0
1833.531982 144.0
1838.290649 164.0
1841.065063 152.0
1843.320312 180.0
1843.525391 200.0
1843.807495 144.0
1847.484131 192.0
1848.442505 204.0
1849.974487 172.0
1852.020996 220.0
1854.668945 124.0
1854.98584 152.0
1855.789307 168.0
1857.395386 260.0
1858.07312 168.0
1858.605103 168.0
1858.802368 152.0
1860.03125 160.0
1860.321533 172.0
1862.348022 216.0
1863.619507 152.0
1872.264526 164.0
1873.765381 204.0
1875.486816 144.0
1880.057983 148.0
1881.896606 188.0
1881.957031 212.0
1882.319702 156.0
1883.77063 156.0
1884.047119 244.0
1885.386353 180.0
1888.997559 216.0
1889.839722 172.0
1890.203125 164.0
1893.085693 160.0
1893.172363 172.0
1894.038452 180.0
1895.030762 256.0
1895.675903 184.0
1896.20459 180.0
1896.507935 168.0
1897.036621 168.0
1899.204468 148.0
1900.002563 156.0
1901.668701 168.0
1901.746704 228.0
1903.708862 172.0
1904.299438 220.0
1904.968262 208.0
1906.18457 188.0
1907.540405 140.0
1909.207886 260.0
1911.123535 184.0
1913.578003 152.0
1918.849121 156.0
1919.503052 140.0
1924.974365 172.0
1925.144287 156.0
1926.031128 188.0
1927.201782 148.0
1928.652466 164.0
1929.002075 160.0
1929.815186 144.0
1930.17041 120.0
1930.584595 140.0
1930.890747 244.0
1932.797852 180.0
1933.104004 228.0
1936.746094 196.0
1937.341797 192.0
1939.032959 144.0
1940.891357 228.0
1943.2771 180.0
1943.970337 140.0
1944.145874 192.0
1944.807007 180.0
1945.48877 184.0
1947.36792 244.0
1948.026733 156.0
1948.729492 156.0
1948.94043 144.0
1949.76001 188.0
1950.575073 236.0
1951.542114 196.0
1954.251099 160.0
1958.485474 212.0
1958.740967 152.0
1959.824585 224.0
1962.451172 212.0
1962.8479 176.0
1963.165405 164.0
1963.403564 160.0
1967.223999 248.0
1969.042969 188.0
1973.160767 232.0
1975.557373 148.0
1976.256348 168.0
1978.439331 164.0
1979.141846 240.0
1979.814819 188.0
1980.434814 212.0
1980.966309 176.0
1981.320557 212.0
1982.250977 164.0
1983.571533 284.0
1985.894653 140.0
1986.01001 148.0
1986.675293 156.0
1988.316772 276.0
1990.571655 160.0
1990.935669 156.0
1991.459717 204.0
1994.596313 156.0
1995.334106 176.0
1996.107666 252.0
1996.552368 160.0
1996.916992 184.0
1997.842041 168.0
1998.536011 144.0
1998.945312 176.0
1999.701782 144.0
