>compound MLS001074210-01!
>formula C19H21N
>ionization [M+H]+
>parentmass 264.175385
#inchi InChI=1S/C19H21N/c1-20-14-6-11-19-17-9-4-2-7-15(17)12-13-16-8-3-5-10-18(16)19/h2-5,7-10,12-13,19-20H,6,11,14H2,1H3
#inchikey BWPIARFWQZKAIA
#origInchi InChI=1S/C19H21N.ClH/c1-20-14-6-11-19-17-9-4-2-7-15(17)12-13-16-8-3-5-10-18(16)19;/h2-5,7-10,12-13,19-20H,6,11,14H2,1H3;1H
#Ion_Source LC-ESI
#Instrument qTof
#Compound_Source NIH Pharmacologically Active Library
#PI Dorrestein
#Data_Collector VP/LMS
#Scan -1
#Precursor_MZ 264.181
#ExactMass 263.167
#Charge 1
#CAS_Number N/A
#Pubmed_ID N/A
#Smiles CNCCCC1c2ccccc2C=Cc3ccccc13.Cl
#INCHI_AUX N/A
#Library_Class 1
#SpectrumID CCMSLIB00000085499
#IonMode Positive
#UpdateWorkflowName UPDATE-SINGLE-ANNOTATED-GOLD
#LibraryQualityString Gold
#TaskID d252d724072548979f1f6f1ced849daf
##Scan# 1741
#SpectrumFile p4-B09_GB9_01_18345.mzXML
#LibraryName Pharm_Active_Library.mgf
#MQScore -1
#Organism Pharm_Active_Library
#TIC_Query 0
#RT_Query -1
#MZErrorPPM -1
#SharedPeaks 0
#MassDiff 0
#LibMZ -1
#SpecMZ 264.181
#SpecCharge 0
#internalFilename spec-00000.mgf

>collision 10
44.906075 164.0
44.926083 128.0
45.035538 196.0
45.047562 124.0
45.0676 172.0
45.091652 224.0
45.111702 196.0
45.127747 184.0
45.141117 44.0
45.166527 244.0
45.179905 188.0
45.18927 148.0
45.21603 184.0
45.265564 192.0
45.285652 120.0
45.328522 104.0
45.363365 100.0
45.396885 132.0
45.433098 72.0
45.477379 148.0
45.496174 116.0
45.560635 92.0
45.58482 148.0
45.611698 156.0
45.621109 336.0
45.64262 100.0
45.691605 204.0
45.715347 176.0
45.72488 184.0
45.739483 224.0
45.759674 128.0
45.781219 176.0
45.799786 168.0
45.822094 152.0
45.878567 192.0
45.893543 112.0
45.918682 176.0
45.933048 196.0
45.942959 184.0
45.976692 248.0
45.992889 60.0
46.025288 164.0
46.104988 160.0
46.118542 132.0
46.206398 252.0
46.231529 224.0
46.329594 184.0
46.343903 392.0
46.389221 136.0
46.414978 108.0
46.443459 192.0
46.557465 132.0
46.603649 144.0
46.66209 244.0
46.687923 152.0
46.712406 168.0
46.728733 124.0
46.742336 144.0
46.804951 220.0
46.844448 176.0
46.941853 164.0
46.969101 232.0
46.99168 184.0
47.077675 140.0
47.103622 44.0
47.118652 164.0
47.133678 208.0
47.16172 176.0
47.188351 196.0
47.199291 168.0
47.240379 180.0
47.326538 228.0
47.34845 64.0
47.385433 128.0
47.421062 128.0
47.450081 188.0
47.470413 60.0
47.614506 156.0
47.657089 204.0
47.672207 188.0
47.684574 140.0
47.775021 180.0
47.786331 108.0
47.897839 120.0
47.911613 152.0
47.946167 156.0
48.008099 88.0
48.039822 176.0
48.061893 200.0
48.076752 172.0
48.118793 160.0
48.132088 276.0
48.135708 236.0
48.179249 160.0
48.198589 140.0
48.235905 52.0
48.245583 136.0
48.27047 200.0
48.343784 148.0
48.399155 124.0
48.442085 152.0
48.491966 148.0
48.51276 176.0
48.600132 224.0
48.640377 124.0
48.67231 180.0
48.705921 144.0
48.759823 180.0
48.775112 196.0
48.822384 116.0
48.971195 160.0
49.068844 176.0
49.107368 128.0
49.116257 172.0
49.146946 140.0
49.1609 160.0
49.21534 172.0
49.252136 172.0
49.303341 176.0
49.367649 212.0
49.405579 136.0
49.440392 144.0
49.493587 60.0
49.514591 188.0
49.529999 108.0
49.572029 188.0
49.591648 204.0
49.640717 160.0
49.855495 192.0
49.868141 44.0
49.920158 100.0
49.937035 144.0
49.955368 120.0
49.972202 148.0
50.004566 216.0
50.039761 224.0
50.132694 192.0
50.136589 188.0
50.224361 120.0
50.283623 160.0
50.296326 124.0
50.325508 172.0
50.365513 128.0
50.444641 184.0
50.458778 148.0
50.470089 224.0
50.48423 172.0
50.525246 172.0
50.539394 144.0
50.573845 140.0
50.591759 184.0
50.61866 212.0
50.669651 184.0
50.839802 172.0
50.87516 128.0
50.880352 204.0
50.885506 140.0
50.998863 328.0
51.0145 156.0
51.057156 164.0
51.096981 192.0
51.155685 160.0
51.236504 96.0
51.256447 244.0
51.28495 272.0
51.329144 248.0
51.345669 240.0
51.355438 64.0
51.369938 212.0
51.396183 52.0
51.421101 244.0
51.464695 136.0
51.506111 148.0
51.544685 152.0
51.574696 196.0
51.620445 200.0
51.664783 72.0
51.706276 88.0
51.737766 216.0
51.790749 60.0
51.855225 140.0
51.915436 164.0
51.929779 156.0
52.041031 136.0
52.060375 180.0
52.087662 164.0
52.109211 144.0
52.139389 188.0
52.172245 200.0
52.176559 172.0
52.194012 176.0
52.215584 164.0
52.250385 148.0
52.335022 220.0
52.346539 128.0
52.377064 144.0
52.411358 116.0
52.432972 132.0
52.445946 108.0
52.463242 128.0
52.510826 204.0
52.620495 52.0
52.671276 168.0
52.68837 92.0
52.777821 160.0
52.818474 128.0
52.928459 172.0
53.079155 232.0
53.090755 148.0
53.142975 208.0
53.166191 124.0
53.234936 360.0
53.246578 204.0
53.259914 168.0
53.31868 188.0
53.339027 116.0
53.350655 152.0
53.384098 156.0
53.40591 152.0
53.429184 136.0
53.443161 152.0
53.473099 180.0
53.536896 68.0
53.557285 184.0
53.592247 164.0
53.717625 232.0
53.778908 168.0
53.806641 64.0
53.872101 68.0
53.884045 156.0
53.895733 180.0
53.946888 152.0
53.973202 232.0
54.075432 268.0
54.088776 48.0
54.115128 184.0
54.140423 160.0
54.238182 152.0
54.285095 152.0
54.302696 136.0
54.324696 116.0
54.373116 200.0
54.405407 168.0
54.43771 176.0
54.465614 152.0
54.484711 200.0
54.496464 148.0
54.54055 192.0
54.558189 224.0
54.612598 168.0
54.630249 116.0
54.652943 216.0
54.709713 132.0
54.770088 116.0
54.798077 76.0
54.863544 256.0
54.905571 176.0
55.003059 144.0
55.025204 36.0
55.110867 160.0
55.236526 176.0
55.294228 128.0
55.402321 144.0
55.417133 88.0
55.442326 204.0
55.457146 168.0
55.523861 152.0
55.577263 196.0
55.592499 164.0
55.704941 120.0
55.71534 180.0
55.745052 252.0
55.849121 152.0
55.88036 152.0
55.896473 304.0
55.910122 112.0
55.930958 168.0
55.9786 116.0
55.997959 156.0
56.014343 148.0
56.064999 148.0
56.079903 128.0
56.142292 184.0
56.204563 256.0
56.21711 72.0
56.257408 100.0
56.3022 172.0
56.367928 112.0
56.465096 92.0
56.4995 136.0
56.530922 148.0
56.558208 188.0
56.569836 132.0
56.586304 216.0
56.683659 80.0
56.695648 40.0
56.757107 88.0
56.794598 380.0
56.849388 164.0
56.865833 136.0
56.938683 144.0
57.030464 176.0
57.058743 204.0
57.152138 120.0
57.16267 132.0
57.191265 144.0
57.233418 156.0
57.314754 124.0
57.356953 148.0
57.405197 124.0
57.450157 276.0
57.467037 188.0
57.489674 156.0
57.51231 136.0
57.525894 188.0
57.57119 140.0
57.639168 124.0
57.708534 188.0
57.738457 164.0
57.763138 160.0
57.791882 204.0
57.81155 120.0
57.844849 48.0
57.8615 144.0
57.9039 44.0
57.934891 200.0
57.947826 172.0
58.053932 144.0
58.231491 144.0
58.245159 156.0
58.267948 68.0
58.312878 148.0
58.378906 148.0
58.439747 28.0
58.549347 180.0
58.581333 84.0
58.607548 168.0
58.653458 228.0
58.733761 212.0
58.77953 80.0
58.791737 168.0
58.829895 112.0
58.861958 164.0
58.907776 200.0
59.033104 164.0
59.078987 152.0
59.173172 140.0
59.201431 156.0
59.258106 196.0
59.305611 72.0
59.321323 128.0
59.342403 148.0
59.39761 44.0
59.412174 156.0
59.445171 160.0
59.477398 140.0
59.512707 200.0
59.56953 132.0
59.630993 172.0
59.729008 160.0
59.758621 132.0
59.780163 136.0
59.798634 168.0
59.823261 216.0
59.850971 140.0
59.86483 168.0
59.915657 176.0
59.946472 36.0
59.97884 212.0
60.032799 180.0
60.048531 120.0
60.065186 92.0
60.094498 172.0
60.176296 256.0
60.221535 176.0
60.274826 192.0
60.290604 52.0
60.303703 184.0
60.315331 164.0
60.326153 56.0
60.415844 144.0
60.428219 132.0
60.442146 196.0
60.513344 128.0
60.581486 164.0
60.593452 160.0
60.669552 188.0
60.689137 172.0
60.733288 176.0
60.76442 176.0
60.828045 92.0
60.862198 152.0
60.873066 228.0
60.988033 132.0
61.011349 132.0
61.022232 96.0
61.057995 156.0
61.079769 160.0
61.099991 168.0
61.204601 208.0
61.243202 184.0
61.283108 104.0
61.298111 180.0
61.319546 160.0
61.36631 136.0
61.386581 176.0
61.414654 184.0
61.430252 124.0
61.450531 100.0
61.466976 112.0
61.511395 136.0
61.536373 148.0
61.580093 164.0
61.606647 128.0
61.619148 160.0
61.802074 88.0
61.867805 112.0
61.885029 92.0
61.945568 176.0
61.977436 76.0
61.989975 52.0
62.008778 228.0
62.110691 188.0
62.189144 52.0
62.215828 172.0
62.226818 236.0
62.247231 188.0
62.26125 168.0
62.330482 144.0
62.390205 156.0
62.402782 172.0
62.550659 140.0
62.624664 164.0
62.746433 136.0
62.78384 120.0
62.804344 124.0
62.829582 224.0
62.859562 156.0
62.886387 112.0
62.905331 112.0
62.929008 100.0
62.96217 120.0
62.977962 112.0
62.996918 192.0
63.091736 224.0
63.124939 136.0
63.142334 144.0
63.262585 128.0
63.396877 188.0
63.436836 56.0
63.459034 128.0
63.483418 116.0
63.516121 124.0
63.587173 164.0
63.646255 136.0
63.687122 196.0
63.698666 116.0
63.736794 196.0
63.822456 152.0
63.831905 196.0
63.854427 108.0
63.902149 120.0
63.977478 168.0
64.007202 160.0
64.112335 152.0
64.2686 124.0
64.284561 80.0
64.300522 284.0
64.364372 216.0
64.383537 204.0
64.396614 192.0
64.423462 272.0
64.452225 176.0
64.473 156.0
64.525742 204.0
64.551331 216.0
64.58651 172.0
64.607307 268.0
64.644104 152.0
64.719337 104.0
64.773788 192.0
64.791412 160.0
64.817047 128.0
64.853905 172.0
64.866653 172.0
64.899025 192.0
64.987007 132.0
65.031937 112.0
65.054405 216.0
65.065643 168.0
65.15097 152.0
65.274513 128.0
65.31955 232.0
65.494995 296.0
65.551384 192.0
65.612633 136.0
65.630363 76.0
65.649719 132.0
65.686729 228.0
65.690697 384.0
65.798157 260.0
65.814308 160.0
65.836914 152.0
65.848221 140.0
65.874062 124.0
65.911217 132.0
65.924149 160.0
65.980721 248.0
66.004967 128.0
66.021141 160.0
66.034081 48.0
66.068047 180.0
66.090698 60.0
66.161911 156.0
66.174858 172.0
66.187813 192.0
66.214027 168.0
66.281761 188.0
66.293106 148.0
66.339249 220.0
66.395233 148.0
66.450386 160.0
66.505463 204.0
66.53315 212.0
66.562378 168.0
66.585114 144.0
66.610466 216.0
66.661606 212.0
66.760628 168.0
66.772011 244.0
66.860306 204.0
66.876137 136.0
66.931976 240.0
66.965683 132.0
67.009666 172.0
67.081367 172.0
67.111946 212.0
67.154747 168.0
67.179214 100.0
67.282021 236.0
67.295082 144.0
67.306511 156.0
67.347336 176.0
67.381691 144.0
67.450279 132.0
67.4748 176.0
67.527122 116.0
67.56311 108.0
67.605721 184.0
67.695686 160.0
67.716972 188.0
67.738266 168.0
67.808723 144.0
67.852982 216.0
67.86602 176.0
67.959587 168.0
67.990341 216.0
68.038361 140.0
68.051498 132.0
68.113899 248.0
68.136902 128.0
68.207565 152.0
68.292267 224.0
68.316093 148.0
68.331795 168.0
68.368744 136.0
68.429642 236.0
68.47081 180.0
68.502106 184.0
68.530113 116.0
68.546593 188.0
68.558121 124.0
68.584496 208.0
68.627357 124.0
68.643845 84.0
68.683426 232.0
68.718071 164.0
68.747765 120.0
68.779747 276.0
68.975685 172.0
69.002136 184.0
69.030243 56.0
69.060013 80.0
69.077377 112.0
69.091438 72.0
69.106331 156.0
69.124535 232.0
69.155975 164.0
69.227165 160.0
69.410843 156.0
69.502327 212.0
69.527786 140.0
69.570374 132.0
69.593849 172.0
69.664024 216.0
69.691612 52.0
69.714874 184.0
69.758087 60.0
69.773048 140.0
69.846214 152.0
69.914429 180.0
70.013939 176.0
70.054291 108.0
70.070946 220.0
70.082611 192.0
70.09861 260.0
70.145943 288.0
70.197624 84.0
70.219299 192.0
70.275185 180.0
70.292419 164.0
70.324409 80.0
70.343216 212.0
70.440674 176.0
70.573318 212.0
70.589203 152.0
70.684982 184.0
70.721863 176.0
70.738945 184.0
70.789169 172.0
70.818581 184.0
70.83271 144.0
70.844437 172.0
70.919846 124.0
70.951225 172.0
70.976845 156.0
71.032188 132.0
71.087547 184.0
71.144615 152.0
71.158928 168.0
71.198647 156.0
71.263855 156.0
71.331078 68.0
71.373108 156.0
71.393288 112.0
71.470665 140.0
71.509369 148.0
71.69799 140.0
71.753616 40.0
71.777222 76.0
71.821068 232.0
71.853119 152.0
71.88855 196.0
71.905426 156.0
71.942566 152.0
72.014053 212.0
72.025826 164.0
72.152039 172.0
72.182472 116.0
72.237442 268.0
72.302582 124.0
72.363518 156.0
72.417709 260.0
72.489845 200.0
72.563438 124.0
72.604134 144.0
72.627876 192.0
72.716103 168.0
72.730301 176.0
72.759453 156.0
72.911407 28.0
72.930107 176.0
72.959 152.0
72.979401 196.0
73.05764 120.0
73.071243 212.0
73.105278 188.0
73.154633 52.0
73.217636 196.0
73.272141 204.0
73.284065 136.0
73.327446 172.0
73.367577 180.0
73.399971 192.0
73.449425 216.0
73.473305 132.0
73.667923 100.0
73.773872 92.0
73.837135 220.0
73.857658 112.0
73.878181 220.0
73.912399 128.0
73.932938 144.0
73.965454 152.0
74.016815 168.0
74.037361 56.0
74.055077 268.0
74.093887 164.0
74.117874 136.0
74.188599 120.0
74.215576 124.0
74.2827 168.0
74.398323 144.0
74.416313 160.0
74.430054 56.0
74.450661 84.0
74.469551 156.0
74.488724 220.0
74.502182 148.0
74.542732 204.0
74.576073 132.0
74.72052 176.0
74.758369 164.0
74.792793 208.0
74.832382 204.0
74.86338 152.0
74.889214 80.0
74.960915 360.0
74.998856 208.0
75.07534 200.0
75.102936 80.0
75.120186 112.0
75.239258 160.0
75.254799 248.0
75.291054 116.0
75.354965 60.0
75.451752 208.0
75.482872 192.0
75.517456 108.0
75.562431 168.0
75.609154 204.0
75.636848 128.0
75.707832 120.0
75.719955 120.0
75.74247 48.0
75.766724 92.0
75.837769 124.0
75.870705 128.0
75.915779 148.0
75.955421 112.0
76.014275 180.0
76.04763 188.0
76.091026 152.0
76.133835 252.0
76.162224 200.0
76.190018 164.0
76.246628 176.0
76.268219 168.0
76.311676 192.0
76.34993 228.0
76.387901 188.0
76.485634 296.0
76.503044 144.0
76.52742 88.0
76.610138 140.0
76.650146 164.0
76.668556 140.0
76.705109 144.0
76.770767 188.0
76.791878 168.0
76.814964 148.0
76.895226 220.0
76.909187 224.0
77.125778 196.0
77.146751 112.0
77.16423 156.0
77.188713 180.0
77.204453 152.0
77.25692 128.0
77.312912 180.0
77.342667 104.0
77.368919 108.0
77.384674 176.0
77.40744 172.0
77.449471 204.0
77.556351 148.0
77.596359 112.0
77.635246 192.0
77.647522 188.0
77.703651 204.0
77.793152 144.0
77.816284 160.0
77.88446 204.0
77.923111 132.0
77.977585 200.0
78.036819 260.0
78.086967 204.0
78.121765 220.0
78.141113 204.0
78.192146 180.0
78.214127 212.0
78.253754 132.0
78.273125 64.0
78.300827 208.0
78.366478 108.0
78.397682 156.0
78.419342 124.0
78.460075 180.0
78.572754 156.0
78.590393 236.0
78.60804 68.0
78.639801 128.0
78.660767 144.0
78.694527 64.0
78.731316 120.0
78.75457 136.0
78.795197 168.0
78.862343 168.0
78.874718 48.0
78.950455 148.0
79.049805 196.0
79.148933 168.0
79.170181 136.0
79.19809 116.0
79.219772 120.0
79.280571 64.0
79.475067 52.0
79.48896 168.0
79.581558 244.0
79.595764 184.0
79.617073 128.0
79.652596 188.0
79.894356 156.0
79.976204 168.0
79.992226 56.0
80.008247 128.0
80.07235 228.0
80.120445 128.0
80.138618 200.0
80.156075 184.0
80.230934 156.0
80.256828 188.0
80.284424 212.0
80.349548 212.0
80.386108 132.0
80.420013 124.0
80.443214 172.0
80.533981 168.0
80.611099 168.0
80.627182 156.0
80.650421 108.0
80.687958 172.0
80.723717 128.0
80.75293 204.0
80.793472 152.0
80.827217 248.0
80.842552 164.0
80.86956 252.0
80.876328 132.0
80.883255 160.0
80.911896 164.0
80.929489 184.0
81.052483 216.0
81.074585 152.0
81.133728 200.0
81.188904 140.0
81.257477 208.0
81.336433 160.0
81.36998 168.0
81.425415 388.0
81.448883 224.0
81.462128 136.0
81.505249 156.0
81.551971 212.0
81.569267 180.0
81.593277 180.0
81.656631 180.0
81.670639 84.0
81.715614 176.0
81.756996 216.0
81.875816 216.0
81.88842 148.0
81.901901 148.0
81.974892 136.0
82.03978 148.0
82.061409 144.0
82.093864 164.0
82.1101 208.0
82.124527 188.0
82.137154 200.0
82.166016 192.0
82.184059 132.0
82.205711 160.0
82.220146 120.0
82.243568 180.0
82.319435 164.0
82.389877 136.0
82.472992 200.0
82.49649 184.0
82.518188 72.0
82.541382 164.0
82.570625 164.0
82.592331 140.0
82.614037 204.0
82.62851 164.0
82.663811 188.0
82.740715 148.0
82.769684 168.0
82.845108 292.0
82.898293 136.0
82.936356 156.0
82.953674 208.0
82.985298 152.0
83.022537 172.0
83.090492 192.0
83.1903 132.0
83.204826 140.0
83.222321 220.0
83.257744 196.0
83.335587 160.0
83.369934 164.0
83.422089 188.0
83.438095 220.0
83.466728 188.0
83.508278 132.0
83.619263 84.0
83.652023 120.0
83.69754 136.0
83.721214 120.0
83.750351 160.0
83.776665 188.0
83.82869 196.0
83.888832 112.0
83.975609 184.0
84.056892 164.0
84.10067 120.0
84.127808 164.0
84.175278 240.0
84.286697 68.0
84.30497 168.0
84.337868 180.0
84.50428 172.0
84.595779 216.0
84.639717 108.0
84.652534 92.0
84.700157 56.0
84.767319 176.0
84.802765 184.0
84.864143 116.0
84.956787 208.0
84.987976 188.0
85.088921 140.0
85.165131 104.0
85.316727 176.0
85.335106 52.0
85.37188 120.0
85.403145 152.0
85.419701 232.0
85.443619 136.0
85.51078 176.0
85.570602 48.0
85.598221 148.0
85.635056 132.0
85.652603 144.0
85.668213 132.0
85.70874 88.0
85.73085 156.0
85.7714 204.0
85.858055 176.0
85.990883 240.0
86.031494 308.0
86.06842 140.0
86.123817 132.0
86.17807 208.0
86.203262 184.0
86.245766 348.0
86.397095 148.0
86.456604 80.0
86.50103 180.0
86.515839 72.0
86.551262 180.0
86.593605 220.0
86.69735 128.0
86.752953 204.0
86.773346 84.0
86.790031 160.0
86.854942 168.0
86.886848 240.0
86.951424 144.0
87.012672 196.0
87.090668 168.0
87.111099 180.0
87.144012 200.0
87.204002 104.0
87.274643 96.0
87.354614 184.0
87.369492 172.0
87.405098 204.0
87.425316 176.0
87.505585 160.0
87.568665 184.0
87.60778 168.0
87.659988 184.0
87.698524 240.0
87.725433 88.0
87.741089 172.0
87.77179 104.0
87.799759 152.0
87.887436 196.0
87.90609 164.0
87.975151 212.0
88.023689 160.0
88.08532 172.0
88.117081 212.0
88.176872 180.0
88.262863 256.0
88.28344 80.0
88.39006 184.0
88.46637 212.0
88.539818 36.0
88.558548 128.0
88.597031 116.0
88.618492 148.0
88.661591 52.0
88.678459 228.0
88.71476 152.0
88.800323 216.0
88.834747 184.0
88.886612 188.0
88.912888 156.0
88.95134 92.0
88.995483 260.0
89.061211 172.0
89.08345 152.0
89.134476 36.0
89.157028 84.0
89.217171 172.0
89.249878 288.0
89.271698 136.0
89.3601 196.0
89.387459 188.0
89.401497 152.0
89.422195 132.0
89.441017 160.0
89.482437 56.0
89.546455 140.0
89.674576 184.0
89.702843 192.0
89.738663 204.0
89.753746 132.0
89.768692 160.0
89.829185 152.0
89.846161 196.0
89.883896 112.0
89.951843 112.0
89.966942 116.0
89.987709 152.0
90.016998 188.0
90.050026 116.0
90.204964 184.0
90.225754 200.0
90.240883 164.0
90.303284 232.0
90.373276 160.0
90.429726 192.0
90.487465 176.0
90.549316 80.0
90.562576 104.0
90.697105 64.0
90.750183 128.0
90.826035 184.0
90.863976 132.0
90.993034 124.0
91.013916 324.0
91.055244 3908.0
91.094582 164.0
91.110779 232.0
91.127876 280.0
91.165878 196.0
91.190582 160.0
91.213783 232.0
91.348404 156.0
91.434021 156.0
91.523491 172.0
91.559669 212.0
91.58062 164.0
91.622528 132.0
91.706367 148.0
91.721619 184.0
91.862724 76.0
91.883705 132.0
91.933319 148.0
91.994392 152.0
92.013062 36.0
92.036392 184.0
92.056717 288.0
92.074448 164.0
92.12616 144.0
92.21405 192.0
92.256104 160.0
92.280952 120.0
92.326851 156.0
92.367012 204.0
92.401443 136.0
92.497131 116.0
92.541161 136.0
92.585197 168.0
92.60244 148.0
92.616798 160.0
92.645302 148.0
92.677147 168.0
92.696304 208.0
92.728882 164.0
92.824738 152.0
92.84137 160.0
92.865013 176.0
92.899536 124.0
92.972816 164.0
93.052902 192.0
93.106346 224.0
93.135635 212.0
93.155434 144.0
93.210617 268.0
93.288322 156.0
93.306664 128.0
93.331657 172.0
93.352806 136.0
93.468224 204.0
93.497086 148.0
93.52018 128.0
93.533653 136.0
93.581985 228.0
93.626373 180.0
93.655121 196.0
93.677422 132.0
93.691559 192.0
93.739723 184.0
93.80407 256.0
93.84166 244.0
93.857307 216.0
93.951813 168.0
94.015488 196.0
94.028992 180.0
94.065109 208.0
94.106056 152.0
94.204697 208.0
94.246056 256.0
94.261078 176.0
94.328369 100.0
94.380569 108.0
94.425591 184.0
94.461792 116.0
94.517899 188.0
94.539185 196.0
94.57209 132.0
94.61467 180.0
94.643089 212.0
94.663078 216.0
94.68692 180.0
94.771545 144.0
94.967613 144.0
94.988678 208.0
95.021652 168.0
95.043137 164.0
95.180809 208.0
95.197289 156.0
95.281807 160.0
95.318718 128.0
95.348068 156.0
95.402985 112.0
95.429512 188.0
95.540367 128.0
95.561768 100.0
95.592896 128.0
95.616249 124.0
95.756424 136.0
95.80439 200.0
95.840187 192.0
95.855019 212.0
95.964928 140.0
95.98053 108.0
96.025383 172.0
96.107307 172.0
96.156097 156.0
96.204895 184.0
96.228317 124.0
96.255653 108.0
96.275185 132.0
96.394341 148.0
96.413673 148.0
96.443199 60.0
96.468613 96.0
96.552689 152.0
96.644623 352.0
96.67202 284.0
96.715073 160.0
96.744438 128.0
96.854095 172.0
96.987328 32.0
97.057907 56.0
97.101044 200.0
97.120659 128.0
97.136353 68.0
97.165779 152.0
97.258003 248.0
97.316803 164.0
97.358131 48.0
97.37188 136.0
97.42688 148.0
97.446526 160.0
97.505478 184.0
97.52906 172.0
97.660797 88.0
97.686363 96.0
97.709969 200.0
97.761131 152.0
97.780807 84.0
97.824112 196.0
97.885147 104.0
97.913261 188.0
97.934082 160.0
97.94474 184.0
97.975746 228.0
97.989532 144.0
98.019089 184.0
98.066383 244.0
98.094704 168.0
98.162987 140.0
98.208344 84.0
98.23201 116.0
98.259628 196.0
98.30896 204.0
98.362137 208.0
98.390984 208.0
98.426811 188.0
98.530098 120.0
98.569618 168.0
98.617043 104.0
98.682281 100.0
98.70639 164.0
98.725731 160.0
98.755447 252.0
98.832596 148.0
98.957291 336.0
98.976982 148.0
99.004814 200.0
99.040459 160.0
99.102303 184.0
99.13604 148.0
99.157356 44.0
99.187088 208.0
99.220787 92.0
99.25412 172.0
99.276306 124.0
99.367546 124.0
99.402458 248.0
99.429054 52.0
99.461777 196.0
99.544197 196.0
99.56604 132.0
99.601791 244.0
99.631584 200.0
99.687218 180.0
99.78064 224.0
99.818413 204.0
99.884781 180.0
99.955666 176.0
99.991486 184.0
100.091019 172.0
100.15873 192.0
100.188354 188.0
100.22876 208.0
100.248383 188.0
100.290237 124.0
100.312164 164.0
100.332092 168.0
100.355042 212.0
100.381943 212.0
100.433792 144.0
100.635345 160.0
100.6633 188.0
100.681274 172.0
100.753181 152.0
100.793137 224.0
100.8451 232.0
100.863083 144.0
100.890617 248.0
100.914032 124.0
100.931061 156.0
101.081078 140.0
101.125107 184.0
101.177147 136.0
101.237061 156.0
101.354439 184.0
101.411507 152.0
101.515755 92.0
101.535812 108.0
101.577339 340.0
101.668221 152.0
101.82682 168.0
101.885071 168.0
101.953384 200.0
101.979507 140.0
102.003632 116.0
102.051559 200.0
102.094101 140.0
102.11824 160.0
102.176575 160.0
102.1987 112.0
102.218826 100.0
102.414101 128.0
102.52491 92.0
102.563202 328.0
102.589409 176.0
102.62455 212.0
102.651909 212.0
102.686195 156.0
102.720078 160.0
102.786369 176.0
102.841545 120.0
102.86779 140.0
102.896049 208.0
102.924316 176.0
102.997017 140.0
103.055153 2140.0
103.081642 156.0
103.10006 120.0
103.128349 92.0
103.154625 160.0
103.174744 164.0
103.263817 136.0
103.310081 192.0
103.404526 196.0
103.526901 156.0
103.58564 188.0
103.701134 156.0
103.719376 216.0
103.820747 216.0
103.849136 40.0
103.883621 96.0
103.924026 236.0
103.94043 296.0
103.997253 152.0
104.058189 572.0
104.094696 176.0
104.126846 120.0
104.189926 176.0
104.212502 216.0
104.269402 192.0
104.297859 52.0
104.32428 172.0
104.358841 172.0
104.40551 156.0
104.531731 128.0
104.546356 216.0
104.568367 92.0
104.60907 148.0
104.629433 144.0
104.665649 228.0
104.704765 116.0
104.719986 180.0
104.804581 112.0
104.85553 164.0
104.920753 72.0
104.990082 120.0
105.016594 116.0
105.036987 200.0
105.070457 4000.0
105.092072 164.0
105.16349 76.0
105.226776 48.0
105.253319 168.0
105.300285 200.0
105.353394 208.0
105.408554 112.0
105.48114 132.0
105.544266 152.0
105.568001 156.0
105.586403 136.0
105.602768 76.0
105.723473 156.0
105.737793 76.0
105.760307 136.0
105.79261 164.0
105.821724 252.0
105.858582 276.0
105.879959 208.0
106.075035 452.0
106.126999 148.0
106.192619 160.0
106.219284 156.0
106.284935 144.0
106.302971 152.0
106.362923 132.0
106.385841 144.0
106.403976 184.0
106.590881 192.0
106.617805 120.0
106.687477 216.0
106.731972 208.0
106.824066 172.0
106.843773 164.0
107.016655 132.0
107.049828 144.0
107.08049 224.0
107.136101 228.0
107.158646 212.0
107.212334 184.0
107.277084 180.0
107.313339 148.0
107.327774 132.0
107.342209 176.0
107.401131 140.0
107.445335 144.0
107.521675 72.0
107.60424 132.0
107.631088 128.0
107.773605 128.0
107.828392 144.0
107.862465 56.0
107.907944 156.0
107.936897 88.0
107.956253 220.0
108.110657 128.0
108.138824 124.0
108.24321 220.0
108.330124 136.0
108.34462 60.0
108.404709 184.0
108.448616 192.0
108.466881 164.0
108.504196 196.0
108.595436 116.0
108.692429 232.0
108.838867 224.0
108.854843 84.0
109.070908 180.0
109.097931 136.0
109.174866 108.0
109.206062 224.0
109.221619 172.0
109.245583 192.0
109.341293 128.0
109.357941 60.0
109.432884 172.0
109.480408 160.0
109.512016 128.0
109.589088 292.0
109.607841 128.0
109.634933 52.0
109.651604 168.0
109.709969 172.0
109.764175 176.0
109.780853 344.0
109.803795 172.0
109.832993 216.0
109.862198 136.0
109.88932 176.0
109.91243 156.0
109.999924 116.0
110.139999 144.0
110.250557 200.0
110.269363 144.0
110.294441 172.0
110.363434 132.0
110.457542 44.0
110.509842 160.0
110.576805 228.0
110.652161 192.0
110.854233 168.0
110.909119 192.0
110.939163 124.0
110.962227 172.0
110.977997 148.0
111.028885 172.0
111.134209 172.0
111.211853 184.0
111.23494 212.0
111.274673 148.0
111.396965 152.0
111.447052 136.0
111.520599 96.0
111.57946 112.0
111.602585 48.0
111.648849 124.0
111.672287 136.0
111.729637 176.0
111.751915 132.0
111.781372 188.0
111.817146 128.0
111.945564 140.0
111.970833 424.0
112.021652 160.0
112.080376 124.0
112.154137 196.0
112.194183 148.0
112.217377 160.0
112.350243 116.0
112.375557 192.0
112.462074 68.0
112.78524 160.0
112.818626 176.0
112.837463 164.0
112.872505 200.0
112.895172 168.0
112.909981 216.0
112.956512 148.0
113.068649 92.0
113.102509 120.0
113.139084 172.0
113.31427 132.0
113.397408 172.0
113.514305 168.0
113.535957 236.0
113.568649 144.0
113.723534 176.0
113.763863 152.0
113.802078 188.0
113.829681 64.0
113.855164 164.0
113.871613 220.0
113.946503 112.0
114.010246 168.0
114.078262 156.0
114.134438 232.0
114.167557 180.0
114.195206 188.0
114.210091 216.0
114.250511 116.0
114.267532 144.0
114.297318 80.0
114.369675 132.0
114.42379 152.0
114.50106 208.0
114.533623 100.0
114.561317 128.0
114.603928 244.0
114.657196 212.0
114.676376 152.0
114.693428 220.0
114.721138 192.0
114.774017 204.0
114.814957 160.0
114.871208 332.0
114.896011 160.0
114.921608 184.0
114.979225 180.0
115.055267 10576.0
115.132645 152.0
115.17778 72.0
115.201279 28.0
115.282471 344.0
115.363686 156.0
115.440659 220.0
115.46846 76.0
115.532478 208.0
115.545677 160.0
115.597015 84.0
115.639618 136.0
115.742371 188.0
115.791626 176.0
115.925194 240.0
115.980164 112.0
116.007683 172.0
116.059792 1200.0
116.09594 216.0
116.160278 156.0
116.216057 116.0
116.299751 212.0
116.381325 176.0
116.40065 96.0
116.422127 148.0
116.437157 184.0
116.458633 152.0
116.486557 48.0
116.540268 368.0
116.591835 212.0
116.611183 124.0
116.675667 44.0
116.705765 148.0
116.756767 100.0
116.793938 140.0
116.824051 160.0
116.858475 104.0
116.906914 216.0
116.942398 320.0
116.95961 172.0
117.007896 316.0
117.024193 224.0
117.041252 156.0
117.070923 15220.0
117.119545 72.0
117.139801 164.0
117.159874 180.0
117.185043 196.0
117.268097 160.0
117.296249 140.0
117.321503 176.0
117.335083 160.0
117.371086 152.0
117.437943 168.0
117.474609 136.0
117.534615 192.0
117.646477 180.0
117.67099 188.0
117.730843 184.0
117.760277 172.0
117.796249 136.0
117.831429 168.0
117.876183 128.0
117.915085 148.0
117.995064 124.0
118.074417 1160.0
118.111832 76.0
118.132828 204.0
118.191879 208.0
118.382362 176.0
118.432175 168.0
118.466835 196.0
118.516663 76.0
118.559998 184.0
118.631523 360.0
118.685722 28.0
118.75946 44.0
118.778976 144.0
118.81369 56.0
118.837555 100.0
118.86142 116.0
118.948227 112.0
118.98513 96.0
119.045929 148.0
119.061127 224.0
119.082458 156.0
119.117599 200.0
119.152359 32.0
119.191032 220.0
119.280571 192.0
119.380577 92.0
119.513268 164.0
119.535027 172.0
119.578552 92.0
119.595963 168.0
119.637321 188.0
119.660439 220.0
119.713524 132.0
119.833321 128.0
119.863831 176.0
119.881264 172.0
120.042572 144.0
120.067337 336.0
120.086472 124.0
120.123268 148.0
120.145081 108.0
120.193077 176.0
120.212723 140.0
120.282562 56.0
120.30439 100.0
120.409195 108.0
120.452873 132.0
120.490013 192.0
120.555565 168.0
120.579605 112.0
120.680153 184.0
120.721703 136.0
120.796059 112.0
120.824501 184.0
120.874825 176.0
120.897194 144.0
120.952232 216.0
120.975502 156.0
121.047745 244.0
121.06308 184.0
121.130974 172.0
121.271202 200.0
121.325104 80.0
121.343544 184.0
121.418091 228.0
121.475121 192.0
121.506378 176.0
121.540939 112.0
121.595795 132.0
121.631439 236.0
121.670425 68.0
121.687988 136.0
121.705559 180.0
121.720924 160.0
121.808777 156.0
121.852707 148.0
121.982422 164.0
122.04612 76.0
122.0923 156.0
122.266098 172.0
122.366615 120.0
122.420982 224.0
122.44442 220.0
122.492508 184.0
122.554558 52.0
122.576591 148.0
122.725578 176.0
122.82103 64.0
122.833214 144.0
122.849983 212.0
122.896309 152.0
122.934349 140.0
123.013275 160.0
123.041573 176.0
123.047859 144.0
123.092758 192.0
123.172783 136.0
123.231911 172.0
123.267258 316.0
123.3424 148.0
123.402092 192.0
123.464005 164.0
123.50795 156.0
123.680824 168.0
123.782661 220.0
123.864601 132.0
123.931061 220.0
123.995323 116.0
124.097878 152.0
124.126114 164.0
124.217049 116.0
124.265854 200.0
124.305794 176.0
124.354614 164.0
124.376808 104.0
124.418983 116.0
124.486588 204.0
124.516685 144.0
124.625534 32.0
124.656639 160.0
124.712196 200.0
124.855766 104.0
124.97683 196.0
125.048279 148.0
125.103683 168.0
125.408852 84.0
125.527 180.0
125.554497 208.0
125.620674 80.0
125.660835 152.0
125.723312 164.0
125.743393 48.0
125.884033 116.0
125.910835 240.0
125.982307 76.0
126.048111 492.0
126.08062 156.0
126.098503 136.0
126.156616 148.0
126.230392 192.0
126.304199 220.0
126.365677 124.0
126.438438 168.0
126.478722 132.0
126.550362 44.0
126.683685 160.0
126.756424 148.0
126.785561 128.0
126.861763 164.0
126.902122 168.0
127.055344 2796.0
127.086609 124.0
127.132629 172.0
127.198242 100.0
127.270081 80.0
127.30825 132.0
127.377876 140.0
127.494713 176.0
127.571129 160.0
127.674553 224.0
127.728729 232.0
127.825272 188.0
127.868034 148.0
127.924301 176.0
128.007599 200.0
128.032379 160.0
128.062195 5064.0
128.099945 264.0
128.133728 244.0
128.197647 188.0
128.23288 212.0
128.257217 124.0
128.279388 152.0
128.31485 88.0
128.336578 160.0
128.368622 284.0
128.405502 148.0
128.494461 184.0
128.553116 40.0
128.568909 108.0
128.60051 104.0
128.668228 172.0
128.693573 180.0
128.790176 148.0
128.815018 224.0
128.881851 192.0
128.943802 152.0
128.9664 80.0
129.00946 180.0
129.070618 11308.0
129.113358 164.0
129.181213 52.0
129.197052 48.0
129.244568 180.0
129.301132 152.0
129.340515 60.0
129.425995 192.0
129.520889 64.0
129.613632 136.0
129.679352 132.0
129.794968 216.0
129.838058 196.0
129.895126 188.0
129.931046 200.0
129.968491 248.0
130.024078 48.0
130.072464 1104.0
130.103531 148.0
130.130768 56.0
130.167099 136.0
130.198761 204.0
130.232956 208.0
130.253403 116.0
130.283325 172.0
130.298828 188.0
130.489746 176.0
130.507935 96.0
130.528397 200.0
130.564774 68.0
130.592072 72.0
130.648941 180.0
130.687607 216.0
130.803955 224.0
130.84465 120.0
130.871155 100.0
130.891357 148.0
130.933456 160.0
130.965332 196.0
130.98584 148.0
131.006332 116.0
131.050674 140.0
131.085876 360.0
131.111145 160.0
131.13266 164.0
131.181808 176.0
131.200043 296.0
131.276184 192.0
131.318619 244.0
131.403015 32.0
131.453217 104.0
131.518143 216.0
131.551346 44.0
131.64267 76.0
131.706619 220.0
131.754593 188.0
131.829987 188.0
131.92598 132.0
132.042603 180.0
132.064835 144.0
132.085907 184.0
132.200455 184.0
132.32634 168.0
132.376251 220.0
132.45163 252.0
132.496124 116.0
132.60051 284.0
132.874084 184.0
132.892441 164.0
132.948624 124.0
133.043915 116.0
133.066956 304.0
133.152832 184.0
133.186279 156.0
133.264389 184.0
133.303452 236.0
133.349548 140.0
133.431503 208.0
133.469604 200.0
133.489639 68.0
133.79335 188.0
133.837097 120.0
133.872482 152.0
133.888565 160.0
133.989105 120.0
134.126846 140.0
134.144958 164.0
134.15094 212.0
134.180389 152.0
134.25647 124.0
134.30722 188.0
134.325668 180.0
134.401794 104.0
134.424881 196.0
134.45488 112.0
134.514877 128.0
134.543564 104.0
134.660446 180.0
134.757294 124.0
134.778168 188.0
134.817627 152.0
134.898331 168.0
134.925293 316.0
134.963074 148.0
135.04863 256.0
135.12265 112.0
135.22493 164.0
135.254562 204.0
135.321701 204.0
135.374619 196.0
135.383499 168.0
135.388718 152.0
135.479172 264.0
135.500031 124.0
135.606506 180.0
135.652969 208.0
135.724472 172.0
135.838486 52.0
135.953125 380.0
136.012512 100.0
136.123947 248.0
136.272598 128.0
136.372528 140.0
136.389847 132.0
136.409714 176.0
136.450623 220.0
136.512009 332.0
136.557007 208.0
136.61203 260.0
136.628311 132.0
136.677673 164.0
136.756287 48.0
136.779572 384.0
136.807495 60.0
136.902954 236.0
136.919266 200.0
136.998459 156.0
137.040009 168.0
137.100967 100.0
137.179504 224.0
137.253387 168.0
137.268814 136.0
137.427429 140.0
137.443756 200.0
137.488098 144.0
137.504425 160.0
137.539444 120.0
137.567444 100.0
137.585342 332.0
137.609467 124.0
137.73558 176.0
137.817337 200.0
137.976257 172.0
138.018356 156.0
138.051086 100.0
138.079147 188.0
138.156342 128.0
138.196106 48.0
138.263962 184.0
138.294388 156.0
138.317795 120.0
138.378662 48.0
138.425491 180.0
138.469986 168.0
138.507462 144.0
138.526199 196.0
138.570709 152.0
138.591797 84.0
138.643356 128.0
138.791031 176.0
138.809784 176.0
138.837921 176.0
138.931747 176.0
138.9599 212.0
139.041214 212.0
139.057098 372.0
139.119476 188.0
139.161743 216.0
139.186203 172.0
139.297256 232.0
139.333191 216.0
139.478882 92.0
139.551758 160.0
139.571487 192.0
139.641602 192.0
139.664642 124.0
139.728149 152.0
139.786209 196.0
139.817566 116.0
139.851578 240.0
139.998825 180.0
140.035446 220.0
140.063934 368.0
140.118958 80.0
140.26506 164.0
140.338608 80.0
140.361725 104.0
140.39473 140.0
140.446625 124.0
140.470337 152.0
140.495529 136.0
140.564575 176.0
140.59761 200.0
140.634399 164.0
140.713272 240.0
140.758133 152.0
140.794846 168.0
140.847885 84.0
140.892761 124.0
140.918747 156.0
140.935287 196.0
141.039276 180.0
141.07132 4228.0
141.166931 196.0
141.216599 208.0
141.292297 132.0
141.34198 48.0
141.389297 168.0
141.491089 156.0
141.50766 184.0
141.555008 172.0
141.65448 256.0
141.671066 240.0
141.794281 100.0
141.860641 136.0
141.955475 236.0
141.983932 64.0
142.017136 228.0
142.035522 176.0
142.043091 132.0
142.048477 168.0
142.072433 440.0
142.131012 244.0
142.191147 188.0
142.254425 144.0
142.277481 168.0
142.313766 120.0
142.465469 160.0
142.484772 108.0
142.515656 128.0
142.556046 96.0
142.577438 132.0
142.613083 212.0
142.632111 116.0
142.648743 96.0
142.724823 176.0
142.751404 224.0
142.80806 108.0
142.855621 208.0
142.974594 144.0
143.015045 160.0
143.053192 152.0
143.076935 212.0
143.100754 160.0
143.191238 172.0
143.22934 160.0
143.276123 176.0
143.31749 176.0
143.355606 132.0
143.375076 156.0
143.46286 132.0
143.54155 112.0
143.57254 176.0
143.660797 160.0
143.725204 216.0
143.765778 172.0
143.856476 116.0
143.880341 224.0
144.100067 96.0
144.353485 136.0
144.458649 176.0
144.482574 132.0
144.516068 100.0
144.578293 164.0
144.636139 208.0
144.70755 156.0
144.805725 156.0
144.856018 120.0
144.913513 72.0
144.969009 200.0
145.004578 88.0
145.03334 136.0
145.065567 544.0
145.136414 196.0
145.222748 224.0
145.261124 48.0
145.286606 148.0
145.296173 92.0
145.300827 204.0
145.355057 184.0
145.383484 192.0
145.45015 232.0
145.481888 116.0
145.503494 180.0
145.529037 176.0
145.577927 48.0
145.955185 180.0
145.991257 132.0
146.066498 156.0
146.089813 180.0
146.128372 236.0
146.183701 188.0
146.213928 252.0
146.220703 140.0
146.253494 108.0
146.289612 152.0
146.330536 164.0
146.47261 240.0
146.634048 156.0
146.660553 132.0
146.706345 104.0
146.730453 116.0
146.812439 120.0
146.942688 84.0
146.993134 124.0
147.099548 184.0
147.233734 216.0
147.280655 144.0
147.370026 168.0
147.488449 240.0
147.512619 240.0
147.544037 152.0
147.572021 272.0
147.698807 208.0
147.778641 192.0
147.991623 156.0
148.098175 176.0
148.134506 208.0
148.24353 164.0
148.277466 124.0
148.398666 200.0
148.476257 68.0
148.544174 144.0
148.570663 152.0
148.680038 92.0
148.709167 152.0
148.752853 372.0
148.769547 172.0
148.835403 312.0
148.900955 164.0
148.951965 104.0
149.039429 248.0
149.061295 200.0
149.105042 228.0
149.224136 120.0
149.265472 112.0
149.294662 48.0
149.360321 132.0
149.435745 176.0
149.525772 148.0
149.562286 136.0
149.642609 192.0
149.659653 108.0
149.776413 144.0
149.930038 164.0
149.956848 176.0
150.027542 92.0
150.047043 136.0
150.089615 104.0
150.129944 180.0
150.162308 148.0
150.312897 192.0
150.35437 148.0
150.388336 144.0
150.422714 108.0
150.473984 104.0
150.51799 160.0
150.583862 128.0
150.62294 148.0
150.659592 140.0
150.701126 108.0
150.766129 196.0
150.845306 48.0
150.967545 216.0
150.999344 180.0
151.055145 476.0
151.110916 184.0
151.160797 132.0
151.180374 220.0
151.219528 232.0
151.263596 160.0
151.326202 180.0
151.417282 140.0
151.425735 180.0
151.48822 252.0
151.494675 120.0
151.504349 176.0
151.528076 64.0
151.555023 120.0
151.604965 292.0
151.811798 196.0
151.850647 284.0
151.867035 116.0
151.917603 220.0
151.979202 152.0
152.014633 192.0
152.062439 3744.0
152.13382 248.0
152.151001 44.0
152.308151 136.0
152.344955 212.0
152.470306 248.0
152.553879 144.0
152.572296 180.0
152.610428 60.0
152.638794 200.0
152.666977 176.0
152.698944 60.0
152.725113 132.0
152.804718 116.0
152.82933 180.0
152.898224 124.0
152.964676 304.0
153.023758 148.0
153.070541 9668.0
153.167831 56.0
153.206009 92.0
153.236267 112.0
153.29097 140.0
153.384399 184.0
153.418472 148.0
153.504227 228.0
153.541229 40.0
153.582642 156.0
153.684296 156.0
153.805695 132.0
153.871872 184.0
153.894455 244.0
153.958282 148.0
154.077408 6080.0
154.131195 260.0
154.189713 136.0
154.215668 136.0
154.235001 84.0
154.322342 192.0
154.375916 168.0
154.5466 208.0
154.588654 144.0
154.636734 112.0
154.684067 120.0
154.712418 84.0
154.739639 68.0
154.762573 124.0
154.787415 108.0
154.824203 160.0
154.846115 112.0
154.922043 208.0
154.952637 96.0
154.989151 244.0
155.016098 360.0
155.02507 220.0
155.086212 52044.0
155.121887 304.0
155.154266 56.0
155.176086 168.0
155.200485 44.0
155.225281 56.0
155.244232 108.0
155.28479 136.0
155.36319 112.0
155.372635 120.0
155.383057 72.0
155.416275 120.0
155.436111 56.0
155.489166 116.0
155.54245 184.0
155.577591 56.0
155.623978 336.0
155.692383 68.0
155.746445 56.0
155.885559 200.0
155.905121 60.0
155.929077 96.0
156.027237 76.0
156.088715 5700.0
156.166489 76.0
156.212585 104.0
156.254074 96.0
156.275497 88.0
156.285629 188.0
156.375473 44.0
156.392899 208.0
156.435211 52.0
156.460114 156.0
156.582123 44.0
156.689224 60.0
156.813828 48.0
156.865158 224.0
156.940948 108.0
156.963394 136.0
157.059357 176.0
157.094955 520.0
157.136856 220.0
157.1707 108.0
157.207596 384.0
157.302689 68.0
157.350128 112.0
157.416138 136.0
157.455002 248.0
157.569901 144.0
157.602386 160.0
157.644867 176.0
157.704834 136.0
157.767334 136.0
157.847336 204.0
157.897354 96.0
157.992401 320.0
158.090591 160.0
158.15004 152.0
158.295242 144.0
158.438004 156.0
158.483505 152.0
158.550766 132.0
158.628464 172.0
158.766754 76.0
158.84967 148.0
158.946976 240.0
158.989624 120.0
159.109161 212.0
159.180405 256.0
159.228119 196.0
159.323578 32.0
159.386627 84.0
159.42157 228.0
159.441666 104.0
159.488937 164.0
159.547241 156.0
159.627686 200.0
159.781113 148.0
159.889313 88.0
159.906937 232.0
159.979919 156.0
160.204056 88.0
160.309875 44.0
160.350189 120.0
160.395554 188.0
160.421143 80.0
160.564484 116.0
160.649261 184.0
160.707047 208.0
160.768829 144.0
160.834442 220.0
161.032867 232.0
161.141296 172.0
161.188004 132.0
161.205704 128.0
161.390213 136.0
161.461029 184.0
161.524246 88.0
161.592667 184.0
161.674683 132.0
161.719086 108.0
161.759583 180.0
161.906433 192.0
161.926682 104.0
161.952011 100.0
162.030548 204.0
162.078674 72.0
162.111618 144.0
162.256104 80.0
162.431076 76.0
162.524933 220.0
162.646744 196.0
162.727982 148.0
163.020081 184.0
163.058212 152.0
163.172592 208.0
163.196487 160.0
163.281937 176.0
163.337891 36.0
163.439651 72.0
163.796066 160.0
163.882675 64.0
163.96167 116.0
164.030487 36.0
164.059631 208.0
164.125137 228.0
164.160507 192.0
164.22171 188.0
164.26915 104.0
164.319229 176.0
164.359467 152.0
164.392639 144.0
164.440094 156.0
164.543243 156.0
164.591751 128.0
164.644363 232.0
164.734879 232.0
164.806305 152.0
164.86763 212.0
164.936996 140.0
164.971451 220.0
165.036789 228.0
165.07045 16500.0
165.115372 68.0
165.156525 160.0
165.188782 216.0
165.223633 188.0
165.269089 160.0
165.333054 52.0
165.356094 52.0
165.453476 116.0
165.476395 44.0
165.504562 44.0
165.586502 216.0
165.638229 156.0
165.692841 148.0
165.717667 80.0
165.82222 120.0
165.906799 224.0
165.947815 156.0
165.99263 92.0
166.0746 2888.0
166.168381 44.0
166.19574 188.0
166.219696 84.0
166.250488 192.0
166.286057 200.0
166.340317 180.0
166.383957 48.0
166.430176 172.0
166.4841 88.0
166.504639 72.0
166.568863 68.0
166.643356 152.0
166.669052 168.0
166.784698 176.0
166.812973 128.0
166.91066 132.0
167.02124 124.0
167.08548 1724.0
167.173615 164.0
167.22966 148.0
167.278564 140.0
167.296585 48.0
167.360947 224.0
167.378967 148.0
167.402145 48.0
167.554108 140.0
167.623672 160.0
167.657166 192.0
167.938187 176.0
168.028473 136.0
168.059433 348.0
168.092606 784.0
168.472504 148.0
168.552597 92.0
168.586197 116.0
168.615631 152.0
168.62561 204.0
168.661133 168.0
168.790405 180.0
168.88092 124.0
168.986969 160.0
169.0439 60.0
169.064606 124.0
169.093063 148.0
169.139664 132.0
169.186249 188.0
169.266113 128.0
169.370636 176.0
169.522964 116.0
169.541092 52.0
169.60849 128.0
169.682327 140.0
169.699219 180.0
169.862595 132.0
170.018265 136.0
170.098724 172.0
170.199966 172.0
170.264893 128.0
170.329819 108.0
170.384369 132.0
170.407761 160.0
170.503906 152.0
170.529892 96.0
170.567627 224.0
170.721237 172.0
170.79509 124.0
170.862732 156.0
170.901749 72.0
171.027298 196.0
171.07872 180.0
171.102158 188.0
171.163406 228.0
171.193283 44.0
171.234955 148.0
171.346954 128.0
171.375626 144.0
171.420105 168.0
171.491699 176.0
171.578903 268.0
171.897812 148.0
171.922684 180.0
172.077209 136.0
172.109528 168.0
172.184265 216.0
172.207596 176.0
172.255768 148.0
172.421997 236.0
172.720062 176.0
172.772385 116.0
172.895355 196.0
172.943604 192.0
172.992203 128.0
173.128189 136.0
173.159775 192.0
173.301224 44.0
173.348389 128.0
173.429626 180.0
173.492538 200.0
173.510895 148.0
173.678726 140.0
173.859741 196.0
173.930603 116.0
174.041595 144.0
174.115387 240.0
174.151169 96.0
174.269379 180.0
174.441437 152.0
174.47963 144.0
174.513809 200.0
174.534836 72.0
174.566391 164.0
174.618988 148.0
174.650558 164.0
174.824188 148.0
174.871567 184.0
174.990021 164.0
175.055847 212.0
175.073898 56.0
175.121689 96.0
175.279739 140.0
175.364075 112.0
175.416794 196.0
175.452133 216.0
175.511703 96.0
175.559158 72.0
175.69368 204.0
175.772827 124.0
175.859924 196.0
175.985153 228.0
176.06076 824.0
176.126587 156.0
176.179626 204.0
176.248108 144.0
176.277176 152.0
176.348541 152.0
176.549454 164.0
176.663193 352.0
176.784897 96.0
176.888123 124.0
176.94371 144.0
177.069305 504.0
177.109619 196.0
177.139679 180.0
177.179413 56.0
177.221802 188.0
177.264191 100.0
177.364899 144.0
177.484207 120.0
177.521332 236.0
177.606903 192.0
177.627411 144.0
177.714951 212.0
177.802521 200.0
177.859985 148.0
177.911346 132.0
177.935242 180.0
177.975067 80.0
178.001617 132.0
178.046432 160.0
178.077911 36340.0
178.180038 316.0
178.207291 156.0
178.272568 48.0
178.300415 92.0
178.332809 96.0
178.429382 52.0
178.462357 100.0
178.493195 80.0
178.590561 172.0
178.62883 188.0
178.695343 92.0
178.775162 272.0
178.802444 80.0
178.820404 152.0
178.858994 192.0
178.904037 144.0
178.964096 172.0
179.005371 148.0
179.083557 13052.0
179.13562 52.0
179.16124 204.0
179.207977 184.0
179.251816 172.0
179.307358 172.0
179.35434 172.0
179.385086 80.0
179.425064 136.0
179.453308 128.0
179.516113 172.0
179.613098 220.0
179.639328 140.0
179.777145 204.0
179.803833 60.0
179.894577 72.0
179.944061 60.0
180.004044 92.0
180.03978 52.0
180.087418 1936.0
180.172318 104.0
180.202591 160.0
180.236435 60.0
180.268494 112.0
180.292191 240.0
180.29892 208.0
180.32254 144.0
180.350006 80.0
180.380753 108.0
180.416656 204.0
180.47966 40.0
180.517105 88.0
180.541168 208.0
180.617615 148.0
180.702988 88.0
180.789948 156.0
180.851501 328.0
180.888977 132.0
180.907715 32.0
180.953232 124.0
180.993393 196.0
181.046951 108.0
181.071899 228.0
181.095306 416.0
181.159439 88.0
181.189377 204.0
181.263931 220.0
181.31752 132.0
181.379166 76.0
181.446182 152.0
181.486404 188.0
181.537354 168.0
181.63121 128.0
181.709015 152.0
181.738525 104.0
181.784134 104.0
181.806168 120.0
181.829758 188.0
182.002609 120.0
182.137039 172.0
182.205673 164.0
182.259415 132.0
182.383041 244.0
182.401855 100.0
182.471741 84.0
182.565857 36.0
182.587372 108.0
182.670746 124.0
182.783737 136.0
182.821411 68.0
182.915619 128.0
183.136398 148.0
183.292648 164.0
183.314209 204.0
183.346542 188.0
183.403152 188.0
183.445419 112.0
183.529846 64.0
183.594559 152.0
183.802277 324.0
183.921127 200.0
183.969604 160.0
184.0047 160.0
184.028992 64.0
184.083008 76.0
184.123505 172.0
184.212646 88.0
184.499084 104.0
184.520721 164.0
184.691071 212.0
184.78035 176.0
184.820923 184.0
184.942703 204.0
184.979919 176.0
185.064529 152.0
185.086182 164.0
185.254105 112.0
185.470871 144.0
185.595581 68.0
186.070374 144.0
186.201416 172.0
186.336533 196.0
186.401749 192.0
186.445221 144.0
186.466965 184.0
186.631683 176.0
186.710388 216.0
187.027237 128.0
187.048538 184.0
187.165024 72.0
187.239609 288.0
187.315872 60.0
187.345505 168.0
187.471161 140.0
187.544754 156.0
187.608261 132.0
187.716507 96.0
187.760132 48.0
187.874695 180.0
187.901978 140.0
187.991501 128.0
188.091934 196.0
188.128479 120.0
188.151382 184.0
188.185806 136.0
188.207657 136.0
188.254074 188.0
188.273193 140.0
188.323029 80.0
188.472595 308.0
188.523346 204.0
188.568237 220.0
188.598846 180.0
188.633835 184.0
188.699448 272.0
188.751404 56.0
188.797882 104.0
188.884796 196.0
188.940125 160.0
189.069794 13228.0
189.137146 180.0
189.159042 124.0
189.202835 32.0
189.227478 40.0
189.274017 144.0
189.306885 160.0
189.327042 92.0
189.389038 188.0
189.419174 232.0
189.441086 36.0
189.514053 84.0
189.584839 232.0
189.638367 128.0
189.671265 152.0
189.731567 76.0
189.812012 188.0
189.845642 160.0
189.871414 160.0
189.907059 108.0
189.944824 208.0
189.971313 172.0
190.00032 128.0
190.077896 17656.0
190.128235 52.0
190.155457 284.0
190.206131 144.0
190.261887 156.0
190.319962 168.0
190.35849 208.0
190.383362 196.0
190.421631 148.0
190.463425 120.0
190.497208 32.0
190.521225 172.0
190.556412 128.0
190.591782 132.0
190.620041 236.0
190.639343 256.0
190.686798 116.0
190.748749 52.0
190.770309 228.0
190.81311 88.0
190.852524 264.0
190.88208 332.0
190.914566 212.0
190.924118 420.0
190.943542 176.0
190.972107 424.0
191.021301 352.0
191.086472 213728.0
191.153229 308.0
191.174271 140.0
191.188934 148.0
191.202454 140.0
191.258926 192.0
191.299362 232.0
191.303635 128.0
191.335709 132.0
191.371338 300.0
191.439407 84.0
191.449951 84.0
191.478104 32.0
191.511612 144.0
191.538773 472.0
191.586563 112.0
191.609116 128.0
191.644272 160.0
191.666458 108.0
191.691254 36.0
191.714813 72.0
191.741425 232.0
191.774857 60.0
191.812332 120.0
191.834732 360.0
191.858261 108.0
191.881653 192.0
191.903488 36.0
191.935165 112.0
191.965988 68.0
191.981293 56.0
192.008286 72.0
192.090363 28528.0
192.183945 168.0
192.21019 128.0
192.242569 108.0
192.297958 100.0
192.32695 32.0
192.351883 64.0
192.381653 100.0
192.40976 48.0
192.460495 56.0
192.473099 92.0
192.517746 72.0
192.534409 56.0
192.561905 124.0
192.630386 172.0
192.655762 152.0
192.692841 76.0
192.739807 68.0
192.763489 56.0
192.806732 36.0
192.846191 56.0
192.880753 124.0
192.911148 56.0
192.933273 60.0
192.983841 68.0
193.060654 172.0
193.094559 3936.0
193.143875 96.0
193.187683 88.0
193.207611 156.0
193.241867 192.0
193.261169 136.0
193.306503 84.0
193.333557 156.0
193.356796 120.0
193.388885 128.0
193.408279 100.0
193.432816 48.0
193.437759 112.0
193.483215 180.0
193.520187 128.0
193.546707 216.0
193.563889 232.0
193.599258 80.0
193.656067 148.0
193.677002 124.0
193.699799 108.0
193.724716 32.0
193.788437 72.0
193.853897 128.0
193.885422 44.0
193.923447 72.0
193.968567 144.0
194.007385 100.0
194.104111 464.0
194.223663 60.0
194.259735 96.0
194.311295 188.0
194.352127 196.0
194.415237 168.0
194.441101 120.0
194.517792 116.0
194.537231 40.0
194.558075 84.0
194.598297 92.0
194.627716 236.0
194.658035 88.0
194.685898 168.0
194.762466 68.0
194.795471 48.0
194.87326 212.0
194.945511 148.0
195.031662 100.0
195.1138 160.0
195.179001 48.0
195.294952 172.0
195.515579 88.0
195.671463 64.0
195.807907 76.0
195.883102 120.0
195.922104 76.0
196.306732 88.0
196.644623 104.0
196.76712 124.0
196.806198 68.0
196.887177 180.0
196.996109 52.0
197.054779 184.0
197.093887 208.0
197.11496 56.0
197.177719 116.0
197.577576 132.0
197.83223 84.0
198.277588 208.0
198.487823 176.0
198.585983 104.0
198.64769 80.0
198.905838 144.0
199.012527 172.0
199.046219 76.0
199.262482 32.0
199.622253 80.0
199.709442 92.0
199.793823 132.0
200.062851 308.0
200.148453 148.0
200.242004 216.0
200.280807 136.0
200.675323 148.0
200.714798 136.0
200.869919 188.0
200.957367 56.0
201.067413 156.0
201.098465 204.0
201.23114 96.0
201.253174 264.0
201.318665 32.0
201.485321 264.0
201.513565 88.0
201.705734 120.0
201.793365 100.0
201.869705 136.0
201.920151 124.0
201.971527 156.0
202.036591 136.0
202.078491 7336.0
202.141266 128.0
202.166733 140.0
202.203522 228.0
202.231827 60.0
202.268631 40.0
202.306717 96.0
202.360382 68.0
202.384689 128.0
202.480972 48.0
202.509293 128.0
202.574448 152.0
202.653763 324.0
202.713272 84.0
202.743134 228.0
202.781281 140.0
202.81813 72.0
202.837967 164.0
202.908844 160.0
202.979721 144.0
203.008072 112.0
203.045578 124.0
203.085983 22364.0
203.132874 48.0
203.185287 160.0
203.225418 64.0
203.233017 40.0
203.24202 76.0
203.271881 56.0
203.308777 152.0
203.372086 276.0
203.430817 48.0
203.458496 224.0
203.480194 92.0
203.516144 92.0
203.595505 128.0
203.625549 72.0
203.7509 128.0
203.782974 124.0
203.80571 40.0
203.825592 56.0
203.868225 140.0
203.933441 84.0
203.996109 96.0
204.09256 16212.0
204.172394 36.0
204.192307 292.0
204.227142 160.0
204.25174 76.0
204.259247 60.0
204.279404 164.0
204.289871 120.0
204.379105 72.0
204.441513 60.0
204.567886 92.0
204.590836 64.0
204.649002 156.0
204.684616 64.0
204.718781 60.0
204.759308 212.0
204.78714 188.0
204.815613 68.0
204.853836 124.0
204.899216 144.0
204.943817 156.0
204.985123 56.0
205.025009 172.0
205.101089 21564.0
205.167358 128.0
205.21521 36.0
205.286377 88.0
205.31723 72.0
205.337875 100.0
205.381729 104.0
205.419006 152.0
205.479645 68.0
205.490875 64.0
205.531174 124.0
205.55806 76.0
205.60228 192.0
205.611572 232.0
205.668152 84.0
205.743927 132.0
205.773773 96.0
205.829117 96.0
205.850876 48.0
206.056519 68.0
206.10495 2836.0
206.20546 64.0
206.253693 124.0
206.290863 108.0
206.313721 52.0
206.348038 36.0
206.50531 84.0
206.528183 80.0
206.584869 108.0
206.629608 44.0
206.685532 36.0
206.71701 68.0
206.743896 160.0
206.900177 160.0
207.000397 76.0
207.0233 140.0
207.077713 164.0
207.112625 312.0
207.225769 64.0
207.384277 52.0
207.507538 84.0
207.556595 112.0
207.633713 100.0
207.669846 100.0
207.816727 184.0
207.940689 36.0
208.006699 112.0
208.029663 148.0
208.095688 48.0
208.27948 80.0
208.299591 104.0
208.38002 136.0
208.405884 68.0
208.448975 92.0
208.552444 48.0
208.69043 124.0
208.883102 72.0
209.096024 76.0
209.196762 212.0
209.504883 76.0
209.640305 52.0
209.934341 72.0
210.012207 64.0
210.046814 156.0
210.393097 176.0
211.103867 80.0
211.711563 96.0
212.009949 80.0
212.383957 132.0
212.636368 60.0
212.993484 156.0
213.289871 100.0
213.429413 128.0
213.513733 136.0
213.583542 128.0
213.688263 88.0
213.921082 68.0
214.156937 120.0
214.279282 100.0
214.524078 136.0
214.599869 60.0
214.655273 64.0
214.818604 192.0
214.976151 224.0
215.08429 4668.0
215.222046 88.0
215.288498 36.0
215.308945 72.0
215.636154 40.0
215.709229 96.0
215.797974 100.0
215.872955 176.0
215.896347 100.0
215.925583 32.0
215.951904 44.0
215.999344 164.0
216.093002 3944.0
216.200592 112.0
216.317657 36.0
216.572403 144.0
216.59584 164.0
216.657349 120.0
217.100586 9728.0
217.20845 72.0
217.227951 44.0
217.258316 80.0
217.314056 44.0
217.334595 56.0
217.355133 192.0
217.428497 36.0
217.463715 140.0
217.675095 104.0
217.707382 72.0
217.757309 84.0
217.786682 76.0
217.807251 100.0
217.886566 116.0
217.962952 136.0
218.002792 208.0
218.066559 188.0
218.108673 16328.0
218.166229 184.0
218.2854 120.0
218.359802 40.0
218.426025 140.0
218.474518 28.0
218.495117 112.0
218.524536 72.0
218.59996 88.0
218.639297 48.0
218.71875 28.0
218.751129 76.0
218.857117 48.0
218.977859 84.0
219.019089 48.0
219.053741 168.0
219.11261 3100.0
219.310791 84.0
219.458176 64.0
219.549591 44.0
219.611526 36.0
219.88295 68.0
219.947891 224.0
220.112442 168.0
220.201813 200.0
220.356415 152.0
220.390869 68.0
220.630249 72.0
220.668686 156.0
220.87767 72.0
220.899353 120.0
220.996979 88.0
222.101959 116.0
222.33931 68.0
223.016464 116.0
224.400681 124.0
225.421478 164.0
225.917801 96.0
226.540451 64.0
226.735199 44.0
228.10054 80.0
228.542923 92.0
228.777664 80.0
229.100128 844.0
229.407257 120.0
229.45549 208.0
230.083008 136.0
230.107025 168.0
230.152451 124.0
230.765793 160.0
230.953278 204.0
231.116867 4212.0
231.358749 76.0
232.122437 1272.0
232.192001 44.0
232.334564 56.0
232.589462 140.0
232.758118 148.0
232.811096 120.0
232.914597 152.0
232.978149 108.0
233.132736 7052.0
233.227325 48.0
233.288116 56.0
233.345871 80.0
233.573944 60.0
233.750412 120.0
233.905624 96.0
234.003036 100.0
234.136215 1548.0
235.138977 184.0
235.61026 128.0
235.662186 76.0
236.145172 160.0
236.316483 112.0
236.471527 84.0
238.337021 92.0
239.459839 32.0
240.554428 112.0
241.116562 72.0
241.354599 116.0
243.915329 76.0
244.192047 64.0
244.36937 120.0
247.866379 100.0
248.182953 44.0
248.371109 32.0
248.678589 84.0
248.700562 64.0
253.456238 88.0
256.430695 72.0
256.577301 100.0
257.030212 64.0
258.916229 84.0
260.683838 140.0
262.089966 80.0
262.164093 180.0
263.012299 160.0
263.205994 140.0
263.574219 140.0
264.042969 104.0
264.11087 120.0
264.175385 3092.0
264.215546 168.0
264.272614 60.0
264.580078 56.0
265.176453 428.0
265.414856 140.0
265.506775 52.0
266.185089 228.0
266.46756 152.0
266.766541 156.0
267.020172 120.0
267.1828 56.0
267.27066 44.0
267.501709 40.0
267.677521 144.0
268.11731 80.0
268.211823 84.0
269.072998 124.0
271.454987 100.0
273.442474 104.0
275.54953 40.0
275.684998 36.0
276.197449 68.0
278.029633 128.0
279.534973 56.0
284.414368 44.0
285.509644 48.0
288.128632 120.0
288.73703 44.0
290.732422 120.0
293.41272 92.0
295.05481 36.0
295.263397 80.0
295.342041 60.0
297.150757 60.0
297.734283 64.0
297.775513 64.0
303.112274 36.0
303.347931 60.0
304.166565 96.0
304.364441 64.0
305.619232 96.0
306.388641 72.0
311.527649 80.0
313.364044 184.0
313.455658 56.0
314.09729 124.0
317.630951 92.0
317.790588 68.0
318.18454 36.0
319.862427 48.0
320.738678 120.0
323.703949 92.0
325.112732 48.0
326.754791 32.0
329.198578 100.0
330.23938 144.0
331.30722 116.0
332.415955 100.0
337.54187 88.0
340.748932 52.0
345.615753 72.0
347.468262 96.0
349.582428 152.0
350.539429 116.0
352.528351 68.0
355.494171 68.0
359.728333 52.0
360.604614 124.0
363.088196 128.0
363.421997 100.0
364.872803 96.0
366.048492 72.0
366.528442 92.0
367.378632 60.0
368.107605 84.0
368.287109 68.0
368.642395 68.0
375.406311 116.0
379.21817 80.0
379.698914 88.0
382.321198 52.0
382.920746 44.0
385.397827 44.0
388.016174 92.0
391.052582 116.0
397.779938 32.0
400.101471 92.0
401.181061 72.0
401.799194 56.0
401.986725 132.0
402.337952 64.0
403.800415 64.0
403.892395 72.0
407.323517 140.0
409.894287 56.0
411.850922 104.0
412.004425 40.0
413.067566 68.0
413.941772 44.0
415.348053 124.0
415.538727 100.0
416.054138 84.0
420.274597 92.0
423.074158 48.0
423.389435 64.0
428.379791 76.0
430.119904 104.0
431.644379 168.0
433.02655 44.0
434.913025 100.0
435.897278 128.0
440.818512 120.0
445.649719 44.0
449.536163 92.0
451.310211 68.0
459.119232 100.0
462.892548 80.0
466.978027 40.0
467.223236 100.0
471.064178 72.0
471.262909 100.0
471.46167 60.0
474.981598 32.0
477.452911 72.0
478.775879 92.0
479.259369 120.0
482.392883 112.0
485.43573 116.0
488.835693 88.0
495.706696 72.0
496.748566 80.0
497.458557 76.0
497.733826 84.0
499.818481 48.0
502.210754 72.0
518.015198 68.0
523.164795 140.0
526.214722 88.0
527.009399 72.0
528.28949 60.0
530.088806 60.0
535.219604 92.0
535.588013 64.0
537.981262 108.0
539.038879 64.0
541.949341 44.0
557.873413 92.0
559.783569 48.0
567.741516 108.0
580.3349 56.0
585.370483 96.0
588.35498 32.0
589.895996 84.0
591.419678 84.0
593.09552 64.0
593.953735 104.0
597.631287 72.0
603.151672 112.0
610.633728 64.0
617.128113 80.0
618.226196 68.0
623.597168 72.0
629.900208 116.0
634.890198 112.0
644.888794 52.0
654.639526 100.0
659.639465 80.0
664.078796 76.0
667.946411 88.0
677.864136 64.0
679.212097 88.0
682.639832 44.0
687.26001 60.0
688.753113 40.0
690.122253 68.0
691.445679 76.0
691.848755 64.0
697.356384 132.0
700.26062 88.0
701.583191 64.0
715.143616 84.0
719.402588 124.0
721.234741 136.0
723.106689 56.0
732.039795 84.0
732.519104 156.0
734.837219 88.0
744.531799 44.0
765.906067 160.0
766.936401 56.0
772.618469 80.0
778.92688 244.0
782.146362 168.0
783.271179 56.0
786.873596 72.0
786.968506 96.0
787.755981 80.0
797.162903 200.0
803.040283 40.0
806.01532 84.0
808.180908 196.0
809.075134 84.0
809.913208 40.0
811.460205 152.0
814.996155 56.0
815.42804 120.0
817.623291 40.0
818.141235 136.0
820.608093 128.0
825.89032 132.0
832.532776 120.0
838.971191 112.0
840.112976 216.0
841.607727 84.0
845.61377 224.0
846.50531 44.0
846.73114 132.0
852.270996 72.0
855.097168 192.0
861.668823 176.0
867.896179 64.0
869.139648 64.0
873.016541 104.0
874.534424 136.0
876.689941 116.0
878.252258 172.0
878.993591 252.0
879.568054 152.0
880.335571 76.0
880.695801 36.0
882.563232 192.0
886.748474 32.0
888.017212 188.0
890.84259 228.0
891.430786 128.0
893.83905 124.0
896.36969 60.0
899.053162 144.0
900.748779 112.0
903.014038 168.0
906.288513 68.0
907.451294 112.0
910.733765 92.0
911.941406 224.0
912.241943 152.0
912.921326 84.0
912.96344 40.0
913.703308 152.0
914.419312 300.0
916.093201 64.0
916.135376 208.0
920.997253 132.0
921.401978 212.0
922.036438 252.0
924.12262 156.0
926.168701 72.0
928.107971 200.0
930.723083 40.0
931.063171 164.0
932.636719 148.0
935.148682 168.0
936.646484 240.0
942.112122 244.0
944.025146 160.0
948.237061 96.0
951.561707 48.0
952.21875 124.0
960.293579 48.0
961.132507 40.0
966.570007 192.0
967.226013 124.0
968.38385 208.0
968.476746 56.0
972.177979 48.0
972.388977 176.0
974.158569 256.0
977.721252 200.0
977.982666 156.0
978.630066 164.0
979.065979 184.0
979.427185 160.0
980.118713 152.0
980.305664 160.0
980.854065 120.0
981.602234 184.0
981.789307 176.0
982.213379 200.0
982.606384 40.0
984.703796 136.0
985.609558 184.0
987.947815 124.0
991.309998 128.0
994.477051 184.0
999.007507 132.0
999.09552 120.0
1003.535583 160.0
1005.863464 152.0
1007.568481 192.0
1007.833801 180.0
1011.413208 168.0
1012.058899 176.0
1012.799866 236.0
1013.25592 204.0
1013.43335 184.0
1014.56781 196.0
1015.99469 136.0
1016.705322 136.0
1017.911438 180.0
1022.857666 164.0
1023.863586 216.0
1024.303101 148.0
1024.455933 48.0
1025.768677 104.0
1027.503174 220.0
1028.741211 164.0
1029.571289 60.0
1031.619751 128.0
1033.150635 236.0
1033.489746 144.0
1034.078491 148.0
1034.475342 152.0
1036.255615 96.0
1037.248901 228.0
1038.563354 184.0
1038.775024 60.0
1042.023438 124.0
1043.990234 100.0
1044.679688 212.0
1048.445068 208.0
1049.044556 136.0
1049.237915 140.0
1050.52771 204.0
1051.476196 220.0
1052.295898 132.0
1052.767334 104.0
1052.915894 120.0
1053.800781 144.0
1054.466309 56.0
1054.718384 124.0
1054.821899 60.0
1056.83313 224.0
1057.622681 188.0
1059.94751 148.0
1060.167847 132.0
1061.613525 164.0
1062.852417 60.0
1063.812988 140.0
1066.437134 104.0
1067.34082 204.0
1068.348877 60.0
1069.129639 180.0
1069.409424 164.0
1071.884155 192.0
1073.292114 180.0
1073.800781 176.0
1074.655273 216.0
1075.758179 172.0
1076.639648 208.0
1078.782715 40.0
1078.991943 208.0
1080.371826 152.0
1080.622925 164.0
1081.150391 144.0
1081.327148 48.0
1081.883423 204.0
1082.977051 128.0
1083.094849 188.0
1084.025146 176.0
1084.313599 164.0
1084.38562 132.0
1085.185425 88.0
1085.932983 52.0
1086.80542 164.0
1086.916992 168.0
1087.363159 84.0
1087.658569 164.0
1087.756958 128.0
1090.390747 40.0
1092.054199 224.0
1093.903076 172.0
1095.272705 140.0
1096.320312 144.0
1097.295776 28.0
1099.459351 120.0
1099.637573 196.0
1099.809082 188.0
1100.224976 136.0
1100.396606 40.0
1101.816528 116.0
1102.596313 80.0
1102.814331 112.0
1106.869629 168.0
1107.61145 148.0
1109.599365 140.0
1109.698486 212.0
1110.302246 120.0
1111.177856 140.0
1111.947632 52.0
1116.844238 64.0
1117.948608 216.0
1121.984985 168.0
1123.979126 208.0
1124.179321 168.0
1124.833374 188.0
1127.097412 180.0
1128.253662 212.0
1128.748413 200.0
1128.982422 164.0
1130.614746 176.0
1130.735229 112.0
1131.505005 152.0
1131.712524 160.0
1132.283936 168.0
1132.837646 168.0
1132.918091 220.0
1134.740967 248.0
1136.417603 212.0
1137.645752 136.0
1138.156006 164.0
1138.592529 192.0
1139.358276 148.0
1141.818359 204.0
1142.403564 120.0
1143.648315 124.0
1143.870483 200.0
1144.671631 128.0
1147.467773 124.0
1147.703857 52.0
1148.03418 148.0
1148.674927 108.0
1148.911011 180.0
1149.275391 68.0
1149.673462 56.0
1149.983887 136.0
1152.482544 188.0
1154.415771 188.0
1154.706543 236.0
1158.618896 116.0
1158.950928 152.0
1159.80481 128.0
1160.082397 156.0
1161.438843 56.0
1162.205444 44.0
1162.402222 196.0
1162.504028 148.0
1162.992676 136.0
1163.623901 204.0
1163.766479 160.0
1164.887085 148.0
1165.967407 124.0
1166.028564 140.0
1166.368408 196.0
1167.905029 156.0
1168.775879 112.0
1168.993652 136.0
1169.74231 68.0
1169.94751 156.0
1171.09729 216.0
1172.7052 144.0
1172.780151 148.0
1174.075562 40.0
1175.160156 148.0
1175.337524 132.0
1175.719604 156.0
1175.924316 208.0
1176.054077 136.0
1176.456787 200.0
1178.273315 148.0
1179.380371 192.0
1180.946045 168.0
1181.265381 216.0
1182.93042 124.0
1182.985107 212.0
1183.163086 136.0
1183.840942 140.0
1183.964233 172.0
1184.251953 168.0
1186.088135 220.0
1186.506348 220.0
1189.023682 168.0
1189.339355 84.0
1189.895386 128.0
1190.794922 132.0
1190.925415 136.0
1192.004028 104.0
1192.601929 224.0
1193.035034 192.0
1193.722534 160.0
1193.983887 100.0
1194.052612 220.0
1194.300171 180.0
1194.561646 136.0
1194.790405 124.0
1195.572998 172.0
1195.841431 44.0
1196.377075 160.0
1196.557251 84.0
1196.991089 212.0
1197.652222 200.0
1198.320435 144.0
1198.409912 56.0
1200.015869 208.0
1200.243408 160.0
1200.420654 188.0
1200.560547 176.0
1200.608887 48.0
1201.160645 108.0
1201.338989 132.0
1202.802856 92.0
1203.355103 184.0
1205.765869 80.0
1206.242798 220.0
1207.196899 152.0
1208.601074 204.0
1208.76709 116.0
1209.189331 156.0
1209.272339 168.0
1209.431519 68.0
1210.490723 168.0
1211.051758 64.0
1211.952271 76.0
1212.028442 380.0
1212.187866 200.0
1212.783813 172.0
1213.220581 172.0
1213.373047 120.0
1213.622681 44.0
1213.705933 184.0
1213.872314 140.0
1213.962402 156.0
1215.636475 112.0
1218.717163 168.0
1218.939575 156.0
1218.995117 136.0
1219.863892 80.0
1221.532837 228.0
1221.783203 132.0
1223.021851 168.0
1223.731934 180.0
1223.78064 88.0
1224.268066 212.0
1225.33374 80.0
1225.647339 40.0
1225.953857 120.0
1227.487549 168.0
1227.640869 136.0
1227.933838 168.0
1228.449951 192.0
1229.468628 120.0
1229.789673 120.0
1230.459839 164.0
1230.787964 164.0
1231.556152 92.0
1233.070923 204.0
1234.670776 236.0
1234.792114 160.0
1235.393677 92.0
1235.533569 184.0
1236.233276 32.0
1236.681152 48.0
1237.640137 136.0
1237.703247 124.0
1238.004272 128.0
1239.776611 200.0
1240.214233 208.0
1240.984863 232.0
1242.335815 184.0
1243.191772 172.0
1245.438477 148.0
1246.028564 228.0
1246.421997 232.0
1247.595703 96.0
1247.799561 172.0
1248.031616 144.0
1248.571411 152.0
1248.734741 196.0
1248.833252 184.0
1249.128662 144.0
1249.508545 116.0
1249.593018 144.0
1250.41626 132.0
1251.401733 128.0
1251.94397 148.0
1252.070679 216.0
1252.141113 176.0
1252.782104 160.0
1253.705078 108.0
1254.318237 176.0
1254.44519 144.0
1254.543823 160.0
1255.002075 176.0
1256.00354 120.0
1258.049805 196.0
1258.247559 144.0
1259.236084 160.0
1259.822388 232.0
1259.984863 204.0
1260.331055 120.0
1260.380493 144.0
1261.214355 208.0
1262.522339 132.0
1262.607178 156.0
1263.088135 224.0
1263.151855 184.0
1263.300415 172.0
1264.198975 148.0
1264.743896 104.0
1265.359741 32.0
1266.436157 140.0
1267.90271 192.0
1268.838257 48.0
1268.887939 220.0
1270.050903 144.0
1270.391357 100.0
1271.838989 52.0
1272.22937 68.0
1272.371338 140.0
1273.656616 80.0
1274.537598 28.0
1274.985229 124.0
1275.098999 184.0
1275.269531 208.0
1275.361938 68.0
1275.546753 160.0
1276.726929 180.0
1277.516479 188.0
1277.901611 160.0
1279.081909 152.0
1283.805542 140.0
1284.875488 200.0
1285.10376 208.0
1285.374878 244.0
1285.517578 92.0
1286.095703 184.0
1287.173706 108.0
1287.752808 176.0
1288.416992 164.0
1288.649048 164.0
1289.445435 324.0
1290.296021 156.0
1290.453247 104.0
1290.624878 168.0
1291.561768 108.0
1292.777954 164.0
1293.349487 172.0
1293.550903 168.0
1293.865967 128.0
1293.994751 112.0
1295.785278 92.0
1296.007324 152.0
1296.795654 196.0
1297.103882 200.0
1297.168335 176.0
1298.344238 80.0
1299.936768 136.0
1300.008545 56.0
1300.69751 160.0
1300.934448 124.0
1301.838989 160.0
1302.269897 184.0
1303.836182 52.0
1303.994263 68.0
1305.058228 184.0
1306.036133 108.0
1306.20166 76.0
1306.48938 152.0
1306.834717 180.0
1306.971436 172.0
1307.27356 180.0
1310.49939 156.0
1310.816528 84.0
1311.112183 104.0
1311.191162 192.0
1311.443481 176.0
1312.164307 236.0
1312.459961 148.0
1313.36853 160.0
1313.649902 156.0
1314.710571 172.0
1314.963135 116.0
1315.331177 164.0
1315.872681 200.0
1316.609131 188.0
1316.695801 188.0
1316.941406 136.0
1317.172485 192.0
1317.410889 100.0
1318.725952 164.0
1319.145142 164.0
1319.622314 112.0
1319.918823 196.0
1320.135742 168.0
1320.627441 184.0
1320.714233 124.0
1321.119385 188.0
1321.799438 120.0
1322.378418 128.0
1322.443481 124.0
1323.015381 212.0
1324.137695 156.0
1324.260864 212.0
1325.622803 208.0
1326.362061 120.0
1326.673706 184.0
1326.746216 260.0
1327.014404 212.0
1327.790283 204.0
1328.508423 100.0
1328.943726 104.0
1329.139648 56.0
1329.611328 104.0
1330.395142 52.0
1332.124023 104.0
1332.515747 244.0
1333.249634 144.0
1334.449097 32.0
1337.24231 140.0
1338.137695 156.0
1338.800293 192.0
1339.186279 232.0
1339.65979 104.0
1340.650635 192.0
1340.752686 160.0
1340.927612 136.0
1341.029663 168.0
1341.931763 208.0
1343.063843 80.0
1343.888184 172.0
1343.986694 180.0
1344.420898 44.0
1344.712769 220.0
1344.968262 200.0
1345.092407 68.0
1345.435425 52.0
1345.515747 116.0
1345.910034 164.0
1346.607056 160.0
1346.976318 140.0
1348.006348 192.0
1348.130615 144.0
1348.700684 112.0
1349.868042 180.0
1350.184814 64.0
1350.331177 152.0
1351.247192 176.0
1351.303955 76.0
1351.406494 200.0
1351.552734 136.0
1351.88208 224.0
1352.043091 256.0
1354.23938 136.0
1354.42981 140.0
1354.730225 132.0
1356.972778 204.0
1357.038696 156.0
1357.99939 140.0
1358.388062 160.0
1358.571533 120.0
1359.297852 140.0
1359.884888 168.0
1360.714355 172.0
1362.050903 100.0
1362.969238 216.0
1363.270508 132.0
1364.323853 132.0
1364.406616 168.0
1364.637695 196.0
1366.365967 40.0
1366.792725 192.0
1366.947266 364.0
1367.01355 244.0
1367.536011 184.0
1367.786255 236.0
1368.205933 72.0
1368.772827 104.0
1368.85376 176.0
1369.059937 188.0
1369.356689 136.0
1369.936401 72.0
1369.995361 172.0
1370.37854 168.0
1370.444824 112.0
1370.968018 160.0
1371.108032 128.0
1371.203735 144.0
1371.404907 224.0
1372.080933 120.0
1372.35376 56.0
1372.405396 140.0
1373.290283 196.0
1373.518921 160.0
1373.865601 180.0
1374.352539 52.0
1374.68457 128.0
1374.861694 156.0
1375.011597 76.0
1375.142212 156.0
1375.784302 56.0
1376.515259 100.0
1376.581787 160.0
1377.061768 132.0
1377.312866 96.0
1377.408936 172.0
1379.330078 164.0
1380.069336 160.0
1380.771851 156.0
1381.289551 176.0
1381.785278 132.0
1382.85083 116.0
1383.539185 60.0
1383.942871 212.0
1385.353516 108.0
1386.072144 96.0
1387.940063 160.0
1389.03772 112.0
1389.141479 148.0
1389.3573 96.0
1389.430786 180.0
1389.482788 72.0
1389.90564 112.0
1390.358398 116.0
1391.479126 160.0
1391.887573 172.0
1393.974854 168.0
1395.595215 160.0
1396.167847 136.0
1397.008301 220.0
1397.142212 132.0
1397.476929 176.0
1398.012695 156.0
1398.451782 172.0
1399.456787 132.0
1399.623779 164.0
1400.439697 152.0
1400.544067 168.0
1400.670654 232.0
1401.177246 156.0
1402.123535 120.0
1402.354492 112.0
1402.406738 180.0
1402.711548 144.0
1402.846558 216.0
1403.278931 156.0
1404.210938 232.0
1404.486938 184.0
1406.262695 172.0
1406.718018 164.0
1406.800171 156.0
1406.994263 240.0
1407.292847 208.0
1407.412354 172.0
1407.920166 168.0
1408.383179 148.0
1409.287109 72.0
1409.481323 120.0
1409.85498 168.0
1410.19873 72.0
1410.288452 188.0
1411.290161 228.0
1412.158813 244.0
1412.516602 168.0
1413.152588 132.0
1413.96814 220.0
1415.94458 116.0
1416.566284 108.0
1416.671143 176.0
1416.791016 136.0
1417.690186 224.0
1418.814453 156.0
1419.234253 136.0
1419.354248 132.0
1419.79248 216.0
1420.029175 184.0
1420.467041 140.0
1420.614258 128.0
1421.289429 116.0
1422.918213 160.0
1423.391235 188.0
1424.390015 160.0
1424.555298 156.0
1424.878296 164.0
1425.351685 184.0
1425.501953 240.0
1425.885254 156.0
1426.155762 148.0
1426.276001 68.0
1426.358765 176.0
1427.095459 180.0
1427.907593 100.0
1430.774902 184.0
1430.962646 116.0
1431.836182 192.0
1433.229736 248.0
1433.470825 160.0
1433.915405 60.0
1435.174316 116.0
1435.264771 148.0
1435.347778 176.0
1436.079224 204.0
1436.841187 144.0
1436.931641 152.0
1437.625854 172.0
1437.967163 180.0
1438.123901 184.0
1438.74292 136.0
1439.09021 188.0
1439.996338 176.0
1441.522339 184.0
1441.937988 196.0
1442.391479 188.0
1443.060791 172.0
1443.465088 180.0
1444.100342 188.0
1444.274292 212.0
1444.805908 144.0
1445.303101 176.0
1445.742065 200.0
1446.075073 124.0
1446.234009 128.0
1446.756226 196.0
1448.32373 132.0
1448.755493 88.0
1449.232788 192.0
1449.725342 176.0
1449.952637 120.0
1450.452881 144.0
1450.72583 176.0
1451.104858 184.0
1451.415771 160.0
1452.216553 192.0
1452.606445 236.0
1452.796021 140.0
1453.182983 104.0
1453.387817 152.0
1453.547119 100.0
1454.351562 144.0
1454.685547 228.0
1455.03479 148.0
1455.786499 188.0
1455.953491 156.0
1456.340942 104.0
1457.381592 236.0
1457.556396 140.0
1459.262085 116.0
1460.331177 136.0
1460.430054 180.0
1461.038574 204.0
1462.682251 176.0
1462.743164 120.0
1462.804077 148.0
1463.435913 232.0
1463.717651 192.0
1463.834229 208.0
1463.892822 188.0
1464.484985 216.0
1464.905762 88.0
1465.309448 152.0
1466.437256 144.0
1466.574463 196.0
1466.627808 112.0
1466.71167 160.0
1467.069946 132.0
1467.13855 188.0
1467.504517 104.0
1469.006836 76.0
1469.327271 100.0
1470.013916 216.0
1470.24292 200.0
1470.63208 200.0
1470.952759 156.0
1472.999146 176.0
1473.213013 124.0
1473.45752 124.0
1473.885376 124.0
1474.680054 152.0
1474.756592 144.0
1475.016357 156.0
1475.681519 156.0
1475.949097 132.0
1476.690918 152.0
1476.935669 72.0
1477.012085 116.0
1477.616455 156.0
1478.197998 208.0
1478.664673 192.0
1478.689575 188.0
1478.719849 236.0
1478.886719 104.0
1479.032104 192.0
1480.379639 132.0
1480.693604 136.0
1481.107178 116.0
1481.237427 60.0
1481.482544 196.0
1481.635742 192.0
1481.95752 168.0
1482.570557 164.0
1482.785156 144.0
1482.976685 204.0
1483.030396 192.0
1484.63269 160.0
1485.783203 172.0
1485.990356 196.0
1486.74231 148.0
1487.241211 172.0
1487.640381 204.0
1487.778564 204.0
1488.71521 112.0
1488.991699 152.0
1489.575439 148.0
1490.643311 116.0
1490.812378 60.0
1491.204346 88.0
1491.334961 184.0
1491.793823 252.0
1492.280518 228.0
1492.849487 200.0
1493.498169 180.0
1494.118652 140.0
1494.187866 148.0
1494.387939 76.0
1494.972656 208.0
1495.288208 84.0
1495.365234 68.0
1495.819336 108.0
1496.365845 148.0
1496.458252 132.0
1496.858643 120.0
1497.45166 136.0
1499.262085 80.0
1499.339111 120.0
1499.686401 260.0
1499.93457 176.0
1500.360352 196.0
1502.284546 136.0
1502.523682 120.0
1502.833008 228.0
1503.233521 172.0
1503.411011 180.0
1503.773682 224.0
1503.928101 160.0
1504.175049 172.0
