>compound NAFTOPIDIL
>formula C24H28N2O3
>ionization [M+H]+
>parentmass 393.2172692080905
#inchi InChI=1S/C24H28N2O3/c1-28-24-11-5-4-10-22(24)26-15-13-25(14-16-26)17-20(27)18-29-23-12-6-8-19-7-2-3-9-21(19)23/h2-12,20,27H,13-18H2,1H3
#inchikey HRRBJVNMSRJFHQ
#Ion_Source LC-ESI
#Instrument qTof
#Compound_Source Commercial
#PI Dorrestein
#Data_Collector Garg_Neha
#Scan -1
#Precursor_MZ 393.217
#ExactMass 392.21
#Charge 1
#CAS_Number N/A
#Pubmed_ID N/A
#Smiles COc1ccccc1N2CCN(CC(O)COc3cccc4ccccc34)CC2
#INCHI_AUX N/A
#Library_Class 1
#SpectrumID CCMSLIB00000078902
#IonMode Positive
#UpdateWorkflowName UPDATE-SINGLE-ANNOTATED-GOLD
#LibraryQualityString Gold
#TaskID 278b19f5865741e282cec7349aa7e7a1
##Scan# 1241
#SpectrumFile NCP003272_A2_B11_BB8_01_15713.mzXML
#LibraryName NIHcollectionI_05062014.mgf
#MQScore -1
#Organism NIHcollectionI_05062014
#TIC_Query 0
#RT_Query -1
#MZErrorPPM -1
#SharedPeaks 0
#MassDiff 0
#LibMZ -1
#SpecMZ 393.217
#SpecCharge 0
#internalFilename spec-00000.mgf

>collision 10
45.18808 188.0
45.236259 144.0
45.261696 204.0
45.279106 252.0
45.297855 200.0
45.434593 196.0
45.608845 168.0
45.785419 168.0
45.802929 148.0
45.862217 156.0
45.929634 168.0
46.286427 248.0
46.57394 160.0
46.655575 160.0
46.696548 152.0
46.811378 212.0
46.850082 172.0
46.927765 208.0
47.117916 124.0
47.135239 248.0
47.192646 144.0
47.362343 152.0
47.445934 156.0
47.485699 172.0
47.576263 196.0
47.787914 216.0
47.971081 160.0
48.489323 116.0
48.678089 184.0
48.73782 156.0
48.769783 148.0
48.99382 180.0
49.004963 156.0
49.43224 264.0
49.533043 144.0
49.647972 148.0
49.756016 140.0
49.866989 160.0
50.099167 204.0
50.15976 232.0
50.286705 148.0
50.451138 176.0
50.689758 192.0
50.777027 136.0
50.908215 184.0
50.925259 184.0
50.953671 172.0
51.07872 116.0
51.144222 156.0
51.470695 272.0
51.524971 184.0
51.625027 140.0
52.066422 156.0
52.236408 192.0
52.400703 256.0
52.499599 144.0
52.690132 148.0
52.701691 144.0
52.734825 172.0
52.836151 152.0
52.933125 172.0
52.94326 200.0
53.540142 192.0
53.703377 212.0
53.945766 148.0
53.958923 152.0
54.02766 148.0
54.328621 184.0
54.533558 148.0
54.546787 184.0
54.595306 248.0
54.63649 172.0
54.671806 164.0
54.742466 176.0
54.951775 144.0
54.970955 176.0
55.127487 144.0
55.220627 148.0
55.490135 184.0
55.873852 208.0
55.920925 176.0
56.024014 156.0
56.062408 160.0
56.13509 260.0
56.163792 176.0
56.296623 212.0
56.481949 140.0
56.727528 152.0
56.817509 144.0
57.212757 172.0
57.310654 156.0
57.61565 156.0
58.095833 212.0
58.175747 244.0
58.396076 156.0
58.522381 180.0
58.612247 172.0
58.813557 148.0
58.912811 140.0
59.009094 168.0
59.050381 140.0
59.116165 180.0
59.136101 148.0
59.226398 196.0
59.441032 160.0
59.451775 216.0
59.556175 180.0
59.614388 164.0
59.672966 156.0
59.973152 200.0
60.155167 188.0
60.211502 148.0
60.275635 148.0
60.496559 152.0
60.586624 160.0
60.825436 164.0
60.839409 148.0
60.868088 144.0
60.890648 188.0
61.167412 144.0
61.269241 164.0
61.387089 152.0
61.415161 156.0
61.732201 160.0
62.001266 192.0
62.039085 140.0
62.057896 152.0
62.390736 172.0
62.415894 168.0
62.472511 200.0
62.599293 152.0
62.6315 160.0
62.674034 152.0
62.991146 160.0
63.041702 156.0
63.159489 160.0
63.201569 164.0
63.364494 164.0
63.393013 148.0
63.627762 140.0
63.948864 144.0
64.090591 160.0
64.219727 152.0
64.285133 176.0
64.358002 160.0
64.800003 176.0
64.952301 140.0
65.139183 208.0
65.254211 160.0
65.659996 148.0
65.816528 148.0
65.915062 164.0
65.991028 164.0
66.020134 152.0
66.128532 204.0
66.42852 200.0
66.568237 212.0
66.688095 192.0
66.897926 180.0
67.01519 140.0
67.394775 108.0
67.419868 140.0
67.568665 156.0
67.640671 148.0
67.831062 156.0
68.109634 164.0
68.149063 172.0
68.173706 204.0
68.273987 192.0
68.32827 160.0
68.55722 176.0
68.692345 224.0
68.748444 152.0
68.834282 168.0
69.105354 184.0
69.141762 176.0
69.547821 156.0
69.866814 168.0
70.075531 212.0
70.253365 168.0
70.403587 168.0
70.510506 140.0
70.547279 180.0
70.746353 184.0
70.912186 236.0
70.970856 144.0
71.516838 144.0
71.664925 128.0
71.821182 140.0
71.888214 200.0
71.981262 172.0
72.096352 144.0
72.218742 188.0
72.275681 128.0
72.294876 180.0
72.379509 152.0
72.48349 176.0
72.50412 96.0
72.672745 164.0
73.043694 148.0
73.3899 144.0
73.414391 176.0
73.601349 192.0
73.964531 148.0
74.1101 148.0
74.141258 176.0
74.259239 144.0
74.467865 144.0
74.623291 168.0
74.700676 144.0
74.845627 144.0
75.000298 188.0
75.103752 240.0
75.148605 140.0
75.17794 212.0
75.336784 180.0
75.698265 140.0
75.762352 164.0
75.916611 144.0
76.10743 116.0
76.267319 160.0
76.409912 184.0
76.676514 116.0
76.69899 160.0
76.798378 152.0
76.995041 172.0
77.023544 176.0
77.095177 148.0
77.170341 140.0
77.252533 172.0
77.294525 140.0
78.04702 224.0
79.031242 220.0
79.211823 188.0
79.281479 140.0
79.562943 160.0
79.64463 164.0
79.698074 144.0
79.724579 156.0
79.983215 124.0
80.23008 188.0
80.423485 208.0
80.474503 168.0
80.858826 172.0
81.030731 172.0
81.078423 152.0
81.418182 184.0
81.590675 144.0
81.675194 168.0
81.756157 176.0
81.828163 168.0
82.098442 168.0
82.374588 144.0
82.718163 152.0
82.830437 208.0
82.964531 248.0
82.984474 144.0
83.009857 184.0
83.047447 160.0
83.12571 148.0
83.249397 208.0
83.460182 184.0
83.576591 144.0
84.066978 200.0
84.150726 148.0
84.31633 140.0
84.342545 192.0
84.395561 144.0
84.929893 168.0
85.1175 164.0
85.691368 140.0
85.942993 160.0
86.287498 176.0
86.427986 96.0
86.573265 132.0
86.818924 184.0
87.096359 108.0
87.140045 240.0
87.53437 244.0
87.776611 188.0
87.919838 108.0
88.235931 192.0
88.396782 192.0
88.413628 144.0
88.869545 144.0
88.945915 172.0
89.078972 128.0
89.188225 192.0
89.427094 164.0
89.499641 164.0
89.977524 296.0
90.128624 132.0
90.204216 172.0
90.225014 152.0
90.268501 144.0
90.397133 160.0
90.436874 188.0
90.558052 204.0
90.7267 140.0
90.753242 164.0
90.82151 176.0
90.92485 188.0
91.057045 256.0
91.376999 176.0
91.546677 136.0
91.652283 164.0
91.751396 148.0
91.776573 156.0
91.802879 220.0
92.04776 328.0
92.083412 148.0
92.203781 140.0
92.229195 240.0
92.350998 224.0
92.381599 212.0
92.433258 156.0
92.707092 168.0
92.877724 152.0
92.91906 140.0
92.947708 184.0
93.065887 172.0
93.098442 156.0
93.330475 208.0
93.369415 228.0
93.398262 160.0
93.466759 192.0
93.548355 140.0
93.561829 172.0
93.66967 172.0
93.82769 180.0
93.891319 144.0
94.065353 560.0
94.153786 212.0
94.20594 236.0
94.484322 164.0
94.753426 184.0
95.053734 176.0
95.092766 160.0
95.368263 176.0
95.448273 140.0
95.576653 168.0
95.621414 140.0
96.081123 544.0
96.2229 204.0
96.767265 160.0
96.867142 176.0
96.9478 120.0
97.078094 240.0
97.314278 212.0
97.516617 180.0
97.561821 148.0
97.615952 136.0
97.828339 148.0
97.862839 176.0
97.890404 152.0
97.939636 164.0
98.085274 304.0
98.184227 200.0
98.235313 200.0
98.958389 196.0
99.053688 156.0
99.10643 116.0
99.418831 144.0
99.456215 160.0
99.487976 152.0
99.762115 156.0
99.901321 228.0
100.075912 2384.0
100.14357 160.0
100.240433 100.0
100.534927 208.0
100.564865 192.0
100.760559 148.0
101.000443 212.0
101.077393 488.0
101.162521 156.0
101.410904 220.0
101.691696 148.0
101.76284 172.0
101.869034 164.0
101.904556 148.0
102.049271 160.0
102.093506 152.0
102.26049 192.0
102.306786 152.0
102.361145 144.0
102.387871 172.0
102.556564 188.0
102.677536 140.0
102.696266 168.0
102.790504 188.0
102.837563 280.0
102.863159 184.0
102.913635 216.0
103.055016 148.0
103.196495 140.0
103.25312 140.0
103.268082 120.0
103.574928 144.0
104.068573 172.0
104.211929 144.0
104.248505 140.0
104.368439 208.0
104.386742 160.0
104.915131 208.0
104.94873 148.0
104.985435 172.0
105.077225 232.0
105.098686 116.0
105.138443 196.0
105.175179 140.0
105.191505 204.0
105.226486 152.0
105.322189 160.0
105.387566 176.0
105.538818 156.0
105.598122 148.0
106.066452 856.0
106.089554 184.0
106.192078 224.0
106.444496 140.0
106.45887 184.0
107.046371 276.0
107.073517 176.0
107.169014 136.0
107.388023 252.0
107.597519 164.0
107.884682 212.0
108.005997 264.0
108.05426 144.0
108.08535 300.0
108.137032 140.0
108.205345 156.0
108.602547 136.0
108.682045 148.0
108.721474 152.0
108.90625 188.0
108.956108 268.0
109.014282 168.0
109.082924 156.0
109.11821 152.0
109.392822 188.0
109.978554 160.0
110.097557 216.0
110.367119 156.0
110.850647 160.0
110.934113 204.0
111.017265 124.0
111.041603 136.0
111.091118 172.0
111.190376 156.0
111.213203 140.0
111.331589 184.0
111.352036 168.0
111.745125 152.0
111.825089 152.0
111.856667 212.0
111.92614 168.0
112.074501 280.0
112.103081 232.0
112.196465 156.0
112.460182 272.0
112.544662 176.0
112.605179 172.0
112.719254 152.0
112.905289 212.0
113.047844 176.0
113.105484 148.0
113.149376 124.0
113.201553 204.0
113.35714 164.0
113.780396 176.0
113.903564 160.0
113.931183 176.0
113.960472 132.0
114.091339 14608.0
114.235176 140.0
114.37162 128.0
114.516144 252.0
114.753242 136.0
114.911217 216.0
115.054596 648.0
115.095184 1384.0
115.205116 228.0
115.403877 152.0
115.594246 144.0
115.807068 136.0
116.051971 104.0
116.084793 184.0
116.140556 148.0
116.703346 116.0
116.759109 156.0
116.793518 144.0
117.039238 112.0
117.05777 312.0
117.35128 236.0
117.437538 176.0
117.538933 144.0
117.554031 152.0
117.571114 140.0
117.849854 236.0
117.95697 156.0
118.04319 184.0
118.064476 4360.0
118.160278 132.0
118.180664 140.0
118.36248 144.0
118.507896 176.0
118.618126 216.0
118.637642 180.0
118.917305 172.0
118.945671 148.0
119.049812 212.0
119.07238 1456.0
119.173615 176.0
119.369331 148.0
119.41935 164.0
119.488411 96.0
119.641296 148.0
119.746971 136.0
119.826416 176.0
119.880005 168.0
119.937553 208.0
119.952812 168.0
120.000771 148.0
120.024536 160.0
120.044495 6984.0
120.072845 152.0
120.118538 192.0
120.14035 168.0
120.168709 156.0
120.289864 132.0
120.469986 160.0
120.514656 164.0
120.557381 184.0
120.577049 140.0
120.850563 152.0
120.987419 144.0
121.05291 5264.0
121.102585 176.0
121.14595 168.0
121.216316 172.0
121.406776 164.0
121.705208 212.0
121.76889 264.0
121.920479 152.0
121.973373 212.0
122.058151 420.0
122.373611 176.0
122.470505 164.0
122.694832 120.0
122.908249 164.0
122.979836 140.0
123.069443 396.0
123.251465 192.0
123.293449 248.0
123.474731 152.0
123.774399 144.0
124.076241 172.0
124.888695 100.0
125.381805 204.0
125.413002 188.0
125.439751 192.0
125.493256 180.0
125.669456 140.0
126.051277 152.0
126.086464 264.0
126.198799 152.0
126.37326 156.0
126.509773 180.0
126.592621 148.0
126.650848 160.0
126.731499 180.0
126.762863 148.0
126.81665 184.0
126.923607 192.0
127.054726 196.0
127.085991 228.0
127.234184 176.0
127.307976 220.0
127.516907 144.0
127.67878 148.0
127.800255 148.0
127.822212 116.0
127.921783 120.0
128.063171 900.0
128.111404 252.0
128.228104 184.0
128.273193 148.0
128.70636 160.0
128.783142 144.0
128.945816 168.0
129.070114 2888.0
129.096649 244.0
129.509186 160.0
129.778854 248.0
129.833923 140.0
129.9104 168.0
130.069 604.0
130.114639 188.0
130.395615 144.0
130.423584 144.0
130.468323 204.0
130.521469 144.0
130.556854 116.0
130.63385 144.0
130.675995 140.0
130.736511 168.0
131.062225 1000.0
131.212051 212.0
131.414139 136.0
131.564819 144.0
131.681274 172.0
131.778641 148.0
131.962357 180.0
131.982025 172.0
132.042465 212.0
132.080658 1084.0
132.129303 152.0
132.251404 180.0
132.511642 144.0
132.759201 156.0
132.880768 156.0
133.055679 456.0
133.086609 288.0
133.142441 140.0
133.191925 140.0
133.215942 192.0
133.248108 164.0
133.377716 180.0
133.415878 228.0
133.443466 168.0
133.557404 168.0
133.634354 172.0
133.668915 380.0
133.885269 140.0
134.060532 15836.0
134.095291 980.0
134.120209 156.0
134.380035 96.0
134.573669 156.0
134.76265 180.0
134.791855 324.0
134.932846 148.0
135.010727 152.0
135.06694 3404.0
135.100266 196.0
135.622681 152.0
135.685974 132.0
135.769043 156.0
135.825455 124.0
136.008698 104.0
136.075943 42548.0
136.177536 100.0
136.2005 148.0
136.226318 124.0
136.252945 152.0
136.365402 208.0
136.504883 164.0
136.777084 152.0
136.818115 160.0
137.079681 5228.0
137.167114 144.0
137.385284 188.0
137.480957 152.0
137.695801 144.0
137.739059 196.0
137.924698 144.0
137.991562 120.0
138.039261 124.0
138.08345 272.0
138.118546 120.0
138.15152 272.0
138.179596 212.0
138.764908 136.0
138.816696 168.0
139.053162 172.0
139.192719 148.0
139.603378 152.0
139.803329 200.0
140.022278 160.0
140.064667 160.0
140.414368 184.0
140.583359 180.0
140.745239 152.0
140.776932 148.0
140.822388 208.0
141.007675 180.0
141.071304 2296.0
141.60466 256.0
141.7314 152.0
141.811737 188.0
142.074615 384.0
142.424698 124.0
142.555984 140.0
142.689087 376.0
142.729507 156.0
142.815125 188.0
142.912659 216.0
143.049744 900.0
143.086594 144.0
143.245956 144.0
143.632111 308.0
143.677841 164.0
143.901779 160.0
143.92804 164.0
143.973419 140.0
143.999481 184.0
144.059174 472.0
144.078461 692.0
144.214706 168.0
144.653336 128.0
144.745804 172.0
145.064255 1132.0
145.112411 148.0
145.166138 156.0
145.255112 228.0
145.525986 104.0
145.665909 168.0
145.726822 184.0
145.959976 156.0
146.027542 124.0
146.060486 560.0
146.082687 1832.0
146.337799 164.0
146.707596 144.0
146.829147 124.0
147.066025 768.0
147.179214 144.0
147.224487 176.0
147.373764 124.0
147.682419 140.0
147.802826 140.0
147.898911 200.0
147.944382 264.0
147.99472 100.0
148.075424 9572.0
148.304581 172.0
148.422913 168.0
148.449585 156.0
148.484222 132.0
148.781998 168.0
148.802719 120.0
148.862122 168.0
148.980911 164.0
149.083374 10456.0
149.128769 148.0
149.283051 124.0
149.370071 180.0
149.53067 228.0
149.69133 228.0
149.811264 192.0
149.8535 132.0
149.89035 304.0
149.910461 172.0
149.99588 272.0
150.038284 180.0
150.091873 48072.0
150.147049 156.0
150.246368 176.0
150.343674 100.0
150.410553 192.0
150.463516 172.0
150.512177 128.0
150.537506 188.0
150.726349 176.0
150.884323 220.0
150.905975 160.0
150.943146 248.0
150.980469 152.0
151.052368 176.0
151.09462 4108.0
151.153503 140.0
151.236816 100.0
151.297424 124.0
151.371368 244.0
151.514206 176.0
151.935089 256.0
152.060928 272.0
152.094574 704.0
152.134171 168.0
152.585907 148.0
152.922913 192.0
153.070755 1860.0
153.311722 128.0
153.443054 128.0
153.499374 148.0
154.076462 652.0
154.163406 160.0
154.291946 172.0
154.715729 172.0
154.739746 232.0
154.778183 152.0
155.006836 144.0
155.060791 304.0
155.085983 11912.0
155.183228 140.0
155.36676 152.0
155.433746 176.0
155.459625 148.0
156.037292 240.0
156.088776 1780.0
156.477661 140.0
156.510025 144.0
156.691849 148.0
157.025864 156.0
157.065323 12648.0
157.14122 148.0
157.201767 132.0
157.341431 136.0
157.456406 180.0
157.475113 152.0
157.617508 232.0
158.037811 168.0
158.069046 832.0
158.105133 268.0
158.177719 144.0
158.395569 164.0
158.500793 236.0
159.069336 524.0
159.090744 644.0
159.249969 96.0
159.582596 160.0
159.64949 140.0
159.744263 140.0
159.992233 176.0
160.045074 176.0
160.072937 556.0
160.194153 168.0
160.2798 144.0
160.355408 140.0
160.48877 124.0
160.554581 168.0
160.652939 140.0
160.938126 168.0
161.060364 180.0
161.082504 552.0
161.178085 168.0
161.302948 188.0
161.758514 96.0
161.853439 148.0
161.880341 148.0
161.936096 188.0
162.030228 184.0
162.091492 32076.0
162.225159 112.0
162.383087 144.0
162.433807 176.0
162.451569 140.0
162.496872 136.0
162.56575 144.0
162.591125 152.0
162.665604 116.0
162.822144 228.0
163.095917 4248.0
163.170334 156.0
163.200775 176.0
163.279602 168.0
163.403534 172.0
163.547104 176.0
163.601761 164.0
163.758072 148.0
163.870163 148.0
163.963272 156.0
164.10582 3608.0
164.291901 160.0
164.435013 156.0
164.484756 148.0
164.568039 96.0
164.890549 188.0
164.982101 156.0
165.029404 144.0
165.070648 3652.0
165.10817 488.0
165.187469 148.0
165.470596 188.0
165.525299 120.0
165.696899 140.0
165.97908 172.0
166.072113 1136.0
166.150681 160.0
166.461304 212.0
166.546005 180.0
166.646194 256.0
167.078506 160.0
167.117752 292.0
167.629105 144.0
167.668076 164.0
167.73735 184.0
167.871414 168.0
168.05603 800.0
168.093262 172.0
168.19133 192.0
168.232635 176.0
168.379807 140.0
168.537384 172.0
168.638168 156.0
168.676941 140.0
168.801041 144.0
169.062317 444.0
169.093369 144.0
169.41185 180.0
170.011032 172.0
170.064209 308.0
170.197693 156.0
170.267807 144.0
170.460037 160.0
170.483429 184.0
170.512009 140.0
170.751205 156.0
170.796555 164.0
170.997101 140.0
171.08287 700.0
171.265411 156.0
171.381165 184.0
171.430954 216.0
171.494263 180.0
171.55838 176.0
171.666779 168.0
171.776123 184.0
172.077759 252.0
172.085861 128.0
172.09697 284.0
172.127655 168.0
172.167389 128.0
172.213333 140.0
172.233078 140.0
172.323059 212.0
172.3936 184.0
172.677322 144.0
172.822433 356.0
172.903564 156.0
173.084183 260.0
173.106735 572.0
173.222992 216.0
173.321579 136.0
173.482422 144.0
174.01976 156.0
174.090454 2408.0
174.114441 860.0
174.353836 168.0
174.509552 216.0
174.781326 120.0
175.087006 3400.0
175.121933 1656.0
175.24852 172.0
175.321014 128.0
175.343384 160.0
175.561646 156.0
175.616898 188.0
175.738922 140.0
175.89566 164.0
176.065536 164.0
176.104553 1784.0
176.277588 200.0
176.47583 168.0
176.540329 176.0
176.751663 208.0
176.799301 180.0
177.01561 160.0
177.10228 5872.0
177.190414 140.0
177.371155 160.0
177.43425 300.0
177.497879 100.0
177.582733 248.0
177.641098 164.0
178.060471 192.0
178.109619 3352.0
178.480331 140.0
178.498947 140.0
178.725037 140.0
178.995026 112.0
179.085312 112.0
179.109375 444.0
179.169662 160.0
179.516174 148.0
179.913727 156.0
180.105988 104.0
180.236176 120.0
180.541626 176.0
181.062744 472.0
181.081711 196.0
181.162582 156.0
181.183105 176.0
181.210815 148.0
181.229568 152.0
181.497604 148.0
181.529785 152.0
181.613754 128.0
181.820999 108.0
182.081223 308.0
182.129883 176.0
182.540512 132.0
182.707031 184.0
182.805756 140.0
183.039948 224.0
183.080872 21708.0
183.151718 120.0
183.189896 172.0
183.273621 112.0
183.634506 156.0
183.860001 196.0
184.035507 128.0
184.084076 2608.0
184.480469 196.0
184.569901 184.0
184.658447 124.0
184.756516 152.0
184.983841 180.0
185.09169 1332.0
185.167953 176.0
185.333206 184.0
185.673019 188.0
185.888519 100.0
186.091446 164.0
186.277313 140.0
186.33165 184.0
186.478378 168.0
186.793793 192.0
186.824371 132.0
186.988052 140.0
187.089111 180.0
187.238922 128.0
187.294434 104.0
187.681335 176.0
187.793427 240.0
188.005615 124.0
188.103607 1272.0
188.388474 172.0
188.527832 220.0
188.552429 276.0
188.608154 112.0
188.713699 184.0
188.738312 248.0
188.80394 228.0
189.051514 96.0
189.101761 7140.0
189.260193 132.0
189.380478 232.0
189.506241 204.0
189.789734 152.0
189.874756 228.0
189.899261 196.0
189.949692 148.0
189.973495 180.0
189.997086 196.0
190.058197 224.0
190.110779 112208.0
190.267349 104.0
190.319061 144.0
190.377884 144.0
190.418686 168.0
190.563324 188.0
190.710297 188.0
190.800003 116.0
191.007721 112.0
191.115997 22604.0
191.171219 156.0
191.264847 128.0
191.437332 108.0
191.592987 144.0
191.698715 108.0
191.849716 140.0
191.951553 196.0
192.045624 96.0
192.123383 5608.0
192.17717 204.0
192.220612 164.0
192.32959 156.0
192.349792 208.0
192.459274 136.0
192.496368 120.0
192.606064 244.0
192.631531 132.0
192.802811 168.0
192.891464 124.0
192.973969 148.0
193.077896 108.0
193.132629 5568.0
193.461456 132.0
193.577347 100.0
193.654602 108.0
193.783554 288.0
194.010803 152.0
194.135559 452.0
194.331451 104.0
194.638168 132.0
194.665604 144.0
194.790588 244.0
195.036102 172.0
195.097031 160.0
195.404968 152.0
195.667801 132.0
196.678482 184.0
196.734314 168.0
196.862747 168.0
197.079712 148.0
197.100983 300.0
197.180801 132.0
197.273468 140.0
197.690201 144.0
197.825867 112.0
197.935608 180.0
198.103729 196.0
198.146606 176.0
198.199844 192.0
198.320343 200.0
198.359589 164.0
198.471725 140.0
198.56427 144.0
198.67366 204.0
198.811142 212.0
198.999207 152.0
199.075027 140.0
199.100998 96.0
199.280075 164.0
199.439407 120.0
199.521774 180.0
199.812897 140.0
200.095535 168.0
200.131378 400.0
200.280579 104.0
200.643295 184.0
200.842468 228.0
201.096619 520.0
201.217422 160.0
201.275787 176.0
201.558197 228.0
201.760208 160.0
201.839371 212.0
201.975128 148.0
202.096954 312.0
202.191483 136.0
202.272232 168.0
202.753723 168.0
202.775101 104.0
203.034012 132.0
203.117661 9044.0
203.180511 188.0
203.585938 136.0
203.637222 156.0
203.996719 172.0
204.123856 2360.0
204.181732 164.0
204.226547 180.0
204.25441 108.0
204.313965 148.0
204.437347 160.0
204.531693 196.0
204.614243 144.0
204.657974 100.0
204.794678 244.0
204.860184 224.0
204.961731 172.0
205.012665 160.0
205.052689 152.0
205.13414 96612.0
205.285614 112.0
205.329315 212.0
205.397842 148.0
205.439224 132.0
205.472092 164.0
205.559128 160.0
205.592468 124.0
205.67543 184.0
205.694565 228.0
205.754059 120.0
205.819244 144.0
205.927979 136.0
205.996307 152.0
206.079147 172.0
206.139099 17184.0
206.268051 148.0
206.432327 128.0
206.474686 168.0
206.538025 164.0
206.636551 136.0
207.09288 176.0
207.144012 1416.0
207.353607 160.0
207.387787 236.0
207.462524 184.0
207.511261 152.0
207.542801 144.0
207.615005 104.0
207.779831 236.0
207.841919 164.0
207.899597 104.0
207.962982 152.0
208.105743 316.0
208.21521 200.0
208.300461 128.0
208.34726 124.0
208.371292 272.0
208.461899 104.0
208.530319 156.0
208.623291 104.0
208.955902 168.0
209.095139 156.0
209.159348 184.0
209.457916 144.0
209.629669 168.0
210.480621 160.0
211.02536 172.0
211.247833 156.0
211.847946 120.0
211.871796 248.0
212.106522 152.0
212.350067 196.0
212.379074 152.0
212.938461 148.0
212.979904 176.0
213.109879 168.0
213.13678 144.0
213.280075 312.0
213.395462 216.0
213.979416 112.0
214.119598 108.0
214.425934 164.0
214.632263 144.0
214.729309 140.0
214.825394 164.0
214.860397 216.0
215.118103 300.0
216.056702 156.0
216.124878 2228.0
216.778473 200.0
216.925018 160.0
216.962448 156.0
217.060211 176.0
217.133438 1900.0
218.059692 188.0
218.118149 164.0
218.143341 816.0
218.334351 180.0
218.354935 164.0
219.048492 228.0
219.071106 128.0
219.113358 1104.0
219.149124 1836.0
219.413879 136.0
219.627304 140.0
219.984222 176.0
220.119583 504.0
220.153427 436.0
220.48056 140.0
221.026031 132.0
221.0513 144.0
221.100311 100.0
221.13176 164.0
221.634628 168.0
221.959198 108.0
222.023895 164.0
222.153458 140.0
222.178253 180.0
222.506622 148.0
222.763519 100.0
223.020523 144.0
223.097809 148.0
223.163208 160.0
223.34549 176.0
223.785049 164.0
224.059052 152.0
224.101685 156.0
224.345139 192.0
224.45546 176.0
224.935364 140.0
224.981354 120.0
225.547211 136.0
225.894989 184.0
226.120422 996.0
226.146332 152.0
226.375534 108.0
226.544586 168.0
227.107162 132.0
227.132782 152.0
227.402161 156.0
228.22197 136.0
228.348557 152.0
228.456833 152.0
228.845078 156.0
228.93541 144.0
229.131195 140.0
229.175797 132.0
229.221573 188.0
229.501907 164.0
229.541107 204.0
230.063065 168.0
230.115814 220.0
230.294785 148.0
230.395248 168.0
230.499313 136.0
230.678848 156.0
230.701782 120.0
230.826797 128.0
230.906082 180.0
230.960419 108.0
231.062912 128.0
231.149857 7324.0
231.250595 184.0
231.290344 144.0
231.411438 124.0
231.471985 164.0
231.57193 152.0
231.600677 196.0
231.740189 172.0
231.940231 144.0
232.112823 132.0
232.152252 1108.0
232.618011 260.0
232.684082 236.0
232.873077 172.0
233.039413 100.0
233.077438 176.0
233.104874 172.0
233.165543 24876.0
233.218567 168.0
233.25592 224.0
233.500244 136.0
233.684525 200.0
233.801147 152.0
233.882523 148.0
233.928177 156.0
234.137634 132.0
234.168274 3648.0
234.227814 268.0
234.450424 188.0
234.491669 192.0
234.573975 148.0
234.761932 200.0
235.029755 124.0
235.077866 220.0
235.107727 320.0
235.144287 57840.0
235.250824 148.0
235.574707 144.0
235.613419 144.0
235.802994 164.0
236.10611 128.0
236.147934 7920.0
236.21434 124.0
236.25206 116.0
236.679459 136.0
236.718613 164.0
236.769043 160.0
236.873734 132.0
237.148392 820.0
237.262329 96.0
237.375076 160.0
237.435837 152.0
237.5215 112.0
237.711929 168.0
237.742615 176.0
237.883804 140.0
238.037323 184.0
238.086456 148.0
238.605164 172.0
238.651855 176.0
238.814117 120.0
239.02095 220.0
239.143784 180.0
239.276413 128.0
239.532013 212.0
239.627518 144.0
239.997375 148.0
240.127289 172.0
240.250275 164.0
240.308884 160.0
240.418488 124.0
240.571213 148.0
240.999435 140.0
241.11261 144.0
241.19722 104.0
241.683823 152.0
241.985428 124.0
243.104355 104.0
243.394806 196.0
243.450699 152.0
243.494171 160.0
243.670837 156.0
243.761337 140.0
244.132629 12572.0
244.225754 240.0
244.435043 152.0
244.485901 152.0
245.002777 168.0
245.137482 2296.0
245.241791 108.0
245.289459 144.0
245.488998 148.0
245.585678 160.0
245.673019 160.0
245.763489 140.0
246.014145 116.0
246.140076 380.0
246.369171 152.0
246.624252 140.0
246.72876 128.0
247.031906 164.0
247.140503 248.0
247.48317 124.0
248.021393 152.0
248.148727 240.0
248.270248 140.0
248.394531 196.0
248.694336 168.0
248.859009 160.0
248.948013 196.0
248.997162 180.0
249.027634 120.0
249.106445 208.0
249.160385 22756.0
249.268494 96.0
249.294098 116.0
249.393036 176.0
249.530655 108.0
249.600281 148.0
249.937088 160.0
250.005646 244.0
250.162811 3396.0
250.270737 164.0
250.316605 120.0
250.459686 160.0
250.711731 196.0
250.964355 116.0
251.161285 672.0
251.523209 140.0
251.586548 148.0
251.736984 140.0
251.940704 128.0
251.964081 120.0
252.100266 160.0
252.165451 224.0
253.134689 172.0
253.232864 172.0
253.277008 132.0
253.3452 172.0
253.761139 96.0
254.387039 144.0
254.488617 160.0
254.780807 160.0
254.837997 192.0
255.368469 188.0
255.407043 244.0
255.473724 108.0
255.602097 140.0
255.805222 176.0
256.135864 280.0
256.684113 140.0
257.191376 172.0
257.28714 148.0
257.767334 136.0
258.148987 140.0
258.284149 176.0
258.319336 140.0
258.449341 136.0
258.51651 128.0
259.103638 152.0
259.353607 144.0
259.490845 132.0
259.529907 168.0
260.328918 144.0
260.823669 160.0
260.942627 180.0
261.07196 144.0
261.457886 148.0
262.014404 156.0
262.969818 164.0
263.062408 144.0
263.222534 116.0
263.383453 172.0
263.637329 180.0
263.672882 200.0
263.802887 160.0
264.144226 996.0
264.386841 208.0
264.423187 204.0
264.471741 144.0
264.623016 148.0
264.653015 164.0
264.711304 340.0
264.740448 156.0
265.051422 164.0
265.14801 724.0
266.160034 108.0
266.365356 180.0
266.599304 168.0
266.644806 180.0
266.741791 152.0
266.813812 140.0
267.588135 140.0
267.630463 172.0
267.782043 124.0
268.174469 212.0
268.295074 160.0
268.578766 148.0
268.640747 172.0
268.927277 164.0
269.001343 116.0
269.13501 168.0
269.238068 168.0
269.623566 156.0
269.741211 156.0
269.963531 260.0
270.145477 256.0
270.372467 160.0
270.75827 128.0
270.791534 116.0
271.592316 284.0
272.267365 168.0
273.046234 152.0
273.111633 96.0
273.177795 192.0
273.625366 164.0
273.961273 180.0
274.109344 140.0
274.28302 120.0
274.508392 164.0
275.23764 144.0
275.412689 300.0
275.534912 184.0
275.663757 192.0
275.716644 252.0
276.490509 192.0
276.707428 96.0
276.810211 132.0
277.195862 148.0
277.221649 160.0
277.341705 172.0
277.985443 152.0
278.396729 152.0
279.425812 120.0
279.746613 148.0
279.78656 140.0
279.825562 156.0
280.230286 136.0
280.436127 164.0
280.516113 160.0
280.556122 152.0
281.088501 116.0
281.126801 108.0
281.530396 156.0
281.633942 168.0
281.840088 164.0
282.148529 148.0
282.406006 144.0
283.433777 164.0
283.50412 152.0
283.530945 180.0
283.66629 116.0
285.434326 184.0
285.542725 152.0
285.999512 152.0
286.813049 160.0
286.870087 160.0
287.300201 200.0
287.828033 176.0
287.944916 160.0
288.102081 128.0
288.256195 112.0
288.987549 172.0
289.192505 148.0
289.537842 140.0
289.821747 180.0
290.429199 232.0
290.554474 116.0
291.079773 140.0
291.287964 196.0
291.342621 196.0
291.413666 152.0
292.054443 120.0
292.911896 112.0
293.038177 136.0
293.10379 132.0
294.274628 160.0
294.612457 156.0
294.747314 124.0
294.8237 140.0
295.580292 212.0
295.641907 168.0
295.689819 176.0
296.017365 112.0
296.573456 188.0
296.950592 208.0
297.578583 212.0
297.812073 156.0
297.867035 184.0
298.396271 160.0
298.59314 156.0
299.001099 184.0
299.104919 228.0
299.189667 196.0
300.102081 120.0
300.183289 192.0
300.309174 128.0
300.528229 236.0
300.576508 144.0
300.759918 140.0
301.166107 112.0
301.253204 156.0
301.305023 156.0
301.477783 164.0
301.659119 164.0
302.179718 184.0
302.456573 148.0
302.727753 172.0
302.951752 172.0
303.190826 184.0
303.408569 132.0
303.593628 168.0
303.957184 160.0
304.102966 180.0
304.270691 204.0
304.398041 152.0
304.564728 148.0
304.658539 188.0
304.755798 200.0
304.956787 168.0
305.119904 152.0
305.31546 172.0
305.391968 156.0
305.506744 160.0
305.562408 156.0
306.09494 164.0
306.418884 156.0
306.530365 172.0
306.643005 188.0
306.708099 168.0
306.948669 188.0
307.695343 172.0
308.135376 164.0
308.233337 128.0
308.699432 160.0
309.205841 124.0
309.584808 168.0
309.874207 208.0
310.325531 124.0
311.143768 184.0
312.020874 200.0
312.222504 160.0
312.426422 136.0
312.493347 144.0
312.679871 208.0
313.249146 128.0
313.351898 108.0
314.051208 136.0
314.134705 120.0
314.258514 172.0
314.61145 240.0
314.915131 212.0
315.077606 144.0
315.222473 140.0
315.256195 144.0
315.876526 144.0
316.078186 152.0
316.533112 192.0
316.778992 164.0
316.821716 160.0
316.924469 180.0
317.033447 132.0
317.516449 152.0
317.674164 180.0
317.935059 140.0
318.087677 240.0
318.531555 140.0
318.631012 148.0
319.00296 224.0
319.526917 144.0
319.711945 192.0
320.124908 152.0
320.736847 136.0
320.905243 140.0
320.937317 180.0
321.030029 208.0
321.458099 156.0
321.501801 296.0
321.950745 140.0
322.231873 160.0
322.590302 212.0
322.686401 164.0
322.800629 140.0
322.847717 168.0
323.325104 144.0
323.416595 180.0
323.513245 140.0
323.539337 164.0
323.681519 152.0
324.552216 184.0
324.770966 140.0
324.91861 128.0
325.079498 176.0
325.441132 124.0
325.668274 276.0
326.052032 188.0
326.310547 196.0
326.430176 148.0
326.94101 160.0
327.327057 124.0
327.412598 152.0
327.463257 124.0
327.718781 144.0
327.937866 96.0
328.737549 120.0
329.226562 152.0
329.27713 164.0
330.025146 164.0
330.234894 164.0
330.990326 160.0
331.172333 176.0
331.643341 144.0
332.455719 188.0
332.615417 160.0
332.753357 164.0
332.953094 184.0
333.454437 160.0
333.713531 116.0
333.970734 216.0
334.097717 176.0
334.892334 156.0
334.975342 152.0
335.219452 184.0
335.315674 112.0
335.445435 148.0
335.589996 152.0
335.93042 164.0
335.996094 160.0
336.120148 140.0
336.625275 160.0
338.421753 180.0
338.4888 160.0
338.620636 152.0
338.875824 204.0
339.072845 220.0
339.1362 156.0
339.733337 168.0
340.028473 140.0
340.153259 140.0
340.234009 160.0
340.663666 168.0
340.722473 164.0
340.818665 128.0
340.97583 168.0
341.078644 172.0
341.345612 116.0
341.407471 176.0
341.494385 164.0
341.562714 108.0
342.337158 148.0
342.491852 220.0
342.609711 144.0
342.889771 196.0
343.531342 160.0
343.685303 136.0
344.188263 140.0
344.347076 152.0
344.456207 124.0
345.200165 152.0
345.38031 144.0
345.444855 144.0
346.049927 144.0
346.298828 112.0
346.366547 160.0
347.437988 120.0
347.497742 144.0
348.100006 112.0
348.473694 168.0
348.88147 176.0
349.217163 156.0
349.328735 140.0
349.400391 168.0
349.671051 160.0
349.708282 176.0
350.166229 156.0
350.308258 152.0
350.561127 160.0
351.814331 196.0
351.943237 204.0
352.038361 148.0
352.064484 196.0
352.423096 180.0
352.464203 144.0
353.627228 140.0
353.818115 176.0
354.102722 156.0
354.170135 160.0
354.391144 148.0
354.657227 196.0
355.05838 164.0
355.167145 152.0
355.872681 168.0
356.122681 160.0
356.860809 164.0
357.41214 124.0
357.552643 112.0
358.034821 188.0
359.22348 140.0
359.274902 140.0
359.615112 124.0
359.995514 156.0
360.808167 144.0
361.572266 256.0
361.889923 148.0
362.121216 148.0
362.65451 228.0
362.750214 168.0
363.129364 156.0
363.230042 192.0
363.386749 108.0
363.759216 152.0
364.108551 156.0
364.175507 332.0
364.285004 104.0
364.450409 204.0
364.972107 200.0
365.179138 112.0
365.587372 164.0
365.751038 160.0
365.853821 148.0
365.943878 148.0
366.007111 136.0
366.505066 144.0
366.804352 112.0
366.914001 152.0
367.107361 184.0
367.90097 168.0
368.126221 144.0
368.729828 184.0
368.852142 252.0
369.09903 172.0
369.247528 108.0
369.359436 200.0
369.617035 204.0
370.033539 188.0
370.074066 196.0
370.317596 216.0
370.348236 172.0
371.540375 156.0
371.823364 128.0
372.104523 152.0
372.288849 184.0
372.538788 104.0
372.803619 188.0
372.853577 184.0
373.186646 136.0
373.441803 328.0
373.694946 148.0
374.195526 120.0
374.466949 144.0
374.502106 156.0
374.663116 100.0
374.74292 176.0
374.854675 120.0
375.14267 204.0
375.206116 1776.0
375.51004 152.0
375.762085 132.0
376.210907 464.0
376.308228 128.0
377.015686 176.0
377.120056 160.0
377.210266 340.0
377.272552 168.0
377.409973 168.0
377.688416 140.0
377.77771 148.0
378.013397 152.0
378.272217 160.0
379.087555 164.0
379.140289 164.0
379.274567 300.0
379.744415 156.0
380.187378 176.0
380.388 104.0
380.463562 104.0
380.517303 96.0
380.606598 156.0
380.937592 160.0
381.081055 104.0
381.412109 152.0
381.997955 160.0
382.155609 152.0
382.464874 176.0
382.496033 164.0
382.71405 208.0
382.982758 212.0
383.364563 144.0
383.399628 156.0
383.744843 108.0
384.195038 284.0
384.467285 268.0
384.676331 120.0
384.778168 248.0
385.260803 144.0
385.303772 156.0
385.44812 144.0
385.513916 112.0
385.874359 152.0
386.493866 244.0
386.570587 180.0
386.787659 120.0
386.898499 124.0
386.942535 148.0
387.024658 144.0
387.493835 340.0
387.788544 172.0
387.829224 128.0
388.036011 128.0
388.084961 208.0
388.305298 164.0
388.556488 316.0
388.913757 128.0
388.975708 120.0
389.111542 112.0
389.152344 128.0
389.249878 252.0
389.287292 212.0
389.401062 188.0
389.493469 188.0
389.60318 128.0
389.690948 144.0
389.859558 188.0
389.902496 140.0
389.994171 96.0
390.226532 128.0
390.259247 344.0
390.302887 224.0
390.350433 256.0
390.41098 168.0
390.46994 104.0
390.518097 96.0
390.618713 188.0
390.724518 264.0
390.771149 128.0
390.847046 140.0
390.975403 184.0
391.009552 268.0
391.052826 136.0
391.124695 220.0
391.19986 1364.0
391.270905 124.0
391.31778 288.0
391.353577 220.0
391.404694 164.0
391.447906 228.0
391.481842 292.0
391.534454 180.0
391.595123 100.0
391.630798 236.0
391.707733 220.0
391.757538 172.0
391.794067 212.0
391.827301 476.0
391.837982 304.0
391.853455 316.0
391.908508 260.0
391.983521 464.0
392.020477 384.0
392.06662 548.0
392.108582 288.0
392.162262 392.0
392.200806 888.0
392.256317 532.0
392.326538 392.0
392.354401 428.0
392.386383 172.0
392.40274 308.0
392.478424 472.0
392.55545 480.0
392.606201 472.0
392.648712 412.0
392.700165 372.0
392.739807 312.0
392.768066 672.0
392.87735 1000.0
392.934204 496.0
392.988647 712.0
393.038422 500.0
393.097748 984.0
393.219727 265020.0
393.357513 120.0
393.489624 480.0
393.587463 3052.0
393.652344 1168.0
393.713623 1044.0
393.76059 1476.0
393.820343 2936.0
393.883545 14296.0
393.971924 488.0
394.026917 460.0
394.088623 516.0
394.223145 210944.0
394.331116 120.0
394.39624 136.0
394.452393 128.0
394.486267 1268.0
394.580261 664.0
394.633148 316.0
394.678589 172.0
394.708923 196.0
394.828003 784.0
394.872833 7552.0
394.913483 384.0
395.003235 112.0
395.041168 108.0
395.069397 196.0
395.096649 236.0
395.13501 212.0
395.169312 572.0
395.224213 53088.0
395.40799 120.0
395.476776 276.0
395.550781 272.0
395.598602 296.0
395.702057 140.0
395.740723 144.0
395.806305 512.0
395.965027 144.0
395.999237 132.0
396.043152 108.0
396.092896 256.0
396.132416 200.0
396.174438 420.0
396.224609 3004.0
396.387604 404.0
396.418121 224.0
396.466888 272.0
396.490051 488.0
396.53891 392.0
396.584564 588.0
396.651703 340.0
396.708313 300.0
396.737915 476.0
396.766937 800.0
396.849152 772.0
396.943085 188.0
396.981567 300.0
397.049652 360.0
397.157623 112.0
397.21524 220.0
397.329041 184.0
397.389343 168.0
397.461151 300.0
397.525513 168.0
397.569214 176.0
397.644073 108.0
397.693817 176.0
397.733124 212.0
397.780792 156.0
397.825775 168.0
397.870697 152.0
397.979553 152.0
398.123993 196.0
398.209656 104.0
398.30304 180.0
398.350372 144.0
398.41568 176.0
398.544983 128.0
398.680573 100.0
398.724792 116.0
398.950378 116.0
399.927826 100.0
400.047913 152.0
400.490723 112.0
401.286957 212.0
401.54718 108.0
404.496002 100.0
404.968536 188.0
406.221893 104.0
406.37204 152.0
406.620819 152.0
406.987213 124.0
407.287323 156.0
407.37561 192.0
407.871735 108.0
408.120056 112.0
409.107056 160.0
409.143311 132.0
409.172272 96.0
409.83493 220.0
410.311676 100.0
410.427704 144.0
410.710938 132.0
411.71048 112.0
412.185089 112.0
412.433258 96.0
412.878113 132.0
412.994781 160.0
414.234802 144.0
417.135925 100.0
421.497162 112.0
424.449341 136.0
458.301331 144.0
468.166473 160.0
482.056793 96.0
500.854828 100.0
530.687561 124.0
550.967468 144.0
580.327271 160.0
583.983398 104.0
594.02478 164.0
597.246704 96.0
601.361389 148.0
604.073242 164.0
614.611511 144.0
626.388489 100.0
639.534668 96.0
645.538635 140.0
645.788513 112.0
662.044067 116.0
666.273621 148.0
706.847168 140.0
745.839722 152.0
788.794312 140.0
806.099243 144.0
813.507446 152.0
859.925842 156.0
881.856079 100.0
894.023499 224.0
929.806824 200.0
965.355103 132.0
1005.231934 132.0
1026.732666 152.0
1072.596313 184.0
1124.05481 152.0
1142.459839 152.0
1156.427612 140.0
1182.721069 240.0
1210.798584 144.0
1216.518921 156.0
1226.675171 188.0
1252.975952 144.0
1256.395142 140.0
1263.127197 148.0
1266.921509 172.0
1272.055664 208.0
1293.347412 196.0
1302.899048 212.0
1316.338989 148.0
1324.844604 144.0
1335.035278 200.0
1341.012329 176.0
1341.806885 156.0
1343.987671 192.0
1346.834839 144.0
1347.548828 208.0
1350.942871 236.0
1351.067261 156.0
1354.646973 200.0
1356.977417 196.0
1360.256714 152.0
1362.033691 160.0
1370.339111 200.0
1371.07605 164.0
1377.953125 152.0
1378.10083 176.0
1379.002441 232.0
1391.1427 156.0
1397.616089 140.0
1407.171265 192.0
1408.590088 144.0
1411.340332 192.0
1413.689087 160.0
1421.52002 160.0
1422.165405 164.0
1426.882935 192.0
1429.470337 252.0
1431.608154 184.0
1435.39856 164.0
1437.661621 180.0
1438.491821 140.0
1442.17041 148.0
1446.428833 144.0
1452.06604 180.0
1456.59729 148.0
1469.295044 304.0
1471.951172 160.0
1476.337402 140.0
1480.018066 236.0
1482.929077 176.0
1491.367432 180.0
1507.633789 184.0
1507.819214 152.0
1509.581787 152.0
1514.80603 184.0
1517.301392 168.0
1517.433228 208.0
1529.209595 160.0
1530.292725 132.0
1532.971069 160.0
1536.159912 140.0
1538.422974 164.0
1539.586304 188.0
1543.079102 204.0
1553.416504 164.0
1559.792725 252.0
1561.797729 212.0
1561.884277 264.0
1563.284668 152.0
1564.323608 208.0
1567.143066 156.0
1567.820679 156.0
1569.357788 152.0
1572.68689 152.0
1573.278931 188.0
1573.855225 220.0
1576.928223 176.0
1578.825684 180.0
1581.879761 224.0
1585.08728 176.0
1586.157227 148.0
1587.259155 208.0
1591.146973 156.0
1591.559814 180.0
1596.232056 172.0
1597.019409 180.0
1600.321899 160.0
1601.006714 148.0
1603.994507 152.0
1605.294067 160.0
1612.438965 208.0
1626.094238 144.0
1627.458862 160.0
1628.542969 164.0
1629.603394 188.0
1629.812256 200.0
1640.766235 140.0
1641.645142 148.0
1643.685913 224.0
1644.37915 152.0
1647.771484 184.0
1648.813843 176.0
1652.287109 192.0
1657.796753 244.0
1659.077393 160.0
1665.261597 120.0
1672.595703 140.0
1673.709839 176.0
1676.047485 148.0
1678.231934 192.0
1688.692749 184.0
1694.218018 176.0
1700.113281 164.0
1700.819214 172.0
1703.643921 156.0
1705.385986 148.0
1705.583252 188.0
1709.103027 176.0
1714.307129 184.0
1715.312622 152.0
1718.025757 168.0
1718.685791 196.0
1728.286987 188.0
1728.551758 180.0
1728.85791 164.0
1734.81311 152.0
1738.163818 184.0
1743.303955 216.0
1745.224121 144.0
1747.785889 144.0
1749.758545 220.0
1751.232422 152.0
1751.973755 164.0
1752.606934 160.0
1753.531982 192.0
1755.340942 180.0
1757.142578 156.0
1757.743286 248.0
1759.379272 196.0
1768.038696 140.0
1779.029053 104.0
1779.09436 200.0
1779.908691 188.0
1788.31543 220.0
1789.611816 188.0
1791.852173 228.0
1792.905396 176.0
1796.10083 176.0
1796.581665 156.0
1796.809448 196.0
1799.788818 196.0
1800.455933 232.0
1800.903564 152.0
1801.106323 160.0
1801.283691 168.0
1801.77356 180.0
1803.303101 176.0
1805.340576 164.0
1805.990601 140.0
1807.624512 160.0
1808.174561 256.0
1808.420044 196.0
1809.173462 212.0
1810.147095 156.0
1811.883423 144.0
1813.45105 188.0
1814.892212 148.0
1817.291016 156.0
1817.827148 172.0
1819.244507 204.0
1820.577515 164.0
1821.214478 180.0
1821.766602 160.0
1821.962036 156.0
1824.996216 140.0
1827.68396 268.0
1828.841309 168.0
1830.056396 148.0
1832.382446 128.0
1835.059937 244.0
1838.693848 160.0
1843.356567 220.0
1844.766724 140.0
1846.109131 152.0
1852.014404 160.0
1854.730591 188.0
1856.637695 148.0
1861.207642 184.0
1871.568726 144.0
1872.989746 200.0
1875.652222 188.0
1877.074829 272.0
1878.704834 208.0
1878.851562 212.0
1880.240723 172.0
1881.785889 208.0
1882.128662 172.0
1882.390259 152.0
1882.934326 184.0
1883.020752 144.0
1883.374878 168.0
1883.685791 172.0
1888.085205 168.0
1889.676758 164.0
1892.784058 176.0
1892.862061 176.0
1894.247803 152.0
1894.724243 156.0
1901.02771 140.0
1904.248535 148.0
1907.619873 156.0
1908.915405 164.0
1909.098022 196.0
1909.24585 192.0
1910.872437 180.0
1911.464111 148.0
1912.134155 164.0
1914.014526 168.0
1915.939331 164.0
1920.76001 200.0
1921.056641 152.0
1922.412598 168.0
1924.16333 140.0
1924.268188 204.0
1924.800781 308.0
1925.49939 156.0
1926.483887 156.0
1928.015503 180.0
1932.877441 276.0
1935.932495 148.0
1936.782104 156.0
1936.878418 164.0
1937.138062 180.0
1938.315186 212.0
1939.086426 188.0
1939.401855 148.0
1939.77002 188.0
1941.760376 148.0
1943.444702 236.0
1946.218262 176.0
1948.949951 208.0
1949.661743 144.0
1950.988892 156.0
1952.31665 152.0
1955.721436 144.0
1957.077148 212.0
1959.192017 124.0
1959.28772 160.0
1959.472778 160.0
1960.045532 176.0
1963.748047 176.0
1970.686523 160.0
1974.06311 148.0
1976.186035 140.0
1979.522949 148.0
1979.762085 172.0
1985.540161 144.0
1986.806274 136.0
1989.160278 160.0
1989.50647 144.0
1989.888184 228.0
1990.252197 140.0
1990.847168 164.0
1995.245483 144.0
1995.645508 164.0
1996.730347 140.0
1996.845947 148.0
1997.415283 212.0
1999.078979 188.0
2001.794067 160.0
