>compound MLS000860046-01!Nocodazole
>formula C14H11N3O3S
>ionization [M+H]+
>parentmass 302.0578
#inchi InChI=1S/C14H11N3O3S/c1-20-14(19)17-13-15-9-5-4-8(7-10(9)16-13)12(18)11-3-2-6-21-11/h2-7H,1H3,(H2,15,16,17,19)
#inchikey KYRVNWMVYQXFEU
#Ion_Source LC-ESI
#Instrument qTof
#Compound_Source NIH Pharmacologically Active Library
#PI Dorrestein
#Data_Collector VP/LMS
#Scan -1
#Precursor_MZ 302.053
#ExactMass 301.052
#Charge 1
#CAS_Number N/A
#Pubmed_ID N/A
#Smiles COC(=O)Nc1nc2cc(ccc2[nH]1)C(=O)c3cccs3
#INCHI_AUX N/A
#Library_Class 1
#SpectrumID CCMSLIB00000085358
#IonMode Positive
#UpdateWorkflowName UPDATE-SINGLE-ANNOTATED-GOLD
#LibraryQualityString Gold
#TaskID d252d724072548979f1f6f1ced849daf
##Scan# 1618
#SpectrumFile p3-H09_GH9_01_18314.mzXML
#LibraryName Pharm_Active_Library.mgf
#MQScore -1
#Organism Pharm_Active_Library
#TIC_Query 0
#RT_Query -1
#MZErrorPPM -1
#SharedPeaks 0
#MassDiff 0
#LibMZ -1
#SpecMZ 302.053
#SpecCharge 0
#internalFilename spec-00000.mgf

>collision 10
45.003174 100.0
45.100704 156.0
45.184956 200.0
45.23983 164.0
45.289478 216.0
45.322872 168.0
45.334934 152.0
45.577084 108.0
45.610088 200.0
45.649078 28.0
45.817062 196.0
45.979156 132.0
46.073681 188.0
46.084492 188.0
46.120655 216.0
46.175068 192.0
46.300938 128.0
46.352421 220.0
46.371395 172.0
46.387661 164.0
46.507034 156.0
46.521969 156.0
46.531471 160.0
46.557274 172.0
46.574928 112.0
46.615692 164.0
46.644234 124.0
46.676865 152.0
46.799335 160.0
47.021549 176.0
47.155598 168.0
47.21693 216.0
47.252495 236.0
47.396271 116.0
47.503216 148.0
47.525169 172.0
47.611652 176.0
47.722237 188.0
47.853683 176.0
47.878471 120.0
48.086666 164.0
48.097706 120.0
48.213734 128.0
48.400047 244.0
48.41711 208.0
48.432346 188.0
48.546001 116.0
48.633411 172.0
48.668121 176.0
48.698673 200.0
48.734795 204.0
48.803127 200.0
49.102322 104.0
49.160919 368.0
49.198605 196.0
49.254467 224.0
49.37048 200.0
49.500629 204.0
49.563667 64.0
49.726353 168.0
49.862595 164.0
49.976505 164.0
50.218822 100.0
50.453243 136.0
50.499908 156.0
50.519714 76.0
50.617378 80.0
50.640038 180.0
50.679707 164.0
50.703796 220.0
50.797382 152.0
50.822922 196.0
50.940765 124.0
51.041679 144.0
51.115654 144.0
51.449192 124.0
51.593491 172.0
51.657845 164.0
51.732262 128.0
51.886993 100.0
52.004627 212.0
52.056316 164.0
52.10228 240.0
52.296421 92.0
52.361214 164.0
52.3857 152.0
52.45715 276.0
52.548618 92.0
52.560261 116.0
52.60635 168.0
52.94326 196.0
53.040337 184.0
53.079483 164.0
53.115746 112.0
53.131702 264.0
53.31176 204.0
53.346645 92.0
53.374271 252.0
53.489212 200.0
53.528522 188.0
53.618851 28.0
53.633427 128.0
53.706333 224.0
53.732594 68.0
53.755939 104.0
53.86837 156.0
53.969215 160.0
54.01289 172.0
54.12579 144.0
54.188774 216.0
54.267925 160.0
54.36768 152.0
54.424114 196.0
54.474869 192.0
54.688091 60.0
54.699867 36.0
54.774197 164.0
54.912056 156.0
54.92976 36.0
55.21484 156.0
55.25774 200.0
55.496212 132.0
55.610443 148.0
55.712906 172.0
55.736679 184.0
55.827362 148.0
55.874962 196.0
55.910679 120.0
55.981895 172.0
56.007458 120.0
56.116253 152.0
56.1595 400.0
56.284866 208.0
56.332661 152.0
56.356567 184.0
56.373005 180.0
56.41037 164.0
56.426819 156.0
56.47916 176.0
56.597393 148.0
56.657307 116.0
56.709755 304.0
56.804226 136.0
56.89127 184.0
56.930309 92.0
56.996407 64.0
57.061043 232.0
57.264202 128.0
57.50243 88.0
57.727543 120.0
57.738129 172.0
57.821342 56.0
57.857811 132.0
58.206413 148.0
58.229195 144.0
58.330456 276.0
58.463333 200.0
58.54707 88.0
58.609528 212.0
58.731495 172.0
58.962055 112.0
58.989567 112.0
59.010971 172.0
59.052261 140.0
59.073677 132.0
59.222164 136.0
59.324837 184.0
59.459824 212.0
59.590355 112.0
59.648754 124.0
59.699493 88.0
59.848763 144.0
59.948895 120.0
60.036221 236.0
60.093845 180.0
60.115452 152.0
60.20808 48.0
60.463184 188.0
60.518913 136.0
60.542141 172.0
60.68626 208.0
60.821232 244.0
60.863152 216.0
60.880234 112.0
61.069851 180.0
61.094742 44.0
61.1861 168.0
61.273788 136.0
61.364738 192.0
61.398495 152.0
61.637348 228.0
61.864143 120.0
61.908829 140.0
62.322124 212.0
62.576939 160.0
62.60371 164.0
62.639935 156.0
62.669868 164.0
62.728184 160.0
62.747105 188.0
62.780216 168.0
62.866985 132.0
62.949078 144.0
62.986984 136.0
63.017002 144.0
63.36668 112.0
63.453854 196.0
63.588692 112.0
63.601391 160.0
63.68396 160.0
63.717323 188.0
63.858097 184.0
63.998852 124.0
64.07605 188.0
64.344025 232.0
64.35762 116.0
64.485802 224.0
64.534988 148.0
64.56488 144.0
64.570808 100.0
64.575699 184.0
64.600563 124.0
64.643761 224.0
64.664566 124.0
64.712593 116.0
64.807098 96.0
64.843956 160.0
64.89846 140.0
64.920914 160.0
65.097443 112.0
65.123146 184.0
65.168129 168.0
65.185799 172.0
65.250099 204.0
65.291908 196.0
65.330513 180.0
65.67202 120.0
65.768837 144.0
65.846344 248.0
65.87542 148.0
65.992058 164.0
66.129295 144.0
66.211868 228.0
66.237785 96.0
66.304214 144.0
66.331772 152.0
66.357712 136.0
66.382034 136.0
66.425827 176.0
66.461525 116.0
66.513458 132.0
66.541054 128.0
66.677513 100.0
66.716522 236.0
66.73278 92.0
66.753922 188.0
66.799461 100.0
66.970383 72.0
67.02578 188.0
67.05674 216.0
67.107277 116.0
67.19046 112.0
67.231255 92.0
67.242683 200.0
67.298187 152.0
67.36515 124.0
67.412537 196.0
67.468109 84.0
67.540062 88.0
67.569511 136.0
67.636612 124.0
67.736496 172.0
67.784012 240.0
67.859413 44.0
67.880676 116.0
67.952904 28.0
68.07766 184.0
68.102524 148.0
68.187737 152.0
68.245277 148.0
68.278168 200.0
68.322578 196.0
68.46579 192.0
68.497086 180.0
68.584419 192.0
68.633881 172.0
68.787323 48.0
68.889709 208.0
69.038475 104.0
69.058319 164.0
69.232101 176.0
69.349739 200.0
69.379578 124.0
69.455864 128.0
69.603577 200.0
69.899467 140.0
70.055984 180.0
70.130974 160.0
70.150978 140.0
70.170982 240.0
70.197662 128.0
70.292747 116.0
70.342819 120.0
70.407944 208.0
70.473091 160.0
70.561676 220.0
70.611458 156.0
70.904846 200.0
70.928314 104.0
70.941719 116.0
71.03228 108.0
71.099396 120.0
71.260605 176.0
71.364822 112.0
71.605469 136.0
71.723419 44.0
71.775681 144.0
71.799294 192.0
71.829651 172.0
71.920776 180.0
71.949471 68.0
72.013641 184.0
72.035606 240.0
72.108261 128.0
72.169121 120.0
72.492447 72.0
72.577507 156.0
72.624687 68.0
72.772339 188.0
72.823288 224.0
72.867455 156.0
72.966034 164.0
73.05957 152.0
73.075378 152.0
73.102112 164.0
73.163391 160.0
73.216179 176.0
73.322205 68.0
73.342262 204.0
73.466751 144.0
73.48893 148.0
73.627205 160.0
73.827164 56.0
73.902428 92.0
74.135323 136.0
74.238182 140.0
74.36483 152.0
74.414925 128.0
74.618866 164.0
74.638306 164.0
74.73291 272.0
74.834465 112.0
74.84996 72.0
74.908524 172.0
74.930923 164.0
74.98951 160.0
75.001579 160.0
75.168877 136.0
75.196487 112.0
75.218925 188.0
75.303535 136.0
75.334633 76.0
75.383011 204.0
75.49884 212.0
75.521324 124.0
75.663231 216.0
75.810463 200.0
75.876335 204.0
75.898872 216.0
76.060226 144.0
76.136627 36.0
76.275627 116.0
76.405731 172.0
76.550529 60.0
76.562721 96.0
76.717804 260.0
76.770111 108.0
76.860825 180.0
77.012718 116.0
77.128044 48.0
77.187485 100.0
77.287193 176.0
77.343201 136.0
77.357201 192.0
77.449333 152.0
77.549889 132.0
77.631912 128.0
77.656845 216.0
77.781433 152.0
77.839371 180.0
77.906593 176.0
77.972885 180.0
78.143463 236.0
78.164581 192.0
78.187462 208.0
78.289574 152.0
78.375893 224.0
78.483414 144.0
78.592781 124.0
78.760498 200.0
78.838242 56.0
78.850609 204.0
79.002686 160.0
79.023918 84.0
79.036301 84.0
79.05014 176.0
79.172615 228.0
79.208038 144.0
79.273598 128.0
79.631973 152.0
79.703041 196.0
79.754578 192.0
79.829254 256.0
79.896843 208.0
80.083763 176.0
80.114044 88.0
80.263763 232.0
80.374359 148.0
80.545753 128.0
80.572556 248.0
80.623398 196.0
80.740585 144.0
80.763832 184.0
80.91774 92.0
81.053871 148.0
81.245728 60.0
81.260078 252.0
81.344429 124.0
81.358788 160.0
81.385887 132.0
81.484512 120.0
81.619316 108.0
81.671478 188.0
81.702057 32.0
81.79744 120.0
81.835686 232.0
81.88485 176.0
82.047852 112.0
82.100143 40.0
82.121788 36.0
82.159668 156.0
82.221024 196.0
82.284203 80.0
82.567909 120.0
82.718094 132.0
82.819496 188.0
82.84848 212.0
82.872032 136.0
83.022491 136.0
83.140007 160.0
83.260246 136.0
83.551086 236.0
83.653 60.0
83.696693 152.0
83.829674 68.0
83.893471 168.0
83.909882 124.0
84.008362 116.0
84.094131 108.0
84.132462 228.0
84.20916 152.0
84.282234 84.0
84.71769 144.0
84.734184 260.0
84.758003 148.0
84.908325 160.0
84.924835 172.0
85.009232 136.0
85.196518 156.0
85.277374 68.0
85.315979 212.0
85.382172 152.0
85.437363 204.0
85.584602 212.0
86.065872 100.0
86.090546 144.0
86.134209 140.0
86.2192 196.0
86.259865 216.0
86.311455 168.0
86.417068 120.0
86.483688 156.0
86.552193 136.0
86.592934 200.0
86.605904 112.0
86.937782 144.0
86.984184 148.0
87.218239 168.0
87.685432 168.0
87.70594 36.0
87.760002 172.0
88.002571 200.0
88.058594 56.0
88.269775 144.0
88.408211 120.0
88.441902 176.0
88.595459 148.0
88.61982 44.0
88.719154 112.0
88.805412 164.0
88.964912 128.0
89.002464 156.0
89.030632 196.0
89.070076 284.0
89.118927 216.0
89.310684 220.0
89.331375 172.0
89.367126 68.0
89.419815 144.0
89.446167 160.0
89.468758 68.0
89.529015 212.0
89.561035 148.0
89.66967 208.0
89.738182 180.0
89.779671 148.0
89.881538 184.0
89.921173 188.0
89.9627 180.0
90.096786 180.0
90.138359 188.0
90.206398 152.0
90.246101 180.0
90.359589 180.0
90.404999 128.0
90.662567 112.0
90.74218 148.0
90.780106 60.0
90.922394 228.0
90.964149 104.0
91.12178 132.0
91.308075 160.0
91.330894 136.0
91.359436 184.0
91.606918 136.0
91.779449 168.0
91.820404 172.0
91.896713 92.0
91.957779 224.0
92.099075 132.0
92.171677 140.0
92.27298 148.0
92.374344 192.0
92.41452 212.0
92.451347 148.0
92.61937 192.0
92.655769 140.0
92.887009 368.0
92.947212 48.0
93.071983 152.0
93.146889 156.0
93.235275 176.0
93.250648 124.0
93.4468 208.0
93.537254 160.0
93.620049 100.0
93.661621 196.0
93.81852 224.0
94.024918 132.0
94.175514 128.0
94.248932 116.0
94.307693 188.0
94.376503 172.0
94.575775 196.0
94.794624 136.0
94.814011 140.0
95.027321 220.0
95.295265 188.0
95.351616 140.0
95.376884 84.0
95.439102 128.0
95.462433 52.0
95.555801 40.0
95.569427 204.0
95.590828 168.0
95.643379 132.0
95.658951 124.0
95.953133 192.0
96.036987 108.0
96.140396 132.0
96.210663 52.0
96.24971 124.0
96.361771 196.0
96.433357 240.0
96.487328 212.0
96.554749 184.0
96.591743 164.0
96.636742 160.0
96.656303 152.0
96.681747 132.0
96.824669 112.0
96.846214 36.0
96.885391 168.0
96.934013 172.0
96.973572 212.0
97.161827 20.0
97.348297 196.0
97.523155 148.0
97.670631 184.0
97.979706 208.0
98.127525 112.0
98.23008 164.0
98.261642 204.0
98.309006 176.0
98.358345 184.0
98.49855 140.0
98.518303 184.0
98.680367 128.0
98.809158 140.0
98.856422 164.0
98.969254 152.0
99.09404 148.0
99.123764 224.0
99.423813 172.0
99.546303 224.0
99.727097 80.0
99.77282 104.0
99.822533 164.0
99.862305 120.0
99.900368 148.0
100.132996 184.0
100.188774 132.0
100.282425 144.0
100.410034 84.0
100.745384 32.0
100.763367 168.0
100.859291 208.0
100.893272 132.0
100.915268 152.0
100.941261 200.0
100.983261 108.0
101.017265 148.0
101.069283 176.0
101.243446 204.0
101.309547 196.0
101.401726 108.0
101.457855 124.0
101.580185 180.0
101.768837 156.0
102.032043 376.0
102.096596 160.0
102.213074 100.0
102.2332 240.0
102.32579 176.0
102.341904 160.0
102.44059 204.0
102.537308 212.0
103.033356 180.0
103.452354 148.0
103.667053 164.0
103.80896 40.0
103.869812 120.0
104.009827 156.0
104.035202 352.0
104.060577 180.0
104.09713 132.0
104.231201 56.0
104.296242 236.0
104.37146 208.0
104.517921 192.0
104.552513 44.0
104.680771 60.0
104.778542 104.0
104.813179 152.0
105.04538 320.0
105.192543 96.0
105.253792 64.0
105.278297 112.0
105.469673 208.0
105.513283 168.0
105.660545 80.0
105.943069 144.0
105.982002 172.0
106.049629 172.0
106.137787 208.0
106.33268 140.0
106.35936 100.0
106.375786 236.0
106.390556 304.0
106.427109 84.0
106.515419 212.0
106.636658 144.0
106.8592 164.0
106.894676 200.0
106.984299 184.0
107.027534 32.0
107.058426 88.0
107.124336 88.0
107.297447 220.0
107.31601 60.0
107.441818 180.0
107.656487 148.0
107.743248 196.0
107.782501 148.0
108.018196 124.0
108.04509 160.0
108.074059 132.0
108.109238 136.0
108.163055 160.0
108.23465 200.0
108.351509 148.0
108.390404 140.0
108.424034 48.0
108.548424 128.0
108.679108 212.0
108.693626 160.0
108.743439 152.0
108.771263 220.0
109.16935 172.0
109.188065 136.0
109.210945 188.0
109.22596 72.0
109.36908 180.0
109.419044 216.0
109.502342 188.0
109.546082 212.0
109.602341 148.0
109.639847 216.0
109.800385 140.0
109.850449 140.0
109.904694 144.0
109.973564 132.0
110.067513 212.0
110.094658 72.0
110.109276 168.0
110.155228 148.0
110.203285 148.0
110.257126 136.0
110.351685 136.0
110.438728 180.0
110.525291 208.0
110.578529 204.0
110.669724 156.0
110.703232 128.0
110.736839 172.0
110.780724 176.0
110.82682 172.0
110.860352 212.0
110.904366 228.0
110.920082 384.0
110.93634 300.0
110.961258 360.0
110.990654 71828.0
111.066582 88.0
111.107658 52.0
111.13002 68.0
111.147041 68.0
111.152664 112.0
111.170723 32.0
111.211861 120.0
111.236748 44.0
111.26889 120.0
111.302055 128.0
111.334892 1184.0
111.369629 76.0
111.423576 136.0
111.443306 184.0
111.492043 144.0
111.544594 112.0
111.559311 56.0
111.592949 156.0
111.658134 272.0
111.68261 104.0
111.700203 76.0
111.717033 188.0
111.748596 52.0
111.788574 124.0
111.910667 44.0
111.94857 68.0
111.99276 5280.0
112.026505 80.0
112.045464 44.0
112.076134 108.0
112.110962 96.0
112.133965 108.0
112.180344 80.0
112.203529 72.0
112.254723 156.0
112.268898 132.0
112.295395 164.0
112.357491 48.0
112.378593 68.0
112.415154 172.0
112.452454 64.0
112.473564 60.0
112.508041 108.0
112.549255 192.0
112.636154 88.0
112.664764 200.0
112.725288 108.0
112.749496 100.0
112.764221 136.0
112.782646 148.0
112.79969 72.0
112.815781 104.0
112.832695 92.0
112.866524 128.0
112.905014 120.0
112.985359 3764.0
113.082314 84.0
113.145821 172.0
113.198753 160.0
113.228401 128.0
113.253822 44.0
113.275002 76.0
113.300423 28.0
113.330086 116.0
113.344925 184.0
113.393661 68.0
113.49118 180.0
113.573891 124.0
113.682098 64.0
113.820084 144.0
113.98645 340.0
114.015526 240.0
114.077164 40.0
114.14946 96.0
114.234535 120.0
114.470787 104.0
114.528297 48.0
114.624168 68.0
114.865089 148.0
114.952568 156.0
115.112221 188.0
115.163933 96.0
115.343422 196.0
115.51236 196.0
115.574402 192.0
115.730659 100.0
115.786339 48.0
116.035828 204.0
116.122833 144.0
116.498482 108.0
116.539307 32.0
116.664513 156.0
116.700516 92.0
116.931854 216.0
116.982353 108.0
117.171875 68.0
117.223587 52.0
117.242989 136.0
117.37233 76.0
117.689529 176.0
117.801834 152.0
117.851532 208.0
118.03743 76.0
118.056892 216.0
118.236458 140.0
118.353355 84.0
118.398834 248.0
118.42482 156.0
118.44648 168.0
118.526642 96.0
118.555901 184.0
118.736931 104.0
118.778145 220.0
118.908333 188.0
118.943062 128.0
119.020981 144.0
119.075516 48.0
119.238464 160.0
119.28846 64.0
119.595169 52.0
119.684433 136.0
119.793327 72.0
119.878304 180.0
119.956772 160.0
120.120323 168.0
120.139961 104.0
120.601631 196.0
120.793152 192.0
120.998863 172.0
121.029518 144.0
121.088646 84.0
121.320923 156.0
121.336136 132.0
121.39328 104.0
121.62365 152.0
121.660973 160.0
121.687317 68.0
121.849846 144.0
121.915771 44.0
121.95533 76.0
121.97731 104.0
122.232437 180.0
122.700356 68.0
122.906731 220.0
122.928802 48.0
122.970734 112.0
123.686897 112.0
123.721031 124.0
123.802032 48.0
123.939377 116.0
124.390045 144.0
124.633904 140.0
124.800613 100.0
124.849541 280.0
125.107651 112.0
125.386093 76.0
125.691612 208.0
125.81884 168.0
125.999748 200.0
126.093597 244.0
126.209846 164.0
126.532043 96.0
127.045273 180.0
127.092392 204.0
127.249512 288.0
127.276451 120.0
127.35955 116.0
127.40448 160.0
127.557297 184.0
127.611252 112.0
127.734947 120.0
127.937485 112.0
128.025299 200.0
128.050064 308.0
128.273148 60.0
128.352051 160.0
128.417465 172.0
128.514465 232.0
128.548309 60.0
128.600815 76.0
128.934494 116.0
129.303146 104.0
129.436722 72.0
129.790207 156.0
129.862778 156.0
130.003448 128.0
130.039307 2088.0
130.075684 136.0
130.519119 196.0
130.544128 64.0
130.632828 64.0
130.657867 188.0
130.72612 176.0
130.760254 88.0
130.79213 160.0
130.919632 244.0
131.023178 1072.0
131.046799 684.0
131.097321 60.0
131.339005 184.0
131.558075 96.0
131.807037 128.0
131.841309 144.0
131.898453 160.0
132.025772 316.0
132.055313 828.0
132.649292 256.0
132.940582 180.0
133.039169 240.0
133.154099 40.0
133.434448 192.0
133.489624 140.0
133.554031 128.0
133.708191 36.0
133.768036 140.0
133.807175 188.0
133.949951 164.0
134.029434 172.0
134.175797 100.0
134.478485 76.0
134.580811 148.0
134.600357 40.0
134.646545 176.0
134.743561 132.0
135.201416 224.0
135.588181 156.0
135.636856 52.0
135.810776 156.0
135.859482 208.0
135.910522 124.0
136.0569 220.0
136.168213 164.0
136.261139 64.0
136.349442 156.0
136.814667 208.0
136.844925 188.0
137.362305 72.0
138.325089 132.0
138.470261 120.0
138.498367 56.0
138.60379 120.0
138.760834 112.0
138.871063 244.0
139.27478 48.0
139.298264 168.0
139.325317 196.0
139.794373 60.0
140.047012 184.0
140.072205 184.0
140.186996 128.0
140.241867 160.0
140.505981 96.0
140.531937 72.0
140.576767 140.0
140.612167 148.0
140.642853 112.0
140.718399 156.0
140.824677 180.0
140.895538 264.0
141.061691 168.0
141.363708 124.0
141.47023 144.0
141.600464 140.0
142.418762 200.0
142.604095 124.0
142.663528 124.0
143.010818 36.0
143.387146 60.0
143.706375 176.0
143.732941 236.0
143.828415 124.0
144.119781 156.0
144.581299 156.0
144.82312 168.0
145.009262 152.0
145.033936 164.0
145.077133 76.0
145.168243 192.0
145.213821 180.0
145.268982 92.0
145.564209 168.0
145.61705 172.0
145.934265 208.0
145.961441 208.0
146.064041 208.0
146.150742 76.0
146.509491 160.0
146.702286 144.0
147.011017 184.0
147.029984 192.0
147.071365 124.0
147.382904 120.0
147.50563 92.0
147.576279 52.0
147.774612 228.0
148.028778 176.0
148.052994 188.0
148.082047 196.0
148.320724 184.0
148.445587 172.0
148.518341 104.0
148.702744 132.0
148.872696 92.0
149.04274 232.0
149.098633 236.0
149.183716 132.0
149.259079 128.0
149.302856 116.0
149.334473 184.0
149.499924 72.0
149.70929 40.0
149.72876 152.0
150.007889 104.0
150.028488 132.0
150.063492 184.0
150.226013 88.0
150.682556 232.0
150.831635 164.0
150.917206 136.0
151.005234 136.0
151.024811 112.0
151.176498 236.0
151.313568 32.0
151.33316 204.0
151.681046 104.0
151.727631 96.0
152.044067 196.0
152.365738 180.0
152.476318 108.0
152.759094 224.0
153.042114 84.0
153.148026 108.0
153.470856 136.0
153.488113 156.0
153.655853 172.0
153.716324 156.0
153.781708 160.0
154.056107 196.0
154.087021 188.0
154.310364 176.0
154.654221 140.0
154.832489 176.0
154.964096 136.0
155.063171 184.0
155.422501 124.0
155.531693 216.0
155.998703 188.0
156.180237 160.0
156.210083 144.0
156.409164 132.0
156.620819 132.0
156.752869 148.0
156.857544 144.0
156.964752 136.0
157.034531 180.0
157.044052 176.0
157.349014 228.0
157.38147 104.0
157.77623 120.0
157.913773 152.0
157.963791 164.0
158.034943 2132.0
158.221558 48.0
158.329239 80.0
158.371811 56.0
158.446976 36.0
158.574112 136.0
158.609863 56.0
158.632416 72.0
158.677551 216.0
158.705124 172.0
158.835541 80.0
158.858124 56.0
158.930878 120.0
159.043091 1664.0
159.081467 36.0
159.273651 120.0
159.332611 132.0
159.641785 120.0
159.822906 132.0
159.913498 116.0
160.018921 468.0
160.050934 1856.0
160.248428 144.0
160.596329 48.0
160.65686 88.0
160.914291 124.0
160.939545 108.0
161.026917 192.0
161.050583 192.0
161.313461 60.0
161.480347 148.0
161.596725 200.0
161.761215 200.0
161.814392 176.0
161.918213 108.0
161.979004 80.0
162.030045 836.0
162.067673 216.0
162.189316 200.0
162.338913 32.0
162.7043 232.0
163.029892 156.0
163.118393 100.0
163.227722 176.0
163.367599 112.0
163.479568 100.0
163.601746 108.0
164.009323 40.0
164.150162 216.0
164.192902 60.0
164.501648 168.0
164.64209 192.0
165.015167 104.0
165.112335 168.0
165.319565 224.0
165.391785 204.0
165.52948 136.0
165.547409 124.0
165.619125 164.0
165.67804 156.0
165.721588 164.0
165.926636 120.0
166.180557 128.0
166.398727 184.0
166.676132 92.0
166.750656 60.0
167.223907 200.0
167.29599 156.0
167.803528 132.0
167.945358 232.0
168.048553 140.0
168.071777 244.0
168.296341 128.0
168.469391 108.0
168.634766 160.0
168.751099 164.0
169.043396 180.0
169.067154 176.0
169.250488 124.0
169.589859 88.0
169.810257 160.0
169.965912 128.0
170.073853 612.0
170.181351 64.0
170.339783 148.0
170.646454 164.0
170.724457 128.0
171.101761 176.0
171.810654 64.0
171.839355 40.0
171.925461 140.0
172.019974 1568.0
172.095139 144.0
172.168259 168.0
172.463501 116.0
172.929077 192.0
172.947403 188.0
172.999756 160.0
173.028397 276.0
173.057358 164.0
173.094757 212.0
173.63649 116.0
173.759781 100.0
174.027847 404.0
174.332993 68.0
175.030106 180.0
175.319107 140.0
175.458801 192.0
175.490448 200.0
175.804352 168.0
175.981216 36.0
176.019424 196.0
176.042465 408.0
176.872147 192.0
176.903915 220.0
176.996582 204.0
177.023071 116.0
177.74411 100.0
178.04332 140.0
178.34964 80.0
178.759216 104.0
179.017441 200.0
179.06691 156.0
179.206573 116.0
179.417114 152.0
179.555786 176.0
179.774551 140.0
180.055618 216.0
180.081573 176.0
180.190979 176.0
180.399567 48.0
180.506516 192.0
180.554657 64.0
180.776703 156.0
180.998886 172.0
181.032532 144.0
181.064774 192.0
181.237289 188.0
181.64212 180.0
181.711868 168.0
181.95343 120.0
182.07695 148.0
182.146774 104.0
182.359497 168.0
182.532043 200.0
182.662903 276.0
182.754379 124.0
182.930695 156.0
182.962555 76.0
182.988541 68.0
183.028931 220.0
183.074707 172.0
183.465424 156.0
183.530121 164.0
183.872726 204.0
184.026596 212.0
184.059006 92.0
184.107605 160.0
184.542679 112.0
184.740112 172.0
184.848343 180.0
185.06604 184.0
185.116333 124.0
185.286987 40.0
185.501083 112.0
185.633926 48.0
185.671906 172.0
185.913361 204.0
185.996597 104.0
186.032913 7108.0
186.089294 208.0
186.128769 204.0
186.13974 100.0
186.147842 160.0
186.182129 48.0
186.202774 80.0
186.358704 64.0
186.611481 68.0
186.728409 48.0
186.777374 40.0
186.985611 112.0
187.033783 1520.0
187.109375 108.0
187.245529 80.0
187.266312 96.0
187.35994 152.0
187.523438 64.0
187.599762 72.0
187.662476 56.0
187.897034 128.0
187.918854 108.0
187.940689 144.0
188.037827 320.0
188.105698 168.0
188.142654 148.0
188.172699 104.0
188.196548 136.0
188.235489 60.0
188.325623 196.0
188.374786 88.0
188.440353 180.0
188.486801 60.0
188.669937 84.0
188.757431 164.0
188.828537 120.0
189.02681 164.0
189.154144 48.0
190.022903 164.0
190.080536 140.0
190.116211 28.0
190.151886 104.0
190.269928 136.0
190.442932 164.0
190.486877 192.0
190.602264 112.0
190.956909 112.0
191.031601 2412.0
191.121979 112.0
191.570755 112.0
191.827042 88.0
192.034241 328.0
192.152466 248.0
192.580353 80.0
192.619019 128.0
192.665985 140.0
192.831787 176.0
193.047424 192.0
193.24382 132.0
193.636917 88.0
193.722794 204.0
194.120453 188.0
194.280014 224.0
194.471481 232.0
194.599182 224.0
195.021454 176.0
195.05481 56.0
195.382965 172.0
195.433044 40.0
195.549927 164.0
195.622299 180.0
195.950928 64.0
196.06517 92.0
196.087479 128.0
196.106979 156.0
196.374649 128.0
196.39975 108.0
196.871445 60.0
197.012512 304.0
197.050217 160.0
197.181549 216.0
197.368851 184.0
197.500305 84.0
197.844498 52.0
198.061661 168.0
198.088135 144.0
198.130157 172.0
198.488937 48.0
198.620743 104.0
198.96312 160.0
199.06955 156.0
199.132736 148.0
199.168121 140.0
199.508148 116.0
199.840149 172.0
199.94133 192.0
200.014511 148.0
200.038696 252.0
200.080811 180.0
200.195328 216.0
200.360886 184.0
200.383423 184.0
201.02153 188.0
201.133591 84.0
201.18158 52.0
201.382065 152.0
201.738113 132.0
201.803131 228.0
201.938873 184.0
202.173706 132.0
202.451141 40.0
202.711777 88.0
203.034958 88.0
203.188141 200.0
203.227859 100.0
203.35556 68.0
203.466278 208.0
203.71051 196.0
203.861099 180.0
203.92363 144.0
203.954895 220.0
203.974792 168.0
204.020279 88.0
204.310364 120.0
204.666138 68.0
205.524109 132.0
205.652542 164.0
206.647034 148.0
206.795853 68.0
206.841644 204.0
206.875992 108.0
207.213943 232.0
207.371552 192.0
207.844742 160.0
207.907883 172.0
208.054962 232.0
208.14328 232.0
208.217941 120.0
208.427658 112.0
208.556992 160.0
209.058228 728.0
209.313644 136.0
209.440353 120.0
209.581528 92.0
209.982239 144.0
210.037033 152.0
210.064011 844.0
210.117813 116.0
210.394882 212.0
210.776138 104.0
210.851273 156.0
211.072311 184.0
211.123047 196.0
211.244522 156.0
211.496277 136.0
211.56575 140.0
211.884323 128.0
212.032104 168.0
212.061096 148.0
212.528 104.0
213.038513 328.0
213.137772 192.0
213.853195 184.0
213.888123 180.0
214.010406 148.0
214.042511 2832.0
214.106506 104.0
214.304596 168.0
214.469681 136.0
214.517349 144.0
214.663132 116.0
214.855637 44.0
214.878983 224.0
214.931503 52.0
215.043945 596.0
215.083267 168.0
215.384018 120.0
215.424927 76.0
215.731766 132.0
215.755157 92.0
215.968628 88.0
216.038498 332.0
216.369537 156.0
216.43103 192.0
216.457382 48.0
216.732742 132.0
216.847031 176.0
216.990677 92.0
217.037033 148.0
217.100967 188.0
217.17836 176.0
217.283371 216.0
217.806519 80.0
217.87114 160.0
217.979858 140.0
218.991913 172.0
219.030197 148.0
219.286392 152.0
219.304459 156.0
219.347427 232.0
220.845535 160.0
221.209503 100.0
222.466446 156.0
222.656479 144.0
222.873352 128.0
223.096252 184.0
223.405548 136.0
223.604919 104.0
223.866898 48.0
224.027283 180.0
224.081711 172.0
224.555359 132.0
224.647827 172.0
224.731354 80.0
224.773132 116.0
225.034363 312.0
225.052261 184.0
225.226944 120.0
225.29863 156.0
225.522751 132.0
225.808792 216.0
225.878586 164.0
225.986298 108.0
226.049179 512.0
226.228714 60.0
226.375427 156.0
226.435333 152.0
226.53418 112.0
226.803864 148.0
226.860825 132.0
227.023697 256.0
227.406769 64.0
227.646942 148.0
227.722031 148.0
227.824158 196.0
228.021988 144.0
228.184814 116.0
228.308105 128.0
228.657089 192.0
228.979248 228.0
229.045517 172.0
229.202179 136.0
229.364929 124.0
229.7117 136.0
229.796173 216.0
230.324493 100.0
230.360748 68.0
230.400009 196.0
231.034897 100.0
231.107513 156.0
231.137772 172.0
231.491943 112.0
231.725189 200.0
231.77063 244.0
231.970673 196.0
232.04039 132.0
232.26178 196.0
232.540924 84.0
232.77774 172.0
232.990356 48.0
233.154434 76.0
233.27298 112.0
233.379395 156.0
234.060989 172.0
234.085358 112.0
234.249817 172.0
234.271149 120.0
234.304657 184.0
234.362549 168.0
234.389969 172.0
234.524063 88.0
234.889984 140.0
235.317245 128.0
235.644043 144.0
235.918015 156.0
235.995544 80.0
236.048279 316.0
236.40239 124.0
236.448288 76.0
236.506454 144.0
237.045685 160.0
237.069992 56.0
237.422546 164.0
237.48082 192.0
238.054749 152.0
238.318924 116.0
238.693924 120.0
238.976913 164.0
239.038467 164.0
239.072311 116.0
239.38324 196.0
239.564972 92.0
239.826889 120.0
240.070465 116.0
240.360443 120.0
240.725784 160.0
241.030411 124.0
241.157227 180.0
241.370544 144.0
241.540649 216.0
241.664398 208.0
241.82222 168.0
242.038467 1096.0
242.187592 88.0
242.522232 140.0
242.559433 60.0
242.947067 152.0
242.990509 76.0
243.035049 376.0
243.319489 152.0
243.844467 240.0
243.903534 152.0
244.05159 236.0
244.348236 44.0
244.784012 168.0
244.833832 72.0
244.95842 204.0
245.037979 216.0
245.40097 40.0
245.482056 44.0
245.625519 68.0
245.928192 156.0
246.146729 104.0
246.377869 156.0
246.615356 132.0
246.906143 176.0
246.94519 172.0
247.688629 96.0
248.34375 88.0
248.406479 200.0
248.622986 136.0
248.735977 48.0
249.002869 156.0
249.087677 140.0
249.571671 172.0
249.636337 164.0
249.864182 76.0
250.191498 204.0
250.298553 56.0
250.333191 172.0
250.504944 136.0
250.998093 176.0
251.029633 56.0
251.275665 140.0
251.310379 176.0
251.354553 144.0
251.401886 96.0
251.818634 176.0
251.903915 152.0
252.025864 596.0
252.06189 172.0
252.267334 176.0
252.371674 144.0
252.61203 64.0
252.836685 148.0
253.034225 312.0
253.061432 112.0
253.62851 160.0
253.796539 124.0
253.988937 188.0
254.024826 172.0
254.032898 168.0
254.045059 260.0
254.262878 92.0
254.812225 152.0
255.006073 44.0
255.098434 284.0
255.689896 180.0
255.826767 100.0
255.849045 156.0
256.479797 132.0
257.117706 68.0
257.61264 164.0
257.964142 120.0
258.06839 376.0
258.626312 204.0
259.065033 100.0
259.106659 168.0
259.241241 152.0
259.295715 120.0
259.712555 124.0
260.277405 144.0
261.26413 88.0
261.289856 160.0
261.52478 176.0
261.676086 116.0
262.021667 68.0
262.207611 104.0
262.710632 132.0
262.881653 120.0
263.469299 100.0
264.062561 152.0
264.209656 188.0
264.326141 208.0
264.403809 124.0
264.882996 188.0
264.92511 184.0
265.148712 116.0
265.44696 132.0
265.781067 148.0
265.972565 216.0
266.209564 164.0
266.599396 160.0
266.88031 172.0
267.171692 128.0
267.467834 120.0
267.715973 168.0
267.887909 204.0
268.015747 300.0
268.122498 168.0
268.246368 152.0
268.35199 204.0
268.539825 160.0
268.564026 116.0
268.594055 116.0
268.613831 228.0
268.693146 144.0
268.758728 168.0
268.903137 144.0
268.924835 176.0
269.021851 196.0
269.029816 232.0
269.043701 184.0
269.069397 172.0
269.094086 144.0
269.130524 188.0
269.156647 164.0
269.263641 156.0
269.313385 100.0
269.377899 80.0
269.411987 152.0
269.447327 36.0
269.498016 172.0
269.529022 68.0
269.558441 348.0
269.58783 36.0
269.628784 160.0
269.666138 112.0
269.694977 144.0
269.75061 196.0
269.800598 172.0
269.857666 160.0
269.911713 464.0
269.952545 160.0
270.033783 154272.0
270.118713 232.0
270.158234 284.0
270.194763 112.0
270.247864 336.0
270.300537 124.0
270.31012 188.0
270.322479 212.0
270.375122 284.0
270.421722 156.0
270.427155 132.0
270.443604 140.0
270.448883 68.0
270.496796 68.0
270.537506 112.0
270.572937 456.0
270.6297 180.0
270.699524 160.0
270.746643 112.0
270.792786 148.0
270.840515 100.0
270.850769 168.0
270.907745 352.0
270.938965 60.0
270.968872 460.0
271.035217 20900.0
271.10553 68.0
271.146912 304.0
271.193634 216.0
271.249023 120.0
271.280457 64.0
271.305634 144.0
271.340454 132.0
271.380707 92.0
271.447754 104.0
271.487518 104.0
271.532532 116.0
271.573639 308.0
271.604248 152.0
271.639069 220.0
271.660248 68.0
271.706268 76.0
271.755463 76.0
271.807953 108.0
271.896698 52.0
271.940155 68.0
271.97699 164.0
272.030853 8692.0
272.208588 48.0
272.23938 136.0
272.292725 84.0
272.326813 52.0
272.365234 172.0
272.408936 120.0
272.455109 76.0
272.494232 104.0
272.533539 108.0
272.55719 96.0
272.600922 92.0
272.64386 112.0
272.678284 188.0
272.703125 176.0
272.725922 112.0
272.740082 52.0
272.752411 152.0
272.794739 120.0
272.822174 100.0
272.846008 144.0
272.889648 140.0
272.954285 160.0
272.98288 136.0
273.032318 924.0
273.108856 92.0
273.153442 84.0
273.177338 132.0
273.223663 140.0
273.302521 156.0
273.344452 112.0
273.388763 56.0
273.411804 132.0
273.44812 104.0
273.479919 96.0
273.615875 68.0
273.681732 100.0
273.77066 104.0
273.840363 144.0
273.902649 152.0
273.942078 80.0
273.981018 92.0
274.006866 112.0
274.061981 108.0
274.091187 64.0
274.133026 36.0
274.248383 44.0
274.284637 72.0
274.320892 52.0
274.426392 84.0
274.459381 80.0
274.522034 60.0
274.580536 168.0
274.70343 96.0
274.75293 96.0
274.782623 52.0
274.818909 44.0
274.954193 56.0
274.983917 88.0
275.020203 56.0
275.092834 144.0
275.198486 60.0
275.55304 92.0
275.58493 92.0
275.617981 40.0
275.799744 52.0
275.961731 60.0
276.15686 116.0
276.196533 168.0
276.322266 188.0
276.553894 72.0
276.653198 60.0
277.014191 84.0
277.823059 44.0
277.998932 56.0
279.417786 40.0
279.957031 76.0
280.320129 120.0
280.610138 52.0
280.890259 56.0
280.950317 84.0
281.624634 84.0
282.115845 40.0
282.169342 120.0
283.56189 32.0
283.736206 76.0
283.840149 84.0
283.940765 96.0
284.088348 76.0
284.138672 88.0
284.225922 96.0
284.363495 60.0
284.460846 112.0
284.830231 40.0
285.055328 116.0
285.341064 64.0
285.485626 84.0
285.602356 96.0
286.040802 96.0
286.61673 60.0
286.677368 68.0
287.139252 128.0
287.280914 100.0
287.571136 104.0
287.672394 128.0
287.706146 80.0
288.750275 108.0
288.929565 136.0
289.00061 48.0
289.037842 120.0
289.152893 140.0
289.48407 108.0
289.803101 44.0
290.053894 156.0
290.49472 88.0
292.809509 136.0
293.116119 100.0
298.917084 120.0
299.202759 168.0
300.785095 68.0
301.638336 92.0
301.970276 172.0
302.0578 1192.0
302.243561 28.0
302.333557 88.0
302.420074 60.0
302.64856 48.0
302.981049 36.0
303.063782 472.0
304.048309 108.0
305.609375 100.0
307.355072 64.0
310.258118 52.0
311.079041 68.0
314.592377 60.0
316.717621 68.0
318.572876 100.0
323.33316 84.0
324.106689 120.0
335.645294 64.0
338.085571 68.0
341.299072 72.0
344.199036 184.0
348.038971 100.0
348.606323 76.0
360.517456 60.0
366.570435 48.0
370.214905 56.0
374.00058 112.0
380.510681 56.0
381.835785 52.0
388.029114 64.0
388.58606 100.0
400.537354 44.0
403.370575 36.0
404.850983 120.0
405.211517 96.0
405.856812 128.0
406.823761 140.0
413.887604 56.0
416.263885 112.0
417.462677 68.0
419.290619 116.0
426.247742 132.0
427.473175 124.0
428.234833 60.0
436.495453 100.0
446.154144 112.0
456.071503 76.0
456.458405 80.0
459.491119 80.0
463.231873 80.0
464.934113 84.0
468.149841 112.0
487.479156 48.0
487.584625 132.0
490.088593 36.0
495.775848 124.0
496.099396 76.0
504.714722 80.0
508.383545 124.0
516.41217 84.0
522.304321 68.0
522.986877 56.0
528.907104 80.0
531.459839 56.0
532.341187 56.0
532.763733 52.0
543.59137 104.0
556.446533 120.0
562.609375 100.0
571.029907 64.0
579.493835 116.0
585.354004 92.0
587.735291 132.0
600.987061 156.0
637.471008 52.0
642.047241 36.0
674.022034 148.0
678.457764 108.0
684.151672 140.0
694.545715 92.0
700.153931 104.0
714.653381 48.0
717.908142 48.0
723.8078 132.0
725.554504 100.0
737.089233 56.0
744.93457 132.0
745.842041 164.0
762.612061 120.0
771.531311 104.0
771.630859 68.0
830.913818 132.0
836.517151 152.0
850.15802 132.0
851.162354 76.0
862.716248 72.0
869.910217 48.0
892.574951 72.0
902.150513 164.0
903.729431 100.0
911.518677 168.0
920.832581 104.0
931.718079 220.0
947.912048 128.0
948.046875 164.0
949.751343 200.0
950.082581 220.0
950.653198 120.0
951.635376 216.0
953.914673 152.0
954.48645 144.0
956.227478 164.0
964.128052 220.0
972.079712 108.0
989.796082 68.0
989.983948 168.0
991.681824 152.0
994.899841 104.0
1005.910461 180.0
1006.10614 164.0
1012.125366 140.0
1015.389038 124.0
1015.51593 152.0
1016.695984 148.0
1019.814514 104.0
1022.9823 164.0
1023.022339 100.0
1023.090515 204.0
1023.510742 160.0
1026.371826 104.0
1026.595093 204.0
1028.0177 76.0
1029.217773 144.0
1029.869141 232.0
1030.795532 176.0
1033.046143 160.0
1046.092773 196.0
1050.97168 168.0
1051.797729 124.0
1051.855835 40.0
1052.081787 128.0
1054.342529 80.0
1055.098877 180.0
1056.760986 48.0
1058.87146 192.0
1062.053833 96.0
1062.313354 96.0
1064.137085 52.0
1067.587524 232.0
1068.901611 212.0
1069.467773 152.0
1072.249023 200.0
1073.063843 168.0
1074.864136 228.0
1076.626709 128.0
1078.841797 48.0
1079.443359 136.0
1079.992676 132.0
1080.09082 180.0
1082.25708 248.0
1083.35083 200.0
1088.112183 124.0
1088.683472 216.0
1090.352173 88.0
1090.472046 184.0
1090.634888 132.0
1091.167358 120.0
1097.672852 112.0
1098.094971 220.0
1098.807373 204.0
1100.979126 136.0
1102.663818 160.0
1104.885742 156.0
1107.831787 140.0
1108.394897 192.0
1108.706421 172.0
1109.548218 152.0
1109.6875 232.0
1112.367676 104.0
1112.500488 108.0
1114.65918 160.0
1118.776245 168.0
1121.494141 48.0
1121.780762 176.0
1123.294556 200.0
1123.55481 36.0
1125.036377 176.0
1125.129761 172.0
1130.945679 148.0
1131.059448 56.0
1131.715576 144.0
1131.762451 176.0
1132.95459 148.0
1136.24646 152.0
1137.212769 132.0
1138.951904 164.0
1140.725952 240.0
1141.425171 132.0
1142.178467 192.0
1142.386963 196.0
1144.816772 180.0
1145.241089 56.0
1146.184326 228.0
1147.417725 188.0
1147.539185 164.0
1149.286133 232.0
1152.324463 224.0
1153.669434 160.0
1153.716797 164.0
1157.736084 224.0
1159.856812 156.0
1164.28064 148.0
1164.389282 156.0
1164.715332 152.0
1165.109375 152.0
1166.754028 144.0
1168.944214 104.0
1172.437866 100.0
1173.17395 192.0
1175.185913 160.0
1177.445557 172.0
1178.325073 240.0
1179.085205 196.0
1179.392822 188.0
1180.575684 56.0
1181.553833 184.0
1182.224365 140.0
1185.497803 80.0
1186.765991 136.0
1188.336792 128.0
1188.933716 160.0
1189.379883 176.0
1189.901611 108.0
1190.17627 84.0
1195.063354 148.0
1200.953613 128.0
1202.486694 216.0
1204.322021 224.0
1205.137207 204.0
1206.422729 140.0
1206.934326 88.0
1207.501465 208.0
1209.334961 156.0
1211.03833 208.0
1212.770508 156.0
1213.775757 164.0
1215.03125 120.0
1215.745972 220.0
1215.850098 52.0
1216.280396 172.0
1217.203735 156.0
1217.280151 100.0
1217.523193 332.0
1220.838257 156.0
1223.552002 212.0
1223.858398 112.0
1223.921021 124.0
1224.283203 140.0
1224.721924 204.0
1226.714844 188.0
1227.432983 132.0
1227.85144 60.0
1231.746216 140.0
1232.38208 140.0
1234.702881 112.0
1235.346436 156.0
1236.255981 172.0
1237.151978 144.0
1239.225098 192.0
1239.372192 192.0
1241.839844 120.0
1244.485596 152.0
1247.211426 144.0
1247.752686 200.0
1250.172485 208.0
1251.397339 180.0
1252.897461 188.0
1253.616211 88.0
1254.70166 180.0
1256.655396 192.0
1258.059814 132.0
1259.802734 188.0
1260.546143 116.0
1261.570923 176.0
1262.957031 36.0
1264.202271 136.0
1264.536865 192.0
1265.518921 140.0
1265.596802 108.0
1268.026611 220.0
1271.516113 180.0
1274.171875 188.0
1274.22876 144.0
1274.456177 196.0
1275.166748 184.0
1276.730957 128.0
1276.791626 104.0
1276.951416 172.0
1278.018555 192.0
1278.99353 140.0
1279.926147 44.0
1281.037231 164.0
1281.543091 136.0
1282.426758 144.0
1283.781372 156.0
1284.016724 196.0
1285.051147 168.0
1286.157227 136.0
1287.756714 140.0
1288.392456 236.0
1289.314209 140.0
1294.12146 156.0
1294.887695 200.0
1296.965576 132.0
1297.381348 76.0
1297.490845 244.0
1298.213135 152.0
1298.887329 128.0
1299.525757 200.0
1300.465942 192.0
1301.018677 116.0
1302.713501 208.0
1303.202026 168.0
1307.372803 100.0
1308.250977 124.0
1309.907227 160.0
1309.972168 140.0
1310.044189 128.0
1311.204224 172.0
1311.41333 184.0
1311.564697 236.0
1311.622314 188.0
1312.292847 188.0
1312.595703 208.0
1313.994995 172.0
1314.666016 76.0
1315.647705 156.0
1318.493652 108.0
1318.898438 144.0
1319.606934 192.0
1319.693726 160.0
1320.0625 120.0
1320.127563 88.0
1321.147461 196.0
1322.131592 152.0
1322.449951 116.0
1323.811157 224.0
1326.390503 172.0
1326.455688 188.0
1327.536011 148.0
1332.246704 136.0
1332.715698 236.0
1334.20166 140.0
1335.18335 72.0
1339.965942 180.0
1340.38855 188.0
1340.497803 236.0
1340.599854 164.0
1342.028564 204.0
1342.086914 120.0
1342.794312 132.0
1344.195068 196.0
1344.516113 176.0
1345.483643 192.0
1346.903809 220.0
1348.262817 184.0
1348.459473 212.0
1348.51123 308.0
1349.139893 152.0
1350.653687 68.0
1353.310303 136.0
1353.96936 160.0
1354.196411 208.0
1356.15271 176.0
1356.358032 124.0
1361.751099 236.0
1362.375488 176.0
1363.374756 220.0
1365.985107 160.0
1368.21228 124.0
1369.18689 216.0
1369.466797 132.0
1370.17395 212.0
1370.328735 144.0
1370.711914 108.0
1370.896118 64.0
1374.081543 184.0
1374.140625 136.0
1374.671875 144.0
1374.871094 212.0
1375.158936 128.0
1375.823364 100.0
1376.05957 148.0
1376.287354 132.0
1376.672485 176.0
1377.396362 140.0
1379.014526 208.0
1379.258423 128.0
1379.539307 244.0
1380.1604 124.0
1380.249146 124.0
1380.441406 120.0
1382.727417 192.0
1383.127197 176.0
1383.184326 180.0
1384.76355 160.0
1384.852417 124.0
1385.734009 28.0
1386.03772 128.0
1386.489868 152.0
1386.734375 76.0
1387.119873 120.0
1387.624023 188.0
1387.816772 172.0
1388.143066 204.0
1390.858521 200.0
1391.266846 152.0
1391.74939 160.0
1392.306396 112.0
1392.521729 204.0
1392.952515 64.0
1393.286865 188.0
1394.349487 92.0
1395.449707 156.0
1397.130493 200.0
1397.524902 176.0
1398.358398 180.0
1398.477417 156.0
1398.723022 44.0
1399.1698 144.0
1399.810059 156.0
1401.426514 112.0
1402.573486 168.0
1403.767212 100.0
1404.677124 84.0
1405.811157 160.0
1407.192139 132.0
1407.259399 76.0
1408.222656 224.0
1408.41687 236.0
1409.858887 236.0
1410.980225 196.0
1411.062378 84.0
1411.197021 32.0
1413.171631 92.0
1413.613159 168.0
1416.623047 236.0
1416.682983 192.0
1417.904419 196.0
1418.016846 124.0
1418.391602 56.0
1419.786133 164.0
1421.091431 204.0
1422.434814 148.0
1422.727661 32.0
1423.080444 156.0
1423.283203 164.0
1423.685669 328.0
1424.199463 160.0
1426.761963 176.0
1427.852295 196.0
1428.115601 180.0
1429.040894 300.0
1430.137939 176.0
1430.463379 48.0
1431.20874 148.0
1431.502319 176.0
1432.293213 172.0
1432.617065 200.0
1434.169434 152.0
1434.734863 192.0
1434.825317 200.0
1436.084717 152.0
1436.273193 192.0
1436.748535 124.0
1438.053955 144.0
1438.537109 72.0
1440.085083 88.0
1441.157837 60.0
1441.34668 140.0
1441.815308 156.0
1442.729858 160.0
1444.612915 164.0
1444.982422 124.0
1445.295532 148.0
1448.026855 184.0
1448.534302 204.0
1448.655762 204.0
1449.489014 132.0
1450.618286 176.0
1451.816284 172.0
1452.436523 176.0
1452.885864 152.0
1453.105835 180.0
1453.53833 108.0
1453.644531 124.0
1454.229004 100.0
1455.139893 172.0
1455.77771 148.0
1456.066406 156.0
1456.149902 132.0
1456.241089 116.0
1457.236206 212.0
1457.509766 164.0
1457.730103 68.0
1458.330566 136.0
1461.052979 104.0
1461.631226 212.0
1461.91272 216.0
1462.734741 96.0
1463.17627 208.0
1463.419922 156.0
1463.557007 164.0
1464.859375 144.0
1465.293579 156.0
1466.025146 136.0
1467.526855 108.0
1468.075928 184.0
1468.327515 176.0
1468.51062 160.0
1468.819336 212.0
1472.433716 136.0
1472.723999 32.0
1472.830933 180.0
1472.891968 152.0
1474.076172 148.0
1474.618896 56.0
1474.978149 168.0
1475.612671 180.0
1475.972046 136.0
1476.897461 40.0
1476.958618 176.0
1477.18042 212.0
1477.386963 44.0
1477.562988 40.0
1477.991455 156.0
1479.078247 124.0
1479.39209 200.0
1481.030762 148.0
1481.352539 132.0
1482.96167 140.0
1483.023071 172.0
1483.820312 148.0
1483.919922 140.0
1487.019165 184.0
1487.840576 160.0
1488.116943 176.0
1488.178345 168.0
1489.295532 204.0
1490.006348 184.0
1490.390503 188.0
1491.351196 112.0
1492.189087 216.0
1493.511841 32.0
1494.173462 164.0
1494.519653 160.0
1494.92749 128.0
1495.34314 172.0
1496.528687 120.0
1496.867432 88.0
1497.252441 52.0
1497.814819 200.0
1498.122925 136.0
1499.363525 60.0
1500.473511 176.0
1502.216431 128.0
1502.378418 196.0
1502.579102 168.0
1503.211792 156.0
1503.960449 204.0
