>compound MLS002153333-01!NO-711 hydrochloride145645-62-1
>formula C21H22N2O3
>ionization [M+H]+
>parentmass 351.171112
#inchi InChI=1S/C21H22N2O3/c24-21(25)19-12-7-13-23(16-19)14-15-26-22-20(17-8-3-1-4-9-17)18-10-5-2-6-11-18/h1-6,8-12H,7,13-16H2,(H,24,25)
#inchikey NGNALWDRPKNJGR
#origInchi InChI=1S/C21H22N2O3.ClH/c24-21(25)19-12-7-13-23(16-19)14-15-26-22-20(17-8-3-1-4-9-17)18-10-5-2-6-11-18;/h1-6,8-12H,7,13-16H2,(H,24,25);1H
#Ion_Source LC-ESI
#Instrument qTof
#Compound_Source NIH Pharmacologically Active Library
#PI Dorrestein
#Data_Collector VP/LMS
#Scan -1
#Precursor_MZ 351.177
#ExactMass 350.163
#Charge 1
#CAS_Number N/A
#Pubmed_ID N/A
#Smiles OC(=O)C1=CCCN(CCON=C(c2ccccc2)c3ccccc3)C1.Cl
#INCHI_AUX N/A
#Library_Class 1
#SpectrumID CCMSLIB00000085821
#IonMode Positive
#UpdateWorkflowName UPDATE-SINGLE-ANNOTATED-GOLD
#LibraryQualityString Gold
#TaskID d252d724072548979f1f6f1ced849daf
##Scan# 1694
#SpectrumFile p4-F10_GF10_01_18394.mzXML
#LibraryName Pharm_Active_Library.mgf
#MQScore -1
#Organism Pharm_Active_Library
#TIC_Query 0
#RT_Query -1
#MZErrorPPM -1
#SharedPeaks 0
#MassDiff 0
#LibMZ -1
#SpecMZ 351.177
#SpecCharge 0
#internalFilename spec-00000.mgf

>collision 10
44.927151 64.0
44.945831 284.0
44.976528 204.0
45.016582 160.0
45.066006 164.0
45.158249 176.0
45.174301 40.0
45.187023 188.0
45.257282 36.0
45.277367 128.0
45.420788 140.0
45.461037 120.0
45.483856 128.0
45.533535 204.0
45.576527 184.0
45.618191 132.0
45.653149 144.0
45.720417 108.0
45.741951 336.0
45.822758 104.0
45.87727 348.0
45.945446 132.0
45.991329 164.0
46.000778 212.0
46.01833 196.0
46.027782 128.0
46.133171 72.0
46.142635 68.0
46.1521 168.0
46.183205 40.0
46.337204 132.0
46.408562 228.0
46.456841 168.0
46.513836 144.0
46.543045 148.0
46.553211 68.0
46.570866 100.0
46.583092 196.0
46.675957 136.0
46.694408 188.0
46.712238 68.0
46.734005 108.0
46.74353 224.0
46.761971 160.0
46.766048 88.0
46.771568 120.0
46.775173 160.0
46.876987 96.0
46.890614 148.0
46.909542 140.0
46.974377 168.0
47.005173 48.0
47.036564 108.0
47.061138 132.0
47.188023 148.0
47.217724 140.0
47.230602 156.0
47.249756 184.0
47.263439 96.0
47.286705 36.0
47.297653 360.0
47.355164 180.0
47.3853 136.0
47.407227 80.0
47.429153 144.0
47.441494 96.0
47.463428 132.0
47.475773 180.0
47.50441 228.0
47.547112 132.0
47.600655 104.0
47.637737 164.0
47.670715 96.0
47.68446 140.0
47.69408 168.0
47.769711 180.0
47.806862 136.0
47.830261 140.0
47.905998 116.0
48.015629 100.0
48.054901 68.0
48.0825 56.0
48.110107 164.0
48.159679 160.0
48.32177 220.0
48.360416 160.0
48.43647 120.0
48.457253 148.0
48.471107 192.0
48.492073 124.0
48.534874 192.0
48.551514 220.0
48.626213 152.0
48.643089 180.0
48.657112 160.0
48.752819 108.0
48.770889 152.0
48.780617 136.0
48.83485 208.0
48.847366 152.0
48.886326 272.0
48.923908 160.0
49.006081 200.0
49.042316 148.0
49.07159 176.0
49.081352 160.0
49.205536 236.0
49.226341 160.0
49.242199 156.0
49.294933 120.0
49.362034 200.0
49.436176 128.0
49.455769 204.0
49.473969 136.0
49.496372 176.0
49.513176 128.0
49.536911 148.0
49.572018 192.0
49.590237 96.0
49.657333 164.0
49.695351 152.0
49.719269 128.0
49.73901 188.0
49.842854 128.0
49.87096 160.0
49.89064 220.0
49.907513 120.0
49.95533 136.0
49.987694 164.0
50.009098 152.0
50.038368 116.0
50.051041 216.0
50.086246 96.0
50.174072 200.0
50.215927 212.0
50.238495 152.0
50.316116 180.0
50.342945 184.0
50.36272 128.0
50.402279 180.0
50.440437 208.0
50.512558 80.0
50.56208 232.0
50.588974 192.0
50.61871 172.0
50.69804 188.0
50.732059 204.0
50.800133 192.0
50.810062 76.0
50.872509 160.0
50.908672 208.0
50.960564 144.0
50.976196 120.0
51.032715 184.0
51.050117 144.0
51.064339 200.0
51.134056 148.0
51.172493 112.0
51.192429 104.0
51.206673 172.0
51.250835 220.0
51.286983 152.0
51.381863 176.0
51.420971 184.0
51.521923 244.0
51.547642 188.0
51.570072 260.0
51.606251 48.0
51.687782 204.0
51.742176 236.0
51.785137 80.0
51.941589 216.0
52.118713 200.0
52.20853 140.0
52.238144 204.0
52.261757 132.0
52.290539 148.0
52.310986 196.0
52.340927 148.0
52.353859 140.0
52.37405 64.0
52.464325 224.0
52.505215 152.0
52.626431 172.0
52.681316 208.0
52.746346 256.0
52.84758 128.0
52.864948 96.0
52.973541 172.0
52.999619 40.0
53.057594 80.0
53.093849 64.0
53.133015 192.0
53.185257 100.0
53.196869 196.0
53.230263 208.0
53.334869 168.0
53.353474 196.0
53.413395 168.0
53.475964 188.0
53.576439 132.0
53.591011 204.0
53.601212 128.0
53.633274 52.0
53.694511 152.0
53.716393 136.0
53.757244 132.0
53.790817 192.0
53.824398 80.0
53.901817 184.0
53.933971 176.0
53.951012 336.0
53.962337 136.0
53.990993 76.0
54.016647 156.0
54.04073 184.0
54.056828 180.0
54.090488 124.0
54.105129 36.0
54.11684 160.0
54.153454 120.0
54.172497 136.0
54.275093 124.0
54.297089 212.0
54.308823 100.0
54.335228 180.0
54.393784 160.0
54.4277 108.0
54.442387 164.0
54.49086 172.0
54.505943 408.0
54.543766 204.0
54.587875 156.0
54.598167 128.0
54.639355 204.0
54.739449 208.0
54.760067 48.0
54.799843 160.0
54.842579 236.0
54.866165 80.0
54.916302 152.0
54.929874 160.0
54.964989 216.0
54.982697 128.0
55.124474 156.0
55.15699 152.0
55.174171 212.0
55.233883 212.0
55.28545 188.0
55.330074 44.0
55.3745 244.0
55.394062 156.0
55.426353 184.0
55.46645 144.0
55.596893 216.0
55.619156 168.0
55.632515 164.0
55.671124 112.0
55.696373 136.0
55.711227 116.0
55.729057 156.0
55.763779 208.0
55.850964 196.0
55.891132 200.0
55.913456 236.0
55.938343 200.0
55.955135 112.0
55.986404 136.0
56.048973 124.0
56.178688 44.0
56.229424 132.0
56.37429 168.0
56.405678 124.0
56.44455 152.0
56.483078 300.0
56.517849 76.0
56.531315 216.0
56.559753 184.0
56.574722 196.0
56.59119 92.0
56.679565 292.0
56.769512 132.0
56.835518 176.0
56.880543 168.0
56.903061 144.0
57.014221 144.0
57.075855 156.0
57.175144 140.0
57.201355 232.0
57.248913 44.0
57.304649 80.0
57.390564 252.0
57.418144 180.0
57.453293 156.0
57.461636 200.0
57.485596 216.0
57.533562 252.0
57.580708 216.0
57.616425 180.0
57.663807 260.0
57.793865 304.0
57.82872 120.0
57.840782 72.0
57.861977 68.0
57.893776 144.0
57.934669 36.0
57.961945 192.0
57.975582 112.0
58.0438 124.0
58.062 140.0
58.12875 120.0
58.163925 252.0
58.206169 44.0
58.2882 180.0
58.310993 164.0
58.322342 180.0
58.338356 116.0
58.422184 164.0
58.44178 184.0
58.487434 196.0
58.501137 168.0
58.52702 156.0
58.650421 188.0
58.661095 164.0
58.781727 172.0
58.813305 172.0
58.836536 136.0
58.882347 192.0
58.981663 192.0
59.022942 44.0
59.055061 128.0
59.122379 100.0
59.168301 232.0
59.185143 148.0
59.23262 160.0
59.24794 108.0
59.333767 68.0
59.369034 176.0
59.390507 64.0
59.401245 184.0
59.474903 132.0
59.574718 192.0
59.662315 136.0
59.697681 164.0
59.805943 252.0
59.827103 144.0
59.902393 164.0
59.923962 240.0
59.99794 164.0
60.024155 180.0
60.054996 180.0
60.067337 144.0
60.082764 204.0
60.158386 180.0
60.213974 132.0
60.224789 148.0
60.239407 212.0
60.29586 192.0
60.390175 140.0
60.41338 104.0
60.445873 40.0
60.509335 144.0
60.561989 160.0
60.632462 248.0
60.66581 412.0
60.704575 100.0
60.732491 44.0
60.775932 152.0
60.792999 128.0
60.820938 168.0
60.867516 168.0
60.934307 176.0
60.97435 156.0
61.005798 228.0
61.055553 176.0
61.156689 200.0
61.183151 160.0
61.296856 236.0
61.413784 188.0
61.474266 136.0
61.532387 88.0
61.569866 240.0
61.591732 56.0
61.602665 204.0
61.665169 140.0
61.743343 124.0
61.88105 180.0
61.926468 48.0
61.970329 56.0
61.985256 160.0
62.037724 232.0
62.091038 128.0
62.186745 156.0
62.254253 176.0
62.295094 144.0
62.335945 112.0
62.423374 208.0
62.453861 144.0
62.535683 132.0
62.551422 176.0
62.576611 68.0
62.591042 196.0
62.623856 192.0
62.691605 176.0
62.72155 164.0
62.82563 144.0
62.838253 172.0
62.880859 172.0
62.895065 160.0
62.917164 200.0
62.940849 324.0
63.006229 244.0
63.021484 164.0
63.04353 168.0
63.1036 184.0
63.182678 132.0
63.209579 108.0
63.247562 132.0
63.293476 200.0
63.304562 124.0
63.323566 60.0
63.437656 248.0
63.469364 208.0
63.521706 160.0
63.539154 160.0
63.589619 180.0
63.661381 100.0
63.68679 80.0
63.721741 144.0
63.761467 216.0
63.799618 80.0
63.831417 144.0
63.855865 256.0
63.904591 96.0
64.023979 200.0
64.04628 112.0
64.081322 144.0
64.255112 156.0
64.302368 236.0
64.349281 160.0
64.371635 144.0
64.422745 128.0
64.435532 88.0
64.495682 240.0
64.537827 432.0
64.551895 260.0
64.575829 204.0
64.595398 200.0
64.624199 40.0
64.662605 120.0
64.691414 148.0
64.739456 72.0
64.781097 156.0
64.800323 128.0
64.816345 192.0
64.86174 316.0
64.881477 240.0
64.926468 168.0
65.005569 152.0
65.01841 136.0
65.077805 212.0
65.093445 200.0
65.120949 204.0
65.143654 96.0
65.164543 116.0
65.234756 168.0
65.277061 48.0
65.434753 184.0
65.476616 248.0
65.526558 232.0
65.557175 140.0
65.639389 340.0
65.6539 148.0
65.676483 132.0
65.689384 144.0
65.721657 172.0
65.765228 180.0
65.786209 176.0
65.802361 168.0
65.914047 136.0
65.959061 112.0
65.972 224.0
66.010803 200.0
66.056396 220.0
66.085213 144.0
66.103012 100.0
66.205002 124.0
66.244217 228.0
66.273033 148.0
66.389755 184.0
66.425438 224.0
66.438416 44.0
66.498451 116.0
66.531631 188.0
66.563774 220.0
66.621864 124.0
66.647865 140.0
66.660866 204.0
66.676033 192.0
66.726776 152.0
66.760025 160.0
66.782753 148.0
66.848343 196.0
66.930893 180.0
67.004196 148.0
67.095459 192.0
67.141396 140.0
67.170181 144.0
67.194954 172.0
67.245537 128.0
67.265129 136.0
67.284714 40.0
67.348404 120.0
67.368011 172.0
67.474236 164.0
67.528206 136.0
67.55928 120.0
67.64119 160.0
67.703323 104.0
67.724617 160.0
67.747551 196.0
67.806541 164.0
67.819656 76.0
67.83786 188.0
67.862282 188.0
67.899994 104.0
67.916397 120.0
68.008286 128.0
68.059181 136.0
68.072319 232.0
68.164307 176.0
68.300774 184.0
68.32196 236.0
68.383331 180.0
68.397858 132.0
68.450539 88.0
68.514778 172.0
68.630157 156.0
68.740677 200.0
68.781937 92.0
68.935539 132.0
69.069458 76.0
69.08931 216.0
69.109169 248.0
69.160469 136.0
69.321121 96.0
69.355927 76.0
69.389084 172.0
69.450447 120.0
69.485283 176.0
69.497025 420.0
69.550003 156.0
69.598152 128.0
69.667572 160.0
69.734901 264.0
69.882378 172.0
69.900688 120.0
70.102188 52.0
70.153854 200.0
70.200539 124.0
70.253914 148.0
70.285622 36.0
70.312317 144.0
70.370743 160.0
70.390785 76.0
70.422516 120.0
70.46595 176.0
70.501045 160.0
70.526711 56.0
70.539482 136.0
70.627716 116.0
70.643166 160.0
70.741905 80.0
70.753624 176.0
70.793808 128.0
70.807205 180.0
70.88427 244.0
70.917793 180.0
70.939583 184.0
71.031815 84.0
71.043556 180.0
71.072083 172.0
71.083824 128.0
71.103966 168.0
71.139214 52.0
71.216461 80.0
71.229897 140.0
71.248375 420.0
71.403023 216.0
71.475365 120.0
71.510704 128.0
71.680801 96.0
71.702713 160.0
71.746544 200.0
71.773521 84.0
71.889915 192.0
71.903419 184.0
72.021606 144.0
72.11116 140.0
72.151733 136.0
72.188934 164.0
72.261444 92.0
72.278587 56.0
72.339516 152.0
72.385231 152.0
72.407249 160.0
72.422493 184.0
72.472481 124.0
72.546196 124.0
72.620491 172.0
72.67849 92.0
72.748039 196.0
72.79052 216.0
72.804108 208.0
72.822792 116.0
72.838081 124.0
72.851669 288.0
72.89563 156.0
72.899597 136.0
72.904785 184.0
72.965538 168.0
72.97744 160.0
73.008049 104.0
73.070984 128.0
73.089706 136.0
73.108421 220.0
73.202057 200.0
73.261665 152.0
73.280411 132.0
73.295746 216.0
73.375854 124.0
73.404846 164.0
73.459419 128.0
73.4907 108.0
73.515732 112.0
73.556694 116.0
73.60791 172.0
73.624107 108.0
73.662567 188.0
73.67794 208.0
73.710403 140.0
73.727493 104.0
73.753136 188.0
73.787323 48.0
73.978935 140.0
74.024834 248.0
74.084236 152.0
74.121101 176.0
74.177757 140.0
74.232521 148.0
74.275398 120.0
74.41098 156.0
74.42643 72.0
74.459061 116.0
74.481392 324.0
74.515244 176.0
74.563866 132.0
74.627472 196.0
74.735832 344.0
74.780579 208.0
74.818451 104.0
74.854607 196.0
74.928673 60.0
74.968155 228.0
74.985542 276.0
75.044151 244.0
75.077873 216.0
75.139015 160.0
75.151093 152.0
75.217773 220.0
75.387665 132.0
75.427422 224.0
75.470642 208.0
75.498306 168.0
75.62838 156.0
75.731964 264.0
75.745819 112.0
75.87233 152.0
75.917412 112.0
75.933022 176.0
75.979858 112.0
76.005882 152.0
76.05101 136.0
76.097687 180.0
76.200356 196.0
76.299423 136.0
76.31855 116.0
76.442055 144.0
76.49601 212.0
76.563919 176.0
76.633598 144.0
76.762589 168.0
76.808678 196.0
76.834396 236.0
76.855042 104.0
76.891685 112.0
76.905655 72.0
76.956276 208.0
77.13623 428.0
77.185181 188.0
77.213165 128.0
77.248146 160.0
77.263893 188.0
77.343094 200.0
77.360146 148.0
77.454712 128.0
77.502014 172.0
77.521286 172.0
77.551079 140.0
77.593155 180.0
77.715935 188.0
77.759979 328.0
77.780724 240.0
77.81041 184.0
77.86515 120.0
77.890961 92.0
77.963531 40.0
78.014511 160.0
78.033852 156.0
78.107712 48.0
78.121788 36.0
78.144653 204.0
78.190407 144.0
78.236176 112.0
78.315422 148.0
78.354179 176.0
78.407043 224.0
78.424667 204.0
78.511055 200.0
78.536255 140.0
78.566856 152.0
78.606323 148.0
78.646912 168.0
78.696342 144.0
78.751091 168.0
78.832359 136.0
78.887154 144.0
78.913673 116.0
78.946625 188.0
78.975571 136.0
79.016258 212.0
79.062271 176.0
79.078194 212.0
79.163177 164.0
79.189743 88.0
79.262383 180.0
79.356323 168.0
79.393059 212.0
79.475166 192.0
79.501038 220.0
79.602974 124.0
79.691788 132.0
79.711334 120.0
79.739769 152.0
79.816216 52.0
79.830444 232.0
79.855339 208.0
79.917122 220.0
79.93718 252.0
79.970993 120.0
79.993988 144.0
80.019058 164.0
80.058235 192.0
80.086731 128.0
80.145523 176.0
80.171463 184.0
80.187599 144.0
80.238205 180.0
80.266731 152.0
80.284569 164.0
80.29705 104.0
80.325592 220.0
80.389824 188.0
80.482651 76.0
80.65773 184.0
80.720314 132.0
80.816902 40.0
80.845535 224.0
80.872383 156.0
80.890282 184.0
81.102791 120.0
81.199417 160.0
81.281693 176.0
81.302536 92.0
81.388321 168.0
81.422829 92.0
81.458214 120.0
81.475639 140.0
81.510857 104.0
81.570168 144.0
81.699646 116.0
81.755424 124.0
81.783913 156.0
81.89946 148.0
81.912071 140.0
81.957115 184.0
81.993156 188.0
82.016586 168.0
82.065262 184.0
82.115646 132.0
82.121521 164.0
82.137405 268.0
82.169876 184.0
82.233818 120.0
82.269608 232.0
82.361237 168.0
82.377495 176.0
82.393753 124.0
82.408203 116.0
82.437119 160.0
82.608887 116.0
82.690315 168.0
82.71566 236.0
82.739189 120.0
82.795326 124.0
82.813049 168.0
82.891342 48.0
82.968788 88.0
82.992851 196.0
83.007355 124.0
83.058517 192.0
83.125267 100.0
83.152496 168.0
83.208809 184.0
83.297752 244.0
83.379524 164.0
83.404968 120.0
83.428596 160.0
83.539536 164.0
83.656006 188.0
83.670006 280.0
83.708298 208.0
83.743408 212.0
83.799881 140.0
83.825111 256.0
83.831505 216.0
83.840668 116.0
83.848274 260.0
83.947533 104.0
84.015022 152.0
84.031441 40.0
84.054153 412.0
84.082535 144.0
84.213997 192.0
84.241478 160.0
84.268799 156.0
84.354698 208.0
84.462585 68.0
84.482712 104.0
84.6035 288.0
84.621803 184.0
84.663925 260.0
84.679825 252.0
84.702385 200.0
84.737198 164.0
84.753685 68.0
84.852661 192.0
84.876503 216.0
84.900337 168.0
84.953537 96.0
84.971703 168.0
85.010414 172.0
85.03978 160.0
85.091019 140.0
85.096344 128.0
85.127907 148.0
85.190353 156.0
85.223091 220.0
85.342903 120.0
85.385193 144.0
85.480858 164.0
85.513649 260.0
85.604149 144.0
85.637352 152.0
85.653931 132.0
85.735001 112.0
85.779236 240.0
85.812355 224.0
85.838234 168.0
85.876968 184.0
85.895416 72.0
85.917549 140.0
85.995056 124.0
86.017204 72.0
86.091057 152.0
86.107635 152.0
86.373848 140.0
86.390495 140.0
86.412857 192.0
86.453407 148.0
86.481171 172.0
86.529305 204.0
86.553375 80.0
86.726463 140.0
86.747917 164.0
86.809456 84.0
86.971352 168.0
87.035194 176.0
87.04232 148.0
87.048851 144.0
87.078209 116.0
87.18251 144.0
87.206413 156.0
87.334709 180.0
87.360748 208.0
87.390518 124.0
87.425873 256.0
87.481712 116.0
87.502197 112.0
87.526398 256.0
87.552475 56.0
87.598206 108.0
87.638161 164.0
87.673569 164.0
87.705254 148.0
87.748131 152.0
87.810577 140.0
87.884293 212.0
87.960083 196.0
87.983208 172.0
88.024292 104.0
88.076584 156.0
88.102737 192.0
88.136368 168.0
88.164398 156.0
88.199913 108.0
88.281876 148.0
88.303726 148.0
88.330811 128.0
88.364487 152.0
88.390678 168.0
88.428108 128.0
88.444954 200.0
88.474907 132.0
88.536697 140.0
88.60601 204.0
88.66597 144.0
88.78228 204.0
88.819725 176.0
88.834732 172.0
88.85537 168.0
88.904152 140.0
88.930428 168.0
88.97924 172.0
89.063744 184.0
89.129501 116.0
89.189644 104.0
89.266731 128.0
89.31842 180.0
89.360779 140.0
89.389008 124.0
89.439819 152.0
89.458649 148.0
89.500069 208.0
89.55468 176.0
89.57917 108.0
89.652657 168.0
89.673386 176.0
89.72805 148.0
89.752563 92.0
89.801598 104.0
89.826118 72.0
89.873283 64.0
89.920464 156.0
89.969543 120.0
89.990311 144.0
90.022003 204.0
90.084747 224.0
90.122528 136.0
90.175446 208.0
90.271866 192.0
90.317253 52.0
90.343742 160.0
90.372124 208.0
90.400505 164.0
90.42511 136.0
90.451607 92.0
90.470535 116.0
90.489471 188.0
90.532089 284.0
90.631531 136.0
90.659958 116.0
90.678909 136.0
90.709236 148.0
90.729034 144.0
90.771805 116.0
90.833038 168.0
90.868828 184.0
90.895103 204.0
90.995964 176.0
91.018494 176.0
91.0532 1592.0
91.091278 148.0
91.105858 128.0
91.174271 144.0
91.290237 208.0
91.330177 104.0
91.351845 224.0
91.417694 152.0
91.455757 112.0
91.535721 124.0
91.577621 176.0
91.617622 144.0
91.674332 168.0
91.766151 172.0
91.825401 196.0
91.855919 88.0
91.901711 176.0
91.922699 180.0
92.050667 188.0
92.073517 128.0
92.096436 84.0
92.245483 200.0
92.335358 192.0
92.601395 112.0
92.683006 180.0
92.706772 56.0
92.747017 176.0
92.791634 176.0
92.835213 120.0
92.867821 168.0
92.944557 200.0
93.017487 156.0
93.03244 152.0
93.053108 688.0
93.070541 76.0
93.077347 200.0
93.163437 184.0
93.211472 104.0
93.237343 156.0
93.315269 184.0
93.489082 128.0
93.503792 160.0
93.539551 360.0
93.569237 164.0
93.640488 40.0
93.69828 148.0
93.79464 64.0
93.879471 204.0
93.908836 160.0
93.956627 172.0
93.970131 168.0
94.036156 168.0
94.065178 908.0
94.197945 124.0
94.278198 124.0
94.352547 148.0
94.522766 160.0
94.549858 192.0
94.57695 196.0
94.617607 152.0
94.631538 164.0
94.654396 160.0
94.700874 132.0
94.896606 164.0
94.927635 164.0
94.972237 60.0
95.025993 208.0
95.039085 208.0
95.050423 120.0
95.073936 116.0
95.106377 156.0
95.159088 184.0
95.199318 152.0
95.218742 112.0
95.243988 196.0
95.292557 260.0
95.318306 112.0
95.360573 164.0
95.383904 128.0
95.471397 132.0
95.509216 224.0
95.555038 188.0
95.652344 168.0
95.702965 192.0
95.741913 260.0
95.78476 168.0
95.804245 64.0
95.83831 132.0
96.002739 120.0
96.04332 100.0
96.04747 208.0
96.081017 344.0
96.116203 208.0
96.178658 152.0
96.202477 140.0
96.252846 92.0
96.27433 152.0
96.301018 132.0
96.308151 88.0
96.319038 160.0
96.334877 216.0
96.393494 152.0
96.436493 72.0
96.528381 100.0
96.549889 128.0
96.618355 128.0
96.63205 160.0
96.688797 132.0
96.702499 216.0
96.716202 192.0
96.733818 176.0
96.949272 200.0
96.972794 84.0
97.059929 224.0
97.115929 176.0
97.137505 200.0
97.16497 184.0
97.204552 232.0
97.253281 76.0
97.272911 120.0
97.345558 116.0
97.400551 132.0
97.461456 164.0
97.488968 196.0
97.593147 108.0
97.608879 236.0
97.665916 76.0
97.687553 144.0
97.730835 120.0
97.762321 168.0
97.819405 160.0
97.855659 220.0
97.984833 164.0
98.028183 184.0
98.059517 272.0
98.089279 116.0
98.20562 220.0
98.332298 196.0
98.404938 148.0
98.452332 144.0
98.491829 140.0
98.568886 164.0
98.653877 68.0
98.69825 120.0
98.796265 152.0
98.821983 176.0
98.916985 144.0
98.956581 228.0
99.042755 324.0
99.101166 184.0
99.123672 156.0
99.1408 156.0
99.180443 204.0
99.220085 112.0
99.24131 176.0
99.368835 172.0
99.397049 220.0
99.412491 112.0
99.49189 180.0
99.507774 160.0
99.579262 40.0
99.626938 128.0
99.646805 148.0
99.734245 144.0
99.774002 188.0
99.805023 248.0
99.849571 168.0
99.921181 236.0
99.978889 108.0
100.041702 336.0
100.110283 188.0
100.124222 132.0
100.259697 184.0
100.275642 148.0
100.32946 152.0
100.376495 176.0
100.408272 140.0
100.531059 176.0
100.554871 120.0
100.574829 152.0
100.680656 228.0
100.752563 100.0
100.778534 164.0
100.920586 180.0
100.942451 208.0
101.040459 164.0
101.110329 188.0
101.225006 160.0
101.244637 188.0
101.314743 144.0
101.366837 216.0
101.487106 356.0
101.64698 120.0
101.67112 88.0
101.717827 300.0
101.74192 100.0
101.75798 52.0
101.792114 192.0
101.808182 104.0
101.836304 176.0
101.930725 152.0
101.970917 136.0
102.021172 176.0
102.072311 184.0
102.10965 196.0
102.12574 168.0
102.139824 48.0
102.1539 140.0
102.272629 76.0
102.363228 128.0
102.546562 108.0
102.568733 192.0
102.592926 176.0
102.617119 208.0
102.843063 164.0
102.923813 208.0
103.051071 160.0
103.066978 220.0
103.13797 168.0
103.190529 220.0
103.226929 196.0
103.27951 200.0
103.303787 212.0
103.336159 164.0
103.37056 108.0
103.429253 168.0
103.447472 88.0
103.479866 140.0
103.528465 152.0
103.553078 208.0
103.605431 136.0
103.666222 84.0
103.684464 88.0
103.75338 200.0
103.826378 144.0
103.852745 200.0
103.923752 168.0
104.048607 4196.0
104.076569 236.0
104.099297 92.0
104.150116 244.0
104.167381 36.0
104.236458 200.0
104.258812 44.0
104.289299 184.0
104.405678 168.0
104.435699 96.0
104.466209 56.0
104.510971 64.0
104.624954 132.0
104.721588 220.0
104.773811 176.0
104.828636 168.0
104.864075 72.0
105.006004 100.0
105.022324 240.0
105.052216 544.0
105.078049 76.0
105.084915 176.0
105.124336 164.0
105.221169 196.0
105.261108 116.0
105.350723 128.0
105.385765 168.0
105.408188 240.0
105.430672 188.0
105.489944 260.0
105.555374 96.0
105.586403 192.0
105.61377 152.0
105.657921 176.0
105.674011 68.0
105.73745 68.0
105.796814 112.0
105.84359 156.0
105.901245 244.0
105.942215 144.0
106.06469 516.0
106.095924 100.0
106.110275 28.0
106.266151 196.0
106.309242 212.0
106.436516 224.0
106.57209 152.0
106.586472 104.0
106.629631 188.0
106.709801 80.0
106.769432 184.0
106.804398 204.0
106.884636 232.0
106.917564 64.0
106.954613 120.0
106.99926 140.0
107.039398 132.0
107.054024 276.0
107.073631 216.0
107.102875 128.0
107.193039 204.0
107.236473 148.0
107.273911 256.0
107.300705 176.0
107.424446 144.0
107.512466 164.0
107.595741 100.0
107.786774 140.0
107.843636 124.0
107.913925 424.0
107.996643 216.0
108.04351 824.0
108.080269 3064.0
108.10009 188.0
108.158043 152.0
108.193237 140.0
108.230507 112.0
108.311272 168.0
108.46109 188.0
108.474564 280.0
108.489494 76.0
108.512299 60.0
108.541328 52.0
108.594887 184.0
108.632584 232.0
108.659554 80.0
108.713509 200.0
108.777847 124.0
108.801155 176.0
108.844292 48.0
108.923729 144.0
108.968918 108.0
109.004974 164.0
109.033333 172.0
109.06221 352.0
109.081833 188.0
109.103577 212.0
109.167725 116.0
109.207985 136.0
109.249588 176.0
109.278717 60.0
109.29744 136.0
109.314087 44.0
109.347389 136.0
109.399429 40.0
109.46814 148.0
109.505623 132.0
109.528542 152.0
109.650482 156.0
109.678566 204.0
109.736946 104.0
109.755707 332.0
109.862083 144.0
109.882942 136.0
109.903809 212.0
109.931839 240.0
109.960152 36.0
109.981026 152.0
110.031128 196.0
110.060631 336.0
110.094391 216.0
110.135544 116.0
110.149277 152.0
110.202393 88.0
110.223289 108.0
110.261375 180.0
110.274307 68.0
110.298531 196.0
110.321526 132.0
110.346619 188.0
110.407257 144.0
110.520218 208.0
110.58091 128.0
110.696838 256.0
110.714752 388.0
110.769363 152.0
110.830124 140.0
110.90976 220.0
111.006203 160.0
111.040222 292.0
111.085907 176.0
111.123672 132.0
111.148712 60.0
111.153931 104.0
111.199959 180.0
111.230698 244.0
111.274788 88.0
111.290604 128.0
111.360886 172.0
111.383995 204.0
111.430214 160.0
111.489052 168.0
111.583641 144.0
111.615181 124.0
111.644623 164.0
111.666412 248.0
111.758217 136.0
111.781364 220.0
111.796097 84.0
111.812935 144.0
111.880287 152.0
111.937904 196.0
111.972939 136.0
112.002434 116.0
112.040504 164.0
112.074585 404.0
112.128853 120.0
112.181915 208.0
112.202629 124.0
112.324951 128.0
112.377693 144.0
112.394569 208.0
112.698631 200.0
112.732445 188.0
112.75029 160.0
112.776825 152.0
112.806419 104.0
112.842361 184.0
112.89019 200.0
112.937531 308.0
113.046799 204.0
113.068497 232.0
113.100174 148.0
113.105354 128.0
113.113831 188.0
113.210556 176.0
113.227501 116.0
113.28257 104.0
113.297401 188.0
113.318588 144.0
113.354607 200.0
113.386398 152.0
113.458847 184.0
113.507233 168.0
113.540962 204.0
113.56662 104.0
113.644272 232.0
113.679062 136.0
113.704536 124.0
113.725754 180.0
113.744858 168.0
113.76609 76.0
113.791626 152.0
113.8489 208.0
113.91687 172.0
113.935989 172.0
113.952988 164.0
113.979332 144.0
114.140038 132.0
114.174065 144.0
114.297447 160.0
114.380455 128.0
114.414513 184.0
114.601944 88.0
114.685059 172.0
114.721298 156.0
114.763939 124.0
114.789528 56.0
114.810852 160.0
114.876976 164.0
115.017815 200.0
115.037025 284.0
115.061058 140.0
115.124573 172.0
115.143791 208.0
115.216942 184.0
115.252739 124.0
115.393814 216.0
115.428024 92.0
115.462242 216.0
115.543526 88.0
115.560646 120.0
115.650528 128.0
115.708328 200.0
115.838966 172.0
115.871834 184.0
115.922523 184.0
115.954674 148.0
116.025414 200.0
116.044708 164.0
116.143356 184.0
116.171242 168.0
116.231323 160.0
116.458893 196.0
116.478226 212.0
116.493263 144.0
116.518433 212.0
116.592102 180.0
116.611443 132.0
116.637238 188.0
116.740631 180.0
116.759079 252.0
116.794212 144.0
116.835083 176.0
116.860901 116.0
116.899635 176.0
116.974968 144.0
117.013718 156.0
117.074013 148.0
117.097427 188.0
117.121391 204.0
117.201286 144.0
117.274384 160.0
117.403748 192.0
117.459824 152.0
117.554756 288.0
117.64325 176.0
117.662682 184.0
117.694519 232.0
117.833305 128.0
117.876518 160.0
117.904617 184.0
117.928528 348.0
117.997566 196.0
118.017029 176.0
118.062843 172.0
118.144638 244.0
118.194397 148.0
118.237679 132.0
118.252831 208.0
118.317772 144.0
118.389229 204.0
118.428215 208.0
118.498207 220.0
118.577713 52.0
118.621071 188.0
118.712135 136.0
118.777199 36.0
118.816246 172.0
118.833603 124.0
118.885681 132.0
119.007133 148.0
119.094116 168.0
119.137558 292.0
119.235725 252.0
119.313599 116.0
119.330994 124.0
119.361435 132.0
119.400581 92.0
119.423744 216.0
119.461487 188.0
119.527901 160.0
119.581161 56.0
119.626877 204.0
119.796738 168.0
119.859924 160.0
119.894791 124.0
120.055214 116.0
120.261208 180.0
120.300499 192.0
120.370369 192.0
120.656601 236.0
120.709549 132.0
120.726578 116.0
120.746262 180.0
120.772507 160.0
120.831573 136.0
120.857826 144.0
120.875336 148.0
120.894341 216.0
120.989151 180.0
121.111786 156.0
121.237343 144.0
121.311089 160.0
121.427414 168.0
121.464699 236.0
121.519547 204.0
121.572212 212.0
121.765411 172.0
121.903816 148.0
121.954369 224.0
121.996132 176.0
122.059128 3052.0
122.114876 212.0
122.147873 156.0
122.163269 244.0
122.216072 164.0
122.295303 228.0
122.328323 132.0
122.348137 48.0
122.394371 40.0
122.44062 136.0
122.458542 204.0
122.508904 128.0
122.533134 116.0
122.599243 256.0
122.63269 228.0
122.680794 72.0
122.701782 116.0
122.719955 252.0
122.757973 224.0
122.828545 88.0
122.898979 160.0
122.95652 360.0
123.002876 148.0
123.061325 344.0
123.198196 188.0
123.213333 120.0
123.241394 188.0
123.276756 164.0
123.339417 216.0
123.382851 40.0
123.409027 172.0
123.484573 368.0
123.519966 140.0
123.548721 40.0
123.590759 116.0
123.626167 140.0
123.6483 140.0
123.694778 144.0
123.759651 172.0
123.777763 100.0
124.018188 148.0
124.038765 312.0
124.074379 780.0
124.124603 264.0
124.366432 104.0
124.393982 116.0
124.417488 168.0
124.45314 140.0
124.617378 156.0
124.651138 208.0
124.672928 112.0
124.795189 80.0
124.846336 148.0
124.922623 216.0
125.010963 164.0
125.042122 40.0
125.059761 160.0
125.080887 164.0
125.115578 36.0
125.200195 220.0
125.231377 128.0
125.262558 156.0
125.282608 136.0
125.30043 68.0
125.331627 68.0
125.348572 200.0
125.382881 132.0
125.40963 140.0
125.456444 132.0
125.521103 232.0
125.628159 172.0
125.648621 140.0
125.692863 204.0
125.715179 168.0
125.788834 144.0
125.815628 200.0
125.856628 208.0
125.896118 256.0
125.934692 188.0
126.054253 3544.0
126.088387 188.0
126.132851 184.0
126.153511 116.0
126.167969 96.0
126.325165 224.0
126.358719 240.0
126.384735 64.0
126.407951 116.0
126.432564 172.0
126.470612 136.0
126.486282 56.0
126.517624 68.0
126.671837 144.0
126.703514 52.0
126.736557 144.0
126.78418 152.0
126.840218 176.0
126.92765 164.0
126.97699 164.0
127.001663 164.0
127.059349 288.0
127.102623 216.0
127.176682 224.0
127.196884 140.0
127.24852 184.0
127.411156 136.0
127.518089 136.0
127.713707 136.0
127.833633 184.0
127.943245 172.0
128.028809 92.0
128.060333 184.0
128.091873 144.0
128.116653 140.0
128.14595 224.0
128.163971 156.0
128.204529 168.0
128.242844 196.0
128.314987 132.0
128.391647 148.0
128.502426 204.0
128.567627 132.0
128.58342 156.0
128.610504 172.0
128.773087 140.0
128.790939 128.0
128.795822 116.0
128.845688 172.0
128.958359 176.0
128.987747 84.0
129.288574 176.0
129.318497 176.0
129.447037 184.0
129.469681 172.0
129.519516 116.0
129.562561 200.0
129.596542 352.0
129.817902 216.0
129.836838 52.0
129.864044 160.0
129.893539 152.0
129.960236 140.0
130.006989 144.0
130.029678 128.0
130.165894 140.0
130.188599 152.0
130.211319 156.0
130.31459 232.0
130.393082 168.0
130.536301 248.0
130.574966 200.0
130.625 88.0
130.797943 120.0
130.825272 144.0
130.996063 120.0
131.03479 164.0
131.103149 40.0
131.135971 180.0
131.19986 184.0
131.237656 128.0
131.279938 96.0
131.317459 100.0
131.377502 200.0
131.433823 128.0
131.700928 224.0
131.87001 180.0
131.975174 148.0
132.226807 168.0
132.329819 196.0
132.38707 204.0
132.407684 224.0
132.428299 196.0
132.572632 104.0
132.652863 100.0
132.675781 200.0
132.753738 176.0
132.793533 240.0
132.844315 200.0
132.918915 232.0
132.934982 132.0
133.042862 136.0
133.145752 172.0
133.196716 140.0
133.212799 144.0
133.35527 208.0
133.402527 148.0
133.427322 196.0
133.44722 160.0
133.474808 156.0
133.513916 160.0
133.546967 196.0
133.707169 40.0
133.748901 208.0
133.82457 148.0
133.879837 224.0
133.921295 132.0
133.969376 156.0
133.997314 144.0
134.054916 108.0
134.091797 120.0
134.290085 104.0
134.366211 128.0
134.382355 180.0
134.481583 140.0
134.532379 248.0
134.562393 80.0
134.644211 240.0
134.684784 172.0
134.874268 132.0
134.952866 124.0
135.03212 132.0
135.063568 208.0
135.117081 44.0
135.198074 220.0
135.264694 148.0
135.318436 180.0
135.346222 168.0
135.394104 232.0
135.424973 248.0
135.529175 188.0
135.723495 168.0
135.771057 208.0
135.798141 160.0
135.821335 192.0
135.865417 176.0
135.953583 108.0
136.044113 144.0
136.074509 8428.0
136.105118 204.0
136.115463 164.0
136.178802 196.0
136.213638 44.0
136.250809 240.0
136.269394 120.0
136.29393 72.0
136.322845 180.0
136.392563 136.0
136.434402 56.0
136.472839 128.0
136.506485 168.0
136.626205 136.0
136.657242 168.0
136.680954 216.0
136.705292 176.0
136.841568 200.0
136.882446 224.0
136.937042 140.0
136.955673 208.0
136.985962 180.0
137.032547 124.0
137.075775 720.0
137.219009 116.0
137.260986 140.0
137.309952 196.0
137.363602 28.0
137.454605 128.0
137.501266 188.0
137.59465 80.0
137.6577 100.0
137.681046 176.0
137.709076 172.0
137.737106 136.0
137.758133 192.0
137.797836 160.0
137.844574 132.0
137.874649 184.0
137.882675 160.0
137.982483 152.0
138.049652 264.0
138.079819 180.0
138.130493 152.0
138.169586 136.0
138.185974 208.0
138.207031 76.0
138.262161 164.0
138.29361 96.0
138.32872 120.0
138.419067 184.0
138.525436 116.0
138.544174 204.0
138.572296 252.0
138.619156 196.0
138.687119 220.0
138.718506 228.0
138.752411 160.0
138.994354 172.0
139.029556 184.0
139.058914 180.0
139.167877 160.0
139.221237 192.0
139.269043 144.0
139.344208 144.0
139.395905 132.0
139.447617 188.0
139.621597 136.0
139.640411 136.0
139.676453 212.0
139.734512 176.0
139.78627 140.0
139.812164 156.0
139.828629 88.0
139.868652 112.0
139.894547 280.0
139.96701 160.0
140.005219 200.0
140.044647 316.0
140.06987 13868.0
140.120636 156.0
140.148911 60.0
140.19368 92.0
140.254959 100.0
140.300278 144.0
140.346909 68.0
140.410583 160.0
140.427094 76.0
140.460114 176.0
140.481339 60.0
140.61113 212.0
140.66777 192.0
140.703186 116.0
140.740967 136.0
140.758148 200.0
140.8685 96.0
140.939377 268.0
140.972458 128.0
141.075363 1028.0
141.175339 172.0
141.223068 148.0
141.2491 84.0
141.296402 168.0
141.343735 152.0
141.376419 172.0
141.739182 80.0
141.774734 92.0
141.866592 164.0
141.884354 212.0
141.999847 168.0
142.005417 160.0
142.073715 212.0
142.134872 124.0
142.150223 96.0
142.189774 160.0
142.215881 52.0
142.289474 52.0
142.351212 200.0
142.374954 160.0
142.569763 48.0
142.591156 156.0
142.650574 240.0
142.745682 164.0
142.805145 108.0
142.840637 160.0
142.889633 104.0
142.964554 148.0
143.021667 112.0
143.157379 144.0
143.205017 320.0
143.324127 140.0
143.374756 164.0
143.419785 60.0
143.498123 160.0
143.525742 184.0
143.553513 176.0
143.574066 176.0
143.705643 128.0
143.753357 352.0
143.76918 204.0
143.796326 76.0
143.815414 116.0
143.853607 180.0
143.989426 196.0
144.039871 80.0
144.066147 136.0
144.198318 204.0
144.231033 140.0
144.305145 144.0
144.329056 200.0
144.393631 80.0
144.532379 152.0
144.549133 176.0
144.652054 64.0
144.723877 280.0
144.858002 136.0
144.886749 220.0
144.995636 144.0
145.000107 208.0
145.018539 212.0
145.049698 156.0
145.150406 204.0
145.591965 196.0
145.630386 208.0
145.75238 168.0
145.798569 144.0
145.856262 96.0
145.892319 128.0
145.94281 112.0
145.976471 88.0
146.005341 172.0
146.075089 68.0
146.093964 208.0
146.163101 76.0
146.195389 48.0
146.395203 108.0
146.532501 184.0
146.588791 180.0
146.621674 216.0
146.73497 176.0
146.751846 192.0
146.780777 40.0
146.944794 72.0
147.118561 132.0
147.157196 120.0
147.219986 188.0
147.282776 108.0
147.37941 156.0
147.496277 112.0
147.534866 176.0
147.717896 112.0
147.831421 196.0
147.923584 216.0
147.945374 172.0
147.979263 128.0
148.013931 228.0
148.065689 176.0
148.173035 212.0
148.282074 192.0
148.355408 80.0
148.422684 96.0
148.548798 180.0
148.609451 160.0
148.662842 176.0
148.729797 196.0
148.810913 60.0
148.842484 72.0
148.944489 140.0
149.005219 156.0
149.024658 132.0
149.044098 148.0
149.23613 388.0
149.275024 132.0
149.292053 172.0
149.379608 200.0
149.41124 180.0
149.469635 216.0
149.735001 200.0
149.837311 144.0
149.890915 140.0
149.932343 160.0
149.990829 164.0
150.01033 156.0
150.05043 108.0
150.137131 172.0
150.188354 104.0
150.242065 188.0
150.498291 228.0
150.522766 164.0
150.571548 72.0
150.635056 152.0
150.793884 184.0
150.916122 140.0
150.944183 196.0
151.050385 412.0
151.097214 192.0
151.177856 128.0
151.219467 116.0
151.268417 112.0
151.292908 176.0
151.540268 164.0
151.564774 144.0
151.588165 148.0
151.885941 72.0
152.060638 2160.0
152.11171 36.0
152.172348 80.0
152.219727 160.0
152.258057 232.0
152.369568 144.0
152.410934 172.0
152.454407 148.0
152.502274 112.0
152.546509 184.0
152.635025 96.0
152.671906 128.0
152.756714 176.0
152.787521 244.0
152.807205 140.0
152.84903 76.0
152.916504 192.0
152.996719 56.0
153.028717 120.0
153.067535 2080.0
153.100128 164.0
153.159851 164.0
153.183884 84.0
153.215714 148.0
153.243011 176.0
153.262451 216.0
153.307083 52.0
153.335007 168.0
153.36377 248.0
153.399506 104.0
153.53389 112.0
153.570068 144.0
153.610245 192.0
153.618454 184.0
153.664703 124.0
153.719376 172.0
153.76152 196.0
153.785553 256.0
153.850876 156.0
153.896637 176.0
153.946457 160.0
153.967224 144.0
154.0177 384.0
154.040527 312.0
154.086151 112740.0
154.163925 220.0
154.190857 40.0
154.212601 76.0
154.248322 80.0
154.255875 264.0
154.286118 236.0
154.308548 72.0
154.352997 112.0
154.370895 56.0
154.397827 64.0
154.431946 208.0
154.456802 152.0
154.492218 460.0
154.5224 152.0
154.568314 200.0
154.615479 208.0
154.632019 200.0
154.687469 64.0
154.715927 160.0
154.724747 56.0
154.780502 116.0
154.798798 100.0
154.807281 92.0
154.812485 88.0
154.859238 68.0
154.880447 152.0
154.916641 68.0
154.934616 156.0
154.960205 40.0
155.014725 76.0
155.046265 116.0
155.088058 9808.0
155.1689 128.0
155.188416 184.0
155.262756 164.0
155.305206 72.0
155.322403 168.0
155.379227 140.0
155.421402 84.0
155.461655 180.0
155.49585 68.0
155.5336 212.0
155.558884 164.0
155.593796 176.0
155.609924 80.0
155.677979 156.0
155.703262 104.0
155.725433 176.0
155.786377 80.0
155.811218 56.0
155.837311 80.0
155.89679 188.0
155.926437 412.0
155.933762 184.0
155.964493 68.0
155.988373 152.0
156.047256 164.0
156.091248 848.0
156.12442 64.0
156.146622 160.0
156.155746 148.0
156.189758 96.0
156.214371 68.0
156.232254 200.0
156.281143 148.0
156.298553 172.0
156.321671 84.0
156.348328 36.0
156.377151 192.0
156.432693 112.0
156.453018 208.0
156.53241 148.0
156.579865 152.0
156.617233 60.0
156.699432 124.0
156.8013 196.0
156.811295 172.0
156.888855 112.0
156.927795 240.0
156.9487 108.0
157.012695 156.0
157.055939 108.0
157.089767 308.0
157.158218 136.0
157.180679 160.0
157.214371 64.0
157.402695 136.0
157.425323 120.0
157.515228 52.0
157.546463 80.0
157.594025 232.0
157.620163 112.0
157.764389 80.0
157.950195 172.0
157.980209 188.0
158.087799 76.0
158.180405 28.0
158.220459 160.0
158.373215 72.0
158.533569 136.0
158.596222 48.0
158.631317 76.0
158.731796 160.0
158.846985 148.0
158.899673 116.0
158.992508 80.0
159.022629 108.0
159.045227 140.0
159.079147 124.0
159.123047 136.0
159.145645 152.0
159.193359 52.0
159.253632 120.0
159.288803 128.0
159.457153 176.0
159.513367 392.0
159.53508 140.0
159.552673 52.0
159.570267 140.0
159.595413 88.0
159.653259 128.0
159.741287 140.0
159.816757 368.0
159.877151 72.0
160.023163 104.0
160.045822 112.0
160.133957 88.0
160.257401 200.0
160.58519 156.0
160.658279 148.0
160.769302 172.0
160.817261 168.0
160.893646 168.0
160.961166 184.0
160.978561 144.0
161.014191 188.0
161.039459 168.0
161.130402 172.0
161.261795 140.0
161.345215 144.0
161.428665 236.0
161.486832 176.0
161.576553 172.0
161.67659 116.0
161.717087 196.0
161.758301 184.0
161.801193 208.0
161.831009 156.0
161.856323 72.0
161.896835 100.0
161.929764 164.0
161.99144 180.0
162.287079 192.0
162.337799 212.0
162.38092 132.0
162.56105 112.0
162.605194 132.0
162.614532 52.0
162.620987 136.0
162.660034 200.0
162.860626 196.0
162.881699 204.0
163.005447 160.0
163.053741 132.0
163.147781 160.0
163.245941 208.0
163.285095 208.0
163.330887 156.0
163.42247 88.0
163.638824 120.0
163.677017 116.0
163.762222 168.0
163.794174 92.0
163.83493 164.0
163.936844 160.0
164.061752 236.0
164.120392 88.0
164.140793 164.0
164.355057 152.0
164.518402 184.0
164.597549 52.0
164.653732 192.0
164.730362 172.0
164.756821 148.0
164.784012 112.0
164.8479 188.0
164.907181 184.0
164.960358 92.0
165.068481 1084.0
165.207138 124.0
165.2612 192.0
165.351715 56.0
165.374756 152.0
165.441849 152.0
165.523056 180.0
165.564224 180.0
165.66156 56.0
165.728165 196.0
165.88707 216.0
165.915268 240.0
165.933212 52.0
166.074356 172.0
166.124695 124.0
166.164047 56.0
166.230759 104.0
166.312897 64.0
166.354797 216.0
166.405304 56.0
166.459229 260.0
166.520874 120.0
166.585083 192.0
166.610779 104.0
166.734116 116.0
166.831985 52.0
167.08316 1052.0
167.161026 136.0
167.190247 72.0
167.300018 84.0
167.343781 140.0
167.404495 104.0
167.436493 88.0
167.58847 192.0
167.641678 148.0
167.78952 176.0
167.833344 128.0
167.86171 224.0
167.907379 248.0
167.982941 212.0
168.05896 368.0
168.085358 472.0
168.148071 152.0
168.305557 104.0
168.339127 136.0
168.388199 96.0
168.452774 172.0
168.597458 148.0
168.656906 96.0
168.726715 60.0
168.788757 128.0
168.949127 204.0
168.995697 76.0
169.069778 160.0
169.143219 92.0
169.176865 168.0
169.409943 116.0
169.479904 40.0
169.55246 124.0
169.586441 144.0
169.707993 144.0
169.814316 120.0
169.915497 104.0
170.040054 200.0
170.081604 1876.0
170.138687 164.0
170.62973 140.0
170.779282 196.0
170.855988 180.0
170.991302 168.0
171.079803 132.0
171.129272 180.0
171.150101 204.0
171.290741 56.0
171.546127 152.0
171.564377 200.0
171.589172 108.0
171.626953 180.0
171.731262 152.0
171.86171 172.0
171.900848 208.0
171.934784 144.0
172.062683 32.0
172.094589 200.0
172.135788 28.0
172.221985 132.0
172.289902 52.0
172.308197 68.0
172.344772 116.0
172.556488 124.0
172.729095 228.0
172.849442 172.0
172.87561 196.0
172.954788 128.0
172.975067 140.0
173.016953 84.0
173.158356 144.0
173.464935 184.0
173.527847 208.0
173.561935 136.0
173.614395 180.0
173.632751 144.0
173.700943 132.0
173.87149 184.0
173.937119 216.0
173.994873 224.0
174.050003 208.0
174.18396 132.0
174.215485 112.0
174.257507 156.0
174.294296 144.0
174.322083 188.0
174.375763 72.0
174.412521 216.0
174.473022 176.0
174.546646 120.0
174.600296 200.0
174.957108 172.0
175.051895 176.0
175.136185 180.0
175.180954 124.0
175.281082 128.0
175.410233 172.0
175.452408 152.0
175.578979 136.0
175.605347 192.0
175.666016 112.0
175.731979 188.0
175.797943 208.0
175.842819 84.0
175.869202 208.0
175.924637 108.0
175.999649 180.0
176.06459 216.0
176.091003 180.0
176.231018 168.0
176.302368 216.0
176.365799 224.0
176.453033 164.0
176.535004 116.0
176.643448 56.0
176.92662 156.0
176.966324 208.0
177.054306 180.0
177.077545 188.0
177.151718 120.0
177.378708 116.0
177.472351 156.0
177.615631 128.0
177.705826 176.0
177.788086 132.0
177.904877 128.0
178.013748 128.0
178.06427 260.0
178.175766 160.0
178.215622 128.0
178.250168 276.0
178.298004 144.0
178.386841 124.0
178.465485 128.0
178.577179 88.0
178.635696 124.0
178.731476 152.0
178.856567 104.0
178.90181 160.0
178.971039 144.0
178.99234 172.0
179.064606 732.0
179.099884 220.0
179.13089 192.0
179.159271 156.0
179.191422 216.0
179.223846 176.0
179.250732 44.0
179.353378 180.0
179.374512 136.0
179.436935 112.0
179.459518 148.0
179.484161 232.0
179.5224 168.0
179.542709 124.0
179.583984 172.0
179.605286 144.0
179.633453 232.0
179.654556 132.0
179.674973 140.0
179.697205 192.0
179.717331 404.0
179.720688 320.0
179.762009 312.0
179.781128 108.0
179.787155 220.0
179.806656 220.0
179.829468 268.0
179.855988 436.0
179.874451 108.0
179.894608 272.0
179.917221 160.0
179.949188 272.0
179.975754 152.0
180.012589 232.0
180.080658 234364.0
180.134995 304.0
180.182587 224.0
180.233582 88.0
180.255432 104.0
180.277267 204.0
180.32373 176.0
180.369141 216.0
180.404892 260.0
180.42926 256.0
180.471405 156.0
180.519913 2516.0
180.552277 212.0
180.57843 124.0
180.630692 212.0
180.66748 212.0
180.693512 120.0
180.727142 84.0
180.73172 124.0
180.758972 136.0
180.783112 188.0
180.800339 124.0
180.846375 100.0
180.87149 76.0
180.891998 160.0
180.920258 348.0
180.952087 76.0
180.984268 156.0
181.043121 292.0
181.051086 180.0
181.083267 32328.0
181.150055 208.0
181.1707 56.0
181.196991 136.0
181.222656 52.0
181.240875 108.0
181.261154 120.0
181.29425 196.0
181.314529 96.0
181.343124 144.0
181.371048 168.0
181.401077 300.0
181.434235 72.0
181.491409 136.0
181.513641 108.0
181.560989 68.0
181.600021 84.0
181.632935 76.0
181.697556 136.0
181.730484 148.0
181.772003 96.0
181.789948 88.0
181.834183 84.0
181.896027 184.0
181.952286 36.0
181.979141 76.0
182.015625 264.0
182.031067 196.0
182.089859 3868.0
182.143906 80.0
182.155502 56.0
182.17778 56.0
182.217209 140.0
182.236557 88.0
182.253799 412.0
182.310135 144.0
182.340302 136.0
182.388718 188.0
182.431992 124.0
182.483582 156.0
182.490799 112.0
182.526993 196.0
182.551224 224.0
182.611649 120.0
182.635818 124.0
182.707504 104.0
182.742477 60.0
182.775925 148.0
182.84967 48.0
182.882416 44.0
182.911377 116.0
182.973953 52.0
182.991669 48.0
183.02684 56.0
183.09639 988.0
183.140915 68.0
183.177429 72.0
183.229813 116.0
183.258072 156.0
183.30986 96.0
183.326813 132.0
183.442719 168.0
183.47197 108.0
183.499329 60.0
183.553406 92.0
183.585617 88.0
183.62178 108.0
183.666534 48.0
183.736679 32.0
183.819107 152.0
183.858093 36.0
183.879684 112.0
183.951279 92.0
184.097458 152.0
184.141586 76.0
184.182098 56.0
184.217224 112.0
184.338806 72.0
184.40097 48.0
184.457733 92.0
184.517212 96.0
184.536133 72.0
184.555054 100.0
184.671341 84.0
184.801193 48.0
184.903366 100.0
185.080002 108.0
185.131454 32.0
185.245209 92.0
185.350876 68.0
185.369843 48.0
185.592117 56.0
185.779266 72.0
186.042511 96.0
186.194565 112.0
186.286926 68.0
186.694641 80.0
186.996628 152.0
187.203537 44.0
187.255295 76.0
187.366974 60.0
187.459625 48.0
187.576813 56.0
188.024155 52.0
188.280777 92.0
188.357269 64.0
188.562195 48.0
188.611389 40.0
189.084579 76.0
189.246094 84.0
189.273483 100.0
189.385773 64.0
189.643326 96.0
189.709122 52.0
189.733795 100.0
189.939468 76.0
190.142517 52.0
190.219376 80.0
190.238586 48.0
190.26329 84.0
190.417068 100.0
190.515961 92.0
190.551666 52.0
190.653351 64.0
190.678085 72.0
190.790787 220.0
190.815521 132.0
190.843018 120.0
190.870514 72.0
190.907394 140.0
190.972275 44.0
191.0383 96.0
191.098816 136.0
191.180984 84.0
191.365814 44.0
191.418121 64.0
191.558594 60.0
193.076721 40.0
193.137558 112.0
193.455795 84.0
193.508392 52.0
193.732727 72.0
194.094604 228.0
194.12355 32.0
194.7258 116.0
194.77301 112.0
195.292801 124.0
195.476425 80.0
195.793793 48.0
195.966507 68.0
196.027817 36.0
196.384674 64.0
196.429306 72.0
197.078293 236.0
197.932968 44.0
198.030975 112.0
198.089355 428.0
198.602783 64.0
198.796371 60.0
198.931091 68.0
198.998474 36.0
199.585739 116.0
199.833252 120.0
199.907883 184.0
200.49501 72.0
201.677612 140.0
203.828705 48.0
203.89975 72.0
204.067474 76.0
204.901413 100.0
205.021088 144.0
205.149353 32.0
208.101944 112.0
208.892303 120.0
210.34697 116.0
210.835693 104.0
212.541382 72.0
213.075638 80.0
213.151184 44.0
213.311035 116.0
213.651291 80.0
216.869354 72.0
217.062851 128.0
222.598938 132.0
224.10498 692.0
224.50354 104.0
224.551254 56.0
225.107666 800.0
225.279602 108.0
226.796768 48.0
227.771988 60.0
228.78241 56.0
228.872742 48.0
232.582321 68.0
232.652145 80.0
233.542511 104.0
234.919388 52.0
236.40741 76.0
238.536041 212.0
241.391113 96.0
242.130753 56.0
243.197342 48.0
244.876358 112.0
248.361496 144.0
251.861786 56.0
252.114548 124.0
252.244141 164.0
252.395905 80.0
254.585648 56.0
255.593369 76.0
256.102753 52.0
257.426331 108.0
257.854431 132.0
258.907013 132.0
258.999908 36.0
260.363068 28.0
261.610657 68.0
263.894897 84.0
265.338928 44.0
267.307312 76.0
268.004181 64.0
268.568176 68.0
269.328705 84.0
271.826782 44.0
274.692535 112.0
277.696045 104.0
279.044281 104.0
284.698273 96.0
284.7453 108.0
285.504852 76.0
286.956207 68.0
287.016876 76.0
287.178772 48.0
288.509247 76.0
289.101196 104.0
289.653076 64.0
290.093628 124.0
290.249573 80.0
293.711823 140.0
294.783905 80.0
295.310394 80.0
296.923584 120.0
298.740692 64.0
299.267273 80.0
299.51178 52.0
300.694458 80.0
304.947723 88.0
308.499786 64.0
310.039917 100.0
312.67749 84.0
314.122162 104.0
314.619751 52.0
315.998138 76.0
317.028564 116.0
318.131683 32.0
325.512024 80.0
326.183899 88.0
328.806091 124.0
329.58252 120.0
332.552185 92.0
332.697388 80.0
333.202209 84.0
333.758118 80.0
337.510468 36.0
338.1763 68.0
338.212921 84.0
340.060272 88.0
343.640961 56.0
345.565948 44.0
345.924957 48.0
350.418762 68.0
350.795166 136.0
351.171112 108.0
351.496368 44.0
352.185791 168.0
352.429871 56.0
352.964417 84.0
354.248199 64.0
354.540436 120.0
364.70871 76.0
366.181213 60.0
366.31073 104.0
367.786438 60.0
369.077759 48.0
369.686005 44.0
373.680573 72.0
376.166351 48.0
378.083527 108.0
388.287415 128.0
389.162506 36.0
391.140015 48.0
392.66095 100.0
393.008118 72.0
393.098877 104.0
398.217957 56.0
404.394135 96.0
404.786499 56.0
406.743042 60.0
408.044678 120.0
411.437012 52.0
418.923553 44.0
424.539703 120.0
425.931091 48.0
426.637909 60.0
429.697968 68.0
430.924225 96.0
433.195557 68.0
434.99118 108.0
436.898682 68.0
439.027161 200.0
439.231537 48.0
443.806915 72.0
445.074127 44.0
445.981567 64.0
451.259674 112.0
452.550171 136.0
453.384705 40.0
455.935364 52.0
456.53479 68.0
458.535797 76.0
460.998291 84.0
461.94751 52.0
463.394592 60.0
468.434052 68.0
478.285645 136.0
479.221954 104.0
482.254974 28.0
483.199554 72.0
484.385956 68.0
488.648834 32.0
496.15271 88.0
500.146393 48.0
508.482452 60.0
508.635071 52.0
519.469971 56.0
533.549988 72.0
540.283447 104.0
565.16217 28.0
576.16449 88.0
583.901306 92.0
586.303711 76.0
590.640442 112.0
594.768066 68.0
602.877625 80.0
606.783813 64.0
614.402161 48.0
615.789307 132.0
625.388611 56.0
628.583252 92.0
643.032104 32.0
643.774231 80.0
648.70752 80.0
661.468628 72.0
662.267456 92.0
724.998596 72.0
740.520813 32.0
743.643921 92.0
743.839355 32.0
747.317566 72.0
750.7276 152.0
752.118896 68.0
754.675659 60.0
756.010437 68.0
761.416138 52.0
768.285828 160.0
771.102051 124.0
773.08197 84.0
788.280701 40.0
788.817261 216.0
798.703491 64.0
805.078125 128.0
810.112244 76.0
812.385498 168.0
814.673401 96.0
817.123718 144.0
819.811401 172.0
827.402771 252.0
832.356812 172.0
841.038818 244.0
842.962036 188.0
846.757202 60.0
848.391296 124.0
849.638184 52.0
851.623535 120.0
851.943054 84.0
859.337097 52.0
868.78009 92.0
881.20282 204.0
886.238098 140.0
900.778748 164.0
902.374451 152.0
916.600342 140.0
918.825256 160.0
919.277771 196.0
921.578491 172.0
928.606934 172.0
930.439575 28.0
933.581055 116.0
933.897339 172.0
934.122375 188.0
936.484192 60.0
937.842957 160.0
939.018127 228.0
939.434509 196.0
940.532959 196.0
944.590454 148.0
948.46051 96.0
948.540222 180.0
950.711487 204.0
954.262024 184.0
961.827332 92.0
966.326416 140.0
966.672913 272.0
966.877136 76.0
967.923401 212.0
968.617065 120.0
974.162903 184.0
979.568909 204.0
980.572083 216.0
980.727905 72.0
980.771545 144.0
982.355469 64.0
983.085449 220.0
984.05304 188.0
990.958191 152.0
994.288025 168.0
997.504028 176.0
1000.435547 108.0
1002.671692 180.0
1003.535339 160.0
1003.787598 108.0
1004.689514 36.0
1005.169067 128.0
1005.78125 160.0
1010.192078 140.0
1011.217163 100.0
1012.394775 252.0
1015.957092 204.0
1016.407532 148.0
1018.763123 204.0
1022.349304 116.0
1027.083252 164.0
1029.195801 132.0
1029.253174 212.0
1030.096313 124.0
1031.41272 228.0
1032.697876 36.0
1037.314697 140.0
1038.270142 64.0
1039.392822 176.0
1042.051025 104.0
1043.754395 180.0
1047.313477 144.0
1050.678467 48.0
1051.014038 180.0
1051.349609 156.0
1051.68335 216.0
1052.311401 124.0
1053.041138 260.0
1053.616089 168.0
1060.015381 176.0
1060.339355 168.0
1061.752808 200.0
1062.62854 204.0
1062.790649 44.0
1063.861572 196.0
1064.322632 172.0
1064.920044 96.0
1065.387817 176.0
1067.448242 208.0
1068.521484 132.0
1070.461182 156.0
1071.014771 180.0
1072.050781 104.0
1072.252808 240.0
1076.891724 160.0
1077.140015 156.0
1077.630005 68.0
1078.407593 224.0
1078.695312 104.0
1080.153564 196.0
1081.00415 152.0
1081.953247 116.0
1084.665405 36.0
1085.071777 160.0
1085.281616 120.0
1085.838989 156.0
1085.898071 68.0
1086.494995 152.0
1086.783691 212.0
1087.538452 144.0
1088.615112 136.0
1089.002686 232.0
1089.53479 140.0
1090.546753 188.0
1091.657837 128.0
1092.466919 92.0
1094.737671 208.0
1095.119751 52.0
1095.666504 108.0
1096.140869 132.0
1096.971313 248.0
1100.308594 108.0
1101.980591 208.0
1102.588501 136.0
1103.52063 164.0
1110.414307 144.0
1111.734619 188.0
1112.517822 132.0
1112.763428 180.0
1113.646729 148.0
1116.670898 128.0
1118.434204 132.0
1119.359619 100.0
1120.218872 180.0
1120.625244 44.0
1121.111694 132.0
1121.758301 140.0
1122.831787 172.0
1125.014404 120.0
1125.988647 176.0
1126.716797 40.0
1126.883789 208.0
1128.55481 180.0
1128.976074 136.0
1129.477783 168.0
1132.583618 132.0
1134.352783 92.0
1134.459961 44.0
1136.767334 160.0
1136.961914 140.0
1137.639893 132.0
1139.110596 176.0
1140.635986 200.0
1141.032715 152.0
1143.387085 208.0
1145.676514 168.0
1146.006592 44.0
1146.161621 64.0
1146.498535 116.0
1147.307373 40.0
1149.276855 164.0
1151.011719 148.0
1151.288574 76.0
1155.249512 188.0
1155.472778 56.0
1157.286621 100.0
1157.848755 132.0
1159.928955 136.0
1161.814453 220.0
1162.825195 176.0
1163.748535 152.0
1164.210205 144.0
1164.271362 172.0
1165.820312 144.0
1166.126221 156.0
1166.336914 160.0
1166.527222 120.0
1166.751587 152.0
1167.254761 176.0
1169.724487 172.0
1170.739014 204.0
1170.786743 172.0
1171.038696 108.0
1173.40332 148.0
1173.983032 96.0
1174.208008 128.0
1174.412598 160.0
1175.818237 196.0
1176.651001 176.0
1177.033325 152.0
1178.044189 172.0
1179.410889 168.0
1179.985229 260.0
1180.415894 160.0
1180.634766 192.0
1180.901489 136.0
1181.318848 144.0
1181.407715 152.0
1181.489868 140.0
1181.558228 272.0
1182.536743 152.0
1183.673218 176.0
1185.810791 156.0
1186.41394 132.0
1189.123535 180.0
1190.324951 200.0
1191.602539 176.0
1192.035522 216.0
1193.313965 144.0
1193.726562 188.0
1193.809082 156.0
1194.166748 236.0
1195.128052 252.0
1196.885132 224.0
1197.828735 180.0
1199.234375 156.0
1199.703125 100.0
1201.151367 144.0
1201.337524 104.0
1201.730835 60.0
1201.917114 192.0
1202.552124 184.0
1202.959351 180.0
1203.200928 200.0
1204.146973 104.0
1208.972778 104.0
1210.350342 104.0
1210.945923 160.0
1211.597168 136.0
1212.594971 192.0
1212.650391 148.0
1212.768188 156.0
1213.25354 116.0
1213.870605 196.0
1215.882446 80.0
1216.187866 144.0
1216.54187 52.0
1217.014038 220.0
1218.562988 48.0
1220.606445 172.0
1222.651733 152.0
1222.958008 168.0
1223.918823 124.0
1224.009277 156.0
1224.22522 128.0
1224.886841 164.0
1226.859009 160.0
1227.040283 156.0
1228.009644 148.0
1228.602539 196.0
1228.888672 136.0
1229.000244 160.0
1229.432861 116.0
1231.380859 92.0
1232.260986 104.0
1234.001343 196.0
1234.106689 176.0
1237.548828 144.0
1238.753418 196.0
1239.629272 120.0
1241.508057 148.0
1242.7146 144.0
1243.296997 168.0
1243.830444 140.0
1244.532593 132.0
1246.358887 100.0
1246.415039 208.0
1247.033569 136.0
1247.65918 148.0
1248.875732 248.0
1249.536987 132.0
1250.332153 160.0
1250.458862 48.0
1251.134644 88.0
1251.338745 188.0
1251.76123 96.0
1251.993652 224.0
1252.662842 36.0
1253.959351 164.0
1254.918091 204.0
1256.61084 236.0
1257.838867 152.0
1258.488403 156.0
1258.679077 148.0
1259.067383 216.0
1259.667847 172.0
1261.710205 136.0
1263.372192 244.0
1264.074463 204.0
1264.3479 192.0
1265.141479 232.0
1266.756104 176.0
1266.975708 184.0
1267.82605 204.0
1268.074097 100.0
1268.435669 140.0
1268.917725 136.0
1269.877319 184.0
1270.328979 176.0
1270.712158 180.0
1271.421753 212.0
1272.202515 232.0
1272.330322 76.0
1272.77771 128.0
1272.884155 148.0
1273.651245 96.0
1274.375854 160.0
1274.468262 60.0
1274.851929 124.0
1274.937256 156.0
1275.114868 132.0
1275.562744 140.0
1276.280762 196.0
1276.543945 212.0
1276.977783 88.0
1277.596558 168.0
1278.279663 52.0
1279.005615 124.0
1279.596558 152.0
1279.696167 56.0
1280.009521 84.0
1280.621948 180.0
1281.911499 140.0
1282.396118 148.0
1283.109009 112.0
1286.176636 184.0
1286.67627 112.0
1286.961914 56.0
1287.019043 140.0
1287.069092 184.0
1287.611816 152.0
1288.554688 164.0
1289.447998 92.0
1289.640991 192.0
1291.306885 180.0
1292.222534 208.0
1292.344238 232.0
1292.587524 164.0
1293.291748 168.0
1293.711304 112.0
1293.990479 136.0
1294.234741 224.0
1295.351196 156.0
1296.074829 204.0
1296.934814 132.0
1297.22876 160.0
1298.139282 152.0
1298.763306 168.0
1299.566772 136.0
1300.435181 224.0
1300.492554 68.0
1301.167358 36.0
1301.569458 188.0
1301.878296 120.0
1302.905396 216.0
1303.243164 256.0
1303.552124 160.0
1303.817993 204.0
1304.457764 148.0
1305.389648 224.0
1305.507446 108.0
1306.09729 116.0
1306.197998 224.0
1306.31311 204.0
1308.018555 164.0
1310.114136 128.0
1310.200684 172.0
1311.641968 172.0
1312.197021 136.0
1312.31958 144.0
1312.434937 224.0
1312.795532 216.0
1314.303223 224.0
1314.866089 80.0
1315.212524 208.0
1316.050049 136.0
1317.776367 60.0
1318.325439 176.0
1318.477295 112.0
1318.571167 152.0
1318.650757 68.0
1319.004883 120.0
1319.424194 164.0
1320.342529 196.0
1320.414917 152.0
1320.754883 128.0
1321.369751 136.0
1321.731567 36.0
1321.825562 96.0
1321.941406 116.0
1322.013794 172.0
1322.252563 172.0
1322.397339 180.0
1322.534912 152.0
1324.89563 52.0
1326.475464 280.0
1327.715332 144.0
1327.853149 272.0
1328.346436 156.0
1329.115479 236.0
1329.891968 96.0
1329.986328 156.0
1330.240479 164.0
1330.392822 184.0
1330.625244 152.0
1330.915649 168.0
1331.002808 172.0
1331.191528 220.0
1332.702515 128.0
1333.392944 164.0
1334.083374 212.0
1334.207031 176.0
1335.872437 144.0
1337.204102 136.0
1337.269531 252.0
1338.543579 204.0
1338.594604 104.0
1338.951416 152.0
1339.009644 152.0
1339.505005 192.0
1339.694458 180.0
1339.818237 60.0
1340.554199 136.0
1340.860352 168.0
1340.976929 144.0
1341.18103 128.0
1341.341309 132.0
1342.42041 144.0
1343.084106 152.0
1343.397827 132.0
1343.733398 300.0
1344.207764 160.0
1345.06897 152.0
1345.258789 72.0
1345.477783 156.0
1345.762573 96.0
1346.186035 152.0
1346.368652 168.0
1346.492798 164.0
1346.660767 52.0
1347.340088 140.0
1347.530151 212.0
1348.867554 164.0
1349.971558 224.0
1350.33728 40.0
1350.75415 180.0
1353.000854 156.0
1353.110718 92.0
1354.231079 144.0
1355.264038 124.0
1355.901611 168.0
1356.9646 132.0
1357.345825 212.0
1358.196655 132.0
1358.438721 64.0
1359.341187 36.0
1360.009033 172.0
1360.581665 144.0
1360.655029 104.0
1360.706421 136.0
1360.772583 140.0
1362.527954 128.0
1362.895264 76.0
1364.505005 208.0
1364.556396 124.0
1364.755005 188.0
1364.880005 224.0
1365.115234 188.0
1366.174438 228.0
1366.292114 152.0
1366.417236 144.0
1366.711548 244.0
1366.888184 44.0
1367.123657 208.0
1367.741943 88.0
1367.808105 164.0
1370.12793 144.0
1370.886841 204.0
1370.982666 164.0
1371.933472 140.0
1372.338989 184.0
1373.482178 144.0
1373.902588 148.0
1374.323242 188.0
1374.758545 40.0
1375.083252 220.0
1375.385986 260.0
1375.504028 188.0
1376.899414 152.0
1377.800781 76.0
1377.978149 112.0
1378.155396 96.0
1378.540405 160.0
1379.507935 120.0
1380.129028 164.0
1380.461792 124.0
1381.748779 180.0
1382.807007 152.0
1382.969849 164.0
1383.273315 176.0
1383.83606 136.0
1385.64978 168.0
1386.006348 144.0
1386.46582 156.0
1386.873413 120.0
1388.467529 164.0
1389.08313 208.0
1389.498657 140.0
1390.871582 128.0
1391.227905 176.0
1391.413452 180.0
1392.252563 148.0
1392.557129 104.0
1392.638794 176.0
1392.750244 136.0
1393.307373 176.0
1393.574829 128.0
1393.66394 356.0
1393.864624 204.0
1394.288208 156.0
1394.451782 160.0
1396.228638 120.0
1396.585693 144.0
1396.97998 148.0
1397.390015 172.0
1397.584351 152.0
1398.734009 276.0
1399.098022 200.0
1399.264771 248.0
1400.009399 160.0
1401.327881 136.0
1402.579956 120.0
1403.004883 144.0
1403.593872 208.0
1405.309448 140.0
1405.966187 188.0
1406.040771 144.0
1406.80957 200.0
1406.89917 136.0
1407.294922 180.0
1407.907227 232.0
1409.162231 188.0
1409.341553 192.0
1409.393799 76.0
1410.836304 120.0
1411.247559 120.0
1412.242188 184.0
1413.050171 164.0
1413.304565 156.0
1413.581421 180.0
1413.910767 272.0
1414.04187 188.0
1414.217529 80.0
1414.554443 136.0
1415.130859 176.0
1415.205811 76.0
1418.202393 156.0
1418.344849 168.0
1418.914551 208.0
1419.327026 184.0
1420.219482 168.0
1420.549561 204.0
1421.772583 128.0
1422.140381 124.0
1422.200439 204.0
1422.55957 184.0
1422.67334 216.0
1423.153809 40.0
1423.303955 124.0
1423.416626 120.0
1423.942383 116.0
1424.025024 100.0
1424.212769 164.0
1424.806274 124.0
1425.174438 160.0
1425.527588 156.0
1426.098755 52.0
1426.385132 124.0
1427.106079 172.0
1427.557373 100.0
1427.888184 32.0
1427.963379 148.0
1428.610352 200.0
1428.843628 192.0
1429.136963 132.0
1430.777832 188.0
1431.086548 72.0
1431.229614 36.0
1431.342529 192.0
1432.344238 112.0
1432.503052 196.0
1433.331177 100.0
1433.421631 240.0
1433.745728 88.0
1433.971802 160.0
1435.125244 152.0
1435.20813 152.0
1435.668091 184.0
1436.007568 116.0
1436.233765 232.0
1436.776978 52.0
1437.184448 160.0
1438.818115 176.0
1439.150757 164.0
1439.343262 128.0
1439.494263 132.0
1439.645264 116.0
1439.69812 176.0
1440.921875 184.0
1441.382812 148.0
1441.586792 252.0
1441.964722 160.0
1442.622314 148.0
1442.697998 216.0
1442.879395 112.0
1443.128906 180.0
1443.930542 104.0
1444.429688 204.0
1444.68689 140.0
1445.216553 244.0
1445.995972 192.0
1447.290527 176.0
1448.153931 136.0
1448.343262 160.0
1448.80542 64.0
1449.040283 80.0
1449.244751 200.0
1449.328125 36.0
1449.760132 164.0
1450.866821 124.0
1451.480957 132.0
1453.233154 56.0
1454.250122 176.0
1454.682739 100.0
1455.138306 128.0
1455.563477 100.0
1455.7229 204.0
1455.92041 128.0
1456.6875 216.0
1457.105347 200.0
1457.378906 184.0
1457.888062 136.0
1458.214844 144.0
1459.081421 120.0
1459.218384 172.0
1459.362793 148.0
1460.199341 172.0
1460.572021 184.0
1460.894409 184.0
1461.002686 168.0
1461.203979 160.0
1462.382935 112.0
1462.672241 140.0
1463.456421 56.0
1464.195068 156.0
1464.339722 160.0
1465.154907 172.0
1465.284424 192.0
1465.601196 300.0
1468.036133 228.0
1468.470825 160.0
1468.806519 220.0
1469.493042 48.0
1471.30957 184.0
1471.592041 216.0
1471.874634 176.0
1472.447388 164.0
1473.868286 124.0
1474.028809 132.0
1474.99939 172.0
1475.129395 172.0
1475.710449 188.0
1475.978027 248.0
1476.069824 172.0
1476.14624 132.0
1476.427979 148.0
1477.484863 168.0
1478.142822 144.0
1478.204102 140.0
1478.448975 128.0
1479.390503 224.0
1479.597168 100.0
1480.087158 112.0
1480.202026 220.0
1480.309326 64.0
1481.251343 216.0
1481.956177 144.0
1482.339355 92.0
1482.768555 196.0
1483.128784 176.0
1483.596313 140.0
1483.880005 204.0
1484.064087 188.0
1484.294067 168.0
1485.522461 248.0
1485.620972 144.0
1485.684692 220.0
1486.05835 152.0
1486.296143 156.0
1487.378296 144.0
1487.716064 56.0
1487.8927 244.0
1488.24585 116.0
1488.929321 224.0
1489.344116 188.0
1489.612915 124.0
1489.87207 196.0
1489.96936 220.0
1490.906128 208.0
1491.044922 124.0
1491.534058 136.0
1491.949219 240.0
1492.318237 228.0
1492.887329 120.0
1493.425293 168.0
1493.640991 212.0
1493.779541 100.0
1494.895142 248.0
1495.272217 164.0
1495.410767 208.0
1496.211426 168.0
1496.486084 220.0
1496.950562 144.0
1497.458862 156.0
1497.520508 120.0
1498.313965 128.0
1498.691528 88.0
1498.961182 196.0
1499.207764 176.0
1499.59314 124.0
1499.739624 96.0
1500.834351 200.0
1501.204468 148.0
1501.435913 268.0
1501.652344 128.0
1502.654663 148.0
1502.755005 64.0
1503.102173 36.0
1503.287354 156.0
1503.495728 136.0
1503.858521 168.0
1504.2677 172.0
1504.42981 68.0
1504.491577 168.0
1504.860474 148.0
1504.939331 84.0
