>compound MLS001049016-01![2-(1H-indol-3-yl)-2-oxoethyl] acetate
>formula C12H11NO3
>ionization [M+H]+
>parentmass 218.082
#inchi InChI=1S/C12H11NO3/c1-8(14)16-7-12(15)10-6-13-11-5-3-2-4-9(10)11/h2-6,13H,7H2,1H3
#inchikey PKWIQNMYISXPPV
#Ion_Source LC-ESI
#Instrument qTof
#Compound_Source NIH Natural Product Library
#PI Dorrestein
#Data_Collector VVP/LMS
#Scan -1
#Precursor_MZ 218.082
#ExactMass 217.074
#Charge 1
#CAS_Number N/A
#Pubmed_ID N/A
#Smiles CC(=O)OCC(=O)c1c[nH]c2ccccc12
#INCHI_AUX N/A
#Library_Class 3
#SpectrumID CCMSLIB00000079788
#IonMode Positive
#UpdateWorkflowName UPDATE-SINGLE-ANNOTATED-BRONZE
#LibraryQualityString Bronze
#TaskID b1d8e8f6646f4e71acdff9ca3d919d08
##Scan# 1685
#SpectrumFile p1-A11_GA11_01_17883.mzXML
#LibraryName NIH_Natural_Products_Library.mgf
#MQScore -1
#Organism NIH_Natural_Products_Library
#TIC_Query 0
#RT_Query -1
#MZErrorPPM -1
#SharedPeaks 0
#MassDiff 0
#LibMZ -1
#SpecMZ 218.082
#SpecCharge 0
#internalFilename spec-00000.mgf

>collision 10
99.476837 48.0
102.04599 120.0
103.053917 180.0
104.698799 88.0
105.210579 180.0
107.251633 188.0
109.455925 88.0
114.96656 140.0
117.060936 168.0
118.065865 480.0
118.086014 184.0
118.859383 108.0
121.398491 64.0
124.741234 188.0
128.048767 92.0
130.012878 112.0
130.065552 3028.0
130.110474 44.0
130.847061 88.0
131.06926 172.0
131.866699 48.0
131.900986 124.0
132.04274 180.0
138.82399 200.0
151.994064 208.0
155.470993 160.0
158.061707 608.0
159.065338 180.0
160.430984 104.0
175.759781 104.0
176.064667 144.0
176.343399 56.0
176.67392 48.0
177.076248 164.0
184.104752 164.0
232.878082 184.0
250.033325 112.0
299.082214 168.0
861.16571 188.0
897.477539 192.0
956.638611 156.0
963.341614 20.0
989.411011 176.0
1044.175293 72.0
1052.430054 128.0
1085.741089 180.0
1107.997192 20.0
1176.63208 160.0
1198.152832 216.0
1200.723877 136.0
1216.04126 160.0
1246.567017 140.0
1338.46228 124.0
1415.049927 192.0
1419.560547 72.0
1429.378296 200.0
1473.728516 72.0
