>compound MLS002153184-01!7-Cyclopentyl-5-(4-phenoxyphenyl)-7H-pyrrolo[2,3-d]pyrimidin-4-ylamine
>formula C23H22N4O
>ionization [M+H]+
>parentmass 371.18808
#inchi InChI=1S/C23H22N4O/c24-22-21-20(14-27(17-6-4-5-7-17)23(21)26-15-25-22)16-10-12-19(13-11-16)28-18-8-2-1-3-9-18/h1-3,8-15,17H,4-7H2,(H2,24,25,26)
#inchikey FMETVQKSDIOGPX
#Ion_Source LC-ESI
#Instrument qTof
#Compound_Source NIH Pharmacologically Active Library
#PI Dorrestein
#Data_Collector VP/LMS
#Scan -1
#Precursor_MZ 371.187
#ExactMass 370.179
#Charge 1
#CAS_Number N/A
#Pubmed_ID N/A
#Smiles Nc1ncnc2n(cc(c3ccc(Oc4ccccc4)cc3)c12)C5CCCC5
#INCHI_AUX N/A
#Library_Class 1
#SpectrumID CCMSLIB00000085925
#IonMode Positive
#UpdateWorkflowName UPDATE-SINGLE-ANNOTATED-GOLD
#LibraryQualityString Gold
#TaskID d252d724072548979f1f6f1ced849daf
##Scan# 2092
#SpectrumFile p4-H02_GH2_01_18410.mzXML
#LibraryName Pharm_Active_Library.mgf
#MQScore -1
#Organism Pharm_Active_Library
#TIC_Query 0
#RT_Query -1
#MZErrorPPM -1
#SharedPeaks 0
#MassDiff 0
#LibMZ -1
#SpecMZ 371.187
#SpecCharge 0
#internalFilename spec-00000.mgf

>collision 10
44.912212 132.0
44.930889 200.0
44.957577 136.0
44.980267 76.0
44.989613 100.0
45.013199 168.0
45.037498 288.0
45.064404 164.0
45.081467 172.0
45.123215 308.0
45.132572 112.0
45.143272 120.0
45.152634 116.0
45.166008 132.0
45.175373 112.0
45.189774 180.0
45.212837 112.0
45.257015 224.0
45.273083 148.0
45.291836 136.0
45.301212 132.0
45.313271 92.0
45.325329 76.0
45.353474 136.0
45.362858 140.0
45.392002 152.0
45.40979 184.0
45.419178 136.0
45.435574 108.0
45.458462 172.0
45.479561 144.0
45.503727 100.0
45.51263 124.0
45.558792 324.0
45.572868 140.0
45.58432 160.0
45.621956 32.0
45.647503 128.0
45.683819 188.0
45.696125 136.0
45.724186 120.0
45.733608 176.0
45.755146 148.0
45.771305 124.0
45.795883 192.0
45.805473 160.0
45.831921 124.0
45.841354 176.0
45.855301 160.0
45.874889 136.0
45.913376 104.0
45.93034 128.0
45.941132 184.0
45.977627 164.0
46.001022 200.0
46.045979 284.0
46.081543 60.0
46.094597 212.0
46.118031 124.0
46.130196 112.0
46.14642 244.0
46.159462 124.0
46.182114 196.0
46.196461 224.0
46.212696 224.0
46.225777 120.0
46.257359 156.0
46.278252 176.0
46.283794 76.0
46.287762 140.0
46.30896 148.0
46.33997 84.0
46.35894 108.0
46.372494 92.0
46.381981 88.0
46.392826 56.0
46.430794 128.0
46.461994 160.0
46.475563 116.0
46.511951 128.0
46.527138 192.0
46.53936 128.0
46.601841 116.0
46.622223 140.0
46.639912 156.0
46.65913 160.0
46.6698 68.0
46.679321 132.0
46.700871 152.0
46.721485 224.0
46.746574 192.0
46.769115 148.0
46.808598 44.0
46.82494 56.0
46.846733 172.0
46.862919 228.0
46.878075 172.0
46.895203 176.0
46.927147 104.0
46.991535 172.0
46.997211 76.0
46.999966 124.0
47.018543 112.0
47.051861 224.0
47.068363 144.0
47.079979 36.0
47.103199 140.0
47.114128 32.0
47.15625 136.0
47.171886 196.0
47.182461 180.0
47.192032 188.0
47.205708 216.0
47.215279 168.0
47.250847 148.0
47.261791 160.0
47.28846 164.0
47.298744 180.0
47.31654 136.0
47.336334 44.0
47.358093 152.0
47.375431 148.0
47.387638 132.0
47.415817 152.0
47.459892 180.0
47.476864 116.0
47.48682 324.0
47.496994 260.0
47.518017 124.0
47.539761 156.0
47.551762 104.0
47.563305 168.0
47.59351 172.0
47.605869 184.0
47.684177 188.0
47.693798 128.0
47.732296 156.0
47.762554 160.0
47.779919 180.0
47.813461 40.0
47.832733 76.0
47.844711 208.0
47.857719 184.0
47.871284 128.0
47.915516 36.0
47.940838 164.0
47.971554 140.0
47.991791 204.0
48.027527 220.0
48.043468 100.0
48.064663 172.0
48.107643 152.0
48.124153 164.0
48.13744 116.0
48.164616 136.0
48.173161 324.0
48.205128 132.0
48.234154 36.0
48.259037 112.0
48.285313 140.0
48.317131 140.0
48.344646 176.0
48.373634 352.0
48.384186 132.0
48.401173 128.0
48.410168 204.0
48.444496 136.0
48.457062 144.0
48.476845 128.0
48.487453 84.0
48.50547 84.0
48.520721 80.0
48.534588 184.0
48.555389 104.0
48.56905 80.0
48.577915 136.0
48.619209 168.0
48.653912 152.0
48.709461 184.0
48.729057 188.0
48.790062 176.0
48.811665 112.0
48.832832 180.0
48.850372 180.0
48.876297 124.0
48.909698 188.0
48.947292 116.0
48.965309 128.0
48.983501 164.0
49.002552 196.0
49.01754 84.0
49.029484 176.0
49.089252 188.0
49.142437 172.0
49.163368 172.0
49.185699 164.0
49.25597 112.0
49.267521 88.0
49.296696 136.0
49.349159 168.0
49.36454 60.0
49.38279 164.0
49.393059 256.0
49.446842 116.0
49.455479 260.0
49.464394 152.0
49.479279 88.0
49.496078 128.0
49.519081 180.0
49.554794 96.0
49.559555 140.0
49.574528 80.0
49.590904 152.0
49.608166 108.0
49.625614 180.0
49.644623 108.0
49.661453 196.0
49.698853 164.0
49.730286 140.0
49.80806 144.0
49.840118 228.0
49.859421 264.0
49.914841 124.0
49.967304 200.0
49.9874 188.0
50.003918 320.0
50.02248 160.0
50.035255 168.0
50.066444 108.0
50.081638 124.0
50.098282 208.0
50.11554 76.0
50.131039 196.0
50.159908 224.0
50.177162 100.0
50.196308 80.0
50.203762 48.0
50.206543 108.0
50.229736 204.0
50.244057 160.0
50.269241 148.0
50.283356 144.0
50.294647 160.0
50.342651 108.0
50.360317 140.0
50.377964 184.0
50.412434 196.0
50.423855 148.0
50.438728 96.0
50.47266 44.0
50.503376 228.0
50.505741 164.0
50.511467 128.0
50.534801 180.0
50.581665 176.0
50.592926 120.0
50.614407 232.0
50.630466 172.0
50.645935 312.0
50.663738 208.0
50.693794 132.0
50.713333 120.0
50.770908 112.0
50.809055 120.0
50.822399 128.0
50.825684 164.0
50.839561 104.0
50.890667 116.0
50.930431 176.0
50.960266 116.0
50.973179 136.0
51.001476 132.0
51.044128 148.0
51.060921 104.0
51.107281 140.0
51.129486 120.0
51.146568 188.0
51.156532 124.0
51.175903 184.0
51.190704 164.0
51.219189 124.0
51.249187 140.0
51.268269 152.0
51.28331 172.0
51.297863 268.0
51.327507 168.0
51.367668 228.0
51.37709 152.0
51.425369 208.0
51.44593 280.0
51.461636 144.0
51.486626 128.0
51.5042 164.0
51.532642 140.0
51.562439 176.0
51.621677 144.0
51.649158 208.0
51.67807 160.0
51.70179 148.0
51.721828 144.0
51.756187 132.0
51.770199 148.0
51.793365 192.0
51.827808 156.0
51.853786 284.0
51.888805 296.0
51.91095 196.0
51.929596 160.0
51.942505 96.0
51.953983 144.0
51.993671 188.0
52.02861 176.0
52.042202 284.0
52.058315 128.0
52.071133 144.0
52.088928 140.0
52.178921 116.0
52.199596 164.0
52.218292 236.0
52.265053 216.0
52.276817 136.0
52.293961 88.0
52.321541 136.0
52.363663 192.0
52.387329 260.0
52.437141 148.0
52.455879 188.0
52.491924 164.0
52.51318 152.0
52.535198 132.0
52.545296 172.0
52.569824 244.0
52.582813 60.0
52.595806 120.0
52.609455 120.0
52.631897 120.0
52.646339 432.0
52.672619 164.0
52.7258 188.0
52.757969 188.0
52.808044 104.0
52.832802 100.0
52.903717 120.0
52.913853 156.0
52.950115 92.0
52.961639 108.0
52.987591 232.0
53.020248 276.0
53.036987 212.0
53.074684 144.0
53.085171 172.0
53.102947 172.0
53.124844 168.0
53.172806 144.0
53.191528 144.0
53.217426 128.0
53.22995 140.0
53.248829 144.0
53.263355 92.0
53.303055 344.0
53.316326 100.0
53.337463 156.0
53.383488 220.0
53.394478 208.0
53.408318 212.0
53.4189 284.0
53.496483 320.0
53.511967 156.0
53.544079 132.0
53.562923 176.0
53.579041 168.0
53.596836 180.0
53.6213 44.0
53.63879 148.0
53.683987 140.0
53.7365 148.0
53.768604 100.0
53.80072 156.0
53.822048 236.0
53.852314 60.0
53.871174 164.0
53.88689 232.0
53.897118 96.0
53.931484 124.0
53.953663 192.0
53.98629 120.0
54.002926 160.0
54.018467 76.0
54.050598 100.0
54.080585 160.0
54.103348 100.0
54.116089 148.0
54.121479 140.0
54.157528 112.0
54.198551 168.0
54.22493 88.0
54.281704 132.0
54.303371 40.0
54.31813 192.0
54.335823 180.0
54.35043 104.0
54.375057 156.0
54.393612 268.0
54.409676 140.0
54.418053 148.0
54.421726 80.0
54.434338 76.0
54.453815 108.0
54.468647 136.0
54.489071 156.0
54.536861 192.0
54.553738 152.0
54.566387 80.0
54.581886 136.0
54.596745 276.0
54.613216 128.0
54.625793 168.0
54.639034 152.0
54.64846 128.0
54.70195 144.0
54.707607 108.0
54.712563 100.0
54.717777 104.0
54.72192 152.0
54.747963 96.0
54.762135 148.0
54.792973 180.0
54.831509 136.0
54.856735 112.0
54.874691 120.0
54.901234 128.0
54.944008 88.0
54.963192 104.0
54.973518 64.0
54.994183 124.0
55.017437 268.0
55.03109 88.0
55.071323 164.0
55.094597 108.0
55.106121 160.0
55.133015 144.0
55.14484 124.0
55.155186 128.0
55.165535 232.0
55.18919 140.0
55.239475 104.0
55.251312 172.0
55.286777 156.0
55.291294 204.0
55.296406 152.0
55.32235 160.0
55.354122 164.0
55.364399 160.0
55.39436 188.0
55.45229 144.0
55.495728 208.0
55.502163 88.0
55.509701 152.0
55.530235 164.0
55.553535 100.0
55.565781 176.0
55.576286 224.0
55.595081 88.0
55.616035 136.0
55.630302 84.0
55.658916 200.0
55.685646 44.0
55.715355 164.0
55.745667 104.0
55.774502 120.0
55.779732 176.0
55.819401 112.0
55.843197 284.0
55.85807 380.0
55.870243 152.0
55.890804 52.0
55.913124 148.0
55.943287 260.0
55.963741 108.0
55.974895 212.0
55.985085 156.0
56.003948 212.0
56.026356 100.0
56.055992 116.0
56.083176 208.0
56.100811 148.0
56.11721 108.0
56.136597 120.0
56.171738 192.0
56.205643 112.0
56.231331 144.0
56.276863 136.0
56.303741 172.0
56.326145 116.0
56.356026 100.0
56.370972 156.0
56.417305 184.0
56.432255 176.0
56.448704 140.0
56.466652 144.0
56.523502 148.0
56.543995 196.0
56.560543 160.0
56.587864 136.0
56.603313 176.0
56.626801 176.0
56.660568 192.0
56.688225 140.0
56.731693 168.0
56.78149 172.0
56.797626 128.0
56.841091 164.0
56.859749 248.0
56.886211 124.0
56.899723 92.0
56.93576 148.0
56.961296 148.0
56.973316 172.0
57.023186 192.0
57.05093 180.0
57.114624 140.0
57.133591 204.0
57.15073 192.0
57.161263 84.0
57.180576 144.0
57.19849 136.0
57.213943 68.0
57.243221 216.0
57.267479 196.0
57.296268 176.0
57.315575 84.0
57.343491 152.0
57.358982 188.0
57.370625 36.0
57.390224 108.0
57.40078 108.0
57.41737 132.0
57.434628 136.0
57.454136 168.0
57.503368 164.0
57.523418 128.0
57.550167 120.0
57.569382 148.0
57.589432 128.0
57.604538 36.0
57.618134 180.0
57.653767 124.0
57.665642 128.0
57.690678 132.0
57.715374 180.0
57.726967 180.0
57.75832 108.0
57.776882 84.0
57.789829 156.0
57.835617 172.0
57.840832 196.0
57.851284 360.0
57.872234 120.0
57.907066 84.0
57.928738 144.0
57.947968 68.0
57.960087 164.0
57.97221 84.0
57.995758 164.0
58.001698 88.0
58.007439 116.0
58.025066 152.0
58.076824 184.0
58.0975 196.0
58.107098 88.0
58.150227 160.0
58.169922 112.0
58.208126 72.0
58.239239 116.0
58.260361 84.0
58.264744 76.0
58.278126 168.0
58.293221 136.0
58.306911 156.0
58.323227 176.0
58.357777 112.0
58.377407 216.0
58.404922 48.0
58.417183 136.0
58.432976 200.0
58.459694 100.0
58.499271 212.0
58.51297 100.0
58.535812 136.0
58.564747 152.0
58.587597 164.0
58.608929 52.0
58.622643 108.0
58.640423 192.0
58.650612 188.0
58.727428 176.0
58.747673 180.0
58.760548 92.0
58.771915 108.0
58.845352 140.0
58.856037 96.0
58.897274 144.0
58.914536 120.0
59.007305 80.0
59.018009 204.0
59.048901 20.0
59.086117 144.0
59.109791 156.0
59.129284 184.0
59.145462 156.0
59.174076 72.0
59.189388 132.0
59.244408 252.0
59.261383 152.0
59.276707 88.0
59.296299 132.0
59.307037 160.0
59.322685 284.0
59.348751 192.0
59.362553 144.0
59.380955 168.0
59.393227 224.0
59.413898 160.0
59.474552 264.0
59.49144 44.0
59.508327 160.0
59.527191 140.0
59.544144 292.0
59.563614 116.0
59.581524 176.0
59.60817 116.0
59.623489 128.0
59.640446 184.0
59.674351 192.0
59.71146 172.0
59.743671 136.0
59.758862 136.0
59.769634 276.0
59.797333 280.0
59.838898 204.0
59.860455 68.0
59.886723 144.0
59.901527 276.0
59.923611 104.0
59.94762 156.0
59.980324 212.0
59.998524 136.0
60.029968 160.0
60.049679 236.0
60.066143 88.0
60.100674 220.0
60.11298 148.0
60.147228 164.0
60.162666 116.0
60.21661 124.0
60.274612 156.0
60.296104 144.0
60.341396 140.0
60.365257 164.0
60.377449 80.0
60.388275 188.0
60.414574 184.0
60.425404 92.0
60.495045 388.0
60.508263 148.0
60.520939 188.0
60.557972 88.0
60.592453 116.0
60.610432 72.0
60.617405 144.0
60.649952 56.0
60.697304 200.0
60.725979 132.0
60.741219 112.0
60.783333 44.0
60.810505 132.0
60.823685 136.0
60.834145 76.0
60.847801 120.0
60.882687 164.0
60.906582 140.0
60.919655 120.0
60.923912 96.0
60.947933 156.0
60.961918 88.0
60.983677 80.0
61.031868 132.0
61.044308 156.0
61.058308 104.0
61.123013 164.0
61.146011 156.0
61.156326 172.0
61.175758 164.0
61.195248 160.0
61.211086 208.0
61.240005 108.0
61.277798 120.0
61.292698 196.0
61.349518 128.0
61.363522 132.0
61.413425 164.0
61.447746 124.0
61.471802 140.0
61.493 124.0
61.507046 168.0
61.519535 228.0
61.550762 92.0
61.561695 92.0
61.591118 200.0
61.616661 320.0
61.663246 208.0
61.686691 52.0
61.705452 120.0
61.728741 152.0
61.761749 132.0
61.774265 148.0
61.801296 136.0
61.825562 204.0
61.829811 160.0
61.849934 124.0
61.868065 188.0
61.886951 132.0
61.914997 132.0
61.955864 108.0
61.981163 176.0
62.006794 144.0
62.026104 224.0
62.070286 184.0
62.085968 152.0
62.097858 172.0
62.12149 136.0
62.162891 228.0
62.181671 52.0
62.198936 36.0
62.214634 48.0
62.225624 160.0
62.247364 160.0
62.273632 168.0
62.286873 288.0
62.321655 144.0
62.339664 156.0
62.354439 136.0
62.381668 284.0
62.40884 172.0
62.425457 92.0
62.455372 372.0
62.478378 132.0
62.50388 152.0
62.515369 340.0
62.530937 164.0
62.544464 128.0
62.576244 196.0
62.599865 112.0
62.634514 164.0
62.663273 172.0
62.686508 136.0
62.716454 148.0
62.731174 124.0
62.743252 88.0
62.797451 332.0
62.810799 220.0
62.839458 104.0
62.859974 132.0
62.921532 96.0
62.942902 212.0
63.013161 168.0
63.026772 172.0
63.042015 116.0
63.062126 180.0
63.098484 68.0
63.126949 148.0
63.161743 228.0
63.191803 160.0
63.202877 144.0
63.239384 120.0
63.261436 144.0
63.280437 184.0
63.297855 196.0
63.337448 224.0
63.365967 156.0
63.379257 308.0
63.418262 168.0
63.430943 132.0
63.443623 176.0
63.457249 108.0
63.474545 144.0
63.504063 176.0
63.534374 144.0
63.556236 144.0
63.570518 104.0
63.585098 212.0
63.620781 60.0
63.631462 240.0
63.649891 144.0
63.671673 148.0
63.699123 352.0
63.723034 164.0
63.738846 128.0
63.769146 348.0
63.792885 160.0
63.807194 144.0
63.827923 104.0
63.870804 72.0
63.88718 168.0
63.905804 256.0
63.944305 200.0
63.972649 160.0
63.990162 40.0
64.060722 196.0
64.142441 140.0
64.152664 168.0
64.168152 168.0
64.214478 236.0
64.23719 196.0
64.259056 124.0
64.275482 152.0
64.30101 96.0
64.333496 160.0
64.347305 128.0
64.359512 144.0
64.390427 68.0
64.422371 124.0
64.438347 88.0
64.45752 252.0
64.4767 172.0
64.501503 192.0
64.527855 152.0
64.548637 140.0
64.57077 172.0
64.602173 68.0
64.625801 168.0
64.676628 64.0
64.716652 92.0
64.749535 164.0
64.761581 76.0
64.767853 124.0
64.771675 192.0
64.833595 128.0
64.865654 152.0
64.881683 152.0
64.914421 144.0
64.932648 92.0
64.952911 152.0
64.97049 192.0
64.991867 80.0
65.020927 124.0
65.070435 136.0
65.074852 312.0
65.152908 188.0
65.211411 188.0
65.2351 84.0
65.268639 156.0
65.316887 164.0
65.35067 128.0
65.370911 248.0
65.386818 156.0
65.403778 136.0
65.423096 140.0
65.468346 116.0
65.485481 156.0
65.543892 80.0
65.561623 180.0
65.572899 92.0
65.607697 184.0
65.634163 64.0
65.666183 180.0
65.680931 108.0
65.69384 96.0
65.711586 36.0
65.722878 216.0
65.737717 152.0
65.7575 168.0
65.790451 180.0
65.814888 212.0
65.843956 156.0
65.866104 152.0
65.894966 276.0
65.939842 164.0
65.958031 220.0
65.989395 224.0
66.009361 128.0
66.033005 128.0
66.039841 124.0
66.054794 156.0
66.079193 192.0
66.128517 212.0
66.154419 196.0
66.168983 84.0
66.19651 108.0
66.245102 80.0
66.261429 156.0
66.277512 104.0
66.293716 192.0
66.309921 108.0
66.337479 136.0
66.356934 288.0
66.376389 92.0
66.445786 204.0
66.472275 132.0
66.511902 144.0
66.525398 276.0
66.545143 176.0
66.582314 160.0
66.600151 220.0
66.6166 148.0
66.644043 408.0
66.66227 148.0
66.691353 84.0
66.702728 84.0
66.715736 172.0
66.730278 224.0
66.758011 132.0
66.776955 340.0
66.798676 140.0
66.811684 268.0
66.867012 160.0
66.889435 196.0
66.907028 180.0
66.937019 124.0
66.949516 148.0
66.965622 128.0
66.991058 132.0
67.021721 152.0
67.059166 184.0
67.095375 236.0
67.189659 184.0
67.217239 160.0
67.248405 132.0
67.261467 160.0
67.33004 140.0
67.344177 236.0
67.355629 180.0
67.375778 288.0
67.390488 148.0
67.40448 128.0
67.419899 196.0
67.431343 96.0
67.449318 96.0
67.477165 124.0
67.511452 160.0
67.534348 144.0
67.567062 76.0
67.578522 264.0
67.592697 84.0
67.621063 100.0
67.640709 144.0
67.698013 36.0
67.716263 216.0
67.753204 104.0
67.768456 120.0
67.781563 132.0
67.810196 212.0
67.833366 168.0
67.890831 268.0
67.916908 100.0
67.943886 160.0
67.975464 164.0
68.016296 208.0
68.051003 168.0
68.066986 144.0
68.091194 208.0
68.126122 240.0
68.140266 188.0
68.162949 96.0
68.211937 280.0
68.256454 104.0
68.282227 128.0
68.321754 184.0
68.371117 128.0
68.404617 148.0
68.414742 104.0
68.427086 116.0
68.445198 72.0
68.456726 112.0
68.486977 196.0
68.509438 144.0
68.530853 128.0
68.548477 212.0
68.596779 132.0
68.639641 88.0
68.675926 88.0
68.710571 180.0
68.728722 132.0
68.745392 196.0
68.768555 144.0
68.806625 364.0
68.839554 228.0
68.874001 100.0
68.897133 248.0
68.935135 180.0
68.963135 144.0
68.978104 104.0
69.001251 160.0
69.035927 216.0
69.07785 152.0
69.095528 104.0
69.116798 56.0
69.14994 136.0
69.16597 196.0
69.183243 100.0
69.212936 180.0
69.236229 216.0
69.279297 44.0
69.309525 212.0
69.329002 164.0
69.360558 200.0
69.400284 136.0
69.423706 144.0
69.436676 148.0
69.539192 60.0
69.558617 120.0
69.574493 172.0
69.599403 160.0
69.612686 156.0
69.630791 176.0
69.659187 156.0
69.670822 152.0
69.685776 28.0
69.718658 172.0
69.747261 100.0
69.792152 140.0
69.816025 308.0
69.828735 240.0
69.865334 220.0
69.889572 132.0
69.904846 136.0
69.934669 252.0
69.950203 96.0
69.96685 132.0
69.990166 148.0
70.01181 152.0
70.059769 76.0
70.085106 112.0
70.096771 176.0
70.124489 108.0
70.155983 184.0
70.252159 292.0
70.276863 68.0
70.291878 88.0
70.322037 172.0
70.385361 136.0
70.444359 124.0
70.474953 164.0
70.486633 192.0
70.524025 180.0
70.552368 252.0
70.578079 276.0
70.603752 164.0
70.621567 208.0
70.649445 108.0
70.728096 28.0
70.747223 152.0
70.783348 300.0
70.806793 152.0
70.868195 196.0
70.871117 140.0
70.922401 220.0
70.937485 124.0
70.952209 184.0
71.027229 152.0
71.06324 212.0
71.091797 180.0
71.122009 184.0
71.144333 148.0
71.169014 128.0
71.187492 108.0
71.207123 196.0
71.27652 140.0
71.291649 388.0
71.346718 152.0
71.3769 240.0
71.395882 56.0
71.41671 156.0
71.441742 164.0
71.463745 204.0
71.486725 44.0
71.506973 132.0
71.530487 108.0
71.541924 216.0
71.568848 168.0
71.605103 164.0
71.624786 100.0
71.63826 156.0
71.667816 96.0
71.672523 144.0
71.735283 220.0
71.771408 176.0
71.786247 200.0
71.810196 176.0
71.851082 228.0
71.879364 184.0
71.892639 176.0
71.91143 64.0
71.978966 180.0
71.994164 152.0
72.007675 244.0
72.021187 56.0
72.066216 128.0
72.069618 156.0
72.116753 176.0
72.13102 64.0
72.161575 168.0
72.17392 172.0
72.204407 100.0
72.240852 152.0
72.257858 80.0
72.290009 72.0
72.319565 172.0
72.352173 160.0
72.369286 192.0
72.409424 164.0
72.432144 132.0
72.446953 180.0
72.451851 124.0
72.482597 132.0
72.515259 80.0
72.536163 188.0
72.562721 148.0
72.592201 156.0
72.605118 336.0
72.61779 152.0
72.637344 104.0
72.66449 196.0
72.676369 112.0
72.689941 144.0
72.703514 144.0
72.730904 204.0
72.749344 136.0
72.76712 140.0
72.789528 48.0
72.817268 180.0
72.841049 132.0
72.858543 188.0
72.911476 184.0
72.958305 44.0
72.980988 212.0
73.012642 168.0
73.031067 208.0
73.072258 128.0
73.09948 128.0
73.113098 280.0
73.14431 296.0
73.177048 120.0
73.197327 252.0
73.236519 156.0
73.278275 100.0
73.343239 132.0
73.356674 132.0
73.389061 160.0
73.406113 72.0
73.431007 136.0
73.470154 192.0
73.486816 172.0
73.518707 164.0
73.57901 148.0
73.59816 192.0
73.619431 188.0
73.650177 88.0
73.670677 108.0
73.691841 196.0
73.718521 48.0
73.734573 172.0
73.771507 92.0
73.800568 152.0
73.835785 88.0
73.940674 120.0
73.946999 108.0
73.95182 184.0
74.019592 104.0
74.045662 164.0
74.117233 84.0
74.165398 116.0
74.184082 100.0
74.206367 108.0
74.230499 164.0
74.284805 324.0
74.355255 176.0
74.369759 132.0
74.384789 156.0
74.400238 64.0
74.419678 176.0
74.450035 128.0
74.462059 144.0
74.522186 120.0
74.547958 96.0
74.563423 28.0
74.578247 224.0
74.601242 328.0
74.62767 140.0
74.640785 116.0
74.659706 112.0
74.685501 104.0
74.718018 140.0
74.743996 104.0
74.756042 152.0
74.794708 180.0
74.808456 124.0
74.830406 128.0
74.841621 96.0
74.881721 148.0
74.902443 128.0
74.94693 108.0
74.971313 64.0
75.028191 184.0
75.043709 76.0
75.055779 112.0
75.067856 280.0
75.090088 268.0
75.124771 120.0
75.14698 124.0
75.196404 184.0
75.221825 84.0
75.262848 124.0
75.29805 104.0
75.326752 120.0
75.347481 96.0
75.368484 196.0
75.380463 136.0
75.401047 144.0
75.414391 200.0
75.441681 120.0
75.461555 176.0
75.491737 272.0
75.518623 156.0
75.573982 132.0
75.594742 72.0
75.624382 192.0
75.652008 96.0
75.66571 36.0
75.701065 240.0
75.743645 160.0
75.759232 108.0
75.800819 96.0
75.820824 88.0
75.863686 132.0
75.904831 132.0
75.918251 108.0
75.972473 168.0
75.995026 140.0
76.009743 116.0
76.031929 136.0
76.05043 164.0
76.082359 168.0
76.102638 136.0
76.143578 156.0
76.170372 148.0
76.225197 124.0
76.246643 220.0
76.276375 160.0
76.304192 100.0
76.317665 128.0
76.337227 152.0
76.35984 180.0
76.401245 144.0
76.415413 156.0
76.421761 148.0
76.445084 108.0
76.474564 188.0
76.49556 168.0
76.509277 164.0
76.515434 144.0
76.535606 96.0
76.547119 108.0
76.593079 176.0
76.619209 96.0
76.643265 132.0
76.664513 228.0
76.689232 132.0
76.725761 116.0
76.766304 196.0
76.781265 128.0
76.79702 184.0
76.809227 112.0
76.851097 172.0
76.873787 112.0
76.887749 132.0
76.931381 176.0
76.949913 176.0
76.997688 176.0
77.016953 120.0
77.06237 156.0
77.07666 180.0
77.09288 140.0
77.116547 156.0
77.14801 148.0
77.160187 116.0
77.192444 164.0
77.2239 140.0
77.242447 80.0
77.268684 172.0
77.284431 148.0
77.305435 204.0
77.319435 152.0
77.364944 128.0
77.377197 140.0
77.394707 160.0
77.440239 128.0
77.485786 136.0
77.507065 112.0
77.533096 140.0
77.571663 108.0
77.599709 108.0
77.615494 216.0
77.627769 120.0
77.640045 128.0
77.654076 292.0
77.683899 164.0
77.702881 112.0
77.729515 164.0
77.747849 152.0
77.771988 308.0
77.810669 136.0
77.825523 184.0
77.841858 96.0
77.887527 108.0
77.904846 144.0
77.964386 332.0
78.063286 168.0
78.086143 140.0
78.17939 156.0
78.223396 160.0
78.240997 176.0
78.263084 44.0
78.268265 132.0
78.30735 100.0
78.34816 180.0
78.362526 108.0
78.376617 100.0
78.420677 132.0
78.433022 108.0
78.449997 184.0
78.468277 240.0
78.500015 148.0
78.519196 228.0
78.538589 180.0
78.562576 140.0
78.579346 140.0
78.600563 140.0
78.612923 232.0
78.639618 156.0
78.664108 156.0
78.704536 164.0
78.74073 164.0
78.755928 188.0
78.787605 160.0
78.839119 220.0
78.865479 56.0
78.913208 160.0
78.927361 148.0
78.965607 88.0
78.991028 152.0
79.015793 120.0
79.044106 104.0
79.068886 156.0
79.08049 76.0
79.099419 144.0
79.137253 224.0
79.181282 124.0
79.214073 140.0
79.232529 96.0
79.261917 108.0
79.292236 184.0
79.328865 216.0
79.341675 292.0
79.354088 392.0
79.377136 148.0
79.391632 228.0
79.411057 192.0
79.425026 280.0
79.440987 100.0
79.455177 132.0
79.476471 152.0
79.492439 148.0
79.508987 136.0
79.540207 152.0
79.580933 212.0
79.583794 364.0
79.599976 132.0
79.611382 120.0
79.635178 172.0
79.650032 332.0
79.668228 136.0
79.722633 200.0
79.769524 180.0
79.810158 332.0
79.83107 136.0
79.87059 224.0
79.901123 140.0
79.922432 180.0
79.961624 184.0
79.975418 144.0
79.995377 104.0
80.022148 188.0
80.041954 132.0
80.068451 264.0
80.080917 204.0
80.101318 220.0
80.128815 144.0
80.181656 140.0
80.254913 176.0
80.290878 164.0
80.306664 276.0
80.33976 168.0
80.403625 108.0
80.421959 236.0
80.444679 128.0
80.461525 152.0
80.480469 184.0
80.499474 192.0
80.510193 212.0
80.552773 116.0
80.57505 180.0
80.59864 80.0
80.653206 60.0
80.67762 92.0
80.705856 132.0
80.738472 76.0
80.769775 208.0
80.81337 148.0
80.830109 180.0
80.843269 236.0
80.85759 144.0
80.896965 208.0
80.911911 152.0
80.92382 196.0
80.950684 88.0
80.989326 104.0
81.027702 116.0
81.070961 200.0
81.113724 128.0
81.13723 224.0
81.194542 168.0
81.209732 156.0
81.223961 160.0
81.327637 176.0
81.348724 76.0
81.362671 424.0
81.382835 348.0
81.427475 136.0
81.467743 176.0
81.491074 140.0
81.521828 192.0
81.554016 156.0
81.602776 168.0
81.650597 48.0
81.706764 108.0
81.727524 336.0
81.746597 100.0
81.787346 144.0
81.82579 224.0
81.85936 100.0
81.884575 116.0
81.90728 176.0
81.941078 196.0
81.966667 148.0
81.994476 176.0
82.007095 116.0
82.050323 208.0
82.0774 40.0
82.090027 140.0
82.118881 192.0
82.162834 120.0
82.18383 172.0
82.215775 136.0
82.252197 176.0
82.271111 184.0
82.294952 312.0
82.315964 220.0
82.331253 132.0
82.37159 168.0
82.384232 180.0
82.435188 140.0
82.460129 288.0
82.493874 208.0
82.51503 140.0
82.53244 148.0
82.546906 76.0
82.566803 92.0
82.590317 132.0
82.620918 100.0
82.644669 92.0
82.685173 156.0
82.787262 176.0
82.793732 144.0
82.799149 232.0
82.814758 48.0
82.879982 68.0
82.943413 124.0
82.980705 144.0
83.009399 152.0
83.015694 60.0
83.023193 144.0
83.046768 172.0
83.077606 124.0
83.093933 84.0
83.169411 136.0
83.172653 180.0
83.203896 116.0
83.216682 184.0
83.284554 136.0
83.318283 148.0
83.355408 136.0
83.376495 196.0
83.388977 220.0
83.406296 104.0
83.426628 356.0
83.446289 148.0
83.49646 136.0
83.517212 112.0
83.531769 144.0
83.559059 160.0
83.580887 116.0
83.60273 144.0
83.619591 60.0
83.627357 120.0
83.665764 184.0
83.671837 116.0
83.677361 180.0
83.701828 100.0
83.740707 168.0
83.754562 92.0
83.792107 140.0
83.838959 168.0
83.864998 144.0
83.90377 208.0
83.917862 144.0
83.965126 48.0
83.975975 196.0
84.012703 140.0
84.02961 136.0
84.078896 304.0
84.091988 104.0
84.115982 304.0
84.182457 156.0
84.19696 144.0
84.21302 136.0
84.215843 100.0
84.223351 164.0
84.286148 152.0
84.306679 156.0
84.33831 216.0
84.361519 152.0
84.377968 36.0
84.399857 132.0
84.43232 144.0
84.453026 132.0
84.502342 120.0
84.522469 160.0
84.604828 140.0
84.624969 100.0
84.637787 88.0
84.652435 120.0
84.667152 120.0
84.700058 148.0
84.734741 120.0
84.76136 108.0
84.777008 112.0
84.81057 168.0
84.844833 308.0
84.861336 104.0
84.88739 172.0
84.938362 128.0
85.002571 168.0
85.013206 156.0
85.043716 192.0
85.081497 104.0
85.104218 172.0
85.125565 180.0
85.147827 168.0
85.208221 84.0
85.235786 128.0
85.255447 120.0
85.290977 132.0
85.321121 140.0
85.340561 52.0
85.362625 220.0
85.389885 136.0
85.415764 148.0
85.440132 352.0
85.517166 116.0
85.5411 72.0
85.559509 40.0
85.58651 252.0
85.6157 124.0
85.63501 124.0
85.657112 120.0
85.710541 212.0
85.749245 64.0
85.763985 128.0
85.776886 204.0
85.813759 136.0
85.840431 60.0
85.867241 140.0
85.900444 220.0
85.917397 212.0
85.95948 292.0
85.981628 192.0
85.997398 148.0
86.030663 128.0
86.049408 180.0
86.085518 132.0
86.11911 304.0
86.13752 168.0
86.173561 192.0
86.192154 184.0
86.214333 112.0
86.227272 96.0
86.24575 60.0
86.320381 228.0
86.338196 92.0
86.356697 184.0
86.398453 168.0
86.415001 116.0
86.496719 420.0
86.530647 124.0
86.556572 140.0
86.593262 108.0
86.654739 112.0
86.671417 148.0
86.686096 192.0
86.705353 140.0
86.738136 188.0
86.764091 180.0
86.780777 128.0
86.824997 144.0
86.861298 180.0
86.888351 116.0
86.911636 204.0
86.95887 212.0
86.971451 204.0
86.985649 56.0
87.027557 152.0
87.045105 80.0
87.05867 148.0
87.071114 124.0
87.113914 176.0
87.140465 152.0
87.163155 188.0
87.228203 80.0
87.276466 188.0
87.302574 168.0
87.336052 240.0
87.377365 152.0
87.390701 160.0
87.414192 252.0
87.428322 196.0
87.471252 128.0
87.499321 196.0
87.522163 64.0
87.535194 196.0
87.567802 120.0
87.594795 80.0
87.624603 88.0
87.63765 204.0
87.655968 168.0
87.676781 104.0
87.695419 132.0
87.714058 104.0
87.73819 140.0
87.760666 100.0
87.788513 244.0
87.835266 188.0
87.868546 200.0
87.913048 128.0
87.970947 136.0
87.995766 128.0
88.010391 168.0
88.025185 180.0
88.068596 148.0
88.096069 136.0
88.12822 192.0
88.154541 80.0
88.221428 256.0
88.256546 168.0
88.295456 128.0
88.375671 156.0
88.413597 344.0
88.435852 116.0
88.461281 336.0
88.483124 152.0
88.504341 156.0
88.52494 120.0
88.55304 76.0
88.57589 180.0
88.589851 104.0
88.630836 204.0
88.676697 92.0
88.690536 160.0
88.722626 120.0
88.777992 144.0
88.798569 96.0
88.830185 164.0
88.866302 100.0
88.894249 112.0
88.913017 100.0
88.988701 128.0
89.003128 100.0
89.01815 120.0
89.04612 112.0
89.116135 120.0
89.157478 168.0
89.175964 124.0
89.204155 140.0
89.271988 156.0
89.294411 108.0
89.307579 204.0
89.326393 108.0
89.35273 128.0
89.371544 244.0
89.389633 124.0
89.414825 120.0
89.431282 156.0
89.47802 308.0
89.511894 136.0
89.548004 120.0
89.567986 176.0
89.583878 144.0
89.599365 148.0
89.625748 176.0
89.663437 204.0
89.68605 120.0
89.718102 156.0
89.733185 200.0
89.761467 224.0
89.793526 104.0
89.810051 152.0
89.842789 200.0
89.877708 220.0
89.929375 124.0
89.995445 108.0
90.024109 240.0
90.036995 296.0
90.056091 144.0
90.078934 136.0
90.106888 164.0
90.154129 92.0
90.180588 216.0
90.206818 196.0
90.243866 116.0
90.261154 188.0
90.275116 124.0
90.293083 168.0
90.33493 96.0
90.348358 372.0
90.379158 140.0
90.394295 60.0
90.417007 148.0
90.442963 140.0
90.469223 116.0
90.520706 268.0
90.568474 208.0
90.583633 148.0
90.604469 244.0
90.629417 340.0
90.682167 196.0
90.699226 132.0
90.722984 224.0
90.742065 160.0
90.769371 152.0
90.800636 156.0
90.813538 208.0
90.853577 224.0
90.889931 140.0
90.908806 112.0
90.958168 408.0
90.972389 244.0
90.993889 196.0
91.01149 164.0
91.03125 100.0
91.057388 156.0
91.080627 136.0
91.104691 312.0
91.147125 156.0
91.180412 132.0
91.228996 164.0
91.259644 144.0
91.293602 236.0
91.310616 48.0
91.347183 36.0
91.394325 188.0
91.425209 192.0
91.455223 80.0
91.479614 304.0
91.518532 188.0
91.537949 124.0
91.585655 104.0
91.615456 140.0
91.650185 172.0
91.689926 160.0
91.729523 84.0
91.755524 100.0
91.76889 160.0
91.814392 120.0
91.831619 148.0
91.864922 76.0
91.890533 132.0
91.90799 108.0
91.96492 148.0
91.97242 36.0
91.978699 160.0
92.006142 124.0
92.019508 104.0
92.046242 112.0
92.089447 160.0
92.109879 224.0
92.149384 104.0
92.172318 64.0
92.206642 176.0
92.262146 168.0
92.274612 108.0
92.288918 216.0
92.319511 128.0
92.336723 136.0
92.362473 148.0
92.414017 168.0
92.480293 236.0
92.534393 156.0
92.552185 184.0
92.567017 88.0
92.579781 180.0
92.634254 92.0
92.647827 84.0
92.661781 228.0
92.676628 144.0
92.708298 148.0
92.723473 276.0
92.760483 108.0
92.82383 252.0
92.837166 316.0
92.871109 104.0
92.888374 104.0
92.91523 44.0
92.932495 168.0
92.949768 144.0
92.986229 100.0
93.009262 192.0
93.021446 128.0
93.03804 192.0
93.091324 132.0
93.116791 128.0
93.137581 136.0
93.203827 276.0
93.220093 192.0
93.25705 152.0
93.288788 160.0
93.325989 228.0
93.330574 196.0
93.356888 284.0
93.418579 92.0
93.443588 208.0
93.507088 156.0
93.520561 136.0
93.557236 144.0
93.565163 96.0
93.583832 148.0
93.588463 164.0
93.597267 228.0
93.62838 76.0
93.661125 120.0
93.686172 148.0
93.717209 180.0
93.759392 100.0
93.780594 136.0
93.815292 168.0
93.835442 92.0
93.857704 92.0
93.892418 180.0
93.90818 212.0
93.9375 172.0
93.956436 192.0
93.975029 108.0
94.007019 160.0
94.026367 172.0
94.043259 292.0
94.062515 156.0
94.08345 316.0
94.121582 288.0
94.149101 176.0
94.172279 108.0
94.195404 140.0
94.2332 112.0
94.269379 172.0
94.292068 212.0
94.325096 140.0
94.348717 132.0
94.402267 104.0
94.41774 156.0
94.441071 132.0
94.489311 268.0
94.516182 140.0
94.579849 172.0
94.606377 132.0
94.646271 132.0
94.673203 244.0
94.758438 96.0
94.775658 108.0
94.801437 180.0
94.813309 164.0
94.866966 204.0
94.897987 88.0
94.930992 212.0
94.960045 132.0
94.989136 200.0
95.02018 200.0
95.052223 140.0
95.09198 112.0
95.117165 172.0
95.146927 144.0
95.194847 140.0
95.199127 296.0
95.216377 56.0
95.243431 184.0
95.280342 108.0
95.303139 180.0
95.359062 196.0
95.391846 124.0
95.40226 60.0
95.409477 108.0
95.426231 128.0
95.455276 60.0
95.474724 136.0
95.494171 228.0
95.528061 104.0
95.569572 164.0
95.599236 128.0
95.617386 172.0
95.668739 260.0
95.680046 108.0
95.687492 164.0
95.713051 120.0
95.746941 188.0
95.793472 284.0
95.800308 168.0
95.847679 164.0
95.862503 204.0
95.897217 80.0
95.915344 160.0
95.98098 112.0
96.019051 164.0
96.109192 112.0
96.168335 292.0
96.220047 180.0
96.267906 56.0
96.291344 132.0
96.389542 136.0
96.408562 144.0
96.450623 100.0
96.468941 128.0
96.553238 176.0
96.61779 128.0
96.664749 280.0
96.690186 56.0
96.721504 100.0
96.736931 148.0
96.774704 252.0
96.798691 104.0
96.807121 44.0
96.814468 92.0
96.844238 100.0
96.895172 188.0
96.919312 128.0
96.948242 136.0
96.991791 236.0
97.007507 104.0
97.054565 100.0
97.083977 204.0
97.113747 180.0
97.129669 188.0
97.148705 64.0
97.17469 148.0
97.201096 120.0
97.217377 192.0
97.244858 180.0
97.27626 80.0
97.336952 116.0
97.368553 224.0
97.399979 140.0
97.425514 156.0
97.456947 176.0
97.488968 204.0
97.540848 64.0
97.554237 88.0
97.62207 144.0
97.675095 160.0
97.696075 376.0
97.723534 152.0
97.749687 124.0
97.793114 124.0
97.81662 172.0
97.879738 192.0
97.895615 164.0
97.924736 144.0
97.952736 180.0
98.001854 156.0
98.043373 76.0
98.068993 224.0
98.092796 208.0
98.142677 160.0
98.173981 168.0
98.184639 104.0
98.191658 132.0
98.260277 152.0
98.313866 180.0
98.349083 128.0
98.379745 232.0
98.422478 320.0
98.436508 196.0
98.465073 152.0
98.485329 168.0
98.499077 164.0
98.54702 140.0
98.565384 140.0
98.599922 232.0
98.623848 232.0
98.660088 320.0
98.702721 104.0
98.726456 192.0
98.767303 184.0
98.793709 148.0
98.813492 88.0
98.832054 168.0
98.849297 212.0
98.875824 336.0
98.900566 108.0
98.918961 96.0
98.95121 172.0
98.97184 40.0
98.999268 164.0
99.002655 128.0
99.011528 188.0
99.028557 112.0
99.064926 172.0
99.100586 152.0
99.123886 232.0
99.128777 176.0
99.179855 132.0
99.194511 204.0
99.241074 224.0
99.26313 268.0
99.282707 160.0
99.307182 112.0
99.3237 252.0
99.360321 156.0
99.419502 152.0
99.441681 112.0
99.462601 200.0
99.499245 116.0
99.523453 148.0
99.554848 152.0
99.575119 120.0
99.645393 124.0
99.666092 196.0
99.695152 140.0
99.716187 116.0
99.775406 244.0
99.803246 36.0
99.827103 152.0
99.843018 144.0
99.883018 180.0
99.900696 180.0
99.92318 80.0
99.956406 88.0
99.982277 100.0
100.022087 180.0
100.051949 156.0
100.071945 184.0
100.107704 104.0
100.159485 108.0
100.181396 176.0
100.207298 112.0
100.24131 176.0
100.271965 204.0
100.310799 172.0
100.334709 168.0
100.375961 188.0
100.418472 200.0
100.448524 252.0
100.462494 164.0
100.481697 180.0
100.522278 108.0
100.539711 172.0
100.55275 156.0
100.571999 196.0
100.602188 100.0
100.619987 188.0
100.625587 172.0
100.633675 140.0
100.658096 160.0
100.716011 272.0
100.735764 176.0
100.793404 168.0
100.815552 132.0
100.840881 268.0
100.893982 140.0
100.913864 340.0
100.940826 148.0
100.957855 192.0
100.999855 56.0
101.030922 196.0
101.045395 168.0
101.064163 196.0
101.081726 204.0
101.112289 288.0
101.14193 44.0
101.159943 92.0
101.187973 148.0
101.214005 200.0
101.236328 244.0
101.260002 140.0
101.275093 176.0
101.292107 176.0
101.309509 140.0
101.330956 224.0
101.341698 120.0
101.348679 204.0
101.355606 168.0
101.40432 72.0
101.422363 220.0
101.436394 92.0
101.496536 88.0
101.522606 188.0
101.545486 176.0
101.578766 164.0
101.619598 136.0
101.659027 180.0
101.677269 176.0
101.702087 228.0
101.733292 140.0
101.769432 104.0
101.840759 164.0
101.887932 164.0
101.924095 56.0
101.954239 164.0
101.968643 144.0
101.998459 228.0
102.013885 184.0
102.017784 124.0
102.06498 228.0
102.09095 216.0
102.146767 292.0
102.1875 128.0
102.220253 116.0
102.224113 144.0
102.242485 148.0
102.261963 160.0
102.308258 128.0
102.323219 144.0
102.364639 132.0
102.399368 212.0
102.438347 248.0
102.507202 156.0
102.539909 204.0
102.578209 212.0
102.596352 164.0
102.61248 196.0
102.657143 228.0
102.675697 216.0
102.693146 240.0
102.765625 168.0
102.806129 104.0
102.842453 136.0
102.86264 132.0
102.991875 144.0
103.017937 204.0
103.048447 88.0
103.0895 200.0
103.106148 144.0
103.146637 340.0
103.165604 144.0
103.178467 144.0
103.187729 184.0
103.219681 132.0
103.248566 80.0
103.266769 104.0
103.333527 92.0
103.365906 272.0
103.40638 164.0
103.452225 148.0
103.46711 188.0
103.501961 112.0
103.530685 180.0
103.560715 392.0
103.583611 136.0
103.608879 112.0
103.625084 132.0
103.651428 156.0
103.669662 140.0
103.748322 156.0
103.833878 80.0
103.880791 160.0
103.897209 164.0
103.925301 180.0
103.957237 204.0
103.964813 160.0
103.996201 124.0
104.015312 172.0
104.051521 276.0
104.118019 72.0
104.133972 220.0
104.141525 188.0
104.145287 328.0
104.175308 176.0
104.208244 240.0
104.237564 208.0
104.283844 136.0
104.298851 156.0
104.315109 148.0
104.337479 200.0
104.361877 172.0
104.384239 96.0
104.425369 168.0
104.454208 140.0
104.475769 40.0
104.522247 360.0
104.553093 148.0
104.603981 136.0
104.624336 136.0
104.656235 120.0
104.683388 244.0
104.735184 148.0
104.782471 124.0
104.807648 144.0
104.82962 204.0
104.842155 120.0
104.867577 128.0
104.883049 116.0
104.897324 192.0
104.920151 180.0
104.956268 136.0
104.978874 144.0
104.997231 200.0
105.02726 220.0
105.068626 68.0
105.084671 204.0
105.109436 116.0
105.150253 184.0
105.172165 152.0
105.23111 276.0
105.248238 232.0
105.274734 164.0
105.279839 160.0
105.338104 140.0
105.403564 100.0
105.417786 152.0
105.468887 168.0
105.487282 52.0
105.511818 164.0
105.530212 128.0
105.549583 204.0
105.575981 168.0
105.599747 96.0
105.616112 208.0
105.665207 68.0
105.701057 184.0
105.742065 172.0
105.777016 180.0
105.807373 148.0
105.830994 60.0
105.847374 120.0
105.869904 132.0
105.888016 180.0
105.9375 40.0
105.955467 176.0
105.975655 128.0
106.000191 140.0
106.039803 848.0
106.0625 176.0
106.081253 108.0
106.110489 180.0
106.158859 132.0
106.191673 44.0
106.212189 120.0
106.238564 168.0
106.265526 84.0
106.306564 76.0
106.328026 140.0
106.355553 180.0
106.389305 264.0
106.421524 148.0
106.444107 156.0
106.476524 224.0
106.507774 168.0
106.574219 212.0
106.60434 124.0
106.626945 144.0
106.657776 104.0
106.675156 116.0
106.700829 132.0
106.733902 152.0
106.750298 56.0
106.793488 88.0
106.814056 176.0
106.92659 200.0
106.976044 252.0
107.005455 140.0
107.024826 180.0
107.075462 204.0
107.091721 188.0
107.142143 172.0
107.157867 84.0
107.199074 232.0
107.220924 120.0
107.264893 160.0
107.300583 180.0
107.35807 128.0
107.384872 264.0
107.413506 76.0
107.450638 124.0
107.504288 96.0
107.549759 124.0
107.591568 56.0
107.638924 304.0
107.663742 204.0
107.685966 120.0
107.733482 104.0
107.754143 48.0
107.853333 108.0
107.91523 64.0
107.931419 156.0
107.982071 184.0
108.012558 92.0
108.040855 200.0
108.059258 216.0
108.077522 160.0
108.114784 140.0
108.130234 124.0
108.151588 168.0
108.194672 96.0
108.213303 140.0
108.245071 200.0
108.267143 148.0
108.285461 128.0
108.311317 180.0
108.397652 120.0
108.428741 204.0
108.476418 244.0
108.569176 220.0
108.598122 312.0
108.613274 172.0
108.643112 272.0
108.671364 196.0
108.693069 96.0
108.733002 120.0
108.752304 112.0
108.76683 124.0
108.8125 152.0
108.833946 196.0
108.86171 132.0
108.882645 124.0
108.934647 180.0
108.963409 256.0
108.993713 380.0
109.022301 256.0
109.057632 168.0
109.089249 96.0
109.131744 160.0
109.14814 232.0
109.178223 92.0
109.259277 120.0
109.277603 124.0
109.309219 124.0
109.330093 216.0
109.353508 176.0
109.362251 116.0
109.397316 176.0
109.413361 120.0
109.442726 200.0
109.500816 148.0
109.519188 200.0
109.537186 104.0
109.565392 192.0
109.590393 112.0
109.625816 112.0
109.657936 148.0
109.686104 212.0
109.705589 176.0
109.759232 116.0
109.796768 220.0
109.826561 144.0
109.844643 420.0
109.878128 84.0
109.909103 156.0
109.938499 104.0
109.945808 92.0
109.953835 128.0
109.988731 120.0
110.040924 144.0
110.111923 196.0
110.199661 124.0
110.235184 216.0
110.262352 120.0
110.299026 96.0
110.344337 72.0
110.362244 240.0
110.38546 164.0
110.417633 280.0
110.437233 56.0
110.465172 64.0
110.49865 244.0
110.538216 136.0
110.551628 172.0
110.574959 120.0
110.601189 124.0
110.657715 108.0
110.673401 140.0
110.695404 88.0
110.736649 144.0
110.766617 204.0
110.802231 132.0
110.818001 76.0
110.865471 200.0
110.890366 68.0
110.918396 148.0
110.934265 124.0
110.961517 148.0
110.990875 128.0
111.013939 104.0
111.034042 116.0
111.089447 176.0
111.106232 140.0
111.153648 140.0
111.173813 136.0
111.198563 140.0
111.223747 148.0
111.238441 164.0
111.28463 128.0
111.309471 188.0
111.338432 148.0
111.374939 100.0
111.398041 188.0
111.416534 100.0
111.430611 120.0
111.471581 176.0
111.49939 224.0
111.525337 132.0
111.548744 172.0
111.558411 116.0
111.580879 104.0
111.62294 168.0
111.641861 128.0
111.672882 144.0
111.717583 236.0
111.775238 176.0
111.795929 328.0
111.816483 180.0
111.843849 176.0
111.885948 156.0
111.90052 152.0
111.919083 136.0
111.937698 176.0
111.95208 148.0
111.988808 232.0
112.012863 156.0
112.021683 124.0
112.027969 220.0
112.048119 88.0
112.067078 128.0
112.087296 128.0
112.111336 152.0
112.13472 84.0
112.163902 208.0
112.182999 180.0
112.199867 164.0
112.241081 160.0
112.305305 144.0
112.326538 120.0
112.341164 148.0
112.370697 64.0
112.395561 148.0
112.436401 148.0
112.455109 100.0
112.493111 160.0
112.524773 112.0
112.541664 72.0
112.560669 196.0
112.613472 172.0
112.63459 64.0
112.649376 120.0
112.667526 156.0
112.697273 352.0
112.728531 104.0
112.784622 56.0
112.81633 224.0
112.833244 132.0
112.848045 168.0
112.875534 180.0
112.905289 220.0
112.946556 168.0
112.97036 148.0
112.986702 172.0
113.038177 180.0
113.07296 112.0
113.089523 388.0
113.106277 160.0
113.13578 88.0
113.169113 152.0
113.21489 152.0
113.259605 220.0
113.32534 144.0
113.337624 120.0
113.346863 164.0
113.352486 64.0
113.389969 268.0
113.412109 108.0
113.469681 232.0
113.49173 108.0
113.531342 328.0
113.545731 152.0
113.581039 180.0
113.615746 164.0
113.640205 108.0
113.657181 144.0
113.680229 244.0
113.710762 112.0
113.782356 168.0
113.824821 168.0
113.871391 124.0
113.914078 184.0
113.979836 80.0
113.992798 192.0
114.011818 76.0
114.056313 120.0
114.088257 100.0
114.113853 124.0
114.133064 112.0
114.188553 188.0
114.20742 104.0
114.254227 124.0
114.288269 132.0
114.327637 144.0
114.356369 184.0
114.381912 164.0
114.404716 168.0
114.462814 188.0
114.494759 112.0
114.517456 148.0
114.545876 160.0
114.570122 108.0
114.588486 116.0
114.656677 248.0
114.688644 164.0
114.735542 136.0
114.765396 216.0
114.814438 136.0
114.842171 144.0
114.882698 112.0
114.913002 200.0
114.938171 84.0
114.95311 140.0
114.972313 124.0
114.98748 152.0
115.024063 228.0
115.054604 484.0
115.102798 164.0
115.127625 220.0
115.173019 124.0
115.228294 128.0
115.24437 140.0
115.250404 180.0
115.27771 224.0
115.2948 160.0
115.313492 172.0
115.367477 92.0
115.384583 132.0
115.431015 112.0
115.446594 152.0
115.471848 160.0
115.489365 152.0
115.504341 164.0
115.550003 116.0
115.554466 140.0
115.563805 136.0
115.587784 108.0
115.608109 152.0
115.637001 144.0
115.671249 112.0
115.694801 184.0
115.731201 284.0
115.756546 220.0
115.784737 132.0
115.82045 160.0
115.839027 176.0
115.859772 136.0
115.882614 136.0
115.948349 232.0
115.962959 152.0
115.981216 444.0
115.995262 176.0
116.016151 76.0
116.047981 332.0
116.071899 148.0
116.094025 136.0
116.119598 100.0
116.143036 96.0
116.180077 156.0
116.23922 128.0
116.26712 148.0
116.294189 120.0
116.320778 88.0
116.357658 112.0
116.394951 192.0
116.400742 116.0
116.41684 400.0
116.432434 180.0
116.464653 112.0
116.481834 120.0
116.499023 132.0
116.554886 112.0
116.576828 152.0
116.619987 136.0
116.640602 136.0
116.66732 192.0
116.694595 180.0
116.737602 184.0
116.763596 168.0
116.780128 140.0
116.79998 348.0
116.830093 180.0
116.86882 108.0
116.896385 168.0
116.915085 156.0
116.952751 160.0
116.979065 180.0
117.019493 68.0
117.034561 172.0
117.05629 212.0
117.088402 88.0
117.103477 372.0
117.141975 128.0
117.159485 160.0
117.187004 192.0
117.213348 116.0
117.234413 212.0
117.268661 248.0
117.301712 108.0
117.316803 132.0
117.354538 128.0
117.372864 44.0
117.399948 300.0
117.42347 120.0
117.465111 136.0
117.538376 148.0
117.586441 240.0
117.601547 128.0
117.622826 112.0
117.640404 232.0
117.677773 168.0
117.695282 220.0
117.726151 84.0
117.732674 60.0
117.741013 128.0
117.789406 128.0
117.808846 128.0
117.853119 136.0
117.880081 128.0
117.896027 184.0
117.915558 116.0
117.958649 164.0
117.981293 192.0
118.015083 152.0
118.061607 184.0
118.066216 116.0
118.115761 216.0
118.171867 132.0
118.217506 128.0
118.235802 176.0
118.286766 180.0
118.314911 156.0
118.349495 148.0
118.366028 204.0
118.384636 160.0
118.40889 140.0
118.467766 324.0
118.495163 160.0
118.50383 176.0
118.511948 152.0
118.517235 184.0
118.548843 140.0
118.577019 60.0
118.594131 128.0
118.646385 132.0
118.676743 212.0
118.725662 292.0
118.75164 172.0
118.787346 120.0
118.823349 140.0
118.859711 136.0
118.884987 192.0
118.900177 112.0
118.928818 164.0
118.954857 356.0
118.980492 160.0
119.004379 200.0
119.03875 164.0
119.063011 68.0
119.081078 188.0
119.110794 92.0
119.131371 144.0
119.181313 96.0
119.218201 304.0
119.248276 192.0
119.282463 112.0
119.316399 252.0
119.355988 308.0
119.378128 324.0
119.399117 480.0
119.427223 140.0
119.449905 180.0
119.491241 48.0
119.513054 152.0
119.536934 168.0
119.556091 184.0
119.562965 100.0
119.592796 144.0
119.618622 256.0
119.655754 184.0
119.682777 104.0
119.708908 164.0
119.755653 168.0
119.787369 176.0
119.817818 112.0
119.838249 160.0
119.901253 240.0
119.934471 136.0
119.968193 48.0
119.99218 196.0
120.027061 104.0
120.059601 172.0
120.103401 148.0
120.126228 120.0
120.141922 188.0
120.16349 140.0
120.184845 48.0
120.230461 208.0
120.27578 120.0
120.317261 204.0
120.350006 96.0
120.370605 152.0
120.387131 124.0
120.404602 136.0
120.432999 136.0
120.454842 184.0
120.481407 276.0
120.535683 128.0
120.605614 180.0
120.629662 164.0
120.652893 128.0
120.686035 112.0
120.708374 132.0
120.761551 140.0
120.80349 148.0
120.830032 200.0
120.859306 100.0
120.87722 208.0
120.912575 140.0
120.930618 232.0
121.007851 180.0
121.05632 128.0
121.082596 200.0
121.101326 216.0
121.126404 164.0
121.161461 200.0
121.182884 244.0
121.195557 64.0
121.206612 176.0
121.227676 252.0
121.249901 144.0
121.310486 104.0
121.330215 152.0
121.371872 212.0
121.401215 84.0
121.431084 284.0
121.448631 156.0
121.488113 68.0
121.523537 136.0
121.538582 212.0
121.564224 192.0
121.593445 104.0
121.60881 84.0
121.637413 128.0
121.690033 80.0
121.771286 116.0
121.826202 104.0
121.856956 104.0
121.899803 232.0
121.928085 240.0
121.965347 200.0
121.988823 304.0
122.028397 240.0
122.092163 164.0
122.132225 168.0
122.15815 196.0
122.174675 116.0
122.193352 136.0
122.208755 148.0
122.230141 156.0
122.261566 132.0
122.28138 120.0
122.317886 164.0
122.362823 104.0
122.380173 164.0
122.401093 224.0
122.417877 92.0
122.461922 220.0
122.491447 188.0
122.516754 148.0
122.560158 196.0
122.612671 172.0
122.65583 124.0
122.705429 184.0
122.710945 92.0
122.718658 184.0
122.757271 204.0
122.792595 140.0
122.838081 216.0
122.865326 176.0
122.90284 176.0
122.918282 140.0
122.96463 60.0
122.982285 48.0
123.035187 224.0
123.066177 288.0
123.094879 132.0
123.116966 156.0
123.16114 168.0
123.223 264.0
123.251724 192.0
123.284866 200.0
123.313431 212.0
123.355888 92.0
123.42363 156.0
123.449883 324.0
123.486061 184.0
123.506042 120.0
123.52359 140.0
123.542267 88.0
123.546837 168.0
123.582481 184.0
123.615585 188.0
123.637993 188.0
123.677689 276.0
123.718132 188.0
123.736115 380.0
123.766411 108.0
123.811401 124.0
123.842415 168.0
123.865784 196.0
123.902222 208.0
123.923096 128.0
123.973885 140.0
123.999725 196.0
124.017456 140.0
124.048492 164.0
124.095047 252.0
124.115005 132.0
124.19706 196.0
124.247002 172.0
124.263618 176.0
124.330185 156.0
124.384804 92.0
124.418976 132.0
124.450058 96.0
124.467728 192.0
124.501137 116.0
124.518898 92.0
124.540459 136.0
124.593742 156.0
124.614426 184.0
124.64109 44.0
124.673386 180.0
124.697937 100.0
124.715195 180.0
124.749664 136.0
124.794037 168.0
124.812248 36.0
124.842522 104.0
124.871208 164.0
124.917625 168.0
124.961273 80.0
125.030006 140.0
125.047981 112.0
125.085365 412.0
125.132652 96.0
125.167244 132.0
125.186096 128.0
125.261826 220.0
125.277161 112.0
125.306381 96.0
125.364319 172.0
125.384377 264.0
125.404434 100.0
125.451248 312.0
125.502525 140.0
125.528633 164.0
125.536278 116.0
125.541924 96.0
125.573174 212.0
125.611107 204.0
125.648422 108.0
125.705856 132.0
125.733002 328.0
125.772331 148.0
125.805649 96.0
125.832748 76.0
125.852844 112.0
125.899734 76.0
125.923271 148.0
125.953339 188.0
125.990463 104.0
126.011429 144.0
126.036598 136.0
126.053299 168.0
126.087402 64.0
126.110626 164.0
126.192467 140.0
126.217064 164.0
126.243896 108.0
126.269264 140.0
126.31324 204.0
126.328896 48.0
126.351974 140.0
126.40329 160.0
126.451965 188.0
126.531296 264.0
126.548225 144.0
126.562744 124.0
126.588264 100.0
126.612274 120.0
126.630135 244.0
126.653481 64.0
126.734718 192.0
126.756706 112.0
126.819756 156.0
126.863678 200.0
126.896873 112.0
126.910675 100.0
126.921623 112.0
126.925446 172.0
126.942604 144.0
127.006195 124.0
127.039055 188.0
127.060577 128.0
127.13105 68.0
127.151245 208.0
127.17469 72.0
127.212372 156.0
127.218872 188.0
127.229561 180.0
127.254173 240.0
127.294922 220.0
127.321877 156.0
127.371284 176.0
127.448723 120.0
127.483269 200.0
127.506104 216.0
127.55555 160.0
127.632759 164.0
127.700691 168.0
127.753448 144.0
127.778198 68.0
127.816444 152.0
127.847542 176.0
127.869377 208.0
127.897469 120.0
127.940239 164.0
127.971756 160.0
128.013412 160.0
128.048935 332.0
128.084732 124.0
128.115906 164.0
128.191055 136.0
128.200348 160.0
128.20433 212.0
128.233551 148.0
128.249634 116.0
128.266891 128.0
128.282669 56.0
128.302963 168.0
128.345276 208.0
128.385803 156.0
128.412704 96.0
128.451797 268.0
128.481125 280.0
128.508194 152.0
128.528015 184.0
128.668716 200.0
128.688766 188.0
128.715866 148.0
128.733932 136.0
128.775146 112.0
128.814697 116.0
128.89357 140.0
128.901199 172.0
128.921158 164.0
128.972351 236.0
129.002808 180.0
129.023148 148.0
129.058426 404.0
129.11586 36.0
129.142151 148.0
129.158844 304.0
129.190506 72.0
129.229324 212.0
129.289597 96.0
129.316833 132.0
129.342133 164.0
129.394196 172.0
129.453995 144.0
129.477982 172.0
129.532349 88.0
129.565994 144.0
129.611389 108.0
129.644653 160.0
129.6819 244.0
129.700027 232.0
129.720428 112.0
129.743103 108.0
129.763504 112.0
129.787781 192.0
129.808853 132.0
129.891281 212.0
129.933609 96.0
129.9505 120.0
129.96991 36.0
130.013031 216.0
130.040237 188.0
130.045593 212.0
130.065643 380.0
130.090195 36.0
130.11174 148.0
130.145676 120.0
130.16832 316.0
130.185562 148.0
130.245575 208.0
130.305954 120.0
130.340042 160.0
130.39003 32.0
130.445541 164.0
130.479095 180.0
130.500778 144.0
130.542358 328.0
130.598175 220.0
130.628296 196.0
130.690979 192.0
130.719803 52.0
130.774414 120.0
130.792633 96.0
130.831329 168.0
130.857437 60.0
130.894089 360.0
130.935501 144.0
130.942825 108.0
130.947983 140.0
130.979355 88.0
130.999298 164.0
131.018585 160.0
131.052734 76.0
131.071152 176.0
131.102386 176.0
131.133835 160.0
131.179565 148.0
131.182724 128.0
131.214081 168.0
131.275864 196.0
131.298447 64.0
131.31897 116.0
131.355957 132.0
131.380569 64.0
131.417618 140.0
131.434158 164.0
131.451294 76.0
131.476105 188.0
131.514145 128.0
131.552628 224.0
131.593765 156.0
131.627945 116.0
131.67366 128.0
131.697556 144.0
131.706421 124.0
131.710373 236.0
131.752701 240.0
131.796112 148.0
131.850952 140.0
131.917984 108.0
131.9543 76.0
131.987839 212.0
132.019531 152.0
132.04071 80.0
132.056732 36.0
132.086945 112.0
132.130402 344.0
132.171967 228.0
132.199142 168.0
132.213531 120.0
132.237198 128.0
132.317596 176.0
132.364288 124.0
132.393158 112.0
132.422943 124.0
132.441269 156.0
132.473618 128.0
132.493195 232.0
132.514572 216.0
132.59494 328.0
132.624573 184.0
132.648392 112.0
132.688766 124.0
132.719421 180.0
132.741501 96.0
132.759842 196.0
132.82338 120.0
132.860809 244.0
132.877106 352.0
132.943375 92.0
132.987305 220.0
133.051346 644.0
133.07518 144.0
133.161621 132.0
133.212021 108.0
133.255661 36.0
133.322205 120.0
133.354477 140.0
133.376236 112.0
133.400452 152.0
133.424667 196.0
133.452164 324.0
133.478622 184.0
133.514862 176.0
133.540237 168.0
133.547272 132.0
133.568054 68.0
133.591095 348.0
133.631302 96.0
133.679489 96.0
133.709137 220.0
133.732513 192.0
133.758652 124.0
133.796707 132.0
133.849106 212.0
133.869843 36.0
133.920502 200.0
133.964264 88.0
133.995529 256.0
134.034378 160.0
134.054108 224.0
134.088699 152.0
134.12558 88.0
134.157715 212.0
134.18782 172.0
134.217041 128.0
134.290009 128.0
134.307587 120.0
134.358246 180.0
134.400024 140.0
134.416183 108.0
134.437119 168.0
134.466583 204.0
134.518707 88.0
134.534836 224.0
134.567688 200.0
134.58931 76.0
134.614914 136.0
134.657303 252.0
134.693237 60.0
134.718643 116.0
134.737122 156.0
134.757919 152.0
134.781021 212.0
134.845703 148.0
134.906708 168.0
134.922699 164.0
134.965775 208.0
134.993698 184.0
135.028381 140.0
135.06308 124.0
135.091949 268.0
135.111664 112.0
135.133713 128.0
135.153397 324.0
135.204437 196.0
135.238464 116.0
135.280701 100.0
135.336166 52.0
135.379196 124.0
135.416824 164.0
135.468185 100.0
135.486725 160.0
135.516464 156.0
135.541763 212.0
135.571335 100.0
135.60466 116.0
135.642975 220.0
135.668152 152.0
135.693283 256.0
135.715103 296.0
135.723541 160.0
135.731598 252.0
135.749329 108.0
135.770935 196.0
135.823517 112.0
135.832428 32.0
135.838455 116.0
135.855331 288.0
135.87854 88.0
135.900055 160.0
135.92569 160.0
135.943512 92.0
135.979523 116.0
136.014679 104.0
136.041763 132.0
136.09671 64.0
136.135818 228.0
136.182648 100.0
136.216858 192.0
136.254654 108.0
136.273239 168.0
136.292816 160.0
136.315063 160.0
136.347595 132.0
136.41687 100.0
136.420822 80.0
136.476929 164.0
136.527252 164.0
136.592911 128.0
136.610352 104.0
136.667603 212.0
136.712601 72.0
136.77092 88.0
136.808167 100.0
136.862137 308.0
136.954239 164.0
137.00531 136.0
137.031754 164.0
137.048065 120.0
137.075821 144.0
137.127899 184.0
137.18045 144.0
137.242538 156.0
137.275452 112.0
137.295151 132.0
137.316147 192.0
137.337585 124.0
137.39621 124.0
137.431381 152.0
137.493469 228.0
137.509796 276.0
137.544708 172.0
137.577942 124.0
137.60318 284.0
137.652206 252.0
137.671204 248.0
137.693634 120.0
137.752731 180.0
137.773026 144.0
137.800186 92.0
137.81572 172.0
137.843643 76.0
137.853943 112.0
137.888168 96.0
137.937256 60.0
137.955963 268.0
138.027603 252.0
138.165833 200.0
138.182816 116.0
138.201538 80.0
138.242264 256.0
138.292801 128.0
138.307465 112.0
138.344299 104.0
138.361664 240.0
138.392014 164.0
138.412201 120.0
138.463715 100.0
138.505249 176.0
138.508759 228.0
138.5504 44.0
138.580856 160.0
138.606873 152.0
138.648804 80.0
138.68396 76.0
138.709747 172.0
138.7285 64.0
138.752991 152.0
138.770706 176.0
138.799271 176.0
138.826981 208.0
138.859818 176.0
138.876236 36.0
138.918671 132.0
138.958969 212.0
138.981812 108.0
139.00293 192.0
139.043945 360.0
139.068634 152.0
139.107162 96.0
139.160187 132.0
139.204803 156.0
139.253708 264.0
139.277618 96.0
139.333847 180.0
139.355148 144.0
139.38092 132.0
139.411942 304.0
139.439743 112.0
139.462601 160.0
139.486008 164.0
139.531067 136.0
139.578217 124.0
139.599182 132.0
139.638947 160.0
139.661087 88.0
139.702469 224.0
139.74733 112.0
139.773682 136.0
139.792816 124.0
139.845413 160.0
139.889008 72.0
139.929031 172.0
139.97142 168.0
140.044159 696.0
140.090866 128.0
140.137619 152.0
140.195496 100.0
140.30365 140.0
140.351761 168.0
140.380005 332.0
140.42627 132.0
140.468719 380.0
140.515472 176.0
140.533173 212.0
140.569244 112.0
140.612656 304.0
140.66275 160.0
140.704727 140.0
140.721252 100.0
140.743774 140.0
140.792023 208.0
140.844055 128.0
140.871735 248.0
140.905472 124.0
140.93602 108.0
140.981644 336.0
141.023575 160.0
141.032135 220.0
141.056595 1432.0
141.130188 152.0
141.158386 176.0
141.177307 196.0
141.209259 128.0
141.25145 240.0
141.295486 104.0
141.367538 184.0
141.382523 124.0
141.388992 92.0
141.399246 168.0
141.408798 228.0
141.417343 132.0
141.451767 152.0
141.475342 276.0
141.508591 156.0
141.531219 136.0
141.596573 180.0
141.612793 196.0
141.643585 156.0
141.662827 196.0
141.691772 128.0
141.732529 180.0
141.757309 108.0
141.781906 136.0
141.802338 304.0
141.847366 128.0
141.874451 160.0
141.901123 172.0
141.936462 160.0
141.979263 180.0
141.987946 112.0
141.993347 212.0
142.055923 244.0
142.092896 156.0
142.129425 168.0
142.160553 100.0
142.207916 108.0
142.24054 216.0
142.2771 172.0
142.302872 188.0
142.325638 280.0
142.35408 128.0
142.374908 96.0
142.394257 176.0
142.411682 108.0
142.440628 64.0
142.504761 108.0
142.56015 132.0
142.61171 172.0
142.644989 120.0
142.671143 144.0
142.692535 140.0
142.715775 140.0
142.751053 92.0
142.775757 148.0
142.809006 232.0
142.838882 148.0
142.848907 80.0
142.855713 208.0
142.878998 208.0
142.907074 148.0
142.940704 120.0
142.969101 196.0
143.011749 128.0
143.038803 252.0
143.063049 336.0
143.099808 120.0
143.123199 140.0
143.152237 164.0
143.18512 204.0
143.204178 140.0
143.239304 64.0
143.267181 132.0
143.297073 160.0
143.318298 308.0
143.339005 188.0
143.399551 196.0
143.461517 168.0
143.505264 276.0
143.533051 208.0
143.573593 68.0
143.596191 160.0
143.642761 204.0
143.701065 140.0
143.746216 112.0
143.778763 96.0
143.805023 288.0
143.843216 148.0
143.889816 324.0
143.932098 316.0
144.008728 132.0
144.052155 316.0
144.098755 144.0
144.146164 156.0
144.163483 316.0
144.231033 160.0
144.240036 172.0
144.249207 180.0
144.254562 164.0
144.308777 92.0
144.34256 148.0
144.364075 140.0
144.452576 196.0
144.474106 112.0
144.505219 172.0
144.521957 216.0
144.585449 136.0
144.615753 204.0
144.678879 280.0
144.746964 192.0
144.778107 164.0
144.812302 344.0
144.84996 172.0
144.871521 176.0
144.898636 252.0
144.933807 156.0
144.970535 224.0
145.024887 140.0
145.065628 96.0
145.091995 144.0
145.15741 144.0
145.196396 312.0
145.25354 300.0
145.274261 108.0
145.32457 124.0
145.367935 268.0
145.393753 156.0
145.437439 200.0
145.460632 164.0
145.487854 112.0
145.511871 192.0
145.563965 132.0
145.607925 100.0
145.639496 140.0
145.664276 252.0
145.682388 116.0
145.713608 252.0
145.789505 228.0
145.872223 220.0
145.920013 128.0
145.923828 112.0
145.957504 172.0
145.994858 180.0
146.038544 168.0
146.066025 200.0
146.099121 104.0
146.144287 232.0
146.163254 216.0
146.208862 92.0
146.221008 144.0
146.2547 172.0
146.31868 240.0
146.33905 112.0
146.390274 296.0
146.404572 164.0
146.444931 76.0
146.474197 144.0
146.561676 104.0
146.59639 368.0
146.618393 180.0
146.63884 124.0
146.649094 80.0
146.65712 188.0
146.690308 168.0
146.695526 116.0
146.746307 124.0
146.791977 144.0
146.846893 232.0
146.946579 168.0
146.968353 192.0
147.062637 164.0
147.108047 152.0
147.13353 216.0
147.164719 208.0
147.19014 132.0
147.22525 156.0
147.269836 156.0
147.29216 184.0
147.322983 144.0
147.351013 132.0
147.390625 256.0
147.412125 336.0
147.43045 212.0
147.450607 188.0
147.502472 160.0
147.518723 228.0
147.569504 48.0
147.593079 208.0
147.641968 132.0
147.651031 128.0
147.657593 224.0
147.695526 160.0
147.7146 140.0
147.739304 116.0
147.767822 124.0
147.789032 220.0
147.851639 120.0
147.892288 176.0
147.932343 172.0
147.93895 220.0
147.985657 120.0
148.018829 224.0
148.042725 172.0
148.076584 344.0
148.095535 140.0
148.114746 160.0
148.142395 176.0
148.203659 144.0
148.258499 148.0
148.27449 140.0
148.319565 192.0
148.339386 60.0
148.356354 168.0
148.414536 172.0
148.469864 196.0
148.515701 84.0
148.544846 496.0
148.567719 152.0
148.612061 212.0
148.65712 128.0
148.700806 72.0
148.746918 64.0
148.768768 112.0
148.805191 56.0
148.861038 112.0
148.887741 116.0
148.916885 180.0
148.943619 40.0
148.979004 424.0
149.035934 164.0
149.052948 104.0
149.095642 216.0
149.140427 104.0
149.174118 140.0
149.20607 180.0
149.290054 276.0
149.300568 148.0
149.309128 132.0
149.383072 184.0
149.405228 144.0
149.423264 260.0
149.473618 164.0
149.50206 88.0
149.519867 164.0
149.540207 180.0
149.561356 84.0
149.629349 160.0
149.661057 64.0
149.684662 220.0
149.709763 112.0
149.734772 284.0
149.760223 100.0
149.785263 152.0
149.813416 180.0
149.821854 120.0
149.848602 184.0
149.892471 120.0
149.919266 60.0
149.938766 180.0
149.975327 236.0
149.991394 156.0
150.028961 172.0
150.062485 128.0
150.071121 96.0
150.0811 156.0
150.111862 120.0
150.130722 224.0
150.159012 180.0
150.179062 156.0
150.211853 68.0
150.221329 104.0
150.294647 120.0
150.342484 120.0
150.368027 172.0
150.394867 108.0
150.419632 164.0
150.450653 212.0
150.531586 112.0
150.553574 148.0
150.586121 184.0
150.604385 240.0
150.646759 104.0
150.684204 184.0
150.732849 360.0
150.753143 196.0
150.762238 136.0
150.77092 116.0
150.792999 184.0
150.812561 240.0
150.880997 124.0
150.914749 180.0
150.983704 120.0
151.010605 32.0
151.043015 160.0
151.078873 132.0
151.17453 112.0
151.200302 128.0
151.216125 156.0
151.239365 196.0
151.321091 128.0
151.342529 152.0
151.365463 200.0
151.419342 148.0
151.436493 80.0
151.470978 132.0
151.559265 212.0
151.582397 180.0
151.624893 344.0
151.695572 252.0
151.73056 72.0
151.778824 252.0
151.797958 236.0
151.838455 100.0
151.863174 196.0
151.970917 296.0
151.999771 100.0
152.058548 344.0
152.082748 184.0
152.107971 260.0
152.162216 184.0
152.212921 176.0
152.255676 116.0
152.287613 96.0
152.323105 344.0
152.358276 188.0
152.389801 300.0
152.417664 136.0
152.459274 184.0
152.46286 228.0
152.49646 220.0
152.51857 132.0
152.543152 112.0
152.56282 104.0
152.594788 84.0
152.646423 152.0
152.668564 112.0
152.698074 332.0
152.715286 128.0
152.745941 224.0
152.755295 304.0
152.774323 84.0
152.79155 128.0
152.811234 176.0
152.838287 164.0
152.867828 148.0
152.890427 128.0
152.938766 136.0
152.966278 136.0
152.999405 176.0
153.043167 772.0
153.065155 552.0
153.110443 196.0
153.134811 244.0
153.173233 284.0
153.206863 156.0
153.249496 252.0
153.295654 148.0
153.378677 212.0
153.400208 204.0
153.418213 236.0
153.463943 164.0
153.494583 288.0
153.517288 176.0
153.56012 204.0
153.626526 168.0
153.654572 192.0
153.679764 216.0
153.707672 192.0
153.747177 240.0
153.765961 148.0
153.80275 272.0
153.825729 192.0
153.848831 152.0
153.93161 196.0
153.974457 100.0
154.04837 324.0
154.119598 180.0
154.140274 128.0
154.177353 224.0
154.206619 156.0
154.266327 104.0
154.29599 116.0
154.3405 72.0
154.408783 164.0
154.471588 144.0
154.521454 128.0
154.610153 300.0
154.627045 292.0
154.644791 124.0
154.674301 192.0
154.710648 200.0
154.75264 184.0
154.835449 44.0
154.884048 160.0
154.917175 228.0
154.961777 136.0
154.981598 204.0
155.001099 156.0
155.059616 2552.0
155.094757 152.0
155.13121 228.0
155.189713 288.0
155.206512 76.0
155.212799 104.0
155.25676 92.0
155.282532 144.0
155.312347 132.0
155.346054 124.0
155.368088 136.0
155.377487 120.0
155.393921 136.0
155.425949 100.0
155.46019 96.0
155.509705 80.0
155.554596 116.0
155.585632 52.0
155.651337 128.0
155.696045 220.0
155.769379 156.0
155.807816 100.0
155.840759 108.0
155.894791 116.0
155.91716 52.0
155.939529 228.0
155.958542 224.0
155.992004 172.0
156.00705 168.0
156.045532 904.0
156.06778 1548.0
156.107635 116.0
156.127029 112.0
156.154633 164.0
156.213043 76.0
156.247665 188.0
156.250824 172.0
156.287689 240.0
156.310074 156.0
156.340134 108.0
156.374176 164.0
156.392838 160.0
156.472519 124.0
156.506729 80.0
156.546448 156.0
156.593262 80.0
156.628769 196.0
156.656158 40.0
156.704712 148.0
156.708878 176.0
156.755234 232.0
156.813156 176.0
156.857254 108.0
156.892914 148.0
156.927826 160.0
156.945282 176.0
156.973877 152.0
156.982681 140.0
157.006165 212.0
157.066101 344.0
157.12236 100.0
157.162796 136.0
157.187241 124.0
157.214691 64.0
157.253464 216.0
157.284775 156.0
157.343536 84.0
157.384491 180.0
157.409409 108.0
157.451859 188.0
157.495758 168.0
157.524307 80.0
157.61174 260.0
157.632019 164.0
157.694214 168.0
157.729218 232.0
157.771088 128.0
157.801315 204.0
157.858582 244.0
157.890045 136.0
157.934906 76.0
157.974777 80.0
158.009308 96.0
158.030258 192.0
158.052841 196.0
158.060013 104.0
158.06781 208.0
158.101105 116.0
158.108643 80.0
158.126038 264.0
158.157074 160.0
158.197006 84.0
158.219528 188.0
158.248428 208.0
158.338806 76.0
158.378647 192.0
158.403656 144.0
158.425919 176.0
158.456421 124.0
158.466644 132.0
158.470703 308.0
158.49704 116.0
158.547668 300.0
158.587769 200.0
158.650772 180.0
158.675522 184.0
158.710495 100.0
158.718597 200.0
158.759384 72.0
158.787491 168.0
158.853577 176.0
158.899704 156.0
158.95047 336.0
158.978653 104.0
159.041779 140.0
159.066727 176.0
159.092667 160.0
159.169815 80.0
159.228592 228.0
159.275558 160.0
159.311081 200.0
159.337296 148.0
159.400391 152.0
159.456207 100.0
159.495514 144.0
159.530396 164.0
159.581543 168.0
159.662369 168.0
159.700104 92.0
159.732803 240.0
159.808273 216.0
159.842957 148.0
159.87645 180.0
159.924667 112.0
159.959457 56.0
160.007111 160.0
160.039886 252.0
160.105316 96.0
160.153168 168.0
160.211105 344.0
160.23291 196.0
160.254013 280.0
160.33075 292.0
160.352219 148.0
160.389221 136.0
160.428268 164.0
160.494705 144.0
160.520615 172.0
160.538788 132.0
160.576614 176.0
160.606735 136.0
160.646423 160.0
160.681519 164.0
160.728989 176.0
160.760132 168.0
160.76828 124.0
160.77655 164.0
160.796127 72.0
160.817093 136.0
160.871155 176.0
160.904663 92.0
160.927399 156.0
160.970688 164.0
161.013245 60.0
161.057999 344.0
161.113617 212.0
161.139969 168.0
161.171814 172.0
161.189224 152.0
161.217896 288.0
161.260849 156.0
161.301804 160.0
161.329102 108.0
161.379669 128.0
161.458069 96.0
161.475769 112.0
161.533508 196.0
161.571884 44.0
161.594666 148.0
161.630081 92.0
161.703476 220.0
161.729263 176.0
161.743973 176.0
161.764221 100.0
161.794601 104.0
161.821625 264.0
161.854919 176.0
161.893356 120.0
161.949707 184.0
161.993332 256.0
162.036514 160.0
162.106735 176.0
162.1315 92.0
162.149246 84.0
162.227768 156.0
162.254807 136.0
162.259857 88.0
162.26976 192.0
162.312668 120.0
162.333557 188.0
162.352066 92.0
162.38504 100.0
162.408112 120.0
162.443909 152.0
162.512802 196.0
162.608536 192.0
162.661209 124.0
162.688293 296.0
162.732697 128.0
162.752029 124.0
162.782104 152.0
162.834274 136.0
162.852051 52.0
162.924057 144.0
162.943512 216.0
162.971451 100.0
163.015839 316.0
163.042603 104.0
163.095825 252.0
163.134109 116.0
163.159378 132.0
163.17366 280.0
163.200012 156.0
163.222153 160.0
163.256165 144.0
163.281601 384.0
163.310989 136.0
163.332458 160.0
163.376312 168.0
163.398605 108.0
163.484985 148.0
163.5233 176.0
163.544327 260.0
163.614944 172.0
163.655441 160.0
163.686234 120.0
163.707779 156.0
163.749069 184.0
163.794983 180.0
163.814636 136.0
163.821655 164.0
163.848618 160.0
163.895111 100.0
163.92305 344.0
163.966461 148.0
164.07695 176.0
164.132172 140.0
164.155121 96.0
164.173798 184.0
164.195923 164.0
164.23967 132.0
164.28775 164.0
164.312042 108.0
164.333679 36.0
164.357391 452.0
164.386993 76.0
164.408737 184.0
164.433197 176.0
164.522537 124.0
164.548889 200.0
164.557678 252.0
164.623642 192.0
164.655594 188.0
164.697998 192.0
164.731949 148.0
164.754089 160.0
164.770172 200.0
164.79129 152.0
164.834152 224.0
164.894379 120.0
164.933823 56.0
164.951721 112.0
164.997681 156.0
165.020599 188.0
165.04422 856.0
165.0681 292.0
165.106369 124.0
165.156525 128.0
165.202332 196.0
165.225311 180.0
165.258621 188.0
165.29245 108.0
165.320038 132.0
165.362732 152.0
165.3983 208.0
165.422729 232.0
165.450653 132.0
165.51738 92.0
165.542755 232.0
165.578613 364.0
165.606781 124.0
165.696442 152.0
165.719513 192.0
165.76239 148.0
165.788696 156.0
165.822006 156.0
165.860764 136.0
165.894836 132.0
165.953857 80.0
165.993713 352.0
166.014648 164.0
166.052368 9260.0
166.109192 128.0
166.132278 92.0
166.163864 108.0
166.183044 92.0
166.216949 128.0
166.279388 160.0
166.295197 236.0
166.316528 128.0
166.337158 216.0
166.355545 60.0
166.402115 180.0
166.451431 140.0
166.49678 208.0
166.527771 116.0
166.594971 160.0
166.632919 112.0
166.69397 184.0
166.717712 108.0
166.74498 112.0
166.770645 188.0
166.805038 144.0
166.847977 208.0
166.913773 120.0
166.941376 332.0
166.964172 180.0
166.983124 120.0
167.003098 180.0
167.019989 144.0
167.056168 1640.0
167.099487 168.0
167.147812 112.0
167.188354 92.0
167.262985 164.0
167.323273 164.0
167.358475 244.0
167.380569 192.0
167.397125 80.0
167.454514 148.0
167.472321 96.0
167.490524 192.0
167.534637 116.0
167.55658 80.0
167.587494 284.0
167.610687 188.0
167.680054 172.0
167.716629 148.0
167.759369 128.0
167.790405 112.0
167.818924 112.0
167.884735 100.0
167.907898 128.0
167.954742 112.0
167.983185 168.0
168.068649 7252.0
168.143646 192.0
168.177856 52.0
168.214722 152.0
168.264816 212.0
168.317291 108.0
168.340714 100.0
168.373047 116.0
168.397018 140.0
168.403183 172.0
168.425323 100.0
168.467285 112.0
168.485367 96.0
168.544785 200.0
168.572037 176.0
168.625275 276.0
168.650757 36.0
168.679184 132.0
168.726715 324.0
168.773834 176.0
168.795059 160.0
168.803696 176.0
168.812302 116.0
168.866837 216.0
168.897324 156.0
168.924469 164.0
168.98436 52.0
169.002472 128.0
169.023163 184.0
169.070892 1360.0
169.140945 140.0
169.166473 152.0
169.190399 184.0
169.215408 192.0
169.262268 76.0
169.297577 196.0
169.367508 216.0
169.401672 148.0
169.46077 232.0
169.502228 136.0
169.527512 184.0
169.550064 88.0
169.574081 320.0
169.581085 232.0
169.591888 188.0
169.637634 164.0
169.696625 108.0
169.719971 44.0
169.742447 140.0
169.791275 112.0
169.828888 108.0
169.8862 168.0
169.92746 144.0
169.946976 216.0
170.000122 152.0
170.032837 304.0
170.071777 660.0
170.109802 172.0
170.144714 148.0
170.180161 248.0
170.198868 236.0
170.216003 160.0
170.262329 92.0
170.285706 76.0
170.376617 216.0
170.401306 120.0
170.435699 136.0
170.501343 128.0
170.537994 236.0
170.56694 152.0
170.605331 176.0
170.64061 200.0
170.678131 228.0
170.701523 184.0
170.751862 192.0
170.776947 108.0
170.83429 96.0
170.875809 136.0
170.914764 192.0
170.945663 228.0
170.964981 108.0
171.031219 156.0
171.055344 440.0
171.058716 304.0
171.077286 544.0
171.10054 104.0
171.111832 332.0
171.135696 140.0
171.158493 172.0
171.16391 140.0
171.18927 180.0
171.221542 88.0
171.238754 272.0
171.266296 80.0
171.291687 160.0
171.302505 120.0
171.308472 148.0
171.331421 112.0
171.373108 112.0
171.401779 112.0
171.446075 148.0
171.522324 156.0
171.547729 208.0
171.576828 172.0
171.660645 104.0
171.693741 28.0
171.725037 156.0
171.772644 112.0
171.827759 160.0
171.858749 196.0
171.894623 124.0
171.935654 72.0
171.95726 136.0
171.991196 136.0
172.03035 152.0
172.053848 112.0
172.0811 244.0
172.106064 192.0
172.130585 132.0
172.150314 196.0
172.177368 144.0
172.195801 180.0
172.263855 140.0
172.313461 196.0
172.346375 72.0
172.374588 120.0
172.396835 128.0
172.436066 124.0
172.466583 92.0
172.515167 184.0
172.566986 128.0
172.599426 128.0
172.659027 340.0
172.722839 168.0
172.753098 92.0
172.759521 120.0
172.814407 128.0
172.86412 296.0
172.894836 180.0
172.926941 92.0
172.974869 128.0
173.013321 92.0
173.04422 408.0
173.073547 240.0
173.111389 176.0
173.225983 144.0
173.275955 156.0
173.331375 116.0
173.352646 240.0
173.407898 160.0
173.552017 152.0
173.601334 116.0
173.647552 188.0
173.676956 164.0
173.722656 60.0
173.809113 164.0
173.838974 180.0
173.871033 76.0
173.888168 360.0
173.93338 116.0
173.93956 112.0
173.94928 152.0
173.980713 180.0
173.99794 148.0
174.020981 236.0
174.114975 252.0
174.121338 124.0
174.131454 140.0
174.203949 112.0
174.255219 240.0
174.307648 144.0
174.334457 352.0
174.356339 280.0
174.374741 180.0
174.42511 148.0
174.473022 124.0
174.492523 120.0
174.508041 200.0
174.579803 172.0
174.615738 176.0
174.625397 264.0
174.661697 212.0
174.695023 164.0
174.715317 156.0
174.756302 172.0
174.837631 148.0
174.893173 160.0
174.939606 156.0
174.998489 184.0
175.027176 72.0
175.053497 84.0
175.098282 160.0
175.129883 188.0
175.176056 152.0
175.216812 148.0
175.237885 152.0
175.269516 204.0
175.293228 116.0
175.337784 128.0
175.373138 272.0
175.383911 88.0
175.389694 220.0
175.429413 128.0
175.487076 104.0
175.519928 192.0
175.544952 212.0
175.611633 148.0
175.657516 156.0
175.666748 120.0
175.674667 60.0
175.719955 72.0
175.74942 236.0
175.775284 244.0
175.840179 132.0
175.878738 104.0
175.908981 140.0
175.960571 120.0
176.001083 244.0
176.025177 136.0
176.062164 412.0
176.084091 124.0
176.089966 160.0
176.143311 164.0
176.195633 136.0
176.234573 168.0
176.259003 152.0
176.292389 168.0
176.315857 160.0
176.324875 132.0
176.332474 148.0
176.440628 148.0
176.463791 148.0
176.503479 288.0
176.536118 212.0
176.597443 52.0
176.69664 104.0
176.737656 32.0
176.75882 72.0
176.795868 208.0
176.838211 56.0
176.880569 144.0
176.903687 136.0
176.968384 164.0
177.015594 232.0
177.072998 160.0
177.135574 216.0
177.155975 92.0
177.190506 116.0
177.222214 120.0
177.295166 140.0
177.339569 56.0
177.385468 280.0
177.439362 268.0
177.500534 148.0
177.519104 104.0
177.548279 104.0
177.596786 172.0
177.62558 140.0
177.654373 144.0
177.675598 164.0
177.748703 152.0
177.800308 72.0
177.826157 184.0
177.841965 104.0
177.87204 164.0
177.895874 156.0
177.94101 104.0
177.9617 296.0
178.00032 180.0
178.018005 140.0
178.07756 300.0
178.130264 376.0
178.15451 152.0
178.203949 168.0
178.243729 136.0
178.315567 52.0
178.368713 176.0
178.390488 172.0
178.43927 112.0
178.486847 268.0
178.509628 332.0
178.551712 180.0
178.619278 160.0
178.659149 152.0
178.703812 148.0
178.737381 176.0
178.790176 180.0
178.839539 132.0
178.884796 128.0
178.927383 96.0
178.962006 104.0
178.996613 120.0
179.017914 140.0
179.040192 132.0
179.061584 188.0
179.083099 424.0
179.111099 268.0
179.169739 164.0
179.220367 84.0
179.252151 140.0
179.340302 100.0
179.358948 168.0
179.427216 152.0
179.452255 168.0
179.473587 176.0
179.51178 276.0
179.571762 148.0
179.580093 120.0
179.62561 220.0
179.681641 116.0
179.705643 112.0
179.754303 120.0
179.797546 164.0
179.843872 192.0
179.871872 288.0
179.990936 136.0
180.013397 152.0
180.055389 6568.0
180.084488 244.0
180.122131 108.0
180.142273 192.0
180.164871 128.0
180.204193 100.0
180.239685 192.0
180.258392 164.0
180.295624 304.0
180.322525 264.0
180.351929 52.0
180.376877 88.0
180.4095 216.0
180.44928 128.0
180.480698 196.0
180.556885 224.0
180.579208 172.0
180.632324 148.0
180.672821 36.0
180.709106 208.0
180.732224 128.0
180.782532 176.0
180.803528 156.0
180.822311 172.0
180.873428 200.0
180.879959 160.0
180.951096 144.0
180.996689 64.0
181.058517 1236.0
181.086105 340.0
181.123489 220.0
181.155807 160.0
181.180328 128.0
181.240448 56.0
181.261887 140.0
181.301041 180.0
181.3396 128.0
181.359619 204.0
181.405334 148.0
181.42807 112.0
181.449509 120.0
181.473648 192.0
181.493027 120.0
181.528397 164.0
181.559448 464.0
181.580185 164.0
181.654831 228.0
181.677475 172.0
181.723953 208.0
181.755173 188.0
181.812927 212.0
181.833725 172.0
181.872925 100.0
181.929749 164.0
181.957642 144.0
181.976868 196.0
181.999557 112.0
182.069473 3244.0
182.121872 132.0
182.203064 192.0
182.254623 192.0
182.311996 232.0
182.346512 152.0
182.373352 128.0
182.396179 164.0
182.415985 204.0
182.494247 112.0
182.52182 176.0
182.543167 156.0
182.580002 252.0
182.614334 84.0
182.658005 148.0
182.690292 176.0
182.720932 164.0
182.738464 264.0
182.776382 68.0
182.809647 232.0
182.840973 200.0
182.871155 176.0
182.918793 176.0
182.937408 116.0
182.946167 132.0
182.987244 156.0
183.023422 500.0
183.07959 73580.0
183.152679 144.0
183.179276 112.0
183.185699 140.0
183.198471 92.0
183.209076 216.0
183.257294 220.0
183.279388 336.0
183.29863 204.0
183.364182 60.0
183.41156 76.0
183.444565 132.0
183.465729 132.0
183.472214 172.0
183.521957 256.0
183.545883 48.0
183.570801 188.0
183.6017 100.0
183.622299 116.0
183.66275 36.0
183.721375 176.0
183.743683 32.0
183.764481 136.0
183.790741 200.0
183.799255 128.0
183.813629 148.0
183.848404 84.0
183.855377 144.0
183.879028 228.0
183.907928 116.0
183.917084 156.0
183.94841 220.0
184.002792 288.0
184.023422 168.0
184.08223 10944.0
184.147232 164.0
184.175064 116.0
184.193069 216.0
184.250259 100.0
184.296356 52.0
184.306244 80.0
184.364746 108.0
184.41481 108.0
184.424622 52.0
184.46257 104.0
184.497192 228.0
184.524002 208.0
184.581177 188.0
184.602646 236.0
184.632401 168.0
184.663757 152.0
184.716354 168.0
184.751068 248.0
184.802826 44.0
184.846115 92.0
184.882202 172.0
184.934784 168.0
184.948959 108.0
185.025452 120.0
185.082764 884.0
185.14447 172.0
185.165115 352.0
185.199539 96.0
185.227356 84.0
185.236893 88.0
185.249069 236.0
185.290176 144.0
185.312332 112.0
185.3405 168.0
185.368073 96.0
185.407745 144.0
185.433624 112.0
185.463135 164.0
185.49942 96.0
185.533752 116.0
185.568604 104.0
185.596451 132.0
185.619247 168.0
185.643616 216.0
185.685501 196.0
185.729889 100.0
185.782639 192.0
185.800735 252.0
185.821579 176.0
185.863541 112.0
185.892136 36.0
185.928345 104.0
185.945129 204.0
185.971344 172.0
185.992554 172.0
186.044128 148.0
186.091858 180.0
186.111069 172.0
186.120148 112.0
186.129471 140.0
186.182617 80.0
186.204346 80.0
186.245773 156.0
186.266815 108.0
186.326584 64.0
186.36734 44.0
186.427765 204.0
186.473328 156.0
186.526474 156.0
186.556396 100.0
186.589981 92.0
186.596283 120.0
186.650421 140.0
186.720093 384.0
186.756088 96.0
186.777649 176.0
186.864914 168.0
186.928101 144.0
186.981857 148.0
187.014587 136.0
187.041946 160.0
187.062164 156.0
187.097733 352.0
187.133194 152.0
187.186111 124.0
187.216446 28.0
187.27771 112.0
187.303223 152.0
187.322281 148.0
187.371323 152.0
187.393127 112.0
187.427505 240.0
187.473282 188.0
187.491226 172.0
187.521194 124.0
187.547073 300.0
187.622055 144.0
187.645386 144.0
187.674057 112.0
187.70932 176.0
187.740219 168.0
187.75119 56.0
187.760315 188.0
187.791138 108.0
187.815292 136.0
187.891891 132.0
187.944794 184.0
187.968948 136.0
187.994003 152.0
188.083084 160.0
188.109955 124.0
188.134964 96.0
188.190491 176.0
188.227783 176.0
188.266022 104.0
188.400528 132.0
188.446213 116.0
188.452408 164.0
188.47435 260.0
188.493347 132.0
188.548477 208.0
188.589905 228.0
188.630432 136.0
188.656754 140.0
188.675888 172.0
188.7005 252.0
188.719635 52.0
188.780975 120.0
188.804413 96.0
188.824509 352.0
188.880524 164.0
188.949844 120.0
188.968536 336.0
188.986725 308.0
189.017792 96.0
189.06752 300.0
189.090714 124.0
189.119049 160.0
189.14917 104.0
189.18396 316.0
189.263474 208.0
189.366531 156.0
189.402618 160.0
189.455872 112.0
189.500381 132.0
189.56221 188.0
189.595627 36.0
189.623032 124.0
189.677841 120.0
189.72171 196.0
189.751801 176.0
189.792496 132.0
189.83783 196.0
189.880753 104.0
189.910919 176.0
189.960297 204.0
190.003891 172.0
190.066696 236.0
190.09465 180.0
190.149109 168.0
190.210022 88.0
190.234726 56.0
190.268265 204.0
190.340378 200.0
190.373047 168.0
190.401001 136.0
190.432587 208.0
190.473633 88.0
190.517578 188.0
190.557449 252.0
190.602753 148.0
190.624741 128.0
190.690475 144.0
190.728012 216.0
190.756668 204.0
190.776901 184.0
190.800659 140.0
190.865204 176.0
190.888641 128.0
190.921646 128.0
190.957397 48.0
190.982162 112.0
191.0159 136.0
191.039917 136.0
191.065475 476.0
191.153641 164.0
191.249878 132.0
191.293106 84.0
191.315918 152.0
191.393188 148.0
191.441147 120.0
191.477539 220.0
191.517593 160.0
191.562973 108.0
191.618073 176.0
191.657089 260.0
191.719009 108.0
191.742615 152.0
191.799957 148.0
191.849274 252.0
191.882004 116.0
191.912292 196.0
191.93782 148.0
191.987457 80.0
192.00676 124.0
192.056488 2256.0
192.129837 136.0
192.188828 224.0
192.277878 104.0
192.312057 188.0
192.378784 92.0
192.408035 124.0
192.454773 528.0
192.533279 144.0
192.565872 104.0
192.590607 188.0
192.599182 100.0
192.624557 208.0
192.677231 112.0
192.71785 108.0
192.726837 128.0
192.74472 152.0
192.776352 136.0
192.816116 148.0
192.852921 212.0
192.889999 108.0
192.912552 96.0
192.920258 92.0
192.939438 220.0
192.956299 144.0
192.967346 168.0
193.020645 440.0
193.064163 65736.0
193.139511 244.0
193.189468 140.0
193.217514 200.0
193.246658 80.0
193.251129 160.0
193.274048 84.0
193.310913 124.0
193.350235 160.0
193.385452 40.0
193.410004 92.0
193.42598 144.0
193.457016 192.0
193.467667 40.0
193.497482 144.0
193.520233 188.0
193.565704 220.0
193.64151 128.0
193.667313 252.0
193.715591 180.0
193.75264 128.0
193.759766 168.0
193.792267 40.0
193.82518 124.0
193.863419 160.0
193.888382 96.0
193.918716 252.0
193.93956 140.0
193.974823 108.0
194.017044 176.0
194.066986 9804.0
194.13356 216.0
194.204895 136.0
194.240784 248.0
194.316162 92.0
194.36911 180.0
194.396469 192.0
194.417923 208.0
194.467239 96.0
194.491714 188.0
194.556473 228.0
194.579391 116.0
194.61145 152.0
194.69577 160.0
194.715469 256.0
194.744095 64.0
194.772888 96.0
194.797729 128.0
194.822769 160.0
194.877441 156.0
194.913651 132.0
194.949219 144.0
194.961639 224.0
194.997513 184.0
195.028961 224.0
195.07193 844.0
195.129272 204.0
195.187698 136.0
195.206512 176.0
195.271622 156.0
195.310181 152.0
195.344299 164.0
195.423294 212.0
195.461823 192.0
195.508011 208.0
195.575348 88.0
195.606094 120.0
195.645065 136.0
195.672165 196.0
195.692398 124.0
195.724503 176.0
195.746567 140.0
195.784286 140.0
195.817703 92.0
195.850952 144.0
195.904984 140.0
195.959457 168.0
196.026276 204.0
196.073166 380.0
196.100403 192.0
196.110901 160.0
196.19693 172.0
196.239319 244.0
196.27475 180.0
196.297058 156.0
196.348068 152.0
196.368332 164.0
196.409027 112.0
196.446747 96.0
196.47287 132.0
196.506119 124.0
196.55928 108.0
196.585922 260.0
196.632675 160.0
196.653351 212.0
196.663773 164.0
196.695175 168.0
196.712387 256.0
196.771408 140.0
196.816483 196.0
196.881454 88.0
196.904785 148.0
196.912048 88.0
196.923462 284.0
196.966904 160.0
197.050705 180.0
197.082153 2776.0
197.182877 216.0
197.219315 156.0
197.263718 204.0
197.307846 140.0
197.338745 164.0
197.394516 216.0
197.43367 168.0
197.459015 188.0
197.481216 152.0
197.553955 28.0
197.578629 136.0
197.5952 124.0
197.622009 148.0
197.649643 216.0
197.695389 164.0
197.700974 176.0
197.727753 324.0
197.746384 156.0
197.765991 196.0
197.79509 140.0
197.83548 180.0
197.873138 160.0
197.918243 156.0
197.973801 172.0
197.999008 60.0
198.088104 3628.0
198.201584 204.0
198.233673 124.0
198.274857 124.0
198.29924 264.0
198.326065 44.0
198.346176 124.0
198.379089 124.0
198.39801 172.0
198.439453 140.0
198.475418 140.0
198.51564 220.0
198.543518 140.0
198.599869 200.0
198.631531 180.0
198.688522 148.0
198.747498 84.0
198.800812 120.0
198.828888 180.0
198.88501 124.0
198.969315 136.0
199.016968 56.0
199.074036 836.0
199.093292 384.0
199.147827 200.0
199.206894 128.0
199.233231 220.0
199.25972 84.0
199.300659 72.0
199.32933 196.0
199.351242 192.0
199.418686 120.0
199.457184 156.0
199.494583 84.0
199.534912 128.0
199.58847 388.0
199.665588 152.0
199.697052 76.0
199.740402 156.0
199.784256 140.0
199.835602 112.0
199.865845 100.0
199.916962 120.0
199.95871 180.0
199.978424 100.0
200.012192 144.0
200.059952 116.0
200.086166 220.0
200.140381 316.0
200.17543 192.0
200.197617 156.0
200.246033 172.0
200.267593 80.0
200.314743 136.0
200.368652 160.0
200.392899 188.0
200.429016 160.0
200.498306 136.0
200.52095 212.0
200.571121 76.0
200.611954 132.0
200.659119 132.0
200.679382 136.0
200.683441 184.0
200.697662 208.0
200.707886 120.0
200.725296 112.0
200.755066 180.0
200.784225 204.0
200.816345 144.0
200.877304 128.0
200.919952 136.0
200.945007 116.0
200.987335 124.0
201.009903 164.0
201.038132 124.0
201.068741 132.0
201.088928 132.0
201.123978 144.0
201.136353 140.0
201.150177 220.0
201.159134 296.0
201.210312 140.0
201.28447 184.0
201.307129 52.0
201.362656 156.0
201.421066 148.0
201.481445 256.0
201.52005 356.0
201.541809 132.0
201.575958 180.0
201.602951 136.0
201.656921 124.0
201.718994 284.0
201.762985 52.0
201.807022 172.0
201.862656 112.0
201.874527 236.0
201.919586 84.0
202.012939 200.0
202.039673 248.0
202.062271 128.0
202.106293 80.0
202.12941 196.0
202.248688 140.0
202.270447 172.0
202.291321 64.0
202.317261 52.0
202.375198 88.0
202.441986 136.0
202.50943 80.0
202.517395 132.0
202.603409 160.0
202.644012 216.0
202.670486 256.0
202.715973 184.0
202.760468 124.0
202.785965 148.0
202.80864 232.0
202.828491 96.0
202.881989 188.0
202.932434 120.0
202.995224 196.0
203.032013 180.0
203.073944 744.0
203.154602 80.0
203.197159 116.0
203.219864 140.0
203.285904 72.0
203.328796 500.0
203.404327 120.0
203.470016 176.0
203.529251 196.0
203.592957 156.0
203.613678 148.0
203.653564 196.0
203.689758 116.0
203.744705 224.0
203.751282 212.0
203.808594 196.0
203.838867 128.0
203.871735 128.0
203.915604 108.0
203.948715 152.0
203.986664 140.0
204.029312 188.0
204.0802 2680.0
204.140213 156.0
204.226303 220.0
204.248291 48.0
204.290298 312.0
204.309875 124.0
204.357117 188.0
204.380814 384.0
204.420181 124.0
204.473831 120.0
204.504379 120.0
204.544373 160.0
204.567001 192.0
204.612549 128.0
204.680878 160.0
204.744202 144.0
204.773499 184.0
204.801361 212.0
204.841034 156.0
204.880264 100.0
204.954269 148.0
204.971085 132.0
205.017029 104.0
205.067215 1412.0
205.108505 220.0
205.140869 188.0
205.185211 148.0
205.214981 136.0
205.242233 188.0
205.275024 320.0
205.319229 192.0
205.370575 128.0
205.414719 176.0
205.453293 132.0
205.48851 140.0
205.498001 48.0
205.519531 112.0
205.553162 68.0
205.721268 232.0
205.757248 144.0
205.783096 180.0
205.812927 140.0
205.835129 108.0
205.866318 320.0
205.909714 184.0
205.918961 212.0
205.970001 380.0
206.032089 136.0
206.065308 672.0
206.093094 592.0
206.161438 180.0
206.187866 180.0
206.212875 216.0
206.250031 184.0
206.291245 164.0
206.342163 268.0
206.376083 88.0
206.431229 264.0
206.481628 148.0
206.506775 152.0
206.534546 176.0
206.627518 180.0
206.655136 196.0
206.694382 212.0
206.741852 452.0
206.807816 80.0
206.851669 156.0
206.89917 124.0
206.933777 128.0
206.969299 208.0
206.994247 200.0
207.033951 148.0
207.043488 256.0
207.080338 11644.0
207.151611 128.0
207.192093 204.0
207.223053 100.0
207.24527 188.0
207.296631 176.0
207.340225 108.0
207.359131 140.0
207.387253 176.0
207.407837 100.0
207.466843 192.0
207.489594 360.0
207.563538 220.0
207.600967 200.0
207.628525 536.0
207.668945 192.0
207.701813 72.0
207.736893 124.0
207.759445 176.0
207.801361 228.0
207.867035 300.0
207.900742 60.0
207.941055 156.0
207.999023 132.0
208.011261 148.0
208.051254 5440.0
208.081558 2744.0
208.143799 76.0
208.17804 108.0
208.208481 228.0
208.257874 72.0
208.282791 116.0
208.314133 52.0
208.339661 168.0
208.370438 124.0
208.39328 152.0
208.42691 156.0
208.437225 148.0
208.450348 296.0
208.487717 172.0
208.519455 84.0
208.538055 124.0
208.558945 76.0
208.572632 196.0
208.604965 120.0
208.63385 184.0
208.677414 192.0
208.714935 112.0
208.745483 152.0
208.775055 156.0
208.807495 144.0
208.857391 560.0
208.895233 172.0
208.91655 252.0
208.928894 412.0
208.953323 144.0
208.97644 208.0
209.00853 292.0
209.018814 312.0
209.027969 236.0
209.083069 139932.0
209.161148 88.0
209.167618 236.0
209.238373 292.0
209.287659 320.0
209.31839 228.0
209.344696 384.0
209.367035 292.0
209.404678 216.0
209.444885 356.0
209.491165 232.0
209.511169 212.0
209.534134 228.0
209.55661 1192.0
209.599396 192.0
209.625748 160.0
209.647034 140.0
209.670181 240.0
209.720871 284.0
209.757431 140.0
209.783081 260.0
209.800858 392.0
209.827469 300.0
209.855362 164.0
209.911453 404.0
209.958176 356.0
210.004044 340.0
210.090652 139432.0
210.176376 232.0
210.202164 104.0
210.23941 204.0
210.263428 100.0
210.288681 376.0
210.320084 268.0
210.354568 392.0
210.39241 84.0
210.430054 216.0
210.484131 288.0
210.520096 268.0
210.564529 860.0
210.599487 196.0
210.618362 104.0
210.638321 172.0
210.674301 56.0
210.681412 172.0
210.706772 124.0
210.718414 104.0
210.7285 168.0
210.735626 64.0
210.762207 68.0
210.797348 164.0
210.833267 256.0
210.890442 248.0
210.95192 128.0
210.99501 228.0
211.027237 140.0
211.032379 376.0
211.093231 24956.0
211.160568 164.0
211.188034 192.0
211.233398 252.0
211.243378 140.0
211.300919 140.0
211.339752 316.0
211.412338 216.0
211.442856 168.0
211.488693 240.0
211.521912 400.0
211.546707 156.0
211.567825 248.0
211.59668 156.0
211.635452 204.0
211.655563 100.0
211.689438 172.0
211.744263 184.0
211.771317 132.0
211.82222 332.0
211.86412 28.0
211.895996 132.0
211.915924 188.0
211.959717 176.0
212.017258 244.0
212.054474 140.0
212.097488 784.0
212.161972 92.0
212.196716 116.0
212.23468 116.0
212.266861 188.0
212.311615 88.0
212.373215 132.0
212.406036 292.0
212.438293 104.0
212.454941 68.0
212.492859 136.0
212.504028 124.0
212.520981 448.0
212.560028 144.0
212.584473 128.0
212.613312 140.0
212.662277 128.0
212.696213 36.0
212.729919 316.0
212.772415 372.0
212.794006 60.0
212.837265 280.0
212.890778 132.0
212.919098 96.0
212.93988 144.0
213.029343 196.0
213.078522 560.0
213.125046 228.0
213.171646 220.0
213.215286 96.0
213.258865 148.0
213.308578 188.0
213.340897 176.0
213.362106 44.0
213.382462 148.0
213.440689 288.0
213.491806 312.0
213.51825 172.0
213.550507 224.0
213.587997 184.0
213.620941 56.0
213.645447 132.0
213.682037 84.0
213.723984 144.0
213.748962 180.0
213.779327 304.0
213.841339 188.0
213.882828 104.0
213.954086 92.0
213.975998 72.0
214.019409 132.0
214.060593 668.0
214.101212 88.0
214.159454 116.0
214.232285 112.0
214.29068 92.0
214.334579 72.0
214.474152 72.0
214.523697 76.0
214.71907 140.0
214.760468 252.0
214.829712 156.0
214.873672 40.0
214.905762 48.0
214.999146 336.0
215.066284 208.0
215.14299 128.0
215.164627 116.0
215.20282 160.0
215.253555 136.0
215.355637 160.0
215.419601 144.0
215.476151 156.0
215.507263 116.0
215.568619 112.0
215.600769 176.0
215.650452 128.0
215.702179 184.0
215.724899 100.0
215.759918 332.0
215.811615 216.0
215.848984 44.0
215.893448 180.0
215.917358 252.0
215.94577 116.0
215.97406 136.0
215.995804 224.0
216.070862 552.0
216.147552 156.0
216.187088 148.0
216.277695 180.0
216.305023 208.0
216.342422 256.0
216.393494 76.0
216.414001 116.0
216.444672 84.0
216.469635 52.0
216.498917 132.0
216.519073 68.0
216.577545 244.0
216.668808 164.0
216.715881 176.0
216.782654 140.0
216.829971 184.0
216.853256 204.0
216.890259 120.0
216.926712 172.0
216.964813 200.0
216.991776 244.0
217.07222 252.0
217.123154 128.0
217.146622 108.0
217.199417 144.0
217.223862 276.0
217.273743 96.0
217.299164 60.0
217.325577 80.0
217.35733 156.0
217.367752 72.0
217.381241 148.0
217.389938 124.0
217.400864 140.0
217.454468 236.0
217.502579 168.0
217.533951 56.0
217.577988 128.0
217.618408 200.0
217.642578 116.0
217.666077 120.0
217.742432 132.0
217.764618 176.0
217.880493 88.0
217.915741 92.0
217.939255 232.0
217.989212 224.0
218.026382 80.0
218.075424 260.0
218.157227 176.0
218.28389 140.0
218.341995 208.0
218.371399 64.0
218.397369 184.0
218.430237 48.0
218.453766 172.0
218.539078 260.0
218.579895 180.0
218.603821 168.0
218.62442 72.0
218.65358 164.0
218.714554 180.0
218.735016 132.0
218.796661 248.0
218.850113 252.0
218.877075 184.0
218.940979 168.0
219.00206 76.0
219.029465 120.0
219.070282 344.0
219.125015 144.0
219.157028 180.0
219.202042 196.0
219.234039 36.0
219.337189 144.0
219.357834 84.0
219.407944 108.0
219.449219 288.0
219.488144 68.0
219.540634 116.0
219.57518 200.0
219.615707 188.0
219.663712 132.0
219.69696 84.0
219.726303 144.0
219.775833 260.0
219.7957 164.0
219.817947 88.0
219.852402 160.0
219.874008 212.0
219.921234 152.0
220.008667 200.0
220.041016 132.0
220.049576 76.0
220.07338 432.0
220.130859 56.0
220.158279 308.0
220.181976 128.0
220.213547 60.0
220.265213 128.0
220.29921 52.0
220.337616 56.0
220.391327 160.0
220.467636 128.0
220.49025 156.0
220.526489 188.0
220.56517 168.0
220.633881 132.0
220.674561 48.0
220.695251 244.0
220.730743 136.0
220.814377 100.0
220.889267 80.0
220.911926 92.0
220.972549 128.0
221.035416 284.0
221.070587 164.0
221.107239 240.0
221.195816 208.0
221.220856 208.0
221.248535 80.0
221.269257 168.0
221.298859 88.0
221.330658 156.0
221.421478 128.0
221.4319 52.0
221.439774 124.0
221.460403 120.0
221.556534 152.0
221.592087 140.0
221.633575 112.0
221.660248 88.0
221.680984 124.0
221.73642 148.0
221.766571 100.0
221.770981 88.0
221.783905 44.0
221.811401 160.0
221.852905 168.0
221.891434 72.0
221.992264 36.0
222.015976 100.0
222.042084 100.0
222.094284 428.0
222.146484 164.0
222.186432 152.0
222.205826 256.0
222.327286 120.0
222.333664 304.0
222.377945 152.0
222.435608 80.0
222.458084 100.0
222.493713 148.0
222.520844 148.0
222.572723 184.0
222.612488 228.0
222.643219 172.0
222.719101 196.0
222.762543 176.0
222.788422 156.0
222.908005 108.0
222.933319 120.0
222.96701 120.0
223.026459 60.0
223.054123 112.0
223.090866 188.0
223.22168 140.0
223.294342 120.0
223.322632 212.0
223.347794 100.0
223.367416 136.0
223.406097 32.0
223.479279 160.0
223.510223 108.0
223.537018 164.0
223.599304 120.0
223.644333 128.0
223.69931 196.0
223.742386 76.0
223.78891 32.0
223.831711 196.0
223.855087 52.0
223.910706 92.0
223.948807 88.0
223.973724 100.0
224.027863 112.0
224.07251 276.0
224.207077 124.0
224.283432 216.0
224.458817 224.0
224.492447 144.0
224.526077 104.0
224.558609 328.0
224.578506 152.0
224.704971 128.0
224.738983 108.0
224.770706 76.0
224.791595 96.0
224.851501 140.0
224.90799 192.0
224.971176 240.0
225.0065 28.0
225.078079 6192.0
225.149841 40.0
225.18866 56.0
225.215546 232.0
225.241806 116.0
225.271484 176.0
225.305161 204.0
225.332047 92.0
225.364914 72.0
225.418182 140.0
225.456863 120.0
225.550217 80.0
225.618973 32.0
225.645874 72.0
225.666809 96.0
225.699692 100.0
225.783432 176.0
225.879135 164.0
225.927734 148.0
225.956879 128.0
226.024887 196.0
226.083282 4600.0
226.188492 352.0
226.266373 184.0
226.342636 88.0
226.372391 160.0
226.441315 144.0
226.502762 196.0
226.567688 68.0
226.59465 128.0
226.639587 40.0
226.660568 180.0
226.692139 196.0
226.729492 144.0
226.75946 112.0
226.798431 84.0
226.823669 104.0
226.852386 76.0
227.044846 172.0
227.086014 472.0
227.125275 100.0
227.148697 168.0
227.167816 212.0
227.213699 128.0
227.266266 52.0
227.290283 60.0
227.317291 180.0
227.415909 440.0
227.452728 128.0
227.506378 96.0
227.584442 148.0
227.605469 148.0
227.656509 64.0
227.684708 196.0
227.730652 152.0
227.742172 200.0
227.893951 128.0
227.932877 164.0
227.980331 188.0
228.044083 40.0
228.06813 400.0
228.088211 292.0
228.131256 168.0
228.152298 76.0
228.193451 128.0
228.244293 124.0
228.290176 56.0
228.365799 184.0
228.460251 216.0
228.534058 136.0
228.569443 168.0
228.591446 180.0
228.627548 68.0
228.663666 188.0
228.731857 128.0
228.772034 108.0
228.813019 64.0
228.843735 64.0
228.913361 124.0
228.954971 148.0
228.971954 184.0
229.023758 200.0
229.075287 640.0
229.12439 84.0
229.153427 132.0
229.182617 136.0
229.224411 164.0
229.269485 108.0
229.329315 148.0
229.352921 48.0
229.413712 172.0
229.463852 136.0
229.495193 152.0
229.585587 56.0
229.62178 172.0
229.648926 112.0
229.688141 160.0
229.728424 264.0
229.75444 212.0
229.764542 136.0
229.774277 144.0
229.824112 172.0
229.857803 204.0
229.877182 140.0
229.922256 280.0
229.95668 56.0
229.980835 228.0
230.001953 156.0
230.083847 1508.0
230.163895 132.0
230.192169 128.0
230.237473 152.0
230.279449 124.0
230.337143 132.0
230.391312 120.0
230.418701 116.0
230.614838 208.0
230.661072 160.0
230.732956 156.0
230.779831 260.0
230.853149 180.0
230.919617 108.0
230.953033 168.0
230.981644 296.0
231.023361 136.0
231.090164 6168.0
231.157654 104.0
231.180054 188.0
231.228088 152.0
231.274521 132.0
231.341064 144.0
231.365662 196.0
231.388412 84.0
231.4673 160.0
231.498566 216.0
231.537933 148.0
231.559143 68.0
231.580338 132.0
231.643509 108.0
231.709335 184.0
231.757645 84.0
231.779282 132.0
231.804535 168.0
231.862122 176.0
231.89621 128.0
231.967148 104.0
231.973129 64.0
232.00708 136.0
232.025238 192.0
232.076172 19844.0
232.133133 172.0
232.16777 392.0
232.205215 172.0
232.246307 140.0
232.277512 192.0
232.29747 60.0
232.380661 144.0
232.405991 104.0
232.476334 76.0
232.532745 296.0
232.557755 124.0
232.593094 56.0
232.646744 264.0
232.723984 96.0
232.746017 340.0
232.784912 160.0
232.814743 124.0
232.845108 172.0
232.870255 116.0
232.896744 260.0
232.936996 208.0
232.981812 164.0
233.021301 168.0
233.078384 4260.0
233.179321 68.0
233.26712 104.0
233.298615 132.0
233.355637 152.0
233.41243 136.0
233.427094 64.0
233.439835 168.0
233.484314 164.0
233.536392 100.0
233.621216 168.0
233.665863 84.0
233.697235 156.0
233.74353 168.0
233.796722 160.0
233.886871 132.0
233.924561 228.0
233.943802 112.0
234.033295 156.0
234.089432 3944.0
234.159012 172.0
234.202087 172.0
234.250397 52.0
234.277817 44.0
234.305237 100.0
234.335693 48.0
234.369919 52.0
234.460632 104.0
234.542938 52.0
234.606461 100.0
234.649628 124.0
234.690659 144.0
234.720657 396.0
234.801025 68.0
234.825516 212.0
234.906281 104.0
234.981552 160.0
235.046158 56.0
235.095596 748.0
235.181381 156.0
235.217072 112.0
235.244614 180.0
235.2995 152.0
235.330704 156.0
235.381943 88.0
235.40332 116.0
235.497986 128.0
235.561188 128.0
235.61525 208.0
235.642273 104.0
235.674805 164.0
235.739349 168.0
235.779083 116.0
235.901093 132.0
235.934982 88.0
236.009445 184.0
236.032822 40.0
236.090637 236.0
236.188797 52.0
236.22551 164.0
236.272186 148.0
236.326462 148.0
236.346039 116.0
236.371536 164.0
236.418274 140.0
236.5009 56.0
236.625412 232.0
236.664627 100.0
236.676422 48.0
236.69487 180.0
236.776459 172.0
236.816772 148.0
236.871414 136.0
236.916245 124.0
236.938812 72.0
236.978653 160.0
237.012344 96.0
237.049118 336.0
237.11467 648.0
237.159454 72.0
237.238617 276.0
237.266754 144.0
237.294083 192.0
237.347244 180.0
237.475281 92.0
237.518219 176.0
237.602997 204.0
237.696793 176.0
237.849625 124.0
237.960144 104.0
238.022797 148.0
238.05809 160.0
238.087418 312.0
238.115402 456.0
238.16275 168.0
238.204239 112.0
238.236542 52.0
238.33107 152.0
238.431534 144.0
238.456879 108.0
238.474152 112.0
238.497757 108.0
238.642242 148.0
238.683319 200.0
238.734497 124.0
238.783707 76.0
238.839066 144.0
238.877243 156.0
238.903671 100.0
238.9375 40.0
238.972061 52.0
239.020157 124.0
239.031494 176.0
239.085205 164.0
239.128906 160.0
239.159927 104.0
239.192932 120.0
239.236038 144.0
239.269897 72.0
239.306061 156.0
239.40538 40.0
239.446228 200.0
239.470062 128.0
239.510101 124.0
239.577881 148.0
239.605606 76.0
239.660721 212.0
239.709473 220.0
239.741501 192.0
239.793365 116.0
239.864471 232.0
239.931244 260.0
239.969284 160.0
240.009369 176.0
240.065582 204.0
240.09375 188.0
240.135818 124.0
240.163574 108.0
240.187393 188.0
240.220978 204.0
240.290054 132.0
240.32399 224.0
240.345596 108.0
240.390366 212.0
240.450012 168.0
240.538223 216.0
240.586334 180.0
240.62674 184.0
240.709839 360.0
240.773804 192.0
240.80867 40.0
240.84938 168.0
240.879715 72.0
240.909027 164.0
240.957962 208.0
240.997116 160.0
241.075974 1624.0
241.139267 116.0
241.174606 212.0
241.201096 100.0
241.23201 40.0
241.315384 132.0
241.34108 156.0
241.363022 128.0
241.437546 252.0
241.46701 100.0
241.493301 184.0
241.646423 216.0
241.686996 176.0
241.767456 212.0
241.79187 160.0
241.863052 64.0
241.939117 168.0
241.978836 100.0
242.007202 132.0
242.08017 17440.0
242.156143 116.0
242.204865 196.0
242.250549 60.0
242.346695 132.0
242.384644 136.0
242.41011 216.0
242.442245 148.0
242.471008 172.0
242.517731 124.0
242.572418 32.0
242.609619 124.0
242.646835 148.0
242.684937 164.0
242.751114 120.0
242.780167 188.0
242.815826 132.0
242.845123 72.0
242.88562 176.0
242.908966 144.0
242.95076 120.0
242.989304 104.0
243.022034 136.0
243.084274 2288.0
243.181519 200.0
243.242477 112.0
243.276627 60.0
243.298355 172.0
243.326294 132.0
243.403915 160.0
243.439636 92.0
243.471695 92.0
243.532425 148.0
243.556107 44.0
243.596039 112.0
243.655518 80.0
243.690506 196.0
243.716949 228.0
243.7798 224.0
243.835403 108.0
243.88858 164.0
243.913452 180.0
243.978729 52.0
244.000488 96.0
244.08223 1340.0
244.144791 256.0
244.171524 184.0
244.219803 168.0
244.271057 72.0
244.327057 144.0
244.357544 120.0
244.366989 96.0
244.427505 156.0
244.451523 120.0
244.541779 188.0
244.594681 80.0
244.699051 168.0
244.734985 120.0
244.769043 148.0
244.802307 228.0
244.826813 116.0
244.860123 176.0
244.90918 96.0
244.955917 100.0
244.980835 136.0
245.025574 156.0
245.078247 328.0
245.121033 208.0
245.236359 80.0
245.264236 136.0
245.281555 64.0
245.309509 68.0
245.357925 124.0
245.414047 84.0
245.435883 112.0
245.484131 244.0
245.504669 68.0
245.51207 120.0
245.551437 144.0
245.594772 164.0
245.635406 156.0
245.700989 116.0
245.727203 100.0
245.775879 276.0
245.797714 92.0
245.832047 140.0
245.884506 84.0
245.923767 308.0
245.950653 156.0
245.997467 52.0
246.022446 184.0
246.054474 324.0
246.099976 136.0
246.15358 84.0
246.276947 108.0
246.305374 224.0
246.334732 80.0
246.369095 108.0
246.425049 172.0
246.451141 124.0
246.512833 120.0
246.550339 136.0
246.619095 124.0
246.640976 148.0
246.662857 144.0
246.768158 192.0
246.794159 308.0
246.891098 172.0
246.943375 244.0
246.986633 148.0
247.013092 72.0
247.059128 136.0
247.084076 336.0
247.19455 132.0
247.275925 52.0
247.319748 128.0
247.344391 124.0
247.394882 140.0
247.444962 256.0
247.532639 160.0
247.578354 356.0
247.603333 168.0
247.64624 148.0
247.720566 128.0
247.805161 112.0
247.852158 60.0
247.896027 68.0
247.954056 132.0
247.996323 76.0
248.027664 76.0
248.07933 216.0
248.089157 104.0
248.097916 176.0
248.126602 216.0
248.178146 128.0
248.312317 172.0
248.327377 116.0
248.42421 176.0
248.438156 80.0
248.447525 168.0
248.465652 96.0
248.576523 144.0
248.620773 156.0
248.648697 168.0
248.701126 148.0
248.749146 204.0
248.794189 184.0
248.861191 192.0
248.89888 156.0
248.947983 196.0
249.012909 120.0
249.100754 2428.0
249.17067 140.0
249.232819 176.0
249.39624 84.0
249.44574 96.0
249.484253 152.0
249.528732 216.0
249.579239 132.0
249.681686 56.0
249.742828 176.0
249.810532 108.0
249.840942 220.0
249.887558 196.0
249.908844 92.0
249.940308 40.0
249.978073 276.0
250.106247 608.0
250.159241 208.0
250.220444 124.0
250.330139 148.0
250.390488 132.0
250.412537 140.0
250.453491 100.0
250.500732 136.0
250.524673 120.0
250.569748 252.0
250.592102 64.0
250.618622 144.0
250.658508 108.0
250.680328 136.0
250.714996 192.0
250.746506 144.0
250.774872 140.0
250.796829 112.0
250.856842 128.0
250.878906 96.0
250.929352 100.0
250.97966 96.0
251.036942 176.0
251.094162 232.0
251.119049 256.0
251.19278 204.0
251.262146 168.0
251.332779 168.0
251.370941 172.0
251.399353 132.0
251.456161 112.0
251.531906 144.0
251.626617 128.0
251.655029 232.0
251.696091 228.0
251.719849 84.0
251.81102 192.0
251.866623 52.0
251.891907 116.0
251.92981 124.0
251.975616 128.0
251.986282 64.0
251.997635 120.0
252.037231 104.0
252.084427 240.0
252.109909 140.0
252.151413 120.0
252.212311 224.0
252.286316 188.0
252.337646 188.0
252.410233 132.0
252.456589 180.0
252.500458 148.0
252.539734 152.0
252.583344 76.0
252.637955 164.0
252.677887 168.0
252.729706 132.0
252.774689 132.0
252.828903 140.0
252.849564 32.0
252.887939 88.0
252.913269 140.0
252.983749 212.0
253.062057 104.0
253.084229 156.0
253.116943 144.0
253.160233 132.0
253.233063 160.0
253.27327 220.0
253.338531 164.0
253.393417 168.0
253.59111 76.0
253.619629 92.0
253.644989 128.0
253.683029 264.0
253.703369 248.0
253.774979 232.0
253.816193 88.0
253.8479 88.0
253.882568 116.0
253.933533 144.0
253.971588 176.0
254.041382 76.0
254.091812 116.0
254.104462 104.0
254.13974 36.0
254.184158 148.0
254.247635 176.0
254.292068 172.0
254.392059 168.0
254.536133 132.0
254.550125 188.0
254.600037 144.0
254.695312 152.0
254.739792 188.0
254.765198 104.0
254.819214 152.0
254.850983 104.0
254.922272 156.0
255.000351 244.0
255.027557 256.0
255.039368 144.0
255.069351 164.0
255.124313 112.0
255.150818 132.0
255.18335 132.0
255.261032 140.0
255.301178 148.0
255.306595 220.0
255.397797 152.0
255.442337 136.0
255.477325 200.0
255.502777 136.0
255.54567 208.0
255.655502 344.0
255.723785 132.0
255.815384 156.0
255.839676 112.0
255.907959 92.0
255.979523 156.0
256.007202 128.0
256.087677 336.0
256.120361 96.0
256.225494 92.0
256.278412 128.0
256.356537 216.0
256.410309 108.0
256.450287 124.0
256.478607 176.0
256.598389 68.0
256.620697 60.0
256.649384 104.0
256.736786 168.0
256.776947 48.0
256.828003 52.0
256.886841 160.0
256.942322 200.0
256.972839 164.0
257.026184 100.0
257.094635 1412.0
257.137939 168.0
257.172607 132.0
257.224609 100.0
257.254639 108.0
257.340485 256.0
257.384949 124.0
257.412048 184.0
257.467621 164.0
257.504669 52.0
257.535156 264.0
257.548767 144.0
257.55896 128.0
257.622864 148.0
257.648407 116.0
257.677155 328.0
257.731476 204.0
257.783508 168.0
257.840118 96.0
257.873596 304.0
257.987183 44.0
258.102295 3676.0
258.163025 80.0
258.222809 104.0
258.231079 144.0
258.318512 124.0
258.368195 176.0
258.39975 48.0
258.457336 36.0
258.484283 144.0
258.568146 160.0
258.614136 124.0
258.70697 104.0
258.729401 76.0
258.764099 244.0
258.835052 124.0
258.868317 204.0
258.918243 192.0
258.943939 148.0
258.974243 236.0
259.021606 256.0
259.028046 216.0
259.041046 184.0
259.086853 26544.0
259.190765 176.0
259.239227 256.0
259.293152 160.0
259.366882 136.0
259.398956 60.0
259.431 168.0
259.461517 152.0
259.500122 76.0
259.533325 72.0
259.598877 164.0
259.62854 92.0
259.731262 76.0
259.769989 88.0
259.79541 76.0
259.815277 112.0
259.857544 40.0
259.915314 80.0
259.948212 96.0
259.984772 160.0
260.014801 248.0
260.090149 5840.0
260.183838 168.0
260.206207 204.0
260.251556 264.0
260.276031 128.0
260.32547 164.0
260.38678 76.0
260.397949 128.0
260.454681 92.0
260.489441 112.0
260.556274 256.0
260.599243 144.0
260.657013 180.0
260.689819 128.0
260.713898 160.0
260.747528 84.0
260.78064 136.0
260.84903 464.0
260.914062 164.0
260.948914 232.0
260.994232 104.0
261.026764 168.0
261.1026 17784.0
261.160675 180.0
261.218903 168.0
261.257385 40.0
261.297943 176.0
261.320343 148.0
261.353577 40.0
261.394623 168.0
261.42688 104.0
261.456055 72.0
261.492828 156.0
261.54538 140.0
261.578033 76.0
261.635254 204.0
261.665802 176.0
261.715881 104.0
261.793884 84.0
261.823669 172.0
261.849884 128.0
261.868622 108.0
261.897949 196.0
261.925659 176.0
261.954681 200.0
262.013641 92.0
262.026184 56.0
262.105072 3316.0
262.233215 108.0
262.254608 168.0
262.309753 140.0
262.340424 64.0
262.366211 164.0
262.424225 244.0
262.456482 100.0
262.517761 96.0
262.550659 168.0
262.600281 216.0
262.637085 76.0
262.679352 152.0
262.70343 120.0
262.737091 64.0
262.765991 104.0
262.825531 88.0
262.86615 32.0
262.959747 252.0
263.031647 176.0
263.101959 168.0
263.183685 152.0
263.21109 112.0
263.272919 180.0
263.318115 152.0
263.382721 72.0
263.477936 188.0
263.612122 116.0
263.650909 96.0
263.708832 100.0
263.751099 68.0
263.781067 176.0
263.833252 176.0
263.879547 104.0
263.913544 80.0
263.942535 112.0
263.998535 144.0
264.02713 396.0
264.064728 148.0
264.111664 104.0
264.164612 132.0
264.220184 160.0
264.24588 220.0
264.330017 236.0
264.414154 72.0
264.477631 340.0
264.529297 156.0
264.559814 116.0
264.630829 120.0
264.655396 100.0
264.66333 112.0
264.674072 156.0
264.757355 48.0
264.838318 52.0
264.937683 172.0
264.974365 152.0
265.041046 176.0
265.083588 80.0
265.135071 296.0
265.250793 152.0
265.327423 56.0
265.347595 108.0
265.437897 284.0
265.608643 148.0
265.655212 84.0
265.684387 104.0
265.749298 116.0
265.794708 264.0
265.885834 160.0
265.953735 280.0
266.009613 172.0
266.083588 152.0
266.142029 144.0
266.184235 192.0
266.210236 136.0
266.249207 324.0
266.362885 160.0
266.419067 120.0
266.460358 152.0
266.50354 216.0
266.570831 128.0
266.620178 168.0
266.759277 156.0
266.860229 112.0
266.920959 168.0
266.934692 120.0
266.945465 160.0
267.037354 312.0
267.082428 660.0
267.121704 104.0
267.20813 52.0
267.243225 164.0
267.299255 200.0
267.342651 164.0
267.454224 168.0
267.494537 180.0
267.556366 64.0
267.584839 76.0
267.62149 140.0
267.67807 128.0
267.760803 108.0
267.770142 68.0
267.781494 144.0
267.815002 124.0
267.862823 120.0
267.895081 140.0
267.934509 224.0
267.960236 124.0
268.084412 2740.0
268.15448 72.0
268.185089 232.0
268.214417 80.0
268.243774 108.0
268.323639 160.0
268.345764 180.0
268.390472 40.0
268.426361 36.0
268.475647 176.0
268.500061 132.0
268.584503 172.0
268.610352 240.0
268.652191 196.0
268.684021 180.0
268.73172 116.0
268.788452 140.0
268.811279 32.0
268.851929 140.0
268.883087 120.0
268.911865 132.0
268.977753 160.0
269.034882 144.0
269.073456 1760.0
269.144348 140.0
269.178223 148.0
269.259613 256.0
269.273438 136.0
269.31134 140.0
269.391571 132.0
269.437714 132.0
269.472443 124.0
269.521057 144.0
269.591766 164.0
269.61792 40.0
269.645386 224.0
269.78714 136.0
269.879456 148.0
270.000427 160.0
270.07254 252.0
270.173798 104.0
270.202087 140.0
270.251831 136.0
270.305511 172.0
270.381653 160.0
270.481415 104.0
270.54361 56.0
270.584595 132.0
270.686401 172.0
270.751312 148.0
270.802307 104.0
270.825226 84.0
270.85144 44.0
270.887482 80.0
270.927216 124.0
270.991211 160.0
271.019196 96.0
271.068756 280.0
271.136505 212.0
271.16272 32.0
271.225006 188.0
271.371857 116.0
271.409515 436.0
271.503693 124.0
271.536499 200.0
271.562714 32.0
271.67099 108.0
271.692993 120.0
271.716919 140.0
271.749725 48.0
271.812073 132.0
271.894104 80.0
271.933502 176.0
271.977905 188.0
272.007111 128.0
272.041809 168.0
272.078064 260.0
272.112213 188.0
272.156555 160.0
272.216736 156.0
272.253723 140.0
272.294647 204.0
272.320526 32.0
272.363159 192.0
272.429321 60.0
272.471771 156.0
272.533325 160.0
272.571716 164.0
272.705353 100.0
272.767792 104.0
272.808868 172.0
272.850006 68.0
272.879578 248.0
272.938782 172.0
272.997955 136.0
273.062775 212.0
273.123566 128.0
273.203949 116.0
273.239868 104.0
273.3302 80.0
273.370819 200.0
273.436981 72.0
273.447723 152.0
273.459076 180.0
273.524323 104.0
273.560608 28.0
273.596802 112.0
273.64621 168.0
273.718628 184.0
273.784515 84.0
273.815247 144.0
273.843384 200.0
273.929443 40.0
273.969574 148.0
274.01178 52.0
274.07135 3160.0
274.186432 164.0
274.227356 128.0
274.275421 48.0
274.298523 48.0
274.331177 132.0
274.373169 168.0
274.406128 312.0
274.440277 132.0
274.499634 64.0
274.532593 140.0
274.600708 228.0
274.656677 168.0
274.6875 176.0
274.725281 136.0
274.75946 128.0
274.869385 128.0
274.905396 92.0
274.967438 172.0
275.027405 132.0
275.101349 1084.0
275.174347 100.0
275.20578 88.0
275.252014 104.0
275.283478 148.0
275.308136 156.0
275.382202 240.0
275.440277 28.0
275.473297 180.0
275.508423 108.0
275.587555 144.0
275.671539 132.0
275.696167 132.0
275.747559 228.0
275.893005 220.0
275.960815 196.0
275.99881 188.0
276.036224 120.0
276.113708 11500.0
276.211761 176.0
276.256775 108.0
276.316345 144.0
276.345154 104.0
276.365082 140.0
276.475159 44.0
276.524811 144.0
276.552521 184.0
276.584381 80.0
276.617493 44.0
276.660522 100.0
276.700256 60.0
276.726746 116.0
276.788147 228.0
276.874054 180.0
276.960022 192.0
277.056 120.0
277.114838 2028.0
277.183838 84.0
277.234741 168.0
277.294861 96.0
277.349548 48.0
277.379395 108.0
277.419189 144.0
277.525269 204.0
277.567871 80.0
277.674774 184.0
277.730682 268.0
277.765778 144.0
277.83371 156.0
277.918762 76.0
277.963013 112.0
278.00296 72.0
278.041168 84.0
278.074707 224.0
278.121277 420.0
278.149414 256.0
278.192139 224.0
278.278473 136.0
278.301697 92.0
278.346863 180.0
278.355988 216.0
278.37912 88.0
278.440216 276.0
278.494324 196.0
278.514862 124.0
278.650452 64.0
278.76416 212.0
278.803314 152.0
278.826965 104.0
278.859802 140.0
278.922974 100.0
278.961761 108.0
279.019653 188.0
279.052612 80.0
279.107391 88.0
279.151062 204.0
279.192291 116.0
279.241943 164.0
279.268768 260.0
279.351929 124.0
279.38855 156.0
279.425995 184.0
279.48703 172.0
279.534943 40.0
279.561554 104.0
279.614807 152.0
279.678131 172.0
279.777924 68.0
279.835419 208.0
279.891357 120.0
279.920898 76.0
279.990509 312.0
280.038116 148.0
280.064423 120.0
280.110931 116.0
280.169891 80.0
280.224213 220.0
280.28418 180.0
280.327606 376.0
280.36084 104.0
280.41748 116.0
280.456818 256.0
280.590088 252.0
280.630829 64.0
280.754211 136.0
280.79425 52.0
280.827606 92.0
280.868866 184.0
280.897644 156.0
280.92746 184.0
280.977722 152.0
281.06781 92.0
281.125214 156.0
281.151245 180.0
281.282959 320.0
281.3992 128.0
281.488403 76.0
281.537445 128.0
281.595276 140.0
281.625336 76.0
281.735321 156.0
281.922791 132.0
282.029633 180.0
282.130524 92.0
282.206604 176.0
282.293976 188.0
282.345337 152.0
282.372314 124.0
282.39743 148.0
282.426819 204.0
282.433472 160.0
282.485107 76.0
282.604492 180.0
282.695221 68.0
282.758789 148.0
282.812347 164.0
282.904236 160.0
282.942902 104.0
282.976379 64.0
283.023254 204.0
283.06189 60.0
283.087219 244.0
283.204102 88.0
283.254364 100.0
283.349121 112.0
283.401215 172.0
283.438629 128.0
283.478088 180.0
283.491272 140.0
283.501129 140.0
283.513672 232.0
283.559265 192.0
283.606201 56.0
283.67514 168.0
283.722778 160.0
283.735413 124.0
283.741974 104.0
283.758911 72.0
283.768768 144.0
283.80835 188.0
283.867706 208.0
283.904602 172.0
283.95105 184.0
284.001862 180.0
284.032043 164.0
284.08136 1384.0
284.129333 176.0
284.208801 104.0
284.287048 140.0
284.31723 156.0
284.377197 292.0
284.407867 124.0
284.43634 132.0
284.515289 128.0
284.558929 112.0
284.605927 396.0
284.655151 116.0
284.750671 196.0
284.794006 48.0
284.877777 128.0
284.90271 136.0
284.935089 136.0
284.981995 204.0
285.044403 124.0
285.089935 2248.0
285.171814 200.0
285.203949 68.0
285.24765 160.0
285.288971 216.0
285.335052 108.0
285.362854 120.0
285.388855 204.0
285.415741 80.0
285.484894 148.0
285.540161 188.0
285.569244 200.0
285.599609 120.0
285.654297 108.0
285.667053 100.0
285.675232 80.0
285.732178 152.0
285.775665 116.0
285.805817 184.0
285.827911 76.0
285.859772 172.0
285.88446 108.0
285.936646 284.0
285.962494 112.0
285.98819 168.0
286.029053 108.0
286.097626 27812.0
286.180634 140.0
286.231201 36.0
286.311432 224.0
286.337494 84.0
286.412598 152.0
286.442261 68.0
286.483276 136.0
286.507935 72.0
286.582581 180.0
286.620178 144.0
286.651764 88.0
286.678101 96.0
286.703247 96.0
286.742798 160.0
286.783508 148.0
286.827057 136.0
286.88269 120.0
286.914825 196.0
286.94104 76.0
286.96875 216.0
287.015198 160.0
287.05838 160.0
287.10083 4892.0
287.144684 292.0
287.188385 92.0
287.20163 160.0
287.21521 160.0
287.221985 152.0
287.260437 152.0
287.297089 84.0
287.321075 76.0
287.351501 176.0
287.379486 52.0
287.403656 172.0
287.430115 132.0
287.471344 148.0
287.573425 156.0
287.61145 156.0
287.652863 120.0
287.676483 112.0
287.71701 152.0
287.817413 152.0
287.859344 232.0
287.916229 68.0
287.950012 160.0
287.980408 52.0
288.040253 100.0
288.061462 256.0
288.107086 720.0
288.181305 200.0
288.228912 144.0
288.291229 92.0
288.31488 60.0
288.359467 84.0
288.402771 56.0
288.471832 116.0
288.50647 148.0
288.538544 72.0
288.582245 172.0
288.649078 56.0
288.676605 64.0
288.717194 84.0
288.758362 140.0
288.796051 216.0
288.825439 128.0
288.848267 80.0
288.889709 120.0
288.920166 208.0
288.957367 184.0
289.008698 164.0
289.045349 184.0
289.107788 160.0
289.146881 260.0
289.1875 68.0
289.217957 196.0
289.270508 152.0
289.309357 140.0
289.335388 144.0
289.407532 68.0
289.468475 152.0
289.509735 360.0
289.597656 140.0
289.644592 124.0
289.710052 152.0
289.746582 112.0
289.800446 212.0
289.830933 136.0
290.014099 276.0
290.066711 148.0
290.102081 76.0
290.159729 76.0
290.274994 84.0
290.341187 164.0
290.386932 156.0
290.509186 148.0
290.59726 84.0
290.637085 92.0
290.651337 68.0
290.688873 96.0
290.753357 80.0
290.811035 68.0
290.92392 144.0
291.018127 64.0
291.045288 232.0
291.103668 192.0
291.191315 176.0
291.260315 168.0
291.289825 120.0
291.320404 112.0
291.344177 92.0
291.388336 256.0
291.426605 168.0
291.500488 60.0
291.534454 36.0
291.561646 160.0
291.588837 108.0
291.682922 188.0
291.718018 84.0
291.796204 160.0
291.820007 104.0
291.87439 144.0
291.936554 220.0
292.029083 156.0
292.228149 144.0
292.251984 156.0
292.292816 176.0
292.363129 120.0
292.432129 140.0
292.524628 140.0
292.558289 188.0
292.593475 188.0
292.679108 288.0
292.714905 140.0
292.81366 204.0
292.840912 104.0
292.896027 180.0
292.963562 80.0
293.01123 164.0
293.055542 96.0
293.084137 248.0
293.116211 104.0
293.187469 132.0
293.215698 136.0
293.285797 184.0
293.311127 72.0
293.345215 144.0
293.499939 104.0
293.544312 164.0
293.624817 104.0
293.674988 188.0
293.774902 128.0
293.895355 40.0
293.921631 84.0
293.957611 156.0
294.039459 144.0
294.07666 252.0
294.104523 136.0
294.151306 104.0
294.204926 144.0
294.24588 132.0
294.362579 136.0
294.396118 148.0
294.434052 148.0
294.549835 172.0
294.606201 172.0
294.648895 156.0
294.672821 208.0
294.695953 176.0
294.749817 176.0
294.843689 132.0
294.912018 164.0
295.023499 184.0
295.103485 188.0
295.192383 56.0
295.233429 228.0
295.288147 120.0
295.359955 84.0
295.409271 136.0
295.50531 168.0
295.548126 148.0
295.582367 92.0
295.663544 144.0
295.691864 88.0
295.760315 140.0
295.789185 148.0
295.832214 120.0
295.861755 216.0
295.934906 132.0
295.983978 156.0
296.041077 108.0
296.070953 132.0
296.10614 140.0
296.147247 148.0
296.198608 116.0
296.279907 200.0
296.327637 128.0
296.380188 188.0
296.455597 56.0
296.520721 28.0
296.544708 124.0
296.572113 168.0
296.695526 104.0
296.762512 148.0
296.81897 224.0
296.901276 40.0
296.952728 136.0
296.980164 184.0
297.007812 132.0
297.031616 180.0
297.078613 240.0
297.110504 112.0
297.134521 32.0
297.229492 124.0
297.30954 124.0
297.340424 76.0
297.384003 132.0
297.442535 156.0
297.563538 120.0
297.625336 64.0
297.733521 296.0
297.778076 152.0
297.807373 264.0
297.865753 112.0
297.965393 132.0
298.007446 108.0
298.05838 188.0
298.087616 180.0
298.132355 172.0
298.180573 192.0
298.2276 132.0
298.254059 116.0
298.285004 168.0
298.311798 176.0
298.407043 104.0
298.419952 140.0
298.456909 244.0
298.498291 108.0
298.523621 216.0
298.605988 148.0
298.726379 148.0
298.752686 140.0
298.786469 132.0
298.816193 200.0
298.869659 152.0
298.922791 312.0
299.03064 196.0
299.069275 164.0
299.093353 112.0
299.129333 332.0
299.19458 168.0
299.247162 124.0
299.266998 148.0
299.301849 236.0
299.310791 148.0
299.324951 224.0
299.361908 152.0
299.417023 52.0
299.457336 136.0
299.477509 200.0
299.51001 104.0
299.566772 168.0
299.630585 168.0
299.660461 144.0
299.686249 128.0
299.730499 208.0
299.800751 184.0
299.866211 128.0
299.898468 288.0
299.93808 140.0
299.982117 64.0
300.028442 152.0
300.134308 56.0
300.203583 136.0
300.254517 76.0
300.357056 224.0
300.370117 164.0
300.442169 228.0
300.506348 100.0
300.539429 140.0
300.634338 144.0
300.682343 36.0
300.756622 176.0
300.78244 80.0
300.816437 136.0
300.826599 116.0
300.840118 112.0
300.852936 196.0
300.882538 116.0
300.923645 212.0
300.971527 104.0
301.022095 220.0
301.07309 312.0
301.10965 120.0
301.150421 172.0
301.185059 184.0
301.220978 240.0
301.273773 192.0
301.304932 80.0
301.372894 124.0
301.455048 96.0
301.464691 188.0
301.509064 96.0
301.543732 148.0
301.569977 116.0
301.620972 208.0
301.656189 160.0
301.69281 136.0
301.751068 72.0
301.780396 208.0
301.828247 292.0
301.836945 124.0
301.859589 180.0
301.908264 172.0
301.965881 220.0
301.996582 280.0
302.018555 328.0
302.06604 176.0
302.116211 1524.0
302.152527 544.0
302.204407 124.0
302.240173 400.0
302.282349 176.0
302.316895 116.0
302.370056 240.0
302.399323 224.0
302.453552 120.0
302.480011 356.0
302.520599 308.0
302.572052 296.0
302.581177 252.0
302.612213 184.0
302.657654 488.0
302.704498 316.0
302.747314 380.0
302.786163 636.0
302.799561 396.0
302.806274 300.0
302.840973 484.0
302.897491 868.0
302.942261 532.0
302.972076 1052.0
303.021545 932.0
303.080017 1584.0
303.126068 470852.0
303.219299 248.0
303.25528 252.0
303.330078 256.0
303.361694 216.0
303.442047 664.0
303.549225 388.0
303.574036 300.0
303.607269 400.0
303.650299 684.0
303.698425 8376.0
303.743103 480.0
303.778473 468.0
303.825806 356.0
303.870026 556.0
303.905365 248.0
303.969696 356.0
304.009888 588.0
304.038269 352.0
304.063385 836.0
304.127808 138716.0
304.192596 284.0
304.226135 396.0
304.249207 164.0
304.286774 280.0
304.320618 252.0
304.356934 272.0
304.366516 204.0
304.440582 116.0
304.463287 352.0
304.517517 316.0
304.541473 244.0
304.575256 292.0
304.600952 56.0
304.637817 172.0
304.661072 344.0
304.691101 276.0
304.734863 176.0
304.768524 136.0
304.821869 184.0
304.855255 128.0
304.887329 212.0
304.924835 116.0
304.965637 148.0
305.022888 232.0
305.047485 108.0
305.073486 264.0
305.129181 15280.0
305.200928 132.0
305.255127 128.0
305.310944 368.0
305.346252 172.0
305.384827 476.0
305.412689 80.0
305.449463 112.0
305.501831 248.0
305.509064 68.0
305.538147 100.0
305.563904 184.0
305.60788 228.0
305.63858 200.0
305.683441 120.0
305.712799 108.0
305.729431 268.0
305.765259 160.0
305.82193 324.0
305.867371 236.0
305.909027 128.0
305.944611 220.0
305.975464 284.0
306.014038 284.0
306.072937 360.0
306.08316 476.0
306.131653 1428.0
306.179169 328.0
306.224426 448.0
306.271332 216.0
306.315948 532.0
306.371155 476.0
306.401489 456.0
306.460876 188.0
306.503723 104.0
306.547241 192.0
306.574158 64.0
306.61145 80.0
306.654785 68.0
306.697357 88.0
306.782318 200.0
306.83786 136.0
306.889526 120.0
306.94342 84.0
306.986816 60.0
307.029083 112.0
307.057129 76.0
307.10022 96.0
307.11322 164.0
307.200684 228.0
307.259796 76.0
307.312347 72.0
307.356323 112.0
307.374664 84.0
307.422028 136.0
307.448486 92.0
307.489563 180.0
307.527893 112.0
307.535706 84.0
307.549438 156.0
307.588898 112.0
307.615997 76.0
307.641235 216.0
307.696228 236.0
307.746826 120.0
307.792206 52.0
307.824463 100.0
307.866516 72.0
307.903656 176.0
307.95285 76.0
307.989532 64.0
308.037384 116.0
308.093109 120.0
308.117554 76.0
308.188599 128.0
308.270355 128.0
308.290833 76.0
308.335724 48.0
308.403595 96.0
308.456024 208.0
308.480499 108.0
308.53302 184.0
308.560913 44.0
308.638153 128.0
308.72525 40.0
308.79306 112.0
308.868652 84.0
308.896637 72.0
308.939178 76.0
308.979523 64.0
309.098358 140.0
309.119934 228.0
309.17981 56.0
309.24469 68.0
309.314575 112.0
309.401031 80.0
309.447144 132.0
309.496979 68.0
309.526642 64.0
309.576599 88.0
309.628204 140.0
309.670227 96.0
309.694733 88.0
309.733276 36.0
309.83136 32.0
309.947876 108.0
309.994598 156.0
310.032074 128.0
310.079712 160.0
310.104279 68.0
310.13974 240.0
310.192322 56.0
310.283478 28.0
310.330292 152.0
310.423615 120.0
310.486847 68.0
310.611511 88.0
310.67627 100.0
310.734619 88.0
310.830658 40.0
310.904327 60.0
310.939423 80.0
310.967529 64.0
310.999115 76.0
311.03421 72.0
311.125488 60.0
311.193329 148.0
311.223785 56.0
311.286987 40.0
311.36615 176.0
311.416779 84.0
311.462616 36.0
311.497742 104.0
311.60556 116.0
311.662872 48.0
311.778809 76.0
311.891296 80.0
311.944031 152.0
312.067078 64.0
312.111481 120.0
312.23938 48.0
312.278076 164.0
312.313263 96.0
312.394165 44.0
312.4422 140.0
312.492676 40.0
312.531372 60.0
312.563049 32.0
312.608795 40.0
312.689728 72.0
312.747467 140.0
312.879822 252.0
312.963104 92.0
313.013611 56.0
313.059387 68.0
313.133942 144.0
313.212616 200.0
313.316528 60.0
313.350006 64.0
313.411652 212.0
313.43985 84.0
313.468048 156.0
313.496246 104.0
313.520905 96.0
313.647797 100.0
313.772858 108.0
313.926331 32.0
314.042694 100.0
314.102661 124.0
314.130829 108.0
314.229675 80.0
314.272003 40.0
314.340576 120.0
314.455627 152.0
314.550842 88.0
314.674377 60.0
314.753021 152.0
314.808563 108.0
314.84552 112.0
314.896851 60.0
314.993378 100.0
315.024017 100.0
315.081512 104.0
315.112366 60.0
315.179474 48.0
315.246643 72.0
315.328491 72.0
315.38092 92.0
315.415497 108.0
315.536469 52.0
315.590271 148.0
315.706207 100.0
315.762787 116.0
315.819397 56.0
315.847687 56.0
315.925507 72.0
315.950287 72.0
316.134277 96.0
316.196442 100.0
316.247528 96.0
316.307831 104.0
316.38913 44.0
316.44223 44.0
316.498871 44.0
316.527222 76.0
316.561676 164.0
316.625916 64.0
316.801392 108.0
316.829956 204.0
316.881409 116.0
316.922516 48.0
317.042877 128.0
317.147217 96.0
317.25 96.0
317.377655 56.0
317.434387 136.0
317.460175 104.0
317.505493 76.0
317.65741 68.0
317.707489 96.0
317.767151 208.0
317.891998 56.0
317.934601 112.0
318.016235 60.0
318.062378 136.0
318.158203 116.0
318.193726 312.0
318.219055 120.0
318.273865 112.0
318.351532 120.0
318.435181 120.0
318.549835 160.0
318.655457 92.0
318.722961 108.0
318.872223 44.0
319.128174 132.0
319.177948 116.0
319.220612 48.0
319.409119 100.0
319.455353 104.0
319.537201 48.0
319.562103 104.0
319.782745 160.0
319.812927 108.0
319.839691 92.0
319.946472 40.0
319.996338 64.0
320.031219 100.0
320.092468 128.0
320.145874 124.0
320.183136 104.0
320.22934 64.0
320.272247 100.0
320.359589 116.0
320.384521 72.0
320.425049 76.0
320.455139 128.0
320.498535 64.0
320.594757 40.0
320.658905 36.0
320.79892 176.0
320.830017 40.0
320.908447 52.0
320.958374 40.0
321.00116 64.0
321.108154 76.0
321.140259 188.0
321.186615 52.0
321.266266 124.0
321.29364 68.0
321.3573 204.0
321.454224 36.0
321.561279 116.0
321.586273 128.0
321.757599 40.0
321.798035 124.0
321.868286 112.0
322.003998 228.0
322.098053 108.0
322.150452 140.0
322.182617 112.0
322.407715 64.0
322.464905 144.0
322.528137 156.0
322.570251 76.0
322.635773 104.0
322.690125 120.0
322.879639 124.0
322.908264 128.0
323.009613 108.0
323.051331 164.0
323.079956 68.0
323.126465 152.0
323.18692 148.0
323.251709 40.0
323.369812 56.0
323.402008 88.0
323.430664 76.0
323.480988 124.0
323.516571 148.0
323.641876 88.0
323.985474 56.0
324.093201 120.0
324.189972 80.0
324.842529 176.0
325.064972 132.0
325.255188 144.0
325.520874 196.0
325.556793 128.0
325.607056 100.0
325.72699 100.0
325.966309 172.0
325.995087 44.0
326.04538 120.0
326.110077 56.0
326.279022 80.0
326.336365 152.0
326.376099 136.0
326.764587 128.0
326.793365 48.0
327.142395 344.0
327.448547 108.0
327.671875 72.0
327.859253 72.0
327.888092 48.0
328.158447 128.0
328.244995 60.0
328.313507 136.0
328.585419 156.0
328.858307 116.0
329.027985 176.0
329.096558 220.0
329.148621 192.0
329.287964 72.0
329.325104 56.0
329.392731 140.0
329.439667 140.0
329.64563 52.0
329.670929 148.0
329.699829 128.0
329.931183 84.0
330.091431 100.0
330.285583 56.0
330.412506 144.0
330.455597 132.0
330.551849 140.0
330.651031 112.0
330.737885 120.0
330.806671 160.0
330.922516 60.0
331.197754 148.0
331.317291 32.0
331.444122 156.0
331.483978 120.0
331.560059 156.0
331.589081 44.0
331.632568 100.0
332.161957 68.0
332.336121 184.0
332.49942 88.0
332.592621 124.0
332.702698 132.0
332.811615 140.0
332.860962 148.0
332.942352 64.0
333.116699 44.0
333.352844 84.0
333.552765 40.0
333.974548 124.0
334.261963 88.0
334.414825 124.0
334.502197 112.0
334.709717 156.0
334.979248 232.0
335.059387 116.0
335.208771 384.0
335.248871 52.0
335.292603 168.0
335.576935 164.0
335.602448 144.0
335.704559 128.0
335.88327 164.0
335.952576 72.0
336.251801 144.0
336.417114 160.0
336.543854 60.0
336.573059 104.0
336.678955 80.0
337.113708 96.0
337.153351 216.0
337.420746 116.0
337.610901 40.0
337.757202 72.0
337.793762 164.0
337.864685 168.0
338.005981 164.0
338.131622 216.0
338.174316 84.0
338.342712 56.0
338.686951 124.0
338.730896 168.0
338.851807 60.0
339.119324 60.0
339.225616 40.0
339.440552 148.0
339.482269 64.0
339.695007 192.0
339.871124 168.0
340.010559 116.0
340.047272 108.0
340.289551 120.0
340.348297 48.0
340.403381 92.0
340.473145 136.0
340.601715 164.0
340.638458 80.0
340.789062 172.0
340.845215 116.0
341.135651 252.0
341.187714 96.0
341.228241 72.0
341.358826 80.0
341.415894 60.0
341.439728 172.0
341.480194 140.0
341.650085 108.0
341.720215 128.0
341.921692 172.0
341.951141 188.0
342.156128 128.0
342.208832 64.0
342.253021 88.0
342.35614 60.0
342.617645 88.0
342.735565 80.0
342.917755 128.0
343.034088 160.0
343.159454 128.0
343.498749 48.0
343.646301 52.0
343.68689 76.0
343.804993 128.0
343.860352 60.0
343.916626 80.0
344.111359 84.0
344.177826 88.0
344.284912 108.0
344.462219 148.0
344.517639 28.0
344.554565 172.0
344.632172 128.0
344.674103 136.0
345.037476 132.0
345.101593 104.0
345.153351 68.0
345.35675 108.0
345.471436 60.0
345.50473 108.0
345.748932 88.0
346.093231 180.0
346.156158 56.0
346.321198 128.0
346.400635 180.0
346.474701 52.0
346.626617 64.0
346.915741 100.0
346.956512 88.0
347.038086 176.0
347.190125 140.0
347.323639 116.0
347.527679 172.0
347.568512 136.0
347.648926 172.0
347.74292 160.0
348.251617 76.0
348.452209 56.0
348.533936 192.0
348.56369 48.0
348.614899 184.0
348.745789 120.0
348.909363 124.0
349.002289 128.0
349.385406 132.0
349.441193 196.0
349.508179 48.0
349.541656 196.0
349.630981 184.0
349.771484 48.0
350.059113 128.0
350.159668 172.0
350.221069 152.0
350.357086 160.0
350.394348 168.0
350.591736 152.0
350.759552 36.0
350.878845 104.0
351.030212 128.0
351.144928 124.0
351.192108 100.0
351.281616 148.0
351.554016 132.0
351.90863 176.0
351.979584 92.0
352.08786 128.0
352.237274 52.0
352.461456 128.0
352.554871 104.0
352.629608 108.0
352.760437 36.0
352.921204 64.0
353.111938 100.0
353.156799 152.0
353.310181 64.0
353.426178 224.0
353.845367 64.0
353.895416 184.0
353.927765 136.0
354.020264 108.0
354.132507 208.0
354.138336 140.0
354.165649 328.0
354.478394 52.0
354.525635 100.0
354.812012 76.0
354.885529 176.0
355.06955 112.0
355.162018 220.0
355.268616 128.0
356.005219 100.0
356.238098 112.0
356.358337 32.0
356.399658 188.0
356.647705 140.0
356.783051 88.0
356.997375 48.0
357.557922 72.0
357.618134 176.0
357.670837 236.0
357.877899 192.0
358.017242 52.0
358.062439 52.0
358.182953 104.0
358.262054 56.0
358.300812 140.0
358.352478 128.0
358.598022 196.0
358.664368 164.0
358.963135 92.0
359.076263 140.0
359.359192 128.0
359.600708 148.0
359.736603 100.0
359.906494 140.0
360.235107 224.0
360.620514 48.0
360.665619 112.0
360.726349 192.0
361.142303 92.0
361.168793 116.0
361.259247 184.0
361.320099 100.0
361.444977 108.0
361.524445 124.0
361.603912 176.0
361.683411 112.0
361.849976 116.0
361.940857 148.0
362.062042 168.0
362.274139 80.0
362.384003 156.0
362.520447 120.0
362.596222 44.0
362.675812 136.0
362.759216 72.0
363.077728 140.0
363.26358 108.0
363.347046 92.0
363.483643 84.0
363.608887 108.0
363.857269 120.0
364.003693 48.0
364.048492 136.0
364.152435 172.0
364.18219 36.0
364.239166 72.0
364.516541 88.0
364.641937 136.0
364.782593 120.0
364.8396 84.0
365.337799 48.0
365.672668 128.0
366.127594 80.0
366.152405 208.0
366.243805 48.0
366.361908 44.0
366.560028 40.0
366.655304 116.0
366.716278 116.0
366.770752 176.0
366.845886 128.0
366.95993 144.0
367.026978 104.0
367.08609 168.0
367.135681 184.0
367.257721 160.0
367.299683 60.0
367.452271 132.0
367.757568 108.0
367.788116 80.0
367.841553 176.0
367.901123 152.0
367.929352 80.0
367.994263 104.0
368.035217 148.0
368.176178 88.0
368.215759 128.0
368.250488 124.0
368.380005 44.0
368.409241 104.0
368.55957 144.0
368.65509 72.0
368.700958 108.0
368.833313 300.0
368.903534 200.0
368.941772 68.0
369.067932 156.0
369.146118 144.0
369.206818 280.0
369.259796 72.0
369.297394 132.0
369.374237 88.0
369.426422 208.0
369.465546 172.0
369.526947 64.0
369.620544 112.0
369.632294 52.0
369.644135 140.0
369.696503 128.0
369.740845 120.0
369.796997 140.0
369.866272 76.0
369.940277 156.0
369.975311 164.0
370.03598 36.0
370.116394 92.0
370.147034 140.0
370.176666 172.0
370.231873 416.0
370.295715 160.0
370.37561 164.0
370.414307 168.0
370.461914 208.0
370.50058 128.0
370.508728 120.0
370.553162 64.0
370.602478 148.0
370.681213 400.0
370.710327 244.0
370.754761 436.0
370.78595 148.0
370.794983 128.0
370.871246 276.0
370.945831 332.0
371.024139 408.0
371.082916 440.0
371.111969 500.0
371.133636 496.0
371.18808 222332.0
371.280182 260.0
371.330719 264.0
371.405609 88.0
371.440857 176.0
371.500641 240.0
371.549377 364.0
371.595581 204.0
371.645416 172.0
371.691162 228.0
371.700592 184.0
371.749847 268.0
371.820312 1852.0
371.870483 196.0
371.878113 372.0
371.946289 540.0
371.994751 188.0
372.000214 156.0
372.070862 228.0
372.105133 304.0
372.190338 51196.0
372.314606 232.0
372.34967 244.0
372.374573 192.0
372.400665 100.0
372.448181 168.0
372.511658 216.0
372.580353 148.0
372.617859 108.0
372.677094 124.0
372.696289 80.0
372.737488 52.0
372.749969 112.0
372.763519 104.0
372.776611 76.0
372.840393 124.0
372.899933 48.0
372.933716 128.0
372.98999 40.0
373.0271 136.0
373.050873 60.0
373.095886 104.0
373.192505 6776.0
373.249847 100.0
373.261963 220.0
373.315887 120.0
373.393951 84.0
373.445618 96.0
373.480621 244.0
373.524139 92.0
373.567474 140.0
373.607574 96.0
373.649933 100.0
373.70462 76.0
373.742126 136.0
373.787476 104.0
373.861359 112.0
373.916595 44.0
373.942017 156.0
373.986053 80.0
374.012695 180.0
374.042633 104.0
374.091278 180.0
374.139893 232.0
374.191315 1008.0
374.23703 244.0
374.277924 192.0
374.335052 84.0
374.341614 144.0
374.381592 128.0
374.423828 184.0
374.469757 104.0
374.568481 200.0
374.629852 204.0
374.692139 144.0
374.730408 304.0
374.814758 112.0
374.87207 76.0
374.926025 64.0
375.001709 56.0
375.048431 100.0
375.084045 92.0
375.111023 56.0
375.153442 72.0
375.275452 136.0
375.302521 120.0
375.352875 128.0
375.38092 88.0
375.450714 240.0
375.512054 188.0
375.583801 40.0
375.612335 264.0
375.651947 192.0
375.700836 268.0
375.789093 44.0
375.824524 148.0
375.868896 144.0
375.901703 164.0
375.968475 112.0
376.041016 120.0
376.106262 60.0
376.289886 92.0
376.382538 148.0
376.460114 80.0
376.676849 68.0
376.727966 48.0
376.774323 52.0
376.870911 80.0
377.11438 56.0
377.200714 112.0
377.319275 76.0
377.531952 60.0
377.564972 52.0
377.581116 28.0
377.592316 72.0
377.655701 104.0
377.708374 52.0
377.845276 32.0
377.894226 100.0
378.003906 44.0
378.069702 120.0
378.174194 44.0
378.216766 56.0
378.425812 108.0
378.537292 56.0
378.65567 80.0
378.810333 84.0
378.902222 68.0
378.987457 88.0
379.061096 80.0
379.130829 68.0
379.196716 120.0
379.227722 52.0
379.31189 84.0
379.351776 40.0
379.537872 48.0
379.572784 72.0
379.599915 52.0
379.627075 100.0
379.661957 44.0
379.766693 84.0
379.813232 44.0
379.968414 108.0
380.176605 116.0
380.636017 60.0
380.663208 52.0
380.733124 28.0
380.834106 80.0
380.931213 80.0
380.997253 52.0
381.210968 80.0
381.832977 44.0
381.938019 60.0
382.315399 128.0
382.358215 84.0
382.62085 68.0
382.712463 48.0
383.01236 72.0
383.308441 40.0
383.472137 156.0
383.49942 68.0
383.940002 68.0
384.041412 124.0
384.279358 64.0
384.622803 76.0
384.67746 68.0
384.91684 76.0
385.044495 32.0
385.146027 28.0
385.423431 80.0
385.525024 48.0
385.699005 92.0
385.771271 76.0
386.338318 76.0
386.739288 120.0
386.819977 52.0
386.964539 72.0
387.364014 32.0
387.678955 156.0
387.74408 96.0
387.806793 140.0
387.95575 96.0
388.049835 76.0
388.175323 64.0
388.244202 128.0
388.610718 40.0
389.136658 44.0
389.549042 48.0
389.655121 52.0
389.729767 48.0
389.835876 36.0
389.997009 72.0
390.028442 48.0
390.158173 72.0
390.25647 84.0
390.478394 92.0
390.700897 60.0
390.767792 60.0
391.283386 68.0
391.385773 48.0
391.763855 116.0
392.402344 44.0
392.500916 52.0
392.536407 128.0
392.567932 32.0
392.808533 92.0
392.974243 60.0
393.471558 72.0
393.625549 72.0
393.84671 92.0
393.913849 76.0
393.973114 84.0
394.08374 116.0
394.261566 48.0
394.609436 72.0
395.072144 120.0
395.119629 108.0
395.246246 48.0
395.325378 80.0
395.554962 132.0
395.883575 84.0
396.248016 64.0
396.699799 124.0
396.973389 124.0
397.036835 88.0
397.322449 36.0
397.858215 52.0
398.237885 80.0
398.875214 104.0
399.046143 100.0
399.328491 128.0
399.885529 72.0
400.705872 96.0
401.184113 60.0
401.223999 100.0
401.890076 140.0
402.085602 104.0
402.34906 28.0
403.024048 44.0
403.079987 64.0
403.629852 72.0
403.679626 76.0
403.727631 68.0
404.007629 60.0
404.463806 72.0
404.503845 40.0
405.264801 40.0
405.665588 68.0
405.845978 76.0
405.874054 72.0
406.455688 80.0
407.194366 52.0
407.25061 72.0
407.395233 60.0
408.259399 88.0
408.846771 84.0
409.627899 140.0
409.962341 68.0
410.595276 64.0
410.962372 100.0
412.78009 48.0
412.836731 92.0
413.09964 92.0
414.079193 128.0
415.023438 76.0
416.240753 128.0
417.834106 32.0
417.996857 96.0
418.346893 56.0
419.035156 84.0
419.389709 80.0
419.438629 52.0
420.111481 80.0
421.062561 124.0
421.4711 72.0
421.597778 44.0
421.793365 120.0
422.096497 172.0
422.963867 104.0
423.090759 56.0
423.168549 56.0
424.147675 92.0
424.328064 56.0
424.496185 52.0
424.611023 76.0
425.156677 48.0
425.452209 44.0
426.187408 32.0
426.29425 64.0
426.516174 76.0
427.034271 80.0
427.293427 112.0
427.375732 56.0
427.597961 32.0
427.766724 44.0
427.816101 84.0
428.281433 80.0
428.549225 84.0
429.087158 56.0
429.617065 76.0
431.029144 68.0
431.310181 60.0
431.785675 96.0
433.516205 112.0
433.657104 68.0
433.764893 104.0
434.247101 108.0
434.91806 80.0
436.584137 72.0
437.999268 100.0
438.353424 68.0
439.21228 56.0
439.512665 112.0
440.531403 76.0
440.848938 96.0
441.36731 32.0
441.927795 72.0
442.141235 92.0
442.53891 28.0
444.609741 72.0
445.30249 48.0
445.827667 128.0
447.581848 52.0
447.61554 84.0
448.116791 104.0
448.900818 60.0
449.402802 84.0
449.647552 72.0
450.546967 56.0
451.13443 36.0
451.218964 84.0
451.35849 60.0
451.538788 76.0
451.633392 64.0
452.310425 60.0
452.810059 76.0
453.051514 88.0
453.119293 32.0
453.466797 76.0
453.691467 60.0
454.102783 84.0
454.191864 100.0
454.345367 108.0
454.382751 92.0
454.692535 76.0
455.112793 88.0
455.265686 120.0
455.902924 48.0
456.145203 88.0
456.208954 60.0
456.44281 64.0
456.732025 112.0
457.017059 76.0
457.463928 96.0
457.740692 124.0
457.906799 108.0
458.004761 88.0
458.524567 56.0
460.119934 80.0
461.341827 104.0
461.632568 84.0
464.22345 100.0
464.684235 84.0
464.888367 108.0
465.038605 48.0
465.128723 104.0
465.236053 44.0
465.553802 112.0
465.708405 92.0
465.772858 92.0
465.875946 100.0
466.391602 60.0
467.019409 48.0
467.083923 68.0
467.376465 72.0
467.5271 36.0
467.64328 48.0
467.849915 40.0
468.181458 64.0
468.539001 76.0
468.599304 100.0
468.66394 100.0
469.224274 80.0
469.832367 136.0
470.147369 48.0
471.054108 52.0
471.646118 76.0
471.676361 104.0
472.428833 44.0
472.675446 72.0
472.718719 60.0
472.883179 64.0
473.069305 52.0
473.558624 56.0
473.95285 56.0
474.919647 56.0
475.331787 80.0
475.362152 72.0
476.178345 60.0
476.634521 56.0
476.795288 48.0
476.938721 152.0
477.260437 76.0
477.408295 48.0
477.612732 40.0
477.834595 44.0
477.873749 80.0
479.158142 96.0
479.253998 40.0
479.42395 92.0
479.772675 44.0
479.81192 76.0
479.981964 84.0
482.400757 80.0
482.601868 32.0
482.848511 80.0
482.956116 40.0
483.376129 76.0
483.56897 60.0
484.553986 104.0
485.031647 60.0
485.132477 56.0
485.443787 88.0
485.627991 132.0
485.9263 96.0
486.097443 40.0
486.246643 68.0
486.365143 76.0
486.918396 40.0
487.07605 76.0
487.296173 136.0
487.326935 92.0
488.645966 56.0
488.676758 32.0
488.94519 120.0
489.248932 84.0
490.07254 88.0
490.292877 36.0
490.354584 84.0
490.389832 44.0
490.982544 92.0
491.249695 92.0
491.289398 112.0
491.532074 76.0
491.810516 88.0
491.95578 104.0
492.741913 60.0
492.865631 52.0
492.93634 64.0
494.391266 60.0
495.502716 92.0
495.697693 76.0
496.335999 116.0
496.438019 68.0
496.690826 80.0
496.93924 44.0
499.165588 116.0
499.720673 80.0
499.920929 92.0
499.974304 40.0
500.023285 88.0
500.878174 28.0
501.1633 88.0
501.296997 88.0
504.466003 56.0
504.868439 128.0
505.351532 60.0
505.624512 52.0
508.546783 136.0
508.982269 60.0
509.678528 60.0
509.858276 56.0
510.663055 104.0
510.76651 144.0
510.85199 48.0
511.256958 100.0
511.490997 60.0
511.626038 100.0
512.90094 80.0
513.261597 108.0
513.825378 96.0
515.218445 88.0
515.360535 80.0
515.478027 48.0
515.54126 92.0
515.75824 100.0
516.748657 80.0
517.998169 48.0
518.94989 52.0
519.365967 108.0
519.557678 80.0
519.988708 84.0
520.388245 124.0
522.679138 40.0
523.102417 76.0
523.293579 96.0
523.334595 64.0
523.603271 100.0
524.227417 92.0
524.514526 56.0
524.760742 32.0
525.28064 56.0
526.092957 52.0
526.723145 84.0
526.997253 68.0
527.335449 36.0
527.394836 48.0
527.591431 60.0
527.830627 140.0
528.163025 84.0
529.212708 100.0
529.398804 116.0
530.879028 184.0
530.911133 64.0
531.170898 88.0
531.966492 48.0
532.522095 72.0
533.133118 100.0
533.55603 36.0
533.634155 88.0
533.872437 44.0
534.052673 84.0
534.577148 40.0
534.830322 72.0
534.926941 104.0
535.134155 104.0
536.032349 44.0
536.119934 76.0
536.313477 80.0
536.479431 92.0
537.018982 44.0
537.452637 140.0
538.144958 100.0
538.472839 32.0
538.69458 48.0
539.729858 108.0
539.817749 52.0
539.887085 84.0
540.761536 172.0
541.391174 40.0
541.516235 76.0
542.002686 112.0
542.762878 120.0
543.175659 88.0
543.212769 68.0
544.182739 48.0
544.916565 88.0
545.3255 52.0
545.706726 56.0
546.208984 100.0
546.306702 32.0
546.367126 68.0
547.614258 132.0
548.15979 68.0
548.234375 108.0
549.026917 84.0
550.380188 44.0
550.6651 48.0
551.202332 92.0
551.286438 36.0
551.819336 48.0
551.973633 48.0
552.708069 112.0
552.829712 60.0
553.213501 84.0
553.890259 116.0
554.900146 80.0
555.340942 80.0
555.486389 84.0
556.105774 40.0
556.969727 116.0
557.096558 116.0
557.824951 40.0
558.464478 32.0
559.10437 108.0
559.325562 88.0
559.730469 44.0
560.606689 68.0
561.393982 72.0
561.582581 36.0
562.002502 28.0
562.295044 56.0
562.408325 92.0
562.441406 32.0
563.801636 56.0
563.9198 40.0
563.962341 80.0
564.18927 52.0
564.491882 76.0
564.723633 60.0
564.893921 56.0
566.08667 76.0
567.584106 36.0
567.764282 60.0
568.006165 164.0
568.466431 80.0
568.831909 72.0
569.643921 40.0
569.691406 76.0
570.80835 36.0
570.851196 60.0
571.203125 44.0
571.58374 72.0
571.636108 84.0
571.793152 60.0
573.302856 36.0
576.280518 96.0
576.42865 124.0
576.92572 120.0
577.045288 124.0
577.48999 116.0
579.160522 96.0
579.342529 52.0
579.57251 56.0
579.721069 116.0
580.607971 76.0
581.519592 44.0
581.6828 40.0
581.898804 104.0
582.090881 76.0
582.86908 60.0
584.975708 124.0
585.028625 56.0
585.067139 64.0
585.466797 64.0
585.505371 88.0
587.795288 72.0
589.336853 88.0
589.437073 60.0
589.809265 96.0
590.698975 80.0
591.037659 76.0
591.516785 68.0
591.66687 120.0
593.105652 116.0
593.740845 52.0
593.81842 68.0
595.405518 72.0
596.746704 52.0
596.834229 60.0
596.93634 32.0
597.055176 92.0
597.24762 136.0
597.972595 60.0
598.069946 64.0
599.66272 116.0
600.018555 92.0
600.325745 60.0
600.754944 96.0
601.828735 148.0
602.224304 96.0
602.551575 64.0
603.974182 80.0
604.390015 92.0
605.070374 72.0
607.918274 68.0
608.252014 80.0
611.481384 108.0
611.604431 76.0
611.833923 84.0
612.505554 104.0
613.427063 88.0
613.663696 128.0
613.730164 92.0
615.38147 84.0
616.300659 80.0
616.62561 76.0
617.169434 96.0
617.738159 52.0
618.183472 96.0
618.425964 68.0
619.138977 192.0
619.52533 44.0
619.812683 76.0
620.645447 52.0
620.888428 72.0
622.084229 84.0
622.958252 100.0
624.568909 60.0
624.897217 80.0
625.379944 112.0
625.414795 56.0
625.653748 48.0
625.897705 80.0
626.545227 72.0
626.699646 48.0
627.970886 72.0
628.015808 112.0
628.449829 40.0
630.922119 32.0
631.052124 84.0
631.597229 76.0
631.767273 88.0
633.319092 80.0
633.805054 96.0
634.51178 84.0
634.767517 56.0
635.198853 116.0
635.740723 72.0
635.941467 32.0
637.493408 72.0
638.690002 100.0
639.87262 40.0
640.411499 92.0
640.703674 136.0
641.479736 88.0
644.360352 72.0
644.710083 36.0
644.917358 76.0
645.038635 100.0
645.478516 60.0
646.120911 72.0
647.224304 68.0
647.908081 48.0
647.948608 116.0
648.54657 52.0
648.926758 40.0
649.322327 56.0
651.276428 88.0
651.799744 56.0
651.860718 84.0
654.261475 80.0
654.317505 60.0
654.439697 40.0
654.592468 112.0
656.748291 44.0
657.324829 84.0
657.865845 80.0
658.013916 76.0
658.785095 72.0
659.311401 72.0
659.561829 60.0
659.965698 92.0
662.125244 104.0
662.396729 44.0
663.534424 48.0
664.272156 104.0
664.560242 84.0
664.729553 84.0
664.878418 64.0
666.341858 60.0
666.454895 64.0
667.040833 92.0
667.467529 64.0
668.084778 84.0
668.398621 92.0
668.733154 80.0
669.31488 36.0
670.23175 64.0
670.948181 56.0
671.11322 64.0
672.423523 68.0
673.895264 64.0
676.62616 108.0
676.859192 88.0
677.304565 48.0
677.397827 60.0
677.947021 184.0
677.99884 124.0
679.035767 96.0
679.570129 68.0
680.198059 72.0
681.917358 76.0
683.529602 40.0
684.38324 96.0
684.627991 80.0
684.94574 92.0
688.894653 60.0
690.373901 56.0
690.923096 96.0
691.336487 52.0
691.394043 44.0
691.865173 96.0
692.137451 40.0
692.975525 172.0
693.127441 36.0
695.057129 96.0
695.608215 60.0
696.390625 104.0
696.47467 64.0
697.162964 116.0
698.025085 40.0
698.109253 52.0
698.404114 68.0
698.872009 48.0
700.140686 108.0
700.298645 84.0
701.447388 84.0
701.937683 72.0
703.356934 48.0
704.719482 100.0
705.078857 72.0
705.586304 36.0
705.829529 56.0
707.358582 84.0
710.641663 108.0
712.045898 76.0
713.177612 68.0
713.283875 48.0
713.422119 72.0
714.299561 92.0
716.306458 128.0
717.366943 84.0
718.470825 72.0
718.791016 60.0
719.426147 60.0
720.189758 104.0
720.665222 48.0
720.916382 120.0
723.735474 60.0
727.273804 32.0
727.386536 96.0
729.788025 124.0
731.520447 72.0
733.551331 32.0
735.741638 52.0
736.432861 104.0
736.8974 64.0
736.935242 72.0
737.491882 60.0
738.946594 68.0
739.769226 120.0
741.204529 100.0
741.892883 72.0
743.791565 108.0
749.028137 116.0
749.098938 52.0
749.295044 100.0
749.333191 40.0
749.965332 76.0
750.063477 100.0
750.139771 48.0
750.82135 52.0
751.945251 96.0
753.528931 132.0
753.993408 120.0
754.993896 96.0
756.186584 92.0
757.139221 52.0
758.004822 56.0
758.657043 104.0
760.588013 104.0
762.609436 68.0
762.708374 72.0
765.239014 100.0
765.937744 96.0
767.001892 116.0
768.121338 40.0
769.677734 92.0
769.931763 60.0
770.723572 72.0
772.175659 60.0
772.319458 32.0
772.739868 144.0
773.747192 88.0
774.245544 80.0
774.705322 92.0
774.766235 52.0
775.09314 84.0
776.140808 76.0
776.423645 68.0
778.199402 84.0
778.699158 224.0
778.988037 40.0
782.103699 120.0
783.421814 52.0
785.835876 52.0
786.17627 80.0
787.270508 136.0
787.326355 48.0
789.489197 52.0
791.626953 124.0
792.523254 56.0
793.745178 112.0
794.050598 80.0
794.6427 56.0
794.867126 120.0
795.001831 92.0
795.349792 92.0
796.59082 96.0
798.102661 80.0
798.344482 96.0
798.648193 92.0
799.15448 92.0
799.385193 52.0
799.565308 100.0
803.058533 56.0
805.497009 100.0
805.994202 72.0
808.193787 68.0
809.06543 88.0
809.467407 64.0
810.549377 48.0
813.697449 44.0
814.469788 68.0
818.194641 28.0
819.083008 64.0
819.345093 92.0
822.007874 96.0
822.167664 100.0
822.361694 52.0
822.846924 116.0
823.583618 56.0
824.566345 32.0
824.835022 68.0
825.069397 64.0
825.509705 68.0
827.529602 96.0
827.850281 68.0
828.778259 52.0
830.199951 80.0
831.238281 64.0
832.684998 60.0
833.316895 80.0
833.736389 52.0
843.881958 144.0
845.270203 60.0
851.00293 104.0
851.769531 140.0
853.513123 68.0
853.768982 56.0
854.001648 68.0
861.585693 56.0
862.216797 88.0
868.288147 156.0
868.516907 64.0
871.434631 68.0
873.133484 104.0
873.404053 104.0
873.45697 72.0
875.222595 108.0
875.952942 76.0
878.523193 72.0
880.264404 92.0
881.416321 76.0
887.080444 64.0
887.901978 72.0
890.296387 120.0
891.853027 36.0
892.286987 60.0
892.548645 116.0
892.964905 52.0
893.381287 100.0
896.400024 168.0
897.496887 76.0
904.289368 104.0
908.106079 144.0
909.360046 56.0
911.299805 80.0
912.339539 48.0
912.67627 108.0
912.832581 60.0
913.000977 60.0
914.324585 40.0
915.414246 84.0
916.269531 36.0
920.304626 60.0
922.358704 80.0
922.775879 68.0
922.920959 44.0
925.002197 88.0
926.782776 80.0
927.843445 44.0
929.02002 100.0
929.274841 80.0
930.130554 144.0
930.925903 124.0
932.450806 68.0
933.569458 64.0
934.786194 176.0
935.480042 168.0
936.527405 52.0
937.282837 124.0
938.392212 56.0
939.131714 108.0
943.594177 228.0
944.450317 28.0
945.221191 68.0
945.980164 68.0
947.572449 116.0
952.805908 68.0
953.469604 96.0
958.004517 40.0
958.534424 184.0
963.013428 80.0
964.490173 64.0
964.880615 76.0
965.454712 68.0
967.465698 92.0
970.842651 56.0
972.834412 80.0
972.927551 160.0
974.449219 72.0
974.79718 92.0
977.576904 108.0
978.660034 128.0
979.313965 136.0
980.223572 104.0
980.641113 80.0
982.044006 64.0
982.986084 76.0
984.740417 284.0
990.125488 124.0
990.18811 60.0
992.663635 40.0
993.096375 92.0
994.137817 136.0
996.291565 84.0
998.145752 68.0
998.636292 76.0
1002.060852 80.0
1004.00238 148.0
1004.330383 56.0
1005.77533 56.0
1006.583496 80.0
1009.648499 104.0
1010.379333 172.0
1013.243958 172.0
1015.481689 76.0
1015.595825 104.0
1017.709167 120.0
1018.210876 92.0
1018.738098 44.0
1019.27179 60.0
1020.225159 84.0
1021.878784 84.0
1023.056213 76.0
1024.539795 100.0
1024.845947 64.0
1026.216309 48.0
1028.213013 72.0
1028.902344 96.0
1030.345825 96.0
1031.093384 68.0
1033.446777 84.0
1033.741089 100.0
1034.221069 116.0
1036.513916 144.0
1038.373047 84.0
1039.418701 112.0
1039.996338 96.0
1041.241943 56.0
1042.134888 44.0
1044.288452 164.0
1047.030273 124.0
1048.821533 116.0
1049.446899 84.0
1052.434326 36.0
1053.603394 44.0
1055.342041 76.0
1056.383301 60.0
1057.703369 104.0
1058.176025 88.0
1061.383423 116.0
1062.155151 116.0
1062.304321 128.0
1062.823364 76.0
1063.095947 76.0
1064.478638 112.0
1065.01123 64.0
1065.075806 76.0
1068.430664 196.0
1071.496704 60.0
1071.686035 128.0
1073.674316 96.0
1075.011719 80.0
1076.062622 280.0
1076.154053 104.0
1079.950928 104.0
1081.351196 64.0
1082.241455 60.0
1084.239502 112.0
1085.367065 48.0
1085.432617 120.0
1086.108154 48.0
1086.724854 72.0
1090.099976 76.0
1094.513916 92.0
1095.692993 192.0
1097.083496 108.0
1098.250732 112.0
1098.620117 100.0
1099.431763 168.0
1099.477905 72.0
1101.491821 68.0
1103.044678 40.0
1104.373779 136.0
1106.028076 96.0
1110.991577 68.0
1112.61084 68.0
1113.201782 76.0
1114.41748 196.0
1114.570312 104.0
1117.629028 152.0
1118.168091 52.0
1120.838501 32.0
1123.438843 40.0
1123.712402 228.0
1131.411743 144.0
1132.282349 44.0
1132.865112 136.0
1133.863403 72.0
1134.453369 172.0
1135.687134 76.0
1136.747192 80.0
1138.297974 96.0
1138.956177 44.0
1140.105103 68.0
1141.651367 228.0
1141.866577 136.0
1146.909668 208.0
1147.179321 128.0
1149.614258 80.0
1150.991333 240.0
1158.75647 72.0
1162.173706 180.0
1163.449707 48.0
1165.50769 64.0
1166.493164 124.0
1168.683105 124.0
1170.589111 80.0
1174.965088 120.0
1180.012451 100.0
1180.805664 152.0
1181.831787 116.0
1183.885498 96.0
1185.735229 176.0
1186.393311 56.0
1187.716797 56.0
1188.91748 96.0
1189.672607 40.0
1191.176514 44.0
1191.382568 68.0
1191.547485 36.0
1192.798218 112.0
1193.265747 168.0
1193.939575 84.0
1198.317749 152.0
1202.006714 60.0
1202.752075 128.0
1202.931519 96.0
1203.338867 252.0
1204.153687 160.0
1205.597656 28.0
1206.655273 36.0
1208.287598 152.0
1208.356689 160.0
1211.202026 176.0
1212.532349 164.0
1212.962158 68.0
1213.662354 152.0
1214.640259 112.0
1217.298462 108.0
1217.43042 140.0
1218.020874 60.0
1218.125 168.0
1220.355957 40.0
1223.027466 176.0
1223.723633 72.0
1223.807129 136.0
1224.957153 152.0
1226.893677 76.0
1227.465454 72.0
1229.781616 180.0
1230.158569 84.0
1231.254883 88.0
1232.700928 156.0
1233.078369 52.0
1234.126953 100.0
1236.708496 64.0
1239.958374 112.0
1240.168579 104.0
1243.956543 172.0
1244.307617 140.0
1247.173828 168.0
1247.293335 128.0
1248.572998 132.0
1250.690796 204.0
1251.042725 120.0
1253.057007 116.0
1253.966064 68.0
1254.099976 88.0
1255.058838 84.0
1256.144897 36.0
1256.363647 60.0
1257.443237 96.0
1258.586914 40.0
1258.883545 48.0
1259.243652 112.0
1259.879395 52.0
1261.412964 84.0
1262.353271 164.0
1263.492188 88.0
1265.247314 180.0
1266.415771 84.0
1268.236816 52.0
1269.115845 116.0
1269.222168 268.0
1272.599731 48.0
1272.777222 160.0
1273.437744 104.0
1275.811157 144.0
1276.244873 172.0
1279.275757 112.0
1279.581909 180.0
1279.987793 68.0
1280.215576 196.0
1281.105957 88.0
1281.319702 184.0
1281.633179 120.0
1281.797119 48.0
1282.089233 128.0
1282.816284 140.0
1283.172729 100.0
1283.386719 32.0
1284.870239 132.0
1285.027222 88.0
1285.683716 48.0
1286.211914 116.0
1286.290405 152.0
1286.85437 92.0
1287.061523 108.0
1288.154175 156.0
1288.347046 32.0
1288.532837 168.0
1288.818604 160.0
1288.954468 152.0
1289.376099 44.0
1290.627075 148.0
1291.947998 220.0
1293.660645 228.0
1293.925537 104.0
1294.412476 224.0
1294.541382 168.0
1294.663086 172.0
1294.978271 180.0
1296.712158 200.0
1296.941528 168.0
1297.701416 120.0
1297.995483 140.0
1298.095825 172.0
1299.394165 52.0
1299.709839 152.0
1299.996826 108.0
1301.123779 208.0
1301.195679 180.0
1301.540283 72.0
1303.156372 136.0
1303.357666 136.0
1305.248169 52.0
1306.161499 144.0
1307.240723 72.0
1308.068481 168.0
1308.738037 76.0
1309.667114 76.0
1309.911987 200.0
1311.122437 112.0
1311.317017 136.0
1311.67749 152.0
1313.52356 248.0
1314.035767 132.0
1317.024414 148.0
1317.118408 44.0
1317.892822 228.0
1318.7948 144.0
1318.939331 212.0
1319.481567 160.0
1319.806885 148.0
1320.125 136.0
1321.658691 68.0
1322.498169 148.0
1323.692749 124.0
1323.830322 168.0
1324.677734 44.0
1325.271851 48.0
1325.960327 200.0
1326.213989 224.0
1326.344482 164.0
1327.040405 96.0
1327.722046 192.0
1327.787354 120.0
1327.939697 140.0
1328.628784 136.0
1330.305176 96.0
1332.106201 68.0
1332.382202 248.0
1332.476685 100.0
1332.736816 124.0
1335.391724 152.0
1336.257446 196.0
1337.938721 160.0
1338.328735 132.0
1338.659546 148.0
1339.089233 64.0
1340.043579 152.0
1342.1427 88.0
1342.223022 128.0
1342.346924 76.0
1343.244019 156.0
1343.674438 148.0
1343.805786 88.0
1343.937134 168.0
1345.666992 128.0
1345.805786 52.0
1346.360718 116.0
1348.552612 232.0
1348.801147 108.0
1349.86853 144.0
1351.455933 108.0
1351.96814 120.0
1352.053711 136.0
1352.187744 80.0
1352.246216 216.0
1352.34314 136.0
1352.970947 208.0
1353.629883 88.0
1353.944824 116.0
1354.897095 68.0
1355.234131 188.0
1356.72937 116.0
1356.895508 160.0
1357.147217 88.0
1357.814575 40.0
1358.063965 156.0
1358.584717 48.0
1359.648804 116.0
1360.155151 128.0
1360.500244 140.0
1360.962769 100.0
1361.468018 124.0
1362.240723 48.0
1362.365601 92.0
1362.593384 96.0
1363.445801 228.0
1364.394043 88.0
1367.218628 132.0
1367.623413 104.0
1367.807495 72.0
1367.903198 116.0
1368.661499 36.0
1369.36853 56.0
1371.062988 176.0
1371.674805 144.0
1373.215942 164.0
1374.632446 176.0
1378.19165 176.0
1378.731079 128.0
1379.108032 212.0
1380.786499 128.0
1381.836914 76.0
1382.044067 156.0
1382.251221 184.0
1382.539917 32.0
1382.835938 60.0
1383.41333 188.0
1384.531372 52.0
1385.679565 180.0
1386.124146 204.0
1387.710449 180.0
1388.414917 160.0
1388.540894 156.0
1389.253052 152.0
1389.319824 224.0
1389.91333 108.0
1390.384033 152.0
1393.165405 88.0
1394.228027 156.0
1394.480713 124.0
1395.45459 56.0
1397.194946 104.0
1397.336304 48.0
1397.633911 116.0
1398.281372 112.0
1398.355835 184.0
1398.415283 44.0
1399.383057 132.0
1399.710693 180.0
1399.881958 132.0
1401.453735 88.0
1401.722046 64.0
1402.12439 84.0
1402.459839 144.0
1402.556763 144.0
1402.735596 144.0
1403.369385 164.0
1403.869019 48.0
1404.062866 48.0
1405.375854 220.0
1405.584717 60.0
1407.966187 160.0
1408.033447 120.0
1408.578613 120.0
1408.862549 108.0
1409.677002 128.0
1410.81311 132.0
1411.717896 164.0
1412.024536 180.0
1412.780029 84.0
1413.745239 244.0
1413.887451 96.0
1414.126953 80.0
1414.853027 152.0
1416.186035 192.0
1417.719849 380.0
1417.879272 116.0
1418.418945 40.0
1419.378662 172.0
1419.596069 136.0
1420.976318 60.0
1421.208862 164.0
1421.31189 148.0
1421.561646 264.0
1422.484741 100.0
1422.6875 80.0
1422.890137 132.0
1423.693604 92.0
1423.746216 32.0
1424.933105 168.0
1425.331299 172.0
1425.421509 108.0
1425.631958 148.0
1426.39856 76.0
1426.54895 96.0
1426.894775 88.0
1427.323364 136.0
1427.421143 196.0
1427.699341 112.0
1427.962524 224.0
1428.571899 124.0
1428.792114 72.0
1429.602661 200.0
1429.963989 108.0
1431.176025 100.0
1432.735107 76.0
1433.918091 188.0
1434.679443 60.0
1435.041382 140.0
1435.456055 96.0
1436.044312 152.0
1436.391357 176.0
1437.210571 148.0
1437.628784 40.0
1438.307983 156.0
1438.964844 140.0
1439.022095 176.0
1439.870972 144.0
1440.006958 96.0
1440.528076 84.0
1440.926636 196.0
1442.855835 60.0
1443.634644 100.0
1444.769287 104.0
1444.859985 76.0
1446.2146 148.0
1446.509766 124.0
1447.138184 144.0
1447.301514 120.0
1448.039307 44.0
1448.137817 128.0
1448.395386 48.0
1449.152954 204.0
1449.236328 168.0
1449.486328 96.0
1450.115356 224.0
1450.464111 80.0
1451.047852 140.0
1451.199463 120.0
1452.147339 36.0
1452.87561 144.0
1453.543335 180.0
1454.924683 36.0
1455.403076 80.0
1455.547363 116.0
1455.699219 88.0
1455.858643 80.0
1456.170044 92.0
1456.597412 124.0
1457.248779 100.0
1457.484375 32.0
1457.833862 184.0
1458.223877 104.0
1458.436646 120.0
1459.323853 160.0
1459.597534 200.0
1459.840942 116.0
1460.259155 76.0
1460.45459 152.0
1461.134033 180.0
1462.016724 220.0
1462.549438 120.0
1463.013794 196.0
1463.13562 52.0
1463.21936 144.0
1463.600098 76.0
1464.11792 204.0
1464.468262 92.0
1464.940552 96.0
1465.024414 144.0
1465.283447 180.0
1465.984375 116.0
1466.449341 92.0
1466.586548 120.0
1467.928345 140.0
1467.981689 212.0
1468.363037 156.0
1469.736206 44.0
1470.178833 128.0
1471.087158 128.0
1471.6521 144.0
1472.013428 116.0
1472.847656 212.0
1473.11084 160.0
1473.313721 212.0
1473.798462 168.0
1474.073608 60.0
1474.402222 180.0
1474.837891 68.0
1474.990723 360.0
1475.044312 76.0
1475.220093 120.0
1475.785889 132.0
1476.604126 144.0
1477.001831 116.0
1477.246582 168.0
1477.430298 116.0
1477.636841 132.0
1478.488647 148.0
1478.807617 92.0
1479.588501 176.0
1480.185669 228.0
1480.545654 36.0
1481.495483 148.0
1481.556763 188.0
1482.039429 160.0
1482.146729 124.0
1482.644775 148.0
1482.890137 180.0
1483.970947 108.0
1484.055298 304.0
1484.136841 144.0
1484.668823 176.0
1484.887451 116.0
1485.443481 40.0
1485.531128 144.0
1486.072632 52.0
1486.532959 80.0
1487.208374 128.0
1487.262085 108.0
1487.84729 164.0
1488.091187 40.0
1488.290894 212.0
1488.413696 152.0
1488.51355 104.0
1488.644165 196.0
1488.81311 152.0
1489.212402 120.0
1489.42749 80.0
1489.489014 212.0
1490.234131 128.0
1490.971924 120.0
1491.12561 80.0
1491.702148 120.0
1491.809692 124.0
1491.978882 64.0
1492.263306 152.0
1492.978516 52.0
1493.255371 36.0
1493.393799 312.0
1493.615112 136.0
1493.778442 36.0
1494.740112 164.0
1495.101807 120.0
1495.194214 132.0
1495.694458 100.0
1496.002441 72.0
1496.265137 64.0
1496.364258 160.0
1496.618408 152.0
1496.764648 216.0
1497.125732 100.0
1497.688843 76.0
1497.742798 132.0
1498.174194 88.0
1498.545288 96.0
1498.790527 176.0
1499.206665 168.0
1499.645996 156.0
1499.769287 128.0
1500.586548 140.0
1501.442505 196.0
1501.565918 40.0
1502.406616 56.0
1503.656738 148.0
1503.81311 92.0
1504.098755 212.0
1504.251099 44.0
