>compound MLS000728636-01!
>formula C16H19NO3
>ionization [M+H]+
>parentmass 274.144
#inchi InChI=1S/C16H19NO3/c1-16-10-5-11(18)6-13(16)20-15-12(19)4-3-9(14(15)16)7-17(2)8-10/h3-5,11,13,18-19H,6-8H2,1-2H3/t11?,13?,16-/m1/s1
#inchikey KWMCQXUGMGAAIP
#Ion_Source LC-ESI
#Instrument qTof
#Compound_Source NIH Natural Product Library
#PI Dorrestein
#Data_Collector VVP/LMS
#Scan -1
#Precursor_MZ 274.144
#ExactMass 273.137
#Charge 1
#CAS_Number N/A
#Pubmed_ID N/A
#Smiles CN1CC2=CC(O)CC3Oc4c(c(C1)ccc4O)[C@@]32C
#INCHI_AUX N/A
#Library_Class 3
#SpectrumID CCMSLIB00000080534
#IonMode Positive
#UpdateWorkflowName UPDATE-SINGLE-ANNOTATED-BRONZE
#LibraryQualityString Bronze
#TaskID b1d8e8f6646f4e71acdff9ca3d919d08
##Scan# 178
#SpectrumFile p2-C10_GC10_01_18010.mzXML
#LibraryName NIH_Natural_Products_Library.mgf
#MQScore -1
#Organism NIH_Natural_Products_Library
#TIC_Query 0
#RT_Query -1
#MZErrorPPM -1
#SharedPeaks 0
#MassDiff 0
#LibMZ -1
#SpecMZ 274.144
#SpecCharge 0
#internalFilename spec-00000.mgf

>collision 10
97.745613 172.0
99.003067 44.0
99.320175 212.0
99.770943 136.0
101.19342 188.0
101.271523 128.0
103.290382 84.0
105.110725 44.0
115.052017 204.0
115.14827 180.0
116.499847 136.0
119.094131 168.0
120.069176 176.0
120.355042 144.0
122.064171 132.0
123.045547 88.0
123.104263 168.0
123.236794 156.0
123.564011 188.0
123.625961 212.0
124.046776 156.0
124.206429 172.0
124.541595 52.0
125.293465 36.0
125.516342 80.0
126.779335 36.0
127.05764 180.0
128.06192 472.0
128.700363 76.0
129.063828 248.0
129.396729 200.0
130.076813 72.0
130.292557 176.0
131.049454 132.0
131.405838 180.0
131.828262 152.0
132.059891 212.0
133.058243 104.0
133.102951 400.0
133.212112 176.0
133.432724 200.0
133.934387 144.0
134.094437 164.0
134.501602 192.0
134.834198 40.0
134.947464 76.0
135.146378 180.0
135.804276 116.0
136.94548 164.0
137.120209 132.0
137.269409 192.0
139.120102 64.0
140.931198 128.0
141.068268 196.0
142.086578 152.0
143.086243 296.0
144.093552 152.0
144.660339 80.0
145.069122 344.0
145.588226 156.0
146.073715 160.0
146.191605 152.0
146.444397 132.0
147.044739 160.0
147.07933 272.0
148.052856 200.0
148.08696 232.0
149.933197 100.0
149.994125 144.0
151.000076 152.0
151.058029 184.0
151.261871 172.0
152.063446 396.0
152.990051 180.0
153.073059 280.0
153.670242 56.0
154.078018 184.0
155.047562 180.0
155.079788 144.0
156.057663 228.0
156.699982 124.0
157.069717 200.0
158.073257 144.0
158.103287 192.0
160.162048 148.0
161.060349 244.0
161.098358 272.0
161.380936 172.0
161.730042 44.0
164.697311 148.0
165.068008 344.0
165.090897 236.0
165.364639 152.0
165.848709 72.0
166.081268 132.0
166.479843 32.0
166.580002 60.0
167.00412 168.0
167.090729 168.0
167.810135 100.0
168.928375 112.0
169.066223 188.0
169.10173 136.0
170.073685 164.0
170.933899 188.0
171.084244 312.0
171.699768 36.0
172.082672 348.0
172.833481 128.0
172.946014 132.0
173.058578 176.0
174.065445 156.0
174.09433 128.0
174.559464 220.0
175.069962 180.0
176.085297 212.0
176.738235 180.0
178.076965 292.0
180.184006 136.0
180.780258 224.0
181.026535 120.0
181.066956 668.0
181.101517 260.0
181.192596 72.0
181.578583 36.0
182.073441 532.0
182.507721 128.0
182.930099 164.0
183.083572 68.0
183.617172 124.0
183.905853 116.0
184.052872 3480.0
184.148849 68.0
184.20018 116.0
184.305542 96.0
184.529861 112.0
184.989777 116.0
185.058212 564.0
185.409592 108.0
185.48671 44.0
185.626465 84.0
186.055145 172.0
186.204483 44.0
186.516953 48.0
186.549561 196.0
186.848709 100.0
189.088196 172.0
189.721695 40.0
190.067261 188.0
190.094711 116.0
191.088409 180.0
192.083862 152.0
192.826584 204.0
194.022369 120.0
194.073486 312.0
194.252533 132.0
194.396805 48.0
195.085602 160.0
197.062531 388.0
197.094833 608.0
197.939789 84.0
198.066177 152.0
199.077042 4408.0
199.707809 88.0
199.856903 40.0
200.045456 88.0
200.081604 768.0
200.744186 52.0
201.060684 144.0
201.082718 220.0
201.367874 96.0
201.981201 100.0
202.7258 68.0
205.056168 156.0
207.082718 152.0
207.110458 204.0
208.083359 332.0
209.068909 196.0
209.07489 164.0
209.091354 204.0
209.095627 356.0
210.069061 208.0
210.100006 152.0
210.123093 236.0
210.299118 36.0
211.079666 376.0
213.049973 172.0
213.102264 180.0
215.065628 132.0
216.067307 60.0
216.102417 180.0
217.089386 340.0
218.099472 172.0
222.088501 136.0
223.086197 168.0
223.118896 188.0
224.106995 100.0
225.091156 156.0
225.506546 104.0
227.11438 192.0
228.162369 160.0
228.739944 176.0
232.633408 144.0
235.08046 124.0
241.12117 208.0
244.622986 80.0
244.862732 88.0
254.253784 200.0
256.137756 192.0
257.14035 144.0
258.143463 196.0
259.385651 92.0
283.721802 84.0
314.960541 84.0
318.808136 148.0
336.771057 20.0
369.612091 64.0
486.864441 112.0
893.179016 164.0
1042.84436 64.0
1064.285034 136.0
1067.059204 20.0
1102.435181 196.0
1138.434937 64.0
1144.628052 192.0
1147.147705 56.0
1201.894653 96.0
1201.949829 80.0
1218.170776 188.0
1219.199097 124.0
1222.975464 168.0
1340.796753 148.0
1385.086304 156.0
1438.416748 140.0
1453.977783 140.0
1472.362793 44.0
1479.963623 76.0
1486.156494 220.0
1495.323853 184.0
