>compound Clopidogrel (Plavix)
>formula C16H16ClNO2S
>ionization [M+H]+
>parentmass 322.06630388409053
#inchi InChI=1S/C16H16ClNO2S/c1-20-16(19)15(12-4-2-3-5-13(12)17)18-8-6-14-11(10-18)7-9-21-14/h2-5,7,9,15H,6,8,10H2,1H3/t15-/m0/s1
#inchikey GKTWGGQPFAXNFI
#origInchi InChI=1S/C16H16ClNO2S.H2O4S/c1-20-16(19)15(12-4-2-3-5-13(12)17)18-8-6-14-11(10-18)7-9-21-14;1-5(2,3)4/h2-5,7,9,15H,6,8,10H2,1H3;(H2,1,2,3,4)/t15-;/m0./s1
#Ion_Source LC-ESI
#Instrument qTof
#Compound_Source Commercial
#PI Dorrestein
#Data_Collector Garg_Neha
#Scan -1
#Precursor_MZ 322.066
#ExactMass 321.059
#Charge 1
#CAS_Number 120202-66-6, 113665-84-2 (free base)
#Pubmed_ID N/A
#Smiles C1(=CC=CC(=C1Cl)[C@H](N2CCC3=C(C2)C=CS3)C(=O)OC).OS(O)(=O)=O
#INCHI_AUX N/A
#Library_Class 1
#SpectrumID CCMSLIB00000078139
#IonMode Positive
#UpdateWorkflowName UPDATE-SINGLE-ANNOTATED-GOLD
#LibraryQualityString Gold
#TaskID 77f51c88eb8b467eb4a01dd2d0cb90d2
##Scan# 1532
#SpectrumFile Plate2_61_88_GG8_01_16496.mzXML
#LibraryName FDALibrary_2_04302014.mgf
#MQScore -1
#Organism FDALibrary_2_04302014
#TIC_Query 0
#RT_Query -1
#MZErrorPPM -1
#SharedPeaks 0
#MassDiff 0
#LibMZ -1
#SpecMZ 322.066
#SpecCharge 0
#internalFilename spec-00000.mgf

>collision 10
44.911091 172.0
44.963406 144.0
44.975418 188.0
45.064205 380.0
45.171844 212.0
45.191914 140.0
45.209309 192.0
45.286644 136.0
45.303722 412.0
45.327148 212.0
45.37138 176.0
45.412949 232.0
45.431728 168.0
45.464317 168.0
45.49749 164.0
45.547554 156.0
45.777157 168.0
45.812176 164.0
45.853947 176.0
45.878918 160.0
45.926754 172.0
45.936642 256.0
45.994221 160.0
46.048229 180.0
46.058022 176.0
46.072544 208.0
46.087448 132.0
46.098488 156.0
46.142822 148.0
46.156036 168.0
46.18129 148.0
46.205303 176.0
46.218624 176.0
46.2682 236.0
46.311974 440.0
46.339069 192.0
46.351532 144.0
46.395988 256.0
46.435383 156.0
46.480118 148.0
46.564217 176.0
46.592773 324.0
46.633648 200.0
46.682484 180.0
46.724094 128.0
46.742752 196.0
46.758667 176.0
46.786243 172.0
46.796783 160.0
46.844448 164.0
46.910099 136.0
46.960442 164.0
47.033989 172.0
47.061295 148.0
47.079956 144.0
47.111824 188.0
47.168247 180.0
47.199715 196.0
47.233925 176.0
47.267189 120.0
47.329876 112.0
47.339787 204.0
47.355335 188.0
47.379963 184.0
47.457275 144.0
47.552742 148.0
47.570705 232.0
47.626884 160.0
47.657108 204.0
47.672565 168.0
47.724457 276.0
47.733532 180.0
47.78072 212.0
47.830513 176.0
47.884087 300.0
47.913841 192.0
47.970894 152.0
48.026966 204.0
48.043335 220.0
48.070553 172.0
48.100838 180.0
48.131702 108.0
48.143364 168.0
48.160511 260.0
48.177895 104.0
48.190327 156.0
48.209675 152.0
48.230774 180.0
48.239784 224.0
48.318909 140.0
48.342468 144.0
48.378853 140.0
48.38987 176.0
48.456848 228.0
48.530155 176.0
48.555054 192.0
48.586292 164.0
48.609882 172.0
48.664017 240.0
48.701511 152.0
48.715401 144.0
48.756031 132.0
48.776543 152.0
48.787663 212.0
48.802959 208.0
48.868328 132.0
48.902084 140.0
48.93792 172.0
48.96788 300.0
49.117287 176.0
49.225204 136.0
49.236336 188.0
49.341805 284.0
49.371895 212.0
49.429253 172.0
49.456783 264.0
49.497078 132.0
49.521759 204.0
49.612732 208.0
49.657604 188.0
49.715885 148.0
49.726349 184.0
49.77689 156.0
49.821835 160.0
49.856129 108.0
49.878044 172.0
49.88929 164.0
49.9146 184.0
49.979683 140.0
50.006466 132.0
50.037544 236.0
50.086807 176.0
50.165211 164.0
50.179516 188.0
50.210945 156.0
50.341816 140.0
50.369747 152.0
50.409382 148.0
50.452591 224.0
50.479572 184.0
50.513931 148.0
50.533813 164.0
50.601749 248.0
50.613983 156.0
50.66098 136.0
50.738255 172.0
50.787796 120.0
50.810825 164.0
50.929905 100.0
50.950638 324.0
51.003216 232.0
51.021088 140.0
51.035915 216.0
51.054195 188.0
51.075733 244.0
51.085674 184.0
51.10664 160.0
51.11808 136.0
51.144352 208.0
51.17865 156.0
51.228046 144.0
51.241936 192.0
51.305336 204.0
51.325596 160.0
51.337795 204.0
51.364895 160.0
51.384869 160.0
51.399136 200.0
51.41626 384.0
51.42625 196.0
51.436241 208.0
51.464554 212.0
51.543354 172.0
51.619118 148.0
51.631157 152.0
51.694252 168.0
51.721554 140.0
51.737873 152.0
51.775101 184.0
51.792286 176.0
51.830544 284.0
51.846733 256.0
51.975792 264.0
52.024151 272.0
52.132317 260.0
52.197002 176.0
52.209946 184.0
52.221451 148.0
52.235298 224.0
52.260227 272.0
52.289074 192.0
52.343777 184.0
52.356327 140.0
52.373863 328.0
52.389919 168.0
52.402733 172.0
52.492199 164.0
52.545567 180.0
52.583084 200.0
52.607815 120.0
52.635777 140.0
52.682686 176.0
52.7463 172.0
52.775734 172.0
52.89674 184.0
52.960453 148.0
52.972038 148.0
53.013882 164.0
53.041706 156.0
53.12215 152.0
53.148552 160.0
53.195358 176.0
53.20697 196.0
53.254498 148.0
53.270348 212.0
53.306568 168.0
53.350468 176.0
53.410416 180.0
53.433693 224.0
53.446789 176.0
53.467159 152.0
53.590935 228.0
53.60405 184.0
53.634655 228.0
53.658783 240.0
53.671104 168.0
53.711731 140.0
53.73455 112.0
53.828693 164.0
53.860825 172.0
53.887119 172.0
53.909039 152.0
54.046494 344.0
54.072796 156.0
54.088371 156.0
54.110565 160.0
54.137249 188.0
54.172401 160.0
54.192913 148.0
54.242741 204.0
54.282326 196.0
54.30579 176.0
54.348335 204.0
54.388775 176.0
54.432735 140.0
54.458435 260.0
54.471378 176.0
54.501534 308.0
54.538773 248.0
54.648071 164.0
54.748615 132.0
54.84354 268.0
54.873417 160.0
54.929459 296.0
54.948635 164.0
54.996948 168.0
55.037567 396.0
55.097748 148.0
55.122868 192.0
55.159817 148.0
55.239666 176.0
55.289883 128.0
55.294662 120.0
55.321056 164.0
55.343025 196.0
55.381767 180.0
55.505627 292.0
55.521088 168.0
55.538883 140.0
55.569534 188.0
55.612747 236.0
55.637676 140.0
55.67543 180.0
55.705135 176.0
55.718506 140.0
55.744205 108.0
55.795788 248.0
55.819576 204.0
55.835934 144.0
55.867451 128.0
55.944859 176.0
56.04285 168.0
56.086781 176.0
56.129303 172.0
56.177338 164.0
56.205379 152.0
56.220013 196.0
56.266571 140.0
56.315849 180.0
56.36237 124.0
56.383797 180.0
56.410587 140.0
56.469299 144.0
56.481762 156.0
56.502998 164.0
56.576954 144.0
56.647369 260.0
56.695911 136.0
56.776821 168.0
56.825668 180.0
56.838135 156.0
56.877163 196.0
56.902779 200.0
56.914478 208.0
56.938194 160.0
56.974686 156.0
57.023041 164.0
57.055588 252.0
57.086182 140.0
57.135746 176.0
57.174942 156.0
57.243732 352.0
57.272804 324.0
57.346134 156.0
57.375633 152.0
57.389214 180.0
57.451752 152.0
57.489323 144.0
57.532173 168.0
57.601467 176.0
57.613724 168.0
57.636051 196.0
57.680214 196.0
57.704685 180.0
57.736042 156.0
57.759663 196.0
57.823792 108.0
57.869297 204.0
57.890518 212.0
57.909954 168.0
57.934334 116.0
57.952621 184.0
57.973835 144.0
57.996571 180.0
58.022339 208.0
58.082523 140.0
58.114857 164.0
58.130032 156.0
58.152798 164.0
58.16494 168.0
58.287956 472.0
58.386978 176.0
58.422894 160.0
58.548725 216.0
58.589352 160.0
58.624256 164.0
58.653351 268.0
58.682182 152.0
58.702003 152.0
58.729454 204.0
58.743183 156.0
58.766068 224.0
58.862213 332.0
58.873127 204.0
58.889717 148.0
59.024204 192.0
59.039497 360.0
59.054043 172.0
59.138058 360.0
59.191376 192.0
59.24754 248.0
59.289738 156.0
59.312462 196.0
59.331127 200.0
59.370285 144.0
59.393314 308.0
59.423973 164.0
59.470711 176.0
59.482956 212.0
59.497643 140.0
59.517738 180.0
59.544605 212.0
59.600693 208.0
59.631062 112.0
59.656471 316.0
59.685387 164.0
59.715843 160.0
59.72868 116.0
59.785728 264.0
59.871094 160.0
59.945232 228.0
59.959103 156.0
59.989929 176.0
60.014595 184.0
60.026192 148.0
60.0732 144.0
60.117508 212.0
60.243736 204.0
60.265175 208.0
60.298203 156.0
60.312691 172.0
60.329552 356.0
60.346558 184.0
60.36903 120.0
60.411514 156.0
60.43671 196.0
60.456818 200.0
60.513386 152.0
60.524494 232.0
60.574944 216.0
60.594193 404.0
60.618984 140.0
60.651531 212.0
60.671684 156.0
60.700485 208.0
60.772495 140.0
60.832268 140.0
60.95652 208.0
61.018341 180.0
61.058323 164.0
61.07497 268.0
61.088272 204.0
61.172894 132.0
61.199928 188.0
61.229515 184.0
61.281418 188.0
61.301178 144.0
61.324448 292.0
61.361969 156.0
61.427467 160.0
61.44463 188.0
61.482079 244.0
61.511734 164.0
61.546669 212.0
61.596394 204.0
61.631989 216.0
61.705708 168.0
61.727337 172.0
61.743343 188.0
61.81181 156.0
61.831196 144.0
61.89164 156.0
61.934456 176.0
61.954456 148.0
62.049885 176.0
62.067135 192.0
62.115753 156.0
62.156544 188.0
62.181652 148.0
62.205196 168.0
62.340271 176.0
62.366985 180.0
62.384277 200.0
62.395969 144.0
62.458584 224.0
62.474869 152.0
62.571491 168.0
62.612431 148.0
62.63763 184.0
62.837845 220.0
62.854458 332.0
62.949169 256.0
62.964638 172.0
62.979168 212.0
63.012989 120.0
63.041534 148.0
63.065861 204.0
63.093197 140.0
63.11657 188.0
63.130062 192.0
63.232895 172.0
63.327892 192.0
63.345757 100.0
63.416386 164.0
63.452858 200.0
63.462563 212.0
63.542465 356.0
63.565693 188.0
63.618923 208.0
63.646648 156.0
63.692905 96.0
63.727654 144.0
63.738777 152.0
63.858364 196.0
63.89011 176.0
63.902946 224.0
63.975758 176.0
64.001991 164.0
64.018898 172.0
64.057983 152.0
64.085648 200.0
64.141426 148.0
64.212242 204.0
64.276993 148.0
64.300926 160.0
64.345627 352.0
64.386818 176.0
64.422089 196.0
64.460625 168.0
64.479805 164.0
64.497383 152.0
64.537949 204.0
64.570938 220.0
64.583733 144.0
64.606125 168.0
64.644524 264.0
64.691628 224.0
64.751785 156.0
64.81266 144.0
64.835098 148.0
64.859673 132.0
64.886391 200.0
64.920059 164.0
64.945724 140.0
65.072495 152.0
65.091766 192.0
65.106644 152.0
65.180817 164.0
65.225685 192.0
65.320625 212.0
65.341843 348.0
65.376297 148.0
65.392395 168.0
65.450348 160.0
65.535713 152.0
65.56015 144.0
65.600182 164.0
65.643715 180.0
65.691429 116.0
65.743729 184.0
65.756638 184.0
65.774635 336.0
65.835388 184.0
65.906418 192.0
65.911758 144.0
65.941193 224.0
65.988358 184.0
66.041 196.0
66.057182 252.0
66.111702 116.0
66.136269 164.0
66.19799 188.0
66.308151 144.0
66.359039 152.0
66.557205 152.0
66.61969 168.0
66.672684 208.0
66.709618 344.0
66.730209 176.0
66.784615 100.0
66.808922 172.0
66.861969 188.0
66.879318 140.0
66.894592 176.0
66.91243 192.0
66.936852 152.0
66.956329 100.0
66.974304 272.0
67.001617 152.0
67.027855 152.0
67.122765 132.0
67.137291 192.0
67.222122 148.0
67.240158 148.0
67.264557 164.0
67.276657 212.0
67.307358 148.0
67.365799 144.0
67.389603 196.0
67.42337 152.0
67.445251 148.0
67.57795 120.0
67.635612 220.0
67.653923 272.0
67.702629 180.0
67.748596 200.0
67.768257 192.0
67.785286 204.0
67.807587 168.0
67.830536 184.0
67.87162 132.0
67.913452 148.0
67.932602 176.0
68.065353 128.0
68.127556 328.0
68.142303 156.0
68.210571 232.0
68.237671 180.0
68.283142 116.0
68.337997 184.0
68.443336 152.0
68.477921 160.0
68.499336 176.0
68.516441 332.0
68.556999 204.0
68.60379 176.0
68.635674 224.0
68.675705 172.0
68.696709 132.0
68.72226 180.0
68.768105 144.0
68.784622 384.0
68.828362 112.0
68.881821 184.0
68.916725 152.0
68.95443 172.0
68.970169 236.0
69.041664 276.0
69.053932 176.0
69.072128 204.0
69.108681 180.0
69.151993 164.0
69.178032 140.0
69.215637 180.0
69.251297 180.0
69.294258 180.0
69.317162 244.0
69.391518 116.0
69.411644 172.0
69.479004 176.0
69.501221 236.0
69.536064 144.0
69.61261 148.0
69.641869 160.0
69.668907 156.0
69.697151 152.0
69.778595 184.0
69.854668 140.0
69.876717 144.0
69.911659 176.0
69.92997 228.0
69.970512 144.0
69.981575 336.0
70.025185 148.0
70.057426 132.0
70.067703 252.0
70.092987 144.0
70.218727 180.0
70.249893 152.0
70.294945 140.0
70.385086 156.0
70.407944 132.0
70.433517 184.0
70.446716 208.0
70.57724 176.0
70.642471 224.0
70.669235 204.0
70.754593 152.0
70.778587 120.0
70.809853 148.0
70.833298 220.0
70.852768 176.0
70.910271 188.0
70.948654 172.0
70.969963 212.0
71.012177 212.0
71.042839 240.0
71.088173 152.0
71.110214 184.0
71.14666 244.0
71.191582 312.0
71.201851 224.0
71.239258 172.0
71.307777 164.0
71.350197 244.0
71.38781 176.0
71.461472 136.0
71.484138 168.0
71.528229 196.0
71.678383 168.0
71.713348 196.0
71.740913 156.0
71.764198 208.0
71.795807 164.0
71.821686 336.0
71.854294 180.0
71.936424 164.0
71.98539 148.0
72.132454 176.0
72.163643 212.0
72.181648 140.0
72.216927 160.0
72.247375 196.0
72.260223 220.0
72.275681 148.0
72.352295 204.0
72.388672 172.0
72.418343 184.0
72.445442 160.0
72.497963 164.0
72.587814 168.0
72.601379 168.0
72.6464 176.0
72.66613 140.0
72.679413 152.0
72.769035 184.0
72.793831 148.0
72.828804 196.0
72.841576 156.0
72.865891 212.0
72.931656 240.0
72.969849 160.0
73.035339 164.0
73.05999 180.0
73.114433 168.0
73.18367 196.0
73.231201 216.0
73.264168 184.0
73.315964 148.0
73.354378 124.0
73.417137 128.0
73.440132 244.0
73.481232 140.0
73.519073 216.0
73.554718 176.0
73.569542 140.0
73.601982 144.0
73.644676 164.0
73.676582 176.0
73.719841 140.0
73.735222 148.0
73.757408 176.0
73.858978 252.0
73.88102 168.0
74.014069 188.0
74.026054 160.0
74.055168 152.0
74.086288 360.0
74.132736 160.0
74.14769 160.0
74.21402 172.0
74.339958 176.0
74.358635 324.0
74.374702 156.0
74.404984 172.0
74.45993 180.0
74.549484 192.0
74.618019 160.0
74.640373 144.0
74.710892 164.0
74.733932 228.0
74.793236 108.0
74.798347 200.0
74.87075 188.0
74.89164 180.0
74.915756 200.0
74.927811 276.0
74.940567 168.0
74.998512 144.0
75.051529 184.0
75.095016 156.0
75.137451 188.0
75.193367 168.0
75.227882 144.0
75.313141 192.0
75.414436 160.0
75.433456 140.0
75.464821 204.0
75.506073 168.0
75.545853 160.0
75.58046 408.0
75.594635 248.0
75.690598 172.0
75.706779 200.0
75.725845 144.0
75.74839 140.0
75.766792 240.0
75.797516 204.0
75.819435 144.0
76.07267 144.0
76.388855 232.0
76.428955 212.0
76.471733 200.0
76.510376 148.0
76.545578 140.0
76.560738 324.0
76.665779 172.0
76.870613 200.0
76.943115 336.0
76.964073 152.0
77.014626 164.0
77.048073 208.0
77.130035 144.0
77.167702 152.0
77.242317 208.0
77.325935 168.0
77.388954 188.0
77.456779 148.0
77.573708 288.0
77.723877 200.0
77.816505 188.0
77.87941 196.0
77.944611 168.0
77.962555 168.0
78.009262 272.0
78.025833 244.0
78.125465 184.0
78.153275 148.0
78.205055 136.0
78.244606 180.0
78.262405 192.0
78.305626 152.0
78.379616 156.0
78.406143 140.0
78.423668 224.0
78.442055 196.0
78.458923 116.0
78.509247 208.0
78.52504 184.0
78.540039 140.0
78.559685 148.0
78.621201 152.0
78.662987 196.0
78.683784 144.0
78.703514 148.0
78.723595 140.0
78.751549 164.0
78.782753 148.0
78.896599 236.0
78.930687 188.0
79.030907 136.0
79.12851 212.0
79.210045 208.0
79.278656 168.0
79.294579 128.0
79.449287 144.0
79.484772 176.0
79.530914 264.0
79.573524 172.0
79.585953 228.0
79.674416 104.0
79.701408 208.0
79.724014 144.0
79.785553 140.0
79.806274 160.0
79.822281 212.0
79.856071 156.0
79.875633 172.0
79.904099 168.0
79.939682 200.0
79.975281 168.0
79.991295 148.0
80.034027 168.0
80.114235 220.0
80.194359 168.0
80.213089 148.0
80.235138 308.0
80.339722 112.0
80.394196 164.0
80.408386 208.0
80.494072 336.0
80.611969 148.0
80.637924 176.0
80.663803 140.0
80.687042 204.0
80.895309 128.0
80.962303 180.0
80.985649 248.0
81.003799 144.0
81.131645 164.0
81.161888 208.0
81.208138 172.0
81.225639 164.0
81.245804 152.0
81.298126 176.0
81.431908 260.0
81.601707 120.0
81.622215 208.0
81.653557 144.0
81.67334 164.0
81.775902 248.0
81.796211 196.0
81.819099 156.0
81.87648 148.0
81.921753 144.0
82.020859 176.0
82.047897 224.0
82.08757 192.0
82.127243 260.0
82.156105 196.0
82.17234 168.0
82.215652 220.0
82.235504 172.0
82.343834 340.0
82.365509 156.0
82.381767 148.0
82.423042 104.0
82.446808 372.0
82.490189 176.0
82.6035 148.0
82.662201 148.0
82.755333 136.0
82.787651 216.0
82.818939 188.0
82.845886 244.0
82.892403 104.0
82.918549 188.0
82.941696 204.0
82.984482 128.0
83.015251 188.0
83.067299 184.0
83.089622 240.0
83.136795 188.0
83.148056 196.0
83.179253 132.0
83.223595 152.0
83.269325 144.0
83.332077 176.0
83.358345 252.0
83.378334 332.0
83.399506 240.0
83.442604 180.0
83.474075 420.0
83.536522 184.0
83.552895 144.0
83.572777 112.0
83.594048 136.0
83.634781 160.0
83.673729 204.0
83.731277 152.0
83.793999 132.0
83.818314 124.0
83.855171 184.0
83.895271 148.0
83.935387 180.0
83.948151 440.0
84.018272 180.0
84.033882 172.0
84.067047 336.0
84.095924 148.0
84.163467 156.0
84.176254 172.0
84.212364 276.0
84.264145 164.0
84.324165 120.0
84.330139 204.0
84.370552 176.0
84.384552 156.0
84.474167 188.0
84.505295 208.0
84.565987 176.0
84.605927 176.0
84.633263 172.0
84.649864 168.0
84.675507 252.0
84.707657 232.0
84.72496 192.0
84.742836 148.0
84.850388 176.0
84.935776 184.0
85.008347 180.0
85.150581 200.0
85.229454 124.0
85.25708 168.0
85.28981 312.0
85.316368 184.0
85.330391 136.0
85.369736 172.0
85.410599 296.0
85.483864 236.0
85.603333 200.0
85.714569 132.0
85.763206 140.0
85.7798 156.0
85.801529 112.0
85.870148 140.0
85.904091 120.0
85.993767 224.0
86.04393 136.0
86.071304 164.0
86.112923 164.0
86.171257 192.0
86.214981 180.0
86.273537 192.0
86.295418 176.0
86.341103 192.0
86.383644 164.0
86.407692 192.0
86.427238 208.0
86.49781 212.0
86.53566 168.0
86.639114 180.0
86.659088 164.0
86.711884 192.0
86.77108 148.0
86.793053 140.0
86.869736 208.0
86.897621 160.0
86.920937 164.0
87.011581 148.0
87.085938 196.0
87.120125 184.0
87.176277 196.0
87.308861 288.0
87.350105 140.0
87.479332 156.0
87.612587 176.0
87.65358 204.0
87.684898 144.0
87.702034 212.0
87.74118 156.0
87.779617 192.0
87.910919 184.0
87.929581 212.0
87.976242 208.0
88.006119 224.0
88.024788 212.0
88.039726 168.0
88.066475 212.0
88.091316 148.0
88.125656 144.0
88.15271 208.0
88.207886 244.0
88.29763 216.0
88.32756 220.0
88.410629 208.0
88.473946 192.0
88.540932 204.0
88.584541 228.0
88.666451 152.0
88.697906 148.0
88.771606 220.0
88.801445 204.0
88.831451 140.0
88.897118 140.0
88.962814 156.0
89.007874 192.0
89.06797 148.0
89.129967 148.0
89.220947 216.0
89.246506 180.0
89.275681 188.0
89.308563 184.0
89.328331 136.0
89.378174 164.0
89.407249 160.0
89.425224 144.0
89.445038 148.0
89.468513 176.0
89.487343 152.0
89.508057 176.0
89.553253 160.0
89.603233 160.0
89.675438 216.0
89.724113 292.0
89.740669 168.0
89.773758 184.0
89.858635 140.0
89.879395 120.0
89.915245 204.0
89.981316 288.0
89.997711 216.0
90.024742 140.0
90.039848 140.0
90.083168 120.0
90.112228 252.0
90.148651 264.0
90.24752 176.0
90.31958 144.0
90.356514 160.0
90.514542 252.0
90.552391 172.0
90.595955 196.0
90.613487 220.0
90.660378 200.0
90.69442 204.0
90.757446 124.0
90.79203 180.0
90.826149 208.0
90.853783 220.0
90.887932 148.0
90.982826 204.0
91.015717 224.0
91.054932 704.0
91.193062 148.0
91.214592 156.0
91.255043 172.0
91.275429 140.0
91.311279 192.0
91.416534 156.0
91.452354 208.0
91.486618 232.0
91.508995 172.0
91.545639 164.0
91.574211 224.0
91.599243 192.0
91.646599 176.0
91.83226 112.0
91.850586 144.0
91.865845 148.0
91.932625 228.0
92.056259 168.0
92.100639 212.0
92.211456 168.0
92.31649 344.0
92.347206 196.0
92.375893 160.0
92.431381 200.0
92.58345 192.0
92.640068 156.0
92.712883 372.0
92.872841 152.0
92.900612 176.0
92.908318 160.0
92.952591 168.0
93.035339 176.0
93.05484 132.0
93.363953 200.0
93.401855 128.0
93.429085 140.0
93.497276 136.0
93.552063 164.0
93.571503 216.0
93.711807 132.0
93.716988 112.0
93.725288 192.0
93.849266 192.0
93.91259 164.0
93.931549 136.0
93.962486 304.0
94.064819 160.0
94.09977 180.0
94.113289 220.0
94.145325 312.0
94.171547 192.0
94.210335 208.0
94.23053 176.0
94.312782 196.0
94.424042 208.0
94.459969 136.0
94.535492 144.0
94.589462 132.0
94.6334 148.0
94.673836 200.0
94.697357 144.0
94.725998 128.0
94.795143 152.0
94.865883 176.0
94.885269 184.0
94.920639 200.0
94.947319 268.0
94.964729 152.0
94.991936 196.0
95.036552 164.0
95.054016 168.0
95.071381 156.0
95.189079 196.0
95.238091 192.0
95.273415 188.0
95.3116 204.0
95.334206 168.0
95.378174 252.0
95.409454 204.0
95.448189 152.0
95.463036 316.0
95.53392 140.0
95.609009 176.0
95.623833 272.0
95.644836 172.0
95.701294 172.0
95.794395 124.0
95.798706 208.0
95.84153 312.0
95.867111 140.0
95.899208 148.0
95.999016 304.0
96.075882 160.0
96.102806 192.0
96.186729 264.0
96.247246 148.0
96.302643 440.0
96.425018 200.0
96.457542 200.0
96.498222 172.0
96.61795 180.0
96.682297 152.0
96.795761 152.0
96.82766 180.0
96.911705 284.0
96.944901 192.0
96.976463 160.0
97.013168 176.0
97.041496 200.0
97.076935 176.0
97.090668 156.0
97.110275 164.0
97.173531 196.0
97.29866 268.0
97.312401 192.0
97.332039 212.0
97.393951 228.0
97.432991 184.0
97.479362 180.0
97.575676 144.0
97.59832 164.0
97.626793 184.0
97.684608 204.0
97.75589 148.0
97.870804 172.0
98.016563 156.0
98.042183 148.0
98.170319 188.0
98.229492 148.0
98.291733 248.0
98.413673 184.0
98.476219 132.0
98.49897 112.0
98.563148 180.0
98.596741 184.0
98.626389 244.0
98.655327 184.0
98.671852 180.0
98.696381 140.0
98.757843 188.0
98.782043 128.0
98.821434 204.0
98.843933 184.0
98.883926 180.0
98.902069 160.0
98.938934 156.0
98.97023 144.0
99.00322 284.0
99.062691 224.0
99.15683 220.0
99.202415 192.0
99.236115 140.0
99.287674 152.0
99.30751 140.0
99.343285 108.0
99.365318 168.0
99.415611 156.0
99.438454 156.0
99.484108 156.0
99.53788 148.0
99.569679 128.0
99.585381 192.0
99.603302 176.0
99.635963 148.0
99.665405 272.0
99.698624 196.0
99.715996 148.0
99.740364 160.0
99.75808 140.0
99.771156 252.0
99.811043 132.0
99.853607 192.0
99.877312 128.0
99.939819 260.0
99.996155 312.0
100.035507 204.0
100.086395 176.0
100.23127 168.0
100.269203 160.0
100.315643 228.0
100.334839 224.0
100.413124 156.0
100.4692 176.0
100.559357 176.0
100.640282 256.0
100.696068 116.0
100.71273 184.0
100.811584 200.0
100.82795 108.0
100.902412 168.0
100.977982 152.0
100.997589 396.0
101.022568 148.0
101.062584 168.0
101.114609 200.0
101.174461 200.0
101.223129 136.0
101.242531 156.0
101.300209 144.0
101.348625 128.0
101.380966 140.0
101.457138 176.0
101.5233 180.0
101.538445 160.0
101.580292 136.0
101.682648 160.0
101.74543 148.0
101.796227 132.0
101.851921 208.0
101.884598 156.0
101.932938 208.0
101.967224 208.0
102.018593 136.0
102.048164 136.0
102.11174 152.0
102.182144 176.0
102.200256 216.0
102.23674 248.0
102.307076 156.0
102.335106 192.0
102.431778 188.0
102.446266 184.0
102.510353 176.0
102.534538 148.0
102.548645 268.0
102.581329 204.0
102.699951 176.0
102.728104 188.0
102.77047 188.0
102.7967 216.0
102.841103 356.0
102.982437 144.0
103.051071 160.0
103.065315 160.0
103.131958 160.0
103.15419 156.0
103.190163 136.0
103.25853 188.0
103.350365 148.0
103.370628 276.0
103.414436 328.0
103.418129 296.0
103.505333 148.0
103.536598 148.0
103.621674 160.0
103.648079 216.0
103.74176 236.0
103.76963 168.0
103.796585 304.0
103.909576 160.0
103.923775 148.0
103.946098 164.0
103.999519 136.0
104.047585 184.0
104.132866 140.0
104.148575 256.0
104.176537 192.0
104.223267 208.0
104.26696 156.0
104.289314 188.0
104.323868 148.0
104.409752 136.0
104.443298 104.0
104.479424 228.0
104.506912 216.0
104.541504 156.0
104.677177 160.0
104.776733 144.0
104.798805 256.0
104.844757 176.0
104.963661 152.0
105.034256 1084.0
105.058105 316.0
105.131378 132.0
105.168922 296.0
105.199844 180.0
105.242722 196.0
105.279472 172.0
105.310112 160.0
105.443176 188.0
105.611481 124.0
105.649437 224.0
105.703613 152.0
105.739464 156.0
105.753792 164.0
105.794731 172.0
105.847496 208.0
105.90181 232.0
105.917725 200.0
105.936035 176.0
105.98735 172.0
106.03511 132.0
106.057526 184.0
106.147141 192.0
106.179955 184.0
106.22097 168.0
106.239433 212.0
106.304184 180.0
106.334251 188.0
106.366661 172.0
106.417824 152.0
106.435631 128.0
106.498077 144.0
106.557091 192.0
106.614082 208.0
106.642136 140.0
106.737114 316.0
106.783768 212.0
106.808304 168.0
106.889915 148.0
106.913383 176.0
106.943649 164.0
106.971016 156.0
107.115158 144.0
107.185204 228.0
107.271767 140.0
107.396439 156.0
107.417664 140.0
107.441734 344.0
107.463562 144.0
107.510101 188.0
107.534729 256.0
107.572113 168.0
107.626625 168.0
107.682983 260.0
107.720352 104.0
107.808701 112.0
107.828407 152.0
107.850258 176.0
107.909691 152.0
107.936569 176.0
107.986206 184.0
108.010857 152.0
108.053917 120.0
108.095619 152.0
108.146965 252.0
108.203476 140.0
108.222115 148.0
108.235977 184.0
108.267212 144.0
108.27462 112.0
108.297424 316.0
108.327736 160.0
108.34613 196.0
108.371407 152.0
108.391022 96.0
108.480537 212.0
108.527733 144.0
108.599274 152.0
108.648384 172.0
108.714233 196.0
108.755898 120.0
108.813225 172.0
108.864929 148.0
108.971603 284.0
109.037361 140.0
109.086349 180.0
109.175102 340.0
109.210907 144.0
109.235611 172.0
109.265831 160.0
109.325775 172.0
109.375755 172.0
109.448875 176.0
109.478401 280.0
109.557556 144.0
109.572136 164.0
109.650703 108.0
109.728447 172.0
109.804092 216.0
109.859833 164.0
109.884117 144.0
109.911995 204.0
109.926605 336.0
109.975601 100.0
110.012314 124.0
110.126091 144.0
110.176964 132.0
110.218224 268.0
110.244759 152.0
110.273277 272.0
110.327629 216.0
110.374474 256.0
110.405708 268.0
110.478065 124.0
110.505394 144.0
110.540329 144.0
110.597473 212.0
110.612129 196.0
110.65818 192.0
110.6912 192.0
110.769173 220.0
110.788033 144.0
110.850883 172.0
110.892799 276.0
110.911667 192.0
111.027618 1288.0
111.055679 340.0
111.075882 200.0
111.169632 156.0
111.184326 188.0
111.250526 148.0
111.298569 132.0
111.318932 268.0
111.509857 164.0
111.558159 152.0
111.623375 176.0
111.666679 156.0
111.783249 220.0
111.840073 376.0
111.861122 148.0
111.928497 160.0
111.988525 156.0
112.010231 380.0
112.031693 236.0
112.061188 236.0
112.15181 348.0
112.200294 228.0
112.228012 268.0
112.301506 212.0
112.3284 128.0
112.367371 224.0
112.436539 244.0
112.569534 152.0
112.655479 208.0
112.692047 148.0
112.855438 172.0
112.907776 148.0
112.934204 400.0
112.977074 260.0
113.02198 192.0
113.08593 108.0
113.223 160.0
113.255402 160.0
113.286537 152.0
113.349449 156.0
113.437828 184.0
113.521317 156.0
113.554558 108.0
113.58918 172.0
113.60363 312.0
113.65332 168.0
113.668175 152.0
113.714867 212.0
113.776733 164.0
113.797653 184.0
113.813667 204.0
113.846489 184.0
113.950684 160.0
113.972717 164.0
114.067291 324.0
114.107849 144.0
114.141869 144.0
114.163139 184.0
114.196678 148.0
114.237579 168.0
114.301407 212.0
114.34124 164.0
114.379677 196.0
114.406189 172.0
114.447411 132.0
114.486237 160.0
114.546242 324.0
114.62812 196.0
114.738037 168.0
114.784149 200.0
114.808334 120.0
114.835495 148.0
114.893723 172.0
115.002365 188.0
115.034569 160.0
115.055443 152.0
115.075722 196.0
115.098618 180.0
115.122108 160.0
115.139671 160.0
115.186081 168.0
115.235397 172.0
115.259354 240.0
115.293015 176.0
115.316521 164.0
115.409126 164.0
115.45977 152.0
115.479019 176.0
115.495346 220.0
115.526199 140.0
115.549606 152.0
115.58812 144.0
115.635201 176.0
115.682228 136.0
115.727249 140.0
115.749306 224.0
115.775429 304.0
115.8172 164.0
115.872894 328.0
115.954544 152.0
116.087242 220.0
116.119408 248.0
116.18161 184.0
116.196381 152.0
116.296242 172.0
116.363586 192.0
116.404831 264.0
116.439873 152.0
116.458015 168.0
116.488594 140.0
116.510078 152.0
116.578835 148.0
116.598175 248.0
116.665337 244.0
116.690605 176.0
116.723053 204.0
116.739792 188.0
116.759422 156.0
116.78093 220.0
116.811043 208.0
116.910011 140.0
116.954376 124.0
117.009026 256.0
117.055298 308.0
117.131775 192.0
117.18779 184.0
117.220108 172.0
117.30677 172.0
117.382599 328.0
117.457268 192.0
117.569458 144.0
117.601707 136.0
117.631432 180.0
117.701141 148.0
117.783211 168.0
117.813454 176.0
117.873825 140.0
117.961121 180.0
117.977692 220.0
117.998993 176.0
118.071983 112.0
118.224655 156.0
118.275253 216.0
118.403961 168.0
118.425613 152.0
118.468864 168.0
118.549995 168.0
118.603516 156.0
118.661797 324.0
118.677635 136.0
118.764618 208.0
118.781097 168.0
118.844009 148.0
118.867882 176.0
118.917686 160.0
118.987259 188.0
119.008972 156.0
119.068428 168.0
119.140663 188.0
119.202293 172.0
119.308067 108.0
119.341034 164.0
119.369598 124.0
119.432739 228.0
119.487129 164.0
119.511055 204.0
119.656883 168.0
119.686211 320.0
119.705811 212.0
119.757057 160.0
119.772301 148.0
119.795319 172.0
119.897133 176.0
119.956314 188.0
119.97496 144.0
120.005066 316.0
120.066544 168.0
120.174286 112.0
120.209724 132.0
120.240089 124.0
120.402634 328.0
120.443344 288.0
120.501328 176.0
120.524963 228.0
120.54026 188.0
120.561806 228.0
120.631081 160.0
120.663071 236.0
120.70858 152.0
120.740578 228.0
120.75515 172.0
120.775314 140.0
120.862007 140.0
120.895218 180.0
120.916405 224.0
120.949677 160.0
121.037491 244.0
121.075356 212.0
121.091209 128.0
121.238342 424.0
121.271286 120.0
121.299713 144.0
121.340103 196.0
121.406265 196.0
121.42057 196.0
121.584488 148.0
121.605621 152.0
121.647423 180.0
121.749496 172.0
121.846146 172.0
121.871811 188.0
121.929649 168.0
122.006828 144.0
122.046158 168.0
122.085739 164.0
122.101128 200.0
122.14711 168.0
122.200119 180.0
122.309738 128.0
122.3806 164.0
122.402618 148.0
122.427444 220.0
122.457672 176.0
122.524963 220.0
122.606216 200.0
122.633942 152.0
122.682045 160.0
122.689384 132.0
122.841209 196.0
122.892662 136.0
122.955948 148.0
123.004501 240.0
123.027298 408.0
123.165695 168.0
123.183372 144.0
123.20546 180.0
123.265572 156.0
123.333626 168.0
123.389862 164.0
123.395088 204.0
123.426865 172.0
123.509315 176.0
123.582176 348.0
123.634422 144.0
123.899002 152.0
123.946121 148.0
124.032646 200.0
124.062416 404.0
124.107384 160.0
124.16169 152.0
124.17894 180.0
124.237915 120.0
124.276093 160.0
124.310318 180.0
124.336952 152.0
124.362022 148.0
124.436935 276.0
124.503456 148.0
124.583656 152.0
124.630074 348.0
124.856262 176.0
124.87056 180.0
124.939117 184.0
125.015968 24732.0
125.040855 900.0
125.077087 176.0
125.12114 132.0
125.153412 156.0
125.170792 184.0
125.298996 216.0
125.327332 272.0
125.351028 160.0
125.391144 172.0
125.494484 200.0
125.607933 140.0
125.647575 140.0
125.694427 224.0
125.71228 156.0
125.745705 160.0
125.780052 220.0
125.843979 188.0
125.879707 144.0
125.958435 128.0
126.019302 2132.0
126.085228 176.0
126.169724 140.0
126.214432 256.0
126.232773 140.0
126.30632 204.0
126.345566 196.0
126.424057 160.0
126.456261 152.0
126.487831 172.0
126.544556 200.0
126.596931 192.0
126.621666 160.0
126.810371 156.0
126.843994 156.0
126.89624 144.0
126.920586 196.0
126.945824 200.0
126.963028 352.0
127.013222 5776.0
127.094345 304.0
127.121323 528.0
127.286446 152.0
127.354454 168.0
127.401352 172.0
127.551079 172.0
127.574142 108.0
127.611778 152.0
127.658134 104.0
127.703484 184.0
127.755615 184.0
127.921112 160.0
127.966209 128.0
128.016815 420.0
128.053848 200.0
128.091125 208.0
128.130096 220.0
128.167725 180.0
128.194763 156.0
128.251114 148.0
128.286789 148.0
128.348053 196.0
128.424408 172.0
128.454056 296.0
128.510452 220.0
128.549255 144.0
128.575455 104.0
128.598465 172.0
128.625549 184.0
128.688095 136.0
128.724884 152.0
128.785858 244.0
128.844589 228.0
128.865845 148.0
128.902206 176.0
128.94165 268.0
128.981201 152.0
129.037598 128.0
129.065201 172.0
129.094208 212.0
129.139664 172.0
129.185104 212.0
129.204529 156.0
129.226685 224.0
129.242523 160.0
129.271027 284.0
129.314651 156.0
129.41803 244.0
129.45224 156.0
129.517303 224.0
129.566284 180.0
129.586685 144.0
129.713593 240.0
129.780518 164.0
129.840027 168.0
129.864685 264.0
129.904068 260.0
129.924622 188.0
129.951248 136.0
129.999359 180.0
130.020706 208.0
130.05864 224.0
130.200241 132.0
130.296478 164.0
130.362701 204.0
130.433929 160.0
130.461761 156.0
130.48999 300.0
130.590759 180.0
130.621902 256.0
130.749313 172.0
130.833237 184.0
130.875351 168.0
130.910492 180.0
130.929169 204.0
130.992035 140.0
131.040497 160.0
131.073395 140.0
131.120789 148.0
131.234512 156.0
131.324631 132.0
131.348541 152.0
131.390518 120.0
131.462616 176.0
131.571945 112.0
131.589111 252.0
131.613419 160.0
131.633438 140.0
131.739349 184.0
131.873718 156.0
131.903427 180.0
131.981445 160.0
132.040237 288.0
132.125244 160.0
132.158936 144.0
132.178864 196.0
132.235596 124.0
132.259354 192.0
132.294601 216.0
132.312912 200.0
132.333252 140.0
132.354126 148.0
132.372238 308.0
132.42511 296.0
132.486969 192.0
132.516754 160.0
132.576294 160.0
132.806976 180.0
132.851471 224.0
132.924347 184.0
133.028564 424.0
133.092163 156.0
133.119461 152.0
133.218781 212.0
133.249039 208.0
133.287552 124.0
133.340836 200.0
133.368607 204.0
133.427902 168.0
133.533676 160.0
133.621094 196.0
133.675079 148.0
133.717194 168.0
133.740494 344.0
133.773605 336.0
133.805984 204.0
133.881195 192.0
134.094528 120.0
134.134644 156.0
134.219833 184.0
134.266068 228.0
134.381958 116.0
134.448318 148.0
134.476013 160.0
134.585785 168.0
134.708755 156.0
134.72934 136.0
134.835876 216.0
134.911545 140.0
134.933395 140.0
134.988007 316.0
135.05365 164.0
135.141556 144.0
135.167007 196.0
135.185516 184.0
135.206131 172.0
135.366074 184.0
135.419342 196.0
135.468994 148.0
135.535172 156.0
135.574738 108.0
135.653381 252.0
135.69278 184.0
135.753067 160.0
135.800873 176.0
135.830322 160.0
135.887604 296.0
135.906174 228.0
135.999771 136.0
136.321823 136.0
136.352036 224.0
136.368301 188.0
136.384903 140.0
136.463608 188.0
136.563187 236.0
136.627533 172.0
136.661423 168.0
136.721817 152.0
136.746979 172.0
136.813293 160.0
136.880112 168.0
136.963943 160.0
137.019852 344.0
137.053238 200.0
137.087128 188.0
137.129303 224.0
137.16803 192.0
137.285583 148.0
137.305023 148.0
137.334564 156.0
137.410812 124.0
137.683136 228.0
137.727966 132.0
137.754715 156.0
137.779556 188.0
137.832016 148.0
137.868851 180.0
137.904083 160.0
137.932541 128.0
137.9758 180.0
138.038055 1280.0
138.073822 152.0
138.092804 396.0
138.124054 172.0
138.160919 200.0
138.195969 264.0
138.303177 256.0
138.355728 160.0
138.554794 164.0
138.611084 188.0
138.628006 220.0
138.79808 160.0
138.859528 256.0
138.915817 168.0
138.936935 176.0
138.993881 652.0
139.045013 1740.0
139.103546 144.0
139.128204 128.0
139.148148 160.0
139.216248 236.0
139.243179 256.0
139.276413 176.0
139.300797 200.0
139.406525 168.0
139.430038 356.0
139.457855 224.0
139.497025 104.0
139.52562 168.0
139.573425 148.0
139.728668 212.0
139.753159 272.0
139.80632 172.0
139.87793 140.0
139.998856 344.0
140.023407 468.0
140.052353 144.0
140.173355 144.0
140.2491 208.0
140.295303 172.0
140.508759 276.0
140.529724 304.0
140.563416 136.0
140.588715 160.0
140.60759 144.0
140.635925 180.0
140.683136 196.0
140.739792 144.0
140.89978 140.0
140.992722 348.0
141.044403 308.0
141.130814 164.0
141.213181 164.0
141.35437 144.0
141.382767 144.0
141.539902 148.0
141.569794 144.0
141.650314 164.0
141.785965 192.0
141.80777 152.0
141.835144 308.0
141.861221 144.0
141.946579 312.0
141.997253 204.0
142.043808 152.0
142.128448 136.0
142.151627 172.0
142.183807 160.0
142.207703 176.0
142.255005 164.0
142.33905 208.0
142.442612 148.0
142.507385 148.0
142.627945 148.0
142.654099 156.0
142.682297 176.0
142.815796 228.0
142.901428 152.0
142.932358 348.0
142.997498 204.0
143.020416 140.0
143.105194 164.0
143.165649 132.0
143.191849 152.0
143.269501 164.0
143.421768 320.0
143.525482 196.0
143.54216 176.0
143.607224 164.0
143.790268 244.0
143.81517 208.0
143.840988 160.0
143.895691 196.0
143.923584 204.0
144.021088 172.0
144.08165 184.0
144.149185 180.0
144.191513 184.0
144.334137 136.0
144.419891 180.0
144.474808 116.0
144.528687 228.0
144.571762 140.0
144.615906 216.0
144.717773 240.0
144.758484 148.0
144.863739 144.0
144.89502 160.0
145.081375 184.0
145.156509 124.0
145.184525 144.0
145.276901 188.0
145.32843 148.0
145.376495 184.0
145.422165 144.0
145.474884 156.0
145.500549 156.0
145.529343 192.0
145.561615 168.0
145.612244 196.0
145.665878 144.0
145.706497 140.0
145.745392 172.0
145.785217 168.0
145.838882 192.0
145.860962 128.0
145.990158 188.0
146.165161 168.0
146.189148 136.0
146.342239 228.0
146.385864 124.0
146.413101 144.0
146.441696 156.0
146.481079 128.0
146.556946 180.0
146.643188 208.0
146.760101 156.0
146.959732 204.0
146.969772 156.0
147.001328 128.0
147.077164 168.0
147.141312 284.0
147.298294 176.0
147.316895 160.0
147.382843 156.0
147.455338 364.0
147.477097 172.0
147.495575 192.0
147.530273 212.0
147.59314 152.0
147.736313 120.0
147.789062 224.0
147.806366 348.0
147.888275 180.0
147.929428 148.0
148.051331 1836.0
148.136841 148.0
148.248199 164.0
148.321854 152.0
148.39119 180.0
148.501282 160.0
148.525528 172.0
148.569199 156.0
148.588745 144.0
148.66626 188.0
148.700958 296.0
148.720291 164.0
148.765762 140.0
148.787613 236.0
148.804611 200.0
148.929413 100.0
149.050507 472.0
149.176315 148.0
149.256546 180.0
149.297882 204.0
149.390137 184.0
149.417068 156.0
149.533875 160.0
149.574234 200.0
149.60051 160.0
149.638489 196.0
149.765182 156.0
149.789536 276.0
149.882248 152.0
150.062775 172.0
150.166702 244.0
150.203201 216.0
150.24295 188.0
150.261948 192.0
150.309021 216.0
150.401566 140.0
150.454758 188.0
150.468002 188.0
150.51387 192.0
150.535858 172.0
150.687088 188.0
150.736206 140.0
150.774277 140.0
150.80188 148.0
150.872421 176.0
150.915405 184.0
151.003342 124.0
151.040222 292.0
151.104294 200.0
151.138702 132.0
151.170212 136.0
151.233887 232.0
151.269333 156.0
151.311523 280.0
151.408905 148.0
151.516678 160.0
151.536072 140.0
151.610092 260.0
151.648346 176.0
151.680176 100.0
151.705383 196.0
151.729309 216.0
151.770615 352.0
151.788742 320.0
151.805908 168.0
151.836945 208.0
151.896332 120.0
151.938049 424.0
151.974091 452.0
151.991318 436.0
152.027313 91416.0
152.107681 96.0
152.199554 280.0
152.23024 100.0
152.275299 132.0
152.397308 192.0
152.46991 240.0
152.587326 172.0
152.669128 448.0
152.707901 100.0
152.769455 172.0
152.807083 208.0
152.831665 180.0
152.847336 160.0
153.029892 6720.0
153.098984 156.0
153.129974 136.0
153.148514 204.0
153.247391 112.0
153.282822 188.0
153.332169 160.0
153.418228 204.0
153.449585 172.0
153.522415 140.0
153.564331 200.0
153.613876 144.0
153.823029 120.0
153.865784 132.0
153.918762 156.0
153.959518 368.0
153.994781 432.0
154.024353 21700.0
154.08493 148.0
154.107071 148.0
154.156418 256.0
154.190628 192.0
154.237091 172.0
154.278793 340.0
154.338623 156.0
154.401596 140.0
154.436874 184.0
154.465897 144.0
154.487396 208.0
154.553619 232.0
154.574448 128.0
154.629227 212.0
154.662155 244.0
154.697037 248.0
154.726532 124.0
154.778519 296.0
154.832214 128.0
154.851822 240.0
154.881592 180.0
154.963379 476.0
154.998123 300.0
155.027512 177520.0
155.103287 264.0
155.121674 144.0
155.17157 244.0
155.209381 232.0
155.230133 120.0
155.277573 348.0
155.305969 136.0
155.434647 876.0
155.467545 124.0
155.501373 212.0
155.528854 168.0
155.599518 136.0
155.639679 124.0
155.670639 172.0
155.700958 384.0
155.724808 248.0
155.765884 184.0
155.859604 236.0
155.896484 176.0
155.930237 236.0
155.986603 144.0
156.030975 18352.0
156.089661 124.0
156.116867 216.0
156.230896 136.0
156.276794 160.0
156.326584 172.0
156.370407 192.0
156.40152 192.0
156.487808 156.0
156.635406 192.0
156.654175 192.0
156.738892 144.0
156.760941 136.0
156.78569 208.0
156.890793 312.0
156.949966 264.0
156.975418 116.0
156.981384 332.0
157.023544 52684.0
157.113281 180.0
157.143539 188.0
157.152084 96.0
157.180542 172.0
157.222153 120.0
157.27037 212.0
157.306808 236.0
157.373398 132.0
157.483002 296.0
157.538071 128.0
157.555557 180.0
157.595154 140.0
157.622314 192.0
157.651215 192.0
157.69165 184.0
157.713989 220.0
157.776123 216.0
157.797195 200.0
157.818375 228.0
157.910233 144.0
157.948425 168.0
158.026825 1572.0
158.062149 104.0
158.088531 340.0
158.319031 108.0
158.396484 180.0
158.46788 136.0
158.509232 264.0
158.526764 164.0
158.551285 172.0
158.594437 176.0
158.615311 196.0
158.645691 160.0
158.689697 140.0
158.712265 140.0
158.73468 148.0
158.763046 188.0
158.789429 176.0
158.82135 156.0
158.866638 116.0
158.943878 300.0
159.191422 160.0
159.294434 116.0
159.393753 96.0
159.518646 188.0
159.602325 168.0
159.683517 152.0
159.898514 148.0
159.998657 156.0
160.033417 352.0
160.066635 184.0
160.137146 328.0
160.17746 204.0
160.286438 124.0
160.310989 228.0
160.676605 192.0
160.695465 168.0
160.728622 156.0
161.004349 152.0
161.070404 160.0
161.156311 216.0
161.179047 156.0
161.196732 152.0
161.251068 184.0
161.295532 132.0
161.319656 132.0
161.398956 192.0
161.425613 200.0
161.586121 324.0
161.621552 200.0
161.654434 180.0
161.684814 160.0
161.775299 176.0
161.829102 144.0
161.846817 156.0
161.864548 192.0
161.952744 204.0
161.975586 180.0
162.037872 168.0
162.132324 288.0
162.28009 172.0
162.305099 328.0
162.447479 152.0
162.466751 188.0
162.521042 196.0
162.614944 164.0
162.643005 148.0
162.833282 296.0
162.85498 244.0
163.011124 168.0
163.066559 172.0
163.100067 188.0
163.143295 164.0
163.164963 144.0
163.190125 152.0
163.239487 144.0
163.332916 128.0
163.364532 176.0
163.439346 160.0
163.507019 164.0
163.564758 152.0
163.658676 140.0
163.679459 212.0
163.699707 116.0
163.750824 372.0
164.082703 216.0
164.156647 180.0
164.184692 160.0
164.232361 300.0
164.266312 220.0
164.319885 244.0
164.355606 200.0
164.492065 120.0
164.513031 124.0
164.625443 176.0
164.790054 160.0
164.869904 116.0
164.911758 156.0
164.973068 100.0
165.148315 148.0
165.207993 160.0
165.27803 168.0
165.306793 184.0
165.436722 156.0
165.48085 252.0
165.534271 212.0
165.627121 108.0
165.654388 168.0
165.704941 164.0
165.805557 192.0
165.831192 200.0
165.913208 220.0
166.005524 236.0
166.071808 232.0
166.106461 124.0
166.126068 160.0
166.248596 468.0
166.370819 172.0
166.400665 184.0
166.462296 172.0
166.494781 196.0
166.536896 172.0
166.692581 160.0
166.709198 164.0
167.175583 144.0
167.249634 228.0
167.27475 156.0
167.37677 168.0
167.404388 148.0
167.558029 320.0
167.630737 144.0
167.667923 172.0
167.764191 164.0
167.833801 140.0
167.85701 160.0
167.882202 244.0
168.002182 232.0
168.046387 176.0
168.189819 164.0
168.336975 156.0
168.458374 164.0
168.497131 188.0
168.533295 140.0
168.570297 200.0
168.746063 164.0
168.806244 196.0
168.866776 144.0
168.900406 284.0
168.928848 176.0
169.053055 220.0
169.077164 352.0
169.109985 208.0
169.213043 232.0
169.325577 148.0
169.371506 140.0
169.848434 208.0
169.994217 192.0
170.037842 180.0
170.092361 168.0
170.121979 156.0
170.206589 184.0
170.385803 160.0
170.488434 176.0
170.559631 152.0
170.604111 188.0
170.744507 200.0
170.864166 168.0
170.920303 184.0
170.979858 192.0
171.031067 180.0
171.11142 172.0
171.202545 160.0
171.272873 164.0
171.32196 280.0
171.364044 180.0
171.418762 164.0
171.596008 172.0
171.653381 212.0
171.822922 248.0
171.888138 164.0
171.94371 136.0
172.002289 180.0
172.03952 208.0
172.096436 208.0
172.17189 144.0
172.333832 204.0
172.379059 152.0
172.410858 96.0
172.43808 320.0
172.4823 132.0
172.602295 200.0
172.640488 148.0
172.849258 168.0
172.928329 152.0
172.97403 132.0
173.082718 248.0
173.190781 216.0
173.216949 180.0
173.310608 172.0
173.401093 192.0
173.44426 172.0
173.463577 212.0
173.514984 224.0
173.585831 192.0
173.681351 216.0
173.822464 200.0
174.005646 152.0
174.236237 140.0
174.294571 168.0
174.370773 184.0
174.470673 212.0
174.494324 144.0
174.535233 172.0
174.59967 136.0
174.681046 172.0
174.754395 136.0
174.802078 152.0
174.886292 160.0
174.948761 240.0
174.982391 220.0
175.103256 140.0
175.265518 140.0
175.346313 248.0
175.369171 108.0
175.4711 208.0
175.506073 168.0
175.687363 140.0
175.856232 180.0
175.924866 144.0
176.058441 204.0
176.080658 200.0
176.13765 180.0
176.161255 156.0
176.230896 180.0
176.276154 192.0
176.294647 176.0
176.389801 184.0
176.609268 204.0
176.724106 204.0
176.75676 112.0
176.789169 148.0
176.842102 140.0
176.876511 144.0
176.895035 208.0
176.951431 172.0
176.997711 200.0
177.046783 336.0
177.083038 208.0
177.127945 168.0
177.154556 164.0
177.300293 172.0
177.430176 140.0
177.515015 288.0
177.557449 168.0
177.580917 160.0
177.721252 176.0
177.790909 148.0
177.851959 144.0
177.869339 172.0
177.984695 176.0
178.020645 164.0
178.03952 248.0
178.276901 232.0
178.295502 168.0
178.335434 160.0
178.425751 152.0
178.516144 184.0
178.568314 176.0
178.659775 164.0
178.920593 172.0
178.953064 200.0
178.996063 216.0
179.029755 156.0
179.129028 148.0
179.249207 176.0
179.346802 140.0
179.439896 148.0
179.47052 104.0
179.517441 156.0
179.544098 212.0
179.643768 280.0
179.724396 224.0
179.754852 164.0
179.819443 256.0
179.841263 144.0
179.936844 128.0
179.998016 196.0
180.210419 324.0
180.238159 172.0
180.341553 216.0
180.406128 176.0
180.462692 148.0
180.502853 184.0
180.70488 116.0
180.766129 172.0
180.921188 160.0
181.046036 136.0
181.106781 164.0
181.192291 232.0
181.252304 156.0
181.465637 204.0
181.529922 116.0
181.563339 144.0
181.587952 172.0
181.611542 156.0
181.640747 172.0
181.681274 212.0
181.767136 188.0
181.807388 196.0
181.827652 132.0
181.879578 156.0
181.998611 272.0
182.070358 164.0
182.153748 184.0
182.264923 148.0
182.368713 180.0
182.414948 132.0
182.607117 168.0
182.663727 100.0
182.729721 240.0
182.800247 360.0
182.821182 180.0
182.845474 152.0
182.87648 148.0
182.905762 96.0
182.936523 172.0
182.959686 316.0
183.021484 112556.0
183.167694 168.0
183.281891 268.0
183.330566 216.0
183.402832 120.0
183.474152 188.0
183.496643 244.0
183.540451 96.0
183.622162 152.0
183.657455 180.0
183.723282 300.0
183.790741 216.0
183.863068 132.0
183.871994 120.0
183.90065 224.0
183.941757 340.0
183.984406 276.0
184.024841 6520.0
184.053589 149296.0
184.153519 164.0
184.201111 200.0
184.255753 236.0
184.276062 356.0
184.335022 336.0
184.403641 140.0
184.42392 168.0
184.472824 148.0
184.492798 128.0
184.565369 276.0
184.631516 440.0
184.69223 128.0
184.721207 144.0
184.772491 200.0
184.813675 144.0
184.867844 184.0
184.89241 128.0
184.941086 404.0
184.975998 180.0
185.018402 24508.0
185.055862 9904.0
185.104477 184.0
185.14798 196.0
185.171494 268.0
185.253738 208.0
185.285797 168.0
185.350296 124.0
185.379929 128.0
185.408478 124.0
185.428528 248.0
185.45462 172.0
185.481506 136.0
185.51622 152.0
185.562241 144.0
185.583267 232.0
185.721161 128.0
185.742279 212.0
185.794647 156.0
185.852219 220.0
185.959198 204.0
186.022842 1032.0
186.050385 30128.0
186.141769 400.0
186.267654 112.0
186.326889 104.0
186.380737 100.0
186.419189 248.0
186.472305 248.0
186.521057 192.0
186.580185 144.0
186.608948 176.0
186.693237 116.0
186.755707 156.0
186.82782 168.0
187.052963 2924.0
187.097244 196.0
187.210846 144.0
187.308762 172.0
187.336472 128.0
187.377762 232.0
187.436005 132.0
187.593048 228.0
187.618393 172.0
187.740295 156.0
187.759262 140.0
188.003983 164.0
188.062836 124.0
188.096512 100.0
188.154282 252.0
188.193268 180.0
188.248337 176.0
188.281738 100.0
188.357117 160.0
188.471024 208.0
188.79834 192.0
189.013275 156.0
189.091125 152.0
189.265503 244.0
189.330811 148.0
189.518753 100.0
189.593811 256.0
189.638214 140.0
189.763763 152.0
189.788437 140.0
189.988663 180.0
190.174698 100.0
190.205444 160.0
190.23912 252.0
190.282318 228.0
190.334473 276.0
190.418961 184.0
190.612381 140.0
190.686111 148.0
190.820816 160.0
190.908798 272.0
191.024323 148.0
191.360062 172.0
191.400925 300.0
191.519791 164.0
191.607941 152.0
191.643753 144.0
191.74472 128.0
192.217667 208.0
192.277817 116.0
192.375839 188.0
192.59552 192.0
192.659348 152.0
192.730881 216.0
192.780624 152.0
192.869064 140.0
193.039368 172.0
193.084732 196.0
193.10408 172.0
193.21637 172.0
193.267303 192.0
193.39241 364.0
193.43335 228.0
193.501556 176.0
193.560715 216.0
193.628769 208.0
193.664627 160.0
193.735199 144.0
193.859879 140.0
193.887589 200.0
193.994766 180.0
194.0159 112.0
194.076096 148.0
194.114914 196.0
194.139877 152.0
194.333984 176.0
194.376572 160.0
194.445038 232.0
194.49501 176.0
194.686569 160.0
194.717133 140.0
194.828232 176.0
194.919525 116.0
195.004761 264.0
195.158966 212.0
195.203461 192.0
195.508789 300.0
195.656982 204.0
195.800461 160.0
195.871933 108.0
195.999573 220.0
196.033005 196.0
196.152847 148.0
196.272736 244.0
196.302063 364.0
196.431702 168.0
196.5672 172.0
196.671677 148.0
196.727509 184.0
196.764938 148.0
196.847565 208.0
197.057877 176.0
197.121323 204.0
197.177139 160.0
197.233109 144.0
197.456787 152.0
197.540558 156.0
197.683395 200.0
197.848526 164.0
197.949188 244.0
198.047958 276.0
198.203369 168.0
198.237869 176.0
198.257477 208.0
198.640091 144.0
198.812225 148.0
198.837799 160.0
198.874496 224.0
198.933441 236.0
198.95871 168.0
199.2845 164.0
199.376053 144.0
199.444687 156.0
199.530212 160.0
199.565781 208.0
199.68837 232.0
199.731491 228.0
199.780685 108.0
199.876541 208.0
199.942505 168.0
200.088882 100.0
200.117035 144.0
200.201508 144.0
200.458633 116.0
200.586548 164.0
200.713928 100.0
200.762466 152.0
200.91153 212.0
200.985168 172.0
201.030975 960.0
201.07547 160.0
201.233551 176.0
201.269348 212.0
201.352142 164.0
201.40863 180.0
201.501511 164.0
201.630295 212.0
201.680756 236.0
201.903442 108.0
201.942841 140.0
201.973953 176.0
202.034943 208.0
202.16069 220.0
202.264114 200.0
202.469269 200.0
202.646851 228.0
202.697784 204.0
202.863113 208.0
203.031387 292.0
203.135345 152.0
203.189972 188.0
203.275589 144.0
203.416275 156.0
203.4617 208.0
203.613983 108.0
203.688873 160.0
203.922653 224.0
203.972717 140.0
204.032043 164.0
204.064789 332.0
204.0896 140.0
204.227768 144.0
204.28299 184.0
204.321274 120.0
204.433792 148.0
204.453705 144.0
204.544785 208.0
204.65683 132.0
204.692368 148.0
204.853806 164.0
204.991943 180.0
205.054642 192.0
205.171509 156.0
205.211426 140.0
205.294113 176.0
205.345444 148.0
205.44133 172.0
205.591827 248.0
205.677307 168.0
205.901398 176.0
205.968948 116.0
206.041946 148.0
206.113373 152.0
206.317688 176.0
206.475418 204.0
206.563232 192.0
206.625168 148.0
206.716797 172.0
206.765808 244.0
206.810516 156.0
207.051682 180.0
207.164459 160.0
207.250092 168.0
207.295029 148.0
207.610519 192.0
207.653198 296.0
207.751068 228.0
207.782623 156.0
207.960266 164.0
208.066757 184.0
208.12561 124.0
208.166824 184.0
208.216537 180.0
208.280823 136.0
208.356812 168.0
208.397842 156.0
208.530518 204.0
208.701782 152.0
208.817352 208.0
208.923309 156.0
209.143066 112.0
209.225342 152.0
209.323242 160.0
209.34433 184.0
209.501266 376.0
209.641602 124.0
209.703903 236.0
209.736404 136.0
209.951462 240.0
210.012024 192.0
210.0905 156.0
210.203598 268.0
210.290512 160.0
210.383392 196.0
210.418915 216.0
210.493988 176.0
210.567368 136.0
210.658615 140.0
210.692902 124.0
210.720352 256.0
210.762619 160.0
210.795776 152.0
210.826202 220.0
210.87822 184.0
210.955475 172.0
211.065262 160.0
211.105591 148.0
211.266815 328.0
211.298355 180.0
211.367249 212.0
211.396469 404.0
211.428741 148.0
211.460205 260.0
211.489441 244.0
211.530518 132.0
211.571274 140.0
211.600601 160.0
211.633163 260.0
211.66214 332.0
211.698349 376.0
211.720352 480.0
211.758713 336.0
211.812119 356.0
211.867462 240.0
211.957062 216.0
212.014969 508.0
212.049896 221100.0
212.119507 228.0
212.139481 232.0
212.200546 132.0
212.238739 220.0
212.320786 296.0
212.368439 172.0
212.38768 240.0
212.415955 208.0
212.467285 136.0
212.491501 448.0
212.525879 8068.0
212.573822 424.0
212.624069 132.0
212.665054 188.0
212.718262 100.0
212.750671 232.0
212.786636 140.0
212.807571 224.0
212.849762 140.0
212.890686 100.0
212.923843 220.0
212.962891 228.0
212.982742 244.0
213.002823 424.0
213.05159 41568.0
213.201538 96.0
213.242371 300.0
213.266235 208.0
213.28511 336.0
213.366119 188.0
213.415604 148.0
213.439575 256.0
213.473755 148.0
213.532486 360.0
213.56662 208.0
213.60321 156.0
213.657349 168.0
213.818848 164.0
213.902969 168.0
213.976547 132.0
214.045837 113856.0
214.133255 152.0
214.161377 168.0
214.217667 116.0
214.279831 116.0
214.328751 176.0
214.363953 260.0
214.409576 228.0
214.440857 136.0
214.481979 256.0
214.54422 232.0
214.562424 244.0
214.645248 288.0
214.701492 236.0
214.724823 112.0
214.767029 212.0
214.80925 140.0
214.866837 144.0
214.956696 136.0
215.015747 164.0
215.047745 7548.0
215.157181 204.0
215.293076 112.0
215.651611 320.0
215.687164 172.0
215.771286 100.0
215.832596 136.0
215.889709 124.0
215.984619 168.0
216.144623 100.0
216.248016 220.0
216.290085 164.0
216.310669 140.0
216.433395 120.0
216.489395 188.0
216.526306 180.0
216.571045 104.0
216.592285 132.0
216.651733 96.0
216.707153 160.0
216.729416 140.0
216.766388 104.0
217.164368 128.0
217.336304 104.0
217.723206 140.0
217.866028 216.0
218.189301 188.0
218.386322 140.0
218.736465 148.0
218.789459 140.0
218.919006 160.0
219.285583 168.0
219.352127 208.0
219.412277 128.0
219.505432 152.0
219.611603 228.0
219.894852 236.0
220.022446 228.0
220.098541 168.0
220.277634 100.0
220.458923 156.0
220.509552 184.0
220.584305 152.0
220.606705 168.0
220.673599 160.0
220.740097 172.0
221.059235 188.0
221.248672 144.0
221.513611 112.0
221.553696 140.0
221.733994 156.0
221.778107 148.0
221.8293 200.0
221.884201 240.0
222.022369 104.0
222.048721 148.0
222.220764 172.0
222.256378 148.0
222.499756 140.0
222.705826 152.0
222.839188 124.0
222.980972 176.0
223.235886 160.0
223.315628 100.0
223.46347 192.0
223.77066 136.0
224.028351 160.0
224.151535 152.0
224.748367 128.0
224.813217 236.0
225.060287 148.0
225.514648 124.0
225.610016 152.0
225.998077 176.0
226.300522 144.0
226.423904 140.0
226.531723 160.0
226.651566 160.0
226.675537 144.0
226.878571 136.0
227.083252 176.0
227.14624 144.0
227.176239 176.0
227.239441 124.0
227.425308 164.0
227.623444 168.0
227.693741 108.0
228.291733 124.0
228.407852 156.0
228.513153 148.0
228.781921 144.0
228.87735 208.0
228.907455 176.0
229.134277 196.0
229.330566 136.0
229.567413 148.0
229.588516 140.0
229.745361 148.0
230.418594 144.0
230.559921 120.0
230.776627 96.0
230.835709 140.0
231.098877 204.0
231.736771 164.0
231.886215 208.0
232.095383 156.0
232.283417 160.0
232.589386 144.0
232.929993 192.0
233.015442 248.0
233.274429 160.0
233.60788 176.0
233.896957 140.0
234.030792 216.0
234.073532 180.0
234.3172 180.0
234.397552 184.0
234.420807 144.0
234.83847 184.0
234.967331 132.0
235.013855 320.0
235.085602 284.0
235.106949 160.0
235.24736 264.0
235.373672 148.0
235.421402 148.0
235.509964 140.0
235.638275 156.0
235.974457 148.0
236.041733 180.0
236.154892 156.0
236.185471 168.0
236.29866 144.0
236.689255 144.0
237.162231 272.0
237.533249 144.0
237.655975 144.0
237.677444 156.0
237.809402 140.0
238.086182 108.0
238.199371 152.0
238.540466 148.0
239.623734 156.0
240.083023 192.0
240.269714 112.0
240.345215 152.0
240.394592 204.0
240.505692 152.0
240.663147 148.0
240.928757 200.0
241.098694 184.0
241.148148 176.0
241.330536 156.0
241.472778 224.0
242.128906 140.0
242.361237 192.0
242.540985 192.0
242.587494 204.0
242.7146 160.0
243.012375 196.0
243.100906 128.0
243.462463 168.0
243.490417 144.0
243.658157 212.0
243.81662 184.0
243.968933 148.0
244.024887 180.0
244.2005 148.0
244.578323 160.0
244.612869 240.0
244.6689 140.0
244.752975 148.0
245.048874 140.0
245.150818 200.0
245.410416 152.0
246.19989 180.0
246.399796 176.0
246.724823 176.0
247.015656 172.0
247.065704 164.0
247.103256 172.0
247.783218 336.0
248.058426 156.0
248.147491 104.0
248.409637 140.0
248.594742 164.0
248.878693 176.0
248.905518 152.0
248.963043 312.0
249.263611 140.0
249.383041 152.0
249.472412 184.0
249.530777 176.0
250.358337 148.0
250.420822 172.0
250.827805 148.0
251.414444 156.0
251.600677 152.0
251.644882 168.0
251.818558 176.0
251.935425 168.0
252.084656 192.0
252.279892 184.0
252.338959 164.0
252.38739 160.0
252.482254 144.0
252.545517 188.0
253.089828 216.0
253.210159 224.0
253.492111 140.0
254.272263 144.0
254.383347 156.0
254.681839 156.0
254.754898 164.0
255.112564 148.0
255.447891 232.0
255.546524 180.0
255.610153 268.0
255.646484 124.0
256.078125 184.0
256.285217 212.0
257.088776 184.0
257.136658 148.0
257.324982 164.0
257.481445 164.0
257.861633 168.0
258.066223 184.0
258.248505 144.0
258.360474 176.0
258.412506 156.0
258.573517 152.0
258.811737 164.0
258.891815 144.0
259.035919 160.0
259.064545 176.0
259.122437 192.0
259.378815 200.0
259.481384 192.0
259.539093 156.0
259.574371 168.0
259.673798 192.0
259.787354 216.0
260.329803 116.0
260.40509 112.0
260.588654 160.0
260.900421 144.0
261.049622 136.0
261.153473 228.0
261.327637 168.0
261.457672 180.0
261.508362 156.0
261.870941 176.0
261.952728 156.0
262.044067 2672.0
262.084808 192.0
262.845795 148.0
263.0495 608.0
263.100769 220.0
263.416687 136.0
263.463989 144.0
263.523865 288.0
263.779175 140.0
263.895538 148.0
264.040619 688.0
264.241608 140.0
264.474609 192.0
264.570984 192.0
264.623535 140.0
265.177673 124.0
265.410858 172.0
265.453033 204.0
265.611938 176.0
265.679291 164.0
266.345551 168.0
266.504181 96.0
267.109406 208.0
267.365448 180.0
267.434784 196.0
267.887421 168.0
267.961029 176.0
268.761169 216.0
268.943909 164.0
269.103882 168.0
269.325958 140.0
269.724579 164.0
270.33963 160.0
270.529297 236.0
270.653717 248.0
270.882965 160.0
270.945221 172.0
270.984528 188.0
271.241791 240.0
271.30899 176.0
271.436859 144.0
271.741882 192.0
271.820648 336.0
272.007721 228.0
272.081421 176.0
272.17514 152.0
272.483887 184.0
272.689575 148.0
273.189545 168.0
273.690979 184.0
273.973877 112.0
274.135681 196.0
274.337799 100.0
274.557648 172.0
274.712677 152.0
274.880951 152.0
275.161499 160.0
275.404358 168.0
275.471924 244.0
275.504974 168.0
275.557831 236.0
275.590851 140.0
275.80899 152.0
275.951141 204.0
276.602844 220.0
276.983643 208.0
277.044373 276.0
277.424377 220.0
277.868774 172.0
277.905273 140.0
278.025024 140.0
278.142517 132.0
279.108765 148.0
279.407623 112.0
279.451935 152.0
279.869659 160.0
279.979523 144.0
280.241455 160.0
280.283813 140.0
280.345978 144.0
280.82373 120.0
280.889465 176.0
281.036255 148.0
281.239807 140.0
281.356659 144.0
281.446411 144.0
281.540283 168.0
281.63382 160.0
282.11499 156.0
282.245392 152.0
282.562927 124.0
282.613312 172.0
282.792145 212.0
282.817444 176.0
283.062439 140.0
283.169006 156.0
283.277405 180.0
283.54425 152.0
283.748077 104.0
284.198151 192.0
284.463287 196.0
284.705048 124.0
285.164215 184.0
285.239258 192.0
285.276245 148.0
285.416412 180.0
285.558685 172.0
285.662964 140.0
285.730255 156.0
285.811005 164.0
285.837921 140.0
285.888397 168.0
286.107178 256.0
286.282257 140.0
286.333069 96.0
286.484619 156.0
286.604675 140.0
286.656189 156.0
287.185486 180.0
287.360901 144.0
287.631836 156.0
287.711914 168.0
287.806427 160.0
287.853699 156.0
288.783081 140.0
288.806763 144.0
289.095215 152.0
290.208771 144.0
290.683655 140.0
290.922974 200.0
291.515869 172.0
291.668579 140.0
291.985413 108.0
292.508759 184.0
293.033325 392.0
293.252777 184.0
293.336517 152.0
293.459259 144.0
293.738892 140.0
293.824188 160.0
293.967499 148.0
294.039673 372.0
294.107422 168.0
294.218811 144.0
294.313873 184.0
294.511597 152.0
294.664062 148.0
294.793884 156.0
294.896973 176.0
295.033661 284.0
295.265656 152.0
295.313538 200.0
295.573547 148.0
296.135986 136.0
296.466461 96.0
296.53244 176.0
297.015869 140.0
297.324677 180.0
297.424194 152.0
297.47226 184.0
297.66452 144.0
297.829376 144.0
298.00116 148.0
298.111115 160.0
298.908905 156.0
299.019012 204.0
299.170471 160.0
299.443207 156.0
299.752533 156.0
299.862823 160.0
299.91452 172.0
300.263489 96.0
300.364227 192.0
300.794128 140.0
300.994354 204.0
301.10141 144.0
301.325928 164.0
301.996246 132.0
302.456757 200.0
302.924225 160.0
303.142517 148.0
303.177155 160.0
304.585815 168.0
305.524384 204.0
305.781891 184.0
306.022095 200.0
306.325073 148.0
306.659576 140.0
306.948944 160.0
307.285828 116.0
307.318665 160.0
307.535034 156.0
307.629272 144.0
308.001526 200.0
308.216034 160.0
308.346222 204.0
308.740387 160.0
308.791779 128.0
308.866302 172.0
309.286194 212.0
309.618805 184.0
309.903839 172.0
310.011169 220.0
310.26004 216.0
310.3125 140.0
310.466553 156.0
310.782593 176.0
310.986145 152.0
311.107605 152.0
311.737701 164.0
312.63797 152.0
313.557159 168.0
313.722839 188.0
313.751038 172.0
313.829773 192.0
314.636536 304.0
314.788361 156.0
314.827209 180.0
314.860809 312.0
315.067627 132.0
315.150543 172.0
315.459656 212.0
315.497131 180.0
315.731934 164.0
315.848633 152.0
316.306427 204.0
316.6698 156.0
316.740662 140.0
316.768829 192.0
317.165863 204.0
317.225769 164.0
317.540527 144.0
317.718475 120.0
317.926514 96.0
318.175568 124.0
318.253815 172.0
318.413788 212.0
318.500031 144.0
318.52887 132.0
318.698975 144.0
319.280609 204.0
319.564423 136.0
319.655487 160.0
319.733765 200.0
319.7966 128.0
319.844116 152.0
319.895447 188.0
320.00174 244.0
320.087036 152.0
320.134155 172.0
320.164551 204.0
320.194885 116.0
320.263092 108.0
320.47644 136.0
320.586548 156.0
320.620544 140.0
320.670013 196.0
320.793945 200.0
320.837677 276.0
320.882172 344.0
320.964783 156.0
321.065033 200.0
321.137817 440.0
321.169464 128.0
321.20871 248.0
321.306152 268.0
321.369934 216.0
321.394287 148.0
321.416351 404.0
321.474792 200.0
321.582123 424.0
321.64447 368.0
321.695068 228.0
321.753632 336.0
321.778717 336.0
321.827423 472.0
321.867218 500.0
321.910492 268.0
321.953644 508.0
321.988495 412.0
322.024933 1328.0
322.069275 203936.0
322.161835 96.0
322.271332 172.0
322.327332 348.0
322.376465 124.0
322.403046 356.0
322.454529 412.0
322.540833 216.0
322.586395 124.0
322.615723 188.0
322.657379 7452.0
322.690247 512.0
322.717346 236.0
322.835449 152.0
322.894012 140.0
322.945679 244.0
323.005341 192.0
323.071259 67428.0
323.149597 236.0
323.220703 220.0
323.280151 244.0
323.341736 132.0
323.37442 128.0
323.409088 208.0
323.431427 228.0
323.455261 176.0
323.48819 312.0
323.529968 236.0
323.608276 228.0
323.661713 236.0
323.698761 228.0
323.75827 208.0
323.793304 240.0
323.861908 176.0
323.904022 300.0
323.943848 296.0
324.065887 120564.0
324.15802 132.0
324.209747 184.0
324.338379 112.0
324.362854 264.0
324.45639 176.0
324.5242 96.0
324.608948 180.0
324.654755 620.0
324.703461 300.0
324.765076 196.0
324.825104 184.0
324.91272 136.0
324.955658 136.0
324.978729 356.0
325.066162 10768.0
325.214172 216.0
325.249908 392.0
325.292328 104.0
325.326843 156.0
325.373352 208.0
325.422485 204.0
325.465668 176.0
325.492523 252.0
325.571808 152.0
325.666992 172.0
325.707764 140.0
325.872406 96.0
325.898346 176.0
326.066559 348.0
326.16626 140.0
326.221649 96.0
326.32489 184.0
326.380402 128.0
326.516327 120.0
326.77774 144.0
326.8367 112.0
326.889038 180.0
326.928802 132.0
326.958038 196.0
327.169403 108.0
327.284241 152.0
327.470673 304.0
327.516541 160.0
327.950012 184.0
328.064056 100.0
328.297119 124.0
328.377594 108.0
328.428406 100.0
328.818909 96.0
331.246338 124.0
331.71286 168.0
332.333008 140.0
333.514618 104.0
335.402405 184.0
336.624603 188.0
339.718109 100.0
340.490662 136.0
341.212067 184.0
342.804474 108.0
359.834564 140.0
362.156464 140.0
374.856049 156.0
382.11615 140.0
411.332031 176.0
420.056549 140.0
439.351654 140.0
482.606842 144.0
497.54303 172.0
509.134796 164.0
571.366211 112.0
590.599731 196.0
615.521545 116.0
667.889526 140.0
770.525574 160.0
927.884155 184.0
975.950134 208.0
1025.975586 224.0
1034.958618 144.0
1040.459595 160.0
1069.504639 188.0
1081.207031 200.0
1083.597168 172.0
1108.616821 156.0
1110.718506 144.0
1123.037231 184.0
1130.192017 208.0
1137.033936 160.0
1139.565552 180.0
1144.529419 156.0
1148.599976 156.0
1152.133057 128.0
1154.043213 204.0
1154.74646 148.0
1156.627441 216.0
1159.085938 168.0
1171.805542 172.0
1199.678467 164.0
1202.755005 160.0
1208.373413 184.0
1208.857788 224.0
1210.346069 200.0
1218.859131 172.0
1219.065552 156.0
1220.302856 212.0
1228.974243 188.0
1243.179199 192.0
1245.594482 144.0
1248.680054 252.0
1248.757446 208.0
1251.276611 164.0
1254.432739 148.0
1265.205933 160.0
1265.956543 216.0
1267.571655 172.0
1267.996826 200.0
1269.414673 148.0
1270.067139 152.0
1272.437378 172.0
1279.447266 216.0
1281.926025 152.0
1287.204712 148.0
1287.404663 152.0
1292.20813 256.0
1292.809204 144.0
1292.952271 144.0
1294.3125 200.0
1303.300049 276.0
1306.333984 156.0
1306.837646 148.0
1310.819458 188.0
1311.972656 216.0
1313.075928 192.0
1319.119507 244.0
1319.329102 148.0
1324.177246 184.0
1324.879883 160.0
1326.263916 172.0
1328.577148 168.0
1330.101074 140.0
1337.427979 168.0
1341.266602 184.0
1342.22168 172.0
1343.104126 220.0
1343.994141 140.0
1345.614502 148.0
1345.935791 152.0
1346.403076 160.0
1348.302612 140.0
1348.711914 224.0
1348.792358 264.0
1355.320312 184.0
1358.345215 184.0
1358.461426 148.0
1367.540405 144.0
1369.218994 188.0
1369.786133 176.0
1374.785034 176.0
1374.858887 200.0
1376.837402 176.0
1379.379028 176.0
1381.397827 148.0
1382.130249 212.0
1383.129395 196.0
1384.00293 216.0
1384.417603 176.0
1388.560425 252.0
1388.960938 172.0
1395.176514 196.0
1396.031494 160.0
1399.223633 208.0
1403.275269 148.0
1405.186035 148.0
1406.268066 184.0
1407.581909 208.0
1409.546509 184.0
1412.170532 172.0
1413.524658 188.0
1415.515747 156.0
1416.047485 180.0
1417.411011 168.0
1420.184814 144.0
1420.664917 152.0
1421.149414 124.0
1424.43335 188.0
1427.041138 160.0
1427.492188 148.0
1427.700439 140.0
1432.301514 168.0
1432.572632 188.0
1433.062378 180.0
1437.171631 156.0
1437.458374 192.0
1438.567871 220.0
1438.711304 192.0
1439.020752 176.0
1439.292603 156.0
1439.707886 188.0
1439.987427 232.0
1441.838379 172.0
1444.628418 196.0
1447.625732 148.0
1448.087646 200.0
1450.466797 192.0
1453.341064 156.0
1453.857178 152.0
1459.303467 144.0
1460.292114 160.0
1465.323853 172.0
1466.413452 140.0
1468.700928 148.0
1469.013672 172.0
1471.692383 228.0
1474.847534 196.0
1476.393677 212.0
1477.11084 148.0
1478.87085 164.0
1479.758789 212.0
1480.325439 152.0
1482.232788 200.0
1483.068115 144.0
1485.713745 140.0
1486.10498 164.0
1486.396484 240.0
1486.723633 220.0
1489.966797 172.0
1491.165527 220.0
1491.780518 180.0
1492.049561 148.0
1500.664795 180.0
1502.011963 216.0
1502.307495 140.0
1504.746216 236.0
1507.604248 204.0
1507.90564 172.0
1510.983276 144.0
1512.056763 136.0
1514.420288 232.0
1515.109741 212.0
1515.295654 148.0
1516.372803 180.0
1517.458008 268.0
1522.626099 160.0
1523.061035 160.0
1524.614868 180.0
1524.770264 156.0
1525.749756 180.0
1526.379517 156.0
1526.488403 180.0
1527.110596 232.0
1530.293335 156.0
1530.511353 148.0
1534.46167 140.0
1536.325562 248.0
1536.715576 148.0
1538.096924 216.0
1538.697998 212.0
1539.752197 204.0
1540.056763 180.0
1540.689575 200.0
1541.306763 156.0
1541.3927 224.0
1542.330566 164.0
1547.188354 192.0
1547.415405 168.0
1547.908691 144.0
1550.407715 180.0
1550.564453 180.0
1552.289185 144.0
1553.442017 164.0
1553.606812 160.0
1554.375732 192.0
1557.516113 180.0
1557.995239 184.0
1558.592163 140.0
1559.260376 156.0
1561.375244 188.0
1561.650513 156.0
1562.492188 164.0
1562.555054 188.0
1566.845825 164.0
1568.500732 144.0
1570.298462 176.0
1575.050049 160.0
1575.824219 168.0
1576.243042 148.0
1577.499634 212.0
1580.758301 148.0
1581.510132 232.0
1581.613037 216.0
1583.296753 156.0
1583.822144 204.0
1587.036133 124.0
1587.602661 156.0
1591.220947 172.0
1593.786499 156.0
1593.921509 140.0
1594.231445 164.0
1595.026245 208.0
1595.272705 212.0
1595.701904 172.0
1595.94043 152.0
1599.257812 168.0
1600.077759 184.0
1600.31665 208.0
1601.04126 152.0
1601.399658 164.0
1602.72998 176.0
1603.602417 104.0
1604.914062 148.0
1606.150146 148.0
1606.708496 152.0
1607.035645 160.0
1607.302612 148.0
1607.945312 232.0
1608.60791 172.0
1609.198608 192.0
1612.91333 160.0
1614.288574 168.0
1614.86438 180.0
1615.240234 156.0
1618.001099 148.0
1620.772339 144.0
1622.808228 140.0
1622.928467 188.0
1623.441772 148.0
1626.241699 144.0
1627.012329 184.0
1627.526123 224.0
1630.418091 140.0
1630.602905 144.0
1630.823486 144.0
1631.712158 208.0
1632.025757 160.0
1632.797729 180.0
1633.143555 180.0
1634.889404 160.0
1636.515503 236.0
1641.358032 184.0
1642.495239 300.0
1646.797363 152.0
1647.863647 156.0
1648.259521 180.0
1648.881836 200.0
1649.407227 220.0
1650.62793 232.0
1653.346069 148.0
1654.204102 144.0
1654.268799 160.0
1655.272705 216.0
1655.910278 172.0
1656.017822 156.0
1658.27832 204.0
1658.586304 176.0
1659.024048 184.0
1660.532227 252.0
1663.250366 160.0
1664.287598 168.0
1664.465698 248.0
1665.028564 172.0
1665.532104 260.0
1667.384521 176.0
1667.896606 180.0
1668.099854 180.0
1669.888672 144.0
1671.629639 156.0
1672.533081 232.0
1673.265625 140.0
1675.594971 148.0
1678.105225 144.0
1678.411011 216.0
1678.667847 224.0
1680.446045 144.0
1680.951904 168.0
1681.049805 164.0
1681.221191 196.0
1681.580322 148.0
1682.633301 160.0
1682.96814 160.0
1683.807251 172.0
1683.924561 124.0
1686.554443 160.0
1687.428101 124.0
1688.582153 236.0
1688.655762 152.0
1689.121948 180.0
1689.465576 144.0
1689.596436 200.0
1690.349243 160.0
1690.922119 160.0
1691.126709 192.0
1691.552368 216.0
1692.952393 144.0
1693.075195 200.0
1695.188843 152.0
1695.254395 164.0
1695.975586 184.0
1696.828125 164.0
1697.147949 140.0
1697.344727 196.0
1697.525146 188.0
1699.559326 172.0
1700.133789 140.0
1700.659058 184.0
1700.798584 156.0
1701.997192 212.0
1703.007324 180.0
1703.245483 172.0
1703.804077 176.0
1706.228516 168.0
1706.376587 180.0
1706.952148 168.0
1707.330322 188.0
1707.544189 140.0
1708.473633 160.0
1709.164795 168.0
1710.975586 196.0
1711.510742 180.0
1713.278198 204.0
1714.504517 212.0
1715.036621 148.0
1715.120605 204.0
1715.613647 184.0
1716.817505 172.0
1719.127441 180.0
1719.358398 164.0
1719.713379 152.0
1720.527466 148.0
1720.802979 156.0
1721.983887 208.0
1723.346924 164.0
1723.495605 304.0
1724.222778 200.0
1724.479004 244.0
1725.718994 140.0
1726.818848 212.0
1727.341675 120.0
1728.837524 140.0
1730.907104 164.0
1732.397827 168.0
1733.126953 152.0
1734.502686 144.0
1736.111084 156.0
1737.380249 184.0
1737.76355 188.0
1738.125854 180.0
1738.375854 196.0
1739.247314 148.0
1740.143799 168.0
1740.550659 156.0
1740.874512 140.0
1741.838013 196.0
1743.524658 152.0
1744.929443 192.0
1746.293213 212.0
1747.100098 252.0
1747.757324 184.0
1750.5 160.0
1753.386719 160.0
1754.07019 188.0
1754.578735 192.0
1758.599365 176.0
1759.137329 156.0
1759.283936 220.0
1760.188965 152.0
1760.344238 144.0
1760.519653 180.0
1761.768311 180.0
1761.914551 220.0
1762.123413 152.0
1764.555542 240.0
1764.706055 188.0
1766.144409 172.0
1766.336792 156.0
1767.499634 180.0
1768.088013 160.0
1768.537476 144.0
1768.771851 152.0
1770.019287 148.0
1771.384399 148.0
1772.113281 228.0
1772.532227 156.0
1772.942871 184.0
1775.340454 140.0
1777.748047 148.0
1778.461426 156.0
1781.669189 156.0
1781.83728 256.0
1782.064087 164.0
1782.761597 140.0
1783.711304 168.0
1784.266113 152.0
1784.509888 144.0
1785.451782 144.0
1785.81665 216.0
1786.090942 192.0
1787.167725 144.0
1788.278564 184.0
1788.590088 188.0
1789.878174 168.0
1790.105469 172.0
1790.240234 156.0
1791.520508 164.0
1794.225952 152.0
1794.765259 212.0
1795.583252 168.0
1796.983643 208.0
1797.338013 164.0
1798.722046 188.0
1799.034424 176.0
1799.574707 200.0
1799.91272 152.0
1800.334717 180.0
1803.291626 248.0
1803.545166 188.0
1803.748047 188.0
1804.990845 140.0
1806.200317 172.0
1807.613159 200.0
1810.305054 160.0
1810.533691 152.0
1812.14978 256.0
1812.575317 180.0
1812.956665 152.0
1813.19397 356.0
1815.398071 180.0
1817.069092 156.0
1819.165283 296.0
1819.734131 148.0
1821.092773 160.0
1821.772339 160.0
1822.460571 168.0
1822.732422 152.0
1822.885376 208.0
1824.202759 184.0
1825.018921 192.0
1825.84375 196.0
1826.388062 152.0
1827.366455 148.0
1827.919556 252.0
1828.055664 168.0
1829.672852 224.0
1830.452271 132.0
1832.398193 244.0
1832.815674 204.0
1833.795776 324.0
1834.000244 196.0
1834.221924 176.0
1834.750488 200.0
1835.654175 192.0
1836.344971 216.0
1836.592407 164.0
1837.215088 216.0
1837.744019 212.0
1838.358398 188.0
1839.095093 192.0
1839.800903 172.0
1839.997192 220.0
1841.346436 340.0
1841.741943 208.0
1841.858887 180.0
1842.584961 204.0
1843.559082 196.0
1844.03772 176.0
1844.516357 168.0
1844.875366 156.0
1845.961182 148.0
1846.029663 168.0
1846.226318 148.0
1847.209961 188.0
1848.690063 168.0
1848.75 144.0
1849.426147 176.0
1849.614502 160.0
1850.162354 224.0
1850.324951 152.0
1852.534546 184.0
1852.611572 164.0
1852.817261 204.0
1854.693848 208.0
1854.908203 164.0
1855.551147 156.0
1855.911255 152.0
1856.271362 208.0
1856.572754 204.0
1857.394897 168.0
1857.935303 140.0
1858.939209 228.0
1859.2052 148.0
1859.548584 184.0
1859.745972 180.0
1860.007935 140.0
1862.433472 172.0
1864.478271 216.0
1865.286255 196.0
1865.420044 168.0
1865.822144 224.0
1866.042725 208.0
1867.539062 172.0
1868.072388 140.0
1869.758789 192.0
1869.870728 176.0
1871.204956 152.0
1871.833496 208.0
1871.915161 168.0
1872.866943 148.0
1872.978882 172.0
1873.883423 280.0
1875.399048 188.0
1877.184814 140.0
1877.495239 168.0
1877.564209 144.0
1878.185181 144.0
1878.393433 172.0
1880.618408 184.0
1881.585571 220.0
1881.870117 152.0
1882.18103 184.0
1882.586914 152.0
1883.338257 212.0
1883.778809 140.0
1886.103271 184.0
1887.527954 140.0
1888.818359 144.0
1889.942993 140.0
1890.176636 152.0
1890.446777 180.0
1891.042114 148.0
1891.11792 180.0
1891.544067 220.0
1891.717285 180.0
1891.950928 152.0
1892.63501 176.0
1893.500977 152.0
1893.848511 160.0
1895.025513 208.0
1895.156128 152.0
1895.302734 160.0
1895.484741 160.0
1895.744751 148.0
1895.840088 200.0
1896.160767 148.0
1896.516479 184.0
1896.666626 108.0
1896.862793 160.0
1897.148804 192.0
1898.180664 152.0
1898.432129 188.0
1898.87439 164.0
1898.935059 144.0
1900.339844 116.0
1901.043213 160.0
1901.416382 172.0
1902.2323 176.0
1902.484131 148.0
1902.761841 148.0
1902.918213 168.0
1903.126587 196.0
1903.942749 156.0
1904.52478 148.0
1904.775635 200.0
1904.889526 152.0
1905.045898 144.0
1905.158813 204.0
1905.99292 196.0
1907.079224 200.0
1907.458252 180.0
1907.773804 176.0
1908.922363 164.0
1910.331299 176.0
1911.549438 156.0
1911.801758 180.0
1912.976807 200.0
1913.299072 168.0
1913.821289 164.0
1914.03894 208.0
1914.639771 192.0
1915.092773 208.0
1915.297241 164.0
1916.979004 148.0
1917.192383 144.0
1917.262085 192.0
1917.865234 164.0
1918.011719 152.0
1918.935791 176.0
1919.057861 180.0
1919.302002 176.0
1919.569702 188.0
1920.64502 228.0
1920.714722 164.0
1920.941528 184.0
1921.84021 172.0
1922.014648 156.0
1922.800049 168.0
1923.218994 232.0
1923.550659 216.0
1924.288696 236.0
1925.74231 168.0
1926.013184 140.0
1926.083008 164.0
1926.20459 156.0
1926.773071 196.0
1926.912964 376.0
1928.031372 184.0
1928.232422 216.0
1928.311035 200.0
1928.922852 208.0
1930.050659 144.0
1930.732788 168.0
1931.310059 232.0
1931.581177 152.0
1932.412231 164.0
1932.473511 168.0
1932.578491 220.0
1933.908691 244.0
1934.171265 140.0
1934.398926 148.0
1935.554565 168.0
1935.896118 212.0
1936.41272 168.0
1937.095947 144.0
1937.656616 184.0
1938.401367 196.0
1938.997314 156.0
1939.400513 168.0
1939.619629 188.0
1940.2771 180.0
1941.469604 212.0
1941.697632 156.0
1942.048462 200.0
1943.057251 176.0
1943.487183 168.0
1944.127441 120.0
1944.373535 172.0
1944.987915 144.0
1945.145874 160.0
1945.488281 336.0
1945.549683 152.0
1945.760376 172.0
1945.821899 192.0
1947.463989 200.0
1947.797729 204.0
1948.822266 168.0
1950.020752 152.0
1950.337158 180.0
1950.41626 196.0
1950.609619 188.0
1950.89978 188.0
1951.436035 152.0
1951.734985 168.0
1952.060303 340.0
1952.192261 168.0
1952.253784 152.0
1953.613159 160.0
1953.793091 168.0
1954.021851 160.0
1954.241821 140.0
1954.496948 184.0
1955.690063 172.0
1956.019531 220.0
1956.242676 180.0
1957.366455 152.0
1957.912476 176.0
1958.018188 208.0
1958.599487 216.0
1959.216064 204.0
1959.548096 136.0
1960.087524 160.0
1960.86084 380.0
1961.895142 156.0
1962.239014 160.0
1962.530029 208.0
1963.332397 172.0
1964.13501 204.0
1964.249756 168.0
1965.643677 272.0
1965.714233 144.0
1966.526245 128.0
1966.651123 236.0
1967.096924 136.0
1967.841553 172.0
1968.60083 188.0
1968.724487 200.0
1968.971802 180.0
1969.164917 216.0
1969.837402 156.0
1970.173096 200.0
1970.623657 252.0
1970.765015 160.0
1970.968262 152.0
1971.321655 148.0
1972.013306 176.0
1972.329224 168.0
1972.426514 180.0
1972.593628 128.0
1972.956909 192.0
1973.226807 120.0
1973.478516 188.0
1974.620483 200.0
1974.962158 220.0
1975.070312 140.0
1975.432983 216.0
1975.804565 216.0
1976.53894 188.0
1976.640503 176.0
1977.096436 248.0
1977.361938 232.0
1977.946167 148.0
1978.43689 156.0
1978.610107 192.0
1978.884521 316.0
1979.265259 208.0
1979.849731 176.0
1980.005859 184.0
1980.115356 172.0
1980.177368 148.0
1980.27478 276.0
1981.647827 160.0
1981.814941 192.0
1981.993408 200.0
1982.144043 204.0
1982.241577 184.0
1984.244751 212.0
1984.377686 212.0
1984.776733 148.0
1986.009399 164.0
1986.328735 192.0
1986.42041 136.0
1987.553101 180.0
1987.89917 160.0
1988.671265 196.0
1988.786621 140.0
1989.218506 152.0
1989.381348 184.0
1990.135986 172.0
1990.463501 168.0
1990.659912 144.0
1991.183838 144.0
1991.443726 244.0
1991.539185 204.0
1992.10083 208.0
1992.560669 140.0
1992.844971 184.0
1993.227051 164.0
1993.45813 164.0
1994.009155 160.0
1995.146851 196.0
1996.24939 168.0
1997.005371 140.0
1997.177124 156.0
1997.885986 156.0
1998.001709 168.0
1998.179565 172.0
1998.348633 144.0
1998.490967 232.0
1998.801147 256.0
1999.852539 144.0
2000.174561 160.0
2000.493408 212.0
2000.86084 212.0
2001.036499 180.0
2001.205688 184.0
2001.374878 168.0
2001.900269 212.0
2002.505859 152.0
2003.432251 176.0
