>compound MLS001140929-01!
>formula C32H39N5O3
>ionization [M+H]+
>parentmass 542.3125665600905
#inchi InChI=1S/C32H39N5O3/c1-21(2)19-27(29(38)33-23-13-16-35(17-14-23)20-22-9-5-4-6-10-22)37-30(39)32(3)28-25(15-18-36(32)31(37)40)24-11-7-8-12-26(24)34-28/h4-12,21,23,27,34H,13-20H2,1-3H3,(H,33,38)/t27-,32-/m0/s1
#inchikey XGKZEFLNVMYMQZ
#Ion_Source LC-ESI
#Instrument qTof
#Compound_Source NIH Natural Product Library
#PI Dorrestein
#Data_Collector VVP/LMS
#Scan -1
#Precursor_MZ 542.313
#ExactMass 541.305
#Charge 1
#CAS_Number N/A
#Pubmed_ID N/A
#Smiles CC(C)C[C@H](N1C(=O)N2CCc3c([nH]c4ccccc34)[C@@]2(C)C1=O)C(=O)NC5CCN(Cc6ccccc6)CC5
#INCHI_AUX N/A
#Library_Class 1
#SpectrumID CCMSLIB00000079969
#IonMode Positive
#UpdateWorkflowName UPDATE-SINGLE-ANNOTATED-GOLD
#LibraryQualityString Gold
#TaskID b1d8e8f6646f4e71acdff9ca3d919d08
##Scan# 2006
#SpectrumFile p2-D02_GD2_01_18014.mzXML
#LibraryName NIH_Natural_Products_Library.mgf
#MQScore -1
#Organism NIH_Natural_Products_Library
#TIC_Query 0
#RT_Query -1
#MZErrorPPM -1
#SharedPeaks 0
#MassDiff 0
#LibMZ -1
#SpecMZ 542.313
#SpecCharge 0
#internalFilename spec-00000.mgf

>collision 10
94.94632 144.0
95.002083 144.0
95.032112 148.0
95.05835 56.0
95.101044 180.0
95.134041 96.0
95.171829 184.0
95.200058 156.0
95.217537 52.0
95.311668 184.0
95.34668 244.0
95.362457 144.0
95.377777 320.0
95.429344 140.0
95.442955 160.0
95.578156 172.0
95.629967 148.0
95.651115 136.0
95.674477 152.0
95.699783 144.0
95.715363 104.0
95.843918 164.0
95.873146 188.0
95.998665 268.0
96.034065 104.0
96.045929 148.0
96.146431 208.0
96.163734 96.0
96.224251 164.0
96.292595 144.0
96.325798 80.0
96.372429 248.0
96.402222 380.0
96.487991 176.0
96.5271 108.0
96.546654 176.0
96.559074 156.0
96.575989 180.0
96.594444 184.0
96.617378 128.0
96.63372 104.0
96.65033 120.0
96.677727 148.0
96.69664 156.0
96.738396 144.0
96.777557 116.0
96.797134 136.0
96.822594 92.0
96.861763 112.0
96.909584 196.0
96.97097 196.0
96.985916 200.0
97.007362 252.0
97.042061 140.0
97.063629 192.0
97.167412 212.0
97.195045 68.0
97.246071 160.0
97.274681 180.0
97.304619 184.0
97.34256 132.0
97.377617 92.0
97.399567 112.0
97.462082 168.0
97.484436 80.0
97.517105 104.0
97.548553 136.0
97.574112 176.0
97.637032 140.0
97.6567 196.0
97.701942 120.0
97.851517 88.0
97.867264 144.0
97.88105 28.0
97.910583 208.0
97.948006 124.0
97.973618 224.0
97.993141 124.0
98.013985 100.0
98.030754 172.0
98.058342 116.0
98.125366 160.0
98.164803 140.0
98.194382 160.0
98.248123 276.0
98.294991 48.0
98.312752 188.0
98.347145 160.0
98.368011 60.0
98.399597 156.0
98.419342 44.0
98.466408 144.0
98.510193 56.0
98.543724 144.0
98.610023 160.0
98.647774 192.0
98.669151 128.0
98.675629 56.0
98.681137 112.0
98.707832 52.0
98.723648 176.0
98.739471 40.0
98.804749 252.0
98.820572 148.0
98.903557 120.0
98.953178 116.0
99.010605 104.0
99.056694 132.0
99.119553 196.0
99.144577 172.0
99.19883 148.0
99.284088 108.0
99.311852 64.0
99.329704 104.0
99.36322 152.0
99.397156 176.0
99.410843 156.0
99.495354 328.0
99.554024 180.0
99.585754 48.0
99.609589 200.0
99.645348 108.0
99.700981 176.0
99.754646 140.0
99.774529 164.0
99.796959 212.0
99.832184 88.0
99.848099 148.0
99.864006 144.0
99.946533 232.0
99.977409 156.0
99.997307 68.0
100.025177 272.0
100.073715 356.0
100.102173 148.0
100.118256 144.0
100.176514 140.0
100.244255 64.0
100.266174 148.0
100.316002 132.0
100.343643 88.0
100.458626 92.0
100.516357 124.0
100.53141 136.0
100.563339 68.0
100.601265 164.0
100.621231 144.0
100.687851 132.0
100.717659 208.0
100.739052 100.0
100.796707 212.0
100.858948 136.0
100.916924 176.0
101.012917 168.0
101.060974 168.0
101.110847 520.0
101.203033 224.0
101.253098 160.0
101.27713 132.0
101.329216 132.0
101.359268 116.0
101.373291 148.0
101.465492 144.0
101.481529 188.0
101.509605 192.0
101.525848 248.0
101.569382 208.0
101.597961 236.0
101.61792 100.0
101.639984 108.0
101.660057 76.0
101.700195 88.0
101.716248 140.0
101.822662 148.0
101.850784 132.0
101.892967 132.0
101.907028 168.0
101.931145 84.0
101.953247 200.0
101.973343 144.0
102.011536 76.0
102.049728 32.0
102.089722 144.0
102.124138 124.0
102.158333 108.0
102.188507 80.0
102.21064 136.0
102.224724 104.0
102.258118 236.0
102.285103 260.0
102.305237 184.0
102.331406 80.0
102.374672 188.0
102.397858 56.0
102.477951 84.0
102.502609 108.0
102.587257 180.0
102.603386 104.0
102.722366 132.0
102.774773 168.0
102.780235 164.0
102.805199 148.0
102.827286 156.0
102.867653 156.0
102.898354 136.0
102.956497 116.0
103.018791 128.0
103.064056 128.0
103.118118 176.0
103.178757 160.0
103.238998 168.0
103.289474 176.0
103.314255 48.0
103.348648 272.0
103.457932 112.0
103.477135 116.0
103.494377 112.0
103.572472 128.0
103.600502 120.0
103.664528 144.0
103.682762 160.0
103.830757 124.0
103.899727 28.0
103.917984 128.0
103.938271 100.0
104.028633 92.0
104.062363 116.0
104.109955 132.0
104.141281 88.0
104.169716 72.0
104.313393 176.0
104.332291 92.0
104.348557 80.0
104.389221 48.0
104.425087 176.0
104.44413 188.0
104.480743 160.0
104.509232 192.0
104.551964 164.0
104.574348 140.0
104.608772 180.0
104.678177 128.0
104.712791 124.0
104.74131 40.0
104.838829 128.0
104.855827 176.0
104.949181 160.0
104.985878 160.0
105.008316 120.0
105.036873 52.0
105.068398 420.0
105.155891 168.0
105.19603 148.0
105.239624 216.0
105.255241 148.0
105.298126 132.0
105.39209 240.0
105.44931 212.0
105.498367 148.0
105.543343 128.0
105.571976 148.0
105.59639 128.0
105.651741 156.0
105.74382 52.0
105.763283 136.0
105.784813 144.0
105.80481 176.0
105.833893 128.0
105.885086 384.0
105.899681 188.0
105.942436 136.0
105.987511 140.0
106.015648 148.0
106.032593 172.0
106.064926 368.0
106.089989 144.0
106.104332 100.0
106.188408 212.0
106.251999 140.0
106.302376 144.0
106.362808 204.0
106.476273 152.0
106.517693 160.0
106.549423 160.0
106.564064 108.0
106.58255 168.0
106.601044 196.0
106.623604 180.0
106.749054 148.0
106.781952 176.0
106.799011 164.0
106.829262 112.0
106.905388 128.0
106.919792 80.0
106.988892 180.0
107.071426 120.0
107.115395 160.0
107.129814 144.0
107.164833 48.0
107.19944 136.0
107.22612 108.0
107.243141 168.0
107.267876 100.0
107.32354 48.0
107.339058 76.0
107.356537 72.0
107.381279 168.0
107.401909 72.0
107.418411 72.0
107.465858 196.0
107.495407 236.0
107.509659 140.0
107.557587 196.0
107.595879 224.0
107.68261 128.0
107.705948 172.0
107.721848 96.0
107.73996 120.0
107.817955 140.0
107.84996 104.0
107.938858 116.0
107.982285 176.0
108.027687 160.0
108.042679 184.0
108.077225 228.0
108.103729 148.0
108.141594 404.0
108.156082 120.0
108.172897 160.0
108.294136 160.0
108.330017 164.0
108.350739 128.0
108.431549 124.0
108.446053 132.0
108.470932 120.0
108.510315 152.0
108.53727 132.0
108.551788 92.0
108.584839 128.0
108.622299 124.0
108.655495 72.0
108.670013 200.0
108.703217 208.0
108.74472 176.0
108.800766 92.0
108.81945 84.0
108.842285 108.0
108.856827 124.0
108.954445 108.0
108.991844 112.0
109.043571 112.0
109.071899 168.0
109.097839 192.0
109.118622 92.0
109.149811 180.0
109.260628 172.0
109.273918 144.0
109.324547 148.0
109.389069 48.0
109.43145 224.0
109.45372 144.0
109.516083 160.0
109.536911 140.0
109.555664 132.0
109.586693 116.0
109.598602 268.0
109.672249 160.0
109.71196 48.0
109.736977 204.0
109.774506 184.0
109.793449 48.0
109.812042 48.0
109.871796 152.0
109.912712 188.0
109.935127 164.0
110.016533 164.0
110.056198 200.0
110.095825 204.0
110.148087 144.0
110.17733 136.0
110.221207 140.0
110.292267 180.0
110.323616 116.0
110.357071 96.0
110.407257 112.0
110.449257 144.0
110.656258 276.0
110.677193 40.0
110.731644 68.0
110.763062 52.0
110.784004 212.0
110.804955 172.0
110.821716 140.0
110.849136 140.0
110.863625 188.0
110.892967 120.0
110.919113 84.0
110.934883 216.0
111.059212 220.0
111.092163 132.0
111.10685 80.0
111.123634 268.0
111.217247 164.0
111.264244 136.0
111.28524 172.0
111.331436 192.0
111.357895 260.0
111.411247 68.0
111.470078 68.0
111.524208 132.0
111.573593 192.0
111.608498 80.0
111.616974 68.0
111.622505 140.0
111.638245 204.0
111.661385 148.0
111.730797 168.0
111.761414 224.0
111.799706 180.0
111.84864 152.0
111.86908 152.0
111.888634 48.0
111.922661 152.0
111.981499 120.0
111.996025 216.0
112.012878 172.0
112.062714 104.0
112.077751 300.0
112.091606 152.0
112.1119 72.0
112.164597 60.0
112.188591 180.0
112.221001 132.0
112.307449 144.0
112.313538 176.0
112.387909 104.0
112.426117 144.0
112.508438 144.0
112.537994 100.0
112.633026 192.0
112.654152 180.0
112.674622 168.0
112.732323 104.0
112.750313 156.0
112.777359 156.0
112.797844 60.0
112.814751 44.0
112.838005 108.0
112.880295 164.0
112.91404 184.0
112.945854 44.0
113.000854 144.0
113.029892 144.0
113.141838 104.0
113.161705 144.0
113.17865 164.0
113.23156 332.0
113.309959 104.0
113.326912 112.0
113.343864 104.0
113.362404 160.0
113.400551 128.0
113.418037 112.0
113.456192 224.0
113.483749 92.0
113.52404 108.0
113.551613 72.0
113.583427 100.0
113.647072 124.0
113.725006 292.0
113.748932 64.0
113.778656 136.0
113.808891 148.0
113.906067 84.0
113.925186 84.0
113.961304 80.0
113.978302 76.0
114.010178 184.0
114.029305 156.0
114.06353 196.0
114.093071 148.0
114.126312 296.0
114.178123 152.0
114.199394 312.0
114.23056 196.0
114.248817 152.0
114.299377 148.0
114.327042 100.0
114.349068 160.0
114.366379 192.0
114.388107 156.0
114.437729 156.0
114.480621 192.0
114.603859 120.0
114.718941 128.0
114.767975 180.0
114.791435 164.0
114.842583 148.0
114.885277 88.0
114.91301 96.0
114.932465 200.0
114.96209 124.0
114.986061 136.0
115.016823 220.0
115.054512 1288.0
115.094429 88.0
115.122192 168.0
115.182541 200.0
115.252495 140.0
115.271721 92.0
115.305916 96.0
115.329422 68.0
115.361488 160.0
115.386429 144.0
115.436317 88.0
115.451286 176.0
115.470985 152.0
115.513138 96.0
115.541122 96.0
115.629402 140.0
115.675941 104.0
115.691978 228.0
115.740166 52.0
115.760536 172.0
115.800133 184.0
115.880127 220.0
116.059563 128.0
116.158905 332.0
116.198837 172.0
116.223152 36.0
116.258919 196.0
116.323303 120.0
116.361588 124.0
116.40274 172.0
116.464569 144.0
116.505836 96.0
116.531616 48.0
116.546654 116.0
116.583183 148.0
116.602524 148.0
116.636917 44.0
116.698677 148.0
116.763664 168.0
116.821846 208.0
116.849091 168.0
116.874901 200.0
116.903603 140.0
116.933731 156.0
116.948799 172.0
116.963867 124.0
116.998306 128.0
117.070305 2348.0
117.101662 136.0
117.12751 140.0
117.146896 148.0
117.164131 132.0
117.207222 208.0
117.248161 156.0
117.282646 152.0
117.39476 52.0
117.416321 156.0
117.437218 116.0
117.485344 124.0
117.504761 144.0
117.528496 128.0
117.582443 128.0
117.62561 176.0
117.661156 120.0
117.690376 60.0
117.707649 120.0
117.727081 148.0
117.752998 208.0
117.770096 188.0
117.785202 152.0
117.871811 160.0
117.88694 100.0
117.915031 136.0
117.947456 156.0
117.964745 248.0
118.001495 136.0
118.018799 100.0
118.033928 140.0
118.06604 560.0
118.113953 76.0
118.16803 48.0
118.269737 64.0
118.291779 176.0
118.336426 216.0
118.40181 136.0
118.421303 104.0
118.438118 188.0
118.446693 144.0
118.481949 120.0
118.513023 140.0
118.529617 124.0
118.590294 136.0
118.668335 172.0
118.709534 124.0
118.736664 92.0
118.843765 172.0
118.876564 136.0
118.904076 148.0
118.925697 164.0
118.941673 84.0
118.985092 132.0
119.031364 192.0
119.071945 184.0
119.093666 168.0
119.139282 104.0
119.17054 216.0
119.200119 136.0
119.254448 188.0
119.291397 108.0
119.308174 128.0
119.3414 156.0
119.369553 152.0
119.426788 176.0
119.467651 172.0
119.540878 192.0
119.609184 172.0
119.635101 180.0
119.668381 136.0
119.728729 148.0
119.778824 156.0
119.805344 160.0
119.886467 168.0
119.92263 128.0
119.940071 96.0
119.974945 216.0
119.99675 100.0
120.018547 188.0
120.040352 116.0
120.080223 2228.0
120.138504 92.0
120.162498 100.0
120.190865 152.0
120.218628 116.0
120.339287 124.0
120.361115 204.0
120.381439 156.0
120.422264 148.0
120.466591 136.0
120.482544 168.0
120.518379 140.0
120.548973 192.0
120.632027 120.0
120.647331 160.0
120.669189 88.0
120.684494 176.0
120.70636 160.0
120.785095 128.0
120.826653 128.0
120.844154 128.0
120.885735 124.0
120.950607 180.0
120.99601 136.0
121.063049 76.0
121.083656 320.0
121.161613 120.0
121.207619 136.0
121.236107 248.0
121.258026 48.0
121.308434 92.0
121.345703 108.0
121.378593 60.0
121.408798 160.0
121.477287 160.0
121.503609 180.0
121.533203 168.0
121.549683 80.0
121.591377 156.0
121.60894 176.0
121.69455 116.0
121.715988 204.0
121.756134 140.0
121.775803 68.0
121.8041 68.0
121.856529 148.0
121.876404 136.0
121.9105 128.0
121.929588 116.0
121.975746 168.0
121.993332 132.0
122.012497 280.0
122.05825 156.0
122.116837 216.0
122.149063 156.0
122.172516 108.0
122.200058 100.0
122.24263 252.0
122.266068 164.0
122.281479 56.0
122.318893 132.0
122.351913 132.0
122.379005 288.0
122.420174 64.0
122.459808 328.0
122.475227 160.0
122.583183 60.0
122.603012 68.0
122.618439 232.0
122.653702 68.0
122.675362 184.0
122.734062 336.0
122.80143 136.0
122.825691 228.0
122.852165 180.0
122.887466 100.0
122.986771 120.0
123.060303 88.0
123.079491 48.0
123.110405 120.0
123.150757 132.0
123.223053 124.0
123.26503 128.0
123.293762 212.0
123.324295 152.0
123.420723 156.0
123.463821 108.0
123.53476 192.0
123.559097 128.0
123.612785 212.0
123.694084 156.0
123.718437 172.0
123.734726 168.0
123.778183 248.0
123.811432 52.0
123.887932 208.0
123.953209 216.0
123.970932 52.0
124.037422 124.0
124.072014 164.0
124.092842 128.0
124.130653 156.0
124.201508 172.0
124.291008 184.0
124.334625 84.0
124.408936 284.0
124.51104 172.0
124.632118 124.0
124.685516 112.0
124.732193 68.0
124.769981 136.0
124.797401 108.0
124.82402 132.0
124.847809 76.0
124.894508 164.0
124.96125 140.0
125.043579 84.0
125.074738 88.0
125.101456 180.0
125.121086 200.0
125.1399 148.0
125.190514 136.0
125.212784 152.0
125.232826 196.0
125.264709 128.0
125.333145 120.0
125.359749 140.0
125.426674 160.0
125.451195 128.0
125.486862 148.0
125.502472 212.0
125.538414 200.0
125.60952 168.0
125.640747 152.0
125.668526 132.0
125.709915 108.0
125.730003 220.0
125.778885 204.0
125.814819 104.0
125.843643 196.0
125.881798 112.0
125.993477 152.0
126.031456 148.0
126.063263 120.0
126.121994 156.0
126.185677 124.0
126.279594 124.0
126.30867 180.0
126.34446 168.0
126.384735 188.0
126.487152 136.0
126.552597 108.0
126.579468 192.0
126.602074 160.0
126.677284 148.0
126.763153 120.0
126.796768 152.0
126.838181 140.0
126.859528 120.0
126.888672 124.0
126.948547 216.0
126.996307 128.0
127.012009 92.0
127.02771 72.0
127.05014 112.0
127.088783 272.0
127.13266 108.0
127.172897 164.0
127.236404 176.0
127.252121 124.0
127.306175 112.0
127.330719 108.0
127.36216 152.0
127.391357 136.0
127.410454 152.0
127.454269 144.0
127.476738 188.0
127.501877 128.0
127.54081 136.0
127.559196 132.0
127.589119 172.0
127.616096 172.0
127.634087 72.0
127.681313 168.0
127.735291 60.0
127.836533 168.0
127.86129 132.0
127.955826 136.0
127.994102 124.0
128.023376 152.0
128.049133 184.0
128.065002 304.0
128.082413 204.0
128.097702 124.0
128.140503 208.0
128.156281 204.0
128.181259 140.0
128.219376 152.0
128.246414 180.0
128.311172 128.0
128.359131 188.0
128.447403 340.0
128.492203 168.0
128.591492 132.0
128.713394 116.0
128.767593 136.0
128.816452 152.0
128.848907 160.0
128.869247 160.0
128.900879 156.0
128.990906 376.0
129.070862 1504.0
129.104324 180.0
129.152618 80.0
129.17897 236.0
129.197067 108.0
129.237793 144.0
129.254364 172.0
129.292099 204.0
129.34166 116.0
129.407043 184.0
129.495743 156.0
129.516052 152.0
129.533096 144.0
129.55809 136.0
129.620453 252.0
129.636154 176.0
129.73558 156.0
129.762115 192.0
129.833344 192.0
129.878891 152.0
129.897049 168.0
129.931076 180.0
129.96283 196.0
130.008224 132.0
130.066162 1812.0
130.146683 44.0
130.167114 128.0
130.210266 120.0
130.294312 68.0
130.380661 116.0
130.410202 148.0
130.44429 112.0
130.47612 168.0
130.498856 192.0
130.530685 200.0
130.555695 128.0
130.589813 120.0
130.692184 48.0
130.735413 196.0
130.776382 128.0
130.803696 116.0
130.856064 184.0
130.888611 120.0
130.909912 104.0
130.965363 116.0
131.013199 128.0
131.084457 1496.0
131.170212 208.0
131.22139 316.0
131.262955 164.0
131.288986 160.0
131.320923 168.0
131.384796 148.0
131.405319 60.0
131.44696 112.0
131.496597 136.0
131.54097 180.0
131.576492 236.0
131.643356 204.0
131.669464 184.0
131.743195 144.0
131.77594 252.0
131.798035 180.0
131.816315 168.0
131.841278 164.0
131.91687 172.0
131.962601 152.0
131.985458 112.0
132.083664 716.0
132.123672 112.0
132.159286 116.0
132.186752 176.0
132.303482 244.0
132.347214 228.0
132.374451 80.0
132.41568 120.0
132.456909 156.0
132.505005 228.0
132.546249 76.0
132.565109 296.0
132.592087 132.0
132.611893 160.0
132.635635 128.0
132.720459 148.0
132.766312 44.0
132.819 144.0
132.86702 164.0
132.933777 108.0
132.977386 128.0
133.086182 172.0
133.138092 160.0
133.171478 192.0
133.192368 176.0
133.211594 160.0
133.303284 180.0
133.324173 128.0
133.352448 172.0
133.419037 132.0
133.443695 168.0
133.475754 120.0
133.523941 116.0
133.530365 104.0
133.539001 188.0
133.557068 176.0
133.608994 156.0
133.636887 120.0
133.662201 88.0
133.682907 132.0
133.701324 132.0
133.719727 140.0
133.739365 144.0
133.788788 88.0
133.817688 144.0
133.846344 116.0
133.866394 232.0
133.926956 160.0
133.970718 240.0
134.002457 200.0
134.060577 132.0
134.09053 112.0
134.113586 168.0
134.15358 180.0
134.19426 160.0
134.21962 176.0
134.291107 152.0
134.33725 144.0
134.390305 168.0
134.417999 204.0
134.461838 116.0
134.494156 116.0
134.528778 160.0
134.549561 168.0
134.572968 144.0
134.676559 124.0
134.727707 224.0
134.779358 136.0
134.795792 72.0
134.831116 188.0
134.868332 156.0
134.885284 316.0
134.901291 140.0
134.940002 40.0
134.983932 84.0
135.044052 248.0
135.083374 76.0
135.171295 132.0
135.212952 136.0
135.391205 84.0
135.460693 108.0
135.523941 216.0
135.567276 88.0
135.590439 192.0
135.618973 208.0
135.67157 160.0
135.765518 108.0
135.786377 156.0
135.813019 100.0
135.838531 136.0
135.85788 148.0
135.880295 76.0
135.926697 100.0
135.972336 72.0
135.988647 156.0
136.07756 164.0
136.100784 84.0
136.124008 144.0
136.149551 196.0
136.175095 52.0
136.204071 92.0
136.226196 96.0
136.284271 80.0
136.331696 108.0
136.372574 112.0
136.398148 152.0
136.439621 76.0
136.484161 192.0
136.503677 164.0
136.54631 204.0
136.56691 144.0
136.586487 108.0
136.626144 188.0
136.649307 148.0
136.758667 188.0
136.784271 116.0
136.861801 188.0
136.907669 172.0
136.933289 120.0
136.95343 180.0
137.001083 272.0
137.033463 188.0
137.082382 188.0
137.112686 176.0
137.129883 220.0
137.170959 100.0
137.240585 156.0
137.318619 96.0
137.418152 236.0
137.436813 112.0
137.474152 160.0
137.54184 72.0
137.572174 124.0
137.596863 132.0
137.688126 200.0
137.709274 152.0
137.775208 136.0
137.83609 120.0
137.857132 160.0
137.892181 148.0
137.913208 132.0
137.950607 100.0
138.051147 168.0
138.090637 324.0
138.125687 152.0
138.131302 132.0
138.140717 188.0
138.173843 288.0
138.255402 128.0
138.308502 100.0
138.35643 132.0
138.506439 128.0
138.580154 144.0
138.603577 76.0
138.666855 176.0
138.794418 184.0
138.8591 192.0
138.875519 204.0
138.950592 112.0
138.981079 120.0
139.002197 132.0
139.058533 132.0
139.096085 184.0
139.124252 160.0
139.140686 112.0
139.180038 168.0
139.188812 128.0
139.251053 116.0
139.37085 116.0
139.387299 136.0
139.431946 56.0
139.457794 144.0
139.523621 124.0
139.570648 124.0
139.610611 148.0
139.631775 140.0
139.676468 136.0
139.739655 140.0
139.754593 272.0
139.806992 140.0
139.869415 192.0
139.937683 200.0
140.005386 176.0
140.0625 200.0
140.097839 76.0
140.147308 264.0
140.213287 156.0
140.260925 112.0
140.381195 180.0
140.408966 112.0
140.434906 128.0
140.491516 128.0
140.517471 152.0
140.578812 132.0
140.609497 152.0
140.647263 136.0
140.670868 120.0
140.741684 200.0
140.862137 212.0
140.944565 108.0
140.994873 112.0
141.013351 156.0
141.07634 192.0
141.11264 112.0
141.156158 108.0
141.199951 212.0
141.261627 72.0
141.297836 168.0
141.365417 184.0
141.420151 84.0
141.467499 116.0
141.495392 128.0
141.542694 220.0
141.616409 180.0
141.682999 212.0
141.709061 164.0
141.802948 116.0
141.83165 224.0
141.922363 128.0
141.955566 96.0
142.033829 56.0
142.076996 316.0
142.109741 236.0
142.131943 324.0
142.146469 308.0
142.180923 164.0
142.214157 76.0
142.239914 136.0
142.245102 116.0
142.290115 116.0
142.339981 156.0
142.361343 100.0
142.377975 264.0
142.406479 144.0
142.464523 136.0
142.515747 208.0
142.53714 168.0
142.563278 120.0
142.591797 84.0
142.689468 172.0
142.720474 244.0
142.75293 236.0
142.774841 136.0
142.80101 120.0
142.829544 136.0
142.861572 132.0
142.962402 172.0
143.007996 228.0
143.048462 220.0
143.074554 1680.0
143.108871 128.0
143.177032 72.0
143.21405 148.0
143.260406 132.0
143.279465 148.0
143.341415 144.0
143.502533 228.0
143.558334 124.0
143.598877 128.0
143.644989 192.0
143.743774 248.0
143.800446 148.0
143.830307 56.0
143.88588 188.0
143.921661 344.0
143.950134 188.0
144.000015 216.0
144.026108 112.0
144.046371 148.0
144.081894 26240.0
144.117493 336.0
144.162277 44.0
144.179016 60.0
144.212479 148.0
144.250717 168.0
144.311707 144.0
144.339172 144.0
144.375046 152.0
144.407791 252.0
144.442017 72.0
144.471207 232.0
144.561508 156.0
144.577164 140.0
144.62146 104.0
144.638229 76.0
144.662155 56.0
144.695679 188.0
144.721832 144.0
144.745956 88.0
144.773315 168.0
144.806229 96.0
144.811035 204.0
144.839355 172.0
144.912888 128.0
144.935013 232.0
145.022324 176.0
145.061157 184.0
145.084305 3780.0
145.100555 3116.0
145.138916 132.0
145.20459 124.0
145.26123 116.0
145.280426 88.0
145.309204 72.0
145.350006 112.0
145.380249 172.0
145.421997 180.0
145.43956 172.0
145.484406 184.0
145.555222 132.0
145.594849 128.0
145.61937 196.0
145.659027 144.0
145.707748 60.0
145.728592 172.0
145.753387 28.0
145.793076 180.0
145.802505 92.0
145.809341 128.0
145.847458 140.0
145.879623 176.0
145.889359 28.0
145.897247 192.0
145.921646 144.0
145.957703 68.0
146.005798 184.0
146.043671 188.0
146.097748 3240.0
146.128479 36.0
146.154938 44.0
146.186218 64.0
146.210281 128.0
146.234528 164.0
146.293152 140.0
146.34877 144.0
146.357254 76.0
146.365982 148.0
146.374359 176.0
146.434189 96.0
146.473679 196.0
146.501633 112.0
146.578735 112.0
146.626923 152.0
146.673843 168.0
146.794708 80.0
146.835312 120.0
146.868027 184.0
146.90387 172.0
146.929825 148.0
146.974167 108.0
147.012787 108.0
147.029678 180.0
147.09761 568.0
147.147858 176.0
147.230042 168.0
147.290421 120.0
147.32666 108.0
147.355865 88.0
147.401566 208.0
147.440231 188.0
147.457138 88.0
147.588882 184.0
147.613419 180.0
147.678452 352.0
147.707718 120.0
147.747299 168.0
147.7836 44.0
147.805374 100.0
147.882294 56.0
147.904587 36.0
147.943329 220.0
147.984482 152.0
148.004852 192.0
148.081345 124.0
148.107986 184.0
148.156433 124.0
148.185135 104.0
148.2267 124.0
148.267517 132.0
148.299393 236.0
148.372116 180.0
148.430313 48.0
148.505478 152.0
148.548279 128.0
148.563705 156.0
148.580688 68.0
148.66803 148.0
148.685013 108.0
148.784531 36.0
148.831558 164.0
148.847656 196.0
148.869522 68.0
148.898666 60.0
148.925369 144.0
148.959381 184.0
148.98967 136.0
149.029831 84.0
149.056564 176.0
149.102386 196.0
149.136093 176.0
149.175644 196.0
149.225861 184.0
149.251022 148.0
149.31424 248.0
149.331268 112.0
149.382339 156.0
149.423706 60.0
149.473618 132.0
149.528336 200.0
149.567276 152.0
149.596481 124.0
149.654922 184.0
149.688126 256.0
149.730408 168.0
149.767975 112.0
149.804001 112.0
149.863846 144.0
149.910675 148.0
150.000854 388.0
150.034988 192.0
150.078873 96.0
150.098373 136.0
150.159332 160.0
150.178848 176.0
150.212997 196.0
150.320343 64.0
150.337708 176.0
150.354126 128.0
150.389816 172.0
150.452148 320.0
150.491211 160.0
150.535156 136.0
150.554855 64.0
150.593719 168.0
150.60199 164.0
150.609116 228.0
150.659729 104.0
150.725693 264.0
150.771881 160.0
150.820999 184.0
150.869888 48.0
150.907043 216.0
150.979919 212.0
151.01416 108.0
151.114655 148.0
151.170731 124.0
151.197647 100.0
151.261276 84.0
151.317581 116.0
151.359207 40.0
151.398392 76.0
151.439529 176.0
151.461929 204.0
151.525757 96.0
151.542908 124.0
151.564011 124.0
151.595596 116.0
151.621323 184.0
151.662292 156.0
151.721405 128.0
151.763504 128.0
151.817444 132.0
151.886673 192.0
151.942535 176.0
151.959717 136.0
151.988129 184.0
152.006165 120.0
152.084869 148.0
152.106949 156.0
152.129044 156.0
152.149963 192.0
152.171768 100.0
152.196564 168.0
152.244202 196.0
152.332443 92.0
152.367264 160.0
152.418854 188.0
152.480286 132.0
152.531906 92.0
152.564758 152.0
152.701553 112.0
152.814713 56.0
152.894226 368.0
152.954987 160.0
152.979904 128.0
153.031296 112.0
153.066055 168.0
153.122406 40.0
153.145157 120.0
153.174133 188.0
153.198761 76.0
153.237137 140.0
153.270218 108.0
153.41069 124.0
153.432877 104.0
153.450134 160.0
153.501923 204.0
153.538635 144.0
153.570969 216.0
153.643921 168.0
153.716522 144.0
153.738739 168.0
153.785629 108.0
153.843658 172.0
153.864609 188.0
153.972122 148.0
153.997955 80.0
154.018585 156.0
154.064529 176.0
154.094299 116.0
154.139481 124.0
154.170364 216.0
154.247513 96.0
154.266953 180.0
154.282227 160.0
154.376068 120.0
154.398331 204.0
154.418121 56.0
154.528656 140.0
154.566544 92.0
154.632004 164.0
154.653168 44.0
154.675446 104.0
154.715042 192.0
154.908203 188.0
154.933517 200.0
154.983948 188.0
154.990784 108.0
155.032532 156.0
155.059631 140.0
155.120972 232.0
155.148575 140.0
155.176514 192.0
155.323105 148.0
155.344482 120.0
155.39473 136.0
155.448685 72.0
155.470627 128.0
155.52562 108.0
155.575272 164.0
155.593491 188.0
155.612503 208.0
155.647263 120.0
155.674576 80.0
155.711655 172.0
155.730026 272.0
155.792358 96.0
155.835403 140.0
155.863373 96.0
155.982544 140.0
156.081268 952.0
156.121063 192.0
156.176605 160.0
156.215286 224.0
156.237305 180.0
156.258698 160.0
156.294678 148.0
156.320892 92.0
156.363708 160.0
156.412979 108.0
156.439804 288.0
156.470245 120.0
156.520767 136.0
156.538589 176.0
156.61467 64.0
156.646774 148.0
156.666977 204.0
156.738022 152.0
156.755341 124.0
156.8414 132.0
156.872208 192.0
156.900436 176.0
156.948608 28.0
157.025909 208.0
157.096603 352.0
157.138153 132.0
157.178085 136.0
157.210526 200.0
157.263641 280.0
157.301666 128.0
157.368546 204.0
157.395233 108.0
157.460175 64.0
157.485138 64.0
157.585068 164.0
157.632538 224.0
157.718689 136.0
157.735291 184.0
157.768875 196.0
157.778992 108.0
157.788223 152.0
157.815704 188.0
157.865021 56.0
157.892517 132.0
157.937546 188.0
157.985947 216.0
158.04512 100.0
158.06514 328.0
158.087265 164.0
158.108261 152.0
158.131226 104.0
158.212387 148.0
158.265381 112.0
158.305298 72.0
158.35553 156.0
158.398102 252.0
158.443192 172.0
158.480774 140.0
158.526505 160.0
158.642242 176.0
158.73967 168.0
158.794128 100.0
158.863388 208.0
158.899475 152.0
158.977707 180.0
159.01741 60.0
159.061096 188.0
159.117325 1028.0
159.135651 196.0
159.163025 140.0
159.2258 52.0
159.291107 56.0
159.323761 96.0
159.351395 128.0
159.391891 228.0
159.464478 156.0
159.524796 196.0
159.556686 76.0
159.597122 104.0
159.625366 300.0
159.665604 96.0
159.685715 104.0
159.736023 44.0
159.761185 132.0
159.788849 172.0
159.819046 72.0
159.903763 64.0
160.008499 240.0
160.040543 160.0
160.065262 200.0
160.074493 164.0
160.091583 160.0
160.117584 208.0
160.138748 56.0
160.189331 148.0
160.224976 156.0
160.249146 208.0
160.315765 292.0
160.378098 180.0
160.405502 152.0
160.461212 240.0
160.502365 180.0
160.534409 96.0
160.637817 108.0
160.70961 120.0
160.733978 120.0
160.784164 156.0
160.80687 140.0
160.904922 128.0
160.958344 144.0
160.993698 176.0
161.02652 136.0
161.081482 164.0
161.130096 108.0
161.190735 160.0
161.245117 160.0
161.262207 212.0
161.367661 128.0
161.387878 168.0
161.461212 168.0
161.489044 160.0
161.511795 36.0
161.569977 156.0
161.592758 144.0
161.741898 148.0
161.800278 80.0
161.820526 152.0
161.876236 124.0
161.901566 84.0
161.934479 132.0
161.985138 180.0
162.048477 144.0
162.175186 124.0
162.192917 168.0
162.233475 80.0
162.255951 144.0
162.301926 116.0
162.329819 96.0
162.375473 72.0
162.405914 184.0
162.484116 140.0
162.53157 176.0
162.603806 164.0
162.726974 200.0
162.753571 172.0
162.78244 76.0
162.804367 220.0
162.847534 104.0
162.867615 172.0
162.904541 204.0
162.949142 128.0
162.966934 128.0
163.002502 88.0
163.052628 88.0
163.091446 156.0
163.11499 200.0
163.195679 176.0
163.216019 228.0
163.318649 236.0
163.404236 124.0
163.437866 108.0
163.461472 228.0
163.488205 112.0
163.528915 168.0
163.549286 164.0
163.567093 88.0
163.607834 336.0
163.643478 64.0
163.671478 140.0
163.702042 216.0
163.742783 128.0
163.763153 100.0
163.820801 316.0
163.824646 200.0
163.857407 148.0
163.877792 152.0
163.902176 112.0
163.922867 144.0
164.005554 148.0
164.068939 128.0
164.150528 104.0
164.221924 104.0
164.260193 104.0
164.307632 140.0
164.390305 160.0
164.443893 136.0
164.534378 108.0
164.591965 60.0
164.616013 128.0
164.687744 192.0
164.745193 164.0
164.795288 116.0
164.924072 164.0
164.959854 168.0
165.008026 128.0
165.094284 180.0
165.128616 184.0
165.187439 188.0
165.23349 216.0
165.278854 120.0
165.32222 124.0
165.338394 184.0
165.407227 152.0
165.468933 96.0
165.527832 92.0
165.580215 224.0
165.632828 68.0
165.65332 152.0
165.691742 140.0
165.760925 40.0
165.794235 108.0
165.837814 196.0
165.876251 120.0
165.930084 184.0
165.949493 172.0
165.975418 244.0
166.061951 180.0
166.13739 168.0
166.181427 228.0
166.210358 176.0
166.260986 164.0
166.326721 188.0
166.397018 100.0
166.414993 140.0
166.458649 296.0
166.570099 156.0
166.58963 144.0
166.612122 116.0
166.675293 136.0
166.696976 200.0
166.7258 140.0
166.75322 192.0
166.802917 128.0
166.856888 68.0
166.938263 192.0
167.002304 204.0
167.07341 244.0
167.116653 156.0
167.150101 140.0
167.214447 172.0
167.267319 212.0
167.307098 68.0
167.330276 152.0
167.358597 160.0
167.389496 128.0
167.456451 40.0
167.489929 128.0
167.507965 64.0
167.538879 192.0
167.631165 112.0
167.684784 236.0
167.729568 128.0
167.763077 164.0
167.791428 180.0
167.812057 80.0
167.897156 96.0
167.961624 172.0
167.984848 136.0
168.050858 136.0
168.082062 1896.0
168.139664 88.0
168.222244 148.0
168.310745 116.0
168.32132 128.0
168.328674 164.0
168.392471 124.0
168.444321 76.0
168.578674 52.0
168.653625 112.0
168.692474 128.0
168.767365 44.0
168.860458 48.0
168.885559 196.0
168.927704 192.0
168.976868 76.0
169.04155 216.0
169.081665 572.0
169.115845 300.0
169.165329 460.0
169.220139 132.0
169.352219 180.0
169.383301 240.0
169.453232 116.0
169.471375 172.0
169.538742 72.0
169.635437 132.0
169.720657 136.0
169.777649 332.0
169.853714 120.0
169.906281 128.0
169.916229 124.0
169.932022 352.0
169.979584 200.0
170.023697 120.0
170.053375 216.0
170.092667 316.0
170.187241 168.0
170.222061 224.0
170.273468 152.0
170.306686 160.0
170.369034 96.0
170.415802 316.0
170.470367 44.0
170.511948 180.0
170.563919 140.0
170.602585 140.0
170.621506 160.0
170.66011 148.0
170.787537 128.0
170.813553 164.0
170.862976 288.0
170.891586 120.0
170.933228 164.0
170.974854 124.0
171.091629 996.0
171.141449 64.0
171.164398 192.0
171.209152 176.0
171.240417 144.0
171.285751 128.0
171.337845 108.0
171.381073 40.0
171.42984 140.0
171.463226 176.0
171.500961 176.0
171.545273 208.0
171.68454 96.0
171.712143 40.0
171.785172 204.0
171.850388 80.0
171.890915 196.0
171.923035 84.0
171.986099 84.0
172.016113 152.0
172.037109 88.0
172.052826 152.0
172.060852 100.0
172.112915 11912.0
172.188843 128.0
172.213943 176.0
172.249817 28.0
172.268097 132.0
172.339584 176.0
172.345657 64.0
172.35585 156.0
172.3909 104.0
172.414413 80.0
172.448395 108.0
172.487061 256.0
172.518295 156.0
172.579102 136.0
172.603958 188.0
172.621902 152.0
172.649704 140.0
172.77002 84.0
172.887756 144.0
172.919159 124.0
172.971359 348.0
172.994324 140.0
173.018631 88.0
173.036957 172.0
173.074875 208.0
173.115677 2256.0
173.142181 216.0
173.167221 156.0
173.205124 184.0
173.238693 168.0
173.285965 164.0
173.332932 192.0
173.352951 100.0
173.383957 184.0
173.429886 144.0
173.466217 112.0
173.490005 168.0
173.52153 292.0
173.545486 124.0
173.578812 124.0
173.611084 144.0
173.653809 148.0
173.673737 72.0
173.701477 80.0
173.748581 256.0
173.772797 84.0
173.825821 156.0
173.848389 196.0
173.909271 268.0
173.916351 172.0
173.950684 264.0
173.980392 248.0
174.011719 480.0
174.022568 548.0
174.079941 724.0
174.12941 210444.0
174.195847 132.0
174.221497 188.0
174.261093 64.0
174.297668 140.0
174.334518 392.0
174.373581 316.0
174.4207 312.0
174.441177 168.0
174.468796 240.0
174.493301 136.0
174.511444 168.0
174.533432 220.0
174.561096 1684.0
174.587585 196.0
174.608475 264.0
174.642502 100.0
174.683731 84.0
174.715881 108.0
174.754547 100.0
174.789352 172.0
174.812668 196.0
174.837097 196.0
174.8647 180.0
174.899902 84.0
174.929413 64.0
174.984055 380.0
175.053558 72.0
175.075302 180.0
175.132385 30448.0
175.2173 60.0
175.226883 48.0
175.233963 100.0
175.256149 236.0
175.271271 148.0
175.316757 412.0
175.345901 64.0
175.39679 256.0
175.43486 80.0
175.454147 304.0
175.496704 192.0
175.53656 148.0
175.578476 116.0
175.635925 40.0
175.678223 156.0
175.736954 148.0
175.786301 140.0
175.806686 88.0
175.824966 208.0
175.85228 224.0
175.881302 32.0
175.929138 68.0
175.96637 212.0
175.995865 224.0
176.031616 120.0
176.035934 120.0
176.071396 132.0
176.104477 160.0
176.134369 2488.0
176.179291 128.0
176.225449 148.0
176.2845 168.0
176.289413 76.0
176.311234 184.0
176.320312 184.0
176.35054 120.0
176.374969 100.0
176.402405 172.0
176.4245 164.0
176.440247 256.0
176.466141 124.0
176.495621 172.0
176.531158 216.0
176.540329 172.0
176.553497 276.0
176.595352 112.0
176.615417 96.0
176.652634 76.0
176.684631 200.0
176.712097 104.0
176.729614 144.0
176.753418 40.0
176.825821 144.0
176.854065 124.0
176.891037 232.0
176.922592 84.0
176.966888 160.0
176.987915 228.0
177.015472 48.0
177.052307 128.0
177.056046 188.0
177.078522 164.0
177.138687 84.0
177.187637 72.0
177.214127 60.0
177.252457 216.0
177.28833 88.0
177.313095 120.0
177.361099 104.0
177.429092 72.0
177.471329 116.0
177.542816 32.0
177.567703 104.0
177.590302 180.0
177.610779 128.0
177.620651 196.0
177.653931 148.0
177.679733 188.0
177.741776 120.0
177.818726 152.0
177.866501 136.0
177.885086 72.0
177.935532 152.0
177.97113 204.0
178.015182 84.0
178.05838 180.0
178.14798 128.0
178.201111 56.0
178.329773 124.0
178.384476 140.0
178.407227 156.0
178.472214 232.0
178.546661 48.0
178.574127 160.0
178.594543 180.0
178.674347 164.0
178.692963 128.0
178.742767 156.0
178.751022 112.0
178.804214 168.0
178.847656 184.0
178.887161 148.0
178.987991 152.0
179.033676 136.0
179.072784 76.0
179.102921 124.0
179.129379 120.0
179.153534 144.0
179.182831 40.0
179.218994 84.0
179.268097 64.0
179.337082 140.0
179.367523 248.0
179.508011 92.0
179.569351 36.0
179.606689 120.0
179.753418 76.0
179.87085 176.0
179.894409 68.0
179.91745 136.0
179.945602 124.0
179.988312 112.0
180.082474 500.0
180.137878 160.0
180.166229 144.0
180.201996 108.0
180.231384 280.0
180.327591 68.0
180.409439 128.0
180.450546 160.0
180.491501 216.0
180.562851 184.0
180.624374 204.0
180.672516 132.0
180.70195 136.0
180.723358 124.0
180.7742 88.0
180.851807 164.0
180.899994 132.0
180.966919 160.0
180.996368 152.0
181.019028 116.0
181.03653 236.0
181.07135 176.0
181.09816 180.0
181.131104 260.0
181.197754 168.0
181.229401 132.0
181.304428 88.0
181.366074 132.0
181.387512 140.0
181.481339 152.0
181.518875 84.0
181.630524 204.0
181.642075 128.0
181.648544 196.0
181.667282 156.0
181.728088 40.0
181.822006 216.0
181.854294 156.0
181.913269 168.0
181.953461 148.0
182.060303 136.0
182.098358 152.0
182.12117 244.0
182.154938 28.0
182.181808 56.0
182.21405 104.0
182.326904 124.0
182.386658 172.0
182.40892 256.0
182.472046 48.0
182.647934 100.0
182.681808 132.0
182.730209 200.0
182.778671 140.0
182.859406 176.0
182.92131 156.0
182.967072 100.0
182.987946 208.0
183.018219 172.0
183.055252 208.0
183.093063 2348.0
183.152878 156.0
183.214828 144.0
183.273621 180.0
183.344162 76.0
183.376511 184.0
183.414246 60.0
183.456253 68.0
183.538254 92.0
183.627243 220.0
183.675781 52.0
183.723785 156.0
183.799881 144.0
183.89505 152.0
183.932129 168.0
183.951019 60.0
183.979111 124.0
184.018509 92.0
184.042816 80.0
184.071884 288.0
184.097961 736.0
184.145432 120.0
184.195984 132.0
184.239975 108.0
184.285904 180.0
184.380325 72.0
184.415604 88.0
184.503235 96.0
184.528351 68.0
184.618378 128.0
184.650818 48.0
184.696213 128.0
184.786072 148.0
184.818542 144.0
184.85643 128.0
184.883484 120.0
184.907837 88.0
184.961975 72.0
185.006332 124.0
185.075668 228.0
185.108231 12200.0
185.19136 196.0
185.221283 224.0
185.240875 160.0
185.273392 124.0
185.307465 128.0
185.327576 56.0
185.366684 120.0
185.403442 60.0
185.423325 176.0
185.444092 120.0
185.471191 76.0
185.52034 92.0
185.552521 216.0
185.57692 76.0
185.607254 212.0
185.709793 72.0
185.807449 152.0
185.837784 384.0
185.856293 144.0
185.877991 172.0
185.898727 144.0
185.937424 196.0
185.9422 176.0
185.986557 160.0
186.02655 76.0
186.073425 228.0
186.11377 1692.0
186.122177 1004.0
186.184753 32.0
186.274384 72.0
186.311325 200.0
186.368027 152.0
186.402069 116.0
186.502625 96.0
186.573303 112.0
186.592331 100.0
186.612656 184.0
186.63504 276.0
186.671173 76.0
186.723282 148.0
186.766357 136.0
186.797073 180.0
186.837082 156.0
186.886063 28.0
186.905106 164.0
187.038452 56.0
187.088303 300.0
187.108368 176.0
187.130142 220.0
187.192535 168.0
187.263412 132.0
187.308029 112.0
187.390213 48.0
187.397247 144.0
187.406662 156.0
187.429825 68.0
187.455139 80.0
187.510574 196.0
187.547806 116.0
187.618683 116.0
187.646469 164.0
187.719788 140.0
187.741379 172.0
187.760468 112.0
187.793198 152.0
187.877747 152.0
188.000534 164.0
188.03157 96.0
188.098785 284.0
188.168396 168.0
188.210724 156.0
188.240753 144.0
188.290421 108.0
188.401901 80.0
188.426483 136.0
188.486603 92.0
188.560379 280.0
188.590744 112.0
188.70253 80.0
188.738068 56.0
188.76268 92.0
188.792755 228.0
188.844711 164.0
188.888489 140.0
188.95961 40.0
189.0271 108.0
189.045868 144.0
189.10463 136.0
189.140381 392.0
189.19223 140.0
189.285324 116.0
189.389389 188.0
189.41951 48.0
189.477036 108.0
189.589386 152.0
189.638718 140.0
189.668869 176.0
189.704498 100.0
189.742874 104.0
189.814163 108.0
189.910156 28.0
189.932098 104.0
190.058289 52.0
190.096695 116.0
190.126892 132.0
190.228439 160.0
190.295807 112.0
190.362976 84.0
190.410812 208.0
190.467331 168.0
190.494507 112.0
190.510162 244.0
190.559464 112.0
190.673401 120.0
190.758606 120.0
190.780594 136.0
190.835098 92.0
191.02684 228.0
191.061096 84.0
191.105118 148.0
191.154968 3484.0
191.193832 84.0
191.253723 96.0
191.326843 192.0
191.372543 196.0
191.398071 220.0
191.432678 168.0
191.496017 140.0
191.559372 140.0
191.597931 120.0
191.642868 192.0
191.688858 128.0
191.710892 68.0
191.76326 88.0
191.83493 216.0
191.914871 128.0
191.986572 112.0
192.022415 132.0
192.160141 252.0
192.366074 168.0
192.422531 224.0
192.477753 100.0
192.53299 116.0
192.657272 104.0
192.702698 156.0
192.748444 140.0
192.881104 108.0
192.961273 136.0
192.991089 92.0
193.049759 132.0
193.096771 76.0
193.135117 172.0
193.181763 132.0
193.243515 152.0
193.332199 80.0
193.462936 108.0
193.492081 148.0
193.528458 48.0
193.56572 140.0
193.597672 336.0
193.630905 84.0
193.788803 172.0
193.878448 124.0
193.90947 164.0
193.974472 76.0
194.074234 116.0
194.100128 200.0
194.162506 196.0
194.196304 164.0
194.273972 200.0
194.334991 92.0
194.410873 140.0
194.490402 48.0
194.512604 104.0
194.58284 160.0
194.670868 184.0
194.709381 336.0
194.755386 184.0
194.791367 216.0
194.838562 200.0
194.923645 92.0
194.954208 200.0
195.051483 212.0
195.105621 148.0
195.155258 156.0
195.198837 184.0
195.232208 136.0
195.304504 136.0
195.33934 192.0
195.371277 172.0
195.410217 156.0
195.45752 136.0
195.549347 80.0
195.606491 220.0
195.707092 156.0
195.727524 144.0
195.760925 52.0
195.854446 256.0
195.978195 144.0
196.01442 144.0
196.068939 268.0
196.088684 80.0
196.093964 96.0
196.114746 120.0
196.148193 120.0
196.226257 48.0
196.302994 152.0
196.387985 136.0
196.42424 164.0
196.460739 208.0
196.535843 148.0
196.609665 96.0
196.65863 120.0
196.747955 112.0
196.79541 52.0
196.840088 188.0
196.879181 56.0
196.946075 88.0
197.038391 40.0
197.072571 52.0
197.105667 704.0
197.141769 36.0
197.178864 96.0
197.2211 168.0
197.265106 160.0
197.382172 60.0
197.410141 124.0
197.453659 128.0
197.529083 348.0
197.577957 144.0
197.605927 96.0
197.701065 64.0
197.757034 144.0
197.794876 68.0
197.905411 96.0
197.96701 120.0
197.992218 160.0
198.055008 208.0
198.118149 372.0
198.174286 220.0
198.34523 152.0
198.376755 172.0
198.404099 124.0
198.446152 96.0
198.470764 200.0
198.513443 80.0
198.569992 148.0
198.695953 176.0
198.774887 160.0
198.822037 152.0
198.850098 164.0
198.893387 180.0
198.951141 88.0
198.980621 160.0
199.031265 112.0
199.088165 1792.0
199.170166 104.0
199.229935 164.0
199.256531 204.0
199.263763 152.0
199.275406 128.0
199.364029 176.0
199.42746 124.0
199.459579 132.0
199.487701 48.0
199.542892 208.0
199.58609 132.0
199.620712 204.0
199.647964 188.0
199.667648 144.0
199.707016 116.0
199.830795 132.0
199.891998 148.0
199.912384 172.0
199.974121 180.0
200.057236 104.0
200.085403 152.0
200.159592 152.0
200.185638 224.0
200.219238 48.0
200.253036 72.0
200.297119 208.0
200.334717 72.0
200.416428 144.0
200.457199 144.0
200.492508 148.0
200.517868 172.0
200.585373 160.0
200.650192 140.0
200.774765 128.0
200.851746 144.0
200.932281 132.0
200.941376 188.0
200.952728 168.0
200.961945 132.0
201.017014 40.0
201.138382 280.0
201.251297 112.0
201.302124 108.0
201.336014 68.0
201.367081 28.0
201.434982 96.0
201.499435 168.0
201.530914 164.0
201.643951 108.0
201.711792 100.0
201.855972 128.0
201.915359 152.0
201.952118 128.0
202.005066 240.0
202.05336 132.0
202.060699 104.0
202.072052 172.0
202.218079 120.0
202.237228 92.0
202.322815 152.0
202.39595 120.0
202.470047 120.0
202.523865 76.0
202.560684 84.0
202.608841 140.0
202.790192 96.0
202.869553 108.0
202.92894 144.0
202.957443 124.0
203.005646 116.0
203.076553 92.0
203.210739 184.0
203.258102 184.0
203.343246 180.0
203.391495 180.0
203.419876 72.0
203.459625 184.0
203.623581 216.0
203.67543 184.0
203.70668 168.0
203.882843 144.0
203.999374 204.0
204.039169 124.0
204.087509 332.0
204.130157 112.0
204.166992 172.0
204.218307 116.0
204.249802 184.0
204.337784 128.0
204.394699 60.0
204.457291 92.0
204.50853 44.0
204.682175 176.0
204.744827 120.0
204.79039 92.0
204.816025 164.0
204.875854 124.0
205.058212 48.0
205.09938 196.0
205.172226 128.0
205.343323 184.0
205.368988 212.0
205.423187 124.0
205.455658 208.0
205.508774 144.0
205.528732 144.0
205.551559 104.0
205.671432 192.0
205.717102 324.0
205.757065 192.0
205.814163 88.0
205.888412 148.0
205.942673 148.0
206.093674 140.0
206.139725 152.0
206.148071 148.0
206.219818 68.0
206.244415 204.0
206.304077 92.0
206.411362 112.0
206.447845 116.0
206.455307 184.0
206.601974 160.0
206.659653 168.0
206.717422 144.0
206.760361 92.0
206.854797 40.0
206.892014 316.0
207.103912 332.0
207.123962 184.0
207.218506 144.0
207.252884 128.0
207.326874 204.0
207.356049 112.0
207.387573 164.0
207.430573 112.0
207.528534 164.0
207.556717 152.0
207.611191 72.0
207.705841 128.0
207.740265 124.0
207.88945 240.0
207.915283 140.0
207.999954 124.0
208.032333 128.0
208.118591 408.0
208.202362 140.0
208.222473 132.0
208.270752 212.0
208.29715 148.0
208.354599 88.0
208.403442 156.0
208.545441 148.0
208.626709 140.0
208.719604 168.0
208.739746 144.0
208.791199 188.0
208.943283 172.0
208.977692 104.0
209.007248 260.0
209.070389 140.0
209.106781 380.0
209.128662 148.0
209.191437 148.0
209.263412 28.0
209.329636 160.0
209.355545 140.0
209.395874 36.0
209.421783 60.0
209.464996 100.0
209.496689 128.0
209.585999 128.0
209.65892 196.0
209.69838 132.0
209.738739 88.0
209.770447 104.0
209.790619 88.0
209.933334 180.0
210.093414 208.0
210.127991 360.0
210.198593 172.0
210.318497 44.0
210.338699 136.0
210.390656 132.0
210.416641 152.0
210.496124 112.0
210.532135 216.0
210.578339 144.0
210.601456 188.0
210.621674 136.0
210.667892 44.0
210.690323 136.0
210.757446 172.0
210.792496 92.0
210.812347 204.0
210.861481 72.0
210.907715 76.0
211.006561 144.0
211.054718 104.0
211.087997 9392.0
211.124893 140.0
211.222885 452.0
211.260498 232.0
211.280746 112.0
211.327042 140.0
211.352676 148.0
211.497772 60.0
211.587509 52.0
211.607773 84.0
211.71492 176.0
211.738876 88.0
211.775726 116.0
211.908981 192.0
211.942307 128.0
211.995728 132.0
212.003662 124.0
212.042282 140.0
212.09201 1600.0
212.143311 332.0
212.203094 208.0
212.228958 180.0
212.343796 172.0
212.3815 40.0
212.445312 148.0
212.503021 148.0
212.535248 136.0
212.660339 192.0
212.750015 44.0
212.831314 100.0
212.909714 188.0
212.973618 48.0
213.028793 160.0
213.054947 212.0
213.103149 2720.0
213.13559 232.0
213.165237 136.0
213.217667 32.0
213.255447 144.0
213.354279 116.0
213.377533 208.0
213.458939 128.0
213.508377 116.0
213.568237 200.0
213.605896 128.0
213.694122 196.0
213.752731 104.0
213.790558 188.0
213.815918 152.0
213.885971 164.0
213.950653 136.0
213.997223 100.0
214.039795 168.0
214.106186 596.0
214.308868 68.0
214.398102 148.0
214.428848 116.0
214.586548 44.0
214.69072 124.0
214.795715 144.0
214.868652 144.0
214.900742 112.0
214.979523 88.0
215.008713 112.0
215.083389 212.0
215.114197 172.0
215.166336 136.0
215.251007 140.0
215.271439 168.0
215.309402 56.0
215.359055 172.0
215.464218 96.0
215.508041 80.0
215.529831 152.0
215.581512 56.0
215.606567 172.0
215.65123 116.0
215.689224 100.0
215.75061 300.0
215.949448 156.0
215.997696 204.0
216.066452 112.0
216.095718 180.0
216.148376 188.0
216.19812 76.0
216.24202 104.0
216.280075 124.0
216.357498 268.0
216.388687 156.0
216.429382 156.0
216.475708 112.0
216.53479 104.0
216.81897 76.0
216.839493 172.0
216.918625 164.0
216.945007 160.0
216.973022 172.0
217.041763 48.0
217.097046 276.0
217.255859 180.0
217.317459 32.0
217.418625 144.0
217.467758 168.0
217.669693 104.0
217.772476 160.0
217.840027 64.0
217.871017 156.0
217.954605 192.0
217.997757 152.0
218.072159 144.0
218.097916 676.0
218.132797 260.0
218.154465 216.0
218.192673 132.0
218.227951 144.0
218.276901 148.0
218.346161 140.0
218.419113 104.0
218.619171 112.0
218.65448 140.0
218.725006 100.0
218.74057 128.0
218.813431 116.0
218.85466 132.0
218.974228 212.0
219.106903 976.0
219.243484 76.0
219.313293 140.0
219.338928 156.0
219.376953 56.0
219.420334 196.0
219.563049 268.0
219.62085 140.0
219.653305 168.0
219.676895 92.0
219.768356 128.0
219.827362 164.0
219.95723 64.0
219.995605 176.0
220.044525 128.0
220.075317 156.0
220.112503 2728.0
220.154343 156.0
220.208191 88.0
220.255447 184.0
220.33226 68.0
220.447495 148.0
220.46817 188.0
220.515457 288.0
220.536148 176.0
220.626389 164.0
220.68692 152.0
220.793365 148.0
220.923508 152.0
220.976761 172.0
221.117355 564.0
221.145432 188.0
221.180954 64.0
221.222137 188.0
221.284058 140.0
221.293762 264.0
221.346741 208.0
221.415924 144.0
221.513077 144.0
221.634048 144.0
221.699249 128.0
221.756149 100.0
221.845261 76.0
221.921555 108.0
221.966034 148.0
222.031723 184.0
222.119873 140.0
222.167709 236.0
222.191452 152.0
222.241882 132.0
222.34137 164.0
222.414001 196.0
222.497131 160.0
222.520813 176.0
222.559479 132.0
222.614365 164.0
222.64856 52.0
222.69014 172.0
222.81192 124.0
222.85054 224.0
222.880264 140.0
222.912949 120.0
222.972382 80.0
223.055603 164.0
223.087189 168.0
223.09288 140.0
223.101669 128.0
223.14595 732.0
223.355927 188.0
223.427307 132.0
223.483841 176.0
223.564178 112.0
223.590973 100.0
223.632629 108.0
223.677277 180.0
223.724915 92.0
223.763611 100.0
223.791779 104.0
223.876755 108.0
223.921432 156.0
223.998871 124.0
224.019714 100.0
224.058441 156.0
224.116516 920.0
224.180603 188.0
224.210403 184.0
224.361343 44.0
224.410126 68.0
224.466782 224.0
224.493622 92.0
224.577118 172.0
224.617798 188.0
224.663147 200.0
224.694946 152.0
224.739655 116.0
224.965027 136.0
224.994873 80.0
225.069519 92.0
225.101578 628.0
225.130432 268.0
225.155045 200.0
225.180008 64.0
225.284546 108.0
225.315567 136.0
225.350281 64.0
225.421982 40.0
225.442902 112.0
225.518066 80.0
225.528107 196.0
225.582596 136.0
225.619247 176.0
225.664215 108.0
225.694 216.0
225.771744 116.0
225.85257 156.0
226.043961 208.0
226.067902 172.0
226.124161 160.0
226.195816 136.0
226.298386 152.0
226.326614 192.0
226.361267 116.0
226.40918 60.0
226.439117 116.0
226.609863 128.0
226.631241 148.0
226.657227 104.0
226.729721 88.0
226.799561 92.0
226.90358 124.0
226.992386 244.0
227.081894 720.0
227.119476 128.0
227.158478 236.0
227.245468 200.0
227.359497 164.0
227.407516 108.0
227.490158 224.0
227.629669 204.0
227.668716 32.0
227.773224 160.0
227.815887 84.0
227.837814 168.0
227.872955 76.0
227.939072 140.0
228.011185 128.0
228.112625 4984.0
228.176804 124.0
228.204529 120.0
228.247162 40.0
228.308807 92.0
228.341888 124.0
228.380997 100.0
228.423935 164.0
228.480255 160.0
228.557175 88.0
228.603622 104.0
228.633713 128.0
228.766144 164.0
228.808289 128.0
228.835388 264.0
228.862488 76.0
228.898621 96.0
228.982941 36.0
229.025101 212.0
229.055222 200.0
229.116272 668.0
229.150528 128.0
229.184769 44.0
229.226944 80.0
229.254074 52.0
229.305298 48.0
229.344482 164.0
229.391068 132.0
229.419846 112.0
229.469788 148.0
229.495209 40.0
229.53743 108.0
229.569901 104.0
229.580276 132.0
229.627899 216.0
229.667099 152.0
229.712357 128.0
229.746445 92.0
229.89035 92.0
229.920532 72.0
229.956757 112.0
230.030396 180.0
230.09726 204.0
230.106812 112.0
230.117096 172.0
230.15744 108.0
230.183167 116.0
230.261688 116.0
230.35405 124.0
230.460907 168.0
230.521484 48.0
230.581924 204.0
230.603073 84.0
230.624237 160.0
230.663528 172.0
230.76329 108.0
230.809021 160.0
230.841904 136.0
230.866104 160.0
230.91449 104.0
230.953812 176.0
230.999176 108.0
231.059677 104.0
231.099792 92.0
231.214005 200.0
231.289658 124.0
231.398636 252.0
231.465256 116.0
231.495193 176.0
231.534897 56.0
231.57428 80.0
231.725739 200.0
231.820557 220.0
231.871185 100.0
231.913605 124.0
231.943924 132.0
231.99469 80.0
232.061768 216.0
232.113129 2832.0
232.157272 192.0
232.244095 152.0
232.392746 100.0
232.599609 120.0
232.626419 164.0
232.650711 128.0
232.711426 88.0
232.761185 228.0
232.79393 176.0
232.903198 160.0
233.001328 136.0
233.048569 88.0
233.11644 632.0
233.145798 128.0
233.303848 96.0
233.331207 220.0
233.353714 80.0
233.390289 176.0
233.455872 128.0
233.483978 100.0
233.530487 128.0
233.620117 104.0
233.67627 148.0
233.735733 48.0
233.769302 348.0
233.823975 148.0
233.912094 80.0
233.953445 172.0
234.042358 168.0
234.129166 26952.0
234.204559 136.0
234.23848 156.0
234.328598 140.0
234.393433 156.0
234.436096 216.0
234.497955 152.0
234.524475 116.0
234.599548 64.0
234.628128 52.0
234.663818 164.0
234.707397 120.0
234.786682 228.0
234.833771 144.0
234.893433 120.0
234.925644 128.0
234.959824 104.0
235.029449 68.0
235.070374 124.0
235.131775 4812.0
235.224808 40.0
235.269348 184.0
235.400604 220.0
235.439758 56.0
235.525269 72.0
235.566437 92.0
235.615707 172.0
235.641357 116.0
235.662735 112.0
235.714676 104.0
235.953079 152.0
236.057037 52.0
236.078445 88.0
236.134705 640.0
236.176468 80.0
236.246658 52.0
236.295609 76.0
236.317032 96.0
236.344574 148.0
236.406296 160.0
236.457794 88.0
236.568115 176.0
236.593292 144.0
236.63533 284.0
236.697128 260.0
236.78537 100.0
236.827805 328.0
236.877441 136.0
236.932404 108.0
237.052887 140.0
237.096268 112.0
237.142349 368.0
237.184219 160.0
237.234497 180.0
237.269516 48.0
237.346069 136.0
237.450424 88.0
237.511765 124.0
237.604279 200.0
237.760284 100.0
237.79097 140.0
237.85672 284.0
237.904541 148.0
237.929092 76.0
237.996643 136.0
238.027435 152.0
238.098679 1060.0
238.134338 360.0
238.205399 168.0
238.248489 228.0
238.346619 140.0
238.38475 104.0
238.431168 176.0
238.478943 76.0
238.515823 88.0
238.543488 120.0
238.687988 76.0
238.718735 48.0
238.744461 120.0
238.778702 192.0
238.961731 68.0
238.983261 184.0
239.081131 1652.0
239.112061 1232.0
239.157715 224.0
239.200974 124.0
239.21312 168.0
239.254105 72.0
239.281219 188.0
239.307083 192.0
239.36676 176.0
239.426819 172.0
239.451172 148.0
239.518921 56.0
239.565125 80.0
239.5867 192.0
239.619553 120.0
239.653488 220.0
239.70993 196.0
239.755539 256.0
239.800125 180.0
239.845535 108.0
239.867111 200.0
239.892868 136.0
239.941406 40.0
239.975525 500.0
240.013763 136.0
240.047806 268.0
240.078033 896.0
240.115143 66876.0
240.168915 528.0
240.205338 128.0
240.236343 152.0
240.336258 196.0
240.379074 180.0
240.421387 140.0
240.460815 132.0
240.492233 84.0
240.510971 76.0
240.56929 108.0
240.591568 52.0
240.624405 132.0
240.692261 288.0
240.729706 136.0
240.735458 80.0
240.799759 44.0
240.832687 240.0
240.86525 84.0
240.899231 168.0
240.950272 72.0
240.982971 172.0
241.018051 64.0
241.085007 9424.0
241.117798 10892.0
241.174072 276.0
241.193481 160.0
241.240768 104.0
241.266632 76.0
241.2995 144.0
241.336609 92.0
241.3992 204.0
241.461258 64.0
241.484833 60.0
241.511124 68.0
241.555832 56.0
241.59021 48.0
241.653625 40.0
241.754059 264.0
241.789246 184.0
241.824982 240.0
241.862991 52.0
241.898926 152.0
241.958481 48.0
242.003052 100.0
242.088013 1744.0
242.12056 1048.0
242.207581 140.0
242.283646 56.0
242.33284 160.0
242.340698 68.0
242.41069 80.0
242.465012 68.0
242.483902 196.0
242.518112 56.0
242.539169 76.0
242.639694 224.0
242.685806 140.0
242.708252 124.0
242.729965 180.0
242.760971 136.0
242.814621 40.0
242.8517 188.0
242.87146 96.0
242.909836 116.0
242.931549 96.0
242.983536 172.0
243.067764 124.0
243.098923 372.0
243.129822 200.0
243.207718 52.0
243.229446 128.0
243.269806 40.0
243.412613 172.0
243.442291 180.0
243.483917 168.0
243.511505 152.0
243.539673 188.0
243.583435 88.0
243.654877 124.0
243.70575 120.0
243.772949 76.0
243.804016 88.0
243.837234 180.0
243.914398 140.0
243.971863 104.0
244.034042 464.0
244.10556 96.0
244.142868 80.0
244.167755 64.0
244.283737 96.0
244.329498 88.0
244.364548 136.0
244.419724 92.0
244.578445 172.0
244.64888 108.0
244.734695 144.0
244.814789 92.0
244.858917 140.0
244.993301 104.0
245.076706 228.0
245.162338 744.0
245.260574 172.0
245.466324 124.0
245.506866 72.0
245.76889 84.0
245.843781 120.0
245.899399 180.0
245.93428 132.0
245.963989 168.0
246.128418 184.0
246.171555 92.0
246.252747 92.0
246.280853 140.0
246.451569 192.0
246.483917 176.0
246.507874 112.0
246.562042 176.0
246.700668 104.0
246.74646 128.0
246.896561 64.0
246.940338 192.0
247.012283 264.0
247.136139 108.0
247.181213 108.0
247.256317 200.0
247.337692 96.0
247.359604 116.0
247.422943 52.0
247.45665 116.0
247.600693 124.0
247.632019 32.0
247.725983 160.0
247.785507 152.0
247.910843 108.0
248.059433 184.0
248.081955 188.0
248.140717 164.0
248.174606 132.0
248.214905 212.0
248.253662 144.0
248.28389 48.0
248.426483 216.0
248.452698 112.0
248.616425 144.0
248.701157 156.0
248.733932 172.0
248.760803 32.0
248.848709 208.0
248.96489 132.0
249.074814 52.0
249.106216 104.0
249.137634 160.0
249.197327 136.0
249.257019 84.0
249.3255 96.0
249.348312 148.0
249.439301 88.0
249.634232 160.0
249.66568 108.0
249.712845 112.0
249.760025 36.0
249.813507 124.0
249.882721 112.0
249.939346 36.0
250.055786 144.0
250.162796 104.0
250.219467 56.0
250.329666 144.0
250.395798 252.0
250.446198 56.0
250.555435 148.0
250.989304 156.0
251.026077 164.0
251.133301 188.0
251.18692 156.0
251.256317 116.0
251.319412 124.0
251.369904 160.0
251.521393 140.0
251.544388 56.0
251.619247 116.0
251.726593 92.0
251.767654 108.0
251.79924 104.0
251.846085 96.0
251.928741 204.0
252.081009 372.0
252.116348 232.0
252.203644 52.0
252.27002 48.0
252.311127 200.0
252.336411 176.0
252.431274 144.0
252.4534 168.0
252.477127 76.0
252.502487 100.0
252.54364 128.0
252.59256 156.0
252.744415 64.0
252.779221 184.0
252.969116 140.0
253.02858 92.0
253.084518 700.0
253.17038 404.0
253.244797 64.0
253.294144 56.0
253.395508 112.0
253.431335 76.0
253.472687 28.0
253.505966 104.0
253.544968 188.0
253.580429 164.0
253.638626 404.0
253.658447 164.0
253.773117 132.0
253.802338 124.0
253.915192 156.0
253.957733 84.0
254.016708 168.0
254.059235 120.0
254.093994 1000.0
254.130447 27832.0
254.207214 100.0
254.219849 64.0
254.265579 152.0
254.301285 212.0
254.329071 128.0
254.360687 108.0
254.412338 192.0
254.455933 40.0
254.505203 192.0
254.57341 44.0
254.630569 108.0
254.67392 68.0
254.714417 176.0
254.761292 104.0
254.805283 136.0
254.847198 180.0
254.930573 156.0
254.981689 108.0
255.037247 132.0
255.094055 148.0
255.133041 4092.0
255.18956 320.0
255.235535 140.0
255.282043 80.0
255.324585 148.0
255.384521 144.0
255.412521 136.0
255.461426 140.0
255.493927 104.0
255.575287 192.0
255.60231 200.0
255.626114 184.0
255.671249 144.0
255.704132 124.0
255.735733 156.0
255.769821 88.0
255.804718 128.0
255.86377 184.0
255.888412 232.0
255.926636 292.0
255.981369 232.0
256.007172 120.0
256.015228 352.0
256.110077 110172.0
256.207123 100.0
256.217804 76.0
256.256042 188.0
256.284485 124.0
256.321533 44.0
256.351959 168.0
256.390289 316.0
256.447784 204.0
256.477905 80.0
256.506317 128.0
256.535767 36.0
256.557739 96.0
256.568359 100.0
256.63446 768.0
256.697754 96.0
256.70401 116.0
256.719025 92.0
256.773804 84.0
256.797943 116.0
256.820282 48.0
256.855713 76.0
256.888733 132.0
256.919769 140.0
256.946289 52.0
256.973999 108.0
257.004425 176.0
257.05304 164.0
257.112671 21364.0
257.210632 296.0
257.248688 180.0
257.287231 208.0
257.341248 140.0
257.364441 84.0
257.410889 64.0
257.438293 128.0
257.463165 120.0
257.521729 36.0
257.542694 156.0
257.579956 76.0
257.61734 160.0
257.644653 160.0
257.668884 76.0
257.719452 52.0
257.75589 84.0
257.800385 108.0
257.832336 120.0
257.884491 160.0
257.914215 136.0
257.942871 96.0
257.971619 84.0
257.997467 140.0
258.028351 164.0
258.114136 1876.0
258.184021 96.0
258.283142 104.0
258.306702 100.0
258.337524 40.0
258.41095 84.0
258.437897 204.0
258.47049 56.0
258.545166 156.0
258.590759 28.0
258.642578 48.0
258.68222 144.0
258.717041 100.0
258.745819 132.0
258.779724 92.0
258.829681 104.0
258.905212 132.0
258.942474 72.0
258.964905 112.0
259.002777 152.0
259.008362 112.0
259.040131 172.0
259.075134 100.0
259.088348 164.0
259.121796 588.0
259.170471 96.0
259.217407 112.0
259.229004 144.0
259.252563 76.0
259.379822 136.0
259.471191 60.0
259.500061 160.0
259.565308 236.0
259.63382 28.0
259.679626 104.0
259.796234 80.0
259.843231 232.0
259.894562 88.0
259.941437 108.0
259.968353 100.0
260.001312 120.0
260.026123 96.0
260.058228 68.0
260.124786 296.0
260.157715 100.0
260.191437 208.0
260.220001 172.0
260.260468 132.0
260.308624 168.0
260.406494 84.0
260.446716 36.0
260.472412 104.0
260.515411 124.0
260.647247 60.0
260.731384 168.0
260.774445 112.0
260.813019 164.0
260.849976 136.0
260.872101 64.0
260.925537 56.0
260.96051 68.0
260.983093 88.0
261.047699 140.0
261.081757 268.0
261.144409 116.0
261.189209 96.0
261.285706 188.0
261.330994 96.0
261.372589 100.0
261.403931 92.0
261.504517 108.0
261.525726 92.0
261.617188 172.0
261.704102 80.0
261.813599 188.0
261.839355 96.0
261.86322 192.0
261.944611 172.0
261.977844 52.0
262.046448 68.0
262.116272 92.0
262.151215 192.0
262.285095 136.0
262.322662 56.0
262.374237 164.0
262.458069 100.0
262.490662 108.0
262.567719 168.0
262.670929 156.0
262.770935 100.0
262.819305 112.0
262.861267 100.0
262.932251 64.0
262.993591 44.0
263.108734 308.0
263.158203 68.0
263.216339 140.0
263.274445 80.0
263.297058 52.0
263.536102 120.0
263.561951 60.0
263.678284 136.0
263.775238 96.0
263.852844 96.0
263.898102 152.0
263.947937 68.0
263.985382 80.0
264.077576 544.0
264.130249 152.0
264.167511 168.0
264.218262 48.0
264.311188 144.0
264.386536 124.0
264.444794 180.0
264.545135 32.0
264.580719 100.0
264.613098 88.0
264.687592 64.0
264.71347 48.0
264.765747 84.0
264.831635 148.0
264.97583 316.0
265.089539 164.0
265.133484 220.0
265.319366 100.0
265.384216 32.0
265.429077 156.0
265.497864 80.0
265.543091 48.0
265.611206 72.0
265.725555 112.0
265.772675 124.0
265.848053 144.0
265.893494 128.0
265.984375 156.0
266.011871 140.0
266.096527 672.0
266.195496 144.0
266.227875 204.0
266.286316 72.0
266.59494 48.0
266.630707 128.0
266.71521 100.0
266.747711 120.0
266.863007 120.0
267.099426 244.0
267.147675 200.0
267.168671 132.0
267.198364 144.0
267.388458 144.0
267.49585 84.0
267.557709 164.0
267.64563 96.0
267.687958 120.0
267.723785 156.0
267.801941 112.0
267.850128 160.0
267.904785 164.0
268.013672 208.0
268.057037 116.0
268.109436 13232.0
268.161865 128.0
268.235291 52.0
268.303223 200.0
268.324615 120.0
268.368042 92.0
268.427094 48.0
268.476562 44.0
268.669952 132.0
268.773499 140.0
268.802765 108.0
268.883545 132.0
268.95697 208.0
269.109589 2356.0
269.174896 44.0
269.246735 96.0
269.328369 32.0
269.420593 176.0
269.448761 108.0
269.494995 64.0
269.570129 140.0
269.641083 124.0
269.649597 180.0
269.746613 108.0
269.804291 132.0
269.828339 80.0
269.90683 132.0
269.949341 84.0
269.975494 128.0
270.033173 100.0
270.116974 732.0
270.175018 140.0
270.240448 152.0
270.364777 160.0
270.404358 132.0
270.44989 32.0
270.485626 52.0
270.520569 80.0
270.737976 200.0
270.82312 176.0
270.898468 52.0
270.942871 64.0
270.990204 88.0
271.02298 68.0
271.068848 44.0
271.132446 136.0
271.193359 88.0
271.249084 188.0
271.288422 60.0
271.41629 52.0
271.458923 96.0
271.487671 172.0
271.514679 60.0
271.540894 76.0
271.574677 164.0
271.660126 80.0
271.704926 140.0
271.767242 84.0
271.862396 88.0
271.891937 92.0
271.993683 48.0
272.075745 156.0
272.151276 88.0
272.193939 36.0
272.223511 112.0
272.24649 152.0
272.346436 140.0
272.446625 132.0
272.519135 40.0
272.607239 156.0
272.637421 88.0
272.665344 56.0
272.690002 204.0
272.74588 84.0
272.837921 96.0
272.989166 200.0
273.043121 184.0
273.139374 488.0
273.219391 88.0
273.334564 52.0
273.367462 160.0
273.453033 192.0
273.50238 144.0
273.601135 160.0
273.71637 76.0
273.886566 176.0
274.035858 84.0
274.14801 536.0
274.194031 160.0
274.322571 136.0
274.345673 112.0
274.421478 52.0
274.494019 108.0
274.530304 92.0
274.570984 132.0
274.612732 152.0
274.670868 148.0
274.774384 64.0
274.848114 112.0
274.893158 176.0
274.931946 64.0
275.005371 104.0
275.110382 280.0
275.154663 5804.0
275.226532 52.0
275.26947 52.0
275.422699 232.0
275.467621 136.0
275.503082 148.0
275.553528 56.0
275.626221 160.0
275.662567 36.0
275.751801 144.0
275.774933 52.0
275.824493 48.0
275.874084 96.0
275.92038 48.0
275.960052 148.0
276.026184 80.0
276.049316 128.0
276.072479 84.0
276.164703 1524.0
276.303986 68.0
276.344482 68.0
276.390015 156.0
276.433044 156.0
276.532318 48.0
276.591888 120.0
276.66803 208.0
276.843506 116.0
276.953674 120.0
277.055481 176.0
277.07782 108.0
277.14563 156.0
277.173523 108.0
277.44986 116.0
277.516174 64.0
277.632202 184.0
277.665375 72.0
277.751617 112.0
277.801361 144.0
277.847809 236.0
277.872345 184.0
278.171692 140.0
278.262756 124.0
278.30249 76.0
278.365662 96.0
278.505066 132.0
278.611359 92.0
278.724335 108.0
278.754242 156.0
278.777496 164.0
278.843964 76.0
279.103241 44.0
279.154663 276.0
279.201385 84.0
279.312775 80.0
279.346039 168.0
279.585602 168.0
279.621735 120.0
279.87851 76.0
280.012939 116.0
280.111145 460.0
280.181885 224.0
280.264893 132.0
280.384857 112.0
280.437256 144.0
280.461517 132.0
280.608917 148.0
280.664856 84.0
280.801575 232.0
280.868286 84.0
280.899414 156.0
280.988373 96.0
281.111359 436.0
281.172394 112.0
281.211945 152.0
281.335449 132.0
281.388885 60.0
281.415588 100.0
281.482361 80.0
281.525787 112.0
281.659363 128.0
281.709473 164.0
281.749573 132.0
281.806366 92.0
281.848694 148.0
282.050293 240.0
282.083374 144.0
282.125275 9632.0
282.167297 248.0
282.205902 88.0
282.268646 52.0
282.304535 176.0
282.33374 96.0
282.404724 40.0
282.444855 64.0
282.470642 116.0
282.515106 112.0
282.555237 172.0
282.632202 72.0
282.712524 124.0
282.769409 76.0
282.839691 172.0
282.899719 92.0
282.949188 136.0
283.013763 84.0
283.074036 340.0
283.128113 1868.0
283.358734 136.0
283.427216 124.0
283.549805 204.0
283.698456 104.0
283.764282 132.0
283.807861 168.0
283.834198 108.0
284.009064 140.0
284.062744 112.0
284.130798 256.0
284.180145 100.0
284.213715 60.0
284.334503 56.0
284.364716 92.0
284.495148 140.0
284.54599 76.0
284.636383 144.0
284.729187 196.0
284.791107 128.0
284.834778 296.0
284.928833 36.0
284.952362 96.0
284.988495 152.0
285.013153 120.0
285.075745 240.0
285.129028 152.0
285.159149 156.0
285.200134 112.0
285.328766 28.0
285.365753 136.0
285.395996 92.0
285.608704 128.0
285.75589 140.0
285.825165 156.0
285.870361 200.0
285.920105 104.0
286.078461 240.0
286.117767 1588.0
286.157318 304.0
286.264801 184.0
286.304535 124.0
286.378632 100.0
286.476318 60.0
286.60434 144.0
286.695312 188.0
286.79306 136.0
286.887451 116.0
286.940674 132.0
286.991943 180.0
287.059387 44.0
287.118866 144.0
287.168152 176.0
287.220642 180.0
287.332581 36.0
287.366333 108.0
287.410187 84.0
287.442871 176.0
287.558685 100.0
287.602539 56.0
287.673431 52.0
287.72406 100.0
288.10907 144.0
288.15799 116.0
288.210419 112.0
288.240845 40.0
288.332062 140.0
288.808777 180.0
289.059143 176.0
289.132812 1324.0
289.201263 116.0
289.292664 120.0
289.346832 180.0
289.536438 72.0
289.634674 120.0
289.734985 104.0
289.780334 120.0
289.837921 52.0
289.970093 56.0
290.024323 156.0
290.051422 68.0
290.08667 144.0
290.116241 100.0
290.145264 304.0
290.241272 108.0
290.32605 188.0
290.427795 108.0
290.522766 144.0
290.733154 164.0
290.811188 80.0
290.967346 196.0
291.109955 264.0
291.138885 124.0
291.164276 284.0
291.334106 88.0
291.385071 200.0
291.537964 120.0
291.68634 128.0
291.803101 168.0
292.132782 136.0
292.142639 128.0
292.221436 104.0
292.255463 96.0
292.456238 136.0
292.691132 168.0
292.861389 84.0
292.956787 104.0
293.324799 112.0
293.375946 52.0
293.427063 88.0
293.583923 100.0
293.620728 116.0
293.682831 104.0
293.710114 124.0
293.768097 76.0
293.876221 132.0
293.925018 132.0
294.00351 28.0
294.054718 108.0
294.123413 624.0
294.159943 1880.0
294.200745 164.0
294.343597 148.0
294.39267 140.0
294.443909 104.0
294.472412 200.0
294.523376 140.0
294.734283 268.0
294.793701 256.0
294.869568 236.0
294.918823 84.0
294.953003 152.0
295.030365 88.0
295.079468 144.0
295.128448 148.0
295.167297 536.0
295.196899 188.0
295.314392 184.0
295.323853 84.0
295.333191 160.0
295.380402 88.0
295.428284 92.0
295.465271 84.0
295.595947 184.0
295.640442 40.0
295.768524 140.0
295.821838 176.0
295.895355 100.0
295.934814 68.0
295.958771 44.0
295.985474 60.0
296.077545 304.0
296.097107 108.0
296.130005 168.0
296.177002 26560.0
296.230377 312.0
296.289948 52.0
296.404053 128.0
296.517151 52.0
296.547455 52.0
296.574554 192.0
296.605438 68.0
296.634674 92.0
296.66452 328.0
296.704742 140.0
296.774231 56.0
296.800079 112.0
296.890289 160.0
296.949127 64.0
296.990265 124.0
297.048798 152.0
297.100647 252.0
297.129242 156.0
297.179535 6160.0
297.231171 164.0
297.318756 248.0
297.347473 36.0
297.409729 144.0
297.475067 208.0
297.521088 128.0
297.55423 116.0
297.610535 280.0
297.704132 40.0
297.728149 96.0
297.771881 44.0
297.810577 32.0
297.84494 48.0
297.968597 208.0
298.069702 132.0
298.107849 176.0
298.177429 692.0
298.277893 52.0
298.429138 104.0
298.484161 36.0
298.515686 96.0
298.542603 104.0
298.573578 44.0
298.697388 108.0
298.745117 132.0
298.831543 148.0
298.85907 48.0
299.009521 172.0
299.055481 56.0
299.090424 96.0
299.155365 124.0
299.189758 332.0
299.244568 148.0
299.272095 60.0
299.318085 136.0
299.365082 60.0
299.38916 108.0
299.423615 84.0
299.447723 92.0
299.522247 156.0
299.582062 300.0
299.677643 128.0
299.732574 204.0
299.8508 128.0
299.902496 76.0
299.930084 128.0
300.078308 104.0
300.106537 64.0
300.136932 124.0
300.185211 180.0
300.277374 160.0
300.374878 180.0
300.399048 144.0
300.423187 108.0
300.468018 108.0
300.501129 168.0
300.568085 84.0
300.788971 40.0
300.851227 100.0
301.133209 3292.0
301.217133 104.0
301.262024 128.0
301.327667 120.0
301.376038 212.0
301.422394 68.0
301.538574 132.0
301.566101 76.0
301.738953 176.0
301.859955 96.0
301.974091 240.0
302.074402 68.0
302.134979 740.0
302.178741 256.0
302.288879 72.0
302.31311 100.0
302.378876 128.0
302.444641 100.0
302.475769 140.0
302.506927 40.0
302.549866 220.0
302.596191 168.0
302.631561 84.0
302.725067 76.0
302.780457 140.0
302.832397 56.0
302.856659 64.0
302.896637 104.0
302.946716 60.0
303.037933 104.0
303.080566 76.0
303.151672 1228.0
303.199646 104.0
303.275909 192.0
303.320953 208.0
303.41803 152.0
303.539368 92.0
303.613159 160.0
303.775208 132.0
303.830719 132.0
303.872345 100.0
304.055084 60.0
304.094421 68.0
304.151154 436.0
304.365204 40.0
304.497162 184.0
304.636108 56.0
304.879303 52.0
304.952301 52.0
304.980103 128.0
305.063507 256.0
305.142792 124.0
305.221924 108.0
305.35907 120.0
305.536469 68.0
305.560822 112.0
305.588654 124.0
305.630402 176.0
305.679108 168.0
305.727844 120.0
305.856598 124.0
305.947113 96.0
306.119385 128.0
306.158112 124.0
306.232635 104.0
306.270966 96.0
306.361511 72.0
306.671631 144.0
306.75531 92.0
306.832001 128.0
306.870331 140.0
306.918671 152.0
307.137207 344.0
307.173187 168.0
307.32724 88.0
307.397034 112.0
307.431915 72.0
307.460907 176.0
307.512177 104.0
307.613403 168.0
307.669769 168.0
307.749573 52.0
307.899719 96.0
307.973053 164.0
308.062653 92.0
308.139313 768.0
308.183624 144.0
308.252533 36.0
308.479706 52.0
308.65802 44.0
308.692993 224.0
308.783905 92.0
308.993774 124.0
309.032257 48.0
309.151825 1104.0
309.182251 256.0
309.193268 628.0
309.312225 140.0
309.368256 96.0
309.424255 104.0
309.462769 40.0
309.522278 76.0
309.557312 64.0
309.585327 228.0
309.687897 164.0
309.770935 44.0
309.830505 64.0
309.967133 84.0
310.037231 164.0
310.154785 468.0
310.198853 272.0
310.268555 60.0
310.328156 44.0
310.405304 104.0
310.514008 80.0
310.552582 156.0
310.598175 44.0
310.63327 160.0
310.678864 152.0
310.716125 200.0
310.726074 124.0
310.741394 132.0
310.791138 100.0
310.889374 48.0
310.959564 180.0
310.984131 192.0
311.164978 148.0
311.202972 156.0
311.254456 128.0
311.366821 132.0
311.451111 80.0
311.517853 124.0
311.567047 88.0
311.684418 148.0
311.841125 108.0
312.052032 192.0
312.158478 132.0
312.205139 220.0
312.389648 144.0
312.461151 164.0
312.530365 108.0
312.783752 140.0
312.850616 104.0
312.914001 184.0
313.269684 156.0
313.297882 68.0
313.350708 104.0
313.502228 64.0
313.537476 156.0
313.646729 128.0
313.801819 96.0
313.893494 176.0
313.921722 128.0
314.022949 120.0
314.099579 120.0
314.162201 728.0
314.256805 120.0
314.37326 108.0
314.545013 60.0
314.588531 132.0
314.617828 68.0
314.648987 124.0
314.754486 136.0
314.842743 40.0
315.097076 192.0
315.16806 264.0
315.273743 148.0
315.323212 104.0
315.408051 120.0
315.454834 184.0
315.577728 80.0
315.722717 124.0
315.842957 144.0
315.91156 184.0
316.154022 100.0
316.253387 72.0
316.430389 152.0
316.46933 224.0
316.603882 60.0
316.720764 152.0
316.809326 156.0
316.851837 140.0
316.953186 92.0
317.064423 60.0
317.129028 88.0
317.259369 168.0
317.369293 140.0
317.525299 52.0
317.564331 164.0
317.732513 164.0
317.901367 116.0
318.075256 228.0
318.164825 1088.0
318.245667 92.0
318.444519 104.0
318.547302 132.0
318.625671 108.0
318.757141 196.0
318.860199 56.0
318.917053 244.0
318.963257 144.0
319.161255 112.0
319.247681 164.0
319.343719 52.0
319.38504 136.0
319.436188 116.0
319.638672 136.0
319.720825 108.0
319.86319 68.0
319.913025 60.0
319.95932 120.0
320.076813 100.0
320.130219 116.0
320.167297 204.0
320.285095 140.0
320.329651 108.0
320.465027 196.0
320.518494 100.0
320.543427 136.0
320.696655 292.0
320.849945 160.0
320.896301 140.0
320.988983 128.0
321.033569 136.0
321.141205 232.0
321.176636 164.0
321.213684 180.0
321.355377 144.0
321.431305 80.0
321.459839 176.0
321.538361 64.0
321.681122 96.0
321.720398 368.0
321.816406 152.0
321.870361 88.0
321.920349 60.0
321.977478 92.0
322.059784 92.0
322.156342 3888.0
322.21405 140.0
322.441925 64.0
322.520538 36.0
322.59729 136.0
322.652802 120.0
322.686829 100.0
322.754761 140.0
322.779297 116.0
322.807404 132.0
322.881653 32.0
322.927063 236.0
323.046173 108.0
323.106018 192.0
323.162567 1744.0
323.289459 148.0
323.326538 332.0
323.385834 108.0
323.421906 136.0
323.500641 36.0
323.555695 188.0
323.663177 124.0
323.724548 172.0
323.754852 112.0
323.849274 212.0
323.884979 132.0
323.957336 128.0
324.035248 212.0
324.17215 72700.0
324.238373 272.0
324.30777 36.0
324.372498 152.0
324.511169 180.0
324.579041 72.0
324.609497 92.0
324.657196 92.0
324.724152 160.0
324.766724 192.0
324.806763 56.0
324.839172 144.0
324.906921 152.0
325.006256 184.0
325.047577 64.0
325.058167 56.0
325.111176 172.0
325.175232 14260.0
325.248322 164.0
325.326477 108.0
325.37912 80.0
325.403076 36.0
325.432526 64.0
325.479065 48.0
325.525909 68.0
325.56485 44.0
325.649994 120.0
325.67746 48.0
325.713104 76.0
325.77774 28.0
325.856079 188.0
325.910675 52.0
325.953796 64.0
326.006012 68.0
326.019867 72.0
326.053101 192.0
326.079376 76.0
326.115448 376.0
326.177094 2628.0
326.262878 112.0
326.291656 112.0
326.356873 168.0
326.397583 120.0
326.441162 124.0
326.493011 140.0
326.549438 144.0
326.63327 60.0
326.690826 64.0
326.734009 108.0
326.757385 44.0
326.862732 72.0
326.914795 120.0
326.996674 96.0
327.057068 72.0
327.063507 56.0
327.078613 104.0
327.138428 156.0
327.18277 412.0
327.270416 176.0
327.306274 180.0
327.338684 76.0
327.363861 116.0
327.403229 56.0
327.446716 112.0
327.518097 156.0
327.537933 264.0
327.569153 216.0
327.625244 92.0
327.668427 116.0
327.7323 100.0
327.770905 64.0
327.810547 64.0
327.85379 68.0
327.88623 116.0
327.925873 132.0
328.05249 192.0
328.164368 364.0
328.228699 112.0
328.358521 164.0
328.394592 100.0
328.42746 68.0
328.554291 72.0
328.63266 140.0
328.683167 132.0
328.720703 192.0
328.928589 172.0
328.964691 60.0
329.004395 56.0
329.043732 80.0
329.127472 1052.0
329.156952 372.0
329.300476 92.0
329.429688 372.0
329.460419 148.0
329.511444 128.0
329.562653 132.0
329.607544 148.0
329.659485 108.0
329.730408 144.0
329.826599 124.0
329.910675 92.0
330.022491 152.0
330.059357 72.0
330.161438 16044.0
330.217896 964.0
330.301666 176.0
330.418823 140.0
330.518738 52.0
330.574646 132.0
330.589935 136.0
330.633026 68.0
330.732239 64.0
330.808258 68.0
330.880676 144.0
330.915924 168.0
330.978424 36.0
331.003754 68.0
331.058075 48.0
331.162689 3304.0
331.223114 524.0
331.280609 112.0
331.355103 36.0
331.384094 64.0
331.494415 80.0
331.521759 52.0
331.623749 176.0
331.681244 44.0
331.706604 284.0
331.759674 132.0
331.800873 100.0
331.898743 32.0
332.07843 140.0
332.137695 400.0
332.144745 248.0
332.167114 356.0
332.219971 108.0
332.266663 156.0
332.304993 88.0
332.382996 152.0
332.431976 128.0
332.468109 104.0
332.480164 100.0
332.487732 88.0
332.607574 168.0
332.644379 160.0
332.707825 44.0
332.842163 60.0
332.926788 168.0
332.998291 76.0
333.04245 52.0
333.081848 76.0
333.13974 128.0
333.169312 124.0
333.227142 104.0
333.35434 128.0
333.387573 112.0
333.415833 156.0
333.480316 156.0
333.600311 164.0
333.659637 156.0
333.688721 88.0
333.826904 140.0
333.874756 48.0
333.919464 168.0
333.99054 112.0
334.176086 68.0
334.223389 140.0
334.259766 56.0
334.297394 140.0
334.394409 120.0
334.43808 60.0
334.463562 104.0
334.561859 56.0
334.678345 172.0
334.765747 28.0
334.889557 184.0
335.078979 136.0
335.155945 100.0
335.198273 184.0
335.326904 108.0
335.388733 88.0
335.463501 116.0
335.494446 148.0
335.52359 116.0
335.793427 176.0
336.01593 52.0
336.041473 64.0
336.171265 956.0
336.282318 40.0
336.428314 196.0
336.501343 96.0
336.55246 152.0
336.607239 128.0
336.715454 44.0
336.939606 116.0
337.074768 140.0
337.174927 672.0
337.411041 44.0
337.566498 96.0
337.64505 72.0
337.676788 112.0
337.758423 136.0
338.120636 108.0
338.169342 300.0
338.31308 236.0
338.42276 128.0
338.517914 92.0
338.60025 92.0
338.677155 72.0
338.754059 88.0
338.79071 64.0
338.889618 76.0
339.054504 52.0
339.15921 148.0
339.410095 116.0
339.43576 80.0
339.509094 40.0
339.545197 76.0
339.65213 88.0
339.688812 132.0
339.740173 172.0
339.941956 136.0
340.126801 140.0
340.165833 76.0
340.206238 64.0
340.320038 132.0
340.349396 80.0
340.378784 36.0
340.411835 136.0
340.437531 144.0
340.466919 44.0
340.505463 88.0
340.555054 136.0
340.608856 124.0
340.67627 128.0
340.739532 72.0
340.845276 148.0
340.955505 128.0
341.006958 116.0
341.117249 144.0
341.157684 120.0
341.189087 160.0
341.220154 120.0
341.280701 164.0
341.683563 172.0
341.775543 80.0
341.926422 52.0
342.003693 132.0
342.161987 164.0
342.193146 64.0
342.309265 156.0
342.445526 164.0
342.596527 64.0
342.707062 44.0
342.773376 136.0
342.878174 176.0
343.000122 136.0
343.105103 64.0
343.14566 284.0
343.218414 568.0
343.261902 144.0
343.289459 108.0
343.418518 32.0
343.499664 136.0
343.551331 140.0
343.630432 160.0
343.67453 172.0
343.721039 108.0
343.78009 92.0
343.901855 216.0
343.949341 148.0
343.994141 124.0
344.031067 104.0
344.065918 60.0
344.123352 136.0
344.176086 4144.0
344.345642 80.0
344.427704 124.0
344.542908 132.0
344.669983 128.0
344.703247 60.0
344.736511 92.0
344.868805 176.0
344.932373 76.0
344.991516 156.0
345.039581 100.0
345.083954 120.0
345.113525 256.0
345.178772 1160.0
345.239258 124.0
345.276245 96.0
345.302124 176.0
345.384216 60.0
345.452911 224.0
345.498169 152.0
345.538849 316.0
345.579559 256.0
345.694275 100.0
345.779388 76.0
345.820099 160.0
345.846008 76.0
345.887299 124.0
345.933502 200.0
345.984955 112.0
345.9953 60.0
346.008972 132.0
346.071106 128.0
346.155579 16948.0
346.252747 88.0
346.319916 96.0
346.347656 64.0
346.377319 48.0
346.462585 132.0
346.509766 236.0
346.613861 68.0
346.664459 60.0
346.777161 108.0
346.83493 212.0
346.864594 48.0
346.951782 116.0
347.016602 32.0
347.098145 36.0
347.159607 4032.0
347.245361 116.0
347.2854 88.0
347.325378 104.0
347.584351 52.0
347.658295 92.0
347.780762 128.0
347.845856 124.0
347.909607 208.0
347.955231 56.0
347.999786 88.0
348.088135 124.0
348.164551 656.0
348.334015 72.0
348.378601 104.0
348.463287 160.0
348.503113 92.0
348.542053 152.0
348.69812 60.0
348.83194 128.0
348.872833 64.0
348.990295 168.0
349.166077 716.0
349.240967 120.0
349.272278 152.0
349.311615 140.0
349.388184 220.0
349.531128 96.0
349.67627 64.0
349.717194 144.0
349.776764 180.0
349.8508 72.0
349.933105 188.0
350.003845 64.0
350.110382 180.0
350.162445 284.0
350.204956 44.0
350.283844 112.0
350.443359 108.0
350.469421 52.0
350.541412 52.0
350.633392 36.0
350.659485 44.0
350.767578 88.0
351.017487 124.0
351.058075 48.0
351.088226 92.0
351.181946 1776.0
351.348755 192.0
351.458862 272.0
351.524658 168.0
351.573181 176.0
351.636627 56.0
351.804596 84.0
351.830719 144.0
351.957672 116.0
352.176056 760.0
352.241486 128.0
352.38858 152.0
352.432007 32.0
352.476868 208.0
352.647919 144.0
353.037567 120.0
353.121033 100.0
353.166504 600.0
353.340546 204.0
353.480743 84.0
353.636139 48.0
353.662354 188.0
353.74469 36.0
353.785889 128.0
353.830811 136.0
354.003021 68.0
354.174316 172.0
354.215698 188.0
354.24649 68.0
354.287689 112.0
354.422546 48.0
354.557465 92.0
354.717804 128.0
354.917328 156.0
354.977325 96.0
355.063568 40.0
355.170532 184.0
355.182709 120.0
355.502991 128.0
355.555023 76.0
355.637604 84.0
355.832794 36.0
355.877838 68.0
356.091888 88.0
356.133209 112.0
356.444092 148.0
356.576538 104.0
356.602844 124.0
356.730652 48.0
356.820862 92.0
356.881012 144.0
357.030823 200.0
357.069031 200.0
357.160034 164.0
357.306 108.0
357.433929 132.0
357.46405 112.0
357.524261 72.0
357.622101 92.0
357.667267 112.0
357.753845 164.0
357.889374 68.0
357.927032 72.0
358.055603 228.0
358.107788 64.0
358.154938 4460.0
358.268219 136.0
358.5448 92.0
358.616425 124.0
358.654114 60.0
358.713989 72.0
358.797363 104.0
358.834076 156.0
358.956665 156.0
359.049988 188.0
359.158478 888.0
359.295166 132.0
359.400787 120.0
359.487579 196.0
359.529083 176.0
359.6008 164.0
359.664978 56.0
359.740448 40.0
359.895233 72.0
359.92923 124.0
360.159515 160.0
360.306915 104.0
360.401367 184.0
360.42688 96.0
360.533356 100.0
360.59787 48.0
360.726379 136.0
360.900299 92.0
360.949432 92.0
361.081787 140.0
361.170746 152.0
361.217957 76.0
361.30661 100.0
361.418457 212.0
361.555786 152.0
361.808533 192.0
361.86911 128.0
361.937012 116.0
362.048828 160.0
362.122589 156.0
362.225769 304.0
362.395325 104.0
362.490051 60.0
362.516571 180.0
362.573425 188.0
362.664368 76.0
362.743958 44.0
362.865265 136.0
362.979034 108.0
363.126678 128.0
363.185638 684.0
363.231079 128.0
363.28244 48.0
363.487549 132.0
364.094696 132.0
364.184967 156.0
364.230042 100.0
364.299774 92.0
364.358551 136.0
364.413757 196.0
364.510376 168.0
364.577148 160.0
364.611359 84.0
364.687347 96.0
364.729187 72.0
364.843201 156.0
365.196503 140.0
365.425079 72.0
365.729523 156.0
365.916046 56.0
366.083588 132.0
366.155945 196.0
366.300659 152.0
366.411133 96.0
366.502563 84.0
366.632141 100.0
366.69693 172.0
366.727417 100.0
366.902771 112.0
366.971375 104.0
367.180695 72.0
367.249756 120.0
367.322235 160.0
367.364197 164.0
367.612183 148.0
367.65036 200.0
368.178192 348.0
368.230621 64.0
368.34903 64.0
368.42926 32.0
368.467468 184.0
368.51712 56.0
368.686981 152.0
368.72348 188.0
368.83316 120.0
369.06369 148.0
369.101929 144.0
369.195862 372.0
369.557068 104.0
369.867065 176.0
370.081421 60.0
370.198944 292.0
370.22467 284.0
370.272888 32.0
370.437592 44.0
370.598511 60.0
370.67514 180.0
370.770935 124.0
370.95108 244.0
370.985565 112.0
371.062256 76.0
371.123596 88.0
371.155609 276.0
371.213257 152.0
371.282593 128.0
371.338348 96.0
371.560822 156.0
371.593719 104.0
371.829407 88.0
371.948395 48.0
371.998291 176.0
372.032837 92.0
372.116699 116.0
372.168671 2884.0
372.320801 44.0
372.470612 116.0
372.501343 148.0
372.626617 96.0
372.69342 88.0
372.812531 96.0
372.985474 72.0
373.104645 40.0
373.174774 552.0
373.516113 56.0
373.597595 108.0
373.63501 212.0
373.673828 32.0
373.712311 68.0
373.797791 128.0
373.898346 168.0
373.977844 92.0
374.053375 64.0
374.080109 224.0
374.135651 68.0
374.173431 96.0
374.324097 148.0
374.33728 92.0
374.493774 108.0
374.56308 124.0
374.774963 136.0
374.869171 108.0
374.971497 48.0
375.090973 116.0
375.117981 84.0
375.197235 128.0
375.515106 92.0
375.549835 132.0
375.580688 160.0
375.653961 68.0
375.697296 136.0
376.02243 208.0
376.147888 212.0
376.209656 188.0
376.391113 188.0
376.418121 136.0
376.654541 308.0
376.758026 28.0
376.812103 72.0
376.908691 84.0
377.185028 104.0
377.445984 32.0
377.538788 152.0
377.65094 148.0
378.138428 124.0
378.224701 312.0
378.366791 48.0
378.404449 160.0
378.7211 80.0
378.813995 116.0
379.056213 108.0
379.098846 248.0
379.180237 120.0
379.23822 112.0
379.470947 76.0
379.505829 176.0
379.56012 156.0
379.684357 120.0
379.971252 168.0
380.052734 84.0
380.096222 112.0
380.17688 184.0
380.215118 132.0
380.277802 240.0
380.31662 72.0
380.40976 140.0
380.572815 80.0
380.848541 96.0
381.035004 108.0
381.0672 112.0
381.194305 52.0
381.227081 128.0
381.275909 252.0
381.307007 100.0
381.443024 196.0
381.478027 64.0
381.509125 84.0
381.548004 132.0
381.707397 156.0
382.08078 88.0
382.127472 96.0
382.205292 156.0
382.329803 84.0
382.462128 108.0
382.596069 136.0
382.660675 148.0
382.750214 92.0
382.824188 40.0
382.905975 128.0
383.114227 112.0
383.26825 112.0
383.30722 176.0
383.400757 156.0
383.529358 80.0
383.615112 104.0
383.67749 128.0
383.934814 60.0
384.036407 84.0
384.180542 68.0
384.348328 116.0
384.469269 104.0
384.516113 192.0
384.881042 164.0
385.031433 100.0
385.062683 56.0
385.113464 296.0
385.27063 68.0
385.492401 120.0
385.789459 60.0
385.852722 232.0
385.933228 144.0
385.983826 112.0
386.020142 32.0
386.125702 144.0
386.222229 8324.0
386.284454 164.0
386.293762 112.0
386.35257 212.0
386.431732 68.0
386.466034 92.0
386.569244 180.0
386.646027 156.0
386.814331 44.0
386.873047 116.0
386.920044 52.0
387.029663 140.0
387.115814 152.0
387.164185 56.0
387.227051 2624.0
387.386047 88.0
387.427368 116.0
387.458038 84.0
387.550598 28.0
387.674896 116.0
387.766113 136.0
387.828827 92.0
388.033844 136.0
388.118927 96.0
388.230438 360.0
388.419403 64.0
388.442841 100.0
388.518951 124.0
388.730835 112.0
388.924927 124.0
389.112213 72.0
389.170685 192.0
389.225403 92.0
389.252899 88.0
389.374634 100.0
389.477966 132.0
389.631744 168.0
389.688873 112.0
389.810699 108.0
389.952148 76.0
390.030487 168.0
390.168365 116.0
390.221191 220.0
390.29538 116.0
390.451447 132.0
390.71106 48.0
390.876312 148.0
390.907776 184.0
390.974701 84.0
391.1203 116.0
391.212921 208.0
391.281708 120.0
391.348633 124.0
391.533691 180.0
391.592773 204.0
391.620361 144.0
391.675507 92.0
391.809418 84.0
392.006439 136.0
392.045837 176.0
392.219025 156.0
392.302032 60.0
392.361145 132.0
392.585907 60.0
392.723938 116.0
392.826477 116.0
393.035583 44.0
393.134247 88.0
393.201324 84.0
393.323669 160.0
393.560547 176.0
393.68689 52.0
393.734283 56.0
393.76767 168.0
394.184631 136.0
394.334808 172.0
394.382233 208.0
394.59964 48.0
394.781525 84.0
394.825043 92.0
395.090027 76.0
395.14325 212.0
395.188934 104.0
395.224548 60.0
395.315552 64.0
395.430328 36.0
395.49762 104.0
395.802429 68.0
395.861847 128.0
395.956879 120.0
396.055878 40.0
396.205109 132.0
396.337158 68.0
396.440186 140.0
396.681946 52.0
397.102234 164.0
397.141907 260.0
397.18158 96.0
397.264862 60.0
397.398834 156.0
397.439423 80.0
397.494995 128.0
397.574341 160.0
397.635406 104.0
397.876007 104.0
397.979218 56.0
398.086456 88.0
398.220001 76.0
398.323212 240.0
398.435974 156.0
398.543243 120.0
398.605377 200.0
398.634613 148.0
399.000305 48.0
399.195129 152.0
399.245178 260.0
399.31839 100.0
399.362152 124.0
399.41275 100.0
399.481476 56.0
399.756012 76.0
399.795807 112.0
399.875397 112.0
400.165985 100.0
400.20108 88.0
400.217072 108.0
400.233673 76.0
400.246796 108.0
400.344055 100.0
400.452698 76.0
400.524384 240.0
400.878967 92.0
400.930756 56.0
401.026398 112.0
401.377228 112.0
401.433868 196.0
401.472931 84.0
401.504822 204.0
401.644409 120.0
401.764099 128.0
401.811951 144.0
401.883789 52.0
402.051361 92.0
402.123199 92.0
402.191071 68.0
402.230957 184.0
402.969757 96.0
403.167999 72.0
403.237488 80.0
403.26947 140.0
403.389374 116.0
403.513306 68.0
403.757202 128.0
403.841187 184.0
403.933197 120.0
404.081207 112.0
404.277283 104.0
404.313293 104.0
404.361298 56.0
404.649506 116.0
404.713562 76.0
404.801666 216.0
404.925812 76.0
405.209839 176.0
405.33844 112.0
405.562836 96.0
405.875549 96.0
405.911133 64.0
406.0159 88.0
406.223694 128.0
406.786255 132.0
407.191772 68.0
407.219879 124.0
407.280121 184.0
407.685913 100.0
407.846649 148.0
407.902924 72.0
407.949097 148.0
408.075806 40.0
408.215973 144.0
408.574493 76.0
408.78064 64.0
408.844086 116.0
408.936646 136.0
409.033234 180.0
409.15802 176.0
409.204987 108.0
409.217743 72.0
409.403656 116.0
409.447937 152.0
409.492249 92.0
409.622162 124.0
409.813416 120.0
410.068359 128.0
410.157043 132.0
410.411011 148.0
410.580383 160.0
410.648956 112.0
410.854645 132.0
410.99588 120.0
411.060425 104.0
411.098053 160.0
411.189575 80.0
411.322754 112.0
411.391388 64.0
411.476166 136.0
411.629578 56.0
411.661896 64.0
411.783051 76.0
411.847656 96.0
411.940552 176.0
412.09494 132.0
412.142578 188.0
412.204132 136.0
412.285156 180.0
412.371124 136.0
412.477844 116.0
412.534576 76.0
412.721527 132.0
412.777161 56.0
412.841858 56.0
412.898468 76.0
413.015778 164.0
413.116882 84.0
413.225372 332.0
413.294922 188.0
413.38797 144.0
413.493317 168.0
413.642853 152.0
413.697357 100.0
413.727966 160.0
413.780579 100.0
413.841309 108.0
413.956116 148.0
414.035675 40.0
414.071533 192.0
414.10257 108.0
414.127716 244.0
414.14621 180.0
414.157623 268.0
414.219208 29104.0
414.346771 164.0
414.392151 140.0
414.474182 64.0
414.569275 172.0
414.641418 148.0
414.737946 204.0
414.784149 164.0
414.858185 132.0
414.901031 56.0
414.953156 112.0
414.996735 124.0
415.062927 160.0
415.143463 132.0
415.220947 8144.0
415.308289 48.0
415.346436 164.0
415.381836 116.0
415.474762 268.0
415.509216 128.0
415.550598 60.0
415.610138 76.0
415.652252 76.0
415.664734 60.0
415.679138 68.0
415.78125 160.0
415.814209 124.0
415.843658 96.0
415.876312 60.0
415.909729 68.0
415.968811 56.0
416.001526 156.0
416.053162 156.0
416.091461 56.0
416.153717 60.0
416.224976 1164.0
416.326965 84.0
416.46463 208.0
416.52597 164.0
416.566376 108.0
416.615753 76.0
416.725006 132.0
416.773773 144.0
416.865509 132.0
416.932251 112.0
416.962738 40.0
417.019562 116.0
417.112671 132.0
417.228851 300.0
417.298096 48.0
417.326538 108.0
417.381805 128.0
417.460724 68.0
417.530823 100.0
417.586548 136.0
417.64444 68.0
417.684418 92.0
417.800751 160.0
417.845337 164.0
417.881134 112.0
417.924438 88.0
417.969177 76.0
418.091278 100.0
418.135681 92.0
418.161682 120.0
418.234802 304.0
418.289581 116.0
418.412811 100.0
418.441315 164.0
418.758942 60.0
418.872986 104.0
418.901489 88.0
419.007416 276.0
419.113342 164.0
419.203003 104.0
419.296722 144.0
419.406433 108.0
419.59021 156.0
419.659515 104.0
419.764435 104.0
419.969421 92.0
420.152313 140.0
420.207733 160.0
420.26651 68.0
420.33252 152.0
420.410034 108.0
420.577362 88.0
420.618195 108.0
420.712067 128.0
420.761047 80.0
420.814148 96.0
420.850891 132.0
420.977478 60.0
421.169403 132.0
421.223328 112.0
421.324646 52.0
421.385925 68.0
421.549347 64.0
421.680115 140.0
422.154358 104.0
422.195251 96.0
422.227966 144.0
422.296204 64.0
422.686127 104.0
422.784332 140.0
423.047394 252.0
423.245209 264.0
423.312408 164.0
423.468018 140.0
423.635956 148.0
423.857208 156.0
424.074402 116.0
424.197357 108.0
424.230164 140.0
424.738617 76.0
424.890411 72.0
424.99295 244.0
425.093994 160.0
425.187836 344.0
425.313049 68.0
425.374634 84.0
425.427979 136.0
425.532837 132.0
425.63739 116.0
425.953613 144.0
426.236267 216.0
426.870087 48.0
426.993469 140.0
427.079834 176.0
427.197388 132.0
427.301971 128.0
427.676453 180.0
427.72583 136.0
427.758759 212.0
427.795807 128.0
428.018127 100.0
428.276062 176.0
428.511322 160.0
428.586548 128.0
428.714294 116.0
428.954773 160.0
428.994537 192.0
429.064636 36.0
429.167694 112.0
429.262543 132.0
429.388 216.0
429.522369 148.0
429.749268 136.0
429.864777 124.0
430.046356 92.0
430.306427 100.0
430.65329 100.0
430.70285 152.0
430.835052 168.0
430.967255 44.0
431.033356 40.0
431.182129 144.0
431.434265 156.0
431.719543 68.0
431.922211 116.0
432.004944 116.0
432.233307 100.0
432.334534 156.0
432.422852 144.0
432.480774 96.0
432.580139 128.0
432.735382 224.0
432.80368 88.0
432.857513 120.0
433.105988 68.0
433.134979 176.0
433.203033 132.0
433.22876 252.0
433.247803 120.0
433.264435 160.0
433.391846 120.0
433.478851 28.0
433.528595 144.0
433.594879 48.0
433.690216 132.0
433.802124 56.0
433.950439 124.0
433.996735 140.0
434.158691 144.0
434.345337 60.0
434.602539 68.0
434.8367 188.0
435.067352 76.0
435.104736 116.0
435.150391 140.0
435.239716 4732.0
435.330841 148.0
435.513062 168.0
435.544891 116.0
435.573975 84.0
435.62381 148.0
435.661194 164.0
435.744293 60.0
435.848175 116.0
435.917297 88.0
435.960358 112.0
436.006073 36.0
436.164001 132.0
436.243073 2420.0
436.31781 32.0
436.376007 68.0
436.425903 184.0
436.462128 236.0
436.552582 112.0
436.600555 68.0
436.667084 160.0
437.244781 404.0
437.416016 48.0
437.540924 104.0
437.611694 188.0
438.157745 148.0
438.236572 200.0
438.273743 92.0
438.428101 152.0
438.463104 60.0
438.548981 124.0
438.615662 72.0
438.674011 36.0
438.719879 44.0
438.853271 56.0
438.899139 56.0
439.18689 156.0
439.220245 152.0
439.253632 120.0
439.41214 188.0
439.533142 60.0
439.904572 120.0
439.94632 140.0
440.2052 124.0
440.35553 164.0
440.397308 160.0
440.476654 88.0
440.785828 64.0
440.898651 136.0
441.024017 108.0
441.23056 452.0
441.36264 128.0
441.525726 116.0
441.601013 128.0
441.893829 128.0
441.948212 104.0
442.010986 96.0
442.227203 144.0
442.303925 48.0
442.391815 120.0
442.49649 124.0
442.56604 176.0
442.596985 168.0
442.831482 32.0
443.141449 148.0
443.232208 144.0
443.250702 132.0
443.288116 292.0
443.422211 120.0
443.472504 168.0
443.640167 96.0
443.845612 156.0
443.937866 120.0
444.059479 72.0
444.234497 368.0
444.420227 140.0
444.483185 92.0
445.150604 144.0
445.234161 228.0
445.523804 84.0
445.633636 208.0
445.780701 112.0
446.083282 96.0
446.356567 284.0
446.440674 144.0
446.537384 96.0
446.781342 164.0
446.865509 144.0
446.907562 152.0
446.979095 120.0
447.3284 144.0
447.366302 44.0
447.421021 80.0
447.475769 168.0
447.51474 328.0
447.618896 100.0
447.820404 128.0
447.993744 132.0
448.044739 152.0
448.160492 152.0
448.351898 140.0
448.381378 188.0
448.448822 44.0
448.524689 148.0
448.558411 144.0
448.61795 64.0
448.813507 164.0
449.085449 32.0
449.473572 140.0
449.925171 68.0
450.10672 48.0
450.250061 396.0
450.41925 160.0
450.562866 56.0
450.672699 72.0
450.892456 92.0
450.943176 68.0
451.251801 524.0
451.32785 184.0
451.513916 92.0
451.564667 44.0
451.64502 52.0
451.755005 40.0
451.962311 44.0
452.114624 76.0
452.257782 136.0
452.402435 152.0
452.580261 72.0
452.64801 132.0
452.762329 56.0
452.817383 132.0
452.876678 100.0
452.914825 188.0
453.096954 64.0
453.126617 132.0
453.160522 140.0
453.23996 240.0
453.343353 132.0
453.420868 200.0
453.580048 96.0
453.622437 64.0
453.715698 172.0
453.762329 104.0
453.910736 164.0
454.233063 108.0
454.546997 100.0
454.580933 68.0
454.72522 108.0
454.788879 176.0
454.895264 132.0
454.933228 216.0
455.018127 140.0
455.204041 144.0
455.25589 52.0
455.540466 172.0
455.604187 92.0
455.646667 80.0
455.820862 128.0
455.995087 116.0
456.254395 40.0
456.31723 56.0
456.437195 124.0
456.624298 124.0
456.968872 72.0
457.173096 120.0
457.275238 64.0
457.385895 172.0
457.458282 32.0
457.513611 128.0
457.685913 188.0
457.867004 76.0
457.927734 108.0
458.14386 92.0
458.229065 140.0
458.263153 136.0
458.344116 120.0
458.40802 52.0
458.474579 84.0
458.548676 76.0
458.587006 176.0
459.141266 136.0
459.171112 148.0
459.225067 172.0
459.252808 160.0
459.299072 124.0
459.405701 120.0
459.473633 108.0
459.661682 200.0
459.798248 168.0
460.088501 40.0
460.242188 332.0
460.374573 168.0
460.600922 76.0
460.958405 136.0
461.087982 60.0
461.164917 104.0
461.318787 112.0
461.489807 144.0
461.549652 172.0
461.896057 40.0
461.95166 96.0
462.229767 64.0
462.272552 84.0
462.405212 108.0
462.529327 176.0
462.955231 76.0
463.026337 52.0
463.244446 140.0
463.355804 176.0
463.49292 100.0
463.650391 128.0
463.912933 88.0
464.069489 100.0
464.165863 136.0
464.33313 140.0
464.42749 40.0
464.620514 192.0
465.131165 92.0
465.199829 204.0
465.324341 104.0
465.375854 136.0
465.534729 52.0
465.58197 116.0
465.64209 92.0
465.874023 60.0
465.917358 240.0
466.18338 104.0
466.230652 200.0
466.338104 64.0
466.518616 52.0
466.608917 104.0
467.069031 208.0
467.124939 112.0
467.241089 120.0
467.624054 80.0
467.697235 172.0
467.869415 204.0
467.925385 64.0
468.015808 36.0
468.411987 76.0
468.463684 108.0
468.529938 128.0
468.666168 124.0
468.704956 120.0
468.825623 116.0
468.940216 208.0
469.196289 208.0
469.246429 132.0
469.32132 76.0
469.627502 140.0
469.803833 100.0
469.815521 88.0
469.832062 152.0
470.002808 116.0
470.063202 144.0
470.205627 28.0
470.238464 156.0
470.356689 116.0
470.408478 108.0
470.464264 172.0
470.85495 128.0
470.905029 100.0
470.974121 60.0
471.146912 132.0
471.27652 132.0
471.406158 136.0
471.59198 40.0
471.639526 84.0
472.106445 88.0
472.275116 100.0
472.720734 88.0
472.752472 144.0
472.854889 100.0
472.937103 92.0
473.178284 152.0
473.231476 140.0
473.294464 164.0
473.678375 104.0
473.907135 68.0
474.045776 88.0
474.080444 320.0
474.184479 124.0
474.461884 236.0
474.73938 172.0
475.047302 100.0
475.206299 136.0
475.251312 200.0
475.337982 124.0
475.524597 160.0
475.772003 128.0
475.950012 220.0
476.028168 100.0
476.106354 168.0
476.267029 120.0
476.571136 136.0
477.251678 196.0
477.318726 48.0
477.617401 148.0
477.788452 92.0
477.836304 104.0
478.962921 328.0
479.306641 120.0
479.512756 44.0
479.569427 120.0
479.613007 208.0
479.653076 288.0
479.700165 124.0
479.833862 84.0
479.858948 96.0
479.935608 172.0
480.260895 244.0
480.384796 100.0
480.489502 52.0
480.808014 128.0
480.873474 124.0
480.934601 136.0
481.165955 184.0
481.261993 188.0
481.366791 60.0
482.144379 120.0
482.310455 120.0
482.581482 36.0
482.725769 104.0
483.211273 104.0
483.504456 116.0
483.657623 144.0
483.990326 100.0
484.020996 180.0
484.091034 44.0
484.128571 116.0
484.63858 72.0
484.875214 140.0
484.940948 88.0
485.129425 96.0
485.221497 56.0
485.282867 100.0
485.401245 160.0
485.752106 148.0
485.945129 76.0
486.423462 108.0
486.531738 168.0
486.660522 60.0
486.998657 116.0
487.55661 128.0
487.602753 144.0
487.644501 44.0
487.706055 112.0
487.745605 124.0
487.793945 116.0
487.939026 156.0
488.040131 116.0
488.123688 132.0
488.176453 144.0
488.207245 144.0
488.298859 192.0
488.352356 152.0
488.440338 116.0
488.56604 132.0
488.629486 112.0
488.968323 96.0
489.073944 164.0
489.232391 176.0
489.333649 80.0
489.580231 56.0
490.126465 140.0
490.223389 140.0
490.329163 144.0
490.703827 100.0
490.875793 152.0
490.972809 180.0
491.09906 160.0
491.171265 116.0
491.581573 108.0
491.8508 60.0
491.908173 124.0
491.947906 140.0
492.102417 140.0
492.181885 96.0
492.292267 60.0
492.473358 76.0
492.512115 108.0
492.62793 124.0
493.091888 116.0
493.317291 72.0
493.367615 232.0
493.454346 116.0
493.525085 156.0
493.560455 136.0
493.648895 172.0
494.142548 112.0
494.314636 176.0
494.44519 128.0
494.648773 116.0
494.728455 136.0
495.05545 136.0
495.103821 164.0
495.485718 88.0
495.556244 96.0
495.756012 72.0
495.822479 88.0
495.888947 136.0
495.964294 80.0
496.140778 128.0
496.389893 88.0
496.527374 152.0
496.762451 148.0
497.277161 172.0
497.3526 136.0
497.423615 136.0
497.530151 36.0
497.574554 68.0
497.925354 112.0
498.209625 148.0
498.445099 164.0
498.556183 96.0
498.942871 108.0
499.240784 60.0
499.374207 116.0
499.414215 164.0
499.474701 160.0
499.556549 128.0
499.601044 56.0
499.636627 156.0
499.89743 184.0
499.974792 68.0
500.005951 204.0
500.108307 132.0
500.148376 152.0
500.228485 164.0
500.31308 144.0
500.638092 156.0
500.776154 144.0
500.811798 112.0
501.15033 48.0
501.364227 192.0
501.524658 88.0
501.595978 120.0
501.702972 148.0
501.806854 108.0
501.987091 144.0
502.11319 92.0
502.724365 80.0
502.920715 64.0
502.960907 208.0
503.537628 116.0
503.572571 216.0
503.630646 164.0
503.840576 84.0
503.943359 124.0
504.014832 124.0
504.201508 108.0
504.256134 80.0
504.443878 140.0
504.680817 164.0
504.721039 72.0
504.814941 148.0
504.87262 196.0
504.91333 96.0
504.980408 112.0
505.034088 132.0
505.078827 84.0
505.221954 132.0
505.276581 172.0
505.437256 136.0
505.552155 140.0
505.889801 100.0
506.148407 112.0
506.21109 92.0
506.242432 192.0
506.39917 168.0
506.502197 180.0
506.685852 68.0
507.044342 108.0
507.156372 140.0
507.574799 104.0
507.871735 220.0
507.91861 140.0
508.120758 184.0
508.187775 104.0
508.25058 128.0
508.322388 56.0
508.479462 96.0
508.676147 112.0
508.735291 48.0
508.807129 128.0
508.865479 124.0
509.319031 36.0
509.372925 48.0
509.678436 188.0
509.795258 140.0
509.920349 144.0
510.046936 116.0
510.0784 248.0
510.589447 136.0
510.748383 112.0
511.251587 188.0
511.783417 116.0
512.0401 112.0
512.087708 168.0
512.13916 44.0
512.287842 48.0
512.436462 124.0
512.684326 64.0
512.837524 160.0
513.044922 128.0
513.292847 96.0
513.351501 72.0
513.671692 96.0
513.740723 144.0
514.014587 140.0
514.163513 116.0
514.249268 84.0
514.37561 100.0
514.542664 52.0
514.623901 108.0
514.971619 144.0
515.439209 124.0
515.640259 96.0
515.714478 188.0
515.997375 136.0
516.101379 132.0
516.354614 100.0
517.006042 120.0
517.046753 60.0
517.2052 152.0
517.35907 212.0
517.630737 212.0
517.906982 136.0
517.974915 184.0
518.119873 164.0
518.324463 164.0
518.464233 116.0
518.550354 140.0
518.622864 124.0
518.659119 100.0
518.990051 104.0
519.103455 84.0
519.275757 72.0
519.520325 196.0
519.647705 120.0
519.83374 136.0
519.906372 184.0
519.956299 116.0
520.310303 132.0
520.528259 144.0
520.659973 224.0
520.782593 52.0
520.996033 144.0
521.241394 104.0
521.273193 52.0
521.34137 136.0
521.46405 176.0
521.864075 184.0
522.468994 132.0
522.582703 140.0
522.6828 112.0
522.82843 96.0
522.914917 76.0
523.092407 96.0
523.192566 140.0
523.429321 156.0
523.582275 156.0
523.884766 96.0
523.92572 36.0
524.126221 84.0
524.301575 372.0
524.46344 124.0
524.869202 136.0
524.933167 144.0
525.286621 840.0
525.411926 64.0
525.512268 108.0
525.576172 96.0
525.63916 140.0
525.927551 140.0
526.022217 124.0
526.137512 132.0
526.169495 296.0
526.287903 460.0
526.44342 128.0
526.530212 164.0
526.639832 36.0
526.786011 144.0
526.844238 96.0
526.860535 140.0
527.105774 40.0
527.219849 224.0
527.290161 2620.0
527.40741 112.0
527.466858 148.0
527.846313 188.0
527.901184 204.0
528.033813 116.0
528.097839 120.0
528.295471 768.0
528.367676 172.0
528.500366 64.0
528.683411 60.0
529.017517 108.0
529.063293 100.0
529.293396 332.0
529.466248 208.0
529.649414 132.0
529.97467 204.0
530.263367 160.0
530.455872 160.0
530.648438 52.0
530.841003 132.0
531.097839 72.0
531.143677 64.0
531.414368 180.0
531.53363 192.0
531.611633 108.0
531.652954 100.0
531.790649 136.0
531.95105 144.0
532.00177 196.0
532.033936 152.0
532.245117 132.0
532.750305 64.0
532.883545 84.0
532.930908 288.0
532.967651 128.0
533.173035 152.0
533.421204 112.0
533.462585 136.0
533.54071 152.0
533.584045 152.0
533.646729 72.0
533.779785 72.0
533.825806 92.0
533.885559 44.0
533.995972 84.0
534.097107 100.0
534.274902 184.0
534.363953 160.0
534.396118 164.0
534.538757 180.0
534.593994 108.0
534.649231 88.0
534.775757 200.0
534.860962 196.0
535.00824 100.0
535.058899 48.0
535.132568 28.0
535.192383 124.0
535.334839 120.0
535.583801 108.0
535.643738 76.0
535.739624 68.0
535.786499 152.0
535.831238 168.0
535.953369 248.0
536.145935 100.0
536.295898 208.0
536.50824 248.0
536.565369 40.0
536.66217 120.0
536.762268 140.0
536.840393 92.0
536.934204 200.0
537.063354 40.0
537.146423 40.0
537.224792 40.0
537.426208 172.0
537.482483 80.0
537.557617 108.0
537.634399 52.0
537.641968 88.0
537.722351 116.0
537.744629 92.0
537.781677 128.0
537.838501 36.0
537.880066 200.0
537.924194 144.0
537.980713 164.0
538.131531 252.0
538.24939 164.0
538.330811 112.0
538.371704 108.0
538.400208 152.0
538.449036 120.0
538.48877 88.0
538.540344 116.0
538.677002 68.0
538.748169 36.0
538.794373 188.0
538.826721 148.0
538.928345 112.0
538.986145 88.0
539.080872 56.0
539.150391 88.0
539.190125 132.0
539.288818 84.0
539.330444 76.0
539.395142 96.0
539.42749 60.0
539.482849 120.0
539.568665 204.0
539.619141 144.0
539.65271 168.0
539.707214 228.0
539.74231 124.0
539.789612 148.0
539.802734 216.0
539.856445 108.0
539.90271 132.0
539.916443 164.0
539.93158 244.0
539.999817 92.0
540.03949 100.0
540.075317 292.0
540.111816 240.0
540.180542 320.0
540.250793 92.0
540.293091 152.0
540.376038 304.0
540.422363 212.0
540.47345 144.0
540.519897 148.0
540.58075 84.0
540.644897 72.0
540.6828 164.0
540.750916 144.0
540.853333 116.0
540.920349 124.0
540.965515 184.0
541.008667 64.0
541.09613 176.0
541.164795 176.0
541.178162 104.0
541.201172 164.0
541.235535 176.0
541.26825 64.0
541.287231 308.0
541.328979 208.0
541.38855 308.0
541.454285 248.0
541.535034 180.0
541.570557 148.0
541.617188 140.0
541.721985 328.0
541.774841 288.0
541.841858 228.0
541.916565 188.0
541.980652 344.0
542.060547 240.0
542.067261 356.0
542.106262 500.0
542.147278 604.0
542.179443 636.0
542.23175 1000.0
542.315735 247576.0
542.455078 396.0
542.488586 320.0
542.537109 168.0
542.550293 60.0
542.569092 176.0
542.624878 264.0
542.639832 208.0
542.654175 460.0
542.699646 364.0
542.711853 252.0
542.73175 356.0
542.755615 72.0
542.763977 308.0
542.795044 252.0
542.829163 240.0
542.883362 484.0
542.943481 528.0
542.994324 168.0
543.028015 244.0
543.08197 2000.0
543.144592 400.0
543.239197 488.0
543.318237 124948.0
543.473755 184.0
543.491333 76.0
543.509216 168.0
543.529602 168.0
543.586487 132.0
543.639526 92.0
543.676697 244.0
543.731384 308.0
543.79718 272.0
543.83252 312.0
543.903137 292.0
543.954712 132.0
544.032776 188.0
544.086487 232.0
544.122192 228.0
544.154236 116.0
544.163391 260.0
544.183044 196.0
544.227844 200.0
544.319153 21420.0
544.447021 84.0
544.497925 180.0
544.516907 224.0
544.596741 300.0
544.672485 136.0
544.727966 152.0
544.797058 220.0
544.859802 264.0
544.957825 100.0
545.027466 60.0
545.061462 88.0
545.132446 56.0
545.148865 52.0
545.182556 172.0
545.240356 204.0
545.324036 2516.0
545.429443 72.0
545.470276 32.0
545.521301 256.0
545.567017 120.0
545.577515 52.0
545.615723 44.0
545.629089 104.0
545.684875 252.0
545.702026 252.0
545.740356 60.0
545.754211 192.0
545.830017 64.0
545.86853 136.0
545.934631 72.0
545.9552 92.0
545.973267 144.0
546.031799 88.0
546.072449 276.0
546.112793 172.0
546.164734 132.0
546.207397 264.0
546.268799 256.0
546.327087 340.0
546.387207 144.0
546.427002 536.0
546.467224 252.0
546.550781 96.0
546.600708 208.0
546.63269 116.0
546.643127 100.0
546.694336 240.0
546.742249 224.0
546.814026 228.0
546.91217 148.0
547.003906 104.0
547.050415 192.0
547.140198 60.0
547.281128 128.0
547.291504 104.0
547.347229 120.0
547.429993 152.0
547.448364 76.0
547.475525 232.0
547.548523 80.0
547.617859 224.0
547.650452 68.0
547.694824 96.0
547.760803 140.0
547.793152 128.0
547.848877 60.0
547.900757 48.0
547.96637 96.0
548.044312 192.0
548.105652 72.0
548.15564 84.0
548.241272 48.0
548.29718 52.0
548.346191 88.0
548.390442 112.0
548.430603 84.0
548.466309 180.0
548.553528 164.0
548.60614 76.0
548.664734 80.0
548.703613 124.0
548.768677 56.0
548.873352 60.0
548.920593 44.0
548.984741 232.0
549.116272 52.0
549.157593 44.0
549.229675 144.0
549.269226 108.0
549.296631 80.0
549.346252 36.0
549.378906 96.0
549.445984 76.0
549.535828 96.0
549.631714 44.0
549.703552 164.0
549.754211 48.0
549.798889 76.0
549.866333 112.0
549.905029 68.0
549.954956 108.0
550.033752 108.0
550.155701 88.0
550.289551 68.0
550.333252 100.0
550.465149 88.0
550.47937 88.0
550.54364 96.0
550.620483 36.0
550.65863 120.0
550.726135 84.0
551.050232 64.0
551.11322 116.0
551.148376 80.0
551.210327 108.0
551.410034 56.0
551.456787 60.0
551.49884 56.0
551.751282 64.0
552.017761 60.0
552.073914 68.0
552.234741 112.0
552.289001 76.0
552.639893 68.0
552.765381 68.0
553.075073 32.0
553.282715 112.0
553.333069 72.0
553.819519 36.0
553.852356 52.0
554.131531 100.0
554.420227 76.0
554.569214 76.0
554.620728 36.0
554.911377 28.0
555.022461 104.0
555.263062 124.0
555.525757 52.0
555.750916 44.0
555.797852 88.0
555.891724 28.0
555.938599 48.0
556.217773 84.0
556.295349 88.0
556.332886 64.0
556.379822 44.0
556.479004 96.0
556.652161 64.0
557.225159 48.0
557.525879 124.0
557.619873 92.0
557.916016 72.0
558.024109 60.0
558.080566 60.0
558.374756 92.0
558.466125 52.0
558.546143 112.0
558.602539 72.0
558.781311 96.0
558.847168 72.0
558.922485 56.0
559.026001 84.0
559.200134 84.0
559.355469 120.0
559.403625 84.0
559.703064 76.0
559.896912 68.0
559.94397 72.0
560.075867 96.0
560.35376 152.0
560.419739 96.0
560.462158 72.0
560.944763 88.0
560.977112 124.0
561.235168 140.0
561.518066 84.0
561.871826 52.0
561.961487 32.0
562.081848 84.0
562.164368 64.0
562.40509 56.0
562.45697 92.0
562.523071 124.0
562.560852 112.0
562.669434 76.0
562.754395 140.0
562.965027 72.0
563.311646 124.0
563.420288 72.0
563.510071 124.0
563.566772 84.0
563.911743 40.0
564.124451 112.0
564.176453 88.0
564.291443 136.0
564.734375 104.0
564.810059 72.0
564.956726 132.0
565.060791 88.0
565.278442 56.0
565.75647 40.0
565.874817 80.0
566.182617 36.0
566.286804 152.0
566.324646 80.0
566.37677 220.0
566.570984 40.0
566.64679 44.0
566.954773 128.0
567.722778 164.0
567.779663 68.0
568.045288 60.0
568.111694 80.0
568.443787 104.0
568.95636 84.0
569.364746 32.0
569.412231 100.0
569.48822 68.0
569.90625 80.0
570.234131 52.0
570.866394 48.0
571.61322 96.0
571.80835 44.0
572.184387 80.0
572.817749 48.0
573.013062 84.0
573.156006 104.0
576.500977 40.0
576.802063 108.0
577.538391 88.0
577.849365 28.0
578.414001 68.0
578.68689 68.0
579.065186 76.0
580.785828 52.0
580.845581 140.0
581.198364 88.0
582.163208 40.0
583.58551 88.0
584.17218 144.0
585.288757 28.0
585.813721 96.0
586.035278 80.0
586.136475 108.0
586.555786 48.0
586.994507 64.0
587.090942 68.0
587.394775 36.0
587.578064 36.0
588.379211 76.0
589.374146 76.0
589.581909 44.0
589.857422 52.0
590.708435 64.0
592.543152 92.0
594.201233 60.0
595.565247 52.0
595.774109 76.0
596.021912 116.0
596.901672 84.0
597.188599 76.0
598.424622 88.0
599.627808 80.0
601.310364 68.0
602.179382 144.0
602.389404 140.0
603.635681 76.0
604.193237 100.0
604.486816 124.0
604.545532 76.0
604.648315 88.0
605.27002 124.0
605.333679 56.0
605.784241 68.0
606.220276 124.0
607.186035 52.0
607.396912 104.0
609.144409 68.0
609.429321 64.0
609.748718 108.0
610.333679 92.0
610.633667 108.0
611.101013 32.0
612.39563 68.0
613.029846 76.0
614.337708 48.0
614.446228 48.0
614.900208 64.0
616.268005 36.0
616.702881 128.0
617.775879 48.0
618.854736 68.0
619.166687 60.0
619.919678 72.0
620.564026 84.0
621.665161 96.0
621.729675 100.0
621.970764 84.0
622.375 88.0
623.154785 84.0
623.209412 36.0
624.198547 68.0
625.497009 72.0
627.280273 44.0
627.89856 116.0
629.415527 72.0
629.91626 76.0
630.309631 148.0
631.489441 120.0
632.079712 72.0
632.174805 28.0
632.339966 68.0
635.070496 32.0
638.113525 68.0
639.622681 112.0
640.564331 68.0
642.071289 48.0
645.302979 132.0
647.757324 52.0
648.628906 48.0
648.933044 76.0
649.151062 132.0
650.272217 64.0
651.302917 36.0
652.598755 52.0
654.242004 48.0
654.63916 60.0
656.46344 100.0
656.835754 112.0
657.978943 148.0
659.296631 80.0
659.644165 80.0
659.725952 108.0
660.84082 72.0
662.253662 108.0
662.361267 68.0
663.462952 84.0
665.412476 92.0
666.167358 64.0
668.146545 108.0
668.702271 76.0
670.432617 48.0
670.906799 52.0
671.231628 68.0
672.387146 48.0
672.490356 124.0
672.773926 116.0
673.321594 64.0
673.770935 84.0
676.216736 108.0
676.55835 72.0
678.019043 164.0
678.07605 112.0
679.284119 108.0
679.740662 56.0
680.27002 100.0
680.841125 80.0
683.54425 96.0
684.710327 88.0
684.877014 116.0
686.502991 48.0
686.779419 40.0
687.545532 52.0
688.428589 72.0
689.180725 112.0
689.781738 96.0
689.901978 48.0
690.027466 48.0
690.466675 100.0
695.680054 76.0
697.355591 120.0
698.081116 68.0
699.559509 88.0
701.751099 64.0
701.925049 192.0
702.732056 36.0
706.012268 36.0
706.281982 84.0
706.514709 76.0
706.662842 40.0
706.90625 100.0
707.213196 56.0
707.626099 96.0
708.240356 52.0
708.923767 88.0
709.268311 88.0
709.713562 192.0
709.952209 80.0
711.092834 64.0
711.777588 72.0
712.510559 132.0
713.71167 72.0
713.881836 104.0
714.663757 64.0
715.824097 44.0
715.999817 64.0
718.094299 96.0
719.481628 164.0
719.951477 128.0
720.191833 108.0
720.651245 104.0
720.8703 116.0
721.28186 68.0
721.832458 84.0
722.153381 220.0
722.896973 96.0
724.444275 176.0
725.103333 48.0
725.655396 104.0
728.505066 32.0
729.149841 120.0
730.709229 156.0
730.989014 36.0
731.064331 68.0
731.473328 60.0
731.65979 144.0
731.930969 76.0
732.038635 104.0
732.237915 92.0
732.399475 80.0
732.571838 56.0
732.927429 48.0
733.504089 80.0
735.953247 84.0
736.790405 60.0
737.022705 64.0
738.062378 68.0
738.541809 96.0
738.76355 68.0
739.109802 100.0
739.418274 56.0
740.47937 68.0
740.631042 84.0
740.842285 144.0
740.97229 28.0
742.51709 64.0
743.021545 92.0
743.097534 60.0
743.189758 92.0
743.808411 104.0
744.590271 52.0
744.66626 168.0
744.970459 60.0
745.540955 172.0
746.00293 44.0
746.655396 108.0
747.112305 48.0
749.52417 80.0
749.802063 144.0
750.652466 64.0
751.25238 72.0
751.705261 72.0
752.098206 76.0
752.218262 88.0
752.835205 96.0
753.201111 92.0
755.097656 148.0
755.267212 60.0
755.409424 52.0
756.509338 120.0
756.564087 160.0
756.690002 56.0
757.39093 148.0
758.431946 108.0
759.737 140.0
759.786377 56.0
760.576599 128.0
761.125549 104.0
761.334229 80.0
761.603333 112.0
761.949402 116.0
762.073303 152.0
763.664429 64.0
765.12262 116.0
765.568604 44.0
767.216003 140.0
767.41449 152.0
767.805969 84.0
768.556152 104.0
769.991394 124.0
770.527222 152.0
770.681885 172.0
770.847656 88.0
770.958191 148.0
771.31189 144.0
771.7099 28.0
772.677795 48.0
772.789001 188.0
772.861206 100.0
773.452454 132.0
773.496765 204.0
773.690491 152.0
774.083618 160.0
774.449097 164.0
774.62085 184.0
774.659607 176.0
775.972961 80.0
777.381836 32.0
777.698181 92.0
779.997681 96.0
780.909485 80.0
781.265503 116.0
782.261597 44.0
782.428589 56.0
782.545532 148.0
782.835022 124.0
782.885132 92.0
783.22644 156.0
783.664978 104.0
784.829407 144.0
784.963684 84.0
785.181152 28.0
785.504639 96.0
785.755676 80.0
785.889587 96.0
786.296936 84.0
786.347168 160.0
786.765808 148.0
786.966797 192.0
787.151001 60.0
787.201294 116.0
787.441406 172.0
787.653625 76.0
789.380554 64.0
789.889526 196.0
789.973389 28.0
791.193359 192.0
791.417297 56.0
793.1203 168.0
793.198792 128.0
793.479065 132.0
794.38385 176.0
794.606323 96.0
795.717529 48.0
796.065674 52.0
796.64978 152.0
796.818298 104.0
796.919434 52.0
797.003723 72.0
797.295898 132.0
797.515076 188.0
797.756775 140.0
798.425842 116.0
798.51532 172.0
798.535339 156.0
798.656433 204.0
798.8927 40.0
799.179626 216.0
801.262756 76.0
801.645874 52.0
802.564636 68.0
803.111633 84.0
804.402405 100.0
805.007874 48.0
805.374939 116.0
805.623535 180.0
807.173218 116.0
808.637268 128.0
809.0448 60.0
810.353027 84.0
810.454956 52.0
811.668579 36.0
811.889099 148.0
813.540161 168.0
813.841064 68.0
814.465759 132.0
814.590698 180.0
814.982727 96.0
815.270813 164.0
815.812439 176.0
816.722229 92.0
817.860168 156.0
818.087891 208.0
818.520569 48.0
818.63446 152.0
818.759705 192.0
819.745239 68.0
820.138489 152.0
821.250305 108.0
821.723755 56.0
821.832153 116.0
821.906311 52.0
822.088928 96.0
822.967957 44.0
823.904541 160.0
825.201843 84.0
825.424866 52.0
825.716492 96.0
825.773682 188.0
825.825195 124.0
826.792053 76.0
826.99231 112.0
828.819153 144.0
829.478149 164.0
829.638672 144.0
829.971191 112.0
830.625 72.0
830.854431 144.0
830.946228 96.0
831.135559 148.0
831.60614 120.0
831.824219 100.0
832.208862 40.0
833.483398 172.0
833.54718 92.0
833.868958 72.0
833.943665 60.0
834.489807 124.0
835.168335 152.0
835.91626 80.0
837.27478 168.0
837.407227 72.0
837.82196 48.0
837.925659 80.0
838.046631 124.0
838.213745 104.0
838.386597 40.0
838.674805 260.0
839.608765 108.0
839.689514 184.0
839.827942 184.0
840.208618 40.0
840.837585 104.0
840.95874 52.0
841.426331 60.0
841.691895 40.0
841.772766 88.0
842.540894 56.0
842.720032 152.0
843.049377 68.0
843.453918 128.0
844.326965 176.0
844.569885 56.0
844.650818 84.0
844.864868 100.0
845.13678 208.0
845.339294 80.0
845.501343 184.0
846.578064 124.0
846.937134 132.0
847.871521 148.0
847.945251 88.0
848.009033 124.0
848.791626 176.0
849.44696 164.0
850.044556 68.0
850.537842 72.0
850.938354 56.0
851.675842 84.0
852.326477 204.0
852.384583 160.0
852.901855 100.0
853.529663 136.0
854.506836 184.0
855.205078 108.0
856.014282 140.0
856.189026 120.0
857.571228 132.0
857.750427 60.0
857.867004 148.0
857.948608 144.0
858.103271 76.0
858.636658 68.0
858.934082 48.0
858.998291 112.0
859.307434 88.0
859.476685 160.0
859.774231 40.0
860.211975 200.0
860.36377 144.0
861.192932 68.0
861.455811 172.0
861.757019 64.0
862.073914 204.0
862.343933 120.0
863.600952 204.0
864.05603 164.0
864.232727 164.0
864.747681 64.0
865.338867 68.0
865.584778 52.0
865.795593 156.0
866.100159 188.0
867.00238 32.0
867.11377 128.0
867.336487 156.0
867.459534 248.0
867.529907 136.0
868.245239 64.0
869.013611 44.0
871.491272 120.0
872.155334 124.0
872.408081 208.0
872.507996 100.0
873.06073 184.0
873.243042 72.0
873.331238 36.0
873.490051 156.0
874.266663 120.0
874.347168 148.0
876.539673 164.0
876.91095 124.0
877.217407 104.0
877.995667 108.0
878.119568 144.0
879.140137 44.0
879.464722 152.0
879.759888 80.0
880.350281 164.0
880.503845 108.0
880.557007 128.0
880.681885 136.0
881.124023 176.0
881.165405 188.0
881.59082 168.0
881.638062 132.0
881.779907 124.0
881.85675 116.0
881.909973 76.0
882.980042 180.0
883.598022 144.0
884.684082 148.0
884.772888 92.0
884.843933 128.0
885.213867 184.0
886.016541 188.0
886.306824 152.0
886.597229 116.0
886.662415 124.0
887.421143 192.0
887.776917 172.0
888.061584 48.0
888.12085 168.0
888.186096 52.0
888.227661 240.0
888.482727 88.0
888.542053 64.0
888.939575 244.0
889.119568 132.0
889.254089 128.0
889.556824 72.0
890.019836 120.0
890.340515 76.0
891.778259 92.0
891.944641 196.0
892.277527 48.0
892.491577 180.0
892.937561 116.0
893.496704 40.0
893.907227 120.0
894.103638 176.0
894.175049 68.0
894.305969 268.0
894.470032 200.0
894.698853 60.0
894.954834 184.0
895.264465 152.0
895.621826 156.0
896.217529 92.0
896.908813 136.0
897.045898 104.0
897.200867 188.0
897.59436 100.0
897.817932 148.0
898.095337 72.0
898.530762 44.0
898.620056 124.0
900.070618 172.0
900.273621 164.0
901.844849 192.0
901.994324 176.0
902.045105 120.0
902.095947 152.0
903.172241 152.0
903.351685 92.0
903.614868 116.0
904.045715 80.0
904.364441 168.0
904.668152 44.0
905.306274 48.0
905.386658 108.0
905.883728 40.0
906.087402 72.0
906.842468 68.0
907.519836 64.0
907.674194 136.0
908.041504 56.0
908.113464 132.0
908.155457 68.0
908.224609 144.0
908.491394 172.0
908.75531 80.0
909.439453 196.0
909.571472 160.0
909.823608 152.0
910.075745 116.0
910.231873 128.0
910.363953 152.0
910.748352 164.0
910.832397 100.0
910.934509 68.0
911.487244 48.0
911.595398 128.0
911.901917 80.0
912.785583 140.0
913.170471 148.0
913.266663 60.0
913.621582 108.0
914.217224 44.0
914.337585 52.0
914.834351 60.0
915.619873 328.0
915.764465 192.0
916.427063 120.0
916.625916 108.0
916.897095 132.0
917.057556 172.0
917.246643 64.0
917.662598 76.0
917.98822 188.0
918.030396 96.0
918.892944 96.0
919.194641 116.0
921.706482 168.0
923.417236 208.0
923.4776 168.0
924.481995 124.0
924.748291 52.0
925.480774 176.0
925.874329 52.0
926.558777 76.0
926.74054 192.0
926.910217 112.0
927.001099 192.0
927.067749 52.0
927.255615 160.0
927.558655 92.0
928.322571 184.0
928.589417 72.0
928.904785 148.0
929.226318 140.0
929.347656 204.0
929.833069 40.0
930.348999 72.0
930.695068 140.0
930.798279 100.0
931.32666 140.0
931.702393 200.0
931.891602 120.0
931.970581 124.0
932.049561 28.0
932.092102 72.0
932.201477 72.0
932.377686 56.0
932.766663 76.0
932.924683 204.0
933.301636 120.0
934.000977 128.0
934.122681 144.0
934.165222 128.0
934.317322 132.0
935.552673 88.0
935.838806 136.0
935.954468 144.0
936.301575 172.0
936.350281 60.0
936.636536 168.0
937.312805 216.0
937.385925 116.0
937.538269 72.0
937.586975 92.0
938.385498 128.0
939.074585 124.0
939.275818 60.0
939.989624 204.0
940.044556 152.0
940.563293 48.0
941.41803 176.0
942.138733 44.0
942.242554 60.0
942.511414 80.0
942.560303 88.0
942.603088 136.0
942.853577 156.0
942.963623 144.0
943.837769 192.0
944.59613 56.0
944.724548 176.0
945.409851 128.0
945.758667 76.0
945.942322 172.0
946.346313 40.0
946.909668 84.0
947.111816 148.0
947.240417 188.0
947.313965 136.0
947.442566 168.0
947.595764 72.0
948.049194 76.0
948.251404 76.0
948.30658 140.0
948.852112 176.0
949.852051 64.0
950.225891 100.0
950.379272 244.0
950.520386 36.0
950.606262 92.0
950.827209 80.0
950.968323 116.0
951.035889 52.0
951.269104 160.0
951.508545 44.0
951.723389 52.0
951.790955 232.0
951.950623 144.0
952.282227 56.0
953.185242 144.0
953.430725 76.0
953.885864 164.0
954.193237 84.0
954.353088 116.0
955.041809 152.0
955.115662 136.0
955.472412 136.0
955.607788 112.0
955.896973 216.0
956.210815 48.0
956.290833 148.0
956.684753 68.0
957.060303 92.0
957.161865 144.0
957.343567 240.0
958.181213 140.0
958.372192 44.0
958.932983 124.0
959.709656 168.0
959.913147 164.0
960.33252 132.0
960.394165 160.0
960.492859 48.0
961.017212 56.0
961.072754 212.0
961.554077 76.0
961.671326 188.0
961.973755 76.0
962.080383 104.0
962.473877 68.0
963.835754 180.0
964.042786 76.0
964.191101 108.0
964.314697 108.0
964.59906 104.0
964.877197 152.0
965.087402 84.0
965.303833 136.0
965.371826 148.0
965.532654 72.0
965.613037 108.0
966.670898 120.0
966.776062 36.0
967.054565 84.0
967.234741 180.0
967.611694 104.0
967.86554 180.0
968.189392 204.0
968.243225 52.0
968.639648 60.0
968.769714 148.0
969.661987 28.0
970.114441 192.0
970.263184 152.0
970.442993 160.0
971.094116 36.0
971.807495 72.0
972.037048 120.0
972.161133 76.0
972.272827 172.0
973.104614 188.0
973.303284 76.0
973.415039 64.0
973.92157 164.0
973.98407 224.0
974.09198 108.0
974.160339 120.0
974.554749 180.0
974.632507 88.0
976.12738 108.0
976.28595 96.0
976.814575 88.0
976.951477 128.0
977.729187 96.0
977.93457 128.0
979.273193 144.0
979.360352 124.0
979.630188 92.0
979.709167 164.0
980.612671 60.0
980.849487 124.0
980.999146 88.0
981.067688 120.0
981.248474 68.0
981.366943 60.0
983.038574 144.0
983.11969 136.0
983.207031 140.0
984.112122 180.0
984.361877 96.0
984.418091 116.0
984.767822 152.0
984.845154 168.0
985.604919 80.0
985.686157 124.0
985.854858 108.0
986.217346 84.0
986.398621 108.0
986.536133 116.0
986.636108 204.0
987.055054 84.0
987.167603 80.0
987.574097 96.0
987.974426 152.0
988.162109 128.0
988.737732 108.0
988.856689 124.0
988.931763 92.0
989.125793 112.0
989.232239 152.0
990.259094 180.0
991.154907 104.0
991.555908 128.0
992.508728 168.0
992.583984 52.0
992.81543 224.0
992.872437 176.0
992.953979 156.0
993.305237 128.0
993.462036 160.0
993.50592 164.0
993.901184 160.0
994.403198 120.0
995.815857 200.0
996.11731 208.0
996.192688 232.0
996.337158 48.0
996.846069 136.0
997.02832 44.0
997.481079 112.0
998.719543 100.0
999.50592 160.0
999.663208 164.0
999.801636 96.0
1000.298889 52.0
1000.626221 172.0
1000.764709 128.0
1000.815063 124.0
1000.896973 156.0
1001.425903 156.0
1001.633789 160.0
1001.860535 128.0
1001.918579 152.0
1002.509521 128.0
1002.660767 168.0
1003.93396 124.0
1004.299927 272.0
1004.527039 156.0
1004.760437 156.0
1004.829834 88.0
1005.076355 112.0
1005.202087 192.0
1005.347229 104.0
1005.612244 288.0
1005.687988 44.0
1005.807922 80.0
1005.852112 164.0
1006.344543 128.0
1006.50238 64.0
1006.565491 104.0
1007.178101 144.0
1007.367554 64.0
1007.481262 156.0
1007.613953 108.0
1007.942505 200.0
1008.233154 208.0
1008.66925 144.0
1008.850403 172.0
1008.972717 128.0
1009.358337 200.0
1009.463501 172.0
1009.731445 240.0
1009.876953 112.0
1010.218506 84.0
1010.522156 52.0
1010.617065 144.0
1011.996826 156.0
1012.15509 128.0
1012.256409 188.0
1012.352173 160.0
1012.49707 176.0
1012.611023 144.0
1012.661682 144.0
1012.915039 104.0
1013.073425 124.0
1013.377502 160.0
1013.922424 44.0
1013.992188 172.0
1014.226685 164.0
1014.530945 88.0
1014.651367 72.0
1015.317139 164.0
1015.62793 152.0
1015.742065 136.0
1016.649353 120.0
1016.693787 128.0
1017.46814 92.0
1017.950684 152.0
1018.433289 160.0
1018.515869 148.0
1018.909729 172.0
1018.966919 192.0
1019.093933 60.0
1019.362122 104.0
1019.626892 152.0
1020.136169 96.0
1020.48584 68.0
1021.55426 116.0
1021.891418 104.0
1022.145935 220.0
1022.674133 224.0
1023.508057 144.0
1023.902832 156.0
1024.692749 172.0
1024.864746 84.0
1025.400024 72.0
1025.508301 172.0
1025.661255 136.0
1026.029175 236.0
1026.298828 140.0
1027.127808 160.0
1027.636841 204.0
1028.033813 76.0
1028.946533 132.0
1029.591431 72.0
1029.680786 108.0
1030.153442 204.0
1030.217285 188.0
1030.543213 144.0
1031.693481 120.0
1031.955566 136.0
1032.324219 232.0
1032.467163 168.0
1032.60144 136.0
1033.177124 132.0
1033.228271 76.0
1033.388306 124.0
1033.484253 100.0
1033.951294 52.0
1034.700195 152.0
1035.013916 84.0
1035.206055 236.0
1035.263672 92.0
1035.558228 164.0
1035.622314 92.0
1036.352539 132.0
1036.679443 112.0
1037.203613 144.0
1037.262573 92.0
1037.499756 116.0
1038.172974 184.0
1038.365356 120.0
1038.564209 108.0
1038.846436 60.0
1039.019653 148.0
1039.109497 160.0
1039.25061 128.0
1039.295532 100.0
1039.840942 132.0
1040.078491 176.0
1040.296631 132.0
1040.457153 52.0
1041.112061 184.0
1041.587402 104.0
1041.985596 172.0
1042.236206 92.0
1042.338989 152.0
1042.679565 132.0
1042.788818 152.0
1043.457397 92.0
1044.402588 136.0
1045.309692 92.0
1045.637939 180.0
1045.792358 56.0
1046.262207 112.0
1046.474731 64.0
1047.047852 112.0
1047.356934 152.0
1047.679077 156.0
1047.854492 188.0
1048.474365 184.0
1048.671265 236.0
1048.858276 188.0
1048.948486 128.0
1049.103149 116.0
1049.264404 156.0
1049.554443 160.0
1049.651245 168.0
1049.825317 164.0
1050.399292 148.0
1050.870239 168.0
1052.025391 124.0
1052.290039 204.0
1052.651611 236.0
1052.890625 88.0
1053.129517 196.0
1053.22644 124.0
1053.781982 108.0
1053.862061 160.0
1054.337646 80.0
1054.731934 172.0
1054.893555 160.0
1054.990479 228.0
1055.494751 100.0
1056.303223 184.0
1057.208984 164.0
1057.823853 132.0
1058.458252 188.0
1058.633423 132.0
1058.691406 124.0
1059.034668 136.0
1059.148438 228.0
1060.025757 128.0
1060.219849 148.0
1060.564087 152.0
1060.764648 124.0
1061.226562 192.0
1061.730713 128.0
1061.886353 140.0
1062.009521 124.0
1062.230103 40.0
1062.275513 80.0
1062.353271 244.0
1062.437622 152.0
1063.054077 116.0
1063.397949 172.0
1063.657593 40.0
1063.897827 56.0
1063.988647 192.0
1064.761353 200.0
1064.988647 216.0
1065.06665 96.0
1065.602661 108.0
1065.735718 180.0
1065.846191 100.0
1065.989136 132.0
1066.106323 104.0
1066.613037 44.0
1066.671509 176.0
1066.743042 60.0
1067.568726 132.0
1067.711792 108.0
1067.783325 120.0
1068.099609 168.0
1068.245117 108.0
1068.918213 120.0
1069.04541 116.0
1069.312134 124.0
1069.364258 244.0
1070.047729 168.0
1070.444946 92.0
1070.724976 176.0
1071.356689 156.0
1071.884399 156.0
1072.105957 192.0
1072.379761 152.0
1072.470947 152.0
1072.536133 136.0
1072.893433 192.0
1072.959839 136.0
1073.168457 144.0
1074.883911 136.0
1075.673584 188.0
1075.817139 84.0
1075.875977 144.0
1076.27417 128.0
1076.587646 236.0
1076.999023 124.0
1077.580444 120.0
1078.893066 132.0
1079.083618 148.0
1079.377808 188.0
1080.142944 72.0
1081.654541 208.0
1081.72644 164.0
1082.315674 200.0
1082.779907 180.0
1082.89856 156.0
1082.996704 88.0
1083.042603 80.0
1083.193237 156.0
1083.677979 40.0
1083.809082 48.0
1083.999023 108.0
1084.215332 140.0
1084.693726 108.0
1084.962524 140.0
1085.126465 60.0
1085.355957 144.0
1086.274048 140.0
1086.615234 68.0
1086.916992 144.0
1087.067871 80.0
1087.120361 136.0
1087.335815 156.0
1087.947388 92.0
1088.236206 188.0
1088.345825 340.0
1088.433228 140.0
1088.649902 144.0
1089.089966 156.0
1089.746826 60.0
1090.141113 188.0
1090.25769 160.0
1090.423706 48.0
1090.66687 236.0
1090.785156 116.0
1091.777954 164.0
1091.89624 144.0
1092.297729 192.0
1092.547485 156.0
1093.02771 52.0
1094.120239 28.0
1094.245361 128.0
1094.409912 108.0
1094.47583 180.0
1095.700806 104.0
1096.643066 140.0
1096.715576 60.0
1097.420898 72.0
1097.862793 84.0
1098.49585 204.0
1098.542114 308.0
1098.640991 164.0
1099.313965 68.0
1099.716553 188.0
1099.940918 64.0
1100.176025 156.0
1100.257812 156.0
1100.40686 132.0
1100.924683 204.0
1100.990723 56.0
1101.935303 164.0
1102.701782 156.0
1102.867065 136.0
1103.230591 64.0
1103.375977 148.0
1104.248779 120.0
1104.361206 72.0
1104.599365 156.0
1104.672119 188.0
1105.2146 96.0
1105.75061 160.0
1106.105835 148.0
1106.755371 176.0
1106.809814 152.0
1107.061401 72.0
1107.392578 152.0
1107.531616 116.0
1108.035034 124.0
1108.571777 40.0
1109.062134 184.0
1109.589844 92.0
1109.6521 140.0
1110.182617 100.0
1113.587036 56.0
1113.752808 104.0
1113.832764 152.0
1114.111816 104.0
1114.350952 136.0
1114.397461 180.0
1114.583496 176.0
1114.81604 272.0
1114.862549 132.0
1114.929077 44.0
1114.992432 140.0
1115.212524 164.0
1115.28125 172.0
1115.473999 208.0
1115.527222 204.0
1115.680054 112.0
1116.391479 36.0
1116.797241 100.0
1116.930176 76.0
1117.582153 156.0
1117.894897 72.0
1118.027954 80.0
1118.141113 84.0
1118.190308 208.0
1118.493896 92.0
1119.239502 88.0
1119.299438 180.0
1119.439209 164.0
1120.444946 188.0
1121.03125 160.0
1121.091309 140.0
1121.311157 56.0
1121.606812 168.0
1122.117676 140.0
1122.584473 164.0
1122.897949 144.0
1122.967529 152.0
1123.258057 132.0
1123.638306 160.0
1124.072144 180.0
1124.263062 204.0
1124.378906 144.0
1124.472412 152.0
1125.306763 152.0
1125.500366 92.0
1126.003052 192.0
1126.776001 136.0
1127.41748 104.0
1127.511108 88.0
1127.61792 164.0
1127.678101 200.0
1127.758301 136.0
1127.865234 132.0
1127.99231 188.0
1128.767822 92.0
1128.821289 88.0
1128.88147 88.0
1129.010254 220.0
1129.175659 124.0
1129.269287 144.0
1129.423218 100.0
1129.525757 192.0
1129.904785 168.0
1130.112183 156.0
1130.279419 68.0
1130.640869 156.0
1131.002197 120.0
1131.049072 208.0
1131.142822 200.0
1131.644897 56.0
1131.72522 180.0
1131.845703 132.0
1132.095581 156.0
1132.354614 188.0
1132.401489 128.0
1132.776611 48.0
1132.932983 180.0
1133.165161 148.0
1133.667725 152.0
1134.069824 144.0
1134.130127 200.0
1134.619507 100.0
1135.296631 68.0
1135.36377 44.0
1135.786255 168.0
1136.363159 152.0
1136.745605 124.0
1136.80603 164.0
1137.19519 184.0
1137.309326 204.0
1137.591187 104.0
1138.054443 60.0
1138.302856 172.0
1138.477539 192.0
1138.578247 124.0
1138.867065 192.0
1139.135742 172.0
1139.229736 132.0
1139.32373 84.0
1140.056152 132.0
1140.177124 68.0
1141.797241 132.0
1141.883911 164.0
1142.355469 136.0
1142.644775 144.0
1142.691895 176.0
1143.06189 152.0
1143.358032 140.0
1143.432007 128.0
1143.49939 116.0
1143.607056 60.0
1143.80896 160.0
1144.071533 212.0
1144.185913 124.0
1144.253296 100.0
1144.872681 128.0
1144.93335 208.0
1145.49231 156.0
1145.7146 200.0
1145.849365 52.0
1147.089355 160.0
1147.261353 188.0
1147.372437 192.0
1147.460083 192.0
1147.594971 204.0
1148.174805 128.0
1148.329956 80.0
1148.485107 104.0
1148.56604 48.0
1149.004517 144.0
1149.051636 76.0
1149.60498 172.0
1149.888428 160.0
1149.935669 144.0
1150.84021 40.0
1151.339844 124.0
1151.596558 168.0
1151.724854 200.0
1151.968018 116.0
1152.348389 156.0
1152.5625 92.0
1153.745239 196.0
1153.887207 96.0
1154.232056 76.0
1154.434937 200.0
1154.820312 124.0
1154.962402 164.0
1155.192383 136.0
1155.4021 96.0
1155.483276 156.0
1155.611816 76.0
1155.729858 200.0
1156.931519 212.0
1156.978882 196.0
1157.64917 92.0
1158.123291 156.0
1158.448364 176.0
1159.234253 160.0
1159.430786 136.0
1159.796753 160.0
1159.878052 260.0
1160.169556 128.0
1160.217041 40.0
1161.181763 128.0
1161.688599 136.0
1161.911499 172.0
1162.088867 48.0
1163.948608 128.0
1164.376343 92.0
1164.444336 108.0
1165.123535 128.0
1165.307007 144.0
1165.585571 32.0
1165.734985 28.0
1166.200195 172.0
1166.258301 96.0
1166.83606 192.0
1166.904053 44.0
1167.619873 216.0
1167.733643 144.0
1167.78125 116.0
1168.039673 92.0
1168.168945 112.0
1168.651978 132.0
1168.719971 108.0
1168.822144 144.0
1169.019409 132.0
1169.870117 188.0
1170.656982 184.0
1170.981567 180.0
1171.218384 156.0
1171.366699 212.0
1172.056274 212.0
1172.144897 156.0
1172.567383 160.0
1172.976318 128.0
1173.078613 112.0
1173.344482 160.0
1173.562622 168.0
1173.808105 52.0
1174.312744 152.0
1174.660522 180.0
1175.30188 180.0
1175.759033 192.0
1176.127563 136.0
1176.397095 132.0
1176.830688 148.0
1177.33606 168.0
1177.458984 156.0
1177.786743 184.0
1177.934937 140.0
1178.12146 148.0
1178.203491 68.0
1178.442505 220.0
1178.627075 164.0
1179.064331 140.0
1179.662109 188.0
1180.137573 144.0
1180.22644 140.0
1180.458862 60.0
1181.12915 44.0
1181.211182 104.0
1181.286499 88.0
1181.491699 80.0
1181.57373 72.0
1181.642212 128.0
1182.432861 244.0
1182.696045 120.0
1184.339233 124.0
1184.387207 112.0
1184.907837 160.0
1185.366821 140.0
1185.702637 144.0
1186.086426 192.0
1186.203003 100.0
1186.75 116.0
1187.485107 204.0
1188.273926 152.0
1188.761108 132.0
1188.987549 272.0
1189.310181 96.0
1190.017212 160.0
1190.278076 116.0
1190.655762 176.0
1190.882446 124.0
1190.99231 60.0
1191.328857 152.0
1191.466309 104.0
1191.692993 128.0
1192.61377 92.0
1192.91626 68.0
1192.984985 64.0
1193.768799 156.0
1194.848633 212.0
1194.910522 204.0
1195.0 164.0
1195.089478 204.0
1195.426636 152.0
1195.68811 176.0
1195.763794 36.0
1195.887695 116.0
1196.12854 168.0
1196.217285 176.0
1196.610474 120.0
1196.91333 180.0
1197.567627 208.0
1198.063599 208.0
1198.311523 120.0
1199.269409 124.0
1199.433472 80.0
1199.682983 156.0
1199.903564 320.0
1200.020752 52.0
1200.200073 128.0
1200.434448 120.0
1200.606812 124.0
1200.724121 160.0
1200.820679 188.0
1200.875854 132.0
1200.924072 48.0
1201.52417 188.0
1201.724243 68.0
1201.820923 128.0
1202.448853 208.0
1202.669678 60.0
1203.373779 112.0
1203.80188 104.0
1204.540894 168.0
1205.121094 140.0
1205.390625 152.0
1205.438965 84.0
1205.528809 152.0
1206.019531 204.0
1206.627808 220.0
1206.911255 156.0
1207.927856 132.0
1207.983154 76.0
1208.380615 220.0
1208.460571 72.0
1208.751099 156.0
1209.027954 228.0
1209.270142 104.0
1209.706177 152.0
1209.996948 136.0
1210.220581 188.0
1210.543945 100.0
1210.717041 200.0
1210.980225 196.0
1211.278076 160.0
1211.839233 124.0
1211.963867 172.0
1212.435059 64.0
1212.934082 144.0
1212.982666 92.0
1213.267212 148.0
1213.34314 148.0
1214.195923 152.0
1214.313843 140.0
1214.362427 220.0
1214.563599 124.0
1214.688354 100.0
1215.451538 104.0
1215.590332 40.0
1215.919434 144.0
1216.027466 164.0
1216.270386 168.0
1216.62439 192.0
1216.74939 96.0
1216.83728 152.0
1217.353394 72.0
1217.49231 308.0
1218.193848 192.0
1218.430054 40.0
1218.742676 204.0
1219.04834 132.0
1219.303345 156.0
1219.520996 172.0
1219.861572 180.0
1220.035278 124.0
1220.257812 112.0
1220.556763 140.0
1220.619385 168.0
1221.015747 212.0
1221.085205 148.0
1221.286987 204.0
1221.426025 128.0
1221.795776 152.0
1222.03125 88.0
1222.427856 144.0
1222.608276 144.0
1223.088989 116.0
1223.534546 108.0
1223.838745 188.0
1224.188965 180.0
1224.397949 192.0
1224.80188 140.0
1224.903809 176.0
1225.151123 152.0
1225.212891 160.0
1225.261597 176.0
1225.414917 232.0
1225.658691 80.0
1226.230103 80.0
1227.047363 248.0
1227.540771 128.0
1228.496216 168.0
1229.138062 144.0
1229.235718 224.0
1229.675415 148.0
1229.787109 140.0
1230.827271 36.0
1230.890137 148.0
1231.546509 52.0
1231.763062 136.0
1231.853882 124.0
1232.112305 176.0
1232.349854 304.0
1232.762085 160.0
1233.530884 80.0
1234.216064 44.0
1234.299927 160.0
1234.621582 180.0
1235.677734 144.0
1235.831909 144.0
1235.999634 168.0
1236.587402 144.0
1236.916382 176.0
1237.098389 64.0
1237.392456 228.0
1237.539429 176.0
1238.169678 176.0
1238.330688 104.0
1238.400757 44.0
1238.55481 44.0
1239.297363 140.0
1239.577637 116.0
1239.626709 252.0
1239.773926 176.0
1240.299561 104.0
1240.804199 40.0
1241.028564 128.0
1241.248901 152.0
1241.631592 180.0
1241.701782 40.0
1241.757812 152.0
1241.834961 104.0
1242.108521 136.0
1242.199707 132.0
1242.515381 212.0
1242.697754 144.0
1242.831055 152.0
1242.985474 112.0
1243.088135 108.0
1243.113647 148.0
1243.259155 156.0
1243.413574 120.0
1244.150513 164.0
1244.373657 96.0
1245.077393 204.0
1245.140503 60.0
1245.362305 192.0
1245.695435 92.0
1245.871094 52.0
1246.074707 224.0
1246.22937 168.0
1246.784424 144.0
1247.07605 136.0
1247.192017 48.0
1247.473267 152.0
1248.149292 152.0
1248.394287 208.0
1248.696655 96.0
1249.062378 220.0
1249.484497 144.0
1250.448486 132.0
1250.61731 144.0
1250.680664 156.0
1251.004517 140.0
1251.497314 192.0
1251.645142 140.0
1252.560669 116.0
1253.504761 88.0
1254.0896 172.0
1254.763306 64.0
1255.259888 52.0
1255.633667 184.0
1255.781738 208.0
1256.275513 132.0
1256.367188 88.0
1256.423584 100.0
1256.559204 376.0
1256.684692 124.0
1256.755249 172.0
1256.854004 104.0
1256.984131 180.0
1257.411499 56.0
1257.819214 156.0
1258.046753 328.0
1258.11731 212.0
1258.251465 164.0
1259.119873 228.0
1259.395386 136.0
1259.515381 148.0
1259.58606 116.0
1259.663696 60.0
1259.790894 148.0
1259.861572 192.0
1259.974609 224.0
1260.250122 56.0
1260.299561 168.0
1260.504517 64.0
1260.82959 64.0
1261.486816 168.0
1262.03125 116.0
1262.229126 124.0
1262.980591 120.0
1263.608398 100.0
1263.693237 136.0
1264.825562 168.0
1265.009521 156.0
1265.094482 52.0
1265.144043 76.0
1265.391846 128.0
1265.469727 200.0
1265.604248 88.0
1265.74585 184.0
1265.852051 36.0
1266.156616 56.0
1266.340698 136.0
1266.581543 156.0
1267.027832 212.0
1267.134033 72.0
1267.459961 224.0
1267.552124 208.0
1268.046143 224.0
1268.204102 108.0
1268.324585 180.0
1268.686035 148.0
1268.806519 120.0
1269.005005 140.0
1269.643188 40.0
1270.253174 208.0
1270.352539 152.0
1270.792358 128.0
1270.849121 140.0
1270.941284 292.0
1271.44519 136.0
1271.523193 108.0
1272.303955 160.0
1272.39624 152.0
1272.957153 164.0
1273.063721 208.0
1273.127563 168.0
1273.227051 168.0
1273.461426 108.0
1273.709961 152.0
1274.093506 172.0
1274.363525 136.0
1274.55542 120.0
1274.70459 136.0
1274.818237 224.0
1274.932007 156.0
1275.351318 208.0
1275.444458 240.0
1275.671143 100.0
1276.126099 56.0
1276.346558 244.0
1276.39624 92.0
1276.716309 44.0
1277.029175 180.0
1277.094727 96.0
1277.228394 344.0
1277.285278 200.0
1277.355225 104.0
1277.591187 100.0
1278.323975 104.0
1278.558838 128.0
1278.608643 212.0
1279.071167 104.0
1279.434204 196.0
1279.683472 180.0
1280.025146 60.0
1280.673218 160.0
1281.342896 208.0
1281.414062 152.0
1281.606445 96.0
1282.012573 140.0
1282.197876 84.0
1283.309814 156.0
1283.837524 168.0
1284.350952 56.0
1284.47937 172.0
1284.572144 188.0
1285.078613 184.0
1285.228516 204.0
1285.620972 36.0
1285.870728 164.0
1286.270386 136.0
1286.334595 148.0
1286.627319 140.0
1286.841431 92.0
1287.091431 220.0
1287.54126 156.0
1288.026855 124.0
1288.326904 72.0
1288.376953 140.0
1289.134277 216.0
1289.312866 220.0
1289.377197 40.0
1289.4375 100.0
1289.899048 224.0
1290.25647 180.0
1290.713989 48.0
1290.77832 128.0
1291.007202 144.0
1291.1073 52.0
1291.464844 144.0
1291.550659 212.0
1291.600708 84.0
1291.665161 100.0
1292.051392 128.0
1292.280396 180.0
1292.709229 224.0
1293.081787 60.0
1293.14624 136.0
1293.387207 208.0
1293.682983 188.0
1294.119751 124.0
1294.334473 160.0
1295.286987 144.0
1295.953247 160.0
1296.075073 148.0
1296.166138 216.0
1296.476318 60.0
1296.626831 140.0
1296.677002 164.0
1297.035278 80.0
1297.257568 56.0
1297.429565 108.0
1297.687622 216.0
1297.766602 76.0
1297.922363 180.0
1298.039062 224.0
1298.207642 132.0
1298.462036 128.0
1298.519531 144.0
1298.583984 60.0
1298.729248 144.0
1299.208008 44.0
1299.272583 28.0
1299.776001 72.0
1299.889648 108.0
1300.10376 156.0
1300.219727 220.0
1300.585815 156.0
1301.253418 104.0
1301.418457 144.0
1301.799072 128.0
1301.849365 140.0
1302.330444 56.0
1302.646484 160.0
1302.761475 140.0
1302.976929 156.0
1303.436768 260.0
1303.853638 160.0
1304.112305 136.0
1304.227295 96.0
1304.579468 132.0
1304.953369 112.0
1305.190552 164.0
1305.267822 140.0
1305.442261 208.0
1305.629272 116.0
1305.895386 220.0
1306.427612 208.0
1306.91687 164.0
1307.161499 180.0
1307.36792 224.0
1307.839722 48.0
1308.097046 28.0
1308.536133 112.0
1308.723389 136.0
1309.565918 112.0
1309.854004 36.0
1309.926025 128.0
1310.061279 52.0
1310.163818 272.0
1310.293457 148.0
1310.596069 208.0
1310.660889 136.0
1310.776123 176.0
1310.891479 168.0
1310.963501 48.0
1311.248169 176.0
1311.518188 112.0
1312.05188 56.0
1312.268188 180.0
1312.772827 136.0
1313.097412 140.0
1313.299316 168.0
1313.393066 148.0
1314.828857 188.0
1315.030884 112.0
1315.182251 132.0
1315.251587 124.0
1315.5 160.0
1315.680542 144.0
1315.731079 96.0
1316.183594 140.0
1316.337524 96.0
1316.467529 148.0
1316.665527 152.0
1316.76355 28.0
1316.944092 144.0
1317.059692 156.0
1317.233032 152.0
1317.428101 156.0
1317.724243 152.0
1317.774902 108.0
1318.526367 140.0
1318.758423 176.0
1318.873291 156.0
1319.006958 196.0
1319.42981 136.0
1320.116699 132.0
1320.651855 156.0
1320.842407 168.0
1321.100342 164.0
1321.331909 76.0
1321.599487 116.0
1321.737061 160.0
1322.149536 216.0
1322.359375 160.0
1322.619873 128.0
1322.822632 124.0
1323.039795 176.0
1323.618896 152.0
1324.270752 44.0
1324.545898 88.0
1325.342773 176.0
1325.494995 200.0
1325.813843 128.0
1326.016724 124.0
1326.284912 64.0
1326.495117 232.0
1326.741577 36.0
1327.671997 164.0
1327.876099 172.0
1328.242554 140.0
1328.32959 164.0
1328.546631 92.0
1328.641602 252.0
1328.721313 144.0
1328.859253 184.0
1329.042236 140.0
1330.150879 156.0
1330.208984 228.0
1330.26709 168.0
1330.615479 276.0
1330.68811 112.0
1330.880615 268.0
1331.497192 180.0
1331.592407 188.0
1331.726562 116.0
1331.817505 176.0
1332.787109 156.0
1332.939697 124.0
1333.637329 144.0
1334.265137 140.0
1334.473267 176.0
1334.931396 148.0
1335.113159 272.0
1335.254517 180.0
1335.364746 128.0
1335.447754 184.0
1335.498657 168.0
1335.891968 156.0
1336.108032 168.0
1336.378784 160.0
1337.20105 100.0
1337.288452 76.0
1337.754272 212.0
1337.8125 132.0
1338.265381 76.0
1339.305176 120.0
1339.373901 328.0
1339.531006 108.0
1339.691284 152.0
1340.959106 136.0
1341.155884 148.0
1341.206909 180.0
1341.30896 136.0
1341.381836 176.0
1341.505737 148.0
1341.994995 156.0
1342.045166 144.0
1342.161865 116.0
1342.70874 200.0
1343.051514 132.0
1343.163208 192.0
1343.474609 132.0
1343.554932 160.0
1343.664307 152.0
1343.737305 144.0
1343.802979 192.0
1343.934204 52.0
1344.129639 224.0
1344.277222 104.0
1344.328247 124.0
1344.547241 120.0
1344.627441 160.0
1344.729614 160.0
1344.839111 156.0
1345.014282 136.0
1345.481445 224.0
1345.556152 188.0
1345.671265 148.0
1345.744263 184.0
1346.065552 176.0
1346.15686 168.0
1346.357666 156.0
1346.525635 112.0
1346.905396 176.0
1347.024902 104.0
1347.321777 152.0
1347.394897 168.0
1347.460571 144.0
1347.796631 140.0
1348.213135 128.0
1348.278931 160.0
1348.848999 96.0
1348.973267 168.0
1349.075684 112.0
1349.441162 80.0
1349.56543 156.0
1349.726318 140.0
1349.850586 100.0
1350.157715 164.0
1350.27478 156.0
1350.96228 92.0
1351.123169 216.0
1351.620728 60.0
1352.037842 100.0
1352.198853 84.0
1352.250122 136.0
1352.579468 140.0
1352.630615 168.0
1352.806396 216.0
1353.161133 272.0
1353.479858 64.0
1353.758179 32.0
1354.175537 156.0
1354.33667 32.0
1354.629639 168.0
1354.738037 200.0
1354.966675 124.0
1355.392334 120.0
1355.845947 96.0
1356.065796 208.0
1356.327637 176.0
1356.615479 140.0
1356.776733 180.0
1356.982056 128.0
1357.348633 128.0
1357.561279 172.0
1357.625854 100.0
1357.644897 80.0
1357.66687 132.0
1357.839966 156.0
1358.001343 120.0
1358.053345 228.0
1358.639648 132.0
1358.863281 168.0
1359.006348 168.0
1359.200073 100.0
1359.519897 104.0
1359.585938 108.0
1359.901489 164.0
1360.107056 164.0
1360.283203 156.0
1360.804443 224.0
1361.046753 168.0
1361.751709 104.0
1361.927979 132.0
1362.207031 132.0
1362.486206 36.0
1362.713989 156.0
1362.765381 120.0
1363.287109 196.0
1363.450195 176.0
1363.505371 120.0
1363.610474 128.0
1363.970581 136.0
1364.639526 176.0
1365.521973 156.0
1365.580811 108.0
1365.875 180.0
1366.18396 112.0
1366.279541 140.0
1366.411987 160.0
1366.81665 104.0
1366.956177 120.0
1367.339111 88.0
1367.773315 188.0
1368.185547 136.0
1368.296021 200.0
1368.47998 236.0
1368.774536 136.0
1368.892334 112.0
1369.739258 188.0
1369.865356 148.0
1370.04126 164.0
1370.262329 56.0
1370.778076 60.0
1371.227661 180.0
1371.338135 72.0
1371.61084 120.0
1371.706665 180.0
1371.902222 164.0
1372.185059 176.0
1372.790405 100.0
1372.908447 200.0
1373.011719 160.0
1373.402588 144.0
1373.59436 148.0
1373.675537 236.0
1374.088623 84.0
1374.376343 172.0
1374.811646 100.0
1375.557129 148.0
1376.243652 352.0
1376.575928 236.0
1376.686646 160.0
1376.967285 116.0
1377.75769 192.0
1378.134399 124.0
1378.267456 84.0
1378.775757 76.0
1378.969482 132.0
1379.028564 100.0
1379.390747 88.0
1379.701172 172.0
1380.233521 248.0
1380.521973 200.0
1380.780762 52.0
1381.054443 216.0
1382.363892 104.0
1382.488892 156.0
1382.556274 224.0
1382.615479 212.0
1382.769409 228.0
1383.592407 156.0
1383.895996 88.0
1383.952393 196.0
1384.317993 108.0
1384.40686 108.0
1384.45874 136.0
1384.717285 176.0
1385.177124 140.0
1385.243774 84.0
1385.454468 144.0
1385.666016 140.0
1385.806885 112.0
1385.888306 176.0
1385.999512 168.0
1386.118042 128.0
1386.229126 188.0
1386.458252 44.0
1386.696045 84.0
1386.896118 224.0
1386.970337 140.0
1387.281616 116.0
1387.72644 172.0
1388.008179 60.0
1388.11438 144.0
1388.200928 108.0
1388.2677 100.0
1388.341797 60.0
1388.579102 60.0
1388.862061 84.0
1389.009277 148.0
1389.165161 148.0
1389.283813 128.0
1389.335693 128.0
1389.662109 92.0
1389.966309 48.0
1390.114746 252.0
1390.367065 132.0
1390.441284 160.0
1391.036743 124.0
1391.183472 132.0
1391.324585 136.0
1391.457275 136.0
1391.829346 108.0
1391.881348 148.0
1392.163574 176.0
1392.356567 128.0
1392.575073 204.0
1392.787354 400.0
1392.891357 88.0
1393.143921 144.0
1393.488525 168.0
1393.819946 164.0
1393.879395 76.0
1394.087524 60.0
1395.670776 176.0
1396.064819 204.0
1396.168945 100.0
1397.046631 96.0
1397.173096 168.0
1397.745972 72.0
1398.025635 68.0
1398.274292 172.0
1398.385986 168.0
1398.929321 116.0
1399.227051 172.0
1399.316406 280.0
1399.807861 196.0
1400.262085 196.0
1400.373779 160.0
1401.16333 88.0
1401.479858 160.0
1401.718628 76.0
1402.206543 160.0
1402.75061 164.0
1402.966797 48.0
1403.537842 108.0
1403.675049 248.0
1403.816772 60.0
1404.029053 204.0
1404.405884 80.0
1404.957886 152.0
1405.12207 176.0
1405.360718 64.0
1405.480103 256.0
1405.808472 220.0
1406.129395 128.0
1406.838379 124.0
1406.927979 68.0
1407.043823 128.0
1407.2323 216.0
1407.682129 152.0
1407.749268 128.0
1408.270142 124.0
1409.213257 156.0
1409.362671 136.0
1410.094971 140.0
1410.386475 72.0
1410.812622 104.0
1411.044312 108.0
1411.553833 180.0
1411.791992 80.0
1412.020264 204.0
1412.465088 156.0
1412.936401 40.0
1413.168335 208.0
1413.377808 168.0
1413.459595 180.0
1413.841797 120.0
1414.096191 136.0
1414.237793 104.0
1414.328247 156.0
1415.204102 180.0
1415.892944 72.0
1415.960327 140.0
1416.182983 132.0
1416.522095 136.0
1416.664429 152.0
1416.754272 88.0
1416.83667 180.0
1417.001587 72.0
1417.06897 108.0
1417.196289 144.0
1417.398682 168.0
1417.548462 36.0
1417.690918 184.0
1418.050537 192.0
1418.320435 168.0
1418.860107 180.0
1418.995117 152.0
1419.085083 124.0
1419.19751 176.0
1419.369995 80.0
1419.457397 84.0
1419.999878 360.0
1420.144165 184.0
1420.464844 168.0
1420.547363 80.0
1420.764893 104.0
1420.824951 168.0
1420.900513 116.0
1421.026001 204.0
1421.222534 120.0
1421.297607 116.0
1421.350098 148.0
1421.417603 40.0
1421.717773 180.0
1421.910522 192.0
1422.111694 140.0
1422.259033 176.0
1422.325684 180.0
1422.625977 148.0
1422.851196 180.0
1424.593384 148.0
1424.878906 96.0
1425.675293 136.0
1426.171387 272.0
1426.832764 196.0
1426.975708 56.0
1427.893066 144.0
1428.276611 172.0
1428.417725 172.0
1428.502197 124.0
1428.705322 96.0
1429.141724 88.0
1429.352417 116.0
1429.427612 52.0
1429.526489 236.0
1429.781372 196.0
1430.014648 116.0
1430.187744 144.0
1430.41394 144.0
1430.646851 180.0
1430.798706 124.0
1430.853882 220.0
1431.264282 152.0
1431.738647 144.0
1431.851562 172.0
1431.934448 164.0
1432.092529 100.0
1432.197998 136.0
1432.341187 168.0
1432.740356 60.0
1432.981445 96.0
1433.03418 92.0
1433.237671 124.0
1433.410889 180.0
1433.980347 200.0
1434.051514 196.0
1434.533813 96.0
1435.121948 160.0
1435.219971 200.0
1435.411255 52.0
1435.498901 216.0
1435.770386 112.0
1435.943848 128.0
1436.07959 220.0
1436.682983 304.0
1437.018921 184.0
1438.600098 160.0
1438.66687 156.0
1438.743164 228.0
1438.91687 96.0
1438.999878 168.0
1439.566162 180.0
1439.807739 152.0
1440.00415 276.0
1440.286011 112.0
1440.56311 120.0
1440.835083 176.0
1440.895508 84.0
1441.608643 272.0
1441.877808 152.0
1441.983521 140.0
1442.074219 184.0
1442.164917 100.0
1442.285889 172.0
1442.459717 120.0
1442.618408 160.0
1442.769653 180.0
1442.918579 156.0
1442.973755 48.0
1443.049316 188.0
1443.313965 184.0
1443.571045 76.0
1443.843262 92.0
1443.903809 144.0
1444.681519 136.0
1444.879517 164.0
1444.940063 76.0
1445.40918 108.0
1445.931274 244.0
1446.635254 160.0
1447.271118 160.0
1447.657349 128.0
1448.324219 120.0
1448.421021 144.0
1448.566162 128.0
1448.922241 68.0
1449.02063 156.0
1449.27832 188.0
1449.422241 176.0
1449.73291 64.0
1449.971069 188.0
1450.018799 292.0
1450.09668 160.0
1450.20813 208.0
1450.323975 164.0
1450.589355 116.0
1451.461182 128.0
1452.583618 164.0
1452.666992 148.0
1453.053955 260.0
1453.144897 200.0
1453.512939 184.0
1454.093506 92.0
1454.169312 40.0
1454.260376 80.0
1454.359131 160.0
1454.768921 136.0
1454.83728 144.0
1455.163696 108.0
1455.224487 232.0
1455.479248 368.0
1455.657227 136.0
1456.181274 148.0
1456.309082 284.0
1456.940796 152.0
1457.78125 164.0
1457.837402 184.0
1457.928589 128.0
1457.981689 164.0
1458.278076 52.0
1458.39978 204.0
1458.67334 132.0
1458.909058 136.0
1459.061035 36.0
1459.342285 52.0
1459.445679 132.0
1459.661743 184.0
1459.893188 180.0
1460.011475 52.0
1460.156006 124.0
1460.27771 60.0
1460.384155 224.0
1460.749268 180.0
1460.924194 196.0
1460.992676 180.0
1461.175171 160.0
1461.244995 100.0
1461.366455 184.0
1461.791504 224.0
1462.407959 164.0
1462.499268 204.0
1462.659058 32.0
1462.864624 140.0
1462.948364 112.0
1463.435547 92.0
1463.49646 252.0
1463.630859 176.0
1463.85437 104.0
1464.151367 120.0
1464.905396 164.0
1465.3396 128.0
1465.484375 160.0
1465.697754 164.0
1465.950439 156.0
1466.086304 180.0
1466.619751 152.0
1467.275391 184.0
1467.626099 92.0
1467.915771 144.0
1468.16748 152.0
1468.295898 152.0
1468.447021 152.0
1469.092041 144.0
1469.250488 164.0
1469.60144 184.0
1469.838013 124.0
1469.998169 224.0
1470.123047 220.0
1470.341675 32.0
1470.429688 184.0
1471.120117 108.0
1471.211792 120.0
1471.311035 184.0
1471.417847 200.0
1471.555298 280.0
1472.196655 56.0
1472.540283 116.0
1472.647217 112.0
1472.800049 120.0
1473.12085 216.0
1473.556274 172.0
1473.610718 96.0
1473.663208 188.0
1473.823608 144.0
1473.930664 156.0
1474.778931 172.0
1475.092285 76.0
1475.371338 120.0
1475.581543 176.0
1475.653931 160.0
1476.063232 144.0
1476.330811 84.0
1476.705566 192.0
1476.980957 144.0
1477.386353 120.0
1477.845337 80.0
1477.921875 96.0
1478.113159 168.0
1478.212646 128.0
1478.43457 96.0
1478.560791 136.0
1478.625854 184.0
1478.717651 200.0
1479.023804 288.0
1479.261108 40.0
1479.314697 108.0
1479.383545 116.0
1479.467773 220.0
1479.552002 128.0
1479.63623 172.0
1479.758667 192.0
1479.927124 108.0
1480.248779 136.0
1481.022217 36.0
1481.175415 96.0
1481.376831 132.0
1481.918457 156.0
1482.010376 176.0
1482.203491 164.0
1482.385864 188.0
1482.456787 152.0
1482.539062 172.0
1482.730713 120.0
1482.879639 136.0
1483.545044 60.0
1484.041504 156.0
1484.286865 136.0
1484.363525 132.0
1484.585815 140.0
1484.785278 188.0
1484.99231 100.0
1485.061401 132.0
1485.444824 220.0
1485.598267 148.0
1485.728638 120.0
1485.820679 152.0
1485.979004 272.0
1486.035522 80.0
1486.350098 204.0
1486.449829 224.0
1486.549683 156.0
1486.664673 168.0
1486.97168 100.0
1487.102173 80.0
1487.439941 84.0
1487.700928 116.0
1488.183716 116.0
1488.261353 88.0
1488.637573 88.0
1488.744995 192.0
1489.121338 52.0
1489.259644 44.0
1489.635986 184.0
1489.766602 156.0
1489.889404 164.0
1490.50415 132.0
1490.657715 68.0
1490.911377 216.0
1491.049683 224.0
1491.418579 44.0
1491.487793 68.0
1491.65686 160.0
1491.887451 160.0
1492.010498 148.0
1492.633179 148.0
1492.948486 120.0
1493.209961 152.0
1493.402222 160.0
1493.502197 132.0
1493.609863 104.0
1493.825317 148.0
1493.971436 64.0
1494.294556 128.0
1494.494629 124.0
1494.883911 176.0
1495.294922 148.0
1495.471924 216.0
1495.625854 136.0
1495.833618 60.0
1496.432861 204.0
1496.526489 116.0
1497.257935 184.0
1497.394043 264.0
1497.581421 116.0
1497.643066 144.0
1498.043579 48.0
1498.114624 168.0
1498.189941 68.0
1498.302856 148.0
1498.821655 184.0
1498.938721 172.0
1499.060547 168.0
1499.270996 188.0
1500.07019 116.0
1500.17041 204.0
1500.286011 100.0
1500.447876 40.0
1500.663818 188.0
1500.771729 156.0
1501.095581 120.0
1501.311523 124.0
1501.446899 184.0
1501.635376 168.0
1501.982422 196.0
1502.237061 156.0
1502.306396 52.0
1502.460693 116.0
1502.630493 112.0
1502.776978 92.0
1502.854126 160.0
1503.155151 68.0
1503.255371 88.0
1503.448364 152.0
1503.517822 168.0
1503.633545 112.0
1503.973145 44.0
1504.065796 140.0
1504.220093 164.0
