>compound MLS001140348-01!N-(3-acetylphenyl)-2-(2,3,4,7,9,10-hexahydro-[1,4]dioxepino[2,3-g]isoquinolin-8-yl)acetamide
>formula C22H24N2O4
>ionization [M+H]+
>parentmass 381.181702
#inchi InChI=1S/C22H24N2O4/c1-15(25)16-4-2-5-19(10-16)23-22(26)14-24-7-6-17-11-20-21(12-18(17)13-24)28-9-3-8-27-20/h2,4-5,10-12H,3,6-9,13-14H2,1H3,(H,23,26)
#inchikey WQWHNWZUMBKISP
#Ion_Source LC-ESI
#Instrument qTof
#Compound_Source NIH Natural Product Library
#PI Dorrestein
#Data_Collector VVP/LMS
#Scan -1
#Precursor_MZ 381.181
#ExactMass 380.174
#Charge 1
#CAS_Number N/A
#Pubmed_ID N/A
#Smiles CC(=O)c1cccc(NC(=O)CN2CCc3cc4OCCCOc4cc3C2)c1
#INCHI_AUX N/A
#Library_Class 1
#SpectrumID CCMSLIB00000080203
#IonMode Positive
#UpdateWorkflowName UPDATE-SINGLE-ANNOTATED-GOLD
#LibraryQualityString Gold
#TaskID b1d8e8f6646f4e71acdff9ca3d919d08
##Scan# 1594
#SpectrumFile p2-E05_GE5_01_18029.mzXML
#LibraryName NIH_Natural_Products_Library.mgf
#MQScore -1
#Organism NIH_Natural_Products_Library
#TIC_Query 0
#RT_Query -1
#MZErrorPPM -1
#SharedPeaks 0
#MassDiff 0
#LibMZ -1
#SpecMZ 381.181
#SpecCharge 0
#internalFilename spec-00000.mgf

>collision 10
94.960526 112.0
94.987686 124.0
95.022598 88.0
95.047264 372.0
95.082092 176.0
95.135521 196.0
95.171936 196.0
95.195351 160.0
95.214386 160.0
95.274986 148.0
95.317734 196.0
95.403252 172.0
95.430466 160.0
95.519928 164.0
95.541328 164.0
95.580238 180.0
95.593857 160.0
95.619156 108.0
95.632782 96.0
95.648354 124.0
95.68145 408.0
95.718445 208.0
95.732674 116.0
95.765182 212.0
95.819725 112.0
95.832794 184.0
95.871819 180.0
95.888382 172.0
95.921066 144.0
95.980927 164.0
96.018555 120.0
96.049759 180.0
96.06646 320.0
96.104385 64.0
96.157074 96.0
96.196793 148.0
96.220657 184.0
96.236328 160.0
96.251465 148.0
96.293739 184.0
96.320107 160.0
96.424637 180.0
96.444183 144.0
96.48275 220.0
96.514565 92.0
96.606483 172.0
96.654327 220.0
96.660225 172.0
96.665459 200.0
96.732841 144.0
96.740067 200.0
96.759132 144.0
96.833252 160.0
96.83683 136.0
96.89035 72.0
96.913857 188.0
96.951088 112.0
97.056946 44.0
97.078514 176.0
97.121666 140.0
97.189209 128.0
97.202103 152.0
97.237427 204.0
97.315559 164.0
97.328529 224.0
97.359146 84.0
97.3936 188.0
97.427895 152.0
97.467186 40.0
97.575287 148.0
97.59697 140.0
97.685417 228.0
97.775925 172.0
97.807419 376.0
97.861855 368.0
97.899956 164.0
97.94722 84.0
97.972832 104.0
98.008293 228.0
98.026031 224.0
98.122612 156.0
98.15416 172.0
98.16993 164.0
98.203178 168.0
98.217659 180.0
98.246918 220.0
98.300133 192.0
98.331703 272.0
98.38105 56.0
98.424484 128.0
98.455391 148.0
98.480751 140.0
98.546951 128.0
98.562759 184.0
98.57975 204.0
98.684235 192.0
98.715736 164.0
98.719208 192.0
98.764275 176.0
98.811584 160.0
98.867287 156.0
98.899078 192.0
98.954384 160.0
99.039536 144.0
99.061325 164.0
99.081139 180.0
99.104912 108.0
99.120766 144.0
99.166344 244.0
99.19529 212.0
99.229774 224.0
99.271416 188.0
99.328934 108.0
99.366142 212.0
99.432106 88.0
99.458549 124.0
99.519455 176.0
99.533356 196.0
99.564964 316.0
99.595764 156.0
99.614655 128.0
99.636337 80.0
99.652527 136.0
99.672394 188.0
99.704193 368.0
99.728981 152.0
99.77417 156.0
99.807564 132.0
99.861252 236.0
99.916954 156.0
99.964584 128.0
100.012474 216.0
100.04631 116.0
100.070206 204.0
100.092102 132.0
100.11998 132.0
100.170097 176.0
100.185715 204.0
100.213608 96.0
100.263039 104.0
100.307274 128.0
100.324524 228.0
100.355865 224.0
100.396996 164.0
100.468803 164.0
100.506706 148.0
100.522377 136.0
100.594521 132.0
100.64843 148.0
100.687111 204.0
100.722321 152.0
100.748291 200.0
100.781715 192.0
100.824219 64.0
100.908173 96.0
100.938164 68.0
100.962158 116.0
101.006165 164.0
101.046173 64.0
101.076187 156.0
101.124214 192.0
101.14183 180.0
101.195152 156.0
101.250343 96.0
101.270378 216.0
101.362534 148.0
101.38694 132.0
101.406616 144.0
101.430672 112.0
101.451752 232.0
101.482796 144.0
101.578857 120.0
101.611153 128.0
101.637947 220.0
101.685402 120.0
101.731567 144.0
101.828667 180.0
101.849052 168.0
101.894196 196.0
101.901733 192.0
101.960548 212.0
101.982658 64.0
102.014282 220.0
102.036934 136.0
102.081169 136.0
102.111336 216.0
102.149551 124.0
102.219971 56.0
102.278336 180.0
102.300835 128.0
102.325348 236.0
102.342751 132.0
102.421631 168.0
102.451195 232.0
102.477699 160.0
102.546219 92.0
102.581284 192.0
102.628868 108.0
102.642982 36.0
102.675247 208.0
102.701469 228.0
102.754951 168.0
102.796288 160.0
102.834633 196.0
102.887115 216.0
102.901253 140.0
102.944191 164.0
102.988083 192.0
103.005394 204.0
103.054016 2372.0
103.09201 132.0
103.168015 212.0
103.21241 152.0
103.22718 196.0
103.244759 44.0
103.321518 152.0
103.338081 208.0
103.364113 180.0
103.416733 236.0
103.443047 164.0
103.473412 128.0
103.487587 136.0
103.522011 108.0
103.564537 164.0
103.584793 56.0
103.607162 192.0
103.625313 248.0
103.686104 400.0
103.732048 108.0
103.747612 116.0
103.773895 232.0
103.79451 232.0
103.830048 56.0
103.859421 332.0
103.876694 72.0
104.000473 100.0
104.056129 656.0
104.099953 108.0
104.124321 140.0
104.158852 212.0
104.205574 188.0
104.246468 256.0
104.276703 196.0
104.324074 236.0
104.346489 200.0
104.370209 116.0
104.39949 220.0
104.461983 160.0
104.492249 164.0
104.545876 124.0
104.571609 60.0
104.618423 116.0
104.635818 280.0
104.695801 108.0
104.728661 212.0
104.74543 184.0
104.775238 144.0
104.791534 200.0
104.807838 180.0
104.868973 116.0
104.906425 344.0
105.028015 192.0
105.070259 4228.0
105.107574 128.0
105.127243 140.0
105.14431 148.0
105.1688 76.0
105.205544 60.0
105.234123 96.0
105.263695 224.0
105.289261 132.0
105.323982 116.0
105.348495 176.0
105.40979 148.0
105.474808 192.0
105.49691 192.0
105.518837 148.0
105.580482 296.0
105.665634 156.0
105.706291 136.0
105.724716 152.0
105.746819 140.0
105.769287 180.0
105.81855 152.0
105.835251 124.0
105.849586 204.0
105.865173 196.0
105.888802 292.0
105.904877 252.0
105.929459 256.0
105.947151 252.0
106.001167 192.0
106.036125 136.0
106.067078 768.0
106.118004 72.0
106.237671 148.0
106.256683 136.0
106.281815 120.0
106.340515 136.0
106.360077 132.0
106.421661 92.0
106.482086 216.0
106.50428 140.0
106.512024 32.0
106.517715 140.0
106.549004 132.0
106.565437 184.0
106.587868 192.0
106.678352 236.0
106.703209 228.0
106.749237 144.0
106.789505 80.0
106.810074 276.0
106.846626 156.0
106.88208 248.0
106.900597 232.0
106.944298 328.0
106.980873 112.0
107.015228 128.0
107.04882 1472.0
107.082932 536.0
107.131203 84.0
107.15139 60.0
107.215683 52.0
107.244537 276.0
107.281639 148.0
107.316689 148.0
107.337303 156.0
107.358307 216.0
107.380615 156.0
107.412369 212.0
107.480644 256.0
107.497795 180.0
107.514717 164.0
107.555992 204.0
107.582832 120.0
107.648392 208.0
107.700531 60.0
107.764572 164.0
107.905113 284.0
107.951111 212.0
107.973351 136.0
107.991966 156.0
108.048248 348.0
108.055092 132.0
108.078941 320.0
108.207542 180.0
108.285866 216.0
108.323151 104.0
108.366653 200.0
108.424675 44.0
108.474419 224.0
108.519188 168.0
108.582237 68.0
108.605057 148.0
108.658989 52.0
108.717087 144.0
108.808418 124.0
108.825027 208.0
108.874863 160.0
108.893555 136.0
108.922638 180.0
108.938957 168.0
108.976646 136.0
109.026573 156.0
109.064079 452.0
109.113823 148.0
109.151245 212.0
109.20948 164.0
109.240677 196.0
109.259399 144.0
109.337585 160.0
109.409401 216.0
109.447784 180.0
109.477959 140.0
109.517929 144.0
109.544601 180.0
109.561272 168.0
109.582108 124.0
109.621307 108.0
109.686066 140.0
109.709236 40.0
109.746933 196.0
109.772308 184.0
109.79406 176.0
109.838524 180.0
109.859383 160.0
109.921974 140.0
109.942841 120.0
109.971535 220.0
110.025215 180.0
110.060127 172.0
110.107666 156.0
110.151634 188.0
110.172523 228.0
110.187149 188.0
110.241478 136.0
110.267967 136.0
110.289543 140.0
110.316719 176.0
110.364807 112.0
110.402443 160.0
110.440041 164.0
110.475647 136.0
110.534233 192.0
110.576088 124.0
110.609573 108.0
110.651443 112.0
110.6661 120.0
110.703789 160.0
110.719566 240.0
110.747772 144.0
110.830482 224.0
110.856888 148.0
110.871384 208.0
110.886055 256.0
110.938454 96.0
110.990875 184.0
111.014236 140.0
111.039101 156.0
111.093643 144.0
111.129303 160.0
111.143997 256.0
111.175468 196.0
111.206947 144.0
111.257332 140.0
111.274124 272.0
111.308861 200.0
111.33712 140.0
111.385429 132.0
111.404335 96.0
111.440048 216.0
111.49678 192.0
111.559845 132.0
111.602959 140.0
111.637634 100.0
111.679703 52.0
111.744911 144.0
111.761742 120.0
111.821312 196.0
111.846603 136.0
111.877502 136.0
111.91217 324.0
111.932243 184.0
111.957321 176.0
111.995422 128.0
112.035446 168.0
112.072891 176.0
112.147125 140.0
112.237778 116.0
112.252541 248.0
112.279953 132.0
112.303154 32.0
112.334793 164.0
112.391754 136.0
112.413994 52.0
112.463509 124.0
112.478287 148.0
112.512062 164.0
112.547951 244.0
112.587524 196.0
112.630318 204.0
112.67556 124.0
112.704254 160.0
112.719048 120.0
112.754974 116.0
112.818336 172.0
112.854828 168.0
112.871239 168.0
112.892754 232.0
112.950195 144.0
112.996033 116.0
113.0411 160.0
113.074326 148.0
113.09549 136.0
113.135361 228.0
113.144608 156.0
113.180176 148.0
113.216171 144.0
113.281876 180.0
113.298241 160.0
113.33268 120.0
113.353867 164.0
113.37294 268.0
113.423805 168.0
113.440765 120.0
113.463226 188.0
113.492439 160.0
113.567924 132.0
113.621025 208.0
113.635872 160.0
113.653694 164.0
113.687927 196.0
113.704277 136.0
113.729477 184.0
113.841766 156.0
113.959961 156.0
113.984093 224.0
114.049522 168.0
114.061241 188.0
114.126511 152.0
114.145645 52.0
114.275398 140.0
114.315277 296.0
114.330719 144.0
114.345619 132.0
114.454185 104.0
114.57412 168.0
114.591919 156.0
114.611809 168.0
114.651451 188.0
114.68 240.0
114.71624 120.0
114.748215 156.0
114.76741 100.0
114.792992 88.0
114.842049 76.0
114.864571 128.0
114.913483 140.0
114.99353 192.0
115.053841 1468.0
115.130547 224.0
115.157936 256.0
115.193031 132.0
115.219879 92.0
115.236969 360.0
115.31604 180.0
115.343826 192.0
115.378975 180.0
115.403687 192.0
115.488724 68.0
115.496956 52.0
115.510902 156.0
115.5532 172.0
115.585495 168.0
115.60984 156.0
115.630432 44.0
115.706993 256.0
115.800392 136.0
115.844559 184.0
115.880974 204.0
115.905655 116.0
115.940971 68.0
115.99456 124.0
116.019341 192.0
116.057976 740.0
116.099617 84.0
116.122566 188.0
116.172539 200.0
116.196144 240.0
116.241196 156.0
116.282951 44.0
116.331345 112.0
116.419373 132.0
116.438705 76.0
116.462326 152.0
116.484909 172.0
116.520325 340.0
116.600021 136.0
116.689171 188.0
116.778282 76.0
116.804092 88.0
116.861603 384.0
116.927094 120.0
116.948257 344.0
117.059822 2284.0
117.099434 112.0
117.152824 144.0
117.200218 64.0
117.228958 228.0
117.251938 160.0
117.338524 168.0
117.372742 100.0
117.407166 192.0
117.456772 132.0
117.491188 184.0
117.517174 92.0
117.630989 204.0
117.646667 164.0
117.708199 136.0
117.764412 212.0
117.845718 120.0
117.938148 184.0
117.966385 156.0
118.037682 208.0
118.065216 1064.0
118.093193 272.0
118.128571 180.0
118.152367 108.0
118.193474 96.0
118.247574 88.0
118.272705 164.0
118.291801 176.0
118.308861 140.0
118.338493 140.0
118.417305 172.0
118.433456 108.0
118.464104 108.0
118.486801 188.0
118.526932 164.0
118.567398 116.0
118.622292 172.0
118.702515 228.0
118.749535 176.0
118.855843 140.0
118.887611 356.0
118.921631 152.0
119.00206 76.0
119.048447 3720.0
119.071747 932.0
119.113472 136.0
119.158325 196.0
119.190918 104.0
119.206123 88.0
119.313805 136.0
119.338722 208.0
119.369164 180.0
119.455254 128.0
119.506195 168.0
119.534325 112.0
119.552773 300.0
119.57148 196.0
119.598358 172.0
119.616158 152.0
119.657135 228.0
119.67379 184.0
119.69339 48.0
119.754364 96.0
119.779411 136.0
119.788315 208.0
119.85022 100.0
119.87709 72.0
119.911232 112.0
119.956451 156.0
119.990555 124.0
120.055527 956.0
120.080345 2348.0
120.131462 80.0
120.157173 176.0
120.176407 80.0
120.208885 132.0
120.247108 124.0
120.266678 124.0
120.29731 124.0
120.331718 216.0
120.348816 180.0
120.378098 256.0
120.399933 44.0
120.43116 148.0
120.476944 156.0
120.558907 52.0
120.629349 116.0
120.66433 72.0
120.688377 120.0
120.712433 220.0
120.764923 168.0
120.806686 180.0
120.996658 204.0
121.028351 308.0
121.064629 3388.0
121.088692 1308.0
121.154556 356.0
121.185226 180.0
121.237816 132.0
121.260315 136.0
121.342079 248.0
121.393044 124.0
121.426361 156.0
121.502571 192.0
121.568962 184.0
121.612854 156.0
121.636902 92.0
121.676514 108.0
121.700668 96.0
121.813324 160.0
121.819733 148.0
121.829803 236.0
121.865395 56.0
121.900551 136.0
121.922531 88.0
121.947357 228.0
121.970879 120.0
121.986267 48.0
122.005798 208.0
122.031586 176.0
122.069427 492.0
122.092911 468.0
122.125755 156.0
122.142395 360.0
122.18 128.0
122.197388 228.0
122.232597 132.0
122.320633 392.0
122.348404 260.0
122.408699 40.0
122.448334 180.0
122.463287 236.0
122.478691 200.0
122.493034 164.0
122.541679 64.0
122.565094 120.0
122.591537 92.0
122.608498 132.0
122.626793 188.0
122.644432 112.0
122.671547 212.0
122.706055 184.0
122.740623 188.0
122.862907 104.0
122.891418 184.0
122.924515 80.0
122.973068 144.0
122.988518 220.0
123.042885 304.0
123.080818 460.0
123.118629 296.0
123.154121 156.0
123.21376 144.0
123.231438 220.0
123.313202 200.0
123.344765 156.0
123.403831 180.0
123.423737 128.0
123.465752 252.0
123.518829 172.0
123.576347 52.0
123.599113 152.0
123.656013 176.0
123.708427 200.0
123.735703 152.0
123.76342 164.0
123.788841 120.0
123.826881 160.0
123.873009 148.0
123.897377 144.0
123.98822 72.0
124.010384 108.0
124.054718 148.0
124.079102 192.0
124.167801 160.0
124.254311 132.0
124.295464 168.0
124.380798 200.0
124.414101 168.0
124.429642 132.0
124.466103 208.0
124.498474 120.0
124.529564 188.0
124.59095 164.0
124.621452 364.0
124.658417 136.0
124.729538 212.0
124.758209 156.0
124.761681 140.0
124.802902 232.0
124.840706 168.0
124.874069 120.0
124.978172 20.0
125.00087 188.0
125.047607 164.0
125.198997 172.0
125.227951 196.0
125.245766 228.0
125.299232 176.0
125.32151 148.0
125.337112 180.0
125.388367 200.0
125.411354 164.0
125.435455 156.0
125.593079 176.0
125.679619 200.0
125.696114 200.0
125.727356 192.0
125.749672 156.0
125.817833 336.0
125.838112 116.0
125.906799 116.0
125.93132 256.0
125.952858 120.0
125.976051 216.0
125.999763 244.0
126.017494 60.0
126.064636 128.0
126.095848 192.0
126.147263 100.0
126.194206 108.0
126.229988 120.0
126.314972 104.0
126.377617 172.0
126.39328 80.0
126.423447 160.0
126.453697 128.0
126.561714 48.0
126.598381 160.0
126.664169 60.0
126.755699 164.0
126.862411 352.0
126.916107 124.0
126.95105 408.0
126.99865 232.0
127.058716 176.0
127.107056 140.0
127.157448 188.0
127.17765 184.0
127.211319 116.0
127.249481 184.0
127.265198 192.0
127.293266 272.0
127.323586 156.0
127.417931 120.0
127.433655 168.0
127.458374 76.0
127.476349 136.0
127.494324 56.0
127.521294 132.0
127.561752 148.0
127.597725 288.0
127.653938 196.0
127.687668 220.0
127.707909 96.0
127.728157 92.0
127.770897 160.0
127.804642 148.0
127.842896 84.0
127.865402 168.0
128.038757 132.0
128.06076 568.0
128.119843 180.0
128.158142 152.0
128.17392 72.0
128.210587 148.0
128.250549 124.0
128.273087 92.0
128.301636 148.0
128.312943 124.0
128.349915 160.0
128.38475 160.0
128.410629 212.0
128.433182 152.0
128.548248 196.0
128.568558 140.0
128.593384 96.0
128.624985 80.0
128.677597 112.0
128.729965 176.0
128.744644 220.0
128.776947 184.0
128.800797 120.0
128.8508 180.0
128.885651 200.0
128.927628 196.0
128.986389 108.0
129.011261 48.0
129.068649 668.0
129.1017 132.0
129.179916 176.0
129.235168 128.0
129.314041 208.0
129.350189 208.0
129.368576 152.0
129.452133 112.0
129.460281 204.0
129.545319 104.0
129.604233 188.0
129.658615 152.0
129.68808 144.0
129.717545 132.0
129.776489 124.0
129.810501 148.0
129.883072 120.0
129.927383 192.0
129.955673 88.0
130.013184 140.0
130.042603 52.0
130.066406 960.0
130.150879 80.0
130.236252 148.0
130.256226 144.0
130.273514 156.0
130.300781 52.0
130.375763 180.0
130.417389 140.0
130.466675 136.0
130.555359 108.0
130.571274 136.0
130.624527 320.0
130.644058 144.0
130.694122 112.0
130.719254 176.0
130.73735 188.0
130.805634 152.0
130.8284 220.0
130.894424 88.0
130.921829 200.0
130.958191 76.0
130.974762 188.0
130.994629 432.0
131.049332 7256.0
131.08252 1980.0
131.11084 184.0
131.152557 156.0
131.168747 144.0
131.224808 80.0
131.255402 172.0
131.397827 172.0
131.426758 200.0
131.491699 88.0
131.507675 160.0
131.555618 208.0
131.58252 212.0
131.608124 360.0
131.640915 176.0
131.65947 116.0
131.718063 332.0
131.740585 232.0
131.760208 156.0
131.804565 204.0
131.822845 168.0
131.878159 188.0
131.938919 308.0
131.975998 152.0
132.054626 1792.0
132.080215 15888.0
132.142502 288.0
132.193298 116.0
132.220245 164.0
132.241348 224.0
132.267944 104.0
132.289429 48.0
132.342239 168.0
132.391022 160.0
132.41864 148.0
132.499756 156.0
132.552811 160.0
132.575729 68.0
132.61615 508.0
132.667404 180.0
132.688049 148.0
132.718872 68.0
132.7444 220.0
132.817719 124.0
132.872787 144.0
132.893951 420.0
132.913742 192.0
132.940353 184.0
132.964035 100.0
133.006912 80.0
133.063522 6896.0
133.086578 2136.0
133.154556 92.0
133.199799 140.0
133.223587 180.0
133.251938 40.0
133.291687 176.0
133.379028 164.0
133.398682 284.0
133.447495 92.0
133.487015 200.0
133.50499 132.0
133.50827 168.0
133.526184 76.0
133.556076 144.0
133.585983 56.0
133.605209 156.0
133.644211 52.0
133.722763 316.0
133.764542 128.0
133.850662 48.0
133.873688 184.0
133.913544 216.0
133.987213 152.0
134.027893 148.0
134.069183 1460.0
134.095474 528.0
134.141647 204.0
134.1884 48.0
134.217026 124.0
134.242401 48.0
134.288513 88.0
134.343872 136.0
134.381454 124.0
134.408478 236.0
134.438477 180.0
134.459244 216.0
134.514648 44.0
134.530807 192.0
134.583908 160.0
134.703827 164.0
134.754822 124.0
134.770996 292.0
134.835693 164.0
134.877304 72.0
134.897095 64.0
134.95903 204.0
134.981339 176.0
134.999832 172.0
135.017426 196.0
135.044724 2180.0
135.077789 1332.0
135.125977 112.0
135.139343 204.0
135.166397 48.0
135.184906 348.0
135.201096 132.0
135.221878 168.0
135.280197 192.0
135.309891 316.0
135.356201 28.0
135.453476 104.0
135.488785 212.0
135.546143 116.0
135.562363 172.0
135.592499 120.0
135.641159 68.0
135.675934 144.0
135.741013 188.0
135.767441 104.0
135.826675 152.0
135.852188 180.0
135.877701 148.0
135.920822 212.0
135.944992 120.0
135.9767 116.0
136.005341 100.0
136.049622 1628.0
136.075302 3888.0
136.119095 172.0
136.158737 56.0
136.198059 176.0
136.243484 152.0
136.263931 212.0
136.286346 268.0
136.45369 148.0
136.495529 136.0
136.514145 52.0
136.560654 168.0
136.582275 144.0
136.645691 180.0
136.690933 228.0
136.715805 180.0
136.746338 188.0
136.81662 176.0
136.874283 172.0
136.983185 144.0
137.008743 128.0
137.05957 2244.0
137.12355 224.0
137.152054 112.0
137.189713 176.0
137.266205 200.0
137.289612 160.0
137.410904 136.0
137.515915 196.0
137.546265 188.0
137.595291 208.0
137.611633 144.0
137.679352 76.0
137.714371 232.0
137.747086 192.0
137.807816 184.0
137.826508 136.0
137.87413 148.0
137.915314 136.0
137.973755 188.0
138.00415 128.0
138.028275 76.0
138.063965 544.0
138.114059 192.0
138.131912 228.0
138.179565 128.0
138.25679 128.0
138.298248 100.0
138.33403 164.0
138.37851 56.0
138.408936 124.0
138.460464 132.0
138.596329 172.0
138.668884 96.0
138.741638 96.0
138.807785 96.0
138.832184 168.0
138.887024 120.0
138.92691 168.0
138.948013 156.0
138.964447 184.0
138.999634 216.0
139.016068 132.0
139.102905 248.0
139.161591 136.0
139.192123 140.0
139.216019 160.0
139.23909 128.0
139.273438 160.0
139.329315 164.0
139.459747 196.0
139.523911 168.0
139.563385 156.0
139.589249 176.0
139.610413 204.0
139.666855 112.0
139.702133 320.0
139.719315 416.0
139.742126 156.0
139.770981 216.0
139.851395 160.0
139.897461 212.0
139.921005 260.0
140.022263 228.0
140.050888 148.0
140.085846 76.0
140.12355 160.0
140.156525 220.0
140.184814 140.0
140.201309 108.0
140.272018 400.0
140.295593 164.0
140.362885 228.0
140.406403 180.0
140.425278 200.0
140.471542 156.0
140.494614 112.0
140.543228 140.0
140.575195 160.0
140.61998 176.0
140.819427 160.0
140.876114 160.0
140.939911 132.0
140.972031 188.0
140.996628 156.0
141.068909 284.0
141.097336 264.0
141.126633 116.0
141.169205 128.0
141.195282 188.0
141.304016 236.0
141.443649 132.0
141.592148 156.0
141.642868 200.0
141.659134 128.0
141.68045 180.0
141.697037 208.0
141.781433 168.0
141.843964 192.0
141.872406 144.0
141.91745 144.0
141.950653 168.0
141.97673 144.0
142.043152 132.0
142.065994 304.0
142.121445 188.0
142.19754 180.0
142.224014 160.0
142.26384 164.0
142.282822 176.0
142.35643 148.0
142.434814 164.0
142.522873 240.0
142.54808 148.0
142.616226 168.0
142.658279 196.0
142.686707 60.0
142.719467 164.0
142.774689 260.0
142.793716 184.0
142.895416 212.0
142.912659 120.0
142.95787 148.0
142.993561 148.0
143.014984 172.0
143.049591 372.0
143.081863 620.0
143.10965 196.0
143.159103 172.0
143.191177 60.0
143.235474 152.0
143.247665 112.0
143.26297 228.0
143.338577 164.0
143.388916 176.0
143.430298 128.0
143.465195 172.0
143.510498 72.0
143.546021 160.0
143.621872 376.0
143.648819 60.0
143.667908 124.0
143.691757 60.0
143.708466 44.0
143.729935 204.0
143.780045 132.0
143.827774 120.0
143.8703 108.0
143.960312 164.0
143.970352 84.0
143.97438 140.0
144.016953 176.0
144.054367 652.0
144.08107 1708.0
144.144547 44.0
144.180923 140.0
144.242035 168.0
144.29361 216.0
144.310349 180.0
144.334259 220.0
144.352325 132.0
144.372513 216.0
144.413177 156.0
144.456238 132.0
144.487335 104.0
144.515503 160.0
144.539963 88.0
144.666809 156.0
144.685593 152.0
144.731461 168.0
144.785507 196.0
144.856293 292.0
144.870987 156.0
144.908707 160.0
144.946609 204.0
145.011749 156.0
145.031723 300.0
145.060333 1452.0
145.096329 1352.0
145.148315 156.0
145.171646 200.0
145.222855 148.0
145.271927 172.0
145.343048 148.0
145.406784 84.0
145.459457 168.0
145.527496 232.0
145.547424 148.0
145.570724 236.0
145.591461 144.0
145.726852 144.0
145.74437 136.0
145.772141 188.0
145.798935 172.0
145.815765 36.0
145.837387 148.0
145.90332 108.0
145.92897 216.0
145.960464 176.0
145.997055 156.0
146.060989 1456.0
146.095428 1472.0
146.128372 44.0
146.145218 188.0
146.188522 60.0
146.207779 64.0
146.243881 92.0
146.304062 68.0
146.354614 128.0
146.390732 88.0
146.415329 180.0
146.439926 292.0
146.489792 284.0
146.54007 172.0
146.589127 168.0
146.635773 404.0
146.685852 180.0
146.708054 144.0
146.848633 120.0
146.926422 108.0
146.979874 300.0
147.000626 44.0
147.043579 704.0
147.068024 6124.0
147.100113 964.0
147.153473 184.0
147.201462 260.0
147.216171 192.0
147.235809 148.0
147.254105 120.0
147.28186 124.0
147.324158 40.0
147.343491 92.0
147.389389 172.0
147.41893 232.0
147.486053 44.0
147.502975 216.0
147.522324 180.0
147.556168 148.0
147.590012 152.0
147.62822 20.0
147.647339 216.0
147.716049 36.0
147.735992 348.0
147.781296 184.0
147.813477 136.0
147.874649 372.0
147.904861 232.0
147.934845 144.0
147.951996 120.0
148.000046 148.0
148.076141 95900.0
148.139313 136.0
148.184219 40.0
148.200775 136.0
148.23201 124.0
148.267273 204.0
148.307846 172.0
148.317703 56.0
148.322556 48.0
148.350143 80.0
148.38501 208.0
148.417694 200.0
148.435547 248.0
148.475143 612.0
148.511917 76.0
148.532349 364.0
148.553925 192.0
148.580078 220.0
148.596939 104.0
148.602951 84.0
148.631561 64.0
148.659149 140.0
148.679291 180.0
148.706253 160.0
148.727554 232.0
148.761841 160.0
148.768143 176.0
148.787704 84.0
148.83197 156.0
148.873672 112.0
148.888885 140.0
148.918243 224.0
148.972641 412.0
149.002319 120.0
149.022064 116.0
149.060318 20056.0
149.078751 14284.0
149.115463 212.0
149.144669 108.0
149.163437 84.0
149.220566 140.0
149.271896 176.0
149.343643 128.0
149.379852 72.0
149.396881 40.0
149.41391 44.0
149.454926 216.0
149.520432 72.0
149.537094 224.0
149.564209 152.0
149.591568 72.0
149.615799 84.0
149.656433 180.0
149.727921 92.0
149.746078 96.0
149.76445 140.0
149.786072 224.0
149.799179 108.0
149.89653 112.0
149.928558 180.0
149.978683 52.0
149.992874 188.0
150.028214 164.0
150.066055 3016.0
150.134338 104.0
150.160294 108.0
150.175751 64.0
150.18457 100.0
150.214233 112.0
150.248596 112.0
150.268295 312.0
150.316269 104.0
150.325699 132.0
150.362885 152.0
150.3862 76.0
150.425705 160.0
150.476517 80.0
150.519348 148.0
150.543884 116.0
150.627121 204.0
150.6548 52.0
150.697296 172.0
150.725662 172.0
150.774536 80.0
150.813629 28.0
150.835632 84.0
150.855194 100.0
150.923645 172.0
150.950226 152.0
150.990967 68.0
151.028809 100.0
151.070938 1108.0
151.102188 104.0
151.151123 108.0
151.185379 96.0
151.202515 52.0
151.246567 128.0
151.310211 112.0
151.329803 108.0
151.346939 160.0
151.387344 64.0
151.508011 236.0
151.621307 32.0
151.640915 176.0
151.707092 76.0
151.781662 204.0
151.825928 112.0
151.918182 236.0
152.006256 304.0
152.0242 120.0
152.065216 136.0
152.088837 184.0
152.156036 180.0
152.185501 128.0
152.217422 104.0
152.245499 184.0
152.271454 160.0
152.288635 80.0
152.340225 228.0
152.453247 196.0
152.590897 160.0
152.637619 148.0
152.770432 48.0
152.804871 156.0
152.824554 148.0
152.861465 92.0
152.878693 148.0
152.925446 56.0
152.967285 76.0
153.014069 140.0
153.069519 156.0
153.144577 80.0
153.179062 140.0
153.21109 48.0
153.240646 156.0
153.330292 180.0
153.346924 160.0
153.408234 152.0
153.452606 124.0
153.482208 152.0
153.538925 168.0
153.556183 124.0
153.573441 96.0
153.612915 80.0
153.669647 184.0
153.743591 220.0
153.807846 60.0
153.839935 44.0
153.857224 196.0
153.904129 36.0
153.963394 184.0
154.012787 124.0
154.047379 180.0
154.080154 256.0
154.104202 140.0
154.25 100.0
154.274719 144.0
154.353851 72.0
154.393417 124.0
154.452774 200.0
154.489868 168.0
154.566574 152.0
154.635162 184.0
154.682892 204.0
154.752213 136.0
154.783218 140.0
154.826492 148.0
154.937485 144.0
155.049469 128.0
155.089386 748.0
155.130936 124.0
155.24968 148.0
155.292435 172.0
155.325241 136.0
155.379257 128.0
155.42392 180.0
155.458649 128.0
155.589005 60.0
155.605103 140.0
155.654755 140.0
155.700439 224.0
155.721817 144.0
155.8013 108.0
155.835114 252.0
155.980225 172.0
156.080612 296.0
156.161896 180.0
156.179138 208.0
156.206512 180.0
156.281143 56.0
156.332123 196.0
156.375702 152.0
156.400589 156.0
156.450378 156.0
156.515106 120.0
156.582352 108.0
156.632172 192.0
156.664551 212.0
156.709396 96.0
156.736557 380.0
156.811569 276.0
156.852203 52.0
156.901306 96.0
156.918747 48.0
156.991058 84.0
157.063934 140.0
157.090393 316.0
157.143219 100.0
157.218079 64.0
157.246689 220.0
157.26799 144.0
157.367844 72.0
157.415283 52.0
157.434998 152.0
157.497711 180.0
157.550171 88.0
157.585144 148.0
157.616898 180.0
157.650116 52.0
157.770081 172.0
157.792587 164.0
157.818619 156.0
157.875107 164.0
157.905106 136.0
157.930115 84.0
157.972641 76.0
158.032684 108.0
158.068207 440.0
158.097092 452.0
158.141296 140.0
158.164337 152.0
158.226624 164.0
158.315552 132.0
158.340591 184.0
158.423248 40.0
158.465836 104.0
158.495911 148.0
158.52597 240.0
158.606171 224.0
158.622925 140.0
158.643768 184.0
158.676361 48.0
158.701431 124.0
158.739227 176.0
158.808685 188.0
158.82933 444.0
158.861954 208.0
158.881485 188.0
158.959732 152.0
159.037216 184.0
159.072937 1492.0
159.104385 712.0
159.157333 144.0
159.301254 128.0
159.321991 124.0
159.339493 120.0
159.361542 28.0
159.401749 148.0
159.486191 160.0
159.509827 120.0
159.542496 132.0
159.575027 132.0
159.589996 188.0
159.70636 200.0
159.748718 128.0
159.793991 236.0
159.874512 152.0
159.909088 168.0
159.944992 184.0
159.972885 196.0
160.009003 176.0
160.04834 480.0
160.07605 36500.0
160.149918 152.0
160.169449 140.0
160.239624 232.0
160.28511 152.0
160.403473 212.0
160.439941 108.0
160.490402 148.0
160.522934 100.0
160.54715 60.0
160.592545 92.0
160.630371 52.0
160.685883 60.0
160.748962 148.0
160.789734 220.0
160.808792 176.0
160.8479 60.0
160.867371 188.0
160.876099 120.0
160.880554 200.0
160.923126 116.0
160.947052 84.0
160.973618 92.0
161.008972 252.0
161.059814 5364.0
161.080551 4248.0
161.137573 512.0
161.181671 128.0
161.231293 108.0
161.248993 128.0
161.345047 240.0
161.366577 100.0
161.386383 68.0
161.427582 144.0
161.495987 208.0
161.53096 132.0
161.608078 120.0
161.653625 148.0
161.671341 48.0
161.691574 100.0
161.732071 168.0
161.766846 212.0
161.790298 68.0
161.854828 156.0
161.909302 108.0
161.94223 120.0
161.980225 144.0
161.997955 76.0
162.024246 96.0
162.064728 2204.0
162.090286 1772.0
162.120926 444.0
162.128296 496.0
162.178955 56.0
162.199509 60.0
162.279266 156.0
162.302094 104.0
162.335678 204.0
162.356445 188.0
162.386566 64.0
162.413254 216.0
162.43692 196.0
162.477097 280.0
162.547424 188.0
162.591278 124.0
162.63121 164.0
162.654724 68.0
162.690262 100.0
162.766006 72.0
162.801987 264.0
162.827377 40.0
162.855316 164.0
162.928574 244.0
162.936066 204.0
162.960403 228.0
162.98996 168.0
163.007751 60.0
163.030624 64.0
163.075317 10324.0
163.111954 404.0
163.162796 72.0
163.201141 100.0
163.256699 112.0
163.286713 164.0
163.314926 112.0
163.338257 120.0
163.363693 148.0
163.422211 60.0
163.440018 144.0
163.464935 196.0
163.506195 68.0
163.580154 64.0
163.646194 68.0
163.664551 224.0
163.801544 52.0
163.832108 136.0
163.890701 204.0
164.014435 80.0
164.07692 1564.0
164.115372 112.0
164.178757 68.0
164.227219 140.0
164.260376 148.0
164.28157 180.0
164.344559 88.0
164.38028 136.0
164.408356 144.0
164.433884 28.0
164.477264 124.0
164.513809 152.0
164.564072 48.0
164.584488 80.0
164.610031 180.0
164.650894 60.0
164.674835 116.0
164.707077 156.0
164.745392 196.0
164.781158 120.0
164.845047 120.0
164.880814 184.0
164.929596 224.0
164.954941 212.0
165.027512 156.0
165.085327 152.0
165.123688 96.0
165.220901 220.0
165.242859 152.0
165.286163 144.0
165.353958 136.0
165.373169 164.0
165.398865 196.0
165.43074 164.0
165.696121 128.0
165.73671 60.0
165.756012 204.0
165.825211 68.0
165.876465 128.0
165.91748 148.0
165.938004 80.0
166.055954 132.0
166.094925 232.0
166.16626 152.0
166.186783 220.0
166.245804 176.0
166.315094 124.0
166.364105 224.0
166.422913 176.0
166.456299 212.0
166.532288 200.0
166.556458 160.0
166.584717 152.0
166.636093 88.0
166.681259 160.0
166.702896 104.0
166.80571 144.0
166.990845 104.0
167.050003 160.0
167.073151 200.0
167.115082 188.0
167.137482 264.0
167.161926 216.0
167.266159 92.0
167.329544 192.0
167.402603 156.0
167.477295 176.0
167.539337 140.0
167.660217 220.0
167.709183 148.0
167.758163 232.0
167.858719 92.0
167.946411 164.0
167.977356 140.0
168.009903 176.0
168.055908 80.0
168.157974 60.0
168.24855 176.0
168.271561 108.0
168.307709 160.0
168.483337 196.0
168.540176 124.0
168.615112 56.0
168.801239 140.0
168.829681 156.0
168.884003 164.0
169.066818 304.0
169.091965 164.0
169.111694 60.0
169.139008 144.0
169.246307 240.0
169.290329 128.0
169.313629 128.0
169.495789 368.0
169.546799 180.0
169.570114 108.0
169.625412 120.0
169.697144 176.0
169.784805 124.0
169.831985 216.0
169.850143 116.0
169.886459 128.0
169.938538 164.0
170.000626 132.0
170.026581 132.0
170.066254 112.0
170.093811 128.0
170.171936 80.0
170.195312 180.0
170.231659 96.0
170.265671 124.0
170.288803 124.0
170.306976 136.0
170.351135 208.0
170.447266 144.0
170.473526 192.0
170.501831 184.0
170.535629 140.0
170.573227 236.0
170.613602 152.0
170.733215 208.0
170.767029 164.0
171.019409 148.0
171.077972 640.0
171.162582 136.0
171.227692 120.0
171.353836 140.0
171.386597 132.0
171.444199 168.0
171.472595 76.0
171.53775 76.0
171.576859 132.0
171.600327 76.0
171.681152 88.0
171.777344 132.0
171.889847 116.0
171.960312 184.0
171.986404 52.0
172.007294 136.0
172.074356 2172.0
172.112473 840.0
172.174393 76.0
172.201981 176.0
172.229233 76.0
172.255356 164.0
172.288513 52.0
172.292923 84.0
172.330948 184.0
172.375549 148.0
172.453949 104.0
172.474854 168.0
172.503601 184.0
172.621262 152.0
172.655777 160.0
172.722321 156.0
172.77034 120.0
172.830521 188.0
172.982315 288.0
173.085602 2820.0
173.198639 268.0
173.335892 40.0
173.36673 148.0
173.389481 136.0
173.485275 172.0
173.547134 128.0
173.590149 132.0
173.624252 128.0
173.645233 80.0
173.721298 60.0
173.836746 40.0
173.87085 200.0
173.933853 68.0
173.973221 160.0
174.056427 920.0
174.090912 3840.0
174.14122 132.0
174.193802 176.0
174.230591 124.0
174.277634 364.0
174.312637 192.0
174.435562 144.0
174.453964 76.0
174.496033 200.0
174.519684 184.0
174.54599 300.0
174.572037 172.0
174.616989 136.0
174.661697 192.0
174.709045 232.0
174.735367 88.0
174.766937 92.0
174.798508 136.0
174.87825 132.0
174.959061 176.0
175.03392 120.0
175.06424 4656.0
175.097305 2516.0
175.156555 224.0
175.225052 156.0
175.277756 72.0
175.301468 108.0
175.338364 140.0
175.379059 164.0
175.415359 76.0
175.450317 152.0
175.582642 164.0
175.632339 88.0
175.654755 48.0
175.828903 84.0
175.853973 88.0
175.900162 136.0
175.939041 172.0
175.960007 108.0
176.012314 196.0
176.070679 2608.0
176.1035 728.0
176.143097 196.0
176.206497 152.0
176.296341 64.0
176.322769 200.0
176.346558 76.0
176.457214 144.0
176.486664 120.0
176.507812 88.0
176.528976 148.0
176.573929 176.0
176.599274 144.0
176.629471 192.0
176.661224 60.0
176.679733 100.0
176.698257 164.0
176.748932 156.0
176.76062 84.0
176.771255 204.0
176.86232 180.0
176.909973 36.0
176.936371 160.0
176.945999 132.0
176.962219 360.0
177.034409 168.0
177.091125 39960.0
177.169495 84.0
177.197128 144.0
177.248611 144.0
177.278137 76.0
177.301575 52.0
177.307037 44.0
177.318771 92.0
177.366913 156.0
177.386795 72.0
177.449661 152.0
177.503448 44.0
177.525558 68.0
177.648102 104.0
177.699738 128.0
177.744843 172.0
177.779343 80.0
177.800125 48.0
177.827103 208.0
177.876205 144.0
177.901428 76.0
177.927979 164.0
177.967804 268.0
178.020554 60.0
178.056717 172.0
178.093491 4812.0
178.130173 316.0
178.161682 44.0
178.202774 112.0
178.248703 104.0
178.384903 152.0
178.422119 56.0
178.448715 56.0
178.500565 72.0
178.520508 136.0
178.566116 188.0
178.583542 124.0
178.616257 36.0
178.640198 60.0
178.669449 56.0
178.706696 140.0
178.729553 136.0
178.783875 184.0
178.839752 136.0
178.89122 60.0
178.919617 148.0
178.946747 140.0
178.991501 216.0
179.010147 32.0
179.034119 308.0
179.060425 68.0
179.094452 560.0
179.139572 128.0
179.172562 172.0
179.182266 168.0
179.233002 236.0
179.279205 60.0
179.297852 140.0
179.368393 112.0
179.419556 116.0
179.452469 88.0
179.497192 192.0
179.527939 172.0
179.550232 192.0
179.62915 160.0
179.665283 80.0
179.705841 164.0
179.735199 68.0
179.756546 68.0
179.851135 136.0
179.903336 176.0
180.028168 160.0
180.071564 80.0
180.103607 68.0
180.173065 120.0
180.243561 52.0
180.317352 120.0
180.349426 196.0
180.3815 216.0
180.424271 120.0
180.523209 132.0
180.541931 56.0
180.609344 172.0
180.668808 164.0
180.796066 136.0
180.833542 116.0
180.903137 92.0
180.983459 224.0
181.007553 160.0
181.057602 428.0
181.087891 104.0
181.243271 124.0
181.270065 160.0
181.323654 136.0
181.377274 44.0
181.426895 192.0
181.615387 184.0
181.682968 144.0
181.752731 132.0
181.782242 164.0
181.801025 112.0
181.865433 136.0
181.943283 156.0
181.974365 180.0
181.986847 144.0
181.995163 212.0
182.093658 212.0
182.120514 188.0
182.139313 212.0
182.327393 192.0
182.375778 88.0
182.413406 120.0
182.464478 144.0
182.530396 132.0
182.615067 172.0
182.690384 140.0
182.811523 252.0
182.849136 220.0
182.867981 68.0
182.905228 68.0
182.929886 192.0
182.978348 124.0
183.079346 208.0
183.105225 68.0
183.139923 128.0
183.252899 140.0
183.285385 220.0
183.352768 100.0
183.47406 136.0
183.492935 172.0
183.594116 212.0
183.703278 68.0
183.772232 144.0
183.795013 144.0
183.857071 176.0
183.905655 184.0
184.084686 300.0
184.208679 196.0
184.238724 152.0
184.258682 192.0
184.308044 176.0
184.372894 236.0
184.467499 144.0
184.589462 140.0
184.654068 200.0
184.759552 128.0
184.783905 116.0
184.807999 164.0
184.835312 188.0
184.859665 96.0
184.919205 120.0
184.959808 92.0
184.97876 196.0
185.083649 440.0
185.121414 116.0
185.195374 180.0
185.222458 208.0
185.249542 144.0
185.322693 116.0
185.452774 172.0
185.471756 124.0
185.566635 124.0
185.637131 144.0
185.656113 120.0
185.685822 184.0
185.814407 224.0
185.848709 180.0
185.913834 144.0
185.937927 200.0
185.959976 232.0
186.038681 220.0
186.085129 848.0
186.269501 140.0
186.363663 168.0
186.394424 212.0
186.418945 100.0
186.446274 132.0
186.505219 188.0
186.530365 132.0
186.598328 196.0
186.75061 200.0
186.849014 172.0
186.902328 184.0
186.954666 144.0
186.980591 68.0
187.014542 112.0
187.07637 480.0
187.095779 920.0
187.145203 76.0
187.297714 56.0
187.361282 156.0
187.485703 60.0
187.559906 144.0
187.589279 128.0
187.613815 128.0
187.667603 176.0
187.73378 124.0
187.776123 176.0
187.870163 140.0
187.933487 208.0
188.072769 1536.0
188.106232 2196.0
188.137604 80.0
188.1922 132.0
188.216721 164.0
188.226608 160.0
188.268661 48.0
188.315826 192.0
188.424362 68.0
188.456207 220.0
188.513245 192.0
188.540253 116.0
188.600464 36.0
188.697662 200.0
188.787888 168.0
188.826187 128.0
188.883621 148.0
188.960114 204.0
189.090973 9748.0
189.197815 132.0
189.264023 48.0
189.327011 60.0
189.414658 56.0
189.436508 164.0
189.472183 92.0
189.537933 168.0
189.613998 172.0
189.635223 104.0
189.687897 100.0
189.725922 176.0
189.791656 160.0
189.828506 208.0
189.874527 160.0
189.921753 100.0
189.943695 128.0
189.973862 124.0
190.0009 136.0
190.045135 196.0
190.097733 14628.0
190.187897 28.0
190.207123 32.0
190.226334 32.0
190.246674 68.0
190.275085 156.0
190.308685 40.0
190.343658 196.0
190.365463 264.0
190.4048 68.0
190.470718 156.0
190.506424 140.0
190.544891 72.0
190.586105 152.0
190.617279 124.0
190.650467 132.0
190.682281 32.0
190.759384 84.0
190.792984 44.0
190.822479 84.0
190.851288 176.0
190.91597 144.0
190.935226 108.0
190.968094 164.0
191.001236 76.0
191.031494 136.0
191.050537 52.0
191.10643 14216.0
191.166306 136.0
191.188324 148.0
191.207581 88.0
191.22757 148.0
191.286789 72.0
191.310303 216.0
191.331451 60.0
191.405487 108.0
191.412643 148.0
191.461624 80.0
191.515152 96.0
191.546249 144.0
191.64267 60.0
191.771164 168.0
191.910019 96.0
191.959656 140.0
191.978958 76.0
192.028992 204.0
192.109024 1932.0
192.202271 180.0
192.225128 256.0
192.254837 100.0
192.308243 136.0
192.351425 84.0
192.38942 84.0
192.4729 252.0
192.531906 152.0
192.596695 112.0
192.630325 80.0
192.670578 140.0
192.692764 200.0
192.799759 124.0
192.862442 76.0
192.934311 48.0
193.033844 76.0
193.086395 44.0
193.110916 476.0
193.133408 76.0
193.161072 176.0
193.241302 160.0
193.285568 176.0
193.321533 44.0
193.399033 60.0
193.426712 124.0
193.464233 160.0
193.504227 88.0
193.540222 124.0
193.592834 140.0
193.620773 44.0
193.642685 132.0
193.666367 176.0
193.703613 52.0
193.77565 192.0
193.844925 148.0
193.868393 176.0
193.900345 84.0
193.925293 176.0
193.955627 220.0
194.024445 192.0
194.073029 164.0
194.153473 144.0
194.202545 64.0
194.236481 172.0
194.280212 116.0
194.393982 172.0
194.560516 176.0
194.654907 188.0
194.869965 60.0
194.893799 128.0
194.935471 152.0
194.971603 116.0
195.149506 192.0
195.168961 168.0
195.216232 100.0
195.269073 140.0
195.533386 144.0
195.575134 88.0
195.636368 60.0
195.669785 48.0
195.705978 76.0
195.756104 112.0
195.811798 40.0
195.945496 152.0
195.971237 100.0
196.012375 168.0
196.15451 196.0
196.207474 148.0
196.305069 180.0
196.411041 176.0
196.503098 156.0
196.697083 172.0
196.729156 116.0
196.965302 184.0
196.991653 148.0
197.184448 172.0
197.312012 196.0
197.345047 248.0
197.456863 128.0
197.529892 188.0
197.62265 120.0
197.713028 188.0
197.73262 292.0
197.757812 200.0
197.953781 152.0
197.992981 160.0
198.09053 260.0
198.147049 164.0
198.190948 144.0
198.243332 304.0
198.284348 40.0
198.323593 120.0
198.445236 104.0
198.494598 148.0
198.533859 132.0
198.560898 156.0
198.592758 76.0
198.654465 92.0
198.767563 168.0
198.876144 100.0
199.019318 104.0
199.072281 176.0
199.103561 140.0
199.165726 88.0
199.341019 136.0
199.485687 212.0
199.60376 128.0
199.637512 144.0
199.665634 116.0
199.795029 100.0
199.823151 48.0
199.854111 128.0
199.881805 204.0
199.989182 92.0
200.049011 236.0
200.106613 1300.0
200.144028 56.0
200.187225 116.0
200.210693 124.0
200.2285 208.0
200.251038 128.0
200.29892 168.0
200.332718 116.0
200.359116 172.0
200.40033 96.0
200.459503 48.0
200.527145 84.0
200.699982 96.0
200.724487 128.0
200.846039 192.0
200.864822 84.0
200.952957 136.0
201.040421 180.0
201.089844 1232.0
201.209778 96.0
201.319901 120.0
201.357574 140.0
201.404633 144.0
201.483719 96.0
201.545883 160.0
201.61087 120.0
201.718567 196.0
201.746246 188.0
201.771988 164.0
201.842682 200.0
201.89827 152.0
201.928802 176.0
201.964279 180.0
202.001053 196.0
202.034119 232.0
202.0867 17236.0
202.16597 112.0
202.218933 96.0
202.259369 84.0
202.314301 140.0
202.350128 240.0
202.375473 120.0
202.479401 52.0
202.507721 84.0
202.53038 204.0
202.563507 168.0
202.609695 104.0
202.629532 64.0
202.671066 148.0
202.708542 72.0
202.780853 192.0
202.822571 200.0
202.856247 148.0
202.915771 84.0
202.954163 136.0
202.992554 320.0
203.018188 168.0
203.046219 156.0
203.094238 29052.0
203.182846 248.0
203.215149 124.0
203.240616 92.0
203.266785 80.0
203.332413 312.0
203.402267 256.0
203.475403 84.0
203.493256 104.0
203.520798 152.0
203.557022 56.0
203.576904 56.0
203.612411 128.0
203.633713 108.0
203.676086 148.0
203.734879 84.0
203.802094 168.0
203.853256 192.0
203.896347 160.0
204.022293 284.0
204.098373 4284.0
204.214966 180.0
204.241226 232.0
204.276093 184.0
204.310226 108.0
204.346252 160.0
204.401276 100.0
204.422165 176.0
204.464676 76.0
204.49234 44.0
204.537888 168.0
204.561157 68.0
204.586273 116.0
204.62413 124.0
204.643219 104.0
204.668839 128.0
204.688766 164.0
204.721359 144.0
204.754181 120.0
204.761826 116.0
204.775345 80.0
204.784058 148.0
204.871048 176.0
204.89743 124.0
204.920273 216.0
204.950378 172.0
205.013519 144.0
205.044861 188.0
205.103912 8220.0
205.181061 72.0
205.232376 128.0
205.267227 212.0
205.389862 52.0
205.412674 68.0
205.444061 92.0
205.463318 48.0
205.508423 56.0
205.581924 112.0
205.611603 128.0
205.63736 124.0
205.705017 172.0
205.725006 188.0
205.746353 140.0
205.769394 244.0
205.837921 80.0
205.915039 96.0
205.970276 152.0
205.993881 132.0
206.06929 88.0
206.110062 1464.0
206.175018 120.0
206.195023 68.0
206.215027 64.0
206.249329 148.0
206.272186 200.0
206.386551 184.0
206.496216 172.0
206.518097 212.0
206.641098 104.0
206.678299 172.0
206.700043 100.0
206.867188 200.0
206.898682 124.0
206.984573 76.0
207.021805 124.0
207.082642 132.0
207.114761 148.0
207.176468 96.0
207.322601 76.0
207.351257 208.0
207.425781 112.0
207.445847 156.0
207.48024 112.0
207.545044 120.0
207.586334 40.0
207.623611 44.0
207.672363 68.0
207.70755 120.0
207.786194 264.0
207.867447 172.0
208.1138 296.0
208.169708 204.0
208.236832 192.0
208.39624 176.0
208.438889 428.0
208.484863 152.0
208.519348 192.0
208.548096 60.0
208.637207 192.0
208.671707 148.0
208.732086 176.0
208.806854 188.0
208.88739 240.0
208.939163 32.0
209.051376 156.0
209.160751 136.0
209.226959 104.0
209.255753 128.0
209.279465 220.0
209.310455 244.0
209.408371 52.0
209.451569 352.0
209.588928 136.0
209.788727 88.0
209.819885 172.0
209.895401 148.0
210.045364 132.0
210.123322 164.0
210.192505 120.0
210.227127 188.0
210.316605 152.0
210.377228 172.0
210.420532 168.0
210.440735 176.0
210.46312 64.0
210.498489 188.0
210.547577 68.0
210.59729 264.0
210.645782 192.0
210.845139 148.0
211.024078 160.0
211.093765 336.0
211.278152 160.0
211.359879 148.0
211.64064 112.0
211.718826 128.0
211.837585 128.0
212.034607 176.0
212.072296 216.0
212.179855 188.0
212.223038 36.0
212.254929 160.0
212.362228 52.0
212.411545 144.0
212.46666 140.0
212.51535 240.0
212.559509 160.0
212.63205 84.0
212.672684 80.0
212.759399 124.0
212.852676 88.0
212.952438 148.0
213.056 152.0
213.157684 140.0
213.224518 156.0
213.250687 88.0
213.288467 148.0
213.320435 168.0
213.369858 112.0
213.422195 132.0
213.448227 164.0
213.497803 140.0
213.567596 156.0
213.625778 56.0
213.657776 172.0
213.802139 196.0
213.919693 172.0
214.041977 144.0
214.103119 160.0
214.195328 164.0
214.260422 72.0
214.31868 172.0
214.341995 136.0
214.368225 96.0
214.452744 108.0
214.549667 396.0
214.579742 268.0
214.656128 204.0
214.758881 112.0
214.814301 108.0
214.917892 160.0
214.977692 76.0
215.001038 160.0
215.085678 168.0
215.138229 152.0
215.179092 232.0
215.259857 164.0
215.292969 128.0
215.316345 188.0
215.405396 204.0
215.49765 176.0
215.599716 128.0
215.666885 216.0
215.716629 112.0
215.788315 116.0
215.818954 92.0
215.890594 232.0
215.998016 140.0
216.020752 188.0
216.061676 272.0
216.102722 16520.0
216.16954 192.0
216.205612 136.0
216.248016 144.0
216.304596 104.0
216.342651 92.0
216.369003 72.0
216.394592 92.0
216.451981 100.0
216.477341 56.0
216.497833 180.0
216.56813 140.0
216.615692 216.0
216.65683 144.0
216.735107 104.0
216.784927 140.0
216.814224 192.0
216.862686 180.0
216.893158 116.0
216.916214 136.0
216.950745 104.0
216.995544 56.0
217.06604 116.0
217.070557 200.0
217.106445 4940.0
217.166168 208.0
217.220703 120.0
217.282333 112.0
217.309998 300.0
217.331909 104.0
217.354691 40.0
217.41188 172.0
217.421753 232.0
217.475616 204.0
217.504532 224.0
217.578598 136.0
217.622787 244.0
217.654282 120.0
217.689392 148.0
217.710724 272.0
217.728012 160.0
217.740707 376.0
217.76442 196.0
217.798981 388.0
217.858429 164.0
217.870789 188.0
217.877838 108.0
217.908249 248.0
217.955231 212.0
217.960922 316.0
217.98674 504.0
218.027313 496.0
218.040131 216.0
218.073135 612.0
218.077576 772.0
218.119156 290308.0
218.222 200.0
218.257446 160.0
218.302048 332.0
218.32132 100.0
218.342392 308.0
218.370255 168.0
218.415878 120.0
218.442078 264.0
218.469849 184.0
218.500687 208.0
218.53949 196.0
218.570801 216.0
218.603134 2264.0
218.667404 292.0
218.732651 124.0
218.768707 244.0
218.810333 68.0
218.851257 132.0
218.876099 124.0
218.905014 120.0
218.932953 120.0
218.970154 176.0
218.989441 180.0
219.048294 132.0
219.079346 260.0
219.121277 43888.0
219.215851 104.0
219.241089 212.0
219.271927 124.0
219.316132 164.0
219.344269 288.0
219.387054 172.0
219.422104 236.0
219.464676 80.0
219.485397 196.0
219.522125 128.0
219.558914 100.0
219.607773 120.0
219.630875 236.0
219.664932 88.0
219.677338 48.0
219.708725 144.0
219.727341 280.0
219.760452 52.0
219.794098 108.0
219.831497 36.0
219.865829 176.0
219.896576 156.0
219.925934 52.0
219.958405 112.0
220.00087 92.0
220.048935 264.0
220.122879 4148.0
220.185455 104.0
220.219696 140.0
220.26683 88.0
220.279404 160.0
220.333267 92.0
220.341858 136.0
220.372925 164.0
220.392075 136.0
220.412537 208.0
220.469223 88.0
220.533096 332.0
220.56369 120.0
220.610794 100.0
220.637741 268.0
220.674744 120.0
220.727249 236.0
220.767242 288.0
220.81723 252.0
220.86058 196.0
220.897949 212.0
220.963165 72.0
220.9841 52.0
221.010498 124.0
221.078568 100.0
221.109314 72.0
221.13652 496.0
221.161438 48.0
221.270966 108.0
221.325577 116.0
221.395111 108.0
221.454559 116.0
221.506119 148.0
221.545197 48.0
221.573044 68.0
221.604218 92.0
221.638229 72.0
221.664902 48.0
221.743851 56.0
221.764771 120.0
221.79126 44.0
221.814911 52.0
221.843872 100.0
221.877975 64.0
221.919815 40.0
221.946487 120.0
222.0755 112.0
222.100708 32.0
222.127411 52.0
222.154099 112.0
222.257935 48.0
222.332123 60.0
222.43898 96.0
222.496796 92.0
222.560699 88.0
222.643845 116.0
222.685425 108.0
222.735916 60.0
222.774536 80.0
222.874466 132.0
222.937943 76.0
222.964691 36.0
223.125214 100.0
223.20549 96.0
223.363708 60.0
223.815475 32.0
224.13121 68.0
224.190811 104.0
224.229553 72.0
224.363678 132.0
224.390518 68.0
224.55452 44.0
224.843918 96.0
224.90361 164.0
225.070786 108.0
225.405334 48.0
225.459122 60.0
225.50502 68.0
225.632492 88.0
225.68631 64.0
225.814896 76.0
226.407471 36.0
226.641129 80.0
226.787979 60.0
227.066803 128.0
227.318802 84.0
227.369827 76.0
227.772156 88.0
227.796173 60.0
227.985474 84.0
228.08165 100.0
228.123734 84.0
228.192871 76.0
228.355255 84.0
228.409393 48.0
228.607971 136.0
228.687119 80.0
228.752441 80.0
228.863831 76.0
229.484512 80.0
229.777069 40.0
230.069809 60.0
230.106033 96.0
230.217957 116.0
230.241913 120.0
230.266068 120.0
230.371796 104.0
230.409454 180.0
230.556107 68.0
230.797928 48.0
231.067688 584.0
231.330399 104.0
231.369766 40.0
231.584763 32.0
231.612015 68.0
231.93927 108.0
232.070404 148.0
232.142395 56.0
232.564102 144.0
232.928467 36.0
232.965744 44.0
233.037827 96.0
233.183701 132.0
233.41777 124.0
233.734131 44.0
233.807159 48.0
233.851715 100.0
233.889343 40.0
234.434509 140.0
234.464981 112.0
234.843033 64.0
234.89183 92.0
234.968109 100.0
235.062683 60.0
235.288559 32.0
235.389313 44.0
235.590897 108.0
235.826172 36.0
235.905655 64.0
235.96373 36.0
236.018768 144.0
236.043228 68.0
236.303223 32.0
236.474579 64.0
236.557236 40.0
236.701126 88.0
238.108719 60.0
238.342178 108.0
238.984802 72.0
239.098663 80.0
239.209473 132.0
239.474274 56.0
240.315842 88.0
241.260895 88.0
241.409317 52.0
241.994125 56.0
242.601349 56.0
242.650955 76.0
243.100708 108.0
243.218658 112.0
243.429764 124.0
243.892685 88.0
244.113419 104.0
244.723297 40.0
244.810471 100.0
245.080811 292.0
245.153152 68.0
245.605225 32.0
245.645767 68.0
245.670731 48.0
245.717514 128.0
246.079559 168.0
246.110153 160.0
246.142014 80.0
246.223206 48.0
246.501236 64.0
246.854462 116.0
247.110947 148.0
247.351929 60.0
247.643112 120.0
248.122559 156.0
248.304428 76.0
248.79393 56.0
249.098526 100.0
250.11734 196.0
250.160019 136.0
250.923798 116.0
251.100372 160.0
251.311737 124.0
251.478989 156.0
251.864197 116.0
252.360352 52.0
252.894958 48.0
253.12291 100.0
255.248932 80.0
256.073151 80.0
256.521118 132.0
257.039093 32.0
257.150787 144.0
257.332764 100.0
257.399811 76.0
258.089996 36.0
258.189117 32.0
258.291473 84.0
258.601837 100.0
259.325684 80.0
259.524445 56.0
259.906128 72.0
259.970306 72.0
260.38443 60.0
260.496857 84.0
261.020721 56.0
262.33432 104.0
265.032959 92.0
265.113983 108.0
266.220184 80.0
266.311127 52.0
267.127014 204.0
268.201538 40.0
268.912598 80.0
269.602417 72.0
270.029968 100.0
271.828491 152.0
272.646179 64.0
272.97821 68.0
273.089386 228.0
274.552338 88.0
276.749786 88.0
279.042419 200.0
279.102264 120.0
279.511383 76.0
279.604584 212.0
279.777649 104.0
281.004089 140.0
281.114227 120.0
281.137573 100.0
282.143829 200.0
282.942535 120.0
285.22702 68.0
286.360901 144.0
286.451843 152.0
288.108215 144.0
288.775238 80.0
290.898621 168.0
290.949554 92.0
291.15329 80.0
292.690338 36.0
292.894684 116.0
293.013916 100.0
293.187683 88.0
295.277039 52.0
295.684174 72.0
296.125824 72.0
296.153229 104.0
296.872925 80.0
297.174805 132.0
297.305176 100.0
299.719177 180.0
302.856018 132.0
303.382721 56.0
306.507263 132.0
308.206543 76.0
309.110504 108.0
309.283691 120.0
309.92807 128.0
310.077362 120.0
310.50824 40.0
312.107788 60.0
312.48764 40.0
313.006317 144.0
313.149445 72.0
313.477081 76.0
314.154022 72.0
316.568054 88.0
316.915192 92.0
317.017944 44.0
317.47171 100.0
318.160034 56.0
318.596863 108.0
318.842041 120.0
320.496735 232.0
321.430939 32.0
322.14502 44.0
324.044678 100.0
324.158691 1236.0
324.227417 196.0
324.291931 68.0
324.385132 96.0
324.582306 80.0
324.68988 60.0
325.163513 632.0
325.213715 156.0
326.007416 84.0
326.273407 112.0
326.298553 84.0
326.363281 104.0
326.967621 32.0
327.403229 112.0
330.182098 120.0
331.043396 80.0
331.213623 92.0
332.206848 152.0
332.362854 96.0
333.56131 120.0
334.783813 36.0
335.078827 116.0
335.282898 84.0
335.782349 44.0
336.001221 72.0
336.395355 188.0
336.639984 36.0
338.464661 100.0
338.669739 168.0
338.77597 84.0
338.890656 156.0
339.274353 72.0
339.857513 68.0
340.637573 100.0
341.705597 64.0
342.777069 44.0
342.994507 88.0
344.544678 52.0
345.283661 88.0
345.716492 60.0
346.238464 48.0
348.701935 68.0
349.062531 84.0
350.178986 76.0
350.909332 144.0
351.13681 44.0
352.585358 168.0
353.101288 120.0
353.17984 140.0
353.598877 72.0
353.76358 36.0
356.257355 48.0
356.313721 80.0
357.148224 68.0
358.134369 104.0
358.330261 88.0
358.756134 84.0
360.148529 112.0
360.378967 124.0
360.59436 64.0
362.615417 144.0
363.136536 116.0
363.164551 240.0
363.28656 36.0
363.719147 56.0
363.749512 148.0
364.170227 60.0
365.170563 208.0
365.220001 124.0
366.144867 132.0
366.533417 52.0
366.643951 80.0
367.658356 72.0
369.542206 88.0
370.533813 56.0
371.649506 40.0
372.002594 48.0
372.467224 176.0
372.928314 96.0
373.531982 84.0
374.047607 36.0
374.132294 160.0
375.072235 60.0
375.74707 116.0
376.202454 64.0
377.415588 64.0
378.212524 72.0
378.410095 112.0
378.491272 132.0
378.719757 76.0
379.168915 1132.0
379.603363 36.0
379.646027 80.0
379.696442 64.0
380.170044 252.0
380.534607 72.0
380.930725 148.0
381.058929 172.0
381.181702 7908.0
381.354248 28.0
381.46698 48.0
381.523712 148.0
381.817383 128.0
381.85968 60.0
382.185211 1548.0
382.37326 188.0
382.439423 88.0
382.598999 60.0
383.074097 112.0
383.12085 44.0
383.192657 628.0
383.226044 144.0
383.288391 52.0
383.33905 68.0
383.717133 104.0
383.876984 76.0
384.372406 56.0
384.407501 40.0
384.602661 76.0
384.69632 76.0
384.762695 112.0
384.934509 72.0
385.176636 64.0
385.575165 96.0
386.05603 140.0
386.232025 112.0
386.619354 64.0
386.908997 48.0
389.38324 56.0
395.043427 60.0
395.411407 36.0
395.90625 84.0
396.322174 88.0
397.039673 56.0
397.595093 36.0
398.432892 44.0
399.211945 72.0
399.259674 120.0
400.031555 132.0
400.744415 28.0
401.701233 132.0
404.922821 88.0
408.096985 100.0
408.422729 80.0
408.949799 84.0
409.908295 108.0
412.398315 84.0
415.516357 132.0
416.661255 144.0
418.747986 72.0
419.477325 100.0
420.182831 132.0
425.573059 60.0
426.090576 116.0
426.472717 104.0
427.126495 84.0
427.171753 116.0
430.217072 96.0
431.659027 56.0
432.060211 80.0
433.21521 48.0
433.724915 56.0
435.783264 76.0
436.049194 76.0
437.359344 104.0
437.696564 96.0
438.046387 72.0
438.475555 36.0
440.006409 68.0
444.212189 80.0
444.285431 104.0
444.71991 76.0
445.068329 64.0
445.858063 32.0
446.728424 100.0
447.191284 96.0
447.747009 72.0
448.534912 84.0
449.538696 72.0
451.930298 60.0
453.675201 48.0
454.154358 116.0
456.188293 68.0
456.392365 76.0
459.151764 132.0
466.666931 100.0
468.599396 92.0
468.728668 96.0
471.399719 40.0
473.58017 88.0
473.653809 84.0
474.26474 80.0
475.444427 60.0
476.325806 72.0
477.521088 48.0
481.23819 120.0
482.614502 112.0
482.789429 48.0
485.447571 84.0
488.117401 104.0
489.551971 88.0
490.543304 112.0
490.847504 76.0
490.957733 60.0
492.692413 44.0
498.13681 100.0
499.79953 100.0
500.68985 100.0
503.557526 52.0
510.058868 100.0
511.435242 60.0
512.655762 68.0
514.798523 44.0
516.868835 44.0
520.03656 84.0
520.463257 68.0
521.34906 80.0
527.205017 92.0
528.823975 80.0
529.094055 140.0
531.371826 96.0
532.795044 88.0
535.076111 68.0
539.578918 52.0
541.073242 64.0
541.114929 48.0
542.973022 80.0
549.023499 128.0
550.175964 116.0
559.637085 36.0
559.966736 56.0
564.89447 132.0
566.532349 76.0
566.963562 64.0
567.997131 100.0
573.212524 76.0
573.765442 72.0
575.411377 96.0
579.620361 112.0
580.579102 80.0
589.088745 108.0
593.735291 64.0
594.074829 76.0
594.637634 32.0
596.235474 88.0
599.744568 72.0
602.6922 64.0
606.288818 68.0
609.051025 148.0
609.488281 36.0
609.994446 96.0
610.918945 68.0
613.563477 40.0
617.568237 116.0
618.68158 72.0
619.290649 144.0
626.89679 80.0
627.310425 84.0
630.529846 72.0
632.490417 64.0
633.121277 48.0
648.082153 96.0
650.953125 252.0
652.441833 60.0
657.555908 68.0
660.15625 96.0
667.62793 52.0
668.294434 108.0
670.82019 180.0
674.924561 136.0
675.033142 92.0
677.139404 100.0
677.348083 68.0
678.113403 116.0
686.95282 60.0
687.265808 44.0
688.205322 88.0
694.007874 76.0
698.845215 44.0
699.976929 32.0
702.15332 84.0
706.669739 28.0
708.247253 172.0
708.427368 40.0
711.566895 92.0
722.117798 72.0
728.834778 220.0
730.861877 116.0
733.710938 56.0
735.097107 84.0
737.203125 52.0
737.538208 76.0
742.942139 220.0
743.17572 120.0
744.00061 164.0
746.244385 100.0
751.451172 60.0
756.74176 64.0
758.93335 168.0
760.315674 52.0
762.968689 100.0
773.549316 80.0
775.537842 84.0
775.682007 36.0
780.406372 188.0
781.674561 104.0
791.34198 112.0
792.142822 112.0
795.782471 100.0
796.416992 172.0
806.350098 52.0
807.152832 200.0
811.705444 64.0
822.57196 52.0
825.291321 128.0
828.943237 88.0
831.77063 44.0
833.012573 84.0
839.826111 136.0
842.371643 172.0
848.030518 96.0
848.476868 60.0
849.514893 228.0
850.21698 56.0
852.801392 60.0
852.987427 156.0
853.615295 192.0
853.719971 60.0
862.46521 104.0
864.196533 68.0
864.910156 100.0
873.500549 76.0
878.307068 56.0
890.096008 164.0
891.890137 112.0
898.315125 140.0
906.326294 104.0
906.42218 32.0
907.111389 152.0
910.483337 64.0
911.997375 108.0
912.388062 244.0
917.734375 204.0
918.904419 92.0
924.402832 80.0
924.705444 128.0
925.571106 152.0
925.62561 32.0
928.188721 188.0
928.40094 136.0
929.401855 196.0
932.395569 60.0
934.237915 212.0
935.327148 188.0
935.418457 148.0
935.85675 104.0
937.739075 168.0
938.976685 140.0
940.361633 136.0
942.175171 112.0
943.550232 92.0
945.067017 140.0
945.311768 68.0
946.266602 64.0
948.594543 176.0
952.552429 132.0
953.308105 116.0
954.162476 176.0
954.463745 200.0
955.5401 172.0
956.327759 176.0
958.014954 132.0
959.463135 56.0
959.512451 132.0
959.826904 48.0
965.483337 208.0
967.506653 80.0
968.187744 104.0
968.992981 120.0
969.972107 224.0
970.35022 208.0
975.788879 116.0
978.208801 160.0
980.388733 140.0
981.086792 48.0
981.622986 52.0
983.819214 152.0
984.843262 156.0
985.780334 192.0
987.699707 172.0
988.406616 160.0
988.575562 136.0
988.963623 136.0
991.669312 112.0
991.832275 60.0
992.358887 204.0
993.801453 152.0
994.246948 192.0
994.780457 64.0
995.157104 136.0
995.948364 196.0
996.90332 184.0
1000.192566 156.0
1001.609314 140.0
1004.234497 20.0
1007.021057 164.0
1007.235779 132.0
1009.43512 132.0
1009.669128 164.0
1015.565491 72.0
1020.614075 88.0
1021.059204 188.0
1021.478394 128.0
1029.094604 124.0
1031.215332 192.0
1031.541382 144.0
1032.896973 176.0
1033.095215 152.0
1034.2854 228.0
1034.720703 252.0
1035.047241 252.0
1035.796631 112.0
1036.072021 144.0
1037.64856 68.0
1038.636108 240.0
1038.969727 52.0
1039.181396 112.0
1039.239136 92.0
1041.402466 120.0
1041.537354 180.0
1043.040894 236.0
1043.105225 116.0
1048.273315 120.0
1049.749512 172.0
1049.923584 180.0
1052.466064 180.0
1057.262451 128.0
1058.829102 44.0
1059.35376 116.0
1061.797241 148.0
1064.470947 104.0
1064.535889 156.0
1065.575073 224.0
1066.10791 124.0
1068.409668 144.0
1070.186401 204.0
1073.672485 128.0
1074.34436 112.0
1075.094727 64.0
1075.159912 132.0
1075.531982 76.0
1076.779053 164.0
1077.053345 96.0
1078.285645 148.0
1078.405762 220.0
1079.06604 204.0
1079.817993 128.0
1079.922729 76.0
1080.472168 152.0
1080.531006 176.0
1080.681519 248.0
1084.682861 52.0
1086.046631 72.0
1086.112183 112.0
1086.761719 108.0
1087.949585 184.0
1087.995483 196.0
1089.078979 100.0
1092.859009 232.0
1093.234009 156.0
1094.873169 68.0
1095.670166 148.0
1096.88269 160.0
1096.9552 172.0
1097.245361 88.0
1099.349365 172.0
1100.8479 176.0
1104.330688 48.0
1104.906128 76.0
1105.064941 228.0
1106.951294 132.0
1108.282715 152.0
1108.561035 144.0
1108.706787 188.0
1109.164185 148.0
1109.767456 168.0
1110.145386 112.0
1110.244873 248.0
1111.790527 140.0
1113.370483 204.0
1113.51001 232.0
1113.715942 136.0
1114.346924 160.0
1114.685791 168.0
1115.935425 156.0
1116.281128 176.0
1116.853149 148.0
1117.185669 88.0
1117.258911 268.0
1117.511719 108.0
1117.664673 156.0
1118.643066 156.0
1119.575195 156.0
1121.8573 172.0
1122.087158 44.0
1122.727295 140.0
1124.301636 124.0
1126.81897 156.0
1126.892456 124.0
1127.540649 192.0
1127.80127 172.0
1128.041992 148.0
1128.583496 192.0
1129.312378 164.0
1129.439453 116.0
1131.132324 100.0
1132.357666 140.0
1132.525024 172.0
1132.920288 96.0
1134.186768 148.0
1134.267212 176.0
1134.37439 192.0
1134.521851 164.0
1134.850464 204.0
1135.145386 188.0
1135.695312 124.0
1136.486938 192.0
1137.319092 152.0
1137.372803 188.0
1137.473511 184.0
1137.809082 152.0
1140.38855 172.0
1140.744751 208.0
1142.062744 132.0
1142.197266 164.0
1142.681519 40.0
1144.310303 184.0
1146.68811 44.0
1146.735352 88.0
1147.348755 180.0
1148.630005 80.0
1148.744629 168.0
1149.439575 156.0
1150.276367 152.0
1151.349976 136.0
1153.106445 192.0
1156.224243 132.0
1157.083862 216.0
1157.368164 164.0
1157.456177 180.0
1158.499146 196.0
1158.61438 112.0
1158.749878 124.0
1159.190308 168.0
1159.562988 112.0
1160.159424 200.0
1161.27832 140.0
1161.515747 172.0
1162.268677 136.0
1163.36145 52.0
1164.176147 224.0
1164.794189 120.0
1164.902832 128.0
1165.106689 180.0
1167.202881 152.0
1167.567261 108.0
1167.744019 148.0
1167.968506 60.0
1168.043335 208.0
1171.337891 224.0
1171.460449 200.0
1171.549072 156.0
1171.855591 116.0
1172.10083 96.0
1172.530151 160.0
1173.62085 344.0
1173.914062 168.0
1174.043579 160.0
1174.180054 128.0
1174.984863 120.0
1175.244141 212.0
1175.687744 76.0
1176.06311 40.0
1176.820801 188.0
1177.271484 28.0
1177.599243 140.0
1178.494141 196.0
1179.908936 236.0
1180.332275 164.0
1181.276611 156.0
1182.35083 88.0
1183.165283 152.0
1183.891113 164.0
1183.966431 220.0
1185.357056 148.0
1187.605713 180.0
1188.977783 180.0
1189.190552 164.0
1189.40332 76.0
1190.268311 160.0
1190.350708 188.0
1190.769653 200.0
1191.133667 56.0
1192.404785 164.0
1194.591309 152.0
1194.928345 96.0
1196.125732 204.0
1197.199829 160.0
1197.3927 96.0
1197.606201 116.0
1197.654419 184.0
1198.625732 80.0
1198.715332 244.0
1199.052979 120.0
1199.376953 156.0
1200.135254 132.0
1200.68689 152.0
1200.907593 60.0
1201.00415 256.0
1201.687134 44.0
1202.03894 84.0
1203.246826 204.0
1203.764648 164.0
1204.855957 140.0
1205.097778 224.0
1205.940796 200.0
1206.376343 204.0
1208.26416 200.0
1209.018433 140.0
1210.4375 160.0
1210.915283 152.0
1211.9198 116.0
1212.945435 144.0
1213.798218 96.0
1213.853638 60.0
1214.671997 64.0
1214.748291 140.0
1214.831543 140.0
1215.82373 200.0
1217.135742 176.0
1217.8302 132.0
1217.9552 56.0
1218.65686 144.0
1219.671387 168.0
1220.644775 184.0
1220.818604 216.0
1221.082886 160.0
1221.152344 124.0
1221.284546 52.0
1221.562744 96.0
1222.105347 156.0
1222.502075 148.0
1223.727051 196.0
1223.803711 192.0
1223.859375 120.0
1224.172729 36.0
1224.667114 272.0
1225.168701 100.0
1226.053589 144.0
1226.318481 188.0
1227.621948 176.0
1227.789429 240.0
1228.388306 176.0
1228.598511 76.0
1229.456787 348.0
1229.593628 192.0
1229.889526 148.0
1230.266479 168.0
1230.999512 48.0
1231.090332 164.0
1232.005249 212.0
1232.850708 140.0
1233.053345 136.0
1233.50769 136.0
1233.563599 132.0
1234.276733 36.0
1234.549438 188.0
1235.339722 136.0
1235.640625 96.0
1236.431274 180.0
1236.697266 224.0
1236.900269 180.0
1237.026245 188.0
1237.110229 200.0
1237.635254 152.0
1237.740356 204.0
1237.894409 80.0
1237.992432 152.0
1238.132446 32.0
1238.293579 260.0
1240.44458 128.0
1240.556763 104.0
1241.166626 204.0
1241.355957 172.0
1241.426147 188.0
1242.20459 168.0
1242.569458 240.0
1242.96936 148.0
1243.130737 180.0
1243.285156 108.0
1243.97998 156.0
1244.338013 184.0
1244.485474 172.0
1245.503662 128.0
1245.721436 128.0
1246.928467 208.0
1247.012695 200.0
1247.30249 80.0
1247.407959 148.0
1248.258667 140.0
1248.673584 144.0
1248.765015 252.0
1249.123657 136.0
1249.770874 188.0
1250.58728 284.0
1250.671753 108.0
1250.946167 224.0
1251.178467 208.0
1251.446045 56.0
1251.903687 156.0
1252.509399 152.0
1253.31958 176.0
1253.686035 164.0
1253.862183 164.0
1254.468384 152.0
1255.131104 220.0
1255.279175 44.0
1255.37085 144.0
1255.561157 168.0
1255.617676 208.0
1256.485229 132.0
1257.243896 200.0
1257.324951 60.0
1257.536621 140.0
1257.727173 120.0
1258.927368 52.0
1258.990967 132.0
1259.054565 156.0
1259.730103 200.0
1259.873901 148.0
1260.30481 172.0
1260.75 148.0
1261.407227 156.0
1262.397095 168.0
1263.033569 120.0
1263.26001 160.0
1263.351929 176.0
1263.521729 224.0
1263.684448 108.0
1264.646851 132.0
1265.453857 156.0
1265.574219 212.0
1266.056152 132.0
1266.566772 124.0
1268.556763 168.0
1268.620605 160.0
1269.060059 168.0
1269.606079 176.0
1270.024536 124.0
1270.109619 172.0
1270.159302 192.0
1271.195068 212.0
1271.840942 156.0
1272.018433 160.0
1272.415894 216.0
1272.9198 204.0
1273.402954 120.0
1273.9104 120.0
1274.468506 120.0
1274.852173 204.0
1276.738159 200.0
1277.674927 156.0
1278.571533 140.0
1278.877563 164.0
1279.069702 192.0
1280.358398 208.0
1280.44873 204.0
1280.678833 104.0
1281.106201 172.0
1281.248779 208.0
1282.738037 220.0
1283.600708 172.0
1284.271118 156.0
1284.333008 188.0
1285.234131 128.0
1285.590942 148.0
1285.662354 160.0
1285.962036 108.0
1286.135132 180.0
1286.511719 108.0
1286.85437 172.0
1287.51123 160.0
1287.739868 160.0
1289.097168 68.0
1289.218628 56.0
1289.554565 204.0
1289.861938 40.0
1290.877075 180.0
1290.955811 92.0
1293.307129 172.0
1293.817749 60.0
1294.634033 128.0
1294.870361 104.0
1295.328735 176.0
1296.783203 140.0
1297.313599 176.0
1297.478516 148.0
1298.16687 176.0
1298.468018 76.0
1299.551147 124.0
1301.826538 64.0
1302.049194 152.0
1302.580688 128.0
1303.141113 116.0
1303.255981 116.0
1303.342285 168.0
1303.485962 100.0
1304.305176 196.0
1304.647583 168.0
1304.786865 168.0
1306.063354 256.0
1306.642334 164.0
1307.736084 136.0
1307.808105 144.0
1308.067139 140.0
1308.51355 120.0
1309.384766 60.0
1309.5 60.0
1309.975464 128.0
1310.155518 152.0
1311.027344 120.0
1311.394897 188.0
1311.63269 76.0
1312.332031 72.0
1312.822388 208.0
1313.182983 108.0
1313.363281 192.0
1314.22168 112.0
1314.322754 80.0
1314.603271 204.0
1315.535156 224.0
1315.758911 256.0
1315.826904 196.0
1316.249878 216.0
1316.748169 216.0
1317.196045 136.0
1317.860596 152.0
1318.749512 172.0
1318.886841 148.0
1319.479614 176.0
1320.130249 176.0
1320.195435 208.0
1320.282227 116.0
1321.273071 168.0
1321.446777 196.0
1321.540771 124.0
1321.72168 88.0
1322.952026 164.0
1323.240356 132.0
1323.820923 152.0
1324.545166 180.0
1324.88562 136.0
1325.142334 172.0
1325.370972 48.0
1325.71875 148.0
1325.812988 148.0
1325.936157 208.0
1326.015991 100.0
1326.189819 76.0
1326.356567 140.0
1326.675537 104.0
1327.059814 140.0
1327.328003 252.0
1327.552856 144.0
1327.61084 160.0
1327.784912 116.0
1327.857422 200.0
1328.031494 160.0
1328.512939 192.0
1329.809082 208.0
1330.088257 204.0
1330.250366 120.0
1330.543579 204.0
1330.716431 108.0
1332.061279 188.0
1332.328735 172.0
1332.427124 160.0
1332.539429 164.0
1333.295044 196.0
1333.665771 156.0
1333.84021 192.0
1334.312744 44.0
1334.916138 156.0
1335.919922 168.0
1336.472778 124.0
1336.676514 60.0
1337.193237 144.0
1338.015747 172.0
1338.671021 252.0
1338.976929 196.0
1339.712524 208.0
1340.21521 100.0
1340.615967 116.0
1340.900269 108.0
1341.359375 96.0
1342.197754 140.0
1342.409302 200.0
1342.569336 152.0
1343.233398 204.0
1343.320923 60.0
1343.415771 156.0
1344.009888 224.0
1344.218262 212.0
1344.276733 124.0
1344.335083 200.0
1344.459106 148.0
1345.094116 172.0
1346.693848 188.0
1346.919556 148.0
1346.992554 124.0
1348.256592 124.0
1348.893555 128.0
1349.053223 224.0
1349.338379 100.0
1349.433472 40.0
1349.813599 128.0
1350.512817 180.0
1350.983887 184.0
1351.554443 152.0
1351.656982 180.0
1352.181885 164.0
1352.202637 120.0
1352.564453 136.0
1353.062134 188.0
1353.713867 164.0
1353.765137 132.0
1354.094604 120.0
1355.486572 252.0
1355.801636 144.0
1355.955566 204.0
1356.080078 108.0
1356.21936 196.0
1356.395264 172.0
1356.556519 156.0
1357.2677 172.0
1357.436401 180.0
1357.539062 284.0
1357.649048 168.0
1357.795654 132.0
1357.935059 216.0
1358.015747 96.0
1358.338379 160.0
1358.712524 152.0
1359.717773 128.0
1359.842529 200.0
1360.194824 160.0
1360.275635 76.0
1360.327026 96.0
1361.171265 140.0
1361.736816 140.0
1362.356812 268.0
1362.845947 116.0
1362.904785 124.0
1363.011597 128.0
1363.286865 176.0
1363.338257 188.0
1363.633423 108.0
1364.05127 136.0
1364.573242 188.0
1365.146729 156.0
1365.970459 124.0
1366.463257 132.0
1366.735596 160.0
1366.831177 160.0
1367.169678 228.0
1367.390503 52.0
1367.574463 168.0
1367.854126 152.0
1368.244263 120.0
1368.435791 120.0
1368.583008 192.0
1368.759766 160.0
1369.032104 176.0
1369.960205 144.0
1370.019165 52.0
1370.365356 132.0
1370.586426 164.0
1370.755859 188.0
1370.991699 164.0
1371.175903 216.0
1371.404419 288.0
1372.370117 112.0
1372.473389 168.0
1372.539673 120.0
1372.893677 192.0
1373.012695 164.0
1373.181274 196.0
1374.24353 148.0
1374.398438 128.0
1374.706299 188.0
1376.553833 184.0
1377.115112 148.0
1377.33667 120.0
1377.513916 32.0
1377.824219 184.0
1378.067993 108.0
1379.050781 40.0
1379.40564 244.0
1379.619995 32.0
1379.834351 144.0
1380.211426 172.0
1380.2854 164.0
1380.706909 56.0
1381.535278 180.0
1381.769409 180.0
1382.201172 196.0
1382.474976 96.0
1382.77832 208.0
1382.874512 128.0
1383.025757 76.0
1383.592529 180.0
1384.451416 168.0
1385.584717 124.0
1385.910767 132.0
1386.103394 116.0
1386.192261 48.0
1386.273804 108.0
1386.799927 68.0
1387.222534 176.0
1387.333618 160.0
1387.600586 184.0
1388.201172 152.0
1388.542236 124.0
1388.675781 212.0
1389.194946 220.0
1389.451904 172.0
1389.543701 156.0
1389.595581 252.0
1390.530518 160.0
1391.013062 172.0
1391.391602 116.0
1391.644043 140.0
1392.096924 172.0
1392.446411 160.0
1392.751465 212.0
1393.225952 84.0
1393.543579 184.0
1393.716309 48.0
1393.909424 236.0
1393.961426 48.0
1394.310791 144.0
1394.422241 144.0
1394.823608 152.0
1395.299316 136.0
1395.55957 156.0
1395.894165 132.0
1395.998291 132.0
1396.19165 168.0
1396.821411 328.0
1397.366821 168.0
1398.148193 180.0
1398.386353 92.0
1398.669189 148.0
1398.862671 136.0
1399.056274 212.0
1399.286987 92.0
1399.589722 184.0
1399.919922 132.0
1400.106079 188.0
1400.381592 56.0
1400.494873 192.0
1401.006714 184.0
1401.227539 184.0
1401.32019 148.0
1401.841797 128.0
1401.946167 200.0
1402.005737 148.0
1402.706299 152.0
1402.922485 84.0
1403.802246 148.0
1404.227417 120.0
1404.548096 208.0
1404.682373 144.0
1404.878662 160.0
1405.271729 48.0
1405.585083 140.0
1406.481689 172.0
1407.01062 232.0
1407.391357 140.0
1408.19043 144.0
1408.444336 184.0
1408.661011 92.0
1408.787964 140.0
1409.266113 176.0
1409.639648 136.0
1409.751831 260.0
1410.07312 140.0
1410.566406 128.0
1411.127075 144.0
1411.224365 232.0
1411.500977 172.0
1412.12915 208.0
1412.41333 148.0
1413.191406 144.0
1413.890137 220.0
1414.276489 132.0
1414.762939 56.0
1415.391846 124.0
1415.68396 180.0
1415.788818 112.0
1416.178223 172.0
1416.837402 148.0
1417.039673 240.0
1417.189453 216.0
1417.489258 108.0
1417.579102 28.0
1417.878906 116.0
1418.223633 40.0
1418.381104 192.0
1418.733398 156.0
1419.153809 140.0
1419.265625 164.0
1420.105591 136.0
1420.810669 60.0
1420.863159 172.0
1421.341187 180.0
1421.635986 188.0
1422.273926 108.0
1422.499146 216.0
1422.754395 156.0
1422.957031 156.0
1423.107178 216.0
1425.172729 188.0
1425.540894 200.0
1425.668579 132.0
1425.833984 188.0
1426.239746 112.0
1426.427734 120.0
1426.539062 136.0
1426.88623 124.0
1427.014038 184.0
1427.081787 152.0
1427.397583 164.0
1427.796143 300.0
1427.893921 168.0
1428.149536 152.0
1428.668579 120.0
1428.983887 236.0
1429.285522 136.0
1429.443604 172.0
1429.642456 128.0
1429.819824 192.0
1430.63269 184.0
1430.771973 152.0
1431.069336 192.0
1431.137085 136.0
1432.093506 152.0
1432.552979 128.0
1432.952271 144.0
1433.634399 172.0
1433.796143 180.0
1434.105225 188.0
1434.369019 224.0
1434.57251 148.0
1434.941895 108.0
1435.113525 216.0
1435.266113 152.0
1435.748779 200.0
1436.105469 176.0
1436.736816 92.0
1436.880127 148.0
1437.07605 136.0
1437.438477 116.0
1437.800659 176.0
1437.974243 144.0
1438.713989 176.0
1439.514282 64.0
1440.141602 140.0
1440.202271 224.0
1440.926758 112.0
1441.009888 208.0
1441.138306 180.0
1441.28186 136.0
1441.410278 96.0
1441.561401 228.0
1442.158447 144.0
1442.316162 148.0
1443.027832 128.0
1443.186523 172.0
1444.166016 56.0
1444.298218 112.0
1444.449463 76.0
1444.963867 292.0
1445.084961 96.0
1445.327637 208.0
1445.440552 140.0
1445.49353 180.0
1445.781128 144.0
1446.008179 132.0
1446.288208 220.0
1446.537964 172.0
1446.878174 188.0
1447.226929 160.0
1447.287476 136.0
1447.431274 168.0
1447.5979 124.0
1447.666016 152.0
1449.05957 180.0
1449.726562 196.0
1450.082764 60.0
1450.158447 88.0
1450.870972 152.0
1450.977173 160.0
1451.136353 84.0
1451.287964 196.0
1451.424438 140.0
1451.780884 128.0
1452.167603 144.0
1452.24353 88.0
1452.945312 196.0
1453.032349 160.0
1453.100708 172.0
1453.252441 144.0
1453.381348 204.0
1453.586304 216.0
1453.783569 100.0
1453.905029 40.0
1453.980835 124.0
1454.436279 224.0
1454.61084 68.0
1455.233398 184.0
1455.544678 184.0
1456.000244 116.0
1456.239258 168.0
1456.349609 144.0
1457.208008 212.0
1457.785522 128.0
1459.260132 152.0
1459.465332 160.0
1460.527466 192.0
1460.636475 160.0
1460.773438 192.0
1461.001587 160.0
1461.100586 196.0
1461.488525 160.0
1461.70166 160.0
1463.437012 152.0
1463.665405 160.0
1463.787231 184.0
1463.916748 144.0
1464.053833 112.0
1464.206055 120.0
1464.43457 164.0
1464.663086 128.0
1464.89917 256.0
1465.407593 176.0
1465.912476 176.0
1466.095459 196.0
1466.316406 200.0
1466.766113 272.0
1467.612305 192.0
1467.734253 172.0
1467.977905 164.0
1468.039307 120.0
1468.596069 116.0
1468.901123 156.0
1469.114746 160.0
1469.648804 88.0
1469.946411 220.0
1470.036255 180.0
1470.282104 132.0
1470.671387 140.0
1471.007935 200.0
1471.77832 144.0
1471.86377 104.0
1472.343384 68.0
1472.671753 132.0
1472.87793 32.0
1472.989136 204.0
1473.504395 112.0
1473.611328 164.0
1474.619995 124.0
1474.780518 136.0
1474.94104 164.0
1475.59082 120.0
1475.8125 88.0
1476.026611 208.0
1476.179565 92.0
1476.570801 128.0
1476.814331 212.0
1476.906128 116.0
1477.013184 124.0
1478.413208 180.0
1479.109741 136.0
1479.400635 92.0
1479.645508 52.0
1480.120239 136.0
1480.281006 204.0
1480.526123 176.0
1480.985596 64.0
1481.039185 168.0
1481.927856 96.0
1482.081055 212.0
1482.372314 152.0
1482.974609 180.0
1483.391602 96.0
1483.659912 188.0
1483.828613 124.0
1484.280884 128.0
1484.411255 100.0
1484.587646 164.0
1485.316284 112.0
1485.385254 88.0
1485.960693 156.0
1486.244507 76.0
1486.950439 164.0
1487.60083 160.0
1488.087646 168.0
1488.247803 60.0
1488.316895 188.0
1488.424438 172.0
1488.478149 192.0
1488.543335 180.0
1488.641724 156.0
1489.223022 112.0
1489.484253 308.0
1489.645508 164.0
1489.768433 200.0
1489.854492 192.0
1490.260132 136.0
1490.359985 40.0
1490.467529 152.0
1490.598145 136.0
1490.797974 156.0
1491.020874 132.0
1491.535767 116.0
1491.881714 140.0
1492.434326 160.0
1492.627441 204.0
1492.742798 212.0
1492.850464 68.0
1493.111938 64.0
1493.557983 160.0
1493.611816 128.0
1493.927246 144.0
1494.019531 52.0
1494.242676 252.0
1494.525391 172.0
1494.611938 108.0
1495.019775 108.0
1495.758667 208.0
1496.182007 144.0
1496.312866 124.0
1497.853027 124.0
1497.906982 192.0
1497.968628 136.0
1498.207397 116.0
1498.307495 212.0
1498.392334 128.0
1498.500122 148.0
1498.670288 144.0
1499.155029 104.0
1499.391357 168.0
1499.702271 128.0
1500.01062 112.0
1500.37085 392.0
1500.573364 168.0
1501.537231 164.0
1501.598877 156.0
1501.692261 180.0
1501.82251 176.0
1501.922852 164.0
1502.069336 152.0
1502.223633 192.0
1502.339355 168.0
1503.064575 136.0
1503.774536 144.0
1503.936646 112.0
