>compound MLS001333570-01!55297-96-6
>formula C28H47NO4S
>ionization [M+H]+
>parentmass 494.328186
#inchi InChI=1S/C28H47NO4S/c1-8-26(6)17-22(33-23(31)18-34-16-15-29(9-2)10-3)27(7)19(4)11-13-28(20(5)25(26)32)14-12-21(30)24(27)28/h8,19-20,22,24-25,32H,1,9-18H2,2-7H3/t19?,20-,22+,24-,25-,26+,27-,28-/m0/s1
#inchikey UURAUHCOJAIIRQ
#origInchi InChI=1S/C28H47NO4S.C4H4O4/c1-8-26(6)17-22(33-23(31)18-34-16-15-29(9-2)10-3)27(7)19(4)11-13-28(20(5)25(26)32)14-12-21(30)24(27)28;5-3(6)1-2-4(7)8/h8,19-20,22,24-25,32H,1,9-18H2,2-7H3;1-2H,(H,5,6)(H,7,8)/b;2-1+/t19?,20-,22+,24-,25-,26+,27-,28-;/m0./s1
#Ion_Source LC-ESI
#Instrument qTof
#Compound_Source NIH Pharmacologically Active Library
#PI Dorrestein
#Data_Collector VP/LMS
#Scan -1
#Precursor_MZ 494.322
#ExactMass 493.323
#Charge 1
#CAS_Number N/A
#Pubmed_ID N/A
#Smiles CCN(CC)CCSCC(=O)O[C@@H]1C[C@@](C)(C=C)[C@@H](O)[C@H](C)[C@@]2(CCC(=O)[C@H]23)CCC(C)[C@]31C.OC(=O)/C=C/C(=O)O
#INCHI_AUX N/A
#Library_Class 1
#SpectrumID CCMSLIB00000085378
#IonMode Positive
#UpdateWorkflowName UPDATE-SINGLE-ANNOTATED-GOLD
#LibraryQualityString Gold
#TaskID d252d724072548979f1f6f1ced849daf
##Scan# 1784
#SpectrumFile p3-H11_GH11_01_18316.mzXML
#LibraryName Pharm_Active_Library.mgf
#MQScore -1
#Organism Pharm_Active_Library
#TIC_Query 0
#RT_Query -1
#MZErrorPPM -1
#SharedPeaks 0
#MassDiff 0
#LibMZ -1
#SpecMZ 494.322
#SpecCharge 0
#internalFilename spec-00000.mgf

>collision 10
44.894768 60.0
44.914402 156.0
44.956139 168.0
44.971436 168.0
44.996387 132.0
45.025562 184.0
45.035358 156.0
45.05228 236.0
45.073372 220.0
45.095074 176.0
45.106785 380.0
45.138306 144.0
45.152565 176.0
45.165218 180.0
45.184639 248.0
45.194008 192.0
45.206409 164.0
45.215981 76.0
45.247807 164.0
45.260406 232.0
45.286381 212.0
45.311836 172.0
45.342499 136.0
45.360085 128.0
45.395348 80.0
45.406601 148.0
45.432503 180.0
45.445919 152.0
45.468735 88.0
45.506393 208.0
45.528988 332.0
45.54483 184.0
45.555618 108.0
45.595852 136.0
45.616489 36.0
45.646221 144.0
45.666245 132.0
45.678352 76.0
45.687767 324.0
45.707951 136.0
45.717197 124.0
45.727489 224.0
45.74564 280.0
45.750099 140.0
45.753914 188.0
45.775261 132.0
45.795654 168.0
45.809479 296.0
45.824512 160.0
45.840172 152.0
45.877666 96.0
45.887104 136.0
45.899239 104.0
45.912724 100.0
45.924732 208.0
45.937611 276.0
45.948074 156.0
45.958591 172.0
45.970737 272.0
45.982883 152.0
46.000431 156.0
46.00988 192.0
46.022034 140.0
46.038158 176.0
46.070141 188.0
46.084438 120.0
46.121361 296.0
46.157162 212.0
46.178352 204.0
46.201122 64.0
46.223343 204.0
46.23563 184.0
46.251869 208.0
46.27895 148.0
46.28978 232.0
46.304188 212.0
46.316902 352.0
46.330418 288.0
46.376492 152.0
46.388302 180.0
46.403606 112.0
46.41581 144.0
46.43034 332.0
46.444748 196.0
46.460369 244.0
46.482281 176.0
46.525566 180.0
46.551987 184.0
46.597851 144.0
46.61129 180.0
46.630116 164.0
46.64185 320.0
46.67379 180.0
46.703739 116.0
46.714142 144.0
46.732311 184.0
46.74728 76.0
46.762249 144.0
46.774502 152.0
46.787506 152.0
46.805817 256.0
46.850735 136.0
46.878227 208.0
46.896984 204.0
46.919151 272.0
46.935272 140.0
46.955948 228.0
46.973461 184.0
46.993694 164.0
47.007572 116.0
47.017124 124.0
47.03487 112.0
47.056713 188.0
47.072674 128.0
47.104706 200.0
47.142773 152.0
47.155136 176.0
47.191437 172.0
47.216923 136.0
47.237118 140.0
47.260376 168.0
47.269413 116.0
47.283642 408.0
47.295959 196.0
47.310474 152.0
47.328819 160.0
47.358917 164.0
47.369907 56.0
47.382236 156.0
47.392857 160.0
47.445282 92.0
47.460365 120.0
47.475452 148.0
47.489166 140.0
47.507343 144.0
47.515663 152.0
47.527374 180.0
47.552696 140.0
47.584106 172.0
47.609947 108.0
47.622978 288.0
47.670158 116.0
47.679501 160.0
47.692387 144.0
47.722633 136.0
47.737759 60.0
47.752888 132.0
47.765366 172.0
47.775616 300.0
47.798847 352.0
47.824268 32.0
47.840958 152.0
47.878414 100.0
47.89539 212.0
47.899593 180.0
47.952538 176.0
47.976337 172.0
47.998894 128.0
48.043816 192.0
48.05735 256.0
48.082676 184.0
48.099983 148.0
48.116699 348.0
48.138794 184.0
48.157406 336.0
48.161167 160.0
48.166737 208.0
48.196812 124.0
48.206486 124.0
48.217541 188.0
48.247437 192.0
48.24966 120.0
48.267647 132.0
48.290016 180.0
48.310295 104.0
48.321774 168.0
48.346165 148.0
48.364002 452.0
48.396629 192.0
48.406338 204.0
48.425083 244.0
48.443092 152.0
48.480503 348.0
48.494926 148.0
48.519516 144.0
48.532921 172.0
48.543747 168.0
48.576618 228.0
48.586388 156.0
48.608089 156.0
48.622803 140.0
48.631302 304.0
48.647602 228.0
48.665527 148.0
48.670063 56.0
48.674118 128.0
48.695438 108.0
48.704678 212.0
48.734455 196.0
48.744183 140.0
48.7831 152.0
48.817215 180.0
48.843655 168.0
48.85672 184.0
48.874165 144.0
48.89299 160.0
48.905514 160.0
48.926395 80.0
48.959637 124.0
48.967033 132.0
48.986282 112.0
49.009968 304.0
49.031948 176.0
49.048992 224.0
49.074085 48.0
49.092663 100.0
49.121361 212.0
49.127621 136.0
49.14492 256.0
49.189888 156.0
49.212223 160.0
49.231773 160.0
49.24155 188.0
49.251717 216.0
49.270885 184.0
49.282066 76.0
49.31126 176.0
49.345081 144.0
49.358814 168.0
49.376106 156.0
49.393913 116.0
49.41766 172.0
49.441486 92.0
49.46574 184.0
49.486282 172.0
49.503086 68.0
49.51569 168.0
49.539185 192.0
49.541359 148.0
49.569477 164.0
49.594028 208.0
49.611698 156.0
49.629997 184.0
49.65398 168.0
49.665668 116.0
49.678295 140.0
49.74987 240.0
49.769455 156.0
49.789188 172.0
49.811661 228.0
49.865055 184.0
49.875397 124.0
49.90181 152.0
49.957867 144.0
49.995857 168.0
50.011719 196.0
50.033863 180.0
50.044041 244.0
50.07568 196.0
50.100643 232.0
50.11657 184.0
50.140923 148.0
50.163948 104.0
50.184624 128.0
50.200138 152.0
50.2421 96.0
50.262207 216.0
50.272087 160.0
50.293457 140.0
50.309341 132.0
50.331375 132.0
50.344086 188.0
50.362274 324.0
50.402008 132.0
50.418964 280.0
50.42886 128.0
50.447716 200.0
50.490475 180.0
50.495968 104.0
50.509914 236.0
50.526436 144.0
50.549404 172.0
50.571423 172.0
50.610081 164.0
50.627808 192.0
50.658958 244.0
50.68129 240.0
50.700241 160.0
50.714783 108.0
50.734631 156.0
50.771496 232.0
50.788139 152.0
50.815472 44.0
50.83271 136.0
50.860497 436.0
50.899593 168.0
50.939316 104.0
50.963417 144.0
51.01643 220.0
51.041325 120.0
51.05883 168.0
51.069183 188.0
51.089844 248.0
51.112129 160.0
51.127262 176.0
51.148029 272.0
51.166641 164.0
51.17355 160.0
51.185448 324.0
51.203564 88.0
51.221752 156.0
51.231831 396.0
51.27042 324.0
51.275536 132.0
51.279297 172.0
51.296185 172.0
51.321846 152.0
51.331829 176.0
51.358356 220.0
51.379295 144.0
51.391739 188.0
51.40601 136.0
51.439087 180.0
51.453434 144.0
51.485958 164.0
51.497704 144.0
51.514526 276.0
51.534531 324.0
51.544533 188.0
51.558495 128.0
51.575974 128.0
51.594559 164.0
51.613148 148.0
51.643181 144.0
51.681808 160.0
51.740349 296.0
51.759106 172.0
51.771523 228.0
51.802074 128.0
51.816341 188.0
51.837105 116.0
51.850796 84.0
51.89053 340.0
51.9128 176.0
51.924942 168.0
51.931038 120.0
51.934341 164.0
51.966335 204.0
51.970814 116.0
51.974571 168.0
51.986217 188.0
51.996094 416.0
52.010006 40.0
52.03093 160.0
52.068878 100.0
52.085426 184.0
52.089825 144.0
52.100479 192.0
52.121441 132.0
52.136402 116.0
52.152214 208.0
52.175739 168.0
52.188156 96.0
52.206512 204.0
52.254322 176.0
52.320652 176.0
52.334927 248.0
52.381012 140.0
52.394562 168.0
52.417034 204.0
52.434517 224.0
52.440174 144.0
52.445461 128.0
52.476131 144.0
52.490551 92.0
52.515072 120.0
52.526611 224.0
52.541557 304.0
52.574398 244.0
52.631008 144.0
52.653633 136.0
52.672615 196.0
52.68758 176.0
52.691849 88.0
52.698101 128.0
52.708977 156.0
52.721615 148.0
52.76635 224.0
52.779362 132.0
52.809517 160.0
52.848793 232.0
52.864094 304.0
52.873829 160.0
52.890625 124.0
52.913929 40.0
52.94173 120.0
52.960018 188.0
52.977318 120.0
52.991341 224.0
53.015854 232.0
53.032722 60.0
53.048248 152.0
53.068966 148.0
53.087116 340.0
53.103771 140.0
53.131332 124.0
53.167099 216.0
53.182125 388.0
53.199951 128.0
53.216965 152.0
53.23439 228.0
53.267799 172.0
53.277969 116.0
53.314297 180.0
53.336384 184.0
53.35601 292.0
53.385532 140.0
53.407726 200.0
53.427715 140.0
53.447369 156.0
53.465549 120.0
53.50779 216.0
53.533394 144.0
53.540985 64.0
53.571846 112.0
53.593983 144.0
53.608784 172.0
53.634659 156.0
53.646172 180.0
53.67905 196.0
53.698666 216.0
53.717628 124.0
53.736595 128.0
53.755566 100.0
53.784145 124.0
53.825638 128.0
53.846298 108.0
53.87447 404.0
53.889908 72.0
53.923519 124.0
53.952328 136.0
53.991875 224.0
53.997185 168.0
54.025078 296.0
54.035591 176.0
54.040653 212.0
54.072708 160.0
54.082104 124.0
54.094292 204.0
54.108601 216.0
54.138592 160.0
54.190285 180.0
54.204517 220.0
54.21917 220.0
54.239693 152.0
54.254353 128.0
54.270481 156.0
54.28661 108.0
54.310448 316.0
54.335808 200.0
54.354092 60.0
54.368767 296.0
54.384914 128.0
54.42205 176.0
54.434643 180.0
54.454491 124.0
54.469967 164.0
54.496387 168.0
54.513451 232.0
54.526306 136.0
54.562668 320.0
54.581783 128.0
54.602371 208.0
54.640621 172.0
54.690552 172.0
54.703903 176.0
54.723042 192.0
54.734821 252.0
54.758389 228.0
54.769802 160.0
54.781258 152.0
54.795441 208.0
54.821739 200.0
54.862324 160.0
54.883656 260.0
54.914486 112.0
54.91925 204.0
54.938148 76.0
54.95298 80.0
54.974068 484.0
55.035641 408.0
55.054577 228.0
55.082985 176.0
55.098495 180.0
55.109776 160.0
55.134617 172.0
55.171818 168.0
55.183537 128.0
55.206024 172.0
55.223328 136.0
55.233685 408.0
55.251434 160.0
55.277122 156.0
55.289909 212.0
55.303837 224.0
55.316555 64.0
55.330513 212.0
55.404671 160.0
55.438011 120.0
55.461765 148.0
55.507687 92.0
55.538834 152.0
55.57782 244.0
55.643372 172.0
55.667957 100.0
55.681324 76.0
55.696178 148.0
55.708061 40.0
55.721241 156.0
55.762142 152.0
55.777908 104.0
55.797977 100.0
55.829777 140.0
55.857002 216.0
55.876549 232.0
55.906536 100.0
55.947502 156.0
55.959949 184.0
55.974655 256.0
55.984726 108.0
56.008644 200.0
56.034336 172.0
56.057335 168.0
56.097969 128.0
56.113979 184.0
56.131138 376.0
56.14867 132.0
56.161514 124.0
56.181423 376.0
56.217587 164.0
56.229237 120.0
56.247967 260.0
56.283989 116.0
56.302139 164.0
56.31221 168.0
56.322739 200.0
56.346436 108.0
56.352123 152.0
56.369621 224.0
56.387558 144.0
56.422146 116.0
56.435394 248.0
56.449471 272.0
56.486145 120.0
56.502056 204.0
56.520657 104.0
56.534126 200.0
56.567055 164.0
56.585022 64.0
56.617966 116.0
56.635941 160.0
56.662441 116.0
56.676392 132.0
56.687599 216.0
56.70499 260.0
56.71656 304.0
56.733345 136.0
56.763519 160.0
56.793331 128.0
56.812832 124.0
56.854061 160.0
56.86227 76.0
56.86462 156.0
56.880451 136.0
56.930519 228.0
56.950539 180.0
56.970467 188.0
56.980984 172.0
57.014591 176.0
57.029076 136.0
57.045609 100.0
57.066635 348.0
57.09824 104.0
57.1208 108.0
57.134342 204.0
57.148121 428.0
57.16687 224.0
57.187218 176.0
57.211231 44.0
57.251171 176.0
57.254261 108.0
57.262207 248.0
57.285412 324.0
57.321053 116.0
57.3316 132.0
57.349686 156.0
57.368477 120.0
57.381344 124.0
57.394917 176.0
57.440163 124.0
57.470337 76.0
57.491463 104.0
57.506557 40.0
57.518631 152.0
57.571533 112.0
57.588093 188.0
57.601334 120.0
57.612396 180.0
57.623524 96.0
57.642269 364.0
57.652344 160.0
57.67984 156.0
57.69207 192.0
57.742264 180.0
57.752579 112.0
57.77541 228.0
57.789509 156.0
57.810516 244.0
57.828506 120.0
57.839962 180.0
57.878292 140.0
57.896076 172.0
57.931309 144.0
57.965668 184.0
58.002701 320.0
58.015648 104.0
58.028477 160.0
58.050289 176.0
58.072453 192.0
58.102795 168.0
58.121452 240.0
58.139568 212.0
58.185635 220.0
58.212524 192.0
58.22575 92.0
58.263729 200.0
58.295639 296.0
58.330597 312.0
58.353401 64.0
58.370129 72.0
58.390221 148.0
58.403397 160.0
58.417278 132.0
58.438923 228.0
58.461403 96.0
58.504025 56.0
58.538536 300.0
58.549706 136.0
58.56599 176.0
58.570496 160.0
58.574852 124.0
58.595051 240.0
58.600769 184.0
58.605991 152.0
58.623947 224.0
58.653137 204.0
58.65667 180.0
58.666527 360.0
58.692955 32.0
58.710983 156.0
58.7533 348.0
58.77533 172.0
58.787209 148.0
58.810432 144.0
58.833229 208.0
58.854706 160.0
58.870178 120.0
58.913517 324.0
58.940758 108.0
58.950562 144.0
58.991531 152.0
59.012089 136.0
59.041027 136.0
59.059498 132.0
59.080914 396.0
59.097744 44.0
59.126083 216.0
59.1446 180.0
59.162987 160.0
59.178871 148.0
59.201721 156.0
59.223282 172.0
59.250069 132.0
59.318672 188.0
59.341549 188.0
59.368889 176.0
59.38269 116.0
59.409782 212.0
59.423553 132.0
59.428448 160.0
59.439522 344.0
59.460152 128.0
59.474758 124.0
59.506996 152.0
59.517746 132.0
59.528492 120.0
59.555492 152.0
59.570881 184.0
59.594128 132.0
59.61145 184.0
59.632965 104.0
59.663712 160.0
59.729839 140.0
59.760609 104.0
59.803303 108.0
59.825764 192.0
59.849888 140.0
59.869907 204.0
59.882229 228.0
59.930477 100.0
59.948475 44.0
59.959267 204.0
59.982388 72.0
59.999344 52.0
60.02013 160.0
60.047924 296.0
60.075718 192.0
60.101635 88.0
60.130188 200.0
60.16597 248.0
60.179863 156.0
60.210751 172.0
60.222488 140.0
60.226933 84.0
60.260441 108.0
60.282707 180.0
60.296638 176.0
60.309299 148.0
60.323551 48.0
60.351379 60.0
60.367931 124.0
60.431812 128.0
60.444996 164.0
60.462761 120.0
60.47644 196.0
60.505032 180.0
60.53088 192.0
60.543041 220.0
60.563404 132.0
60.614563 224.0
60.62693 120.0
60.640839 188.0
60.662346 160.0
60.667961 136.0
60.674042 224.0
60.69669 56.0
60.740253 184.0
60.758732 164.0
60.77562 332.0
60.796474 224.0
60.81604 192.0
60.840771 248.0
60.892067 148.0
60.912426 212.0
60.931068 144.0
60.942589 368.0
60.968365 132.0
61.010334 308.0
61.058971 172.0
61.086926 160.0
61.132935 132.0
61.138 160.0
61.152031 180.0
61.17057 52.0
61.183403 132.0
61.212612 176.0
61.232399 272.0
61.274994 400.0
61.286102 180.0
61.323227 68.0
61.351284 184.0
61.373001 388.0
61.401306 152.0
61.444862 212.0
61.465149 160.0
61.485435 140.0
61.501045 140.0
61.513531 136.0
61.53714 232.0
61.550758 128.0
61.622162 180.0
61.643299 192.0
61.675991 72.0
61.713512 212.0
61.749481 152.0
61.760429 176.0
61.771656 204.0
61.781971 52.0
61.792168 112.0
61.813404 196.0
61.833973 144.0
61.854523 124.0
61.881939 348.0
61.896591 136.0
61.921215 144.0
61.948437 40.0
61.984875 112.0
62.018951 160.0
62.031765 176.0
62.092506 208.0
62.124748 92.0
62.155243 104.0
62.17952 172.0
62.204575 164.0
62.235897 136.0
62.252048 180.0
62.294979 148.0
62.307632 124.0
62.334263 56.0
62.359146 168.0
62.383972 172.0
62.398708 172.0
62.415543 164.0
62.421047 116.0
62.424469 188.0
62.454456 116.0
62.48896 220.0
62.505974 144.0
62.524555 148.0
62.552887 308.0
62.567055 320.0
62.579746 148.0
62.591358 156.0
62.61272 88.0
62.631622 124.0
62.648952 164.0
62.675247 168.0
62.737263 112.0
62.773773 508.0
62.812096 164.0
62.825523 244.0
62.844456 92.0
62.858658 224.0
62.874439 104.0
62.893448 180.0
62.931271 160.0
62.95509 144.0
62.969124 136.0
62.980228 204.0
63.003777 128.0
63.010189 116.0
63.014984 124.0
63.035526 120.0
63.057693 288.0
63.078201 304.0
63.114563 140.0
63.138287 176.0
63.155685 156.0
63.199982 164.0
63.213383 140.0
63.228466 200.0
63.240948 156.0
63.276791 144.0
63.289253 164.0
63.322784 444.0
63.378521 308.0
63.438984 160.0
63.452354 168.0
63.463963 220.0
63.489883 160.0
63.512272 172.0
63.531124 76.0
63.565205 160.0
63.591526 124.0
63.618408 84.0
63.640636 144.0
63.658669 180.0
63.735943 128.0
63.776909 160.0
63.794754 292.0
63.815739 272.0
63.842453 108.0
63.872082 204.0
63.888584 184.0
63.918816 164.0
63.943554 176.0
63.953266 272.0
63.968552 176.0
63.991859 108.0
64.009087 136.0
64.023888 160.0
64.043846 308.0
64.117882 104.0
64.132187 160.0
64.164757 128.0
64.184074 284.0
64.204285 144.0
64.22316 140.0
64.235878 128.0
64.258217 196.0
64.270706 188.0
64.290131 100.0
64.312805 116.0
64.339615 180.0
64.358772 116.0
64.380768 160.0
64.392738 148.0
64.414673 84.0
64.42585 188.0
64.441833 168.0
64.492973 128.0
64.5196 176.0
64.542587 256.0
64.553764 188.0
64.577881 116.0
64.605797 224.0
64.629509 172.0
64.648109 52.0
64.659317 196.0
64.688126 296.0
64.718857 168.0
64.738541 280.0
64.753784 120.0
64.788589 148.0
64.806648 32.0
64.817863 188.0
64.847824 156.0
64.853363 108.0
64.858528 172.0
64.920464 188.0
64.940956 164.0
64.946541 168.0
64.952942 224.0
64.975243 132.0
65.012871 180.0
65.042969 316.0
65.068092 120.0
65.101807 120.0
65.12529 272.0
65.143837 144.0
65.180527 68.0
65.193382 176.0
65.256447 156.0
65.320404 128.0
65.342926 152.0
65.385033 208.0
65.43145 156.0
65.451904 108.0
65.481369 72.0
65.505829 140.0
65.520607 428.0
65.535599 452.0
65.585648 112.0
65.599823 164.0
65.623474 88.0
65.658661 192.0
65.682724 148.0
65.700027 180.0
65.737717 168.0
65.750626 184.0
65.770592 172.0
65.777901 196.0
65.796677 136.0
65.82061 160.0
65.836189 180.0
65.857758 228.0
65.886391 160.0
65.912323 316.0
65.925049 80.0
65.942825 204.0
65.963257 156.0
65.981133 148.0
66.020432 168.0
66.043076 204.0
66.056557 180.0
66.086754 40.0
66.124313 212.0
66.152206 184.0
66.174164 148.0
66.211876 152.0
66.225983 96.0
66.241524 192.0
66.25708 320.0
66.295441 152.0
66.301643 132.0
66.307289 112.0
66.312286 152.0
66.332169 220.0
66.397789 192.0
66.41066 184.0
66.414627 172.0
66.464302 140.0
66.48053 120.0
66.49189 232.0
66.514297 144.0
66.543839 148.0
66.562195 368.0
66.584763 192.0
66.619896 140.0
66.649261 164.0
66.665672 188.0
66.690849 128.0
66.710297 184.0
66.724243 120.0
66.746811 136.0
66.805504 160.0
66.817657 112.0
66.83429 156.0
66.852066 104.0
66.865257 200.0
66.892952 120.0
66.922691 64.0
66.955261 164.0
66.970406 400.0
66.994354 80.0
67.020424 132.0
67.043518 208.0
67.056961 176.0
67.119949 140.0
67.144318 128.0
67.212227 120.0
67.222626 404.0
67.253525 176.0
67.269958 164.0
67.282837 144.0
67.293144 160.0
67.317009 172.0
67.343575 256.0
67.368896 144.0
67.375023 108.0
67.408737 112.0
67.41951 180.0
67.43985 112.0
67.455818 224.0
67.501976 52.0
67.56736 160.0
67.579918 172.0
67.585754 112.0
67.591377 196.0
67.597153 240.0
67.619766 128.0
67.635567 120.0
67.690292 208.0
67.704285 92.0
67.72422 212.0
67.752411 104.0
67.780602 96.0
67.796654 172.0
67.809761 136.0
67.872978 300.0
67.897842 200.0
67.923935 184.0
67.935631 148.0
67.96228 144.0
67.973763 100.0
68.005272 180.0
68.029572 136.0
68.052559 132.0
68.065689 124.0
68.093468 184.0
68.121964 184.0
68.141663 192.0
68.182335 88.0
68.19384 228.0
68.21685 384.0
68.244247 128.0
68.253891 204.0
68.279289 148.0
68.314896 116.0
68.338318 140.0
68.344536 120.0
68.370445 148.0
68.373566 204.0
68.397804 200.0
68.427437 52.0
68.444847 272.0
68.456177 180.0
68.477173 160.0
68.494957 220.0
68.550812 160.0
68.553772 144.0
68.561836 116.0
68.572716 172.0
68.605812 120.0
68.630104 140.0
68.643295 152.0
68.696075 84.0
68.742599 268.0
68.760635 224.0
68.780235 280.0
68.812241 208.0
68.848656 176.0
68.862801 64.0
68.887123 204.0
68.907791 188.0
68.927872 196.0
68.958633 216.0
68.987213 152.0
69.013184 104.0
69.037987 100.0
69.077087 176.0
69.081825 112.0
69.100845 132.0
69.117393 172.0
69.163902 232.0
69.167816 60.0
69.194664 176.0
69.226074 184.0
69.251495 116.0
69.281311 200.0
69.293243 180.0
69.32605 72.0
69.342628 180.0
69.375778 228.0
69.389473 436.0
69.402306 72.0
69.423157 208.0
69.463669 164.0
69.495193 112.0
69.506813 220.0
69.518425 104.0
69.546638 208.0
69.566559 176.0
69.580765 180.0
69.626831 268.0
69.639626 88.0
69.659561 76.0
69.698708 144.0
69.712509 152.0
69.74614 240.0
69.779137 124.0
69.793541 76.0
69.832169 320.0
69.86071 136.0
69.892326 204.0
69.928024 168.0
69.932022 80.0
69.962799 316.0
70.00238 176.0
70.022697 168.0
70.028145 152.0
70.034927 196.0
70.050072 188.0
70.076012 248.0
70.090752 100.0
70.094994 96.0
70.101501 348.0
70.117867 232.0
70.135483 180.0
70.153816 192.0
70.166489 120.0
70.181244 160.0
70.240402 268.0
70.275574 184.0
70.288918 52.0
70.317291 164.0
70.352348 164.0
70.379021 116.0
70.385025 112.0
70.409119 144.0
70.436882 168.0
70.450394 176.0
70.477615 56.0
70.490982 180.0
70.51461 116.0
70.537781 184.0
70.552391 204.0
70.572891 188.0
70.599861 252.0
70.636444 196.0
70.663261 124.0
70.681618 64.0
70.696495 180.0
70.742531 192.0
70.760284 144.0
70.772011 152.0
70.799438 168.0
70.814339 160.0
70.826332 64.0
70.866684 192.0
70.871048 220.0
70.900436 180.0
70.94899 156.0
70.966377 156.0
70.97979 308.0
70.994881 128.0
71.018364 192.0
71.037659 136.0
71.07373 144.0
71.095367 112.0
71.129768 164.0
71.146629 168.0
71.159332 164.0
71.174446 176.0
71.202995 220.0
71.26416 128.0
71.294922 140.0
71.317245 108.0
71.332611 144.0
71.385857 164.0
71.414772 76.0
71.42823 68.0
71.443367 72.0
71.456406 264.0
71.505051 140.0
71.537613 60.0
71.559021 196.0
71.574654 108.0
71.591492 120.0
71.625954 304.0
71.643715 168.0
71.675728 92.0
71.690582 108.0
71.693192 88.0
71.707748 136.0
71.72123 200.0
71.739876 196.0
71.75663 144.0
71.768433 152.0
71.792915 404.0
71.815567 156.0
71.850357 232.0
71.861458 188.0
71.880394 140.0
71.907852 144.0
71.921959 20.0
71.970924 188.0
72.019897 204.0
72.045929 156.0
72.057442 160.0
72.086601 192.0
72.150932 208.0
72.170891 140.0
72.191826 188.0
72.212585 80.0
72.224426 144.0
72.276878 132.0
72.301529 276.0
72.317101 284.0
72.351929 140.0
72.378258 148.0
72.415627 96.0
72.442284 196.0
72.464394 172.0
72.473816 184.0
72.497025 184.0
72.524139 200.0
72.551262 180.0
72.566521 212.0
72.579941 136.0
72.59874 176.0
72.61467 164.0
72.639786 204.0
72.678474 128.0
72.690353 180.0
72.730568 224.0
72.739311 132.0
72.745033 204.0
72.757668 176.0
72.780319 88.0
72.817162 328.0
72.844711 140.0
72.851494 128.0
72.859138 128.0
72.869987 212.0
72.880829 164.0
72.919739 180.0
72.936623 112.0
72.955322 124.0
72.969894 148.0
73.001228 176.0
73.032257 132.0
73.070976 208.0
73.082886 116.0
73.140747 132.0
73.18161 132.0
73.203743 200.0
73.219658 176.0
73.246002 168.0
73.295731 156.0
73.312599 164.0
73.341293 196.0
73.363907 156.0
73.378967 164.0
73.40313 172.0
73.423332 236.0
73.439766 124.0
73.466087 136.0
73.48159 88.0
73.498657 320.0
73.523697 160.0
73.528488 108.0
73.533623 212.0
73.565216 132.0
73.58741 164.0
73.599365 228.0
73.647186 220.0
73.666611 140.0
73.681274 184.0
73.70797 104.0
73.735382 168.0
73.761261 100.0
73.777061 216.0
73.79245 136.0
73.814529 48.0
73.843697 132.0
73.875259 76.0
73.905182 164.0
73.926804 140.0
74.013176 152.0
74.04229 144.0
74.054276 132.0
74.066269 224.0
74.081818 156.0
74.102852 232.0
74.129868 168.0
74.181084 204.0
74.205086 160.0
74.243416 180.0
74.280037 136.0
74.299416 52.0
74.320007 160.0
74.335449 256.0
74.356041 192.0
74.383507 136.0
74.464211 108.0
74.488258 200.0
74.511665 208.0
74.531296 160.0
74.549164 128.0
74.574173 148.0
74.591576 256.0
74.613716 88.0
74.638062 220.0
74.682503 128.0
74.697983 128.0
74.726357 284.0
74.761116 440.0
74.816727 188.0
74.829781 376.0
74.851265 204.0
74.881454 156.0
74.905846 128.0
74.944183 176.0
74.971512 260.0
75.001053 188.0
75.016571 156.0
75.038033 128.0
75.071747 292.0
75.096779 128.0
75.142982 376.0
75.183899 224.0
75.224022 188.0
75.256844 180.0
75.300308 148.0
75.319633 180.0
75.347923 136.0
75.38456 80.0
75.391884 100.0
75.409119 136.0
75.435379 200.0
75.461998 132.0
75.502266 196.0
75.521339 64.0
75.546799 148.0
75.581352 240.0
75.596924 72.0
75.618759 332.0
75.63327 124.0
75.660004 176.0
75.681885 152.0
75.720345 228.0
75.736435 180.0
75.751717 244.0
75.80632 140.0
75.810371 128.0
75.847351 232.0
75.874069 128.0
75.887711 152.0
75.891304 132.0
75.897743 144.0
75.920891 160.0
75.934761 164.0
75.958626 212.0
75.995483 148.0
76.011101 184.0
76.02784 124.0
76.046089 196.0
76.071205 184.0
76.090034 184.0
76.123932 196.0
76.138847 204.0
76.160408 112.0
76.195831 184.0
76.226433 160.0
76.249023 92.0
76.261192 124.0
76.285439 156.0
76.292152 148.0
76.351562 192.0
76.385719 168.0
76.402046 148.0
76.453339 156.0
76.46991 108.0
76.493462 204.0
76.525406 164.0
76.540024 308.0
76.550522 120.0
76.576118 208.0
76.589226 92.0
76.649742 108.0
76.677177 164.0
76.697403 160.0
76.710297 140.0
76.735703 232.0
76.752762 180.0
76.77655 208.0
76.792786 144.0
76.816101 148.0
76.841095 152.0
76.881889 232.0
76.940582 48.0
76.969139 112.0
76.982483 120.0
77.001053 300.0
77.013924 172.0
77.041756 296.0
77.059349 132.0
77.07682 176.0
77.092545 232.0
77.132698 148.0
77.145767 144.0
77.166466 180.0
77.189148 92.0
77.202385 208.0
77.220177 348.0
77.249908 60.0
77.274406 168.0
77.315651 280.0
77.344406 44.0
77.357521 212.0
77.400101 168.0
77.427498 176.0
77.453949 188.0
77.470398 152.0
77.482254 28.0
77.485962 164.0
77.496773 300.0
77.516052 188.0
77.549347 28.0
77.566879 148.0
77.600189 168.0
77.636024 220.0
77.675598 104.0
77.692245 152.0
77.709732 184.0
77.726479 144.0
77.745781 56.0
77.759827 68.0
77.775253 408.0
77.795021 156.0
77.85463 88.0
77.89679 124.0
77.920448 128.0
77.952835 204.0
78.003983 56.0
78.041931 356.0
78.056732 208.0
78.074806 356.0
78.117409 144.0
78.141159 68.0
78.172836 132.0
78.193619 232.0
78.211555 192.0
78.235252 260.0
78.266129 156.0
78.281761 192.0
78.293587 208.0
78.317207 80.0
78.341866 132.0
78.368294 104.0
78.38768 148.0
78.415367 152.0
78.421097 108.0
78.425163 148.0
78.446617 164.0
78.478493 100.0
78.493088 216.0
78.511192 148.0
78.525085 136.0
78.578217 208.0
78.613403 224.0
78.63282 56.0
78.648705 132.0
78.677856 344.0
78.690674 88.0
78.708023 316.0
78.733459 144.0
78.750793 152.0
78.76638 156.0
78.782021 276.0
78.826241 208.0
78.844757 272.0
78.889824 284.0
78.931381 88.0
78.949127 128.0
78.966125 164.0
79.001488 328.0
79.035347 264.0
79.048958 172.0
79.062294 120.0
79.098206 264.0
79.122482 216.0
79.172058 160.0
79.188004 168.0
79.243958 176.0
79.268341 324.0
79.315582 164.0
79.347488 120.0
79.371635 176.0
79.391823 212.0
79.412186 292.0
79.452133 196.0
79.483582 196.0
79.519905 144.0
79.539085 84.0
79.562164 140.0
79.574593 144.0
79.613434 220.0
79.631424 196.0
79.644341 132.0
79.666168 128.0
79.698929 188.0
79.71492 152.0
79.731155 148.0
79.744095 184.0
79.77713 164.0
79.798576 132.0
79.830009 184.0
79.844704 208.0
79.862869 112.0
79.891121 164.0
79.909416 248.0
79.951851 160.0
79.972008 152.0
80.010231 180.0
80.049362 112.0
80.066803 224.0
80.091599 380.0
80.107986 128.0
80.111244 232.0
80.16143 180.0
80.170929 168.0
80.204369 196.0
80.29174 64.0
80.30957 88.0
80.32206 132.0
80.347519 148.0
80.361305 148.0
80.380936 108.0
80.418419 112.0
80.44519 60.0
80.482964 128.0
80.502327 176.0
80.526794 120.0
80.578308 320.0
80.609695 156.0
80.627388 96.0
80.64399 180.0
80.668335 132.0
80.702301 176.0
80.720917 324.0
80.752541 136.0
80.770424 176.0
80.798363 156.0
80.831261 128.0
80.85273 168.0
80.884949 48.0
80.910011 76.0
80.969109 136.0
81.026428 120.0
81.042557 144.0
81.062263 180.0
81.080185 112.0
81.101692 216.0
81.133606 192.0
81.156654 104.0
81.162018 160.0
81.193138 128.0
81.22049 144.0
81.236191 204.0
81.256615 208.0
81.287102 128.0
81.309555 144.0
81.320984 172.0
81.349243 124.0
81.410797 144.0
81.460587 176.0
81.500114 136.0
81.552231 52.0
81.588181 176.0
81.607964 116.0
81.63134 176.0
81.649323 100.0
81.673615 324.0
81.701874 188.0
81.723076 128.0
81.745827 244.0
81.772697 188.0
81.783989 104.0
81.792816 136.0
81.816292 196.0
81.862404 180.0
81.899292 132.0
81.93129 144.0
81.958351 320.0
81.989594 188.0
82.018768 200.0
82.032852 68.0
82.054779 176.0
82.070717 108.0
82.110085 188.0
82.139252 128.0
82.158806 276.0
82.164848 172.0
82.189766 176.0
82.2024 116.0
82.226395 108.0
82.241135 200.0
82.274879 180.0
82.301682 120.0
82.345573 276.0
82.394463 180.0
82.423668 204.0
82.448006 152.0
82.460663 204.0
82.484497 256.0
82.511276 40.0
82.548782 140.0
82.56443 172.0
82.613434 140.0
82.654167 128.0
82.684975 180.0
82.715706 120.0
82.730186 156.0
82.752686 188.0
82.783539 304.0
82.811157 244.0
82.836082 192.0
82.875084 212.0
82.887764 388.0
82.90226 116.0
82.954826 188.0
82.985649 116.0
83.007957 212.0
83.073174 216.0
83.093452 164.0
83.120071 184.0
83.150902 168.0
83.182213 300.0
83.198578 332.0
83.213478 148.0
83.241737 344.0
83.290543 156.0
83.308708 92.0
83.367546 136.0
83.408134 112.0
83.42865 68.0
83.452286 184.0
83.4832 296.0
83.539391 148.0
83.569397 176.0
83.586174 132.0
83.601448 96.0
83.615181 108.0
83.632103 176.0
83.65242 144.0
83.695282 308.0
83.711395 132.0
83.727074 264.0
83.75621 76.0
83.798119 192.0
83.827271 184.0
83.85643 180.0
83.878014 148.0
83.914764 176.0
83.927528 160.0
83.949409 44.0
83.98204 148.0
84.04792 60.0
84.06617 280.0
84.103683 180.0
84.117271 48.0
84.138695 176.0
84.156998 148.0
84.177887 324.0
84.192436 96.0
84.219536 116.0
84.27198 164.0
84.287132 104.0
84.355202 148.0
84.367554 180.0
84.380348 160.0
84.416367 236.0
84.476006 120.0
84.500336 160.0
84.52668 124.0
84.540611 308.0
84.569366 244.0
84.585251 212.0
84.598061 184.0
84.627357 120.0
84.656654 228.0
84.669479 216.0
84.700615 116.0
84.726852 176.0
84.765457 204.0
84.797729 208.0
84.817894 172.0
84.834389 224.0
84.854553 344.0
84.889397 124.0
84.908928 172.0
84.94828 152.0
84.971939 140.0
85.012459 192.0
85.035675 264.0
85.058632 152.0
85.082062 172.0
85.122108 168.0
85.155464 152.0
85.161026 148.0
85.211357 180.0
85.248573 196.0
85.264694 260.0
85.301361 160.0
85.335609 124.0
85.361122 164.0
85.377899 132.0
85.392616 164.0
85.412849 324.0
85.443909 220.0
85.460678 104.0
85.473564 88.0
85.499329 128.0
85.519569 56.0
85.537392 176.0
85.552307 316.0
85.582169 220.0
85.59874 168.0
85.621796 300.0
85.643501 196.0
85.658287 132.0
85.665047 44.0
85.676735 176.0
85.689957 100.0
85.709267 168.0
85.735245 204.0
85.754761 180.0
85.779297 32.0
85.815155 116.0
85.841988 124.0
85.85714 184.0
85.870895 208.0
85.893517 476.0
85.916855 248.0
85.931931 200.0
85.960052 168.0
85.97245 308.0
85.996964 88.0
86.026497 180.0
86.048653 116.0
86.061577 120.0
86.089378 172.0
86.120567 136.0
86.139984 176.0
86.166862 76.0
86.188454 192.0
86.224144 136.0
86.271706 148.0
86.294388 224.0
86.338768 140.0
86.353569 144.0
86.366516 164.0
86.384087 144.0
86.405365 156.0
86.438667 144.0
86.461029 608.0
86.479385 244.0
86.499466 132.0
86.505035 112.0
86.511017 228.0
86.518707 132.0
86.547356 168.0
86.570107 100.0
86.623817 180.0
86.662727 124.0
86.681259 220.0
86.695129 140.0
86.711975 160.0
86.736862 180.0
86.755394 160.0
86.773933 156.0
86.790627 136.0
86.812317 132.0
86.838844 172.0
86.853683 128.0
86.871765 160.0
86.878418 240.0
86.938057 176.0
86.966629 132.0
86.989182 332.0
87.027565 144.0
87.064972 172.0
87.082932 312.0
87.122459 264.0
87.129715 208.0
87.133965 204.0
87.16098 124.0
87.191147 176.0
87.20462 312.0
87.231384 160.0
87.26918 132.0
87.291649 192.0
87.312904 232.0
87.349655 68.0
87.36454 112.0
87.388725 144.0
87.412918 204.0
87.440834 196.0
87.466896 208.0
87.481621 140.0
87.506737 60.0
87.517418 172.0
87.54882 140.0
87.566422 112.0
87.58979 140.0
87.60656 132.0
87.684822 116.0
87.701599 104.0
87.722099 108.0
87.752594 124.0
87.759842 164.0
87.789223 136.0
87.817825 276.0
87.834755 168.0
87.856377 48.0
87.908623 200.0
87.965904 168.0
87.982162 120.0
87.994637 156.0
88.006752 108.0
88.010452 240.0
88.02832 176.0
88.097206 88.0
88.12336 120.0
88.136444 200.0
88.183167 156.0
88.198112 232.0
88.217682 188.0
88.233635 188.0
88.250465 68.0
88.298111 192.0
88.311043 112.0
88.327141 120.0
88.426315 56.0
88.443329 132.0
88.459633 220.0
88.5214 204.0
88.5597 200.0
88.579407 84.0
88.594841 160.0
88.642563 128.0
88.675476 256.0
88.701042 256.0
88.739738 340.0
88.770638 152.0
88.788345 156.0
88.807358 240.0
88.825424 172.0
88.845284 116.0
88.862946 172.0
88.879837 112.0
88.909859 116.0
88.962418 252.0
88.984947 136.0
89.008743 320.0
89.037872 108.0
89.066826 100.0
89.122581 216.0
89.150253 172.0
89.172523 160.0
89.191597 308.0
89.204941 168.0
89.233673 124.0
89.246124 160.0
89.279968 124.0
89.296898 132.0
89.319466 160.0
89.33828 108.0
89.355354 268.0
89.374901 380.0
89.393669 200.0
89.449966 92.0
89.472488 356.0
89.501648 416.0
89.576141 160.0
89.650848 104.0
89.668465 104.0
89.698006 192.0
89.724358 196.0
89.76207 336.0
89.777878 284.0
89.799477 132.0
89.807892 108.0
89.837883 132.0
89.86055 308.0
89.87394 92.0
89.897728 136.0
89.92585 168.0
89.941437 232.0
89.977173 176.0
89.999474 148.0
90.064308 372.0
90.103714 188.0
90.12072 80.0
90.133949 268.0
90.147179 68.0
90.166077 80.0
90.201988 168.0
90.222786 84.0
90.257721 276.0
90.287079 144.0
90.317673 136.0
90.349495 44.0
90.381409 148.0
90.408157 124.0
90.421837 216.0
90.457367 184.0
90.472511 96.0
90.504143 108.0
90.54306 176.0
90.556656 120.0
90.596367 60.0
90.622139 48.0
90.635399 144.0
90.6502 52.0
90.664909 196.0
90.70932 196.0
90.75103 180.0
90.769363 360.0
90.783264 116.0
90.800331 256.0
90.81591 168.0
90.836372 220.0
90.84864 200.0
90.868904 188.0
90.891396 128.0
90.91127 152.0
90.938835 216.0
90.953918 144.0
90.957092 136.0
90.993889 124.0
91.026955 436.0
91.055023 2448.0
91.081657 464.0
91.117996 116.0
91.166748 236.0
91.194328 196.0
91.231377 152.0
91.257545 136.0
91.274178 176.0
91.296028 164.0
91.320137 148.0
91.339462 172.0
91.378937 240.0
91.40065 232.0
91.420105 144.0
91.449867 144.0
91.528191 124.0
91.541519 292.0
91.568184 200.0
91.585327 64.0
91.610092 56.0
91.628082 196.0
91.661537 172.0
91.674873 160.0
91.692024 112.0
91.715675 176.0
91.760651 176.0
91.782394 188.0
91.810852 148.0
91.828682 172.0
91.86364 152.0
91.893562 216.0
91.926605 108.0
91.951416 136.0
92.039284 140.0
92.060898 360.0
92.08149 156.0
92.090187 176.0
92.109894 144.0
92.12709 192.0
92.165886 184.0
92.183105 248.0
92.209976 340.0
92.241692 172.0
92.346672 144.0
92.377525 152.0
92.405174 124.0
92.421532 152.0
92.437698 212.0
92.473198 156.0
92.488441 208.0
92.503448 120.0
92.534225 204.0
92.56086 152.0
92.597771 128.0
92.623688 216.0
92.643219 188.0
92.680031 124.0
92.705231 160.0
92.714134 176.0
92.737526 148.0
92.758423 164.0
92.796951 160.0
92.832924 100.0
92.83712 156.0
92.86512 140.0
92.881332 356.0
92.908195 32.0
92.927719 204.0
92.946335 136.0
92.98111 156.0
93.013969 388.0
93.036156 176.0
93.069344 3832.0
93.141937 84.0
93.161606 104.0
93.186584 180.0
93.204041 144.0
93.248177 160.0
93.262436 112.0
93.286522 176.0
93.315361 264.0
93.34613 132.0
93.386185 140.0
93.399017 144.0
93.429459 124.0
93.447334 368.0
93.459381 192.0
93.476936 96.0
93.492332 36.0
93.525452 192.0
93.560463 132.0
93.578957 160.0
93.592438 184.0
93.61747 136.0
93.661095 172.0
93.68943 200.0
93.698265 72.0
93.701515 196.0
93.722939 144.0
93.75618 204.0
93.784431 200.0
93.829002 164.0
93.863014 336.0
93.87764 396.0
93.931618 208.0
93.95929 108.0
93.980804 128.0
94.003792 180.0
94.021217 132.0
94.035011 168.0
94.060936 220.0
94.075699 524.0
94.089088 164.0
94.121689 188.0
94.148399 416.0
94.163811 128.0
94.178719 208.0
94.195694 132.0
94.209496 172.0
94.254593 148.0
94.281143 240.0
94.307404 136.0
94.329445 164.0
94.34491 188.0
94.368774 316.0
94.428955 144.0
94.484474 260.0
94.515114 156.0
94.557495 140.0
94.57473 184.0
94.607307 152.0
94.660301 144.0
94.69503 232.0
94.710655 108.0
94.752823 192.0
94.799782 380.0
94.825691 164.0
94.875374 164.0
94.897255 224.0
94.934242 212.0
94.958755 88.0
95.001434 160.0
95.0177 172.0
95.049385 668.0
95.085487 8276.0
95.119873 128.0
95.139938 152.0
95.163689 80.0
95.182632 168.0
95.204399 148.0
95.255554 156.0
95.286209 188.0
95.310143 168.0
95.338104 236.0
95.361839 188.0
95.386688 240.0
95.415977 160.0
95.452179 176.0
95.459435 180.0
95.478127 204.0
95.504555 128.0
95.521805 152.0
95.548889 152.0
95.582375 148.0
95.607674 100.0
95.625191 192.0
95.664124 112.0
95.69323 324.0
95.712494 172.0
95.743958 148.0
95.77317 160.0
95.793839 140.0
95.824341 196.0
95.839371 172.0
95.872375 144.0
95.876259 132.0
95.899826 188.0
95.917366 208.0
95.947479 144.0
95.951073 152.0
95.987556 56.0
96.013374 184.0
96.034821 68.0
96.048828 192.0
96.087753 680.0
96.106026 164.0
96.120209 160.0
96.173927 220.0
96.210541 164.0
96.227562 136.0
96.244675 152.0
96.285667 212.0
96.311539 108.0
96.350609 144.0
96.381584 368.0
96.445236 264.0
96.457115 120.0
96.473289 228.0
96.522728 140.0
96.538094 144.0
96.560333 200.0
96.571991 232.0
96.598503 100.0
96.639282 180.0
96.643555 116.0
96.651863 160.0
96.669327 176.0
96.709351 232.0
96.750969 152.0
96.773079 84.0
96.795883 304.0
96.82972 160.0
96.837173 148.0
96.865036 184.0
96.880051 116.0
96.945717 160.0
96.976814 120.0
97.006218 212.0
97.065125 1360.0
97.099457 984.0
97.130486 108.0
97.156052 228.0
97.180374 200.0
97.210793 296.0
97.248596 128.0
97.27301 160.0
97.306389 128.0
97.348999 368.0
97.38166 212.0
97.395149 140.0
97.428352 276.0
97.448708 148.0
97.469414 104.0
97.491035 144.0
97.510635 160.0
97.530342 148.0
97.549995 108.0
97.582756 352.0
97.624168 172.0
97.655197 132.0
97.67662 184.0
97.73024 224.0
97.772438 184.0
97.791847 80.0
97.831795 148.0
97.855408 304.0
97.963264 204.0
97.977051 256.0
97.995995 124.0
98.002457 124.0
98.036163 236.0
98.06739 160.0
98.109718 180.0
98.127518 128.0
98.218094 176.0
98.293396 292.0
98.311852 152.0
98.330788 156.0
98.35569 136.0
98.380035 84.0
98.401962 216.0
98.416885 216.0
98.463127 128.0
98.476036 200.0
98.490501 180.0
98.505432 256.0
98.526665 288.0
98.554878 92.0
98.592323 124.0
98.628281 128.0
98.699455 108.0
98.723083 156.0
98.73745 224.0
98.783119 372.0
98.808464 36.0
98.833961 236.0
98.862808 180.0
98.875114 312.0
98.903229 80.0
98.942825 256.0
99.002228 132.0
99.022949 120.0
99.04303 1700.0
99.078415 180.0
99.126762 184.0
99.140907 252.0
99.18708 216.0
99.202354 128.0
99.216232 240.0
99.230278 188.0
99.324631 356.0
99.363289 108.0
99.382835 172.0
99.3974 164.0
99.409721 124.0
99.437683 208.0
99.458252 140.0
99.490013 160.0
99.533691 180.0
99.557205 224.0
99.577789 140.0
99.610657 112.0
99.621262 156.0
99.656845 144.0
99.677963 172.0
99.694603 140.0
99.712486 124.0
99.738487 148.0
99.778091 168.0
99.795982 148.0
99.811668 72.0
99.837746 108.0
99.852852 336.0
99.876015 116.0
99.905502 124.0
99.937805 120.0
100.013412 188.0
100.032738 220.0
100.052101 324.0
100.085571 240.0
100.112366 6588.0
100.139519 204.0
100.169556 152.0
100.190414 160.0
100.205956 160.0
100.223938 120.0
100.260468 120.0
100.276306 124.0
100.314659 200.0
100.34153 140.0
100.377426 152.0
100.39537 44.0
100.417313 136.0
100.445663 152.0
100.465187 196.0
100.48867 104.0
100.510246 152.0
100.566956 76.0
100.596619 200.0
100.618858 48.0
100.658569 144.0
100.698738 148.0
100.737793 188.0
100.764656 104.0
100.810616 192.0
100.82856 184.0
100.851311 312.0
100.903526 140.0
100.915688 136.0
100.942268 196.0
100.972809 160.0
101.005318 5160.0
101.040565 160.0
101.061691 224.0
101.116104 492.0
101.189583 256.0
101.224022 156.0
101.254761 108.0
101.272263 200.0
101.335876 268.0
101.370407 292.0
101.37722 232.0
101.411041 160.0
101.43309 72.0
101.463158 256.0
101.513733 180.0
101.537117 136.0
101.567818 232.0
101.596481 84.0
101.621605 148.0
101.668556 316.0
101.699875 160.0
101.713005 184.0
101.727974 44.0
101.75119 164.0
101.775818 140.0
101.802315 180.0
101.830383 176.0
101.852562 156.0
101.896675 68.0
101.915512 128.0
101.952881 180.0
101.9851 104.0
102.009857 316.0
102.053566 144.0
102.073189 156.0
102.090454 140.0
102.097748 152.0
102.107635 144.0
102.114487 160.0
102.139595 120.0
102.186203 176.0
102.228462 204.0
102.272552 176.0
102.29287 148.0
102.306961 44.0
102.332253 156.0
102.351006 64.0
102.369377 152.0
102.38549 124.0
102.402161 72.0
102.418518 140.0
102.462036 148.0
102.501602 220.0
102.504868 140.0
102.552719 144.0
102.568459 180.0
102.583794 192.0
102.606461 340.0
102.641365 136.0
102.669655 116.0
102.706558 212.0
102.722099 156.0
102.763809 160.0
102.781174 152.0
102.802322 184.0
102.83432 208.0
102.886429 116.0
102.917244 224.0
102.950768 304.0
102.999168 372.0
103.053581 612.0
103.109787 224.0
103.136063 132.0
103.151237 228.0
103.198433 164.0
103.218948 252.0
103.241196 108.0
103.267487 140.0
103.291763 112.0
103.310081 220.0
103.340317 40.0
103.355965 164.0
103.36116 120.0
103.36824 80.0
103.417221 112.0
103.452957 348.0
103.483582 276.0
103.514397 152.0
103.568199 140.0
103.603195 396.0
103.637962 168.0
103.697281 312.0
103.723083 144.0
103.76786 316.0
103.796257 216.0
103.831451 220.0
103.852478 128.0
103.872635 196.0
103.920898 104.0
103.958359 236.0
103.984863 216.0
104.023979 256.0
104.055626 448.0
104.120773 168.0
104.165459 172.0
104.187553 128.0
104.208122 156.0
104.22641 188.0
104.242668 108.0
104.273155 84.0
104.289413 176.0
104.334137 148.0
104.366501 96.0
104.397171 28.0
104.415474 144.0
104.447845 144.0
104.476501 200.0
104.496239 108.0
104.51973 196.0
104.535728 160.0
104.565071 144.0
104.596283 232.0
104.636803 188.0
104.680038 104.0
104.725876 308.0
104.74028 160.0
104.757072 260.0
104.762161 164.0
104.789413 184.0
104.805779 292.0
104.844574 68.0
104.849907 168.0
104.873795 160.0
104.912323 180.0
104.953865 256.0
104.989807 180.0
105.006119 160.0
105.069847 16120.0
105.118332 164.0
105.136024 388.0
105.139305 100.0
105.143539 136.0
105.149063 252.0
105.176544 92.0
105.180069 224.0
105.219673 148.0
105.260605 164.0
105.294922 152.0
105.333908 136.0
105.362846 160.0
105.399338 208.0
105.414536 352.0
105.451225 80.0
105.46553 48.0
105.518684 204.0
105.561623 272.0
105.575935 100.0
105.598434 112.0
105.631165 136.0
105.64753 196.0
105.667206 136.0
105.686401 64.0
105.708916 148.0
105.725288 52.0
105.74575 140.0
105.768265 48.0
105.821854 184.0
105.865219 228.0
105.897949 180.0
105.921402 184.0
105.961441 164.0
105.996429 252.0
106.026131 156.0
106.031929 160.0
106.072655 2188.0
106.096039 52.0
106.118004 272.0
106.151398 148.0
106.171555 212.0
106.199921 152.0
106.217476 128.0
106.256012 44.0
106.280632 336.0
106.307076 352.0
106.331932 112.0
106.370766 148.0
106.375763 204.0
106.419601 152.0
106.443893 164.0
106.478027 204.0
106.49955 132.0
106.524948 116.0
106.553154 164.0
106.61335 176.0
106.640022 164.0
106.660576 148.0
106.686142 128.0
106.702942 364.0
106.746284 192.0
106.777565 196.0
106.811424 168.0
106.837433 308.0
106.860062 156.0
106.892525 144.0
106.90004 252.0
106.917679 112.0
106.934143 88.0
106.955994 104.0
106.966934 56.0
107.004135 92.0
107.0299 288.0
107.049957 496.0
107.085365 14688.0
107.147369 184.0
107.164032 180.0
107.181274 152.0
107.196335 104.0
107.222488 108.0
107.258934 176.0
107.284332 188.0
107.320175 160.0
107.348251 156.0
107.361183 132.0
107.376305 212.0
107.415352 200.0
107.470711 196.0
107.486465 356.0
107.505783 156.0
107.519485 144.0
107.538055 80.0
107.553535 148.0
107.610313 108.0
107.637154 140.0
107.670235 216.0
107.7108 140.0
107.754578 212.0
107.781754 76.0
107.805664 112.0
107.84272 64.0
107.868553 164.0
107.885017 216.0
107.907593 136.0
107.951263 124.0
108.01664 256.0
108.024239 156.0
108.060822 116.0
108.088982 1976.0
108.127937 144.0
108.162781 120.0
108.194672 88.0
108.261055 336.0
108.284462 168.0
108.303108 120.0
108.340622 180.0
108.361115 120.0
108.398407 132.0
108.430428 124.0
108.460587 252.0
108.501053 160.0
108.536438 232.0
108.580849 224.0
108.624405 188.0
108.640999 104.0
108.659882 120.0
108.683426 276.0
108.705734 180.0
108.753517 180.0
108.771736 132.0
108.823639 196.0
108.865173 208.0
108.891251 180.0
108.924187 212.0
108.952278 64.0
108.971107 172.0
108.987732 152.0
109.010132 224.0
109.064728 4252.0
109.100967 9292.0
109.129074 148.0
109.133736 144.0
109.143074 164.0
109.170662 32.0
109.211418 188.0
109.230125 276.0
109.260078 172.0
109.282997 52.0
109.311447 208.0
109.33033 160.0
109.347504 216.0
109.378731 116.0
109.429298 168.0
109.44252 180.0
109.4645 204.0
109.493248 220.0
109.517044 244.0
109.577492 172.0
109.583916 76.0
109.600769 124.0
109.622414 196.0
109.636932 128.0
109.664391 316.0
109.698296 152.0
109.741226 116.0
109.761383 108.0
109.816307 132.0
109.861252 268.0
109.883057 104.0
109.907455 168.0
109.914001 116.0
109.928932 276.0
109.970703 100.0
109.989494 176.0
110.007507 196.0
110.049011 188.0
110.068367 788.0
110.10479 1344.0
110.141541 152.0
110.159508 124.0
110.222618 180.0
110.281929 80.0
110.298645 156.0
110.354622 192.0
110.383232 204.0
110.402283 136.0
110.422783 220.0
110.460793 140.0
110.486023 120.0
110.501503 152.0
110.54126 140.0
110.56575 416.0
110.610329 184.0
110.677971 144.0
110.687798 172.0
110.703362 152.0
110.717522 144.0
110.738869 176.0
110.762161 308.0
110.790428 192.0
110.809288 136.0
110.871399 336.0
110.886063 188.0
110.909874 140.0
110.951439 116.0
110.978401 140.0
111.004562 144.0
111.052803 148.0
111.080223 2824.0
111.12233 204.0
111.155258 56.0
111.22998 120.0
111.248611 128.0
111.272804 380.0
111.309959 196.0
111.345772 176.0
111.372528 140.0
111.402206 352.0
111.421028 140.0
111.461891 208.0
111.49337 108.0
111.522797 84.0
111.543045 240.0
111.556343 96.0
111.563477 148.0
111.601028 188.0
111.625816 272.0
111.651382 324.0
111.69194 244.0
111.712051 172.0
111.756233 252.0
111.777275 116.0
111.805519 104.0
111.834099 152.0
111.857254 132.0
111.880409 164.0
111.903786 152.0
111.953438 164.0
111.973465 188.0
111.996231 88.0
112.043701 160.0
112.083557 576.0
112.128387 240.0
112.171127 144.0
112.200012 188.0
112.20594 132.0
112.232269 132.0
112.250114 320.0
112.276894 100.0
112.334801 156.0
112.358818 348.0
112.385071 208.0
112.4179 204.0
112.450905 188.0
112.50071 292.0
112.537048 72.0
112.567787 84.0
112.588905 100.0
112.643677 160.0
112.673111 148.0
112.697899 264.0
112.77272 192.0
112.79174 136.0
112.8255 132.0
112.842484 200.0
112.857872 544.0
112.888855 180.0
112.913002 336.0
112.935532 124.0
112.957016 188.0
112.98938 120.0
113.025375 188.0
113.040459 208.0
113.058372 608.0
113.095329 300.0
113.12265 160.0
113.161972 120.0
113.192238 136.0
113.21067 176.0
113.227615 180.0
113.261505 332.0
113.303284 144.0
113.333534 236.0
113.354729 152.0
113.384399 296.0
113.403473 40.0
113.446884 208.0
113.470619 216.0
113.488266 188.0
113.508194 172.0
113.556221 160.0
113.578369 132.0
113.612007 152.0
113.630379 120.0
113.652657 204.0
113.727997 84.0
113.758392 188.0
113.777107 148.0
113.802299 212.0
113.815987 80.0
113.840523 56.0
113.881935 124.0
113.896942 156.0
113.921104 132.0
113.943619 208.0
114.008354 260.0
114.040237 68.0
114.063614 120.0
114.105736 172.0
114.150787 224.0
114.16613 176.0
114.185249 176.0
114.190193 176.0
114.200233 144.0
114.204643 212.0
114.225227 140.0
114.252213 164.0
114.28392 252.0
114.306076 316.0
114.325394 212.0
114.345711 180.0
114.38665 224.0
114.394585 192.0
114.416763 96.0
114.441147 96.0
114.457062 168.0
114.495544 108.0
114.527496 116.0
114.561577 180.0
114.576492 136.0
114.603516 152.0
114.6408 220.0
114.683601 184.0
114.708687 128.0
114.742798 132.0
114.793701 312.0
114.809929 148.0
114.838692 180.0
114.868561 124.0
114.915497 128.0
114.970116 196.0
114.985916 136.0
115.009216 196.0
115.017601 180.0
115.024872 268.0
115.053566 636.0
115.076591 184.0
115.147667 184.0
115.173309 136.0
115.212265 120.0
115.246445 128.0
115.286995 164.0
115.301353 236.0
115.321831 176.0
115.397926 212.0
115.436691 352.0
115.450836 124.0
115.466454 232.0
115.482887 156.0
115.526527 140.0
115.550621 200.0
115.588577 140.0
115.631378 196.0
115.64505 152.0
115.661346 156.0
115.680611 232.0
115.709778 160.0
115.734138 312.0
115.772682 136.0
115.82106 232.0
115.827377 112.0
115.835602 180.0
115.891914 200.0
115.905876 172.0
115.969795 164.0
115.997658 184.0
116.030853 232.0
116.06102 492.0
116.097237 156.0
116.141327 192.0
116.177795 180.0
116.218643 108.0
116.236336 200.0
116.279022 208.0
116.323723 104.0
116.345192 552.0
116.366661 188.0
116.383842 44.0
116.40329 140.0
116.450417 304.0
116.542007 352.0
116.56118 116.0
116.575027 148.0
116.590065 168.0
116.644386 192.0
116.673897 180.0
116.693954 208.0
116.720757 96.0
116.812454 168.0
116.84684 264.0
116.863167 144.0
116.879562 312.0
116.904442 176.0
116.940544 172.0
116.979385 204.0
116.997688 112.0
117.011681 148.0
117.028908 96.0
117.069504 3808.0
117.113197 160.0
117.19651 192.0
117.222771 144.0
117.237427 120.0
117.255638 144.0
117.278809 152.0
117.34491 308.0
117.432434 144.0
117.466408 160.0
117.493652 344.0
117.523933 404.0
117.545975 164.0
117.574539 176.0
117.596123 176.0
117.621498 180.0
117.638107 284.0
117.664207 172.0
117.688705 112.0
117.703819 40.0
117.746727 180.0
117.772621 56.0
117.802605 168.0
117.825134 408.0
117.865829 156.0
117.90097 276.0
117.926346 128.0
117.959892 144.0
117.983482 176.0
118.002007 140.0
118.036606 132.0
118.053902 172.0
118.075577 664.0
118.092491 176.0
118.099487 260.0
118.144753 112.0
118.170715 112.0
118.188019 140.0
118.220253 192.0
118.25103 176.0
118.291908 196.0
118.380272 160.0
118.397858 292.0
118.45504 168.0
118.471649 208.0
118.49115 336.0
118.519318 384.0
118.540558 140.0
118.574081 252.0
118.613319 208.0
118.655685 224.0
118.676544 300.0
118.700539 260.0
118.718002 116.0
118.749329 192.0
118.766464 160.0
118.784554 176.0
118.800163 200.0
118.830666 208.0
118.86499 244.0
118.882988 176.0
118.899437 196.0
118.917145 108.0
118.95652 312.0
118.977203 276.0
119.016655 165620.0
119.085678 23496.0
119.139252 160.0
119.157448 120.0
119.199539 124.0
119.217247 320.0
119.254791 76.0
119.262947 88.0
119.279419 184.0
119.304146 108.0
119.320236 44.0
119.351067 164.0
119.37365 1624.0
119.402611 116.0
119.440186 76.0
119.469856 156.0
119.494232 104.0
119.511635 132.0
119.531921 100.0
119.571396 156.0
119.607399 216.0
119.628494 104.0
119.644402 172.0
119.674042 112.0
119.698837 180.0
119.722794 108.0
119.743309 76.0
119.76825 92.0
119.784958 284.0
119.81752 180.0
119.84626 112.0
119.862076 64.0
119.880852 140.0
119.899742 232.0
119.921059 84.0
119.946289 60.0
119.983978 204.0
120.018898 12396.0
120.089149 3056.0
120.124519 52.0
120.147484 48.0
120.169662 52.0
120.191483 44.0
120.208717 224.0
120.257736 56.0
120.299026 220.0
120.326469 128.0
120.358147 136.0
120.378555 132.0
120.40979 184.0
120.450279 264.0
120.454163 124.0
120.503197 148.0
120.515991 52.0
120.55217 156.0
120.594131 108.0
120.623352 228.0
120.629288 140.0
120.651466 212.0
120.69191 400.0
120.717506 424.0
120.742874 180.0
120.774887 320.0
120.819687 240.0
120.836205 120.0
120.844414 68.0
120.851631 164.0
120.866234 96.0
120.885185 264.0
120.894997 60.0
120.903412 316.0
120.93821 416.0
120.962158 348.0
121.012459 8740.0
121.063713 3840.0
121.101196 20272.0
121.135773 136.0
121.17437 124.0
121.208298 80.0
121.222801 124.0
121.241905 236.0
121.266739 144.0
121.274704 172.0
121.300346 76.0
121.322113 108.0
121.355156 240.0
121.374893 176.0
121.401428 200.0
121.417183 168.0
121.436295 36.0
121.451653 200.0
121.470238 228.0
121.512398 168.0
121.552864 120.0
121.599358 164.0
121.622803 76.0
121.651825 128.0
121.685738 96.0
121.702805 264.0
121.732582 48.0
121.758743 228.0
121.774307 164.0
121.838776 104.0
121.857788 124.0
121.877563 44.0
121.912048 144.0
121.95182 172.0
121.958809 136.0
121.963692 168.0
122.016762 296.0
122.067551 980.0
122.103157 1760.0
122.145004 136.0
122.222435 76.0
122.277802 144.0
122.319313 56.0
122.339439 88.0
122.357048 52.0
122.376869 92.0
122.398888 140.0
122.425308 148.0
122.444397 120.0
122.464027 164.0
122.489182 188.0
122.520027 108.0
122.545525 188.0
122.592476 236.0
122.619186 176.0
122.637077 172.0
122.665306 52.0
122.680107 132.0
122.73336 96.0
122.770714 68.0
122.783806 156.0
122.802483 120.0
122.830864 140.0
122.847015 112.0
122.893478 176.0
122.915833 188.0
122.932358 148.0
122.963257 160.0
122.999741 272.0
123.016228 152.0
123.03965 92.0
123.055969 164.0
123.080185 5248.0
123.116417 3180.0
123.150406 136.0
123.181473 116.0
123.249382 184.0
123.274651 92.0
123.35643 120.0
123.404335 192.0
123.431602 148.0
123.449295 144.0
123.470467 160.0
123.485321 208.0
123.50119 112.0
123.528923 100.0
123.620003 192.0
123.643425 48.0
123.683823 108.0
123.717964 172.0
123.741379 64.0
123.796738 76.0
123.823471 112.0
123.838821 180.0
123.863609 200.0
123.934082 60.0
123.951805 168.0
123.985046 112.0
124.020752 372.0
124.041519 192.0
124.083992 460.0
124.122574 500.0
124.152039 124.0
124.206772 72.0
124.257965 208.0
124.29612 148.0
124.335464 264.0
124.3815 212.0
124.406494 80.0
124.459061 160.0
124.487068 236.0
124.512459 172.0
124.546394 228.0
124.561081 216.0
124.604156 112.0
124.659859 176.0
124.716675 236.0
124.733276 196.0
124.78196 100.0
124.817535 112.0
124.874237 364.0
124.899536 248.0
124.943787 320.0
124.96312 80.0
124.978638 152.0
124.995491 132.0
125.022484 124.0
125.056534 184.0
125.072502 124.0
125.095039 3416.0
125.151306 56.0
125.178032 136.0
125.206985 240.0
125.24707 204.0
125.282715 192.0
125.304565 204.0
125.320427 108.0
125.37088 192.0
125.418991 184.0
125.440941 160.0
125.459274 180.0
125.485527 200.0
125.52121 140.0
125.570267 204.0
125.610039 116.0
125.632729 40.0
125.656113 160.0
125.69297 200.0
125.711357 100.0
125.746529 180.0
125.771088 188.0
125.838058 184.0
125.871552 60.0
125.889275 128.0
125.954185 188.0
125.983231 108.0
126.002029 164.0
126.048546 136.0
126.072609 180.0
126.097359 284.0
126.119545 172.0
126.165344 88.0
126.184372 128.0
126.260399 204.0
126.298424 128.0
126.345406 144.0
126.419739 340.0
126.472954 120.0
126.49028 200.0
126.510063 216.0
126.535637 36.0
126.607292 88.0
126.634171 192.0
126.657867 180.0
126.674492 160.0
126.690735 192.0
126.735458 284.0
126.781342 480.0
126.807594 180.0
126.855232 232.0
126.872826 148.0
126.907578 76.0
126.923271 120.0
126.964226 224.0
126.995033 144.0
127.053093 132.0
127.072929 164.0
127.076019 280.0
127.108688 176.0
127.15374 196.0
127.218864 364.0
127.255356 112.0
127.271072 52.0
127.291283 44.0
127.316017 328.0
127.340691 160.0
127.356415 112.0
127.38562 200.0
127.43055 220.0
127.461197 244.0
127.509201 276.0
127.577248 176.0
127.633041 280.0
127.66658 128.0
127.68232 184.0
127.708298 108.0
127.732925 40.0
127.802513 100.0
127.849579 160.0
127.882561 108.0
127.92083 80.0
127.944923 228.0
127.979469 180.0
128.018127 168.0
128.040222 160.0
128.061295 936.0
128.08522 200.0
128.153183 144.0
128.173492 200.0
128.23204 148.0
128.253311 80.0
128.271545 152.0
128.310577 184.0
128.355667 100.0
128.379105 132.0
128.398514 176.0
128.450027 72.0
128.487671 100.0
128.520676 132.0
128.542908 136.0
128.626404 204.0
128.648987 128.0
128.737045 160.0
128.798019 100.0
128.829712 164.0
128.865799 176.0
128.883881 224.0
128.926819 192.0
128.960449 104.0
128.970642 164.0
129.002472 228.0
129.038284 152.0
129.069458 3156.0
129.14386 160.0
129.176544 148.0
129.198151 72.0
129.218521 224.0
129.245667 96.0
129.2854 108.0
129.334625 144.0
129.37352 204.0
129.457596 148.0
129.529465 136.0
129.592529 152.0
129.614761 152.0
129.675949 80.0
129.694092 136.0
129.736526 100.0
129.776535 184.0
129.797409 160.0
129.842331 200.0
129.869217 64.0
129.916321 132.0
129.94104 116.0
129.986664 168.0
130.024872 148.0
130.076828 976.0
130.103439 188.0
130.128372 260.0
130.154633 132.0
130.236389 132.0
130.251114 92.0
130.270462 164.0
130.289566 176.0
130.311356 160.0
130.344803 196.0
130.38028 292.0
130.418671 180.0
130.472733 144.0
130.568237 96.0
130.588379 264.0
130.631927 312.0
130.663559 128.0
130.70079 180.0
130.728378 276.0
130.759735 120.0
130.780228 164.0
130.79805 268.0
130.828979 176.0
130.860123 108.0
130.89595 216.0
130.925552 144.0
131.011108 164.0
131.041534 168.0
131.08493 10336.0
131.122711 304.0
131.153397 52.0
131.176361 164.0
131.221115 152.0
131.257294 168.0
131.295975 168.0
131.331253 48.0
131.366394 176.0
131.395126 112.0
131.439026 180.0
131.461975 172.0
131.497696 76.0
131.521851 164.0
131.545746 72.0
131.603012 140.0
131.662201 144.0
131.682755 172.0
131.707336 216.0
131.742142 88.0
131.758133 88.0
131.787903 136.0
131.821014 252.0
131.827881 152.0
131.836182 180.0
131.876038 164.0
131.906677 260.0
131.940109 148.0
131.98233 140.0
132.005814 112.0
132.049347 244.0
132.089081 1272.0
132.172562 188.0
132.20314 156.0
132.212936 76.0
132.221558 224.0
132.238342 124.0
132.265823 128.0
132.284134 188.0
132.301437 172.0
132.32785 124.0
132.368851 276.0
132.41922 252.0
132.433456 224.0
132.46962 60.0
132.535126 136.0
132.551102 204.0
132.597931 124.0
132.636902 112.0
132.664413 64.0
132.696503 148.0
132.72081 280.0
132.726791 232.0
132.743256 156.0
132.818054 176.0
132.845581 100.0
132.886993 172.0
132.927536 272.0
132.959946 148.0
133.021835 328.0
133.064636 1664.0
133.100891 32488.0
133.144745 272.0
133.185623 184.0
133.213333 276.0
133.24707 168.0
133.284271 208.0
133.30806 172.0
133.333282 184.0
133.358505 172.0
133.385239 60.0
133.405441 56.0
133.442719 124.0
133.462936 136.0
133.510452 96.0
133.554794 200.0
133.583771 96.0
133.593445 164.0
133.63472 92.0
133.667145 188.0
133.688843 208.0
133.705322 100.0
133.737167 136.0
133.786392 220.0
133.814072 120.0
133.840347 172.0
133.87532 76.0
133.94397 164.0
133.978973 148.0
133.998276 148.0
134.068024 364.0
134.104858 3656.0
134.148483 36.0
134.167389 284.0
134.193237 264.0
134.210846 112.0
134.236023 76.0
134.244583 136.0
134.251465 108.0
134.260178 160.0
134.28685 136.0
134.31723 100.0
134.370178 76.0
134.439499 204.0
134.511093 188.0
134.536713 124.0
134.562469 144.0
134.583252 196.0
134.60585 340.0
134.634064 128.0
134.66098 160.0
134.701035 100.0
134.743698 120.0
134.768372 184.0
134.790771 124.0
134.850983 144.0
134.881287 192.0
134.941391 136.0
134.967361 192.0
135.02002 168.0
135.041733 380.0
135.080215 7208.0
135.116516 10188.0
135.150345 300.0
135.168839 132.0
135.189667 156.0
135.237503 84.0
135.264908 156.0
135.284134 356.0
135.337051 80.0
135.367157 164.0
135.383362 244.0
135.415787 140.0
135.450531 224.0
135.473694 180.0
135.493088 180.0
135.535919 164.0
135.557114 136.0
135.581451 104.0
135.666199 148.0
135.691544 192.0
135.712418 68.0
135.75647 200.0
135.775131 88.0
135.795898 88.0
135.8423 216.0
135.863174 52.0
135.887405 36.0
135.984314 156.0
136.017609 316.0
136.046448 128.0
136.083862 996.0
136.120987 1872.0
136.145874 132.0
136.174225 144.0
136.239273 128.0
136.27301 172.0
136.301682 144.0
136.351639 228.0
136.406601 92.0
136.437317 168.0
136.470825 236.0
136.490295 108.0
136.529831 176.0
136.562393 304.0
136.634384 112.0
136.654007 136.0
136.678162 172.0
136.725037 172.0
136.761063 144.0
136.785767 156.0
136.824478 324.0
136.880936 192.0
136.911499 144.0
136.950317 224.0
137.020981 324.0
137.044418 156.0
137.095703 3860.0
137.130966 1284.0
137.164551 176.0
137.211731 268.0
137.254074 132.0
137.270386 52.0
137.310043 164.0
137.333359 188.0
137.358047 116.0
137.398621 164.0
137.429871 228.0
137.454681 104.0
137.490936 148.0
137.508347 108.0
137.534027 128.0
137.565872 156.0
137.583054 56.0
137.606079 144.0
137.649109 164.0
137.681122 92.0
137.753525 140.0
137.793121 148.0
137.798981 140.0
137.80806 212.0
137.884384 72.0
137.921783 92.0
137.959183 132.0
137.987244 64.0
138.005936 112.0
138.029327 116.0
138.062057 108.0
138.098969 468.0
138.132721 384.0
138.162643 136.0
138.225815 152.0
138.246887 136.0
138.286667 124.0
138.306244 272.0
138.36319 292.0
138.403717 404.0
138.533142 108.0
138.581741 112.0
138.618164 180.0
138.649704 156.0
138.674515 80.0
138.712265 208.0
138.718582 144.0
138.739212 148.0
138.776917 176.0
138.801743 160.0
138.8349 144.0
138.886505 144.0
138.902924 116.0
138.988525 156.0
139.019836 116.0
139.050751 216.0
139.075104 820.0
139.112 1496.0
139.144653 52.0
139.161087 68.0
139.183441 168.0
139.25032 72.0
139.287903 112.0
139.339584 124.0
139.393631 244.0
139.428879 132.0
139.471191 172.0
139.507629 196.0
139.553467 124.0
139.599319 168.0
139.621536 140.0
139.651489 152.0
139.69223 144.0
139.720261 236.0
139.736923 112.0
139.796097 336.0
139.850662 148.0
139.925217 160.0
140.012344 180.0
140.029785 208.0
140.070206 128.0
140.087311 368.0
140.114075 240.0
140.137192 152.0
140.163986 152.0
140.212601 156.0
140.266876 144.0
140.283951 312.0
140.33754 196.0
140.3965 56.0
140.417725 140.0
140.45163 236.0
140.578156 108.0
140.606476 224.0
140.627716 136.0
140.656296 264.0
140.696167 156.0
140.712692 132.0
140.731583 68.0
140.762619 56.0
140.788254 96.0
140.81897 124.0
140.882736 108.0
140.92131 260.0
140.965439 160.0
140.981369 156.0
141.017441 168.0
141.069305 1704.0
141.126068 176.0
141.178207 88.0
141.206161 196.0
141.235703 332.0
141.268005 120.0
141.32106 224.0
141.350891 108.0
141.384033 112.0
141.4077 60.0
141.473969 224.0
141.513336 276.0
141.56868 120.0
141.625534 132.0
141.658554 132.0
141.684753 112.0
141.70845 140.0
141.772415 140.0
141.810349 224.0
141.861359 168.0
141.8862 144.0
141.905167 260.0
141.931244 104.0
141.950226 36.0
141.973938 208.0
141.992905 136.0
142.076508 3012.0
142.14711 224.0
142.168472 76.0
142.215942 200.0
142.247986 216.0
142.28479 124.0
142.389267 44.0
142.434387 148.0
142.481903 184.0
142.538483 336.0
142.57933 128.0
142.598343 112.0
142.681549 112.0
142.710083 208.0
142.731476 152.0
142.76001 44.0
142.802826 112.0
142.829163 140.0
142.852783 152.0
142.871811 76.0
142.972229 136.0
142.992874 164.0
143.036011 116.0
143.084991 7812.0
143.119873 160.0
143.153198 72.0
143.18364 180.0
143.216583 120.0
143.247955 268.0
143.282761 320.0
143.306595 188.0
143.348022 164.0
143.366104 88.0
143.395676 228.0
143.431564 140.0
143.462433 136.0
143.513123 184.0
143.521347 168.0
143.552704 88.0
143.569641 216.0
143.604324 204.0
143.63562 180.0
143.672867 148.0
143.696152 140.0
143.834564 68.0
143.871613 204.0
143.925293 140.0
143.966446 196.0
143.989761 88.0
144.027985 212.0
144.052567 212.0
144.091675 2436.0
144.149826 164.0
144.201675 208.0
144.223923 192.0
144.2789 100.0
144.297028 172.0
144.317154 172.0
144.369766 176.0
144.398468 136.0
144.429565 116.0
144.539154 156.0
144.590363 176.0
144.636276 164.0
144.65918 88.0
144.688019 92.0
144.72084 124.0
144.831696 216.0
144.85701 336.0
144.882004 84.0
144.898773 128.0
144.923203 208.0
144.962906 136.0
144.980804 136.0
145.004013 140.0
145.025787 112.0
145.065521 584.0
145.101013 22200.0
145.131805 188.0
145.138779 208.0
145.172028 56.0
145.209579 232.0
145.232635 136.0
145.274811 108.0
145.282608 92.0
145.288712 112.0
145.347366 180.0
145.366974 108.0
145.412491 124.0
145.494751 220.0
145.534378 36.0
145.56665 136.0
145.617661 324.0
145.664185 160.0
145.693344 128.0
145.733734 44.0
145.760178 132.0
145.801025 108.0
145.831696 264.0
145.860245 176.0
145.882751 212.0
145.909195 108.0
145.933014 248.0
145.964783 212.0
145.987488 200.0
145.996643 152.0
146.022217 56.0
146.043869 160.0
146.069366 428.0
146.104202 2104.0
146.148178 112.0
146.196014 84.0
146.204086 128.0
146.214691 160.0
146.232758 176.0
146.255615 140.0
146.313385 64.0
146.330246 80.0
146.362762 212.0
146.408401 156.0
146.460281 116.0
146.504196 160.0
146.556824 160.0
146.586075 156.0
146.604843 168.0
146.62413 152.0
146.660477 188.0
146.738419 204.0
146.755463 104.0
146.807343 144.0
146.846466 148.0
146.870255 256.0
146.895065 168.0
146.930374 64.0
146.961731 240.0
146.978622 112.0
147.000397 160.0
147.027679 116.0
147.079849 5744.0
147.11705 22428.0
147.155136 188.0
147.188065 136.0
147.219559 156.0
147.231339 132.0
147.249985 148.0
147.288788 156.0
147.324081 152.0
147.34523 376.0
147.36731 136.0
147.41571 156.0
147.459213 76.0
147.4953 60.0
147.531723 56.0
147.570404 172.0
147.622971 76.0
147.655045 44.0
147.693359 100.0
147.780838 72.0
147.807449 104.0
147.823074 92.0
147.853439 168.0
147.874557 148.0
147.924286 236.0
147.94783 100.0
147.966064 188.0
147.989807 168.0
148.03511 188.0
148.083878 1452.0
148.120804 2980.0
148.183838 72.0
148.259186 244.0
148.348892 136.0
148.370193 180.0
148.424759 328.0
148.543991 156.0
148.582809 104.0
148.627625 152.0
148.650742 40.0
148.684906 208.0
148.706818 200.0
148.733261 140.0
148.796387 220.0
148.825516 248.0
148.84671 204.0
148.909592 252.0
148.948822 140.0
148.966568 104.0
148.988251 140.0
149.00769 56.0
149.030045 180.0
149.063522 360.0
149.095917 26024.0
149.131012 7604.0
149.176422 232.0
149.219574 68.0
149.251282 36.0
149.289658 328.0
149.305176 104.0
149.324921 168.0
149.345215 104.0
149.389374 120.0
149.440475 180.0
149.482574 68.0
149.523209 208.0
149.555832 156.0
149.584061 116.0
149.601105 200.0
149.64006 88.0
149.699738 236.0
149.735718 156.0
149.765518 52.0
149.783737 148.0
149.812973 128.0
149.830032 132.0
149.85289 188.0
149.901688 256.0
149.939682 116.0
149.96785 72.0
149.996216 252.0
150.024994 148.0
150.054947 168.0
150.098938 2120.0
150.136185 1120.0
150.161148 320.0
150.182556 188.0
150.222534 116.0
150.260986 168.0
150.267593 128.0
150.274841 228.0
150.320129 228.0
150.335938 200.0
150.393341 32.0
150.410431 112.0
150.442169 228.0
150.490997 136.0
150.508087 176.0
150.556931 116.0
150.583801 76.0
150.613098 176.0
150.637527 100.0
150.670944 184.0
150.698608 136.0
150.715714 40.0
150.749924 160.0
150.789032 192.0
150.87587 160.0
150.919296 56.0
150.951462 244.0
150.983749 112.0
151.022537 128.0
151.038422 212.0
151.074631 160.0
151.110382 2116.0
151.146652 776.0
151.186035 480.0
151.200287 128.0
151.229614 156.0
151.282547 132.0
151.317856 140.0
151.347794 168.0
151.392578 204.0
151.48732 128.0
151.537842 120.0
151.562347 112.0
151.579498 112.0
151.598618 120.0
151.630966 80.0
151.658386 64.0
151.711853 180.0
151.742935 136.0
151.778107 180.0
151.875793 132.0
151.900696 160.0
151.963791 100.0
151.985382 116.0
152.024841 100.0
152.057724 272.0
152.085983 468.0
152.115952 948.0
152.166824 372.0
152.22467 96.0
152.269226 336.0
152.324921 160.0
152.36467 40.0
152.381882 164.0
152.470337 48.0
152.534241 100.0
152.625214 68.0
152.665176 160.0
152.684235 216.0
152.711288 116.0
152.740799 72.0
152.780609 44.0
152.822632 152.0
152.84906 192.0
152.876129 152.0
152.900742 172.0
152.989349 176.0
153.013977 116.0
153.071365 472.0
153.088974 288.0
153.124084 348.0
153.153503 164.0
153.191284 208.0
153.213135 148.0
153.239822 108.0
153.270126 188.0
153.294769 180.0
153.316956 212.0
153.348999 200.0
153.40036 124.0
153.431793 136.0
153.461365 220.0
153.579727 264.0
153.640152 216.0
153.657913 176.0
153.787384 184.0
153.879379 288.0
153.938629 232.0
153.955917 80.0
153.978149 84.0
153.996307 148.0
154.078903 880.0
154.130386 600.0
154.175262 80.0
154.207581 144.0
154.289505 36.0
154.309753 124.0
154.431351 144.0
154.457657 140.0
154.502197 128.0
154.549576 112.0
154.578903 152.0
154.598694 208.0
154.63829 136.0
154.680374 184.0
154.749695 120.0
154.823975 116.0
154.856171 204.0
155.03772 188.0
155.085266 5844.0
155.140076 244.0
155.180176 148.0
155.210571 176.0
155.250244 72.0
155.278549 184.0
155.307297 80.0
155.327133 120.0
155.361862 76.0
155.389236 148.0
155.413971 100.0
155.431335 112.0
155.464844 120.0
155.509567 184.0
155.540268 60.0
155.605835 172.0
155.634888 128.0
155.664673 124.0
155.685791 72.0
155.845139 216.0
155.893219 192.0
155.960556 224.0
156.019379 168.0
156.039886 148.0
156.091827 3564.0
156.191254 152.0
156.208405 136.0
156.218277 148.0
156.222656 192.0
156.244095 108.0
156.303543 216.0
156.36824 52.0
156.388153 152.0
156.438583 124.0
156.490219 148.0
156.50766 132.0
156.54277 156.0
156.580032 128.0
156.612259 220.0
156.652252 204.0
156.702927 156.0
156.766724 268.0
156.786652 124.0
156.809097 168.0
156.841492 184.0
156.893646 100.0
156.913788 172.0
156.938721 32.0
156.958664 212.0
156.996353 176.0
157.019989 176.0
157.058426 144.0
157.101273 12040.0
157.16571 60.0
157.19664 128.0
157.23558 160.0
157.273026 48.0
157.31546 168.0
157.332092 100.0
157.360397 172.0
157.392853 48.0
157.430313 148.0
157.494049 284.0
157.52272 124.0
157.548019 164.0
157.595184 64.0
157.62767 232.0
157.681503 140.0
157.696289 140.0
157.777634 60.0
157.795135 168.0
157.817642 72.0
157.840149 152.0
157.880157 192.0
157.931656 120.0
157.980789 172.0
158.009201 324.0
158.071671 492.0
158.106323 2740.0
158.142532 192.0
158.172134 132.0
158.200623 272.0
158.231888 220.0
158.285553 180.0
158.389053 224.0
158.407867 96.0
158.416718 152.0
158.47435 152.0
158.495422 216.0
158.550995 184.0
158.586197 116.0
158.611267 36.0
158.662277 172.0
158.699753 216.0
158.756683 108.0
158.779114 140.0
158.815506 124.0
158.872604 160.0
158.902176 132.0
158.922241 124.0
158.956909 172.0
158.977051 176.0
159.013824 180.0
159.079071 1808.0
159.116394 29980.0
159.186707 112.0
159.20903 264.0
159.248016 192.0
159.258514 148.0
159.26416 184.0
159.301895 128.0
159.318939 176.0
159.380203 224.0
159.404556 52.0
159.434525 40.0
159.457138 40.0
159.474731 84.0
159.518723 144.0
159.54364 68.0
159.612396 164.0
159.642746 180.0
159.675873 28.0
159.706055 148.0
159.745056 80.0
159.762421 164.0
159.794113 60.0
159.818253 128.0
159.859528 144.0
159.912384 92.0
159.942581 132.0
159.970596 188.0
160.08606 548.0
160.119217 3336.0
160.175476 156.0
160.298264 216.0
160.336624 144.0
160.366028 148.0
160.385925 144.0
160.432098 60.0
160.499222 200.0
160.53215 140.0
160.549805 168.0
160.582596 160.0
160.625671 152.0
160.648178 100.0
160.677826 208.0
160.769287 204.0
160.847534 124.0
160.865204 48.0
160.882874 168.0
160.933365 188.0
160.95018 144.0
161.015076 176.0
161.036072 276.0
161.052063 436.0
161.09549 7952.0
161.132019 16628.0
161.188492 36.0
161.247986 148.0
161.274323 204.0
161.297165 124.0
161.319916 180.0
161.350266 104.0
161.385651 64.0
161.405884 188.0
161.450592 124.0
161.488083 40.0
161.553879 156.0
161.582947 84.0
161.625961 188.0
161.657516 196.0
161.689224 140.0
161.724655 84.0
161.753036 168.0
161.79007 224.0
161.849457 108.0
161.891281 168.0
161.927216 168.0
161.961456 116.0
162.04335 180.0
162.100189 1288.0
162.135864 2756.0
162.171967 60.0
162.191727 248.0
162.254471 168.0
162.282242 160.0
162.316223 128.0
162.329788 80.0
162.333496 116.0
162.363922 104.0
162.421478 192.0
162.448318 44.0
162.466049 316.0
162.535645 144.0
162.563553 140.0
162.602325 180.0
162.6474 112.0
162.687927 220.0
162.734161 152.0
162.794571 80.0
162.812347 124.0
162.833801 152.0
162.840134 68.0
162.85141 148.0
162.868835 264.0
162.897385 316.0
162.949524 88.0
162.985092 144.0
163.00946 176.0
163.053207 384.0
163.075089 664.0
163.111923 59716.0
163.146835 5032.0
163.212799 76.0
163.24263 116.0
163.278427 284.0
163.286011 184.0
163.295578 308.0
163.325348 48.0
163.345337 264.0
163.388199 140.0
163.428635 132.0
163.459885 184.0
163.493698 204.0
163.525909 176.0
163.559799 80.0
163.583359 176.0
163.612747 140.0
163.659927 120.0
163.68425 108.0
163.76535 188.0
163.79306 104.0
163.843002 200.0
163.877823 160.0
163.919724 164.0
163.936935 196.0
163.986313 212.0
164.013275 96.0
164.043869 32.0
164.075562 932.0
164.114365 7696.0
164.152328 864.0
164.194305 80.0
164.214706 140.0
164.287949 192.0
164.316757 68.0
164.350601 120.0
164.403503 36.0
164.448135 120.0
164.48764 148.0
164.533691 104.0
164.559219 40.0
164.582199 108.0
164.603668 196.0
164.638382 84.0
164.656265 76.0
164.691284 152.0
164.721893 144.0
164.773758 48.0
164.795349 116.0
164.832779 128.0
164.873413 112.0
164.904083 60.0
164.942429 80.0
164.967255 108.0
164.994644 104.0
165.089645 924.0
165.125504 3760.0
165.16037 324.0
165.213501 92.0
165.246292 88.0
165.280029 232.0
165.303055 156.0
165.32608 120.0
165.361923 196.0
165.384506 248.0
165.407883 100.0
165.439087 120.0
165.46431 88.0
165.489914 56.0
165.512955 40.0
165.574417 156.0
165.600037 116.0
165.661514 72.0
165.723511 140.0
165.748627 68.0
165.778473 68.0
165.821701 272.0
165.871643 132.0
165.892151 64.0
165.949783 92.0
165.983139 196.0
166.07283 356.0
166.130295 776.0
166.171707 100.0
166.199921 156.0
166.226868 88.0
166.250885 144.0
166.311386 192.0
166.353912 192.0
166.37088 136.0
166.418106 156.0
166.4823 92.0
166.502838 52.0
166.542709 108.0
166.548157 56.0
166.55835 144.0
166.574768 176.0
166.638016 284.0
166.707214 116.0
166.772629 176.0
166.809555 76.0
166.860031 192.0
166.955872 188.0
166.993042 128.0
167.020691 144.0
167.086517 848.0
167.106689 508.0
167.136444 136.0
167.156631 184.0
167.204727 164.0
167.226349 100.0
167.250565 212.0
167.284515 104.0
167.311234 148.0
167.374634 92.0
167.400391 204.0
167.416809 176.0
167.441544 200.0
167.475067 168.0
167.500824 144.0
167.523224 64.0
167.596466 136.0
167.7379 168.0
167.789459 116.0
167.873718 124.0
167.88327 84.0
167.888641 156.0
167.93129 48.0
167.959671 132.0
168.026749 124.0
168.052536 144.0
168.092758 1284.0
168.115265 312.0
168.14624 196.0
168.25444 124.0
168.290009 116.0
168.31134 152.0
168.336487 112.0
168.406403 108.0
168.517303 116.0
168.553482 100.0
168.675735 144.0
168.687805 164.0
168.731827 132.0
168.762848 124.0
168.824905 240.0
168.857101 180.0
168.959412 124.0
169.000809 176.0
169.037033 100.0
169.100342 6916.0
169.145737 32.0
169.181992 48.0
169.200104 180.0
169.251724 180.0
169.332169 44.0
169.350311 76.0
169.380783 172.0
169.387909 224.0
169.417648 92.0
169.456512 128.0
169.510818 180.0
169.565353 128.0
169.715714 80.0
169.752502 168.0
169.784698 160.0
169.789948 96.0
169.799286 124.0
169.850571 160.0
169.871704 136.0
169.923355 144.0
169.992065 196.0
170.010971 132.0
170.107788 2740.0
170.146408 208.0
170.212921 144.0
170.297028 136.0
170.322998 324.0
170.351151 120.0
170.368362 128.0
170.413925 152.0
170.447708 152.0
170.476303 112.0
170.529358 164.0
170.564667 52.0
170.598923 204.0
170.666061 224.0
170.69986 152.0
170.720551 256.0
170.845596 188.0
170.879333 164.0
170.900162 156.0
170.927597 188.0
170.960007 120.0
171.006851 188.0
171.035492 28.0
171.066727 60.0
171.116806 12200.0
171.190506 148.0
171.224075 196.0
171.24736 116.0
171.265869 176.0
171.303497 100.0
171.370468 204.0
171.475677 92.0
171.555038 276.0
171.728592 140.0
171.770325 68.0
171.825272 132.0
171.880188 216.0
171.916428 104.0
171.954544 100.0
172.044922 172.0
172.088089 240.0
172.11998 2376.0
172.145584 72.0
172.223724 148.0
172.320404 164.0
172.349915 64.0
172.391724 76.0
172.420471 188.0
172.475357 96.0
172.501511 176.0
172.564255 168.0
172.632233 96.0
172.676697 260.0
172.694595 148.0
172.759277 168.0
172.831268 140.0
172.849548 144.0
172.888611 100.0
172.920013 124.0
172.974533 104.0
172.981674 72.0
173.006409 216.0
173.029968 116.0
173.095673 2656.0
173.131607 19292.0
173.163864 332.0
173.20401 140.0
173.224991 60.0
173.249954 88.0
173.291107 68.0
173.334717 148.0
173.354965 104.0
173.400681 108.0
173.433701 120.0
173.48703 136.0
173.515564 116.0
173.551361 68.0
173.619553 136.0
173.721359 64.0
173.742828 180.0
173.790161 104.0
173.829422 92.0
173.849579 68.0
173.867508 172.0
173.900284 128.0
174.064163 76.0
174.100052 1336.0
174.1353 3036.0
174.208359 100.0
174.228531 112.0
174.268555 84.0
174.29158 188.0
174.317444 100.0
174.392578 148.0
174.414047 100.0
174.451904 44.0
174.475784 48.0
174.520767 104.0
174.557083 68.0
174.613129 180.0
174.662277 44.0
174.683319 176.0
174.721909 144.0
174.755676 120.0
174.799088 68.0
174.830673 76.0
174.852753 224.0
174.895477 128.0
174.920532 172.0
174.94072 168.0
175.017578 64.0
175.069824 140.0
175.111374 16432.0
175.148041 15112.0
175.192947 208.0
175.213791 32.0
175.250427 124.0
175.284042 332.0
175.329544 56.0
175.372131 96.0
175.455261 132.0
175.505035 60.0
175.531509 104.0
175.628143 136.0
175.65123 176.0
175.755478 144.0
175.777069 104.0
175.802246 36.0
175.808411 56.0
175.843918 120.0
175.881622 340.0
175.965332 112.0
175.996841 64.0
176.067123 176.0
176.113907 1780.0
176.15184 1888.0
176.189819 72.0
176.214966 120.0
176.273193 72.0
176.308868 176.0
176.336624 76.0
176.378906 36.0
176.405792 212.0
176.48201 148.0
176.508453 80.0
176.529617 56.0
176.627472 76.0
176.6698 40.0
176.692947 160.0
176.762939 160.0
176.810043 176.0
176.849747 172.0
176.919998 140.0
176.951782 192.0
177.000641 128.0
177.035294 48.0
177.054749 212.0
177.093781 160.0
177.126846 19836.0
177.164673 2980.0
177.200684 92.0
177.211441 220.0
177.231049 212.0
177.239868 208.0
177.273697 208.0
177.328064 68.0
177.360382 204.0
177.409256 108.0
177.430832 100.0
177.442261 60.0
177.447311 140.0
177.46843 140.0
177.494339 52.0
177.533295 28.0
177.551865 160.0
177.600357 40.0
177.620819 128.0
177.69397 112.0
177.763077 52.0
177.849777 120.0
177.88353 104.0
177.922287 180.0
177.965836 88.0
178.008316 160.0
178.030273 92.0
178.074707 144.0
178.093307 156.0
178.129807 2476.0
178.165146 376.0
178.207535 72.0
178.236923 216.0
178.313843 48.0
178.380295 224.0
178.414444 80.0
178.443283 172.0
178.555786 72.0
178.587692 40.0
178.61293 132.0
178.637573 144.0
178.664841 144.0
178.683472 132.0
178.731354 36.0
178.760635 156.0
178.821289 192.0
178.863388 144.0
178.934982 304.0
178.999039 112.0
179.053253 148.0
179.079468 184.0
179.10881 376.0
179.141678 2708.0
179.207977 68.0
179.237289 192.0
179.314575 64.0
179.359894 184.0
179.420288 128.0
179.466675 76.0
179.512573 244.0
179.571915 208.0
179.621216 120.0
179.658554 108.0
179.677231 56.0
179.709259 76.0
179.733261 176.0
179.834686 144.0
179.904755 132.0
179.944122 128.0
179.970825 168.0
180.005661 188.0
180.04155 52.0
180.088608 108.0
180.144287 308.0
180.221909 52.0
180.267334 176.0
180.30925 104.0
180.411407 120.0
180.451538 132.0
180.51387 252.0
180.619278 76.0
180.646439 56.0
180.685867 244.0
180.715408 204.0
180.783463 100.0
180.8022 176.0
180.823608 148.0
180.86911 140.0
180.917297 48.0
180.953476 164.0
180.986908 76.0
181.005661 152.0
181.040009 116.0
181.069931 80.0
181.104401 856.0
181.158325 144.0
181.209229 228.0
181.273529 160.0
181.295654 116.0
181.319092 124.0
181.36734 172.0
181.399506 120.0
181.427841 84.0
181.479935 96.0
181.512115 112.0
181.541611 184.0
181.574356 288.0
181.610748 232.0
181.64621 172.0
181.683929 196.0
181.745483 176.0
181.809891 204.0
181.866257 72.0
181.914566 52.0
182.108673 1844.0
182.180435 252.0
182.199234 36.0
182.244919 60.0
182.294495 160.0
182.344345 36.0
182.433044 192.0
182.465317 120.0
182.487396 176.0
182.578247 100.0
182.605148 108.0
182.661484 152.0
182.747726 180.0
182.866135 148.0
182.889664 172.0
182.910721 184.0
182.968414 80.0
183.008804 128.0
183.06459 144.0
183.116241 10944.0
183.173096 124.0
183.22966 120.0
183.305115 116.0
183.418304 144.0
183.509964 324.0
183.532562 180.0
183.553116 104.0
183.585403 144.0
183.634018 116.0
183.652893 160.0
183.671783 120.0
183.693359 156.0
183.752716 88.0
183.774292 36.0
183.795502 172.0
183.852554 208.0
183.882248 156.0
183.963226 136.0
183.995621 64.0
184.036118 28.0
184.084381 156.0
184.121277 1424.0
184.173843 44.0
184.211594 140.0
184.276505 124.0
184.310287 152.0
184.330551 56.0
184.366486 108.0
184.395416 88.0
184.419739 56.0
184.512833 92.0
184.552811 124.0
184.63063 144.0
184.724075 68.0
184.763458 188.0
184.790222 128.0
184.884933 68.0
184.929794 160.0
184.990494 148.0
185.033813 180.0
185.052765 180.0
185.13147 12644.0
185.196289 72.0
185.22937 188.0
185.261307 180.0
185.296524 124.0
185.326324 100.0
185.478104 44.0
185.507919 92.0
185.549469 160.0
185.577225 64.0
185.605515 128.0
185.643478 132.0
185.698746 160.0
185.724854 112.0
185.82251 48.0
185.901443 136.0
185.95549 156.0
186.061356 80.0
186.102615 420.0
186.135651 2284.0
186.197128 172.0
186.227005 188.0
186.26503 40.0
186.286758 152.0
186.44545 100.0
186.561234 32.0
186.602478 384.0
186.620544 340.0
186.678146 64.0
186.819595 96.0
186.852234 264.0
186.879166 196.0
186.917542 136.0
186.960739 128.0
186.991013 172.0
187.040756 368.0
187.061798 176.0
187.110504 4032.0
187.147324 14780.0
187.203629 128.0
187.233337 52.0
187.255188 144.0
187.285324 132.0
187.305557 100.0
187.33139 120.0
187.370758 160.0
187.429474 48.0
187.470581 144.0
187.503052 200.0
187.56575 44.0
187.60936 136.0
187.661545 56.0
187.691162 76.0
187.734787 68.0
187.838425 68.0
187.876617 104.0
187.936646 156.0
187.982666 120.0
188.115952 796.0
188.152313 3056.0
188.193222 124.0
188.250565 136.0
188.300339 168.0
188.361771 140.0
188.406601 112.0
188.43631 120.0
188.455429 116.0
188.482758 92.0
188.581375 176.0
188.606583 364.0
188.667603 140.0
188.704803 152.0
188.728775 100.0
188.786636 128.0
188.838165 148.0
188.873718 60.0
188.93663 88.0
188.963989 132.0
189.002304 68.0
189.026932 136.0
189.075043 144.0
189.12616 7772.0
189.162537 2828.0
189.231644 56.0
189.258591 140.0
189.281509 128.0
189.306152 148.0
189.333542 208.0
189.358185 132.0
189.391052 64.0
189.420319 88.0
189.43634 128.0
189.462128 144.0
189.489685 112.0
189.548141 60.0
189.618469 36.0
189.665833 160.0
189.686508 88.0
189.719894 144.0
189.812225 188.0
189.870712 136.0
189.945572 116.0
189.98317 168.0
190.010605 72.0
190.039459 132.0
190.088638 392.0
190.129028 1000.0
190.16684 788.0
190.228012 292.0
190.285065 132.0
190.3647 140.0
190.423309 128.0
190.515762 84.0
190.562469 52.0
190.602859 124.0
190.626602 176.0
190.634903 112.0
190.644241 152.0
190.679031 124.0
190.711075 104.0
190.732864 92.0
190.774094 152.0
190.807816 172.0
190.834579 120.0
190.863876 220.0
190.925323 136.0
190.973129 200.0
191.021393 112.0
191.047226 88.0
191.109863 516.0
191.142166 5664.0
191.17868 344.0
191.211777 136.0
191.242844 124.0
191.286041 40.0
191.316757 352.0
191.346344 228.0
191.426193 80.0
191.444733 200.0
191.490494 148.0
191.508072 120.0
191.541534 228.0
191.549438 160.0
191.558472 208.0
191.585434 172.0
191.611115 376.0
191.639999 136.0
191.682373 284.0
191.714783 344.0
191.740677 324.0
191.761139 312.0
191.779297 148.0
191.787308 108.0
191.810425 112.0
191.857864 308.0
191.897293 360.0
191.921738 332.0
191.941422 188.0
191.97699 384.0
191.988068 108.0
192.001617 312.0
192.026489 412.0
192.056824 908.0
192.106155 288312.0
192.169998 176.0
192.211365 116.0
192.245911 108.0
192.277374 140.0
192.296417 200.0
192.354187 280.0
192.389221 268.0
192.39859 184.0
192.436646 256.0
192.465134 172.0
192.477768 176.0
192.488922 308.0
192.493896 216.0
192.530365 264.0
192.559906 4436.0
192.586502 104.0
192.624771 236.0
192.663742 312.0
192.70372 128.0
192.729324 200.0
192.751343 84.0
192.772934 348.0
192.831451 188.0
192.884552 120.0
192.924194 344.0
192.976883 256.0
192.986435 88.0
192.995712 364.0
193.00499 140.0
193.051132 156.0
193.108429 39276.0
193.156769 2172.0
193.225708 64.0
193.246765 196.0
193.293503 92.0
193.317184 52.0
193.340927 136.0
193.345612 96.0
193.377426 152.0
193.416519 72.0
193.437744 224.0
193.470093 72.0
193.50354 140.0
193.565613 164.0
193.61145 88.0
193.649765 256.0
193.692673 52.0
193.71524 184.0
193.77684 112.0
193.806351 136.0
193.82872 220.0
193.862946 144.0
193.886581 60.0
193.893021 52.0
193.916641 72.0
193.936447 96.0
193.988022 116.0
194.048538 164.0
194.102707 13344.0
194.16803 292.0
194.218292 212.0
194.256622 140.0
194.262604 244.0
194.273712 168.0
194.283325 148.0
194.321274 340.0
194.342316 104.0
194.379349 284.0
194.406815 288.0
194.447525 128.0
194.457031 200.0
194.497726 304.0
194.541275 300.0
194.547638 96.0
194.558411 328.0
194.565399 284.0
194.576691 388.0
194.610855 160.0
194.645767 88.0
194.686295 112.0
194.710205 68.0
194.735031 152.0
194.754471 56.0
194.781158 272.0
194.8228 84.0
194.867249 76.0
194.895752 108.0
194.928879 116.0
194.95163 120.0
194.977768 220.0
194.998947 92.0
195.034653 80.0
195.108643 1224.0
195.175888 276.0
195.222473 124.0
195.257492 136.0
195.278671 148.0
195.301498 108.0
195.324463 104.0
195.344574 156.0
195.368286 160.0
195.412643 76.0
195.445984 144.0
195.486771 40.0
195.509598 216.0
195.53186 284.0
195.576385 52.0
195.655823 120.0
195.698883 84.0
195.731445 92.0
195.797913 224.0
195.914734 40.0
195.982986 184.0
196.06102 44.0
196.089218 104.0
196.121552 1872.0
196.203186 48.0
196.22757 64.0
196.309265 88.0
196.348434 88.0
196.370499 52.0
196.392807 32.0
196.431854 72.0
196.45697 76.0
196.532303 124.0
196.552826 280.0
196.572876 148.0
196.646851 112.0
196.727661 164.0
196.814209 32.0
196.910873 72.0
196.92807 188.0
197.132309 8996.0
197.179611 180.0
197.223038 36.0
197.276337 208.0
197.337234 84.0
197.47934 132.0
197.554871 56.0
197.596832 44.0
197.694763 128.0
197.776733 224.0
197.882309 52.0
197.955124 184.0
197.999924 40.0
198.047546 144.0
198.069946 120.0
198.137726 1868.0
198.195724 76.0
198.243668 44.0
198.352966 76.0
198.413513 128.0
198.560852 176.0
198.609543 88.0
198.655823 80.0
198.754028 132.0
198.779282 108.0
198.838211 76.0
198.92804 64.0
198.972961 56.0
199.054382 36.0
199.088089 168.0
199.11113 476.0
199.147598 7860.0
199.194824 120.0
199.220093 72.0
199.301575 60.0
199.372986 136.0
199.481445 128.0
199.513641 124.0
199.551743 84.0
199.629059 68.0
199.669846 76.0
199.768295 36.0
199.855515 80.0
199.914597 96.0
200.032822 104.0
200.074066 92.0
200.114029 324.0
200.152191 1912.0
200.207382 84.0
200.320053 120.0
200.363251 108.0
200.396118 60.0
200.522934 72.0
200.584946 40.0
200.613129 84.0
200.635681 48.0
200.672333 124.0
200.813339 52.0
200.859818 52.0
200.916962 120.0
200.945923 96.0
200.986374 220.0
201.010818 40.0
201.03775 80.0
201.058197 164.0
201.126953 2812.0
201.163498 8180.0
201.247925 28.0
201.273346 168.0
201.318527 148.0
201.408279 108.0
201.419266 84.0
201.516266 128.0
201.598877 180.0
201.635925 56.0
201.705612 80.0
201.764969 76.0
201.790421 76.0
201.833725 140.0
201.98555 192.0
202.01384 124.0
202.036484 64.0
202.073257 96.0
202.129608 888.0
202.167175 1376.0
202.249115 84.0
202.319489 104.0
202.358459 144.0
202.520538 172.0
202.565857 56.0
202.614029 108.0
202.636688 220.0
202.661423 108.0
202.696457 44.0
202.725861 120.0
202.758545 172.0
202.849243 124.0
202.871918 356.0
202.914444 244.0
202.975204 316.0
202.999313 56.0
203.02504 76.0
203.059067 44.0
203.142258 9992.0
203.176697 2460.0
203.237793 52.0
203.298279 148.0
203.376846 104.0
203.405243 68.0
203.47905 40.0
203.500748 100.0
203.525558 116.0
203.561401 36.0
203.58696 48.0
203.649429 72.0
203.692383 68.0
203.742889 116.0
203.777267 132.0
203.888092 44.0
203.96199 72.0
204.033066 84.0
204.064346 52.0
204.107727 92.0
204.14653 1820.0
204.17955 364.0
204.274796 60.0
204.303238 60.0
204.331696 104.0
204.412781 40.0
204.468277 56.0
204.510971 64.0
204.556519 68.0
204.755829 100.0
204.89827 72.0
204.921051 112.0
204.955246 56.0
205.120087 864.0
205.157181 4348.0
205.193954 152.0
205.228073 176.0
205.348663 172.0
205.431381 52.0
205.468475 60.0
205.512756 52.0
205.54837 176.0
205.605438 68.0
205.64444 152.0
205.696777 104.0
205.769974 144.0
205.86676 112.0
205.898163 120.0
205.970901 144.0
206.050903 40.0
206.088043 68.0
206.122391 480.0
206.163605 436.0
206.213776 52.0
206.250946 88.0
206.27095 116.0
206.422485 116.0
206.482544 80.0
206.533295 156.0
206.576935 68.0
206.622711 44.0
206.668488 40.0
206.716995 84.0
206.788681 60.0
206.837341 164.0
206.865967 96.0
207.052078 84.0
207.136719 656.0
207.172562 664.0
207.25351 64.0
207.347183 76.0
207.600769 168.0
207.65683 92.0
207.703812 84.0
207.745667 132.0
207.843292 68.0
208.084396 36.0
208.144547 148.0
208.174881 328.0
208.27681 136.0
208.311279 116.0
208.394592 132.0
208.435791 84.0
208.572205 192.0
208.670517 96.0
208.817184 48.0
208.87471 64.0
208.944305 104.0
209.024323 52.0
209.076111 112.0
209.134674 560.0
209.220047 184.0
209.464828 104.0
209.533966 144.0
209.584381 128.0
209.672272 92.0
209.822174 72.0
210.012497 72.0
210.081726 104.0
210.139679 1188.0
210.225998 140.0
210.358765 44.0
210.404953 192.0
210.661987 120.0
210.870041 84.0
210.956757 52.0
210.99144 68.0
211.037704 68.0
211.104218 60.0
211.147934 8428.0
211.192383 116.0
211.201294 148.0
211.235641 64.0
211.274872 80.0
211.376144 168.0
211.596115 60.0
211.865463 248.0
211.969772 60.0
212.024841 172.0
212.063278 180.0
212.152512 2132.0
212.227753 52.0
212.384354 220.0
212.582474 120.0
212.671616 64.0
212.755798 92.0
212.802261 76.0
212.828384 32.0
212.956177 36.0
213.006516 144.0
213.074478 176.0
213.095612 164.0
213.130096 416.0
213.162994 3992.0
213.269974 76.0
213.296143 68.0
213.351364 96.0
213.394974 72.0
213.482224 32.0
213.624741 52.0
213.650925 116.0
213.700378 52.0
213.752762 124.0
213.877899 180.0
214.059631 152.0
214.102097 68.0
214.132416 340.0
214.167892 1280.0
214.215698 40.0
214.262848 64.0
214.323486 88.0
214.361374 124.0
214.504181 84.0
214.550827 120.0
214.737457 116.0
214.783356 136.0
214.827881 128.0
214.927078 76.0
214.959183 68.0
215.037979 120.0
215.086319 200.0
215.142258 7652.0
215.178604 3972.0
215.233582 68.0
215.265701 216.0
215.36792 36.0
215.449707 60.0
215.490616 68.0
215.566589 56.0
215.587036 92.0
215.629105 112.0
215.681686 72.0
215.738098 112.0
215.870605 68.0
216.040253 148.0
216.146774 1632.0
216.18219 1300.0
216.461731 84.0
216.482239 44.0
216.51152 52.0
216.537872 44.0
216.622818 60.0
216.690201 48.0
216.971558 72.0
217.071259 148.0
217.158401 6604.0
217.196671 564.0
217.263306 76.0
217.41449 48.0
217.47612 104.0
217.510834 68.0
217.550369 68.0
217.612335 212.0
217.646408 112.0
217.737442 88.0
217.810867 76.0
217.843185 72.0
217.966583 68.0
218.007721 44.0
218.081192 132.0
218.161774 832.0
218.200867 124.0
218.389923 44.0
218.497559 120.0
218.548798 148.0
218.581161 148.0
218.787201 140.0
219.019836 92.0
219.137863 752.0
219.17244 1588.0
219.423569 52.0
219.451889 80.0
219.522842 72.0
219.559204 28.0
219.70079 68.0
219.771606 72.0
219.998871 56.0
220.068054 220.0
220.179977 416.0
220.208527 156.0
220.252823 228.0
220.421234 80.0
220.501022 124.0
220.531769 148.0
220.586746 68.0
220.628128 84.0
220.725693 156.0
220.909073 64.0
220.94162 132.0
221.048141 216.0
221.083649 48.0
221.152817 5824.0
221.293823 44.0
221.452881 84.0
221.518906 148.0
221.747055 108.0
221.827087 28.0
221.945679 152.0
221.997101 176.0
222.049484 68.0
222.157135 660.0
222.196213 120.0
222.537567 152.0
222.601471 164.0
222.735123 108.0
222.761871 180.0
222.824249 80.0
222.943115 68.0
222.969864 84.0
222.996613 64.0
223.162079 628.0
223.600372 44.0
223.704559 40.0
223.741318 80.0
223.77861 96.0
223.936813 208.0
223.988892 132.0
224.155701 896.0
224.182266 488.0
224.291397 92.0
224.464325 92.0
224.580627 72.0
224.807373 144.0
224.84021 52.0
224.963303 184.0
225.025284 196.0
225.070068 156.0
225.114868 140.0
225.163422 4852.0
225.258224 124.0
225.547073 196.0
225.643753 88.0
225.751389 180.0
225.993683 100.0
226.063385 124.0
226.137329 104.0
226.167755 1596.0
226.245102 88.0
226.451721 84.0
226.616486 176.0
226.673416 88.0
226.724365 68.0
227.051147 100.0
227.07814 40.0
227.140213 452.0
227.178726 8640.0
227.270126 140.0
227.324142 140.0
227.361359 72.0
227.53125 48.0
227.565857 84.0
227.663376 60.0
227.702423 48.0
227.764389 68.0
228.047943 40.0
228.099731 140.0
228.147873 144.0
228.181732 1648.0
228.231323 128.0
228.293045 84.0
228.591415 68.0
228.896332 56.0
228.958481 132.0
229.022827 180.0
229.158478 4708.0
229.19313 5400.0
229.315094 56.0
229.336197 40.0
229.456772 72.0
229.531158 60.0
229.570236 88.0
229.630386 84.0
229.670883 64.0
229.692001 168.0
229.735428 68.0
229.851913 88.0
229.906219 52.0
230.162903 2088.0
230.196991 1684.0
230.300903 72.0
230.401428 48.0
230.442337 96.0
230.501144 136.0
230.550293 100.0
230.655273 44.0
230.839706 112.0
231.114975 148.0
231.174881 1700.0
231.211655 732.0
231.258636 36.0
231.29657 88.0
231.430893 76.0
231.505478 52.0
231.611481 48.0
231.705399 120.0
231.748642 44.0
231.832657 84.0
231.981171 72.0
232.177429 448.0
232.214142 140.0
232.278366 60.0
232.320831 44.0
232.372406 100.0
232.417923 116.0
232.624298 132.0
232.694122 84.0
232.958344 136.0
233.104187 172.0
233.153275 2984.0
233.188873 1056.0
233.502441 136.0
233.636292 72.0
233.675842 120.0
233.76712 28.0
233.970551 96.0
234.007599 148.0
234.095901 48.0
234.156769 528.0
234.191406 132.0
234.217728 132.0
234.305847 164.0
234.357864 76.0
234.458435 160.0
234.748047 48.0
234.970718 156.0
234.994995 100.0
235.168304 1824.0
235.224014 152.0
235.245377 60.0
235.550751 132.0
235.659363 136.0
235.822708 108.0
235.847153 88.0
236.171005 436.0
236.455826 120.0
236.780365 60.0
236.932495 84.0
237.162445 752.0
237.212402 132.0
237.552795 48.0
237.601868 64.0
237.712341 124.0
237.871933 48.0
238.028519 108.0
238.171127 1000.0
238.234299 108.0
238.274246 104.0
238.590805 128.0
238.729172 120.0
238.821442 80.0
238.879883 60.0
238.982086 108.0
239.042953 60.0
239.177536 1672.0
239.295349 48.0
239.332306 68.0
239.396973 96.0
239.597183 92.0
239.720428 180.0
239.991699 140.0
240.178543 660.0
240.377274 204.0
240.608765 72.0
240.893967 144.0
240.929962 44.0
240.976303 32.0
241.00412 112.0
241.047379 68.0
241.115372 128.0
241.156769 324.0
241.194565 2788.0
241.276108 40.0
241.721512 56.0
241.761734 60.0
241.823639 28.0
241.863876 60.0
242.120865 48.0
242.160782 124.0
242.198288 980.0
242.278839 132.0
242.312912 36.0
242.362488 144.0
242.622833 48.0
242.721146 176.0
242.805786 84.0
242.830597 44.0
243.175476 2492.0
243.211075 1388.0
243.319031 140.0
243.382996 40.0
243.650116 76.0
243.765076 216.0
243.908035 40.0
244.180374 492.0
244.210754 380.0
244.27623 180.0
244.32756 40.0
244.423828 76.0
244.486557 160.0
244.670212 148.0
244.760498 176.0
244.835587 72.0
244.953598 56.0
244.994095 112.0
245.056412 148.0
245.105667 196.0
245.189545 8808.0
245.274567 80.0
245.433044 48.0
245.474106 120.0
245.528214 104.0
245.702728 148.0
245.733002 120.0
245.761078 156.0
245.798523 44.0
245.895264 56.0
245.923355 32.0
246.001404 60.0
246.148148 224.0
246.192719 2136.0
246.225113 96.0
246.335541 36.0
246.388641 40.0
246.444885 64.0
247.075912 232.0
247.098358 176.0
247.167755 1336.0
247.204788 1112.0
247.239044 104.0
247.279861 52.0
247.333069 144.0
247.461426 100.0
247.516464 116.0
247.872269 72.0
248.047272 120.0
248.173935 436.0
248.208115 300.0
248.332611 180.0
248.611832 44.0
248.692245 72.0
248.759354 112.0
248.837845 140.0
248.869247 100.0
248.910065 68.0
249.076523 168.0
249.178757 224.0
249.349884 52.0
249.727173 176.0
250.173279 172.0
250.259018 156.0
250.996353 156.0
251.037338 184.0
251.447464 164.0
252.148621 108.0
252.184357 544.0
252.622925 64.0
253.188538 164.0
253.503143 96.0
253.701859 156.0
253.859467 100.0
254.121475 132.0
254.198669 196.0
254.893066 36.0
255.155746 168.0
255.209534 1016.0
255.39856 56.0
255.592636 68.0
255.621277 120.0
255.649918 48.0
256.0383 64.0
256.184845 276.0
256.22168 96.0
256.729889 60.0
256.793671 104.0
256.854279 112.0
257.190186 2128.0
257.224731 3740.0
257.297852 36.0
257.325684 56.0
257.433258 60.0
257.488037 108.0
257.760986 204.0
257.892029 68.0
257.981537 48.0
258.032684 112.0
258.099823 136.0
258.192108 524.0
258.228821 1512.0
258.339722 112.0
258.387695 92.0
258.49649 56.0
258.794189 36.0
258.864624 60.0
258.999146 44.0
259.040802 52.0
259.127289 72.0
259.202972 712.0
259.521515 44.0
259.781311 128.0
259.829437 56.0
259.858307 84.0
260.095795 68.0
260.21759 320.0
260.269165 100.0
260.918182 36.0
261.104675 48.0
261.149719 68.0
261.181671 416.0
261.217773 176.0
261.258362 160.0
261.316986 176.0
261.429626 48.0
261.477905 40.0
261.532623 144.0
261.557373 104.0
261.674255 112.0
261.832062 152.0
262.179993 172.0
262.228333 180.0
262.279907 92.0
262.341156 76.0
262.379852 72.0
262.441101 40.0
262.895599 164.0
263.21875 92.0
263.793854 64.0
263.884399 48.0
264.673889 120.0
264.971863 36.0
265.192352 200.0
265.338104 48.0
265.746765 48.0
265.964203 64.0
266.195129 156.0
266.46756 64.0
266.571533 84.0
266.955139 108.0
267.209473 9384.0
267.299255 36.0
267.342285 64.0
267.394348 52.0
267.439911 64.0
267.488739 60.0
267.600555 84.0
267.755737 52.0
267.798065 68.0
267.973999 68.0
268.003326 52.0
268.071747 220.0
268.092468 144.0
268.21344 2344.0
268.2771 48.0
268.381409 44.0
268.508606 72.0
268.564056 48.0
268.740204 48.0
269.066589 52.0
269.212463 316.0
269.272339 44.0
269.367035 64.0
269.657867 48.0
269.847473 164.0
269.968445 164.0
270.043671 108.0
270.096008 132.0
270.187439 136.0
270.23996 88.0
270.266113 100.0
270.649109 56.0
270.920959 100.0
271.022522 96.0
271.192932 76.0
271.294556 120.0
271.412567 36.0
271.668396 68.0
271.81604 64.0
271.875122 40.0
272.003113 76.0
272.206696 100.0
272.416901 92.0
273.222137 376.0
273.732513 136.0
274.197021 152.0
274.295898 100.0
274.625641 48.0
275.104126 96.0
275.201233 372.0
275.235229 308.0
275.470673 68.0
275.536774 124.0
275.600769 100.0
275.781311 60.0
275.830872 120.0
275.860626 120.0
276.194611 120.0
276.237915 400.0
276.747284 100.0
277.373444 32.0
277.476227 64.0
277.502747 92.0
278.033508 64.0
278.182861 88.0
278.830566 92.0
279.931763 72.0
280.571503 60.0
280.594849 132.0
280.821594 196.0
281.085144 124.0
281.940063 36.0
282.498444 104.0
282.806305 104.0
282.85318 36.0
283.15451 56.0
283.744293 44.0
283.86499 80.0
284.037018 56.0
284.170258 116.0
284.213867 188.0
284.344757 116.0
284.613312 164.0
284.754364 72.0
285.073517 96.0
285.140717 144.0
285.221069 10092.0
285.327606 88.0
285.416382 60.0
285.660522 96.0
285.853699 64.0
285.947937 60.0
286.042175 80.0
286.170105 180.0
286.224335 2356.0
286.287079 76.0
286.33371 144.0
286.392365 72.0
286.594513 48.0
286.759644 100.0
286.813568 56.0
286.867493 52.0
286.955139 80.0
287.022583 40.0
287.096771 76.0
287.191223 64.0
287.228516 408.0
287.336273 68.0
287.802063 64.0
287.829071 108.0
287.984406 124.0
288.227661 52.0
288.362854 112.0
288.441101 128.0
289.155212 72.0
289.364136 92.0
290.17392 68.0
290.468964 44.0
291.07309 76.0
291.892029 104.0
291.999359 92.0
292.215149 88.0
292.51123 92.0
292.93692 40.0
293.011871 64.0
293.768707 48.0
294.615356 80.0
295.069885 88.0
295.463196 64.0
295.808838 60.0
296.984192 52.0
297.505768 108.0
297.890411 100.0
298.509064 60.0
300.120605 148.0
300.265442 40.0
300.610443 48.0
302.206879 120.0
302.258759 84.0
302.90274 112.0
303.069031 100.0
303.232361 4300.0
303.526581 76.0
303.661835 48.0
303.894257 32.0
303.956726 132.0
303.981018 32.0
304.23407 1028.0
304.539978 96.0
304.682404 140.0
305.026428 68.0
305.179413 68.0
305.239838 360.0
305.920471 156.0
307.544891 64.0
307.977844 80.0
308.246857 68.0
308.781738 56.0
309.443115 104.0
310.631195 88.0
310.725922 108.0
310.780487 40.0
312.03244 108.0
312.148468 100.0
312.739532 40.0
313.119781 136.0
314.674896 72.0
314.770233 60.0
314.794952 128.0
315.162323 92.0
315.33194 124.0
315.848175 32.0
316.067535 84.0
316.120605 56.0
316.283417 48.0
316.417938 88.0
316.51001 40.0
317.091003 60.0
317.590942 60.0
318.844269 52.0
318.897583 144.0
320.100067 56.0
320.937469 80.0
320.983826 108.0
321.046204 40.0
321.347626 116.0
322.261688 96.0
322.808594 100.0
322.976685 72.0
323.21637 128.0
324.452087 100.0
325.467468 56.0
325.492615 96.0
326.362885 100.0
326.437683 164.0
326.635498 104.0
326.793793 92.0
326.962921 68.0
327.838074 84.0
327.866913 76.0
328.061554 48.0
328.855133 84.0
329.115051 92.0
329.407593 40.0
330.184723 124.0
331.205414 136.0
331.502502 104.0
332.935486 108.0
333.055359 100.0
333.152496 140.0
333.244263 56.0
333.654968 68.0
334.00769 80.0
334.102295 124.0
335.027008 100.0
336.861969 84.0
337.296844 140.0
337.432098 80.0
337.63559 88.0
338.991425 68.0
339.482635 40.0
340.363373 100.0
341.796936 52.0
341.859497 52.0
342.945984 64.0
346.582489 44.0
346.934601 92.0
348.244507 48.0
348.764709 64.0
349.870422 100.0
350.342499 72.0
350.841888 56.0
351.046967 48.0
352.069489 124.0
352.226379 124.0
352.289886 48.0
352.884125 64.0
353.359131 104.0
353.733368 88.0
354.017914 120.0
354.737305 80.0
355.123535 48.0
356.212097 68.0
356.392426 76.0
356.580322 72.0
358.322601 88.0
358.854034 164.0
359.129333 100.0
359.44751 60.0
360.964813 156.0
361.524689 64.0
362.839081 76.0
363.187958 184.0
364.349579 56.0
364.676392 36.0
366.324036 112.0
366.941406 56.0
367.512054 92.0
368.44516 104.0
368.861694 116.0
372.552063 136.0
373.31311 68.0
374.11731 92.0
374.494659 84.0
376.083252 48.0
376.218353 60.0
376.554291 156.0
376.693359 68.0
377.168671 80.0
378.669952 64.0
379.724152 76.0
380.147034 40.0
381.533691 92.0
384.19754 88.0
384.583862 88.0
385.310211 48.0
386.517181 76.0
387.932312 56.0
387.959747 56.0
388.771698 64.0
389.317383 132.0
395.226501 216.0
397.842377 64.0
398.807648 80.0
400.148285 92.0
401.379486 48.0
401.475189 60.0
402.460846 52.0
402.800323 84.0
403.119965 84.0
404.431793 52.0
404.547852 64.0
405.092499 72.0
406.367401 84.0
407.290741 48.0
408.07843 60.0
408.878937 48.0
410.68396 48.0
412.226227 92.0
412.747681 92.0
415.863098 76.0
417.581787 48.0
420.017548 96.0
420.78067 160.0
423.618927 176.0
424.422241 96.0
425.53418 60.0
426.499573 60.0
426.992981 84.0
427.235687 88.0
428.940582 96.0
429.967621 48.0
430.099701 76.0
430.628204 92.0
432.492981 60.0
432.907013 68.0
433.122375 52.0
433.205231 100.0
433.91391 56.0
435.129547 68.0
435.391144 36.0
435.424377 40.0
435.839813 108.0
436.725311 72.0
437.661682 104.0
438.444855 40.0
441.304321 84.0
442.80246 100.0
443.313568 84.0
444.731171 116.0
446.975403 64.0
448.778229 160.0
449.111389 68.0
449.275909 76.0
450.875427 84.0
451.717682 116.0
452.339722 44.0
453.326599 96.0
455.477692 60.0
456.089569 128.0
456.472229 72.0
456.684875 64.0
456.740173 40.0
460.713196 108.0
462.261017 48.0
463.639984 92.0
466.743713 88.0
467.957123 76.0
468.999634 84.0
469.637817 28.0
471.26535 52.0
472.2034 92.0
472.822113 76.0
472.930298 76.0
472.995239 96.0
473.1987 60.0
475.409393 96.0
476.221283 36.0
477.486084 84.0
477.583405 72.0
477.716614 96.0
478.321503 120.0
479.083557 68.0
479.950897 60.0
481.709778 84.0
484.075989 44.0
486.035431 72.0
487.203339 72.0
488.174713 72.0
488.949005 88.0
489.393616 80.0
491.787445 168.0
491.986084 44.0
492.396759 68.0
493.156708 104.0
493.227417 40.0
494.328186 1032.0
494.930725 80.0
495.045837 148.0
495.231873 52.0
495.3284 520.0
495.794525 64.0
496.295471 32.0
496.335236 232.0
497.222626 56.0
497.644318 116.0
498.408325 76.0
498.776459 72.0
499.328552 52.0
500.908691 40.0
501.02005 76.0
502.049713 28.0
504.666504 40.0
504.697784 128.0
507.26767 108.0
507.330414 100.0
510.203644 52.0
515.061584 80.0
518.849365 100.0
519.765564 36.0
520.491821 60.0
520.787048 72.0
522.619141 84.0
522.860291 64.0
524.089844 64.0
526.68573 120.0
527.160889 44.0
527.371094 52.0
528.477844 80.0
531.873779 72.0
532.557922 48.0
532.709534 72.0
536.755127 76.0
537.21637 80.0
537.350159 112.0
539.955505 72.0
541.343872 100.0
541.811707 100.0
544.200317 40.0
546.743042 156.0
548.587585 40.0
549.263733 40.0
553.610474 96.0
555.077271 32.0
555.278931 112.0
555.410217 44.0
555.912231 72.0
559.969543 112.0
560.864807 60.0
561.260803 80.0
562.780151 80.0
564.373291 72.0
566.791321 68.0
568.545898 52.0
570.521912 76.0
570.726379 96.0
571.882385 112.0
572.201355 56.0
572.477539 132.0
572.682312 44.0
572.753784 80.0
575.185669 96.0
577.307007 80.0
578.847961 124.0
579.897156 124.0
582.786133 52.0
584.449829 44.0
585.884583 48.0
586.135132 72.0
589.01062 100.0
593.506714 48.0
594.277893 92.0
596.405029 64.0
598.677124 88.0
602.904419 104.0
602.939514 76.0
609.10498 108.0
609.370239 84.0
611.317505 80.0
612.996704 44.0
613.356506 40.0
630.835449 32.0
633.2724 104.0
635.2724 56.0
642.113342 76.0
643.733337 120.0
644.470886 52.0
644.834717 120.0
645.866211 84.0
650.44696 116.0
650.553589 80.0
652.372253 44.0
653.53186 64.0
653.603088 56.0
655.747131 108.0
656.241577 116.0
656.935181 40.0
657.664917 72.0
658.236694 92.0
658.732117 72.0
661.119934 64.0
661.288818 88.0
661.944153 176.0
664.871338 68.0
666.555786 56.0
674.989136 112.0
677.126465 32.0
682.487183 44.0
683.152893 108.0
684.256226 168.0
685.282288 60.0
689.53418 72.0
695.469604 64.0
702.172852 84.0
703.175293 48.0
704.120361 192.0
705.235168 284.0
707.811646 48.0
708.076416 60.0
710.350342 64.0
710.796021 148.0
713.313538 64.0
716.922241 80.0
717.924438 84.0
721.30957 152.0
724.381165 64.0
726.997742 180.0
727.443237 92.0
729.672729 40.0
732.169067 180.0
735.312744 64.0
736.003723 136.0
737.148926 124.0
739.782959 68.0
742.991272 96.0
743.38739 44.0
743.436218 60.0
746.005371 176.0
751.714172 160.0
752.139221 108.0
753.264099 44.0
753.624695 96.0
756.151123 68.0
758.111816 184.0
760.563416 112.0
761.51886 56.0
761.617737 164.0
761.793335 172.0
762.167114 188.0
768.863525 180.0
769.790955 52.0
769.901428 120.0
770.492432 48.0
772.261414 100.0
774.697021 128.0
780.074402 40.0
781.848755 72.0
782.416565 60.0
784.232544 160.0
787.686584 128.0
789.676453 160.0
791.433716 152.0
793.327393 72.0
796.323853 60.0
796.812622 60.0
797.16095 60.0
799.530457 108.0
800.102722 44.0
809.61731 152.0
810.291382 164.0
811.24353 136.0
811.351257 116.0
811.912598 88.0
815.279175 120.0
815.773682 192.0
816.205811 180.0
819.598389 112.0
820.567322 88.0
822.13031 216.0
822.803833 88.0
830.449097 188.0
831.011292 72.0
831.160461 148.0
833.428589 176.0
834.641479 36.0
836.137207 160.0
837.190735 52.0
838.187317 108.0
838.711792 44.0
839.668945 140.0
840.015015 60.0
843.398865 132.0
848.354004 156.0
848.400391 80.0
848.440979 136.0
848.783081 68.0
849.954529 148.0
852.620361 192.0
853.062073 52.0
858.132996 32.0
859.317017 80.0
865.214172 148.0
866.121826 84.0
868.102844 152.0
869.39093 164.0
871.860107 152.0
874.3302 240.0
876.161438 72.0
876.232178 160.0
876.538574 152.0
878.260071 144.0
878.442932 48.0
880.603394 164.0
880.987305 104.0
881.826416 140.0
883.683289 40.0
884.393433 128.0
885.500671 140.0
885.784973 184.0
887.98407 188.0
888.363647 148.0
888.885803 172.0
889.817688 156.0
890.464966 44.0
890.880798 216.0
893.443054 160.0
893.538269 144.0
895.270447 208.0
895.794617 36.0
897.570679 164.0
897.809265 72.0
898.131287 212.0
900.017212 96.0
902.63446 160.0
902.84375 60.0
903.998413 216.0
904.668762 152.0
905.944336 52.0
908.39624 168.0
908.468201 160.0
908.720215 144.0
909.692444 152.0
909.776489 204.0
910.364929 160.0
910.863464 132.0
912.912964 164.0
913.88147 156.0
915.338135 184.0
915.868103 168.0
916.970764 72.0
917.44696 108.0
919.522034 100.0
920.518127 128.0
920.820129 56.0
921.21875 124.0
921.406067 112.0
921.654297 136.0
922.143311 168.0
922.747803 228.0
922.995728 68.0
923.61261 108.0
923.763794 168.0
923.818237 200.0
923.945312 144.0
924.199402 184.0
924.907532 180.0
925.089111 96.0
925.791504 152.0
926.233643 160.0
927.487915 172.0
927.815308 168.0
928.536865 196.0
928.828064 196.0
929.143494 176.0
929.835266 84.0
930.563721 64.0
932.550171 160.0
933.224976 136.0
933.547302 76.0
933.954773 120.0
935.482178 144.0
936.237183 132.0
936.760986 128.0
939.095642 196.0
939.353271 128.0
940.04126 80.0
940.108398 144.0
940.877502 80.0
940.938538 184.0
940.999573 216.0
941.219421 188.0
942.01947 132.0
942.105042 208.0
942.991089 148.0
943.070496 144.0
943.755249 168.0
943.871399 144.0
944.15271 44.0
944.41571 152.0
944.776611 92.0
945.755737 280.0
946.821106 88.0
946.968079 104.0
947.084473 160.0
947.23761 136.0
948.328308 100.0
948.720581 56.0
948.892273 180.0
949.021057 188.0
949.192749 44.0
949.254028 80.0
949.634277 88.0
949.732422 176.0
950.32135 80.0
950.885925 36.0
950.990295 36.0
951.524353 112.0
951.708557 196.0
953.557678 108.0
953.674438 80.0
953.90802 156.0
954.578186 224.0
954.762695 260.0
955.488525 148.0
955.900818 192.0
956.583984 140.0
956.644897 160.0
956.873352 176.0
957.082703 140.0
958.530273 152.0
959.134216 164.0
959.448608 148.0
959.997437 136.0
960.385986 208.0
960.540161 104.0
961.064575 124.0
961.403992 144.0
961.552124 152.0
961.595276 164.0
962.033569 140.0
963.015381 140.0
963.145081 204.0
963.318054 188.0
964.102783 172.0
964.393433 160.0
964.906372 168.0
965.104187 364.0
966.229919 112.0
967.665771 88.0
968.29126 176.0
968.650513 164.0
969.034607 144.0
969.232849 184.0
969.666687 132.0
970.224548 232.0
971.080322 176.0
971.210571 228.0
971.570374 176.0
972.01709 124.0
973.562866 132.0
974.016296 148.0
974.227478 144.0
974.730774 188.0
975.016602 120.0
975.116089 128.0
975.644409 136.0
976.334656 132.0
976.882019 112.0
977.914917 220.0
978.182617 36.0
978.506348 104.0
979.082397 168.0
979.228699 80.0
980.107117 244.0
980.942261 148.0
981.235229 156.0
982.626099 144.0
983.605896 224.0
984.092834 128.0
984.579956 172.0
984.623657 64.0
985.423218 144.0
985.766907 152.0
986.19812 128.0
986.817017 152.0
987.16095 160.0
989.050415 80.0
989.23822 196.0
989.36969 176.0
989.4198 196.0
989.826782 176.0
990.346558 116.0
990.959717 128.0
991.079529 28.0
991.298889 144.0
991.417969 56.0
991.605957 136.0
992.101196 196.0
992.420898 152.0
993.029968 232.0
993.468323 124.0
993.574951 196.0
993.744385 156.0
993.94519 32.0
994.999634 140.0
995.187988 148.0
996.007935 208.0
996.483948 156.0
996.557251 128.0
996.984558 108.0
997.663452 108.0
998.543762 120.0
999.015564 108.0
999.525146 60.0
999.745422 172.0
999.890198 100.0
1000.544861 200.0
1000.677063 160.0
1001.262695 132.0
1003.550171 168.0
1003.726746 168.0
1003.890686 176.0
1004.035767 132.0
1004.578186 72.0
1004.893677 48.0
1005.139709 128.0
1005.423706 140.0
1005.570251 200.0
1005.752136 136.0
1006.143311 176.0
1006.522156 200.0
1006.825256 64.0
1007.1474 144.0
1007.349548 168.0
1008.132996 108.0
1008.67749 228.0
1008.828308 76.0
1009.07489 56.0
1009.25824 84.0
1009.615112 196.0
1009.69458 204.0
1010.219543 80.0
1010.561218 84.0
1011.080139 320.0
1011.156067 184.0
1011.231995 164.0
1011.625916 176.0
1011.858704 64.0
1011.909363 200.0
1011.953674 224.0
1012.631287 216.0
1012.709656 108.0
1013.182373 132.0
1013.638611 96.0
1013.790649 144.0
1014.291382 132.0
1014.427856 264.0
1014.52594 152.0
1014.836609 120.0
1015.210754 124.0
1016.276428 116.0
1016.581055 132.0
1016.796814 56.0
1017.018921 160.0
1017.209412 168.0
1017.399841 164.0
1017.882385 144.0
1018.085571 176.0
1018.308533 176.0
1018.568298 236.0
1018.87323 92.0
1019.0448 72.0
1019.305298 176.0
1019.406982 160.0
1019.648499 144.0
1019.731079 112.0
1020.347717 152.0
1020.748291 132.0
1020.894592 104.0
1021.384277 132.0
1021.730347 180.0
1021.848694 128.0
1022.325928 140.0
1022.529602 128.0
1022.835144 124.0
1023.338074 112.0
1023.433594 220.0
1023.713745 120.0
1023.943054 156.0
1024.261475 88.0
1025.459473 168.0
1025.720703 136.0
1025.784546 88.0
1026.058594 128.0
1026.230835 132.0
1026.339233 120.0
1026.568726 136.0
1026.696289 172.0
1026.859253 132.0
1027.059814 180.0
1027.46814 108.0
1027.659546 156.0
1028.176392 96.0
1028.355103 80.0
1028.508301 168.0
1028.687012 220.0
1028.731689 212.0
1029.63208 56.0
1029.709351 172.0
1030.564697 232.0
1030.699585 188.0
1030.78833 140.0
1030.839478 112.0
1030.99292 100.0
1031.127075 124.0
1031.178223 124.0
1031.63208 152.0
1031.875 196.0
1032.610352 176.0
1032.898193 56.0
1033.134888 104.0
1033.544434 164.0
1033.736328 192.0
1033.915527 136.0
1034.177979 228.0
1034.696533 120.0
1035.055054 204.0
1035.135254 168.0
1035.323975 144.0
1035.791626 180.0
1036.259277 152.0
1037.37439 196.0
1037.957886 172.0
1038.19519 128.0
1038.342651 112.0
1039.799072 60.0
1040.325439 192.0
1040.440918 188.0
1040.659302 124.0
1040.729858 124.0
1040.96106 140.0
1041.262939 132.0
1041.359253 168.0
1041.494141 176.0
1041.783203 144.0
1041.905273 124.0
1041.995239 172.0
1042.23938 248.0
1042.939819 192.0
1043.26123 128.0
1043.39624 108.0
1043.987915 132.0
1044.638794 160.0
1044.836914 124.0
1044.920532 112.0
1045.705688 184.0
1046.124023 56.0
1046.252808 144.0
1046.342896 168.0
1046.394409 180.0
1048.236694 156.0
1048.430054 144.0
1048.984253 100.0
1049.085571 152.0
1049.255127 196.0
1049.532349 96.0
1049.674194 180.0
1050.383667 248.0
1050.435303 200.0
1050.635254 208.0
1050.757812 172.0
1051.474121 64.0
1051.925903 172.0
1052.145386 124.0
1052.829834 68.0
1052.881592 200.0
1052.946167 88.0
1053.404785 124.0
1053.566284 172.0
1053.688965 140.0
1053.94104 168.0
1054.309326 160.0
1054.731445 144.0
1055.10437 180.0
1055.375977 168.0
1055.429565 124.0
1055.481201 152.0
1055.544067 104.0
1056.016235 172.0
1056.488403 180.0
1056.694824 164.0
1056.831299 156.0
1057.116089 144.0
1057.452515 96.0
1057.912109 184.0
1058.002808 204.0
1058.158203 132.0
1058.404175 112.0
1058.62439 208.0
1058.689209 144.0
1058.748169 132.0
1059.246216 164.0
1059.369263 224.0
1059.53125 136.0
1059.602539 140.0
1059.770996 224.0
1059.981323 144.0
1060.049561 108.0
1060.957031 136.0
1061.2229 120.0
1061.501709 128.0
1062.033447 188.0
1062.266968 40.0
1062.318848 120.0
1062.377319 160.0
1063.049805 168.0
1063.183472 228.0
1063.512939 132.0
1064.213989 88.0
1064.68811 308.0
1064.772461 272.0
1064.915405 164.0
1065.006348 124.0
1065.707886 132.0
1065.831421 148.0
1066.14978 124.0
1066.526855 100.0
1066.611328 220.0
1067.092407 60.0
1067.651611 200.0
1067.807739 136.0
1067.866211 36.0
1068.022339 104.0
1068.802979 120.0
1069.147949 184.0
1069.213013 116.0
1069.37915 96.0
1069.430908 116.0
1069.798828 168.0
1070.020142 44.0
1070.208984 144.0
1070.293701 196.0
1070.410889 72.0
1070.461182 192.0
1070.795166 192.0
1070.99707 132.0
1071.296631 92.0
1071.589844 124.0
1071.752808 140.0
1072.502197 76.0
1072.749878 44.0
1072.828125 60.0
1072.991089 148.0
1073.231445 184.0
1073.33667 108.0
1073.44104 152.0
1073.584473 76.0
1073.982422 216.0
1074.295532 180.0
1074.386841 156.0
1074.523804 100.0
1074.977417 172.0
1075.16333 148.0
1075.476562 144.0
1075.561401 156.0
1075.607178 200.0
1075.946655 108.0
1076.279663 224.0
1076.410156 128.0
1076.736694 108.0
1076.998047 128.0
1077.135132 208.0
1077.409546 100.0
1077.951904 92.0
1078.278687 244.0
1078.638184 124.0
1078.808105 104.0
1079.242432 236.0
1079.504272 156.0
1079.644531 108.0
1079.756226 124.0
1079.972046 132.0
1080.272949 148.0
1080.35144 116.0
1080.456177 200.0
1081.765015 156.0
1081.974487 108.0
1082.386963 148.0
1082.629272 156.0
1082.773438 156.0
1083.618408 120.0
1084.063965 176.0
1084.1427 96.0
1084.608032 108.0
1084.889893 164.0
1085.080078 220.0
1085.47998 148.0
1085.552124 132.0
1085.611206 188.0
1085.932495 56.0
1086.68042 152.0
1086.841431 208.0
1086.975586 160.0
1087.028198 220.0
1087.382568 112.0
1087.520996 192.0
1087.671387 148.0
1088.295044 160.0
1088.597046 84.0
1088.715332 156.0
1088.872925 120.0
1088.935303 292.0
1089.280151 52.0
1089.514893 280.0
1089.634888 128.0
1090.114624 172.0
1090.344604 160.0
1091.021606 132.0
1091.133423 128.0
1091.508179 176.0
1091.712036 156.0
1091.902832 48.0
1092.488159 132.0
1092.692139 144.0
1092.771118 168.0
1092.856689 168.0
1093.304077 124.0
1093.435791 88.0
1093.494995 80.0
1094.146729 36.0
1094.324463 136.0
1094.486816 184.0
1094.705322 196.0
1094.963257 160.0
1095.015869 104.0
1095.180542 108.0
1095.348022 48.0
1095.529663 172.0
1095.766846 116.0
1095.859131 220.0
1096.485107 164.0
1096.801514 112.0
1097.26123 164.0
1097.612427 148.0
1097.76416 192.0
1097.895996 132.0
1098.093872 196.0
1098.37085 144.0
1098.450073 112.0
1098.964722 40.0
1099.27478 204.0
1099.578369 180.0
1099.690552 196.0
1099.743408 80.0
1099.848999 144.0
1100.263184 200.0
1100.680908 188.0
1100.871216 244.0
1101.044067 192.0
1101.308228 100.0
1101.856567 116.0
1102.405029 160.0
1102.451294 152.0
1102.676025 148.0
1102.841187 100.0
1103.244507 168.0
1103.548584 200.0
1104.004883 148.0
1104.097412 72.0
1104.328979 96.0
1104.51001 104.0
1104.897827 180.0
1105.036743 152.0
1105.416382 120.0
1105.519775 48.0
1106.115479 44.0
1106.240967 228.0
1106.262451 160.0
1106.416504 68.0
1106.572266 124.0
1107.48645 188.0
1107.598755 216.0
1107.665039 108.0
1107.770996 180.0
1107.83728 68.0
1107.949951 56.0
1108.049316 136.0
1108.188354 144.0
1108.300171 168.0
1108.453491 144.0
1108.559448 112.0
1108.728027 196.0
1108.897461 124.0
1109.334961 184.0
1109.401245 132.0
1109.460938 160.0
1109.686401 52.0
1109.752686 188.0
1109.931641 200.0
1110.435669 84.0
1110.601562 140.0
1110.694336 172.0
1110.866821 228.0
1111.158813 60.0
1111.231812 48.0
1111.357788 88.0
1111.974976 156.0
1112.28833 116.0
1112.691895 148.0
1112.917603 168.0
1112.997314 188.0
1113.07666 188.0
1113.448975 104.0
1113.548584 148.0
1114.186279 108.0
1114.784302 112.0
1114.910522 200.0
1115.1698 160.0
1115.216309 212.0
1115.402344 108.0
1115.608521 60.0
1115.867798 144.0
1115.934204 152.0
1116.499512 120.0
1116.583008 160.0
1116.825317 184.0
1117.118042 176.0
1117.443604 160.0
1117.790039 176.0
1117.932739 180.0
1118.32251 84.0
1118.482178 144.0
1118.602051 56.0
1118.795166 268.0
1119.121338 88.0
1119.247925 36.0
1119.567505 124.0
1120.199585 152.0
1120.480103 148.0
1121.039795 136.0
1121.17981 132.0
1121.253052 168.0
1121.339722 120.0
1122.172974 128.0
1122.606445 132.0
1122.873169 160.0
1122.986938 172.0
1123.15332 144.0
1123.653687 136.0
1123.987305 184.0
1124.194092 60.0
1124.54126 88.0
1124.868286 80.0
1125.072754 180.0
1125.154663 164.0
1125.369019 36.0
1125.435791 184.0
1125.756348 180.0
1125.926147 120.0
1125.996704 156.0
1126.350708 180.0
1126.53772 220.0
1126.871826 224.0
1126.932007 132.0
1127.192505 84.0
1127.252686 136.0
1127.349243 168.0
1127.854248 52.0
1128.302124 108.0
1128.389038 44.0
1128.903931 64.0
1129.211548 264.0
1129.567505 148.0
1129.833618 144.0
1129.987549 148.0
1130.067871 152.0
1130.661865 92.0
1130.830688 136.0
1131.285889 164.0
1131.339478 124.0
1131.983032 136.0
1132.290283 204.0
1132.471069 120.0
1132.759155 96.0
1132.93335 92.0
1133.040527 88.0
1133.087402 124.0
1133.569824 88.0
1133.643555 164.0
1133.717285 52.0
1133.864746 32.0
1134.019897 164.0
1134.09729 172.0
1134.474731 148.0
1134.642334 180.0
1134.803223 132.0
1135.024536 128.0
1135.078125 68.0
1135.21228 100.0
1135.574463 148.0
1135.90979 172.0
1136.030518 84.0
1136.084229 92.0
1136.184814 200.0
1136.251953 52.0
1136.365967 148.0
1136.614258 172.0
1136.661255 152.0
1136.708252 132.0
1136.855835 240.0
1137.155273 232.0
1137.40625 124.0
1137.486816 120.0
1137.594238 136.0
1137.735229 148.0
1137.842651 48.0
1137.916504 124.0
1138.158203 124.0
1138.401123 180.0
1138.608643 228.0
1138.742432 116.0
1138.802856 172.0
1139.32019 100.0
1139.535156 188.0
1139.830811 32.0
1139.951782 132.0
1140.570068 92.0
1140.617065 144.0
1140.916626 180.0
1141.511353 164.0
1141.618896 56.0
1141.666016 140.0
1141.753418 132.0
1142.18396 132.0
1142.255737 228.0
1142.466431 176.0
1142.594238 176.0
1142.715332 168.0
1142.883545 104.0
1143.341187 188.0
1143.415161 68.0
1143.671021 164.0
1143.798828 148.0
1144.020996 52.0
1144.223022 104.0
1144.357666 192.0
1145.179199 200.0
1145.35437 148.0
1145.873047 132.0
1145.967407 40.0
1146.486328 176.0
1146.580688 140.0
1146.755859 160.0
1147.19873 176.0
1147.281738 132.0
1147.591797 124.0
1147.834595 160.0
1148.374146 148.0
1148.569702 180.0
1149.136353 136.0
1149.54126 108.0
1150.081177 104.0
1150.195923 188.0
1150.35791 80.0
1150.945312 104.0
1151.222168 116.0
1151.316772 192.0
1151.431519 32.0
1151.592773 144.0
1151.843628 192.0
1152.323242 152.0
1153.032837 132.0
1153.478882 188.0
1153.525513 120.0
1153.62085 56.0
1153.877808 112.0
1154.288818 180.0
1154.493042 128.0
1154.682495 104.0
1154.844727 92.0
1155.311523 36.0
1155.546387 184.0
1155.636353 152.0
1155.703979 80.0
1156.204712 264.0
1156.38916 172.0
1156.773315 144.0
1156.844971 148.0
1156.962891 148.0
1157.055298 164.0
1157.328491 128.0
1157.531616 116.0
1157.748291 152.0
1158.364624 176.0
1158.655273 196.0
1158.893066 140.0
1159.252319 136.0
1159.563965 36.0
1159.889404 92.0
1159.991089 132.0
1160.214722 76.0
1160.499512 120.0
1160.804688 140.0
1160.872437 80.0
1161.003296 208.0
1161.096313 176.0
1161.279419 160.0
1161.760986 136.0
1162.039185 128.0
1162.559204 188.0
1162.620483 188.0
1162.860352 120.0
1162.914551 64.0
1163.036743 88.0
1163.76001 204.0
1164.05603 156.0
1164.272461 104.0
1164.775146 136.0
1165.359375 156.0
1165.46814 112.0
1165.604004 92.0
1165.746704 160.0
1165.814697 172.0
1166.161255 160.0
1166.27002 240.0
1166.38562 212.0
1166.603149 160.0
1166.86145 148.0
1167.106201 136.0
1167.208252 240.0
1167.405396 132.0
1167.489258 164.0
1167.956299 204.0
1168.095093 172.0
1168.208008 152.0
1168.548218 124.0
1169.0177 124.0
1169.684692 68.0
1170.238525 80.0
1170.317871 80.0
1170.365601 164.0
1170.496216 220.0
1170.569824 168.0
1170.631104 180.0
1171.114624 104.0
1171.68689 196.0
1171.82312 148.0
1171.877686 184.0
1171.99353 168.0
1172.266113 168.0
1172.427856 124.0
1173.050659 160.0
1173.424805 132.0
1173.51355 156.0
1173.771484 192.0
1174.297729 160.0
1174.400024 128.0
1174.898682 164.0
1174.966309 116.0
1175.048096 196.0
1175.205078 188.0
1175.505249 172.0
1175.785156 164.0
1175.962524 176.0
1176.126343 128.0
1176.658813 160.0
1177.048096 180.0
1177.560303 224.0
1177.682007 180.0
1177.840332 152.0
1177.933105 196.0
1178.277466 96.0
1178.414185 200.0
1178.564453 172.0
1178.824097 196.0
1179.147095 76.0
1179.5896 184.0
1179.650513 156.0
1180.343872 168.0
1180.868286 88.0
1181.10083 112.0
1181.470337 164.0
1181.657104 204.0
1182.236694 124.0
1182.318726 216.0
1182.476196 216.0
1182.544678 204.0
1182.729492 176.0
1182.845825 176.0
1182.989502 112.0
1183.366089 176.0
1183.450806 188.0
1183.630371 220.0
1183.753174 200.0
1183.817993 140.0
1183.886475 164.0
1183.96875 164.0
1184.240356 168.0
1184.331665 148.0
1184.509766 176.0
1184.831787 92.0
1185.140137 64.0
1185.338867 184.0
1185.485718 148.0
1185.560669 128.0
1185.647217 184.0
1185.708862 64.0
1185.852783 136.0
1186.223022 200.0
1186.332642 148.0
1186.426147 120.0
1186.860596 104.0
1187.011475 92.0
1187.079834 180.0
1187.14856 100.0
1187.381836 168.0
1188.095215 80.0
1188.19812 188.0
1188.788208 168.0
1188.849976 96.0
1189.028442 140.0
1189.110718 204.0
1189.755981 80.0
1189.900146 112.0
1190.105591 204.0
1190.456421 124.0
1190.586914 168.0
1190.751709 140.0
1190.909668 144.0
1191.053955 100.0
1191.102051 200.0
1191.191284 192.0
1191.301147 176.0
1191.472168 140.0
1191.533569 212.0
1191.607666 196.0
1191.878296 172.0
1191.995117 120.0
1192.077637 112.0
1192.263184 160.0
1192.881836 164.0
1192.975586 284.0
1193.244507 148.0
1193.397461 208.0
1193.748169 164.0
1193.913452 116.0
1194.126343 100.0
1194.174561 88.0
1194.429077 136.0
1194.670532 140.0
1194.70105 104.0
1194.721191 196.0
1195.04126 156.0
1195.130737 152.0
1195.385376 140.0
1195.516113 228.0
1195.571167 168.0
1195.750122 140.0
1195.79834 104.0
1195.901489 192.0
1196.046143 152.0
1196.238892 176.0
1196.4729 312.0
1196.589966 132.0
1196.810303 132.0
1196.906616 180.0
1196.975586 156.0
1197.389893 96.0
1197.684937 148.0
1197.73999 144.0
1198.559814 100.0
1198.621948 116.0
1198.670166 116.0
1198.981689 204.0
1199.345581 116.0
1199.821167 144.0
1200.025391 204.0
1200.4104 172.0
1200.669312 84.0
1200.876221 180.0
1201.283203 156.0
1201.469482 124.0
1201.62793 208.0
1201.828247 120.0
1202.145752 104.0
1202.766846 144.0
1202.842773 116.0
1202.956543 204.0
1203.084473 72.0
1203.499878 180.0
1203.588501 80.0
1203.712769 212.0
1203.912964 148.0
1204.196167 192.0
1204.251465 84.0
1204.451782 144.0
1204.797119 120.0
1205.045898 164.0
1205.097168 192.0
1205.28772 96.0
1205.584839 120.0
1205.736084 68.0
1205.792236 184.0
1205.861328 56.0
1206.262207 124.0
1206.48877 152.0
1206.822266 228.0
1207.161011 124.0
1207.230225 152.0
1207.36853 180.0
1207.562134 204.0
1207.859619 124.0
1207.984131 176.0
1208.067139 192.0
1208.42688 124.0
1208.570312 172.0
1209.070435 140.0
1209.139648 220.0
1209.5896 148.0
1209.797363 148.0
1209.873413 144.0
1209.935669 256.0
1210.011841 172.0
1210.586548 96.0
1210.74585 120.0
1210.828979 152.0
1210.932861 76.0
1211.002197 232.0
1211.071411 104.0
1211.184814 120.0
1211.251465 140.0
1211.459351 156.0
1211.73645 60.0
1211.797852 140.0
1211.944336 56.0
1212.138306 196.0
1212.332397 168.0
1212.720459 320.0
1212.886841 144.0
1213.032471 204.0
1213.117554 196.0
1213.847656 168.0
1214.044678 188.0
1214.114136 180.0
1214.183472 176.0
1214.389282 92.0
1214.557495 180.0
1214.870117 200.0
1214.934692 116.0
1215.147705 136.0
1215.286377 128.0
1215.688843 176.0
1215.799927 100.0
1216.188599 28.0
1216.924438 160.0
1217.070312 132.0
1217.313354 164.0
1217.396729 144.0
1217.445312 152.0
1217.695312 112.0
1217.771729 148.0
1217.832764 164.0
1217.924561 156.0
1217.973145 172.0
1218.459473 180.0
1218.535889 120.0
1218.612305 116.0
1218.904175 76.0
1219.272461 144.0
1219.348877 284.0
1219.397217 148.0
1219.592163 168.0
1219.798462 76.0
1220.676758 92.0
1221.017578 164.0
1221.476562 216.0
1221.901001 248.0
1222.03186 176.0
1222.119507 168.0
1222.301025 200.0
1222.328857 176.0
1222.53418 160.0
1222.735962 240.0
1222.868286 188.0
1223.174561 120.0
1223.265015 128.0
1223.348511 104.0
1223.439087 180.0
1223.620117 124.0
1223.675781 88.0
1223.801147 88.0
1224.184082 164.0
1224.324463 132.0
1224.37085 116.0
1224.427856 172.0
1224.643799 152.0
1224.873657 140.0
1225.218384 152.0
1225.340332 168.0
1225.695679 152.0
1225.939697 212.0
1226.281128 176.0
1226.483276 140.0
1226.657593 52.0
1227.054932 180.0
1227.152466 132.0
1227.326782 164.0
1227.522095 132.0
1227.703369 152.0
1228.017212 144.0
1228.06604 180.0
1228.296265 136.0
1228.355957 108.0
1228.421875 108.0
1228.491577 136.0
1228.624146 84.0
1228.700928 132.0
1229.005127 224.0
1229.091675 184.0
1229.212769 156.0
1229.475464 68.0
1229.538208 160.0
1229.635986 164.0
1229.749878 160.0
1230.007935 160.0
1230.13855 124.0
1230.424805 168.0
1230.480591 148.0
1230.69458 92.0
1231.339478 180.0
1231.46521 92.0
1231.793579 76.0
1231.989136 180.0
1232.170776 128.0
1232.233643 152.0
1232.331543 148.0
1232.541138 140.0
1233.016357 212.0
1233.107178 96.0
1233.439453 128.0
1233.771606 164.0
1233.827148 164.0
1233.925049 160.0
1234.227173 132.0
1234.288818 136.0
1234.452759 172.0
1234.62439 104.0
1234.862183 152.0
1234.932129 84.0
1235.085938 192.0
1235.526733 124.0
1235.621826 128.0
1235.806519 132.0
1235.918457 192.0
1236.009399 144.0
1236.086426 100.0
1236.135376 80.0
1236.233398 140.0
1236.419678 156.0
1236.520386 176.0
1236.67749 176.0
1236.815674 148.0
1237.360352 48.0
1237.444336 124.0
1237.759399 72.0
1237.82251 180.0
1237.948486 108.0
1238.382812 220.0
1238.648926 132.0
1239.006226 172.0
1239.292603 132.0
1239.559692 132.0
1239.776978 168.0
1239.88208 188.0
1239.952148 128.0
1240.099365 180.0
1240.148438 196.0
1240.358765 176.0
1240.414795 136.0
1240.470947 32.0
1240.583008 28.0
1240.681152 156.0
1240.842407 96.0
1241.010742 208.0
1241.34729 144.0
1241.508667 72.0
1241.585815 264.0
1241.66687 152.0
1241.726074 124.0
1241.789185 136.0
1242.027588 172.0
1242.125854 48.0
1242.266113 88.0
1242.343262 56.0
1242.525757 152.0
1242.574829 128.0
1242.623901 192.0
1242.703857 136.0
1242.851074 164.0
1243.14978 176.0
1243.311646 56.0
1243.529175 156.0
1243.641479 116.0
1243.71167 52.0
1243.760864 172.0
1243.873169 124.0
1244.02002 152.0
1244.076782 128.0
1244.130371 212.0
1244.252197 148.0
1244.31543 80.0
1244.448853 104.0
1244.596313 136.0
1244.919312 124.0
1245.200195 68.0
1245.368774 200.0
1245.509277 124.0
1245.56543 136.0
1245.790283 204.0
1246.197754 176.0
1246.246948 116.0
1246.680176 152.0
1246.963745 56.0
1247.195679 304.0
1247.350342 188.0
1247.554199 108.0
1247.793213 156.0
1248.229248 96.0
1248.334717 108.0
1248.426758 88.0
1248.566772 120.0
1248.890259 44.0
1248.946533 92.0
1249.270142 252.0
1249.43335 188.0
1249.523438 184.0
1249.987793 128.0
1250.184814 100.0
1250.381958 128.0
1250.600098 148.0
1250.649414 112.0
1250.761963 64.0
1251.057617 64.0
1251.198486 152.0
1251.578735 112.0
1251.659424 124.0
1251.735352 128.0
1251.804077 224.0
1251.916748 108.0
1252.106812 144.0
1252.261841 180.0
1252.346313 36.0
1252.494263 128.0
1252.557617 212.0
1252.66333 216.0
1252.727783 204.0
1252.874634 104.0
1252.92395 76.0
1253.043701 76.0
1253.251465 152.0
1253.314331 296.0
1253.389038 160.0
1253.473511 32.0
1253.656738 132.0
1253.790649 32.0
1254.055664 132.0
1254.119141 132.0
1254.587158 68.0
1254.638916 152.0
1254.805786 72.0
1255.405151 108.0
1255.517944 64.0
1255.581421 144.0
1255.701294 144.0
1255.920044 176.0
1256.061035 156.0
1256.117554 164.0
1256.202148 136.0
1256.351685 196.0
1256.403809 180.0
1256.618408 156.0
1256.7948 152.0
1256.865356 160.0
1257.40979 160.0
1257.592285 88.0
1257.669922 124.0
1257.747559 192.0
1257.846313 140.0
1257.969727 76.0
1258.164062 176.0
1258.370361 340.0
1258.53125 156.0
1258.655396 148.0
1258.714844 132.0
1258.914673 104.0
1259.074951 152.0
1259.292236 236.0
1259.392822 140.0
1259.569336 216.0
1259.629028 204.0
1259.774292 268.0
1259.873779 168.0
1259.950806 188.0
1260.102051 160.0
1260.22644 120.0
1260.61499 144.0
1260.706909 308.0
1260.827026 196.0
1260.962646 128.0
1261.138062 104.0
1261.286499 120.0
1261.350098 168.0
1261.406616 152.0
1261.477295 156.0
1261.908569 100.0
1261.986328 176.0
1262.085327 204.0
1262.205566 36.0
1262.652588 136.0
1262.85376 188.0
1263.121948 148.0
1263.28064 220.0
1263.407959 180.0
1263.4646 152.0
1264.002319 76.0
1264.115601 220.0
1264.200439 160.0
1264.384277 156.0
1264.738403 168.0
1265.130005 248.0
1265.219727 68.0
1265.51709 160.0
1265.800415 428.0
1266.303223 240.0
1266.352783 76.0
1266.409424 100.0
1266.799072 152.0
1267.046997 152.0
1267.117798 172.0
1267.217041 184.0
1267.493408 224.0
1267.649292 160.0
1267.791016 140.0
1267.847656 268.0
1267.97522 192.0
1268.272949 108.0
1268.483276 128.0
1268.698242 76.0
1268.804688 188.0
1268.911011 192.0
1269.052734 124.0
1269.123657 100.0
1269.428589 92.0
1269.818726 200.0
1270.010132 180.0
1270.244263 156.0
1270.520874 188.0
1270.591919 168.0
1270.726685 164.0
1270.83313 52.0
1270.882812 92.0
1271.223389 96.0
1271.329834 168.0
1271.49585 132.0
1271.855103 100.0
1272.266846 124.0
1272.600464 148.0
1272.692749 244.0
1272.812622 156.0
1272.898682 96.0
1273.239624 88.0
1273.367432 160.0
1273.470947 140.0
1273.694214 112.0
1273.786499 152.0
1274.056519 152.0
1274.127563 76.0
1274.361938 60.0
1274.424805 128.0
1274.545288 140.0
1275.065552 100.0
1275.278687 216.0
1275.333008 152.0
1275.606934 204.0
1275.69104 132.0
1275.790771 104.0
1275.861572 104.0
1275.967773 188.0
1276.145996 136.0
1276.370117 100.0
1276.522949 192.0
1276.629517 200.0
1276.871338 172.0
1276.963867 120.0
1277.042114 120.0
1277.461792 116.0
1277.525757 108.0
1277.671875 128.0
1277.760498 132.0
1277.824585 124.0
1277.87439 148.0
1277.973999 132.0
1278.0625 176.0
1278.180542 160.0
1278.39209 144.0
1278.50061 96.0
1278.742554 44.0
1278.934814 104.0
1279.034424 192.0
1279.522949 168.0
1279.696533 168.0
1280.016968 156.0
1280.365845 164.0
1280.572388 120.0
1280.984985 156.0
1281.063965 136.0
1281.120972 232.0
1281.199219 172.0
1281.491333 104.0
1281.780762 124.0
1281.867676 164.0
1281.955688 152.0
1282.121338 120.0
1282.134399 116.0
1282.246704 288.0
1282.310913 140.0
1282.396484 92.0
1282.496948 164.0
1282.606812 192.0
1282.802734 36.0
1282.894531 120.0
1282.945312 180.0
1283.301758 136.0
1283.401611 56.0
1283.779541 184.0
1283.84375 156.0
1283.903442 220.0
1284.13623 104.0
1284.243164 216.0
1284.307373 104.0
1284.492798 212.0
1284.57251 236.0
1284.785278 176.0
1285.020752 48.0
1285.117065 152.0
1285.263306 148.0
1285.406006 116.0
1285.641602 160.0
1285.834717 116.0
1285.883423 152.0
1286.076904 116.0
1286.198242 116.0
1286.298218 188.0
1286.493164 220.0
1286.598022 192.0
1286.77832 132.0
1286.862183 112.0
1286.983643 124.0
1287.219238 132.0
1287.319214 144.0
1287.612549 188.0
1287.726318 308.0
1287.952515 160.0
1288.304932 92.0
1288.458496 128.0
1288.612061 144.0
1288.88208 128.0
1289.149048 116.0
1289.579102 140.0
1289.67688 96.0
1289.773438 204.0
1289.855591 196.0
1289.975708 144.0
1290.029541 128.0
1290.398926 184.0
1291.121216 168.0
1291.230469 156.0
1291.485107 136.0
1291.593262 128.0
1291.664795 144.0
1291.829346 168.0
1291.993896 176.0
1292.151245 84.0
1292.226929 132.0
1292.380249 184.0
1292.487549 180.0
1292.580566 128.0
1292.682983 224.0
1292.869873 244.0
1292.959839 120.0
1293.088745 144.0
1293.160278 120.0
1293.224731 100.0
1293.289062 132.0
1293.63623 160.0
1293.940552 244.0
1294.040771 136.0
1294.269897 88.0
1294.363525 152.0
1294.707886 148.0
1294.788086 168.0
1294.914429 116.0
1295.044922 164.0
1295.129272 100.0
1295.494629 132.0
1295.645142 108.0
1295.702393 132.0
1295.759766 148.0
1295.933228 312.0
1296.597656 120.0
1296.622681 112.0
1296.643555 168.0
1296.856201 104.0
1297.006714 148.0
1297.171509 152.0
1297.257568 120.0
1297.35791 184.0
1297.486938 152.0
1297.745117 212.0
1297.931519 164.0
1298.082153 128.0
1298.419189 144.0
1298.642212 180.0
1298.763428 176.0
1298.929199 124.0
1298.98584 140.0
1299.409058 144.0
1299.473633 36.0
1299.559814 152.0
1299.667358 196.0
1299.746338 128.0
1299.889893 300.0
1300.011841 52.0
1300.105103 176.0
1300.614746 156.0
1300.980835 156.0
1301.347046 132.0
1301.404419 104.0
1301.555298 192.0
1301.799438 136.0
1302.075806 212.0
1302.273438 164.0
1302.344116 132.0
1302.589478 124.0
1302.855225 136.0
1302.948608 116.0
1303.013306 84.0
1303.070801 112.0
1303.132202 132.0
1303.237671 88.0
1303.379761 140.0
1303.473145 136.0
1303.651367 172.0
1303.791626 316.0
1303.894165 172.0
1304.055298 136.0
1304.171875 220.0
1304.281616 180.0
1304.406738 176.0
1304.759766 124.0
1304.831665 224.0
1305.047363 156.0
1305.097778 184.0
1305.35437 92.0
1305.421265 168.0
1305.69458 124.0
1305.766479 144.0
1305.996704 112.0
1306.327637 76.0
1306.603516 204.0
1306.680054 104.0
1306.787476 220.0
1306.946289 168.0
1307.26355 292.0
1307.327759 172.0
1307.550781 148.0
1308.088745 132.0
1308.184204 112.0
1308.251099 140.0
1308.285034 176.0
1308.357056 136.0
1308.508179 132.0
1308.688843 180.0
1308.876831 144.0
1308.961792 88.0
1309.095581 156.0
1309.123169 88.0
1309.545166 124.0
1309.81897 184.0
1310.123657 172.0
1310.359253 136.0
1310.589844 80.0
1310.683472 164.0
1310.849243 192.0
1310.90686 212.0
1311.079834 196.0
1311.209595 96.0
1311.372559 136.0
1312.081787 144.0
1312.225952 168.0
1312.420654 80.0
1312.492798 68.0
1312.745117 120.0
1312.80127 188.0
1313.055298 68.0
1313.162109 176.0
1313.257202 116.0
1313.350952 84.0
1313.588989 200.0
1313.718872 184.0
1313.812622 220.0
1313.928101 200.0
1314.267212 224.0
1314.80127 72.0
1314.967163 56.0
1315.544678 196.0
1315.652954 220.0
1316.172852 228.0
1316.223389 140.0
1316.328369 120.0
1316.398804 296.0
1316.490601 184.0
1316.69165 176.0
1316.8125 180.0
1317.198364 132.0
1317.595703 152.0
1317.653564 116.0
1317.871826 236.0
1318.166504 200.0
1318.289429 168.0
1318.419434 164.0
1318.470093 52.0
1318.549561 232.0
1318.798828 108.0
1319.142334 152.0
1319.287476 148.0
1319.351929 160.0
1319.554321 152.0
1319.626709 200.0
1319.836304 48.0
1319.998779 180.0
1320.458252 144.0
1320.516113 104.0
1320.675293 216.0
1320.80542 176.0
1320.986328 176.0
1321.123779 68.0
1321.282959 208.0
1321.384766 152.0
1321.866943 176.0
1321.882812 124.0
1321.906982 164.0
1322.107788 104.0
1322.172852 252.0
1322.274292 124.0
1322.469727 156.0
1322.556763 172.0
1322.684692 136.0
1322.735474 196.0
1322.853394 120.0
1323.128418 212.0
1323.410889 144.0
1323.613647 88.0
1323.838135 152.0
1323.932251 156.0
1324.120483 196.0
1324.171265 180.0
1324.522705 152.0
1324.634766 96.0
1324.690186 168.0
1324.742188 220.0
1324.866577 152.0
1325.011475 68.0
1325.160767 144.0
1325.344849 156.0
1325.42627 148.0
1325.459961 36.0
1325.480713 144.0
1325.591187 116.0
1325.852051 204.0
1326.113037 116.0
1326.397705 316.0
1326.442505 164.0
1326.627686 152.0
1326.837891 160.0
1326.9104 124.0
1327.016357 280.0
1327.113403 120.0
1327.258423 204.0
1327.497803 112.0
1327.602173 164.0
1327.671753 172.0
1327.88269 196.0
1328.187256 120.0
1328.252075 100.0
1328.426147 140.0
1328.535034 152.0
1328.865601 176.0
1328.93396 168.0
1329.042847 108.0
1329.158936 212.0
1329.224243 132.0
1329.434326 332.0
1329.666992 72.0
1329.848389 116.0
1329.978882 160.0
1330.039551 232.0
1330.114258 140.0
1330.189575 140.0
1330.935791 184.0
1331.128906 128.0
1331.184326 148.0
1331.272705 132.0
1331.761597 188.0
1331.817871 136.0
1331.832397 180.0
1331.932373 200.0
1332.048584 64.0
1332.469971 120.0
1332.532959 108.0
1332.555542 72.0
1332.575684 164.0
1332.709717 164.0
1332.775146 96.0
1332.900024 172.0
1333.072998 128.0
1333.152954 144.0
1333.399536 164.0
1333.501831 128.0
1333.669067 136.0
1333.727173 164.0
1333.778076 48.0
1333.887085 136.0
1334.395996 112.0
1334.483276 144.0
1334.635864 172.0
1334.766846 144.0
1334.934082 124.0
1335.210449 140.0
1335.464966 200.0
1335.530396 40.0
1335.646851 156.0
1335.741455 160.0
1335.814087 172.0
1335.945068 120.0
1336.039673 100.0
1336.454346 92.0
1336.682983 132.0
1336.810913 104.0
1336.971069 136.0
1337.065674 204.0
1337.212891 156.0
1337.422607 184.0
1337.665405 152.0
1337.89209 200.0
1338.179443 116.0
1338.310425 176.0
1338.383301 148.0
1338.527466 184.0
1338.623657 124.0
1338.681885 48.0
1338.769287 164.0
1338.89502 240.0
1339.008057 116.0
1339.168945 160.0
1339.242676 200.0
1339.300903 160.0
1339.373779 208.0
1339.501709 204.0
1339.614136 136.0
1339.73291 208.0
1339.971191 100.0
1340.430176 204.0
1340.583252 88.0
1340.690186 240.0
1340.750854 104.0
1340.954956 228.0
1341.083008 188.0
1341.399536 124.0
1341.494385 160.0
1341.556396 164.0
1341.61377 88.0
1341.705688 192.0
1341.792236 176.0
1341.917236 200.0
1342.121582 264.0
1342.437134 160.0
1342.534546 172.0
1342.668335 128.0
1342.814087 132.0
1343.05481 168.0
1343.137207 140.0
1343.208008 136.0
1343.725952 92.0
1343.853638 192.0
1344.105469 236.0
1344.193848 140.0
1344.477539 160.0
1344.842529 216.0
1345.046875 136.0
1345.120972 168.0
1345.20752 96.0
1345.527588 172.0
1345.776978 128.0
1345.842651 232.0
1345.922974 168.0
1346.040894 144.0
1346.127441 124.0
1346.302734 136.0
1346.616821 132.0
1346.704468 168.0
1346.828613 140.0
1347.003906 148.0
1347.296143 76.0
1347.68335 164.0
1347.763794 220.0
1347.859985 208.0
1348.071533 148.0
1348.341797 156.0
1348.392212 196.0
1348.487305 152.0
1348.786987 204.0
1348.918457 192.0
1349.035522 108.0
1349.137817 104.0
1349.298706 184.0
1349.481445 176.0
1349.539429 116.0
1349.834229 180.0
1349.982422 248.0
1350.103027 124.0
1350.341187 168.0
1350.461426 184.0
1350.585693 140.0
1350.741211 112.0
1350.870972 72.0
1351.053955 200.0
1351.4198 204.0
1351.478271 68.0
1351.580688 204.0
1351.821045 96.0
1351.968628 228.0
1352.210083 180.0
1352.36377 196.0
1352.574585 160.0
1352.920166 68.0
1352.993774 244.0
1353.132812 72.0
1353.370728 160.0
1353.491211 164.0
1353.615723 164.0
1353.70166 156.0
1353.769531 208.0
1354.296875 124.0
1354.39209 76.0
1354.516602 148.0
1354.567871 224.0
1354.685059 120.0
1354.963501 136.0
1355.036743 160.0
1355.348022 200.0
1355.405273 148.0
1355.73291 80.0
1355.908691 144.0
1356.018677 96.0
1356.106689 136.0
1356.46582 164.0
1356.524414 140.0
1356.605103 176.0
1356.883667 120.0
1357.041382 296.0
1357.30896 116.0
1357.39856 164.0
1357.694214 184.0
1357.84436 112.0
1357.917603 136.0
1358.130127 112.0
1358.328369 128.0
1358.491821 120.0
1358.592529 160.0
1358.702515 156.0
1359.106079 196.0
1359.201538 220.0
1359.274902 200.0
1359.561035 172.0
1359.612427 180.0
1359.766602 68.0
1359.822876 272.0
1359.928101 148.0
1360.016113 108.0
1360.133545 52.0
1360.214355 124.0
1360.400879 164.0
1360.568848 200.0
1360.652466 148.0
1360.753296 144.0
1360.985229 140.0
1361.073364 200.0
1361.250122 168.0
1361.405151 108.0
1361.587402 116.0
1361.684937 160.0
1361.774536 160.0
1361.900635 112.0
1362.197021 136.0
1362.380737 288.0
1362.435181 132.0
1362.571655 172.0
1362.880249 80.0
1362.961182 168.0
1363.086426 152.0
1363.186646 164.0
1363.262451 128.0
1363.380005 200.0
1363.512329 112.0
1363.576782 120.0
1363.71814 164.0
1364.276733 232.0
1364.460571 112.0
1364.561646 144.0
1364.791382 136.0
1364.894409 172.0
1365.278809 172.0
1365.453247 116.0
1365.747437 188.0
1365.879883 136.0
1366.247681 184.0
1366.299194 104.0
1366.47583 148.0
1366.608276 204.0
1366.991089 180.0
1367.101196 152.0
1367.425049 276.0
1367.542847 68.0
1367.785767 96.0
1367.83728 36.0
1367.888794 108.0
1367.98291 160.0
1368.081665 188.0
1368.167114 180.0
1368.238525 220.0
1368.345215 148.0
1368.402344 268.0
1368.74292 120.0
1368.963745 156.0
1369.125854 96.0
1369.324707 204.0
1369.449829 176.0
1369.663452 160.0
1369.773926 212.0
1370.039185 220.0
1370.273071 160.0
1370.396729 196.0
1370.525513 144.0
1370.599121 120.0
1370.753906 212.0
1370.812866 116.0
1371.026611 152.0
1371.122314 44.0
1371.401489 152.0
1371.476196 120.0
1371.653076 160.0
1371.984741 116.0
1372.220703 172.0
1372.321411 300.0
1372.692627 228.0
1372.862305 128.0
1373.09082 192.0
1373.307983 128.0
1373.548218 156.0
1373.621948 148.0
1373.695679 188.0
1373.990845 348.0
1374.108887 220.0
1374.522095 140.0
1374.595825 104.0
1374.662231 212.0
1374.772949 172.0
1374.839355 180.0
1374.898438 88.0
1375.000854 164.0
1375.164185 76.0
1375.360107 144.0
1376.270996 124.0
1376.36792 124.0
1376.625977 188.0
1376.692383 96.0
1377.017334 216.0
1377.083862 156.0
1377.290649 156.0
1377.364502 136.0
1377.460571 32.0
1377.528809 184.0
1377.562256 136.0
1377.711792 132.0
1377.889038 104.0
1378.051636 152.0
1378.103271 128.0
1378.199341 196.0
1378.347168 184.0
1378.473267 124.0
1378.635376 164.0
1378.709229 144.0
1378.923584 104.0
1379.01123 136.0
1379.402466 152.0
1379.795898 96.0
1380.047241 120.0
1380.135986 180.0
1380.387451 104.0
1380.515869 208.0
1380.764526 168.0
1380.968384 132.0
1381.128174 128.0
1381.348877 212.0
1381.652222 216.0
1381.77063 156.0
1381.829834 148.0
1381.926025 160.0
1382.073975 156.0
1382.170166 120.0
1382.562378 32.0
1382.950439 160.0
1383.124878 148.0
1383.317383 140.0
1383.458008 136.0
1383.54895 208.0
1383.670166 144.0
1383.723145 212.0
1383.843018 112.0
1383.909668 212.0
1384.028076 128.0
1384.146606 132.0
1384.25769 240.0
1384.383545 132.0
1384.487183 144.0
1384.568726 44.0
1384.624146 280.0
1384.67981 168.0
1384.79834 176.0
1384.850098 148.0
1385.019165 172.0
1385.276123 172.0
1385.339111 100.0
1385.405762 124.0
1385.539062 176.0
1385.605713 144.0
1385.694702 152.0
1385.784058 136.0
1386.114014 144.0
1386.369019 208.0
1386.465332 144.0
1386.643188 100.0
1386.724731 56.0
1386.784058 184.0
1386.869507 204.0
1387.116943 176.0
1387.257324 108.0
1387.325195 152.0
1387.466064 268.0
1387.532715 204.0
1387.584595 224.0
1387.695801 132.0
1387.947998 144.0
1388.044312 168.0
1388.719849 100.0
1388.858398 68.0
1389.015991 136.0
1389.096436 132.0
1389.216187 116.0
1389.379517 92.0
1389.438843 148.0
1389.520386 152.0
1389.683594 60.0
1389.780151 128.0
1389.928467 168.0
1390.017578 156.0
1390.108887 212.0
1390.346558 184.0
1390.375 220.0
1390.462891 224.0
1390.529663 260.0
1390.707764 136.0
1391.012085 152.0
1391.180054 84.0
1391.301636 40.0
1391.394165 188.0
1391.479858 208.0
1391.531738 128.0
1391.711914 136.0
1392.073853 92.0
1392.136597 172.0
1392.23291 180.0
1392.410767 112.0
1392.651489 144.0
1392.679199 112.0
1392.747803 348.0
1392.831421 60.0
1392.898315 116.0
1393.009766 28.0
1393.321777 128.0
1393.38855 132.0
1393.695435 148.0
1393.742554 124.0
1394.006104 164.0
1394.125 160.0
1394.176025 156.0
1394.347168 124.0
1394.45752 80.0
1394.498779 120.0
1394.860107 152.0
1395.031006 132.0
1395.119629 180.0
1395.19458 140.0
1395.787598 144.0
1395.928101 172.0
1396.068604 220.0
1396.146362 184.0
1396.347168 140.0
1396.563721 180.0
1396.674438 148.0
1396.864014 172.0
1397.016602 188.0
1397.065063 140.0
1397.124756 124.0
1397.29187 184.0
1397.343994 184.0
1397.411011 152.0
1397.500488 176.0
1397.559814 188.0
1397.619263 92.0
1397.716064 44.0
1397.998779 200.0
1398.12085 152.0
1398.233521 132.0
1398.326294 124.0
1398.406006 168.0
1398.504883 220.0
1398.650635 164.0
1398.877075 48.0
1398.936646 52.0
1399.15564 164.0
1399.276367 176.0
1399.510132 180.0
1399.621582 204.0
1399.755615 160.0
1399.964233 136.0
1400.157837 132.0
1400.2323 100.0
1400.470581 68.0
1400.728394 120.0
1401.092529 180.0
1401.203857 228.0
1401.433594 188.0
1401.550903 180.0
1401.610107 176.0
1401.744019 220.0
1401.828003 172.0
1402.065063 44.0
1402.124634 160.0
1402.194214 196.0
1402.714844 188.0
1402.78064 168.0
1402.937134 212.0
1403.119751 164.0
1403.183228 72.0
1403.249634 172.0
1403.372437 224.0
1403.554077 180.0
1403.690186 140.0
1403.764771 96.0
1403.943848 140.0
1404.048218 144.0
1404.227173 152.0
1404.349487 184.0
1404.600098 216.0
1404.781006 132.0
1404.964233 244.0
1405.122314 104.0
1405.338745 160.0
1405.599854 156.0
1405.711792 172.0
1405.801392 156.0
1405.884155 132.0
1405.983765 192.0
1406.070068 180.0
1406.346191 156.0
1406.697021 120.0
1406.749268 180.0
1406.809082 144.0
1407.035767 128.0
1407.182373 152.0
1407.249512 256.0
1407.378174 188.0
1407.458618 160.0
1407.863403 172.0
1408.033569 128.0
1408.153076 80.0
1408.242798 192.0
1408.324951 132.0
1408.668091 156.0
1408.765625 84.0
1408.832886 104.0
1408.907593 156.0
1409.037842 168.0
1409.120728 180.0
1409.178101 176.0
1409.296143 100.0
1409.52771 232.0
1409.594971 140.0
1409.696045 220.0
1410.103149 104.0
1410.162964 196.0
1410.215332 148.0
1410.716187 176.0
1410.768433 104.0
1410.864136 176.0
1410.927368 188.0
1411.091064 192.0
1411.14856 120.0
1411.160278 128.0
1411.246948 120.0
1411.385742 128.0
1411.490479 208.0
1411.590698 136.0
1411.718018 44.0
1411.81543 164.0
1411.90918 148.0
1412.07251 152.0
1412.234131 132.0
1412.406128 164.0
1412.466064 120.0
1412.737793 224.0
1412.869995 136.0
1412.944824 88.0
1413.115356 172.0
1413.236572 208.0
1413.303955 180.0
1413.387207 148.0
1413.550903 124.0
1413.692993 156.0
1413.835205 88.0
1413.925049 160.0
1414.074707 120.0
1414.164551 392.0
1414.314209 144.0
1414.434082 208.0
1414.740967 52.0
1415.459717 176.0
1415.549561 132.0
1415.616943 240.0
1416.051392 148.0
1416.100586 108.0
1416.167969 220.0
1416.298584 196.0
1416.673096 220.0
1416.972778 104.0
1417.047729 84.0
1417.130127 92.0
1417.24939 156.0
1417.399902 116.0
1417.729614 88.0
1417.789551 120.0
1418.413696 244.0
1418.531616 128.0
1418.740845 148.0
1418.801514 100.0
1418.876465 100.0
1419.026245 136.0
1419.046875 132.0
1419.150635 92.0
1419.354614 124.0
1419.446289 144.0
1419.536255 48.0
1419.893311 140.0
1420.008789 152.0
1420.136841 204.0
1420.263794 180.0
1420.455566 360.0
1420.869751 108.0
1420.958374 216.0
1421.209351 120.0
1421.359619 140.0
1421.422729 196.0
1421.543457 144.0
1421.651855 136.0
1422.094604 148.0
1422.267212 248.0
1422.369141 136.0
1422.477417 144.0
1422.650146 96.0
1422.72522 212.0
1422.837769 172.0
1422.935425 160.0
1423.175049 132.0
1423.333374 256.0
1423.671265 112.0
1423.791504 184.0
1423.869263 188.0
1424.351807 188.0
1424.524048 132.0
1424.597046 144.0
1424.649902 56.0
1424.665161 176.0
1424.790527 156.0
1424.903198 100.0
1425.013794 136.0
1425.072266 108.0
1425.173706 96.0
1425.324097 184.0
1425.545898 152.0
1425.692139 112.0
1426.015381 120.0
1426.143188 152.0
1426.398682 144.0
1426.458862 220.0
1426.789673 120.0
1426.940063 112.0
1427.263306 188.0
1427.368652 160.0
1427.458862 164.0
1427.677979 192.0
1427.759644 248.0
1427.812256 48.0
1427.917603 156.0
1427.985229 164.0
1428.256104 384.0
1428.502441 312.0
1428.587036 108.0
1428.677368 188.0
1428.859497 112.0
1428.94812 388.0
1429.158813 124.0
1429.399658 128.0
1429.503174 128.0
1429.610352 276.0
1429.730713 84.0
1429.865845 204.0
1429.994141 124.0
1430.075928 60.0
1430.357544 188.0
1430.423218 152.0
1430.516235 192.0
1430.746948 128.0
1430.814697 148.0
1430.920166 188.0
1431.017944 240.0
1431.206299 152.0
1431.289062 128.0
1431.447144 168.0
1431.552612 112.0
1431.790039 160.0
1432.0271 136.0
1432.358521 208.0
1432.482178 144.0
1432.62439 28.0
1432.720093 148.0
1432.83313 152.0
1432.998901 188.0
1433.194824 172.0
1433.27771 116.0
1433.398315 100.0
1433.503784 328.0
1433.790161 92.0
1433.928101 284.0
1434.084106 176.0
1434.234863 160.0
1434.317749 156.0
1434.408203 160.0
1434.513794 160.0
1434.857544 188.0
1434.922363 140.0
1434.981201 176.0
1435.107544 216.0
1435.237549 200.0
1435.395874 144.0
1435.534058 220.0
1435.873169 152.0
1435.991699 160.0
1436.233032 156.0
1436.489502 188.0
1436.677368 200.0
1436.911987 172.0
1437.065796 136.0
1437.27417 220.0
1437.342041 176.0
1437.69165 160.0
1437.87793 124.0
1437.945801 148.0
1438.006226 336.0
1438.074097 48.0
1438.202393 56.0
1438.376099 196.0
1438.515381 96.0
1438.63269 164.0
1438.700684 148.0
1438.798828 92.0
1438.8573 124.0
1438.871338 92.0
1438.902222 180.0
1439.436401 144.0
1439.485962 148.0
1439.576538 172.0
1439.659668 172.0
1439.727539 128.0
1439.85498 148.0
1439.954224 136.0
1440.075073 332.0
1440.319824 144.0
1440.442871 344.0
1440.505981 132.0
1440.754883 176.0
1440.839966 200.0
1440.903687 168.0
1440.958862 180.0
1441.026855 164.0
1441.162842 132.0
1441.267456 216.0
1441.403809 132.0
1441.480225 76.0
1441.684326 160.0
1442.009277 216.0
1442.080566 160.0
1442.145264 32.0
1442.235962 192.0
1442.319214 156.0
1442.37207 168.0
1442.550171 232.0
1442.627075 220.0
1442.742554 120.0
1442.814209 132.0
1442.931519 180.0
1443.030518 136.0
1443.173462 132.0
1443.286865 204.0
1443.44751 192.0
1443.69519 176.0
1443.860596 260.0
1443.996338 200.0
1444.217163 112.0
1444.542358 204.0
1444.897949 176.0
1444.950928 248.0
1445.11731 204.0
1445.245361 196.0
1445.420044 132.0
1445.501465 188.0
1445.684937 244.0
1446.010376 164.0
1446.161743 252.0
1446.297363 108.0
1446.790039 324.0
1446.904541 192.0
1447.047363 160.0
1447.397217 156.0
1447.577515 48.0
1447.68042 168.0
1447.766846 140.0
1447.956177 184.0
1448.189575 136.0
1448.531738 124.0
1448.599976 204.0
1448.912964 248.0
1448.962891 180.0
1449.175781 140.0
1449.243896 188.0
1449.43335 124.0
1449.548462 156.0
1449.759277 140.0
1449.869385 160.0
1450.039673 176.0
1450.132446 168.0
1450.259521 168.0
1450.350464 44.0
1450.448975 152.0
1450.62915 232.0
1450.883911 168.0
1451.074463 132.0
1451.176758 144.0
1451.343628 72.0
1451.502808 96.0
1451.578613 140.0
1451.702148 128.0
1451.798584 116.0
1451.973022 136.0
1452.26123 176.0
1452.329468 36.0
1452.382568 124.0
1452.503906 112.0
1452.706787 168.0
1452.845337 168.0
1452.951538 84.0
1453.095703 164.0
1453.151123 184.0
1453.217041 180.0
1453.671509 176.0
1453.789062 168.0
1453.900024 148.0
1454.042603 164.0
1454.499634 120.0
1454.608643 156.0
1454.666626 120.0
1455.258789 176.0
1455.445435 252.0
1455.564453 176.0
1455.802856 264.0
1455.877686 152.0
1455.972656 116.0
1456.101318 132.0
1456.534668 52.0
1456.800659 160.0
1456.967773 136.0
1457.05127 132.0
1457.347656 144.0
1457.682007 220.0
1457.835449 160.0
1457.955566 276.0
1458.031494 128.0
1458.184082 164.0
1458.335571 132.0
1458.472412 188.0
1458.524902 204.0
1458.616699 236.0
1458.734741 124.0
1458.799316 204.0
1459.103394 136.0
1459.242432 220.0
1459.392334 208.0
1459.483521 160.0
1459.64502 180.0
1460.175537 68.0
1460.426514 208.0
1460.779785 256.0
1460.875366 200.0
1460.959106 132.0
1461.027466 192.0
1461.149292 188.0
1461.240601 176.0
1461.415527 172.0
1461.47644 144.0
1461.605835 112.0
1461.697144 240.0
1461.840332 392.0
1461.924194 160.0
1462.244995 160.0
1462.404907 140.0
1462.480957 160.0
1462.613159 184.0
1462.636353 128.0
1462.74231 148.0
1463.029053 132.0
1463.172119 168.0
1463.371704 100.0
1463.468018 248.0
1463.569702 100.0
1463.889526 140.0
1464.03418 152.0
1464.110352 144.0
1464.182373 200.0
1464.232178 224.0
1464.300781 188.0
1464.415039 156.0
1464.978638 128.0
1465.280396 204.0
1465.379761 172.0
1465.489136 176.0
1465.550049 120.0
1465.6698 148.0
1465.849854 168.0
1465.976807 160.0
1466.164917 236.0
1466.278931 288.0
1466.468018 256.0
1466.643433 148.0
1466.700928 144.0
1466.799927 140.0
1466.86853 152.0
1466.921997 180.0
1467.036255 240.0
1467.272583 140.0
1467.351929 188.0
1467.646484 132.0
1467.753052 152.0
1467.882568 192.0
1468.088501 200.0
1468.210571 104.0
1468.33606 244.0
1468.485107 52.0
1468.538452 168.0
1468.607178 176.0
1468.713989 56.0
1468.790283 188.0
1468.851196 160.0
1469.046997 180.0
1469.135498 188.0
1469.31665 148.0
1469.413452 240.0
1469.5625 212.0
1469.644653 188.0
1469.694458 176.0
1469.789673 60.0
1469.919434 220.0
1470.216309 212.0
1470.35437 148.0
1470.484131 208.0
1470.644409 156.0
1470.74707 232.0
1470.835205 208.0
1471.180176 192.0
1471.344482 148.0
1471.372559 104.0
1471.403442 84.0
1471.474609 176.0
1471.621582 152.0
1471.728516 180.0
1471.869385 160.0
1471.95752 76.0
1472.036377 204.0
1472.196411 192.0
1472.606689 88.0
1472.812988 148.0
1472.866455 132.0
1472.980957 324.0
1473.149292 164.0
1473.332397 376.0
1473.414673 176.0
1473.569214 136.0
1473.700928 156.0
1473.786011 200.0
1474.004761 148.0
1474.111816 168.0
1474.211182 92.0
1474.309204 228.0
1474.321899 188.0
1474.490967 164.0
1474.562866 200.0
1474.693115 196.0
1474.799683 188.0
1474.889771 136.0
1475.005981 172.0
1475.112671 152.0
1475.261475 188.0
1475.541138 224.0
1475.671143 116.0
1475.7323 116.0
1475.869995 196.0
1475.96936 124.0
1476.061157 124.0
1476.223999 208.0
1476.282837 132.0
1476.338501 176.0
1476.599731 152.0
1477.093628 112.0
1477.436523 136.0
1477.751587 352.0
1477.821289 160.0
1477.912231 156.0
1478.072998 100.0
1478.141846 180.0
1478.210693 104.0
1478.296265 108.0
1478.585693 104.0
1478.66748 180.0
1478.845947 116.0
1478.953125 200.0
1479.289917 76.0
1479.372559 196.0
1479.517212 92.0
1479.580811 108.0
1479.649658 124.0
1479.825806 292.0
1479.894653 164.0
1480.177612 140.0
1480.369507 168.0
1480.461426 152.0
1480.737061 120.0
1481.030518 420.0
1481.119995 192.0
1481.288574 148.0
1481.633301 184.0
1481.748291 188.0
1481.83252 144.0
1481.90918 100.0
1481.970459 204.0
1482.139038 200.0
1482.368896 108.0
1482.575439 148.0
1482.683105 172.0
1482.805786 104.0
1482.920654 132.0
1483.097046 120.0
1483.166016 192.0
1483.219604 136.0
1483.311646 32.0
1483.380615 188.0
1483.470581 184.0
1483.719727 124.0
1483.737427 140.0
1483.766235 200.0
1483.894287 128.0
1484.047607 116.0
1484.140991 156.0
1484.275635 108.0
1484.379761 168.0
1484.46936 140.0
1484.569092 96.0
1484.843628 196.0
1485.036865 204.0
1485.174927 128.0
1485.251221 84.0
1485.355713 184.0
1485.443481 148.0
1485.573853 104.0
1485.888428 140.0
1485.949829 92.0
1486.140747 144.0
1486.456177 124.0
1486.54834 204.0
1486.952637 156.0
1487.047119 140.0
1487.123901 140.0
1487.177612 204.0
1487.243286 416.0
1487.323486 108.0
1487.441284 220.0
1487.638184 108.0
1487.745728 88.0
1487.945312 160.0
1488.014404 320.0
1488.129639 140.0
1488.283203 152.0
1488.413696 160.0
1488.593994 76.0
1488.667114 144.0
1488.751587 92.0
1489.053467 172.0
1489.13562 164.0
1489.58252 196.0
1489.71167 164.0
1489.834595 224.0
1489.939575 292.0
1490.118896 88.0
1490.203369 148.0
1490.264893 112.0
1490.372437 88.0
1490.595215 136.0
1490.706543 288.0
1490.764282 120.0
1490.8302 152.0
1490.90271 120.0
1491.041016 124.0
1491.14856 204.0
1491.238281 192.0
1491.454346 196.0
1491.484131 152.0
1491.640259 192.0
1491.732788 148.0
1491.786621 160.0
1491.895874 172.0
1491.952271 192.0
1492.055664 200.0
1492.131592 280.0
1492.547729 180.0
1492.632324 96.0
1492.7323 120.0
1492.96106 144.0
1493.105103 144.0
1493.174438 132.0
1493.247559 72.0
1493.417358 124.0
1493.524536 288.0
1493.716797 176.0
1493.793701 56.0
1493.847534 176.0
1494.205444 160.0
1494.401489 332.0
1495.178711 248.0
1495.256348 156.0
1495.371094 168.0
1495.471436 120.0
1495.668579 188.0
1495.798706 160.0
1495.975586 92.0
1496.425781 120.0
1496.610596 116.0
1496.688232 156.0
1496.764648 136.0
1496.880127 84.0
1496.957153 60.0
1497.057495 164.0
1497.135742 184.0
1497.226685 140.0
1497.335815 140.0
1497.67334 192.0
1497.771851 168.0
1498.050781 168.0
1498.189453 196.0
1498.434937 172.0
1498.582397 168.0
1498.713379 144.0
1498.816284 192.0
1498.885986 112.0
1498.941895 136.0
1499.118896 176.0
1499.283691 144.0
1499.3396 220.0
1499.537964 192.0
1499.825806 164.0
1500.037842 136.0
1500.200928 192.0
1500.370483 172.0
1500.432251 240.0
1500.72522 168.0
1500.779175 132.0
1500.879395 148.0
1501.087646 132.0
1501.172485 132.0
1501.330688 132.0
1501.612061 188.0
1501.695801 200.0
1501.727173 156.0
1501.744507 188.0
1501.812622 84.0
1502.009399 232.0
1502.115112 168.0
1502.205933 180.0
1502.266846 180.0
1502.391357 132.0
1502.452881 60.0
1502.543823 148.0
1502.607178 48.0
1502.7229 180.0
1502.784668 112.0
1502.996582 164.0
1503.100952 236.0
1503.301636 72.0
1503.391846 156.0
1503.479126 204.0
1503.587891 180.0
1503.67981 148.0
1503.973145 132.0
1504.073486 208.0
1504.158325 104.0
1504.212402 176.0
1504.44397 124.0
1504.599243 180.0
1504.657227 236.0
1504.768188 156.0
1504.977417 136.0
1505.038452 96.0
1505.123413 188.0
1505.289185 136.0
