>compound Pregnenolone
>formula C21H32O2
>ionization [M+H]+
>parentmass 317.2475067160905
#inchi InChI=1S/C21H32O2/c1-13(22)17-6-7-18-16-5-4-14-12-15(23)8-10-20(14,2)19(16)9-11-21(17,18)3/h4,15-19,23H,5-12H2,1-3H3/t15-,16-,17-,18-,19+,20-,21+/m0/s1
#inchikey ORNBQBCIOKFOEO
#Ion_Source LC-ESI
#Instrument qTof
#Compound_Source Commercial
#PI Dorrestein
#Data_Collector Garg_Neha
#Scan -1
#Precursor_MZ 317.248
#ExactMass 316.24
#Charge 1
#CAS_Number 145-13-1
#Pubmed_ID N/A
#Smiles C1[C@@H](CC2[C@](C1)([C@]3([C@@](CC=2)([C@]4([C@](CC3)([C@@H](CC4)C(=O)C)C)[H])[H])[H])C)O
#INCHI_AUX N/A
#Library_Class 1
#SpectrumID CCMSLIB00000078343
#IonMode Positive
#UpdateWorkflowName UPDATE-SINGLE-ANNOTATED-GOLD
#LibraryQualityString Gold
#TaskID 77f51c88eb8b467eb4a01dd2d0cb90d2
##Scan# 2059
#SpectrumFile Plate5_61_88_GH9_01_16511.mzXML
#LibraryName FDALibrary_2_04302014.mgf
#MQScore -1
#Organism FDALibrary_2_04302014
#TIC_Query 0
#RT_Query -1
#MZErrorPPM -1
#SharedPeaks 0
#MassDiff 0
#LibMZ -1
#SpecMZ 317.248
#SpecCharge 0
#internalFilename spec-00000.mgf

>collision 10
47.148354 196.0
49.554867 140.0
49.954975 156.0
59.188885 180.0
65.070206 172.0
67.554695 164.0
67.793739 152.0
68.56778 224.0
69.289879 196.0
73.823265 164.0
75.588219 196.0
81.931541 148.0
87.975105 244.0
88.203003 144.0
93.393211 152.0
95.086121 156.0
99.151489 192.0
104.485077 164.0
105.075897 224.0
105.098343 204.0
105.349457 204.0
107.085495 204.0
108.092216 160.0
109.064873 204.0
113.028687 200.0
113.717422 208.0
115.009377 208.0
117.071869 164.0
118.647018 196.0
129.668198 156.0
131.085114 340.0
131.18457 164.0
132.084259 216.0
133.101379 660.0
135.116257 220.0
135.85527 152.0
137.095749 168.0
139.110687 232.0
141.075348 136.0
142.081635 156.0
143.086746 408.0
144.086395 168.0
144.492813 184.0
145.101776 428.0
146.096985 180.0
147.117905 656.0
148.11528 188.0
149.131821 528.0
150.696991 184.0
151.115585 460.0
155.089752 216.0
157.100235 708.0
158.103577 176.0
159.115692 1252.0
160.118225 280.0
161.130264 320.0
163.120148 168.0
163.15065 188.0
167.071121 152.0
169.105957 196.0
171.115463 192.0
173.130493 336.0
174.128632 172.0
175.088562 168.0
175.150299 280.0
176.111877 156.0
179.764984 260.0
180.1548 212.0
181.09903 180.0
183.112625 504.0
185.134949 416.0
186.128677 180.0
187.146347 324.0
188.151627 208.0
188.911346 164.0
191.144638 180.0
191.932434 180.0
197.133026 296.0
199.148834 280.0
200.150497 180.0
201.162064 172.0
203.134399 144.0
203.866928 164.0
210.145432 216.0
211.149673 512.0
212.145401 208.0
213.161819 200.0
215.144226 148.0
215.17746 212.0
216.178909 160.0
217.159012 608.0
223.068832 152.0
225.049988 176.0
225.159729 112.0
226.165436 172.0
229.168106 148.0
229.194046 268.0
230.190628 164.0
232.251617 140.0
233.182037 140.0
234.197205 152.0
239.18367 192.0
241.197769 504.0
242.188416 176.0
245.068954 148.0
252.183197 164.0
253.20195 140.0
255.205002 416.0
256.210938 328.0
257.187561 120.0
260.210876 144.0
270.389587 180.0
273.224274 108.0
275.393646 176.0
280.230286 148.0
281.226624 1132.0
281.922028 276.0
282.230774 288.0
283.052673 180.0
283.232544 324.0
285.031738 164.0
291.9039 140.0
298.679016 160.0
299.019653 160.0
299.071289 152.0
299.23642 3088.0
300.23996 1064.0
301.242676 176.0
315.220917 136.0
316.093109 248.0
317.199768 132.0
317.245148 1120.0
318.249359 192.0
1031.864502 164.0
1114.809326 192.0
1348.810059 168.0
1420.839111 180.0
1424.442383 144.0
1456.636841 160.0
1483.428589 160.0
1593.474243 184.0
1605.453613 184.0
1654.386475 196.0
1682.326782 180.0
1729.378174 196.0
1740.212646 208.0
1761.732666 212.0
1795.457886 156.0
1907.477539 308.0
1924.404297 140.0
1942.730225 180.0
1993.827637 164.0
2000.160156 192.0
