>compound MLS000859984-01!4-Diphenylacetoxy-N-methylpiperidine methiodide
>formula C21H26NO2
>ionization [M+H]+
>parentmass 325.20363052409056
#inchi InChI=1S/C21H26NO2/c1-22(2)15-13-19(14-16-22)24-21(23)20(17-9-5-3-6-10-17)18-11-7-4-8-12-18/h3-12,19-20H,13-16H2,1-2H3/q+1
#inchikey HYJRTXSYDAFGJK
#origInchi InChI=1S/C21H26NO2.HI/c1-22(2)15-13-19(14-16-22)24-21(23)20(17-9-5-3-6-10-17)18-11-7-4-8-12-18;/h3-12,19-20H,13-16H2,1-2H3;1H/q+1;/p-1
#Ion_Source LC-ESI
#Instrument qTof
#Compound_Source NIH Pharmacologically Active Library
#PI Dorrestein
#Data_Collector VP/LMS
#Scan -1
#Precursor_MZ 324.195
#ExactMass 324.196
#Charge 1
#CAS_Number N/A
#Pubmed_ID N/A
#Smiles C[N+]1(C)CCC(CC1)OC(=O)C(c2ccccc2)c3ccccc3.[I-]
#INCHI_AUX N/A
#Library_Class 1
#SpectrumID CCMSLIB00000085808
#IonMode Positive
#UpdateWorkflowName UPDATE-SINGLE-ANNOTATED-GOLD
#LibraryQualityString Gold
#TaskID d252d724072548979f1f6f1ced849daf
##Scan# 1671
#SpectrumFile p4-F08_GF8_01_18392.mzXML
#LibraryName Pharm_Active_Library.mgf
#MQScore -1
#Organism Pharm_Active_Library
#TIC_Query 0
#RT_Query -1
#MZErrorPPM -1
#SharedPeaks 0
#MassDiff 0
#LibMZ -1
#SpecMZ 324.195
#SpecCharge 0
#internalFilename spec-00000.mgf

>collision 10
44.892296 164.0
44.930977 128.0
45.167435 188.0
45.250957 224.0
45.354904 200.0
45.38842 84.0
45.417927 96.0
45.443417 188.0
45.503815 72.0
45.663811 132.0
45.772739 196.0
45.794289 144.0
45.806412 276.0
45.896709 216.0
46.047859 104.0
46.15868 168.0
46.239849 156.0
46.388851 152.0
46.407833 44.0
46.456657 204.0
46.487865 48.0
46.569324 176.0
46.620956 56.0
46.656296 48.0
46.716133 236.0
46.752224 224.0
46.778736 48.0
46.827457 184.0
47.092361 200.0
47.201698 192.0
47.212639 180.0
47.282291 136.0
47.335804 44.0
47.357716 268.0
47.366894 224.0
47.40704 152.0
47.507133 420.0
47.575752 184.0
47.596348 136.0
47.838333 180.0
47.857609 124.0
47.882397 176.0
47.923721 144.0
48.053329 180.0
48.264664 124.0
48.367043 132.0
48.441822 188.0
48.52359 128.0
48.597099 132.0
48.951565 172.0
49.037941 76.0
49.142532 220.0
49.354847 84.0
49.515781 256.0
49.919971 160.0
50.062107 196.0
50.200214 36.0
50.300392 124.0
50.32439 224.0
50.385124 172.0
50.597271 120.0
50.615677 96.0
50.710598 184.0
50.737534 220.0
50.904964 196.0
51.106819 84.0
51.124023 176.0
51.160904 56.0
51.242085 164.0
51.253483 188.0
51.293388 144.0
51.304794 120.0
51.464592 188.0
51.719501 172.0
51.780636 244.0
51.936871 136.0
52.001438 292.0
52.067482 128.0
52.258675 100.0
52.27882 164.0
52.319122 136.0
52.438972 140.0
52.450218 116.0
52.522316 152.0
52.536743 192.0
52.611786 136.0
52.623337 108.0
52.646442 136.0
52.702782 100.0
52.8358 140.0
52.921192 236.0
52.935673 104.0
53.158924 76.0
53.171326 208.0
53.198112 156.0
53.225697 156.0
53.331753 176.0
53.459743 232.0
53.633064 88.0
53.660763 172.0
53.684093 172.0
53.703053 244.0
53.806664 200.0
53.828568 84.0
53.850471 120.0
53.878227 56.0
54.05954 104.0
54.263149 204.0
54.549431 160.0
54.640614 188.0
54.824677 52.0
54.834995 156.0
54.951492 268.0
55.010529 184.0
55.113914 156.0
55.278053 104.0
55.309132 164.0
55.323936 192.0
55.435024 220.0
55.552158 212.0
55.599644 56.0
55.612999 136.0
55.642689 216.0
55.723778 228.0
55.752613 180.0
55.978741 112.0
56.059185 168.0
56.139687 152.0
56.226215 172.0
56.262043 128.0
56.448814 48.0
56.541569 208.0
56.570007 168.0
56.61343 132.0
56.643387 56.0
56.673351 136.0
56.733597 188.0
56.76479 144.0
56.971924 172.0
57.006481 180.0
57.149338 164.0
57.173412 40.0
57.195992 148.0
57.215561 88.0
57.302917 140.0
57.403309 252.0
57.462738 156.0
57.591057 68.0
57.663582 152.0
57.686256 188.0
57.700966 164.0
57.719082 128.0
57.795151 140.0
57.867805 40.0
57.928383 204.0
57.992027 184.0
58.158878 188.0
58.174057 208.0
58.254543 148.0
58.338127 220.0
58.35181 156.0
58.449158 172.0
58.476551 168.0
58.563339 136.0
58.627331 160.0
58.67001 152.0
58.717281 164.0
58.805775 160.0
58.824322 240.0
58.840885 76.0
59.065536 144.0
59.226261 68.0
59.356533 176.0
59.373402 164.0
59.413284 188.0
59.451645 68.0
59.59753 152.0
59.623653 140.0
59.677456 168.0
59.695911 148.0
59.97538 116.0
60.153519 136.0
60.617584 204.0
60.701233 84.0
60.743111 140.0
60.755524 196.0
60.968254 212.0
61.084869 220.0
61.237411 168.0
61.275471 232.0
61.288822 144.0
61.516533 132.0
61.580555 140.0
61.735283 220.0
61.847931 128.0
61.912128 156.0
62.098637 148.0
62.172375 140.0
62.222607 268.0
62.275997 108.0
62.310558 156.0
62.448898 40.0
62.538582 180.0
62.678749 216.0
62.730762 180.0
62.815918 216.0
63.043285 88.0
63.063831 48.0
63.09861 204.0
63.207748 128.0
63.235367 156.0
63.465946 208.0
63.480217 80.0
63.526215 56.0
63.546837 124.0
63.584923 180.0
63.634136 196.0
63.704014 164.0
63.715134 180.0
63.734203 76.0
63.861385 172.0
64.183083 252.0
64.28997 144.0
64.432083 156.0
64.465637 172.0
64.571152 252.0
64.755211 140.0
64.78405 48.0
64.819298 156.0
64.940414 176.0
64.946823 96.0
64.954506 132.0
64.998894 188.0
65.286453 180.0
65.352409 160.0
65.584312 112.0
65.652443 188.0
65.792747 192.0
65.806946 68.0
65.865082 232.0
65.884468 128.0
65.976585 244.0
66.010544 192.0
66.18045 72.0
66.220932 136.0
66.289421 192.0
66.433289 188.0
66.63298 160.0
66.810188 328.0
67.051186 176.0
67.104408 140.0
67.144119 60.0
67.204475 168.0
67.271393 160.0
67.343239 172.0
67.58847 144.0
67.611496 108.0
67.650665 56.0
67.703865 212.0
67.730904 120.0
67.896446 184.0
67.945656 124.0
68.008018 224.0
68.16404 180.0
68.195267 160.0
68.228142 84.0
68.292274 56.0
68.320427 252.0
68.64534 172.0
68.836151 184.0
68.849365 188.0
68.860924 36.0
68.928658 144.0
69.021225 148.0
69.049339 140.0
69.349701 176.0
69.362289 172.0
69.383835 188.0
69.431923 188.0
69.538109 192.0
69.675941 128.0
69.885582 136.0
69.917053 156.0
69.940353 196.0
69.968651 160.0
69.998627 152.0
70.04026 144.0
70.231239 140.0
70.270325 176.0
70.450638 100.0
70.550911 56.0
70.562614 172.0
70.652924 172.0
70.714844 204.0
70.76841 236.0
70.805252 184.0
70.832054 128.0
70.880638 56.0
71.083549 64.0
71.174194 164.0
71.192665 128.0
71.337166 152.0
71.377518 192.0
71.404427 124.0
71.488548 152.0
71.52726 128.0
71.604012 164.0
71.763817 212.0
71.815399 208.0
71.968971 172.0
71.985855 152.0
72.188644 112.0
72.298805 172.0
72.539131 156.0
72.834396 196.0
73.135368 224.0
73.164307 152.0
73.222832 108.0
73.3517 128.0
73.365341 208.0
73.413078 192.0
73.505203 140.0
73.546158 140.0
73.609329 220.0
73.7631 112.0
73.790451 184.0
73.872543 136.0
74.14994 200.0
74.163651 136.0
74.271683 36.0
74.295692 184.0
74.644371 104.0
74.666725 160.0
74.845703 40.0
75.02317 164.0
75.083519 328.0
75.164604 180.0
75.242271 108.0
75.268173 172.0
75.319984 52.0
75.357994 116.0
75.396011 76.0
75.549904 100.0
75.700493 156.0
75.757652 220.0
75.802696 52.0
75.852959 92.0
75.972618 152.0
76.290428 56.0
76.657692 176.0
76.735107 160.0
76.825081 108.0
76.933281 68.0
76.957726 92.0
76.971519 120.0
77.233849 176.0
77.655983 192.0
77.691063 140.0
77.71212 108.0
77.775299 52.0
77.894234 216.0
77.922813 192.0
77.966743 192.0
77.982559 128.0
78.028267 68.0
78.216507 184.0
78.403206 172.0
78.505463 136.0
78.584839 48.0
78.776901 204.0
78.809082 56.0
78.856796 112.0
78.870934 112.0
79.053108 160.0
79.099129 188.0
79.253212 156.0
79.549393 160.0
79.588455 164.0
79.711021 120.0
79.894707 156.0
80.089981 180.0
80.337761 128.0
80.423416 156.0
80.635971 168.0
80.677078 168.0
80.757553 180.0
80.940094 132.0
81.090584 184.0
81.14257 180.0
81.156914 72.0
81.201744 204.0
81.356064 108.0
81.456635 196.0
81.59861 168.0
81.618385 220.0
81.778503 200.0
82.066742 292.0
82.08297 172.0
82.117241 120.0
82.193008 160.0
82.364525 168.0
82.445831 212.0
82.472939 184.0
82.527176 184.0
82.588669 204.0
82.637512 148.0
82.689987 172.0
82.779686 220.0
82.83847 204.0
82.850388 132.0
82.946609 196.0
82.976204 168.0
83.28653 68.0
83.301064 76.0
83.348297 120.0
83.406456 164.0
83.457359 124.0
83.483994 248.0
83.490959 160.0
83.66095 236.0
83.697548 136.0
83.808662 156.0
83.970909 84.0
83.996452 116.0
84.082207 144.0
84.135147 112.0
84.160706 140.0
84.219147 192.0
84.252029 168.0
84.443962 256.0
84.473236 156.0
84.564728 140.0
84.639786 128.0
84.755219 236.0
84.826668 236.0
84.98806 56.0
85.022926 140.0
85.2286 128.0
85.263519 304.0
85.329697 204.0
85.421646 180.0
85.572563 220.0
85.707024 116.0
85.764153 80.0
85.801025 68.0
85.813927 196.0
85.897278 184.0
85.971046 160.0
86.201561 72.0
86.220047 40.0
86.471581 128.0
86.70237 272.0
86.740158 292.0
86.831017 172.0
86.849564 100.0
86.940475 152.0
86.98317 112.0
87.064865 156.0
87.090866 68.0
87.211647 188.0
87.235809 176.0
87.254402 44.0
87.434837 100.0
87.559578 204.0
87.609871 136.0
87.675087 36.0
87.717957 120.0
87.807457 152.0
87.878349 100.0
88.106125 48.0
88.287285 140.0
88.324852 268.0
88.461456 136.0
88.568192 156.0
88.680077 264.0
88.843758 156.0
88.900055 176.0
88.941345 112.0
89.13855 84.0
89.221252 144.0
89.300232 136.0
89.418762 96.0
89.471474 204.0
89.716385 140.0
89.999397 120.0
90.046608 124.0
90.091949 160.0
90.131622 224.0
90.417183 168.0
90.496689 64.0
90.595177 176.0
90.737312 148.0
90.834038 180.0
90.862488 244.0
90.906136 28.0
90.993446 160.0
91.021935 92.0
91.107407 184.0
91.120705 112.0
91.225227 120.0
91.249947 48.0
91.286072 240.0
91.300911 224.0
91.440178 172.0
91.525841 124.0
91.552505 152.0
91.661087 192.0
91.775459 324.0
91.832672 172.0
91.907074 164.0
91.924248 108.0
92.040184 136.0
92.065514 188.0
92.122818 244.0
92.164848 136.0
92.296745 40.0
92.384727 108.0
92.421082 192.0
92.468918 168.0
92.641258 92.0
92.714073 192.0
92.992172 116.0
93.059357 208.0
93.141937 180.0
93.178444 96.0
93.324516 148.0
93.412987 220.0
93.484177 124.0
93.586197 132.0
93.642044 144.0
93.732597 52.0
93.873314 192.0
93.940453 124.0
94.031517 84.0
94.072052 156.0
94.168602 156.0
94.201439 104.0
94.354111 68.0
94.429268 208.0
94.433914 180.0
94.487564 124.0
94.508842 140.0
95.024246 220.0
95.14846 248.0
95.253326 124.0
95.280525 156.0
95.488525 220.0
95.502136 176.0
95.537155 148.0
95.701447 120.0
95.856476 68.0
96.080208 1412.0
96.160713 148.0
96.189995 124.0
96.234894 72.0
96.271996 132.0
96.301292 220.0
96.768677 212.0
97.035141 152.0
97.084732 492.0
97.131241 88.0
97.188133 164.0
97.245049 132.0
97.347137 220.0
97.502342 176.0
97.639961 188.0
97.657661 108.0
97.712746 36.0
97.81311 128.0
97.851318 216.0
98.094917 1076.0
98.12635 48.0
98.179596 204.0
98.294014 176.0
98.489471 148.0
98.65744 192.0
98.689072 100.0
98.704895 192.0
98.752357 84.0
98.7939 220.0
98.821594 164.0
98.950249 176.0
99.041344 44.0
99.098709 188.0
99.318855 212.0
99.358528 228.0
99.420044 268.0
99.433937 164.0
99.498375 156.0
99.552773 84.0
99.696091 84.0
99.821335 200.0
100.070061 180.0
100.271263 120.0
100.430771 176.0
100.521652 152.0
100.538513 120.0
100.638321 116.0
100.76815 76.0
100.966049 172.0
101.011078 104.0
101.034058 172.0
101.426567 132.0
101.470673 152.0
101.719437 172.0
101.862015 268.0
101.880096 136.0
102.012733 220.0
102.058975 108.0
102.131371 160.0
102.211845 68.0
102.322556 212.0
102.435333 156.0
102.588486 156.0
102.648979 140.0
102.731674 180.0
102.776062 152.0
103.109268 80.0
103.224503 176.0
103.266968 120.0
103.505775 200.0
103.690132 76.0
103.818275 116.0
104.059334 212.0
104.104004 120.0
104.150719 100.0
104.207603 112.0
104.278725 232.0
104.329544 188.0
104.374855 240.0
104.559067 152.0
104.64286 164.0
104.663223 120.0
104.696671 132.0
104.899323 168.0
104.97908 136.0
105.009674 120.0
105.085152 88.0
105.199448 208.0
105.287247 204.0
105.330139 112.0
105.554962 180.0
105.649048 180.0
105.681778 236.0
105.761597 212.0
105.923363 176.0
105.956139 64.0
105.993027 232.0
106.03196 32.0
106.150864 188.0
106.261635 180.0
106.425835 160.0
106.503876 156.0
106.682655 92.0
106.744339 112.0
106.847183 144.0
106.890388 108.0
107.028313 200.0
107.049362 180.0
107.075676 148.0
107.141594 164.0
107.252869 112.0
107.388962 108.0
107.659332 116.0
107.779144 140.0
107.824608 120.0
107.884552 168.0
108.050003 160.0
108.136917 184.0
108.23008 176.0
108.279877 172.0
108.350212 132.0
108.379219 116.0
108.623863 172.0
108.652901 204.0
108.720512 124.0
108.80117 236.0
108.853333 100.0
109.188835 276.0
109.222115 112.0
109.263725 164.0
109.309502 196.0
109.376099 152.0
109.43647 208.0
109.461464 240.0
109.503113 172.0
109.571854 212.0
109.586441 116.0
109.611443 136.0
109.632286 192.0
109.753189 192.0
109.769875 40.0
110.049484 96.0
110.202858 144.0
110.233307 200.0
110.317665 232.0
110.3564 180.0
110.471664 160.0
110.488403 156.0
110.526062 100.0
110.687248 256.0
110.752167 52.0
110.777306 224.0
110.873695 216.0
110.896744 164.0
111.07708 188.0
111.161003 108.0
111.196678 188.0
111.318443 180.0
111.347847 164.0
111.373055 212.0
111.414665 252.0
111.465775 152.0
111.549568 152.0
111.564278 176.0
111.619598 156.0
111.724113 212.0
111.753571 164.0
111.820908 196.0
111.856697 52.0
111.929771 372.0
111.961754 196.0
111.969406 128.0
112.002686 412.0
112.0382 128.0
112.071335 140.0
112.112106 59772.0
112.156502 196.0
112.165802 252.0
112.211594 192.0
112.267708 112.0
112.291924 188.0
112.33744 92.0
112.35817 96.0
112.390533 136.0
112.457863 396.0
112.473595 164.0
112.501678 92.0
112.524574 80.0
112.555443 76.0
112.570587 88.0
112.601967 80.0
112.622139 132.0
112.647484 192.0
112.695236 100.0
112.784843 52.0
112.822891 104.0
112.882721 148.0
112.96035 108.0
113.042267 56.0
113.113342 6436.0
113.139053 136.0
113.178345 56.0
113.193169 72.0
113.207993 48.0
113.258827 144.0
113.280006 284.0
113.324501 28.0
113.341446 120.0
113.36264 68.0
113.400345 76.0
113.404182 60.0
113.438942 52.0
113.477104 80.0
113.570412 92.0
113.638191 156.0
113.665886 84.0
113.688004 104.0
113.704086 172.0
113.725311 28.0
113.750786 116.0
113.821648 172.0
113.839958 236.0
113.856949 140.0
113.87606 172.0
113.897301 144.0
113.929283 76.0
113.96833 100.0
113.982285 116.0
113.99929 84.0
114.091629 2084.0
114.117516 476.0
114.13205 168.0
114.13813 192.0
114.156601 80.0
114.179993 128.0
114.218285 56.0
114.262955 40.0
114.296997 212.0
114.358719 48.0
114.407677 80.0
114.443871 180.0
114.467293 144.0
114.50061 72.0
114.522667 156.0
114.67395 48.0
114.912079 60.0
115.049385 152.0
115.072868 140.0
115.097427 1084.0
115.215965 92.0
115.260834 188.0
115.406189 40.0
115.480927 160.0
115.63295 132.0
115.667198 40.0
115.682182 196.0
116.164352 172.0
116.217987 112.0
116.239449 60.0
116.355354 128.0
116.450165 160.0
116.531471 56.0
117.019714 56.0
117.164017 148.0
117.530556 164.0
117.716202 144.0
117.785316 180.0
117.83284 112.0
117.943054 132.0
118.094414 172.0
118.161476 112.0
118.343285 196.0
118.553413 84.0
118.645813 140.0
119.008949 224.0
119.024147 240.0
119.114044 92.0
119.158821 72.0
119.18924 200.0
119.437088 116.0
119.53717 180.0
119.558929 124.0
119.595932 144.0
119.693901 84.0
119.752701 212.0
119.831123 140.0
120.134171 172.0
120.26947 128.0
120.297844 56.0
120.400467 176.0
120.597107 44.0
120.8311 116.0
120.863914 124.0
120.890175 180.0
120.964592 124.0
120.986488 140.0
121.187988 184.0
121.231812 36.0
121.25811 72.0
121.367722 104.0
121.40062 32.0
121.580513 244.0
121.60685 92.0
122.321236 60.0
122.448944 92.0
122.497406 228.0
122.781044 240.0
122.967079 212.0
123.495148 124.0
123.776215 104.0
123.862587 144.0
123.886955 180.0
123.920189 152.0
124.184883 140.0
124.357063 36.0
124.42144 100.0
124.452522 144.0
124.610222 96.0
124.661331 136.0
124.912575 152.0
124.963745 132.0
125.037178 188.0
125.360107 132.0
125.531761 156.0
125.576363 136.0
125.989334 136.0
126.022842 212.0
126.268745 148.0
126.326904 88.0
126.378365 44.0
126.678368 124.0
126.732391 144.0
126.960793 68.0
126.978737 160.0
127.304153 76.0
127.492867 172.0
127.816696 132.0
127.866203 164.0
128.062424 212.0
128.108597 328.0
128.282913 180.0
128.352814 108.0
128.391144 44.0
128.456558 152.0
128.492661 172.0
128.691284 208.0
129.020905 188.0
129.111588 124.0
129.303894 228.0
129.333328 56.0
129.355331 188.0
129.525803 92.0
129.591614 80.0
129.657211 232.0
129.684418 140.0
129.897568 100.0
129.929321 168.0
129.96109 116.0
129.995132 172.0
130.068665 372.0
130.122131 16944.0
130.149368 160.0
130.174469 60.0
130.210526 64.0
130.267593 36.0
130.31076 172.0
130.371231 124.0
130.420807 168.0
130.435287 60.0
130.48349 128.0
130.592651 64.0
130.617661 56.0
130.676819 172.0
130.795151 136.0
130.893051 88.0
130.979599 56.0
131.12529 1072.0
131.280457 156.0
131.362564 40.0
131.42189 208.0
131.517746 60.0
131.540573 32.0
131.597641 48.0
131.823792 56.0
131.999802 84.0
132.047836 184.0
132.127899 108.0
132.322433 44.0
132.455261 124.0
132.50795 180.0
132.61795 60.0
132.760101 132.0
132.840378 104.0
132.920685 52.0
133.069885 104.0
133.221466 92.0
133.269714 140.0
133.519623 152.0
133.539566 176.0
133.929977 248.0
134.250351 136.0
134.644989 148.0
134.852936 108.0
135.043243 200.0
135.155884 116.0
135.195221 152.0
135.241516 128.0
135.431381 132.0
135.454544 176.0
135.484665 140.0
135.514786 196.0
135.6353 112.0
135.987869 112.0
136.103943 176.0
136.250275 88.0
136.461777 128.0
136.543167 96.0
136.950485 144.0
137.076294 236.0
137.384064 80.0
137.451721 196.0
137.841705 152.0
137.881424 92.0
138.194778 140.0
138.358612 136.0
138.592834 112.0
138.696106 124.0
138.728775 140.0
138.899963 212.0
139.047791 120.0
139.642212 124.0
139.703369 196.0
140.068253 112.0
140.435974 188.0
140.452484 160.0
140.575165 168.0
140.688461 108.0
141.06575 120.0
141.161026 84.0
141.194138 112.0
141.480453 136.0
141.658066 176.0
141.748108 72.0
141.865158 192.0
141.883209 60.0
141.937744 140.0
142.018372 156.0
142.063446 156.0
142.170227 128.0
142.398148 96.0
142.645264 116.0
143.283066 132.0
143.430817 148.0
143.736099 120.0
143.774277 104.0
143.879303 152.0
143.931839 92.0
144.036423 152.0
144.317688 176.0
144.378708 120.0
144.548569 88.0
144.82692 120.0
145.214584 84.0
145.735519 188.0
145.939835 116.0
145.96666 176.0
145.985519 88.0
146.488571 244.0
146.683762 120.0
146.949051 104.0
147.154205 176.0
147.299103 60.0
147.403 144.0
147.441666 168.0
147.473083 44.0
147.509857 132.0
148.077972 104.0
148.114304 176.0
148.177292 124.0
148.203949 112.0
148.257263 172.0
148.448776 184.0
148.596741 108.0
148.832184 128.0
148.885605 240.0
149.078812 204.0
149.24527 136.0
149.291458 32.0
149.753891 148.0
149.797729 148.0
150.043884 140.0
150.131668 148.0
150.478165 184.0
151.05249 312.0
151.160141 176.0
151.240906 44.0
151.662216 212.0
152.061081 2704.0
152.251068 112.0
152.295273 148.0
152.359146 188.0
152.418106 144.0
152.933395 128.0
153.0625 404.0
153.168503 48.0
153.188202 164.0
153.205444 208.0
153.481491 100.0
153.967651 68.0
154.434784 168.0
154.484253 216.0
154.667374 152.0
154.80603 168.0
154.895187 160.0
155.195068 164.0
155.242188 152.0
155.331482 128.0
155.363724 176.0
156.118835 148.0
156.185989 136.0
156.678894 224.0
157.869537 108.0
157.887039 40.0
157.934555 36.0
158.112198 172.0
158.33252 124.0
158.537964 180.0
158.838837 180.0
159.07428 160.0
159.195236 184.0
159.386154 204.0
159.71048 120.0
159.781006 100.0
159.798523 212.0
160.529007 176.0
160.841873 76.0
160.917603 176.0
161.230835 152.0
161.506439 168.0
161.981033 212.0
162.03299 152.0
162.207855 48.0
162.382812 68.0
162.469055 84.0
162.634003 140.0
162.938751 100.0
163.393845 108.0
163.58725 124.0
164.180939 96.0
164.471817 60.0
164.540741 116.0
164.581589 60.0
164.724609 144.0
164.816589 176.0
165.069626 2016.0
165.315247 108.0
165.361313 208.0
165.48674 40.0
165.509796 228.0
165.591415 156.0
165.719833 144.0
165.940262 236.0
166.07663 1324.0
166.26091 152.0
166.289139 148.0
166.378983 120.0
166.479126 108.0
166.728317 216.0
166.792572 200.0
166.83371 164.0
166.951996 92.0
167.012436 160.0
167.084732 11232.0
167.132065 40.0
167.165512 56.0
167.281342 52.0
167.383209 204.0
167.440979 88.0
167.554321 68.0
167.719254 60.0
167.794006 68.0
167.853317 96.0
167.88942 64.0
168.086349 1836.0
168.204208 164.0
168.335953 128.0
168.38237 168.0
168.423691 76.0
168.624023 124.0
168.67952 112.0
168.715698 92.0
168.78035 44.0
168.855347 104.0
168.958817 88.0
169.05455 140.0
169.083176 192.0
169.163254 84.0
169.331573 44.0
169.362656 132.0
169.541428 156.0
169.831818 124.0
169.977097 148.0
170.067932 148.0
170.296432 44.0
170.322403 140.0
170.423721 80.0
170.657654 112.0
170.805893 68.0
170.941193 148.0
171.032288 192.0
171.501144 164.0
171.532425 96.0
171.634949 184.0
171.709732 136.0
172.315353 136.0
172.341476 136.0
172.5009 184.0
172.568878 128.0
172.801666 168.0
172.958679 164.0
173.8367 176.0
173.981064 148.0
174.319885 220.0
174.585403 192.0
175.069641 100.0
175.314651 112.0
175.391083 112.0
175.55191 160.0
175.575653 128.0
176.116714 160.0
176.283173 116.0
176.584564 124.0
176.777695 116.0
176.804153 60.0
177.03978 64.0
177.090103 68.0
177.426636 124.0
177.567184 104.0
177.731659 68.0
177.824539 176.0
178.026321 152.0
178.273392 188.0
178.40097 40.0
178.640305 124.0
178.874496 172.0
179.028915 128.0
179.053833 224.0
179.082184 192.0
179.156769 68.0
179.412613 108.0
179.44194 156.0
179.815414 144.0
180.101105 236.0
180.735107 192.0
180.764145 188.0
181.549072 108.0
182.214783 56.0
182.268524 44.0
182.413651 48.0
182.669128 152.0
182.873627 156.0
183.083633 160.0
183.406952 84.0
183.684692 164.0
183.771027 144.0
184.057144 120.0
184.221893 124.0
184.697678 136.0
184.876236 164.0
185.068436 72.0
185.34201 168.0
185.488373 152.0
185.526321 148.0
185.990204 136.0
186.112366 144.0
186.364975 96.0
186.636795 92.0
186.821747 144.0
187.175583 152.0
187.802414 140.0
188.053436 164.0
188.45488 176.0
188.659851 140.0
188.781174 248.0
188.80751 140.0
188.834869 156.0
188.922394 176.0
189.094788 116.0
189.300125 92.0
189.497345 168.0
189.652542 120.0
189.752243 124.0
190.001816 72.0
190.064926 192.0
190.114319 128.0
190.306473 184.0
190.405334 144.0
190.779037 160.0
191.670807 140.0
191.921646 140.0
192.216797 112.0
192.263702 100.0
192.608841 112.0
193.200424 44.0
193.363693 140.0
193.901001 132.0
194.059006 92.0
194.108917 164.0
194.16716 128.0
194.325287 172.0
194.505676 136.0
195.14743 104.0
195.23085 100.0
195.300385 168.0
195.567505 100.0
195.840378 136.0
196.475952 128.0
196.559662 196.0
196.986847 148.0
197.285858 148.0
197.414474 160.0
197.923782 172.0
198.119843 80.0
198.301987 124.0
198.416916 144.0
198.450562 156.0
198.512253 148.0
198.632858 144.0
198.669327 152.0
199.067902 96.0
199.115646 68.0
199.24205 128.0
199.275757 32.0
199.565262 140.0
199.649628 64.0
199.722748 208.0
200.821274 144.0
201.013123 224.0
201.173996 68.0
201.422516 136.0
201.702255 128.0
201.739014 212.0
201.914322 120.0
202.084061 104.0
202.109528 140.0
202.219894 128.0
202.361435 192.0
202.916763 124.0
203.118118 140.0
203.152161 136.0
203.444473 52.0
203.495575 132.0
203.876221 112.0
204.430771 168.0
204.527542 132.0
204.692673 112.0
205.065887 148.0
205.288269 152.0
205.584961 128.0
205.639175 108.0
205.664871 156.0
206.130402 64.0
206.167557 164.0
206.742386 104.0
206.796768 104.0
207.257843 68.0
207.332352 112.0
207.484268 88.0
207.581757 140.0
207.608322 76.0
207.739517 96.0
207.899002 232.0
208.361755 200.0
208.494675 56.0
208.575165 220.0
208.647034 168.0
209.115921 132.0
209.150452 84.0
209.415359 136.0
209.608383 128.0
210.012009 144.0
210.087006 168.0
210.268799 168.0
210.551743 176.0
210.710617 168.0
210.904236 40.0
211.019867 208.0
211.063248 116.0
211.112411 48.0
211.224319 184.0
211.393021 96.0
211.581161 192.0
211.960602 84.0
212.020294 180.0
212.117111 108.0
212.48642 208.0
212.514435 80.0
212.859848 88.0
213.289841 88.0
213.520081 132.0
213.662079 144.0
213.717361 40.0
213.865784 136.0
214.127838 228.0
214.468735 120.0
214.544525 48.0
215.087128 100.0
215.341156 48.0
215.791199 96.0
216.127563 164.0
216.265106 68.0
216.508118 120.0
216.531555 204.0
216.77179 164.0
217.616577 184.0
217.760468 152.0
217.966125 168.0
218.357117 148.0
218.41301 96.0
218.996246 136.0
219.028214 40.0
219.269836 132.0
219.322891 112.0
219.608902 144.0
219.746735 116.0
219.772781 124.0
220.022034 96.0
220.095856 44.0
220.299637 140.0
220.586288 140.0
220.666122 268.0
220.686813 152.0
220.81102 112.0
220.871857 224.0
221.087952 216.0
221.814789 80.0
221.989716 172.0
222.247803 144.0
222.776276 196.0
222.909988 124.0
223.397598 108.0
223.614822 168.0
223.638641 148.0
223.799393 140.0
223.969147 144.0
224.037659 200.0
224.192612 136.0
224.299911 80.0
224.502655 64.0
224.768158 128.0
224.833817 144.0
224.983063 120.0
225.407196 100.0
225.443054 160.0
225.493851 172.0
225.550644 64.0
225.625381 216.0
225.715088 104.0
225.762939 172.0
225.852661 176.0
226.038147 112.0
226.364441 144.0
226.394394 180.0
226.415359 148.0
226.502213 96.0
226.744919 164.0
226.837845 96.0
226.921783 120.0
227.383759 120.0
227.449783 144.0
227.756073 212.0
227.807144 160.0
228.024506 200.0
228.128693 164.0
228.730331 116.0
228.799576 232.0
228.832687 76.0
228.892914 140.0
229.124847 140.0
229.248383 172.0
230.068817 108.0
230.117126 96.0
230.425201 188.0
230.660919 160.0
230.875595 184.0
230.908859 84.0
230.930038 72.0
230.99054 152.0
231.374878 96.0
231.544449 180.0
231.638351 240.0
231.726212 116.0
232.496429 104.0
232.575333 84.0
232.70285 148.0
232.745346 52.0
232.818237 108.0
232.891129 132.0
233.100754 124.0
233.146347 172.0
233.194977 148.0
233.547684 180.0
233.882385 204.0
234.132065 236.0
234.485474 184.0
234.595215 128.0
234.921524 204.0
235.022202 148.0
235.061874 148.0
235.107651 48.0
235.275528 124.0
235.422104 196.0
235.782593 56.0
236.018356 132.0
236.244324 172.0
236.284088 160.0
236.406479 112.0
236.443207 112.0
236.810623 92.0
236.988297 148.0
237.184433 120.0
237.261078 148.0
237.377594 180.0
237.56163 200.0
237.724243 156.0
238.098785 164.0
238.51358 92.0
238.941055 108.0
238.968735 196.0
239.008743 180.0
239.375061 104.0
239.529053 80.0
239.618393 132.0
239.827942 120.0
239.963593 132.0
239.994431 236.0
240.287445 136.0
240.346069 176.0
240.540497 128.0
240.7659 56.0
240.994492 132.0
241.334503 152.0
241.433456 164.0
241.711868 176.0
241.745911 208.0
241.792343 192.0
241.88829 128.0
242.015228 212.0
242.300171 112.0
242.628693 184.0
242.833359 52.0
243.028809 144.0
243.11879 88.0
243.190933 216.0
243.270889 140.0
243.32988 104.0
243.628021 156.0
243.932571 164.0
244.178223 172.0
244.290207 156.0
244.405319 160.0
244.486221 124.0
244.576492 92.0
244.766403 260.0
245.012466 100.0
245.081009 188.0
245.333466 176.0
245.517441 176.0
245.829407 92.0
245.979218 172.0
246.147812 132.0
246.703979 140.0
246.907227 120.0
247.016693 96.0
247.273285 188.0
247.423538 200.0
247.545654 76.0
247.72731 140.0
248.072037 144.0
248.373077 48.0
248.580139 112.0
248.988266 212.0
249.465881 108.0
249.903046 212.0
250.161118 112.0
250.283905 36.0
250.602036 168.0
250.787979 216.0
250.816345 156.0
250.84787 104.0
251.122192 80.0
251.175827 104.0
251.213669 60.0
251.273621 152.0
251.794479 96.0
251.923981 144.0
252.021927 176.0
252.135681 156.0
252.52774 128.0
252.603653 148.0
252.77916 212.0
252.856781 156.0
252.961243 176.0
253.144882 156.0
253.249405 148.0
253.410965 68.0
253.635971 100.0
253.892792 208.0
254.057739 124.0
254.416351 124.0
254.467163 212.0
254.670395 148.0
254.78476 84.0
254.965881 124.0
255.172501 152.0
255.452377 100.0
255.531906 156.0
255.697388 56.0
255.955246 160.0
256.066711 168.0
257.205017 136.0
257.256104 160.0
258.032135 164.0
258.489838 164.0
258.823975 136.0
258.912415 156.0
258.941254 148.0
259.00531 196.0
259.226379 48.0
259.390961 124.0
259.441132 208.0
259.540527 108.0
260.166168 232.0
260.394165 140.0
260.673645 100.0
261.020844 168.0
261.094788 160.0
261.165558 44.0
261.269989 232.0
261.606415 52.0
262.025085 124.0
262.195862 168.0
262.556976 252.0
262.918304 204.0
262.950562 128.0
263.283112 204.0
263.321869 36.0
263.45108 176.0
264.327301 44.0
264.557098 104.0
264.583008 120.0
264.67691 96.0
264.855042 96.0
265.347626 152.0
265.41571 168.0
265.610291 76.0
265.662201 152.0
265.775757 192.0
265.850403 128.0
265.905579 188.0
266.006195 228.0
267.065521 88.0
267.14035 152.0
267.303009 144.0
267.579681 204.0
267.716461 204.0
267.77832 152.0
268.071533 160.0
268.296448 112.0
269.040283 116.0
269.076202 68.0
269.167633 140.0
269.210083 184.0
269.317871 180.0
269.383179 132.0
269.605377 168.0
270.014038 172.0
270.06311 180.0
270.409943 180.0
270.452484 180.0
270.760742 132.0
271.235352 152.0
271.73056 104.0
271.858521 88.0
271.986542 140.0
272.745331 232.0
273.00177 60.0
273.179382 148.0
273.317596 144.0
273.485413 128.0
273.88385 200.0
273.913483 44.0
274.061737 132.0
274.285858 156.0
274.358368 120.0
274.602386 200.0
274.965332 128.0
276.03241 240.0
276.399597 92.0
276.578308 136.0
276.710724 164.0
276.909424 96.0
277.051849 120.0
277.124756 72.0
277.472748 192.0
278.491547 164.0
278.637695 52.0
279.525513 116.0
280.191437 136.0
280.521362 60.0
280.641388 112.0
280.704742 244.0
280.924896 72.0
281.085022 124.0
281.148438 68.0
281.278625 204.0
281.842407 172.0
281.939941 172.0
281.963348 164.0
282.020172 80.0
282.244171 84.0
282.464905 128.0
282.521759 188.0
282.933411 64.0
283.003723 80.0
283.12204 156.0
283.519592 108.0
284.052734 88.0
285.375946 148.0
285.719025 128.0
285.904083 116.0
286.09259 144.0
286.180115 104.0
286.277771 168.0
286.732574 116.0
287.141968 152.0
287.795227 112.0
288.450531 120.0
288.744812 124.0
289.042511 224.0
289.259125 136.0
289.343781 164.0
289.404724 136.0
290.028076 164.0
290.177246 140.0
290.757294 80.0
290.903259 168.0
291.239441 116.0
291.633575 76.0
291.681183 124.0
292.221924 216.0
292.259338 208.0
292.58609 128.0
292.810822 140.0
293.083374 212.0
293.199219 212.0
293.376495 132.0
293.47876 184.0
293.621979 140.0
293.836884 168.0
294.383057 100.0
294.564056 176.0
294.933105 132.0
295.340027 176.0
295.374237 168.0
295.408447 200.0
295.651367 108.0
296.048492 236.0
296.120422 40.0
296.209473 260.0
296.620697 152.0
296.774963 124.0
297.203735 128.0
297.533234 88.0
297.557251 124.0
297.780457 160.0
297.965973 276.0
298.117157 36.0
298.471222 88.0
298.835846 92.0
299.193787 192.0
299.303955 64.0
299.837921 120.0
300.738129 96.0
300.803711 192.0
301.097229 104.0
301.228485 156.0
301.252655 160.0
301.280304 176.0
301.31485 176.0
301.663879 96.0
301.729584 152.0
302.144592 164.0
302.355682 188.0
302.407593 80.0
302.490662 204.0
302.812714 88.0
302.868134 32.0
303.020538 136.0
303.204193 96.0
303.38446 152.0
303.550873 188.0
303.585571 200.0
303.880402 84.0
304.015747 180.0
304.192749 192.0
304.300385 140.0
304.755402 116.0
304.790131 268.0
304.831848 48.0
304.932617 124.0
304.963898 156.0
305.092529 104.0
305.419403 112.0
305.471588 164.0
305.969238 112.0
305.993622 172.0
306.157288 92.0
306.550934 196.0
306.68338 144.0
306.850708 168.0
307.084351 128.0
307.464661 108.0
307.86264 140.0
307.91156 156.0
308.166565 132.0
308.316833 72.0
308.925232 88.0
309.005707 220.0
309.054688 96.0
309.082672 152.0
309.165375 152.0
309.380188 132.0
309.460693 200.0
310.087769 180.0
310.210449 80.0
310.434845 136.0
310.74704 124.0
311.329742 128.0
311.487793 160.0
311.60022 108.0
311.814484 160.0
311.983307 96.0
312.085266 188.0
312.356445 180.0
312.496796 204.0
312.584747 124.0
313.380554 48.0
313.454559 96.0
313.609619 72.0
313.817627 160.0
314.166779 68.0
314.399658 148.0
314.484375 144.0
314.530273 168.0
314.92572 224.0
315.148285 152.0
315.540619 56.0
316.04834 208.0
316.141968 212.0
316.191498 96.0
316.258759 108.0
316.36142 72.0
316.499512 100.0
316.765137 184.0
317.530762 68.0
317.598145 152.0
317.931671 224.0
318.009735 196.0
318.236938 116.0
318.375427 196.0
318.437592 192.0
318.489105 112.0
318.734222 212.0
318.783997 132.0
318.819519 160.0
318.894165 184.0
319.050568 188.0
319.381287 168.0
319.431091 140.0
320.256927 132.0
320.353088 156.0
320.456421 120.0
320.541931 128.0
320.591827 84.0
320.638153 32.0
320.823517 92.0
321.461975 180.0
321.56189 112.0
321.65271 144.0
321.69754 180.0
321.729675 100.0
321.753021 108.0
321.779663 84.0
321.909943 124.0
321.95105 180.0
322.040344 88.0
322.066193 180.0
322.11377 240.0
322.154663 92.0
322.208252 200.0
322.236816 76.0
322.351166 132.0
322.612091 112.0
322.701477 216.0
322.801605 156.0
322.833771 284.0
322.867432 68.0
322.933929 164.0
322.966125 72.0
323.024658 152.0
323.051971 156.0
323.076416 148.0
323.101166 128.0
323.122131 92.0
323.15213 96.0
323.189514 136.0
323.248993 128.0
323.319092 152.0
323.463654 200.0
323.535522 144.0
323.581451 152.0
323.624512 140.0
323.657318 200.0
323.788849 200.0
323.843597 132.0
323.870056 160.0
323.89566 456.0
323.939178 144.0
323.946106 412.0
323.98877 436.0
324.049622 456.0
324.12085 472.0
324.19519 139400.0
324.311432 88.0
324.369812 188.0
324.437836 204.0
324.463226 160.0
324.505219 136.0
324.517639 120.0
324.566406 172.0
324.574738 244.0
324.637756 72.0
324.736542 308.0
324.786346 1392.0
324.833771 336.0
324.87439 332.0
324.900269 192.0
324.961151 192.0
324.997986 72.0
325.042328 272.0
325.072998 108.0
325.127411 256.0
325.197449 29496.0
325.269104 92.0
325.335999 36.0
325.383362 200.0
325.457703 148.0
325.487762 40.0
325.552032 108.0
325.593353 76.0
325.631897 144.0
325.666504 164.0
325.677887 52.0
325.727905 128.0
325.760529 72.0
325.796844 76.0
325.830414 288.0
325.868317 208.0
325.900085 132.0
325.978851 268.0
326.037903 60.0
326.090759 36.0
326.200073 4148.0
326.253448 108.0
326.309753 88.0
326.350769 72.0
326.38208 148.0
326.408691 164.0
326.441467 60.0
326.504425 80.0
326.540741 76.0
326.606262 140.0
326.639832 192.0
326.686066 40.0
326.725647 40.0
326.789154 92.0
326.852661 184.0
326.898346 60.0
326.945648 28.0
327.029785 92.0
327.062531 120.0
327.099457 68.0
327.20108 320.0
327.253906 184.0
327.316956 112.0
327.348328 144.0
327.378052 156.0
327.432098 168.0
327.473969 196.0
327.544037 164.0
327.577942 64.0
327.627045 100.0
327.698975 152.0
327.735535 124.0
327.798615 56.0
327.84549 64.0
327.887207 76.0
328.058136 64.0
328.094177 60.0
328.225983 104.0
328.310547 104.0
328.344299 56.0
328.382141 208.0
328.444 56.0
328.509033 76.0
328.545013 60.0
328.570251 96.0
328.626923 68.0
328.667664 128.0
328.74707 76.0
328.983307 88.0
329.03363 112.0
329.07962 64.0
329.1297 32.0
329.212769 80.0
329.239899 64.0
329.270538 60.0
329.295837 28.0
329.328339 64.0
329.55954 40.0
329.617523 88.0
329.653503 28.0
329.740234 112.0
329.808899 100.0
329.881195 32.0
329.967987 68.0
330.033051 52.0
330.586517 40.0
330.680603 44.0
330.734924 60.0
330.899078 104.0
330.921814 96.0
331.013672 80.0
331.524475 92.0
332.053802 92.0
332.137207 40.0
333.771545 124.0
334.466431 64.0
334.637543 52.0
335.234924 124.0
335.701569 64.0
335.82193 100.0
335.985901 80.0
336.321808 96.0
336.416718 132.0
336.770935 88.0
337.209381 120.0
338.131073 92.0
338.174988 32.0
339.049103 88.0
339.504944 72.0
339.622314 204.0
339.703003 72.0
339.831421 92.0
340.172729 108.0
341.33374 180.0
341.422028 80.0
342.419403 92.0
342.585175 72.0
343.875763 68.0
343.94223 68.0
344.18219 64.0
344.26712 56.0
345.738525 84.0
346.02356 56.0
346.353149 80.0
346.760712 40.0
348.226501 68.0
349.263306 56.0
355.720581 40.0
358.877106 108.0
360.814026 88.0
361.252716 36.0
364.448853 88.0
364.570435 108.0
369.374634 96.0
370.860352 28.0
371.090363 68.0
371.930511 56.0
377.401215 76.0
379.592896 144.0
379.720886 64.0
383.129974 48.0
384.12796 44.0
387.223755 92.0
392.107452 116.0
395.215363 112.0
395.698242 128.0
403.328583 88.0
403.620422 80.0
405.822723 100.0
407.191162 40.0
414.116455 92.0
414.310883 40.0
429.395142 60.0
434.367004 88.0
434.682343 88.0
435.342377 68.0
437.721069 104.0
437.796051 56.0
439.94342 44.0
447.654327 124.0
451.668121 92.0
452.230896 48.0
452.777069 96.0
459.851898 52.0
464.202911 44.0
465.374359 72.0
468.371887 108.0
472.05777 96.0
476.335663 56.0
478.767059 40.0
481.313782 92.0
488.976959 72.0
497.441711 84.0
503.479492 84.0
509.275177 108.0
520.461853 108.0
521.097778 144.0
526.326843 108.0
526.477539 36.0
533.295044 60.0
533.446716 68.0
549.433777 40.0
549.914429 88.0
554.962158 40.0
562.994873 72.0
566.11145 232.0
574.486511 152.0
575.526978 56.0
579.880371 100.0
583.572021 56.0
583.6922 64.0
584.120239 52.0
588.192139 124.0
594.430847 108.0
600.33667 48.0
607.369934 88.0
607.890015 76.0
612.684082 108.0
613.275452 68.0
614.088989 60.0
614.90802 80.0
615.297974 84.0
618.615295 32.0
621.643738 40.0
622.825378 84.0
630.488464 112.0
633.87146 52.0
643.140564 88.0
647.782654 36.0
649.815674 72.0
660.18689 108.0
660.534668 192.0
662.4646 104.0
665.752441 100.0
668.950623 96.0
674.377197 48.0
677.336975 64.0
680.962708 40.0
682.885803 76.0
682.979431 32.0
690.343872 44.0
691.67804 88.0
693.118347 40.0
694.371277 36.0
696.507568 92.0
698.505066 100.0
698.82074 216.0
717.112427 44.0
717.426941 116.0
720.095032 48.0
729.278748 52.0
739.738159 112.0
742.279297 72.0
746.950134 64.0
752.257874 64.0
752.689209 96.0
756.467224 28.0
759.184937 108.0
778.872864 168.0
781.597107 128.0
788.048523 80.0
792.861023 44.0
806.996216 96.0
813.886353 148.0
816.807617 40.0
823.008423 260.0
824.162231 80.0
829.788696 64.0
840.446838 108.0
846.348511 216.0
854.823669 48.0
855.231018 44.0
868.841248 180.0
871.800659 32.0
911.025208 184.0
912.509644 40.0
919.877747 88.0
923.805786 44.0
926.790649 112.0
928.233337 100.0
932.87207 196.0
936.395264 56.0
938.644043 160.0
944.403259 112.0
947.427307 60.0
955.353027 80.0
957.698364 128.0
962.175415 116.0
962.422424 204.0
962.687927 208.0
969.64801 68.0
969.964111 92.0
975.464111 144.0
987.085938 124.0
990.766357 140.0
996.312317 168.0
1000.085388 156.0
1008.891663 180.0
1011.168884 132.0
1018.727356 168.0
1020.88208 140.0
1022.809937 104.0
1023.624878 184.0
1023.975159 216.0
1024.128052 116.0
1024.38916 176.0
1027.015503 172.0
1027.506714 156.0
1031.012329 208.0
1031.184937 180.0
1032.354858 164.0
1033.877441 136.0
1034.447144 188.0
1037.91333 188.0
1039.427124 92.0
1040.614624 172.0
1041.141235 176.0
1041.282471 60.0
1042.921021 60.0
1047.109619 180.0
1047.405884 64.0
1052.727051 240.0
1053.57959 220.0
1054.826904 96.0
1055.369995 84.0
1056.361816 244.0
1057.893188 156.0
1070.776123 160.0
1071.023682 220.0
1074.309082 96.0
1075.82312 44.0
1077.495117 128.0
1083.822144 144.0
1084.536499 116.0
1087.127197 104.0
1091.436523 160.0
1091.561523 140.0
1093.344238 176.0
1094.845337 192.0
1096.097046 188.0
1100.740967 180.0
1101.685547 172.0
1102.088501 220.0
1103.238525 100.0
1105.130127 52.0
1105.916138 172.0
1106.811401 144.0
1106.884277 92.0
1108.334961 192.0
1108.487427 240.0
1108.739258 148.0
1111.285645 148.0
1112.427124 72.0
1116.154541 156.0
1116.267578 176.0
1118.489746 160.0
1120.154541 100.0
1121.800537 64.0
1122.940796 220.0
1123.307617 196.0
1123.654541 232.0
1124.949219 116.0
1127.774902 100.0
1128.804443 164.0
1129.332886 192.0
1132.405029 136.0
1135.568726 140.0
1139.616699 116.0
1140.044434 140.0
1141.209717 172.0
1141.297119 96.0
1141.7948 132.0
1143.85376 256.0
1145.833618 52.0
1147.114136 220.0
1148.928223 36.0
1150.115967 140.0
1153.554321 112.0
1156.679565 32.0
1157.194092 152.0
1158.074463 136.0
1161.104126 96.0
1161.572144 88.0
1163.207642 232.0
1164.701538 256.0
1165.802124 136.0
1166.896606 232.0
1167.515381 152.0
1167.597046 156.0
1167.733032 148.0
1167.971069 176.0
1168.05957 100.0
1168.794312 64.0
1168.984863 104.0
1172.042358 84.0
1172.321777 208.0
1173.978394 200.0
1174.728638 236.0
1174.940186 180.0
1177.46582 176.0
1179.508789 184.0
1180.712158 32.0
1184.826172 176.0
1185.018066 52.0
1185.956909 232.0
1187.575073 180.0
1187.924927 148.0
1188.171875 188.0
1188.741455 180.0
1189.224487 196.0
1190.869751 180.0
1194.306519 144.0
1194.733032 48.0
1195.427979 252.0
1197.073242 176.0
1200.263794 184.0
1200.801758 68.0
1201.76062 264.0
1203.589844 108.0
1205.365112 140.0
1206.13916 284.0
1208.974976 264.0
1210.684937 176.0
1211.190552 180.0
1213.581543 96.0
1214.032227 164.0
1215.17688 160.0
1215.620972 136.0
1215.89856 188.0
1216.335815 160.0
1216.453857 208.0
1217.835693 180.0
1219.009766 188.0
1221.220703 216.0
1221.92334 132.0
1222.194702 84.0
1224.248169 76.0
1224.429321 148.0
1224.687012 60.0
1225.515991 140.0
1225.801758 68.0
1226.951782 160.0
1227.558472 168.0
1227.663086 208.0
1228.325684 228.0
1230.754395 156.0
1230.803345 176.0
1231.620483 104.0
1232.291138 80.0
1233.542114 120.0
1234.059448 28.0
1234.206299 156.0
1234.388062 152.0
1235.087524 252.0
1235.577148 288.0
1238.020142 124.0
1239.456177 200.0
1239.883667 204.0
1241.180542 128.0
1245.805908 96.0
1246.852905 132.0
1247.162109 32.0
1247.626099 140.0
1250.017578 196.0
1250.827026 160.0
1253.651367 184.0
1254.081299 200.0
1254.758057 220.0
1254.807373 140.0
1257.043457 164.0
1257.17749 52.0
1257.39624 216.0
1257.911621 120.0
1259.05542 152.0
1259.203735 148.0
1259.72644 136.0
1260.425903 144.0
1260.553101 156.0
1260.750977 160.0
1260.991333 164.0
1261.047852 180.0
1261.570923 120.0
1261.966919 220.0
1262.384033 112.0
1262.730591 88.0
1263.798828 216.0
1263.989868 68.0
1264.053589 88.0
1264.690552 136.0
1264.825073 116.0
1265.221436 148.0
1267.140747 40.0
1267.325073 40.0
1267.721802 136.0
1269.302734 124.0
1269.869995 208.0
1271.2677 168.0
1272.396362 168.0
1274.24292 260.0
1275.109863 144.0
1276.958496 80.0
1277.499146 164.0
1277.719604 248.0
1278.644775 204.0
1280.22522 136.0
1280.859131 264.0
1281.336426 124.0
1284.401855 160.0
1284.494629 56.0
1285.550659 116.0
1286.414307 144.0
1287.192505 148.0
1287.585327 144.0
1287.963867 136.0
1288.66394 184.0
1289.943237 224.0
1289.993286 80.0
1290.809326 152.0
1293.190796 148.0
1293.562988 208.0
1294.336182 172.0
1295.96936 144.0
1297.424316 224.0
1297.574951 148.0
1299.009277 88.0
1299.346436 136.0
1301.851562 80.0
1302.469238 72.0
1302.692017 176.0
1303.877563 180.0
1304.344727 144.0
1304.546021 148.0
1304.790527 140.0
1304.898315 200.0
1306.502197 60.0
1308.495728 120.0
1309.68396 176.0
1310.015381 192.0
1311.79541 120.0
1312.047729 164.0
1312.350464 152.0
1313.057251 56.0
1313.728027 136.0
1314.377441 192.0
1314.97644 132.0
1315.106323 36.0
1316.384277 36.0
1316.673096 32.0
1316.738159 152.0
1317.157104 172.0
1317.380981 176.0
1317.814453 148.0
1318.255249 124.0
1318.363647 148.0
1318.544312 156.0
1319.498535 196.0
1319.737183 128.0
1321.740845 28.0
1322.030273 176.0
1322.725098 160.0
1324.071899 180.0
1324.571655 144.0
1324.897705 160.0
1326.615234 156.0
1328.682617 136.0
1329.2771 236.0
1330.554688 156.0
1333.169556 192.0
1333.496704 188.0
1333.634766 136.0
1333.816528 136.0
1334.667725 252.0
1335.125244 128.0
1336.092651 88.0
1336.150879 196.0
1336.398315 52.0
1336.59436 196.0
1336.983276 184.0
1339.142822 112.0
1339.295776 212.0
1339.44873 248.0
1339.747437 172.0
1339.856689 80.0
1341.540161 232.0
1342.036011 80.0
1342.415161 216.0
1344.487061 68.0
1344.574585 60.0
1344.727905 212.0
1345.041016 160.0
1345.706177 148.0
1345.882446 220.0
1346.297607 152.0
1346.399902 156.0
1346.845459 260.0
1347.22522 204.0
1347.480957 168.0
1348.021729 184.0
1349.278931 156.0
1352.629517 256.0
1352.724731 200.0
1352.8125 44.0
1353.07605 112.0
1353.229858 204.0
1353.669189 136.0
1353.89624 80.0
1356.287109 124.0
1356.438721 152.0
1356.526733 184.0
1358.484741 192.0
1358.558105 200.0
1359.189087 164.0
1359.467896 64.0
1361.171021 144.0
1361.494141 124.0
1361.912842 224.0
1363.588013 92.0
1363.984985 56.0
1364.418701 148.0
1366.288086 184.0
1368.244507 228.0
1368.303345 152.0
1370.011963 148.0
1371.463745 64.0
1371.972412 240.0
1372.196045 208.0
1372.355713 116.0
1373.513672 176.0
1377.507202 176.0
1379.391602 164.0
1380.227051 184.0
1381.151611 56.0
1381.617554 180.0
1383.161865 84.0
1384.156372 128.0
1384.852539 212.0
1384.979492 152.0
1385.578491 64.0
1386.445435 200.0
1387.097778 232.0
1388.113525 112.0
1390.316772 172.0
1392.009399 96.0
1393.316772 92.0
1393.859131 148.0
1394.022583 112.0
1394.111816 136.0
1394.245605 76.0
1395.01123 144.0
1396.632324 76.0
1396.907471 160.0
1397.160767 164.0
1397.703613 180.0
1397.986328 148.0
1398.805176 216.0
1399.691162 204.0
1401.404297 212.0
1402.089966 160.0
1402.462524 176.0
1403.662964 28.0
1404.729492 76.0
1404.908569 160.0
1405.012939 184.0
1405.251221 180.0
1405.729248 148.0
1407.140015 120.0
1408.424561 276.0
1408.700928 184.0
1408.835449 128.0
1408.895142 56.0
1409.821777 228.0
1410.461304 132.0
1410.482056 204.0
1410.927979 168.0
1412.86499 180.0
1412.917358 196.0
1413.897705 108.0
1414.331787 160.0
1414.998047 220.0
1415.597046 128.0
1416.375977 160.0
1416.810547 164.0
1417.057739 252.0
1417.582275 224.0
1418.879028 196.0
1418.968994 176.0
1419.223877 180.0
1419.613892 144.0
1419.823853 136.0
1419.973877 152.0
1420.168823 192.0
1421.301758 204.0
1424.432495 164.0
1425.552002 132.0
1426.175781 208.0
1426.401367 208.0
1426.499023 112.0
1426.78064 132.0
1427.213257 160.0
1430.312988 224.0
1432.406372 144.0
1433.009033 108.0
1433.461182 136.0
1435.270386 168.0
1435.338257 132.0
1435.851074 224.0
1436.318726 188.0
1437.020264 208.0
1437.654175 180.0
1438.008911 140.0
1438.182495 196.0
1438.386353 172.0
1438.896484 200.0
1439.156372 128.0
1439.231934 212.0
1439.71521 200.0
1439.994629 32.0
1440.71228 100.0
1441.31665 224.0
1442.246338 204.0
1444.787231 224.0
1444.847656 160.0
1445.581665 180.0
1445.891968 204.0
1446.081177 172.0
1450.595703 144.0
1450.792847 68.0
1450.845947 120.0
1451.217407 196.0
1451.308472 96.0
1451.831665 152.0
1452.218506 176.0
1453.174316 184.0
1454.069824 96.0
1455.011108 128.0
1455.891846 180.0
1455.998169 140.0
1456.30957 108.0
1457.069336 172.0
1457.388428 176.0
1457.51001 84.0
1457.692383 172.0
1458.041992 176.0
1458.467529 212.0
1458.726074 160.0
1459.235352 140.0
1459.608032 240.0
1460.558716 80.0
1462.042358 176.0
1463.092773 184.0
1463.831421 88.0
1464.356934 164.0
1468.449829 140.0
1469.410156 184.0
1469.838257 160.0
1469.990967 196.0
1470.990845 148.0
1472.43396 148.0
1475.758179 148.0
1476.568726 168.0
1477.609131 108.0
1478.466064 144.0
1478.749268 176.0
1479.598755 108.0
1479.920532 184.0
1480.969727 100.0
1481.919678 168.0
1482.187866 112.0
1482.961914 196.0
1483.667236 176.0
1484.142578 48.0
1486.236572 204.0
1487.134521 164.0
1488.19397 172.0
1488.662354 220.0
1488.739136 224.0
1490.129517 40.0
1490.475342 140.0
1491.005493 152.0
1491.059326 92.0
1491.228394 68.0
1492.089355 164.0
1494.312134 168.0
1494.56604 136.0
1495.435669 96.0
1496.890747 176.0
1498.14624 216.0
1498.893677 228.0
1499.105347 152.0
1499.194214 56.0
1499.949585 172.0
1500.150024 76.0
1500.550903 224.0
1500.766724 228.0
1500.928711 252.0
1501.136841 192.0
1502.301636 228.0
1502.872559 152.0
1503.080811 128.0
1503.991577 188.0
1504.678589 192.0
1505.072388 184.0
