>compound MLS002207217-01!L-Histidine beta-naphthylamide7424-15-9
>formula C16H16N4O
>ionization [M+H]+
>parentmass 281.139
#inchi InChI=1S/C16H16N4O/c17-15(8-14-9-18-10-19-14)16(21)20-13-6-5-11-3-1-2-4-12(11)7-13/h1-7,9-10,15H,8,17H2,(H,18,19)(H,20,21)/t15-/m0/s1
#inchikey DKDILZBBFKZMRO
#Ion_Source LC-ESI
#Instrument qTof
#Compound_Source NIH Pharmacologically Active Library
#PI Dorrestein
#Data_Collector VP/LMS
#Scan -1
#Precursor_MZ 281.139
#ExactMass 280.132
#Charge 1
#CAS_Number N/A
#Pubmed_ID N/A
#Smiles N[C@@H](Cc1c[nH]cn1)C(=O)Nc2ccc3ccccc3c2
#INCHI_AUX N/A
#Library_Class 1
#SpectrumID CCMSLIB00000085036
#IonMode Positive
#UpdateWorkflowName UPDATE-SINGLE-ANNOTATED-GOLD
#LibraryQualityString Gold
#TaskID d252d724072548979f1f6f1ced849daf
##Scan# 1201
#SpectrumFile p3-D11_GD11_01_18268.mzXML
#LibraryName Pharm_Active_Library.mgf
#MQScore -1
#Organism Pharm_Active_Library
#TIC_Query 0
#RT_Query -1
#MZErrorPPM -1
#SharedPeaks 0
#MassDiff 0
#LibMZ -1
#SpecMZ 281.139
#SpecCharge 0
#internalFilename spec-00000.mgf

>collision 10
44.940945 208.0
45.046383 148.0
45.113239 184.0
45.344818 84.0
45.511169 208.0
45.598492 72.0
45.759926 144.0
45.847485 148.0
46.132298 172.0
46.305504 112.0
46.609394 152.0
46.851589 52.0
46.934734 76.0
47.009762 144.0
47.083485 88.0
47.170322 160.0
47.753716 52.0
47.918915 164.0
47.938206 168.0
48.127193 144.0
48.164482 208.0
48.241871 132.0
48.758911 180.0
49.250767 140.0
49.393349 140.0
49.64827 260.0
49.732929 236.0
50.095936 200.0
50.17136 124.0
50.18264 104.0
50.318092 156.0
50.346333 136.0
50.617863 84.0
50.651852 260.0
50.872314 148.0
51.077717 128.0
51.533939 196.0
51.569668 204.0
51.737038 148.0
51.90181 168.0
52.131496 136.0
52.250843 156.0
52.317047 180.0
52.569294 168.0
52.588058 196.0
52.661697 280.0
52.74984 48.0
52.764297 72.0
52.971252 192.0
53.04081 240.0
53.135075 156.0
53.156841 180.0
53.387829 188.0
53.43438 52.0
53.750572 176.0
54.151154 124.0
54.246399 152.0
54.329994 132.0
54.676781 192.0
54.740086 104.0
54.888924 260.0
55.080791 196.0
55.154678 128.0
55.215302 212.0
55.237488 148.0
55.268559 168.0
55.295197 148.0
55.404778 256.0
55.59161 140.0
55.671776 156.0
55.710396 40.0
56.071987 116.0
56.173382 84.0
56.21516 176.0
56.303242 192.0
56.602341 132.0
56.723701 176.0
56.77618 160.0
56.830185 184.0
57.01339 108.0
57.090065 184.0
57.123154 144.0
57.607071 216.0
57.818764 192.0
58.158276 184.0
58.71516 164.0
59.094009 168.0
59.11237 40.0
59.17094 212.0
59.213413 164.0
59.303814 92.0
59.812252 148.0
59.836884 76.0
59.876923 112.0
60.041832 152.0
60.063427 132.0
60.423382 172.0
60.465164 168.0
60.702198 128.0
60.744076 236.0
60.837189 156.0
61.015854 176.0
61.190109 200.0
61.258636 168.0
61.448841 172.0
61.476929 204.0
61.625275 172.0
61.744083 180.0
61.797272 108.0
61.88649 140.0
61.917809 196.0
61.997711 84.0
62.030628 172.0
62.256569 144.0
62.526985 208.0
62.750675 156.0
62.797985 228.0
62.940022 128.0
63.291065 264.0
63.336994 132.0
63.401958 64.0
63.497086 224.0
63.705025 180.0
63.894215 112.0
64.105995 168.0
64.671379 196.0
64.963028 192.0
65.081795 120.0
65.313225 84.0
65.772469 148.0
65.841896 212.0
65.903282 180.0
66.426224 144.0
66.593422 172.0
66.637283 172.0
66.648659 176.0
66.879593 76.0
67.221855 96.0
67.311646 172.0
67.497932 180.0
67.515923 176.0
67.622269 120.0
67.709045 144.0
68.101044 196.0
68.611183 196.0
68.665596 164.0
68.739838 184.0
68.871918 168.0
68.959496 44.0
69.058701 252.0
69.214264 248.0
69.515968 184.0
69.838287 160.0
69.983078 60.0
70.038033 148.0
70.149681 148.0
70.253075 156.0
70.575424 180.0
70.615562 148.0
70.940414 128.0
71.089699 140.0
71.786163 200.0
71.858696 192.0
72.211761 188.0
72.387772 140.0
72.555519 216.0
72.855919 128.0
73.339203 212.0
73.354546 72.0
73.438103 172.0
73.559258 40.0
73.629265 72.0
73.752281 44.0
74.071503 196.0
74.654129 192.0
74.988129 240.0
75.055931 232.0
75.198555 188.0
75.447304 208.0
75.978996 252.0
76.088333 236.0
76.11438 144.0
76.178642 44.0
76.582214 172.0
76.855919 172.0
76.976364 172.0
77.110886 172.0
77.678215 180.0
77.771217 92.0
78.006607 208.0
78.120911 172.0
78.143784 216.0
78.196579 200.0
78.319832 156.0
78.333923 128.0
78.510185 120.0
78.564865 264.0
79.48671 164.0
79.676697 48.0
79.738892 184.0
79.773407 220.0
79.897148 112.0
79.982574 172.0
80.166023 144.0
80.365738 120.0
80.640762 132.0
80.674721 192.0
80.692604 144.0
81.497383 188.0
81.700554 152.0
81.952614 168.0
82.076988 104.0
82.353111 148.0
82.743721 224.0
83.21331 160.0
83.91198 132.0
84.653854 164.0
84.866417 96.0
84.98748 224.0
85.277641 176.0
85.489143 176.0
85.97937 128.0
86.115997 192.0
86.402527 180.0
86.458244 212.0
86.595047 164.0
87.047562 156.0
87.186897 124.0
87.389587 216.0
87.410057 200.0
87.799408 164.0
87.852402 220.0
88.073784 180.0
88.122353 192.0
88.34671 200.0
88.790649 92.0
88.876938 220.0
89.015846 184.0
89.107887 124.0
89.572571 104.0
89.811966 200.0
90.059235 76.0
90.080017 120.0
90.097015 124.0
90.210411 160.0
90.532066 112.0
90.558586 136.0
90.619202 196.0
90.981461 132.0
91.082108 184.0
91.57856 180.0
91.624283 152.0
92.451088 168.0
92.864929 172.0
92.972366 92.0
93.044724 10444.0
93.068718 284.0
93.127884 64.0
93.158623 68.0
93.222023 44.0
93.379677 108.0
93.450851 64.0
93.545158 224.0
93.706932 156.0
93.963364 212.0
94.048203 840.0
94.198891 152.0
94.564354 140.0
94.636147 224.0
94.862656 52.0
95.058098 300.0
95.130371 60.0
95.171143 172.0
95.53653 192.0
95.688339 168.0
95.737022 104.0
95.918221 152.0
96.406174 136.0
96.580177 180.0
96.605614 176.0
96.728897 128.0
96.891441 128.0
96.911339 108.0
97.126686 196.0
97.568542 120.0
97.836105 68.0
98.001541 216.0
98.090233 148.0
98.143463 148.0
98.165154 276.0
98.557983 72.0
98.646919 200.0
98.820961 100.0
98.836784 180.0
98.918381 196.0
99.042686 180.0
99.078346 240.0
99.522621 104.0
99.900246 132.0
100.065437 52.0
100.236732 144.0
100.438103 96.0
100.479996 112.0
100.629684 168.0
100.9814 180.0
100.995399 172.0
101.187515 128.0
101.528168 168.0
101.592354 224.0
101.736847 40.0
102.076416 196.0
102.092499 140.0
102.185028 188.0
102.356125 64.0
102.54348 148.0
102.558762 200.0
102.58783 176.0
102.616943 136.0
102.995453 168.0
103.053932 188.0
103.082329 156.0
103.50309 140.0
103.596252 120.0
103.675278 164.0
104.056633 120.0
104.463097 124.0
104.876465 204.0
104.890373 180.0
105.068153 164.0
105.169197 144.0
105.325378 36.0
105.771149 184.0
105.842804 152.0
105.980049 196.0
106.156334 200.0
107.161507 164.0
107.429527 136.0
107.859055 188.0
108.054321 132.0
108.13208 212.0
108.401649 104.0
108.440689 160.0
108.670876 192.0
108.814087 188.0
108.992722 120.0
109.007263 152.0
109.068192 152.0
109.163177 176.0
109.41703 212.0
109.611343 124.0
109.631577 188.0
109.756653 228.0
109.805542 140.0
109.819221 184.0
109.952751 256.0
110.008194 192.0
110.044098 116.0
110.071205 57204.0
110.123505 112.0
110.138268 108.0
110.178535 124.0
110.215614 64.0
110.266029 172.0
110.282753 72.0
110.296829 60.0
110.303276 44.0
110.326355 84.0
110.368782 212.0
110.395653 68.0
110.414474 76.0
110.456306 48.0
110.519073 76.0
110.545624 128.0
110.573479 72.0
110.592316 76.0
110.616692 56.0
110.774498 72.0
110.79335 108.0
110.88974 140.0
110.905525 136.0
110.950531 56.0
111.011337 120.0
111.074158 2960.0
111.099434 36.0
111.198059 168.0
111.240044 48.0
111.359726 60.0
111.441658 84.0
111.569862 48.0
111.601402 60.0
111.618225 204.0
111.643463 36.0
111.696869 124.0
111.712875 104.0
111.729706 64.0
111.799141 84.0
111.832817 132.0
111.868599 100.0
111.895103 144.0
111.919907 116.0
111.947807 84.0
111.971779 68.0
112.024437 128.0
112.051826 108.0
112.073326 196.0
112.309013 28.0
112.377426 84.0
112.729156 36.0
112.746063 120.0
112.792564 56.0
112.965965 28.0
113.027321 112.0
113.090813 68.0
113.10775 80.0
113.839218 96.0
114.121834 96.0
114.937645 100.0
115.05365 876.0
115.5466 80.0
115.737091 72.0
116.060646 128.0
116.444786 104.0
116.754272 232.0
117.069946 168.0
117.11586 28.0
117.281776 148.0
118.61982 96.0
118.801987 84.0
118.873589 104.0
119.127625 132.0
120.166107 152.0
121.038605 192.0
121.693855 184.0
122.038818 128.0
122.76329 120.0
123.326279 92.0
124.547188 128.0
126.048813 168.0
127.052994 760.0
128.057816 132.0
128.460205 220.0
130.946823 88.0
130.983261 216.0
131.044785 168.0
131.409592 172.0
131.763474 116.0
135.071671 156.0
136.923904 264.0
137.593155 172.0
139.077316 116.0
141.074921 204.0
142.062775 228.0
143.074295 776.0
144.023941 44.0
144.081085 1808.0
144.119507 168.0
144.315506 124.0
145.067383 360.0
145.078491 176.0
145.084991 252.0
146.085495 128.0
152.031448 132.0
154.061966 180.0
154.250656 32.0
155.061264 560.0
155.717529 68.0
156.08429 132.0
158.998215 76.0
162.746994 120.0
165.071579 400.0
166.066025 328.0
167.071167 424.0
168.083588 612.0
168.117706 136.0
168.598068 88.0
169.080688 156.0
171.093399 156.0
172.076309 132.0
175.861816 104.0
181.078568 64.0
182.088043 188.0
183.06485 224.0
184.074783 188.0
188.844208 60.0
191.074432 396.0
192.079208 472.0
193.87439 72.0
193.9021 36.0
195.090134 292.0
196.081879 164.0
197.899643 164.0
201.121414 128.0
204.005142 48.0
205.064041 116.0
206.935165 136.0
207.095535 284.0
207.987289 92.0
209.114014 232.0
212.123856 132.0
215.74826 144.0
216.520752 132.0
219.090393 472.0
220.077133 216.0
221.071869 160.0
222.100327 100.0
222.913818 188.0
223.96106 36.0
224.002762 108.0
234.102356 164.0
234.946671 172.0
235.942276 88.0
236.11676 1236.0
236.257278 164.0
236.596985 48.0
236.673523 96.0
237.117035 264.0
238.114853 48.0
240.627625 44.0
246.087448 204.0
249.086227 156.0
258.272766 44.0
264.110962 188.0
283.154633 188.0
301.705353 92.0
368.563202 52.0
446.940826 56.0
466.183838 124.0
512.020203 152.0
612.856689 136.0
632.103638 40.0
660.217102 204.0
675.007263 72.0
679.793823 184.0
689.652832 96.0
747.81366 44.0
794.574585 160.0
799.423767 72.0
801.71582 148.0
809.709961 176.0
865.40332 196.0
873.23761 136.0
875.368042 76.0
878.09668 188.0
882.720825 160.0
883.046082 164.0
889.967834 236.0
895.5401 52.0
896.106079 200.0
915.327637 148.0
917.141052 64.0
927.919861 148.0
928.441345 176.0
931.476135 164.0
932.405823 156.0
935.61145 188.0
937.968994 136.0
941.703308 152.0
944.912659 160.0
951.832764 160.0
952.1521 156.0
955.323792 168.0
960.134399 172.0
963.510925 136.0
970.207275 188.0
973.272278 128.0
973.52063 212.0
974.396484 188.0
984.749756 124.0
990.886475 180.0
993.43811 148.0
995.208008 200.0
996.904053 176.0
998.658142 192.0
999.840942 144.0
1002.637268 200.0
1005.797241 196.0
1006.472717 152.0
1010.144714 188.0
1013.075745 244.0
1015.979309 220.0
1016.816895 72.0
1019.999084 120.0
1021.525269 60.0
1024.319824 132.0
1026.174438 152.0
1028.975342 200.0
1034.127686 204.0
1035.722046 216.0
1035.971924 128.0
1039.119751 248.0
1039.930664 220.0
1044.046631 104.0
1044.484009 104.0
1048.572632 172.0
1049.075439 200.0
1050.094238 152.0
1050.829712 180.0
1051.875122 160.0
1053.431396 128.0
1053.864258 160.0
1056.987427 164.0
1057.311035 300.0
1057.595825 168.0
1061.392212 132.0
1067.054199 168.0
1068.608643 172.0
1077.161987 176.0
1078.122559 304.0
1078.514648 160.0
1083.501221 44.0
1090.634399 120.0
1093.824707 172.0
1093.963013 48.0
1095.299805 152.0
1100.965454 264.0
1106.956909 96.0
1109.733276 164.0
1110.721436 156.0
1112.639282 172.0
1113.323242 144.0
1120.967041 204.0
1121.300171 144.0
1122.726929 108.0
1126.344482 116.0
1129.854126 84.0
1135.762695 168.0
1138.648804 140.0
1139.213013 224.0
1140.570435 160.0
1140.758667 116.0
1141.471313 204.0
1141.908447 140.0
1142.224609 96.0
1142.917603 108.0
1144.418579 172.0
1144.640869 224.0
1148.839844 140.0
1149.663086 224.0
1151.539917 128.0
1155.562134 180.0
1160.194702 160.0
1164.096191 168.0
1164.231934 136.0
1164.299927 148.0
1165.420776 172.0
1165.685791 236.0
1166.650879 192.0
1167.868164 164.0
1168.038208 224.0
1168.650513 188.0
1168.929443 112.0
1169.936768 176.0
1170.311279 236.0
1171.067261 172.0
1172.81543 120.0
1174.488892 56.0
1175.328003 220.0
1176.795532 216.0
1177.177979 176.0
1178.8927 272.0
1181.860474 248.0
1187.011597 244.0
1187.862061 160.0
1189.117676 160.0
1192.600098 176.0
1193.122437 220.0
1193.232544 164.0
1195.041382 208.0
1195.364746 244.0
1196.025513 160.0
1196.507446 196.0
1197.705688 212.0
1199.876343 236.0
1200.945312 152.0
1203.015381 160.0
1203.92688 192.0
1207.645142 204.0
1208.212402 160.0
1211.133789 112.0
1211.715698 128.0
1212.457031 252.0
1212.810547 216.0
1213.067017 156.0
1215.716553 112.0
1215.841553 228.0
1216.153809 184.0
1216.320435 252.0
1216.841064 208.0
1217.959229 192.0
1224.5896 216.0
1228.372925 220.0
1230.836548 188.0
1231.479126 88.0
1231.681641 52.0
1232.233521 192.0
1233.526489 64.0
1234.435425 56.0
1238.620728 144.0
1244.181885 56.0
1246.731567 172.0
1249.065918 180.0
1249.269897 36.0
1250.733643 228.0
1251.831909 92.0
1255.461304 192.0
1258.08606 132.0
1259.194702 104.0
1260.367432 148.0
1262.076538 232.0
1262.551758 104.0
1263.259155 176.0
1263.315674 172.0
1267.379639 148.0
1268.130859 192.0
1269.662231 136.0
1271.109497 188.0
1276.678955 228.0
1277.489746 188.0
1278.315186 204.0
1279.048218 140.0
1279.810059 168.0
1279.93103 128.0
1280.529297 188.0
1282.845093 228.0
1283.365601 156.0
1283.679321 188.0
1284.906128 208.0
1285.284302 144.0
1289.104736 116.0
1290.434204 192.0
1290.877563 108.0
1291.263794 172.0
1291.62854 204.0
1295.974121 164.0
1296.131836 76.0
1297.830566 136.0
1298.569214 216.0
1298.682129 192.0
1298.877686 116.0
1300.477783 140.0
1302.387817 220.0
1302.610474 164.0
1302.746948 124.0
1302.991211 208.0
1304.026001 228.0
1305.003662 44.0
1305.679688 240.0
1305.895386 192.0
1306.0177 152.0
1307.305542 236.0
1309.746338 152.0
1311.562134 120.0
1311.792847 104.0
1313.473022 148.0
1314.598511 196.0
1314.728394 200.0
1316.092773 132.0
1324.395142 128.0
1325.220947 212.0
1325.344116 108.0
1326.257324 176.0
1328.498047 244.0
1330.094482 128.0
1330.283203 104.0
1331.49585 124.0
1331.81543 140.0
1332.062378 144.0
1333.07959 140.0
1333.871826 148.0
1334.162598 172.0
1334.32251 116.0
1334.707886 188.0
1334.998779 164.0
1335.646118 140.0
1336.31543 216.0
1337.647217 160.0
1337.851074 96.0
1338.003906 160.0
1338.462646 152.0
1338.994263 236.0
1340.502319 168.0
1342.441406 228.0
1342.609131 164.0
1343.491699 144.0
1343.871094 160.0
1343.951416 80.0
1344.52063 124.0
1345.111816 64.0
1348.654541 264.0
1349.049316 36.0
1349.26123 220.0
1349.934204 160.0
1351.075073 32.0
1353.673462 168.0
1354.266724 140.0
1355.299683 52.0
1355.548828 260.0
1357.711426 108.0
1357.982788 200.0
1358.107422 180.0
1359.413452 200.0
1362.262207 216.0
1367.622925 160.0
1370.399292 184.0
1370.98877 196.0
1371.18042 236.0
1372.145996 156.0
1373.03833 152.0
1373.598877 192.0
1374.388306 304.0
1375.347656 216.0
1376.595459 152.0
1378.117065 124.0
1378.952148 192.0
1382.095093 132.0
1382.154297 224.0
1383.612427 172.0
1385.930664 212.0
1386.14563 144.0
1386.234497 72.0
1387.161011 56.0
1387.642944 208.0
1387.761475 228.0
1387.96167 152.0
1388.236084 148.0
1388.339966 184.0
1388.836792 144.0
1389.118774 172.0
1390.95166 184.0
1391.36731 140.0
1393.454346 192.0
1394.777222 60.0
1396.234497 180.0
1398.012573 148.0
1398.682373 216.0
1402.958374 184.0
1405.121216 148.0
1405.225708 148.0
1405.277832 100.0
1406.158447 64.0
1406.244629 148.0
1406.718262 240.0
1407.158691 180.0
1410.19165 120.0
1410.311279 204.0
1410.804688 172.0
1411.328003 168.0
1411.612183 76.0
1412.09082 180.0
1414.200806 172.0
1415.413574 136.0
1416.327271 180.0
1418.238037 152.0
1419.190063 76.0
1419.407593 164.0
1420.180054 200.0
1420.825195 172.0
1421.200317 196.0
1424.233276 188.0
1424.323486 168.0
1425.255005 112.0
1426.006592 132.0
1426.202026 188.0
1426.622925 156.0
1427.480103 144.0
1428.117798 188.0
1430.617676 180.0
1431.934448 168.0
1432.530396 120.0
1433.050293 196.0
1433.276367 156.0
1434.188232 132.0
1435.168335 228.0
1435.537842 156.0
1436.525879 336.0
1437.235107 132.0
1437.310547 128.0
1439.039062 244.0
1439.763916 176.0
1442.952759 216.0
1447.598755 32.0
1452.972778 168.0
1453.443237 148.0
1453.859253 152.0
1455.325684 132.0
1455.561035 216.0
1455.917969 144.0
1457.262573 180.0
1458.349243 168.0
1459.08667 148.0
1459.459229 144.0
1461.162964 116.0
1461.841553 172.0
1462.608887 252.0
1463.97937 172.0
1465.632324 144.0
1466.234375 184.0
1466.341064 132.0
1467.57605 184.0
1468.788696 188.0
1468.880249 184.0
1469.658325 184.0
1470.100952 128.0
1474.538208 52.0
1475.065552 156.0
1476.571899 56.0
1477.053711 192.0
1477.696411 164.0
1478.071289 148.0
1479.285156 176.0
1480.605225 212.0
1480.781372 204.0
1481.769531 80.0
1482.650757 132.0
1483.869629 208.0
1484.084351 196.0
1484.575073 212.0
1485.541504 124.0
1485.648926 188.0
1486.707764 156.0
1487.790039 196.0
1488.16626 140.0
1488.350586 48.0
1490.401489 172.0
1491.35437 168.0
1498.064453 108.0
1498.36499 128.0
1498.488159 132.0
1498.542114 148.0
1499.089233 164.0
1500.32251 204.0
1501.278687 216.0
1501.613159 212.0
1501.78772 180.0
1502.836792 168.0
