>compound Progesterone
>formula C21H30O2 
>ionization [M+H]+
>parentmass 315.232
#inchi InChI=1S/C21H30O2/c1-13(22)17-6-7-18-16-5-4-14-12-15(23)8-10-20(14,2)19(16)9-11-21(17,18)3/h12,16-19H,4-11H2,1-3H3/t16-,17+,18-,19-,20-,21+/m0/s1
#inchikey RJKFOVLPORLFTN
#Ion_Source LC-ESI
#Instrument qTof
#Compound_Source Isolated
#PI Sirenas
#Data_Collector Ed Esquenazi 
#Scan -1
#Precursor_MZ 315.232
#ExactMass 0.0
#Charge 1
#CAS_Number N/A
#Pubmed_ID N/A
#Smiles N/A
#INCHI_AUX N/A
#Library_Class 3
#SpectrumID CCMSLIB00000005858
#IonMode Positive
#UpdateWorkflowName UPDATE-SINGLE-ANNOTATED-BRONZE
#LibraryQualityString Bronze
#TaskID d19310cd93df49b68e9fcbec27720eb5
##Scan# 6
#SpectrumFile Progesterone.mgf
#LibraryName fda_library.mgf
#MQScore -1
#Organism fda_library
#TIC_Query 0
#RT_Query -1
#MZErrorPPM -1
#SharedPeaks 0
#MassDiff 0
#LibMZ -1
#SpecMZ 315.232
#SpecCharge 0
#internalFilename spec-00000.mgf

>collision 10
103.05368 86.094688
105.069733 2196.708008
107.047676 306.957703
107.086258 1477.578003
108.057281 89.737419
108.494011 58.763241
108.504242 55.035069
108.532471 66.627769
108.569237 41.52203
108.64872 50.147469
108.675171 55.684078
109.065102 38523.398438
109.100594 225.980896
109.277496 55.004452
109.365295 44.496979
109.383171 59.202332
109.401489 52.78157
115.052132 43.440121
116.059174 46.863708
117.069641 426.2854
119.085304 1658.47998
121.064232 413.899506
121.100822 915.178711
123.080177 4404.212891
123.11483 80.045677
127.051903 55.6105
128.058716 105.863403
129.068466 331.459015
130.081467 86.254967
131.085342 997.885071
133.060974 53.320301
133.100815 1030.083984
135.081192 91.104149
135.117111 255.9095
137.096146 340.586609
137.130936 70.373352
141.071136 92.078209
142.07782 81.479088
143.084961 597.648193
145.101151 974.463318
147.080719 122.910103
147.115936 666.673096
149.096085 366.640808
149.130814 128.264694
153.065231 45.49622
154.076797 68.193314
155.084869 236.821503
156.093048 89.071777
157.100128 529.22467
159.075607 45.272011
159.116074 650.790771
161.096161 53.48476
161.131607 452.627014
162.101318 65.344513
163.112244 306.313904
163.146378 98.102623
167.082718 67.224564
169.098923 239.462494
171.116989 395.954498
173.132019 486.659607
175.147018 126.465401
177.128189 229.834305
181.102859 57.962421
183.11644 237.980194
185.129868 172.396393
187.148438 143.736496
189.127502 122.441299
195.115479 50.775768
197.132828 207.904007
199.145767 116.436203
201.166885 81.297287
209.132889 91.1623
211.145508 162.044403
213.16156 84.455528
223.145691 94.416512
227.17984 91.980408
239.179153 277.391602
255.206467 38.86134
