>compound Aminoglutethimide
>formula C13H16N2O2 
>ionization [M+H]+
>parentmass 233.130142
#inchi InChI=1S/C13H16N2O2/c1-2-13(8-7-11(16)15-12(13)17)9-3-5-10(14)6-4-9/h3-6H,2,7-8,14H2,1H3,(H,15,16,17)
#inchikey ROBVIMPUHSLWNV
#Ion_Source LC-ESI
#Instrument qTof
#Compound_Source Commercial
#PI Dorrestein
#Data_Collector Garg_Neha
#Scan -1
#Precursor_MZ 233.13
#ExactMass 232.121
#Charge 1
#CAS_Number N/A
#Pubmed_ID N/A
#Smiles N/A
#INCHI_AUX N/A
#Library_Class 1
#SpectrumID CCMSLIB00000077138
#IonMode Positive
#UpdateWorkflowName UPDATE-SINGLE-ANNOTATED-GOLD
#LibraryQualityString Gold
#TaskID 48f7f52fc6d249b5abbcc6e7b3df5969
##Scan# 999
#SpectrumFile NCP003195_A2A7B2B6C2C6D2D6_BB6_01_15710.mzXML
#LibraryName NIH_Clinical_Collection_2.mgf
#MQScore -1
#Organism NIHcollection2_04212014_2_mgf
#TIC_Query 0
#RT_Query -1
#MZErrorPPM -1
#SharedPeaks 0
#MassDiff 0
#LibMZ -1
#SpecMZ 233.13
#SpecCharge 0
#internalFilename spec-00000.mgf

>collision 10
44.909061 180.0
44.957088 268.0
45.046547 180.0
45.078613 140.0
45.104004 200.0
45.768093 176.0
46.166172 204.0
46.209457 176.0
46.525238 192.0
46.759033 164.0
46.789616 196.0
47.010502 192.0
47.415962 200.0
47.698177 176.0
47.748207 204.0
47.841774 168.0
47.923035 148.0
48.585285 156.0
48.711613 144.0
48.835323 188.0
49.157143 280.0
49.175285 156.0
49.557053 204.0
49.756367 108.0
49.869995 212.0
50.504494 188.0
50.678619 144.0
50.69846 140.0
50.714046 252.0
50.93256 224.0
51.087505 140.0
51.175743 244.0
51.257862 180.0
51.332481 184.0
51.393818 140.0
51.448051 176.0
51.821331 156.0
52.178707 144.0
52.223282 220.0
52.53442 228.0
52.745251 168.0
52.991272 152.0
53.09129 184.0
53.210274 164.0
53.259647 192.0
53.509773 176.0
53.887764 192.0
53.921131 144.0
53.935745 244.0
54.479404 144.0
54.538181 164.0
54.716179 204.0
55.012497 140.0
55.34515 148.0
55.492447 116.0
55.662144 220.0
55.677525 144.0
56.019917 156.0
56.207275 144.0
56.453754 200.0
57.68502 200.0
57.786484 164.0
58.038189 176.0
58.101612 148.0
58.136513 148.0
58.435856 148.0
58.493687 148.0
58.62162 232.0
58.882496 176.0
59.009327 140.0
59.41518 188.0
59.777794 148.0
59.842442 200.0
60.149227 160.0
60.424305 192.0
60.461441 184.0
60.777565 192.0
60.788425 160.0
60.87302 196.0
60.991879 168.0
61.159866 216.0
61.455963 192.0
61.518391 184.0
61.812222 220.0
61.910843 172.0
62.22131 156.0
62.417709 212.0
62.669556 180.0
62.790936 180.0
62.841415 180.0
62.898228 200.0
63.111504 256.0
63.277634 148.0
64.113152 156.0
64.180107 144.0
64.223335 168.0
64.488213 236.0
64.515388 176.0
64.64814 140.0
64.840317 160.0
65.353683 256.0
65.724777 188.0
65.971886 192.0
66.007454 160.0
66.114227 156.0
66.947586 224.0
67.201324 140.0
67.439743 156.0
67.572197 208.0
67.616379 212.0
68.345352 200.0
68.917137 176.0
69.062614 200.0
69.165062 140.0
69.380554 176.0
69.518227 200.0
70.287643 148.0
71.266548 192.0
72.293465 144.0
72.356094 160.0
72.48143 156.0
72.713753 172.0
72.983856 180.0
73.616043 148.0
73.99221 148.0
74.04187 192.0
74.149849 160.0
75.014381 144.0
75.091972 172.0
75.124741 168.0
75.361267 164.0
75.496094 144.0
75.51339 224.0
75.819832 180.0
76.11647 152.0
77.154907 168.0
78.272552 148.0
78.346527 144.0
78.406433 184.0
78.480476 148.0
78.646301 176.0
78.752243 172.0
78.828209 144.0
79.215675 216.0
79.313911 200.0
79.527756 228.0
79.650269 148.0
79.717781 160.0
79.751549 192.0
79.909821 264.0
80.125244 236.0
80.594482 172.0
80.875252 156.0
80.989845 196.0
81.571228 156.0
81.632355 196.0
81.756477 144.0
82.333374 188.0
82.36879 144.0
82.682289 232.0
82.821701 176.0
83.106323 156.0
83.261452 212.0
83.487785 232.0
83.710411 244.0
84.14193 172.0
84.487335 152.0
84.597137 172.0
85.305229 176.0
85.470757 140.0
86.395103 172.0
86.791451 176.0
86.889748 180.0
87.051231 180.0
87.073517 176.0
87.931793 144.0
87.955482 244.0
89.25061 188.0
89.568665 212.0
90.036415 172.0
90.049637 200.0
90.265076 204.0
91.05233 140.0
91.133202 152.0
91.401299 204.0
91.471718 200.0
92.069489 100.0
92.106697 204.0
92.49678 200.0
92.8685 144.0
93.008568 204.0
93.057732 3504.0
93.100723 144.0
93.694824 152.0
93.731689 232.0
93.863716 132.0
93.910973 168.0
93.93412 140.0
94.065689 9312.0
94.09481 328.0
94.504036 152.0
95.052238 524.0
95.068497 888.0
95.202507 228.0
95.573135 148.0
95.612053 252.0
96.070732 208.0
97.460007 200.0
97.849434 148.0
98.093719 172.0
98.356071 148.0
98.66423 200.0
99.030312 376.0
99.546776 172.0
99.639297 192.0
99.688148 184.0
101.030846 156.0
101.413307 148.0
101.62989 140.0
101.678047 224.0
101.902946 144.0
101.922226 168.0
102.013481 152.0
102.466286 176.0
102.538826 172.0
103.039261 148.0
103.822601 212.0
104.052986 148.0
105.067108 340.0
105.108246 180.0
105.663994 240.0
106.065498 4284.0
106.153526 204.0
106.350479 176.0
106.81485 164.0
106.886864 220.0
107.07164 480.0
107.457603 204.0
107.593811 192.0
108.065033 216.0
108.655502 176.0
108.755104 184.0
109.156067 192.0
109.365089 144.0
109.75576 208.0
109.880905 176.0
110.189896 164.0
110.290199 228.0
110.580933 180.0
110.641632 140.0
111.02298 240.0
111.10318 144.0
111.352478 144.0
111.555183 144.0
111.755478 148.0
112.076401 7316.0
112.116165 168.0
112.157112 168.0
112.238426 172.0
112.573944 188.0
112.755623 172.0
112.95649 140.0
113.079369 168.0
113.254944 200.0
113.551674 168.0
113.609276 180.0
113.825432 152.0
113.99749 192.0
114.054878 156.0
114.081886 344.0
114.540024 148.0
114.691307 168.0
115.057358 460.0
115.078522 172.0
115.288902 148.0
115.389366 156.0
115.453514 200.0
115.59684 192.0
115.873047 176.0
116.062561 832.0
116.895096 148.0
116.963966 140.0
117.057533 800.0
117.448784 224.0
117.887054 184.0
118.065765 2296.0
118.2612 148.0
118.289337 212.0
118.404091 140.0
118.698814 176.0
119.069733 252.0
119.676598 152.0
119.86097 124.0
120.046135 332.0
120.081291 2256.0
120.525078 184.0
120.570969 152.0
121.056625 124.0
121.083092 368.0
121.230591 184.0
122.056541 248.0
122.14962 200.0
123.139282 156.0
123.172417 140.0
124.161766 196.0
124.983688 168.0
125.344414 172.0
125.626389 144.0
125.727966 204.0
125.781532 140.0
126.096466 180.0
126.282036 228.0
127.050354 180.0
127.167038 180.0
127.373611 156.0
127.558556 144.0
127.654549 156.0
128.062698 980.0
128.273697 140.0
128.501465 140.0
128.729446 148.0
128.955353 188.0
128.973434 152.0
129.071304 844.0
129.113617 156.0
129.29007 232.0
129.613892 296.0
129.824707 156.0
129.89502 148.0
130.065109 4528.0
130.633286 160.0
130.687897 180.0
131.002075 184.0
131.040802 160.0
131.073227 10032.0
131.157013 144.0
131.541199 164.0
131.960587 200.0
132.024429 256.0
132.047699 120.0
132.080795 6676.0
132.952499 112.0
133.005203 180.0
133.062302 212.0
133.088181 2196.0
134.003265 180.0
134.065979 184.0
134.093918 320.0
134.120789 156.0
134.961121 152.0
135.058868 236.0
135.092422 268.0
135.583801 308.0
136.031723 176.0
136.075562 180.0
136.803223 196.0
137.691605 180.0
138.442307 156.0
138.554733 140.0
138.840698 204.0
140.070816 4920.0
140.308014 128.0
140.428207 148.0
140.742065 200.0
141.072525 316.0
141.120667 188.0
141.221359 132.0
141.591003 144.0
141.636002 188.0
141.742615 160.0
142.064316 480.0
142.720551 160.0
143.048004 140.0
143.082306 912.0
143.236984 144.0
144.081421 2588.0
144.113266 148.0
145.052551 156.0
145.087372 3836.0
145.139725 200.0
145.256866 152.0
145.616898 248.0
145.728653 184.0
145.792282 140.0
146.061646 1624.0
146.097137 51392.0
146.223938 172.0
146.539383 164.0
146.691452 136.0
146.718964 148.0
147.065277 624.0
147.099716 5328.0
147.549454 160.0
147.999832 132.0
148.047592 188.0
148.075546 408.0
148.107407 364.0
148.199615 108.0
149.062592 168.0
149.083771 164.0
149.110504 180.0
149.129944 164.0
150.179337 164.0
150.201294 164.0
150.240326 236.0
150.455078 216.0
150.92041 96.0
151.543411 224.0
152.061859 144.0
152.232681 156.0
153.069321 360.0
154.070053 144.0
154.851776 168.0
155.027679 204.0
155.074966 200.0
155.821686 160.0
156.082764 292.0
156.398621 188.0
156.65509 148.0
157.084625 152.0
158.059845 140.0
158.085052 448.0
158.32106 144.0
158.902588 152.0
158.980377 184.0
159.068665 2808.0
159.097229 180.0
159.711472 156.0
159.980728 160.0
160.075638 4708.0
160.112244 15924.0
160.195419 172.0
160.260178 96.0
161.081223 196.0
161.114349 2556.0
162.044037 168.0
162.114731 360.0
162.293304 152.0
162.992981 176.0
163.059052 144.0
163.089554 324.0
163.130127 188.0
164.245544 144.0
165.684097 144.0
165.917953 168.0
166.909012 184.0
167.511246 156.0
168.57164 144.0
168.690521 140.0
168.997574 132.0
169.026749 172.0
169.226044 148.0
170.097702 1068.0
170.525681 172.0
170.64006 164.0
171.084122 308.0
172.074768 1148.0
172.109879 164.0
172.237518 148.0
172.917328 184.0
172.977524 152.0
172.998459 164.0
173.07988 168.0
173.106125 944.0
173.493576 152.0
173.677139 152.0
174.089859 644.0
174.804199 160.0
174.925278 140.0
175.088501 648.0
175.486404 172.0
176.062698 124.0
176.094116 572.0
176.280914 144.0
176.793945 164.0
177.071915 176.0
177.102798 156.0
177.140778 208.0
177.249405 164.0
178.082413 152.0
178.643265 248.0
178.770981 172.0
178.816223 176.0
181.490265 212.0
182.080627 236.0
182.099426 196.0
182.303604 224.0
182.825317 176.0
183.725266 144.0
183.911087 176.0
183.962738 180.0
185.090149 168.0
185.678192 192.0
185.778549 152.0
185.982071 224.0
186.078461 2812.0
186.375839 152.0
187.066498 336.0
187.122345 488.0
187.513992 100.0
187.666748 144.0
187.777802 240.0
187.826294 164.0
187.956711 164.0
188.030136 180.0
188.069885 116.0
188.108383 85660.0
188.359283 124.0
188.386047 124.0
188.474426 108.0
188.557129 620.0
188.917603 120.0
188.946259 184.0
189.068634 276.0
189.110916 8584.0
189.290421 96.0
190.114853 1004.0
190.428223 112.0
190.510498 144.0
190.707382 144.0
190.947815 108.0
191.056427 244.0
191.081375 160.0
191.12265 180.0
191.531097 152.0
191.662323 144.0
192.059311 152.0
193.468597 228.0
194.358261 148.0
196.96965 180.0
197.114929 140.0
197.212738 156.0
197.478363 160.0
197.718964 160.0
198.091385 244.0
198.116562 208.0
199.089844 140.0
199.331436 172.0
199.785675 128.0
199.823486 224.0
199.895508 188.0
201.023071 196.0
201.379532 180.0
201.591415 160.0
201.633804 180.0
202.23056 204.0
202.774353 160.0
202.875122 204.0
203.04805 104.0
203.081909 11064.0
203.270645 152.0
203.303391 140.0
203.839828 180.0
204.088272 3488.0
204.269043 164.0
204.327606 148.0
204.432877 148.0
204.537857 204.0
204.554672 136.0
204.671997 184.0
204.901337 344.0
205.038544 272.0
205.091202 420.0
205.134857 73068.0
205.347153 116.0
205.37236 268.0
205.545746 120.0
205.603058 124.0
205.635941 144.0
205.985977 132.0
206.072449 144.0
206.137192 8636.0
206.57132 108.0
207.108017 184.0
207.14119 164.0
207.409515 124.0
207.520203 120.0
207.543976 212.0
207.616669 184.0
207.654236 152.0
207.755051 116.0
207.859131 140.0
208.384583 148.0
208.815765 160.0
211.357269 144.0
211.924774 200.0
212.200119 192.0
214.065536 264.0
214.088837 152.0
215.118927 6872.0
215.655518 160.0
215.865997 172.0
216.031601 176.0
216.056122 144.0
216.102692 6516.0
217.104523 1128.0
217.794418 140.0
217.914871 160.0
217.953064 168.0
219.053375 156.0
219.206573 192.0
219.580978 144.0
219.613419 240.0
220.913116 156.0
221.028488 180.0
222.056458 200.0
222.397659 184.0
223.235458 188.0
225.525101 148.0
228.538971 224.0
228.939316 144.0
230.637909 144.0
231.388123 212.0
231.566772 216.0
231.823151 128.0
231.97583 148.0
232.030396 140.0
232.12532 156.0
232.369873 116.0
232.61618 288.0
232.87027 376.0
232.939163 96.0
232.972153 212.0
233.051773 160.0
233.130142 109584.0
233.252396 100.0
233.29834 116.0
233.334549 144.0
233.453735 116.0
233.484512 264.0
233.594223 128.0
233.629608 1356.0
233.772095 324.0
233.968613 148.0
234.102463 228.0
234.132446 14276.0
234.20343 128.0
234.234528 208.0
234.402176 108.0
234.587845 96.0
235.031097 180.0
235.135483 1496.0
235.5168 104.0
235.554779 100.0
235.646057 148.0
235.808212 116.0
235.906921 116.0
235.978897 112.0
236.136337 160.0
236.480881 160.0
238.603592 200.0
246.736328 112.0
251.140442 796.0
252.144684 124.0
261.245941 184.0
274.152283 140.0
275.159485 148.0
882.229553 140.0
1045.771484 164.0
1053.031372 152.0
1070.74353 296.0
1072.730835 164.0
1157.874268 176.0
1168.749146 188.0
1222.194824 176.0
1242.975708 184.0
1253.410645 144.0
1275.299683 156.0
1276.906494 248.0
1311.43811 212.0
1314.387939 220.0
1316.784668 212.0
1321.714844 180.0
1339.145142 152.0
1349.127197 240.0
1356.322998 160.0
1375.167236 164.0
1379.325684 148.0
1382.750244 172.0
1409.536987 148.0
1423.499756 304.0
1426.926025 152.0
1447.479248 180.0
1461.445679 156.0
1465.130615 176.0
1467.10437 184.0
1469.293091 152.0
1469.392334 160.0
1474.783569 144.0
1478.645996 160.0
1480.146362 184.0
1486.500977 180.0
1488.742554 196.0
1505.8396 184.0
1512.899292 140.0
1523.244019 156.0
1534.481445 208.0
1542.00647 232.0
1551.97168 172.0
1552.649902 100.0
1557.465088 236.0
1571.390991 168.0
1578.752686 160.0
1582.661743 180.0
1583.548706 140.0
1595.912354 184.0
1600.726318 188.0
1602.988647 180.0
1605.579468 148.0
1619.998657 156.0
1626.855103 148.0
1636.905151 160.0
1644.886841 168.0
1647.349731 172.0
1648.408203 156.0
1653.77002 192.0
1659.41626 244.0
1659.967651 184.0
1671.233887 172.0
1679.143677 268.0
1681.223999 212.0
1685.73999 152.0
1687.456421 156.0
1689.263794 196.0
1703.404175 176.0
1706.68335 232.0
1710.245361 204.0
1713.844238 140.0
1713.951294 152.0
1717.842773 144.0
1720.78064 148.0
1730.122803 156.0
1731.439331 176.0
1754.088989 148.0
1757.199585 152.0
1762.401123 160.0
1765.109375 212.0
1766.455811 248.0
1779.873657 156.0
1787.615479 148.0
1791.41272 140.0
1801.974976 152.0
1808.004028 280.0
1828.984619 168.0
1830.551147 168.0
1838.095093 160.0
1843.013428 188.0
1854.009277 176.0
1863.80896 140.0
1864.831665 160.0
1871.257568 164.0
1871.369507 140.0
1871.464111 168.0
1877.013184 212.0
1887.176025 236.0
1892.046875 148.0
1892.644287 192.0
1893.848022 156.0
1904.047607 224.0
1905.237671 144.0
1910.627686 176.0
1912.300171 216.0
1917.306152 184.0
1920.078491 180.0
1928.704712 180.0
1932.211426 148.0
1933.138794 304.0
1936.087646 212.0
1936.104614 180.0
1936.789673 140.0
1941.233032 244.0
1942.829346 180.0
1943.724243 180.0
1949.124512 164.0
1951.020996 184.0
1954.083496 152.0
1954.488281 184.0
1954.937012 156.0
1955.447388 160.0
1955.957886 164.0
1956.046021 172.0
1956.389282 164.0
1963.632324 216.0
1966.393799 200.0
1971.807739 200.0
1977.839722 164.0
1982.923706 192.0
1998.321533 184.0
1999.816528 172.0
2001.855347 168.0
2002.078003 188.0
2003.218018 172.0
