>compound MLS001158244-01!
>formula C25H25N3O5
>ionization [M+H]+
>parentmass 448.186615
#inchi InChI=1S/C25H25N3O5/c1-17-22(32-15-23(29)27-10-3-12-28-13-11-26-16-28)9-8-20-21(14-24(30)33-25(17)20)18-4-6-19(31-2)7-5-18/h4-9,11,13-14,16H,3,10,12,15H2,1-2H3,(H,27,29)
#inchikey WAZZQDMECLXFPW
#Ion_Source LC-ESI
#Instrument qTof
#Compound_Source NIH Natural Product Library
#PI Dorrestein
#Data_Collector VVP/LMS
#Scan -1
#Precursor_MZ 448.187
#ExactMass 447.179
#Charge 1
#CAS_Number N/A
#Pubmed_ID N/A
#Smiles COc1ccc(cc1)c2cc(=O)oc3c(C)c(OCC(=O)NCCCn4ccnc4)ccc23
#INCHI_AUX N/A
#Library_Class 1
#SpectrumID CCMSLIB00000079388
#IonMode Positive
#UpdateWorkflowName UPDATE-SINGLE-ANNOTATED-GOLD
#LibraryQualityString Gold
#TaskID b1d8e8f6646f4e71acdff9ca3d919d08
##Scan# 1773
#SpectrumFile p1-F05_GF5_01_17937.mzXML
#LibraryName NIH_Natural_Products_Library.mgf
#MQScore -1
#Organism NIH_Natural_Products_Library
#TIC_Query 0
#RT_Query -1
#MZErrorPPM -1
#SharedPeaks 0
#MassDiff 0
#LibMZ -1
#SpecMZ 448.187
#SpecCharge 0
#internalFilename spec-00000.mgf

>collision 10
94.987694 200.0
95.060081 3720.0
95.098297 148.0
95.155174 188.0
95.25946 160.0
95.335236 144.0
95.469368 44.0
95.516045 208.0
95.568573 260.0
95.675827 148.0
95.83532 204.0
95.850906 64.0
95.926025 200.0
95.954208 108.0
95.993202 148.0
96.010757 248.0
96.03611 216.0
96.065315 152.0
96.14537 96.0
96.239067 164.0
96.274216 108.0
96.328903 88.0
96.346481 156.0
96.421661 176.0
96.481331 144.0
96.594749 172.0
96.647568 124.0
96.671051 196.0
96.684753 180.0
96.782623 188.0
96.853127 168.0
97.027534 60.0
97.090279 160.0
97.196205 188.0
97.32402 172.0
97.337753 184.0
97.45932 156.0
97.480934 172.0
97.528099 132.0
97.610672 156.0
97.632301 96.0
97.742462 200.0
97.813316 248.0
97.884186 100.0
97.901962 160.0
97.964745 200.0
97.984642 132.0
98.031929 160.0
98.059044 700.0
98.077255 240.0
98.144287 164.0
98.349457 184.0
98.416573 152.0
98.450142 168.0
98.491615 148.0
98.507423 104.0
98.523224 192.0
98.583534 168.0
98.589417 88.0
98.596909 124.0
98.65168 124.0
98.712334 212.0
98.732742 192.0
98.765083 304.0
98.835854 148.0
98.865547 172.0
98.88607 140.0
98.902893 68.0
98.942482 136.0
98.96489 184.0
98.991982 144.0
99.032639 196.0
99.068573 69432.0
99.124702 28.0
99.146873 116.0
99.167709 120.0
99.206512 116.0
99.23877 124.0
99.258469 272.0
99.271111 56.0
99.297173 40.0
99.319786 80.0
99.350662 112.0
99.374359 88.0
99.394241 364.0
99.422905 140.0
99.443993 44.0
99.490204 100.0
99.523064 120.0
99.546265 140.0
99.56311 72.0
99.592903 84.0
99.616737 76.0
99.684296 112.0
99.766815 200.0
99.781685 128.0
99.801567 120.0
99.822945 256.0
99.85128 68.0
99.881119 48.0
99.956718 92.0
100.048271 176.0
100.07357 5628.0
100.123932 280.0
100.17572 168.0
100.202858 72.0
100.233696 200.0
100.315216 84.0
100.359474 60.0
100.392975 80.0
100.426872 40.0
100.452805 136.0
100.467171 40.0
100.497772 148.0
100.615654 128.0
100.650391 108.0
100.686333 108.0
100.707626 224.0
100.738739 152.0
100.774223 68.0
100.799988 112.0
100.849915 152.0
100.875786 140.0
100.889145 152.0
100.910133 132.0
100.929253 124.0
100.99012 40.0
101.074928 720.0
101.128181 180.0
101.162209 176.0
101.402565 40.0
101.436646 136.0
101.570992 92.0
101.615128 164.0
101.635185 56.0
101.695389 88.0
101.717468 192.0
101.789749 152.0
101.958488 100.0
102.020676 192.0
102.050957 64.0
102.081116 156.0
102.147491 96.0
102.374924 92.0
102.399086 188.0
102.443398 148.0
102.596558 176.0
102.638893 84.0
102.717438 216.0
102.941574 48.0
102.961769 64.0
103.063972 128.0
103.135529 84.0
103.195557 132.0
103.297287 32.0
103.335075 136.0
103.432861 204.0
103.473351 192.0
103.613091 120.0
103.637405 152.0
103.765091 104.0
103.834038 92.0
103.848236 60.0
103.911118 92.0
104.045067 152.0
104.095825 104.0
104.114105 92.0
104.170975 144.0
104.229889 36.0
104.313217 108.0
104.345741 84.0
104.382339 156.0
104.543045 100.0
104.569092 140.0
104.608177 124.0
104.726273 56.0
104.760902 208.0
104.803688 152.0
104.987144 52.0
105.089134 40.0
105.158516 136.0
105.238129 104.0
105.266716 124.0
105.299393 184.0
105.385193 148.0
105.552795 52.0
105.671432 140.0
105.724632 60.0
105.882271 156.0
105.928009 168.0
106.111763 136.0
106.16098 164.0
106.273285 144.0
106.493446 92.0
106.507828 32.0
106.604385 124.0
106.655769 100.0
106.764732 164.0
106.873756 112.0
106.888161 124.0
107.055847 200.0
107.119331 184.0
107.201157 68.0
107.293686 112.0
107.372269 140.0
107.673584 60.0
107.712822 124.0
107.820267 92.0
107.84713 64.0
107.948204 160.0
107.983871 148.0
108.062195 368.0
108.139862 104.0
108.17395 96.0
108.329262 32.0
108.391411 128.0
108.437004 176.0
108.501266 200.0
108.526146 108.0
108.588356 212.0
108.640213 160.0
108.791428 152.0
108.837379 184.0
109.036797 144.0
109.077278 396.0
109.171928 112.0
109.215607 144.0
109.246803 168.0
109.411209 176.0
109.93438 144.0
109.959419 156.0
109.99073 180.0
110.022041 228.0
110.077789 320.0
110.107651 232.0
110.274788 148.0
110.322868 120.0
110.421143 132.0
110.511093 164.0
110.569679 136.0
110.779068 156.0
111.290787 148.0
111.4021 164.0
111.455803 256.0
111.704803 96.0
111.734253 128.0
111.862625 88.0
112.092194 136.0
112.228455 176.0
112.262939 204.0
112.317513 96.0
112.435928 208.0
112.465477 68.0
112.634399 172.0
112.707222 144.0
112.752716 236.0
112.943001 196.0
112.96627 84.0
113.0382 120.0
113.533905 80.0
113.680283 72.0
113.860725 168.0
114.275238 164.0
114.313538 168.0
114.360359 180.0
114.43486 152.0
114.858948 132.0
114.937881 176.0
114.954956 228.0
114.984833 132.0
115.05954 156.0
115.215439 152.0
115.268852 124.0
115.328972 152.0
115.429176 132.0
115.688057 156.0
115.797256 132.0
115.857239 120.0
115.981522 64.0
116.01796 136.0
116.236732 176.0
116.329018 168.0
116.509407 168.0
116.533043 92.0
116.775948 92.0
116.849091 176.0
116.893021 172.0
117.032028 164.0
117.090172 188.0
117.204346 144.0
117.413445 228.0
117.439323 92.0
117.553017 160.0
117.652954 40.0
117.674545 152.0
117.704773 120.0
117.921097 176.0
117.994293 404.0
118.063484 136.0
118.171638 180.0
118.232231 128.0
118.710991 168.0
118.75219 184.0
118.971352 168.0
119.082092 168.0
119.379829 140.0
119.442902 160.0
119.616982 40.0
119.754158 160.0
119.793365 80.0
119.919746 116.0
120.31456 172.0
120.491455 92.0
120.600716 96.0
120.692535 160.0
120.736275 140.0
120.922234 236.0
121.016357 104.0
121.066803 184.0
121.145576 164.0
121.22007 128.0
121.356705 268.0
121.382278 36.0
121.441986 196.0
121.619217 216.0
121.871758 184.0
122.016815 108.0
122.073982 88.0
122.276382 168.0
122.368828 128.0
122.624557 132.0
122.716942 48.0
122.807358 220.0
123.008148 104.0
123.158302 180.0
123.211311 128.0
123.258163 176.0
123.343903 168.0
123.368217 176.0
123.408012 132.0
123.456665 144.0
123.642494 228.0
123.81739 96.0
123.917068 240.0
124.082596 280.0
124.136505 172.0
124.236313 112.0
124.362793 144.0
124.524872 172.0
124.840454 136.0
124.898277 216.0
125.29229 224.0
125.541931 128.0
125.604378 152.0
125.642052 176.0
125.88559 60.0
125.970459 192.0
126.05822 528.0
126.10453 164.0
126.330368 148.0
126.565361 132.0
126.581039 120.0
126.717667 160.0
126.76696 60.0
127.049469 232.0
127.134735 144.0
127.264923 136.0
127.442368 156.0
127.577209 124.0
127.766113 236.0
127.876373 144.0
127.94841 152.0
127.982178 76.0
128.279556 148.0
128.473495 108.0
128.588577 196.0
128.665329 156.0
128.703705 188.0
128.879883 72.0
128.897964 176.0
129.096893 36.0
129.268814 180.0
129.291443 132.0
129.537079 164.0
129.798874 236.0
129.830612 164.0
130.041611 208.0
130.261856 124.0
130.400452 144.0
130.516388 148.0
130.903229 176.0
131.054184 176.0
131.105972 72.0
131.272385 76.0
131.322556 208.0
131.735703 120.0
131.815674 132.0
131.943665 176.0
132.051132 188.0
132.362366 84.0
132.527283 248.0
132.894135 148.0
132.972153 152.0
132.98822 112.0
133.067123 356.0
133.109894 32.0
133.197174 172.0
133.293655 76.0
133.479858 132.0
133.514343 200.0
133.60405 140.0
133.670776 92.0
133.705292 152.0
133.735214 100.0
133.95166 144.0
134.32048 124.0
134.514297 156.0
134.669006 112.0
134.699036 204.0
134.77066 164.0
134.803009 184.0
134.858475 144.0
134.876953 96.0
134.911011 148.0
134.964813 64.0
135.044281 1000.0
135.078125 116.0
135.478607 168.0
135.504089 96.0
135.879669 60.0
135.902267 416.0
135.953934 160.0
136.049088 156.0
136.072311 136.0
136.113205 176.0
136.155899 236.0
136.183777 72.0
136.634735 72.0
136.651016 100.0
136.690567 172.0
136.718491 56.0
136.744095 128.0
136.774353 48.0
137.056152 72.0
137.079453 388.0
137.149368 112.0
137.184326 160.0
137.26593 116.0
137.417542 188.0
137.466537 112.0
137.714005 168.0
137.938324 116.0
138.010803 204.0
138.111359 120.0
138.144104 160.0
138.293854 180.0
138.340668 168.0
138.467117 128.0
138.539719 88.0
138.586578 144.0
138.677979 216.0
138.804565 120.0
138.823334 180.0
138.938263 168.0
139.033997 204.0
139.055588 148.0
139.121414 188.0
139.210526 112.0
139.593567 188.0
139.673523 52.0
139.722931 96.0
139.887665 132.0
139.953583 152.0
140.06897 128.0
140.521606 160.0
140.906433 124.0
141.067139 164.0
141.253937 176.0
141.31308 56.0
141.680054 192.0
141.848297 128.0
142.004791 180.0
142.565079 204.0
142.776657 144.0
142.812408 128.0
142.928894 160.0
142.96936 168.0
143.005051 132.0
143.055038 192.0
143.302719 152.0
143.519608 192.0
143.657944 64.0
143.84407 168.0
144.192795 144.0
144.613724 156.0
144.960983 144.0
145.065277 144.0
145.1315 88.0
145.179138 28.0
145.20311 132.0
145.219894 104.0
145.299057 96.0
145.323059 124.0
145.351852 100.0
145.579895 180.0
146.058167 156.0
146.18808 120.0
146.226059 144.0
146.272324 204.0
146.361404 92.0
146.561325 72.0
146.59024 216.0
146.623978 176.0
146.771011 148.0
146.922958 156.0
146.961563 220.0
147.046021 200.0
147.078659 184.0
147.401016 136.0
147.466278 176.0
147.729828 192.0
147.934006 128.0
147.98909 128.0
148.046906 96.0
148.079468 268.0
148.134094 140.0
148.46373 88.0
148.609268 44.0
148.631104 156.0
148.788864 116.0
148.834991 64.0
148.990433 148.0
149.019592 176.0
149.071899 280.0
149.098953 176.0
149.318588 76.0
149.384262 164.0
149.464539 148.0
149.484009 60.0
149.501038 176.0
149.802948 180.0
149.902847 152.0
150.014954 96.0
150.078354 168.0
150.310074 68.0
150.363907 132.0
150.661652 140.0
150.715408 100.0
150.732513 156.0
150.781387 148.0
150.817825 136.0
150.823959 124.0
150.898712 168.0
151.039703 356.0
151.113937 60.0
151.194687 88.0
151.243637 160.0
151.309738 100.0
151.329315 188.0
151.366989 52.0
151.588898 168.0
151.667389 304.0
151.694351 172.0
151.964111 136.0
152.037735 72.0
152.059494 188.0
152.089645 128.0
152.214478 188.0
152.246399 72.0
152.305344 60.0
152.661713 160.0
152.863419 100.0
152.920029 72.0
152.942184 128.0
152.961868 116.0
153.023422 160.0
153.079041 344.0
153.176102 164.0
153.269714 152.0
153.383087 152.0
153.410873 204.0
153.545807 108.0
153.733307 100.0
153.841904 80.0
153.893753 180.0
154.029572 152.0
154.054276 148.0
154.083923 164.0
154.269272 112.0
154.387955 164.0
154.741791 248.0
155.069473 172.0
155.306793 184.0
155.46347 188.0
155.485428 84.0
155.661697 84.0
155.713837 124.0
155.808228 232.0
155.917557 100.0
156.056763 172.0
156.07666 140.0
156.121414 120.0
156.201004 56.0
156.23584 188.0
156.564392 120.0
156.941879 164.0
157.229553 108.0
157.337357 48.0
157.424744 144.0
157.487183 84.0
157.567108 92.0
157.662064 200.0
157.724289 112.0
157.874557 124.0
157.909576 208.0
158.071136 200.0
158.202332 132.0
158.244888 56.0
158.294968 92.0
158.402664 136.0
158.7034 160.0
158.798965 196.0
158.828781 188.0
158.959244 164.0
159.043564 476.0
159.082993 212.0
159.124542 188.0
159.250458 84.0
159.268051 148.0
159.360992 160.0
159.401199 152.0
159.418793 116.0
159.481613 120.0
159.582169 228.0
159.652573 168.0
159.813568 68.0
159.87648 188.0
159.999817 160.0
160.050949 180.0
160.080383 184.0
160.307098 156.0
160.428162 136.0
160.458328 32.0
160.675217 196.0
160.761017 96.0
160.803909 220.0
160.829147 212.0
161.059753 172.0
161.17009 124.0
161.26358 196.0
161.382401 168.0
161.538101 212.0
161.731506 140.0
161.79985 132.0
161.883408 280.0
162.051392 172.0
162.197571 116.0
162.268555 108.0
162.669373 228.0
162.697296 160.0
162.872513 36.0
162.961426 184.0
163.034317 320.0
163.361404 160.0
163.574326 168.0
163.930893 128.0
164.06189 152.0
164.190918 144.0
164.514969 204.0
164.696259 156.0
164.908325 140.0
165.070892 536.0
165.210068 124.0
165.327759 48.0
165.4711 164.0
165.55304 212.0
165.863052 180.0
165.954422 128.0
166.006622 168.0
166.072601 300.0
166.120422 184.0
166.365829 44.0
166.43515 224.0
166.453125 244.0
166.478806 124.0
166.530167 88.0
166.674026 108.0
166.861649 184.0
167.10379 1248.0
167.345337 188.0
167.45607 316.0
167.488388 176.0
167.608063 100.0
167.641068 84.0
167.860672 176.0
167.919983 96.0
167.974152 92.0
168.054062 288.0
168.089218 200.0
168.180573 144.0
168.237366 116.0
168.462036 84.0
168.496124 84.0
168.601562 172.0
168.661011 56.0
168.689865 120.0
169.023071 136.0
169.188721 180.0
169.357025 208.0
169.471008 128.0
169.548752 204.0
169.579849 120.0
169.67836 52.0
169.763916 76.0
169.782074 40.0
169.815796 76.0
169.841721 96.0
169.8936 36.0
169.981827 136.0
170.053009 120.0
170.076416 200.0
170.124573 144.0
170.716568 132.0
170.771576 172.0
170.911362 120.0
171.01355 40.0
171.07872 344.0
171.240067 140.0
171.305176 148.0
171.432846 108.0
171.600189 100.0
171.693542 164.0
171.795273 160.0
171.839615 176.0
171.886581 160.0
172.079529 316.0
172.246597 228.0
172.299118 152.0
172.32785 168.0
172.36705 64.0
172.662445 124.0
173.060196 268.0
173.104706 112.0
173.324738 216.0
173.366669 228.0
173.624771 212.0
173.796707 184.0
173.972549 116.0
174.052917 464.0
174.282455 152.0
174.400711 176.0
174.679443 88.0
174.816254 208.0
174.926788 136.0
174.984711 132.0
175.030563 152.0
175.187485 136.0
175.274429 128.0
175.424667 200.0
175.516937 192.0
175.625061 116.0
175.648804 92.0
175.759598 152.0
175.997162 96.0
176.065811 168.0
176.208893 120.0
176.311508 152.0
176.340576 120.0
176.377579 204.0
176.497726 188.0
176.686981 200.0
176.734604 136.0
176.95163 60.0
177.028427 156.0
177.06398 224.0
177.097275 104.0
177.176743 284.0
177.436462 192.0
177.457672 56.0
177.553146 96.0
177.651367 124.0
177.802521 392.0
177.932587 60.0
177.951172 124.0
178.030624 152.0
178.038498 140.0
178.075897 688.0
178.17691 68.0
178.596924 208.0
178.676727 172.0
178.823074 156.0
178.916245 180.0
178.977478 168.0
179.062698 168.0
179.083023 316.0
179.153259 68.0
179.337112 116.0
179.382431 132.0
179.483749 48.0
179.579742 156.0
179.638428 132.0
179.682266 148.0
179.875916 148.0
180.065491 76.0
180.089783 124.0
180.450287 136.0
180.645508 172.0
180.866592 84.0
181.036285 160.0
181.068497 372.0
181.10144 168.0
181.151443 164.0
181.210388 112.0
181.288086 92.0
181.424789 84.0
181.529358 172.0
181.580307 96.0
181.76004 56.0
181.829819 208.0
181.942551 136.0
182.025787 68.0
182.076813 196.0
182.342484 148.0
182.385788 132.0
182.703094 84.0
182.824173 148.0
183.031448 112.0
183.050293 104.0
183.078934 452.0
183.136475 140.0
183.203812 52.0
183.387054 60.0
183.438263 92.0
183.791565 160.0
183.988586 104.0
184.074982 148.0
184.118195 48.0
184.334305 180.0
184.477554 88.0
184.496475 160.0
184.921158 172.0
184.945511 172.0
185.047562 172.0
185.096497 252.0
185.11879 140.0
185.156693 120.0
185.20816 176.0
185.544174 132.0
185.752991 132.0
185.89949 188.0
185.956482 120.0
186.051498 112.0
186.113937 140.0
186.423599 96.0
186.57309 64.0
186.600281 188.0
186.657379 172.0
186.728088 52.0
186.796082 184.0
186.910263 136.0
187.253357 104.0
187.275146 72.0
187.485367 176.0
187.547607 76.0
187.686646 116.0
187.795731 116.0
187.88736 236.0
187.932129 200.0
188.07663 124.0
188.112244 136.0
188.513733 40.0
188.541061 136.0
188.839066 176.0
188.912918 160.0
189.050186 168.0
189.079132 152.0
189.101715 172.0
189.435776 160.0
189.627579 116.0
189.687881 132.0
189.830444 144.0
189.893524 204.0
190.018707 220.0
190.044067 272.0
190.085556 124.0
190.165146 144.0
190.209061 48.0
190.467178 152.0
190.494644 148.0
190.887665 176.0
191.029053 108.0
191.081863 204.0
191.250809 300.0
191.333389 152.0
191.38295 116.0
191.528915 56.0
191.870621 132.0
191.936783 64.0
192.030548 180.0
192.060883 152.0
192.087448 280.0
192.160202 108.0
192.223663 124.0
192.483139 84.0
192.505219 96.0
192.549408 120.0
192.662659 44.0
192.681992 172.0
192.720673 176.0
192.825684 168.0
192.847794 44.0
192.988785 88.0
193.082794 156.0
193.102158 172.0
193.304108 108.0
193.49939 116.0
193.675095 172.0
193.702789 128.0
193.799759 212.0
193.900894 168.0
194.071915 848.0
194.268295 100.0
194.440323 96.0
194.701279 164.0
194.720734 200.0
194.970764 84.0
195.077133 480.0
195.245987 144.0
195.55481 200.0
195.771957 228.0
195.852722 196.0
196.018204 172.0
196.060867 176.0
196.082504 548.0
196.111847 176.0
196.141617 236.0
196.248444 204.0
196.32373 168.0
196.574799 140.0
196.59433 120.0
196.621719 172.0
196.747849 264.0
196.778564 180.0
196.823227 128.0
197.024323 232.0
197.092987 528.0
197.133789 180.0
197.200363 176.0
197.275833 144.0
197.356918 152.0
197.404449 76.0
197.479965 124.0
197.530304 20.0
197.614227 48.0
197.636612 148.0
197.678589 288.0
197.755936 144.0
197.888351 136.0
197.955719 124.0
197.986526 160.0
198.053741 48.0
198.096542 180.0
198.261063 84.0
198.314316 144.0
198.68045 140.0
198.751801 180.0
199.050964 220.0
199.075089 124.0
199.100967 216.0
199.186951 96.0
199.209427 120.0
199.316177 92.0
199.411728 128.0
199.437027 160.0
199.465134 132.0
199.541031 120.0
199.647888 136.0
199.991119 116.0
200.024902 148.0
200.094864 140.0
200.116364 212.0
200.540359 88.0
200.639008 176.0
200.701035 136.0
200.881546 132.0
200.919952 148.0
201.072784 200.0
201.211716 156.0
201.658035 184.0
201.711731 172.0
201.90683 88.0
201.943588 108.0
201.980362 64.0
202.045425 172.0
202.085037 180.0
202.274643 256.0
202.416199 200.0
202.546478 132.0
202.625793 56.0
202.724976 132.0
202.792984 104.0
203.01413 260.0
203.085022 148.0
203.167282 104.0
203.493271 172.0
204.056198 92.0
204.090317 144.0
204.113068 112.0
204.340607 156.0
204.426361 180.0
204.602448 76.0
204.636612 56.0
204.687866 108.0
204.724884 108.0
204.776138 124.0
204.795242 68.0
205.060242 436.0
205.079987 336.0
205.120911 80.0
205.323349 80.0
205.517319 136.0
205.679993 212.0
205.759918 132.0
206.016937 224.0
206.074585 524.0
206.394196 148.0
206.482849 124.0
206.565796 192.0
207.081161 224.0
207.224243 180.0
207.287277 84.0
207.315933 216.0
207.430588 164.0
207.522324 216.0
207.572144 148.0
207.64563 140.0
207.829224 68.0
207.978439 176.0
208.087387 1108.0
208.136337 136.0
208.18515 144.0
208.236847 64.0
208.305786 100.0
208.491501 176.0
208.502289 112.0
208.926712 44.0
209.050446 124.0
209.094849 1136.0
209.214508 172.0
209.243286 184.0
209.266327 224.0
209.341187 152.0
209.479431 152.0
209.635025 212.0
209.707062 56.0
209.741257 200.0
209.92041 152.0
210.066101 176.0
210.097504 320.0
210.406204 140.0
210.624603 152.0
210.699707 192.0
210.919342 176.0
211.02919 116.0
211.074799 4612.0
211.110611 532.0
211.315521 84.0
211.413895 128.0
211.503036 60.0
211.520126 160.0
211.549942 144.0
211.940918 212.0
212.042343 196.0
212.079773 692.0
212.116501 184.0
212.265564 268.0
212.483093 120.0
212.515015 72.0
212.610779 164.0
212.758804 160.0
212.854614 28.0
213.088974 316.0
213.258423 196.0
213.302032 80.0
213.35144 96.0
213.441574 124.0
213.485199 196.0
213.61026 204.0
213.64241 152.0
213.717896 148.0
213.869232 44.0
213.979843 140.0
214.030136 140.0
214.052643 36.0
214.084671 216.0
214.172043 200.0
214.244873 52.0
214.346848 116.0
214.649994 160.0
214.714157 92.0
214.778748 136.0
214.874588 120.0
215.043839 144.0
215.074768 268.0
215.12117 324.0
215.269836 176.0
215.33287 200.0
215.49646 52.0
215.633804 216.0
215.777039 168.0
215.806274 160.0
215.832581 52.0
215.955414 160.0
216.028534 216.0
216.103073 100.0
216.300674 100.0
216.321167 72.0
216.403137 200.0
216.537842 136.0
216.635971 160.0
216.754623 124.0
217.33519 180.0
217.588226 188.0
217.669815 188.0
217.778473 64.0
217.82254 152.0
217.872482 228.0
218.042908 96.0
218.078903 192.0
218.107635 152.0
218.145767 120.0
218.181046 108.0
218.257492 56.0
218.310425 188.0
218.475128 108.0
218.660507 144.0
218.94313 120.0
218.972595 196.0
219.01088 216.0
219.092773 180.0
219.228897 196.0
219.278992 144.0
219.470612 128.0
219.786209 64.0
219.812775 36.0
220.081039 168.0
220.347198 132.0
220.39447 104.0
220.557007 220.0
220.610214 196.0
220.646881 168.0
220.73735 108.0
220.849731 168.0
221.062607 268.0
221.096252 664.0
221.326187 144.0
221.400223 164.0
221.631271 104.0
221.732025 44.0
221.812042 28.0
221.883194 144.0
221.910263 156.0
222.065308 232.0
222.10791 232.0
222.277679 196.0
222.348892 228.0
222.399353 32.0
222.470596 180.0
222.592316 120.0
222.62796 92.0
222.936462 160.0
222.981491 168.0
223.046875 188.0
223.076599 176.0
223.10881 224.0
223.150925 160.0
223.348419 244.0
223.463211 176.0
223.513794 224.0
223.974258 160.0
224.08287 1008.0
224.120483 132.0
224.177841 164.0
224.297058 56.0
224.370087 80.0
224.466995 236.0
224.677277 132.0
224.72052 120.0
224.89325 172.0
224.924225 140.0
225.018982 28.0
225.087143 888.0
225.233994 148.0
225.338547 72.0
225.595566 76.0
225.768982 220.0
225.90657 216.0
226.064957 128.0
226.072723 120.0
226.085709 148.0
226.093323 124.0
226.117249 192.0
226.382462 72.0
226.996765 168.0
227.070892 332.0
227.109009 344.0
227.254715 140.0
227.285141 144.0
227.335739 100.0
227.487717 144.0
227.509827 108.0
227.533844 36.0
227.711823 204.0
227.783096 92.0
228.066391 140.0
228.103027 444.0
228.414337 172.0
228.477509 124.0
228.662216 156.0
228.838654 168.0
229.0103 144.0
229.076569 172.0
229.172974 72.0
229.263382 160.0
229.391708 164.0
229.459305 76.0
229.598007 160.0
229.763901 164.0
229.911758 164.0
230.079529 696.0
230.132111 132.0
230.464355 144.0
230.497589 204.0
230.522232 284.0
230.630569 180.0
230.681946 100.0
230.799866 104.0
230.890579 156.0
230.938965 44.0
231.032227 116.0
231.090134 268.0
231.181 160.0
231.229416 128.0
231.444351 164.0
231.52005 96.0
231.626068 148.0
231.729065 136.0
231.786636 124.0
231.929062 132.0
232.089737 176.0
232.162521 88.0
232.471939 68.0
232.569061 180.0
232.619324 136.0
232.70871 140.0
232.739471 180.0
232.878754 140.0
233.09465 128.0
233.152191 164.0
233.425781 188.0
233.46228 176.0
233.556564 92.0
233.625702 164.0
234.031296 40.0
234.067627 116.0
234.099747 176.0
234.210983 136.0
234.43338 128.0
234.722977 164.0
234.899368 124.0
234.982239 136.0
235.076492 452.0
235.101334 300.0
235.235535 152.0
235.320724 128.0
235.48349 192.0
236.00235 156.0
236.088104 480.0
236.216431 220.0
236.286789 80.0
236.326569 164.0
236.548203 116.0
236.752411 168.0
237.052628 196.0
237.090759 4940.0
237.199371 180.0
237.383331 72.0
237.767532 148.0
237.837387 76.0
237.929474 128.0
237.971649 168.0
238.033859 104.0
238.093597 1156.0
238.141357 136.0
238.171188 112.0
238.21814 44.0
238.255005 160.0
238.445511 88.0
238.565399 132.0
238.796005 120.0
238.845215 128.0
238.968277 96.0
238.999039 392.0
239.070038 10336.0
239.105377 2736.0
239.217545 132.0
239.298676 80.0
239.408447 128.0
239.590164 180.0
239.645081 68.0
239.70726 84.0
239.765808 116.0
239.798248 136.0
239.854065 164.0
239.941498 116.0
240.009338 76.0
240.072357 1156.0
240.110947 768.0
240.200546 116.0
240.336288 96.0
240.360962 40.0
240.431946 100.0
240.507172 172.0
240.558594 280.0
240.643509 164.0
241.083801 748.0
241.126816 48.0
241.327759 100.0
241.395782 56.0
241.494736 52.0
241.55661 92.0
241.689636 120.0
241.770096 160.0
242.030121 144.0
242.092545 300.0
242.206635 84.0
242.584686 116.0
242.693192 136.0
242.712997 124.0
242.81723 184.0
243.01886 68.0
243.045593 188.0
243.099533 76.0
243.524857 132.0
243.599411 36.0
243.661545 76.0
244.042709 156.0
244.065582 72.0
244.137115 172.0
244.205536 60.0
244.40773 168.0
244.85289 144.0
244.942673 116.0
245.027328 136.0
245.087616 160.0
245.192474 148.0
245.289093 100.0
245.404434 164.0
245.61026 156.0
245.969101 148.0
246.072113 172.0
246.115829 172.0
246.234497 164.0
246.459412 184.0
246.521912 176.0
246.709442 128.0
247.078461 176.0
247.106613 172.0
247.131653 156.0
247.297501 132.0
247.416245 172.0
247.833008 120.0
247.870605 144.0
248.081528 272.0
248.108719 304.0
248.234222 192.0
248.300079 156.0
248.347122 168.0
248.450638 172.0
248.513382 160.0
248.6138 72.0
248.729919 108.0
248.758179 168.0
248.842941 148.0
248.919693 188.0
248.984238 128.0
249.091568 1080.0
249.140625 168.0
249.22612 40.0
249.276398 152.0
249.412079 116.0
249.524704 112.0
249.559296 100.0
249.600174 128.0
249.66246 104.0
249.801453 128.0
249.977646 228.0
250.060898 316.0
250.074707 216.0
250.097275 460.0
250.16333 140.0
250.245193 184.0
250.538086 92.0
250.571167 176.0
250.664108 80.0
250.727142 204.0
250.928879 52.0
251.046432 196.0
251.07077 176.0
251.105713 972.0
251.272644 80.0
251.335739 140.0
251.398849 164.0
251.458817 180.0
251.49353 80.0
251.690018 152.0
251.976685 124.0
252.078964 1428.0
252.149338 188.0
252.308517 136.0
252.409698 140.0
252.476105 60.0
252.640579 176.0
252.716507 92.0
252.750656 180.0
252.776627 148.0
253.029846 84.0
253.081924 536.0
253.126221 156.0
253.422897 192.0
253.45108 244.0
253.518326 128.0
253.609543 132.0
253.641235 116.0
253.688782 196.0
254.040787 32.0
254.092285 4376.0
254.161346 76.0
254.214249 148.0
254.307327 168.0
254.443192 100.0
254.472397 48.0
254.519424 128.0
254.558121 44.0
254.624817 60.0
254.666107 48.0
254.720093 168.0
254.863068 208.0
255.009247 128.0
255.096375 1084.0
255.263565 64.0
255.524384 196.0
255.562561 60.0
255.594391 180.0
255.64212 112.0
255.699402 36.0
255.807617 228.0
255.973969 80.0
256.035858 96.0
256.065521 176.0
256.092682 144.0
256.157898 184.0
256.196136 148.0
256.419159 144.0
256.48291 100.0
256.524353 84.0
256.663239 228.0
256.728424 124.0
257.079315 68.0
257.107025 152.0
257.188568 88.0
257.213379 108.0
257.251678 52.0
257.274017 44.0
257.299561 172.0
257.481567 32.0
257.570984 32.0
257.60614 136.0
257.721161 92.0
258.101501 72.0
258.555756 128.0
258.587769 88.0
258.713196 160.0
258.802246 112.0
259.103302 148.0
259.311584 108.0
259.407745 180.0
259.43338 204.0
259.74765 120.0
259.888794 224.0
259.911255 144.0
260.106232 336.0
260.158386 196.0
260.437744 88.0
260.730133 92.0
260.958344 144.0
261.038727 76.0
261.151306 164.0
261.519714 132.0
261.682251 112.0
262.00238 132.0
262.122101 244.0
262.275024 148.0
262.558746 216.0
262.716766 144.0
262.836151 148.0
262.960663 152.0
263.073761 276.0
263.095184 500.0
263.130707 160.0
263.207367 228.0
263.349457 68.0
263.37851 116.0
263.475433 104.0
263.841187 116.0
264.079071 500.0
264.10672 152.0
264.147827 224.0
264.282196 136.0
264.32254 116.0
264.439026 120.0
264.490814 144.0
264.552338 80.0
264.578217 112.0
264.600891 164.0
264.766022 100.0
265.086273 632.0
265.193695 192.0
265.478973 44.0
265.508179 148.0
265.589264 164.0
265.644409 132.0
265.861481 132.0
265.991608 224.0
266.033813 120.0
266.058929 284.0
266.081482 264.0
266.122284 436.0
266.31955 232.0
266.410522 48.0
266.452728 196.0
266.579468 120.0
266.719208 72.0
266.741974 160.0
266.829742 140.0
266.87851 132.0
266.901276 168.0
267.060516 140.0
267.101166 8532.0
267.187469 124.0
267.298096 120.0
267.351318 124.0
267.467346 64.0
267.491394 112.0
267.561737 32.0
267.594299 40.0
267.734314 60.0
267.763641 60.0
267.985138 52.0
268.103912 1496.0
268.222443 108.0
268.258881 168.0
268.454529 108.0
268.509949 72.0
268.656738 104.0
268.911255 196.0
268.958862 168.0
269.009186 136.0
269.045074 72.0
269.073456 144.0
269.108002 660.0
269.156097 140.0
269.199127 304.0
269.319366 32.0
269.46637 88.0
269.582855 56.0
269.642822 44.0
269.901093 40.0
269.957581 148.0
270.074402 196.0
270.103851 284.0
270.195435 32.0
270.303406 140.0
270.39505 172.0
270.70932 144.0
270.823944 144.0
270.964813 88.0
271.052765 152.0
271.210571 124.0
271.282684 88.0
271.3909 180.0
271.558136 104.0
271.60733 136.0
271.751678 80.0
271.836975 132.0
271.863251 96.0
272.090424 368.0
272.204651 140.0
272.237488 156.0
272.374695 196.0
272.421417 184.0
272.565979 188.0
272.654694 92.0
272.684265 144.0
273.016327 248.0
273.062347 120.0
273.298798 228.0
273.414398 76.0
273.437408 124.0
274.084595 180.0
274.231171 128.0
274.491608 152.0
274.844543 188.0
274.999634 116.0
275.070953 212.0
275.141571 176.0
275.234039 192.0
275.280273 132.0
275.551117 116.0
275.65683 124.0
275.775818 216.0
275.855133 152.0
276.027069 116.0
276.073364 88.0
276.111938 204.0
276.120758 192.0
276.133575 176.0
276.258575 164.0
276.414093 164.0
276.559692 192.0
276.615967 112.0
276.998322 164.0
277.039825 192.0
277.084381 2188.0
277.268463 136.0
277.294983 136.0
277.540283 144.0
277.570129 76.0
277.689972 204.0
277.749695 200.0
277.779083 136.0
277.911774 184.0
278.014648 160.0
278.087769 840.0
278.13205 204.0
278.160675 152.0
278.187225 60.0
278.280182 176.0
278.449554 204.0
278.542236 44.0
278.83493 104.0
278.88147 132.0
278.944611 140.0
279.054321 76.0
279.099396 1084.0
279.177338 80.0
279.257446 232.0
279.307068 84.0
279.396881 52.0
279.456757 204.0
279.699707 44.0
279.802887 88.0
279.956055 76.0
280.075226 1328.0
280.13031 1064.0
280.23587 40.0
280.30249 132.0
280.385803 64.0
280.46579 48.0
280.515808 88.0
280.624146 20.0
280.725861 112.0
280.772522 52.0
280.869263 116.0
280.909271 180.0
280.963501 80.0
281.0802 1456.0
281.127991 288.0
281.27301 176.0
281.308167 164.0
281.320496 88.0
281.331482 184.0
281.496704 144.0
281.613586 148.0
281.660339 36.0
281.780609 280.0
281.844299 124.0
281.928314 192.0
281.968597 188.0
282.024536 160.0
282.087524 4316.0
282.215088 200.0
282.372253 120.0
282.475952 88.0
282.6362 168.0
282.760345 68.0
282.918457 120.0
282.961212 136.0
283.094299 2392.0
283.182526 88.0
283.346344 72.0
283.427582 180.0
283.438934 44.0
283.449493 208.0
283.497131 40.0
283.607727 180.0
283.692932 236.0
283.828979 56.0
283.948181 132.0
284.003387 156.0
284.033569 84.0
284.095245 320.0
284.332184 60.0
284.489929 200.0
284.523499 108.0
284.693817 88.0
284.862671 136.0
284.979126 204.0
285.06427 100.0
285.104218 232.0
285.379517 132.0
285.649261 48.0
285.743469 132.0
285.814117 240.0
286.050812 184.0
286.346008 160.0
286.60202 212.0
286.6492 64.0
286.719971 104.0
286.777252 100.0
287.296539 112.0
287.434875 48.0
287.477142 168.0
288.029053 160.0
288.184448 136.0
288.275696 160.0
288.306122 68.0
288.344208 192.0
288.498779 140.0
288.559631 208.0
288.664429 176.0
288.745026 188.0
289.151581 68.0
289.1922 72.0
289.395325 64.0
289.551086 116.0
289.588348 140.0
289.961029 72.0
290.018646 172.0
290.111267 284.0
290.296631 176.0
290.347504 136.0
290.415344 128.0
290.596527 108.0
290.649414 220.0
290.829285 140.0
290.870026 184.0
291.090424 192.0
291.345428 36.0
291.732483 140.0
291.777039 152.0
291.856293 168.0
291.930023 72.0
291.998047 72.0
292.09845 704.0
292.355713 152.0
292.409729 224.0
292.545868 200.0
292.600342 172.0
292.64801 172.0
292.733124 52.0
292.777405 76.0
292.847504 116.0
292.910248 52.0
292.99881 60.0
293.100677 644.0
293.155548 128.0
293.210052 140.0
293.288452 48.0
293.411163 84.0
293.571442 120.0
293.690796 192.0
293.73172 100.0
293.89267 184.0
293.956909 80.0
294.037476 204.0
294.110046 1068.0
294.195526 136.0
294.226532 176.0
294.332397 128.0
294.374542 240.0
294.409729 104.0
294.491608 152.0
294.520203 224.0
294.563507 84.0
294.619293 80.0
294.667114 144.0
294.691833 156.0
294.758636 76.0
294.892029 156.0
294.948547 264.0
294.993073 356.0
295.023254 632.0
295.096558 114716.0
295.202606 136.0
295.263184 84.0
295.300842 144.0
295.325165 40.0
295.360962 132.0
295.403412 96.0
295.434265 164.0
295.502014 64.0
295.538971 40.0
295.573547 36.0
295.66153 188.0
295.753357 228.0
295.810455 192.0
295.839233 60.0
295.874359 88.0
295.912872 128.0
295.946259 228.0
295.981018 328.0
296.033691 112.0
296.099854 20496.0
296.189941 104.0
296.236572 192.0
296.263214 92.0
296.326447 100.0
296.370972 128.0
296.40329 84.0
296.467468 52.0
296.511475 168.0
296.559479 116.0
296.614319 140.0
296.697723 216.0
296.820007 124.0
296.854614 84.0
296.877563 56.0
296.912598 108.0
296.94574 84.0
297.015503 56.0
297.046356 112.0
297.1008 2276.0
297.167603 164.0
297.328766 168.0
297.35083 60.0
297.456482 100.0
297.502777 100.0
297.572205 88.0
297.621948 84.0
297.648743 104.0
297.683929 84.0
297.72879 92.0
297.782043 48.0
297.814453 120.0
297.856171 80.0
297.928101 136.0
297.960388 80.0
298.027679 100.0
298.105621 292.0
298.165314 396.0
298.215149 100.0
298.263763 120.0
298.306183 336.0
298.339142 104.0
298.395996 52.0
298.557617 40.0
298.602325 100.0
298.640137 184.0
298.705505 36.0
298.729584 52.0
298.794952 144.0
298.819031 32.0
298.877319 68.0
298.934662 72.0
299.032379 80.0
299.106995 76.0
299.152832 296.0
299.245667 112.0
299.285217 80.0
299.369751 148.0
299.421417 84.0
299.473083 108.0
299.497192 120.0
299.54541 64.0
299.710785 44.0
299.7659 108.0
299.879639 56.0
299.910645 176.0
299.955475 48.0
300.048553 108.0
300.07486 176.0
300.131287 68.0
300.210602 44.0
300.23819 152.0
300.296814 36.0
300.417542 72.0
300.655609 72.0
300.686676 48.0
300.931763 136.0
301.021545 40.0
301.159698 100.0
301.263306 56.0
301.505188 72.0
301.560486 208.0
301.65033 96.0
301.920044 156.0
302.041077 148.0
302.390533 28.0
302.449371 48.0
302.477081 128.0
302.650177 168.0
302.691711 120.0
302.754059 56.0
303.034637 100.0
303.069275 160.0
303.152435 104.0
303.221741 108.0
303.488678 40.0
303.519867 96.0
303.578827 108.0
303.616974 56.0
303.689819 240.0
304.008972 136.0
304.076874 308.0
304.179047 120.0
304.380402 48.0
304.80072 80.0
305.002289 164.0
305.078461 256.0
305.276947 164.0
306.028534 216.0
306.109161 1436.0
306.206146 44.0
306.305695 136.0
306.359406 48.0
306.394226 40.0
306.422089 132.0
306.913544 132.0
307.036621 168.0
307.088287 1316.0
307.141724 216.0
307.391418 156.0
307.635742 40.0
307.677612 96.0
307.724121 112.0
307.771881 140.0
307.869659 168.0
307.894104 64.0
308.016602 56.0
308.066528 436.0
308.126862 668.0
308.163116 364.0
308.278381 76.0
308.421692 104.0
308.48111 168.0
308.652405 40.0
308.715118 112.0
308.956696 32.0
308.98819 156.0
309.119049 864.0
309.187622 392.0
309.215637 100.0
309.257629 44.0
309.289276 184.0
309.3927 136.0
309.660278 52.0
309.684784 72.0
309.793365 68.0
309.838928 156.0
309.918243 164.0
309.975555 100.0
310.017609 100.0
310.066498 160.0
310.10434 304.0
310.133148 480.0
310.319061 80.0
310.515442 44.0
310.561035 104.0
310.673279 64.0
311.039642 140.0
311.080353 140.0
311.122467 124.0
311.168121 96.0
311.25589 40.0
311.371765 188.0
311.542969 92.0
311.603607 208.0
312.078094 80.0
312.102692 80.0
312.654968 172.0
312.700745 100.0
312.760559 60.0
312.890808 112.0
313.725739 220.0
313.771576 164.0
313.993713 44.0
314.036041 128.0
314.076721 304.0
314.148926 100.0
314.49826 152.0
314.759491 52.0
315.038513 144.0
315.07077 152.0
315.692383 84.0
316.237213 164.0
316.325714 180.0
316.467316 80.0
316.771881 156.0
316.954315 276.0
317.019897 56.0
317.11203 140.0
317.136841 60.0
317.292816 212.0
317.38501 248.0
317.840179 172.0
318.070953 148.0
318.101257 140.0
318.229462 180.0
318.868866 108.0
319.105133 228.0
319.466217 124.0
319.512482 32.0
319.728394 152.0
319.889679 112.0
320.077087 264.0
320.122589 360.0
320.535492 160.0
320.573517 64.0
320.876495 120.0
320.919281 44.0
321.0961 676.0
321.19989 140.0
321.240234 100.0
321.329254 156.0
321.390076 104.0
321.41864 136.0
321.561371 156.0
321.664886 156.0
321.786255 48.0
322.108276 1896.0
322.218414 160.0
322.415985 192.0
322.472107 72.0
322.657013 104.0
322.779572 168.0
322.899139 156.0
322.963318 216.0
323.029846 204.0
323.091278 32400.0
323.154938 188.0
323.243317 136.0
323.269623 48.0
323.308136 132.0
323.341217 288.0
323.380585 56.0
323.433197 68.0
323.491547 84.0
323.577454 80.0
323.620422 72.0
323.700317 192.0
323.817383 104.0
323.862244 128.0
323.922058 88.0
323.953064 68.0
323.991943 72.0
324.017731 60.0
324.030792 96.0
324.094055 4032.0
324.161438 104.0
324.207886 36.0
324.317535 100.0
324.344055 112.0
324.513947 72.0
324.575592 104.0
324.622925 180.0
324.824554 132.0
324.914246 88.0
324.964478 60.0
325.000336 44.0
325.025452 56.0
325.096313 828.0
325.172607 192.0
325.245514 60.0
325.352081 60.0
325.413116 104.0
325.470551 144.0
325.558838 68.0
325.725525 80.0
325.768646 52.0
325.912354 148.0
326.004761 128.0
326.059692 100.0
326.101105 84.0
326.145355 124.0
326.207062 44.0
326.27536 64.0
326.419159 88.0
326.537842 80.0
326.768066 32.0
326.861603 136.0
327.05954 116.0
327.088348 76.0
327.343964 36.0
327.574463 80.0
327.671722 48.0
327.718567 84.0
327.797852 56.0
328.172699 80.0
328.526154 128.0
328.612732 64.0
328.923096 52.0
329.461151 116.0
329.533386 56.0
329.616516 160.0
329.915253 128.0
329.941803 52.0
330.137054 176.0
330.52771 176.0
330.636292 128.0
330.676086 124.0
330.838989 40.0
331.233704 136.0
331.320618 124.0
331.487305 160.0
331.556152 64.0
331.867889 104.0
332.51944 136.0
333.330688 140.0
333.443329 168.0
333.526947 132.0
334.010529 136.0
334.107178 784.0
334.145721 228.0
334.190308 116.0
334.316162 92.0
334.589142 168.0
334.720215 120.0
334.997009 148.0
335.026154 192.0
335.105865 448.0
335.131958 504.0
335.248413 160.0
335.576477 128.0
335.660339 200.0
335.696808 120.0
335.89209 176.0
335.959412 156.0
336.097015 196.0
336.155243 736.0
336.229431 220.0
336.338928 56.0
337.05838 56.0
337.130737 140.0
337.160339 304.0
337.515289 120.0
337.69812 36.0
337.767609 48.0
337.957855 92.0
338.006775 184.0
338.141083 120.0
338.166443 144.0
338.195709 140.0
338.349457 116.0
338.646088 68.0
339.075867 64.0
339.159027 128.0
339.34848 108.0
339.529327 92.0
339.712738 44.0
339.778778 60.0
340.135834 196.0
340.263214 180.0
340.494537 104.0
341.865784 56.0
342.40329 96.0
342.99649 60.0
343.549622 116.0
344.141449 132.0
344.623962 104.0
345.000916 148.0
345.259735 48.0
345.511261 60.0
346.108917 148.0
346.384918 96.0
347.118927 744.0
347.17807 212.0
347.333832 48.0
347.671478 140.0
347.831055 64.0
347.957275 184.0
348.053802 136.0
348.121735 456.0
348.306885 56.0
348.388062 72.0
348.581268 40.0
348.778259 72.0
349.127747 156.0
349.670898 232.0
349.771393 196.0
350.423096 144.0
350.55722 92.0
350.590759 124.0
350.769684 240.0
350.978455 160.0
351.097778 104.0
351.14917 108.0
351.202209 76.0
351.239502 76.0
351.476685 168.0
351.829102 160.0
351.903778 136.0
351.933655 148.0
351.985931 80.0
352.115997 3128.0
352.273499 44.0
352.339661 96.0
352.417969 132.0
352.482727 84.0
353.122742 1092.0
353.279083 44.0
353.305267 88.0
353.731873 84.0
353.758087 44.0
353.960266 128.0
354.132538 228.0
354.181213 160.0
354.698303 52.0
354.825775 68.0
355.114502 64.0
356.813202 188.0
356.932098 56.0
356.962189 104.0
357.526459 152.0
357.567871 184.0
357.692078 88.0
357.756073 64.0
357.853943 136.0
358.18454 92.0
358.29837 140.0
358.418915 56.0
358.618652 152.0
359.214417 148.0
359.637024 64.0
360.142975 160.0
360.460327 136.0
360.569916 108.0
360.622833 120.0
361.791656 116.0
362.135559 1192.0
362.189606 216.0
362.446869 72.0
362.640167 144.0
362.697021 176.0
362.734924 48.0
362.818298 132.0
362.935852 200.0
363.019257 188.0
363.060974 156.0
363.139587 352.0
363.254425 120.0
363.652832 60.0
363.952728 112.0
364.007141 132.0
364.138367 136.0
364.230743 152.0
364.343933 184.0
364.393311 160.0
364.492096 184.0
364.879791 56.0
365.03186 60.0
365.123627 3736.0
365.194672 208.0
365.229645 196.0
365.280853 92.0
365.320923 152.0
365.430115 80.0
365.674805 88.0
365.941254 100.0
366.013611 72.0
366.085663 104.0
366.131714 860.0
366.181152 156.0
366.226868 64.0
366.546875 152.0
366.729797 244.0
366.966156 132.0
367.118591 168.0
367.73291 136.0
367.816864 96.0
367.896088 80.0
368.003937 100.0
368.313263 136.0
368.35144 84.0
368.534821 132.0
368.603607 128.0
369.062286 208.0
369.525085 144.0
369.861847 136.0
369.946045 144.0
370.443878 212.0
371.172058 168.0
371.613159 180.0
371.808868 140.0
372.042999 116.0
372.419312 88.0
373.037964 128.0
373.430145 36.0
373.745605 56.0
374.011139 156.0
374.519409 124.0
374.681183 132.0
374.762085 108.0
374.80835 160.0
375.155212 80.0
375.374969 140.0
375.413544 124.0
375.455963 88.0
375.907288 80.0
376.424561 100.0
376.721954 88.0
376.992432 92.0
377.22818 152.0
377.375092 96.0
377.456299 132.0
377.583893 172.0
377.839203 136.0
377.874023 80.0
377.948212 116.0
377.997833 204.0
378.245514 164.0
378.291962 88.0
378.319061 144.0
378.38382 88.0
378.415863 72.0
378.54364 120.0
378.613342 92.0
378.712982 132.0
378.807007 184.0
378.915466 80.0
378.942596 36.0
378.977478 80.0
379.084656 84.0
379.127319 184.0
379.171204 204.0
379.248718 204.0
379.321136 112.0
379.379059 200.0
379.436249 140.0
379.605408 172.0
379.651276 268.0
379.733368 100.0
379.767456 56.0
379.78833 176.0
379.871368 152.0
379.919556 480.0
379.948669 68.0
380.024323 80.0
380.084259 428.0
380.149139 115028.0
380.203156 428.0
380.248322 160.0
380.317963 36.0
380.339508 184.0
380.372498 140.0
380.44516 216.0
380.517548 324.0
380.601227 60.0
380.662994 164.0
380.687378 140.0
380.756805 132.0
380.788452 424.0
380.818207 208.0
380.908783 288.0
381.006866 140.0
381.048187 236.0
381.0737 196.0
381.083252 76.0
381.151428 28568.0
381.266663 92.0
381.280121 52.0
381.387665 176.0
381.461243 120.0
381.521088 132.0
381.556915 56.0
381.618744 92.0
381.662079 152.0
381.704346 76.0
381.741913 84.0
381.772278 32.0
381.836609 96.0
381.85376 80.0
381.866699 160.0
381.945953 100.0
381.978424 140.0
382.03006 208.0
382.153351 3408.0
382.257568 76.0
382.321411 76.0
382.359711 52.0
382.395538 40.0
382.44574 108.0
382.501221 80.0
382.596069 112.0
382.620514 188.0
382.657959 52.0
382.750854 152.0
382.780151 32.0
382.824463 112.0
382.835846 92.0
382.908661 32.0
382.939819 36.0
382.994354 64.0
383.024445 88.0
383.052795 196.0
383.080048 144.0
383.160217 512.0
383.25589 88.0
383.29364 92.0
383.333313 76.0
383.375916 128.0
383.415588 196.0
383.501617 164.0
383.530701 104.0
383.585052 120.0
383.644135 96.0
383.65918 72.0
383.671021 68.0
383.682678 116.0
383.756287 108.0
383.792603 72.0
383.863434 92.0
383.91803 32.0
384.031128 92.0
384.074036 52.0
384.149994 144.0
384.241791 76.0
384.32373 112.0
384.378021 48.0
384.423096 64.0
384.462585 108.0
384.504852 124.0
384.604706 76.0
384.643311 72.0
384.710083 76.0
384.749146 52.0
384.794525 96.0
384.87796 92.0
384.987305 68.0
385.028412 76.0
385.131805 60.0
385.159149 96.0
385.30368 88.0
385.358398 60.0
385.862579 104.0
385.905579 56.0
385.932953 44.0
385.975952 100.0
386.0737 36.0
386.141571 92.0
386.324036 64.0
386.370972 72.0
386.60965 116.0
386.9776 40.0
387.157715 88.0
387.232147 160.0
387.737549 64.0
387.92569 56.0
388.388367 72.0
388.553131 60.0
388.592377 84.0
388.765015 124.0
388.894531 52.0
389.389221 64.0
389.734924 56.0
390.473969 76.0
390.859467 48.0
391.115295 148.0
391.249115 68.0
391.331787 72.0
391.642914 56.0
391.765015 120.0
392.005341 64.0
392.194519 80.0
392.304901 44.0
392.367981 96.0
392.649445 52.0
392.864868 80.0
393.066101 36.0
393.14502 60.0
393.212097 104.0
393.334473 96.0
393.839874 88.0
394.586731 80.0
396.042999 84.0
396.534302 80.0
396.625458 132.0
396.73645 120.0
396.863312 44.0
396.922791 60.0
397.002106 52.0
397.990143 108.0
398.458832 164.0
400.101318 132.0
400.37207 128.0
400.925812 80.0
403.248566 52.0
403.780304 76.0
404.712677 112.0
405.545929 68.0
406.528503 112.0
408.002594 72.0
408.931793 100.0
409.410889 72.0
417.980713 60.0
420.315521 84.0
420.927826 148.0
421.859344 52.0
422.112823 112.0
422.963806 132.0
425.813385 76.0
426.039307 76.0
428.800293 188.0
430.190338 128.0
431.024597 76.0
431.464783 20.0
432.161682 128.0
434.46521 80.0
434.660187 104.0
434.743195 132.0
437.686249 128.0
441.885132 100.0
444.038239 56.0
444.629761 84.0
446.591827 80.0
447.18927 52.0
447.290314 176.0
447.39975 168.0
448.186615 2432.0
448.541351 52.0
448.634094 36.0
448.849091 40.0
448.988251 68.0
449.085266 56.0
449.183197 620.0
449.334137 48.0
449.659058 40.0
449.794128 64.0
450.182495 300.0
450.368378 56.0
451.194305 132.0
451.26004 120.0
451.767548 48.0
451.814056 100.0
452.554718 80.0
453.308685 32.0
458.552887 44.0
460.596649 56.0
462.606415 112.0
468.502594 116.0
470.024536 92.0
471.077972 56.0
471.963959 108.0
472.063416 44.0
472.245056 56.0
475.2341 108.0
475.998047 112.0
476.058838 52.0
476.171753 100.0
477.145111 52.0
478.319641 72.0
479.012024 128.0
482.686798 140.0
483.010437 100.0
483.767456 52.0
486.770752 100.0
487.9263 60.0
488.893982 112.0
489.633606 124.0
493.282501 64.0
496.41272 44.0
497.766144 36.0
499.521667 116.0
501.347137 52.0
501.833008 40.0
503.311096 72.0
503.340332 112.0
504.900696 88.0
506.408966 92.0
515.243652 104.0
517.500488 84.0
518.052979 120.0
524.359802 84.0
526.225464 56.0
526.531433 52.0
528.551941 80.0
530.420471 48.0
530.929443 112.0
535.829346 64.0
541.404602 96.0
544.261047 72.0
545.362061 64.0
546.901611 92.0
547.874817 48.0
551.346313 84.0
552.43573 96.0
552.548035 112.0
556.151611 56.0
558.444458 132.0
558.594971 128.0
564.358032 68.0
572.472168 72.0
576.359802 112.0
577.210632 48.0
579.177612 92.0
580.54834 88.0
588.154785 48.0
593.752686 96.0
594.582275 44.0
595.470764 96.0
596.345276 144.0
597.72644 52.0
598.816895 72.0
600.220398 48.0
602.548523 64.0
602.602295 140.0
603.433167 84.0
603.794983 60.0
603.87323 100.0
603.941711 88.0
606.453491 96.0
610.931763 60.0
624.704163 92.0
625.296265 60.0
625.351013 140.0
626.486328 48.0
626.760315 68.0
629.538757 116.0
632.538574 76.0
633.029236 64.0
634.326904 48.0
636.142761 56.0
637.518982 92.0
640.895386 64.0
658.370911 76.0
669.519958 60.0
670.220581 108.0
677.111755 156.0
678.86853 60.0
681.967957 72.0
684.678589 108.0
689.859741 120.0
689.911987 96.0
696.378113 136.0
705.382996 56.0
706.239624 28.0
708.388672 60.0
711.278625 72.0
712.685974 68.0
713.142944 48.0
714.286133 108.0
714.754333 120.0
715.984009 96.0
721.554749 124.0
723.887573 32.0
729.515747 96.0
730.881836 68.0
747.151184 112.0
747.608276 68.0
749.328857 124.0
760.193542 72.0
772.811951 64.0
775.70282 64.0
776.845154 92.0
780.327271 56.0
781.10022 124.0
781.395081 188.0
786.745239 164.0
789.259338 72.0
790.937683 60.0
794.883179 148.0
801.822693 164.0
802.972778 116.0
813.326904 48.0
815.928589 204.0
823.233276 100.0
824.587219 148.0
828.821899 116.0
830.386902 64.0
830.553223 116.0
831.109741 108.0
831.809875 156.0
834.998718 140.0
837.300781 136.0
840.234802 100.0
846.436523 116.0
853.847107 112.0
857.299377 36.0
859.246826 164.0
860.326477 60.0
863.587036 128.0
863.826904 104.0
865.802734 164.0
870.132568 184.0
870.813721 72.0
873.69989 88.0
874.005798 168.0
875.548096 176.0
877.209656 44.0
877.999756 64.0
878.802002 172.0
878.97406 104.0
880.437073 140.0
881.31134 148.0
883.067017 128.0
884.895508 72.0
886.263733 52.0
887.526245 112.0
889.774841 160.0
891.75885 160.0
898.565186 144.0
900.105103 176.0
902.154419 88.0
903.829041 136.0
904.798645 200.0
907.308838 76.0
910.482971 208.0
910.765259 180.0
912.173706 268.0
914.643555 76.0
915.227539 56.0
916.088745 180.0
916.251404 84.0
917.583313 84.0
920.310425 180.0
922.400696 184.0
922.763428 212.0
925.407349 196.0
928.249146 68.0
930.579102 76.0
931.538635 44.0
933.222046 88.0
934.116028 108.0
934.170776 148.0
934.255981 124.0
935.253906 68.0
936.0271 148.0
938.824097 40.0
939.476746 196.0
945.452454 104.0
945.541382 128.0
945.709473 64.0
946.070618 152.0
946.248169 140.0
946.50531 56.0
947.399536 168.0
948.226746 40.0
948.459656 72.0
950.262573 56.0
951.078735 84.0
952.140869 160.0
952.411133 224.0
953.338867 76.0
953.67688 180.0
958.908386 108.0
959.278259 136.0
961.899902 200.0
962.875427 164.0
965.353577 120.0
966.931091 104.0
968.460388 224.0
972.192627 72.0
972.898926 176.0
973.049194 44.0
973.247864 152.0
974.390686 164.0
974.676514 96.0
976.143494 76.0
976.255371 124.0
977.213318 236.0
977.499512 68.0
978.283752 180.0
979.012207 172.0
980.494934 60.0
981.804077 84.0
982.5401 52.0
983.675903 232.0
985.405762 156.0
986.411926 208.0
986.680725 136.0
989.120422 80.0
989.389587 132.0
989.715149 72.0
990.497986 136.0
991.663391 128.0
992.472107 244.0
992.672729 268.0
992.860901 144.0
993.011414 44.0
996.602112 164.0
996.770996 144.0
997.387634 120.0
1001.093323 128.0
1005.083496 40.0
1006.118591 152.0
1006.427917 72.0
1007.019775 160.0
1007.545837 112.0
1007.899658 188.0
1008.09552 52.0
1008.443115 92.0
1009.075256 72.0
1009.315491 196.0
1009.878357 156.0
1010.839966 160.0
1011.599426 240.0
1012.257874 136.0
1013.239624 208.0
1013.759216 108.0
1013.822571 136.0
1014.424683 192.0
1014.697327 240.0
1015.185547 152.0
1016.485962 164.0
1016.536682 132.0
1016.790527 72.0
1017.063477 180.0
1018.562012 168.0
1019.140076 180.0
1020.226868 164.0
1020.83728 208.0
1020.932678 140.0
1021.142517 156.0
1021.547852 220.0
1022.955933 36.0
1023.178772 56.0
1028.233521 192.0
1028.60376 164.0
1029.223022 176.0
1031.043579 72.0
1031.369507 124.0
1032.168579 168.0
1034.113403 188.0
1034.337402 176.0
1035.419434 92.0
1035.778198 120.0
1035.925537 208.0
1036.675171 160.0
1036.969971 192.0
1037.81604 216.0
1041.473999 276.0
1043.864746 164.0
1045.315552 168.0
1045.7948 72.0
1046.078003 208.0
1046.283936 152.0
1048.332275 168.0
1050.130859 200.0
1050.234131 192.0
1051.12439 56.0
1051.272827 172.0
1051.621338 228.0
1051.685913 168.0
1052.544434 192.0
1055.490967 176.0
1055.866089 188.0
1058.286133 132.0
1058.344482 156.0
1058.797729 272.0
1059.665771 116.0
1059.892456 116.0
1060.158203 180.0
1060.223022 64.0
1060.33313 120.0
1060.806274 104.0
1060.871094 148.0
1060.929443 72.0
1061.65564 168.0
1062.667603 184.0
1062.933594 36.0
1063.47229 128.0
1064.062988 140.0
1064.205811 96.0
1064.465576 176.0
1064.98584 172.0
1065.758179 72.0
1066.238647 164.0
1066.39502 28.0
1066.577026 108.0
1067.18811 168.0
1068.423828 104.0
1068.801147 108.0
1069.080933 88.0
1069.510498 188.0
1069.998657 172.0
1071.099243 156.0
1071.412598 212.0
1071.946167 236.0
1072.317627 220.0
1076.819458 188.0
1078.348267 244.0
1078.995361 196.0
1080.427612 164.0
1080.768799 204.0
1081.592407 184.0
1082.129272 220.0
1082.712036 144.0
1082.843018 192.0
1083.681519 136.0
1084.054932 108.0
1084.310547 132.0
1084.415405 144.0
1085.10376 328.0
1086.441528 68.0
1088.535278 144.0
1089.008179 188.0
1089.316895 148.0
1089.553345 84.0
1090.157837 100.0
1091.577759 180.0
1091.676392 60.0
1091.781616 144.0
1092.020264 196.0
1092.551147 212.0
1093.110474 64.0
1094.070068 188.0
1094.281982 224.0
1095.164429 60.0
1096.284424 80.0
1097.615967 88.0
1097.741333 184.0
1100.56543 204.0
1101.397583 196.0
1104.120605 152.0
1104.781982 400.0
1105.688477 164.0
1105.761353 132.0
1106.893311 256.0
1107.197998 64.0
1107.423096 108.0
1107.615234 160.0
1107.9729 164.0
1108.443359 228.0
1109.397705 192.0
1110.876587 168.0
1111.526733 132.0
1111.792236 52.0
1112.535522 52.0
1114.189209 204.0
1115.511597 144.0
1115.651245 76.0
1116.86145 168.0
1117.087646 188.0
1117.67981 132.0
1118.911011 72.0
1119.197388 92.0
1119.306641 132.0
1122.562378 152.0
1122.769043 72.0
1124.463623 176.0
1125.498413 184.0
1127.869995 164.0
1128.518433 160.0
1128.926392 144.0
1131.201172 188.0
1131.261353 188.0
1131.616211 144.0
1133.652466 204.0
1137.025757 172.0
1137.462036 164.0
1137.78418 140.0
1138.448975 64.0
1140.121704 80.0
1140.686279 96.0
1142.979614 160.0
1144.655762 128.0
1145.079956 148.0
1146.589111 92.0
1148.369019 104.0
1148.652344 184.0
1149.252686 96.0
1149.556396 156.0
1149.760376 160.0
1149.860229 160.0
1149.94104 96.0
1150.697021 188.0
1152.149048 216.0
1152.419312 100.0
1152.513916 48.0
1152.980225 112.0
1155.022095 224.0
1157.939209 76.0
1158.670776 160.0
1160.310913 108.0
1162.087769 204.0
1162.474609 108.0
1165.068237 268.0
1165.183716 184.0
1165.632202 164.0
1169.093384 52.0
1169.998657 168.0
1170.790527 148.0
1170.979248 168.0
1171.087158 164.0
1171.1427 180.0
1171.231201 132.0
1171.919312 172.0
1173.895996 148.0
1174.209717 196.0
1174.830444 172.0
1175.444458 184.0
1175.574097 168.0
1175.894897 108.0
1176.686768 196.0
1177.847656 172.0
1181.368042 140.0
1181.518555 132.0
1183.202148 228.0
1184.804688 136.0
1186.038086 152.0
1187.093872 120.0
1187.429565 144.0
1187.526001 72.0
1188.033569 200.0
1188.493164 196.0
1189.536377 224.0
1190.295288 112.0
1192.352417 144.0
1192.826782 152.0
1192.943604 168.0
1193.246094 216.0
1193.404175 144.0
1193.521118 56.0
1193.830566 64.0
1194.60083 116.0
1194.759033 108.0
1195.39209 76.0
1195.632935 172.0
1196.562134 140.0
1197.386719 160.0
1197.553833 128.0
1197.619019 152.0
1198.24292 176.0
1198.607788 140.0
1200.269043 92.0
1202.159058 156.0
1203.767456 76.0
1204.734497 136.0
1204.94165 196.0
1205.301025 164.0
1207.254639 240.0
1209.13208 184.0
1209.962646 192.0
1210.682739 148.0
1210.932129 176.0
1213.066162 76.0
1214.134033 164.0
1215.125854 84.0
1215.396484 136.0
1215.95166 140.0
1216.277832 88.0
1216.95813 132.0
1217.069214 176.0
1217.70813 168.0
1218.388916 76.0
1218.652832 172.0
1218.701538 64.0
1219.361694 188.0
1219.549316 32.0
1219.709229 180.0
1219.806519 64.0
1219.994263 68.0
1220.174927 152.0
1220.828613 144.0
1220.891113 200.0
1222.240723 116.0
1222.602539 156.0
1223.145386 132.0
1223.326416 176.0
1223.45166 68.0
1224.384766 168.0
1224.852051 180.0
1225.457397 164.0
1226.68396 168.0
1226.900146 204.0
1226.983765 144.0
1228.064575 192.0
1228.308716 184.0
1229.062256 208.0
1229.655396 204.0
1230.40918 204.0
1230.762207 36.0
1231.680176 136.0
1232.455688 184.0
1232.602417 140.0
1232.853882 48.0
1235.510864 196.0
1236.854492 176.0
1236.973511 228.0
1237.090942 164.0
1237.442505 132.0
1240.693115 152.0
1242.53772 124.0
1243.23938 128.0
1243.59729 136.0
1243.849976 168.0
1243.927246 200.0
1244.102661 160.0
1244.306274 76.0
1245.373657 184.0
1245.75293 224.0
1246.019897 124.0
1247.594116 208.0
1247.685547 216.0
1247.741821 88.0
1249.457764 188.0
1249.992554 56.0
1251.217163 176.0
1251.815674 132.0
1251.87207 208.0
1252.266357 124.0
1253.263794 236.0
1254.112427 88.0
1254.436646 160.0
1255.853882 132.0
1256.601685 136.0
1258.006104 116.0
1258.239014 44.0
1259.029907 140.0
1260.188354 252.0
1261.135254 160.0
1261.538208 140.0
1261.615967 160.0
1262.344116 228.0
1262.528076 148.0
1262.646729 128.0
1263.518311 140.0
1264.07019 188.0
1264.169189 120.0
1266.739258 108.0
1267.107666 176.0
1267.185669 136.0
1269.950317 236.0
1271.638916 156.0
1272.852783 232.0
1273.151123 116.0
1273.861328 156.0
1274.209473 76.0
1274.585938 204.0
1275.936401 196.0
1276.085693 44.0
1276.505249 104.0
1276.654541 128.0
1278.077271 168.0
1278.518433 112.0
1279.892334 140.0
1279.942139 120.0
1281.103027 164.0
1282.699219 208.0
1283.490601 132.0
1284.039673 224.0
1284.282227 204.0
1285.644897 68.0
1285.873291 204.0
1287.500977 104.0
1289.329834 56.0
1289.887329 140.0
1291.953979 164.0
1292.061279 108.0
1293.005859 184.0
1293.206177 128.0
1293.722168 168.0
1294.351685 184.0
1296.02771 52.0
1296.35022 144.0
1297.511353 184.0
1301.328125 224.0
1303.030396 136.0
1303.922241 172.0
1304.151367 140.0
1304.525146 152.0
1304.640137 220.0
1305.646851 144.0
1306.236572 164.0
1306.358887 156.0
1306.697021 220.0
1307.488525 44.0
1308.013916 228.0
1309.266724 120.0
1309.562012 192.0
1310.397583 120.0
1310.447998 216.0
1310.577759 52.0
1310.880371 136.0
1311.752441 136.0
1312.372437 192.0
1312.473389 176.0
1312.53833 160.0
1313.56958 196.0
1313.858154 96.0
1313.966309 108.0
1314.803345 124.0
1316.182129 192.0
1316.333862 48.0
1317.828979 136.0
1318.052979 180.0
1319.534668 156.0
1321.118408 108.0
1321.422363 160.0
1321.530884 160.0
1322.746704 212.0
1323.506836 124.0
1324.144043 180.0
1325.332031 240.0
1326.941162 152.0
1327.441406 168.0
1328.289917 244.0
1328.522095 104.0
1328.841309 244.0
1329.617798 132.0
1330.917114 124.0
1332.376953 144.0
1335.109985 136.0
1335.364502 156.0
1335.790527 248.0
1337.234375 144.0
1337.445435 76.0
1338.326294 152.0
1339.31665 260.0
1340.92688 172.0
1341.42981 180.0
1341.699585 208.0
1342.829834 224.0
1343.063232 120.0
1343.296631 104.0
1343.435181 28.0
1343.617554 220.0
1344.637451 176.0
1348.035034 176.0
1348.86084 208.0
1349.723511 72.0
1350.425537 168.0
1350.864502 184.0
1351.171753 108.0
1352.832886 164.0
1352.944214 184.0
1354.400024 164.0
1354.641724 200.0
1354.751587 212.0
1354.99585 196.0
1355.866699 144.0
1356.576294 136.0
1356.642212 204.0
1356.935547 60.0
1358.791016 164.0
1360.119263 116.0
1360.29541 60.0
1360.941528 136.0
1361.338013 168.0
1361.462891 172.0
1362.322144 296.0
1362.47644 116.0
1363.681519 220.0
1364.556274 64.0
1365.34314 208.0
1365.666748 216.0
1366.983643 200.0
1367.322144 164.0
1368.146484 132.0
1370.341187 148.0
1370.716919 120.0
1370.901245 80.0
1370.960205 204.0
1371.225464 56.0
1373.179199 204.0
1373.319336 152.0
1374.957275 148.0
1375.289429 240.0
1375.488647 112.0
1375.761841 116.0
1375.857788 168.0
1376.729004 196.0
1376.898926 144.0
1379.307495 160.0
1381.133911 188.0
1382.206665 236.0
1383.168701 128.0
1383.709106 212.0
1383.797974 128.0
1384.457031 176.0
1385.034668 176.0
1385.74646 180.0
1387.569092 132.0
1388.021362 200.0
1390.662354 208.0
1390.72168 176.0
1391.100342 180.0
1391.224243 260.0
1391.337891 224.0
1394.502197 156.0
1394.643433 128.0
1394.747559 212.0
1395.186035 156.0
1397.045288 56.0
1397.357666 184.0
1397.930664 116.0
1398.406982 68.0
1399.389526 228.0
1399.635254 160.0
1400.722534 120.0
1401.169556 144.0
1402.227661 140.0
1402.734497 140.0
1404.867188 196.0
1406.053589 208.0
1407.068726 112.0
1408.315796 188.0
1408.383057 96.0
1408.592163 152.0
1409.339233 152.0
1410.079102 176.0
1412.591431 84.0
1413.152466 200.0
1414.697876 236.0
1415.764893 192.0
1415.824707 128.0
1416.27417 180.0
1417.023193 164.0
1417.989868 224.0
1419.601685 176.0
1419.661743 200.0
1420.186646 152.0
1420.291748 176.0
1420.951782 148.0
1421.011841 200.0
1421.274414 180.0
1422.580322 136.0
1424.667969 96.0
1425.862671 60.0
1426.185913 168.0
1426.621826 132.0
1427.06543 232.0
1427.238403 164.0
1429.081177 184.0
1430.315308 212.0
1430.40564 216.0
1430.533569 184.0
1431.241333 216.0
1431.384399 140.0
1431.851318 144.0
1432.28064 64.0
1432.589478 96.0
1433.749756 144.0
1434.218018 160.0
1435.197144 152.0
1435.38562 164.0
1435.445923 220.0
1435.506226 184.0
1436.056763 196.0
1436.916748 144.0
1437.648682 220.0
1438.901611 208.0
1439.082886 212.0
1439.815308 140.0
1441.877808 132.0
1442.127197 144.0
1442.255615 76.0
1443.321655 224.0
1443.740356 168.0
1444.30481 160.0
1444.766235 44.0
1445.348755 172.0
1446.143311 164.0
1446.393188 204.0
1447.778687 132.0
1448.020996 152.0
1448.755737 136.0
1449.331543 192.0
1450.127197 192.0
1450.629639 184.0
1450.830078 176.0
1451.817871 152.0
1452.629395 232.0
1453.28186 124.0
1453.866211 168.0
1457.554077 260.0
1458.613037 104.0
1459.092041 88.0
1460.399902 140.0
1460.559692 172.0
1463.634277 136.0
1464.73877 152.0
1465.683228 220.0
1465.949951 212.0
1466.102295 88.0
1469.350586 112.0
1469.579468 168.0
1469.716797 132.0
1470.686035 164.0
1472.571899 100.0
1472.976685 172.0
1473.824707 176.0
1474.33667 148.0
1474.902222 136.0
1475.734253 120.0
1476.010742 168.0
1477.203857 144.0
1477.310913 168.0
1477.918335 172.0
1479.713989 148.0
1480.112061 80.0
1480.257568 144.0
1480.479614 156.0
1481.054077 152.0
1482.256836 228.0
1482.862305 152.0
1483.069214 156.0
1484.050415 152.0
1484.916992 84.0
1485.208496 84.0
1485.331177 196.0
1485.990967 136.0
1486.635498 156.0
1490.060059 176.0
1490.323364 192.0
1490.841309 160.0
1491.596924 56.0
1491.735352 184.0
1492.050537 168.0
1492.334961 72.0
1493.457764 96.0
1494.703979 128.0
1496.097046 200.0
1497.459961 224.0
1498.068481 240.0
1498.39209 152.0
1499.41687 144.0
1499.63269 216.0
1499.856201 200.0
1500.118286 176.0
1500.36499 168.0
1500.627075 28.0
1500.704224 136.0
1502.454956 108.0
1503.157104 136.0
