>compound Budesonide
>formula C25H34O6 
>ionization [M+H]+
>parentmass 431.24281526009054
#inchi InChI=1S/C25H34O6/c1-4-5-21-30-20-11-17-16-7-6-14-10-15(27)8-9-23(14,2)22(16)18(28)12-24(17,3)25(20,31-21)19(29)13-26/h8-10,16-18,20-22,26,28H,4-7,11-13H2,1-3H3/t16-,17-,18-,20+,21?,22+,23-,24-,25+/m0/s1
#inchikey VOVIALXJUBGFJZ
#Ion_Source LC-ESI
#Instrument qTof
#Compound_Source Isolated
#PI Sirenas
#Data_Collector Ed Esquenazi 
#Scan -1
#Precursor_MZ 431.245
#ExactMass 0.0
#Charge 1
#CAS_Number N/A
#Pubmed_ID N/A
#Smiles N/A
#INCHI_AUX N/A
#Library_Class 3
#SpectrumID CCMSLIB00000004382
#IonMode Positive
#UpdateWorkflowName UPDATE-SINGLE-ANNOTATED-BRONZE
#LibraryQualityString Bronze
#TaskID d19310cd93df49b68e9fcbec27720eb5
##Scan# 3
#SpectrumFile Budesonide.mgf
#LibraryName fda_library.mgf
#MQScore -1
#Organism fda_library
#TIC_Query 0
#RT_Query -1
#MZErrorPPM -1
#SharedPeaks 0
#MassDiff 0
#LibMZ -1
#SpecMZ 431.245
#SpecCharge 0
#internalFilename spec-00000.mgf

>collision 10
101.022903 666.512329
101.054001 3.055556
101.065475 3.678571
101.215919 6.75
101.260292 3.6
101.298798 18.51515
101.312195 1.791667
103.054077 390.319885
103.362755 14.52
103.588646 3.333333
104.432938 14.35294
104.504173 8.024224
104.582428 3.013889
104.860115 2.669872
105.032295 12.51923
105.069527 1817.118042
105.114861 4.668334
105.127464 11.02042
105.159569 6.422222
105.227425 13.40351
105.28447 11.08232
105.343643 5.041667
105.395432 5.265351
105.410103 16.96681
105.416595 8.386905
105.444771 7.028846
105.491592 22.357531
105.606995 17.93391
105.644951 8.347222
105.663628 12.26667
106.4478 6.369253
106.537941 15.70525
106.57869 20.3867
106.590622 4.115741
106.663261 5.022059
106.682167 2.375
106.709236 8.001985
106.864662 36.164501
107.049973 556.336426
107.085396 2314.485107
107.136635 10.68273
107.217079 11.60119
107.235306 3.680556
107.253098 7.314103
107.336655 9.556818
107.343422 5.787879
107.361519 15.75679
107.421967 2.14881
107.438675 37.809311
107.606613 8.395833
108.236626 73.242416
108.289825 2.041667
108.535141 18.418329
108.594131 4.666667
108.893753 2.695513
109.026833 58.54744
109.064278 1853.921997
109.101555 241.7108
109.134979 3.358333
109.144058 10.95833
109.19677 1.672619
109.213326 11.00833
109.254944 5.382936
109.276764 13.43843
109.294945 4.675926
109.300735 8.037879
109.307556 2.449074
109.336891 52.17189
109.354141 19.889549
109.957893 4.763889
110.29377 10.14405
110.370483 9.733334
110.403381 3.680556
110.451836 4.926282
110.644676 5.678572
111.04258 170.080307
111.080406 376.768707
111.109993 3.66886
111.120995 1.666667
111.33136 19.79431
111.357193 5.136111
111.441956 11.3952
111.522957 9.335318
111.554825 7.852564
112.404015 4.857143
112.579414 12.14405
113.022057 158.033905
113.057198 78.717484
113.102722 2.0
113.139725 4.7
114.375313 5.347222
114.673225 17.80056
115.039612 57.271061
115.054497 591.069519
115.073402 49.9272
115.133881 2.416667
115.230263 3.640152
115.251305 8.03858
115.443741 17.217951
115.730545 3.926282
116.097374 24.948879
116.419632 11.73016
117.070076 1236.467041
117.207733 4.761905
117.268211 3.1875
117.28421 4.865196
117.343285 44.866669
117.767487 3.125
118.436356 4.727941
118.471298 83.949799
118.512093 6.333333
118.735931 16.52301
119.04847 171.603104
119.085106 3477.590088
119.130264 24.48226
119.146835 14.86574
119.165466 2.458333
119.191231 6.306159
119.213783 4.120098
119.236542 14.66774
119.247551 8.691667
119.283623 30.89629
119.363121 14.71802
119.394264 6.208333
119.502625 5.755435
119.510551 9.490196
119.653175 7.640152
119.677773 16.66865
119.700462 6.020833
120.066208 24.08507
120.283424 16.671049
120.39817 29.28021
120.472809 6.347222
120.47924 8.680555
120.490509 23.64621
120.504997 22.60083
120.516335 6.054825
120.528206 15.06136
120.566803 16.54167
120.616776 10.125
120.661545 6.676802
120.676826 12.36333
120.92907 5.120098
120.983231 15.12346
121.064651 12307.530273
121.098648 430.849091
121.127907 30.13233
121.138237 34.503761
121.155609 16.26667
121.169861 16.57576
121.178719 21.386721
121.197128 12.6768
121.222633 40.60815
121.253723 20.946211
121.275307 17.625
121.290016 10.08333
121.298164 55.753502
121.318474 42.4953
121.3293 7.541667
121.365616 24.90041
121.374016 27.89662
121.381042 11.67778
121.399269 20.91667
121.407852 23.706141
121.415535 3.333333
121.423332 23.75738
121.431091 9.214286
121.446205 9.340686
121.486664 11.88167
121.503723 6.001812
121.511391 8.698232
121.53096 23.891529
121.553604 16.334299
121.601128 6.25926
121.652878 17.363291
121.672508 7.130208
121.684021 6.775537
121.710884 12.3344
121.751198 9.458333
121.760788 7.388514
121.776138 8.333333
121.810196 17.61458
121.822212 9.667735
121.835411 13.03355
121.937729 5.265351
122.139145 12.33333
122.509903 8.272727
122.625816 2.449074
122.687607 4.680556
122.821327 10.5625
122.915825 11.40789
123.031815 29.81636
123.04113 86.612923
123.080208 742.621582
123.116661 24.7197
123.262794 13.86264
123.401932 9.455808
123.498238 8.462607
124.05732 13.00463
124.09433 6.341667
125.059586 368.638489
125.09687 16.83124
125.18708 4.387821
125.21685 3.335526
125.236313 10.00735
125.664177 11.41523
127.052574 78.897797
127.070465 6.633772
127.166519 15.42976
127.441628 4.670455
127.63488 8.680555
128.061325 629.45697
128.12204 1.671296
128.244141 3.080128
128.283539 3.691667
128.319 8.0
128.405716 11.33823
128.989822 9.366936
129.069717 623.251526
129.098846 2.777778
129.230942 10.07849
129.435837 4.259615
129.626785 2.6875
130.076813 259.030212
130.098495 5.74074
130.142136 9.357142
130.204025 6.761905
130.375061 3.440476
130.527405 3.0
131.04657 72.97718
131.084915 1304.479004
131.331497 4.388158
131.378967 4.225
131.386932 16.736839
131.431564 4.347222
131.502991 6.030303
131.594757 5.673611
131.674591 4.033333
131.80719 6.446428
131.938202 11.45333
132.057755 580.714172
132.198273 16.78763
132.29808 5.480072
132.377731 11.92188
132.49823 2.680556
132.54805 33.46833
132.596115 10.38075
132.61438 4.694444
132.627792 8.401667
132.686508 5.366667
133.064362 1168.718994
133.100494 502.102905
133.157791 9.291667
133.308609 17.294121
133.358582 5.625
133.377426 9.306159
133.410736 11.92778
133.445129 14.86623
133.48056 8.825
133.489182 13.05797
133.891464 6.121212
134.080688 14.33333
134.241547 3.733333
134.315735 10.26833
134.347092 2.782408
134.366852 10.81667
134.407196 13.66667
134.415253 8.694819
134.447845 8.469594
134.520142 4.083333
134.81897 14.48563
134.850327 10.76042
135.045944 37.338459
135.080078 5101.729004
135.116165 66.06916
135.127884 12.42424
135.142654 9.777778
135.150345 2.337963
135.161865 6.668651
135.219086 2.333333
135.227173 7.455883
135.239868 2.367424
135.246872 9.380952
135.271683 4.003205
135.307617 26.741671
135.320038 11.35526
135.352615 6.0
135.376907 14.40858
135.410767 9.115741
135.421432 4.335318
135.430038 5.88587
135.441681 3.402778
135.486008 6.678572
135.514557 7.810714
135.563232 3.671296
135.591522 9.019608
135.700912 5.0
135.713242 9.063725
136.207733 5.844298
136.297302 4.8
136.34198 7.363095
136.372818 16.934999
136.463867 8.680555
136.606155 10.67045
136.695648 3.35
136.781067 17.721491
136.955429 4.708333
137.060181 952.25647
137.160095 20.659321
137.221237 33.94035
137.334915 7.866667
137.493988 10.00097
137.506226 11.60333
137.551498 4.225
137.625031 4.59375
137.882706 4.009259
138.118835 11.8642
138.347885 7.386905
138.425644 4.007576
138.449738 9.927469
138.473557 6.041667
138.712311 5.025641
139.039322 48.149689
139.050964 28.105101
139.075668 717.032471
139.106033 3.125
139.128815 6.333333
139.201599 6.906746
139.22084 18.66667
139.238113 6.408333
139.356842 11.44444
139.367691 7.190217
139.417984 5.840278
139.445908 3.852273
139.486633 3.708333
140.888641 5.633333
141.038452 8.630952
141.053558 182.051804
141.070236 427.593506
141.091751 102.760597
141.123718 2.700758
141.282639 11.50521
141.533157 8.712037
141.827164 8.351851
141.971359 18.240391
142.077545 531.189087
142.128677 4.782407
142.306152 11.88005
142.524216 11.14682
142.635437 3.694444
143.047073 19.70833
143.060318 5.335
143.085175 1503.918945
143.135223 4.366667
143.189346 11.69338
143.418518 2.671296
143.665253 4.669445
143.739395 20.46032
144.057327 174.370407
144.227783 11.5328
144.353165 9.75
144.407486 10.47704
144.432617 6.037037
144.454315 12.52134
144.47374 9.774123
144.788177 8.477381
144.954697 32.61256
145.064194 2458.638916
145.10141 2241.299072
145.134613 46.961281
145.172821 24.207939
145.190353 12.77083
145.202896 4.688725
145.249115 7.71627
145.258896 53.54147
145.278351 2.680556
145.288147 17.15
145.303101 29.477381
145.31691 6.075
145.326584 4.666667
145.352097 6.973485
145.363861 11.06833
145.412872 20.41905
145.424347 9.272727
145.483902 5.0
145.492294 7.333333
145.515625 8.566667
145.546432 4.190476
145.647583 14.0404
145.674896 13.66667
145.68959 6.401515
146.189651 11.34964
146.212082 3.640152
146.235779 8.335145
146.25119 7.027778
146.273956 14.7016
146.295197 35.108971
146.311447 19.1408
146.329651 25.347219
146.347 120.329597
146.36644 16.736111
146.382721 23.66667
146.40007 30.669979
146.424072 25.075001
146.433762 3.047619
146.45903 14.33929
146.503967 38.500381
146.516983 14.0062
146.539658 13.41818
146.555389 5.932018
146.656967 5.015
146.698395 6.722222
146.724411 18.72794
146.86348 7.429762
146.990524 3.185606
147.020172 10.36742
147.052094 55.335621
147.080322 26517.880859
147.11618 172.250595
147.131378 99.054207
147.149277 125.338997
147.190491 29.296341
147.217224 84.775162
147.241776 50.377251
147.255234 7.779321
147.264313 14.32529
147.29364 43.645618
147.309784 27.168699
147.328796 19.203251
147.35704 12.00491
147.368805 13.41523
147.380737 8.950757
147.395569 44.64209
147.408752 26.9193
147.431976 65.883797
147.444458 24.590679
147.459564 13.90948
147.474869 25.00379
147.484238 14.70833
147.49501 41.226082
147.520737 15.38844
147.530731 23.075001
147.582352 87.036331
147.598465 14.0704
147.655838 28.17157
147.678284 9.393939
147.69957 34.25993
147.723785 8.440789
147.763184 12.9649
147.7845 36.529099
147.794678 19.92157
147.805145 11.02885
147.855911 8.078431
148.292023 17.013889
148.363266 9.777778
148.533432 17.35376
148.592743 9.125
148.82196 4.382936
148.847748 8.341666
148.889877 11.19886
149.030319 16.975309
149.059845 504.186707
149.096176 363.009186
149.157928 4.041667
149.180222 16.24921
149.417023 19.263981
149.535812 12.08545
149.701599 9.458333
150.142487 14.71627
150.225586 10.93452
150.472488 9.034091
150.70372 7.520833
151.05748 37.339619
151.074371 613.354919
151.106262 6.162698
151.409943 3.361111
151.421494 7.541667
151.443405 17.334459
152.059097 89.291656
152.241104 2.016667
153.092453 120.3424
153.12326 8.523551
153.298599 11.88
153.391235 10.125
153.486786 30.5641
153.656311 8.462607
154.077896 130.892807
154.31842 23.92495
154.472122 27.43293
155.069092 147.406006
155.0849 1425.225952
155.125031 17.848961
155.134689 2.625
155.151199 5.458333
155.226852 19.716669
155.251694 5.005952
155.263565 11.93939
155.330505 11.2598
155.429688 20.74004
155.451187 6.201666
156.153229 3.640152
156.189438 22.42407
156.254608 5.721491
157.063156 277.209198
157.101532 772.70752
157.134308 6.394608
157.146988 10.135
157.156097 7.666667
157.183975 18.870939
157.225891 3.670455
157.249161 37.20787
157.27388 15.34069
157.295792 14.16964
157.307953 3.852273
157.356827 14.40539
157.505188 9.078488
157.583679 10.55618
157.616394 2.337121
157.627472 9.142858
157.830154 5.884804
157.931335 30.314051
158.072327 1943.030029
158.125259 9.741667
158.134537 14.03409
158.153 35.533119
158.207916 24.09412
158.233124 38.22261
158.31395 14.1408
158.340332 4.166667
158.484711 1.666667
158.537262 4.0
158.721481 10.68297
158.756363 29.16176
158.810379 7.280303
158.829956 12.68056
158.849197 7.0
159.080154 4158.277832
159.117462 95.804916
159.168655 5.679598
159.183777 10.09524
159.244247 22.806931
159.374893 8.272223
159.406281 27.29784
159.452209 7.802778
159.462555 8.535
159.536209 14.89207
159.546341 9.476191
159.576996 11.36925
159.594696 19.34314
159.686996 6.75
159.700211 19.75812
159.819046 12.19032
159.8629 7.742284
160.366806 12.63553
160.378784 11.48522
160.571838 4.686404
160.891617 7.916667
161.057693 45.096882
161.096298 2350.3479
161.152969 10.3906
161.171936 2.337963
161.225403 11.15714
161.298767 8.260417
161.313385 18.75815
161.335373 15.37346
161.370682 5.394608
161.508408 9.083333
161.662613 13.78392
162.362106 3.683333
162.558762 13.59524
163.075562 1264.453003
163.110794 86.168182
163.129562 2.027778
163.393433 16.462959
163.47229 9.001068
163.513138 9.630208
163.579651 17.98975
163.88176 11.74167
164.081467 107.560997
164.092102 10.55556
164.444412 9.338889
165.069626 216.334595
165.091766 83.878403
165.124924 22.15904
165.298096 7.297619
165.471176 5.480072
165.977188 10.93333
166.074463 174.064606
166.289581 19.555559
166.301208 10.51923
166.322479 19.75
167.084564 249.014099
167.279449 14.66731
167.45047 13.24107
168.05806 73.885841
168.103867 2.333333
168.221085 14.68333
168.283463 13.06944
169.06456 147.248703
169.102097 616.539124
169.151932 2.669444
169.201706 4.666667
169.228867 5.408333
169.264023 24.30324
169.305817 4.382936
169.340637 6.414216
169.404282 4.531863
169.479004 14.08333
169.4991 3.148809
169.545807 2.003788
169.59111 6.008333
169.65004 6.880952
170.071869 277.356689
170.145615 3.857143
170.159744 13.84524
170.212067 27.631201
170.244553 7.041667
170.287186 12.46389
170.371933 14.49597
170.384872 13.70519
170.401108 18.213539
170.525665 1.6875
170.730164 4.34375
170.767181 20.23423
171.003296 25.979811
171.055771 12.40167
171.0802 10459.900391
171.117844 114.102097
171.135162 57.743629
171.156036 63.41291
171.186493 29.319111
171.198685 3.335526
171.234726 23.37619
171.244202 16.000601
171.278702 21.45833
171.293518 33.049099
171.361023 42.116261
171.375717 8.695513
171.39447 19.04167
171.412506 44.486149
171.427887 23.896669
171.442825 4.669445
171.453735 11.71212
171.483459 16.56002
171.520615 3.1875
171.531128 2.003788
171.553925 9.5
171.567581 3.669118
171.603989 23.002529
171.664078 36.01503
171.763199 20.920641
171.813217 8.274194
171.8423 5.414216
171.877594 9.667857
171.923996 19.785259
172.028198 6.430555
172.047211 14.75543
172.189911 12.2549
172.200211 15.11204
172.225021 71.578293
172.250336 42.345711
172.292679 26.08094
172.320282 4.71627
172.448334 13.74074
172.467621 41.347569
172.49942 40.42049
172.51561 16.74589
172.531311 8.223765
172.562408 3.688725
172.766434 11.15585
172.860306 3.555556
172.947632 7.5625
173.058258 84.13633
173.095886 13679.290039
173.151993 118.327698
173.161911 32.90675
173.181976 43.88829
173.209213 27.931271
173.234009 45.614571
173.243881 28.475
173.277908 17.33654
173.286011 52.55109
173.305984 29.61413
173.339279 11.51515
173.370514 26.706141
173.381912 30.129841
173.422256 46.621201
173.436508 38.333961
173.45015 6.880952
173.482101 7.401515
173.506424 18.8375
173.524719 10.76013
173.546356 11.02216
173.615112 4.8
173.636124 30.027781
173.651901 8.684524
173.694275 8.229167
173.766647 11.34167
173.821442 11.01389
173.841187 19.77932
173.954483 10.92287
173.972427 7.691667
174.0233 6.685185
174.043289 39.521938
174.183334 17.7451
174.271652 7.041667
174.413269 3.823718
174.529526 32.632771
174.662018 3.490385
175.069824 137.278107
175.111313 418.227112
175.181747 12.36029
175.270172 4.111111
175.306046 1.694445
175.398041 11.67083
175.495514 4.59375
175.780823 9.667683
175.817734 2.00463
175.947174 14.9481
176.334839 48.021931
177.090027 149.079697
177.635269 16.46538
177.760483 6.0
177.802124 16.668209
177.950699 2.337963
178.078629 212.325195
178.187454 10.0049
179.052475 11.5126
179.084656 769.582886
179.140823 24.00577
179.275757 29.78186
179.382935 15.41667
179.858505 10.76179
181.063858 348.895508
181.102173 536.76593
181.16922 1.741667
181.223434 6.334459
181.286346 9.25641
181.415268 27.01708
181.842285 9.375
181.997009 21.017441
182.07254 176.028503
182.142624 5.774123
182.316238 4.453432
182.92276 10.97348
183.0802 561.539124
183.115158 107.790703
183.130569 23.888889
183.191666 4.375
183.285217 5.444445
183.596207 4.734848
183.765106 31.735041
184.017059 20.64016
184.089661 434.643494
184.163879 19.10741
184.218948 4.008333
184.289795 7.06586
184.979935 20.333969
185.054535 17.186729
185.096146 2150.148926
185.131302 134.203995
185.178375 6.028011
185.228287 2.449074
185.259216 5.04529
185.277206 33.052631
185.301834 10.35648
185.349197 12.70588
185.377411 19.763439
185.411758 4.821429
185.456741 9.347222
185.500946 9.017858
185.70932 10.89855
185.751999 13.92576
185.810913 20.753139
185.899017 5.668011
185.930984 3.6
186.060318 11.00079
186.465195 19.7381
186.508377 4.761905
186.539948 17.42477
186.691391 14.72024
186.891678 12.19947
186.929733 7.455883
187.074448 597.197815
187.11171 1008.499023
187.167633 5.001437
187.272369 12.33333
187.386749 10.41667
187.419968 14.34444
187.472351 12.0
187.557205 9.306159
187.648956 7.133333
187.705795 3.388889
187.723938 13.32328
187.991913 10.10289
188.033371 23.08284
188.168442 3.002451
188.31163 2.35
188.899292 10.33712
189.090347 137.438904
189.124146 17.185261
189.602814 8.369253
189.713409 5.016667
190.032623 13.3
190.074982 219.125107
190.10144 52.74054
190.524612 7.564815
190.936859 5.690476
191.086426 321.902405
191.108276 48.926281
191.138428 27.13356
191.196533 10.46377
191.249146 10.36364
191.429794 4.761905
191.560822 8.763348
191.669815 19.40991
191.834442 3.166667
191.889801 13.07018
192.092804 1199.72998
192.159058 1.708333
192.253174 15.77883
192.304596 2.6875
192.370667 2.741667
192.80336 11.66786
192.903214 2.041667
193.074265 6.25926
193.100266 687.553528
193.154541 6.333333
193.178711 7.342949
193.344543 23.729799
193.576218 12.81492
193.604462 1.666667
193.706406 7.347222
193.972763 6.88587
194.069794 290.964386
194.404022 22.679529
194.593201 2.683333
194.879623 10.34524
195.079575 1925.907959
195.116074 336.202606
195.210526 8.818548
195.366364 7.111111
195.38324 8.592949
195.448395 33.23497
195.67363 20.747231
195.895966 9.117248
195.936905 7.008333
196.046906 7.335526
196.15271 4.333333
196.188217 6.001437
196.22406 14.66801
196.271362 4.865196
196.768906 4.339286
196.825699 2.854167
196.866104 8.240196
197.054688 34.967739
197.09668 2195.579102
197.131699 219.009506
197.170135 2.408333
197.207947 4.741667
197.243851 3.375
197.276352 7.333333
197.300323 7.8
197.320724 6.047619
197.417831 13.89532
197.476471 30.515301
197.520767 1.720238
197.556549 54.61768
197.579422 12.0049
197.601074 8.013888
197.69191 9.407407
197.71637 11.43254
197.750778 19.91968
197.770767 15.93426
197.975708 17.000759
198.102432 2192.326904
198.147064 10.35459
198.352631 9.677381
198.520096 27.274509
199.075485 116.842003
199.142548 72.074074
199.191879 2.361111
199.233566 9.680555
199.245529 12.3344
199.274994 8.044118
199.342346 6.560185
199.360321 9.735
199.432175 3.333333
199.830322 8.679598
200.022156 15.06944
200.051636 11.0336
200.113083 34.140789
200.126816 8.076923
200.198105 9.407609
200.228882 16.518591
201.008179 3.555556
201.092773 240.811203
201.124924 117.613098
201.293579 6.805555
201.515747 8.015151
201.66394 10.92287
201.854187 2.5
202.073776 15.71078
202.094772 186.129807
202.153397 1.671296
202.965927 7.779321
203.081497 203.233398
203.134247 21.12698
203.829422 1.777778
204.053238 27.2994
204.090042 354.785889
204.151596 2.666667
204.198929 4.166667
204.356247 6.005208
204.375351 13.46944
204.616074 11.76961
205.060989 91.983772
205.098892 529.989319
205.191803 3.010417
205.256241 2.341667
205.757614 27.814871
205.853058 19.613741
205.937546 46.41991
206.244659 8.601191
206.614517 13.02885
206.7397 9.086538
206.804291 10.14881
206.884628 5.121212
207.015549 24.680269
207.079071 162.384094
207.11705 1979.301025
207.161469 9.152778
207.179962 3.675
207.196075 4.115741
207.223557 13.92607
207.290619 11.26667
207.34819 70.792267
207.370758 40.959019
207.43042 11.21333
207.473312 41.771099
207.836563 7.938889
207.861542 6.671053
207.888809 35.96032
207.929306 17.803089
208.040222 10.40167
208.055862 81.146278
208.087387 726.805786
208.125763 143.763596
208.192795 6.927469
208.268005 5.334877
208.533051 50.4198
208.582947 7.364975
208.685593 13.11204
208.753891 3.708333
208.835892 20.831619
208.870911 5.371913
208.947296 6.075
209.095093 1845.186035
209.130554 430.974792
209.178848 8.704545
209.253342 8.333333
209.268295 7.015
209.303604 16.12002
209.318619 6.708333
209.359116 18.838711
209.374588 15.5873
209.662643 7.280303
209.691605 17.35804
209.767349 6.814815
209.778625 12.41554
209.852509 12.10417
209.867584 27.027821
210.049072 4.703703
210.066727 30.75214
210.104767 1889.339966
210.159042 8.395299
210.214111 2.375
210.235672 32.764858
210.279678 14.39687
210.341751 19.67029
210.393753 36.866829
210.503204 5.496032
210.533356 9.716666
210.610092 6.615
210.720505 12.21212
210.770691 50.898609
210.804367 12.89167
210.847458 35.697369
210.972946 8.033334
211.033478 6.564103
211.073318 89.495789
211.111847 4487.301758
211.153717 64.458252
211.171417 23.758789
211.190277 2.027778
211.24585 31.32057
211.29071 10.96909
211.305237 18.128201
211.317001 4.190476
211.350616 40.24992
211.453079 3.686404
211.503754 49.489391
211.524307 15.67867
211.554047 33.88224
211.610626 16.6
211.711426 18.747549
211.782043 11.48981
211.904099 5.388889
212.007721 15.98732
212.082275 428.993988
212.180801 2.777778
212.367188 7.083333
212.428024 10.0
212.744034 4.490385
213.127182 1197.244995
213.206329 1.777778
213.283264 5.666667
213.358948 5.469444
213.415466 17.59868
213.603455 14.19217
213.715332 5.037037
213.735672 15.67568
213.873779 18.91848
214.006729 8.680555
214.076584 9.469697
214.536575 10.92045
214.56041 3.034091
215.044846 14.76025
215.078186 26.747129
215.103195 309.51181
215.146729 66.674271
216.093689 145.611206
217.040146 15.89382
217.099396 273.046692
217.567215 6.422101
217.777664 4.025
217.808472 12.075
218.074936 49.41531
218.147385 22.00952
218.96521 6.012097
219.080017 228.886993
219.117203 836.878296
219.185165 8.590476
219.207214 3.047619
219.320419 8.69697
219.637527 5.875
219.665802 9.041667
219.789642 6.095238
219.804886 9.893817
219.915085 4.736111
219.944397 11.05921
219.970276 8.647059
220.088058 282.016998
220.140503 8.856982
220.351288 20.789221
220.553635 8.395202
220.682816 1.666667
220.880554 20.859381
221.024033 5.702587
221.095673 1818.003052
221.129761 455.702606
221.174026 21.218309
221.193024 7.191138
221.220688 9.213384
221.299362 46.284531
221.324112 10.09058
221.36261 10.01389
221.9422 2.25
221.97699 4.35
222.102448 1547.012939
222.186783 13.025
222.220383 4.666667
222.237137 32.27
222.416153 10.50758
222.469345 12.82042
222.498718 2.893518
222.682281 7.969086
222.721375 40.88678
222.77565 13.04012
222.91214 8.535628
223.076904 16.33333
223.110687 1852.80603
223.148514 81.803574
223.274399 20.73188
223.295181 15.44369
223.311005 13.44298
223.333893 14.81173
223.36293 17.47414
223.393311 13.99212
223.511566 10.69444
223.526337 12.67262
223.544708 26.89583
223.599869 26.42222
223.662521 4.640152
223.729034 15.37745
223.765762 21.49741
223.783493 20.7288
223.794525 11.66779
223.820038 11.50718
224.008057 6.927469
224.078827 78.984428
224.118896 858.948425
224.200653 12.67302
224.275146 14.39007
224.346527 12.40833
224.374847 9.881667
224.419479 6.095238
224.447769 8.881667
224.536713 12.84543
224.728607 9.426724
224.745728 7.925926
224.919556 28.148661
224.93573 6.033602
225.050873 37.4105
225.091095 128.259003
225.126892 4859.463867
225.190292 17.716669
225.220978 23.83547
225.238449 7.354167
225.263596 11.1977
225.285446 21.71825
225.311508 7.00926
225.32724 12.28125
225.366531 7.724034
225.396362 24.46138
225.431656 33.000351
225.447357 41.73941
225.46962 14.38043
225.507828 53.31144
225.61348 25.32917
225.62561 40.84317
225.643265 4.333333
225.664139 17.655661
225.692917 13.39951
225.724457 28.768681
225.747025 26.042549
225.807907 6.737069
225.838913 17.716511
225.860184 19.334021
225.918396 13.56382
225.966049 32.29599
226.077545 49.565979
226.100922 73.124771
226.135101 6103.165039
226.202026 58.619919
226.26297 4.734848
226.290619 8.791667
226.323395 28.085711
226.380371 10.05449
226.567856 10.08333
226.668823 11.79167
226.681778 8.740741
226.813995 12.23184
226.89122 7.002778
227.01712 10.00102
227.103363 433.585602
227.232086 11.87798
227.248749 15.26786
227.34549 5.480072
227.426163 16.396061
227.46814 8.372808
227.499619 3.333333
227.530212 32.498089
227.570328 4.75
227.649185 8.416667
227.682907 24.282021
227.772552 13.67374
227.899445 12.12247
227.995163 11.76961
228.07457 20.0119
228.145508 174.800507
228.198029 10.5328
228.301529 6.11574
229.113358 25.673759
229.161667 41.494061
229.229233 9.0
229.25061 2.449074
229.561081 11.05
229.650803 3.025
229.797943 2.675
229.872086 12.54825
229.886597 2.893518
229.993607 5.375
230.105072 127.031303
230.1483 3.185606
230.25827 51.00079
230.39476 4.408333
230.537354 5.008333
231.077698 152.352097
231.117645 146.639603
231.340942 5.673077
231.630981 9.573413
231.737961 3.025
231.854477 3.708333
231.935608 6.906746
232.061813 29.543961
232.088211 165.770493
232.12381 326.400391
232.167389 6.916667
232.203659 10.73485
232.257248 9.122549
232.610672 16.8883
233.016037 3.66886
233.096344 675.347778
233.13298 364.074707
233.41449 1.672619
233.584686 11.38304
233.621811 10.76136
233.725677 15.96451
233.770737 7.361111
233.797318 5.668651
233.86116 7.020833
233.914581 13.90645
233.951614 5.688889
234.064972 57.581421
234.104568 989.618591
234.190964 2.053571
234.281631 7.017544
234.373352 6.818182
234.431519 3.027778
234.478699 2.0
234.527771 8.481667
234.686615 23.680281
234.698959 9.560897
234.745132 2.337121
234.760727 10.34375
235.08316 14.935
235.111603 2892.862061
235.147476 176.513596
235.165543 8.779321
235.252029 14.70833
235.273483 37.410641
235.294479 8.832603
235.336533 17.41987
235.358505 4.001984
235.385193 8.816667
235.430847 10.42857
235.505295 11.375
235.532822 27.8822
235.604065 20.736111
235.625473 15.72202
235.726028 1.777778
235.744049 36.955952
235.812759 11.57143
235.841812 34.172421
236.031525 19.024191
236.061218 24.340481
236.084961 8.854167
236.20787 9.001016
236.439209 16.818939
236.635803 7.679598
236.711075 20.325199
236.72789 6.446428
236.806274 8.375
236.859421 12.2977
236.928467 6.816667
237.006912 66.274887
237.053879 29.615339
237.089554 199.846802
237.126831 3021.032959
237.187988 26.0786
237.213348 21.085951
237.235657 5.827381
237.315872 7.019737
237.332016 16.136749
237.365204 14.32531
237.3936 27.72024
237.407059 8.396825
237.419373 24.63063
237.449936 11.66737
237.497864 5.680555
237.535934 19.687599
237.734146 11.21333
237.773773 5.884804
237.838226 17.543369
237.864456 27.177629
237.905823 9.136261
237.971756 13.7219
238.072815 8.552536
238.523453 5.208333
238.642365 2.520833
238.716843 24.077379
239.072723 4.125
239.106476 354.260498
239.143539 1250.884033
239.294937 13.41667
239.351608 21.72706
239.459869 6.055555
239.497574 10.29643
239.561386 5.669117
239.582581 11.69444
239.701035 16.37281
239.744583 8.601191
239.841675 9.588542
239.875809 13.8
239.91777 11.67626
239.981522 4.037037
240.111404 144.024002
240.34285 11.01647
240.429092 11.69482
240.46756 3.15
241.083099 31.68442
241.099472 22.813061
241.124268 87.309471
241.157791 366.724213
241.28215 9.599999
241.344284 6.291667
241.909409 4.8
242.108963 85.722961
242.126602 51.870609
242.716293 4.0
242.803009 12.0672
242.928925 11.48761
243.112274 111.023003
243.339981 13.28736
243.504272 11.20119
243.724014 9.564815
244.121765 186.281006
244.512192 7.333333
244.959869 4.363636
245.096603 574.331482
245.132675 408.648102
245.253983 9.003968
245.325577 18.55147
245.455597 16.006149
245.505432 19.097219
245.566711 5.510417
245.589157 3.333333
245.608246 12.35504
245.765167 11.42708
246.103897 324.735809
246.173172 10.42424
246.361252 6.054825
246.492599 13.92892
246.524979 8.674243
246.681854 11.48333
246.888321 19.187441
246.973145 8.337976
247.110626 795.036072
247.146439 306.700989
247.20282 7.057692
247.239227 11.60167
247.310822 7.296568
247.340103 42.175758
247.407669 9.631173
247.52565 9.561992
247.744629 12.97531
247.897446 42.312481
247.935852 11.70833
248.081039 8.226851
248.118973 1943.269043
248.182877 2.671296
248.250763 22.741011
248.294037 33.997631
248.436127 8.223765
248.502045 13.65661
248.534195 33.590641
248.559372 21.745569
248.588608 9.150001
248.672653 13.81349
248.780624 3.686404
248.813553 4.668651
248.857437 11.24242
248.928757 6.669117
248.967224 7.078432
249.071533 3.402778
249.082718 28.212641
249.097382 49.793331
249.126846 1837.284058
249.167984 92.167969
249.227539 11.40671
249.318192 7.375
249.345963 7.260803
249.417542 14.08003
249.472488 5.679598
249.50412 20.412701
249.695282 23.8125
249.780289 5.692308
249.830658 15.01532
250.022278 18.38415
250.094818 96.098938
250.183182 9.773809
250.209442 16.558331
250.235352 19.451799
250.346924 7.676282
250.484558 12.71204
250.660507 4.413462
250.759933 10.54688
250.849167 12.40278
250.919724 3.703704
251.106323 273.9599
251.142746 846.39502
251.16806 9.670455
251.278046 5.666667
251.294586 1.666667
251.311142 10.96014
251.545929 20.687719
251.753098 9.594136
251.851898 14.66667
251.891388 18.55147
251.988983 5.094697
252.072479 42.818531
252.205505 5.208333
252.239929 16.03846
253.007324 12.03354
253.084885 28.01111
253.121201 444.474091
253.15831 273.612
253.366898 3.358333
253.483856 5.347222
253.571838 13.0
254.341232 6.225
254.775391 4.675
254.802887 22.177629
255.139236 5.958333
255.646118 39.98864
256.084595 24.134951
256.125519 19.69363
256.607117 8.680555
256.934479 3.736111
257.09552 533.497925
257.127808 62.30843
257.419373 5.388889
257.562195 6.625
257.643188 10.16667
257.666321 7.410257
257.833038 10.3375
258.179474 2.367424
258.257751 15.06618
258.33606 7.361486
258.504974 14.96333
258.7677 28.375891
259.110474 438.929596
259.146149 380.072998
259.337952 7.242816
259.433533 6.306159
259.668823 10.47115
259.730377 6.25
260.085785 117.910202
260.119141 1068.025024
260.184265 3.4
260.201385 7.0
260.218231 7.719017
260.312439 46.39653
260.338867 15.83333
260.46521 4.342593
260.504944 3.791667
260.684235 9.527778
260.717926 7.016304
260.7659 3.458333
260.893738 17.56214
261.358704 6.775537
261.40921 4.760417
261.442993 18.82876
261.500946 6.160088
261.561218 20.66667
261.639984 8.816667
261.859497 12.02671
262.096497 134.883606
262.13559 1174.375977
262.191742 8.061869
262.225525 10.6796
262.244263 26.400539
262.357056 8.401667
262.37912 17.23
262.408661 7.291667
262.452637 36.6194
262.503601 12.78947
262.629059 25.077959
262.648743 26.234501
262.896362 8.380815
262.935822 6.125
263.04303 13.34099
263.103943 418.60611
263.142731 1484.520996
263.191681 10.38889
263.217957 2.35
263.26886 3.700758
263.286133 19.83742
263.330872 22.992701
263.377228 26.82218
263.50589 8.358974
263.562378 12.16447
263.58606 6.075
263.672302 14.87907
263.743134 12.33712
263.760315 12.18841
263.799866 26.458599
263.870575 31.695511
264.025696 3.669444
264.15033 1020.497009
264.314087 7.371913
264.546173 4.166667
264.559875 11.46558
264.88562 14.76344
265.121857 382.873108
265.158356 1548.743042
265.23111 3.666667
265.282104 8.38313
265.344452 5.358974
265.3974 10.3494
265.46347 25.38549
265.494812 19.67284
265.559845 8.491228
265.746643 3.339286
265.815002 9.142858
265.854706 7.411765
266.02005 6.740942
266.092712 4.671297
266.149841 11.24038
266.23703 7.15
266.274628 11.77011
267.098389 7.081667
267.141479 370.939606
267.173889 181.085693
267.33725 9.074074
268.118958 3.6
268.922058 23.24297
271.115051 165.870697
271.132843 795.395386
271.192444 4.408333
271.21347 1.666667
271.459869 3.0
272.186066 4.351852
272.211273 11.35227
272.308777 13.12297
272.328949 7.5
272.501617 18.294121
272.937836 5.75
273.125275 241.191605
273.34317 4.44079
274.132965 204.682007
274.511688 3.375
274.731079 12.03375
274.887817 14.22222
275.104218 196.612
275.142426 686.931091
275.186646 19.02113
275.284882 5.041667
275.302521 10.0732
275.562134 13.33854
275.579041 18.058331
275.636414 3.185606
275.833557 10.72464
276.012726 4.681667
276.261719 19.975941
277.119843 253.390106
277.158844 1186.46106
277.314667 7.2
277.347534 6.518939
277.422913 23.60503
277.458282 4.259615
277.781525 17.313169
277.905914 5.160714
278.004791 23.96081
278.045105 21.668699
278.393219 16.049379
278.480347 4.335
278.520966 9.334091
279.13446 230.372299
279.198578 5.88587
279.346039 3.666667
279.43515 3.520833
279.572845 11.60333
280.027039 19.91176
280.103149 89.213959
280.143524 262.901703
280.167572 28.07843
281.121796 18.68889
281.154236 255.663101
281.41983 4.007576
282.114685 20.000851
282.159576 161.742599
283.131256 40.759472
283.165314 258.209015
283.571594 2.0
284.109985 3.083333
285.128479 100.784203
285.146332 77.413986
287.146301 286.548706
287.423676 3.358333
287.474213 4.066667
287.539734 15.13204
287.693542 20.008329
288.608704 3.675
288.909973 6.75
289.125061 96.353508
289.150177 62.975891
289.596313 5.444445
290.129608 291.810089
290.485016 5.0
290.797333 3.933333
291.173553 79.671959
291.955505 3.148809
292.143646 204.658905
292.365448 4.444444
292.385498 6.160257
293.374237 14.19813
294.157318 51.043098
294.190704 2.347222
294.603149 4.225
295.110321 5.430555
295.134094 45.103069
295.169342 284.345001
295.304596 5.916667
295.726227 6.449713
296.020905 16.739861
296.135406 63.044392
296.282867 10.00102
296.312805 3.666667
296.342773 11.33477
296.960724 20.385559
297.529999 11.77554
298.790009 30.263889
299.158142 13.39701
303.130676 21.093889
303.342773 21.52355
305.151764 438.154785
305.229858 3.333333
306.124054 8.694445
306.781708 13.1974
307.169312 16.456141
308.134796 102.997597
308.53299 6.333333
309.351318 3.361111
313.176147 9.763095
313.199158 22.670139
313.35318 8.833333
313.454987 9.053572
319.232483 24.78014
321.1539 17.59314
321.313599 6.160088
321.923218 13.05797
322.620728 10.05357
323.163208 256.947601
323.43573 8.005555
323.717163 8.240196
331.172607 7.653986
339.153778 19.179489
341.171387 22.73177
377.205994 15.21774
413.232849 5.5
503.566772 33.865891
595.393677 28.846609
729.658691 21.00194
933.731262 6.98077
1215.1698 6.265351
1302.861816 2.003788
1308.053101 8.066667
1567.813232 3.773809
