>compound Ulipristal
>formula C30H37NO4
>ionization [M+H]+
>parentmass 476.2795351160906
#inchi InChI=1S/C30H37NO4/c1-18(32)30(35-19(2)33)15-14-27-25-12-8-21-16-23(34)11-13-24(21)28(25)26(17-29(27,30)3)20-6-9-22(10-7-20)31(4)5/h6-7,9-10,16,25-27H,8,11-15,17H2,1-5H3/t25-,26+,27-,29-,30+/m0/s1
#inchikey OOLLAFOLCSJHRE
#Ion_Source LC-ESI
#Instrument qTof
#Compound_Source Commercial
#PI Dorrestein
#Data_Collector Garg_Neha
#Scan -1
#Precursor_MZ 476.28
#ExactMass 475.272
#Charge 1
#CAS_Number 126784-99-4
#Pubmed_ID N/A
#Smiles [C@H]1(C2[C@]([C@]3([C@](C1)([C@@](CC3)(C(=O)C)OC(C)=O)C)[H])(CCC4C=2CCC(C=4)=O)[H])C5=CC=C(C=C5)N(C)C
#INCHI_AUX N/A
#Library_Class 1
#SpectrumID CCMSLIB00000078573
#IonMode Positive
#UpdateWorkflowName UPDATE-SINGLE-ANNOTATED-GOLD
#LibraryQualityString Gold
#TaskID 77f51c88eb8b467eb4a01dd2d0cb90d2
##Scan# 1285
#SpectrumFile Plate9_21_40_GC5_01_15753.mzXML
#LibraryName FDALibrary_2_04302014.mgf
#MQScore -1
#Organism FDALibrary_2_04302014
#TIC_Query 0
#RT_Query -1
#MZErrorPPM -1
#SharedPeaks 0
#MassDiff 0
#LibMZ -1
#SpecMZ 476.28
#SpecCharge 0
#internalFilename spec-00000.mgf

>collision 10
45.242352 168.0
45.599159 172.0
45.704052 220.0
45.766285 256.0
46.319687 164.0
46.489166 196.0
46.538033 184.0
46.70927 152.0
46.97081 280.0
47.11961 160.0
47.144207 196.0
47.413811 216.0
47.75843 208.0
47.996681 276.0
48.253498 152.0
48.268707 168.0
48.366936 156.0
48.419552 200.0
48.516544 152.0
48.529022 200.0
48.644173 156.0
48.744171 152.0
49.351917 176.0
49.363102 152.0
49.395271 156.0
49.40786 232.0
49.496037 180.0
49.709106 144.0
49.735771 160.0
49.762447 160.0
49.808788 156.0
50.267769 172.0
50.284702 156.0
50.335526 168.0
50.500877 156.0
51.492958 144.0
51.641602 184.0
51.714573 164.0
51.753223 192.0
51.913715 164.0
51.958179 180.0
52.938332 192.0
53.20948 168.0
53.453671 144.0
53.892574 140.0
53.956882 164.0
54.015377 140.0
54.302467 164.0
54.321533 196.0
54.641796 180.0
55.073723 188.0
55.144646 160.0
55.448051 228.0
55.517731 208.0
55.915886 300.0
55.939701 200.0
56.243793 224.0
56.313969 140.0
56.346832 156.0
56.605595 168.0
56.947327 148.0
57.112869 140.0
57.571045 228.0
57.619381 204.0
58.085648 144.0
58.108402 276.0
58.140755 188.0
58.164555 148.0
58.213139 168.0
58.486801 212.0
59.072762 152.0
59.26873 204.0
59.472698 360.0
59.684704 176.0
59.892464 208.0
59.922749 140.0
59.951012 224.0
60.024174 156.0
60.394268 160.0
60.565926 148.0
60.714718 156.0
60.744186 176.0
60.966213 160.0
61.179306 176.0
61.539364 144.0
61.74572 152.0
62.104389 144.0
62.240925 160.0
62.324173 172.0
62.564808 144.0
62.827995 180.0
63.082245 252.0
63.245174 180.0
63.299004 172.0
63.416237 152.0
63.696884 220.0
64.176117 168.0
64.813881 140.0
64.956566 184.0
65.118683 156.0
65.256882 180.0
65.888672 140.0
65.919365 140.0
66.039001 148.0
66.056793 184.0
66.123352 148.0
66.252678 148.0
66.591698 188.0
66.653427 288.0
66.903099 188.0
67.499435 164.0
67.813759 188.0
68.028641 204.0
68.087753 168.0
68.165413 160.0
68.209335 172.0
68.259743 152.0
68.48127 164.0
68.718208 204.0
68.917992 144.0
68.962616 188.0
69.224007 160.0
69.508781 316.0
69.600426 148.0
69.705551 140.0
69.783195 156.0
70.13945 144.0
70.276207 244.0
70.301231 144.0
70.439812 256.0
70.461533 188.0
70.473228 164.0
70.525032 204.0
70.538292 120.0
70.769272 144.0
70.898254 208.0
71.248947 168.0
71.528099 148.0
71.701584 228.0
71.716759 148.0
71.809486 160.0
72.184402 140.0
72.61795 176.0
72.658043 176.0
72.74012 148.0
73.194054 160.0
73.297966 160.0
73.396828 220.0
73.599884 176.0
73.883598 152.0
73.917816 156.0
74.020523 152.0
74.303093 196.0
74.366829 156.0
75.082558 152.0
75.822502 180.0
76.338104 156.0
76.754288 156.0
76.987267 184.0
77.371048 188.0
77.455109 184.0
77.911201 152.0
78.296417 184.0
78.474396 176.0
79.470177 160.0
79.828987 148.0
79.841438 168.0
80.350876 144.0
80.595482 144.0
80.662567 160.0
80.879837 184.0
80.990852 196.0
81.191589 160.0
81.281288 176.0
81.437469 152.0
81.741638 128.0
81.786293 156.0
81.885323 164.0
82.106995 196.0
82.41568 148.0
82.533173 164.0
82.657982 144.0
82.884323 144.0
83.345215 260.0
83.548843 256.0
83.688988 144.0
84.077454 148.0
84.20993 180.0
84.767189 148.0
85.334526 156.0
85.635658 172.0
85.672501 152.0
86.200188 176.0
86.214973 168.0
86.35363 168.0
86.633133 160.0
86.694275 156.0
87.086243 172.0
87.20388 184.0
87.245544 152.0
88.024254 140.0
88.166336 140.0
88.338356 272.0
88.391182 136.0
88.615433 160.0
88.720383 176.0
88.983521 156.0
89.001816 156.0
89.035141 160.0
89.098434 216.0
89.24984 160.0
89.447708 160.0
89.505745 220.0
89.652672 156.0
89.69429 100.0
89.928024 168.0
89.980881 168.0
90.092308 196.0
90.113358 140.0
90.150879 152.0
90.67131 140.0
90.811615 160.0
90.984291 208.0
91.053764 232.0
91.155235 168.0
91.36438 204.0
91.665215 180.0
91.73764 148.0
92.100342 164.0
92.174706 164.0
92.386932 164.0
92.943077 176.0
93.063911 124.0
93.14798 152.0
93.6269 220.0
93.829224 212.0
93.892853 160.0
94.347145 172.0
94.73172 144.0
94.882881 140.0
95.067917 148.0
95.085579 320.0
95.113731 176.0
95.188461 120.0
95.857063 176.0
95.909286 220.0
96.238892 164.0
96.36985 152.0
96.843262 144.0
97.064713 172.0
97.145126 172.0
97.585045 244.0
97.600769 152.0
97.907562 164.0
97.985352 132.0
98.122536 212.0
98.146194 244.0
98.653595 160.0
98.750488 316.0
99.078209 844.0
99.106819 148.0
99.515411 172.0
99.691406 172.0
99.723991 188.0
99.825386 144.0
99.936775 140.0
100.078094 156.0
100.098007 144.0
100.311188 180.0
100.331352 172.0
100.361031 252.0
100.445099 104.0
100.872116 152.0
101.014755 192.0
101.134743 216.0
101.190201 168.0
101.540878 164.0
101.799759 144.0
101.842369 112.0
102.376915 152.0
102.699379 200.0
102.907547 180.0
103.054337 452.0
103.095093 188.0
103.283119 180.0
103.40654 188.0
103.671844 164.0
103.783333 248.0
104.000404 164.0
104.034637 120.0
104.646858 176.0
104.775169 180.0
104.809807 216.0
105.06871 628.0
105.18914 140.0
105.648941 140.0
105.792191 220.0
106.044136 224.0
106.067139 304.0
106.206116 168.0
106.294334 196.0
106.347694 140.0
106.416611 168.0
106.616737 168.0
106.789772 124.0
106.947868 180.0
106.972572 192.0
107.019707 156.0
107.050034 976.0
107.0737 1140.0
107.108475 188.0
107.500198 152.0
107.880241 204.0
107.942268 144.0
108.049881 148.0
108.080635 332.0
108.424606 180.0
108.974503 164.0
109.063911 596.0
109.100189 556.0
109.138702 180.0
109.763374 148.0
110.032532 200.0
110.203796 144.0
110.235138 144.0
110.405815 324.0
110.686974 168.0
111.078842 160.0
111.515518 140.0
111.833229 156.0
111.911125 192.0
112.060661 156.0
112.411888 140.0
112.452888 152.0
112.501442 208.0
112.983276 156.0
113.093315 156.0
113.343208 176.0
113.436462 140.0
113.497948 196.0
113.544601 144.0
114.030785 176.0
114.078461 112.0
114.895309 144.0
115.02549 192.0
115.054375 144.0
115.106613 160.0
115.177094 164.0
115.534088 152.0
115.953773 208.0
116.049164 160.0
116.395691 140.0
116.564346 140.0
116.616966 164.0
116.634163 208.0
116.838455 148.0
116.982635 160.0
117.067978 1316.0
117.126915 152.0
117.294983 168.0
117.312233 176.0
117.815102 164.0
118.064247 916.0
118.152306 144.0
118.366577 144.0
118.4189 176.0
118.587555 224.0
119.080154 268.0
119.184341 176.0
119.229973 172.0
119.974388 196.0
120.0802 1896.0
120.111458 192.0
120.196854 196.0
120.224586 220.0
120.260147 204.0
120.727684 224.0
120.747368 148.0
120.961792 200.0
121.014336 160.0
121.064148 3040.0
121.087341 832.0
121.475891 184.0
121.722565 156.0
121.867538 160.0
121.88855 184.0
121.96357 176.0
122.069504 588.0
122.096458 17016.0
122.14666 120.0
122.17659 168.0
122.318375 220.0
122.710503 164.0
122.805504 148.0
122.956459 96.0
122.973015 172.0
123.080132 816.0
123.098434 1968.0
123.15406 184.0
123.737862 144.0
123.87738 148.0
123.977081 144.0
124.025841 140.0
124.118156 144.0
124.394066 168.0
124.440681 164.0
124.682808 160.0
124.700592 144.0
124.809517 172.0
125.174446 176.0
125.256851 176.0
125.294724 156.0
125.653664 168.0
125.901428 204.0
126.259003 172.0
126.276894 156.0
126.38427 140.0
126.755974 148.0
126.915123 228.0
126.935303 160.0
127.671867 300.0
127.960022 140.0
128.062225 884.0
128.803314 184.0
129.069733 1132.0
129.164978 156.0
129.495438 160.0
129.86261 196.0
129.989655 160.0
130.069351 276.0
130.157639 156.0
130.355255 192.0
130.935364 216.0
131.049255 172.0
131.08403 1500.0
131.183716 172.0
131.268082 144.0
131.361588 192.0
131.528168 140.0
132.082886 504.0
132.213333 216.0
132.337448 180.0
132.81871 148.0
132.918365 192.0
133.017319 272.0
133.063843 1768.0
133.090958 1432.0
133.141373 144.0
133.47554 180.0
133.698669 156.0
133.745712 156.0
133.916367 208.0
133.956848 280.0
133.98642 128.0
134.011841 256.0
134.031403 192.0
134.096619 84476.0
134.151108 236.0
134.290771 160.0
134.311539 172.0
134.361755 124.0
134.470459 172.0
134.699326 156.0
134.764191 100.0
134.787125 176.0
134.889938 148.0
135.099503 9184.0
135.221481 160.0
135.346893 140.0
135.37326 144.0
135.559998 148.0
135.788055 160.0
135.851929 220.0
136.014572 144.0
136.084122 424.0
136.10466 252.0
136.109863 428.0
136.202423 164.0
136.520874 96.0
137.094788 460.0
137.310562 192.0
137.733017 200.0
137.845734 144.0
138.071915 176.0
138.184189 192.0
138.263 188.0
138.303543 240.0
138.835388 148.0
138.987854 156.0
139.072998 256.0
139.117996 148.0
139.31427 144.0
139.800903 168.0
140.081085 232.0
140.942215 148.0
141.069534 696.0
141.348923 176.0
141.637756 140.0
142.073105 284.0
142.147491 148.0
142.219543 100.0
142.479904 140.0
142.537643 144.0
142.612976 156.0
142.724701 160.0
143.007797 184.0
143.084351 1960.0
143.158951 148.0
143.27211 148.0
143.430237 168.0
143.830124 168.0
144.05864 388.0
144.087158 448.0
144.166885 164.0
144.328857 184.0
144.560547 116.0
144.661987 168.0
145.063873 1068.0
145.099518 1168.0
145.386658 140.0
145.438629 188.0
145.553864 168.0
145.685959 164.0
146.06868 416.0
146.096558 1144.0
146.177109 144.0
146.467758 152.0
146.538452 116.0
146.839371 200.0
146.978851 200.0
147.029541 228.0
147.080032 1748.0
147.103958 1208.0
147.16954 172.0
147.353104 140.0
147.85849 168.0
147.967407 176.0
147.997391 208.0
148.07666 1068.0
148.111832 10856.0
148.168427 172.0
148.267776 160.0
148.333206 168.0
148.648499 192.0
148.773773 124.0
148.871307 172.0
148.908264 176.0
149.059052 560.0
149.077271 272.0
149.096283 960.0
149.116547 1044.0
149.345764 208.0
149.696213 360.0
149.764404 168.0
149.817993 216.0
149.835052 240.0
149.860855 136.0
150.090408 480.0
150.115677 224.0
150.20903 132.0
150.348953 132.0
150.38269 152.0
150.437408 156.0
150.806259 168.0
151.065399 168.0
151.110886 176.0
151.212265 164.0
152.06073 168.0
152.549057 144.0
152.681686 128.0
152.738403 160.0
153.071045 216.0
153.116745 192.0
153.390228 208.0
154.074524 392.0
154.160995 148.0
154.331543 140.0
154.97261 148.0
155.043976 160.0
155.083771 824.0
155.237839 140.0
156.089249 124.0
156.696899 168.0
157.065094 6384.0
157.100494 1060.0
157.405258 216.0
157.485184 152.0
157.802551 192.0
158.067703 812.0
158.097214 872.0
159.080246 4052.0
159.115021 2176.0
159.149094 252.0
159.333878 160.0
160.035583 148.0
160.08699 984.0
160.113617 1108.0
160.176605 184.0
160.244629 188.0
160.271332 100.0
160.531815 124.0
160.71611 200.0
160.824631 216.0
161.095108 836.0
161.200089 128.0
162.102112 160.0
162.126038 796.0
162.259521 196.0
162.323761 164.0
162.789246 168.0
163.053452 156.0
163.073532 544.0
163.11203 156.0
163.656342 184.0
164.076721 148.0
164.106186 1076.0
164.163345 132.0
164.34198 244.0
164.370041 160.0
164.576797 164.0
164.811783 200.0
165.069733 644.0
165.108627 292.0
165.86618 132.0
166.033936 148.0
166.07814 476.0
166.384369 140.0
166.623962 164.0
166.831375 184.0
166.862137 112.0
166.965088 176.0
167.085388 1044.0
167.845795 188.0
168.059875 180.0
168.090775 344.0
169.065079 280.0
169.100342 1324.0
169.209351 152.0
169.329147 188.0
169.355606 256.0
169.59082 192.0
169.647842 188.0
169.777039 160.0
170.068069 172.0
170.108917 516.0
170.320312 160.0
171.078674 856.0
171.112335 688.0
171.185989 264.0
171.363113 192.0
171.381348 144.0
171.509048 172.0
171.68634 164.0
171.892426 120.0
172.084152 304.0
172.110535 1304.0
172.190033 140.0
172.293503 156.0
172.500961 156.0
173.058975 124.0
173.096466 1556.0
173.194382 152.0
173.535065 324.0
173.988937 208.0
174.100159 556.0
174.127319 376.0
174.379547 216.0
174.81163 144.0
175.045914 188.0
175.07193 160.0
175.112274 364.0
175.225021 184.0
176.03479 152.0
176.062424 172.0
176.107193 536.0
176.143127 244.0
176.618866 292.0
177.095627 452.0
177.380341 132.0
177.609512 152.0
177.803192 152.0
178.077332 1016.0
179.084305 1372.0
179.255188 248.0
179.497238 140.0
180.087234 712.0
180.268616 140.0
180.616791 204.0
180.780807 132.0
180.895081 228.0
181.067337 300.0
181.100723 1892.0
181.219131 144.0
182.073288 332.0
182.105011 248.0
182.346176 168.0
182.583908 160.0
183.080017 1080.0
183.115875 1772.0
183.996613 152.0
184.110733 1764.0
184.210754 180.0
184.254791 168.0
184.843414 144.0
184.919464 152.0
185.093369 1432.0
185.117844 1248.0
185.265778 208.0
185.523239 192.0
186.099396 420.0
186.126663 1236.0
186.386307 164.0
186.437103 168.0
186.641815 144.0
186.671722 192.0
187.116531 660.0
187.606949 156.0
187.770767 228.0
187.826492 192.0
187.942993 160.0
188.139191 244.0
188.525436 156.0
188.730453 176.0
189.089005 304.0
189.159973 184.0
189.37355 156.0
189.720734 120.0
189.918991 140.0
190.075287 148.0
190.121002 296.0
191.082077 444.0
191.246109 180.0
191.340683 200.0
191.551743 180.0
191.703278 176.0
191.821793 164.0
191.910019 152.0
192.089554 248.0
192.174042 192.0
192.293457 164.0
192.387299 160.0
192.873474 192.0
193.00618 164.0
193.075241 156.0
193.099899 2620.0
193.352081 100.0
193.889969 152.0
194.076492 472.0
194.106079 680.0
194.779877 160.0
194.917938 144.0
195.081696 608.0
195.114792 2132.0
195.163391 308.0
195.313568 140.0
195.341385 156.0
195.886993 140.0
195.909271 208.0
195.973358 172.0
196.08696 616.0
196.118103 612.0
196.369492 188.0
196.464035 180.0
196.926529 140.0
197.095016 2440.0
197.12204 660.0
197.700638 124.0
198.074203 208.0
198.102325 672.0
198.126114 1020.0
199.07724 108.0
199.112534 896.0
199.440704 156.0
199.511871 100.0
199.577637 124.0
199.730316 144.0
199.776825 188.0
199.99675 128.0
200.114182 308.0
200.142776 1344.0
200.518677 192.0
201.023483 176.0
201.090408 888.0
201.121964 416.0
201.14772 376.0
201.274872 144.0
201.365768 212.0
201.518784 104.0
202.056198 128.0
202.092529 168.0
202.122574 256.0
202.543243 100.0
202.57341 144.0
202.775833 196.0
203.084412 248.0
203.104797 324.0
203.163422 136.0
203.400879 156.0
203.426422 140.0
203.642227 176.0
204.096954 248.0
204.135788 232.0
204.227737 180.0
204.250488 152.0
204.805542 152.0
204.930878 180.0
205.101028 644.0
205.696182 148.0
206.106781 960.0
206.403702 140.0
206.506653 144.0
206.692612 152.0
206.767014 192.0
207.07872 2144.0
207.11496 1620.0
207.603546 148.0
207.817886 132.0
207.847595 148.0
208.082748 744.0
208.116318 864.0
208.444641 152.0
208.621262 168.0
208.72113 200.0
208.99884 216.0
209.034119 144.0
209.09549 2796.0
209.131485 1492.0
209.246292 144.0
209.268646 208.0
209.383667 124.0
209.529358 184.0
209.650375 160.0
209.83197 180.0
209.889633 228.0
210.10202 412.0
210.126892 1632.0
210.221909 108.0
210.310837 148.0
211.011963 220.0
211.111374 4756.0
211.360962 108.0
212.116852 1224.0
212.14093 1272.0
212.739456 152.0
212.902054 140.0
212.935287 100.0
212.966614 140.0
212.99971 104.0
213.087509 128.0
213.128387 1064.0
213.149597 1064.0
213.392319 128.0
213.79454 140.0
214.126434 312.0
214.158249 928.0
214.322739 104.0
214.38147 96.0
215.08223 152.0
215.104568 436.0
215.133957 276.0
215.702835 132.0
216.092056 120.0
216.119354 224.0
216.3134 156.0
216.442215 148.0
216.732193 192.0
217.078079 152.0
217.107483 480.0
217.897003 164.0
218.070374 144.0
218.106888 344.0
218.146759 152.0
218.50853 220.0
218.899994 148.0
218.941223 196.0
219.075958 224.0
219.115631 1436.0
219.847839 140.0
220.029175 116.0
220.083237 172.0
220.123459 812.0
220.699951 144.0
220.741989 112.0
221.09549 764.0
221.125626 820.0
221.175308 164.0
221.339081 164.0
221.650101 160.0
221.718262 160.0
221.898148 152.0
222.126724 3828.0
222.236557 168.0
222.936386 120.0
223.111557 1744.0
223.134888 984.0
223.205505 140.0
223.523788 244.0
223.633911 300.0
224.144089 1560.0
224.358612 152.0
224.572449 168.0
224.711105 100.0
224.732971 256.0
225.084671 176.0
225.126602 2212.0
225.151413 1600.0
225.269135 120.0
225.697357 144.0
225.768524 128.0
225.890396 172.0
226.022644 124.0
226.158203 4104.0
226.226364 128.0
226.267212 160.0
226.302704 112.0
226.46051 156.0
226.482376 144.0
226.561264 144.0
226.601089 96.0
227.105835 156.0
227.143005 2668.0
227.423874 144.0
227.519928 144.0
227.778183 152.0
227.81424 252.0
227.889343 188.0
228.05162 144.0
228.099716 252.0
228.142883 1380.0
228.173096 1868.0
228.412445 188.0
228.55986 196.0
228.67868 156.0
228.810226 128.0
228.91806 188.0
229.122757 608.0
229.145203 292.0
229.17868 520.0
229.231354 204.0
229.315735 368.0
229.407608 200.0
229.668503 180.0
229.723404 160.0
230.130081 3432.0
230.399017 176.0
230.720215 212.0
230.86409 212.0
231.107666 284.0
231.134811 800.0
231.369797 200.0
231.459625 108.0
231.607407 116.0
231.933243 180.0
232.048431 176.0
232.087097 232.0
232.12532 212.0
232.169678 148.0
232.303177 152.0
232.408356 152.0
232.450714 148.0
232.563339 136.0
232.664307 140.0
232.815628 120.0
232.853973 156.0
233.096085 412.0
233.131943 1092.0
233.171585 156.0
233.719543 124.0
233.989838 156.0
234.100876 836.0
234.135696 384.0
234.184723 160.0
235.110168 1152.0
235.145844 3780.0
235.285538 160.0
235.68396 168.0
236.11496 1232.0
236.143784 4076.0
236.762421 144.0
237.127029 3396.0
237.200562 200.0
237.476517 288.0
237.746506 184.0
237.882462 148.0
238.022278 148.0
238.131516 1012.0
238.157898 2868.0
238.207047 236.0
238.240845 172.0
238.412903 152.0
238.474701 168.0
239.112946 544.0
239.146591 564.0
239.159943 960.0
239.216293 140.0
239.393967 128.0
239.431213 164.0
239.692123 120.0
239.790222 128.0
239.914963 148.0
240.11084 140.0
240.139297 1004.0
240.174011 796.0
240.663879 148.0
240.812912 156.0
241.139404 332.0
241.594864 144.0
241.922623 136.0
242.009674 240.0
242.103943 280.0
242.151047 772.0
242.492508 132.0
242.744034 144.0
243.108643 388.0
243.139908 444.0
243.462708 156.0
243.619293 296.0
243.762207 160.0
244.045074 180.0
244.121964 680.0
244.168015 344.0
244.247208 172.0
244.334518 124.0
244.608887 156.0
244.838562 192.0
245.127106 364.0
245.151306 300.0
245.452469 184.0
246.12851 356.0
246.149414 308.0
246.185135 140.0
246.485672 152.0
246.650482 136.0
247.134735 700.0
248.141388 2936.0
248.600815 156.0
248.921036 164.0
248.952026 204.0
249.004379 140.0
249.152817 4028.0
249.210861 112.0
249.289215 160.0
249.497437 96.0
249.668747 152.0
249.707275 136.0
249.760971 172.0
249.882782 112.0
249.944321 204.0
250.027908 128.0
250.158661 2344.0
250.255936 160.0
250.597809 160.0
250.972992 228.0
251.142807 7296.0
251.372421 172.0
251.415482 212.0
251.609543 120.0
251.872269 256.0
251.967773 120.0
252.050659 144.0
252.150711 16836.0
252.296463 104.0
252.386154 144.0
252.509048 156.0
252.582733 148.0
252.662186 136.0
252.741989 120.0
252.798782 152.0
252.890869 112.0
252.938797 276.0
252.988876 156.0
253.03299 180.0
253.080765 120.0
253.158447 66132.0
253.246948 196.0
253.342911 192.0
253.413834 104.0
253.513962 208.0
253.561722 268.0
253.721893 156.0
253.824768 136.0
253.884796 100.0
254.063095 96.0
254.161774 11108.0
254.23436 272.0
254.275894 160.0
254.305481 164.0
254.353424 144.0
254.719131 192.0
254.951202 280.0
255.072861 152.0
255.136124 760.0
255.160599 1452.0
255.257217 104.0
255.298309 136.0
255.431335 184.0
255.462097 140.0
255.608459 148.0
255.707809 272.0
255.908737 144.0
255.959518 112.0
256.041626 108.0
256.087982 240.0
256.119019 248.0
256.166107 404.0
256.347107 100.0
257.007294 152.0
257.125183 140.0
258.026154 152.0
258.09848 148.0
258.124664 416.0
258.185638 104.0
258.242706 148.0
258.318817 160.0
258.39624 124.0
258.576324 152.0
258.923279 152.0
259.13269 752.0
259.233612 196.0
259.726562 176.0
260.107971 172.0
260.145081 1540.0
260.283905 116.0
260.331696 168.0
260.998322 160.0
261.151184 1380.0
261.203583 128.0
261.358582 180.0
262.158722 3188.0
262.441803 100.0
262.527893 144.0
262.603882 248.0
262.7565 232.0
262.908569 156.0
263.133972 744.0
263.166473 8636.0
263.405762 156.0
264.013397 176.0
264.138275 820.0
264.17395 9420.0
264.24173 96.0
264.275421 144.0
264.383026 176.0
265.095551 116.0
265.143005 324.0
265.178009 2232.0
265.545685 188.0
265.81778 156.0
265.872955 148.0
266.02005 124.0
266.150452 808.0
266.181793 412.0
266.22583 128.0
266.264221 116.0
266.660675 160.0
266.753265 108.0
266.814911 156.0
266.945496 128.0
267.103271 256.0
267.141754 684.0
267.173279 1888.0
267.585968 204.0
268.170044 1928.0
268.246979 168.0
268.82132 148.0
269.036743 156.0
269.15274 4400.0
269.527649 240.0
269.784851 244.0
269.968231 136.0
270.154724 912.0
270.183929 1596.0
270.550354 180.0
270.743561 208.0
271.148529 568.0
271.170746 900.0
271.434998 164.0
271.9599 144.0
272.064941 184.0
272.141235 1872.0
272.216064 172.0
272.8638 196.0
272.920044 152.0
273.151398 5064.0
273.562012 160.0
273.727356 144.0
273.90976 152.0
274.157715 3864.0
274.376129 136.0
274.925232 148.0
275.008789 116.0
275.166229 1560.0
275.204498 108.0
275.292297 188.0
275.562897 108.0
275.703278 148.0
275.781769 104.0
276.002136 176.0
276.030243 136.0
276.139252 1124.0
276.172974 1000.0
276.447968 144.0
276.587708 180.0
276.885681 188.0
277.03656 160.0
277.067413 120.0
277.158173 10324.0
277.336273 164.0
277.663666 164.0
277.752045 144.0
278.155701 4888.0
278.250031 124.0
278.291473 124.0
278.39624 96.0
278.771027 232.0
278.927826 172.0
279.162323 5848.0
279.441559 128.0
279.70459 228.0
279.912842 116.0
280.03833 128.0
280.080841 160.0
280.167389 5224.0
280.260742 136.0
280.585876 148.0
280.780762 144.0
280.804108 244.0
280.969788 232.0
281.175293 2040.0
281.361359 152.0
281.611816 160.0
281.726868 144.0
281.846863 188.0
281.942566 148.0
281.965942 148.0
282.061188 172.0
282.131714 284.0
282.18335 2668.0
282.236847 140.0
282.417389 160.0
282.470825 148.0
282.892487 156.0
282.976166 164.0
283.185547 484.0
283.636108 160.0
283.733459 112.0
283.833923 144.0
283.8992 164.0
284.112305 148.0
284.147156 104.0
284.200958 564.0
284.881073 176.0
284.924744 216.0
285.152924 540.0
285.207001 140.0
285.524536 136.0
285.756958 172.0
285.99884 144.0
286.161621 440.0
286.293732 156.0
286.974396 140.0
287.163574 4728.0
287.304596 172.0
287.581604 244.0
287.891205 228.0
288.174011 5212.0
288.250275 196.0
288.990784 160.0
289.177673 1104.0
289.530975 144.0
290.115173 176.0
290.185791 1112.0
290.306793 188.0
290.511963 176.0
290.666321 112.0
290.70874 272.0
291.161652 2728.0
291.193695 748.0
291.266235 172.0
292.169495 4536.0
292.337524 172.0
292.389404 104.0
292.64859 140.0
293.173157 2372.0
293.239594 116.0
293.481018 160.0
293.677063 164.0
293.865936 132.0
293.980957 144.0
294.054138 140.0
294.100281 100.0
294.147919 244.0
294.18399 2736.0
294.398926 196.0
295.045288 192.0
295.081146 128.0
295.169983 43252.0
295.256531 156.0
295.31778 160.0
295.480133 128.0
295.569031 180.0
295.77533 112.0
295.999329 160.0
296.069397 188.0
296.171753 7280.0
296.6008 156.0
296.86972 200.0
297.175598 964.0
297.521637 148.0
297.615692 140.0
297.668091 128.0
297.679657 152.0
297.843323 112.0
297.930939 148.0
298.087097 204.0
298.150513 132.0
298.17926 240.0
298.790253 116.0
298.868896 140.0
299.165955 744.0
299.583099 188.0
300.173615 2816.0
300.243347 204.0
300.302002 148.0
300.471893 144.0
301.002563 160.0
301.141785 200.0
301.179596 2096.0
302.004761 176.0
302.062103 160.0
302.154877 728.0
302.188171 2348.0
302.236572 168.0
302.5065 140.0
302.639282 172.0
302.987885 152.0
303.081421 176.0
303.161987 1168.0
303.195709 2224.0
303.649933 100.0
304.167114 800.0
304.202606 1192.0
305.175171 536.0
305.521057 160.0
305.837097 160.0
305.953705 176.0
306.184204 9508.0
307.188232 2868.0
307.31781 140.0
307.82605 144.0
308.080933 132.0
308.199432 492.0
308.931183 336.0
309.040283 104.0
309.173248 516.0
309.206451 236.0
309.978394 152.0
310.121643 188.0
310.15976 268.0
310.636505 164.0
311.17038 236.0
311.292816 200.0
311.413544 204.0
311.594879 192.0
311.940887 204.0
312.01416 136.0
312.151276 148.0
312.17688 620.0
312.399963 252.0
312.803833 104.0
313.14624 256.0
313.176575 684.0
313.427399 164.0
314.188232 2332.0
315.198212 21340.0
315.305359 156.0
315.42453 216.0
315.52652 184.0
315.568115 120.0
315.657898 228.0
315.779449 180.0
315.886475 148.0
315.922974 204.0
316.088531 96.0
316.202179 11724.0
316.422455 144.0
317.004028 260.0
317.05484 112.0
317.177765 2992.0
317.204742 1960.0
317.468445 212.0
318.00058 224.0
318.181458 1796.0
318.214813 696.0
318.553528 164.0
318.69516 128.0
319.190857 628.0
319.702942 188.0
320.200531 876.0
320.356689 164.0
320.659637 120.0
320.74823 176.0
321.171814 132.0
321.20575 656.0
321.746826 172.0
322.184174 144.0
322.931671 140.0
323.120728 156.0
323.185455 280.0
323.267975 160.0
323.394257 112.0
323.687836 180.0
323.779907 160.0
323.847961 192.0
323.976898 164.0
324.193512 1236.0
324.457123 140.0
324.629242 208.0
325.151459 156.0
325.192841 580.0
325.380829 104.0
325.479675 164.0
326.190247 552.0
326.424255 236.0
326.467865 196.0
326.687286 164.0
327.186432 544.0
327.706116 140.0
327.880127 112.0
328.169525 1244.0
328.201141 584.0
328.239563 216.0
328.603882 140.0
329.047791 156.0
329.177734 1056.0
330.18576 1016.0
330.368774 116.0
330.518921 184.0
331.190216 1004.0
331.362488 140.0
331.906158 144.0
332.107941 100.0
332.200317 1820.0
332.406738 176.0
333.20401 776.0
333.37085 144.0
334.213562 304.0
334.336365 160.0
334.623932 200.0
334.856842 112.0
335.147095 100.0
335.217407 152.0
335.670624 136.0
336.056305 144.0
336.168549 172.0
336.765686 160.0
336.808319 184.0
336.863129 172.0
337.179626 396.0
337.568512 168.0
338.192291 176.0
338.380798 140.0
338.600525 152.0
338.941193 148.0
339.02182 160.0
339.182526 212.0
339.557068 172.0
339.997314 156.0
340.165314 252.0
340.207153 1076.0
340.731689 144.0
341.070312 140.0
341.210022 680.0
341.275635 144.0
341.59082 120.0
341.794586 96.0
342.059265 156.0
342.186707 332.0
342.622681 148.0
343.02356 148.0
343.073517 132.0
343.146027 140.0
343.194092 812.0
343.241974 176.0
343.271393 160.0
343.976074 172.0
344.108673 96.0
344.200592 3104.0
344.430267 228.0
344.707336 148.0
345.207703 1784.0
346.214233 2376.0
346.442596 172.0
346.855011 96.0
347.219971 416.0
347.578522 192.0
348.231506 296.0
348.397644 172.0
348.917938 200.0
349.144745 144.0
349.19812 208.0
349.235748 132.0
349.336517 200.0
349.394226 164.0
349.835205 148.0
350.181335 140.0
350.350739 176.0
350.477417 144.0
350.943329 176.0
351.198853 104.0
351.528931 144.0
351.611053 172.0
352.19397 272.0
352.420654 124.0
354.127228 164.0
354.213959 572.0
354.502991 112.0
354.770233 160.0
354.881683 228.0
355.189148 560.0
355.224365 828.0
356.230591 1000.0
356.611023 140.0
356.746338 176.0
356.844086 96.0
357.206635 352.0
357.244232 184.0
357.383026 108.0
357.491058 156.0
357.940857 96.0
358.150238 140.0
358.21637 20960.0
358.562988 156.0
358.832001 168.0
359.219879 7884.0
359.329346 96.0
359.500793 208.0
359.547913 100.0
359.614716 96.0
360.225861 1432.0
360.291687 176.0
360.532776 124.0
361.217438 168.0
361.242462 272.0
362.165009 192.0
362.245667 180.0
363.045563 152.0
363.21875 296.0
364.239349 144.0
365.083588 212.0
365.21521 232.0
365.928314 188.0
366.202911 164.0
366.257416 136.0
366.671112 176.0
366.951385 156.0
367.140045 148.0
367.346008 212.0
367.446899 180.0
368.203888 328.0
368.548615 192.0
368.668976 104.0
369.20813 380.0
369.644836 156.0
369.837372 140.0
369.917175 132.0
370.036438 168.0
370.20755 216.0
370.253876 336.0
370.921387 192.0
371.203156 156.0
371.261108 320.0
371.430603 96.0
372.037659 204.0
372.16272 116.0
372.230438 2040.0
372.422882 104.0
372.506165 156.0
372.533051 232.0
372.792603 320.0
373.039917 152.0
373.143005 108.0
373.239532 17120.0
373.399139 112.0
373.632538 140.0
373.817139 112.0
373.902649 204.0
374.127777 140.0
374.15979 200.0
374.246338 23112.0
374.457886 240.0
375.13266 164.0
375.164368 144.0
375.250366 5800.0
376.247223 1216.0
376.446259 216.0
376.710876 116.0
376.837921 108.0
376.917511 132.0
377.033508 204.0
377.250092 232.0
377.433685 112.0
377.756866 136.0
378.92804 96.0
379.462433 120.0
379.918091 140.0
380.143982 148.0
380.239075 240.0
380.632233 228.0
380.721558 148.0
381.001221 148.0
381.280975 148.0
381.483856 168.0
381.55542 160.0
381.699921 136.0
382.033722 128.0
382.218018 100.0
382.466431 136.0
382.642426 144.0
383.148712 140.0
383.223145 2676.0
384.22583 896.0
384.516144 188.0
384.572021 148.0
384.640259 124.0
384.853088 216.0
385.226013 224.0
385.390137 128.0
385.746033 100.0
385.965302 124.0
386.091827 148.0
386.210327 588.0
386.749115 144.0
386.887177 120.0
387.212311 208.0
387.254181 156.0
388.227905 292.0
388.264618 276.0
388.795074 140.0
389.006927 184.0
389.466339 172.0
389.956543 168.0
390.197266 140.0
390.240509 160.0
390.295563 144.0
390.668182 108.0
390.732147 184.0
390.763611 168.0
391.07959 216.0
391.201691 164.0
391.30835 196.0
392.133972 208.0
392.202332 128.0
392.254639 592.0
393.256378 584.0
393.377136 140.0
393.440887 136.0
393.652832 196.0
394.567017 164.0
395.985718 160.0
396.106873 140.0
396.221954 108.0
396.267365 168.0
397.175079 128.0
397.746582 180.0
397.802155 148.0
398.039429 168.0
398.247009 5888.0
398.330811 120.0
398.372742 192.0
398.575623 160.0
399.114349 184.0
399.249939 1700.0
399.390411 200.0
399.505463 180.0
399.53479 140.0
400.002625 192.0
400.227142 116.0
400.256165 872.0
401.047974 168.0
401.234741 7860.0
401.311249 180.0
401.571991 112.0
401.954895 100.0
402.237335 2212.0
402.346527 116.0
402.787689 152.0
402.996185 124.0
403.067352 176.0
403.155243 164.0
403.241028 428.0
403.39505 156.0
403.498993 144.0
404.843445 156.0
404.893738 256.0
404.939575 156.0
405.227051 244.0
405.292084 152.0
405.388245 148.0
405.450439 116.0
405.620728 164.0
405.667786 188.0
406.232452 556.0
407.117249 180.0
407.239197 132.0
407.326111 156.0
407.406433 152.0
408.278656 180.0
408.60849 232.0
409.582703 140.0
409.69931 148.0
409.906891 120.0
410.472961 116.0
412.293976 156.0
412.639465 180.0
412.692139 128.0
412.973724 220.0
413.021759 148.0
414.074646 140.0
414.122681 192.0
414.234711 144.0
414.638733 236.0
414.716583 192.0
414.745972 168.0
414.833862 132.0
414.892029 144.0
414.923126 120.0
415.062134 180.0
415.110077 112.0
415.190948 144.0
415.240509 120.0
415.352783 216.0
415.457855 200.0
415.526459 140.0
415.562775 148.0
415.651031 144.0
415.805603 120.0
415.846985 96.0
415.960388 108.0
416.003235 200.0
416.050507 132.0
416.091003 124.0
416.132874 204.0
416.259827 117724.0
416.36377 224.0
416.537231 144.0
416.679474 208.0
416.7883 240.0
416.87561 116.0
416.926422 660.0
416.997986 332.0
417.087372 128.0
417.126312 192.0
417.182495 320.0
417.262177 43288.0
417.491638 116.0
417.711731 148.0
417.793243 208.0
417.833954 144.0
417.917389 156.0
418.024139 288.0
418.160278 124.0
418.251312 4112.0
418.372589 132.0
418.837708 164.0
419.021149 144.0
419.243591 1432.0
419.529297 224.0
419.560364 244.0
419.642609 108.0
419.675873 116.0
419.801788 132.0
419.855957 116.0
419.889282 148.0
419.926666 128.0
420.027679 104.0
420.089172 104.0
420.241852 724.0
420.480133 100.0
420.51358 140.0
420.609283 100.0
420.971619 180.0
421.036743 192.0
421.247101 128.0
421.600525 148.0
422.455078 140.0
422.57782 144.0
423.136078 100.0
423.228577 148.0
423.526398 104.0
424.654694 176.0
425.216766 172.0
425.800812 140.0
426.991608 148.0
427.172607 100.0
427.217041 144.0
428.564117 168.0
428.863098 116.0
429.137024 260.0
429.318481 236.0
429.570068 208.0
429.813477 152.0
429.875366 156.0
430.67218 140.0
432.042633 164.0
432.240326 176.0
432.962341 120.0
433.255859 104.0
433.284454 132.0
433.421387 176.0
433.849274 148.0
433.872528 192.0
434.268066 3980.0
434.609131 156.0
434.993683 108.0
435.269653 932.0
435.433228 100.0
435.754486 112.0
436.278473 360.0
436.573456 104.0
437.13858 220.0
437.362854 104.0
437.988159 156.0
438.034424 120.0
438.149811 140.0
438.836761 136.0
440.257629 132.0
440.44165 176.0
442.859283 140.0
443.818939 184.0
444.269257 116.0
444.343231 204.0
445.023132 160.0
445.174316 180.0
445.62796 140.0
446.235016 156.0
446.460236 152.0
446.499481 120.0
446.653717 160.0
447.021942 152.0
447.112305 148.0
447.356445 140.0
447.777496 152.0
448.063934 156.0
448.607574 156.0
448.995483 140.0
450.734711 140.0
450.776398 148.0
451.11087 200.0
451.189484 108.0
451.571777 172.0
451.673279 156.0
452.714447 152.0
452.879608 148.0
452.931396 124.0
453.144257 128.0
453.231232 144.0
453.406372 204.0
453.807678 148.0
453.974976 140.0
454.325073 176.0
454.823761 140.0
454.880981 188.0
456.095856 144.0
456.217896 152.0
456.618805 148.0
457.011871 140.0
457.180389 300.0
457.682678 140.0
457.823212 176.0
458.110138 220.0
458.268433 556.0
459.186981 172.0
459.272797 204.0
459.605316 128.0
459.730011 152.0
460.00415 264.0
460.280914 116.0
460.456573 152.0
461.121033 172.0
461.256409 944.0
461.550018 140.0
461.928589 152.0
462.257111 708.0
462.474792 100.0
463.040039 112.0
463.836151 116.0
464.559387 148.0
465.321381 144.0
465.747131 172.0
465.820343 140.0
466.130768 188.0
466.281189 152.0
467.14975 164.0
467.22287 148.0
467.729462 128.0
468.601959 112.0
468.732513 148.0
468.958221 240.0
469.271057 120.0
469.505768 192.0
469.882721 236.0
470.448242 196.0
470.543365 112.0
470.604218 180.0
470.971588 108.0
471.456726 148.0
471.686157 144.0
471.815857 196.0
471.859192 152.0
472.042023 168.0
472.145691 152.0
472.307159 104.0
472.486328 148.0
472.545959 140.0
472.706116 212.0
472.779419 212.0
472.827881 244.0
472.87738 108.0
472.989624 188.0
473.272034 328.0
473.602936 168.0
473.670715 108.0
473.743286 136.0
473.778351 96.0
473.856506 196.0
473.899017 192.0
474.012421 124.0
474.067078 444.0
474.11438 160.0
474.207336 108.0
474.256866 248.0
474.341095 184.0
474.391998 148.0
474.469269 176.0
474.508514 184.0
474.61261 196.0
474.663788 308.0
474.727325 144.0
474.804565 300.0
474.833038 244.0
474.865173 164.0
474.917877 248.0
474.976593 208.0
475.040558 112.0
475.089661 252.0
475.189606 13212.0
475.268066 584.0
475.327087 356.0
475.428619 372.0
475.486786 196.0
475.545746 296.0
475.59903 348.0
475.664185 188.0
475.714325 440.0
475.779266 140.0
475.853058 344.0
475.904144 488.0
475.953094 444.0
476.034241 292.0
476.068756 244.0
476.152557 592.0
476.193481 4740.0
476.281921 229356.0
476.416382 220.0
476.447266 320.0
476.492828 144.0
476.600159 204.0
476.687805 1196.0
476.734863 600.0
476.822632 712.0
476.912964 280.0
476.940704 560.0
477.005035 7096.0
477.052826 1076.0
477.083984 1192.0
477.15863 588.0
477.190796 864.0
477.22168 388.0
477.284668 193784.0
477.439087 204.0
477.530273 164.0
477.574158 156.0
477.624237 152.0
477.679352 908.0
477.721222 448.0
477.775452 540.0
477.922546 176.0
478.003357 1088.0
478.047241 484.0
478.111786 208.0
478.157867 264.0
478.18689 360.0
478.287018 35300.0
478.4104 200.0
478.459625 152.0
478.528198 136.0
478.572296 228.0
478.635254 120.0
478.731384 252.0
478.784454 100.0
478.983032 128.0
479.050568 352.0
479.094177 176.0
479.200348 128.0
479.28833 3024.0
479.392426 172.0
479.44873 196.0
479.51474 140.0
479.568085 136.0
479.654999 260.0
479.745148 344.0
479.813934 240.0
479.865051 400.0
479.93985 164.0
479.997681 168.0
480.07019 220.0
480.115875 308.0
480.176178 224.0
480.21283 280.0
480.290985 412.0
480.361206 220.0
480.436951 136.0
480.472534 328.0
480.511932 156.0
480.570831 224.0
480.672394 220.0
480.734711 228.0
480.804016 280.0
480.86377 208.0
480.939941 188.0
480.981781 284.0
481.027924 196.0
481.103271 160.0
481.161133 312.0
481.207062 276.0
481.256409 148.0
481.330414 312.0
481.410614 228.0
481.484924 172.0
481.531128 116.0
481.934814 120.0
482.052643 116.0
482.100952 232.0
482.173553 108.0
482.374939 132.0
482.48999 112.0
483.069031 104.0
483.156769 176.0
483.441528 120.0
483.616852 96.0
484.054688 128.0
488.391418 140.0
489.493683 112.0
491.05304 120.0
491.309296 172.0
492.412201 128.0
492.625122 140.0
493.198883 2008.0
494.202393 624.0
494.808533 112.0
495.217072 140.0
495.437988 104.0
495.589935 132.0
496.445892 124.0
497.093201 96.0
498.70697 140.0
501.504211 104.0
506.392761 140.0
517.311462 360.0
518.301636 128.0
518.477112 108.0
558.538879 108.0
591.219299 120.0
597.954651 140.0
603.144226 156.0
608.670471 144.0
613.487183 152.0
621.09082 112.0
632.797363 96.0
638.412048 96.0
642.221008 236.0
655.055481 168.0
656.762329 104.0
682.570129 216.0
705.228088 144.0
780.352051 96.0
803.335815 128.0
857.003296 148.0
875.96167 156.0
882.053406 128.0
960.328369 140.0
1002.620117 168.0
1003.363892 152.0
1005.956726 224.0
1039.762329 160.0
1112.306396 196.0
1113.827026 208.0
1122.21228 176.0
1123.325928 144.0
1164.283936 148.0
1175.495972 232.0
1190.57019 168.0
1192.995605 140.0
1206.867065 152.0
1208.492554 208.0
1222.871094 168.0
1226.012085 148.0
1258.843628 216.0
1261.083252 168.0
1261.613403 160.0
1277.334839 192.0
1304.875122 152.0
1321.174438 116.0
1323.511963 176.0
1331.052979 156.0
1349.45105 148.0
1351.996582 164.0
1356.427734 152.0
1357.901611 168.0
1363.062378 140.0
1364.605957 164.0
1366.341675 148.0
1371.437378 160.0
1375.295044 144.0
1375.420532 200.0
1377.694824 144.0
1382.449097 196.0
1388.939331 176.0
1401.995972 180.0
1405.305908 196.0
1406.290894 192.0
1408.232178 168.0
1410.428833 148.0
1412.627319 144.0
1420.687866 160.0
1424.531372 152.0
1427.710693 160.0
1432.255371 120.0
1434.502197 232.0
1436.862671 180.0
1439.844238 192.0
1450.360229 184.0
1459.706787 220.0
1463.922485 168.0
1475.6427 144.0
1482.102661 160.0
1482.746338 176.0
1495.896118 196.0
1501.628784 140.0
1511.060669 172.0
1516.89978 152.0
1524.653687 176.0
1527.756104 244.0
1528.752075 156.0
1530.020752 164.0
1532.505249 176.0
1537.285156 144.0
1538.565186 276.0
1539.603638 144.0
1545.388184 192.0
1548.636841 204.0
1552.586914 212.0
1553.991089 144.0
1559.692383 208.0
1568.311279 168.0
1610.276245 140.0
1613.225586 176.0
1615.759766 144.0
1622.783691 160.0
1622.847778 200.0
1624.098877 140.0
1629.091675 236.0
1629.734375 188.0
1630.827393 156.0
1632.941895 140.0
1633.794556 184.0
1635.830566 208.0
1641.800903 184.0
1643.890381 144.0
1646.58667 224.0
1649.657104 168.0
1650.946533 204.0
1651.193359 148.0
1656.203369 180.0
1660.67749 160.0
1667.326904 172.0
1671.864868 248.0
1679.368408 160.0
1680.894043 148.0
1683.326538 200.0
1684.028931 228.0
1687.420166 208.0
1687.53894 144.0
1691.608765 228.0
1695.835327 164.0
1697.015869 140.0
1699.016968 144.0
1703.014648 184.0
1713.700684 152.0
1722.875 156.0
1723.288086 144.0
1726.048706 164.0
1729.424072 144.0
1737.652954 180.0
1743.191162 180.0
1744.484985 144.0
1746.441772 272.0
1747.856079 140.0
1748.072388 172.0
1749.121094 236.0
1751.027832 144.0
1755.803223 160.0
1756.592651 124.0
1759.885254 184.0
1760.576904 212.0
1768.795654 140.0
1773.461182 172.0
1778.241943 188.0
1781.256348 168.0
1787.477783 160.0
1794.156982 160.0
1797.252197 144.0
1800.82312 160.0
1805.936646 184.0
1806.165039 164.0
1810.896484 212.0
1811.87915 140.0
1818.654541 144.0
1820.462891 172.0
1823.351318 204.0
1824.005737 152.0
1824.940918 164.0
1825.821655 140.0
1832.967529 168.0
1833.316895 160.0
1833.632324 200.0
1834.220337 160.0
1835.917114 144.0
1840.678711 160.0
1847.807251 160.0
1851.116699 160.0
1852.335815 200.0
1852.481445 144.0
1853.127808 140.0
1856.698486 184.0
1860.250732 140.0
1861.469971 164.0
1866.041138 220.0
1866.290405 188.0
1869.817383 148.0
1870.807251 176.0
1871.013794 212.0
1872.417358 152.0
1873.330444 204.0
1874.890015 188.0
1878.321533 148.0
1881.460083 204.0
1882.386475 172.0
1888.885864 212.0
1894.38269 148.0
1894.763794 184.0
1896.028931 192.0
1896.592285 180.0
1901.640259 148.0
1903.194214 140.0
1905.556641 176.0
1905.704346 176.0
1910.538208 212.0
1911.24292 176.0
1912.052246 180.0
1913.915161 148.0
1914.481201 144.0
1922.527588 176.0
1924.57019 148.0
1929.200684 172.0
1932.104126 184.0
1936.656006 264.0
1937.55835 224.0
1939.714111 144.0
1939.863037 248.0
1947.084229 168.0
1949.561768 144.0
1952.506836 192.0
1954.213257 180.0
1954.679688 140.0
1959.020264 156.0
1962.483765 152.0
1965.094482 156.0
1970.480225 140.0
1973.936157 256.0
1985.643555 144.0
1988.775513 152.0
1990.30249 256.0
1991.758911 160.0
1992.469604 172.0
2001.274658 180.0
2003.01123 144.0
2003.100342 156.0
