>compound MLS002153476-01!Quipazine maleate salt5786-68-5
>formula C13H15N3
>ionization [M+H]+
>parentmass 214.13387393209052
#inchi InChI=1S/C13H15N3/c1-2-4-12-11(3-1)5-6-13(15-12)16-9-7-14-8-10-16/h1-6,14H,7-10H2
#inchikey XRXDAJYKGWNHTQ
#origInchi InChI=1S/C13H15N3.C4H4O4/c1-2-4-12-11(3-1)5-6-13(15-12)16-9-7-14-8-10-16;5-3(6)1-2-4(7)8/h1-6,14H,7-10H2;1-2H,(H,5,6)(H,7,8)/p-2/b;2-1-
#Ion_Source LC-ESI
#Instrument qTof
#Compound_Source NIH Pharmacologically Active Library
#PI Dorrestein
#Data_Collector VP/LMS
#Scan -1
#Precursor_MZ 214.138
#ExactMass 213.127
#Charge 1
#CAS_Number N/A
#Pubmed_ID N/A
#Smiles C1CN(CCN1)c2ccc3ccccc3n2.[O-]C(=O)/C=C\C(=O)[O-]
#INCHI_AUX N/A
#Library_Class 1
#SpectrumID CCMSLIB00000086072
#IonMode Positive
#UpdateWorkflowName UPDATE-SINGLE-ANNOTATED-GOLD
#LibraryQualityString Gold
#TaskID d252d724072548979f1f6f1ced849daf
##Scan# 215
#SpectrumFile p5-D03_GD3_01_18454.mzXML
#LibraryName Pharm_Active_Library.mgf
#MQScore -1
#Organism Pharm_Active_Library
#TIC_Query 0
#RT_Query -1
#MZErrorPPM -1
#SharedPeaks 0
#MassDiff 0
#LibMZ -1
#SpecMZ 214.138
#SpecCharge 0
#internalFilename spec-00000.mgf

>collision 10
45.151657 132.0
45.18911 160.0
45.392704 188.0
45.486614 224.0
45.56316 168.0
46.058884 152.0
46.532852 68.0
47.969315 236.0
48.994793 156.0
49.090965 172.0
49.651741 172.0
49.703644 212.0
50.568913 172.0
50.862309 120.0
51.654564 216.0
52.41835 216.0
52.546677 184.0
52.81826 72.0
55.902447 228.0
56.315403 168.0
56.617508 148.0
56.66544 160.0
57.085712 116.0
59.607685 176.0
60.134361 212.0
60.841751 220.0
61.090393 136.0
63.471439 56.0
64.255554 180.0
64.583031 164.0
64.714249 200.0
65.72847 156.0
66.274986 152.0
66.781471 176.0
67.517014 120.0
68.473801 172.0
69.319618 188.0
69.82428 156.0
70.188972 164.0
71.129189 156.0
73.150902 124.0
73.321228 56.0
73.665886 132.0
74.045593 188.0
74.264977 176.0
74.768364 184.0
75.221657 164.0
75.326996 96.0
77.165634 204.0
77.326569 52.0
78.049309 240.0
78.607689 220.0
79.673561 72.0
79.933144 224.0
80.084465 156.0
80.239494 196.0
81.188957 132.0
81.350433 96.0
81.790833 60.0
83.086494 136.0
83.813744 204.0
84.624702 140.0
84.809715 208.0
85.529732 136.0
86.034805 248.0
86.237991 220.0
86.291603 200.0
86.393318 112.0
87.116287 164.0
87.821754 112.0
88.101746 104.0
88.197044 208.0
88.425224 204.0
88.597496 132.0
89.006355 160.0
89.055183 196.0
89.7873 152.0
90.270737 124.0
90.418289 136.0
91.778412 156.0
91.814636 220.0
92.37809 132.0
92.803238 152.0
93.31395 128.0
93.781715 196.0
94.015076 172.0
95.104683 52.0
95.658653 232.0
96.175194 176.0
96.4897 188.0
97.267403 100.0
98.436844 152.0
98.594879 220.0
99.093521 160.0
100.086609 196.0
100.616951 196.0
100.85466 244.0
101.037682 492.0
101.379013 220.0
101.585526 156.0
101.730003 72.0
101.912758 60.0
102.160042 144.0
104.908081 132.0
105.516441 92.0
105.610504 176.0
106.07325 136.0
106.272179 60.0
107.669868 160.0
108.284103 272.0
108.402184 152.0
108.433266 160.0
109.363731 88.0
110.980637 140.0
111.602119 120.0
112.370872 140.0
113.383728 200.0
113.606361 228.0
114.829414 64.0
114.93821 248.0
115.002228 136.0
115.055595 176.0
115.343979 108.0
115.425217 212.0
116.043999 52.0
116.063301 128.0
116.709587 36.0
117.064285 200.0
117.415894 96.0
117.843292 156.0
118.420868 212.0
118.488014 204.0
118.852257 64.0
119.534546 160.0
121.110771 132.0
121.582138 148.0
121.931328 224.0
122.730392 200.0
122.973053 148.0
123.193855 124.0
124.00148 256.0
125.094284 64.0
127.05188 176.0
127.202225 204.0
127.296524 136.0
127.644814 188.0
127.777519 232.0
127.863022 204.0
128.05043 11476.0
128.108444 112.0
128.137741 80.0
128.272949 68.0
128.290985 100.0
128.579697 48.0
128.622574 172.0
128.898102 80.0
128.952332 88.0
129.00885 64.0
129.054901 1428.0
129.095367 180.0
129.115112 56.0
129.162613 156.0
129.672043 48.0
129.694717 56.0
130.062714 520.0
131.067337 84.0
131.50975 52.0
131.605621 112.0
132.435745 188.0
134.15451 68.0
134.265182 128.0
134.373596 52.0
134.629807 88.0
134.874695 224.0
135.386002 132.0
135.541214 200.0
136.07225 184.0
136.186127 64.0
137.807465 100.0
137.93132 236.0
138.354721 76.0
138.729538 148.0
139.273926 68.0
139.464249 52.0
139.908829 156.0
141.164032 228.0
142.060455 140.0
143.074753 356.0
143.091324 208.0
143.16449 40.0
143.738983 100.0
144.08139 1972.0
144.324188 164.0
144.374405 112.0
144.563385 152.0
144.788406 68.0
145.078171 1096.0
145.116684 164.0
145.884918 116.0
145.96907 120.0
146.060455 1372.0
146.147064 28.0
146.303497 64.0
146.3974 44.0
146.503372 104.0
147.031418 156.0
147.063644 372.0
147.37915 48.0
147.579758 32.0
147.957184 144.0
150.952316 188.0
151.258133 40.0
152.668884 140.0
153.264572 144.0
154.064941 304.0
154.259155 156.0
155.062347 324.0
155.892456 180.0
156.054016 136.0
156.081375 96.0
156.681183 104.0
156.977783 100.0
157.077652 248.0
158.081894 176.0
158.319717 192.0
160.085098 180.0
160.657227 232.0
161.045959 144.0
161.29863 108.0
163.716522 160.0
164.621811 188.0
166.072876 60.0
166.889496 152.0
167.072098 132.0
167.63356 184.0
167.97113 64.0
168.084641 160.0
169.07753 948.0
169.190826 48.0
170.080933 276.0
170.116302 172.0
170.446136 80.0
170.893356 244.0
171.092224 9660.0
171.138 44.0
171.156235 132.0
171.226547 56.0
171.25502 120.0
171.29686 104.0
171.432343 80.0
171.55484 44.0
171.665878 68.0
171.781708 52.0
172.094925 936.0
172.209778 76.0
172.593933 84.0
172.831955 28.0
173.096985 204.0
173.325638 124.0
173.408066 128.0
173.463104 68.0
173.486694 64.0
174.99205 168.0
179.088699 160.0
179.531113 96.0
180.072861 80.0
181.07579 160.0
181.31691 144.0
181.542099 60.0
182.076736 248.0
183.084244 172.0
184.089111 176.0
185.09433 168.0
185.123474 80.0
186.058899 52.0
190.24118 44.0
195.09494 168.0
197.107697 880.0
197.772797 68.0
198.102646 176.0
198.902374 60.0
207.779327 164.0
210.947067 152.0
212.126236 192.0
212.957962 220.0
214.139313 548.0
214.304825 32.0
215.14183 160.0
258.963501 76.0
309.853394 80.0
318.997131 44.0
323.141083 52.0
402.089325 72.0
557.194946 88.0
777.802246 112.0
798.1828 96.0
892.913147 176.0
906.374451 208.0
947.656738 228.0
952.294312 52.0
970.244568 212.0
975.334717 84.0
1025.680786 124.0
1030.090088 228.0
1073.749634 116.0
1083.240112 192.0
1104.382324 228.0
1147.252686 168.0
1147.616821 196.0
1154.63269 80.0
1186.287231 176.0
1205.42749 180.0
1206.609375 160.0
1209.83313 132.0
1220.051636 128.0
1236.772095 152.0
1247.623657 184.0
1249.62793 36.0
1267.895264 248.0
1276.278564 140.0
1279.038818 192.0
1292.255127 172.0
1302.290894 128.0
1303.231934 144.0
1304.130249 172.0
1306.718994 148.0
1314.464478 200.0
1326.854126 196.0
1337.190552 184.0
1346.069702 172.0
1348.772705 380.0
1358.247559 192.0
1359.047241 180.0
1360.419678 256.0
1384.996582 120.0
1397.133301 252.0
1399.403198 148.0
1403.679932 208.0
1405.208984 152.0
1406.380615 136.0
1415.913086 164.0
1430.998535 52.0
1436.009521 172.0
1449.45813 160.0
1450.534302 128.0
1461.782104 96.0
1462.337646 180.0
1465.246338 132.0
1468.569946 184.0
1476.390381 136.0
1477.782471 188.0
1483.212036 212.0
1489.281128 228.0
1491.755371 228.0
1497.626343 136.0
1500.81665 192.0
1504.751465 224.0
