>compound GLIMEPIRIDE
>formula C24H34N4O5S
>ionization [M+Na]+
>parentmass 513.2142118880905
#inchi InChI=1S/C24H34N4O5S/c1-4-21-17(3)15-28(22(21)29)24(31)25-14-13-18-7-11-20(12-8-18)34(32,33)27-23(30)26-19-9-5-16(2)6-10-19/h7-8,11-12,16,19H,4-6,9-10,13-15H2,1-3H3,(H,25,31)(H2,26,27,30)/t16-,19-
#inchikey WIGIZIANZCJQQY
#Ion_Source LC-ESI
#Instrument qTof
#Compound_Source Commercial
#PI Dorrestein
#Data_Collector Garg_Neha
#Scan -1
#Precursor_MZ 513.214
#ExactMass 490.225
#Charge 1
#CAS_Number N/A
#Pubmed_ID N/A
#Smiles CCC1=C(C)CN(C(=O)NCCc2ccc(cc2)S(=O)(=O)NC(=O)N[C@H]3CC[C@H](C)CC3)C1=O
#INCHI_AUX N/A
#Library_Class 1
#SpectrumID CCMSLIB00000079242
#IonMode Positive
#UpdateWorkflowName UPDATE-SINGLE-ANNOTATED-GOLD
#LibraryQualityString Gold
#TaskID 278b19f5865741e282cec7349aa7e7a1
##Scan# 2085
#SpectrumFile NCP003672_E27F27G26H26_BE5_01_15741.mzXML
#LibraryName NIHcollectionI_05062014.mgf
#MQScore -1
#Organism NIHcollectionI_05062014
#TIC_Query 0
#RT_Query -1
#MZErrorPPM -1
#SharedPeaks 0
#MassDiff 0
#LibMZ -1
#SpecMZ 513.214
#SpecCharge 0
#internalFilename spec-00000.mgf

>collision 10
50.313877 176.0
58.227779 204.0
58.852131 172.0
109.618523 188.0
114.124779 152.0
115.126892 192.0
126.093224 192.0
128.098312 184.0
148.074692 792.0
152.727142 148.0
163.927353 140.0
164.044601 240.0
168.024765 148.0
172.452301 148.0
179.914978 184.0
181.098434 180.0
182.043594 152.0
192.308212 184.0
195.542679 184.0
204.54451 164.0
205.564819 188.0
213.557678 192.0
216.15918 148.0
220.7659 164.0
226.552155 148.0
226.953766 168.0
228.341125 192.0
231.7341 156.0
236.138931 184.0
248.50293 172.0
249.031006 1736.0
250.031586 684.0
251.032898 324.0
256.099518 188.0
259.02536 172.0
259.220795 156.0
266.00354 216.0
267.586731 196.0
274.246582 148.0
277.413239 160.0
278.086578 136.0
283.012817 120.0
284.01236 140.0
291.578796 240.0
294.898407 188.0
300.116425 140.0
305.648071 196.0
308.563904 212.0
317.34845 140.0
335.433197 160.0
336.348755 160.0
345.332581 148.0
346.172668 160.0
349.49115 148.0
351.682404 156.0
352.122864 160.0
352.754425 140.0
353.974091 144.0
371.109589 156.0
371.61203 192.0
373.282867 200.0
373.467468 152.0
373.675201 164.0
373.717529 148.0
374.115356 18432.0
375.118317 2312.0
376.11795 1572.0
376.160889 176.0
377.118256 292.0
378.103271 232.0
378.269379 96.0
379.110504 188.0
384.095734 772.0
384.596588 676.0
385.603424 188.0
386.09375 144.0
386.592865 184.0
387.818695 140.0
388.130798 984.0
389.137115 560.0
390.081146 132.0
393.064941 140.0
396.751129 144.0
397.076447 212.0
397.135773 144.0
397.58609 268.0
398.095032 348.0
398.576843 148.0
399.069733 144.0
400.09549 8796.0
400.288269 136.0
400.551483 108.0
401.020325 192.0
401.097992 2208.0
402.099182 240.0
403.093262 120.0
403.127502 148.0
404.023132 140.0
404.111145 224.0
406.752106 252.0
408.091492 596.0
409.10083 168.0
410.122833 176.0
411.53476 144.0
411.631653 152.0
411.837646 180.0
416.345367 148.0
423.11499 172.0
430.684662 176.0
437.20636 204.0
438.096436 104.0
440.107117 132.0
440.660065 164.0
441.651306 176.0
443.039429 160.0
443.160919 168.0
444.578217 160.0
446.662231 192.0
447.137604 180.0
447.179688 168.0
448.139801 164.0
450.347778 148.0
453.645142 1104.0
454.149139 432.0
454.401428 144.0
454.647888 476.0
455.138153 180.0
455.648621 168.0
455.704865 156.0
457.712463 164.0
460.010437 180.0
465.12146 180.0
469.630768 144.0
474.898895 180.0
476.088043 164.0
485.887329 196.0
488.623291 144.0
495.121918 144.0
495.214935 160.0
497.933685 240.0
498.906769 152.0
501.083038 176.0
501.791656 140.0
506.716827 168.0
508.770844 160.0
509.58374 208.0
511.739502 152.0
511.95874 140.0
512.295715 108.0
512.40918 148.0
512.62323 200.0
512.824097 228.0
513.051025 124.0
513.108032 156.0
513.216492 85132.0
513.369934 176.0
513.549377 136.0
513.621826 148.0
513.668884 208.0
513.849731 176.0
513.956299 108.0
514.096619 204.0
514.218811 19972.0
514.364502 128.0
514.49762 184.0
514.599426 96.0
514.662048 184.0
514.789246 164.0
514.915527 136.0
515.101318 116.0
515.217102 6392.0
515.316101 204.0
515.377502 96.0
515.598755 172.0
516.21637 1144.0
516.674622 104.0
516.757507 144.0
516.809204 148.0
516.934265 136.0
517.101929 108.0
517.161377 120.0
517.220337 192.0
517.300781 96.0
517.338989 140.0
517.374512 136.0
517.447266 112.0
517.927795 120.0
518.355347 164.0
529.180908 636.0
530.19696 476.0
531.166687 188.0
533.173157 140.0
535.196228 156.0
545.147034 220.0
547.199524 368.0
705.191528 140.0
1435.491455 216.0
1614.736816 140.0
