>compound rel -Methylenedioxy-tetramethoxy-epoxylignan
>formula C23H28O7
>ionization [M+H]+
>parentmass 417.1907796880905
#inchi InChI=1S/C23H28O7/c1-12-13(2)21(15-9-18(26-5)23-19(10-15)28-11-29-23)30-20(12)14-7-16(24-3)22(27-6)17(8-14)25-4/h7-10,12-13,20-21H,11H2,1-6H3/t12-,13-,20+,21-/m0/s1
#inchikey RKSBJQZDPAGEQW
#Ion_Source DI-ESI
#Instrument qTof
#Compound_Source Isolated
#PI Norberto Lopes
#Data_Collector Denise Silva
#Scan -1
#Precursor_MZ 417.182
#ExactMass 416.184
#Charge 1
#CAS_Number 1009642-55-0
#Pubmed_ID  
#Smiles COC1=C(OC)C=C([C@H]2[C@@H](C)[C@H](C)[C@@H](C3=CC(OC)=C(OCO4)C4=C3)O2)C=C1OC
#INCHI_AUX  
#Library_Class 3
#SpectrumID CCMSLIB00000081297
#IonMode Positive
#UpdateWorkflowName UPDATE-SINGLE-ANNOTATED-BRONZE
#LibraryQualityString Bronze
#TaskID 4289e052252b4b6b8ca74c71b842f49a
##Scan# 1
#SpectrumFile gnps_rel_7R_8S_7_S_8_S_4_5_methylenedioxy_3_4_5_3_tetramethoxy_7_7_epoxylignan_pos_MplusH.mgf
#LibraryName gnps_library.mgf
#MQScore -1
#Organism gnps_library
#TIC_Query 0
#RT_Query -1
#MZErrorPPM -1
#SharedPeaks 0
#MassDiff 0
#LibMZ -1
#SpecMZ 417.182
#SpecCharge 0
#internalFilename spec-00000.mgf

>collision 10
153.051086 245.0
154.056488 189.0
165.049225 5443.0
166.054794 559.0
169.082123 1033.0
173.091934 375.0
179.063385 2746.0
180.056168 433.0
181.079987 6131.0
182.082642 380.0
191.09758 128.0
193.080383 1926.0
194.087708 257.0
195.093765 3811.0
196.086853 424.0
197.075546 2594.0
198.078781 154.0
200.077927 104.0
201.083847 1263.0
205.077667 119.0
209.110123 2825.0
210.113449 239.0
213.922043 256.0
216.108109 812.0
217.109772 196.0
219.093933 563.0
221.110458 794.0
225.102753 640.0
231.093735 17005.0
232.098846 1751.0
233.108627 155.0
235.126053 130.0
237.142548 883.0
247.126831 7558.0
249.103058 9166.0
251.121445 158.0
254.383835 432.0
265.136627 7738.0
270.428772 221.0
343.107361 129.0
367.144257 103.0
369.158386 129.0
385.155701 768.0
399.172821 4675.0
417.18222 3428.0
