>compound MLS000028625-01!569-57-3
>formula C23H21ClO3
>ionization [M+H]+
>parentmass 381.12519866409053
#inchi InChI=1S/C23H21ClO3/c1-25-19-10-4-16(5-11-19)22(17-6-12-20(26-2)13-7-17)23(24)18-8-14-21(27-3)15-9-18/h4-15H,1-3H3
#inchikey BFPSDSIWYFKGBC
#Ion_Source LC-ESI
#Instrument qTof
#Compound_Source NIH Pharmacologically Active Library
#PI Dorrestein
#Data_Collector VP/LMS
#Scan -1
#Precursor_MZ 381.128
#ExactMass 380.118
#Charge 1
#CAS_Number N/A
#Pubmed_ID N/A
#Smiles COc1ccc(cc1)C(=C(c2ccc(OC)cc2)c3ccc(OC)cc3)Cl
#INCHI_AUX N/A
#Library_Class 3
#SpectrumID CCMSLIB00000084812
#IonMode Positive
#UpdateWorkflowName UPDATE-SINGLE-ANNOTATED-BRONZE
#LibraryQualityString Bronze
#TaskID d252d724072548979f1f6f1ced849daf
##Scan# 2885
#SpectrumFile p3-B02_GB2_01_18235.mzXML
#LibraryName Pharm_Active_Library.mgf
#MQScore -1
#Organism Pharm_Active_Library
#TIC_Query 0
#RT_Query -1
#MZErrorPPM -1
#SharedPeaks 0
#MassDiff 0
#LibMZ -1
#SpecMZ 381.128
#SpecCharge 0
#internalFilename spec-00000.mgf

>collision 10
45.055885 108.0
48.132698 148.0
50.609238 224.0
52.96088 176.0
52.997097 140.0
54.042538 168.0
54.071804 108.0
55.129219 164.0
55.776905 224.0
57.881886 160.0
58.169945 48.0
58.218533 88.0
60.381035 128.0
60.459938 152.0
66.297264 112.0
67.385857 176.0
68.400986 168.0
68.539322 188.0
69.810631 232.0
70.454002 152.0
71.6586 140.0
72.014534 116.0
73.319229 100.0
76.528572 148.0
78.482239 84.0
78.780502 108.0
79.339722 160.0
81.308975 164.0
81.36821 164.0
81.82666 40.0
83.329613 140.0
84.428772 180.0
84.959953 56.0
85.704559 80.0
90.874901 116.0
91.026749 228.0
96.977119 136.0
97.01828 64.0
98.091606 204.0
98.170471 40.0
103.917747 212.0
105.530838 76.0
105.841843 156.0
106.040558 100.0
106.728256 192.0
106.820801 168.0
107.051315 172.0
107.304749 240.0
107.488319 96.0
107.97171 136.0
109.301422 176.0
113.373291 112.0
113.801773 144.0
115.228752 160.0
119.171631 136.0
121.06601 316.0
123.264793 68.0
123.326668 144.0
123.384148 228.0
123.970695 96.0
124.616394 192.0
124.694168 164.0
124.967682 148.0
125.446495 128.0
125.471016 124.0
127.04541 160.0
127.065598 152.0
135.050735 172.0
135.717682 132.0
136.607162 176.0
137.611603 116.0
139.659729 176.0
141.069809 124.0
141.377289 152.0
142.28035 176.0
142.563004 164.0
142.624786 48.0
143.031525 56.0
143.569977 192.0
147.010086 160.0
147.121109 124.0
149.138901 116.0
149.937195 164.0
150.444519 72.0
150.876923 132.0
152.068069 212.0
153.531204 164.0
154.093994 240.0
154.244736 176.0
154.988235 140.0
155.024338 152.0
155.155701 140.0
156.203644 168.0
158.2901 172.0
158.412811 104.0
162.306671 148.0
164.068588 208.0
164.790848 96.0
165.064331 184.0
166.078476 136.0
166.396667 76.0
166.979965 176.0
167.157471 136.0
167.734375 184.0
167.847809 124.0
168.06189 196.0
168.317429 132.0
169.067062 156.0
169.592819 180.0
171.089401 304.0
171.990952 200.0
173.204178 132.0
173.300034 148.0
177.065399 60.0
177.091888 172.0
178.075867 160.0
179.051926 144.0
179.382309 248.0
181.80014 128.0
184.174728 48.0
185.337982 200.0
185.476196 232.0
185.573792 96.0
186.360886 120.0
188.871643 180.0
189.534149 112.0
192.551865 204.0
193.066284 224.0
194.067612 188.0
195.000992 252.0
195.079956 1072.0
196.089386 524.0
197.091003 208.0
197.633438 208.0
198.005753 80.0
198.072968 180.0
199.07338 632.0
199.293304 144.0
200.077972 296.0
201.462631 148.0
205.069107 160.0
206.065002 132.0
206.948776 168.0
207.046127 244.0
207.081833 132.0
208.077698 168.0
209.058884 260.0
209.100174 144.0
209.265778 160.0
209.977524 160.0
210.058273 116.0
210.092896 32.0
210.613312 124.0
211.47699 132.0
212.540527 160.0
214.311249 244.0
215.025681 156.0
215.084045 156.0
216.045425 188.0
216.090286 344.0
216.953247 132.0
218.515625 124.0
218.980713 52.0
219.921249 168.0
221.470551 56.0
221.891342 152.0
222.066284 128.0
223.078217 932.0
223.539795 56.0
223.885117 108.0
224.025101 108.0
224.080597 308.0
224.466202 76.0
224.731659 60.0
225.056992 164.0
225.086853 156.0
226.082947 268.0
226.163086 44.0
227.084442 132.0
228.02562 44.0
228.092453 184.0
228.127808 52.0
228.275131 64.0
229.105835 168.0
229.383072 52.0
229.585068 136.0
232.037277 96.0
233.096558 204.0
236.07782 232.0
237.078842 208.0
237.098923 192.0
237.946884 180.0
238.026703 176.0
238.099854 2516.0
238.481369 44.0
238.899551 40.0
239.102585 580.0
239.339661 40.0
239.401245 116.0
239.57988 64.0
239.869553 68.0
240.095383 364.0
240.736496 44.0
241.095215 168.0
242.344955 184.0
242.67659 120.0
243.017761 144.0
243.079559 48.0
243.11084 140.0
244.089157 484.0
244.111115 180.0
245.012253 208.0
245.083282 136.0
245.107193 176.0
248.11702 144.0
248.706757 212.0
249.388321 48.0
250.077118 180.0
251.072678 148.0
252.087845 152.0
252.114456 116.0
252.405273 88.0
253.098221 92.0
253.307236 36.0
254.118805 160.0
254.938019 208.0
255.08255 376.0
255.720352 144.0
256.085938 500.0
257.033295 156.0
257.098175 416.0
257.266296 88.0
258.064972 76.0
258.104034 128.0
258.365601 120.0
258.426392 44.0
259.04425 108.0
259.109192 672.0
259.26532 76.0
259.521759 48.0
260.047852 104.0
260.107361 348.0
260.117798 116.0
260.12674 132.0
261.053406 68.0
261.114502 164.0
261.432983 156.0
261.838623 152.0
262.105988 104.0
262.354156 104.0
264.081665 72.0
266.073792 168.0
266.620178 60.0
267.081665 424.0
267.905396 40.0
268.089935 608.0
269.094513 396.0
269.135254 192.0
269.278625 60.0
269.749115 168.0
270.059753 136.0
270.101868 412.0
270.265839 76.0
270.753571 48.0
271.077576 120.0
271.110931 1132.0
271.418793 96.0
271.56308 88.0
272.083893 328.0
272.117859 640.0
272.860138 188.0
273.067902 176.0
273.094391 240.0
273.136383 140.0
274.094391 216.0
274.12735 136.0
274.826385 128.0
275.062988 304.0
275.107544 140.0
275.559326 52.0
276.128662 84.0
278.30835 120.0
278.783325 136.0
279.082489 52.0
281.094086 316.0
282.10144 480.0
282.343689 156.0
283.078613 344.0
283.110382 484.0
283.277527 68.0
284.079132 352.0
284.149139 96.0
284.414246 76.0
284.954895 180.0
285.08609 492.0
286.099609 124.0
286.14209 156.0
286.768616 124.0
286.967529 140.0
287.108795 1552.0
287.221497 64.0
287.905579 100.0
288.112823 404.0
289.118134 216.0
295.006805 164.0
297.099365 324.0
297.219238 104.0
297.662048 76.0
297.734161 180.0
297.768494 160.0
297.844055 172.0
297.916199 68.0
298.044861 152.0
298.097687 740.0
298.187653 40.0
299.106384 1360.0
299.298767 52.0
299.474396 60.0
299.624817 60.0
299.708649 80.0
300.074524 160.0
300.11261 308.0
300.408508 40.0
301.075958 204.0
301.118378 632.0
301.475372 128.0
301.509918 80.0
301.534119 140.0
302.087341 140.0
302.125671 376.0
303.053223 136.0
303.129456 124.0
303.697998 72.0
304.117828 104.0
304.437225 76.0
304.742889 84.0
304.9375 152.0
309.098511 184.0
310.187012 104.0
311.116608 120.0
311.285126 136.0
311.436157 96.0
312.110352 80.0
312.283203 96.0
313.08194 216.0
313.11554 536.0
313.230011 68.0
313.258179 36.0
314.091095 304.0
314.1297 1256.0
314.273499 52.0
314.431183 188.0
314.73587 80.0
314.972504 168.0
315.097626 1392.0
315.202148 48.0
316.10379 412.0
316.167511 64.0
317.903961 44.0
317.950104 32.0
320.339386 60.0
321.237701 124.0
323.335022 108.0
324.076263 124.0
327.532166 188.0
327.71228 60.0
328.018616 120.0
328.100433 184.0
329.116638 304.0
329.44397 108.0
329.848694 180.0
330.051147 192.0
330.123199 2120.0
331.093323 200.0
331.132202 1504.0
331.582397 64.0
332.124054 196.0
332.155243 260.0
332.579773 76.0
332.754028 72.0
333.137024 180.0
333.956818 64.0
334.233307 88.0
334.258759 72.0
338.123291 192.0
341.233856 156.0
343.093018 116.0
343.122498 96.0
344.146851 152.0
345.045959 196.0
345.151428 2064.0
346.078186 132.0
346.111511 180.0
346.153625 1220.0
346.744965 48.0
347.159302 712.0
347.872528 72.0
349.16925 124.0
354.204224 76.0
354.571411 100.0
361.519562 120.0
365.091248 164.0
366.101532 44.0
366.330048 120.0
379.124878 104.0
380.137634 168.0
380.322784 128.0
381.12793 116.0
381.515778 156.0
381.838501 84.0
382.332581 164.0
384.351105 72.0
417.000183 80.0
426.215363 92.0
431.164429 104.0
435.826233 104.0
452.778107 92.0
483.236359 52.0
498.963959 48.0
711.108521 88.0
745.823608 40.0
829.18103 76.0
881.94104 56.0
941.414246 40.0
1010.55719 44.0
1018.417786 128.0
1024.492432 116.0
1309.784302 128.0
1322.694946 208.0
1363.26123 188.0
1369.993408 112.0
1427.928223 172.0
1492.124878 104.0
1493.985962 52.0
1498.420288 84.0
