>compound (8S,11R,13S,14S,17S)-11-(4-(dimethylamino)phenyl)-17-hydroxy-13-methyl-17-(prop-1-yn-1-yl)-6,7,8,11,12,13,14,15,16,17-decahydro-1H-cyclopenta[a]phenanthren-3(2H)-one
>formula C29H35NO2
>ionization [M+H]+
>parentmass 430.2740558120906
#inchi InChI=1S/C29H35NO2/c1-5-15-29(32)16-14-26-24-12-8-20-17-22(31)11-13-23(20)27(24)25(18-28(26,29)2)19-6-9-21(10-7-19)30(3)4/h6-7,9-10,17,24-26,32H,8,11-14,16,18H2,1-4H3/t24-,25+,26-,28-,29-/m0/s1
#inchikey VKHAHZOOUSRJNA
#Ion_Source LC-ESI
#Instrument qTof
#Compound_Source Commercial
#PI Dorrestein
#Data_Collector Garg_Neha
#Scan -1
#Precursor_MZ 430.274
#ExactMass 429.267
#Charge 1
#CAS_Number N/A
#Pubmed_ID N/A
#Smiles CC#C[C@]1(O)CC[C@H]2[C@@H]3CCC4=CC(=O)CCC4=C3[C@H](C[C@@]21C)c5ccc(cc5)N(C)C
#INCHI_AUX N/A
#Library_Class 1
#SpectrumID CCMSLIB00000079244
#IonMode Positive
#UpdateWorkflowName UPDATE-SINGLE-ANNOTATED-GOLD
#LibraryQualityString Gold
#TaskID 278b19f5865741e282cec7349aa7e7a1
##Scan# 1194
#SpectrumFile NCP003672_E27F27G26H26_BE5_01_15741.mzXML
#LibraryName NIHcollectionI_05062014.mgf
#MQScore -1
#Organism NIHcollectionI_05062014
#TIC_Query 0
#RT_Query -1
#MZErrorPPM -1
#SharedPeaks 0
#MassDiff 0
#LibMZ -1
#SpecMZ 430.274
#SpecCharge 0
#internalFilename spec-00000.mgf

>collision 10
45.396809 172.0
45.663124 160.0
46.031033 164.0
46.869335 164.0
47.005695 140.0
47.131321 140.0
47.422813 140.0
47.450043 148.0
47.972645 180.0
48.484062 168.0
48.740784 160.0
48.87149 172.0
48.903496 148.0
49.302376 148.0
49.766037 140.0
50.566746 196.0
51.225586 152.0
51.376694 148.0
52.254929 196.0
53.065186 188.0
53.477745 140.0
53.998615 180.0
54.959366 160.0
55.172043 140.0
55.912212 144.0
55.959846 156.0
57.100124 216.0
59.143944 160.0
59.395237 172.0
61.080509 228.0
61.512142 212.0
61.898312 252.0
62.47118 188.0
63.143127 140.0
63.195328 168.0
63.78846 156.0
64.162567 184.0
64.640137 176.0
64.984634 192.0
65.44754 216.0
66.597366 180.0
67.393982 244.0
68.374611 156.0
68.624992 144.0
68.798225 160.0
69.089081 180.0
69.398788 188.0
69.699219 148.0
70.43058 148.0
71.61982 220.0
72.161522 172.0
72.203796 148.0
73.72879 144.0
73.877548 164.0
74.142944 164.0
74.359039 188.0
74.928207 204.0
75.166145 156.0
75.252449 152.0
75.44249 148.0
76.248497 216.0
76.479813 188.0
76.744705 148.0
78.372948 176.0
78.89006 156.0
79.995239 152.0
80.084503 184.0
80.367722 144.0
80.381996 172.0
81.423882 156.0
81.583801 152.0
81.635948 160.0
81.776978 164.0
82.105972 184.0
83.227928 188.0
83.32782 184.0
84.278908 220.0
84.476357 232.0
84.853615 160.0
85.345673 164.0
85.446831 144.0
85.896332 148.0
85.995964 152.0
86.535751 152.0
86.593155 160.0
87.674423 168.0
87.730339 160.0
87.929924 204.0
88.096107 172.0
88.829918 148.0
88.989441 180.0
89.327713 184.0
89.43309 192.0
89.791061 164.0
90.232925 224.0
91.050995 364.0
91.675507 164.0
91.959671 180.0
92.074226 140.0
93.070908 160.0
93.673882 168.0
93.764442 184.0
93.936043 152.0
94.069199 140.0
94.324181 140.0
95.015518 144.0
95.086555 156.0
95.617889 148.0
96.310043 144.0
97.065674 332.0
97.76873 200.0
98.148918 232.0
98.67411 140.0
98.69191 168.0
99.502258 184.0
100.527328 180.0
100.968834 164.0
101.124886 184.0
102.061729 148.0
102.238747 156.0
102.518669 156.0
103.053398 456.0
103.181541 168.0
103.211052 140.0
104.055946 160.0
104.796272 220.0
105.071327 976.0
106.063095 188.0
106.500359 160.0
106.93689 128.0
107.048203 908.0
107.073761 1048.0
107.30291 188.0
107.459656 152.0
108.079529 256.0
109.064987 404.0
109.099922 160.0
109.828743 200.0
109.94767 176.0
111.272675 172.0
111.600433 164.0
112.96283 152.0
114.951492 156.0
115.053421 164.0
115.267525 236.0
117.022087 156.0
117.069504 616.0
118.06382 592.0
118.713982 164.0
119.084534 1104.0
119.112663 220.0
119.776772 168.0
120.080917 892.0
120.26738 168.0
120.833359 188.0
121.064415 724.0
121.086998 1128.0
121.587135 156.0
122.096481 3808.0
123.079681 852.0
123.098595 464.0
123.296135 204.0
124.07972 172.0
124.108864 136.0
124.448013 172.0
124.621262 180.0
124.652367 176.0
124.705704 148.0
125.095558 324.0
125.806084 180.0
126.906815 140.0
127.055466 328.0
127.189476 184.0
128.007828 156.0
128.063232 760.0
128.091064 176.0
128.158752 212.0
128.44957 148.0
128.650406 160.0
129.069214 932.0
129.093262 152.0
129.656952 180.0
130.015274 168.0
130.074631 336.0
130.096985 176.0
130.328644 176.0
130.392258 144.0
130.715195 140.0
130.970169 164.0
131.051819 172.0
131.08522 1336.0
131.880569 172.0
132.085266 284.0
132.578613 188.0
132.700089 176.0
133.064575 2020.0
133.098083 556.0
133.848938 144.0
134.068954 456.0
134.096573 15812.0
134.161819 112.0
134.44043 128.0
134.505997 176.0
134.548828 108.0
134.940872 176.0
135.080215 2592.0
135.100357 1876.0
135.594696 188.0
135.615158 136.0
135.70433 140.0
135.802094 104.0
136.082687 288.0
136.116348 320.0
136.203934 100.0
137.015137 216.0
137.093857 568.0
138.004715 144.0
138.099716 284.0
138.386093 156.0
138.653137 148.0
138.742203 176.0
138.854752 140.0
139.702698 160.0
140.05957 192.0
140.253723 176.0
141.069809 588.0
141.849258 164.0
142.055557 148.0
142.078201 636.0
142.202682 200.0
142.44249 196.0
143.020294 196.0
143.051239 148.0
143.08577 1616.0
143.372787 224.0
143.439529 160.0
143.821167 152.0
143.926208 164.0
144.055374 296.0
144.082825 568.0
144.509415 164.0
144.648209 200.0
145.064575 1308.0
145.100098 876.0
145.384018 160.0
145.470428 140.0
145.65773 228.0
146.072418 172.0
146.097092 1496.0
146.569534 168.0
147.047012 188.0
147.079132 820.0
147.103439 656.0
147.565811 136.0
147.989777 216.0
148.076782 1032.0
148.111786 4096.0
148.334747 112.0
149.080338 444.0
149.098297 848.0
149.116791 548.0
150.056137 192.0
150.093307 796.0
151.051331 148.0
151.109436 144.0
151.971115 180.0
152.067032 188.0
152.370224 176.0
152.588959 248.0
153.069199 408.0
154.075134 352.0
155.086395 1268.0
155.403946 208.0
155.757095 144.0
155.830139 196.0
155.921066 180.0
156.088715 968.0
156.453369 140.0
157.065277 960.0
157.100967 1032.0
157.508194 168.0
157.923111 216.0
158.071136 300.0
158.09642 2116.0
158.606659 160.0
158.912613 140.0
158.975342 192.0
159.081421 2492.0
159.104858 1280.0
159.316818 160.0
159.379486 144.0
160.026031 172.0
160.087479 688.0
160.111603 5188.0
160.628342 148.0
161.059967 144.0
161.096405 2468.0
161.150925 280.0
162.100388 740.0
162.126831 2500.0
162.604431 228.0
163.112015 552.0
163.384521 144.0
163.429703 180.0
164.109421 128.0
164.296555 184.0
165.072678 440.0
165.103073 148.0
165.125122 128.0
165.605331 148.0
165.703735 196.0
165.769287 188.0
165.971786 176.0
166.075333 372.0
166.795883 168.0
167.085724 1056.0
167.397919 160.0
168.089905 504.0
168.94136 160.0
169.072708 172.0
169.101578 840.0
169.573166 156.0
169.71315 184.0
169.793533 148.0
169.946579 144.0
170.096695 348.0
170.167191 156.0
170.259995 124.0
170.380157 208.0
170.515274 168.0
170.746658 144.0
171.027588 152.0
171.080841 864.0
171.10994 952.0
172.088318 288.0
172.111557 4748.0
172.995834 184.0
173.054504 136.0
173.096573 3548.0
173.115967 1296.0
174.01828 148.0
174.057663 196.0
174.101364 2480.0
174.126495 2012.0
175.082535 164.0
175.13382 1096.0
175.508636 156.0
175.565506 152.0
176.112091 284.0
176.140244 272.0
176.92363 168.0
177.451874 164.0
177.67627 160.0
178.075958 196.0
178.496979 176.0
179.042511 228.0
179.085098 684.0
179.135727 188.0
179.18634 184.0
180.092285 304.0
180.133392 140.0
181.058823 180.0
181.100662 820.0
181.562668 148.0
181.618988 156.0
182.070267 276.0
182.104416 368.0
182.443359 244.0
182.978729 152.0
183.08136 908.0
183.114426 860.0
183.151077 148.0
184.083496 140.0
184.111893 1560.0
185.095535 1376.0
185.121521 1320.0
186.022781 204.0
186.098526 364.0
186.12764 1768.0
186.367691 204.0
186.492691 188.0
186.549774 160.0
186.685059 132.0
187.053024 160.0
187.109329 1040.0
187.134171 1024.0
188.114975 252.0
188.143845 2236.0
188.24028 136.0
188.297806 104.0
188.359161 224.0
188.978943 152.0
189.073975 200.0
189.093185 160.0
189.131836 292.0
189.323318 116.0
189.354767 148.0
190.071716 248.0
190.121109 328.0
190.153976 180.0
191.08667 296.0
191.351074 160.0
192.094177 628.0
193.101639 1348.0
194.107468 228.0
194.958038 152.0
195.080124 708.0
195.116043 660.0
195.17926 104.0
195.20546 176.0
196.084076 380.0
196.110001 552.0
197.098633 836.0
197.129135 592.0
197.72348 156.0
198.102341 812.0
198.127197 1724.0
198.195007 148.0
198.565033 188.0
198.694061 192.0
199.050522 156.0
199.113998 1124.0
199.130463 1460.0
200.079575 156.0
200.11615 380.0
200.142624 1292.0
200.34819 136.0
200.454178 168.0
200.671219 184.0
200.902481 144.0
201.125778 1040.0
201.995712 176.0
202.081131 284.0
202.12233 392.0
202.952942 152.0
203.090057 204.0
204.095306 192.0
204.137192 136.0
204.999557 140.0
205.100037 384.0
206.105576 380.0
207.03067 192.0
207.113113 892.0
207.421051 268.0
207.529266 148.0
208.116776 568.0
208.200729 184.0
208.402267 124.0
208.591492 152.0
209.098389 1336.0
209.12999 1108.0
210.101685 1284.0
210.12825 744.0
210.184128 180.0
210.706161 144.0
210.755829 156.0
211.110962 2764.0
211.979309 160.0
212.060959 196.0
212.11264 416.0
212.143723 844.0
212.336395 176.0
213.096115 260.0
213.1259 1228.0
213.148621 1164.0
213.178284 168.0
214.093948 152.0
214.126877 304.0
214.157455 932.0
215.105377 976.0
215.134674 368.0
215.169113 500.0
216.108963 120.0
216.175507 396.0
216.228745 180.0
217.043121 160.0
217.097641 308.0
217.147446 112.0
217.172073 132.0
218.109329 412.0
218.154831 140.0
219.117096 936.0
220.089417 240.0
220.122147 716.0
221.094025 1080.0
221.126389 1064.0
221.266251 108.0
221.641983 124.0
222.127579 1440.0
222.208923 148.0
222.264099 184.0
223.113098 1780.0
223.138321 740.0
223.506134 252.0
224.117477 356.0
224.141068 2284.0
224.766541 196.0
225.127365 2364.0
225.150238 1924.0
226.063416 144.0
226.127838 592.0
226.158493 996.0
226.902084 152.0
226.955429 136.0
227.092377 324.0
227.140762 1660.0
227.166901 556.0
227.302002 180.0
227.661224 148.0
228.140961 1084.0
228.166763 260.0
229.120789 284.0
229.151154 300.0
230.107361 192.0
230.151978 280.0
231.114288 472.0
231.145233 228.0
232.021286 208.0
232.117905 148.0
232.637131 232.0
232.755539 172.0
233.010666 160.0
233.092697 336.0
233.129913 576.0
233.267853 172.0
233.682571 144.0
234.097992 348.0
234.131042 784.0
235.109238 748.0
235.138 956.0
235.63382 168.0
236.143677 5152.0
236.202423 232.0
236.321747 156.0
237.053558 208.0
237.149231 2016.0
237.522629 148.0
237.746613 140.0
238.127304 692.0
238.159988 1720.0
239.107758 396.0
239.138779 556.0
239.871902 200.0
240.064743 180.0
240.13765 1448.0
240.173508 1656.0
240.386963 192.0
241.118027 288.0
241.149445 448.0
242.152908 2424.0
242.197723 424.0
243.135101 580.0
243.154846 664.0
243.726456 108.0
244.119202 396.0
244.147095 484.0
244.362381 180.0
245.098068 156.0
245.131378 312.0
245.193787 148.0
245.655258 188.0
246.036942 104.0
246.129593 328.0
246.213959 140.0
246.351379 140.0
246.698257 148.0
247.13858 304.0
248.14444 716.0
248.206955 100.0
248.34845 168.0
248.656525 104.0
248.906052 100.0
249.152924 2296.0
249.538605 168.0
249.821655 148.0
250.095413 148.0
250.124069 392.0
250.158493 1976.0
250.848236 196.0
251.023254 148.0
251.143646 1424.0
251.308685 152.0
251.90535 140.0
251.941803 156.0
252.143143 1156.0
252.169601 652.0
252.711517 156.0
252.857086 144.0
253.145309 492.0
253.176117 324.0
253.21167 192.0
254.09288 240.0
254.148422 508.0
254.192993 456.0
254.438812 240.0
255.139954 356.0
255.190567 200.0
256.140686 156.0
256.167267 664.0
256.22934 176.0
256.477875 164.0
257.121246 152.0
257.153412 316.0
257.180878 296.0
257.922791 136.0
258.131073 392.0
259.110657 160.0
259.137207 160.0
259.415497 140.0
260.146698 544.0
260.192871 112.0
260.77005 140.0
261.148285 908.0
261.474396 144.0
261.927856 128.0
262.159576 1548.0
263.089264 192.0
263.141724 472.0
263.170471 1024.0
263.202271 232.0
264.142548 600.0
264.174927 2436.0
264.501892 200.0
265.104309 184.0
265.155487 2116.0
265.95401 312.0
266.155304 1528.0
266.18985 1728.0
266.450867 224.0
266.626312 164.0
267.167023 1388.0
267.271393 160.0
267.413361 160.0
267.787781 180.0
268.038635 208.0
268.145325 416.0
268.169403 1184.0
268.844086 168.0
268.902832 148.0
269.102081 96.0
269.153046 5396.0
270.157471 1276.0
270.517517 172.0
270.605927 160.0
270.72052 152.0
271.057922 144.0
271.113373 152.0
271.143402 304.0
271.720245 148.0
272.143097 540.0
273.151428 1172.0
274.06778 152.0
274.1586 2112.0
274.955719 128.0
275.163086 1180.0
276.173737 816.0
276.729919 156.0
276.925293 148.0
277.149933 456.0
277.179901 496.0
277.395813 228.0
278.153809 1068.0
278.187439 1380.0
278.866241 140.0
279.131134 160.0
279.162781 1368.0
279.192627 584.0
279.794312 144.0
280.169495 4340.0
280.213623 300.0
280.257812 164.0
280.803955 152.0
280.954865 132.0
281.176605 1784.0
281.551514 176.0
282.070312 140.0
282.18573 2432.0
282.236542 156.0
282.49408 228.0
283.1745 832.0
284.144867 260.0
284.201141 852.0
285.15686 152.0
285.209717 384.0
286.158783 476.0
286.556244 184.0
287.009155 160.0
287.044983 168.0
287.160217 364.0
287.540894 120.0
287.924225 104.0
288.134644 176.0
288.174438 7880.0
288.22641 148.0
288.456635 136.0
288.967072 152.0
289.176453 1388.0
289.46106 232.0
289.630402 144.0
289.704926 164.0
290.155212 424.0
290.184998 1160.0
290.260742 200.0
290.701721 148.0
291.054749 140.0
291.113525 144.0
291.174286 3580.0
291.391022 140.0
291.557495 200.0
291.607117 148.0
291.679871 152.0
291.887238 180.0
292.175507 1120.0
292.646027 160.0
293.06134 140.0
293.172211 356.0
293.211487 168.0
294.060944 112.0
294.182098 508.0
294.653168 120.0
295.145142 180.0
295.188019 164.0
296.166718 96.0
296.199554 1196.0
296.264374 120.0
297.170135 132.0
297.207306 368.0
297.303528 172.0
297.826965 212.0
298.156097 476.0
298.204285 152.0
298.751648 164.0
299.166016 316.0
299.226562 152.0
300.173645 1008.0
300.764038 148.0
301.145874 192.0
301.184387 764.0
301.326935 140.0
302.154266 132.0
302.193359 676.0
302.457733 172.0
303.152802 344.0
303.164185 164.0
303.193024 408.0
304.170074 484.0
304.200928 240.0
304.20871 360.0
304.840393 144.0
305.177765 1056.0
305.209991 144.0
305.737579 152.0
305.946411 148.0
306.183563 2288.0
306.362518 100.0
306.939392 188.0
307.18811 1188.0
307.302155 196.0
307.630188 200.0
307.766357 216.0
308.198761 896.0
308.253571 156.0
308.788025 164.0
309.094604 188.0
309.184326 6796.0
310.092651 140.0
310.189819 1316.0
310.643158 140.0
311.124939 112.0
311.186371 360.0
311.380249 168.0
312.170959 328.0
312.26593 168.0
313.180115 476.0
314.188477 1620.0
314.356903 200.0
315.191681 400.0
316.055176 132.0
316.169159 932.0
316.210999 584.0
317.176941 764.0
317.5354 180.0
317.834869 176.0
318.183044 588.0
318.85611 156.0
318.921326 104.0
319.195038 600.0
319.33963 184.0
320.202057 756.0
320.241272 280.0
320.656952 220.0
321.166229 124.0
321.204895 476.0
321.348755 148.0
322.137726 156.0
322.216248 692.0
322.648743 144.0
323.213837 156.0
323.289001 160.0
324.177734 284.0
324.729187 168.0
325.185059 240.0
326.043182 340.0
326.186859 516.0
327.179169 196.0
327.579559 164.0
328.111481 308.0
328.168671 188.0
328.204926 688.0
328.86322 184.0
329.123413 244.0
329.178986 508.0
329.214508 140.0
329.393982 172.0
329.556549 176.0
330.001129 232.0
330.186279 708.0
330.218445 304.0
331.079437 164.0
331.193268 540.0
332.200836 3552.0
333.205811 1224.0
333.804718 172.0
334.212769 716.0
334.353729 140.0
334.560455 144.0
334.865692 180.0
335.220154 152.0
336.198059 240.0
336.230988 252.0
336.263763 184.0
336.303894 164.0
337.243256 132.0
338.197205 176.0
338.230164 168.0
338.610077 172.0
339.145874 196.0
339.197266 668.0
339.606659 148.0
339.747253 148.0
340.205139 496.0
341.116974 168.0
341.206573 240.0
342.179779 160.0
343.123322 140.0
343.200623 288.0
343.565857 168.0
344.145294 176.0
344.199646 696.0
344.817596 196.0
345.134796 144.0
345.181122 132.0
345.212463 200.0
346.216095 1972.0
346.601288 164.0
346.745819 160.0
347.214874 388.0
348.231934 1476.0
348.731445 152.0
348.876404 160.0
349.192474 140.0
349.234497 664.0
349.281738 144.0
350.1987 196.0
350.804749 160.0
352.206482 128.0
353.280609 152.0
353.549988 152.0
354.178833 164.0
354.22348 716.0
355.190857 172.0
355.226715 312.0
356.202148 256.0
357.138092 132.0
357.206055 456.0
358.03244 224.0
358.1492 124.0
358.216858 732.0
358.299896 184.0
359.177856 128.0
359.221283 928.0
360.033752 172.0
360.184357 152.0
360.232452 1768.0
360.594116 216.0
361.237152 388.0
361.726227 140.0
362.204315 168.0
363.894989 176.0
364.200592 116.0
365.185516 164.0
365.250183 200.0
365.322449 160.0
365.611633 248.0
366.217804 276.0
366.681793 176.0
367.127838 144.0
367.516907 212.0
368.198547 156.0
369.20462 260.0
369.503662 180.0
370.214233 132.0
371.257965 140.0
371.691437 128.0
371.894714 116.0
372.121338 156.0
372.155884 208.0
372.232819 15884.0
372.622528 180.0
372.980011 108.0
373.074097 152.0
373.138214 136.0
373.233917 4920.0
373.879669 100.0
374.240509 1212.0
374.38028 144.0
374.779053 172.0
375.237 108.0
375.885681 144.0
376.217621 268.0
376.835541 144.0
377.591705 168.0
377.627991 168.0
378.218811 144.0
379.230896 148.0
379.300659 168.0
379.513885 172.0
379.897858 140.0
380.899353 224.0
381.194611 160.0
381.309418 96.0
381.610535 148.0
382.210632 412.0
382.322357 160.0
383.220093 264.0
384.032684 148.0
384.230499 436.0
384.399414 176.0
384.742065 152.0
384.902954 148.0
385.215393 96.0
385.508423 148.0
385.852386 140.0
386.227814 344.0
387.242981 164.0
387.852753 200.0
388.229675 148.0
388.270996 160.0
388.308441 112.0
389.104156 144.0
390.090179 156.0
390.185852 180.0
390.24527 728.0
390.994843 156.0
391.03418 168.0
391.244568 124.0
391.436127 164.0
391.597198 144.0
392.160614 148.0
392.269409 128.0
392.314362 224.0
392.922058 124.0
393.174896 160.0
393.249207 140.0
394.249878 316.0
394.453888 192.0
394.659485 208.0
395.256287 140.0
396.167358 200.0
396.2258 144.0
396.435547 192.0
397.2388 804.0
398.031433 172.0
398.239227 396.0
399.100281 140.0
399.629272 152.0
400.168152 132.0
400.227936 256.0
400.329865 196.0
401.233826 228.0
401.844513 140.0
402.240479 568.0
402.277802 528.0
403.230164 152.0
403.314697 132.0
408.78009 176.0
410.811066 148.0
410.988586 140.0
411.557709 200.0
411.759613 160.0
412.094879 184.0
412.263641 4740.0
412.434357 140.0
413.131042 152.0
413.266144 1040.0
413.348328 176.0
414.269714 332.0
414.850922 144.0
414.953247 144.0
415.13269 108.0
415.250549 6704.0
415.452087 148.0
415.702667 184.0
416.253357 1864.0
416.882629 112.0
416.934021 112.0
417.07132 288.0
417.257538 588.0
417.898163 128.0
418.834991 124.0
418.871399 156.0
420.391479 108.0
421.226257 164.0
422.511169 176.0
422.568451 156.0
424.041443 120.0
424.628174 160.0
424.750885 140.0
424.820862 200.0
426.673798 156.0
426.73288 108.0
426.764252 224.0
426.821808 192.0
426.9534 212.0
427.231323 120.0
427.362915 116.0
427.910706 172.0
428.147491 140.0
428.192596 116.0
428.255432 252.0
428.331207 228.0
428.362762 172.0
428.434753 196.0
428.588318 240.0
428.630371 120.0
428.767578 220.0
428.85733 152.0
428.929688 152.0
428.958893 228.0
428.987183 156.0
429.025391 224.0
429.129089 404.0
429.187775 272.0
429.264923 688.0
429.416229 212.0
429.479492 268.0
429.576538 392.0
429.637054 336.0
429.665833 208.0
429.755005 144.0
429.816956 260.0
429.83493 152.0
429.885925 324.0
429.897308 316.0
429.913788 456.0
430.005524 356.0
430.076233 460.0
430.131256 376.0
430.144958 352.0
430.208649 584.0
430.276154 221808.0
430.396545 124.0
430.485535 112.0
430.563232 212.0
430.636444 248.0
430.645966 384.0
430.672363 528.0
430.734253 308.0
430.766205 572.0
430.831085 196.0
430.870697 332.0
430.899323 324.0
430.957916 5520.0
431.025116 564.0
431.124634 612.0
431.278625 124392.0
431.367432 200.0
431.560547 128.0
431.595459 132.0
431.658417 348.0
431.729462 136.0
431.780548 164.0
431.835815 156.0
431.908539 220.0
431.959717 1120.0
432.031555 268.0
432.128204 316.0
432.280304 17656.0
432.395874 260.0
432.464111 176.0
432.522949 124.0
432.580841 308.0
432.631104 104.0
432.65567 156.0
432.695038 108.0
432.725983 136.0
432.78186 108.0
432.895416 136.0
432.984863 332.0
433.015167 160.0
433.077881 128.0
433.129181 340.0
433.211182 104.0
433.282867 2220.0
433.369965 200.0
433.518646 208.0
433.585602 312.0
433.643555 104.0
433.682739 204.0
433.778748 232.0
433.831604 264.0
433.90097 272.0
433.962158 216.0
434.03714 184.0
434.098328 356.0
434.132812 320.0
434.185242 264.0
434.219421 500.0
434.314972 112.0
434.379913 220.0
434.540771 112.0
434.913116 200.0
435.058594 208.0
435.107941 120.0
435.151459 104.0
435.203857 116.0
435.584747 144.0
435.661224 156.0
435.822235 180.0
435.858154 164.0
436.149658 104.0
437.659393 128.0
438.362671 160.0
439.996521 112.0
442.287018 112.0
444.83432 100.0
445.374542 184.0
445.495178 100.0
446.800751 128.0
449.053864 96.0
459.787079 148.0
471.296875 196.0
472.313599 96.0
487.818085 160.0
492.321014 176.0
550.862122 148.0
580.940613 108.0
634.14325 140.0
658.163391 152.0
820.479431 156.0
1200.678711 196.0
1231.361694 224.0
1372.209106 184.0
1380.782104 168.0
1406.385376 172.0
1433.625122 240.0
1445.306763 140.0
1452.82251 168.0
1458.700195 140.0
1469.018433 140.0
1473.301025 148.0
1504.526855 192.0
1509.324829 164.0
1511.300903 228.0
1516.322876 176.0
1555.470581 140.0
1574.232422 168.0
1585.140991 192.0
1609.657227 180.0
1609.864746 172.0
1613.476318 200.0
1618.556885 200.0
1622.579102 172.0
1636.832642 188.0
1638.072876 140.0
1664.57666 168.0
1692.799438 156.0
1693.323486 148.0
1698.561035 208.0
1706.921631 156.0
1707.867432 180.0
1716.399292 168.0
1723.778931 148.0
1733.866699 160.0
1738.112427 164.0
1741.765381 144.0
1747.401611 172.0
1751.947266 200.0
1757.54895 184.0
1780.335449 236.0
1792.667969 160.0
1807.140747 156.0
1816.95166 144.0
1825.300781 156.0
1837.728149 160.0
1837.907349 192.0
1855.706421 196.0
1869.002441 192.0
1875.781494 160.0
1883.857178 172.0
1891.120605 224.0
1891.778442 144.0
1900.618652 164.0
1901.17395 208.0
1903.614258 180.0
1904.377563 212.0
1904.976929 196.0
1914.265747 156.0
1918.404297 148.0
1929.849854 208.0
1941.171631 152.0
1950.372314 188.0
1951.770142 220.0
1952.20105 192.0
1954.998535 232.0
1967.541138 180.0
1968.547729 256.0
1972.647217 168.0
1974.946289 148.0
1981.612183 176.0
1983.464233 156.0
1983.747925 228.0
1984.723145 192.0
1986.257446 228.0
1990.13562 236.0
2002.160522 140.0
