>compound MLS001048921-01!6-ethoxypyridine-3-carboxylic acid
>formula C8H9NO3
>ionization [M+H]+
>parentmass 168.066
#inchi InChI=1S/C8H9NO3/c1-2-12-7-4-3-6(5-9-7)8(10)11/h3-5H,2H2,1H3,(H,10,11)
#inchikey RAMUDXNFZBUNHO
#Ion_Source LC-ESI
#Instrument qTof
#Compound_Source NIH Natural Product Library
#PI Dorrestein
#Data_Collector VVP/LMS
#Scan -1
#Precursor_MZ 168.066
#ExactMass 167.058
#Charge 1
#CAS_Number N/A
#Pubmed_ID N/A
#Smiles CCOc1ccc(cn1)C(=O)O
#INCHI_AUX N/A
#Library_Class 1
#SpectrumID CCMSLIB00000079671
#IonMode Positive
#UpdateWorkflowName UPDATE-SINGLE-ANNOTATED-GOLD
#LibraryQualityString Gold
#TaskID b1d8e8f6646f4e71acdff9ca3d919d08
##Scan# 1364
#SpectrumFile p1-F09_GF9_01_17941.mzXML
#LibraryName NIH_Natural_Products_Library.mgf
#MQScore -1
#Organism NIH_Natural_Products_Library
#TIC_Query 0
#RT_Query -1
#MZErrorPPM -1
#SharedPeaks 0
#MassDiff 0
#LibMZ -1
#SpecMZ 168.066
#SpecCharge 0
#internalFilename spec-00000.mgf

>collision 10
95.013252 172.0
95.030716 104.0
96.040352 132.0
97.096512 136.0
98.491966 68.0
99.897385 128.0
101.48111 192.0
102.836967 120.0
103.087387 184.0
104.453896 120.0
105.005875 136.0
106.682869 144.0
110.283546 44.0
112.039757 188.0
112.18322 108.0
114.842293 212.0
117.845589 180.0
119.708847 196.0
119.909271 164.0
122.023087 1488.0
123.024391 452.0
123.846626 80.0
123.983986 88.0
125.288284 112.0
126.015594 224.0
127.90609 96.0
139.403656 72.0
139.570541 112.0
140.033676 7420.0
140.085968 52.0
140.149567 72.0
140.210846 72.0
140.274475 148.0
140.293335 60.0
140.34993 56.0
140.51503 108.0
141.037231 804.0
142.166626 96.0
151.085114 120.0
155.386734 20.0
181.970047 204.0
195.987152 68.0
201.856644 120.0
230.970047 120.0
343.281586 40.0
389.724518 116.0
917.26709 180.0
986.953064 48.0
1052.167236 168.0
1058.22522 68.0
1148.986938 96.0
1205.17395 176.0
1209.697021 220.0
1224.34729 236.0
1255.244019 164.0
1275.827271 164.0
1298.541382 180.0
1302.431519 148.0
1380.295776 224.0
1381.220215 168.0
1398.52356 200.0
1460.732178 112.0
1465.25415 196.0
1490.626221 180.0
