>compound MLS000563067-01!
>formula C30H22O12
>ionization [M+H]+
>parentmass 575.119
#inchi InChI=1S/C30H22O12/c1-5-3-7(31)9-11(19(5)33)27(41)29-13-14-24(38)17(29)26(40)16-22(36)10-8(32)4-6(2)20(34)12(10)28(42)30(14,16)18(23(13)37)25(39)15(29)21(9)35/h3-4,13-14,17-18,23-24,31-38H,1-2H3/t13-,14-,17+,18+,23+,24+,29+,30+/m1/s1
#inchikey FAZDYVMEXQHRLI
#Ion_Source LC-ESI
#Instrument qTof
#Compound_Source NIH Natural Product Library
#PI Dorrestein
#Data_Collector VVP/LMS
#Scan -1
#Precursor_MZ 575.119
#ExactMass 574.111
#Charge 1
#CAS_Number N/A
#Pubmed_ID N/A
#Smiles Cc1cc(O)c2C(=C3C(=O)[C@@H]4[C@@H](O)[C@H]5[C@@H]6[C@H](O)[C@@H](C(=O)C7=C(O)c8c(O)cc(C)c(O)c8C(=O)[C@]647)[C@]53C(=O)c2c1O)O
#INCHI_AUX N/A
#Library_Class 1
#SpectrumID CCMSLIB00000079527
#IonMode Positive
#UpdateWorkflowName UPDATE-SINGLE-ANNOTATED-GOLD
#LibraryQualityString Gold
#TaskID b1d8e8f6646f4e71acdff9ca3d919d08
##Scan# 2430
#SpectrumFile p1-F07_GF7_01_17939.mzXML
#LibraryName NIH_Natural_Products_Library.mgf
#MQScore -1
#Organism NIH_Natural_Products_Library
#TIC_Query 0
#RT_Query -1
#MZErrorPPM -1
#SharedPeaks 0
#MassDiff 0
#LibMZ -1
#SpecMZ 575.119
#SpecCharge 0
#internalFilename spec-00000.mgf

>collision 10
96.264809 164.0
96.924011 148.0
97.589401 152.0
98.774643 168.0
98.832016 136.0
99.412605 156.0
100.044662 128.0
100.156174 72.0
100.297646 212.0
101.126549 164.0
101.338821 208.0
101.914658 128.0
101.966911 196.0
102.310867 184.0
102.63726 96.0
102.723984 84.0
102.790565 76.0
103.1157 140.0
104.26889 244.0
105.038528 200.0
105.305908 144.0
106.619171 152.0
107.164467 156.0
107.236595 208.0
107.36235 156.0
107.533592 68.0
107.552162 172.0
107.669853 144.0
107.928513 116.0
108.224037 152.0
108.711159 128.0
109.078773 132.0
109.372063 140.0
110.488487 140.0
110.745964 212.0
110.986961 196.0
111.045677 164.0
111.757812 172.0
112.503891 188.0
114.605682 152.0
115.045021 104.0
115.081314 168.0
115.158195 184.0
116.219994 52.0
117.07338 236.0
119.136841 140.0
119.678383 96.0
120.295364 144.0
120.550903 28.0
120.592422 120.0
120.771713 124.0
121.030746 232.0
121.130692 144.0
122.039253 184.0
122.995361 32.0
123.437218 132.0
123.49472 52.0
124.825348 164.0
124.996628 176.0
126.996109 168.0
127.782341 112.0
128.169601 76.0
128.501053 140.0
129.006927 44.0
129.036316 124.0
129.98082 148.0
130.08522 64.0
130.101105 60.0
132.115677 136.0
132.268997 168.0
132.812042 216.0
132.912979 104.0
133.680481 60.0
134.074265 108.0
134.394791 68.0
135.076324 244.0
135.261429 124.0
135.914978 212.0
136.593369 52.0
136.842377 128.0
136.900589 120.0
137.047333 216.0
137.443726 112.0
137.714523 208.0
138.324799 124.0
139.119476 148.0
139.701279 236.0
141.063141 44.0
142.29007 228.0
142.37793 32.0
142.572739 168.0
142.886597 128.0
145.323593 136.0
146.065918 248.0
146.299347 168.0
146.983826 204.0
147.394318 180.0
149.633041 144.0
149.88147 144.0
150.044769 128.0
150.779495 136.0
151.040344 324.0
151.116943 200.0
151.878815 100.0
152.045654 176.0
153.075684 132.0
153.112625 80.0
153.166809 196.0
153.635178 96.0
153.852356 100.0
156.11702 148.0
157.065933 140.0
157.108337 104.0
157.492752 104.0
157.95018 152.0
158.002716 152.0
158.375702 216.0
159.517395 152.0
160.45137 128.0
161.605576 64.0
161.927063 152.0
163.111969 144.0
163.147568 172.0
163.417145 136.0
163.839767 164.0
165.474274 156.0
167.050003 152.0
167.101456 116.0
168.274139 192.0
169.065094 112.0
169.083221 200.0
169.870895 52.0
170.065491 180.0
170.138184 156.0
170.442062 220.0
170.988434 192.0
171.641617 176.0
172.085587 128.0
172.553253 180.0
173.029419 160.0
173.058212 116.0
173.424973 132.0
174.066345 236.0
174.940109 108.0
175.04248 316.0
175.459579 168.0
175.791916 164.0
176.571243 216.0
176.970825 144.0
177.017075 180.0
177.051804 324.0
178.850357 100.0
179.417755 108.0
179.620071 196.0
179.95668 180.0
180.352051 88.0
181.953964 44.0
182.362274 160.0
183.042892 156.0
183.948776 164.0
184.559341 180.0
184.594498 200.0
185.05719 148.0
185.897476 172.0
186.223251 104.0
186.685257 156.0
187.031113 164.0
187.072052 420.0
187.098846 144.0
187.243164 168.0
189.008347 148.0
189.05043 308.0
189.113373 44.0
190.627609 144.0
190.981873 152.0
191.067154 196.0
191.152451 200.0
191.171707 140.0
192.6026 156.0
192.729675 124.0
193.055862 132.0
193.08075 168.0
194.402191 184.0
194.579834 220.0
194.660355 132.0
195.249496 64.0
195.455353 128.0
195.508224 140.0
195.987183 192.0
196.374664 132.0
196.999908 236.0
197.058289 452.0
197.134033 92.0
197.491882 192.0
197.760483 52.0
198.062271 240.0
199.071198 236.0
200.045349 160.0
201.051575 184.0
202.049011 124.0
202.187653 164.0
202.35791 136.0
202.762558 124.0
203.037125 244.0
203.091446 184.0
203.616516 136.0
203.670486 72.0
204.03421 172.0
205.045181 108.0
205.086655 212.0
205.997711 228.0
206.053131 260.0
206.289185 140.0
207.056 108.0
207.96199 172.0
208.005051 108.0
208.154343 60.0
208.622116 128.0
210.816071 164.0
212.046036 304.0
212.518707 112.0
213.051819 272.0
213.491806 164.0
213.768158 156.0
214.056351 192.0
214.236923 132.0
214.904556 152.0
214.936646 116.0
215.040314 192.0
215.070068 508.0
215.69014 140.0
216.055664 232.0
216.166855 68.0
216.332565 136.0
217.049225 516.0
217.409363 208.0
217.438705 36.0
218.043716 96.0
218.099792 156.0
218.414169 148.0
218.646606 104.0
218.790833 180.0
219.032349 304.0
219.066055 364.0
219.5186 100.0
220.064468 144.0
220.13829 192.0
220.366302 104.0
220.457336 148.0
220.974792 136.0
221.155304 116.0
222.887222 152.0
223.012039 160.0
223.240952 156.0
223.46701 132.0
223.770599 108.0
224.136948 80.0
224.518509 128.0
225.051712 1024.0
225.136261 28.0
225.187042 104.0
225.24678 232.0
225.451385 124.0
225.781784 124.0
225.943298 140.0
226.057892 260.0
226.209641 140.0
226.362335 112.0
226.991608 140.0
227.066574 144.0
227.183563 180.0
227.381592 76.0
227.534683 136.0
227.75209 200.0
228.000259 64.0
229.047607 184.0
229.861313 72.0
230.054886 296.0
230.302078 56.0
230.652573 200.0
231.033432 588.0
231.067017 180.0
231.396759 48.0
232.409088 132.0
232.480057 184.0
232.548676 116.0
232.758865 84.0
233.007202 204.0
233.039093 544.0
233.092285 40.0
233.308075 180.0
233.332397 152.0
234.035217 152.0
234.992264 52.0
235.254715 152.0
235.722015 60.0
236.223419 56.0
236.615143 160.0
236.780487 172.0
236.896881 96.0
238.544754 156.0
239.338501 184.0
240.062637 140.0
240.155167 112.0
240.540863 136.0
241.050812 748.0
241.093719 136.0
242.052689 292.0
242.114624 152.0
242.26329 100.0
242.988739 128.0
243.010452 172.0
243.064163 2480.0
243.14389 96.0
243.171814 48.0
243.674866 100.0
244.068649 608.0
244.169113 68.0
245.04483 736.0
245.237015 84.0
245.280655 220.0
245.339874 28.0
245.508255 256.0
246.050552 140.0
246.594696 164.0
246.963638 136.0
247.07312 156.0
247.285904 108.0
247.479996 160.0
247.587082 100.0
248.385681 124.0
248.649246 32.0
248.821884 88.0
249.381027 112.0
249.607376 132.0
250.085571 184.0
250.769043 124.0
251.059082 164.0
251.122162 168.0
251.579697 64.0
252.68898 96.0
253.050034 816.0
253.711914 168.0
253.962433 184.0
254.056778 1532.0
254.247971 76.0
254.755981 184.0
254.981583 56.0
255.061096 760.0
256.065033 196.0
256.901611 136.0
257.03775 564.0
257.083466 72.0
257.412903 180.0
258.048798 56.0
258.995361 148.0
259.057556 332.0
259.126678 216.0
259.251648 200.0
260.058807 340.0
261.076843 268.0
261.149048 196.0
262.582275 152.0
264.067963 96.0
264.355865 184.0
265.055328 120.0
265.214111 68.0
266.051025 112.0
266.115967 212.0
267.063019 256.0
267.155945 168.0
267.559479 140.0
267.608307 96.0
268.126251 204.0
268.830658 120.0
269.045105 172.0
269.084717 48.0
269.575195 152.0
270.05188 388.0
270.116455 140.0
270.209534 124.0
270.513885 148.0
270.631744 260.0
270.671051 128.0
270.7005 136.0
270.779114 156.0
270.897034 144.0
271.011688 96.0
271.059509 27424.0
271.161804 148.0
271.223572 128.0
271.270599 44.0
271.309937 112.0
271.355835 116.0
271.384155 72.0
271.417023 120.0
271.533875 40.0
271.654266 84.0
271.729706 84.0
271.776459 132.0
271.811737 36.0
271.932465 204.0
271.962708 48.0
272.01062 144.0
272.062531 4748.0
272.130127 44.0
272.176086 64.0
272.245056 56.0
272.268036 72.0
272.409271 48.0
272.593262 36.0
272.678711 28.0
272.74115 84.0
272.921967 96.0
273.065155 440.0
273.303528 116.0
273.352875 64.0
273.421967 60.0
273.451599 80.0
273.487793 52.0
273.619476 88.0
273.658997 64.0
273.704895 68.0
273.738007 96.0
273.817139 144.0
273.919159 76.0
273.990845 136.0
274.065399 144.0
274.100342 200.0
274.189331 52.0
274.255249 56.0
274.522308 64.0
274.644318 100.0
274.698486 48.0
275.060089 84.0
275.093079 140.0
275.618225 56.0
276.259613 136.0
276.408478 88.0
276.494537 64.0
276.878571 124.0
277.054108 148.0
277.183319 108.0
277.793365 64.0
278.118561 132.0
278.201538 152.0
279.063568 324.0
280.080322 128.0
280.883636 192.0
281.045074 156.0
281.223969 164.0
282.047638 188.0
282.845093 108.0
283.062408 176.0
284.068146 240.0
285.03598 248.0
285.078766 144.0
286.050629 644.0
286.091156 148.0
286.724396 80.0
286.980591 212.0
287.053833 6012.0
287.628326 44.0
287.719452 100.0
287.942322 56.0
288.0065 44.0
288.054138 540.0
288.276764 40.0
288.334229 120.0
288.513367 68.0
288.638458 120.0
288.915802 56.0
288.986847 48.0
289.067169 3360.0
289.156036 68.0
289.186493 36.0
289.244049 48.0
289.474274 196.0
289.775726 72.0
290.012939 256.0
290.068817 716.0
290.199371 88.0
290.402863 48.0
290.718353 80.0
290.813385 76.0
291.069214 256.0
291.305756 72.0
292.063751 88.0
292.352936 104.0
292.890869 64.0
294.039886 156.0
295.232208 88.0
295.618774 80.0
296.053528 112.0
298.046173 196.0
298.087738 140.0
298.221771 100.0
299.017883 128.0
299.055511 248.0
300.048767 172.0
300.071381 184.0
300.256531 60.0
300.784424 184.0
301.039398 156.0
301.084808 124.0
301.146973 60.0
301.810486 152.0
302.052582 104.0
302.526672 160.0
304.32251 196.0
305.040192 444.0
305.090332 100.0
306.033142 104.0
307.026276 68.0
307.054077 424.0
308.059418 120.0
308.534698 60.0
309.069794 136.0
309.101288 100.0
311.056274 448.0
311.155212 108.0
312.044098 184.0
312.627991 128.0
312.811005 88.0
313.03479 304.0
314.400604 112.0
314.972565 112.0
315.089142 128.0
316.064972 164.0
317.079773 184.0
318.088623 124.0
319.066284 116.0
319.652405 84.0
319.709351 92.0
320.062195 132.0
320.884827 68.0
321.070221 104.0
321.298523 164.0
323.053955 176.0
324.606995 60.0
325.078217 376.0
326.090332 232.0
327.049957 148.0
327.076111 168.0
327.147156 80.0
327.456818 148.0
328.062164 116.0
329.213135 160.0
329.903259 92.0
330.250397 116.0
333.080963 156.0
334.059082 160.0
334.084534 148.0
337.092499 144.0
339.490265 164.0
340.426025 112.0
341.510193 96.0
343.052246 164.0
343.40332 100.0
344.062683 292.0
345.063263 136.0
345.087219 340.0
346.075104 28.0
347.060699 160.0
348.114532 120.0
348.482239 116.0
353.064331 204.0
354.066437 124.0
354.152557 108.0
355.078308 156.0
355.415924 220.0
356.039062 160.0
357.080658 188.0
359.063232 172.0
359.091278 180.0
360.07254 120.0
361.071075 116.0
362.066681 120.0
362.266357 224.0
363.069916 112.0
367.062836 96.0
367.169617 92.0
368.864868 36.0
370.001038 88.0
371.280823 96.0
371.940735 52.0
372.052612 184.0
373.074127 328.0
374.208862 160.0
376.090088 160.0
377.074982 144.0
377.786438 40.0
378.22757 108.0
380.600189 172.0
381.076324 168.0
381.111664 76.0
381.462646 112.0
382.02652 56.0
382.088776 176.0
383.011353 156.0
383.038635 72.0
383.104858 148.0
383.712799 132.0
384.902832 36.0
385.074646 160.0
387.048859 304.0
387.143494 240.0
388.058685 128.0
389.064972 664.0
390.066162 236.0
391.038025 52.0
391.092438 328.0
391.097687 392.0
392.073792 140.0
392.40097 152.0
393.043884 172.0
393.106995 144.0
393.410919 96.0
394.09021 164.0
395.091217 128.0
396.118256 76.0
396.282135 96.0
397.043213 176.0
397.069305 124.0
397.729614 60.0
397.980835 52.0
398.027374 172.0
398.062683 164.0
398.535797 52.0
399.044525 76.0
400.815735 164.0
402.071869 68.0
402.930389 100.0
403.022278 92.0
403.461914 60.0
403.737793 220.0
405.06662 132.0
405.691742 96.0
406.064636 108.0
406.277252 156.0
407.079987 256.0
407.164307 72.0
408.627472 112.0
409.069794 136.0
409.118469 136.0
410.099731 264.0
410.157745 176.0
410.278687 72.0
410.577057 176.0
411.112396 172.0
411.254883 88.0
412.050385 176.0
412.11908 156.0
413.077209 160.0
413.105804 60.0
413.740875 96.0
414.506378 152.0
414.826569 128.0
414.957977 76.0
415.03952 272.0
415.077911 84.0
416.045013 276.0
416.981873 132.0
417.128174 204.0
419.093994 352.0
420.088623 116.0
420.121246 180.0
420.264038 136.0
422.061249 144.0
423.043152 164.0
423.092743 356.0
424.186035 152.0
425.057617 828.0
426.073547 324.0
427.07959 120.0
427.405884 28.0
427.434662 156.0
427.792725 112.0
428.925537 84.0
429.062378 184.0
430.068085 84.0
431.093506 208.0
431.142181 128.0
432.084656 140.0
433.036743 136.0
433.107147 136.0
433.873779 124.0
433.902802 116.0
434.545624 332.0
434.703308 80.0
434.844391 144.0
435.072968 144.0
435.579315 132.0
436.091064 128.0
436.818054 108.0
437.069763 444.0
437.105133 496.0
437.192505 140.0
438.097809 132.0
438.191864 108.0
439.054688 100.0
439.107117 224.0
439.617889 60.0
440.072876 120.0
441.09729 124.0
442.40152 28.0
443.067749 96.0
443.628967 152.0
444.050598 152.0
445.055389 124.0
447.082245 492.0
447.153076 108.0
447.49823 104.0
448.094635 292.0
449.018433 100.0
449.096222 500.0
449.175507 56.0
450.072327 136.0
450.116669 172.0
450.188446 76.0
450.32782 160.0
450.462982 104.0
450.7883 96.0
451.04599 140.0
451.076385 516.0
451.748047 36.0
452.076111 328.0
452.408203 44.0
453.068115 728.0
453.297638 116.0
453.416321 84.0
454.073669 236.0
454.10556 124.0
454.226135 164.0
454.650421 92.0
455.07489 216.0
455.111084 136.0
455.147095 136.0
456.060455 188.0
456.115723 92.0
457.05304 308.0
457.102386 172.0
457.387543 184.0
458.090149 180.0
459.085327 188.0
460.087982 124.0
460.970062 124.0
461.077759 136.0
462.070496 228.0
462.227234 92.0
462.800781 48.0
463.109131 108.0
464.09375 204.0
464.266296 148.0
464.609436 208.0
465.097809 1124.0
465.918823 44.0
466.096405 256.0
467.107086 144.0
467.836823 228.0
468.103149 136.0
468.172668 64.0
469.090271 684.0
469.875275 88.0
470.093323 120.0
470.138489 140.0
470.526947 140.0
471.040863 148.0
471.122925 200.0
475.078217 740.0
475.730621 96.0
476.082275 256.0
477.091034 304.0
477.144531 172.0
477.286011 36.0
478.071381 160.0
478.129913 44.0
478.595703 92.0
478.721985 60.0
478.787292 68.0
478.970215 68.0
479.002167 60.0
479.074646 464.0
479.131409 100.0
479.362335 128.0
480.071014 252.0
481.071503 96.0
481.569824 128.0
482.089722 204.0
483.099396 356.0
483.165344 156.0
484.128296 172.0
484.899323 48.0
485.089905 92.0
485.921051 76.0
486.087769 116.0
487.092072 128.0
487.681946 124.0
488.064423 64.0
488.847412 108.0
491.045715 148.0
491.084991 124.0
492.094727 96.0
492.718689 120.0
493.091156 2864.0
493.413422 80.0
493.549591 56.0
493.607086 52.0
493.898987 56.0
494.095673 800.0
494.217499 68.0
494.553833 200.0
495.075775 148.0
495.11731 200.0
495.860382 172.0
495.966766 76.0
496.002228 60.0
496.084045 192.0
496.152954 176.0
496.197296 56.0
496.525421 96.0
496.6008 52.0
497.022247 108.0
497.086731 300.0
497.368408 52.0
498.082611 200.0
498.683136 108.0
499.906128 76.0
500.28891 132.0
500.409119 36.0
501.201935 68.0
502.39679 84.0
502.740356 116.0
502.869781 96.0
503.07663 1384.0
503.258148 60.0
503.450165 84.0
503.575226 76.0
503.941528 128.0
504.069366 288.0
504.081055 672.0
504.383942 84.0
505.070312 104.0
505.10318 272.0
505.116669 176.0
505.131989 356.0
505.238068 124.0
505.891418 88.0
506.113495 140.0
506.236176 128.0
507.081299 296.0
507.45047 108.0
507.593964 60.0
507.880981 136.0
507.979645 48.0
508.764984 104.0
509.101715 144.0
509.87442 60.0
510.076691 64.0
510.323944 40.0
510.773651 216.0
510.877136 80.0
511.098877 1168.0
511.174072 120.0
511.484619 128.0
511.516113 56.0
511.561127 96.0
512.105835 372.0
512.975586 168.0
513.083801 120.0
514.252136 140.0
515.173279 148.0
515.534729 140.0
515.742615 192.0
516.095215 112.0
520.077698 148.0
520.227051 72.0
520.390503 80.0
520.567627 144.0
520.876465 168.0
520.962769 172.0
521.08606 6664.0
521.147522 176.0
521.226379 196.0
521.381226 76.0
521.699951 88.0
521.789856 60.0
521.858032 108.0
521.935364 120.0
521.976257 64.0
522.092102 2216.0
522.468201 52.0
522.608521 48.0
523.037231 120.0
523.089478 396.0
523.163757 36.0
523.250244 40.0
523.423279 76.0
524.071289 496.0
524.3927 100.0
524.644348 136.0
524.703613 72.0
524.799316 48.0
525.059265 112.0
525.164185 216.0
525.232605 120.0
525.270874 132.0
525.506287 40.0
525.770935 136.0
526.063049 172.0
526.38269 120.0
526.930786 48.0
528.137573 116.0
528.270264 36.0
528.508179 56.0
529.103149 132.0
531.536926 128.0
531.578247 64.0
532.859253 60.0
534.08667 144.0
537.749634 40.0
537.791199 112.0
537.980408 112.0
538.083801 92.0
538.123535 144.0
538.271301 72.0
538.368286 104.0
538.622314 64.0
538.733154 200.0
538.825562 44.0
538.871765 112.0
539.096497 10672.0
539.185974 172.0
539.232178 56.0
539.401184 92.0
539.733948 176.0
539.850464 56.0
539.907166 100.0
539.98114 248.0
540.098633 3400.0
540.212463 76.0
540.258728 44.0
540.318848 52.0
540.753784 52.0
540.878784 56.0
540.980408 100.0
541.031555 144.0
541.099976 804.0
541.564087 68.0
541.61499 72.0
541.693726 100.0
541.814209 72.0
542.078186 132.0
542.118164 152.0
542.170959 92.0
542.818176 124.0
543.084351 88.0
543.149292 164.0
543.3302 44.0
543.394348 116.0
543.430115 112.0
543.784912 44.0
543.905579 56.0
543.956665 52.0
544.08667 40.0
544.137695 128.0
544.179504 68.0
545.396606 60.0
545.898743 92.0
546.214966 48.0
546.577881 64.0
546.88501 96.0
549.00946 76.0
549.909912 76.0
551.834473 68.0
555.829834 148.0
556.097351 148.0
556.289795 152.0
557.107117 172.0
559.924377 84.0
560.499084 100.0
565.353516 160.0
571.831604 92.0
575.287354 152.0
576.381104 160.0
577.356262 132.0
577.394531 100.0
578.691284 200.0
579.141418 100.0
601.183594 84.0
612.602844 64.0
629.58606 68.0
632.646057 32.0
657.454468 60.0
665.336975 68.0
689.308289 76.0
698.477905 28.0
711.472351 124.0
727.337585 72.0
751.228821 104.0
757.005981 44.0
769.465515 132.0
772.466309 88.0
786.971436 104.0
800.687622 100.0
806.55542 256.0
809.740906 116.0
810.341309 84.0
821.284424 100.0
823.030762 60.0
845.050537 76.0
846.277588 36.0
865.738098 80.0
890.722351 36.0
896.410095 80.0
902.408875 92.0
925.005188 112.0
998.321838 120.0
1009.464722 36.0
1019.671326 60.0
1099.691528 132.0
1099.981934 32.0
1195.871338 56.0
1235.088745 36.0
1244.156494 208.0
1293.203857 136.0
1294.034302 64.0
1299.502808 128.0
1312.161011 64.0
1339.299805 108.0
1351.513306 92.0
1361.548706 128.0
1393.623047 156.0
1423.434082 180.0
1431.615601 164.0
1443.614258 68.0
1485.014526 120.0
