>compound MLS001401391-01!Fluvoxamine
>formula C15H21F3N2O2
>ionization [M+H]+
>parentmass 319.1627890240905
#inchi InChI=1S/C15H21F3N2O2/c1-21-10-3-2-4-14(20-22-11-9-19)12-5-7-13(8-6-12)15(16,17)18/h5-8H,2-4,9-11,19H2,1H3
#inchikey CJOFXWAVKWHTFT
#origInchi InChI=1S/C15H21F3N2O2.C4H4O4/c1-21-10-3-2-4-14(20-22-11-9-19)12-5-7-13(8-6-12)15(16,17)18;5-3(6)1-2-4(7)8/h5-8H,2-4,9-11,19H2,1H3;1-2H,(H,5,6)(H,7,8)/b;2-1-
#Ion_Source LC-ESI
#Instrument qTof
#Compound_Source NIH Pharmacologically Active Library
#PI Dorrestein
#Data_Collector VP/LMS
#Scan -1
#Precursor_MZ 319.172
#ExactMass 318.156
#Charge 1
#CAS_Number N/A
#Pubmed_ID N/A
#Smiles COCCCCC(=NOCCN)c1ccc(cc1)C(F)(F)F.OC(=O)/C=C\C(=O)O
#INCHI_AUX N/A
#Library_Class 1
#SpectrumID CCMSLIB00000085533
#IonMode Positive
#UpdateWorkflowName UPDATE-SINGLE-ANNOTATED-GOLD
#LibraryQualityString Gold
#TaskID d252d724072548979f1f6f1ced849daf
##Scan# 1751
#SpectrumFile p4-C04_GC4_01_18352.mzXML
#LibraryName Pharm_Active_Library.mgf
#MQScore -1
#Organism Pharm_Active_Library
#TIC_Query 0
#RT_Query -1
#MZErrorPPM -1
#SharedPeaks 0
#MassDiff 0
#LibMZ -1
#SpecMZ 319.172
#SpecCharge 0
#internalFilename spec-00000.mgf

>collision 10
44.886456 244.0
44.905125 160.0
44.93388 108.0
44.991627 184.0
45.050617 196.0
45.102734 140.0
45.239811 160.0
45.336948 116.0
45.430843 136.0
45.471058 88.0
45.567741 240.0
45.612087 156.0
45.764107 112.0
45.799122 148.0
45.889408 140.0
45.935261 152.0
45.990582 128.0
46.00515 192.0
46.239269 136.0
46.278076 160.0
46.312382 148.0
46.34354 136.0
46.355736 180.0
46.514347 160.0
46.589104 72.0
46.659843 152.0
46.680164 108.0
46.759068 192.0
46.960396 208.0
47.018009 232.0
47.064423 164.0
47.131351 60.0
47.154583 128.0
47.19286 196.0
47.214737 188.0
47.268089 160.0
47.325577 136.0
47.39954 184.0
47.474934 168.0
47.500996 188.0
47.590199 232.0
47.672615 156.0
47.840233 152.0
47.983406 136.0
48.142368 216.0
48.17828 168.0
48.200386 184.0
48.213699 164.0
48.313759 148.0
48.335896 52.0
48.376034 228.0
48.43634 272.0
48.459126 252.0
48.470211 200.0
48.482681 168.0
48.506245 164.0
48.535358 120.0
48.558933 68.0
48.646347 144.0
48.67828 184.0
48.7005 96.0
48.735229 124.0
48.804726 176.0
48.832539 164.0
48.921593 200.0
48.95779 116.0
48.989826 76.0
49.003757 184.0
49.042778 40.0
49.080418 100.0
49.12923 212.0
49.18784 160.0
49.200405 228.0
49.263729 116.0
49.307957 192.0
49.372269 132.0
49.404438 56.0
49.41423 164.0
49.606091 112.0
49.715488 136.0
49.729523 184.0
49.855923 220.0
49.933243 176.0
50.104973 128.0
50.157112 92.0
50.326401 92.0
50.488903 192.0
50.511536 128.0
50.545486 160.0
50.572376 128.0
50.596439 148.0
50.760796 80.0
50.87146 132.0
50.904846 152.0
50.970879 228.0
51.002144 96.0
51.060436 136.0
51.165733 132.0
51.278263 128.0
51.292568 220.0
51.319603 196.0
51.353828 220.0
51.55513 188.0
51.603729 148.0
51.665413 184.0
51.804085 156.0
51.834171 236.0
51.988182 180.0
52.007702 124.0
52.089546 116.0
52.10104 236.0
52.138397 140.0
52.182957 132.0
52.194462 156.0
52.276451 168.0
52.345547 232.0
52.492527 172.0
52.530025 112.0
52.592072 68.0
52.602177 156.0
52.706161 192.0
52.716274 160.0
52.875351 232.0
52.949188 220.0
52.975258 44.0
52.994091 184.0
53.037567 164.0
53.052063 276.0
53.07526 156.0
53.301697 180.0
53.402008 164.0
53.425282 160.0
53.470387 188.0
53.572311 204.0
53.585423 88.0
53.61924 116.0
53.757477 148.0
53.833385 176.0
53.888889 160.0
53.931271 136.0
53.967815 176.0
54.032169 160.0
54.27383 244.0
54.382389 112.0
54.392662 156.0
54.402939 80.0
54.511623 124.0
54.582184 176.0
54.66758 148.0
54.719017 112.0
54.810333 144.0
54.828018 200.0
54.941551 136.0
54.974014 156.0
55.024197 120.0
55.039124 168.0
55.110531 48.0
55.124245 212.0
55.22073 112.0
55.291744 108.0
55.305061 152.0
55.343552 152.0
55.408718 172.0
55.429462 256.0
55.50951 164.0
55.592579 144.0
55.654922 208.0
55.690563 208.0
55.700962 228.0
55.711361 76.0
55.790123 204.0
55.844891 144.0
55.89423 136.0
56.078892 200.0
56.208637 44.0
56.2355 112.0
56.344505 104.0
56.458103 124.0
56.522427 128.0
56.583794 156.0
56.664669 172.0
56.775589 160.0
56.819897 196.0
56.856598 116.0
56.895626 204.0
56.946678 200.0
57.074413 156.0
57.087948 264.0
57.142097 160.0
57.20982 156.0
57.236919 152.0
57.519249 208.0
57.549034 176.0
57.616997 104.0
57.659306 144.0
57.691048 108.0
57.822639 224.0
57.97863 276.0
57.990753 236.0
58.107517 172.0
58.166702 100.0
58.189472 132.0
58.333794 136.0
58.355076 136.0
58.482857 148.0
58.557465 164.0
58.593235 136.0
58.683941 68.0
58.775455 152.0
58.821243 240.0
58.851776 176.0
58.877735 68.0
58.900642 132.0
58.918976 72.0
58.970928 124.0
59.016788 236.0
59.056549 172.0
59.081287 140.0
59.105503 132.0
59.241764 132.0
59.278534 212.0
59.296925 180.0
59.309185 68.0
59.36491 128.0
59.376244 228.0
59.405788 56.0
59.454887 124.0
59.602306 176.0
59.648411 152.0
59.703758 52.0
59.732983 64.0
59.751442 136.0
59.776062 208.0
59.786831 104.0
59.797607 244.0
59.834549 64.0
59.863804 136.0
59.91309 208.0
59.929546 196.0
59.956234 164.0
60.141346 164.0
60.250946 212.0
60.289574 188.0
60.421364 172.0
60.455044 188.0
60.521603 192.0
60.612991 128.0
60.649773 180.0
60.695145 124.0
60.747875 128.0
60.845642 64.0
60.918633 120.0
60.94038 84.0
60.963688 192.0
61.106579 156.0
61.243729 148.0
61.401184 156.0
61.41518 132.0
61.571251 168.0
61.613426 120.0
61.627487 212.0
61.711887 140.0
61.729088 120.0
61.902782 136.0
61.923141 148.0
61.968567 120.0
62.001476 116.0
62.0923 120.0
62.136326 152.0
62.266609 188.0
62.310589 156.0
62.32592 148.0
62.401745 188.0
62.417469 180.0
62.450493 208.0
62.470943 108.0
62.534157 208.0
62.579533 180.0
62.6063 220.0
62.622051 96.0
62.636227 264.0
62.765415 160.0
62.82539 204.0
62.877056 164.0
62.907448 184.0
62.931129 140.0
63.076469 124.0
63.234638 160.0
63.266293 80.0
63.399342 116.0
63.415192 148.0
63.526184 40.0
63.694447 324.0
63.777069 160.0
63.788197 108.0
63.826351 164.0
63.867699 200.0
63.902699 44.0
63.940887 216.0
64.073051 132.0
64.151138 172.0
64.23246 180.0
64.278725 68.0
64.368118 120.0
64.408043 212.0
64.465561 84.0
64.499283 216.0
64.564674 160.0
64.590263 92.0
64.732704 72.0
64.771309 152.0
64.833626 156.0
64.86087 148.0
64.884918 148.0
65.054962 268.0
65.085472 52.0
65.120796 120.0
65.194702 220.0
65.231667 124.0
65.267036 20.0
65.316895 368.0
65.355499 416.0
65.378029 96.0
65.432755 144.0
65.464958 156.0
65.477844 208.0
65.506836 188.0
65.535835 108.0
65.574509 76.0
65.600296 244.0
65.637383 116.0
65.674469 160.0
65.708778 164.0
65.810028 140.0
65.913399 204.0
65.960266 172.0
66.001045 180.0
66.015236 164.0
66.041115 176.0
66.052437 84.0
66.19162 224.0
66.292053 148.0
66.342293 160.0
66.353645 72.0
66.527191 172.0
66.543465 172.0
66.633804 184.0
66.676659 160.0
66.694542 120.0
66.829514 156.0
66.89624 132.0
66.915108 144.0
67.031937 140.0
67.055862 148.0
67.085205 176.0
67.103134 164.0
67.196098 124.0
67.241791 192.0
67.253662 180.0
67.271172 168.0
67.313622 196.0
67.326683 172.0
67.4198 164.0
67.477013 176.0
67.685837 196.0
67.69236 124.0
67.783081 136.0
67.843727 108.0
67.915878 172.0
67.965088 168.0
68.116127 168.0
68.129272 132.0
68.313385 188.0
68.379204 68.0
68.520813 252.0
68.624649 228.0
68.67247 156.0
68.736618 176.0
68.76651 164.0
68.956444 124.0
68.977928 168.0
68.996117 132.0
69.057297 172.0
69.149948 184.0
69.233566 176.0
69.294014 208.0
69.400581 188.0
69.444862 148.0
69.461449 132.0
69.66507 228.0
69.728767 88.0
69.8069 68.0
69.823532 108.0
69.896553 192.0
69.961632 48.0
69.989937 128.0
70.059891 124.0
70.10321 168.0
70.134872 212.0
70.174881 212.0
70.203224 224.0
70.249931 96.0
70.283295 160.0
70.296074 200.0
70.331688 140.0
70.51709 224.0
70.538818 196.0
70.568909 116.0
70.597336 88.0
70.650856 144.0
70.679298 132.0
70.727829 140.0
70.778053 176.0
70.791451 80.0
70.820419 188.0
70.940567 124.0
71.04789 168.0
71.074738 208.0
71.151939 112.0
71.245987 180.0
71.360268 152.0
71.520081 168.0
71.53186 172.0
71.565536 112.0
71.607628 124.0
71.619423 144.0
71.643005 96.0
71.751701 104.0
71.784584 180.0
71.803055 184.0
71.860481 200.0
71.897606 180.0
71.929672 156.0
71.961746 172.0
72.005653 100.0
72.069847 104.0
72.117165 164.0
72.144707 176.0
72.208458 188.0
72.306587 128.0
72.462074 204.0
72.528458 116.0
72.547859 216.0
72.776138 88.0
72.81073 108.0
72.935829 88.0
72.980026 28.0
73.00724 176.0
73.054863 120.0
73.153557 152.0
73.269363 60.0
73.297028 184.0
73.467117 108.0
73.668625 184.0
73.709557 160.0
73.812119 176.0
73.837769 92.0
73.868553 152.0
73.88224 172.0
73.983208 56.0
74.002037 172.0
74.026009 176.0
74.13916 156.0
74.195633 112.0
74.211067 180.0
74.271088 72.0
74.324272 156.0
74.379189 60.0
74.391205 224.0
74.580147 104.0
74.729759 168.0
75.141533 100.0
75.167412 152.0
75.203827 80.0
75.289978 208.0
75.322792 148.0
75.417824 140.0
75.483521 48.0
75.50946 92.0
75.531944 176.0
75.580383 180.0
75.602882 152.0
75.627113 224.0
75.65905 184.0
75.748314 116.0
75.784698 100.0
75.850548 116.0
75.886414 192.0
75.987549 128.0
76.107307 120.0
76.148987 56.0
76.265999 160.0
76.397545 104.0
76.52285 152.0
76.580505 184.0
76.643761 416.0
76.754585 140.0
76.84005 164.0
77.229599 148.0
77.273331 192.0
77.429672 152.0
77.514954 196.0
77.660461 276.0
77.683266 176.0
77.720108 156.0
77.734146 164.0
77.788551 144.0
77.814888 124.0
77.909721 172.0
77.97419 180.0
78.020439 304.0
78.060875 100.0
78.08374 152.0
78.13475 136.0
78.277313 164.0
78.386871 144.0
78.442184 200.0
78.516983 216.0
78.605186 60.0
78.659897 256.0
78.689903 92.0
78.861252 180.0
78.935501 128.0
78.960258 176.0
79.078796 112.0
79.275375 180.0
79.294868 188.0
79.387054 192.0
79.413658 48.0
79.498817 156.0
79.559166 76.0
79.584023 164.0
79.622581 156.0
79.629494 112.0
79.634628 224.0
79.671043 148.0
79.688812 284.0
79.727905 196.0
79.863022 152.0
79.894302 184.0
79.943871 216.0
79.969772 168.0
80.014275 180.0
80.049889 168.0
80.106621 220.0
80.229836 96.0
80.32235 232.0
80.326767 204.0
80.367165 180.0
80.445694 112.0
80.474258 292.0
80.493896 164.0
80.513542 144.0
80.526039 204.0
80.625687 196.0
80.74408 148.0
80.923019 156.0
80.955254 176.0
81.075279 132.0
81.114708 148.0
81.170288 40.0
81.319969 128.0
81.335335 116.0
81.375778 232.0
81.421516 36.0
81.527512 216.0
81.54908 216.0
81.651558 128.0
81.696526 184.0
81.802696 96.0
82.06752 160.0
82.083748 104.0
82.27861 168.0
82.42852 172.0
82.529747 136.0
82.612938 124.0
82.629219 184.0
82.665405 136.0
82.67807 156.0
82.737808 32.0
82.795746 188.0
82.865074 132.0
82.971504 164.0
83.112976 152.0
83.221878 148.0
83.256378 132.0
83.343567 184.0
83.359924 108.0
83.416267 160.0
83.498085 228.0
83.741966 196.0
83.805717 80.0
83.847633 188.0
83.907784 68.0
83.938782 212.0
83.989845 132.0
84.071945 160.0
84.095673 204.0
84.126701 100.0
84.155914 156.0
84.168694 160.0
84.234436 140.0
84.342247 184.0
84.435493 36.0
84.477562 124.0
84.56356 124.0
84.710037 204.0
84.752174 132.0
84.786995 140.0
84.829147 168.0
84.863983 104.0
84.90799 100.0
84.93 112.0
84.96302 212.0
85.040085 144.0
85.093323 172.0
85.126373 68.0
85.245773 120.0
85.295395 164.0
85.402039 152.0
85.425957 120.0
85.666145 192.0
85.705788 112.0
85.753708 164.0
85.928886 36.0
85.943642 40.0
85.993469 148.0
86.010078 280.0
86.047005 124.0
86.314911 164.0
86.351021 144.0
86.400322 224.0
86.418884 208.0
86.446243 124.0
86.474007 156.0
86.511833 228.0
86.559158 164.0
86.61657 228.0
86.744431 200.0
86.831573 108.0
86.877945 124.0
86.922478 80.0
86.980003 236.0
87.039413 160.0
87.10437 152.0
87.232635 140.0
87.251221 172.0
87.277672 212.0
87.3535 252.0
87.386986 148.0
87.424202 72.0
87.47818 160.0
87.504242 216.0
87.568016 128.0
87.619705 72.0
87.712883 180.0
87.765083 140.0
87.987106 92.0
88.026314 232.0
88.101021 144.0
88.157074 68.0
88.233711 200.0
88.32534 176.0
88.345917 124.0
88.576164 168.0
88.8386 140.0
88.928665 160.0
88.979347 164.0
89.006325 120.0
89.03756 184.0
89.120209 172.0
89.212296 160.0
89.261177 144.0
89.293152 208.0
89.382675 236.0
89.485085 188.0
89.525459 168.0
89.665916 196.0
89.686653 112.0
89.805435 152.0
89.903542 52.0
89.941284 160.0
90.056465 132.0
90.120689 132.0
90.135803 132.0
90.192505 228.0
90.226532 128.0
90.243546 152.0
90.30027 244.0
90.364586 172.0
90.455429 228.0
90.544411 128.0
90.596886 188.0
90.682716 196.0
90.747169 216.0
90.967232 164.0
90.999504 112.0
91.037483 116.0
91.062172 148.0
91.115356 212.0
91.128654 88.0
91.179962 176.0
91.212273 156.0
91.345383 128.0
91.377716 120.0
91.440514 92.0
91.545219 116.0
91.579498 192.0
91.712875 40.0
91.80629 140.0
92.025993 228.0
92.078918 168.0
92.096382 168.0
92.14032 132.0
92.199554 184.0
92.25885 172.0
92.319992 172.0
92.341026 164.0
92.377365 68.0
92.425194 164.0
92.448158 160.0
92.536209 180.0
92.610893 160.0
92.631958 172.0
92.679855 184.0
92.760345 132.0
92.792938 148.0
92.971321 168.0
93.055779 424.0
93.138359 164.0
93.16333 68.0
93.21328 228.0
93.236343 28.0
93.295929 224.0
93.334381 164.0
93.36322 204.0
93.451706 76.0
93.469025 48.0
93.484421 164.0
93.551781 144.0
93.582588 176.0
93.759804 148.0
93.81955 180.0
93.898613 144.0
93.961922 180.0
94.004715 124.0
94.070335 124.0
94.205811 152.0
94.292458 116.0
94.410385 132.0
94.485817 196.0
94.534195 148.0
94.588379 204.0
94.677444 172.0
94.756859 208.0
94.809181 188.0
95.025513 148.0
95.237946 108.0
95.26902 84.0
95.340912 200.0
95.416718 184.0
95.445885 180.0
95.467278 144.0
95.492554 208.0
95.521729 72.0
95.56842 180.0
95.611229 96.0
95.679359 196.0
95.71051 152.0
95.913116 180.0
96.074501 184.0
96.225243 80.0
96.244766 180.0
96.299446 140.0
96.344368 180.0
96.383446 136.0
96.408844 80.0
96.477257 164.0
96.551559 184.0
96.665016 132.0
96.798126 168.0
96.929367 68.0
97.03717 152.0
97.182304 152.0
97.210968 80.0
97.311844 160.0
97.622299 156.0
97.85054 152.0
97.952942 236.0
97.976585 96.0
98.056076 128.0
98.16777 228.0
98.286125 148.0
98.32164 148.0
98.49144 188.0
98.555565 208.0
98.719772 188.0
98.788399 156.0
98.888855 184.0
98.932404 196.0
99.001701 196.0
99.021439 128.0
99.229568 228.0
99.304916 168.0
99.346573 84.0
99.503357 160.0
99.535118 232.0
99.630455 144.0
99.646347 56.0
99.701988 164.0
99.725838 180.0
99.775528 244.0
99.793419 128.0
99.825233 204.0
100.030632 168.0
100.118202 220.0
100.139671 196.0
100.161583 176.0
100.233299 184.0
100.305046 212.0
100.334953 200.0
100.410721 108.0
100.586304 160.0
100.61824 160.0
100.690125 172.0
100.716087 200.0
100.73806 172.0
100.78299 188.0
100.840233 180.0
100.875946 140.0
100.901932 132.0
100.921928 156.0
101.019394 880.0
101.06794 136.0
101.107956 96.0
101.143425 216.0
101.188026 180.0
101.212051 156.0
101.338234 216.0
101.365082 140.0
101.394341 108.0
101.454315 204.0
101.526657 164.0
101.542702 104.0
101.558746 120.0
101.574791 68.0
101.691162 144.0
101.773468 136.0
101.791542 252.0
101.87188 112.0
102.014557 208.0
102.042702 196.0
102.211655 72.0
102.334427 112.0
102.39283 160.0
102.431091 148.0
102.479446 176.0
102.509445 220.0
102.517204 168.0
102.580208 156.0
102.602386 196.0
102.648758 228.0
102.880783 72.0
102.939331 152.0
102.977707 132.0
103.056076 808.0
103.133278 40.0
103.197968 184.0
103.268745 140.0
103.382034 44.0
103.475143 160.0
103.564247 168.0
103.592606 40.0
103.627045 220.0
103.758781 124.0
103.805412 160.0
103.965668 148.0
103.985001 84.0
104.053993 172.0
104.434982 120.0
104.483803 220.0
104.56926 148.0
104.640511 68.0
104.719925 96.0
104.797333 136.0
104.956314 180.0
105.058426 176.0
105.101135 168.0
105.119499 164.0
105.160316 184.0
105.417633 232.0
105.472816 180.0
105.552544 164.0
105.589355 44.0
105.775543 148.0
105.80011 148.0
105.894302 148.0
106.060265 116.0
106.132011 112.0
106.193535 140.0
106.269432 76.0
106.335098 240.0
106.3741 176.0
106.42337 48.0
106.456223 248.0
106.470596 156.0
106.618507 212.0
106.649338 156.0
106.721291 180.0
106.738876 164.0
106.793266 220.0
106.881721 172.0
106.976395 180.0
107.242111 208.0
107.262718 144.0
107.341064 192.0
107.458633 200.0
107.548927 172.0
107.760063 100.0
107.799324 152.0
107.84066 188.0
107.927483 240.0
108.019753 252.0
108.204727 184.0
108.256485 120.0
108.505127 136.0
108.534157 72.0
108.615036 100.0
108.864082 136.0
108.889008 64.0
108.959633 168.0
109.04567 452.0
109.227798 164.0
109.333908 96.0
109.360962 100.0
109.392181 144.0
109.481712 140.0
109.525848 168.0
109.554611 176.0
109.569191 224.0
109.604614 160.0
109.633789 200.0
109.721329 188.0
109.86731 132.0
110.063499 176.0
110.255684 144.0
110.310196 148.0
110.345558 144.0
110.376923 212.0
110.445938 164.0
110.498238 148.0
110.674042 208.0
110.688698 224.0
110.720116 228.0
110.749435 204.0
110.892586 172.0
110.914963 148.0
111.013504 116.0
111.073143 228.0
111.122574 172.0
111.175026 48.0
111.200211 104.0
111.321976 192.0
111.416489 32.0
111.445908 232.0
111.527863 152.0
111.606071 216.0
111.675041 220.0
111.725525 184.0
111.871849 120.0
111.88485 220.0
112.022346 64.0
112.155098 144.0
112.218338 128.0
112.27903 148.0
112.458824 164.0
112.574547 152.0
112.602386 128.0
112.669983 92.0
112.697449 164.0
112.763138 136.0
112.809456 128.0
112.91729 108.0
112.934212 220.0
112.974403 176.0
113.020943 136.0
113.039291 384.0
113.09713 60.0
113.139465 180.0
113.234749 236.0
113.251694 88.0
113.327957 120.0
113.395767 88.0
113.48056 192.0
113.554779 100.0
113.573868 224.0
113.6269 164.0
113.792442 96.0
113.858269 132.0
113.911362 236.0
113.983597 184.0
114.092712 500.0
114.281273 160.0
114.334648 144.0
114.471832 152.0
114.521828 252.0
114.605629 284.0
114.641129 328.0
114.707199 108.0
114.770119 176.0
114.788216 260.0
114.811676 216.0
114.882057 60.0
114.905006 180.0
114.928993 180.0
115.01947 184.0
115.055664 1544.0
115.080536 148.0
115.123245 168.0
115.146736 36.0
115.168091 32.0
115.208679 168.0
115.264229 200.0
115.375801 176.0
115.452339 224.0
115.49939 152.0
115.544312 164.0
115.589249 132.0
115.634186 260.0
115.741219 124.0
115.770813 132.0
115.878296 312.0
115.929726 120.0
116.060127 608.0
116.191307 136.0
116.210617 160.0
116.274994 128.0
116.298599 152.0
116.427422 176.0
116.46608 180.0
116.528374 228.0
116.588257 216.0
116.732567 172.0
116.766975 200.0
116.840111 148.0
116.924026 144.0
116.997208 84.0
117.055977 384.0
117.165192 204.0
117.188889 192.0
117.203972 140.0
117.300949 152.0
117.363472 148.0
117.410912 148.0
117.430321 160.0
117.477776 112.0
117.510132 256.0
117.576614 232.0
117.749741 144.0
117.816696 124.0
117.891403 160.0
117.897316 232.0
117.918251 188.0
118.006882 116.0
118.070755 104.0
118.100464 204.0
118.140968 160.0
118.234009 192.0
118.288116 268.0
118.357391 76.0
118.454849 144.0
118.597862 104.0
118.673737 156.0
118.752586 176.0
118.786507 144.0
118.881966 144.0
118.912354 168.0
119.005692 136.0
119.032646 188.0
119.070023 160.0
119.169029 172.0
119.331596 84.0
119.377258 96.0
119.712372 36.0
119.747215 124.0
119.810913 216.0
120.008713 100.0
120.0327 176.0
120.056686 144.0
120.100304 168.0
120.167931 112.0
120.279228 196.0
120.344719 96.0
120.386208 140.0
120.427696 52.0
120.453911 92.0
120.528191 236.0
120.606865 148.0
120.63102 152.0
120.672447 172.0
120.698685 172.0
120.893364 92.0
120.926193 248.0
120.961212 40.0
121.02552 456.0
121.136391 200.0
121.27005 180.0
121.28978 184.0
121.377472 48.0
121.419136 276.0
121.454231 72.0
121.50029 132.0
121.532539 224.0
121.592453 144.0
121.649521 164.0
121.700127 160.0
121.724167 148.0
121.78994 232.0
121.92627 184.0
122.044449 152.0
122.126945 188.0
122.143936 152.0
122.228188 148.0
122.277512 176.0
122.491722 200.0
122.626129 208.0
122.676888 140.0
122.729736 128.0
122.80471 236.0
123.005501 136.0
123.113686 240.0
123.261688 148.0
123.279366 228.0
123.327988 224.0
123.427467 136.0
123.512001 160.0
123.607262 228.0
123.674011 72.0
123.69738 168.0
123.712875 200.0
123.752724 164.0
124.08284 184.0
124.109444 148.0
124.282135 176.0
124.362335 128.0
124.471115 136.0
124.503876 208.0
124.535522 128.0
124.57106 332.0
124.606606 140.0
124.735497 148.0
124.762169 232.0
124.982002 204.0
125.016571 328.0
125.06469 104.0
125.100304 192.0
125.157051 156.0
125.189369 152.0
125.250633 248.0
125.37204 108.0
125.389862 188.0
125.438904 268.0
125.454506 128.0
125.503555 180.0
125.57045 184.0
125.693146 160.0
125.760094 140.0
125.829292 176.0
125.900749 124.0
125.958817 124.0
125.985626 92.0
126.003494 144.0
126.045944 108.0
126.068291 160.0
126.117462 164.0
126.280678 156.0
126.414909 92.0
126.444 180.0
126.609665 44.0
126.6567 100.0
126.717186 104.0
126.735107 144.0
126.773201 220.0
126.938446 184.0
126.979446 132.0
127.038376 460.0
127.062904 216.0
127.091614 184.0
127.147713 80.0
127.192596 192.0
127.210556 124.0
127.324059 168.0
127.480072 32.0
127.513779 156.0
127.601448 68.0
127.620811 184.0
127.704887 92.0
127.911896 244.0
127.965919 152.0
127.990685 160.0
128.006454 168.0
128.061447 856.0
128.114563 216.0
128.35878 232.0
128.473541 164.0
128.49498 156.0
128.566208 180.0
128.664825 64.0
128.7034 140.0
128.711334 60.0
128.72049 176.0
128.795792 184.0
128.840973 136.0
128.858475 192.0
128.929092 140.0
128.983337 148.0
129.014328 188.0
129.062119 136.0
129.270554 156.0
129.306763 124.0
129.352036 200.0
129.390518 352.0
129.413162 168.0
129.496948 172.0
129.596619 184.0
129.66687 196.0
129.696335 72.0
129.734863 212.0
129.775681 68.0
129.802887 84.0
129.844406 180.0
129.889069 180.0
129.910004 176.0
129.943512 128.0
129.977539 156.0
130.002502 212.0
130.065872 35772.0
130.121674 164.0
130.1259 132.0
130.16449 56.0
130.190918 36.0
130.221954 48.0
130.26062 116.0
130.311905 228.0
130.330597 172.0
130.363571 228.0
130.397659 52.0
130.495407 128.0
130.527237 140.0
130.563614 68.0
130.622757 148.0
130.654602 160.0
130.670532 124.0
130.702454 212.0
130.77449 180.0
130.809341 108.0
130.83667 100.0
130.916351 144.0
130.984436 72.0
131.042847 408.0
131.073715 26596.0
131.114304 76.0
131.164688 32.0
131.219711 304.0
131.239929 72.0
131.258163 196.0
131.312897 164.0
131.350143 72.0
131.415543 92.0
131.502258 48.0
131.522797 56.0
131.547913 112.0
131.602707 260.0
131.646088 48.0
131.696335 48.0
131.761856 140.0
131.777588 308.0
131.843796 44.0
131.87326 200.0
131.883057 88.0
131.89003 176.0
131.9664 144.0
131.998001 168.0
132.014008 228.0
132.028534 112.0
132.078827 3404.0
132.189346 160.0
132.224472 64.0
132.261093 156.0
132.297714 160.0
132.338928 72.0
132.383087 196.0
132.419067 160.0
132.441971 92.0
132.469467 52.0
132.508408 196.0
132.579437 208.0
132.643616 68.0
132.751373 148.0
132.769714 44.0
132.829346 48.0
132.85228 72.0
132.907349 76.0
132.958466 160.0
132.983078 188.0
133.045334 3840.0
133.08165 356.0
133.109344 64.0
133.127716 192.0
133.207626 216.0
133.40802 244.0
133.479294 44.0
133.536789 156.0
133.626709 132.0
133.762268 60.0
133.815216 120.0
133.870483 132.0
133.923447 104.0
133.9534 96.0
133.974121 72.0
134.044434 992.0
134.119293 64.0
134.264542 144.0
134.326828 144.0
134.366043 192.0
134.409882 68.0
134.443085 236.0
134.603775 132.0
134.687317 224.0
134.707703 196.0
134.733109 292.0
134.80011 56.0
134.934174 244.0
134.953339 236.0
134.98967 152.0
135.043762 304.0
135.119186 124.0
135.1539 32.0
135.181656 144.0
135.223312 148.0
135.341827 208.0
135.424744 220.0
135.721375 44.0
135.809494 152.0
135.851242 200.0
136.062424 176.0
136.083328 144.0
136.152985 52.0
136.220337 140.0
136.436462 124.0
136.538757 128.0
136.841263 168.0
137.029907 272.0
137.050888 184.0
137.068497 144.0
137.146423 80.0
137.297974 64.0
137.377274 184.0
137.39827 216.0
137.437927 168.0
137.470596 136.0
137.619995 144.0
137.75766 168.0
137.80217 168.0
137.8302 212.0
137.862915 220.0
138.035904 128.0
138.307037 136.0
138.349411 172.0
138.390091 224.0
138.446274 152.0
138.649231 144.0
138.85553 108.0
138.944672 240.0
139.033539 344.0
139.094849 80.0
139.137115 228.0
139.240433 192.0
139.441864 208.0
139.583527 124.0
139.708176 120.0
139.743835 128.0
139.903503 200.0
140.023575 276.0
140.046082 792.0
140.233261 80.0
140.577576 128.0
140.594101 156.0
140.657822 228.0
140.683792 180.0
140.716843 124.0
140.80658 188.0
140.905777 152.0
141.014481 56.0
141.069061 1080.0
141.175507 144.0
141.217804 112.0
141.286407 192.0
141.34082 96.0
141.520706 220.0
141.601227 272.0
141.804977 96.0
141.916382 160.0
141.963806 92.0
142.078888 1684.0
142.170197 300.0
142.24614 100.0
142.526382 144.0
142.607178 28.0
142.752563 160.0
142.816406 120.0
142.944885 92.0
142.980576 144.0
143.032059 540.0
143.073425 616.0
143.130539 136.0
143.195053 236.0
143.261536 216.0
143.280594 188.0
143.363983 100.0
143.526077 64.0
143.590622 204.0
143.645325 128.0
143.965149 188.0
143.993805 148.0
144.079758 596.0
144.165817 44.0
144.194489 84.0
144.232727 96.0
144.282928 140.0
144.493393 128.0
144.531662 104.0
144.560379 144.0
144.692032 160.0
144.708786 180.0
144.735123 248.0
144.790192 80.0
144.827087 140.0
144.871628 160.0
144.900375 184.0
144.967133 168.0
145.026382 22652.0
145.072388 176.0
145.082367 196.0
145.133743 84.0
145.185623 72.0
145.214401 64.0
145.243179 104.0
145.269562 48.0
145.286362 164.0
145.312744 176.0
145.346344 68.0
145.401535 100.0
145.46077 120.0
145.552765 180.0
145.592606 108.0
145.62001 168.0
145.6595 60.0
145.69928 108.0
145.766556 136.0
145.81221 96.0
145.848267 328.0
145.868149 180.0
145.888107 104.0
146.027786 1752.0
146.076691 124.0
146.09935 180.0
146.16571 136.0
146.182556 92.0
146.204208 28.0
146.2379 100.0
146.283646 64.0
146.387161 232.0
146.435333 156.0
146.466644 164.0
146.671448 104.0
146.790543 120.0
146.873993 80.0
147.013931 160.0
147.040466 280.0
147.062195 124.0
147.099533 220.0
147.117706 92.0
147.257751 100.0
147.277084 136.0
147.335052 108.0
147.360825 156.0
147.417206 36.0
147.470367 152.0
147.562225 132.0
147.712158 132.0
147.782318 80.0
147.973526 36.0
147.992889 136.0
148.053711 136.0
148.23996 196.0
148.361145 52.0
148.397507 160.0
148.450851 172.0
148.694168 148.0
148.941101 192.0
148.975113 128.0
149.023315 240.0
149.067596 180.0
149.103882 164.0
149.375732 200.0
149.558701 144.0
149.83873 92.0
149.975189 168.0
150.033691 100.0
150.072708 48.0
150.208328 144.0
150.338577 112.0
150.448425 204.0
150.511902 192.0
150.677979 148.0
150.702408 164.0
150.741943 156.0
150.765945 104.0
150.873489 144.0
150.922394 152.0
151.035965 968.0
151.060608 100.0
151.152313 212.0
151.27713 80.0
151.518951 128.0
151.68866 156.0
151.801437 296.0
151.96283 344.0
152.039764 560.0
152.076706 196.0
152.137573 40.0
152.277527 140.0
152.365967 152.0
152.43721 188.0
152.476532 180.0
152.557648 148.0
152.651077 144.0
152.830643 120.0
153.000458 212.0
153.051178 1884.0
153.155594 132.0
153.21225 168.0
153.305878 192.0
153.579529 224.0
153.848495 156.0
153.875656 136.0
153.99913 144.0
154.021347 160.0
154.054703 304.0
154.0896 140.0
154.117691 184.0
154.223969 188.0
154.278336 172.0
154.327789 148.0
154.575134 160.0
154.698395 160.0
154.755829 224.0
155.054565 260.0
155.088806 168.0
155.107605 188.0
155.226608 56.0
155.276199 156.0
155.293564 116.0
155.417603 128.0
155.752747 192.0
155.931641 192.0
155.961456 120.0
155.982925 228.0
156.040054 216.0
156.079742 1448.0
156.114777 96.0
156.190216 104.0
156.448044 176.0
156.618332 136.0
156.703033 116.0
156.795227 84.0
156.867508 188.0
156.972229 128.0
157.047043 76.0
157.08844 908.0
157.14682 136.0
157.199219 192.0
157.245361 204.0
157.361465 152.0
157.428879 168.0
157.501312 108.0
157.821182 160.0
157.949783 200.0
157.968735 128.0
158.038071 152.0
158.042435 492.0
158.065826 308.0
158.095856 1796.0
158.146393 120.0
158.16391 148.0
158.299103 144.0
158.451889 64.0
158.515823 332.0
158.607254 168.0
158.649872 164.0
158.75769 184.0
158.940811 176.0
158.987686 176.0
159.042206 4976.0
159.098129 668.0
159.144119 200.0
159.332474 168.0
159.360107 104.0
159.553635 152.0
159.657837 204.0
159.726105 164.0
159.749786 40.0
159.834778 168.0
159.878098 216.0
160.055084 2384.0
160.111328 200.0
160.190308 140.0
160.248245 52.0
160.273453 68.0
160.328888 44.0
160.369202 200.0
160.429703 156.0
160.452393 148.0
160.553253 220.0
160.651627 124.0
160.704605 148.0
160.780304 188.0
160.840866 120.0
160.89389 164.0
161.059021 356.0
161.126221 164.0
161.143906 48.0
161.178207 104.0
161.266678 96.0
161.371368 120.0
161.439377 148.0
161.485168 144.0
161.502869 160.0
161.647079 112.0
161.887558 168.0
162.059692 180.0
162.222717 168.0
162.272629 132.0
162.32341 188.0
162.376663 156.0
162.404556 44.0
162.701447 216.0
162.952881 160.0
163.038559 352.0
163.06723 208.0
163.140945 196.0
163.201965 148.0
163.260437 188.0
163.374893 80.0
163.690506 140.0
163.863693 216.0
164.041718 700.0
164.098175 184.0
164.121124 148.0
164.143219 144.0
164.236664 52.0
164.544647 52.0
164.577835 224.0
164.787277 164.0
164.984055 172.0
165.013153 168.0
165.050308 2652.0
165.165009 220.0
165.385666 128.0
165.468597 212.0
165.692947 36.0
165.759567 160.0
165.808258 144.0
165.959503 172.0
165.977448 72.0
166.013351 112.0
166.049927 1180.0
166.083878 152.0
166.131332 332.0
166.349457 192.0
166.398224 100.0
166.455429 144.0
166.712006 172.0
166.762985 100.0
166.834961 104.0
166.858093 56.0
166.94809 92.0
167.050537 464.0
167.070374 156.0
167.18898 160.0
167.28772 152.0
167.30574 220.0
167.34436 164.0
167.444778 176.0
167.470535 88.0
167.524628 200.0
167.545242 124.0
167.578735 200.0
167.725967 180.0
167.92157 164.0
168.050552 120.0
168.139069 236.0
168.164093 160.0
168.272507 80.0
168.432617 160.0
168.471375 152.0
168.644501 104.0
168.765991 152.0
168.820297 140.0
168.980667 200.0
169.257614 64.0
169.446686 140.0
169.484207 140.0
169.63327 140.0
169.661789 220.0
169.793213 244.0
169.908157 200.0
170.052505 312.0
170.071625 32.0
170.099854 312.0
170.182968 184.0
170.359863 156.0
170.387405 152.0
170.515762 152.0
170.557343 196.0
170.819962 152.0
170.838181 172.0
170.950058 200.0
170.983887 80.0
171.042007 4800.0
171.10405 172.0
171.14267 92.0
171.246841 180.0
171.405746 132.0
171.447449 348.0
171.465683 148.0
171.683517 136.0
171.72641 128.0
171.752487 208.0
171.845383 92.0
171.950775 216.0
172.03804 18980.0
172.103043 48.0
172.217087 52.0
172.282196 164.0
172.332031 124.0
172.425034 196.0
172.488831 52.0
172.543716 200.0
172.582932 184.0
172.626297 144.0
172.650528 132.0
172.682312 64.0
172.781708 84.0
172.82869 100.0
172.881134 220.0
173.034348 3304.0
173.095993 420.0
173.150787 44.0
173.207367 92.0
173.22673 108.0
173.404907 48.0
173.431122 40.0
173.509766 132.0
173.555115 148.0
173.591034 196.0
173.651352 144.0
173.693329 44.0
173.735291 44.0
173.842865 52.0
173.863861 48.0
173.884857 108.0
173.937347 120.0
173.981979 76.0
174.05127 3616.0
174.101639 112.0
174.141129 196.0
174.310287 204.0
174.364014 324.0
174.462723 36.0
174.517929 88.0
174.559998 84.0
174.60997 136.0
174.652054 148.0
174.688873 32.0
174.99942 136.0
175.017853 144.0
175.054718 384.0
175.079193 216.0
175.131088 96.0
175.165329 52.0
175.745316 132.0
175.792816 72.0
176.05307 136.0
176.062561 176.0
176.068176 168.0
176.07933 60.0
176.220566 84.0
176.357971 140.0
176.442566 116.0
176.498093 144.0
176.614441 184.0
176.84993 32.0
177.052216 1112.0
177.12265 72.0
177.146484 76.0
177.231262 204.0
177.342575 88.0
177.565277 96.0
177.679337 96.0
177.737701 108.0
178.011108 176.0
178.048462 736.0
178.093689 128.0
178.149216 132.0
178.175781 152.0
178.298019 156.0
178.406998 192.0
178.457504 104.0
178.486755 56.0
178.633026 212.0
178.726135 92.0
178.803314 144.0
178.827271 172.0
179.016281 132.0
179.056183 2480.0
179.091431 236.0
179.120148 132.0
179.14679 148.0
179.170761 188.0
179.293335 88.0
179.393524 276.0
179.517258 128.0
179.608322 168.0
179.634613 136.0
179.674622 96.0
179.842743 60.0
179.875732 144.0
179.976212 412.0
180.062531 25944.0
180.126526 188.0
180.160492 156.0
180.18988 64.0
180.224091 40.0
180.254745 160.0
180.26712 44.0
180.277298 156.0
180.305679 144.0
180.366257 200.0
180.425064 84.0
180.460449 68.0
180.497253 80.0
180.532013 140.0
180.572128 36.0
180.633652 80.0
180.655045 44.0
180.673782 92.0
180.705078 160.0
180.759399 56.0
180.855743 28.0
181.065231 2468.0
181.139557 68.0
181.193146 168.0
181.241364 52.0
181.289597 40.0
181.388763 108.0
181.520142 164.0
181.600586 144.0
181.825958 40.0
181.898422 52.0
181.957474 84.0
182.016541 80.0
182.037842 640.0
182.06517 260.0
182.15889 108.0
182.220673 84.0
182.268829 104.0
182.320099 64.0
182.349655 52.0
182.387283 116.0
182.433136 68.0
182.472763 40.0
182.64003 88.0
182.868729 88.0
182.941406 68.0
182.989868 72.0
183.041916 5172.0
183.093246 92.0
183.259201 176.0
183.426285 48.0
183.517944 56.0
183.563782 160.0
183.615021 124.0
183.68515 104.0
183.717514 144.0
183.870651 148.0
183.976578 204.0
183.995483 148.0
184.04422 1912.0
184.130493 152.0
184.303375 160.0
184.370926 48.0
184.514191 188.0
184.614227 156.0
184.638565 228.0
184.738647 216.0
184.765701 60.0
184.817505 136.0
184.836044 180.0
184.936172 92.0
185.045654 9436.0
185.098602 48.0
185.147354 96.0
185.171722 128.0
185.22319 96.0
185.312576 52.0
185.333038 80.0
185.383026 76.0
185.425812 136.0
185.448074 64.0
185.494156 208.0
185.515839 104.0
185.534515 36.0
185.629715 72.0
185.696899 176.0
185.719208 92.0
185.762604 52.0
185.830429 60.0
186.05278 2412.0
186.104553 220.0
186.245773 92.0
186.278366 168.0
186.381607 168.0
186.419647 160.0
186.628952 96.0
186.726837 64.0
186.75676 100.0
186.824768 64.0
186.869003 148.0
186.977127 60.0
187.02182 1052.0
187.057678 1232.0
187.211258 88.0
187.276611 60.0
187.314072 176.0
187.370911 228.0
187.598145 112.0
187.843567 44.0
188.030945 472.0
188.067444 1976.0
188.13327 220.0
188.203812 272.0
188.269348 40.0
188.49881 52.0
188.547989 96.0
188.662796 200.0
188.699707 88.0
188.908905 128.0
188.936264 80.0
188.97731 152.0
189.047867 288.0
189.07193 352.0
189.240051 108.0
189.544083 72.0
189.892242 52.0
189.947098 124.0
190.048615 524.0
190.125427 368.0
190.194046 76.0
190.874023 188.0
190.908356 176.0
191.010117 128.0
191.06749 2800.0
191.150436 204.0
191.169693 48.0
191.219238 152.0
191.367874 60.0
191.549637 176.0
191.679123 140.0
191.703918 112.0
191.976837 136.0
192.062866 300.0
192.13681 140.0
192.156128 72.0
192.310654 104.0
192.382416 168.0
192.803375 128.0
192.948746 72.0
193.051056 156.0
193.073181 316.0
193.111893 36.0
193.255737 108.0
193.275101 52.0
193.355362 136.0
193.460541 144.0
193.562973 120.0
193.615585 120.0
193.690369 116.0
194.079605 160.0
194.132172 88.0
194.208694 136.0
194.438965 136.0
194.6194 176.0
194.63884 96.0
195.038803 548.0
195.088928 168.0
195.284073 176.0
195.378143 36.0
195.662003 76.0
195.909851 176.0
195.951645 156.0
196.049316 652.0
196.152283 56.0
196.238708 196.0
196.316788 156.0
196.383713 180.0
196.665512 176.0
196.710175 136.0
196.944733 80.0
197.020142 120.0
197.054962 784.0
197.162643 204.0
197.215744 164.0
197.25209 164.0
197.305206 144.0
197.5457 180.0
197.604446 160.0
197.789139 136.0
198.000671 116.0
198.052704 17344.0
198.103195 52.0
198.138794 76.0
198.203629 80.0
198.263962 60.0
198.284882 76.0
198.368973 68.0
198.413834 120.0
198.453079 80.0
198.500748 48.0
198.590485 52.0
198.660614 48.0
198.691467 184.0
198.736359 140.0
198.820541 92.0
198.842987 28.0
198.966492 84.0
198.990311 108.0
199.060486 2412.0
199.116318 168.0
199.256546 144.0
199.297913 72.0
199.33725 68.0
199.391327 196.0
199.455276 40.0
199.514313 208.0
199.559296 72.0
199.587418 208.0
199.61554 140.0
199.691467 132.0
199.726196 148.0
199.857437 108.0
199.878128 124.0
199.908081 136.0
199.931396 184.0
199.973007 112.0
200.068893 73228.0
200.140884 136.0
200.182861 164.0
200.217743 40.0
200.276886 52.0
200.332596 208.0
200.349289 348.0
200.382065 236.0
200.403656 84.0
200.450714 80.0
200.468338 92.0
200.503632 104.0
200.535049 60.0
200.588348 92.0
200.606567 164.0
200.627426 48.0
200.709183 172.0
200.770096 56.0
200.809052 76.0
200.874359 148.0
200.938416 196.0
200.970215 176.0
200.998032 60.0
201.006119 84.0
201.07135 5756.0
201.118866 156.0
201.139709 40.0
201.169769 80.0
201.202118 248.0
201.275085 88.0
201.391006 88.0
201.535065 180.0
201.557678 88.0
201.584732 132.0
201.619339 68.0
201.66507 48.0
201.748688 48.0
201.831848 48.0
201.874268 120.0
201.896896 64.0
201.961945 72.0
201.984573 36.0
202.047211 544.0
202.072891 888.0
202.113159 88.0
202.140167 60.0
202.276016 112.0
202.305695 124.0
202.331161 92.0
202.364807 132.0
202.426071 88.0
202.482895 120.0
202.521439 124.0
202.586319 76.0
202.621765 128.0
202.658539 56.0
202.689346 216.0
202.729172 160.0
202.760345 116.0
202.791519 64.0
202.947433 40.0
203.049377 208.0
203.09108 524.0
203.197128 108.0
203.372955 100.0
203.443924 80.0
203.551819 64.0
203.571686 76.0
203.628494 136.0
203.807449 232.0
203.830185 124.0
203.904068 172.0
204.064148 320.0
204.08754 228.0
204.435867 172.0
204.737625 168.0
204.994003 124.0
205.067871 144.0
205.184982 168.0
206.041138 172.0
206.077576 640.0
206.40126 104.0
207.05603 188.0
207.403259 84.0
208.037186 144.0
208.09642 196.0
208.614594 56.0
208.764099 32.0
208.913666 92.0
209.057159 1440.0
209.101929 168.0
209.126587 72.0
209.244614 88.0
209.893661 240.0
209.944794 112.0
210.061264 1068.0
210.184219 96.0
210.256363 56.0
210.311188 44.0
210.354492 44.0
210.493073 72.0
210.571045 100.0
210.677917 200.0
210.984238 220.0
211.060562 5964.0
211.111115 100.0
211.174316 136.0
211.247406 88.0
211.287903 48.0
211.316833 88.0
211.371811 68.0
211.415207 28.0
211.528091 36.0
211.64679 76.0
211.945129 96.0
211.968307 140.0
212.066788 4624.0
212.118866 180.0
212.240768 72.0
212.372284 160.0
212.493103 180.0
212.684631 64.0
212.818161 148.0
213.004028 132.0
213.069931 572.0
213.143478 140.0
213.306229 64.0
213.332397 36.0
213.42543 44.0
213.524292 136.0
213.597015 228.0
213.79776 72.0
213.893799 32.0
214.035828 188.0
214.08255 1348.0
214.409332 28.0
214.458878 116.0
214.668777 120.0
214.712524 36.0
214.794189 176.0
215.079483 304.0
215.229019 60.0
215.299103 48.0
215.348755 64.0
215.415939 72.0
215.47728 40.0
215.57663 148.0
215.597092 140.0
215.635086 48.0
215.775391 52.0
215.909897 44.0
216.03566 32.0
216.059555 48.0
216.103088 332.0
216.354645 92.0
216.451263 136.0
216.829163 76.0
217.078339 180.0
218.361679 96.0
218.803055 220.0
219.1064 124.0
219.241928 164.0
219.324463 196.0
220.048996 120.0
220.082626 116.0
220.333664 72.0
220.413437 112.0
220.871674 132.0
220.910126 60.0
220.939713 144.0
220.960419 232.0
221.045349 872.0
221.277084 156.0
221.490311 128.0
221.567322 40.0
221.739182 48.0
221.997101 160.0
222.045303 684.0
222.181 40.0
222.281326 196.0
222.448074 76.0
222.513382 28.0
222.62027 96.0
222.997574 124.0
223.027298 308.0
223.050552 444.0
223.119446 80.0
223.330566 180.0
223.571548 84.0
224.067657 3024.0
224.506973 92.0
224.56662 108.0
225.074463 576.0
225.265076 192.0
225.366638 156.0
225.520493 372.0
225.656555 104.0
225.74028 216.0
225.80658 176.0
225.898788 184.0
226.083221 9420.0
226.147141 196.0
226.192047 84.0
226.3022 40.0
226.368683 96.0
226.548386 148.0
226.800095 140.0
226.985962 196.0
227.088135 2708.0
227.148987 100.0
227.325287 164.0
227.414963 108.0
227.456985 32.0
227.607086 96.0
227.658142 48.0
227.733215 188.0
227.787277 104.0
227.850372 100.0
228.022583 64.0
228.099869 9516.0
228.187149 68.0
228.217026 32.0
228.248138 84.0
228.301224 44.0
228.4095 48.0
228.460632 80.0
228.502762 40.0
228.650192 56.0
228.731461 64.0
228.930176 108.0
228.993408 236.0
229.06871 132.0
229.102509 1532.0
229.252502 84.0
229.309753 60.0
229.468323 60.0
229.561615 96.0
229.596161 112.0
229.67157 68.0
230.076935 748.0
230.238968 92.0
230.278229 108.0
230.311447 92.0
230.365829 104.0
230.474594 100.0
230.539444 104.0
230.622665 28.0
230.674057 56.0
230.888718 40.0
230.92804 80.0
230.95224 168.0
231.002975 316.0
231.081924 400.0
231.824142 92.0
232.008514 712.0
232.090897 116.0
232.187927 164.0
232.949768 48.0
232.996857 800.0
234.00415 184.0
234.05751 172.0
234.239532 60.0
234.419281 64.0
234.486328 60.0
234.830841 56.0
235.001663 120.0
235.058609 664.0
235.114578 64.0
235.242767 92.0
235.30687 56.0
236.061462 316.0
237.069687 348.0
238.047256 108.0
238.07962 204.0
238.849396 104.0
239.061783 212.0
239.106445 308.0
239.201721 80.0
239.375671 156.0
239.634399 116.0
240.054337 124.0
240.098251 996.0
240.186203 88.0
240.260239 28.0
241.04866 372.0
241.08609 608.0
241.532944 72.0
241.786636 132.0
242.09111 828.0
242.201523 52.0
242.260376 156.0
242.725266 84.0
243.084869 336.0
243.445175 80.0
243.640854 52.0
243.74649 128.0
243.88945 104.0
244.003891 136.0
244.015976 128.0
244.02739 204.0
244.093506 7036.0
244.203323 48.0
244.349686 92.0
244.514603 48.0
244.601746 48.0
244.664001 80.0
244.832138 76.0
244.900665 60.0
244.9646 76.0
245.022141 220.0
245.096619 1300.0
245.190399 64.0
245.673691 48.0
246.001358 164.0
246.088776 148.0
246.298004 44.0
246.626083 60.0
246.810532 68.0
246.87619 192.0
246.976273 84.0
247.004425 156.0
248.019806 172.0
249.865387 64.0
250.079361 176.0
251.056 68.0
252.101105 312.0
253.100479 216.0
253.454346 128.0
254.117905 160.0
255.63353 156.0
255.865891 84.0
256.002808 148.0
256.097076 164.0
256.589081 68.0
257.007324 148.0
257.680573 172.0
257.999847 168.0
258.104858 336.0
258.27002 100.0
258.982513 220.0
259.121124 336.0
259.755005 40.0
260.125 280.0
260.351959 92.0
261.075043 64.0
261.1297 148.0
261.676727 80.0
262.698334 128.0
264.401093 52.0
265.389069 56.0
266.197021 76.0
268.42276 140.0
269.045929 76.0
269.529297 92.0
269.584869 72.0
269.610992 36.0
270.114716 188.0
271.120422 136.0
272.040039 460.0
272.121643 196.0
273.031372 804.0
273.130524 172.0
274.032166 348.0
274.113342 148.0
275.403259 44.0
276.113831 120.0
276.530701 72.0
278.091736 64.0
278.407135 44.0
282.570374 60.0
283.052338 64.0
283.511261 112.0
286.700439 108.0
287.83725 48.0
293.057373 188.0
295.043671 44.0
295.765442 56.0
297.9086 104.0
299.552887 56.0
302.137909 300.0
302.861969 100.0
303.13913 112.0
308.932709 68.0
311.723541 52.0
313.310364 44.0
315.303955 44.0
316.0961 100.0
317.19043 120.0
318.08432 160.0
318.24408 132.0
319.160767 136.0
322.354553 168.0
324.33725 92.0
325.183716 52.0
326.261322 88.0
326.869141 100.0
327.509949 68.0
328.558929 56.0
339.078613 128.0
342.39978 92.0
343.026154 104.0
344.546539 68.0
345.800049 108.0
348.443939 88.0
356.319519 68.0
357.458771 36.0
357.616821 40.0
360.207214 92.0
361.080292 72.0
364.226135 108.0
366.440125 88.0
367.778625 48.0
368.106964 124.0
373.460815 80.0
376.563446 96.0
379.388092 68.0
379.938782 64.0
381.705963 104.0
383.74234 100.0
391.599274 48.0
392.075989 44.0
392.655518 72.0
394.195099 40.0
394.558746 56.0
396.288239 36.0
398.259827 72.0
405.974457 72.0
408.94339 76.0
409.571503 96.0
413.026611 80.0
413.767151 44.0
414.289581 116.0
414.763672 40.0
415.822266 48.0
421.090576 88.0
424.347809 36.0
427.156769 88.0
428.618286 132.0
429.682037 76.0
430.908203 52.0
437.985321 44.0
439.761536 88.0
441.047974 88.0
441.495331 52.0
443.831909 84.0
446.965393 140.0
448.784973 64.0
452.117798 64.0
460.019165 48.0
465.460754 64.0
472.027679 92.0
474.070862 60.0
485.76004 92.0
486.888031 72.0
487.090088 96.0
487.626129 92.0
491.302826 60.0
492.768524 64.0
493.0867 80.0
493.869263 76.0
496.185211 88.0
496.801636 184.0
506.510498 28.0
507.487457 88.0
519.284241 36.0
522.395691 44.0
533.18634 104.0
533.227722 56.0
538.087402 72.0
540.842529 72.0
542.774353 60.0
544.783997 56.0
565.046448 76.0
590.273315 88.0
595.230347 68.0
595.983276 76.0
603.831604 60.0
612.647217 92.0
637.702026 72.0
642.576477 260.0
646.608826 264.0
646.988464 60.0
648.305359 60.0
678.310486 92.0
679.617371 40.0
680.162292 84.0
684.810608 36.0
690.923157 140.0
720.77063 96.0
726.263306 68.0
727.830322 44.0
735.701599 64.0
742.703735 228.0
756.610291 164.0
761.677246 112.0
776.474792 64.0
777.506653 104.0
786.048706 176.0
792.98877 156.0
799.458496 140.0
802.629883 164.0
812.714966 164.0
815.759033 80.0
817.63031 68.0
825.765869 188.0
826.326416 48.0
831.403198 172.0
835.166382 164.0
839.19165 216.0
842.856812 164.0
844.64325 52.0
848.436157 200.0
860.648254 52.0
861.378296 40.0
867.176758 176.0
868.437317 164.0
869.176453 124.0
870.708618 120.0
871.63678 92.0
871.80127 84.0
873.21814 116.0
875.84314 64.0
879.487061 132.0
880.38446 164.0
890.339417 172.0
892.49646 176.0
893.983582 88.0
895.019287 196.0
898.816223 152.0
900.087585 124.0
903.67981 180.0
906.9375 260.0
908.442566 128.0
910.693481 100.0
921.035339 168.0
921.119934 128.0
931.216919 80.0
936.715454 144.0
939.855164 184.0
951.619019 60.0
961.523376 172.0
962.183838 76.0
973.961975 204.0
976.721741 188.0
978.96228 144.0
980.619446 116.0
981.492188 252.0
982.215576 184.0
984.612305 160.0
987.111938 36.0
987.925049 168.0
990.873657 188.0
992.114502 160.0
992.647461 116.0
996.526489 164.0
997.004028 224.0
998.456238 168.0
1000.809692 160.0
1006.396057 160.0
1011.656067 120.0
1012.764221 128.0
1014.69696 68.0
1018.180542 156.0
1020.735107 140.0
1025.203857 80.0
1029.663086 112.0
1032.200073 140.0
1032.25769 220.0
1032.961182 148.0
1034.080933 52.0
1036.072388 120.0
1036.552856 164.0
1040.112183 160.0
1043.877075 220.0
1050.401245 44.0
1051.491577 44.0
1056.040039 176.0
1056.531616 176.0
1057.935913 164.0
1062.310059 232.0
1070.721924 204.0
1071.567627 216.0
1072.264771 72.0
1073.288208 168.0
1086.244019 212.0
1086.473511 128.0
1087.58252 204.0
1088.606689 140.0
1093.438599 168.0
1096.270386 156.0
1097.476685 168.0
1098.136108 128.0
1099.633789 52.0
1100.168457 96.0
1101.60144 196.0
1101.898682 108.0
1103.564209 164.0
1105.985352 124.0
1107.852783 208.0
1111.777954 180.0
1113.251709 28.0
1119.589233 116.0
1119.968872 140.0
1120.062134 236.0
1121.381348 156.0
1125.210205 172.0
1129.112549 56.0
1131.159912 108.0
1131.253662 80.0
1131.996826 152.0
1134.321533 136.0
1136.481079 52.0
1137.138672 156.0
1137.212524 240.0
1137.286377 48.0
1143.839966 76.0
1145.644653 148.0
1146.075806 120.0
1148.57019 184.0
1149.103027 144.0
1149.204224 32.0
1149.831787 124.0
1150.182739 60.0
1151.033447 192.0
1152.776245 156.0
1152.992432 196.0
1153.181641 104.0
1155.758179 104.0
1156.895264 180.0
1158.920166 212.0
1159.48938 144.0
1160.32312 216.0
1161.591309 176.0
1162.731201 184.0
1164.496338 64.0
1166.065796 68.0
1167.255371 140.0
1168.901611 156.0
1172.122314 116.0
1173.294678 168.0
1173.710571 80.0
1174.542603 172.0
1175.333984 128.0
1178.22876 144.0
1183.700439 72.0
1185.152588 228.0
1185.721313 184.0
1186.118896 216.0
1188.992676 148.0
1189.830078 240.0
1189.912476 176.0
1190.180298 216.0
1190.860107 188.0
1194.172852 228.0
1194.757568 108.0
1199.936523 180.0
1201.067505 220.0
1201.226074 188.0
1201.633179 168.0
1203.151489 168.0
1204.22168 200.0
1205.624146 160.0
1207.345581 228.0
1208.369263 192.0
1210.002563 128.0
1210.244873 144.0
1210.902832 216.0
1211.04126 180.0
1211.969604 124.0
1215.894531 144.0
1216.894043 128.0
1217.019043 64.0
1217.852417 140.0
1218.338623 164.0
1218.797119 164.0
1220.493164 208.0
1220.583496 184.0
1220.666992 236.0
1223.387329 56.0
1226.201416 184.0
1226.29895 80.0
1228.558105 156.0
1229.109375 256.0
1231.084839 184.0
1231.587646 156.0
1232.384033 88.0
1232.775269 160.0
1236.509766 152.0
1236.97876 188.0
1241.049072 160.0
1241.126221 140.0
1241.266357 152.0
1243.391968 128.0
1245.03479 232.0
1246.355347 240.0
1248.055176 204.0
1250.22998 164.0
1250.427002 172.0
1251.363159 180.0
1254.455933 108.0
1254.759033 132.0
1255.760376 256.0
1256.063599 168.0
1256.423462 176.0
1257.608887 280.0
1258.8302 144.0
1259.4729 196.0
1259.649536 212.0
1259.755493 124.0
1260.080444 160.0
1261.083862 116.0
1261.529175 112.0
1262.214966 160.0
1263.707397 164.0
1265.979492 108.0
1266.029053 192.0
1269.728394 116.0
1271.055054 236.0
1273.511353 152.0
1274.669312 88.0
1275.792236 232.0
1276.033936 124.0
1276.247314 208.0
1277.292725 124.0
1277.36377 140.0
1278.174805 184.0
1280.260498 104.0
1280.424316 208.0
1282.782715 240.0
1283.438599 100.0
1283.730957 96.0
1284.001953 188.0
1285.721313 204.0
1287.134766 180.0
1287.663208 184.0
1288.113159 140.0
1288.353394 168.0
1288.848999 196.0
1289.332031 236.0
1290.328491 124.0
1290.478638 40.0
1290.628784 128.0
1291.644287 112.0
1291.780273 176.0
1292.51001 236.0
1293.053833 200.0
1294.807861 64.0
1296.613281 188.0
1296.821045 176.0
1298.226196 180.0
1298.800049 148.0
1298.864624 216.0
1299.015259 144.0
1300.277954 136.0
1300.435913 220.0
1300.852173 180.0
1301.993896 120.0
1303.214966 144.0
1303.890503 144.0
1304.824951 196.0
1307.673462 140.0
1307.838989 156.0
1308.594849 208.0
1309.048462 136.0
1312.168335 188.0
1312.925415 44.0
1313.286133 84.0
1315.609619 132.0
1320.5448 212.0
1320.703857 120.0
1322.194336 264.0
1322.324585 140.0
1323.077393 192.0
1324.424316 204.0
1324.503906 144.0
1325.083496 200.0
1325.99646 76.0
1326.177734 112.0
1326.953369 128.0
1327.381104 136.0
1328.033813 172.0
1330.304932 224.0
1330.537231 116.0
1331.742676 144.0
1332.149414 100.0
1332.759766 236.0
1332.832397 172.0
1333.08667 124.0
1333.450073 140.0
1333.951538 196.0
1334.32959 172.0
1334.457397 152.0
1336.140503 156.0
1336.831787 84.0
1337.15918 112.0
1337.428467 104.0
1339.503784 100.0
1339.773315 232.0
1339.824219 84.0
1340.108398 176.0
1340.691284 168.0
1341.099487 132.0
1342.076294 144.0
1343.440063 172.0
1343.52771 140.0
1343.855957 160.0
1344.943359 92.0
1349.414062 156.0
1351.444702 148.0
1351.79126 280.0
1352.347412 188.0
1353.108643 168.0
1353.2948 156.0
1357.182373 204.0
1357.277588 132.0
1357.871582 92.0
1360.212158 188.0
1360.351685 180.0
1360.660034 92.0
1360.865601 128.0
1361.702759 116.0
1361.901001 216.0
1363.238159 116.0
1364.855225 104.0
1366.451294 156.0
1366.58374 176.0
1366.958984 152.0
1368.438477 204.0
1368.806641 144.0
1368.904419 128.0
1373.715088 184.0
1373.910889 208.0
1374.445557 172.0
1375.098633 164.0
1375.183472 120.0
1376.674805 172.0
1378.255493 72.0
1382.04126 128.0
1383.003296 224.0
1385.424683 272.0
1386.384155 180.0
1386.713989 192.0
1386.906738 200.0
1388.248535 164.0
1389.331421 112.0
1389.657959 176.0
1389.999268 160.0
1392.003418 200.0
1393.258667 180.0
1394.685425 208.0
1395.488281 140.0
1395.748413 244.0
1395.98645 36.0
1396.581421 144.0
1396.77478 204.0
1397.302979 256.0
1397.555908 172.0
1398.188477 268.0
1399.461304 176.0
1399.848511 40.0
1400.503906 184.0
1400.846558 208.0
1400.913574 112.0
1401.025269 176.0
1401.211548 212.0
1401.621338 172.0
1401.82959 144.0
1401.911987 172.0
1402.150391 188.0
1403.499634 180.0
1403.939697 200.0
1405.461426 192.0
1406.170288 168.0
1407.932251 184.0
1408.387817 220.0
1409.396362 208.0
1410.861206 88.0
1411.64624 160.0
1411.907959 148.0
1412.109863 152.0
1414.758789 60.0
1415.822021 124.0
1419.576416 108.0
1420.213867 184.0
1421.166626 212.0
1421.334717 176.0
1422.547485 80.0
1424.139404 108.0
1424.289551 48.0
1424.492432 116.0
1425.333862 100.0
1425.551758 196.0
1425.634399 192.0
1426.115356 180.0
1426.837036 112.0
1428.41626 152.0
1428.554932 164.0
1429.198608 176.0
1429.41687 136.0
1429.484619 228.0
1430.846924 148.0
1432.224976 188.0
1432.624268 184.0
1432.677002 152.0
1433.483154 60.0
1434.018188 136.0
1434.440308 152.0
1435.050903 104.0
1435.450562 128.0
1437.985352 168.0
1438.060791 176.0
1438.347656 148.0
1439.419678 176.0
1439.68396 196.0
1440.295776 164.0
1440.560181 172.0
1441.315674 132.0
1441.519653 164.0
1443.016235 100.0
1443.583374 156.0
1444.453125 76.0
1445.678711 180.0
1446.125244 156.0
1446.950317 224.0
1447.048828 276.0
1448.328613 132.0
1448.88916 132.0
1449.161865 180.0
1449.608887 180.0
1449.95752 192.0
1450.033325 128.0
1450.222778 112.0
1451.026367 164.0
1451.913452 84.0
1452.838867 124.0
1454.060425 156.0
1454.94104 116.0
1455.700195 148.0
1456.125488 160.0
1456.239502 136.0
1458.473267 192.0
1458.602417 196.0
1459.750488 132.0
1461.537964 76.0
1461.683716 160.0
1462.763306 136.0
1463.638794 208.0
1464.484131 152.0
1466.358398 124.0
1466.625122 128.0
1469.713745 208.0
1470.385254 176.0
1471.308838 152.0
1472.286133 132.0
1472.622192 188.0
1474.730957 144.0
1475.862305 192.0
1475.984741 192.0
1477.185425 152.0
1477.261963 180.0
1479.56543 164.0
1479.894531 132.0
1481.334351 208.0
1482.085205 132.0
1482.276733 212.0
1482.529541 168.0
1483.821533 160.0
1484.484375 168.0
1484.875488 188.0
1485.0979 168.0
1485.995483 140.0
1486.555542 172.0
1487.338379 132.0
1487.591675 132.0
1487.783569 172.0
1489.918579 172.0
1490.494751 160.0
1490.640747 184.0
1491.147949 184.0
1492.401001 156.0
1494.30835 244.0
1494.469971 160.0
1494.716187 100.0
1495.147095 124.0
1495.755127 168.0
1496.024536 160.0
1496.525024 208.0
1496.848389 120.0
1497.271973 44.0
1497.834229 44.0
1499.258545 184.0
1499.413696 176.0
1500.221924 180.0
1501.101929 160.0
1501.857666 164.0
1502.019653 168.0
1502.312866 220.0
1502.567383 168.0
1502.680298 196.0
1503.270752 188.0
1503.393066 220.0
1503.709473 140.0
1504.064453 136.0
1504.203369 144.0
1504.384766 156.0
1504.5354 152.0
1504.628052 184.0
1504.69751 52.0
