>compound MLS001332501-01!DEMECOLCINE
>formula C21H25NO5
>ionization [M+H]+
>parentmass 372.179352
#inchi InChI=1S/C21H25NO5/c1-22-15-8-6-12-10-18(25-3)20(26-4)21(27-5)19(12)13-7-9-17(24-2)16(23)11-14(13)15/h7,9-11,15,22H,6,8H2,1-5H3/t15-/m0/s1
#inchikey NNJPGOLRFBJNIW
#Ion_Source LC-ESI
#Instrument qTof
#Compound_Source NIH Pharmacologically Active Library
#PI Dorrestein
#Data_Collector VP/LMS
#Scan -1
#Precursor_MZ 372.181
#ExactMass 371.173
#Charge 1
#CAS_Number N/A
#Pubmed_ID N/A
#Smiles CN[C@H]1CCc2cc(OC)c(OC)c(OC)c2-c3ccc(OC)c(=O)cc13
#INCHI_AUX N/A
#Library_Class 1
#SpectrumID CCMSLIB00000085399
#IonMode Positive
#UpdateWorkflowName UPDATE-SINGLE-ANNOTATED-GOLD
#LibraryQualityString Gold
#TaskID d252d724072548979f1f6f1ced849daf
##Scan# 1388
#SpectrumFile p4-A04_GA4_01_18328.mzXML
#LibraryName Pharm_Active_Library.mgf
#MQScore -1
#Organism Pharm_Active_Library
#TIC_Query 0
#RT_Query -1
#MZErrorPPM -1
#SharedPeaks 0
#MassDiff 0
#LibMZ -1
#SpecMZ 372.181
#SpecCharge 0
#internalFilename spec-00000.mgf

>collision 10
44.966595 132.0
45.240612 136.0
45.515465 128.0
45.648495 196.0
46.281353 140.0
46.876171 192.0
47.100063 216.0
47.276436 172.0
47.438053 176.0
48.030724 220.0
48.052795 68.0
48.348503 152.0
48.727055 184.0
48.834091 180.0
49.310925 128.0
49.459187 232.0
49.820976 220.0
49.917957 128.0
49.998142 264.0
50.271538 180.0
50.328003 176.0
50.612209 48.0
50.796452 204.0
51.067753 152.0
51.097626 208.0
51.521049 160.0
51.678314 112.0
51.69978 40.0
51.815762 144.0
51.937614 112.0
51.976349 68.0
52.000744 268.0
52.72229 204.0
52.754086 152.0
53.460445 124.0
53.515759 188.0
53.546341 164.0
54.257965 108.0
54.338627 144.0
54.441376 152.0
54.601566 168.0
54.692787 208.0
55.045143 112.0
55.228401 124.0
55.478657 140.0
55.558739 124.0
55.64333 180.0
56.347794 272.0
56.391129 84.0
56.564636 212.0
56.786392 140.0
57.127365 164.0
57.297482 208.0
57.350224 240.0
57.567474 216.0
57.606747 132.0
57.847187 164.0
58.168552 104.0
58.62854 232.0
58.794113 212.0
58.838379 220.0
59.510506 196.0
59.681057 120.0
59.871868 148.0
59.93811 156.0
60.228966 212.0
61.823349 128.0
62.041065 184.0
62.067719 180.0
62.103043 168.0
62.257595 148.0
62.375435 44.0
62.432034 132.0
62.964714 148.0
63.364914 184.0
63.667881 128.0
63.917461 36.0
64.325462 204.0
64.534744 172.0
64.560074 176.0
64.75238 152.0
65.090752 116.0
65.286804 168.0
65.476707 204.0
65.512138 108.0
65.565315 152.0
65.766922 116.0
65.849258 160.0
65.892876 116.0
66.091751 136.0
66.12735 132.0
66.188866 168.0
66.435219 184.0
66.701538 168.0
66.714546 156.0
66.862564 104.0
67.103645 108.0
67.490601 168.0
68.404419 228.0
68.961945 124.0
69.937225 176.0
70.113617 216.0
70.420753 128.0
71.088745 92.0
71.129021 184.0
71.182747 80.0
71.476913 52.0
71.513191 144.0
71.584648 96.0
71.665504 112.0
71.935341 40.0
72.259811 188.0
72.297043 136.0
72.437569 136.0
72.839592 204.0
72.865074 92.0
73.084404 164.0
73.61795 160.0
73.857224 128.0
74.067757 144.0
74.220284 132.0
74.555023 156.0
74.665054 120.0
74.754509 176.0
74.766556 72.0
74.881905 124.0
75.05423 188.0
75.073204 56.0
75.157722 196.0
75.271652 228.0
75.532616 96.0
75.626053 88.0
75.764587 144.0
75.950066 164.0
76.026405 56.0
76.936737 120.0
77.148117 176.0
77.484131 104.0
77.541954 144.0
77.766457 160.0
77.831413 164.0
78.221703 244.0
78.292137 192.0
78.461288 188.0
78.741852 168.0
78.808151 164.0
79.076004 92.0
79.4907 156.0
79.646935 84.0
79.78376 148.0
79.811989 160.0
79.988335 200.0
80.077362 140.0
80.112991 140.0
80.905907 180.0
81.009773 172.0
81.149559 208.0
81.260757 204.0
81.517525 160.0
81.763901 220.0
82.203613 180.0
82.773026 232.0
83.262657 116.0
83.746452 184.0
84.107475 112.0
84.233467 112.0
84.357727 136.0
84.410744 176.0
84.509521 204.0
85.018936 100.0
85.05748 96.0
85.10154 176.0
85.575905 108.0
85.621941 196.0
85.717735 176.0
85.896568 76.0
86.014664 172.0
86.158707 100.0
86.932663 176.0
87.270729 32.0
87.529366 168.0
87.639267 212.0
87.723129 112.0
87.75296 168.0
87.766014 124.0
87.792114 184.0
87.889114 172.0
87.958168 208.0
88.324409 232.0
88.665169 192.0
88.689537 160.0
88.77578 124.0
89.04039 132.0
89.087349 204.0
89.162506 48.0
89.245216 204.0
90.284233 120.0
90.47345 100.0
90.526466 132.0
90.602226 100.0
90.670189 152.0
90.861954 184.0
90.929672 140.0
91.454842 192.0
91.738663 156.0
91.998108 144.0
92.013382 68.0
92.210129 156.0
92.504692 84.0
92.539154 112.0
92.6464 148.0
92.692383 136.0
93.168213 116.0
93.543205 164.0
93.755074 140.0
93.772423 180.0
93.851456 148.0
94.063675 152.0
94.2742 196.0
94.434662 96.0
94.479156 148.0
94.612686 176.0
95.009972 28.0
95.575356 84.0
95.990257 140.0
96.081924 244.0
96.490105 168.0
96.654396 224.0
97.050064 160.0
97.071632 144.0
97.136353 104.0
97.609673 96.0
98.036842 104.0
98.064438 152.0
98.263603 108.0
98.721855 48.0
98.773285 36.0
99.222809 184.0
99.258499 144.0
99.292213 188.0
99.35569 108.0
99.439026 192.0
99.703171 156.0
99.828415 184.0
99.92588 180.0
99.945778 112.0
100.158791 104.0
100.525635 196.0
100.663376 160.0
100.895149 72.0
100.909142 144.0
101.093163 156.0
101.812996 116.0
101.879135 196.0
102.337685 156.0
102.442413 160.0
102.88607 160.0
102.902222 172.0
102.984726 136.0
103.011276 116.0
103.057747 176.0
103.267982 204.0
103.703293 68.0
104.194366 128.0
104.287842 120.0
104.344757 168.0
104.399658 120.0
104.462708 216.0
104.597015 44.0
104.819008 176.0
104.98616 168.0
105.065712 180.0
105.081169 76.0
105.159576 240.0
105.490479 220.0
105.785049 168.0
106.330269 188.0
106.434967 164.0
106.720985 184.0
107.045685 204.0
107.210487 156.0
107.358917 152.0
107.618912 120.0
107.661514 224.0
107.713913 92.0
107.802757 172.0
108.561638 228.0
108.705627 200.0
108.786575 160.0
109.000496 208.0
109.067497 200.0
109.243752 264.0
109.272881 112.0
110.056564 176.0
110.286362 204.0
110.418076 160.0
110.472466 208.0
110.489197 132.0
110.528954 148.0
110.564529 140.0
110.901726 172.0
111.266724 172.0
111.350716 188.0
111.588173 228.0
111.647049 144.0
111.915421 112.0
111.958511 156.0
112.044868 100.0
112.080688 272.0
112.249321 184.0
112.365326 96.0
112.388535 76.0
112.745407 140.0
113.27224 144.0
113.636879 108.0
113.951103 96.0
114.076492 136.0
114.304062 212.0
114.401962 120.0
114.563812 180.0
114.646912 192.0
114.683144 128.0
115.037231 212.0
115.056442 144.0
115.097008 132.0
115.152534 252.0
115.357658 168.0
115.41111 208.0
115.8927 196.0
115.971992 148.0
116.044876 164.0
116.231483 192.0
116.26796 112.0
116.712318 140.0
117.028923 196.0
117.071716 220.0
117.168915 168.0
117.188309 116.0
117.451309 68.0
118.060371 204.0
118.348167 208.0
118.415298 128.0
118.612473 172.0
118.631981 208.0
118.844521 100.0
118.907455 156.0
119.048569 148.0
119.111549 252.0
119.320412 144.0
119.387581 128.0
119.638992 160.0
119.748848 140.0
119.973289 136.0
119.99073 120.0
120.235031 68.0
120.314903 144.0
120.623817 96.0
120.79438 52.0
120.903778 236.0
120.921288 160.0
121.175301 180.0
121.287064 100.0
121.361595 188.0
121.383522 184.0
121.43177 64.0
121.885651 176.0
122.066872 184.0
122.154419 148.0
122.870384 136.0
123.042526 60.0
123.126434 248.0
123.157356 48.0
123.19445 192.0
123.202057 152.0
123.491104 152.0
123.750015 140.0
123.816452 204.0
123.907265 216.0
124.495064 220.0
124.550591 36.0
124.668343 84.0
124.732796 168.0
125.242348 140.0
125.349281 52.0
125.376022 104.0
125.422829 116.0
125.491936 172.0
125.576675 128.0
125.781952 188.0
125.819901 368.0
125.835533 80.0
125.873489 148.0
125.973991 112.0
126.090187 176.0
126.195244 184.0
126.465927 144.0
126.512932 100.0
126.911728 112.0
127.073219 108.0
127.232567 208.0
127.369545 128.0
127.960983 36.0
128.136261 156.0
128.280884 140.0
128.578629 168.0
128.858627 148.0
129.030396 196.0
129.075989 216.0
129.131119 168.0
129.184174 116.0
129.274673 124.0
130.036148 132.0
130.068832 200.0
130.604172 164.0
131.052643 112.0
131.727936 96.0
131.855637 180.0
132.057083 204.0
132.086029 196.0
132.187485 160.0
132.2491 156.0
132.388931 140.0
132.654709 112.0
133.083725 224.0
133.320328 160.0
133.35939 168.0
134.404922 164.0
134.49675 132.0
134.578033 64.0
134.691193 116.0
135.067963 168.0
135.111923 220.0
135.389679 220.0
135.451859 204.0
135.60051 148.0
136.391983 152.0
136.824661 52.0
136.980698 168.0
137.062149 228.0
137.654724 132.0
137.673401 224.0
137.731796 232.0
137.825241 200.0
137.876648 224.0
138.056656 316.0
138.70755 216.0
138.787048 120.0
138.871674 148.0
139.054337 192.0
139.204926 228.0
139.338821 52.0
139.470413 136.0
139.538589 200.0
139.587967 116.0
139.785553 212.0
139.803574 104.0
139.839691 80.0
140.152893 168.0
140.407486 188.0
140.497116 220.0
140.574982 180.0
141.023697 112.0
141.068512 356.0
141.21994 60.0
141.539413 136.0
141.643631 140.0
141.743134 152.0
142.070312 168.0
142.356613 220.0
142.407379 184.0
142.471527 196.0
142.602219 124.0
142.804306 116.0
142.873291 164.0
142.908981 176.0
142.963699 148.0
143.089859 168.0
143.156525 188.0
143.285156 200.0
143.490112 140.0
143.702377 152.0
144.048538 112.0
144.083252 160.0
144.122604 128.0
144.266647 164.0
144.658325 200.0
145.048782 192.0
145.065567 140.0
145.51178 108.0
145.547791 52.0
145.766388 160.0
145.785614 148.0
146.059235 276.0
146.21608 124.0
146.509842 124.0
146.603821 184.0
146.895554 36.0
147.042511 164.0
147.070633 216.0
147.088593 32.0
147.267273 144.0
147.441223 168.0
147.482315 144.0
147.564514 200.0
147.726547 172.0
147.862045 148.0
148.051773 172.0
148.314957 144.0
148.339203 36.0
148.450729 148.0
148.642365 100.0
148.715164 176.0
148.812271 140.0
149.050888 376.0
149.152374 136.0
149.249619 168.0
150.075043 140.0
150.274673 212.0
150.337158 188.0
150.438553 156.0
151.027451 76.0
151.048264 156.0
151.091064 248.0
151.326004 236.0
151.634659 148.0
151.656723 188.0
151.857773 40.0
151.899475 228.0
152.062637 344.0
152.206253 180.0
152.486298 184.0
152.663315 220.0
152.788757 120.0
152.830582 124.0
152.850266 132.0
152.970856 216.0
153.071213 512.0
153.438934 188.0
153.705307 188.0
153.759598 52.0
153.939804 112.0
154.036133 108.0
154.078125 360.0
154.228867 176.0
154.295609 168.0
154.424194 116.0
154.54541 172.0
154.805328 184.0
154.85733 132.0
155.018356 164.0
155.049438 340.0
155.090225 164.0
155.181961 48.0
155.236511 48.0
155.35556 168.0
155.387817 188.0
155.715469 124.0
155.814835 180.0
155.849625 76.0
155.94902 192.0
156.013657 232.0
156.058411 168.0
156.712341 132.0
156.817657 120.0
156.942307 152.0
157.062012 152.0
157.391434 188.0
157.471344 48.0
157.663727 160.0
157.836212 156.0
157.866211 172.0
158.071335 184.0
158.133911 144.0
158.514557 156.0
158.940842 160.0
159.036179 172.0
159.070251 192.0
159.191864 200.0
159.309906 180.0
159.465698 132.0
159.704559 140.0
160.046814 180.0
160.071472 268.0
160.26091 116.0
160.371796 144.0
160.742508 204.0
161.058426 516.0
161.081802 280.0
161.176834 148.0
161.21727 124.0
161.588058 212.0
161.895248 156.0
162.052292 104.0
162.091614 180.0
162.686325 120.0
162.947906 124.0
163.062408 64.0
163.45134 236.0
163.782303 200.0
163.802673 132.0
164.071228 804.0
164.139099 188.0
164.251312 52.0
164.353348 128.0
164.480957 200.0
165.069473 392.0
165.199005 124.0
165.483093 288.0
165.769974 188.0
165.96991 160.0
166.086029 208.0
166.139175 152.0
166.252075 160.0
166.28801 112.0
166.311111 132.0
166.573013 64.0
166.626968 208.0
166.734879 184.0
167.042603 224.0
167.087601 772.0
167.107742 176.0
167.14119 180.0
167.321365 240.0
167.383148 112.0
167.478439 48.0
167.635605 120.0
167.710342 40.0
168.05481 484.0
168.080948 136.0
168.236557 260.0
168.603333 152.0
169.06665 468.0
169.089111 164.0
169.206451 124.0
169.225937 64.0
169.752747 152.0
169.778671 140.0
169.840927 164.0
169.872055 116.0
170.078461 264.0
170.088486 344.0
170.141937 180.0
170.383469 80.0
170.458817 84.0
170.482208 168.0
170.80719 220.0
171.035156 212.0
171.079498 180.0
171.189789 124.0
171.992783 128.0
172.043945 200.0
172.491699 32.0
172.575348 92.0
172.648575 144.0
173.062012 192.0
173.599182 164.0
173.824783 164.0
173.956009 120.0
174.070679 160.0
174.091019 220.0
174.673386 180.0
174.773361 176.0
174.844406 148.0
174.920746 212.0
175.047119 220.0
175.079056 188.0
175.207779 148.0
175.442337 188.0
175.555054 160.0
175.619003 152.0
175.938293 132.0
176.041275 156.0
176.080978 548.0
176.189178 148.0
176.313477 192.0
176.392365 144.0
176.842331 156.0
176.948212 120.0
177.038239 136.0
177.073746 664.0
177.14418 188.0
177.276657 176.0
177.419785 172.0
177.613373 156.0
177.634583 72.0
177.730087 184.0
177.870758 128.0
178.04776 168.0
178.083191 296.0
178.351532 132.0
178.787704 48.0
179.085663 744.0
179.296371 340.0
179.432312 64.0
179.965927 128.0
180.058365 52.0
180.07782 288.0
180.650101 100.0
180.711624 84.0
180.738388 108.0
181.016769 344.0
181.070847 508.0
181.082031 628.0
181.271255 152.0
181.678787 196.0
182.071899 760.0
182.106384 188.0
182.143188 228.0
182.936462 156.0
183.041458 176.0
183.077774 752.0
183.502213 200.0
183.658615 200.0
183.887955 156.0
184.046829 160.0
184.076187 144.0
184.0802 288.0
184.135452 144.0
184.294159 160.0
184.411926 44.0
184.548965 104.0
184.598465 152.0
184.947479 120.0
184.966415 116.0
185.057114 228.0
185.098663 284.0
185.323898 64.0
185.397064 156.0
185.478363 208.0
185.708847 216.0
185.814636 84.0
185.89061 56.0
185.934036 120.0
186.031738 208.0
186.067032 324.0
186.094193 272.0
186.289719 132.0
186.365799 96.0
186.466339 212.0
186.580505 128.0
186.798065 96.0
186.934097 176.0
187.042969 232.0
187.074982 620.0
187.140961 80.0
187.317993 156.0
187.500534 168.0
187.827728 88.0
188.048737 132.0
188.084213 156.0
188.545792 92.0
188.775436 148.0
189.050171 188.0
189.074249 260.0
189.616516 120.0
189.810516 224.0
190.053055 180.0
190.088776 208.0
190.375305 172.0
190.471939 92.0
190.546112 144.0
190.793457 156.0
190.853943 120.0
190.930939 56.0
191.067657 180.0
191.087112 72.0
191.120743 148.0
191.294128 156.0
191.445557 28.0
191.519928 192.0
191.575012 68.0
191.75412 248.0
192.005005 96.0
192.059097 176.0
192.077301 348.0
192.112579 164.0
192.192581 52.0
192.211899 84.0
192.302963 152.0
192.333328 80.0
192.568863 196.0
192.708908 164.0
192.805145 192.0
193.068665 300.0
193.46553 124.0
193.56636 96.0
194.073273 864.0
194.101166 136.0
194.275894 168.0
194.403534 184.0
194.472916 216.0
194.597839 164.0
195.003403 256.0
195.040329 176.0
195.079727 948.0
195.462265 108.0
195.620895 124.0
195.662659 164.0
195.682144 164.0
195.804672 124.0
195.888229 168.0
196.048706 508.0
196.084305 412.0
196.150162 56.0
196.231323 72.0
196.398331 80.0
196.45134 132.0
196.546188 220.0
196.830902 168.0
196.950989 64.0
197.020828 176.0
197.061371 1604.0
197.097107 572.0
197.205261 56.0
197.364594 88.0
197.417725 36.0
197.52121 184.0
197.843018 36.0
198.031708 136.0
198.067413 744.0
198.096268 244.0
198.198715 192.0
198.344452 104.0
198.38089 172.0
198.40332 100.0
198.459396 36.0
198.493042 72.0
198.654572 168.0
199.034592 148.0
199.077133 676.0
199.329544 60.0
199.475677 48.0
199.669693 116.0
199.984802 104.0
200.055298 416.0
200.080795 184.0
200.114304 160.0
200.266357 124.0
200.350494 240.0
200.42131 212.0
200.576309 136.0
200.63269 168.0
200.725723 212.0
200.948563 132.0
201.05423 176.0
201.096786 136.0
201.118759 132.0
201.436951 180.0
201.860901 184.0
202.039093 152.0
202.087708 196.0
202.313599 220.0
202.438171 148.0
203.041809 124.0
203.079453 144.0
203.101364 124.0
203.138245 144.0
203.80542 212.0
204.051224 156.0
204.072586 272.0
204.093796 332.0
204.283035 164.0
204.493607 232.0
204.758377 164.0
204.835281 48.0
204.858078 32.0
204.932144 300.0
205.064316 624.0
205.086792 176.0
205.131638 212.0
205.574463 232.0
205.627945 176.0
205.659332 60.0
206.0755 632.0
206.210571 188.0
206.247742 60.0
206.350647 168.0
206.447861 248.0
206.69101 40.0
206.76828 240.0
206.865601 72.0
207.049286 180.0
207.077103 692.0
207.172012 124.0
207.21785 48.0
207.667908 160.0
207.804779 84.0
207.857254 156.0
207.977783 148.0
208.054169 200.0
208.088181 860.0
208.13855 72.0
208.158661 60.0
208.187363 108.0
208.497635 124.0
208.75061 176.0
208.857025 160.0
209.062103 912.0
209.098495 564.0
209.182175 148.0
209.24263 168.0
209.539276 108.0
209.596909 96.0
209.867844 156.0
209.925522 68.0
210.033676 120.0
210.066956 488.0
210.09375 304.0
210.329437 172.0
210.522873 44.0
210.557526 244.0
211.036942 212.0
211.074066 1236.0
211.099014 476.0
211.268585 56.0
211.531921 48.0
211.801224 140.0
211.954758 108.0
212.041931 148.0
212.084747 880.0
212.433136 152.0
212.549194 168.0
212.65947 36.0
212.714615 80.0
212.772675 156.0
213.054626 440.0
213.088501 1008.0
213.243256 92.0
213.443848 36.0
213.600891 156.0
213.781281 204.0
213.883148 48.0
214.06189 336.0
214.094818 496.0
214.199768 176.0
214.293762 220.0
214.430725 100.0
214.588135 140.0
214.652283 144.0
215.067719 344.0
215.096191 196.0
215.440323 164.0
215.519211 44.0
215.706238 120.0
216.056747 140.0
216.082413 280.0
216.20932 244.0
216.235657 200.0
216.276642 176.0
216.443512 148.0
216.824326 56.0
216.868301 88.0
217.073517 196.0
217.107819 204.0
217.404999 184.0
217.613403 184.0
217.657455 172.0
217.692688 132.0
217.945312 68.0
218.042282 76.0
218.078842 468.0
218.224533 136.0
218.386276 136.0
218.70343 172.0
218.754089 104.0
218.860077 108.0
218.898346 172.0
219.048553 136.0
219.081665 644.0
219.122208 204.0
219.192917 164.0
219.502426 120.0
219.602692 48.0
219.747238 112.0
219.773804 212.0
219.794449 112.0
219.84462 132.0
220.053635 516.0
220.088715 508.0
220.429321 160.0
220.494324 192.0
220.535706 68.0
220.813629 200.0
221.0 208.0
221.058716 568.0
221.096725 556.0
221.260437 140.0
221.574371 68.0
221.799591 204.0
222.069534 512.0
222.094788 392.0
222.123749 268.0
222.129242 280.0
222.194 152.0
222.259277 52.0
222.436081 188.0
222.514526 156.0
222.541245 56.0
222.567963 56.0
222.603607 132.0
223.033997 152.0
223.075516 1988.0
223.248459 172.0
223.29306 44.0
223.617355 168.0
224.041153 184.0
224.082092 1656.0
224.385895 160.0
224.451492 160.0
224.484283 104.0
224.54393 268.0
224.579727 48.0
224.62149 76.0
224.731873 148.0
224.756714 180.0
224.845261 152.0
224.91391 92.0
225.052933 912.0
225.091751 428.0
225.302109 52.0
225.37381 76.0
225.583023 44.0
225.734451 92.0
225.911957 36.0
226.060822 768.0
226.095734 844.0
226.2202 120.0
226.324982 144.0
226.363907 56.0
226.771332 68.0
226.813293 156.0
227.008469 164.0
227.022934 52.0
227.067947 1396.0
227.100296 496.0
227.182144 92.0
227.455215 120.0
227.56929 80.0
227.863632 76.0
227.947754 60.0
228.001846 232.0
228.04216 272.0
228.072861 208.0
228.11264 260.0
228.2724 56.0
228.37767 80.0
228.404739 192.0
228.470917 168.0
228.52507 132.0
228.711655 76.0
229.04512 160.0
229.049789 120.0
229.087006 316.0
229.151321 80.0
229.226654 152.0
229.318497 92.0
229.781448 144.0
229.820663 136.0
229.893082 84.0
230.037964 136.0
230.090164 272.0
230.118668 364.0
230.333893 32.0
230.536316 160.0
231.036636 168.0
231.06546 156.0
231.108017 248.0
231.150177 172.0
231.455902 212.0
231.855774 168.0
231.898193 124.0
232.048996 220.0
232.053619 164.0
232.092224 152.0
232.11647 152.0
232.22261 220.0
233.053894 368.0
233.086472 212.0
233.422195 172.0
233.486053 36.0
233.924194 84.0
234.003357 104.0
234.024658 140.0
234.064255 420.0
234.092743 524.0
234.381027 160.0
234.554749 104.0
234.615723 108.0
234.743774 292.0
235.076538 1608.0
235.149521 112.0
236.05191 364.0
236.08226 1240.0
236.344391 172.0
236.482101 116.0
236.518829 160.0
236.72702 56.0
237.051453 676.0
237.088776 1000.0
237.158997 52.0
237.373596 120.0
237.419586 52.0
237.474792 104.0
237.637375 48.0
237.707947 148.0
237.769333 32.0
238.009216 140.0
238.060837 716.0
238.096771 928.0
238.119873 760.0
238.23912 48.0
238.319 176.0
238.537201 104.0
238.68898 120.0
238.853928 124.0
238.940063 232.0
239.010818 52.0
239.071411 808.0
239.103378 1392.0
239.149307 48.0
239.22934 244.0
239.25705 148.0
239.441803 76.0
239.497238 184.0
239.743713 116.0
239.780685 220.0
240.042557 140.0
240.079269 1736.0
240.111938 924.0
240.314163 44.0
240.437592 68.0
240.570328 68.0
240.894562 136.0
241.005859 192.0
241.084869 2224.0
241.151077 244.0
241.222122 48.0
241.321899 44.0
241.398361 84.0
241.454025 116.0
241.528244 60.0
241.571564 128.0
241.608673 56.0
241.664368 148.0
241.840759 32.0
241.865524 172.0
241.921249 48.0
241.949097 96.0
242.058731 600.0
242.091003 892.0
242.184448 148.0
242.215424 176.0
242.247391 88.0
242.336243 48.0
242.429199 56.0
242.49118 64.0
242.602768 168.0
242.912872 32.0
242.937698 68.0
243.068115 844.0
243.199677 84.0
243.424973 80.0
243.53862 128.0
243.626862 192.0
243.813293 52.0
243.962494 100.0
244.033997 140.0
244.069855 308.0
244.158371 56.0
244.239243 144.0
244.696701 108.0
244.930252 52.0
245.075775 124.0
245.201324 176.0
245.332245 52.0
246.065384 124.0
246.101944 124.0
246.134079 180.0
246.893433 64.0
247.032776 156.0
247.07222 276.0
248.080978 332.0
248.10907 476.0
248.817337 196.0
249.018311 172.0
249.08931 692.0
249.430618 164.0
249.612274 156.0
249.656296 56.0
249.794678 44.0
249.889069 164.0
250.084137 1172.0
250.430511 156.0
250.739273 128.0
250.835129 132.0
250.91658 80.0
250.991455 124.0
251.07222 2024.0
251.1017 808.0
251.164917 44.0
251.303726 128.0
251.366837 108.0
251.556198 52.0
251.578293 184.0
251.603546 32.0
251.660385 116.0
251.824585 68.0
252.03714 108.0
252.076736 2796.0
252.231049 100.0
252.276443 56.0
252.478806 64.0
252.513596 68.0
252.577637 144.0
252.64328 68.0
252.684418 48.0
253.050598 728.0
253.087173 1660.0
253.175507 216.0
253.276382 192.0
253.309784 76.0
253.631271 72.0
253.773926 108.0
253.80246 64.0
253.834167 200.0
254.099426 768.0
254.11026 1516.0
254.179108 92.0
254.233871 80.0
254.303696 48.0
254.363998 124.0
254.411621 44.0
254.821304 68.0
255.0215 80.0
255.066269 1260.0
255.101273 1292.0
255.247223 196.0
255.358521 76.0
255.399872 232.0
255.460312 60.0
255.681946 104.0
255.82309 144.0
256.074066 688.0
256.107971 2260.0
256.208435 80.0
256.457916 68.0
256.482483 128.0
256.830017 60.0
256.973572 192.0
257.042084 172.0
257.080353 904.0
257.181 52.0
257.222504 72.0
257.548187 172.0
257.764191 92.0
257.877289 96.0
257.941223 132.0
258.08606 572.0
258.219391 52.0
258.484619 84.0
258.625732 96.0
258.718567 64.0
258.77298 160.0
258.881866 124.0
258.95871 160.0
259.031403 192.0
259.060974 108.0
259.092957 220.0
259.827423 60.0
260.034912 188.0
260.066772 396.0
260.111847 328.0
260.161163 44.0
260.33136 148.0
260.44696 128.0
260.536926 184.0
260.758636 168.0
260.826141 60.0
261.062561 316.0
261.078186 160.0
261.114838 96.0
261.954132 124.0
262.082581 356.0
262.121735 368.0
262.210144 192.0
262.451904 196.0
262.758301 132.0
262.968048 48.0
263.003571 160.0
263.070892 1320.0
263.358734 152.0
263.42334 60.0
263.94043 40.0
264.100983 2600.0
264.270355 48.0
264.299469 232.0
264.438629 68.0
264.558411 148.0
264.649048 56.0
264.78183 160.0
264.823914 72.0
265.046906 280.0
265.085876 1600.0
265.173828 108.0
265.222443 56.0
265.303497 48.0
265.540192 136.0
265.637512 140.0
265.728333 212.0
265.832184 48.0
265.864624 28.0
265.974976 204.0
266.085571 724.0
266.110718 804.0
266.322418 192.0
266.462097 152.0
266.504333 144.0
266.691742 104.0
266.80127 76.0
266.858612 124.0
266.900879 156.0
267.099854 3468.0
267.326477 168.0
267.379059 40.0
267.408356 80.0
267.564606 40.0
268.072266 1720.0
268.102173 1912.0
268.13501 616.0
268.183533 72.0
268.221191 36.0
268.281311 200.0
268.362823 140.0
268.459015 152.0
268.568268 68.0
268.646576 160.0
268.689575 44.0
268.799927 124.0
268.826019 132.0
268.888031 252.0
269.079346 1828.0
269.139099 308.0
269.224274 64.0
269.341858 48.0
269.495392 244.0
269.545563 68.0
269.642456 60.0
269.694763 96.0
269.792816 28.0
269.861481 84.0
269.939941 68.0
270.011902 136.0
270.084045 1740.0
270.118408 564.0
270.198334 56.0
270.306305 44.0
270.561615 84.0
270.721222 64.0
270.790833 52.0
270.849792 140.0
270.938232 52.0
271.05545 348.0
271.094421 1392.0
271.302002 120.0
271.361023 52.0
271.436432 68.0
271.7677 64.0
271.88913 36.0
271.912109 140.0
272.010559 168.0
272.10434 912.0
272.168152 164.0
272.227264 44.0
272.375061 148.0
272.401337 204.0
272.733215 72.0
272.960052 112.0
273.07547 304.0
273.109619 352.0
273.545685 104.0
273.907898 104.0
273.944122 144.0
274.079224 120.0
274.303314 92.0
274.596771 136.0
274.699036 56.0
274.735321 188.0
274.962982 192.0
274.98938 168.0
275.068604 288.0
275.1026 120.0
275.200653 108.0
275.507812 160.0
276.10083 792.0
276.417053 56.0
276.877197 156.0
277.052734 116.0
277.086121 744.0
277.106873 904.0
277.639435 64.0
277.719025 120.0
278.087341 812.0
278.111603 1040.0
278.150391 172.0
278.190216 40.0
278.263245 224.0
278.303101 156.0
278.621948 120.0
278.819733 160.0
279.064362 872.0
279.096924 1344.0
279.123688 980.0
279.177032 48.0
279.220245 40.0
279.310059 76.0
279.38324 44.0
279.413177 144.0
279.573364 172.0
280.076599 868.0
280.103119 1732.0
280.262177 44.0
280.322174 84.0
280.455475 76.0
280.592163 80.0
280.615479 88.0
280.655487 44.0
280.752197 100.0
280.815582 44.0
280.999054 40.0
281.036804 76.0
281.080353 1088.0
281.106079 1000.0
281.15921 100.0
281.197266 148.0
281.338043 104.0
281.656677 64.0
281.72348 168.0
281.990143 140.0
282.046051 168.0
282.114319 3652.0
282.171326 56.0
282.201416 32.0
282.321777 44.0
282.475647 56.0
282.518188 56.0
282.662994 100.0
282.736633 76.0
282.930756 88.0
282.992798 188.0
283.031189 128.0
283.096832 1852.0
283.188599 36.0
283.295776 40.0
283.352753 32.0
283.389587 200.0
283.42981 72.0
283.5672 172.0
283.721405 68.0
283.908722 92.0
284.101837 2200.0
284.197632 56.0
284.56012 64.0
284.681 60.0
284.707886 32.0
284.912781 220.0
284.953094 128.0
285.036804 216.0
285.074829 1272.0
285.108917 1388.0
285.342957 64.0
285.386658 44.0
285.453918 72.0
285.682617 52.0
285.753265 56.0
285.881134 60.0
286.009003 128.0
286.077087 320.0
286.112183 528.0
286.161163 208.0
286.500854 64.0
286.568054 44.0
286.659027 132.0
286.75 32.0
287.094116 1036.0
287.123932 760.0
287.539215 144.0
287.635437 72.0
287.81601 168.0
287.91394 132.0
288.100037 428.0
288.312592 36.0
288.383575 76.0
288.812958 72.0
288.921204 168.0
289.09314 148.0
289.1987 72.0
289.815033 68.0
290.059052 36.0
290.113678 308.0
290.150574 104.0
290.272644 32.0
290.584686 96.0
291.085968 164.0
291.368958 56.0
291.572815 44.0
291.647583 64.0
291.735962 140.0
291.987579 120.0
292.059021 148.0
292.099304 436.0
292.695404 44.0
292.86911 136.0
293.087036 904.0
293.10611 1772.0
293.150085 160.0
293.291595 48.0
293.485931 136.0
293.653015 176.0
293.765594 184.0
293.840637 56.0
293.960052 228.0
294.106323 2204.0
294.241211 76.0
294.400421 52.0
294.748871 68.0
295.015442 92.0
295.095398 3312.0
295.169769 176.0
295.299255 56.0
295.627686 48.0
295.874115 156.0
296.12442 2404.0
296.339905 36.0
296.377594 100.0
296.487244 56.0
296.60379 60.0
296.703186 40.0
296.802643 148.0
297.105743 960.0
297.115204 432.0
297.125916 1160.0
297.461334 104.0
297.516266 56.0
297.57489 56.0
297.810303 128.0
297.948395 160.0
298.010162 204.0
298.108765 1352.0
298.192963 72.0
298.392334 36.0
298.622711 36.0
298.877289 92.0
299.08905 1012.0
299.125397 564.0
299.400543 72.0
299.49353 76.0
299.913879 80.0
299.969025 80.0
300.100433 1040.0
300.203491 76.0
300.279358 112.0
300.503571 156.0
300.727875 112.0
300.814178 68.0
300.955719 156.0
301.009186 116.0
301.107452 576.0
301.625946 88.0
301.712372 104.0
301.902527 168.0
302.109589 744.0
302.175781 68.0
302.352264 104.0
302.684601 60.0
302.916626 72.0
302.96167 172.0
303.024048 60.0
303.084412 208.0
303.131439 188.0
303.332458 132.0
304.092072 112.0
304.144318 164.0
304.477448 92.0
305.106384 144.0
305.15506 108.0
305.791626 128.0
306.111176 500.0
306.871521 208.0
307.116211 596.0
307.567535 132.0
308.092773 376.0
308.099213 340.0
308.124786 1188.0
308.278229 32.0
308.743164 156.0
309.055389 124.0
309.102203 624.0
309.11377 560.0
309.129944 1388.0
309.436005 180.0
309.488525 128.0
309.793213 48.0
309.863281 32.0
310.041992 108.0
310.114197 3692.0
310.259308 88.0
310.31189 32.0
310.397278 96.0
310.431122 60.0
310.469696 36.0
310.5784 36.0
310.760834 68.0
310.869537 180.0
310.988922 104.0
311.045074 128.0
311.095093 2360.0
311.23468 72.0
311.280304 40.0
311.649139 76.0
312.007629 208.0
312.103027 944.0
312.159119 1596.0
312.380402 32.0
312.408539 36.0
312.492981 64.0
312.665405 184.0
312.760956 104.0
312.922363 164.0
313.056152 48.0
313.10495 712.0
313.136353 1196.0
313.440125 84.0
313.570496 52.0
313.602234 152.0
313.880737 52.0
314.103333 704.0
314.134705 848.0
314.282837 84.0
314.392242 120.0
314.484863 136.0
315.12384 504.0
315.614471 48.0
315.70639 60.0
315.79129 76.0
315.97876 40.0
316.04599 60.0
316.125183 648.0
316.215851 100.0
316.399933 72.0
316.470734 152.0
316.867401 96.0
316.931183 56.0
317.101288 140.0
317.128937 144.0
317.141113 116.0
317.906311 52.0
318.101532 132.0
318.254181 44.0
318.559631 48.0
319.103363 124.0
320.053345 96.0
321.375732 160.0
321.596985 48.0
322.021851 72.0
322.100433 308.0
322.136108 260.0
322.68158 148.0
323.14798 472.0
323.380493 164.0
323.727753 124.0
323.946228 100.0
324.029236 120.0
324.122284 1816.0
324.222137 84.0
324.250793 148.0
324.370361 212.0
324.59494 68.0
324.98233 140.0
325.13031 1744.0
325.294556 76.0
325.323273 72.0
325.402252 72.0
325.606934 44.0
326.005707 196.0
326.038055 136.0
326.11203 1588.0
326.199799 80.0
326.735626 64.0
327.112274 864.0
327.549194 64.0
327.639252 68.0
327.996002 144.0
328.142517 804.0
328.273621 80.0
329.126465 452.0
329.388855 128.0
329.732605 56.0
330.108063 100.0
330.147858 156.0
330.715851 148.0
331.014008 80.0
331.135864 116.0
332.626068 72.0
333.541443 84.0
335.098999 124.0
336.861084 48.0
337.431183 68.0
338.135651 356.0
338.177429 80.0
338.477631 104.0
338.851227 44.0
339.143951 276.0
339.793457 84.0
340.076019 204.0
340.151794 1408.0
340.560669 36.0
340.77359 100.0
340.887634 80.0
340.917023 128.0
340.968475 88.0
341.140076 904.0
341.387573 104.0
341.556763 44.0
341.784851 68.0
341.891571 152.0
342.133301 1920.0
342.558014 60.0
342.742218 60.0
342.823273 56.0
342.904358 156.0
343.088654 76.0
343.138916 588.0
343.188202 180.0
343.276703 80.0
344.145782 324.0
344.179962 164.0
344.520538 76.0
345.143524 192.0
345.157623 140.0
345.172607 244.0
345.344849 92.0
345.378143 44.0
348.399292 60.0
354.136383 120.0
354.173889 124.0
355.129608 152.0
356.150391 396.0
357.153351 724.0
357.560455 36.0
358.161011 264.0
358.803497 92.0
358.841187 52.0
359.539032 52.0
359.886322 92.0
364.378265 48.0
364.446655 140.0
365.294464 136.0
366.352753 32.0
368.145386 52.0
369.303406 156.0
372.179352 1116.0
372.277435 52.0
372.515564 52.0
373.126587 108.0
373.182983 348.0
374.192291 72.0
375.151581 84.0
381.550934 112.0
383.395935 48.0
389.330658 68.0
392.529968 84.0
406.520081 96.0
407.078918 44.0
407.890472 68.0
416.192749 56.0
425.185822 76.0
433.338165 100.0
434.68158 108.0
446.174957 64.0
446.899658 112.0
449.250519 36.0
460.529144 60.0
472.99884 100.0
477.150421 112.0
481.189117 64.0
481.713165 56.0
492.589844 128.0
506.231018 80.0
520.353577 52.0
528.894409 88.0
531.889709 80.0
545.907532 72.0
552.633789 92.0
553.799438 44.0
558.813049 88.0
566.61731 52.0
570.846436 132.0
571.835999 64.0
586.429932 108.0
591.148315 68.0
611.74585 112.0
614.244202 60.0
642.480896 56.0
644.328674 108.0
658.771851 32.0
668.89447 48.0
675.809937 68.0
695.598694 64.0
696.80127 92.0
699.404358 132.0
700.905273 140.0
744.806274 76.0
752.386475 48.0
770.703552 68.0
787.123169 44.0
789.134644 124.0
790.527466 84.0
796.279358 72.0
828.293457 36.0
845.341248 104.0
848.834229 148.0
862.930969 68.0
880.884949 84.0
882.303284 72.0
889.316895 60.0
894.607178 96.0
924.910339 48.0
951.655396 76.0
954.266663 88.0
962.442871 84.0
964.345581 64.0
980.382629 96.0
1014.710205 80.0
1026.332886 100.0
1045.016602 216.0
1094.276489 196.0
1100.051636 128.0
1110.890991 100.0
1158.035767 40.0
1162.720581 116.0
1168.782227 64.0
1185.999023 176.0
1205.932129 112.0
1226.874756 68.0
1228.269409 48.0
1242.63855 236.0
1266.76355 168.0
1270.946411 204.0
1288.532227 204.0
1288.875732 160.0
1297.564819 140.0
1315.283325 92.0
1325.85022 160.0
1348.974487 160.0
1362.017822 180.0
1370.920166 204.0
1375.780884 92.0
1382.980713 128.0
1383.639526 124.0
1399.788818 260.0
1415.290405 192.0
1421.63208 56.0
1424.748047 132.0
1438.536865 180.0
1459.774048 260.0
1461.219238 232.0
1461.751953 168.0
1461.858398 40.0
1463.487427 116.0
1463.723389 44.0
1474.174072 92.0
1484.822998 144.0
1487.615967 160.0
1494.909912 88.0
