>compound NCGC00160195-01!2-(5-Hydroxymethyl-8-methyl-3-oxa-bicyclo[3.3.1]non-7-en-2-yl)-phenol
>formula C16H20O3
>ionization [M+H]+
>parentmass 261.149
#inchi InChI=1S/C16H20O3/c1-11-6-7-16(9-17)8-13(11)15(19-10-16)12-4-2-3-5-14(12)18/h2-6,13,15,17-18H,7-10H2,1H3/t13?,15?,16-/m1/s1
#inchikey XQPYFQDHBGUIBQ
#Ion_Source LC-ESI
#Instrument qTOF
#Compound_Source Prestwick Phytochem Lib
#PI Dorrestein
#Data_Collector VVP/LMS
#Scan -1
#Precursor_MZ 261.149
#ExactMass 260.141
#Charge 1
#CAS_Number N/A
#Pubmed_ID N/A
#Smiles CC1=CC[C@@]2(CO)COC(C1C2)C3=CC=CC=C3O
#INCHI_AUX N/A
#Library_Class 1
#SpectrumID CCMSLIB00000078757
#IonMode Positive
#UpdateWorkflowName UPDATE-SINGLE-ANNOTATED-GOLD
#LibraryQualityString Gold
#TaskID 67c915c6594c435cadc1fe2b5358144d
##Scan# 2004
#SpectrumFile p1-D03_GD3_01_17911.mzXML
#LibraryName phytochem_lib.mgf
#MQScore -1
#Organism phytochem_lib
#TIC_Query 0
#RT_Query -1
#MZErrorPPM -1
#SharedPeaks 0
#MassDiff 0
#LibMZ -1
#SpecMZ 261.149
#SpecCharge 0
#internalFilename spec-00000.mgf

>collision 10
95.568802 212.0
96.272476 152.0
97.612823 148.0
99.075333 168.0
99.865349 116.0
99.958855 200.0
100.642532 200.0
102.016884 188.0
103.051903 340.0
103.457237 132.0
104.171036 200.0
105.027985 128.0
105.069725 404.0
105.232056 128.0
105.546707 188.0
105.565109 120.0
106.052353 100.0
106.77092 160.0
106.894348 188.0
107.04953 5880.0
107.079628 156.0
107.09404 56.0
107.139359 56.0
107.516685 56.0
107.624023 96.0
108.054504 472.0
108.54686 56.0
108.727333 116.0
108.976517 108.0
109.057556 132.0
109.113686 44.0
110.107605 152.0
110.130577 80.0
111.898331 136.0
112.763184 156.0
114.666916 204.0
114.784164 204.0
115.054237 384.0
115.516708 176.0
116.057693 244.0
116.367493 260.0
117.074913 180.0
119.086212 196.0
119.555801 40.0
120.30558 192.0
121.029236 64.0
121.071518 376.0
121.105881 132.0
127.048683 156.0
129.072205 376.0
131.048935 536.0
131.088425 356.0
131.303833 96.0
132.000336 148.0
132.05426 248.0
132.091812 136.0
132.476379 72.0
133.058914 184.0
133.194351 204.0
134.06633 140.0
135.075821 180.0
138.223022 112.0
140.042404 144.0
141.049911 60.0
142.139313 176.0
143.086655 180.0
144.054764 360.0
145.064789 420.0
147.085754 200.0
149.055176 152.0
149.089203 172.0
152.06871 112.0
153.064331 128.0
154.070602 156.0
154.092834 204.0
155.060669 152.0
156.087692 180.0
157.068604 200.0
159.07785 192.0
159.377502 76.0
160.759888 116.0
160.99971 140.0
163.077148 152.0
165.073288 300.0
168.057999 132.0
169.063156 116.0
169.108261 252.0
171.082825 376.0
172.086182 164.0
173.061401 168.0
173.098068 176.0
180.940979 140.0
181.063019 176.0
181.096283 136.0
182.067139 132.0
183.082718 364.0
184.080521 284.0
185.100845 160.0
190.072784 164.0
190.784119 116.0
191.243484 92.0
192.0811 176.0
194.468948 112.0
195.080017 140.0
195.333069 80.0
196.090073 344.0
197.098145 156.0
200.916153 104.0
201.127777 172.0
206.009033 188.0
210.102707 140.0
224.911835 152.0
249.068909 132.0
302.588348 20.0
894.496399 84.0
943.789062 36.0
971.181335 76.0
1048.453125 216.0
1056.931641 192.0
1111.417725 212.0
1134.735107 188.0
1139.338867 164.0
1145.271851 112.0
1151.037842 132.0
1167.694824 176.0
1174.260132 220.0
1183.861938 148.0
1226.344238 152.0
1232.387451 180.0
1234.820068 164.0
1253.451172 212.0
1263.646729 164.0
1287.515869 152.0
1356.641479 168.0
1357.030029 60.0
1377.363037 168.0
1377.902344 84.0
1381.872437 160.0
1387.389771 168.0
1388.197998 156.0
1398.15979 20.0
1420.064697 128.0
1435.526611 128.0
1436.25061 124.0
1438.280273 20.0
1441.338867 184.0
1449.351685 152.0
1451.41333 156.0
1453.757324 112.0
1469.233154 160.0
1481.32666 120.0
1495.862671 132.0
