>compound Guaifenesin (Guaiphenesin)
>formula C10H14O4
>ionization [M+H]+
>parentmass 199.097
#inchi InChI=1S/C10H14O4/c1-13-9-4-2-3-5-10(9)14-7-8(12)6-11/h2-5,8,11-12H,6-7H2,1H3
#inchikey HSRJKNPTNIJEKV
#Ion_Source LC-ESI
#Instrument qTof
#Compound_Source Commercial
#PI Dorrestein
#Data_Collector Garg_Neha
#Scan -1
#Precursor_MZ 199.097
#ExactMass 198.089
#Charge 1
#CAS_Number 93-14-1
#Pubmed_ID N/A
#Smiles C1=CC(=C(C=C1)OCC(CO)O)OC
#INCHI_AUX N/A
#Library_Class 1
#SpectrumID CCMSLIB00000078269
#IonMode Positive
#UpdateWorkflowName UPDATE-SINGLE-ANNOTATED-GOLD
#LibraryQualityString Gold
#TaskID 77f51c88eb8b467eb4a01dd2d0cb90d2
##Scan# 1070
#SpectrumFile Plate4_41_60_GH4_01_16505.mzXML
#LibraryName FDALibrary_2_04302014.mgf
#MQScore -1
#Organism FDALibrary_2_04302014
#TIC_Query 0
#RT_Query -1
#MZErrorPPM -1
#SharedPeaks 0
#MassDiff 0
#LibMZ -1
#SpecMZ 199.097
#SpecCharge 0
#internalFilename spec-00000.mgf

>collision 10
45.997009 144.0
46.404209 160.0
51.090008 204.0
54.185608 144.0
55.977318 152.0
56.704857 156.0
57.501976 208.0
59.074654 172.0
59.946743 180.0
61.296463 144.0
62.223984 208.0
62.847252 152.0
66.330757 216.0
69.019089 144.0
70.461784 192.0
70.542 200.0
71.143394 172.0
71.914337 156.0
72.536797 164.0
78.843506 212.0
80.534912 192.0
89.877167 156.0
91.052132 316.0
93.034698 156.0
93.073013 176.0
94.451103 192.0
95.047394 656.0
96.759094 160.0
97.168709 204.0
97.964905 172.0
99.092972 192.0
100.072136 144.0
100.978096 204.0
101.100136 184.0
102.981949 160.0
103.052177 316.0
105.070267 428.0
106.070755 204.0
107.046577 216.0
107.306274 152.0
108.06012 160.0
108.074608 232.0
109.953156 168.0
110.034683 972.0
111.032303 176.0
112.140671 164.0
115.006187 208.0
115.942955 140.0
116.198128 172.0
119.046745 168.0
120.058044 188.0
120.31459 148.0
120.926636 184.0
121.027061 660.0
121.064476 1048.0
122.015747 132.0
122.034866 1564.0
122.055992 284.0
122.939758 148.0
123.042747 964.0
123.080933 172.0
124.050247 156.0
124.976181 160.0
125.059471 2560.0
126.06321 356.0
129.492981 144.0
131.039825 148.0
131.056839 240.0
132.056381 136.0
133.064041 304.0
134.020828 228.0
135.04184 160.0
135.080414 1024.0
136.541763 152.0
137.057709 452.0
138.062317 168.0
140.993942 172.0
141.959808 144.0
145.061737 164.0
145.616013 164.0
146.821747 164.0
147.91626 180.0
148.049194 576.0
149.058563 152.0
151.0755 3172.0
151.116196 148.0
151.456772 156.0
152.079956 688.0
161.059052 204.0
163.074524 2180.0
164.073395 388.0
171.542465 172.0
175.034363 272.0
180.964157 192.0
181.090012 240.0
182.961624 172.0
193.268341 180.0
198.09317 224.0
199.113525 156.0
200.196869 228.0
201.083588 144.0
201.143799 144.0
202.040283 652.0
253.017502 180.0
1210.051758 144.0
1242.641846 164.0
1314.397827 152.0
1440.221069 204.0
1445.263428 196.0
1539.008057 216.0
1547.898438 204.0
1575.323608 248.0
1629.562256 152.0
1636.946167 176.0
1656.118652 148.0
1665.592407 200.0
1684.269653 192.0
1768.890503 144.0
1777.204102 164.0
1798.680786 172.0
1811.694946 204.0
1865.423462 148.0
1900.617065 248.0
1921.21936 224.0
1945.17041 236.0
1968.333618 140.0
