>compound MLS001141349-01!1-[2-(4-ethyl-7-methyl-2-oxochromen-5-yl)oxyacetyl]piperidine-4-carboxylic acid
>formula C20H23NO6
>ionization [M+H]+
>parentmass 374.159698
#inchi InChI=1S/C20H23NO6/c1-3-13-10-18(23)27-16-9-12(2)8-15(19(13)16)26-11-17(22)21-6-4-14(5-7-21)20(24)25/h8-10,14H,3-7,11H2,1-2H3,(H,24,25)
#inchikey HEBSLKYYHMZVRZ
#Ion_Source LC-ESI
#Instrument qTof
#Compound_Source NIH Natural Product Library
#PI Dorrestein
#Data_Collector VVP/LMS
#Scan -1
#Precursor_MZ 374.16
#ExactMass 373.153
#Charge 1
#CAS_Number N/A
#Pubmed_ID N/A
#Smiles CCc1cc(=O)oc2cc(C)cc(OCC(=O)N3CCC(CC3)C(=O)O)c12
#INCHI_AUX N/A
#Library_Class 1
#SpectrumID CCMSLIB00000079387
#IonMode Positive
#UpdateWorkflowName UPDATE-SINGLE-ANNOTATED-GOLD
#LibraryQualityString Gold
#TaskID b1d8e8f6646f4e71acdff9ca3d919d08
##Scan# 1881
#SpectrumFile p1-E05_GE5_01_17925.mzXML
#LibraryName NIH_Natural_Products_Library.mgf
#MQScore -1
#Organism NIH_Natural_Products_Library
#TIC_Query 0
#RT_Query -1
#MZErrorPPM -1
#SharedPeaks 0
#MassDiff 0
#LibMZ -1
#SpecMZ 374.16
#SpecCharge 0
#internalFilename spec-00000.mgf

>collision 10
95.313766 156.0
95.389557 180.0
95.800156 100.0
95.848862 160.0
95.985306 244.0
96.081955 340.0
96.334114 116.0
96.475357 200.0
96.618111 172.0
96.66703 172.0
96.727699 96.0
96.804054 152.0
96.896111 96.0
97.081947 168.0
98.004219 172.0
98.073189 228.0
98.349327 188.0
98.428291 144.0
98.509262 180.0
98.762276 68.0
98.801842 196.0
99.044472 1192.0
99.067108 200.0
99.088593 152.0
99.203842 204.0
99.338692 204.0
100.054787 172.0
100.127769 128.0
100.175575 52.0
100.662216 140.0
100.702156 108.0
100.983963 200.0
101.049973 72.0
101.763474 168.0
101.821709 168.0
102.113121 136.0
102.390854 160.0
102.566139 152.0
103.056587 376.0
103.220253 80.0
103.234406 116.0
103.574417 152.0
103.804153 56.0
105.07058 668.0
105.115456 84.0
106.285889 220.0
106.674042 200.0
106.847099 208.0
106.994957 168.0
107.045891 136.0
107.085564 184.0
107.435974 116.0
107.543274 72.0
107.559792 200.0
107.904778 192.0
107.952332 208.0
108.057816 196.0
108.074371 160.0
108.165131 252.0
108.752014 64.0
108.994987 136.0
109.167519 160.0
109.269432 192.0
109.300644 204.0
109.465088 180.0
109.756805 176.0
109.898643 176.0
109.915337 128.0
110.059784 196.0
110.088593 92.0
110.573601 208.0
111.047165 208.0
111.065964 156.0
111.151978 140.0
111.546814 200.0
111.757111 208.0
111.879181 148.0
112.075623 992.0
112.228127 140.0
112.336472 140.0
112.392677 56.0
112.60453 52.0
112.640434 180.0
113.056946 124.0
113.079346 168.0
113.892273 36.0
114.053741 680.0
114.087669 188.0
114.145172 64.0
115.059212 360.0
115.29203 136.0
115.614952 88.0
115.801208 92.0
116.060234 320.0
116.232101 240.0
116.528397 140.0
116.941269 36.0
117.068291 68.0
117.089821 216.0
117.495056 132.0
118.056641 92.0
118.169113 104.0
118.284691 192.0
118.359581 196.0
118.379074 96.0
118.431046 156.0
118.519867 120.0
118.986176 148.0
119.049141 184.0
119.084526 204.0
119.10778 204.0
119.229454 52.0
119.292488 52.0
119.546951 192.0
119.758133 188.0
119.779915 160.0
119.79734 204.0
120.089417 124.0
120.703079 168.0
120.924026 120.0
121.065002 684.0
121.090416 92.0
121.331451 200.0
121.631981 68.0
121.847183 224.0
122.060379 332.0
122.176949 208.0
122.509361 188.0
122.531395 68.0
122.926064 188.0
123.047462 124.0
123.072166 148.0
123.113701 180.0
123.224144 64.0
123.454025 76.0
123.626572 168.0
123.759384 148.0
123.901123 44.0
124.003052 204.0
124.051704 152.0
124.077057 708.0
124.202606 164.0
124.286903 176.0
124.511246 192.0
124.562195 244.0
124.851791 148.0
125.085739 128.0
125.923141 188.0
126.090927 1484.0
126.113007 196.0
126.242676 164.0
126.289642 244.0
126.374649 132.0
126.428352 76.0
126.457443 140.0
126.791145 148.0
126.869591 212.0
127.093872 168.0
127.320587 32.0
127.535309 204.0
127.585724 140.0
127.655426 228.0
127.902901 96.0
127.936668 180.0
128.015472 116.0
128.040237 132.0
128.070969 10528.0
128.104965 212.0
128.121338 164.0
128.173157 156.0
128.400833 144.0
128.529419 144.0
128.691925 60.0
128.827423 40.0
128.892944 32.0
129.072754 1120.0
129.112213 80.0
129.69635 172.0
129.907227 156.0
130.038834 316.0
130.087891 584.0
130.243164 64.0
130.281784 44.0
130.643234 40.0
130.702393 144.0
130.76384 60.0
131.054947 176.0
131.085114 796.0
131.112289 156.0
131.431534 160.0
131.47261 60.0
132.041702 220.0
132.082016 120.0
132.373276 124.0
132.476089 176.0
132.581741 68.0
132.739304 168.0
132.797241 208.0
132.868347 160.0
132.900467 188.0
133.035751 212.0
133.063187 280.0
133.105362 388.0
133.458603 80.0
133.686325 148.0
134.107773 148.0
134.142349 196.0
134.172318 208.0
134.673065 84.0
135.054428 228.0
135.077835 168.0
135.105316 212.0
135.248779 52.0
135.415482 176.0
135.438644 60.0
135.723694 176.0
135.932449 64.0
136.190155 96.0
136.83429 164.0
137.056915 184.0
137.300308 204.0
137.454269 68.0
137.514954 164.0
138.056946 188.0
138.688858 224.0
139.242783 96.0
139.329681 200.0
139.5224 192.0
139.656433 132.0
139.804642 92.0
139.832886 112.0
139.985901 136.0
140.072647 212.0
140.292191 104.0
140.478485 40.0
140.771149 140.0
141.019211 172.0
141.069229 264.0
141.265121 236.0
141.622543 196.0
141.662811 100.0
141.812088 136.0
141.902161 68.0
142.032593 104.0
142.086472 19052.0
142.160706 68.0
142.281754 88.0
142.317368 104.0
142.433731 72.0
142.540649 128.0
142.863983 88.0
143.08815 2016.0
143.113876 156.0
143.175797 68.0
143.228195 132.0
143.259155 136.0
143.669174 116.0
143.879196 104.0
144.010529 100.0
144.054367 576.0
144.091644 304.0
144.620209 148.0
144.727936 128.0
144.871628 104.0
145.062927 400.0
145.094452 168.0
145.540756 160.0
146.073334 620.0
146.264374 196.0
146.28363 120.0
146.41124 44.0
146.796814 228.0
146.878815 48.0
146.982559 172.0
147.044998 324.0
147.078705 688.0
147.173233 224.0
147.371292 116.0
147.93721 148.0
148.052261 488.0
148.084915 116.0
148.109131 132.0
149.057648 744.0
149.089935 192.0
150.058075 68.0
150.416672 152.0
150.978622 200.0
151.064224 96.0
151.174332 128.0
151.230621 140.0
151.541611 40.0
151.855392 92.0
151.892181 164.0
152.027115 64.0
152.336472 160.0
152.988144 112.0
154.088043 56.0
154.528122 108.0
155.079086 188.0
155.266281 236.0
155.951508 144.0
156.06395 344.0
156.110626 36.0
156.962234 176.0
157.061325 148.0
157.251617 140.0
158.075455 164.0
159.053726 256.0
159.081177 1088.0
159.214417 132.0
160.05159 164.0
160.087158 156.0
160.79039 44.0
160.906494 40.0
161.061111 1524.0
161.095444 1448.0
161.659714 148.0
161.738174 116.0
161.778671 272.0
162.064651 144.0
162.101028 640.0
162.498413 64.0
163.070724 380.0
163.110428 160.0
163.390152 60.0
163.914642 208.0
164.080307 148.0
165.05307 144.0
165.298447 156.0
165.862061 40.0
166.441574 176.0
167.197617 196.0
167.568405 96.0
168.011841 164.0
169.063446 120.0
169.371536 152.0
169.449631 168.0
169.972992 124.0
170.080765 2612.0
170.136505 204.0
171.04538 312.0
171.084183 840.0
171.64032 164.0
172.303268 108.0
172.899429 40.0
172.957016 172.0
172.998901 72.0
173.064346 216.0
173.095551 144.0
173.18219 112.0
174.067322 1792.0
174.101959 392.0
174.283981 68.0
174.307632 156.0
174.431152 76.0
174.99939 140.0
175.041519 140.0
175.074722 1116.0
175.109497 192.0
175.576477 140.0
176.046356 864.0
176.080673 652.0
176.495422 168.0
176.548309 64.0
177.053177 3640.0
177.08461 360.0
177.178253 96.0
177.247147 108.0
177.273636 80.0
177.394394 64.0
177.427368 152.0
177.674011 52.0
177.753601 52.0
178.057205 544.0
178.300644 168.0
178.454819 164.0
179.061523 212.0
179.101486 220.0
179.125458 192.0
179.306641 128.0
180.14444 176.0
181.195801 176.0
181.278854 188.0
181.327087 64.0
181.431625 84.0
181.960144 204.0
182.11171 352.0
183.124481 208.0
183.248398 156.0
184.053726 180.0
184.141266 88.0
185.067184 276.0
185.087494 128.0
185.274628 112.0
185.369461 104.0
186.064865 216.0
186.281052 156.0
187.076614 3632.0
187.565414 52.0
187.614471 60.0
188.049652 340.0
188.076675 472.0
188.405884 52.0
188.455063 112.0
188.895203 64.0
189.05249 624.0
189.090912 4676.0
189.144211 48.0
189.182526 44.0
189.368729 60.0
189.431732 96.0
189.535828 140.0
189.61731 132.0
189.804459 88.0
189.864777 96.0
190.064072 416.0
190.092026 336.0
190.287354 64.0
190.49057 44.0
190.597717 68.0
190.682907 92.0
190.707642 144.0
190.825836 28.0
191.012848 132.0
191.054108 188.0
191.101898 344.0
191.208191 64.0
191.588165 112.0
191.860992 48.0
192.719315 108.0
192.990189 68.0
193.515869 252.0
195.074997 200.0
195.40036 140.0
195.561768 252.0
196.166199 224.0
196.665482 44.0
196.891632 120.0
197.918884 56.0
199.073364 1016.0
200.074112 512.0
201.049667 356.0
201.09169 124.0
201.436157 112.0
202.060165 1956.0
202.151459 44.0
202.290131 56.0
202.624298 240.0
202.709305 200.0
203.021118 168.0
203.068451 4044.0
203.259399 64.0
203.360687 116.0
203.392792 112.0
203.583633 220.0
203.690933 136.0
203.821625 64.0
203.872772 76.0
204.00351 52.0
204.077286 4056.0
204.232239 100.0
204.302109 80.0
204.461441 52.0
204.52121 116.0
204.692032 68.0
205.005859 92.0
205.085266 2092.0
205.373138 76.0
206.088303 308.0
206.195404 52.0
206.352615 44.0
206.466995 48.0
206.784561 148.0
208.258255 88.0
208.500427 68.0
209.887085 72.0
210.758774 156.0
212.075485 132.0
213.079514 164.0
213.111481 200.0
213.201553 120.0
215.074219 136.0
215.334106 68.0
216.480499 84.0
216.597641 152.0
217.050797 324.0
217.085419 8384.0
217.139145 160.0
217.430313 44.0
217.4785 48.0
217.580017 64.0
217.635803 84.0
217.785568 120.0
218.087769 808.0
218.176392 56.0
218.296936 40.0
218.355759 64.0
218.552841 76.0
218.808899 48.0
218.920792 96.0
219.035645 88.0
219.100601 252.0
220.099808 172.0
220.354294 72.0
220.762192 92.0
221.84584 72.0
225.934647 140.0
228.177902 204.0
229.083725 164.0
231.067139 260.0
233.053009 156.0
242.421432 176.0
244.695084 208.0
245.080536 2264.0
245.873337 80.0
246.082596 600.0
246.522888 40.0
246.913651 56.0
247.094254 196.0
247.755646 56.0
247.855911 108.0
255.121399 188.0
255.576187 184.0
256.171539 148.0
257.108917 184.0
258.326263 108.0
261.460999 112.0
263.088745 128.0
264.358948 80.0
265.081085 104.0
268.09671 156.0
269.274414 180.0
270.120972 108.0
274.116547 160.0
276.13028 104.0
278.536591 104.0
278.729279 116.0
280.626495 192.0
282.048615 128.0
285.101868 144.0
286.097443 108.0
288.168152 152.0
288.698853 76.0
292.11087 184.0
294.138336 176.0
300.154327 288.0
304.13089 144.0
308.338196 100.0
313.19754 104.0
313.898834 60.0
316.853668 76.0
318.162292 132.0
321.376068 208.0
323.23053 64.0
328.15506 964.0
328.183716 148.0
329.148987 260.0
331.128815 64.0
331.849915 88.0
332.14978 140.0
333.577972 120.0
336.569031 92.0
338.704773 164.0
344.671997 52.0
346.16864 444.0
347.174347 200.0
347.756805 100.0
349.607605 116.0
353.451111 64.0
353.665527 48.0
356.145691 240.0
357.147308 144.0
361.174713 140.0
364.852966 104.0
365.81543 52.0
370.106598 144.0
372.388306 68.0
374.159698 2136.0
374.268768 116.0
374.546051 92.0
375.160889 368.0
375.200226 160.0
375.721771 60.0
376.026611 84.0
376.177155 84.0
376.98822 112.0
377.169861 128.0
377.498474 100.0
377.877533 104.0
378.365173 76.0
378.562653 52.0
378.868622 84.0
406.676331 84.0
460.693604 104.0
479.180389 48.0
481.409271 52.0
484.186218 144.0
495.626373 68.0
502.879486 120.0
508.747711 108.0
524.818115 92.0
532.37738 72.0
562.319458 68.0
588.060181 20.0
638.254333 52.0
648.994019 104.0
690.514282 144.0
740.393799 88.0
767.002441 112.0
769.308228 64.0
781.968201 44.0
797.505676 308.0
814.314453 180.0
816.371704 160.0
829.159485 240.0
852.689392 116.0
869.521118 152.0
879.202148 212.0
885.806396 96.0
900.70697 112.0
907.170227 176.0
925.750854 208.0
930.401367 160.0
942.313782 88.0
952.059143 180.0
952.489075 80.0
964.727051 208.0
966.205017 136.0
974.376038 180.0
975.370361 224.0
979.707581 140.0
983.31781 100.0
1003.932861 168.0
1018.146423 180.0
1019.391541 204.0
1021.17157 96.0
1028.371094 256.0
1028.786011 164.0
1037.390015 36.0
1045.675903 208.0
1058.852783 112.0
1062.599487 44.0
1063.527466 252.0
1065.079224 200.0
1077.593384 144.0
1079.554199 144.0
1086.005127 160.0
1094.686646 92.0
1095.832764 208.0
1096.050171 200.0
1105.420044 232.0
1105.922974 164.0
1106.015625 128.0
1108.658203 208.0
1120.592041 184.0
1123.111938 144.0
1137.189331 216.0
1139.532959 68.0
1145.392334 168.0
1147.555542 100.0
1157.068115 244.0
1161.845825 52.0
1165.342285 148.0
1165.729492 200.0
1167.082275 240.0
1170.450317 56.0
1170.586426 196.0
1179.353027 144.0
1185.032837 176.0
1186.917725 136.0
1194.919312 168.0
1201.346802 252.0
1209.071533 196.0
1216.612793 192.0
1221.797119 56.0
1233.072144 184.0
1234.554199 76.0
1241.487061 176.0
1242.055176 152.0
1249.241089 88.0
1258.17688 40.0
1266.804321 100.0
1269.902954 132.0
1270.235229 244.0
1273.620972 140.0
1274.125366 152.0
1284.055054 128.0
1284.746948 196.0
1285.610229 128.0
1287.987671 32.0
1288.959351 112.0
1301.601929 60.0
1303.325806 104.0
1305.805908 228.0
1311.400024 148.0
1311.92627 156.0
1313.346802 120.0
1318.263306 168.0
1319.672729 172.0
1320.309082 112.0
1335.539673 128.0
1341.823975 244.0
1347.501953 216.0
1350.301636 48.0
1351.698853 132.0
1354.773926 172.0
1356.342041 148.0
1365.519897 244.0
1365.608154 112.0
1366.043213 124.0
1368.323364 112.0
1374.212036 200.0
1376.795654 220.0
1383.642578 120.0
1385.464355 108.0
1392.310547 132.0
1395.788208 144.0
1396.070801 192.0
1396.762451 144.0
1397.759399 172.0
1404.098755 100.0
1404.300171 184.0
1404.47168 100.0
1406.628174 144.0
1408.711548 176.0
1410.766479 56.0
1414.948364 196.0
1415.464966 80.0
1415.914307 144.0
1418.072021 184.0
1418.491699 188.0
1424.742676 136.0
1426.974731 240.0
1440.713501 160.0
1441.461548 116.0
1441.983032 168.0
1446.324341 176.0
1456.796143 192.0
1460.771851 196.0
1464.227417 188.0
1464.356812 148.0
1464.981445 180.0
1466.391113 140.0
1466.894165 124.0
1469.265747 108.0
1472.463989 128.0
1476.216309 180.0
1479.82019 160.0
1480.218262 112.0
1480.647095 140.0
1482.094971 184.0
1484.754883 184.0
1489.859131 44.0
1491.311401 156.0
1497.528076 132.0
1502.098877 132.0
1503.101807 176.0
