>compound MLS001032277-01!
>formula C27H27ClN2O5
>ionization [M+H]+
>parentmass 495.16806
#inchi InChI=1S/C27H27ClN2O5/c1-15(2)14-34-24-10-23-19(8-21(24)28)16(3)20(27(33)35-23)9-26(32)29-11-17-7-18(13-29)22-5-4-6-25(31)30(22)12-17/h4-6,8,10,17-18H,1,7,9,11-14H2,2-3H3/t17-,18+/m1/s1
#inchikey KIVVSHRPMQEJCD
#Ion_Source LC-ESI
#Instrument qTof
#Compound_Source NIH Natural Product Library
#PI Dorrestein
#Data_Collector VVP/LMS
#Scan -1
#Precursor_MZ 495.169
#ExactMass 494.161
#Charge 1
#CAS_Number N/A
#Pubmed_ID N/A
#Smiles CC(=C)COc1cc2oc(=O)c(CC(=O)N3C[C@H]4C[C@@H](C3)c5cccc(=O)n5C4)c(C)c2cc1Cl
#INCHI_AUX N/A
#Library_Class 1
#SpectrumID CCMSLIB00000080039
#IonMode Positive
#UpdateWorkflowName UPDATE-SINGLE-ANNOTATED-GOLD
#LibraryQualityString Gold
#TaskID b1d8e8f6646f4e71acdff9ca3d919d08
##Scan# 2115
#SpectrumFile p2-C03_GC3_01_18003.mzXML
#LibraryName NIH_Natural_Products_Library.mgf
#MQScore -1
#Organism NIH_Natural_Products_Library
#TIC_Query 0
#RT_Query -1
#MZErrorPPM -1
#SharedPeaks 0
#MassDiff 0
#LibMZ -1
#SpecMZ 495.169
#SpecCharge 0
#internalFilename spec-00000.mgf

>collision 10
94.969597 152.0
95.026619 180.0
95.049904 160.0
95.063484 76.0
95.152771 160.0
95.294548 52.0
95.351021 128.0
95.368393 192.0
95.416992 176.0
95.453934 140.0
95.525894 156.0
95.621979 136.0
95.654327 144.0
95.710785 144.0
95.960182 128.0
95.97773 176.0
96.044037 196.0
96.108414 52.0
96.125977 88.0
96.17672 180.0
96.28215 140.0
96.384163 196.0
96.424767 164.0
96.445747 188.0
96.473633 52.0
96.522507 144.0
96.547928 184.0
96.56749 128.0
96.772957 144.0
96.866959 216.0
97.080788 204.0
97.178673 128.0
97.213989 252.0
97.236946 156.0
97.414253 136.0
97.52626 112.0
97.608826 124.0
97.632423 136.0
97.667824 124.0
97.880371 132.0
98.051758 184.0
98.141167 224.0
98.177933 176.0
98.264717 260.0
98.32589 160.0
98.45224 128.0
98.475937 160.0
98.543106 84.0
98.610291 192.0
98.677498 156.0
98.728912 168.0
98.755241 148.0
98.810005 184.0
98.841667 132.0
98.8629 164.0
98.887184 176.0
99.005058 156.0
99.142662 184.0
99.158516 120.0
99.456024 128.0
99.527489 192.0
99.648651 104.0
99.712234 148.0
99.785782 188.0
99.810539 160.0
99.843452 28.0
99.976738 152.0
100.020523 44.0
100.104141 48.0
100.11808 148.0
100.221664 128.0
100.313301 196.0
100.373154 152.0
100.389107 172.0
100.427002 344.0
100.500809 240.0
100.614571 52.0
100.676468 104.0
100.714417 168.0
100.814308 172.0
100.830299 124.0
100.997643 200.0
101.07827 80.0
101.158325 228.0
101.278465 128.0
101.326546 148.0
101.366615 200.0
101.492897 80.0
101.637314 112.0
101.723618 152.0
101.74971 156.0
101.767784 80.0
101.878242 60.0
101.940529 124.0
101.984741 168.0
102.183823 84.0
102.78627 92.0
103.048149 188.0
103.107353 196.0
103.244827 140.0
103.333824 44.0
103.497482 140.0
103.515991 216.0
103.604141 100.0
103.637947 156.0
103.998497 140.0
104.035034 92.0
104.181252 160.0
104.201248 152.0
104.227982 172.0
104.268623 128.0
104.427208 188.0
104.504509 212.0
104.54113 148.0
104.640869 124.0
104.724365 140.0
104.997467 144.0
105.064514 92.0
105.067619 152.0
105.250504 92.0
105.344452 228.0
105.432312 152.0
105.563141 160.0
105.579506 196.0
105.599953 188.0
105.672997 68.0
105.713425 188.0
105.94384 60.0
105.966377 172.0
106.04834 224.0
106.072937 164.0
106.216476 208.0
106.259552 160.0
106.290329 156.0
106.321114 180.0
106.53054 200.0
106.750816 164.0
106.845078 124.0
106.931496 184.0
107.0485 240.0
107.139473 136.0
107.160072 168.0
107.176552 140.0
107.219826 248.0
107.380638 144.0
107.615883 172.0
107.640663 156.0
107.686096 144.0
107.702621 104.0
107.725845 148.0
107.845184 192.0
107.987846 192.0
108.014442 168.0
108.089218 180.0
108.1745 212.0
108.203056 152.0
108.229973 176.0
108.412254 56.0
108.702576 144.0
108.760689 176.0
108.775215 208.0
108.916412 164.0
108.964905 164.0
109.055939 488.0
109.103157 236.0
109.157494 124.0
109.17205 176.0
109.355125 152.0
109.621696 120.0
109.667549 88.0
109.690475 96.0
109.715492 112.0
109.782211 176.0
109.930321 76.0
109.990845 48.0
110.056969 268.0
110.327171 120.0
110.425446 352.0
110.477737 184.0
110.611664 112.0
110.869278 164.0
110.913895 160.0
111.108315 112.0
111.125099 188.0
111.179657 200.0
111.266464 168.0
111.297356 232.0
111.396439 176.0
111.456841 184.0
111.654442 216.0
111.675476 116.0
111.747002 136.0
111.808022 184.0
111.82486 192.0
111.879585 140.0
111.970352 76.0
111.993294 176.0
112.130241 148.0
112.149216 216.0
112.168182 180.0
112.187157 136.0
112.308548 148.0
112.331314 100.0
112.429718 84.0
112.6493 116.0
112.725365 132.0
112.858528 108.0
112.923485 184.0
113.025627 132.0
113.051018 196.0
113.065269 120.0
113.112396 72.0
113.137802 112.0
113.188614 152.0
113.315697 208.0
113.400459 76.0
113.438614 100.0
113.644325 132.0
113.69101 60.0
113.763176 120.0
113.7929 156.0
113.852348 204.0
113.939438 188.0
114.00531 152.0
114.024437 108.0
114.073318 208.0
114.145607 164.0
114.175377 132.0
114.196648 128.0
114.258331 204.0
114.315781 184.0
114.642868 208.0
114.739647 200.0
114.803612 124.0
114.863327 64.0
114.897461 368.0
115.121574 156.0
115.164291 192.0
115.264702 108.0
115.31385 184.0
115.681755 132.0
115.739555 56.0
115.760971 48.0
115.885201 132.0
116.018082 60.0
116.057312 188.0
116.185356 148.0
116.294792 172.0
116.382805 152.0
116.433403 168.0
116.493767 144.0
116.578529 136.0
116.642754 168.0
116.705101 152.0
116.741653 36.0
116.765312 132.0
116.838448 192.0
116.920448 144.0
116.965408 144.0
117.182915 120.0
117.221703 108.0
117.261078 160.0
117.318687 168.0
117.335938 32.0
117.40062 172.0
117.439438 188.0
117.465324 212.0
117.631195 152.0
117.724319 248.0
117.782631 108.0
117.815033 84.0
117.903625 124.0
117.987923 156.0
118.006332 216.0
118.065765 144.0
118.083069 164.0
118.102867 128.0
118.243164 188.0
118.271301 156.0
118.745804 128.0
118.780502 152.0
118.821724 188.0
118.956268 72.0
119.019234 172.0
119.177788 156.0
119.275581 120.0
119.369072 192.0
119.397339 124.0
119.549622 128.0
119.597549 188.0
119.741203 100.0
120.081726 184.0
120.118279 80.0
120.297211 144.0
120.314674 124.0
120.338692 176.0
120.364891 152.0
120.419487 180.0
120.585533 48.0
120.780128 148.0
120.856697 160.0
120.89827 276.0
120.937668 108.0
121.001144 148.0
121.158829 152.0
121.204842 176.0
121.288605 200.0
121.353889 184.0
121.380196 92.0
121.531548 148.0
121.59079 188.0
121.614937 148.0
121.887253 140.0
121.944389 52.0
122.062744 124.0
122.162071 44.0
122.23468 140.0
122.276489 116.0
122.412979 164.0
122.761154 140.0
122.822906 160.0
122.999428 156.0
123.178291 164.0
123.286552 204.0
123.32412 140.0
123.388229 128.0
123.428024 152.0
123.775421 168.0
123.835213 216.0
123.861794 248.0
123.901733 144.0
124.005814 160.0
124.067879 140.0
124.134895 196.0
124.20295 176.0
124.517448 184.0
124.673836 76.0
124.804985 196.0
124.845009 124.0
124.867249 176.0
124.909508 116.0
124.940651 232.0
125.008423 188.0
125.145554 120.0
125.18103 60.0
125.245621 148.0
125.414955 172.0
125.479607 96.0
125.5242 220.0
125.597794 176.0
125.67141 240.0
125.817696 176.0
125.855713 168.0
125.96833 244.0
126.048767 100.0
126.153809 112.0
126.263367 228.0
126.442345 164.0
126.610252 60.0
126.625931 128.0
126.650566 192.0
126.814133 220.0
126.95089 112.0
127.018173 112.0
127.150551 176.0
127.197685 180.0
127.247536 136.0
127.29422 240.0
127.363846 184.0
127.727615 148.0
128.047592 212.0
128.067184 192.0
128.112915 152.0
128.166977 196.0
128.327011 96.0
128.39917 244.0
128.414963 60.0
128.43074 316.0
128.45105 188.0
128.651886 104.0
128.81221 172.0
128.830048 116.0
128.995255 104.0
129.074738 256.0
129.126389 172.0
129.160309 152.0
129.271179 160.0
129.373032 144.0
129.404724 144.0
129.425095 92.0
129.558731 84.0
129.642746 140.0
129.66748 148.0
129.736008 88.0
129.930527 120.0
130.059021 140.0
130.18927 172.0
130.252869 128.0
130.4142 152.0
130.461929 176.0
130.493759 152.0
130.536957 148.0
130.637039 168.0
130.689362 188.0
130.814529 116.0
130.869171 136.0
130.95343 204.0
131.04454 120.0
131.076447 108.0
131.106064 120.0
131.153931 220.0
131.345459 156.0
131.377396 80.0
131.466248 192.0
131.511353 176.0
131.546265 184.0
131.694687 212.0
131.744934 144.0
131.941483 140.0
131.991776 100.0
132.04509 204.0
132.081497 176.0
132.323547 140.0
132.394928 184.0
132.53746 272.0
132.729095 140.0
132.800186 152.0
132.953888 108.0
132.997498 164.0
133.029633 176.0
133.051025 176.0
133.093918 272.0
133.263885 104.0
133.295395 188.0
133.351212 240.0
133.408676 196.0
133.46698 148.0
133.528244 136.0
133.652466 180.0
133.954056 204.0
133.986313 124.0
134.009354 144.0
134.059937 628.0
134.089996 36.0
134.283661 172.0
134.355164 124.0
134.449097 232.0
134.560562 168.0
134.583664 136.0
134.673721 128.0
134.773056 164.0
134.798477 200.0
134.888611 152.0
135.03891 244.0
135.059723 132.0
135.083221 200.0
135.22934 180.0
135.455536 132.0
135.55748 136.0
135.59256 124.0
135.623779 168.0
135.69191 156.0
135.768356 116.0
135.844971 208.0
135.877441 56.0
135.977234 188.0
136.007401 196.0
136.116516 144.0
136.193146 172.0
136.261993 152.0
136.483643 48.0
136.537125 112.0
136.560379 192.0
136.837296 136.0
136.858261 240.0
136.897552 164.0
137.007309 168.0
137.061874 152.0
137.207733 200.0
137.241455 112.0
137.342987 144.0
137.445633 84.0
137.564667 336.0
137.597336 68.0
137.655716 160.0
137.676727 116.0
137.700089 100.0
137.730453 96.0
138.022583 84.0
138.088058 88.0
138.209702 216.0
138.242462 124.0
138.530441 188.0
138.556213 156.0
138.600723 168.0
138.659317 44.0
138.696808 188.0
138.947723 80.0
138.999344 172.0
139.032547 212.0
139.278717 176.0
139.400894 124.0
139.579544 220.0
139.600708 108.0
139.680664 168.0
139.699493 200.0
139.791245 200.0
139.90657 132.0
139.940002 180.0
140.102036 168.0
140.159485 260.0
140.179794 128.0
140.241058 116.0
140.387238 124.0
140.519333 156.0
140.619766 104.0
140.690582 184.0
140.769516 60.0
140.814392 176.0
140.937225 304.0
141.012848 240.0
141.068985 296.0
141.138138 108.0
141.353394 188.0
141.391251 120.0
141.407822 112.0
141.545135 244.0
141.661179 108.0
141.718033 152.0
141.853119 120.0
141.898163 80.0
141.987122 140.0
142.042831 160.0
142.076096 436.0
142.180435 148.0
142.254013 208.0
142.317978 136.0
142.376099 200.0
142.484375 128.0
142.596054 184.0
142.6745 140.0
142.705399 196.0
142.743439 184.0
142.793381 156.0
142.900909 200.0
142.945633 172.0
143.045593 160.0
143.086761 464.0
143.11525 140.0
143.24324 84.0
143.314713 228.0
143.343307 120.0
143.379044 216.0
143.397278 160.0
143.55069 124.0
143.586456 120.0
143.684265 112.0
144.020844 120.0
144.057983 328.0
144.101334 260.0
144.188095 88.0
144.261536 44.0
144.290878 124.0
144.379349 80.0
144.396088 72.0
144.59465 156.0
144.671249 120.0
144.745468 128.0
145.001801 160.0
145.060349 304.0
145.083298 180.0
145.181076 220.0
145.205383 192.0
145.229568 104.0
145.325531 160.0
145.395111 92.0
145.543945 124.0
145.709671 104.0
145.764938 240.0
145.803375 80.0
145.935593 144.0
145.964447 156.0
146.060959 3144.0
146.086044 128.0
146.092651 184.0
146.306091 128.0
146.352097 148.0
146.399994 124.0
146.443344 76.0
146.556564 152.0
146.599945 100.0
146.701172 180.0
146.727692 132.0
146.812088 96.0
146.876511 180.0
146.983353 92.0
147.014725 56.0
147.066559 1692.0
147.116089 228.0
147.227158 172.0
147.27063 136.0
147.323776 68.0
147.576843 220.0
147.76619 112.0
147.838776 164.0
147.916229 172.0
147.969696 48.0
148.000961 116.0
148.027603 156.0
148.046967 140.0
148.077209 15620.0
148.113831 112.0
148.168076 68.0
148.214111 84.0
148.248032 48.0
148.40361 160.0
148.456512 64.0
148.473495 144.0
148.611755 36.0
148.628738 176.0
148.66272 64.0
148.686981 68.0
148.727036 152.0
148.745239 204.0
148.805923 68.0
148.825348 148.0
148.856918 124.0
148.900635 76.0
148.958923 140.0
148.985641 128.0
149.014801 156.0
149.031799 104.0
149.081696 2564.0
149.173111 56.0
149.233246 200.0
149.357559 112.0
149.43541 68.0
149.594818 176.0
149.659332 72.0
149.727509 104.0
149.756744 156.0
149.783524 176.0
149.810333 44.0
149.890732 152.0
149.929718 160.0
149.990646 220.0
150.007706 128.0
150.078415 416.0
150.100357 180.0
150.118881 348.0
150.207672 212.0
150.258896 96.0
150.317459 68.0
150.354065 88.0
150.466095 80.0
150.50383 136.0
150.5811 168.0
150.815659 148.0
150.906113 172.0
150.930557 148.0
150.991699 176.0
151.160492 196.0
151.216782 168.0
151.326935 248.0
151.400391 176.0
151.488571 204.0
151.674805 160.0
151.819458 152.0
151.942093 188.0
152.067245 100.0
152.094238 112.0
152.197342 148.0
152.283295 72.0
152.325058 72.0
152.40007 208.0
152.442978 176.0
152.494598 184.0
152.519165 116.0
152.558502 216.0
152.628784 136.0
152.637787 80.0
152.645752 156.0
152.719574 160.0
152.856094 144.0
152.974289 196.0
153.028397 156.0
153.07547 168.0
153.4664 176.0
153.538467 128.0
153.57547 44.0
153.849365 128.0
154.032104 124.0
154.076004 124.0
154.118576 116.0
154.239304 112.0
154.264389 128.0
154.48941 172.0
154.774033 104.0
154.798798 148.0
154.895798 168.0
154.948257 152.0
155.084991 324.0
155.135757 152.0
155.167984 88.0
155.388718 104.0
155.460663 184.0
155.489182 180.0
155.597183 88.0
155.622086 124.0
155.686569 64.0
155.723831 180.0
155.8853 160.0
156.019516 108.0
156.046875 160.0
156.091629 104.0
156.141357 176.0
156.238373 216.0
156.387665 156.0
156.442429 240.0
156.606781 128.0
156.721375 76.0
156.79364 28.0
156.835999 44.0
156.880875 108.0
156.920761 136.0
156.943207 196.0
157.000549 156.0
157.020508 172.0
157.061935 164.0
157.102158 680.0
157.137741 180.0
157.192642 36.0
157.414795 112.0
157.524689 216.0
157.782089 104.0
157.914612 116.0
158.057205 312.0
158.097244 160.0
158.326797 236.0
158.548019 68.0
158.801239 168.0
159.014496 100.0
159.068756 492.0
159.122437 116.0
159.314743 240.0
159.386169 204.0
159.471603 88.0
159.92099 184.0
160.052032 636.0
160.059814 132.0
160.073593 280.0
160.147095 312.0
160.203842 184.0
160.26178 140.0
160.397873 132.0
160.53653 44.0
160.574356 220.0
160.692917 156.0
160.814041 124.0
161.003403 156.0
161.083221 164.0
161.142319 132.0
161.213074 68.0
161.329346 48.0
161.354614 108.0
161.488647 120.0
161.655609 88.0
161.830261 144.0
161.848969 208.0
161.906235 32.0
161.956894 144.0
162.017685 180.0
162.090866 328.0
162.147247 316.0
162.210281 168.0
162.280426 172.0
162.30661 88.0
162.400452 112.0
162.418198 176.0
162.468933 52.0
162.517136 200.0
162.598343 204.0
162.684647 148.0
162.702408 84.0
162.971619 192.0
162.991959 144.0
163.027237 320.0
163.053833 168.0
163.097595 352.0
163.275177 144.0
163.418045 172.0
163.570618 176.0
163.629166 172.0
163.655823 184.0
163.767868 136.0
163.839188 212.0
163.885056 152.0
164.009918 152.0
164.105484 152.0
164.622223 176.0
164.640106 124.0
164.775482 176.0
164.863205 132.0
164.908356 244.0
164.97226 116.0
165.034409 212.0
165.066971 184.0
165.304749 200.0
165.573547 184.0
165.647827 36.0
165.714432 112.0
165.839996 128.0
165.939972 156.0
165.99382 172.0
166.081024 204.0
166.417191 148.0
166.561005 164.0
166.583618 144.0
166.674042 204.0
166.77272 192.0
166.792267 132.0
166.915665 128.0
166.982529 76.0
167.045715 120.0
167.0867 716.0
167.302734 172.0
167.345352 192.0
167.386551 104.0
167.636429 228.0
167.716324 152.0
167.749832 176.0
167.801392 204.0
167.925156 144.0
167.953537 84.0
167.974167 148.0
168.030487 168.0
168.087463 404.0
168.208984 88.0
168.361313 124.0
168.412964 224.0
168.738571 200.0
168.756668 96.0
168.787689 80.0
168.873032 148.0
168.929947 152.0
168.966156 388.0
169.007965 128.0
169.06189 216.0
169.101364 1680.0
169.582458 172.0
169.658279 160.0
169.771713 68.0
169.914368 196.0
170.063858 256.0
170.105286 676.0
170.401672 172.0
170.462219 80.0
170.514191 152.0
170.581772 188.0
170.633774 168.0
170.707733 180.0
170.745575 176.0
170.774185 88.0
170.92247 124.0
171.023972 144.0
171.047394 144.0
171.083069 504.0
171.241989 168.0
171.29216 148.0
171.385956 84.0
171.412003 148.0
171.443283 48.0
171.495407 144.0
171.612717 148.0
171.643997 200.0
171.810928 80.0
171.834396 168.0
171.949219 108.0
171.975311 164.0
172.053619 120.0
172.084122 296.0
172.265152 216.0
172.338303 136.0
172.387955 224.0
172.497726 168.0
172.657211 120.0
172.863876 188.0
172.963333 92.0
173.029251 132.0
173.057571 196.0
173.088272 276.0
173.112564 120.0
173.146606 124.0
173.357666 176.0
173.733734 148.0
173.94104 200.0
173.988297 96.0
174.025055 104.0
174.089691 556.0
174.187881 196.0
174.327118 64.0
174.434555 168.0
174.446609 104.0
174.474319 100.0
174.784668 164.0
174.834656 196.0
174.960999 52.0
174.990814 112.0
175.103195 44.0
175.200653 68.0
175.27179 172.0
175.295502 60.0
175.391739 172.0
175.606583 172.0
175.711685 304.0
175.825562 44.0
176.045441 208.0
176.166168 104.0
176.266571 136.0
176.330002 220.0
176.390793 100.0
176.427795 104.0
176.448944 76.0
176.493896 200.0
176.792694 184.0
176.827209 228.0
176.869553 144.0
176.890732 216.0
177.009872 148.0
177.050003 344.0
177.099915 44.0
177.152893 132.0
177.314514 180.0
177.354279 192.0
177.420547 192.0
177.737686 132.0
177.768005 116.0
177.810455 164.0
178.038773 136.0
178.078125 196.0
178.123764 120.0
178.322067 104.0
178.344315 224.0
178.382568 212.0
178.490524 228.0
178.817734 148.0
178.857666 208.0
178.878952 76.0
178.924347 156.0
179.025894 404.0
179.086288 748.0
179.174957 132.0
179.203857 224.0
179.321106 112.0
179.534378 144.0
179.619736 148.0
180.038757 276.0
180.060135 204.0
180.095459 512.0
180.156281 56.0
180.273849 140.0
180.428879 224.0
180.495712 184.0
180.519775 192.0
180.578613 152.0
180.763199 44.0
180.883636 232.0
180.942535 128.0
181.01413 184.0
181.021362 208.0
181.067276 324.0
181.105881 124.0
181.161484 212.0
181.223755 64.0
181.507874 140.0
181.556137 120.0
181.650009 168.0
181.668793 220.0
181.86467 268.0
181.904938 76.0
182.015396 196.0
182.036499 164.0
182.071915 932.0
182.4207 116.0
182.68692 140.0
182.732651 112.0
182.75148 152.0
182.961411 156.0
183.009872 176.0
183.07959 328.0
183.225983 64.0
183.284607 92.0
183.314255 148.0
183.341202 80.0
183.362762 240.0
183.403183 92.0
183.500229 164.0
183.581116 136.0
183.645844 76.0
183.726776 84.0
183.771225 232.0
183.912964 116.0
184.010147 140.0
184.084076 284.0
184.250504 192.0
184.277527 88.0
184.30368 176.0
184.358582 228.0
184.38179 160.0
184.453186 108.0
184.520767 200.0
184.712769 152.0
184.829102 180.0
185.040222 236.0
185.061874 148.0
185.094162 1560.0
185.213531 112.0
185.441132 68.0
185.462814 76.0
185.649872 204.0
185.700333 152.0
185.87294 156.0
185.921158 204.0
186.065018 168.0
186.098358 312.0
186.298569 152.0
186.350189 108.0
186.485687 204.0
186.545074 124.0
187.035049 180.0
187.070358 128.0
187.090637 192.0
187.239685 124.0
187.337738 100.0
187.454895 156.0
187.678406 68.0
187.700012 148.0
187.749313 184.0
187.798401 140.0
187.888428 144.0
187.915695 216.0
188.125839 124.0
188.144958 232.0
188.194092 180.0
188.330643 156.0
188.420776 232.0
188.516418 212.0
188.80072 104.0
188.92244 200.0
189.050095 128.0
189.101593 1808.0
189.260437 204.0
189.36998 108.0
189.449417 152.0
189.506943 104.0
189.676849 144.0
189.701523 108.0
189.874268 104.0
189.929123 76.0
189.975754 120.0
190.052567 148.0
190.082748 268.0
190.109848 1068.0
190.178802 152.0
190.225464 172.0
190.255661 88.0
190.27887 168.0
190.332535 32.0
190.417664 56.0
190.506516 228.0
190.596222 76.0
190.627106 168.0
190.666595 328.0
190.689667 128.0
190.733643 160.0
190.777618 152.0
190.807861 108.0
190.838104 212.0
190.921387 364.0
190.990295 152.0
191.026505 300.0
191.06575 140.0
191.083725 144.0
191.11969 79080.0
191.190552 108.0
191.263763 124.0
191.306351 80.0
191.336868 112.0
191.36972 92.0
191.40155 72.0
191.435638 124.0
191.476669 80.0
191.518906 92.0
191.542618 48.0
191.566528 212.0
191.598694 132.0
191.628021 40.0
191.654099 128.0
191.695175 64.0
191.740997 60.0
191.778564 144.0
191.878815 208.0
191.952698 216.0
191.984863 156.0
192.035126 340.0
192.07402 112.0
192.12262 9208.0
192.176682 52.0
192.210312 84.0
192.23085 76.0
192.260712 124.0
192.291016 148.0
192.400238 124.0
192.466492 56.0
192.560089 148.0
192.672256 112.0
192.701263 48.0
192.825607 180.0
192.920944 188.0
192.981247 160.0
193.036453 336.0
193.077194 100.0
193.12767 940.0
193.284668 136.0
193.306808 68.0
193.328186 96.0
193.36911 164.0
193.399429 144.0
193.43689 80.0
193.475632 80.0
193.503326 100.0
193.570801 76.0
193.597946 136.0
193.616852 112.0
193.645538 112.0
193.81076 88.0
193.96138 112.0
193.996445 136.0
194.016602 508.0
194.041092 76.0
194.071304 124.0
194.115662 56.0
194.16835 124.0
194.317017 188.0
194.368088 48.0
194.412491 140.0
194.454117 96.0
194.53183 136.0
194.55127 140.0
194.592911 40.0
194.637329 84.0
194.656769 52.0
194.678986 144.0
194.809525 168.0
195.019913 2324.0
195.083817 1500.0
195.123886 136.0
195.198624 220.0
195.235855 288.0
195.298752 140.0
195.407242 88.0
195.426712 68.0
195.454544 100.0
195.735672 88.0
195.77832 208.0
195.916702 132.0
195.941788 120.0
195.977997 164.0
196.027527 340.0
196.088593 2272.0
196.205322 128.0
196.396164 144.0
196.641693 312.0
196.783691 156.0
196.82872 156.0
196.851059 80.0
196.88179 132.0
196.944778 156.0
197.012558 988.0
197.097137 3480.0
197.131241 160.0
197.142303 124.0
197.217041 168.0
197.264557 64.0
197.393173 88.0
197.454697 68.0
197.501999 232.0
197.619736 164.0
197.726074 216.0
197.85202 72.0
198.005859 268.0
198.042435 144.0
198.065643 220.0
198.105972 1172.0
198.164261 296.0
198.218933 68.0
198.272186 60.0
198.462799 96.0
198.502045 156.0
198.597397 88.0
198.671143 208.0
198.703995 48.0
198.889206 120.0
198.954224 100.0
199.001007 344.0
199.026764 168.0
199.075348 264.0
199.116364 376.0
199.161575 72.0
199.223373 72.0
199.245834 48.0
199.327316 196.0
199.393677 156.0
199.518448 220.0
199.643158 180.0
199.687149 88.0
199.765915 180.0
199.830612 176.0
199.888046 284.0
199.999466 48.0
200.078278 312.0
200.103302 180.0
200.368362 184.0
200.393707 36.0
200.605072 224.0
200.740417 156.0
200.943497 124.0
201.006378 112.0
201.053543 176.0
201.093048 132.0
201.231369 256.0
201.290665 72.0
201.36409 172.0
201.581619 52.0
202.014191 180.0
202.124649 284.0
202.175476 32.0
202.492554 224.0
202.621384 160.0
202.671021 96.0
202.699356 212.0
202.886414 128.0
202.932541 208.0
203.027496 232.0
203.063766 1052.0
203.104767 92.0
203.161499 108.0
203.187027 140.0
203.221069 120.0
203.255112 152.0
203.428238 172.0
203.615646 148.0
203.683807 48.0
203.837219 120.0
203.948059 180.0
204.064972 304.0
204.3974 116.0
204.462845 140.0
204.482773 192.0
204.518417 236.0
204.556778 168.0
204.630783 208.0
204.691818 184.0
204.813049 188.0
204.907043 108.0
204.981125 68.0
205.061493 852.0
205.080765 544.0
205.394516 144.0
205.460129 188.0
205.522888 216.0
205.602859 176.0
205.628479 168.0
205.654175 116.0
205.685562 48.0
205.782623 180.0
206.011093 168.0
206.053665 120.0
206.063904 148.0
206.0746 308.0
206.142517 152.0
206.179672 124.0
206.251129 160.0
206.311157 80.0
206.685822 100.0
206.769638 160.0
206.923019 160.0
207.022217 5000.0
207.053345 184.0
207.12384 40.0
207.161072 68.0
207.277176 84.0
207.324402 72.0
207.470581 128.0
207.493225 248.0
207.522186 232.0
208.028046 780.0
208.058685 124.0
208.08165 112.0
208.133331 84.0
208.297028 60.0
208.590118 80.0
208.618866 140.0
208.805771 168.0
209.018646 928.0
209.061798 84.0
209.130875 200.0
209.251785 224.0
209.322998 268.0
209.57724 76.0
209.597412 188.0
209.626495 212.0
209.908722 184.0
210.025894 108.0
210.044968 188.0
210.407867 140.0
210.612701 184.0
210.826691 52.0
210.982773 192.0
211.037704 176.0
211.121796 148.0
211.219894 72.0
211.315369 48.0
211.361664 84.0
211.515045 244.0
211.552673 52.0
211.59549 192.0
211.726395 176.0
211.822296 184.0
212.021896 128.0
212.074066 196.0
212.129135 164.0
212.175522 136.0
212.520645 124.0
212.669571 208.0
212.82251 176.0
212.848648 40.0
212.967712 188.0
213.05101 124.0
213.09259 6084.0
213.170792 40.0
213.315643 160.0
213.441406 132.0
213.549011 204.0
213.624634 44.0
213.691544 140.0
213.752655 92.0
213.842865 152.0
213.950562 104.0
214.005875 160.0
214.094925 1248.0
214.227219 52.0
214.276642 124.0
214.500473 164.0
214.60025 52.0
214.751892 108.0
214.824814 120.0
214.928452 160.0
214.994034 164.0
215.063736 408.0
215.094727 80.0
215.177933 56.0
215.662842 120.0
215.738846 96.0
215.7827 92.0
215.873337 176.0
215.965363 152.0
216.03833 272.0
216.062805 408.0
216.145386 40.0
216.209763 56.0
216.537659 92.0
216.574905 212.0
216.786667 144.0
216.865585 220.0
216.980118 112.0
216.999924 160.0
217.047089 128.0
217.057861 308.0
217.098389 1172.0
217.150192 140.0
217.282196 48.0
217.367279 120.0
217.409439 176.0
217.481735 60.0
217.537506 84.0
217.581543 156.0
218.045654 128.0
218.066223 156.0
218.097076 448.0
218.157333 76.0
218.216141 120.0
218.239655 100.0
218.292587 184.0
218.335083 196.0
218.545547 140.0
218.653885 256.0
218.925278 52.0
219.025269 160.0
219.107895 148.0
219.541183 88.0
219.567719 176.0
219.600159 156.0
219.727005 184.0
220.032272 240.0
220.154999 64.0
220.547928 112.0
220.612961 156.0
220.70462 128.0
220.849518 196.0
220.985596 124.0
221.03981 424.0
221.072479 560.0
221.237152 136.0
221.367432 72.0
221.568848 152.0
221.592545 124.0
221.642914 144.0
221.693283 76.0
221.912628 144.0
222.008377 292.0
222.037674 144.0
222.047134 224.0
222.075729 180.0
222.100479 324.0
222.121002 152.0
222.194382 32.0
222.336807 84.0
222.35759 88.0
222.729477 140.0
222.754471 168.0
222.800018 60.0
223.017868 16912.0
223.074921 428.0
223.119888 44.0
223.139633 140.0
223.180435 112.0
223.219086 44.0
223.273254 56.0
223.356659 124.0
223.468948 204.0
223.499054 164.0
223.584991 88.0
223.620712 124.0
223.661743 76.0
223.704056 76.0
223.727859 112.0
223.751678 288.0
223.780685 140.0
223.855896 88.0
223.885666 56.0
223.927368 184.0
224.019592 2804.0
224.087067 972.0
224.159729 32.0
224.285248 176.0
224.314713 168.0
224.502548 84.0
224.6129 128.0
224.714325 36.0
224.744156 88.0
224.893372 84.0
224.917252 48.0
224.950089 108.0
225.013596 4936.0
225.07048 136.0
225.126236 52.0
225.168045 152.0
225.192978 184.0
225.33902 136.0
225.460831 116.0
225.595322 132.0
225.687912 120.0
225.833603 76.0
225.858475 132.0
225.903336 72.0
225.969162 104.0
226.018036 808.0
226.070892 168.0
226.25946 88.0
226.280411 80.0
226.35228 68.0
226.576904 144.0
226.663803 140.0
226.732712 208.0
226.768677 84.0
226.822632 248.0
226.948547 48.0
227.020508 164.0
227.068314 324.0
227.218063 232.0
227.678757 104.0
228.071304 164.0
228.161484 124.0
228.425262 168.0
228.564514 156.0
228.775192 136.0
229.326096 192.0
229.389709 144.0
229.449158 200.0
229.49086 68.0
229.537048 216.0
229.778732 164.0
229.820969 128.0
229.880112 120.0
229.92659 176.0
230.033813 236.0
230.068451 144.0
230.095627 156.0
230.201309 100.0
230.34024 168.0
230.367416 192.0
230.49733 144.0
230.645416 168.0
230.748764 108.0
230.869156 68.0
230.896362 88.0
230.938705 72.0
230.993149 176.0
231.059341 4704.0
231.147446 336.0
231.307846 192.0
231.332077 48.0
231.380508 116.0
231.465286 68.0
231.66214 112.0
231.722733 136.0
231.874252 156.0
231.925766 132.0
231.962143 80.0
232.005539 140.0
232.062912 836.0
232.141022 148.0
232.183472 64.0
232.332108 184.0
232.353348 60.0
232.377609 84.0
232.502014 148.0
232.574966 124.0
232.635574 88.0
232.772202 112.0
232.816559 112.0
232.921005 44.0
233.012146 172.0
233.06015 1584.0
233.300858 144.0
233.376862 84.0
233.404221 176.0
233.495453 36.0
233.56778 172.0
233.939682 80.0
233.979263 48.0
234.060608 336.0
234.347778 88.0
234.442245 160.0
234.578629 144.0
234.670853 340.0
234.73793 128.0
234.801971 200.0
234.927032 148.0
235.017715 11576.0
235.054779 1724.0
235.107056 212.0
235.171143 132.0
235.232193 100.0
235.484344 308.0
235.517624 180.0
235.586426 72.0
235.662796 44.0
235.956207 148.0
236.020111 1340.0
236.053146 360.0
236.176376 156.0
236.386826 96.0
236.430313 36.0
236.791565 64.0
236.813004 48.0
236.852829 176.0
236.886978 132.0
236.929413 184.0
236.950851 192.0
237.016037 2984.0
237.15004 48.0
237.220535 104.0
237.412903 200.0
237.508774 60.0
237.539444 56.0
237.576248 100.0
237.705109 120.0
237.748077 236.0
237.821732 64.0
237.895401 168.0
238.017471 568.0
238.05809 348.0
238.184052 88.0
238.343796 164.0
238.413452 108.0
238.454437 116.0
238.712662 56.0
238.98027 136.0
239.054123 92.0
239.275726 92.0
239.309601 128.0
239.380417 128.0
239.451248 128.0
239.710022 28.0
239.857956 84.0
239.928864 116.0
240.072693 184.0
240.33905 108.0
240.403854 168.0
240.51265 208.0
240.668427 208.0
240.771225 108.0
240.836075 68.0
240.891678 44.0
241.087601 5832.0
241.281052 192.0
241.401642 32.0
241.559372 60.0
241.688278 60.0
241.893799 108.0
241.952393 56.0
241.97406 164.0
242.042175 164.0
242.09494 2508.0
242.184631 192.0
242.277557 88.0
242.367401 88.0
242.400238 88.0
242.552673 276.0
242.630844 76.0
242.730072 52.0
242.779678 220.0
242.885132 76.0
243.039536 168.0
243.100464 560.0
243.229553 140.0
243.254395 40.0
243.446884 156.0
243.509003 68.0
243.571121 44.0
243.735779 144.0
243.884949 144.0
243.912918 56.0
244.01239 232.0
244.037384 108.0
244.092453 172.0
244.14299 148.0
244.251846 72.0
244.273621 124.0
244.556778 56.0
244.590546 112.0
244.643921 60.0
244.709305 68.0
244.749786 80.0
244.784027 52.0
244.945984 184.0
244.983368 116.0
245.011398 36.0
245.09552 156.0
245.160797 316.0
245.210831 200.0
245.232635 92.0
245.266922 196.0
245.35733 184.0
245.422806 152.0
245.550659 96.0
246.018692 160.0
246.177933 308.0
246.265381 152.0
246.368454 112.0
247.168839 184.0
247.255417 144.0
247.795044 156.0
247.973663 60.0
248.010666 208.0
248.094284 124.0
248.284027 92.0
248.394897 224.0
248.710724 236.0
248.810104 176.0
248.921066 92.0
249.001816 264.0
249.03595 404.0
249.069778 2660.0
249.144073 144.0
249.216324 208.0
249.313736 64.0
249.338882 164.0
249.43631 40.0
249.492889 64.0
249.524338 52.0
249.595108 184.0
249.785355 48.0
249.846054 120.0
249.88916 36.0
250.003204 804.0
250.037186 100.0
250.074448 876.0
250.128326 204.0
250.232224 188.0
250.263702 32.0
250.301483 92.0
250.619614 40.0
250.855988 132.0
251.012802 1412.0
251.066055 968.0
251.502625 80.0
251.679398 120.0
251.704666 80.0
251.736237 36.0
252.012924 436.0
252.068329 264.0
252.124802 88.0
252.238586 40.0
252.338608 188.0
252.659164 52.0
253.009705 588.0
253.206772 148.0
253.339798 172.0
253.368317 48.0
253.442947 216.0
253.602798 84.0
253.650345 76.0
254.018173 196.0
254.676208 180.0
254.729218 124.0
254.760986 208.0
254.827713 116.0
254.916672 116.0
255.023499 208.0
255.072403 112.0
255.374466 56.0
255.584427 224.0
255.69899 184.0
256.026886 192.0
256.418762 160.0
256.759888 204.0
257.232086 164.0
257.701538 104.0
257.816589 132.0
257.842163 204.0
258.012665 176.0
258.149048 128.0
258.41452 152.0
258.686554 132.0
258.801819 248.0
259.053558 3216.0
259.144501 176.0
259.366516 144.0
259.824188 152.0
260.056671 816.0
260.100159 144.0
260.222168 52.0
260.334534 128.0
260.369873 164.0
260.421265 156.0
260.620422 104.0
261.049011 688.0
261.109039 180.0
261.462921 36.0
262.025208 204.0
262.058777 192.0
262.658264 52.0
263.044739 192.0
263.258575 52.0
263.82077 180.0
263.937622 132.0
263.979187 144.0
264.047089 120.0
264.347961 72.0
264.425629 104.0
264.519501 112.0
264.652222 108.0
264.775269 200.0
265.329346 160.0
265.42337 160.0
265.44931 32.0
265.828857 116.0
265.955414 176.0
266.052795 128.0
266.481506 168.0
266.637482 172.0
266.786987 148.0
267.186981 140.0
267.287842 120.0
267.356201 140.0
267.593811 140.0
267.629608 60.0
267.704529 208.0
267.743591 76.0
267.974854 124.0
267.997681 96.0
268.189941 176.0
268.535553 136.0
268.620361 120.0
268.659485 128.0
268.760651 80.0
269.008667 184.0
269.031525 104.0
269.08371 328.0
269.227417 128.0
269.510345 176.0
270.018311 56.0
270.090515 200.0
270.132782 156.0
270.158936 124.0
270.299622 92.0
270.510468 208.0
270.728455 68.0
270.771027 124.0
270.846375 180.0
271.003601 180.0
271.02655 132.0
271.095367 112.0
271.242859 84.0
271.537933 72.0
271.872559 144.0
272.07605 160.0
272.167999 160.0
272.210693 164.0
272.447174 176.0
272.509583 168.0
272.864532 148.0
273.035522 68.0
273.059814 196.0
273.091431 168.0
273.144043 128.0
273.482971 152.0
273.561951 140.0
273.664032 112.0
273.75293 168.0
274.042786 96.0
274.115265 160.0
274.148224 176.0
274.177887 156.0
274.303131 92.0
274.359161 52.0
274.382263 100.0
274.653259 108.0
274.675232 128.0
274.702148 124.0
274.748322 76.0
274.944275 196.0
274.989197 60.0
275.091522 108.0
275.11792 64.0
275.342468 112.0
275.372192 56.0
275.434937 148.0
275.603424 36.0
275.66748 164.0
275.735596 156.0
275.792938 184.0
275.856995 176.0
275.869354 128.0
275.877869 108.0
275.932678 148.0
276.012268 92.0
276.04187 180.0
276.12854 276.0
276.173035 180.0
276.198486 168.0
276.246735 212.0
276.320892 100.0
276.350647 280.0
276.382935 116.0
276.449921 124.0
276.486328 280.0
276.525665 188.0
276.562439 148.0
276.632935 68.0
276.668274 140.0
276.717957 144.0
276.725616 140.0
276.73584 184.0
276.800812 84.0
276.827301 48.0
276.860046 140.0
276.88562 212.0
276.914032 188.0
276.92926 152.0
276.972473 264.0
277.06543 137588.0
277.164093 280.0
277.229675 244.0
277.277344 76.0
277.316589 64.0
277.35968 156.0
277.385376 144.0
277.413086 240.0
277.418243 172.0
277.43222 152.0
277.445587 92.0
277.454559 152.0
277.488708 292.0
277.520721 204.0
277.552673 252.0
277.609436 360.0
277.659088 216.0
277.692413 92.0
277.732849 152.0
277.784363 120.0
277.791168 44.0
277.844849 80.0
277.887451 268.0
277.929016 44.0
277.965393 276.0
278.068085 21296.0
278.137543 56.0
278.195923 56.0
278.215424 132.0
278.305145 64.0
278.356445 112.0
278.403595 72.0
278.455597 84.0
278.496948 80.0
278.53894 104.0
278.595123 40.0
278.634979 184.0
278.674866 52.0
278.705322 120.0
278.744049 356.0
278.872223 96.0
278.923889 188.0
278.959259 152.0
278.991821 240.0
279.016846 436.0
279.062103 36208.0
279.165649 212.0
279.207245 156.0
279.254883 88.0
279.281128 128.0
279.308411 72.0
279.374664 92.0
279.407227 56.0
279.441162 108.0
279.468628 172.0
279.517151 100.0
279.571106 200.0
279.622131 60.0
279.647827 140.0
279.678192 80.0
279.722412 84.0
279.767029 252.0
279.792877 144.0
279.825623 128.0
279.872009 116.0
279.915771 208.0
279.939117 136.0
279.965088 84.0
280.006714 244.0
280.065735 5632.0
280.136414 244.0
280.193176 120.0
280.251923 124.0
280.291931 128.0
280.333832 76.0
280.415222 72.0
280.458557 76.0
280.506439 216.0
280.62561 132.0
280.668579 108.0
280.74527 104.0
280.81427 172.0
280.837494 92.0
280.87561 48.0
280.932404 76.0
280.940033 92.0
280.95636 104.0
280.970215 72.0
281.015442 40.0
281.067627 312.0
281.113312 88.0
281.25238 112.0
281.305786 52.0
281.402618 52.0
281.496094 48.0
281.53952 128.0
281.5802 236.0
281.639191 76.0
281.711945 108.0
281.766632 88.0
281.830139 56.0
281.878479 128.0
281.906799 72.0
281.965942 168.0
282.01532 76.0
282.044006 52.0
282.184418 84.0
282.612518 60.0
282.686127 52.0
282.731689 100.0
282.843445 96.0
282.897003 40.0
283.040955 180.0
283.235199 56.0
283.427338 112.0
283.600403 64.0
283.654053 64.0
283.727783 112.0
283.912201 44.0
284.073212 140.0
284.620239 72.0
284.727692 56.0
284.791504 124.0
284.828461 84.0
284.922516 40.0
285.335907 132.0
285.440125 88.0
285.554474 44.0
285.598175 112.0
286.08609 208.0
286.38916 48.0
286.544128 56.0
286.584534 88.0
286.678894 116.0
286.722717 72.0
286.850769 48.0
287.117157 76.0
287.19809 120.0
287.258789 32.0
287.58609 80.0
287.79541 44.0
287.998016 88.0
288.095978 100.0
288.464325 92.0
288.690857 52.0
288.883636 40.0
289.05957 172.0
289.090027 100.0
289.299866 168.0
289.340485 108.0
289.692688 48.0
289.7164 172.0
289.777374 96.0
289.882416 148.0
290.346832 156.0
290.513062 88.0
290.947418 148.0
291.005127 44.0
291.12738 32.0
291.168121 64.0
291.219086 60.0
291.365143 40.0
291.589417 88.0
292.157257 112.0
292.500946 68.0
293.175293 68.0
293.209381 96.0
293.615082 60.0
293.638947 56.0
293.922089 108.0
294.120026 72.0
294.724487 72.0
295.042358 136.0
295.312469 76.0
295.336426 48.0
296.545044 48.0
296.812439 92.0
296.915314 36.0
297.049072 156.0
297.121124 224.0
297.265228 72.0
297.309845 224.0
297.659973 124.0
297.690887 112.0
298.109985 100.0
298.226837 80.0
299.145233 48.0
299.203766 92.0
301.646149 60.0
301.843201 108.0
303.657837 56.0
304.185211 140.0
304.341461 64.0
304.607391 196.0
304.66098 120.0
304.740875 192.0
304.765198 152.0
304.956329 168.0
305.008453 104.0
305.059113 8584.0
305.151001 40.0
305.234436 64.0
305.279633 48.0
305.381714 136.0
305.446594 56.0
305.483765 144.0
305.56485 36.0
306.064423 2092.0
306.146149 32.0
306.188507 48.0
306.216644 100.0
306.414337 88.0
306.456146 56.0
306.546753 120.0
306.578125 52.0
306.739136 80.0
306.787231 60.0
307.056793 3332.0
307.174683 112.0
307.251068 56.0
307.334778 60.0
307.561615 52.0
307.711731 52.0
307.903778 44.0
307.959656 76.0
308.058929 300.0
308.165771 84.0
308.36496 44.0
308.50827 100.0
308.770508 160.0
309.078339 180.0
309.564911 60.0
309.796051 100.0
310.142975 48.0
310.199036 44.0
310.956665 136.0
311.290161 76.0
312.147583 88.0
312.217896 80.0
314.109253 156.0
314.16922 148.0
314.472687 88.0
315.065918 88.0
315.910797 108.0
316.052338 152.0
316.505371 108.0
316.608063 104.0
317.019012 84.0
318.828857 60.0
326.482941 76.0
327.847321 76.0
328.388092 36.0
328.651428 120.0
329.601044 68.0
335.659302 56.0
336.571503 80.0
338.05191 128.0
338.839142 68.0
339.847382 96.0
342.25119 64.0
342.391113 108.0
342.538452 44.0
342.940063 140.0
343.128082 80.0
344.109436 80.0
346.154144 92.0
348.676727 88.0
350.190948 60.0
351.346497 56.0
355.053253 84.0
355.375854 84.0
357.051178 124.0
357.348358 140.0
359.752777 136.0
364.787201 72.0
367.54837 52.0
368.31189 56.0
369.099152 76.0
371.078644 56.0
372.1875 120.0
378.077637 80.0
378.638977 88.0
379.510864 100.0
379.576782 72.0
382.443817 104.0
382.618988 124.0
384.899841 100.0
387.999054 68.0
388.826233 136.0
391.141235 120.0
393.439392 84.0
394.047607 92.0
395.178345 224.0
395.395966 72.0
396.223541 40.0
396.536591 80.0
397.091644 148.0
398.528625 44.0
399.502655 100.0
402.575653 84.0
404.718933 60.0
404.935181 160.0
405.6203 216.0
405.696472 52.0
406.687256 104.0
406.747467 76.0
407.261414 40.0
407.948517 72.0
411.602722 112.0
412.103577 132.0
413.126404 176.0
413.858917 84.0
414.413818 48.0
415.220673 136.0
417.262939 80.0
420.640076 44.0
421.885986 44.0
422.029083 128.0
422.102692 124.0
424.096405 92.0
425.082336 132.0
427.077271 112.0
427.106049 112.0
427.25824 208.0
428.093781 56.0
429.808563 180.0
430.683777 88.0
431.183685 100.0
431.216766 200.0
431.869995 36.0
432.052002 148.0
432.573425 204.0
433.480438 68.0
435.255798 48.0
438.700653 72.0
440.119812 248.0
441.013123 96.0
441.120087 208.0
441.201233 104.0
441.502289 52.0
442.098846 156.0
444.392548 36.0
444.480652 36.0
445.320251 100.0
445.370667 40.0
445.51767 64.0
446.038757 108.0
451.481812 72.0
452.670929 68.0
456.370941 72.0
456.494263 128.0
456.911072 144.0
457.881592 40.0
459.5867 160.0
460.209839 56.0
460.970154 64.0
462.710968 60.0
463.430481 68.0
465.157745 64.0
465.837219 140.0
466.40921 108.0
467.316101 64.0
468.288971 44.0
468.892151 116.0
471.948395 44.0
473.402283 80.0
475.192413 64.0
475.813019 140.0
475.878143 56.0
477.620758 44.0
478.121094 72.0
480.635468 100.0
482.032745 92.0
483.012054 40.0
483.283295 104.0
483.655273 76.0
483.808472 68.0
485.381348 180.0
486.421112 172.0
487.040222 60.0
490.199036 84.0
491.17337 140.0
493.549286 96.0
494.553497 144.0
494.603149 168.0
495.16806 6164.0
495.261932 108.0
495.572021 48.0
495.802429 96.0
495.851196 112.0
496.06839 168.0
496.174652 1796.0
496.305145 116.0
496.40976 64.0
496.644806 48.0
496.689178 52.0
496.72467 136.0
496.795624 32.0
496.862183 76.0
496.91098 164.0
497.035217 52.0
497.16568 2044.0
497.324677 124.0
497.41687 64.0
497.550049 52.0
497.602325 88.0
498.164642 1084.0
498.473877 52.0
498.569244 80.0
498.660522 36.0
498.958344 80.0
499.149536 136.0
499.191132 136.0
499.225128 160.0
501.081238 76.0
502.293762 136.0
502.762238 64.0
502.838104 84.0
504.508636 52.0
505.801422 48.0
505.908844 52.0
510.19754 36.0
511.182526 52.0
511.587585 92.0
512.586487 96.0
512.722656 84.0
513.015625 60.0
516.542358 64.0
517.723633 40.0
519.749878 104.0
520.535156 56.0
521.839172 88.0
522.676086 92.0
525.683472 84.0
528.983337 52.0
530.89386 108.0
536.945923 68.0
540.701904 120.0
540.734314 36.0
547.903748 72.0
548.719299 148.0
548.775269 80.0
549.376892 28.0
556.86615 68.0
560.450684 96.0
561.280273 80.0
563.824646 68.0
565.797058 40.0
565.853882 52.0
571.89679 40.0
573.821289 56.0
574.598694 60.0
576.651978 44.0
578.742432 52.0
579.925659 84.0
580.62085 56.0
587.30127 72.0
593.117981 60.0
595.354614 76.0
600.352356 52.0
600.996277 84.0
610.351624 112.0
613.394104 80.0
615.466125 80.0
615.505615 68.0
639.797241 104.0
647.710205 132.0
648.064819 176.0
651.839844 76.0
656.013245 88.0
656.742432 52.0
663.261597 60.0
663.892212 40.0
678.271545 40.0
695.098022 56.0
700.232178 84.0
702.757202 48.0
705.080566 88.0
706.957947 60.0
710.836853 52.0
728.251526 72.0
731.246216 68.0
736.519226 116.0
742.342529 48.0
755.791443 72.0
763.471008 72.0
766.570251 124.0
771.128662 72.0
771.880432 40.0
772.250977 56.0
773.512512 60.0
776.838989 44.0
783.953918 36.0
790.705627 112.0
807.47113 32.0
810.125793 100.0
812.796082 52.0
817.455566 76.0
856.200317 64.0
858.537231 60.0
869.371338 96.0
869.817383 36.0
880.887573 108.0
881.425171 56.0
884.174927 136.0
892.432007 48.0
910.357971 60.0
914.644592 36.0
924.572876 176.0
925.765442 84.0
946.824219 56.0
984.118896 120.0
990.89856 152.0
1011.244202 212.0
1014.931091 116.0
1025.165039 224.0
1029.119751 60.0
1032.998901 56.0
1053.905762 108.0
1056.252441 68.0
1062.698242 100.0
1064.457153 212.0
1064.632568 180.0
1067.374756 76.0
1077.176636 208.0
1083.286133 140.0
1083.541626 204.0
1087.521973 108.0
1093.937256 56.0
1097.006958 196.0
1097.349731 56.0
1098.134399 164.0
1101.223267 120.0
1102.042358 128.0
1105.255737 48.0
1112.711914 32.0
1112.984131 116.0
1132.376343 176.0
1134.098145 48.0
1140.971924 152.0
1150.207275 112.0
1152.9021 188.0
1154.193237 168.0
1160.557739 196.0
1166.23291 172.0
1170.45752 176.0
1170.893311 96.0
1182.951172 108.0
1186.71228 152.0
1194.465454 228.0
1195.566284 40.0
1198.988892 196.0
1202.768433 196.0
1210.130615 200.0
1221.943115 176.0
1222.757202 172.0
1224.762329 52.0
1231.912842 168.0
1233.442383 184.0
1235.253418 136.0
1237.08667 232.0
1241.38855 84.0
1241.697144 132.0
1245.683838 180.0
1250.317139 208.0
1255.699585 160.0
1256.073364 160.0
1267.079956 116.0
1269.546509 68.0
1269.950806 52.0
1272.732544 208.0
1276.292236 200.0
1276.612305 148.0
1277.757446 152.0
1280.348267 100.0
1282.728027 164.0
1283.020264 208.0
1284.567749 124.0
1285.580811 188.0
1286.894165 148.0
1288.608276 40.0
1288.708252 228.0
1291.431885 92.0
1303.806152 208.0
1307.588989 116.0
1311.672729 76.0
1313.59082 68.0
1316.911011 80.0
1320.004028 188.0
1323.1875 108.0
1324.969116 180.0
1339.78186 236.0
1342.777588 204.0
1344.900635 164.0
1347.164307 148.0
1348.289429 100.0
1350.05127 164.0
1353.175659 96.0
1353.307373 144.0
1359.266357 192.0
1367.283569 144.0
1374.468262 84.0
1382.796509 176.0
1385.610352 200.0
1387.626099 120.0
1387.9375 136.0
1395.07959 64.0
1396.804688 44.0
1400.422119 120.0
1404.484131 192.0
1406.97644 72.0
1413.171997 152.0
1414.069946 220.0
1414.264526 164.0
1414.541504 188.0
1420.971313 184.0
1423.125244 232.0
1423.44812 136.0
1425.904541 128.0
1428.355591 136.0
1434.876953 152.0
1435.163452 164.0
1440.242188 208.0
1448.986816 68.0
1449.865723 228.0
1450.108276 80.0
1451.214966 140.0
1451.321167 220.0
1454.385864 60.0
1454.689453 148.0
1456.929688 124.0
1460.243774 220.0
1464.901855 180.0
1466.075195 156.0
1466.418091 80.0
1470.857178 204.0
1471.170166 104.0
1471.391479 148.0
1472.223755 168.0
1473.667358 156.0
1477.168701 356.0
1478.714233 176.0
1478.859619 184.0
1479.303589 144.0
1480.566895 156.0
1481.149048 152.0
1481.639282 148.0
1482.298218 180.0
1482.428467 184.0
1484.689819 180.0
1485.940063 248.0
1487.444214 156.0
1487.689819 196.0
1488.219604 44.0
1488.45752 156.0
1489.325317 148.0
1490.469971 172.0
1490.93103 128.0
1493.045166 132.0
1494.760498 144.0
1497.37793 192.0
1498.556396 132.0
1499.010986 76.0
