>compound MLS001195635-01!SAQUINAVIR MESYLATE
>formula C38H50N6O5
>ionization [M+H]+
>parentmass 671.390991
#inchi InChI=1S/C38H50N6O5/c1-38(2,3)43-37(49)32-20-26-14-7-8-15-27(26)22-44(32)23-33(45)30(19-24-11-5-4-6-12-24)41-36(48)31(21-34(39)46)42-35(47)29-18-17-25-13-9-10-16-28(25)40-29/h4-6,9-13,16-18,26-27,30-33,45H,7-8,14-15,19-23H2,1-3H3,(H2,39,46)(H,41,48)(H,42,47)(H,43,49)/t26-,27+,30-,31-,32-,33+/m0/s1
#inchikey QWAXKHKRTORLEM
#Ion_Source LC-ESI
#Instrument qTof
#Compound_Source NIH Pharmacologically Active Library
#PI Dorrestein
#Data_Collector VP/LMS
#Scan -1
#Precursor_MZ 671.391
#ExactMass 670.384
#Charge 1
#CAS_Number N/A
#Pubmed_ID N/A
#Smiles CC(C)(C)NC(=O)[C@@H]1C[C@@H]2CCCC[C@@H]2CN1C[C@@H](O)[C@H](Cc3ccccc3)NC(=O)[C@H](CC(=O)N)NC(=O)c4ccc5ccccc5n4
#INCHI_AUX N/A
#Library_Class 1
#SpectrumID CCMSLIB00000085050
#IonMode Positive
#UpdateWorkflowName UPDATE-SINGLE-ANNOTATED-GOLD
#LibraryQualityString Gold
#TaskID d252d724072548979f1f6f1ced849daf
##Scan# 1935
#SpectrumFile p3-E03_GE3_01_18272.mzXML
#LibraryName Pharm_Active_Library.mgf
#MQScore -1
#Organism Pharm_Active_Library
#TIC_Query 0
#RT_Query -1
#MZErrorPPM -1
#SharedPeaks 0
#MassDiff 0
#LibMZ -1
#SpecMZ 671.391
#SpecCharge 0
#internalFilename spec-00000.mgf

>collision 10
44.955601 220.0
44.965046 160.0
44.984577 220.0
45.013439 136.0
45.045498 128.0
45.060192 88.0
45.086308 124.0
45.102959 144.0
45.112316 88.0
45.124348 132.0
45.144405 192.0
45.189888 96.0
45.222008 208.0
45.31039 116.0
45.338531 156.0
45.351936 196.0
45.365341 148.0
45.386795 48.0
45.398865 136.0
45.439106 60.0
45.449841 204.0
45.465946 148.0
45.478024 96.0
45.49279 424.0
45.524448 144.0
45.54734 116.0
45.580097 92.0
45.648655 148.0
45.668831 120.0
45.680939 112.0
45.699772 152.0
45.745216 152.0
45.767807 228.0
45.820953 144.0
45.897785 152.0
45.95174 168.0
45.998978 92.0
46.095814 292.0
46.105686 188.0
46.138126 236.0
46.157059 148.0
46.170582 160.0
46.230457 140.0
46.273426 256.0
46.30999 132.0
46.320827 160.0
46.365543 52.0
46.382465 128.0
46.472675 76.0
46.487602 56.0
46.552765 200.0
46.631569 120.0
46.654678 136.0
46.673714 136.0
46.691612 196.0
46.710434 140.0
46.808434 164.0
46.828861 288.0
46.854744 164.0
46.873821 152.0
46.917439 128.0
46.931072 68.0
46.966534 212.0
47.033398 180.0
47.048412 112.0
47.079819 128.0
47.116703 108.0
47.145397 172.0
47.154964 68.0
47.201447 300.0
47.217857 48.0
47.262177 132.0
47.28764 124.0
47.299957 108.0
47.315018 116.0
47.341034 96.0
47.365688 124.0
47.39035 164.0
47.402569 48.0
47.443806 172.0
47.469856 168.0
47.491306 144.0
47.559036 264.0
47.597481 132.0
47.608231 116.0
47.703278 148.0
47.72665 132.0
47.741776 172.0
47.778915 128.0
47.816071 108.0
47.827541 168.0
47.83783 292.0
47.854618 184.0
47.876652 152.0
47.898689 56.0
47.948677 244.0
47.996544 108.0
48.060814 88.0
48.073181 340.0
48.089417 212.0
48.107384 132.0
48.127636 124.0
48.251991 172.0
48.278263 168.0
48.299011 64.0
48.343288 176.0
48.361279 144.0
48.398659 228.0
48.418049 160.0
48.452679 72.0
48.467922 84.0
48.477623 108.0
48.490093 56.0
48.505657 176.0
48.547878 224.0
48.56081 192.0
48.631573 164.0
48.653786 148.0
48.687111 132.0
48.806625 128.0
48.822651 84.0
48.841785 200.0
48.87833 160.0
48.904011 136.0
48.9235 128.0
48.942993 120.0
48.97224 148.0
49.03614 116.0
49.052261 140.0
49.08234 212.0
49.114418 132.0
49.12558 88.0
49.153484 128.0
49.16465 208.0
49.189003 152.0
49.213509 112.0
49.258202 112.0
49.286144 116.0
49.342052 256.0
49.357433 116.0
49.369343 140.0
49.379398 244.0
49.397995 64.0
49.435776 68.0
49.476368 120.0
49.508575 128.0
49.519779 128.0
49.591938 192.0
49.606659 156.0
49.638908 52.0
49.741333 72.0
49.760986 200.0
49.783455 136.0
49.811546 140.0
49.825596 128.0
49.843861 176.0
49.880405 140.0
49.898682 240.0
49.919773 160.0
49.962017 128.0
49.995773 184.0
50.023018 212.0
50.0924 192.0
50.171692 176.0
50.229641 164.0
50.244438 172.0
50.256447 132.0
50.325611 148.0
50.338322 156.0
50.389175 164.0
50.423088 212.0
50.459476 200.0
50.476177 160.0
50.527733 184.0
50.54916 84.0
50.567356 216.0
50.585758 200.0
50.652317 76.0
50.669319 380.0
50.687737 116.0
50.713249 136.0
50.81377 136.0
50.832382 56.0
50.857929 116.0
50.866959 100.0
50.911884 116.0
50.928928 160.0
51.009396 128.0
51.034096 164.0
51.079609 104.0
51.095257 216.0
51.135101 160.0
51.230511 140.0
51.263649 124.0
51.274124 132.0
51.287514 144.0
51.345974 68.0
51.388767 128.0
51.410175 160.0
51.420578 148.0
51.432739 168.0
51.461563 80.0
51.472458 172.0
51.48727 320.0
51.545841 104.0
51.577286 120.0
51.59444 132.0
51.655937 140.0
51.68026 180.0
51.706017 120.0
51.826313 64.0
51.84351 244.0
51.893681 160.0
51.957737 176.0
51.992664 108.0
52.029987 152.0
52.101849 108.0
52.151299 144.0
52.198353 184.0
52.209606 236.0
52.221027 344.0
52.265713 112.0
52.275784 76.0
52.421032 132.0
52.454388 152.0
52.50774 180.0
52.530819 160.0
52.545551 188.0
52.567852 192.0
52.595757 112.0
52.638145 244.0
52.679512 124.0
52.704075 104.0
52.732555 96.0
52.73621 68.0
52.740772 112.0
52.753216 108.0
52.772011 172.0
52.79081 136.0
52.890644 116.0
52.932632 100.0
52.950008 80.0
52.966412 148.0
52.994919 84.0
53.022453 104.0
53.074642 112.0
53.094944 120.0
53.132195 112.0
53.150696 224.0
53.187809 156.0
53.222652 96.0
53.241531 172.0
53.27494 140.0
53.322895 64.0
53.386864 128.0
53.464504 236.0
53.538219 148.0
53.576096 108.0
53.590664 104.0
53.641674 132.0
53.656254 136.0
53.689793 72.0
53.707508 136.0
53.726509 140.0
53.745228 164.0
53.797771 100.0
53.811642 176.0
53.864742 256.0
53.943989 184.0
53.958481 172.0
53.981876 348.0
54.008205 204.0
54.02137 180.0
54.033073 76.0
54.060875 88.0
54.072586 164.0
54.088684 100.0
54.131145 148.0
54.14579 228.0
54.198532 40.0
54.297668 160.0
54.334892 104.0
54.376476 308.0
54.39653 124.0
54.422958 64.0
54.444099 212.0
54.458206 88.0
54.490707 96.0
54.522854 104.0
54.533142 100.0
54.545887 284.0
54.627254 84.0
54.64785 140.0
54.669727 180.0
54.713715 192.0
54.771519 148.0
54.793617 112.0
54.817192 188.0
54.86731 128.0
54.895325 160.0
54.958691 176.0
55.009541 176.0
55.020748 208.0
55.060452 176.0
55.078342 88.0
55.192532 180.0
55.254269 136.0
55.293678 76.0
55.411209 112.0
55.442654 164.0
55.474937 76.0
55.52813 184.0
55.568375 140.0
55.667831 124.0
55.682682 104.0
55.698044 176.0
55.713879 164.0
55.740871 144.0
55.756969 144.0
55.831024 148.0
55.855106 96.0
55.880398 152.0
55.94886 164.0
55.962261 116.0
56.009991 168.0
56.036736 124.0
56.065365 132.0
56.090389 168.0
56.118252 180.0
56.1381 196.0
56.164948 88.0
56.188816 136.0
56.251499 84.0
56.2724 132.0
56.32019 228.0
56.382942 140.0
56.409847 120.0
56.439751 164.0
56.572914 132.0
56.610348 200.0
56.647026 156.0
56.676258 220.0
56.713177 120.0
56.734715 160.0
56.785698 128.0
56.817204 136.0
56.851715 68.0
56.88261 48.0
56.891716 80.0
56.907257 236.0
56.920773 128.0
56.93729 224.0
57.0079 160.0
57.050339 172.0
57.125999 140.0
57.174839 156.0
57.283253 120.0
57.301331 148.0
57.316399 168.0
57.367645 156.0
57.39629 196.0
57.420422 164.0
57.443047 132.0
57.471714 28.0
57.485294 116.0
57.500385 156.0
57.523029 128.0
57.56591 160.0
57.578899 112.0
57.610619 100.0
57.626938 100.0
57.669552 148.0
57.719444 128.0
57.733055 136.0
57.755741 44.0
57.84351 100.0
57.855621 80.0
57.87682 132.0
57.887421 92.0
57.973141 192.0
58.008633 108.0
58.070175 220.0
58.089008 56.0
58.107014 152.0
58.11935 172.0
58.138794 128.0
58.15881 204.0
58.205875 128.0
58.246883 88.0
58.257519 212.0
58.283348 180.0
58.34333 224.0
58.359348 168.0
58.374554 132.0
58.414963 92.0
58.43388 144.0
58.444664 92.0
58.458225 116.0
58.546524 188.0
58.557186 120.0
58.613556 164.0
58.665379 168.0
58.682148 136.0
58.72485 116.0
58.735527 180.0
58.755402 144.0
58.777664 176.0
58.790905 68.0
58.795971 176.0
58.851517 80.0
58.862206 108.0
58.900387 104.0
58.92025 108.0
58.961506 140.0
58.990551 184.0
59.011955 116.0
59.058231 196.0
59.146584 112.0
59.190983 148.0
59.21748 160.0
59.241528 132.0
59.273705 116.0
59.336552 108.0
59.356483 60.0
59.38409 96.0
59.394829 128.0
59.433182 76.0
59.483829 104.0
59.495033 108.0
59.508396 80.0
59.531696 228.0
59.543716 116.0
59.557537 152.0
59.646664 180.0
59.67252 176.0
59.702877 136.0
59.725086 128.0
59.754318 188.0
59.765995 172.0
59.798946 136.0
59.817417 168.0
59.846668 68.0
59.91444 104.0
59.93692 176.0
59.952961 132.0
59.966736 128.0
59.978065 168.0
60.011539 176.0
60.066505 256.0
60.101006 188.0
60.116196 128.0
60.150394 176.0
60.181271 128.0
60.199802 84.0
60.24614 140.0
60.258499 192.0
60.269318 168.0
60.297134 120.0
60.354332 108.0
60.369045 140.0
60.428577 92.0
60.445599 144.0
60.470364 176.0
60.48555 64.0
60.535385 148.0
60.550873 144.0
60.578754 112.0
60.631439 144.0
60.658295 184.0
60.698101 216.0
60.721363 96.0
60.760147 96.0
60.802044 128.0
60.871906 88.0
60.91748 152.0
60.941101 212.0
60.957344 96.0
60.997757 92.0
61.014858 132.0
61.040298 156.0
61.087952 216.0
61.139301 48.0
61.156292 144.0
61.198826 152.0
61.248238 224.0
61.291916 196.0
61.305943 128.0
61.34491 108.0
61.404163 120.0
61.422882 116.0
61.457203 216.0
61.472809 204.0
61.502464 152.0
61.530563 260.0
61.575596 220.0
61.594593 136.0
61.622715 156.0
61.632652 100.0
61.650845 100.0
61.681923 104.0
61.724239 160.0
61.871277 156.0
61.883923 172.0
61.9067 124.0
61.968506 196.0
62.007683 148.0
62.024925 136.0
62.063278 144.0
62.075096 316.0
62.119015 136.0
62.145687 128.0
62.167656 152.0
62.18021 160.0
62.208466 124.0
62.246147 84.0
62.332546 168.0
62.42215 140.0
62.491364 148.0
62.627731 196.0
62.651958 124.0
62.666138 136.0
62.69923 112.0
62.722874 128.0
62.782791 140.0
62.81118 172.0
62.838001 240.0
62.850624 152.0
62.886921 144.0
62.908287 112.0
62.944164 156.0
62.95134 124.0
63.002197 104.0
63.044861 176.0
63.079636 160.0
63.174522 36.0
63.209934 220.0
63.231487 48.0
63.248024 116.0
63.289837 56.0
63.320152 104.0
63.394615 108.0
63.424728 248.0
63.445648 204.0
63.499252 108.0
63.51247 136.0
63.540497 72.0
63.569057 132.0
63.616676 104.0
63.673367 228.0
63.687714 92.0
63.717243 112.0
63.758045 104.0
63.770763 216.0
63.791428 80.0
63.808914 96.0
63.837536 344.0
63.913895 96.0
63.930435 132.0
63.955273 52.0
63.997482 152.0
64.02533 168.0
64.038071 156.0
64.068336 108.0
64.093834 176.0
64.158257 156.0
64.234253 164.0
64.252838 204.0
64.267639 148.0
64.301826 132.0
64.419319 92.0
64.44648 140.0
64.465652 68.0
64.508812 164.0
64.550865 172.0
64.61116 52.0
64.627159 172.0
64.737617 132.0
64.78727 128.0
64.818108 180.0
64.84977 156.0
64.869003 140.0
64.888245 80.0
64.952393 332.0
64.962608 220.0
65.035835 72.0
65.08239 240.0
65.111298 120.0
65.161095 84.0
65.189384 172.0
65.288086 36.0
65.307388 120.0
65.41198 108.0
65.424858 172.0
65.458672 124.0
65.490883 140.0
65.539398 212.0
65.555328 140.0
65.593956 116.0
65.634323 104.0
65.650444 136.0
65.6698 156.0
65.860268 144.0
65.909576 108.0
65.957222 140.0
65.994408 116.0
66.005722 48.0
66.039688 72.0
66.054245 168.0
66.125443 160.0
66.183723 160.0
66.22583 56.0
66.24527 192.0
66.271194 148.0
66.402504 156.0
66.434944 204.0
66.463501 156.0
66.566422 188.0
66.621643 48.0
66.683395 88.0
66.702904 208.0
66.761436 80.0
66.785828 128.0
66.818367 116.0
66.839554 184.0
66.868813 144.0
66.903 180.0
66.974648 156.0
67.052864 104.0
67.067528 156.0
67.124596 92.0
67.19455 176.0
67.223816 92.0
67.233894 124.0
67.261642 92.0
67.2845 160.0
67.322327 96.0
67.340019 252.0
67.354721 128.0
67.434792 120.0
67.486 348.0
67.542709 208.0
67.56234 156.0
67.590157 136.0
67.634346 120.0
67.67527 36.0
67.821335 156.0
67.885025 160.0
67.89814 276.0
67.957199 148.0
68.026131 108.0
68.061264 96.0
68.101669 196.0
68.172318 100.0
68.185463 156.0
68.233978 172.0
68.264374 164.0
68.287766 164.0
68.314438 156.0
68.334991 164.0
68.363083 152.0
68.390091 132.0
68.417404 152.0
68.428856 144.0
68.454628 164.0
68.489861 128.0
68.50798 144.0
68.552467 124.0
68.567299 188.0
68.590378 156.0
68.605217 144.0
68.628296 116.0
68.674477 148.0
68.709114 180.0
68.736176 100.0
68.763573 96.0
68.781731 136.0
68.807114 240.0
68.854378 208.0
68.884117 152.0
68.945251 76.0
68.95974 188.0
69.027962 128.0
69.042793 140.0
69.065353 144.0
69.087456 104.0
69.112 124.0
69.188408 152.0
69.234894 108.0
69.266243 196.0
69.292755 72.0
69.307014 124.0
69.330658 160.0
69.359039 212.0
69.375618 56.0
69.418732 96.0
69.441948 136.0
69.476784 132.0
69.51329 128.0
69.526566 224.0
69.543823 120.0
69.571381 92.0
69.600388 184.0
69.636147 96.0
69.656075 184.0
69.697617 52.0
69.753128 120.0
69.776833 172.0
69.838928 80.0
69.883842 132.0
69.899651 136.0
69.918793 140.0
69.975716 164.0
70.007027 168.0
70.051476 192.0
70.11702 192.0
70.212021 56.0
70.260452 120.0
70.285423 112.0
70.322136 92.0
70.334183 168.0
70.391792 172.0
70.46241 104.0
70.500847 252.0
70.515884 136.0
70.559349 64.0
70.661377 124.0
70.691498 108.0
70.716103 148.0
70.724762 96.0
70.730972 232.0
70.762253 148.0
70.798637 76.0
70.860619 120.0
70.88575 52.0
70.899025 272.0
70.919273 112.0
70.932686 48.0
70.959511 136.0
71.013367 104.0
71.058464 164.0
71.070213 116.0
71.12056 140.0
71.226349 112.0
71.248184 176.0
71.32045 100.0
71.359116 168.0
71.389381 160.0
71.429466 120.0
71.454155 136.0
71.470123 156.0
71.522301 188.0
71.540169 204.0
71.557655 172.0
71.584595 108.0
71.610077 180.0
71.63002 132.0
71.694099 120.0
71.724434 128.0
71.746658 176.0
71.78463 160.0
71.812119 172.0
71.84417 128.0
71.864418 160.0
71.876228 104.0
71.910301 168.0
71.943741 52.0
72.024803 156.0
72.049614 168.0
72.077179 176.0
72.09407 136.0
72.12957 188.0
72.158661 192.0
72.181137 192.0
72.206154 192.0
72.247948 248.0
72.273323 156.0
72.304993 208.0
72.341026 172.0
72.354568 148.0
72.376579 120.0
72.395653 152.0
72.494537 184.0
72.507492 160.0
72.556183 152.0
72.573143 232.0
72.590096 120.0
72.654549 156.0
72.678307 32.0
72.695274 208.0
72.713943 248.0
72.795433 204.0
72.826004 56.0
72.856583 176.0
72.885468 148.0
72.907959 232.0
72.939857 92.0
72.953453 148.0
73.011078 180.0
73.074417 164.0
73.101433 216.0
73.124031 288.0
73.176331 84.0
73.205276 124.0
73.226021 184.0
73.247993 100.0
73.282738 156.0
73.312935 104.0
73.337845 168.0
73.371094 180.0
73.401253 148.0
73.44532 200.0
73.50531 160.0
73.561584 132.0
73.611153 180.0
73.663857 168.0
73.669304 88.0
73.724007 132.0
73.744408 28.0
73.768341 160.0
73.790565 96.0
73.802536 160.0
73.828461 172.0
73.839302 96.0
73.865814 104.0
73.888054 104.0
73.935478 196.0
74.009583 152.0
74.021568 36.0
74.06781 212.0
74.091583 132.0
74.112358 52.0
74.175766 152.0
74.189484 48.0
74.221382 172.0
74.247986 136.0
74.268051 212.0
74.276741 168.0
74.306107 100.0
74.365715 332.0
74.400505 148.0
74.466103 160.0
74.526695 144.0
74.575722 104.0
74.604942 180.0
74.618698 124.0
74.740585 204.0
74.777779 220.0
74.804214 212.0
74.823441 60.0
74.844101 168.0
74.925056 204.0
74.968895 168.0
74.983643 160.0
75.012947 120.0
75.037086 92.0
75.068123 160.0
75.106064 132.0
75.133667 68.0
75.173355 144.0
75.190613 172.0
75.214432 100.0
75.235497 172.0
75.299385 168.0
75.314934 188.0
75.342567 180.0
75.417725 236.0
75.43071 116.0
75.503326 120.0
75.5345 180.0
75.551765 116.0
75.572525 64.0
75.59156 208.0
75.603676 156.0
75.643486 100.0
75.683578 128.0
75.702354 64.0
75.714478 224.0
75.752586 120.0
75.768173 76.0
75.794167 148.0
75.814964 140.0
75.8283 172.0
75.851357 112.0
75.906845 140.0
75.932343 200.0
75.957138 348.0
76.000511 88.0
76.054314 64.0
76.094864 100.0
76.141884 156.0
76.19696 140.0
76.233208 96.0
76.247108 176.0
76.314903 180.0
76.332298 76.0
76.434082 140.0
76.45929 140.0
76.502808 144.0
76.535889 240.0
76.556786 32.0
76.654343 120.0
76.682884 192.0
76.716331 212.0
76.763405 128.0
76.800301 112.0
76.805214 144.0
76.863602 168.0
76.877563 136.0
76.893272 104.0
76.915962 124.0
77.045189 136.0
77.113342 200.0
77.132439 156.0
77.215508 176.0
77.275375 84.0
77.368362 128.0
77.410759 316.0
77.486084 76.0
77.503601 120.0
77.529892 148.0
77.554428 136.0
77.615791 168.0
77.629822 184.0
77.661804 168.0
77.717529 168.0
77.792999 216.0
77.804161 156.0
77.826851 156.0
77.965225 152.0
77.995018 136.0
78.142738 112.0
78.264191 172.0
78.285324 132.0
78.313499 108.0
78.332878 32.0
78.422745 124.0
78.479561 176.0
78.525009 52.0
78.537361 100.0
78.646759 48.0
78.667946 160.0
78.705017 124.0
78.720909 100.0
78.762199 180.0
78.812767 108.0
78.856949 100.0
78.908218 152.0
78.961266 92.0
78.991058 200.0
79.021416 144.0
79.037109 312.0
79.0541 152.0
79.076271 84.0
79.106033 236.0
79.148857 64.0
79.198952 268.0
79.211143 168.0
79.246277 108.0
79.341988 92.0
79.356171 88.0
79.403893 88.0
79.480339 244.0
79.517601 120.0
79.54892 156.0
79.62236 68.0
79.641296 232.0
79.691147 188.0
79.716515 236.0
79.737839 96.0
79.762726 68.0
79.801842 216.0
79.821396 148.0
79.933472 120.0
80.001106 148.0
80.021133 144.0
80.038498 60.0
80.110893 228.0
80.184578 192.0
80.207748 212.0
80.254105 136.0
80.341499 180.0
80.380753 144.0
80.421799 132.0
80.468475 192.0
80.503235 164.0
80.528931 164.0
80.584312 164.0
80.646858 180.0
80.679817 184.0
80.748779 124.0
80.772034 164.0
80.789917 120.0
80.807808 60.0
80.870445 100.0
80.902664 212.0
80.928535 160.0
80.943848 192.0
80.976082 156.0
81.045952 92.0
81.12661 72.0
81.14991 184.0
81.186501 168.0
81.25753 140.0
81.273682 128.0
81.320335 196.0
81.393944 48.0
81.42807 144.0
81.440643 104.0
81.46579 184.0
81.564629 192.0
81.57946 168.0
81.663818 220.0
81.791283 164.0
81.820358 104.0
81.836288 152.0
81.852493 200.0
81.904724 112.0
81.931747 164.0
81.948463 196.0
82.017967 168.0
82.041679 172.0
82.132805 136.0
82.206726 152.0
82.218536 88.0
82.2603 152.0
82.288857 128.0
82.368317 112.0
82.417099 120.0
82.433365 96.0
82.458565 152.0
82.461472 144.0
82.498428 176.0
82.517799 180.0
82.570763 168.0
82.588844 160.0
82.634071 88.0
82.681122 64.0
82.728188 88.0
82.793373 112.0
82.831406 128.0
82.862206 176.0
82.885765 156.0
82.916969 364.0
82.985458 140.0
83.001778 92.0
83.023758 164.0
83.10154 164.0
83.132385 116.0
83.163246 116.0
83.177765 108.0
83.203178 72.0
83.223152 96.0
83.242508 100.0
83.274002 208.0
83.294945 136.0
83.326683 124.0
83.348488 80.0
83.368477 120.0
83.401192 148.0
83.43573 140.0
83.474556 136.0
83.519386 128.0
83.533936 144.0
83.549706 156.0
83.56395 188.0
83.637665 156.0
83.69046 132.0
83.745094 44.0
83.830719 172.0
83.900772 76.0
83.930885 124.0
83.974495 168.0
83.989296 156.0
84.00576 340.0
84.045898 196.0
84.107956 216.0
84.124382 268.0
84.140816 148.0
84.211266 76.0
84.243843 116.0
84.314125 164.0
84.336281 108.0
84.350906 124.0
84.371437 240.0
84.399376 164.0
84.46611 100.0
84.493553 80.0
84.515511 156.0
84.537468 176.0
84.579567 140.0
84.599915 180.0
84.623505 72.0
84.645477 184.0
84.676605 96.0
84.724236 100.0
84.790199 208.0
84.903549 200.0
84.924049 176.0
84.984589 208.0
85.063507 52.0
85.089211 180.0
85.116753 76.0
85.136948 336.0
85.204918 136.0
85.265556 64.0
85.285774 116.0
85.300476 136.0
85.317024 180.0
85.363319 148.0
85.379547 196.0
85.425529 164.0
85.464165 152.0
85.508331 48.0
85.537537 120.0
85.594856 212.0
85.617897 188.0
85.637215 184.0
85.692482 48.0
85.714592 80.0
85.799385 88.0
85.820488 168.0
85.838104 148.0
85.878677 256.0
85.918983 132.0
85.974617 140.0
86.031448 188.0
86.066917 136.0
86.109116 132.0
86.159271 120.0
86.188835 184.0
86.213867 160.0
86.266464 104.0
86.291496 184.0
86.315552 148.0
86.331985 176.0
86.380211 172.0
86.440323 184.0
86.479706 128.0
86.545837 116.0
86.581871 132.0
86.636589 128.0
86.664009 160.0
86.670631 128.0
86.742218 188.0
86.788574 132.0
86.818512 136.0
86.868324 184.0
86.919449 144.0
86.95182 128.0
87.027931 208.0
87.040443 152.0
87.054459 156.0
87.13752 172.0
87.156578 248.0
87.176544 160.0
87.196983 204.0
87.223007 128.0
87.239738 132.0
87.269684 76.0
87.302956 144.0
87.322121 132.0
87.386665 180.0
87.418205 76.0
87.455521 100.0
87.52813 120.0
87.582924 172.0
87.597664 144.0
87.619232 180.0
87.675453 148.0
87.69767 200.0
87.714447 184.0
87.887314 116.0
87.919617 96.0
88.054039 136.0
88.078323 172.0
88.093269 168.0
88.106346 160.0
88.158661 260.0
88.171745 108.0
88.186699 208.0
88.251999 156.0
88.267044 164.0
88.304489 48.0
88.335289 172.0
88.374954 152.0
88.416733 280.0
88.469162 172.0
88.498665 164.0
88.540314 92.0
88.572159 144.0
88.592766 112.0
88.640358 180.0
88.688339 128.0
88.707085 60.0
88.749931 196.0
88.800049 152.0
88.825218 108.0
88.887596 180.0
88.954704 144.0
88.982864 144.0
89.003517 64.0
89.048073 160.0
89.078644 196.0
89.159439 108.0
89.231941 212.0
89.24968 152.0
89.275063 152.0
89.306313 96.0
89.321144 212.0
89.338074 156.0
89.371941 128.0
89.388878 152.0
89.42189 192.0
89.442848 184.0
89.471695 96.0
89.510506 72.0
89.560204 148.0
89.584694 152.0
89.6073 104.0
89.67514 88.0
89.72113 192.0
89.769409 144.0
89.825996 136.0
89.854294 184.0
89.886368 100.0
89.939217 192.0
89.988297 76.0
90.003906 132.0
90.031563 136.0
90.078949 172.0
90.094414 152.0
90.129959 100.0
90.15831 184.0
90.175316 124.0
90.210121 184.0
90.253555 136.0
90.275597 100.0
90.308197 148.0
90.359451 252.0
90.421196 48.0
90.445801 144.0
90.480339 148.0
90.515854 144.0
90.544785 144.0
90.56131 108.0
90.614349 168.0
90.652245 184.0
90.769783 140.0
90.817192 156.0
90.868652 224.0
90.887627 256.0
91.052628 1560.0
91.107635 176.0
91.140244 272.0
91.180634 192.0
91.198853 124.0
91.23307 56.0
91.267944 116.0
91.299622 36.0
91.330048 108.0
91.352875 140.0
91.36924 140.0
91.406151 72.0
91.448021 96.0
91.533691 172.0
91.642265 128.0
91.665398 144.0
91.72422 172.0
91.737564 164.0
91.754723 176.0
91.804588 220.0
91.819557 100.0
91.832909 132.0
91.871056 136.0
91.892807 120.0
91.905403 112.0
91.935692 188.0
91.962654 148.0
92.008469 164.0
92.056808 104.0
92.086685 204.0
92.156914 172.0
92.182289 160.0
92.208694 132.0
92.228539 200.0
92.262566 116.0
92.354355 108.0
92.367744 156.0
92.400269 48.0
92.459595 108.0
92.484474 112.0
92.57254 140.0
92.594727 220.0
92.62809 172.0
92.651077 176.0
92.67215 208.0
92.704727 124.0
92.793579 280.0
92.821663 112.0
92.861938 140.0
92.888687 144.0
92.934837 200.0
92.959785 120.0
92.986656 140.0
93.010628 220.0
93.067284 152.0
93.10569 136.0
93.126816 212.0
93.270927 132.0
93.318993 180.0
93.349762 104.0
93.36322 140.0
93.380531 128.0
93.399269 156.0
93.428619 156.0
93.453636 60.0
93.499817 152.0
93.569115 220.0
93.586449 124.0
93.607628 152.0
93.649994 188.0
93.671188 176.0
93.723206 168.0
93.809937 132.0
93.823433 96.0
93.852348 88.0
93.900795 168.0
93.97966 144.0
94.049133 52.0
94.064575 200.0
94.085815 96.0
94.134087 152.0
94.151466 88.0
94.189514 160.0
94.230667 132.0
94.244194 100.0
94.259651 192.0
94.285667 156.0
94.322548 176.0
94.397316 112.0
94.457794 140.0
94.518204 164.0
94.549736 124.0
94.583824 196.0
94.598122 240.0
94.754898 164.0
94.784058 208.0
94.88485 204.0
94.902298 84.0
94.918907 156.0
94.962418 168.0
95.001213 112.0
95.223175 92.0
95.257469 172.0
95.287476 152.0
95.412941 56.0
95.493614 132.0
95.506287 212.0
95.527679 88.0
95.542007 132.0
95.559937 180.0
95.605515 108.0
95.665848 152.0
95.687263 204.0
95.714523 124.0
95.755089 184.0
95.781143 196.0
95.819511 120.0
95.845039 132.0
95.858681 80.0
95.882065 32.0
95.918098 152.0
95.944443 128.0
95.961113 196.0
95.987099 132.0
96.038048 140.0
96.167839 132.0
96.218727 148.0
96.252724 152.0
96.306923 144.0
96.324989 120.0
96.357544 252.0
96.420822 172.0
96.447144 188.0
96.475578 140.0
96.510658 108.0
96.536942 164.0
96.557594 160.0
96.59671 132.0
96.636932 216.0
96.657364 168.0
96.684761 176.0
96.700424 60.0
96.719994 116.0
96.741188 116.0
96.806145 204.0
96.821808 68.0
96.835777 152.0
96.850456 128.0
96.86515 172.0
96.890366 176.0
96.933479 152.0
96.94915 168.0
96.980515 160.0
97.0158 36.0
97.041626 228.0
97.070702 100.0
97.090309 84.0
97.129539 80.0
97.151306 320.0
97.171638 156.0
97.207817 156.0
97.241379 152.0
97.25708 140.0
97.29438 120.0
97.316345 128.0
97.331688 160.0
97.367035 92.0
97.40239 156.0
97.471115 180.0
97.520287 224.0
97.554131 148.0
97.569435 376.0
97.626457 112.0
97.646126 92.0
97.659889 92.0
97.724815 272.0
97.811409 240.0
97.874634 104.0
97.896072 140.0
97.950615 248.0
98.00441 156.0
98.023705 688.0
98.042465 272.0
98.067474 76.0
98.088219 244.0
98.146332 100.0
98.175911 36.0
98.204514 192.0
98.25087 108.0
98.278496 112.0
98.338394 148.0
98.371254 156.0
98.422585 96.0
98.459198 80.0
98.489738 88.0
98.537148 188.0
98.556908 108.0
98.572296 132.0
98.589409 188.0
98.649734 128.0
98.696381 224.0
98.713066 108.0
98.730293 152.0
98.750648 164.0
98.80999 188.0
98.834724 160.0
98.855507 180.0
98.910919 84.0
98.967758 96.0
98.990776 144.0
99.098572 176.0
99.140678 176.0
99.164459 188.0
99.212036 108.0
99.360779 184.0
99.415482 92.0
99.485809 180.0
99.527504 164.0
99.618866 116.0
99.654633 172.0
99.671608 236.0
99.718224 128.0
99.740089 60.0
99.754005 88.0
99.773148 184.0
99.809669 152.0
99.882645 104.0
99.907135 116.0
99.928871 164.0
100.060379 172.0
100.076309 116.0
100.110161 92.0
100.191048 308.0
100.249611 156.0
100.277512 144.0
100.319374 180.0
100.335457 176.0
100.362518 156.0
100.39315 132.0
100.418968 144.0
100.442482 144.0
100.468948 112.0
100.507126 204.0
100.546448 176.0
100.586685 32.0
100.668549 268.0
100.698509 188.0
100.815979 164.0
100.843895 136.0
100.886337 236.0
100.926331 148.0
100.987297 132.0
101.035942 312.0
101.086357 100.0
101.106369 104.0
101.16642 52.0
101.209625 164.0
101.306602 144.0
101.334656 120.0
101.390762 148.0
101.499016 64.0
101.514168 184.0
101.648209 128.0
101.683586 164.0
101.70285 152.0
101.765892 64.0
101.789986 180.0
101.809113 176.0
101.844208 136.0
101.860283 172.0
101.898453 128.0
101.956726 132.0
101.976822 184.0
102.045174 172.0
102.083382 108.0
102.123604 88.0
102.232246 120.0
102.324905 136.0
102.360443 120.0
102.381226 32.0
102.544418 220.0
102.591072 196.0
102.631104 112.0
102.735985 140.0
102.840919 144.0
102.900749 232.0
102.908409 148.0
102.93177 200.0
103.050827 136.0
103.097992 156.0
103.210625 168.0
103.287483 88.0
103.334648 188.0
103.389839 136.0
103.420792 152.0
103.465569 184.0
103.512138 168.0
103.57679 176.0
103.720818 136.0
103.785698 140.0
103.803947 120.0
103.846535 136.0
103.870872 256.0
103.968269 92.0
104.002769 132.0
104.051491 168.0
104.098198 100.0
104.118507 184.0
104.13475 188.0
104.155067 168.0
104.20179 124.0
104.225128 164.0
104.28511 112.0
104.311455 172.0
104.366425 132.0
104.466454 132.0
104.506775 80.0
104.527122 172.0
104.556686 228.0
104.573936 192.0
104.608536 212.0
104.626862 60.0
104.653862 92.0
104.717552 152.0
104.755165 164.0
104.793869 116.0
104.81221 116.0
104.850929 48.0
104.877426 80.0
104.948784 112.0
104.96917 192.0
104.990768 156.0
105.015266 84.0
105.033455 108.0
105.067612 440.0
105.09156 40.0
105.189522 160.0
105.209938 144.0
105.233986 108.0
105.272758 136.0
105.340637 88.0
105.354942 60.0
105.377411 152.0
105.414192 148.0
105.46563 168.0
105.494743 176.0
105.542976 112.0
105.561378 180.0
105.626831 132.0
105.65612 152.0
105.692299 216.0
105.716858 116.0
105.768822 144.0
105.808968 132.0
105.824829 176.0
105.839684 116.0
105.860161 120.0
105.935944 128.0
105.952332 184.0
106.003555 168.0
106.024635 112.0
106.054359 188.0
106.073418 244.0
106.101944 196.0
106.144539 160.0
106.177818 68.0
106.216476 160.0
106.25782 164.0
106.321426 112.0
106.370689 88.0
106.39122 128.0
106.427452 216.0
106.456924 160.0
106.483627 132.0
106.510765 112.0
106.534981 44.0
106.552666 128.0
106.567589 124.0
106.572342 152.0
106.608559 188.0
106.652107 136.0
106.672668 60.0
106.69574 164.0
106.757309 144.0
106.796043 64.0
106.845749 124.0
106.86393 164.0
106.931839 108.0
106.99073 92.0
107.020363 156.0
107.051254 160.0
107.067726 132.0
107.104805 224.0
107.162483 124.0
107.19133 144.0
107.263474 172.0
107.337509 132.0
107.360374 84.0
107.407814 96.0
107.487442 188.0
107.523361 188.0
107.544006 112.0
107.561394 160.0
107.566223 68.0
107.57399 144.0
107.605934 92.0
107.633492 104.0
107.654251 160.0
107.678207 180.0
107.692665 152.0
107.746376 160.0
107.814568 100.0
107.867416 344.0
107.958458 220.0
108.037888 84.0
108.081337 76.0
108.108238 160.0
108.133072 180.0
108.176544 92.0
108.242798 164.0
108.311142 172.0
108.344185 160.0
108.430809 180.0
108.454117 80.0
108.537048 208.0
108.651642 176.0
108.676025 192.0
108.713486 144.0
108.747841 92.0
108.771492 36.0
108.786018 52.0
108.813431 176.0
108.840004 64.0
108.866997 124.0
108.908539 124.0
108.993713 128.0
109.016579 112.0
109.056061 100.0
109.098717 452.0
109.120506 124.0
109.137146 108.0
109.189133 164.0
109.260773 172.0
109.302254 120.0
109.327866 164.0
109.349594 192.0
109.449265 88.0
109.476334 164.0
109.561737 160.0
109.605492 112.0
109.634666 136.0
109.818138 60.0
109.868202 148.0
109.884895 108.0
109.982391 156.0
110.022568 188.0
110.079018 132.0
110.09285 140.0
110.122292 160.0
110.185547 84.0
110.204353 88.0
110.303574 184.0
110.323479 152.0
110.3423 84.0
110.395866 136.0
110.438492 68.0
110.462952 220.0
110.49498 172.0
110.528458 108.0
110.607986 200.0
110.640846 212.0
110.720512 156.0
110.741997 124.0
110.851288 168.0
110.974609 144.0
111.01236 236.0
111.033333 52.0
111.081795 164.0
111.148712 120.0
111.200005 272.0
111.417465 108.0
111.517616 164.0
111.521759 108.0
111.568787 348.0
111.594017 104.0
111.625557 156.0
111.668755 160.0
111.697067 224.0
111.732178 168.0
111.753868 132.0
111.80648 104.0
111.827522 160.0
111.841713 124.0
111.857391 148.0
111.878044 136.0
111.90963 168.0
111.930687 124.0
111.960167 104.0
111.980415 216.0
111.998077 228.0
112.026634 160.0
112.048637 136.0
112.071434 164.0
112.083565 328.0
112.213036 132.0
112.230492 172.0
112.24826 68.0
112.255821 96.0
112.331139 128.0
112.391045 152.0
112.46344 160.0
112.527351 152.0
112.555443 172.0
112.643562 152.0
112.690041 116.0
112.734413 180.0
112.75132 128.0
112.785141 152.0
112.818962 68.0
112.871826 116.0
112.892967 112.0
112.922577 168.0
113.026245 128.0
113.102432 104.0
113.144768 168.0
113.16806 140.0
113.187119 36.0
113.278191 168.0
113.355736 260.0
113.379898 56.0
113.39473 180.0
113.449844 176.0
113.473076 184.0
113.541023 172.0
113.634361 124.0
113.661949 148.0
113.761703 184.0
113.836014 100.0
113.889114 180.0
113.916725 116.0
113.932823 180.0
113.974091 144.0
114.040985 184.0
114.065483 100.0
114.148399 72.0
114.201569 136.0
114.216782 132.0
114.233475 168.0
114.254112 188.0
114.273895 108.0
114.297302 132.0
114.348381 156.0
114.399315 168.0
114.440201 152.0
114.473991 108.0
114.491028 112.0
114.550667 216.0
114.663597 52.0
114.761658 120.0
114.787544 172.0
114.804771 128.0
114.828049 152.0
114.859238 180.0
114.883224 96.0
114.930099 124.0
114.953636 112.0
115.048477 268.0
115.090256 188.0
115.18898 164.0
115.227646 148.0
115.25473 208.0
115.500595 200.0
115.53054 64.0
115.576485 116.0
115.757423 216.0
115.783127 96.0
115.81749 184.0
115.883804 60.0
115.907799 204.0
115.954521 200.0
115.973816 144.0
116.010254 208.0
116.03598 252.0
116.06514 140.0
116.106743 88.0
116.128197 204.0
116.143211 100.0
116.184074 164.0
116.239754 164.0
116.259071 148.0
116.295555 132.0
116.327751 208.0
116.398605 148.0
116.454277 152.0
116.500122 136.0
116.522896 176.0
116.62336 52.0
116.680084 132.0
116.701584 156.0
116.766098 148.0
116.813416 44.0
116.869354 128.0
116.916695 100.0
116.976967 176.0
117.034836 196.0
117.039925 116.0
117.06852 2080.0
117.093239 312.0
117.115501 36.0
117.129547 148.0
117.148018 56.0
117.16433 76.0
117.185875 80.0
117.20536 88.0
117.243378 192.0
117.267761 84.0
117.308716 84.0
117.343216 108.0
117.364777 128.0
117.451042 212.0
117.523354 100.0
117.548126 156.0
117.574028 184.0
117.671165 200.0
117.742424 164.0
117.764023 68.0
117.889633 144.0
117.930397 220.0
117.949852 144.0
117.988762 104.0
118.029846 52.0
118.076134 596.0
118.116768 104.0
118.161789 120.0
118.248344 48.0
118.280815 56.0
118.300018 156.0
118.337837 188.0
118.360001 104.0
118.382576 60.0
118.410728 64.0
118.498291 116.0
118.553719 148.0
118.629578 232.0
118.740166 176.0
118.887695 192.0
118.950638 196.0
118.981033 144.0
119.047585 140.0
119.083893 628.0
119.160187 156.0
119.183029 108.0
119.230835 212.0
119.248222 56.0
119.285179 100.0
119.306915 128.0
119.322136 92.0
119.372147 200.0
119.398247 208.0
119.439201 188.0
119.493744 128.0
119.541832 72.0
119.622475 136.0
119.685501 140.0
119.755051 124.0
119.780922 172.0
119.811829 120.0
119.853226 128.0
119.877197 176.0
119.903343 132.0
120.004059 180.0
120.047737 224.0
120.080757 2388.0
120.127937 28.0
120.14975 48.0
120.177002 180.0
120.19426 60.0
120.258026 136.0
120.274139 160.0
120.291603 128.0
120.310524 180.0
120.350555 156.0
120.384529 208.0
120.43354 224.0
120.455383 148.0
120.510002 224.0
120.551521 100.0
120.579933 124.0
120.633507 180.0
120.682678 140.0
120.697983 164.0
120.730789 168.0
120.770157 152.0
120.802757 168.0
120.844536 120.0
120.938637 156.0
120.977745 88.0
121.081802 396.0
121.164192 208.0
121.190483 152.0
121.219978 140.0
121.238693 168.0
121.258423 68.0
121.273766 104.0
121.317604 164.0
121.341721 128.0
121.365837 76.0
121.436951 132.0
121.485847 108.0
121.522926 188.0
121.609352 184.0
121.629112 156.0
121.653259 52.0
121.668625 116.0
121.708145 88.0
121.765244 196.0
121.809174 212.0
121.833336 88.0
121.894913 164.0
121.976181 140.0
122.022606 172.0
122.096123 160.0
122.1455 268.0
122.187302 164.0
122.202705 192.0
122.221497 244.0
122.266518 124.0
122.354568 92.0
122.384544 200.0
122.455551 288.0
122.521065 140.0
122.549797 188.0
122.588051 68.0
122.618027 120.0
122.637657 124.0
122.766617 144.0
122.784264 168.0
122.801903 112.0
122.898972 80.0
122.925453 188.0
122.955551 176.0
122.960083 52.0
122.984612 144.0
123.012321 112.0
123.052277 144.0
123.12635 140.0
123.169823 200.0
123.199242 204.0
123.23819 248.0
123.282906 160.0
123.305313 136.0
123.340675 88.0
123.356148 32.0
123.37162 48.0
123.390839 100.0
123.468918 176.0
123.48661 220.0
123.577194 156.0
123.586098 148.0
123.730026 132.0
123.758812 104.0
123.780952 144.0
123.799347 144.0
123.829193 292.0
123.860756 120.0
123.94709 128.0
123.989197 92.0
124.004707 108.0
124.02668 136.0
124.064117 100.0
124.084518 140.0
124.139946 60.0
124.168777 140.0
124.202049 88.0
124.239761 72.0
124.270821 144.0
124.301888 168.0
124.318718 220.0
124.348495 128.0
124.364029 96.0
124.395111 152.0
124.461716 96.0
124.512794 96.0
124.554214 344.0
124.594978 120.0
124.623306 128.0
124.660545 268.0
124.714981 212.0
124.792046 108.0
124.988533 164.0
125.009956 140.0
125.115402 28.0
125.144341 164.0
125.176216 192.0
125.197395 160.0
125.20636 132.0
125.210068 272.0
125.226738 132.0
125.246788 156.0
125.277008 212.0
125.293571 168.0
125.333672 136.0
125.478554 176.0
125.52092 180.0
125.66272 156.0
125.688217 88.0
125.788651 184.0
125.844719 108.0
125.919067 364.0
125.946152 180.0
125.962669 160.0
126.034836 192.0
126.143539 176.0
126.168434 176.0
126.19973 148.0
126.246696 100.0
126.298134 156.0
126.313789 172.0
126.338402 128.0
126.36972 160.0
126.405525 160.0
126.426727 120.0
126.490578 156.0
126.506248 116.0
126.553261 148.0
126.624329 120.0
126.676437 104.0
126.724136 208.0
126.748138 176.0
126.802719 124.0
126.848991 80.0
126.89193 176.0
126.929176 236.0
126.954376 156.0
127.049706 148.0
127.076981 204.0
127.118141 180.0
127.169762 132.0
127.185471 140.0
127.2994 156.0
127.337692 200.0
127.392067 72.0
127.425766 108.0
127.463959 28.0
127.517899 120.0
127.538132 196.0
127.553864 264.0
127.622849 152.0
127.68203 184.0
127.704521 52.0
127.738258 112.0
127.755928 136.0
127.803505 124.0
127.830505 188.0
127.854095 316.0
127.929543 140.0
127.950905 196.0
127.983574 328.0
128.023926 436.0
128.049088 37352.0
128.095963 156.0
128.163773 124.0
128.222366 136.0
128.273575 172.0
128.344101 68.0
128.364395 164.0
128.386948 92.0
128.406113 60.0
128.447845 156.0
128.463638 168.0
128.479431 60.0
128.5065 104.0
128.530579 180.0
128.571945 64.0
128.611786 160.0
128.645569 52.0
128.659058 196.0
128.688278 120.0
128.722275 176.0
128.728851 104.0
128.736328 152.0
128.807022 176.0
128.835236 116.0
128.867767 140.0
128.963318 144.0
128.9785 184.0
128.99649 192.0
129.014084 232.0
129.069336 13856.0
129.107895 156.0
129.131134 48.0
129.15126 60.0
129.166183 272.0
129.183441 80.0
129.202377 84.0
129.242783 112.0
129.274155 72.0
129.313263 176.0
129.428726 184.0
129.474014 36.0
129.50798 120.0
129.523849 112.0
129.555557 116.0
129.587708 168.0
129.607666 152.0
129.666595 136.0
129.734589 124.0
129.764069 120.0
129.829834 176.0
129.860855 176.0
129.89447 160.0
129.920563 100.0
130.001694 528.0
130.022675 212.0
130.071686 1564.0
130.091125 296.0
130.132904 140.0
130.150391 76.0
130.166428 124.0
130.229507 204.0
130.279251 52.0
130.304245 156.0
130.320145 156.0
130.340607 48.0
130.395203 168.0
130.413589 188.0
130.448669 88.0
130.467026 92.0
130.495163 132.0
130.520172 44.0
130.54747 164.0
130.566849 176.0
130.637878 96.0
130.653748 160.0
130.690781 80.0
130.719864 132.0
130.785522 196.0
130.825058 120.0
130.881973 60.0
130.914932 128.0
130.97998 140.0
131.004974 72.0
131.032303 188.0
131.083923 936.0
131.120895 128.0
131.159927 120.0
131.205215 120.0
131.305862 120.0
131.326385 68.0
131.351624 124.0
131.385696 140.0
131.424484 148.0
131.486099 44.0
131.508926 140.0
131.543152 60.0
131.559143 52.0
131.586533 88.0
131.760117 284.0
131.80809 216.0
131.851517 120.0
131.96582 152.0
132.01384 208.0
132.047958 196.0
132.088074 160.0
132.114471 92.0
132.13736 124.0
132.153366 196.0
132.173965 56.0
132.272385 132.0
132.357437 184.0
132.412048 128.0
132.471603 172.0
132.48764 72.0
132.540344 132.0
132.583878 128.0
132.610153 336.0
132.65361 152.0
132.697098 180.0
132.723724 200.0
132.751236 52.0
132.78334 100.0
132.810699 168.0
132.836105 184.0
132.870514 72.0
132.916336 148.0
132.935455 120.0
132.954102 144.0
132.971008 156.0
132.999023 104.0
133.017395 128.0
133.035751 128.0
133.080521 272.0
133.107925 132.0
133.129639 212.0
133.194199 28.0
133.226364 40.0
133.242447 220.0
133.283813 152.0
133.34816 144.0
133.435501 120.0
133.504486 144.0
133.559692 124.0
133.588516 184.0
133.704651 100.0
133.865799 100.0
133.92395 132.0
134.017822 348.0
134.042267 208.0
134.094727 504.0
134.167648 196.0
134.183777 80.0
134.248352 164.0
134.299088 128.0
134.317047 132.0
134.335999 100.0
134.382141 148.0
134.419052 132.0
134.46405 120.0
134.496414 116.0
134.562164 64.0
134.636063 108.0
134.663773 36.0
134.682251 84.0
134.720612 152.0
134.740005 36.0
134.765427 228.0
134.796249 184.0
134.874039 100.0
134.980392 36.0
135.012772 184.0
135.059021 104.0
135.082153 164.0
135.107208 116.0
135.191116 172.0
135.225677 176.0
135.253387 108.0
135.269592 124.0
135.285797 108.0
135.306641 152.0
135.327484 128.0
135.350632 120.0
135.380737 52.0
135.457169 164.0
135.491928 112.0
135.584549 164.0
135.618713 180.0
135.627563 128.0
135.700516 96.0
135.753845 84.0
135.800232 88.0
135.827103 164.0
135.879532 332.0
135.899979 120.0
135.941757 184.0
135.962463 204.0
136.006744 164.0
136.039001 1192.0
136.080429 200.0
136.111053 552.0
136.230576 144.0
136.322601 32.0
136.399307 176.0
136.431854 144.0
136.466904 160.0
136.594635 160.0
136.629532 128.0
136.666763 44.0
136.72261 212.0
136.74588 88.0
136.818054 48.0
136.878586 204.0
136.934418 152.0
137.039307 116.0
137.07193 184.0
137.089279 188.0
137.115677 300.0
137.202454 176.0
137.294678 168.0
137.311432 348.0
137.332016 136.0
137.435699 176.0
137.456696 128.0
137.529037 144.0
137.583771 144.0
137.62709 144.0
137.685471 192.0
137.708832 200.0
137.74855 108.0
137.770752 144.0
137.850876 336.0
137.886398 164.0
137.904388 304.0
137.933151 132.0
137.951859 144.0
137.968216 84.0
137.995026 120.0
138.04361 132.0
138.077164 176.0
138.127533 18148.0
138.188736 28.0
138.220825 116.0
138.263916 120.0
138.292923 104.0
138.297684 76.0
138.309006 188.0
138.334976 184.0
138.364227 60.0
138.405746 80.0
138.439743 116.0
138.456345 152.0
138.511139 100.0
138.529877 200.0
138.571793 144.0
138.578125 128.0
138.587082 220.0
138.604858 104.0
138.623108 172.0
138.632843 136.0
138.640411 164.0
138.670471 84.0
138.7509 128.0
138.768463 200.0
138.855698 152.0
138.884125 168.0
138.921371 92.0
138.966736 108.0
139.012878 76.0
139.04808 116.0
139.080948 204.0
139.130676 1452.0
139.195175 248.0
139.231216 156.0
139.275833 128.0
139.449707 40.0
139.534348 188.0
139.57666 148.0
139.673096 152.0
139.722488 148.0
139.776169 168.0
139.808014 164.0
139.835449 40.0
139.872208 168.0
139.954941 148.0
139.98848 128.0
140.014374 124.0
140.032776 344.0
140.077972 76.0
140.103638 76.0
140.126709 328.0
140.212311 208.0
140.264359 168.0
140.274048 176.0
140.279663 204.0
140.356079 60.0
140.431549 172.0
140.45546 60.0
140.514114 252.0
140.577377 168.0
140.658081 168.0
140.712158 44.0
140.764328 168.0
140.797379 60.0
140.854065 92.0
140.896637 184.0
140.98111 104.0
141.00766 132.0
141.069962 252.0
141.170792 40.0
141.247284 268.0
141.326111 196.0
141.343475 84.0
141.388428 100.0
141.404999 96.0
141.539459 156.0
141.563629 180.0
141.592041 120.0
141.63942 92.0
141.893143 184.0
141.992584 128.0
142.021042 172.0
142.068481 116.0
142.094589 104.0
142.124893 160.0
142.175262 224.0
142.210861 160.0
142.281021 144.0
142.301071 72.0
142.405563 148.0
142.480865 140.0
142.590881 100.0
142.609909 140.0
142.633667 68.0
142.678848 52.0
142.714844 196.0
142.823898 100.0
142.864349 160.0
142.930969 108.0
143.030914 172.0
143.071396 168.0
143.111862 164.0
143.143555 104.0
143.16188 148.0
143.190445 156.0
143.242859 152.0
143.3134 164.0
143.335693 124.0
143.367035 152.0
143.443024 360.0
143.474014 96.0
143.571777 184.0
143.592377 208.0
143.646866 168.0
143.727142 224.0
143.860489 92.0
144.078094 264.0
144.099319 196.0
144.119995 148.0
144.14473 168.0
144.185349 180.0
144.216415 152.0
144.24054 168.0
144.333572 76.0
144.402924 168.0
144.436401 44.0
144.510574 108.0
144.529709 212.0
144.553635 156.0
144.577576 168.0
144.659637 208.0
144.69902 140.0
144.739105 84.0
144.828964 84.0
144.896042 100.0
144.916824 160.0
144.983505 136.0
145.025452 164.0
145.043335 148.0
145.063324 144.0
145.183685 132.0
145.282043 124.0
145.316696 152.0
145.335266 108.0
145.382812 120.0
145.421219 100.0
145.440414 84.0
145.462021 144.0
145.493073 232.0
145.547592 188.0
145.674377 200.0
145.738358 128.0
145.764648 120.0
145.795883 112.0
145.846359 184.0
145.921906 160.0
145.940125 192.0
145.956955 124.0
145.983398 116.0
146.007446 152.0
146.059311 11508.0
146.095016 6984.0
146.136978 104.0
146.14296 156.0
146.204727 84.0
146.264908 112.0
146.286575 48.0
146.322449 140.0
146.347137 156.0
146.387695 140.0
146.428635 172.0
146.472931 112.0
146.495468 172.0
146.561127 168.0
146.667175 192.0
146.753967 124.0
146.790131 40.0
146.831131 156.0
146.897324 204.0
146.932144 192.0
146.973465 132.0
147.079025 2600.0
147.147247 40.0
147.174347 160.0
147.190094 140.0
147.212448 188.0
147.295837 160.0
147.316299 144.0
147.335403 124.0
147.39473 116.0
147.424088 112.0
147.467117 132.0
147.501404 168.0
147.581192 240.0
147.606735 168.0
147.636292 260.0
147.709381 292.0
147.778076 120.0
147.795013 180.0
147.814377 168.0
147.858948 200.0
147.916031 184.0
147.958969 188.0
147.997574 280.0
148.056396 144.0
148.082474 720.0
148.110825 412.0
148.155777 88.0
148.242996 104.0
148.263458 244.0
148.302567 104.0
148.337463 140.0
148.410263 124.0
148.436935 44.0
148.470398 196.0
148.508026 192.0
148.536377 232.0
148.5849 72.0
148.640701 152.0
148.705231 136.0
148.749924 108.0
148.784973 208.0
148.884491 180.0
148.912613 76.0
148.934464 56.0
148.951477 264.0
149.055939 108.0
149.093491 112.0
149.115555 180.0
149.142944 160.0
149.192047 104.0
149.264999 128.0
149.307007 160.0
149.387512 108.0
149.408508 136.0
149.464462 40.0
149.515564 132.0
149.57399 64.0
149.632416 216.0
149.659195 184.0
149.707901 332.0
149.795578 112.0
149.834564 116.0
149.883286 124.0
149.914459 112.0
149.941071 124.0
149.974594 240.0
149.990601 124.0
150.024658 88.0
150.088043 144.0
150.126923 10904.0
150.185593 96.0
150.205826 96.0
150.237915 116.0
150.271652 140.0
150.303101 220.0
150.324661 144.0
150.36615 88.0
150.393005 96.0
150.43483 60.0
150.480881 112.0
150.530121 172.0
150.55658 56.0
150.615814 128.0
150.641159 140.0
150.665329 192.0
150.737549 104.0
150.766479 140.0
150.820053 120.0
150.846817 92.0
150.979385 148.0
151.006287 172.0
151.030746 40.0
151.047867 48.0
151.129471 1972.0
151.154678 188.0
151.213318 52.0
151.230927 168.0
151.301392 172.0
151.336655 116.0
151.366043 120.0
151.388077 120.0
151.412567 108.0
151.434616 100.0
151.461563 132.0
151.527695 240.0
151.68454 168.0
151.736359 152.0
151.794876 88.0
151.812912 192.0
151.864594 56.0
151.951859 100.0
152.012344 172.0
152.034363 164.0
152.073578 176.0
152.103531 504.0
152.14299 22376.0
152.250229 152.0
152.279236 88.0
152.300461 88.0
152.343277 68.0
152.362961 152.0
152.383774 96.0
152.402573 92.0
152.442734 132.0
152.469986 64.0
152.528137 200.0
152.552826 80.0
152.70813 56.0
152.728149 136.0
152.778641 152.0
152.824142 200.0
152.856094 48.0
152.874359 160.0
152.92894 120.0
152.99884 152.0
153.087494 68.0
153.145111 3384.0
153.181091 164.0
153.245132 108.0
153.315536 148.0
153.356033 136.0
153.391464 96.0
153.432449 184.0
153.477631 160.0
153.502075 152.0
153.523987 164.0
153.686493 72.0
153.713638 128.0
153.812363 108.0
153.86174 148.0
153.878403 96.0
153.925934 244.0
153.965454 152.0
154.027191 172.0
154.064133 172.0
154.098846 108.0
154.122345 528.0
154.15387 388.0
154.2397 148.0
154.274933 128.0
154.306458 64.0
154.38063 136.0
154.437515 152.0
154.479568 124.0
154.529053 56.0
154.573593 32.0
154.628662 220.0
154.684967 88.0
154.755341 164.0
154.836014 104.0
154.862579 204.0
154.932617 88.0
154.978088 148.0
155.01004 148.0
155.059402 1588.0
155.097122 136.0
155.119049 244.0
155.170547 88.0
155.197815 108.0
155.217651 68.0
155.255432 168.0
155.284607 132.0
155.384277 216.0
155.403687 176.0
155.463242 88.0
155.562531 124.0
155.579895 140.0
155.612183 164.0
155.684189 232.0
155.711502 64.0
155.75621 168.0
155.818329 124.0
155.858948 112.0
155.90033 144.0
155.969849 140.0
156.044098 23172.0
156.134064 144.0
156.197235 48.0
156.218582 44.0
156.240982 36.0
156.285767 124.0
156.313141 116.0
156.414795 128.0
156.474121 112.0
156.53717 92.0
156.607635 152.0
156.64093 176.0
156.659225 152.0
156.712814 156.0
156.745148 132.0
156.783813 100.0
156.822556 132.0
156.846115 356.0
156.895981 260.0
156.919418 148.0
156.989792 284.0
157.016357 216.0
157.04686 2224.0
157.125748 160.0
157.185303 152.0
157.277649 120.0
157.311584 112.0
157.33757 144.0
157.355042 100.0
157.394989 160.0
157.423019 72.0
157.446167 252.0
157.46492 172.0
157.482117 144.0
157.557343 176.0
157.579834 144.0
157.599045 116.0
157.608688 80.0
157.617432 160.0
157.663437 96.0
157.72728 64.0
157.762268 76.0
157.798706 132.0
157.868927 116.0
157.917313 68.0
158.003845 128.0
158.018661 156.0
158.053497 316.0
158.095306 164.0
158.129974 144.0
158.147507 76.0
158.176407 80.0
158.200073 132.0
158.240128 144.0
158.282578 88.0
158.336975 148.0
158.343994 100.0
158.377869 160.0
158.402771 72.0
158.470551 56.0
158.503128 244.0
158.570801 96.0
158.593353 56.0
158.713074 196.0
158.73877 128.0
158.792313 308.0
158.957016 340.0
159.052689 160.0
159.097565 108.0
159.140244 52.0
159.23819 64.0
159.273926 104.0
159.336151 284.0
159.363159 192.0
159.383896 196.0
159.414047 108.0
159.617676 44.0
159.889359 156.0
159.951004 116.0
160.00264 148.0
160.020264 72.0
160.054581 172.0
160.077316 140.0
160.112976 264.0
160.18396 200.0
160.204117 72.0
160.250519 172.0
160.265427 108.0
160.291733 176.0
160.325058 140.0
160.347748 164.0
160.438492 220.0
160.458664 152.0
160.51918 92.0
160.541779 120.0
160.574661 144.0
160.612488 228.0
160.65033 152.0
160.67189 116.0
160.69574 84.0
160.756302 68.0
160.779022 72.0
160.840408 148.0
160.859787 224.0
160.938156 96.0
160.967606 260.0
160.996124 204.0
161.028961 88.0
161.055984 160.0
161.119904 136.0
161.140121 48.0
161.196472 92.0
161.236145 96.0
161.322083 152.0
161.392517 412.0
161.415634 176.0
161.453568 176.0
161.481384 60.0
161.531967 124.0
161.568741 92.0
161.628113 220.0
161.683792 96.0
161.75351 140.0
161.982559 164.0
161.999619 168.0
162.093323 372.0
162.126984 124.0
162.161026 204.0
162.18782 152.0
162.256271 144.0
162.391342 144.0
162.414902 188.0
162.532928 152.0
162.573761 168.0
162.591904 140.0
162.659637 172.0
162.68248 148.0
162.87294 84.0
162.972015 136.0
163.017746 168.0
163.06604 196.0
163.085434 152.0
163.12149 216.0
163.125992 116.0
163.208405 40.0
163.238922 144.0
163.305344 100.0
163.386444 144.0
163.450058 120.0
163.530167 148.0
163.549316 76.0
163.60022 168.0
163.666412 216.0
163.707169 160.0
163.737717 112.0
163.774368 212.0
163.796783 128.0
163.844711 196.0
163.97522 128.0
164.002914 188.0
164.061676 184.0
164.105164 7992.0
164.142258 1520.0
164.166092 192.0
164.211777 132.0
164.260254 172.0
164.309326 184.0
164.346405 260.0
164.374283 156.0
164.401398 120.0
164.429703 136.0
164.461136 88.0
164.492462 164.0
164.56395 96.0
164.627792 112.0
164.658432 60.0
164.694199 112.0
164.742722 60.0
164.760605 80.0
164.781815 108.0
164.799698 156.0
164.809708 128.0
164.817596 184.0
164.86026 184.0
164.916489 92.0
165.026413 80.0
165.049438 152.0
165.069885 28.0
165.111389 644.0
165.144379 240.0
165.251495 64.0
165.394821 140.0
165.42041 44.0
165.445923 124.0
165.502335 104.0
165.522827 56.0
165.555222 172.0
165.58429 120.0
165.656006 140.0
165.699554 120.0
165.755936 200.0
165.822571 132.0
165.863571 68.0
165.90715 204.0
165.927658 180.0
165.976379 68.0
166.049194 272.0
166.121399 2744.0
166.232895 40.0
166.292206 168.0
166.368942 308.0
166.452682 156.0
166.494751 36.0
166.615494 120.0
166.707993 100.0
166.728546 204.0
166.746536 172.0
166.851929 136.0
166.895645 48.0
166.918777 172.0
166.937363 160.0
166.980499 80.0
167.052521 164.0
167.096268 80.0
167.126297 404.0
167.185883 116.0
167.235229 40.0
167.280624 120.0
167.296005 196.0
167.334442 104.0
167.364914 148.0
167.381973 176.0
167.403381 152.0
167.430908 160.0
167.466965 60.0
167.493103 240.0
167.523636 208.0
167.549393 116.0
167.576279 164.0
167.597351 72.0
167.631851 84.0
167.674286 248.0
167.700256 132.0
167.740265 120.0
167.765869 120.0
167.805939 144.0
167.869019 80.0
167.941223 212.0
168.031509 104.0
168.067642 88.0
168.106339 124.0
168.145462 204.0
168.215897 216.0
168.233398 124.0
168.267334 140.0
168.284912 168.0
168.336105 120.0
168.416534 240.0
168.483322 196.0
168.519104 212.0
168.669388 160.0
168.758026 156.0
168.82193 136.0
168.873657 56.0
168.935745 168.0
168.964203 84.0
168.990768 228.0
169.059937 208.0
169.091003 128.0
169.132416 132.0
169.155716 168.0
169.202316 152.0
169.292938 60.0
169.348038 144.0
169.382416 256.0
169.470169 152.0
169.492401 216.0
169.551361 144.0
169.596069 180.0
169.699768 132.0
169.720505 108.0
169.737717 160.0
169.795715 84.0
169.832031 76.0
169.935791 152.0
169.998077 168.0
170.062073 216.0
170.09256 156.0
170.153809 80.0
170.174591 116.0
170.210938 172.0
170.239502 164.0
170.319382 148.0
170.357101 232.0
170.384018 88.0
170.431732 52.0
170.477264 244.0
170.520081 112.0
170.553879 84.0
170.595474 160.0
170.633606 140.0
170.663071 52.0
170.728073 88.0
170.74707 176.0
170.785736 188.0
170.806107 60.0
170.873749 144.0
170.896774 108.0
170.970032 112.0
170.996048 144.0
171.01947 44.0
171.037689 68.0
171.083405 164.0
171.228668 184.0
171.266846 264.0
171.305084 100.0
171.344986 120.0
171.372849 104.0
171.402313 112.0
171.443756 144.0
171.464859 156.0
171.515442 148.0
171.523026 176.0
171.571671 208.0
171.600418 144.0
171.676025 84.0
171.741241 148.0
171.79863 160.0
171.816879 236.0
171.852585 100.0
171.912094 164.0
171.944748 44.0
171.968231 112.0
172.028275 100.0
172.075119 4752.0
172.107162 168.0
172.15361 240.0
172.204102 36.0
172.246216 148.0
172.292984 156.0
172.328964 208.0
172.40477 140.0
172.443604 196.0
172.477585 60.0
172.507965 172.0
172.545547 152.0
172.582153 160.0
172.610916 100.0
172.70932 168.0
172.764008 196.0
172.804138 60.0
172.890839 116.0
172.922241 152.0
172.960297 96.0
172.979004 128.0
172.983246 184.0
173.011246 48.0
173.070267 25996.0
173.156494 144.0
173.182175 160.0
173.189316 44.0
173.200058 160.0
173.244324 220.0
173.262665 124.0
173.291473 188.0
173.326233 168.0
173.349121 48.0
173.384171 140.0
173.417267 116.0
173.450745 200.0
173.480179 48.0
173.517563 144.0
173.561905 252.0
173.65593 156.0
173.718201 184.0
173.789658 80.0
173.944504 100.0
173.973373 28.0
173.99176 112.0
174.012756 64.0
174.054291 17548.0
174.123947 156.0
174.148376 140.0
174.176666 116.0
174.217346 96.0
174.243042 168.0
174.305634 48.0
174.37114 152.0
174.413269 88.0
174.435349 192.0
174.47345 92.0
174.492325 188.0
174.522491 116.0
174.554047 112.0
174.580353 64.0
174.604019 40.0
174.626877 104.0
174.679306 64.0
174.720474 116.0
174.77832 156.0
174.807739 56.0
174.85585 72.0
174.883636 72.0
174.919754 136.0
175.000229 248.0
175.058243 1396.0
175.135681 184.0
175.156754 172.0
175.18837 140.0
175.233154 76.0
175.259506 44.0
175.280197 124.0
175.299744 280.0
175.333298 56.0
175.367554 132.0
175.417633 68.0
175.44664 156.0
175.475632 100.0
175.499359 88.0
175.567932 100.0
175.660248 168.0
175.692703 100.0
175.758881 156.0
175.784256 116.0
175.822128 136.0
175.850235 148.0
175.868713 48.0
175.887177 52.0
175.971451 136.0
175.998062 200.0
176.057541 224.0
176.080811 108.0
176.088562 148.0
176.110519 172.0
176.143082 260.0
176.180313 76.0
176.233154 120.0
176.259567 128.0
176.285995 132.0
176.315063 168.0
176.369461 76.0
176.407578 56.0
176.494827 140.0
176.518631 116.0
176.550003 148.0
176.590042 100.0
176.629715 108.0
176.656158 52.0
176.699783 120.0
176.719666 128.0
176.759354 152.0
176.812286 140.0
176.88031 148.0
176.955231 28.0
177.069092 116.0
177.1353 424.0
177.195694 268.0
177.246582 88.0
177.278381 128.0
177.34729 128.0
177.379105 176.0
177.423813 148.0
177.532883 148.0
177.623062 172.0
177.65416 144.0
177.682129 212.0
177.753067 104.0
177.771652 36.0
177.794434 188.0
177.843307 212.0
177.938873 136.0
177.997284 136.0
178.021194 96.0
178.03978 180.0
178.076965 92.0
178.121048 336.0
178.138733 340.0
178.353302 60.0
178.374557 60.0
178.403809 48.0
178.454315 44.0
178.480911 280.0
178.539413 324.0
178.563354 204.0
178.605911 240.0
178.670715 176.0
178.717651 44.0
178.784164 204.0
178.850708 100.0
178.885315 128.0
179.010147 164.0
179.0504 124.0
179.086273 184.0
179.108994 104.0
179.12764 148.0
179.153854 368.0
179.232346 176.0
179.252869 112.0
179.407455 116.0
179.454239 312.0
179.513275 152.0
179.548782 116.0
179.63681 212.0
179.715408 164.0
179.748871 104.0
179.811493 156.0
179.866302 92.0
179.930374 164.0
179.965546 208.0
180.002457 144.0
180.0345 44.0
180.140594 380.0
180.166916 132.0
180.200119 152.0
180.218826 144.0
180.315033 204.0
180.356323 168.0
180.435196 248.0
180.512863 232.0
180.563675 132.0
180.587753 120.0
180.617172 124.0
180.665314 188.0
180.686722 204.0
180.736938 304.0
180.81517 32.0
180.855316 192.0
180.88208 28.0
180.922241 108.0
180.964798 152.0
181.048096 120.0
181.07547 336.0
181.134552 560.0
181.16983 120.0
181.269348 176.0
181.310638 120.0
181.381271 124.0
181.581421 220.0
181.618973 80.0
181.645798 124.0
181.722855 116.0
181.752899 148.0
181.836304 248.0
181.857788 152.0
181.930252 156.0
181.951736 136.0
182.011261 120.0
182.060349 1036.0
182.134262 252.0
182.206879 184.0
182.27034 200.0
182.362747 160.0
182.405746 208.0
182.499847 132.0
182.553619 176.0
182.621017 144.0
182.67749 152.0
182.70694 116.0
182.747025 192.0
182.774216 124.0
182.900696 324.0
182.954544 176.0
183.000305 168.0
183.062973 372.0
183.101624 160.0
183.151398 772.0
183.210388 120.0
183.242722 56.0
183.288025 152.0
183.291977 212.0
183.444839 140.0
183.474213 76.0
183.521988 156.0
183.628204 92.0
183.647079 140.0
183.671356 132.0
183.692947 400.0
183.72261 172.0
183.75769 88.0
183.791794 112.0
183.892059 116.0
183.931763 168.0
183.997894 132.0
184.046494 148.0
184.075089 264.0
184.114578 176.0
184.153122 128.0
184.200439 64.0
184.257172 136.0
184.291611 260.0
184.394989 164.0
184.436676 188.0
184.473373 116.0
184.622086 96.0
184.647812 180.0
184.697815 180.0
184.833099 176.0
184.883514 196.0
185.007751 180.0
185.069656 748.0
185.124527 200.0
185.157944 212.0
185.30423 100.0
185.334808 140.0
185.399063 188.0
185.431595 140.0
185.467941 144.0
185.564148 160.0
185.64035 100.0
185.662048 40.0
185.702728 112.0
185.773254 92.0
185.797668 92.0
185.86821 344.0
185.889511 52.0
185.914352 168.0
185.955063 112.0
186.020203 84.0
186.055893 108.0
186.087845 932.0
186.123367 228.0
186.205017 244.0
186.24559 92.0
186.318939 60.0
186.343384 148.0
186.373276 120.0
186.392288 76.0
186.414032 84.0
186.449356 68.0
186.533966 188.0
186.574402 164.0
186.694046 96.0
186.713074 136.0
186.785416 140.0
186.841919 164.0
186.966095 132.0
187.006927 104.0
187.064087 168.0
187.094696 132.0
187.124359 200.0
187.248383 232.0
187.288162 124.0
187.339127 56.0
187.499893 104.0
187.565308 208.0
187.607086 112.0
187.62529 212.0
187.660736 72.0
187.711609 188.0
187.742538 148.0
187.81073 120.0
187.848907 84.0
187.917114 56.0
187.938278 132.0
187.975159 220.0
188.026276 204.0
188.05629 80.0
188.109024 248.0
188.140915 104.0
188.18187 104.0
188.203705 136.0
188.282913 128.0
188.348465 72.0
188.435883 108.0
188.465149 140.0
188.53006 188.0
188.594376 120.0
188.613464 144.0
188.654968 120.0
188.731079 104.0
188.854141 104.0
188.938934 84.0
189.010986 136.0
189.104889 124.0
189.138702 160.0
189.311203 168.0
189.330368 176.0
189.371445 232.0
189.432739 100.0
189.456375 192.0
189.487473 216.0
189.546783 192.0
189.565964 128.0
189.638916 240.0
189.66037 112.0
189.826996 92.0
189.894958 176.0
189.971756 124.0
190.043365 124.0
190.081543 164.0
190.105667 120.0
190.137863 168.0
190.185806 52.0
190.233353 180.0
190.345032 212.0
190.485046 156.0
190.537308 144.0
190.597748 212.0
190.632492 100.0
190.693939 184.0
190.730042 148.0
190.845139 160.0
190.881943 188.0
190.908386 96.0
190.938644 136.0
191.112946 164.0
191.153061 268.0
191.177155 132.0
191.181229 160.0
191.209015 232.0
191.235779 88.0
191.329376 68.0
191.481155 208.0
191.590714 144.0
191.648865 172.0
191.764618 216.0
191.862717 172.0
191.899689 156.0
192.016754 204.0
192.102768 448.0
192.134979 200.0
192.155914 340.0
192.21875 184.0
192.27066 108.0
192.503998 164.0
192.63382 160.0
192.792404 108.0
192.922256 212.0
192.970978 80.0
193.00029 120.0
193.062241 244.0
193.109116 252.0
193.135345 248.0
193.156845 136.0
193.18277 164.0
193.24678 372.0
193.278 152.0
193.297379 68.0
193.338882 40.0
193.433685 184.0
193.448654 152.0
193.504974 108.0
193.545975 168.0
193.661514 160.0
193.704376 164.0
193.776398 128.0
193.856766 100.0
193.916977 192.0
193.95166 268.0
193.971619 172.0
193.982285 140.0
194.006439 140.0
194.031387 120.0
194.084946 164.0
194.196213 100.0
194.311508 212.0
194.336472 140.0
194.410706 160.0
194.475235 116.0
194.514099 132.0
194.580719 148.0
194.616821 92.0
194.636261 176.0
194.739014 156.0
194.816788 60.0
194.861465 152.0
195.005753 248.0
195.057602 192.0
195.146469 2204.0
195.20314 216.0
195.225388 112.0
195.250412 136.0
195.322723 188.0
195.42453 156.0
195.45314 60.0
195.539764 44.0
195.577805 132.0
195.630798 136.0
195.692245 304.0
195.729065 140.0
195.751343 96.0
195.77919 52.0
195.8349 308.0
195.954681 120.0
196.041061 100.0
196.068054 152.0
196.102707 240.0
196.150055 400.0
196.173126 116.0
196.34494 184.0
196.364471 68.0
196.411316 156.0
196.515106 64.0
196.540222 88.0
196.604401 72.0
196.654633 164.0
196.805389 200.0
196.877991 92.0
196.922684 184.0
196.956192 124.0
197.006485 136.0
197.037216 108.0
197.068527 1336.0
197.107666 192.0
197.131958 176.0
197.18364 172.0
197.308304 140.0
197.330673 136.0
197.358643 140.0
197.386597 108.0
197.431335 36.0
197.487274 84.0
197.523636 136.0
197.660736 148.0
197.732895 168.0
197.768127 128.0
197.881866 140.0
197.921066 268.0
197.943466 108.0
198.021881 136.0
198.088898 1880.0
198.228348 64.0
198.260025 172.0
198.290848 60.0
198.346161 284.0
198.380554 224.0
198.450638 228.0
198.543182 76.0
198.604889 200.0
198.648102 104.0
198.705872 92.0
198.885483 120.0
198.921967 136.0
198.95163 104.0
198.978119 156.0
199.00058 152.0
199.050018 656.0
199.085938 16152.0
199.141968 80.0
199.192963 164.0
199.220398 180.0
199.289062 220.0
199.323593 64.0
199.35788 80.0
199.394104 140.0
199.421463 128.0
199.472 40.0
199.497986 176.0
199.518692 204.0
199.5569 156.0
199.582199 60.0
199.636749 152.0
199.65387 116.0
199.690659 160.0
199.744034 52.0
199.812515 204.0
199.847031 156.0
199.874741 124.0
199.946854 124.0
199.997238 216.0
200.07106 6304.0
200.137054 64.0
200.209671 172.0
200.257614 64.0
200.322769 164.0
200.363708 100.0
200.39444 92.0
200.427963 172.0
200.480194 44.0
200.502747 112.0
200.525879 96.0
200.544678 168.0
200.570389 68.0
200.595764 56.0
200.645905 56.0
200.749527 112.0
200.773392 104.0
200.812881 172.0
200.897507 160.0
200.946869 168.0
200.996246 180.0
201.071136 1316.0
201.133408 60.0
201.164398 204.0
201.241821 132.0
201.28418 172.0
201.386047 116.0
201.445175 116.0
201.470596 92.0
201.512161 84.0
201.555359 196.0
201.623184 340.0
201.772995 148.0
201.794418 104.0
201.874786 140.0
202.047073 112.0
202.077911 332.0
202.119339 156.0
202.153198 332.0
202.218246 192.0
202.268066 92.0
202.306931 176.0
202.372818 64.0
202.418121 112.0
202.461426 136.0
202.573898 112.0
202.623718 48.0
202.652863 268.0
202.687225 120.0
202.732574 92.0
202.778473 120.0
202.83461 72.0
202.860123 124.0
203.013229 100.0
203.04335 148.0
203.125214 532.0
203.167923 124.0
203.210327 128.0
203.262863 100.0
203.308273 104.0
203.418961 196.0
203.441605 156.0
203.625076 120.0
203.646133 80.0
203.666016 104.0
203.725662 108.0
203.748398 148.0
203.993683 168.0
204.016403 264.0
204.089462 164.0
204.123581 160.0
204.169495 160.0
204.243805 176.0
204.316162 164.0
204.327896 116.0
204.337463 144.0
204.422272 72.0
204.476349 184.0
204.510498 128.0
204.538971 136.0
204.586243 92.0
204.615829 124.0
204.689865 28.0
204.900635 180.0
205.026016 148.0
205.045975 120.0
205.145737 108.0
205.194199 108.0
205.216446 180.0
205.289841 104.0
205.336777 80.0
205.385269 40.0
205.405243 136.0
205.430908 84.0
205.556458 128.0
205.602112 136.0
205.711914 224.0
205.804794 192.0
205.856186 68.0
206.044708 180.0
206.070419 124.0
206.136139 124.0
206.233322 100.0
206.307648 112.0
206.37912 136.0
206.444885 124.0
206.479202 128.0
206.54213 84.0
206.636536 120.0
206.665146 204.0
206.689026 152.0
206.701691 52.0
206.712738 140.0
206.795898 128.0
206.853058 292.0
206.870071 80.0
206.945648 120.0
207.020111 128.0
207.110474 188.0
207.146133 236.0
207.207428 172.0
207.23494 120.0
207.299042 228.0
207.340973 32.0
207.393402 164.0
207.475693 112.0
207.510101 140.0
207.558838 316.0
207.601852 136.0
207.685028 140.0
207.852692 128.0
207.882996 160.0
207.917435 176.0
207.937531 188.0
207.959229 200.0
208.009277 84.0
208.091171 152.0
208.097885 188.0
208.169006 540.0
208.261978 176.0
208.427521 288.0
208.498016 52.0
208.534927 128.0
208.566559 208.0
208.652802 108.0
208.739059 152.0
208.764938 56.0
208.813477 100.0
208.871353 148.0
208.905869 140.0
208.963837 188.0
208.994141 124.0
209.072113 384.0
209.11937 184.0
209.162598 616.0
209.248352 132.0
209.268509 112.0
209.305939 128.0
209.366409 48.0
209.395218 168.0
209.429779 176.0
209.469254 108.0
209.480103 76.0
209.521957 76.0
209.565628 128.0
209.605515 224.0
209.686203 252.0
209.791641 152.0
209.855331 180.0
209.90242 112.0
209.939911 112.0
209.965866 148.0
210.016464 96.0
210.064667 1216.0
210.138763 300.0
210.160522 128.0
210.196655 48.0
210.233185 116.0
210.421799 140.0
210.452515 100.0
210.551743 128.0
210.597961 112.0
210.636139 164.0
210.664398 128.0
210.693375 128.0
210.794418 132.0
210.855103 96.0
210.915802 196.0
210.938919 40.0
211.003708 76.0
211.033096 244.0
211.069519 400.0
211.091888 172.0
211.190491 204.0
211.340927 120.0
211.366974 96.0
211.502991 96.0
211.573578 200.0
211.639343 84.0
211.665131 120.0
211.703995 104.0
211.8526 192.0
211.891052 48.0
211.934509 144.0
211.954803 172.0
212.087234 292.0
212.31427 128.0
212.347336 168.0
212.395477 232.0
212.421585 132.0
212.51442 132.0
212.630493 124.0
212.660995 144.0
212.732086 84.0
212.787247 116.0
212.848221 84.0
212.915024 124.0
213.016678 128.0
213.066071 184.0
213.08931 160.0
213.159042 132.0
213.19101 44.0
213.243332 100.0
213.2724 148.0
213.313095 176.0
213.342163 168.0
213.405869 140.0
213.446823 160.0
213.484634 96.0
213.544128 140.0
213.657852 260.0
213.688751 92.0
213.816284 132.0
213.845016 124.0
213.88324 164.0
213.918289 184.0
214.014236 84.0
214.047165 52.0
214.087662 160.0
214.11908 88.0
214.156937 192.0
214.197342 152.0
214.230011 140.0
214.253067 84.0
214.290955 136.0
214.313461 160.0
214.468719 224.0
214.557892 88.0
214.604172 164.0
214.640732 124.0
214.747375 168.0
214.84198 108.0
214.86824 64.0
214.921402 144.0
214.961609 112.0
215.071533 164.0
215.115189 672.0
215.179108 116.0
215.256439 48.0
215.399551 100.0
215.452133 112.0
215.507645 120.0
215.578262 172.0
215.612305 152.0
215.659622 228.0
215.691772 200.0
215.788239 216.0
215.878891 160.0
215.902283 108.0
215.931534 220.0
215.963699 172.0
215.996933 144.0
216.058563 112.0
216.102356 1068.0
216.332413 68.0
216.394104 220.0
216.516876 128.0
216.537384 168.0
216.566666 296.0
216.698425 152.0
216.742447 224.0
216.810623 152.0
216.90657 212.0
216.973999 100.0
217.012192 152.0
217.057373 220.0
217.101196 368.0
217.155807 132.0
217.208603 252.0
217.243805 124.0
217.274155 104.0
217.311295 44.0
217.43454 96.0
217.499115 160.0
217.534698 128.0
217.584244 68.0
217.656647 164.0
217.678207 156.0
217.719315 120.0
217.748688 36.0
217.804489 172.0
217.891281 148.0
217.95726 84.0
218.04837 108.0
218.084015 156.0
218.120514 140.0
218.146484 136.0
218.21637 152.0
218.323929 164.0
218.368835 208.0
218.422302 224.0
218.492386 128.0
218.560059 100.0
218.586548 288.0
218.613022 104.0
218.69249 44.0
218.727432 124.0
218.798462 208.0
218.860306 280.0
218.89563 180.0
218.917603 140.0
218.983994 136.0
219.022278 120.0
219.054688 52.0
219.112717 300.0
219.143021 392.0
219.26683 108.0
219.32283 124.0
219.552811 80.0
219.709137 148.0
219.737747 132.0
219.836014 128.0
219.86554 104.0
219.918015 184.0
219.959976 32.0
220.024933 112.0
220.08873 104.0
220.154846 136.0
220.193253 136.0
220.246323 124.0
220.290726 216.0
220.379913 168.0
220.494598 152.0
220.550766 68.0
220.58046 164.0
220.802078 144.0
220.913773 132.0
220.922409 100.0
220.955902 40.0
220.999649 188.0
221.065384 184.0
221.103851 116.0
221.145294 292.0
221.198105 168.0
221.240021 116.0
221.355621 92.0
221.468033 36.0
221.515427 132.0
221.622086 160.0
221.672455 48.0
221.702087 108.0
221.763275 412.0
221.847336 136.0
221.894775 36.0
221.926987 120.0
221.965927 152.0
222.022278 68.0
222.087524 156.0
222.132446 220.0
222.203217 152.0
222.241791 164.0
222.307083 188.0
222.32785 80.0
222.371506 152.0
222.406128 140.0
222.455475 152.0
222.520798 92.0
222.612839 56.0
222.710861 112.0
222.826706 220.0
222.892075 84.0
223.025818 140.0
223.052567 100.0
223.090225 192.0
223.123917 60.0
223.20639 140.0
223.226593 196.0
223.24881 180.0
223.269623 156.0
223.290436 152.0
223.319412 124.0
223.382645 132.0
223.421326 112.0
223.457031 184.0
223.495712 180.0
223.550552 260.0
223.57605 144.0
223.629623 136.0
223.671295 104.0
223.748703 136.0
223.778473 120.0
223.808243 240.0
223.832077 140.0
223.88269 208.0
223.918427 180.0
223.966095 88.0
224.025665 56.0
224.079147 2476.0
224.13591 160.0
224.178711 132.0
224.221222 108.0
224.284927 172.0
224.308762 148.0
224.346252 188.0
224.460815 152.0
224.554092 260.0
224.596619 180.0
224.618896 160.0
224.651703 76.0
224.708237 148.0
224.739105 200.0
224.787811 324.0
224.842453 224.0
224.861877 156.0
224.895737 356.0
224.921173 120.0
224.958572 140.0
224.981827 136.0
225.009171 168.0
225.06546 75700.0
225.153168 64.0
225.192932 124.0
225.245239 68.0
225.253662 56.0
225.283035 184.0
225.295654 60.0
225.302231 124.0
225.335434 124.0
225.375702 176.0
225.396271 256.0
225.440857 204.0
225.477509 176.0
225.501999 148.0
225.558563 104.0
225.629623 116.0
225.64389 152.0
225.675079 92.0
225.705429 160.0
225.735916 96.0
225.764877 152.0
225.809937 136.0
225.840607 36.0
225.881409 172.0
225.910828 44.0
225.93692 80.0
225.966248 40.0
226.002151 72.0
226.069427 10028.0
226.145798 60.0
226.169739 64.0
226.21344 100.0
226.288422 56.0
226.309418 104.0
226.343384 44.0
226.390244 68.0
226.416916 144.0
226.484146 76.0
226.507248 80.0
226.550049 60.0
226.618958 68.0
226.64592 92.0
226.687881 100.0
226.77179 52.0
226.79277 128.0
226.822754 40.0
226.858719 64.0
226.919785 116.0
226.987381 268.0
227.02063 144.0
227.072769 1452.0
227.157211 60.0
227.2276 124.0
227.272614 128.0
227.303558 176.0
227.341629 156.0
227.372177 136.0
227.398651 84.0
227.434677 144.0
227.499298 212.0
227.509933 112.0
227.517197 220.0
227.567734 124.0
227.591446 268.0
227.631882 208.0
227.664566 84.0
227.704147 140.0
227.758209 160.0
227.78418 124.0
227.818802 100.0
227.843826 48.0
227.880829 212.0
227.920288 172.0
227.963272 108.0
228.00679 108.0
228.073517 428.0
228.118561 60.0
228.152634 40.0
228.175034 92.0
228.239426 92.0
228.275909 68.0
228.348083 180.0
228.371246 80.0
228.419662 156.0
228.450363 136.0
228.524689 164.0
228.590134 72.0
228.63588 68.0
228.70343 120.0
228.727219 68.0
228.775589 224.0
228.847641 100.0
228.962067 68.0
229.001221 72.0
229.056458 256.0
229.083176 136.0
229.113129 132.0
229.142807 176.0
229.181976 60.0
229.234451 376.0
229.308548 56.0
229.356766 68.0
229.54039 84.0
229.585907 200.0
229.6483 204.0
229.69751 100.0
229.718628 160.0
229.772934 120.0
229.833267 120.0
229.857422 168.0
229.930618 124.0
229.964905 156.0
230.04454 224.0
230.071716 56.0
230.098892 100.0
230.182251 144.0
230.207596 304.0
230.316315 152.0
230.450516 152.0
230.472656 80.0
230.613098 180.0
230.69455 72.0
230.739395 116.0
230.781723 88.0
230.857834 120.0
230.932938 144.0
230.978302 80.0
231.002502 180.0
231.028625 208.0
231.143539 124.0
231.196152 156.0
231.253662 64.0
231.286957 84.0
231.32933 156.0
231.474655 92.0
231.502853 168.0
231.562485 152.0
231.598831 156.0
231.65033 92.0
231.698807 116.0
231.720001 160.0
231.826065 76.0
231.871521 120.0
231.908966 68.0
231.938202 136.0
231.987976 124.0
232.074234 172.0
232.098892 196.0
232.129211 128.0
232.275803 168.0
232.320297 92.0
232.446213 80.0
232.587341 80.0
232.689667 96.0
232.933792 88.0
233.027695 124.0
233.127991 304.0
233.150925 216.0
233.182663 132.0
233.234344 140.0
233.307297 92.0
233.337708 116.0
233.407639 100.0
233.434998 104.0
233.489746 172.0
233.571869 156.0
233.614456 56.0
233.675308 100.0
233.783066 48.0
233.821365 140.0
233.849808 152.0
233.896072 140.0
233.991837 140.0
234.107544 148.0
234.129913 292.0
234.192825 204.0
234.214142 104.0
234.262878 104.0
234.31427 180.0
234.409134 180.0
234.454849 100.0
234.540192 144.0
234.567612 128.0
234.625534 148.0
234.677368 92.0
234.70787 96.0
234.739777 104.0
234.778 140.0
234.811554 132.0
234.835953 48.0
234.875702 216.0
234.901291 180.0
235.057877 156.0
235.128845 212.0
235.221878 176.0
235.244843 216.0
235.299789 116.0
235.357803 280.0
235.388336 136.0
235.43721 200.0
235.507446 184.0
235.541046 132.0
235.583817 80.0
235.618042 100.0
235.660202 64.0
235.68158 48.0
235.80748 164.0
235.923035 40.0
235.987244 132.0
236.036163 112.0
236.202805 124.0
236.33287 116.0
236.36348 232.0
236.386841 216.0
236.409378 108.0
236.446106 152.0
236.470581 108.0
236.568542 92.0
236.654266 196.0
236.674194 128.0
236.709381 176.0
236.767563 100.0
236.834732 164.0
236.876938 144.0
236.963608 92.0
236.992172 152.0
237.072876 316.0
237.168945 124.0
237.196472 152.0
237.309952 52.0
237.349823 148.0
237.395813 168.0
237.564514 152.0
237.5952 76.0
237.67804 72.0
237.730209 172.0
237.754761 88.0
237.785446 76.0
237.868317 64.0
237.902084 152.0
237.929718 116.0
237.953201 68.0
238.073196 132.0
238.095444 132.0
238.159271 160.0
238.19075 92.0
238.215332 140.0
238.255264 48.0
238.316711 72.0
238.458069 136.0
238.533936 164.0
238.566772 144.0
238.645599 136.0
238.72554 92.0
238.756302 116.0
238.78981 156.0
238.820892 148.0
238.880661 204.0
238.999313 76.0
239.039322 80.0
239.100876 156.0
239.156281 124.0
239.211243 3112.0
239.339417 188.0
239.412689 192.0
239.470337 80.0
239.55368 136.0
239.611725 176.0
239.652954 128.0
239.706055 180.0
239.738373 124.0
239.769196 108.0
239.793854 128.0
239.877777 264.0
239.907898 164.0
239.929489 56.0
239.975723 104.0
240.052811 124.0
240.080566 124.0
240.12413 228.0
240.17334 840.0
240.212692 816.0
240.324265 160.0
240.348953 160.0
240.382889 140.0
240.561905 76.0
240.629837 160.0
240.679871 116.0
240.703796 84.0
240.737244 352.0
240.759521 52.0
240.795258 128.0
240.882065 196.0
240.910873 84.0
240.947952 116.0
241.006653 80.0
241.096375 180.0
241.132294 116.0
241.17897 220.0
241.211517 140.0
241.244629 128.0
241.2686 60.0
241.307861 132.0
241.440536 180.0
241.46698 196.0
241.500443 212.0
241.594757 224.0
241.6436 212.0
241.683563 344.0
241.690643 252.0
241.73024 132.0
241.756134 108.0
241.807602 104.0
241.854965 260.0
241.891357 212.0
241.932312 252.0
241.969772 196.0
242.008408 180.0
242.092178 96744.0
242.192825 508.0
242.230301 148.0
242.268906 176.0
242.327682 268.0
242.367569 156.0
242.420593 112.0
242.451614 124.0
242.463791 92.0
242.470993 144.0
242.48468 92.0
242.528244 72.0
242.55098 72.0
242.603012 284.0
242.644501 228.0
242.702896 128.0
242.738602 196.0
242.798721 40.0
242.839066 176.0
242.881912 200.0
242.933014 204.0
242.963837 184.0
243.020081 220.0
243.091812 15044.0
243.19104 352.0
243.230621 108.0
243.278107 116.0
243.307922 100.0
243.340424 60.0
243.387451 156.0
243.410263 200.0
243.457291 220.0
243.512863 52.0
243.577011 184.0
243.614456 68.0
243.65094 152.0
243.680618 184.0
243.716354 104.0
243.745865 180.0
243.789383 144.0
243.81424 196.0
243.876404 136.0
243.919922 92.0
243.968567 380.0
243.990295 128.0
244.014648 68.0
244.096161 46080.0
244.181381 132.0
244.247833 100.0
244.285248 100.0
244.342743 188.0
244.3638 140.0
244.400253 232.0
244.42894 176.0
244.496918 240.0
244.551727 356.0
244.603561 116.0
244.637436 196.0
244.69281 64.0
244.721771 184.0
244.762985 188.0
244.801926 164.0
244.830841 224.0
244.86055 276.0
244.886612 116.0
244.937668 60.0
244.96402 280.0
244.98941 136.0
245.012238 80.0
245.056946 136.0
245.098953 4896.0
245.144653 136.0
245.188431 88.0
245.280228 68.0
245.302048 60.0
245.370087 112.0
245.378769 92.0
245.41626 76.0
245.428848 48.0
245.466721 132.0
245.566757 156.0
245.599609 228.0
245.632599 96.0
245.674713 136.0
245.718994 52.0
245.740631 32.0
245.802963 152.0
245.832291 300.0
245.869003 188.0
245.924362 48.0
245.966721 112.0
245.990784 156.0
246.042145 68.0
246.066391 40.0
246.099289 520.0
246.188934 100.0
246.222214 40.0
246.272507 56.0
246.331848 52.0
246.38707 124.0
246.419327 48.0
246.487839 56.0
246.51149 196.0
246.54744 40.0
246.603027 220.0
246.63443 168.0
246.669342 36.0
246.727829 228.0
246.78093 108.0
246.815689 104.0
246.851532 88.0
246.867661 144.0
246.908325 148.0
246.934036 124.0
246.955597 272.0
246.997025 192.0
247.0457 172.0
247.081238 152.0
247.093384 108.0
247.20105 100.0
247.224518 128.0
247.291809 160.0
247.351273 76.0
247.373886 72.0
247.403748 100.0
247.443207 176.0
247.462982 124.0
247.510956 52.0
247.551666 84.0
247.595901 124.0
247.623688 68.0
247.680069 208.0
247.730194 104.0
247.836716 52.0
247.899384 140.0
247.926147 104.0
247.962509 112.0
248.010803 160.0
248.104904 120.0
248.147018 172.0
248.168961 32.0
248.195618 36.0
248.269318 116.0
248.32576 64.0
248.347717 148.0
248.369675 72.0
248.416733 44.0
248.490295 44.0
248.516739 164.0
248.599945 328.0
248.724258 156.0
248.817703 204.0
248.879669 88.0
248.953461 160.0
249.027939 184.0
249.041306 132.0
249.048523 180.0
249.138779 136.0
249.214188 112.0
249.236176 76.0
249.322891 108.0
249.343018 172.0
249.405884 268.0
249.587204 172.0
249.619675 52.0
249.641693 136.0
249.691711 128.0
249.712585 132.0
249.880753 108.0
249.926254 156.0
250.012909 48.0
250.04071 96.0
250.064346 152.0
250.140015 136.0
250.201767 152.0
250.359207 104.0
250.507248 120.0
250.538757 120.0
250.578751 120.0
250.642731 116.0
250.683685 100.0
250.784546 64.0
250.847595 128.0
250.954773 192.0
251.005234 72.0
251.09288 156.0
251.163681 184.0
251.2117 3536.0
251.312134 108.0
251.333282 412.0
251.377472 80.0
251.450058 100.0
251.525803 200.0
251.572571 124.0
251.611038 108.0
251.63945 156.0
251.727875 44.0
251.772079 128.0
251.841568 92.0
251.936325 40.0
252.026459 168.0
252.075104 5712.0
252.141495 164.0
252.148956 192.0
252.214661 1120.0
252.274475 220.0
252.328217 104.0
252.363007 144.0
252.438889 108.0
252.480011 92.0
252.51796 156.0
252.555908 68.0
252.600204 160.0
252.622345 48.0
252.79953 44.0
252.824844 100.0
252.88324 196.0
252.929291 136.0
252.957367 180.0
253.005478 124.0
253.075684 716.0
253.116089 80.0
253.21109 172.0
253.264938 44.0
253.328293 212.0
253.37265 136.0
253.430435 188.0
253.569107 164.0
253.591293 40.0
253.68956 120.0
253.746628 104.0
253.784683 68.0
253.819656 132.0
253.946411 48.0
254.006683 92.0
254.029938 120.0
254.085159 968.0
254.143097 156.0
254.189621 296.0
254.317642 68.0
254.370102 160.0
254.403351 120.0
254.503418 124.0
254.536713 128.0
254.565292 208.0
254.587509 32.0
254.614288 48.0
254.663742 112.0
254.724091 116.0
254.800339 108.0
254.828934 120.0
254.886124 100.0
254.917908 44.0
254.949493 136.0
255.003708 96.0
255.078323 540.0
255.084259 248.0
255.137222 52.0
255.205673 144.0
255.234116 44.0
255.289078 200.0
255.331192 160.0
255.372101 148.0
255.467957 284.0
255.490234 136.0
255.531586 144.0
255.579315 124.0
255.619232 96.0
255.802109 140.0
255.860687 120.0
255.913528 136.0
255.945374 200.0
256.105103 180.0
256.212433 104.0
256.263885 136.0
256.31488 148.0
256.435974 96.0
256.506104 112.0
256.537842 160.0
256.630432 136.0
256.681458 188.0
256.770752 228.0
256.860077 36.0
257.092987 104.0
257.175964 100.0
257.227051 160.0
257.26535 80.0
257.357941 60.0
257.383484 104.0
257.447357 56.0
257.469696 80.0
257.549561 128.0
257.578308 116.0
257.610229 32.0
257.654968 84.0
257.682465 128.0
257.734833 44.0
257.817932 92.0
257.86908 72.0
257.952179 76.0
257.987335 52.0
258.044891 144.0
258.099243 100.0
258.128021 128.0
258.198364 128.0
258.22168 180.0
258.253845 104.0
258.463898 140.0
258.489502 56.0
258.548065 80.0
258.78717 108.0
258.81601 132.0
258.881195 120.0
258.913574 128.0
259.041199 76.0
259.106079 332.0
259.213196 144.0
259.25 124.0
259.31897 76.0
259.3414 152.0
259.395905 92.0
259.525146 76.0
259.613922 128.0
259.676056 100.0
259.751831 132.0
259.828827 80.0
259.904724 92.0
259.925079 144.0
260.10965 312.0
260.139832 1152.0
260.17865 116.0
260.201141 64.0
260.239655 60.0
260.271759 144.0
260.308228 168.0
260.477325 96.0
260.515869 92.0
260.605835 104.0
260.718292 144.0
260.750427 88.0
260.858185 152.0
260.914368 80.0
260.93689 92.0
261.007629 72.0
261.033325 152.0
261.12323 6804.0
261.235962 60.0
261.286835 172.0
261.348572 124.0
261.451538 68.0
261.512695 60.0
261.548096 148.0
261.741272 64.0
261.783142 100.0
261.873322 144.0
261.924866 132.0
262.125702 1628.0
262.209259 120.0
262.263184 116.0
262.314758 56.0
262.359894 124.0
262.400085 180.0
262.498535 136.0
262.530792 128.0
262.566254 172.0
262.769806 128.0
262.901794 144.0
262.930847 120.0
262.956665 96.0
263.050262 124.0
263.114471 252.0
263.118866 128.0
263.2117 108.0
263.242432 108.0
263.28598 176.0
263.384949 124.0
263.460388 96.0
263.562225 108.0
263.599335 44.0
263.751221 124.0
263.793243 64.0
263.86438 136.0
263.954926 100.0
264.000183 44.0
264.045471 136.0
264.093719 104.0
264.129547 132.0
264.166992 184.0
264.223389 136.0
264.307495 128.0
264.338104 208.0
264.4758 132.0
264.534058 116.0
264.62796 108.0
264.670044 88.0
264.707611 112.0
264.773682 156.0
264.806061 264.0
264.906464 36.0
265.054077 216.0
265.084686 84.0
265.126801 256.0
265.179291 148.0
265.226135 3300.0
265.263641 148.0
265.363434 92.0
265.403656 128.0
265.438019 124.0
265.476929 68.0
265.564484 128.0
265.596924 104.0
265.628326 136.0
265.669189 72.0
265.73642 44.0
265.791595 196.0
265.841309 200.0
265.90097 68.0
265.927887 52.0
266.033783 340.0
266.056732 128.0
266.08847 160.0
266.145081 244.0
266.189148 26780.0
266.315155 240.0
266.344818 120.0
266.443787 60.0
266.497742 72.0
266.525452 56.0
266.548187 292.0
266.577423 64.0
266.61319 56.0
266.647644 160.0
266.704193 64.0
266.746094 192.0
266.775696 56.0
266.80658 144.0
266.87973 160.0
266.951294 88.0
266.987061 116.0
267.035431 64.0
267.100891 104.0
267.126038 224.0
267.150482 164.0
267.192749 5960.0
267.282318 128.0
267.307861 124.0
267.331909 120.0
267.375824 40.0
267.494629 68.0
267.519012 72.0
267.566254 144.0
267.601135 56.0
267.641144 88.0
267.703094 160.0
267.786346 68.0
267.823517 76.0
267.846558 164.0
267.870789 140.0
267.966858 32.0
268.039093 96.0
268.106262 148.0
268.197113 868.0
268.28952 92.0
268.312347 112.0
268.367767 76.0
268.411438 132.0
268.452545 100.0
268.516907 120.0
268.605835 32.0
268.659576 104.0
268.687408 160.0
268.734741 144.0
268.784393 148.0
268.837372 116.0
268.855103 196.0
268.879669 104.0
268.915833 132.0
268.968689 140.0
269.010498 104.0
269.043121 132.0
269.100891 4404.0
269.171936 152.0
269.213684 272.0
269.273163 160.0
269.284363 64.0
269.317444 156.0
269.360138 128.0
269.431763 212.0
269.473206 272.0
269.511169 184.0
269.537811 72.0
269.605072 152.0
269.653961 124.0
269.715118 384.0
269.7547 124.0
269.790222 212.0
269.79718 104.0
269.852356 176.0
269.874512 160.0
269.947235 160.0
269.992767 160.0
270.025269 184.0
270.0867 56788.0
270.175842 92.0
270.209351 140.0
270.264618 216.0
270.335205 212.0
270.393127 120.0
270.419952 148.0
270.477936 84.0
270.50473 92.0
270.563354 96.0
270.596954 96.0
270.628052 268.0
270.674683 124.0
270.758453 200.0
270.806244 208.0
270.848267 52.0
270.877869 188.0
270.939972 108.0
271.002045 92.0
271.0867 9928.0
271.189026 132.0
271.225098 168.0
271.264404 156.0
271.307037 76.0
271.329987 48.0
271.390869 84.0
271.441467 108.0
271.489746 72.0
271.573853 120.0
271.634979 224.0
271.700592 52.0
271.749786 88.0
271.790009 64.0
271.833984 104.0
271.881073 52.0
271.920441 32.0
271.962616 52.0
271.98645 72.0
272.035339 52.0
272.087036 784.0
272.180695 124.0
272.229034 116.0
272.259216 64.0
272.3013 76.0
272.330414 60.0
272.37027 204.0
272.400879 136.0
272.470917 132.0
272.498413 232.0
272.542694 192.0
272.579376 64.0
272.603027 124.0
272.636108 84.0
272.712006 52.0
272.753448 124.0
272.796509 156.0
272.86322 76.0
272.933685 84.0
272.97113 128.0
272.989807 156.0
273.038727 96.0
273.074554 428.0
273.095154 192.0
273.104279 136.0
273.11795 252.0
273.158478 128.0
273.178864 272.0
273.224304 76.0
273.2612 36.0
273.301514 108.0
273.330292 104.0
273.399384 48.0
273.475098 172.0
273.519043 80.0
273.557373 108.0
273.586487 100.0
273.595947 44.0
273.60437 116.0
273.695679 96.0
273.74176 76.0
273.840576 56.0
273.870209 92.0
273.919617 44.0
274.031647 64.0
274.071167 100.0
274.150269 88.0
274.17334 124.0
274.212891 56.0
274.262329 116.0
274.303101 128.0
274.394196 76.0
274.461426 224.0
274.528351 180.0
274.756958 144.0
274.865845 136.0
274.921967 76.0
274.981354 132.0
275.053101 168.0
275.075989 108.0
275.115753 480.0
275.176117 40.0
275.26059 132.0
275.358643 160.0
275.400391 88.0
275.513 228.0
275.605499 36.0
275.725464 120.0
275.753693 224.0
275.843475 232.0
275.901123 208.0
275.968842 104.0
276.028625 108.0
276.068298 136.0
276.128815 300.0
276.173004 140.0
276.213837 108.0
276.352783 124.0
276.47522 196.0
276.773163 84.0
276.862549 148.0
276.889069 136.0
276.932129 100.0
276.974976 188.0
277.070312 200.0
277.114166 124.0
277.13916 248.0
277.223663 108.0
277.263428 68.0
277.299896 96.0
277.442444 208.0
277.624786 132.0
277.677734 116.0
277.729767 124.0
277.749237 92.0
277.866943 180.0
277.931641 104.0
278.001038 116.0
278.036163 120.0
278.089294 172.0
278.135742 92.0
278.158997 104.0
278.195496 80.0
278.272919 180.0
278.315033 96.0
278.359344 116.0
278.447876 196.0
278.530884 128.0
278.579071 88.0
278.603058 156.0
278.711029 216.0
278.740204 112.0
278.850555 116.0
278.923004 152.0
278.962891 236.0
279.055969 144.0
279.112518 284.0
279.139099 32.0
279.185669 116.0
279.225403 72.0
279.278809 96.0
279.312073 92.0
279.355316 156.0
279.478394 92.0
279.594482 68.0
279.651459 40.0
279.73468 104.0
279.801239 84.0
279.824554 76.0
279.871185 80.0
280.104401 1336.0
280.174255 100.0
280.22757 104.0
280.267548 80.0
280.290863 192.0
280.37085 164.0
280.451385 124.0
280.530853 140.0
280.589569 188.0
280.667542 164.0
280.708008 120.0
280.757599 124.0
280.83429 128.0
280.860992 108.0
280.913483 156.0
280.997742 144.0
281.031128 52.0
281.1091 764.0
281.201324 144.0
281.231354 196.0
281.26474 104.0
281.421631 76.0
281.451691 28.0
281.601959 120.0
281.646667 116.0
281.785706 120.0
281.825806 124.0
281.855865 212.0
281.892639 52.0
281.929382 108.0
281.953217 60.0
281.996246 152.0
282.031799 144.0
282.094574 248.0
282.147888 116.0
282.18457 548.0
282.220215 120.0
282.260345 152.0
282.293793 108.0
282.527924 52.0
282.634979 124.0
282.681122 96.0
282.699554 108.0
282.798981 148.0
282.87207 212.0
282.915955 76.0
282.956482 80.0
283.006531 128.0
283.118683 348.0
283.148499 132.0
283.214691 1224.0
283.257721 120.0
283.304596 108.0
283.341888 280.0
283.372437 164.0
283.462097 112.0
283.495605 136.0
283.572693 40.0
283.629669 200.0
283.754822 128.0
283.891174 104.0
283.921356 48.0
283.966888 140.0
284.105347 448.0
284.132507 184.0
284.199341 3300.0
284.266907 332.0
284.352692 100.0
284.366852 56.0
284.378876 88.0
284.449982 88.0
284.475006 172.0
284.592499 96.0
284.639526 60.0
284.666656 160.0
284.703308 48.0
284.787292 88.0
284.817505 192.0
284.867889 124.0
284.995575 92.0
285.05249 128.0
285.110168 320.0
285.201263 728.0
285.329712 164.0
285.336639 68.0
285.350677 196.0
285.385468 168.0
285.469543 56.0
285.49646 156.0
285.569885 144.0
285.624268 72.0
285.704987 140.0
285.785736 100.0
285.829468 100.0
285.879974 60.0
285.927063 84.0
286.003326 112.0
286.07486 124.0
286.121002 144.0
286.158478 140.0
286.21402 152.0
286.310883 100.0
286.411926 132.0
286.44223 140.0
286.501984 168.0
286.565338 60.0
286.674713 48.0
286.728638 152.0
286.826385 92.0
286.870209 36.0
286.954498 96.0
287.021942 164.0
287.116486 472.0
287.193939 36.0
287.220551 116.0
287.274902 68.0
287.30188 92.0
287.349121 64.0
287.382843 104.0
287.455261 132.0
287.561707 140.0
287.583649 72.0
287.59845 36.0
287.605988 68.0
287.747375 56.0
287.891449 132.0
288.037811 152.0
288.09726 2052.0
288.149292 120.0
288.245667 132.0
288.362183 208.0
288.40274 216.0
288.433167 108.0
288.652924 124.0
288.716431 200.0
288.808502 48.0
288.886292 112.0
288.933655 124.0
289.021637 228.0
289.099701 292.0
289.26532 132.0
289.295776 172.0
289.319489 144.0
289.366882 40.0
289.414276 52.0
289.46814 128.0
289.675049 84.0
289.752991 172.0
289.844452 76.0
289.905457 80.0
289.966461 292.0
290.030853 152.0
290.071533 160.0
290.10321 176.0
290.139343 44.0
290.193573 140.0
290.264801 136.0
290.320282 160.0
290.447937 148.0
290.600586 76.0
290.807617 104.0
290.889069 52.0
291.007904 84.0
291.075806 164.0
291.12674 116.0
291.242218 132.0
291.276184 204.0
291.340729 100.0
291.561584 128.0
291.622772 160.0
291.711853 172.0
291.74176 128.0
291.826752 64.0
291.939911 144.0
291.972961 64.0
292.015503 144.0
292.163452 100.0
292.234894 128.0
292.364227 104.0
292.394836 84.0
292.47464 144.0
292.501526 128.0
292.746887 148.0
292.772736 136.0
292.82724 80.0
292.91153 156.0
293.065704 228.0
293.10318 112.0
293.16452 112.0
293.197968 184.0
293.237518 228.0
293.287231 140.0
293.372437 88.0
293.746368 264.0
293.778259 136.0
293.814423 224.0
293.90451 80.0
293.941559 168.0
293.971588 152.0
294.047058 132.0
294.086365 268.0
294.135193 112.0
294.184784 4024.0
294.252655 80.0
294.375885 168.0
294.53952 40.0
294.567932 152.0
294.626465 144.0
294.682983 104.0
294.802582 132.0
294.855835 104.0
294.913086 156.0
294.970703 128.0
295.028198 192.0
295.068787 248.0
295.103394 88.0
295.125122 80.0
295.18576 1068.0
295.292511 92.0
295.500153 68.0
295.605133 148.0
295.637024 188.0
295.678101 124.0
295.705475 120.0
295.736298 132.0
295.804749 56.0
295.845825 48.0
295.939697 164.0
295.965454 136.0
296.090912 216.0
296.160858 120.0
296.190247 552.0
296.219086 112.0
296.294464 80.0
296.321869 156.0
296.401581 184.0
296.52063 48.0
296.757172 96.0
297.031525 184.0
297.079559 108.0
297.128052 172.0
297.271698 140.0
297.327118 156.0
297.3815 124.0
297.515381 76.0
297.563446 128.0
297.596985 156.0
297.669891 152.0
297.73172 48.0
297.772919 140.0
297.865112 176.0
297.871582 128.0
297.937805 108.0
298.026581 176.0
298.110657 92.0
298.137421 188.0
298.164612 180.0
298.223022 100.0
298.277283 56.0
298.328522 204.0
298.382233 128.0
298.418976 124.0
298.467102 296.0
298.535889 176.0
298.611542 200.0
298.742828 240.0
298.993439 56.0
299.129517 156.0
299.213623 324.0
299.265411 124.0
299.337708 64.0
299.415009 80.0
299.594513 128.0
299.81311 132.0
299.861359 132.0
299.895844 168.0
299.954437 96.0
300.044067 144.0
300.113007 48.0
300.157837 144.0
300.210236 144.0
300.275085 156.0
300.326843 112.0
300.359436 108.0
300.509674 132.0
300.727936 128.0
300.792664 92.0
300.821655 152.0
300.870117 156.0
300.934357 392.0
301.093048 128.0
301.131683 252.0
301.22583 5348.0
301.393616 204.0
301.435059 124.0
301.467133 144.0
301.528381 148.0
301.645905 84.0
301.711578 152.0
301.777283 28.0
301.804932 120.0
301.855072 152.0
301.90387 132.0
301.941223 80.0
302.020477 136.0
302.085083 68.0
302.125763 532.0
302.228302 1604.0
302.379211 60.0
302.438049 128.0
302.485474 148.0
302.534973 100.0
302.586884 48.0
302.642029 164.0
302.691864 88.0
302.808533 36.0
302.896484 100.0
302.943176 96.0
302.999054 208.0
303.044098 80.0
303.100677 120.0
303.14151 204.0
303.167572 156.0
303.239532 464.0
303.267975 172.0
303.414948 196.0
303.543213 72.0
303.592285 108.0
303.67923 148.0
303.733978 116.0
303.827637 200.0
303.858856 84.0
303.890106 172.0
303.938843 88.0
304.053192 124.0
304.077484 152.0
304.125031 468.0
304.209381 64.0
304.321655 60.0
304.351746 68.0
304.382996 64.0
304.428131 84.0
304.467041 156.0
304.49411 124.0
304.574738 132.0
304.678223 80.0
304.729187 72.0
304.765076 128.0
304.876282 160.0
304.984039 124.0
305.095276 56.0
305.131165 368.0
305.157837 172.0
305.366486 160.0
305.401276 92.0
305.49173 128.0
305.536957 164.0
305.655243 168.0
305.763123 136.0
305.787476 188.0
305.877991 196.0
305.933685 44.0
306.052063 192.0
306.090363 240.0
306.13913 112.0
306.175842 96.0
306.274963 144.0
306.340851 136.0
306.720978 192.0
306.759308 92.0
306.79068 124.0
306.824005 196.0
306.926666 152.0
306.972015 84.0
307.092194 152.0
307.128937 96.0
307.15686 56.0
307.201843 120.0
307.254517 136.0
307.376648 128.0
307.41983 80.0
307.600037 168.0
307.66098 232.0
307.681396 156.0
307.854889 100.0
307.984131 144.0
308.105194 492.0
308.178314 84.0
308.207733 212.0
308.271332 120.0
308.365387 140.0
308.423798 204.0
308.469849 208.0
308.822998 124.0
308.980438 128.0
309.004913 120.0
309.050415 80.0
309.096252 120.0
309.130127 188.0
309.195831 280.0
309.220154 140.0
309.316376 132.0
309.431915 60.0
309.45993 156.0
309.505432 128.0
309.578979 44.0
309.635132 140.0
309.855713 116.0
309.890747 76.0
309.937775 132.0
309.985352 120.0
310.058929 120.0
310.193146 56.0
310.213867 140.0
310.264343 180.0
310.325348 112.0
310.385925 88.0
310.620331 192.0
310.683105 116.0
310.714661 120.0
310.766418 188.0
310.799164 144.0
310.844482 136.0
310.883087 160.0
311.026459 192.0
311.147369 200.0
311.210785 9304.0
311.302094 112.0
311.378113 88.0
311.411987 160.0
311.441345 76.0
311.491638 220.0
311.588867 72.0
311.701324 100.0
311.808502 120.0
311.85672 124.0
311.899902 80.0
312.029297 104.0
312.097046 964.0
312.209167 2672.0
312.288422 108.0
312.313049 104.0
312.439697 44.0
312.605072 112.0
312.669647 140.0
312.721222 56.0
312.752899 80.0
312.791595 164.0
312.85144 128.0
312.90033 68.0
313.015167 160.0
313.100861 148.0
313.213379 720.0
313.326904 212.0
313.367584 116.0
313.525696 152.0
313.606537 180.0
313.675781 156.0
313.753326 108.0
313.799164 92.0
313.827393 152.0
313.922577 136.0
313.950806 180.0
313.982544 136.0
314.097443 160.0
314.307098 192.0
314.418854 156.0
314.436981 144.0
314.469421 40.0
314.561218 152.0
314.737732 108.0
314.765991 40.0
314.803558 156.0
315.009674 116.0
315.083862 44.0
315.122742 72.0
315.188049 124.0
315.235291 164.0
315.267609 220.0
315.320618 88.0
315.348907 52.0
315.377167 52.0
315.444336 76.0
315.571625 164.0
315.646393 192.0
315.730743 64.0
315.762573 44.0
315.787323 160.0
315.851013 52.0
315.89917 148.0
315.930054 104.0
315.981903 132.0
316.089966 132.0
316.147827 148.0
316.257904 148.0
316.296844 52.0
316.362885 136.0
316.399506 80.0
316.449097 112.0
316.512817 120.0
316.598999 84.0
316.6828 96.0
317.06192 76.0
317.086731 68.0
317.150513 176.0
317.246246 124.0
317.269012 96.0
317.317139 128.0
317.35614 136.0
317.427063 80.0
317.519257 144.0
317.547638 68.0
317.59729 104.0
317.685974 100.0
317.735657 80.0
317.774658 120.0
317.80661 44.0
317.882782 152.0
317.930817 80.0
318.001801 72.0
318.051483 132.0
318.076324 124.0
318.147339 164.0
318.260956 76.0
318.317749 200.0
318.534424 72.0
318.596344 192.0
318.868408 52.0
318.926819 152.0
319.049713 76.0
319.139191 1020.0
319.194885 172.0
319.259491 68.0
319.337738 48.0
319.394653 140.0
319.509705 164.0
319.586761 108.0
319.663788 160.0
319.803833 144.0
320.020996 44.0
320.151062 224.0
320.216858 96.0
320.278137 140.0
320.362915 60.0
320.387848 120.0
320.419891 232.0
320.451965 60.0
320.580261 244.0
320.65509 68.0
320.706512 168.0
320.769165 168.0
320.819061 88.0
320.890381 100.0
320.918884 68.0
321.072235 108.0
321.161407 80.0
321.25058 148.0
321.282684 108.0
321.423218 116.0
321.464661 112.0
321.505646 116.0
321.545563 148.0
321.636536 128.0
321.710938 112.0
321.735931 260.0
321.800201 136.0
321.968018 92.0
322.082306 80.0
322.293091 64.0
322.471771 172.0
322.546844 164.0
322.596893 140.0
322.657684 160.0
322.775665 148.0
322.910004 352.0
322.950897 100.0
323.043915 196.0
323.06662 92.0
323.152222 88.0
323.214447 108.0
323.346313 96.0
323.466187 76.0
323.594818 128.0
323.659515 60.0
323.777679 136.0
323.833649 172.0
323.920959 132.0
324.000946 128.0
324.096497 80.0
324.214752 128.0
324.254181 176.0
324.390381 108.0
324.440582 100.0
324.506927 124.0
324.533813 188.0
324.580414 124.0
324.666473 124.0
324.715881 144.0
324.784851 52.0
324.817108 180.0
324.931915 268.0
324.967804 164.0
325.018036 100.0
325.143646 160.0
325.175934 180.0
325.305145 80.0
325.337463 120.0
325.49292 104.0
325.531372 100.0
325.793549 100.0
325.858215 92.0
325.944458 132.0
326.001953 108.0
326.124451 300.0
326.184326 108.0
326.21402 172.0
326.318268 128.0
326.393799 196.0
326.451324 112.0
326.50528 52.0
326.580811 76.0
326.605988 80.0
326.742676 92.0
326.886597 128.0
327.036316 168.0
327.095947 120.0
327.204132 688.0
327.264557 124.0
327.293365 132.0
327.365387 60.0
327.396454 128.0
327.487854 92.0
327.675171 152.0
327.739838 144.0
327.885101 172.0
327.988953 164.0
328.067993 92.0
328.148376 164.0
328.204071 148.0
328.244781 148.0
328.490173 124.0
328.565582 140.0
328.681152 152.0
328.710022 192.0
328.818298 88.0
328.850769 60.0
329.099854 180.0
329.125122 244.0
329.216431 344.0
329.428528 136.0
329.475494 144.0
329.501862 132.0
329.569427 124.0
329.681458 116.0
329.780762 176.0
329.858551 88.0
329.934479 124.0
329.96701 68.0
330.010406 136.0
330.082703 132.0
330.120605 204.0
330.173126 124.0
330.222015 240.0
330.229584 124.0
330.243134 192.0
330.281616 120.0
330.422699 148.0
330.596405 40.0
330.643433 156.0
330.693542 176.0
330.781067 160.0
330.849762 104.0
331.04892 48.0
331.092377 108.0
331.130402 88.0
331.161194 152.0
331.186554 144.0
331.226379 52.0
331.255371 132.0
331.349548 136.0
331.469147 140.0
331.512634 128.0
331.614105 44.0
331.684326 116.0
331.860596 148.0
331.904114 112.0
331.947632 148.0
332.096344 188.0
332.146912 144.0
332.310364 200.0
332.366486 68.0
332.495422 188.0
332.5802 180.0
332.640625 104.0
332.81543 160.0
332.880249 136.0
332.923828 164.0
332.989197 44.0
333.076385 76.0
333.123596 172.0
333.188995 124.0
333.235901 140.0
333.468811 148.0
333.499023 104.0
333.588745 124.0
333.694183 84.0
333.784332 156.0
333.843262 96.0
333.88327 144.0
333.974213 152.0
334.017853 56.0
334.114166 144.0
334.167023 176.0
334.196106 44.0
334.308929 148.0
334.418121 148.0
334.60376 152.0
334.629242 164.0
334.756683 68.0
334.869598 132.0
334.896027 216.0
334.949738 140.0
335.069946 96.0
335.124603 172.0
335.147888 116.0
335.270355 124.0
335.394287 84.0
335.5802 56.0
335.683044 136.0
335.767303 180.0
335.882904 32.0
335.923035 164.0
336.098145 228.0
336.163849 76.0
336.300629 116.0
336.401093 128.0
336.44928 60.0
336.583618 88.0
336.660309 100.0
336.693176 80.0
336.722412 156.0
336.864868 140.0
336.909943 128.0
337.082886 136.0
337.142761 148.0
337.181549 144.0
337.226624 124.0
337.303375 132.0
337.338531 240.0
337.54834 92.0
337.581238 36.0
337.614166 144.0
337.742157 168.0
337.779694 140.0
337.877533 180.0
338.011078 216.0
338.184906 112.0
338.230621 132.0
338.393585 156.0
338.41745 84.0
338.518066 60.0
338.807434 204.0
338.913696 60.0
339.061859 212.0
339.115234 40.0
339.188568 132.0
339.38147 148.0
339.450348 108.0
339.500214 104.0
339.628571 208.0
339.745972 104.0
339.885376 152.0
339.936768 188.0
339.979126 168.0
340.032166 56.0
340.140015 168.0
340.18634 116.0
340.217896 168.0
340.321808 160.0
340.432343 60.0
340.593964 96.0
340.641693 56.0
340.832764 176.0
340.884186 132.0
340.939331 40.0
340.968719 156.0
341.052185 176.0
341.090027 112.0
341.115753 144.0
341.174561 164.0
341.259125 128.0
341.288544 116.0
341.634277 148.0
341.671051 112.0
341.712128 176.0
341.740967 124.0
341.921295 172.0
342.018829 80.0
342.102509 84.0
342.160553 28.0
342.18866 120.0
342.241547 104.0
342.293091 140.0
342.523224 144.0
342.554596 100.0
342.727753 64.0
342.775665 64.0
342.84201 76.0
342.91571 104.0
342.963623 104.0
343.015228 96.0
343.041046 100.0
343.072662 172.0
343.231049 116.0
343.310181 120.0
343.335999 252.0
343.483551 176.0
343.557312 136.0
343.595276 56.0
343.620056 144.0
343.667999 104.0
343.717651 120.0
343.772888 116.0
343.859894 108.0
343.904205 212.0
343.948608 120.0
344.018616 120.0
344.137878 4704.0
344.236481 248.0
344.295563 96.0
344.321411 180.0
344.454376 108.0
344.616943 32.0
344.672363 76.0
344.798004 204.0
344.842346 136.0
344.892487 228.0
344.942169 212.0
344.982819 192.0
345.030884 128.0
345.056763 172.0
345.142609 1260.0
345.287445 116.0
345.478394 116.0
345.667084 156.0
345.752594 200.0
345.804016 196.0
345.885437 236.0
346.007599 116.0
346.149475 316.0
346.240906 420.0
346.339142 160.0
346.389038 64.0
346.41629 148.0
346.442535 92.0
346.485382 76.0
346.605865 124.0
346.704437 224.0
346.759583 104.0
346.85965 96.0
346.896729 128.0
346.934906 108.0
347.015503 128.0
347.093628 148.0
347.136047 448.0
347.24527 124.0
347.321106 180.0
347.371399 140.0
347.409485 60.0
347.445587 136.0
347.48642 76.0
347.516083 96.0
347.753601 152.0
347.783295 140.0
347.824127 104.0
348.013458 128.0
348.14209 112.0
348.195435 164.0
348.273407 156.0
348.299408 56.0
348.347717 76.0
348.433167 164.0
348.496307 124.0
348.58551 88.0
348.645813 52.0
348.731079 192.0
348.906921 92.0
349.031586 92.0
349.076202 140.0
349.154297 88.0
349.234344 140.0
349.399078 124.0
349.455933 184.0
349.51886 88.0
349.589569 104.0
349.741241 212.0
349.902222 100.0
349.987885 44.0
350.129364 108.0
350.215057 56.0
350.274628 192.0
350.304443 164.0
350.364044 96.0
350.509369 76.0
350.598785 100.0
350.761841 124.0
350.930573 88.0
351.005127 52.0
351.034973 108.0
351.083435 108.0
351.153076 132.0
351.207794 140.0
351.242432 212.0
351.314697 88.0
351.348297 176.0
351.389313 108.0
351.482605 164.0
351.596313 180.0
351.669189 116.0
351.739044 236.0
351.777466 56.0
352.017273 144.0
352.072418 96.0
352.148071 384.0
352.255463 148.0
352.322693 132.0
352.393677 124.0
352.438507 60.0
352.678436 100.0
352.754944 136.0
352.984253 160.0
353.025391 48.0
353.131073 268.0
353.176178 140.0
353.204926 168.0
353.257294 92.0
353.283478 108.0
353.35083 92.0
353.433136 48.0
353.485535 136.0
353.571594 132.0
353.796204 96.0
353.85611 120.0
353.886047 96.0
353.930969 64.0
354.054565 68.0
354.117615 728.0
354.439087 160.0
354.505219 96.0
354.609039 116.0
354.725403 108.0
354.792725 180.0
355.013947 176.0
355.123779 344.0
355.331146 108.0
355.363434 168.0
355.409485 156.0
355.509155 116.0
355.576721 168.0
355.614227 176.0
355.643036 140.0
355.753143 88.0
355.79068 100.0
355.910828 96.0
356.037689 168.0
356.13681 808.0
356.173706 64.0
356.228882 116.0
356.275146 176.0
356.429199 48.0
356.504333 48.0
356.617096 172.0
356.665955 180.0
356.722351 136.0
356.747192 132.0
356.827209 112.0
357.087067 148.0
357.141907 276.0
357.201996 204.0
357.252594 192.0
357.37674 136.0
357.53006 168.0
357.591248 84.0
357.68158 136.0
357.753601 132.0
357.933411 144.0
358.1521 492.0
358.38208 132.0
358.461212 164.0
358.517731 212.0
358.566742 144.0
358.64212 88.0
358.706207 48.0
358.76651 136.0
358.864532 80.0
358.897034 228.0
358.973877 116.0
359.005219 128.0
359.045532 104.0
359.138062 264.0
359.222809 128.0
359.309601 56.0
359.449188 92.0
359.562775 256.0
359.656769 60.0
359.698303 76.0
359.86441 120.0
359.913483 248.0
360.030548 48.0
360.068329 148.0
360.173828 184.0
360.279846 136.0
360.340302 128.0
360.520966 148.0
360.704681 212.0
360.756042 144.0
360.907257 92.0
360.962555 116.0
361.001801 132.0
361.028259 80.0
361.088776 116.0
361.119049 64.0
361.160645 100.0
361.38385 100.0
361.410339 140.0
361.535217 144.0
361.565491 160.0
361.795532 192.0
361.894836 100.0
361.936462 104.0
362.003448 172.0
362.195374 144.0
362.322815 80.0
362.349335 116.0
362.402374 68.0
362.475983 140.0
362.525146 172.0
362.624176 132.0
362.73587 140.0
362.87616 168.0
362.966675 176.0
363.065765 120.0
363.128326 216.0
363.16156 184.0
363.208313 96.0
363.317993 144.0
363.441315 148.0
363.760101 228.0
363.801544 92.0
363.8508 72.0
363.930969 104.0
363.976532 96.0
364.044861 124.0
364.107452 200.0
364.196808 140.0
364.232239 120.0
364.293121 188.0
364.413757 160.0
364.539001 164.0
364.603333 108.0
364.637543 100.0
364.725677 148.0
364.992462 132.0
365.022888 176.0
365.209381 120.0
365.319336 104.0
365.458954 116.0
365.551514 124.0
365.6987 304.0
365.792297 164.0
365.798462 132.0
365.832794 140.0
365.951813 236.0
366.010864 148.0
366.067993 132.0
366.136536 180.0
366.208923 68.0
366.27243 124.0
366.32901 164.0
366.362152 132.0
366.391754 148.0
366.424713 128.0
366.548187 204.0
366.612762 92.0
366.719635 92.0
366.7547 168.0
366.789093 76.0
366.819519 172.0
366.889557 292.0
366.952026 44.0
367.015656 144.0
367.046967 140.0
367.071136 80.0
367.188446 136.0
367.273346 32456.0
367.411163 160.0
367.447845 60.0
367.477051 128.0
367.527252 132.0
367.585205 60.0
367.627167 40.0
367.664337 112.0
367.701874 120.0
367.792267 140.0
367.802734 36.0
367.817017 140.0
367.850159 76.0
367.899261 56.0
367.980682 164.0
368.008911 56.0
368.043274 116.0
368.077637 80.0
368.137604 380.0
368.274872 9672.0
368.381805 112.0
368.427917 96.0
368.457001 100.0
368.514221 40.0
368.582794 160.0
368.608429 120.0
368.645966 36.0
368.685028 104.0
368.756042 144.0
368.791382 164.0
368.868408 180.0
368.880493 208.0
368.922028 124.0
368.948761 92.0
369.006134 48.0
369.078766 104.0
369.145477 148.0
369.174377 112.0
369.214294 228.0
369.279175 1720.0
369.394165 132.0
369.438416 112.0
369.487152 88.0
369.595154 152.0
369.628723 136.0
369.679108 64.0
369.778839 84.0
369.847748 56.0
369.897522 124.0
369.974457 80.0
370.016998 168.0
370.069794 56.0
370.15274 1976.0
370.241211 112.0
370.268921 40.0
370.298798 120.0
370.349365 192.0
370.393707 148.0
370.461639 84.0
370.494904 160.0
370.523071 136.0
370.613678 116.0
370.656738 68.0
370.740417 148.0
370.770874 164.0
370.816803 92.0
370.901123 44.0
371.057648 48.0
371.152435 552.0
371.202698 140.0
371.229584 156.0
371.2771 68.0
371.329346 192.0
371.384247 52.0
371.435089 144.0
371.50769 160.0
371.596252 92.0
371.714203 48.0
371.785187 40.0
371.792633 92.0
371.809875 100.0
371.823578 88.0
371.834656 144.0
371.883057 156.0
371.955505 124.0
372.014648 128.0
372.046906 236.0
372.132874 8544.0
372.250061 176.0
372.354004 124.0
372.386047 44.0
372.443665 60.0
372.492737 164.0
372.543549 152.0
372.618744 84.0
372.683624 112.0
372.773651 144.0
372.843842 128.0
372.893219 144.0
372.942566 100.0
373.006531 172.0
373.080444 168.0
373.135223 2524.0
373.192719 184.0
373.235352 36.0
373.287628 148.0
373.343048 164.0
373.376038 56.0
373.419952 132.0
373.459961 60.0
373.496887 88.0
373.608429 64.0
373.677704 72.0
373.750793 128.0
373.856262 176.0
373.997101 136.0
374.081787 92.0
374.148041 4316.0
374.258881 32.0
374.288483 88.0
374.324341 72.0
374.387726 148.0
374.455292 200.0
374.50415 180.0
374.540039 100.0
374.620514 112.0
374.667999 180.0
374.727966 148.0
374.785187 272.0
374.885284 112.0
375.006256 232.0
375.060211 88.0
375.152557 920.0
375.242371 64.0
375.318512 100.0
375.438873 96.0
375.538361 148.0
375.5802 192.0
375.623199 204.0
375.70517 112.0
375.766327 160.0
375.813538 96.0
375.877838 116.0
376.002655 168.0
376.028351 164.0
376.089386 200.0
376.157593 372.0
376.361511 120.0
376.402832 128.0
376.444763 140.0
376.518677 84.0
376.557312 76.0
376.634552 144.0
376.858612 56.0
376.894287 140.0
377.017059 88.0
377.075043 148.0
377.170166 104.0
377.193634 152.0
377.227722 80.0
377.263641 96.0
377.416595 168.0
377.461639 136.0
377.535095 308.0
377.607544 136.0
377.709137 84.0
377.836823 152.0
377.960632 84.0
378.038025 60.0
378.06897 188.0
378.111542 92.0
378.142517 80.0
378.231537 68.0
378.293488 144.0
378.338287 132.0
378.479309 72.0
378.549011 88.0
378.672943 36.0
378.703918 128.0
378.781403 180.0
378.833435 184.0
378.876251 148.0
378.928619 100.0
378.986725 212.0
379.075867 56.0
379.122375 88.0
379.153381 156.0
379.213501 148.0
379.25415 64.0
379.285156 124.0
379.373505 136.0
379.496246 340.0
379.641846 136.0
379.672882 104.0
379.808624 160.0
379.892029 152.0
379.963806 140.0
380.00824 88.0
380.139557 576.0
380.240051 292.0
380.306793 72.0
380.362061 140.0
380.394562 40.0
380.435028 152.0
380.538208 160.0
380.577057 108.0
380.615875 72.0
380.699585 192.0
380.786743 116.0
380.88385 68.0
380.914917 40.0
381.004669 216.0
381.05957 104.0
381.14209 320.0
381.216156 6224.0
381.291809 96.0
381.354004 88.0
381.387482 72.0
381.467926 176.0
381.513397 44.0
381.563934 176.0
381.637634 96.0
381.707794 100.0
381.854645 168.0
381.89386 172.0
382.077301 60.0
382.139282 120.0
382.217651 1852.0
382.286743 140.0
382.396393 72.0
382.439331 124.0
382.497589 204.0
382.53653 116.0
382.584747 52.0
382.707825 160.0
382.750641 72.0
382.886963 160.0
383.015503 248.0
383.108978 112.0
383.220917 488.0
383.275421 156.0
383.381744 128.0
383.451874 60.0
383.545441 80.0
383.572723 160.0
383.635101 116.0
383.709167 160.0
383.742126 140.0
383.792328 80.0
383.913971 76.0
383.93924 152.0
383.970428 40.0
384.046082 160.0
384.087433 216.0
384.132812 248.0
384.185944 128.0
384.224884 288.0
384.258026 84.0
384.305908 400.0
384.436951 172.0
384.532257 72.0
384.55957 48.0
384.719604 124.0
384.754761 92.0
384.789886 36.0
384.883606 120.0
384.983337 156.0
385.044586 144.0
385.137451 64.0
385.174225 156.0
385.214417 40.0
385.280029 300.0
385.348419 60.0
385.42688 148.0
385.469543 232.0
385.578949 168.0
385.606323 52.0
385.658203 72.0
385.727478 88.0
385.813507 84.0
385.848694 100.0
385.976471 324.0
386.005096 96.0
386.040283 36.0
386.146698 3148.0
386.255249 204.0
386.277588 240.0
386.317993 32.0
386.362915 112.0
386.417786 188.0
386.44043 136.0
386.4823 172.0
386.509705 84.0
386.619263 204.0
386.674072 88.0
386.757263 156.0
386.80307 100.0
386.881531 108.0
386.970123 152.0
387.147217 632.0
387.205078 140.0
387.288788 108.0
387.366425 92.0
387.437622 128.0
387.4729 56.0
387.515778 76.0
387.55127 224.0
387.586517 124.0
387.733337 112.0
387.833435 220.0
387.878845 136.0
387.959015 116.0
387.990234 184.0
388.044647 172.0
388.089935 204.0
388.165558 11844.0
388.273895 164.0
388.315704 104.0
388.358856 116.0
388.449066 48.0
388.62561 84.0
388.712341 116.0
388.75119 68.0
388.845367 156.0
388.931274 96.0
388.970978 144.0
389.010223 112.0
389.16571 4136.0
389.269348 100.0
389.304718 92.0
389.505005 120.0
389.536438 44.0
389.667145 120.0
389.740753 124.0
389.811462 72.0
389.878418 116.0
389.952942 132.0
389.984406 60.0
390.106262 124.0
390.167419 912.0
390.214722 88.0
390.251709 116.0
390.306763 48.0
390.35788 40.0
390.42868 52.0
390.483734 128.0
390.546661 124.0
390.591644 120.0
390.608093 52.0
390.619354 100.0
390.649231 108.0
390.688293 40.0
390.740509 156.0
390.819183 148.0
390.912567 140.0
391.032715 136.0
391.147858 92.0
391.176819 136.0
391.315216 96.0
391.369171 280.0
391.438385 280.0
391.522766 156.0
391.577911 164.0
391.617279 108.0
391.656677 168.0
391.722717 68.0
391.841827 48.0
391.952148 152.0
392.066437 92.0
392.141327 72.0
392.205963 60.0
392.246643 116.0
392.334381 200.0
392.409363 128.0
392.436981 132.0
392.558441 164.0
392.649933 80.0
392.689362 136.0
392.799805 120.0
392.933929 60.0
393.044434 116.0
393.427277 96.0
393.518066 100.0
393.640472 200.0
393.810303 68.0
393.841919 108.0
393.920502 76.0
393.97876 156.0
394.023621 92.0
394.078949 144.0
394.205383 100.0
394.252808 88.0
394.304169 160.0
394.42276 64.0
394.470184 116.0
394.553223 120.0
394.600647 80.0
394.723236 96.0
394.759888 180.0
394.851929 96.0
394.913757 92.0
394.976349 72.0
395.07962 116.0
395.11087 160.0
395.150421 80.0
395.190002 152.0
395.237457 60.0
395.304932 84.0
395.415558 72.0
395.52243 184.0
395.621399 164.0
395.68869 196.0
395.783386 100.0
396.031586 136.0
396.082855 188.0
396.145966 140.0
396.175812 152.0
396.222626 128.0
396.256683 176.0
396.326385 108.0
396.466827 136.0
396.508667 84.0
396.544342 160.0
396.589325 116.0
396.633881 176.0
396.683197 120.0
396.734619 144.0
396.782196 76.0
396.87735 92.0
396.94873 40.0
396.9841 160.0
397.039917 88.0
397.087311 76.0
397.093903 72.0
397.158112 188.0
397.203918 220.0
397.254883 404.0
397.345367 108.0
397.424713 76.0
397.48645 100.0
397.595367 128.0
397.64212 128.0
397.65155 176.0
397.710449 164.0
397.781921 168.0
397.831909 108.0
397.908936 164.0
397.989685 60.0
398.016144 140.0
398.043945 172.0
398.090607 132.0
398.149536 6924.0
398.244598 3544.0
398.319183 160.0
398.375458 128.0
398.433105 168.0
398.483246 128.0
398.519073 72.0
398.608032 104.0
398.647766 68.0
398.742035 172.0
398.802765 56.0
398.848663 44.0
398.878296 120.0
398.904938 68.0
398.957794 152.0
398.993561 80.0
399.026703 120.0
399.069122 176.0
399.150208 2564.0
399.240723 672.0
399.307709 48.0
399.381256 156.0
399.596893 172.0
399.649841 180.0
399.777161 84.0
399.892578 180.0
399.957794 52.0
400.063751 144.0
400.151184 432.0
400.240601 252.0
400.29541 132.0
400.327698 112.0
400.402222 148.0
400.577484 168.0
400.663422 148.0
400.786804 184.0
400.824493 108.0
400.870209 168.0
400.908173 104.0
400.952515 380.0
401.131104 300.0
401.156403 116.0
401.215088 128.0
401.265503 112.0
401.310791 184.0
401.434387 96.0
401.519196 184.0
401.59845 92.0
401.6091 40.0
401.657745 152.0
401.718109 92.0
401.808411 136.0
401.874512 84.0
401.916534 88.0
401.988892 148.0
402.033966 136.0
402.092651 96.0
402.142975 184.0
402.212402 248.0
402.308929 5112.0
402.378601 164.0
402.42749 128.0
402.52121 116.0
402.587708 148.0
402.648376 84.0
402.70752 60.0
402.743469 116.0
402.826141 152.0
402.963196 88.0
403.125397 168.0
403.162994 212.0
403.20694 140.0
403.311554 1112.0
403.376953 120.0
403.389069 64.0
403.400024 92.0
403.449554 124.0
403.566742 44.0
403.602722 156.0
403.64444 248.0
403.684174 120.0
403.739655 184.0
403.814667 140.0
403.849487 136.0
403.862488 96.0
403.879028 228.0
403.934662 116.0
404.172516 160.0
404.21875 120.0
404.254761 136.0
404.312836 304.0
404.404022 136.0
404.44458 132.0
404.522919 144.0
404.627014 184.0
404.663513 172.0
404.727112 192.0
404.755127 100.0
404.879272 152.0
405.01947 264.0
405.067535 100.0
405.135529 140.0
405.149658 136.0
405.177521 132.0
405.319946 152.0
405.492249 120.0
405.532349 100.0
405.607819 48.0
405.644562 204.0
405.724762 72.0
405.791779 168.0
405.80722 120.0
405.822937 236.0
405.95874 156.0
406.051788 144.0
406.079468 148.0
406.133789 40.0
406.197968 148.0
406.25412 212.0
406.39856 104.0
406.490601 60.0
406.735321 44.0
406.806122 196.0
406.840057 164.0
407.134338 124.0
407.221527 96.0
407.299225 256.0
407.370148 144.0
407.414337 96.0
407.490295 84.0
407.550934 60.0
407.703644 116.0
407.818634 112.0
407.868439 132.0
407.93399 180.0
407.972961 68.0
408.196045 164.0
408.234436 124.0
408.3992 156.0
408.600342 176.0
408.632538 92.0
408.664703 108.0
408.708984 84.0
408.76532 56.0
408.874908 192.0
408.918243 88.0
409.014832 168.0
409.058563 172.0
409.187347 132.0
409.214844 224.0
409.27652 172.0
409.345001 84.0
409.411926 148.0
409.498016 188.0
409.643036 88.0
409.703796 140.0
409.800171 152.0
409.917847 96.0
409.953278 196.0
410.183014 164.0
410.216827 304.0
410.275726 140.0
410.303955 92.0
410.465454 300.0
410.553955 56.0
410.703186 176.0
410.832275 144.0
410.888763 140.0
410.923889 164.0
411.118774 132.0
411.276154 332.0
411.340759 144.0
411.52243 140.0
411.554718 180.0
411.728363 64.0
411.926086 228.0
412.013763 140.0
412.153015 240.0
412.196991 116.0
412.296448 256.0
412.36673 120.0
412.427338 64.0
412.479889 116.0
412.524353 136.0
412.552673 120.0
412.758881 76.0
412.827606 112.0
412.93277 200.0
412.98938 116.0
413.051605 184.0
413.147156 176.0
413.207855 400.0
413.252594 116.0
413.296387 136.0
413.402069 104.0
413.45871 152.0
413.538818 116.0
413.628723 148.0
413.742065 268.0
413.843292 164.0
413.871368 120.0
413.97052 116.0
414.001221 172.0
414.051575 176.0
414.156433 132.0
414.187531 140.0
414.315186 320.0
414.347534 52.0
414.376129 172.0
414.410339 132.0
414.483276 136.0
414.537201 104.0
414.596405 136.0
414.632721 128.0
414.704926 180.0
414.771942 180.0
414.819885 80.0
414.85437 80.0
414.891663 296.0
414.918823 88.0
414.944366 164.0
414.994019 132.0
415.072937 164.0
415.175842 3860.0
415.230774 288.0
415.258728 260.0
415.323578 108.0
415.380219 104.0
415.44458 104.0
415.490417 304.0
415.535614 240.0
415.566376 140.0
415.611511 284.0
415.659637 116.0
415.728943 204.0
415.774963 132.0
415.805328 112.0
415.8237 176.0
415.913147 128.0
415.969452 152.0
416.066406 360.0
416.159821 100604.0
416.267853 252.0
416.324768 72.0
416.373108 52.0
416.413025 148.0
416.461456 272.0
416.478851 120.0
416.485291 308.0
416.542969 128.0
416.587158 276.0
416.627045 128.0
416.674164 120.0
416.725372 136.0
416.767914 248.0
416.830231 288.0
416.895721 232.0
416.948914 224.0
416.989716 200.0
417.032349 192.0
417.076019 188.0
417.091888 80.0
417.163055 33564.0
417.252991 280.0
417.286194 132.0
417.331268 56.0
417.393677 116.0
417.425964 52.0
417.435425 84.0
417.495605 88.0
417.548645 140.0
417.608276 80.0
417.648132 44.0
417.701355 84.0
417.731171 148.0
417.780151 84.0
417.823395 108.0
417.869415 132.0
417.899475 68.0
417.944092 68.0
417.995789 64.0
418.026245 116.0
418.098541 48.0
418.164734 3580.0
418.258636 96.0
418.309692 152.0
418.439941 152.0
418.51886 48.0
418.631683 196.0
418.659332 92.0
418.7099 68.0
418.740784 188.0
418.781311 100.0
418.841309 152.0
418.894287 96.0
418.971344 140.0
419.008087 144.0
419.065399 164.0
419.166687 716.0
419.263916 100.0
419.315735 144.0
419.359039 172.0
419.434326 148.0
419.467529 112.0
419.552521 260.0
419.612854 164.0
419.641846 164.0
419.68869 60.0
419.713196 216.0
419.744202 188.0
419.782257 208.0
419.822327 100.0
419.897614 212.0
419.932648 188.0
419.987244 104.0
420.036469 352.0
420.082214 136.0
420.117279 188.0
420.165192 112.0
420.20636 116.0
420.335571 196.0
420.395233 252.0
420.477661 60.0
420.575592 92.0
420.627716 108.0
420.654449 152.0
420.706909 120.0
420.753052 152.0
420.785736 220.0
420.847809 228.0
420.885864 100.0
420.941223 116.0
420.96637 96.0
421.016541 40.0
421.046143 296.0
421.167664 116.0
421.226562 96.0
421.273895 60.0
421.374969 124.0
421.512634 108.0
421.543549 60.0
421.661133 168.0
421.696503 104.0
421.780609 168.0
421.931854 80.0
421.964569 96.0
421.993195 40.0
422.044525 76.0
422.146271 128.0
422.267181 80.0
422.339996 164.0
422.367035 68.0
422.430786 168.0
422.497742 228.0
422.594421 92.0
422.684448 96.0
422.862885 80.0
422.95047 120.0
422.987305 104.0
423.027191 76.0
423.069183 64.0
423.187927 164.0
423.282104 48.0
423.339447 88.0
423.368103 144.0
423.519653 140.0
423.589264 128.0
423.62616 56.0
424.00827 136.0
424.058014 160.0
424.134277 96.0
424.204987 144.0
424.235138 164.0
424.367645 104.0
424.456909 92.0
424.54837 80.0
424.593475 52.0
424.638611 88.0
424.773956 96.0
424.832581 128.0
424.888824 36.0
424.970886 92.0
425.00061 184.0
425.048859 64.0
425.112701 164.0
425.217102 156.0
425.27594 72.0
425.323822 44.0
425.389496 288.0
425.512665 168.0
425.56604 148.0
425.607117 172.0
425.668701 68.0
425.72525 124.0
425.759033 172.0
425.813934 120.0
425.906921 48.0
425.976746 104.0
426.013702 96.0
426.083801 136.0
426.194489 100.0
426.232544 76.0
426.354767 104.0
426.580811 176.0
426.862579 108.0
427.076996 144.0
427.131836 112.0
427.181458 240.0
427.349884 132.0
427.382812 76.0
427.448639 136.0
427.526825 180.0
427.744995 124.0
427.843781 132.0
428.020844 92.0
428.11142 68.0
428.152618 100.0
428.181427 44.0
428.502747 128.0
428.534668 76.0
428.634247 48.0
428.701874 136.0
428.844788 160.0
428.873627 124.0
428.956085 136.0
429.026154 92.0
429.08075 176.0
429.133209 108.0
429.19519 136.0
429.392334 60.0
429.442627 108.0
429.566376 140.0
429.706665 136.0
429.768555 80.0
429.851074 40.0
429.900604 128.0
430.032654 160.0
430.086334 124.0
430.12619 140.0
430.173004 132.0
430.252991 192.0
430.288605 180.0
430.321625 124.0
430.366913 116.0
430.432526 84.0
430.480927 124.0
430.523956 100.0
430.610687 212.0
430.680237 96.0
430.694336 80.0
430.70285 116.0
430.742889 144.0
430.850281 72.0
430.903992 112.0
430.986633 80.0
431.019684 232.0
431.14682 284.0
431.187836 156.0
431.27063 160.0
431.285004 140.0
431.430023 124.0
431.483948 208.0
431.561188 56.0
431.629639 100.0
431.693024 248.0
431.797729 140.0
431.863068 88.0
431.910034 124.0
431.974335 176.0
432.002838 116.0
432.051453 156.0
432.101135 160.0
432.169434 68.0
432.260712 104.0
432.292786 524.0
432.336914 120.0
432.377838 332.0
432.435944 244.0
432.479584 64.0
432.511993 152.0
432.539398 88.0
432.55368 124.0
432.565582 200.0
432.599274 140.0
432.605133 208.0
432.663025 188.0
432.706299 92.0
432.75061 264.0
432.791046 168.0
432.914734 148.0
432.958435 208.0
432.986511 120.0
433.017181 260.0
433.04892 332.0
433.093933 332.0
433.186493 115556.0
433.295746 176.0
433.337952 144.0
433.376495 356.0
433.442322 156.0
433.471405 252.0
433.552765 224.0
433.58078 160.0
433.64093 304.0
433.673126 180.0
433.70932 60.0
433.740936 280.0
433.786835 104.0
433.817322 188.0
433.832825 40.0
433.844849 192.0
433.861542 108.0
433.88092 148.0
433.907104 140.0
433.959717 324.0
434.011963 236.0
434.044556 100.0
434.076294 364.0
434.105011 348.0
434.18866 29800.0
434.301666 276.0
434.344208 68.0
434.427368 180.0
434.503601 120.0
434.57074 76.0
434.658691 124.0
434.742523 92.0
434.797852 96.0
434.831451 140.0
434.843506 96.0
434.896973 176.0
434.960022 40.0
435.014099 164.0
435.072052 176.0
435.193573 3860.0
435.287323 96.0
435.323486 160.0
435.373535 32.0
435.41687 84.0
435.462463 216.0
435.534485 140.0
435.58136 160.0
435.627167 132.0
435.705841 160.0
435.721497 40.0
435.735321 92.0
435.81015 72.0
435.868622 160.0
435.900024 60.0
436.004028 148.0
436.037537 104.0
436.067902 92.0
436.125549 68.0
436.195618 712.0
436.257751 124.0
436.333405 128.0
436.380341 108.0
436.456207 180.0
436.506348 88.0
436.561798 108.0
436.572357 140.0
436.658813 52.0
436.70047 136.0
436.742523 136.0
436.789398 156.0
436.887634 192.0
436.925629 180.0
436.961426 128.0
437.025269 224.0
437.06601 156.0
437.128082 96.0
437.160461 144.0
437.199707 220.0
437.253296 88.0
437.37326 144.0
437.437775 96.0
437.483734 72.0
437.569092 60.0
437.622925 112.0
437.703918 88.0
437.781464 92.0
437.876862 44.0
437.921387 140.0
437.963165 228.0
438.058655 116.0
438.150299 116.0
438.187347 136.0
438.218842 136.0
438.289673 40.0
438.327179 40.0
438.381348 196.0
438.431335 96.0
438.485535 108.0
438.627258 88.0
438.723114 104.0
438.810669 204.0
438.844025 116.0
438.906586 104.0
438.956604 124.0
438.998322 52.0
439.04837 44.0
439.082275 152.0
439.141357 112.0
439.202881 80.0
439.236053 52.0
439.290283 84.0
439.318085 60.0
439.394592 100.0
439.440491 100.0
439.498901 28.0
439.528107 76.0
439.60321 32.0
439.681885 80.0
439.740936 136.0
439.828583 84.0
439.891205 152.0
439.932953 56.0
440.045685 28.0
440.108307 152.0
440.179291 208.0
440.317108 64.0
440.363037 88.0
440.444794 328.0
440.50647 188.0
440.601166 92.0
440.630402 136.0
440.670654 76.0
440.709778 192.0
440.808472 192.0
440.847687 104.0
440.96051 172.0
441.090088 140.0
441.176147 124.0
441.247711 1196.0
441.349304 132.0
441.413879 192.0
441.55423 148.0
441.670502 180.0
441.893066 80.0
441.976746 156.0
442.035339 76.0
442.071777 108.0
442.125702 188.0
442.257843 796.0
442.353424 104.0
442.399475 120.0
442.487396 92.0
442.529266 36.0
442.613007 164.0
442.702667 260.0
442.840698 172.0
443.134766 140.0
443.19104 88.0
443.239563 124.0
443.299988 76.0
443.388 52.0
443.507233 232.0
443.639496 92.0
443.723358 176.0
443.801819 112.0
443.836548 112.0
443.912048 140.0
443.98111 100.0
444.054626 100.0
444.115875 120.0
444.13385 72.0
444.148407 112.0
444.197235 188.0
444.255981 92.0
444.537079 196.0
444.71756 48.0
444.759521 132.0
444.809906 156.0
444.847687 128.0
444.969421 60.0
445.074402 84.0
445.211151 120.0
445.444 68.0
445.620453 260.0
445.658264 52.0
445.903595 104.0
446.085571 220.0
446.128967 48.0
446.184021 144.0
446.339203 120.0
446.440125 168.0
446.49353 184.0
446.629395 64.0
446.764008 136.0
446.854736 128.0
446.889771 260.0
446.970184 124.0
447.159546 72.0
447.205841 148.0
447.257629 92.0
447.322968 116.0
447.382629 148.0
447.452606 176.0
447.610016 168.0
447.727905 180.0
447.814636 104.0
447.866913 140.0
448.060699 48.0
448.102814 144.0
448.195892 140.0
448.29245 52.0
448.43808 136.0
448.644836 80.0
448.747681 108.0
448.789856 56.0
448.868469 112.0
448.903687 168.0
448.971191 76.0
449.034424 92.0
449.089264 96.0
449.139893 192.0
449.187469 144.0
449.228485 100.0
449.304413 80.0
449.401459 64.0
449.431 72.0
449.482635 96.0
449.557587 192.0
449.625092 88.0
449.717957 80.0
449.793945 132.0
449.958588 128.0
450.003937 140.0
450.102142 40.0
450.150208 84.0
450.216156 120.0
450.296387 116.0
450.334412 76.0
450.549866 60.0
450.651245 128.0
450.710419 112.0
450.773804 144.0
450.890015 144.0
450.92981 100.0
450.989319 132.0
451.063782 156.0
451.335999 104.0
451.412109 104.0
451.500916 144.0
451.547455 64.0
451.703949 88.0
451.993866 164.0
452.169373 64.0
452.203247 120.0
452.296356 92.0
452.478394 144.0
452.575775 56.0
452.776947 64.0
452.855286 128.0
453.141968 148.0
453.173004 108.0
453.283173 40.0
453.329803 36.0
453.473877 136.0
453.77063 72.0
453.880859 96.0
454.063232 64.0
454.135315 56.0
454.249847 92.0
454.334686 104.0
454.432129 104.0
454.450684 96.0
454.534119 100.0
454.568054 64.0
454.60202 120.0
454.691132 48.0
454.746307 124.0
454.852417 132.0
455.11142 136.0
455.350494 172.0
455.438416 76.0
455.475037 84.0
455.492004 52.0
455.608337 60.0
455.850525 40.0
455.910034 128.0
455.965271 136.0
456.020508 136.0
456.189819 92.0
456.256439 380.0
456.381866 124.0
456.700836 60.0
456.998627 128.0
457.264771 232.0
457.491058 120.0
457.598755 128.0
457.7052 148.0
457.803162 96.0
457.832947 116.0
457.875549 132.0
457.913879 92.0
457.969238 56.0
458.003326 64.0
458.101288 176.0
458.203552 72.0
458.263184 200.0
458.297272 132.0
458.373993 96.0
458.412323 88.0
458.442169 80.0
458.591339 132.0
458.642487 88.0
458.676575 148.0
458.74054 60.0
458.908783 96.0
459.158386 104.0
459.299133 96.0
459.414337 136.0
459.444183 176.0
459.606323 196.0
459.691681 100.0
459.721527 88.0
459.785553 148.0
460.056305 232.0
460.150452 140.0
460.255127 184.0
460.336273 48.0
460.468658 64.0
460.505341 176.0
460.652344 120.0
460.75058 104.0
460.865936 68.0
460.951416 100.0
461.0177 180.0
461.25058 64.0
461.35318 92.0
461.4216 80.0
461.575531 176.0
461.660553 136.0
461.738037 120.0
461.870605 172.0
461.995911 192.0
462.140137 52.0
462.170105 72.0
462.221436 148.0
462.273895 140.0
462.34845 192.0
462.426849 152.0
462.645172 152.0
462.843689 152.0
463.371979 96.0
463.450378 276.0
463.604645 124.0
463.664642 32.0
463.720337 84.0
464.06308 84.0
464.164978 172.0
464.196228 136.0
464.236664 120.0
464.281982 112.0
464.41925 124.0
464.535065 172.0
464.672333 72.0
464.865448 144.0
464.895477 148.0
464.959839 96.0
465.047424 232.0
465.25174 80.0
465.286072 124.0
465.350494 112.0
465.444946 184.0
465.539429 104.0
465.638214 64.0
465.694031 44.0
465.981842 124.0
466.059204 88.0
466.110748 108.0
466.226776 48.0
466.265472 120.0
466.378754 100.0
466.558014 72.0
466.738342 52.0
466.850159 112.0
467.035095 112.0
467.146942 104.0
467.284607 128.0
467.755859 104.0
467.857025 100.0
468.00769 116.0
468.037842 68.0
468.179962 140.0
468.214417 148.0
468.495972 108.0
468.580566 168.0
468.630524 140.0
468.709808 172.0
468.97702 108.0
469.065979 148.0
469.11496 124.0
469.326202 124.0
469.658295 48.0
469.869659 196.0
469.977539 236.0
470.085419 156.0
470.132874 120.0
470.167419 216.0
470.206268 88.0
470.322449 148.0
470.547272 64.0
470.831207 196.0
470.842712 124.0
471.210236 192.0
471.329071 104.0
471.372284 104.0
471.795349 100.0
471.843414 140.0
472.059601 120.0
472.157684 176.0
472.195343 240.0
472.262878 112.0
472.306152 76.0
472.509552 188.0
472.669556 116.0
472.71283 196.0
473.050415 120.0
473.143341 164.0
473.314545 172.0
473.570038 132.0
473.626343 88.0
473.678345 80.0
473.881256 100.0
473.894745 84.0
473.981628 120.0
474.085632 156.0
474.276306 88.0
474.35434 168.0
474.653503 196.0
474.800934 80.0
474.887695 88.0
474.97879 124.0
475.171936 156.0
475.26947 124.0
475.395294 152.0
475.43869 144.0
475.607971 136.0
475.6427 108.0
475.764252 184.0
475.820679 108.0
475.855408 156.0
476.039948 116.0
476.267975 144.0
476.424347 96.0
476.495758 204.0
476.572083 104.0
476.69809 68.0
476.787201 144.0
477.088226 148.0
477.163544 216.0
477.237091 64.0
477.62851 96.0
477.665894 108.0
477.85907 48.0
477.980927 88.0
478.215912 136.0
478.419373 92.0
478.481476 100.0
478.590302 40.0
478.773224 208.0
478.93988 120.0
478.995331 156.0
479.051971 112.0
479.095551 44.0
479.282898 176.0
479.435425 116.0
479.677307 128.0
479.784119 148.0
479.877228 168.0
480.173004 112.0
480.516815 48.0
480.551727 108.0
480.667664 84.0
480.78302 92.0
480.861572 48.0
481.079803 140.0
481.149658 104.0
481.184601 152.0
481.228271 180.0
481.274658 160.0
481.333038 76.0
481.555786 52.0
481.647491 136.0
481.717407 40.0
481.84845 120.0
481.931488 120.0
482.058197 48.0
482.123749 200.0
482.158722 88.0
482.229401 136.0
482.297333 712.0
482.412231 72.0
482.442841 128.0
482.477814 168.0
482.534637 84.0
482.591492 104.0
482.700806 152.0
482.818878 164.0
482.921356 212.0
483.041931 68.0
483.249817 148.0
483.302124 464.0
483.37677 120.0
483.453217 116.0
483.490234 140.0
483.969788 128.0
484.140564 100.0
484.214996 128.0
484.250061 172.0
484.328888 132.0
484.381439 60.0
484.429626 112.0
484.547913 192.0
484.644318 92.0
484.696899 108.0
484.768921 244.0
485.100128 52.0
485.15274 92.0
485.314941 160.0
485.535034 108.0
485.604401 128.0
485.841248 108.0
486.065033 100.0
486.192291 224.0
486.249359 104.0
486.448486 176.0
486.863983 108.0
486.972382 100.0
487.026489 136.0
487.115936 184.0
487.232971 84.0
487.421906 156.0
487.501007 148.0
487.61615 216.0
487.64447 124.0
487.676788 76.0
487.828247 160.0
487.883392 56.0
487.917664 232.0
487.949341 136.0
487.980133 96.0
488.125244 132.0
488.191193 92.0
488.235168 132.0
488.296753 76.0
488.362732 164.0
488.441895 116.0
488.573883 120.0
488.675049 140.0
488.727875 92.0
488.815857 84.0
489.119537 152.0
489.247223 72.0
489.379303 108.0
489.437408 160.0
489.509521 112.0
489.551025 192.0
489.581848 136.0
489.643524 80.0
489.832916 160.0
489.987091 80.0
490.048798 196.0
490.148346 108.0
490.273529 96.0
490.467468 92.0
490.683472 168.0
491.018585 56.0
491.203857 88.0
491.274445 116.0
491.481812 204.0
491.645081 108.0
491.843689 228.0
491.924591 136.0
491.993774 108.0
492.059998 120.0
492.497192 128.0
492.594391 168.0
492.744598 96.0
492.938385 116.0
492.98761 252.0
493.062744 92.0
493.358917 124.0
493.487122 192.0
493.515961 132.0
493.649261 144.0
493.822479 148.0
493.955902 184.0
494.017853 32.0
494.127075 180.0
494.208069 144.0
494.33197 68.0
494.371826 68.0
494.433777 128.0
494.509003 56.0
494.597534 124.0
494.690491 68.0
494.973846 144.0
495.029175 148.0
495.071289 68.0
495.30603 108.0
495.465515 88.0
495.523102 140.0
495.562988 216.0
495.625 224.0
495.656036 72.0
495.687042 76.0
495.766815 104.0
495.797821 180.0
495.873169 144.0
496.054901 88.0
496.143585 196.0
496.179047 168.0
496.212585 116.0
496.343109 128.0
496.405182 96.0
496.453949 88.0
496.600311 68.0
496.65799 44.0
496.866486 140.0
496.977386 152.0
497.021759 124.0
497.100433 116.0
497.234772 164.0
497.301361 180.0
497.461151 60.0
497.567719 172.0
497.625427 168.0
497.692017 96.0
497.767517 188.0
497.865204 52.0
497.935944 108.0
498.124786 196.0
498.282776 220.0
498.339081 148.0
498.527161 172.0
498.631744 172.0
498.962769 120.0
499.118378 48.0
499.180634 104.0
499.260681 204.0
499.316986 476.0
499.465271 160.0
499.52713 124.0
499.687714 140.0
499.852356 208.0
500.051422 120.0
500.097137 208.0
500.186157 104.0
500.270721 100.0
500.338165 296.0
500.431 132.0
500.502258 124.0
500.561127 160.0
500.686554 156.0
500.717041 188.0
500.918152 104.0
500.976837 72.0
501.036713 128.0
501.195038 240.0
501.304077 76.0
501.353088 140.0
501.446686 104.0
501.669556 92.0
501.714142 84.0
502.012878 84.0
502.077209 152.0
502.383087 132.0
502.414337 164.0
502.458923 88.0
502.494629 116.0
502.595764 96.0
502.627686 272.0
502.686493 84.0
502.88913 120.0
502.901581 148.0
502.949829 72.0
503.284668 152.0
503.360565 152.0
503.414154 52.0
503.552612 136.0
503.640503 100.0
503.780396 76.0
504.052948 144.0
504.218292 144.0
504.298767 92.0
504.338989 168.0
504.473083 80.0
504.736877 132.0
504.879974 68.0
505.095215 100.0
505.202942 216.0
505.357422 120.0
505.465179 64.0
505.81958 104.0
505.855408 100.0
505.971802 92.0
506.144867 128.0
506.267334 176.0
506.298676 152.0
506.347931 72.0
506.383759 48.0
506.531586 132.0
506.611389 128.0
506.855164 160.0
507.220184 108.0
507.275391 136.0
507.409943 96.0
507.486176 176.0
507.522034 148.0
507.836456 72.0
507.903259 40.0
507.961578 104.0
508.141022 120.0
508.230743 104.0
508.313904 68.0
508.432434 104.0
508.562836 104.0
508.677551 108.0
508.966888 48.0
509.012817 124.0
509.065674 192.0
509.245331 104.0
509.280182 164.0
509.438477 208.0
509.489502 156.0
509.649658 132.0
509.695801 176.0
509.735016 72.0
509.933746 112.0
510.027161 184.0
510.139526 164.0
510.299316 52.0
510.379944 136.0
510.454285 108.0
510.507538 136.0
510.746613 152.0
510.82309 136.0
510.931061 100.0
511.005432 112.0
511.147034 100.0
511.269592 164.0
511.304535 168.0
511.444061 136.0
511.651123 180.0
511.759186 108.0
512.020386 144.0
512.096924 116.0
512.209412 116.0
512.226746 112.0
512.2771 164.0
512.443787 64.0
512.488892 212.0
512.597046 156.0
512.654175 116.0
512.858398 124.0
512.962097 136.0
513.037659 136.0
513.076782 184.0
513.146912 108.0
513.289246 156.0
513.31543 140.0
513.485168 116.0
513.724182 84.0
513.838806 140.0
513.967834 104.0
514.225098 100.0
514.310852 60.0
514.383057 112.0
514.581726 92.0
514.617798 32.0
514.766846 76.0
514.839111 112.0
515.019775 172.0
515.313416 84.0
515.434265 64.0
515.64325 148.0
515.69751 96.0
515.815063 112.0
516.059143 136.0
516.15863 56.0
516.194824 60.0
516.262634 68.0
516.361938 164.0
516.466187 104.0
516.72406 52.0
516.769287 124.0
517.108704 108.0
517.221863 120.0
517.26709 76.0
517.307861 148.0
517.451233 100.0
517.620239 72.0
517.679138 96.0
517.772339 124.0
517.860291 116.0
517.974792 84.0
518.119446 204.0
518.15271 144.0
518.30426 128.0
518.767273 148.0
518.843628 88.0
518.879883 84.0
518.987915 140.0
519.26532 100.0
519.400452 172.0
519.418335 136.0
519.469482 96.0
519.619141 100.0
519.655457 132.0
519.74469 152.0
520.077515 60.0
520.116028 116.0
520.358948 148.0
520.504272 108.0
520.572388 112.0
520.740417 104.0
520.841125 116.0
521.045593 168.0
521.13562 144.0
521.299255 160.0
521.449219 92.0
521.599915 100.0
521.812866 116.0
521.924133 168.0
522.0448 152.0
522.076599 156.0
522.167542 44.0
522.234558 252.0
522.340393 80.0
522.40863 100.0
522.831787 84.0
522.991089 76.0
523.632996 144.0
523.76062 48.0
523.806213 164.0
524.024841 140.0
524.216248 36.0
524.248169 140.0
524.378113 52.0
524.421326 168.0
524.587524 132.0
524.621887 132.0
524.705444 112.0
524.799683 44.0
525.105225 144.0
525.293396 120.0
525.44281 92.0
525.575134 128.0
525.639038 156.0
525.75769 80.0
525.807861 164.0
525.839844 48.0
525.932495 196.0
525.961243 152.0
526.008728 88.0
526.090881 36.0
526.236938 112.0
526.275391 124.0
526.304749 284.0
526.394409 76.0
526.661682 160.0
526.730225 96.0
526.780457 128.0
526.926208 160.0
527.022583 124.0
527.063721 120.0
527.177979 172.0
527.292236 84.0
527.369446 112.0
527.515991 184.0
527.644165 88.0
527.850342 92.0
528.051147 108.0
528.101501 112.0
528.156372 84.0
528.234131 76.0
528.27002 76.0
528.412537 92.0
528.462891 120.0
528.55542 196.0
528.601746 176.0
528.728271 72.0
528.838135 144.0
528.993774 92.0
529.109802 128.0
529.199768 152.0
529.364624 100.0
529.467407 196.0
529.557007 244.0
529.667725 160.0
529.914307 156.0
530.02887 124.0
530.134277 112.0
530.207581 172.0
530.418457 192.0
530.468201 136.0
530.542175 60.0
530.57428 60.0
530.684326 136.0
530.721008 116.0
530.831055 64.0
531.00531 92.0
531.207153 212.0
531.243835 108.0
531.367737 164.0
531.427368 92.0
531.459473 120.0
531.500793 88.0
531.591736 172.0
531.817444 72.0
531.904663 44.0
531.982727 120.0
532.062744 188.0
532.203064 112.0
532.281128 108.0
532.431091 80.0
532.501587 56.0
532.639404 156.0
532.685303 80.0
532.832336 152.0
532.873657 144.0
532.905457 136.0
532.963867 200.0
533.13562 136.0
533.172363 140.0
533.360657 144.0
533.434387 116.0
533.466553 148.0
533.521729 40.0
533.719421 32.0
533.765381 72.0
533.834351 100.0
534.052917 176.0
534.11792 116.0
534.293457 148.0
534.505981 48.0
534.680847 124.0
534.735901 100.0
534.943237 180.0
535.182617 172.0
535.293945 184.0
535.343811 100.0
535.386169 180.0
535.528015 172.0
535.764038 120.0
536.145386 128.0
536.182251 200.0
536.212952 176.0
536.287537 140.0
536.495728 116.0
536.532593 80.0
536.736145 140.0
536.878418 180.0
536.929138 140.0
537.261292 132.0
537.325867 88.0
537.450439 148.0
537.510437 120.0
537.55658 204.0
537.63501 100.0
537.731934 116.0
537.777832 200.0
537.873474 236.0
537.93042 168.0
538.068909 88.0
538.161255 92.0
538.585449 148.0
538.701599 104.0
538.807861 60.0
538.900269 112.0
539.03894 148.0
539.191406 116.0
539.251099 140.0
539.363708 148.0
539.529236 104.0
539.658325 148.0
539.764648 104.0
539.820129 112.0
539.96814 344.0
540.014404 48.0
540.063599 188.0
540.180908 184.0
540.458496 44.0
540.782471 108.0
540.889709 168.0
541.037048 164.0
541.09259 152.0
541.375061 116.0
541.463074 176.0
541.773438 112.0
541.838257 60.0
542.138489 116.0
542.190918 200.0
542.269226 64.0
542.336914 268.0
542.445374 116.0
542.542725 88.0
542.584473 64.0
542.70752 156.0
542.795593 112.0
542.936829 112.0
543.07135 168.0
543.3172 188.0
543.34967 76.0
543.417664 148.0
543.516724 100.0
543.655945 176.0
543.822998 68.0
543.874084 180.0
543.92981 128.0
543.971558 108.0
544.045837 92.0
544.129395 172.0
544.208313 48.0
544.324402 76.0
544.361572 96.0
544.496277 136.0
544.772522 272.0
544.846008 108.0
544.891113 132.0
544.9422 80.0
545.067688 140.0
545.21637 152.0
545.25354 88.0
545.355774 124.0
545.397644 196.0
545.444092 104.0
545.578918 84.0
545.657959 132.0
545.845703 196.0
546.002075 128.0
546.118347 180.0
546.202087 124.0
546.262573 100.0
546.299744 148.0
546.420715 112.0
546.719727 152.0
546.988464 136.0
547.062988 172.0
547.109497 152.0
547.323669 172.0
547.491333 68.0
547.523926 92.0
547.626404 140.0
547.658997 128.0
547.756836 152.0
547.815735 136.0
548.008423 56.0
548.078308 92.0
548.115601 68.0
548.176147 140.0
548.283325 56.0
548.333496 164.0
548.460449 64.0
548.50238 56.0
548.572327 144.0
548.642639 184.0
548.81012 64.0
548.900146 128.0
549.033936 212.0
549.080566 96.0
549.141235 184.0
549.416443 96.0
549.55603 176.0
549.612366 96.0
549.682373 60.0
549.864685 124.0
550.052734 104.0
550.100891 120.0
550.117737 116.0
550.199036 156.0
550.329651 180.0
550.368591 140.0
550.43396 28.0
550.541321 156.0
550.588074 132.0
550.711365 64.0
550.796082 160.0
550.901001 156.0
550.947083 112.0
551.045837 36.0
551.125244 48.0
551.239746 268.0
551.414978 88.0
551.461731 48.0
551.714172 120.0
551.78479 116.0
551.884827 208.0
551.968933 148.0
552.036804 156.0
552.069519 124.0
552.127197 112.0
552.214539 120.0
552.293762 4012.0
552.356506 200.0
552.375732 220.0
552.389954 356.0
552.433289 188.0
552.518555 108.0
552.621521 128.0
552.69635 80.0
552.747864 108.0
552.780579 56.0
552.864807 84.0
552.911621 44.0
552.949097 52.0
553.165894 160.0
553.187378 176.0
553.279846 11572.0
553.39563 368.0
553.440613 144.0
553.478088 64.0
553.546753 120.0
553.595154 88.0
553.888489 44.0
553.953918 160.0
553.972168 148.0
553.985718 52.0
554.0495 168.0
554.115112 156.0
554.152588 48.0
554.200195 340.0
554.283508 3200.0
554.379272 116.0
554.436157 60.0
554.480591 104.0
554.542114 204.0
554.668884 76.0
554.775879 44.0
554.856628 112.0
554.921997 72.0
554.982178 40.0
555.080688 148.0
555.110901 72.0
555.143555 264.0
555.188782 68.0
555.279724 968.0
555.380798 64.0
555.546997 160.0
555.594482 124.0
555.643494 40.0
555.78717 156.0
555.873413 156.0
555.934143 176.0
555.976135 108.0
556.056458 132.0
556.098694 116.0
556.197266 32.0
556.284912 232.0
556.359619 124.0
556.399109 92.0
556.432007 88.0
556.502441 72.0
556.539978 80.0
556.633911 120.0
556.685547 80.0
556.755981 48.0
556.831177 92.0
556.92041 188.0
557.155273 124.0
557.264893 72.0
557.3526 180.0
557.393555 124.0
557.459534 132.0
557.577942 164.0
557.713684 96.0
557.968323 124.0
558.01532 128.0
558.052979 120.0
558.135132 228.0
558.214355 136.0
558.327759 92.0
558.476196 108.0
558.513855 96.0
558.626709 104.0
558.717712 188.0
558.775879 132.0
558.819641 104.0
559.106689 68.0
559.163147 340.0
559.440308 172.0
559.556213 160.0
559.704529 112.0
559.765747 92.0
559.861572 148.0
559.935303 80.0
560.020081 196.0
560.108704 244.0
560.22937 232.0
560.269714 124.0
560.307434 100.0
560.352417 140.0
560.3974 80.0
560.477051 120.0
560.526184 176.0
560.877625 84.0
560.923279 136.0
560.953064 172.0
561.026062 104.0
561.193481 84.0
561.245361 124.0
561.292542 160.0
561.343994 256.0
561.419861 28.0
561.532715 168.0
561.598083 196.0
561.69812 176.0
561.8255 72.0
561.886841 36.0
561.924561 92.0
561.985901 120.0
562.042542 88.0
562.093567 128.0
562.257324 100.0
562.339844 64.0
562.401184 88.0
562.434265 76.0
562.523926 108.0
562.582458 296.0
562.698608 376.0
562.736389 124.0
562.981934 92.0
563.147217 68.0
563.243713 144.0
563.273193 112.0
563.322021 116.0
563.355103 176.0
563.407043 80.0
563.440125 92.0
563.550964 104.0
563.600769 140.0
563.661438 76.0
563.744446 116.0
563.792542 152.0
563.993042 116.0
564.063904 84.0
564.118591 84.0
564.126343 140.0
564.22467 184.0
564.271912 48.0
564.333374 124.0
564.375977 84.0
564.446899 56.0
564.551208 72.0
564.605347 124.0
564.677917 160.0
564.826965 164.0
564.902588 184.0
564.990784 120.0
565.071228 120.0
565.184814 68.0
565.239014 96.0
565.256836 124.0
565.343506 180.0
565.394592 72.0
565.435608 132.0
565.511353 124.0
565.572876 112.0
565.640747 132.0
565.697937 92.0
565.752747 124.0
565.822266 160.0
565.916565 80.0
565.971375 68.0
566.014648 100.0
566.088318 92.0
566.11261 156.0
566.183838 156.0
566.225708 140.0
566.248596 112.0
566.265137 116.0
566.353455 120.0
566.444519 56.0
566.492737 156.0
566.52887 340.0
566.562561 32.0
566.609741 92.0
566.70282 84.0
566.753418 116.0
566.812622 168.0
566.899292 144.0
566.948914 180.0
566.968506 220.0
567.061401 136.0
567.140686 132.0
567.197571 124.0
567.246094 160.0
567.303467 120.0
567.395386 184.0
567.408325 132.0
567.480164 112.0
567.518921 116.0
567.585938 240.0
567.628113 100.0
567.64917 132.0
567.712952 184.0
567.756836 104.0
567.795044 92.0
567.881042 60.0
567.916504 168.0
567.949768 184.0
568.042908 192.0
568.110474 300.0
568.188293 44.0
568.235657 184.0
568.286072 1188.0
568.351501 128.0
568.43335 204.0
568.48114 232.0
568.602966 316.0
568.660522 256.0
568.775818 344.0
568.834045 244.0
568.86322 312.0
568.937134 168.0
569.012085 136.0
569.039551 140.0
569.104919 160.0
569.179565 492.0
569.273682 1160.0
569.38678 224.0
569.435608 252.0
569.448853 168.0
569.493225 216.0
569.509033 220.0
569.543335 184.0
569.581116 308.0
569.63269 268.0
569.67572 448.0
569.730835 272.0
569.772888 216.0
569.857483 284.0
569.898376 372.0
569.975098 372.0
570.013611 196.0
570.055664 488.0
570.146729 668.0
570.171814 368.0
570.18219 652.0
570.3078 323364.0
570.429016 428.0
570.451172 228.0
570.476074 348.0
570.572998 120.0
570.64447 196.0
570.728088 396.0
570.827515 356.0
570.897339 276.0
570.951294 252.0
571.01947 360.0
571.094482 1740.0
571.171082 428.0
571.30957 132284.0
571.450256 328.0
571.516418 236.0
571.575562 144.0
571.665161 352.0
571.717896 192.0
571.768677 300.0
571.850281 164.0
571.920715 420.0
571.987366 256.0
572.042664 264.0
572.084839 152.0
572.146179 324.0
572.174316 172.0
572.221069 412.0
572.311157 24596.0
572.401917 276.0
572.438782 152.0
572.452515 176.0
572.472961 376.0
572.48407 104.0
572.518188 184.0
572.625 136.0
572.706909 188.0
572.769409 84.0
572.789795 124.0
572.824463 76.0
572.879517 220.0
572.925842 208.0
572.977661 180.0
573.052551 252.0
573.138611 192.0
573.313416 2132.0
573.45929 152.0
573.538086 100.0
573.632812 48.0
573.690613 132.0
573.724548 252.0
573.796997 144.0
573.832947 160.0
573.891785 196.0
573.936096 148.0
573.947693 152.0
573.967468 128.0
573.980896 104.0
574.023315 92.0
574.07666 292.0
574.094971 324.0
574.109558 68.0
574.151184 288.0
574.165039 196.0
574.182434 208.0
574.256897 292.0
574.315674 920.0
574.382385 192.0
574.393982 120.0
574.409851 52.0
574.428101 72.0
574.470947 256.0
574.523621 284.0
574.584961 140.0
574.631653 208.0
574.714966 324.0
574.772644 156.0
574.810425 300.0
574.842346 248.0
574.858215 136.0
574.922363 284.0
574.974915 116.0
575.086487 80.0
575.106567 124.0
575.138794 192.0
575.1875 88.0
575.200684 84.0
575.21936 144.0
575.233215 128.0
575.249207 108.0
575.268738 136.0
575.339233 132.0
575.402771 108.0
575.411865 116.0
575.425293 152.0
575.490906 160.0
575.53479 120.0
575.595703 104.0
575.646118 88.0
575.723206 120.0
575.760254 292.0
575.796021 268.0
575.854187 124.0
575.912781 104.0
575.946228 136.0
575.977783 144.0
576.018433 48.0
576.09198 224.0
576.143005 176.0
576.190247 60.0
576.258301 96.0
576.280396 32.0
576.290588 60.0
576.363281 112.0
576.377625 108.0
576.427917 248.0
576.457947 132.0
576.481445 124.0
576.518982 92.0
576.636108 128.0
576.679077 96.0
576.740051 244.0
576.90918 84.0
576.949463 140.0
577.001404 312.0
577.052307 32.0
577.085754 44.0
577.219604 48.0
577.2995 40.0
577.382202 44.0
577.500732 124.0
577.611816 40.0
577.704712 76.0
577.751953 52.0
577.803162 52.0
577.851013 76.0
577.905823 124.0
577.968262 100.0
578.008667 216.0
578.128906 200.0
578.273682 100.0
578.330444 100.0
578.409058 80.0
578.449219 100.0
578.494019 56.0
578.578491 56.0
578.626343 52.0
578.724121 76.0
578.803528 80.0
578.841858 28.0
578.884949 48.0
578.935303 124.0
578.990295 156.0
579.171387 84.0
579.253723 60.0
579.296875 136.0
579.332642 36.0
579.446045 60.0
579.507629 60.0
579.574707 40.0
579.613037 96.0
579.714478 48.0
579.799988 84.0
579.981812 76.0
580.158569 64.0
580.21698 220.0
580.289307 1264.0
580.434937 88.0
580.5047 88.0
580.605957 72.0
580.685791 52.0
580.75885 60.0
580.917175 44.0
580.955566 32.0
580.989136 48.0
581.057495 80.0
581.123474 168.0
581.19696 88.0
581.28186 1300.0
581.59375 104.0
581.675354 36.0
581.747375 40.0
581.853027 60.0
581.915405 72.0
581.977844 72.0
582.043884 144.0
582.099365 144.0
582.213135 72.0
582.274292 384.0
582.421448 64.0
582.465088 116.0
582.621399 60.0
582.674255 40.0
582.707886 120.0
582.772583 92.0
582.938538 60.0
582.983276 128.0
583.077942 40.0
583.116394 80.0
583.174011 136.0
583.226929 104.0
583.269165 288.0
583.288635 124.0
583.30481 288.0
583.443237 36.0
583.693237 128.0
583.889587 104.0
583.957764 48.0
584.039551 76.0
584.239441 72.0
584.275269 52.0
584.347412 56.0
584.482117 60.0
584.658997 48.0
584.799744 80.0
584.963928 124.0
585.113953 148.0
585.21344 52.0
585.271545 96.0
585.367004 88.0
585.507507 76.0
585.897705 52.0
585.936218 96.0
586.10968 88.0
586.153625 72.0
586.174255 80.0
586.33136 96.0
586.369934 56.0
586.533813 80.0
586.635071 76.0
586.697693 72.0
586.741089 92.0
586.917358 72.0
586.996643 128.0
587.286011 132.0
587.440369 68.0
587.483826 92.0
587.517578 80.0
587.582764 100.0
587.753967 96.0
587.816711 88.0
588.009766 104.0
588.067688 56.0
588.144897 56.0
588.183533 28.0
588.371826 52.0
588.753235 144.0
588.869202 60.0
588.938538 124.0
589.099854 128.0
589.145935 108.0
589.269592 76.0
589.392883 92.0
589.429565 64.0
589.574524 56.0
589.617554 80.0
589.73407 64.0
589.946716 84.0
590.014404 64.0
590.12854 196.0
590.217468 64.0
590.294861 100.0
590.425415 44.0
590.502808 48.0
590.715637 60.0
590.826904 128.0
591.131775 124.0
591.187195 96.0
591.370789 204.0
591.688416 92.0
591.81427 96.0
592.006226 88.0
592.10968 72.0
592.569885 92.0
592.734619 76.0
592.923584 64.0
592.991455 116.0
593.190186 108.0
593.476257 68.0
593.529602 72.0
593.582886 100.0
593.660522 68.0
593.791443 52.0
593.874756 92.0
594.155273 104.0
594.223206 52.0
594.257141 48.0
594.412415 100.0
594.653564 156.0
594.752136 76.0
594.88324 108.0
594.936646 48.0
594.985168 36.0
595.145386 32.0
595.446472 84.0
595.619385 148.0
595.74762 48.0
595.878784 48.0
595.948486 76.0
596.024597 56.0
596.078003 112.0
596.121765 136.0
596.312378 228.0
596.636963 84.0
597.152466 72.0
597.307312 444.0
597.376221 184.0
597.4151 84.0
597.745972 76.0
597.809204 120.0
597.97467 120.0
598.047729 100.0
598.198608 76.0
598.30304 736.0
598.350647 176.0
598.412842 104.0
598.597839 104.0
598.695251 92.0
598.782898 48.0
599.305603 332.0
599.460083 144.0
599.611145 40.0
599.854858 36.0
599.957275 56.0
600.045044 88.0
600.097717 64.0
600.276123 200.0
600.410767 40.0
600.444885 108.0
600.737549 92.0
601.186462 44.0
601.235229 60.0
601.269409 92.0
601.806396 104.0
601.879639 76.0
602.006592 244.0
602.084717 96.0
602.128662 88.0
602.788208 76.0
603.003235 108.0
603.550781 52.0
603.609436 64.0
603.858826 68.0
604.069214 56.0
604.11322 88.0
604.671021 84.0
605.057739 64.0
605.434082 136.0
605.87561 120.0
605.924622 160.0
606.203918 56.0
606.23822 56.0
606.419556 48.0
606.527405 68.0
606.718567 52.0
607.061829 108.0
607.43457 176.0
607.895752 56.0
608.155884 40.0
608.283508 32.0
608.720459 112.0
608.759766 104.0
609.03479 112.0
609.177246 196.0
609.21167 132.0
610.292908 72.0
610.361755 208.0
611.296387 64.0
611.52771 36.0
611.695068 108.0
611.83783 92.0
612.005249 84.0
612.108643 140.0
612.197266 48.0
612.281006 68.0
612.384399 144.0
612.418884 116.0
612.453369 48.0
612.714478 60.0
612.808105 48.0
613.088928 56.0
613.300903 128.0
613.717773 100.0
613.853088 80.0
614.001038 104.0
614.050354 48.0
614.309387 184.0
615.007568 96.0
615.101318 96.0
615.135864 104.0
615.185242 132.0
615.333313 1160.0
615.504883 108.0
616.148254 180.0
616.337769 664.0
616.437927 148.0
616.670654 100.0
616.889587 48.0
616.958801 112.0
617.040039 176.0
617.196106 92.0
617.320251 260.0
617.715393 120.0
617.91333 120.0
617.992493 72.0
618.264648 124.0
618.49231 136.0
618.724976 152.0
618.774475 72.0
618.814087 224.0
619.205322 56.0
619.348938 116.0
619.408386 88.0
619.492615 92.0
620.077332 96.0
620.13678 68.0
620.677185 44.0
621.46582 132.0
621.723694 100.0
622.751587 184.0
622.80127 44.0
623.019836 60.0
623.427307 108.0
624.068542 140.0
624.307251 60.0
624.38678 128.0
624.665344 152.0
625.157898 108.0
625.683289 132.0
625.7901 120.0
626.223328 156.0
626.502319 136.0
626.935791 68.0
627.050415 84.0
627.31958 64.0
627.53894 52.0
627.708496 104.0
628.177307 80.0
628.242188 92.0
628.406799 72.0
628.476685 68.0
628.74115 160.0
628.796082 148.0
628.905884 56.0
629.345215 120.0
629.401855 104.0
630.049438 180.0
630.174316 156.0
630.449158 104.0
630.903992 116.0
631.119019 152.0
631.194031 52.0
631.685608 140.0
631.839233 148.0
632.034363 116.0
632.504822 48.0
633.381104 188.0
633.436218 76.0
633.651611 88.0
633.872131 144.0
634.097595 56.0
634.422363 132.0
634.598938 56.0
635.135559 60.0
635.381348 132.0
635.433411 84.0
635.592102 80.0
635.837952 140.0
636.219482 188.0
636.342102 168.0
636.62616 80.0
637.021118 80.0
637.098328 108.0
637.364624 68.0
637.409851 44.0
637.887329 80.0
638.073303 112.0
638.606384 40.0
639.008789 160.0
639.164795 68.0
639.824158 128.0
639.904724 48.0
640.149536 148.0
640.791138 128.0
641.113647 100.0
641.632812 100.0
641.70343 92.0
641.90509 148.0
642.570923 80.0
642.833313 68.0
643.878357 76.0
643.989441 72.0
644.130859 92.0
644.491699 84.0
644.535095 56.0
644.722046 148.0
645.096069 48.0
645.460083 136.0
645.525818 176.0
645.738281 192.0
645.854614 140.0
646.016479 36.0
646.20874 72.0
646.66925 124.0
646.805908 80.0
647.286865 80.0
648.016235 172.0
648.533142 148.0
648.59906 52.0
648.806885 52.0
648.906616 60.0
649.237915 68.0
649.481384 52.0
650.328735 56.0
650.450562 108.0
650.653625 40.0
650.770386 32.0
650.968445 176.0
651.034424 44.0
651.090332 120.0
651.240356 80.0
651.572876 36.0
651.669434 72.0
651.847229 64.0
652.060669 80.0
652.182678 100.0
652.526184 164.0
652.70636 176.0
653.097961 140.0
653.23291 172.0
653.379089 1488.0
654.192017 140.0
654.253113 52.0
654.361206 2292.0
654.940552 128.0
655.241089 92.0
655.364197 1404.0
655.506042 32.0
655.623291 40.0
656.240112 92.0
656.296143 52.0
656.379456 408.0
656.530762 76.0
656.811279 92.0
656.88269 124.0
657.051025 76.0
657.091858 48.0
657.176819 216.0
657.224487 56.0
657.362305 96.0
657.423523 40.0
657.678711 60.0
657.811462 124.0
657.984985 80.0
658.076904 108.0
658.470093 120.0
658.725525 128.0
659.118896 120.0
659.384644 168.0
659.563538 76.0
659.803833 68.0
659.936768 100.0
660.572876 156.0
660.901611 144.0
660.995605 60.0
661.097961 72.0
661.410156 100.0
661.522766 68.0
661.696838 56.0
661.901611 56.0
662.045044 36.0
662.864685 56.0
663.03894 108.0
663.182434 64.0
663.341309 64.0
663.782288 56.0
663.838684 104.0
663.925842 80.0
664.361877 60.0
664.561951 84.0
664.797974 92.0
664.904602 104.0
665.005981 196.0
665.532043 80.0
665.742615 56.0
666.132935 152.0
666.307617 72.0
666.384216 92.0
666.4823 104.0
666.665894 224.0
666.728943 92.0
667.063049 92.0
667.366394 112.0
667.464661 36.0
667.566956 116.0
667.687988 120.0
667.774109 176.0
667.885803 88.0
667.937256 64.0
668.00824 60.0
668.070984 76.0
668.150757 160.0
668.348816 188.0
668.384888 140.0
668.451782 132.0
668.556335 208.0
668.605469 124.0
668.652466 148.0
668.742065 64.0
668.783203 124.0
668.832581 104.0
668.918274 156.0
668.989685 156.0
669.077026 76.0
669.122681 80.0
669.192993 124.0
669.268005 104.0
669.333984 96.0
669.398499 188.0
669.503479 128.0
669.56897 264.0
669.627625 88.0
669.714844 72.0
669.758606 220.0
669.864746 184.0
669.911987 168.0
669.960388 88.0
670.014282 172.0
670.029602 164.0
670.175781 164.0
670.216309 80.0
670.297607 176.0
670.366028 248.0
670.378052 240.0
670.445984 132.0
670.524048 124.0
670.611633 180.0
670.710693 92.0
670.755249 84.0
670.778259 164.0
670.85498 284.0
670.906067 208.0
671.024963 136.0
671.101318 592.0
671.147522 352.0
671.185303 480.0
671.251465 208.0
671.390991 103540.0
671.567505 48.0
671.66803 164.0
671.728394 236.0
671.799622 136.0
671.862732 360.0
671.966187 292.0
672.006165 88.0
672.053528 136.0
672.099304 132.0
672.115112 48.0
672.172607 276.0
672.266663 540.0
672.393433 58184.0
672.548706 196.0
672.59552 288.0
672.634705 208.0
672.699158 48.0
672.772705 76.0
672.8172 152.0
672.85144 132.0
672.87323 60.0
672.909729 380.0
672.991638 104.0
673.028198 196.0
673.134705 212.0
673.173767 136.0
673.19812 100.0
673.22168 88.0
673.296692 152.0
673.394653 11412.0
673.54303 172.0
673.582458 120.0
673.626282 68.0
673.664734 68.0
673.734375 132.0
673.786255 56.0
673.842773 176.0
673.958191 56.0
674.006287 68.0
674.063904 116.0
674.165039 80.0
674.244568 268.0
674.282593 76.0
674.40332 2376.0
674.519226 140.0
674.623047 168.0
674.733765 92.0
674.78595 56.0
674.837463 68.0
674.911255 148.0
674.953979 56.0
675.073853 136.0
675.192444 52.0
675.269287 144.0
675.318542 92.0
675.404175 516.0
675.508179 96.0
675.571045 120.0
675.646484 192.0
675.701538 76.0
675.751709 132.0
675.795593 76.0
675.878784 272.0
675.934937 116.0
675.989685 84.0
676.016418 144.0
676.035217 124.0
676.080261 124.0
676.148254 80.0
676.215332 204.0
676.274658 220.0
676.335205 192.0
676.397095 240.0
676.413147 60.0
676.472046 92.0
676.504761 200.0
676.598328 132.0
676.658325 40.0
676.735229 156.0
676.767273 120.0
676.801819 52.0
676.871948 288.0
676.919678 64.0
676.95752 100.0
677.067932 128.0
677.107361 100.0
677.182068 108.0
677.283997 92.0
677.345459 96.0
677.494324 52.0
677.539307 40.0
677.645447 164.0
677.658997 80.0
677.678162 116.0
677.720642 60.0
677.759644 144.0
677.872681 60.0
677.940613 36.0
677.981995 84.0
678.092407 136.0
678.154175 152.0
678.234497 52.0
678.280396 36.0
678.508484 188.0
678.627747 76.0
678.664001 48.0
678.76709 64.0
678.983337 64.0
679.204468 56.0
679.374573 100.0
679.611938 48.0
679.707947 216.0
679.867493 60.0
679.940186 64.0
680.116638 36.0
680.313904 84.0
680.365784 32.0
680.464478 112.0
680.505981 52.0
680.542358 100.0
680.650208 72.0
680.983765 100.0
681.168213 124.0
681.425293 36.0
681.642822 100.0
681.76825 84.0
681.87738 68.0
682.095703 56.0
682.173706 52.0
682.228394 100.0
682.433655 52.0
682.516846 36.0
683.161743 56.0
683.286621 48.0
683.479614 124.0
683.572815 68.0
683.640442 96.0
684.067261 60.0
684.280701 92.0
684.799011 100.0
684.90564 76.0
685.025452 96.0
685.323547 92.0
685.442261 84.0
685.744507 68.0
686.027405 44.0
686.114624 104.0
686.16156 72.0
686.411804 84.0
686.536987 44.0
686.818604 40.0
686.891663 92.0
686.938599 40.0
687.14209 84.0
687.59082 44.0
687.825745 52.0
687.872681 92.0
688.243408 88.0
688.279968 104.0
688.400024 36.0
688.436584 96.0
689.732361 100.0
689.983276 64.0
690.961304 72.0
691.484558 100.0
691.568298 72.0
691.824829 92.0
691.940002 140.0
692.416504 112.0
692.52124 84.0
692.772705 112.0
692.992737 76.0
693.233765 84.0
693.411987 56.0
693.679321 36.0
693.757935 48.0
694.004333 116.0
694.11969 84.0
694.355713 104.0
694.502563 88.0
694.668518 76.0
694.812073 100.0
695.772522 92.0
695.861755 108.0
695.963196 100.0
696.344849 48.0
696.675781 60.0
696.970032 120.0
697.390442 152.0
697.548157 80.0
698.10022 68.0
698.147583 60.0
698.668274 72.0
698.894531 48.0
699.11554 100.0
699.820923 32.0
699.878845 92.0
700.078979 44.0
700.294861 156.0
700.805908 60.0
701.190552 64.0
701.243286 32.0
702.118469 48.0
702.392761 72.0
702.572144 64.0
702.988953 32.0
703.369629 100.0
703.495667 52.0
703.627625 48.0
703.764954 76.0
703.80188 44.0
704.360413 64.0
705.164856 76.0
705.40271 48.0
705.756958 56.0
705.820374 32.0
706.566162 92.0
706.698425 80.0
706.857178 144.0
707.227661 48.0
707.820618 44.0
708.440308 124.0
708.525085 72.0
710.476074 100.0
710.852783 76.0
713.083313 52.0
713.147095 76.0
713.30658 56.0
714.42334 132.0
714.465881 36.0
716.041504 164.0
716.462341 80.0
717.800171 64.0
718.002808 44.0
718.104126 48.0
719.165955 68.0
719.742493 36.0
719.854675 60.0
719.934753 72.0
721.115479 88.0
721.425537 40.0
722.083252 96.0
723.201477 164.0
724.438416 52.0
724.797424 92.0
725.333374 52.0
726.411194 56.0
727.060425 60.0
727.124878 168.0
727.425415 88.0
728.983032 60.0
729.445251 68.0
729.48291 56.0
730.133484 48.0
730.558411 76.0
730.68219 132.0
730.913513 68.0
732.157104 132.0
732.825073 76.0
733.342407 104.0
735.645691 36.0
735.683472 156.0
736.790588 64.0
737.185059 96.0
737.655273 184.0
738.071594 96.0
738.639465 64.0
739.077698 96.0
740.035767 48.0
740.810242 40.0
741.427917 100.0
741.541748 92.0
741.628479 68.0
742.029602 56.0
742.138062 108.0
742.43634 92.0
743.684204 120.0
744.531189 56.0
744.618042 72.0
744.93457 60.0
746.482117 48.0
747.200134 152.0
748.435669 76.0
748.50647 48.0
749.002075 132.0
749.26355 52.0
749.721252 72.0
749.895691 68.0
751.007996 76.0
751.744507 112.0
752.372192 92.0
752.819946 60.0
752.863647 72.0
753.093018 68.0
754.360779 112.0
754.481018 60.0
754.885681 132.0
754.934875 44.0
755.487305 96.0
755.749939 80.0
756.778931 112.0
757.140381 124.0
758.012695 68.0
758.104553 108.0
758.30188 60.0
758.80072 112.0
761.264465 48.0
761.445679 64.0
761.698364 56.0
762.495056 140.0
762.632507 72.0
762.907349 56.0
763.429688 64.0
764.915222 136.0
765.372192 136.0
765.90094 48.0
766.528992 172.0
767.041565 72.0
767.526733 92.0
768.54718 88.0
768.867249 100.0
768.922424 76.0
769.452393 140.0
771.059814 92.0
771.596008 52.0
773.028625 76.0
773.161438 76.0
773.626404 88.0
773.670715 40.0
774.434875 56.0
774.573364 108.0
774.695251 112.0
775.43219 72.0
775.620667 64.0
775.798035 152.0
775.897827 236.0
776.530029 112.0
776.568848 80.0
776.607666 112.0
776.657593 80.0
777.545349 80.0
778.466919 64.0
778.566895 48.0
779.138977 68.0
779.311218 64.0
779.611328 80.0
780.984558 44.0
781.084717 124.0
781.685608 68.0
781.796875 76.0
782.286682 76.0
782.581787 124.0
782.999451 100.0
783.389343 88.0
784.253052 100.0
785.005737 92.0
785.463074 160.0
785.697388 88.0
785.736389 68.0
786.378174 48.0
786.662842 48.0
787.411072 52.0
788.299316 64.0
788.958862 136.0
789.277588 164.0
789.674622 36.0
790.166931 60.0
791.443054 96.0
792.720276 64.0
792.910767 88.0
793.964783 60.0
794.884827 100.0
795.496643 36.0
795.552734 48.0
797.187256 88.0
797.271545 52.0
798.165344 68.0
798.412781 112.0
799.03717 108.0
799.808167 100.0
800.44104 116.0
800.680908 56.0
800.861145 80.0
800.945618 104.0
801.001953 60.0
801.806091 84.0
802.532166 84.0
802.991638 176.0
803.551941 176.0
804.876587 84.0
804.949951 84.0
805.181519 88.0
806.774963 108.0
807.283875 96.0
807.685425 52.0
808.415283 36.0
808.585083 64.0
809.768372 72.0
811.156616 88.0
811.218994 268.0
811.502441 76.0
811.950439 120.0
812.415588 68.0
815.220459 104.0
815.669495 96.0
815.862793 48.0
817.916382 80.0
818.485718 72.0
819.248962 92.0
819.693359 76.0
820.246216 120.0
821.27832 140.0
821.871582 68.0
822.607849 40.0
822.687805 116.0
822.813354 68.0
823.527222 88.0
823.835632 68.0
825.704834 60.0
825.7677 192.0
825.830627 148.0
825.950745 96.0
826.139526 84.0
826.59729 68.0
828.102966 36.0
829.24884 68.0
829.84137 124.0
830.30957 72.0
830.969238 64.0
832.053955 84.0
832.318115 112.0
832.507568 76.0
832.938354 68.0
833.535889 60.0
834.064636 92.0
834.274414 116.0
836.664856 52.0
836.987244 52.0
837.19458 164.0
837.26947 200.0
837.885803 40.0
838.519653 92.0
839.961182 84.0
840.036133 64.0
840.497742 68.0
840.55542 112.0
841.854309 56.0
841.946716 44.0
841.987122 136.0
842.050659 32.0
844.015503 64.0
844.26416 88.0
845.033508 92.0
845.739563 132.0
846.67749 124.0
847.818787 76.0
847.975281 96.0
848.11438 68.0
848.676758 116.0
849.494507 68.0
850.237244 108.0
850.382324 160.0
850.527405 108.0
850.765442 76.0
850.835083 72.0
851.601624 76.0
852.542847 72.0
853.275269 88.0
853.641541 144.0
854.124329 76.0
854.403503 32.0
855.491821 56.0
856.01001 48.0
857.064392 108.0
858.020264 68.0
858.410889 52.0
858.720032 96.0
859.198364 40.0
859.414246 56.0
859.834351 128.0
860.051697 52.0
860.604919 80.0
860.78595 56.0
861.685486 68.0
862.456909 40.0
863.146729 84.0
863.556152 140.0
863.895386 84.0
864.837524 72.0
865.030701 68.0
865.171204 72.0
865.299988 80.0
866.51239 56.0
866.940125 92.0
867.420776 88.0
868.100891 168.0
868.223999 76.0
868.570068 92.0
870.17218 72.0
870.712463 116.0
873.086792 72.0
873.239746 52.0
874.298767 36.0
876.000366 64.0
876.088745 96.0
876.247803 116.0
876.848877 48.0
878.440918 48.0
878.800842 76.0
878.853943 88.0
879.792358 80.0
879.922241 96.0
880.418274 144.0
881.546631 40.0
881.599792 148.0
881.830322 96.0
882.03125 84.0
882.081543 64.0
882.616577 56.0
883.456421 64.0
883.722656 100.0
884.57489 72.0
884.788025 68.0
884.882751 96.0
885.362427 76.0
885.848083 48.0
886.019897 44.0
886.962158 92.0
887.175537 36.0
887.531311 68.0
889.258911 116.0
890.670837 72.0
890.730225 108.0
892.632141 160.0
892.685608 160.0
893.482666 108.0
893.607605 112.0
894.53009 160.0
894.809875 48.0
895.774658 80.0
897.12146 108.0
897.198975 188.0
897.240723 68.0
899.334534 100.0
899.710632 32.0
899.979309 72.0
900.976746 88.0
901.08429 76.0
901.466736 68.0
901.520508 52.0
902.171997 148.0
902.339417 60.0
902.417114 68.0
903.721069 48.0
903.996338 80.0
904.211731 168.0
905.642761 56.0
905.690674 176.0
906.253784 60.0
906.433594 56.0
906.907043 116.0
907.056885 152.0
907.212769 72.0
908.052246 92.0
909.768372 244.0
910.332825 116.0
910.885376 80.0
911.299927 32.0
912.429871 84.0
912.766541 112.0
912.928955 36.0
913.331909 64.0
913.464233 44.0
916.137085 76.0
916.504639 80.0
917.143433 40.0
917.571472 116.0
919.447449 40.0
920.340881 72.0
920.606628 76.0
920.920654 96.0
921.385803 60.0
921.996094 108.0
922.129089 68.0
924.608826 84.0
924.80249 156.0
925.135437 64.0
925.559265 60.0
925.765137 60.0
926.116394 100.0
926.843384 32.0
926.916138 48.0
928.15271 156.0
929.784546 64.0
930.124451 72.0
930.294434 164.0
931.047363 168.0
931.193115 64.0
931.454346 56.0
931.547485 60.0
932.12262 40.0
932.560242 56.0
932.627075 148.0
932.809448 48.0
933.678955 84.0
933.800537 88.0
934.05603 64.0
934.244629 88.0
936.216736 60.0
936.88678 108.0
938.331177 44.0
938.825073 44.0
940.344238 80.0
940.606689 108.0
940.88385 80.0
941.980713 72.0
942.072327 64.0
943.545166 88.0
944.40741 108.0
944.474731 84.0
945.331238 144.0
945.471985 40.0
945.557678 108.0
947.425354 56.0
948.221924 52.0
948.853333 96.0
950.263977 112.0
951.252075 56.0
951.700256 32.0
951.866028 112.0
952.535461 44.0
952.701355 132.0
953.352661 152.0
953.955017 96.0
954.914246 116.0
955.800171 144.0
955.984741 100.0
957.068176 184.0
958.035156 88.0
958.466431 108.0
958.817688 40.0
959.53894 96.0
959.625244 140.0
960.901978 76.0
961.19812 168.0
961.39563 88.0
961.500488 60.0
961.96344 116.0
964.211792 108.0
964.836121 104.0
965.844116 128.0
965.936951 184.0
966.908386 76.0
967.292114 80.0
968.778381 108.0
968.933228 68.0
969.001404 56.0
969.08197 224.0
970.247131 56.0
971.304016 104.0
973.274963 76.0
973.67865 96.0
973.728333 80.0
973.927063 108.0
976.108521 48.0
976.475464 64.0
979.324707 108.0
980.865173 176.0
981.900208 44.0
982.592651 48.0
983.372681 76.0
984.86499 76.0
985.777161 84.0
986.564697 88.0
988.954285 52.0
989.536438 72.0
989.705505 152.0
989.843262 56.0
990.657532 180.0
990.751465 92.0
993.466064 100.0
993.798584 112.0
994.444946 44.0
996.682922 132.0
996.825195 136.0
997.233704 68.0
998.56665 44.0
1000.435486 92.0
1000.851074 100.0
1001.159607 72.0
1002.152405 80.0
1002.911133 88.0
1003.238953 100.0
1006.500916 48.0
1007.27771 132.0
1007.776855 56.0
1010.787476 100.0
1010.894287 52.0
1012.185669 180.0
1012.62262 40.0
1013.541199 172.0
1014.308105 48.0
1015.19574 32.0
1015.525513 64.0
1019.322021 64.0
1019.468201 72.0
1019.55719 120.0
1019.855896 84.0
1020.497986 152.0
1021.776367 92.0
1022.253601 56.0
1024.730591 68.0
1024.953613 120.0
1025.042847 144.0
1025.380615 156.0
1026.247559 92.0
1026.808716 44.0
1026.853394 40.0
1027.484863 152.0
1029.412598 80.0
1029.719116 116.0
1030.849854 160.0
1031.648804 72.0
1031.942993 184.0
1032.339355 52.0
1033.170898 120.0
1034.732544 136.0
1035.180786 172.0
1037.525879 208.0
1039.020264 188.0
1040.425781 68.0
1040.554077 240.0
1040.66333 152.0
1040.958618 48.0
1041.286255 124.0
1041.748657 72.0
1042.744629 140.0
1042.94397 76.0
1043.593262 48.0
1044.982544 68.0
1047.435303 100.0
1047.660767 112.0
1049.181763 176.0
1049.355835 188.0
1050.052246 136.0
1052.155884 80.0
1053.247314 84.0
1053.751221 48.0
1054.061401 108.0
1054.500854 104.0
1055.114868 56.0
1055.787354 168.0
1056.059082 156.0
1059.146606 44.0
1059.308472 132.0
1059.613037 68.0
1060.209106 148.0
1061.369507 60.0
1063.601318 68.0
1065.471558 60.0
1065.718506 128.0
1066.017456 208.0
1070.134888 92.0
1070.681885 80.0
1071.678589 152.0
1072.343384 184.0
1072.571411 80.0
1072.832153 36.0
1073.12561 48.0
1073.392944 112.0
1073.438599 96.0
1074.371338 92.0
1074.919434 80.0
1075.343628 260.0
1075.55896 40.0
1075.859253 188.0
1075.924561 128.0
1077.629272 268.0
1077.69458 100.0
1077.838257 176.0
1078.446045 192.0
1080.21167 60.0
1082.194702 84.0
1082.25354 96.0
1082.574463 160.0
1083.412842 216.0
1084.231934 68.0
1084.402344 60.0
1084.625244 144.0
1084.795654 92.0
1085.025024 96.0
1085.136597 76.0
1086.677856 100.0
1086.802734 108.0
1089.507568 196.0
1089.770386 68.0
1090.519531 36.0
1090.881104 72.0
1091.249268 124.0
1091.453125 208.0
1091.531982 212.0
1092.262085 44.0
1093.630737 84.0
1094.756592 88.0
1094.881714 152.0
1095.658936 64.0
1096.014771 120.0
1099.853027 96.0
1100.420776 96.0
1100.922729 176.0
1101.18689 100.0
1102.243896 144.0
1102.614014 40.0
1102.832031 244.0
1102.904785 168.0
1103.777466 44.0
1104.928345 100.0
1105.027588 168.0
1105.173218 116.0
1105.338623 80.0
1106.192383 72.0
1106.424072 60.0
1106.596191 124.0
1106.93396 68.0
1107.106079 68.0
1107.821533 108.0
1108.132812 68.0
1108.411133 96.0
1109.146851 160.0
1109.683838 80.0
1110.817871 100.0
1110.897461 56.0
1113.014648 64.0
1113.081055 172.0
1113.685425 172.0
1113.951172 204.0
1114.110596 52.0
1114.456055 84.0
1114.549072 148.0
1114.615601 108.0
1114.801636 60.0
1115.289795 116.0
1115.765503 96.0
1116.26416 80.0
1116.716431 152.0
1117.547974 72.0
1118.592773 112.0
1119.378418 176.0
1120.037842 96.0
1121.170532 140.0
1121.250488 168.0
1121.86377 80.0
1121.943726 124.0
1121.990356 144.0
1123.210815 176.0
1123.417603 128.0
1123.504272 92.0
1124.29834 108.0
1124.478516 132.0
1125.139404 204.0
1125.560059 56.0
1126.047607 248.0
1128.513428 208.0
1130.13208 100.0
1131.390381 176.0
1132.260864 84.0
1132.56897 76.0
1133.218872 36.0
1133.573975 232.0
1136.886841 48.0
1137.792969 68.0
1137.873535 76.0
1138.484619 112.0
1139.102539 144.0
1139.821411 100.0
1139.86853 100.0
1141.286865 72.0
1142.248535 140.0
1142.726196 104.0
1145.210327 92.0
1145.924316 120.0
1146.193848 156.0
1146.497192 208.0
1147.46106 112.0
1148.067993 188.0
1148.25 44.0
1149.471191 160.0
1149.525146 120.0
1150.64563 80.0
1152.090942 80.0
1152.712524 132.0
1152.989624 76.0
1153.564087 180.0
1154.071167 220.0
1154.210815 136.0
1154.278809 124.0
1154.375488 56.0
1154.693359 108.0
1155.058594 108.0
1155.315674 156.0
1155.532104 196.0
1156.641968 144.0
1158.348511 136.0
1158.531372 200.0
1158.775269 152.0
1158.904053 64.0
1159.090332 88.0
1159.398682 144.0
1160.991821 156.0
1161.276733 220.0
1161.331055 92.0
1161.507324 80.0
1161.955078 52.0
1162.54541 48.0
1163.454956 124.0
1166.110962 144.0
1167.838013 84.0
1167.926514 168.0
1170.042847 208.0
1170.887207 196.0
1170.955322 184.0
1171.622925 96.0
1172.181641 132.0
1172.495117 132.0
1173.381226 72.0
1174.11084 136.0
1174.479248 76.0
1174.533813 116.0
1174.726929 116.0
1174.834839 148.0
1177.018066 124.0
1178.605835 152.0
1178.646606 116.0
1178.698486 48.0
1179.231445 108.0
1179.641602 188.0
1180.633057 56.0
1180.701416 176.0
1182.82251 56.0
1183.110107 48.0
1183.479736 104.0
1183.596191 128.0
1184.075562 128.0
1184.226196 108.0
1184.712646 128.0
1184.953857 112.0
1185.240234 196.0
1185.617065 188.0
1185.781616 120.0
1186.571411 188.0
1186.85791 148.0
1187.2948 112.0
1187.550537 172.0
1187.708252 156.0
1187.948364 196.0
1188.346313 72.0
1188.970703 76.0
1189.389404 140.0
1189.883667 180.0
1190.481079 144.0
1190.735229 28.0
1191.305298 200.0
1191.923706 52.0
1192.088623 140.0
1192.789673 164.0
1193.683472 52.0
1194.391846 200.0
1194.639526 132.0
1194.790894 140.0
1195.06604 96.0
1195.300049 88.0
1195.416992 80.0
1195.706055 200.0
1195.809326 48.0
1196.421997 148.0
1196.759277 144.0
1197.150024 136.0
1197.544434 76.0
1197.957764 128.0
1198.205688 184.0
1199.825317 140.0
1200.328735 56.0
1200.54248 124.0
1201.763428 140.0
1202.563965 164.0
1202.626099 224.0
1204.02771 56.0
1204.234863 56.0
1205.374756 84.0
1206.729614 128.0
1206.874756 192.0
1206.964722 48.0
1207.158325 120.0
1207.241333 164.0
1208.188843 116.0
1210.099121 196.0
1210.147583 56.0
1210.715454 48.0
1210.923218 160.0
1211.421875 56.0
1211.740601 72.0
1212.579102 40.0
1212.835571 48.0
1213.029663 108.0
1213.553467 152.0
1213.757568 156.0
1213.889404 96.0
1214.069702 84.0
1214.567139 160.0
1215.408569 44.0
1215.505737 148.0
1216.803711 92.0
1217.331421 196.0
1218.032837 80.0
1218.227417 200.0
1218.276001 124.0
1218.512207 128.0
1218.817993 84.0
1221.668579 92.0
1222.684448 68.0
1222.767944 164.0
1223.742554 168.0
1224.452881 164.0
1224.86377 68.0
1225.031006 228.0
1225.546631 164.0
1226.38623 148.0
1226.501343 36.0
1226.584961 60.0
1227.533203 144.0
1228.991089 128.0
1229.102783 156.0
1229.360962 188.0
1230.484741 32.0
1230.71521 116.0
1230.778076 112.0
1230.896729 176.0
1231.773315 144.0
1231.958374 96.0
1232.007324 228.0
1232.265747 76.0
1232.377563 128.0
1233.908203 196.0
1234.691406 76.0
1235.691772 152.0
1236.566528 60.0
1236.895508 48.0
1237.238525 32.0
1237.490479 64.0
1237.658569 152.0
1238.134766 44.0
1238.323853 52.0
1238.695068 40.0
1239.395752 44.0
1239.914307 128.0
1240.15979 172.0
1240.327881 152.0
1240.590698 104.0
1240.741455 160.0
1240.937744 36.0
1241.127075 132.0
1241.470703 56.0
1241.940674 84.0
1242.073853 160.0
1242.249268 212.0
1242.593018 172.0
1242.817505 76.0
1243.7229 152.0
1244.69873 152.0
1244.986694 184.0
1245.197388 48.0
1245.358887 136.0
1246.054443 76.0
1246.487549 156.0
1246.735962 108.0
1247.966187 112.0
1248.901489 212.0
1250.477539 156.0
1250.956299 124.0
1252.39978 36.0
1253.632812 176.0
1254.694458 176.0
1254.880371 128.0
1255.091919 212.0
1255.204834 128.0
1255.271973 200.0
1256.206299 148.0
1256.833008 116.0
1257.490601 88.0
1257.935303 108.0
1258.563599 56.0
1259.029663 188.0
1259.481689 144.0
1259.587646 160.0
1259.834961 80.0
1260.061035 132.0
1260.223511 208.0
1260.682861 196.0
1260.782715 152.0
1261.276489 132.0
1262.34668 112.0
1263.001831 96.0
1263.49707 144.0
1263.80127 112.0
1263.942871 72.0
1264.586792 204.0
1265.367188 220.0
1265.662964 60.0
1266.109009 148.0
1267.214111 192.0
1267.596802 228.0
1268.007812 48.0
1268.390503 48.0
1269.014404 168.0
1269.794434 32.0
1270.477905 172.0
1271.362427 40.0
1271.44751 196.0
1271.579956 288.0
1272.164429 172.0
1272.292236 132.0
1272.427124 84.0
1272.510498 180.0
1273.719604 152.0
1273.783569 80.0
1274.536743 136.0
1274.685913 160.0
1274.849365 192.0
1274.955933 140.0
1275.211792 116.0
1275.297119 108.0
1275.382446 124.0
1275.552979 136.0
1276.242676 148.0
1276.42041 152.0
1277.423218 156.0
1277.657959 76.0
1279.629517 200.0
1280.327271 172.0
1280.733276 92.0
1281.428223 132.0
1282.265259 136.0
1282.486206 96.0
1282.749878 176.0
1283.206177 164.0
1283.420044 176.0
1284.069092 144.0
1284.91333 180.0
1285.517334 160.0
1286.266479 108.0
1286.373779 176.0
1286.430908 64.0
1286.802124 192.0
1287.409058 72.0
1287.522705 92.0
1287.809082 148.0
1288.159058 56.0
1288.280518 180.0
1288.866333 176.0
1288.937866 100.0
1289.306519 188.0
1289.334717 52.0
1289.349731 100.0
1289.523804 124.0
1289.709717 48.0
1289.795532 204.0
1290.124268 64.0
1290.188599 100.0
1290.431763 144.0
1290.610474 96.0
1290.732056 120.0
1291.096802 60.0
1291.425781 132.0
1292.856689 76.0
1293.271851 140.0
1293.722778 148.0
1294.553345 144.0
1294.768677 140.0
1295.348389 80.0
1296.552124 196.0
1296.609497 128.0
1297.577271 212.0
1298.889648 92.0
1299.535278 188.0
1300.166748 136.0
1300.410767 116.0
1300.473999 128.0
1300.776855 96.0
1301.731812 80.0
1302.184204 204.0
1302.643921 140.0
1303.75769 136.0
1303.865479 104.0
1303.922974 156.0
1304.05957 192.0
1304.354248 44.0
1304.692139 88.0
1304.835938 132.0
1305.166626 152.0
1306.015259 128.0
1306.396484 52.0
1306.792236 200.0
1307.008057 156.0
1307.080078 80.0
1307.162231 160.0
1308.267578 48.0
1308.325195 92.0
1308.584351 144.0
1308.958984 164.0
1309.234619 152.0
1309.362183 136.0
1309.470215 184.0
1310.276978 120.0
1310.521973 192.0
1310.730957 120.0
1311.314697 84.0
1311.893311 188.0
1312.28064 48.0
1312.46814 128.0
1313.25415 84.0
1313.629272 48.0
1314.401245 132.0
1314.458984 100.0
1314.855957 192.0
1314.964233 68.0
1315.130249 184.0
1315.368408 164.0
1315.491089 64.0
1316.090332 156.0
1316.350342 124.0
1316.465454 132.0
1316.920044 108.0
1317.571045 44.0
1317.628784 72.0
1317.896118 120.0
1319.544067 88.0
1319.789917 160.0
1320.296143 68.0
1320.545776 192.0
1320.910889 152.0
1320.990479 220.0
1322.220581 168.0
1322.481201 136.0
1323.016846 176.0
1323.082031 120.0
1323.234009 48.0
1323.654053 200.0
1324.385498 164.0
1324.733154 56.0
1325.450439 72.0
1325.908813 128.0
1326.175171 200.0
1326.646362 68.0
1327.44397 160.0
1327.683228 84.0
1327.879028 116.0
1328.002441 188.0
1328.6698 120.0
1328.930908 44.0
1329.671143 156.0
1330.447876 96.0
1331.963379 116.0
1332.118164 180.0
1332.33606 212.0
1333.019165 148.0
1333.658691 44.0
1333.811279 136.0
1334.014893 88.0
1334.421997 60.0
1335.45459 176.0
1335.694702 120.0
1336.46582 220.0
1336.90979 128.0
1337.542969 132.0
1337.688599 120.0
1337.775879 132.0
1337.826904 160.0
1337.921509 128.0
1338.161743 120.0
1338.744385 116.0
1338.984619 116.0
1339.494507 172.0
1339.76123 172.0
1339.975342 188.0
1340.157471 96.0
1340.543701 76.0
1340.769653 160.0
1341.739136 88.0
1341.96106 176.0
1342.016235 72.0
1342.803711 72.0
1342.971558 108.0
1343.197632 180.0
1343.525879 100.0
1344.036621 148.0
1344.167969 108.0
1344.445312 168.0
1344.55481 208.0
1344.78833 108.0
1344.948975 176.0
1344.996582 156.0
1346.040283 172.0
1346.372681 216.0
1347.066528 72.0
1347.190796 216.0
1347.25647 176.0
1347.592651 68.0
1347.877563 96.0
1348.527954 152.0
1348.674194 200.0
1349.14209 124.0
1349.582886 188.0
1349.76355 128.0
1349.83667 152.0
1350.05603 76.0
1350.377808 196.0
1350.52417 156.0
1350.889893 72.0
1351.09668 112.0
1351.145874 208.0
1351.211792 124.0
1351.292236 88.0
1351.665405 108.0
1351.877686 168.0
1351.987427 188.0
1352.155762 44.0
1352.514404 76.0
1352.609619 60.0
1352.960938 140.0
1353.305054 160.0
1353.424316 140.0
1355.341309 160.0
1355.561157 84.0
1356.000854 124.0
1356.689941 108.0
1357.5625 76.0
1357.921875 160.0
1358.16394 56.0
1358.464722 164.0
1359.734131 148.0
1360.020386 68.0
1360.167114 116.0
1360.673706 156.0
1360.996826 144.0
1361.141602 200.0
1361.598999 128.0
1361.709106 224.0
1362.568604 144.0
1362.811035 52.0
1363.016846 164.0
1363.465088 272.0
1363.854614 180.0
1364.457397 204.0
1364.942749 148.0
1365.266235 76.0
1366.428467 132.0
1366.538818 212.0
1366.721069 236.0
1366.811157 36.0
1367.26001 164.0
1367.729126 248.0
1368.253784 164.0
1368.857544 192.0
1368.909058 32.0
1368.990112 88.0
1369.1521 156.0
1369.269897 168.0
1369.549805 120.0
1373.036133 64.0
1373.353271 76.0
1373.65564 84.0
1373.995239 184.0
1374.061401 128.0
1374.404785 112.0
1374.518921 148.0
1374.96167 136.0
1375.773682 132.0
1375.862305 132.0
1376.08374 124.0
1376.408691 184.0
1376.866455 204.0
1377.597778 108.0
1377.693848 184.0
1378.159302 128.0
1378.68396 172.0
1378.876099 136.0
1379.216064 100.0
1379.59314 108.0
1379.99231 160.0
1380.258545 136.0
1380.606079 72.0
1380.683228 188.0
1380.872314 288.0
1380.931519 148.0
1381.160767 164.0
1381.626831 160.0
1382.396362 124.0
1382.559204 108.0
1382.633179 44.0
1382.699829 168.0
1382.99585 160.0
1383.336426 192.0
1383.46228 56.0
1383.580688 120.0
1384.054565 132.0
1384.18042 128.0
1384.454468 200.0
1384.550781 80.0
1385.039551 108.0
1385.624756 164.0
1385.950806 176.0
1386.498169 236.0
1386.551025 112.0
1387.173706 132.0
1387.492432 120.0
1387.625977 136.0
1388.196899 140.0
1388.693848 108.0
1388.871826 96.0
1388.968262 60.0
1389.201904 188.0
1389.324341 160.0
1389.776978 84.0
1390.234985 200.0
1390.48938 324.0
1390.860474 164.0
1391.283569 152.0
1391.758789 52.0
1391.833008 120.0
1391.88501 100.0
1392.247437 212.0
1392.642578 292.0
1392.828247 152.0
1393.667725 64.0
1393.915405 184.0
1394.121094 88.0
1394.80481 124.0
1394.931152 144.0
1395.005493 52.0
1395.503662 136.0
1395.778809 112.0
1395.912598 164.0
1396.828491 176.0
1397.660767 120.0
1398.047729 160.0
1398.63562 104.0
1398.821777 124.0
1399.186523 72.0
1399.39502 84.0
1399.700317 80.0
1401.204956 140.0
1401.398682 144.0
1402.359985 132.0
1402.556641 176.0
1402.62085 116.0
1403.135254 204.0
1403.329102 124.0
1403.709351 188.0
1404.194092 140.0
1404.790894 176.0
1405.395264 104.0
1405.626587 84.0
1406.44751 156.0
1406.529663 92.0
1406.762695 204.0
1406.850586 176.0
1407.298584 216.0
1407.35083 144.0
1407.447876 108.0
1407.50769 148.0
1408.030396 156.0
1408.44751 160.0
1409.001465 148.0
1409.17334 176.0
1409.225586 120.0
1409.3302 128.0
1409.688965 84.0
1410.324219 152.0
1410.45874 88.0
1410.720337 104.0
1411.124146 180.0
1411.520386 152.0
1412.14856 140.0
1412.530029 168.0
1412.694702 136.0
1412.948975 112.0
1413.450317 52.0
1413.599976 84.0
1413.704834 188.0
1413.787109 176.0
1414.348389 148.0
1414.969849 124.0
1415.553833 128.0
1415.76355 148.0
1416.175415 140.0
1417.044434 132.0
1417.43103 216.0
1417.666382 120.0
1418.498413 136.0
1418.71582 44.0
1419.08313 60.0
1420.388062 48.0
1420.695679 68.0
1420.793213 108.0
1421.37085 188.0
1421.70105 68.0
1422.090576 180.0
1422.894653 164.0
1423.029785 172.0
1423.480225 192.0
1423.592896 164.0
1423.705566 60.0
1424.036011 132.0
1424.193726 200.0
1424.44165 244.0
1424.509277 212.0
1424.651978 96.0
1424.944946 132.0
1425.156494 140.0
1425.831665 172.0
1426.072266 236.0
1426.139893 68.0
1426.380371 140.0
1426.884155 244.0
1427.372803 204.0
1427.989502 140.0
1428.271851 104.0
1428.606323 212.0
1428.764282 100.0
1429.170654 100.0
1429.494141 188.0
1430.111328 132.0
1430.194092 120.0
1430.721069 104.0
1430.862427 108.0
1432.269165 196.0
1432.400391 116.0
1432.483276 152.0
1432.935303 168.0
1433.101074 36.0
1433.387451 156.0
1433.523071 120.0
1433.66626 224.0
1433.75769 148.0
1434.239136 92.0
1434.374756 136.0
1434.487793 124.0
1434.540649 84.0
1434.842163 160.0
1434.932617 132.0
1435.372437 100.0
1435.543457 168.0
1435.829956 56.0
1435.920532 136.0
1436.207153 60.0
1436.84082 168.0
1437.142578 84.0
1437.32373 192.0
1437.527466 196.0
1437.618042 36.0
1437.953857 204.0
1438.719971 120.0
1439.324097 44.0
1439.414673 176.0
1439.500732 140.0
1440.026367 148.0
1440.283203 220.0
1440.660889 184.0
1441.159546 160.0
1441.975708 176.0
1442.09668 164.0
1442.693848 52.0
1443.616333 176.0
1443.775879 196.0
1444.675171 172.0
1444.834106 200.0
1445.250244 120.0
1446.082642 184.0
1446.461182 152.0
1446.582275 224.0
1446.922974 180.0
1447.028931 76.0
1447.718018 204.0
1447.89978 84.0
1447.960327 148.0
1448.316406 144.0
1448.536011 172.0
1448.604248 120.0
1449.089111 192.0
1449.520996 72.0
1449.778687 156.0
1449.892334 124.0
1450.263672 100.0
1450.331909 124.0
1450.6427 104.0
1450.915649 56.0
1451.105225 140.0
1451.575317 236.0
1452.887451 188.0
1453.153076 100.0
1453.510864 212.0
1454.24585 68.0
1454.723999 100.0
1455.15686 48.0
1455.749023 168.0
1455.976929 100.0
1456.204712 136.0
1457.724243 132.0
1457.822998 128.0
1458.30188 148.0
1459.016357 156.0
1459.43457 88.0
1459.571411 364.0
1460.385132 168.0
1460.902466 56.0
1461.66333 136.0
1461.89917 48.0
1462.188354 132.0
1462.328735 220.0
1462.462402 136.0
1462.675537 28.0
1464.42688 172.0
1464.594482 36.0
1465.440063 120.0
1465.752441 128.0
1466.019165 164.0
1466.644165 68.0
1466.956665 88.0
1467.44458 192.0
1468.375 124.0
1468.550415 96.0
1468.969971 104.0
1469.626099 148.0
1469.793945 68.0
1470.473145 56.0
1470.717407 112.0
1471.11438 88.0
1471.931274 36.0
1472.624878 180.0
1472.99292 188.0
1473.069336 108.0
1473.573486 124.0
1473.68103 112.0
1473.848633 168.0
1474.268921 180.0
1474.330078 156.0
1475.041016 184.0
1475.231934 40.0
1475.400146 92.0
1475.965942 140.0
1476.126587 28.0
1476.190186 172.0
1476.761353 136.0
1476.960205 148.0
1477.289185 80.0
1477.518677 52.0
1477.633423 144.0
1477.817017 124.0
1478.376343 144.0
1479.313721 212.0
1479.638672 124.0
1479.784058 144.0
1479.925171 132.0
1480.595825 152.0
1480.802612 156.0
1480.914551 176.0
1481.001709 60.0
1481.078369 96.0
1481.315796 164.0
1481.560913 72.0
1481.890381 152.0
1482.021973 344.0
1483.080811 144.0
1483.780151 188.0
1484.304932 60.0
1485.578125 100.0
1486.030762 88.0
1486.176514 120.0
1486.276367 176.0
1486.337646 100.0
1486.498901 100.0
1486.552612 168.0
1486.897949 52.0
1487.323608 140.0
1487.542725 160.0
1487.627075 212.0
1488.815063 124.0
1489.178223 220.0
1489.287109 192.0
1489.861938 72.0
1489.969482 180.0
1490.092407 80.0
1490.345947 48.0
1491.217163 152.0
1491.347656 240.0
1491.475708 140.0
1492.228027 144.0
1493.005737 148.0
1493.336426 140.0
1493.605713 60.0
1493.921021 56.0
1494.221069 176.0
1495.55249 144.0
1495.96814 116.0
1496.130737 156.0
1496.599487 184.0
1497.168945 148.0
1497.515869 208.0
1497.793213 140.0
1498.031982 100.0
1498.255371 56.0
1498.548218 152.0
1498.786987 96.0
1498.848633 188.0
1499.862061 156.0
1500.220581 100.0
1500.421021 156.0
1501.084229 52.0
1501.307861 232.0
1501.377197 112.0
1501.901733 80.0
1502.009644 156.0
1502.60376 76.0
1502.727173 180.0
1502.935547 108.0
1503.483398 188.0
1503.599121 180.0
1503.763794 96.0
1504.208984 52.0
1504.564087 100.0
1504.764771 252.0
1504.826538 100.0
