>compound Rifaximin (Xifaxan)
>formula C43H51N3O11
>ionization [M+Na]+
>parentmass 808.342407
#inchi InChI=1S/C43H51N3O11/c1-19-14-16-46-28(18-19)44-32-29-30-37(50)25(7)40-31(29)41(52)43(9,57-40)55-17-15-27(54-10)22(4)39(56-26(8)47)24(6)36(49)23(5)35(48)20(2)12-11-13-21(3)42(53)45-33(34(32)46)38(30)51/h11-18,20,22-24,27,35-36,39,48-51H,1-10H3,(H,45,53)/b12-11+,17-15+,21-13-/t20-,22-,23+,24-,27+,35+,36-,39-,43-/m1/s1
#inchikey NZCRJKRKKOLAOJ
#Ion_Source LC-ESI
#Instrument qTof
#Compound_Source Commercial
#PI Dorrestein
#Data_Collector Garg_Neha
#Scan -1
#Precursor_MZ 808.342
#ExactMass 785.352
#Charge 1
#CAS_Number 80621-81-4
#Pubmed_ID N/A
#Smiles [C@@H]1([C@H]([C@@H]([C@@H]([C@H](/C=C/O[C@@]2(OC3C(=C(C4C(=C(NC(/C(=C\C=C\[C@H]([C@@H]([C@@H]1C)O)C)C)=O)C5=C(C=4C=3C2=O)N=C6N5C=CC(=C6)C)O)O)C)C)OC)C)OC(C)=O)C)O
#INCHI_AUX N/A
#Library_Class 1
#SpectrumID CCMSLIB00000078290
#IonMode Positive
#UpdateWorkflowName UPDATE-SINGLE-ANNOTATED-GOLD
#LibraryQualityString Gold
#TaskID 77f51c88eb8b467eb4a01dd2d0cb90d2
##Scan# 1627
#SpectrumFile Plate4_61_88_GH5_01_16506.mzXML
#LibraryName FDALibrary_2_04302014.mgf
#MQScore -1
#Organism FDALibrary_2_04302014
#TIC_Query 0
#RT_Query -1
#MZErrorPPM -1
#SharedPeaks 0
#MassDiff 0
#LibMZ -1
#SpecMZ 808.342
#SpecCharge 0
#internalFilename spec-00000.mgf

>collision 10
57.161335 176.0
63.009811 176.0
69.194405 156.0
79.394005 152.0
80.049744 148.0
83.696327 184.0
84.199631 164.0
86.490585 228.0
94.791748 160.0
101.118042 200.0
101.823761 180.0
110.47123 148.0
117.715469 208.0
121.0951 236.0
125.094002 156.0
126.158089 192.0
145.056793 256.0
145.099945 176.0
148.386078 216.0
151.073608 308.0
152.072037 204.0
155.711319 188.0
156.858353 184.0
157.172592 212.0
158.052124 144.0
159.067123 192.0
160.075317 152.0
161.094254 152.0
163.110504 320.0
167.610611 140.0
169.476166 196.0
174.277191 204.0
175.074219 204.0
175.110336 140.0
176.097488 244.0
177.088699 152.0
179.108566 176.0
180.103943 140.0
181.167511 204.0
181.368484 160.0
182.090225 156.0
187.060043 184.0
187.109253 152.0
190.082169 508.0
190.486404 144.0
191.098145 236.0
192.171234 144.0
193.12706 212.0
201.090363 148.0
203.106918 128.0
204.116989 176.0
204.901505 164.0
205.123779 140.0
206.537216 176.0
207.094696 156.0
208.102585 172.0
211.544174 144.0
214.97966 172.0
218.097641 228.0
220.6073 184.0
221.113083 140.0
222.46907 144.0
224.103394 188.0
227.152771 172.0
233.111557 120.0
233.331589 140.0
234.116623 144.0
234.159256 316.0
235.089752 180.0
235.127121 160.0
235.479858 156.0
237.101349 180.0
238.159836 144.0
239.125259 164.0
239.704224 176.0
246.118317 324.0
247.122406 156.0
247.403992 140.0
248.121414 148.0
250.163406 180.0
251.121292 200.0
256.846497 156.0
257.146423 164.0
262.146484 160.0
263.123474 232.0
263.934448 172.0
265.108246 124.0
265.13855 560.0
266.141022 220.0
266.518707 184.0
267.965668 148.0
269.992737 164.0
277.198944 152.0
280.739288 140.0
280.852661 160.0
283.168915 256.0
290.17807 152.0
291.087402 172.0
293.135254 388.0
294.137787 396.0
296.275146 204.0
297.176819 240.0
301.180725 268.0
302.19339 140.0
306.481445 172.0
307.147369 280.0
308.156189 172.0
310.354218 148.0
311.154175 152.0
312.088745 196.0
315.194061 172.0
315.526306 152.0
316.187195 424.0
317.193665 156.0
318.840546 176.0
321.158752 128.0
322.282837 152.0
323.146484 120.0
324.315491 200.0
325.164886 744.0
326.175629 156.0
329.598541 176.0
332.089203 184.0
340.623199 196.0
343.203033 168.0
345.216614 212.0
346.670319 152.0
346.855621 160.0
347.103607 1836.0
348.099884 500.0
349.116699 180.0
355.188446 240.0
356.199371 208.0
361.19162 532.0
362.115387 472.0
362.200256 172.0
363.122162 200.0
363.197632 144.0
365.701538 220.0
367.98877 160.0
368.343414 148.0
368.645752 168.0
368.951538 152.0
369.012695 144.0
369.083862 6044.0
369.20517 192.0
370.083771 2472.0
370.170837 172.0
370.186127 184.0
370.194061 296.0
371.093384 384.0
371.908783 156.0
372.085022 96.0
372.219727 196.0
378.35791 156.0
378.803253 156.0
380.008911 144.0
382.044678 148.0
382.083038 116.0
382.266449 164.0
382.963318 332.0
383.086304 5892.0
383.322388 164.0
383.953247 176.0
384.094086 2736.0
384.218475 196.0
385.096802 1232.0
385.221771 168.0
386.093536 160.0
386.234192 140.0
386.581085 120.0
386.758484 156.0
387.087006 148.0
387.207031 636.0
388.221863 332.0
389.247955 192.0
395.049561 140.0
398.092407 160.0
398.118469 112.0
398.228546 188.0
398.772858 176.0
399.115082 164.0
401.236847 156.0
401.75528 164.0
402.226898 484.0
403.229919 260.0
405.133331 160.0
406.192963 428.0
406.962128 172.0
407.219147 184.0
408.042908 160.0
409.105255 176.0
410.051544 144.0
410.116028 152.0
411.090912 136.0
411.128235 148.0
412.091644 120.0
413.12027 164.0
415.211304 308.0
416.212646 140.0
418.009277 164.0
421.09082 144.0
426.109924 120.0
427.119049 312.0
429.060089 176.0
429.476562 160.0
430.08725 148.0
430.220581 552.0
431.219696 132.0
433.031097 140.0
436.117249 140.0
437.111908 168.0
439.178284 176.0
440.104736 144.0
443.761566 152.0
445.381409 156.0
445.864563 172.0
447.029449 200.0
447.165527 96.0
447.233124 656.0
448.233459 312.0
449.152832 160.0
451.166107 116.0
453.046082 172.0
462.191376 160.0
462.24118 236.0
463.241455 144.0
464.166016 164.0
465.148468 172.0
466.076141 140.0
466.127686 192.0
466.196442 152.0
466.278107 140.0
467.145905 140.0
468.168762 128.0
468.756866 164.0
475.741943 168.0
476.112335 132.0
477.125977 564.0
478.045532 180.0
478.12912 676.0
478.306671 240.0
478.504608 140.0
479.133545 284.0
479.613403 144.0
480.173279 176.0
488.148682 236.0
488.74884 196.0
489.048096 160.0
489.167358 196.0
492.171387 132.0
497.168793 272.0
499.183685 152.0
502.225464 204.0
504.154175 164.0
505.161438 460.0
505.343597 168.0
506.164978 1492.0
507.174774 708.0
507.699738 144.0
508.076508 176.0
508.173309 432.0
509.187408 244.0
512.108643 184.0
512.176147 236.0
516.170227 248.0
517.162476 172.0
518.153931 116.0
519.164551 116.0
520.161621 164.0
521.183472 172.0
522.116943 180.0
522.870239 120.0
523.136597 112.0
525.057312 140.0
530.131775 148.0
531.938843 148.0
532.172974 148.0
534.158264 540.0
535.170044 552.0
536.096619 172.0
536.174316 784.0
537.177795 300.0
538.189636 236.0
539.105408 168.0
540.14209 220.0
541.146667 148.0
542.178772 168.0
544.8927 184.0
545.589844 228.0
546.196594 216.0
546.836426 152.0
547.180908 160.0
547.87262 120.0
548.207031 148.0
550.131592 484.0
551.132751 320.0
551.203857 164.0
552.15979 148.0
555.201599 148.0
556.212585 168.0
557.184692 148.0
559.522034 144.0
560.195496 184.0
561.152161 140.0
562.204041 184.0
563.202332 304.0
564.093262 148.0
564.21167 380.0
565.105286 180.0
565.213989 120.0
566.099304 188.0
566.223633 144.0
567.023132 160.0
567.087463 116.0
567.253845 128.0
568.136719 140.0
568.190979 160.0
569.062866 172.0
569.167297 164.0
569.357239 192.0
570.237732 108.0
570.340759 144.0
571.229919 172.0
573.863525 152.0
574.21637 168.0
574.564575 144.0
575.180298 136.0
576.880737 148.0
578.183777 728.0
579.086548 144.0
579.190857 100.0
579.719482 140.0
580.864807 156.0
583.155151 140.0
585.24292 172.0
588.275391 176.0
590.159546 172.0
591.819153 156.0
592.206848 804.0
593.209473 808.0
594.21698 644.0
595.212524 152.0
595.24176 168.0
595.436707 148.0
595.878723 160.0
596.205383 156.0
596.291748 164.0
602.277954 140.0
603.250183 272.0
604.256042 548.0
605.252869 280.0
606.254028 136.0
608.254333 308.0
609.972778 192.0
610.23584 164.0
616.283997 176.0
619.289612 136.0
619.779053 188.0
620.281738 176.0
620.522461 196.0
621.245789 356.0
622.231995 204.0
622.263489 408.0
624.229248 104.0
632.468384 148.0
635.264465 220.0
636.220093 472.0
637.230042 252.0
639.450012 184.0
640.315979 140.0
641.26001 104.0
642.483398 168.0
644.281677 392.0
645.242065 140.0
645.281128 224.0
645.645325 144.0
648.275146 224.0
650.377441 188.0
650.428223 148.0
650.544922 172.0
653.253479 168.0
653.767334 240.0
658.501221 132.0
659.995728 156.0
660.275452 160.0
661.499817 176.0
662.280884 4640.0
663.288452 6108.0
664.290955 1964.0
664.549072 168.0
665.268738 356.0
665.299927 384.0
665.545593 124.0
665.59967 108.0
666.304749 144.0
668.299805 144.0
668.773254 180.0
670.297485 136.0
670.514099 168.0
673.285095 388.0
674.441772 152.0
675.310425 152.0
676.287354 108.0
678.55719 140.0
678.98761 152.0
680.262634 152.0
681.28064 556.0
681.796204 224.0
682.276367 232.0
683.226135 152.0
683.864441 100.0
684.339844 172.0
684.610596 144.0
685.689941 140.0
685.90271 148.0
688.303589 132.0
689.289917 124.0
690.761658 168.0
691.004822 172.0
691.305359 100.0
691.863098 148.0
691.915466 140.0
692.23291 184.0
692.31189 168.0
693.276001 140.0
694.277893 208.0
694.312622 296.0
697.150146 144.0
698.280151 256.0
699.285339 140.0
701.315552 144.0
702.31897 180.0
702.963806 168.0
704.220581 132.0
704.298828 124.0
705.301025 216.0
706.337219 112.0
707.101746 152.0
707.281311 124.0
708.316772 96.0
710.4823 192.0
712.026978 152.0
712.268127 128.0
712.308472 152.0
713.285095 136.0
714.291138 140.0
714.79126 148.0
715.382019 224.0
715.573669 196.0
715.74408 192.0
716.291626 6464.0
716.380737 328.0
716.542969 140.0
716.64801 196.0
716.808411 172.0
716.951172 156.0
717.297852 2476.0
718.298889 712.0
718.573242 124.0
720.320923 424.0
721.308472 380.0
722.305786 984.0
723.29834 588.0
724.063965 164.0
724.29834 440.0
725.290222 96.0
729.214417 152.0
730.301514 212.0
731.324707 344.0
731.551941 140.0
733.300415 148.0
733.482666 140.0
735.664673 120.0
738.926147 140.0
740.393005 144.0
742.305969 156.0
745.101257 176.0
746.628662 172.0
748.320557 3564.0
749.165039 152.0
749.325562 3480.0
750.330139 1808.0
750.449341 136.0
750.484558 292.0
751.19397 116.0
751.332764 380.0
751.438416 208.0
752.332703 228.0
753.334229 120.0
754.319763 240.0
754.37677 188.0
755.340576 220.0
756.80011 148.0
758.29895 272.0
759.07959 216.0
759.302307 196.0
761.241638 172.0
764.372803 168.0
765.33075 344.0
765.57489 144.0
766.329834 256.0
767.409851 224.0
768.871582 196.0
769.837708 140.0
770.423157 148.0
773.514343 176.0
774.544312 180.0
774.799072 204.0
775.643311 160.0
776.198792 212.0
776.314148 6776.0
776.486328 176.0
777.322083 4048.0
777.585693 176.0
778.320923 1848.0
778.925537 140.0
779.05603 120.0
779.33136 360.0
780.02533 160.0
780.966248 160.0
781.126648 120.0
781.208801 140.0
786.358398 424.0
787.355652 96.0
789.595642 108.0
790.331116 216.0
791.018005 184.0
791.337891 140.0
792.281128 184.0
793.173645 180.0
794.298828 120.0
794.753601 152.0
794.892517 112.0
794.965942 200.0
795.917419 128.0
796.2323 136.0
796.462341 96.0
797.11499 148.0
797.583191 124.0
797.775146 172.0
798.249207 108.0
798.470093 120.0
798.524841 120.0
798.800049 152.0
799.288025 144.0
800.438477 156.0
800.523315 116.0
800.778503 192.0
801.898987 116.0
804.422363 144.0
804.665649 168.0
804.838257 120.0
805.338013 1080.0
805.436584 168.0
805.55658 212.0
805.747803 148.0
805.83136 1188.0
806.203796 128.0
806.345337 308.0
806.833435 296.0
807.034912 252.0
807.119934 324.0
807.201904 164.0
807.316528 124.0
807.350342 108.0
807.404114 220.0
807.490479 160.0
807.579407 136.0
807.647034 124.0
807.742859 128.0
807.882385 128.0
807.920044 304.0
807.98822 200.0
808.101074 160.0
808.21991 208.0
808.342407 69332.0
808.46167 304.0
808.70929 212.0
808.761963 220.0
808.843201 148.0
808.898987 124.0
808.957092 100.0
809.039307 164.0
809.072571 360.0
809.187622 152.0
809.343323 30020.0
809.538513 272.0
809.658752 124.0
809.757629 172.0
809.838684 192.0
809.890564 112.0
809.942322 148.0
810.024353 148.0
810.095215 132.0
810.161621 136.0
810.34668 8392.0
810.511902 168.0
810.635315 128.0
810.708923 104.0
810.890686 104.0
810.957764 116.0
811.068787 136.0
811.215332 168.0
811.349182 2084.0
811.730713 132.0
812.074646 96.0
812.349121 424.0
812.488892 120.0
812.751038 100.0
812.960693 180.0
813.249878 352.0
813.327515 96.0
813.455811 120.0
813.612488 136.0
813.688721 100.0
814.204895 108.0
814.265991 136.0
814.498779 156.0
814.736389 104.0
814.882263 148.0
815.423767 116.0
815.649475 140.0
816.32959 140.0
821.28302 100.0
840.286926 184.0
840.468628 112.0
841.289185 140.0
842.324768 132.0
843.329895 140.0
844.364136 160.0
903.621521 148.0
1106.203125 152.0
1293.117676 144.0
1301.124512 172.0
1318.1875 140.0
1319.394531 148.0
1481.747437 152.0
1718.311279 168.0
1833.291382 216.0
1972.943604 180.0
1987.734619 168.0
